# vtk DataFile Version 2.0
Wound Healing Simulation
ASCII
DATASET UNSTRUCTURED_GRID
POINTS 3012 float
69.9759 18.75 4
67.2507 60.3285 4
69.976 18.75 2
73.0099 25.446 4
71.1327 20.9142 4
68.6801 16.6661 4
67.8185 19.9242 3.96771
67.2507 60.3286 2
71.1327 54.0858 4
68.6801 58.3339 4
65.6939 62.2254 4
65.3041 58.9998 3.96614
74.6784 42.3946 4
73.7221 47.2057 4
69.9759 18.75 0
73.0099 25.446 2
68.6801 16.6661 2
71.1327 20.9142 2
67.819 19.9289 2
74.6792 32.6053 4
73.7222 27.7943 4
72.1454 23.1494 4
70.6102 26.2222 3.97021
68.8798 21.9569 3.96845
67.2507 14.6715 4
66.629 17.9704 3.96658
65.6689 21.0723 3.96057
67.2507 60.3285 0
71.1327 54.0858 2
68.6801 58.3339 2
65.694 62.2255 2
65.3059 58.9928 2
72.1454 51.8506 4
69.9759 56.25 4
68.8302 53.1149 3.96841
64.0165 64.0165 4
66.6028 57.1347 3.96751
63.8771 60.7607 3.96235
63.3879 57.7189 3.95645
60.3285 67.2507 4
74.6792 42.3947 2
73.7222 47.2057 2
74.9194 39.9526 4
74.2788 44.8158 4
72.1651 42.0856 3.97283
73.0099 49.554 4
71.2456 46.5979 3.97111
73.0099 25.446 0
71.1327 20.9142 0
68.6801 16.6661 0
67.8185 19.9242 0.0322883
74.6792 32.6053 2
73.7222 27.7943 2
67.2508 14.6715 2
72.1455 23.1494 2
70.6094 26.2235 2
66.6304 17.976 2
68.8797 21.9603 2
65.6712 21.0737 2
74.9197 35.0474 4
74.2794 30.1841 4
72.1818 32.9452 3.97298
71.2749 28.4333 3.97105
69.8107 24.0597 3.96936
68.2542 26.9797 3.96514
66.6478 22.9733 3.96263
65.694 12.7746 4
65.3147 16.1037 3.96482
64.5718 19.2495 3.95737
63.5825 22.16 3.96843
71.1327 54.0858 0
65.6939 62.2254 0
68.6801 58.3339 0
65.3041 58.9998 0.0338555
72.1455 51.8506 2
69.9759 56.25 2
68.8303 53.1109 2
64.0165 64.0165 2
66.6044 57.1284 2
63.879 60.7531 2
63.3879 57.7179 2
62.2254 65.694 4
58.8859 65.4088 3.97148
69.7638 50.99 3.96939
67.7765 55.1693 3.96788
66.5217 52.1679 3.96309
62.3278 62.4219 3.96564
64.5268 55.9801 3.95899
62.1332 59.3507 3.952
61.5538 56.5432 3.96255
58.3339 68.6801 4
60.3285 67.2508 2
73.7221 47.2057 0
74.6784 42.3946 0
74.9197 39.9526 2
74.2794 44.8159 2
72.1639 42.0845 2
73.0099 49.554 2
71.2447 46.5961 2
75 37.5 4
72.4023 39.8026 3.97372
71.7791 44.3526 3.97216
69.763 41.784 3.96897
70.5709 48.8138 3.97036
68.8345 45.9964 3.96811
74.6792 32.6053 0
73.7222 27.7943 0
67.2507 14.6715 0
72.1454 23.1494 0
70.6102 26.2222 0.0297908
68.8798 21.9569 0.0315464
66.629 17.9704 0.0334161
65.6689 21.0723 0.0394328
74.9197 35.0474 2
74.2794 30.1841 2
72.1804 32.9454 2
71.2738 28.4343 2
65.694 12.7745 2
65.3157 16.1108 2
69.8102 24.0619 2
68.2561 26.9807 2
64.567 19.252 2
66.6501 22.9746 2
63.5823 22.1614 2
72.4103 35.2256 3.97383
71.8007 30.6784 3.97236
69.7989 33.2786 3.96857
68.8904 29.0598 3.9667
67.5053 24.9465 3.96369
65.8796 27.7235 3.9758
64.0165 10.9835 4
64.45 23.943 3.97233
63.8798 14.331 3.96242
63.3828 17.5041 3.95388
62.6126 20.4558 3.96497
61.6147 23.1508 3.97378
60.6759 11.1054 3.96745
57.5992 11.5141 3.96035
72.1454 51.8506 0
69.9759 56.25 0
68.8302 53.1149 0.0315905
64.0165 64.0165 0
63.8771 60.7607 0.0376544
66.6028 57.1347 0.0324928
63.3879 57.7189 0.0435534
62.2255 65.694 2
58.8901 65.4024 2
69.7635 50.9871 2
67.7772 55.164 2
66.5231 52.1664 2
62.3311 62.4132 2
64.5226 55.9776 2
62.1343 59.3495 2
61.5606 56.5441 2
60.6604 63.9708 3.96459
57.0181 66.7266 3.9707
57.5407 63.6263 3.96742
67.3873 50.1415 3.96464
65.5735 54.1276 3.96149
64.2046 51.2679 3.97297
60.7458 60.8854 3.95131
62.5205 54.9352 3.96736
60.3832 58.0045 3.95787
59.9166 55.5755 3.96926
56.25 69.9759 4
58.3339 68.6801 2
60.3285 67.2507 0
58.9147 9.66485 3.96794
62.2254 9.30607 4
73.0099 49.554 0
74.2788 44.8158 0
71.2456 46.5979 0.028887
72.1651 42.0856 0.0271657
74.9194 39.9526 0
75 37.5 2
72.4016 39.8018 2
71.7784 44.3511 2
69.7637 41.7834 2
70.5704 48.8117 2
68.8366 45.9954 2
72.4859 37.5129 3.97363
70.0097 39.656 3.96896
69.3758 43.8964 3.96887
67.303 41.4664 3.97657
68.1635 48.08 3.96653
66.3833 45.3702 3.97605
74.9197 35.0474 0
74.2794 30.1841 0
72.1818 32.9452 0.0270174
71.2749 28.4333 0.028951
65.694 12.7746 0
65.3147 16.1037 0.0351798
69.8107 24.0597 0.0306439
68.2542 26.9797 0.034858
66.6478 22.9733 0.0373734
64.5718 19.2495 0.0426284
63.5825 22.16 0.0315679
72.4095 35.2253 2
71.7999 30.6792 2
69.8003 33.2791 2
68.893 29.0605 2
64.0165 10.9835 2
63.8823 14.3387 2
63.4003 17.5003 2
67.5076 24.9476 2
65.8763 27.7254 2
62.6192 20.4556 2
64.4489 23.9447 2
61.6147 23.1532 2
60.6793 11.112 2
57.5929 11.5047 2
70.0228 35.398 3.96866
69.4123 31.1646 3.96775
67.368 33.6272 3.97634
66.4619 29.6962 3.97615
65.2145 25.8006 3.97441
63.6245 28.3928 3.97518
62.3318 12.6607 3.96471
62.3574 24.8282 3.97395
62.1325 15.8359 3.95201
61.523 18.8339 3.96121
60.7581 21.562 3.97168
59.794 24.0104 3.97384
59.2247 12.838 3.95594
55.8638 10.3013 3.97073
56.3581 13.2288 3.95634
69.7638 50.99 0.0306138
62.2254 65.694 0
58.8859 65.4088 0.028515
67.7765 55.1693 0.0321181
66.5217 52.1679 0.0369102
62.3278 62.4219 0.0343608
62.1332 59.3507 0.0479965
64.5268 55.9801 0.0410101
61.5538 56.5432 0.0374452
60.6644 63.962 2
57.0219 66.7213 2
57.5449 63.6432 2
67.388 50.14 2
65.5735 54.1258 2
64.2031 51.2666 2
60.7299 60.8906 2
62.525 54.9358 2
60.3828 58.0032 2
59.9131 55.5728 2
55.0645 67.9298 3.97964
59.2056 62.2933 3.97021
55.7798 64.8332 3.96563
56.2895 61.9875 3.97758
64.9854 49.3022 3.97479
63.3808 53.1652 3.97034
61.8884 50.4538 3.97343
59.1627 59.4177 3.95535
60.613 54.0972 3.9725
58.8174 56.7677 3.95982
58.7066 54.9183 3.97075
48.095 68.5653 3.9771
50.9429 69.929 3.98344
54.0858 71.1327 4
56.25 69.976 2
58.3339 68.6801 0
57.0539 8.34116 3.97454
60.3285 7.74928 4
58.9174 9.67172 2
62.2255 9.30602 2
70.5709 48.8138 0.0296436
71.7791 44.3526 0.027837
68.8345 45.9964 0.0318864
69.763 41.784 0.0310299
72.4023 39.8026 0.0262837
75 37.5 0
72.4846 37.5124 2
70.011 39.6556 2
69.3757 43.8955 2
67.2994 41.4659 2
68.1628 48.0785 2
66.3792 45.3693 2
70.0981 37.5239 3.96886
67.5499 39.4993 3.97651
66.914 43.4204 3.97639
65.0731 41.166 3.97607
65.7242 47.3279 3.97565
64.1273 44.7499 3.97553
72.4103 35.2256 0.0261672
71.8007 30.6784 0.0276384
69.7989 33.2786 0.0314346
68.8904 29.0598 0.0332963
64.0165 10.9835 0
63.8798 14.331 0.0375816
63.3828 17.5041 0.0461196
67.5053 24.9465 0.0363143
65.8796 27.7235 0.0241956
64.45 23.943 0.0276697
62.6126 20.4558 0.0350267
61.6147 23.1508 0.0262236
60.6759 11.1054 0.0325474
57.5992 11.5141 0.0396485
70.0242 35.3982 2
69.4141 31.1652 2
67.3648 33.6277 2
66.4582 29.6975 2
62.3352 12.6682 2
62.1417 15.8365 2
61.5275 18.8347 2
65.2118 25.8025 2
63.6237 28.3933 2
60.7576 21.5649 2
62.3563 24.8294 2
59.7915 24.0121 2
59.2211 12.8299 2
56.3519 13.2252 2
55.8644 10.3043 2
67.5913 35.5677 3.97653
66.9664 31.6781 3.9763
65.2308 33.9786 3.97616
64.1489 30.3026 3.97528
63.0234 26.5826 3.97471
61.5572 28.967 3.97487
60.7374 14.2793 3.95217
60.3742 25.5941 3.97404
60.3521 17.2848 3.95917
59.7548 20.0584 3.96724
59.047 22.5596 3.97255
58.2065 24.6672 3.97372
54.0379 9.1674 3.97757
57.8071 14.471 3.95297
54.7624 12.1374 3.96952
55.1966 14.8346 3.95382
67.3873 50.1415 0.0353617
57.0181 66.7266 0.029302
60.6604 63.9708 0.0354148
57.5407 63.6263 0.0325798
65.5735 54.1276 0.0385125
64.2046 51.2679 0.0270287
60.7458 60.8854 0.0486936
60.3832 58.0045 0.042135
62.5205 54.9352 0.0326382
59.9166 55.5755 0.0307435
55.0692 67.9231 2
59.1982 62.3028 2
55.7842 64.8274 2
56.2865 61.9938 2
64.983 49.3006 2
63.3808 53.1645 2
61.8875 50.4531 2
59.1834 59.4233 2
60.6116 54.0951 2
58.8249 56.7682 2
58.7149 54.9183 2
53.0363 68.9948 3.97981
53.9481 65.9669 3.96793
57.7883 60.7647 3.94882
54.6413 63.073 3.96657
55.1306 60.4862 3.97365
62.6311 48.4889 3.97405
61.2273 52.3628 3.97287
59.5137 49.7368 3.97272
57.6848 58.0505 3.9567
58.7352 53.6675 3.97239
57.485 55.5003 3.96287
50.0988 67.8415 3.97223
47.4469 66.547 3.97324
46.0508 69.1457 3.9799
48.0997 68.565 2
48.7973 70.7205 3.98637
50.9485 69.9258 2
51.8506 72.1454 4
54.0858 71.1327 2
56.25 69.9759 0
55.1001 7.14329 3.98723
58.3339 6.31992 4
57.0582 8.34604 2
60.3286 7.74926 2
58.9147 9.66485 0.0320577
62.2254 9.30607 0
68.1635 48.08 0.0334678
69.3758 43.8964 0.031133
66.3833 45.3702 0.0239549
67.303 41.4664 0.0234343
70.0097 39.656 0.0310415
72.4859 37.5129 0.0263713
70.1004 37.5238 2
67.5461 39.4991 2
66.9114 43.4192 2
65.0731 41.1657 2
65.7213 47.3262 2
64.127 44.7497 2
67.6527 37.5261 3.97646
65.3152 39.3505 3.97628
64.678 42.9517 3.97594
63.101 40.8689 3.97634
63.4115 46.5833 3.97444
62.0959 44.0875 3.9757
70.0228 35.398 0.0313447
69.4123 31.1646 0.0322482
67.368 33.6272 0.0236567
66.4619 29.6962 0.0238456
62.3318 12.6607 0.0352892
62.1325 15.8359 0.0479945
61.523 18.8339 0.038788
65.2145 25.8006 0.0255921
63.6245 28.3928 0.0248179
62.3574 24.8282 0.0260499
60.7581 21.562 0.0283162
59.794 24.0104 0.0261626
59.2247 12.838 0.0440645
56.3581 13.2288 0.0436642
55.8638 10.3013 0.0292731
67.588 35.568 2
66.9633 31.6792 2
65.2299 33.9788 2
64.149 30.3027 2
60.731 14.2785 2
60.3442 17.2884 2
59.7524 20.0618 2
63.0224 26.5833 2
61.5574 28.967 2
59.046 22.5626 2
60.3736 25.5947 2
58.2019 24.6694 2
57.8031 14.4622 2
55.1828 14.8171 2
54.0417 9.16008 2
54.7532 12.132 2
65.4142 35.6952 3.9762
64.6877 32.2317 3.97558
63.6876 34.3099 3.97612
61.8816 30.7842 3.97529
60.9562 27.2916 3.97443
60.0081 29.3673 3.97536
59.1171 15.8234 3.95582
58.4994 26.114 3.9746
58.6755 18.6103 3.96159
58.1245 21.1751 3.96839
57.5452 23.4595 3.97245
57.1126 25.0492 3.9746
52.1043 8.19153 3.96488
53.045 11.0892 3.95758
56.4685 15.9526 3.95505
53.7404 13.8348 3.95294
54.1665 16.2289 3.95783
55.0645 67.9298 0.0203636
64.9854 49.3022 0.0252072
55.7798 64.8332 0.0343709
59.2056 62.2933 0.0297938
56.2895 61.9875 0.0224189
63.3808 53.1652 0.0296646
61.8884 50.4538 0.0265735
59.1627 59.4177 0.0446534
58.8174 56.7677 0.0401757
60.613 54.0972 0.0275028
58.7066 54.9183 0.0292532
53.0421 68.9907 2
53.9521 65.9605 2
57.7911 60.7848 2
54.6351 63.068 2
55.1277 60.4905 2
62.6306 48.4882 2
61.2267 52.3615 2
59.5136 49.7359 2
57.6844 58.0507 2
58.7394 53.6659 2
57.4813 55.4964 2
52.056 66.9693 3.97181
52.9215 64.1207 3.96793
56.4461 59.3095 3.95347
53.5949 61.4308 3.96551
54.1139 59.131 3.96368
60.2029 47.6478 3.97356
59.0218 51.8221 3.9725
57.0845 49.2623 3.97307
56.343 56.721 3.95883
56.3152 53.7475 3.96711
50.103 67.8379 2
49.315 65.8648 3.97127
47.4523 66.5381 2
46.8673 64.6586 3.97785
45.5496 67.0687 3.97818
43.9705 69.5781 3.9819
46.0548 69.1464 2
46.6047 71.365 3.98803
48.095 68.5653 0.0229016
48.8026 70.7189 2
49.554 73.0099 4
50.9429 69.929 0.0165555
51.8506 72.1455 2
54.0858 71.1327 0
53.0626 6.08116 3.97951
55.104 7.14557 2
56.25 5.02411 4
58.3339 6.3199 2
57.0539 8.34116 0.0254571
60.3285 7.74928 0
65.7242 47.3279 0.0243517
66.914 43.4204 0.0236116
64.1273 44.7499 0.0244657
65.0731 41.166 0.0239292
67.5499 39.4993 0.0234898
70.0981 37.5239 0.0311371
67.6488 37.5261 2
65.3152 39.3505 2
64.6774 42.9514 2
63.1017 40.869 2
63.4114 46.5826 2
62.0961 44.0878 2
65.4244 37.5067 3.97617
63.2493 39.241 3.97636
62.6475 42.4587 3.9761
61.6352 40.6287 3.97649
61.2092 45.7382 3.97491
60.5901 43.5349 3.97629
67.5913 35.5677 0.0234654
66.9664 31.6781 0.023697
65.2308 33.9786 0.0238441
64.1489 30.3026 0.0247209
60.7374 14.2793 0.0478261
60.3521 17.2848 0.0408279
59.7548 20.0584 0.0327633
63.0234 26.5826 0.0252865
61.5572 28.967 0.025127
60.3742 25.5941 0.0259552
59.047 22.5596 0.0274491
58.2065 24.6672 0.0262849
57.8071 14.471 0.047033
55.1966 14.8346 0.0461803
54.0379 9.1674 0.0224305
54.7624 12.1374 0.0304773
65.4138 35.6953 2
64.6874 32.2321 2
63.6887 34.3097 2
61.8818 30.7838 2
59.1333 15.8216 2
58.6787 18.6122 2
58.1188 21.1794 2
60.9562 27.2922 2
60.0087 29.3676 2
57.5406 23.4631 2
58.4969 26.1147 2
57.1072 25.0514 2
56.4518 15.9582 2
54.1641 16.2277 2
53.725 13.8217 2
52.1036 8.19949 2
53.0422 11.0831 2
63.4631 35.6713 3.97619
62.21 33.147 3.97592
59.7052 30.8163 3.97531
58.6588 28.1976 3.97478
57.5833 17.225 3.95642
56.7874 26.117 3.97453
57.1219 19.809 3.96129
56.6186 22.235 3.96867
56.3124 24.3649 3.97334
50.104 7.32019 3.97167
51.192 10.2255 3.96589
52.1152 12.9228 3.96701
55.2057 17.2522 3.95535
52.8398 15.4791 3.9625
53.4707 17.2637 3.95468
53.0363 68.9948 0.0201862
53.9481 65.9669 0.0320748
62.6311 48.4889 0.0259515
54.6413 63.073 0.0334254
57.7883 60.7647 0.0511795
55.1306 60.4862 0.0263502
61.2273 52.3628 0.0271309
59.5137 49.7368 0.0272804
57.6848 58.0505 0.043305
57.485 55.5003 0.0371252
58.7352 53.6675 0.02761
52.0603 66.9716 2
52.9185 64.1106 2
56.444 59.3129 2
53.5885 61.4238 2
54.1123 59.1282 2
60.2028 47.6472 2
59.0231 51.8209 2
57.0848 49.2623 2
56.3377 56.7211 2
56.3139 53.7446 2
51.1411 65.0557 3.96378
51.9757 62.3798 3.9623
55.1853 58.022 3.95858
52.6673 59.9029 3.95669
53.4279 58.2462 3.96151
57.2136 46.5195 3.97431
56.7095 51.4064 3.97278
55.1941 49.1145 3.97504
54.9476 55.4783 3.95889
54.4855 52.9767 3.95963
50.0988 67.8415 0.027774
49.3188 65.8647 2
48.5829 64.0329 3.97587
47.4469 66.547 0.0267605
45.551 67.0786 2
46.8713 64.655 2
46.3452 62.9571 3.98791
45.1122 65.1531 3.98172
43.6259 67.4494 3.97967
41.859 69.8672 3.9822
43.9726 69.5803 2
44.3729 71.8594 3.98886
46.0508 69.1457 0.020102
46.6089 71.364 2
47.2057 73.7222 4
48.7973 70.7205 0.0136277
49.554 73.0099 2
51.8506 72.1454 0
50.9539 5.13602 3.9849
53.0646 6.07999 2
54.0858 3.86728 4
55.1001 7.14329 0.0127688
56.25 5.02406 2
58.3339 6.31992 0
63.4115 46.5833 0.0255636
64.678 42.9517 0.0240591
62.0959 44.0875 0.0242966
63.101 40.8689 0.0236577
65.3152 39.3505 0.0237213
67.6527 37.5261 0.0235404
65.4238 37.5068 2
63.2506 39.2411 2
62.6483 42.4585 2
61.6355 40.6287 2
61.2094 45.7377 2
60.5897 43.5348 2
63.3146 37.4632 3.97639
61.3236 39.3159 3.97672
60.3171 41.8396 3.97686
59.2818 44.5578 3.97532
65.4142 35.6952 0.0238018
64.6877 32.2317 0.0244173
63.6876 34.3099 0.0238822
61.8816 30.7842 0.0247077
59.1171 15.8234 0.0441783
58.6755 18.6103 0.0384128
58.1245 21.1751 0.0316051
60.9562 27.2916 0.025572
60.0081 29.3673 0.0246426
58.4994 26.114 0.0254005
57.5452 23.4595 0.0275471
57.1126 25.0492 0.0253956
56.4685 15.9526 0.0449504
54.1665 16.2289 0.0421697
53.7404 13.8348 0.047059
52.1043 8.19153 0.0351219
53.045 11.0892 0.0424154
63.4645 35.6713 2
62.2113 33.1474 2
59.7052 30.8161 2
57.5881 17.2261 2
57.1186 19.8111 2
56.6149 22.2394 2
58.6587 28.1971 2
56.3163 24.3662 2
56.7861 26.1163 2
50.1111 7.29454 2
55.2062 17.248 2
53.4758 17.2535 2
52.8275 15.4749 2
52.1236 12.9279 2
51.1961 10.227 2
61.3644 35.4177 3.97646
59.2984 32.8984 3.97592
57.5249 30.3545 3.97485
56.2186 27.7589 3.97467
56.1602 18.4689 3.9583
55.2731 25.5569 3.97333
55.6534 20.9213 3.96177
55.2444 23.3243 3.96881
48.0568 6.53575 3.97859
49.2972 9.39683 3.97222
50.3698 12.1633 3.96696
51.2644 14.6693 3.9771
54.0177 18.2513 3.95838
52.0948 17.3212 3.9564
52.056 66.9693 0.0281938
52.9215 64.1207 0.032074
60.2029 47.6478 0.0264402
53.5949 61.4308 0.0344929
56.4461 59.3095 0.046525
54.1139 59.131 0.0363197
59.0218 51.8221 0.0274962
57.0845 49.2623 0.0269309
56.343 56.721 0.0411727
56.3152 53.7475 0.032889
51.1442 65.059 2
51.9819 62.4126 2
55.1849 58.02 2
52.6553 59.8976 2
53.4314 58.2475 2
57.2127 46.5186 2
56.7091 51.4042 2
55.1937 49.1135 2
54.944 55.4759 2
54.4821 52.9748 2
50.2994 63.2887 3.97027
51.1112 60.736 3.96956
53.8678 57.0039 3.9665
51.9956 58.3662 3.96417
55.3553 43.8829 3.97497
54.2616 47.444 3.97474
53.9609 50.9164 3.96582
53.3588 54.1851 3.96257
49.315 65.8648 0.0287304
48.5814 64.0545 2
47.9058 62.3806 3.99043
45.5496 67.0687 0.0218198
46.8673 64.6586 0.0221457
43.628 67.4509 2
46.344 62.9567 2
45.1187 65.1412 2
45.9363 61.469 3.98986
44.7402 63.3729 3.97745
43.3462 65.4743 3.97988
41.6604 67.6691 3.97826
39.7018 70.0141 3.98107
41.8604 69.869 2
42.1085 72.2038 3.98998
43.9705 69.5781 0.0180951
44.3761 71.8593 2
44.8159 74.2794 4
46.6047 71.365 0.0119685
47.2057 73.7222 2
49.554 73.0099 0
48.7845 4.3256 3.98566
50.9537 5.13599 2
51.8506 2.85458 4
53.0626 6.08116 0.0204876
54.0858 3.86728 2
56.25 5.02411 0
61.2092 45.7382 0.0250918
62.6475 42.4587 0.0238983
60.5901 43.5349 0.0237081
61.6352 40.6287 0.0235149
63.2493 39.241 0.0236374
65.4244 37.5067 0.023827
63.3154 37.4632 2
61.324 39.3162 2
60.3169 41.8396 2
59.2823 44.5574 2
61.1397 37.4517 3.97687
59.2021 39.7801 3.97651
57.8543 42.738 3.976
63.4631 35.6713 0.0238056
62.21 33.147 0.0240794
59.7052 30.8163 0.0246869
57.5833 17.225 0.0435752
57.1219 19.809 0.0387054
56.6186 22.235 0.031328
58.6588 28.1976 0.0252236
56.7874 26.117 0.025474
56.3124 24.3649 0.026659
55.2057 17.2522 0.0446463
53.4707 17.2637 0.0453227
52.8398 15.4791 0.0375016
50.104 7.32019 0.0283328
52.1152 12.9228 0.0329888
51.192 10.2255 0.0341118
61.3651 35.4179 2
59.2979 32.8989 2
57.5247 30.3552 2
56.1614 18.4688 2
55.67 20.9172 2
55.259 23.3262 2
56.2184 27.7591 2
55.2759 25.561 2
48.0519 6.54672 2
49.2997 9.39858 2
54.0308 18.2493 2
52.0977 17.3148 2
51.2579 14.6662 2
50.3743 12.159 2
58.8102 35.202 3.97626
56.7464 32.4896 3.975
55.2964 29.7012 3.97494
54.2692 27.0829 3.97371
54.807 19.5515 3.96092
53.944 24.5503 3.97099
54.2061 22.0193 3.9659
45.9612 5.89719 3.97883
43.3691 7.49736 3.97865
47.3365 8.6655 3.97086
48.5552 11.4088 3.96681
49.605 13.9387 3.97881
50.4404 16.3574 3.95869
52.7057 19.038 3.95599
50.9994 18.4319 3.95502
51.1411 65.0557 0.0362234
51.9757 62.3798 0.037703
57.2136 46.5195 0.025687
52.6673 59.9029 0.0433066
55.1853 58.022 0.0414166
53.4279 58.2462 0.038488
56.7095 51.4064 0.0272246
55.1941 49.1145 0.0249568
54.9476 55.4783 0.04111
54.4855 52.9767 0.0403704
50.2944 63.2737 2
51.1087 60.7407 2
53.8617 57.0026 2
51.9866 58.3664 2
55.3582 43.8821 2
54.2622 47.4438 2
53.9565 50.9141 2
53.3475 54.1841 2
49.4995 61.6412 3.97594
54.0124 41.5307 3.97466
50.3402 59.1022 3.96956
51.687 56.1722 3.96264
52.6343 45.0958 3.97247
52.0233 48.792 3.9699
51.7906 52.4221 3.9581
48.5829 64.0329 0.0241255
47.8997 62.3871 2
47.2492 60.8958 3.99183
43.6259 67.4494 0.0203316
45.1122 65.1531 0.0182826
46.3452 62.9571 0.0120886
41.6634 67.6702 2
43.3559 65.4686 2
45.9363 61.4771 2
44.7412 63.3664 2
45.6801 60.5121 3.99937
44.4421 61.735 3.98764
43.1287 63.6592 3.98128
41.5414 65.61 3.97238
39.6316 67.747 3.97609
37.5265 70.0386 3.9815
39.7026 70.0142 2
39.8164 72.4012 3.99019
41.859 69.8672 0.0178031
42.1104 72.2045 2
42.3947 74.6792 4
44.3729 71.8594 0.0111416
44.8159 74.2794 2
47.2057 73.7222 0
43.8499 5.3704 3.97839
46.569 3.65114 3.98701
48.7836 4.32888 2
49.554 1.99015 4
50.9539 5.13602 0.0151014
51.8506 2.85453 2
54.0858 3.86728 0
59.2818 44.5578 0.0246788
60.3171 41.8396 0.02314
61.3236 39.3159 0.0232769
63.3146 37.4632 0.0236098
61.1399 37.4517 2
59.2007 39.7804 2
57.8521 42.7367 2
58.6529 37.5719 3.97683
56.7252 40.5267 3.97758
53.3818 39.5907 3.97685
61.3644 35.4177 0.0235353
59.2984 32.8984 0.0240764
57.5249 30.3545 0.0251498
56.1602 18.4689 0.0416961
55.6534 20.9213 0.0382308
55.2444 23.3243 0.0311872
56.2186 27.7589 0.0253277
55.2731 25.5569 0.0266746
54.0177 18.2513 0.0416218
52.0948 17.3212 0.0436038
51.2644 14.6693 0.0229022
48.0568 6.53575 0.0214071
49.2972 9.39683 0.0277834
50.3698 12.1633 0.0330374
58.8085 35.2014 2
45.9614 5.89533 2
43.3695 7.49971 2
56.7461 32.4902 2
55.2982 29.6996 2
54.7959 19.5571 2
54.2316 22.0189 2
53.9425 24.5591 2
54.2689 27.0823 2
47.3393 8.65642 2
48.5575 11.4022 2
52.7109 19.0051 2
51.0094 18.4286 2
50.4529 16.3613 2
49.6016 13.9387 2
56.0339 34.8869 3.9773
54.2739 31.8403 3.97414
53.1379 28.8651 3.97542
52.6393 26.0339 3.97264
53.388 20.55 3.96729
52.7288 23.2277 3.96997
41.3963 7.09468 3.97671
45.3478 8.01444 3.9834
42.8556 9.45051 3.97275
46.6374 10.7356 3.97341
47.6636 13.2385 3.97482
48.7543 15.5921 3.9742
49.7252 18.0082 3.95661
51.2201 19.7504 3.97684
50.2994 63.2887 0.0297325
51.1112 60.736 0.0304427
55.3553 43.8829 0.0250257
54.2616 47.444 0.0252571
51.9956 58.3662 0.0358338
53.8678 57.0039 0.0335046
53.9609 50.9164 0.0341783
53.3588 54.1851 0.0374344
49.5024 61.6391 2
54.0031 41.523 2
50.3372 59.1086 2
51.6886 56.1762 2
52.6259 45.0906 2
52.0188 48.7895 2
51.7931 52.4223 2
48.695 60.0817 3.99546
50.5453 42.3077 3.98226
49.4419 57.3879 3.96035
49.9313 54.0548 3.95946
50.2976 46.676 3.97697
50.1307 50.4555 3.95428
46.335 43.2189 3.95517
47.9058 62.3806 0.00957258
47.2519 60.8933 2
46.4914 59.6817 3.99357
41.6604 67.6691 0.0217355
43.3462 65.4743 0.020118
44.7402 63.3729 0.0225515
45.9363 61.469 0.0101446
39.6345 67.7475 2
41.5479 65.6069 2
45.6856 60.5179 2
43.1274 63.6599 2
44.4419 61.7319 2
44.5637 60.1669 3.99373
42.9175 61.9942 3.97997
41.5853 63.7757 3.98308
39.6438 65.5827 3.97517
37.5631 67.7299 3.97557
31.7048 65.0911 3.97438
33.3953 67.4683 3.9786
35.3349 69.9506 3.98193
37.5264 70.0407 2
37.5097 72.4551 3.99075
39.7018 70.0141 0.0189313
39.8177 72.4012 2
39.9526 74.9197 4
42.1085 72.2038 0.0100211
42.3947 74.6792 2
44.8159 74.2794 0
41.7349 4.97765 3.98311
43.8499 5.37118 2
44.3252 3.11354 3.9889
46.5703 3.65057 2
47.2057 1.27793 4
48.7845 4.3256 0.0143406
49.554 1.99013 2
51.8506 2.85458 0
57.8543 42.738 0.0240041
59.2021 39.7801 0.0234889
61.1397 37.4517 0.02313
58.6536 37.5723 2
56.725 40.5285 2
53.3761 39.5962 2
55.3531 37.8823 3.97696
47.554 41.0529 3.9657
51.0524 39.2424 3.97951
39.439 6.81739 3.97628
58.8102 35.202 0.0237359
56.7464 32.4896 0.0249953
55.2964 29.7012 0.0250646
54.807 19.5515 0.039082
54.2061 22.0193 0.0340974
53.944 24.5503 0.0290092
54.2692 27.0829 0.0262872
52.7057 19.038 0.0440102
50.9994 18.4319 0.0449832
50.4404 16.3574 0.041307
45.9612 5.89719 0.0211672
49.605 13.9387 0.0211856
47.3365 8.6655 0.0291417
48.5552 11.4088 0.0331928
43.3691 7.49736 0.0213499
56.0309 34.8882 2
41.3969 7.09674 2
45.3489 8.0135 2
42.8539 9.44977 2
54.2683 31.8395 2
53.1322 28.8673 2
53.3871 20.5575 2
52.7124 23.2422 2
52.6432 26.0298 2
46.6375 10.7269 2
47.6652 13.2246 2
51.2356 19.7476 2
49.7273 17.9808 2
48.7673 15.6147 2
53.1527 34.1587 3.97566
51.8864 30.9161 3.97477
51.2719 27.7497 3.97505
51.1208 24.662 3.97241
51.7659 21.5373 3.97175
41.0052 9.06915 3.97643
44.7096 10.0483 3.97881
42.4454 10.9449 4.00227
45.9388 12.8188 3.97424
47.5505 14.7637 3.97737
47.8662 17.1848 3.97068
49.4747 20.1436 3.98695
49.4995 61.6412 0.0240552
50.3402 59.1022 0.0304394
54.0124 41.5307 0.0253365
52.6343 45.0958 0.0275341
52.0233 48.792 0.0300977
51.687 56.1722 0.0373619
51.7906 52.4221 0.0418982
48.6918 60.0842 2
50.569 42.335 2
49.4394 57.3823 2
49.9301 54.0568 2
50.2981 46.6752 2
50.1337 50.4552 2
46.3438 43.2529 2
47.7726 58.536 3.99138
48.3275 44.814 3.98355
48.136 55.6322 3.94798
48.3322 52.1784 3.9729
48.4307 48.5017 3.97539
43.9682 39.6438 3.79947
44.5554 42.1774 3.84843
44.9541 45.1197 3.96663
41.917 40.9379 3.54343
41.0518 41.3501 3.34685
47.2492 60.8958 0.00816765
46.4982 59.6821 2
45.3311 58.6468 3.99353
39.6316 67.747 0.023905
41.5414 65.61 0.0276208
43.1287 63.6592 0.0187241
44.4421 61.735 0.0123592
45.6801 60.5121 0.000625921
41.589 63.7704 2
37.5654 67.7325 2
39.6485 65.5852 2
44.5602 60.183 2
42.9172 61.9902 2
41.7281 62.4232 3.98631
42.4354 59.8505 3.98972
39.8833 63.5161 3.98004
37.6406 65.4835 3.9765
35.4641 67.6403 3.9749
33.5796 65.3092 3.97342
31.9743 63.2466 3.99464
29.8994 64.6813 3.9813
31.6966 65.0996 2
31.3838 67.1815 3.97898
33.3966 67.4731 2
33.1591 69.7436 3.98215
35.3344 69.9519 2
35.1969 72.3706 3.99125
37.5265 70.0386 0.0184968
37.5103 72.4559 2
37.5 75 4
39.8164 72.4012 0.00980639
39.9526 74.9197 2
42.3947 74.6792 0
39.6235 4.72358 3.98486
41.7348 4.9785 2
42.0618 2.72057 3.98947
43.8499 5.3704 0.0216058
44.3253 3.11377 2
44.8158 0.721173 4
46.569 3.65114 0.0129928
47.2057 1.27779 2
49.554 1.99015 0
56.7252 40.5267 0.0224157
58.6529 37.5719 0.0231654
53.3818 39.5907 0.0231505
47.5962 41.0761 2
55.3515 37.8802 2
51.0718 39.2234 2
52.0005 36.6325 3.97698
45.4673 40.1706 3.87515
48.3544 38.4456 3.96147
37.5134 6.6868 3.98095
39.4402 6.8161 2
39.2073 8.71973 3.986
35.9427 8.51652 3.97525
56.0339 34.8869 0.0227035
54.2739 31.8403 0.0258632
53.1379 28.8651 0.0245819
53.388 20.55 0.0327076
52.7288 23.2277 0.0300296
52.6393 26.0339 0.0273622
51.2201 19.7504 0.0231618
49.7252 18.0082 0.0433862
48.7543 15.5921 0.0257993
45.3478 8.01444 0.0166049
47.6636 13.2385 0.0251791
46.6374 10.7356 0.0265874
41.3963 7.09468 0.0232909
42.8556 9.45051 0.0272519
53.1548 34.1641 2
41.0027 9.07236 2
44.71 10.0411 2
42.4448 10.9472 2
51.8898 30.9134 2
51.2735 27.7526 2
51.7515 21.5434 2
51.1075 24.671 2
45.9377 12.8075 2
47.5457 14.7427 2
49.5028 20.1603 2
47.867 17.1746 2
50.5048 33.1733 3.97439
49.6852 29.7426 3.97677
49.5695 26.2835 3.97141
49.2871 22.7125 3.97395
40.5561 11.635 3.99034
43.8069 11.9755 3.97081
45.6687 15.618 4.00758
47.2018 19.7024 3.97608
44.1674 37.5103 3.81156
48.695 60.0817 0.00454244
49.4419 57.3879 0.0396464
50.5453 42.3077 0.0177353
50.2976 46.676 0.0230294
50.1307 50.4555 0.0457213
49.9313 54.0548 0.0405381
46.335 43.2189 0.0448349
47.7633 58.5395 2
48.3409 44.8237 2
48.1303 55.6326 2
48.3311 52.1834 2
48.4353 48.5029 2
44.0836 39.6647 2
44.6016 42.2297 2
44.9598 45.1451 2
41.9996 41.0068 2
41.1031 41.3614 2
46.5559 57.1153 3.99336
42.4713 39.419 3.54316
41.4198 40.3589 3.32957
46.6464 46.7291 3.99778
46.6079 53.8885 3.95295
46.6438 50.2965 3.97295
43.6588 46.7153 3.97522
43.2526 41.5971 3.80655
43.526 43.9262 3.83705
41.4006 42.0552 3.55825
40.2551 41.6159 3.26224
46.4914 59.6817 0.00643483
45.325 58.6499 2
43.7479 57.5011 3.99625
37.5631 67.7299 0.0244286
39.6438 65.5827 0.0248287
41.5853 63.7757 0.0169221
42.9175 61.9942 0.0200311
44.5637 60.1669 0.00626854
35.4657 67.6417 2
41.727 62.419 2
39.8849 63.5199 2
37.6433 65.4874 2
42.4334 59.8582 2
40.6015 61.5585 3.9892
40.4031 58.0331 3.99343
37.8324 63.1687 3.97472
35.5739 65.4001 3.97364
33.5742 65.3017 2
31.9729 63.2298 2
33.6374 63.3004 3.99188
30.41 62.7776 3.97935
32.1403 61.9463 3.98435
26.9459 61.3451 3.9901
28.0929 64.07 3.98824
29.895 64.6748 2
29.4163 66.7329 3.98026
31.7048 65.0911 0.0256177
31.3847 67.184 2
31.0175 69.4094 3.98267
33.3953 67.4683 0.0214044
33.1579 69.7464 2
32.8955 72.1447 3.99076
35.3349 69.9506 0.0180738
35.1964 72.3714 2
35.0474 74.9194 4
37.5097 72.4551 0.00924709
37.5 75 2
39.9526 74.9197 0
35.6189 6.7396 3.97734
37.5237 4.62295 3.98506
39.6231 4.72228 2
39.7887 2.47662 3.99109
41.7349 4.97765 0.0168935
42.0618 2.72085 2
42.3946 0.32156 4
44.3252 3.11354 0.011095
44.8159 0.72056 2
47.2057 1.27793 0
47.554 41.0529 0.0342982
55.3531 37.8823 0.0230392
51.0524 39.2424 0.0204895
45.549 40.1604 2
48.4186 38.4563 2
51.9911 36.6308 2
49.2288 35.6654 3.97868
45.9701 37.6788 3.8243
44.0045 35.3469 3.80242
41.9681 34.028 3.54306
41.0993 33.6047 3.35118
37.4581 8.55099 3.9782
37.5148 6.68704 2
39.439 6.81739 0.0237198
39.2069 8.72424 2
38.971 10.1601 3.99394
35.8993 9.80122 3.98149
34.1534 8.84867 3.97565
35.9412 8.51582 2
53.1527 34.1587 0.0243367
51.8864 30.9161 0.0252271
51.2719 27.7497 0.024951
51.7659 21.5373 0.0282527
51.1208 24.662 0.0275905
49.4747 20.1436 0.0130476
47.8662 17.1848 0.0293195
47.5505 14.7637 0.0226272
44.7096 10.0483 0.021187
45.9388 12.8188 0.0257585
41.0052 9.06915 0.0235672
42.4454 10.9449 -0.00226506
50.5316 33.1566 2
40.5591 11.6497 2
43.8058 11.9489 2
49.6924 29.7386 2
49.5682 26.3024 2
49.2821 22.7032 2
45.6534 15.5592 2
47.2256 19.7553 2
48.1179 31.73 3.97928
47.8868 28.0734 3.97574
48.4367 24.8837 3.96179
46.7108 22.5369 3.98746
38.302 12.7846 3.97982
42.0401 14.4356 3.99884
44.5617 18.7173 3.98756
42.6603 37.492 3.53101
44.2984 37.4989 2
47.7726 58.536 0.00862128
48.136 55.6322 0.0520164
48.3275 44.814 0.0164528
48.4307 48.5017 0.024611
48.3322 52.1784 0.027102
43.9682 39.6438 0.200527
44.5554 42.1774 0.151574
44.9541 45.1197 0.0333655
41.917 40.9379 0.456565
41.0518 41.3501 0.653155
46.5505 57.1185 2
42.5592 39.4292 2
41.4571 40.3579 2
46.6517 46.7337 2
46.5989 53.8908 2
46.6426 50.3093 2
43.7007 46.7375 2
43.3243 41.6506 2
43.596 43.9671 2
41.4652 42.1525 2
40.3563 41.6341 2
45.0477 55.6761 4.00432
41.7004 38.9731 3.34094
40.0758 40.3452 3.33765
45.0155 48.3744 4.00528
44.8177 52.1018 3.99641
42.51 47.6911 3.98531
42.3474 45.3551 3.84902
42.397 43.2084 3.76147
40.6087 42.8958 3.53003
39.0731 41.9313 3.35355
45.3311 58.6468 0.00647353
43.7472 57.5127 2
41.9805 56.033 3.99598
35.4641 67.6403 0.0251005
37.6406 65.4835 0.0235029
39.8833 63.5161 0.0199625
41.7281 62.4232 0.0136862
42.4354 59.8505 0.0102842
35.5755 65.4086 2
40.602 61.547 2
37.8345 63.1743 2
40.4027 58.0463 2
38.897 56.1887 3.99597
38.2337 60.2385 3.98968
35.6084 63.1637 3.97535
33.5796 65.3092 0.0265808
31.9743 63.2466 0.00536206
33.6358 63.3036 2
30.4067 62.7654 2
32.1521 61.9314 2
28.736 62.0891 3.9877
33.3614 61.4699 3.99105
31.1471 61.1304 4.00222
27.709 59.4466 3.97281
23.9711 58.8636 3.97205
25.1369 60.6648 3.98517
26.9393 61.3543 2
26.2796 63.3843 3.97989
28.0935 64.0786 2
27.4808 66.1554 3.97642
29.8994 64.6813 0.0187009
29.4165 66.7467 2
28.913 68.9293 3.97981
31.3838 67.1815 0.0210186
31.0155 69.4109 2
30.6191 71.7767 3.9902
33.1591 69.7436 0.0178499
32.8939 72.1458 2
32.6054 74.6784 4
35.1969 72.3706 0.00875077
35.0474 74.9197 2
37.5 75 0
33.7225 6.99768 3.97542
35.4362 4.6931 3.98471
35.62 6.73921 2
37.515 2.38914 3.99111
37.5226 4.62233 2
39.6235 4.72358 0.0151428
39.7883 2.47619 2
39.9526 0.0806499 4
42.0618 2.72057 0.0105285
42.3947 0.320817 2
44.8158 0.721173 0
42.5174 35.5524 3.54735
41.4621 34.5863 3.3145
45.4673 40.1706 0.124849
48.3544 38.4456 0.0385304
52.0005 36.6325 0.023017
46.0261 37.7007 2
49.282 35.6767 2
44.1183 35.3213 2
42.0486 33.9494 2
41.1213 33.5912 2
46.3711 34.5953 3.91554
43.303 33.363 3.79822
41.4349 32.9056 3.56051
40.269 33.346 3.25954
37.3098 10.6555 3.98072
37.4582 8.55051 2
37.5134 6.6868 0.0190461
39.2073 8.71973 0.0140016
38.9739 10.1636 2
34.7589 10.4155 3.97453
35.9049 9.80082 2
32.3835 9.40091 3.97127
34.1519 8.8489 2
35.9427 8.51652 0.0247502
50.5048 33.1733 0.0256074
49.6852 29.7426 0.0232285
49.5695 26.2835 0.0285896
49.2871 22.7125 0.0260467
47.2018 19.7024 0.0239234
45.6687 15.618 -0.00757978
43.8069 11.9755 0.029192
40.5561 11.635 0.00965854
48.1367 31.7052 2
38.2976 12.786 2
42.0464 14.424 2
47.8757 28.072 2
48.4361 24.8986 2
46.7035 22.5307 2
44.5888 18.7873 2
46.1557 30.1224 3.97635
46.1401 25.5904 3.97775
43.9569 21.8163 3.98407
36.5974 13.0025 3.98088
38.6604 14.9569 3.98213
41.6311 18.0842 3.99027
41.8104 37.457 3.33783
42.7569 37.4924 2
44.1674 37.5103 0.188441
46.5559 57.1153 0.00664363
46.6079 53.8885 0.0470451
46.6464 46.7291 0.0022173
46.6438 50.2965 0.0270504
42.4713 39.419 0.456843
43.2526 41.5971 0.193446
43.526 43.9262 0.16295
43.6588 46.7153 0.0247848
41.4006 42.0552 0.44175
41.4198 40.3589 0.670435
40.2551 41.6159 0.737759
45.0432 55.6759 2
41.7412 38.9781 2
40.1815 40.3298 2
45.0128 48.4018 2
44.8066 52.1017 2
42.5591 47.7169 2
42.4144 45.445 2
42.459 43.2432 2
40.6789 42.9949 2
39.0099 41.9843 2
43.3744 54.0669 4.00303
40.0718 38.9052 3.37655
38.9942 40.4515 3.35067
42.8657 49.8112 4.00469
41.2474 46.8236 3.90791
41.146 44.3999 3.76312
39.3708 43.5772 3.54808
37.5074 42.1046 3.43188
43.7479 57.5011 0.00374633
41.9742 56.0216 2
40.29 54.5826 3.99707
35.5739 65.4001 0.0263601
37.8324 63.1687 0.0252767
40.6015 61.5585 0.0108035
40.4031 58.0331 0.00656957
35.6096 63.1696 2
38.2349 60.2208 2
38.8978 56.1767 2
37.9626 54.8727 3.99636
36.9281 57.4464 3.99315
35.3643 60.8387 3.98425
33.6374 63.3004 0.00812429
30.41 62.7776 0.0206481
32.1403 61.9463 0.0156485
33.3783 61.4648 2
28.7269 62.1019 2
31.1409 61.1273 2
29.5283 60.2654 3.98571
32.3969 59.5937 3.99487
28.2028 58.1884 4.00825
27.7096 59.459 2
25.5687 58.3887 3.96861
22.9956 58.0016 3.96298
23.5183 60.1429 3.96874
23.9708 58.8631 2
25.1331 60.6632 2
24.5002 62.6464 3.96497
26.9459 61.3451 0.00989507
26.2799 63.4004 2
25.5748 65.4313 3.97428
28.0929 64.07 0.0117551
27.4759 66.1392 2
26.8456 68.3217 3.98145
29.4163 66.7329 0.0197443
28.9085 68.9329 2
28.3755 71.2605 3.98707
31.0175 69.4094 0.0173337
30.6165 71.7764 2
30.1842 74.2788 4
32.8955 72.1447 0.00924472
32.6053 74.6792 2
35.0474 74.9194 0
31.7881 7.44146 3.97263
33.3491 4.934 3.98224
33.7235 6.99704 2
35.2458 2.46522 3.99082
35.4343 4.69317 2
35.6189 6.7396 0.0226557
37.5 0 4
37.5137 2.38907 2
37.5237 4.62295 0.0149378
39.7887 2.47662 0.0089145
39.9526 0.0802889 2
42.3946 0.32156 0
41.7099 35.9445 3.28042
42.6226 35.543 2
40.1323 34.5966 3.36475
41.497 34.5793 2
45.9701 37.6788 0.175702
49.2288 35.6654 0.0213245
44.0045 35.3469 0.197584
41.9681 34.028 0.456942
41.0993 33.6047 0.64882
46.4232 34.5866 2
43.364 33.3157 2
41.4868 32.8147 2
40.3343 33.3326 2
44.5953 32.1001 3.86926
42.4217 31.754 3.74996
40.6403 32.0646 3.53727
39.062 33.0343 3.35623
35.7022 11.8224 3.97256
37.317 10.653 2
37.4581 8.55099 0.0218014
38.971 10.1601 0.00605546
33.1097 11.269 3.97007
34.7634 10.4104 2
35.8993 9.80122 0.018513
30.494 10.0655 3.97057
32.3818 9.40586 2
34.1534 8.84867 0.0243495
48.1179 31.73 0.0207179
47.8868 28.0734 0.0242595
48.4367 24.8837 0.0382095
46.7108 22.5369 0.012542
44.5617 18.7173 0.0124421
42.0401 14.4356 0.00115833
38.302 12.7846 0.0201811
36.5907 13.0024 2
46.1299 30.0687 2
38.6654 14.9308 2
41.5967 18.0468 2
46.1374 25.5793 2
43.9553 21.8139 2
44.3014 28.3059 3.98543
43.1416 24.4951 4.00526
41.0851 21.1378 3.99581
35.7902 14.8362 3.99086
38.6122 17.8389 3.99305
40.1246 37.4053 3.40994
41.8633 37.4673 2
42.6603 37.492 0.468994
45.0477 55.6761 -0.00432388
44.8177 52.1018 0.00358998
45.0155 48.3744 -0.00528083
41.7004 38.9731 0.659063
42.397 43.2084 0.238532
42.3474 45.3551 0.150981
42.51 47.6911 0.0146926
40.6087 42.8958 0.469966
40.0758 40.3452 0.662346
39.0731 41.9313 0.646448
43.3703 54.0605 2
40.1416 38.9092 2
38.9395 40.4528 2
42.8435 49.8327 2
41.2507 46.8512 2
41.1697 44.4565 2
37.49 42.122 2
39.3837 43.6791 2
41.5301 52.5226 4.00603
39.0021 38.9642 3.33183
37.4999 40.4821 3.44213
35.9175 41.9544 3.35417
40.5378 48.9926 3.98628
39.5087 45.1131 3.73846
37.4942 43.9022 3.60093
41.9805 56.033 0.00401854
40.2841 54.583 2
38.6533 53.3324 3.99903
35.6084 63.1637 0.0246488
38.2337 60.2385 0.0103249
38.897 56.1887 0.00402724
35.3768 60.8264 2
36.9334 57.4588 2
37.9512 54.8678 2
36.325 55.0001 3.99581
34.5075 58.3626 3.99501
33.3614 61.4699 0.00895195
28.736 62.0891 0.0123019
31.1471 61.1304 -0.00221611
32.3979 59.5796 2
29.5273 60.2738 2
30.4362 57.5197 3.98288
28.1951 58.172 2
27.239 56.6132 3.96194
27.709 59.4466 0.0271903
25.5691 58.3862 2
24.1946 56.5372 3.95368
21.7134 57.1168 3.96006
22.1423 59.4152 3.96733
22.9911 58.0038 2
22.8199 61.8479 3.96937
23.5173 60.1434 2
23.9711 58.8636 0.0279533
25.1369 60.6648 0.0148255
24.499 62.6606 2
23.7176 64.639 3.96273
26.2796 63.3843 0.0201089
25.5692 65.4232 2
24.8204 67.5832 3.97017
27.4808 66.1554 0.0235788
26.8404 68.3241 2
26.1713 70.6029 3.98707
28.913 68.9293 0.0201861
28.3713 71.261 2
27.7943 73.7221 4
30.6191 71.7767 0.00979665
30.1841 74.2794 2
32.6054 74.6784 0
29.8117 8.02252 3.96934
31.2546 5.34279 3.98042
31.7885 7.43812 2
32.9821 2.70369 3.98978
33.3464 4.93377 2
33.7225 6.99768 0.0245803
35.0474 0.080333 4
35.244 2.46542 2
35.4362 4.6931 0.0152936
37.5 0 2
37.515 2.38914 0.0088854
39.9526 0.0806499 0
40.2473 35.9777 3.42876
41.7703 35.9407 2
42.5174 35.5524 0.452649
28.5585 10.754 3.96957
38.9677 34.5353 3.32714
40.143 34.5853 2
41.4621 34.5863 0.685503
46.3711 34.5953 0.0844604
43.303 33.363 0.201785
41.4349 32.9056 0.439485
40.269 33.346 0.740463
44.6167 32.0645 2
42.4924 31.7097 2
40.7072 31.9677 2
39.0157 32.9828 2
43.1586 30.4276 3.85108
41.1634 30.5314 3.7652
39.3638 31.3831 3.55197
37.4929 32.8853 3.42864
34.1133 12.9953 3.98317
35.7052 11.8142 2
37.3098 10.6555 0.0192767
31.2058 12.0556 3.97147
33.1133 11.2593 2
34.7589 10.4155 0.0254672
30.4893 10.0616 2
32.3835 9.40091 0.0287265
46.1557 30.1224 0.0236464
46.1401 25.5904 0.0222481
36.5974 13.0025 0.019123
43.9569 21.8163 0.0159305
41.6311 18.0842 0.00973251
38.6604 14.9569 0.0178715
35.7725 14.8605 2
44.2944 28.3195 2
38.6159 17.8429 2
41.1141 21.1249 2
43.1302 24.4775 2
33.6557 15.9802 3.99249
42.2768 27.0741 3.96847
40.6791 23.9166 4.00376
38.3452 20.6766 3.99667
35.8395 17.7485 3.99115
38.9926 37.4851 3.29735
40.1675 37.4141 2
41.8104 37.457 0.662174
43.3744 54.0669 -0.00302525
42.8657 49.8112 -0.00468853
40.0718 38.9052 0.623447
41.146 44.3999 0.236879
41.2474 46.8236 0.0920941
39.3708 43.5772 0.451922
38.9942 40.4515 0.649332
37.5074 42.1046 0.56812
41.5156 52.5136 2
38.9606 38.9635 2
37.4765 40.4917 2
40.5266 48.9982 2
35.971 42.0019 2
39.545 45.1926 2
37.4864 43.9902 2
39.6438 51.2458 3.99813
37.4895 38.9612 3.40175
36.0613 40.4754 3.33745
34.7533 41.645 3.25553
35.6252 43.5982 3.54695
38.547 47.8065 3.91475
37.4712 45.4021 3.77047
40.29 54.5826 0.00293243
38.6402 53.3443 2
36.7847 52.6699 3.99968
35.3643 60.8387 0.015752
36.9281 57.4464 0.00684949
37.9626 54.8727 0.00363977
34.5057 58.369 2
36.3269 54.9995 2
33.4565 55.1777 4.00574
32.3969 59.5937 0.00512953
29.5283 60.2654 0.0142927
30.4372 57.5166 2
29.0988 55.1315 3.98429
28.2028 58.1884 -0.00824521
27.2418 56.6087 2
25.7974 54.8536 3.9533
22.3882 55.0045 3.95895
25.5687 58.3887 0.031389
24.1919 56.5375 2
20.6038 56.7503 3.96141
20.8526 58.5558 3.95673
21.7124 57.1199 2
21.2646 60.9768 3.9645
22.1382 59.4205 2
22.9956 58.0016 0.037023
21.9433 63.7219 3.96661
22.8171 61.8529 2
23.5183 60.1429 0.0312559
24.5002 62.6464 0.0350326
23.7104 64.6382 2
22.8515 66.7092 3.96733
25.5748 65.4313 0.0257185
24.8155 67.5767 2
24.0151 69.8046 3.98528
26.8456 68.3217 0.0185459
26.1651 70.6017 2
25.446 73.0099 4
28.3755 71.2605 0.0129298
27.7943 73.7222 2
30.1842 74.2788 0
27.8236 8.70174 3.97056
29.1567 5.8891 3.9783
29.8116 8.02205 2
30.7281 3.10127 3.98864
31.2514 5.34214 2
31.7881 7.44146 0.0273673
32.6053 0.320823 4
32.9797 2.70399 2
33.3491 4.934 0.0177624
35.0474 0.0802903 2
35.2458 2.46522 0.00918379
37.5 0 0
38.8546 36.0223 3.31272
40.2189 35.9794 2
41.7099 35.9445 0.719584
28.556 10.7555 2
26.6441 11.4638 3.97096
29.2537 12.7024 3.97568
37.5042 34.5156 3.44149
38.9758 34.5415 2
40.1323 34.5966 0.635247
44.5953 32.1001 0.130736
42.4217 31.754 0.250035
40.6403 32.0646 0.462735
39.062 33.0343 0.643765
43.2275 30.3736 2
41.2125 30.4682 2
39.3773 31.279 2
37.5091 32.8639 2
41.5701 29.1753 3.84532
39.5328 29.8584 3.75909
37.4919 31.0696 3.60458
35.9236 33.051 3.36062
31.9619 14.5641 3.98444
34.1143 12.9895 2
35.7022 11.8224 0.0274399
31.2053 12.0455 2
33.1097 11.269 0.0299301
30.494 10.0655 0.0294344
44.3014 28.3059 0.0145728
43.1416 24.4951 -0.00525715
35.7902 14.8362 0.00913927
41.0851 21.1378 0.00419395
38.6122 17.8389 0.00695034
33.6352 15.9589 2
35.844 17.6592 2
42.3309 27.0271 2
38.3062 20.7364 2
40.6451 23.9406 2
33.5952 17.5605 3.99007
40.097 26.4327 3.9565
37.9824 23.6925 3.99611
35.546 20.5552 3.99272
37.5307 37.4838 3.4253
38.9439 37.4885 2
40.1246 37.4053 0.59006
41.5301 52.5226 -0.00603154
40.5378 48.9926 0.0137165
39.0021 38.9642 0.668174
39.5087 45.1131 0.261538
37.4942 43.9022 0.399068
37.4999 40.4821 0.557873
35.9175 41.9544 0.645834
39.6285 51.2318 2
37.4672 38.9724 2
36.0407 40.4463 2
38.577 47.8771 2
34.6723 41.6617 2
35.6044 43.7046 2
37.4903 45.4817 2
37.6877 50.2218 3.98866
36.1574 39.0011 3.32324
34.8745 40.3736 3.36801
33.926 41.3894 3.3499
34.3943 42.9278 3.52796
35.443 45.1959 3.76918
36.9602 47.4411 3.86425
38.6533 53.3324 0.000973771
36.814 52.606 2
34.5691 52.0358 3.99842
34.5075 58.3626 0.00498685
36.325 55.0001 0.00419484
33.4617 55.176 2
30.9897 53.1386 3.99439
30.4362 57.5197 0.0171193
29.1058 55.1325 2
27.4996 53.118 3.9514
27.239 56.6132 0.0380568
25.8112 54.8504 2
24.309 53.086 3.95283
21.3391 52.803 3.9587
20.4909 55.5056 3.95958
22.3918 55.0048 2
24.1946 56.5372 0.0463213
19.7415 57.6445 3.96056
20.5985 56.754 2
19.8101 60.0292 3.96684
20.8401 58.5633 2
21.7134 57.1168 0.0399365
20.2743 62.69 3.96956
21.2706 60.9885 2
22.1423 59.4152 0.0326707
20.96 65.7024 3.96408
21.9396 63.7118 2
22.8199 61.8479 0.0306325
23.7176 64.639 0.0372677
22.8476 66.6987 2
21.919 68.8679 3.98019
24.8204 67.5832 0.0298349
24.0094 69.8 2
23.1494 72.1454 4
26.1713 70.6029 0.0129325
25.446 73.0099 2
27.7943 73.7221 0
25.8648 9.44657 3.96939
27.0717 6.55555 3.97434
27.8231 8.68943 2
28.4909 3.64655 3.98791
29.1534 5.88895 2
29.8117 8.02252 0.0306626
30.1841 0.720592 4
30.7244 3.10147 2
31.2546 5.34279 0.0195847
32.6053 0.320817 2
32.9821 2.70369 0.0102248
35.0474 0.080333 0
37.5227 36.0051 3.38863
38.826 35.9746 2
40.2473 35.9777 0.571239
24.8114 12.1447 3.965
23.8233 14.5881 3.98155
28.5585 10.754 0.030432
26.64 11.4618 2
29.2478 12.7333 2
27.3205 13.4997 3.97521
29.8396 14.2575 4.00554
36.0058 34.5333 3.35893
37.5417 34.4939 2
38.9677 34.5353 0.672864
37.4929 32.8853 0.571356
43.1586 30.4276 0.148919
41.1634 30.5314 0.2348
39.3638 31.3831 0.448032
41.5994 29.0932 2
39.5368 29.7706 2
37.4941 30.9849 2
35.9763 32.9989 2
39.6966 28.4658 3.83719
37.4761 29.5351 3.75291
35.6267 31.4069 3.55011
34.7226 33.3693 3.2675
31.0228 16.928 3.99629
31.9525 14.5363 2
34.1133 12.9953 0.0168309
31.2058 12.0556 0.0285258
42.2768 27.0741 0.0315322
40.6791 23.9166 -0.00376048
33.6557 15.9802 0.00751029
35.8395 17.7485 0.00885274
38.3452 20.6766 0.00333375
33.5479 17.5886 2
35.4806 20.601 2
40.1088 26.4255 2
38.0459 23.6865 2
33.0479 20.1476 3.99625
37.7691 26.1031 3.95402
35.4394 23.3108 4.00365
36.0969 37.4832 3.30687
37.495 37.4815 2
38.9926 37.4851 0.70265
39.6438 51.2458 0.00186743
38.547 47.8065 0.0852524
37.4895 38.9612 0.598254
37.4712 45.4021 0.229528
35.6252 43.5982 0.45305
36.0613 40.4754 0.662548
34.7533 41.645 0.744473
37.6216 50.2601 2
36.2179 38.9809 2
34.8375 40.3963 2
36.929 47.517 2
33.8796 41.4035 2
34.3243 43.0214 2
35.4098 45.2627 2
35.6093 49.4006 3.98068
34.8083 38.9666 3.42646
33.5514 40.4085 3.31425
33.5921 42.0912 3.55788
33.8855 44.4377 3.75437
34.7678 46.6068 3.8447
36.7847 52.6699 0.000317706
34.5568 52.0535 2
32.5339 50.7668 4.00521
33.4565 55.1777 -0.00573691
30.9957 53.135 2
29.1247 51.114 3.9841
29.0988 55.1315 0.0157052
27.5073 53.1094 2
25.9377 51.2876 3.95708
25.7974 54.8536 0.0467006
24.3167 53.0874 2
22.9435 51.3433 3.9542
20.2584 51.1775 3.96589
19.6834 53.9318 3.96153
21.3357 52.8027 2
18.9314 56.4314 3.96129
20.4863 55.5082 2
22.3882 55.0045 0.0410532
18.5585 58.9116 3.95356
19.742 57.6455 2
20.6038 56.7503 0.0385864
18.6803 61.6434 3.97702
19.821 60.0282 2
20.8526 58.5558 0.0432744
19.1567 64.5826 3.96605
20.2711 62.6952 2
21.2646 60.9768 0.0354969
19.8932 67.8063 3.97804
20.9499 65.7076 2
21.9433 63.7219 0.0333854
22.8515 66.7092 0.0326652
21.913 68.8636 2
20.9142 71.1327 4
24.0151 69.8046 0.0147176
23.1494 72.1455 2
25.446 73.0099 0
23.1329 12.9695 3.9689
23.9872 10.2195 3.96758
25.0268 7.33144 3.97029
25.8663 9.4386 2
26.2831 4.33161 3.98604
27.068 6.55767 2
27.8236 8.70174 0.0294414
27.7943 1.27781 4
28.4857 3.64838 2
29.1567 5.8891 0.0216953
30.1841 0.720551 2
30.7281 3.10127 0.0113558
32.6053 0.320823 0
36.0316 36.0143 3.33572
37.5751 36.0205 2
38.8546 36.0223 0.687282
24.7931 12.1989 2
23.8197 14.6029 2
22.591 15.2498 3.97585
25.4036 14.1097 3.97064
24.1605 15.8421 4.00163
26.6441 11.4638 0.0290365
29.2537 12.7024 0.0243178
27.3288 13.4706 2
29.8268 14.2851 2
28.4726 16.0115 3.9909
34.8983 34.6315 3.34919
36.0694 34.5352 2
37.5042 34.5156 0.558509
35.9236 33.051 0.63938
37.4919 31.0696 0.395421
41.5701 29.1753 0.154683
39.5328 29.8584 0.240913
39.7545 28.4022 2
37.4757 29.4905 2
35.6112 31.3078 2
34.6362 33.3495 2
37.5868 28.1536 3.83302
35.4782 29.8677 3.75168
34.367 32.0857 3.53158
33.9105 33.6319 3.3519
30.4074 19.7915 3.98491
30.9778 16.9375 2
31.9619 14.5641 0.0155558
40.097 26.4327 0.0434988
37.9824 23.6925 0.00388827
33.5952 17.5605 0.00993464
35.546 20.5552 0.00728382
33.0357 20.1638 2
35.3658 23.2905 2
37.7318 26.0791 2
32.7116 22.9325 4.00713
35.2716 25.9555 3.97364
34.8259 37.5202 3.43859
36.0861 37.5091 2
37.5307 37.4838 0.574697
37.6877 50.2218 0.0113383
36.9602 47.4411 0.135752
36.1574 39.0011 0.676759
35.443 45.1959 0.230816
34.3943 42.9278 0.47204
34.8745 40.3736 0.631992
33.926 41.3894 0.650101
35.6158 49.4093 2
34.7796 38.982 2
33.5131 40.4009 2
34.7189 46.6856 2
33.5263 42.1848 2
33.8336 44.4986 2
33.7413 48.5063 3.96767
33.2848 39.0345 3.2812
33.045 40.966 3.54248
32.5921 43.2454 3.75859
33.1479 45.5893 3.83863
34.5691 52.0358 0.00158007
32.5507 50.7554 2
30.751 49.2446 4.00387
30.9897 53.1386 0.00561204
29.134 51.1028 2
27.5115 49.4676 3.97996
27.4996 53.118 0.0486022
25.9479 51.2875 2
24.4362 49.6803 3.97083
24.309 53.086 0.0471679
22.9458 51.3404 2
21.6572 49.8091 3.96666
18.9421 49.9173 3.97371
18.7308 52.391 3.96758
20.2559 51.1763 2
18.0897 55.0097 3.96288
19.6767 53.9328 2
21.3391 52.803 0.041301
17.4948 57.6337 3.95984
18.9297 56.4327 2
20.4909 55.5056 0.0404181
17.2448 60.4115 3.94895
18.5691 58.9117 2
19.7415 57.6445 0.0394382
17.4193 63.3977 3.96821
18.6791 61.6325 2
19.8101 60.0292 0.033165
17.9523 66.6077 3.96861
19.1426 64.5805 2
20.2743 62.69 0.0304438
18.75 69.9759 4
19.8878 67.8 2
20.96 65.7024 0.0359185
21.919 68.8679 0.0198058
20.9142 71.1327 2
23.1494 72.1454 0
21.6483 13.782 3.96876
22.2119 11.1215 3.96325
23.1316 12.9623 2
23.0462 8.20908 3.96993
23.9811 10.2503 2
24.1212 5.14583 3.98544
25.0213 7.33038 2
25.8648 9.44657 0.0306107
25.446 1.99014 4
26.2769 4.33374 2
27.0717 6.55555 0.025664
27.7943 1.27778 2
28.4909 3.64655 0.0120854
30.1841 0.720592 0
34.9023 36.0511 3.38591
36.0799 36.0135 2
37.5227 36.0051 0.611375
21.4723 16.0562 3.95774
24.8114 12.1447 0.0350006
23.8233 14.5881 0.0184499
25.4026 14.0763 2
22.5922 15.2427 2
24.164 15.8622 2
23.4578 16.47 3.96614
25.5101 16.3549 3.98833
27.3205 13.4997 0.0247937
29.8396 14.2575 -0.00553876
28.4583 16.0834 2
27.6702 19.1869 3.98923
33.5427 34.6178 3.33485
34.8016 34.6455 2
36.0058 34.5333 0.641072
34.7226 33.3693 0.732495
35.6267 31.4069 0.449893
37.4761 29.5351 0.247095
39.6966 28.4658 0.162805
37.5505 28.1197 2
33.8676 33.6206 2
35.4615 29.7922 2
34.3062 31.9882 2
35.3586 28.2516 3.85735
33.8504 30.564 3.76426
33.5619 32.9193 3.56149
30.0644 22.4312 4.01111
30.3718 19.8232 2
31.0228 16.928 0.00370703
37.7691 26.1031 0.045981
35.4394 23.3108 -0.00364559
33.0479 20.1476 0.00374605
32.7281 22.8956 2
35.2778 25.9453 2
32.4293 26.2712 4.02248
33.1641 37.511 3.32268
34.8088 37.5167 2
36.0969 37.4832 0.693134
35.6093 49.4006 0.0193239
34.7678 46.6068 0.155296
34.8083 38.9666 0.573543
33.8855 44.4377 0.245635
33.5921 42.0912 0.442123
33.5514 40.4085 0.685754
33.6893 48.5092 2
33.2643 39.0399 2
32.9623 41.0469 2
33.1298 45.6615 2
32.5362 43.2701 2
32.123 47.2704 3.97895
32.4923 39.4406 3.55153
31.7101 41.6356 3.80059
31.7248 44.2934 3.83645
32.5339 50.7668 -0.00521219
30.7652 49.2583 2
29.0675 47.6773 3.97714
29.1247 51.114 0.0158965
27.5191 49.4661 2
25.9301 47.9099 3.97689
25.9377 51.2876 0.0429159
24.4411 49.6785 2
22.9859 48.2378 3.97326
22.9435 51.3433 0.0458
21.6576 49.8064 2
20.1345 48.6546 3.97483
17.8175 48.9786 3.97559
17.5933 51.0439 3.973
18.944 49.9166 2
17.1013 53.5366 3.9688
18.7315 52.3895 2
20.2584 51.1775 0.0341132
16.4635 56.2119 3.96441
18.0863 55.0109 2
19.6834 53.9318 0.0384714
15.9116 59.0543 3.95663
17.501 57.6344 2
18.9314 56.4314 0.0387128
15.7998 62.0476 3.96761
17.2305 60.4197 2
18.5585 58.9116 0.046442
16.0984 65.2975 3.97081
17.4203 63.4112 2
18.6803 61.6434 0.0229779
16.6661 68.6801 4
17.9448 66.6027 2
19.1567 64.5826 0.033945
18.75 69.9759 2
19.8932 67.8063 0.021958
20.9142 71.1327 0
20.3151 14.7847 3.95597
21.6481 13.7791 2
20.5663 12.1445 3.96905
21.153 9.19332 3.97133
22.201 11.1417 2
23.1329 12.9695 0.0311001
22.0226 6.08588 3.98513
23.0408 8.21684 2
23.9872 10.2195 0.0324163
23.1494 2.85457 4
24.1147 5.1511 2
25.0268 7.33144 0.0297064
25.446 1.99012 2
26.2831 4.33161 0.013963
27.7943 1.27781 0
33.2654 35.9972 3.33736
34.8309 36.0533 2
36.0316 36.0143 0.664276
21.4841 16.0624 2
20.5726 17.2416 3.96141
22.3117 16.8684 3.96657
25.4036 14.1097 0.0293601
22.591 15.2498 0.0241509
24.1605 15.8421 -0.00163022
25.514 16.3495 2
23.4613 16.4761 2
24.4707 18.8257 3.97871
27.5412 21.9924 3.99
28.4726 16.0115 0.00909602
27.6486 19.1761 2
33.0247 34.0263 3.54359
33.5082 34.6206 2
34.8983 34.6315 0.650807
33.9105 33.6319 0.648103
34.367 32.0857 0.468422
35.4782 29.8677 0.248319
37.5868 28.1536 0.16698
35.34 28.204 2
33.512 32.8278 2
33.8012 30.4908 2
33.3253 28.9062 3.86724
32.5931 31.7605 3.75435
29.6036 24.9328 4.01214
30.0776 22.3908 2
30.4074 19.7915 0.0150868
35.2716 25.9555 0.0263594
32.7116 22.9325 -0.0071322
32.4101 26.2307 2
30.7361 27.9047 3.98943
32.3405 37.4912 3.52947
33.1296 37.5125 2
34.8259 37.5202 0.561412
33.7413 48.5063 0.0323306
33.1479 45.5893 0.161366
33.2848 39.0345 0.718803
32.5921 43.2454 0.241408
33.045 40.966 0.457518
32.0816 47.3045 2
32.4008 39.4424 2
31.6424 41.6854 2
31.6431 44.3607 2
30.5341 45.9009 3.97253
31.0029 39.6517 3.80586
30.4147 42.658 3.86312
30.751 49.2446 -0.0038675
29.0747 47.6874 2
27.4143 46.1178 3.98584
27.5115 49.4676 0.0200408
25.936 47.9079 2
24.3183 46.5161 3.97587
24.4362 49.6803 0.0291707
22.9864 48.2357 2
21.244 47.1644 3.97487
21.6572 49.8091 0.0333388
20.1338 48.6544 2
18.7284 47.7997 3.97547
17.0586 48.3567 3.97504
17.8177 48.9795 2
16.6468 49.8525 3.97456
16.0472 52.1133 3.97319
17.5951 51.0425 2
18.9421 49.9173 0.0262886
15.3856 54.7227 3.97
17.1033 53.5359 2
18.7308 52.391 0.0324187
14.7164 57.5767 3.96213
16.4664 56.2119 2
18.0897 55.0097 0.0371176
14.2919 60.6298 3.95335
15.9048 59.0576 2
17.4948 57.6337 0.0401594
14.3407 63.852 3.96431
15.8067 62.0547 2
17.2448 60.4115 0.051049
14.6715 67.2507 4
16.0925 65.2859 2
17.4193 63.3977 0.03179
16.6661 68.6801 2
17.9523 66.6077 0.0313931
18.75 69.9759 0
19.1051 16.0103 3.95744
20.326 14.7722 2
19.0262 13.2801 3.96499
21.6483 13.782 0.0312412
20.552 12.1402 2
19.361 10.3047 3.96956
19.9981 7.14834 3.97924
21.1458 9.19406 2
22.2119 11.1215 0.0367463
20.9142 3.86727 4
22.0125 6.08697 2
23.0462 8.20908 0.0300696
23.1494 2.85451 2
24.1212 5.14583 0.0145568
25.446 1.99014 0
32.5042 35.5502 3.53612
33.2314 35.9926 2
34.9023 36.0511 0.614086
21.4723 16.0562 0.0422643
22.3268 16.8782 2
20.5887 17.2401 2
19.6532 18.7324 3.96618
22.0431 18.2226 3.97975
25.5101 16.3549 0.011674
23.4578 16.47 0.0338601
24.4897 18.8389 2
22.8051 20.2927 3.96816
25.1625 21.8386 3.98579
27.2689 24.1649 3.97266
27.567 21.9086 2
27.6702 19.1869 0.0107711
31.6908 33.372 3.79831
32.958 33.9745 2
33.5427 34.6178 0.665145
33.5619 32.9193 0.438511
33.8504 30.564 0.235744
35.3586 28.2516 0.142654
33.2794 28.8487 2
32.5026 31.691 2
31.4252 30.2423 3.88483
29.0366 27.0985 4.01436
29.6058 24.9079 2
30.0644 22.4312 -0.0111068
32.4293 26.2712 -0.0224816
30.7368 27.9121 2
30.8265 37.4812 3.81067
32.2248 37.4923 2
33.1641 37.511 0.677321
32.123 47.2704 0.0210521
31.7248 44.2934 0.163547
32.4923 39.4406 0.448473
31.7101 41.6356 0.199406
30.5496 45.9177 2
30.9048 39.6724 2
30.3862 42.6895 2
28.936 44.3207 3.95504
28.7675 40.3065 3.90782
29.0675 47.6773 0.0228558
27.4186 46.1205 2
25.6843 44.6702 3.9781
25.9301 47.9099 0.0231083
24.3199 46.5163 2
22.3613 45.4914 3.97601
22.9859 48.2378 0.0267426
21.245 47.1644 2
19.5289 46.3706 3.97483
20.1345 48.6546 0.0251731
18.729 47.8006 2
17.3281 47.3929 3.97468
17.0603 48.3577 2
16.0207 48.7207 3.97454
17.8175 48.9786 0.0244118
16.6486 49.852 2
15.151 50.7171 3.97377
14.3291 53.2056 3.97316
16.0481 52.1128 2
17.5933 51.0439 0.0270011
13.5736 56.0054 3.96349
15.3865 54.7228 2
17.1013 53.5366 0.031203
12.9313 59.0577 3.9517
14.7176 57.5773 2
16.4635 56.2119 0.0355934
12.6869 62.2937 3.96434
14.2985 60.6361 2
15.9116 59.0543 0.0433715
12.7746 65.6939 4
14.3367 63.8424 2
15.7998 62.0476 0.0323926
14.6714 67.2507 2
16.0984 65.2975 0.0291908
16.6661 68.6801 0
17.998 17.4205 3.95997
19.13 16.0045 2
17.5823 14.5298 3.95427
20.3151 14.7847 0.0440259
19.0185 13.2403 2
17.6706 11.5678 3.96863
20.5663 12.1445 0.0309521
19.3508 10.3241 2
18.0583 8.34464 3.97309
18.75 5.0241 4
19.9878 7.15979 2
21.153 9.19332 0.0286671
20.9142 3.86727 2
22.0226 6.08588 0.0148729
23.1494 2.85457 0
31.0014 35.3511 3.80019
32.4022 35.5428 2
33.2654 35.9972 0.662639
22.3117 16.8684 0.033434
20.5726 17.2416 0.0385927
22.0722 18.214 2
19.6591 18.7288 2
18.6014 20.308 3.96863
21.3785 19.7649 3.97521
24.4707 18.8257 0.0212871
22.8164 20.2916 2
25.1829 21.7989 2
23.1035 22.1824 3.97308
25.5924 23.4933 3.96727
26.6824 26.4706 3.98566
27.2696 24.178 2
27.5412 21.9924 0.0100012
30.1362 32.7993 3.85919
31.6214 33.3216 2
33.0247 34.0263 0.456409
32.5931 31.7605 0.245654
33.3253 28.9062 0.132763
31.4013 30.1965 2
28.5412 29.7088 4.00206
29.0267 27.1261 2
29.6036 24.9328 -0.0121445
30.7361 27.9047 0.0105667
29.1108 37.451 3.82733
30.7018 37.4981 2
32.3405 37.4912 0.470529
30.5341 45.9009 0.0274669
30.4147 42.658 0.136878
31.0029 39.6517 0.194143
28.9441 44.375 2
28.7211 40.3422 2
27.1368 42.8595 3.98333
26.1318 39.33 3.97716
27.4143 46.1178 0.0141577
25.6773 44.6779 2
23.6471 43.5594 3.97445
24.3183 46.5161 0.0241254
22.3608 45.4909 2
20.3842 44.6279 3.97445
21.244 47.1644 0.0251257
19.5292 46.3709 2
17.7215 45.9084 3.97486
18.7284 47.7997 0.0245254
17.3287 47.3934 2
15.7997 47.4037 3.97458
17.0586 48.3567 0.0249612
16.0226 48.7211 2
14.4769 49.302 3.97421
16.6468 49.8525 0.0254369
15.152 50.7166 2
13.3985 51.6674 3.97359
12.4587 54.3831 3.96767
14.3302 53.2054 2
16.0472 52.1133 0.0268096
11.6566 57.3939 3.95701
13.5684 56.0071 2
15.3856 54.7227 0.0299959
11.1419 60.6197 3.96263
12.9298 59.0592 2
14.7164 57.5767 0.0378747
10.9835 64.0165 4
12.6844 62.284 2
14.2919 60.6298 0.0466508
12.7745 65.694 2
14.3407 63.852 0.0356879
14.6715 67.2507 0
16.863 18.9377 3.9632
18.0091 17.4165 2
16.2906 15.9616 3.95758
19.1051 16.0103 0.0425567
17.5897 14.5286 2
16.0357 12.8861 3.95847
19.0262 13.2801 0.0350053
17.6483 11.5514 2
16.2104 9.67046 3.96655
19.361 10.3047 0.0304429
18.0494 8.35538 2
16.6661 6.31991 4
18.75 5.02404 2
19.9981 7.14834 0.0207562
20.9142 3.86727 0
29.4054 34.9969 3.87501
30.8747 35.3242 2
32.5042 35.5502 0.46388
17.3358 21.7292 3.97167
22.0431 18.2226 0.0202473
19.6532 18.7324 0.0338194
21.3874 19.7616 2
18.594 20.3016 2
20.5215 22.02 3.97384
22.8051 20.2927 0.0318388
25.1625 21.8386 0.0142061
23.1077 22.1804 2
25.5806 23.5403 2
23.9975 25.1264 3.97215
26.1193 29.0922 3.98342
26.6797 26.4958 2
27.2689 24.1649 0.0273357
28.0301 32.1403 3.97289
30.0864 32.7737 2
31.6908 33.372 0.201686
31.4252 30.2423 0.115174
28.5438 29.6645 2
29.0366 27.0985 -0.0143581
26.8898 36.9019 3.95307
29.0451 37.4022 2
30.8265 37.4812 0.189325
28.936 44.3207 0.0449574
28.7675 40.3065 0.0921802
27.1133 42.8976 2
26.0766 39.3158 2
24.9289 41.546 3.9746
23.8289 38.4993 3.9749
25.6843 44.6702 0.0219016
23.6459 43.5663 2
21.3192 42.6101 3.97448
22.3613 45.4914 0.0239914
20.3863 44.6286 2
18.1585 44.115 3.97508
19.5289 46.3706 0.0251729
17.7222 45.9089 2
15.7732 45.8494 3.97501
17.3281 47.3929 0.0253151
15.7999 47.4039 2
14.0102 47.7939 3.97444
16.0207 48.7207 0.0254596
14.4777 49.3019 2
12.6403 50.0658 3.97422
15.151 50.7171 0.0262335
13.3992 51.6672 2
11.4515 52.7099 3.9713
10.4616 55.6527 3.95961
12.4552 54.384 2
14.3291 53.2056 0.0268425
9.70925 58.8451 3.96401
11.6597 57.3941 2
13.5736 56.0054 0.0365116
9.30605 62.2254 4
11.1406 60.6124 2
12.9313 59.0577 0.0483049
10.9835 64.0165 2
12.6869 62.2937 0.0356616
12.7746 65.6939 0
15.6321 20.4565 3.96918
16.871 18.9346 2
15.0273 17.4928 3.96072
17.998 17.4205 0.0400303
16.2626 15.9502 2
14.4999 14.3724 3.95464
17.5823 14.5298 0.0457316
16.0447 12.8868 2
14.453 11.1215 3.96769
17.6706 11.5678 0.0313716
16.2037 9.68559 2
14.6715 7.74927 4
18.0583 8.34464 0.0269094
16.6661 6.31988 2
18.75 5.0241 0
27.3556 34.5205 3.97497
29.3499 35.0055 2
31.0014 35.3511 0.199806
18.6574 22.7373 3.97421
16.2216 23.2512 3.97234
17.3369 21.7255 2
21.3785 19.7649 0.0247873
18.6014 20.308 0.0313734
20.5293 22.0191 2
20.7245 24.8876 3.9721
23.1035 22.1824 0.0269156
25.5924 23.4933 0.0327311
23.9999 25.1233 2
23.4984 28.387 3.97032
25.6149 31.5965 3.98255
26.1321 28.9885 2
26.6824 26.4706 0.0143408
27.9951 32.1168 2
30.1362 32.7993 0.140805
28.5412 29.7088 -0.00205952
24.5588 36.3646 3.9783
26.8229 36.9088 2
29.1108 37.451 0.172671
27.1368 42.8595 0.0166686
26.1318 39.33 0.0228446
24.895 41.5568 2
23.8198 38.5056 2
22.5323 40.4562 3.97538
21.8144 37.7866 3.97823
23.6471 43.5594 0.0255472
21.3202 42.608 2
18.6701 41.9112 3.97565
20.3842 44.6279 0.0255467
18.1589 44.1148 2
15.8285 44.0004 3.97518
17.7215 45.9084 0.0251401
15.773 45.8496 2
13.7062 46.1107 3.97478
15.7997 47.4037 0.025418
14.0098 47.7939 2
12.0281 48.3882 3.97481
14.4769 49.302 0.0257907
12.6411 50.0654 2
10.5864 50.9663 3.97351
13.3985 51.6674 0.0264079
11.4516 52.7096 2
9.36028 53.8411 3.96197
8.39186 56.9811 3.96682
10.465 55.6515 2
12.4587 54.3831 0.0323331
7.74927 60.3285 4
9.70818 58.8389 2
11.6566 57.3939 0.0429867
9.306 62.2255 2
11.1419 60.6197 0.0373656
10.9835 64.0165 0
14.4651 22.0028 3.97244
15.6354 20.4525 2
13.7442 19.0725 3.96445
16.863 18.9377 0.0367974
15.0118 17.4835 2
13.0559 15.9457 3.95435
16.2906 15.9616 0.04242
14.5204 14.3634 2
12.7892 12.6952 3.96562
16.0357 12.8861 0.0415329
14.4475 11.1352 2
12.7746 9.30605 4
16.2104 9.67046 0.0334451
14.6715 7.74924 2
16.6661 6.31991 0
25.0273 34.0288 3.97974
27.3301 34.4652 2
29.4054 34.9969 0.12499
18.5544 24.4701 3.97194
18.665 22.737 2
15.0348 24.7205 3.97351
16.2206 23.2487 2
17.3358 21.7292 0.0283275
20.2768 27.6397 3.97264
20.5215 22.02 0.026163
20.7281 24.8879 2
22.8699 31.0588 3.97379
23.9975 25.1264 0.0278483
23.493 28.3941 2
25.5565 31.6778 2
26.1193 29.0922 0.0165779
28.0301 32.1403 0.027107
21.8956 36.0248 3.97751
24.5392 36.3793 2
26.8898 36.9019 0.0469342
24.9289 41.546 0.0254008
23.8289 38.4993 0.0250977
22.5394 40.4581 2
21.8113 37.7866 2
19.4844 38.948 3.97706
21.3192 42.6101 0.0255197
18.6708 41.911 2
15.824 41.7909 3.97584
18.1585 44.115 0.0249159
15.8282 44.0001 2
13.4675 44.2452 3.97514
15.7732 45.8494 0.0249855
13.7053 46.1109 2
11.5363 46.5982 3.97488
14.0102 47.7939 0.0255578
12.0287 48.3878 2
9.86467 49.1373 3.97528
12.6403 50.0658 0.0257806
10.5872 50.9655 2
8.38995 51.9611 3.9634
11.4515 52.7099 0.0287046
9.35898 53.8402 2
7.20043 55.0329 3.96792
6.31991 58.3339 4
8.39068 56.9755 2
10.4616 55.6527 0.0403906
7.74924 60.3285 2
9.70925 58.8451 0.0359858
9.30605 62.2254 0
13.857 25.5953 3.97562
13.359 23.5011 3.97339
14.4662 21.9992 2
12.5572 20.7051 3.96825
15.6321 20.4565 0.0308186
13.7322 19.0652 2
11.7665 17.6289 3.95375
15.0273 17.4928 0.0392765
13.0884 15.9476 2
11.2282 14.3826 3.96225
14.4999 14.3724 0.0453587
12.7881 12.7076 2
10.9835 10.9835 4
14.453 11.1215 0.0323114
12.7745 9.306 2
14.6715 7.74927 0
22.2526 33.6437 3.97711
25.0263 33.9724 2
27.3556 34.5205 0.0250326
16.8428 26.7171 3.97371
18.5559 24.4705 2
18.6574 22.7373 0.0257887
15.032 24.7211 2
16.2216 23.2512 0.0276577
19.6683 30.496 3.97487
20.2796 27.6381 2
20.7245 24.8876 0.0278957
22.8841 31.0468 2
23.4984 28.387 0.0296817
25.6149 31.5965 0.01745
19.0496 36.0461 3.97721
21.8943 36.02 2
24.5588 36.3646 0.0216978
22.5323 40.4562 0.0246155
21.8144 37.7866 0.0217677
19.4832 38.9485 2
15.302 39.1357 3.97683
18.6701 41.9112 0.0243462
15.824 41.7907 2
13.1564 42.1799 3.97582
15.8285 44.0004 0.0248237
13.4668 44.2451 2
11.115 44.6972 3.97531
13.7062 46.1107 0.0252236
11.5364 46.598 2
9.25213 47.2298 3.97583
12.0281 48.3882 0.0251942
9.86673 49.1363 2
7.54991 50.0011 3.96489
10.5864 50.9663 0.0264893
8.38824 51.9602 2
6.14025 53.0081 3.96892
9.36028 53.8411 0.0380302
7.20001 55.0281 2
5.0241 56.25 4
6.31988 58.3339 2
8.39186 56.9811 0.0331823
7.74927 60.3285 0
14.1676 27.0363 3.97449
12.4493 24.9731 3.97486
13.8559 25.5955 2
11.47 22.3723 3.97236
13.3562 23.4998 2
14.4651 22.0028 0.0275611
12.5514 20.7006 2
10.5452 19.3862 3.95779
13.7442 19.0725 0.0355485
11.777 17.629 2
9.76898 16.1634 3.96386
13.0559 15.9457 0.0456484
11.2275 14.3901 2
9.30607 12.7746 4
12.7892 12.6952 0.0343763
10.9835 10.9835 2
12.7746 9.30605 0
19.1883 33.2954 3.97567
22.2452 33.6509 2
25.0273 34.0288 0.0202562
16.4734 29.8899 3.97497
16.8429 26.7197 2
18.5544 24.4701 0.0280617
15.0348 24.7205 0.0264909
19.6645 30.4974 2
20.2768 27.6397 0.0273574
22.8699 31.0588 0.0262077
15.9617 36.0734 3.97706
19.0474 36.0468 2
21.8956 36.0248 0.022491
13.402 37.8308 3.9771
19.4844 38.948 0.0229433
15.3023 39.1355 2
12.6393 40.0927 3.9764
15.824 41.7909 0.0241551
13.1556 42.1796 2
10.7056 42.7055 3.97559
13.4675 44.2452 0.0248611
11.115 44.6972 2
8.72406 45.2503 3.97596
11.5363 46.5982 0.0251166
9.25495 47.2286 2
6.82472 47.9743 3.96669
9.86467 49.1373 0.024716
7.54875 50.0002 2
5.21616 50.9111 3.96979
8.38995 51.9611 0.0366039
6.14034 53.0046 2
3.86727 54.0858 4
7.20043 55.0329 0.032085
5.02404 56.25 2
6.31991 58.3339 0
13.6427 29.2106 3.97407
11.8951 26.6412 3.97458
14.1676 27.0369 2
10.5197 24.086 3.97486
12.4505 24.9731 2
13.857 25.5953 0.0243832
9.38552 21.1937 3.96181
11.4692 22.3698 2
13.359 23.5011 0.0266082
12.5572 20.7051 0.0317456
10.5525 19.3868 2
8.42421 18.0315 3.96665
11.7665 17.6289 0.046252
9.7689 16.1692 2
7.74928 14.6715 4
11.2282 14.3826 0.0377468
9.30602 12.7745 2
10.9835 10.9835 0
15.449 32.9941 3.97621
19.1887 33.2944 2
22.2526 33.6437 0.0228861
16.4746 29.8896 2
16.8428 26.7171 0.0262877
19.6683 30.496 0.025126
13.7163 36.2438 3.97674
15.9619 36.0734 2
19.0496 36.0461 0.022792
13.4016 37.8308 2
11.9382 38.3026 3.97643
15.302 39.1357 0.0231712
12.6387 40.0927 2
10.2706 40.714 3.976
13.1564 42.1799 0.0241845
10.7057 42.705 2
8.26414 43.2199 3.97607
11.115 44.6972 0.0246868
8.72738 45.2499 2
6.21119 45.8874 3.9682
9.25213 47.2298 0.0241654
6.8242 47.9734 2
4.42687 48.7514 3.97055
7.54991 50.0011 0.0351051
5.21654 50.9087 2
2.85457 51.8506 4
6.14025 53.0081 0.0310846
3.86727 54.0858 2
5.0241 56.25 0
12.757 31.3759 3.97545
11.3001 28.546 3.9748
13.6427 29.2104 2
9.73634 25.9007 3.97564
11.8956 26.6416 2
14.1676 27.0363 0.0255093
8.34965 23.0664 3.96395
10.5201 24.0846 2
12.4493 24.9731 0.0251363
7.20604 19.9795 3.96786
9.38814 21.1945 2
11.47 22.3723 0.0276391
10.5452 19.3862 0.0422061
8.42392 18.0361 2
6.31992 16.6661 4
9.76898 16.1634 0.0361367
7.74926 14.6714 2
9.30607 12.7746 0
12.8115 34.3669 3.9766
15.4491 32.9947 2
19.1883 33.2954 0.0243296
16.4734 29.8899 0.0250256
11.4505 36.6349 3.97639
13.7162 36.2438 2
15.9617 36.0734 0.0229359
13.402 37.8308 0.0229024
11.9375 38.3025 2
9.83639 38.813 3.97625
12.6393 40.0927 0.0235988
10.2704 40.7138 2
7.8616 41.1828 3.97616
10.7056 42.7055 0.0244144
8.26637 43.2188 2
5.70288 43.7575 3.96907
8.72406 45.2503 0.0240373
6.20988 45.8866 2
3.772 46.5367 3.97119
6.82472 47.9743 0.0333062
4.42755 48.7495 2
1.99014 49.554 4
5.21616 50.9111 0.0302078
2.85451 51.8506 2
3.86727 54.0858 0
11.5224 33.0028 3.97627
10.5916 30.478 3.97522
12.756 31.3766 2
9.03857 27.8167 3.97575
11.2999 28.5458 2
13.6427 29.2106 0.0259338
7.45705 25.0159 3.96549
9.73747 25.9002 2
11.8951 26.6412 0.0254168
6.12191 22.0021 3.96928
8.34883 23.0671 2
10.5197 24.086 0.0251389
5.02411 18.75 4
7.2061 19.9831 2
9.38552 21.1937 0.0381879
8.42421 18.0315 0.0333461
6.3199 16.6661 2
7.74928 14.6715 0
11.0162 35.0438 3.97606
12.811 34.3669 2
15.449 32.9941 0.0237912
9.48012 36.9975 3.97627
11.4497 36.6352 2
13.7163 36.2438 0.0232585
11.9382 38.3026 0.0235722
9.83657 38.813 2
7.52333 39.1724 3.97639
10.2706 40.714 0.0240013
7.86509 41.1822 2
5.30595 41.609 3.96929
8.26414 43.2199 0.0239253
5.70282 43.7569 2
3.24949 44.2816 3.97212
6.21119 45.8874 0.0318007
3.77294 46.5353 2
1.27781 47.2057 4
4.42687 48.7514 0.0294459
1.99012 49.554 2
2.85457 51.8506 0
10.6252 33.9372 3.97562
9.84636 32.224 3.97578
11.5217 33.003 2
8.37112 29.7635 3.97605
10.5915 30.4787 2
12.757 31.3759 0.0245511
6.68376 27.0344 3.96622
9.04059 27.8172 2
11.3001 28.546 0.0251996
5.1763 24.0954 3.97
7.45541 25.0166 2
9.73634 25.9007 0.0243555
3.86728 20.9142 4
6.12242 22.0045 2
8.34965 23.0664 0.0360491
5.02406 18.75 2
7.20604 19.9795 0.0321368
6.31992 16.6661 0
9.28254 35.3114 3.97637
11.0155 35.0437 2
12.8115 34.3669 0.0233962
7.29011 37.2125 3.97643
9.48093 36.9976 2
11.4505 36.6349 0.0236143
9.83639 38.813 0.0237544
7.52669 39.1721 2
5.02825 39.4672 3.96908
7.8616 41.1828 0.0238402
5.30528 41.6085 2
2.85972 42.0022 3.97273
5.70288 43.7575 0.0309346
3.2502 44.2804 2
0.720592 44.8159 4
3.772 46.5367 0.0288063
1.27778 47.2057 2
1.99014 49.554 0
9.31433 33.7454 3.97634
10.6248 33.9372 2
7.79268 31.6586 3.97628
9.84769 32.2241 2
11.5224 33.0028 0.0237252
6.01317 29.089 3.96645
8.37361 29.7644 2
10.5916 30.478 0.0247811
4.36317 26.249 3.9705
6.68232 27.035 2
9.03857 27.8167 0.0242538
2.85458 23.1494 4
5.17703 24.0969 2
7.45705 25.0159 0.034506
3.86728 20.9142 2
6.12191 22.0021 0.0307207
5.02411 18.75 0
7.22994 35.3275 3.97656
9.284 35.3115 2
11.0162 35.0438 0.0239425
4.87225 37.3436 3.96867
7.29364 37.2124 2
9.48012 36.9975 0.023727
7.52333 39.1724 0.023612
5.02731 39.4668 2
2.60747 39.7143 3.97333
5.30595 41.609 0.0307061
2.86072 42.0014 2
0.320823 42.3947 4
3.24949 44.2816 0.0278838
0.720551 44.8159 2
1.27781 47.2057 0
7.39143 33.4956 3.9767
9.31607 33.7457 2
10.6252 33.9372 0.0243796
5.46812 31.1479 3.9669
7.79538 31.6592 2
9.84636 32.224 0.0242213
3.68433 28.4458 3.97129
6.0106 29.0894 2
8.37112 29.7635 0.0239456
1.99015 25.446 4
4.36398 26.25 2
6.68376 27.0344 0.0337791
2.85453 23.1494 2
5.1763 24.0954 0.0300032
3.86728 20.9142 0
4.88717 35.2587 3.96786
7.23247 35.3276 2
9.28254 35.3114 0.0236256
2.4989 37.4295 3.974
4.86957 37.3435 2
7.29011 37.2125 0.0235744
5.02825 39.4672 0.0309179
2.60861 39.7141 2
0.080333 39.9526 4
2.85972 42.0022 0.0272739
0.320817 42.3947 2
0.720592 44.8159 0
5.0892 33.2008 3.96719
7.39337 33.496 2
9.31433 33.7454 0.0236559
3.14841 30.6687 3.97228
5.4645 31.1482 2
7.79268 31.6586 0.0237213
1.27793 27.7943 4
3.68539 28.4466 2
6.01317 29.089 0.0335489
1.99013 25.446 2
4.36317 26.249 0.0295033
2.85458 23.1494 0
2.55085 35.1607 3.97377
4.88477 35.2589 2
7.22994 35.3275 0.0234442
0 37.5 4
2.49977 37.4295 2
4.87225 37.3436 0.0313331
2.60747 39.7143 0.0266742
0.0802903 39.9526 2
0.320823 42.3947 0
2.76846 32.908 3.97348
5.08682 33.201 2
7.39143 33.4956 0.023303
0.721173 30.1842 4
3.14975 30.6695 2
5.46812 31.1479 0.0330984
1.27779 27.7943 2
3.68433 28.4458 0.0287091
1.99015 25.446 0
0.0806499 35.0474 4
2.55228 35.1609 2
4.88717 35.2587 0.0321375
0 37.5 2
2.4989 37.4295 0.0259957
0.080333 39.9526 0
0.32156 32.6054 4
2.76941 32.9086 2
5.0892 33.2008 0.032809
0.72056 30.1841 2
3.14841 30.6687 0.0277211
1.27793 27.7943 0
0.0802889 35.0474 2
2.55085 35.1607 0.0262254
0 37.5 0
0.320817 32.6053 2
2.76846 32.908 0.0265228
0.721173 30.1842 0
0.0806499 35.0474 0
0.32156 32.6054 0
CELLS 1910 17190
8 18 6 25 56 2 0 5 16
8 57 23 6 18 17 4 0 2
8 78 36 9 29 31 11 1 7
8 31 11 1 7 79 37 10 30
8 110 57 18 50 48 17 2 14
8 50 18 56 111 14 2 16 49
8 116 62 22 55 52 20 3 15
8 56 25 67 118 16 5 24 53
8 119 63 23 57 54 21 4 17
8 55 22 63 119 15 3 21 54
8 58 26 68 121 18 6 25 56
8 122 65 26 58 57 23 6 18
8 73 31 7 27 142 79 30 71
8 143 78 29 72 73 31 7 27
8 83 147 76 34 32 74 28 8
8 84 148 78 36 33 75 29 9
8 76 34 8 28 148 84 33 75
8 37 79 150 86 10 30 77 35
8 151 87 36 78 80 38 11 31
8 80 38 11 31 152 88 37 79
8 175 100 42 94 96 44 12 40
8 44 96 176 101 12 40 95 43
8 101 176 98 46 43 95 41 13
8 46 98 178 103 13 41 97 45
8 178 103 45 97 147 83 32 74
8 189 116 55 109 106 52 15 47
8 111 56 118 191 49 16 53 107
8 192 119 57 110 108 54 17 48
8 109 55 119 192 47 15 54 108
8 194 122 58 112 110 57 18 50
8 112 58 121 195 50 18 56 111
8 115 61 19 51 197 124 59 113
8 115 61 125 198 51 19 60 114
8 198 125 62 116 114 60 20 52
8 200 127 64 120 116 62 22 55
8 118 67 132 202 53 24 66 117
8 121 68 133 203 56 25 67 118
8 120 64 128 204 55 22 63 119
8 204 128 65 122 119 63 23 57
8 206 134 68 121 123 69 26 58
8 123 69 26 58 207 131 65 122
8 226 147 74 138 140 76 28 70
8 229 148 75 139 143 78 29 72
8 140 76 28 70 229 148 75 139
8 142 79 30 71 231 150 77 141
8 144 80 31 73 232 152 79 142
8 233 151 78 143 144 80 31 73
8 150 86 35 77 235 154 81 145
8 235 154 81 145 146 82 39 91
8 146 82 39 91 236 155 90 165
8 238 157 83 147 149 85 34 76
8 239 158 84 148 151 87 36 78
8 149 85 34 76 239 158 84 148
8 152 88 37 79 241 160 86 150
8 242 161 87 151 153 89 38 80
8 153 89 38 80 243 162 88 152
8 171 98 41 92 265 178 97 169
8 265 178 97 169 226 147 74 138
8 172 96 40 93 266 176 95 170
8 266 176 95 170 171 98 41 92
8 269 175 94 173 172 96 40 93
8 271 180 99 174 175 100 42 94
8 197 124 59 113 271 180 99 174
8 272 181 100 175 177 102 44 96
8 273 182 101 176 179 104 46 98
8 177 102 44 96 273 182 101 176
8 179 104 46 98 275 184 103 178
8 275 184 103 178 238 157 83 147
8 188 115 51 105 283 197 113 186
8 188 115 198 284 105 51 114 187
8 284 198 116 189 187 114 52 106
8 286 200 120 193 189 116 55 109
8 191 118 202 288 107 53 117 190
8 195 121 203 289 111 56 118 191
8 193 120 204 290 109 55 119 192
8 290 204 122 194 192 119 57 110
8 196 123 58 112 292 207 122 194
8 293 206 121 195 196 123 58 112
8 199 126 61 115 297 211 124 197
8 298 212 127 200 198 125 62 116
8 199 126 212 298 115 61 125 198
8 205 129 64 120 300 214 127 200
8 301 217 130 201 202 132 66 117
8 209 136 168 264 301 217 130 201
8 302 219 132 202 203 133 67 118
8 303 220 133 203 206 134 68 121
8 205 129 215 304 120 64 128 204
8 304 215 131 207 204 128 65 122
8 306 221 134 206 208 135 69 123
8 208 135 69 123 307 218 131 207
8 210 137 167 263 309 223 136 209
8 328 238 147 226 230 149 76 140
8 228 146 91 166 329 236 165 260
8 231 150 77 141 330 235 145 227
8 330 235 145 227 228 146 91 166
8 332 239 148 229 233 151 78 143
8 230 149 76 140 332 239 148 229
8 232 152 79 142 334 241 150 231
8 234 153 80 144 335 243 152 232
8 336 242 151 233 234 153 80 144
8 236 155 90 165 338 245 164 259
8 241 160 86 150 339 246 154 235
8 339 246 154 235 237 156 82 146
8 237 156 82 146 340 247 155 236
8 342 249 157 238 240 159 85 149
8 343 250 158 239 242 161 87 151
8 240 159 85 149 343 250 158 239
8 243 162 88 152 345 252 160 241
8 244 163 253 346 153 89 161 242
8 244 163 89 153 347 254 162 243
8 311 224 261 371 210 137 167 263
8 263 167 262 372 209 136 168 264
8 267 179 98 171 375 275 178 265
8 375 275 178 265 328 238 147 226
8 376 273 176 266 267 179 98 171
8 268 177 96 172 376 273 176 266
8 379 272 175 269 268 177 96 172
8 380 271 174 270 269 175 94 173
8 283 197 113 186 380 271 174 270
8 381 277 180 271 272 181 100 175
8 297 211 124 197 381 277 180 271
8 382 278 181 272 274 183 102 177
8 274 183 102 177 383 279 182 273
8 383 279 182 273 276 185 104 179
8 385 281 184 275 342 249 157 238
8 276 185 104 179 385 281 184 275
8 285 199 115 188 393 297 197 283
8 394 298 200 286 284 198 116 189
8 285 199 298 394 188 115 198 284
8 291 205 120 193 396 300 200 286
8 397 301 201 287 288 202 117 190
8 295 209 264 374 397 301 201 287
8 398 302 202 288 289 203 118 191
8 399 303 203 289 293 206 121 195
8 291 205 304 400 193 120 204 290
8 400 304 207 292 290 204 122 194
8 294 208 123 196 402 307 207 292
8 403 306 206 293 294 208 123 196
8 296 210 263 373 405 309 209 295
8 408 312 213 299 297 211 126 199
8 299 213 313 409 199 126 212 298
8 409 313 214 300 298 212 127 200
8 305 216 129 205 411 315 214 300
8 412 318 217 301 302 219 132 202
8 309 223 136 209 412 318 217 301
8 413 320 219 302 303 220 133 203
8 306 221 321 414 206 134 220 303
8 307 218 131 207 415 316 215 304
8 305 216 316 415 205 129 215 304
8 417 322 221 306 308 222 135 208
8 308 222 135 208 418 319 218 307
8 310 225 137 210 420 325 223 309
8 423 326 224 311 310 225 137 210
8 329 236 165 260 441 338 259 368
8 442 342 238 328 333 240 149 230
8 331 237 146 228 443 340 236 329
8 334 241 150 231 444 339 235 330
8 444 339 235 330 331 237 146 228
8 446 343 239 332 336 242 151 233
8 333 240 149 230 446 343 239 332
8 335 243 152 232 448 345 241 334
8 337 244 153 234 449 347 243 335
8 337 244 346 450 234 153 242 336
8 338 245 164 259 452 349 258 367
8 340 247 155 236 453 350 245 338
8 345 252 160 241 454 351 246 339
8 454 351 246 339 341 248 156 237
8 341 248 156 237 455 352 247 340
8 240 159 251 344 342 249 354 457
8 242 161 253 346 343 250 355 458
8 343 250 355 458 240 159 251 344
8 347 254 162 243 460 357 252 345
8 348 255 358 461 244 163 253 346
8 348 255 163 244 462 359 254 347
8 473 360 257 365 363 256 364 482
8 452 349 258 367 365 257 366 485
8 422 324 369 488 311 224 261 371
8 371 261 370 490 263 167 262 372
8 407 311 371 491 296 210 263 373
8 373 263 372 492 295 209 264 374
8 493 385 275 375 442 342 238 328
8 377 276 179 267 493 385 275 375
8 378 274 177 268 494 383 273 376
8 494 383 273 376 377 276 179 267
8 497 382 272 379 378 274 177 268
8 498 381 271 380 379 272 175 269
8 393 297 197 283 498 381 271 380
8 499 387 277 381 382 278 181 272
8 408 312 211 297 499 387 277 381
8 500 388 278 382 384 280 183 274
8 501 389 279 383 386 282 185 276
8 384 280 183 274 501 389 279 383
8 386 282 185 276 503 391 281 385
8 503 391 281 385 457 354 249 342
8 511 408 299 395 393 297 199 285
8 395 299 409 512 285 199 298 394
8 512 409 300 396 394 298 200 286
8 401 305 205 291 514 411 300 396
8 515 412 301 397 398 302 202 288
8 405 309 209 295 515 412 301 397
8 516 413 302 398 399 303 203 289
8 403 306 414 517 293 206 303 399
8 402 307 207 292 518 415 304 400
8 401 305 415 518 291 205 304 400
8 404 308 208 294 520 418 307 402
8 521 417 306 403 404 308 208 294
8 406 310 210 296 523 420 309 405
8 526 423 311 407 406 310 210 296
8 410 314 213 299 527 424 312 408
8 528 425 315 411 409 313 214 300
8 410 314 425 528 299 213 313 409
8 416 317 216 305 530 427 315 411
8 531 430 318 412 413 320 219 302
8 420 325 223 309 531 430 318 412
8 532 432 320 413 414 321 220 303
8 417 322 433 533 306 221 321 414
8 418 319 218 307 534 428 316 415
8 416 317 428 534 305 216 316 415
8 419 323 434 536 308 222 322 417
8 419 323 222 308 537 431 319 418
8 421 327 225 310 539 438 325 420
8 421 327 439 541 310 225 326 423
8 543 437 324 422 423 326 224 311
8 441 338 259 368 559 452 367 486
8 443 340 236 329 560 453 338 441
8 333 240 344 447 442 342 457 561
8 445 341 237 331 562 455 340 443
8 448 345 241 334 563 454 339 444
8 563 454 339 444 445 341 237 331
8 336 242 346 450 446 343 458 565
8 446 343 458 565 333 240 344 447
8 449 347 243 335 567 460 345 448
8 451 348 244 337 568 462 347 449
8 451 348 461 569 337 244 346 450
8 570 463 349 452 473 360 257 365
8 453 350 245 338 570 463 349 452
8 455 352 247 340 571 464 350 453
8 460 357 252 345 572 465 351 454
8 572 465 351 454 456 353 248 341
8 456 353 248 341 573 466 352 455
8 344 251 356 459 457 354 468 575
8 458 355 469 576 344 251 356 459
8 346 253 358 461 458 355 469 576
8 462 359 254 347 578 471 357 460
8 348 255 359 462 461 358 472 579
8 591 474 360 473 475 361 256 363
8 475 361 256 363 594 477 362 479
8 363 256 364 482 479 362 480 603
8 590 473 365 484 481 363 482 605
8 482 364 257 365 606 483 366 485
8 559 452 367 486 484 365 485 607
8 542 436 487 609 422 324 369 488
8 525 422 488 611 407 311 371 491
8 488 369 489 612 371 261 370 490
8 491 371 490 613 373 263 372 492
8 495 386 276 377 614 503 385 493
8 614 503 385 493 561 457 342 442
8 615 501 383 494 495 386 276 377
8 496 384 274 378 615 501 383 494
8 618 500 382 497 496 384 274 378
8 619 499 381 498 497 382 272 379
8 511 408 297 393 619 499 381 498
8 620 505 387 499 500 388 278 382
8 527 424 312 408 620 505 387 499
8 502 390 506 621 384 280 388 500
8 622 507 389 501 504 392 282 386
8 502 390 280 384 622 507 389 501
8 504 392 282 386 624 509 391 503
8 624 509 391 503 575 468 354 457
8 513 410 299 395 630 527 408 511
8 631 528 411 514 512 409 300 396
8 513 410 528 631 395 299 409 512
8 519 416 305 401 633 530 411 514
8 634 531 412 515 516 413 302 398
8 523 420 309 405 634 531 412 515
8 635 532 413 516 517 414 303 399
8 521 417 533 636 403 306 414 517
8 520 418 307 402 637 534 415 518
8 519 416 534 637 401 305 415 518
8 522 419 308 404 639 537 418 520
8 522 419 536 640 404 308 417 521
8 524 421 310 406 642 539 420 523
8 524 421 541 644 406 310 423 526
8 646 543 422 525 526 423 311 407
8 529 426 314 410 647 544 424 527
8 528 425 545 648 411 315 427 530
8 529 426 545 648 410 314 425 528
8 535 429 317 416 649 546 427 530
8 650 548 430 531 532 432 320 413
8 539 438 325 420 650 548 430 531
8 533 433 550 651 414 321 432 532
8 536 434 551 652 417 322 433 533
8 537 431 319 418 653 547 428 534
8 535 429 547 653 416 317 428 534
8 538 435 552 654 419 323 434 536
8 538 435 323 419 655 549 431 537
8 540 440 327 421 657 556 438 539
8 540 440 557 659 421 327 439 541
8 541 439 555 660 423 326 437 543
8 661 554 436 542 543 437 324 422
8 676 570 452 559 590 473 365 484
8 560 453 338 441 676 570 452 559
8 562 455 340 443 677 571 453 560
8 447 344 459 566 561 457 575 678
8 564 456 341 445 679 573 455 562
8 567 460 345 448 680 572 454 563
8 680 572 454 563 564 456 341 445
8 565 458 576 682 447 344 459 566
8 450 346 461 569 565 458 576 682
8 568 462 347 449 684 578 460 567
8 451 348 462 568 569 461 579 685
8 686 580 463 570 591 474 360 473
8 571 464 350 453 686 580 463 570
8 573 466 352 455 687 581 464 571
8 572 465 582 688 460 357 471 578
8 574 467 582 688 456 353 465 572
8 574 467 353 456 689 583 466 573
8 459 356 470 577 575 468 585 691
8 576 469 586 692 459 356 470 577
8 461 358 472 579 576 469 586 692
8 462 359 471 578 579 472 588 694
8 704 591 473 590 593 475 363 481
8 595 476 592 705 475 361 474 591
8 593 475 363 481 707 594 479 602
8 594 477 362 479 709 598 478 600
8 595 476 361 475 711 597 477 594
8 479 362 480 603 600 478 601 720
8 481 363 482 605 602 479 603 722
8 603 480 364 482 723 604 483 606
8 605 482 365 484 724 606 485 607
8 656 553 608 726 542 436 487 609
8 645 542 609 728 525 422 488 611
8 609 487 610 729 488 369 489 612
8 611 488 612 730 491 371 490 613
8 616 504 386 495 731 624 503 614
8 731 624 503 614 678 575 457 561
8 732 622 501 615 616 504 386 495
8 617 502 384 496 732 622 501 615
8 617 502 621 735 496 384 500 618
8 736 620 499 619 618 500 382 497
8 630 527 408 511 736 620 499 619
8 621 506 626 737 500 388 505 620
8 647 544 424 527 737 626 505 620
8 623 508 627 738 502 390 506 621
8 623 508 390 502 739 628 507 622
8 625 510 628 739 504 392 507 622
8 740 629 509 624 691 585 468 575
8 625 510 392 504 740 629 509 624
8 632 529 410 513 744 647 527 630
8 631 528 648 745 514 411 530 633
8 632 529 648 745 513 410 528 631
8 638 535 416 519 746 649 530 633
8 747 650 531 634 635 532 413 516
8 642 539 420 523 747 650 531 634
8 636 533 651 748 517 414 532 635
8 640 536 652 749 521 417 533 636
8 639 537 418 520 750 653 534 637
8 638 535 653 750 519 416 534 637
8 641 538 419 522 751 655 537 639
8 641 538 654 752 522 419 536 640
8 643 540 421 524 753 657 539 642
8 643 540 659 755 524 421 541 644
8 644 541 660 757 526 423 543 646
8 758 661 542 645 646 543 422 525
8 529 426 544 647 648 545 662 759
8 530 427 545 648 649 546 663 760
8 535 429 546 649 653 547 664 761
8 762 666 548 650 651 550 432 532
8 657 556 438 539 762 666 548 650
8 652 551 668 763 533 433 550 651
8 654 552 669 764 536 434 551 652
8 655 549 431 537 765 665 547 653
8 538 435 549 655 654 552 667 766
8 661 554 671 768 542 436 553 656
8 658 558 440 540 769 674 556 657
8 658 558 675 770 540 440 557 659
8 659 557 673 771 541 439 555 660
8 660 555 672 772 543 437 554 661
8 788 686 570 676 704 591 473 590
8 677 571 453 560 788 686 570 676
8 679 573 455 562 789 687 571 677
8 566 459 577 683 678 575 691 790
8 681 574 456 564 791 689 573 679
8 680 572 688 792 567 460 578 684
8 681 574 688 792 564 456 572 680
8 682 576 692 794 566 459 577 683
8 569 461 579 685 682 576 692 794
8 568 462 578 684 685 579 694 796
8 687 581 464 571 798 696 580 686
8 798 696 580 686 705 592 474 591
8 689 583 466 573 799 697 581 687
8 688 582 698 800 578 471 588 694
8 690 584 698 800 574 467 582 688
8 690 584 467 574 801 699 583 689
8 693 587 701 803 577 470 585 691
8 693 587 470 577 804 702 586 692
8 695 589 702 804 579 472 586 692
8 695 589 472 579 805 703 588 694
8 708 595 705 813 593 475 591 704
8 710 596 706 814 595 476 592 705
8 707 594 479 602 816 709 600 719
8 708 595 475 593 817 711 594 707
8 709 598 478 600 819 715 599 717
8 711 597 477 594 820 714 598 709
8 710 596 476 595 822 713 597 711
8 600 478 601 720 717 599 718 832
8 602 479 603 722 719 600 720 834
8 720 601 480 603 835 721 604 723
8 722 603 482 605 836 723 606 724
8 767 670 725 839 656 553 608 726
8 756 656 726 841 645 542 609 728
8 726 608 727 842 609 487 610 729
8 728 609 729 843 611 488 612 730
8 844 740 624 731 790 691 575 678
8 733 625 504 616 844 740 624 731
8 734 623 502 617 845 739 622 732
8 733 625 739 845 616 504 622 732
8 734 623 738 846 617 502 621 735
8 735 621 737 847 618 500 620 736
8 744 647 527 630 847 737 620 736
8 621 506 627 738 737 626 741 848
8 647 544 626 737 759 662 741 848
8 623 508 628 739 738 627 742 849
8 740 629 585 691 850 743 700 802
8 625 510 629 740 739 628 743 850
8 632 529 647 744 745 648 759 854
8 633 530 648 745 746 649 760 855
8 638 535 649 746 750 653 761 856
8 857 762 650 747 748 651 532 635
8 753 657 539 642 857 762 650 747
8 749 652 763 858 636 533 651 748
8 752 654 764 859 640 536 652 749
8 751 655 537 639 860 765 653 750
8 641 538 655 751 752 654 766 861
8 754 658 540 643 862 769 657 753
8 754 658 770 863 643 540 659 755
8 755 659 771 864 644 541 660 757
8 758 661 768 866 645 542 656 756
8 757 660 772 867 646 543 661 758
8 759 662 773 868 648 545 663 760
8 649 546 663 760 761 664 774 871
8 765 665 547 653 872 775 664 761
8 873 777 666 762 763 668 550 651
8 769 674 556 657 873 777 666 762
8 764 669 779 874 652 551 668 763
8 654 552 667 766 764 669 778 875
8 655 549 665 765 766 667 776 876
8 768 671 782 877 656 553 670 767
8 772 672 783 878 661 554 671 768
8 658 558 674 769 770 675 786 879
8 659 557 675 770 771 673 785 881
8 882 784 672 772 771 673 555 660
8 789 687 571 677 897 798 686 788
8 897 798 686 788 813 705 591 704
8 791 689 573 679 898 799 687 789
8 795 693 803 900 683 577 691 790
8 793 690 574 681 901 801 689 791
8 792 688 800 902 684 578 694 796
8 793 690 800 902 681 574 688 792
8 795 693 577 683 903 804 692 794
8 797 695 804 903 685 579 692 794
8 797 695 579 685 904 805 694 796
8 905 806 697 799 798 696 581 687
8 814 706 806 905 705 592 696 798
8 689 583 697 799 801 699 808 907
8 800 698 809 908 694 588 703 805
8 690 584 699 801 800 698 809 908
8 803 701 810 909 691 585 700 802
8 693 587 702 804 803 701 811 910
8 695 589 703 805 804 702 812 911
8 818 710 814 919 708 595 705 813
8 821 712 815 920 710 596 706 814
8 816 709 600 719 922 819 717 831
8 817 711 594 707 923 820 709 816
8 818 710 595 708 924 822 711 817
8 819 715 599 717 926 827 716 829
8 820 714 598 709 927 826 715 819
8 929 825 713 822 820 714 597 711
8 821 712 596 710 930 824 713 822
8 717 599 718 832 829 716 830 942
8 719 600 720 834 831 717 832 944
8 832 718 601 720 945 833 721 835
8 834 720 603 722 946 835 723 836
8 869 780 838 950 767 670 725 839
8 865 767 839 952 756 656 726 841
8 839 725 840 953 726 608 727 842
8 841 726 842 954 728 609 729 843
8 844 740 691 790 955 850 802 899
8 733 625 740 844 845 739 850 955
8 734 623 739 845 846 738 849 956
8 735 621 738 846 847 737 848 957
8 744 647 737 847 854 759 848 957
8 738 627 742 849 848 741 851 958
8 848 741 851 958 759 662 773 868
8 850 743 700 802 959 852 807 906
8 849 742 628 739 959 852 743 850
8 854 759 868 965 745 648 760 855
8 746 649 760 855 856 761 871 966
8 860 765 653 750 967 872 761 856
8 968 873 762 857 858 763 651 748
8 862 769 657 753 968 873 762 857
8 859 764 874 969 749 652 763 858
8 752 654 766 861 859 764 875 970
8 751 655 765 860 861 766 876 971
8 754 658 769 862 863 770 879 972
8 755 659 770 863 864 771 881 974
8 976 882 772 867 864 771 660 757
8 866 768 877 977 756 656 767 865
8 867 772 878 978 758 661 768 866
8 760 663 773 868 871 774 883 980
8 870 781 837 948 982 890 780 869
8 982 890 780 869 877 782 670 767
8 761 664 774 871 872 775 884 984
8 876 776 665 765 985 885 775 872
8 873 777 668 763 986 887 779 874
8 769 674 777 873 879 786 887 986
8 764 669 778 875 874 779 888 987
8 766 667 776 876 875 778 886 988
8 878 783 892 989 768 671 782 877
8 878 783 672 772 990 893 784 882
8 880 787 675 770 991 896 786 879
8 880 787 895 992 770 675 785 881
8 881 785 894 993 771 673 784 882
8 1006 905 799 898 897 798 687 789
8 919 814 905 1006 813 705 798 897
8 791 689 799 898 901 801 907 1007
8 900 803 909 1009 790 691 802 899
8 795 693 804 903 900 803 910 1010
8 902 800 908 1011 796 694 805 904
8 793 690 801 901 902 800 908 1011
8 797 695 805 904 903 804 911 1012
8 799 697 806 905 907 808 912 1013
8 920 815 912 1013 814 706 806 905
8 802 700 810 909 906 807 913 1014
8 801 699 808 907 908 809 914 1015
8 805 703 809 908 911 812 915 1016
8 803 701 811 910 909 810 916 1017
8 911 812 917 1018 804 702 811 910
8 925 821 920 1030 818 710 814 919
8 928 823 921 1031 821 712 815 920
8 922 819 717 831 1033 926 829 941
8 923 820 709 816 1034 927 819 922
8 1035 929 822 924 923 820 711 817
8 925 821 710 818 1036 930 822 924
8 1038 933 825 929 927 826 714 820
8 926 827 716 829 1039 935 828 939
8 927 826 715 819 1040 934 827 926
8 928 823 712 821 1041 931 824 930
8 1042 932 824 930 929 825 713 822
8 829 716 830 942 939 828 940 1058
8 831 717 832 944 941 829 942 1060
8 942 830 718 832 1061 943 833 945
8 944 832 720 834 1062 945 835 946
8 981 889 947 1064 870 781 837 948
8 948 837 949 1067 869 780 838 950
8 975 869 950 1069 865 767 839 952
8 950 838 951 1070 839 725 840 953
8 952 839 953 1071 841 726 842 954
8 955 850 802 899 1072 959 906 1008
8 956 849 739 845 1072 959 850 955
8 846 738 849 956 957 848 958 1073
8 957 848 958 1073 854 759 868 965
8 849 742 852 959 958 851 961 1076
8 960 853 961 1076 906 807 852 959
8 958 851 961 1076 868 773 883 980
8 960 853 807 906 1077 963 913 1014
8 855 760 868 965 966 871 980 1085
8 856 761 871 966 967 872 984 1086
8 971 876 765 860 1087 985 872 967
8 968 873 763 858 1088 986 874 969
8 862 769 873 968 972 879 986 1088
8 859 764 875 970 969 874 987 1089
8 861 766 876 971 970 875 988 1090
8 973 880 770 863 1091 991 879 972
8 973 880 992 1092 863 770 881 974
8 974 881 993 1093 864 771 882 976
8 979 870 948 1066 1094 982 869 975
8 1094 982 869 975 977 877 767 865
8 978 878 772 867 1095 990 882 976
8 978 878 989 1096 866 768 877 977
8 871 774 883 980 984 884 994 1099
8 983 891 999 1100 870 781 889 981
8 1101 1000 890 982 989 892 782 877
8 983 891 781 870 1101 1000 890 982
8 872 775 884 984 985 885 995 1103
8 876 776 885 985 988 886 996 1104
8 986 887 779 874 1105 998 888 987
8 879 786 887 986 991 896 998 1105
8 875 778 886 988 987 888 997 1106
8 990 893 1002 1107 878 783 892 989
8 1108 1003 893 990 993 894 784 882
8 880 787 896 991 992 895 1005 1109
8 993 894 785 881 1110 1004 895 992
8 898 799 905 1006 1007 907 1013 1120
8 1030 920 1013 1120 919 814 905 1006
8 901 801 907 1007 1011 908 1015 1121
8 899 802 909 1009 1008 906 1014 1122
8 900 803 910 1010 1009 909 1017 1123
8 1012 911 1018 1124 903 804 910 1010
8 904 805 908 1011 1012 911 1016 1125
8 1013 912 1020 1127 907 808 914 1015
8 1031 921 1020 1127 920 815 912 1013
8 1019 918 962 1075 1128 1021 913 1014
8 1128 1021 913 1014 1017 916 810 909
8 1015 914 1022 1129 908 809 915 1016
8 1016 915 1023 1130 911 812 917 1018
8 1018 917 1024 1131 910 811 916 1017
8 1037 928 1031 1148 925 821 920 1030
8 928 823 931 1041 1031 921 1032 1149
8 1033 926 829 941 1151 1039 939 1057
8 1034 927 819 922 1152 1040 926 1033
8 1153 1038 929 1035 1034 927 820 923
8 1154 1042 930 1036 1035 929 822 924
8 1037 928 821 925 1155 1041 930 1036
8 1039 935 828 939 1156 1047 938 1055
8 1157 1043 932 1042 1038 933 825 929
8 1038 933 826 927 1158 1045 934 1040
8 1040 934 827 926 1159 1046 935 1039
8 930 824 932 1042 1041 931 1044 1160
8 1051 936 1048 1165 1175 1052 937 1053
8 1156 1047 938 1055 1053 937 1054 1178
8 939 828 940 1058 1055 938 1056 1181
8 941 829 942 1060 1057 939 1058 1183
8 942 830 943 1061 1058 940 1059 1184
8 1060 942 832 944 1185 1061 945 1062
8 1082 964 1063 1188 981 889 947 1064
8 1097 981 1064 1190 979 870 948 1066
8 1064 947 1065 1191 948 837 949 1067
8 1066 948 1067 1193 975 869 950 1069
8 1067 949 1068 1194 950 838 951 1070
8 1069 950 1070 1195 952 839 953 1071
8 956 849 959 1072 1073 958 1076 1197
8 1074 960 1076 1197 1008 906 959 1072
8 1073 958 1076 1197 965 868 980 1085
8 1074 960 906 1008 1198 1077 1014 1122
8 1133 1026 1079 1199 1019 918 962 1075
8 1077 963 913 1014 1200 1080 962 1075
8 960 853 963 1077 1076 961 1078 1201
8 980 883 961 1076 1099 994 1078 1201
8 1210 1083 964 1082 1100 999 889 981
8 966 871 980 1085 1086 984 1099 1215
8 967 872 984 1086 1087 985 1103 1216
8 971 876 985 1087 1090 988 1104 1217
8 1088 986 874 969 1218 1105 987 1089
8 972 879 986 1088 1091 991 1105 1218
8 970 875 988 1090 1089 987 1106 1219
8 973 880 991 1091 1092 992 1109 1220
8 1093 993 881 974 1221 1110 992 1092
8 1222 1108 990 1095 1093 993 882 976
8 1223 1101 982 1094 1096 989 877 977
8 1098 983 870 979 1223 1101 982 1094
8 1095 990 1107 1224 978 878 989 1096
8 1098 983 1100 1225 979 870 981 1097
8 984 884 994 1099 1103 995 1111 1227
8 1102 1001 1115 1228 983 891 999 1100
8 1101 1000 892 989 1229 1116 1002 1107
8 1102 1001 891 983 1229 1116 1000 1101
8 985 885 995 1103 1104 996 1112 1230
8 988 886 996 1104 1106 997 1113 1231
8 1105 998 888 987 1232 1114 997 1106
8 991 896 998 1105 1109 1005 1114 1232
8 1108 1003 1117 1233 990 893 1002 1107
8 1108 1003 894 993 1233 1117 1004 1110
8 992 895 1005 1109 1110 1004 1118 1234
8 1120 1013 1127 1244 1007 907 1015 1121
8 1148 1031 1127 1244 1030 920 1013 1120
8 1121 1015 1129 1245 1011 908 1016 1125
8 1126 1019 1075 1196 1246 1128 1014 1122
8 1246 1128 1014 1122 1123 1017 909 1009
8 1124 1018 1131 1247 1010 910 1017 1123
8 1125 1016 1130 1248 1012 911 1018 1124
8 1127 1020 1137 1254 1015 914 1022 1129
8 1031 921 1032 1149 1127 1020 1137 1254
8 1134 1027 918 1019 1257 1140 1021 1128
8 1257 1140 1021 1128 1131 1024 916 1017
8 1129 1022 1141 1258 1016 915 1023 1130
8 1130 1023 1142 1259 1018 917 1024 1131
8 1261 1144 1025 1132 1133 1026 1079 1199
8 1255 1138 1025 1132 1135 1028 1144 1261
8 1133 1026 918 1019 1262 1145 1027 1134
8 1136 1029 1139 1256 1263 1146 1028 1135
8 1037 928 1041 1155 1148 1031 1149 1275
8 1041 931 1044 1160 1149 1032 1150 1276
8 1151 1039 939 1057 1278 1156 1055 1180
8 1152 1040 926 1033 1279 1159 1039 1151
8 1153 1038 927 1034 1280 1158 1040 1152
8 1281 1157 1042 1154 1153 1038 929 1035
8 1036 930 1042 1154 1155 1041 1160 1282
8 1283 1164 1046 1159 1156 1047 935 1039
8 1165 1048 1164 1283 1053 937 1047 1156
8 1157 1043 933 1038 1284 1161 1045 1158
8 1157 1043 1161 1284 1042 932 1044 1160
8 1040 934 1046 1159 1158 1045 1163 1285
8 1166 1049 1167 1292 1051 936 1048 1165
8 1166 1049 936 1051 1293 1168 1050 1172
8 1051 936 1052 1175 1172 1050 1173 1306
8 1174 1051 1165 1290 1308 1175 1053 1177
8 1053 937 1054 1178 1175 1052 1176 1309
8 1278 1156 1055 1180 1177 1053 1178 1311
8 1055 938 1056 1181 1178 1054 1179 1312
8 1057 939 1058 1183 1180 1055 1181 1314
8 1058 940 1059 1184 1181 1056 1182 1315
8 1060 942 1061 1185 1183 1058 1184 1316
8 1208 1081 1187 1321 1082 964 1063 1188
8 1209 1082 1188 1322 1097 981 1064 1190
8 1188 1063 1189 1323 1064 947 1065 1191
8 1190 1064 1191 1325 1066 948 1067 1193
8 1191 1065 1192 1326 1067 949 1068 1194
8 1067 1193 1069 950 1194 1327 1195 1070
8 1250 1133 1199 1330 1126 1019 1075 1196
8 1198 1077 1014 1122 1331 1200 1075 1196
8 1074 960 1077 1198 1197 1076 1201 1332
8 1085 980 1076 1197 1215 1099 1201 1332
8 1199 1079 1203 1333 1075 962 1080 1200
8 1132 1025 1119 1243 1199 1079 1203 1333
8 1201 1078 963 1077 1334 1202 1080 1200
8 1099 994 1078 1201 1227 1111 1202 1334
8 1343 1207 1081 1208 1210 1083 964 1082
8 1214 1084 1186 1319 1343 1207 1081 1208
8 1345 1210 1082 1209 1225 1100 981 1097
8 1346 1211 1083 1210 1228 1115 999 1100
8 1086 984 1099 1215 1216 1103 1227 1352
8 1087 985 1103 1216 1217 1104 1230 1353
8 1090 988 1104 1217 1219 1106 1231 1354
8 1218 1105 987 1089 1355 1232 1106 1219
8 1091 991 1105 1218 1220 1109 1232 1355
8 1092 992 1109 1220 1221 1110 1234 1356
8 1222 1108 1233 1357 1095 990 1107 1224
8 1222 1108 993 1093 1357 1233 1110 1221
8 1223 1101 989 1096 1358 1229 1107 1224
8 1226 1102 983 1098 1358 1229 1101 1223
8 1226 1102 1228 1359 1098 983 1100 1225
8 1103 995 1111 1227 1230 1112 1235 1360
8 1107 1002 1117 1233 1229 1116 1240 1362
8 1102 1001 1116 1229 1228 1115 1240 1362
8 1104 996 1112 1230 1231 1113 1236 1363
8 1364 1237 1114 1232 1231 1113 997 1106
8 1109 1005 1114 1232 1234 1118 1238 1365
8 1110 1004 1118 1234 1233 1117 1241 1366
8 1242 1374 1255 1138 1119 1243 1132 1025
8 1244 1127 1254 1376 1121 1015 1129 1245
8 1148 1031 1149 1275 1244 1127 1254 1376
8 1245 1129 1258 1377 1125 1016 1130 1248
8 1251 1134 1019 1126 1378 1257 1128 1246
8 1378 1257 1128 1246 1247 1131 1017 1123
8 1248 1130 1259 1379 1124 1018 1131 1247
8 1261 1381 1250 1133 1132 1249 1330 1199
8 1255 1380 1252 1135 1132 1249 1381 1261
8 1250 1133 1019 1126 1382 1262 1134 1251
8 1253 1136 1256 1385 1384 1263 1135 1252
8 1254 1137 1265 1387 1129 1022 1141 1258
8 1149 1032 1150 1276 1254 1137 1265 1387
8 1028 1135 1255 1138 1139 1256 1388 1266
8 1136 1029 1147 1264 1256 1139 1267 1389
8 1390 1268 1140 1257 1259 1142 1024 1131
8 1260 1143 1027 1134 1390 1268 1140 1257
8 1258 1141 1269 1391 1130 1023 1142 1259
8 1262 1145 1027 1134 1393 1271 1143 1260
8 1261 1144 1026 1133 1394 1272 1145 1262
8 1135 1028 1144 1261 1263 1146 1272 1394
8 1136 1029 1146 1263 1264 1147 1273 1395
8 1155 1041 1160 1282 1275 1149 1276 1405
8 1276 1150 1044 1160 1406 1277 1162 1286
8 1408 1283 1159 1279 1278 1156 1039 1151
8 1290 1165 1283 1408 1177 1053 1156 1278
8 1152 1040 1159 1279 1280 1158 1285 1409
8 1281 1157 1038 1153 1410 1284 1158 1280
8 1281 1157 1284 1410 1154 1042 1160 1282
8 1159 1046 1164 1283 1285 1163 1289 1412
8 1292 1167 1289 1412 1165 1048 1164 1283
8 1158 1045 1163 1285 1284 1161 1288 1413
8 1284 1161 1288 1413 1160 1044 1162 1286
8 1291 1166 1292 1418 1174 1051 1165 1290
8 1291 1166 1051 1174 1419 1293 1172 1305
8 1294 1169 1296 1421 1166 1049 1167 1292
8 1293 1168 1050 1172 1422 1295 1171 1303
8 1294 1169 1049 1166 1423 1297 1168 1293
8 1422 1295 1171 1303 1301 1170 1302 1435
8 1172 1050 1173 1306 1303 1171 1304 1438
8 1174 1051 1175 1308 1305 1172 1306 1440
8 1175 1052 1176 1309 1306 1173 1307 1441
8 1177 1053 1178 1311 1308 1175 1309 1443
8 1178 1054 1179 1312 1309 1176 1310 1444
8 1180 1055 1181 1314 1311 1178 1312 1446
8 1056 1181 1312 1179 1182 1315 1447 1313
8 1183 1058 1184 1316 1314 1181 1315 1448
8 1319 1186 1084 1214 1451 1317 1213 1350
8 1319 1186 1318 1453 1208 1081 1187 1321
8 1321 1187 1320 1456 1188 1063 1189 1323
8 1344 1208 1321 1457 1209 1082 1188 1322
8 1322 1188 1323 1458 1190 1064 1191 1325
8 1323 1189 1324 1459 1191 1065 1192 1326
8 1191 1325 1193 1067 1326 1460 1327 1194
8 1242 1374 1243 1119 1328 1462 1335 1204
8 1330 1199 1333 1465 1196 1075 1200 1331
8 1132 1249 1330 1199 1243 1375 1465 1333
8 1332 1201 1077 1198 1466 1334 1200 1331
8 1215 1099 1201 1332 1352 1227 1334 1466
8 1119 1243 1333 1203 1204 1335 1470 1338
8 1333 1203 1338 1470 1200 1080 1202 1334
8 1227 1111 1202 1334 1360 1235 1338 1470
8 1328 1462 1335 1204 1205 1336 1471 1339
8 1337 1206 1340 1472 1464 1329 1205 1336
8 1346 1211 1342 1479 1210 1083 1207 1343
8 1346 1211 1115 1228 1479 1342 1239 1361
8 1348 1212 1084 1214 1479 1342 1207 1343
8 1480 1343 1208 1344 1345 1210 1082 1209
8 1351 1214 1319 1454 1480 1343 1208 1344
8 1481 1346 1210 1345 1359 1228 1100 1225
8 1348 1212 1347 1483 1214 1084 1213 1350
8 1216 1103 1227 1352 1353 1230 1360 1488
8 1217 1104 1230 1353 1354 1231 1363 1489
8 1490 1364 1232 1355 1354 1231 1106 1219
8 1220 1109 1232 1355 1356 1234 1365 1491
8 1221 1110 1234 1356 1357 1233 1366 1492
8 1224 1107 1233 1357 1358 1229 1362 1493
8 1226 1102 1229 1358 1359 1228 1362 1493
8 1230 1112 1235 1360 1363 1236 1367 1496
8 1361 1239 1115 1228 1497 1371 1240 1362
8 1366 1241 1372 1498 1233 1117 1240 1362
8 1364 1237 1113 1231 1499 1368 1236 1363
8 1364 1237 1368 1499 1232 1114 1238 1365
8 1234 1118 1238 1365 1366 1241 1369 1500
8 1507 1373 1242 1374 1388 1266 1138 1255
8 1508 1374 1243 1375 1380 1255 1132 1249
8 1376 1254 1387 1509 1245 1129 1258 1377
8 1275 1149 1276 1405 1376 1254 1387 1509
8 1377 1258 1391 1510 1248 1130 1259 1379
8 1511 1390 1257 1378 1379 1259 1131 1247
8 1383 1260 1134 1251 1511 1390 1257 1378
8 1252 1135 1256 1385 1380 1255 1388 1512
8 1261 1381 1513 1394 1133 1250 1382 1262
8 1135 1252 1384 1263 1261 1381 1513 1394
8 1382 1262 1134 1251 1514 1393 1260 1383
8 1253 1136 1263 1384 1386 1264 1395 1516
8 1253 1136 1264 1386 1385 1256 1389 1517
8 1387 1265 1397 1519 1258 1141 1269 1391
8 1276 1150 1277 1406 1387 1265 1397 1519
8 1256 1139 1267 1389 1388 1266 1398 1520
8 1264 1147 1274 1396 1389 1267 1399 1521
8 1392 1270 1143 1260 1522 1400 1268 1390
8 1390 1268 1142 1259 1522 1400 1269 1391
8 1392 1270 1401 1523 1260 1143 1271 1393
8 1272 1394 1524 1402 1145 1262 1393 1271
8 1395 1273 1146 1263 1524 1402 1272 1394
8 1273 1395 1264 1147 1403 1526 1396 1274
8 1405 1276 1160 1282 1534 1406 1286 1411
8 1414 1287 1407 1535 1286 1162 1277 1406
8 1279 1159 1283 1408 1409 1285 1412 1537
8 1418 1292 1412 1537 1290 1165 1283 1408
8 1280 1158 1285 1409 1410 1284 1413 1538
8 1410 1284 1413 1538 1282 1160 1286 1411
8 1285 1163 1289 1412 1413 1288 1417 1540
8 1421 1296 1417 1540 1292 1167 1289 1412
8 1414 1287 1162 1286 1541 1416 1288 1413
8 1420 1294 1421 1545 1291 1166 1292 1418
8 1419 1293 1172 1305 1546 1422 1303 1437
8 1420 1294 1166 1291 1547 1423 1293 1419
8 1294 1169 1297 1423 1421 1296 1425 1548
8 1423 1297 1168 1293 1549 1424 1295 1422
8 1301 1170 1298 1427 1422 1295 1424 1549
8 1432 1300 1428 1554 1301 1170 1298 1427
8 1431 1299 1428 1554 1560 1430 1300 1432
8 1563 1433 1300 1432 1435 1302 1170 1301
8 1546 1422 1303 1437 1434 1301 1435 1565
8 1303 1171 1304 1438 1435 1302 1436 1566
8 1305 1172 1306 1440 1437 1303 1438 1568
8 1306 1173 1307 1441 1438 1304 1439 1569
8 1308 1175 1309 1443 1440 1306 1441 1571
8 1309 1176 1310 1444 1441 1307 1442 1572
8 1311 1178 1312 1446 1443 1309 1444 1574
8 1179 1312 1444 1310 1313 1447 1575 1445
8 1314 1181 1315 1448 1446 1312 1447 1576
8 1350 1213 1349 1486 1451 1317 1449 1579
8 1451 1317 1450 1581 1319 1186 1318 1453
8 1454 1319 1214 1351 1582 1451 1350 1487
8 1453 1318 1452 1584 1321 1187 1320 1456
8 1454 1319 1453 1585 1344 1208 1321 1457
8 1456 1320 1455 1586 1323 1189 1324 1459
8 1457 1321 1456 1587 1322 1188 1323 1458
8 1458 1323 1459 1588 1325 1191 1326 1460
8 1205 1336 1464 1329 1328 1462 1590 1461
8 1507 1373 1461 1590 1374 1242 1328 1462
8 1508 1374 1462 1591 1375 1243 1335 1467
8 1337 1206 1329 1464 1473 1341 1463 1594
8 1375 1243 1335 1467 1465 1333 1470 1596
8 1465 1333 1470 1596 1331 1200 1334 1466
8 1352 1227 1334 1466 1488 1360 1470 1596
8 1591 1462 1336 1468 1467 1335 1471 1597
8 1469 1337 1472 1598 1595 1464 1336 1468
8 1471 1339 1474 1600 1335 1204 1338 1470
8 1600 1474 1367 1496 1470 1338 1235 1360
8 1336 1205 1340 1472 1471 1339 1475 1601
8 1337 1206 1341 1473 1472 1340 1476 1602
8 1495 1370 1478 1609 1361 1239 1342 1479
8 1348 1212 1342 1479 1483 1347 1478 1609
8 1481 1346 1479 1610 1345 1210 1343 1480
8 1481 1346 1228 1359 1610 1479 1361 1494
8 1484 1348 1214 1351 1610 1479 1343 1480
8 1483 1347 1482 1612 1350 1213 1349 1486
8 1484 1348 1483 1613 1351 1214 1350 1487
8 1353 1230 1360 1488 1489 1363 1496 1616
8 1490 1364 1231 1354 1617 1499 1363 1489
8 1490 1364 1499 1617 1355 1232 1365 1491
8 1356 1234 1365 1491 1492 1366 1500 1619
8 1492 1366 1498 1620 1357 1233 1362 1493
8 1494 1361 1228 1359 1621 1497 1362 1493
8 1495 1370 1239 1361 1622 1504 1371 1497
8 1363 1236 1367 1496 1499 1368 1501 1623
8 1497 1371 1240 1362 1624 1505 1372 1498
8 1625 1503 1372 1498 1500 1369 1241 1366
8 1365 1238 1368 1499 1500 1369 1502 1626
8 1520 1398 1506 1633 1388 1266 1373 1507
8 1634 1507 1374 1508 1512 1388 1255 1380
8 1509 1387 1519 1635 1377 1258 1391 1510
8 1405 1276 1406 1534 1509 1387 1519 1635
8 1515 1392 1260 1383 1636 1522 1390 1511
8 1511 1390 1259 1379 1636 1522 1391 1510
8 1385 1256 1389 1517 1512 1388 1520 1637
8 1513 1394 1262 1382 1638 1524 1393 1514
8 1395 1516 1638 1524 1263 1384 1513 1394
8 1515 1392 1523 1639 1383 1260 1393 1514
8 1516 1395 1526 1640 1386 1264 1396 1518
8 1386 1264 1396 1518 1517 1389 1521 1641
8 1519 1397 1527 1643 1391 1269 1400 1522
8 1535 1407 1527 1643 1406 1277 1397 1519
8 1389 1267 1399 1521 1520 1398 1528 1644
8 1645 1529 1399 1521 1525 1404 1274 1396
8 1392 1270 1400 1522 1523 1401 1531 1646
8 1524 1402 1271 1393 1648 1532 1401 1523
8 1403 1526 1648 1532 1273 1395 1524 1402
8 1525 1404 1274 1396 1649 1533 1403 1526
8 1539 1414 1535 1657 1411 1286 1406 1534
8 1542 1415 1536 1658 1414 1287 1407 1535
8 1409 1285 1412 1537 1538 1413 1540 1660
8 1545 1421 1540 1660 1418 1292 1412 1537
8 1539 1414 1286 1411 1661 1541 1413 1538
8 1540 1417 1544 1663 1413 1288 1416 1541
8 1421 1296 1425 1548 1540 1417 1544 1663
8 1542 1415 1287 1414 1664 1543 1416 1541
8 1420 1294 1423 1547 1545 1421 1548 1666
8 1547 1423 1293 1419 1667 1549 1422 1546
8 1434 1301 1427 1553 1546 1422 1549 1667
8 1423 1297 1424 1549 1548 1425 1550 1668
8 1551 1426 1550 1668 1427 1298 1424 1549
8 1551 1426 1298 1427 1671 1552 1428 1554
8 1562 1432 1554 1674 1434 1301 1427 1553
8 1431 1299 1429 1558 1554 1428 1555 1675
8 1431 1299 1430 1560 1558 1429 1557 1680
8 1560 1430 1300 1432 1683 1559 1433 1563
8 1561 1431 1554 1674 1684 1560 1432 1562
8 1685 1563 1432 1562 1565 1435 1301 1434
8 1435 1302 1436 1566 1563 1433 1564 1686
8 1437 1303 1438 1568 1565 1435 1566 1688
8 1438 1304 1439 1569 1566 1436 1567 1689
8 1440 1306 1441 1571 1568 1438 1569 1691
8 1441 1307 1442 1572 1569 1439 1570 1692
8 1443 1309 1444 1574 1571 1441 1572 1694
8 1310 1444 1572 1442 1445 1575 1695 1573
8 1446 1312 1447 1576 1574 1444 1575 1696
8 1486 1349 1485 1614 1579 1449 1577 1699
8 1451 1317 1449 1579 1581 1450 1578 1701
8 1487 1350 1486 1615 1582 1451 1579 1702
8 1581 1450 1580 1704 1453 1318 1452 1584
8 1582 1451 1581 1705 1454 1319 1453 1585
8 1584 1452 1583 1706 1456 1320 1455 1586
8 1585 1453 1584 1707 1457 1321 1456 1587
8 1587 1456 1586 1708 1458 1323 1459 1588
8 1633 1506 1589 1710 1507 1373 1461 1590
8 1464 1329 1461 1590 1594 1463 1589 1710
8 1468 1336 1462 1591 1595 1464 1590 1711
8 1634 1507 1590 1711 1508 1374 1462 1591
8 1473 1341 1463 1594 1603 1477 1593 1716
8 1469 1337 1464 1595 1599 1473 1594 1717
8 1471 1597 1467 1335 1600 1718 1596 1470
8 1718 1600 1496 1616 1596 1470 1360 1488
8 1336 1468 1597 1471 1472 1598 1719 1601
8 1469 1337 1473 1599 1598 1472 1602 1720
8 1722 1604 1501 1623 1600 1474 1367 1496
8 1475 1601 1471 1339 1604 1722 1600 1474
8 1602 1476 1605 1723 1472 1340 1475 1601
8 1476 1602 1724 1606 1341 1473 1603 1477
8 1483 1347 1478 1609 1612 1482 1608 1731
8 1495 1370 1504 1622 1609 1478 1608 1731
8 1618 1495 1609 1732 1494 1361 1479 1610
8 1484 1348 1479 1610 1613 1483 1609 1732
8 1486 1349 1482 1612 1614 1485 1611 1733
8 1613 1483 1612 1734 1487 1350 1486 1615
8 1489 1363 1496 1616 1617 1499 1623 1736
8 1491 1365 1499 1617 1619 1500 1626 1737
8 1618 1495 1361 1494 1738 1622 1497 1621
8 1739 1625 1498 1620 1619 1500 1366 1492
8 1621 1497 1362 1493 1740 1624 1498 1620
8 1742 1631 1504 1622 1624 1505 1371 1497
8 1743 1628 1502 1626 1623 1501 1368 1499
8 1744 1630 1505 1624 1625 1503 1372 1498
8 1745 1629 1503 1625 1626 1502 1369 1500
8 1520 1398 1528 1644 1633 1506 1632 1751
8 1637 1520 1633 1752 1512 1388 1507 1634
8 1635 1519 1643 1753 1510 1391 1522 1636
8 1657 1535 1643 1753 1534 1406 1519 1635
8 1515 1392 1522 1636 1639 1523 1646 1754
8 1517 1389 1521 1641 1637 1520 1644 1755
8 1524 1638 1756 1648 1393 1514 1639 1523
8 1640 1526 1395 1516 1756 1648 1524 1638
8 1642 1525 1396 1518 1757 1649 1526 1640
8 1758 1645 1521 1641 1642 1525 1396 1518
8 1646 1531 1400 1522 1760 1650 1527 1643
8 1535 1407 1536 1658 1643 1527 1650 1760
8 1521 1399 1529 1645 1644 1528 1651 1761
8 1647 1530 1652 1762 1525 1404 1529 1645
8 1401 1523 1648 1532 1531 1646 1763 1655
8 1525 1404 1533 1649 1647 1530 1654 1765
8 1533 1649 1766 1656 1403 1526 1648 1532
8 1662 1542 1658 1774 1539 1414 1535 1657
8 1542 1415 1543 1664 1658 1536 1659 1775
8 1660 1540 1663 1777 1538 1413 1541 1661
8 1545 1421 1548 1666 1660 1540 1663 1777
8 1662 1542 1414 1539 1778 1664 1541 1661
8 1664 1543 1416 1541 1779 1665 1544 1663
8 1548 1425 1550 1668 1663 1544 1665 1779
8 1547 1423 1549 1667 1666 1548 1668 1781
8 1670 1551 1668 1781 1553 1427 1549 1667
8 1551 1426 1552 1671 1668 1550 1669 1782
8 1670 1551 1427 1553 1784 1671 1554 1674
8 1675 1555 1672 1785 1554 1428 1552 1671
8 1678 1556 1673 1789 1558 1429 1555 1675
8 1561 1431 1558 1681 1674 1554 1675 1790
8 1794 1677 1556 1678 1680 1557 1429 1558
8 1560 1430 1559 1683 1680 1557 1679 1797
8 1561 1431 1560 1684 1681 1558 1680 1798
8 1563 1433 1564 1686 1683 1559 1682 1800
8 1684 1560 1432 1562 1801 1683 1563 1685
8 1565 1435 1566 1688 1685 1563 1686 1802
8 1566 1436 1567 1689 1686 1564 1687 1803
8 1568 1438 1569 1691 1688 1566 1689 1805
8 1569 1439 1570 1692 1689 1567 1690 1806
8 1571 1441 1572 1694 1691 1569 1692 1808
8 1442 1572 1692 1570 1573 1695 1809 1693
8 1574 1444 1575 1696 1694 1572 1695 1810
8 1614 1485 1592 1712 1699 1577 1697 1813
8 1579 1449 1577 1699 1701 1578 1698 1815
8 1615 1486 1614 1735 1702 1579 1699 1816
8 1701 1578 1700 1818 1581 1450 1580 1704
8 1582 1451 1579 1702 1705 1581 1701 1819
8 1704 1580 1703 1820 1584 1452 1583 1706
8 1705 1581 1704 1821 1585 1453 1584 1707
8 1707 1584 1706 1822 1587 1456 1586 1708
8 1710 1589 1506 1633 1824 1709 1632 1751
8 1594 1463 1589 1710 1716 1593 1709 1824
8 1752 1633 1710 1825 1634 1507 1590 1711
8 1595 1464 1590 1711 1717 1594 1710 1825
8 1830 1714 1592 1712 1733 1611 1485 1614
8 1603 1477 1593 1716 1725 1607 1715 1834
8 1599 1473 1594 1717 1721 1603 1716 1835
8 1837 1722 1623 1736 1718 1600 1496 1616
8 1719 1601 1722 1837 1597 1471 1600 1718
8 1602 1720 1598 1472 1723 1838 1719 1601
8 1720 1602 1473 1599 1839 1724 1603 1721
8 1723 1605 1726 1840 1601 1475 1604 1722
8 1840 1726 1628 1743 1722 1604 1501 1623
8 1724 1606 1727 1841 1602 1476 1605 1723
8 1725 1607 1728 1842 1603 1477 1606 1724
8 1612 1482 1608 1731 1733 1611 1730 1849
8 1741 1627 1730 1849 1622 1504 1608 1731
8 1613 1483 1609 1732 1734 1612 1731 1850
8 1618 1495 1622 1738 1732 1609 1731 1850
8 1615 1486 1612 1734 1735 1614 1733 1851
8 1852 1743 1626 1737 1736 1623 1499 1617
8 1853 1745 1625 1739 1737 1626 1500 1619
8 1855 1742 1622 1738 1740 1624 1497 1621
8 1856 1744 1624 1740 1739 1625 1498 1620
8 1741 1627 1504 1622 1857 1746 1631 1742
8 1742 1631 1505 1624 1858 1749 1630 1744
8 1859 1747 1629 1745 1743 1628 1502 1626
8 1860 1748 1630 1744 1745 1629 1503 1625
8 1644 1528 1651 1761 1751 1632 1750 1865
8 1637 1520 1644 1755 1752 1633 1751 1866
8 1754 1646 1522 1636 1867 1760 1643 1753
8 1657 1535 1658 1774 1753 1643 1760 1867
8 1639 1523 1646 1754 1756 1648 1763 1868
8 1641 1521 1645 1758 1755 1644 1761 1869
8 1757 1649 1526 1640 1870 1766 1648 1756
8 1642 1525 1649 1757 1759 1647 1765 1871
8 1759 1647 1762 1872 1642 1525 1645 1758
8 1760 1650 1767 1874 1646 1531 1655 1763
8 1658 1536 1659 1775 1760 1650 1767 1874
8 1762 1652 1768 1875 1645 1529 1651 1761
8 1764 1653 1769 1876 1647 1530 1652 1762
8 1656 1766 1877 1773 1532 1648 1763 1655
8 1771 1879 1765 1654 1653 1764 1647 1530
8 1533 1649 1765 1654 1656 1766 1880 1772
8 1662 1542 1664 1778 1774 1658 1775 1887
8 1664 1543 1665 1779 1775 1659 1776 1888
8 1778 1664 1541 1661 1890 1779 1663 1777
8 1666 1548 1668 1781 1777 1663 1779 1890
8 1782 1669 1780 1891 1668 1550 1665 1779
8 1670 1551 1671 1784 1781 1668 1782 1893
8 1671 1552 1672 1785 1782 1669 1783 1894
8 1790 1675 1785 1896 1674 1554 1671 1784
8 1675 1555 1673 1789 1785 1672 1786 1897
8 1792 1676 1788 1903 1678 1556 1673 1789
8 1795 1678 1789 1904 1681 1558 1675 1790
8 1792 1676 1556 1678 1906 1791 1677 1794
8 1680 1557 1679 1797 1794 1677 1793 1909
8 1910 1794 1678 1795 1798 1680 1558 1681
8 1683 1559 1682 1800 1797 1679 1796 1912
8 1684 1560 1683 1801 1798 1680 1797 1913
8 1686 1564 1687 1803 1800 1682 1799 1915
8 1685 1563 1686 1802 1801 1683 1800 1916
8 1688 1566 1689 1805 1802 1686 1803 1917
8 1689 1567 1690 1806 1803 1687 1804 1918
8 1691 1569 1692 1808 1805 1689 1806 1920
8 1692 1570 1693 1809 1806 1690 1807 1921
8 1694 1572 1695 1810 1808 1692 1809 1922
8 1829 1713 1811 1926 1712 1592 1697 1813
8 1813 1697 1812 1928 1699 1577 1698 1815
8 1735 1614 1712 1828 1816 1699 1813 1929
8 1815 1698 1814 1931 1701 1578 1700 1818
8 1702 1579 1699 1816 1819 1701 1815 1932
8 1818 1700 1817 1933 1704 1580 1703 1820
8 1819 1701 1818 1934 1705 1581 1704 1821
8 1821 1704 1820 1935 1707 1584 1706 1822
8 1824 1709 1632 1751 1937 1823 1750 1865
8 1716 1593 1709 1824 1834 1715 1823 1937
8 1825 1710 1633 1752 1938 1824 1751 1866
8 1717 1594 1710 1825 1835 1716 1824 1938
8 1945 1830 1712 1828 1851 1733 1614 1735
8 1830 1714 1831 1946 1712 1592 1713 1829
8 1947 1832 1714 1830 1849 1730 1611 1733
8 1843 1729 1607 1725 1950 1833 1715 1834
8 1721 1603 1716 1835 1836 1725 1834 1951
8 1836 1725 1842 1953 1721 1603 1724 1839
8 1723 1838 1719 1601 1840 1954 1837 1722
8 1954 1840 1743 1852 1837 1722 1623 1736
8 1724 1839 1720 1602 1841 1955 1838 1723
8 1841 1727 1844 1956 1723 1605 1726 1840
8 1956 1844 1747 1859 1840 1726 1628 1743
8 1728 1842 1724 1606 1845 1957 1841 1727
8 1725 1607 1729 1843 1842 1728 1846 1958
8 1741 1627 1746 1857 1849 1730 1848 1965
8 1734 1612 1731 1850 1851 1733 1849 1966
8 1854 1741 1849 1966 1738 1622 1731 1850
8 1967 1859 1745 1853 1852 1743 1626 1737
8 1968 1860 1744 1856 1853 1745 1625 1739
8 1854 1741 1622 1738 1969 1857 1742 1855
8 1855 1742 1624 1740 1970 1858 1744 1856
8 1857 1746 1631 1742 1971 1861 1749 1858
8 1858 1749 1630 1744 1972 1863 1748 1860
8 1859 1747 1862 1973 1745 1629 1748 1860
8 1875 1768 1864 1977 1761 1651 1750 1865
8 1755 1644 1761 1869 1866 1751 1865 1978
8 1867 1760 1874 1979 1754 1646 1763 1868
8 1774 1658 1775 1887 1867 1760 1874 1979
8 1870 1766 1648 1756 1980 1877 1763 1868
8 1872 1762 1875 1981 1758 1645 1761 1869
8 1757 1649 1766 1870 1871 1765 1880 1982
8 1983 1879 1764 1873 1871 1765 1647 1759
8 1873 1764 1876 1984 1759 1647 1762 1872
8 1877 1773 1655 1763 1986 1881 1767 1874
8 1775 1659 1776 1888 1874 1767 1881 1986
8 1876 1769 1882 1987 1762 1652 1768 1875
8 1878 1770 1883 1988 1764 1653 1769 1876
8 1880 1772 1656 1766 1989 1886 1773 1877
8 1878 1770 1653 1764 1990 1884 1771 1879
8 1765 1654 1772 1880 1879 1771 1885 1991
8 1778 1664 1779 1890 1887 1775 1888 1997
8 1998 1889 1776 1888 1891 1780 1665 1779
8 1893 1782 1891 2000 1781 1668 1779 1890
8 1894 1783 1892 2001 1782 1669 1780 1891
8 1784 1671 1785 1896 1893 1782 1894 2003
8 1897 1786 1895 2004 1785 1672 1783 1894
8 1790 1675 1789 1904 1896 1785 1897 2006
8 1901 1787 1898 2007 1789 1673 1786 1897
8 1903 1788 1900 2013 1789 1673 1787 1901
8 1792 1676 1791 1906 1903 1788 1902 2016
8 1907 1792 1903 2017 1795 1678 1789 1904
8 1906 1791 1677 1794 2019 1905 1793 1909
8 1907 1792 1678 1795 2020 1906 1794 1910
8 1797 1679 1796 1912 1909 1793 1908 2022
8 1798 1680 1797 1913 1910 1794 1909 2023
8 1800 1682 1799 1915 1912 1796 1911 2025
8 1801 1683 1800 1916 1913 1797 1912 2026
8 1803 1687 1804 1918 1915 1799 1914 2028
8 1802 1686 1803 1917 1916 1800 1915 2029
8 1805 1689 1806 1920 1917 1803 1918 2030
8 1806 1690 1807 1921 1918 1804 1919 2031
8 1808 1692 1809 1922 1920 1806 1921 2032
8 1939 1826 1924 2037 1829 1713 1811 1926
8 1926 1811 1925 2039 1813 1697 1812 1928
8 1944 1829 1926 2040 1828 1712 1813 1929
8 1928 1812 1927 2042 1815 1698 1814 1931
8 1929 1813 1928 2043 1816 1699 1815 1932
8 1931 1814 1930 2044 1818 1700 1817 1933
8 1932 1815 1931 2045 1819 1701 1818 1934
8 1934 1818 1933 2046 1821 1704 1820 1935
8 2048 1936 1823 1937 1977 1864 1750 1865
8 1950 1833 1715 1834 2048 1936 1823 1937
8 1938 1824 1751 1866 2049 1937 1865 1978
8 1835 1716 1824 1938 1951 1834 1937 2049
8 1939 1826 1713 1829 2053 1942 1831 1946
8 1940 1827 1923 2035 2053 1942 1826 1939
8 1945 1830 1946 2058 1828 1712 1829 1944
8 2059 1947 1830 1945 1966 1849 1733 1851
8 1947 1832 1730 1849 2060 1948 1848 1965
8 1947 1832 1948 2060 1830 1714 1831 1946
8 1959 1847 1729 1843 2063 1949 1833 1950
8 1952 1843 1725 1836 2064 1950 1834 1951
8 1836 1725 1843 1952 1953 1842 1958 2066
8 1953 1842 1957 2067 1839 1724 1841 1955
8 1841 1955 1838 1723 1956 2068 1954 1840
8 2068 1956 1859 1967 1954 1840 1743 1852
8 1956 1844 1960 2069 1859 1747 1862 1973
8 1845 1957 1841 1727 1960 2069 1956 1844
8 1728 1842 1957 1845 1846 1958 2071 1961
8 1962 2072 1959 1847 1846 1958 1843 1729
8 1971 1861 1964 2077 1857 1746 1848 1965
8 1854 1741 1857 1969 1966 1849 1965 2078
8 1967 1859 1973 2079 1853 1745 1860 1968
8 1970 1858 1744 1856 2080 1972 1860 1968
8 1969 1857 1742 1855 2081 1971 1858 1970
8 1971 1861 1749 1858 2082 1974 1863 1972
8 1973 1862 1975 2083 1860 1748 1863 1972
8 1987 1882 1976 2086 1875 1768 1864 1977
8 1981 1875 1977 2087 1869 1761 1865 1978
8 1980 1877 1763 1868 2088 1986 1874 1979
8 1887 1775 1888 1997 1979 1874 1986 2088
8 1880 1982 2089 1989 1766 1870 1980 1877
8 1984 1876 1987 2090 1872 1762 1875 1981
8 1765 1871 1983 1879 1880 1982 2091 1991
8 1985 1878 1764 1873 2092 1990 1879 1983
8 1985 1878 1988 2093 1873 1764 1876 1984
8 2094 1992 1881 1986 1998 1889 1776 1888
8 1986 1881 1992 2094 1877 1773 1886 1989
8 1988 1883 1993 2095 1876 1769 1882 1987
8 1878 1770 1884 1990 1988 1883 1994 2096
8 1991 1885 1772 1880 2097 1996 1886 1989
8 1879 1771 1885 1991 1990 1884 1995 2098
8 2103 1998 1888 1997 2000 1891 1779 1890
8 2104 1999 1889 1998 2001 1892 1780 1891
8 2003 1894 2001 2106 1893 1782 1891 2000
8 2004 1895 2002 2107 1894 1783 1892 2001
8 2006 1897 2004 2109 1896 1785 1894 2003
8 2007 1898 2005 2110 1897 1786 1895 2004
8 2014 1901 2007 2112 1904 1789 1897 2006
8 2011 1899 2008 2113 1901 1787 1898 2007
8 2119 2010 1899 2011 2013 1900 1787 1901
8 2016 1902 2012 2122 1903 1788 1900 2013
8 2017 1903 2013 2123 1904 1789 1901 2014
8 1906 1791 1905 2019 2016 1902 2015 2125
8 1907 1792 1906 2020 2017 1903 2016 2126
8 1909 1793 1908 2022 2019 1905 2018 2128
8 2020 1906 1794 1910 2129 2019 1909 2023
8 1912 1796 1911 2025 2022 1908 2021 2131
8 1913 1797 1912 2026 2023 1909 2022 2132
8 1915 1799 1914 2028 2025 1911 2024 2134
8 1916 1800 1915 2029 2026 1912 2025 2135
8 1918 1804 1919 2031 2028 1914 2027 2136
8 1917 1803 1918 2030 2029 1915 2028 2137
8 1920 1806 1921 2032 2030 1918 2031 2138
8 1940 1827 1941 2054 2035 1923 2033 2140
8 2035 1923 2034 2143 1939 1826 1924 2037
8 2037 1924 2036 2146 1926 1811 1925 2039
8 2051 1939 2037 2147 1944 1829 1926 2040
8 2039 1925 2038 2149 1928 1812 1927 2042
8 2040 1926 2039 2150 1929 1813 1928 2043
8 2042 1927 2041 2151 1931 1814 1930 2044
8 2043 1928 2042 2152 1932 1815 1931 2045
8 2045 1931 2044 2153 1934 1818 1933 2046
8 2155 2047 1936 2048 2086 1976 1864 1977
8 2063 1949 1833 1950 2155 2047 1936 2048
8 2156 2048 1937 2049 2087 1977 1865 1978
8 2064 1950 1834 1951 2156 2048 1937 2049
8 2051 1939 1829 1944 2160 2053 1946 2058
8 2052 1940 2035 2144 2160 2053 1939 2051
8 2053 1942 1831 1946 2163 2057 1948 2060
8 2055 1943 1827 1940 2163 2057 1942 2053
8 2055 1943 2056 2164 1940 1827 1941 2054
8 2059 1947 1849 1966 2167 2060 1965 2078
8 2059 1947 2060 2167 1945 1830 1946 2058
8 2077 1964 2061 2168 1965 1848 1948 2060
8 2070 1963 1847 1959 2170 2062 1949 2063
8 2065 1959 1843 1952 2171 2063 1950 2064
8 2173 2072 1958 2066 2065 1959 1843 1952
8 1953 1842 1958 2066 2067 1957 2071 2174
8 2068 1956 2069 2175 1967 1859 1973 2079
8 2067 1957 2069 2175 1955 1841 1956 2068
8 1845 1957 2069 1960 1961 2071 2176 2073
8 2069 1960 2073 2176 1973 1862 1975 2083
8 2070 1963 2075 2177 1959 1847 1962 2072
8 1846 1958 2071 1961 1962 2072 2178 2074
8 2077 1964 1861 1971 2182 2076 1974 2082
8 2081 1971 2077 2183 1969 1857 1965 2078
8 2079 1973 2083 2184 1968 1860 1972 2080
8 2081 1971 1858 1970 2185 2082 1972 2080
8 2083 1975 2084 2186 1972 1863 1974 2082
8 2086 1976 1882 1987 2189 2085 1993 2095
8 2090 1987 2086 2190 1981 1875 1977 2087
8 2191 2094 1986 2088 2103 1998 1888 1997
8 2088 1986 2094 2191 1980 1877 1989 2089
8 1991 2091 2192 2097 1880 1982 2089 1989
8 2093 1988 2095 2193 1984 1876 1987 2090
8 1879 1983 2092 1990 1991 2091 2194 2098
8 1985 1878 1990 2092 2093 1988 2096 2195
8 2097 1996 1886 1989 2196 2099 1992 2094
8 2196 2099 1992 2094 2104 1999 1889 1998
8 1994 2096 1988 1883 2100 2197 2095 1993
8 2096 1994 1884 1990 2198 2101 1995 2098
8 1995 2098 2199 2102 1885 1991 2097 1996
8 2203 2104 1998 2103 2106 2001 1891 2000
8 2107 2002 2105 2204 2001 1892 1999 2104
8 2109 2004 2107 2206 2003 1894 2001 2106
8 2110 2005 2108 2207 2004 1895 2002 2107
8 2112 2007 2110 2209 2006 1897 2004 2109
8 2113 2008 2111 2210 2007 1898 2005 2110
8 2120 2011 2113 2212 2014 1901 2007 2112
8 2117 2009 2114 2213 2011 1899 2008 2113
8 2219 2116 2009 2117 2119 2010 1899 2011
8 2222 2118 2010 2119 2122 2012 1900 2013
8 2223 2119 2011 2120 2123 2013 1901 2014
8 2016 1902 2015 2125 2122 2012 2121 2225
8 2126 2016 2122 2226 2017 1903 2013 2123
8 2019 1905 2018 2128 2125 2015 2124 2228
8 2020 1906 2019 2129 2126 2016 2125 2229
8 2022 1908 2021 2131 2128 2018 2127 2231
8 2023 1909 2022 2132 2129 2019 2128 2232
8 2025 1911 2024 2134 2131 2021 2130 2234
8 2026 1912 2025 2135 2132 2022 2131 2235
8 1914 2028 2134 2024 2027 2136 2236 2133
8 2029 1915 2028 2137 2135 2025 2134 2237
8 2030 1918 2031 2138 2137 2028 2136 2238
8 2157 2050 2139 2240 2054 1941 2033 2140
8 2052 1940 2054 2161 2144 2035 2140 2242
8 2140 2033 2141 2243 2035 1923 2034 2143
8 2143 2034 2142 2246 2037 1924 2036 2146
8 2144 2035 2143 2247 2051 1939 2037 2147
8 2146 2036 2145 2249 2039 1925 2038 2149
8 2147 2037 2146 2250 2040 1926 2039 2150
8 2149 2038 2148 2251 2042 1927 2041 2151
8 2150 2039 2149 2252 2043 1928 2042 2152
8 2152 2042 2151 2253 2045 1931 2044 2153
8 2255 2154 2047 2155 2189 2085 1976 2086
8 2170 2062 1949 2063 2255 2154 2047 2155
8 2256 2155 2048 2156 2190 2086 1977 2087
8 2171 2063 1950 2064 2256 2155 2048 2156
8 2258 2159 2050 2157 2164 2056 1941 2054
8 2160 2053 1946 2058 2262 2163 2060 2167
8 2162 2055 1940 2052 2262 2163 2053 2160
8 2162 2055 2164 2263 2052 1940 2054 2161
8 2163 2057 1948 2060 2264 2165 2061 2168
8 2055 1943 2057 2163 2164 2056 2165 2264
8 2182 2076 2166 2268 2077 1964 2061 2168
8 2183 2077 2168 2269 2078 1965 2060 2167
8 2070 1963 2062 2170 2177 2075 2169 2271
8 2172 2070 1959 2065 2272 2170 2063 2171
8 2172 2070 2177 2273 2065 1959 2072 2173
8 2066 1958 2072 2173 2174 2071 2178 2274
8 2067 1957 2071 2174 2175 2069 2176 2275
8 2175 2069 2176 2275 2079 1973 2083 2184
8 2071 1961 2074 2178 2176 2073 2179 2276
8 2176 2073 2179 2276 2083 1975 2084 2186
8 2072 1962 2075 2177 2178 2074 2180 2277
8 2182 2076 1974 2082 2280 2181 2084 2186
8 2183 2077 1971 2081 2281 2182 2082 2185
8 2184 2083 2186 2282 2080 1972 2082 2185
8 2189 2085 1993 2095 2285 2188 2100 2197
8 2190 2086 1987 2090 2286 2189 2095 2193
8 2192 2097 1989 2089 2287 2196 2094 2191
8 2287 2196 2094 2191 2203 2104 1998 2103
8 2194 2098 1991 2091 2288 2199 2097 2192
8 2195 2096 2197 2289 2093 1988 2095 2193
8 2096 2195 2290 2198 1990 2092 2194 2098
8 2097 1996 2099 2196 2199 2102 2200 2291
8 2196 2099 1999 2104 2291 2200 2105 2204
8 2100 2197 2292 2201 1994 2096 2198 2101
8 1995 2098 2198 2101 2102 2199 2293 2202
8 2206 2107 2204 2296 2106 2001 2104 2203
8 2207 2108 2205 2297 2107 2002 2105 2204
8 2209 2110 2207 2299 2109 2004 2107 2206
8 2210 2111 2208 2300 2110 2005 2108 2207
8 2212 2113 2210 2302 2112 2007 2110 2209
8 2213 2114 2211 2303 2113 2008 2111 2210
8 2220 2117 2213 2305 2120 2011 2113 2212
8 2216 2115 2214 2306 2117 2009 2114 2213
8 2216 2115 2009 2117 2311 2217 2116 2219
8 2219 2116 2010 2119 2314 2218 2118 2222
8 2315 2219 2117 2220 2223 2119 2011 2120
8 2122 2012 2121 2225 2222 2118 2221 2317
8 2318 2222 2119 2223 2226 2122 2013 2123
8 2125 2015 2124 2228 2225 2121 2224 2320
8 2126 2016 2125 2229 2226 2122 2225 2321
8 2128 2018 2127 2231 2228 2124 2227 2323
8 2129 2019 2128 2232 2229 2125 2228 2324
8 2131 2021 2130 2234 2231 2127 2230 2326
8 2132 2022 2131 2235 2232 2128 2231 2327
8 2134 2024 2133 2236 2234 2130 2233 2328
8 2135 2025 2134 2237 2235 2131 2234 2329
8 2137 2028 2136 2238 2237 2134 2236 2330
8 2157 2050 2158 2259 2240 2139 2239 2332
8 2257 2157 2240 2334 2161 2054 2140 2242
8 2240 2139 2241 2335 2140 2033 2141 2243
8 2242 2140 2243 2337 2144 2035 2143 2247
8 2243 2141 2244 2338 2143 2034 2142 2246
8 2246 2142 2245 2341 2146 2036 2145 2249
8 2247 2143 2246 2342 2147 2037 2146 2250
8 2249 2145 2248 2343 2149 2038 2148 2251
8 2250 2146 2249 2344 2150 2039 2149 2252
8 2252 2149 2251 2345 2152 2042 2151 2253
8 2169 2271 2347 2254 2062 2170 2255 2154
8 2189 2085 2188 2285 2255 2154 2254 2347
8 2348 2255 2155 2256 2286 2189 2086 2190
8 2272 2170 2063 2171 2348 2255 2155 2256
8 2349 2258 2157 2257 2263 2164 2054 2161
8 2258 2159 2261 2351 2157 2050 2158 2259
8 2258 2159 2056 2164 2351 2261 2165 2264
8 2262 2163 2060 2167 2355 2264 2168 2269
8 2162 2055 2163 2262 2263 2164 2264 2355
8 2357 2266 2165 2264 2268 2166 2061 2168
8 2268 2166 2076 2182 2361 2267 2181 2280
8 2281 2182 2268 2362 2183 2077 2168 2269
8 2271 2169 2270 2364 2177 2075 2180 2277
8 2172 2070 2170 2272 2273 2177 2271 2365
8 2072 2173 2274 2178 2177 2273 2366 2277
8 2071 2174 2275 2176 2178 2274 2367 2276
8 2275 2176 2276 2367 2184 2083 2186 2282
8 2283 2187 2084 2186 2368 2278 2179 2276
8 2178 2074 2180 2277 2276 2179 2278 2368
8 2283 2187 2279 2370 2186 2084 2181 2280
8 2281 2182 2082 2185 2371 2280 2186 2282
8 2188 2285 2374 2284 2100 2197 2292 2201
8 2286 2189 2095 2193 2375 2285 2197 2289
8 2192 2097 2196 2287 2288 2199 2291 2376
8 2287 2196 2104 2203 2376 2291 2204 2296
8 2194 2098 2199 2288 2290 2198 2293 2377
8 2289 2197 2096 2195 2378 2292 2198 2290
8 2291 2200 2105 2204 2379 2294 2205 2297
8 2199 2102 2200 2291 2293 2202 2294 2379
8 2198 2101 2202 2293 2292 2201 2295 2380
8 2299 2207 2297 2383 2206 2107 2204 2296
8 2300 2208 2298 2384 2207 2108 2205 2297
8 2302 2210 2300 2386 2209 2110 2207 2299
8 2303 2211 2301 2387 2210 2111 2208 2300
8 2305 2213 2303 2389 2212 2113 2210 2302
8 2306 2214 2304 2390 2213 2114 2211 2303
8 2310 2216 2306 2392 2220 2117 2213 2305
8 2308 2215 2307 2393 2216 2115 2214 2306
8 2308 2215 2115 2216 2396 2309 2217 2311
8 2310 2216 2117 2220 2398 2311 2219 2315
8 2311 2217 2116 2219 2399 2312 2218 2314
8 2314 2218 2118 2222 2402 2313 2221 2317
8 2315 2219 2119 2223 2403 2314 2222 2318
8 2225 2121 2224 2320 2317 2221 2316 2405
8 2226 2122 2225 2321 2318 2222 2317 2406
8 2228 2124 2227 2323 2320 2224 2319 2408
8 2229 2125 2228 2324 2321 2225 2320 2409
8 2231 2127 2230 2326 2323 2227 2322 2411
8 2232 2128 2231 2327 2324 2228 2323 2412
8 2234 2130 2233 2328 2326 2230 2325 2413
8 2235 2131 2234 2329 2327 2231 2326 2414
8 2237 2134 2236 2330 2329 2234 2328 2415
8 2259 2158 2260 2352 2332 2239 2331 2417
8 2257 2157 2259 2350 2334 2240 2332 2419
8 2240 2139 2239 2332 2335 2241 2333 2420
8 2334 2240 2335 2422 2242 2140 2243 2337
8 2335 2241 2336 2423 2243 2141 2244 2338
8 2337 2243 2338 2425 2247 2143 2246 2342
8 2338 2244 2339 2426 2246 2142 2245 2341
8 2341 2245 2340 2428 2249 2145 2248 2343
8 2342 2246 2341 2429 2250 2146 2249 2344
8 2344 2249 2343 2430 2252 2149 2251 2345
8 2188 2285 2347 2254 2284 2374 2432 2346
8 2347 2254 2346 2432 2271 2169 2270 2364
8 2365 2271 2170 2272 2433 2347 2255 2348
8 2286 2189 2285 2375 2348 2255 2347 2433
8 2349 2258 2351 2435 2257 2157 2259 2350
8 2349 2258 2164 2263 2435 2351 2264 2355
8 2259 2158 2261 2351 2352 2260 2354 2437
8 2356 2265 2354 2437 2264 2165 2261 2351
8 2441 2357 2264 2355 2362 2268 2168 2269
8 2356 2265 2165 2264 2442 2358 2266 2357
8 2443 2359 2266 2357 2361 2267 2166 2268
8 2370 2279 2360 2446 2280 2181 2267 2361
8 2362 2268 2182 2281 2447 2361 2280 2371
8 2180 2277 2368 2278 2270 2364 2449 2363
8 2271 2365 2273 2177 2364 2450 2366 2277
8 2372 2283 2186 2282 2451 2368 2276 2367
8 2178 2274 2367 2276 2277 2366 2451 2368
8 2283 2187 2278 2368 2370 2279 2369 2452
8 2372 2283 2370 2453 2282 2186 2280 2371
8 2284 2374 2455 2373 2201 2292 2380 2295
8 2375 2285 2197 2289 2456 2374 2292 2378
8 2376 2291 2204 2296 2457 2379 2297 2383
8 2288 2199 2291 2376 2377 2293 2379 2457
8 2198 2290 2378 2292 2293 2377 2458 2380
8 2293 2202 2294 2379 2380 2295 2381 2459
8 2384 2298 2381 2459 2297 2205 2294 2379
8 2386 2300 2384 2463 2299 2207 2297 2383
8 2387 2301 2385 2464 2300 2208 2298 2384
8 2389 2303 2387 2466 2302 2210 2300 2386
8 2390 2304 2388 2467 2303 2211 2301 2387
8 2392 2306 2390 2469 2305 2213 2303 2389
8 2393 2307 2391 2470 2306 2214 2304 2390
8 2395 2308 2393 2472 2310 2216 2306 2392
8 2308 2215 2309 2396 2393 2307 2394 2473
8 2395 2308 2216 2310 2475 2396 2311 2398
8 2396 2309 2217 2311 2476 2397 2312 2399
8 2398 2311 2219 2315 2478 2399 2314 2403
8 2399 2312 2218 2314 2479 2400 2313 2402
8 2317 2221 2316 2405 2402 2313 2401 2482
8 2403 2314 2222 2318 2483 2402 2317 2406
8 2320 2224 2319 2408 2405 2316 2404 2485
8 2321 2225 2320 2409 2406 2317 2405 2486
8 2323 2227 2322 2411 2408 2319 2407 2488
8 2324 2228 2323 2412 2409 2320 2408 2489
8 2326 2230 2325 2413 2411 2322 2410 2490
8 2327 2231 2326 2414 2412 2323 2411 2491
8 2329 2234 2328 2415 2414 2326 2413 2492
8 2417 2331 2260 2352 2494 2416 2353 2438
8 2350 2259 2352 2436 2419 2332 2417 2496
8 2332 2239 2331 2417 2420 2333 2418 2497
8 2334 2240 2332 2419 2422 2335 2420 2499
8 2420 2333 2421 2500 2335 2241 2336 2423
8 2422 2335 2423 2502 2337 2243 2338 2425
8 2423 2336 2424 2503 2338 2244 2339 2426
8 2425 2338 2426 2505 2342 2246 2341 2429
8 2426 2339 2427 2506 2341 2245 2340 2428
8 2429 2341 2428 2507 2344 2249 2343 2430
8 2432 2346 2284 2374 2509 2431 2373 2455
8 2432 2346 2431 2509 2364 2270 2363 2449
8 2375 2285 2374 2456 2433 2347 2432 2510
8 2347 2433 2365 2271 2432 2510 2450 2364
8 2350 2259 2351 2435 2436 2352 2437 2514
8 2440 2356 2437 2514 2355 2264 2351 2435
8 2352 2260 2354 2437 2438 2353 2439 2516
8 2356 2265 2358 2442 2437 2354 2439 2516
8 2440 2356 2264 2355 2518 2442 2357 2441
8 2519 2443 2357 2441 2447 2361 2268 2362
8 2443 2359 2444 2520 2357 2266 2358 2442
8 2443 2359 2267 2361 2520 2444 2360 2446
8 2446 2360 2279 2370 2523 2445 2369 2452
8 2453 2370 2446 2524 2371 2280 2361 2447
8 2449 2363 2448 2525 2368 2278 2369 2452
8 2366 2277 2364 2450 2451 2368 2449 2526
8 2372 2283 2368 2451 2453 2370 2452 2527
8 2455 2373 2295 2380 2529 2454 2382 2460
8 2456 2374 2292 2378 2530 2455 2380 2458
8 2377 2293 2379 2457 2458 2380 2459 2531
8 2463 2384 2459 2531 2383 2297 2379 2457
8 2533 2461 2382 2460 2459 2381 2295 2380
8 2464 2385 2461 2533 2384 2298 2381 2459
8 2466 2387 2464 2537 2386 2300 2384 2463
8 2467 2388 2465 2538 2387 2301 2385 2464
8 2469 2390 2467 2540 2389 2303 2387 2466
8 2470 2391 2468 2541 2390 2304 2388 2467
8 2472 2393 2470 2543 2392 2306 2390 2469
8 2393 2307 2394 2473 2470 2391 2471 2544
8 2395 2308 2396 2475 2472 2393 2473 2546
8 2396 2309 2397 2476 2473 2394 2474 2547
8 2475 2396 2311 2398 2549 2476 2399 2478
8 2476 2397 2312 2399 2550 2477 2400 2479
8 2478 2399 2314 2403 2552 2479 2402 2483
8 2479 2400 2313 2402 2553 2480 2401 2482
8 2405 2316 2404 2485 2482 2401 2481 2556
8 2406 2317 2405 2486 2483 2402 2482 2557
8 2408 2319 2407 2488 2485 2404 2484 2559
8 2409 2320 2408 2489 2486 2405 2485 2560
8 2411 2322 2410 2490 2488 2407 2487 2561
8 2412 2323 2411 2491 2489 2408 2488 2562
8 2414 2326 2413 2492 2491 2411 2490 2563
8 2513 2434 2493 2565 2438 2353 2416 2494
8 2496 2417 2352 2436 2567 2494 2438 2515
8 2494 2416 2495 2568 2417 2331 2418 2497
8 2419 2332 2417 2496 2499 2420 2497 2570
8 2497 2418 2498 2571 2420 2333 2421 2500
8 2499 2420 2500 2573 2422 2335 2423 2502
8 2500 2421 2501 2574 2423 2336 2424 2503
8 2502 2423 2503 2576 2425 2338 2426 2505
8 2503 2424 2504 2577 2426 2339 2427 2506
8 2505 2426 2506 2578 2429 2341 2428 2507
8 2509 2431 2373 2455 2580 2508 2454 2529
8 2509 2431 2508 2580 2449 2363 2448 2525
8 2432 2510 2581 2509 2374 2456 2530 2455
8 2432 2510 2450 2364 2509 2581 2526 2449
8 2583 2511 2434 2513 2516 2439 2353 2438
8 2436 2352 2437 2514 2515 2438 2516 2588
8 2440 2356 2442 2518 2514 2437 2516 2588
8 2442 2358 2444 2520 2516 2439 2517 2589
8 2519 2443 2520 2591 2441 2357 2442 2518
8 2519 2443 2361 2447 2591 2520 2446 2524
8 2446 2360 2445 2523 2520 2444 2521 2592
8 2525 2448 2522 2593 2452 2369 2445 2523
8 2524 2446 2370 2453 2594 2523 2452 2527
8 2526 2449 2525 2595 2451 2368 2452 2527
8 2534 2462 2528 2597 2460 2382 2454 2529
8 2530 2455 2380 2458 2598 2529 2460 2532
8 2599 2533 2460 2532 2531 2459 2380 2458
8 2537 2464 2533 2599 2463 2384 2459 2531
8 2534 2462 2382 2460 2601 2535 2461 2533
8 2538 2465 2535 2601 2464 2385 2461 2533
8 2540 2467 2538 2604 2466 2387 2464 2537
8 2541 2468 2539 2605 2467 2388 2465 2538
8 2543 2470 2541 2607 2469 2390 2467 2540
8 2470 2391 2471 2544 2541 2468 2542 2608
8 2472 2393 2473 2546 2543 2470 2544 2610
8 2473 2394 2474 2547 2544 2471 2545 2611
8 2475 2396 2476 2549 2546 2473 2547 2613
8 2476 2397 2477 2550 2547 2474 2548 2614
8 2549 2476 2399 2478 2616 2550 2479 2552
8 2479 2400 2480 2553 2550 2477 2551 2617
8 2552 2479 2402 2483 2619 2553 2482 2557
8 2482 2401 2481 2556 2553 2480 2554 2620
8 2485 2404 2484 2559 2556 2481 2555 2623
8 2486 2405 2485 2560 2557 2482 2556 2624
8 2488 2407 2487 2561 2559 2484 2558 2625
8 2489 2408 2488 2562 2560 2485 2559 2626
8 2491 2411 2490 2563 2562 2488 2561 2627
8 2513 2434 2512 2585 2565 2493 2564 2630
8 2586 2513 2565 2632 2515 2438 2494 2567
8 2565 2493 2566 2633 2494 2416 2495 2568
8 2567 2494 2568 2635 2496 2417 2497 2570
8 2568 2495 2569 2636 2497 2418 2498 2571
8 2570 2497 2571 2638 2499 2420 2500 2573
8 2571 2498 2572 2639 2500 2421 2501 2574
8 2573 2500 2574 2641 2502 2423 2503 2576
8 2574 2501 2575 2642 2503 2424 2504 2577
8 2576 2503 2577 2643 2505 2426 2506 2578
8 2597 2528 2579 2645 2529 2454 2508 2580
8 2580 2508 2579 2645 2525 2448 2522 2593
8 2581 2509 2455 2530 2646 2580 2529 2598
8 2581 2509 2580 2646 2526 2449 2525 2595
8 2583 2511 2582 2648 2513 2434 2512 2585
8 2583 2511 2439 2516 2648 2582 2517 2589
8 2649 2583 2513 2586 2588 2516 2438 2515
8 2589 2517 2444 2520 2653 2587 2521 2592
8 2518 2442 2520 2591 2588 2516 2589 2654
8 2593 2522 2590 2655 2523 2445 2521 2592
8 2524 2446 2523 2594 2591 2520 2592 2656
8 2595 2525 2593 2657 2527 2452 2523 2594
8 2602 2536 2596 2659 2534 2462 2528 2597
8 2600 2534 2597 2660 2532 2460 2529 2598
8 2600 2534 2460 2532 2661 2601 2533 2599
8 2604 2538 2601 2661 2537 2464 2533 2599
8 2602 2536 2462 2534 2663 2603 2535 2601
8 2601 2535 2465 2538 2663 2603 2539 2605
8 2607 2541 2605 2665 2540 2467 2538 2604
8 2608 2542 2606 2666 2541 2468 2539 2605
8 2543 2470 2544 2610 2607 2541 2608 2668
8 2544 2471 2545 2611 2608 2542 2609 2669
8 2546 2473 2547 2613 2610 2544 2611 2671
8 2547 2474 2548 2614 2611 2545 2612 2672
8 2549 2476 2550 2616 2613 2547 2614 2674
8 2550 2477 2551 2617 2614 2548 2615 2675
8 2552 2479 2553 2619 2616 2550 2617 2677
8 2553 2480 2554 2620 2617 2551 2618 2678
8 2557 2482 2556 2624 2619 2553 2620 2680
8 2556 2481 2555 2623 2620 2554 2621 2681
8 2559 2484 2558 2625 2623 2555 2622 2683
8 2560 2485 2559 2626 2624 2556 2623 2684
8 2562 2488 2561 2627 2626 2559 2625 2685
8 2690 2629 2564 2630 2650 2584 2512 2585
8 2586 2513 2585 2651 2632 2565 2630 2691
8 2630 2564 2631 2692 2565 2493 2566 2633
8 2632 2565 2633 2694 2567 2494 2568 2635
8 2633 2566 2634 2695 2568 2495 2569 2636
8 2635 2568 2636 2697 2570 2497 2571 2638
8 2636 2569 2637 2698 2571 2498 2572 2639
8 2638 2571 2639 2700 2573 2500 2574 2641
8 2639 2572 2640 2701 2574 2501 2575 2642
8 2641 2574 2642 2702 2576 2503 2577 2643
8 2597 2528 2596 2659 2645 2579 2644 2704
8 2645 2579 2644 2704 2593 2522 2590 2655
8 2660 2597 2645 2705 2598 2529 2580 2646
8 2646 2580 2645 2705 2595 2525 2593 2657
8 2650 2584 2512 2585 2707 2647 2582 2648
8 2648 2582 2517 2589 2707 2647 2587 2653
8 2649 2583 2648 2708 2586 2513 2585 2651
8 2649 2583 2516 2588 2708 2648 2589 2654
8 2655 2590 2652 2710 2592 2521 2587 2653
8 2654 2589 2520 2591 2711 2653 2592 2656
8 2657 2593 2655 2712 2594 2523 2592 2656
8 2602 2536 2603 2663 2659 2596 2658 2714
8 2662 2602 2659 2715 2600 2534 2597 2660
8 2662 2602 2534 2600 2717 2663 2601 2661
8 2661 2601 2538 2604 2717 2663 2605 2665
8 2666 2606 2664 2718 2605 2539 2603 2663
8 2668 2608 2666 2720 2607 2541 2605 2665
8 2608 2542 2609 2669 2666 2606 2667 2721
8 2610 2544 2611 2671 2668 2608 2669 2723
8 2611 2545 2612 2672 2669 2609 2670 2724
8 2613 2547 2614 2674 2671 2611 2672 2726
8 2614 2548 2615 2675 2672 2612 2673 2727
8 2616 2550 2617 2677 2674 2614 2675 2729
8 2617 2551 2618 2678 2675 2615 2676 2730
8 2619 2553 2620 2680 2677 2617 2678 2732
8 2620 2554 2621 2681 2678 2618 2679 2733
8 2624 2556 2623 2684 2680 2620 2681 2735
8 2681 2621 2555 2623 2736 2682 2622 2683
8 2626 2559 2625 2685 2684 2623 2683 2737
8 2688 2628 2584 2650 2740 2686 2647 2707
8 2688 2628 2687 2742 2650 2584 2629 2690
8 2690 2629 2689 2745 2630 2564 2631 2692
8 2746 2690 2630 2691 2709 2650 2585 2651
8 2691 2630 2692 2747 2632 2565 2633 2694
8 2692 2631 2693 2748 2633 2566 2634 2695
8 2694 2633 2695 2750 2635 2568 2636 2697
8 2695 2634 2696 2751 2636 2569 2637 2698
8 2697 2636 2698 2753 2638 2571 2639 2700
8 2698 2637 2699 2754 2639 2572 2640 2701
8 2700 2639 2701 2755 2641 2574 2642 2702
8 2659 2596 2658 2714 2704 2644 2703 2757
8 2704 2644 2703 2757 2655 2590 2652 2710
8 2660 2597 2659 2715 2705 2645 2704 2758
8 2705 2645 2704 2758 2657 2593 2655 2712
8 2759 2706 2647 2707 2710 2652 2587 2653
8 2709 2650 2585 2651 2760 2707 2648 2708
8 2708 2648 2589 2654 2760 2707 2653 2711
8 2712 2655 2710 2761 2656 2592 2653 2711
8 2763 2713 2658 2714 2718 2664 2603 2663
8 2662 2602 2663 2717 2715 2659 2714 2764
8 2720 2666 2718 2767 2665 2605 2663 2717
8 2768 2719 2664 2718 2721 2667 2606 2666
8 2668 2608 2669 2723 2720 2666 2721 2770
8 2669 2609 2670 2724 2721 2667 2722 2771
8 2671 2611 2672 2726 2723 2669 2724 2773
8 2672 2612 2673 2727 2724 2670 2725 2774
8 2674 2614 2675 2729 2726 2672 2727 2776
8 2675 2615 2676 2730 2727 2673 2728 2777
8 2677 2617 2678 2732 2729 2675 2730 2779
8 2678 2618 2679 2733 2730 2676 2731 2780
8 2680 2620 2681 2735 2732 2678 2733 2782
8 2733 2679 2621 2681 2783 2734 2682 2736
8 2735 2681 2623 2684 2784 2736 2683 2737
8 2740 2686 2647 2707 2787 2738 2706 2759
8 2688 2628 2686 2740 2742 2687 2739 2789
8 2743 2688 2650 2709 2790 2740 2707 2760
8 2742 2687 2741 2792 2690 2629 2689 2745
8 2743 2688 2742 2793 2709 2650 2690 2746
8 2745 2689 2744 2795 2692 2631 2693 2748
8 2746 2690 2745 2796 2691 2630 2692 2747
8 2747 2692 2748 2797 2694 2633 2695 2750
8 2748 2693 2749 2798 2695 2634 2696 2751
8 2750 2695 2751 2800 2697 2636 2698 2753
8 2751 2696 2752 2801 2698 2637 2699 2754
8 2753 2698 2754 2802 2700 2639 2701 2755
8 2763 2713 2756 2804 2714 2658 2703 2757
8 2759 2706 2652 2710 2804 2756 2703 2757
8 2715 2659 2714 2764 2758 2704 2757 2805
8 2758 2704 2757 2805 2712 2655 2710 2761
8 2806 2759 2707 2760 2761 2710 2653 2711
8 2765 2716 2762 2808 2718 2664 2713 2763
8 2809 2763 2714 2764 2767 2718 2663 2717
8 2765 2716 2664 2718 2811 2766 2719 2768
8 2813 2768 2718 2767 2770 2721 2666 2720
8 2814 2769 2719 2768 2771 2722 2667 2721
8 2723 2669 2724 2773 2770 2721 2771 2816
8 2724 2670 2725 2774 2771 2722 2772 2817
8 2726 2672 2727 2776 2773 2724 2774 2819
8 2727 2673 2728 2777 2774 2725 2775 2820
8 2729 2675 2730 2779 2776 2727 2777 2822
8 2730 2676 2731 2780 2777 2728 2778 2823
8 2732 2678 2733 2782 2779 2730 2780 2825
8 2780 2731 2679 2733 2826 2781 2734 2783
8 2782 2733 2681 2735 2827 2783 2736 2784
8 2830 2785 2738 2787 2804 2756 2706 2759
8 2789 2739 2686 2740 2832 2786 2738 2787
8 2790 2740 2707 2760 2833 2787 2759 2806
8 2742 2687 2739 2789 2792 2741 2788 2835
8 2743 2688 2740 2790 2793 2742 2789 2836
8 2792 2741 2791 2838 2745 2689 2744 2795
8 2793 2742 2792 2839 2746 2690 2745 2796
8 2795 2744 2794 2841 2748 2693 2749 2798
8 2796 2745 2795 2842 2747 2692 2748 2797
8 2797 2748 2798 2843 2750 2695 2751 2800
8 2798 2749 2799 2844 2751 2696 2752 2801
8 2800 2751 2801 2845 2753 2698 2754 2802
8 2808 2762 2803 2847 2763 2713 2756 2804
8 2809 2763 2804 2848 2764 2714 2757 2805
8 2806 2759 2710 2761 2848 2804 2757 2805
8 2765 2716 2766 2811 2808 2762 2807 2850
8 2810 2765 2808 2851 2767 2718 2763 2809
8 2810 2765 2718 2767 2852 2811 2768 2813
8 2811 2766 2719 2768 2853 2812 2769 2814
8 2855 2814 2768 2813 2816 2771 2721 2770
8 2856 2815 2769 2814 2817 2772 2722 2771
8 2773 2724 2774 2819 2816 2771 2817 2858
8 2774 2725 2775 2820 2817 2772 2818 2859
8 2776 2727 2777 2822 2819 2774 2820 2861
8 2777 2728 2778 2823 2820 2775 2821 2862
8 2779 2730 2780 2825 2822 2777 2823 2864
8 2823 2778 2731 2780 2865 2824 2781 2826
8 2825 2780 2733 2782 2866 2826 2783 2827
8 2869 2828 2785 2830 2847 2803 2756 2804
8 2871 2829 2786 2832 2830 2785 2738 2787
8 2872 2830 2787 2833 2848 2804 2759 2806
8 2789 2739 2786 2832 2835 2788 2831 2874
8 2836 2789 2740 2790 2875 2832 2787 2833
8 2792 2741 2788 2835 2838 2791 2834 2877
8 2793 2742 2789 2836 2839 2792 2835 2878
8 2838 2791 2837 2880 2795 2744 2794 2841
8 2839 2792 2838 2881 2796 2745 2795 2842
8 2841 2794 2840 2882 2798 2749 2799 2844
8 2842 2795 2841 2883 2797 2748 2798 2843
8 2843 2798 2844 2884 2800 2751 2801 2845
8 2886 2846 2803 2847 2850 2807 2762 2808
8 2851 2808 2847 2887 2809 2763 2804 2848
8 2850 2807 2766 2811 2889 2849 2812 2853
8 2810 2765 2811 2852 2851 2808 2850 2890
8 2852 2811 2768 2813 2891 2853 2814 2855
8 2853 2812 2769 2814 2892 2854 2815 2856
8 2894 2856 2814 2855 2858 2817 2771 2816
8 2817 2772 2818 2859 2856 2815 2857 2895
8 2819 2774 2820 2861 2858 2817 2859 2897
8 2820 2775 2821 2862 2859 2818 2860 2898
8 2822 2777 2823 2864 2861 2820 2862 2900
8 2823 2778 2824 2865 2862 2821 2863 2901
8 2864 2823 2780 2825 2902 2865 2826 2866
8 2904 2867 2828 2869 2886 2846 2803 2847
8 2869 2828 2868 2906 2830 2785 2829 2871
8 2907 2869 2830 2872 2887 2847 2804 2848
8 2871 2829 2870 2909 2832 2786 2831 2874
8 2910 2871 2832 2875 2872 2830 2787 2833
8 2835 2788 2831 2874 2877 2834 2873 2912
8 2836 2789 2832 2875 2878 2835 2874 2913
8 2877 2834 2876 2915 2838 2791 2837 2880
8 2839 2792 2835 2878 2881 2838 2877 2916
8 2880 2837 2879 2917 2841 2794 2840 2882
8 2881 2838 2880 2918 2842 2795 2841 2883
8 2883 2841 2882 2919 2843 2798 2844 2884
8 2921 2885 2846 2886 2889 2849 2807 2850
8 2922 2886 2847 2887 2890 2850 2808 2851
8 2889 2849 2812 2853 2924 2888 2854 2892
8 2890 2850 2811 2852 2925 2889 2853 2891
8 2891 2853 2814 2855 2926 2892 2856 2894
8 2892 2854 2815 2856 2927 2893 2857 2895
8 2858 2817 2859 2897 2894 2856 2895 2929
8 2859 2818 2860 2898 2895 2857 2896 2930
8 2861 2820 2862 2900 2897 2859 2898 2932
8 2862 2821 2863 2901 2898 2860 2899 2933
8 2864 2823 2865 2902 2900 2862 2901 2934
8 2904 2867 2846 2886 2936 2903 2885 2921
8 2904 2867 2903 2936 2869 2828 2868 2906
8 2937 2904 2869 2907 2922 2886 2847 2887
8 2906 2868 2905 2939 2871 2829 2870 2909
8 2907 2869 2906 2940 2872 2830 2871 2910
8 2909 2870 2908 2942 2874 2831 2873 2912
8 2910 2871 2909 2943 2875 2832 2874 2913
8 2912 2873 2911 2945 2877 2834 2876 2915
8 2878 2835 2874 2913 2916 2877 2912 2946
8 2915 2876 2914 2947 2880 2837 2879 2917
8 2916 2877 2915 2948 2881 2838 2880 2918
8 2918 2880 2917 2949 2883 2841 2882 2919
8 2921 2885 2849 2889 2951 2920 2888 2924
8 2952 2921 2886 2922 2925 2889 2850 2890
8 2924 2888 2854 2892 2954 2923 2893 2927
8 2925 2889 2853 2891 2955 2924 2892 2926
8 2926 2892 2856 2894 2956 2927 2895 2929
8 2895 2857 2896 2930 2927 2893 2928 2957
8 2897 2859 2898 2932 2929 2895 2930 2959
8 2898 2860 2899 2933 2930 2896 2931 2960
8 2900 2862 2901 2934 2932 2898 2933 2961
8 2936 2903 2885 2921 2963 2935 2920 2951
8 2936 2903 2935 2963 2906 2868 2905 2939
8 2937 2904 2886 2922 2964 2936 2921 2952
8 2937 2904 2936 2964 2907 2869 2906 2940
8 2939 2905 2938 2966 2909 2870 2908 2942
8 2940 2906 2939 2967 2910 2871 2909 2943
8 2942 2908 2941 2969 2912 2873 2911 2945
8 2943 2909 2942 2970 2913 2874 2912 2946
8 2945 2911 2944 2971 2915 2876 2914 2947
8 2946 2912 2945 2972 2916 2877 2915 2948
8 2948 2915 2947 2973 2918 2880 2917 2949
8 2951 2920 2888 2924 2975 2950 2923 2954
8 2952 2921 2889 2925 2976 2951 2924 2955
8 2927 2893 2928 2957 2954 2923 2953 2978
8 2955 2924 2892 2926 2979 2954 2927 2956
8 2929 2895 2930 2959 2956 2927 2957 2980
8 2930 2896 2931 2960 2957 2928 2958 2981
8 2932 2898 2933 2961 2959 2930 2960 2982
8 2951 2920 2950 2975 2963 2935 2962 2984
8 2963 2935 2962 2984 2939 2905 2938 2966
8 2964 2936 2921 2952 2985 2963 2951 2976
8 2964 2936 2963 2985 2940 2906 2939 2967
8 2966 2938 2965 2987 2942 2908 2941 2969
8 2967 2939 2966 2988 2943 2909 2942 2970
8 2969 2941 2968 2989 2945 2911 2944 2971
8 2970 2942 2969 2990 2946 2912 2945 2972
8 2972 2945 2971 2991 2948 2915 2947 2973
8 2954 2923 2953 2978 2975 2950 2974 2993
8 2976 2951 2924 2955 2994 2975 2954 2979
8 2957 2928 2958 2981 2978 2953 2977 2995
8 2956 2927 2957 2980 2979 2954 2978 2996
8 2959 2930 2960 2982 2980 2957 2981 2997
8 2984 2962 2983 2999 2966 2938 2965 2987
8 2975 2950 2974 2993 2984 2962 2983 2999
8 2976 2951 2975 2994 2985 2963 2984 3000
8 2985 2963 2984 3000 2967 2939 2966 2988
8 2987 2965 2986 3001 2969 2941 2968 2989
8 2988 2966 2987 3002 2970 2942 2969 2990
8 2990 2969 2989 3003 2972 2945 2971 2991
8 2978 2953 2977 2995 2993 2974 2992 3004
8 2979 2954 2978 2996 2994 2975 2993 3005
8 2980 2957 2981 2997 2996 2978 2995 3006
8 2974 2993 2999 2983 2992 3004 3007 2998
8 2983 2999 2987 2965 2998 3007 3001 2986
8 3000 2984 2999 3008 2988 2966 2987 3002
8 2994 2975 2993 3005 3000 2984 2999 3008
8 3002 2987 3001 3009 2990 2969 2989 3003
8 2996 2978 2995 3006 3005 2993 3004 3010
8 3005 2993 3004 3010 3008 2999 3007 3011
8 3008 2999 3007 3011 3002 2987 3001 3009

CELL_TYPES 1910
12
12
12
12
12
12
12
12
12
12
12
12
12
12
12
12
12
12
12
12
12
12
12
12
12
12
12
12
12
12
12
12
12
12
12
12
12
12
12
12
12
12
12
12
12
12
12
12
12
12
12
12
12
12
12
12
12
12
12
12
12
12
12
12
12
12
12
12
12
12
12
12
12
12
12
12
12
12
12
12
12
12
12
12
12
12
12
12
12
12
12
12
12
12
12
12
12
12
12
12
12
12
12
12
12
12
12
12
12
12
12
12
12
12
12
12
12
12
12
12
12
12
12
12
12
12
12
12
12
12
12
12
12
12
12
12
12
12
12
12
12
12
12
12
12
12
12
12
12
12
12
12
12
12
12
12
12
12
12
12
12
12
12
12
12
12
12
12
12
12
12
12
12
12
12
12
12
12
12
12
12
12
12
12
12
12
12
12
12
12
12
12
12
12
12
12
12
12
12
12
12
12
12
12
12
12
12
12
12
12
12
12
12
12
12
12
12
12
12
12
12
12
12
12
12
12
12
12
12
12
12
12
12
12
12
12
12
12
12
12
12
12
12
12
12
12
12
12
12
12
12
12
12
12
12
12
12
12
12
12
12
12
12
12
12
12
12
12
12
12
12
12
12
12
12
12
12
12
12
12
12
12
12
12
12
12
12
12
12
12
12
12
12
12
12
12
12
12
12
12
12
12
12
12
12
12
12
12
12
12
12
12
12
12
12
12
12
12
12
12
12
12
12
12
12
12
12
12
12
12
12
12
12
12
12
12
12
12
12
12
12
12
12
12
12
12
12
12
12
12
12
12
12
12
12
12
12
12
12
12
12
12
12
12
12
12
12
12
12
12
12
12
12
12
12
12
12
12
12
12
12
12
12
12
12
12
12
12
12
12
12
12
12
12
12
12
12
12
12
12
12
12
12
12
12
12
12
12
12
12
12
12
12
12
12
12
12
12
12
12
12
12
12
12
12
12
12
12
12
12
12
12
12
12
12
12
12
12
12
12
12
12
12
12
12
12
12
12
12
12
12
12
12
12
12
12
12
12
12
12
12
12
12
12
12
12
12
12
12
12
12
12
12
12
12
12
12
12
12
12
12
12
12
12
12
12
12
12
12
12
12
12
12
12
12
12
12
12
12
12
12
12
12
12
12
12
12
12
12
12
12
12
12
12
12
12
12
12
12
12
12
12
12
12
12
12
12
12
12
12
12
12
12
12
12
12
12
12
12
12
12
12
12
12
12
12
12
12
12
12
12
12
12
12
12
12
12
12
12
12
12
12
12
12
12
12
12
12
12
12
12
12
12
12
12
12
12
12
12
12
12
12
12
12
12
12
12
12
12
12
12
12
12
12
12
12
12
12
12
12
12
12
12
12
12
12
12
12
12
12
12
12
12
12
12
12
12
12
12
12
12
12
12
12
12
12
12
12
12
12
12
12
12
12
12
12
12
12
12
12
12
12
12
12
12
12
12
12
12
12
12
12
12
12
12
12
12
12
12
12
12
12
12
12
12
12
12
12
12
12
12
12
12
12
12
12
12
12
12
12
12
12
12
12
12
12
12
12
12
12
12
12
12
12
12
12
12
12
12
12
12
12
12
12
12
12
12
12
12
12
12
12
12
12
12
12
12
12
12
12
12
12
12
12
12
12
12
12
12
12
12
12
12
12
12
12
12
12
12
12
12
12
12
12
12
12
12
12
12
12
12
12
12
12
12
12
12
12
12
12
12
12
12
12
12
12
12
12
12
12
12
12
12
12
12
12
12
12
12
12
12
12
12
12
12
12
12
12
12
12
12
12
12
12
12
12
12
12
12
12
12
12
12
12
12
12
12
12
12
12
12
12
12
12
12
12
12
12
12
12
12
12
12
12
12
12
12
12
12
12
12
12
12
12
12
12
12
12
12
12
12
12
12
12
12
12
12
12
12
12
12
12
12
12
12
12
12
12
12
12
12
12
12
12
12
12
12
12
12
12
12
12
12
12
12
12
12
12
12
12
12
12
12
12
12
12
12
12
12
12
12
12
12
12
12
12
12
12
12
12
12
12
12
12
12
12
12
12
12
12
12
12
12
12
12
12
12
12
12
12
12
12
12
12
12
12
12
12
12
12
12
12
12
12
12
12
12
12
12
12
12
12
12
12
12
12
12
12
12
12
12
12
12
12
12
12
12
12
12
12
12
12
12
12
12
12
12
12
12
12
12
12
12
12
12
12
12
12
12
12
12
12
12
12
12
12
12
12
12
12
12
12
12
12
12
12
12
12
12
12
12
12
12
12
12
12
12
12
12
12
12
12
12
12
12
12
12
12
12
12
12
12
12
12
12
12
12
12
12
12
12
12
12
12
12
12
12
12
12
12
12
12
12
12
12
12
12
12
12
12
12
12
12
12
12
12
12
12
12
12
12
12
12
12
12
12
12
12
12
12
12
12
12
12
12
12
12
12
12
12
12
12
12
12
12
12
12
12
12
12
12
12
12
12
12
12
12
12
12
12
12
12
12
12
12
12
12
12
12
12
12
12
12
12
12
12
12
12
12
12
12
12
12
12
12
12
12
12
12
12
12
12
12
12
12
12
12
12
12
12
12
12
12
12
12
12
12
12
12
12
12
12
12
12
12
12
12
12
12
12
12
12
12
12
12
12
12
12
12
12
12
12
12
12
12
12
12
12
12
12
12
12
12
12
12
12
12
12
12
12
12
12
12
12
12
12
12
12
12
12
12
12
12
12
12
12
12
12
12
12
12
12
12
12
12
12
12
12
12
12
12
12
12
12
12
12
12
12
12
12
12
12
12
12
12
12
12
12
12
12
12
12
12
12
12
12
12
12
12
12
12
12
12
12
12
12
12
12
12
12
12
12
12
12
12
12
12
12
12
12
12
12
12
12
12
12
12
12
12
12
12
12
12
12
12
12
12
12
12
12
12
12
12
12
12
12
12
12
12
12
12
12
12
12
12
12
12
12
12
12
12
12
12
12
12
12
12
12
12
12
12
12
12
12
12
12
12
12
12
12
12
12
12
12
12
12
12
12
12
12
12
12
12
12
12
12
12
12
12
12
12
12
12
12
12
12
12
12
12
12
12
12
12
12
12
12
12
12
12
12
12
12
12
12
12
12
12
12
12
12
12
12
12
12
12
12
12
12
12
12
12
12
12
12
12
12
12
12
12
12
12
12
12
12
12
12
12
12
12
12
12
12
12
12
12
12
12
12
12
12
12
12
12
12
12
12
12
12
12
12
12
12
12
12
12
12
12
12
12
12
12
12
12
12
12
12
12
12
12
12
12
12
12
12
12
12
12
12
12
12
12
12
12
12
12
12
12
12
12
12
12
12
12
12
12
12
12
12
12
12
12
12
12
12
12
12
12
12
12
12
12
12
12
12
12
12
12
12
12
12
12
12
12
12
12
12
12
12
12
12
12
12
12
12
12
12
12
12
12
12
12
12
12
12
12
12
12
12
12
12
12
12
12
12
12
12
12
12
12
12
12
12
12
12
12
12
12
12
12
12
12
12
12
12
12
12
12
12
12
12
12
12
12
12
12
12
12
12
12
12
12
12
12
12
12
12
12
12
12
12
12
12
12
12
12
12
12
12
12
12
12
12
12
12
12
12
12
12
12
12
12
12
12
12
12
12
12
12
12
12
12
12
12
12
12
12
12
12
12
12
12
12
12
12
12
12
12
12
12
12
12
12
12
12
12
12
12
12
12
12
12
12
12
12
12
12
12
12
12
12
12
12
12
12
12
12
12
12
12
12
12
12
12
12
12
12
12
12
12
12
12
12
12
12
12
12
12
12
12
12
12
12
12
12
12
12
12
12
12
12
12
12
12
12
12
12
12
12
12
12
12
12
12
12
12
12
12
12
12
12
12
12
12
12
12
12
12
12
12
12
12
12
12
12
12
12
12
12
12
12
12
12
12
12
12
12
12
12
12
12
12
12
12
12
12
12
12
12
12
12
12
12
12
12
12
12
12
12
12
12
12
12
12
12
12
12
12
12
12
12
12
12
12
12
12
12
12
12
12
12
12
12
12
12
12
12
12
12
12
12
12
12
12
12
12
12
12
12
12
12
12
12
12
12
12
12
12
12
12
12
12
12
12
12
12
12
12
12
12
12
12
12
12
12
12
12
12
12
12
12
12
12
12
12
12
12
12
12
12
12
12
12
12
12
12
12
12
12
12
12
12
12
12
12
12
12
12
12
12
12
12
12
12
12
12
12
12
12
12
12
12
12
12
12
12
12
12
12
12
12
12
12
12
12
12
12
12
12
12
12
12
12
12
12
12
12
12
12
12
12
12
12
12
12
12
12
12
12
12
12

POINT_DATA 3012
SCALARS Jp_lamdaP float 4
LOOKUP_TABLE default
0.999236 1 1 0.999236
1 1 1 1
0.999261 1 1 0.999261
0.999192 1 1 0.999192
0.999241 1 1 0.999241
0.9992 1 1 0.9992
1.02388 1.026 1 0.997927
0.999999 1 1 0.999999
1 1 1 1
1 1 1 1
0.999245 1 1 0.999245
1.02049 1.02275 1 0.997795
0.999287 1 1 0.999287
0.999249 1 1 0.999249
0.999274 1 1 0.999274
0.999238 1 1 0.999238
0.999217 1 1 0.999217
0.999277 1 1 0.999277
1.02371 1.02584 1 0.997918
1 1 1 1
0.999192 1 1 0.999192
0.999219 1 1 0.999219
1.01582 1.01797 1 0.997888
1.02081 1.02291 1 0.997942
0.999178 1 1 0.999178
1.02611 1.02829 1 0.997879
1.06273 1.06695 1 0.996039
0.999995 1 1 0.999995
0.99963 1 1 0.99963
0.999638 1 1 0.999638
0.999995 1 1 0.999995
1.01862 1.02073 1.00013 0.997801
0.999254 1 1 0.999254
0.999276 1 1 0.999276
1.02244 1.02429 1 0.998187
1 1 1 1
1.02435 1.02618 1 0.998218
1.01349 1.01458 1.00113 0.997799
1.0512 1.0554 1.00023 0.995797
1 1 1 1
1 1 1 1
0.99963 1 1 0.99963
1 1 1 1
0.999282 1 1 0.999282
1.0041 1.00632 1 0.997795
1 1 1 1
1.01114 1.01302 1 0.99814
0.999278 1 1 0.999278
0.999305 1 1 0.999305
0.999224 1 1 0.999224
1.02363 1.02577 1 0.997916
0.999613 1 1 0.999613
0.999233 1 1 0.999233
0.999193 1 1 0.999193
0.999262 1 1 0.999262
1.01559 1.01776 1 0.997872
1.02577 1.02795 1 0.997873
1.02062 1.02273 1 0.997932
1.06368 1.06791 1 0.99604
1 1 1 1
0.999225 1 1 0.999225
1.00526 1.007 1 0.998269
1.01224 1.01437 1 0.997892
1.01864 1.02076 1 0.997917
1.06399 1.06825 1 0.996016
1.06289 1.06711 1 0.99605
0.999174 1 1 0.999174
1.01661 1.01848 1.00028 0.997876
1.06211 1.06637 1 0.996005
1.08297 1.08802 1 0.995356
1 1 1 1
1 1 1 1
1 1 1 1
1.01664 1.01878 1.0001 0.997806
1 1 1 1
1 1 1 1
1.02247 1.02473 1 0.997793
0.999679 1 1 0.999679
1.02349 1.0257 1 0.997841
1.01141 1.01214 1.00121 0.998072
1.05493 1.05939 1 0.995791
1 1 1 1
1.00578 1.00002 1.00678 0.99899
1.01964 1.02198 1 0.997716
1.02336 1.02562 1 0.9978
1.06899 1.07362 1 0.995681
1.00746 1.00658 1.00236 0.998522
1.06219 1.06666 1 0.995812
1.04608 1.04721 1.00303 0.995902
1.08329 1.08856 1 0.995158
1 1 1 1
1 1 1 1
1 1 1 1
1 1 1 1
1 1 1 1
0.999644 1 1 0.999644
1.00506 1.00706 1 0.99802
0.999622 1 1 0.999622
1.01252 1.0146 1 0.997948
1 1 1 1
1.00282 1.00497 1 0.997861
1.00721 1.00905 1 0.998174
1.06057 1.06503 1 0.995813
1.01616 1.01803 1 0.998159
1.06823 1.07278 1 0.99576
0.999312 1 1 0.999312
0.999271 1 1 0.999271
0.999201 1 1 0.999201
0.9993 1 1 0.9993
1.01536 1.01754 1 0.99786
1.02043 1.02255 1 0.997926
1.02501 1.02719 1 0.997872
1.06505 1.06928 1 0.996041
1 1 1 1
0.999263 1 1 0.999263
1.00477 1.00686 1 0.997924
1.01198 1.01413 1 0.997874
0.999594 1 1 0.999594
1.01782 1.0194 1.00044 0.998002
1.01839 1.02052 1 0.997906
1.06436 1.06861 1 0.996027
1.06232 1.06658 1 0.996006
1.06373 1.06795 1 0.996048
1.08245 1.08749 1 0.995366
1.00385 1.00598 1 0.997883
1.00805 1.01014 1 0.997936
1.05747 1.06204 0.999515 0.996178
1.06144 1.06592 0.999721 0.996076
1.06324 1.06746 1 0.996051
1.09333 1.10029 0.997968 0.995693
1 1 1 1
1.08778 1.09301 0.999723 0.995488
1.00762 1.00757 1.00219 0.997859
1.05475 1.05924 1 0.995765
1.07843 1.08361 1 0.995217
1.08265 1.09043 0.997237 0.995621
1.00398 1.00093 1.0046 0.998463
1.01318 1.00379 1.01243 0.996962
1 1 1 1
1 1 1 1
1.02282 1.02508 1 0.997796
1 1 1 1
1.00853 1.00887 1.00177 0.997906
1.02334 1.02555 1 0.997846
1.05864 1.06312 1 0.995783
1 1 1 1
1.00662 1.00008 1.00754 0.999012
1.02072 1.02282 1 0.997942
1.02401 1.02605 1 0.998011
1.06803 1.07267 1 0.995676
1.00602 1.00439 1.00337 0.998255
1.06216 1.06663 1 0.99581
1.04612 1.04746 1.00283 0.995896
1.08259 1.08783 1 0.995187
1.00535 1.00142 1.00531 0.998625
1.00828 1 1.009 0.999282
1.01954 1.00827 1.01376 0.997453
1.0706 1.07526 1 0.995665
1.06838 1.07294 1 0.995748
1.09157 1.09733 0.999317 0.995435
1.03326 1.03228 1.00464 0.996334
1.0801 1.08508 1 0.99541
1.07404 1.07797 1.00128 0.995082
1.09383 1.09904 1 0.995261
1 1 1 1
1 1 1 1
1 1 1 1
1.00516 1.00029 1.00612 0.998759
1 1 1 1
1 1 1 1
1 1 1 1
1.01371 1.01598 1 0.997765
1.00558 1.00775 1 0.997843
1 1 1 1
1 1 1 1
1.00309 1.00524 1 0.997862
1.0081 1.01013 1 0.997988
1.05983 1.06429 1 0.995815
1.01695 1.01925 1 0.997741
1.06611 1.07066 1 0.995758
1.00285 1.00499 1 0.997871
1.05794 1.0624 1 0.995801
1.06394 1.06842 1 0.995808
1.09338 1.10239 0.995886 0.995926
1.07057 1.0752 1 0.995699
1.09279 1.10128 0.996445 0.995837
1 1 1 1
0.999302 1 1 0.999302
1.00422 1.00671 1 0.997534
1.01174 1.01391 1 0.997858
1 1 1 1
1.01893 1.02084 1 0.998132
1.01814 1.02029 1 0.997897
1.06471 1.06894 1 0.996039
1.06461 1.06883 1 0.996046
1.06151 1.06576 1 0.996007
1.08114 1.08616 1 0.995376
1.0035 1.00563 1 0.997881
1.0079 1.01 1 0.997919
1.05784 1.0627 0.999403 0.996023
1.06243 1.0668 0.999854 0.996052
1 1 1 1
1.01051 1.01122 1.00125 0.998046
1.05186 1.05565 1.00051 0.995903
1.06376 1.06799 1 0.996041
1.09152 1.09925 0.997218 0.99574
1.07801 1.08319 1 0.995223
1.08801 1.09328 0.999673 0.995502
1.08214 1.08991 0.997235 0.995628
1.00439 1.00167 1.00427 0.998446
1.01469 1.00625 1.01147 0.996954
1.05665 1.06109 1 0.995812
1.05953 1.06429 0.999386 0.996141
1.09348 1.10147 0.996871 0.995864
1.09225 1.10083 0.996356 0.995833
1.0897 1.09731 0.997402 0.995652
1.08139 1.09499 0.991489 0.996053
1.00516 1.00357 1.00345 0.998144
1.08193 1.09353 0.993509 0.995858
1.04682 1.04901 1.00198 0.995931
1.07894 1.08427 1 0.995087
1.08495 1.09036 0.99972 0.995322
1.0756 1.09084 0.989981 0.996002
1.0189 1.01325 1.00911 0.9965
1.01469 1.00095 1.01623 0.997544
1.02252 1.01464 1.01175 0.996068
1.02137 1.02366 1 0.997758
1 1 1 1
1.00655 1.00002 1.00751 0.999035
1.02416 1.02637 1 0.997838
1.06727 1.07191 1 0.995672
1.00544 1.00312 1.00407 0.998255
1.04787 1.05008 1.00201 0.99589
1.0614 1.06587 1 0.995807
1.08307 1.08828 1 0.995215
1.00545 1.00112 1.00568 0.998654
1.00764 1.00001 1.00834 0.9993
1.01617 1.00514 1.01355 0.997456
1.06892 1.07358 1 0.995659
1.0669 1.07146 1 0.995746
1.09211 1.09777 0.999409 0.99543
1.03106 1.0304 1.00432 0.996333
1.08116 1.08616 1 0.995399
1.07764 1.08211 1.00081 0.995066
1.09364 1.09881 1 0.995297
1.00762 1 1.00812 0.999503
1.02253 1.01733 1.00823 0.996896
1.01957 1.00241 1.01923 0.997921
1.01728 1.01394 1.00648 0.996842
1.09144 1.09823 0.998258 0.995551
1.08759 1.09275 0.999879 0.995396
1.08628 1.09834 0.993335 0.995653
1.05455 1.05172 1.00738 0.995344
1.08255 1.08825 0.999096 0.995659
1.08087 1.0846 1.00158 0.994989
1.10601 1.11113 1 0.995398
1.00322 1 1.00418 0.999038
1.00075 1 1.001 0.999757
1 1 1 1
1 1 1 1
1 1 1 1
1.00524 1 1.00611 0.999138
1 1 1 1
1.00512 1.0003 1.00609 0.998734
1 1 1 1
1.01835 1.02066 1 0.997742
1.00912 1.01134 1 0.997808
1.06445 1.06898 1 0.995757
1.05916 1.06361 1 0.995817
1.00341 1.00556 1 0.997864
1 1 1 1
1.00278 1.00492 1 0.997871
1.05779 1.06225 1 0.995802
1.06287 1.06734 1 0.995808
1.09348 1.10245 0.995925 0.995925
1.06878 1.07341 1 0.995693
1.09396 1.10238 0.996515 0.995834
1.05651 1.06096 1 0.9958
1.0935 1.10247 0.995934 0.995908
1.09363 1.10213 0.996361 0.995908
1.07794 1.09296 0.989918 0.996296
1.09223 1.10013 0.997097 0.995706
1.08165 1.09627 0.990471 0.996157
1.00322 1.00536 1 0.99788
1.00774 1.00986 1 0.997901
1.05822 1.06338 0.999271 0.995869
1.06345 1.0677 1 0.996028
0.999997 1 1 0.999997
1.01339 1.01407 1.00109 0.998239
1.04997 1.0534 1.00071 0.996038
1.06427 1.06851 1 0.99603
1.0898 1.09829 0.996462 0.995787
1.08825 1.09356 0.999625 0.995517
1.07936 1.08454 1 0.99523
1.08209 1.08988 0.997207 0.995635
1.00458 1.00234 1.0038 0.99843
1.01743 1.00878 1.01167 0.996947
1.05685 1.06155 0.999741 0.995838
1.06015 1.06479 0.999511 0.996135
1.09278 1.10119 0.996458 0.995893
1.09215 1.10003 0.997036 0.995784
1.0057 1.00459 1.00299 0.99813
1.04468 1.04662 1.00222 0.995933
1.08168 1.08702 1 0.995085
1.09021 1.0971 0.998094 0.995624
1.08122 1.09569 0.990656 0.996106
1.08461 1.09 0.999706 0.995343
1.08161 1.09332 0.993407 0.995858
1.07517 1.09086 0.989589 0.995983
1.02239 1.01677 1.00907 0.996497
1.02214 1.01217 1.01384 0.996068
1.0162 1.00138 1.01729 0.99755
1.0937 1.10159 0.996971 0.995857
1.09304 1.10183 0.996139 0.995871
1.07731 1.09079 0.991383 0.996228
1.0797 1.0947 0.990113 0.996147
1.08105 1.09591 0.990377 0.996026
1.07612 1.09785 0.983753 0.996396
1.03206 1.03016 1.00568 0.996191
1.07135 1.09324 0.983725 0.996196
1.07569 1.08092 1 0.995155
1.08392 1.08942 1 0.994947
1.07765 1.08619 0.996611 0.995507
1.06689 1.08973 0.982707 0.996271
1.01929 1.00331 1.01802 0.997948
1.03736 1.02874 1.01275 0.995685
1.01769 1.00222 1.01893 0.996576
1.0272 1.02143 1.01009 0.995595
1.06729 1.07195 1 0.995652
1.0077 1.0001 1.00829 0.999317
1.00548 1.00054 1.00626 0.998684
1.01595 1.00288 1.01561 0.997458
1.06577 1.07033 1 0.995744
1.09255 1.09812 0.999506 0.995424
1.02652 1.02556 1.00462 0.996332
1.07764 1.08248 1.00048 0.995049
1.08236 1.08737 1 0.995388
1.09126 1.09638 1 0.995333
1.00632 1 1.0068 0.999518
1.01914 1.01306 1.00912 0.996913
1.01964 1.00211 1.01961 0.997915
1.01556 1.0112 1.00749 0.996847
1.0929 1.09958 0.998367 0.995545
1.08813 1.09324 0.99993 0.995394
1.08566 1.09778 0.99328 0.995653
1.0542 1.05098 1.00777 0.995334
1.08139 1.08707 0.999147 0.995621
1.07619 1.07976 1.00173 0.994975
1.10607 1.11105 1 0.995518
1.00298 1 1.00333 0.999649
1.01708 1 1.01883 0.998285
1.03022 1.02637 1.00772 0.996066
1.02173 1.00782 1.01664 0.997206
1.0165 1.01387 1.00595 0.996657
1.08394 1.09951 0.989992 0.995803
1.08447 1.09295 0.996606 0.995616
1.07699 1.09516 0.987525 0.995838
1.0402 1.04095 1.00428 0.995023
1.08581 1.09457 0.996227 0.995757
1.06094 1.06539 1.00086 0.994969
1.00568 1 1.00686 0.998833
1.00931 1 1.01105 0.998283
1.00022 1 1.00101 0.999215
1.00212 1 1.00308 0.999041
0.999859 1 1 0.999859
1.00029 1 1.00051 0.999776
0.999979 1 1 0.999979
1 1 1 1
1 1 1 1
1.00277 1 1.00329 0.999479
1 1 1 1
1.00579 1 1.00668 0.999109
1 1 1 1
1.00463 1.00039 1.00554 0.99871
1 1 1 1
1.06667 1.07129 1 0.995688
1.06149 1.06596 1 0.995808
1.09478 1.10309 0.99662 0.995832
1.09351 1.10243 0.995969 0.995924
1.05757 1.06202 1 0.995803
1.0026 1.00475 1 0.99787
1.05673 1.06119 1 0.9958
1.09338 1.10236 0.995926 0.995908
1.09371 1.10228 0.996301 0.995907
1.07732 1.09308 0.989231 0.996312
1.09335 1.10124 0.997116 0.995702
1.08148 1.09593 0.990628 0.996156
1.09329 1.10203 0.996153 0.995896
1.07693 1.09254 0.98935 0.996322
1.07981 1.09411 0.990638 0.996255
1.0812 1.10118 0.985303 0.996505
1.08096 1.09768 0.988723 0.995997
1.08066 1.10358 0.982706 0.996466
1.05691 1.06187 0.99946 0.995864
1.0608 1.06529 0.999651 0.996129
1.09214 1.10093 0.996077 0.995922
1.09195 1.09916 0.997691 0.995736
1.00693 1.0062 1.00261 0.998116
1.04386 1.04542 1.00259 0.995937
1.08439 1.08975 1 0.995083
1.09066 1.09682 0.998786 0.995596
1.08096 1.09629 0.98981 0.99616
1.08114 1.09294 0.993314 0.995858
1.08393 1.08931 0.999705 0.995364
1.07461 1.09073 0.989214 0.995965
1.02644 1.02092 1.00895 0.996495
1.02037 1.01023 1.01402 0.996068
1.01633 1.00202 1.01676 0.997557
1.09306 1.10122 0.996694 0.995881
1.09235 1.10131 0.995977 0.99587
1.07697 1.0913 0.990566 0.996271
1.08049 1.09497 0.99062 0.996123
1.03615 1.0342 1.00571 0.996197
1.07587 1.08108 1.00002 0.995161
1.08415 1.08963 1.00003 0.994944
1.08165 1.09571 0.991159 0.995973
1.0757 1.0981 0.983096 0.99644
1.07839 1.08672 0.99685 0.995469
1.07164 1.09349 0.983756 0.996196
1.06678 1.09023 0.982117 0.99631
1.03512 1.0291 1.01021 0.99569
1.02442 1.01904 1.00979 0.995536
1.01619 1.00299 1.01524 0.997952
1.01532 1.00234 1.01636 0.996648
1.07726 1.09123 0.990882 0.996277
1.07977 1.09426 0.990537 0.996187
1.07681 1.09607 0.98595 0.996423
1.07365 1.09963 0.979822 0.996478
1.07361 1.09562 0.983497 0.996352
1.07791 1.10477 0.979023 0.996596
1.05596 1.05883 1.00193 0.995368
1.06428 1.0938 0.976381 0.996548
1.06957 1.07504 1 0.994907
1.07689 1.08267 0.999774 0.994879
1.07418 1.08726 0.992385 0.995557
1.06813 1.09307 0.980773 0.996338
1.01468 1.00468 1.01187 0.998114
1.0247 1.00926 1.01844 0.996921
1.03045 1.03189 1.00332 0.995298
1.01786 1.00749 1.01414 0.996194
1.02525 1.01742 1.01239 0.995367
1.00516 1 1.00562 0.999533
1.09441 1.10099 0.998478 0.99554
1.01795 1.00214 1.0179 0.997908
1.01544 1.00893 1.00955 0.996932
1.01184 1.00773 1.00725 0.996851
1.0886 1.09366 0.999979 0.995391
1.08498 1.09715 0.993222 0.995653
1.05681 1.05552 1.00592 0.995326
1.0752 1.07856 1.00193 0.99496
1.08065 1.08631 0.999196 0.995583
1.10706 1.11191 1 0.995638
1.00232 1 1.00266 0.999661
1.01814 1.00013 1.01975 0.998293
1.02917 1.02508 1.00794 0.99608
1.02106 1.00656 1.01726 0.997191
1.0175 1.01422 1.00674 0.996517
1.08318 1.0988 0.989943 0.9958
1.08406 1.09259 0.996567 0.995617
1.07591 1.09425 0.987358 0.995827
1.04111 1.04263 1.00354 0.99502
1.09122 1.09985 0.99641 0.995725
1.06187 1.06615 1.00096 0.995034
1.00952 1 1.01094 0.998596
1.02152 1.00288 1.02116 0.997482
1.01502 1.01536 1.00399 0.995689
1.02825 1.01582 1.0155 0.996786
1.02816 1.02617 1.00571 0.996252
1.07873 1.1026 0.982247 0.996028
1.07729 1.08938 0.9931 0.99577
1.06426 1.08907 0.981093 0.996051
1.01041 1.0116 1.00379 0.995047
1.056 1.06163 0.999576 0.995116
1.00565 1 1.00682 0.998837
1.00941 1.00006 1.01128 0.998097
1.0099 1 1.01166 0.998268
1.00784 1 1.00974 0.998121
1.00481 1 1.00638 0.998443
0.999621 1 1.0003 0.999322
1.00046 1 1.00124 0.999219
0.999917 1 1 0.999917
1.00189 1 1.00285 0.999044
0.999875 1 1 0.999875
0.999999 1 1 0.999999
1.00004 1 1.00024 0.999794
0.999989 1 1 0.999989
1 1 1 1
1.0031 1 1.00344 0.999664
1.00462 1 1.00516 0.999465
1 1 1 1
1 1 1 1
1.00695 1 1.00788 0.999079
1 1 1 1
1.09463 1.10253 0.997124 0.995698
1.09408 1.10275 0.996211 0.995905
1.08143 1.09572 0.990774 0.996156
1.0768 1.09328 0.988552 0.996328
1.09326 1.10225 0.995918 0.995908
1.05717 1.06163 1 0.9958
1.09312 1.10187 0.996152 0.995896
1.07708 1.09244 0.989582 0.996317
1.07998 1.09429 0.990631 0.996255
1.0801 1.1009 0.984514 0.996532
1.08061 1.09745 0.988622 0.995993
1.08061 1.10381 0.982429 0.996489
1.07701 1.09195 0.98999 0.996294
1.07985 1.10099 0.984252 0.996492
1.08097 1.10164 0.984629 0.996557
1.08217 1.10886 0.979209 0.996649
1.08011 1.10417 0.981855 0.996284
1.08472 1.11188 0.97882 0.996681
1.0925 1.10091 0.996438 0.995904
1.09164 1.10078 0.99581 0.995869
1.07655 1.09177 0.989708 0.996314
1.08132 1.09526 0.99114 0.996099
1.03752 1.03539 1.00588 0.996202
1.07288 1.07802 1.00007 0.995166
1.08374 1.08906 1.00018 0.99494
1.08232 1.09556 0.991962 0.99592
1.07538 1.09837 0.982528 0.996484
1.07207 1.0939 0.983788 0.996195
1.07902 1.08721 0.997024 0.995431
1.06668 1.09077 0.981498 0.996349
1.03409 1.02794 1.01033 0.995696
1.02452 1.01592 1.01304 0.995476
1.01476 1.00284 1.01396 0.997957
1.0129 1.00237 1.01383 0.996718
1.07743 1.09139 0.990902 0.996276
1.07967 1.09412 0.990584 0.996172
1.07618 1.09581 0.98559 0.996451
1.07487 1.0998 0.980802 0.99646
1.05541 1.05549 1.00458 0.995368
1.06949 1.07491 1.00003 0.994925
1.07623 1.08166 1.00012 0.994866
1.07462 1.09597 0.984155 0.996305
1.07533 1.10323 0.977984 0.996651
1.07198 1.08529 0.992154 0.995544
1.0654 1.09493 0.976406 0.996547
1.06659 1.09197 0.980269 0.996413
1.03036 1.02997 1.0051 0.995307
1.02286 1.0147 1.01275 0.995352
1.02027 1.00669 1.01735 0.996197
1.01502 1.00326 1.01364 0.998101
1.023 1.00459 1.02144 0.996949
1.0785 1.09956 0.984327 0.996469
1.0788 1.10255 0.981922 0.996469
1.07392 1.1093 0.97137 0.996637
1.07038 1.10002 0.976332 0.996642
1.04634 1.05147 1.00002 0.995108
1.06468 1.09738 0.973407 0.996708
1.04893 1.05421 1.00029 0.994709
1.06258 1.07053 0.997788 0.994772
1.06644 1.08659 0.985829 0.995569
1.00947 1 1.01099 0.998491
1.02108 1.00083 1.02301 0.997283
1.02297 1.01301 1.01324 0.996641
1.02141 1.01921 1.00697 0.995221
1.02435 1.00977 1.01882 0.995697
1.02255 1.01248 1.01476 0.995251
1.00128 1 1.00161 0.999672
1.01897 1 1.0207 0.998302
1.08232 1.09798 0.989896 0.995797
1.02357 1.00462 1.02174 0.997177
1.02882 1.02198 1.01064 0.996095
1.01911 1.01516 1.00754 0.996379
1.08336 1.09191 0.996533 0.995618
1.07501 1.09354 0.987192 0.995817
1.04003 1.04192 1.00318 0.995018
1.06135 1.06575 1.00077 0.995099
1.09696 1.10548 0.996585 0.995693
1.01036 1 1.01177 0.998602
1.02328 1.00152 1.02431 0.997486
1.02181 1.0205 1.00573 0.995581
1.02949 1.01425 1.01829 0.996795
1.02837 1.02689 1.00524 0.996224
1.07743 1.10115 0.982367 0.996024
1.08099 1.09306 0.993172 0.995755
1.06724 1.09295 0.980327 0.996072
1.01272 1.01447 1.00324 0.995038
1.05309 1.05872 0.999609 0.995071
1.01574 1.00148 1.01642 0.997847
1.02829 1.0037 1.0275 0.997077
1.00895 1.01047 1.00296 0.995546
1.03753 1.02606 1.01484 0.99639
1.05206 1.05504 1.00111 0.996073
1.06515 1.10182 0.970109 0.996504
1.08353 1.09754 0.991642 0.99555
1.07639 1.09871 0.983647 0.995971
1.01637 1.01696 1.00433 0.995109
1.02363 1.02895 1 0.994825
1.0048 1 1.00597 0.998841
1.00913 1.0002 1.01085 0.998095
1.00185 1 1.00372 0.998142
1.00752 1 1.00928 0.99825
1.00407 1 1.00564 0.998439
1.009 1 1.01089 0.998129
1.00369 1 1.00544 0.998259
1.00896 1 1.01091 0.998075
1.00108 1 1.00254 0.998546
0.999332 1 1 0.999332
0.999322 1 1 0.999322
0.999954 1 1 0.999954
0.999845 1 1.00062 0.999224
0.999928 1 1 0.999928
1 1 1 1
0.999891 1 1 0.999891
0.999996 1 1 0.999996
1 1 1 1
1.00039 1 1.00059 0.999803
1.00225 1 1.0026 0.999646
1 1 1 1
1.00521 1 1.00576 0.999451
1 1 1 1
1 1 1 1
1.08029 1.09724 0.988522 0.995989
1.07997 1.09427 0.990635 0.996256
1.08055 1.10406 0.982132 0.996512
1.07892 1.10059 0.983699 0.996559
1.07724 1.09236 0.989811 0.996312
1.09285 1.10159 0.996154 0.995897
1.0773 1.09186 0.990347 0.996278
1.08042 1.10098 0.984787 0.996485
1.0807 1.1011 0.984879 0.996544
1.07963 1.10756 0.97805 0.996657
1.08063 1.10442 0.982107 0.996287
1.08169 1.11031 0.977433 0.996715
1.08045 1.10066 0.98512 0.996465
1.08356 1.1118 0.977871 0.996654
1.08071 1.11083 0.976073 0.99673
1.07611 1.11284 0.970196 0.996703
1.07762 1.09156 0.990921 0.996276
1.07963 1.09403 0.99064 0.996157
1.07562 1.0956 0.985236 0.996479
1.07613 1.10002 0.981776 0.996443
1.05717 1.05652 1.00527 0.995369
1.07106 1.0765 1 0.994944
1.07544 1.08046 1.0005 0.994853
1.07548 1.09626 0.984735 0.996257
1.07274 1.10171 0.976918 0.996706
1.06626 1.09575 0.976455 0.996546
1.06984 1.08344 0.991879 0.99553
1.06596 1.09151 0.980026 0.996488
1.02648 1.02573 1.00544 0.995316
1.0179 1.01218 1.01037 0.995337
1.0232 1.00681 1.02016 0.996198
1.01267 1.00243 1.01215 0.998091
1.02251 1.00095 1.02464 0.99698
1.07838 1.09932 0.984421 0.99647
1.07947 1.1031 0.982049 0.996466
1.07516 1.10878 0.972956 0.996631
1.04587 1.0508 1.00021 0.995107
1.04952 1.0548 1.00026 0.994736
1.06191 1.06887 0.998723 0.994762
1.07073 1.09973 0.976927 0.99663
1.0669 1.08747 0.985322 0.995703
1.06238 1.09516 0.973298 0.996676
1.00873 1 1.01018 0.99857
1.01802 1.01633 1.00648 0.995219
1.02345 1.01227 1.01579 0.995323
1.02842 1.01195 1.0207 0.995676
1.02514 1.01296 1.01541 0.996666
1.02359 1.00431 1.02202 0.997229
1.08232 1.10972 0.978709 0.996534
1.07916 1.11635 0.969978 0.996604
1.06759 1.10868 0.966126 0.996697
1.05906 1.10041 0.965489 0.996821
1.02641 1.03125 1.00031 0.994994
1.0549 1.08285 0.977844 0.996258
1.03225 1.03631 1.00165 0.994444
1.0434 1.05549 0.993843 0.994665
1.00216 1 1.0031 0.99906
1.01796 1 1.02018 0.997821
1.02036 1.00696 1.0164 0.996962
1.02977 1.00965 1.02385 0.996171
1.01168 1.00621 1.0102 0.995282
1.02865 1.00993 1.02359 0.995064
1.01172 1 1.01313 0.998607
1.0199 1 1.02247 0.99749
1.07613 1.0997 0.982484 0.996019
1.02758 1.01254 1.0181 0.996804
1.02814 1.02579 1.00685 0.995472
1.0269 1.02576 1.00493 0.996194
1.08487 1.09691 0.993252 0.995741
1.0699 1.09657 0.979509 0.996092
1.01588 1.01818 1.00273 0.995029
1.04996 1.05542 0.999801 0.995026
1.0131 1.00022 1.01505 0.997856
1.02706 1.00339 1.02665 0.997023
1.01021 1.01108 1.00363 0.995533
1.03884 1.02905 1.01321 0.996364
1.05756 1.06112 1.00056 0.996092
1.06829 1.10451 0.97056 0.996551
1.08313 1.09709 0.991622 0.995612
1.07657 1.09801 0.984343 0.996071
1.01927 1.01965 1.00458 0.99507
1.02224 1.02764 1.00003 0.994711
1.00987 1 1.01219 0.99771
1.02611 1.00382 1.02546 0.99683
1.03028 1.03087 1.00378 0.995654
1.04884 1.04965 1.00323 0.996008
1.06917 1.13078 0.948565 0.996783
1.05981 1.09802 0.968553 0.996537
1.06138 1.06932 0.997541 0.995018
1.03123 1.03233 1.00426 0.994704
1.00791 1 1.00983 0.998095
1.00343 0.99984 1.00549 0.998112
1.00147 0.998617 1.00441 0.998456
1.00597 1 1.00755 0.998435
1.01175 0.999929 1.01371 0.998137
1.00142 1 1.00289 0.998537
1.00319 0.999382 1.00551 0.998303
1.0107 1 1.01263 0.998089
1.00026 1 1.00166 0.998608
1.00979 1 1.0118 0.99802
1.00646 1 1.00845 0.998025
1.00004 1 1.00155 0.998496
0.999283 1 1 0.999283
0.999327 1 1 0.999327
0.999971 1 1 0.999971
0.999321 1 1 0.999321
0.999959 1 1 0.999959
1 1 1 1
0.999939 1 1 0.999939
1 1 1 1
0.999993 1 1 0.999993
0.999898 1 1 0.999898
1.00227 1 1.00249 0.999777
1 1 1 1
1.00378 1 1.00415 0.99963
1 1 1 1
1 1 1 1
1.08105 1.10456 0.982357 0.996289
1.08052 1.10064 0.985143 0.996531
1.07877 1.10881 0.976079 0.99675
1.07717 1.10633 0.976907 0.996666
1.08099 1.10095 0.985339 0.996477
1.0776 1.0918 0.990694 0.996261
1.08009 1.10052 0.984916 0.996466
1.08256 1.11072 0.977929 0.996643
1.08037 1.11069 0.9759 0.996723
1.07531 1.11199 0.970204 0.996718
1.08512 1.1124 0.978803 0.9966
1.07987 1.11732 0.969585 0.996796
1.08203 1.12363 0.966059 0.996804
1.07824 1.09906 0.984531 0.99647
1.08012 1.10361 0.982193 0.996462
1.07627 1.10821 0.974465 0.996625
1.04589 1.05033 1.00067 0.995107
1.04865 1.05398 1.00018 0.994762
1.06167 1.06775 0.999547 0.994752
1.07123 1.09964 0.977469 0.996618
1.05956 1.09297 0.97269 0.996644
1.06735 1.08841 0.984749 0.995837
1.01598 1.01373 1.00704 0.995217
1.02325 1.01213 1.01566 0.995398
1.03261 1.01457 1.02222 0.995656
1.01071 1 1.01208 0.998649
1.02356 1.01101 1.01577 0.99669
1.02637 1.00681 1.02231 0.997172
1.08383 1.11063 0.979254 0.996544
1.07791 1.11621 0.968973 0.996605
1.06807 1.10838 0.966829 0.99669
1.02508 1.0298 1.00043 0.994985
1.0307 1.03494 1.0014 0.994518
1.04741 1.05943 0.99384 0.994787
1.0599 1.10098 0.965755 0.996821
1.05265 1.08113 0.977343 0.996232
1.00317 1 1.00401 0.999157
1.01679 1 1.01902 0.997813
1.00957 1.00576 1.00852 0.995298
1.03179 1.0098 1.02663 0.995267
1.02827 1.01085 1.02115 0.996163
1.0219 1.01014 1.01476 0.996931
1.08017 1.11881 0.968651 0.996708
1.06966 1.12377 0.955043 0.996662
1.05976 1.10809 0.959389 0.996867
1.04135 1.08199 0.965536 0.996797
1.0071 1.01086 1.00133 0.994958
1.03474 1.05843 0.98224 0.995295
1.02306 1.02686 1.00192 0.994388
0.999627 1 1.00018 0.999448
0.999554 1 1.00071 0.998841
1.01011 1 1.01177 0.998362
1.01329 1 1.01607 0.997264
1.01546 1 1.01886 0.996661
1.03943 1.01546 1.0281 0.995627
1.00982 1.00244 1.01174 0.995668
1.05478 1.00546 1.05334 0.995924
1.01476 1 1.01693 0.997866
1.03253 1.00466 1.03087 0.996969
1.07188 1.10753 0.971108 0.996598
1.044 1.03551 1.01191 0.996339
1.01108 1.01119 1.0044 0.99552
1.06267 1.06633 1.00046 0.996113
1.08275 1.09667 0.991598 0.995674
1.07697 1.09752 0.985053 0.996172
1.02151 1.02169 1.00482 0.995031
1.02053 1.02607 1 0.994598
1.01207 1.00042 1.01405 0.997627
1.02557 1.00488 1.0239 0.996768
1.03826 1.03849 1.00415 0.995642
1.04613 1.04766 1.00252 0.996027
1.07005 1.13218 0.948156 0.996802
1.06782 1.1031 0.971436 0.996481
1.05642 1.06473 0.997098 0.995085
1.03271 1.03435 1.00377 0.994657
1.00701 0.998843 1.01045 0.99775
1.08059 1.14399 0.94758 0.996838
1.01549 1.00542 1.01359 0.996474
1.03923 1.0392 1.0046 0.995456
1.04367 1.11008 0.943055 0.99695
1.04447 1.05735 0.992637 0.995151
1.02199 1.02444 1.00323 0.994393
1.0062 1 1.00813 0.998082
0.999335 0.997427 1.00347 0.998448
1.00123 0.996673 1.00586 0.998723
1.00112 1 1.00259 0.998528
1.01066 1 1.01258 0.998102
1.00336 0.998182 1.00685 0.998348
0.999946 1 1.00146 0.99849
1.00608 1 1.00805 0.99804
1.0013 0.999091 1.00355 0.998663
1.00805 1 1.01005 0.998015
0.996429 0.996094 1.00152 0.998815
1.00406 1 1.00566 0.998411
1.00859 1 1.01076 0.997855
0.999931 1 1.00212 0.997819
0.999047 1 1.00068 0.998368
0.999234 1 1 0.999234
0.999277 1 1 0.999277
0.99998 1 1 0.99998
0.999323 1 1 0.999323
0.999973 1 1 0.999973
1 1 1 1
0.999965 1 1 0.999965
1 1 1 1
1 1 1 1
0.999668 1 1.00015 0.999521
0.999942 1 1 0.999942
0.999887 1 1 0.999887
1 1 1 1
1.00173 1 1.00198 0.999752
1 1 1 1
1 1 1 1
1.07436 1.11098 0.970213 0.996732
1.08002 1.11049 0.975768 0.996715
1.08144 1.10953 0.977974 0.996633
1.07974 1.10037 0.984727 0.996467
1.08456 1.11237 0.97831 0.996619
1.07934 1.11689 0.969491 0.996787
1.07843 1.11997 0.965997 0.996805
1.08145 1.12009 0.968628 0.996777
1.08963 1.13577 0.962386 0.996878
1.10614 1.16688 0.950674 0.997131
1.0852 1.11143 0.979769 0.996554
1.07673 1.11608 0.968033 0.996607
1.06875 1.10813 0.967669 0.996683
1.02571 1.03039 1.00048 0.994976
1.03046 1.03475 1.00126 0.994595
1.05147 1.06344 0.993805 0.994909
1.06071 1.10103 0.966451 0.99682
1.04998 1.07864 0.977142 0.996207
1.01118 1.00638 1.0095 0.995314
1.03767 1.01026 1.03182 0.995462
1.02723 1.0102 1.02078 0.996154
1.00161 1 1.00235 0.999253
1.01508 1 1.01731 0.997804
1.02418 1.0136 1.01358 0.9969
1.07933 1.11871 0.967977 0.996717
0.999815 1 1.00037 0.99944
1.00001 1 1.00122 0.998788
1.0709 1.12306 0.956746 0.996665
1.05917 1.10702 0.959814 0.996838
1.00838 1.01147 1.00192 0.99503
1.02473 1.02829 1.00212 0.994431
1.03074 1.05424 0.982342 0.995278
1.03981 1.08117 0.964863 0.996763
1.00879 1 1.01034 0.998464
1.01388 1 1.01668 0.997245
1.01063 1.00236 1.01277 0.995528
1.04834 1.0066 1.04575 0.995899
1.036 1.01159 1.02864 0.99562
1.01586 1.00241 1.01675 0.99672
1.08688 1.14385 0.95324 0.996809
1.05421 1.12136 0.943174 0.996761
1.0406 1.095 0.953177 0.997012
1.02148 1.05539 0.971318 0.996451
1.01008 1.00642 1.00823 0.995451
1.01918 1.02982 0.994938 0.994709
0.999761 1 1.00105 0.99871
1.0031 1 1.0043 0.998804
1.00157 1.00021 1.00293 0.998438
1.0072 1 1.00961 0.997612
1.01536 1 1.01839 0.997019
1.01042 1.0004 1.01363 0.996436
1.08143 1.00698 1.07839 0.995871
0.99404 1.00049 0.99651 0.997029
1.00907 1 1.01156 0.997545
1.02199 1.00338 1.02192 0.996704
1.06973 1.13172 0.94824 0.996821
1.07528 1.10758 0.974318 0.996426
1.04364 1.04527 1.00241 0.996045
1.04823 1.04821 1.00441 0.995629
1.05182 1.06042 0.996723 0.995151
1.0351 1.03723 1.00335 0.994609
1.00848 0.998893 1.01188 0.997742
1.08115 1.14729 0.94526 0.996924
1.01641 1.00272 1.01714 0.996571
1.03399 1.03411 1.00453 0.995376
1.04463 1.11104 0.943116 0.996932
1.03893 1.05361 0.990769 0.995263
1.02346 1.02564 1.00348 0.994402
1.01933 0.997982 1.02383 0.99762
0.998988 1.08283 0.925115 0.99725
1.00869 0.999729 1.01274 0.99627
1.01477 1.01302 1.00703 0.994736
1.00101 1.04855 0.958044 0.996471
1.00499 1.00806 1.00221 0.994747
0.92042 0.99921 0.925756 0.995021
0.996049 0.994909 1.00271 0.998439
0.999246 0.99355 1.00701 0.998728
1.00273 0.99453 1.00959 0.998668
0.99988 1 1.0014 0.998485
1.0074 1 1.00936 0.998056
1.00666 1 1.00866 0.998011
1.00322 0.998738 1.00577 0.998721
0.998981 1 1.00061 0.998369
1.00073 1 1.00288 0.997851
0.993873 0.993547 1.00155 0.998781
1.01027 1 1.01245 0.99785
1.00545 0.999981 1.00712 0.998364
1.00079 0.991436 1.01068 0.99877
1.01045 1 1.01273 0.997751
1.00707 1 1.00928 0.997814
0.998357 1 1.00064 0.997716
0.998405 1 1.00024 0.998171
1.00627 1 1.00835 0.997931
1.00031 1 1.00216 0.998155
0.999219 1 1 0.999219
0.999229 1 1 0.999229
0.999986 1 1 0.999986
0.999271 1 1 0.999271
0.999981 1 1 0.999981
1 1 1 1
0.999976 1 1 0.999976
1 1 1 1
1 1 1 1
0.999631 1 1 0.999631
0.999669 1 1.00014 0.999528
0.999971 1 1 0.999971
0.999935 1 1 0.999935
1 1 1 1
1.00096 1 1.00109 0.999876
1 1 1 1
1 1 1 1
1.07518 1.11688 0.965744 0.996805
1.07886 1.11664 0.969291 0.996778
1.08417 1.11251 0.977814 0.996638
1.08098 1.11967 0.968564 0.996776
1.08733 1.13411 0.961764 0.996867
1.10852 1.16735 0.952422 0.997043
1.10063 1.15594 0.95507 0.996944
0.91465 1.01632 0.906791 0.992471
1.04555 1.11062 0.943578 0.997704
0.999817 1 1.00087 0.998943
1.07861 1.11877 0.967277 0.996725
1.07197 1.12206 0.958562 0.996667
1.05818 1.10579 0.960004 0.99681
1.00496 1.00908 1.00082 0.995098
1.02628 1.02962 1.0023 0.99447
1.02715 1.05019 0.982719 0.99526
1.03886 1.08105 0.964125 0.996729
1.006 1.0023 1.00834 0.995399
1.04161 1.00746 1.03816 0.995887
1.03394 1.00769 1.03057 0.995612
1.00119 1 1.00176 0.999433
1.01576 1.00386 1.01513 0.996776
1.00863 1 1.01008 0.998563
1.0146 1 1.01742 0.997227
1.00057 1 1.00184 0.998735
1.08621 1.14373 0.952741 0.996816
0.999399 1 1.00062 0.998776
1.00386 1 1.00506 0.998808
1.0014 1.00051 1.00249 0.998401
1.05707 1.1215 0.945608 0.99676
1.03735 1.09195 0.952895 0.996959
1.00501 1.00435 1.00519 0.99549
1.01927 1.02977 0.994915 0.994862
1.02229 1.05558 0.971929 0.996433
1.00724 1 1.00959 0.997679
1.01419 1 1.01725 0.996991
1.00535 1.00035 1.00825 0.996766
1.07063 1.00494 1.06982 0.99583
1.01098 1.00385 1.01064 0.996501
1.06035 1.13725 0.935291 0.996889
1.01877 1.10287 0.926589 0.996931
1.02635 1.06728 0.964905 0.996626
1.00799 1.03248 0.980012 0.996192
1.00111 1.00112 1.00349 0.996516
0.998803 1 1.00042 0.998388
1.0051 1.00038 1.0067 0.998044
1.00271 0.998756 1.0057 0.998263
1.01525 1 1.0178 0.99749
1.01378 1 1.01666 0.99717
1.04996 0.999788 1.05357 0.996785
1.03093 1.00335 1.03035 0.997219
1.01013 1.00001 1.01242 0.99773
1.01784 1.0007 1.02053 0.99667
1.08097 1.15179 0.941334 0.997007
1.04647 1.11322 0.942947 0.996912
1.03369 1.05027 0.988789 0.995376
1.02682 1.02726 1.0043 0.995296
1.02416 1.02622 1.0036 0.994413
1.01968 0.998197 1.02381 0.997767
1.00139 1.08524 0.925219 0.997316
1.00549 1.00043 1.00882 0.996269
1.01227 1.01 1.00756 0.994724
1.0002 1.0455 0.959914 0.996627
1.00647 1.00903 1.00273 0.99475
0.915358 0.996332 0.924747 0.993491
1.02082 0.994281 1.02916 0.997602
0.963698 1.02968 0.938521 0.997229
1.00355 1.00137 1.00637 0.995835
1.00455 1.00274 1.00645 0.995384
0.987352 1.00776 0.983272 0.996416
0.852567 0.966974 0.919367 0.959013
0.810306 0.936927 0.884049 0.978289
0.916793 0.970445 0.948805 0.995688
0.566785 0.746735 0.841443 0.902043
0.485131 0.666183 0.83859 0.868392
0.998084 0.990522 1.00891 0.998733
1.00443 0.991498 1.01434 0.998721
1.00524 0.991667 1.01501 0.998703
0.99852 1 1.00015 0.998369
1.00091 1 1.00304 0.997883
1.01029 1 1.01247 0.997845
1.00506 1 1.00675 0.998315
0.989897 0.991139 1 0.998747
1.00795 1 1.01015 0.997823
0.998212 1 1 0.998212
0.998771 1 1.00104 0.997728
0.999831 0.993272 1.00792 0.998693
1.01078 1 1.01296 0.997852
1.01599 1 1.01812 0.99791
1.01681 0.998102 1.02052 0.99826
1.00838 1 1.01058 0.99782
0.999194 1 1.00162 0.997578
0.999095 1 1.00097 0.99813
1.00226 1 1.00448 0.99779
1.00687 0.9994 1.00944 0.998047
1.00852 1 1.01042 0.998119
1.0061 1 1.00821 0.997911
1.00106 1 1.00275 0.99832
1.00107 1 1.00292 0.998149
0.999221 1 1 0.999221
0.99922 1 1 0.99922
0.999993 1 1 0.999993
0.999224 1 1 0.999224
0.999989 1 1 0.999989
1 1 1 1
0.999984 1 1 0.999984
1 1 1 1
1 1 1 1
0.999739 1 1 0.999739
0.999746 1 1.00012 0.99963
0.99999 1 1 0.99999
0.999764 1 1.00023 0.999534
0.999964 1 1 0.999964
1 1 1 1
0.999928 1 1 0.999928
1 1 1 1
1 1 1 1
1.08474 1.13215 0.961141 0.996856
1.0802 1.11892 0.968517 0.996774
1.11384 1.16948 0.95533 0.996957
0.919962 1.01468 0.913469 0.992542
1.09938 1.15653 0.953495 0.99694
1.05391 1.1137 0.948612 0.997581
1.06876 1.13123 0.947568 0.997053
0.864372 0.961678 0.91919 0.977835
0.962305 1.03225 0.938716 0.993102
0.999089 1 1.00007 0.999015
0.99946 1 1.00052 0.998936
1.00011 1 1.00162 0.998494
0.998689 1 1.00014 0.998548
1.08545 1.14385 0.95197 0.996823
1.05949 1.12195 0.947399 0.996759
1.03433 1.08911 0.952642 0.996906
1.0046 1.00432 1.00476 0.995529
1.01913 1.02973 0.99466 0.99502
1.02184 1.05487 0.972171 0.996417
1.01743 1 1.02102 0.996492
1.05896 1.00439 1.05879 0.99579
1.01285 1.00741 1.00886 0.996569
1.00359 1 1.00478 0.998812
1.01357 1.00061 1.01603 0.996967
1.00664 1 1.00891 0.997747
0.998842 1 1 0.998842
1.00113 1.00041 1.00236 0.998365
1.06141 1.13987 0.934065 0.996902
0.999475 0.999999 1.0011 0.998376
1.00366 1.0006 1.00492 0.99815
1.0026 0.997646 1.00634 0.99863
1.02758 1.10719 0.930965 0.996918
1.0257 1.06663 0.964887 0.996624
1.00133 1.00492 0.999909 0.996513
1.00945 1.03294 0.98093 0.996262
1.01441 1 1.0171 0.997352
1.01398 1.00003 1.01702 0.996981
1.03781 1.00421 1.03636 0.997203
1.05106 1.00333 1.05111 0.996642
1.01193 1.08451 0.935906 0.99698
0.991056 1.06618 0.932381 0.996949
1.0106 1.02838 0.986433 0.996227
0.973074 1.00417 0.971519 0.99744
1.0081 0.999273 1.0104 0.998454
1.00841 1 1.01085 0.997582
1.02041 0.998981 1.02337 0.998121
1.07829 1.0015 1.07963 0.997267
0.852223 0.966754 0.926688 0.951269
1.02056 0.998092 1.02465 0.997914
1.00322 1.00091 1.00606 0.996265
1.00441 1.08702 0.926421 0.997391
0.999052 1.0422 0.961695 0.996782
1.008 1.00999 1.0033 0.994746
1.01061 1.00758 1.00834 0.994709
0.912198 0.995167 0.924128 0.991885
1.01645 0.994573 1.02439 0.997667
0.962685 1.02975 0.937496 0.997199
1.00396 1.00151 1.00663 0.995845
1.00688 1.00554 1.00595 0.995411
0.989139 1.00882 0.98404 0.996397
0.839373 0.96632 0.912816 0.951592
0.813848 0.938111 0.890349 0.974381
0.920562 0.970222 0.952842 0.995774
0.565115 0.745297 0.837795 0.905044
0.483682 0.674618 0.83164 0.862118
1.00686 0.994714 1.01456 0.997683
0.616977 0.776688 0.873398 0.909516
0.525676 0.70143 0.863644 0.867759
0.970439 1.00558 0.967378 0.997597
1.01416 1.0022 1.01516 0.996829
1.01697 1.00655 1.01339 0.997002
0.917084 0.956768 0.961921 0.996467
0.776755 0.930247 0.872953 0.956521
0.781927 0.906773 0.887821 0.971274
0.536528 0.718451 0.81806 0.912872
0.526232 0.750606 0.817291 0.857804
1.0057 0.988507 1.01864 0.998773
1.00679 0.990413 1.01788 0.998676
1.01554 0.993563 1.02331 0.998837
0.998253 1 1 0.998253
0.999367 1 1.00163 0.99774
1.00908 1 1.01127 0.997832
1.01215 1 1.01423 0.997951
0.999665 0.99478 1.0063 0.998615
0.998948 1 1.00082 0.998129
1.01608 1 1.01821 0.997903
1.00905 1 1.01129 0.997781
0.999088 1 1.00146 0.997631
1.01591 0.997408 1.02027 0.998322
1.01642 1 1.01826 0.998193
1.03215 0.996389 1.03745 0.998495
1.00814 1 1.01057 0.997595
0.999383 1 1.00172 0.997669
1.00127 1 1.0035 0.997782
1.00618 0.999019 1.00906 0.998125
1.00136 0.999955 1.00356 0.997859
1.00251 0.998159 1.00615 0.998219
1.01069 0.995849 1.01654 0.99839
1.01362 0.999708 1.01593 0.998019
1.0127 1 1.01455 0.998175
1.01062 1 1.01252 0.998122
1.00643 1 1.00809 0.998359
1.00801 1 1.01014 0.997892
1.00149 1 1.00322 0.998278
0.99919 1 1 0.99919
1.00177 1 1.00363 0.998143
0.999225 1 1 0.999225
0.999988 1 1 0.999988
0.999221 1 1 0.999221
0.999992 1 1 0.999992
1 1 1 1
0.999991 1 1 0.999991
1 1 1 1
1 1 1 1
0.99918 1 1.00025 0.998928
0.999775 1 1 0.999775
0.999735 1 1 0.999735
0.999999 1 1 0.999999
0.999761 1 1.00013 0.999629
0.999985 1 1 0.999985
1 1 1 1
0.999957 1 1 0.999957
1 1 1 1
1 1 1 1
0.922072 1.01298 0.91703 0.992611
1.0981 1.15623 0.952646 0.996936
1.05842 1.11575 0.951038 0.997455
0.852701 0.962602 0.904691 0.979152
0.955062 1.03146 0.932116 0.99337
1.07138 1.13394 0.94766 0.997016
0.963924 1.05059 0.922176 0.994937
0.873913 0.974319 0.91456 0.980742
0.854387 0.972285 0.918813 0.956388
0.581997 0.755881 0.84145 0.915038
0.457873 0.644939 0.818537 0.867336
1.00015 1 1.00159 0.998567
0.999413 1 1.0004 0.999013
0.99962 1 1.00069 0.998928
1.00025 1 1.00174 0.998522
1.00061 1 1.00217 0.998445
0.998846 1 1.00066 0.998185
1.00004 1 1.00176 0.998283
0.999007 1 1.00051 0.998502
1.06397 1.14205 0.934518 0.996914
1.03694 1.11164 0.935691 0.996904
1.0254 1.06665 0.964593 0.996622
0.999706 1.00682 0.996406 0.996512
1.01114 1.03355 0.98192 0.99633
1.04617 1.00469 1.04422 0.997185
1.05207 1.00633 1.04913 0.996499
1.01143 1.00036 1.01432 0.996786
1.00244 1.00077 1.00342 0.998252
1.01513 1 1.01797 0.997208
1.00045 1 1.00209 0.998367
1.00279 0.997564 1.00624 0.999002
1.00548 1.08407 0.930239 0.997059
1.00731 0.999043 1.00989 0.9984
1.01027 0.999883 1.01257 0.997846
0.990765 1.06458 0.933539 0.996921
1.01074 1.03111 0.983802 0.99639
0.975016 1.00339 0.974352 0.997304
1.02926 0.998544 1.03312 0.99772
1.06833 1.00361 1.06734 0.997318
0.949937 1.03668 0.919387 0.996669
0.994861 1.02205 0.976389 0.996932
0.974118 1.00266 0.974464 0.996989
0.9729 0.995134 0.97975 0.997863
1.01301 0.999924 1.01534 0.997782
1.01932 0.995611 1.02588 0.997985
1.06235 0.998726 1.06618 0.997682
0.650937 0.791402 0.901585 0.912295
0.856456 0.970368 0.91915 0.960246
1.01221 0.995998 1.01859 0.997734
1.004 1.00132 1.00684 0.995859
0.963022 1.02978 0.937828 0.997167
0.991063 1.01016 0.984653 0.996382
1.00969 1.00855 1.00571 0.995447
0.844642 0.970146 0.910297 0.956428
0.821244 0.951438 0.885283 0.975011
0.922595 0.96813 0.956898 0.995891
0.580035 0.7429 0.853068 0.915251
0.481706 0.684519 0.822498 0.855581
1.00686 0.996583 1.01265 0.997697
0.635964 0.789428 0.884815 0.910474
0.493252 0.667459 0.856497 0.862816
0.971007 1.00671 0.966896 0.997558
1.01449 1.00289 1.01479 0.996822
1.0147 1.0043 1.01325 0.997147
0.91226 0.950642 0.962675 0.996832
0.774899 0.934554 0.87136 0.951575
0.782055 0.904646 0.887372 0.974211
0.558668 0.73334 0.836162 0.911082
0.537554 0.768829 0.816649 0.856163
1.00738 0.99484 1.01421 0.998421
0.524512 0.70699 0.857935 0.864745
0.56273 0.778697 0.83215 0.86842
0.98427 0.989201 0.996439 0.998571
1.02039 1.00231 1.01955 0.998513
0.924237 0.936839 0.990839 0.99567
0.806698 0.896558 0.92125 0.976686
0.709335 0.874455 0.85599 0.947644
0.597873 0.739267 0.886111 0.912682
0.620664 0.849778 0.84478 0.864584
1.01016 0.993019 1.01864 0.99865
1.01296 0.99511 1.01917 0.998787
1.01289 0.992111 1.02189 0.999074
0.998436 1 1.00031 0.998127
0.998963 1 1.00128 0.997684
1.01043 1 1.01271 0.997742
1.01626 1 1.0184 0.997897
1.01464 0.996683 1.01966 0.998385
0.998943 1 1.00129 0.99766
1.01659 1 1.0185 0.998118
1.00728 1 1.0097 0.997597
1.02883 0.994086 1.03644 0.998559
1.04655 0.992003 1.05594 0.999094
1.02273 0.999809 1.02481 0.998158
1.00392 1 1.00637 0.997567
1.00006 1 1.00229 0.997773
1.00539 0.999855 1.00734 0.998203
1.00142 0.999888 1.0037 0.997847
1.00237 0.999718 1.00447 0.998193
1.00348 0.991934 1.01314 0.998518
1.00428 0.999378 1.00672 0.998193
1.01764 0.997188 1.02232 0.998232
0.997446 0.985993 1.01307 0.998564
1.02462 1.00044 1.02637 0.997862
1.00856 1.01067 1.00093 0.996984
1.02068 0.999254 1.02377 0.997731
1.014 0.999405 1.01661 0.998024
1.0167 1 1.01888 0.997866
1.01211 0.999929 1.01403 0.998183
1.00895 1 1.01069 0.998286
1.00911 1 1.01101 0.998124
1.00347 1 1.0051 0.998375
0.999457 1 1.00033 0.999125
1.00055 1 1.00232 0.998235
0.999196 1 1 0.999196
0.999966 1 1 0.999966
0.999229 1 1 0.999229
0.999984 1 1 0.999984
1 1 1 1
0.999992 1 1 0.999992
1 1 1 1
1 1 1 1
0.999083 1 1.00019 0.998891
0.999721 1 1 0.999721
0.999095 1 1.00016 0.998931
1 1 1 1
0.999774 1 1 0.999774
0.99973 1 1 0.99973
0.999997 1 1 0.999997
1 1 1 1
0.99998 1 1 0.99998
1 1 1 1
1 1 1 1
0.61545 0.774982 0.880446 0.901983
0.508352 0.695132 0.848865 0.861507
0.853068 0.960395 0.906427 0.979944
0.951293 1.03043 0.929079 0.993673
1.07467 1.13835 0.946923 0.99698
0.871376 0.961066 0.923535 0.981746
0.968667 1.04657 0.929963 0.995269
0.857252 0.976857 0.917706 0.956256
0.558536 0.745271 0.827954 0.90517
0.470835 0.666924 0.819815 0.861146
0.884305 0.989856 0.905146 0.986986
0.801255 0.943678 0.886715 0.957553
0.540901 0.724428 0.818233 0.912528
0.544953 0.763259 0.829273 0.860973
1.00141 1 1.00331 0.998108
0.999311 1 1.00071 0.998601
0.99948 1 1.00047 0.999013
0.999802 1 1.00125 0.998551
1.00037 1 1.00177 0.998602
1.00045 1 1.00266 0.997799
0.999232 1 1.00104 0.998196
1.00231 1 1.00456 0.997761
0.999543 1 1.00132 0.998226
0.999548 1 1.00109 0.998456
0.9972 1.08362 0.922899 0.997133
0.990082 1.06265 0.934614 0.996895
1.01128 1.03376 0.981638 0.996553
0.977734 1.00313 0.977453 0.997168
1.05792 1.00586 1.05453 0.997371
1.03983 0.998752 1.04392 0.997326
1.01058 0.999565 1.01293 0.998108
1.00651 0.998714 1.00948 0.998345
0.949082 1.03696 0.918139 0.996858
1.01624 0.999912 1.01866 0.997716
1.01953 0.995664 1.02606 0.99797
0.983133 1.01733 0.969416 0.996872
0.971997 1.00206 0.972889 0.997032
0.977322 0.997066 0.982294 0.997866
1.0547 0.997562 1.05979 0.997631
0.925718 1.00096 0.927875 0.996714
0.970725 0.996871 0.975673 0.998052
1.02134 0.985269 1.03852 0.998167
1.01119 1 1.01361 0.997607
1.02708 0.997296 1.03224 0.997696
1.02923 0.994777 1.03688 0.997838
0.545194 0.717886 0.863145 0.879857
0.641739 0.786274 0.892796 0.914181
0.855098 0.97204 0.92453 0.951504
1.00584 0.995052 1.01317 0.997707
1.01413 1.00285 1.01448 0.996806
0.973095 1.00796 0.967816 0.997516
1.01267 1.00263 1.01276 0.997285
0.644826 0.781879 0.89993 0.91642
0.786575 0.941031 0.878575 0.951387
0.772975 0.902732 0.881453 0.971421
0.912283 0.947168 0.965919 0.997153
0.550594 0.739231 0.82517 0.902627
0.478244 0.651017 0.848194 0.866088
0.55135 0.775727 0.821776 0.864897
1.00679 0.994236 1.0143 0.998353
0.528715 0.707262 0.858779 0.870482
0.585063 0.802271 0.840206 0.867953
0.979359 0.986215 0.99435 0.998691
1.01906 1.00092 1.0197 0.998449
0.92115 0.934013 0.989499 0.996695
0.793801 0.902766 0.903457 0.97326
0.734707 0.878066 0.876378 0.954763
0.595235 0.745585 0.883934 0.903174
0.613413 0.839826 0.838919 0.87065
1.00618 0.991616 1.01526 0.999431
0.605415 0.800201 0.861275 0.87844
0.608305 0.821428 0.848921 0.872337
0.965772 0.941114 1.02649 0.999715
0.849831 0.892951 0.967695 0.983483
0.749533 0.845241 0.931458 0.952022
0.698463 0.844766 0.918999 0.899688
0.672408 0.89842 0.854088 0.876295
1.00933 0.994994 1.01569 0.998736
1.0149 0.991171 1.02491 0.999059
1.02248 0.977574 1.04661 0.999354
0.999426 1 1.00178 0.997651
1.0059 1 1.00832 0.997599
1.01609 1 1.01809 0.998043
1.02642 0.99233 1.03578 0.998624
1.00444 1 1.00689 0.997566
1.02168 0.999236 1.02436 0.998146
1.05232 0.992013 1.06167 0.999173
1.04052 0.976356 1.06631 0.999446
1.04725 0.993042 1.05557 0.999068
1.01609 0.99938 1.01873 0.998034
1.00115 1 1.00332 0.997834
1.00112 1.00012 1.00284 0.998169
0.99577 0.986151 1.01113 0.998643
1.01674 0.997159 1.02142 0.998258
1.00273 0.999825 1.00473 0.998179
0.998904 0.98491 1.01563 0.998598
1.02468 0.999083 1.02744 0.99823
1.02051 0.980339 1.04206 0.998962
1.0111 1.00337 1.0096 0.998125
1.01884 1.00126 1.01969 0.997905
1.00487 1.0021 1.0055 0.997269
1.01403 1.01675 1.00153 0.995807
1.01165 1.00581 1.00854 0.997294
1.00637 1.00815 1.00088 0.997357
1.01858 0.999695 1.02121 0.997724
1.02778 0.999631 1.03069 0.997547
1.01373 0.999183 1.01656 0.99803
1.01726 1 1.01943 0.997871
1.01168 1 1.01371 0.997998
1.01299 1 1.01483 0.99819
1.01016 1 1.0119 0.998285
1.00245 1 1.00346 0.998995
1.00393 1 1.00555 0.99839
1.00015 1 1.00102 0.999127
0.999922 1 1 0.999922
0.999311 1 1.00011 0.999201
0.999954 1 1 0.999954
1 1 1 1
0.99998 1 1 0.99998
1 1 1 1
1 1 1 1
0.999905 1 1.00143 0.99848
0.999647 1 1.00003 0.999618
0.999324 1 1.00054 0.998788
0.999996 1 1 0.999996
0.999728 1 1 0.999728
0.999235 1 1.0003 0.998934
1 1 1 1
1 1 1 1
0.999774 1 1 0.999774
0.999995 1 1 0.999995
1 1 1 1
1 1 1 1
0.508271 0.692645 0.847011 0.866354
0.628956 0.782788 0.88428 0.908628
0.590164 0.810369 0.838885 0.868136
0.506819 0.699045 0.84269 0.860358
0.870355 0.962385 0.923804 0.978967
0.972886 1.04225 0.937555 0.995622
0.847812 0.981402 0.904016 0.9556
0.573559 0.739242 0.848213 0.914717
0.485141 0.694192 0.817444 0.85493
0.892834 0.984112 0.920412 0.985699
0.76903 0.928008 0.874103 0.948045
0.561106 0.734745 0.838588 0.910668
0.530379 0.752044 0.823931 0.855959
0.839732 0.949906 0.901203 0.980928
0.702563 0.847571 0.876025 0.946221
0.622574 0.785267 0.882231 0.89865
0.609122 0.835389 0.844811 0.863089
1.00578 1 1.00818 0.997622
1.00156 1 1.0034 0.99817
0.999148 1 1.00052 0.998633
1.00035 1 1.00159 0.998759
1.00023 1 1.00289 0.997343
1.00023 1 1.00236 0.997874
0.999319 1 1.00112 0.998206
1.00172 1 1.00401 0.997717
1.00117 1 1.00338 0.9978
0.99915 1 1.00098 0.998169
0.949034 1.03758 0.917381 0.997037
0.973157 1.01298 0.963753 0.99682
0.968712 1.00129 0.970304 0.997074
0.980657 0.998737 0.983992 0.997871
1.04153 0.994834 1.04948 0.997574
1.0205 0.996913 1.02576 0.997958
1.0179 1 1.0203 0.997651
1.01106 1 1.01353 0.997559
0.927957 1.00013 0.93076 0.996863
1.02284 0.998121 1.02718 0.997654
1.02922 0.995256 1.03639 0.997816
0.969683 0.998363 0.973173 0.998049
1.01339 0.989426 1.02615 0.998124
0.931575 0.965677 0.967668 0.996919
0.951108 0.949509 1.00247 0.999217
1.04852 0.973833 1.07845 0.998377
1.01313 0.998444 1.01692 0.997827
1.03241 0.993828 1.0409 0.998004
0.620357 0.816781 0.858403 0.884799
0.536411 0.718866 0.850476 0.87738
0.630939 0.778111 0.89588 0.905098
1.00744 0.995359 1.01388 0.998291
1.01791 0.99934 1.02023 0.998382
0.972482 0.983385 0.990081 0.998821
0.520849 0.701142 0.853997 0.869861
0.705388 0.856187 0.870187 0.946775
0.798555 0.900505 0.909364 0.975173
0.910797 0.927596 0.984062 0.997792
0.604829 0.757945 0.874329 0.912683
0.60369 0.820333 0.847895 0.867924
0.608346 0.833136 0.837867 0.871485
1.00461 0.992169 1.01317 0.999376
0.611452 0.805175 0.862588 0.880377
0.602713 0.813417 0.848934 0.872818
0.969249 0.947541 1.02346 0.999465
0.860588 0.905275 0.966617 0.983469
0.725303 0.847142 0.906807 0.944166
0.662304 0.889793 0.850789 0.874876
0.715213 0.843753 0.937352 0.90431
0.986447 0.946085 1.04296 0.999711
0.607201 0.799027 0.861978 0.881606
0.657025 0.869023 0.859237 0.879909
0.606437 0.834018 0.842329 0.863235
0.91287 0.90395 1.01434 0.995587
0.828112 0.882324 0.983482 0.95432
0.78099 0.921567 0.930323 0.910929
1.01812 0.991214 1.02813 0.999043
1.02563 0.983178 1.04394 0.99927
1.04087 0.972311 1.07098 0.999566
1.00528 1 1.00774 0.997566
1.0202 0.998751 1.02338 0.998133
1.05708 0.990561 1.06795 0.999251
1.01931 0.999256 1.02207 0.998047
1.04748 0.992915 1.05592 0.999079
1.04834 0.978445 1.07205 0.999421
1.03432 0.965932 1.07135 0.999489
1.0302 0.98847 1.0432 0.999058
1.01455 0.997182 1.01917 0.998287
1.00272 1.00018 1.00439 0.998164
1.00226 0.986548 1.01732 0.998633
1.02165 0.985064 1.03825 0.998933
1.03144 0.999449 1.03382 0.99824
1.01639 1.0002 1.01742 0.998792
1.01324 0.999948 1.01474 0.998572
1.00391 1.00269 1.0045 0.99673
1.01524 1.0033 1.01396 0.997961
1.00625 1.0045 1.00461 0.997149
1.0048 1.00721 1.00227 0.995351
1.03167 1.03538 1.00129 0.995134
1.01297 1.01363 1.00258 0.996774
1.00959 1.01238 1.00138 0.995871
1.01854 1.00083 1.0206 0.997157
1.01155 1.00592 1.0083 0.997325
1.00375 1.00529 1.00075 0.997726
1.01642 1.00003 1.01871 0.997717
1.02703 0.999743 1.02982 0.997551
1.01761 1 1.01999 0.997671
1.01875 0.999859 1.02106 0.997876
1.0116 1.00046 1.01318 0.997994
1.00689 1 1.00817 0.998736
1.00763 1 1.00937 0.998284
1.00278 1 1.00379 0.998988
0.999877 1 1 0.999877
1.00015 1 1.00102 0.999128
0.999912 1 1 0.999912
1 1 1 1
0.999942 1 1 0.999942
1 1 1 1
1 1 1 1
1.00259 1 1.00452 0.998073
0.999581 1 1.0003 0.999281
1.00016 1 1.00169 0.998479
0.999986 1 1 0.999986
0.99954 1 1 0.99954
0.999214 1 1.00053 0.998685
1 1 1 1
0.999997 1 1 0.999997
0.999734 1 1 0.999734
1 1 1 1
1 1 1 1
1 1 1 1
0.629835 0.832732 0.861138 0.878312
0.523641 0.698131 0.85812 0.874076
0.615782 0.776509 0.874002 0.907336
1.00377 1 1.00617 0.997619
0.598298 0.807188 0.845674 0.876476
0.590524 0.80737 0.842698 0.867946
0.525981 0.721413 0.840232 0.867734
0.897871 0.990383 0.920982 0.984373
0.777525 0.922076 0.881508 0.95658
0.54835 0.737037 0.824952 0.901863
0.517192 0.727896 0.824588 0.861679
0.834795 0.946343 0.902918 0.976974
0.731506 0.867673 0.883581 0.954147
0.610818 0.763862 0.888147 0.900351
0.612504 0.838273 0.844942 0.864762
0.778005 0.893759 0.895707 0.971842
0.734082 0.835754 0.925007 0.949557
0.721715 0.847891 0.939802 0.905709
0.669784 0.891809 0.857041 0.876317
1.00407 1 1.00645 0.997638
1.00594 1 1.00834 0.997615
1.0013 1 1.00307 0.998232
1.00056 1 1.00299 0.997571
1.00164 1 1.00423 0.99742
1.00029 1 1.00235 0.997947
1.00283 1 1.00513 0.997716
1.00063 1 1.0028 0.997837
0.931968 1.00156 0.933341 0.996976
0.970349 1.00113 0.971146 0.998055
1.00982 1 1.01234 0.997509
1.00569 0.993322 1.0144 0.998079
1.03058 0.994638 1.03843 0.997793
1.02419 0.999868 1.02678 0.997609
1.01746 0.999461 1.02026 0.997797
0.933204 0.965381 0.969485 0.997096
1.03135 0.995326 1.03827 0.998003
1.03692 0.981078 1.05858 0.998422
0.957013 0.954104 1.00379 0.999257
1.02282 0.997923 1.02694 0.998065
0.917807 0.925149 0.995899 0.996149
0.98117 0.946632 1.03703 0.999476
1.07169 0.985573 1.08897 0.998536
1.06492 0.994769 1.07244 0.998211
0.601496 0.789832 0.859422 0.886117
0.61791 0.814754 0.858506 0.883396
0.527211 0.717913 0.839459 0.874809
1.00202 0.992145 1.01064 0.999322
0.973494 0.95242 1.02293 0.999216
0.620691 0.813565 0.864801 0.882201
0.743017 0.825881 0.943541 0.9535
0.849924 0.902917 0.961791 0.978704
0.702005 0.833829 0.933515 0.901867
0.600175 0.809444 0.849136 0.8732
0.658197 0.886878 0.849708 0.873418
0.997115 0.959651 1.03938 0.999669
0.608374 0.801312 0.861087 0.881702
0.663202 0.870291 0.86423 0.881763
0.93022 0.915807 1.01726 0.998508
0.610069 0.836306 0.843525 0.864801
0.79635 0.861184 0.973779 0.949616
0.775959 0.907578 0.939123 0.910401
0.98942 0.947122 1.04511 0.999565
0.657519 0.850444 0.8699 0.888777
0.602575 0.807452 0.850497 0.877448
0.54073 0.758388 0.828232 0.860869
0.714554 0.841533 0.938264 0.90498
0.915386 0.916586 1.00969 0.989105
0.846217 0.895327 1.00225 0.943029
1.0276 0.989849 1.03898 0.999188
1.03469 0.964224 1.07358 0.999534
1.01389 0.940601 1.07837 0.999581
1.02232 0.99861 1.02574 0.99806
1.04923 0.991489 1.0592 0.999091
1.05761 0.981242 1.07848 0.999396
1.02759 0.989065 1.03995 0.999045
1.0282 0.965601 1.06537 0.999488
0.984597 0.961897 1.02438 0.999234
1.02407 0.98881 1.03679 0.998903
1.03644 0.996594 1.0418 0.998254
1.02293 0.99852 1.02572 0.99876
1.0018 0.998805 1.00513 0.997886
1.01466 0.996969 1.01874 0.999019
0.998283 1.00268 0.998604 0.997012
1.00817 1.00415 1.00945 0.994597
1.011 1.01381 1.00283 0.994409
1.00717 1.00737 1.0028 0.997013
1.00498 1.00787 1.00205 0.995094
1.02818 1.03265 1.00053 0.995149
1.02647 1.02803 1.00261 0.995885
1.02848 1.03209 1.00125 0.995251
1.01404 1.00666 1.01042 0.996948
1.01709 1.01692 1.00345 0.996727
1.00493 1.00774 1.00128 0.99594
1.02549 1 1.02811 0.997448
1.01878 1.00106 1.02057 0.997188
1.01188 1.00607 1.00844 0.997354
1.02637 1 1.02888 0.997555
1.01687 1.00036 1.01888 0.997672
1.01307 1 1.01468 0.998414
1.01207 1.00071 1.01339 0.997989
1.00711 1 1.0084 0.998729
1.00016 1 1.00036 0.999797
1.00422 1 1.00524 0.998984
0.999867 1 1 0.999867
1 1 1 1
0.9999 1 1 0.9999
1 1 1 1
1 1 1 1
1.00431 1 1.00635 0.997976
1.00174 1 1.00275 0.998988
1.00281 1 1.00467 0.99815
0.999966 1 1 0.999966
0.999501 1 1.00025 0.999249
1.00037 1 1.0019 0.998477
1 1 1 1
0.99999 1 1 0.99999
0.999461 1 1 0.999461
1 1 1 1
0.999999 1 1 0.999999
1 1 1 1
0.608964 0.799591 0.85954 0.886048
0.626859 0.829009 0.86083 0.878402
0.525457 0.696621 0.863074 0.873962
1.00359 1 1.00593 0.997669
1.01072 1 1.0132 0.997553
1.00158 1 1.00381 0.997774
0.664016 0.874782 0.863391 0.879166
0.599602 0.811994 0.842047 0.876947
0.586828 0.807464 0.83744 0.867829
0.836162 0.949395 0.899328 0.979321
0.705007 0.865513 0.860688 0.946398
0.626696 0.754558 0.91041 0.912278
0.614025 0.846231 0.842618 0.861124
0.785514 0.897021 0.89778 0.975397
0.746554 0.845851 0.930336 0.948697
0.719427 0.847089 0.936436 0.906943
0.6624 0.887386 0.853332 0.874761
0.808383 0.89045 0.93357 0.972436
0.791744 0.860794 0.966889 0.951281
0.784903 0.918387 0.937775 0.911364
0.624785 0.851113 0.848417 0.865234
1.0016 0.999049 1.00462 0.997944
1.00347 1 1.00588 0.997599
1.0059 1 1.00831 0.997608
1.00067 1 1.00313 0.997548
1.00217 1 1.00468 0.997498
1.00243 1 1.00473 0.997715
0.927551 0.957744 0.971082 0.997315
0.960436 0.954143 1.00733 0.999271
1.01614 0.999871 1.01854 0.99777
1.03013 0.989676 1.04247 0.998466
1.02766 0.99617 1.03368 0.998
1.02343 0.997579 1.02789 0.998083
1.04727 0.987442 1.06246 0.998248
0.91687 0.921653 0.998532 0.996273
1.06402 0.979294 1.08796 0.998678
0.981457 0.933834 1.05185 0.99919
1.03955 0.985634 1.05637 0.998418
0.931869 0.915791 1.02202 0.995628
1.00643 0.947559 1.06328 0.998917
1.02981 0.954567 1.08013 0.998792
0.678597 0.86779 0.880138 0.888477
0.608295 0.794801 0.863447 0.88638
0.614659 0.812807 0.857391 0.881999
1.0083 0.973207 1.03645 0.999627
0.918141 0.91501 1.00728 0.996171
0.607798 0.800892 0.860626 0.881802
0.792448 0.846127 0.981443 0.954268
0.766237 0.912192 0.92974 0.903473
0.666056 0.873386 0.863071 0.883604
0.612307 0.844261 0.842002 0.86135
0.982018 0.939838 1.0452 0.999692
0.652846 0.842572 0.871144 0.889434
0.606404 0.818431 0.843909 0.877979
0.911331 0.912514 1.01526 0.983692
0.525506 0.744979 0.824001 0.856063
0.720573 0.845659 0.940811 0.905691
0.832895 0.890294 0.981893 0.95278
1.00188 0.935795 1.07348 0.997335
0.612944 0.800489 0.863321 0.886937
0.599719 0.814742 0.84721 0.868833
0.460757 0.643702 0.824738 0.867903
0.608842 0.771849 0.878462 0.897945
0.802171 0.858989 0.982093 0.950882
0.872168 0.892861 0.99761 0.979164
1.02919 0.960177 1.07241 0.999501
1.02669 0.95709 1.07319 0.999565
0.994056 0.948959 1.04815 0.999402
1.02376 0.990662 1.03441 0.999032
1.02226 0.966075 1.0587 0.999487
0.987689 0.959397 1.03019 0.999318
1.01565 0.99218 1.02496 0.998727
1.02973 0.997676 1.03345 0.998724
0.998342 1.00107 0.999742 0.997529
1.03407 1.00159 1.03734 0.995271
0.991814 1.00159 0.992917 0.997304
1.00988 1.00376 1.01147 0.994689
1.00884 1.00529 1.00985 0.993745
1.02231 1.02639 1.00191 0.994123
1.01973 1.02395 1.00108 0.994811
1.0112 1.01379 1.00312 0.994347
1.00476 1.00827 1.00169 0.994841
1.01933 1.02286 1.0011 0.995458
1.03183 1.03626 1.00048 0.995247
1.0173 1.01575 1.00526 0.996279
1.02768 1.02901 1.00274 0.995979
1.02632 1.02989 1.00117 0.995369
1.02551 1.00355 1.02471 0.997244
1.01629 1.00838 1.01096 0.996929
1.02018 1.01953 1.00398 0.996677
1.02351 1.00079 1.02462 0.998122
1.02456 1.00025 1.02693 0.997446
1.02005 1.00165 1.02121 0.99722
1.01812 1.00121 1.01926 0.997674
1.01284 1.00027 1.01418 0.998411
1.00167 1 1.00201 0.999656
1.00667 1 1.00796 0.998721
1.00048 1 1.00069 0.999782
1 1 1 1
0.999858 1 1 0.999858
1 1 1 1
1 1 1 1
1.00417 1 1.0063 0.997885
1.00336 1 1.00447 0.998895
1.00492 1 1.00694 0.998002
0.999926 1 1 0.999926
1.00106 1 1.00202 0.999047
1.00256 1 1.00434 0.998227
1 1 1 1
0.999972 1 1 0.999972
0.999374 1 1.00016 0.999217
1 1 1 1
0.999993 1 1 0.999993
1 1 1 1
0.654709 0.848048 0.869669 0.887716
0.617636 0.802324 0.868701 0.88616
0.628351 0.82984 0.861917 0.878502
1.02955 1 1.03223 0.997407
1.01018 1.00259 1.00997 0.997626
1.00391 1 1.0062 0.997721
1.01008 1 1.01259 0.997526
1.00132 1 1.0035 0.997821
1.00749 1 1.00976 0.997753
0.996543 0.99842 1 0.998119
0.616528 0.831677 0.849342 0.872802
0.666161 0.872664 0.866446 0.881029
0.609563 0.813562 0.85394 0.877406
0.659435 0.886675 0.851743 0.873171
0.789222 0.9049 0.897094 0.972211
0.758135 0.847063 0.944658 0.947449
0.725288 0.862874 0.921511 0.912142
0.797767 0.895607 0.917256 0.971109
0.797119 0.855893 0.98753 0.94309
0.776169 0.90538 0.94103 0.911008
0.618155 0.844865 0.839816 0.871216
0.846167 0.892452 0.972436 0.975013
0.823339 0.874953 0.997953 0.942939
0.70244 0.847406 0.920621 0.900403
0.533378 0.759943 0.817806 0.858231
1.06125 0.995506 1.06778 0.998375
1.0051 0.999212 1.00792 0.997981
1.00475 1 1.00721 0.99756
1.00249 1 1.00498 0.997525
0.923298 0.924154 1.00268 0.996405
0.980731 0.925266 1.06111 0.9989
1.02553 0.997533 1.03003 0.998101
1.03999 0.989731 1.05259 0.998285
1.0456 0.961785 1.08843 0.998821
1.04137 0.991434 1.05202 0.99842
1.03917 0.955935 1.0884 0.998779
0.933581 0.917128 1.02465 0.993447
1.00993 0.940927 1.07431 0.999095
1.01667 0.96394 1.05586 0.998906
0.930018 0.909169 1.03133 0.99186
0.978645 0.924362 1.05958 0.999192
0.610286 0.792181 0.868334 0.887202
0.672394 0.858948 0.877845 0.891742
0.618491 0.800128 0.871829 0.88663
0.969805 0.925657 1.0479 0.999805
0.920653 0.916902 1.01451 0.989732
0.646396 0.833857 0.870899 0.890101
0.85168 0.901784 1.00021 0.944242
0.721285 0.857133 0.923607 0.911111
0.614545 0.818376 0.854861 0.878425
0.512762 0.71954 0.827059 0.861637
0.999668 0.936624 1.06979 0.99768
0.619158 0.806235 0.865717 0.887082
0.595526 0.805838 0.85074 0.868672
0.876677 0.893627 0.998708 0.9823
0.473857 0.667323 0.823955 0.861802
0.600037 0.751169 0.888242 0.899308
0.802477 0.863773 0.983999 0.944145
0.984686 0.93848 1.05499 0.994543
0.639238 0.84329 0.862606 0.878766
0.505986 0.687215 0.853916 0.862246
0.540274 0.723103 0.818331 0.913029
0.740083 0.823578 0.944555 0.951367
0.822111 0.868088 0.972637 0.973679
1.03271 0.961942 1.07401 0.99959
1.00056 0.948268 1.05576 0.999421
0.985773 0.961958 1.02563 0.999146
0.991486 0.956664 1.03702 0.999402
1.01624 0.978637 1.03961 0.998856
1.02511 1.0008 1.02685 0.997512
0.99492 1.0033 0.994453 0.997175
1.03338 1.00186 1.0366 0.995047
1.01929 1.00367 1.02159 0.994106
1.01128 1.00362 1.01292 0.994781
1.01041 1.00557 1.01124 0.993647
1.00892 1.01083 1.00448 0.993655
1.06372 1.07081 0.998796 0.994577
1.03948 1.04441 1.00077 0.994521
1.02212 1.02599 1.00218 0.994067
1.02217 1.02704 1.00013 0.995131
1.01737 1.02185 1.00074 0.994876
1.01144 1.01363 1.00357 0.994284
1.02771 1.02978 1.00257 0.995422
1.01996 1.02352 1.00108 0.995436
1.03497 1.03936 1.00043 0.995347
1.01883 1.0097 1.01232 0.99676
1.01594 1.01285 1.00665 0.996429
1.02895 1.02978 1.00314 0.996075
1.02274 1.00405 1.02084 0.997829
1.02318 1.00487 1.02103 0.997249
1.01744 1.01023 1.01027 0.99691
1.00579 1 1.0063 0.999495
1.02131 1.00089 1.02232 0.998125
1.02134 1 1.02395 0.997445
1.01082 1 1.01244 0.998408
1.00276 1 1.00312 0.999643
1 1 1 1
1.00071 1 1.00094 0.999768
1 1 1 1
1 1 1 1
1.02189 1.00136 1.02314 0.997422
1.01735 1.00068 1.01908 0.997624
1.00406 1 1.00543 0.998635
1.0066 1 1.00874 0.997879
1.00002 1 1.00015 0.999869
1.00304 1 1.00415 0.998896
1.00687 1 1.00886 0.998028
1 1 1 1
0.999938 1 1 0.999938
1.00076 1 1.00166 0.999105
1 1 1 1
0.999979 1 1 0.999979
1 1 1 1
0.615861 0.804863 0.867362 0.882187
0.647109 0.841309 0.865774 0.888418
0.617083 0.805902 0.86397 0.886263
1.03146 1.00013 1.03403 0.997383
1.01401 1.00156 1.01479 0.99767
0.99963 1.00137 1.00094 0.997327
1.03156 0.999798 1.0342 0.99765
1.01132 1.00573 1.00781 0.997761
1.01305 1 1.0156 0.997497
1.00043 0.999648 1.00292 0.997865
1.00991 0.999663 1.01252 0.99776
0.997834 0.99932 1.00032 0.998193
1.03242 0.998908 1.0354 0.99821
0.572649 0.791232 0.833 0.86884
0.612118 0.821759 0.852884 0.873374
0.662007 0.870994 0.860861 0.882905
0.613199 0.841686 0.83542 0.872061
0.770994 0.910462 0.936786 0.90396
0.79215 0.887972 0.920476 0.96916
0.793858 0.850938 0.981599 0.95041
0.837026 0.896967 0.961862 0.970175
0.826847 0.889333 0.977983 0.950669
0.719042 0.844019 0.940631 0.905697
0.543277 0.775644 0.81775 0.856522
0.865159 0.895533 0.992774 0.973115
0.804234 0.84904 0.995452 0.951555
0.607886 0.745119 0.893801 0.912758
0.490725 0.672851 0.839909 0.868334
1.04735 0.997774 1.05082 0.998928
1.06139 0.994946 1.06852 0.998382
1.00964 1 1.01164 0.998021
0.931058 0.915748 1.02584 0.991113
1.0142 0.939003 1.08094 0.999207
1.04092 0.994361 1.04847 0.998422
1.0494 0.95227 1.10336 0.998767
1.02309 0.970598 1.05523 0.998912
0.981831 0.931907 1.05438 0.999231
0.924079 0.904391 1.03006 0.991948
1.00022 0.974047 1.02752 0.999358
0.942334 0.928791 1.021 0.993711
0.63216 0.826441 0.86461 0.884697
0.62341 0.803578 0.874231 0.887401
0.664368 0.850876 0.872303 0.895108
1.0035 0.948877 1.05976 0.997923
0.871505 0.896301 0.995578 0.976653
0.629882 0.816326 0.869696 0.887213
0.806024 0.862515 0.986015 0.947758
0.611341 0.740592 0.906223 0.910898
0.587557 0.806435 0.838752 0.868654
0.486764 0.693831 0.819901 0.855663
0.980778 0.935995 1.05315 0.994965
0.634497 0.836046 0.863648 0.878745
0.505777 0.693168 0.847375 0.861083
0.835997 0.883849 0.96939 0.975726
0.559536 0.733279 0.837564 0.911047
0.731166 0.836623 0.923415 0.946431
0.919139 0.916168 1.01083 0.992494
0.50939 0.691874 0.849308 0.866879
0.584775 0.757855 0.842646 0.91571
0.704946 0.852916 0.8735 0.946209
0.791335 0.879235 0.921602 0.976588
1.0076 0.951343 1.05972 0.999445
0.986365 0.9503 1.03887 0.999113
0.997522 0.986275 1.01305 0.998373
1.01622 0.963338 1.05598 0.998979
1.01702 0.998937 1.02054 0.997615
0.98907 1.00463 0.988125 0.996345
1.03306 1.0019 1.03646 0.994819
1.01842 1.00514 1.01923 0.994098
1.00393 1.00942 0.999809 0.994744
1.01167 1.00581 1.01236 0.99355
1.00744 1.0101 1.0037 0.993698
1.04599 1.06056 0.991345 0.994865
1.08099 1.10095 0.986307 0.995509
1.07936 1.08537 0.999784 0.994683
1.06384 1.07164 0.998105 0.994613
1.05356 1.05904 1 0.994827
1.03791 1.04257 1.00107 0.994458
1.02204 1.0257 1.00244 0.994011
1.04663 1.05141 1.0003 0.995152
1.01989 1.02479 1.00002 0.995195
1.01468 1.01951 1.00032 0.994942
1.03139 1.02547 1.00989 0.995925
1.02314 1.02411 1.00355 0.995526
1.02152 1.02511 1.0011 0.995412
1.02651 1.00704 1.02197 0.997414
1.02373 1.01119 1.01569 0.996751
1.01586 1.01146 1.0078 0.996579
1.009 1.00001 1.00965 0.999345
1.02628 1.00576 1.02262 0.997832
1.02304 1.00629 1.01945 0.997254
0.999847 1 1 0.999847
1.0078 1 1.00833 0.999476
1.02206 1.00156 1.02239 0.998129
1.00451 1 1.00488 0.999627
1 1 1 1
1 1 1 1
1.0126 1.00462 1.01076 0.997213
1.02191 1.00111 1.02345 0.997382
1.02399 1.00088 1.02575 0.997403
1.00913 1 1.01076 0.998386
1.01435 1.00049 1.01626 0.99762
1.00102 1 1.00122 0.999803
1.00548 1 1.00685 0.99864
1.00813 1 1.01028 0.997873
1 1 1 1
0.999885 1 1 0.999885
1.00191 1 1.00302 0.998897
1 1 1 1
0.99995 1 1 0.99995
1 1 1 1
0.619432 0.81143 0.863606 0.883949
0.619617 0.809782 0.867222 0.882319
0.647182 0.830944 0.876033 0.889066
1.01546 1.00515 1.01336 0.99694
1.02716 1 1.02988 0.997362
1.01175 1 1.01406 0.997718
1.02646 1 1.02898 0.997557
1.00458 1.00518 1.00208 0.997338
1.00335 1.00181 1.00354 0.998007
1.01897 1.00408 1.01806 0.996826
1.0247 0.990245 1.0368 0.998064
1.01037 0.999483 1.01315 0.997769
0.997711 1 0.999443 0.998267
1.03368 0.996643 1.03904 0.998196
1.05309 0.999858 1.05486 0.998467
0.526743 0.704096 0.862277 0.8676
0.592206 0.811315 0.840572 0.868377
0.611157 0.816738 0.856351 0.873812
0.556607 0.781854 0.822897 0.865123
0.706375 0.836434 0.934433 0.903765
0.826018 0.878801 0.996644 0.943103
0.84559 0.899519 0.968019 0.971103
0.861048 0.891547 0.98985 0.975694
0.489259 0.6809 0.833472 0.862115
0.796451 0.856534 0.98363 0.945328
0.60634 0.752363 0.892423 0.903063
0.860829 0.899145 0.978337 0.978586
0.755095 0.84111 0.941075 0.953948
0.54301 0.721956 0.824682 0.912033
0.984241 1.00125 0.983444 0.999565
1.04947 0.997961 1.05274 0.998934
1.06008 0.993605 1.06863 0.998386
0.927934 0.908117 1.03004 0.992023
0.989654 0.944337 1.04875 0.999273
1.03218 0.98132 1.05296 0.998919
0.996988 0.9716 1.02677 0.999373
0.94035 0.930359 1.01705 0.993797
0.959805 0.965725 0.997658 0.996203
0.536415 0.711456 0.86155 0.87513
0.628947 0.822655 0.862424 0.886493
0.62992 0.81422 0.871717 0.8875
0.978317 0.93168 1.05514 0.995182
0.830351 0.879889 0.966251 0.976661
0.62868 0.825646 0.866348 0.878907
0.749497 0.836369 0.947137 0.946149
0.548951 0.737652 0.824655 0.902422
0.527594 0.717907 0.846347 0.868327
0.919818 0.910353 1.01802 0.992509
0.525426 0.697431 0.861461 0.874531
0.561407 0.74617 0.830647 0.905782
0.790804 0.888311 0.916291 0.971562
0.734407 0.875005 0.879657 0.954142
0.914319 0.939088 0.977026 0.996519
0.616128 0.773229 0.883157 0.902245
0.805404 0.946544 0.888621 0.957538
0.777552 0.901583 0.888139 0.971052
0.989068 0.942388 1.05049 0.999088
0.984381 0.985259 1.00067 0.998437
0.981931 1.00023 0.984426 0.997235
1.00835 0.997559 1.01313 0.997718
0.990995 1.00453 0.990193 0.996293
0.98729 1.01109 0.980238 0.996151
1.018 1.00701 1.01692 0.994089
1.0036 1.00937 0.999545 0.994736
1.03299 1.05906 0.979344 0.995958
1.00645 1.00957 1.00319 0.993742
1.04499 1.05979 0.991122 0.994868
1.07302 1.10176 0.977646 0.996187
1.06815 1.09492 0.979133 0.996348
1.08544 1.10058 0.990786 0.99542
1.08332 1.10283 0.986686 0.99556
1.08865 1.09454 0.999692 0.994924
1.07721 1.08327 0.999629 0.99477
1.06339 1.07186 0.997438 0.994648
1.07537 1.08073 1 0.995039
1.05328 1.05859 1.00014 0.99484
1.03598 1.04029 1.00148 0.994393
1.05483 1.05676 1.00284 0.995351
1.04434 1.049 1.00042 0.995146
1.01779 1.02264 1 0.995259
1.02271 1.0131 1.01268 0.996849
1.03406 1.02826 1.00977 0.995914
1.01612 1.01581 1.00469 0.995632
1.00802 1.00043 1.00862 0.99897
1.02534 1.01002 1.01781 0.997402
1.02583 1.01221 1.01677 0.99674
1 1 1 1
1.00872 1.00022 1.00931 0.99919
1.02753 1.00737 1.02223 0.997834
1 1 1 1
1.00892 1 1.0095 0.999425
1 1 1 1
1.01707 1.01215 1.00808 0.996806
1.01157 1.00487 1.00955 0.99715
1.02148 1.0042 1.02005 0.997223
1.01708 1 1.01895 0.998166
1.02442 1.0011 1.02599 0.997379
1.03014 1 1.03284 0.997384
1.0037 1 1.004 0.999703
1.00919 1 1.01081 0.998393
1.0116 1 1.01402 0.997614
1 1 1 1
1.00103 1 1.00122 0.999816
1.00681 1 1.00817 0.998644
1 1 1 1
0.999899 1 1 0.999899
1 1 1 1
0.521029 0.70245 0.856796 0.865704
0.623957 0.818853 0.86192 0.88406
0.623376 0.815443 0.866263 0.882484
1.02183 1.00397 1.02094 0.996921
1.03511 1.01623 1.02216 0.996492
1.03705 1.00335 1.03681 0.996889
1.02814 1 1.03076 0.997462
1.00863 1.00928 1.00201 0.997351
1.0002 0.999015 1.00294 0.998246
1.02576 0.996594 1.03139 0.997943
1.02118 1.00433 1.01979 0.997048
1.02148 0.99872 1.02552 0.99734
0.971715 0.999632 0.973095 0.998949
1.03502 0.998241 1.03874 0.998181
1.04798 0.998674 1.05102 0.998433
0.571038 0.749741 0.84512 0.901231
0.495893 0.671274 0.85622 0.862785
0.607901 0.825832 0.847718 0.86834
0.48735 0.690228 0.825205 0.855631
0.614004 0.761102 0.884043 0.912546
0.785327 0.852179 0.973508 0.94663
0.855621 0.88376 0.995772 0.97227
0.847205 0.891764 0.974288 0.975105
0.566109 0.73755 0.843198 0.910288
0.736704 0.840198 0.926256 0.946631
0.821626 0.900595 0.932952 0.97788
0.708582 0.884148 0.845755 0.947591
0.988144 1 0.98902 0.999115
0.9846 1.00085 0.984253 0.999499
1.05008 0.997374 1.05396 0.998939
0.927534 0.922293 1.01184 0.993911
0.990385 0.965479 1.02643 0.999387
0.962727 0.969349 0.996996 0.996161
0.942556 0.98216 0.964814 0.994675
0.653976 0.791125 0.906598 0.911804
0.530461 0.712689 0.851308 0.874312
0.633265 0.823977 0.865342 0.888143
0.923603 0.919519 1.01173 0.992791
0.794952 0.888391 0.920571 0.972029
0.527208 0.69719 0.864924 0.874285
0.707229 0.872178 0.856317 0.946934
0.574455 0.737762 0.850631 0.915374
0.910373 0.942429 0.971238 0.994592
0.631964 0.784224 0.886476 0.909044
0.771637 0.930797 0.874081 0.948433
0.782491 0.899614 0.892787 0.974261
0.909577 0.966901 0.944493 0.995999
0.855172 0.971483 0.920215 0.956596
0.835674 0.948998 0.899468 0.979008
0.969343 0.982241 0.988374 0.998478
0.976693 1.00026 0.979189 0.99719
0.965887 1.00912 0.960095 0.99694
0.992998 1.00415 0.992622 0.996245
0.987165 1.0104 0.980798 0.996136
1.00633 1.06034 0.952113 0.9968
1.003 1.00921 0.999112 0.994728
1.02919 1.05669 0.977963 0.995925
1.04816 1.09959 0.956275 0.996809
1.04432 1.05934 0.990908 0.99487
1.07184 1.10169 0.976644 0.996173
1.05947 1.09591 0.969818 0.996834
1.06969 1.09629 0.978949 0.996722
1.06768 1.09513 0.978435 0.996424
1.07238 1.09311 0.984788 0.996196
1.0888 1.10005 0.994252 0.995495
1.08696 1.10092 0.991821 0.995459
1.08617 1.1053 0.987025 0.995611
1.09421 1.0998 0.999807 0.995109
1.08974 1.09576 0.999557 0.994949
1.0755 1.08166 0.999448 0.994857
1.07702 1.08223 1 0.995177
1.078 1.08338 1 0.995037
1.05325 1.05852 1.00017 0.994854
1.02655 1.02643 1.00387 0.996263
1.05592 1.05837 1.00233 0.995364
1.04222 1.04672 1.00056 0.99514
1.00689 1.00069 1.00765 0.998556
1.02599 1.01664 1.0124 0.996839
1.03937 1.03313 1.01018 0.995905
1 1 1 1
1.00795 1.00017 1.00884 0.998947
1.027 1.01306 1.01641 0.997391
0.99988 1 1 0.99988
1.00911 1.00004 1.00988 0.999197
1 1 1 1
1.02901 1.02099 1.01151 0.996386
1.01464 1.00654 1.01127 0.996814
1.0141 1.00721 1.00984 0.997024
1.01101 1.00594 1.00798 0.997086
1.01931 1.00268 1.01941 0.997231
1.02265 1 1.02478 0.997926
1.00619 1 1.00666 0.99954
1.01603 1 1.0179 0.998162
1.0229 1.00023 1.02536 0.997377
1 1 1 1
1.00243 1 1.00271 0.999719
1.00918 1 1.0108 0.998399
1 1 1 1
1.00023 1 1.0004 0.999833
1 1 1 1
0.617006 0.776913 0.873708 0.908972
0.523792 0.70488 0.85561 0.868496
0.625439 0.822338 0.860157 0.884213
1.02532 1.00227 1.02618 0.996904
1.04407 1.00212 1.04542 0.996594
1.02938 1.01449 1.01824 0.996504
1.02246 1.02451 1.00242 0.995591
1.03398 1.00578 1.03097 0.997161
1.02153 0.999899 1.02385 0.997829
1.02175 1.00381 1.02065 0.997268
1.0216 1.00075 1.02342 0.997469
0.997574 1.00999 0.990709 0.99697
0.964019 1.00236 0.963294 0.998393
0.969533 1.00127 0.970651 0.997578
0.978907 1.00124 0.978697 0.998973
1.04183 0.997457 1.04616 0.998402
0.781137 0.934044 0.87645 0.954187
0.568827 0.748535 0.840294 0.90435
0.481243 0.655067 0.84843 0.86589
0.556911 0.74354 0.830374 0.902004
0.741311 0.841088 0.927648 0.950115
0.857004 0.892641 0.981072 0.9786
0.817755 0.89506 0.931931 0.980364
0.738385 0.877201 0.880586 0.9559
0.83207 0.948196 0.896231 0.979133
0.981511 1.00024 0.982991 0.998258
0.991481 0.999407 0.992977 0.999086
0.985106 1.00037 0.985295 0.999435
0.968123 0.975292 0.996429 0.996207
0.952514 0.985827 0.970419 0.995661
0.851479 0.963016 0.929521 0.95122
0.643473 0.786828 0.894947 0.913804
0.522911 0.711187 0.841691 0.873558
0.91349 0.95199 0.966794 0.992515
0.785057 0.910132 0.88798 0.971389
0.619583 0.778652 0.876555 0.907772
0.781141 0.927941 0.87997 0.956623
0.919482 0.969305 0.952296 0.996118
0.857568 0.976707 0.918289 0.956147
0.832418 0.945823 0.902175 0.97553
0.911959 0.997694 0.9183 0.995389
0.883192 0.984398 0.910408 0.985481
0.974714 1.00204 0.975483 0.997175
0.9591 1.00908 0.953424 0.9969
0.964908 1.04661 0.924506 0.997218
0.986834 1.00967 0.981191 0.996119
1.01063 1.06255 0.954224 0.996761
1.03677 1.10274 0.94288 0.997136
1.02541 1.05416 0.976743 0.995891
1.04863 1.09889 0.957343 0.996779
1.05046 1.09979 0.95798 0.997045
1.0702 1.10112 0.975668 0.996159
1.05913 1.09524 0.970122 0.996811
1.06483 1.10138 0.969823 0.996901
1.06719 1.09479 0.977945 0.996779
1.07148 1.09656 0.980539 0.99653
1.06695 1.09501 0.977799 0.996501
1.0713 1.09292 0.983971 0.996188
1.07511 1.09049 0.9899 0.99595
1.09127 1.09888 0.997641 0.995424
1.09032 1.10057 0.995183 0.995483
1.08836 1.10113 0.992869 0.995498
1.08788 1.09319 1 0.995141
1.09684 1.10246 0.99981 0.995094
1.09051 1.09664 0.999434 0.994973
1.04248 1.04429 1.00243 0.995851
1.07558 1.08078 1 0.995186
1.08098 1.08638 1 0.995035
1.00544 1.0028 1.00454 0.998092
1.02798 1.02774 1.00398 0.996272
1.05707 1.05945 1.00238 0.995378
1 1 1 1
1.00654 1.00112 1.0069 0.998524
1.02744 1.01995 1.01054 0.99683
1 1 1 1
1.00728 1.00024 1.00812 0.998925
1 1 1 1
1.03583 1.03957 1.00086 0.99555
1.02724 1.02368 1.00712 0.996382
1.02182 1.01093 1.0143 0.996519
1.01297 1.00145 1.01473 0.996822
1.01601 1.00478 1.01425 0.996961
1.02249 1.00571 1.01919 0.997545
1.02092 1.00165 1.02207 0.997237
1.02441 1.00042 1.02613 0.997915
1.01138 1.00033 1.01177 0.999285
1 1 1 1
1.00589 1 1.00634 0.999554
1.01737 1 1.01925 0.99816
1 1 1 1
1.00267 1 1.00294 0.99973
1 1 1 1
0.850082 0.968648 0.915293 0.958815
0.635204 0.78837 0.885444 0.90996
0.5166 0.702981 0.849738 0.86482
1.05473 1.00153 1.05704 0.996296
1.02292 1.01345 1.01288 0.996516
1.03042 1.00768 1.02569 0.996952
1.02131 1.02345 1.00224 0.995678
1.04634 1.05097 1.00016 0.995436
1.00557 1.01679 0.992314 0.996621
1.02523 1.00406 1.02355 0.997592
0.998669 1.01125 0.990809 0.996718
0.971685 1.00274 0.970614 0.99837
1.0025 1.00987 0.995744 0.99694
0.973491 1.00431 0.971794 0.997442
0.985729 1.00175 0.986918 0.997045
0.968316 1.00161 0.969003 0.997687
0.986188 1.00075 0.986437 0.998998
0.839728 0.95889 0.894495 0.979021
0.781352 0.940036 0.87244 0.952724
0.585095 0.747029 0.856757 0.914179
0.707517 0.865908 0.863064 0.946721
0.830629 0.897341 0.94299 0.981617
0.840427 0.936766 0.911329 0.98445
0.94038 1.00302 0.941508 0.995799
0.977636 0.999811 0.97964 0.998142
0.994857 0.998692 0.997097 0.99906
0.961427 0.989209 0.975202 0.996629
0.872577 0.972604 0.915729 0.979717
0.855732 0.968189 0.920585 0.960094
0.632936 0.779084 0.898076 0.904612
0.917358 0.964418 0.954761 0.996274
0.830074 0.944626 0.899009 0.977447
0.84892 0.979463 0.907182 0.955397
0.913324 0.996006 0.92106 0.995577
0.88887 0.982339 0.919269 0.984316
0.935352 1.0262 0.915017 0.996122
0.939462 1.02772 0.91947 0.994185
0.951959 1.0091 0.946348 0.996854
0.961696 1.04326 0.924381 0.997227
1.00564 1.09586 0.920334 0.99711
1.01524 1.06529 0.956148 0.996722
1.03647 1.10244 0.942879 0.99711
1.05951 1.11078 0.956711 0.996995
1.04916 1.09846 0.958237 0.996748
1.05173 1.09968 0.959251 0.997025
1.07142 1.11067 0.967704 0.996856
1.05892 1.09483 0.970315 0.996789
1.06368 1.09935 0.970565 0.996896
1.07276 1.10261 0.976214 0.996633
1.06478 1.09348 0.976853 0.996834
1.07098 1.09639 0.98018 0.996575
1.07561 1.09449 0.986492 0.996208
1.0703 1.09281 0.983164 0.996181
1.07523 1.091 0.989567 0.99594
1.08443 1.09444 0.995109 0.995724
1.08731 1.09277 0.999714 0.995289
1.09276 1.09976 0.998249 0.995379
1.09181 1.10103 0.996144 0.99547
1.05788 1.06245 1 0.9957
1.08617 1.09146 1 0.995149
1.09955 1.10519 0.999819 0.995079
1.00936 1.0093 1.00227 0.997788
1.0416 1.04304 1.00277 0.995853
1.07267 1.07776 1.00008 0.995196
1 1 1 1
1.00645 1.0046 1.00378 0.998062
1.02935 1.02874 1.00432 0.996281
1 1 1 1
1.00658 1.00154 1.00655 0.998493
1 1 1 1
1.06336 1.06839 1 0.995294
1.03545 1.03955 1.00049 0.995563
1.0435 1.04267 1.005 0.995819
1.02604 1.02589 1.00378 0.996378
1.02666 1.01806 1.01205 0.996433
1.02694 1.0181 1.01169 0.997041
1.01645 1.00128 1.01831 0.996899
1.01951 1.00361 1.01833 0.997552
1.00921 1.00054 1.0097 0.99897
1.02154 1.00038 1.02329 0.997908
1.00859 1 1.0093 0.999297
1 1 1 1
1 1 1 1
1.00418 1 1.00461 0.99957
1 1 1 1
0.867698 0.959551 0.922055 0.980717
0.843038 0.964391 0.91981 0.950377
0.64454 0.779868 0.902337 0.915925
1.07659 1.08299 0.998598 0.995482
1.02641 1.00973 1.01984 0.996748
1.02131 1.02352 1.00208 0.995765
1.00828 1.01957 0.992266 0.99663
1.04824 1.05272 1.00032 0.995422
1.03475 1.03986 0.998531 0.996548
1.00077 1.01201 0.992396 0.996467
0.978041 1.00218 0.977526 0.998346
1.00052 1.01143 0.992238 0.996956
0.96512 1.00347 0.964408 0.997273
1.02247 1.02788 0.998519 0.996211
0.958988 1.00866 0.953434 0.997186
0.985913 1.0023 0.986545 0.997064
0.968465 1.00194 0.968729 0.997796
0.925439 1.00463 0.924411 0.996499
0.825636 0.949918 0.889532 0.977103
0.788441 0.948108 0.873963 0.95152
0.836586 0.930309 0.915857 0.981874
0.941876 1.00261 0.942081 0.997181
0.974136 0.999948 0.976126 0.998014
0.94875 1.0178 0.939509 0.992173
0.875089 0.960638 0.928736 0.980844
0.852302 0.968452 0.924997 0.951426
0.920563 0.9956 0.928575 0.995753
0.895505 0.985108 0.9247 0.983068
0.93707 1.02799 0.914873 0.996378
0.948103 1.02804 0.927211 0.99464
0.99142 1.06376 0.934974 0.996815
1.05309 1.12926 0.935567 0.996776
0.958096 1.03918 0.924533 0.997235
1.01264 1.09758 0.9253 0.997091
1.05847 1.12666 0.942444 0.996849
1.0364 1.10184 0.94336 0.997084
1.05631 1.10849 0.9558 0.996992
1.07425 1.12082 0.961576 0.996741
1.05299 1.09939 0.960671 0.997006
1.06885 1.10866 0.96712 0.996869
1.07681 1.10739 0.975711 0.996588
1.06257 1.09726 0.971406 0.996891
1.07341 1.10317 0.976315 0.99663
1.07623 1.09862 0.983222 0.996335
1.07045 1.09616 0.97985 0.996621
1.07514 1.09463 0.98589 0.996253
1.08333 1.09647 0.992058 0.995928
1.07533 1.09153 0.989183 0.995931
1.08404 1.09431 0.994865 0.995729
1.08844 1.09345 0.999957 0.995454
1.06406 1.06864 1 0.995714
1.08726 1.09258 0.999855 0.995267
1.09438 1.10077 0.998849 0.995335
1.018 1.02006 1.00028 0.997701
1.05623 1.06075 1.00004 0.9957
1.08515 1.09043 1 0.995156
0.999998 1 1 0.999998
1.01199 1.01292 1.00131 0.99777
1.04146 1.04322 1.00247 0.995855
0.999999 1 1 0.999999
1.00748 1.00685 1.00261 0.998033
1 1 1 1
1.08178 1.08722 0.99976 0.995238
1.06048 1.0655 1 0.995286
1.07314 1.07806 1 0.995443
1.03392 1.03824 1.00026 0.995577
1.04851 1.04757 1.00513 0.99578
1.03886 1.03499 1.00718 0.996575
1.03056 1.02432 1.00978 0.996348
1.0221 1.01193 1.01305 0.997047
1.00677 1.00114 1.00697 0.998661
1.02015 1.00138 1.02125 0.997551
1.01034 1.00089 1.01046 0.998987
1 1 1 1
1.0078 1 1.00849 0.999309
1 1 1 1
1 1 1 1
0.927372 1.00951 0.922468 0.995848
0.857116 0.959936 0.914267 0.976617
0.843402 0.96656 0.90975 0.959144
1.07125 1.07962 0.996127 0.996107
1.07706 1.09422 0.988464 0.995801
1.07562 1.08265 0.99791 0.995584
1.01027 1.0219 0.99195 0.996638
1.04986 1.05415 1.00052 0.995408
1.03736 1.04331 0.99775 0.996539
1.0557 1.08108 0.980318 0.996122
0.9997 1.0133 0.989573 0.996972
0.959552 1.00313 0.959338 0.997105
1.02665 1.03213 0.998313 0.99638
1.0216 1.06844 0.959826 0.996179
0.973846 1.03268 0.945612 0.997264
0.972557 1.01226 0.963569 0.997103
0.990903 1.00275 0.99108 0.99708
0.921336 1.00477 0.919828 0.996888
0.836438 0.954062 0.898954 0.975259
0.941795 1.00113 0.942038 0.998614
1.03479 1.09229 0.950022 0.9972
0.944078 1.01742 0.93507 0.992346
0.874511 0.96386 0.927361 0.978369
0.938757 1.03024 0.914296 0.996612
0.954425 1.0284 0.932619 0.995123
0.984601 1.06385 0.928254 0.997038
1.04938 1.12683 0.93424 0.996821
1.06367 1.14341 0.933226 0.996826
1.10831 1.17236 0.948199 0.997014
1.01946 1.10054 0.92905 0.997072
1.06354 1.13008 0.944091 0.99685
1.07688 1.1316 0.954816 0.996682
1.05268 1.10627 0.954432 0.99699
1.07436 1.12049 0.961967 0.996744
1.0746 1.11239 0.969353 0.996567
1.0662 1.10665 0.966459 0.996883
1.07781 1.1083 0.975815 0.996584
1.07856 1.10182 0.982474 0.996353
1.07407 1.10374 0.97641 0.996627
1.07687 1.09922 0.983277 0.996332
1.08194 1.09706 0.99016 0.996018
1.07466 1.09476 0.985287 0.996297
1.08301 1.09644 0.991778 0.995936
1.09178 1.09735 0.999353 0.995566
1.0836 1.0941 0.994649 0.995734
1.08789 1.09318 0.99969 0.995469
1.06383 1.06837 1 0.995755
1.02306 1.02538 1 0.997738
1.0638 1.06837 1 0.995717
1.08736 1.09256 1 0.995245
0.999996 1 1 0.999996
1.01928 1.02124 1.00039 0.997694
1.05413 1.05819 1.00047 0.9957
0.999996 1 1 0.999996
1.01431 1.01543 1.00115 0.997752
0.999996 1 1 0.999996
1.08255 1.09228 0.99558 0.995488
1.0801 1.08573 0.99955 0.995267
1.08138 1.08647 1 0.995318
1.05777 1.06278 1 0.995278
1.0727 1.07761 1 0.995438
1.03935 1.04078 1.00245 0.996187
1.05547 1.05467 1.00504 0.99574
1.0343 1.02968 1.00794 0.996575
1.00551 1.00298 1.00424 0.998289
1.01769 1.00795 1.01264 0.997058
1.00706 1.00103 1.00735 0.998684
1 1 1 1
1.00881 1.00017 1.00964 0.999004
1 1 1 1
1 1 1 1
0.979468 1.06082 0.925576 0.997553
0.929117 1.00783 0.927115 0.994369
0.860815 0.964908 0.912426 0.977746
1.0692 1.0933 0.981841 0.996045
1.069 1.07793 0.995363 0.99633
1.08191 1.10444 0.983532 0.996
1.0768 1.09495 0.987585 0.995779
1.07411 1.08186 0.997139 0.995687
1.07485 1.11672 0.966413 0.995962
1.04028 1.04702 0.997021 0.99653
1.05283 1.07715 0.981289 0.996061
1.04855 1.11524 0.943684 0.996307
1.02478 1.0363 0.992308 0.996549
1.02131 1.07023 0.95806 0.996066
0.965546 1.03919 0.931632 0.997316
0.981164 1.01471 0.969835 0.997016
0.917916 1.00504 0.915874 0.997207
1.09397 1.15834 0.947217 0.997063
1.03956 1.09822 0.949221 0.997231
0.946184 1.01655 0.937788 0.992531
0.977882 1.06301 0.922447 0.997255
1.04616 1.12417 0.93353 0.996865
1.05506 1.13789 0.930144 0.996844
1.11782 1.18044 0.949785 0.997019
1.09245 1.14865 0.954033 0.996897
1.06847 1.1329 0.946107 0.996852
1.07728 1.13032 0.956235 0.996692
1.07505 1.11662 0.966025 0.996632
1.07461 1.12012 0.962504 0.996746
1.07533 1.11246 0.969972 0.996547
1.07782 1.10344 0.980351 0.996357
1.07884 1.10924 0.975927 0.996581
1.07886 1.10209 0.982505 0.996349
1.0811 1.09691 0.989466 0.996084
1.07753 1.09984 0.983332 0.99633
1.08288 1.09794 0.990228 0.996017
1.09518 1.10158 0.99852 0.995666
1.08268 1.09644 0.991472 0.995944
1.09093 1.09664 0.999223 0.995572
1.06458 1.0691 1 0.995769
1.08714 1.0927 0.999418 0.995485
1.06477 1.0693 1 0.995757
1.02339 1.02523 1 0.99821
0.999191 1 1 0.999191
1.02316 1.02528 1 0.997933
1.06306 1.06763 1 0.99572
0.999999 1 1 0.999999
1.02074 1.02311 1 0.997687
0.999998 1 1 0.999998
1.08822 1.10625 0.987525 0.996134
1.08255 1.09776 0.990299 0.995806
1.08198 1.09271 0.994635 0.995524
1.07915 1.08433 0.99984 0.995376
1.07895 1.08473 0.999378 0.995297
1.07967 1.08476 1 0.995307
1.04353 1.04711 1.00067 0.995909
1.07284 1.07776 1 0.995432
1.04247 1.04428 1.00209 0.996183
1.00971 1.01066 1.00116 0.997904
1.02924 1.02322 1.00933 0.996575
1.00615 1.00269 1.00515 0.99831
0.999998 1 1 0.999998
1.00864 1.00156 1.00838 0.998708
1 1 1 1
1 1 1 1
1.08035 1.14581 0.945905 0.996788
0.994306 1.07317 0.928817 0.997515
0.926975 1.00746 0.926677 0.992916
1.0766 1.10647 0.976868 0.996037
1.06583 1.08962 0.982012 0.996085
1.06701 1.07643 0.994675 0.996552
1.08117 1.10206 0.984968 0.996016
1.07656 1.09559 0.986819 0.995757
1.08069 1.13214 0.958114 0.996287
1.06705 1.1101 0.96516 0.995917
1.05003 1.07332 0.982231 0.995999
1.0416 1.10802 0.943537 0.99631
1.02718 1.07385 0.960429 0.995953
0.95929 1.04945 0.916495 0.997376
1.0878 1.13614 0.960324 0.997007
1.095 1.15886 0.947646 0.997101
1.04418 1.10507 0.947488 0.997263
1.04657 1.13323 0.926435 0.996857
1.12683 1.18896 0.950572 0.997025
1.0949 1.15141 0.953875 0.9969
1.08347 1.11791 0.972331 0.996771
1.07764 1.12896 0.957703 0.996702
1.07595 1.11648 0.966975 0.996613
1.07912 1.10461 0.980435 0.996418
1.07606 1.11253 0.97059 0.996527
1.07837 1.10395 0.9804 0.996357
1.08033 1.0969 0.98872 0.996123
1.07918 1.10239 0.982537 0.996345
1.08181 1.09758 0.989508 0.996081
1.09568 1.1034 0.997256 0.995736
1.08378 1.09878 0.990295 0.996016
1.09359 1.10007 0.998435 0.99567
1.06605 1.0706 1 0.995749
1.0901 1.09594 0.999093 0.995578
1.06574 1.07027 1 0.995774
1.02187 1.02366 1 0.998246
1.06613 1.07067 1 0.99576
1.02293 1.02478 1 0.998203
0.999231 1 1 0.999231
0.999618 1 1 0.999618
1.02349 1.02539 1 0.998149
1 1 1 1
1.07849 1.10196 0.982479 0.996149
1.08497 1.09826 0.991929 0.995939
1.08654 1.10445 0.987466 0.996267
1.08609 1.09163 0.9994 0.99552
1.08437 1.09909 0.990764 0.995805
1.08143 1.09316 0.993678 0.995561
1.07919 1.08425 0.999964 0.995366
1.05864 1.0631 1 0.995809
1.0775 1.08259 1 0.995296
1.04811 1.05203 1.00037 0.995909
1.01957 1.02174 1.00014 0.997743
1.04337 1.04581 1.00149 0.996181
1.00746 1.00734 1.00219 0.99793
0.999998 1 1 0.999998
1.00599 1.00182 1.00584 0.998334
1 1 1 1
1 1 1 1
1.08121 1.12941 0.960528 0.99666
1.0701 1.13422 0.946505 0.996793
1.00771 1.08242 0.933339 0.997473
1.07863 1.11324 0.972588 0.996225
1.07332 1.10395 0.976124 0.99603
1.06216 1.08575 0.982078 0.996128
1.08021 1.09956 0.986317 0.996032
1.08175 1.13157 0.959562 0.996259
1.05895 1.1029 0.96413 0.995872
1.03138 1.09618 0.944365 0.996313
1.08723 1.12108 0.972878 0.996837
1.08651 1.13389 0.961132 0.996963
1.09577 1.15841 0.948642 0.997138
1.08202 1.10909 0.978836 0.996682
1.09725 1.15397 0.9538 0.996902
1.08307 1.11765 0.97221 0.996756
1.08166 1.10546 0.981863 0.996542
1.07681 1.11631 0.967915 0.996594
1.07953 1.10503 0.980424 0.996421
1.08006 1.09645 0.988844 0.996161
1.07888 1.10442 0.980451 0.996356
1.08052 1.09713 0.988694 0.996122
1.09535 1.10416 0.996215 0.995789
1.08254 1.09828 0.989551 0.996079
1.09465 1.10232 0.997297 0.995738
1.06622 1.07079 1 0.995726
1.09197 1.09852 0.998354 0.995674
1.06776 1.07232 1 0.995754
1.02047 1.02227 1 0.998233
1.06695 1.07148 1 0.995777
1.02143 1.02325 1 0.998229
0.999235 1 1 0.999235
1.02232 1.02416 1 0.9982
0.999253 1 1 0.999253
1 1 1 1
1.07815 1.10071 0.983374 0.996065
1.07949 1.09591 0.98901 0.995971
1.08083 1.10331 0.983413 0.996149
1.09144 1.09784 0.99853 0.995634
1.08409 1.09954 0.989911 0.995994
1.08516 1.1029 0.98747 0.996399
1.06978 1.07429 1 0.995799
1.08762 1.09304 0.999537 0.99551
1.08669 1.10095 0.991213 0.995803
1.07918 1.08422 1 0.995355
1.0596 1.06406 1 0.995807
1.02591 1.02822 1 0.997757
1.05371 1.05804 1 0.995909
1.01638 1.01832 1.00033 0.997758
1 1 1 1
1.0065 1.00543 1.00312 0.997952
0.999997 1 1 0.999997
1 1 1 1
1.08108 1.11349 0.974247 0.996556
1.08227 1.13165 0.959594 0.996634
1.06212 1.12621 0.946117 0.996798
1.07809 1.11236 0.972845 0.996243
1.06999 1.10149 0.975282 0.996023
1.08364 1.13213 0.960785 0.996231
1.08482 1.11065 0.979994 0.99668
1.08747 1.12093 0.973227 0.996833
1.08544 1.13193 0.9619 0.996919
1.08249 1.10916 0.979186 0.996704
1.08012 1.10072 0.984718 0.996512
1.08265 1.11738 0.972089 0.996741
1.08209 1.10523 0.982503 0.996505
1.07854 1.09519 0.988494 0.996257
1.07994 1.10546 0.980413 0.996425
1.07991 1.09632 0.98883 0.996163
1.095 1.10462 0.995452 0.995819
1.0808 1.09745 0.988663 0.996122
1.09472 1.10364 0.996111 0.995789
1.06449 1.06906 1 0.995727
1.09361 1.10123 0.99733 0.99574
1.06806 1.07264 1 0.995729
1.01763 1.01947 1 0.998196
1.0695 1.07405 1 0.995758
1.01962 1.02145 1 0.99821
0.999214 1 1 0.999214
1.02097 1.02279 1 0.998218
0.999271 1 1 0.999271
0.999268 1 1 0.999268
1.07937 1.10206 0.982997 0.996348
1.08114 1.09519 0.991196 0.995938
1.07748 1.10178 0.981781 0.996089
1.09191 1.10097 0.996036 0.995725
1.08036 1.09547 0.990216 0.995955
1.08312 1.10462 0.984332 0.996149
1.06923 1.07375 1 0.995796
1.0914 1.09865 0.997719 0.995664
1.08291 1.10056 0.987864 0.996049
1.02445 1.0267 1 0.997809
1.06733 1.07183 1 0.995796
1.08863 1.09382 0.999761 0.9955
1.06047 1.06494 1 0.995804
1.02482 1.02712 1 0.997764
1 1 1 1
1.01261 1.01422 1.00064 0.997773
0.999998 1 1 0.999998
1 1 1 1
1.08074 1.10492 0.981482 0.996569
1.08101 1.11351 0.974182 0.996543
1.08269 1.13314 0.95873 0.996607
1.07789 1.11163 0.973287 0.996261
1.08051 1.09773 0.987798 0.996471
1.08495 1.11102 0.979777 0.996692
1.08783 1.12082 0.973658 0.996829
1.08297 1.10921 0.979551 0.996727
1.08007 1.10108 0.984343 0.996522
1.07904 1.09377 0.990246 0.99625
1.08257 1.10501 0.983161 0.996469
1.07964 1.0954 0.989362 0.996208
1.09349 1.10383 0.994708 0.995897
1.07979 1.09621 0.988818 0.996166
1.09437 1.1039 0.995519 0.99582
1.06211 1.06666 1 0.995734
1.09393 1.10293 0.99603 0.99579
1.06603 1.0706 1 0.995728
1.01321 1.01547 1 0.997776
1.06982 1.07441 1 0.995733
1.01622 1.01827 1 0.997989
1 1 1 1
1.01878 1.02063 1 0.998189
0.999256 1 1 0.999256
0.999298 1 1 0.999298
1.07961 1.0982 0.986566 0.99646
1.07864 1.0938 0.990013 0.996088
1.08006 1.10148 0.98416 0.996343
1.09241 1.10015 0.997205 0.995746
1.08012 1.09452 0.990866 0.995938
1.07682 1.10286 0.9802 0.996113
1.06756 1.07215 0.999941 0.995783
1.0925 1.10087 0.996656 0.995725
1.08131 1.09505 0.991478 0.995939
1.02028 1.02248 1 0.997849
1.06721 1.07171 1 0.995797
1.0913 1.09942 0.9969 0.995694
1 1 1 1
1.02555 1.02779 1 0.997816
1.06508 1.06958 1 0.995792
1.02381 1.0261 1 0.997772
1 1 1 1
0.999996 1 1 0.999996
1.07937 1.0954 0.988858 0.99647
1.08197 1.10564 0.981959 0.996575
1.08079 1.11342 0.974078 0.996529
1.07899 1.09166 0.992168 0.996196
1.07949 1.09738 0.987171 0.99648
1.08509 1.1114 0.979553 0.996703
1.07999 1.10144 0.983934 0.996533
1.07897 1.09386 0.990099 0.99625
1.09377 1.10256 0.996143 0.995871
1.08065 1.09553 0.990221 0.996159
1.09402 1.1036 0.995466 0.995842
1.05946 1.06459 0.999395 0.995782
1.09385 1.10333 0.995569 0.995822
1.06333 1.06789 1 0.995734
1.00926 1.0115 1 0.997785
1.06775 1.07233 1 0.99573
1.01201 1.01426 1 0.997776
1 1 1 1
1.01484 1.01713 1 0.997746
0.999599 1 1 0.999599
0.999293 1 1 0.999293
1.07563 1.09154 0.988947 0.996434
1.0782 1.0908 0.99223 0.996186
1.07896 1.09736 0.986717 0.996469
1.09152 1.09906 0.997365 0.995754
1.07915 1.09396 0.990348 0.996077
1.08068 1.10081 0.985315 0.996338
1.06508 1.06995 0.999711 0.995742
1.0928 1.10015 0.9976 0.995709
1.07902 1.09382 0.990489 0.995938
1.01635 1.01855 1 0.997839
1.06651 1.07115 0.999885 0.995776
1.09302 1.10077 0.997223 0.995725
1 1 1 1
1.02161 1.02381 1 0.997856
1.06544 1.06994 1 0.995797
1 1 1 1
1.02661 1.02885 1 0.997823
0.999998 1 1 0.999998
1.07934 1.09116 0.992908 0.996228
1.07843 1.09461 0.988718 0.996458
1.0832 1.10634 0.982446 0.99658
1.09385 1.10229 0.996467 0.995864
1.07848 1.09168 0.991665 0.996214
1.07848 1.09703 0.986546 0.99649
1.07892 1.09395 0.989972 0.996251
1.09306 1.10207 0.995935 0.995872
1.05687 1.06189 0.999476 0.995794
1.09454 1.10335 0.996206 0.995786
1.06044 1.0653 0.999689 0.995755
1.00623 1.00846 1 0.997783
1.06433 1.06889 1 0.995734
1.00824 1.01048 1 0.997784
1 1 1 1
1.01072 1.01297 1 0.997774
1 1 1 1
0.999271 1 1 0.999271
1.07812 1.0897 0.993143 0.996204
1.07417 1.09112 0.987973 0.996445
1.09151 1.09915 0.997224 0.995823
1.07879 1.09131 0.992311 0.996186
1.0783 1.09654 0.986847 0.996478
1.06293 1.06751 1 0.995705
1.09216 1.09973 0.997353 0.995751
1.07977 1.09424 0.990671 0.996066
1.01281 1.01505 1 0.997797
1.0645 1.06921 0.999875 0.99572
1.09336 1.10022 0.998086 0.995672
1 1 1 1
1.0175 1.0197 1 0.997843
1.0655 1.07019 0.999838 0.99577
1 1 1 1
1.02286 1.02505 1 0.997863
1 1 1 1
1.09297 1.10075 0.997044 0.995876
1.07939 1.09104 0.993072 0.99622
1.07745 1.09377 0.988585 0.996446
1.05561 1.06059 0.999493 0.995807
1.09319 1.1017 0.996395 0.995864
1.07795 1.09167 0.991168 0.996231
1.09235 1.10158 0.995731 0.995872
1.05748 1.06259 0.999391 0.995791
1.00461 1.00683 1 0.997797
1.06153 1.06608 1 0.995728
1.00573 1.00796 1 0.997782
1 1 1 1
1.00729 1.00953 1 0.997783
1 1 1 1
1 1 1 1
1.0925 1.09969 0.997595 0.995864
1.0778 1.08987 0.992652 0.996249
1.07283 1.09081 0.987015 0.996457
1.05999 1.06453 1 0.995738
1.09187 1.09949 0.997233 0.99582
1.07938 1.09181 0.992407 0.996185
1.00939 1.01164 1 0.997777
1.06176 1.06634 1 0.995703
1.09275 1.10034 0.997345 0.995748
1 1 1 1
1.01382 1.01605 1 0.9978
1.06375 1.06835 1 0.995697
1 1 1 1
1.01862 1.02081 1 0.997848
1 1 1 1
1.05642 1.06092 1 0.995763
1.09237 1.10051 0.996696 0.995896
1.07946 1.09096 0.993222 0.996212
1.00359 1.00576 1 0.997841
1.05612 1.06117 0.99944 0.995805
1.09252 1.10112 0.996305 0.995864
1.05804 1.06326 0.999303 0.995787
1.00427 1.00649 1 0.997797
1 1 1 1
1.00521 1.00745 1 0.99778
1 1 1 1
1 1 1 1
1.05755 1.06205 1 0.995763
1.0921 1.09957 0.9973 0.995894
1.07738 1.08994 0.992153 0.996295
1.00701 1.00882 1 0.998207
1.0591 1.06363 1 0.995738
1.09208 1.09971 0.99724 0.995817
1 1 1 1
1.01035 1.0126 1 0.997778
1.06059 1.06517 1 0.995701
1 1 1 1
1.01488 1.01711 1 0.997803
1 1 1 1
1.00339 1.00559 1 0.997809
1.05567 1.06043 0.999725 0.995788
1.09177 1.10023 0.996375 0.995916
1 1 1 1
1.00347 1.00565 1 0.997839
1.05668 1.06178 0.999391 0.995803
1.00397 1.00619 1 0.997796
1 1 1 1
1 1 1 1
1.00503 1.00685 1 0.998196
1.0571 1.06159 1 0.995765
1.09186 1.09961 0.997014 0.995924
1 1 1 1
1.0074 1.00962 1 0.997797
1.05843 1.06296 1 0.995738
1 1 1 1
1.01132 1.01357 1 0.997779
1 1 1 1
0.999307 1 1 0.999307
1.00395 1.00593 1 0.998032
1.05495 1.05999 0.999429 0.995812
1 1 1 1
1.00332 1.0055 1 0.99784
1 1 1 1
0.999307 1 1 0.999307
1.00538 1.00738 1 0.998016
1.05647 1.06097 1 0.995766
0.999642 1 1 0.999642
1.00811 1.01033 1 0.997802
1 1 1 1
1 1 1 1
1.00408 1.00624 1 0.997858
1 1 1 1
0.999656 1 1 0.999656
1.0058 1.00797 1 0.997843
1 1 1 1
1 1 1 1
1 1 1 1

VECTORS lamdaE float
1.00346 0.999843 0.991568
1.00315 1.00059 0.995626
1.00282 1.00003 0.992059
1.0027 1.00019 0.992166
1.00325 0.999968 0.99171
1.00367 0.999755 0.991401
1.00376 1.00103 0.989026
1.00326 1.00067 0.995529
1.00229 1.00007 0.996524
1.00221 1.00062 0.996462
1.00279 1.00148 0.990836
1.00389 1.00213 0.986174
1.00203 0.999934 0.993135
1.00161 1.00016 0.993404
1.00222 1.00024 0.992522
1.00223 1.0002 0.992643
1.00295 1.00009 0.991853
1.0027 1.00004 0.992199
1.00406 1.00095 0.988727
1.00209 1 0.9963
1.00249 1.00018 0.992392
1.00298 1.00009 0.991935
1.00352 1.00021 0.990253
1.00376 1.00068 0.98945
1.00395 0.999815 0.99105
1.00381 1.00154 0.988387
1.0053 1.00147 0.985257
1.00341 1.00074 0.995421
1.00263 0.999977 0.994297
1.00271 1.00033 0.994114
1.0032 1.00133 0.995344
1.00392 1.00216 0.986122
1.00262 0.999935 0.992282
1.00298 0.999889 0.991891
1.00417 1.00067 0.989316
1.00129 1.00279 0.99628
1.00421 1.00145 0.988667
1.00408 1.00274 0.985189
1.00548 1.00291 0.982999
1.00171 1.00149 0.996164
1.00206 0.999984 0.996305
1.00194 1.00009 0.994794
1.00199 0.99995 0.996376
1.00145 1.00011 0.993623
1.00352 0.999765 0.989476
1.00186 1.00006 0.9967
1.00385 1.00019 0.990321
1.0018 1.00016 0.993118
1.00218 1.0001 0.992673
1.0023 1.00039 0.99229
1.00435 1.00085 0.988444
1.00185 1.00001 0.994923
1.00203 1.00023 0.992875
1.00318 1.00033 0.991463
1.00249 1.00011 0.992412
1.00376 1.00018 0.989968
1.00416 1.00138 0.988104
1.00402 1.00061 0.98916
1.00531 1.00137 0.985438
1.00198 0.999977 0.996358
1.00234 1.00008 0.992684
1.00323 0.999813 0.991358
1.00338 1.00002 0.990662
1.00367 1.00041 0.989831
1.00541 0.999087 0.987713
1.0053 0.999814 0.986978
1.00381 1.00032 0.990764
1.00393 1.00248 0.98741
1.00533 1.00267 0.983947
1.00535 0.997219 0.988706
1.00313 0.999893 0.995784
1.00304 1.00138 0.995477
1.00328 1.00021 0.995677
1.00393 1.00218 0.986064
1.00271 0.999956 0.995923
1.00314 0.999945 0.995769
1.00398 1.00073 0.987602
1.00179 1.00232 0.993697
1.00395 1.00142 0.986898
1.0041 1.00289 0.986313
1.00545 1.0029 0.98297
1.00216 1.00193 0.995725
1.00257 1.00354 0.987355
1.00398 1.00046 0.988019
1.00419 1.00084 0.987217
1.00536 0.999632 0.986634
1.00376 1.00354 0.987204
1.00534 1.00157 0.984507
1.00549 1.00448 0.98141
1.00557 0.999613 0.985713
1.0011 1.00145 0.996676
1.00137 1.00167 0.996394
1.00236 1.00004 0.996083
1.00212 0.999986 0.996269
1.00203 0.999955 0.996366
1.00183 1.00001 0.994949
1.00355 0.99977 0.99021
1.00216 1.00006 0.99463
1.0037 1.0002 0.989591
1.00199 0.999951 0.996393
1.00335 0.999612 0.989794
1.00377 1 0.990615
1.00532 0.997463 0.989207
1.00387 1.00029 0.990089
1.00532 0.997846 0.988744
1.00204 0.999906 0.993149
1.00155 1.00027 0.99336
1.00233 1.00091 0.991865
1.00201 1.00009 0.992883
1.00399 1.00018 0.989684
1.00427 1.00057 0.988878
1.00447 1.00131 0.987824
1.00531 1.00127 0.985616
1.00202 0.999956 0.996376
1.0019 1.00007 0.993162
1.00348 0.999633 0.9903
1.00361 0.999987 0.99038
1.00329 1.00103 0.993094
1.00423 1.00225 0.987468
1.00391 1.00037 0.989547
1.0054 0.9987 0.988128
1.00534 1.0026 0.984142
1.0053 1.00012 0.986698
1.00536 0.997247 0.988673
1.00335 0.99963 0.989796
1.0033 0.999756 0.991045
1.00533 0.997442 0.989582
1.00537 0.998079 0.988841
1.00539 0.998924 0.987815
1.00529 0.995741 0.990802
1.00258 1.00158 0.995769
1.00532 0.996127 0.989906
1.00393 1.00308 0.985015
1.00536 1.00371 0.982075
1.00536 0.998527 0.987392
1.00537 0.994952 0.990796
1.00302 1.00362 0.986171
1.00447 1.00411 0.984233
1.00287 0.999931 0.995864
1.00325 0.999954 0.995748
1.00393 1.00079 0.987604
1.00244 1.00175 0.995624
1.00374 1.00321 0.985292
1.00397 1.00138 0.986866
1.00545 1.00274 0.982944
1.00208 1.00173 0.995873
1.0026 1.00361 0.987283
1.00401 1.00052 0.988819
1.00421 1.00096 0.988074
1.00535 0.999626 0.986616
1.00333 1.00364 0.985453
1.00537 1.00161 0.984466
1.00548 1.0043 0.981361
1.00559 0.999343 0.986034
1.00318 1.00362 0.986124
1.00215 1.00328 0.988356
1.00287 1.00246 0.986363
1.00541 0.998886 0.98742
1.00533 1.0005 0.985692
1.00529 0.995693 0.990417
1.00466 1.0051 0.982109
1.0055 0.997571 0.988218
1.00563 1.00197 0.983973
1.00565 0.997175 0.987674
1.00062 1.00078 0.997267
1.00085 1.00133 0.996885
1.00118 1.0017 0.996535
1.00234 1.004 0.987301
1.00181 1.00203 0.996016
1.0026 0.999987 0.995974
1.00221 1.00001 0.996173
1.00349 1.00026 0.988926
1.00337 0.999778 0.989584
1.00201 0.999955 0.99635
1.00197 0.999945 0.996391
1.00334 0.99962 0.989792
1.00362 0.999967 0.989914
1.00531 0.997475 0.989217
1.00367 1.00039 0.988519
1.00532 0.997866 0.988751
1.00333 0.999563 0.989865
1.00532 0.997425 0.989252
1.00531 0.997581 0.98907
1.00532 0.994952 0.991874
1.00537 0.998288 0.988158
1.00532 0.994954 0.991673
1.00198 0.999952 0.996383
1.0014 1.00017 0.993639
1.00352 0.999521 0.989438
1.00385 0.99997 0.990098
1.00219 1.00192 0.996024
1.00457 1.00194 0.987541
1.00415 1.00037 0.989266
1.0054 0.998307 0.988541
1.0053 1.00041 0.986417
1.00534 1.00245 0.984351
1.00538 0.997289 0.98864
1.00334 0.999619 0.989795
1.0035 0.999766 0.990776
1.00532 0.997337 0.989569
1.00536 0.998356 0.988574
1.00277 1.00151 0.995633
1.00395 1.00308 0.986246
1.00538 1.00378 0.982435
1.00539 0.998971 0.987814
1.0053 0.99537 0.991115
1.00536 0.998435 0.98748
1.00531 0.996464 0.989584
1.00537 0.994969 0.990744
1.00298 1.00365 0.986112
1.00367 1.00472 0.98416
1.00532 0.997517 0.989164
1.00534 0.997777 0.989307
1.00534 0.995363 0.991276
1.0053 0.99493 0.991572
1.00535 0.996053 0.990052
1.00519 0.994944 0.991541
1.00355 1.00334 0.985448
1.00533 0.994839 0.991077
1.00542 1.00462 0.98116
1.00543 0.999587 0.985979
1.00535 0.996054 0.989746
1.00539 0.994763 0.990831
1.0049 1.00513 0.981946
1.00203 1.00493 0.987165
1.00518 1.0043 0.982308
1.0038 1.00059 0.988053
1.00174 1.00177 0.996125
1.00238 1.00368 0.987215
1.00398 1.00102 0.987243
1.00534 0.999615 0.986601
1.00343 1.00359 0.985521
1.00547 1.00426 0.981313
1.00538 1.00165 0.984418
1.00559 0.999062 0.986359
1.00288 1.00376 0.986281
1.00194 1.00342 0.988338
1.00309 1.0036 0.986459
1.00539 0.998889 0.987422
1.00534 1.00052 0.985655
1.00533 0.995635 0.990438
1.00499 1.00439 0.98204
1.00547 0.997609 0.988203
1.00563 1.00176 0.983943
1.00562 0.996924 0.987885
1.00159 1.00284 0.989879
1.00295 1.00442 0.985062
1.00325 1.00375 0.986008
1.0024 1.0026 0.986765
1.00528 0.995164 0.991119
1.0054 0.996548 0.989327
1.00536 0.994875 0.990938
1.0055 1.00427 0.982182
1.00546 0.995308 0.990171
1.00555 1.00021 0.985647
1.00559 0.996262 0.988711
1.00087 1.00441 0.989609
1.00061 1.00197 0.992035
1.00042 0.99967 0.99778
1.00045 1.00044 0.997489
1.00052 1.00116 0.99715
1.00064 1.00377 0.989962
1.00092 1.00197 0.996532
1.00235 1.00386 0.987188
1.00205 1.00194 0.995942
1.00363 1.00044 0.988518
1.00345 0.999953 0.98928
1.00532 0.99788 0.988764
1.0053 0.997488 0.989227
1.00335 0.999631 0.989797
1.00202 0.999934 0.996386
1.00334 0.999563 0.98987
1.00531 0.997437 0.98926
1.0053 0.997597 0.989081
1.00533 0.994952 0.991873
1.00536 0.998297 0.98817
1.00531 0.994955 0.991681
1.00532 0.997461 0.989231
1.00534 0.994953 0.991899
1.00532 0.994957 0.9918
1.00525 0.994929 0.99174
1.00532 0.994952 0.99148
1.00523 0.994949 0.991543
1.00335 0.999618 0.989801
1.00374 0.9997 0.990508
1.00532 0.997213 0.98956
1.00536 0.998604 0.988309
1.00295 1.00144 0.995489
1.00423 1.00298 0.987184
1.00541 1.00374 0.98278
1.00538 0.999002 0.987813
1.00531 0.994995 0.99143
1.00531 0.996791 0.989262
1.00538 0.998368 0.987568
1.00536 0.994986 0.990692
1.00298 1.00365 0.986052
1.00312 1.00463 0.984095
1.00532 0.997304 0.989416
1.00534 0.997683 0.989327
1.00535 0.995382 0.991247
1.00531 0.995232 0.991303
1.00348 1.00342 0.985425
1.00542 1.00454 0.981207
1.00543 0.999982 0.985649
1.00532 0.996096 0.990136
1.00519 0.99494 0.991462
1.00535 0.995804 0.989981
1.00534 0.99484 0.991036
1.00538 0.994759 0.990797
1.0048 1.00495 0.981969
1.00466 1.0049 0.982612
1.00183 1.00463 0.987312
1.00535 0.995367 0.991349
1.00533 0.995485 0.991074
1.00524 0.994925 0.991832
1.00521 0.99494 0.991503
1.00523 0.994895 0.991179
1.00535 0.994903 0.991091
1.00535 1.0052 0.98095
1.00535 0.994841 0.990832
1.00555 1.00157 0.983949
1.00544 0.997028 0.988377
1.00541 0.995043 0.990561
1.00543 0.994752 0.990643
1.00181 1.00259 0.988282
1.00532 1.00482 0.981533
1.00323 1.00472 0.984463
1.00507 1.00474 0.982115
1.00536 0.998891 0.987425
1.00171 1.00367 0.988319
1.00282 1.00382 0.986405
1.00289 1.00465 0.986541
1.00534 1.00053 0.985622
1.00537 0.995577 0.990459
1.00543 1.00366 0.981946
1.00564 1.00157 0.98391
1.00545 0.997644 0.988188
1.0056 0.996698 0.988095
1.00127 1.00302 0.989909
1.00373 1.00399 0.985152
1.00292 1.00396 0.98588
1.00332 1.00237 0.986889
1.0053 0.99513 0.991144
1.00541 0.996467 0.989355
1.00534 0.994873 0.990964
1.00551 1.00416 0.981994
1.00546 0.995501 0.990024
1.00555 1.00012 0.985624
1.00563 0.99631 0.988937
1.00107 1.00232 0.991165
1.00272 1.00518 0.986326
1.0035 1.00514 0.983167
1.00298 1.0026 0.987373
1.00309 1.0026 0.987716
1.00526 0.99492 0.991165
1.00544 0.994862 0.9906
1.0054 0.994855 0.990617
1.00526 1.00339 0.983238
1.00548 0.995196 0.990144
1.00528 0.99929 0.986608
1.00136 1.00491 0.988148
1.00054 1.00511 0.989204
1.00031 1.00387 0.990914
1.00045 1.00455 0.989624
1.00032 1.00115 0.994292
1.00049 1.00192 0.992719
1.00052 0.998995 0.995779
1.00035 0.999722 0.997869
1.00043 1.00028 0.997644
1.00017 1.0027 0.991964
0.999952 1.00081 0.997685
1.00104 1.0034 0.989851
1.00127 1.00197 0.996301
1.00243 1.00365 0.987071
1.00225 1.00182 0.995844
1.00535 0.998317 0.988179
1.0053 0.997614 0.989089
1.00531 0.994956 0.99169
1.00534 0.994952 0.991873
1.00531 0.997451 0.989265
1.00333 0.999553 0.989871
1.00532 0.997466 0.989231
1.00534 0.994953 0.991897
1.00532 0.994957 0.991804
1.00525 0.994927 0.991738
1.00531 0.994948 0.9915
1.00523 0.99495 0.99154
1.00535 0.994953 0.991897
1.00524 0.994932 0.991789
1.00525 0.99493 0.991686
1.00534 0.994907 0.991593
1.00521 0.994948 0.991339
1.00531 0.994928 0.991293
1.00532 0.997111 0.989665
1.00533 0.997615 0.989347
1.00535 0.995402 0.991218
1.00532 0.995552 0.991033
1.00343 1.00351 0.985416
1.00543 1.00467 0.981249
1.0054 1.0003 0.985323
1.00529 0.996142 0.990218
1.00519 0.994935 0.991384
1.00535 0.994842 0.990994
1.00536 0.995538 0.990216
1.00537 0.994761 0.990762
1.00444 1.00521 0.981996
1.00392 1.00527 0.982917
1.00159 1.00462 0.987449
1.00534 0.995168 0.991613
1.00533 0.995459 0.991082
1.00525 0.994923 0.991779
1.00521 0.99494 0.991572
1.00517 1.00517 0.98104
1.00553 1.00171 0.984014
1.00545 0.997225 0.987971
1.00525 0.9949 0.991225
1.00535 0.994898 0.991052
1.0054 0.994963 0.990582
1.00536 0.994842 0.990833
1.00543 0.994766 0.990632
1.00514 1.0049 0.981618
1.0051 1.00452 0.982165
1.00208 1.00319 0.988331
1.00346 1.00433 0.984667
1.00524 0.99493 0.9918
1.00524 0.994924 0.991683
1.00535 0.994912 0.991594
1.00536 0.994891 0.99117
1.00532 0.994899 0.990868
1.00539 0.994864 0.990887
1.00552 1.00331 0.982379
1.00539 0.994824 0.99063
1.00555 0.999394 0.985722
1.00547 0.996137 0.989021
1.00546 0.994768 0.990607
1.0054 0.994786 0.990587
1.00319 1.00246 0.986842
1.00224 1.0049 0.984897
1.00518 1.00421 0.982223
1.00514 1.00512 0.983583
1.00501 1.00438 0.982738
1.00099 1.00308 0.989949
1.00533 0.995095 0.991168
1.00333 1.0041 0.985741
1.00379 1.00374 0.985282
1.0042 1.00198 0.987016
1.00541 0.996386 0.989382
1.00531 0.994871 0.99099
1.0055 1.00399 0.98182
1.00553 1.00001 0.985603
1.00546 0.995689 0.989876
1.00566 0.996343 0.989166
1.00086 1.00243 0.991189
1.00223 1.0052 0.986225
1.00425 1.00469 0.983164
1.00312 1.0028 0.987297
1.00368 1.00191 0.986833
1.00524 0.994921 0.991172
1.00543 0.994859 0.990639
1.00539 0.994853 0.990624
1.00516 1.00353 0.983276
1.00551 0.995231 0.990049
1.00524 0.999518 0.986992
1.00187 1.0051 0.987153
1.00318 1.00517 0.985784
1.00363 1.00505 0.98412
1.00378 1.00263 0.986306
1.0047 1.00325 0.985295
1.00536 0.994867 0.990835
1.00542 0.994838 0.990455
1.00539 0.994763 0.990502
1.00507 1.00195 0.984365
1.00524 0.998055 0.987839
1.00118 1.005 0.988179
1.00117 1.00511 0.987589
0.999716 1.00512 0.989329
1.00001 1.00505 0.991087
1.00021 1.00491 0.990525
0.999916 1.00349 0.991695
0.999992 1.00407 0.990939
1.00013 1.00059 0.995025
1.00024 1.00476 0.989638
1.00029 1.00104 0.994422
1.00034 0.998129 0.9966
1.00044 1.00196 0.993386
1.0003 0.99915 0.996995
1.00023 0.99965 0.99796
1.0004 1.00265 0.991902
1.00036 1.00214 0.992037
0.999906 1.00021 0.998068
1.00049 1.00104 0.997194
1.00145 1.00305 0.989756
1.00151 1.00222 0.996137
1.0053 0.994945 0.991519
1.00532 0.994957 0.991807
1.00524 0.99495 0.991537
1.00525 0.994925 0.991735
1.00535 0.994953 0.991895
1.00532 0.997467 0.989233
1.00535 0.994953 0.991895
1.00524 0.994932 0.991796
1.00525 0.99493 0.991685
1.00534 0.994904 0.991585
1.00522 0.99495 0.991336
1.00531 0.994924 0.991308
1.00524 0.994933 0.991813
1.00533 0.994912 0.991692
1.00532 0.994905 0.991514
1.00534 0.994893 0.991605
1.00532 0.994917 0.991092
1.00531 0.994907 0.991274
1.00534 0.994951 0.991879
1.00533 0.995433 0.991089
1.00525 0.99492 0.991726
1.00521 0.994941 0.99164
1.00503 1.00514 0.981118
1.0055 1.00198 0.984075
1.00547 0.997413 0.987568
1.00526 0.994906 0.991272
1.00534 0.994895 0.991012
1.00536 0.994844 0.990833
1.00539 0.994875 0.990604
1.00544 0.994773 0.990619
1.00502 1.00499 0.981696
1.00514 1.00466 0.982208
1.00239 1.00378 0.988377
1.00372 1.00359 0.984841
1.00524 0.99493 0.991801
1.00524 0.994924 0.991697
1.00535 0.994911 0.99157
1.00535 0.994893 0.991165
1.00551 1.00354 0.982457
1.0056 0.999436 0.985525
1.00546 0.996073 0.989031
1.00533 0.994901 0.990907
1.00539 0.994858 0.990878
1.00547 0.994735 0.990617
1.00539 0.994825 0.990625
1.0054 0.994787 0.990615
1.00518 1.00454 0.982223
1.00491 1.00449 0.982811
1.00421 1.00446 0.983706
1.00273 1.00318 0.986996
1.00286 1.00518 0.984844
1.00534 0.994901 0.991651
1.00535 0.994895 0.991452
1.00538 0.994853 0.990952
1.00538 0.994852 0.990705
1.00545 1.00265 0.983473
1.00539 0.994762 0.990402
1.00552 0.998439 0.985961
1.00546 0.995633 0.989365
1.00545 0.994734 0.99051
1.00111 1.00509 0.987571
1.00387 1.00517 0.985511
1.00192 1.00463 0.986491
1.00493 1.0047 0.983014
1.00504 1.00334 0.984954
1.00498 1.00362 0.983233
1.00065 1.0026 0.991211
1.00215 1.0052 0.98613
1.00522 0.994921 0.991178
1.00259 1.00278 0.987226
1.00518 1.00471 0.983153
1.00422 1.00146 0.985953
1.00542 0.994857 0.990678
1.00537 0.994852 0.990632
1.00527 1.00369 0.983315
1.00525 0.999779 0.987374
1.00555 0.995259 0.989953
1.00185 1.00512 0.987145
1.00263 1.00521 0.985778
1.00417 1.00495 0.983412
1.00387 1.0021 0.986422
1.00463 1.00214 0.985165
1.00537 0.994867 0.99083
1.00543 0.99484 0.990432
1.00541 0.994753 0.990514
1.00505 1.00216 0.984632
1.00524 0.998226 0.987642
1.00287 1.00516 0.985778
1.0013 1.00528 0.985999
1.00466 1.00328 0.984424
1.0028 1.00263 0.985111
1.00542 1.00091 0.985535
1.00539 0.994801 0.990599
1.00547 0.995459 0.989524
1.00542 0.994743 0.990006
1.00509 1.001 0.985904
1.00512 0.999127 0.987074
1.00108 1.00497 0.988213
1.00167 1.00509 0.987368
0.999179 1.00454 0.991
0.999423 1.00508 0.989425
0.999671 1.00503 0.990501
0.998905 1.00468 0.991534
0.998404 1.00422 0.993612
0.998696 1.00512 0.991816
0.999556 1.00483 0.991119
1.00002 1.00308 0.991849
0.999848 1.00347 0.991679
1.00001 1.00027 0.995446
0.999664 1.00414 0.990959
1.00012 1.0005 0.995094
1.00021 0.997895 0.997009
1.00028 1.00087 0.994555
1.00025 0.998306 0.996546
0.999999 0.999241 0.99824
1.00023 1.00219 0.992403
1.00061 1.00201 0.991961
0.999753 0.999882 0.998164
1.00081 1.00161 0.992098
0.999971 1.00008 0.998014
1.0009 1.00129 0.99676
1.00522 0.994951 0.991333
1.00524 0.994929 0.991683
1.00531 0.99492 0.991323
1.00534 0.994901 0.991576
1.00524 0.994931 0.991802
1.00535 0.994953 0.991893
1.00524 0.994935 0.991821
1.00533 0.994914 0.991685
1.00532 0.994909 0.991519
1.00533 0.994889 0.991588
1.00533 0.994917 0.991086
1.00531 0.9949 0.991287
1.00533 0.994905 0.991704
1.00535 0.994886 0.991663
1.00531 0.994874 0.991563
1.00537 0.994882 0.990907
1.00524 0.99493 0.991803
1.00525 0.994924 0.991711
1.00534 0.994911 0.991546
1.00535 0.994894 0.99116
1.00555 1.00369 0.98254
1.00568 0.99947 0.985324
1.00546 0.99601 0.989038
1.00534 0.994904 0.990947
1.00538 0.994852 0.99087
1.00539 0.994826 0.99062
1.00548 0.994711 0.990627
1.00539 0.994788 0.990645
1.00514 1.00478 0.982223
1.0047 1.00465 0.982884
1.00379 1.00414 0.98384
1.00231 1.0039 0.987179
1.00353 1.00524 0.984832
1.00534 0.994903 0.991637
1.00536 0.994897 0.991449
1.00538 0.994853 0.990958
1.00548 1.00264 0.983472
1.0055 0.998678 0.985883
1.00547 0.995474 0.989404
1.00538 0.994856 0.990724
1.00543 0.994715 0.990561
1.0054 0.994767 0.990421
1.00095 1.00495 0.987863
1.0047 1.0045 0.983042
1.00516 1.00396 0.982823
1.00458 1.00314 0.984785
1.0026 1.0043 0.986243
1.00309 1.00488 0.98563
1.00536 0.994881 0.991592
1.00539 0.994851 0.99127
1.0054 0.99482 0.990746
1.00539 0.994802 0.990467
1.00527 1.00209 0.984174
1.00539 0.994747 0.990263
1.00544 0.998027 0.987087
1.00541 0.995075 0.989594
1.0003 1.00414 0.989368
1.00192 1.00502 0.987467
1.00318 1.0045 0.987017
1.00162 1.0017 0.990291
1.00475 1.00401 0.983737
1.00497 1.00356 0.983406
1.00147 1.0052 0.987136
1.00235 1.00514 0.985762
1.00537 0.994866 0.990824
1.00404 1.00128 0.986537
1.00475 1.00479 0.982706
1.00426 1.00248 0.985023
1.00545 0.994842 0.990408
1.00543 0.994744 0.990526
1.00496 1.00231 0.984896
1.00521 0.99842 0.987445
1.00264 1.0051 0.98584
1.00281 1.00514 0.9857
1.00445 1.00339 0.984239
1.00424 1.00335 0.984658
1.0054 1.0019 0.985305
1.00539 0.994803 0.990608
1.00546 0.99526 0.989812
1.0054 0.994749 0.99031
1.00514 1.00084 0.985768
1.00508 0.999697 0.986607
1.00006 1.00485 0.988354
1.0004 1.00517 0.987731
1.00503 1.0009 0.985989
1.00505 1.00213 0.985554
1.00545 0.994802 0.990576
1.00537 0.994676 0.990446
1.00525 0.997456 0.98806
1.00516 1.00023 0.985913
1.0024 1.00509 0.98716
0.999513 1.00488 0.990616
0.996847 1.00496 0.994521
0.999187 1.00511 0.990485
0.997216 1.00507 0.991975
0.999613 1.00469 0.991038
0.997831 1.00466 0.993981
0.998857 1.00509 0.991843
0.998491 1.00204 0.996168
0.997993 1.00503 0.993188
0.998616 1.00511 0.991497
1.00005 1.00458 0.990598
1 1.00328 0.991673
0.999915 1.00324 0.991811
0.999885 1.00004 0.995766
0.999675 1.00366 0.991664
0.999982 1.00023 0.995488
1.00006 0.997896 0.997242
1.00007 1.00045 0.995158
1.00016 0.998002 0.996976
1.00013 0.998497 0.99648
1.00036 1.00106 0.993343
1.00025 1.00213 0.99232
0.999926 0.998898 0.998389
1.00045 1.00147 0.992024
0.999904 1.00004 0.998107
1.00027 0.999871 0.997832
1.00535 0.994917 0.99108
1.00532 0.994913 0.991525
1.00531 0.994893 0.991299
1.00533 0.994884 0.991571
1.00533 0.994915 0.991679
1.00524 0.994937 0.991829
1.00533 0.994905 0.991704
1.00534 0.994887 0.991656
1.00533 0.994876 0.991506
1.00535 0.99488 0.990965
1.00536 0.994879 0.991678
1.00537 0.994848 0.991589
1.00535 0.994849 0.991257
1.00534 0.994905 0.991624
1.00536 0.994899 0.991447
1.00538 0.994855 0.990964
1.00549 1.00266 0.983475
1.00548 0.998913 0.98581
1.00549 0.995258 0.989442
1.00537 0.99486 0.990743
1.00542 0.994774 0.99044
1.0054 0.994695 0.990617
1.00468 1.0043 0.983073
1.00506 1.00414 0.982422
1.00367 1.0033 0.984616
1.00104 1.00486 0.988156
1.00388 1.00397 0.985968
1.00212 1.00452 0.985722
1.00536 0.994884 0.991611
1.00539 0.994852 0.991244
1.00539 0.994827 0.990764
1.00523 1.00215 0.984157
1.00541 0.99787 0.986999
1.00544 0.994946 0.989744
1.0054 0.994791 0.990438
1.00541 0.994754 0.990261
1.00021 1.00459 0.9896
1.00151 1.00507 0.987418
1.00473 1.00358 0.983513
1.00464 1.00328 0.983549
1.00253 1.00238 0.988997
1.00218 1.00431 0.987326
1.0054 0.994841 0.991494
1.00543 0.994838 0.990898
1.00539 0.994761 0.990531
1.00538 0.994766 0.990189
1.0047 1.00109 0.986004
1.00536 0.994721 0.990348
1.00482 0.997464 0.988388
1.00003 1.00444 0.990387
1.00063 1.00344 0.990618
0.999721 1.00509 0.98897
1.00147 1.00508 0.987974
1.00158 1.00463 0.989877
1.00361 1.00228 0.985701
1.00432 1.00365 0.984844
1.00355 1.00526 0.985251
1.00257 1.00515 0.985906
1.00312 1.00532 0.985399
1.0054 0.994807 0.990618
1.00528 1.0022 0.984214
1.00456 1.00345 0.984058
1.00541 1.00226 0.985087
1.00545 0.995047 0.990102
1.00538 0.994757 0.990613
1.00519 1.00065 0.985634
1.00502 1.0002 0.986139
1.001 1.00403 0.987958
1.00118 1.00486 0.987126
1.00503 1.001 0.985668
1.00497 1.00214 0.985405
1.00543 0.994809 0.990585
1.00539 0.994696 0.990454
1.00522 0.99736 0.988114
1.00512 1.00037 0.985949
0.999015 1.00366 0.991788
1.00549 0.994731 0.991033
1.00268 1.00349 0.988699
1.00468 1.00133 0.985723
1.00539 0.994712 0.990737
1.00519 0.996509 0.988195
1.00507 1.0008 0.986004
1.0001 1.00477 0.990241
0.997429 1.00468 0.994637
0.996307 1.00277 0.997053
0.999327 1.00463 0.990951
0.998744 1.00507 0.991862
0.996639 1.00496 0.994356
0.999891 1.00453 0.990571
0.998745 1.00509 0.991628
0.996574 1.00345 0.996499
0.99833 1.00478 0.99297
0.996619 1.0032 0.997849
0.99628 1.005 0.995764
0.998915 1.00468 0.992546
1.00023 1.00492 0.989753
1.00025 1.0046 0.990011
0.999982 1.00324 0.991698
0.999905 1.0034 0.991652
0.999782 1.00005 0.995928
0.999781 1.00345 0.991776
0.999914 1.00004 0.995781
0.999938 0.99791 0.997488
0.999985 1.00013 0.995539
1.00008 0.997901 0.997219
1.00013 0.998101 0.996937
1.00031 1.00374 0.990696
0.999985 1.00093 0.99386
1.00021 1.00118 0.993302
1.00006 0.998725 0.998525
1.00029 1.00194 0.992239
0.999891 0.999399 0.998304
1.00005 0.999853 0.998101
1.00534 0.994878 0.991022
1.00534 0.994878 0.991449
1.00533 0.994889 0.991648
1.00533 0.994904 0.991705
1.00536 0.994876 0.991689
1.00536 0.99485 0.991572
1.00535 0.994847 0.991196
1.0054 0.99484 0.991538
1.00538 0.994793 0.9916
1.00564 0.994659 0.991514
1.00536 0.994886 0.99163
1.00539 0.99485 0.991218
1.00539 0.99483 0.990782
1.0051 1.00221 0.984143
1.00538 0.997829 0.986919
1.00546 0.994906 0.989887
1.0054 0.994779 0.990409
1.00544 0.994754 0.990257
1.005 1.00348 0.983286
1.0042 1.00292 0.983645
1.00269 1.0042 0.98771
1.00044 1.00464 0.989835
1.00124 1.00509 0.987362
1.00128 1.00435 0.98764
1.0054 0.994836 0.991489
1.00062 1.0037 0.990357
1.00011 1.00422 0.990524
1.00543 0.994825 0.990898
1.0054 0.994773 0.990558
1.00478 1.00128 0.98575
1.00528 0.997003 0.988639
1.00533 0.994725 0.990326
1.00537 0.994757 0.990121
1.00032 1.00508 0.989032
1.00126 1.00505 0.987921
1.00399 1.00415 0.984396
1.00379 1.00503 0.98414
1.00404 1.00342 0.985313
1.00094 1.00299 0.990665
1.00548 0.994734 0.991414
1.00541 0.995094 0.990532
1.00537 0.994708 0.990525
1.00527 0.994753 0.989921
1.00357 1.0008 0.987515
1.00525 0.995697 0.990147
1.00032 1.00443 0.990084
0.999586 1.00405 0.990521
1.00025 1.00474 0.990698
1.00051 1.00481 0.989159
1.00117 1.00383 0.989918
1.00191 1.00101 0.990053
1.00251 1.00525 0.985375
1.00201 1.00244 0.989893
1.00128 1.00472 0.987577
1.00347 1.00519 0.986517
1.00541 0.994814 0.990593
1.00541 0.994716 0.990463
1.00487 1.00292 0.985258
1.00483 1.0012 0.985333
1.0052 0.997278 0.988169
1.00509 1.00052 0.985986
0.999157 1.00437 0.99173
1.0055 0.99472 0.991167
1.00184 1.00405 0.989195
1.00453 1.00128 0.985619
1.0054 0.994701 0.9908
1.00519 0.996622 0.988426
1.00503 1.00055 0.985904
0.998054 1.00446 0.994233
1.00499 0.99467 0.990276
1.00172 1.00322 0.988522
1.00424 1.00307 0.984224
1.00486 0.994922 0.991679
1.00431 1.00007 0.987075
0.998301 0.994728 0.980977
0.997284 1.00495 0.99473
0.996917 1.00278 0.997083
0.996001 1.00301 0.998018
0.999858 1.00444 0.990541
0.998397 1.00507 0.991771
0.999162 1.00455 0.992761
0.995386 1.00373 0.996852
1.0002 1.00454 0.990042
0.999738 1.00501 0.990262
0.996231 1.00214 0.998718
0.998245 1.00492 0.992495
0.996679 1.00474 0.995332
0.994868 1.00519 0.997961
0.998051 1.00506 0.993302
0.9987 1.00476 0.992398
1.00012 1.00464 0.9903
0.999933 1.00477 0.989942
0.999789 1.00432 0.991458
0.999971 1.00418 0.990565
0.999894 1.00312 0.99186
0.999932 1.00331 0.991688
0.999674 0.999994 0.995374
0.999921 1.00329 0.991635
0.999777 1.00004 0.995566
0.99996 0.997838 0.998965
0.999905 1.00003 0.995804
0.99996 0.997841 0.997469
1.0001 0.997907 0.997186
0.999996 1.0032 0.991623
1.00052 1.00348 0.990762
1.00012 1.0002 0.994481
1.00013 1.00082 0.994323
0.999982 0.998274 0.998691
1.00006 1.00157 0.99326
0.999976 0.998545 0.998509
0.999912 0.999818 0.998154
1.00536 0.994847 0.991136
1.00536 0.994851 0.991555
1.00535 0.994872 0.991699
1.00539 0.994838 0.99154
1.0054 0.994797 0.99153
1.00565 0.994672 0.991506
1.00553 0.994755 0.991551
1.00013 0.994659 0.979622
1.00547 0.994629 0.989643
1.00028 1.00402 0.990394
1.0054 0.994833 0.991483
1.00543 0.99482 0.990897
1.00541 0.994788 0.990584
1.00488 1.00144 0.985483
1.00531 0.99612 0.988874
1.0053 0.994724 0.990288
1.00536 0.994751 0.990051
1.00428 1.0043 0.98402
1.00442 1.00492 0.983114
1.0036 1.00292 0.984913
1.00087 1.00331 0.990331
1.00079 1.00239 0.991425
1.00107 1.00509 0.989067
1.00084 1.00505 0.987866
1.00011 1.00448 0.990429
1.00547 0.994758 0.991428
1.00056 1.00415 0.990001
1.0003 1.00424 0.990516
0.999573 1.00456 0.991199
1.0054 0.994901 0.990559
1.00536 0.994706 0.990484
1.00365 1.0018 0.987548
1.00497 0.99544 0.990174
1.00528 0.994743 0.989946
1.00039 1.00487 0.989188
1.00123 1.00368 0.990262
1.00304 1.00275 0.98905
1.00292 1.00519 0.984942
1.00302 0.999974 0.990552
1.00547 0.9947 0.990955
1.00534 0.99481 0.990653
1.00524 0.994701 0.990501
1.00458 0.997374 0.989662
1.00355 1.00014 0.988926
0.999471 1.00342 0.992746
0.999586 1.00506 0.989937
0.998612 1.00347 0.993291
1.00059 1.00266 0.992595
1.00073 0.999933 0.994047
1.00025 1.00144 0.992033
1.00167 1.00098 0.99224
1.00111 1.00363 0.991626
1.00017 1.00425 0.989691
1.00551 0.994704 0.991294
1.00541 0.994692 0.990847
1.00519 0.996739 0.988659
1.00436 1.00138 0.985518
1.00499 1.00031 0.985811
0.998131 1.00485 0.995137
1.00448 0.994659 0.990365
1.00216 1.00309 0.988253
1.00454 1.00284 0.984161
1.00466 0.994891 0.991798
1.00446 0.999978 0.98712
0.998211 0.994675 0.97917
0.997452 1.00507 0.994317
1.00299 0.99457 0.990684
1.00239 1.00433 0.985985
1.00393 1.00163 0.986433
1.00347 0.996956 0.993281
0.999687 0.994865 0.93349
0.99482 0.994669 0.955931
0.997237 0.994577 0.983737
0.994803 0.997668 0.840678
0.994795 1.00069 0.801682
0.997792 1.00312 0.99712
0.996467 1.00291 0.998084
0.995061 1.00522 0.998461
1.00023 1.00453 0.99008
0.999509 1.00506 0.990774
0.998191 1.005 0.992431
0.996997 1.00472 0.994888
0.995746 1.00154 0.999554
0.998569 1.00461 0.992782
1.00022 1.00461 0.98991
1.0001 1.00483 0.990127
0.995231 1.00486 0.997842
0.997652 1.00494 0.993772
0.99767 1.00484 0.994275
0.995959 1.00521 0.996293
0.998209 1.00491 0.993175
0.999676 1.00492 0.990294
1.00011 1.0046 0.989867
0.998921 1.00438 0.991767
0.997038 1.00461 0.994895
0.998261 1.00484 0.992631
0.999416 1.00442 0.991905
0.999869 1.00392 0.991189
0.999806 1.00418 0.990483
0.999952 1.00295 0.99206
0.999977 1.00309 0.991883
0.999655 0.999877 0.995527
0.999868 1.00344 0.991674
0.999662 1.00001 0.995383
0.999931 0.997803 0.999007
0.999756 1.00005 0.995214
0.999902 0.997841 0.998267
1.00003 0.997781 0.997447
0.999902 1.0026 0.992477
1.00012 1.00307 0.991659
1.00003 0.999783 0.99508
1.00069 1.00315 0.990826
1.00009 1.00027 0.994906
1.00001 0.997935 0.99883
1.00031 1.00051 0.993767
1.00002 0.998497 0.998613
0.999933 0.99885 0.998497
1.00541 0.994799 0.99146
1.00539 0.994837 0.991542
1.00569 0.994687 0.991522
0.999014 0.994677 0.979281
1.00555 0.994742 0.991552
1.00549 0.994663 0.989714
1.00548 0.994633 0.991303
0.994837 0.994765 0.959569
1.00498 0.994678 0.974687
1.0003 1.00382 0.990682
1.00047 1.0039 0.99041
0.998757 1.0037 0.993083
1.00067 1.00421 0.989835
1.00546 0.99478 0.991441
1.00538 0.99481 0.990588
1.00536 0.994706 0.990444
1.0038 1.0017 0.98759
1.00512 0.995605 0.990237
1.0053 0.994742 0.989991
1.0028 1.00206 0.988133
1.004 1.00531 0.984508
1.00287 0.998358 0.991101
1.00037 1.00487 0.990524
1.00034 1.00293 0.990657
1.00031 1.00506 0.989217
1.00074 1.0039 0.989907
0.998803 1.00497 0.991806
1.00549 0.994723 0.990937
0.999224 1.0038 0.992154
0.999947 1.00479 0.990076
0.996428 1.00474 0.995456
1.00534 0.994824 0.990643
1.00523 0.994704 0.990485
1.00395 0.998761 0.98912
1.00443 0.997393 0.989731
1.00088 1.00238 0.991878
0.999492 1.00063 0.993519
1.00123 1.00111 0.992237
1.00201 1.00138 0.990954
1.00369 0.996761 0.989579
1.00518 0.994585 0.991056
1.00391 0.998893 0.989714
1.00445 0.99853 0.989656
0.996138 1.00448 0.996424
1.00064 1.00268 0.991091
0.997409 0.998932 1.00071
0.998123 1.00477 0.992838
0.999364 0.997445 0.915555
0.998213 1.0047 0.996077
1.00198 1.00336 0.987974
1.00382 0.994679 0.990497
1.00443 0.994857 0.991903
1.00452 0.999818 0.987139
1.00475 1.00261 0.984091
0.997937 0.994637 0.976945
0.997983 1.00441 0.994568
1.00264 0.994596 0.990672
1.00266 1.0043 0.985981
1.00416 1.00142 0.986624
1.00328 0.997224 0.993204
0.998139 0.99499 0.918837
0.994989 0.994697 0.952509
0.9969 0.994619 0.984155
0.996062 0.997264 0.848672
0.994825 1.00027 0.800097
0.997919 1.00452 0.993743
0.997373 0.995313 0.852862
0.994879 0.999928 0.799724
1.00136 0.994727 0.994558
1.00177 1.00325 0.989187
1.00161 1.00039 0.992912
0.995329 0.995309 0.987203
0.997404 0.994647 0.929524
0.995051 0.994695 0.946155
0.99474 0.998752 0.852092
0.994828 0.996232 0.778169
0.996915 1.00254 0.998159
0.994977 1.00526 0.998303
0.995149 1.00511 0.999466
1.00049 1.0043 0.989869
0.999915 1.00499 0.989949
0.997805 1.00478 0.993173
0.997326 1.00496 0.994236
0.99556 1.0044 0.997725
1.00019 1.00465 0.989821
0.997452 1.00472 0.994542
0.998166 1.00494 0.992713
0.999996 1.00485 0.990212
0.99576 1.00518 0.996653
0.996237 1.00517 0.995888
0.995036 1.00511 0.997702
0.998579 1.00509 0.991837
1.00016 1.00467 0.989941
0.999686 1.00399 0.991665
0.997044 1.00436 0.995305
0.997465 1.00345 0.995117
0.997869 1.004 0.994731
0.995386 1.00503 0.998027
0.998399 1.00207 0.994802
0.996866 1.00512 0.993593
0.99839 1.00492 0.992604
0.99892 1.00459 0.991234
0.99906 1.00446 0.992355
0.999846 1.00428 0.991124
1.00007 1.00301 0.991948
1.00002 1.00431 0.990394
0.999955 1.0029 0.992098
0.99987 0.999754 0.996108
0.999764 1.00338 0.991907
0.999742 0.999813 0.99582
0.999917 0.997681 0.997768
0.999667 0.999974 0.995382
0.999921 0.997812 0.99902
0.999899 0.997897 0.997562
1.00047 1.00424 0.990194
0.999808 1.00247 0.992704
0.999955 1.00252 0.992462
0.999966 0.999409 0.995525
1.00019 1.00307 0.991697
1.00006 0.999776 0.995052
1.00001 0.997669 0.998949
1.00006 1.00047 0.995226
0.999977 0.998044 0.997958
0.999979 0.998361 0.996779
0.9982 0.994674 0.978916
1.00555 0.994735 0.991554
1.00551 0.994621 0.989772
0.995921 0.99478 0.95926
1.0048 0.994632 0.974615
1.00549 0.994614 0.991426
1.00448 0.994501 0.984011
0.99975 0.994723 0.955914
0.997439 0.99538 0.931826
0.996082 0.995782 0.866631
0.994896 1.00163 0.801666
0.999352 1.00408 0.991513
1.00027 1.00386 0.990756
1.00073 1.00376 0.990427
0.998786 1.0038 0.993066
0.997555 1.00457 0.994441
1.00008 1.00474 0.990501
1.00021 1.00509 0.989311
1.00036 1.00439 0.990006
1.00551 0.994742 0.990916
1.00535 0.994729 0.99063
1.00522 0.994699 0.990466
1.00426 0.99862 0.989301
1.00439 0.997339 0.989785
1.00102 1.00135 0.992224
1.00431 1.00026 0.989897
1.00093 1.00142 0.992977
1.0004 1.00407 0.990161
1.00121 1.00233 0.991089
0.998952 1.00463 0.991573
0.994992 1.00511 0.997295
1.00419 0.995637 0.990027
0.996295 1.00473 0.996122
1.00012 1.0023 0.992665
1.00492 0.994602 0.991028
1.0039 0.999123 0.989547
1.00383 0.998831 0.989758
0.99832 0.999879 0.997927
0.999375 1.00335 0.99317
1.00236 0.996354 0.987993
1.00266 0.999379 0.990798
1.00377 1.00087 0.989471
1.00188 0.998984 0.993108
0.997869 1.00489 0.993965
0.996134 1.00238 0.997764
0.997421 1.00284 0.996564
0.999832 0.99994 0.844795
1.00067 0.994879 0.932255
0.998931 1.00308 0.99482
1.00312 1.00415 0.985993
1.00224 0.99462 0.990654
1.00315 0.997305 0.993151
1.00423 1.00109 0.986851
0.999964 0.994844 0.930484
0.995383 0.9947 0.95188
0.99658 0.994665 0.984844
0.994784 0.998563 0.866357
0.994851 0.999426 0.798115
0.998451 1.00421 0.99382
0.999206 0.996702 0.850027
0.994825 0.998147 0.794134
1.00084 0.99482 0.994382
1.00155 1.0033 0.989216
1.00163 1.00026 0.993962
0.995884 0.996216 0.988367
0.99517 0.994645 0.922614
0.995236 0.99469 0.947953
0.994798 0.998769 0.85804
0.994854 0.996999 0.775111
0.996826 1.00517 0.996815
0.994804 0.99514 0.787884
0.994742 0.994732 0.766086
0.997199 1.00014 0.996808
0.999071 1.00275 0.997311
0.9949 0.997815 0.986258
0.995145 0.994758 0.953824
0.994893 0.994551 0.910093
0.994825 0.997383 0.862149
0.994898 0.994905 0.795291
0.995209 1.00526 0.998164
0.995046 1.00485 0.999636
0.994888 1.00524 0.99937
1.00031 1.0046 0.989771
1.00026 1.00495 0.990132
0.998318 1.00502 0.992249
0.99726 1.00426 0.994808
0.995638 1.00515 0.99702
1.00028 1.0049 0.989846
0.996493 1.00507 0.995444
0.998811 1.00511 0.991862
0.995119 1.00507 0.997805
0.994949 1.00515 0.998332
0.996297 1.00509 0.995577
0.999939 1.00493 0.991636
1.00027 1.00353 0.991563
0.997033 1.004 0.995707
0.997963 1.00309 0.995144
0.998044 1.00337 0.994645
0.995552 1.00511 0.996807
0.999193 1.0015 0.995023
0.995415 1.0047 0.996462
0.997017 1.00295 0.998284
1.00006 1.00445 0.990799
1.00514 1.00154 0.986966
0.997408 1.00441 0.99202
0.998314 1.00254 0.994857
0.998561 1.00521 0.991327
0.997901 1.00513 0.993711
0.999487 1.00453 0.990548
0.999068 1.0051 0.992573
0.999396 1.0044 0.991337
0.99953 1.00371 0.991599
0.999865 1.00455 0.991052
0.999933 1.00298 0.991983
0.999972 0.999818 0.995844
1.00008 1.00266 0.992132
0.999854 0.999734 0.995749
1.00005 0.997446 0.997669
0.999721 0.99984 0.995511
0.999969 0.99762 0.999055
0.999919 0.997755 0.999036
1.00067 1.00467 0.989776
0.999856 1.00284 0.992339
1.00049 1.00409 0.990189
0.999983 0.999277 0.995668
0.999985 1.00227 0.992689
1.0001 1.00234 0.992447
0.999991 0.999424 0.99551
0.999994 0.997426 0.999043
1.00006 0.999849 0.995759
1.00002 0.997717 0.998148
1.00001 0.998027 0.99723
0.999363 0.999358 0.834844
0.994846 0.996631 0.782777
0.995225 0.994799 0.960249
1.00467 0.994595 0.974822
1.00552 0.994635 0.991533
1.0029 0.99473 0.952766
1.00334 0.994585 0.984836
0.999383 0.995112 0.927533
0.994766 0.996777 0.845942
0.994883 1.00037 0.800572
0.999097 0.994678 0.966472
0.99485 0.994649 0.932856
0.994709 0.999537 0.8534
0.995193 0.997846 0.791772
1.00005 1.00429 0.991965
1.00004 1.00386 0.991132
1.00023 1.00378 0.990842
0.998827 1.00347 0.993064
0.997023 1.00394 0.995467
1.00039 1.00496 0.989569
0.9993 1.00488 0.99106
1.00113 1.00512 0.987991
1.00035 1.00507 0.989302
0.999469 1.00509 0.990188
1.00456 0.994746 0.990442
1.00478 0.994625 0.990995
1.00367 0.999402 0.989375
1.00297 0.999126 0.989864
0.999971 1.00315 0.993464
0.998967 1.00114 0.995219
0.999077 1.00235 0.994476
0.99639 1.0047 0.995819
1.00211 0.99561 0.988721
0.997734 1.00494 0.99365
0.996081 1.00267 0.998472
1.0025 0.999104 0.990953
1.00364 1.00197 0.987858
1.00106 0.999515 0.993661
0.99763 1.00331 0.996221
0.999251 0.994622 0.986573
1.00118 1.00156 0.99269
0.996953 1.00394 0.996073
0.998773 1.00472 0.992989
0.996096 1.00506 0.995606
0.994911 1.00505 0.998464
0.994813 0.994747 0.795566
0.999691 0.995664 0.856206
0.999798 0.997437 0.915928
0.998586 1.00405 0.993872
1.00169 1.00354 0.989187
1.00029 0.994946 0.994182
1.00143 0.999877 0.995023
0.99902 1.00024 0.864484
0.994923 0.994661 0.916996
0.994931 0.994634 0.946355
0.996301 0.997255 0.989286
0.994797 0.99883 0.841274
0.994766 0.996508 0.8
0.995113 0.997386 0.789788
0.996919 1.00498 0.99649
0.994825 0.996019 0.792325
0.994767 0.994758 0.76604
0.997692 0.99856 0.99747
0.9987 1.00272 0.997165
0.994964 0.996766 0.987921
0.99539 0.994754 0.94949
0.995329 0.994566 0.923624
0.994815 0.9969 0.841451
0.995311 0.994893 0.803325
0.995725 1.00499 1.0007
0.994717 0.994756 0.773303
0.994816 0.994837 0.774636
0.994824 1.00195 1.00068
0.994881 0.996634 0.962599
0.994799 0.994742 0.9225
0.995133 0.99489 0.848472
0.99544 0.994908 0.826619
0.994907 1.00467 0.999786
0.994846 1.00523 0.999629
0.994801 1.00522 1.00011
1.00007 1.00504 0.989754
0.999095 1.00512 0.991888
0.996779 1.00496 0.995
0.99515 1.00504 0.997909
0.99913 1.0049 0.991596
0.996469 1.00507 0.995467
0.994926 1.00511 0.998383
0.994808 1.0052 0.998947
0.995545 1.0051 0.997915
0.997536 1.00507 0.994324
0.998486 1.00283 0.995161
0.997839 1.003 0.994589
0.99597 1.00516 0.99567
0.995872 1.00419 0.996648
0.999304 1.001 0.994846
0.996004 1.00292 0.998376
1.0003 1.00245 0.994584
0.99505 1.00519 0.998707
1.00219 1.00031 0.99167
0.999965 1.00373 0.991853
1.00203 1.00297 0.987891
1.00502 1.00169 0.985384
1.00452 1.00157 0.987303
1.00451 1.00116 0.987135
0.999077 1.00409 0.991971
0.998906 1.0052 0.989051
0.998332 1.003 0.994919
0.999182 1.00498 0.991419
1.00142 1.00465 0.988382
0.998432 1.00477 0.993822
0.999641 1.00475 0.99061
0.999955 1.00409 0.99053
1.00032 1.00431 0.991438
1.00012 1.00339 0.991608
1.00025 1.0002 0.99517
0.999928 1.00302 0.992024
0.999964 0.999954 0.995329
1.00016 0.997594 0.99742
0.999859 0.999684 0.995442
1.00005 0.997485 0.998368
0.999986 0.997578 0.999049
1.00054 1.00504 0.988656
1 1.00329 0.991715
1.00033 1.00475 0.989597
0.999991 0.99948 0.99545
0.999836 1.00281 0.992363
1.0003 1.00406 0.990179
1.00001 0.997403 0.99905
0.999964 0.999302 0.995667
0.999929 1.00239 0.992681
1.00002 0.999401 0.995499
1 0.9975 0.999017
1.00001 0.997732 0.998899
0.994771 0.994865 0.778613
0.998629 0.996842 0.849385
0.99483 0.994779 0.771885
0.994855 0.997183 0.785016
0.999558 0.995323 0.954543
1.00206 0.994648 0.985714
0.998717 0.99472 0.922286
0.994746 0.99723 0.864855
0.99487 0.998705 0.799788
0.998576 0.994728 0.965043
0.99604 0.994621 0.916155
0.994755 0.998646 0.859304
0.994859 0.997273 0.784829
0.994903 0.994731 0.958406
0.994805 0.994617 0.907045
0.994848 0.996817 0.836001
0.994868 0.994897 0.802841
1.00017 1.00461 0.990579
0.998826 1.00439 0.99212
0.999978 1.00404 0.990748
0.996285 1.00354 0.996435
1.00079 1.0049 0.988717
1.00025 1.00491 0.989752
0.998784 1.00484 0.991611
1.00176 1.00511 0.987497
1.00135 1.0051 0.988014
1.00053 1.00478 0.989286
1.00254 0.994636 0.989338
1.0022 0.998922 0.991121
1.00356 1.00317 0.986262
1.00054 0.999742 0.994228
0.998155 1.00497 0.995859
0.996775 1.00141 0.999194
0.998441 1.00492 0.993295
0.999063 1.00377 0.993007
0.999512 0.995919 0.987268
0.99716 1.00513 0.995144
0.996223 1.00332 0.998517
1.00075 1.00111 0.99258
0.997282 1.00374 0.996192
0.996899 0.997862 0.985716
0.99699 1.00289 0.997496
0.994715 1.00551 0.998387
0.996214 1.00478 0.996645
0.994874 1.00511 0.998019
0.994727 0.994744 0.777594
0.994828 0.994698 0.79025
0.999767 1.00118 0.834832
0.996951 1.00468 0.996225
0.99881 1.00287 0.997048
0.998525 0.997576 0.998093
0.994827 0.995137 0.786461
0.994811 0.994573 0.907373
0.99495 0.994741 0.95087
0.995135 0.995446 0.990024
0.994793 0.997033 0.858436
0.994816 0.994785 0.766745
0.996285 0.994882 0.80548
0.996074 1.00506 1.0005
0.994732 0.994784 0.77289
0.994798 0.994835 0.77576
0.995002 1.0025 0.999243
0.994869 0.995627 0.96426
0.995542 0.994756 0.907019
0.995807 0.994902 0.820908
0.995571 0.995263 0.858038
0.994802 1.00501 1.00201
0.994759 0.994827 0.760761
0.994865 0.994844 0.795978
0.994864 0.994888 0.802187
0.994772 1.00041 0.987092
0.994822 0.995655 0.929475
0.99714 0.994881 0.873755
0.994847 1.00519 0.99989
0.995079 1.00492 0.99988
0.994863 1.00496 0.99953
0.998471 1.00495 0.991573
0.996737 1.00504 0.995358
0.994894 1.00494 0.998444
0.99689 1.00508 0.994496
0.99538 1.00457 0.998037
0.994809 1.00503 0.998889
0.994751 1.00511 0.999638
0.995259 1.0051 0.9981
0.996079 1.00364 0.996879
0.999427 1.00047 0.994652
0.995012 1.00285 0.998342
0.994965 1.0049 0.998571
0.998632 1.00165 0.99495
1.00046 1.00111 0.995008
0.999735 1.00136 0.994977
1.00347 1.00138 0.987591
0.999624 1.00296 0.992869
1.00248 1.0027 0.98799
1.00484 1.00287 0.984532
1.0051 1.00183 0.984909
1.00503 1.0011 0.985825
1.00481 1.00165 0.985393
1.00326 1.00402 0.986771
1.00324 1.00255 0.987361
1.00384 1.00104 0.987301
1.00085 1.0037 0.991912
1.00043 1.0052 0.98837
1.00261 1.00519 0.985836
0.999687 1.00509 0.991512
1.00133 1.00509 0.988302
1.001 1.00484 0.988031
1.00034 1.00498 0.990653
1.00036 1.00374 0.990474
1.0004 1.0005 0.994702
1.00039 1.00281 0.991609
1.00025 1.00023 0.994674
1.00039 0.997846 0.996795
0.999916 1.00009 0.994978
1.00014 0.99756 0.998243
1.00009 0.997455 0.999003
1.00144 1.00513 0.987336
1.00023 1.00367 0.990501
1.00085 1.00506 0.988656
1.00004 0.99984 0.995006
1.00002 1.00327 0.991482
1.00042 1.00477 0.989418
1.00002 0.997527 0.99899
0.999999 0.999441 0.995468
0.999975 1.00254 0.992384
0.999996 0.997409 0.999054
0.999949 0.999316 0.995666
1.00001 0.997498 0.998993
0.994779 0.994804 0.772887
0.994796 0.995949 0.792764
0.999556 0.995782 0.849267
1.00132 1.00513 0.987568
0.994775 0.994794 0.775511
0.994805 0.994782 0.771939
0.994858 0.998894 0.797506
0.997639 0.994659 0.965138
0.99483 0.99466 0.931283
0.994743 0.997973 0.842412
0.994844 0.996708 0.796388
0.995161 0.994717 0.955276
0.995068 0.994623 0.923429
0.994876 0.997 0.842665
0.994939 0.995026 0.802686
0.994957 0.994709 0.948715
0.99482 0.994809 0.919234
0.996477 0.994904 0.860267
0.995106 0.994904 0.826915
0.998165 1.00414 0.993284
0.999326 1.00487 0.991101
0.9987 1.00388 0.992278
1.00157 1.00319 0.98947
1.00099 1.00503 0.988718
1.00011 1.00493 0.989934
1.00192 1.0051 0.987506
1.00148 1.00507 0.98804
0.998974 0.997132 0.987865
0.99991 1.00062 0.992406
0.997631 1.00462 0.993025
0.997327 1.00353 0.996218
0.996468 1.0034 0.99853
0.997169 1.00491 0.994709
0.99612 1.00445 0.996011
0.996589 0.999109 0.985746
0.995612 1.005 0.997947
0.994985 1.00531 0.9984
0.99638 1.00281 0.997655
0.995028 1.00519 0.99668
0.995721 1.00337 0.983108
0.994704 1.00382 0.999281
0.994753 1.00533 0.999287
0.99503 1.0049 0.997827
0.994724 0.994798 0.758992
0.994718 0.994739 0.773975
0.994838 0.994637 0.784638
0.996 1.00526 1.00028
0.995041 1.00166 0.997762
0.994746 0.994812 0.772439
0.99476 0.994802 0.923125
0.994862 0.995289 0.960121
0.995703 0.994902 0.857677
0.994779 0.994836 0.776674
0.994893 0.994891 0.814958
0.994858 1.00514 1.00177
0.994761 0.994824 0.761339
0.994877 0.994851 0.793309
0.994737 1.00112 0.990659
0.994879 0.994955 0.801878
0.994831 0.996708 0.923572
0.996533 0.995521 0.874684
0.994733 1.0045 0.996862
0.994832 0.994834 0.778557
0.994787 0.994811 0.777688
0.994865 0.997633 0.789814
0.996687 0.994895 0.860283
0.994802 1.00165 0.968787
0.994949 0.994896 0.916662
0.995309 1.00502 0.999694
0.994975 1.00525 0.999563
0.994683 1.00526 0.998368
0.996328 1.00511 0.994644
0.995345 1.00397 0.998162
0.9948 1.00502 0.998908
0.995344 1.00458 0.998007
0.994735 1.00515 0.999524
0.997108 1.00307 0.999597
0.994935 1.00481 0.998454
0.997002 1.0008 0.995404
0.999163 1.00113 0.995749
1.00128 1.00003 0.991584
0.996694 1.00236 0.997795
1.00272 1.00106 0.988529
1.00468 1.00421 0.982568
1.00464 1.00255 0.984691
1.00315 1.00241 0.98797
1.00491 1.00292 0.983917
1.00513 1.00188 0.984832
1.00516 1.00236 0.98453
1.00485 1.00194 0.984868
1.0042 1.00317 0.986506
1.00395 1.00194 0.985805
1.00456 1.00154 0.985422
1.00234 1.00517 0.985682
1.00227 1.0045 0.986683
1.00186 1.0035 0.987405
1.00137 1.00519 0.987697
1.0029 1.00491 0.985782
1.00204 1.00516 0.985861
1.00096 1.00515 0.988216
1.00129 1.00479 0.988021
1.00041 1.00154 0.992711
1.0012 1.00361 0.990462
1.00057 1.00037 0.993713
1.00016 0.997967 0.998611
1.0003 1.0002 0.994308
1.00029 0.997819 0.997818
1.00019 0.99771 0.998838
1.00123 1.00517 0.987249
1.00068 1.00401 0.989415
1.00128 1.00514 0.987582
1.00015 1.00016 0.994523
1.00029 1.00371 0.990389
1.00101 1.00511 0.988652
1.00004 0.997748 0.998883
1.00007 0.999775 0.995034
0.999949 1.00331 0.991253
1.00001 0.997493 0.999011
0.999998 0.999429 0.99549
0.999987 0.997422 0.999058
0.994729 0.994801 0.766714
0.994766 0.994785 0.773266
0.994801 0.996579 0.791431
1.00154 1.0051 0.987766
1.00037 1.00514 0.987991
1.00206 1.00323 0.990249
0.99488 0.994854 0.794702
0.994801 0.994799 0.776655
0.994785 0.99478 0.77216
0.995817 0.994716 0.956182
0.99487 0.994599 0.908698
0.994872 0.9974 0.860233
0.994892 0.994887 0.797576
0.995042 0.99475 0.951596
0.995192 0.99479 0.914959
0.995981 0.994916 0.861385
0.995573 0.9949 0.821104
0.994938 0.994985 0.951286
0.994769 0.996846 0.924554
0.996855 0.994907 0.873889
0.994896 0.994908 0.798061
0.997575 1.00337 0.994959
0.998286 1.00451 0.993343
0.9992 1.00506 0.991622
1.00112 1.00387 0.989324
1.00082 1.00509 0.988723
1.00183 1.0051 0.987511
0.996181 0.999804 0.98612
0.99645 1.003 0.997843
0.997181 1.00353 0.995404
0.995461 1.00528 0.998398
0.996587 1.00471 0.997851
0.995192 1.00525 0.996876
0.995236 1.00522 0.997648
0.99541 1.00231 0.983148
0.994695 1.00529 0.999328
0.994676 1.00481 0.997641
0.995233 1.00535 0.997951
0.994745 1.00272 0.982072
0.994744 1.00513 0.994625
0.995195 1.00425 0.998674
0.994853 0.994851 0.763761
0.994727 0.994801 0.758986
0.994706 0.994736 0.770294
0.994909 1.00525 1.00148
0.994739 1.0021 0.985951
0.994755 0.994821 0.761921
0.99481 0.996919 0.925093
0.996476 0.994885 0.861808
0.994888 0.994846 0.790681
0.994875 0.994877 0.796852
0.994717 1.00468 0.99737
0.994807 0.994838 0.776977
0.994811 0.994792 0.779019
0.994833 1.00233 0.964693
0.99484 0.997468 0.782789
0.995855 0.995206 0.860723
0.994858 0.997358 0.930222
0.994765 1.00518 0.98774
0.994748 0.994807 0.77059
0.994806 0.994772 0.772698
0.994916 1.00165 0.800102
0.994808 0.997392 0.833549
0.994807 0.994889 0.927674
0.994818 1.00175 0.95818
0.995168 1.00515 0.999482
0.994741 1.00512 0.998295
0.995116 1.00523 0.998127
0.99531 1.00413 0.997903
0.994733 1.00524 0.999247
0.996078 1.00299 0.999997
0.998504 1.00291 0.998148
0.998058 1.00088 0.996444
1.00307 0.999683 0.990692
1.00179 1.0047 0.985983
1.00212 1.00116 0.990019
1.00437 1.00403 0.983036
1.00432 1.0036 0.983579
1.00521 0.999587 0.986119
1.00513 1.00143 0.985053
1.00479 1.00254 0.984518
1.0049 1.00308 0.983309
1.0051 1.00278 0.984284
1.00516 1.00156 0.984923
1.00523 1.0022 0.984706
1.00498 1.00275 0.984534
1.00466 1.00186 0.984825
1.00241 1.00322 0.987641
1.00343 1.00235 0.986351
1.00367 1.00271 0.985759
1.00268 1.00525 0.985014
1.00265 1.00519 0.985689
1.00108 1.00454 0.986607
1.00269 1.005 0.985754
1.00267 1.00518 0.985862
1.00079 1.00255 0.991107
1.0022 1.00462 0.987976
1.0006 1.0014 0.992614
1.0003 0.998426 0.998444
1.00082 1.0001 0.99366
1.00038 0.998002 0.997637
1.00032 0.99774 0.998657
1.00239 1.00511 0.986832
1.0012 1.00454 0.988668
1.0017 1.00515 0.987207
1.00023 1.00058 0.993981
1.00065 1.0041 0.989584
1.00132 1.00514 0.987836
1.00007 0.997871 0.998777
1.00016 1.00011 0.994536
1.00049 1.0037 0.990277
1.00003 0.997676 0.998916
1.00009 0.9997 0.995059
1 0.997473 0.999032
0.994837 0.994841 0.775364
0.994742 0.994817 0.767311
0.994777 0.99476 0.773191
1.00091 1.00528 0.987158
1.00329 1.00218 0.990983
1.00102 1.00497 0.987973
1.00091 1.00503 0.987892
1.00063 1.00183 0.991176
1.00143 1.00235 0.991301
0.998756 1.00095 0.995383
0.99483 0.994839 0.777564
0.994875 0.994853 0.791807
0.99483 0.994816 0.777628
0.99489 0.994895 0.814976
0.99512 0.994739 0.948535
0.994838 0.99483 0.910983
0.996133 0.995331 0.870979
0.995413 0.994857 0.949474
0.994808 0.996933 0.910611
0.996285 0.99508 0.873354
0.995193 0.994896 0.805765
0.994825 0.996158 0.953808
0.995241 0.998592 0.912066
0.995222 0.994907 0.849114
0.994848 0.996856 0.781463
0.995173 1.0054 0.997075
0.996869 1.00382 0.995715
0.997989 1.00449 0.993409
1.00046 1.00485 0.989167
0.995442 1.00188 0.983073
0.994638 1.0052 0.996151
0.995285 1.00534 0.997113
0.995717 1.00523 0.997697
0.994725 1.00529 0.99961
0.995307 1.00536 0.99793
0.995501 1.00424 0.999177
0.994758 1.00234 0.979105
0.994749 1.00522 0.99452
0.995704 1.00347 0.999724
0.996123 1.00061 0.973838
0.995351 1.00457 0.997223
0.994727 0.994821 0.763315
0.994831 0.994855 0.771346
0.994732 0.994821 0.758981
0.994634 1.00531 0.997882
0.99483 1.00171 0.969689
0.994785 0.994838 0.775343
0.994936 0.994885 0.917591
0.995771 0.995107 0.870834
0.994805 0.994812 0.780044
0.994818 0.997395 0.79426
0.994729 1.00504 0.989034
0.994736 0.994819 0.771322
0.994801 0.994812 0.77279
0.994824 1.00197 0.9588
0.994898 1.00035 0.798984
0.994811 0.997352 0.840426
0.994838 0.994907 0.913808
0.995381 1.00392 0.982168
0.99481 0.994825 0.774644
0.99486 0.996443 0.782139
0.994739 0.999742 0.85195
0.994817 0.995009 0.922112
0.994833 0.998843 0.954035
0.994721 1.00511 0.999165
0.994983 1.00518 0.998189
0.994989 1.0053 0.997791
0.994865 1.00269 1.0004
0.996856 1.00285 0.998677
1.00058 1.00203 0.994019
1.00482 0.999301 0.989813
1.00296 1.005 0.985287
1.00432 1.00136 0.98625
1.00418 1.00398 0.983502
1.00444 1.00338 0.983634
1.00509 1.00096 0.985442
1.00543 0.996717 0.988364
1.00536 0.999004 0.986871
1.00521 0.999772 0.986139
1.00512 1.00174 0.985351
1.00515 1.00118 0.985102
1.00501 1.00249 0.984342
1.0053 1.00404 0.982892
1.00512 1.00281 0.984413
1.00529 1.00146 0.98502
1.00428 1.00221 0.987056
1.00419 1.00304 0.98524
1.00418 1.00346 0.984537
1.0037 1.0039 0.985558
1.00272 1.003 0.987588
1.00316 1.00239 0.986191
1.00142 1.00255 0.989854
1.00309 1.00521 0.985147
1.00304 1.00516 0.985697
1.00281 1.00515 0.985863
1.00086 1.00236 0.99111
1.00032 0.999305 0.998061
1.00063 1.00139 0.992539
1.00032 0.998557 0.998328
1.00038 0.997817 0.998536
1.00348 1.00488 0.987012
1.00344 1.00516 0.986025
1.00167 1.00497 0.987586
1.00221 1.00483 0.986831
1.00013 1.00147 0.993308
1.00113 1.0047 0.988646
1.00181 1.00517 0.98716
1.00009 0.998233 0.998639
1.00019 1.00064 0.994
1.00071 1.00429 0.989746
1.00006 0.997918 0.998805
1.00015 1.00013 0.994557
1.00003 0.997619 0.998951
0.994774 0.994842 0.763421
0.99482 0.994831 0.773881
0.994742 0.994818 0.767957
1.00186 1.00524 0.986695
1.00001 1.00241 0.991713
1.00302 1.0026 0.988046
0.998336 1.00494 0.991127
1.00231 0.998131 0.993197
1.00107 1.00511 0.987759
0.999775 1.00263 0.992263
1.00086 1.00273 0.991284
0.998738 0.99963 0.997896
0.999352 1.00157 0.996097
0.994778 0.994751 0.770599
0.994815 0.994841 0.778794
0.994864 0.994841 0.789118
0.995775 0.99488 0.808185
0.996394 0.994912 0.86179
0.995166 0.994864 0.947768
0.99474 0.996972 0.923637
0.99486 0.997193 0.947953
0.994867 0.99817 0.924293
0.995323 0.995079 0.858611
0.994868 0.997368 0.77845
0.994894 1.00005 0.948965
0.994897 0.995854 0.923657
0.994851 0.997384 0.863501
0.994819 1.00165 0.804166
0.998274 1.00055 0.998224
0.995387 1.00504 0.997369
0.997193 1.00354 0.996488
0.994786 1.00185 0.975471
0.994773 1.00525 0.993415
0.995319 1.00535 0.997805
0.994868 1.00408 0.999433
0.995522 1.00404 0.999687
0.994904 1.00391 0.997876
0.994832 1.00217 0.974727
0.994984 1.00217 1.00347
0.994763 1.00142 0.981784
0.994753 0.994759 0.781256
0.994741 0.994834 0.762942
0.994812 0.994848 0.779454
0.994759 1.00476 0.989133
0.994841 0.999474 0.956107
0.994743 0.994822 0.772018
0.994821 0.994899 0.925096
0.994807 0.99744 0.85749
0.994837 0.994804 0.773159
0.994897 0.998801 0.798253
0.995052 1.00408 0.983143
0.994816 0.994802 0.774519
0.994872 0.997474 0.784305
0.99485 0.998167 0.955668
0.994768 0.998935 0.858345
0.995208 0.994821 0.911431
0.994815 1.00257 0.981011
0.99478 0.995181 0.777833
0.995487 0.996063 0.866632
0.994802 0.994599 0.906528
0.994931 0.99509 0.954234
0.994848 1.0053 0.998288
0.994901 1.00529 0.997599
0.997748 1.00001 0.997245
0.995389 1.00282 0.999191
0.999534 1.00211 0.99487
1.00413 0.996234 0.99323
1.00409 1.00517 0.98457
1.00414 1.00132 0.986185
1.00504 0.996741 0.989255
1.00449 1.00334 0.983695
1.00503 1.00064 0.985466
1.00532 0.997125 0.988375
1.00546 0.994773 0.990444
1.00549 0.996162 0.988537
1.00543 0.996647 0.988396
1.00549 0.998679 0.987188
1.00536 0.99905 0.986808
1.00521 0.9999 0.986161
1.00534 1.002 0.984505
1.00509 1.00142 0.985206
1.00512 1.00087 0.985152
1.00529 1.00488 0.983258
1.00445 1.00388 0.983448
1.00507 1.00248 0.984544
1.00267 1.00442 0.98654
1.00308 1.00278 0.986965
1.00278 1.00329 0.985786
1.0024 1.00352 0.989646
1.00304 1.00401 0.985715
1.00268 1.00287 0.987526
1.00062 1.00047 0.994237
1.00175 1.00287 0.990161
1.00313 1.00521 0.985292
1.00114 1.00226 0.991082
1.00045 0.999503 0.997912
1.00038 0.998887 0.998202
1.00248 1.00336 0.986369
1.00324 1.0051 0.985887
1.00112 1.00487 0.987398
1.0017 1.00514 0.987301
1.00228 1.00512 0.986083
1.00004 1.00192 0.992925
1.00149 1.00506 0.987593
1.00208 1.00516 0.986816
1.00009 0.998592 0.998488
1.00013 1.00127 0.993369
1.00088 1.00474 0.988625
1.00006 0.998139 0.998683
1.00016 1.00054 0.994017
1.00004 0.997852 0.998835
0.99475 0.994818 0.778777
0.994778 0.994834 0.7641
0.994794 0.994847 0.772049
1.00294 1.00528 0.984389
1.00142 1.00523 0.986314
0.999029 1.00263 0.992656
1.00029 1.00514 0.990391
1.00375 1.00126 0.987738
1.00145 0.997675 0.995677
1.0037 1.00073 0.988902
0.995435 1.00526 0.994876
0.999839 1.00312 0.991155
0.997734 0.996847 1.00018
0.997251 1.00276 0.996195
0.997427 1.00313 0.996083
0.994886 0.999922 0.801314
0.994791 0.994773 0.770448
0.994799 0.994847 0.779699
0.995213 0.997398 0.792841
0.995446 0.994897 0.857671
0.995202 0.998593 0.912422
0.995051 0.995813 0.948849
0.995481 0.99908 0.950338
0.994846 1.00047 0.802751
0.994832 0.996961 0.914946
0.994838 0.997183 0.842954
0.994841 0.996899 0.957451
0.994779 0.994795 0.924808
0.994735 0.99843 0.853837
0.998854 0.997359 1.00244
0.997863 1.0007 0.998195
0.995064 1.0054 0.997649
0.994789 1.00252 0.975354
0.994743 1.00294 0.998511
0.995527 1.00338 0.999751
0.995544 1.0002 1.00381
0.994998 1.00018 0.982037
0.995554 0.996132 0.995447
0.994792 0.994706 0.792103
0.994746 0.994779 0.779796
0.99477 0.994823 0.762186
0.994768 1.0047 0.983076
0.994842 0.999787 0.955364
0.994802 0.994799 0.774652
0.994836 0.994803 0.909367
0.994735 0.99779 0.841235
0.994872 0.999467 0.796809
0.994823 1.00431 0.98075
0.994808 0.996418 0.792447
0.994771 0.996713 0.845517
0.995246 0.99488 0.948027
0.995115 0.99461 0.922801
0.996141 0.997889 0.986847
0.998991 0.99989 0.834326
0.994836 0.994645 0.933088
0.994959 0.994704 0.945827
0.994841 1.00529 0.99747
0.997677 1.00112 0.996786
1.00105 0.996157 0.994739
0.99841 1.00264 0.995727
1.00316 0.997015 0.992985
1.00494 0.994629 0.992371
1.00404 1.00116 0.986125
1.00505 0.996545 0.989124
1.00524 0.995004 0.990466
1.00492 1.00017 0.98549
1.0053 0.996954 0.988285
1.00542 0.994729 0.990353
1.00535 0.994753 0.991049
1.00544 0.994794 0.990526
1.00545 0.994783 0.990446
1.00554 0.995856 0.988833
1.00551 0.996105 0.98871
1.00544 0.996588 0.988431
1.00554 0.998381 0.986997
1.00548 0.998506 0.987045
1.00536 0.999117 0.986741
1.00543 1.00297 0.982615
1.00537 1.00202 0.984426
1.00515 1.00113 0.98506
1.00369 1.00372 0.985079
1.00418 1.00464 0.983319
1.00396 1.00393 0.984005
1.00255 1.00353 0.986951
1.0032 1.00356 0.986413
1.00196 1.003 0.986861
1.0002 1.00264 0.996815
1.00229 1.00363 0.987531
1.00346 1.00333 0.985827
1.00063 1.0001 0.997504
1.00182 1.00288 0.989373
1.00055 0.999564 0.99776
1.00445 1.00498 0.983686
1.00386 1.00278 0.986293
1.00226 1.00437 0.986073
1.00207 1.00514 0.987374
1.00272 1.00493 0.985878
1.00129 1.00452 0.987762
1.00041 1.00213 0.992321
1.00164 1.00516 0.987292
1.00255 1.00439 0.986142
1.00012 0.999093 0.998419
0.999989 1.00198 0.992911
1.00141 1.0052 0.987598
1.00005 0.998639 0.998535
1.00012 1.00135 0.993416
1.00003 0.998135 0.998723
0.994788 0.995321 0.785865
0.994761 0.994811 0.778861
0.99478 0.994827 0.764903
1.00286 1.00491 0.984795
1.00481 1.003 0.98602
1.00116 1.00443 0.98728
1.0001 1.00528 0.989617
1.00458 1.00084 0.987448
0.996902 0.99875 0.997889
0.99804 1.00265 0.994542
1.00171 1.00178 0.990215
1.0008 1.00124 0.992335
0.998737 1.00228 0.994952
0.997304 1.00297 0.996311
0.998636 1.00282 0.996076
0.994833 0.998798 0.841426
0.994832 0.998643 0.796112
0.994822 0.994793 0.771046
0.994872 0.999416 0.800897
0.994813 0.997315 0.860017
0.99484 0.996044 0.913145
0.9949 1.0004 0.948604
0.995127 0.997407 0.952943
0.994808 0.998906 0.859094
0.995068 0.994777 0.90998
0.994911 0.994825 0.959253
0.9949 0.994545 0.910456
0.998251 0.996773 1.00526
0.998822 0.997462 1.00211
0.99759 1.00081 0.998144
0.995269 1.0005 0.982295
0.996094 0.999299 1.0041
0.995519 0.996489 0.994871
0.995287 0.994685 0.99216
0.999282 0.99995 0.844254
0.994819 0.994676 0.788126
0.994741 0.994806 0.77819
0.99485 1.00399 0.981307
0.995031 0.995 0.948801
0.994816 0.996477 0.790685
0.994879 0.994589 0.909117
0.994767 0.997752 0.864502
0.995981 0.998017 0.983125
0.998633 0.996572 0.849567
0.995769 0.994613 0.916529
0.99517 0.994738 0.94779
0.997451 0.995968 0.982393
0.997431 0.994866 0.932313
0.994898 0.994726 0.956701
0.997382 1.00218 0.996358
1.00061 0.996259 0.994677
1.00348 0.995581 0.992828
1.0023 0.99734 0.992747
1.00455 0.99465 0.992272
1.00516 0.994577 0.991363
1.00508 0.996444 0.988996
1.00523 0.995112 0.990334
1.00541 0.994613 0.990447
1.00525 0.996766 0.988194
1.00544 0.994724 0.990307
1.00537 0.994745 0.990683
1.00541 0.994827 0.990719
1.00535 0.994751 0.991013
1.00538 0.994771 0.991007
1.00538 0.99482 0.990868
1.00544 0.99481 0.990658
1.00543 0.994789 0.990448
1.00552 0.99591 0.989101
1.00554 0.995815 0.988884
1.00552 0.99604 0.988883
1.00558 1.0002 0.985041
1.00556 0.998464 0.987004
1.00547 0.998365 0.986906
1.00532 1.00336 0.98217
1.00545 1.00322 0.982804
1.00541 1.00205 0.984346
1.00265 1.0041 0.986259
1.00369 1.00413 0.98497
1.00332 1.00471 0.983396
1.00145 1.00173 0.996441
1.00275 1.00367 0.986984
1.00283 1.00351 0.986305
1.00078 1.00188 0.994818
1.00253 1.00329 0.987821
1.00089 1.00086 0.997116
1.00495 1.00399 0.982529
1.00409 1.00499 0.983624
1.00342 1.00319 0.985209
1.0042 1.00251 0.986215
1.00332 1.00419 0.986178
1.00215 1.0052 0.987018
1.00137 1.00252 0.990708
1.00172 1.00514 0.98727
1.00185 1.00513 0.985878
1.00028 0.998858 0.998116
1.00034 1.00212 0.992292
1.00171 1.00517 0.987286
1.00004 0.998757 0.998427
1.0001 1.00166 0.992939
1 0.998499 0.998583
0.997376 0.995489 0.851929
0.994814 0.995969 0.791017
0.994757 0.99481 0.779088
1.00318 1.00493 0.985203
1.00173 1.00513 0.98732
1.00455 1.00231 0.98533
1.00518 0.998954 0.987647
1.00301 0.999901 0.990503
1.00074 1.00318 0.994216
1.0024 1.00045 0.991521
1.00145 1.00156 0.992532
1.00483 0.997 0.990561
1.0018 1.00009 0.993029
1.00267 0.998972 0.992699
1.00022 1.00063 0.995128
0.999071 1.00273 0.996192
0.997394 0.994646 0.927762
0.996069 0.997875 0.848687
0.994778 0.996956 0.801401
0.994787 0.99937 0.84299
0.994781 0.994796 0.920885
0.995292 0.997726 0.956979
0.995102 0.994846 0.96167
0.995008 0.994588 0.92601
0.995539 0.994772 0.957008
0.99747 0.995175 1.00468
0.997624 0.997114 1.00538
0.9988 0.997515 1.00183
0.995314 0.996632 0.994559
0.996365 0.994854 0.993541
0.999454 0.997431 0.915604
0.999645 0.996528 0.85464
0.994841 0.994641 0.7839
0.99609 0.997372 0.978841
0.994988 0.994721 0.946182
0.999208 0.995794 0.849175
0.99481 0.994643 0.931514
0.997765 0.994954 0.982516
0.999245 0.994987 0.92786
0.9952 0.994729 0.953407
0.999635 0.994587 0.98252
0.998233 0.994714 0.965787
1.00026 0.996666 0.994555
1.0025 0.995277 0.992936
1.00488 0.994667 0.991715
1.00407 0.994682 0.992169
1.00505 0.994589 0.991285
1.00536 0.994668 0.990598
1.0052 0.995225 0.9902
1.0054 0.994635 0.9904
1.00541 0.994774 0.990379
1.00545 0.994723 0.99026
1.00537 0.994752 0.990696
1.0054 0.994796 0.990531
1.00541 0.994822 0.990678
1.00542 0.994848 0.990696
1.00535 0.994748 0.990976
1.00538 0.994763 0.991012
1.00538 0.994805 0.990956
1.00542 0.995015 0.99069
1.00538 0.994831 0.990854
1.00544 0.994826 0.99079
1.00551 0.998679 0.986755
1.00552 0.996001 0.989064
1.00554 0.995765 0.988933
1.00546 1.00393 0.981661
1.00557 1.00055 0.985081
1.00558 0.998526 0.987011
1.00334 1.00372 0.985424
1.00506 1.00398 0.982283
1.00544 1.00343 0.982997
1.0017 1.00168 0.996109
1.0029 1.00389 0.986132
1.00352 1.00448 0.984884
1.00149 1.00144 0.996333
1.00288 1.00351 0.987026
1.00131 1.00116 0.996552
1.0053 1.00213 0.985232
1.00515 1.00448 0.982659
1.00378 1.00494 0.982424
1.00403 1.00446 0.98355
1.00318 1.00422 0.984723
1.00236 1.0045 0.985404
1.00311 1.00352 0.986258
1.00186 1.00497 0.986906
1.00215 1.00338 0.988475
1.00048 1.00039 0.997427
1.00083 1.00292 0.990674
1.00136 1.00515 0.987172
1.00013 0.999427 0.998241
0.999839 1.00263 0.9922
1.00002 0.998902 0.998449
0.9999 0.994838 0.933195
0.999596 0.998038 0.848152
0.994823 0.995263 0.785446
1.00129 1.0051 0.987352
1.005 1.00219 0.984649
1.00359 1.00032 0.989711
1.00505 0.999318 0.987288
1.00533 0.996799 0.988857
1.00491 0.996096 0.990535
1.00221 1.00016 0.992671
1.00487 0.997353 0.989808
1.00207 1.00056 0.992692
1.0044 0.998666 0.989598
1.00231 1.00057 0.990696
1.00308 0.998298 0.993862
1.0024 0.999899 0.992979
1.00085 0.999799 0.995279
0.994943 0.994696 0.957089
0.996004 0.994628 0.922493
0.994797 0.999207 0.866062
0.994815 0.994554 0.909121
0.994861 0.995261 0.962844
0.995564 0.994765 0.964085
0.998544 0.994656 0.989244
0.998726 0.994898 1.00316
0.997152 0.997308 1.00553
0.997191 0.994867 0.99491
0.999407 0.99471 0.955747
1.00077 0.994847 0.93224
0.999223 1.00243 0.833112
0.99782 0.994713 0.982971
0.995578 0.994734 0.95402
0.998109 0.994722 0.922701
0.999707 0.994634 0.98322
0.997667 0.994739 0.964359
1.00144 0.996015 0.98691
1.00419 0.99457 0.983259
1.00136 0.994688 0.993072
1.00419 0.994649 0.991861
1.0053 0.994812 0.990668
1.00493 0.994587 0.991207
1.00537 0.994653 0.990585
1.00544 0.994747 0.990447
1.00539 0.994655 0.990351
1.00542 0.994765 0.990392
1.0054 0.994814 0.990557
1.00537 0.994755 0.990708
1.00541 0.994799 0.990542
1.00541 0.994865 0.990678
1.0054 0.994816 0.990638
1.00542 0.994847 0.990684
1.00536 0.994869 0.990892
1.00538 0.994758 0.991017
1.00538 0.994798 0.990962
1.00539 0.995053 0.990785
1.00542 0.997006 0.988627
1.00542 0.995203 0.990427
1.00539 0.99484 0.990841
1.00543 1.0023 0.983214
1.00552 0.998833 0.986753
1.00552 0.996093 0.989027
1.00372 1.00332 0.985155
1.00533 1.004 0.981714
1.00557 1.00094 0.985124
1.00231 1.002 0.99558
1.00327 1.00382 0.985302
1.00474 1.00463 0.982379
1.00191 1.00197 0.995846
1.00311 1.00375 0.985992
1.0016 1.00163 0.996136
1.00549 0.99883 0.986679
1.00512 1.00209 0.984924
1.00543 1.00347 0.983209
1.00494 1.00411 0.982777
1.00481 1.00476 0.982265
1.00373 1.00512 0.983141
1.00434 1.00538 0.98426
1.00358 1.00416 0.985556
1.00246 1.00395 0.986745
1.00236 1.00471 0.98685
1.00177 1.00363 0.98849
1.00076 1.0017 0.996619
1.00029 0.999936 0.997701
1.00063 1.00296 0.99067
1.00001 0.999041 0.998322
0.994898 0.994768 0.961517
0.997981 0.995181 0.916424
0.999314 1.00155 0.863573
1.00547 0.995278 0.989785
1.00391 1.00065 0.988943
1.00499 0.999392 0.986933
1.0051 0.996407 0.990402
1.00537 0.996825 0.988945
1.00535 0.995681 0.989988
1.00473 0.99777 0.989091
1.00152 1.00066 0.992408
1.00448 0.997937 0.989629
1.00243 1.00095 0.989607
1.00342 0.999055 0.99021
1.00371 0.994454 0.99444
1.002 0.997891 0.994402
1.00183 1.00029 0.993269
0.997532 0.99467 0.987454
0.995145 0.994693 0.95499
0.994939 0.994651 0.917413
0.994948 0.99474 0.964619
0.99856 0.994648 0.991212
0.999442 0.994988 1.00161
1.00461 0.99463 0.974176
1.00132 0.994745 0.95287
0.999764 0.997434 0.916192
0.999489 0.994694 0.98385
0.996153 0.994702 0.964289
1.00131 0.995362 0.987692
1.0026 0.994594 0.983909
1.00309 0.996068 0.989977
1.00552 0.994508 0.990483
1.00369 0.994657 0.992006
1.00531 0.994775 0.990637
1.00545 0.994951 0.990532
1.00538 0.994642 0.990573
1.00544 0.994762 0.990458
1.00541 0.994821 0.990708
1.00542 0.994758 0.990406
1.00541 0.994811 0.990538
1.00538 0.994867 0.990844
1.00541 0.994803 0.990553
1.00541 0.994867 0.990675
1.00536 0.9949 0.99089
1.00542 0.994846 0.990672
1.00537 0.994864 0.99086
1.00527 0.994882 0.991163
1.00537 0.994792 0.990967
1.0054 0.994944 0.990853
1.0054 0.996152 0.989866
1.00536 1.00132 0.984741
1.00545 0.997309 0.988357
1.00542 0.995385 0.990164
1.00393 1.00239 0.985719
1.00544 1.0025 0.983223
1.00552 0.99897 0.986751
1.00292 1.00166 0.995432
1.00366 1.00331 0.9852
1.00539 1.00418 0.981764
1.00242 1.00205 0.995513
1.00319 1.00387 0.985202
1.00201 1.00218 0.995667
1.00551 0.996507 0.988659
1.00545 0.998945 0.986699
1.0056 1.00114 0.984838
1.00489 1.00242 0.984626
1.00538 1.00354 0.983185
1.00496 1.0046 0.981812
1.00534 1.00495 0.982114
1.00412 1.00483 0.983146
1.00271 1.00414 0.986034
1.00313 1.00472 0.985567
1.00247 1.00418 0.986835
1.00104 1.00288 0.996149
1.00149 1.00399 0.988501
1.00049 1.00164 0.996925
1.0001 1.00013 0.997942
0.998115 0.994722 0.98523
0.996299 0.994789 0.955426
1.00001 0.994835 0.932665
1.00544 0.994844 0.990127
1.00546 0.99475 0.990364
1.00548 0.995218 0.989865
1.00524 0.99679 0.990247
1.0054 0.996747 0.989041
1.00535 0.995758 0.989995
1.00541 0.99504 0.990119
1.0047 0.997326 0.989645
1.00342 1.00173 0.988511
1.00376 0.998288 0.990352
1.00527 0.994592 0.991326
1.00367 0.994685 0.992928
1.00266 0.994464 0.994416
1.00173 0.997545 0.994959
0.998684 0.994648 0.987266
0.995572 0.994734 0.954166
0.999533 0.994623 0.993292
1.0053 0.994592 0.989038
1.00443 0.994623 0.974042
0.999218 0.994801 0.954461
1.00172 0.994726 0.988346
1.00109 0.994622 0.984587
1.00367 0.995456 0.99025
1.00543 0.994521 0.99074
1.00555 0.994711 0.990939
1.0056 0.994596 0.991387
1.00531 0.994739 0.99061
1.00544 0.994876 0.990559
1.00545 0.99482 0.991024
1.00544 0.994774 0.99047
1.00541 0.99482 0.990711
1.00537 0.994853 0.991036
1.00541 0.994807 0.99052
1.00538 0.994868 0.990845
1.00536 0.994911 0.991024
1.00541 0.994868 0.990671
1.00536 0.994901 0.99089
1.00521 0.994925 0.991304
1.00537 0.994858 0.990828
1.0053 0.994882 0.991109
1.00536 0.995492 0.990625
1.00542 0.99484 0.99092
1.00538 0.99618 0.989831
1.00531 1.00038 0.985844
1.00395 1.00162 0.986597
1.00534 1.00131 0.984772
1.00548 0.997626 0.988087
1.00338 1.00099 0.995369
1.00392 1.00243 0.985787
1.00546 1.00259 0.983235
1.00301 1.00164 0.995369
1.00361 1.00339 0.985241
1.00258 1.00221 0.995433
1.00543 0.995174 0.990158
1.00548 0.996434 0.988827
1.00545 0.999299 0.986621
1.00538 0.999044 0.986721
1.00554 1.00101 0.984773
1.00537 1.00426 0.981739
1.00547 1.00336 0.983158
1.00498 1.00475 0.981734
1.00276 1.00422 0.985561
1.00516 1.00373 0.983232
1.0027 1.00411 0.986143
1.00139 1.00276 0.995937
1.00235 1.00423 0.986926
1.00094 1.00245 0.996289
1.00029 1.00118 0.997221
1.00373 0.994768 0.991948
0.997704 0.994729 0.982519
0.9957 0.994788 0.957562
1.00546 0.994726 0.990228
1.00543 0.994867 0.990154
1.00536 0.994829 0.990764
1.00546 0.994762 0.99035
1.00547 0.995193 0.989935
1.00543 0.994686 0.990536
1.00534 0.995779 0.989998
1.00538 0.994884 0.990151
1.00531 0.994727 0.990961
1.00399 0.997523 0.990495
1.00529 0.994577 0.990896
1.00284 0.994866 0.993113
1.0013 0.994458 0.99442
0.999397 0.99462 0.986937
1.00551 0.994674 0.991643
1.00532 0.994575 0.989084
1.00407 0.994605 0.974018
1.00409 0.994816 0.990477
1.00547 0.994537 0.990981
1.00552 0.994711 0.990828
1.00566 0.994597 0.991569
1.00551 0.994752 0.991516
1.00544 0.994798 0.990586
1.00544 0.994817 0.99102
1.00538 0.994846 0.991325
1.00542 0.994819 0.990714
1.00537 0.994856 0.991034
1.00535 0.9949 0.991226
1.00538 0.994869 0.990846
1.00535 0.994911 0.991029
1.00523 0.994952 0.991398
1.00536 0.994901 0.990891
1.00523 0.994925 0.991292
1.00532 0.995083 0.991263
1.00534 0.994882 0.991056
1.00532 0.99558 0.990606
1.00535 0.99957 0.986696
1.00536 0.996207 0.989796
1.00531 1.00037 0.985869
1.00379 1.00129 0.989292
1.00373 0.999992 0.991362
1.00399 1.0016 0.987651
1.00531 1.00129 0.984798
1.0033 1.00091 0.995427
1.00389 1.00241 0.985844
1.00308 1.00159 0.995341
1.00533 0.994912 0.991054
1.00537 0.994834 0.990826
1.00544 0.995154 0.990285
1.00541 0.997478 0.988341
1.00547 0.996354 0.988995
1.00548 0.999084 0.98659
1.0054 1.00341 0.982447
1.00556 1.00105 0.984704
1.00546 1.00418 0.981675
1.00334 1.00385 0.985134
1.0051 1.00499 0.981649
1.00297 1.00412 0.985586
1.00211 1.00275 0.995565
1.00275 1.00409 0.986263
1.00138 1.00269 0.996035
1.00064 1.00253 0.996495
1.00541 0.994769 0.991489
1.00307 0.994799 0.991452
0.997726 0.994743 0.979693
1.00536 0.99482 0.990755
1.00545 0.994741 0.99019
1.00544 0.994832 0.990186
1.00534 0.994829 0.990813
1.00547 0.994773 0.990337
1.00537 0.994798 0.9911
1.0054 0.994676 0.990487
1.00534 0.994806 0.99018
1.00529 0.994714 0.991013
1.0053 0.994576 0.990462
1.00218 0.994608 0.993215
1.00548 0.994771 0.991507
1.00552 0.994672 0.991641
1.00537 0.994553 0.989134
1.00549 0.994707 0.990712
1.0057 0.9946 0.99175
1.00552 0.994748 0.99149
1.00539 0.99485 0.991583
1.00544 0.994815 0.991015
1.00538 0.994848 0.991284
1.00535 0.994894 0.991438
1.00536 0.994859 0.991033
1.00535 0.9949 0.991228
1.00526 0.994932 0.991508
1.00535 0.994912 0.991034
1.00522 0.994951 0.991401
1.00531 0.994944 0.991593
1.00524 0.994925 0.99128
1.0053 0.995122 0.991239
1.00539 0.998861 0.98747
1.00527 0.995667 0.990587
1.00536 0.999564 0.986707
1.00378 1.00086 0.989673
1.00531 1.00034 0.985898
1.00408 1.00109 0.989121
1.00346 0.999771 0.991672
1.00321 1.00033 0.993636
1.00426 1.00155 0.988467
1.00321 1.00082 0.995501
1.0053 0.994901 0.991058
1.00527 0.994897 0.991291
1.00533 0.994918 0.991086
1.00529 0.996098 0.989911
1.00536 0.994827 0.990885
1.00546 0.995141 0.990411
1.0054 0.997285 0.988383
1.00532 1.00191 0.984023
1.00545 0.998893 0.986563
1.00539 1.0035 0.98242
1.00372 1.00295 0.985598
1.00547 1.00398 0.981615
1.00336 1.00376 0.985134
1.00275 1.00214 0.99534
1.00309 1.00396 0.985621
1.00187 1.00249 0.995734
1.00126 1.00262 0.99608
1.00541 0.994805 0.991321
1.00536 0.994774 0.991537
1.00181 0.995283 0.991009
1.00533 0.994857 0.991108
1.00536 0.994815 0.990715
1.00545 0.994755 0.990156
1.00532 0.994837 0.990859
1.00539 0.994803 0.991033
1.00538 0.994665 0.990439
1.00528 0.994694 0.991063
1.00541 0.994838 0.991575
1.00547 0.994776 0.991497
1.00551 0.994665 0.991637
1.00534 0.994871 0.991655
1.00554 0.994744 0.991464
1.00539 0.99485 0.991573
1.00535 0.994895 0.991589
1.00538 0.994849 0.991244
1.00536 0.994894 0.991442
1.00526 0.994919 0.991642
1.00535 0.994901 0.99123
1.00525 0.994932 0.991515
1.00533 0.994945 0.991713
1.00522 0.99495 0.991404
1.00531 0.994947 0.99157
1.00536 0.998262 0.988233
1.00528 0.995159 0.991215
1.0054 0.998864 0.987468
1.00368 1.00059 0.990047
1.00538 0.999554 0.986718
1.00404 1.00072 0.989491
1.00326 0.999814 0.991874
1.00436 1.00089 0.988956
1.00284 0.999961 0.992137
1.00228 1.0007 0.996376
1.00531 0.994908 0.991155
1.00516 0.994925 0.991445
1.00532 0.994908 0.991079
1.00524 0.996204 0.990144
1.00524 0.994894 0.991252
1.00533 0.994922 0.991121
1.00535 1.00036 0.985746
1.00532 0.996007 0.98995
1.00533 0.994811 0.990946
1.00535 0.997133 0.988424
1.00533 1.00203 0.983995
1.00383 1.00189 0.986597
1.00544 1.0036 0.982385
1.00373 1.00288 0.985562
1.00291 1.00136 0.995487
1.00343 1.00373 0.985125
1.00264 1.00217 0.995413
1.00184 1.00237 0.995914
1.00534 0.994863 0.991443
1.00541 0.9948 0.99127
1.00533 0.994785 0.991584
1.00532 0.994861 0.991125
1.00534 0.99481 0.990675
1.00541 0.994811 0.990965
1.00535 0.994878 0.991662
1.00541 0.994844 0.991588
1.00545 0.994781 0.991487
1.00534 0.994873 0.991684
1.00534 0.994909 0.991675
1.00539 0.994849 0.991562
1.00535 0.994897 0.991599
1.00525 0.994921 0.991725
1.00536 0.994894 0.991447
1.00526 0.994919 0.991648
1.00534 0.994951 0.991781
1.00525 0.994932 0.991521
1.00533 0.994945 0.9917
1.00533 0.997784 0.988848
1.00532 0.99495 0.991545
1.00538 0.998255 0.988223
1.0035 1.00041 0.990458
1.00542 0.998867 0.987468
1.00391 1.00049 0.989869
1.00298 0.999929 0.992102
1.00428 1.0006 0.989317
1.00272 0.999893 0.992341
1.00225 1.00018 0.992584
1.00532 0.994901 0.991403
1.00518 0.99495 0.991458
1.00531 0.994902 0.991136
1.00528 0.995659 0.990652
1.00516 0.994935 0.991448
1.00533 0.994914 0.991098
1.00539 0.999428 0.986809
1.00528 0.995719 0.990503
1.00521 0.994891 0.991213
1.00384 1.00117 0.987343
1.00532 1.00043 0.985716
1.00536 0.995871 0.989989
1.00535 1.00213 0.983964
1.00382 1.0019 0.986522
1.00288 1.00077 0.99569
1.00371 1.00282 0.985523
1.00299 1.00143 0.995413
1.00245 1.00206 0.99552
1.00533 0.994897 0.991621
1.00534 0.994861 0.991401
1.00541 0.994794 0.991219
1.0053 0.994864 0.991141
1.00533 0.994916 0.991677
1.00535 0.994878 0.991668
1.00541 0.994851 0.991601
1.00534 0.994875 0.991712
1.00534 0.994907 0.991685
1.00524 0.994932 0.991871
1.00535 0.9949 0.99161
1.00525 0.994924 0.99177
1.00534 0.994948 0.991758
1.00526 0.99492 0.991654
1.00534 0.994952 0.991777
1.00531 0.997463 0.989228
1.00534 0.994944 0.991686
1.00533 0.997773 0.988835
1.00348 1.00024 0.988957
1.00539 0.998257 0.988212
1.00372 1.00035 0.989391
1.00245 1.00001 0.996054
1.00413 1.0004 0.989694
1.0025 0.999951 0.992557
1.00221 0.999951 0.992789
1.00533 0.994917 0.991546
1.00519 0.994934 0.991565
1.00532 0.994903 0.99143
1.00528 0.994968 0.991498
1.00518 0.994944 0.991485
1.00532 0.994895 0.991117
1.00538 0.998023 0.988305
1.00528 0.995687 0.990635
1.00515 0.994946 0.99145
1.00382 1.00073 0.987855
1.00536 0.998989 0.987237
1.00533 0.995211 0.99086
1.00279 1.00039 0.995829
1.00383 1.00118 0.987296
1.00529 1.00049 0.98569
1.0038 1.00192 0.986453
1.00299 1.00081 0.995623
1.00307 1.0015 0.99537
1.00533 0.994922 0.99159
1.00533 0.994899 0.991611
1.00534 0.994858 0.99136
1.00522 0.994941 0.991935
1.00533 0.994913 0.991666
1.00535 0.994877 0.991675
1.00534 0.994906 0.991695
1.00524 0.994931 0.991873
1.00534 0.995272 0.991352
1.00525 0.994928 0.991816
1.00534 0.995134 0.991567
1.00531 0.996959 0.989834
1.00534 0.994952 0.991771
1.00531 0.997441 0.989219
1.00344 0.999957 0.989308
1.00534 0.997755 0.988825
1.00351 1.0002 0.988974
1.00233 1.00004 0.996107
1.00378 1.0003 0.988524
1.00225 1.00004 0.994507
1.00203 0.999948 0.993007
1.00534 0.994925 0.991601
1.00519 0.99494 0.991703
1.00533 0.994915 0.991549
1.00528 0.994965 0.991684
1.00519 0.994936 0.991584
1.00533 0.994905 0.991458
1.00534 0.997788 0.988702
1.00528 0.99528 0.991219
1.00518 0.994939 0.991512
1.00371 1.00055 0.988248
1.00538 0.99796 0.988373
1.00527 0.995712 0.990618
1.00265 1.00018 0.995926
1.0038 1.00077 0.987829
1.00533 0.998567 0.98767
1.0029 1.00039 0.99578
1.00384 1.00118 0.987244
1.00307 1.00084 0.99555
1.00521 0.994938 0.991897
1.00533 0.994921 0.991599
1.00533 0.9949 0.991601
1.00534 0.995319 0.991332
1.00522 0.994938 0.991924
1.00533 0.99491 0.991656
1.00525 0.994931 0.991875
1.00534 0.995323 0.991343
1.00531 0.996907 0.989825
1.00534 0.995332 0.991376
1.00531 0.997144 0.989605
1.00339 0.999738 0.989598
1.00532 0.997424 0.989207
1.00343 0.999963 0.989315
1.00221 1.00001 0.996187
1.00352 1.00016 0.988988
1.00228 1.00005 0.996133
1.00237 1.00003 0.992563
1.0052 0.994931 0.991881
1.00533 0.994924 0.991519
1.00528 0.994952 0.991779
1.00519 0.994941 0.991708
1.00533 0.994914 0.991551
1.00534 0.998262 0.98825
1.00528 0.994965 0.991685
1.00519 0.994938 0.991604
1.00361 1.00044 0.988557
1.00534 0.998072 0.988404
1.00528 0.995589 0.990939
1.00249 1.00015 0.995975
1.00369 1.00061 0.988232
1.00537 0.997899 0.988443
1.00275 1.00018 0.99589
1.00378 1.00081 0.987799
1.00301 1.00038 0.995737
1.00532 0.995377 0.991267
1.00521 0.994938 0.991923
1.00532 0.994921 0.991609
1.00532 0.997046 0.989679
1.00534 0.995367 0.99132
1.00523 0.994934 0.991913
1.00534 0.995376 0.991335
1.00531 0.996971 0.989831
1.00334 0.99961 0.989823
1.00531 0.997316 0.989379
1.0034 0.999729 0.989598
1.00213 0.999978 0.996272
1.00344 0.999965 0.989325
1.00216 1.00004 0.996225
1.00224 1.00006 0.996166
1.00529 0.994946 0.991877
1.0052 0.994932 0.99181
1.00533 0.994923 0.991438
1.00534 0.998137 0.988422
1.00529 0.994951 0.991779
1.00519 0.994942 0.991712
1.00351 1.00028 0.98889
1.00534 0.998289 0.988263
1.00528 0.994965 0.991686
1.00232 1.00018 0.996024
1.00358 1.00049 0.988552
1.00534 0.998358 0.988105
1.00256 1.00014 0.995959
1.00366 1.00067 0.988214
1.00289 1.00016 0.995847
1.00533 0.997773 0.988853
1.00532 0.995171 0.991555
1.00521 0.994937 0.991948
1.00329 0.999594 0.989931
1.00532 0.997084 0.989701
1.00534 0.995418 0.991308
1.00531 0.997031 0.989835
1.00335 0.999588 0.989816
1.00205 0.999955 0.99633
1.0034 0.999721 0.989596
1.00209 0.99998 0.996289
1.0021 1.00005 0.996254
1.00533 0.998011 0.988625
1.0053 0.994946 0.991834
1.0052 0.994933 0.99174
1.00358 1.00011 0.990676
1.00533 0.998166 0.988433
1.00529 0.994951 0.991779
1.00218 1.00017 0.996109
1.00348 1.00033 0.988891
1.00533 0.99832 0.988276
1.00238 1.00017 0.996007
1.00356 1.00054 0.988548
1.00264 1.00012 0.995939
1.00346 0.999612 0.989726
1.00533 0.997545 0.989166
1.00532 0.994946 0.991845
1.00195 0.999958 0.996395
1.00331 0.999561 0.989915
1.00532 0.997123 0.989726
1.00337 0.999563 0.989808
1.00202 0.999946 0.996354
1.00205 0.99999 0.996312
1.00366 0.999864 0.990883
1.00533 0.998019 0.988635
1.0053 0.994946 0.991791
1.00147 1.00019 0.996919
1.0034 1.00011 0.989244
1.00533 0.998192 0.988448
1.00222 1.00018 0.996084
1.00345 1.00039 0.988892
1.00244 1.00014 0.99599
1.00198 0.999804 0.993336
1.00347 0.999659 0.990437
1.00532 0.997332 0.989476
1.00198 0.999954 0.996396
1.00333 0.999538 0.989905
1.00201 0.999942 0.99637
1.00127 1.00004 0.99391
1.00353 0.99979 0.990218
1.00532 0.99803 0.988642
1.00173 1.00014 0.994956
1.00337 1.0001 0.989273
1.00225 1.00018 0.99606
1.00198 0.999963 0.996378
1.00331 0.999655 0.989833
1.00196 0.999939 0.996389
1.00171 0.999932 0.995138
1.00339 0.999757 0.989617
1.0021 1.00015 0.99616
1.00196 1 0.996367
1.00201 1.00004 0.996279

TENSORS stress float
0.00307139 -0.000214953 0.000351475
-0.000214953 0.00170081 -6.88678e-05
0.000351475 -6.88678e-05 0.00167003
0.00931507 0.000255786 0.000451952
0.000255786 0.0058303 6.36628e-05
0.000451952 6.36628e-05 0.00585403
0.00262319 -0.000141721 0.000135521
-0.000141721 0.00139786 -2.55771e-05
0.000135521 -2.55771e-05 0.00134844
0.00269032 -0.000118147 0.000315053
-0.000118147 0.00144687 -3.72315e-05
0.000315053 -3.72315e-05 0.0014327
0.0029783 -0.00018621 0.000338983
-0.00018621 0.00163767 -5.90021e-05
0.000338983 -5.90021e-05 0.00161165
0.00320244 -0.000228756 0.000369914
-0.000228756 0.00177932 -7.43072e-05
0.000369914 -7.43072e-05 0.00174971
0.00245344 -0.00029965 6.80104e-05
-0.00029965 0.00106188 -1.76855e-05
6.80104e-05 -1.76855e-05 0.00087337
0.00956567 0.000260489 -7.63076e-06
0.000260489 0.00598618 -4.32487e-06
-7.63076e-06 -4.32487e-06 0.00601583
0.00785161 0.000320388 0.000213755
0.000320388 0.00491276 2.68558e-05
0.000213755 2.68558e-05 0.00487192
0.00847499 0.000167544 0.000162535
0.000167544 0.0052581 1.44018e-05
0.000162535 1.44018e-05 0.00523265
0.00290878 0.000291207 0.000408664
0.000291207 0.00162521 7.22642e-05
0.000408664 7.22642e-05 0.00159301
0.000227997 0.000380965 2.58521e-05
0.000380965 -0.000330649 2.81203e-05
2.58521e-05 2.81203e-05 -0.000585068
0.00216554 -2.17169e-05 0.000298397
-2.17169e-05 0.00109668 6.64388e-06
0.000298397 6.64388e-06 0.00110701
0.00191684 1.54e-05 8.80677e-05
1.54e-05 0.000962596 4.38386e-06
8.80677e-05 4.38386e-06 0.000906786
0.00223904 -0.000135198 -9.09867e-05
-0.000135198 0.00116208 1.81652e-05
-9.09867e-05 1.81652e-05 0.00108266
0.00231514 -0.000112718 0.000100435
-0.000112718 0.00122033 -7.19343e-06
0.000100435 -7.19343e-06 0.00117898
0.00272624 -0.000136527 0.000148284
-0.000136527 0.00145752 -2.93486e-05
0.000148284 -2.93486e-05 0.00140684
0.00254997 -0.000139729 0.000121094
-0.000139729 0.00135737 -1.87157e-05
0.000121094 -1.87157e-05 0.0013098
0.00258177 -0.000334174 -5.51029e-05
-0.000334174 0.00114629 1.04922e-05
-5.51029e-05 1.04922e-05 0.000970168
0.00695007 -0.000184935 0.000399763
-0.000184935 0.0043215 -2.32293e-05
0.000399763 -2.32293e-05 0.00435592
0.00252762 -9.06433e-05 0.000305053
-9.06433e-05 0.00134138 -2.82746e-05
0.000305053 -2.82746e-05 0.00133201
0.00285385 -0.000151446 0.00032701
-0.000151446 0.00155402 -4.77319e-05
0.00032701 -4.77319e-05 0.00153449
0.00221876 -0.000212378 8.01293e-05
-0.000212378 0.000952907 -1.31716e-05
8.01293e-05 -1.31716e-05 0.000825581
0.00242604 -0.000281226 7.49053e-05
-0.000281226 0.00106158 -1.71451e-05
7.49053e-05 -1.71451e-05 0.000895633
0.00343382 -0.000219626 0.000392556
-0.000219626 0.00191046 -7.46659e-05
0.000392556 -7.46659e-05 0.0018865
0.00249613 -0.00032419 6.65436e-05
-0.00032419 0.00107636 -1.91697e-05
6.65436e-05 -1.91697e-05 0.000857692
0.0023778 -0.00058954 1.27303e-05
-0.00058954 0.000616724 -5.87335e-06
1.27303e-05 -5.87335e-06 0.000268652
0.00984626 0.000264108 -0.000503573
0.000264108 0.00615506 -5.97695e-05
-0.000503573 -5.97695e-05 0.00619212
0.00528599 0.000235574 -0.000183855
0.000235574 0.00318712 -2.44642e-05
-0.000183855 -2.44642e-05 0.00315835
0.0057665 0.000200138 -0.000199827
0.000200138 0.00348508 -2.77259e-05
-0.000199827 -2.77259e-05 0.0034599
0.0101165 0.000211358 -7.04877e-06
0.000211358 0.00634455 -3.65376e-06
-7.04877e-06 -3.65376e-06 0.00637669
0.000243789 0.000363539 -4.90763e-07
0.000363539 -0.000315222 -1.26645e-06
-4.90763e-07 -1.26645e-06 -0.000567489
0.00231293 9.11297e-05 0.00031367
9.11297e-05 0.0011898 3.44731e-05
0.00031367 3.44731e-05 0.00117992
0.00252056 0.000188013 0.000341654
0.000188013 0.00134497 5.67304e-05
0.000341654 5.67304e-05 0.00131963
0.00318988 0.000325297 0.000193403
0.000325297 0.00156747 3.20071e-05
0.000193403 3.20071e-05 0.00143296
0.00928606 -0.000112734 9.75618e-05
-0.000112734 0.00582852 5.58903e-06
9.75618e-05 5.58903e-06 0.00579093
0.00350913 0.00045108 0.000216499
0.00045108 0.00181963 4.49408e-05
0.000216499 4.49408e-05 0.0016374
8.0615e-05 0.000335973 2.1372e-05
0.000335973 -0.000398013 3.87737e-05
2.1372e-05 3.87737e-05 -0.000661039
0.00187111 0.000697562 1.80074e-05
0.000697562 0.000356719 5.86704e-06
1.80074e-05 5.86704e-06 -0.000103454
0.00804377 -1.18634e-05 0.000341851
-1.18634e-05 0.00509782 4.8019e-05
0.000341851 4.8019e-05 0.0051055
0.00687717 9.95351e-05 2.43848e-06
9.95351e-05 0.00425596 -2.39198e-06
2.43848e-06 -2.39198e-06 0.00430072
0.00457038 0.000116982 -0.000150768
0.000116982 0.00272243 -8.16215e-06
-0.000150768 -8.16215e-06 0.0027138
0.00675677 5.89376e-05 0.000388341
5.89376e-05 0.00417757 5.88744e-06
0.000388341 5.88744e-06 0.00422414
0.00178375 9.352e-05 8.93882e-05
9.352e-05 0.000880571 7.68811e-06
8.93882e-05 7.68811e-06 0.000827863
0.000344374 2.33602e-05 1.16762e-05
2.33602e-05 -0.000247843 3.09487e-06
1.16762e-05 3.09487e-06 -0.000349616
0.00707913 0.000264693 0.000224551
0.000264693 0.00443075 2.44416e-05
0.000224551 2.44416e-05 0.00440265
0.00299991 0.000126367 0.000171115
0.000126367 0.0014742 1.37987e-05
0.000171115 1.37987e-05 0.00140447
0.00192899 -0.00011273 -0.000103591
-0.00011273 0.000987548 1.4942e-05
-0.000103591 1.4942e-05 0.000918584
0.00210973 -0.000150711 -0.0001021
-0.000150711 0.00109672 1.99536e-05
-0.0001021 1.99536e-05 0.00101565
0.00232307 -0.000102736 -7.91203e-05
-0.000102736 0.00119504 1.58979e-05
-7.91203e-05 1.58979e-05 0.00111886
0.00266774 -0.000333399 -0.000184416
-0.000333399 0.00118816 3.81828e-05
-0.000184416 3.81828e-05 0.00103066
0.00445553 -5.61767e-05 -0.00015202
-5.61767e-05 0.00265185 -9.08467e-08
-0.00015202 -9.08467e-08 0.00264567
0.00222302 -9.03312e-05 0.000102866
-9.03312e-05 0.00115834 -5.67606e-06
0.000102866 -5.67606e-06 0.00112315
0.00305422 -0.000121896 0.000158977
-0.000121896 0.00165929 -3.04095e-05
0.000158977 -3.04095e-05 0.00160823
0.00243853 -0.000126322 0.000108851
-0.000126322 0.0012931 -1.19709e-05
0.000108851 -1.19709e-05 0.00124862
0.00232164 -0.000193197 -4.39593e-05
-0.000193197 0.00100435 4.40889e-06
-4.39593e-05 4.40889e-06 0.000893805
0.00263223 -0.000374619 -6.3254e-05
-0.000374619 0.00116854 1.21979e-05
-6.3254e-05 1.21979e-05 0.000962149
0.00251573 -0.000292891 -4.96258e-05
-0.000292891 0.00111462 7.93264e-06
-4.96258e-05 7.93264e-06 0.000962809
0.00250895 -0.000599686 -9.93607e-06
-0.000599686 0.000702514 2.72519e-06
-9.93607e-06 2.72519e-06 0.000356116
0.00676028 -3.20572e-05 0.000386197
-3.20572e-05 0.00417605 -7.23571e-06
0.000386197 -7.23571e-06 0.0042239
0.00244601 -6.3621e-05 0.000298854
-6.3621e-05 0.0012893 -2.0434e-05
0.000298854 -2.0434e-05 0.00128617
0.00245815 -4.6159e-05 6.17316e-05
-4.6159e-05 0.00116765 -1.57445e-06
6.17316e-05 -1.57445e-06 0.00108892
0.00216319 -0.000163843 7.19679e-05
-0.000163843 0.000931365 -9.02143e-06
7.19679e-05 -9.02143e-06 0.000823882
0.00232057 -0.000248796 7.9191e-05
-0.000248796 0.00100253 -1.55844e-05
7.9191e-05 -1.55844e-05 0.000856386
0.00226471 -0.000376099 1.96119e-06
-0.000376099 0.000445694 -1.4746e-06
1.96119e-06 -1.4746e-06 0.000238087
0.00235067 -0.000528873 7.55337e-06
-0.000528873 0.000553208 -3.09021e-06
7.55337e-06 -3.09021e-06 0.000268709
0.00343151 -0.000198442 0.000399479
-0.000198442 0.00191048 -7.06283e-05
0.000399479 -7.06283e-05 0.00188756
0.00278322 -0.000305069 5.56381e-05
-0.000305069 0.00130316 -1.79143e-05
5.56381e-05 -1.79143e-05 0.00106907
0.0024574 -0.000682909 1.17547e-05
-0.000682909 0.000702988 -5.71623e-06
1.17547e-05 -5.71623e-06 0.000281457
0.00235857 -0.000778644 -2.68856e-06
-0.000778644 0.000333727 2.64298e-06
-2.68856e-06 2.64298e-06 -3.33622e-05
0.00842831 0.000377793 -0.000474316
0.000377793 0.00528069 -6.51224e-05
-0.000474316 -6.51224e-05 0.00529517
0.0100102 0.000174095 -0.000469116
0.000174095 0.00627875 -5.23134e-05
-0.000469116 -5.23134e-05 0.00631259
0.00914248 0.000309861 -0.000484361
0.000309861 0.00570932 -6.2598e-05
-0.000484361 -6.2598e-05 0.00574069
0.000200689 0.000351898 -2.36464e-05
0.000351898 -0.000333309 -2.84711e-05
-2.36464e-05 -2.84711e-05 -0.000586466
0.0077788 0.000299926 -2.72631e-06
0.000299926 0.00485207 -3.15205e-06
-2.72631e-06 -3.15205e-06 0.00487469
0.00854235 0.000358527 -7.16808e-06
0.000358527 0.00534107 -4.5567e-06
-7.16808e-06 -4.5567e-06 0.00535701
0.000383994 0.000227994 -3.06028e-07
0.000227994 -0.000301454 -4.31491e-07
-3.06028e-07 -4.31491e-07 -0.000485748
0.00598081 4.53846e-05 -0.000206066
4.53846e-05 0.00366283 -1.90918e-05
-0.000206066 -1.90918e-05 0.00362953
0.000361401 0.000326422 7.51084e-07
0.000326422 -0.0002737 -3.27531e-07
7.51084e-07 -3.27531e-07 -0.000505826
0.00195565 0.00038796 0.000105635
0.00038796 0.00085137 9.5796e-06
0.000105635 9.5796e-06 0.000628027
0.00174056 0.000712748 -1.0317e-06
0.000712748 0.00024412 2.03379e-07
-1.0317e-06 2.03379e-07 -0.000226578
0.00910867 2.03364e-05 0.000391032
2.03364e-05 0.00577047 5.37903e-05
0.000391032 5.37903e-05 0.00578133
0.000752291 0.0002958 3.479e-05
0.0002958 5.91703e-05 1.9881e-05
3.479e-05 1.9881e-05 -8.65549e-05
0.000524372 0.000183758 1.48798e-05
0.000183758 -0.000208315 1.27221e-05
1.48798e-05 1.27221e-05 -0.000368281
0.000513573 0.00026898 1.82651e-05
0.00026898 -0.000209078 2.30741e-05
1.82651e-05 2.30741e-05 -0.000412967
0.00184207 0.000515179 1.06395e-05
0.000515179 0.000141827 4.70354e-06
1.06395e-05 4.70354e-06 -0.000151538
0.00337339 0.00041614 0.000231749
0.00041614 0.0018145 4.59626e-05
0.000231749 4.59626e-05 0.00163871
0.00174832 0.000643454 1.93053e-05
0.000643454 0.000186881 6.65925e-06
1.93053e-05 6.65925e-06 -0.000217214
0.00171273 0.000699196 2.52896e-05
0.000699196 0.000375432 3.28057e-06
2.52896e-05 3.28057e-06 -0.000156841
0.00216648 0.000926699 -8.68381e-06
0.000926699 0.000301358 -7.5154e-06
-8.68381e-06 -7.5154e-06 -0.000222884
0.00731642 -0.000163319 0.000228981
-0.000163319 0.00465714 3.11946e-05
0.000228981 3.11946e-05 0.00463416
0.00786145 -0.000116769 1.17496e-05
-0.000116769 0.0049915 5.83379e-06
1.17496e-05 5.83379e-06 0.00498145
0.00733874 0.00010332 -0.000409185
0.00010332 0.00454346 -2.54559e-05
-0.000409185 -2.54559e-05 0.00458557
0.0069636 9.26624e-05 -0.000399788
9.26624e-05 0.00430799 -1.57236e-05
-0.000399788 -1.57236e-05 0.00435414
0.00683487 8.45714e-05 -5.24862e-07
8.45714e-05 0.00423264 -4.83567e-06
-5.24862e-07 -4.83567e-06 0.00427738
0.00443247 6.12103e-05 -0.000160933
6.12103e-05 0.00262876 -1.01081e-05
-0.000160933 -1.01081e-05 0.00262698
0.00146901 5.26934e-05 7.67581e-05
5.26934e-05 0.000496108 2.73454e-06
7.67581e-05 2.73454e-06 0.000418105
0.00479706 0.000181768 -0.000155495
0.000181768 0.0028778 -1.09737e-05
-0.000155495 -1.09737e-05 0.00285901
0.00162381 0.000136508 7.79973e-05
0.000136508 0.000559045 4.92265e-06
7.79973e-05 4.92265e-06 0.000458974
0.00678559 9.81352e-05 0.000391289
9.81352e-05 0.00420654 6.9545e-06
0.000391289 6.9545e-06 0.00424757
0.000177304 1.14457e-05 1.385e-05
1.14457e-05 -0.000347091 1.82882e-06
1.385e-05 1.82882e-06 -0.000443874
0.00290669 7.36284e-05 0.000169127
7.36284e-05 0.00143306 9.70567e-06
0.000169127 9.70567e-06 0.00137565
0.00160404 0.000119379 6.79908e-06
0.000119379 -6.43499e-05 1.51382e-06
6.79908e-06 1.51382e-06 -0.000185687
0.00290577 0.000189619 0.000175869
0.000189619 0.00139136 1.77066e-05
0.000175869 1.77066e-05 0.00130295
0.00166086 0.000252747 5.00636e-06
0.000252747 -5.20351e-05 1.7822e-06
5.00636e-06 1.7822e-06 -0.000210522
0.00217094 2.58651e-05 -0.000297711
2.58651e-05 0.00109487 6.36314e-06
-0.000297711 6.36314e-06 0.0011085
0.0018848 -4.30037e-05 -8.97477e-05
-4.30037e-05 0.000947262 6.04842e-06
-8.97477e-05 6.04842e-06 0.000889042
0.0025715 -8.13437e-05 -7.70319e-05
-8.13437e-05 0.00134799 1.53952e-05
-7.70319e-05 1.53952e-05 0.00126996
0.00199201 -0.000132701 -0.000107185
-0.000132701 0.0010262 1.8307e-05
-0.000107185 1.8307e-05 0.000951561
0.00244551 -0.00017249 -0.000162081
-0.00017249 0.00107077 1.76177e-05
-0.000162081 1.76177e-05 0.00097694
0.00263014 -0.000277052 -0.00017599
-0.000277052 0.00117153 3.11371e-05
-0.00017599 3.11371e-05 0.00103947
0.00284979 -0.000408751 -0.000194451
-0.000408751 0.00131835 4.26433e-05
-0.000194451 4.26433e-05 0.00112287
0.00263647 -0.000612062 -2.94708e-05
-0.000612062 0.000784191 9.75455e-06
-2.94708e-05 9.75455e-06 0.000438561
0.0068376 -0.000131432 2.57508e-06
-0.000131432 0.00424406 -2.24871e-06
2.57508e-06 -2.24871e-06 0.0042824
0.00212952 -2.77113e-06 0.000109138
-2.77113e-06 0.00108299 -6.711e-06
0.000109138 -6.711e-06 0.00106142
0.00124264 -3.33789e-05 -7.9508e-05
-3.33789e-05 0.000342565 3.76584e-06
-7.9508e-05 3.76584e-06 0.000267442
0.0022453 -0.000131291 -4.53941e-05
-0.000131291 0.000971019 4.85831e-06
-4.53941e-05 4.85831e-06 0.000879189
0.0066653 -0.000203003 0.000387216
-0.000203003 0.00405657 -4.55805e-05
0.000387216 -4.55805e-05 0.0040595
0.00314406 -0.000380596 -6.14182e-05
-0.000380596 0.00155818 8.49014e-06
-6.14182e-05 8.49014e-06 0.00134398
0.00241666 -0.000244183 -4.55912e-05
-0.000244183 0.00105481 5.73447e-06
-4.55912e-05 5.73447e-06 0.00092454
0.00230171 -0.000379114 -8.35765e-06
-0.000379114 0.000463451 1.34974e-06
-8.35765e-06 1.34974e-06 0.000263661
0.00269426 -0.000714927 -7.25648e-06
-0.000714927 0.000872212 2.18143e-06
-7.25648e-06 2.18143e-06 0.000444515
0.0023641 -0.000528924 -1.15464e-05
-0.000528924 0.000563897 3.69921e-06
-1.15464e-05 3.69921e-06 0.000274428
0.0023797 -0.000781044 1.07729e-06
-0.000781044 0.000351675 -1.36396e-07
1.07729e-06 -1.36396e-07 -1.6589e-05
0.000211573 -4.26561e-06 1.48353e-05
-4.26561e-06 -0.000335558 1.12485e-07
1.48353e-05 1.12485e-07 -0.000429689
0.00211717 -5.2108e-05 6.41724e-05
-5.2108e-05 0.000910457 -3.52777e-06
6.41724e-05 -3.52777e-06 0.000826043
0.00213097 -0.000135671 1.86102e-06
-0.000135671 0.000324263 6.97463e-08
1.86102e-06 6.97463e-08 0.000216898
0.00223951 -0.000298974 3.04165e-07
-0.000298974 0.000414836 -4.2125e-07
3.04165e-07 -4.2125e-07 0.000255492
0.00231594 -0.000457881 3.77022e-06
-0.000457881 0.000498496 -1.8639e-06
3.77022e-06 -1.8639e-06 0.000262537
0.00241261 -0.000503132 3.43968e-06
-0.000503132 0.000202873 -1.99988e-06
3.43968e-06 -1.99988e-06 3.03949e-05
0.00965149 -0.000122917 0.000420226
-0.000122917 0.00606073 -4.78275e-05
0.000420226 -4.78275e-05 0.00608597
0.00230199 -0.00069936 9.04867e-07
-0.00069936 0.000219816 1.20492e-06
9.04867e-07 1.20492e-06 -7.66372e-05
6.87447e-05 -0.000289834 1.85758e-05
-0.000289834 -0.000431886 -3.23529e-05
1.85758e-05 -3.23529e-05 -0.000664013
0.00154383 -0.000750255 -6.11501e-06
-0.000750255 0.00012815 -2.07393e-06
-6.11501e-06 -2.07393e-06 -0.000390225
0.00246885 -0.000864759 -7.39686e-06
-0.000864759 0.000491419 4.38762e-06
-7.39686e-06 4.38762e-06 4.57876e-05
0.00249866 -0.000865065 4.36329e-08
-0.000865065 0.000330949 -1.63515e-06
4.36329e-08 -1.63515e-06 1.72715e-07
0.000320805 -0.000275441 2.34352e-05
-0.000275441 -0.000214851 -2.79224e-05
2.34352e-05 -2.79224e-05 -0.000414184
0.00193463 -0.000356056 4.42157e-06
-0.000356056 0.00087835 1.13036e-06
4.42157e-06 1.13036e-06 0.000507769
0.00800888 0.000330826 -0.000460767
0.000330826 0.00500651 -5.62486e-05
-0.000460767 -5.62486e-05 0.00502685
0.00877825 0.00036392 -0.000479243
0.00036392 0.00549308 -6.65202e-05
-0.000479243 -6.65202e-05 0.00551355
0.000352397 0.000229536 -1.67934e-05
0.000229536 -0.000322366 -1.6234e-05
-1.67934e-05 -1.6234e-05 -0.000509014
0.0093432 8.16787e-05 -0.000410652
8.16787e-05 0.00587501 -4.48354e-05
-0.000410652 -4.48354e-05 0.0059009
0.000142099 0.000314578 -2.48969e-05
0.000314578 -0.000350925 -3.31464e-05
-2.48969e-05 -3.31464e-05 -0.000591611
0.000280716 0.000318763 -1.91757e-05
0.000318763 -0.000325667 -2.53788e-05
-1.91757e-05 -2.53788e-05 -0.000559801
0.00151252 0.000716122 -2.05793e-05
0.000716122 6.87891e-05 -5.72543e-06
-2.05793e-05 -5.72543e-06 -0.000410945
0.00883901 3.21365e-05 -1.40818e-05
3.21365e-05 0.00558569 -1.10001e-07
-1.40818e-05 -1.10001e-07 0.00560125
0.000811437 0.000256345 3.74161e-07
0.000256345 9.6086e-05 1.28641e-06
3.74161e-07 1.28641e-06 -4.76385e-05
0.00182576 0.000236498 8.43855e-05
0.000236498 0.000656282 8.82019e-06
8.43855e-05 8.82019e-06 0.000516371
0.00195416 0.000336442 9.25689e-05
0.000336442 0.0007567 1.18579e-05
9.25689e-05 1.18579e-05 0.000571824
0.00177303 0.000510588 -3.5681e-07
0.000510588 0.000100488 -2.94274e-07
-3.5681e-07 -2.94274e-07 -0.000193596
5.62636e-05 0.000290214 2.49336e-06
0.000290214 -0.000388148 -1.15596e-06
2.49336e-06 -1.15596e-06 -0.000614064
0.00182397 0.000648386 2.98769e-07
0.000648386 0.000239504 -9.09398e-08
2.98769e-07 -9.09398e-08 -0.000166574
0.00132309 0.000670533 4.94896e-08
0.000670533 0.000101246 -1.85115e-06
4.94896e-08 -1.85115e-06 -0.00042456
0.00232635 0.000946643 4.90469e-07
0.000946643 0.000408013 8.65761e-07
4.90469e-07 8.65761e-07 -0.000115334
0.000582798 0.000265281 1.92275e-05
0.000265281 -3.96275e-05 2.9898e-05
1.92275e-05 2.9898e-05 -0.000239034
0.000751842 0.000204258 2.63561e-05
0.000204258 0.000111158 2.06125e-05
2.63561e-05 2.06125e-05 -3.07865e-05
-0.00140545 0.000442905 1.4595e-05
0.000442905 -0.00115906 -1.29382e-05
1.4595e-05 -1.29382e-05 -0.00155131
0.00184254 0.000439974 8.90889e-06
0.000439974 0.000102085 3.30317e-06
8.90889e-06 3.30317e-06 -0.000142095
0.0018057 0.000576948 1.55005e-05
0.000576948 0.000151421 6.23401e-06
1.55005e-05 6.23401e-06 -0.000192549
0.00236667 0.000716198 2.05899e-06
0.000716198 0.000238261 -2.01899e-07
2.05899e-06 -2.01899e-07 -5.33796e-05
0.00122121 0.000573357 2.3397e-05
0.000573357 0.00024034 -1.13667e-06
2.3397e-05 -1.13667e-06 -0.000260002
0.00269303 0.000942682 -6.15866e-06
0.000942682 0.000618551 -4.75937e-06
-6.15866e-06 -4.75937e-06 0.000160189
0.00280646 0.00119958 -1.25482e-05
0.00119958 0.000897835 -1.02373e-05
-1.25482e-05 -1.02373e-05 0.000174496
0.00211295 0.000930093 -1.01775e-05
0.000930093 0.00012598 -5.04593e-06
-1.01775e-05 -5.04593e-06 -0.000352567
0.0061422 -0.00015164 0.000178215
-0.00015164 0.00386742 2.07343e-05
0.000178215 2.07343e-05 0.0038488
0.00691901 -0.000170195 2.79947e-06
-0.000170195 0.0043812 3.29632e-06
2.79947e-06 3.29632e-06 0.00435812
0.00770647 -0.000152535 -0.000233299
-0.000152535 0.00487396 -1.94597e-05
-0.000233299 -1.94597e-05 0.00486073
0.000808736 -0.000305896 2.92905e-05
-0.000305896 0.000144556 -2.68735e-05
2.92905e-05 -2.68735e-05 -3.14098e-05
0.0088945 -5.25647e-05 0.000365047
-5.25647e-05 0.00561509 -4.4407e-05
0.000365047 -4.4407e-05 0.005629
0.00762824 0.000262267 -0.000441305
0.000262267 0.00475141 -4.4274e-05
-0.000441305 -4.4274e-05 0.00478078
0.00706876 0.000127515 -0.000401601
0.000127515 0.00437497 -2.20475e-05
-0.000401601 -2.20475e-05 0.00441746
0.000264502 0.000135703 -1.48175e-05
0.000135703 -0.000346665 -7.74189e-06
-1.48175e-05 -7.74189e-06 -0.000472906
0.000172423 5.40065e-05 -1.39776e-05
5.40065e-05 -0.000364002 -3.93944e-06
-1.39776e-05 -3.93944e-06 -0.000467528
0.00678089 4.89653e-06 -0.000386265
4.89653e-06 0.00418872 -4.9269e-06
-0.000386265 -4.9269e-06 0.00423656
0.00672638 -8.20001e-06 6.14019e-08
-8.20001e-06 0.00415377 -1.47005e-06
6.14019e-08 -1.47005e-06 0.00420211
0.000158135 5.57142e-06 -4.79184e-08
5.57142e-06 -0.000363716 2.4969e-07
-4.79184e-08 2.4969e-07 -0.000459169
0.00152096 7.10943e-05 7.75519e-05
7.10943e-05 0.000510215 4.1913e-06
7.75519e-05 4.1913e-06 0.000425639
0.00160369 0.000121908 1.20131e-07
0.000121908 -5.08948e-05 -4.58736e-08
1.20131e-07 -4.58736e-08 -0.000173137
0.000363419 0.000146873 -9.11767e-07
0.000146873 -0.000297978 -3.20113e-07
-9.11767e-07 -3.20113e-07 -0.000439987
0.0016783 0.000253676 -1.77395e-07
0.000253676 -1.53795e-05 1.72785e-08
-1.77395e-07 1.72785e-08 -0.00017503
0.000156072 -3.2231e-05 1.46848e-05
-3.2231e-05 -0.000366537 -8.21421e-08
1.46848e-05 -8.21421e-08 -0.000459014
0.00156622 5.59321e-05 5.70801e-06
5.59321e-05 -7.59309e-05 1.04046e-06
5.70801e-06 1.04046e-06 -0.000189546
0.00161808 0.000187109 5.8298e-06
0.000187109 -6.50874e-05 1.89154e-06
5.8298e-06 1.89154e-06 -0.000201203
0.00241329 0.000185036 4.11228e-06
0.000185036 0.000108429 9.19465e-07
4.11228e-06 9.19465e-07 6.55642e-05
0.00175521 0.000345378 7.18823e-06
0.000345378 1.83907e-05 2.29337e-06
7.18823e-06 2.29337e-06 -0.000178111
0.00242529 0.00038598 4.8281e-06
0.00038598 0.000153926 1.34547e-06
4.8281e-06 1.34547e-06 5.44111e-05
0.00675518 -9.51116e-05 -0.000389629
-9.51116e-05 0.00418405 7.51531e-06
-0.000389629 7.51531e-06 0.00422602
0.00178605 -0.000169615 -8.92642e-05
-0.000169615 0.000909094 1.26697e-05
-8.92642e-05 1.26697e-05 0.000840883
-6.37036e-05 -1.96009e-05 -8.80029e-06
-1.96009e-05 -0.00052405 1.19479e-06
-8.80029e-06 1.19479e-06 -0.000628977
0.00235544 -0.00012226 -0.000157033
-0.00012226 0.00103299 1.26557e-05
-0.000157033 1.26557e-05 0.000955406
0.00971432 5.93516e-05 -0.00011813
5.93516e-05 0.00604544 6.27023e-06
-0.00011813 6.27023e-06 0.00601469
0.00348397 -0.000448484 -0.000203865
-0.000448484 0.00180429 4.65108e-05
-0.000203865 4.65108e-05 0.00160237
0.00254556 -0.00022501 -0.000168466
-0.00022501 0.001123 2.38609e-05
-0.000168466 2.38609e-05 0.00101089
0.00233121 -0.000381338 -2.14369e-05
-0.000381338 0.000475851 4.21324e-06
-2.14369e-05 4.21324e-06 0.000284124
0.00235578 -0.000527391 -2.63666e-05
-0.000527391 0.000558047 9.13606e-06
-2.63666e-05 9.13606e-06 0.00026408
0.0027981 -0.000727385 -3.3905e-05
-0.000727385 0.000952608 1.16142e-05
-3.3905e-05 1.16142e-05 0.000524995
0.00241704 -0.000782193 2.25048e-06
-0.000782193 0.000387313 -2.17981e-06
2.25048e-06 -2.17981e-06 1.85021e-05
0.000167787 -6.17081e-06 7.96953e-08
-6.17081e-06 -0.00036108 4.38852e-07
7.96953e-08 4.38852e-07 -0.000455782
0.00220204 -0.000122142 -4.41018e-05
-0.000122142 0.000974414 1.38641e-06
-4.41018e-05 1.38641e-06 0.000893099
0.00197478 -0.000133548 -1.29521e-05
-0.000133548 0.000212273 7.47181e-07
-1.29521e-05 7.47181e-07 0.000104926
0.00222807 -0.000295438 -1.2578e-05
-0.000295438 0.000403103 2.18852e-06
-1.2578e-05 2.18852e-06 0.000238683
0.00980147 -0.000121845 4.92153e-06
-0.000121845 0.00615277 -1.50465e-06
4.92153e-06 -1.50465e-06 0.00617826
0.00186371 -0.000319448 1.43281e-05
-0.000319448 0.000770119 8.16296e-07
1.43281e-05 8.16296e-07 0.000530758
0.00216069 -0.000747592 7.05515e-06
-0.000747592 0.000552435 -3.02462e-06
7.05515e-06 -3.02462e-06 5.82243e-05
0.00238297 -0.000464435 -1.15806e-05
-0.000464435 0.000543809 3.21809e-06
-1.15806e-05 3.21809e-06 0.000306323
0.00239239 -0.000505272 3.06043e-06
-0.000505272 0.000180763 -1.00796e-06
3.06043e-06 -1.00796e-06 2.13672e-05
0.00247429 -0.000862197 2.09832e-06
-0.000862197 0.000499569 -3.78931e-07
2.09832e-06 -3.78931e-07 5.65802e-05
0.00228927 -0.000693016 4.17004e-07
-0.000693016 0.000213431 4.09988e-07
4.17004e-07 4.09988e-07 -8.6195e-05
0.00244769 -0.000858557 -2.9758e-07
-0.000858557 0.000299353 9.72931e-07
-2.9758e-07 9.72931e-07 -3.03904e-05
0.000217563 -0.000296107 1.76054e-06
-0.000296107 -0.000283319 -1.99031e-07
1.76054e-06 -1.99031e-07 -0.000484811
0.000841208 -0.000374097 -1.60734e-06
-0.000374097 0.000221107 1.24948e-07
-1.60734e-06 1.24948e-07 -0.000183186
0.00155157 -6.29915e-05 5.07278e-06
-6.29915e-05 -6.68753e-05 -1.54515e-07
5.07278e-06 -1.54515e-07 -0.000182353
0.00232502 -0.000216143 5.09805e-07
-0.000216143 0.000458377 -1.95721e-07
5.09805e-07 -1.95721e-07 0.000333526
0.00223211 -0.000194204 4.02376e-06
-0.000194204 -1.41741e-05 -8.39448e-07
4.02376e-06 -8.39448e-07 -7.92649e-05
0.00228446 -0.000406573 1.64025e-06
-0.000406573 5.1676e-05 -9.54761e-07
1.64025e-06 -9.54761e-07 -5.41882e-05
0.00224362 -0.000614379 6.81027e-07
-0.000614379 0.000112886 -1.09915e-06
6.81027e-07 -1.09915e-06 -0.000115035
0.0024657 -0.000520632 5.12426e-06
-0.000520632 0.000170152 -1.64427e-06
5.12426e-06 -1.64427e-06 7.02669e-05
0.000162839 -0.000271 1.71708e-05
-0.000271 -0.000342696 -3.21224e-05
1.71708e-05 -3.21224e-05 -0.000564306
0.0025251 -0.000772461 1.87727e-06
-0.000772461 0.000268557 -2.13855e-06
1.87727e-06 -2.13855e-06 3.17182e-05
0.00147171 -0.000681135 3.1087e-07
-0.000681135 0.000142844 -4.98653e-06
3.1087e-07 -4.98653e-06 -0.000375637
0.00234247 -0.000975161 2.34141e-06
-0.000975161 0.000446574 1.85218e-06
2.34141e-06 1.85218e-06 -0.000102749
0.00263287 -0.00093523 -1.71431e-06
-0.00093523 0.000502521 -1.25662e-06
-1.71431e-06 -1.25662e-06 7.95074e-05
0.00251405 -0.00089111 2.82186e-06
-0.00089111 0.000250081 -1.7641e-06
2.82186e-06 -1.7641e-06 -1.40295e-05
0.00136034 -0.00042507 1.236e-05
-0.00042507 0.000466632 3.42199e-06
1.236e-05 3.42199e-06 1.28365e-05
0.00139232 -0.000306533 5.09016e-06
-0.000306533 0.000677888 -4.46075e-06
5.09016e-06 -4.46075e-06 0.000326061
0.00151261 -0.000563957 7.11124e-06
-0.000563957 0.000587993 5.09016e-06
7.11124e-06 5.09016e-06 3.37475e-05
0.000376953 0.000193801 -1.58419e-05
0.000193801 -0.000307208 -1.21571e-05
-1.58419e-05 -1.21571e-05 -0.000473197
0.00849065 -1.71202e-05 -0.000336755
-1.71202e-05 0.00535815 -3.27948e-05
-0.000336755 -3.27948e-05 0.00537283
0.000255101 0.00019341 -2.11948e-05
0.00019341 -0.000237196 -2.11237e-05
-2.11948e-05 -2.11237e-05 -0.000386151
0.000325322 0.00027306 -1.81267e-05
0.00027306 -0.000326098 -2.12373e-05
-1.81267e-05 -2.12373e-05 -0.000535594
0.00170533 0.000506837 -1.21514e-05
0.000506837 5.87873e-05 -4.96642e-06
-1.21514e-05 -4.96642e-06 -0.000236212
0.000311519 0.000277217 -2.06763e-05
0.000277217 -0.000234211 -2.97766e-05
-2.06763e-05 -2.97766e-05 -0.000453869
0.00118739 0.000674091 -2.18308e-05
0.000674091 -2.60766e-05 -4.49582e-06
-2.18308e-05 -4.49582e-06 -0.00054838
0.00182986 0.000644667 -2.14318e-05
0.000644667 0.000250419 -7.0687e-06
-2.14318e-05 -7.0687e-06 -0.000155558
0.00242693 0.000964 1.11316e-06
0.000964 0.000466022 5.4956e-06
1.11316e-06 5.4956e-06 -5.66343e-05
0.000296115 0.000276821 -7.27557e-06
0.000276821 -0.00022423 -2.69521e-08
-7.27557e-06 -2.69521e-08 -0.000415556
0.000400709 0.000166204 -1.57168e-06
0.000166204 -0.000101712 1.41411e-06
-1.57168e-06 1.41411e-06 -0.000241563
0.000947125 0.000456434 1.15145e-06
0.000456434 0.000275759 3.37936e-07
1.15145e-06 3.37936e-07 -5.05463e-05
0.00178721 0.000435156 -5.0696e-07
0.000435156 7.68015e-05 -3.47999e-07
-5.0696e-07 -3.47999e-07 -0.000167653
0.00178787 0.00057226 -3.47306e-07
0.00057226 0.000150763 -1.80596e-07
-3.47306e-07 -1.80596e-07 -0.000193062
0.00242591 0.00072263 -8.68957e-07
0.00072263 0.00027634 -2.78944e-07
-8.68957e-07 -2.78944e-07 -1.67002e-05
0.00087207 0.000512112 6.86223e-06
0.000512112 -1.91658e-05 -2.21372e-06
6.86223e-06 -2.21372e-06 -0.000488967
0.00262857 0.000930444 -2.11121e-06
0.000930444 0.000572378 -1.113e-06
-2.11121e-06 -1.113e-06 0.00011774
0.00251141 0.00116729 -2.77373e-06
0.00116729 0.000672194 -1.67288e-06
-2.77373e-06 -1.67288e-06 -3.89001e-05
0.00205224 0.000919277 -1.00477e-07
0.000919277 6.72631e-05 5.15682e-06
-1.00477e-07 5.15682e-06 -0.000401619
0.000912147 0.000129259 1.55262e-05
0.000129259 0.000285739 2.05874e-05
1.55262e-05 2.05874e-05 0.000157988
2.22799e-05 0.000595928 5.97484e-06
0.000595928 -0.000348404 -8.5192e-06
5.97484e-06 -8.5192e-06 -0.000757487
0.000759343 0.000271844 -1.5698e-06
0.000271844 0.000225262 -7.91432e-07
-1.5698e-06 -7.91432e-07 -0.000120116
-0.0016019 0.000237665 -7.44477e-06
0.000237665 -0.00131728 -2.84936e-06
-7.44477e-06 -2.84936e-06 -0.00170274
0.0023771 0.000619001 2.66052e-06
0.000619001 0.000194648 7.70861e-07
2.66052e-06 7.70861e-07 -2.49278e-05
0.0024974 0.000820881 -1.15404e-06
0.000820881 0.000399965 -2.0044e-06
-1.15404e-06 -2.0044e-06 2.7495e-05
0.00257545 0.000789982 1.87266e-06
0.000789982 0.000276195 1.23014e-06
1.87266e-06 1.23014e-06 2.72184e-05
0.00268284 0.00112578 -1.30998e-05
0.00112578 0.00108272 -1.70975e-05
-1.30998e-05 -1.70975e-05 0.000296055
0.00267091 0.000996397 -5.18754e-06
0.000996397 0.000497955 2.11377e-07
-5.18754e-06 2.11377e-07 6.59693e-05
0.00282609 0.00128484 -1.27676e-05
0.00128484 0.000792088 -1.35755e-05
-1.27676e-05 -1.35755e-05 4.85684e-05
0.00231992 0.000928278 -3.07804e-06
0.000928278 0.000127547 7.88312e-07
-3.07804e-06 7.88312e-07 -0.000312085
0.00115061 0.000179068 -3.65437e-06
0.000179068 0.000549068 9.1069e-06
-3.65437e-06 9.1069e-06 0.000371987
0.000465869 8.14866e-05 8.6054e-06
8.14866e-05 3.07447e-05 1.5347e-05
8.6054e-06 1.5347e-05 -4.7285e-05
0.00482112 -0.000152068 9.52242e-05
-0.000152068 0.00297231 1.40855e-05
9.52242e-05 1.40855e-05 0.00295495
0.00558143 -0.000203018 2.21111e-05
-0.000203018 0.00350113 -1.08565e-06
2.21111e-05 -1.08565e-06 0.0034691
0.00628601 -0.000242483 -0.000125158
-0.000242483 0.00398422 -1.73962e-05
-0.000125158 -1.73962e-05 0.00394022
0.000300367 -0.000273333 3.08532e-05
-0.000273333 -0.000118009 -1.8795e-05
3.08532e-05 -1.8795e-05 -0.000252095
0.00751357 2.71603e-05 0.000259653
2.71603e-05 0.00474075 -3.40433e-05
0.000259653 -3.40433e-05 0.00474001
0.000506021 -0.000310337 3.33111e-06
-0.000310337 -6.44453e-05 8.52334e-07
3.33111e-06 8.52334e-07 -0.000242161
0.00921122 -8.01076e-05 6.29389e-06
-8.01076e-05 0.00581316 -1.16091e-06
6.29389e-06 -1.16091e-06 0.00582945
0.000348788 0.000169854 -1.60412e-05
0.000169854 -0.000311109 -9.79029e-06
-1.60412e-05 -9.79029e-06 -0.000457538
0.000202294 6.01502e-05 -1.28283e-05
6.01502e-05 -0.000368224 -4.81396e-06
-1.28283e-05 -4.81396e-06 -0.000478995
0.00170522 0.000254484 -5.04749e-06
0.000254484 2.24871e-05 -1.35446e-06
-5.04749e-06 -1.35446e-06 -0.00013817
0.00161027 0.000124087 -6.34945e-06
0.000124087 -3.35298e-05 -1.40726e-06
-6.34945e-06 -1.40726e-06 -0.000156523
0.000201595 4.82968e-07 -1.43613e-05
4.82968e-07 -0.000338827 -1.77489e-06
-1.43613e-05 -1.77489e-06 -0.000433154
0.00681927 -0.000103736 -0.000397424
-0.000103736 0.0042291 7.40703e-06
-0.000397424 7.40703e-06 0.00427112
0.000192161 -4.16514e-06 -3.74117e-08
-4.16514e-06 -0.000342693 -6.71711e-07
-3.74117e-08 -6.71711e-07 -0.000434929
0.00157584 6.1002e-05 2.63836e-08
6.1002e-05 -6.291e-05 2.90841e-08
2.63836e-08 2.90841e-08 -0.000177037
0.00164158 0.000186595 4.42655e-08
0.000186595 -3.34519e-05 9.66559e-08
4.42655e-08 9.66559e-08 -0.000170101
0.00243115 0.000183 -1.31654e-07
0.000183 0.000120663 1.32534e-07
-1.31654e-07 1.32534e-07 7.78986e-05
0.0017461 0.000342494 -4.33827e-07
0.000342494 2.87655e-05 -1.37907e-07
-4.33827e-07 -1.37907e-07 -0.000168082
0.00242069 0.000385709 -9.83778e-08
0.000385709 0.000144343 1.47759e-07
-9.83778e-08 1.47759e-07 4.45406e-05
0.00155734 -4.60332e-06 4.69118e-06
-4.60332e-06 -6.74897e-05 3.76523e-07
4.69118e-06 3.76523e-07 -0.000179905
0.00242788 8.9844e-05 4.73306e-06
8.9844e-05 0.000111591 4.62845e-07
4.73306e-06 4.62845e-07 7.96095e-05
0.00240165 0.000281439 3.95024e-06
0.000281439 0.000118897 1.22374e-06
3.95024e-06 1.22374e-06 5.12259e-05
0.00222602 0.000185409 3.74512e-06
0.000185409 -3.7517e-05 6.33225e-07
3.74512e-06 6.33225e-07 -2.06703e-05
0.00240897 0.000499695 4.32608e-06
0.000499695 0.00016926 1.6119e-06
4.32608e-06 1.6119e-06 1.90912e-05
0.00227406 0.000363747 4.01997e-06
0.000363747 -8.98575e-06 7.10592e-07
4.01997e-06 7.10592e-07 -4.39725e-05
0.000202312 -1.07496e-05 -1.38464e-05
-1.07496e-05 -0.000333335 7.7054e-08
-1.38464e-05 7.7054e-08 -0.000429836
0.00226734 -7.84265e-05 -0.00015479
-7.84265e-05 0.000999707 8.8665e-06
-0.00015479 8.8665e-06 0.000935407
0.00179444 -0.000131211 -1.66813e-05
-0.000131211 8.36565e-05 1.46676e-06
-1.66813e-05 1.46676e-06 -2.38549e-05
0.00218458 -0.000291739 -1.9369e-05
-0.000291739 0.000366438 3.21656e-06
-1.9369e-05 3.21656e-06 0.000196729
0.00992064 -0.000150599 -0.000452038
-0.000150599 0.00622032 5.74862e-05
-0.000452038 5.74862e-05 0.00624686
0.00370904 -0.00043572 -0.000231082
-0.00043572 0.00199312 4.50326e-05
-0.000231082 4.50326e-05 0.00179371
0.00261431 -0.000759686 -1.26207e-05
-0.000759686 0.000900942 8.08129e-06
-1.26207e-05 8.08129e-06 0.000416333
0.00243047 -0.000469945 -2.59435e-05
-0.000469945 0.000574682 7.45826e-06
-2.59435e-05 7.45826e-06 0.000335871
0.00236586 -0.000506933 -1.75586e-07
-0.000506933 0.000153338 1.39755e-07
-1.75586e-07 1.39755e-07 7.18571e-06
0.0022675 -0.00068618 3.88404e-08
-0.00068618 0.000200717 2.66143e-07
3.88404e-08 2.66143e-07 -0.000101977
0.00254081 -0.000871651 7.27136e-06
-0.000871651 0.000538274 -3.4048e-06
7.27136e-06 -3.4048e-06 9.39682e-05
0.0023921 -0.000852676 1.56797e-06
-0.000852676 0.000260965 2.49897e-06
1.56797e-06 2.49897e-06 -6.78297e-05
0.000136771 -0.0003068 -2.35254e-05
-0.0003068 -0.000332006 2.94162e-05
-2.35254e-05 2.94162e-05 -0.000537936
-0.000685004 -0.000345143 -5.02671e-06
-0.000345143 -0.000691763 -2.67834e-06
-5.02671e-06 -2.67834e-06 -0.00114233
0.00163328 -6.07404e-05 8.98597e-07
-6.07404e-05 -1.54023e-05 -7.08104e-08
8.98597e-07 -7.08104e-08 -0.000123193
0.00220954 -0.000214674 -1.17946e-05
-0.000214674 0.000372232 1.3239e-06
-1.17946e-05 1.3239e-06 0.000246578
0.00223349 -0.000190155 2.27433e-06
-0.000190155 -1.66555e-05 -3.40618e-07
2.27433e-06 -3.40618e-07 -7.67459e-05
0.00230013 -0.000404011 -1.17958e-06
-0.000404011 8.37832e-05 2.275e-07
-1.17958e-06 2.275e-07 -3.43029e-05
8.92789e-05 -0.000291021 -2.49195e-06
-0.000291021 -0.000377184 -4.41257e-07
-2.49195e-06 -4.41257e-07 -0.000605258
0.00142441 -0.000679322 -1.08791e-06
-0.000679322 0.00015331 -2.82218e-07
-1.08791e-06 -2.82218e-07 -0.000371414
0.00242744 -0.00099241 -7.59106e-08
-0.00099241 0.000494298 1.46333e-06
-7.59106e-08 1.46333e-06 -6.77001e-05
0.00232727 -0.000613509 1.39527e-06
-0.000613509 0.000184358 -6.59678e-07
1.39527e-06 -6.59678e-07 -4.83707e-05
0.0024018 -0.000519253 -2.05047e-08
-0.000519253 0.000104487 3.14656e-09
-2.05047e-08 3.14656e-09 1.30391e-05
0.00263935 -0.000934888 2.25961e-06
-0.000934888 0.000503977 -1.81659e-06
2.25961e-06 -1.81659e-06 8.61231e-05
0.00249012 -0.000767945 -6.85484e-07
-0.000767945 0.000245266 2.31048e-07
-6.85484e-07 2.31048e-07 1.00917e-05
0.00245993 -0.000899 1.76386e-07
-0.000899 0.000205605 2.87335e-07
1.76386e-07 2.87335e-07 -5.90818e-05
0.000902944 -0.000425722 -2.56326e-06
-0.000425722 0.000167315 3.07326e-07
-2.56326e-06 3.07326e-07 -0.00030455
0.00156076 -0.000536792 1.34553e-06
-0.000536792 0.000647797 6.82763e-07
1.34553e-06 6.82763e-07 0.000101211
0.000711585 -0.000256318 -1.11309e-06
-0.000256318 0.000301874 1.30822e-07
-1.11309e-06 1.30822e-07 -7.94069e-05
0.00224437 -9.59959e-05 4.42159e-06
-9.59959e-05 -7.66111e-06 -3.65341e-07
4.42159e-06 -3.65341e-07 -6.05416e-05
0.00225821 -0.000288812 1.98172e-06
-0.000288812 4.97471e-06 -1.12074e-06
1.98172e-06 -1.12074e-06 -7.42037e-05
0.00231304 -0.000175434 6.44881e-06
-0.000175434 5.57283e-05 -6.228e-07
6.44881e-06 -6.228e-07 5.99806e-05
0.00230196 -0.00040551 2.92706e-06
-0.00040551 1.51928e-05 -7.30036e-07
2.92706e-06 -7.30036e-07 -2.88857e-05
0.00238308 -0.000660398 2.39513e-06
-0.000660398 0.000104753 -8.60896e-07
2.39513e-06 -8.60896e-07 -4.67461e-05
0.00256099 -0.00056037 8.42583e-07
-0.00056037 9.69577e-05 8.661e-08
8.42583e-07 8.661e-08 5.90369e-05
0.00142357 -0.000546363 1.29553e-05
-0.000546363 0.000348198 -4.32329e-06
1.29553e-05 -4.32329e-06 -0.000157241
0.0025486 -0.000812692 1.94083e-06
-0.000812692 0.000171902 -1.57172e-06
1.94083e-06 -1.57172e-06 1.26868e-05
0.0023379 -0.00112041 1.27549e-06
-0.00112041 0.000560058 -3.79151e-07
1.27549e-06 -3.79151e-07 -0.000126362
0.0027583 -0.00107354 1.08211e-05
-0.00107354 0.000616499 2.94889e-07
1.08211e-05 2.94889e-07 7.65658e-05
0.00272045 -0.000962962 6.95549e-06
-0.000962962 0.000511644 -3.25876e-06
6.95549e-06 -3.25876e-06 0.000130015
0.00260349 -0.000946527 5.79306e-06
-0.000946527 0.000222811 -2.04759e-06
5.79306e-06 -2.04759e-06 5.13874e-06
-0.0011057 -0.000148987 6.73928e-06
-0.000148987 -0.00090472 -9.94918e-07
6.73928e-06 -9.94918e-07 -0.0012545
0.00183859 -0.000804223 3.87581e-06
-0.000804223 0.000682504 1.02174e-05
3.87581e-06 1.02174e-05 -7.21492e-06
7.60991e-05 -0.000318819 2.83405e-05
-0.000318819 -5.70936e-06 4.67685e-06
2.83405e-05 4.67685e-06 -0.000556343
0.00183268 -0.000841843 2.21725e-05
-0.000841843 0.000854793 2.08099e-05
2.21725e-05 2.08099e-05 0.000125249
0.00172522 0.000430068 -1.0122e-05
0.000430068 4.65411e-05 -3.60045e-06
-1.0122e-05 -3.60045e-06 -0.000198125
0.000207602 0.000163721 -1.85271e-05
0.000163721 -0.000220035 -2.18388e-05
-1.85271e-05 -2.18388e-05 -0.000360504
0.000401244 0.000248794 -2.40835e-05
0.000248794 -0.000163633 -2.65675e-05
-2.40835e-05 -2.65675e-05 -0.000343389
0.00212129 0.000363601 -2.16137e-07
0.000363601 0.00104147 1.63131e-05
-2.16137e-07 1.63131e-05 0.000725623
0.00175603 0.000568215 -1.71888e-05
0.000568215 0.000137238 -6.0905e-06
-1.71888e-05 -6.0905e-06 -0.000206888
0.00248516 0.000728978 -2.24961e-06
0.000728978 0.000314961 1.56091e-07
-2.24961e-06 1.56091e-07 2.04991e-05
0.000703437 0.00044116 -2.05399e-05
0.00044116 -0.000154632 -7.87057e-06
-2.05399e-05 -7.87057e-06 -0.000588971
0.00226525 0.00112274 5.02423e-06
0.00112274 0.000504785 4.45513e-06
5.02423e-06 4.45513e-06 -0.000187814
0.002584 0.000922159 6.73054e-06
0.000922159 0.00053863 5.35428e-06
6.73054e-06 5.35428e-06 8.64379e-05
0.00201553 0.000907347 9.18605e-06
0.000907347 3.80583e-05 1.33243e-05
9.18605e-06 1.33243e-05 -0.000420336
0.000456322 0.000104325 -2.1243e-06
0.000104325 3.22492e-06 4.34257e-07
-2.1243e-06 4.34257e-07 -0.000124694
0.00136504 0.000460908 -8.00819e-06
0.000460908 0.000497081 4.87597e-06
-8.00819e-06 4.87597e-06 0.000117261
9.84549e-05 0.000284457 2.25817e-06
0.000284457 -0.000192228 -1.89423e-06
2.25817e-06 -1.89423e-06 -0.000545812
0.000456329 0.000347289 -3.13781e-06
0.000347289 -2.4535e-05 1.02113e-05
-3.13781e-06 1.02113e-05 -0.000421812
0.00243107 0.000627228 -8.46891e-07
0.000627228 0.000223872 -4.32419e-07
-8.46891e-07 -4.32419e-07 2.11664e-06
0.00243674 0.000817312 -1.16945e-06
0.000817312 0.000354904 -3.18573e-07
-1.16945e-06 -3.18573e-07 -1.6948e-05
0.00254471 0.000785298 3.00648e-07
0.000785298 0.000258666 1.02501e-07
3.00648e-07 1.02501e-07 1.19826e-05
0.00224958 0.00109738 -2.52341e-07
0.00109738 0.00079636 -1.78611e-06
-2.52341e-07 -1.78611e-06 6.05391e-07
0.00268056 0.00099767 1.16398e-06
0.00099767 0.000520079 4.59711e-07
1.16398e-06 4.59711e-07 8.3258e-05
0.00270285 0.00125523 -1.65204e-06
0.00125523 0.000735639 -3.57235e-06
-1.65204e-06 -3.57235e-06 2.78699e-06
0.00268245 0.000928961 -9.10024e-06
0.000928961 0.000405558 2.91422e-06
-9.10024e-06 2.91422e-06 -2.15349e-05
0.000783373 9.1868e-05 1.13097e-05
9.1868e-05 0.000218284 1.81857e-05
1.13097e-05 1.81857e-05 0.000125769
0.00193002 0.000253721 4.25501e-07
0.000253721 0.00104191 1.41087e-05
4.25501e-07 1.41087e-05 0.000720129
-1.6116e-05 0.000680154 -3.99879e-06
0.000680154 -0.000348172 -2.12282e-05
-3.99879e-06 -2.12282e-05 -0.000967262
0.000599129 0.000491064 1.32017e-05
0.000491064 0.000104416 1.04519e-06
1.32017e-05 1.04519e-06 -0.000269587
0.00153085 0.000353429 2.19322e-06
0.000353429 0.000476391 1.19714e-05
2.19322e-06 1.19714e-05 7.70195e-05
0.00251496 0.000657973 1.89573e-06
0.000657973 0.000163555 7.51791e-07
1.89573e-06 7.51791e-07 1.48757e-05
0.00251488 0.000903965 -8.16906e-07
0.000903965 0.00031559 1.46484e-06
-8.16906e-07 1.46484e-06 -3.39752e-05
0.00260816 0.000856159 -1.36264e-06
0.000856159 0.000228891 1.32126e-06
-1.36264e-06 1.32126e-06 3.74329e-06
0.00264522 0.00145541 8.47549e-07
0.00145541 0.00106808 -1.03728e-05
8.47549e-07 -1.03728e-05 0.000108206
0.0029227 0.00104115 -6.10004e-06
0.00104115 0.000564147 7.8993e-07
-6.10004e-06 7.8993e-07 0.000149224
0.00221435 0.0012975 7.7201e-06
0.0012975 0.000315808 -3.49332e-06
7.7201e-06 -3.49332e-06 -0.000418279
0.000897328 0.000186472 3.54651e-07
0.000186472 0.000377913 1.02799e-05
3.54651e-07 1.02799e-05 0.000163669
0.000830444 0.000233989 -9.76584e-06
0.000233989 0.000494865 5.11595e-06
-9.76584e-06 5.11595e-06 0.000176535
0.00093206 0.000143667 -1.58747e-06
0.000143667 0.000408291 4.83172e-06
-1.58747e-06 4.83172e-06 0.000269344
0.000404933 7.72646e-05 -3.37554e-06
7.72646e-05 5.72505e-05 -2.15763e-07
-3.37554e-06 -2.15763e-07 -0.000108175
0.00186161 2.40199e-05 1.97361e-06
2.40199e-05 0.000971114 9.50853e-06
1.97361e-06 9.50853e-06 0.000916018
0.00108955 5.31994e-05 -1.78598e-06
5.31994e-05 0.000450069 -3.14561e-09
-1.78598e-06 -3.14561e-09 0.000378492
0.00123124 8.15224e-06 0.00010599
8.15224e-06 0.000543751 1.98931e-05
0.00010599 1.98931e-05 0.000532862
0.00486367 -0.000152745 1.42614e-05
-0.000152745 0.00300503 -1.77343e-06
1.42614e-05 -1.77343e-06 0.0029864
0.00549784 -0.000233768 -9.49703e-05
-0.000233768 0.00346359 -1.65156e-05
-9.49703e-05 -1.65156e-05 0.00342116
0.000474192 -0.000172456 3.41814e-05
-0.000172456 3.96939e-05 -1.12894e-05
3.41814e-05 -1.12894e-05 -5.75537e-05
0.00529014 0.000150295 0.000127985
0.000150295 0.00331906 -1.89755e-05
0.000127985 -1.89755e-05 0.00329299
0.000529083 -0.000241993 1.56343e-07
-0.000241993 3.91235e-05 2.61234e-06
1.56343e-07 2.61234e-06 -0.000110335
0.00795116 -2.37049e-06 1.91866e-06
-2.37049e-06 0.00504266 1.90449e-06
1.91866e-06 1.90449e-06 0.00504202
0.000253724 -0.000316955 -2.91355e-05
-0.000316955 -0.000236282 2.54545e-05
-2.91355e-05 2.54545e-05 -0.000415809
0.00937108 -7.67806e-05 -0.000402005
-7.67806e-05 0.005911 5.35975e-05
-0.000402005 5.35975e-05 0.00592788
0.00174207 0.000339012 -7.67299e-06
0.000339012 4.60127e-05 -2.22746e-06
-7.67299e-06 -2.22746e-06 -0.000150962
0.00165069 0.000186767 -5.59262e-06
0.000186767 -8.16231e-06 -1.32683e-06
-5.59262e-06 -1.32683e-06 -0.00014564
0.00242797 0.000383386 -5.05412e-06
0.000383386 0.00014325 -1.11894e-06
-5.05412e-06 -1.11894e-06 4.36197e-05
0.00244658 0.000181172 -4.29216e-06
0.000181172 0.000132009 -6.14397e-07
-4.29216e-06 -6.14397e-07 8.92539e-05
0.00158655 6.62895e-05 -5.59237e-06
6.62895e-05 -4.85048e-05 -8.51205e-07
-5.59237e-06 -8.51205e-07 -0.000163127
0.000160663 2.59112e-05 -1.45203e-05
2.59112e-05 -0.000365202 -1.61176e-06
-1.45203e-05 -1.61176e-06 -0.000455504
0.00156378 1.26566e-06 -2.96963e-08
1.26566e-06 -6.27595e-05 -3.13115e-08
-2.96963e-08 -3.13115e-08 -0.000175169
0.002434 8.79341e-05 -1.30765e-07
8.79341e-05 0.000116772 1.01563e-07
-1.30765e-07 1.01563e-07 8.5077e-05
0.00242585 0.000280469 -1.28851e-08
0.000280469 0.000131918 1.47223e-07
-1.28851e-08 1.47223e-07 6.55894e-05
0.00222539 0.000180976 -3.27879e-07
0.000180976 -4.70016e-05 -6.71847e-08
-3.27879e-07 -6.71847e-08 -2.26937e-05
0.00242309 0.000503908 -3.73872e-07
0.000503908 0.0001719 1.18242e-07
-3.73872e-07 1.18242e-07 2.0968e-05
0.00228021 0.000365741 -9.42979e-08
0.000365741 -4.41086e-07 1.78121e-07
-9.42979e-08 1.78121e-07 -3.74025e-05
0.00242941 -4.8765e-06 4.45564e-06
-4.8765e-06 0.00011532 8.17392e-08
4.45564e-06 8.17392e-08 8.47361e-05
0.00219024 8.52412e-05 2.3692e-06
8.52412e-05 -7.05291e-05 2.22109e-07
2.3692e-06 2.22109e-07 -3.52054e-05
0.00223602 0.000262029 4.25528e-06
0.000262029 -2.30729e-05 8.12305e-07
4.25528e-06 8.12305e-07 -2.892e-05
0.00235277 0.000183268 8.76565e-07
0.000183268 -7.40008e-05 1.4675e-07
8.76565e-07 1.4675e-07 -1.03226e-05
0.0024072 0.000515111 2.98551e-06
0.000515111 6.26438e-05 8.19242e-07
2.98551e-06 8.19242e-07 -1.11794e-05
0.00242627 0.000402084 8.16171e-08
0.000402084 -6.55434e-05 -5.18695e-07
8.16171e-08 -5.18695e-07 -3.3201e-05
0.00173395 -5.87056e-05 -7.43907e-06
-5.87056e-05 5.28305e-05 3.10793e-07
-7.43907e-06 3.10793e-07 -4.70563e-05
0.00211957 -0.000213264 -2.22921e-05
-0.000213264 0.000304294 2.72257e-06
-2.22921e-05 2.72257e-06 0.00017778
0.00224692 -0.000184864 1.58063e-06
-0.000184864 -1.23278e-05 -6.51823e-08
1.58063e-06 -6.51823e-08 -6.73595e-05
0.00233408 -0.000401228 -1.72894e-06
-0.000401228 0.00013053 1.41628e-06
-1.72894e-06 1.41628e-06 6.361e-07
6.4675e-05 -0.000319013 -2.3086e-05
-0.000319013 -0.000385198 3.22817e-05
-2.3086e-05 3.22817e-05 -0.000619134
0.00171598 -0.000696015 -3.22866e-06
-0.000696015 0.000351013 4.21432e-06
-3.22866e-06 4.21432e-06 -0.000175454
0.00236862 -0.000995566 4.13618e-06
-0.000995566 0.000440308 -7.26028e-07
4.13618e-06 -7.26028e-07 -0.000130886
0.00240641 -0.000611901 1.97556e-07
-0.000611901 0.00025297 1.26589e-08
1.97556e-07 1.26589e-08 1.56251e-05
0.00233676 -0.000517916 -2.68437e-06
-0.000517916 3.84677e-05 7.81004e-07
-2.68437e-06 7.81004e-07 -4.44977e-05
0.00245657 -0.000763457 -1.89133e-06
-0.000763457 0.000223973 2.00248e-06
-1.89133e-06 2.00248e-06 -9.57545e-06
0.00262598 -0.000930634 2.20939e-06
-0.000930634 0.000493882 -1.27713e-06
2.20939e-06 -1.27713e-06 8.25777e-05
0.00240725 -0.000905863 -2.78055e-06
-0.000905863 0.000164101 3.18202e-06
-2.78055e-06 3.18202e-06 -0.000100766
0.000429766 -0.000422213 -1.08268e-05
-0.000422213 -0.000142089 -4.56237e-06
-1.08268e-05 -4.56237e-06 -0.000626343
0.000701129 -0.000435619 -1.5834e-05
-0.000435619 0.000151309 -1.20857e-05
-1.5834e-05 -1.20857e-05 -0.000382332
0.000313254 -0.000255036 1.37511e-06
-0.000255036 8.15817e-05 4.17828e-06
1.37511e-06 4.17828e-06 -0.000319195
0.00234582 -9.30625e-05 3.87921e-06
-9.30625e-05 6.62593e-05 -1.08429e-07
3.87921e-06 -1.08429e-07 2.1727e-05
0.00221245 -0.000292614 2.07227e-06
-0.000292614 -2.27466e-05 -5.97347e-07
2.07227e-06 -5.97347e-07 -0.000101326
0.00227472 -0.000169579 -3.01243e-07
-0.000169579 1.00069e-05 1.09216e-07
-3.01243e-07 1.09216e-07 2.32804e-05
0.00236131 -0.000399946 -1.73246e-07
-0.000399946 6.35737e-05 -3.33839e-08
-1.73246e-07 -3.33839e-08 1.67079e-05
0.00111307 -0.00055355 -2.33267e-06
-0.00055355 0.000132144 -1.07203e-06
-2.33267e-06 -1.07203e-06 -0.000386771
0.00255723 -0.00116377 2.1778e-06
-0.00116377 0.00070609 -3.00077e-07
2.1778e-06 -3.00077e-07 4.17514e-06
0.00248738 -0.00104926 1.52186e-06
-0.00104926 0.00043374 1.96071e-06
1.52186e-06 1.96071e-06 -0.000109607
0.00243943 -0.000660439 -3.53032e-07
-0.000660439 0.00015944 2.79711e-07
-3.53032e-07 2.79711e-07 8.14905e-08
0.00252579 -0.000563076 9.28111e-08
-0.000563076 5.95322e-05 2.99072e-08
9.28111e-08 2.99072e-08 2.74735e-05
0.00265326 -0.000955768 -6.87835e-07
-0.000955768 0.000462207 -1.59631e-07
-6.87835e-07 -1.59631e-07 7.993e-05
0.00255626 -0.000814026 -7.29691e-07
-0.000814026 0.000175363 1.65587e-07
-7.29691e-07 1.65587e-07 1.56895e-05
0.00257484 -0.000949135 1.46637e-06
-0.000949135 0.000195031 -2.59592e-07
1.46637e-06 -2.59592e-07 -1.60254e-05
0.0016372 -0.000812213 -2.78165e-06
-0.000812213 0.000592788 -1.91818e-06
-2.78165e-06 -1.91818e-06 -0.000100374
0.0016545 -0.000831374 -1.88558e-06
-0.000831374 0.000735846 1.15683e-06
-1.88558e-06 1.15683e-06 1.22714e-05
0.000494267 -0.00014571 1.82573e-06
-0.00014571 0.000123915 -5.25366e-07
1.82573e-06 -5.25366e-07 -0.000199625
0.000333737 -0.000271345 3.02412e-06
-0.000271345 3.9725e-05 -6.67029e-06
3.02412e-06 -6.67029e-06 -0.000424614
0.00220832 -9.70975e-05 5.00444e-06
-9.70975e-05 -3.25153e-05 -3.40546e-07
5.00444e-06 -3.40546e-07 -1.36898e-05
0.0023117 -0.000280762 3.80695e-06
-0.000280762 2.05536e-05 -1.0302e-06
3.80695e-06 -1.0302e-06 1.01669e-05
0.00235081 -0.000180425 1.35179e-06
-0.000180425 -2.97923e-05 -3.27352e-07
1.35179e-06 -3.27352e-07 2.68354e-05
0.00248464 -0.000446377 -1.34391e-06
-0.000446377 -2.69029e-05 7.11246e-07
-1.34391e-06 7.11246e-07 1.71955e-05
0.00245722 -0.000687026 -6.2238e-07
-0.000687026 5.88377e-05 2.43502e-07
-6.2238e-07 2.43502e-07 -3.50591e-05
0.0026034 -0.000607235 1.32525e-06
-0.000607235 3.88092e-06 -1.07667e-08
1.32525e-06 -1.07667e-08 -1.48878e-06
0.00183495 -0.00110686 -3.98378e-06
-0.00110686 0.000469482 5.82239e-06
-3.98378e-06 5.82239e-06 -0.000295606
0.00267907 -0.000883423 2.07187e-06
-0.000883423 0.000150893 4.27062e-08
2.07187e-06 4.27062e-08 3.50005e-05
0.00250729 -0.00124174 5.2134e-06
-0.00124174 0.000631463 3.26737e-06
5.2134e-06 3.26737e-06 -8.8099e-05
0.00284901 -0.00109777 1.43339e-05
-0.00109777 0.000644248 -2.67434e-06
1.43339e-05 -2.67434e-06 0.000114546
0.00273569 -0.0009964 4.09976e-06
-0.0009964 0.000447592 -2.10221e-06
4.09976e-06 -2.10221e-06 9.6316e-05
0.00264348 -0.0010173 2.61011e-06
-0.0010173 0.000177703 -2.46502e-06
2.61011e-06 -2.46502e-06 -4.42011e-05
-0.000129326 -0.000284077 1.10583e-05
-0.000284077 -0.000385239 -8.02781e-06
1.10583e-05 -8.02781e-06 -0.000685185
-0.0014868 -2.5618e-06 -4.18422e-06
-2.5618e-06 -0.00109737 9.86829e-07
-4.18422e-06 9.86829e-07 -0.00159953
0.00175015 -0.00113221 2.04212e-05
-0.00113221 0.000671743 6.97086e-06
2.04212e-05 6.97086e-06 -0.000166661
0.00420491 -0.0009124 1.49778e-05
-0.0009124 0.00254699 1.68837e-05
1.49778e-05 1.68837e-05 0.0019083
0.00218493 -0.00109221 -2.40774e-06
-0.00109221 0.00110206 1.40986e-05
-2.40774e-06 1.40986e-05 0.000224286
-7.7199e-05 8.29541e-05 -9.17419e-06
8.29541e-05 -0.000333875 -2.01599e-05
-9.17419e-06 -2.01599e-05 -0.000458124
0.00248576 0.000635573 -3.74918e-06
0.000635573 0.000253357 -1.34061e-06
-3.74918e-06 -1.34061e-06 2.93831e-05
0.00105328 0.000176836 1.72809e-06
0.000176836 0.000389806 -4.37145e-06
1.72809e-06 -4.37145e-06 5.16508e-05
0.00133553 0.000501531 -1.63003e-05
0.000501531 0.000439067 1.84795e-05
-1.63003e-05 1.84795e-05 0.000101034
0.00221756 0.000356962 1.88137e-07
0.000356962 0.00105099 1.41429e-05
1.88137e-07 1.41429e-05 0.000682842
0.00237879 0.000813864 1.38207e-06
0.000813864 0.000312274 2.0883e-06
1.38207e-06 2.0883e-06 -5.89815e-05
0.00251049 0.000780006 -1.73718e-06
0.000780006 0.000238995 -1.39165e-06
-1.73718e-06 -1.39165e-06 -5.16785e-06
0.00171694 0.00110297 1.32489e-05
0.00110297 0.000455251 1.88829e-05
1.32489e-05 1.88829e-05 -0.000365477
0.0025505 0.00124157 3.2039e-06
0.00124157 0.000638645 5.80519e-06
3.2039e-06 5.80519e-06 -9.27908e-05
0.00269059 0.000995155 5.37901e-06
0.000995155 0.000540066 2.26463e-06
5.37901e-06 2.26463e-06 0.0001004
0.00306093 0.000939119 1.29105e-05
0.000939119 0.000689507 1.31318e-05
1.29105e-05 1.31318e-05 0.000270532
0.000490941 0.000102942 -3.73433e-06
0.000102942 3.37628e-05 4.83796e-07
-3.73433e-06 4.83796e-07 -5.65528e-05
0.00060269 0.000224707 -1.4167e-06
0.000224707 0.000222901 -1.11643e-06
-1.4167e-06 -1.11643e-06 -0.00013046
0.00112184 0.000712316 9.21849e-06
0.000712316 0.000355462 -4.71646e-06
9.21849e-06 -4.71646e-06 -0.000261985
0.00105703 0.000276274 -4.19289e-06
0.000276274 0.000394514 -3.72298e-06
-4.19289e-06 -3.72298e-06 3.79154e-05
0.000683004 0.00042877 -2.71901e-06
0.00042877 -5.64186e-05 5.3808e-06
-2.71901e-06 5.3808e-06 -0.000504392
0.00248934 0.000654553 -5.06755e-07
0.000654553 0.00014968 -4.55042e-07
-5.06755e-07 -4.55042e-07 2.37053e-06
0.00253665 0.000903902 5.06937e-07
0.000903902 0.000333641 2.26966e-07
5.06937e-07 2.26966e-07 -1.46461e-05
0.00258138 0.000856405 1.16436e-06
0.000856405 0.000216626 4.94061e-07
1.16436e-06 4.94061e-07 -8.07366e-06
0.00261605 0.00143837 2.15164e-06
0.00143837 0.0010727 -2.89357e-08
2.15164e-06 -2.89357e-08 0.00012662
0.00291258 0.00103999 3.27878e-06
0.00103999 0.000526788 1.58356e-07
3.27878e-06 1.58356e-07 0.000110348
0.00288845 0.0013761 -6.62652e-06
0.0013761 0.000800045 9.70824e-07
-6.62652e-06 9.70824e-07 5.04373e-05
0.000963699 0.000220851 -2.7621e-07
0.000220851 0.000417753 9.49829e-06
-2.7621e-07 9.49829e-06 0.000158232
0.00232372 0.000635987 9.64239e-06
0.000635987 0.00139635 8.55215e-06
9.64239e-06 8.55215e-06 0.000924524
0.00156627 0.00102951 -2.52601e-06
0.00102951 0.000700024 -4.90161e-06
-2.52601e-06 -4.90161e-06 -8.35136e-05
0.00139147 0.000341085 1.1612e-05
0.000341085 0.000318792 -6.58473e-06
1.1612e-05 -6.58473e-06 -1.39548e-05
0.00346749 0.000957913 7.86544e-07
0.000957913 0.00151698 4.07573e-06
7.86544e-07 4.07573e-06 0.000916685
0.00258239 0.000705377 -2.26849e-06
0.000705377 8.05342e-05 -7.8507e-07
-2.26849e-06 -7.8507e-07 -1.17124e-05
0.00265805 0.000984189 -2.83957e-06
0.000984189 0.000357576 2.27679e-06
-2.83957e-06 2.27679e-06 6.08939e-06
0.002667 0.000978331 -4.8236e-07
0.000978331 0.000216598 1.04779e-06
-4.8236e-07 1.04779e-06 -7.09752e-07
0.00194955 0.0014567 1.25709e-05
0.0014567 0.000716386 -2.00859e-06
1.25709e-05 -2.00859e-06 -0.000240594
0.00265443 0.00131002 1.69957e-05
0.00131002 0.00050133 1.12689e-07
1.69957e-05 1.12689e-07 -0.000157737
0.000650567 0.000156725 3.1812e-07
0.000156725 0.000219112 -5.02262e-07
3.1812e-07 -5.02262e-07 5.77482e-06
-2.24822e-05 0.000273264 -8.37422e-06
0.000273264 -0.000125435 -3.76264e-06
-8.37422e-06 -3.76264e-06 -0.000457856
-0.000903108 0.00011125 1.00403e-06
0.00011125 -0.000630782 -2.61248e-06
1.00403e-06 -2.61248e-06 -0.000948211
0.00223263 0.000386263 -1.62364e-05
0.000386263 0.00148899 -6.02543e-07
-1.62364e-05 -6.02543e-07 0.00113268
0.00168777 0.000310998 -7.00531e-06
0.000310998 0.00103689 -2.11682e-06
-7.00531e-06 -2.11682e-06 0.000771456
0.000609543 0.000124974 -1.10778e-07
0.000124974 0.000202552 1.60908e-06
-1.10778e-07 1.60908e-06 7.90498e-05
0.00054981 7.36696e-05 -2.06078e-06
7.36696e-05 0.000157855 -3.32271e-07
-2.06078e-06 -3.32271e-07 2.25687e-05
0.0016602 3.42152e-05 1.70804e-06
3.42152e-05 0.000842023 6.97593e-06
1.70804e-06 6.97593e-06 0.000796235
0.000247251 8.13409e-05 6.86939e-06
8.13409e-05 -5.28544e-05 -7.69455e-06
6.86939e-06 -7.69455e-06 -0.000209615
0.00180565 2.40289e-05 -2.07434e-05
2.40289e-05 0.000932345 -2.63858e-06
-2.07434e-05 -2.63858e-06 0.000883905
0.000752987 -3.14133e-07 7.14364e-05
-3.14133e-07 0.000225171 1.5206e-05
7.14364e-05 1.5206e-05 0.000220765
0.00197871 5.69745e-05 -4.2178e-05
5.69745e-05 0.00104678 -1.29229e-05
-4.2178e-05 -1.29229e-05 0.000986279
0.00268546 -7.24852e-05 9.1154e-05
-7.24852e-05 0.00153662 2.03757e-06
9.1154e-05 2.03757e-06 0.00152109
0.00462032 -0.000170122 -7.78117e-05
-0.000170122 0.00285342 -1.2857e-05
-7.78117e-05 -1.2857e-05 0.00282905
0.000818729 1.17436e-05 3.99781e-06
1.17436e-05 0.000271728 -9.452e-06
3.99781e-06 -9.452e-06 0.000176637
0.000200278 -0.000130508 8.32539e-07
-0.000130508 -0.00013652 8.58332e-07
8.32539e-07 8.58332e-07 -0.000247238
0.00486149 0.000201477 5.90213e-05
0.000201477 0.00304392 -1.49993e-05
5.90213e-05 -1.49993e-05 0.00300123
0.00610468 7.8794e-05 -7.07748e-06
7.8794e-05 0.00385592 3.5266e-06
-7.07748e-06 3.5266e-06 0.00384212
0.000856795 -0.000237733 -2.43449e-05
-0.000237733 0.000248293 2.21048e-05
-2.43449e-05 2.21048e-05 8.48065e-05
0.00865942 -1.62021e-05 -0.000351834
-1.62021e-05 0.00550254 5.2201e-05
-0.000351834 5.2201e-05 0.005504
0.00244011 0.000508649 -4.31487e-06
0.000508649 0.000175281 -1.30394e-06
-4.31487e-06 -1.30394e-06 2.35601e-05
0.00243895 0.000281023 -4.41377e-06
0.000281023 0.0001373 -9.17052e-07
-4.41377e-06 -9.17052e-07 7.19481e-05
0.00228256 0.000368106 -3.77604e-06
0.000368106 4.96403e-06 -2.10531e-07
-3.77604e-06 -2.10531e-07 -3.39504e-05
0.00222594 0.000176236 -3.22317e-06
0.000176236 -5.62922e-05 -4.05636e-07
-3.22317e-06 -4.05636e-07 -2.45758e-05
0.00244122 8.66331e-05 -4.75357e-06
8.66331e-05 0.000122786 -2.4212e-07
-4.75357e-06 -2.4212e-07 9.13626e-05
0.00157229 6.85182e-06 -4.68826e-06
6.85182e-06 -5.90351e-05 -3.99166e-07
-4.68826e-06 -3.99166e-07 -0.000171455
0.0024262 -5.11209e-06 -7.86498e-09
-5.11209e-06 0.000114305 5.98714e-08
-7.86498e-09 5.98714e-08 8.36696e-05
0.00219414 7.72907e-05 -4.16739e-07
7.72907e-05 -6.50408e-05 -5.25725e-08
-4.16739e-07 -5.25725e-08 -3.1447e-05
0.00223271 0.000261454 -1.03235e-07
0.000261454 -2.75764e-05 7.07108e-08
-1.03235e-07 7.07108e-08 -3.31927e-05
0.00234818 0.000185442 1.76081e-07
0.000185442 -8.40817e-05 5.36468e-08
1.76081e-07 5.36468e-08 -1.29967e-05
0.00241487 0.00051463 1.14851e-07
0.00051463 6.86624e-05 -1.21796e-07
1.14851e-07 -1.21796e-07 -3.96259e-06
0.00243354 0.000392833 2.40162e-07
0.000392833 -6.63396e-05 3.72911e-07
2.40162e-07 3.72911e-07 -2.82026e-05
0.00219015 -1.13091e-05 3.25572e-06
-1.13091e-05 -6.04865e-05 -1.12437e-07
3.25572e-06 -1.12437e-07 -2.84776e-05
0.00238086 7.81603e-05 2.77215e-07
7.81603e-05 -6.06767e-05 -2.38025e-07
2.77215e-07 -2.38025e-07 2.43615e-05
0.00237237 0.000264052 -8.76962e-07
0.000264052 -7.25493e-05 -4.06911e-07
-8.76962e-07 -4.06911e-07 -1.83809e-05
0.00248612 0.000195703 -5.60091e-08
0.000195703 -0.000100565 -1.99575e-07
-5.60091e-08 -1.99575e-07 2.01734e-05
0.00251577 0.00053637 -2.53369e-07
0.00053637 -3.28518e-06 -3.98399e-07
-2.53369e-07 -3.98399e-07 -1.31886e-05
0.00250771 0.00038469 7.26281e-07
0.00038469 -0.000129878 4.25446e-08
7.26281e-07 4.25446e-08 -5.13721e-05
0.00242411 -8.99911e-05 -1.08521e-06
-8.99911e-05 0.000121702 3.63322e-08
-1.08521e-06 3.63322e-08 8.52838e-05
0.00218413 -0.000296164 2.27526e-06
-0.000296164 -4.03697e-05 9.22553e-08
2.27526e-06 9.22553e-08 -0.000118203
0.00223175 -0.000163633 -3.12171e-06
-0.000163633 -3.82373e-05 2.49258e-07
-3.12171e-06 2.49258e-07 -1.56687e-05
0.00242083 -0.000394956 -5.35261e-06
-0.000394956 0.000112604 1.56698e-06
-5.35261e-06 1.56698e-06 6.26788e-05
0.000885145 -0.000548375 -1.29121e-05
-0.000548375 -2.20456e-05 2.35475e-06
-1.29121e-05 2.35475e-06 -0.000547083
0.00289623 -0.00120537 -9.91091e-07
-0.00120537 0.000956287 -2.63839e-08
-9.91091e-07 -2.63839e-08 0.00024173
0.002219 -0.00102144 -1.05124e-06
-0.00102144 0.000257831 9.25032e-07
-1.05124e-06 9.25032e-07 -0.000287835
0.00250428 -0.000661217 -4.784e-06
-0.000661217 0.000219834 2.00663e-06
-4.784e-06 2.00663e-06 5.22504e-05
0.00248951 -0.000565291 3.65064e-07
-0.000565291 2.20313e-05 -5.99677e-07
3.65064e-07 -5.99677e-07 -4.83737e-06
0.00255909 -0.000815373 -2.03821e-06
-0.000815373 0.000174494 1.59719e-06
-2.03821e-06 1.59719e-06 1.44304e-05
0.00259418 -0.000953743 -5.722e-06
-0.000953743 0.000415742 3.3619e-06
-5.722e-06 3.3619e-06 3.09698e-05
0.00256929 -0.000960568 -3.29219e-06
-0.000960568 0.000178999 5.97478e-07
-3.29219e-06 5.97478e-07 -2.88914e-05
0.00160041 -0.000819325 -4.99259e-06
-0.000819325 0.000566084 -1.24493e-05
-4.99259e-06 -1.24493e-05 -0.000129118
0.00200824 -0.000851202 -2.83969e-05
-0.000851202 0.00094459 -1.47495e-05
-2.83969e-05 -1.47495e-05 0.000217892
0.00215583 -0.000135937 9.84649e-07
-0.000135937 0.00120876 6.69886e-06
9.84649e-07 6.69886e-06 0.00089224
0.000142119 -0.000167381 -1.223e-05
-0.000167381 -0.000170192 -5.85421e-06
-1.223e-05 -5.85421e-06 -0.00056848
0.00220863 -9.65327e-05 -1.07415e-07
-9.65327e-05 -3.32426e-05 2.446e-08
-1.07415e-07 2.446e-08 -1.45536e-05
0.00234593 -0.000283311 1.1884e-06
-0.000283311 4.64199e-05 -2.21169e-07
1.1884e-06 -2.21169e-07 3.50163e-05
0.0023247 -0.000177869 1.00033e-08
-0.000177869 -5.26111e-05 -6.42217e-08
1.00033e-08 -6.42217e-08 8.14641e-06
0.00244899 -0.000445315 -3.34702e-07
-0.000445315 -4.29188e-05 3.19126e-07
-3.34702e-07 3.19126e-07 -7.82918e-06
0.00226174 -0.00109868 -1.37883e-06
-0.00109868 0.00073821 -3.072e-07
-1.37883e-06 -3.072e-07 -1.39167e-05
0.00241348 -0.00123594 2.58462e-06
-0.00123594 0.000554274 4.83938e-07
2.58462e-06 4.83938e-07 -0.000166669
0.00280116 -0.00110602 -6.2604e-07
-0.00110602 0.000611423 6.0194e-07
-6.2604e-07 6.0194e-07 7.29781e-05
0.00250939 -0.000689788 -9.53954e-07
-0.000689788 0.000103119 2.58596e-07
-9.53954e-07 2.58596e-07 1.50479e-06
0.00258424 -0.000604804 6.62376e-07
-0.000604804 -8.11228e-06 -5.95182e-07
6.62376e-07 -5.95182e-07 -2.56711e-06
0.00274913 -0.00100955 -1.97135e-06
-0.00100955 0.00046432 7.43514e-07
-1.97135e-06 7.43514e-07 0.000107352
0.00268442 -0.000887238 -1.14972e-06
-0.000887238 0.00014711 6.16245e-07
-1.14972e-06 6.16245e-07 2.981e-05
0.00265874 -0.00101023 7.80397e-06
-0.00101023 0.000186485 -2.78027e-06
7.80397e-06 -2.78027e-06 -2.61133e-05
0.0021882 -0.001207 -3.95545e-07
-0.001207 0.000970989 -6.14087e-07
-3.95545e-07 -6.14087e-07 8.90531e-05
0.00223773 -0.00109165 -5.24219e-06
-0.00109165 0.00112732 -1.2848e-06
-5.24219e-06 -1.2848e-06 0.000258503
0.00118012 -0.000647507 -6.51805e-06
-0.000647507 0.000626927 3.43814e-06
-6.51805e-06 3.43814e-06 2.86459e-06
4.58855e-05 -0.000203917 -5.89755e-06
-0.000203917 -0.000211003 1.96737e-06
-5.89755e-06 1.96737e-06 -0.000528716
0.000333948 -1.37349e-05 -4.95481e-06
-1.37349e-05 7.65539e-05 -3.04541e-07
-4.95481e-06 -3.04541e-07 -0.000406116
0.00235183 -0.000111964 -6.83509e-07
-0.000111964 -7.23413e-05 -3.69297e-09
-6.83509e-07 -3.69297e-09 9.17304e-06
0.00240829 -0.000270995 -1.40561e-06
-0.000270995 -8.47086e-05 -1.91662e-07
-1.40561e-06 -1.91662e-07 -7.09899e-06
0.00261832 -0.000542143 8.69991e-08
-0.000542143 -0.000101975 6.71285e-08
8.69991e-08 6.71285e-08 -5.32584e-06
0.00260357 -0.000739788 1.37739e-06
-0.000739788 2.16843e-05 5.70067e-07
1.37739e-06 5.70067e-07 -1.73846e-05
0.00261847 -0.00141656 3.59182e-06
-0.00141656 0.000991108 -1.52854e-06
3.59182e-06 -1.52854e-06 9.90972e-05
0.0028115 -0.00101713 4.78526e-07
-0.00101713 0.000119778 -1.21384e-06
4.78526e-07 -1.21384e-06 -2.10259e-05
0.00190763 -0.00122484 2.86547e-06
-0.00122484 0.000260777 5.01942e-06
2.86547e-06 5.01942e-06 -0.000463508
0.00297343 -0.00117823 1.47016e-06
-0.00117823 0.00070305 -8.39328e-07
1.47016e-06 -8.39328e-07 0.000165192
0.00267594 -0.00104202 -9.16263e-06
-0.00104202 0.000325817 -2.88578e-06
-9.16263e-06 -2.88578e-06 1.75514e-05
-0.000220243 -0.000191274 -1.9918e-06
-0.000191274 -0.000296668 6.08555e-06
-1.9918e-06 6.08555e-06 -0.000584129
0.00361742 -0.000493096 -3.28724e-06
-0.000493096 0.00224965 9.95964e-08
-3.28724e-06 9.95964e-08 0.00176306
-0.000253309 -0.000315505 -1.15419e-05
-0.000315505 -0.00030165 9.10379e-06
-1.15419e-05 9.10379e-06 -0.000771217
0.00304141 -0.0014417 -1.10679e-05
-0.0014417 0.00152508 9.00567e-06
-1.10679e-05 9.00567e-06 0.000547561
0.00391698 -0.000971931 1.63456e-06
-0.000971931 0.00221283 9.7851e-06
1.63456e-06 9.7851e-06 0.00153558
0.0021044 -0.00113208 -1.92868e-05
-0.00113208 0.000996802 1.83509e-05
-1.92868e-05 1.83509e-05 9.3987e-05
0.000277954 0.000107859 -1.4601e-05
0.000107859 -0.000103219 -1.75035e-05
-1.4601e-05 -1.75035e-05 -0.0001885
0.000267855 0.000279324 -2.96314e-06
0.000279324 1.05069e-05 -1.49645e-05
-2.96314e-06 -1.49645e-05 -0.000350937
0.00246202 0.000650908 -3.81554e-06
0.000650908 0.000135293 -2.03281e-06
-3.81554e-06 -2.03281e-06 -1.06059e-05
-0.000410071 -3.68401e-05 -8.50874e-06
-3.68401e-05 -0.00047147 -2.83346e-06
-8.50874e-06 -2.83346e-06 -0.000876748
0.00332675 0.000830895 1.63589e-05
0.000830895 0.00173286 8.08508e-06
1.63589e-05 8.08508e-06 0.00110122
0.00013961 0.000495577 -1.32221e-05
0.000495577 -0.00040549 -1.81374e-06
-1.32221e-05 -1.81374e-06 -0.000912752
0.00255409 0.000902626 1.79334e-07
0.000902626 0.000351122 -1.86712e-06
1.79334e-07 -1.86712e-06 4.45725e-06
0.00255211 0.000857008 1.74985e-06
0.000857008 0.000201528 -9.6556e-07
1.74985e-06 -9.6556e-07 -2.28316e-05
0.00315785 0.00149876 4.54028e-06
0.00149876 0.001449 7.50209e-06
4.54028e-06 7.50209e-06 0.000490469
0.00370995 0.00146817 -7.76957e-06
0.00146817 0.00136892 4.2447e-06
-7.76957e-06 4.2447e-06 0.000602679
0.00290024 0.00104276 3.03461e-06
0.00104276 0.000483486 -6.91609e-07
3.03461e-06 -6.91609e-07 6.38752e-05
0.000908776 0.000215649 -5.47368e-08
0.000215649 0.000395867 -1.95546e-07
-5.47368e-08 -1.95546e-07 0.000125525
0.00100807 0.000406006 -4.82413e-06
0.000406006 0.000552256 -4.31229e-07
-4.82413e-06 -4.31229e-07 9.18743e-05
0.00179917 0.00108932 8.67065e-07
0.00108932 0.000817978 -3.77978e-07
8.67065e-07 -3.77978e-07 -1.01871e-05
0.00101281 0.000305036 -1.35511e-06
0.000305036 8.41935e-05 -9.022e-07
-1.35511e-06 -9.022e-07 -0.000260034
0.0015634 0.000777401 -2.65774e-07
0.000777401 0.000206887 -4.92726e-06
-2.65774e-07 -4.92726e-06 -0.000346511
0.00257915 0.00070399 -1.96958e-06
0.00070399 9.19343e-05 -1.11998e-06
-1.96958e-06 -1.11998e-06 -2.06179e-06
0.00268471 0.000991525 2.55643e-06
0.000991525 0.000351579 4.93709e-07
2.55643e-06 4.93709e-07 -2.11887e-06
0.00274635 0.00098487 1.08507e-06
0.00098487 0.000232909 1.16265e-06
1.08507e-06 1.16265e-06 2.29222e-05
0.00253901 0.00156723 2.73636e-06
0.00156723 0.0010568 1.74079e-06
2.73636e-06 1.74079e-06 7.17188e-05
0.00264014 0.0013351 -2.19743e-06
0.0013351 0.000540601 -4.04277e-06
-2.19743e-06 -4.04277e-06 -0.000141355
0.0014574 0.000589785 5.74497e-06
0.000589785 0.000805005 3.25479e-06
5.74497e-06 3.25479e-06 0.000406815
-0.00150348 0.000437507 3.7647e-06
0.000437507 -0.00109729 -9.91766e-06
3.7647e-06 -9.91766e-06 -0.00158947
0.00231475 0.00127931 -3.47621e-06
0.00127931 0.00110006 -3.06433e-06
-3.47621e-06 -3.06433e-06 0.000241428
-0.0022555 0.000632644 1.92255e-05
0.000632644 -0.0020445 -8.19698e-07
1.92255e-05 -8.19698e-07 -0.00261893
0.00269203 0.00121241 3.48315e-06
0.00121241 0.000831023 -1.67657e-06
3.48315e-06 -1.67657e-06 0.000141802
0.00274227 0.000829929 -1.65483e-06
0.000829929 2.30927e-05 3.41145e-07
-1.65483e-06 3.41145e-07 2.47319e-06
0.00278828 0.00106679 9.18032e-06
0.00106679 0.000340655 -1.27806e-06
9.18032e-06 -1.27806e-06 -5.10021e-05
0.0024438 0.000931123 7.19559e-06
0.000931123 -4.77001e-05 1.83716e-06
7.19559e-06 1.83716e-06 -0.000268331
0.0029891 0.0016534 2.58467e-05
0.0016534 0.00121207 8.99687e-06
2.58467e-05 8.99687e-06 0.000240521
0.00287161 0.0015804 1.40817e-05
0.0015804 0.000796631 3.26115e-06
1.40817e-05 3.26115e-06 -2.20396e-05
0.000423927 0.000116585 8.04818e-06
0.000116585 6.72397e-05 -1.00709e-05
8.04818e-06 -1.00709e-05 -0.000138806
0.000758262 0.000295561 -2.19148e-06
0.000295561 0.000366632 6.79638e-07
-2.19148e-06 6.79638e-07 4.52633e-05
-0.000512568 0.00013521 -7.27684e-06
0.00013521 -0.000465559 -3.01983e-05
-7.27684e-06 -3.01983e-05 -0.000678729
-0.00148228 -4.51527e-05 1.24117e-05
-4.51527e-05 -0.00106431 -2.17634e-06
1.24117e-05 -2.17634e-06 -0.00132531
0.000599234 0.000145355 -2.93786e-06
0.000145355 0.000290772 3.66775e-07
-2.93786e-06 3.66775e-07 6.16292e-05
-0.000207639 0.000114317 6.22805e-06
0.000114317 -0.000165353 1.0133e-06
6.22805e-06 1.0133e-06 -0.000444343
0.000927111 0.000280676 -1.87685e-06
0.000280676 0.000611818 -2.78718e-06
-1.87685e-06 -2.78718e-06 0.000343925
0.000379005 -4.51368e-06 -1.42789e-05
-4.51368e-06 0.00020941 7.95957e-06
-1.42789e-05 7.95957e-06 -5.63165e-05
0.000949741 0.000164978 -4.2561e-06
0.000164978 0.00048024 -3.24232e-06
-4.2561e-06 -3.24232e-06 0.000300461
0.000485727 0.000108401 9.36401e-07
0.000108401 0.00010995 2.63898e-06
9.36401e-07 2.63898e-06 -5.44047e-06
0.000405834 5.20812e-05 -3.21911e-06
5.20812e-05 5.502e-05 2.82154e-07
-3.21911e-06 2.82154e-07 -5.79244e-05
0.00151999 9.18299e-06 1.57726e-06
9.18299e-06 0.000748143 5.17173e-06
1.57726e-06 5.17173e-06 0.000710414
-6.15361e-05 -7.65749e-05 1.00868e-05
-7.65749e-05 -0.000241328 -3.11529e-06
1.00868e-05 -3.11529e-06 -0.000370507
0.0015955 2.10297e-05 -1.78419e-05
2.10297e-05 0.000795664 -2.7689e-06
-1.78419e-05 -2.7689e-06 0.000756009
0.00070332 -8.17768e-07 5.653e-05
-8.17768e-07 0.000193357 1.34352e-05
5.653e-05 1.34352e-05 0.000191305
0.00171139 2.85326e-05 -2.77217e-05
2.85326e-05 0.000866581 -1.27617e-05
-2.77217e-05 -1.27617e-05 0.000823513
0.000753883 -2.48097e-05 3.09991e-05
-2.48097e-05 0.000228137 5.29636e-06
3.09991e-05 5.29636e-06 0.000214661
0.00393395 -0.000182789 2.08013e-05
-0.000182789 0.00238217 -7.86761e-06
2.08013e-05 -7.86761e-06 0.00235463
0.000414974 0.0001179 -2.86947e-06
0.0001179 6.43709e-05 -1.02347e-05
-2.86947e-06 -1.02347e-05 -4.20341e-05
0.000447023 -6.38199e-05 -8.4691e-06
-6.38199e-05 3.27278e-05 -1.09407e-06
-8.4691e-06 -1.09407e-06 -7.00183e-05
0.00417725 0.000263898 -4.16657e-05
0.000263898 0.00259935 -1.71929e-05
-4.16657e-05 -1.71929e-05 0.00254604
0.000541536 -0.000176292 -1.7209e-05
-0.000176292 8.37976e-05 1.40924e-05
-1.7209e-05 1.40924e-05 -3.61944e-05
0.00472826 0.000173685 -2.73495e-05
0.000173685 0.00296271 -8.93674e-07
-2.73495e-05 -8.93674e-07 0.00292774
0.00674062 7.9945e-05 -0.000268058
7.9945e-05 0.00431956 5.46541e-05
-0.000268058 5.46541e-05 0.00428913
0.00242312 0.000514211 -3.78216e-06
0.000514211 7.50244e-05 -1.26393e-06
-3.78216e-06 -1.26393e-06 3.55203e-06
0.00223204 0.000260576 -4.04759e-06
0.000260576 -2.91482e-05 -5.50626e-07
-4.04759e-06 -5.50626e-07 -3.45702e-05
0.00244162 0.000383885 8.8626e-07
0.000383885 -6.69335e-05 8.59817e-07
8.8626e-07 8.59817e-07 -2.28941e-05
0.00234442 0.000188121 1.38989e-06
0.000188121 -9.33646e-05 3.0584e-07
1.38989e-06 3.0584e-07 -1.47084e-05
0.00219548 7.01392e-05 -3.38396e-06
7.01392e-05 -6.14338e-05 -2.4312e-08
-3.38396e-06 -2.4312e-08 -2.9536e-05
0.00242293 -5.72185e-06 -4.33508e-06
-5.72185e-06 0.00011386 9.72005e-08
-4.33508e-06 9.72005e-08 8.32228e-05
0.0021954 -1.26789e-05 2.33349e-07
-1.26789e-05 -5.17835e-05 -2.494e-08
2.33349e-07 -2.494e-08 -2.32584e-05
0.00236291 8.06557e-05 4.00199e-07
8.06557e-05 -6.82805e-05 3.43695e-08
4.00199e-07 3.43695e-08 1.17449e-05
0.00238819 0.00026428 -7.43774e-07
0.00026428 -5.53385e-05 -7.89716e-08
-7.43774e-07 -7.89716e-08 -3.81919e-06
0.00245178 0.000198888 5.85569e-07
0.000198888 -0.000128338 1.57884e-07
5.85569e-07 1.57884e-07 4.09728e-06
0.00253001 0.000540252 -2.74443e-07
0.000540252 8.08045e-06 2.62407e-08
-2.74443e-07 2.62407e-08 -5.54103e-06
0.00253569 0.000388795 1.75915e-06
0.000388795 -0.000111374 7.59607e-07
1.75915e-06 7.59607e-07 -2.10546e-05
0.00233691 -1.58396e-05 -1.10427e-06
-1.58396e-05 -8.17586e-05 -3.44111e-08
-1.10427e-06 -3.44111e-08 -1.90071e-06
0.00249947 9.86539e-05 -6.05105e-07
9.86539e-05 -0.000125637 -5.47428e-07
-6.05105e-07 -5.47428e-07 2.0223e-05
0.00254191 0.000278666 2.43129e-07
0.000278666 -0.000110336 -1.65814e-07
2.43129e-07 -1.65814e-07 2.70203e-05
0.00265358 0.000549828 9.36051e-08
0.000549828 -0.000118069 3.75051e-07
9.36051e-08 3.75051e-07 -1.54079e-05
0.00220678 -9.60728e-05 -4.99288e-06
-9.60728e-05 -3.5737e-05 4.72307e-07
-4.99288e-06 4.72307e-07 -1.71721e-05
0.00237115 -0.000286122 -4.12464e-06
-0.000286122 6.66754e-05 1.04592e-06
-4.12464e-06 1.04592e-06 5.41996e-05
0.00229507 -0.000176292 7.21025e-07
-0.000176292 -7.80116e-05 -4.35365e-07
7.21025e-07 -4.35365e-07 -1.323e-05
0.0024183 -0.000444729 -1.424e-06
-0.000444729 -5.66022e-05 -3.33493e-07
-1.424e-06 -3.33493e-07 -3.06628e-05
0.00268805 -0.00112678 3.77196e-06
-0.00112678 0.00102585 -7.01373e-06
3.77196e-06 -7.01373e-06 0.000269532
0.00234569 -0.00124238 6.92727e-06
-0.00124238 0.000484182 -1.0988e-06
6.92727e-06 -1.0988e-06 -0.000242566
0.00273817 -0.00111714 -1.23231e-05
-0.00111714 0.000570549 1.88394e-06
-1.23231e-05 1.88394e-06 2.06244e-05
0.00256363 -0.000692617 -2.72625e-06
-0.000692617 0.000148717 1.21489e-06
-2.72625e-06 1.21489e-06 4.0062e-05
0.00256639 -0.000603054 2.01331e-06
-0.000603054 -1.92895e-05 -7.40513e-07
2.01331e-06 -7.40513e-07 -2.84219e-06
0.00269054 -0.000889755 -4.83689e-06
-0.000889755 0.000146451 1.20738e-06
-4.83689e-06 1.20738e-06 2.78443e-05
0.00273283 -0.00101483 -4.63204e-06
-0.00101483 0.000464166 3.15219e-06
-4.63204e-06 3.15219e-06 0.000104913
0.00264654 -0.00100006 -6.38931e-07
-0.00100006 0.000175825 -5.6784e-07
-6.38931e-07 -5.6784e-07 -2.7935e-05
0.00243239 -0.00122769 -2.37798e-05
-0.00122769 0.0011466 -6.42056e-06
-2.37798e-05 -6.42056e-06 0.000261227
0.00205978 -0.00105871 1.46447e-05
-0.00105871 0.00101627 -1.74483e-05
1.46447e-05 -1.74483e-05 0.000179232
-0.000191972 -0.000382476 -1.71021e-05
-0.000382476 -0.000257642 -6.56265e-06
-1.71021e-05 -6.56265e-06 -0.000852708
0.000327257 -0.000116305 -5.50396e-06
-0.000116305 5.84044e-06 2.45947e-06
-5.50396e-06 2.45947e-06 -0.00030538
0.00203924 -3.91181e-05 -2.0872e-06
-3.91181e-05 0.00112051 -2.02575e-06
-2.0872e-06 -2.02575e-06 0.000674257
0.00234569 -0.000120186 1.45991e-07
-0.000120186 -7.39331e-05 -7.90551e-08
1.45991e-07 -7.90551e-08 5.59796e-06
0.00241294 -0.000272261 1.73679e-06
-0.000272261 -8.32142e-05 -7.39565e-08
1.73679e-06 -7.39565e-08 -7.92209e-06
0.00258955 -0.00053605 -1.0846e-06
-0.00053605 -0.000102241 1.52313e-07
-1.0846e-06 1.52313e-07 -1.90744e-05
0.00272853 -0.0014083 -1.8226e-06
-0.0014083 0.00105613 -3.77748e-07
-1.8226e-06 -3.77748e-07 0.000172799
0.00201258 -0.00123366 5.36996e-06
-0.00123366 0.000320817 -5.14033e-07
5.36996e-06 -5.14033e-07 -0.000405457
0.00287682 -0.00118226 -1.72717e-06
-0.00118226 0.000642764 -5.40479e-07
-1.72717e-06 -5.40479e-07 9.18151e-05
0.00260776 -0.00072929 2.54475e-07
-0.00072929 3.29372e-05 -4.06839e-07
2.54475e-07 -4.06839e-07 -7.91512e-06
0.00269821 -0.00106417 5.51512e-06
-0.00106417 0.00032145 -2.81824e-06
5.51512e-06 -2.81824e-06 1.1108e-05
0.00281166 -0.00100857 -5.88295e-07
-0.00100857 0.000144907 -6.05393e-07
-5.88295e-07 -6.05393e-07 6.4009e-06
-0.000386173 -2.81097e-05 -3.89598e-06
-2.81097e-05 -0.000447221 -7.49826e-08
-3.89598e-06 -7.49826e-08 -0.000692384
0.00221843 -0.00128761 2.75384e-08
-0.00128761 0.00101731 -1.0692e-06
2.75384e-08 -1.0692e-06 9.65896e-05
0.00254764 -0.00124053 -5.18863e-06
-0.00124053 0.0012717 4.94563e-06
-5.18863e-06 4.94563e-06 0.000314835
0.00214163 -0.000792458 4.78913e-06
-0.000792458 0.00116598 2.93999e-06
4.78913e-06 2.93999e-06 0.000469246
0.000567044 -0.000348718 -8.16925e-07
-0.000348718 0.000174486 -4.56932e-07
-8.16925e-07 -4.56932e-07 -0.00029536
0.00155008 -0.000230872 -3.10215e-06
-0.000230872 0.00085371 2.38812e-06
-3.10215e-06 2.38812e-06 0.000388849
0.00244199 -0.000153887 -1.75574e-06
-0.000153887 -0.000145233 2.14843e-07
-1.75574e-06 2.14843e-07 -1.40374e-05
0.00259457 -0.000358809 1.39584e-06
-0.000358809 -0.000186551 9.45876e-09
1.39584e-06 9.45876e-09 -1.17165e-05
0.0027291 -0.000678108 5.749e-07
-0.000678108 -7.66069e-05 6.02016e-07
5.749e-07 6.02016e-07 1.66271e-05
0.00275959 -0.000876534 6.47467e-07
-0.000876534 -7.5019e-07 7.85532e-07
6.47467e-07 7.85532e-07 5.62494e-06
0.00270925 -0.00147201 -4.2974e-06
-0.00147201 0.00107096 7.18245e-06
-4.2974e-06 7.18245e-06 0.000166476
0.00283121 -0.00116006 -2.92681e-08
-0.00116006 0.000244758 -6.69272e-06
-2.92681e-08 -6.69272e-06 -2.28299e-05
0.0029508 -0.00150311 -4.44295e-05
-0.00150311 0.000914007 1.13951e-05
-4.44295e-05 1.13951e-05 8.93592e-05
0.00265523 -0.00124085 -3.09405e-05
-0.00124085 0.000500295 1.81961e-07
-3.09405e-05 1.81961e-07 -3.58281e-05
-0.000922412 -1.0499e-05 -1.46802e-06
-1.0499e-05 -0.000830283 3.73511e-07
-1.46802e-06 3.73511e-07 -0.000989138
0.00144764 -0.000229783 -3.26089e-06
-0.000229783 0.000919657 6.07498e-06
-3.26089e-06 6.07498e-06 0.000484458
0.00326712 -0.000571287 -1.61364e-05
-0.000571287 0.00198258 8.50826e-06
-1.61364e-05 8.50826e-06 0.00152734
0.000382182 -0.00041037 -5.84052e-07
-0.00041037 5.31792e-05 -8.93922e-06
-5.84052e-07 -8.93922e-06 -0.000395315
0.00300633 -0.00140159 -2.2991e-05
-0.00140159 0.00148738 2.70081e-05
-2.2991e-05 2.70081e-05 0.000525727
0.00225475 -0.00113816 -2.284e-05
-0.00113816 0.00114972 2.1502e-05
-2.284e-05 2.1502e-05 0.000182986
0.000112763 0.000154984 1.7108e-06
0.000154984 -9.13418e-05 -8.78783e-06
1.7108e-06 -8.78783e-06 -0.000383881
0.00016757 0.000214846 -4.80096e-06
0.000214846 -4.79133e-05 -6.30538e-06
-4.80096e-06 -6.30538e-06 -0.000445772
0.00257727 0.000702698 -1.40258e-06
0.000702698 0.0001041 -1.24056e-06
-1.40258e-06 -1.24056e-06 8.35222e-06
0.000349885 0.00027881 -1.03686e-05
0.00027881 -0.000345317 9.91173e-06
-1.03686e-05 9.91173e-06 -0.000676209
0.00204545 0.00113771 8.99132e-06
0.00113771 0.000954749 2.72093e-06
8.99132e-06 2.72093e-06 9.34731e-05
0.000856018 0.000653629 -1.35632e-05
0.000653629 -0.000192361 -5.50337e-06
-1.35632e-05 -5.50337e-06 -0.000704231
0.00271486 0.000998803 3.58965e-06
0.000998803 0.000346688 -2.52834e-06
3.58965e-06 -2.52834e-06 -9.18493e-06
0.00282462 0.000990183 -3.9026e-06
0.000990183 0.00025028 -1.80868e-06
-3.9026e-06 -1.80868e-06 4.84626e-05
0.00285484 0.00163641 -8.90775e-06
0.00163641 0.00122264 7.39923e-07
-8.90775e-06 7.39923e-07 0.000222445
0.00255773 0.00134472 -1.21913e-05
0.00134472 0.00055254 -1.08331e-06
-1.21913e-05 -1.08331e-06 -0.00014865
0.000844135 0.000346047 2.86844e-07
0.000346047 0.000416834 -5.58698e-07
2.86844e-07 -5.58698e-07 3.21887e-05
0.00147333 0.000489763 -2.78574e-06
0.000489763 0.000773263 -8.84022e-06
-2.78574e-06 -8.84022e-06 0.000301087
0.00165368 0.00115406 -3.26309e-06
0.00115406 0.00069864 -1.78565e-06
-3.26309e-06 -1.78565e-06 -0.000127216
0.00176602 0.000634237 1.77713e-06
0.000634237 0.000351248 2.35932e-06
1.77713e-06 2.35932e-06 -9.13828e-05
0.00368558 0.00123128 -5.09716e-06
0.00123128 0.0015349 5.28137e-07
-5.09716e-06 5.28137e-07 0.000852174
0.00278519 0.000841419 -2.44732e-06
0.000841419 3.45378e-05 -4.61658e-07
-2.44732e-06 -4.61658e-07 6.47784e-06
0.00284216 0.00102156 2.79593e-06
0.00102156 0.000386977 -1.10256e-06
2.79593e-06 -1.10256e-06 2.46697e-05
0.0027888 0.000955732 5.24994e-07
0.000955732 0.000200364 2.53513e-06
5.24994e-07 2.53513e-06 -3.01552e-05
0.00275861 0.00164182 7.97153e-06
0.00164182 0.00106005 2.44461e-06
7.97153e-06 2.44461e-06 8.26228e-05
0.00290882 0.0016759 -5.58974e-06
0.0016759 0.000825404 1.99013e-06
-5.58974e-06 1.99013e-06 -5.09115e-05
-0.00181474 0.000164924 -1.04665e-05
0.000164924 -0.0013038 -3.12014e-06
-1.04665e-05 -3.12014e-06 -0.00160419
-0.00150558 0.000576946 4.55194e-06
0.000576946 -0.000723872 -1.12919e-05
4.55194e-06 -1.12919e-05 -0.00143489
0.00242045 0.00132065 1.24078e-05
0.00132065 0.000985394 1.01687e-06
1.24078e-05 1.01687e-06 0.000158895
0.00360852 0.000985819 7.403e-06
0.000985819 0.00141845 -5.90938e-06
7.403e-06 -5.90938e-06 0.000890731
0.00292779 0.000755527 4.31783e-06
0.000755527 -0.000233049 3.84076e-06
4.31783e-06 3.84076e-06 -9.83128e-06
0.0028405 0.00104074 7.98944e-06
0.00104074 5.06803e-05 2.97808e-06
7.98944e-06 2.97808e-06 -4.25419e-05
0.00312504 0.00136286 1.23463e-05
0.00136286 0.000597692 -3.64382e-06
1.23463e-05 -3.64382e-06 -1.87149e-05
0.00270471 0.00174629 1.74869e-05
0.00174629 0.000795243 3.38592e-06
1.74869e-05 3.38592e-06 -0.000203769
0.00208987 0.000346135 1.06735e-05
0.000346135 0.00129296 2.21983e-06
1.06735e-05 2.21983e-06 0.000929417
0.000157918 0.000262686 -4.86704e-06
0.000262686 2.94117e-05 2.99744e-06
-4.86704e-06 2.99744e-06 -0.000229622
-0.000398609 0.000100257 2.86095e-06
0.000100257 -0.000283894 -1.28837e-05
2.86095e-06 -1.28837e-05 -0.000454722
-0.000407765 1.89886e-05 6.54376e-06
1.89886e-05 -0.000394133 1.94151e-06
6.54376e-06 1.94151e-06 -0.000607692
-0.00298784 -2.72243e-06 4.32918e-06
-2.72243e-06 -0.00188466 -2.8293e-06
4.32918e-06 -2.8293e-06 -0.00219022
0.000739823 0.000105193 -1.33652e-06
0.000105193 0.000344032 -4.82767e-07
-1.33652e-06 -4.82767e-07 0.000160134
0.000729197 0.000280528 1.19999e-05
0.000280528 0.000530259 3.79205e-06
1.19999e-05 3.79205e-06 0.000262927
0.000721321 0.000112999 1.63687e-06
0.000112999 0.000473724 3.2037e-06
1.63687e-06 3.2037e-06 0.000169339
0.00172882 0.000253808 -9.26339e-06
0.000253808 0.000953559 -1.40794e-05
-9.26339e-06 -1.40794e-05 0.000816626
0.000589234 8.40716e-05 -7.24917e-06
8.40716e-05 0.000408824 -1.50632e-06
-7.24917e-06 -1.50632e-06 0.000116882
-0.000272138 7.80299e-05 -7.65763e-06
7.80299e-05 -0.000260067 5.25071e-06
-7.65763e-06 5.25071e-06 -0.000490626
0.000939357 0.000183042 -1.0699e-07
0.000183042 0.000466905 2.26146e-06
-1.0699e-07 2.26146e-06 0.000281042
0.0004786 0.000115464 2.80035e-06
0.000115464 0.000113452 4.36254e-06
2.80035e-06 4.36254e-06 -9.28581e-06
0.000417509 2.70086e-05 -2.0345e-06
2.70086e-05 6.11226e-05 -5.67121e-07
-2.0345e-06 -5.67121e-07 -5.04425e-05
0.00137489 3.71387e-05 8.62599e-07
3.71387e-05 0.000658288 3.62205e-06
8.62599e-07 3.62205e-06 0.000622425
0.000283718 -4.95871e-05 3.85792e-06
-4.95871e-05 -3.15423e-05 -1.58825e-06
3.85792e-06 -1.58825e-06 -0.000137741
0.00146651 1.82097e-05 -1.65635e-05
1.82097e-05 0.000718018 -2.28461e-06
-1.65635e-05 -2.28461e-06 0.000680486
0.00070926 4.47787e-06 5.16647e-05
4.47787e-06 0.000201554 1.23257e-05
5.16647e-05 1.23257e-05 0.000200483
0.00149005 -3.56743e-05 -1.64239e-05
-3.56743e-05 0.000729575 -1.05706e-05
-1.64239e-05 -1.05706e-05 0.000691052
0.000729591 -1.63183e-05 2.56975e-05
-1.63183e-05 0.000209827 4.90039e-06
2.56975e-05 4.90039e-06 0.000202336
0.000668384 -3.53234e-05 7.01696e-06
-3.53234e-05 0.000173982 -6.11146e-06
7.01696e-06 -6.11146e-06 0.00015599
0.000440022 9.81027e-06 4.77585e-06
9.81027e-06 1.57961e-05 -1.05404e-05
4.77585e-06 -1.05404e-05 -3.83074e-05
0.000292755 1.27965e-05 -1.64211e-06
1.27965e-05 -5.78552e-05 5.54143e-07
-1.64211e-06 5.54143e-07 -0.000147555
0.00346815 0.0001913 -2.37901e-05
0.0001913 0.0020867 -1.32493e-05
-2.37901e-05 -1.32493e-05 0.00205761
-0.000636014 -8.30385e-05 -2.14723e-05
-8.30385e-05 -0.00067568 8.46933e-06
-2.14723e-05 8.46933e-06 -0.000783048
0.00467838 0.00016651 -2.93678e-05
0.00016651 0.00289586 -1.58543e-06
-2.93678e-05 -1.58543e-06 0.00286577
0.00481313 6.02174e-05 -0.000179906
6.02174e-05 0.00300591 3.41899e-05
-0.000179906 3.41899e-05 0.00299944
0.00254143 0.000543563 6.61022e-07
0.000543563 1.8271e-05 6.36798e-07
6.61022e-07 6.36798e-07 1.12839e-06
0.00240425 0.000264464 1.43259e-07
0.000264464 -3.85056e-05 -2.09629e-08
1.43259e-07 -2.09629e-08 1.02653e-05
0.00256346 0.000392041 9.06246e-07
0.000392041 -9.33633e-05 1.81114e-06
9.06246e-07 1.81114e-06 8.78875e-06
0.00241561 0.000201938 1.63652e-06
0.000201938 -0.000157843 2.82736e-07
1.63652e-06 2.82736e-07 -1.37756e-05
0.00234681 8.30395e-05 9.13331e-07
8.30395e-05 -7.41771e-05 2.08908e-07
9.13331e-07 2.08908e-07 6.44728e-07
0.00220431 -1.48381e-05 -5.10958e-06
-1.48381e-05 -4.08239e-05 1.64676e-07
-5.10958e-06 1.64676e-07 -1.56967e-05
0.00234097 -1.54066e-05 5.09473e-07
-1.54066e-05 -7.86529e-05 -2.49732e-08
5.09473e-07 -2.49732e-08 2.76694e-06
0.00246362 0.000104363 4.17304e-07
0.000104363 -0.000142549 1.76297e-07
4.17304e-07 1.76297e-07 2.57858e-06
0.00253137 0.000283105 6.92192e-07
0.000283105 -0.000122936 -1.71485e-08
6.92192e-07 -1.71485e-08 1.43016e-05
0.00266416 0.000531485 4.03669e-07
0.000531485 -0.000107057 2.48822e-07
4.03669e-07 2.48822e-07 1.96826e-06
0.00246429 -1.43689e-05 -1.84398e-06
-1.43689e-05 -0.000145884 -2.00592e-07
-1.84398e-06 -2.00592e-07 -4.99268e-06
0.00261972 0.00017727 2.01817e-07
0.00017727 -0.000169927 -8.11655e-07
2.01817e-07 -8.11655e-07 4.69292e-05
0.00275985 0.000377624 2.63245e-06
0.000377624 -0.000175311 -5.78169e-08
2.63245e-06 -5.78169e-08 2.55608e-05
0.00234206 -0.000128095 1.28801e-06
-0.000128095 -7.33831e-05 -2.2269e-07
1.28801e-06 -2.2269e-07 4.02439e-06
0.00241675 -0.00027257 -2.3305e-07
-0.00027257 -8.19112e-05 -2.99779e-07
-2.3305e-07 -2.99779e-07 -8.92954e-06
0.00255831 -0.000529239 -6.86909e-07
-0.000529239 -0.000104416 -8.30548e-08
-6.86909e-07 -8.30548e-08 -3.37768e-05
0.00281514 -0.00140544 -6.15704e-06
-0.00140544 0.00110091 -4.79519e-07
-6.15704e-06 -4.79519e-07 0.000219239
0.00208877 -0.00122083 4.82272e-06
-0.00122083 0.00037211 -3.49936e-06
4.82272e-06 -3.49936e-06 -0.000345435
0.00271798 -0.00116655 8.31725e-08
-0.00116655 0.000545272 1.38544e-06
8.31725e-08 1.38544e-06 -9.57115e-06
0.00261012 -0.000719168 -1.20107e-06
-0.000719168 4.0643e-05 1.33364e-07
-1.20107e-06 1.33364e-07 -1.51286e-06
0.00282164 -0.000998797 -2.32794e-06
-0.000998797 0.000173031 1.34828e-06
-2.32794e-06 1.34828e-06 4.14963e-05
0.00273843 -0.00108819 6.47558e-06
-0.00108819 0.000328298 -2.63301e-06
6.47558e-06 -2.63301e-06 1.56682e-05
0.00193832 -0.00123349 -1.31272e-06
-0.00123349 0.000850979 -1.07496e-05
-1.31272e-06 -1.07496e-05 -5.61064e-05
0.00198747 -0.00119905 2.13883e-05
-0.00119905 0.000942183 -2.43207e-05
2.13883e-05 -2.43207e-05 -3.48303e-05
-0.000159721 -0.000757911 -1.02824e-05
-0.000757911 -0.000149227 -1.05288e-05
-1.02824e-05 -1.05288e-05 -0.000931739
8.51101e-05 9.98715e-06 5.97094e-06
9.98715e-06 -0.000100297 -8.69026e-06
5.97094e-06 -8.69026e-06 -0.000370174
0.00287032 -0.000479725 1.12661e-05
-0.000479725 0.0015463 -6.59334e-06
1.12661e-05 -6.59334e-06 0.00111703
-0.00111368 4.13243e-06 1.05956e-05
4.13243e-06 -0.000918325 1.86383e-06
1.05956e-05 1.86383e-06 -0.00136184
0.00246671 -0.000144507 -2.9355e-07
-0.000144507 -0.000128236 1.33497e-07
-2.9355e-07 1.33497e-07 -1.37716e-06
0.00258975 -0.000375066 7.46834e-08
-0.000375066 -0.000196995 -4.5329e-07
7.46834e-08 -4.5329e-07 -1.72291e-05
0.00271104 -0.00066136 -2.7553e-07
-0.00066136 -8.09194e-05 -8.31811e-08
-2.7553e-07 -8.31811e-08 1.16682e-05
0.00268415 -0.0014629 -1.4853e-06
-0.0014629 0.00104677 7.43592e-07
-1.4853e-06 7.43592e-07 0.00014542
0.00246538 -0.00142282 1.00623e-05
-0.00142282 0.000631423 -3.33168e-06
1.00623e-05 -3.33168e-06 -0.000166305
0.00271566 -0.00123377 -5.54445e-07
-0.00123377 0.000515003 -1.70428e-06
-5.54445e-07 -1.70428e-06 -1.03879e-05
0.00275796 -0.000890645 6.38307e-07
-0.000890645 -7.29387e-06 -4.39719e-07
6.38307e-07 -4.39719e-07 -9.46629e-06
0.00286089 -0.00115229 2.31403e-06
-0.00115229 0.000274019 -1.72526e-06
2.31403e-06 -1.72526e-06 1.31275e-05
-0.000122881 2.57207e-05 1.06452e-07
2.57207e-05 -0.000285134 -6.50086e-06
1.06452e-07 -6.50086e-06 -0.000452311
0.000495587 -0.000173941 -1.55323e-06
-0.000173941 0.000270667 -6.7471e-08
-1.55323e-06 -6.7471e-08 -0.000132119
0.00201572 -0.00125952 -9.33272e-06
-0.00125952 0.000883176 4.1422e-07
-9.33272e-06 4.1422e-07 -3.32711e-05
0.00109814 -0.000912898 2.86982e-06
-0.000912898 0.000466082 2.67046e-06
2.86982e-06 2.67046e-06 -0.000459448
0.00182429 -0.000425753 -3.09173e-06
-0.000425753 0.000903785 -6.66512e-06
-3.09173e-06 -6.66512e-06 0.000453123
0.0010697 -0.000431139 1.93892e-06
-0.000431139 0.000564534 -3.13046e-06
1.93892e-06 -3.13046e-06 0.00010944
0.002562 -0.000196275 1.85575e-06
-0.000196275 -0.000232813 5.75219e-07
1.85575e-06 5.75219e-07 -8.61716e-06
0.00283895 -0.000550934 3.6029e-06
-0.000550934 -0.00021134 1.36069e-07
3.6029e-06 1.36069e-07 3.91847e-05
0.00274951 -0.000826741 2.08464e-06
-0.000826741 -0.000144072 8.62403e-07
2.08464e-06 8.62403e-07 -4.28308e-05
0.00300478 -0.00115125 4.8728e-06
-0.00115125 0.000182417 4.96563e-07
4.8728e-06 4.96563e-07 5.04778e-05
0.0025087 -0.00150262 -1.68215e-06
-0.00150262 0.000984344 -3.32442e-06
-1.68215e-06 -3.32442e-06 8.67024e-05
0.00317572 -0.00148061 2.25049e-06
-0.00148061 0.000622426 -1.45667e-05
2.25049e-06 -1.45667e-05 0.0001188
0.00230508 -0.00150944 -5.52726e-05
-0.00150944 0.000543783 3.98756e-06
-5.52726e-05 3.98756e-06 -0.000284366
0.000368559 2.85479e-05 1.64131e-06
2.85479e-05 1.01338e-05 -5.68205e-06
1.64131e-06 -5.68205e-06 -0.000104259
0.000584788 -0.000191358 6.32642e-06
-0.000191358 0.000243886 -5.7158e-06
6.32642e-06 -5.7158e-06 5.00029e-05
-0.0014154 3.63973e-06 -8.80691e-06
3.63973e-06 -0.000994935 4.13555e-06
-8.80691e-06 4.13555e-06 -0.0012971
0.00125025 -0.000370816 -1.25173e-05
-0.000370816 0.000843911 1.5063e-05
-1.25173e-05 1.5063e-05 0.000393002
0.0037548 -0.00021264 -1.3733e-05
-0.00021264 0.00224836 -1.0348e-07
-1.3733e-05 -1.0348e-07 0.00190808
-0.000547968 -0.000342602 -5.68458e-06
-0.000342602 -0.000408151 2.05425e-06
-5.68458e-06 2.05425e-06 -0.0011407
0.00291886 -0.00148737 -5.02344e-05
-0.00148737 0.00130601 4.98958e-05
-5.02344e-05 4.98958e-05 0.000344047
0.00363257 -0.0013088 -5.60604e-05
-0.0013088 0.00207025 4.02379e-05
-5.60604e-05 4.02379e-05 0.000922535
0.000835272 0.000173334 7.5524e-06
0.000173334 0.000393377 -2.87247e-06
7.5524e-06 -2.87247e-06 2.82382e-05
0.00206276 0.000619402 7.32809e-06
0.000619402 0.00117963 2.62898e-05
7.32809e-06 2.62898e-05 0.000646234
0.002832 0.00085516 -1.39355e-06
0.00085516 4.56893e-05 -1.67025e-06
-1.39355e-06 -1.67025e-06 8.88014e-06
0.0021442 0.000492254 -1.17683e-05
0.000492254 0.000428708 -8.61345e-06
-1.17683e-05 -8.61345e-06 3.93376e-05
0.00176946 0.00114419 4.53895e-06
0.00114419 0.000780144 -4.18603e-06
4.53895e-06 -4.18603e-06 -4.50913e-05
0.00395227 0.00121729 5.90113e-06
0.00121729 0.001722 7.75641e-06
5.90113e-06 7.75641e-06 0.00104664
0.00287488 0.000973617 -4.8943e-06
0.000973617 0.000418985 -3.42608e-06
-4.8943e-06 -3.42608e-06 8.72161e-05
0.00314001 0.000981588 -3.07791e-06
0.000981588 0.000451755 5.22273e-06
-3.07791e-06 5.22273e-06 0.000210721
0.00251176 0.00162804 -1.22129e-05
0.00162804 0.000897319 -4.56399e-06
-1.22129e-05 -4.56399e-06 -8.34848e-05
0.00277136 0.00175463 -2.49933e-05
0.00175463 0.000749655 -3.98749e-06
-2.49933e-05 -3.98749e-06 -0.000179532
-0.00138413 0.000255724 -1.13964e-06
0.000255724 -0.000986213 -4.67596e-07
-1.13964e-06 -4.67596e-07 -0.00134754
-0.000918711 0.000552399 3.78371e-06
0.000552399 -0.000386535 2.34473e-07
3.78371e-06 2.34473e-07 -0.00107559
0.00220433 0.00132486 2.80097e-07
0.00132486 0.000781685 -6.70444e-07
2.80097e-07 -6.70444e-07 -5.8692e-05
0.00314406 0.000926298 -9.43187e-06
0.000926298 0.00123399 -1.24548e-06
-9.43187e-06 -1.24548e-06 0.000698281
0.00285238 0.000715774 -1.43408e-07
0.000715774 -0.000320363 -9.96129e-09
-1.43408e-07 -9.96129e-09 -6.71088e-05
0.00298731 0.00103997 3.14576e-06
0.00103997 0.000146081 -1.21902e-06
3.14576e-06 -1.21902e-06 2.32147e-05
0.00290333 0.0013135 -4.65864e-06
0.0013135 0.000520827 -7.09996e-07
-4.65864e-06 -7.09996e-07 -7.60749e-05
0.00288913 0.00173211 2.20391e-06
0.00173211 0.000903748 1.35964e-06
2.20391e-06 1.35964e-06 -7.37506e-05
-0.00119226 3.60675e-05 -5.55449e-06
3.60675e-05 -0.000829028 -4.64374e-06
-5.55449e-06 -4.64374e-06 -0.00108032
0.00284193 0.000499597 6.16214e-06
0.000499597 -0.000374699 2.83813e-06
6.16214e-06 2.83813e-06 -5.05937e-05
0.0033519 0.000991402 -3.80217e-06
0.000991402 0.00219905 7.81266e-06
-3.80217e-06 7.81266e-06 0.00147235
0.00229486 0.00114538 1.08233e-05
0.00114538 0.000786561 -1.12298e-06
1.08233e-05 -1.12298e-06 4.7257e-05
0.00300572 0.00103797 -2.1014e-05
0.00103797 -8.22338e-05 -1.14844e-05
-2.1014e-05 -1.14844e-05 4.27862e-05
0.0022377 0.00126458 6.92464e-06
0.00126458 -1.10469e-05 -1.12517e-05
6.92464e-06 -1.12517e-05 -0.00053023
0.00385589 0.00189635 1.09372e-05
0.00189635 0.00140841 5.88213e-06
1.09372e-05 5.88213e-06 0.000396828
0.00081852 0.000266135 4.41105e-06
0.000266135 0.000489426 1.12624e-05
4.41105e-06 1.12624e-05 0.000187079
0.000734244 0.000219829 -4.69607e-06
0.000219829 0.000455829 1.28029e-07
-4.69607e-06 1.28029e-07 0.000262406
-0.00134768 5.3192e-05 -5.91089e-06
5.3192e-05 -0.000876489 -3.12435e-06
-5.91089e-06 -3.12435e-06 -0.00102205
-0.00011101 6.47812e-06 4.31863e-06
6.47812e-06 -0.000236175 1.22867e-06
4.31863e-06 1.22867e-06 -0.000400056
0.000465946 0.000151798 8.45482e-06
0.000151798 0.000287739 -1.24928e-05
8.45482e-06 -1.24928e-05 -1.82209e-06
-0.00107282 0.000150733 -9.75013e-06
0.000150733 -0.000612308 1.17687e-05
-9.75013e-06 1.17687e-05 -0.000848779
0.000471548 5.32073e-05 -1.78141e-06
5.32073e-05 0.000151441 -8.40295e-07
-1.78141e-06 -8.40295e-07 -2.54898e-05
0.000172765 3.25678e-05 7.95849e-07
3.25678e-05 5.48971e-05 -9.75359e-07
7.95849e-07 -9.75359e-07 -0.000192046
-0.000291932 0.000112591 -9.32611e-07
0.000112591 -0.000255442 2.08516e-06
-9.32611e-07 2.08516e-06 -0.000385137
0.000680564 0.00018912 3.41724e-06
0.00018912 0.000473193 -4.09231e-06
3.41724e-06 -4.09231e-06 0.00017418
0.00128637 0.000222219 -5.77952e-06
0.000222219 0.000756119 -1.27246e-05
-5.77952e-06 -1.27246e-05 0.000644744
0.000282447 0.000117036 1.1841e-07
0.000117036 0.000119676 -1.52769e-05
1.1841e-07 -1.52769e-05 -3.72453e-05
0.00129162 8.44979e-05 -6.59824e-06
8.44979e-05 0.000836418 5.23298e-06
-6.59824e-06 5.23298e-06 0.000545997
0.000634026 6.32979e-05 -6.68493e-06
6.32979e-05 0.000318114 1.06278e-06
-6.68493e-06 1.06278e-06 7.04894e-05
0.000587748 5.07154e-05 2.22522e-07
5.07154e-05 0.000205624 2.74576e-06
2.22522e-07 2.74576e-06 3.20991e-05
0.000415249 -9.68899e-05 -3.06592e-06
-9.68899e-05 5.82533e-05 3.79532e-06
-3.06592e-06 3.79532e-06 -5.70535e-05
0.000409973 1.69144e-05 1.01547e-06
1.69144e-05 4.74142e-05 -5.45496e-07
1.01547e-06 -5.45496e-07 -6.17901e-05
0.00139454 4.16475e-05 4.7019e-06
4.16475e-05 0.000674243 4.68801e-06
4.7019e-06 4.68801e-06 0.000639556
0.000392032 1.63121e-05 2.63773e-06
1.63121e-05 2.37278e-05 -2.56438e-06
2.63773e-06 -2.56438e-06 -7.39519e-05
0.00144845 2.36712e-05 -1.53301e-05
2.36712e-05 0.000710712 -2.3332e-06
-1.53301e-05 -2.3332e-06 0.000674042
0.00081882 9.48416e-06 4.60652e-05
9.48416e-06 0.000277375 1.12217e-05
4.60652e-05 1.12217e-05 0.000277047
0.00138426 -2.19348e-05 -1.51098e-05
-2.19348e-05 0.00066034 -9.12456e-06
-1.51098e-05 -9.12456e-06 0.000626843
0.000754216 -7.69032e-06 2.17697e-05
-7.69032e-06 0.000226626 4.83533e-06
2.17697e-05 4.83533e-06 0.000221901
0.000774664 -2.72186e-05 5.22981e-06
-2.72186e-05 0.000237757 -4.69858e-06
5.22981e-06 -4.69858e-06 0.000227313
0.000426973 -4.12561e-05 5.31152e-07
-4.12561e-05 3.29685e-05 -6.26708e-06
5.31152e-07 -6.26708e-06 -7.21247e-05
0.000157235 4.05459e-05 -6.62603e-07
4.05459e-05 -0.000151011 -9.66017e-06
-6.62603e-07 -9.66017e-06 -0.000206377
0.000213563 3.18607e-05 2.35352e-06
3.18607e-05 -0.000117704 1.41092e-06
2.35352e-06 1.41092e-06 -0.000181183
0.00371273 0.000141054 9.41027e-06
0.000141054 0.00222718 -8.79434e-06
9.41027e-06 -8.79434e-06 0.00221211
-9.24969e-06 -1.75707e-05 -4.84093e-06
-1.75707e-05 -0.00026654 1.02956e-05
-4.84093e-06 1.02956e-05 -0.00035253
0.00399501 0.000223151 -1.42298e-05
0.000223151 0.00245191 -2.10392e-06
-1.42298e-05 -2.10392e-06 0.00241423
0.00471138 0.000147752 -8.66153e-05
0.000147752 0.00291962 1.31848e-05
-8.66153e-05 1.31848e-05 0.00289656
0.00267748 0.000514867 9.95679e-08
0.000514867 -9.25346e-05 4.85041e-07
9.95679e-08 4.85041e-07 2.19763e-05
0.00252149 0.000288632 -6.66807e-07
0.000288632 -0.000133911 3.65093e-07
-6.66807e-07 3.65093e-07 2.45618e-06
0.00242352 0.000110409 1.435e-06
0.000110409 -0.000161499 4.51533e-07
1.435e-06 4.51533e-07 -1.69146e-05
0.00234163 -1.50255e-05 1.93641e-07
-1.50255e-05 -7.79797e-05 -5.67566e-08
1.93641e-07 -5.67566e-08 4.90577e-06
0.00246834 -1.05934e-05 -3.80779e-07
-1.05934e-05 -0.000146371 -7.96849e-08
-3.80779e-07 -7.96849e-08 -4.4485e-07
0.00256921 0.000176976 7.90675e-07
0.000176976 -0.000204737 2.54844e-07
7.90675e-07 2.54844e-07 1.46373e-05
0.00268684 0.000395482 -4.89189e-07
0.000395482 -0.000201259 1.36989e-08
-4.89189e-07 1.36989e-08 -3.08733e-06
0.00253299 -9.06872e-06 1.18001e-06
-9.06872e-06 -0.000270512 -2.4405e-07
1.18001e-06 -2.4405e-07 -2.99205e-05
0.00285026 0.000225282 3.75809e-06
0.000225282 -0.000223741 -1.73552e-06
3.75809e-06 -1.73552e-06 6.07425e-05
0.00271951 0.000244925 -1.06355e-06
0.000244925 -0.00050702 9.29874e-06
-1.06355e-06 9.29874e-06 -0.000139757
0.00249231 -0.000135929 1.3437e-06
-0.000135929 -0.000109818 -1.40918e-07
1.3437e-06 -1.40918e-07 1.2847e-05
0.00258743 -0.000392563 -2.11423e-06
-0.000392563 -0.000205147 3.53083e-07
-2.11423e-06 3.53083e-07 -2.14202e-05
0.00268656 -0.000645506 -4.5398e-07
-0.000645506 -8.82502e-05 4.02259e-07
-4.5398e-07 4.02259e-07 2.39247e-06
0.00245062 -0.00143017 -4.32487e-06
-0.00143017 0.000885975 -4.13149e-06
-4.32487e-06 -4.13149e-06 -6.5928e-06
0.00214934 -0.00138709 2.47585e-05
-0.00138709 0.00044167 -4.77231e-06
2.47585e-05 -4.77231e-06 -0.00034779
0.00285608 -0.0012454 2.01895e-05
-0.0012454 0.000578565 -6.43852e-07
2.01895e-05 -6.43852e-07 5.63569e-05
0.00274455 -0.000901867 5.75052e-07
-0.000901867 -1.50478e-05 -1.56933e-06
5.75052e-07 -1.56933e-06 -2.8378e-05
0.00288639 -0.00113881 4.10537e-06
-0.00113881 0.000307077 4.45942e-06
4.10537e-06 4.45942e-06 5.31333e-05
0.00236042 -0.00130965 1.74638e-05
-0.00130965 0.00108168 -2.90511e-05
1.74638e-05 -2.90511e-05 0.000151668
-0.000518376 -0.000606327 2.88975e-05
-0.000606327 -0.000486346 -2.16763e-05
2.88975e-05 -2.16763e-05 -0.00137765
0.00300572 -0.00057674 9.08364e-06
-0.00057674 0.00163216 2.00626e-06
9.08364e-06 2.00626e-06 0.00118321
0.000787991 -8.26984e-05 -2.93674e-06
-8.26984e-05 0.000322213 9.31273e-06
-2.93674e-06 9.31273e-06 0.000160693
-0.000162744 -1.33438e-05 9.98636e-06
-1.33438e-05 -0.00020975 -9.65144e-06
9.98636e-06 -9.65144e-06 -0.000567846
-0.000556488 -0.000263874 8.16892e-06
-0.000263874 -0.000511191 -9.1277e-06
8.16892e-06 -9.1277e-06 -0.000954007
0.00258207 -0.000197635 2.04605e-07
-0.000197635 -0.000224477 -2.7322e-07
2.04605e-07 -2.7322e-07 4.02971e-06
0.000573003 -6.47856e-05 2.13161e-06
-6.47856e-05 0.000140813 4.43503e-07
2.13161e-06 4.43503e-07 1.84041e-05
0.000440925 -0.000124761 -4.05341e-06
-0.000124761 0.000118164 -4.66993e-07
-4.05341e-06 -4.66993e-07 -5.0843e-05
0.00277307 -0.000542558 1.20837e-08
-0.000542558 -0.00024023 1.02796e-07
1.20837e-08 1.02796e-07 5.14997e-07
0.0027785 -0.00081622 -1.68553e-06
-0.00081622 -0.000106698 5.32834e-07
-1.68553e-06 5.32834e-07 -7.33193e-06
0.00264226 -0.00154043 -1.85617e-06
-0.00154043 0.00105608 2.32042e-06
-1.85617e-06 2.32042e-06 0.000133974
0.00337228 -0.00171172 1.05827e-05
-0.00171172 0.00111636 -3.27214e-06
1.05827e-05 -3.27214e-06 0.00023471
0.00303791 -0.00144702 3.95262e-06
-0.00144702 0.000564701 -8.94962e-07
3.95262e-06 -8.94962e-07 7.39849e-05
0.00288961 -0.00114285 2.35372e-06
-0.00114285 0.000112001 -1.22427e-06
2.35372e-06 -1.22427e-06 -9.91596e-06
4.7515e-05 -7.01014e-05 -3.54221e-06
-7.01014e-05 -3.89029e-05 -1.48587e-06
-3.54221e-06 -1.48587e-06 -0.000340757
0.000636365 -0.000271743 5.42414e-07
-0.000271743 0.000419449 7.0502e-07
5.42414e-07 7.0502e-07 -1.4648e-05
0.00211548 -0.00128049 1.73111e-05
-0.00128049 0.000906114 6.09123e-06
1.73111e-05 6.09123e-06 -1.07902e-05
0.00229602 -0.00111098 1.8055e-05
-0.00111098 0.001285 -1.89411e-05
1.8055e-05 -1.89411e-05 0.000207346
0.00150598 -0.000469634 -3.84291e-06
-0.000469634 0.000862814 -8.82262e-07
-3.84291e-06 -8.82262e-07 0.000196232
0.000976803 -0.000347201 1.09761e-05
-0.000347201 0.000484048 -3.70382e-06
1.09761e-05 -3.70382e-06 0.000147686
0.00265506 -0.000254851 3.51257e-06
-0.000254851 -0.000487576 -1.82185e-06
3.51257e-06 -1.82185e-06 -0.00010858
0.00304576 -0.000736292 1.31932e-07
-0.000736292 -0.000142927 3.69131e-06
1.31932e-07 3.69131e-06 0.0001341
0.00320156 -0.00120941 2.33386e-06
-0.00120941 7.82735e-05 -1.8807e-06
2.33386e-06 -1.8807e-06 6.21742e-05
0.00283681 -0.00136584 7.9324e-06
-0.00136584 0.000240045 -3.77716e-06
7.9324e-06 -3.77716e-06 -7.60307e-05
0.00095044 -0.00134256 1.44837e-05
-0.00134256 0.00011346 -8.29026e-06
1.44837e-05 -8.29026e-06 -0.000776971
0.00389058 -0.00199359 -1.47309e-06
-0.00199359 0.00122373 -1.90459e-05
-1.47309e-06 -1.90459e-05 0.000327844
0.000553524 9.17773e-05 -5.38027e-06
9.17773e-05 0.000186971 -5.16236e-06
-5.38027e-06 -5.16236e-06 1.63731e-05
-0.00104837 -9.17117e-05 3.70048e-06
-9.17117e-05 -0.000825665 8.94642e-07
3.70048e-06 8.94642e-07 -0.00102412
0.00179316 -0.000282008 -1.41865e-05
-0.000282008 0.00106111 1.75341e-05
-1.41865e-05 1.75341e-05 0.000826724
0.000296627 -0.000112214 -8.52001e-06
-0.000112214 0.000141584 1.91575e-05
-8.52001e-06 1.91575e-05 -0.00018438
0.0015902 -0.000460479 -1.97867e-05
-0.000460479 0.00100317 3.29638e-05
-1.97867e-05 3.29638e-05 0.000596011
-0.000546538 -0.000135683 -1.63757e-05
-0.000135683 -0.000564325 -1.48794e-05
-1.63757e-05 -1.48794e-05 -0.000834903
0.000538074 -0.000825868 -2.75241e-05
-0.000825868 0.00080894 2.88126e-05
-2.75241e-05 2.88126e-05 -0.000464686
0.00166332 -0.00158012 -0.000108786
-0.00158012 0.000409274 3.24974e-05
-0.000108786 3.24974e-05 -0.000343373
-0.000374889 0.000541942 9.74924e-07
0.000541942 -0.000230204 4.1465e-06
9.74924e-07 4.1465e-06 -0.000645538
0.0043501 0.000834346 -7.47236e-06
0.000834346 0.002758 4.27581e-06
-7.47236e-06 4.27581e-06 0.00220585
0.00277753 0.000673945 -5.37144e-06
0.000673945 -0.000390983 -4.21649e-06
-5.37144e-06 -4.21649e-06 -0.000114214
0.00312393 0.00103719 -6.02248e-06
0.00103719 0.000238242 -2.22244e-06
-6.02248e-06 -2.22244e-06 8.64368e-05
0.00369365 0.000887528 -9.13492e-06
0.000887528 0.00169955 -1.22739e-06
-9.13492e-06 -1.22739e-06 0.00118749
0.00156462 0.00127009 -1.04895e-05
0.00127009 0.000318022 -1.02972e-05
-1.04895e-05 -1.02972e-05 -0.000520046
0.00273689 0.00126808 -7.78453e-06
0.00126808 0.00047714 1.42362e-06
-7.78453e-06 1.42362e-06 -0.000101519
0.00309088 0.00171101 -2.18036e-05
0.00171101 0.00101905 -4.66826e-06
-2.18036e-05 -4.66826e-06 6.53346e-05
0.0001066 0.00040529 1.42751e-06
0.00040529 0.00013655 6.20408e-08
1.42751e-06 6.20408e-08 -0.000240431
0.00282795 0.000494355 -5.05795e-06
0.000494355 -0.000381473 -5.07807e-06
-5.05795e-06 -5.07807e-06 -4.05114e-05
0.00269199 0.000836856 2.32335e-06
0.000836856 0.00182865 5.41497e-06
2.32335e-06 5.41497e-06 0.00117657
0.00159205 0.00102656 3.41864e-06
0.00102656 0.000403612 2.54225e-06
3.41864e-06 2.54225e-06 -0.000303234
0.00306287 0.000993399 -5.99141e-08
0.000993399 1.45305e-06 -1.48015e-07
-5.99141e-08 -1.48015e-07 0.000129884
0.00265715 0.00134278 -4.23381e-06
0.00134278 0.000251243 -6.97779e-06
-4.23381e-06 -6.97779e-06 -0.000275184
0.0032961 0.00175513 -1.12084e-06
0.00175513 0.00111254 -4.95954e-07
-1.12084e-06 -4.95954e-07 0.000148741
0.00115973 0.000547974 -6.84789e-06
0.000547974 0.000931011 -6.61047e-06
-6.84789e-06 -6.61047e-06 0.000405199
0.00494523 0.00110155 -0.0001516
0.00110155 0.000599969 -5.93926e-05
-0.0001516 -5.93926e-05 0.00118968
0.00038461 0.000737037 -8.62792e-06
0.000737037 0.000234683 2.09627e-05
-8.62792e-06 2.09627e-05 -0.000448176
0.00182523 0.00119425 6.25064e-06
0.00119425 0.00060068 -9.42305e-06
6.25064e-06 -9.42305e-06 -0.00024773
0.00394107 0.00145822 -5.77487e-05
0.00145822 0.000810531 -2.45649e-05
-5.77487e-05 -2.45649e-05 0.000575211
0.00253228 0.00164649 -3.4561e-05
0.00164649 0.000650821 -1.01799e-05
-3.4561e-05 -1.01799e-05 -0.000236497
0.0010782 0.00243397 -7.48218e-06
0.00243397 -0.00409257 -6.33695e-05
-7.48218e-06 -6.33695e-05 -0.00160944
0.000851729 0.000299511 1.03431e-05
0.000299511 0.000601383 2.02469e-05
1.03431e-05 2.02469e-05 0.000387721
0.000156536 0.000208351 -4.31709e-06
0.000208351 0.000154453 -1.72789e-06
-4.31709e-06 -1.72789e-06 -3.47241e-05
-0.000562224 0.000136371 -4.81212e-06
0.000136371 -0.000301262 -4.38279e-07
-4.81212e-06 -4.38279e-07 -0.000499556
0.000214423 -5.26478e-05 4.31962e-06
-5.26478e-05 -2.28572e-05 -1.91682e-06
4.31962e-06 -1.91682e-06 -0.000196063
-0.000446736 4.08171e-05 6.13527e-06
4.08171e-05 -0.000350513 -7.2167e-06
6.13527e-06 -7.2167e-06 -0.000591416
0.00196193 0.000364198 -1.62427e-06
0.000364198 0.00131454 -8.31521e-06
-1.62427e-06 -8.31521e-06 0.00099648
-0.00221634 -1.94568e-05 -1.29808e-05
-1.94568e-05 -0.0014174 1.24787e-05
-1.29808e-05 1.24787e-05 -0.00155619
0.000414917 -2.0751e-07 5.48985e-07
-2.0751e-07 0.000101118 -5.33644e-07
5.48985e-07 -5.33644e-07 -7.63523e-05
0.000394591 0.000105614 7.4434e-07
0.000105614 0.000117185 -1.90765e-07
7.4434e-07 -1.90765e-07 -8.77915e-05
6.60396e-05 0.000155604 3.35252e-06
0.000155604 9.15366e-08 3.40685e-06
3.35252e-06 3.40685e-06 -8.99467e-05
2.53784e-05 8.7427e-05 1.28211e-06
8.7427e-05 -7.26504e-06 1.65056e-07
1.28211e-06 1.65056e-07 -0.000276495
0.000202419 0.000108692 1.69423e-06
0.000108692 8.45334e-05 2.94462e-06
1.69423e-06 2.94462e-06 -9.38343e-05
2.2129e-06 0.000116431 9.05792e-06
0.000116431 0.000126906 -2.14845e-05
9.05792e-06 -2.14845e-05 -7.11205e-05
0.000920737 0.000143398 -3.54059e-06
0.000143398 0.000588489 7.04744e-07
-3.54059e-06 7.04744e-07 0.000319294
0.000722052 0.000129706 -4.58032e-06
0.000129706 0.00039469 1.53441e-06
-4.58032e-06 1.53441e-06 0.000161443
0.000775583 0.000148269 -8.06762e-06
0.000148269 0.000381626 -6.00844e-06
-8.06762e-06 -6.00844e-06 0.000169216
2.49474e-05 4.22043e-07 -3.52762e-06
4.22043e-07 -0.000186543 -1.26535e-06
-3.52762e-06 -1.26535e-06 -0.000341819
0.00118999 -0.000243408 1.00876e-05
-0.000243408 0.000768257 -1.24699e-05
1.00876e-05 -1.24699e-05 0.000463723
0.000144858 -6.86892e-05 -2.78825e-06
-6.86892e-05 -8.38815e-05 2.27639e-06
-2.78825e-06 2.27639e-06 -0.000258133
0.000276067 4.11343e-06 -2.88206e-06
4.11343e-06 -2.85964e-05 3.16501e-06
-2.88206e-06 3.16501e-06 -0.000144322
0.000388487 5.3907e-05 2.30633e-06
5.3907e-05 4.70924e-05 -7.88778e-08
2.30633e-06 -7.88778e-08 -7.15234e-05
0.000284515 1.95737e-05 -4.04073e-06
1.95737e-05 -5.53034e-05 6.1423e-06
-4.04073e-06 6.1423e-06 -9.73645e-05
0.000251531 -3.08678e-06 -3.51902e-07
-3.08678e-06 -4.47341e-05 -4.47737e-06
-3.51902e-07 -4.47737e-06 -0.000162105
0.000842367 1.91524e-05 -5.97626e-06
1.91524e-05 0.000312506 -1.7245e-06
-5.97626e-06 -1.7245e-06 0.00027391
0.00285508 1.38678e-05 4.11991e-05
1.38678e-05 0.00163263 7.55259e-06
4.11991e-05 7.55259e-06 0.00164285
0.00144493 8.07238e-05 -2.61691e-05
8.07238e-05 0.000715956 -9.73345e-06
-2.61691e-05 -9.73345e-06 0.000676833
0.000756192 1.42689e-07 2.01187e-05
1.42689e-07 0.000231319 4.57172e-06
2.01187e-05 4.57172e-06 0.000228948
0.000774846 -1.71376e-05 4.23441e-06
-1.71376e-05 0.000235727 -3.53835e-06
4.23441e-06 -3.53835e-06 0.000229368
0.000261028 5.70421e-06 -3.64758e-06
5.70421e-06 -5.0756e-05 -7.69981e-06
-3.64758e-06 -7.69981e-06 -0.000154498
0.000594643 -7.41796e-05 6.53196e-07
-7.41796e-05 0.000161493 -3.88093e-07
6.53196e-07 -3.88093e-07 4.38013e-05
0.00029389 2.42286e-05 -8.70559e-07
2.42286e-05 -7.35951e-05 -7.51094e-06
-8.70559e-07 -7.51094e-06 -0.000115498
0.000993628 4.03476e-05 -1.28051e-07
4.03476e-05 0.000396231 -1.93147e-08
-1.28051e-07 -1.93147e-08 0.000346899
0.00313668 0.00011142 -4.85439e-06
0.00011142 0.0018348 -8.36515e-06
-4.85439e-06 -8.36515e-06 0.00182798
0.000403955 1.75929e-05 -2.31076e-06
1.75929e-05 1.14905e-05 1.05712e-05
-2.31076e-06 1.05712e-05 -5.54131e-05
0.00324632 0.000145611 -8.30856e-07
0.000145611 0.00191979 -7.5837e-08
-8.30856e-07 -7.5837e-08 0.00190385
0.0044578 0.000137924 -3.63319e-05
0.000137924 0.00272929 9.94352e-06
-3.63319e-05 9.94352e-06 0.00270751
0.00261955 0.000411332 -3.13892e-06
0.000411332 -0.000229131 -8.27169e-07
-3.13892e-06 -8.27169e-07 -3.08878e-05
0.00251357 0.000176576 -2.78527e-07
0.000176576 -0.00024576 8.21837e-07
-2.78527e-07 8.21837e-07 -2.23744e-05
0.00247641 -6.65114e-06 8.47058e-07
-6.65114e-06 -0.000145632 4.57055e-08
8.47058e-07 4.57055e-08 5.35272e-06
0.00251177 6.18576e-07 -1.06601e-07
6.18576e-07 -0.000284394 -1.71389e-07
-1.06601e-07 -1.71389e-07 -4.22539e-05
0.00280898 0.00023778 1.08759e-06
0.00023778 -0.000245408 4.51559e-07
1.08759e-06 4.51559e-07 4.07355e-05
0.00286871 0.000208212 6.26673e-06
0.000208212 -0.00040694 -5.22183e-06
6.26673e-06 -5.22183e-06 -5.33407e-05
0.00298515 7.94708e-05 3.96839e-06
7.94708e-05 -0.000303203 1.68217e-06
3.96839e-06 1.68217e-06 5.7879e-05
0.00691137 0.00277258 -1.37775e-05
0.00277258 -0.0020925 2.38322e-05
-1.37775e-05 2.38322e-05 0.000759811
0.00302452 0.000272119 -9.32081e-05
0.000272119 -0.000569235 9.1885e-06
-9.32081e-05 9.1885e-06 0.000131056
0.000314062 0.000123562 -4.13784e-06
0.000123562 2.93087e-05 -3.15757e-06
-4.13784e-06 -3.15757e-06 -0.000133494
0.00259464 -0.000197062 -1.70231e-06
-0.000197062 -0.000223498 -5.02897e-07
-1.70231e-06 -5.02897e-07 1.01595e-05
0.00271182 -0.000531171 -3.87949e-06
-0.000531171 -0.000263845 -3.66566e-07
-3.87949e-06 -3.66566e-07 -3.37006e-05
0.0028192 -0.000802441 2.52654e-07
-0.000802441 -6.11798e-05 -6.90294e-07
2.52654e-07 -6.90294e-07 3.84951e-05
0.00277455 -0.00156829 -9.63925e-06
-0.00156829 0.00115077 -1.70028e-06
-9.63925e-06 -1.70028e-06 0.000213889
0.00251089 -0.00156374 2.85896e-05
-0.00156374 0.000620329 3.90077e-06
2.85896e-05 3.90077e-06 -0.000211142
0.00290025 -0.00141844 -8.52907e-07
-0.00141844 0.000505762 1.41321e-05
-8.52907e-07 1.41321e-05 2.32949e-05
0.00276848 -0.00113926 -1.65436e-07
-0.00113926 3.28553e-05 -3.75451e-06
-1.65436e-07 -3.75451e-06 -8.01886e-05
0.00266896 -0.00131591 7.83824e-05
-0.00131591 0.00118657 -7.02469e-05
7.83824e-05 -7.02469e-05 0.000307308
0.00232432 -0.00114042 7.33181e-05
-0.00114042 0.00126681 -6.77326e-05
7.33181e-05 -6.77326e-05 0.000200023
-0.000900672 -0.000248219 2.44873e-05
-0.000248219 -0.000651325 7.39823e-06
2.44873e-05 7.39823e-06 -0.00133861
0.00054264 -2.65618e-05 -1.30701e-07
-2.65618e-05 0.000112946 6.82679e-06
-1.30701e-07 6.82679e-06 -1.48289e-05
0.000918546 -0.000391319 -3.52038e-06
-0.000391319 0.000463381 -2.28237e-06
-3.52038e-06 -2.28237e-06 0.000109623
0.00177689 -0.000181544 1.14821e-05
-0.000181544 0.00116084 -6.87391e-06
1.14821e-05 -6.87391e-06 0.000811179
-0.000392716 -0.000150248 6.6098e-06
-0.000150248 -0.000303244 -1.3092e-05
6.6098e-06 -1.3092e-05 -0.000696473
0.000653367 -0.000126378 -7.65832e-06
-0.000126378 0.000278514 3.96669e-06
-7.65832e-06 3.96669e-06 9.52056e-05
0.00274936 -0.000273225 -5.10478e-07
-0.000273225 -0.000415275 -8.85792e-07
-5.10478e-07 -8.85792e-07 -4.43724e-05
0.000566129 7.62469e-05 1.24294e-06
7.62469e-05 0.000209885 -2.00158e-06
1.24294e-06 -2.00158e-06 2.78918e-05
0.000826143 -0.000206259 2.15588e-06
-0.000206259 0.000491481 2.88899e-06
2.15588e-06 2.88899e-06 0.000227611
0.00073204 -0.000170873 9.99767e-06
-0.000170873 0.000344867 7.90965e-07
9.99767e-06 7.90965e-07 0.000142838
0.0028563 -0.00072783 2.93312e-06
-0.00072783 -0.000283117 -5.07834e-07
2.93312e-06 -5.07834e-07 -8.53654e-06
0.00312478 -0.00117697 -8.51767e-07
-0.00117697 6.11084e-05 4.26794e-07
-8.51767e-07 4.26794e-07 5.82253e-05
0.00265862 -0.00153702 -6.48564e-06
-0.00153702 0.00104067 2.48086e-06
-6.48564e-06 2.48086e-06 0.000164003
0.00257495 -0.00179132 1.10527e-05
-0.00179132 0.000502627 -1.04468e-06
1.10527e-05 -1.04468e-06 -0.00033067
0.00293166 -0.00139809 3.58283e-07
-0.00139809 0.000293345 8.55958e-07
3.58283e-07 8.55958e-07 -4.34598e-05
0.000136766 -0.00011235 -8.55032e-07
-0.00011235 2.89017e-05 1.84906e-07
-8.55032e-07 1.84906e-07 -0.00028889
0.00200204 -0.000432143 1.1155e-05
-0.000432143 0.00128824 -1.38563e-06
1.1155e-05 -1.38563e-06 0.000870269
0.00391228 -0.00196686 -8.4616e-06
-0.00196686 0.00171205 1.42677e-05
-8.4616e-06 1.42677e-05 0.000709611
0.00118741 -0.00057311 -5.73149e-06
-0.00057311 0.000794695 7.07367e-06
-5.73149e-06 7.07367e-06 -0.000211368
0.00140015 -0.000298108 8.64329e-06
-0.000298108 0.00067375 1.27358e-05
8.64329e-06 1.27358e-05 0.000344407
0.00301534 -0.000523199 -2.63635e-05
-0.000523199 -0.000420602 5.48877e-06
-2.63635e-05 5.48877e-06 4.41356e-05
0.00278686 -0.000865372 -2.28711e-05
-0.000865372 -0.0003579 1.11477e-05
-2.28711e-05 1.11477e-05 4.62306e-05
0.0031814 -0.00145019 -2.21919e-06
-0.00145019 0.00028392 -9.86402e-06
-2.21919e-06 -9.86402e-06 2.17167e-05
0.0036321 -0.00175356 1.29006e-05
-0.00175356 0.000992151 -1.27908e-05
1.29006e-05 -1.27908e-05 0.000330854
0.00250324 -0.00178893 2.12355e-05
-0.00178893 0.000742556 -9.14639e-07
2.12355e-05 -9.14639e-07 -0.00018519
0.00101208 -2.37714e-06 -9.50706e-06
-2.37714e-06 0.000538542 5.8364e-07
-9.50706e-06 5.8364e-07 0.000369945
-0.000339514 -0.000103859 -1.07592e-05
-0.000103859 -0.000374354 2.49682e-05
-1.07592e-05 2.49682e-05 -0.000599397
-9.92028e-05 -0.000155375 -6.63016e-06
-0.000155375 -0.000138112 1.08628e-05
-6.63016e-06 1.08628e-05 -0.00032353
0.00238978 -0.000535208 -6.50406e-05
-0.000535208 0.00149077 5.91331e-05
-6.50406e-05 5.91331e-05 0.00111646
0.000839347 -0.000266603 8.43892e-06
-0.000266603 0.000443037 2.76245e-05
8.43892e-06 2.76245e-05 0.000151841
-0.00158077 -2.84197e-05 -5.13005e-06
-2.84197e-05 -0.00051839 4.39659e-06
-5.13005e-06 4.39659e-06 -0.00133647
0.00242933 -0.00198676 -4.39664e-05
-0.00198676 0.00133356 -2.05875e-05
-4.39664e-05 -2.05875e-05 0.000128752
0.00363314 0.000837943 6.95711e-06
0.000837943 0.00238622 3.63379e-06
6.95711e-06 3.63379e-06 0.00190218
-0.000612324 0.000374481 -6.43344e-06
0.000374481 -0.000176582 -1.57081e-06
-6.43344e-06 -1.57081e-06 -0.000728851
0.00278026 0.000481713 1.0644e-05
0.000481713 -0.00043243 5.67621e-06
1.0644e-05 5.67621e-06 -5.55286e-05
0.00312879 0.000951076 1.94206e-05
0.000951076 7.62044e-05 1.23886e-05
1.94206e-05 1.23886e-05 0.000215833
0.00307275 0.00141929 4.69545e-06
0.00141929 0.000509446 3.5196e-06
4.69545e-06 3.5196e-06 -2.24621e-05
0.00110217 0.000938789 -1.04691e-05
0.000938789 0.000160181 -9.93031e-07
-1.04691e-05 -9.93031e-07 -0.000522405
0.00272718 0.00162113 -3.67619e-06
0.00162113 0.000813904 4.60643e-06
-3.67619e-06 4.60643e-06 -0.000104852
0.00311554 0.000722956 -2.7815e-07
0.000722956 0.00214553 -2.13671e-06
-2.7815e-07 -2.13671e-06 0.00162532
0.00336635 0.000878388 2.57407e-05
0.000878388 -0.000349958 7.10865e-06
2.57407e-05 7.10865e-06 0.000393106
0.000928455 0.000757074 -7.06763e-06
0.000757074 0.000510193 1.01023e-05
-7.06763e-06 1.01023e-05 -0.000132708
0.00230043 0.00129782 5.19609e-06
0.00129782 0.00090243 -3.01603e-06
5.19609e-06 -3.01603e-06 1.2019e-05
0.00323566 0.00132626 -5.13661e-06
0.00132626 0.000488805 -3.68506e-06
-5.13661e-06 -3.68506e-06 0.000301074
0.00296269 0.00172074 -2.29538e-06
0.00172074 0.00088316 7.46747e-06
-2.29538e-06 7.46747e-06 -2.90769e-05
0.00261724 0.0029157 3.91331e-05
0.0029157 -0.00356237 -3.70939e-06
3.91331e-05 -3.70939e-06 -0.00118636
0.000379771 0.000500181 4.5417e-06
0.000500181 0.00058319 3.11799e-06
4.5417e-06 3.11799e-06 -7.64867e-05
0.00445407 0.00182094 -0.000141638
0.00182094 0.000363199 -5.52919e-05
-0.000141638 -5.52919e-05 0.000603062
0.000648413 0.000881013 -2.33191e-05
0.000881013 0.000120974 1.57698e-05
-2.33191e-05 1.57698e-05 -0.000597339
0.00213053 0.00149697 -1.00949e-05
0.00149697 0.000699116 -2.74198e-05
-1.00949e-05 -2.74198e-05 -0.000232454
0.00467218 0.00208069 -7.20816e-05
0.00208069 0.00152198 -4.09932e-05
-7.20816e-05 -4.09932e-05 0.000791144
0.015535 0.00127191 -0.000987078
0.00127191 -0.00246781 -0.000100805
-0.000987078 -0.000100805 0.000851762
0.00275098 0.00460436 -0.000296696
0.00460436 -0.00629487 -0.000231876
-0.000296696 -0.000231876 -0.000102287
0.00147968 0.00350209 4.01913e-05
0.00350209 -0.00178631 -8.76427e-06
4.01913e-05 -8.76427e-06 -0.00119291
0.00907719 -0.00960936 0.0043437
-0.00960936 0.00785062 -0.000681887
0.0043437 -0.000681887 -0.00373898
0.0408467 -0.0232589 -0.000314945
-0.0232589 0.0312897 -2.98732e-05
-0.000314945 -2.98732e-05 0.0107824
0.00279506 0.00040698 1.65514e-05
0.00040698 0.00188308 8.791e-06
1.65514e-05 8.791e-06 0.00164578
0.000560236 0.000196539 -1.77571e-07
0.000196539 0.000461857 9.38879e-07
-1.77571e-07 9.38879e-07 0.000224351
0.000507052 0.000311001 6.79359e-06
0.000311001 0.000532602 -9.75282e-06
6.79359e-06 -9.75282e-06 0.000195295
0.000532002 -6.0725e-05 3.84644e-06
-6.0725e-05 0.000193256 -5.22119e-07
3.84644e-06 -5.22119e-07 8.03546e-06
0.000659063 7.97195e-05 7.2958e-06
7.97195e-05 0.000318079 -2.80852e-06
7.2958e-06 -2.80852e-06 0.000107857
-8.01526e-05 -3.88848e-07 2.23722e-06
-3.88848e-07 -7.85034e-05 -3.49952e-06
2.23722e-06 -3.49952e-06 -0.000344933
0.000261803 0.000113987 5.52055e-06
0.000113987 0.000111379 9.53979e-06
5.52055e-06 9.53979e-06 -6.42168e-05
-0.000802999 0.000116015 4.7968e-06
0.000116015 -0.000536005 1.79434e-05
4.7968e-06 1.79434e-05 -0.000595384
0.000725973 0.00015898 -3.2398e-06
0.00015898 0.000454552 1.97911e-06
-3.2398e-06 1.97911e-06 0.000188425
0.000386089 -1.36194e-05 5.33439e-08
-1.36194e-05 6.61402e-05 3.39882e-07
5.33439e-08 3.39882e-07 -0.000102728
0.000740333 7.98228e-05 -5.70857e-07
7.98228e-05 0.000360119 7.30834e-07
-5.70857e-07 7.30834e-07 0.000144917
0.000240482 0.000149552 -1.75184e-06
0.000149552 0.000225027 -1.57947e-06
-1.75184e-06 -1.57947e-06 5.46916e-05
0.000478985 9.00219e-05 9.93783e-07
9.00219e-05 0.000297464 1.55049e-07
9.93783e-07 1.55049e-07 4.31724e-05
0.00105881 0.000171528 -1.23185e-06
0.000171528 0.000728287 6.20676e-06
-1.23185e-06 6.20676e-06 0.000421839
0.00018203 9.7857e-05 1.04448e-06
9.7857e-05 0.000258194 -9.88996e-06
1.04448e-06 -9.88996e-06 -5.18569e-05
0.000894365 0.000132966 -2.81641e-07
0.000132966 0.00056438 -2.48322e-06
-2.81641e-07 -2.48322e-06 0.000310019
0.000168999 7.39178e-06 -3.48747e-06
7.39178e-06 -5.07149e-05 -7.67349e-06
-3.48747e-06 -7.67349e-06 -0.000237692
7.55859e-05 -6.11919e-05 -1.82276e-06
-6.11919e-05 -0.000142958 -2.089e-06
-1.82276e-06 -2.089e-06 -0.000313122
-0.000222078 -6.13824e-05 2.97795e-06
-6.13824e-05 -0.00028034 -9.28987e-06
2.97795e-06 -9.28987e-06 -0.000466202
0.000228389 -6.56467e-05 1.17256e-05
-6.56467e-05 0.00011907 1.59673e-05
1.17256e-05 1.59673e-05 -8.4126e-05
0.000104402 -6.96749e-05 5.87866e-06
-6.96749e-05 7.07966e-05 -7.18368e-06
5.87866e-06 -7.18368e-06 -0.000206613
0.00114982 -0.000265251 1.93041e-06
-0.000265251 0.000696099 1.46119e-06
1.93041e-06 1.46119e-06 0.000434972
0.00041698 -0.000144902 -3.30239e-06
-0.000144902 0.000136593 -5.22339e-06
-3.30239e-06 -5.22339e-06 -5.63024e-05
-0.000349824 -5.4372e-05 -1.4702e-06
-5.4372e-05 -0.000409657 2.05083e-06
-1.4702e-06 2.05083e-06 -0.000584638
0.000453334 -9.01125e-05 -1.87836e-06
-9.01125e-05 7.47227e-05 2.41474e-06
-1.87836e-06 2.41474e-06 -3.17854e-05
0.000450875 -5.87771e-05 2.78888e-06
-5.87771e-05 8.62278e-05 7.39316e-08
2.78888e-06 7.39316e-08 -3.05757e-05
0.000283903 2.4434e-06 5.89595e-06
2.4434e-06 -5.24989e-05 8.13194e-06
5.89595e-06 8.13194e-06 -9.48129e-05
0.000421647 8.04449e-05 -1.39418e-06
8.04449e-05 5.83183e-05 -4.36525e-06
-1.39418e-06 -4.36525e-06 -5.30081e-05
0.00028857 3.49272e-05 4.45241e-07
3.49272e-05 -5.37471e-05 2.41165e-07
4.45241e-07 2.41165e-07 -9.49181e-05
0.00279984 2.1147e-05 2.92253e-05
2.1147e-05 0.00159676 7.12938e-06
2.92253e-05 7.12938e-06 0.00160589
0.000309245 8.85378e-05 -7.33688e-06
8.85378e-05 -3.28199e-05 -1.00008e-05
-7.33688e-06 -1.00008e-05 -8.16503e-05
0.00174745 4.0932e-06 -1.7365e-05
4.0932e-06 0.000892928 -2.53361e-07
-1.7365e-05 -2.53361e-07 0.000895881
0.000814182 -7.80838e-06 2.81672e-06
-7.80838e-06 0.000261639 -2.52092e-06
2.81672e-06 -2.52092e-06 0.000258576
0.000416395 2.45236e-05 -8.02289e-08
2.45236e-05 2.91169e-05 -4.05315e-06
-8.02289e-08 -4.05315e-06 -4.85002e-05
0.000395153 -5.57947e-05 1.03952e-06
-5.57947e-05 3.56691e-05 1.25715e-07
1.03952e-06 1.25715e-07 -6.86933e-05
0.000365598 -2.31759e-06 1.98151e-06
-2.31759e-06 -2.98955e-05 -6.64913e-06
1.98151e-06 -6.64913e-06 -6.27289e-05
0.000587421 -9.43092e-05 -6.09092e-07
-9.43092e-05 0.000158552 3.14948e-06
-6.09092e-07 3.14948e-06 3.77096e-05
0.000937608 4.02655e-05 1.04409e-06
4.02655e-05 0.000358304 -1.03371e-06
1.04409e-06 -1.03371e-06 0.000316683
0.00291273 7.9036e-05 3.53597e-08
7.9036e-05 0.00167548 -7.42613e-06
3.53597e-08 -7.42613e-06 0.00167627
0.00014199 2.65116e-05 -2.10429e-06
2.65116e-05 -0.000176398 9.20696e-06
-2.10429e-06 9.20696e-06 -0.00022858
0.00342051 0.000120393 -9.18955e-06
0.000120393 0.0020298 1.53727e-06
-9.18955e-06 1.53727e-06 0.00202053
0.00357333 0.000173956 3.61721e-05
0.000173956 0.00215126 1.505e-05
3.61721e-05 1.505e-05 0.0021291
0.00276513 0.000253506 -3.90747e-06
0.000253506 -0.000266891 -9.55397e-07
-3.90747e-06 -9.55397e-07 2.05317e-05
0.0025007 7.76684e-06 -7.72444e-07
7.76684e-06 -0.000287535 -1.07358e-07
-7.72444e-07 -1.07358e-07 -4.46771e-05
0.00308558 0.000169714 6.60626e-07
0.000169714 -0.000245298 3.30202e-06
6.60626e-07 3.30202e-06 7.55891e-05
0.00284031 0.00210932 0.000180928
0.00210932 -0.00425132 7.92977e-05
0.000180928 7.92977e-05 -0.00123452
0.00296706 3.7554e-05 -9.08315e-07
3.7554e-05 -0.000319994 -4.54984e-07
-9.08315e-07 -4.54984e-07 5.07997e-05
0.00308946 0.000216619 2.68318e-06
0.000216619 -0.000491128 -4.88159e-06
2.68318e-06 -4.88159e-06 0.000122232
0.00343219 -0.000141932 -5.93032e-05
-0.000141932 -1.28329e-05 1.10286e-06
-5.93032e-05 1.10286e-06 0.00043721
0.00395911 0.00187589 -0.000284054
0.00187589 -0.00408945 -3.32239e-06
-0.000284054 -3.32239e-06 6.63001e-05
0.00502614 0.000804744 0.00012473
0.000804744 -0.00189666 5.87187e-05
0.00012473 5.87187e-05 3.05798e-05
0.000450263 0.000109249 2.96525e-07
0.000109249 0.000132415 -3.83179e-06
2.96525e-07 -3.83179e-06 -3.07221e-05
0.000574295 -4.42471e-05 2.47857e-07
-4.42471e-05 0.00021925 -1.6807e-07
2.47857e-07 -1.6807e-07 4.32362e-05
0.000302592 -0.000112828 2.50991e-06
-0.000112828 6.22471e-05 1.46019e-06
2.50991e-06 1.46019e-06 -8.89512e-05
0.000671581 -0.000124747 -7.4702e-07
-0.000124747 0.000301897 4.27879e-06
-7.4702e-07 4.27879e-06 9.92753e-05
0.00285891 -0.000294768 -5.57e-06
-0.000294768 -0.00033421 2.56405e-06
-5.57e-06 2.56405e-06 2.99694e-05
0.00276597 -0.000722435 -2.40196e-06
-0.000722435 -0.000343603 -1.69112e-06
-2.40196e-06 -1.69112e-06 -7.86702e-05
0.00305379 -0.00114789 -3.72212e-06
-0.00114789 4.32549e-05 4.94817e-07
-3.72212e-06 4.94817e-07 5.30525e-05
0.00303338 -0.00158866 4.88682e-06
-0.00158866 0.00129033 6.09608e-06
4.88682e-06 6.09608e-06 0.000392105
0.00326188 -0.0019492 -1.64793e-05
-0.0019492 0.000874726 2.24144e-05
-1.64793e-05 2.24144e-05 3.59987e-06
0.00307207 -0.00142709 -4.66739e-07
-0.00142709 0.000379873 2.28449e-07
-4.66739e-07 2.28449e-07 2.59484e-05
0.00100634 -0.00150784 5.59629e-05
-0.00150784 0.000165925 -2.99073e-05
5.59629e-05 -2.99073e-05 -0.000856366
0.00365201 -0.000679866 4.15214e-05
-0.000679866 0.00200893 -3.41348e-05
4.15214e-05 -3.41348e-05 0.0012575
-0.000493616 -0.000308011 1.67178e-05
-0.000308011 -0.000534869 9.7347e-06
1.67178e-05 9.7347e-06 -0.000881597
0.00197366 -0.000144702 1.08632e-05
-0.000144702 0.00122419 -1.25318e-06
1.08632e-05 -1.25318e-06 0.00097376
-0.000681369 -0.000105755 -1.91508e-05
-0.000105755 -0.000391258 -2.04394e-05
-1.91508e-05 -2.04394e-05 -0.000810853
0.000293921 -0.000102702 3.41612e-06
-0.000102702 0.000108762 -1.70464e-05
3.41612e-06 -1.70464e-05 -0.000190296
0.000477574 -4.59227e-05 -4.32054e-08
-4.59227e-05 0.000147728 5.19218e-06
-4.32054e-08 5.19218e-06 -3.42815e-05
0.000450843 -0.00013124 -6.39965e-06
-0.00013124 0.000167176 6.08266e-08
-6.39965e-06 6.08266e-08 -2.63669e-05
0.00293343 -0.000520739 4.93074e-06
-0.000520739 -0.000475524 -3.68522e-07
4.93074e-06 -3.68522e-07 2.12553e-06
0.000156809 -5.38297e-05 -1.1697e-06
-5.38297e-05 -3.98184e-05 5.64517e-06
-1.1697e-06 5.64517e-06 -0.000200666
0.000315769 -0.000162761 4.80582e-06
-0.000162761 7.41821e-05 -4.79667e-06
4.80582e-06 -4.79667e-06 -0.000170078
-0.000224969 -9.12606e-05 1.57375e-05
-9.12606e-05 -0.000154642 -7.6272e-06
1.57375e-05 -7.6272e-06 -0.000313844
0.00280003 -0.000918012 1.98633e-06
-0.000918012 -0.00035189 -1.05146e-06
1.98633e-06 -1.05146e-06 -9.72445e-06
0.00313814 -0.00143462 1.64468e-06
-0.00143462 0.000257618 -1.86962e-06
1.64468e-06 -1.86962e-06 3.89868e-06
0.00201412 -0.00174569 -9.62283e-06
-0.00174569 0.000466271 -3.8334e-07
-9.62283e-06 -3.8334e-07 -0.00043565
0.00334248 -0.00177413 -3.79783e-06
-0.00177413 0.000804451 1.34721e-06
-3.79783e-06 1.34721e-06 0.000134034
0.00167635 -0.000331677 2.7965e-05
-0.000331677 0.00102965 -1.18553e-05
2.7965e-05 -1.18553e-05 0.000663715
-0.00193259 -6.39214e-05 1.66471e-05
-6.39214e-05 -0.00123228 4.72423e-06
1.66471e-05 4.72423e-06 -0.00159084
0.0011892 -0.00181422 8.55497e-09
-0.00181422 0.000737892 3.26498e-06
8.55497e-09 3.26498e-06 -0.000454647
0.0016616 -0.000716045 -2.44506e-05
-0.000716045 0.00100393 3.7797e-06
-2.44506e-05 3.7797e-06 0.000282147
0.00368335 -0.000765128 -9.2604e-05
-0.000765128 4.21619e-05 3.2552e-05
-9.2604e-05 3.2552e-05 0.000483178
0.00334173 -0.00133575 -4.15886e-05
-0.00133575 0.000102695 2.28978e-05
-4.15886e-05 2.28978e-05 0.000262385
0.00341864 -0.00164157 1.69476e-05
-0.00164157 0.000904476 -2.69493e-05
1.69476e-05 -2.69493e-05 0.00025572
0.00383678 -0.00217195 -8.24723e-06
-0.00217195 0.00127268 -1.538e-06
-8.24723e-06 -1.538e-06 0.00044303
6.56042e-05 -0.000207847 4.38657e-06
-0.000207847 0.000130331 -1.39347e-05
4.38657e-06 -1.39347e-05 -0.0001125
0.000509978 -0.000360695 -1.42262e-05
-0.000360695 0.000223859 4.04232e-05
-1.42262e-05 4.04232e-05 -0.000117588
0.00065303 -0.000379756 -3.27771e-05
-0.000379756 0.00067533 6.97311e-05
-3.27771e-05 6.97311e-05 0.000268596
-0.000967135 -0.00131636 1.16455e-05
-0.00131636 0.000280942 -4.86391e-05
1.16455e-05 -4.86391e-05 -0.00111398
0.00796573 -0.000393667 -1.26386e-05
-0.000393667 -0.00792118 4.56296e-05
-1.26386e-05 4.56296e-05 -0.00864581
0.00444659 0.000714542 1.61232e-05
0.000714542 0.00292393 1.62617e-06
1.61232e-05 1.62617e-06 0.00242291
0.000423988 0.000659937 -5.18299e-06
0.000659937 0.000196504 -1.01225e-05
-5.18299e-06 -1.01225e-05 -0.000411303
0.00154602 0.000689756 8.72491e-05
0.000689756 -0.00148727 4.10102e-05
8.72491e-05 4.10102e-05 -0.000590952
0.00244663 0.00118878 3.33923e-05
0.00118878 0.000117281 1.2784e-05
3.33923e-05 1.2784e-05 -1.7942e-05
0.00296 0.00171926 1.51884e-05
0.00171926 0.00088161 1.92174e-05
1.51884e-05 1.92174e-05 -3.4578e-05
0.00248521 0.00135637 1.04738e-05
0.00135637 0.00102206 1.22746e-05
1.04738e-05 1.22746e-05 9.92584e-05
0.00324073 0.00327064 0.000153561
0.00327064 -0.00352522 7.90748e-05
0.000153561 7.90748e-05 -0.00131236
0.00109111 0.000541814 4.13536e-06
0.000541814 0.000921826 -7.41938e-06
4.13536e-06 -7.41938e-06 0.000347498
0.00322661 0.00162334 -6.85683e-06
0.00162334 -0.000360431 5.16385e-06
-6.85683e-06 5.16385e-06 7.29837e-05
0.00130564 0.000992194 -1.41795e-05
0.000992194 0.000533464 1.04398e-05
-1.41795e-05 1.04398e-05 -0.000227549
0.00275001 0.00162122 2.71559e-06
0.00162122 0.00104045 -8.90354e-06
2.71559e-06 -8.90354e-06 7.97299e-05
0.00431112 0.00194208 -1.07467e-05
0.00194208 0.00139446 -9.88791e-07
-1.07467e-05 -9.88791e-07 0.000686789
0.00411882 0.000952145 -0.000283551
0.000952145 -0.011299 -0.000193041
-0.000283551 -0.000193041 -0.00909015
0.00666735 0.00506869 -0.000239775
0.00506869 -0.00391871 -0.000130711
-0.000239775 -0.000130711 0.00108199
0.000698885 0.00319368 -1.61078e-05
0.00319368 -0.00206933 -1.58585e-05
-1.61078e-05 -1.58585e-05 -0.00148352
0.0173934 -0.00653848 0.00116208
-0.00653848 0.0107629 0.00012887
0.00116208 0.00012887 0.00228516
0.0442217 -0.0269251 -0.000339404
-0.0269251 0.0324903 -0.000530603
-0.000339404 -0.000530603 0.0100056
2.1082e-05 0.000502828 -3.3653e-06
0.000502828 4.74889e-05 -2.13909e-06
-3.3653e-06 -2.13909e-06 -0.000461764
0.00355802 -0.00450999 0.00312241
-0.00450999 0.00593394 -0.000292149
0.00312241 -0.000292149 0.000810809
0.0199715 -0.0161363 0.000283362
-0.0161363 0.0221481 -0.000300135
0.000283362 -0.000300135 0.00162442
0.00583438 0.00305089 -0.000104637
0.00305089 0.00136077 -3.66665e-05
-0.000104637 -3.66665e-05 0.000789223
0.00199299 0.00116284 -4.35878e-05
0.00116284 0.000820325 -3.75269e-06
-4.35878e-05 -3.75269e-06 4.17583e-05
0.00243702 0.00165245 -6.31672e-05
0.00165245 0.000802638 -5.73199e-05
-6.31672e-05 -5.73199e-05 -4.82155e-05
-0.00139047 0.0028451 0.000172486
0.0028451 -0.00215098 0.000139242
0.000172486 0.000139242 -0.00203103
0.0157783 0.00783271 0.000393466
0.00783271 -0.00546327 -1.93068e-05
0.000393466 -1.93068e-05 0.000486668
0.00726337 0.00780827 -0.000252611
0.00780827 -0.00189053 -0.000258378
-0.000252611 -0.000258378 0.000770673
0.0311783 -0.0117052 0.00122865
-0.0117052 0.01809 -0.000105723
0.00122865 -0.000105723 0.00380235
0.0276899 -0.00182455 -0.00130505
-0.00182455 0.0150297 0.00090096
-0.00130505 0.00090096 0.00690875
0.00129738 0.000227818 1.03922e-05
0.000227818 0.000972269 4.68724e-06
1.03922e-05 4.68724e-06 0.000707222
0.00019206 0.00025108 3.30679e-06
0.00025108 0.000352049 1.21871e-06
3.30679e-06 1.21871e-06 1.77489e-05
0.00120249 0.000544327 4.18947e-06
0.000544327 0.000969135 -1.06526e-05
4.18947e-06 -1.06526e-05 0.000480911
0.000459323 3.40142e-06 4.62761e-06
3.40142e-06 0.00013609 2.01492e-06
4.62761e-06 2.01492e-06 -5.03291e-05
0.000315683 0.00013214 7.36818e-06
0.00013214 4.99919e-05 3.11752e-06
7.36818e-06 3.11752e-06 -0.000146004
-0.000201545 1.7552e-05 3.25345e-06
1.7552e-05 -0.000183285 4.44447e-06
3.25345e-06 4.44447e-06 -0.000411918
0.00039741 0.00011539 -5.09235e-06
0.00011539 0.000272773 2.03757e-06
-5.09235e-06 2.03757e-06 6.9549e-06
0.000246527 0.000151978 -5.70055e-06
0.000151978 0.000192086 1.20699e-05
-5.70055e-06 1.20699e-05 3.83218e-05
0.00024617 1.43873e-05 -2.22466e-07
1.43873e-05 -1.79599e-05 9.50808e-07
-2.22466e-07 9.50808e-07 -0.000197141
0.000773194 0.000113575 3.14061e-06
0.000113575 0.000525983 3.38218e-06
3.14061e-06 3.38218e-06 0.000236651
0.000185821 7.58132e-05 -1.98834e-07
7.58132e-05 7.97868e-05 -3.30138e-06
-1.98834e-07 -3.30138e-06 -0.000168274
0.000654461 9.61318e-05 5.31255e-07
9.61318e-05 0.000321287 4.10565e-07
5.31255e-07 4.10565e-07 9.41858e-05
0.000185088 9.44428e-05 -2.45994e-06
9.44428e-05 0.000262644 -2.02328e-06
-2.45994e-06 -2.02328e-06 -3.85615e-05
0.000459712 7.33029e-05 1.88241e-07
7.33029e-05 0.00036735 1.80748e-06
1.88241e-07 1.80748e-06 9.4546e-05
-0.000461643 4.06191e-05 9.14476e-07
4.06191e-05 5.96327e-05 -6.03578e-06
9.14476e-07 -6.03578e-06 -0.000411942
7.11735e-05 -9.58695e-05 -4.65828e-06
-9.58695e-05 1.13013e-05 -5.91747e-07
-4.65828e-06 -5.91747e-07 -0.000259615
0.000391207 -6.86098e-05 -6.64854e-06
-6.86098e-05 0.000121543 -1.1193e-05
-6.64854e-06 -1.1193e-05 -9.50474e-05
0.000785679 -3.29733e-05 8.88884e-07
-3.29733e-05 0.000425445 -6.85324e-06
8.88884e-07 -6.85324e-06 0.000201348
0.000490189 -0.000137135 -1.3091e-06
-0.000137135 0.000288737 2.95229e-06
-1.3091e-06 2.95229e-06 9.06338e-05
-0.000104304 6.05251e-06 -6.28307e-06
6.05251e-06 -0.000161785 1.56793e-06
-6.28307e-06 1.56793e-06 -0.000308655
0.00103684 -0.000192366 1.78321e-05
-0.000192366 0.000608055 1.02488e-05
1.78321e-05 1.02488e-05 0.000409937
0.00143982 -8.77801e-05 -3.13994e-06
-8.77801e-05 0.00104385 1.19036e-05
-3.13994e-06 1.19036e-05 0.000806845
-0.000580129 1.16043e-06 2.15223e-06
1.16043e-06 -0.000325903 -1.56152e-05
2.15223e-06 -1.56152e-05 -0.000661093
-0.00135501 4.04849e-05 6.18328e-07
4.04849e-05 -0.000845326 -1.16183e-05
6.18328e-07 -1.16183e-05 -0.00112684
0.000480718 -0.00021801 1.13322e-07
-0.00021801 0.000339087 5.83426e-07
1.13322e-07 5.83426e-07 3.06672e-05
-0.000704854 1.55455e-05 7.63672e-07
1.55455e-05 -0.000577827 -3.72937e-06
7.63672e-07 -3.72937e-06 -0.000790318
0.00107173 -0.00031815 -4.49449e-06
-0.00031815 0.000609131 -1.09156e-07
-4.49449e-06 -1.09156e-07 0.000374003
0.000794822 -0.000174138 1.67608e-06
-0.000174138 0.000393912 3.50235e-07
1.67608e-06 3.50235e-07 0.000193426
0.000643929 -9.36628e-05 -5.23803e-07
-9.36628e-05 0.000201819 9.82461e-07
-5.23803e-07 9.82461e-07 9.1474e-05
0.000187578 2.04428e-05 9.46391e-07
2.04428e-05 -1.50563e-05 5.75291e-07
9.46391e-07 5.75291e-07 -0.00022281
0.00043788 -4.86205e-06 3.37189e-06
-4.86205e-06 7.85986e-05 1.25293e-07
3.37189e-06 1.25293e-07 -3.60317e-05
0.00140591 -4.42722e-05 -2.13994e-05
-4.42722e-05 0.000681484 8.28529e-06
-2.13994e-05 8.28529e-06 0.00065003
0.000421126 0.000106171 -2.4068e-06
0.000106171 7.2143e-05 -2.5823e-06
-2.4068e-06 -2.5823e-06 -4.42519e-05
0.000799819 -3.78411e-05 -8.17294e-06
-3.78411e-05 0.000291285 9.09709e-07
-8.17294e-06 9.09709e-07 0.000251001
0.000868442 -1.11067e-05 -2.46458e-05
-1.11067e-05 0.000308707 5.63941e-06
-2.46458e-05 5.63941e-06 0.00030978
0.000249319 -6.46568e-05 7.51835e-06
-6.46568e-05 -7.89461e-05 -6.79725e-06
7.51835e-06 -6.79725e-06 -0.00012033
0.00281165 -2.9365e-06 2.04135e-05
-2.9365e-06 0.00160368 -1.74133e-07
2.04135e-05 -1.74133e-07 0.00161225
0.000838646 5.59307e-06 -1.29427e-05
5.59307e-06 0.000291428 -6.23196e-06
-1.29427e-05 -6.23196e-06 0.00028874
0.000735802 0.000111515 3.12001e-06
0.000111515 0.000343848 -2.3156e-06
3.12001e-06 -2.3156e-06 0.000157644
0.000326043 8.17559e-05 -2.41687e-06
8.17559e-05 -3.62164e-07 -5.38828e-06
-2.41687e-06 -5.38828e-06 -9.17172e-05
0.000389623 3.77347e-06 3.45631e-06
3.77347e-06 3.55924e-05 2.22694e-07
3.45631e-06 2.22694e-07 -5.76852e-05
0.000313176 1.91935e-05 6.77037e-07
1.91935e-05 -6.29775e-05 -5.55899e-06
6.77037e-07 -5.55899e-06 -9.09868e-05
0.000601268 -0.000116551 -2.81313e-06
-0.000116551 0.00019455 6.21804e-06
-2.81313e-06 6.21804e-06 7.58793e-05
0.000377175 3.59474e-06 2.25416e-06
3.59474e-06 -2.12551e-05 -1.07255e-06
2.25416e-06 -1.07255e-06 -5.55284e-05
0.00268589 5.58747e-05 -4.28512e-06
5.58747e-05 0.00151908 -6.77864e-06
-4.28512e-06 -6.77864e-06 0.00152497
0.00160163 5.34116e-05 3.18305e-06
5.34116e-05 0.000806174 5.45967e-06
3.18305e-06 5.45967e-06 0.000762867
0.00175491 5.891e-05 -2.88202e-06
5.891e-05 0.00090586 2.46499e-06
-2.88202e-06 2.46499e-06 0.000900766
0.00053326 4.38173e-05 6.1335e-06
4.38173e-05 9.69997e-05 1.57774e-05
6.1335e-06 1.57774e-05 8.06653e-05
-0.00037858 0.00164569 0.000210426
0.00164569 -0.00612641 4.37577e-05
0.000210426 4.37577e-05 -0.0027585
0.00289412 -1.64077e-06 -5.21096e-06
-1.64077e-06 -0.000367002 -6.36338e-07
-5.21096e-06 -6.36338e-07 1.09459e-05
0.00295007 0.000159925 7.87225e-05
0.000159925 -0.00056855 -3.06475e-06
7.87225e-05 -3.06475e-06 -7.18671e-06
0.00591538 0.00227707 -0.000110996
0.00227707 -0.00434732 -5.08148e-05
-0.000110996 -5.08148e-05 0.000982393
0.00412442 0.000446648 0.000171816
0.000446648 -0.00298893 -1.27562e-05
0.000171816 -1.27562e-05 -0.000563198
0.00337354 -0.000163668 3.0148e-06
-0.000163668 -4.18019e-05 3.02533e-06
3.0148e-06 3.02533e-06 0.000377677
0.00759346 -0.00133697 -0.000110792
-0.00133697 0.000396281 -2.89336e-05
-0.000110792 -2.89336e-05 0.00213888
0.00491146 -0.00065341 -0.000251621
-0.00065341 -0.00503162 -9.05234e-05
-0.000251621 -9.05234e-05 -3.42254e-05
0.0168949 -0.00173284 6.02459e-06
-0.00173284 -0.00307454 -0.000177208
6.02459e-06 -0.000177208 -0.000763333
0.0266434 0.013093 0.00275569
0.013093 0.0143668 0.000315007
0.00275569 0.000315007 0.00204971
0.0562064 0.021896 0.000105399
0.021896 0.0370263 0.000382525
0.000105399 0.000382525 0.0148876
-8.18975e-05 -0.000123144 7.69108e-06
-0.000123144 -0.000178125 3.01119e-06
7.69108e-06 3.01119e-06 -0.000355722
0.000569355 -2.7255e-05 1.77258e-06
-2.7255e-05 0.000220552 -1.03066e-07
1.77258e-06 -1.03066e-07 5.20385e-05
0.000965953 -0.000163509 8.73685e-08
-0.000163509 0.000508722 3.73799e-06
8.73685e-08 3.73799e-06 0.000309699
0.000496725 -0.000116553 8.6992e-06
-0.000116553 0.000170232 -4.99855e-07
8.6992e-06 -4.99855e-07 2.80664e-05
0.000768528 0.000153446 -2.85911e-06
0.000153446 0.000435357 -6.41453e-06
-2.85911e-06 -6.41453e-06 0.000264907
0.00107844 0.000224782 8.26534e-07
0.000224782 0.000599887 6.51706e-06
8.26534e-07 6.51706e-06 0.000388332
0.000191789 3.84311e-05 3.7736e-06
3.84311e-05 -3.54291e-05 -2.65539e-07
3.7736e-06 -2.65539e-07 -0.00023521
0.000501637 -3.74418e-05 -1.35362e-06
-3.74418e-05 0.000171265 7.17016e-07
-1.35362e-06 7.17016e-07 -1.74305e-05
0.00284935 -0.00051994 2.13385e-05
-0.00051994 -0.000518866 -5.68062e-06
2.13385e-05 -5.68062e-06 -4.62347e-05
0.00271659 -0.000973843 2.05963e-05
-0.000973843 -0.000433086 -8.76467e-06
2.05963e-05 -8.76467e-06 -0.000143635
0.0030688 -0.00141773 -3.89051e-06
-0.00141773 0.00021172 1.10041e-05
-3.89051e-06 1.10041e-05 -3.03259e-05
0.00300371 -0.00185467 1.08043e-06
-0.00185467 0.000970072 1.24786e-05
1.08043e-06 1.24786e-05 0.000104578
0.0032417 -0.00181825 -3.02471e-05
-0.00181825 0.000729237 1.79034e-05
-3.02471e-05 1.79034e-05 3.01419e-05
0.000744135 -0.00174162 4.39535e-05
-0.00174162 0.00048858 1.80883e-05
4.39535e-05 1.80883e-05 -0.000744627
0.00475579 -0.0011659 3.55233e-05
-0.0011659 0.00247111 -9.07856e-06
3.55233e-05 -9.07856e-06 0.0018196
0.00201437 -0.000538 4.45643e-05
-0.000538 0.0013182 -5.71687e-05
4.45643e-05 -5.71687e-05 0.000848875
0.000449903 -6.47564e-05 2.807e-06
-6.47564e-05 0.000136265 -7.12131e-06
2.807e-06 -7.12131e-06 -9.11369e-05
0.00125258 -0.000197739 2.46829e-05
-0.000197739 0.00068387 -4.67517e-05
2.46829e-05 -4.67517e-05 0.000351343
-5.20826e-05 -0.000160382 1.31886e-06
-0.000160382 -0.00019129 5.02433e-06
1.31886e-06 5.02433e-06 -0.000353362
-0.000363716 3.01249e-06 -2.97545e-05
3.01249e-06 -0.000221374 -1.36194e-05
-2.97545e-05 -1.36194e-05 -0.000342789
0.00303543 -0.000717216 -1.75986e-06
-0.000717216 -0.000397649 5.79953e-06
-1.75986e-06 5.79953e-06 0.000167631
0.000366611 -8.72513e-05 -6.44214e-06
-8.72513e-05 0.000278016 5.62899e-06
-6.44214e-06 5.62899e-06 5.98616e-05
0.000919756 -0.000324824 -4.33017e-06
-0.000324824 0.000493797 6.3833e-07
-4.33017e-06 6.3833e-07 0.00019887
0.00246431 -0.00125915 1.17383e-05
-0.00125915 -0.000427618 -6.53242e-06
1.17383e-05 -6.53242e-06 -0.000189381
0.00331413 -0.00163338 1.18103e-06
-0.00163338 0.000800343 4.09695e-06
1.18103e-06 4.09695e-06 0.000189568
0.00259241 -0.00192801 2.64132e-06
-0.00192801 0.000599043 -1.28317e-05
2.64132e-06 -1.28317e-05 -0.000160814
0.000435976 -0.000480387 -1.09223e-05
-0.000480387 0.000441094 -2.49046e-05
-1.09223e-05 -2.49046e-05 -0.00010038
0.000889628 -0.00103885 9.5369e-06
-0.00103885 0.00115158 -4.26637e-06
9.5369e-06 -4.26637e-06 -1.77855e-05
0.00607462 -0.00183962 -5.52356e-05
-0.00183962 0.000663099 5.05532e-05
-5.52356e-05 5.05532e-05 0.00149762
0.00266029 -0.00169911 -3.43413e-05
-0.00169911 0.000319736 2.26925e-05
-3.43413e-05 2.26925e-05 -0.00018694
0.004489 -0.00226524 3.36564e-06
-0.00226524 0.00150826 -3.72821e-06
3.36564e-06 -3.72821e-06 0.000686642
0.00141715 -0.00158616 -5.55255e-05
-0.00158616 0.000448424 8.82406e-06
-5.55255e-05 8.82406e-06 -7.57757e-05
0.00104641 -0.000283481 1.77191e-05
-0.000283481 0.000826225 -2.24774e-06
1.77191e-05 -2.24774e-06 0.000431968
-0.00152355 2.81566e-05 2.81252e-05
2.81566e-05 -0.000712508 2.93604e-05
2.81252e-05 2.93604e-05 -0.00109838
-0.000130926 -0.00049311 -3.03961e-05
-0.00049311 0.000537609 -1.65429e-05
-3.03961e-05 -1.65429e-05 -0.000382578
-0.0063295 -0.00110553 0.00211683
-0.00110553 0.00444826 5.84258e-05
0.00211683 5.84258e-05 -0.00648662
0.0163491 -0.000418747 -0.000130914
-0.000418747 -0.00319911 5.86935e-05
-0.000130914 5.86935e-05 -5.33544e-05
0.00193704 0.000603603 8.58178e-06
0.000603603 0.00128444 -1.80487e-05
8.58178e-06 -1.80487e-05 0.00080069
0.00230507 0.00115542 -7.51395e-06
0.00115542 0.00115801 4.26451e-06
-7.51395e-06 4.26451e-06 0.000341633
0.0018573 0.00136154 0.000152675
0.00136154 -0.00114533 6.51501e-05
0.000152675 6.51501e-05 -0.000521613
0.00388502 0.00180216 4.25579e-05
0.00180216 0.00122478 2.37808e-05
4.25579e-05 2.37808e-05 0.000535855
0.00277276 0.00164617 2.10467e-05
0.00164617 0.00103002 1.24574e-05
2.10467e-05 1.24574e-05 6.70076e-05
0.0204937 0.00145304 1.5264e-05
0.00145304 -0.00147543 -0.000282726
1.5264e-05 -0.000282726 0.00196018
0.00761351 0.00591939 -0.000348804
0.00591939 -0.00557154 3.38547e-05
-0.000348804 3.38547e-05 0.000300743
0.000138676 0.0030233 -5.30473e-05
0.0030233 -0.00210275 -4.3926e-05
-5.30473e-05 -4.3926e-05 -0.00165381
0.0212778 -0.0110504 -0.00179227
-0.0110504 0.0140588 0.000721131
-0.00179227 0.000721131 0.00191006
0.0433807 -0.0321713 -0.00170045
-0.0321713 0.0329544 -0.00184551
-0.00170045 -0.00184551 0.00919286
0.000822846 0.000647034 1.06438e-05
0.000647034 0.000585012 -8.86861e-06
1.06438e-05 -8.86861e-06 2.70927e-05
0.00545659 -0.0103764 0.00176443
-0.0103764 0.00404811 -0.000114413
0.00176443 -0.000114413 -0.00744278
0.0109271 -0.0123748 -0.00152948
-0.0123748 0.0215678 0.000248916
-0.00152948 0.000248916 0.00476706
0.00422817 0.00261165 -7.4858e-07
0.00261165 0.000487168 1.44267e-05
-7.4858e-07 1.44267e-05 0.000100334
0.00128087 0.00110496 -1.4937e-05
0.00110496 0.000486491 1.27421e-05
-1.4937e-05 1.27421e-05 -0.000325411
0.00397882 0.00196515 -1.25754e-05
0.00196515 0.00159287 -4.08696e-06
-1.25754e-05 -4.08696e-06 0.000637629
0.00202713 0.00322483 0.000107991
0.00322483 -2.58569e-05 7.31119e-05
0.000107991 7.31119e-05 -0.000130624
0.011831 0.00887669 -0.000409773
0.00887669 -0.00817254 -0.00013808
-0.000409773 -0.00013808 -0.00300366
0.00427634 0.00759569 -0.000129252
0.00759569 -0.00180074 -0.000132666
-0.000129252 -0.000132666 0.000482275
0.0376643 -0.0118412 0.0012009
-0.0118412 0.0201067 -0.00051648
0.0012009 -0.00051648 0.00540887
0.0366692 -0.0077421 -0.000639511
-0.0077421 0.0161709 0.00120544
-0.000639511 0.00120544 0.00339189
0.00133884 0.000842288 -2.00154e-05
0.000842288 0.000823132 -1.40661e-05
-2.00154e-05 -1.40661e-05 0.000249894
0.0032524 -0.00169394 0.000538811
-0.00169394 0.0101973 -0.000312913
0.000538811 -0.000312913 -0.00148135
0.0127669 0.00659833 -0.00151585
0.00659833 0.00908503 -0.000643458
-0.00151585 -0.000643458 0.00319529
0.00279783 0.00202711 -6.03172e-05
0.00202711 0.000284952 -3.94003e-05
-6.03172e-05 -3.94003e-05 -7.18452e-05
0.00324183 0.00193469 -0.000102676
0.00193469 0.00152616 -4.4938e-05
-0.000102676 -4.4938e-05 0.000544808
0.000582074 0.00237581 -0.00014406
0.00237581 0.000838547 -7.9108e-05
-0.00014406 -7.9108e-05 -0.000223294
-0.00113742 0.0059882 0.000126222
0.0059882 4.77924e-06 -9.72895e-05
0.000126222 -9.72895e-05 -0.000437203
0.00565265 0.0128134 0.00156375
0.0128134 -0.0066543 0.0003115
0.00156375 0.0003115 -0.00378353
0.0375049 -0.013988 -0.00192777
-0.013988 0.0241376 0.00155246
-0.00192777 0.00155246 0.00753399
0.0103343 0.00135428 1.66861e-05
0.00135428 -0.00120845 -0.000306171
1.66861e-05 -0.000306171 -0.00465175
0.000562091 0.000331502 -7.20512e-06
0.000331502 0.00058986 1.19023e-05
-7.20512e-06 1.19023e-05 0.000217651
0.00084456 0.000501529 5.7126e-06
0.000501529 0.000735534 1.81329e-06
5.7126e-06 1.81329e-06 0.000285476
0.000266398 0.00045314 3.16771e-06
0.00045314 0.000459751 2.86721e-06
3.16771e-06 2.86721e-06 -3.40493e-05
0.000369068 9.82428e-05 5.84618e-06
9.82428e-05 7.29738e-05 4.2504e-06
5.84618e-06 4.2504e-06 -0.000112946
0.001269 0.00019092 1.4204e-06
0.00019092 0.000758284 5.73851e-06
1.4204e-06 5.73851e-06 0.000505589
-2.08739e-05 5.03563e-05 1.12722e-06
5.03563e-05 -4.84431e-05 4.53628e-06
1.12722e-06 4.53628e-06 -0.000313153
1.12093e-05 4.46865e-05 8.86236e-06
4.46865e-05 4.34001e-05 -3.0645e-06
8.86236e-06 -3.0645e-06 -0.000244794
0.000386934 0.000110863 -2.36511e-06
0.000110863 0.000381895 9.04e-06
-2.36511e-06 9.04e-06 9.63909e-05
0.00083694 8.36823e-05 -1.58e-06
8.36823e-05 0.000443543 -1.55152e-06
-1.58e-06 -1.55152e-06 0.000206536
0.000281964 5.80444e-05 1.4982e-06
5.80444e-05 0.000247962 -2.85028e-06
1.4982e-06 -2.85028e-06 -3.56548e-05
0.000674532 -3.72716e-06 1.73389e-08
-3.72716e-06 0.000419178 2.76379e-06
1.73389e-08 2.76379e-06 0.000139651
-0.000149647 8.24331e-05 -2.03027e-06
8.24331e-05 0.000254316 2.56244e-07
-2.03027e-06 2.56244e-07 -0.000197221
-8.0145e-05 4.16586e-05 1.96278e-06
4.16586e-05 0.000450688 1.43038e-06
1.96278e-06 1.43038e-06 -0.00014782
2.77177e-05 -6.55503e-05 1.21169e-08
-6.55503e-05 0.000195656 2.32605e-06
1.21169e-08 2.32605e-06 -0.000175527
0.00263338 -0.000159925 -1.2313e-05
-0.000159925 0.00178767 -5.82631e-06
-1.2313e-05 -5.82631e-06 0.00143276
0.00129913 -0.000219052 -4.38467e-06
-0.000219052 0.000775363 -3.48394e-07
-4.38467e-06 -3.48394e-07 0.000534276
0.000520329 -8.41008e-05 -1.2757e-05
-8.41008e-05 0.000283741 -3.15265e-06
-1.2757e-05 -3.15265e-06 0.000110706
0.000549282 -0.000192205 -4.12446e-08
-0.000192205 0.000284616 3.94677e-06
-4.12446e-08 3.94677e-06 0.000114738
0.000441642 -0.000219854 1.2741e-06
-0.000219854 0.000161813 -1.63763e-06
1.2741e-06 -1.63763e-06 -1.83828e-06
8.72551e-05 -3.72003e-05 -1.22537e-05
-3.72003e-05 0.000211447 8.15009e-06
-1.22537e-05 8.15009e-06 -1.21127e-05
0.000897521 -0.000160813 1.93482e-05
-0.000160813 0.000464054 -1.84483e-05
1.93482e-05 -1.84483e-05 0.00026643
-0.0012765 -5.30729e-05 -1.45504e-05
-5.30729e-05 -0.000648151 5.90431e-06
-1.45504e-05 5.90431e-06 -0.000966925
0.00227173 -0.000292139 1.30324e-05
-0.000292139 0.00153513 -2.20993e-06
1.30324e-05 -2.20993e-06 0.0013222
0.00116378 -2.31491e-06 1.90533e-05
-2.31491e-06 0.000671187 -1.71377e-05
1.90533e-05 -1.71377e-05 0.000308047
0.00446847 -0.000941845 4.49196e-06
-0.000941845 0.00245985 5.7365e-06
4.49196e-06 5.7365e-06 0.00194563
-0.00355239 -0.000323468 1.11966e-05
-0.000323468 -0.00211869 2.342e-07
1.11966e-05 2.342e-07 -0.00258312
2.04931e-05 -7.74016e-05 -1.20102e-06
-7.74016e-05 5.40818e-05 1.11802e-06
-1.20102e-06 1.11802e-06 -0.000273196
-0.000558945 -3.6614e-05 1.61402e-05
-3.6614e-05 -0.000353746 -2.36783e-05
1.61402e-05 -2.36783e-05 -0.000695827
0.00127269 -0.000227165 -6.215e-07
-0.000227165 0.000852896 -1.7403e-06
-6.215e-07 -1.7403e-06 0.000548444
-0.000482832 -3.86706e-05 1.23105e-05
-3.86706e-05 -0.000421998 8.54519e-06
1.23105e-05 8.54519e-06 -0.000674513
0.00226491 -0.000146038 -3.36836e-06
-0.000146038 0.00149485 3.73094e-06
-3.36836e-06 3.73094e-06 0.00118771
0.000260558 -0.000111872 -3.63745e-06
-0.000111872 4.91364e-05 1.58214e-09
-3.63745e-06 1.58214e-09 -0.000151947
-5.52389e-05 2.31191e-05 6.0256e-06
2.31191e-05 -0.000253035 -1.11189e-06
6.0256e-06 -1.11189e-06 -0.000364257
0.0011383 -0.000205275 -1.03111e-06
-0.000205275 0.000616677 7.93542e-06
-1.03111e-06 7.93542e-06 0.000419412
0.000345571 -6.39422e-05 -1.21394e-06
-6.39422e-05 -4.29458e-06 -6.60104e-08
-1.21394e-06 -6.60104e-08 -0.000106076
0.00134512 4.69281e-05 -1.04202e-05
4.69281e-05 0.000636156 8.67661e-06
-1.04202e-05 8.67661e-06 0.000603678
0.00041786 -0.000100762 1.37717e-06
-0.000100762 5.31418e-05 -1.22552e-06
1.37717e-06 -1.22552e-06 -5.56332e-05
0.00083697 -3.49129e-05 -1.51913e-05
-3.49129e-05 0.000304546 1.13842e-06
-1.51913e-05 1.13842e-06 0.000269012
0.000682411 6.4744e-06 2.45821e-06
6.4744e-06 0.000170883 1.93253e-06
2.45821e-06 1.93253e-06 0.000171912
0.000366973 -6.4436e-05 6.18085e-06
-6.4436e-05 -5.34645e-06 -5.92964e-06
6.18085e-06 -5.92964e-06 -4.41029e-05
0.00268842 -3.65194e-06 6.37976e-06
-3.65194e-06 0.00151828 -8.19476e-09
6.37976e-06 -8.19476e-09 0.00152894
0.0027476 -1.36177e-05 2.35081e-05
-1.36177e-05 0.00156011 -5.96022e-06
2.35081e-05 -5.96022e-06 0.00156926
0.00124231 0.00010452 -3.31369e-07
0.00010452 0.000675196 -1.83203e-06
-3.31369e-07 -1.83203e-06 0.000480946
0.000438802 9.66487e-05 -6.63335e-07
9.66487e-05 8.48783e-05 -6.60243e-06
-6.63335e-07 -6.60243e-06 -1.87517e-05
0.000577356 1.15368e-05 -2.27706e-07
1.15368e-05 0.000228247 9.78638e-07
-2.27706e-07 9.78638e-07 4.78218e-05
0.000366351 1.61039e-05 9.44493e-07
1.61039e-05 -2.91953e-05 -5.74822e-06
9.44493e-07 -5.74822e-06 -5.53919e-05
0.000412913 -2.20881e-05 2.54767e-06
-2.20881e-05 4.94446e-05 -3.76906e-07
2.54767e-06 -3.76906e-07 -4.01503e-05
0.000409778 -9.21513e-05 -3.62563e-06
-9.21513e-05 5.16644e-05 5.61737e-06
-3.62563e-06 5.61737e-06 -4.57387e-05
0.000370945 -6.65785e-06 -2.99722e-08
-6.65785e-06 -2.71274e-05 1.18468e-07
-2.99722e-08 1.18468e-07 -5.44956e-05
0.00244263 3.40707e-05 -7.44065e-06
3.40707e-05 0.00135324 -6.41097e-06
-7.44065e-06 -6.41097e-06 0.00136318
0.00148433 2.48749e-05 -6.14922e-07
2.48749e-05 0.000715397 5.05964e-06
-6.14922e-07 5.05964e-06 0.000685874
0.0016546 4.06927e-05 -1.04006e-05
4.06927e-05 0.000828953 -1.40286e-07
-1.04006e-05 -1.40286e-07 0.00082957
0.000770016 4.02743e-05 1.13032e-06
4.02743e-05 0.0002465 1.30299e-05
1.13032e-06 1.30299e-05 0.000237158
0.00390709 0.00701 0.00201005
0.00701 0.00582441 0.000109006
0.00201005 0.000109006 -0.0056752
0.0133725 0.00924543 0.0034413
0.00924543 0.0185146 0.000258675
0.0034413 0.000258675 0.00340137
0.00120431 0.00222508 5.93912e-06
0.00222508 -0.00627415 -9.2772e-05
5.93912e-06 -9.2772e-05 -0.000449643
0.00352686 7.40773e-05 0.000160188
7.40773e-05 -0.0037217 3.01972e-05
0.000160188 3.01972e-05 -0.00098014
0.00346834 -0.000184117 4.82564e-05
-0.000184117 1.45772e-05 -4.65412e-06
4.82564e-05 -4.65412e-06 0.000404673
0.00439453 0.000441242 5.50028e-06
0.000441242 -0.00341577 -3.87479e-05
5.50028e-06 -3.87479e-05 0.0006371
0.00519686 -0.00116715 3.80842e-05
-0.00116715 -0.000702874 -3.24209e-07
3.80842e-05 -3.24209e-07 0.000790106
0.0130663 -0.00164176 0.000486109
-0.00164176 -0.00595228 -0.000197924
0.000486109 -0.000197924 -0.00396541
0.0137208 0.00867283 -0.000147751
0.00867283 0.00719825 -0.000136751
-0.000147751 -0.000136751 -0.00197128
0.0504567 0.0269503 -0.000625346
0.0269503 0.0350659 0.000261906
-0.000625346 0.000261906 0.0121829
0.00438838 -0.00290358 -0.00015098
-0.00290358 -0.00463592 3.3637e-06
-0.00015098 3.3637e-06 0.000197576
0.0138159 -0.00746326 0.000766648
-0.00746326 -0.00568871 -0.00016495
0.000766648 -0.00016495 -0.00228217
0.0331663 0.0122989 2.61864e-06
0.0122989 0.0185331 -0.000657049
2.61864e-06 -0.000657049 0.00379892
0.0385822 0.0075108 -0.000584438
0.0075108 0.0193839 0.000497651
-0.000584438 0.000497651 0.00850963
0.00249406 0.000216086 -5.77865e-06
0.000216086 0.00166365 4.09711e-06
-5.77865e-06 4.09711e-06 0.00133937
0.000637197 3.90869e-05 2.0594e-06
3.90869e-05 0.000262366 -1.08949e-06
2.0594e-06 -1.08949e-06 8.76338e-05
0.000470769 -0.000128442 2.33691e-06
-0.000128442 0.000158336 9.82532e-07
2.33691e-06 9.82532e-07 -1.05924e-05
0.000101222 -3.82196e-05 6.53155e-06
-3.82196e-05 -8.15241e-05 -1.76792e-06
6.53155e-06 -1.76792e-06 -0.00022335
0.000133576 0.000102646 3.72392e-06
0.000102646 5.2699e-06 6.40285e-07
3.72392e-06 6.40285e-07 -0.000127405
0.000826055 0.000227799 2.40579e-06
0.000227799 0.000433372 6.21618e-06
2.40579e-06 6.21618e-06 0.000182271
0.00034964 8.52326e-05 -3.22707e-06
8.52326e-05 0.000114982 -7.54082e-07
-3.22707e-06 -7.54082e-07 -7.78609e-05
0.000447221 0.000148111 7.77766e-06
0.000148111 0.000141647 4.42733e-06
7.77766e-06 4.42733e-06 -0.000114414
0.000473657 4.67781e-05 -2.38848e-08
4.67781e-05 0.000177228 -3.23608e-07
-2.38848e-08 -3.23608e-07 -4.19207e-05
-0.00020425 -2.99043e-05 3.22341e-09
-2.99043e-05 -0.000322118 -2.4064e-06
3.22341e-09 -2.4064e-06 -0.000477237
0.00233839 -0.000661361 7.86033e-05
-0.000661361 -0.000890565 -3.03371e-05
7.86033e-05 -3.03371e-05 -0.000177178
0.0018558 -0.00118131 2.34176e-05
-0.00118131 -0.000742975 -1.62732e-05
2.34176e-05 -1.62732e-05 -0.00046347
0.00262508 -0.00153209 -5.36101e-07
-0.00153209 0.000390257 1.5745e-05
-5.36101e-07 1.5745e-05 -0.000154444
0.000682639 -0.00156843 -8.01257e-06
-0.00156843 -0.000443132 1.38434e-05
-8.01257e-06 1.38434e-05 -0.00110576
0.00269823 -0.00102304 2.88082e-05
-0.00102304 0.00209289 7.80725e-05
2.88082e-05 7.80725e-05 0.00103213
5.12607e-05 -0.000861822 -3.35113e-05
-0.000861822 0.000263228 -3.1107e-05
-3.35113e-05 -3.1107e-05 -0.000511349
0.00110144 -0.000318105 1.90284e-05
-0.000318105 0.000642632 -2.92767e-05
1.90284e-05 -2.92767e-05 0.000387633
0.000100363 -2.05586e-05 -4.97441e-06
-2.05586e-05 5.55354e-05 1.3349e-07
-4.97441e-06 1.3349e-07 -0.000133576
0.00395636 -0.00156413 5.95312e-07
-0.00156413 -0.000561407 -9.80015e-06
5.95312e-07 -9.80015e-06 0.00045502
0.000318431 -7.54327e-05 -8.76232e-08
-7.54327e-05 0.000355764 1.19353e-06
-8.76232e-08 1.19353e-06 -3.97039e-05
-0.000115407 -0.000154184 -1.11711e-05
-0.000154184 0.000158704 2.95324e-06
-1.11711e-05 2.95324e-06 -0.000208275
0.00202011 -0.0015261 2.50572e-05
-0.0015261 -7.22979e-05 -1.10097e-06
2.50572e-05 -1.10097e-06 -0.000382752
0.0035114 -0.00203946 -3.65012e-06
-0.00203946 0.00103957 -7.7944e-06
-3.65012e-06 -7.7944e-06 0.000233954
0.000563489 -0.00141993 3.2448e-05
-0.00141993 1.04504e-05 -1.71291e-05
3.2448e-05 -1.71291e-05 -0.000529915
0.00075854 -0.000694573 2.90937e-05
-0.000694573 0.00110112 -4.35452e-05
2.90937e-05 -4.35452e-05 0.000185164
0.00117754 -0.00234248 -2.06619e-05
-0.00234248 -0.00198913 5.36555e-05
-2.06619e-05 5.36555e-05 -0.00116914
0.00325034 -0.0018609 -5.05312e-05
-0.0018609 0.00114917 3.20898e-05
-5.05312e-05 3.20898e-05 0.000430178
-0.000499291 -0.00082998 -8.79412e-05
-0.00082998 0.00021785 2.00572e-05
-8.79412e-05 2.00572e-05 -0.000501892
0.00159441 0.00019842 6.04187e-06
0.00019842 0.00111158 1.00673e-06
6.04187e-06 1.00673e-06 0.000741309
-0.000777118 -1.09165e-05 1.03525e-05
-1.09165e-05 -0.000185221 1.58753e-05
1.03525e-05 1.58753e-05 -0.000674257
0.000228951 -9.84757e-05 1.84195e-05
-9.84757e-05 0.000496643 1.63314e-05
1.84195e-05 1.63314e-05 3.67809e-05
-0.00284757 0.00263366 -0.000915389
0.00263366 0.00910468 -7.67132e-05
-0.000915389 -7.67132e-05 0.000178275
0.00211607 -0.00258149 1.6087e-05
-0.00258149 0.00854249 -3.96443e-05
1.6087e-05 -3.96443e-05 0.0011228
0.00931703 4.51605e-05 -5.4256e-05
4.51605e-05 -0.00790515 -5.85552e-06
-5.4256e-05 -5.85552e-06 -0.00815681
0.000897283 0.000648182 2.24128e-05
0.000648182 0.000674041 -1.68303e-05
2.24128e-05 -1.68303e-05 0.000106098
0.00182479 0.00125331 2.57661e-05
0.00125331 0.000864403 3.08082e-05
2.57661e-05 3.08082e-05 -3.19438e-05
0.00254756 0.00206903 0.000107531
0.00206903 -0.000418398 6.00291e-05
0.000107531 6.00291e-05 -0.000585232
0.00437279 0.00211175 5.80695e-05
0.00211175 0.00182158 4.75073e-05
5.80695e-05 4.75073e-05 0.000794983
0.0200899 -0.0118269 0.000353544
-0.0118269 0.0162999 0.000193292
0.000353544 0.000193292 0.00245299
0.00289754 0.00716286 -0.00109834
0.00716286 -0.0141691 -0.000193075
-0.00109834 -0.000193075 -0.00974114
0.00636937 0.00810478 -7.43135e-05
0.00810478 -0.00165407 2.50935e-05
-7.43135e-05 2.50935e-05 0.000899938
0.00499115 0.00335877 0.000129602
0.00335877 0.00179276 4.45152e-05
0.000129602 4.45152e-05 0.00155803
0.0294563 -0.00874586 -0.000551773
-0.00874586 0.014737 -0.000222731
-0.000551773 -0.000222731 0.00200336
0.0104658 -0.0118662 -0.00227938
-0.0118662 0.0229655 0.000141293
-0.00227938 0.000141293 0.00753984
0.0483016 -0.0139065 0.00214694
-0.0139065 0.0208651 0.000440621
0.00214694 0.000440621 0.00536362
0.000818127 0.000789463 1.63312e-05
0.000789463 0.000564932 -5.42296e-06
1.63312e-05 -5.42296e-06 -2.99032e-05
0.00483021 -0.00441108 0.000126122
-0.00441108 0.0132857 2.03868e-05
0.000126122 2.03868e-05 0.000624576
0.0115402 0.00656721 -0.000342782
0.00656721 0.00583379 -0.000200018
-0.000342782 -0.000200018 -0.00136177
0.00347509 0.0023777 9.1044e-06
0.0023777 0.000795316 6.05075e-06
9.1044e-06 6.05075e-06 0.000207271
0.00168683 0.00161111 3.98261e-06
0.00161111 0.00079718 7.29629e-06
3.98261e-06 7.29629e-06 -0.000123564
-5.10358e-05 0.00237055 -0.000179359
0.00237055 0.000449043 -0.000121494
-0.000179359 -0.000121494 -0.000408287
0.00461795 0.00849698 0.000125777
0.00849698 0.00120213 5.87674e-05
0.000125777 5.87674e-05 0.000599679
0.0113496 0.0130744 -4.25016e-05
0.0130744 -0.00177948 -1.72802e-05
-4.25016e-05 -1.72802e-05 -0.00154892
0.0194361 -0.00816759 1.27575e-05
-0.00816759 0.0167472 -0.000188411
1.27575e-05 -0.000188411 0.00172915
0.0216865 -0.00257867 -0.00023621
-0.00257867 0.00503822 -2.43653e-05
-0.00023621 -2.43653e-05 0.0019934
0.00161924 0.00146626 -1.54823e-05
0.00146626 0.00102771 -1.02365e-05
-1.54823e-05 -1.02365e-05 0.000171041
0.00227939 0.00188024 -0.000851044
0.00188024 0.00482943 -0.000212262
-0.000851044 -0.000212262 -0.00230291
0.00600306 0.00136344 4.61042e-05
0.00136344 0.00217324 -0.000206004
4.61042e-05 -0.000206004 -0.00270475
-0.00107079 0.000990694 -2.40687e-06
0.000990694 6.02324e-05 -3.74344e-05
-2.40687e-06 -3.74344e-05 -0.000658741
-0.00295772 0.00271501 -4.95892e-05
0.00271501 0.000989174 6.21764e-05
-4.95892e-05 6.21764e-05 -0.00036786
0.00605277 0.0107085 0.00059984
0.0107085 0.00453456 7.52593e-05
0.00059984 7.52593e-05 -0.00154785
0.0167618 -0.00640763 0.000137156
-0.00640763 0.00669074 0.000203351
0.000137156 0.000203351 -0.00466124
0.0218617 -0.00143141 0.000157072
-0.00143141 0.00147699 -0.000329405
0.000157072 -0.000329405 0.000377467
0.00054506 0.000447555 7.31014e-06
0.000447555 0.00054005 2.24489e-05
7.31014e-06 2.24489e-05 0.000137225
0.000581872 0.000470417 -3.31425e-06
0.000470417 0.000666665 -4.9008e-06
-3.31425e-06 -4.9008e-06 0.00015873
0.000597567 0.000500587 1.39541e-05
0.000500587 0.000813621 2.34293e-06
1.39541e-05 2.34293e-06 0.000172027
0.000456019 0.000105634 1.63436e-06
0.000105634 0.000148885 8.79795e-06
1.63436e-06 8.79795e-06 -5.87014e-05
0.0013721 -1.24726e-05 -7.00199e-07
-1.24726e-05 0.00089868 7.37237e-06
-7.00199e-07 7.37237e-06 0.000606518
0.000166751 7.71637e-05 3.71692e-06
7.71637e-05 0.00016697 -2.91907e-07
3.71692e-06 -2.91907e-07 -0.000126271
-1.46048e-06 0.000120486 1.27393e-06
0.000120486 0.000349947 2.08304e-06
1.27393e-06 2.08304e-06 -9.4498e-05
0.000719324 -5.0392e-05 5.86515e-06
-5.0392e-05 0.000426899 1.08041e-06
5.86515e-06 1.08041e-06 0.000156491
0.000244249 -2.25029e-05 3.60397e-07
-2.25029e-05 0.000309306 -4.41721e-06
3.60397e-07 -4.41721e-06 -4.19617e-05
-9.97172e-05 4.9232e-05 -3.1535e-08
4.9232e-05 0.000494116 1.14083e-06
-3.1535e-08 1.14083e-06 -0.000150194
-0.000686339 2.07153e-05 6.45348e-06
2.07153e-05 0.00032094 6.21138e-06
6.45348e-06 6.21138e-06 -0.000393779
0.00124944 -0.000131221 9.91269e-06
-0.000131221 0.00125285 -1.00811e-05
9.91269e-06 -1.00811e-05 0.00070137
0.0010735 -0.000109195 -2.69812e-05
-0.000109195 0.000900893 6.66949e-06
-2.69812e-05 6.66949e-06 0.000486995
0.00137305 -0.000249687 5.62354e-06
-0.000249687 0.000845796 8.72064e-06
5.62354e-06 8.72064e-06 0.000646678
-0.000631122 -0.000335794 -7.91738e-06
-0.000335794 -0.000578785 -3.95806e-06
-7.91738e-06 -3.95806e-06 -0.000707936
-0.00063707 -1.05204e-06 1.88796e-05
-1.05204e-06 -0.000186845 -1.49943e-05
1.88796e-05 -1.49943e-05 -0.000410663
-0.000712636 -2.32372e-05 2.42868e-06
-2.32372e-05 -0.000277949 -2.4845e-06
2.42868e-06 -2.4845e-06 -0.000601775
0.00019289 -0.000210837 -1.21268e-06
-0.000210837 -5.7002e-05 3.4605e-06
-1.21268e-06 3.4605e-06 -0.000206504
-3.13029e-05 -0.000223701 -1.21371e-05
-0.000223701 9.28151e-05 4.58041e-06
-1.21371e-05 4.58041e-06 -8.69433e-05
0.00393559 -0.000357772 1.24294e-05
-0.000357772 0.00242043 -5.19427e-06
1.24294e-05 -5.19427e-06 0.00201216
0.00134904 -0.000144525 3.27034e-06
-0.000144525 0.00126001 7.1617e-06
3.27034e-06 7.1617e-06 0.000840963
0.00176376 -0.000733203 -9.94778e-06
-0.000733203 0.00101831 1.07342e-05
-9.94778e-06 1.07342e-05 0.000433393
0.00149887 -0.00018642 -1.68586e-05
-0.00018642 0.000823244 2.46749e-06
-1.68586e-05 2.46749e-06 0.000494679
0.000161748 -0.000467726 2.10251e-05
-0.000467726 -0.000165505 7.40299e-06
2.10251e-05 7.40299e-06 -0.000557361
0.00242482 -0.0011657 -7.70838e-06
-0.0011657 0.0011445 1.19299e-05
-7.70838e-06 1.19299e-05 0.000389026
0.00312246 -0.000515351 2.64849e-05
-0.000515351 0.00156382 -7.76101e-06
2.64849e-05 -7.76101e-06 0.00124354
0.00249985 -0.000713588 2.01134e-07
-0.000713588 0.00123775 -9.94552e-06
2.01134e-07 -9.94552e-06 0.000795356
-1.06971e-05 -0.00035599 4.4656e-07
-0.00035599 1.83148e-05 1.04421e-06
4.4656e-07 1.04421e-06 -0.000391633
-0.00313952 -0.000300658 1.85962e-05
-0.000300658 -0.00191688 -1.84678e-05
1.85962e-05 -1.84678e-05 -0.00242667
0.000834791 -0.000205885 -6.2991e-06
-0.000205885 0.000557197 8.40779e-06
-6.2991e-06 8.40779e-06 0.000250937
0.000831688 -0.000484647 9.62129e-06
-0.000484647 0.000482103 -4.52758e-06
9.62129e-06 -4.52758e-06 0.000133073
0.00104562 -0.000165841 1.81051e-05
-0.000165841 0.000552987 8.00682e-06
1.81051e-05 8.00682e-06 0.000232096
0.00218206 -0.000605216 -1.48136e-05
-0.000605216 0.00143693 1.67704e-05
-1.48136e-05 1.67704e-05 0.00110156
0.000249075 -0.000193949 -1.21524e-06
-0.000193949 0.000138714 -7.83602e-07
-1.21524e-06 -7.83602e-07 -0.000175063
-7.94398e-05 -5.11332e-05 7.26115e-06
-5.11332e-05 -0.000257489 4.73279e-06
7.26115e-06 4.73279e-06 -0.000410871
0.00235307 -0.000388136 -4.74391e-06
-0.000388136 0.00149713 7.6298e-06
-4.74391e-06 7.6298e-06 0.00123191
0.000832677 -0.000131142 7.24308e-07
-0.000131142 0.00033661 8.90318e-07
7.24308e-07 8.90318e-07 0.000208644
0.00155663 -1.14933e-05 -1.87121e-05
-1.14933e-05 0.000772988 9.52344e-06
-1.87121e-05 9.52344e-06 0.000731395
0.000442424 -0.000110944 -1.37161e-06
-0.000110944 8.42371e-05 3.03668e-07
-1.37161e-06 3.03668e-07 -3.29031e-05
0.000799965 -2.26183e-05 -1.80781e-05
-2.26183e-05 0.0002745 9.42188e-07
-1.80781e-05 9.42188e-07 0.000236153
0.000796591 1.56793e-05 4.10928e-06
1.56793e-05 0.000244035 3.15299e-06
4.10928e-06 3.15299e-06 0.000241763
0.000352102 -6.72306e-05 5.13753e-06
-6.72306e-05 -2.00252e-05 -5.89096e-06
5.13753e-06 -5.89096e-06 -5.87229e-05
0.0017089 8.44106e-06 2.1261e-05
8.44106e-06 0.000859543 -2.08598e-06
2.1261e-05 -2.08598e-06 0.00086629
0.00265646 -7.92843e-06 3.14893e-05
-7.92843e-06 0.00149618 -6.00225e-06
3.14893e-05 -6.00225e-06 0.0015075
-8.08107e-05 0.000121139 2.9782e-06
0.000121139 -0.000273932 -1.64108e-06
2.9782e-06 -1.64108e-06 -0.000443875
0.000535733 9.94248e-05 8.14572e-07
9.94248e-05 0.000147106 -6.66057e-06
8.14572e-07 -6.66057e-06 3.39642e-05
0.000360739 3.6996e-05 1.25948e-06
3.6996e-05 6.11043e-05 1.20591e-06
1.25948e-06 1.20591e-06 -0.000112678
0.000364662 1.74439e-05 2.93322e-06
1.74439e-05 -2.98845e-05 -6.52977e-06
2.93322e-06 -6.52977e-06 -5.85144e-05
0.000397133 7.76378e-05 6.18243e-07
7.76378e-05 4.47898e-05 6.45468e-10
6.18243e-07 6.45468e-10 -5.0446e-05
0.000110212 -0.000101706 -4.24754e-06
-0.000101706 -0.00012129 5.04899e-06
-4.24754e-06 5.04899e-06 -0.000274149
0.00244362 1.79748e-05 -1.37925e-05
1.79748e-05 0.00135245 -6.60769e-06
-1.37925e-05 -6.60769e-06 0.00136375
0.000358708 1.18018e-05 -6.13988e-07
1.18018e-05 -3.41033e-05 -5.9608e-08
-6.13988e-07 -5.9608e-08 -6.00932e-05
0.000459728 -7.86578e-06 -3.6695e-06
-7.86578e-06 6.40899e-05 4.89587e-06
-3.6695e-06 4.89587e-06 -1.49834e-05
0.000385999 -1.85865e-05 -3.97019e-06
-1.85865e-05 -1.79051e-05 5.88496e-06
-3.97019e-06 5.88496e-06 -4.58106e-05
0.00252502 3.61289e-05 -6.42058e-06
3.61289e-05 0.00140894 -1.83948e-07
-6.42058e-06 -1.83948e-07 0.00141807
0.00272237 5.39368e-05 -2.88005e-07
5.39368e-05 0.00154362 7.26774e-06
-2.88005e-07 7.26774e-06 0.00154889
0.00571618 -0.000310907 -0.000545601
-0.000310907 0.0144835 0.000101342
-0.000545601 0.000101342 0.00559072
0.00979825 0.00802321 -0.000533156
0.00802321 0.00837941 0.000218698
-0.000533156 0.000218698 -0.0028159
0.0104503 -0.00363707 -0.000553238
-0.00363707 0.00353302 0.000363865
-0.000553238 0.000363865 -0.00263761
0.0188959 0.0104058 0.00175438
0.0104058 0.018784 7.47282e-05
0.00175438 7.47282e-05 0.00304988
0.00645452 0.000949818 0.000119224
0.000949818 -0.00259357 3.67565e-05
0.000119224 3.67565e-05 0.00105356
0.00243323 -0.00108533 0.000134792
-0.00108533 -0.00210369 -7.15968e-06
0.000134792 -7.15968e-06 -0.000771186
0.00291539 -0.00147026 0.000698084
-0.00147026 -0.0143419 -5.0068e-05
0.000698084 -5.0068e-05 -0.00969633
0.0218845 0.00993123 -0.00284977
0.00993123 0.0169289 -0.000551122
-0.00284977 -0.000551122 0.00510558
0.0422897 0.0314913 -0.0019359
0.0314913 0.0309265 0.001897
-0.0019359 0.001897 0.00772465
0.00603207 -0.00200799 9.25651e-05
-0.00200799 -0.00321809 -1.68611e-05
9.25651e-05 -1.68611e-05 0.000299405
0.00866046 -0.00813703 0.000496604
-0.00813703 -0.00937905 -0.000260981
0.000496604 -0.000260981 -0.00539507
0.0351509 0.0118134 -0.000779126
0.0118134 0.0198713 -0.000513367
-0.000779126 -0.000513367 0.00459423
0.0296574 0.00672018 0.000655341
0.00672018 0.0156414 0.00064915
0.000655341 0.00064915 0.00502342
0.00320466 -0.00478094 -9.37561e-05
-0.00478094 -0.00512231 0.000158769
-9.37561e-05 0.000158769 -0.000842125
-0.00111856 -0.0117899 0.0014661
-0.0117899 -0.00562846 -0.000361552
0.0014661 -0.000361552 -0.00472191
0.0204816 0.0046184 -0.00101121
0.0046184 0.0121068 -0.00157354
-0.00101121 -0.00157354 -0.000503989
0.0134007 -0.00188912 -0.000333859
-0.00188912 0.00340128 5.06138e-05
-0.000333859 5.06138e-05 -0.000520667
0.00132359 4.1814e-05 6.76313e-06
4.1814e-05 0.000820276 1.53346e-05
6.76313e-06 1.53346e-05 0.000500068
7.01611e-05 -5.19504e-06 -5.30679e-07
-5.19504e-06 -4.98982e-05 -5.58345e-07
-5.30679e-07 -5.58345e-07 -0.000250066
0.000217325 0.000108048 -2.37062e-06
0.000108048 -4.6614e-05 -6.98911e-07
-2.37062e-06 -6.98911e-07 -0.00020102
-0.000692683 -9.85285e-05 -1.31203e-05
-9.85285e-05 -0.000629038 7.12453e-07
-1.31203e-05 7.12453e-07 -0.000668524
0.000445209 0.00019561 6.32577e-06
0.00019561 0.000149146 2.1698e-05
6.32577e-06 2.1698e-05 -0.000105251
0.000658903 0.000155586 -1.57545e-06
0.000155586 0.000335437 -1.89326e-06
-1.57545e-06 -1.89326e-06 8.76856e-05
-8.40511e-05 -4.95117e-05 2.0947e-06
-4.95117e-05 -0.00018056 -3.66418e-06
2.0947e-06 -3.66418e-06 -0.000351686
0.00111425 0.000265349 1.28757e-05
0.000265349 0.000648272 6.60466e-06
1.28757e-05 6.60466e-06 0.000334762
0.000931731 0.00025395 -1.06695e-06
0.00025395 0.000512255 -3.13465e-06
-1.06695e-06 -3.13465e-06 0.000222958
0.000437247 8.1623e-05 -4.05333e-06
8.1623e-05 0.000154318 -3.00481e-06
-4.05333e-06 -3.00481e-06 -6.74813e-05
0.00316373 -0.00149139 0.000177436
-0.00149139 -0.000967387 -0.000105029
0.000177436 -0.000105029 3.13009e-05
0.00108298 -0.00137406 -1.17416e-05
-0.00137406 -0.000686885 -1.25257e-05
-1.17416e-05 -1.25257e-05 -0.000792549
0.0027623 -0.00186735 9.55406e-06
-0.00186735 0.000696995 2.67878e-05
9.55406e-06 2.67878e-05 -0.000100622
0.000143047 -0.0013532 2.07364e-05
-0.0013532 -0.000210866 1.52304e-06
2.07364e-05 1.52304e-06 -0.000770714
0.0043352 -0.000725585 -5.27721e-05
-0.000725585 0.00295531 9.51538e-05
-5.27721e-05 9.51538e-05 0.00236318
0.000744506 -0.000305836 -1.31149e-05
-0.000305836 0.000731187 -2.76373e-05
-1.31149e-05 -2.76373e-05 0.000314463
0.00146934 0.000106064 -9.22941e-06
0.000106064 0.00107052 -1.28558e-05
-9.22941e-06 -1.28558e-05 0.000653781
0.000948732 0.000101069 -8.58872e-06
0.000101069 0.000645188 -1.27868e-06
-8.58872e-06 -1.27868e-06 0.000298096
0.00382394 -0.00255632 -5.12715e-05
-0.00255632 -0.000453049 1.02688e-05
-5.12715e-05 1.02688e-05 0.000302915
0.00131232 -0.000172288 -3.97039e-06
-0.000172288 0.00107452 8.36046e-06
-3.97039e-06 8.36046e-06 0.000605013
0.000852219 -0.000321508 1.53956e-05
-0.000321508 0.000813605 -7.13022e-06
1.53956e-05 -7.13022e-06 0.000336052
0.00135375 -0.00160727 2.48164e-05
-0.00160727 5.44362e-05 -5.94878e-06
2.48164e-05 -5.94878e-06 -0.000514209
0.000179357 -0.000839252 -5.87212e-06
-0.000839252 0.00045002 6.36186e-06
-5.87212e-06 6.36186e-06 -0.000152758
0.00087247 -0.00328611 -2.30063e-05
-0.00328611 -0.000432419 8.32169e-06
-2.30063e-05 8.32169e-06 -0.00114881
0.000614296 -0.0012139 -1.15911e-05
-0.0012139 0.000695728 9.58435e-06
-1.15911e-05 9.58435e-06 4.49071e-05
-0.00110809 -0.000227622 -1.45512e-05
-0.000227622 0.000149764 -1.63627e-05
-1.45512e-05 -1.63627e-05 -0.000666536
0.000847616 0.00011478 2.10629e-05
0.00011478 0.000696033 -4.84634e-06
2.10629e-05 -4.84634e-06 0.000380457
-0.000445222 -0.000121209 5.92502e-06
-0.000121209 0.000104049 1.06938e-05
5.92502e-06 1.06938e-05 -0.000384843
0.00352957 0.000224646 -0.000243159
0.000224646 0.00228854 -9.73614e-05
-0.000243159 -9.73614e-05 -0.00273517
-0.00569248 0.000804643 -0.00134722
0.000804643 0.00771423 5.68504e-05
-0.00134722 5.68504e-05 0.000969252
-0.00559888 -0.00478064 -0.00246389
-0.00478064 0.00426334 0.000188364
-0.00246389 0.000188364 -0.00648277
-1.50388e-05 0.000709946 2.56971e-05
0.000709946 0.000136224 -1.3436e-05
2.56971e-05 -1.3436e-05 -0.00049034
0.0019689 0.0015777 1.18496e-05
0.0015777 0.00102888 1.24238e-05
1.18496e-05 1.24238e-05 0.000111346
0.00613727 0.00311518 9.8297e-05
0.00311518 0.0022136 9.50857e-05
9.8297e-05 9.50857e-05 0.00129182
0.00231317 -0.00222201 0.000294142
-0.00222201 0.0138133 9.71766e-05
0.000294142 9.71766e-05 0.00345334
-0.000380995 0.0123868 -0.00140665
0.0123868 -0.00694431 -0.000258953
-0.00140665 -0.000258953 -0.00501032
0.00107627 0.00628318 0.000653279
0.00628318 -0.000776074 0.000386068
0.000653279 0.000386068 -0.000455493
-0.000193612 0.00225921 -8.05687e-06
0.00225921 0.000349256 -6.09084e-05
-8.05687e-06 -6.09084e-05 -8.52751e-05
0.0359339 -0.00867907 0.000453635
-0.00867907 0.0187071 -0.000870151
0.000453635 -0.000870151 0.00579123
0.0113753 0.00708027 0.0017543
0.00708027 0.00434024 0.000471661
0.0017543 0.000471661 -0.00413597
0.0159504 -0.000634092 -4.91854e-05
-0.000634092 0.00476892 9.00383e-05
-4.91854e-05 9.00383e-05 0.00380429
0.0024782 0.00153806 8.46114e-06
0.00153806 0.00152392 5.92173e-07
8.46114e-06 5.92173e-07 0.000670831
0.0041648 0.00312082 -0.000225903
0.00312082 0.00594234 -6.93014e-05
-0.000225903 -6.93014e-05 -0.000924742
0.00531792 0.000964355 0.000228694
0.000964355 0.00315701 -2.68163e-05
0.000228694 -2.68163e-05 -0.00126761
0.000615718 0.00165693 -3.84087e-05
0.00165693 0.000784762 -1.41875e-05
-3.84087e-05 -1.41875e-05 -0.000202378
-0.00163272 0.00396598 -0.000200928
0.00396598 0.000645312 -0.000164766
-0.000200928 -0.000164766 -0.0012982
0.00344033 0.0123285 0.000778297
0.0123285 0.00319835 0.000291019
0.000778297 0.000291019 -0.0031155
0.0160671 -0.00116945 4.66896e-05
-0.00116945 -0.000768068 -0.000202776
4.66896e-05 -0.000202776 -0.00144587
0.0114728 -0.004809 -9.59242e-05
-0.004809 0.00808098 -0.000299856
-9.59242e-05 -0.000299856 -0.00218928
0.00183341 0.00127218 -9.40814e-07
0.00127218 0.00164123 -1.24405e-05
-9.40814e-07 -1.24405e-05 0.000697691
-0.00226821 0.00153593 0.000205814
0.00153593 0.00430957 0.000106268
0.000205814 0.000106268 -0.00158835
0.0102563 -0.00223345 0.000721612
-0.00223345 0.00127227 3.61713e-05
0.000721612 3.61713e-05 -0.00210314
0.0139924 -0.00218272 0.00037049
-0.00218272 0.00324605 -3.45974e-05
0.00037049 -3.45974e-05 -0.000310886
-0.00308755 0.00116292 7.41113e-05
0.00116292 0.00109285 -7.49312e-06
7.41113e-05 -7.49312e-06 -0.000700743
0.00600989 0.00531681 0.000598001
0.00531681 0.00721802 0.000350111
0.000598001 0.000350111 -0.00147663
0.0157039 -0.00137589 -0.000100238
-0.00137589 0.00439405 0.000441341
-0.000100238 0.000441341 -0.000693439
0.000940968 0.000507238 1.11347e-05
0.000507238 0.000903065 7.23298e-06
1.11347e-05 7.23298e-06 0.000364591
0.000361134 0.000517777 -8.79115e-06
0.000517777 0.000658875 -2.05558e-06
-8.79115e-06 -2.05558e-06 -2.19536e-05
-0.000559646 0.00022449 2.42303e-05
0.00022449 0.000455652 -5.24545e-06
2.42303e-05 -5.24545e-06 -0.000461899
-0.000745838 -1.00699e-05 7.9951e-06
-1.00699e-05 -0.000562438 6.89789e-06
7.9951e-06 6.89789e-06 -0.000794993
0.000688706 0.000114075 5.68993e-06
0.000114075 0.000583587 -3.98624e-06
5.68993e-06 -3.98624e-06 0.000242462
-0.000195671 4.54412e-05 -1.27857e-06
4.54412e-05 0.000509502 -7.19521e-07
-1.27857e-06 -7.19521e-07 -0.000177411
-0.000141933 -8.69109e-05 -1.37416e-06
-8.69109e-05 9.37556e-05 -1.32431e-07
-1.37416e-06 -1.32431e-07 -0.000296615
0.000125199 -7.13995e-05 -2.06685e-06
-7.13995e-05 0.000614417 -1.2399e-06
-2.06685e-06 -1.2399e-06 2.10324e-05
-0.00036242 2.5537e-05 3.80252e-06
2.5537e-05 0.000526112 6.07089e-07
3.80252e-06 6.07089e-07 -0.000172847
0.000377011 -0.000222327 -1.11969e-05
-0.000222327 0.000905374 1.89084e-05
-1.11969e-05 1.89084e-05 0.000294465
0.000915932 -0.000117588 8.34068e-07
-0.000117588 0.00101658 -6.84998e-06
8.34068e-07 -6.84998e-06 0.00054485
-0.000704218 4.06347e-06 2.15466e-05
4.06347e-06 -0.000304041 -9.10619e-06
2.15466e-05 -9.10619e-06 -0.000596499
-0.000536275 -0.000235629 -1.1738e-05
-0.000235629 -0.000581833 1.05043e-05
-1.1738e-05 1.05043e-05 -0.00069988
-0.00254128 -0.000101366 6.2183e-06
-0.000101366 -0.00147008 -1.00767e-05
6.2183e-06 -1.00767e-05 -0.00163959
0.000552755 -9.62571e-05 1.46198e-06
-9.62571e-05 0.000740118 2.86412e-06
1.46198e-06 2.86412e-06 0.000329388
-0.000872604 -6.73537e-05 -2.078e-05
-6.73537e-05 -0.000345901 2.13231e-06
-2.078e-05 2.13231e-06 -0.000900007
0.00332466 -0.000962521 -2.51029e-06
-0.000962521 0.00207347 1.18427e-05
-2.51029e-06 1.18427e-05 0.00144002
0.00179737 -0.000627523 1.27691e-05
-0.000627523 0.00106625 -4.16609e-07
1.27691e-05 -4.16609e-07 0.000637432
0.00120433 -0.000689864 1.00694e-05
-0.000689864 0.000391464 2.62768e-05
1.00694e-05 2.62768e-05 -6.5135e-05
0.00106828 -0.000284577 -1.0528e-05
-0.000284577 0.000516667 2.44491e-06
-1.0528e-05 2.44491e-06 0.000231726
0.00101776 -0.000554858 -6.30039e-06
-0.000554858 0.000380566 3.33457e-06
-6.30039e-06 3.33457e-06 -4.07316e-05
0.00290682 -0.00124161 -1.69221e-05
-0.00124161 0.0013875 1.42793e-05
-1.69221e-05 1.42793e-05 0.000593257
0.00234838 -0.00135101 3.37369e-06
-0.00135101 0.000940878 -6.03166e-06
3.37369e-06 -6.03166e-06 7.7415e-05
0.00180488 -0.000683533 1.40582e-05
-0.000683533 0.000723309 -3.42885e-06
1.40582e-05 -3.42885e-06 0.000257097
0.00175376 -0.00103837 1.21142e-06
-0.00103837 0.000751254 -3.8532e-07
1.21142e-06 -3.8532e-07 4.14301e-05
0.00250525 -0.000419707 8.52908e-06
-0.000419707 0.00143986 -1.51172e-05
8.52908e-06 -1.51172e-05 0.00100549
0.00147519 -0.0003985 -5.00428e-06
-0.0003985 0.000607293 3.296e-06
-5.00428e-06 3.296e-06 0.000262103
0.000783852 -0.00050844 5.94463e-06
-0.00050844 0.000180555 -1.97362e-05
5.94463e-06 -1.97362e-05 -0.000195761
0.00365427 -0.000405265 -7.64153e-06
-0.000405265 0.00224414 1.0143e-05
-7.64153e-06 1.0143e-05 0.00187237
-0.000370583 -0.000515337 3.11815e-06
-0.000515337 -0.000269808 -4.79321e-06
3.11815e-06 -4.79321e-06 -0.000732634
0.00095203 -0.000147979 1.86154e-05
-0.000147979 0.00049633 6.93567e-06
1.86154e-05 6.93567e-06 8.80794e-05
0.00248538 -0.00103383 -2.22199e-05
-0.00103383 0.00145629 2.29892e-05
-2.22199e-05 2.29892e-05 0.00112068
0.00139814 -0.00034218 1.07744e-07
-0.00034218 0.000788603 -7.85104e-07
1.07744e-07 -7.85104e-07 0.000458058
-0.000194439 -0.000158265 1.01054e-05
-0.000158265 -0.000337785 1.85723e-05
1.01054e-05 1.85723e-05 -0.000558571
0.00226376 -0.0002516 -1.07641e-05
-0.0002516 0.00144785 -7.11778e-06
-1.07641e-05 -7.11778e-06 0.00114959
0.000262599 -0.000101503 -2.70399e-06
-0.000101503 -3.65223e-05 -7.63914e-07
-2.70399e-06 -7.63914e-07 -0.000195252
0.00167588 -6.06602e-05 -3.02171e-05
-6.06602e-05 0.000844606 8.74148e-06
-3.02171e-05 8.74148e-06 0.000800187
0.000580647 -0.000120351 -2.22191e-06
-0.000120351 0.000164978 -5.59865e-07
-2.22191e-06 -5.59865e-07 3.59932e-05
0.000890949 -4.56297e-05 -1.6991e-05
-4.56297e-05 0.000326907 1.1039e-06
-1.6991e-05 1.1039e-06 0.000282662
0.000779162 2.44183e-05 4.52194e-06
2.44183e-05 0.000227887 3.51666e-06
4.52194e-06 3.51666e-06 0.000218477
0.00041101 -5.8778e-05 3.46454e-06
-5.8778e-05 1.36828e-05 -6.81601e-06
3.46454e-06 -6.81601e-06 -2.83942e-05
0.00186137 2.08265e-05 2.4597e-05
2.08265e-05 0.000958146 -1.69608e-06
2.4597e-05 -1.69608e-06 0.000963413
0.00264291 3.95438e-06 3.49037e-05
3.95438e-06 0.00148228 -6.25656e-06
3.49037e-05 -6.25656e-06 0.00149473
0.000188861 3.96733e-05 3.16606e-06
3.96733e-05 -3.38051e-05 8.14342e-07
3.16606e-06 8.14342e-07 -0.000292211
-0.000139012 3.92492e-05 1.37321e-06
3.92492e-05 -0.000321847 -8.16259e-06
1.37321e-06 -8.16259e-06 -0.00044472
0.000626674 8.02374e-05 3.73809e-07
8.02374e-05 0.000250893 1.46022e-06
3.73809e-07 1.46022e-06 3.91232e-05
0.000354678 1.8157e-05 4.65454e-06
1.8157e-05 -3.49627e-05 -7.21837e-06
4.65454e-06 -7.21837e-06 -6.97894e-05
0.000213668 9.18316e-06 1.54937e-06
9.18316e-06 -8.79269e-05 2.68566e-07
1.54937e-06 2.68566e-07 -0.000191433
0.000317302 -0.000139911 -8.8915e-07
-0.000139911 4.77814e-05 4.3634e-06
-8.8915e-07 4.3634e-06 -0.000140358
0.00256386 3.22685e-06 -2.09383e-05
3.22685e-06 0.00143304 -7.05296e-06
-2.09383e-05 -7.05296e-06 0.00144384
0.000349874 1.30887e-05 1.95973e-06
1.30887e-05 -3.9124e-05 -1.46721e-07
1.95973e-06 -1.46721e-07 -6.79841e-05
0.000346812 -1.82016e-05 -6.98338e-06
-1.82016e-05 1.10993e-06 5.66111e-06
-6.98338e-06 5.66111e-06 -8.923e-05
0.00243709 1.80385e-05 -6.92414e-06
1.80385e-05 0.00134861 -4.884e-08
-6.92414e-06 -4.884e-08 0.00135969
0.000342023 -1.04433e-05 -4.93102e-06
-1.04433e-05 -4.49508e-05 5.66145e-06
-4.93102e-06 5.66145e-06 -7.06781e-05
0.00250029 4.11099e-05 1.59987e-05
4.11099e-05 0.00139366 7.72559e-06
1.59987e-05 7.72559e-06 0.00140234
-0.00270177 -0.00306554 -0.000328679
-0.00306554 2.46879e-05 0.000148048
-0.000328679 0.000148048 -0.00570557
0.00892252 0.00644846 -0.000579584
0.00644846 0.0174818 5.70806e-05
-0.000579584 5.70806e-05 0.0052727
0.0123604 0.00425017 -0.00265339
0.00425017 0.00926999 0.000214117
-0.00265339 0.000214117 0.00355303
0.000249543 0.000103758 8.70892e-06
0.000103758 4.9459e-05 1.70277e-06
8.70892e-06 1.70277e-06 -0.000245672
0.0102811 -0.00280831 -0.000319683
-0.00280831 0.00749226 0.000404513
-0.000319683 0.000404513 0.00275815
0.00683626 -0.00248753 -0.000216673
-0.00248753 0.00358651 3.1882e-05
-0.000216673 3.1882e-05 -0.00251309
0.0317733 0.0184414 -6.86587e-05
0.0184414 0.022524 -0.00084685
-6.86587e-05 -0.00084685 0.00270984
0.00605816 -0.00318921 0.000225199
-0.00318921 -0.00387804 -6.69663e-05
0.000225199 -6.69663e-05 -0.000323757
0.0109536 -0.00675568 0.000448601
-0.00675568 -0.00632877 -0.000368791
0.000448601 -0.000368791 -0.00171933
0.02504 0.0092308 -0.00125271
0.0092308 0.0143872 9.69391e-05
-0.00125271 9.69391e-05 0.000496151
0.0232203 0.00629923 0.000918536
0.00629923 0.0168577 0.000510944
0.000918536 0.000510944 0.00897783
0.00728436 -0.0058182 -9.44463e-05
-0.0058182 -0.00264146 6.50717e-06
-9.44463e-05 6.50717e-06 0.000533799
0.0103151 -0.0118303 7.5452e-05
-0.0118303 -0.00108128 -0.000119769
7.5452e-05 -0.000119769 -0.00133278
0.0183501 0.00206665 3.04107e-05
0.00206665 0.0141527 -0.000665273
3.04107e-05 -0.000665273 0.00211333
0.0197948 0.00141685 -5.31012e-05
0.00141685 0.0059758 0.00010879
-5.31012e-05 0.00010879 0.000242828
0.00512142 -0.00797571 1.13462e-05
-0.00797571 0.000241322 4.38632e-05
1.13462e-05 4.38632e-05 0.0011617
0.00643967 -0.0101399 0.000520323
-0.0101399 0.00457847 -0.000295916
0.000520323 -0.000295916 -0.000394246
0.00957085 0.00123552 -0.000256128
0.00123552 0.00883062 -0.000460414
-0.000256128 -0.000460414 0.00149083
0.0199292 -0.00121709 -0.00036403
-0.00121709 0.00249638 0.000349912
-0.00036403 0.000349912 0.000703562
-0.000162955 0.00034444 2.77306e-05
0.00034444 -0.00015792 2.74092e-05
2.77306e-05 2.74092e-05 -0.000400812
0.000453129 -0.000113664 -2.36909e-06
-0.000113664 0.000256289 -3.985e-06
-2.36909e-06 -3.985e-06 -3.13978e-05
-0.000712917 -7.04309e-05 2.61195e-06
-7.04309e-05 -0.000630738 -4.19638e-07
2.61195e-06 -4.19638e-07 -0.000772801
0.000884927 0.000237208 1.94889e-05
0.000237208 0.000417741 2.10656e-05
1.94889e-05 2.10656e-05 0.000165059
0.00107519 0.00029564 -5.78108e-06
0.00029564 0.000634101 -5.50855e-06
-5.78108e-06 -5.50855e-06 0.000322082
0.000668839 0.000142013 3.1491e-06
0.000142013 0.000355479 -3.9471e-06
3.1491e-06 -3.9471e-06 0.000101668
0.00148 0.000276241 -1.93204e-06
0.000276241 0.000908931 3.3032e-07
-1.93204e-06 3.3032e-07 0.000576316
0.00120928 0.000245676 -4.08907e-07
0.000245676 0.000721554 4.41494e-06
-4.08907e-07 4.41494e-06 0.000416105
0.00407695 -0.00249568 0.000200912
-0.00249568 -0.000367218 -0.000128603
0.000200912 -0.000128603 0.0005386
-0.00186209 -0.00115615 -1.39395e-05
-0.00115615 -0.00178939 -1.09213e-05
-1.39395e-05 -1.09213e-05 -0.00212924
-0.00116826 9.37042e-05 -1.57739e-05
9.37042e-05 -0.000802025 -8.59365e-06
-1.57739e-05 -8.59365e-06 -0.00103323
-7.54326e-05 -0.000717012 2.04664e-05
-0.000717012 0.00015655 -7.02177e-06
2.04664e-05 -7.02177e-06 -0.000314892
0.00154911 -0.000475433 -4.70906e-05
-0.000475433 0.00116381 4.65817e-07
-4.70906e-05 4.65817e-07 0.000684787
0.00036533 -5.04506e-05 -9.70295e-07
-5.04506e-05 0.000459832 -2.57601e-05
-9.70295e-07 -2.57601e-05 -2.74043e-05
-0.00083018 0.000203638 2.93073e-06
0.000203638 -0.000406397 1.59415e-05
2.93073e-06 1.59415e-05 -0.000721781
0.00190611 -0.00340685 -3.42363e-05
-0.00340685 -7.12059e-05 -4.83245e-06
-3.42363e-05 -4.83245e-06 -0.000757168
0.000999941 -0.000242131 -4.48324e-06
-0.000242131 0.000974744 1.07563e-05
-4.48324e-06 1.07563e-05 0.000470211
-0.000625867 -0.00018913 4.13186e-07
-0.00018913 0.000237814 7.89927e-06
4.13186e-07 7.89927e-06 -0.000432873
-0.000967032 -0.000985879 1.21638e-05
-0.000985879 -0.00035313 1.82344e-06
1.21638e-05 1.82344e-06 -0.000819775
-0.00133934 -8.80687e-05 2.54473e-05
-8.80687e-05 -0.000621358 4.01526e-06
2.54473e-05 4.01526e-06 -0.000980586
0.00301327 -0.0034431 -0.000106173
-0.0034431 0.0026248 -9.34759e-06
-0.000106173 -9.34759e-06 0.000846911
-0.000905909 -0.000874367 2.24332e-05
-0.000874367 0.000105367 -2.79206e-05
2.24332e-05 -2.79206e-05 -0.000628657
0.000368657 -2.49091e-05 8.7757e-06
-2.49091e-05 0.000957659 -3.01414e-05
8.7757e-06 -3.01414e-05 0.000150318
-0.000964436 -0.000186562 3.60755e-05
-0.000186562 3.88539e-05 1.83186e-05
3.60755e-05 1.83186e-05 -0.00073743
0.00237315 -0.000679365 0.000511132
-0.000679365 0.00819131 0.000109734
0.000511132 0.000109734 0.00185188
-0.000373246 5.65878e-06 0.00017465
5.65878e-06 0.000967729 8.35793e-06
0.00017465 8.35793e-06 -0.00399132
-0.0112319 -0.000903537 -0.00168266
-0.000903537 0.00527055 1.54594e-05
-0.00168266 1.54594e-05 0.000712757
0.00225571 0.00139799 3.10321e-05
0.00139799 0.00142802 3.98519e-06
3.10321e-05 3.98519e-06 0.000649343
-0.000449067 0.00191972 3.46458e-05
0.00191972 0.000274447 2.0754e-05
3.46458e-05 2.0754e-05 -0.00092647
0.0050083 0.003666 0.000990786
0.003666 0.0057531 0.000229295
0.000990786 0.000229295 -0.00115149
0.0012918 0.00684464 0.000222487
0.00684464 0.00347603 0.000307657
0.000222487 0.000307657 -0.000572064
0.000298634 0.00559229 -0.000356102
0.00559229 0.00191651 -0.000293595
-0.000356102 -0.000293595 -0.00116418
0.0116431 -0.00128727 -0.000167286
-0.00128727 0.00882579 -0.000556359
-0.000167286 -0.000556359 0.00129008
0.0061012 0.000146558 -6.1114e-05
0.000146558 0.00418948 6.52001e-05
-6.1114e-05 6.52001e-05 2.76662e-06
0.0121367 -0.000222823 -4.69404e-05
-0.000222823 -0.00284675 -0.00033608
-4.69404e-05 -0.00033608 -0.00388041
0.000937694 0.00135768 7.07394e-06
0.00135768 0.00107254 -4.1969e-07
7.07394e-06 -4.1969e-07 2.99965e-05
-0.000826222 0.00109413 3.17703e-05
0.00109413 0.00458808 -1.34454e-05
3.17703e-05 -1.34454e-05 -0.00137832
0.00939629 -0.000754819 0.000393171
-0.000754819 0.00122193 7.05514e-06
0.000393171 7.05514e-06 -0.00273253
-0.00234151 0.00159208 -3.91455e-05
0.00159208 0.000620345 -2.19816e-05
-3.91455e-05 -2.19816e-05 -0.00108549
0.0211254 0.00187712 4.23491e-05
0.00187712 0.00591056 -0.000132187
4.23491e-05 -0.000132187 4.89178e-05
0.00368088 0.00385161 0.000499016
0.00385161 0.00733121 0.000341096
0.000499016 0.000341096 -0.00102023
0.016597 0.00081421 -0.000280969
0.00081421 0.00622091 -3.95717e-05
-0.000280969 -3.95717e-05 -0.000398628
-0.000124945 0.00105857 1.05191e-05
0.00105857 0.000883629 -1.1284e-05
1.05191e-05 -1.1284e-05 -0.000360536
0.00681557 -2.97869e-05 0.000302387
-2.97869e-05 0.00465147 0.000108282
0.000302387 0.000108282 0.00013311
0.00387469 -0.00523361 0.000498296
-0.00523361 0.0056635 -0.000251428
0.000498296 -0.000251428 0.00181058
0.040873 0.00905839 0.000785418
0.00905839 0.0203408 -0.000498021
0.000785418 -0.000498021 0.00808213
0.0127868 -3.25624e-05 3.82466e-05
-3.25624e-05 0.010411 0.000655946
3.82466e-05 0.000655946 0.00289697
-0.00221822 0.00131235 -0.000198748
0.00131235 0.00176737 -0.000145416
-0.000198748 -0.000145416 -0.000207341
0.0018495 -0.000526066 0.00017525
-0.000526066 0.00637562 -9.8081e-05
0.00017525 -9.8081e-05 -0.00453484
0.000628517 0.000634231 -1.98074e-06
0.000634231 0.000765485 7.85944e-06
-1.98074e-06 7.85944e-06 5.17627e-05
0.000500619 0.000353328 -5.1355e-07
0.000353328 0.00109725 4.96577e-06
-5.1355e-07 4.96577e-06 0.000245498
0.000843772 -0.000125368 -3.16274e-05
-0.000125368 0.00173455 1.97199e-05
-3.16274e-05 1.97199e-05 0.00091957
-0.00118162 8.37382e-05 1.90272e-05
8.37382e-05 -0.000608031 -4.75606e-06
1.90272e-05 -4.75606e-06 -0.000973281
-0.000760686 1.17467e-05 9.79669e-06
1.17467e-05 0.000121749 6.57334e-06
9.79669e-06 6.57334e-06 -0.000504893
2.86065e-05 5.44158e-05 -1.42144e-05
5.44158e-05 0.000762782 -3.31787e-06
-1.42144e-05 -3.31787e-06 6.40545e-05
0.000175942 -3.16906e-05 -8.25973e-06
-3.16906e-05 0.000535705 2.03645e-06
-8.25973e-06 2.03645e-06 8.41049e-05
-7.14852e-06 -0.000175056 2.45538e-06
-0.000175056 0.000722306 2.46435e-06
2.45538e-06 2.46435e-06 8.79019e-05
0.00357893 -0.000821177 1.79912e-05
-0.000821177 0.00248573 -7.8649e-06
1.79912e-05 -7.8649e-06 0.00195897
0.000244389 -6.73335e-05 -1.92375e-06
-6.73335e-05 0.000507079 -8.44654e-06
-1.92375e-06 -8.44654e-06 0.000105345
-0.00549711 0.000133311 3.96985e-06
0.000133311 -0.00298905 1.54425e-06
3.96985e-06 1.54425e-06 -0.00366861
0.00108533 -0.000692541 8.42733e-07
-0.000692541 0.000861268 8.49444e-06
8.42733e-07 8.49444e-06 0.000118747
-0.00147693 -0.00033478 2.47318e-05
-0.00033478 -0.000928314 2.54908e-05
2.47318e-05 2.54908e-05 -0.00144134
-0.000398733 -0.000343027 -1.00739e-05
-0.000343027 -0.000229125 -2.91613e-05
-1.00739e-05 -2.91613e-05 -0.000535164
0.000223442 -0.000650629 -1.20599e-05
-0.000650629 -0.00018007 -4.42002e-06
-1.20599e-05 -4.42002e-06 -0.000621201
0.00229807 -0.00127692 -2.13563e-05
-0.00127692 0.000987394 8.22803e-06
-2.13563e-05 8.22803e-06 4.45757e-05
0.00257524 -0.001534 -1.73767e-05
-0.001534 0.000984271 3.51216e-06
-1.73767e-05 3.51216e-06 3.85339e-05
0.00228742 -0.000682865 -4.83146e-06
-0.000682865 0.00114017 -1.08693e-05
-4.83146e-06 -1.08693e-05 0.000711282
0.00238908 -0.0011852 -7.22178e-07
-0.0011852 0.00105172 1.76176e-06
-7.22178e-07 1.76176e-06 0.000261764
0.00237969 -0.00142513 1.2001e-05
-0.00142513 0.00087737 -9.39456e-06
1.2001e-05 -9.39456e-06 3.36801e-06
0.00233485 -0.00106547 8.95014e-06
-0.00106547 0.00106241 -5.35069e-06
8.95014e-06 -5.35069e-06 0.000342171
0.00173554 -0.00126447 4.65982e-06
-0.00126447 0.000568061 -2.21234e-06
4.65982e-06 -2.21234e-06 -0.000271
0.00333789 -0.000474708 -7.50689e-07
-0.000474708 0.00176661 -9.27685e-06
-7.50689e-07 -9.27685e-06 0.00141598
0.000352887 -0.000561789 4.44222e-07
-0.000561789 -0.000172107 -1.60475e-07
4.44222e-07 -1.60475e-07 -0.0006452
0.000940026 -0.000886376 -2.30803e-06
-0.000886376 0.000254793 -6.8463e-06
-2.30803e-06 -6.8463e-06 -0.000400116
0.000106113 -0.000251238 9.74007e-06
-0.000251238 -1.20268e-05 8.1622e-07
9.74007e-06 8.1622e-07 -0.000498278
0.000635443 -0.000389453 -7.11732e-07
-0.000389453 0.000325935 -1.45911e-06
-7.11732e-07 -1.45911e-06 -0.00015194
-0.000481564 -0.000248725 -8.59563e-06
-0.000248725 -0.000549154 -5.39721e-07
-8.59563e-06 -5.39721e-07 -0.000906572
0.00100426 -0.000668185 -1.94835e-05
-0.000668185 0.000543103 2.78655e-05
-1.94835e-05 2.78655e-05 8.46811e-05
0.00121954 -0.000423013 1.59681e-06
-0.000423013 0.000636474 1.04424e-06
1.59681e-06 1.04424e-06 0.00022882
-0.000480022 -0.000148473 9.25617e-06
-0.000148473 -0.00049523 1.57733e-05
9.25617e-06 1.57733e-05 -0.000818069
0.000534459 -0.000586505 -1.58794e-05
-0.000586505 0.000252919 -8.82009e-06
-1.58794e-05 -8.82009e-06 -0.000114928
0.000380587 -0.000116861 -1.81577e-06
-0.000116861 4.49273e-05 -3.28253e-07
-1.81577e-06 -3.28253e-07 -0.000186079
0.000358746 1.24463e-05 2.6191e-06
1.24463e-05 -3.45985e-05 1.47575e-05
2.6191e-06 1.47575e-05 -0.000102316
0.00198044 -0.000254196 -7.81639e-06
-0.000254196 0.00108973 -6.68912e-06
-7.81639e-06 -6.68912e-06 0.00091302
0.000461878 -6.62019e-05 -2.68058e-06
-6.62019e-05 2.5728e-05 4.42583e-07
-2.68058e-06 4.42583e-07 -2.6966e-05
0.00298205 0.000101364 8.58306e-06
0.000101364 0.00171194 4.58174e-06
8.58306e-06 4.58174e-06 0.00170813
0.000461855 -7.39248e-05 2.34562e-06
-7.39248e-05 3.80058e-05 -7.2702e-06
2.34562e-06 -7.2702e-06 -1.23463e-05
0.00194798 3.19172e-05 3.23127e-05
3.19172e-05 0.00101602 -1.96845e-06
3.23127e-05 -1.96845e-06 0.00101656
0.00300856 1.69272e-05 4.82402e-05
1.69272e-05 0.0017254 -7.51936e-06
4.82402e-05 -7.51936e-06 0.00173611
-0.000365945 0.000113375 2.64277e-06
0.000113375 -0.000406128 7.8169e-06
2.64277e-06 7.8169e-06 -0.000671001
-0.000201579 6.10287e-05 3.16797e-06
6.10287e-05 -0.000353186 -9.02383e-06
3.16797e-06 -9.02383e-06 -0.000515896
0.000176323 0.00015275 -1.03966e-06
0.00015275 -2.39477e-05 1.1209e-06
-1.03966e-06 1.1209e-06 -0.000288145
0.000387746 2.92313e-05 3.46193e-06
2.92313e-05 -1.42898e-05 -8.3718e-06
3.46193e-06 -8.3718e-06 -5.5151e-05
-0.000109065 4.36293e-05 -1.02861e-06
4.36293e-05 -0.000300928 -2.92989e-06
-1.02861e-06 -2.92989e-06 -0.000426711
0.00103838 0.000127402 -1.47987e-06
0.000127402 0.000566959 5.25212e-06
-1.47987e-06 5.25212e-06 0.000323773
0.0027839 -1.19346e-05 -2.97959e-05
-1.19346e-05 0.00158081 -7.47958e-06
-2.97959e-05 -7.47958e-06 0.00159003
0.000363395 2.03986e-05 -2.63627e-07
2.03986e-05 -3.0168e-05 -2.59006e-07
-2.63627e-07 -2.59006e-07 -6.4307e-05
-0.000218243 2.76637e-05 -1.02041e-06
2.76637e-05 -0.000378826 6.16409e-06
-1.02041e-06 6.16409e-06 -0.000482021
0.00252886 2.09302e-06 -5.74402e-06
2.09302e-06 0.00140953 9.34004e-08
-5.74402e-06 9.34004e-08 0.00142038
0.000362348 2.64778e-05 -1.72579e-06
2.64778e-05 -3.03784e-05 6.20736e-06
-1.72579e-06 6.20736e-06 -5.92353e-05
0.0024448 1.86307e-05 1.27933e-05
1.86307e-05 0.00135437 6.64994e-06
1.27933e-05 6.64994e-06 0.00136518
0.000870023 -0.000632918 0.000438742
-0.000632918 0.00775613 0.000258263
0.000438742 0.000258263 0.00390536
-0.00317088 -0.000995276 -5.69583e-05
-0.000995276 0.000100671 1.39473e-05
-5.69583e-05 1.39473e-05 -0.00565628
0.00492397 0.00642512 -0.00126786
0.00642512 0.0158736 -0.000379757
-0.00126786 -0.000379757 0.00389305
0.000995036 0.000259696 -4.98731e-07
0.000259696 0.00056321 7.67215e-07
-4.98731e-07 7.67215e-07 0.00025301
-0.00133605 0.000137309 1.08115e-05
0.000137309 -0.000905236 4.12967e-06
1.08115e-05 4.12967e-06 -0.00125909
0.0030578 0.000447039 3.68098e-05
0.000447039 0.00193302 -2.12948e-08
3.68098e-05 -2.12948e-08 0.00163252
0.0115072 -0.00155382 -0.000682373
-0.00155382 0.000982654 3.07198e-05
-0.000682373 3.07198e-05 -0.00351307
0.0115557 -0.00496627 0.000266527
-0.00496627 0.00642704 6.37649e-05
0.000266527 6.37649e-05 0.00291726
0.00490728 -0.00611734 0.000439699
-0.00611734 0.00233815 -0.000348078
0.000439699 -0.000348078 -0.00265643
0.00828395 -0.00631217 8.95589e-05
-0.00631217 -0.00270472 -0.000153415
8.95589e-05 -0.000153415 0.000790659
0.00302148 -0.0117434 -0.00146555
-0.0117434 -0.00614011 0.00022123
-0.00146555 0.00022123 -0.00393059
0.0344041 0.00992521 0.00124853
0.00992521 0.0217601 0.000408256
0.00124853 0.000408256 0.00609833
0.0111092 -0.00231568 0.000531032
-0.00231568 0.000434864 -0.000338348
0.000531032 -0.000338348 -0.00443045
0.00453139 -0.00735476 4.73114e-06
-0.00735476 -0.000176541 1.07278e-05
4.73114e-06 1.07278e-05 0.00114029
0.00355787 -0.0112719 -0.000416394
-0.0112719 0.00373658 2.2931e-05
-0.000416394 2.2931e-05 -0.00283473
0.0125293 0.00536778 -0.000281367
0.00536778 0.0095767 -0.000467678
-0.000281367 -0.000467678 0.000693604
0.0161995 -0.000737248 -0.000254266
-0.000737248 0.000523215 0.000197147
-0.000254266 0.000197147 -0.000993335
0.0014288 -0.00626585 -0.000270993
-0.00626585 0.00262319 0.000169118
-0.000270993 0.000169118 0.000492798
0.00909214 -0.00526502 -0.000378052
-0.00526502 0.00843798 0.000403103
-0.000378052 0.000403103 0.00127671
0.0152397 -0.000490734 8.73117e-05
-0.000490734 0.00552185 -0.000390241
8.73117e-05 -0.000390241 -0.000452502
0.0106406 0.00142603 -0.000211946
0.00142603 4.54086e-05 0.000303926
-0.000211946 0.000303926 -0.00428915
-0.00031706 0.000156586 1.99178e-05
0.000156586 -0.000216776 3.95746e-05
1.99178e-05 3.95746e-05 -0.00042398
0.000716805 8.08192e-05 -8.67154e-06
8.08192e-05 0.000435216 2.4192e-06
-8.67154e-06 2.4192e-06 0.000185539
0.00116513 -0.000384623 1.1326e-05
-0.000384623 0.000739304 -1.49818e-05
1.1326e-05 -1.49818e-05 0.000437169
0.000601701 0.000211245 2.12977e-06
0.000211245 0.000218375 5.55102e-06
2.12977e-06 5.55102e-06 -1.68429e-05
0.000778074 0.000312094 -3.65065e-06
0.000312094 0.000439769 -1.426e-05
-3.65065e-06 -1.426e-05 0.000131004
0.00126326 0.000377002 -8.58091e-06
0.000377002 0.000793947 -5.09129e-06
-8.58091e-06 -5.09129e-06 0.000444983
0.00215189 -0.00301457 8.62814e-05
-0.00301457 0.000226259 -4.2231e-05
8.62814e-05 -4.2231e-05 -0.000222897
0.00010702 -0.00101173 4.27653e-06
-0.00101173 2.66625e-05 -2.48112e-05
4.27653e-06 -2.48112e-05 -0.000323323
-0.000525004 0.000195792 -1.8187e-05
0.000195792 -0.000267055 -3.08845e-05
-1.8187e-05 -3.08845e-05 -0.000584534
0.000552302 -0.000327485 4.15767e-05
-0.000327485 0.000735308 -7.39727e-06
4.15767e-05 -7.39727e-06 0.000144236
0.00279653 -0.000232448 -7.05114e-06
-0.000232448 0.00206124 -3.45868e-05
-7.05114e-06 -3.45868e-05 0.00155341
-0.000613881 3.37723e-06 7.55414e-06
3.37723e-06 -0.000161703 6.31196e-06
7.55414e-06 6.31196e-06 -0.000522378
-0.000331822 1.49405e-05 6.43672e-06
1.49405e-05 0.000478802 1.77668e-05
6.43672e-06 1.77668e-05 -0.000249474
0.00102784 -0.00294746 2.05425e-05
-0.00294746 0.00171396 -2.165e-05
2.05425e-05 -2.165e-05 0.000157766
-5.53083e-05 -4.62754e-05 -6.90668e-06
-4.62754e-05 0.000775022 1.14089e-06
-6.90668e-06 1.14089e-06 -9.58736e-05
0.00027933 -0.000864306 -5.67947e-06
-0.000864306 0.00110573 7.08528e-06
-5.67947e-06 7.08528e-06 0.000127828
-4.95497e-05 0.000204183 6.41534e-05
0.000204183 0.000538937 -2.73131e-05
6.41534e-05 -2.73131e-05 -0.000155386
-0.00290415 -0.000649258 -0.000267441
-0.000649258 0.000815391 1.3042e-05
-0.000267441 1.3042e-05 -0.000628274
-0.000914117 -0.00029266 -6.39057e-05
-0.00029266 0.00132914 -3.32709e-05
-6.39057e-05 -3.32709e-05 0.000160068
-0.00142984 -2.99621e-05 6.20701e-05
-2.99621e-05 5.07384e-05 7.77696e-07
6.20701e-05 7.77696e-07 -0.00074799
0.00231256 0.000912092 2.89365e-05
0.000912092 0.00030575 -4.08448e-05
2.89365e-05 -4.08448e-05 -0.00785706
-0.00029079 0.00200373 0.000363787
0.00200373 0.00758846 5.79516e-05
0.000363787 5.79516e-05 0.00213456
-0.00267902 0.000825168 0.000535209
0.000825168 0.000578693 3.8596e-05
0.000535209 3.8596e-05 -0.00364165
-7.00103e-05 0.0014177 1.79617e-05
0.0014177 0.000446062 2.80201e-05
1.79617e-05 2.80201e-05 -0.000695854
0.0018235 0.00241231 1.10079e-05
0.00241231 0.00221539 -5.61267e-05
1.10079e-05 -5.61267e-05 0.000447587
-0.000391715 0.00127468 -0.000536685
0.00127468 0.00513878 -0.000143573
-0.000536685 -0.000143573 -0.000869839
-0.00140695 0.00239322 0.000383021
0.00239322 0.00656358 0.000374503
0.000383021 0.000374503 -0.000779744
0.0122594 -0.000160819 -0.000200074
-0.000160819 0.00130019 -0.000529934
-0.000200074 -0.000529934 -0.00587217
0.0100833 9.30044e-06 6.10045e-05
9.30044e-06 0.000424095 -6.39854e-05
6.10045e-05 -6.39854e-05 -0.00283319
0.00985827 -0.00233097 -0.000565151
-0.00233097 -0.000441623 0.000326479
-0.000565151 0.000326479 -0.0046442
0.00050546 0.000977515 -2.31568e-05
0.000977515 0.00125973 -5.25326e-06
-2.31568e-05 -5.25326e-06 0.000153447
0.00345023 0.00118854 0.000149832
0.00118854 0.00462144 8.15767e-05
0.000149832 8.15767e-05 0.000269725
0.0110355 -0.00365121 -0.000277125
-0.00365121 0.00583237 -5.77409e-05
-0.000277125 -5.77409e-05 0.00275748
-0.000656287 0.00159465 -0.000217566
0.00159465 0.00355822 -3.28765e-05
-0.000217566 -3.28765e-05 0.00011993
0.0307376 0.00849571 -0.000754113
0.00849571 0.0169424 -0.000659711
-0.000754113 -0.000659711 0.0055134
0.0168068 0.004319 0.000204075
0.004319 0.0111787 0.000546816
0.000204075 0.000546816 0.000678907
0.0083162 0.00396352 0.000145557
0.00396352 0.00908974 -7.60175e-06
0.000145557 -7.60175e-06 0.000816368
-5.4574e-06 4.30944e-05 8.58716e-05
4.30944e-05 0.00225221 -1.69258e-05
8.58716e-05 -1.69258e-05 0.000105434
0.00397463 0.000671668 -0.000541756
0.000671668 0.0103184 -6.75134e-06
-0.000541756 -6.75134e-06 0.00602255
0.00333061 -0.00218002 0.000707882
-0.00218002 0.0020538 -0.000276529
0.000707882 -0.000276529 -0.00467883
0.0541668 0.0229132 0.000115691
0.0229132 0.0376064 -0.000330626
0.000115691 -0.000330626 0.0145493
0.0220096 0.00714045 0.00133208
0.00714045 0.0132849 0.00165947
0.00133208 0.00165947 -4.84295e-05
0.0121612 -0.00783543 0.000817946
-0.00783543 0.0101667 -0.000581394
0.000817946 -0.000581394 0.000141822
-6.72407e-05 -0.00101064 -9.65449e-05
-0.00101064 0.0046921 7.09001e-05
-9.65449e-05 7.09001e-05 0.00221745
0.00123506 0.000419345 -1.48505e-05
0.000419345 0.00151108 -3.53111e-06
-1.48505e-05 -3.53111e-06 0.000741092
-0.000382653 -0.000107426 -1.69668e-05
-0.000107426 0.000809221 -8.13301e-06
-1.69668e-05 -8.13301e-06 -0.000139463
0.000999698 -0.00112951 7.35101e-05
-0.00112951 0.00140228 -1.38783e-05
7.35101e-05 -1.38783e-05 0.000179743
-0.000808161 2.82315e-05 2.12879e-06
2.82315e-05 -8.81135e-05 3.57629e-06
2.12879e-06 3.57629e-06 -0.000530626
-0.000418142 -0.000121088 1.55224e-05
-0.000121088 0.000480824 -2.0689e-05
1.55224e-05 -2.0689e-05 -0.000142809
0.00131957 -0.000569658 -8.02008e-06
-0.000569658 0.00123371 1.03212e-06
-8.02008e-06 1.03212e-06 0.000812587
0.00321329 -0.00151468 5.3777e-05
-0.00151468 0.00198619 -1.38146e-05
5.3777e-05 -1.38146e-05 0.000987159
-0.0011415 -0.000412222 6.86194e-06
-0.000412222 -0.000374375 -8.26561e-06
6.86194e-06 -8.26561e-06 -0.0012103
0.00212518 -0.00111457 2.21918e-05
-0.00111457 0.000916174 -6.43537e-06
2.21918e-05 -6.43537e-06 0.000286025
-0.000775162 -0.000815386 -1.15874e-05
-0.000815386 -0.000501779 3.92515e-06
-1.15874e-05 3.92515e-06 -0.00164607
0.00102228 -0.000766406 -1.78381e-05
-0.000766406 0.000339665 -9.15535e-06
-1.78381e-05 -9.15535e-06 -8.94902e-05
0.0018038 -0.00118248 2.03473e-06
-0.00118248 0.000705621 -3.45462e-06
2.03473e-06 -3.45462e-06 -0.000205457
0.00251464 -0.00160489 -2.89692e-05
-0.00160489 0.000871122 3.07436e-06
-2.89692e-05 3.07436e-06 -0.000202744
0.00311159 -0.00171901 -1.49373e-05
-0.00171901 0.000969933 -1.10533e-06
-1.49373e-05 -1.10533e-06 3.35172e-05
0.00267143 -0.00168103 -1.27071e-06
-0.00168103 0.000944529 -1.82196e-06
-1.27071e-06 -1.82196e-06 -3.5622e-05
0.00284159 -0.00155579 -2.82456e-06
-0.00155579 0.00112175 1.89361e-06
-2.82456e-06 1.89361e-06 0.000172523
0.00177361 -0.0011044 -1.79831e-06
-0.0011044 0.00067183 -6.21526e-06
-1.79831e-06 -6.21526e-06 -0.00010621
0.00255921 -0.00142566 6.37707e-06
-0.00142566 0.00109591 -9.46702e-06
6.37707e-06 -9.46702e-06 0.000206115
0.00214419 -0.00141214 1.14134e-05
-0.00141214 0.000719096 -3.01608e-06
1.14134e-05 -3.01608e-06 -0.000150632
0.00216383 -0.000699616 -1.05291e-05
-0.000699616 0.000916717 -1.74705e-06
-1.05291e-05 -1.74705e-06 0.000400378
0.00245609 -0.00107004 3.72334e-06
-0.00107004 0.00111215 -4.55676e-06
3.72334e-06 -4.55676e-06 0.000399117
0.000991294 -0.00116387 8.02312e-07
-0.00116387 0.000112156 3.51972e-06
8.02312e-07 3.51972e-06 -0.000698834
0.000459645 -0.000118362 2.81616e-06
-0.000118362 8.0944e-05 -2.38697e-06
2.81616e-06 -2.38697e-06 -0.00031141
8.2215e-05 -0.000481954 1.86601e-06
-0.000481954 -0.000306545 -8.90647e-07
1.86601e-06 -8.90647e-07 -0.000683418
0.000764762 -0.000612587 -1.66917e-05
-0.000612587 7.3229e-05 7.67639e-06
-1.66917e-05 7.67639e-06 -0.000419922
-1.45863e-05 -0.000264107 1.08527e-05
-0.000264107 -0.000163692 7.50796e-06
1.08527e-05 7.50796e-06 -0.000585684
0.000937728 -0.00041186 -9.09253e-08
-0.00041186 0.000527286 1.28787e-06
-9.09253e-08 1.28787e-06 2.8568e-05
-0.00230064 -0.000531751 -8.72966e-06
-0.000531751 -0.00154938 1.29722e-05
-8.72966e-06 1.29722e-05 -0.00203715
0.000888456 -0.000607741 -1.12161e-05
-0.000607741 0.000413377 -6.23523e-06
-1.12161e-05 -6.23523e-06 -6.32198e-06
0.00104396 -0.00021922 6.68845e-07
-0.00021922 0.000470841 1.29475e-06
6.68845e-07 1.29475e-06 0.00016233
0.000364658 -2.92459e-05 3.21248e-06
-2.92459e-05 -1.93918e-05 2.2528e-05
3.21248e-06 2.2528e-05 -0.000126387
0.0022003 -0.000229366 -5.32649e-06
-0.000229366 0.00120724 -1.78223e-05
-5.32649e-06 -1.78223e-05 0.000986491
0.000438758 -3.44466e-05 -8.98374e-06
-3.44466e-05 2.47884e-05 -9.36048e-07
-8.98374e-06 -9.36048e-07 -5.32353e-05
0.00371932 0.000106367 -5.66968e-05
0.000106367 0.00221592 9.07218e-06
-5.66968e-05 9.07218e-06 0.00221154
0.000557609 -7.15869e-05 2.68351e-06
-7.15869e-05 7.97705e-05 -1.25674e-05
2.68351e-06 -1.25674e-05 2.67107e-05
0.00215332 5.9612e-05 3.74345e-05
5.9612e-05 0.00115434 -6.38527e-07
3.74345e-05 -6.38527e-07 0.00114971
0.00306168 3.78511e-05 5.1734e-05
3.78511e-05 0.00175739 -7.51261e-06
5.1734e-05 -7.51261e-06 0.00176634
0.00160398 0.000273811 -1.56689e-06
0.000273811 0.000943036 -7.92613e-06
-1.56689e-06 -7.92613e-06 0.000610743
0.000663278 0.000140547 5.06307e-06
0.000140547 0.000242007 -6.50152e-06
5.06307e-06 -6.50152e-06 4.11962e-05
0.000578473 0.000111584 -8.64409e-07
0.000111584 0.000274422 2.66029e-06
-8.64409e-07 2.66029e-06 -3.28192e-05
0.000388159 5.2161e-05 -1.18161e-06
5.2161e-05 -7.6622e-06 -1.17187e-05
-1.18161e-06 -1.17187e-05 -5.91921e-05
0.000113143 7.6248e-05 -3.05844e-06
7.6248e-05 -0.000139207 -3.92527e-06
-3.05844e-06 -3.92527e-06 -0.000298952
0.000615023 0.000105651 -1.40331e-06
0.000105651 0.000274248 -2.85691e-06
-1.40331e-06 -2.85691e-06 1.03569e-05
0.00288259 -2.95316e-05 -3.41729e-05
-2.95316e-05 0.00164748 -7.90656e-06
-3.41729e-05 -7.90656e-06 0.00165518
0.000325901 6.65818e-06 6.04774e-07
6.65818e-06 -5.35513e-05 -3.78949e-07
6.04774e-07 -3.78949e-07 -9.44267e-05
0.000145366 1.9969e-05 -4.2579e-06
1.9969e-05 -0.000122909 3.1872e-06
-4.2579e-06 3.1872e-06 -0.000258523
0.00270495 -1.38788e-05 -8.2837e-06
-1.38788e-05 0.001528 1.81536e-07
-8.2837e-06 1.81536e-07 0.0015374
0.000337097 1.02113e-05 -6.27382e-06
1.02113e-05 -4.81186e-05 6.88075e-06
-6.27382e-06 6.88075e-06 -8.15796e-05
0.0025197 2.73413e-06 1.82183e-05
2.73413e-06 0.00140362 6.82358e-06
1.82183e-05 6.82358e-06 0.00141446
0.00545947 -6.7044e-05 -0.000466069
-6.7044e-05 0.0040818 -3.86566e-05
-0.000466069 -3.86566e-05 -0.000508027
-0.00239078 0.000406765 0.000362873
0.000406765 0.00771609 7.36344e-06
0.000362873 7.36344e-06 0.00259078
0.000327162 -0.000818029 -0.000112351
-0.000818029 0.00142051 -0.000306445
-0.000112351 -0.000306445 -0.00473119
-0.00105888 -4.97007e-05 1.29391e-05
-4.97007e-05 -0.000625178 -1.2319e-05
1.29391e-05 -1.2319e-05 -0.00115774
0.00582058 0.000674866 2.44747e-05
0.000674866 0.00355527 9.72996e-06
2.44747e-05 9.72996e-06 0.00317341
-0.000101554 0.000174213 -7.89122e-06
0.000174213 -0.000142515 -1.76639e-06
-7.89122e-06 -1.76639e-06 -0.00045172
-0.000327271 0.000117694 3.01683e-06
0.000117694 -0.000288851 -3.92662e-06
3.01683e-06 -3.92662e-06 -0.000637984
-0.000822602 7.09433e-05 -1.77516e-07
7.09433e-05 -0.000730266 -8.55295e-06
-1.77516e-07 -8.55295e-06 -0.000916681
0.0019825 0.000294349 2.00746e-05
0.000294349 0.00115149 -5.37522e-06
2.00746e-05 -5.37522e-06 0.0008839
-0.00044339 7.0199e-05 2.24915e-05
7.0199e-05 -0.000439853 -2.81697e-05
2.24915e-05 -2.81697e-05 -0.000548259
0.00800066 0.00229765 8.4406e-05
0.00229765 0.00143654 0.000196523
8.4406e-05 0.000196523 -0.00283356
0.0104974 -0.000498254 -0.000252636
-0.000498254 0.00153574 1.72674e-05
-0.000252636 1.72674e-05 -0.00338174
0.00946859 -0.00170717 0.000740017
-0.00170717 0.00726066 -0.000117666
0.000740017 -0.000117666 0.00233314
0.0129219 0.000260547 -8.2318e-05
0.000260547 -0.00197887 0.000271283
-8.2318e-05 0.000271283 -0.00359573
0.00691856 -0.00865449 -0.000101269
-0.00865449 0.000307614 1.8093e-05
-0.000101269 1.8093e-05 0.000980828
0.00010713 -0.00931333 -0.000621045
-0.00931333 0.00349183 0.000247321
-0.000621045 0.000247321 -0.00502367
0.0299801 0.00413385 0.000403753
0.00413385 0.0123721 -0.000499906
0.000403753 -0.000499906 0.00305727
0.00525715 -0.00850776 -0.000169991
-0.00850776 0.00273207 0.000118039
-0.000169991 0.000118039 0.000845742
-0.00171986 -0.00265156 -0.000241766
-0.00265156 0.00637535 9.56528e-05
-0.000241766 9.56528e-05 -0.00346861
0.0159916 -0.000168303 0.000623424
-0.000168303 0.00646465 -4.22619e-05
0.000623424 -4.22619e-05 -0.00086657
0.0217213 -0.00202503 -1.47692e-05
-0.00202503 0.00466249 1.15804e-05
-1.47692e-05 1.15804e-05 0.00174878
-0.00557397 -0.00113697 -0.000295793
-0.00113697 0.000772773 0.00029611
-0.000295793 0.00029611 -0.000706056
0.00206523 -0.000226857 -0.000220964
-0.000226857 0.0072599 -0.000243425
-0.000220964 -0.000243425 -0.00219113
0.0177504 -0.00581634 -0.000199763
-0.00581634 0.00719092 -0.000228468
-0.000199763 -0.000228468 -0.00416168
0.0286773 -0.00141055 0.00120313
-0.00141055 0.0145935 -0.000865291
0.00120313 -0.000865291 0.00675376
-0.00058176 0.000165896 5.08276e-05
0.000165896 0.000303036 -2.35028e-05
5.08276e-05 -2.35028e-05 -0.000495114
-0.000214238 0.000154773 -1.99831e-06
0.000154773 -0.000119011 -7.36161e-06
-1.99831e-06 -7.36161e-06 -0.000340792
6.20926e-05 -2.72332e-05 -2.07124e-08
-2.72332e-05 3.57788e-05 -2.23341e-05
-2.07124e-08 -2.23341e-05 -0.000224068
0.000251347 0.000154725 -9.39164e-06
0.000154725 3.1506e-05 -7.84493e-06
-9.39164e-06 -7.84493e-06 -0.000223512
0.000793014 -0.0030328 6.72759e-05
-0.0030328 0.00142658 2.54263e-05
6.72759e-05 2.54263e-05 -0.000175471
0.000887387 -0.000808459 -1.16041e-05
-0.000808459 0.00175775 1.0657e-05
-1.16041e-05 1.0657e-05 0.000606558
0.000102334 4.25046e-05 -4.27341e-05
4.25046e-05 0.000277349 -2.25206e-05
-4.27341e-05 -2.25206e-05 -8.10578e-05
0.000798123 -0.00017866 -1.99129e-05
-0.00017866 0.000930209 -5.65727e-05
-1.99129e-05 -5.65727e-05 0.000326379
0.000866101 2.60346e-05 -2.09334e-06
2.60346e-05 0.00141049 2.92079e-05
-2.09334e-06 2.92079e-05 0.000676496
0.000567657 0.000225631 -2.73032e-06
0.000225631 0.000805495 8.61067e-06
-2.73032e-06 8.61067e-06 0.000184383
0.000142716 -0.000116976 -3.48244e-06
-0.000116976 0.000920042 -2.9977e-06
-3.48244e-06 -2.9977e-06 0.000141645
-0.000624086 -0.00156131 3.5992e-05
-0.00156131 0.00196656 -1.41395e-05
3.5992e-05 -1.41395e-05 -0.000267091
-5.35494e-05 -0.000173453 -2.20306e-05
-0.000173453 0.00168273 -2.12639e-05
-2.20306e-05 -2.12639e-05 0.000635639
0.000393989 0.000163095 4.27856e-05
0.000163095 0.000632834 -1.5258e-05
4.27856e-05 -1.5258e-05 8.80369e-05
-0.00194228 -0.000297055 -0.000273941
-0.000297055 0.00254651 -5.48747e-06
-0.000273941 -5.48747e-06 -0.000495568
0.00176154 0.000603838 8.76865e-05
0.000603838 0.00213108 5.77525e-06
8.76865e-05 5.77525e-06 0.00126038
-0.00564031 -0.000784263 3.63735e-05
-0.000784263 0.00724379 -0.000182935
3.63735e-05 -0.000182935 0.00246539
0.00363472 -5.19094e-05 6.75748e-05
-5.19094e-05 0.00310188 4.86897e-05
6.75748e-05 4.86897e-05 -0.00282124
-0.00519057 0.00364255 -0.000233686
0.00364255 0.00692092 -0.000116231
-0.000233686 -0.000116231 0.000837361
0.00141113 0.000889715 -1.12704e-05
0.000889715 0.00189741 -3.74802e-06
-1.12704e-05 -3.74802e-06 0.000942034
-0.00135826 0.00195066 0.000377042
0.00195066 0.00225666 0.0001288
0.000377042 0.0001288 0.000121796
0.000922119 -0.00030892 6.10542e-05
-0.00030892 0.00547281 4.54684e-06
6.10542e-05 4.54684e-06 0.00123144
0.00592361 -0.00144841 0.000537963
-0.00144841 0.00687274 -0.000248968
0.000537963 -0.000248968 -0.00425279
0.0322529 0.0037664 -0.00057377
0.0037664 0.0132585 0.000484515
-0.00057377 0.000484515 0.0025942
0.0051374 -0.00135735 -0.000729226
-0.00135735 0.00551216 -4.20615e-05
-0.000729226 -4.20615e-05 0.00126383
0.0238827 0.00762411 -0.00106139
0.00762411 0.0187037 -0.000496614
-0.00106139 -0.000496614 0.00966686
0.000728835 0.000304533 -8.08178e-05
0.000304533 0.00241704 1.25603e-05
-8.08178e-05 1.25603e-05 0.000320207
-0.00219628 -0.00174125 -0.00029046
-0.00174125 0.00726863 1.62255e-05
-0.00029046 1.62255e-05 0.00326326
0.00123992 -0.00308541 0.000205046
-0.00308541 0.00329552 -6.57184e-05
0.000205046 -6.57184e-05 -0.0034616
-0.00420564 0.00012567 9.98758e-05
0.00012567 0.00220541 5.87542e-05
9.98758e-05 5.87542e-05 0.000391391
0.0496947 0.0276377 0.000734823
0.0276377 0.0358475 -0.000203234
0.000734823 -0.000203234 0.0117795
0.0197392 0.00410901 -2.86881e-05
0.00410901 0.0154317 0.000654321
-2.86881e-05 0.000654321 0.00248168
0.000252656 -0.00241499 0.000521764
-0.00241499 0.00619258 -0.000310683
0.000521764 -0.000310683 -0.00450469
-0.00190762 -0.0012928 -2.89936e-05
-0.0012928 0.00167847 -5.89583e-05
-2.89936e-05 -5.89583e-05 -0.000618534
0.00215411 -0.00185805 0.000467302
-0.00185805 0.000664984 -0.000122755
0.000467302 -0.000122755 -0.00586736
0.0100376 0.010013 -0.00354357
0.010013 0.0198791 -0.000217328
-0.00354357 -0.000217328 0.00391015
0.0329858 0.0130174 -8.54714e-06
0.0130174 0.0188098 0.000643807
-8.54714e-06 0.000643807 0.00385873
0.00498823 -0.008164 -0.000434474
-0.008164 0.00496213 0.000230336
-0.000434474 0.000230336 -0.000251941
0.00257351 -0.00440365 4.72758e-05
-0.00440365 0.00573835 0.000100774
4.72758e-05 0.000100774 0.00216841
-0.000259096 -0.000200669 1.07388e-05
-0.000200669 0.000801338 -3.0273e-05
1.07388e-05 -3.0273e-05 -0.000251978
0.000691959 -0.00086881 -1.30813e-05
-0.00086881 0.00130112 3.46687e-06
-1.30813e-05 3.46687e-06 5.25253e-05
2.62973e-05 -0.00185098 2.67484e-05
-0.00185098 0.000604425 2.03013e-05
2.67484e-05 2.03013e-05 -0.000763378
-0.00174669 -0.00025802 2.77702e-06
-0.00025802 -0.000424287 -3.53099e-07
2.77702e-06 -3.53099e-07 -0.000754166
-0.00039468 -0.000867686 -1.73353e-05
-0.000867686 0.000147212 5.15086e-06
-1.73353e-05 5.15086e-06 -0.00065215
0.00281794 -0.0015087 3.65316e-05
-0.0015087 0.00133246 -9.55351e-06
3.65316e-05 -9.55351e-06 0.000367836
0.00555397 -0.00188889 -1.09469e-05
-0.00188889 0.00268559 -9.89329e-07
-1.09469e-05 -9.89329e-07 0.00191628
0.00232176 -0.00139902 1.02709e-05
-0.00139902 0.00109229 -3.58157e-06
1.02709e-05 -3.58157e-06 -9.55205e-05
0.0032144 -0.00193456 -4.09547e-06
-0.00193456 0.00116343 -1.83525e-05
-4.09547e-06 -1.83525e-05 -6.24066e-05
0.00184619 -0.00119088 8.78918e-07
-0.00119088 0.000696117 -1.42836e-05
8.78918e-07 -1.42836e-05 -0.000202067
0.0026591 -0.00163043 1.13819e-06
-0.00163043 0.000957361 -2.88646e-06
1.13819e-06 -2.88646e-06 -0.000130574
0.00414649 -0.00197847 -5.07671e-06
-0.00197847 0.00153316 -1.16943e-05
-5.07671e-06 -1.16943e-05 0.000464461
0.00280528 -0.00123032 -2.47346e-06
-0.00123032 0.000457988 -5.09489e-06
-2.47346e-06 -5.09489e-06 -0.000123715
0.00371871 -0.00172768 -7.19853e-06
-0.00172768 0.00127328 -3.15867e-06
-7.19853e-06 -3.15867e-06 0.000381988
0.00343995 -0.00178308 -3.44845e-06
-0.00178308 0.00114414 -1.05947e-06
-3.44845e-06 -1.05947e-06 0.000184875
0.00327595 -0.00173113 1.17901e-05
-0.00173113 0.00134357 -9.18302e-06
1.17901e-05 -9.18302e-06 0.000367643
0.00242334 -0.00159804 3.59623e-06
-0.00159804 0.000814595 -1.87429e-06
3.59623e-06 -1.87429e-06 -0.000125429
0.00320755 -0.00159953 1.28806e-05
-0.00159953 0.00131784 -3.16437e-06
1.28806e-05 -3.16437e-06 0.000356726
0.00275889 -0.00131255 -3.09363e-06
-0.00131255 0.00130767 2.49976e-06
-3.09363e-06 2.49976e-06 0.000439136
0.00282951 -0.00146468 9.43151e-07
-0.00146468 0.00126797 -2.40891e-06
9.43151e-07 -2.40891e-06 0.000367809
0.00246454 -0.00148536 -4.07169e-06
-0.00148536 0.000913045 6.30058e-06
-4.07169e-06 6.30058e-06 1.96292e-05
0.0028658 -0.000313682 1.20378e-05
-0.000313682 0.00146161 3.18451e-06
1.20378e-05 3.18451e-06 0.00107366
0.00150589 -0.00055751 -1.02365e-05
-0.00055751 0.000570688 5.35154e-06
-1.02365e-05 5.35154e-06 7.59092e-05
0.00144548 -0.000986119 -6.96343e-06
-0.000986119 0.000498032 4.46628e-07
-6.96343e-06 4.46628e-07 -0.000215171
0.00144083 -0.000336062 7.50666e-06
-0.000336062 0.000587073 -6.1587e-06
7.50666e-06 -6.1587e-06 0.000238764
0.000843942 -0.000288055 -4.41091e-06
-0.000288055 0.000314908 9.1415e-07
-4.41091e-06 9.1415e-07 -8.46384e-05
-0.000746687 -0.000208327 6.31149e-06
-0.000208327 -0.000811213 8.30617e-06
6.31149e-06 8.30617e-06 -0.0012106
3.12235e-05 -0.000152461 -1.99762e-05
-0.000152461 -0.000285041 2.73397e-05
-1.99762e-05 2.73397e-05 -0.00041173
0.00115838 -0.000312434 3.68371e-06
-0.000312434 0.000529346 2.61067e-06
3.68371e-06 2.61067e-06 0.000160383
0.0018792 -0.000566333 -5.55726e-06
-0.000566333 0.00110505 -2.72584e-06
-5.55726e-06 -2.72584e-06 0.000630441
0.00135854 -0.00018784 -6.83725e-06
-0.00018784 0.000652165 -1.6553e-05
-6.83725e-06 -1.6553e-05 0.000365482
0.000273152 -8.45739e-05 -8.06879e-07
-8.45739e-05 -0.000102116 -9.55894e-07
-8.06879e-07 -9.55894e-07 -0.000202382
0.00446888 0.000131698 -7.59736e-05
0.000131698 0.00272561 9.66152e-06
-7.59736e-05 9.66152e-06 0.00271299
0.000397326 -8.42408e-05 6.90815e-06
-8.42408e-05 -1.46526e-05 -1.79421e-05
6.90815e-06 -1.79421e-05 -8.83953e-05
0.00376916 0.000107125 1.30486e-05
0.000107125 0.00225031 1.25326e-06
1.30486e-05 1.25326e-06 0.0022454
0.00314023 6.03081e-05 5.87418e-05
6.03081e-05 0.00181192 -8.37288e-06
5.87418e-05 -8.37288e-06 0.00181889
0.00439344 0.000491878 1.88589e-05
0.000491878 0.00291716 -1.50756e-05
1.88589e-05 -1.50756e-05 0.00230729
0.00302403 0.000339865 1.28179e-05
0.000339865 0.00202733 -3.9971e-05
1.28179e-05 -3.9971e-05 0.00151077
0.000826395 0.00015861 5.05467e-06
0.00015861 0.000345483 -1.19767e-05
5.05467e-06 -1.19767e-05 0.000118854
0.00074705 0.000243574 2.15062e-06
0.000243574 0.000407164 1.78069e-06
2.15062e-06 1.78069e-06 5.48242e-05
0.000472521 -3.20329e-05 8.62381e-06
-3.20329e-05 5.41057e-05 -1.41625e-05
8.62381e-06 -1.41625e-05 -7.08583e-06
0.000712284 0.00014759 -6.03072e-07
0.00014759 0.000274138 -7.42663e-07
-6.03072e-07 -7.42663e-07 7.63515e-05
0.000797951 0.000148554 -5.66525e-06
0.000148554 0.000412785 -1.42787e-05
-5.66525e-06 -1.42787e-05 9.99541e-05
0.00324047 -4.60912e-05 -4.97899e-05
-4.60912e-05 0.00189174 -9.23846e-06
-4.97899e-05 -9.23846e-06 0.00189719
0.00039569 6.0338e-06 -3.44129e-06
6.0338e-06 -2.13893e-06 -4.04805e-07
-3.44129e-06 -4.04805e-07 -5.21248e-05
0.000753632 0.000128595 -7.39765e-06
0.000128595 0.000298392 5.65316e-06
-7.39765e-06 5.65316e-06 0.00013502
0.00295355 -3.42015e-05 -7.8882e-06
-3.42015e-05 0.00169596 5.6569e-07
-7.8882e-06 5.6569e-07 0.0017026
0.000370351 -7.74133e-06 -7.57524e-06
-7.74133e-06 -2.62474e-05 8.20647e-06
-7.57524e-06 8.20647e-06 -6.5604e-05
0.00266407 -1.52652e-05 2.29558e-05
-1.52652e-05 0.00150022 7.06396e-06
2.29558e-05 7.06396e-06 0.00150962
-0.000165073 0.00200301 -0.000163192
0.00200301 0.0060116 -0.000217645
-0.000163192 -0.000217645 -0.000302265
0.00842734 -0.000915517 -9.4121e-05
-0.000915517 0.00597516 -0.000122237
-9.4121e-05 -0.000122237 0.0014386
-0.000234095 -0.00076985 0.000236005
-0.00076985 0.00793674 -0.000114456
0.000236005 -0.000114456 0.00321635
0.000482144 0.000182744 1.01166e-06
0.000182744 0.00049198 -1.29943e-05
1.01166e-06 -1.29943e-05 -0.000165237
-0.000769416 0.000471127 -1.52008e-05
0.000471127 -0.000522126 -1.41744e-05
-1.52008e-05 -1.41744e-05 -0.000927258
0.00148413 0.000499349 1.13998e-05
0.000499349 0.000627833 -2.50617e-05
1.13998e-05 -2.50617e-05 0.000296677
-0.00200057 8.51664e-05 9.3502e-06
8.51664e-05 -0.000972257 2.46709e-05
9.3502e-06 2.46709e-05 -0.00166767
0.00102039 0.000643277 4.25441e-06
0.000643277 0.000424164 -1.36539e-05
4.25441e-06 -1.36539e-05 -1.98227e-05
-5.02545e-05 0.000118136 -1.21054e-05
0.000118136 -9.36987e-05 3.5333e-06
-1.21054e-05 3.5333e-06 -0.000469603
-3.79883e-05 0.00013588 -2.21988e-05
0.00013588 -0.000181163 1.20473e-05
-2.21988e-05 1.20473e-05 -0.000367365
0.00114319 4.13418e-05 1.27877e-05
4.13418e-05 0.000624996 2.6459e-06
1.27877e-05 2.6459e-06 0.000346408
0.00128679 0.000243994 -1.17705e-05
0.000243994 0.00070777 -1.1927e-05
-1.17705e-05 -1.1927e-05 0.000596434
0.00261668 0.000285992 -3.83106e-06
0.000285992 0.00181635 -5.30865e-05
-3.83106e-06 -5.30865e-05 0.00135005
0.0145438 0.00698008 0.0014313
0.00698008 0.00836321 0.000683674
0.0014313 0.000683674 0.00273339
0.00696817 0.00190466 3.80818e-05
0.00190466 0.00359179 5.38931e-05
3.80818e-05 5.38931e-05 -0.0012811
0.0114952 -0.000603875 0.000353185
-0.000603875 0.00141986 6.41277e-06
0.000353185 6.41277e-06 -0.00223185
0.0179253 -0.000140201 -0.000176714
-0.000140201 0.00368526 -0.000113098
-0.000176714 -0.000113098 0.00361857
0.0115945 0.000348189 0.000191773
0.000348189 0.00187014 0.000462561
0.000191773 0.000462561 -0.00587605
0.00446659 -0.00832075 -0.00020918
-0.00832075 0.00297642 0.000120973
-0.00020918 0.000120973 0.000825626
0.00299373 -0.0022806 -0.000753762
-0.0022806 0.00761078 0.000196637
-0.000753762 0.000196637 0.000652607
-0.00168856 -0.00287393 -0.000181308
-0.00287393 0.0023964 0.000209654
-0.000181308 0.000209654 -5.20745e-05
0.0119357 -0.000684588 -0.000545825
-0.000684588 0.010063 -4.55857e-05
-0.000545825 -4.55857e-05 0.000400433
0.01051 -0.00473302 0.000111728
-0.00473302 0.0078821 0.000303429
0.000111728 0.000303429 -0.0017856
0.0371864 -0.00743447 0.000630992
-0.00743447 0.0159355 -0.00122642
0.000630992 -0.00122642 0.00345718
-0.000432401 0.00085923 -0.000350995
0.00085923 0.00419923 0.000109812
-0.000350995 0.000109812 0.000873439
0.00246641 0.00193869 -0.000481774
0.00193869 0.00751294 -0.000187315
-0.000481774 -0.000187315 -0.000185316
0.0370187 -0.0136705 0.00199437
-0.0136705 0.0238092 -0.00154255
0.00199437 -0.00154255 0.00716998
0.0418262 -0.0231755 0.000262967
-0.0231755 0.0311231 -2.13721e-05
0.000262967 -2.13721e-05 0.0106444
0.0011804 0.000826994 6.30003e-05
0.000826994 0.00115845 8.13799e-06
6.30003e-05 8.13799e-06 0.000258733
-0.000281128 0.000150109 2.11817e-05
0.000150109 0.000492611 1.22986e-06
2.11817e-05 1.22986e-06 -0.000317336
0.0012676 0.000194579 -4.56496e-05
0.000194579 0.000851342 -1.44867e-05
-4.56496e-05 -1.44867e-05 0.000605234
0.000698395 -0.00217661 0.000104149
-0.00217661 0.00248321 1.26765e-05
0.000104149 1.26765e-05 -0.000332191
-0.0019668 -0.000206209 0.000157265
-0.000206209 0.000788387 3.577e-05
0.000157265 3.577e-05 -0.000428826
0.0006704 0.000223043 -5.47138e-05
0.000223043 0.000827042 6.94332e-06
-5.47138e-05 6.94332e-06 0.000254718
-0.00121956 9.59459e-05 -8.01324e-05
9.59459e-05 0.000462296 -2.95493e-06
-8.01324e-05 -2.95493e-06 -0.000455087
0.000610537 0.00036781 -1.53455e-05
0.00036781 0.000833073 3.47926e-06
-1.53455e-05 3.47926e-06 0.000250749
0.000210283 0.000739124 1.52691e-05
0.000739124 0.00116835 -1.30352e-07
1.52691e-05 -1.30352e-07 0.000272988
-0.00322935 -6.70214e-06 0.000252548
-6.70214e-06 0.00205506 -0.000122843
0.000252548 -0.000122843 -0.000591413
0.0024634 0.00126045 6.25484e-05
0.00126045 0.00151788 8.29836e-05
6.25484e-05 8.29836e-05 0.000848073
0.000554824 0.00159517 -7.29207e-05
0.00159517 0.00228847 -0.000136713
-7.29207e-05 -0.000136713 -0.000280526
-0.000482508 -0.00190356 0.000403468
-0.00190356 0.000714048 0.000150136
0.000403468 0.000150136 -0.00401179
-0.00452565 0.00150159 -0.000351042
0.00150159 0.00727548 -3.65838e-05
-0.000351042 -3.65838e-05 0.0011132
0.00787293 -0.00105018 -0.000293839
-0.00105018 0.0065459 1.24888e-05
-0.000293839 1.24888e-05 0.00307596
-0.000473899 0.00114532 0.000116476
0.00114532 0.00145014 9.15412e-06
0.000116476 9.15412e-06 -0.000786954
-0.00077017 0.000620358 -5.4325e-06
0.000620358 0.00372258 0.000131592
-5.4325e-06 0.000131592 0.000547412
-0.00229858 5.9906e-05 -0.000189695
5.9906e-05 0.00588284 -0.000139452
-0.000189695 -0.000139452 0.00123249
0.0136408 -0.00833494 0.000715723
-0.00833494 0.0114146 -0.000396355
0.000715723 -0.000396355 0.000315561
0.0343787 0.0122741 -0.0013197
0.0122741 0.0225119 -0.000487335
-0.0013197 -0.000487335 0.0063856
0.0095669 -0.00431712 -0.000605641
-0.00431712 0.00469603 0.000368023
-0.000605641 0.000368023 -0.000727065
0.0422722 0.0323273 0.00165406
0.0323273 0.031742 -0.00194117
0.00165406 -0.00194117 0.00772464
-0.00155315 -0.00105485 1.54403e-05
-0.00105485 0.0016245 3.00918e-06
1.54403e-05 3.00918e-06 -0.000761193
0.00119952 -0.00139842 0.000178354
-0.00139842 0.00152623 -1.23942e-08
0.000178354 -1.23942e-08 -0.00487426
0.016912 0.0106971 -0.00172578
0.0106971 0.0198034 -0.000105648
-0.00172578 -0.000105648 0.00338447
-9.15132e-05 -0.00297204 4.2757e-05
-0.00297204 0.00329679 4.80078e-05
4.2757e-05 4.80078e-05 0.000651199
0.036001 0.0126957 0.000796635
0.0126957 0.0203017 0.000521585
0.000796635 0.000521585 0.00491551
0.00382099 -0.0117648 0.000691804
-0.0117648 0.00411967 -0.000241136
0.000691804 -0.000241136 -0.00247274
-0.000481106 -0.00322001 3.32424e-05
-0.00322001 0.00154281 4.8955e-05
3.32424e-05 4.8955e-05 -0.000867607
0.00533179 0.000424441 0.000179298
0.000424441 0.0150649 -0.000215545
0.000179298 -0.000215545 0.00602012
0.0258259 0.0134224 -0.0027361
0.0134224 0.0141452 -0.000252546
-0.0027361 -0.000252546 0.00146404
4.35976e-05 -0.011639 -0.00145983
-0.011639 -0.00621057 0.000358151
-0.00145983 0.000358151 -0.00472409
0.000101019 -0.00501364 0.000285559
-0.00501364 0.000599432 -0.000242204
0.000285559 -0.000242204 0.000719553
0.000398323 -0.00066649 -8.9953e-05
-0.00066649 0.00111413 2.49577e-05
-8.9953e-05 2.49577e-05 -0.00014439
-8.23313e-05 -0.0014502 -3.06774e-05
-0.0014502 0.000676673 2.14378e-05
-3.06774e-05 2.14378e-05 -0.000590017
-0.000396337 -0.00147493 -1.17046e-05
-0.00147493 -0.000326176 -9.64667e-06
-1.17046e-05 -9.64667e-06 -0.00122977
-0.00339633 -0.0002673 2.81109e-05
-0.0002673 -0.00135801 -5.83354e-06
2.81109e-05 -5.83354e-06 -0.00196565
0.000964606 -0.00126492 9.63081e-06
-0.00126492 0.000336874 -8.24735e-06
9.63081e-06 -8.24735e-06 -0.000516573
0.00470269 -0.00219229 -5.46089e-06
-0.00219229 0.00166258 -2.24964e-06
-5.46089e-06 -2.24964e-06 0.000815989
0.00508467 -0.00191053 -2.69076e-05
-0.00191053 0.00251617 -2.72815e-06
-2.69076e-05 -2.72815e-06 0.00129086
0.00256604 -0.00175413 -1.97278e-06
-0.00175413 0.00081485 -1.1088e-06
-1.97278e-06 -1.1088e-06 -0.000336514
0.00364817 -0.00201336 -1.67447e-07
-0.00201336 0.00100219 -1.13272e-05
-1.67447e-07 -1.13272e-05 8.84347e-05
0.00280998 -0.00164347 1.56004e-05
-0.00164347 0.00106201 2.06723e-06
1.56004e-05 2.06723e-06 -4.19099e-05
0.0035012 -0.00185629 4.2197e-06
-0.00185629 0.00118061 -4.78104e-06
4.2197e-06 -4.78104e-06 0.000159844
0.00343787 -0.00141236 -1.99401e-06
-0.00141236 0.000757653 -6.82797e-06
-1.99401e-06 -6.82797e-06 0.000186418
0.00246546 -0.000815832 -3.4043e-06
-0.000815832 5.93781e-05 -1.28464e-06
-3.4043e-06 -1.28464e-06 -0.00013586
0.002495 -0.00116368 -4.97571e-07
-0.00116368 0.000223667 -2.29037e-06
-4.97571e-07 -2.29037e-06 -0.000339821
0.0027967 -0.00123181 4.84003e-06
-0.00123181 0.000432402 -1.51231e-06
4.84003e-06 -1.51231e-06 -0.000142864
0.00367241 -0.00155464 -4.20403e-06
-0.00155464 0.00128628 -4.33602e-06
-4.20403e-06 -4.33602e-06 0.000489901
0.00368947 -0.0017404 -4.59266e-06
-0.0017404 0.0012597 -7.57098e-07
-4.59266e-06 -7.57098e-07 0.000354932
0.00366981 -0.00183013 5.60486e-06
-0.00183013 0.00126195 -3.89028e-06
5.60486e-06 -3.89028e-06 0.000285064
0.0028454 -0.00152468 -1.19498e-05
-0.00152468 0.0010999 -1.3128e-05
-1.19498e-05 -1.3128e-05 0.000192727
0.00256041 -0.00161164 2.41872e-06
-0.00161164 0.000917193 -1.20588e-06
2.41872e-06 -1.20588e-06 -2.0032e-05
0.00194702 -0.00148021 1.34652e-06
-0.00148021 0.000549016 2.8501e-06
1.34652e-06 2.8501e-06 -0.000340028
0.00415271 -0.000948999 1.90521e-05
-0.000948999 0.00224729 1.12116e-05
1.90521e-05 1.12116e-05 0.00160044
0.0011426 -0.00110518 5.38315e-06
-0.00110518 0.000339864 5.21854e-06
5.38315e-06 5.21854e-06 -0.000488289
0.00244802 -0.00140372 -8.36602e-06
-0.00140372 0.00102198 1.15497e-05
-8.36602e-06 1.15497e-05 0.000144739
0.00136065 -0.000450116 4.00324e-06
-0.000450116 0.000478052 -1.34693e-05
4.00324e-06 -1.34693e-05 0.00016059
0.000661365 -0.00047043 -1.85429e-06
-0.00047043 0.000146105 -6.88938e-06
-1.85429e-06 -6.88938e-06 -0.000311915
-0.000946437 -0.000339394 7.35413e-06
-0.000339394 -0.000846984 -4.70704e-06
7.35413e-06 -4.70704e-06 -0.00133448
0.0034808 -0.000174183 -0.000125315
-0.000174183 0.00194251 2.1699e-05
-0.000125315 2.1699e-05 0.00182262
0.000307937 -0.000368868 -2.72167e-06
-0.000368868 -9.12319e-05 8.53047e-07
-2.72167e-06 8.53047e-07 -0.000477429
0.000504493 -0.000543381 -3.8909e-06
-0.000543381 8.86312e-05 -1.40472e-06
-3.8909e-06 -1.40472e-06 -0.000335086
0.00137308 -3.39197e-05 -0.000128068
-3.39197e-05 0.00063769 1.4163e-05
-0.000128068 1.4163e-05 0.000612836
0.00171494 -0.000141196 -3.55887e-05
-0.000141196 0.000828513 -4.16573e-07
-3.55887e-05 -4.16573e-07 0.000698785
0.00151221 -0.000371707 -4.16194e-06
-0.000371707 0.000720887 -3.54609e-06
-4.16194e-06 -3.54609e-06 0.000370966
0.000744925 -0.000114889 1.45467e-05
-0.000114889 0.000197912 -2.04165e-05
1.45467e-05 -2.04165e-05 9.25632e-05
0.00483112 0.000127122 1.22606e-05
0.000127122 0.00296658 4.98327e-07
1.22606e-05 4.98327e-07 0.0029559
0.00421223 9.08064e-05 8.93291e-05
9.08064e-05 0.00254167 -1.05542e-05
8.93291e-05 -1.05542e-05 0.00254004
-0.00101266 0.000278944 2.32033e-05
0.000278944 -0.000847477 7.32924e-06
2.32033e-05 7.32924e-06 -0.00126653
0.0023941 0.000599476 4.09681e-06
0.000599476 0.00158448 -2.92578e-05
4.09681e-06 -2.92578e-05 0.00103892
-0.000783311 0.000160703 5.61956e-06
0.000160703 -0.000445956 -2.32438e-07
5.61956e-06 -2.32438e-07 -0.000996256
0.000810055 0.000196924 -2.49401e-06
0.000196924 0.000339886 -1.81119e-05
-2.49401e-06 -1.81119e-05 7.41516e-05
0.000313511 0.000256394 7.67686e-06
0.000256394 0.000185413 -5.77703e-07
7.67686e-06 -5.77703e-07 -0.000271373
0.000376555 5.04802e-05 -1.0351e-05
5.04802e-05 1.00047e-05 -1.73703e-05
-1.0351e-05 -1.73703e-05 -7.04484e-05
0.000535691 0.000129891 -2.93756e-07
0.000129891 0.000170157 1.38427e-06
-2.93756e-07 1.38427e-06 -7.05755e-05
0.000887804 0.000250854 -3.89087e-06
0.000250854 0.000534137 4.44829e-06
-3.89087e-06 4.44829e-06 0.000162759
0.00354295 -6.75608e-05 -6.23951e-05
-6.75608e-05 0.00210056 -1.03733e-05
-6.23951e-05 -1.03733e-05 0.00210266
0.000273071 2.88756e-05 -2.34472e-06
2.88756e-05 -7.43487e-05 5.83451e-08
-2.34472e-06 5.83451e-08 -0.000135414
0.000182256 0.00013111 -4.66083e-06
0.00013111 -8.71068e-05 8.70368e-06
-4.66083e-06 8.70368e-06 -0.000270816
0.00310279 -5.49688e-05 -1.11488e-05
-5.49688e-05 0.00180008 7.17629e-07
-1.11488e-05 7.17629e-07 0.00180375
0.000210808 -1.70022e-05 -9.55996e-06
-1.70022e-05 -0.000124661 1.03195e-05
-9.55996e-06 1.03195e-05 -0.000172553
0.00286648 -3.42592e-05 3.02178e-05
-3.42592e-05 0.00163802 7.72443e-06
3.02178e-05 7.72443e-06 0.00164494
0.00568032 0.00233701 0.000819099
0.00233701 0.00617248 0.000177052
0.000819099 0.000177052 0.000822616
-0.000427983 0.00205401 -6.55477e-05
0.00205401 0.00507324 1.68905e-06
-6.55477e-05 1.68905e-06 -0.00124037
0.00070818 0.00285513 1.7206e-05
0.00285513 0.00603119 -4.18157e-05
1.7206e-05 -4.18157e-05 0.000388741
0.000157308 0.000571144 -3.0404e-05
0.000571144 -1.55836e-05 2.02498e-06
-3.0404e-05 2.02498e-06 -0.000630977
-0.00111804 6.25295e-05 -2.67558e-05
6.25295e-05 -0.000668065 4.88895e-05
-2.67558e-05 4.88895e-05 -0.0012395
-0.00145809 0.000138861 -2.41821e-05
0.000138861 -0.000985825 -1.22105e-05
-2.41821e-05 -1.22105e-05 -0.00131432
0.00206679 0.000199515 1.438e-05
0.000199515 0.00136074 1.2513e-06
1.438e-05 1.2513e-06 0.000901603
0.00103349 0.000478771 2.60917e-06
0.000478771 0.000242689 -4.33917e-06
2.60917e-06 -4.33917e-06 -7.40769e-05
0.00161811 0.00070814 -3.15346e-05
0.00070814 0.00081821 -1.38609e-05
-3.15346e-05 -1.38609e-05 0.000474596
0.0020118 0.000673646 8.32814e-06
0.000673646 0.000919396 -3.62438e-05
8.32814e-06 -3.62438e-05 0.000434477
-0.00333093 0.000167486 -3.36151e-05
0.000167486 -0.00156666 8.82389e-06
-3.36151e-05 8.82389e-06 -0.00215856
-0.000930573 4.45552e-05 -1.08947e-05
4.45552e-05 -0.000610307 -4.42014e-06
-1.08947e-05 -4.42014e-06 -0.00094249
-0.00180928 3.59756e-05 -6.55251e-06
3.59756e-05 -0.00139159 2.86416e-05
-6.55251e-06 2.86416e-05 -0.00139839
-0.000586976 7.15825e-05 -1.6438e-05
7.15825e-05 -7.45079e-05 3.38726e-06
-1.6438e-05 3.38726e-06 -0.000577181
-0.000242846 0.000500039 9.07893e-06
0.000500039 0.000309166 1.64293e-05
9.07893e-06 1.64293e-05 -0.000601354
0.0218787 -0.0164041 -0.000361852
-0.0164041 0.0220365 0.000306768
-0.000361852 0.000306768 0.00168128
0.0129472 0.00680606 0.000341185
0.00680606 0.00535972 0.000209463
0.000341185 0.000209463 -0.0013598
0.00684434 0.00123073 0.000382661
0.00123073 0.00515041 -3.50905e-05
0.000382661 -3.50905e-05 -0.00028959
0.0484653 -0.0136275 -0.00200462
-0.0136275 0.0205685 -0.000490432
-0.00200462 -0.000490432 0.00548881
0.0115936 -0.000418712 0.00041321
-0.000418712 0.00801739 0.000670087
0.00041321 0.000670087 0.00086332
0.00200954 0.000183814 -0.000311566
0.000183814 0.00718352 0.000183023
-0.000311566 0.000183023 -0.00224039
-0.00128266 -0.00314605 -3.22907e-05
-0.00314605 0.00298356 0.000153004
-3.22907e-05 0.000153004 -0.000308987
-0.00161421 -0.00105997 0.000226529
-0.00105997 0.00325633 9.3031e-05
0.000226529 9.3031e-05 0.000747415
0.0456609 -0.0267637 0.000234231
-0.0267637 0.0324196 0.000541945
0.000234231 0.000541945 0.0100493
0.00357229 0.0033109 -0.000245358
0.0033109 0.00760804 -0.000154927
-0.000245358 -0.000154927 -0.00189576
0.0188474 -0.00760018 -4.88486e-05
-0.00760018 0.0165359 0.000219424
-4.88486e-05 0.000219424 0.00117542
-0.000432496 0.00216181 1.76958e-05
0.00216181 0.00286065 -4.41685e-05
1.76958e-05 -4.41685e-05 0.000401238
0.00377908 0.00866493 -0.000367181
0.00866493 0.00386693 3.44469e-05
-0.000367181 3.44469e-05 -0.00116817
0.031879 -0.0116339 -0.00104887
-0.0116339 0.0182299 1.86136e-05
-0.00104887 1.86136e-05 0.00350152
0.00243194 0.00140427 -4.72262e-07
0.00140427 0.00118236 5.84609e-05
-4.72262e-07 5.84609e-05 0.000684672
7.07885e-05 0.000598685 3.35478e-06
0.000598685 0.000539435 1.71807e-06
3.35478e-06 1.71807e-06 -0.000353421
-0.000298065 9.25296e-05 -8.30606e-05
9.25296e-05 0.000490423 2.26328e-05
-8.30606e-05 2.26328e-05 -0.000323377
-0.002158 -0.000411872 -0.000215695
-0.000411872 0.0026036 -4.44764e-05
-0.000215695 -4.44764e-05 0.000169002
-0.000785241 0.000619273 -9.55477e-05
0.000619273 0.000319039 -9.59054e-06
-9.55477e-05 -9.59054e-06 -0.000484502
-0.000394675 0.00032212 -2.33881e-05
0.00032212 0.00026246 -2.00686e-06
-2.33881e-05 -2.00686e-06 -0.000371337
0.00116206 0.00109167 -4.60691e-06
0.00109167 0.000748525 1.53326e-06
-4.60691e-06 1.53326e-06 8.27387e-05
-0.000340793 0.00168358 -0.000132765
0.00168358 0.00173665 -0.000108317
-0.000132765 -0.000108317 -0.000618843
0.00320625 0.00373232 0.000125075
0.00373232 0.00179014 5.91822e-05
0.000125075 5.91822e-05 -0.00011807
-0.00696054 0.00232603 0.000848945
0.00232603 0.00657178 -6.58726e-05
0.000848945 -6.58726e-05 -0.00272906
0.000433262 -0.00178573 -9.63478e-05
-0.00178573 0.00229294 8.57936e-05
-9.63478e-05 8.57936e-05 -0.00153875
-0.0018338 0.000806046 -0.000114226
0.000806046 0.00611998 0.000157776
-0.000114226 0.000157776 5.38212e-05
-0.00228322 -0.000690026 -7.41557e-05
-0.000690026 0.00120476 2.2462e-06
-7.41557e-05 2.2462e-06 -0.0011568
-0.00111579 -0.00199005 2.64868e-05
-0.00199005 0.00230147 -6.91796e-06
2.64868e-05 -6.91796e-06 0.000901899
-0.00498883 -0.0031316 -0.000230181
-0.0031316 0.000593001 0.000177426
-0.000230181 0.000177426 -0.00546942
-0.000736169 -0.00929282 0.000612115
-0.00929282 0.00458296 -0.000353987
0.000612115 -0.000353987 -0.00476018
0.0254579 0.0101861 0.00106926
0.0101861 0.0145546 -0.000198962
0.00106926 -0.000198962 0.000441938
0.0318545 0.0184784 -0.000233104
0.0184784 0.0241541 0.000806418
-0.000233104 0.000806418 0.00296203
0.000159564 -0.00223237 -5.86086e-05
-0.00223237 0.00226395 2.00918e-05
-5.86086e-05 2.00918e-05 0.000148976
0.0101829 0.00610807 0.000706841
0.00610807 0.0184322 -3.74772e-05
0.000706841 -3.74772e-05 0.0055028
0.0134471 0.00900853 0.000128811
0.00900853 0.00775589 0.000140301
0.000128811 0.000140301 -0.00188194
0.00314064 -0.0077581 9.1539e-05
-0.0077581 0.00171996 -5.01712e-05
9.1539e-05 -5.01712e-05 0.000227587
0.0111295 -0.0119065 2.53588e-06
-0.0119065 -0.00198172 1.94577e-05
2.53588e-06 1.94577e-05 -0.00151231
0.00226679 -0.00372272 5.05384e-05
-0.00372272 0.00106945 -1.22186e-05
5.05384e-05 -1.22186e-05 0.000105301
0.00322907 0.00698522 -0.00228908
0.00698522 0.00628902 -6.6153e-05
-0.00228908 -6.6153e-05 -0.00557937
0.0145509 -0.00777764 -0.000716066
-0.00777764 -0.0050285 0.000150515
-0.000716066 0.000150515 -0.0019077
0.00527961 -0.00803455 0.000126271
-0.00803455 -0.00141899 -8.68742e-05
0.000126271 -8.68742e-05 0.000526456
0.000199048 -0.00107379 -1.64658e-05
-0.00107379 0.000918386 -1.26014e-05
-1.64658e-05 -1.26014e-05 -0.00027676
0.00227471 -0.00221424 5.36373e-05
-0.00221424 0.000936517 -2.56639e-05
5.36373e-05 -2.56639e-05 -0.000107861
0.00215718 -0.00186737 -1.53618e-05
-0.00186737 0.000180571 -1.39462e-05
-1.53618e-05 -1.39462e-05 -0.000464272
-0.00043179 -0.00111174 -1.00799e-06
-0.00111174 -0.000435015 1.64282e-07
-1.00799e-06 1.64282e-07 -0.00119261
0.0024038 -0.0018936 -7.79525e-06
-0.0018936 0.000440088 2.28559e-06
-7.79525e-06 2.28559e-06 -0.000297747
0.00461557 -0.00207003 -4.65684e-06
-0.00207003 0.00131434 -3.24526e-06
-4.65684e-06 -3.24526e-06 0.000643806
0.0020424 -0.00161165 1.38891e-05
-0.00161165 0.000520011 7.9193e-06
1.38891e-05 7.9193e-06 -0.000559163
0.00325237 -0.00195017 -1.07268e-06
-0.00195017 0.000782035 4.16546e-06
-1.07268e-06 4.16546e-06 -0.0001142
0.00313133 -0.00147236 -2.53031e-06
-0.00147236 0.000376108 -1.30573e-06
-2.53031e-06 -1.30573e-06 -2.91837e-05
0.00248902 -0.00167336 8.06041e-06
-0.00167336 0.000625867 3.04779e-06
8.06041e-06 3.04779e-06 -0.000333769
0.00298887 -0.00133937 -4.01505e-06
-0.00133937 0.000492907 4.2715e-06
-4.01505e-06 4.2715e-06 -5.31739e-05
0.00262252 -0.000900638 -2.67839e-07
-0.000900638 2.06326e-05 -1.55227e-06
-2.67839e-07 -1.55227e-06 -0.000111227
0.00265988 -0.000895267 -3.665e-06
-0.000895267 0.000184846 -3.23434e-07
-3.665e-06 -3.23434e-07 4.86372e-05
0.00243981 -0.0008213 -5.51183e-06
-0.0008213 0.000122413 5.74706e-09
-5.51183e-06 5.74706e-09 -0.000127105
0.00240869 -0.000805745 1.20814e-06
-0.000805745 9.63429e-06 2.56886e-06
1.20814e-06 2.56886e-06 -0.000184674
0.00230712 -0.00101203 -7.19041e-06
-0.00101203 0.000164498 -4.11272e-06
-7.19041e-06 -4.11272e-06 -0.000322758
0.00267037 -0.00116977 4.28372e-06
-0.00116977 0.000362653 6.22747e-07
4.28372e-06 6.22747e-07 -0.000195055
0.00282285 -0.00123522 4.31544e-06
-0.00123522 0.000430518 4.88301e-06
4.31544e-06 4.88301e-06 -0.000138656
0.00273578 -0.00133568 -1.08824e-05
-0.00133568 0.000702087 -6.70563e-06
-1.08824e-05 -6.70563e-06 -1.5535e-05
0.00321999 -0.00150781 2.41771e-06
-0.00150781 0.000996163 -1.22029e-06
2.41771e-06 -1.22029e-06 0.000206513
0.00367393 -0.00175321 -2.2709e-06
-0.00175321 0.00125693 -1.5353e-08
-2.2709e-06 -1.5353e-08 0.000338743
0.00159417 -0.00104002 6.76069e-07
-0.00104002 0.000255908 -1.30726e-05
6.76069e-07 -1.30726e-05 -0.000466379
0.00285145 -0.0015207 1.97269e-06
-0.0015207 0.00108377 -1.54211e-06
1.97269e-06 -1.54211e-06 0.000179539
0.00213574 -0.00153528 2.60926e-07
-0.00153528 0.000663208 6.05879e-06
2.60926e-07 6.05879e-06 -0.000248314
0.00093934 -0.000543496 -1.48755e-05
-0.000543496 0.000115974 -1.27948e-05
-1.48755e-05 -1.27948e-05 -0.000229508
0.00125684 -0.000887412 3.73792e-06
-0.000887412 0.000427818 4.04171e-06
3.73792e-06 4.04171e-06 -0.000222823
0.00071274 -0.00101866 8.88822e-06
-0.00101866 0.000105864 9.31657e-06
8.88822e-06 9.31657e-06 -0.000683122
8.67954e-05 -0.000259042 -2.99862e-05
-0.000259042 -0.000377052 2.28361e-05
-2.99862e-05 2.28361e-05 -0.000526248
0.00111244 -0.000513317 3.04458e-06
-0.000513317 0.000402129 6.5639e-07
3.04458e-06 6.5639e-07 1.85608e-05
-0.0018824 -0.000575093 -9.56497e-06
-0.000575093 -0.00137614 -1.1877e-05
-9.56497e-06 -1.1877e-05 -0.00189513
0.00727547 0.00039228 2.99011e-05
0.00039228 0.0046661 1.29866e-05
2.99011e-05 1.29866e-05 0.00457489
0.000386193 -0.000241607 2.86317e-06
-0.000241607 -0.000135561 5.63593e-07
2.86317e-06 5.63593e-07 -0.000286873
0.000490365 -0.000263671 -1.44005e-05
-0.000263671 3.85865e-06 7.26944e-06
-1.44005e-05 7.26944e-06 -0.00037436
0.00550782 0.000161983 2.94441e-05
0.000161983 0.00343468 1.65985e-06
2.94441e-05 1.65985e-06 0.00341426
0.000796995 -0.000175839 1.65826e-05
-0.000175839 0.000201338 -2.02409e-05
1.65826e-05 -2.02409e-05 5.82685e-05
0.00493201 0.000129636 0.000108185
0.000129636 0.00303495 -1.40743e-05
0.000108185 -1.40743e-05 0.00302419
0.0024647 0.000678442 -2.2076e-06
0.000678442 0.0012865 2.62093e-05
-2.2076e-06 2.62093e-05 0.000761126
0.00135823 0.000445354 4.08582e-06
0.000445354 0.000609123 -2.74937e-07
4.08582e-06 -2.74937e-07 0.000189939
-0.000511423 0.000881849 3.34651e-06
0.000881849 -0.000481639 1.08948e-05
3.34651e-06 1.08948e-05 -0.000949511
0.0019597 0.000436075 -2.32982e-06
0.000436075 0.00104055 -1.78319e-05
-2.32982e-06 -1.78319e-05 0.000744443
0.000868177 0.000287271 9.00239e-08
0.000287271 0.000597736 7.54268e-07
9.00239e-08 7.54268e-07 4.59264e-05
-0.000417898 0.000278103 -6.131e-06
0.000278103 -0.000146059 1.58006e-05
-6.131e-06 1.58006e-05 -0.00073275
0.000658374 5.10353e-05 -5.49163e-06
5.10353e-05 0.00018956 -1.91715e-05
-5.49163e-06 -1.91715e-05 8.63868e-05
0.000675112 0.000199303 -3.99711e-07
0.000199303 0.000257805 1.82966e-06
-3.99711e-07 1.82966e-06 -1.34487e-05
-5.29647e-05 0.000139917 -1.24893e-05
0.000139917 -0.000125567 3.77371e-05
-1.24893e-05 3.77371e-05 -0.000523642
0.00423595 -0.000101431 -7.71881e-05
-0.000101431 0.00257496 -1.1412e-05
-7.71881e-05 -1.1412e-05 0.00257193
0.000322047 -1.66618e-05 3.65249e-07
-1.66618e-05 -3.0062e-05 -2.39902e-07
3.65249e-07 -2.39902e-07 -0.000107226
0.000580585 0.000108534 -5.78526e-06
0.000108534 0.000218213 1.04007e-05
-5.78526e-06 1.04007e-05 -3.71259e-05
0.00359157 -8.06811e-05 -1.32532e-05
-8.06811e-05 0.00213674 1.25733e-06
-1.32532e-05 1.25733e-06 0.00213534
0.000421722 5.49779e-05 2.05127e-06
5.49779e-05 2.25075e-05 1.3687e-05
2.05127e-06 1.3687e-05 -3.73394e-05
0.00309455 -5.89013e-05 3.16445e-05
-5.89013e-05 0.00179532 8.41355e-06
3.16445e-05 8.41355e-06 0.00179794
0.00120732 -0.00269609 -0.000828182
-0.00269609 0.00895815 0.000211037
-0.000828182 0.000211037 -0.00207911
0.00658985 0.00229332 0.00016115
0.00229332 0.00514961 6.46526e-06
0.00016115 6.46526e-06 0.000341108
0.000483875 0.00259577 0.00048734
0.00259577 0.0048954 0.000190878
0.00048734 0.000190878 -0.0011455
-3.72871e-06 0.000431084 -4.90323e-07
0.000431084 -9.3219e-05 2.94585e-06
-4.90323e-07 2.94585e-06 -0.000741166
0.00455047 0.00150276 -4.95579e-06
0.00150276 0.00252236 3.04802e-05
-4.95579e-06 3.04802e-05 0.00165483
-0.00152154 0.000258563 -3.43431e-05
0.000258563 -0.000709829 -3.67076e-06
-3.43431e-05 -3.67076e-06 -0.00154233
0.00056289 0.000350265 -9.639e-06
0.000350265 0.000495936 -1.32371e-05
-9.639e-06 -1.32371e-05 -2.43518e-05
0.00212396 0.000635922 -2.79729e-06
0.000635922 0.000863068 -1.40778e-06
-2.79729e-06 -1.40778e-06 0.000530328
-0.00494164 5.90874e-05 4.12323e-05
5.90874e-05 -0.00339908 5.06362e-05
4.12323e-05 5.06362e-05 -0.00344404
-0.00114203 0.0004239 -8.46982e-07
0.0004239 -0.000470428 2.35435e-06
-8.46982e-07 2.35435e-06 -0.00100314
0.000249545 0.000446024 -1.22483e-05
0.000446024 2.90134e-05 -1.00881e-06
-1.22483e-05 -1.00881e-06 -0.000496283
0.000715631 0.00127417 -5.60977e-05
0.00127417 0.000532745 -1.29534e-05
-5.60977e-05 -1.29534e-05 -0.000369274
-0.000680921 0.00103353 -7.0644e-05
0.00103353 -0.000607776 7.57601e-05
-7.0644e-05 7.57601e-05 -0.0011474
-4.56219e-05 0.000258105 -9.74918e-06
0.000258105 0.00019774 3.51518e-05
-9.74918e-06 3.51518e-05 -0.000288196
0.00220116 0.000995914 3.43959e-05
0.000995914 0.00160958 1.77579e-06
3.43959e-05 1.77579e-06 0.000804497
0.0117745 -0.00999431 -0.00426753
-0.00999431 0.00872059 0.000698674
-0.00426753 0.000698674 -0.00393884
0.0133383 -0.0128668 0.00141375
-0.0128668 0.0213792 -0.000235929
0.00141375 -0.000235929 0.00442416
0.0120997 0.0069587 -0.00162048
0.0069587 0.00391961 -0.00044345
-0.00162048 -0.00044345 -0.00383075
0.0448066 -0.0319006 0.00161722
-0.0319006 0.0329203 0.00181425
0.00161722 0.00181425 0.00901791
0.0346391 -0.00820396 -0.000463483
-0.00820396 0.0185199 0.000747146
-0.000463483 0.000747146 0.0057333
0.00201529 0.00330738 -0.000264855
0.00330738 0.00661141 -0.000315083
-0.000264855 -0.000315083 -0.0015836
0.000636091 -0.00080536 -0.000303489
-0.00080536 0.00546174 8.84236e-05
-0.000303489 8.84236e-05 0.00205171
-0.000149776 0.00227511 -1.07473e-05
0.00227511 0.00320154 2.19579e-05
-1.07473e-05 2.19579e-05 0.000737924
0.0378948 -0.0117068 -0.0012292
-0.0117068 0.0201519 0.000528419
-0.0012292 0.000528419 0.00502869
-0.000869998 0.00931893 -0.000510489
0.00931893 0.00223502 -5.91134e-05
-0.000510489 -5.91134e-05 -0.00371225
0.00106379 0.00581786 -4.25281e-05
0.00581786 0.000942809 -0.000172244
-4.25281e-05 -0.000172244 0.000333438
0.00694655 0.0152235 -0.00143094
0.0152235 -0.00521581 -0.000219597
-0.00143094 -0.000219597 -0.00414571
0.00403022 0.00230625 2.69591e-05
0.00230625 0.00175468 4.02677e-05
2.69591e-05 4.02677e-05 0.000976394
0.00213075 0.00130178 -2.12823e-05
0.00130178 0.000985795 -6.71949e-06
-2.12823e-05 -6.71949e-06 0.000579502
-0.000531557 0.000438153 -6.54262e-05
0.000438153 0.000115764 -6.30157e-06
-6.54262e-05 -6.30157e-06 -0.000686603
0.000646945 0.00207766 -0.000155256
0.00207766 0.00231222 -9.29323e-05
-0.000155256 -9.29323e-05 7.9475e-05
0.001413 0.00124836 -7.51518e-05
0.00124836 0.000932361 -8.58202e-05
-7.51518e-05 -8.58202e-05 0.00027785
0.00293692 0.0037467 1.54507e-06
0.0037467 0.00137259 -1.87992e-05
1.54507e-06 -1.87992e-05 -0.000371081
0.00116509 0.00433775 0.00024506
0.00433775 -0.0011184 0.000155687
0.00024506 0.000155687 -0.00182593
-0.00770382 -0.000662876 -0.00215884
-0.000662876 0.00459292 -3.67068e-05
-0.00215884 -3.67068e-05 -0.00718439
-0.00904561 0.00136691 0.00140222
0.00136691 0.00715178 -6.29541e-05
0.00140222 -6.29541e-05 -0.000111075
-0.000172109 0.0011481 -0.000298542
0.0011481 0.00275781 5.96254e-05
-0.000298542 5.96254e-05 -0.000521918
0.000646996 -0.00260294 -0.000111581
-0.00260294 0.00192912 -7.45768e-05
-0.000111581 -7.45768e-05 -0.000268879
0.00224632 -0.00696597 0.000155104
-0.00696597 0.00161091 9.02286e-05
0.000155104 9.02286e-05 6.63373e-05
0.00629968 0.00610257 0.00146457
0.00610257 0.0169937 0.000452296
0.00146457 0.000452296 0.00450902
0.00553274 -0.0123681 0.00154303
-0.0123681 -0.00643457 -0.000361634
0.00154303 -0.000361634 -0.00375391
0.0216223 0.0103398 0.00279343
0.0103398 0.0174374 0.000488315
0.00279343 0.000488315 0.00533637
0.00375582 -0.00490361 -1.76247e-05
-0.00490361 0.00154211 -1.22935e-05
-1.76247e-05 -1.22935e-05 -5.39279e-06
0.0102106 0.00839487 0.000584599
0.00839487 0.00885917 -0.000212414
0.000584599 -0.000212414 -0.00288253
0.00871298 -0.00825695 -0.000503568
-0.00825695 -0.00945536 0.000242849
-0.000503568 0.000242849 -0.0054002
0.00367058 -0.00692794 -0.000103226
-0.00692794 -0.00165585 0.000101988
-0.000103226 0.000101988 0.000565646
0.00357975 -0.00379803 6.84232e-05
-0.00379803 -0.000262655 -4.26735e-05
6.84232e-05 -4.26735e-05 6.4664e-05
0.0158977 -0.00185722 -0.000104816
-0.00185722 -0.00312435 0.000164906
-0.000104816 0.000164906 -0.000781891
0.00404998 -0.00489923 0.000138635
-0.00489923 -0.00541361 -0.00021084
0.000138635 -0.00021084 -0.000657655
0.00405347 -0.00272702 -0.000105357
-0.00272702 0.00184598 5.8114e-05
-0.000105357 5.8114e-05 0.000756328
0.000922505 -0.00169141 -1.21348e-05
-0.00169141 -0.000523133 2.10126e-06
-1.21348e-05 2.10126e-06 -0.000951218
0.00587825 -0.00205735 4.62079e-05
-0.00205735 0.0017732 -2.94417e-05
4.62079e-05 -2.94417e-05 0.00138993
-0.000252173 -0.00150948 -4.93868e-06
-0.00150948 -0.000948461 4.07389e-06
-4.93868e-06 4.07389e-06 -0.00158
0.00317439 -0.00186171 1.54476e-06
-0.00186171 0.000567629 -5.78509e-07
1.54476e-06 -5.78509e-07 -1.37334e-05
0.00365341 -0.00147832 -2.46132e-06
-0.00147832 0.00049005 -1.88103e-06
-2.46132e-06 -1.88103e-06 0.000337549
0.00306591 -0.00191885 1.39139e-05
-0.00191885 0.000674024 1.25622e-05
1.39139e-05 1.25622e-05 -0.000212048
0.00313109 -0.00145465 -4.23094e-06
-0.00145465 0.000378711 2.2538e-06
-4.23094e-06 2.2538e-06 -9.54933e-06
0.00283415 -0.000985128 -1.03338e-06
-0.000985128 -3.63851e-05 -3.64912e-11
-1.03338e-06 -3.64912e-11 6.49236e-06
0.00240744 -0.0012456 6.46988e-06
-0.0012456 0.000158981 7.76062e-06
6.46988e-06 7.76062e-06 -0.000356562
0.00257205 -0.000890412 -1.14491e-07
-0.000890412 -1.8348e-05 2.98742e-06
-1.14491e-07 2.98742e-06 -0.000139154
0.00272311 -0.000944944 -2.21648e-06
-0.000944944 4.99152e-05 -2.95772e-08
-2.21648e-06 -2.95772e-08 -9.07508e-06
0.00268862 -0.000909021 -4.55363e-06
-0.000909021 0.000126806 -6.82027e-07
-4.55363e-06 -6.82027e-07 -4.06661e-06
0.00260659 -0.000894946 -3.67153e-06
-0.000894946 0.000137865 1.64519e-06
-3.67153e-06 1.64519e-06 1.03509e-05
0.00256137 -0.000858576 -1.0427e-06
-0.000858576 0.000207546 -1.41747e-06
-1.0427e-06 -1.41747e-06 2.4397e-05
0.00266427 -0.000863297 -6.64352e-06
-0.000863297 0.000354275 -1.07661e-06
-6.64352e-06 -1.07661e-06 5.62932e-05
0.00259176 -0.000821038 1.55336e-06
-0.000821038 0.000239604 1.3846e-06
1.55336e-06 1.3846e-06 -1.46534e-05
0.00235267 -0.000798488 4.86592e-06
-0.000798488 -4.51624e-05 6.18346e-06
4.86592e-06 6.18346e-06 -0.000239093
0.00237406 -0.00101253 -8.66806e-06
-0.00101253 0.000253889 -6.78627e-06
-8.66806e-06 -6.78627e-06 -0.000232671
0.00234623 -0.00103636 -6.67621e-07
-0.00103636 0.000176071 -3.39155e-08
-6.67621e-07 -3.39155e-08 -0.000319423
0.00283707 -0.00117826 9.51249e-06
-0.00117826 0.000490833 4.5208e-06
9.51249e-06 4.5208e-06 -6.19753e-05
0.00206495 -0.00118445 -4.39452e-06
-0.00118445 0.00027715 -9.08032e-06
-4.39452e-06 -9.08032e-06 -0.000409259
0.00293049 -0.00137609 -1.81522e-06
-0.00137609 0.000793758 8.50799e-07
-1.81522e-06 8.50799e-07 6.24366e-05
0.00283129 -0.0014726 6.05968e-06
-0.0014726 0.000743085 3.60486e-06
6.05968e-06 3.60486e-06 -4.35837e-05
0.000502399 -0.000462619 -1.2416e-05
-0.000462619 -0.000337725 4.65167e-06
-1.2416e-05 4.65167e-06 -0.000769073
0.0022335 -0.00112524 -2.49922e-06
-0.00112524 0.00067908 2.62948e-06
-2.49922e-06 2.62948e-06 -6.10375e-05
0.00292208 -0.00152993 1.37509e-05
-0.00152993 0.00110502 9.65207e-06
1.37509e-05 9.65207e-06 0.000198385
0.00024869 -0.000248112 -2.3702e-05
-0.000248112 -0.000236208 2.84363e-05
-2.3702e-05 2.84363e-05 -0.000444994
0.00138764 -0.000561009 -1.11091e-05
-0.000561009 0.000440351 -2.36924e-06
-1.11091e-05 -2.36924e-06 5.26328e-05
-0.000586779 -0.000867744 -7.74195e-06
-0.000867744 -0.000721179 3.12508e-06
-7.74195e-06 3.12508e-06 -0.00140196
0.00820271 0.000182133 -0.000241802
0.000182133 0.00520582 2.17516e-05
-0.000241802 2.17516e-05 0.00518553
0.000852176 -0.00026926 -5.86932e-06
-0.00026926 0.000123592 -9.03193e-07
-5.86932e-06 -9.03193e-07 -3.83128e-05
-1.21857e-06 -0.000594538 1.50025e-05
-0.000594538 -0.000203006 5.49483e-06
1.50025e-05 5.49483e-06 -0.000662041
0.00461043 0.000140668 0.000115292
0.000140668 0.00283511 -5.17626e-06
0.000115292 -5.17626e-06 0.00278158
0.000918441 -0.000246659 2.82325e-05
-0.000246659 0.000202265 -2.12935e-05
2.82325e-05 -2.12935e-05 4.72738e-05
0.0066501 0.00010051 0.000216573
0.00010051 0.00417629 -1.99074e-05
0.000216573 -1.99074e-05 0.00417134
0.000991972 0.000770338 -3.43242e-05
0.000770338 0.000138651 1.70893e-05
-3.43242e-05 1.70893e-05 -0.000513038
0.00151571 0.00054219 -1.00417e-05
0.00054219 0.000670961 4.67914e-07
-1.00417e-05 4.67914e-07 0.00017103
-0.000489099 0.000264568 1.56514e-05
0.000264568 -0.000645477 3.80829e-05
1.56514e-05 3.80829e-05 -0.00102208
0.00170788 0.000459574 -1.68214e-06
0.000459574 0.000758847 -1.32377e-05
-1.68214e-06 -1.32377e-05 0.000373223
0.00187197 0.000393873 4.28229e-06
0.000393873 0.0010514 -1.53431e-06
4.28229e-06 -1.53431e-06 0.000613281
0.00173708 0.000400649 2.03276e-06
0.000400649 0.000945303 -7.77879e-06
2.03276e-06 -7.77879e-06 0.000567524
0.0011248 0.000188432 -2.25374e-05
0.000188432 0.000456269 -2.67215e-05
-2.25374e-05 -2.67215e-05 0.000326594
0.000871135 0.000283321 -6.95863e-07
0.000283321 0.000417001 1.05724e-06
-6.95863e-07 1.05724e-06 8.30047e-05
-0.000884465 9.70769e-05 -2.12617e-05
9.70769e-05 -0.000587152 3.47562e-05
-2.12617e-05 3.47562e-05 -0.00110529
0.00379688 -8.51915e-05 -0.000104281
-8.51915e-05 0.00228175 -1.63038e-05
-0.000104281 -1.63038e-05 0.00228313
0.000437201 0.000110348 9.84446e-07
0.000110348 4.8332e-05 -6.73175e-07
9.84446e-07 -6.73175e-07 -5.05583e-05
0.000819855 0.000234449 -3.16465e-06
0.000234449 0.00037264 1.62733e-05
-3.16465e-06 1.62733e-05 8.90192e-05
0.00358519 -9.09897e-05 -1.0597e-05
-9.09897e-05 0.00213925 8.52784e-07
-1.0597e-05 8.52784e-07 0.00213662
0.000138409 6.01523e-06 4.10681e-06
6.01523e-06 -0.000147776 1.56269e-05
4.10681e-06 1.56269e-05 -0.000223095
0.00335926 -8.44444e-05 4.00256e-05
-8.44444e-05 0.00198127 9.68697e-06
4.00256e-05 9.68697e-06 0.00197864
0.00407879 -0.00504273 -0.00326788
-0.00504273 0.00640639 0.000279734
-0.00326788 0.000279734 0.00076346
0.00253131 -0.0045784 -0.000362272
-0.0045784 0.0112262 -9.15696e-05
-0.000362272 -9.15696e-05 -0.000924312
0.0068183 0.00191504 -0.000816769
0.00191504 0.00440622 -0.000206848
-0.000816769 -0.000206848 -0.000136862
0.0013956 0.000416232 1.22216e-05
0.000416232 0.000721782 1.17978e-05
1.22216e-05 1.17978e-05 0.000146281
0.00108723 0.000422961 1.60942e-05
0.000422961 0.000783169 -2.69875e-06
1.60942e-05 -2.69875e-06 2.41293e-05
0.0018567 0.0011167 -3.0763e-06
0.0011167 0.000861524 -1.65664e-06
-3.0763e-06 -1.65664e-06 2.04929e-05
0.00269705 0.00152376 1.65524e-06
0.00152376 0.00111513 2.1192e-05
1.65524e-06 2.1192e-05 0.000231949
0.00161465 0.00129288 -5.66115e-05
0.00129288 0.00102426 1.45266e-05
-5.66115e-05 1.45266e-05 1.03885e-05
0.00580625 0.000939133 1.42821e-05
0.000939133 0.00364383 1.21585e-05
1.42821e-05 1.21585e-05 0.00322608
0.00179078 0.000683569 3.45011e-05
0.000683569 0.00111886 2.74879e-05
3.45011e-05 2.74879e-05 0.000505974
0.00300902 0.00132693 -5.95311e-06
0.00132693 0.00184079 -2.31247e-07
-5.95311e-06 -2.31247e-07 0.00098501
0.0029258 0.00179109 -3.63296e-05
0.00179109 0.00122998 8.70941e-07
-3.63296e-05 8.70941e-07 0.000352996
0.00239896 0.00164754 -3.454e-05
0.00164754 0.00087336 5.62035e-05
-3.454e-05 5.62035e-05 0.000292638
0.00223944 0.0022583 4.53066e-05
0.0022583 0.000197951 -2.58756e-05
4.53066e-05 -2.58756e-05 -0.00045891
0.00141064 0.00138131 1.92463e-05
0.00138131 0.000576923 1.02982e-05
1.92463e-05 1.02982e-05 -6.36315e-05
0.00356523 0.00124589 -1.86737e-05
0.00124589 0.00243382 -2.61699e-06
-1.86737e-05 -2.61699e-06 0.00147359
0.0186224 0.00857938 -0.00024878
0.00857938 -0.00256982 0.000111736
-0.00024878 0.000111736 0.0010264
0.0194332 -0.00707171 -0.00108294
-0.00707171 0.0111756 -0.000152258
-0.00108294 -0.000152258 0.00180614
0.0129107 -0.0123193 0.00221538
-0.0123193 0.0229482 -0.000111064
0.00221538 -0.000111064 0.00730043
0.0302731 -0.0083851 0.000571429
-0.0083851 0.0150062 0.000175577
0.000571429 0.000175577 0.00185647
0.00737424 0.0105631 -0.000371682
0.0105631 0.0048207 -0.000173407
-0.000371682 -0.000173407 -0.000497598
0.00112704 0.00261537 7.8667e-05
0.00261537 0.00402989 6.95425e-05
7.8667e-05 6.95425e-05 0.00142002
0.00166659 0.00561735 -0.000206298
0.00561735 0.00129268 -0.000129317
-0.000206298 -0.000129317 0.00101932
0.0100288 0.0124254 0.000151805
0.0124254 -0.00135312 0.000150953
0.000151805 0.000150953 -0.00159102
0.0083841 0.00885032 -0.000219728
0.00885032 -0.00107793 -0.000180692
-0.000219728 -0.000180692 0.000191957
0.00170477 0.0023119 4.96996e-06
0.0023119 4.03967e-05 -3.69322e-05
4.96996e-06 -3.69322e-05 -0.000511483
0.00266922 0.00201422 1.88367e-05
0.00201422 0.00102339 6.63028e-06
1.88367e-05 6.63028e-06 0.000328445
0.00172151 0.00118084 1.02405e-05
0.00118084 0.000783813 -5.28002e-05
1.02405e-05 -5.28002e-05 0.000393838
0.00253915 0.00380683 -0.00010344
0.00380683 0.000903956 -7.19754e-05
-0.00010344 -7.19754e-05 -0.000782706
0.0056795 0.00488836 0.000123044
0.00488836 0.00107414 4.05131e-05
0.000123044 4.05131e-05 -0.000124942
0.00807071 -0.000139928 -2.49296e-05
-0.000139928 -0.00712271 -9.65916e-06
-2.49296e-05 -9.65916e-06 -0.00807258
0.00189087 -0.00301055 -5.67813e-05
-0.00301055 0.00879206 5.51009e-05
-5.67813e-05 5.51009e-05 0.000773083
-0.0118276 0.000176614 0.0021385
0.000176614 0.00832045 5.39653e-05
0.0021385 5.39653e-05 0.00301152
0.00407105 -0.00592687 -0.000237107
-0.00592687 0.00119181 0.000150683
-0.000237107 0.000150683 -0.000778266
0.00708719 -0.00860631 -6.59808e-05
-0.00860631 -0.0010805 0.000154592
-6.59808e-05 0.000154592 0.000706647
0.0119033 0.00447152 0.00305645
0.00447152 0.00909397 -0.000223174
0.00305645 -0.000223174 0.00302726
0.0119273 -0.0073346 -0.000503301
-0.0073346 -0.00659117 0.000375275
-0.000503301 0.000375275 -0.00176227
0.00345855 -0.00390694 -3.96404e-05
-0.00390694 -0.000486672 1.66108e-05
-3.96404e-05 1.66108e-05 -0.000323731
0.0134296 -0.00165113 -0.000484587
-0.00165113 -0.0055954 0.000182014
-0.000484587 0.000182014 -0.0036491
0.0077715 -0.00569193 0.000117993
-0.00569193 -0.00296623 -1.42764e-05
0.000117993 -1.42764e-05 0.000606703
0.00386523 -0.00295286 7.43745e-05
-0.00295286 -0.00149478 -8.75033e-05
7.43745e-05 -8.75033e-05 -0.000191869
0.00442112 -0.00233718 0.000181868
-0.00233718 -0.00476387 -6.56283e-05
0.000181868 -6.56283e-05 0.00010829
0.000306389 -0.00164285 5.18113e-06
-0.00164285 -0.000941918 2.43374e-05
5.18113e-06 2.43374e-05 -0.0012362
0.00255429 -0.00163602 -3.58986e-05
-0.00163602 -0.000242061 1.1943e-05
-3.58986e-05 1.1943e-05 -0.000190251
0.00478413 -0.00145911 5.26484e-05
-0.00145911 0.000895633 -2.9413e-05
5.26484e-05 -2.9413e-05 0.00107925
0.00147982 -0.00161192 -3.4124e-06
-0.00161192 -0.000311253 1.02938e-05
-3.4124e-06 1.02938e-05 -0.000787151
0.00317531 -0.00145319 -5.91163e-06
-0.00145319 0.000206643 2.18333e-06
-5.91163e-06 2.18333e-06 6.45568e-05
0.00316736 -0.00106156 2.74663e-06
-0.00106156 -1.66498e-05 -1.26911e-06
2.74663e-06 -1.26911e-06 0.000127614
0.00306817 -0.00142735 -1.2529e-05
-0.00142735 0.000349765 9.80801e-06
-1.2529e-05 9.80801e-06 -1.95528e-05
0.00275903 -0.000978158 -3.54783e-07
-0.000978158 -8.03393e-05 1.20238e-06
-3.54783e-07 1.20238e-06 -4.04007e-05
0.00287772 -0.000929375 -1.87386e-06
-0.000929375 -2.07364e-05 -4.63417e-07
-1.87386e-06 -4.63417e-07 3.80304e-05
0.00250592 -0.000875788 3.52202e-06
-0.000875788 -6.33581e-05 5.20758e-06
3.52202e-06 5.20758e-06 -0.000171911
0.00271855 -0.000935709 -1.97014e-07
-0.000935709 6.21753e-05 5.53875e-07
-1.97014e-07 5.53875e-07 2.57545e-06
0.00279924 -0.000897286 -2.46274e-06
-0.000897286 4.9385e-05 -6.0881e-07
-2.46274e-06 -6.0881e-07 9.19744e-06
0.0026461 -0.000907821 -5.10754e-06
-0.000907821 9.62027e-05 4.62662e-07
-5.10754e-06 4.62662e-07 -2.52042e-05
0.00261131 -0.000853287 -1.18019e-06
-0.000853287 0.000124679 -1.11152e-06
-1.18019e-06 -1.11152e-06 -8.56833e-06
0.00255324 -0.000894568 5.82585e-07
-0.000894568 9.41015e-05 3.78698e-06
5.82585e-07 3.78698e-06 -2.5571e-05
0.00257117 -0.000859425 8.36058e-07
-0.000859425 0.000210888 -5.80606e-07
8.36058e-07 -5.80606e-07 3.46617e-05
0.00254452 -0.000842241 -2.42975e-06
-0.000842241 0.000272191 6.91902e-08
-2.42975e-06 6.91902e-08 3.73728e-05
0.0025893 -0.0008843 -1.36067e-06
-0.0008843 0.000377305 -4.25198e-06
-1.36067e-06 -4.25198e-06 2.64199e-05
0.00270217 -0.000860305 -2.44863e-07
-0.000860305 0.000380537 -2.79371e-07
-2.44863e-07 -2.79371e-07 7.56515e-05
0.00274601 -0.000819797 8.61219e-06
-0.000819797 0.000361505 2.35487e-06
8.61219e-06 2.35487e-06 0.000102908
0.00240234 -0.00103964 -7.8969e-07
-0.00103964 0.000384739 -5.54887e-06
-7.8969e-07 -5.54887e-06 -0.000168142
0.00244131 -0.00103807 -3.64572e-06
-0.00103807 0.000285353 -7.84998e-07
-3.64572e-06 -7.84998e-07 -0.000213691
0.002356 -0.00105364 8.05747e-06
-0.00105364 0.00017243 3.62029e-06
8.05747e-06 3.62029e-06 -0.000328943
0.00133775 -0.000698577 -1.75562e-05
-0.000698577 9.49647e-05 9.77156e-07
-1.75562e-05 9.77156e-07 -0.000428608
0.00254637 -0.00123919 -1.71846e-06
-0.00123919 0.0006211 -3.8145e-07
-1.71846e-06 -3.8145e-07 -8.17486e-05
0.00309397 -0.00141415 1.0313e-05
-0.00141415 0.000861216 6.99944e-06
1.0313e-05 6.99944e-06 0.000116948
0.000180531 -0.000288556 -1.68816e-05
-0.000288556 -0.000302979 3.04779e-05
-1.68816e-05 3.04779e-05 -0.00054347
0.000958314 -0.000517077 4.71438e-06
-0.000517077 -1.18387e-05 6.66686e-07
4.71438e-06 6.66686e-07 -0.000464895
0.00275688 -0.00117951 1.42376e-07
-0.00117951 0.0010222 1.2519e-05
1.42376e-07 1.2519e-05 0.0002771
0.00825195 -2.93137e-06 -0.000318167
-2.93137e-06 0.00518686 3.04086e-05
-0.000318167 3.04086e-05 0.00519988
0.000376303 -0.000293403 -7.86933e-06
-0.000293403 -0.000166892 6.21212e-07
-7.86933e-06 6.21212e-07 -0.000377493
0.00134839 -0.000643924 5.28022e-06
-0.000643924 0.000508174 4.31414e-06
5.28022e-06 4.31414e-06 5.21758e-05
0.00771596 0.00010224 1.4367e-05
0.00010224 0.00486922 -4.41216e-06
1.4367e-05 -4.41216e-06 0.00486306
0.00100951 -0.000304792 3.23244e-05
-0.000304792 0.00022864 -2.56719e-05
3.23244e-05 -2.56719e-05 5.78971e-05
0.00722535 0.000159505 0.000213338
0.000159505 0.00456845 -2.74328e-05
0.000213338 -2.74328e-05 0.00454883
0.00383949 0.00151217 -1.45863e-05
0.00151217 0.00184426 1.81398e-05
-1.45863e-05 1.81398e-05 0.000970168
0.00234547 0.00100385 -1.5211e-06
0.00100385 0.00107871 1.77722e-06
-1.5211e-06 1.77722e-06 0.000350784
-0.00094867 0.000490367 -1.12256e-05
0.000490367 -0.000915306 2.49275e-05
-1.12256e-05 2.49275e-05 -0.00149488
0.000404441 0.000375027 4.9157e-06
0.000375027 2.34388e-06 -1.05522e-05
4.9157e-06 -1.05522e-05 -0.000478416
-0.000280363 0.000470108 9.04297e-07
0.000470108 -0.000478247 -1.00468e-05
9.04297e-07 -1.00468e-05 -0.000880784
-0.000966212 0.000631557 1.77233e-07
0.000631557 -0.000928509 5.29526e-06
1.77233e-07 5.29526e-06 -0.00132601
0.000483285 0.00019298 -2.13927e-05
0.00019298 0.000156653 -1.29989e-05
-2.13927e-05 -1.29989e-05 -0.000299195
0.000568825 0.000502839 2.14139e-06
0.000502839 0.000178644 3.08736e-07
2.14139e-06 3.08736e-07 -0.000214548
0.00109149 0.000293003 -3.8331e-05
0.000293003 0.000342805 -2.90428e-05
-3.8331e-05 -2.90428e-05 0.000192243
0.00547441 -0.000137135 -0.000152998
-0.000137135 0.00343244 -2.77928e-05
-0.000152998 -2.77928e-05 0.00341731
0.000412946 0.000132786 4.67001e-06
0.000132786 1.60572e-05 -6.7912e-07
4.67001e-06 -6.7912e-07 -0.000120361
-0.000148637 0.000165216 -5.12414e-06
0.000165216 -0.000198927 2.15064e-05
-5.12414e-06 2.15064e-05 -0.000563995
0.00448448 -0.000142132 -1.71079e-05
-0.000142132 0.00275876 2.1261e-06
-1.71079e-05 2.1261e-06 0.00274464
-0.000102798 -5.76226e-05 -1.37685e-05
-5.76226e-05 -0.000273332 1.94633e-05
-1.37685e-05 1.94633e-05 -0.000387146
0.00378482 -0.000110838 5.38935e-05
-0.000110838 0.00227737 1.16819e-05
5.38935e-05 1.16819e-05 0.00226937
0.0160119 0.00129802 0.000939836
0.00129802 -0.00277865 0.000176743
0.000939836 0.000176743 0.000957912
0.00716722 -0.0107178 -0.00180355
-0.0107178 0.0053511 0.000139612
-0.00180355 0.000139612 -0.00687224
-1.4761e-05 -0.00199465 -0.000356924
-0.00199465 0.0102957 -5.94001e-05
-0.000356924 -5.94001e-05 0.000109424
-3.23879e-06 0.000201194 9.73904e-06
0.000201194 9.41611e-05 -9.30606e-06
9.73904e-06 -9.30606e-06 -0.000686133
0.00184385 0.00114525 3.39645e-05
0.00114525 0.000877921 -2.21712e-05
3.39645e-05 -2.21712e-05 4.1197e-06
0.00266428 0.00136303 -9.92541e-06
0.00136303 0.00148137 -1.16472e-05
-9.92541e-06 -1.16472e-05 0.000565414
0.00230029 0.0014928 -4.03791e-06
0.0014928 0.000886318 -6.13101e-07
-4.03791e-06 -6.13101e-07 -4.89629e-06
0.00228629 0.00137703 2.12408e-05
0.00137703 0.000592809 2.8128e-05
2.12408e-05 2.8128e-05 -0.000149027
0.00176332 0.00166777 -2.35476e-05
0.00166777 0.00047751 1.51678e-05
-2.35476e-05 1.51678e-05 -0.000346141
0.00300152 0.00124805 -1.00831e-06
0.00124805 0.00170282 -1.36762e-05
-1.00831e-06 -1.36762e-05 0.000871348
0.00245139 0.00174715 4.22348e-06
0.00174715 0.000913445 3.7736e-06
4.22348e-06 3.7736e-06 5.54896e-05
0.00335971 0.00167556 3.75835e-05
0.00167556 0.00160897 1.14853e-05
3.75835e-05 1.14853e-05 0.00082212
0.00341532 0.00171062 1.08839e-06
0.00171062 0.0013546 1.07806e-05
1.08839e-06 1.07806e-05 0.000538302
0.0010727 0.0016055 -3.99748e-06
0.0016055 -0.000151302 2.36413e-06
-3.99748e-06 2.36413e-06 -0.000742707
0.00511801 0.00251366 1.74646e-05
0.00251366 0.00176685 2.95078e-05
1.74646e-05 2.95078e-05 0.000872898
0.00306999 0.00227978 1.75838e-05
0.00227978 0.000744614 4.32939e-06
1.75838e-05 4.32939e-06 5.65069e-05
0.00229128 0.00138913 -3.73603e-05
0.00138913 0.00103064 -0.00011389
-3.73603e-05 -0.00011389 0.000380539
0.00605066 0.0046781 4.41971e-05
0.0046781 -0.00520814 0.00010523
4.41971e-05 0.00010523 0.000333272
0.0130116 0.00991542 0.000720127
0.00991542 -0.00681191 0.000319658
0.000720127 0.000319658 -0.00291515
0.0232273 -0.0115409 0.00182388
-0.0115409 0.0146987 -0.000732344
0.00182388 -0.000732344 0.00166726
0.00248429 0.0151369 0.00175538
0.0151369 -0.00479993 0.00054898
0.00175538 0.00054898 -0.0050148
-0.000820551 0.00436943 2.37088e-06
0.00436943 0.000662028 4.84631e-05
2.37088e-06 4.84631e-05 0.000258599
0.00349473 0.0054291 -0.000160371
0.0054291 -0.00195545 -0.00014067
-0.000160371 -0.00014067 0.000196245
0.0077706 0.00441589 5.06457e-05
0.00441589 0.000807646 2.46256e-05
5.06457e-05 2.46256e-05 0.000686826
0.00596658 0.00323864 1.74421e-05
0.00323864 0.00198469 1.12476e-05
1.74421e-05 1.12476e-05 0.0011475
0.00156594 0.00177853 -5.18412e-06
0.00177853 0.000437166 -3.95166e-05
-5.18412e-06 -3.95166e-05 -0.000197731
0.00890419 0.00522549 -0.000154392
0.00522549 0.00248202 0.0001014
-0.000154392 0.0001014 0.00104267
0.00653574 -0.000994147 0.000276513
-0.000994147 -0.0045717 8.52568e-05
0.000276513 8.52568e-05 0.000392611
0.0172392 -0.000326935 5.53261e-05
-0.000326935 -0.00258376 -6.34064e-05
5.53261e-05 -6.34064e-05 0.000381081
-0.0059943 -0.00538577 0.00249947
-0.00538577 0.00460461 -0.000217839
0.00249947 -0.000217839 -0.00729434
0.00383466 -0.00387227 -0.000178381
-0.00387227 -0.000279921 9.99641e-05
-0.000178381 9.99641e-05 -4.21125e-05
0.00750897 -0.00580201 -0.000198114
-0.00580201 -0.0034323 0.000221103
-0.000198114 0.000221103 0.000644416
0.00258822 -0.001237 -0.000594917
-0.001237 -0.0139006 6.94227e-05
-0.000594917 6.94227e-05 -0.00972524
0.00427653 -0.00285706 5.76291e-05
-0.00285706 -0.00119049 -1.96244e-06
5.76291e-05 -1.96244e-06 0.000213091
0.00521933 -0.00233413 -0.000117913
-0.00233413 -0.00394947 3.21139e-05
-0.000117913 3.21139e-05 -7.05927e-05
0.00575981 -0.00191719 6.89146e-05
-0.00191719 -5.90691e-05 -7.27049e-05
6.89146e-05 -7.27049e-05 0.00114076
0.0101489 -0.00160886 0.000213826
-0.00160886 0.001636 3.21791e-06
0.000213826 3.21791e-06 0.00347934
-0.00137471 -0.00121558 4.948e-05
-0.00121558 -0.00275377 1.60267e-05
4.948e-05 1.60267e-05 -0.00214393
0.00282361 -0.00126775 -1.7858e-05
-0.00126775 -0.000364098 2.68751e-06
-1.7858e-05 2.68751e-06 9.80249e-05
0.00303654 -0.000874449 3.33483e-05
-0.000874449 -0.000324407 -1.79545e-05
3.33483e-05 -1.79545e-05 0.000167063
0.00264464 -0.00142451 -2.08613e-06
-0.00142451 -0.000107754 3.73062e-06
-2.08613e-06 3.73062e-06 -0.000236649
0.0031293 -0.00105994 3.00487e-07
-0.00105994 -3.34384e-05 8.26029e-07
3.00487e-07 8.26029e-07 0.000113892
0.00299639 -0.000863706 -1.93075e-06
-0.000863706 -0.000122484 -9.14494e-07
-1.93075e-06 -9.14494e-07 3.60582e-07
0.0027005 -0.000974682 8.18126e-07
-0.000974682 -0.000118229 2.98034e-06
8.18126e-07 2.98034e-06 -8.08734e-05
0.00284934 -0.000927553 -8.35816e-08
-0.000927553 -2.98361e-05 1.60839e-07
-8.35816e-08 1.60839e-07 2.02248e-05
0.00276446 -0.00077123 -2.34885e-06
-0.00077123 -6.99417e-05 -5.92729e-07
-2.34885e-06 -5.92729e-07 -2.89409e-05
0.00271689 -0.000928734 1.8641e-06
-0.000928734 7.15544e-05 1.50739e-06
1.8641e-06 1.50739e-06 1.21154e-05
0.00278821 -0.000898185 -2.27214e-07
-0.000898185 6.74186e-05 -2.88422e-07
-2.27214e-07 -2.88422e-07 1.89167e-05
0.00270921 -0.0007721 9.73308e-07
-0.0007721 9.10317e-05 -1.27054e-06
9.73308e-07 -1.27054e-06 3.59706e-05
0.00259854 -0.000906599 -1.53368e-06
-0.000906599 6.03017e-05 1.69661e-06
-1.53368e-06 1.69661e-06 -5.06305e-05
0.00258212 -0.00085796 -1.40345e-06
-0.00085796 9.61398e-05 3.32736e-07
-1.40345e-06 3.32736e-07 -3.30091e-05
0.00254469 -0.000790498 -1.52753e-06
-0.000790498 0.000182073 -2.32575e-07
-1.52753e-06 -2.32575e-07 1.19419e-05
0.00257571 -0.000858407 3.34814e-06
-0.000858407 0.00021112 1.07519e-06
3.34814e-06 1.07519e-06 4.23655e-05
0.00252896 -0.00083409 4.17792e-07
-0.00083409 0.000257687 -3.4725e-07
4.17792e-07 -3.4725e-07 2.91206e-05
0.00255477 -0.000834921 -1.17167e-06
-0.000834921 0.000323236 -4.55772e-07
-1.17167e-06 -4.55772e-07 3.45609e-05
0.00224598 -0.00083907 2.96294e-06
-0.00083907 0.000239286 -7.78851e-06
2.96294e-06 -7.78851e-06 -0.000162522
0.00252513 -0.000881008 1.05027e-07
-0.000881008 0.000330144 -1.58177e-06
1.05027e-07 -1.58177e-06 -3.19611e-05
0.00273574 -0.000857904 5.76034e-06
-0.000857904 0.000404299 7.26522e-07
5.76034e-06 7.26522e-07 9.1948e-05
0.00143375 -0.000706569 -1.95928e-05
-0.000706569 -6.67721e-06 3.10619e-07
-1.95928e-05 3.10619e-07 -0.000476579
0.00260505 -0.0010473 -4.33513e-07
-0.0010473 0.000539905 5.35693e-07
-4.33513e-07 5.35693e-07 -1.21496e-05
0.00250907 -0.00106495 2.49154e-06
-0.00106495 0.000315876 4.79073e-06
2.49154e-06 4.79073e-06 -0.000196367
0.000124625 -0.000310206 -1.98298e-05
-0.000310206 -0.000375476 3.06642e-05
-1.98298e-05 3.06642e-05 -0.000624088
0.00120619 -0.000678024 2.31026e-06
-0.000678024 3.68419e-05 1.60543e-06
2.31026e-06 1.60543e-06 -0.000486075
0.00307656 -0.00129338 9.05043e-07
-0.00129338 0.00100821 8.37672e-06
9.05043e-07 8.37672e-06 0.000289606
0.00937738 -0.000119082 -0.000396186
-0.000119082 0.0058845 4.30779e-05
-0.000396186 4.30779e-05 0.00590344
6.28731e-06 -0.000299695 2.93578e-06
-0.000299695 -0.000409702 1.0187e-06
2.93578e-06 1.0187e-06 -0.000656036
0.00128054 -0.000551122 1.18186e-05
-0.000551122 0.000235994 3.66222e-06
1.18186e-05 3.66222e-06 -0.000240078
0.00878168 -2.28416e-05 -2.77807e-05
-2.28416e-05 0.00554965 -7.49425e-07
-2.77807e-05 -7.49425e-07 0.00555331
0.000471994 -0.000291932 1.65612e-05
-0.000291932 -0.000110029 -3.18791e-05
1.65612e-05 -3.18791e-05 -0.000326077
0.00795118 5.64516e-05 0.000311753
5.64516e-05 0.00505088 -4.6667e-05
0.000311753 -4.6667e-05 0.00504246
0.00244507 0.00125066 -1.20104e-05
0.00125066 0.00064111 1.9805e-05
-1.20104e-05 1.9805e-05 -6.62576e-05
0.00281595 0.00135361 2.96545e-06
0.00135361 0.00120426 5.11179e-07
2.96545e-06 5.11179e-07 0.000379381
0.00269099 0.00111567 4.74962e-06
0.00111567 0.00108662 1.98147e-05
4.74962e-06 1.98147e-05 0.000360825
0.00147008 0.000947249 3.39162e-05
0.000947249 0.000548083 -1.50302e-05
3.39162e-05 -1.50302e-05 -0.000185259
0.0011972 0.000635037 -4.94642e-07
0.000635037 0.000285009 -1.72655e-06
-4.94642e-07 -1.72655e-06 -0.000276403
6.77073e-05 0.000454446 -4.84408e-06
0.000454446 -0.000237672 2.98257e-06
-4.84408e-06 2.98257e-06 -0.000744173
0.00356038 0.000449603 -3.21746e-06
0.000449603 0.00194383 -2.48192e-05
-3.21746e-06 -2.48192e-05 0.00153345
0.00167024 0.0003969 7.85845e-06
0.0003969 0.000760306 -4.05481e-06
7.85845e-06 -4.05481e-06 0.000395358
0.000246171 0.000302696 -3.64185e-05
0.000302696 -0.000248204 -3.21281e-05
-3.64185e-05 -3.21281e-05 -0.000428058
0.00123826 0.000323237 -5.88048e-06
0.000323237 0.000615984 1.36478e-05
-5.88048e-06 1.36478e-05 0.000238108
0.00053435 0.000270159 -7.11485e-06
0.000270159 1.45269e-05 -6.82988e-07
-7.11485e-06 -6.82988e-07 -0.000138041
0.00685002 -0.000160089 -0.000216833
-0.000160089 0.0043722 -4.04389e-05
-0.000216833 -4.04389e-05 0.00433943
0.00478763 -0.000165453 -2.70401e-05
-0.000165453 0.00297985 3.17411e-06
-2.70401e-05 3.17411e-06 0.00295563
-1.04694e-05 0.000218159 3.10131e-05
0.000218159 -0.000266074 2.67185e-05
3.10131e-05 2.67185e-05 -0.00038769
0.00376154 -0.000125306 6.77346e-05
-0.000125306 0.00227262 1.26741e-05
6.77346e-05 1.26741e-05 0.00226081
0.00183497 0.00142787 0.000219174
0.00142787 -0.00490718 7.29256e-05
0.000219174 7.29256e-05 -0.000364861
0.00356209 0.000907645 0.000324395
0.000907645 -0.0108776 0.000216652
0.000324395 0.000216652 -0.0097891
0.0221538 -0.0122204 -0.000432316
-0.0122204 0.0179351 -0.000204766
-0.000432316 -0.000204766 0.00306459
0.00230399 0.00112185 1.31649e-05
0.00112185 0.000323804 1.6222e-05
1.31649e-05 1.6222e-05 -0.000207142
0.00293789 0.00133238 2.88776e-05
0.00133238 0.00149255 -1.35639e-05
2.88776e-05 -1.35639e-05 0.000637588
0.00168764 0.0014398 1.05892e-05
0.0014398 0.000504867 -2.35197e-05
1.05892e-05 -2.35197e-05 -0.000386245
0.00258831 0.00176506 3.79025e-06
0.00176506 0.000961976 2.21829e-06
3.79025e-06 2.21829e-06 0.000100075
0.00256051 0.00142381 1.24344e-06
0.00142381 0.000763552 3.68778e-06
1.24344e-06 3.68778e-06 3.92117e-06
0.00290167 0.00156568 5.0612e-06
0.00156568 0.000861237 1.5869e-05
5.0612e-06 1.5869e-05 0.000116525
0.00161288 0.00161745 1.64096e-05
0.00161745 0.000405288 -1.8633e-07
1.64096e-05 -1.8633e-07 -0.000421781
0.00159095 0.00136243 3.08219e-05
0.00136243 0.000649344 -5.59897e-05
3.08219e-05 -5.59897e-05 -7.62316e-05
0.00258079 0.00171213 7.42023e-07
0.00171213 0.000773626 -1.37244e-06
7.42023e-07 -1.37244e-06 -4.04861e-06
0.000369771 0.00157684 1.11261e-05
0.00157684 -0.00063257 -3.29444e-05
1.11261e-05 -3.29444e-05 -0.00111192
0.00285523 0.00156268 9.72918e-06
0.00156268 0.00076382 1.36498e-06
9.72918e-06 1.36498e-06 3.52019e-06
0.00403698 0.00158904 7.65348e-05
0.00158904 0.00107615 0.000104767
7.65348e-05 0.000104767 0.000869038
0.00190602 0.00187932 -1.75859e-05
0.00187932 0.000139605 -2.20319e-05
-1.75859e-05 -2.20319e-05 -0.000489874
0.00234647 0.00202989 -2.73593e-05
0.00202989 0.000444492 -7.32511e-06
-2.73593e-05 -7.32511e-06 -0.000138032
0.00249068 0.00210207 1.87489e-05
0.00210207 -0.00285439 7.33477e-05
1.87489e-05 7.33477e-05 -0.000623456
0.0065273 0.00505208 -0.000199766
0.00505208 -0.00489637 -9.76119e-05
-0.000199766 -9.76119e-05 0.000728137
0.00301431 0.00753135 0.00134143
0.00753135 -0.0140514 0.000396204
0.00134143 0.000396204 -0.00980612
0.00187205 0.00514647 -0.000277516
0.00514647 -0.0018837 -0.000157202
-0.000277516 -0.000157202 -9.72872e-05
0.00587728 0.00357723 -2.47701e-05
0.00357723 0.000280983 -1.61647e-05
-2.47701e-05 -1.61647e-05 0.000535977
0.00928683 0.0039229 -0.000256104
0.0039229 0.00342966 -8.931e-05
-0.000256104 -8.931e-05 0.0024263
0.00600654 0.000111224 -3.01662e-05
0.000111224 -0.00139427 -2.51579e-05
-3.01662e-05 -2.51579e-05 0.000470451
0.00304765 -0.000255054 7.981e-05
-0.000255054 -0.00406538 2.94657e-05
7.981e-05 2.94657e-05 -0.000226065
0.0106775 -0.000290844 0.000157078
-0.000290844 -0.00685773 -3.48721e-05
0.000157078 -3.48721e-05 -0.00722207
0.00387029 -0.00268696 -9.39244e-05
-0.00268696 -0.00125877 0.000148268
-9.39244e-05 0.000148268 0.000101995
0.00419534 -0.00235196 -0.000258858
-0.00235196 -0.00514194 0.00012549
-0.000258858 0.00012549 -0.00141313
0.0041781 -0.00170964 -1.17862e-06
-0.00170964 -0.00088574 1.16976e-05
-1.17862e-06 1.16976e-05 0.000406361
0.00518739 -0.00122967 -9.44067e-05
-0.00122967 -0.000969624 2.57301e-06
-9.44067e-05 2.57301e-06 0.000739758
0.00403962 -0.000782109 0.000131144
-0.000782109 0.000110329 -3.57062e-05
0.000131144 -3.57062e-05 0.000671891
0.00343973 -0.000179505 8.03563e-05
-0.000179505 -0.000255377 -7.98387e-06
8.03563e-05 -7.98387e-06 0.000350008
0.00129161 -0.00107455 -1.83475e-05
-0.00107455 -0.00125174 2.03847e-05
-1.83475e-05 2.03847e-05 -0.000594702
0.00296863 -0.000901514 -6.14589e-06
-0.000901514 -0.000330976 1.62756e-06
-6.14589e-06 1.62756e-06 9.70986e-05
0.0029908 -0.000639148 4.0963e-06
-0.000639148 -0.000268966 -3.45458e-06
4.0963e-06 -3.45458e-06 6.72909e-05
0.00307212 -0.00105528 -1.66098e-06
-0.00105528 -5.48981e-05 1.69352e-06
-1.66098e-06 1.69352e-06 9.27236e-05
0.00299068 -0.000837143 -3.37693e-07
-0.000837143 -8.39761e-05 -3.18351e-07
-3.37693e-07 -3.18351e-07 4.68847e-05
0.00275371 -0.000620661 -2.28369e-06
-0.000620661 -0.000207295 -2.34965e-07
-2.28369e-06 -2.34965e-07 -4.04744e-05
0.00281679 -0.000923853 6.13911e-07
-0.000923853 -3.70378e-05 6.62976e-07
6.13911e-07 6.62976e-07 3.12364e-06
0.00274302 -0.000772885 -4.85281e-07
-0.000772885 -6.86635e-05 -6.89296e-09
-4.85281e-07 -6.89296e-09 -2.51369e-05
0.00264192 -0.000637217 3.88673e-07
-0.000637217 -8.12064e-06 -7.56317e-07
3.88673e-07 -7.56317e-07 3.82151e-06
0.00277757 -0.000897883 7.89488e-07
-0.000897883 8.7598e-05 1.07736e-06
7.89488e-07 1.07736e-06 3.01367e-05
0.00270653 -0.000772393 9.67119e-07
-0.000772393 8.60852e-05 -6.27157e-08
9.67119e-07 -6.27157e-08 3.02353e-05
0.00253122 -0.000685756 5.95414e-07
-0.000685756 9.59039e-05 -5.7107e-07
5.95414e-07 -5.7107e-07 5.68829e-06
0.00255637 -0.000863225 -9.63467e-07
-0.000863225 7.01803e-05 1.97837e-06
-9.63467e-07 1.97837e-06 -5.53416e-05
0.00250718 -0.000793948 -9.78534e-07
-0.000793948 0.000143995 3.14365e-07
-9.78534e-07 3.14365e-07 -2.02716e-05
0.00249768 -0.000757836 -2.08768e-06
-0.000757836 0.000214931 -2.04208e-07
-2.08768e-06 -2.04208e-07 3.26433e-06
0.00251855 -0.000826287 3.42929e-06
-0.000826287 0.00024609 -3.16531e-07
3.42929e-06 -3.16531e-07 2.40727e-05
0.0025334 -0.000832438 3.22668e-09
-0.000832438 0.000306051 6.84809e-07
3.22668e-09 6.84809e-07 2.17641e-05
0.00248845 -0.000776524 -6.1238e-07
-0.000776524 0.00037354 -3.85981e-06
-6.1238e-07 -3.85981e-06 3.96335e-05
0.00184204 -0.000639936 -1.99967e-05
-0.000639936 0.000218229 3.81457e-06
-1.99967e-05 3.81457e-06 -0.000176454
0.00235421 -0.000849859 3.7017e-07
-0.000849859 0.000322935 -1.93454e-06
3.7017e-07 -1.93454e-06 -8.89066e-05
0.00246805 -0.000877802 -3.79723e-07
-0.000877802 0.000285996 3.32421e-06
-3.79723e-07 3.32421e-06 -8.70198e-05
9.6547e-05 -0.000355219 -1.9659e-05
-0.000355219 -0.000424324 2.6946e-05
-1.9659e-05 2.6946e-05 -0.000686391
0.00174152 -0.000723425 -1.4453e-06
-0.000723425 0.000202588 1.16634e-07
-1.4453e-06 1.16634e-07 -0.000265897
0.00277631 -0.00105459 -2.9436e-06
-0.00105459 0.000668799 7.97567e-06
-2.9436e-06 7.97567e-06 0.000117181
0.0100945 -0.00018354 -0.000460052
-0.00018354 0.00632486 5.15347e-05
-0.000460052 5.15347e-05 0.00635195
3.65231e-05 -0.000352873 -7.26997e-07
-0.000352873 -0.000412124 1.56285e-06
-7.26997e-07 1.56285e-06 -0.000680207
0.00170403 -0.000718559 2.11984e-05
-0.000718559 0.000361169 1.18313e-06
2.11984e-05 1.18313e-06 -0.000164088
0.00962783 -0.000147989 -7.47056e-06
-0.000147989 0.00605257 1.86942e-06
-7.47056e-06 1.86942e-06 0.00607278
-0.000274015 -0.000344879 2.31991e-05
-0.000344879 -0.00058178 -3.38728e-05
2.31991e-05 -3.38728e-05 -0.000835345
0.00908181 -5.50646e-05 0.000384446
-5.50646e-05 0.00574391 -5.4772e-05
0.000384446 -5.4772e-05 0.0057504
0.00226013 0.00105481 -3.56096e-06
0.00105481 0.000331456 1.63321e-05
-3.56096e-06 1.63321e-05 -0.000204542
0.00250258 0.00123215 -1.50913e-06
0.00123215 0.000716175 2.37583e-06
-1.50913e-06 2.37583e-06 1.78538e-05
0.00280354 0.00119093 2.38603e-05
0.00119093 0.000903278 2.45882e-05
2.38603e-05 2.45882e-05 0.000213624
0.00217011 0.00123633 6.20687e-06
0.00123633 0.000829243 -1.98195e-05
6.20687e-06 -1.98195e-05 3.89803e-05
0.00260709 0.00111575 5.98577e-06
0.00111575 0.00102288 2.83985e-06
5.98577e-06 2.83985e-06 0.000295296
0.000769677 0.000515028 -3.90305e-05
0.000515028 -0.00010764 4.44621e-06
-3.90305e-05 4.44621e-06 -0.00060291
0.00259555 0.000791991 3.35404e-06
0.000791991 0.00115035 -1.46787e-05
3.35404e-06 -1.46787e-05 0.000550803
0.000625854 0.000419151 1.09673e-06
0.000419151 1.16341e-05 -1.2237e-06
1.09673e-06 -1.2237e-06 -0.000415524
0.000185343 0.000313012 -3.92928e-05
0.000313012 -0.000318563 -3.45117e-05
-3.92928e-05 -3.45117e-05 -0.000504548
0.00146657 0.00051663 6.48977e-08
0.00051663 0.000619743 -9.4278e-06
6.48977e-08 -9.4278e-06 0.000248264
0.00073881 0.000319375 6.6982e-06
0.000319375 5.81552e-05 -1.5533e-06
6.6982e-06 -1.5533e-06 -0.000107681
0.00850912 -0.000254447 -0.000244781
-0.000254447 0.00550686 -4.85704e-05
-0.000244781 -4.85704e-05 0.00544067
0.000401652 0.00025216 3.25694e-05
0.00025216 -4.86866e-05 3.15788e-05
3.25694e-05 3.15788e-05 -0.000205513
0.00656069 -0.000236171 -2.47751e-05
-0.000236171 0.00420245 2.43287e-06
-2.47751e-05 2.43287e-06 0.0041517
0.00498608 -0.000202125 8.10222e-05
-0.000202125 0.00312392 1.83908e-05
8.10222e-05 1.83908e-05 0.00308969
0.000683438 0.00111596 4.50365e-05
0.00111596 -0.00444807 7.52774e-05
4.50365e-05 7.52774e-05 -0.00144069
0.00626209 0.00148639 7.98921e-05
0.00148639 -0.00412409 3.04806e-05
7.98921e-05 3.04806e-05 0.000926682
0.0181494 0.00141279 3.36145e-05
0.00141279 -0.00244826 0.000227869
3.36145e-05 0.000227869 0.00154405
0.00259852 0.00124686 -1.29522e-06
0.00124686 0.000409864 6.73496e-06
-1.29522e-06 6.73496e-06 -0.000126041
0.00279298 0.00116516 3.53824e-06
0.00116516 0.000368024 5.60007e-06
3.53824e-06 5.60007e-06 -2.75093e-05
0.00239967 0.00114075 -1.11115e-06
0.00114075 0.000383844 -4.05646e-06
-1.11115e-06 -4.05646e-06 -0.000146045
0.00333584 0.00184184 3.08267e-05
0.00184184 0.00140349 -6.51157e-06
3.08267e-05 -6.51157e-06 0.000516132
0.00271722 0.00145034 -9.9539e-06
0.00145034 0.000859153 -1.80679e-05
-9.9539e-06 -1.80679e-05 8.91544e-05
0.00302682 0.00162499 8.55659e-06
0.00162499 0.000887517 2.65392e-06
8.55659e-06 2.65392e-06 0.000129864
0.00353033 0.00150332 -1.7434e-05
0.00150332 0.000670061 -1.40152e-06
-1.7434e-05 -1.40152e-06 0.000205934
0.00232062 0.0017797 1.59658e-05
0.0017797 0.000547676 -8.27024e-06
1.59658e-05 -8.27024e-06 -0.000235069
0.00259257 0.00196396 1.07368e-05
0.00196396 0.000629686 0.000105738
1.07368e-05 0.000105738 -2.3798e-05
0.0028327 0.00167945 7.55159e-06
0.00167945 0.000654925 -3.43465e-06
7.55159e-06 -3.43465e-06 -0.00012719
0.00370184 0.00144605 3.74584e-06
0.00144605 0.000580734 3.88921e-05
3.74584e-06 3.88921e-05 0.000365688
0.00292559 0.000779446 0.000103275
0.000779446 0.000259406 1.33732e-05
0.000103275 1.33732e-05 0.00059275
0.000674064 0.00116528 -1.3288e-05
0.00116528 -0.0007606 -3.94933e-05
-1.3288e-05 -3.94933e-05 -0.000781566
0.00109448 0.00169678 -4.43558e-05
0.00169678 -0.00020109 5.93316e-06
-4.43558e-05 5.93316e-06 -0.000813034
0.00524069 0.00234 6.37446e-05
0.00234 -0.00119072 1.98554e-05
6.37446e-05 1.98554e-05 0.000863933
0.00967845 0.00486562 -0.000112684
0.00486562 -0.00254414 -9.57682e-05
-0.000112684 -9.57682e-05 0.00190381
0.00706333 0.00319949 -0.000157058
0.00319949 0.00149859 -0.000131855
-0.000157058 -0.000131855 0.00177197
0.00385157 8.46702e-05 0.000129877
8.46702e-05 -1.48278e-05 1.02173e-05
0.000129877 1.02173e-05 0.000617761
0.00477608 -0.000163384 -0.000188457
-0.000163384 -0.0028039 1.27085e-05
-0.000188457 1.27085e-05 -0.00021877
0.00550469 0.000250665 -0.000107628
0.000250665 -0.00322107 -5.9854e-05
-0.000107628 -5.9854e-05 0.000516117
0.00390166 -0.00168141 -0.000174898
-0.00168141 -0.000958619 0.000120255
-0.000174898 0.000120255 0.000298749
0.00054024 -0.00102022 -0.000111832
-0.00102022 -0.00358599 3.08546e-05
-0.000111832 3.08546e-05 -0.0018633
0.00390225 -0.000761708 1.60775e-05
-0.000761708 -6.16636e-06 -1.1402e-05
1.60775e-05 -1.1402e-05 0.000649225
0.00285669 -0.000186696 -2.41881e-05
-0.000186696 -0.000563968 -2.20521e-06
-2.41881e-05 -2.20521e-06 4.42661e-05
0.00297638 -0.000431619 1.1214e-05
-0.000431619 -0.000464192 -8.74653e-06
1.1214e-05 -8.74653e-06 1.57557e-05
0.00264142 0.000166401 1.16333e-05
0.000166401 -0.00073523 -4.30821e-06
1.16333e-05 -4.30821e-06 -0.000298394
0.00294941 -0.000938221 -2.30305e-05
-0.000938221 -0.000325464 1.35044e-05
-2.30305e-05 1.35044e-05 4.72146e-05
0.00298823 -0.000668108 -3.42579e-06
-0.000668108 -0.000305136 7.97053e-07
-3.42579e-06 7.97053e-07 8.52186e-06
0.0028465 -0.000468647 -2.20182e-06
-0.000468647 -0.000268673 -1.69073e-07
-2.20182e-06 -1.69073e-07 1.9103e-05
0.00299089 -0.000810536 -1.07871e-06
-0.000810536 -4.80807e-05 5.46607e-07
-1.07871e-06 5.46607e-07 9.56086e-05
0.00275181 -0.000625253 3.43329e-07
-0.000625253 -0.000202514 -2.06879e-07
3.43329e-07 -2.06879e-07 -4.19049e-05
0.00265722 -0.000514397 3.65994e-07
-0.000514397 -0.0001142 -6.04176e-08
3.65994e-07 -6.04176e-08 1.13153e-05
0.0027237 -0.000775204 3.11951e-07
-0.000775204 -6.75588e-05 9.61471e-07
3.11951e-07 9.61471e-07 -2.09203e-05
0.00264115 -0.000635203 3.71827e-07
-0.000635203 -1.51449e-05 -1.68205e-07
3.71827e-07 -1.68205e-07 -2.8134e-06
0.00249763 -0.000563098 9.16335e-07
-0.000563098 2.16499e-05 -4.75579e-07
9.16335e-07 -4.75579e-07 -5.95253e-06
0.00270387 -0.000772993 1.65984e-06
-0.000772993 8.08527e-05 9.64614e-07
1.65984e-06 9.64614e-07 2.41803e-05
0.00252788 -0.000685732 5.65611e-07
-0.000685732 8.92351e-05 -1.01822e-07
5.65611e-07 -1.01822e-07 -1.14792e-06
0.00243245 -0.000635993 -2.78234e-06
-0.000635993 0.00013834 3.62601e-07
-2.78234e-06 3.62601e-07 -1.51268e-07
0.00247081 -0.000797742 4.42446e-07
-0.000797742 0.000106577 8.97513e-07
4.42446e-07 8.97513e-07 -5.19446e-05
0.00251676 -0.000765717 3.63285e-07
-0.000765717 0.000224458 -2.39614e-07
3.63285e-07 -2.39614e-07 1.20376e-05
0.00246269 -0.000718011 -1.27802e-06
-0.000718011 0.000291077 -1.87145e-06
-1.27802e-06 -1.87145e-06 1.15967e-05
0.00251318 -0.000830813 9.2133e-07
-0.000830813 0.00029093 1.13233e-06
9.2133e-07 1.13233e-06 1.03554e-05
0.00243737 -0.000776153 -3.77348e-07
-0.000776153 0.000338054 -4.99879e-08
-3.77348e-07 -4.99879e-08 4.99299e-06
0.00173827 -0.000544967 -1.36861e-05
-0.000544967 0.000124927 3.36486e-06
-1.36861e-05 3.36486e-06 -0.000201715
0.000282103 -0.000321061 -1.76844e-05
-0.000321061 -0.000339315 2.23661e-05
-1.76844e-05 2.23661e-05 -0.000576462
0.00181362 -0.000636415 -5.51403e-08
-0.000636415 0.000199498 1.06799e-07
-5.51403e-08 1.06799e-07 -0.000193107
0.00247445 -0.00086291 -4.43107e-06
-0.00086291 0.000414971 5.40802e-06
-4.43107e-06 5.40802e-06 -7.76558e-06
0.0100903 -0.000260201 -0.000488692
-0.000260201 0.00630773 5.60854e-05
-0.000488692 5.60854e-05 0.00633779
0.000230068 -0.000359972 -4.85291e-07
-0.000359972 -0.000351458 1.90359e-06
-4.85291e-07 1.90359e-06 -0.000607556
0.00194581 -0.000719041 1.94061e-05
-0.000719041 0.000342743 -1.80628e-06
1.94061e-05 -1.80628e-06 -0.000118907
0.0101964 -0.000214549 -4.64866e-06
-0.000214549 0.00639227 3.01224e-06
-4.64866e-06 3.01224e-06 0.00641839
9.78646e-05 -0.000368589 2.06441e-05
-0.000368589 -0.000377 -3.0613e-05
2.06441e-05 -3.0613e-05 -0.000649577
0.0101278 -0.000195186 0.000462408
-0.000195186 0.00637297 -5.88826e-05
0.000462408 -5.88826e-05 0.00639466
0.0024871 0.00108244 4.36826e-06
0.00108244 0.000333552 1.22421e-05
4.36826e-06 1.22421e-05 -0.00011834
0.00234281 0.00105977 2.3924e-06
0.00105977 0.000398348 -8.84784e-07
2.3924e-06 -8.84784e-07 -0.000133706
0.00268755 0.00105853 1.596e-05
0.00105853 0.000690758 2.06616e-05
1.596e-05 2.06616e-05 0.00012247
0.00247151 0.00120575 1.22038e-05
0.00120575 0.000728592 -1.49595e-05
1.22038e-05 -1.49595e-05 4.08975e-05
0.0023945 0.00113121 1.01355e-06
0.00113121 0.000628636 6.47701e-07
1.01355e-06 6.47701e-07 -4.22089e-05
0.00147517 0.000656983 -5.19277e-05
0.000656983 0.000219888 1.05447e-06
-5.19277e-05 1.05447e-06 -0.000280013
0.00256196 0.00110569 -3.27153e-05
0.00110569 0.000901613 -2.4151e-05
-3.27153e-05 -2.4151e-05 0.000193856
0.000837387 0.000488565 -2.23734e-06
0.000488565 -1.51871e-05 1.11228e-06
-2.23734e-06 1.11228e-06 -0.000500777
-0.00022202 0.000309709 -3.26822e-05
0.000309709 -0.000547394 -3.54868e-05
-3.26822e-05 -3.54868e-05 -0.000767889
0.00163547 0.000278066 4.8052e-06
0.000278066 0.000570744 -2.33482e-06
4.8052e-06 -2.33482e-06 0.000214069
0.000252205 0.000289629 5.14877e-06
0.000289629 -0.00027223 -3.19502e-08
5.14877e-06 -3.19502e-08 -0.000458033
0.00890054 -9.2649e-05 -0.000316321
-9.2649e-05 0.00565798 -4.44474e-05
-0.000316321 -4.44474e-05 0.00564322
0.000642867 0.000319393 4.50686e-05
0.000319393 8.20217e-06 3.20706e-05
4.50686e-05 3.20706e-05 -0.000152265
0.00789157 -0.000179305 4.11446e-06
-0.000179305 0.00504356 -4.05747e-06
4.11446e-06 -4.05747e-06 0.0050084
0.00587426 -0.000265639 0.000111603
-0.000265639 0.00375517 2.85215e-05
0.000111603 2.85215e-05 0.0036952
0.00189307 0.000568282 7.26051e-05
0.000568282 -0.000854857 4.64567e-05
7.26051e-05 4.64567e-05 -0.000131656
0.00150059 0.00126797 5.41279e-05
0.00126797 -0.00433097 -1.28584e-05
5.41279e-05 -1.28584e-05 -0.00142084
0.00652994 0.0024813 0.00029916
0.0024813 -0.00418294 0.000154575
0.00029916 0.000154575 0.00131949
0.00296485 0.00120681 -6.78164e-06
0.00120681 0.000353715 -1.74736e-06
-6.78164e-06 -1.74736e-06 1.14718e-05
0.00273272 0.00128606 -1.03784e-05
0.00128606 0.000487692 -3.91913e-06
-1.03784e-05 -3.91913e-06 -5.44854e-05
0.00264727 0.000874997 5.92321e-06
0.000874997 0.000162026 1.25296e-06
5.92321e-06 1.25296e-06 -3.73334e-05
0.002767 0.00115046 9.31632e-07
0.00115046 0.000347388 2.68856e-07
9.31632e-07 2.68856e-07 -3.41119e-05
0.00250291 0.0011554 -5.82628e-06
0.0011554 0.000455599 -1.62638e-05
-5.82628e-06 -1.62638e-05 -7.10707e-05
0.00311358 0.00105368 -6.74179e-06
0.00105368 0.000154227 4.9322e-07
-6.74179e-06 4.9322e-07 5.04757e-05
0.00307152 0.00167766 7.1334e-06
0.00167766 0.000867083 -6.87505e-06
7.1334e-06 -6.87505e-06 9.81494e-05
0.00327316 0.00141653 -2.74221e-07
0.00141653 0.000553105 -1.43725e-06
-2.74221e-07 -1.43725e-06 0.000115942
0.00247049 0.000661981 -4.68617e-06
0.000661981 -0.000461404 3.92311e-06
-4.68617e-06 3.92311e-06 -0.000171975
0.00239947 0.00174394 -4.49967e-06
0.00174394 0.000305585 2.02572e-05
-4.49967e-06 2.02572e-05 -0.000456308
0.00321442 0.00137706 2.96553e-06
0.00137706 0.000307059 -8.62517e-06
2.96553e-06 -8.62517e-06 0.000116168
0.000992833 0.000766775 -5.4002e-05
0.000766775 -0.00111131 -6.49784e-06
-5.4002e-05 -6.49784e-06 -0.000531504
-0.00365537 0.000670748 -1.16651e-05
0.000670748 -0.00312058 -2.56571e-05
-1.16651e-05 -2.56571e-05 -0.00294751
0.00665089 0.00249806 -0.000277134
0.00249806 -0.000350014 -0.000114093
-0.000277134 -0.000114093 0.00157126
0.00287705 0.000288808 8.39872e-06
0.000288808 -0.000403936 1.09247e-06
8.39872e-06 1.09247e-06 -2.37701e-06
0.00371473 0.000103027 -1.44104e-06
0.000103027 -0.000208815 -8.58958e-06
-1.44104e-06 -8.58958e-06 0.000455827
0.00326017 -0.000492515 -0.000265765
-0.000492515 -0.00385645 -3.05676e-05
-0.000265765 -3.05676e-05 -0.00112072
0.00331175 -0.000705018 -0.000150768
-0.000705018 -0.000396745 4.10583e-05
-0.000150768 4.10583e-05 0.000368998
0.00259248 -0.000208958 -3.17186e-05
-0.000208958 -0.000640895 6.64467e-06
-3.17186e-05 6.64467e-06 -6.0778e-05
0.00285396 -0.000463075 7.99518e-06
-0.000463075 -0.000584369 -9.51611e-07
7.99518e-06 -9.51611e-07 -4.60665e-05
0.0030064 0.0001811 -1.56053e-06
0.0001811 -0.000448159 2.23948e-06
-1.56053e-06 2.23948e-06 -5.04218e-05
0.00285756 -8.5018e-05 5.13204e-07
-8.5018e-05 -0.000365979 -2.44686e-06
5.13204e-07 -2.44686e-06 1.04614e-05
0.00294942 -0.000690423 -1.77285e-06
-0.000690423 -0.000357565 2.85694e-06
-1.77285e-06 2.85694e-06 -6.59784e-05
0.00277806 -0.000448294 3.70454e-07
-0.000448294 -0.000301087 -2.74146e-07
3.70454e-07 -2.74146e-07 -1.87971e-05
0.00266583 -0.000333163 4.26633e-07
-0.000333163 -0.000178553 -3.65722e-07
4.26633e-07 -3.65722e-07 3.77149e-05
0.0027492 -0.000629678 1.57226e-06
-0.000629678 -0.000196298 6.01401e-07
1.57226e-06 6.01401e-07 -4.34017e-05
0.0026406 -0.000513809 3.24297e-07
-0.000513809 -0.000120862 1.04335e-07
3.24297e-07 1.04335e-07 -6.08672e-07
0.00247852 -0.000432582 1.0075e-06
-0.000432582 -4.59749e-05 -2.26508e-07
1.0075e-06 -2.26508e-07 -2.28024e-06
0.00264164 -0.000633062 2.58615e-07
-0.000633062 -2.15174e-05 3.60979e-07
2.58615e-07 3.60979e-07 -8.80286e-06
0.00249397 -0.000563053 2.62085e-07
-0.000563053 1.64833e-05 -4.03941e-08
2.62085e-07 -4.03941e-08 -1.1239e-05
0.0023773 -0.000508779 -3.03838e-06
-0.000508779 7.44561e-05 6.78617e-07
-3.03838e-06 6.78617e-07 -3.03017e-06
0.00252492 -0.000685773 4.84307e-07
-0.000685773 8.27139e-05 2.71225e-07
4.84307e-07 2.71225e-07 -7.8647e-06
0.00245587 -0.000640318 3.97601e-07
-0.000640318 0.000148876 -3.11239e-07
3.97601e-07 -3.11239e-07 8.34355e-06
0.00245936 -0.000622213 -2.06807e-06
-0.000622213 0.000239271 -6.3573e-07
-2.06807e-06 -6.3573e-07 2.34872e-05
0.00253503 -0.000773522 1.95602e-06
-0.000773522 0.000232971 1.53029e-07
1.95602e-06 1.53029e-07 2.00817e-05
0.00243737 -0.00071274 -7.47474e-07
-0.00071274 0.000279856 -2.0835e-08
-7.47474e-07 -2.0835e-08 2.0316e-06
0.00169709 -0.000483548 -9.69898e-06
-0.000483548 6.75867e-05 2.92555e-06
-9.69898e-06 2.92555e-06 -0.000212979
0.00238598 -0.000774136 -1.84823e-07
-0.000774136 0.000303511 2.86011e-06
-1.84823e-07 2.86011e-06 -2.79649e-05
0.00175042 -0.000546677 -1.32578e-07
-0.000546677 0.000126131 1.60121e-08
-1.32578e-07 1.60121e-08 -0.000199813
0.00325788 -0.000343479 -6.8337e-05
-0.000343479 0.00162528 1.77224e-05
-6.8337e-05 1.77224e-05 0.00143951
0.00364987 -0.000200546 -0.000395552
-0.000200546 0.00205391 6.66977e-05
-0.000395552 6.66977e-05 0.00203593
0.00184723 -0.000354748 -2.42686e-05
-0.000354748 0.000695049 7.44632e-07
-2.42686e-05 7.44632e-07 0.000472638
0.00174882 -0.00062833 1.74996e-05
-0.00062833 0.000158837 -3.27619e-06
1.74996e-05 -3.27619e-06 -0.000230539
0.00986027 -0.000265043 -5.90979e-06
-0.000265043 0.0061696 3.83271e-06
-5.90979e-06 3.83271e-06 0.00619613
0.000233154 -0.000386044 2.46484e-05
-0.000386044 -0.000343529 -2.56849e-05
2.46484e-05 -2.56849e-05 -0.00060603
0.0102244 -0.000229132 0.000471988
-0.000229132 0.00641555 -6.11247e-05
0.000471988 -6.11247e-05 0.00643769
0.00249673 0.000676566 2.8125e-06
0.000676566 9.36167e-05 -3.853e-07
2.8125e-06 -3.853e-07 -3.69231e-05
0.0025788 0.000923344 7.93452e-06
0.000923344 0.000289514 6.90332e-06
7.93452e-06 6.90332e-06 -7.14354e-06
0.00265484 0.00109586 4.46067e-07
0.00109586 0.000439386 -6.77723e-07
4.46067e-07 -6.77723e-07 -3.80629e-06
0.0026142 0.000973163 1.06714e-05
0.000973163 0.000569602 1.59245e-05
1.06714e-05 1.59245e-05 9.38997e-05
0.00247727 0.00107459 3.90608e-06
0.00107459 0.000494711 -1.72229e-05
3.90608e-06 -1.72229e-05 -3.70983e-05
0.00245378 0.00103025 1.90728e-06
0.00103025 0.000530456 6.6493e-07
1.90728e-06 6.6493e-07 -2.88297e-05
0.00167316 0.000710844 -4.1455e-05
0.000710844 0.000264325 -1.19163e-06
-4.1455e-05 -1.19163e-06 -0.000220756
0.00237897 0.00111544 -2.06884e-05
0.00111544 0.000629032 -2.22271e-05
-2.06884e-05 -2.22271e-05 -3.54393e-05
0.00148104 0.00066385 -1.34936e-06
0.00066385 0.000183043 6.90492e-08
-1.34936e-06 6.90492e-08 -0.000314364
-6.65043e-06 0.000365224 -3.15102e-05
0.000365224 -0.000421368 -3.17421e-05
-3.15102e-05 -3.17421e-05 -0.000678771
0.00128909 0.000462618 3.84869e-05
0.000462618 0.000316967 -1.4469e-06
3.84869e-05 -1.4469e-06 -0.000155427
0.000151073 0.000283242 3.27089e-06
0.000283242 -0.000320497 -2.54492e-07
3.27089e-06 -2.54492e-07 -0.000537998
0.0100175 7.84921e-05 -0.000419914
7.84921e-05 0.00632415 -5.38915e-05
-0.000419914 -5.38915e-05 0.00633392
0.000494301 0.00027323 2.9891e-05
0.00027323 -0.000119845 3.28351e-05
2.9891e-05 3.28351e-05 -0.000302972
0.00891403 -9.36858e-05 1.83925e-05
-9.36858e-05 0.00565557 -3.231e-06
1.83925e-05 -3.231e-06 0.00564522
0.00761639 -0.000216511 0.000196201
-0.000216511 0.00486132 2.92759e-05
0.000196201 2.92759e-05 0.0048232
0.00262597 0.00033281 3.05998e-06
0.00033281 -0.000514424 5.26393e-06
3.05998e-06 5.26393e-06 -0.000107997
0.00136962 0.000488936 -8.53529e-06
0.000488936 -0.00160663 -1.10574e-05
-8.53529e-06 -1.10574e-05 -0.000594644
0.00317373 0.00154373 -0.000228689
0.00154373 -0.00393697 -9.01448e-05
-0.000228689 -9.01448e-05 -0.000849025
0.00272857 0.000819847 -1.96621e-06
0.000819847 9.81106e-05 -2.29281e-06
-1.96621e-06 -2.29281e-06 -6.6691e-07
0.00284075 0.00117685 -5.0212e-06
0.00117685 0.000309422 -5.24535e-07
-5.0212e-06 -5.24535e-07 -2.28081e-05
0.00281001 0.00132085 -7.55437e-07
0.00132085 0.000524985 -7.52371e-06
-7.55437e-07 -7.52371e-06 -2.20362e-05
0.00260433 0.000857847 1.63793e-06
0.000857847 0.000158741 1.03472e-06
1.63793e-06 1.03472e-06 -4.4842e-05
0.00273885 0.00113777 -2.78759e-06
0.00113777 0.000326262 -7.68284e-06
-2.78759e-06 -7.68284e-06 -4.32309e-05
0.00296918 0.000654877 4.07558e-06
0.000654877 -8.69959e-05 1.27643e-06
4.07558e-06 1.27643e-06 9.26842e-05
0.00300873 0.00104165 -2.06706e-06
0.00104165 0.000111721 8.17253e-07
-2.06706e-06 8.17253e-07 2.35286e-05
0.00310796 0.00134389 8.15076e-06
0.00134389 0.000490004 -1.11698e-06
8.15076e-06 -1.11698e-06 7.54845e-05
0.0023579 0.000600163 1.69628e-07
0.000600163 -0.000450358 1.45613e-06
1.69628e-07 1.45613e-06 -0.000140935
0.00271195 0.00126539 7.23415e-06
0.00126539 2.05752e-05 -1.38737e-05
7.23415e-06 -1.38737e-05 -0.000135383
-0.00112735 0.000633765 -3.23216e-05
0.000633765 -0.00276582 -7.37467e-06
-3.23216e-05 -7.37467e-06 -0.00166718
0.00276807 0.000156704 3.78273e-06
0.000156704 -0.000289186 5.39372e-08
3.78273e-06 5.39372e-08 2.27582e-05
0.00286246 0.000269878 1.98977e-06
0.000269878 -0.000419465 -1.35769e-06
1.98977e-06 -1.35769e-06 -1.47162e-05
0.00360562 0.000105533 -0.000102605
0.000105533 -0.000327045 1.21073e-05
-0.000102605 1.21073e-05 0.00032846
0.00272512 -0.000505158 -3.16814e-05
-0.000505158 -0.000732534 1.18448e-05
-3.16814e-05 1.18448e-05 -0.00012674
0.00333261 0.000201692 -6.04641e-06
0.000201692 -0.000202397 3.27549e-06
-6.04641e-06 3.27549e-06 0.000167348
0.00286468 -8.3728e-05 -8.96672e-07
-8.3728e-05 -0.000369762 -8.95969e-07
-8.96672e-07 -8.95969e-07 1.05975e-06
0.00254002 -9.24123e-05 3.2446e-07
-9.24123e-05 -0.000206805 -6.75249e-08
3.2446e-07 -6.75249e-08 -6.20735e-06
0.00270294 -0.00042699 2.29558e-06
-0.00042699 -0.000337594 -7.41852e-07
2.29558e-06 -7.41852e-07 -6.03724e-05
0.0026274 -0.000344496 -2.48689e-08
-0.000344496 -0.000196996 8.89036e-08
-2.48689e-08 8.89036e-08 7.32495e-06
0.00242956 -0.00028481 1.85985e-06
-0.00028481 -9.81697e-05 -6.91583e-07
1.85985e-06 -6.91583e-07 -1.06677e-05
0.00262136 -0.000513042 -7.8201e-07
-0.000513042 -0.000129203 2.67278e-07
-7.8201e-07 2.67278e-07 -1.40812e-05
0.00247782 -0.000431408 2.74905e-08
-0.000431408 -4.95336e-05 5.76414e-08
2.74905e-08 5.76414e-08 -5.87782e-06
0.00232921 -0.000388394 -3.20417e-06
-0.000388394 8.77104e-06 4.3497e-07
-3.20417e-06 4.3497e-07 -1.65066e-05
0.00249029 -0.000563022 -2.55149e-07
-0.000563022 1.10553e-05 2.43382e-07
-2.55149e-07 2.43382e-07 -1.67794e-05
0.00237237 -0.0005097 2.25328e-07
-0.0005097 6.60021e-05 4.76867e-08
2.25328e-07 4.76867e-08 -1.20569e-05
0.00243031 -0.000500626 -3.29477e-06
-0.000500626 0.000179836 4.87368e-07
-3.29477e-06 4.87368e-07 3.05727e-05
0.00248043 -0.000644692 2.8115e-06
-0.000644692 0.000160553 -8.08976e-07
2.8115e-06 -8.08976e-07 1.7955e-05
0.00242652 -0.000615351 -4.43645e-07
-0.000615351 0.0002263 -3.28924e-07
-4.43645e-07 -3.28924e-07 1.23657e-05
0.0016998 -0.000410901 -8.2195e-06
-0.000410901 4.10684e-05 2.00699e-06
-8.2195e-06 2.00699e-06 -0.000194314
0.00240724 -0.000707106 1.03092e-06
-0.000707106 0.000265182 1.2693e-06
1.03092e-06 1.2693e-06 -1.09187e-05
0.00174397 -0.000488163 -5.66037e-08
-0.000488163 9.12254e-05 1.92176e-07
-5.66037e-08 1.92176e-07 -0.000189202
0.00306478 -0.000304265 -7.23918e-05
-0.000304265 0.00149657 1.6035e-05
-7.23918e-05 1.6035e-05 0.00133519
0.00175528 -0.000549617 1.2121e-05
-0.000549617 0.00011895 -3.53924e-06
1.2121e-05 -3.53924e-06 -0.000206844
0.00335636 -0.000371561 6.45599e-05
-0.000371561 0.00169401 -1.18834e-05
6.45599e-05 -1.18834e-05 0.00152311
0.00312416 -0.000200051 -0.0003537
-0.000200051 0.00172757 6.42787e-05
-0.0003537 6.42787e-05 0.00170331
0.00620669 -0.000244712 -0.000337287
-0.000244712 0.00377055 4.76788e-05
-0.000337287 4.76788e-05 0.00376979
0.00353561 -0.000440522 0.00021206
-0.000440522 0.00182198 -4.08775e-05
0.00021206 -4.08775e-05 0.00163972
0.00961969 -0.000262359 0.000452749
-0.000262359 0.00602057 -6.15799e-05
0.000452749 -6.15799e-05 0.00604106
0.00253376 0.000652475 -1.27937e-06
0.000652475 7.69394e-05 -1.78564e-06
-1.27937e-06 -1.78564e-06 8.57941e-06
0.00258775 0.000737267 3.06777e-06
0.000737267 0.000304073 2.25141e-06
3.06777e-06 2.25141e-06 9.8325e-05
0.00250462 0.000661944 4.38018e-07
0.000661944 0.000112034 -1.98295e-07
4.38018e-07 -1.98295e-07 -1.13255e-05
0.00236967 0.00081518 4.7031e-06
0.00081518 0.000317958 1.018e-05
4.7031e-06 1.018e-05 -4.04858e-05
0.00262066 0.000922578 3.29036e-07
0.000922578 0.000309075 -2.48225e-07
3.29036e-07 -2.48225e-07 1.23123e-05
0.00287382 0.00111519 -4.28352e-06
0.00111519 0.000579013 -1.13695e-05
-4.28352e-06 -1.13695e-05 0.000142986
0.00237506 0.000949386 8.31912e-07
0.000949386 0.000403081 2.94713e-07
8.31912e-07 2.94713e-07 -6.69389e-05
0.00170931 0.000678921 -2.75828e-05
0.000678921 0.000162651 -8.84586e-07
-2.75828e-05 -8.84586e-07 -0.00026835
0.0021026 0.000986088 -1.47082e-05
0.000986088 0.000293811 -1.9769e-05
-1.47082e-05 -1.9769e-05 -0.000252152
0.00172375 0.000752496 -2.55815e-06
0.000752496 0.000271642 5.87325e-07
-2.55815e-06 5.87325e-07 -0.000230374
0.000296444 0.000397345 -2.90893e-05
0.000397345 -0.000285318 -2.57473e-05
-2.90893e-05 -2.57473e-05 -0.000553174
0.00115321 0.000627171 5.07357e-05
0.000627171 -6.66815e-05 -1.59429e-06
5.07357e-05 -1.59429e-06 -0.000547615
-8.83974e-05 0.000318233 1.37352e-06
0.000318233 -0.000485904 1.99072e-06
1.37352e-06 1.99072e-06 -0.000729183
0.0102929 0.000185548 -0.000451249
0.000185548 0.00646983 -6.09893e-05
-0.000451249 -6.09893e-05 0.00648341
0.000233814 0.000248088 2.94559e-05
0.000248088 -0.000291433 3.43807e-05
2.94559e-05 3.43807e-05 -0.000494359
0.00933437 2.21399e-05 1.34904e-05
2.21399e-05 0.005877 -1.25281e-06
1.34904e-05 -1.25281e-06 0.0058848
0.0085833 -9.93773e-05 0.000294595
-9.93773e-05 0.00542824 3.01218e-05
0.000294595 3.01218e-05 0.00542248
0.00281926 0.000414216 3.36178e-06
0.000414216 -0.000196099 7.12374e-07
3.36178e-06 7.12374e-07 5.06011e-05
0.00249485 0.000344529 2.2746e-06
0.000344529 -0.000511134 -2.8149e-06
2.2746e-06 -2.8149e-06 -0.000108479
9.12776e-05 0.00044828 -6.41384e-05
0.00044828 -0.00280206 -1.24566e-05
-6.41384e-05 -1.24566e-05 -0.00152881
0.0026353 0.000572754 2.16174e-06
0.000572754 -6.74567e-05 -1.15706e-07
2.16174e-06 -1.15706e-07 5.40467e-07
0.00265302 0.000817705 -8.30508e-07
0.000817705 5.59676e-05 1.07537e-06
-8.30508e-07 1.07537e-06 -3.39193e-05
0.00273191 0.00114606 6.35585e-06
0.00114606 0.000276115 -1.22895e-06
6.35585e-06 -1.22895e-06 -4.50919e-05
0.00257779 0.000841386 -4.89931e-06
0.000841386 0.000165576 -1.22577e-06
-4.89931e-06 -1.22577e-06 -4.17054e-05
0.00288128 0.000644459 -2.37614e-06
0.000644459 -0.000138475 1.83122e-07
-2.37614e-06 1.83122e-07 3.35091e-05
0.00291442 0.00102844 3.58306e-06
0.00102844 8.37711e-05 -1.52847e-06
3.58306e-06 -1.52847e-06 8.47796e-06
0.00224144 0.00060449 1.93654e-06
0.00060449 -0.000406486 -8.61671e-06
1.93654e-06 -8.61671e-06 -0.000105262
0.00259178 0.000123828 1.85762e-06
0.000123828 -0.000188852 2.11247e-07
1.85762e-06 2.11247e-07 3.77395e-06
0.00273095 0.000160088 -4.11541e-07
0.000160088 -0.000292603 -2.90363e-08
-4.11541e-07 -2.90363e-08 9.93134e-06
0.00282629 0.000267142 -1.88413e-05
0.000267142 -0.00044031 1.85888e-06
-1.88413e-05 1.85888e-06 -3.90294e-05
0.00238906 -1.10169e-05 2.2288e-07
-1.10169e-05 -0.000180934 7.60859e-08
2.2288e-07 7.60859e-08 -3.69247e-05
0.00289093 -8.61598e-05 -8.66312e-08
-8.61598e-05 -0.000358471 1.67992e-06
-8.66312e-08 1.67992e-06 4.77771e-06
0.00255082 -9.72293e-05 -1.04603e-09
-9.72293e-05 -0.000198454 1.96608e-07
-1.04603e-09 1.96608e-07 8.3131e-07
0.00240383 -0.000148681 6.39781e-07
-0.000148681 -0.000109138 -9.70972e-08
6.39781e-07 -9.70972e-08 -8.33628e-06
0.00258892 -0.000355513 -1.80012e-07
-0.000355513 -0.000215678 2.61167e-07
-1.80012e-07 2.61167e-07 -2.31474e-05
0.00243658 -0.000281172 5.90451e-07
-0.000281172 -9.56495e-05 -4.54855e-07
5.90451e-07 -4.54855e-07 -7.36132e-06
0.00228341 -0.000267297 -2.46855e-06
-0.000267297 -3.55861e-05 3.55644e-07
-2.46855e-06 3.55644e-07 -2.67106e-05
0.00247958 -0.000430048 -6.55445e-07
-0.000430048 -5.14426e-05 2.80463e-07
-6.55445e-07 2.80463e-07 -7.8158e-06
0.0023298 -0.000387066 2.59215e-08
-0.000387066 6.90952e-06 -4.69066e-08
2.59215e-08 -4.69066e-08 -1.77633e-05
0.00243304 -0.000386365 -3.90667e-06
-0.000386365 0.00014671 7.12888e-07
-3.90667e-06 7.12888e-07 4.98805e-05
0.00236886 -0.000510753 3.27677e-06
-0.000510753 5.84817e-05 -6.62446e-07
3.27677e-06 -6.62446e-07 -2.02064e-05
0.00241282 -0.000496851 -1.17356e-07
-0.000496851 0.000174638 -1.91827e-07
-1.17356e-07 -1.91827e-07 2.55708e-05
0.00170255 -0.000331044 -6.58467e-06
-0.000331044 2.40838e-05 1.19027e-06
-6.58467e-06 1.19027e-06 -0.000168809
0.00239227 -0.000608309 1.8133e-06
-0.000608309 0.000212466 -2.65367e-07
1.8133e-06 -2.65367e-07 4.20004e-07
0.00175379 -0.000415849 -3.8244e-07
-0.000415849 6.55861e-05 2.57106e-07
-3.8244e-07 2.57106e-07 -0.000169663
0.00291125 -0.000268239 -7.58247e-05
-0.000268239 0.00140207 1.45508e-05
-7.58247e-05 1.45508e-05 0.0012607
0.00179274 -0.000493152 8.51487e-06
-0.000493152 0.000115805 -2.7778e-06
8.51487e-06 -2.7778e-06 -0.000164489
0.00317775 -0.000319913 5.83902e-05
-0.000319913 0.00157098 -9.1114e-06
5.83902e-05 -9.1114e-06 0.00142474
0.00300234 -0.000165993 -0.000338018
-0.000165993 0.00164473 5.3814e-05
-0.000338018 5.3814e-05 0.00162582
0.0034426 -0.000370726 0.000199664
-0.000370726 0.00174509 -3.93219e-05
0.000199664 -3.93219e-05 0.0015936
0.00267531 -0.000132571 -0.000131515
-0.000132571 0.00143019 2.26874e-05
-0.000131515 2.26874e-05 0.00138468
0.00859464 -0.000186104 0.000171072
-0.000186104 0.00534241 -1.53459e-05
0.000171072 -1.53459e-05 0.00531493
0.00249719 0.000551259 -2.57987e-07
0.000551259 4.00943e-05 -6.20908e-08
-2.57987e-07 -6.20908e-08 6.43416e-06
0.00248038 0.000619023 -2.54999e-06
0.000619023 0.000174509 -1.22535e-06
-2.54999e-06 -1.22535e-06 5.41999e-05
0.00257653 0.00064908 -2.13954e-06
0.00064908 0.00010939 4.96904e-08
-2.13954e-06 4.96904e-08 3.37703e-05
0.00235918 0.000691071 3.4563e-07
0.000691071 0.000256815 3.63578e-06
3.4563e-07 3.63578e-06 -2.27573e-05
0.00251372 0.000737731 -6.29937e-07
0.000737731 0.000220241 -1.74435e-06
-6.29937e-07 -1.74435e-06 3.35532e-05
0.0024999 0.000645621 -4.97717e-06
0.000645621 0.000122097 -1.27939e-06
-4.97717e-06 -1.27939e-06 6.12e-06
0.00177985 0.000580474 -1.87777e-05
0.000580474 0.000112884 -1.64451e-06
-1.87777e-05 -1.64451e-06 -0.000231522
0.00237663 0.000819962 1.80277e-06
0.000819962 0.000314317 1.41593e-08
1.80277e-06 1.41593e-08 -4.61904e-05
0.00262541 0.000920212 -4.7322e-06
0.000920212 0.00030015 -5.21403e-06
-4.7322e-06 -5.21403e-06 3.82125e-06
0.00213102 0.000923392 -1.00549e-05
0.000923392 0.000235274 -1.64811e-05
-1.00549e-05 -1.64811e-05 -0.000227822
0.00183844 0.000693397 -5.38206e-07
0.000693397 0.000249905 1.87891e-07
-5.38206e-07 1.87891e-07 -0.000186667
0.000438528 0.000369932 -2.47586e-05
0.000369932 -0.000229259 -2.14024e-05
-2.47586e-05 -2.14024e-05 -0.000480378
0.00192673 0.000810315 4.49766e-05
0.000810315 0.00036894 3.81931e-06
4.49766e-05 3.81931e-06 -0.00015303
0.000145382 0.00036879 2.06438e-07
0.00036879 -0.000373762 1.88373e-06
2.06438e-07 1.88373e-06 -0.000636465
0.00973586 0.000259639 -0.000439174
0.000259639 0.00610772 -6.57985e-05
-0.000439174 -6.57985e-05 0.00611518
3.28745e-05 0.000293808 2.91959e-05
0.000293808 -0.000413707 3.12795e-05
2.91959e-05 3.12795e-05 -0.000652284
0.0101861 0.000140612 8.13474e-06
0.000140612 0.00639437 2.05722e-06
8.13474e-06 2.05722e-06 0.00641352
0.00935098 -8.41482e-06 0.000352324
-8.41482e-06 0.00588179 3.26074e-05
0.000352324 3.26074e-05 0.00589337
0.00254617 0.000327145 7.6616e-07
0.000327145 -0.000142746 4.65271e-07
7.6616e-07 4.65271e-07 -5.40871e-06
0.00275861 0.000422415 -1.01012e-06
0.000422415 -0.000271307 8.60869e-07
-1.01012e-06 8.60869e-07 -1.13326e-05
0.00243055 0.000316208 -9.22827e-06
0.000316208 -0.000496471 -2.15987e-06
-9.22827e-06 -2.15987e-06 -8.51842e-05
0.00262158 0.000568085 -5.3327e-07
0.000568085 -7.06187e-05 4.74957e-07
-5.3327e-07 4.74957e-07 -2.18144e-06
0.0025699 0.000816133 -1.49272e-07
0.000816133 8.26324e-06 1.53312e-07
-1.49272e-07 1.53312e-07 -7.18641e-05
0.00279127 0.000630252 1.10552e-06
0.000630252 -0.000203023 -1.76228e-06
1.10552e-06 -1.76228e-06 -3.40667e-05
0.00247951 0.000112306 1.32143e-06
0.000112306 -0.000113337 1.13941e-07
1.32143e-06 1.13941e-07 1.08137e-05
0.00259699 0.000122114 -7.88314e-08
0.000122114 -0.000177399 -1.45932e-07
-7.88314e-08 -1.45932e-07 1.22478e-05
0.00267061 0.000161039 -3.02428e-06
0.000161039 -0.000317576 -5.46836e-08
-3.02428e-06 -5.46836e-08 -2.19915e-05
0.00242915 -6.27764e-06 -6.51226e-07
-6.27764e-06 -0.000147508 3.34543e-08
-6.51226e-07 3.34543e-08 -7.48598e-06
0.0023571 -3.25747e-05 -1.28731e-07
-3.25747e-05 -7.52217e-05 -8.91132e-08
-1.28731e-07 -8.91132e-08 7.99755e-06
0.00256227 -0.000102184 -1.34608e-06
-0.000102184 -0.000189509 7.11775e-07
-1.34608e-06 7.11775e-07 8.37767e-06
0.00240085 -0.000151184 -7.60278e-07
-0.000151184 -0.000101508 2.34555e-07
-7.60278e-07 2.34555e-07 -7.1502e-06
0.00222912 -0.000163101 -2.75586e-06
-0.000163101 -7.36115e-05 5.28038e-07
-2.75586e-06 5.28038e-07 -3.97629e-05
0.00244059 -0.00027774 -3.30423e-07
-0.00027774 -9.47508e-05 -2.13556e-07
-3.30423e-07 -2.13556e-07 -5.6933e-06
0.00228068 -0.000265476 8.93669e-07
-0.000265476 -3.51487e-05 -3.17076e-07
8.93669e-07 -3.17076e-07 -2.59073e-05
0.00246414 -0.000285603 -3.47263e-06
-0.000285603 0.000134498 9.15035e-07
-3.47263e-06 9.15035e-07 7.43642e-05
0.00232458 -0.000386152 3.32832e-06
-0.000386152 1.22712e-06 -5.82878e-07
3.32832e-06 -5.82878e-07 -2.28817e-05
0.00242543 -0.000385512 5.51342e-08
-0.000385512 0.000143144 -1.05256e-07
5.51342e-08 -1.05256e-07 4.72303e-05
0.00168782 -0.000255196 -5.75163e-06
-0.000255196 7.04847e-06 9.25722e-07
-5.75163e-06 9.25722e-07 -0.000151862
0.00239582 -0.000492904 3.24993e-06
-0.000492904 0.000169543 -8.52527e-07
3.24993e-06 -8.52527e-07 2.07997e-05
0.00172304 -0.000333506 -3.20765e-07
-0.000333506 2.29382e-05 9.53873e-08
-3.20765e-07 9.53873e-08 -0.000169553
0.0027513 -0.0002359 -7.49061e-05
-0.0002359 0.00131152 1.21967e-05
-7.49061e-05 1.21967e-05 0.00118877
0.00180384 -0.000420669 7.31095e-06
-0.000420669 8.71317e-05 -1.92163e-06
7.31095e-06 -1.92163e-06 -0.000147931
0.0030242 -0.000264512 5.43031e-05
-0.000264512 0.00147192 -6.88744e-06
5.43031e-05 -6.88744e-06 0.00134759
0.00286628 -0.000133044 -0.000323412
-0.000133044 0.00155509 4.32387e-05
-0.000323412 4.32387e-05 0.00154056
0.00329735 -0.000309011 0.000189964
-0.000309011 0.00163934 -3.17401e-05
0.000189964 -3.17401e-05 0.00151235
0.00256986 -0.000120667 -0.000118011
-0.000120667 0.00136471 1.69148e-05
-0.000118011 1.69148e-05 0.00132307
0.0022704 -0.000122102 9.57067e-05
-0.000122102 0.00118246 -1.74479e-05
9.57067e-05 -1.74479e-05 0.00110726
0.00243333 0.000353301 1.05318e-06
0.000353301 -4.71338e-05 -1.11803e-07
1.05318e-06 -1.11803e-07 -5.94028e-06
0.00234093 0.000483222 -2.99424e-06
0.000483222 6.50447e-05 -4.37781e-07
-2.99424e-06 -4.37781e-07 -1.98691e-05
0.0025045 0.000553752 -8.64152e-07
0.000553752 2.13386e-05 -2.89915e-07
-8.64152e-07 -2.89915e-07 2.56295e-06
0.00234885 0.000603062 -3.62474e-07
0.000603062 0.000154258 5.21793e-07
-3.62474e-07 5.21793e-07 -4.44402e-05
0.00247357 0.000616983 -1.42689e-07
0.000616983 0.000183286 1.45896e-08
-1.42689e-07 1.45896e-08 5.17976e-05
0.00261703 0.000646533 6.95395e-07
0.000646533 0.000140019 1.50073e-06
6.95395e-07 1.50073e-06 5.68782e-05
0.00176805 0.000496016 -1.16483e-05
0.000496016 9.72479e-05 -1.73252e-06
-1.16483e-05 -1.73252e-06 -0.000186146
0.00235281 0.000703058 -1.07041e-06
0.000703058 0.00022847 -1.81031e-06
-1.07041e-06 -1.81031e-06 -3.98292e-05
0.00245457 0.000740111 -3.2702e-06
0.000740111 0.000147263 -2.83056e-06
-3.2702e-06 -2.83056e-06 -2.09433e-05
0.000421777 0.000294124 -2.11499e-05
0.000294124 -0.000253158 -1.65597e-05
-2.11499e-05 -1.65597e-05 -0.000466338
0.00175325 0.000569467 3.00492e-07
0.000569467 0.000115821 -5.69635e-08
3.00492e-07 -5.69635e-08 -0.000226264
0.00236044 0.00082145 -3.65521e-06
0.00082145 0.00029782 -1.1557e-05
-3.65521e-06 -1.1557e-05 -6.42567e-05
0.0019687 0.000709434 3.11377e-05
0.000709434 0.000338436 1.38231e-06
3.11377e-05 1.38231e-06 -0.000104483
0.000314466 0.000355519 7.05104e-07
0.000355519 -0.000307826 9.5936e-07
7.05104e-07 9.5936e-07 -0.000558775
0.00907635 0.00033807 -0.000430206
0.00033807 0.00568527 -6.86946e-05
-0.000430206 -6.86946e-05 0.00568676
-4.82283e-05 0.000332915 2.46089e-05
0.000332915 -0.000491138 2.54849e-05
2.46089e-05 2.54849e-05 -0.00074594
0.00991516 0.000247777 8.94911e-06
0.000247777 0.00621044 2.99602e-06
8.94911e-06 2.99602e-06 0.0062287
0.00973305 9.94588e-05 0.000403118
9.94588e-05 0.00609334 4.09525e-05
0.000403118 4.09525e-05 0.00611277
0.00245948 0.000203366 1.35207e-06
0.000203366 -6.85433e-05 -1.15351e-07
1.35207e-06 -1.15351e-07 2.90516e-05
0.00251315 0.000333021 5.0148e-07
0.000333021 -0.000173312 5.10164e-07
5.0148e-07 5.10164e-07 -3.5102e-05
0.00271368 0.000435264 -1.15679e-06
0.000435264 -0.0003271 -1.4803e-06
-1.15679e-06 -1.4803e-06 -5.72202e-05
0.00259825 0.0005608 1.16813e-06
0.0005608 -8.08456e-05 -5.85715e-07
1.16813e-06 -5.85715e-07 -1.23655e-05
0.00230898 5.18065e-05 -3.80179e-07
5.18065e-05 -5.72907e-05 3.2457e-08
-3.80179e-07 3.2457e-08 -4.58819e-06
0.00247825 9.92228e-05 1.58749e-07
9.92228e-05 -0.000119111 -4.56575e-08
1.58749e-07 -4.56575e-08 8.86129e-06
0.00260227 0.000119984 -8.16048e-07
0.000119984 -0.000165373 -8.08509e-08
-8.16048e-07 -8.08509e-08 2.05284e-05
0.00246866 -1.14773e-06 -2.54787e-06
-1.14773e-06 -0.000114163 4.21138e-09
-2.54787e-06 4.21138e-09 2.17486e-05
0.0023682 -2.62342e-05 -7.39171e-07
-2.62342e-05 -7.30432e-05 -1.61636e-07
-7.39171e-07 -1.61636e-07 1.39776e-05
0.00228661 -5.78486e-05 -4.08141e-06
-5.78486e-05 2.17533e-07 1.69425e-07
-4.08141e-06 1.69425e-07 2.83137e-05
0.00239816 -0.000153508 -8.29062e-07
-0.000153508 -9.37246e-05 3.92319e-07
-8.29062e-07 3.92319e-07 -5.99746e-06
0.0022785 -0.00016426 -1.54025e-06
-0.00016426 -2.80782e-05 2.69554e-07
-1.54025e-06 2.69554e-07 -3.07505e-06
0.00238146 -0.000189073 -3.01124e-06
-0.000189073 5.11104e-05 6.73366e-07
-3.01124e-06 6.73366e-07 1.84232e-05
0.00228439 -0.000263227 4.19948e-06
-0.000263227 -3.13992e-05 -9.32278e-07
4.19948e-06 -9.32278e-07 -2.17059e-05
0.00245453 -0.000283635 5.29279e-07
-0.000283635 0.000132031 -1.53685e-07
5.29279e-07 -1.53685e-07 7.16557e-05
0.00167231 -0.000188718 -6.29953e-06
-0.000188718 -7.20212e-06 1.01675e-06
-6.29953e-06 1.01675e-06 -0.000142565
0.00242438 -0.000383851 3.93136e-06
-0.000383851 0.000144134 -9.25098e-07
3.93136e-06 -9.25098e-07 4.92826e-05
0.00167402 -0.000255317 -1.5268e-07
-0.000255317 -1.77716e-05 1.02667e-08
-1.5268e-07 1.02667e-08 -0.00017606
0.000272605 -0.000126472 -1.53276e-05
-0.000126472 -0.000337732 6.89904e-06
-1.53276e-05 6.89904e-06 -0.000462339
0.00175113 -0.000336203 6.47678e-06
-0.000336203 2.83802e-05 -1.42014e-06
6.47678e-06 -1.42014e-06 -0.000163675
0.00162865 -0.000176413 7.94979e-05
-0.000176413 0.000551713 -7.19443e-06
7.94979e-05 -7.19443e-06 0.000437077
0.00744621 -0.00020732 -0.000417911
-0.00020732 0.00462604 3.70021e-05
-0.000417911 3.70021e-05 0.00466016
0.00315277 -0.000245912 0.000180651
-0.000245912 0.00154646 -2.41269e-05
0.000180651 -2.41269e-05 0.00144106
0.00244672 -0.000106227 -0.000106034
-0.000106227 0.00129133 1.0784e-05
-0.000106034 1.0784e-05 0.00125251
0.00212848 -0.000128414 0.000104215
-0.000128414 0.00110012 -1.80119e-05
0.000104215 -1.80119e-05 0.00102737
0.00239034 0.000239853 8.35453e-07
0.000239853 -1.69581e-05 -7.06235e-07
8.35453e-07 -7.06235e-07 2.23631e-05
0.00229061 0.000366493 -2.25416e-06
0.000366493 2.71859e-06 -5.18159e-07
-2.25416e-06 -5.18159e-07 -2.90747e-05
0.00244768 0.000343407 -2.98634e-07
0.000343407 -2.08899e-05 -1.83525e-08
-2.98634e-07 -1.83525e-08 1.19381e-05
0.00231293 0.000478332 -4.81452e-08
0.000478332 0.000105152 4.21407e-07
-4.81452e-08 4.21407e-07 -3.76909e-05
0.0023643 0.000486934 -4.51001e-09
0.000486934 8.50076e-05 -2.19105e-07
-4.51001e-09 -2.19105e-07 2.4527e-06
0.00251376 0.000556476 5.6412e-08
0.000556476 4.2322e-06 -1.39139e-07
5.6412e-08 -1.39139e-07 8.46847e-08
0.00176421 0.000434157 -5.4755e-06
0.000434157 6.76326e-05 5.9963e-08
-5.4755e-06 5.9963e-08 -0.000158754
0.00234263 0.000597716 -1.82553e-06
0.000597716 0.000155005 -9.59659e-07
-1.82553e-06 -9.59659e-07 -4.78779e-05
0.00246318 0.000613693 2.4602e-06
0.000613693 0.000190907 2.94776e-07
2.4602e-06 2.94776e-07 4.8206e-05
0.000381905 0.000219478 -1.73838e-05
0.000219478 -0.000281765 -1.19188e-05
-1.73838e-05 -1.19188e-05 -0.000460211
0.00168701 0.000488063 5.25507e-07
0.000488063 4.93144e-05 3.57859e-07
5.25507e-07 3.57859e-07 -0.000224959
0.00230946 0.000711615 -3.6471e-06
0.000711615 0.000173002 -7.73492e-06
-3.6471e-06 -7.73492e-06 -8.29408e-05
0.00849709 0.000372539 -0.000421559
0.000372539 0.00531518 -6.46298e-05
-0.000421559 -6.46298e-05 0.00531557
0.00037058 0.000294469 2.36952e-07
0.000294469 -0.000293597 9.24962e-07
2.36952e-07 9.24962e-07 -0.00051033
0.0017114 0.00055816 2.12037e-05
0.00055816 0.000106756 1.09294e-06
2.12037e-05 1.09294e-06 -0.000233082
0.000221652 0.000341054 2.27613e-05
0.000341054 -0.000366641 2.14753e-05
2.27613e-05 2.14753e-05 -0.000617488
0.00928142 0.000338805 1.0349e-05
0.000338805 0.00581491 4.13849e-06
1.0349e-05 4.13849e-06 0.00582223
0.0101309 0.000221099 0.000469081
0.000221099 0.00633116 5.17801e-05
0.000469081 5.17801e-05 0.00635832
0.00229755 0.000130791 -1.13218e-06
0.000130791 -4.41775e-05 3.87783e-08
-1.13218e-06 3.87783e-08 -8.96781e-06
0.00245086 0.000197368 -1.14332e-07
0.000197368 -7.73328e-05 4.39194e-08
-1.14332e-07 4.39194e-08 1.69566e-05
0.00248125 0.000339205 -2.90144e-07
0.000339205 -0.00020269 -2.35447e-07
-2.90144e-07 -2.35447e-07 -6.34181e-05
0.00228209 3.00773e-05 -6.25723e-06
3.00773e-05 3.56613e-05 -2.44693e-07
-6.25723e-06 -2.44693e-07 4.65454e-05
0.0023033 6.06788e-05 8.43968e-07
6.06788e-05 -6.55754e-05 3.61465e-08
8.43968e-07 3.61465e-08 -7.34757e-06
0.00247813 8.53938e-05 -1.33355e-06
8.53938e-05 -0.000124274 -6.91084e-08
-1.33355e-06 -6.91084e-08 7.60781e-06
0.00238008 -2.00039e-05 -6.30974e-07
-2.00039e-05 -7.07571e-05 1.63418e-07
-6.30974e-07 1.63418e-07 2.03783e-05
0.00229071 -5.80092e-05 -1.6701e-07
-5.80092e-05 1.44392e-06 2.77449e-09
-1.6701e-07 2.77449e-09 3.11563e-05
0.00212619 -8.58651e-05 -3.20148e-06
-8.58651e-05 -0.000118076 3.34238e-07
-3.20148e-06 3.34238e-07 -0.000161162
0.00232732 -0.000165693 3.72748e-06
-0.000165693 1.78886e-05 -3.83728e-07
3.72748e-06 -3.83728e-07 3.41304e-05
0.00234708 -0.000191541 3.48477e-07
-0.000191541 3.82841e-05 1.74073e-08
3.48477e-07 1.74073e-08 -6.79982e-06
0.00179465 -0.000125034 -6.55808e-06
-0.000125034 7.72711e-05 6.92159e-07
-6.55808e-06 6.92159e-07 -2.82928e-05
0.00243826 -0.000282659 4.22369e-06
-0.000282659 0.000125664 -1.22114e-06
4.22369e-06 -1.22114e-06 6.4809e-05
0.00164229 -0.000185358 8.28918e-08
-0.000185358 -4.43928e-05 -2.24129e-08
8.28918e-08 -2.24129e-08 -0.00017874
0.00021652 -5.25984e-05 -1.34929e-05
-5.25984e-05 -0.000361717 3.97709e-06
-1.34929e-05 3.97709e-06 -0.0004709
0.00166245 -0.000253996 5.73547e-06
-0.000253996 -4.42588e-05 -1.30583e-06
5.73547e-06 -1.30583e-06 -0.000201539
0.000281784 -0.000110542 -3.17396e-07
-0.000110542 -0.000325142 4.43445e-07
-3.17396e-07 4.43445e-07 -0.000448028
0.00730324 -0.00010052 -0.000404195
-0.00010052 0.00452235 2.42475e-05
-0.000404195 2.42475e-05 0.00456432
0.000440392 -0.000132681 1.23559e-05
-0.000132681 -0.000236524 -8.95336e-06
1.23559e-05 -8.95336e-06 -0.000373546
0.00481652 -0.00013856 0.000168788
-0.00013856 0.00288215 -1.12137e-05
0.000168788 -1.12137e-05 0.00286758
0.00199753 -0.000109499 0.000105842
-0.000109499 0.00101937 -1.60187e-05
0.000105842 -1.60187e-05 0.000952191
0.00238353 0.000201309 -3.67386e-06
0.000201309 5.36006e-05 -4.93908e-07
-3.67386e-06 -4.93908e-07 7.66617e-05
0.00224431 0.000259999 -5.35884e-06
0.000259999 6.4403e-06 -6.44926e-07
-5.35884e-06 -6.44926e-07 -1.53258e-05
0.00237422 0.000229143 -7.64728e-07
0.000229143 -2.19757e-05 -3.11483e-07
-7.64728e-07 -3.11483e-07 1.83252e-05
0.00240172 0.0003884 -8.97303e-07
0.0003884 0.000154325 -1.34239e-07
-8.97303e-07 -1.34239e-07 4.49265e-05
0.00230374 0.00036257 -7.46913e-08
0.00036257 1.42305e-05 -2.13005e-07
-7.46913e-08 -2.13005e-07 -1.90689e-05
0.00246433 0.000333864 -1.57785e-07
0.000333864 7.40189e-06 7.57757e-08
-1.57785e-07 7.57757e-08 3.18098e-05
0.00174313 0.000348345 -3.00339e-06
0.000348345 4.53296e-05 -4.07575e-07
-3.00339e-06 -4.07575e-07 -0.000139263
0.00232499 0.000479176 9.21016e-07
0.000479176 0.000124293 7.42904e-08
9.21016e-07 7.42904e-08 -2.88653e-05
0.00238563 0.000490586 3.30546e-06
0.000490586 0.000103376 6.0052e-07
3.30546e-06 6.0052e-07 2.36849e-05
0.000335653 0.000164069 -1.50665e-05
0.000164069 -0.000304844 -8.49693e-06
-1.50665e-05 -8.49693e-06 -0.000458679
0.0017431 0.000424913 2.21521e-06
0.000424913 6.05548e-05 1.27635e-06
2.21521e-06 1.27635e-06 -0.000161343
0.00233347 0.000592662 -3.06049e-06
0.000592662 0.000152957 -2.81279e-06
-3.06049e-06 -2.81279e-06 -5.37967e-05
0.00799404 0.000379172 -0.000423248
0.000379172 0.00500404 -5.91413e-05
-0.000423248 -5.91413e-05 0.00500532
0.00037146 0.000225564 4.72661e-07
0.000225564 -0.000295121 4.97511e-07
4.72661e-07 4.97511e-07 -0.000477437
0.00163392 0.000483242 1.2132e-05
0.000483242 2.00441e-05 5.7946e-07
1.2132e-05 5.7946e-07 -0.000245954
0.00866752 0.000400016 1.14865e-05
0.000400016 0.00543775 6.33456e-06
1.14865e-05 6.33456e-06 0.00543527
0.000320591 0.000293703 1.87992e-05
0.000293703 -0.000334321 1.74657e-05
1.87992e-05 1.74657e-05 -0.000554497
0.00941406 0.000324542 0.000471034
0.000324542 0.00588431 6.19373e-05
0.000471034 6.19373e-05 0.00590369
0.00226153 0.000104096 -6.2034e-06
0.000104096 2.72029e-05 -1.10059e-07
-6.2034e-06 -1.10059e-07 2.68629e-05
0.00229224 0.000138806 -7.02702e-07
0.000138806 -4.03526e-05 -3.12214e-07
-7.02702e-07 -3.12214e-07 -4.74767e-06
0.00244137 0.000191709 -9.00203e-07
0.000191709 -8.65094e-05 1.47248e-07
-9.00203e-07 1.47248e-07 4.3686e-06
0.00212627 4.67246e-06 -2.14618e-06
4.67246e-06 -0.000112379 -4.76856e-09
-2.14618e-06 -4.76856e-09 -0.000155676
0.00228239 3.35312e-05 -1.39794e-07
3.35312e-05 2.96759e-05 1.77186e-08
-1.39794e-07 1.77186e-08 4.53805e-05
0.00229735 6.99458e-05 3.1913e-07
6.99458e-05 -7.40172e-05 2.76234e-07
3.1913e-07 2.76234e-07 -1.02809e-05
0.00229409 -5.8295e-05 3.58872e-06
-5.8295e-05 2.36921e-06 -1.07379e-07
3.58872e-06 -1.07379e-07 3.35298e-05
0.00217998 -8.46697e-05 -1.67679e-06
-8.46697e-05 -7.32614e-05 1.6107e-07
-1.67679e-06 1.6107e-07 -0.000114075
0.00165413 -5.3345e-05 -4.72334e-06
-5.3345e-05 -7.08069e-06 4.0815e-07
-4.72334e-06 4.0815e-07 -0.000105463
0.00232545 -0.000194152 2.59328e-06
-0.000194152 3.5311e-05 -9.94966e-07
2.59328e-06 -9.94966e-07 -2.19796e-05
0.00172567 -0.000126755 3.0698e-06
-0.000126755 2.00555e-05 -2.07506e-07
3.0698e-06 -2.07506e-07 -9.2756e-05
0.000178684 -2.52409e-05 -1.34459e-05
-2.52409e-05 -0.000370096 2.57995e-06
-1.34459e-05 2.57995e-06 -0.000471376
0.0016079 -0.000183808 6.48269e-06
-0.000183808 -8.15764e-05 -1.38737e-06
6.48269e-06 -1.38737e-06 -0.000215256
0.000209661 -6.007e-05 3.93223e-07
-6.007e-05 -0.000359541 -3.82914e-07
3.93223e-07 -3.82914e-07 -0.000467668
0.00707119 -0.000184102 -0.000401619
-0.000184102 0.00439092 2.58628e-05
-0.000401619 2.58628e-05 0.00442501
0.000271422 -9.46125e-05 1.32883e-05
-9.46125e-05 -0.000325851 -5.4407e-06
1.32883e-05 -5.4407e-06 -0.000446301
0.00722262 -0.000133983 6.20037e-06
-0.000133983 0.00447559 3.80528e-07
6.20037e-06 3.80528e-07 0.00451563
0.00225458 -6.11628e-05 0.000305342
-6.11628e-05 0.00115663 -2.51041e-05
0.000305342 -2.51041e-05 0.00115168
0.00228896 0.000186131 -7.84456e-06
0.000186131 6.37153e-05 -6.89485e-07
-7.84456e-06 -6.89485e-07 4.97247e-05
0.00229355 0.000202658 -6.9514e-07
0.000202658 -2.19349e-05 -5.39025e-08
-6.9514e-07 -5.39025e-08 1.05494e-05
0.00241938 0.000290122 9.79172e-09
0.000290122 0.000141656 8.45645e-08
9.79172e-09 8.45645e-08 6.33428e-05
0.00225251 0.000260621 5.75217e-07
0.000260621 8.72865e-06 2.65768e-08
5.75217e-07 2.65768e-08 -1.36414e-05
0.00235876 0.000218257 -3.13426e-07
0.000218257 -2.68242e-05 -1.22266e-07
-3.13426e-07 -1.22266e-07 1.46527e-05
0.00163492 0.000261416 -1.9932e-06
0.000261416 -2.72418e-05 -6.40275e-07
-1.9932e-06 -6.40275e-07 -0.000196796
0.00241391 0.000389425 3.71847e-07
0.000389425 0.000156891 -3.53931e-09
3.71847e-07 -3.53931e-09 4.76411e-05
0.00231665 0.000358468 3.43634e-06
0.000358468 2.46228e-05 1.02959e-06
3.43634e-06 1.02959e-06 -1.00088e-05
0.000319278 0.000123422 -1.40184e-05
0.000123422 -0.000302219 -6.19986e-06
-1.40184e-05 -6.19986e-06 -0.000438747
0.0017014 0.000341692 3.15513e-06
0.000341692 3.01074e-05 1.11504e-06
3.15513e-06 1.11504e-06 -0.000160746
0.00233675 0.00048034 3.94509e-08
0.00048034 0.000143121 -3.23928e-07
3.94509e-08 -3.23928e-07 -2.12748e-05
0.00761702 0.000350644 -0.000427529
0.000350644 0.00477063 -5.21206e-05
-0.000427529 -5.21206e-05 0.00477679
0.000359604 0.000173056 4.00829e-07
0.000173056 -0.000292676 2.16561e-07
4.00829e-07 2.16561e-07 -0.000450225
0.00172773 0.000415664 8.5549e-06
0.000415664 5.75025e-05 2.03565e-06
8.5549e-06 2.03565e-06 -0.000159807
0.00815904 0.000409796 8.55575e-06
0.000409796 0.00512287 6.24858e-06
8.55575e-06 6.24858e-06 0.00511869
0.000361477 0.000230481 1.6125e-05
0.000230481 -0.000307718 1.25945e-05
1.6125e-05 1.25945e-05 -0.000493876
0.00884263 0.000419485 0.000463682
0.000419485 0.00554984 7.07083e-05
0.000463682 7.07083e-05 0.00555025
0.00208405 0.000100492 -3.0202e-07
0.000100492 -0.000122718 -3.19482e-07
-3.0202e-07 -3.19482e-07 -0.000177258
0.00228591 0.000104485 -1.87324e-06
0.000104485 4.96924e-05 -7.21315e-08
-1.87324e-06 -7.21315e-08 4.79276e-05
0.00228762 0.000146806 1.9795e-06
0.000146806 -3.57235e-05 8.04148e-08
1.9795e-06 8.04148e-08 1.94041e-07
0.00164611 -2.97958e-06 -3.28229e-06
-2.97958e-06 -5.74098e-07 2.67392e-07
-3.28229e-06 2.67392e-07 -9.89228e-05
0.00216287 5.46017e-06 -1.72385e-06
5.46017e-06 -7.75804e-05 4.36369e-08
-1.72385e-06 4.36369e-08 -0.000120233
0.00228194 3.65334e-05 4.59295e-06
3.65334e-05 2.33935e-05 2.95224e-07
4.59295e-06 2.95224e-07 4.38555e-05
0.00223565 -8.39414e-05 -8.50298e-07
-8.39414e-05 -2.68245e-05 -1.03177e-08
-8.50298e-07 -1.03177e-08 -6.54368e-05
0.0017531 -5.7391e-05 2.45256e-06
-5.7391e-05 5.65903e-05 -6.23617e-08
2.45256e-06 -6.23617e-08 -4.08334e-05
0.000197791 -3.41492e-05 -1.42013e-05
-3.41492e-05 -0.000348618 1.78857e-06
-1.42013e-05 1.78857e-06 -0.000444411
0.00164761 -0.000127516 9.46863e-06
-0.000127516 -4.59733e-05 -1.52092e-06
9.46863e-06 -1.52092e-06 -0.000166068
0.000187782 -1.40969e-05 2.01027e-08
-1.40969e-05 -0.000363531 6.64044e-08
2.01027e-08 6.64044e-08 -0.000462974
0.00696498 -0.000147122 -0.00040108
-0.000147122 0.0043183 1.9785e-05
-0.00040108 1.9785e-05 0.00435747
0.000242943 -6.47474e-05 1.39589e-05
-6.47474e-05 -0.000329827 -3.96879e-06
1.39589e-05 -3.96879e-06 -0.000437882
0.00706865 -8.6474e-05 -2.70036e-06
-8.6474e-05 0.00437382 3.99146e-06
-2.70036e-06 3.99146e-06 0.00441767
0.00719614 -0.00014702 0.000401517
-0.00014702 0.00446152 -2.39221e-05
0.000401517 -2.39221e-05 0.00450109
0.00238209 0.000191912 6.87716e-07
0.000191912 0.000113945 -3.65209e-07
6.87716e-07 -3.65209e-07 5.37619e-05
0.00223279 0.000187866 -4.16982e-07
0.000187866 1.09461e-05 9.33245e-08
-4.16982e-07 9.33245e-08 1.44948e-06
0.00220195 0.000204093 1.70581e-06
0.000204093 -9.91779e-05 3.60623e-07
1.70581e-06 3.60623e-07 -5.73721e-05
0.00159139 0.000182921 -9.14781e-07
0.000182921 -5.23328e-05 -2.48907e-07
-9.14781e-07 -2.48907e-07 -0.000198982
0.00242927 0.000288501 2.98743e-07
0.000288501 0.000145589 -4.49447e-08
2.98743e-07 -4.49447e-08 6.7803e-05
0.00226185 0.000261464 4.84468e-06
0.000261464 1.20263e-05 4.54718e-07
4.84468e-06 4.54718e-07 -1.11272e-05
0.00027401 8.58497e-05 -1.28247e-05
8.58497e-05 -0.00031672 -4.46593e-06
-1.28247e-05 -4.46593e-06 -0.000438782
0.00167112 0.000262153 -4.45979e-08
0.000262153 1.51643e-05 2.08845e-07
-4.45979e-08 2.08845e-07 -0.000155251
0.00243009 0.000390476 9.5172e-07
0.000390476 0.000162828 9.04928e-09
9.5172e-07 9.04928e-09 5.37089e-05
0.00733132 0.000284264 -0.000428541
0.000284264 0.00457967 -4.19098e-05
-0.000428541 -4.19098e-05 0.00459924
0.000330933 0.00013274 3.30754e-07
0.00013274 -0.000297486 1.78366e-07
3.30754e-07 1.78366e-07 -0.000437288
0.00165412 0.000334161 5.80158e-06
0.000334161 1.18093e-05 2.0567e-06
5.80158e-06 2.0567e-06 -0.000184702
0.00773866 0.000371466 5.07406e-06
0.000371466 0.00485429 3.89408e-06
5.07406e-06 3.89408e-06 0.0048581
0.0003827 0.000183361 1.52764e-05
0.000183361 -0.000279765 9.459e-06
1.52764e-05 9.459e-06 -0.000441665
0.00835917 0.000455607 0.000462252
0.000455607 0.00526867 7.35424e-05
0.000462252 7.35424e-05 0.0052582
0.00150155 5.54817e-05 -3.71175e-06
5.54817e-05 -9.38761e-05 2.74154e-07
-3.71175e-06 2.74154e-07 -0.000214668
0.00221226 9.83273e-05 -3.16497e-06
9.83273e-05 -2.92505e-05 -2.55114e-07
-3.16497e-06 -2.55114e-07 -7.42309e-05
0.00231234 0.00010515 5.41912e-06
0.00010515 7.31502e-05 4.8644e-07
5.41912e-06 4.8644e-07 7.00834e-05
0.000228565 3.20088e-05 -1.49232e-05
3.20088e-05 -0.000328718 -2.72435e-07
-1.49232e-05 -2.72435e-07 -0.000417073
0.00172733 -1.12801e-06 2.6975e-06
-1.12801e-06 5.18132e-05 7.7382e-08
2.6975e-06 7.7382e-08 -4.56242e-05
0.00220475 8.138e-06 -1.83363e-06
8.138e-06 -3.92484e-05 -3.9508e-08
-1.83363e-06 -3.9508e-08 -8.11051e-05
0.00184351 -6.07545e-05 1.08885e-05
-6.07545e-05 0.000114659 -1.00178e-06
1.08885e-05 -1.00178e-06 1.8203e-05
0.000190779 -9.5708e-06 2.64822e-07
-9.5708e-06 -0.000351781 3.72193e-07
2.64822e-07 3.72193e-07 -0.000447345
0.00684186 -6.825e-06 -0.000401673
-6.825e-06 0.00422659 5.14422e-06
-0.000401673 5.14422e-06 0.00427548
0.00018352 -2.51456e-06 1.37757e-05
-2.51456e-06 -0.000365802 -1.63445e-06
1.37757e-05 -1.63445e-06 -0.000463348
0.00691132 -0.000143591 -6.9255e-06
-0.000143591 0.00428541 2.44902e-06
-6.9255e-06 2.44902e-06 0.00432399
0.00700221 -7.03893e-05 0.000387621
-7.03893e-05 0.00433001 -1.45227e-05
0.000387621 -1.45227e-05 0.00437427
0.00157505 0.000115252 -2.47796e-06
0.000115252 -4.32248e-05 -1.70344e-07
-2.47796e-06 -1.70344e-07 -0.000174124
0.0023442 0.000187379 -2.44711e-07
0.000187379 8.09123e-05 -2.52153e-07
-2.44711e-07 -2.52153e-07 2.42185e-05
0.00217639 0.000189494 3.69746e-06
0.000189494 -4.13626e-05 -5.18891e-08
3.69746e-06 -5.18891e-08 -4.63218e-05
0.00271954 9.74009e-05 -0.000172486
9.74009e-05 0.00131872 -8.03312e-06
-0.000172486 -8.03312e-06 0.00125851
0.00162909 0.000184477 -1.7667e-08
0.000184477 -1.22769e-05 7.69204e-08
-1.7667e-08 7.69204e-08 -0.00015979
0.00243532 0.000286432 8.07582e-07
0.000286432 0.000147727 -8.7388e-08
8.07582e-07 -8.7388e-08 7.05497e-05
0.00714693 0.000214553 -0.000424565
0.000214553 0.0044496 -3.10293e-05
-0.000424565 -3.10293e-05 0.0044818
0.000299206 0.000105923 4.46095e-07
0.000105923 -0.000301652 4.79032e-07
4.46095e-07 4.79032e-07 -0.000427164
0.00170952 0.000262407 1.86244e-06
0.000262407 5.90216e-05 8.00272e-07
1.86244e-06 8.00272e-07 -0.000112235
0.00744139 0.000301826 2.75322e-06
0.000301826 0.00465247 2.19586e-06
2.75322e-06 2.19586e-06 0.00467003
0.000355674 0.000144353 1.46487e-05
0.000144353 -0.000283469 7.32451e-06
1.46487e-05 7.32451e-06 -0.000427182
0.00785307 0.000405946 0.00044879
0.000405946 0.00494158 6.53234e-05
0.00044879 6.53234e-05 0.00493954
0.000342515 2.19431e-05 -1.18182e-05
2.19431e-05 -0.00024361 -1.30824e-06
-1.18182e-05 -1.30824e-06 -0.000341428
0.00162142 5.61259e-05 -9.88942e-07
5.61259e-05 -8.36063e-06 -1.88942e-08
-9.88942e-07 -1.88942e-08 -0.000120789
0.00231679 9.49366e-05 -1.69689e-06
9.49366e-05 4.595e-05 1.72744e-07
-1.69689e-06 1.72744e-07 1.02934e-05
0.00671996 -9.82758e-05 -0.000385534
-9.82758e-05 0.00416291 6.954e-06
-0.000385534 6.954e-06 0.00420204
0.000189145 1.42565e-05 -6.25894e-07
1.42565e-05 -0.000351168 -3.16563e-07
-6.25894e-07 -3.16563e-07 -0.000441942
0.00181248 -8.67182e-07 9.73088e-06
-8.67182e-07 0.0001062 -5.92317e-07
9.73088e-06 -5.92317e-07 9.65127e-06
0.000170119 1.46485e-05 1.40737e-05
1.46485e-05 -0.000366044 -4.05241e-07
1.40737e-05 -4.05241e-07 -0.000460259
0.00678917 -3.79782e-05 1.43636e-06
-3.79782e-05 0.00419947 -2.17386e-06
1.43636e-06 -2.17386e-06 0.00424263
0.00687652 -7.4242e-05 0.000389486
-7.4242e-05 0.00424912 -1.0808e-05
0.000389486 -1.0808e-05 0.0042941
0.00284219 4.30659e-05 -0.000167629
4.30659e-05 0.00140455 -4.21882e-06
-0.000167629 -4.21882e-06 0.00135307
0.00158781 0.000118039 -2.19893e-07
0.000118039 -2.93644e-05 3.14189e-08
-2.19893e-07 3.14189e-08 -0.000161034
0.00230631 0.00018295 2.97308e-07
0.00018295 4.69651e-05 -3.64216e-07
2.97308e-07 -3.64216e-07 -6.32745e-06
0.00669954 2.43044e-05 -0.000190635
2.43044e-05 0.00416274 -3.14923e-06
-0.000190635 -3.14923e-06 0.00415493
0.00025321 8.2593e-05 3.98993e-07
8.2593e-05 -0.000319497 2.06476e-07
3.98993e-07 2.06476e-07 -0.000431604
0.00166943 0.000187197 1.48648e-06
0.000187197 2.73316e-05 1.99099e-07
1.48648e-06 1.99099e-07 -0.00012119
0.00720001 0.000192864 -6.2503e-06
0.000192864 0.00447628 -1.56944e-06
-6.2503e-06 -1.56944e-06 0.00451003
0.000322246 0.000126714 1.56091e-05
0.000126714 -0.000289068 6.24004e-06
1.56091e-05 6.24004e-06 -0.000417378
0.00751139 0.000322124 0.000441027
0.000322124 0.00470202 5.26004e-05
0.000441027 5.26004e-05 0.00471821
0.00214961 -4.4474e-05 -0.000295593
-4.4474e-05 0.00108865 1.77701e-06
-0.000295593 1.77701e-06 0.0010996
0.00146217 4.4156e-05 -7.57608e-05
4.4156e-05 0.000491576 -5.92227e-07
-7.57608e-05 -5.92227e-07 0.00042241
0.00175607 5.94165e-05 5.73461e-06
5.94165e-05 8.934e-05 -1.87609e-07
5.73461e-06 -1.87609e-07 -1.45792e-05
0.00676656 -4.54417e-05 6.27008e-06
-4.54417e-05 0.00418751 3.82251e-06
6.27008e-06 3.82251e-06 0.00423252
0.000184959 -1.69886e-06 1.47498e-05
-1.69886e-06 -0.00034775 6.4122e-08
1.47498e-05 6.4122e-08 -0.00044196
0.00679394 -9.40738e-05 0.000401165
-9.40738e-05 0.00420823 -8.40758e-06
0.000401165 -8.40758e-06 0.00425106
0.00169906 3.615e-05 -8.82878e-05
3.615e-05 0.000828915 -2.56992e-06
-8.82878e-05 -2.56992e-06 0.000781341
0.00147367 4.3265e-05 -7.61665e-05
4.3265e-05 0.000494122 -2.69914e-06
-7.61665e-05 -2.69914e-06 0.000417912
0.00160276 0.000118984 2.72823e-06
0.000118984 -1.25306e-05 7.47599e-09
2.72823e-06 7.47599e-09 -0.000144848
0.00440597 0.000100602 0.000151599
0.000100602 0.00261884 6.49149e-06
0.000151599 6.49149e-06 0.00261478
0.000229002 9.36572e-05 1.54367e-05
9.36572e-05 -0.000339256 4.73726e-06
1.54367e-05 4.73726e-06 -0.00045208
0.00724731 0.000181421 0.000418401
0.000181421 0.00449801 3.32485e-05
0.000418401 3.32485e-05 0.00453545
0.00675979 -1.39552e-06 -7.5494e-06
-1.39552e-06 0.00418886 -4.27532e-06
-7.5494e-06 -4.27532e-06 0.00423129
0.000205099 5.89646e-05 1.68098e-05
5.89646e-05 -0.000347109 2.21651e-06
1.68098e-05 2.21651e-06 -0.000437136
0.00670277 3.54122e-05 0.000391684
3.54122e-05 0.00414181 1.04473e-06
0.000391684 1.04473e-06 0.00418957
0.00431413 6.04294e-05 0.000160821
6.04294e-05 0.00255797 8.09753e-06
0.000160821 8.09753e-06 0.00255899
0.000232579 3.13112e-05 1.49358e-05
3.13112e-05 -0.000331011 2.36064e-06
1.49358e-05 2.36064e-06 -0.000431721
0.00701808 5.28897e-05 0.000402842
5.28897e-05 0.00434143 1.72789e-05
0.000402842 1.72789e-05 0.0043857
0.00676293 -8.76012e-05 0.000390636
-8.76012e-05 0.00419133 -3.07882e-06
0.000390636 -3.07882e-06 0.00423132
0.0068026 4.99627e-05 0.000394468
4.99627e-05 0.00420029 1.14661e-05
0.000394468 1.14661e-05 0.00424783
