# vtk DataFile Version 2.0
Wound Healing Simulation
ASCII
DATASET UNSTRUCTURED_GRID
POINTS 3012 float
69.9759 18.75 4
67.2507 60.3285 4
69.976 18.75 2
73.0099 25.446 4
71.1327 20.9142 4
68.6801 16.6661 4
67.8266 19.9152 3.99261
67.2507 60.3286 2
71.1327 54.0858 4
68.6801 58.3339 4
65.6939 62.2254 4
65.3131 59.01 3.99342
74.6784 42.3946 4
73.7221 47.2057 4
69.9759 18.75 0
73.0099 25.446 2
68.6801 16.6661 2
71.1327 20.9142 2
67.8266 19.9148 2
74.6792 32.6053 4
73.7222 27.7943 4
72.1454 23.1494 4
70.6164 26.2124 3.99093
68.8872 21.9476 3.99214
67.2507 14.6715 4
66.6379 17.9615 3.99307
65.8044 21.0072 3.98807
67.2507 60.3285 0
71.1327 54.0858 2
68.6801 58.3339 2
65.694 62.2255 2
65.3131 59.0104 2
72.1454 51.8506 4
69.9759 56.25 4
68.838 53.1235 3.99198
64.0165 64.0165 4
66.6116 57.1436 3.99311
63.8866 60.7733 3.99379
63.5047 57.7914 3.98908
60.3285 67.2507 4
74.6792 42.3947 2
73.7222 47.2057 2
74.9194 39.9526 4
74.2788 44.8158 4
72.1714 42.0902 3.98985
73.0099 49.554 4
71.252 46.606 3.99062
73.0099 25.446 0
71.1327 20.9142 0
68.6801 16.6661 0
67.8266 19.9152 0.00739476
74.6792 32.6053 2
73.7222 27.7943 2
67.2508 14.6715 2
72.1455 23.1494 2
70.6164 26.212 2
66.6379 17.9611 2
68.8872 21.9471 2
65.8044 21.0069 2
74.9197 35.0474 4
74.2794 30.1841 4
72.1877 32.9384 3.9899
71.2807 28.4238 3.99035
69.8175 24.05 3.9916
68.3565 26.9401 3.98687
66.771 22.9175 3.98767
65.694 12.7746 4
65.3244 16.0942 3.99345
64.7196 19.1748 3.98861
63.9011 22.0106 3.9864
71.1327 54.0858 0
65.6939 62.2254 0
68.6801 58.3339 0
65.3131 59.01 0.0065805
72.1455 51.8506 2
69.9759 56.25 2
68.838 53.1239 2
64.0165 64.0165 2
66.6116 57.144 2
63.8865 60.7737 2
63.5047 57.7918 2
62.2254 65.694 4
58.8937 65.4186 3.99404
69.771 50.9987 3.9914
67.7849 55.1778 3.99264
66.6582 52.2249 3.98739
62.3366 62.4335 3.99399
64.6667 56.0507 3.9887
62.2055 59.4234 3.98964
61.8319 56.7075 3.98706
58.3339 68.6801 4
60.3285 67.2508 2
73.7221 47.2057 0
74.6784 42.3946 0
74.9197 39.9526 2
74.2794 44.8159 2
72.1714 42.0904 2
73.0099 49.554 2
71.252 46.6063 2
75 37.5 4
72.4087 39.8044 3.98953
71.7855 44.3594 3.99027
69.8152 41.7949 3.98647
70.5775 48.8225 3.99098
68.923 46.0246 3.98692
74.6792 32.6053 0
73.7222 27.7943 0
67.2507 14.6715 0
72.1454 23.1494 0
70.6164 26.2124 0.00906995
68.8872 21.9476 0.00785776
66.6379 17.9615 0.00693237
65.8044 21.0072 0.0119341
74.9197 35.0474 2
74.2794 30.1841 2
72.1878 32.9383 2
71.2807 28.4235 2
65.694 12.7745 2
65.3244 16.0938 2
69.8175 24.0496 2
68.3566 26.9399 2
64.7196 19.1744 2
66.771 22.9172 2
63.9012 22.0103 2
72.4165 35.2212 3.98976
71.8066 30.6699 3.99007
69.8505 33.263 3.98625
68.9761 29.0288 3.98651
67.6205 24.8985 3.98729
66.2122 27.6187 3.98529
64.0165 10.9835 4
64.7724 23.808 3.98617
63.8906 14.3196 3.99369
63.5171 17.4262 3.98921
62.9187 20.2935 3.98668
62.1135 22.9125 3.98564
60.684 11.0922 3.99387
57.6122 11.4346 3.98997
72.1454 51.8506 0
69.9759 56.25 0
68.838 53.1235 0.00802464
64.0165 64.0165 0
63.8866 60.7733 0.00621274
66.6116 57.1436 0.00689164
63.5047 57.7914 0.0109173
62.2255 65.694 2
58.8937 65.4189 2
69.7709 50.9991 2
67.7849 55.1782 2
66.6583 52.2252 2
62.3366 62.4338 2
64.6667 56.051 2
62.2054 59.4238 2
61.832 56.7078 2
60.6687 63.9822 3.99402
57.0242 66.7387 3.99408
57.5575 63.7024 3.99015
67.5171 50.1903 3.98708
65.7095 54.191 3.98805
64.554 51.4075 3.98564
60.7743 60.9545 3.99008
62.8316 55.0937 3.98699
60.6645 58.1847 3.98719
60.3405 55.8174 3.98619
56.25 69.9759 4
58.3339 68.6801 2
60.3285 67.2507 0
58.9209 9.65103 3.99392
62.2254 9.30607 4
73.0099 49.554 0
74.2788 44.8158 0
71.252 46.606 0.00938372
72.1714 42.0902 0.0101486
74.9194 39.9526 0
75 37.5 2
72.4087 39.8045 2
71.7856 44.3596 2
69.8153 41.795 2
70.5776 48.8229 2
68.9231 46.0248 2
72.492 37.5116 3.98944
70.0522 39.6598 3.98635
69.4414 43.9152 3.98675
67.6175 41.5046 3.98513
68.2762 48.1189 3.98701
66.7293 45.4534 3.98533
74.9197 35.0474 0
74.2794 30.1841 0
72.1877 32.9384 0.0100968
71.2807 28.4238 0.00964759
65.694 12.7746 0
65.3244 16.0942 0.00655149
69.8175 24.05 0.00840097
68.3565 26.9401 0.0131297
66.771 22.9175 0.0123334
64.7196 19.1748 0.011388
63.9011 22.0106 0.0136005
72.4165 35.2212 2
71.8067 30.6697 2
69.8505 33.263 2
68.9762 29.0287 2
64.0165 10.9835 2
63.8906 14.3192 2
63.5171 17.4257 2
67.6206 24.8982 2
66.2123 27.6185 2
62.9187 20.2933 2
64.7725 23.8077 2
62.1136 22.9123 2
60.684 11.0918 2
57.6122 11.4342 2
70.0688 35.3889 3.98634
69.4773 31.142 3.98642
67.6744 33.584 3.98463
66.7903 29.6099 3.9848
65.541 25.6802 3.98581
64.1721 28.2351 3.98465
62.342 12.6487 3.99381
62.88 24.6094 3.98554
62.2008 15.7653 3.98963
61.8221 18.6576 3.98712
61.2349 21.3091 3.98562
60.4527 23.692 3.98541
59.2465 12.7639 3.98994
55.8739 10.2228 3.99004
56.4062 13.0953 3.9874
69.771 50.9987 0.00860399
62.2254 65.694 0
58.8937 65.4186 0.00595832
67.7849 55.1778 0.00736008
66.6582 52.2249 0.0126112
62.3366 62.4335 0.00601019
62.2055 59.4234 0.0103596
64.6667 56.0507 0.0113018
61.8319 56.7075 0.0129434
60.6686 63.9825 2
57.0242 66.739 2
57.5575 63.7028 2
67.5172 50.1906 2
65.7095 54.1913 2
64.5541 51.4077 2
60.7743 60.9549 2
62.8317 55.094 2
60.6646 58.185 2
60.3406 55.8175 2
55.0697 67.935 3.99412
59.2197 62.3799 3.99014
55.8036 64.9181 3.99019
56.3279 62.1049 3.9876
65.3497 49.4278 3.98543
63.7203 53.3168 3.9863
62.4659 50.68 3.98479
59.3369 59.5791 3.98756
61.0931 54.3404 3.98618
59.2982 57.0429 3.98586
59.2571 55.2177 3.98621
48.1022 68.5825 3.99048
50.9478 69.9338 3.99418
54.0858 71.1327 4
56.25 69.976 2
58.3339 68.6801 0
57.058 8.33148 3.99397
60.3285 7.74928 4
58.9209 9.6507 2
62.2255 9.30602 2
70.5775 48.8225 0.00902456
71.7855 44.3594 0.00972799
68.923 46.0246 0.0130795
69.8152 41.7949 0.0135301
72.4087 39.8044 0.0104739
75 37.5 0
72.4921 37.5116 2
70.0523 39.6598 2
69.4414 43.9153 2
67.6175 41.5047 2
68.2763 48.1191 2
66.7294 45.4535 2
70.1402 37.5211 3.98635
67.8546 39.5158 3.98532
67.2435 43.4803 3.98517
65.5852 41.2188 3.98466
66.0876 47.4346 3.98545
64.6807 44.8658 3.98485
72.4165 35.2212 0.0102351
71.8066 30.6699 0.00992742
69.8505 33.263 0.0137466
68.9761 29.0288 0.0134889
64.0165 10.9835 0
63.8906 14.3196 0.00631495
63.5171 17.4262 0.0107911
67.6205 24.8985 0.0127071
66.2122 27.6187 0.0147126
64.7724 23.808 0.0138276
62.9187 20.2935 0.0133213
62.1135 22.9125 0.014364
60.684 11.0922 0.00612749
57.6122 11.4346 0.0100321
70.0688 35.3889 2
69.4774 31.142 2
67.6745 33.584 2
66.7904 29.6098 2
62.3419 12.6484 2
62.2008 15.7649 2
61.8221 18.6573 2
65.5412 25.68 2
64.1722 28.235 2
61.235 21.3089 2
62.8802 24.6092 2
60.4528 23.6918 2
59.2465 12.7635 2
56.4063 13.0949 2
55.8739 10.2224 2
67.8902 35.5438 3.98493
67.2839 31.6124 3.98467
65.725 33.9191 3.98411
64.6895 30.1758 3.98391
63.5629 26.3898 3.98521
62.291 28.7537 3.98477
60.7759 14.2063 3.98986
61.0754 25.3052 3.98533
60.6175 17.1027 3.98741
60.2349 19.7842 3.98602
59.6838 22.2213 3.98499
59.0106 24.2811 3.98568
54.0369 9.12721 3.99014
57.9118 14.3116 3.98748
54.7872 11.9969 3.98739
55.3143 14.6246 3.98621
67.5171 50.1903 0.0129196
57.0242 66.7387 0.00592222
60.6687 63.9822 0.00598219
57.5575 63.7024 0.00985114
65.7095 54.191 0.011946
64.554 51.4075 0.0143558
60.7743 60.9545 0.00991596
60.6645 58.1847 0.0128096
62.8316 55.0937 0.0130089
60.3405 55.8174 0.0138138
55.0697 67.9353 2
59.2197 62.3803 2
55.8036 64.9185 2
56.3279 62.1053 2
65.3497 49.428 2
63.7204 53.3171 2
62.4659 50.6801 2
59.3369 59.5794 2
61.0932 54.3405 2
59.2983 57.0431 2
59.2572 55.2178 2
53.0417 69.0024 3.99415
53.9657 66.0191 3.99026
57.8828 60.8886 3.98764
54.6838 63.2185 3.98765
55.2135 60.6339 3.98618
63.2208 48.6861 3.98487
61.7621 52.6053 3.98532
60.3055 50.0523 3.98427
58.0237 58.2872 3.98618
59.3462 53.9826 3.98566
58.1388 55.8475 3.98474
50.1085 67.861 3.99038
47.4627 66.5868 3.98799
46.0562 69.1616 3.99052
48.1022 68.5829 2
48.8021 70.7248 3.99422
50.9477 69.9341 2
51.8506 72.1454 4
54.0858 71.1327 2
56.25 69.9759 0
55.1023 7.13651 3.994
58.3339 6.31992 4
57.0579 8.33116 2
60.3286 7.74926 2
58.9209 9.65103 0.00608199
62.2254 9.30607 0
68.2762 48.1189 0.0129867
69.4414 43.9152 0.0132524
66.7293 45.4534 0.0146651
67.6175 41.5046 0.0148661
70.0522 39.6598 0.0136499
72.492 37.5116 0.0105635
70.1403 37.5212 2
67.8547 39.5159 2
67.2436 43.4804 2
65.5852 41.2189 2
66.0877 47.4348 2
64.6807 44.8659 2
67.9508 37.5218 3.98527
65.8172 39.3748 3.98514
65.2048 43.0386 3.98446
63.7936 40.9401 3.9846
63.9934 46.7381 3.98503
62.8443 44.237 3.98492
70.0688 35.3889 0.0136567
69.4773 31.142 0.0135839
67.6744 33.584 0.0153668
66.7903 29.6099 0.0152041
62.342 12.6487 0.00619159
62.2008 15.7653 0.0103652
61.8221 18.6576 0.0128798
65.541 25.6802 0.0141904
64.1721 28.2351 0.0153465
62.88 24.6094 0.0144587
61.2349 21.3091 0.0143771
60.4527 23.692 0.0145902
59.2465 12.7639 0.0100608
56.4062 13.0953 0.0125994
55.8739 10.2228 0.00996294
67.8903 35.5438 2
67.284 31.6123 2
65.7251 33.9191 2
64.6896 30.1757 2
60.7759 14.2059 2
60.6175 17.1023 2
60.235 19.784 2
63.5631 26.3897 2
62.2912 28.7536 2
59.6839 22.2212 2
61.0755 25.3051 2
59.0107 24.281 2
57.9118 14.3113 2
55.3143 14.6243 2
54.0369 9.1268 2
54.7872 11.9965 2
65.9048 35.6625 3.98417
65.2134 32.1421 3.98373
64.318 34.2411 3.98342
62.6303 30.6163 3.98398
61.684 27.0435 3.98506
60.8903 29.1139 3.98536
59.313 15.6464 3.9875
59.3678 25.7599 3.98592
59.1307 18.326 3.98647
58.7566 20.8178 3.98515
58.3125 23.0517 3.98462
58.0037 24.6235 3.98642
52.1115 8.14658 3.99017
53.058 11.0047 3.9875
56.6787 15.7185 3.98648
53.8107 13.6624 3.98595
54.3784 15.9744 3.98573
55.0697 67.935 0.00588499
65.3497 49.4278 0.0145687
55.8036 64.9181 0.00980559
59.2197 62.3799 0.00985734
56.3279 62.1049 0.0124009
63.7203 53.3168 0.0136959
62.4659 50.68 0.0152105
59.3369 59.5791 0.0124359
59.2982 57.0429 0.0141382
61.0931 54.3404 0.0138183
59.2571 55.2177 0.0137883
53.0417 69.0027 2
53.9657 66.0195 2
57.8828 60.889 2
54.6838 63.2189 2
55.2135 60.6343 2
63.2208 48.6863 2
61.7621 52.6054 2
60.3056 50.0524 2
58.0237 58.2875 2
59.3463 53.9827 2
58.1389 55.8476 2
52.0693 67.0047 3.9903
52.9527 64.2271 3.98769
56.6517 59.5107 3.98643
53.682 61.636 3.98615
54.263 59.3416 3.98544
61.0296 47.9108 3.9847
59.7358 52.1401 3.98501
58.0644 49.6556 3.98538
56.7845 57.0182 3.98479
57.1398 54.161 3.98439
50.1085 67.8614 2
49.3363 65.9274 3.98782
47.4627 66.5872 2
46.8919 64.7436 3.98638
45.558 67.104 3.98809
43.9735 69.5941 3.99054
46.0561 69.162 2
46.609 71.3691 3.99425
48.1022 68.5825 0.00952498
48.8021 70.7251 2
49.554 73.0099 4
50.9478 69.9338 0.0058214
51.8506 72.1455 2
54.0858 71.1327 0
53.0634 6.0684 3.99402
55.1022 7.13619 2
56.25 5.02411 4
58.3339 6.3199 2
57.058 8.33148 0.00603379
60.3285 7.74928 0
66.0876 47.4346 0.0145549
67.2435 43.4803 0.0148328
64.6807 44.8658 0.0151525
65.5852 41.2188 0.0153441
67.8546 39.5158 0.0146845
70.1402 37.5211 0.0136497
67.9508 37.5218 2
65.8173 39.3749 2
65.2049 43.0387 2
63.7936 40.9402 2
63.9935 46.7382 2
62.8444 44.237 2
65.9199 37.5018 3.98512
63.9389 39.2723 3.98502
63.3666 42.5656 3.98423
62.4766 40.7091 3.98362
62.0048 45.945 3.98538
61.4962 43.7061 3.98514
67.8902 35.5438 0.0150709
67.2839 31.6124 0.015334
65.725 33.9191 0.0158851
64.6895 30.1758 0.016089
60.7759 14.2063 0.0101404
60.6175 17.1027 0.0125851
60.2349 19.7842 0.0139786
63.5629 26.3898 0.0147894
62.291 28.7537 0.0152331
61.0754 25.3052 0.0146665
59.6838 22.2213 0.0150147
59.0106 24.2811 0.0143207
57.9118 14.3116 0.0125176
55.3143 14.6246 0.013793
54.0369 9.12721 0.00986144
54.7872 11.9969 0.0126084
65.9048 35.6626 2
65.2134 32.1421 2
64.3181 34.2411 2
62.6304 30.6162 2
59.313 15.6461 2
59.1308 18.3258 2
58.7567 20.8177 2
61.6842 27.0434 2
60.8905 29.1139 2
58.3126 23.0516 2
59.368 25.7598 2
58.0038 24.6235 2
56.6788 15.7182 2
54.3785 15.9742 2
53.8107 13.6621 2
52.1115 8.14617 2
53.058 11.0044 2
64.1272 35.6273 3.98349
62.9683 33.033 3.98325
60.6588 30.5889 3.98437
59.6148 27.8778 3.9855
57.9429 16.957 3.98658
57.7806 25.6853 3.9868
57.7246 19.4432 3.98574
57.3917 21.8011 3.98421
57.2188 23.9044 3.9848
50.1117 7.27911 3.99032
51.2323 10.1144 3.98766
52.1726 12.7817 3.98578
55.5401 16.9459 3.98593
52.9791 15.2423 3.98523
53.7606 16.9552 3.98541
53.0417 69.0024 0.00585318
53.9657 66.0191 0.00974428
63.2208 48.6861 0.0151328
54.6838 63.2185 0.0123474
57.8828 60.8886 0.0123605
55.2135 60.6339 0.0138249
61.7621 52.6053 0.014682
60.3055 50.0523 0.0157337
58.0237 58.2872 0.0138239
58.1388 55.8475 0.0152617
59.3462 53.9826 0.0143375
52.0693 67.0051 2
52.9527 64.2274 2
56.6517 59.511 2
53.682 61.6363 2
54.263 59.3419 2
61.0296 47.9108 2
59.7359 52.1402 2
58.0644 49.6556 2
56.7846 57.0184 2
57.1398 54.161 2
51.1671 65.1349 3.9877
52.0461 62.5491 3.986
55.4849 58.2744 3.98573
52.8362 60.1513 3.98545
53.6435 58.4929 3.98516
58.3551 46.8848 3.98638
57.5903 51.8258 3.9845
56.2904 49.5954 3.98643
55.4826 55.8275 3.98386
55.3797 53.4222 3.98273
50.1085 67.861 0.0096159
49.3363 65.9278 2
48.6176 64.1302 3.98616
47.4627 66.5868 0.0120116
45.558 67.1044 2
46.8919 64.744 2
46.3814 63.062 3.98523
45.1322 65.2051 3.98651
43.6313 67.4749 3.98815
41.8609 69.8817 3.99052
43.9734 69.5944 2
44.3765 71.8639 3.99427
46.0562 69.1616 0.009477
46.6089 71.3694 2
47.2057 73.7222 4
48.8021 70.7248 0.00578172
49.554 73.0099 2
51.8506 72.1454 0
50.9532 5.12904 3.99415
53.0633 6.06809 2
54.0858 3.86728 4
55.1023 7.13651 0.00599966
56.25 5.02406 2
58.3339 6.31992 0
63.9934 46.7381 0.0149708
65.2048 43.0386 0.0155412
62.8443 44.237 0.0150803
63.7936 40.9401 0.0153964
65.8172 39.3748 0.0148563
67.9508 37.5218 0.0147304
65.92 37.5019 2
63.9389 39.2724 2
63.3666 42.5657 2
62.4766 40.7092 2
62.0049 45.945 2
61.4962 43.7062 2
63.9992 37.4572 3.98542
62.2075 39.3614 3.9845
61.2679 41.9761 3.98394
60.298 44.7989 3.9864
65.9048 35.6625 0.015833
65.2134 32.1421 0.0162668
64.318 34.2411 0.0165766
62.6303 30.6163 0.0160218
59.313 15.6464 0.0125011
59.1307 18.326 0.0135276
58.7566 20.8178 0.0148453
61.684 27.0435 0.0149363
60.8903 29.1139 0.0146418
59.3678 25.7599 0.0140849
58.3125 23.0517 0.0153812
58.0037 24.6235 0.0135805
56.6787 15.7185 0.0135223
54.3784 15.9744 0.014268
53.8107 13.6624 0.0140477
52.1115 8.14658 0.00982733
53.058 11.0047 0.012496
64.1272 35.6274 2
62.9683 33.033 2
60.6589 30.5889 2
57.943 16.9567 2
57.7248 19.443 2
57.3918 21.801 2
59.6151 27.8778 2
57.219 23.9044 2
57.7808 25.6853 2
50.1117 7.27868 2
55.5402 16.9456 2
53.7607 16.955 2
52.9792 15.242 2
52.1727 12.7814 2
51.2324 10.114 2
62.2363 35.3523 3.98354
60.3415 32.7285 3.98301
58.6754 30.0465 3.98502
57.3424 27.3425 3.98637
56.6408 18.1271 3.986
56.3333 25.0582 3.98595
56.3702 20.4866 3.98488
56.1355 22.8275 3.98332
48.0556 6.52272 3.99052
49.3242 9.32314 3.98767
50.4334 11.9813 3.98595
51.3788 14.4808 3.98471
54.4183 17.8938 3.98536
52.3631 17.0122 3.98472
52.0693 67.0047 0.00969528
52.9527 64.2271 0.0123068
61.0296 47.9108 0.0153049
53.682 61.636 0.0138484
56.6517 59.5107 0.0135688
54.263 59.3416 0.0145632
59.7358 52.1401 0.0149913
58.0644 49.6556 0.0146168
56.7845 57.0182 0.0152129
57.1398 54.161 0.015607
51.1671 65.1353 2
52.0461 62.5494 2
55.485 58.2747 2
52.8362 60.1516 2
53.6436 58.4933 2
58.3551 46.8848 2
57.5904 51.8258 2
56.2904 49.5952 2
55.4827 55.8276 2
55.3797 53.4222 2
50.3458 63.389 3.98598
51.2448 60.9472 3.98476
54.2247 57.2902 3.98479
52.3152 58.6529 3.98484
56.7872 44.2169 3.98699
55.5478 47.9362 3.98642
55.1035 51.4312 3.98332
54.0198 54.5815 3.98272
49.3363 65.9274 0.0121822
48.6176 64.1305 2
47.9617 62.4831 3.98507
45.558 67.104 0.0119108
46.8919 64.7436 0.0136226
43.6313 67.4753 2
46.3814 63.0623 2
45.1322 65.2055 2
45.987 61.5952 3.98437
44.7666 63.4632 3.9854
43.3561 65.5149 3.98652
41.6636 67.6942 3.98814
39.7027 70.0291 3.99048
41.8609 69.8821 2
42.1111 72.2088 3.99427
43.9735 69.5941 0.00945646
44.3765 71.8642 2
44.8159 74.2794 4
46.609 71.3691 0.00575436
47.2057 73.7222 2
49.554 73.0099 0
48.7838 4.32031 3.99426
50.9531 5.12873 2
51.8506 2.85458 4
53.0634 6.0684 0.0059808
54.0858 3.86728 2
56.25 5.02411 0
62.0048 45.945 0.0146173
63.3666 42.5656 0.0157707
61.4962 43.7061 0.014865
62.4766 40.7091 0.0163776
63.9389 39.2723 0.0149849
65.9199 37.5018 0.01488
63.9993 37.4573 2
62.2075 39.3615 2
61.2679 41.9762 2
60.298 44.7989 2
62.0477 37.4444 3.98585
60.3108 39.8572 3.98363
59.0564 42.945 3.98592
64.1272 35.6273 0.0165067
62.9683 33.033 0.0167536
60.6588 30.5889 0.0156322
57.9429 16.957 0.0134226
57.7246 19.4432 0.0142551
57.3917 21.8011 0.0157948
59.6148 27.8778 0.0144992
57.7806 25.6853 0.0132001
57.2188 23.9044 0.0152021
55.5401 16.9459 0.0140692
53.7606 16.9552 0.0145896
52.9791 15.2423 0.0147742
50.1117 7.27911 0.00967628
52.1726 12.7817 0.014224
51.2323 10.1144 0.012343
62.2364 35.3524 2
60.3415 32.7286 2
58.6756 30.0465 2
56.6409 18.1268 2
56.3704 20.4864 2
56.1356 22.8274 2
57.3426 27.3425 2
56.3335 25.0582 2
48.0556 6.52229 2
49.3243 9.32271 2
54.4185 17.8936 2
52.3632 17.012 2
51.3789 14.4805 2
50.4334 11.981 2
59.9551 35.1106 3.98383
58.0581 32.2467 3.98354
56.6084 29.3038 3.98597
55.5012 26.5552 3.98742
55.3484 19.1601 3.98541
54.9653 24.0121 3.98334
55.0192 21.5256 3.98392
45.9616 5.8783 3.99064
43.3735 7.46748 3.98838
47.3547 8.61742 3.98797
48.6 11.2841 3.98565
49.7146 13.7294 3.98496
50.6346 16.1135 3.98393
53.1288 18.6334 3.98487
51.3055 18.0256 3.98445
51.1671 65.1349 0.0122986
52.0461 62.5491 0.0140033
58.3551 46.8848 0.013616
52.8362 60.1513 0.0145526
55.4849 58.2744 0.0142663
53.6435 58.4929 0.0148357
57.5903 51.8258 0.0154974
56.2904 49.5954 0.0135742
55.4826 55.8275 0.0161406
55.3797 53.4222 0.0172691
50.3458 63.3894 2
51.2448 60.9475 2
54.2248 57.2905 2
52.3152 58.6533 2
56.7871 44.2169 2
55.5478 47.936 2
55.1035 51.431 2
54.0199 54.5816 2
49.5918 61.7536 3.98483
55.7329 41.732 3.98412
50.5683 59.3418 3.98361
52.191 56.5134 3.9835
54.2638 45.6017 3.98755
53.3946 49.3722 3.98437
52.693 52.8924 3.9814
48.6176 64.1302 0.0138371
47.9617 62.4834 2
47.3292 61.0183 3.98437
43.6313 67.4749 0.011851
45.1322 65.2051 0.0134943
46.3814 63.062 0.0147708
41.6636 67.6946 2
43.3561 65.5152 2
45.987 61.5955 2
44.7666 63.4635 2
45.766 60.6398 3.98385
44.4827 61.8448 3.98441
43.1458 63.7358 3.9854
41.5457 65.653 3.98652
39.6328 67.7744 3.98809
37.5263 70.0545 3.99043
39.7027 70.0295 2
39.8179 72.4059 3.99425
41.8609 69.8817 0.00947522
42.111 72.209 2
42.3947 74.6792 4
44.3765 71.8639 0.00573086
44.8159 74.2794 2
47.2057 73.7222 0
43.8512 5.35546 3.99083
46.5699 3.64511 3.99432
48.7837 4.32001 2
49.554 1.99015 4
50.9532 5.12904 0.00584589
51.8506 2.85453 2
54.0858 3.86728 0
60.298 44.7989 0.0136009
61.2679 41.9761 0.0160636
62.2075 39.3614 0.0154954
63.9992 37.4572 0.0145812
62.0477 37.4445 2
60.3108 39.8573 2
59.0563 42.945 2
59.8345 37.5665 3.9864
58.081 40.6771 3.98445
55.2234 39.7362 3.98921
62.2363 35.3523 0.0164558
60.3415 32.7285 0.0169926
58.6754 30.0465 0.0149821
56.6408 18.1271 0.0139968
56.3702 20.4866 0.0151244
56.1355 22.8275 0.0166841
57.3424 27.3425 0.0136308
56.3333 25.0582 0.0140494
54.4183 17.8938 0.0146355
52.3631 17.0122 0.0152799
51.3788 14.4808 0.0152942
48.0556 6.52272 0.00947626
49.3242 9.32314 0.0123279
50.4334 11.9813 0.0140472
59.9551 35.1107 2
45.9616 5.87788 2
43.3735 7.46707 2
58.0581 32.2467 2
56.6086 29.3039 2
55.3486 19.1599 2
55.0194 21.5255 2
54.9654 24.0122 2
55.5014 26.5552 2
47.3548 8.61698 2
48.6 11.2836 2
53.1289 18.6332 2
51.3057 18.0254 2
50.6347 16.1133 2
49.7147 13.729 2
57.4773 34.7479 3.98234
55.8051 31.4874 3.98479
54.5838 28.3609 3.98882
53.8202 25.4501 3.98506
53.9768 20.1066 3.98486
53.6054 22.6685 3.98262
41.3986 7.07283 3.98866
45.3595 7.98932 3.98825
42.8653 9.40834 3.98649
46.6663 10.6452 3.98605
47.7455 13.0915 3.98462
48.9319 15.3862 3.98359
50.0076 17.6806 3.98351
51.6576 19.3028 3.98479
50.3458 63.389 0.0140178
51.2448 60.9472 0.0152439
56.7872 44.2169 0.0130087
55.5478 47.9362 0.0135803
52.3152 58.6529 0.0151568
54.2247 57.2902 0.0152093
55.1035 51.4312 0.0166769
54.0198 54.5815 0.0172797
49.5918 61.7539 2
55.7328 41.7322 2
50.5683 59.3421 2
52.1912 56.5138 2
54.2637 45.6015 2
53.3946 49.3719 2
52.6931 52.8923 2
48.8493 60.2118 3.98408
52.6491 42.674 3.98946
49.7919 57.6428 3.98315
50.6089 54.4494 3.98157
51.9009 47.3122 3.98503
51.257 50.9888 3.97998
48.3583 43.7571 3.97629
47.9617 62.4831 0.0149265
47.3291 61.0186 2
46.6187 59.8052 3.98393
41.6636 67.6942 0.0118557
43.3561 65.5149 0.0134757
44.7666 63.4632 0.0145955
45.987 61.5952 0.0156349
39.6328 67.7747 2
41.5457 65.6534 2
45.7659 60.64 2
43.1458 63.7361 2
44.4827 61.8451 2
44.6232 60.3022 3.98357
42.9499 62.0936 3.98448
41.5992 63.8294 3.98532
39.6474 65.6217 3.98643
37.5636 67.7571 3.98806
31.6981 65.1407 3.98639
33.3928 67.4948 3.98807
35.3337 69.9647 3.99043
37.5263 70.0548 2
37.5097 72.4605 3.99422
39.7027 70.0291 0.00952193
39.8179 72.4062 2
39.9526 74.9197 4
42.1111 72.2088 0.00572636
42.3947 74.6792 2
44.8159 74.2794 0
41.7359 4.9648 3.99097
43.8511 5.35507 2
44.3253 3.10848 3.99449
46.5699 3.64481 2
47.2057 1.27793 4
48.7838 4.32031 0.00573847
49.554 1.99013 2
51.8506 2.85458 0
59.0564 42.945 0.0140761
60.3108 39.8572 0.016372
62.0477 37.4444 0.0141524
59.8345 37.5666 2
58.0809 40.6771 2
55.2234 39.7364 2
56.9282 37.9022 3.98495
49.8241 41.316 3.98791
53.2764 39.3233 3.99348
39.442 6.79629 3.98872
59.9551 35.1106 0.0161729
58.0581 32.2467 0.0164618
56.6084 29.3038 0.0140347
55.3484 19.1601 0.014587
55.0192 21.5256 0.016083
54.9653 24.0121 0.016663
55.5012 26.5552 0.0125823
53.1288 18.6334 0.0151323
51.3055 18.0256 0.0155547
50.6346 16.1135 0.0160679
45.9616 5.8783 0.00936395
49.7146 13.7294 0.0150442
47.3547 8.61742 0.0120297
48.6 11.2841 0.0143455
43.3735 7.46748 0.0116163
57.4774 34.748 2
41.3986 7.07242 2
45.3595 7.98887 2
42.8653 9.40791 2
55.8052 31.4875 2
54.5841 28.3608 2
53.977 20.1064 2
53.6056 22.6684 2
53.8203 25.4503 2
46.6664 10.6447 2
47.7456 13.0911 2
51.6577 19.3026 2
50.0077 17.6803 2
48.932 15.3858 2
54.9883 33.9492 3.98182
53.5879 30.4451 3.98807
52.6594 27.1501 3.9876
52.1807 24.0393 3.98355
52.404 21.0421 3.98406
41.0133 9.04134 3.98694
44.7235 9.98825 3.98646
42.4681 10.8943 3.98577
46.0051 12.7198 3.98406
47.6816 14.5723 3.98411
48.1138 16.9732 3.98212
49.8203 19.5736 3.98322
49.5918 61.7536 0.0151732
50.5683 59.3418 0.0163852
55.7329 41.732 0.0158825
54.2638 45.6017 0.0124526
53.3946 49.3722 0.0156271
52.191 56.5134 0.0164972
52.693 52.8924 0.0186016
48.8493 60.212 2
52.6488 42.6741 2
49.7919 57.6431 2
50.6091 54.4499 2
51.9008 47.3117 2
51.2571 50.9885 2
48.3578 43.7565 2
47.9876 58.7544 3.98366
50.2337 45.3073 3.98382
48.6045 55.9335 3.98314
49.1552 52.6261 3.97922
49.7379 49.0912 3.98015
46.1916 39.9098 3.93804
46.6198 42.7874 4.00179
46.6488 45.7566 3.97472
44.0572 41.2514 3.98985
42.0871 41.986 4.00427
47.3292 61.0183 0.0156337
46.6187 59.8054 2
45.4686 58.8016 3.98344
39.6328 67.7744 0.0119108
41.5457 65.653 0.0134812
43.1458 63.7358 0.0146044
44.4827 61.8448 0.0155933
45.766 60.6398 0.016154
41.5992 63.8297 2
37.5636 67.7575 2
39.6474 65.622 2
44.6231 60.3024 2
42.9498 62.0938 2
41.7528 62.5044 3.98459
42.4807 59.994 3.98369
39.8928 63.5647 3.98513
37.6423 65.5212 3.98639
35.4639 67.6666 3.98806
33.5761 65.3544 3.98643
31.9604 63.3136 3.98517
29.8843 64.7315 3.98629
31.6981 65.1411 2
31.3776 67.2044 3.98803
33.3928 67.4951 2
33.1567 69.758 3.99043
35.3337 69.965 2
35.1952 72.375 3.99421
37.5263 70.0545 0.00957136
37.5097 72.4608 2
37.5 75 4
39.8179 72.4059 0.00575256
39.9526 74.9197 2
42.3947 74.6792 0
39.6236 4.71198 3.99111
41.7359 4.96443 2
42.0618 2.71621 3.99457
43.8512 5.35546 0.00916706
44.3253 3.1082 2
44.8158 0.721173 4
46.5699 3.64511 0.00567553
47.2057 1.27779 2
49.554 1.99015 0
58.081 40.6771 0.0155483
59.8345 37.5665 0.0136012
55.2234 39.7362 0.0107862
49.8241 41.3151 2
56.9281 37.9022 2
53.2765 39.3235 2
54.1252 36.624 3.98299
47.7494 40.4687 4.00908
50.7779 38.4907 3.99106
37.5158 6.66746 3.98901
39.442 6.79589 2
39.2108 8.68391 3.98714
35.9411 8.48345 3.98755
57.4773 34.7479 0.0176626
55.8051 31.4874 0.0152119
54.5838 28.3609 0.0111817
53.9768 20.1066 0.0151418
53.6054 22.6685 0.017382
53.8202 25.4501 0.0149406
51.6576 19.3028 0.0152101
50.0076 17.6806 0.016486
48.9319 15.3862 0.0164053
45.3595 7.98932 0.0117532
47.7455 13.0915 0.0153766
46.6663 10.6452 0.0139537
41.3986 7.07283 0.0113377
42.8653 9.40834 0.0135101
54.9883 33.9496 2
41.0133 9.0409 2
44.7236 9.98779 2
42.4681 10.8938 2
53.5881 30.4447 2
52.6596 27.1504 2
52.4042 21.0419 2
52.1809 24.0393 2
46.0051 12.7193 2
47.6818 14.5719 2
49.8205 19.5733 2
48.1139 16.9729 2
52.5398 32.8375 3.98456
51.4409 29.1055 3.99352
50.8491 25.6724 3.98141
49.9538 22.1441 3.98381
40.569 11.5972 3.98503
43.8578 11.9091 3.98457
45.8021 15.409 3.98275
47.5053 19.2055 3.98115
46.5192 37.5073 3.94167
48.8493 60.2118 0.0159206
49.7919 57.6428 0.0168488
52.6491 42.674 0.0105431
51.9009 47.3122 0.01497
51.257 50.9888 0.0200157
50.6089 54.4494 0.0184313
48.3583 43.7571 0.0237053
47.9876 58.7546 2
50.2333 45.3069 2
48.6046 55.9339 2
49.1555 52.6266 2
49.738 49.0907 2
46.188 39.9109 2
46.6209 42.7892 2
46.6483 45.7539 2
44.0569 41.2472 2
42.0875 41.9854 2
46.8404 57.3571 3.98394
44.8074 39.5061 3.98841
42.4506 40.861 4.00191
48.1919 47.2918 3.98125
47.1802 54.2677 3.98352
47.6304 50.8028 3.97708
44.9146 47.3814 3.97411
45.2793 42.0282 3.93302
45.1162 44.6672 4.00264
42.8592 42.7427 3.98946
40.9322 42.3396 4.00434
46.6187 59.8052 0.0160742
45.4685 58.8017 2
43.877 57.7256 3.98336
37.5636 67.7571 0.0119356
39.6474 65.6217 0.0135741
41.5992 63.8294 0.0146817
42.9499 62.0936 0.0155219
44.6232 60.3022 0.0164259
35.4639 67.667 2
41.7528 62.5047 2
39.8928 63.565 2
37.6423 65.5215 2
42.4806 59.9942 2
40.6224 61.6629 3.98426
40.4447 58.2257 3.98361
37.8365 63.2264 3.98503
35.5734 65.4435 3.9864
33.5761 65.3547 2
31.9604 63.3139 2
33.6297 63.3535 3.98516
30.3794 62.872 3.98508
32.1237 62.0199 3.9846
26.8686 61.5155 3.98446
28.0631 64.1594 3.98607
29.8843 64.7318 2
29.4072 66.7679 3.98794
31.6981 65.1407 0.0136058
31.3776 67.2048 2
31.0141 69.4229 3.99044
33.3928 67.4948 0.0119294
33.1567 69.7583 2
32.8924 72.1493 3.99419
35.3337 69.9647 0.0095729
35.1952 72.3753 2
35.0474 74.9194 4
37.5097 72.4605 0.00578424
37.5 75 2
39.9526 74.9197 0
35.6203 6.71831 3.98891
37.5229 4.61166 3.99113
39.6236 4.71161 2
39.7884 2.4727 3.99469
41.7359 4.9648 0.00903007
42.0618 2.71594 2
42.3946 0.32156 4
44.3253 3.10848 0.0055138
44.8159 0.72056 2
47.2057 1.27793 0
49.8241 41.316 0.0120921
56.9282 37.9022 0.0150516
53.2764 39.3233 0.00651743
47.7497 40.4676 2
50.778 38.4904 2
54.1249 36.6243 2
51.5513 35.5635 3.9751
48.4175 37.7724 4.00779
46.1772 35.1082 3.94172
44.0418 33.7619 3.99091
42.08 33.0192 3.99642
37.4575 8.52522 3.98765
37.5158 6.66704 2
39.442 6.79629 0.0112783
39.2108 8.68347 2
38.9758 10.1157 3.98646
35.8976 9.76228 3.98672
34.1495 8.81267 3.98731
35.9411 8.48301 2
54.9883 33.9492 0.0181823
53.5879 30.4451 0.0119252
52.6594 27.1501 0.0123978
52.404 21.0421 0.0159438
52.1807 24.0393 0.0164507
49.8203 19.5736 0.0167849
48.1138 16.9732 0.0178785
47.6816 14.5723 0.0158867
44.7235 9.98825 0.0135428
46.0051 12.7198 0.0159413
41.0133 9.04134 0.0130622
42.4681 10.8943 0.0142318
52.5401 32.8372 2
40.5691 11.5967 2
43.8578 11.9087 2
51.4411 29.1058 2
50.8494 25.6728 2
49.9542 22.1438 2
45.8022 15.4085 2
47.5054 19.2052 2
50.1563 31.3684 3.98881
49.3762 27.4231 3.98346
49.4444 24.3529 3.98196
47.194 21.8859 3.9805
38.3013 12.7212 3.9838
42.1003 14.2931 3.98319
44.8003 18.4458 3.98101
45.0819 37.5099 3.98877
46.517 37.5083 2
47.9876 58.7544 0.0163398
48.6045 55.9335 0.0168612
50.2337 45.3073 0.0161812
49.7379 49.0912 0.0198468
49.1552 52.6261 0.0207788
46.1916 39.9098 0.061959
46.6198 42.7874 -0.00178752
46.6488 45.7566 0.0252761
44.0572 41.2514 0.0101516
42.0871 41.986 -0.00427096
46.8404 57.3573 2
44.8059 39.502 2
42.4497 40.8604 2
48.1917 47.2911 2
47.1803 54.2682 2
47.6308 50.8031 2
44.9154 47.377 2
45.2773 42.0287 2
45.1211 44.6715 2
42.8616 42.7369 2
40.9321 42.3408 2
45.4016 55.9429 3.98325
42.779 39.2608 3.99104
40.8877 40.8088 3.9636
46.1629 48.985 3.98111
45.5693 52.5603 3.98275
43.5418 48.4952 3.9584
43.4947 46.2138 4.01688
43.8321 43.827 3.931
41.3256 43.8986 3.98772
39.3046 42.6625 3.9716
45.4686 58.8016 0.0165571
43.8769 57.7257 2
42.1081 56.3515 3.98355
35.4639 67.6666 0.0119447
37.6423 65.5212 0.013613
39.8928 63.5647 0.0148651
41.7528 62.5044 0.0154055
42.4807 59.994 0.0163073
35.5734 65.4439 2
40.6224 61.6631 2
37.8365 63.2267 2
40.4446 58.2258 2
38.926 56.5197 3.98343
38.2499 60.3464 3.98386
35.6072 63.2202 3.9851
33.5761 65.3544 0.0135689
31.9604 63.3136 0.014826
33.6297 63.3538 2
30.3794 62.8723 2
32.1237 62.0202 2
28.6817 62.2172 3.9848
33.3462 61.5325 3.98403
31.0666 61.2368 3.98412
27.567 59.6136 3.98426
23.7881 59.1079 3.9858
25.0332 60.8904 3.98515
26.8686 61.5158 2
26.2295 63.4917 3.98583
28.0631 64.1597 2
27.4639 66.1917 3.98783
29.8843 64.7315 0.0137072
29.4072 66.7682 2
28.9066 68.9484 3.9904
31.3776 67.2044 0.0119662
31.0141 69.4233 2
30.6149 71.7804 3.99419
33.1567 69.758 0.00956711
32.8924 72.1495 2
32.6054 74.6784 4
35.1952 72.375 0.00579468
35.0474 74.9197 2
37.5 75 0
33.7229 6.97269 3.98878
35.4344 4.68187 3.99114
35.6202 6.71791 2
37.5141 2.38542 3.99465
37.5229 4.6113 2
39.6236 4.71198 0.00888997
39.7884 2.47244 2
39.9526 0.0806499 4
42.0618 2.71621 0.00543156
42.3947 0.320817 2
44.8158 0.721173 0
44.8007 35.5128 3.98653
42.4371 34.1487 4.00377
47.7494 40.4687 -0.00908452
50.7779 38.4907 0.00893649
54.1252 36.624 0.0170135
48.4179 37.7718 2
51.5508 35.5628 2
46.175 35.108 2
44.0426 33.7655 2
42.0805 33.0198 2
48.5737 34.2388 3.99811
45.2662 32.9907 3.93628
42.8594 32.2604 3.98894
40.927 32.663 4.00179
37.3097 10.618 3.98589
37.4574 8.52477 2
37.5158 6.66746 0.010989
39.2108 8.68391 0.0128595
38.9759 10.1153 2
34.7528 10.3678 3.98588
35.8976 9.76183 2
32.3762 9.35907 3.98681
34.1495 8.81225 2
35.9411 8.48345 0.0124481
52.5398 32.8375 0.0154422
51.4409 29.1055 0.00648233
50.8491 25.6724 0.0185915
49.9538 22.1441 0.0161926
47.5053 19.2055 0.0188493
45.8021 15.409 0.0172514
43.8578 11.9091 0.0154324
40.569 11.5972 0.014969
50.1565 31.3706 2
38.3013 12.7207 2
42.1004 14.2928 2
49.3765 27.4237 2
49.4449 24.3528 2
47.1943 21.8857 2
44.8004 18.4454 2
47.9367 29.5337 3.98082
47.1474 25.0663 3.98134
44.2927 21.2987 3.97854
36.5809 12.9177 3.98387
38.6798 14.7917 3.98288
41.7491 17.8222 3.982
42.9066 37.4979 3.98989
45.0818 37.5097 2
46.5192 37.5073 0.0583298
46.8404 57.3571 0.0160582
47.1802 54.2677 0.0164846
48.1919 47.2918 0.0187462
47.6304 50.8028 0.0229177
44.8074 39.5061 0.01159
45.2793 42.0282 0.06698
45.1162 44.6672 -0.00263808
44.9146 47.3814 0.0258916
42.8592 42.7427 0.0105448
42.4506 40.861 -0.00191236
40.9322 42.3396 -0.00433509
45.4015 55.943 2
42.7775 39.2603 2
40.8864 40.8103 2
46.1634 48.9842 2
45.5696 52.5606 2
43.5424 48.4953 2
43.4977 46.2185 2
43.8339 43.828 2
41.3269 43.8944 2
39.3038 42.6668 2
43.7434 54.4526 3.98401
40.9651 39.1812 3.95499
39.2316 40.8796 3.95233
43.7527 50.5441 3.99047
42.0557 47.7466 4.01828
41.9902 45.2197 3.91893
39.5319 44.6721 3.9833
37.5055 42.7873 3.95277
43.877 57.7256 0.0166418
42.108 56.3515 2
40.4221 54.9588 3.98329
35.5734 65.4435 0.0136022
37.8365 63.2264 0.0149737
40.6224 61.6629 0.015743
40.4447 58.2257 0.0163909
35.6072 63.2205 2
38.2499 60.3466 2
38.9259 56.5197 2
38.0009 55.2741 3.98365
36.9343 57.6479 3.98298
35.3635 60.9315 3.98396
33.6297 63.3535 0.014843
30.3794 62.872 0.0149227
32.1237 62.0199 0.0154002
33.3461 61.5328 2
28.6817 62.2174 2
31.0666 61.2371 2
29.4025 60.3063 3.98373
32.3558 59.7637 3.98385
28.0188 58.3932 3.98514
27.567 59.6138 2
25.3755 58.6178 3.98466
22.7498 58.2697 3.98474
23.3979 60.3727 3.98577
23.788 59.1082 2
25.0332 60.8906 2
24.4315 62.7853 3.98612
26.8686 61.5155 0.0155403
26.2295 63.492 2
25.548 65.5019 3.98769
28.0631 64.1594 0.0139323
27.4639 66.1921 2
26.8365 68.3369 3.99037
29.4072 66.7679 0.0120551
28.9066 68.9488 2
28.3701 71.2656 3.99416
31.0141 69.4229 0.00955815
30.6149 71.7806 2
30.1842 74.2788 4
32.8924 72.1493 0.00580667
32.6053 74.6792 2
35.0474 74.9194 0
31.7873 7.41211 3.98854
33.3464 4.92082 3.99105
33.7228 6.97228 2
35.2444 2.4615 3.99467
35.4344 4.68151 2
35.6203 6.71831 0.0110886
37.5 0 4
37.5141 2.38516 2
37.5229 4.61166 0.00887204
39.7884 2.4727 0.0053144
39.9526 0.0802889 2
42.3946 0.32156 0
42.7726 35.7393 3.99138
44.8002 35.5156 2
40.8751 34.1953 3.96435
42.437 34.1486 2
48.4175 37.7724 -0.00778633
51.5513 35.5635 0.0249035
46.1772 35.1082 0.0582811
44.0418 33.7619 0.00908938
42.08 33.0192 0.00358258
48.5726 34.2397 2
45.2634 32.9895 2
42.8609 32.2655 2
40.9272 32.6606 2
46.5454 31.4863 4.00139
43.8393 31.1836 3.9321
41.3301 31.1034 3.98756
39.2969 32.3532 3.9708
35.6913 11.7624 3.98461
37.3097 10.6175 2
37.4575 8.52522 0.012346
38.9758 10.1157 0.0135371
33.0966 11.204 3.98524
34.7527 10.3673 2
35.8976 9.76228 0.0132787
30.4809 10.0068 3.98639
32.3761 9.35864 2
34.1495 8.81267 0.0126908
50.1563 31.3684 0.0111852
49.3762 27.4231 0.0165387
49.4444 24.3529 0.0180365
47.194 21.8859 0.0194955
44.8003 18.4458 0.0189949
42.1003 14.2931 0.0168066
38.3013 12.7212 0.0162017
36.5809 12.9173 2
47.9371 29.5357 2
38.6798 14.7912 2
41.7492 17.822 2
47.1481 25.0662 2
44.2929 21.2983 2
45.6709 27.7207 3.97823
43.826 24.0022 3.98054
41.3435 20.7003 3.98055
35.7703 14.7428 3.98309
38.6803 17.5789 3.98173
41.0079 37.4869 3.94929
42.9063 37.4974 2
45.0819 37.5099 0.0112269
45.4016 55.9429 0.0167491
45.5693 52.5603 0.0172471
46.1629 48.985 0.0188866
42.779 39.2608 0.00896463
43.8321 43.827 0.0689981
43.4947 46.2138 -0.0168772
43.5418 48.4952 0.0416045
41.3256 43.8986 0.012285
40.8877 40.8088 0.0363969
39.3046 42.6625 0.0284035
43.7433 54.4527 2
40.9634 39.1817 2
39.2306 40.8829 2
43.753 50.5453 2
42.0558 47.7466 2
41.9907 45.2193 2
37.505 42.7926 2
39.5328 44.6757 2
41.8907 53.0237 3.98196
39.2257 39.1728 3.94815
37.5077 40.9201 3.95211
35.7066 42.669 3.97747
40.9968 49.7695 3.99813
39.8695 46.1017 3.95272
37.4973 44.9661 3.96184
42.1081 56.3515 0.0164504
40.422 54.9588 2
38.7324 53.8914 3.98512
35.6072 63.2202 0.0149019
38.2499 60.3464 0.0161423
38.926 56.5197 0.0165729
35.3635 60.9317 2
36.9343 57.6481 2
38.0009 55.2738 2
36.32 55.4052 3.98279
34.487 58.5413 3.98314
33.3462 61.5325 0.0159676
28.6817 62.2172 0.0152034
31.0666 61.2368 0.015877
32.3558 59.7639 2
29.4024 60.3065 2
30.2947 57.8358 3.98364
28.0188 58.3934 2
26.9361 56.8475 3.98383
27.567 59.6136 0.0157356
25.3755 58.6181 2
23.8276 56.8375 3.9839
21.324 57.4327 3.98534
21.9892 59.6479 3.98615
22.7498 58.2699 2
22.7346 62.0384 3.98633
23.3979 60.3729 2
23.7881 59.1079 0.0142016
25.0332 60.8904 0.014845
24.4315 62.7856 2
23.6817 64.7209 3.98769
26.2295 63.4917 0.0141658
25.548 65.5023 2
24.8091 67.5984 3.99032
27.4639 66.1917 0.0121679
26.8365 68.3373 2
26.1655 70.6065 3.99415
28.9066 68.9484 0.00960072
28.3701 71.2659 2
27.7943 73.7221 4
30.6149 71.7804 0.00581405
30.1841 74.2794 2
32.6054 74.6784 0
29.8099 7.98497 3.98821
31.2517 5.32763 3.99087
31.7872 7.41169 2
32.9803 2.69951 3.99462
33.3464 4.92044 2
33.7229 6.97269 0.0112205
35.0474 0.080333 4
35.2444 2.46124 2
35.4344 4.68187 0.0088553
37.5 0 2
37.5141 2.38542 0.00535138
39.9526 0.0806499 0
40.9604 35.8032 3.95221
42.772 35.739 2
44.8007 35.5128 0.0134743
28.542 10.6819 3.98602
39.2196 34.1386 3.95733
40.8743 34.193 2
42.4371 34.1487 -0.00377098
48.5737 34.2388 0.00189194
45.2662 32.9907 0.0637248
42.8594 32.2604 0.0110553
40.927 32.663 -0.0017943
46.5462 31.4875 2
43.8382 31.1847 2
41.3328 31.1048 2
39.2971 32.3485 2
44.5921 29.6572 4.00418
42.0001 29.79 3.92639
39.537 30.3379 3.9759
37.4969 32.2301 3.94841
34.091 12.9199 3.98398
35.6912 11.762 2
37.3097 10.618 0.01411
31.1848 11.9721 3.98489
33.0966 11.2036 2
34.7528 10.3678 0.0141175
30.4808 10.0063 2
32.3762 9.35907 0.0131868
47.9367 29.5337 0.0191829
47.1474 25.0663 0.0186618
36.5809 12.9177 0.0161343
44.2927 21.2987 0.0214643
41.7491 17.8222 0.0180016
38.6798 14.7917 0.0171221
35.7703 14.7423 2
45.672 27.7212 2
38.6804 17.5783 2
41.3436 20.7002 2
43.8265 24.0019 2
33.6062 15.86 3.98263
43.1384 26.406 3.98182
40.9279 23.2756 3.98161
38.4225 20.3102 3.9796
35.8468 17.4928 3.98195
39.2315 37.4908 3.945
41.007 37.4865 2
42.9066 37.4979 0.0101095
43.7434 54.4526 0.0159884
43.7527 50.5441 0.00952677
40.9651 39.1812 0.0450099
41.9902 45.2197 0.0810701
42.0557 47.7466 -0.0182836
39.5319 44.6721 0.016701
39.2316 40.8796 0.0476657
37.5055 42.7873 0.0472343
41.8905 53.0237 2
39.2246 39.1743 2
37.5074 40.9236 2
40.9974 49.7679 2
35.7062 42.6738 2
39.8682 46.1043 2
37.4971 44.9721 2
39.8291 51.9401 3.98237
37.504 39.1851 3.95006
35.7867 40.8945 3.95452
34.0763 42.3534 4.00479
35.4621 44.6662 3.98396
38.7564 48.8998 4.0261
37.495 46.4019 3.95289
40.4221 54.9588 0.0167087
38.7325 53.8908 2
36.7192 53.232 3.98522
35.3635 60.9315 0.0160436
36.9343 57.6479 0.0170178
38.0009 55.2741 0.0163518
34.487 58.5414 2
36.3201 55.4052 2
33.223 55.522 3.98234
32.3558 59.7637 0.0161468
29.4025 60.3063 0.0162673
30.2948 57.836 2
28.673 55.331 3.98266
28.0188 58.3932 0.014864
26.9361 56.8477 2
25.2903 55.1778 3.98297
21.789 55.3855 3.98385
25.3755 58.6178 0.0153398
23.8275 56.8378 2
20.2067 57.0648 3.98573
20.6387 58.8091 3.9862
21.3239 57.4329 2
21.1637 61.191 3.98684
21.9891 59.6482 2
22.7498 58.2697 0.0152553
21.8947 63.8502 3.98782
22.7346 62.0387 2
23.3979 60.3727 0.0142303
24.4315 62.7853 0.0138791
23.6817 64.7212 2
22.8375 66.7427 3.99029
25.548 65.5019 0.0123145
24.8091 67.5988 2
24.0099 69.8078 3.99414
26.8365 68.3369 0.00963199
26.1655 70.6068 2
25.446 73.0099 4
28.3701 71.2656 0.00584414
27.7943 73.7222 2
30.1842 74.2788 0
27.8199 8.64421 3.98792
29.1538 5.87302 3.99065
29.8098 7.98454 2
30.7256 3.09651 3.99451
31.2517 5.32724 2
31.7873 7.41211 0.0114604
32.6053 0.320823 4
32.9803 2.69925 2
33.3464 4.92082 0.00894927
35.0474 0.0802903 2
35.2444 2.4615 0.00532715
37.5 0 0
39.222 35.8211 3.94893
40.9594 35.8018 2
42.7726 35.7393 0.00862366
28.5419 10.6815 2
26.621 11.3765 3.98612
29.2238 12.6288 3.98497
37.4959 34.1045 3.95371
39.219 34.1351 2
40.8751 34.1953 0.0356481
46.5454 31.4863 -0.00139412
43.8393 31.1836 0.0678986
41.3301 31.1034 0.0124389
39.2969 32.3532 0.0291981
44.5962 29.657 2
41.9991 29.7902 2
39.5384 30.3336 2
37.4975 32.2246 2
42.4467 28.3337 4.01397
39.8768 28.9016 3.9479
37.4986 30.0404 3.95213
35.6991 32.3493 3.96975
31.9128 14.4655 3.98375
34.091 12.9194 2
35.6913 11.7624 0.015386
31.1847 11.9717 2
33.0966 11.204 0.0147618
30.4809 10.0068 0.0136135
45.6709 27.7207 0.0217742
43.826 24.0022 0.0194639
35.7703 14.7428 0.0169097
41.3435 20.7003 0.0194471
38.6803 17.5789 0.0182732
33.6061 15.8596 2
35.8468 17.4923 2
43.1389 26.4047 2
38.4226 20.3094 2
40.9283 23.2756 2
33.5481 17.37 3.98204
40.4948 25.5845 3.97712
38.0838 22.8472 3.9816
35.5831 20.0624 3.98069
37.5006 37.5032 3.94945
39.231 37.4907 2
41.0079 37.4869 0.0507051
41.8907 53.0237 0.0180384
40.9968 49.7695 0.00186536
39.2257 39.1728 0.0518458
39.8695 46.1017 0.0472805
37.4973 44.9661 0.0381575
37.5077 40.9201 0.04789
35.7066 42.669 0.0225259
39.8295 51.939 2
37.5038 39.1866 2
35.7872 40.8981 2
38.7569 48.9011 2
34.0757 42.3562 2
35.4606 44.67 2
37.4924 46.4063 2
37.6603 51.084 3.97952
35.7868 39.194 3.94748
34.1368 40.8289 3.96328
32.9213 41.9987 3.99995
33.6697 43.9072 3.98696
35.1288 46.101 3.94595
36.871 48.5001 4.03369
38.7324 53.8914 0.0148769
36.7191 53.2322 2
34.347 52.5061 3.98418
34.487 58.5413 0.0168619
36.32 55.4052 0.0172075
33.2231 55.5218 2
30.4959 53.4392 3.9813
30.2947 57.8358 0.0163605
28.673 55.3312 2
26.851 53.4824 3.98145
26.9361 56.8475 0.0161658
25.2902 55.1781 2
23.5393 53.5264 3.98219
20.4334 53.2729 3.9831
19.9152 55.8705 3.98532
21.7889 55.3857 2
23.8276 56.8375 0.0161
19.4291 57.9245 3.986
20.2066 57.065 2
19.7021 60.2276 3.98678
20.6386 58.8094 2
21.324 57.4327 0.0146623
20.2063 62.8735 3.98806
21.1637 61.1913 2
21.9892 59.6479 0.0138454
20.9389 65.7727 3.99035
21.8947 63.8505 2
22.7346 62.0384 0.0136731
23.6817 64.7209 0.0123079
22.8375 66.743 2
21.9126 68.8753 3.99413
24.8091 67.5984 0.00968442
24.0099 69.8081 2
23.1494 72.1454 4
26.1655 70.6065 0.00585297
25.446 73.0099 2
27.7943 73.7221 0
25.8593 9.37185 3.98781
27.0687 6.53666 3.99045
27.8198 8.64378 2
28.4879 3.64224 3.99437
29.1538 5.87261 2
29.8099 7.98497 0.0117938
30.1841 0.720592 4
30.7256 3.09623 2
31.2517 5.32763 0.00912533
32.6053 0.320817 2
32.9803 2.69951 0.00538015
35.0474 0.080333 0
37.4978 35.8269 3.9496
39.2216 35.8193 2
40.9604 35.8032 0.0477942
24.776 12.0588 3.98625
23.7497 14.3415 3.98573
28.542 10.6819 0.0139803
26.621 11.3762 2
29.2238 12.6284 2
27.29 13.3609 3.98502
29.7787 14.1874 3.98466
35.7766 34.1318 3.95565
37.496 34.1011 2
39.2196 34.1386 0.0426709
37.4969 32.2301 0.0515871
44.5921 29.6572 -0.00417854
42.0001 29.79 0.0736143
39.537 30.3379 0.0240966
42.4493 28.3317 2
39.8762 28.8984 2
37.4991 30.0336 2
35.7 32.3449 2
40.0982 27.4891 4.02465
37.4987 28.597 3.94937
35.4597 30.3353 3.9755
34.0733 32.6626 4.00061
30.9244 16.8218 3.98399
31.9127 14.465 2
34.091 12.9199 0.0160164
31.1848 11.9721 0.015113
43.1384 26.406 0.0181845
40.9279 23.2756 0.0183888
33.6062 15.86 0.0173673
35.8468 17.4928 0.0180463
38.4225 20.3102 0.0203981
33.5481 17.3696 2
35.5831 20.0618 2
40.4951 25.5817 2
38.0841 22.846 2
32.8603 19.7794 3.98036
37.7865 25.1678 3.97639
35.2049 22.6239 3.97988
35.7725 37.5103 3.9438
37.5006 37.5032 2
39.2315 37.4908 0.0549994
39.8291 51.9401 0.0176349
38.7564 48.8998 -0.026097
37.504 39.1851 0.0499435
37.495 46.4019 0.0471058
35.4621 44.6662 0.0160401
35.7867 40.8945 0.0454839
34.0763 42.3534 -0.00478663
37.6602 51.0845 2
35.7873 39.1958 2
34.1376 40.8313 2
36.8713 48.504 2
32.9206 41.9986 2
33.6672 43.9061 2
35.1292 46.1041 2
35.4027 50.2636 3.98332
34.0552 39.2059 3.95277
32.5645 40.872 4.00328
32.1395 42.7551 3.98941
33.0074 45.2247 3.92279
34.2318 47.5214 4.02419
36.7192 53.232 0.0147825
34.347 52.5056 2
31.9575 51.2801 3.98228
33.223 55.522 0.0176649
30.496 53.4392 2
28.3822 51.6843 3.97931
28.673 55.331 0.0173422
26.8509 53.4828 2
25.0301 51.8259 3.98021
25.2903 55.1778 0.0170252
23.5392 53.5266 2
21.9167 51.8642 3.98252
19.1573 51.6854 3.98327
18.8961 54.3505 3.98422
20.4334 53.2729 2
18.4344 56.7585 3.98608
19.9151 55.8707 2
21.789 55.3855 0.0161455
18.3626 59.1382 3.98653
19.429 57.9247 2
20.2067 57.0648 0.014269
18.6163 61.7834 3.988
19.7021 60.2279 2
20.6387 58.8091 0.0137983
19.1274 64.6849 3.99043
20.2063 62.8738 2
21.1637 61.191 0.0131622
19.8867 67.8124 3.99416
20.9389 65.7731 2
21.8947 63.8502 0.0121798
22.8375 66.7427 0.00970856
21.9126 68.8755 2
20.9142 71.1327 4
24.0099 69.8078 0.00586344
23.1494 72.1455 2
25.446 73.0099 0
23.0953 12.7726 3.98632
23.972 10.1578 3.98775
25.0228 7.30637 3.99031
25.8592 9.37147 2
26.2797 4.32626 3.99421
27.0687 6.53625 2
27.8199 8.64421 0.01208
27.7943 1.27781 4
28.4879 3.64195 2
29.1538 5.87302 0.00934853
30.1841 0.720551 2
30.7256 3.09651 0.00549385
32.6053 0.320823 0
35.7756 35.8285 3.947
37.4982 35.8252 2
39.222 35.8211 0.051072
24.7759 12.0585 2
23.7497 14.3411 2
22.478 15.0166 3.9859
25.3561 13.8918 3.98548
24.0225 15.6022 3.9854
26.621 11.3765 0.0138839
29.2238 12.6288 0.0150346
27.2899 13.3606 2
29.7787 14.187 2
28.3549 15.9605 3.98456
34.13 34.1944 3.96291
35.7772 34.1287 2
37.4959 34.1045 0.0462929
35.6991 32.3493 0.0302452
37.4986 30.0404 0.0478669
42.4467 28.3337 -0.0139661
39.8768 28.9016 0.0521021
40.0995 27.4848 2
37.4995 28.5897 2
35.4594 30.3316 2
34.0741 32.6605 2
37.5992 27.1343 4.0312
35.1179 28.8971 3.94651
33.6667 31.1039 3.98759
32.9211 33.0248 3.99817
30.2048 19.3237 3.98492
30.9243 16.8214 2
31.9128 14.4655 0.0162463
40.4948 25.5845 0.0228806
38.0838 22.8472 0.018396
33.5481 17.37 0.0179601
35.5831 20.0624 0.0193051
32.8603 19.779 2
35.205 22.623 2
37.7862 25.1662 2
32.306 22.3961 3.98093
34.9314 25.1321 3.9739
34.0022 37.512 3.94842
35.7731 37.5104 2
37.5006 37.5032 0.0505532
37.6603 51.084 0.0204809
36.871 48.5001 -0.0336851
35.7868 39.194 0.0525198
35.1288 46.101 0.0540528
33.6697 43.9072 0.0130406
34.1368 40.8289 0.0367237
32.9213 41.9987 5.12102e-05
35.4026 50.2628 2
34.0564 39.2073 2
32.5649 40.872 2
34.2314 47.5267 2
32.1372 42.7499 2
33.0078 45.2261 2
33.1518 49.2553 3.98379
32.2321 39.2785 3.99269
30.9521 41.2601 3.99092
31.1644 43.8378 3.93071
32.1307 46.4563 4.01745
34.347 52.5061 0.0158165
31.9576 51.2798 2
29.7778 49.8033 3.98042
30.4959 53.4392 0.0187045
28.382 51.6847 2
26.4324 50.0713 3.97785
26.851 53.4824 0.0185541
25.03 51.8261 2
23.2737 50.2637 3.98281
23.5393 53.5264 0.0178122
21.9167 51.8641 2
20.4083 50.3721 3.98376
17.9413 50.3775 3.9847
17.8008 52.8356 3.98395
19.1574 51.6853 2
17.4188 55.3772 3.98526
18.8961 54.3506 2
20.4334 53.2729 0.0169023
17.1264 57.9028 3.98669
18.4343 56.7587 2
19.9152 55.8705 0.0146781
17.1328 60.5694 3.9877
18.3625 59.1385 2
19.4291 57.9245 0.0140034
17.4073 63.4791 3.99042
18.6163 61.7838 2
19.7021 60.2276 0.013218
17.9428 66.6214 3.99419
19.1275 64.6852 2
20.2063 62.8735 0.0119387
18.75 69.9759 4
19.8867 67.8126 2
20.9389 65.7727 0.0096501
21.9126 68.8753 0.00587219
20.9142 71.1327 2
23.1494 72.1454 0
21.5858 13.5915 3.98642
22.1902 11.0164 3.9877
23.0952 12.7723 2
23.041 8.17123 3.99026
23.972 10.1575 2
24.1174 5.14077 3.99409
25.0228 7.30598 2
25.8593 9.37185 0.0121898
25.446 1.99014 4
26.2797 4.32596 2
27.0687 6.53666 0.00955428
27.7943 1.27778 2
28.4879 3.64224 0.00563199
30.1841 0.720592 0
34.0421 35.8175 3.95096
35.7767 35.8269 2
37.4978 35.8269 0.0503999
21.3026 15.8105 3.98579
24.776 12.0588 0.0137468
23.7497 14.3415 0.0142689
25.356 13.8915 2
22.4779 15.0163 2
24.0224 15.6019 2
23.2613 16.2325 3.98528
25.3779 16.0705 3.98512
27.29 13.3609 0.0149777
29.7787 14.1874 0.0153397
28.3549 15.9602 2
27.436 18.7799 3.98476
32.5649 34.1562 4.0043
34.1309 34.1925 2
35.7766 34.1318 0.044354
34.0733 32.6626 -0.000607885
35.4597 30.3353 0.024504
37.4987 28.597 0.0506253
40.0982 27.4891 -0.0246503
37.5992 27.1309 2
32.9214 33.0256 2
35.1194 28.8946 2
33.6649 31.1058 2
35.0048 27.2883 4.02088
32.9953 29.794 3.9276
32.1417 32.2689 3.99049
29.5654 21.9182 3.98646
30.2047 19.3233 2
30.9244 16.8218 0.016013
37.7865 25.1678 0.0236135
35.2049 22.6239 0.0201207
32.8603 19.7794 0.0196449
32.3061 22.3957 2
34.9307 25.1304 2
31.6124 25.571 3.97928
32.0964 37.5161 3.9894
34.0031 37.5122 2
35.7725 37.5103 0.0561972
35.4027 50.2636 0.0166759
34.2318 47.5214 -0.0241864
34.0552 39.2059 0.0472315
33.0074 45.2247 0.0772134
32.1395 42.7551 0.0105867
32.5645 40.872 -0.00327838
33.1516 49.2549 2
32.2329 39.2784 2
30.9518 41.2564 2
32.1291 46.462 2
31.1646 43.8377 2
31.0178 47.9738 3.9785
30.1957 39.5112 3.98853
29.7301 42.0351 3.93392
30.2184 45.0588 4.00388
31.9575 51.2801 0.017719
29.7777 49.8042 2
27.7606 48.2677 3.98036
28.3822 51.6843 0.0206857
26.4323 50.0712 2
24.5538 48.5456 3.98396
25.0301 51.8259 0.0197864
23.2737 50.2634 2
21.5743 48.8538 3.98586
21.9167 51.8642 0.017485
20.4084 50.3719 2
18.9738 49.1438 3.98614
16.8475 49.3742 3.98605
16.7374 51.4494 3.98454
17.9413 50.3775 2
16.3661 53.9083 3.98479
17.8009 52.8356 2
19.1573 51.6854 0.0167283
15.9651 56.5064 3.98632
17.4188 55.3773 2
18.8961 54.3505 0.0157801
15.745 59.2326 3.98761
17.1264 57.903 2
18.4344 56.7585 0.0139191
15.7873 62.1515 3.99023
17.1328 60.5697 2
18.3626 59.1382 0.0134701
16.0893 65.3045 3.9942
17.4073 63.4794 2
18.6163 61.7834 0.011998
16.6661 68.6801 4
17.9428 66.6216 2
19.1274 64.6849 0.00956967
18.75 69.9759 2
19.8867 67.8124 0.00584499
20.9142 71.1327 0
20.2173 14.5785 3.98632
21.5858 13.5912 2
20.5295 11.9851 3.98771
21.1442 9.14041 3.99022
22.1902 11.016 2
23.0953 12.7726 0.0136777
22.0166 6.07953 3.99405
23.041 8.17084 2
23.972 10.1578 0.0122536
23.1494 2.85457 4
24.1175 5.14047 2
25.0228 7.30637 0.00968621
25.446 1.99012 2
26.2797 4.32626 0.00578518
27.7943 1.27781 0
32.2258 35.7526 3.99184
34.0439 35.8166 2
35.7756 35.8285 0.0530028
21.3025 15.8102 2
20.2988 16.9417 3.98601
22.094 16.6152 3.98556
25.3561 13.8918 0.0145166
22.478 15.0166 0.0141027
24.0225 15.6022 0.0145987
25.3779 16.0702 2
23.2612 16.2322 2
24.2 18.4295 3.98475
27.0027 21.437 3.98461
28.3549 15.9605 0.0154431
27.4359 18.7796 2
30.9571 33.7761 3.98857
32.5649 34.156 2
34.13 34.1944 0.0370874
32.9211 33.0248 0.00183303
33.6667 31.1039 0.0124115
35.1179 28.8971 0.0534885
37.5992 27.1343 -0.0312034
35.0037 27.2848 2
32.1416 32.2737 2
32.9976 29.7947 2
32.4047 28.0297 4.01204
31.16 31.197 3.93461
28.7348 24.3863 3.98742
29.5655 21.9177 2
30.2048 19.3237 0.0150814
34.9314 25.1321 0.0260969
32.306 22.3961 0.0190728
31.611 25.5707 2
29.5169 27.1982 3.99116
29.9135 37.5178 3.98822
32.097 37.5163 2
34.0022 37.512 0.0515849
33.1518 49.2553 0.0162092
32.1307 46.4563 -0.0174524
32.2321 39.2785 0.00730705
31.1644 43.8378 0.0692934
30.9521 41.2601 0.00908437
31.0175 47.9697 2
30.1965 39.5091 2
29.7332 42.0366 2
30.2147 45.0633 2
29.0198 46.5146 3.97566
28.8169 39.9135 3.94006
28.4358 43.2757 4.0034
29.7778 49.8033 0.0195763
27.7604 48.2667 2
25.8072 46.7348 3.98893
26.4324 50.0713 0.0221521
24.5538 48.5451 2
22.697 47.1511 3.99067
23.2737 50.2637 0.0171893
21.5744 48.8534 2
19.9093 47.673 3.98843
20.4083 50.3721 0.0162366
18.9738 49.1437 2
17.6162 48.2227 3.98689
16.0987 48.722 3.98653
16.8475 49.3742 2
15.813 50.2093 3.98551
15.352 52.4523 3.98489
16.7374 51.4494 2
17.9413 50.3775 0.0152986
14.8535 55.0087 3.98574
16.366 53.9084 2
17.8008 52.8356 0.0160545
14.4529 57.7632 3.98741
15.965 56.5067 2
17.4188 55.3772 0.0147354
14.2648 60.7079 3.99001
15.745 59.2329 2
17.1264 57.9028 0.0133053
14.3332 63.8642 3.99409
15.7873 62.1519 2
17.1328 60.5694 0.0122978
14.6715 67.2507 4
16.0893 65.3048 2
17.4073 63.4791 0.00957603
16.6661 68.6801 2
17.9428 66.6214 0.00581484
18.75 69.9759 0
18.9302 15.7629 3.98637
20.2173 14.5782 2
18.9789 13.0943 3.98763
21.5858 13.5915 0.0135821
20.5295 11.9847 2
19.3437 10.2274 3.99019
19.9913 7.14393 3.99405
21.1442 9.14 2
22.1902 11.0164 0.0122951
20.9142 3.86727 4
22.0166 6.07923 2
23.041 8.17123 0.00973617
23.1494 2.85451 2
24.1174 5.14077 0.00590985
25.446 1.99014 0
30.1936 35.5238 3.98878
32.2275 35.7527 2
34.0421 35.8175 0.0490396
21.3026 15.8105 0.014213
22.0939 16.6149 2
20.2987 16.9414 2
19.236 18.3855 3.98597
21.7775 17.8285 3.98551
25.3779 16.0705 0.014878
23.2613 16.2325 0.0147202
24.1999 18.4292 2
22.268 19.8662 3.98533
24.5777 21.295 3.98453
26.3681 23.6943 3.98723
27.0027 21.4366 2
27.436 18.7799 0.0152444
29.736 33.0051 3.93475
30.9565 33.7801 2
32.5649 34.1562 -0.00430345
32.1417 32.2689 0.00950697
32.9953 29.794 0.0724031
35.0048 27.2883 -0.0208761
32.4034 28.0274 2
31.1621 31.1996 2
29.9095 29.479 4.00383
27.7692 26.5091 3.97777
28.7339 24.3855 2
29.5654 21.9182 0.013539
31.6124 25.571 0.0207193
29.5155 27.1981 2
28.474 37.5163 3.94398
29.9138 37.5187 2
32.0964 37.5161 0.0106002
31.0178 47.9738 0.0214973
30.2184 45.0588 -0.00387866
30.1957 39.5112 0.0114749
29.7301 42.0351 0.0660822
29.0198 46.5115 2
28.8195 39.9143 2
28.4351 43.2757 2
27.0808 44.8724 3.97744
26.546 40.6652 4.00121
27.7606 48.2677 0.0196368
25.8075 46.7341 2
23.833 45.2821 3.99344
24.5538 48.5456 0.0160446
22.6972 47.1506 2
20.8265 45.9539 3.99085
21.5743 48.8538 0.0141427
19.9093 47.673 2
18.2535 46.7816 3.98771
18.9738 49.1438 0.0138592
17.6162 48.2226 2
16.2851 47.7509 3.98633
16.0987 48.7221 2
15.1578 49.0511 3.98597
16.8475 49.3742 0.0139545
15.813 50.2094 2
14.4634 51.0189 3.98533
13.8127 53.4648 3.98551
15.352 52.4524 2
16.7374 51.4494 0.0154584
13.246 56.1921 3.98698
14.8535 55.0089 2
16.3661 53.9083 0.0152056
12.8467 59.143 3.98969
14.4529 57.7635 2
15.9651 56.5064 0.0136815
12.6784 62.3073 3.99392
14.2648 60.7083 2
15.745 59.2326 0.0123883
12.7746 65.6939 4
14.3333 63.8645 2
15.7873 62.1515 0.00976529
14.6714 67.2507 2
16.0893 65.3045 0.00580445
16.6661 68.6801 0
17.6635 17.1357 3.98632
18.9302 15.7625 2
17.5097 14.3561 3.98749
20.2173 14.5785 0.0136758
18.9789 13.0939 2
17.6392 11.4451 3.99011
20.5295 11.9851 0.0122864
19.3437 10.227 2
18.0516 8.3364 3.99404
18.75 5.0241 4
19.9913 7.14361 2
21.1442 9.14041 0.00977711
20.9142 3.86727 2
22.0166 6.07953 0.00594801
23.1494 2.85457 0
28.8044 35.122 3.94014
30.1954 35.528 2
32.2258 35.7526 0.00815703
22.094 16.6152 0.0144448
20.2988 16.9417 0.0139945
21.7774 17.8281 2
19.2359 18.3852 2
17.9684 19.9141 3.98599
20.8675 19.3522 3.9856
24.2 18.4295 0.0152476
22.2679 19.8658 2
24.5777 21.2946 2
22.3388 21.687 3.98538
24.6558 23.1383 3.98659
25.3673 25.9197 3.98199
26.3675 23.6937 2
27.0027 21.437 0.0153893
28.0989 32.259 4.00793
29.7379 33.0047 2
30.9571 33.7761 0.0114321
31.16 31.197 0.0653866
32.4047 28.0297 -0.0120357
29.9085 29.478 2
26.8658 29.1185 3.96569
27.7678 26.5086 2
28.7348 24.3863 0.0125835
29.5169 27.1982 0.00884284
26.6547 37.3519 4.00727
28.4764 37.5155 2
29.9135 37.5178 0.0117768
29.0198 46.5146 0.024341
28.4358 43.2757 -0.00339612
28.8169 39.9135 0.0599375
27.0812 44.8706 2
26.547 40.6643 2
25.0458 43.2285 3.98956
23.799 39.4449 3.9759
25.8072 46.7348 0.0110734
23.8334 45.2824 2
21.79 44.0034 3.98871
22.697 47.1511 0.0093336
20.8265 45.9541 2
18.9041 45.0118 3.98712
19.9093 47.673 0.0115689
18.2534 46.7816 2
16.569 46.2474 3.98588
17.6162 48.2227 0.0131094
16.285 47.751 2
14.8842 47.7029 3.9857
16.0987 48.722 0.0134729
15.1578 49.0512 2
13.7594 49.5772 3.98554
15.813 50.2093 0.0144878
14.4635 51.019 2
12.8776 51.9022 3.98556
12.1318 54.5506 3.9866
13.8127 53.4649 2
15.352 52.4523 0.0151095
11.5304 57.476 3.98912
13.246 56.1923 2
14.8535 55.0087 0.0142632
11.133 60.6342 3.99375
12.8467 59.1434 2
14.4529 57.7632 0.0125855
10.9835 64.0165 4
12.6785 62.3077 2
14.2648 60.7079 0.00998592
12.7745 65.694 2
14.3332 63.8642 0.00590565
14.6715 67.2507 0
16.3939 18.6265 3.98642
17.6634 17.1353 2
16.1001 15.763 3.98734
18.9302 15.7629 0.0136307
17.5097 14.3558 2
16.0206 12.7968 3.98996
18.9789 13.0943 0.0123696
17.6392 11.4447 2
16.2027 9.65897 3.99401
19.3437 10.2274 0.00981441
18.0516 8.33607 2
16.6661 6.31991 4
18.75 5.02404 2
19.9913 7.14393 0.00595025
20.9142 3.86727 0
27.1672 34.7229 4.01128
28.8071 35.1216 2
30.1936 35.5238 0.0112193
16.664 21.3457 3.98532
21.7775 17.8285 0.0144852
19.236 18.3855 0.0140312
20.8674 19.3518 2
17.9683 19.9138 2
19.7061 21.541 3.98616
22.268 19.8662 0.0146681
24.5777 21.295 0.0154682
22.3387 21.6865 2
24.6554 23.1378 2
22.788 24.568 3.98379
24.4189 28.5016 3.97821
25.3662 25.9193 2
26.3681 23.6943 0.0127728
25.9455 31.7034 3.9774
28.0986 32.2591 2
29.736 33.0051 0.0652492
29.9095 29.479 -0.00383036
26.8648 29.1192 2
27.7692 26.5091 0.0222305
24.4752 36.8702 3.98434
26.6541 37.3521 2
28.474 37.5163 0.0560223
27.0808 44.8724 0.0225615
26.546 40.6652 -0.00120995
25.0459 43.2268 2
23.7995 39.4461 2
22.8292 41.8399 3.98278
21.5605 38.5083 3.98381
23.833 45.2821 0.00656096
21.7902 44.0041 2
19.6452 42.9236 3.98507
20.8265 45.9539 0.00914687
18.9042 45.0119 2
16.8911 44.4105 3.98495
18.2535 46.7816 0.0122907
16.5689 46.2475 2
14.8005 46.1199 3.9849
16.2851 47.7509 0.0136668
14.8842 47.7031 2
13.264 48.0368 3.98523
15.1578 49.0511 0.0140338
13.7594 49.5774 2
12.095 50.2785 3.98557
14.4634 51.0189 0.0146701
12.8776 51.9024 2
11.126 52.8583 3.98635
10.3199 55.728 3.9885
12.1317 54.5508 2
13.8127 53.4648 0.01449
9.69962 58.8578 3.99344
11.5304 57.4764 2
13.246 56.1921 0.0130154
9.30605 62.2254 4
11.133 60.6346 2
12.8467 59.143 0.0103099
10.9835 64.0165 2
12.6784 62.3073 0.00607678
12.7746 65.6939 0
15.1357 20.1581 3.98605
16.3938 18.6262 2
14.7446 17.2834 3.98713
17.6635 17.1357 0.0136788
16.1 15.7626 2
14.4828 14.2766 3.98975
17.5097 14.3561 0.0125095
16.0206 12.7964 2
14.4453 11.1096 3.9939
17.6392 11.4451 0.0098863
16.2028 9.65862 2
14.6715 7.74927 4
18.0516 8.3364 0.00595548
16.6661 6.31988 2
18.75 5.0241 0
25.1178 34.2761 3.98876
27.1666 34.7227 2
28.8044 35.122 0.0598609
17.8318 22.2897 3.98648
15.5039 22.8874 3.98462
16.6639 21.3454 2
20.8675 19.3522 0.014401
17.9684 19.9141 0.0140097
19.706 21.5406 2
19.6176 24.3463 3.98527
22.3388 21.687 0.0146196
24.6558 23.1383 0.0134124
22.7873 24.5675 2
21.811 27.7924 3.97818
23.5775 31.1632 3.98269
24.4182 28.5019 2
25.3673 25.9197 0.018007
25.9454 31.7054 2
28.0989 32.259 -0.00792587
26.8658 29.1185 0.0343084
22.2632 36.263 3.99184
24.4749 36.8712 2
26.6547 37.3519 -0.00727227
25.0458 43.2285 0.0104424
23.799 39.4449 0.0241039
22.829 41.8405 2
21.5608 38.5085 2
20.5553 40.6531 3.98171
19.9283 37.7851 3.98661
21.79 44.0034 0.0112906
19.6454 42.9237 2
17.2786 42.124 3.98359
18.9041 45.0118 0.012883
16.8911 44.4106 2
14.7973 44.2251 3.98357
16.569 46.2474 0.014119
14.8004 46.12 2
12.9331 46.3204 3.98451
14.8842 47.7029 0.014299
13.2639 48.037 2
11.4645 48.573 3.98527
13.7594 49.5772 0.0144563
12.0949 50.2787 2
10.2505 51.1001 3.98616
12.8776 51.9022 0.0144424
11.1259 52.8586 2
9.22789 53.9052 3.98802
8.38323 56.9916 3.99301
10.3199 55.7283 2
12.1318 54.5506 0.0134032
7.74927 60.3285 4
9.69965 58.8582 2
11.5304 57.476 0.0108799
9.306 62.2255 2
11.133 60.6342 0.00624802
10.9835 64.0165 0
13.9446 21.7232 3.98565
15.1356 20.1578 2
13.4438 18.8784 3.98692
16.3939 18.6265 0.0135799
14.7446 17.283 2
13.0278 15.8673 3.98944
16.1001 15.763 0.0126629
14.4828 14.2762 2
12.7825 12.6823 3.99373
16.0206 12.7968 0.0100407
14.4454 11.1092 2
12.7746 9.30605 4
16.2027 9.65897 0.00599277
14.6715 7.74924 2
16.6661 6.31991 0
22.8623 33.7804 3.99148
25.1175 34.2774 2
27.1672 34.7229 -0.0112766
17.5903 24.0079 3.98545
17.8316 22.2893 2
14.2826 24.4199 3.9836
15.5036 22.887 2
16.664 21.3457 0.0146789
18.9591 27.1696 3.98025
19.7061 21.541 0.013839
19.6171 24.3459 2
21.0367 30.6378 3.98045
22.788 24.568 0.0162079
21.8104 27.7925 2
23.5774 31.164 2
24.4189 28.5016 0.0217911
25.9455 31.7034 0.0225966
20.0387 35.9138 3.9894
22.2629 36.2632 2
24.4752 36.8702 0.0156625
22.8292 41.8399 0.0172244
21.5605 38.5083 0.0161889
20.5555 40.6529 2
19.9284 37.7853 2
17.9366 39.0103 3.98496
19.6452 42.9236 0.0149274
17.2788 42.1241 2
14.7393 41.9359 3.98316
16.8911 44.4105 0.015048
14.7973 44.2252 2
12.6702 44.4126 3.98349
14.8005 46.1199 0.0150951
12.9331 46.3206 2
10.9644 46.754 3.98464
13.264 48.0368 0.0147739
11.4645 48.5732 2
9.51258 49.2579 3.98583
12.095 50.2785 0.0144291
10.2505 51.1004 2
8.26006 52.0166 3.98766
11.126 52.8583 0.0136492
9.2279 53.9055 2
7.19219 55.0425 3.99257
6.31991 58.3339 4
8.38327 56.992 2
10.3199 55.728 0.011502
7.74924 60.3285 2
9.69962 58.8578 0.00655719
9.30605 62.2254 0
13.2027 25.3359 3.98536
12.8089 23.2527 3.98507
13.9444 21.7228 2
12.2272 20.5264 3.98675
15.1357 20.1581 0.0139532
13.4437 18.878 2
11.6569 17.5469 3.98908
14.7446 17.2834 0.012868
13.0278 15.8669 2
11.2198 14.3663 3.99353
14.4828 14.2766 0.0102457
12.7825 12.6819 2
10.9835 10.9835 4
14.4453 11.1096 0.00610388
12.7745 9.306 2
14.6715 7.74927 0
20.4348 33.3752 3.98728
22.862 33.7809 2
25.1178 34.2761 0.0112384
15.8559 26.3701 3.98223
17.5898 24.0076 2
17.8318 22.2897 0.0135215
14.2823 24.4196 2
15.5039 22.8874 0.0153811
18.2903 30.1467 3.97994
18.9586 27.1695 2
19.6176 24.3463 0.0147271
21.0366 30.6384 2
21.811 27.7924 0.0218242
23.5775 31.1632 0.0173147
17.5534 35.9582 3.98998
20.0383 35.9143 2
22.2632 36.263 0.0081615
20.5553 40.6531 0.0182851
19.9283 37.7851 0.0133851
17.9367 39.0104 2
14.2381 39.1844 3.98579
17.2786 42.124 0.0164136
14.7394 41.936 2
12.3543 42.2924 3.98412
14.7973 44.2251 0.0164258
12.6702 44.4127 2
10.5396 44.8195 3.98398
12.9331 46.3204 0.0154944
10.9643 46.7541 2
8.89396 47.3348 3.98526
11.4645 48.573 0.0147281
9.51252 49.2582 2
7.42631 50.0483 3.98733
10.2505 51.1001 0.0138423
8.26005 52.0169 2
6.13261 53.0174 3.99215
9.22789 53.9052 0.0119808
7.19222 55.0429 2
5.0241 56.25 4
6.31988 58.3339 2
8.38323 56.9916 0.00698835
7.74927 60.3285 0
13.4348 26.7893 3.98299
11.9206 24.7636 3.98434
13.2024 25.3357 2
11.1282 22.2115 3.98631
12.8087 23.2524 2
13.9446 21.7232 0.0143533
12.2271 20.526 2
10.386 19.3011 3.98871
13.4438 18.8784 0.013079
11.6569 17.5464 2
9.76068 16.1485 3.99332
13.0278 15.8673 0.0105576
11.2199 14.3659 2
9.30607 12.7746 4
12.7825 12.6823 0.00626522
10.9835 10.9835 2
12.7746 9.30605 0
17.745 33.094 3.98535
20.4346 33.3757 2
22.8623 33.7804 0.00851777
15.4356 29.6132 3.98125
15.8555 26.37 2
17.5903 24.0079 0.0145466
14.2826 24.4199 0.0164012
18.2902 30.1471 2
18.9591 27.1696 0.0197517
21.0367 30.6378 0.0195453
14.823 36.0145 3.98855
17.5531 35.9584 2
20.0387 35.9138 0.0105952
12.5402 37.8328 3.98525
17.9366 39.0103 0.0150391
14.2381 39.1845 2
11.8641 40.152 3.98614
14.7393 41.9359 0.0168384
12.3544 42.2925 2
10.1371 42.7912 3.98383
12.6702 44.4126 0.0165097
10.5396 44.8196 2
8.37079 45.3343 3.98481
10.9644 46.754 0.0153599
8.89389 47.335 2
6.71708 48.0118 3.98692
9.51258 49.2579 0.0141712
7.42627 50.0486 2
5.20907 50.9203 3.99164
8.26006 52.0166 0.0123377
6.13263 53.0179 2
3.86727 54.0858 4
7.19219 55.0425 0.00742775
5.02404 56.25 2
6.31991 58.3339 0
12.8867 29.0128 3.98154
11.3485 26.4663 3.98367
13.4346 26.7893 2
10.1861 23.9472 3.98534
11.9203 24.7633 2
13.2027 25.3359 0.014638
9.237 21.1207 3.98813
11.128 22.2111 2
12.8089 23.2527 0.0149276
12.2272 20.5264 0.0132549
10.386 19.3006 2
8.41653 18.0184 3.99309
11.6569 17.5469 0.010917
9.76073 16.1481 2
7.74928 14.6715 4
11.2198 14.3663 0.00647213
9.30602 12.7745 2
10.9835 10.9835 0
14.4205 32.847 3.98452
17.7448 33.0944 2
20.4348 33.3752 0.0127176
15.4355 29.6134 2
15.8559 26.3701 0.0177696
18.2903 30.1467 0.0200593
12.8254 36.2069 3.98658
14.8227 36.0147 2
17.5534 35.9582 0.0100162
12.5401 37.833 2
11.2211 38.3161 3.98514
14.2381 39.1844 0.0142146
11.8641 40.1522 2
9.72045 40.764 3.98538
12.3543 42.2924 0.0158845
10.1371 42.7913 2
7.91911 43.2804 3.98449
10.5396 44.8195 0.0160241
8.37076 45.3344 2
6.12276 45.9154 3.98662
8.89396 47.3348 0.0147387
6.71703 48.0121 2
4.42032 48.7605 3.99102
7.42631 50.0483 0.0126721
5.20908 50.9208 2
2.85457 51.8506 4
6.13261 53.0174 0.00785464
3.86727 54.0858 2
5.0241 56.25 0
12.0248 31.2403 3.98481
10.7593 28.3976 3.98245
12.8866 29.0128 2
9.3999 25.7805 3.98463
11.3482 26.4662 2
13.4348 26.7893 0.0170148
8.22329 23.0077 3.9872
10.1859 23.9469 2
11.9206 24.7636 0.0156611
7.19852 19.9676 3.99268
9.23692 21.1202 2
11.1282 22.2115 0.0136853
10.386 19.3011 0.0112904
8.41656 18.0179 2
6.31992 16.6661 4
9.76068 16.1485 0.00667776
7.74926 14.6714 2
9.30607 12.7746 0
12.0359 34.2858 3.98355
14.4203 32.8472 2
17.745 33.094 0.0146513
15.4356 29.6132 0.0187545
10.7856 36.6119 3.98588
12.8251 36.2071 2
14.823 36.0145 0.0114547
12.5402 37.8328 0.0147456
11.221 38.3163 2
9.31398 38.8295 3.98568
11.8641 40.152 0.0138592
9.72043 40.7641 2
7.52927 41.219 3.98533
10.1371 42.7912 0.0161721
7.91907 43.2806 2
5.63427 43.7765 3.98633
8.37079 45.3343 0.0151901
6.12273 45.9156 2
3.76568 46.5453 3.99045
6.71708 48.0118 0.0130814
4.42032 48.7608 2
1.99014 49.554 4
5.20907 50.9203 0.00835627
2.85451 51.8506 2
3.86727 54.0858 0
10.8877 32.9073 3.98468
10.0707 30.3683 3.98387
12.0246 31.2404 2
8.70718 27.7174 3.98369
10.7592 28.3976 2
12.8867 29.0128 0.0184634
7.34819 24.969 3.98659
9.3997 25.7803 2
11.3485 26.4663 0.0163275
6.11524 21.9914 3.99189
8.22318 23.0072 2
10.1861 23.9472 0.0146612
5.02411 18.75 4
7.19853 19.9671 2
9.237 21.1207 0.0118663
8.41653 18.0184 0.00690504
6.3199 16.6661 2
7.74928 14.6715 0
10.4004 34.9957 3.98404
12.0356 34.286 2
14.4205 32.847 0.0154754
8.98767 36.9863 3.98572
10.7853 36.6121 2
12.8254 36.2069 0.0134162
11.2211 38.3161 0.0148608
9.31387 38.8297 2
7.20857 39.1868 3.98602
9.72045 40.764 0.014615
7.52923 41.2191 2
5.24914 41.6202 3.98646
7.91911 43.2804 0.0155104
5.63422 43.7767 2
3.24308 44.2891 3.99006
6.12276 45.9154 0.0133812
3.76567 46.5457 2
1.27781 47.2057 4
4.42032 48.7605 0.00898473
1.99012 49.554 2
2.85457 51.8506 0
10.0563 33.8737 3.98364
9.36273 32.1438 3.98489
10.8875 32.9073 2
8.05559 29.6841 3.98405
10.0706 30.3683 2
12.0248 31.2403 0.0151857
6.59146 26.9972 3.98588
8.70706 27.7174 2
10.7593 28.3976 0.0175463
5.17021 24.0852 3.99109
7.34806 24.9687 2
9.3999 25.7805 0.0153739
3.86728 20.9142 4
6.11523 21.9909 2
8.22329 23.0077 0.0127959
5.02406 18.75 2
7.19852 19.9676 0.00732257
6.31992 16.6661 0
8.81548 35.2764 3.98503
10.4001 34.9958 2
12.0359 34.2858 0.0164522
6.99369 37.2069 3.98594
8.98744 36.9865 2
10.7856 36.6119 0.0141245
9.31398 38.8295 0.0143213
7.20846 39.1869 2
4.976 39.4712 3.98715
7.52927 41.219 0.0146693
5.24908 41.6204 2
2.85335 42.0078 3.98977
5.63427 43.7765 0.0136719
3.24305 44.2894 2
0.720592 44.8159 4
3.76568 46.5453 0.00954532
1.27778 47.2057 2
1.99014 49.554 0
8.85896 33.6908 3.98473
10.0561 33.8737 2
7.49192 31.6004 3.9851
9.36256 32.1438 2
10.8877 32.9073 0.0153154
5.93624 29.0604 3.98574
8.05547 29.684 2
10.0707 30.3683 0.0161329
4.35754 26.2389 3.99039
6.59136 26.9971 2
8.70718 27.7174 0.0163088
2.85458 23.1494 4
5.17018 24.0848 2
7.34819 24.969 0.0134133
3.86728 20.9142 2
6.11524 21.9914 0.00810882
5.02411 18.75 0
6.94461 35.3035 3.98571
8.81527 35.2765 2
10.4004 34.9957 0.0159596
4.82694 37.3407 3.98684
6.99351 37.207 2
8.98767 36.9863 0.0142836
7.20857 39.1868 0.0139762
4.97591 39.4714 2
2.60095 39.7173 3.99022
5.24914 41.6202 0.0135414
2.85332 42.008 2
0.320823 42.3947 4
3.24308 44.2891 0.00993572
0.720551 44.8159 2
1.27781 47.2057 0
7.1053 33.4552 3.9853
8.85877 33.6908 2
10.0563 33.8737 0.0163649
5.40633 31.1264 3.98639
7.49176 31.6004 2
9.36273 32.1438 0.0151085
3.67901 28.436 3.99002
5.93614 29.0603 2
8.05559 29.6841 0.0159481
1.99015 25.446 4
4.35751 26.2385 2
6.59146 26.9972 0.0141156
2.85453 23.1494 2
5.17021 24.0852 0.00890624
3.86728 20.9142 0
4.84152 35.2495 3.98681
6.94443 35.3036 2
8.81548 35.2764 0.0149659
2.4926 37.4292 3.98973
4.82681 37.3408 2
6.99369 37.2069 0.0140581
4.976 39.4712 0.0128517
2.6009 39.7175 2
0.080333 39.9526 4
2.85335 42.0078 0.0102305
0.320817 42.3947 2
0.720592 44.8159 0
5.0353 33.1855 3.98659
7.10513 33.4552 2
8.85896 33.6908 0.0152673
3.14295 30.6599 3.99011
5.4062 31.1263 2
7.49192 31.6004 0.0149001
1.27793 27.7943 4
3.67897 28.4357 2
5.93624 29.0604 0.0142586
1.99013 25.446 2
4.35754 26.2389 0.00960643
2.85458 23.1494 0
2.54484 35.1569 3.98987
4.84139 35.2496 2
6.94461 35.3035 0.0142876
0 37.5 4
2.49253 37.4293 2
4.82694 37.3407 0.0131582
2.60095 39.7173 0.0097796
0.0802903 39.9526 2
0.320823 42.3947 0
2.76266 32.9013 3.99003
5.03517 33.1854 2
7.1053 33.4552 0.0146959
0.721173 30.1842 4
3.14288 30.6598 2
5.40633 31.1264 0.0136102
1.27779 27.7943 2
3.67901 28.436 0.00998464
1.99015 25.446 0
0.0806499 35.0474 4
2.54477 35.157 2
4.84152 35.2495 0.013194
0 37.5 2
2.4926 37.4292 0.0102683
0.080333 39.9526 0
0.32156 32.6054 4
2.76259 32.9012 2
5.0353 33.1855 0.0134063
0.72056 30.1841 2
3.14295 30.6599 0.00988561
1.27793 27.7943 0
0.0802889 35.0474 2
2.54484 35.1569 0.0101269
0 37.5 0
0.320817 32.6053 2
2.76266 32.9013 0.00996738
0.721173 30.1842 0
0.0806499 35.0474 0
0.32156 32.6054 0
CELLS 1910 17190
8 18 6 25 56 2 0 5 16
8 57 23 6 18 17 4 0 2
8 78 36 9 29 31 11 1 7
8 31 11 1 7 79 37 10 30
8 110 57 18 50 48 17 2 14
8 50 18 56 111 14 2 16 49
8 116 62 22 55 52 20 3 15
8 56 25 67 118 16 5 24 53
8 119 63 23 57 54 21 4 17
8 55 22 63 119 15 3 21 54
8 58 26 68 121 18 6 25 56
8 122 65 26 58 57 23 6 18
8 73 31 7 27 142 79 30 71
8 143 78 29 72 73 31 7 27
8 83 147 76 34 32 74 28 8
8 84 148 78 36 33 75 29 9
8 76 34 8 28 148 84 33 75
8 37 79 150 86 10 30 77 35
8 151 87 36 78 80 38 11 31
8 80 38 11 31 152 88 37 79
8 175 100 42 94 96 44 12 40
8 44 96 176 101 12 40 95 43
8 101 176 98 46 43 95 41 13
8 46 98 178 103 13 41 97 45
8 178 103 45 97 147 83 32 74
8 189 116 55 109 106 52 15 47
8 111 56 118 191 49 16 53 107
8 192 119 57 110 108 54 17 48
8 109 55 119 192 47 15 54 108
8 194 122 58 112 110 57 18 50
8 112 58 121 195 50 18 56 111
8 115 61 19 51 197 124 59 113
8 115 61 125 198 51 19 60 114
8 198 125 62 116 114 60 20 52
8 200 127 64 120 116 62 22 55
8 118 67 132 202 53 24 66 117
8 121 68 133 203 56 25 67 118
8 120 64 128 204 55 22 63 119
8 204 128 65 122 119 63 23 57
8 206 134 68 121 123 69 26 58
8 123 69 26 58 207 131 65 122
8 226 147 74 138 140 76 28 70
8 229 148 75 139 143 78 29 72
8 140 76 28 70 229 148 75 139
8 142 79 30 71 231 150 77 141
8 144 80 31 73 232 152 79 142
8 233 151 78 143 144 80 31 73
8 150 86 35 77 235 154 81 145
8 235 154 81 145 146 82 39 91
8 146 82 39 91 236 155 90 165
8 238 157 83 147 149 85 34 76
8 239 158 84 148 151 87 36 78
8 149 85 34 76 239 158 84 148
8 152 88 37 79 241 160 86 150
8 242 161 87 151 153 89 38 80
8 153 89 38 80 243 162 88 152
8 171 98 41 92 265 178 97 169
8 265 178 97 169 226 147 74 138
8 172 96 40 93 266 176 95 170
8 266 176 95 170 171 98 41 92
8 269 175 94 173 172 96 40 93
8 271 180 99 174 175 100 42 94
8 197 124 59 113 271 180 99 174
8 272 181 100 175 177 102 44 96
8 273 182 101 176 179 104 46 98
8 177 102 44 96 273 182 101 176
8 179 104 46 98 275 184 103 178
8 275 184 103 178 238 157 83 147
8 188 115 51 105 283 197 113 186
8 188 115 198 284 105 51 114 187
8 284 198 116 189 187 114 52 106
8 286 200 120 193 189 116 55 109
8 191 118 202 288 107 53 117 190
8 195 121 203 289 111 56 118 191
8 193 120 204 290 109 55 119 192
8 290 204 122 194 192 119 57 110
8 196 123 58 112 292 207 122 194
8 293 206 121 195 196 123 58 112
8 199 126 61 115 297 211 124 197
8 298 212 127 200 198 125 62 116
8 199 126 212 298 115 61 125 198
8 205 129 64 120 300 214 127 200
8 301 217 130 201 202 132 66 117
8 209 136 168 264 301 217 130 201
8 302 219 132 202 203 133 67 118
8 303 220 133 203 206 134 68 121
8 205 129 215 304 120 64 128 204
8 304 215 131 207 204 128 65 122
8 306 221 134 206 208 135 69 123
8 208 135 69 123 307 218 131 207
8 210 137 167 263 309 223 136 209
8 328 238 147 226 230 149 76 140
8 228 146 91 166 329 236 165 260
8 231 150 77 141 330 235 145 227
8 330 235 145 227 228 146 91 166
8 332 239 148 229 233 151 78 143
8 230 149 76 140 332 239 148 229
8 232 152 79 142 334 241 150 231
8 234 153 80 144 335 243 152 232
8 336 242 151 233 234 153 80 144
8 236 155 90 165 338 245 164 259
8 241 160 86 150 339 246 154 235
8 339 246 154 235 237 156 82 146
8 237 156 82 146 340 247 155 236
8 342 249 157 238 240 159 85 149
8 343 250 158 239 242 161 87 151
8 240 159 85 149 343 250 158 239
8 243 162 88 152 345 252 160 241
8 244 163 253 346 153 89 161 242
8 244 163 89 153 347 254 162 243
8 311 224 261 371 210 137 167 263
8 263 167 262 372 209 136 168 264
8 267 179 98 171 375 275 178 265
8 375 275 178 265 328 238 147 226
8 376 273 176 266 267 179 98 171
8 268 177 96 172 376 273 176 266
8 379 272 175 269 268 177 96 172
8 380 271 174 270 269 175 94 173
8 283 197 113 186 380 271 174 270
8 381 277 180 271 272 181 100 175
8 297 211 124 197 381 277 180 271
8 382 278 181 272 274 183 102 177
8 274 183 102 177 383 279 182 273
8 383 279 182 273 276 185 104 179
8 385 281 184 275 342 249 157 238
8 276 185 104 179 385 281 184 275
8 285 199 115 188 393 297 197 283
8 394 298 200 286 284 198 116 189
8 285 199 298 394 188 115 198 284
8 291 205 120 193 396 300 200 286
8 397 301 201 287 288 202 117 190
8 295 209 264 374 397 301 201 287
8 398 302 202 288 289 203 118 191
8 399 303 203 289 293 206 121 195
8 291 205 304 400 193 120 204 290
8 400 304 207 292 290 204 122 194
8 294 208 123 196 402 307 207 292
8 403 306 206 293 294 208 123 196
8 296 210 263 373 405 309 209 295
8 408 312 213 299 297 211 126 199
8 299 213 313 409 199 126 212 298
8 409 313 214 300 298 212 127 200
8 305 216 129 205 411 315 214 300
8 412 318 217 301 302 219 132 202
8 309 223 136 209 412 318 217 301
8 413 320 219 302 303 220 133 203
8 306 221 321 414 206 134 220 303
8 307 218 131 207 415 316 215 304
8 305 216 316 415 205 129 215 304
8 417 322 221 306 308 222 135 208
8 308 222 135 208 418 319 218 307
8 310 225 137 210 420 325 223 309
8 423 326 224 311 310 225 137 210
8 329 236 165 260 441 338 259 368
8 442 342 238 328 333 240 149 230
8 331 237 146 228 443 340 236 329
8 334 241 150 231 444 339 235 330
8 444 339 235 330 331 237 146 228
8 446 343 239 332 336 242 151 233
8 333 240 149 230 446 343 239 332
8 335 243 152 232 448 345 241 334
8 337 244 153 234 449 347 243 335
8 337 244 346 450 234 153 242 336
8 338 245 164 259 452 349 258 367
8 340 247 155 236 453 350 245 338
8 345 252 160 241 454 351 246 339
8 454 351 246 339 341 248 156 237
8 341 248 156 237 455 352 247 340
8 240 159 251 344 342 249 354 457
8 242 161 253 346 343 250 355 458
8 343 250 355 458 240 159 251 344
8 347 254 162 243 460 357 252 345
8 348 255 358 461 244 163 253 346
8 348 255 163 244 462 359 254 347
8 473 360 257 365 363 256 364 482
8 452 349 258 367 365 257 366 485
8 422 324 369 488 311 224 261 371
8 371 261 370 490 263 167 262 372
8 407 311 371 491 296 210 263 373
8 373 263 372 492 295 209 264 374
8 493 385 275 375 442 342 238 328
8 377 276 179 267 493 385 275 375
8 378 274 177 268 494 383 273 376
8 494 383 273 376 377 276 179 267
8 497 382 272 379 378 274 177 268
8 498 381 271 380 379 272 175 269
8 393 297 197 283 498 381 271 380
8 499 387 277 381 382 278 181 272
8 408 312 211 297 499 387 277 381
8 500 388 278 382 384 280 183 274
8 501 389 279 383 386 282 185 276
8 384 280 183 274 501 389 279 383
8 386 282 185 276 503 391 281 385
8 503 391 281 385 457 354 249 342
8 511 408 299 395 393 297 199 285
8 395 299 409 512 285 199 298 394
8 512 409 300 396 394 298 200 286
8 401 305 205 291 514 411 300 396
8 515 412 301 397 398 302 202 288
8 405 309 209 295 515 412 301 397
8 516 413 302 398 399 303 203 289
8 403 306 414 517 293 206 303 399
8 402 307 207 292 518 415 304 400
8 401 305 415 518 291 205 304 400
8 404 308 208 294 520 418 307 402
8 521 417 306 403 404 308 208 294
8 406 310 210 296 523 420 309 405
8 526 423 311 407 406 310 210 296
8 410 314 213 299 527 424 312 408
8 528 425 315 411 409 313 214 300
8 410 314 425 528 299 213 313 409
8 416 317 216 305 530 427 315 411
8 531 430 318 412 413 320 219 302
8 420 325 223 309 531 430 318 412
8 532 432 320 413 414 321 220 303
8 417 322 433 533 306 221 321 414
8 418 319 218 307 534 428 316 415
8 416 317 428 534 305 216 316 415
8 419 323 434 536 308 222 322 417
8 419 323 222 308 537 431 319 418
8 421 327 225 310 539 438 325 420
8 421 327 439 541 310 225 326 423
8 543 437 324 422 423 326 224 311
8 441 338 259 368 559 452 367 486
8 443 340 236 329 560 453 338 441
8 333 240 344 447 442 342 457 561
8 445 341 237 331 562 455 340 443
8 448 345 241 334 563 454 339 444
8 563 454 339 444 445 341 237 331
8 336 242 346 450 446 343 458 565
8 446 343 458 565 333 240 344 447
8 449 347 243 335 567 460 345 448
8 451 348 244 337 568 462 347 449
8 451 348 461 569 337 244 346 450
8 570 463 349 452 473 360 257 365
8 453 350 245 338 570 463 349 452
8 455 352 247 340 571 464 350 453
8 460 357 252 345 572 465 351 454
8 572 465 351 454 456 353 248 341
8 456 353 248 341 573 466 352 455
8 344 251 356 459 457 354 468 575
8 458 355 469 576 344 251 356 459
8 346 253 358 461 458 355 469 576
8 462 359 254 347 578 471 357 460
8 348 255 359 462 461 358 472 579
8 591 474 360 473 475 361 256 363
8 475 361 256 363 594 477 362 479
8 363 256 364 482 479 362 480 603
8 590 473 365 484 481 363 482 605
8 482 364 257 365 606 483 366 485
8 559 452 367 486 484 365 485 607
8 542 436 487 609 422 324 369 488
8 525 422 488 611 407 311 371 491
8 488 369 489 612 371 261 370 490
8 491 371 490 613 373 263 372 492
8 495 386 276 377 614 503 385 493
8 614 503 385 493 561 457 342 442
8 615 501 383 494 495 386 276 377
8 496 384 274 378 615 501 383 494
8 618 500 382 497 496 384 274 378
8 619 499 381 498 497 382 272 379
8 511 408 297 393 619 499 381 498
8 620 505 387 499 500 388 278 382
8 527 424 312 408 620 505 387 499
8 502 390 506 621 384 280 388 500
8 622 507 389 501 504 392 282 386
8 502 390 280 384 622 507 389 501
8 504 392 282 386 624 509 391 503
8 624 509 391 503 575 468 354 457
8 513 410 299 395 630 527 408 511
8 631 528 411 514 512 409 300 396
8 513 410 528 631 395 299 409 512
8 519 416 305 401 633 530 411 514
8 634 531 412 515 516 413 302 398
8 523 420 309 405 634 531 412 515
8 635 532 413 516 517 414 303 399
8 521 417 533 636 403 306 414 517
8 520 418 307 402 637 534 415 518
8 519 416 534 637 401 305 415 518
8 522 419 308 404 639 537 418 520
8 522 419 536 640 404 308 417 521
8 524 421 310 406 642 539 420 523
8 524 421 541 644 406 310 423 526
8 646 543 422 525 526 423 311 407
8 529 426 314 410 647 544 424 527
8 528 425 545 648 411 315 427 530
8 529 426 545 648 410 314 425 528
8 535 429 317 416 649 546 427 530
8 650 548 430 531 532 432 320 413
8 539 438 325 420 650 548 430 531
8 533 433 550 651 414 321 432 532
8 536 434 551 652 417 322 433 533
8 537 431 319 418 653 547 428 534
8 535 429 547 653 416 317 428 534
8 538 435 552 654 419 323 434 536
8 538 435 323 419 655 549 431 537
8 540 440 327 421 657 556 438 539
8 540 440 557 659 421 327 439 541
8 541 439 555 660 423 326 437 543
8 661 554 436 542 543 437 324 422
8 676 570 452 559 590 473 365 484
8 560 453 338 441 676 570 452 559
8 562 455 340 443 677 571 453 560
8 447 344 459 566 561 457 575 678
8 564 456 341 445 679 573 455 562
8 567 460 345 448 680 572 454 563
8 680 572 454 563 564 456 341 445
8 565 458 576 682 447 344 459 566
8 450 346 461 569 565 458 576 682
8 568 462 347 449 684 578 460 567
8 451 348 462 568 569 461 579 685
8 686 580 463 570 591 474 360 473
8 571 464 350 453 686 580 463 570
8 573 466 352 455 687 581 464 571
8 572 465 582 688 460 357 471 578
8 574 467 582 688 456 353 465 572
8 574 467 353 456 689 583 466 573
8 459 356 470 577 575 468 585 691
8 576 469 586 692 459 356 470 577
8 461 358 472 579 576 469 586 692
8 462 359 471 578 579 472 588 694
8 704 591 473 590 593 475 363 481
8 595 476 592 705 475 361 474 591
8 593 475 363 481 707 594 479 602
8 594 477 362 479 709 598 478 600
8 595 476 361 475 711 597 477 594
8 479 362 480 603 600 478 601 720
8 481 363 482 605 602 479 603 722
8 603 480 364 482 723 604 483 606
8 605 482 365 484 724 606 485 607
8 656 553 608 726 542 436 487 609
8 645 542 609 728 525 422 488 611
8 609 487 610 729 488 369 489 612
8 611 488 612 730 491 371 490 613
8 616 504 386 495 731 624 503 614
8 731 624 503 614 678 575 457 561
8 732 622 501 615 616 504 386 495
8 617 502 384 496 732 622 501 615
8 617 502 621 735 496 384 500 618
8 736 620 499 619 618 500 382 497
8 630 527 408 511 736 620 499 619
8 621 506 626 737 500 388 505 620
8 647 544 424 527 737 626 505 620
8 623 508 627 738 502 390 506 621
8 623 508 390 502 739 628 507 622
8 625 510 628 739 504 392 507 622
8 740 629 509 624 691 585 468 575
8 625 510 392 504 740 629 509 624
8 632 529 410 513 744 647 527 630
8 631 528 648 745 514 411 530 633
8 632 529 648 745 513 410 528 631
8 638 535 416 519 746 649 530 633
8 747 650 531 634 635 532 413 516
8 642 539 420 523 747 650 531 634
8 636 533 651 748 517 414 532 635
8 640 536 652 749 521 417 533 636
8 639 537 418 520 750 653 534 637
8 638 535 653 750 519 416 534 637
8 641 538 419 522 751 655 537 639
8 641 538 654 752 522 419 536 640
8 643 540 421 524 753 657 539 642
8 643 540 659 755 524 421 541 644
8 644 541 660 757 526 423 543 646
8 758 661 542 645 646 543 422 525
8 529 426 544 647 648 545 662 759
8 530 427 545 648 649 546 663 760
8 535 429 546 649 653 547 664 761
8 762 666 548 650 651 550 432 532
8 657 556 438 539 762 666 548 650
8 652 551 668 763 533 433 550 651
8 654 552 669 764 536 434 551 652
8 655 549 431 537 765 665 547 653
8 538 435 549 655 654 552 667 766
8 661 554 671 768 542 436 553 656
8 658 558 440 540 769 674 556 657
8 658 558 675 770 540 440 557 659
8 659 557 673 771 541 439 555 660
8 660 555 672 772 543 437 554 661
8 788 686 570 676 704 591 473 590
8 677 571 453 560 788 686 570 676
8 679 573 455 562 789 687 571 677
8 566 459 577 683 678 575 691 790
8 681 574 456 564 791 689 573 679
8 680 572 688 792 567 460 578 684
8 681 574 688 792 564 456 572 680
8 682 576 692 794 566 459 577 683
8 569 461 579 685 682 576 692 794
8 568 462 578 684 685 579 694 796
8 687 581 464 571 798 696 580 686
8 798 696 580 686 705 592 474 591
8 689 583 466 573 799 697 581 687
8 688 582 698 800 578 471 588 694
8 690 584 698 800 574 467 582 688
8 690 584 467 574 801 699 583 689
8 693 587 701 803 577 470 585 691
8 693 587 470 577 804 702 586 692
8 695 589 702 804 579 472 586 692
8 695 589 472 579 805 703 588 694
8 708 595 705 813 593 475 591 704
8 710 596 706 814 595 476 592 705
8 707 594 479 602 816 709 600 719
8 708 595 475 593 817 711 594 707
8 709 598 478 600 819 715 599 717
8 711 597 477 594 820 714 598 709
8 710 596 476 595 822 713 597 711
8 600 478 601 720 717 599 718 832
8 602 479 603 722 719 600 720 834
8 720 601 480 603 835 721 604 723
8 722 603 482 605 836 723 606 724
8 767 670 725 839 656 553 608 726
8 756 656 726 841 645 542 609 728
8 726 608 727 842 609 487 610 729
8 728 609 729 843 611 488 612 730
8 844 740 624 731 790 691 575 678
8 733 625 504 616 844 740 624 731
8 734 623 502 617 845 739 622 732
8 733 625 739 845 616 504 622 732
8 734 623 738 846 617 502 621 735
8 735 621 737 847 618 500 620 736
8 744 647 527 630 847 737 620 736
8 621 506 627 738 737 626 741 848
8 647 544 626 737 759 662 741 848
8 623 508 628 739 738 627 742 849
8 740 629 585 691 850 743 700 802
8 625 510 629 740 739 628 743 850
8 632 529 647 744 745 648 759 854
8 633 530 648 745 746 649 760 855
8 638 535 649 746 750 653 761 856
8 857 762 650 747 748 651 532 635
8 753 657 539 642 857 762 650 747
8 749 652 763 858 636 533 651 748
8 752 654 764 859 640 536 652 749
8 751 655 537 639 860 765 653 750
8 641 538 655 751 752 654 766 861
8 754 658 540 643 862 769 657 753
8 754 658 770 863 643 540 659 755
8 755 659 771 864 644 541 660 757
8 758 661 768 866 645 542 656 756
8 757 660 772 867 646 543 661 758
8 759 662 773 868 648 545 663 760
8 649 546 663 760 761 664 774 871
8 765 665 547 653 872 775 664 761
8 873 777 666 762 763 668 550 651
8 769 674 556 657 873 777 666 762
8 764 669 779 874 652 551 668 763
8 654 552 667 766 764 669 778 875
8 655 549 665 765 766 667 776 876
8 768 671 782 877 656 553 670 767
8 772 672 783 878 661 554 671 768
8 658 558 674 769 770 675 786 879
8 659 557 675 770 771 673 785 881
8 882 784 672 772 771 673 555 660
8 789 687 571 677 897 798 686 788
8 897 798 686 788 813 705 591 704
8 791 689 573 679 898 799 687 789
8 795 693 803 900 683 577 691 790
8 793 690 574 681 901 801 689 791
8 792 688 800 902 684 578 694 796
8 793 690 800 902 681 574 688 792
8 795 693 577 683 903 804 692 794
8 797 695 804 903 685 579 692 794
8 797 695 579 685 904 805 694 796
8 905 806 697 799 798 696 581 687
8 814 706 806 905 705 592 696 798
8 689 583 697 799 801 699 808 907
8 800 698 809 908 694 588 703 805
8 690 584 699 801 800 698 809 908
8 803 701 810 909 691 585 700 802
8 693 587 702 804 803 701 811 910
8 695 589 703 805 804 702 812 911
8 818 710 814 919 708 595 705 813
8 821 712 815 920 710 596 706 814
8 816 709 600 719 922 819 717 831
8 817 711 594 707 923 820 709 816
8 818 710 595 708 924 822 711 817
8 819 715 599 717 926 827 716 829
8 820 714 598 709 927 826 715 819
8 929 825 713 822 820 714 597 711
8 821 712 596 710 930 824 713 822
8 717 599 718 832 829 716 830 942
8 719 600 720 834 831 717 832 944
8 832 718 601 720 945 833 721 835
8 834 720 603 722 946 835 723 836
8 869 780 838 950 767 670 725 839
8 865 767 839 952 756 656 726 841
8 839 725 840 953 726 608 727 842
8 841 726 842 954 728 609 729 843
8 844 740 691 790 955 850 802 899
8 733 625 740 844 845 739 850 955
8 734 623 739 845 846 738 849 956
8 735 621 738 846 847 737 848 957
8 744 647 737 847 854 759 848 957
8 738 627 742 849 848 741 851 958
8 848 741 851 958 759 662 773 868
8 850 743 700 802 959 852 807 906
8 849 742 628 739 959 852 743 850
8 854 759 868 965 745 648 760 855
8 746 649 760 855 856 761 871 966
8 860 765 653 750 967 872 761 856
8 968 873 762 857 858 763 651 748
8 862 769 657 753 968 873 762 857
8 859 764 874 969 749 652 763 858
8 752 654 766 861 859 764 875 970
8 751 655 765 860 861 766 876 971
8 754 658 769 862 863 770 879 972
8 755 659 770 863 864 771 881 974
8 976 882 772 867 864 771 660 757
8 866 768 877 977 756 656 767 865
8 867 772 878 978 758 661 768 866
8 760 663 773 868 871 774 883 980
8 870 781 837 948 982 890 780 869
8 982 890 780 869 877 782 670 767
8 761 664 774 871 872 775 884 984
8 876 776 665 765 985 885 775 872
8 873 777 668 763 986 887 779 874
8 769 674 777 873 879 786 887 986
8 764 669 778 875 874 779 888 987
8 766 667 776 876 875 778 886 988
8 878 783 892 989 768 671 782 877
8 878 783 672 772 990 893 784 882
8 880 787 675 770 991 896 786 879
8 880 787 895 992 770 675 785 881
8 881 785 894 993 771 673 784 882
8 1006 905 799 898 897 798 687 789
8 919 814 905 1006 813 705 798 897
8 791 689 799 898 901 801 907 1007
8 900 803 909 1009 790 691 802 899
8 795 693 804 903 900 803 910 1010
8 902 800 908 1011 796 694 805 904
8 793 690 801 901 902 800 908 1011
8 797 695 805 904 903 804 911 1012
8 799 697 806 905 907 808 912 1013
8 920 815 912 1013 814 706 806 905
8 802 700 810 909 906 807 913 1014
8 801 699 808 907 908 809 914 1015
8 805 703 809 908 911 812 915 1016
8 803 701 811 910 909 810 916 1017
8 911 812 917 1018 804 702 811 910
8 925 821 920 1030 818 710 814 919
8 928 823 921 1031 821 712 815 920
8 922 819 717 831 1033 926 829 941
8 923 820 709 816 1034 927 819 922
8 1035 929 822 924 923 820 711 817
8 925 821 710 818 1036 930 822 924
8 1038 933 825 929 927 826 714 820
8 926 827 716 829 1039 935 828 939
8 927 826 715 819 1040 934 827 926
8 928 823 712 821 1041 931 824 930
8 1042 932 824 930 929 825 713 822
8 829 716 830 942 939 828 940 1058
8 831 717 832 944 941 829 942 1060
8 942 830 718 832 1061 943 833 945
8 944 832 720 834 1062 945 835 946
8 981 889 947 1064 870 781 837 948
8 948 837 949 1067 869 780 838 950
8 975 869 950 1069 865 767 839 952
8 950 838 951 1070 839 725 840 953
8 952 839 953 1071 841 726 842 954
8 955 850 802 899 1072 959 906 1008
8 956 849 739 845 1072 959 850 955
8 846 738 849 956 957 848 958 1073
8 957 848 958 1073 854 759 868 965
8 849 742 852 959 958 851 961 1076
8 960 853 961 1076 906 807 852 959
8 958 851 961 1076 868 773 883 980
8 960 853 807 906 1077 963 913 1014
8 855 760 868 965 966 871 980 1085
8 856 761 871 966 967 872 984 1086
8 971 876 765 860 1087 985 872 967
8 968 873 763 858 1088 986 874 969
8 862 769 873 968 972 879 986 1088
8 859 764 875 970 969 874 987 1089
8 861 766 876 971 970 875 988 1090
8 973 880 770 863 1091 991 879 972
8 973 880 992 1092 863 770 881 974
8 974 881 993 1093 864 771 882 976
8 979 870 948 1066 1094 982 869 975
8 1094 982 869 975 977 877 767 865
8 978 878 772 867 1095 990 882 976
8 978 878 989 1096 866 768 877 977
8 871 774 883 980 984 884 994 1099
8 983 891 999 1100 870 781 889 981
8 1101 1000 890 982 989 892 782 877
8 983 891 781 870 1101 1000 890 982
8 872 775 884 984 985 885 995 1103
8 876 776 885 985 988 886 996 1104
8 986 887 779 874 1105 998 888 987
8 879 786 887 986 991 896 998 1105
8 875 778 886 988 987 888 997 1106
8 990 893 1002 1107 878 783 892 989
8 1108 1003 893 990 993 894 784 882
8 880 787 896 991 992 895 1005 1109
8 993 894 785 881 1110 1004 895 992
8 898 799 905 1006 1007 907 1013 1120
8 1030 920 1013 1120 919 814 905 1006
8 901 801 907 1007 1011 908 1015 1121
8 899 802 909 1009 1008 906 1014 1122
8 900 803 910 1010 1009 909 1017 1123
8 1012 911 1018 1124 903 804 910 1010
8 904 805 908 1011 1012 911 1016 1125
8 1013 912 1020 1127 907 808 914 1015
8 1031 921 1020 1127 920 815 912 1013
8 1019 918 962 1075 1128 1021 913 1014
8 1128 1021 913 1014 1017 916 810 909
8 1015 914 1022 1129 908 809 915 1016
8 1016 915 1023 1130 911 812 917 1018
8 1018 917 1024 1131 910 811 916 1017
8 1037 928 1031 1148 925 821 920 1030
8 928 823 931 1041 1031 921 1032 1149
8 1033 926 829 941 1151 1039 939 1057
8 1034 927 819 922 1152 1040 926 1033
8 1153 1038 929 1035 1034 927 820 923
8 1154 1042 930 1036 1035 929 822 924
8 1037 928 821 925 1155 1041 930 1036
8 1039 935 828 939 1156 1047 938 1055
8 1157 1043 932 1042 1038 933 825 929
8 1038 933 826 927 1158 1045 934 1040
8 1040 934 827 926 1159 1046 935 1039
8 930 824 932 1042 1041 931 1044 1160
8 1051 936 1048 1165 1175 1052 937 1053
8 1156 1047 938 1055 1053 937 1054 1178
8 939 828 940 1058 1055 938 1056 1181
8 941 829 942 1060 1057 939 1058 1183
8 942 830 943 1061 1058 940 1059 1184
8 1060 942 832 944 1185 1061 945 1062
8 1082 964 1063 1188 981 889 947 1064
8 1097 981 1064 1190 979 870 948 1066
8 1064 947 1065 1191 948 837 949 1067
8 1066 948 1067 1193 975 869 950 1069
8 1067 949 1068 1194 950 838 951 1070
8 1069 950 1070 1195 952 839 953 1071
8 956 849 959 1072 1073 958 1076 1197
8 1074 960 1076 1197 1008 906 959 1072
8 1073 958 1076 1197 965 868 980 1085
8 1074 960 906 1008 1198 1077 1014 1122
8 1133 1026 1079 1199 1019 918 962 1075
8 1077 963 913 1014 1200 1080 962 1075
8 960 853 963 1077 1076 961 1078 1201
8 980 883 961 1076 1099 994 1078 1201
8 1210 1083 964 1082 1100 999 889 981
8 966 871 980 1085 1086 984 1099 1215
8 967 872 984 1086 1087 985 1103 1216
8 971 876 985 1087 1090 988 1104 1217
8 1088 986 874 969 1218 1105 987 1089
8 972 879 986 1088 1091 991 1105 1218
8 970 875 988 1090 1089 987 1106 1219
8 973 880 991 1091 1092 992 1109 1220
8 1093 993 881 974 1221 1110 992 1092
8 1222 1108 990 1095 1093 993 882 976
8 1223 1101 982 1094 1096 989 877 977
8 1098 983 870 979 1223 1101 982 1094
8 1095 990 1107 1224 978 878 989 1096
8 1098 983 1100 1225 979 870 981 1097
8 984 884 994 1099 1103 995 1111 1227
8 1102 1001 1115 1228 983 891 999 1100
8 1101 1000 892 989 1229 1116 1002 1107
8 1102 1001 891 983 1229 1116 1000 1101
8 985 885 995 1103 1104 996 1112 1230
8 988 886 996 1104 1106 997 1113 1231
8 1105 998 888 987 1232 1114 997 1106
8 991 896 998 1105 1109 1005 1114 1232
8 1108 1003 1117 1233 990 893 1002 1107
8 1108 1003 894 993 1233 1117 1004 1110
8 992 895 1005 1109 1110 1004 1118 1234
8 1120 1013 1127 1244 1007 907 1015 1121
8 1148 1031 1127 1244 1030 920 1013 1120
8 1121 1015 1129 1245 1011 908 1016 1125
8 1126 1019 1075 1196 1246 1128 1014 1122
8 1246 1128 1014 1122 1123 1017 909 1009
8 1124 1018 1131 1247 1010 910 1017 1123
8 1125 1016 1130 1248 1012 911 1018 1124
8 1127 1020 1137 1254 1015 914 1022 1129
8 1031 921 1032 1149 1127 1020 1137 1254
8 1134 1027 918 1019 1257 1140 1021 1128
8 1257 1140 1021 1128 1131 1024 916 1017
8 1129 1022 1141 1258 1016 915 1023 1130
8 1130 1023 1142 1259 1018 917 1024 1131
8 1261 1144 1025 1132 1133 1026 1079 1199
8 1255 1138 1025 1132 1135 1028 1144 1261
8 1133 1026 918 1019 1262 1145 1027 1134
8 1136 1029 1139 1256 1263 1146 1028 1135
8 1037 928 1041 1155 1148 1031 1149 1275
8 1041 931 1044 1160 1149 1032 1150 1276
8 1151 1039 939 1057 1278 1156 1055 1180
8 1152 1040 926 1033 1279 1159 1039 1151
8 1153 1038 927 1034 1280 1158 1040 1152
8 1281 1157 1042 1154 1153 1038 929 1035
8 1036 930 1042 1154 1155 1041 1160 1282
8 1283 1164 1046 1159 1156 1047 935 1039
8 1165 1048 1164 1283 1053 937 1047 1156
8 1157 1043 933 1038 1284 1161 1045 1158
8 1157 1043 1161 1284 1042 932 1044 1160
8 1040 934 1046 1159 1158 1045 1163 1285
8 1166 1049 1167 1292 1051 936 1048 1165
8 1166 1049 936 1051 1293 1168 1050 1172
8 1051 936 1052 1175 1172 1050 1173 1306
8 1174 1051 1165 1290 1308 1175 1053 1177
8 1053 937 1054 1178 1175 1052 1176 1309
8 1278 1156 1055 1180 1177 1053 1178 1311
8 1055 938 1056 1181 1178 1054 1179 1312
8 1057 939 1058 1183 1180 1055 1181 1314
8 1058 940 1059 1184 1181 1056 1182 1315
8 1060 942 1061 1185 1183 1058 1184 1316
8 1208 1081 1187 1321 1082 964 1063 1188
8 1209 1082 1188 1322 1097 981 1064 1190
8 1188 1063 1189 1323 1064 947 1065 1191
8 1190 1064 1191 1325 1066 948 1067 1193
8 1191 1065 1192 1326 1067 949 1068 1194
8 1067 1193 1069 950 1194 1327 1195 1070
8 1250 1133 1199 1330 1126 1019 1075 1196
8 1198 1077 1014 1122 1331 1200 1075 1196
8 1074 960 1077 1198 1197 1076 1201 1332
8 1085 980 1076 1197 1215 1099 1201 1332
8 1199 1079 1203 1333 1075 962 1080 1200
8 1132 1025 1119 1243 1199 1079 1203 1333
8 1201 1078 963 1077 1334 1202 1080 1200
8 1099 994 1078 1201 1227 1111 1202 1334
8 1343 1207 1081 1208 1210 1083 964 1082
8 1214 1084 1186 1319 1343 1207 1081 1208
8 1345 1210 1082 1209 1225 1100 981 1097
8 1346 1211 1083 1210 1228 1115 999 1100
8 1086 984 1099 1215 1216 1103 1227 1352
8 1087 985 1103 1216 1217 1104 1230 1353
8 1090 988 1104 1217 1219 1106 1231 1354
8 1218 1105 987 1089 1355 1232 1106 1219
8 1091 991 1105 1218 1220 1109 1232 1355
8 1092 992 1109 1220 1221 1110 1234 1356
8 1222 1108 1233 1357 1095 990 1107 1224
8 1222 1108 993 1093 1357 1233 1110 1221
8 1223 1101 989 1096 1358 1229 1107 1224
8 1226 1102 983 1098 1358 1229 1101 1223
8 1226 1102 1228 1359 1098 983 1100 1225
8 1103 995 1111 1227 1230 1112 1235 1360
8 1107 1002 1117 1233 1229 1116 1240 1362
8 1102 1001 1116 1229 1228 1115 1240 1362
8 1104 996 1112 1230 1231 1113 1236 1363
8 1364 1237 1114 1232 1231 1113 997 1106
8 1109 1005 1114 1232 1234 1118 1238 1365
8 1110 1004 1118 1234 1233 1117 1241 1366
8 1242 1374 1255 1138 1119 1243 1132 1025
8 1244 1127 1254 1376 1121 1015 1129 1245
8 1148 1031 1149 1275 1244 1127 1254 1376
8 1245 1129 1258 1377 1125 1016 1130 1248
8 1251 1134 1019 1126 1378 1257 1128 1246
8 1378 1257 1128 1246 1247 1131 1017 1123
8 1248 1130 1259 1379 1124 1018 1131 1247
8 1261 1381 1250 1133 1132 1249 1330 1199
8 1255 1380 1252 1135 1132 1249 1381 1261
8 1250 1133 1019 1126 1382 1262 1134 1251
8 1253 1136 1256 1385 1384 1263 1135 1252
8 1254 1137 1265 1387 1129 1022 1141 1258
8 1149 1032 1150 1276 1254 1137 1265 1387
8 1028 1135 1255 1138 1139 1256 1388 1266
8 1136 1029 1147 1264 1256 1139 1267 1389
8 1390 1268 1140 1257 1259 1142 1024 1131
8 1260 1143 1027 1134 1390 1268 1140 1257
8 1258 1141 1269 1391 1130 1023 1142 1259
8 1262 1145 1027 1134 1393 1271 1143 1260
8 1261 1144 1026 1133 1394 1272 1145 1262
8 1135 1028 1144 1261 1263 1146 1272 1394
8 1136 1029 1146 1263 1264 1147 1273 1395
8 1155 1041 1160 1282 1275 1149 1276 1405
8 1276 1150 1044 1160 1406 1277 1162 1286
8 1408 1283 1159 1279 1278 1156 1039 1151
8 1290 1165 1283 1408 1177 1053 1156 1278
8 1152 1040 1159 1279 1280 1158 1285 1409
8 1281 1157 1038 1153 1410 1284 1158 1280
8 1281 1157 1284 1410 1154 1042 1160 1282
8 1159 1046 1164 1283 1285 1163 1289 1412
8 1292 1167 1289 1412 1165 1048 1164 1283
8 1158 1045 1163 1285 1284 1161 1288 1413
8 1284 1161 1288 1413 1160 1044 1162 1286
8 1291 1166 1292 1418 1174 1051 1165 1290
8 1291 1166 1051 1174 1419 1293 1172 1305
8 1294 1169 1296 1421 1166 1049 1167 1292
8 1293 1168 1050 1172 1422 1295 1171 1303
8 1294 1169 1049 1166 1423 1297 1168 1293
8 1422 1295 1171 1303 1301 1170 1302 1435
8 1172 1050 1173 1306 1303 1171 1304 1438
8 1174 1051 1175 1308 1305 1172 1306 1440
8 1175 1052 1176 1309 1306 1173 1307 1441
8 1177 1053 1178 1311 1308 1175 1309 1443
8 1178 1054 1179 1312 1309 1176 1310 1444
8 1180 1055 1181 1314 1311 1178 1312 1446
8 1056 1181 1312 1179 1182 1315 1447 1313
8 1183 1058 1184 1316 1314 1181 1315 1448
8 1319 1186 1084 1214 1451 1317 1213 1350
8 1319 1186 1318 1453 1208 1081 1187 1321
8 1321 1187 1320 1456 1188 1063 1189 1323
8 1344 1208 1321 1457 1209 1082 1188 1322
8 1322 1188 1323 1458 1190 1064 1191 1325
8 1323 1189 1324 1459 1191 1065 1192 1326
8 1191 1325 1193 1067 1326 1460 1327 1194
8 1242 1374 1243 1119 1328 1462 1335 1204
8 1330 1199 1333 1465 1196 1075 1200 1331
8 1132 1249 1330 1199 1243 1375 1465 1333
8 1332 1201 1077 1198 1466 1334 1200 1331
8 1215 1099 1201 1332 1352 1227 1334 1466
8 1119 1243 1333 1203 1204 1335 1470 1338
8 1333 1203 1338 1470 1200 1080 1202 1334
8 1227 1111 1202 1334 1360 1235 1338 1470
8 1328 1462 1335 1204 1205 1336 1471 1339
8 1337 1206 1340 1472 1464 1329 1205 1336
8 1346 1211 1342 1479 1210 1083 1207 1343
8 1346 1211 1115 1228 1479 1342 1239 1361
8 1348 1212 1084 1214 1479 1342 1207 1343
8 1480 1343 1208 1344 1345 1210 1082 1209
8 1351 1214 1319 1454 1480 1343 1208 1344
8 1481 1346 1210 1345 1359 1228 1100 1225
8 1348 1212 1347 1483 1214 1084 1213 1350
8 1216 1103 1227 1352 1353 1230 1360 1488
8 1217 1104 1230 1353 1354 1231 1363 1489
8 1490 1364 1232 1355 1354 1231 1106 1219
8 1220 1109 1232 1355 1356 1234 1365 1491
8 1221 1110 1234 1356 1357 1233 1366 1492
8 1224 1107 1233 1357 1358 1229 1362 1493
8 1226 1102 1229 1358 1359 1228 1362 1493
8 1230 1112 1235 1360 1363 1236 1367 1496
8 1361 1239 1115 1228 1497 1371 1240 1362
8 1366 1241 1372 1498 1233 1117 1240 1362
8 1364 1237 1113 1231 1499 1368 1236 1363
8 1364 1237 1368 1499 1232 1114 1238 1365
8 1234 1118 1238 1365 1366 1241 1369 1500
8 1507 1373 1242 1374 1388 1266 1138 1255
8 1508 1374 1243 1375 1380 1255 1132 1249
8 1376 1254 1387 1509 1245 1129 1258 1377
8 1275 1149 1276 1405 1376 1254 1387 1509
8 1377 1258 1391 1510 1248 1130 1259 1379
8 1511 1390 1257 1378 1379 1259 1131 1247
8 1383 1260 1134 1251 1511 1390 1257 1378
8 1252 1135 1256 1385 1380 1255 1388 1512
8 1261 1381 1513 1394 1133 1250 1382 1262
8 1135 1252 1384 1263 1261 1381 1513 1394
8 1382 1262 1134 1251 1514 1393 1260 1383
8 1253 1136 1263 1384 1386 1264 1395 1516
8 1253 1136 1264 1386 1385 1256 1389 1517
8 1387 1265 1397 1519 1258 1141 1269 1391
8 1276 1150 1277 1406 1387 1265 1397 1519
8 1256 1139 1267 1389 1388 1266 1398 1520
8 1264 1147 1274 1396 1389 1267 1399 1521
8 1392 1270 1143 1260 1522 1400 1268 1390
8 1390 1268 1142 1259 1522 1400 1269 1391
8 1392 1270 1401 1523 1260 1143 1271 1393
8 1272 1394 1524 1402 1145 1262 1393 1271
8 1395 1273 1146 1263 1524 1402 1272 1394
8 1273 1395 1264 1147 1403 1526 1396 1274
8 1405 1276 1160 1282 1534 1406 1286 1411
8 1414 1287 1407 1535 1286 1162 1277 1406
8 1279 1159 1283 1408 1409 1285 1412 1537
8 1418 1292 1412 1537 1290 1165 1283 1408
8 1280 1158 1285 1409 1410 1284 1413 1538
8 1410 1284 1413 1538 1282 1160 1286 1411
8 1285 1163 1289 1412 1413 1288 1417 1540
8 1421 1296 1417 1540 1292 1167 1289 1412
8 1414 1287 1162 1286 1541 1416 1288 1413
8 1420 1294 1421 1545 1291 1166 1292 1418
8 1419 1293 1172 1305 1546 1422 1303 1437
8 1420 1294 1166 1291 1547 1423 1293 1419
8 1294 1169 1297 1423 1421 1296 1425 1548
8 1423 1297 1168 1293 1549 1424 1295 1422
8 1301 1170 1298 1427 1422 1295 1424 1549
8 1432 1300 1428 1554 1301 1170 1298 1427
8 1431 1299 1428 1554 1560 1430 1300 1432
8 1563 1433 1300 1432 1435 1302 1170 1301
8 1546 1422 1303 1437 1434 1301 1435 1565
8 1303 1171 1304 1438 1435 1302 1436 1566
8 1305 1172 1306 1440 1437 1303 1438 1568
8 1306 1173 1307 1441 1438 1304 1439 1569
8 1308 1175 1309 1443 1440 1306 1441 1571
8 1309 1176 1310 1444 1441 1307 1442 1572
8 1311 1178 1312 1446 1443 1309 1444 1574
8 1179 1312 1444 1310 1313 1447 1575 1445
8 1314 1181 1315 1448 1446 1312 1447 1576
8 1350 1213 1349 1486 1451 1317 1449 1579
8 1451 1317 1450 1581 1319 1186 1318 1453
8 1454 1319 1214 1351 1582 1451 1350 1487
8 1453 1318 1452 1584 1321 1187 1320 1456
8 1454 1319 1453 1585 1344 1208 1321 1457
8 1456 1320 1455 1586 1323 1189 1324 1459
8 1457 1321 1456 1587 1322 1188 1323 1458
8 1458 1323 1459 1588 1325 1191 1326 1460
8 1205 1336 1464 1329 1328 1462 1590 1461
8 1507 1373 1461 1590 1374 1242 1328 1462
8 1508 1374 1462 1591 1375 1243 1335 1467
8 1337 1206 1329 1464 1473 1341 1463 1594
8 1375 1243 1335 1467 1465 1333 1470 1596
8 1465 1333 1470 1596 1331 1200 1334 1466
8 1352 1227 1334 1466 1488 1360 1470 1596
8 1591 1462 1336 1468 1467 1335 1471 1597
8 1469 1337 1472 1598 1595 1464 1336 1468
8 1471 1339 1474 1600 1335 1204 1338 1470
8 1600 1474 1367 1496 1470 1338 1235 1360
8 1336 1205 1340 1472 1471 1339 1475 1601
8 1337 1206 1341 1473 1472 1340 1476 1602
8 1495 1370 1478 1609 1361 1239 1342 1479
8 1348 1212 1342 1479 1483 1347 1478 1609
8 1481 1346 1479 1610 1345 1210 1343 1480
8 1481 1346 1228 1359 1610 1479 1361 1494
8 1484 1348 1214 1351 1610 1479 1343 1480
8 1483 1347 1482 1612 1350 1213 1349 1486
8 1484 1348 1483 1613 1351 1214 1350 1487
8 1353 1230 1360 1488 1489 1363 1496 1616
8 1490 1364 1231 1354 1617 1499 1363 1489
8 1490 1364 1499 1617 1355 1232 1365 1491
8 1356 1234 1365 1491 1492 1366 1500 1619
8 1492 1366 1498 1620 1357 1233 1362 1493
8 1494 1361 1228 1359 1621 1497 1362 1493
8 1495 1370 1239 1361 1622 1504 1371 1497
8 1363 1236 1367 1496 1499 1368 1501 1623
8 1497 1371 1240 1362 1624 1505 1372 1498
8 1625 1503 1372 1498 1500 1369 1241 1366
8 1365 1238 1368 1499 1500 1369 1502 1626
8 1520 1398 1506 1633 1388 1266 1373 1507
8 1634 1507 1374 1508 1512 1388 1255 1380
8 1509 1387 1519 1635 1377 1258 1391 1510
8 1405 1276 1406 1534 1509 1387 1519 1635
8 1515 1392 1260 1383 1636 1522 1390 1511
8 1511 1390 1259 1379 1636 1522 1391 1510
8 1385 1256 1389 1517 1512 1388 1520 1637
8 1513 1394 1262 1382 1638 1524 1393 1514
8 1395 1516 1638 1524 1263 1384 1513 1394
8 1515 1392 1523 1639 1383 1260 1393 1514
8 1516 1395 1526 1640 1386 1264 1396 1518
8 1386 1264 1396 1518 1517 1389 1521 1641
8 1519 1397 1527 1643 1391 1269 1400 1522
8 1535 1407 1527 1643 1406 1277 1397 1519
8 1389 1267 1399 1521 1520 1398 1528 1644
8 1645 1529 1399 1521 1525 1404 1274 1396
8 1392 1270 1400 1522 1523 1401 1531 1646
8 1524 1402 1271 1393 1648 1532 1401 1523
8 1403 1526 1648 1532 1273 1395 1524 1402
8 1525 1404 1274 1396 1649 1533 1403 1526
8 1539 1414 1535 1657 1411 1286 1406 1534
8 1542 1415 1536 1658 1414 1287 1407 1535
8 1409 1285 1412 1537 1538 1413 1540 1660
8 1545 1421 1540 1660 1418 1292 1412 1537
8 1539 1414 1286 1411 1661 1541 1413 1538
8 1540 1417 1544 1663 1413 1288 1416 1541
8 1421 1296 1425 1548 1540 1417 1544 1663
8 1542 1415 1287 1414 1664 1543 1416 1541
8 1420 1294 1423 1547 1545 1421 1548 1666
8 1547 1423 1293 1419 1667 1549 1422 1546
8 1434 1301 1427 1553 1546 1422 1549 1667
8 1423 1297 1424 1549 1548 1425 1550 1668
8 1551 1426 1550 1668 1427 1298 1424 1549
8 1551 1426 1298 1427 1671 1552 1428 1554
8 1562 1432 1554 1674 1434 1301 1427 1553
8 1431 1299 1429 1558 1554 1428 1555 1675
8 1431 1299 1430 1560 1558 1429 1557 1680
8 1560 1430 1300 1432 1683 1559 1433 1563
8 1561 1431 1554 1674 1684 1560 1432 1562
8 1685 1563 1432 1562 1565 1435 1301 1434
8 1435 1302 1436 1566 1563 1433 1564 1686
8 1437 1303 1438 1568 1565 1435 1566 1688
8 1438 1304 1439 1569 1566 1436 1567 1689
8 1440 1306 1441 1571 1568 1438 1569 1691
8 1441 1307 1442 1572 1569 1439 1570 1692
8 1443 1309 1444 1574 1571 1441 1572 1694
8 1310 1444 1572 1442 1445 1575 1695 1573
8 1446 1312 1447 1576 1574 1444 1575 1696
8 1486 1349 1485 1614 1579 1449 1577 1699
8 1451 1317 1449 1579 1581 1450 1578 1701
8 1487 1350 1486 1615 1582 1451 1579 1702
8 1581 1450 1580 1704 1453 1318 1452 1584
8 1582 1451 1581 1705 1454 1319 1453 1585
8 1584 1452 1583 1706 1456 1320 1455 1586
8 1585 1453 1584 1707 1457 1321 1456 1587
8 1587 1456 1586 1708 1458 1323 1459 1588
8 1633 1506 1589 1710 1507 1373 1461 1590
8 1464 1329 1461 1590 1594 1463 1589 1710
8 1468 1336 1462 1591 1595 1464 1590 1711
8 1634 1507 1590 1711 1508 1374 1462 1591
8 1473 1341 1463 1594 1603 1477 1593 1716
8 1469 1337 1464 1595 1599 1473 1594 1717
8 1471 1597 1467 1335 1600 1718 1596 1470
8 1718 1600 1496 1616 1596 1470 1360 1488
8 1336 1468 1597 1471 1472 1598 1719 1601
8 1469 1337 1473 1599 1598 1472 1602 1720
8 1722 1604 1501 1623 1600 1474 1367 1496
8 1475 1601 1471 1339 1604 1722 1600 1474
8 1602 1476 1605 1723 1472 1340 1475 1601
8 1476 1602 1724 1606 1341 1473 1603 1477
8 1483 1347 1478 1609 1612 1482 1608 1731
8 1495 1370 1504 1622 1609 1478 1608 1731
8 1618 1495 1609 1732 1494 1361 1479 1610
8 1484 1348 1479 1610 1613 1483 1609 1732
8 1486 1349 1482 1612 1614 1485 1611 1733
8 1613 1483 1612 1734 1487 1350 1486 1615
8 1489 1363 1496 1616 1617 1499 1623 1736
8 1491 1365 1499 1617 1619 1500 1626 1737
8 1618 1495 1361 1494 1738 1622 1497 1621
8 1739 1625 1498 1620 1619 1500 1366 1492
8 1621 1497 1362 1493 1740 1624 1498 1620
8 1742 1631 1504 1622 1624 1505 1371 1497
8 1743 1628 1502 1626 1623 1501 1368 1499
8 1744 1630 1505 1624 1625 1503 1372 1498
8 1745 1629 1503 1625 1626 1502 1369 1500
8 1520 1398 1528 1644 1633 1506 1632 1751
8 1637 1520 1633 1752 1512 1388 1507 1634
8 1635 1519 1643 1753 1510 1391 1522 1636
8 1657 1535 1643 1753 1534 1406 1519 1635
8 1515 1392 1522 1636 1639 1523 1646 1754
8 1517 1389 1521 1641 1637 1520 1644 1755
8 1524 1638 1756 1648 1393 1514 1639 1523
8 1640 1526 1395 1516 1756 1648 1524 1638
8 1642 1525 1396 1518 1757 1649 1526 1640
8 1758 1645 1521 1641 1642 1525 1396 1518
8 1646 1531 1400 1522 1760 1650 1527 1643
8 1535 1407 1536 1658 1643 1527 1650 1760
8 1521 1399 1529 1645 1644 1528 1651 1761
8 1647 1530 1652 1762 1525 1404 1529 1645
8 1401 1523 1648 1532 1531 1646 1763 1655
8 1525 1404 1533 1649 1647 1530 1654 1765
8 1533 1649 1766 1656 1403 1526 1648 1532
8 1662 1542 1658 1774 1539 1414 1535 1657
8 1542 1415 1543 1664 1658 1536 1659 1775
8 1660 1540 1663 1777 1538 1413 1541 1661
8 1545 1421 1548 1666 1660 1540 1663 1777
8 1662 1542 1414 1539 1778 1664 1541 1661
8 1664 1543 1416 1541 1779 1665 1544 1663
8 1548 1425 1550 1668 1663 1544 1665 1779
8 1547 1423 1549 1667 1666 1548 1668 1781
8 1670 1551 1668 1781 1553 1427 1549 1667
8 1551 1426 1552 1671 1668 1550 1669 1782
8 1670 1551 1427 1553 1784 1671 1554 1674
8 1675 1555 1672 1785 1554 1428 1552 1671
8 1678 1556 1673 1789 1558 1429 1555 1675
8 1561 1431 1558 1681 1674 1554 1675 1790
8 1794 1677 1556 1678 1680 1557 1429 1558
8 1560 1430 1559 1683 1680 1557 1679 1797
8 1561 1431 1560 1684 1681 1558 1680 1798
8 1563 1433 1564 1686 1683 1559 1682 1800
8 1684 1560 1432 1562 1801 1683 1563 1685
8 1565 1435 1566 1688 1685 1563 1686 1802
8 1566 1436 1567 1689 1686 1564 1687 1803
8 1568 1438 1569 1691 1688 1566 1689 1805
8 1569 1439 1570 1692 1689 1567 1690 1806
8 1571 1441 1572 1694 1691 1569 1692 1808
8 1442 1572 1692 1570 1573 1695 1809 1693
8 1574 1444 1575 1696 1694 1572 1695 1810
8 1614 1485 1592 1712 1699 1577 1697 1813
8 1579 1449 1577 1699 1701 1578 1698 1815
8 1615 1486 1614 1735 1702 1579 1699 1816
8 1701 1578 1700 1818 1581 1450 1580 1704
8 1582 1451 1579 1702 1705 1581 1701 1819
8 1704 1580 1703 1820 1584 1452 1583 1706
8 1705 1581 1704 1821 1585 1453 1584 1707
8 1707 1584 1706 1822 1587 1456 1586 1708
8 1710 1589 1506 1633 1824 1709 1632 1751
8 1594 1463 1589 1710 1716 1593 1709 1824
8 1752 1633 1710 1825 1634 1507 1590 1711
8 1595 1464 1590 1711 1717 1594 1710 1825
8 1830 1714 1592 1712 1733 1611 1485 1614
8 1603 1477 1593 1716 1725 1607 1715 1834
8 1599 1473 1594 1717 1721 1603 1716 1835
8 1837 1722 1623 1736 1718 1600 1496 1616
8 1719 1601 1722 1837 1597 1471 1600 1718
8 1602 1720 1598 1472 1723 1838 1719 1601
8 1720 1602 1473 1599 1839 1724 1603 1721
8 1723 1605 1726 1840 1601 1475 1604 1722
8 1840 1726 1628 1743 1722 1604 1501 1623
8 1724 1606 1727 1841 1602 1476 1605 1723
8 1725 1607 1728 1842 1603 1477 1606 1724
8 1612 1482 1608 1731 1733 1611 1730 1849
8 1741 1627 1730 1849 1622 1504 1608 1731
8 1613 1483 1609 1732 1734 1612 1731 1850
8 1618 1495 1622 1738 1732 1609 1731 1850
8 1615 1486 1612 1734 1735 1614 1733 1851
8 1852 1743 1626 1737 1736 1623 1499 1617
8 1853 1745 1625 1739 1737 1626 1500 1619
8 1855 1742 1622 1738 1740 1624 1497 1621
8 1856 1744 1624 1740 1739 1625 1498 1620
8 1741 1627 1504 1622 1857 1746 1631 1742
8 1742 1631 1505 1624 1858 1749 1630 1744
8 1859 1747 1629 1745 1743 1628 1502 1626
8 1860 1748 1630 1744 1745 1629 1503 1625
8 1644 1528 1651 1761 1751 1632 1750 1865
8 1637 1520 1644 1755 1752 1633 1751 1866
8 1754 1646 1522 1636 1867 1760 1643 1753
8 1657 1535 1658 1774 1753 1643 1760 1867
8 1639 1523 1646 1754 1756 1648 1763 1868
8 1641 1521 1645 1758 1755 1644 1761 1869
8 1757 1649 1526 1640 1870 1766 1648 1756
8 1642 1525 1649 1757 1759 1647 1765 1871
8 1759 1647 1762 1872 1642 1525 1645 1758
8 1760 1650 1767 1874 1646 1531 1655 1763
8 1658 1536 1659 1775 1760 1650 1767 1874
8 1762 1652 1768 1875 1645 1529 1651 1761
8 1764 1653 1769 1876 1647 1530 1652 1762
8 1656 1766 1877 1773 1532 1648 1763 1655
8 1771 1879 1765 1654 1653 1764 1647 1530
8 1533 1649 1765 1654 1656 1766 1880 1772
8 1662 1542 1664 1778 1774 1658 1775 1887
8 1664 1543 1665 1779 1775 1659 1776 1888
8 1778 1664 1541 1661 1890 1779 1663 1777
8 1666 1548 1668 1781 1777 1663 1779 1890
8 1782 1669 1780 1891 1668 1550 1665 1779
8 1670 1551 1671 1784 1781 1668 1782 1893
8 1671 1552 1672 1785 1782 1669 1783 1894
8 1790 1675 1785 1896 1674 1554 1671 1784
8 1675 1555 1673 1789 1785 1672 1786 1897
8 1792 1676 1788 1903 1678 1556 1673 1789
8 1795 1678 1789 1904 1681 1558 1675 1790
8 1792 1676 1556 1678 1906 1791 1677 1794
8 1680 1557 1679 1797 1794 1677 1793 1909
8 1910 1794 1678 1795 1798 1680 1558 1681
8 1683 1559 1682 1800 1797 1679 1796 1912
8 1684 1560 1683 1801 1798 1680 1797 1913
8 1686 1564 1687 1803 1800 1682 1799 1915
8 1685 1563 1686 1802 1801 1683 1800 1916
8 1688 1566 1689 1805 1802 1686 1803 1917
8 1689 1567 1690 1806 1803 1687 1804 1918
8 1691 1569 1692 1808 1805 1689 1806 1920
8 1692 1570 1693 1809 1806 1690 1807 1921
8 1694 1572 1695 1810 1808 1692 1809 1922
8 1829 1713 1811 1926 1712 1592 1697 1813
8 1813 1697 1812 1928 1699 1577 1698 1815
8 1735 1614 1712 1828 1816 1699 1813 1929
8 1815 1698 1814 1931 1701 1578 1700 1818
8 1702 1579 1699 1816 1819 1701 1815 1932
8 1818 1700 1817 1933 1704 1580 1703 1820
8 1819 1701 1818 1934 1705 1581 1704 1821
8 1821 1704 1820 1935 1707 1584 1706 1822
8 1824 1709 1632 1751 1937 1823 1750 1865
8 1716 1593 1709 1824 1834 1715 1823 1937
8 1825 1710 1633 1752 1938 1824 1751 1866
8 1717 1594 1710 1825 1835 1716 1824 1938
8 1945 1830 1712 1828 1851 1733 1614 1735
8 1830 1714 1831 1946 1712 1592 1713 1829
8 1947 1832 1714 1830 1849 1730 1611 1733
8 1843 1729 1607 1725 1950 1833 1715 1834
8 1721 1603 1716 1835 1836 1725 1834 1951
8 1836 1725 1842 1953 1721 1603 1724 1839
8 1723 1838 1719 1601 1840 1954 1837 1722
8 1954 1840 1743 1852 1837 1722 1623 1736
8 1724 1839 1720 1602 1841 1955 1838 1723
8 1841 1727 1844 1956 1723 1605 1726 1840
8 1956 1844 1747 1859 1840 1726 1628 1743
8 1728 1842 1724 1606 1845 1957 1841 1727
8 1725 1607 1729 1843 1842 1728 1846 1958
8 1741 1627 1746 1857 1849 1730 1848 1965
8 1734 1612 1731 1850 1851 1733 1849 1966
8 1854 1741 1849 1966 1738 1622 1731 1850
8 1967 1859 1745 1853 1852 1743 1626 1737
8 1968 1860 1744 1856 1853 1745 1625 1739
8 1854 1741 1622 1738 1969 1857 1742 1855
8 1855 1742 1624 1740 1970 1858 1744 1856
8 1857 1746 1631 1742 1971 1861 1749 1858
8 1858 1749 1630 1744 1972 1863 1748 1860
8 1859 1747 1862 1973 1745 1629 1748 1860
8 1875 1768 1864 1977 1761 1651 1750 1865
8 1755 1644 1761 1869 1866 1751 1865 1978
8 1867 1760 1874 1979 1754 1646 1763 1868
8 1774 1658 1775 1887 1867 1760 1874 1979
8 1870 1766 1648 1756 1980 1877 1763 1868
8 1872 1762 1875 1981 1758 1645 1761 1869
8 1757 1649 1766 1870 1871 1765 1880 1982
8 1983 1879 1764 1873 1871 1765 1647 1759
8 1873 1764 1876 1984 1759 1647 1762 1872
8 1877 1773 1655 1763 1986 1881 1767 1874
8 1775 1659 1776 1888 1874 1767 1881 1986
8 1876 1769 1882 1987 1762 1652 1768 1875
8 1878 1770 1883 1988 1764 1653 1769 1876
8 1880 1772 1656 1766 1989 1886 1773 1877
8 1878 1770 1653 1764 1990 1884 1771 1879
8 1765 1654 1772 1880 1879 1771 1885 1991
8 1778 1664 1779 1890 1887 1775 1888 1997
8 1998 1889 1776 1888 1891 1780 1665 1779
8 1893 1782 1891 2000 1781 1668 1779 1890
8 1894 1783 1892 2001 1782 1669 1780 1891
8 1784 1671 1785 1896 1893 1782 1894 2003
8 1897 1786 1895 2004 1785 1672 1783 1894
8 1790 1675 1789 1904 1896 1785 1897 2006
8 1901 1787 1898 2007 1789 1673 1786 1897
8 1903 1788 1900 2013 1789 1673 1787 1901
8 1792 1676 1791 1906 1903 1788 1902 2016
8 1907 1792 1903 2017 1795 1678 1789 1904
8 1906 1791 1677 1794 2019 1905 1793 1909
8 1907 1792 1678 1795 2020 1906 1794 1910
8 1797 1679 1796 1912 1909 1793 1908 2022
8 1798 1680 1797 1913 1910 1794 1909 2023
8 1800 1682 1799 1915 1912 1796 1911 2025
8 1801 1683 1800 1916 1913 1797 1912 2026
8 1803 1687 1804 1918 1915 1799 1914 2028
8 1802 1686 1803 1917 1916 1800 1915 2029
8 1805 1689 1806 1920 1917 1803 1918 2030
8 1806 1690 1807 1921 1918 1804 1919 2031
8 1808 1692 1809 1922 1920 1806 1921 2032
8 1939 1826 1924 2037 1829 1713 1811 1926
8 1926 1811 1925 2039 1813 1697 1812 1928
8 1944 1829 1926 2040 1828 1712 1813 1929
8 1928 1812 1927 2042 1815 1698 1814 1931
8 1929 1813 1928 2043 1816 1699 1815 1932
8 1931 1814 1930 2044 1818 1700 1817 1933
8 1932 1815 1931 2045 1819 1701 1818 1934
8 1934 1818 1933 2046 1821 1704 1820 1935
8 2048 1936 1823 1937 1977 1864 1750 1865
8 1950 1833 1715 1834 2048 1936 1823 1937
8 1938 1824 1751 1866 2049 1937 1865 1978
8 1835 1716 1824 1938 1951 1834 1937 2049
8 1939 1826 1713 1829 2053 1942 1831 1946
8 1940 1827 1923 2035 2053 1942 1826 1939
8 1945 1830 1946 2058 1828 1712 1829 1944
8 2059 1947 1830 1945 1966 1849 1733 1851
8 1947 1832 1730 1849 2060 1948 1848 1965
8 1947 1832 1948 2060 1830 1714 1831 1946
8 1959 1847 1729 1843 2063 1949 1833 1950
8 1952 1843 1725 1836 2064 1950 1834 1951
8 1836 1725 1843 1952 1953 1842 1958 2066
8 1953 1842 1957 2067 1839 1724 1841 1955
8 1841 1955 1838 1723 1956 2068 1954 1840
8 2068 1956 1859 1967 1954 1840 1743 1852
8 1956 1844 1960 2069 1859 1747 1862 1973
8 1845 1957 1841 1727 1960 2069 1956 1844
8 1728 1842 1957 1845 1846 1958 2071 1961
8 1962 2072 1959 1847 1846 1958 1843 1729
8 1971 1861 1964 2077 1857 1746 1848 1965
8 1854 1741 1857 1969 1966 1849 1965 2078
8 1967 1859 1973 2079 1853 1745 1860 1968
8 1970 1858 1744 1856 2080 1972 1860 1968
8 1969 1857 1742 1855 2081 1971 1858 1970
8 1971 1861 1749 1858 2082 1974 1863 1972
8 1973 1862 1975 2083 1860 1748 1863 1972
8 1987 1882 1976 2086 1875 1768 1864 1977
8 1981 1875 1977 2087 1869 1761 1865 1978
8 1980 1877 1763 1868 2088 1986 1874 1979
8 1887 1775 1888 1997 1979 1874 1986 2088
8 1880 1982 2089 1989 1766 1870 1980 1877
8 1984 1876 1987 2090 1872 1762 1875 1981
8 1765 1871 1983 1879 1880 1982 2091 1991
8 1985 1878 1764 1873 2092 1990 1879 1983
8 1985 1878 1988 2093 1873 1764 1876 1984
8 2094 1992 1881 1986 1998 1889 1776 1888
8 1986 1881 1992 2094 1877 1773 1886 1989
8 1988 1883 1993 2095 1876 1769 1882 1987
8 1878 1770 1884 1990 1988 1883 1994 2096
8 1991 1885 1772 1880 2097 1996 1886 1989
8 1879 1771 1885 1991 1990 1884 1995 2098
8 2103 1998 1888 1997 2000 1891 1779 1890
8 2104 1999 1889 1998 2001 1892 1780 1891
8 2003 1894 2001 2106 1893 1782 1891 2000
8 2004 1895 2002 2107 1894 1783 1892 2001
8 2006 1897 2004 2109 1896 1785 1894 2003
8 2007 1898 2005 2110 1897 1786 1895 2004
8 2014 1901 2007 2112 1904 1789 1897 2006
8 2011 1899 2008 2113 1901 1787 1898 2007
8 2119 2010 1899 2011 2013 1900 1787 1901
8 2016 1902 2012 2122 1903 1788 1900 2013
8 2017 1903 2013 2123 1904 1789 1901 2014
8 1906 1791 1905 2019 2016 1902 2015 2125
8 1907 1792 1906 2020 2017 1903 2016 2126
8 1909 1793 1908 2022 2019 1905 2018 2128
8 2020 1906 1794 1910 2129 2019 1909 2023
8 1912 1796 1911 2025 2022 1908 2021 2131
8 1913 1797 1912 2026 2023 1909 2022 2132
8 1915 1799 1914 2028 2025 1911 2024 2134
8 1916 1800 1915 2029 2026 1912 2025 2135
8 1918 1804 1919 2031 2028 1914 2027 2136
8 1917 1803 1918 2030 2029 1915 2028 2137
8 1920 1806 1921 2032 2030 1918 2031 2138
8 1940 1827 1941 2054 2035 1923 2033 2140
8 2035 1923 2034 2143 1939 1826 1924 2037
8 2037 1924 2036 2146 1926 1811 1925 2039
8 2051 1939 2037 2147 1944 1829 1926 2040
8 2039 1925 2038 2149 1928 1812 1927 2042
8 2040 1926 2039 2150 1929 1813 1928 2043
8 2042 1927 2041 2151 1931 1814 1930 2044
8 2043 1928 2042 2152 1932 1815 1931 2045
8 2045 1931 2044 2153 1934 1818 1933 2046
8 2155 2047 1936 2048 2086 1976 1864 1977
8 2063 1949 1833 1950 2155 2047 1936 2048
8 2156 2048 1937 2049 2087 1977 1865 1978
8 2064 1950 1834 1951 2156 2048 1937 2049
8 2051 1939 1829 1944 2160 2053 1946 2058
8 2052 1940 2035 2144 2160 2053 1939 2051
8 2053 1942 1831 1946 2163 2057 1948 2060
8 2055 1943 1827 1940 2163 2057 1942 2053
8 2055 1943 2056 2164 1940 1827 1941 2054
8 2059 1947 1849 1966 2167 2060 1965 2078
8 2059 1947 2060 2167 1945 1830 1946 2058
8 2077 1964 2061 2168 1965 1848 1948 2060
8 2070 1963 1847 1959 2170 2062 1949 2063
8 2065 1959 1843 1952 2171 2063 1950 2064
8 2173 2072 1958 2066 2065 1959 1843 1952
8 1953 1842 1958 2066 2067 1957 2071 2174
8 2068 1956 2069 2175 1967 1859 1973 2079
8 2067 1957 2069 2175 1955 1841 1956 2068
8 1845 1957 2069 1960 1961 2071 2176 2073
8 2069 1960 2073 2176 1973 1862 1975 2083
8 2070 1963 2075 2177 1959 1847 1962 2072
8 1846 1958 2071 1961 1962 2072 2178 2074
8 2077 1964 1861 1971 2182 2076 1974 2082
8 2081 1971 2077 2183 1969 1857 1965 2078
8 2079 1973 2083 2184 1968 1860 1972 2080
8 2081 1971 1858 1970 2185 2082 1972 2080
8 2083 1975 2084 2186 1972 1863 1974 2082
8 2086 1976 1882 1987 2189 2085 1993 2095
8 2090 1987 2086 2190 1981 1875 1977 2087
8 2191 2094 1986 2088 2103 1998 1888 1997
8 2088 1986 2094 2191 1980 1877 1989 2089
8 1991 2091 2192 2097 1880 1982 2089 1989
8 2093 1988 2095 2193 1984 1876 1987 2090
8 1879 1983 2092 1990 1991 2091 2194 2098
8 1985 1878 1990 2092 2093 1988 2096 2195
8 2097 1996 1886 1989 2196 2099 1992 2094
8 2196 2099 1992 2094 2104 1999 1889 1998
8 1994 2096 1988 1883 2100 2197 2095 1993
8 2096 1994 1884 1990 2198 2101 1995 2098
8 1995 2098 2199 2102 1885 1991 2097 1996
8 2203 2104 1998 2103 2106 2001 1891 2000
8 2107 2002 2105 2204 2001 1892 1999 2104
8 2109 2004 2107 2206 2003 1894 2001 2106
8 2110 2005 2108 2207 2004 1895 2002 2107
8 2112 2007 2110 2209 2006 1897 2004 2109
8 2113 2008 2111 2210 2007 1898 2005 2110
8 2120 2011 2113 2212 2014 1901 2007 2112
8 2117 2009 2114 2213 2011 1899 2008 2113
8 2219 2116 2009 2117 2119 2010 1899 2011
8 2222 2118 2010 2119 2122 2012 1900 2013
8 2223 2119 2011 2120 2123 2013 1901 2014
8 2016 1902 2015 2125 2122 2012 2121 2225
8 2126 2016 2122 2226 2017 1903 2013 2123
8 2019 1905 2018 2128 2125 2015 2124 2228
8 2020 1906 2019 2129 2126 2016 2125 2229
8 2022 1908 2021 2131 2128 2018 2127 2231
8 2023 1909 2022 2132 2129 2019 2128 2232
8 2025 1911 2024 2134 2131 2021 2130 2234
8 2026 1912 2025 2135 2132 2022 2131 2235
8 1914 2028 2134 2024 2027 2136 2236 2133
8 2029 1915 2028 2137 2135 2025 2134 2237
8 2030 1918 2031 2138 2137 2028 2136 2238
8 2157 2050 2139 2240 2054 1941 2033 2140
8 2052 1940 2054 2161 2144 2035 2140 2242
8 2140 2033 2141 2243 2035 1923 2034 2143
8 2143 2034 2142 2246 2037 1924 2036 2146
8 2144 2035 2143 2247 2051 1939 2037 2147
8 2146 2036 2145 2249 2039 1925 2038 2149
8 2147 2037 2146 2250 2040 1926 2039 2150
8 2149 2038 2148 2251 2042 1927 2041 2151
8 2150 2039 2149 2252 2043 1928 2042 2152
8 2152 2042 2151 2253 2045 1931 2044 2153
8 2255 2154 2047 2155 2189 2085 1976 2086
8 2170 2062 1949 2063 2255 2154 2047 2155
8 2256 2155 2048 2156 2190 2086 1977 2087
8 2171 2063 1950 2064 2256 2155 2048 2156
8 2258 2159 2050 2157 2164 2056 1941 2054
8 2160 2053 1946 2058 2262 2163 2060 2167
8 2162 2055 1940 2052 2262 2163 2053 2160
8 2162 2055 2164 2263 2052 1940 2054 2161
8 2163 2057 1948 2060 2264 2165 2061 2168
8 2055 1943 2057 2163 2164 2056 2165 2264
8 2182 2076 2166 2268 2077 1964 2061 2168
8 2183 2077 2168 2269 2078 1965 2060 2167
8 2070 1963 2062 2170 2177 2075 2169 2271
8 2172 2070 1959 2065 2272 2170 2063 2171
8 2172 2070 2177 2273 2065 1959 2072 2173
8 2066 1958 2072 2173 2174 2071 2178 2274
8 2067 1957 2071 2174 2175 2069 2176 2275
8 2175 2069 2176 2275 2079 1973 2083 2184
8 2071 1961 2074 2178 2176 2073 2179 2276
8 2176 2073 2179 2276 2083 1975 2084 2186
8 2072 1962 2075 2177 2178 2074 2180 2277
8 2182 2076 1974 2082 2280 2181 2084 2186
8 2183 2077 1971 2081 2281 2182 2082 2185
8 2184 2083 2186 2282 2080 1972 2082 2185
8 2189 2085 1993 2095 2285 2188 2100 2197
8 2190 2086 1987 2090 2286 2189 2095 2193
8 2192 2097 1989 2089 2287 2196 2094 2191
8 2287 2196 2094 2191 2203 2104 1998 2103
8 2194 2098 1991 2091 2288 2199 2097 2192
8 2195 2096 2197 2289 2093 1988 2095 2193
8 2096 2195 2290 2198 1990 2092 2194 2098
8 2097 1996 2099 2196 2199 2102 2200 2291
8 2196 2099 1999 2104 2291 2200 2105 2204
8 2100 2197 2292 2201 1994 2096 2198 2101
8 1995 2098 2198 2101 2102 2199 2293 2202
8 2206 2107 2204 2296 2106 2001 2104 2203
8 2207 2108 2205 2297 2107 2002 2105 2204
8 2209 2110 2207 2299 2109 2004 2107 2206
8 2210 2111 2208 2300 2110 2005 2108 2207
8 2212 2113 2210 2302 2112 2007 2110 2209
8 2213 2114 2211 2303 2113 2008 2111 2210
8 2220 2117 2213 2305 2120 2011 2113 2212
8 2216 2115 2214 2306 2117 2009 2114 2213
8 2216 2115 2009 2117 2311 2217 2116 2219
8 2219 2116 2010 2119 2314 2218 2118 2222
8 2315 2219 2117 2220 2223 2119 2011 2120
8 2122 2012 2121 2225 2222 2118 2221 2317
8 2318 2222 2119 2223 2226 2122 2013 2123
8 2125 2015 2124 2228 2225 2121 2224 2320
8 2126 2016 2125 2229 2226 2122 2225 2321
8 2128 2018 2127 2231 2228 2124 2227 2323
8 2129 2019 2128 2232 2229 2125 2228 2324
8 2131 2021 2130 2234 2231 2127 2230 2326
8 2132 2022 2131 2235 2232 2128 2231 2327
8 2134 2024 2133 2236 2234 2130 2233 2328
8 2135 2025 2134 2237 2235 2131 2234 2329
8 2137 2028 2136 2238 2237 2134 2236 2330
8 2157 2050 2158 2259 2240 2139 2239 2332
8 2257 2157 2240 2334 2161 2054 2140 2242
8 2240 2139 2241 2335 2140 2033 2141 2243
8 2242 2140 2243 2337 2144 2035 2143 2247
8 2243 2141 2244 2338 2143 2034 2142 2246
8 2246 2142 2245 2341 2146 2036 2145 2249
8 2247 2143 2246 2342 2147 2037 2146 2250
8 2249 2145 2248 2343 2149 2038 2148 2251
8 2250 2146 2249 2344 2150 2039 2149 2252
8 2252 2149 2251 2345 2152 2042 2151 2253
8 2169 2271 2347 2254 2062 2170 2255 2154
8 2189 2085 2188 2285 2255 2154 2254 2347
8 2348 2255 2155 2256 2286 2189 2086 2190
8 2272 2170 2063 2171 2348 2255 2155 2256
8 2349 2258 2157 2257 2263 2164 2054 2161
8 2258 2159 2261 2351 2157 2050 2158 2259
8 2258 2159 2056 2164 2351 2261 2165 2264
8 2262 2163 2060 2167 2355 2264 2168 2269
8 2162 2055 2163 2262 2263 2164 2264 2355
8 2357 2266 2165 2264 2268 2166 2061 2168
8 2268 2166 2076 2182 2361 2267 2181 2280
8 2281 2182 2268 2362 2183 2077 2168 2269
8 2271 2169 2270 2364 2177 2075 2180 2277
8 2172 2070 2170 2272 2273 2177 2271 2365
8 2072 2173 2274 2178 2177 2273 2366 2277
8 2071 2174 2275 2176 2178 2274 2367 2276
8 2275 2176 2276 2367 2184 2083 2186 2282
8 2283 2187 2084 2186 2368 2278 2179 2276
8 2178 2074 2180 2277 2276 2179 2278 2368
8 2283 2187 2279 2370 2186 2084 2181 2280
8 2281 2182 2082 2185 2371 2280 2186 2282
8 2188 2285 2374 2284 2100 2197 2292 2201
8 2286 2189 2095 2193 2375 2285 2197 2289
8 2192 2097 2196 2287 2288 2199 2291 2376
8 2287 2196 2104 2203 2376 2291 2204 2296
8 2194 2098 2199 2288 2290 2198 2293 2377
8 2289 2197 2096 2195 2378 2292 2198 2290
8 2291 2200 2105 2204 2379 2294 2205 2297
8 2199 2102 2200 2291 2293 2202 2294 2379
8 2198 2101 2202 2293 2292 2201 2295 2380
8 2299 2207 2297 2383 2206 2107 2204 2296
8 2300 2208 2298 2384 2207 2108 2205 2297
8 2302 2210 2300 2386 2209 2110 2207 2299
8 2303 2211 2301 2387 2210 2111 2208 2300
8 2305 2213 2303 2389 2212 2113 2210 2302
8 2306 2214 2304 2390 2213 2114 2211 2303
8 2310 2216 2306 2392 2220 2117 2213 2305
8 2308 2215 2307 2393 2216 2115 2214 2306
8 2308 2215 2115 2216 2396 2309 2217 2311
8 2310 2216 2117 2220 2398 2311 2219 2315
8 2311 2217 2116 2219 2399 2312 2218 2314
8 2314 2218 2118 2222 2402 2313 2221 2317
8 2315 2219 2119 2223 2403 2314 2222 2318
8 2225 2121 2224 2320 2317 2221 2316 2405
8 2226 2122 2225 2321 2318 2222 2317 2406
8 2228 2124 2227 2323 2320 2224 2319 2408
8 2229 2125 2228 2324 2321 2225 2320 2409
8 2231 2127 2230 2326 2323 2227 2322 2411
8 2232 2128 2231 2327 2324 2228 2323 2412
8 2234 2130 2233 2328 2326 2230 2325 2413
8 2235 2131 2234 2329 2327 2231 2326 2414
8 2237 2134 2236 2330 2329 2234 2328 2415
8 2259 2158 2260 2352 2332 2239 2331 2417
8 2257 2157 2259 2350 2334 2240 2332 2419
8 2240 2139 2239 2332 2335 2241 2333 2420
8 2334 2240 2335 2422 2242 2140 2243 2337
8 2335 2241 2336 2423 2243 2141 2244 2338
8 2337 2243 2338 2425 2247 2143 2246 2342
8 2338 2244 2339 2426 2246 2142 2245 2341
8 2341 2245 2340 2428 2249 2145 2248 2343
8 2342 2246 2341 2429 2250 2146 2249 2344
8 2344 2249 2343 2430 2252 2149 2251 2345
8 2188 2285 2347 2254 2284 2374 2432 2346
8 2347 2254 2346 2432 2271 2169 2270 2364
8 2365 2271 2170 2272 2433 2347 2255 2348
8 2286 2189 2285 2375 2348 2255 2347 2433
8 2349 2258 2351 2435 2257 2157 2259 2350
8 2349 2258 2164 2263 2435 2351 2264 2355
8 2259 2158 2261 2351 2352 2260 2354 2437
8 2356 2265 2354 2437 2264 2165 2261 2351
8 2441 2357 2264 2355 2362 2268 2168 2269
8 2356 2265 2165 2264 2442 2358 2266 2357
8 2443 2359 2266 2357 2361 2267 2166 2268
8 2370 2279 2360 2446 2280 2181 2267 2361
8 2362 2268 2182 2281 2447 2361 2280 2371
8 2180 2277 2368 2278 2270 2364 2449 2363
8 2271 2365 2273 2177 2364 2450 2366 2277
8 2372 2283 2186 2282 2451 2368 2276 2367
8 2178 2274 2367 2276 2277 2366 2451 2368
8 2283 2187 2278 2368 2370 2279 2369 2452
8 2372 2283 2370 2453 2282 2186 2280 2371
8 2284 2374 2455 2373 2201 2292 2380 2295
8 2375 2285 2197 2289 2456 2374 2292 2378
8 2376 2291 2204 2296 2457 2379 2297 2383
8 2288 2199 2291 2376 2377 2293 2379 2457
8 2198 2290 2378 2292 2293 2377 2458 2380
8 2293 2202 2294 2379 2380 2295 2381 2459
8 2384 2298 2381 2459 2297 2205 2294 2379
8 2386 2300 2384 2463 2299 2207 2297 2383
8 2387 2301 2385 2464 2300 2208 2298 2384
8 2389 2303 2387 2466 2302 2210 2300 2386
8 2390 2304 2388 2467 2303 2211 2301 2387
8 2392 2306 2390 2469 2305 2213 2303 2389
8 2393 2307 2391 2470 2306 2214 2304 2390
8 2395 2308 2393 2472 2310 2216 2306 2392
8 2308 2215 2309 2396 2393 2307 2394 2473
8 2395 2308 2216 2310 2475 2396 2311 2398
8 2396 2309 2217 2311 2476 2397 2312 2399
8 2398 2311 2219 2315 2478 2399 2314 2403
8 2399 2312 2218 2314 2479 2400 2313 2402
8 2317 2221 2316 2405 2402 2313 2401 2482
8 2403 2314 2222 2318 2483 2402 2317 2406
8 2320 2224 2319 2408 2405 2316 2404 2485
8 2321 2225 2320 2409 2406 2317 2405 2486
8 2323 2227 2322 2411 2408 2319 2407 2488
8 2324 2228 2323 2412 2409 2320 2408 2489
8 2326 2230 2325 2413 2411 2322 2410 2490
8 2327 2231 2326 2414 2412 2323 2411 2491
8 2329 2234 2328 2415 2414 2326 2413 2492
8 2417 2331 2260 2352 2494 2416 2353 2438
8 2350 2259 2352 2436 2419 2332 2417 2496
8 2332 2239 2331 2417 2420 2333 2418 2497
8 2334 2240 2332 2419 2422 2335 2420 2499
8 2420 2333 2421 2500 2335 2241 2336 2423
8 2422 2335 2423 2502 2337 2243 2338 2425
8 2423 2336 2424 2503 2338 2244 2339 2426
8 2425 2338 2426 2505 2342 2246 2341 2429
8 2426 2339 2427 2506 2341 2245 2340 2428
8 2429 2341 2428 2507 2344 2249 2343 2430
8 2432 2346 2284 2374 2509 2431 2373 2455
8 2432 2346 2431 2509 2364 2270 2363 2449
8 2375 2285 2374 2456 2433 2347 2432 2510
8 2347 2433 2365 2271 2432 2510 2450 2364
8 2350 2259 2351 2435 2436 2352 2437 2514
8 2440 2356 2437 2514 2355 2264 2351 2435
8 2352 2260 2354 2437 2438 2353 2439 2516
8 2356 2265 2358 2442 2437 2354 2439 2516
8 2440 2356 2264 2355 2518 2442 2357 2441
8 2519 2443 2357 2441 2447 2361 2268 2362
8 2443 2359 2444 2520 2357 2266 2358 2442
8 2443 2359 2267 2361 2520 2444 2360 2446
8 2446 2360 2279 2370 2523 2445 2369 2452
8 2453 2370 2446 2524 2371 2280 2361 2447
8 2449 2363 2448 2525 2368 2278 2369 2452
8 2366 2277 2364 2450 2451 2368 2449 2526
8 2372 2283 2368 2451 2453 2370 2452 2527
8 2455 2373 2295 2380 2529 2454 2382 2460
8 2456 2374 2292 2378 2530 2455 2380 2458
8 2377 2293 2379 2457 2458 2380 2459 2531
8 2463 2384 2459 2531 2383 2297 2379 2457
8 2533 2461 2382 2460 2459 2381 2295 2380
8 2464 2385 2461 2533 2384 2298 2381 2459
8 2466 2387 2464 2537 2386 2300 2384 2463
8 2467 2388 2465 2538 2387 2301 2385 2464
8 2469 2390 2467 2540 2389 2303 2387 2466
8 2470 2391 2468 2541 2390 2304 2388 2467
8 2472 2393 2470 2543 2392 2306 2390 2469
8 2393 2307 2394 2473 2470 2391 2471 2544
8 2395 2308 2396 2475 2472 2393 2473 2546
8 2396 2309 2397 2476 2473 2394 2474 2547
8 2475 2396 2311 2398 2549 2476 2399 2478
8 2476 2397 2312 2399 2550 2477 2400 2479
8 2478 2399 2314 2403 2552 2479 2402 2483
8 2479 2400 2313 2402 2553 2480 2401 2482
8 2405 2316 2404 2485 2482 2401 2481 2556
8 2406 2317 2405 2486 2483 2402 2482 2557
8 2408 2319 2407 2488 2485 2404 2484 2559
8 2409 2320 2408 2489 2486 2405 2485 2560
8 2411 2322 2410 2490 2488 2407 2487 2561
8 2412 2323 2411 2491 2489 2408 2488 2562
8 2414 2326 2413 2492 2491 2411 2490 2563
8 2513 2434 2493 2565 2438 2353 2416 2494
8 2496 2417 2352 2436 2567 2494 2438 2515
8 2494 2416 2495 2568 2417 2331 2418 2497
8 2419 2332 2417 2496 2499 2420 2497 2570
8 2497 2418 2498 2571 2420 2333 2421 2500
8 2499 2420 2500 2573 2422 2335 2423 2502
8 2500 2421 2501 2574 2423 2336 2424 2503
8 2502 2423 2503 2576 2425 2338 2426 2505
8 2503 2424 2504 2577 2426 2339 2427 2506
8 2505 2426 2506 2578 2429 2341 2428 2507
8 2509 2431 2373 2455 2580 2508 2454 2529
8 2509 2431 2508 2580 2449 2363 2448 2525
8 2432 2510 2581 2509 2374 2456 2530 2455
8 2432 2510 2450 2364 2509 2581 2526 2449
8 2583 2511 2434 2513 2516 2439 2353 2438
8 2436 2352 2437 2514 2515 2438 2516 2588
8 2440 2356 2442 2518 2514 2437 2516 2588
8 2442 2358 2444 2520 2516 2439 2517 2589
8 2519 2443 2520 2591 2441 2357 2442 2518
8 2519 2443 2361 2447 2591 2520 2446 2524
8 2446 2360 2445 2523 2520 2444 2521 2592
8 2525 2448 2522 2593 2452 2369 2445 2523
8 2524 2446 2370 2453 2594 2523 2452 2527
8 2526 2449 2525 2595 2451 2368 2452 2527
8 2534 2462 2528 2597 2460 2382 2454 2529
8 2530 2455 2380 2458 2598 2529 2460 2532
8 2599 2533 2460 2532 2531 2459 2380 2458
8 2537 2464 2533 2599 2463 2384 2459 2531
8 2534 2462 2382 2460 2601 2535 2461 2533
8 2538 2465 2535 2601 2464 2385 2461 2533
8 2540 2467 2538 2604 2466 2387 2464 2537
8 2541 2468 2539 2605 2467 2388 2465 2538
8 2543 2470 2541 2607 2469 2390 2467 2540
8 2470 2391 2471 2544 2541 2468 2542 2608
8 2472 2393 2473 2546 2543 2470 2544 2610
8 2473 2394 2474 2547 2544 2471 2545 2611
8 2475 2396 2476 2549 2546 2473 2547 2613
8 2476 2397 2477 2550 2547 2474 2548 2614
8 2549 2476 2399 2478 2616 2550 2479 2552
8 2479 2400 2480 2553 2550 2477 2551 2617
8 2552 2479 2402 2483 2619 2553 2482 2557
8 2482 2401 2481 2556 2553 2480 2554 2620
8 2485 2404 2484 2559 2556 2481 2555 2623
8 2486 2405 2485 2560 2557 2482 2556 2624
8 2488 2407 2487 2561 2559 2484 2558 2625
8 2489 2408 2488 2562 2560 2485 2559 2626
8 2491 2411 2490 2563 2562 2488 2561 2627
8 2513 2434 2512 2585 2565 2493 2564 2630
8 2586 2513 2565 2632 2515 2438 2494 2567
8 2565 2493 2566 2633 2494 2416 2495 2568
8 2567 2494 2568 2635 2496 2417 2497 2570
8 2568 2495 2569 2636 2497 2418 2498 2571
8 2570 2497 2571 2638 2499 2420 2500 2573
8 2571 2498 2572 2639 2500 2421 2501 2574
8 2573 2500 2574 2641 2502 2423 2503 2576
8 2574 2501 2575 2642 2503 2424 2504 2577
8 2576 2503 2577 2643 2505 2426 2506 2578
8 2597 2528 2579 2645 2529 2454 2508 2580
8 2580 2508 2579 2645 2525 2448 2522 2593
8 2581 2509 2455 2530 2646 2580 2529 2598
8 2581 2509 2580 2646 2526 2449 2525 2595
8 2583 2511 2582 2648 2513 2434 2512 2585
8 2583 2511 2439 2516 2648 2582 2517 2589
8 2649 2583 2513 2586 2588 2516 2438 2515
8 2589 2517 2444 2520 2653 2587 2521 2592
8 2518 2442 2520 2591 2588 2516 2589 2654
8 2593 2522 2590 2655 2523 2445 2521 2592
8 2524 2446 2523 2594 2591 2520 2592 2656
8 2595 2525 2593 2657 2527 2452 2523 2594
8 2602 2536 2596 2659 2534 2462 2528 2597
8 2600 2534 2597 2660 2532 2460 2529 2598
8 2600 2534 2460 2532 2661 2601 2533 2599
8 2604 2538 2601 2661 2537 2464 2533 2599
8 2602 2536 2462 2534 2663 2603 2535 2601
8 2601 2535 2465 2538 2663 2603 2539 2605
8 2607 2541 2605 2665 2540 2467 2538 2604
8 2608 2542 2606 2666 2541 2468 2539 2605
8 2543 2470 2544 2610 2607 2541 2608 2668
8 2544 2471 2545 2611 2608 2542 2609 2669
8 2546 2473 2547 2613 2610 2544 2611 2671
8 2547 2474 2548 2614 2611 2545 2612 2672
8 2549 2476 2550 2616 2613 2547 2614 2674
8 2550 2477 2551 2617 2614 2548 2615 2675
8 2552 2479 2553 2619 2616 2550 2617 2677
8 2553 2480 2554 2620 2617 2551 2618 2678
8 2557 2482 2556 2624 2619 2553 2620 2680
8 2556 2481 2555 2623 2620 2554 2621 2681
8 2559 2484 2558 2625 2623 2555 2622 2683
8 2560 2485 2559 2626 2624 2556 2623 2684
8 2562 2488 2561 2627 2626 2559 2625 2685
8 2690 2629 2564 2630 2650 2584 2512 2585
8 2586 2513 2585 2651 2632 2565 2630 2691
8 2630 2564 2631 2692 2565 2493 2566 2633
8 2632 2565 2633 2694 2567 2494 2568 2635
8 2633 2566 2634 2695 2568 2495 2569 2636
8 2635 2568 2636 2697 2570 2497 2571 2638
8 2636 2569 2637 2698 2571 2498 2572 2639
8 2638 2571 2639 2700 2573 2500 2574 2641
8 2639 2572 2640 2701 2574 2501 2575 2642
8 2641 2574 2642 2702 2576 2503 2577 2643
8 2597 2528 2596 2659 2645 2579 2644 2704
8 2645 2579 2644 2704 2593 2522 2590 2655
8 2660 2597 2645 2705 2598 2529 2580 2646
8 2646 2580 2645 2705 2595 2525 2593 2657
8 2650 2584 2512 2585 2707 2647 2582 2648
8 2648 2582 2517 2589 2707 2647 2587 2653
8 2649 2583 2648 2708 2586 2513 2585 2651
8 2649 2583 2516 2588 2708 2648 2589 2654
8 2655 2590 2652 2710 2592 2521 2587 2653
8 2654 2589 2520 2591 2711 2653 2592 2656
8 2657 2593 2655 2712 2594 2523 2592 2656
8 2602 2536 2603 2663 2659 2596 2658 2714
8 2662 2602 2659 2715 2600 2534 2597 2660
8 2662 2602 2534 2600 2717 2663 2601 2661
8 2661 2601 2538 2604 2717 2663 2605 2665
8 2666 2606 2664 2718 2605 2539 2603 2663
8 2668 2608 2666 2720 2607 2541 2605 2665
8 2608 2542 2609 2669 2666 2606 2667 2721
8 2610 2544 2611 2671 2668 2608 2669 2723
8 2611 2545 2612 2672 2669 2609 2670 2724
8 2613 2547 2614 2674 2671 2611 2672 2726
8 2614 2548 2615 2675 2672 2612 2673 2727
8 2616 2550 2617 2677 2674 2614 2675 2729
8 2617 2551 2618 2678 2675 2615 2676 2730
8 2619 2553 2620 2680 2677 2617 2678 2732
8 2620 2554 2621 2681 2678 2618 2679 2733
8 2624 2556 2623 2684 2680 2620 2681 2735
8 2681 2621 2555 2623 2736 2682 2622 2683
8 2626 2559 2625 2685 2684 2623 2683 2737
8 2688 2628 2584 2650 2740 2686 2647 2707
8 2688 2628 2687 2742 2650 2584 2629 2690
8 2690 2629 2689 2745 2630 2564 2631 2692
8 2746 2690 2630 2691 2709 2650 2585 2651
8 2691 2630 2692 2747 2632 2565 2633 2694
8 2692 2631 2693 2748 2633 2566 2634 2695
8 2694 2633 2695 2750 2635 2568 2636 2697
8 2695 2634 2696 2751 2636 2569 2637 2698
8 2697 2636 2698 2753 2638 2571 2639 2700
8 2698 2637 2699 2754 2639 2572 2640 2701
8 2700 2639 2701 2755 2641 2574 2642 2702
8 2659 2596 2658 2714 2704 2644 2703 2757
8 2704 2644 2703 2757 2655 2590 2652 2710
8 2660 2597 2659 2715 2705 2645 2704 2758
8 2705 2645 2704 2758 2657 2593 2655 2712
8 2759 2706 2647 2707 2710 2652 2587 2653
8 2709 2650 2585 2651 2760 2707 2648 2708
8 2708 2648 2589 2654 2760 2707 2653 2711
8 2712 2655 2710 2761 2656 2592 2653 2711
8 2763 2713 2658 2714 2718 2664 2603 2663
8 2662 2602 2663 2717 2715 2659 2714 2764
8 2720 2666 2718 2767 2665 2605 2663 2717
8 2768 2719 2664 2718 2721 2667 2606 2666
8 2668 2608 2669 2723 2720 2666 2721 2770
8 2669 2609 2670 2724 2721 2667 2722 2771
8 2671 2611 2672 2726 2723 2669 2724 2773
8 2672 2612 2673 2727 2724 2670 2725 2774
8 2674 2614 2675 2729 2726 2672 2727 2776
8 2675 2615 2676 2730 2727 2673 2728 2777
8 2677 2617 2678 2732 2729 2675 2730 2779
8 2678 2618 2679 2733 2730 2676 2731 2780
8 2680 2620 2681 2735 2732 2678 2733 2782
8 2733 2679 2621 2681 2783 2734 2682 2736
8 2735 2681 2623 2684 2784 2736 2683 2737
8 2740 2686 2647 2707 2787 2738 2706 2759
8 2688 2628 2686 2740 2742 2687 2739 2789
8 2743 2688 2650 2709 2790 2740 2707 2760
8 2742 2687 2741 2792 2690 2629 2689 2745
8 2743 2688 2742 2793 2709 2650 2690 2746
8 2745 2689 2744 2795 2692 2631 2693 2748
8 2746 2690 2745 2796 2691 2630 2692 2747
8 2747 2692 2748 2797 2694 2633 2695 2750
8 2748 2693 2749 2798 2695 2634 2696 2751
8 2750 2695 2751 2800 2697 2636 2698 2753
8 2751 2696 2752 2801 2698 2637 2699 2754
8 2753 2698 2754 2802 2700 2639 2701 2755
8 2763 2713 2756 2804 2714 2658 2703 2757
8 2759 2706 2652 2710 2804 2756 2703 2757
8 2715 2659 2714 2764 2758 2704 2757 2805
8 2758 2704 2757 2805 2712 2655 2710 2761
8 2806 2759 2707 2760 2761 2710 2653 2711
8 2765 2716 2762 2808 2718 2664 2713 2763
8 2809 2763 2714 2764 2767 2718 2663 2717
8 2765 2716 2664 2718 2811 2766 2719 2768
8 2813 2768 2718 2767 2770 2721 2666 2720
8 2814 2769 2719 2768 2771 2722 2667 2721
8 2723 2669 2724 2773 2770 2721 2771 2816
8 2724 2670 2725 2774 2771 2722 2772 2817
8 2726 2672 2727 2776 2773 2724 2774 2819
8 2727 2673 2728 2777 2774 2725 2775 2820
8 2729 2675 2730 2779 2776 2727 2777 2822
8 2730 2676 2731 2780 2777 2728 2778 2823
8 2732 2678 2733 2782 2779 2730 2780 2825
8 2780 2731 2679 2733 2826 2781 2734 2783
8 2782 2733 2681 2735 2827 2783 2736 2784
8 2830 2785 2738 2787 2804 2756 2706 2759
8 2789 2739 2686 2740 2832 2786 2738 2787
8 2790 2740 2707 2760 2833 2787 2759 2806
8 2742 2687 2739 2789 2792 2741 2788 2835
8 2743 2688 2740 2790 2793 2742 2789 2836
8 2792 2741 2791 2838 2745 2689 2744 2795
8 2793 2742 2792 2839 2746 2690 2745 2796
8 2795 2744 2794 2841 2748 2693 2749 2798
8 2796 2745 2795 2842 2747 2692 2748 2797
8 2797 2748 2798 2843 2750 2695 2751 2800
8 2798 2749 2799 2844 2751 2696 2752 2801
8 2800 2751 2801 2845 2753 2698 2754 2802
8 2808 2762 2803 2847 2763 2713 2756 2804
8 2809 2763 2804 2848 2764 2714 2757 2805
8 2806 2759 2710 2761 2848 2804 2757 2805
8 2765 2716 2766 2811 2808 2762 2807 2850
8 2810 2765 2808 2851 2767 2718 2763 2809
8 2810 2765 2718 2767 2852 2811 2768 2813
8 2811 2766 2719 2768 2853 2812 2769 2814
8 2855 2814 2768 2813 2816 2771 2721 2770
8 2856 2815 2769 2814 2817 2772 2722 2771
8 2773 2724 2774 2819 2816 2771 2817 2858
8 2774 2725 2775 2820 2817 2772 2818 2859
8 2776 2727 2777 2822 2819 2774 2820 2861
8 2777 2728 2778 2823 2820 2775 2821 2862
8 2779 2730 2780 2825 2822 2777 2823 2864
8 2823 2778 2731 2780 2865 2824 2781 2826
8 2825 2780 2733 2782 2866 2826 2783 2827
8 2869 2828 2785 2830 2847 2803 2756 2804
8 2871 2829 2786 2832 2830 2785 2738 2787
8 2872 2830 2787 2833 2848 2804 2759 2806
8 2789 2739 2786 2832 2835 2788 2831 2874
8 2836 2789 2740 2790 2875 2832 2787 2833
8 2792 2741 2788 2835 2838 2791 2834 2877
8 2793 2742 2789 2836 2839 2792 2835 2878
8 2838 2791 2837 2880 2795 2744 2794 2841
8 2839 2792 2838 2881 2796 2745 2795 2842
8 2841 2794 2840 2882 2798 2749 2799 2844
8 2842 2795 2841 2883 2797 2748 2798 2843
8 2843 2798 2844 2884 2800 2751 2801 2845
8 2886 2846 2803 2847 2850 2807 2762 2808
8 2851 2808 2847 2887 2809 2763 2804 2848
8 2850 2807 2766 2811 2889 2849 2812 2853
8 2810 2765 2811 2852 2851 2808 2850 2890
8 2852 2811 2768 2813 2891 2853 2814 2855
8 2853 2812 2769 2814 2892 2854 2815 2856
8 2894 2856 2814 2855 2858 2817 2771 2816
8 2817 2772 2818 2859 2856 2815 2857 2895
8 2819 2774 2820 2861 2858 2817 2859 2897
8 2820 2775 2821 2862 2859 2818 2860 2898
8 2822 2777 2823 2864 2861 2820 2862 2900
8 2823 2778 2824 2865 2862 2821 2863 2901
8 2864 2823 2780 2825 2902 2865 2826 2866
8 2904 2867 2828 2869 2886 2846 2803 2847
8 2869 2828 2868 2906 2830 2785 2829 2871
8 2907 2869 2830 2872 2887 2847 2804 2848
8 2871 2829 2870 2909 2832 2786 2831 2874
8 2910 2871 2832 2875 2872 2830 2787 2833
8 2835 2788 2831 2874 2877 2834 2873 2912
8 2836 2789 2832 2875 2878 2835 2874 2913
8 2877 2834 2876 2915 2838 2791 2837 2880
8 2839 2792 2835 2878 2881 2838 2877 2916
8 2880 2837 2879 2917 2841 2794 2840 2882
8 2881 2838 2880 2918 2842 2795 2841 2883
8 2883 2841 2882 2919 2843 2798 2844 2884
8 2921 2885 2846 2886 2889 2849 2807 2850
8 2922 2886 2847 2887 2890 2850 2808 2851
8 2889 2849 2812 2853 2924 2888 2854 2892
8 2890 2850 2811 2852 2925 2889 2853 2891
8 2891 2853 2814 2855 2926 2892 2856 2894
8 2892 2854 2815 2856 2927 2893 2857 2895
8 2858 2817 2859 2897 2894 2856 2895 2929
8 2859 2818 2860 2898 2895 2857 2896 2930
8 2861 2820 2862 2900 2897 2859 2898 2932
8 2862 2821 2863 2901 2898 2860 2899 2933
8 2864 2823 2865 2902 2900 2862 2901 2934
8 2904 2867 2846 2886 2936 2903 2885 2921
8 2904 2867 2903 2936 2869 2828 2868 2906
8 2937 2904 2869 2907 2922 2886 2847 2887
8 2906 2868 2905 2939 2871 2829 2870 2909
8 2907 2869 2906 2940 2872 2830 2871 2910
8 2909 2870 2908 2942 2874 2831 2873 2912
8 2910 2871 2909 2943 2875 2832 2874 2913
8 2912 2873 2911 2945 2877 2834 2876 2915
8 2878 2835 2874 2913 2916 2877 2912 2946
8 2915 2876 2914 2947 2880 2837 2879 2917
8 2916 2877 2915 2948 2881 2838 2880 2918
8 2918 2880 2917 2949 2883 2841 2882 2919
8 2921 2885 2849 2889 2951 2920 2888 2924
8 2952 2921 2886 2922 2925 2889 2850 2890
8 2924 2888 2854 2892 2954 2923 2893 2927
8 2925 2889 2853 2891 2955 2924 2892 2926
8 2926 2892 2856 2894 2956 2927 2895 2929
8 2895 2857 2896 2930 2927 2893 2928 2957
8 2897 2859 2898 2932 2929 2895 2930 2959
8 2898 2860 2899 2933 2930 2896 2931 2960
8 2900 2862 2901 2934 2932 2898 2933 2961
8 2936 2903 2885 2921 2963 2935 2920 2951
8 2936 2903 2935 2963 2906 2868 2905 2939
8 2937 2904 2886 2922 2964 2936 2921 2952
8 2937 2904 2936 2964 2907 2869 2906 2940
8 2939 2905 2938 2966 2909 2870 2908 2942
8 2940 2906 2939 2967 2910 2871 2909 2943
8 2942 2908 2941 2969 2912 2873 2911 2945
8 2943 2909 2942 2970 2913 2874 2912 2946
8 2945 2911 2944 2971 2915 2876 2914 2947
8 2946 2912 2945 2972 2916 2877 2915 2948
8 2948 2915 2947 2973 2918 2880 2917 2949
8 2951 2920 2888 2924 2975 2950 2923 2954
8 2952 2921 2889 2925 2976 2951 2924 2955
8 2927 2893 2928 2957 2954 2923 2953 2978
8 2955 2924 2892 2926 2979 2954 2927 2956
8 2929 2895 2930 2959 2956 2927 2957 2980
8 2930 2896 2931 2960 2957 2928 2958 2981
8 2932 2898 2933 2961 2959 2930 2960 2982
8 2951 2920 2950 2975 2963 2935 2962 2984
8 2963 2935 2962 2984 2939 2905 2938 2966
8 2964 2936 2921 2952 2985 2963 2951 2976
8 2964 2936 2963 2985 2940 2906 2939 2967
8 2966 2938 2965 2987 2942 2908 2941 2969
8 2967 2939 2966 2988 2943 2909 2942 2970
8 2969 2941 2968 2989 2945 2911 2944 2971
8 2970 2942 2969 2990 2946 2912 2945 2972
8 2972 2945 2971 2991 2948 2915 2947 2973
8 2954 2923 2953 2978 2975 2950 2974 2993
8 2976 2951 2924 2955 2994 2975 2954 2979
8 2957 2928 2958 2981 2978 2953 2977 2995
8 2956 2927 2957 2980 2979 2954 2978 2996
8 2959 2930 2960 2982 2980 2957 2981 2997
8 2984 2962 2983 2999 2966 2938 2965 2987
8 2975 2950 2974 2993 2984 2962 2983 2999
8 2976 2951 2975 2994 2985 2963 2984 3000
8 2985 2963 2984 3000 2967 2939 2966 2988
8 2987 2965 2986 3001 2969 2941 2968 2989
8 2988 2966 2987 3002 2970 2942 2969 2990
8 2990 2969 2989 3003 2972 2945 2971 2991
8 2978 2953 2977 2995 2993 2974 2992 3004
8 2979 2954 2978 2996 2994 2975 2993 3005
8 2980 2957 2981 2997 2996 2978 2995 3006
8 2974 2993 2999 2983 2992 3004 3007 2998
8 2983 2999 2987 2965 2998 3007 3001 2986
8 3000 2984 2999 3008 2988 2966 2987 3002
8 2994 2975 2993 3005 3000 2984 2999 3008
8 3002 2987 3001 3009 2990 2969 2989 3003
8 2996 2978 2995 3006 3005 2993 3004 3010
8 3005 2993 3004 3010 3008 2999 3007 3011
8 3008 2999 3007 3011 3002 2987 3001 3009

CELL_TYPES 1910
12
12
12
12
12
12
12
12
12
12
12
12
12
12
12
12
12
12
12
12
12
12
12
12
12
12
12
12
12
12
12
12
12
12
12
12
12
12
12
12
12
12
12
12
12
12
12
12
12
12
12
12
12
12
12
12
12
12
12
12
12
12
12
12
12
12
12
12
12
12
12
12
12
12
12
12
12
12
12
12
12
12
12
12
12
12
12
12
12
12
12
12
12
12
12
12
12
12
12
12
12
12
12
12
12
12
12
12
12
12
12
12
12
12
12
12
12
12
12
12
12
12
12
12
12
12
12
12
12
12
12
12
12
12
12
12
12
12
12
12
12
12
12
12
12
12
12
12
12
12
12
12
12
12
12
12
12
12
12
12
12
12
12
12
12
12
12
12
12
12
12
12
12
12
12
12
12
12
12
12
12
12
12
12
12
12
12
12
12
12
12
12
12
12
12
12
12
12
12
12
12
12
12
12
12
12
12
12
12
12
12
12
12
12
12
12
12
12
12
12
12
12
12
12
12
12
12
12
12
12
12
12
12
12
12
12
12
12
12
12
12
12
12
12
12
12
12
12
12
12
12
12
12
12
12
12
12
12
12
12
12
12
12
12
12
12
12
12
12
12
12
12
12
12
12
12
12
12
12
12
12
12
12
12
12
12
12
12
12
12
12
12
12
12
12
12
12
12
12
12
12
12
12
12
12
12
12
12
12
12
12
12
12
12
12
12
12
12
12
12
12
12
12
12
12
12
12
12
12
12
12
12
12
12
12
12
12
12
12
12
12
12
12
12
12
12
12
12
12
12
12
12
12
12
12
12
12
12
12
12
12
12
12
12
12
12
12
12
12
12
12
12
12
12
12
12
12
12
12
12
12
12
12
12
12
12
12
12
12
12
12
12
12
12
12
12
12
12
12
12
12
12
12
12
12
12
12
12
12
12
12
12
12
12
12
12
12
12
12
12
12
12
12
12
12
12
12
12
12
12
12
12
12
12
12
12
12
12
12
12
12
12
12
12
12
12
12
12
12
12
12
12
12
12
12
12
12
12
12
12
12
12
12
12
12
12
12
12
12
12
12
12
12
12
12
12
12
12
12
12
12
12
12
12
12
12
12
12
12
12
12
12
12
12
12
12
12
12
12
12
12
12
12
12
12
12
12
12
12
12
12
12
12
12
12
12
12
12
12
12
12
12
12
12
12
12
12
12
12
12
12
12
12
12
12
12
12
12
12
12
12
12
12
12
12
12
12
12
12
12
12
12
12
12
12
12
12
12
12
12
12
12
12
12
12
12
12
12
12
12
12
12
12
12
12
12
12
12
12
12
12
12
12
12
12
12
12
12
12
12
12
12
12
12
12
12
12
12
12
12
12
12
12
12
12
12
12
12
12
12
12
12
12
12
12
12
12
12
12
12
12
12
12
12
12
12
12
12
12
12
12
12
12
12
12
12
12
12
12
12
12
12
12
12
12
12
12
12
12
12
12
12
12
12
12
12
12
12
12
12
12
12
12
12
12
12
12
12
12
12
12
12
12
12
12
12
12
12
12
12
12
12
12
12
12
12
12
12
12
12
12
12
12
12
12
12
12
12
12
12
12
12
12
12
12
12
12
12
12
12
12
12
12
12
12
12
12
12
12
12
12
12
12
12
12
12
12
12
12
12
12
12
12
12
12
12
12
12
12
12
12
12
12
12
12
12
12
12
12
12
12
12
12
12
12
12
12
12
12
12
12
12
12
12
12
12
12
12
12
12
12
12
12
12
12
12
12
12
12
12
12
12
12
12
12
12
12
12
12
12
12
12
12
12
12
12
12
12
12
12
12
12
12
12
12
12
12
12
12
12
12
12
12
12
12
12
12
12
12
12
12
12
12
12
12
12
12
12
12
12
12
12
12
12
12
12
12
12
12
12
12
12
12
12
12
12
12
12
12
12
12
12
12
12
12
12
12
12
12
12
12
12
12
12
12
12
12
12
12
12
12
12
12
12
12
12
12
12
12
12
12
12
12
12
12
12
12
12
12
12
12
12
12
12
12
12
12
12
12
12
12
12
12
12
12
12
12
12
12
12
12
12
12
12
12
12
12
12
12
12
12
12
12
12
12
12
12
12
12
12
12
12
12
12
12
12
12
12
12
12
12
12
12
12
12
12
12
12
12
12
12
12
12
12
12
12
12
12
12
12
12
12
12
12
12
12
12
12
12
12
12
12
12
12
12
12
12
12
12
12
12
12
12
12
12
12
12
12
12
12
12
12
12
12
12
12
12
12
12
12
12
12
12
12
12
12
12
12
12
12
12
12
12
12
12
12
12
12
12
12
12
12
12
12
12
12
12
12
12
12
12
12
12
12
12
12
12
12
12
12
12
12
12
12
12
12
12
12
12
12
12
12
12
12
12
12
12
12
12
12
12
12
12
12
12
12
12
12
12
12
12
12
12
12
12
12
12
12
12
12
12
12
12
12
12
12
12
12
12
12
12
12
12
12
12
12
12
12
12
12
12
12
12
12
12
12
12
12
12
12
12
12
12
12
12
12
12
12
12
12
12
12
12
12
12
12
12
12
12
12
12
12
12
12
12
12
12
12
12
12
12
12
12
12
12
12
12
12
12
12
12
12
12
12
12
12
12
12
12
12
12
12
12
12
12
12
12
12
12
12
12
12
12
12
12
12
12
12
12
12
12
12
12
12
12
12
12
12
12
12
12
12
12
12
12
12
12
12
12
12
12
12
12
12
12
12
12
12
12
12
12
12
12
12
12
12
12
12
12
12
12
12
12
12
12
12
12
12
12
12
12
12
12
12
12
12
12
12
12
12
12
12
12
12
12
12
12
12
12
12
12
12
12
12
12
12
12
12
12
12
12
12
12
12
12
12
12
12
12
12
12
12
12
12
12
12
12
12
12
12
12
12
12
12
12
12
12
12
12
12
12
12
12
12
12
12
12
12
12
12
12
12
12
12
12
12
12
12
12
12
12
12
12
12
12
12
12
12
12
12
12
12
12
12
12
12
12
12
12
12
12
12
12
12
12
12
12
12
12
12
12
12
12
12
12
12
12
12
12
12
12
12
12
12
12
12
12
12
12
12
12
12
12
12
12
12
12
12
12
12
12
12
12
12
12
12
12
12
12
12
12
12
12
12
12
12
12
12
12
12
12
12
12
12
12
12
12
12
12
12
12
12
12
12
12
12
12
12
12
12
12
12
12
12
12
12
12
12
12
12
12
12
12
12
12
12
12
12
12
12
12
12
12
12
12
12
12
12
12
12
12
12
12
12
12
12
12
12
12
12
12
12
12
12
12
12
12
12
12
12
12
12
12
12
12
12
12
12
12
12
12
12
12
12
12
12
12
12
12
12
12
12
12
12
12
12
12
12
12
12
12
12
12
12
12
12
12
12
12
12
12
12
12
12
12
12
12
12
12
12
12
12
12
12
12
12
12
12
12
12
12
12
12
12
12
12
12
12
12
12
12
12
12
12
12
12
12
12
12
12
12
12
12
12
12
12
12
12
12
12
12
12
12
12
12
12
12
12
12
12
12
12
12
12
12
12
12
12
12
12
12
12
12
12
12
12
12
12
12
12
12
12
12
12
12
12
12
12
12
12
12
12
12
12
12
12
12
12
12
12
12
12
12
12
12
12
12
12
12
12
12
12
12
12
12
12
12
12
12
12
12
12
12
12
12
12
12
12
12
12
12
12
12
12
12
12
12
12
12
12
12
12
12
12
12
12
12
12
12
12
12
12
12
12
12
12
12
12
12
12
12
12
12
12
12
12
12
12
12
12
12
12
12
12
12
12
12
12
12
12
12
12
12
12
12
12
12
12
12
12
12
12
12
12
12
12
12
12
12
12
12
12
12
12
12
12
12
12
12
12
12
12
12
12
12
12
12
12
12
12
12
12
12
12
12
12
12
12
12
12
12
12
12
12
12
12
12
12
12
12
12
12
12
12
12
12
12
12
12
12
12
12
12
12
12
12
12
12
12
12
12
12
12
12
12
12
12
12
12
12
12
12
12
12
12
12
12
12
12
12
12
12
12
12
12
12
12
12
12
12
12
12
12
12
12
12
12
12
12
12
12
12
12
12
12
12
12
12
12
12
12
12
12
12
12
12
12
12
12
12
12
12
12
12
12
12
12
12
12
12
12
12
12
12
12
12
12
12
12
12
12
12
12
12
12
12
12
12
12
12
12
12
12
12
12
12
12
12
12
12
12
12
12
12
12
12
12
12
12
12
12
12
12
12
12
12
12
12
12
12
12
12
12
12
12
12
12
12
12
12
12
12
12
12
12
12
12
12
12
12
12
12
12
12
12
12
12
12
12
12

POINT_DATA 3012
SCALARS Jp_lamdaP float 4
LOOKUP_TABLE default
1 1 1 1
1 1 1 1
1 1 1 1
1 1 1 1
1 1 1 1
1 1 1 1
0.999999 1 1 0.999999
1 1 1 1
1 1 1 1
1 1 1 1
1 1 1 1
1 1 1 1
1 1 1 1
1 1 1 1
1 1 1 1
1 1 1 1
1 1 1 1
1 1 1 1
0.999999 1 1 0.999999
1 1 1 1
1 1 1 1
1 1 1 1
0.999995 1 1 0.999995
0.999998 1 1 0.999998
1 1 1 1
1 1 1 1
0.999992 1 1 0.999992
1 1 1 1
1 1 1 1
1 1 1 1
1 1 1 1
1 1 1 1
1 1 1 1
1 1 1 1
1 1 1 1
1 1 1 1
1 1 1 1
1 1 1 1
0.999997 1 1 0.999997
1 1 1 1
1 1 1 1
1 1 1 1
1 1 1 1
1 1 1 1
0.999998 1 1 0.999998
1 1 1 1
1 1 1 1
1 1 1 1
1 1 1 1
1 1 1 1
0.999999 1 1 0.999999
1 1 1 1
1 1 1 1
1 1 1 1
1 1 1 1
0.999995 1 1 0.999995
1 1 1 1
0.999998 1 1 0.999998
0.999991 1 1 0.999991
1 1 1 1
1 1 1 1
0.999997 1 1 0.999997
0.999994 1 1 0.999994
0.999997 1 1 0.999997
0.999978 1 1 0.999978
0.999985 1 1 0.999985
1 1 1 1
1 1 1 1
0.999995 1 1 0.999995
0.999965 1 1 0.999965
1 1 1 1
1 1 1 1
1 1 1 1
1 1 1 1
1 1 1 1
1 1 1 1
1 1 1 1
1 1 1 1
1 1 1 1
1 1 1 1
0.999997 1 1 0.999997
1 1 1 1
1 1 1 1
1 1 1 1
1 1 1 1
0.999982 1 1 0.999982
1 1 1 1
0.999994 1 1 0.999994
0.999998 1 1 0.999998
0.999977 1 1 0.999977
1 1 1 1
1 1 1 1
1 1 1 1
1 1 1 1
1 1 1 1
1 1 1 1
0.999998 1 1 0.999998
1 1 1 1
1 1 1 1
1 1 1 1
0.999997 1 1 0.999997
0.999999 1 1 0.999999
0.999969 1 1 0.999969
1 1 1 1
0.999971 1 1 0.999971
1 1 1 1
1 1 1 1
1 1 1 1
1 1 1 1
0.999996 1 1 0.999996
0.999999 1 1 0.999999
1 1 1 1
0.99999 1 1 0.99999
1 1 1 1
1 1 1 1
0.999994 1 1 0.999994
0.999994 1 1 0.999994
1 1 1 1
1 1 1 1
0.999997 1 1 0.999997
0.999977 1 1 0.999977
0.999994 1 1 0.999994
0.999986 1 1 0.999986
0.999965 1 1 0.999965
0.999997 1 1 0.999997
0.999993 1 1 0.999993
0.999969 1 1 0.999969
0.999972 1 1 0.999972
0.99998 1 1 0.99998
0.999954 1 1 0.999954
1 1 1 1
0.999962 1 1 0.999962
1 1 1 1
0.999998 1 1 0.999998
0.999969 1 1 0.999969
0.999953 1 1 0.999953
1 1 1 1
0.999999 1 1 0.999999
1 1 1 1
1 1 1 1
1 1 1 1
1 1 1 1
1 1 1 1
1 1 1 1
0.999998 1 1 0.999998
1 1 1 1
1 1 1 1
1 1 1 1
1 1 1 1
0.999982 1 1 0.999982
1 1 1 1
0.999995 1 1 0.999995
0.999999 1 1 0.999999
0.999975 1 1 0.999975
1 1 1 1
1 1 1 1
1 1 1 1
0.999977 1 1 0.999977
0.999989 1 1 0.999989
0.999956 1 1 0.999956
0.999999 1 1 0.999999
0.999969 1 1 0.999969
0.999979 1 1 0.999979
0.999964 1 1 0.999964
1 1 1 1
1 1 1 1
1 1 1 1
1 1 1 1
1 1 1 1
1 1 1 1
1 1 1 1
1 1 1 1
0.999998 1 1 0.999998
1 1 1 1
1 1 1 1
0.999998 1 1 0.999998
0.999999 1 1 0.999999
0.999969 1 1 0.999969
1 1 1 1
0.999971 1 1 0.999971
0.999997 1 1 0.999997
0.999971 1 1 0.999971
0.999969 1 1 0.999969
0.999952 1 1 0.999952
0.999974 1 1 0.999974
0.999951 1 1 0.999951
1 1 1 1
1 1 1 1
0.999992 1 1 0.999992
0.999994 1 1 0.999994
1 1 1 1
1 1 1 1
0.999997 1 1 0.999997
0.999975 1 1 0.999975
0.999988 1 1 0.999988
0.999994 1 1 0.999994
0.999965 1 1 0.999965
0.999997 1 1 0.999997
0.999993 1 1 0.999993
0.999966 1 1 0.999966
0.999973 1 1 0.999973
1 1 1 1
1 1 1 1
0.999997 1 1 0.999997
0.99998 1 1 0.99998
0.999952 1 1 0.999952
0.999968 1 1 0.999968
0.999963 1 1 0.999963
0.999953 1 1 0.999953
1 1 1 1
0.999999 1 1 0.999999
0.999969 1 1 0.999969
0.999969 1 1 0.999969
0.999949 1 1 0.999949
0.999946 1 1 0.999946
0.999959 1 1 0.999959
0.999943 1 1 0.999943
1 1 1 1
0.999951 1 1 0.999951
0.999999 1 1 0.999999
0.999972 1 1 0.999972
0.999957 1 1 0.999957
0.999949 1 1 0.999949
0.999999 1 1 0.999999
1 1 1 1
0.999983 1 1 0.999983
1 1 1 1
1 1 1 1
1 1 1 1
1 1 1 1
0.999983 1 1 0.999983
1 1 1 1
0.999999 1 1 0.999999
0.999995 1 1 0.999995
0.999974 1 1 0.999974
1 1 1 1
1 1 1 1
1 1 1 1
0.999977 1 1 0.999977
0.999989 1 1 0.999989
0.999956 1 1 0.999956
0.999999 1 1 0.999999
0.99997 1 1 0.99997
0.999979 1 1 0.999979
0.999962 1 1 0.999962
1 1 1 1
1 1 1 1
1 1 1 1
0.999986 1 1 0.999986
0.999953 1 1 0.999953
0.999963 1 1 0.999963
0.999944 1 1 0.999944
0.999983 1 1 0.999983
0.999956 1 1 0.999956
0.999962 1 1 0.999962
0.999954 1 1 0.999954
1 1 1 1
1 1 1 1
1 1 1 1
1 1 1 1
1 1 1 1
1 1 1 1
1 1 1 1
1 1 1 1
1 1 1 1
1 1 1 1
0.999999 1 1 0.999999
0.999971 1 1 0.999971
0.999969 1 1 0.999969
0.999998 1 1 0.999998
1 1 1 1
0.999997 1 1 0.999997
0.999971 1 1 0.999971
0.999969 1 1 0.999969
0.999952 1 1 0.999952
0.999974 1 1 0.999974
0.999951 1 1 0.999951
0.999971 1 1 0.999971
0.999957 1 1 0.999957
0.99995 1 1 0.99995
0.999946 1 1 0.999946
0.999953 1 1 0.999953
0.999945 1 1 0.999945
0.999997 1 1 0.999997
0.999993 1 1 0.999993
0.999963 1 1 0.999963
0.999975 1 1 0.999975
1 1 1 1
1 1 1 1
0.999996 1 1 0.999996
0.99998 1 1 0.99998
0.999949 1 1 0.999949
0.999965 1 1 0.999965
0.999968 1 1 0.999968
0.999953 1 1 0.999953
1 1 1 1
0.999999 1 1 0.999999
0.999968 1 1 0.999968
0.999969 1 1 0.999969
0.999949 1 1 0.999949
0.999948 1 1 0.999948
1 1 1 1
0.999998 1 1 0.999998
0.999973 1 1 0.999973
0.99996 1 1 0.99996
0.999942 1 1 0.999942
0.999955 1 1 0.999955
0.999951 1 1 0.999951
0.999949 1 1 0.999949
0.999999 1 1 0.999999
0.999982 1 1 0.999982
1 1 1 1
0.999954 1 1 0.999954
0.999947 1 1 0.999947
0.999941 1 1 0.999941
0.999937 1 1 0.999937
0.999948 1 1 0.999948
0.999941 1 1 0.999941
0.999999 1 1 0.999999
0.999947 1 1 0.999947
0.999979 1 1 0.999979
0.999957 1 1 0.999957
0.999949 1 1 0.999949
0.999951 1 1 0.999951
1 1 1 1
0.999983 1 1 0.999983
0.999981 1 1 0.999981
0.999969 1 1 0.999969
0.999977 1 1 0.999977
1 1 1 1
1 1 1 1
1 1 1 1
0.99999 1 1 0.99999
0.999956 1 1 0.999956
1 1 1 1
0.999979 1 1 0.999979
0.999971 1 1 0.999971
0.999961 1 1 0.999961
1 1 1 1
1 1 1 1
1 1 1 1
0.999986 1 1 0.999986
0.999953 1 1 0.999953
0.999963 1 1 0.999963
0.999944 1 1 0.999944
0.999983 1 1 0.999983
0.999958 1 1 0.999958
0.999961 1 1 0.999961
0.999955 1 1 0.999955
1 1 1 1
1 1 1 1
0.999985 1 1 0.999985
0.999986 1 1 0.999986
0.999967 1 1 0.999967
0.999945 1 1 0.999945
0.99995 1 1 0.99995
0.999941 1 1 0.999941
0.999963 1 1 0.999963
0.999951 1 1 0.999951
0.999947 1 1 0.999947
1 1 1 1
0.999989 1 1 0.999989
1 1 1 1
1 1 1 1
1 1 1 1
1 1 1 1
1 1 1 1
1 1 1 1
1 1 1 1
1 1 1 1
1 1 1 1
1 1 1 1
1 1 1 1
1 1 1 1
1 1 1 1
0.999974 1 1 0.999974
0.999969 1 1 0.999969
0.999951 1 1 0.999951
0.999952 1 1 0.999952
0.999971 1 1 0.999971
0.999997 1 1 0.999997
0.999971 1 1 0.999971
0.999956 1 1 0.999956
0.99995 1 1 0.99995
0.999946 1 1 0.999946
0.999953 1 1 0.999953
0.999945 1 1 0.999945
0.999957 1 1 0.999957
0.999951 1 1 0.999951
0.999944 1 1 0.999944
0.999943 1 1 0.999943
0.999946 1 1 0.999946
0.999945 1 1 0.999945
0.999966 1 1 0.999966
0.999969 1 1 0.999969
0.999949 1 1 0.999949
0.99995 1 1 0.99995
1 1 1 1
0.999998 1 1 0.999998
0.999975 1 1 0.999975
0.99996 1 1 0.99996
0.999941 1 1 0.999941
0.999951 1 1 0.999951
0.999954 1 1 0.999954
0.999949 1 1 0.999949
0.999999 1 1 0.999999
0.999981 1 1 0.999981
1 1 1 1
0.999953 1 1 0.999953
0.999947 1 1 0.999947
0.99994 1 1 0.99994
0.999938 1 1 0.999938
0.999999 1 1 0.999999
0.999979 1 1 0.999979
0.999958 1 1 0.999958
0.999949 1 1 0.999949
0.999941 1 1 0.999941
0.999948 1 1 0.999948
0.999947 1 1 0.999947
0.999952 1 1 0.999952
0.999983 1 1 0.999983
0.999967 1 1 0.999967
1 1 1 1
0.999981 1 1 0.999981
0.999945 1 1 0.999945
0.999937 1 1 0.999937
0.999935 1 1 0.999935
0.999936 1 1 0.999936
0.999946 1 1 0.999946
0.999942 1 1 0.999942
0.999982 1 1 0.999982
0.999951 1 1 0.999951
0.999961 1 1 0.999961
0.999948 1 1 0.999948
0.999946 1 1 0.999946
0.999954 1 1 0.999954
1 1 1 1
0.999981 1 1 0.999981
0.999967 1 1 0.999967
0.999966 1 1 0.999966
0.999958 1 1 0.999958
1 1 1 1
0.999953 1 1 0.999953
1 1 1 1
1 1 1 1
0.999986 1 1 0.999986
0.999963 1 1 0.999963
0.999944 1 1 0.999944
0.999983 1 1 0.999983
0.999961 1 1 0.999961
0.999959 1 1 0.999959
0.999957 1 1 0.999957
1 1 1 1
1 1 1 1
0.999985 1 1 0.999985
0.999986 1 1 0.999986
0.999966 1 1 0.999966
0.999944 1 1 0.999944
0.99995 1 1 0.99995
0.999941 1 1 0.999941
0.999964 1 1 0.999964
0.999951 1 1 0.999951
0.999947 1 1 0.999947
1 1 1 1
0.999987 1 1 0.999987
0.999965 1 1 0.999965
0.999967 1 1 0.999967
0.999958 1 1 0.999958
0.999945 1 1 0.999945
0.999945 1 1 0.999945
0.99995 1 1 0.99995
0.999949 1 1 0.999949
0.99994 1 1 0.99994
1 1 1 1
0.999985 1 1 0.999985
0.999987 1 1 0.999987
0.999972 1 1 0.999972
0.999989 1 1 0.999989
1 1 1 1
1 1 1 1
1 1 1 1
1 1 1 1
1 1 1 1
1 1 1 1
1 1 1 1
1 1 1 1
1 1 1 1
1 1 1 1
1 1 1 1
1 1 1 1
1 1 1 1
1 1 1 1
1 1 1 1
0.999952 1 1 0.999952
0.99995 1 1 0.99995
0.999945 1 1 0.999945
0.999947 1 1 0.999947
0.999956 1 1 0.999956
0.999971 1 1 0.999971
0.999957 1 1 0.999957
0.999952 1 1 0.999952
0.999944 1 1 0.999944
0.999942 1 1 0.999942
0.999946 1 1 0.999946
0.999944 1 1 0.999944
0.999952 1 1 0.999952
0.99995 1 1 0.99995
0.99994 1 1 0.99994
0.999937 1 1 0.999937
0.999948 1 1 0.999948
0.999945 1 1 0.999945
0.999953 1 1 0.999953
0.999946 1 1 0.999946
0.999939 1 1 0.999939
0.999939 1 1 0.999939
0.999999 1 1 0.999999
0.999979 1 1 0.999979
0.99996 1 1 0.99996
0.999949 1 1 0.999949
0.999941 1 1 0.999941
0.999947 1 1 0.999947
0.999947 1 1 0.999947
0.999952 1 1 0.999952
0.999983 1 1 0.999983
0.999965 1 1 0.999965
1 1 1 1
0.999981 1 1 0.999981
0.999945 1 1 0.999945
0.999937 1 1 0.999937
0.999934 1 1 0.999934
0.999936 1 1 0.999936
0.999982 1 1 0.999982
0.999962 1 1 0.999962
0.999948 1 1 0.999948
0.999946 1 1 0.999946
0.999942 1 1 0.999942
0.999946 1 1 0.999946
0.999951 1 1 0.999951
0.999955 1 1 0.999955
0.999967 1 1 0.999967
0.999957 1 1 0.999957
0.999966 1 1 0.999966
0.999999 1 1 0.999999
0.999981 1 1 0.999981
0.999941 1 1 0.999941
0.999932 1 1 0.999932
0.999938 1 1 0.999938
0.999947 1 1 0.999947
0.999966 1 1 0.999966
0.999958 1 1 0.999958
0.999951 1 1 0.999951
0.999941 1 1 0.999941
0.999946 1 1 0.999946
0.999997 1 1 0.999997
0.999984 1 1 0.999984
0.999965 1 1 0.999965
0.999957 1 1 0.999957
0.999953 1 1 0.999953
0.999951 1 1 0.999951
1 1 1 1
1 1 1 1
0.999944 1 1 0.999944
0.999986 1 1 0.999986
0.999985 1 1 0.999985
0.999966 1 1 0.999966
0.99995 1 1 0.99995
0.999941 1 1 0.999941
0.999964 1 1 0.999964
0.999948 1 1 0.999948
0.999952 1 1 0.999952
1 1 1 1
0.999987 1 1 0.999987
0.999966 1 1 0.999966
0.999967 1 1 0.999967
0.999957 1 1 0.999957
0.999945 1 1 0.999945
0.999944 1 1 0.999944
0.999951 1 1 0.999951
0.999949 1 1 0.999949
0.999939 1 1 0.999939
0.999987 1 1 0.999987
0.999965 1 1 0.999965
0.999953 1 1 0.999953
0.999955 1 1 0.999955
0.99995 1 1 0.99995
0.999959 1 1 0.999959
0.999942 1 1 0.999942
0.999951 1 1 0.999951
0.999941 1 1 0.999941
0.999931 1 1 0.999931
1 1 1 1
0.999986 1 1 0.999986
0.999966 1 1 0.999966
0.999986 1 1 0.999986
0.999989 1 1 0.999989
0.99997 1 1 0.99997
0.999958 1 1 0.999958
0.999968 1 1 0.999968
0.999989 1 1 0.999989
1 1 1 1
1 1 1 1
1 1 1 1
1 1 1 1
1 1 1 1
1 1 1 1
1 1 1 1
1 1 1 1
1 1 1 1
1 1 1 1
1 1 1 1
1 1 1 1
1 1 1 1
1 1 1 1
1 1 1 1
0.999946 1 1 0.999946
0.999944 1 1 0.999944
0.999944 1 1 0.999944
0.999941 1 1 0.999941
0.999953 1 1 0.999953
0.999957 1 1 0.999957
0.999953 1 1 0.999953
0.99995 1 1 0.99995
0.99994 1 1 0.99994
0.999935 1 1 0.999935
0.999948 1 1 0.999948
0.999944 1 1 0.999944
0.999955 1 1 0.999955
0.999945 1 1 0.999945
0.999934 1 1 0.999934
0.999956 1 1 0.999956
0.999946 1 1 0.999946
0.999937 1 1 0.999937
0.999933 1 1 0.999933
0.999937 1 1 0.999937
0.999982 1 1 0.999982
0.999963 1 1 0.999963
0.999948 1 1 0.999948
0.999946 1 1 0.999946
0.999942 1 1 0.999942
0.999951 1 1 0.999951
0.999946 1 1 0.999946
0.999957 1 1 0.999957
0.999967 1 1 0.999967
0.999956 1 1 0.999956
0.999966 1 1 0.999966
0.999997 1 1 0.999997
0.999981 1 1 0.999981
0.999939 1 1 0.999939
0.999933 1 1 0.999933
0.999938 1 1 0.999938
0.999966 1 1 0.999966
0.999953 1 1 0.999953
0.999941 1 1 0.999941
0.999947 1 1 0.999947
0.999947 1 1 0.999947
0.999958 1 1 0.999958
0.999997 1 1 0.999997
0.999957 1 1 0.999957
0.999951 1 1 0.999951
0.999954 1 1 0.999954
0.999966 1 1 0.999966
0.999983 1 1 0.999983
0.999938 1 1 0.999938
0.999932 1 1 0.999932
0.999943 1 1 0.999943
0.999955 1 1 0.999955
0.999956 1 1 0.999956
0.999954 1 1 0.999954
0.999942 1 1 0.999942
0.999937 1 1 0.999937
0.999998 1 1 0.999998
0.999984 1 1 0.999984
0.999967 1 1 0.999967
0.99995 1 1 0.99995
0.999949 1 1 0.999949
0.999946 1 1 0.999946
1 1 1 1
0.999987 1 1 0.999987
0.999945 1 1 0.999945
0.999967 1 1 0.999967
0.999967 1 1 0.999967
0.999955 1 1 0.999955
0.999944 1 1 0.999944
0.999951 1 1 0.999951
0.999948 1 1 0.999948
0.999938 1 1 0.999938
0.999987 1 1 0.999987
0.999966 1 1 0.999966
0.999954 1 1 0.999954
0.999955 1 1 0.999955
0.99995 1 1 0.99995
0.999959 1 1 0.999959
0.999942 1 1 0.999942
0.999955 1 1 0.999955
0.99994 1 1 0.99994
0.999929 1 1 0.999929
0.999965 1 1 0.999965
0.999952 1 1 0.999952
0.999945 1 1 0.999945
0.999946 1 1 0.999946
0.99996 1 1 0.99996
0.999963 1 1 0.999963
0.999934 1 1 0.999934
0.999928 1 1 0.999928
0.999988 1 1 0.999988
0.999968 1 1 0.999968
0.999956 1 1 0.999956
0.999989 1 1 0.999989
0.999967 1 1 0.999967
0.999989 1 1 0.999989
0.999956 1 1 0.999956
0.999969 1 1 0.999969
0.999948 1 1 0.999948
0.999955 1 1 0.999955
0.999968 1 1 0.999968
0.999988 1 1 0.999988
1 1 1 1
1 1 1 1
1 1 1 1
1 1 1 1
1 1 1 1
1 1 1 1
1 1 1 1
1 1 1 1
1 1 1 1
1 1 1 1
1 1 1 1
1 1 1 1
1 1 1 1
1 1 1 1
1 1 1 1
0.999948 1 1 0.999948
0.99994 1 1 0.99994
0.999943 1 1 0.999943
0.999932 1 1 0.999932
0.99995 1 1 0.99995
0.999953 1 1 0.999953
0.999953 1 1 0.999953
0.999945 1 1 0.999945
0.999936 1 1 0.999936
0.999954 1 1 0.999954
0.99995 1 1 0.99995
0.999941 1 1 0.999941
0.999947 1 1 0.999947
0.999938 1 1 0.999938
0.999934 1 1 0.999934
0.999938 1 1 0.999938
0.999965 1 1 0.999965
0.999954 1 1 0.999954
0.99994 1 1 0.99994
0.999946 1 1 0.999946
0.999958 1 1 0.999958
0.999949 1 1 0.999949
0.999957 1 1 0.999957
0.999952 1 1 0.999952
0.999955 1 1 0.999955
0.999997 1 1 0.999997
0.999966 1 1 0.999966
0.999982 1 1 0.999982
0.99994 1 1 0.99994
0.999931 1 1 0.999931
0.999942 1 1 0.999942
0.999956 1 1 0.999956
0.999943 1 1 0.999943
0.999938 1 1 0.999938
0.999957 1 1 0.999957
0.999954 1 1 0.999954
0.999999 1 1 0.999999
0.999984 1 1 0.999984
0.999949 1 1 0.999949
0.999946 1 1 0.999946
0.999951 1 1 0.999951
0.999966 1 1 0.999966
0.999943 1 1 0.999943
0.999931 1 1 0.999931
0.999957 1 1 0.999957
0.999963 1 1 0.999963
0.999946 1 1 0.999946
0.999941 1 1 0.999941
0.999936 1 1 0.999936
1 1 1 1
0.999989 1 1 0.999989
0.999983 1 1 0.999983
0.999964 1 1 0.999964
0.999951 1 1 0.999951
0.999942 1 1 0.999942
0.999945 1 1 0.999945
0.99994 1 1 0.99994
0.999987 1 1 0.999987
0.999967 1 1 0.999967
0.99996 1 1 0.99996
0.999956 1 1 0.999956
0.999956 1 1 0.999956
0.99995 1 1 0.99995
0.999942 1 1 0.999942
0.999958 1 1 0.999958
0.999939 1 1 0.999939
0.999926 1 1 0.999926
0.999965 1 1 0.999965
0.999953 1 1 0.999953
0.999946 1 1 0.999946
0.999947 1 1 0.999947
0.999959 1 1 0.999959
0.999962 1 1 0.999962
0.999935 1 1 0.999935
0.999927 1 1 0.999927
0.999954 1 1 0.999954
0.999955 1 1 0.999955
0.999944 1 1 0.999944
0.999937 1 1 0.999937
0.999974 1 1 0.999974
0.999935 1 1 0.999935
0.999923 1 1 0.999923
0.999969 1 1 0.999969
0.999956 1 1 0.999956
0.999947 1 1 0.999947
0.999989 1 1 0.999989
0.99997 1 1 0.99997
0.999955 1 1 0.999955
0.999988 1 1 0.999988
0.999968 1 1 0.999968
0.999947 1 1 0.999947
0.999957 1 1 0.999957
0.999942 1 1 0.999942
0.999945 1 1 0.999945
0.999957 1 1 0.999957
0.999969 1 1 0.999969
0.999987 1 1 0.999987
1 1 1 1
1 1 1 1
1 1 1 1
1 1 1 1
1 1 1 1
1 1 1 1
1 1 1 1
1 1 1 1
1 1 1 1
1 1 1 1
1 1 1 1
1 1 1 1
1 1 1 1
1 1 1 1
1 1 1 1
1 1 1 1
0.999953 1 1 0.999953
0.999938 1 1 0.999938
0.999945 1 1 0.999945
0.999951 1 1 0.999951
0.999952 1 1 0.999952
0.99994 1 1 0.99994
0.999949 1 1 0.999949
0.999949 1 1 0.999949
0.999944 1 1 0.999944
0.999968 1 1 0.999968
0.999943 1 1 0.999943
0.999931 1 1 0.999931
0.999941 1 1 0.999941
0.999955 1 1 0.999955
0.999944 1 1 0.999944
0.999939 1 1 0.999939
0.999958 1 1 0.999958
0.999954 1 1 0.999954
0.999949 1 1 0.999949
0.999946 1 1 0.999946
0.999952 1 1 0.999952
1 1 1 1
0.999984 1 1 0.999984
0.999965 1 1 0.999965
0.999941 1 1 0.999941
1 1 1 1
0.999987 1 1 0.999987
0.999932 1 1 0.999932
0.999954 1 1 0.999954
0.999947 1 1 0.999947
0.999936 1 1 0.999936
0.999941 1 1 0.999941
0.999963 1 1 0.999963
0.999986 1 1 0.999986
0.999964 1 1 0.999964
0.999945 1 1 0.999945
0.99994 1 1 0.99994
0.999941 1 1 0.999941
0.999951 1 1 0.999951
0.999926 1 1 0.999926
0.999943 1 1 0.999943
0.999974 1 1 0.999974
0.999952 1 1 0.999952
0.999941 1 1 0.999941
0.999932 1 1 0.999932
0.999988 1 1 0.999988
0.999988 1 1 0.999988
0.999971 1 1 0.999971
0.999961 1 1 0.999961
0.999951 1 1 0.999951
0.999937 1 1 0.999937
0.999934 1 1 0.999934
0.99994 1 1 0.99994
0.999965 1 1 0.999965
0.999954 1 1 0.999954
0.999958 1 1 0.999958
0.999961 1 1 0.999961
0.999947 1 1 0.999947
0.999947 1 1 0.999947
0.999936 1 1 0.999936
0.999927 1 1 0.999927
0.999954 1 1 0.999954
0.999962 1 1 0.999962
0.999943 1 1 0.999943
0.999936 1 1 0.999936
0.999972 1 1 0.999972
0.999936 1 1 0.999936
0.999922 1 1 0.999922
0.999944 1 1 0.999944
0.999979 1 1 0.999979
0.999937 1 1 0.999937
0.999924 1 1 0.999924
0.999937 1 1 0.999937
0.999914 1 1 0.999914
0.98708 1.00018 0.98699 0.999911
0.999956 1 1 0.999956
0.999947 1 1 0.999947
0.999941 1 1 0.999941
0.999988 1 1 0.999988
0.999968 1 1 0.999968
0.999958 1 1 0.999958
0.999946 1 1 0.999946
0.999987 1 1 0.999987
0.999968 1 1 0.999968
0.999942 1 1 0.999942
0.999957 1 1 0.999957
0.999947 1 1 0.999947
0.999939 1 1 0.999939
0.999948 1 1 0.999948
0.999957 1 1 0.999957
0.999965 1 1 0.999965
0.999983 1 1 0.999983
0.99997 1 1 0.99997
0.999983 1 1 0.999983
1 1 1 1
1 1 1 1
1 1 1 1
1 1 1 1
1 1 1 1
1 1 1 1
1 1 1 1
1 1 1 1
1 1 1 1
1 1 1 1
1 1 1 1
1 1 1 1
1 1 1 1
1 1 1 1
1 1 1 1
1 1 1 1
1 1 1 1
0.999952 1 1 0.999952
0.99994 1 1 0.99994
0.999954 1 1 0.999954
0.999949 1 1 0.999949
0.999943 1 1 0.999943
0.99998 1 1 0.99998
0.999946 1 1 0.999946
0.998614 1 0.998621 0.999994
1 1 1 1
0.999993 1 1 0.999993
0.999939 1 1 0.999939
0.999933 1 1 0.999933
0.999952 1 1 0.999952
0.999947 1 1 0.999947
0.999935 1 1 0.999935
0.999941 1 1 0.999941
0.999963 1 1 0.999963
0.999945 1 1 0.999945
0.99994 1 1 0.99994
0.99994 1 1 0.99994
1 1 1 1
0.999951 1 1 0.999951
0.999989 1 1 0.999989
0.999964 1 1 0.999964
0.999986 1 1 0.999986
0.999923 1 1 0.999923
0.999989 1 1 0.999989
0.999988 1 1 0.999988
0.999969 1 1 0.999969
0.999943 1 1 0.999943
0.999971 1 1 0.999971
0.999941 1 1 0.999941
0.999932 1 1 0.999932
0.999952 1 1 0.999952
0.999963 1 1 0.999963
0.99995 1 1 0.99995
0.99994 1 1 0.99994
0.999935 1 1 0.999935
0.999938 1 1 0.999938
0.99996 1 1.00004 0.999915
0.999914 1 0.999943 0.999971
0.999964 1 1 0.999964
0.999936 1 1 0.999936
0.999937 1 1 0.999937
0.999968 1 1 0.999968
0.999964 1 1 0.999964
0.999955 1 1 0.999955
0.999946 1 1 0.999946
0.999939 1 1 0.999939
0.999928 1 1 0.999928
0.999931 1 1 0.999931
0.999954 1 1 0.999954
0.999943 1 1 0.999943
0.99997 1 1 0.99997
0.99997 1 1 0.99997
0.999937 1 1 0.999937
0.999934 1 1 0.999934
0.999921 1 1 0.999921
0.999945 1 1 0.999945
0.999982 1 1 0.999982
0.999936 1 1 0.999936
0.999924 1 1 0.999924
0.999942 1 1 0.999942
0.999922 1 1.00001 0.999913
0.9898 1.00106 0.988838 0.999917
0.999938 1 1 0.999938
0.999926 1 1 0.999926
0.99993 1 1 0.99993
1.00012 1 1.00021 0.999909
0.999897 1 1 0.999897
0.97802 0.97829 0.999963 0.999761
0.992603 1.00131 0.991371 0.999933
0.986361 1.00128 0.985222 0.999876
0.978192 0.981802 0.996324 1
0.990891 1.00056 0.990331 1
0.999947 1 1 0.999947
0.999942 1 1 0.999942
0.999938 1 1 0.999938
0.999987 1 1 0.999987
0.999967 1 1 0.999967
0.999957 1 1 0.999957
0.999948 1 1 0.999948
0.999942 1 1 0.999942
0.999956 1 1 0.999956
0.999985 1 1 0.999985
0.999966 1 1 0.999966
0.99994 1 1 0.99994
0.999947 1 1 0.999947
0.999948 1 1 0.999948
0.99994 1 1 0.99994
0.999952 1 1 0.999952
0.999964 1 1 0.999964
0.999983 1 1 0.999983
0.999967 1 1 0.999967
0.999956 1 1 0.999956
0.999967 1 1 0.999967
0.999967 1 1 0.999967
0.999986 1 1 0.999986
0.999983 1 1 0.999983
1 1 1 1
1 1 1 1
1 1 1 1
1 1 1 1
1 1 1 1
1 1 1 1
1 1 1 1
1 1 1 1
1 1 1 1
1 1 1 1
1 1 1 1
1 1 1 1
1 1 1 1
1 1 1 1
1 1 1 1
1 1 1 1
1 1 1 1
1 1 1 1
0.999943 1 1 0.999943
0.999949 1 1 0.999949
0.999991 1 1 0.999991
0.997843 1 0.997849 0.999994
0.999946 1 1 0.999946
0.999991 1 1 0.999991
0.999973 1 1.00004 0.999935
0.996756 0.997713 0.999141 0.9999
0.999999 1 1 0.999999
0.999994 1 1 0.999994
0.999992 1 1 0.999992
0.999973 1 1 0.999973
0.999978 1 1 0.999978
0.99992 1 1 0.99992
0.999943 1 1 0.999943
0.999967 1 1 0.999967
0.999941 1 1 0.999941
0.999933 1 1 0.999933
0.999952 1 1 0.999952
0.99994 1 1 0.99994
0.999936 1 1 0.999936
0.999939 1 1 0.999939
0.999988 1 1 0.999988
0.99995 1 1 0.99995
0.999964 1 1 0.999964
0.999991 1 1 0.999991
0.999967 1 1 0.999967
0.999952 1 1.00003 0.999917
0.999971 1 1 0.999971
0.999965 1 1 0.999965
0.999957 1 1 0.999957
0.999926 1 0.999955 0.99997
0.999964 1 1 0.999964
0.999937 1 1 0.999937
0.999937 1 1 0.999937
0.999947 1 1 0.999947
0.99994 1 1 0.99994
0.999931 1 1 0.999931
0.999929 1 1 0.999929
0.999974 1 1.00003 0.999944
0.999896 1 0.999911 0.999985
0.999938 1 1 0.999938
0.999932 1 1 0.999932
0.999951 1 1 0.999951
0.999948 1 1 0.999948
0.999929 1 1 0.999929
0.999919 1 1 0.999919
0.976872 0.978977 0.998058 0.99979
0.999945 1 1 0.999945
0.999936 1 1 0.999936
0.999986 1 1 0.999986
0.999948 1 1 0.999948
0.999954 1 1.00004 0.999912
0.999924 1 1 0.999924
0.992768 1.00197 0.990891 0.999922
0.999938 1 1 0.999938
0.999928 1 1 0.999928
0.999931 1 1 0.999931
1.00004 1 1.00013 0.999909
0.999902 1 1 0.999902
0.978658 0.977874 1.00102 0.999783
0.99114 1.00083 0.990473 0.999847
0.988562 1.00205 0.986667 0.999873
0.978275 0.982282 0.995963 0.999958
0.992213 1.00067 0.991545 1
0.999937 1 1 0.999937
0.977641 0.979661 0.998002 0.999936
0.995891 0.99959 0.996299 1
0.999882 1 1 0.999882
1.00013 1 1.00021 0.999924
1.00131 1 1.00142 0.999887
0.997821 1.00145 0.996524 0.999853
0.98571 0.981649 1.00447 0.999674
0.991361 1.0034 0.988176 0.999821
0.977745 0.986476 0.991156 0.999993
0.998094 1.00053 0.997566 1
0.999942 1 1 0.999942
0.999938 1 1 0.999938
0.999937 1 1 0.999937
0.999986 1 1 0.999986
0.999967 1 1 0.999967
0.999954 1 1 0.999954
0.999947 1 1 0.999947
0.999941 1 1 0.999941
0.999983 1 1 0.999983
0.999948 1 1 0.999948
0.999954 1 1 0.999954
0.999965 1 1 0.999965
0.999939 1 1 0.999939
0.999942 1 1 0.999942
0.999936 1 1 0.999936
0.999951 1 1 0.999951
0.999966 1 1 0.999966
0.999967 1 1 0.999967
0.999954 1 1 0.999954
0.999953 1 1 0.999953
0.999953 1 1 0.999953
0.999946 1 1 0.999946
0.999951 1 1 0.999951
0.999965 1 1 0.999965
0.999967 1 1 0.999967
0.999986 1 1 0.999986
0.999965 1 1 0.999965
0.999985 1 1 0.999985
1 1 1 1
0.999983 1 1 0.999983
1 1 1 1
1 1 1 1
1 1 1 1
1 1 1 1
1 1 1 1
1 1 1 1
1 1 1 1
1 1 1 1
0.999994 1 1 0.999994
1 1 1 1
1 1 1 1
1 1 1 1
1 1 1 1
1 1 1 1
1 1 1 1
1 1 1 1
1 1 1 1
1 1 1 1
0.997015 1 0.99702 0.999995
0.999947 1 1 0.999947
0.999982 1 1 0.999982
0.998299 0.998118 1.00023 0.999948
1.00049 1 1.00049 0.999997
0.999962 1 1.00003 0.999928
1.0015 1 1.00158 0.999923
1.00103 0.99953 1.00159 0.999906
0.97826 0.978959 0.999597 0.999688
0.975944 0.981173 0.99476 0.99991
0.992132 1.00013 0.992001 1
0.999974 1 1 0.999974
0.999994 1 1 0.999994
0.999992 1 1 0.999992
0.999973 1 1 0.999973
0.999961 1 1 0.999961
0.999965 1 1 0.999965
0.999976 1 1 0.999976
0.999977 1 1 0.999977
0.999945 1 1.00003 0.999919
0.999969 1 1 0.999969
0.999964 1 1 0.999964
0.999936 1 1 0.999936
0.999938 1 1 0.999938
0.999931 1 1 0.999931
0.99993 1 1 0.99993
0.999941 1 1 0.999941
0.999967 1 1 0.999967
0.999947 1 1 0.999947
0.999973 1 1 0.999973
0.999958 1 1 0.999958
0.999979 1 1.00004 0.999944
0.999951 1 1 0.999951
0.999949 1 1 0.999949
0.999741 1 0.999757 0.999984
0.99994 1 1 0.99994
0.99993 1 1 0.99993
0.99993 1 1 0.99993
0.99992 1 1 0.99992
0.994399 1 0.994423 0.999975
0.99995 1 1 0.99995
0.999924 1 1 0.999924
0.999913 1 1 0.999913
0.999937 1 1 0.999937
0.999933 1 1 0.999933
0.999916 1 1 0.999916
0.974864 0.980813 0.993921 1.00001
0.979235 0.979614 0.99982 0.999793
0.999939 1 1 0.999939
0.999931 1 1 0.999931
0.999929 1 1 0.999929
0.999907 1 1 0.999907
0.999928 1 1.00002 0.999909
0.978624 0.979066 0.999863 0.999685
0.992949 1.00009 0.992916 0.999948
0.990488 1.0026 0.988043 0.999871
0.975365 0.981691 0.993652 0.999904
0.993338 1.00073 0.992614 1
0.999937 1 1 0.999937
0.975689 0.980324 0.995261 1.00001
0.996155 0.99978 0.996374 1
0.999882 1 1 0.999882
1.00003 1 1.0001 0.999925
1.00118 1 1.00129 0.999891
0.997622 1.00102 0.99675 0.999851
0.983327 0.980989 1.00277 0.999616
0.986863 1.00175 0.985199 0.999937
0.978559 0.986617 0.991949 0.999882
0.996696 1.00055 0.996143 1
0.999936 1 1 0.999936
0.998646 0.999217 0.999428 1
0.999868 0.999572 1.0003 1
1.00354 1 1.00367 0.999874
1.00128 1 1.00136 0.999917
1.00305 1.00024 1.00289 0.999912
0.997843 1.0007 0.997198 0.999945
0.989225 0.986035 1.00361 0.999622
0.986516 0.995886 0.990728 0.999863
0.999712 1.00007 0.999641 1
0.999938 1 1 0.999938
0.999937 1 1 0.999937
0.999934 1 1 0.999934
0.999983 1 1 0.999983
0.999967 1 1 0.999967
0.999955 1 1 0.999955
0.999948 1 1 0.999948
0.999938 1 1 0.999938
0.999966 1 1 0.999966
0.999943 1 1 0.999943
0.999951 1 1 0.999951
0.999936 1 1 0.999936
0.999934 1 1 0.999934
0.999939 1 1 0.999939
0.999951 1 1 0.999951
0.999967 1 1 0.999967
0.999953 1 1 0.999953
0.999953 1 1 0.999953
0.999953 1 1 0.999953
0.999947 1 1 0.999947
0.999951 1 1 0.999951
0.999944 1 1 0.999944
0.999942 1 1 0.999942
0.999944 1 1 0.999944
0.999951 1 1 0.999951
0.999952 1 1 0.999952
0.999951 1 1 0.999951
0.999965 1 1 0.999965
0.999965 1 1 0.999965
0.999986 1 1 0.999986
0.999967 1 1 0.999967
0.999986 1 1 0.999986
1 1 1 1
0.999984 1 1 0.999984
1 1 1 1
1 1 1 1
1 1 1 1
1 1 1 1
1 1 1 1
1 1 1 1
1 1 1 1
1 1 1 1
0.999994 1 1 0.999994
1 1 1 1
0.999994 1 1 0.999994
1 1 1 1
1 1 1 1
1 1 1 1
1 1 1 1
1 1 1 1
1 1 1 1
1 1 1 1
1 1 1 1
0.97629 0.98008 0.996121 1.00001
0.998507 0.999863 0.998643 1
0.998731 0.997731 1.00102 0.999977
1.00091 1 1.00091 0.999996
0.99995 1 1.00003 0.999921
1.00157 0.999445 1.00213 0.999992
1.0007 1 1.00077 0.999925
0.979425 0.979338 1.00033 0.999761
0.977103 0.981348 0.995669 1.00001
0.993577 1.00042 0.993156 1
1.00467 0.999978 1.00475 0.999943
0.982719 0.981421 1.00162 0.9997
0.977295 0.985567 0.991612 0.999994
0.995824 1.00187 0.993965 1
0.999956 1 1 0.999956
0.999975 1 1 0.999975
0.999994 1 1 0.999994
0.999972 1 1 0.999972
0.999962 1 1 0.999962
0.99996 1 1 0.99996
0.999966 1 1 0.999966
0.99997 1 1 0.99997
0.999974 1 1 0.999974
0.999975 1 1 0.999975
0.999983 1 1.00004 0.999943
0.999488 1 0.999505 0.999983
0.999941 1 1 0.999941
0.999928 1 1 0.999928
0.999921 1 1 0.999921
0.99993 1 1 0.99993
0.99995 1 1 0.99995
0.999952 1 1 0.999952
0.99624 1 0.996267 0.999972
0.999936 1 1 0.999936
0.999932 1 1 0.999932
0.999707 1 0.999753 0.999955
0.999921 1 1 0.999921
0.999912 1 1 0.999912
0.999915 1 1 0.999915
0.991048 1.00047 0.990627 0.999956
1.00006 1 1.00015 0.99991
0.9999 1 1 0.9999
0.999936 1 1 0.999936
0.999926 1 1 0.999926
0.999918 1 1 0.999918
0.997515 0.999397 0.998115 1
0.975956 0.980085 0.995842 0.999946
0.977455 0.979513 0.998115 0.999783
0.999937 1 1 0.999937
0.999926 1 1 0.999926
0.999882 1 1 0.999882
1.00103 1 1.00114 0.999895
0.975065 0.980683 0.994337 0.999934
0.981482 0.981011 1.0007 0.999783
0.98574 1.00203 0.983914 0.999831
0.997921 1.00073 0.997341 0.999849
0.979764 0.986454 0.993226 0.999992
0.995199 0.999979 0.995219 1
0.994806 1.00159 0.993222 1
0.999936 1 1 0.999936
0.998108 0.999456 0.99865 1
0.999837 0.999454 1.00038 1
1.00387 1 1.004 0.999873
1.00119 1 1.00127 0.999917
1.00401 1.00015 1.00399 0.999867
0.995615 1.00036 0.995427 0.99983
0.987038 0.985257 1.0022 0.999614
0.990507 0.994794 0.995707 0.999983
0.999256 1.00085 0.998405 0.999998
0.999932 1 1 0.999932
0.999483 0.999482 1 1
0.999677 0.999418 1.00026 1
1.00319 1 1.00326 0.999936
1.00528 0.999619 1.0057 0.999959
0.994231 0.990364 1.00426 0.99965
0.987965 1.00207 0.985957 0.999966
0.999553 0.999577 0.99998 0.999997
0.999937 1 1 0.999937
0.999934 1 1 0.999934
0.99993 1 1 0.99993
0.999966 1 1 0.999966
0.999951 1 1 0.999951
0.999945 1 1 0.999945
0.999936 1 1 0.999936
0.999951 1 1 0.999951
0.999939 1 1 0.999939
0.999934 1 1 0.999934
0.999936 1 1 0.999936
0.999932 1 1 0.999932
0.999941 1 1 0.999941
0.999953 1 1 0.999953
0.999953 1 1 0.999953
0.999947 1 1 0.999947
0.999944 1 1 0.999944
0.999951 1 1 0.999951
0.999943 1 1 0.999943
0.999941 1 1 0.999941
0.999938 1 1 0.999938
0.99994 1 1 0.99994
0.999944 1 1 0.999944
0.999945 1 1 0.999945
0.999947 1 1 0.999947
0.99996 1 1 0.99996
0.999952 1 1 0.999952
0.999953 1 1 0.999953
0.999964 1 1 0.999964
0.999951 1 1 0.999951
0.999965 1 1 0.999965
0.999985 1 1 0.999985
0.999965 1 1 0.999965
0.999986 1 1 0.999986
1 1 1 1
0.999986 1 1 0.999986
1 1 1 1
1 1 1 1
1 1 1 1
1 1 1 1
1 1 1 1
1 1 1 1
1 1 1 1
1 1 1 1
0.999989 1 1 0.999989
1 1 1 1
0.999992 1 1 0.999992
1 1 1 1
1 1 1 1
0.999994 1 1 0.999994
1 1 1 1
1 1 1 1
1 1 1 1
1 1 1 1
1 1 1 1
1 1 1 1
0.99896 0.999542 0.999417 1
0.975366 0.979225 0.996083 0.999975
0.999987 0.999742 1.00025 1
0.998012 0.99979 0.998222 1
0.999811 0.998669 1.00122 0.999919
0.99997 1 1.00004 0.999928
0.97985 0.978854 1.00118 0.999842
0.976387 0.981334 0.995045 0.999914
0.994957 1.00068 0.994279 1
1.00158 1.00015 1.0015 0.999925
0.983655 0.981218 1.0028 0.999681
0.978865 0.985831 0.993048 0.999886
0.995506 1.00059 0.994919 1
0.999021 1.00053 0.998553 0.999936
0.989325 0.985592 1.00418 0.999608
0.99043 0.995592 0.99483 0.999986
0.999219 0.999477 0.999741 1
0.999947 1 1 0.999947
0.999958 1 1 0.999958
0.999977 1 1 0.999977
0.999964 1 1 0.999964
0.999953 1 1 0.999953
0.999962 1 1 0.999962
0.999967 1 1 0.999967
0.999969 1 1 0.999969
0.999972 1 1 0.999972
0.999972 1 1 0.999972
0.998107 1 0.998138 0.999969
0.999531 1 0.999572 0.999959
0.999918 1 1 0.999918
0.999911 1 1 0.999911
0.999914 1 1 0.999914
0.99993 1 1 0.99993
0.999935 1 1 0.999935
0.999936 1 1 0.999936
0.99205 1.00017 0.991932 0.999953
0.999927 1 1 0.999927
0.999918 1 1 0.999918
1.00008 1 1.00016 0.999912
0.9999 1 1 0.9999
0.996347 1.00033 0.996096 0.999919
1.00059 1 1.00069 0.999897
0.999903 1 1 0.999903
0.999929 1 1 0.999929
0.999917 1 1 0.999917
0.999425 0.999424 1 1
0.998408 0.999403 0.999003 1
0.976219 0.980813 0.995304 1.00001
0.999936 1 1 0.999936
1.00105 1 1.00113 0.999916
1.00414 1 1.00427 0.999872
0.99912 0.999684 0.999436 1
0.989029 0.985976 1.0035 0.999599
0.99375 1.00079 0.993017 0.999945
1.0043 1 1.00448 0.999822
0.984528 0.992498 0.992091 0.999877
0.999813 0.999347 1.00047 1
0.999548 1.00027 0.999276 0.999998
0.999934 1 1 0.999934
0.999607 0.999607 1 1
0.99957 0.999352 1.00022 1
1.00332 1 1.00339 0.999923
1.00505 0.999375 1.00575 0.999933
0.996409 0.992341 1.00448 0.99962
0.999784 0.999669 1.00012 0.999998
0.994187 1.00051 0.993742 0.999934
0.999932 1 1 0.999932
1.00013 1.00013 0.999997 1
0.999411 0.999287 1.00012 1
0.999052 0.999441 0.999611 1
1.00366 0.999618 1.00408 0.99996
1.00539 0.99506 1.01066 0.999729
0.984429 1.0018 0.982716 0.999947
0.999935 1 1 0.999935
0.999931 1 1 0.999931
0.999934 1 1 0.999934
0.999951 1 1 0.999951
0.999939 1 1 0.999939
0.999934 1 1 0.999934
0.999941 1 1 0.999941
0.999932 1 1 0.999932
0.999936 1 1 0.999936
0.999936 1 1 0.999936
0.999933 1 1 0.999933
0.999945 1 1 0.999945
0.999951 1 1 0.999951
0.999943 1 1 0.999943
0.999938 1 1 0.999938
0.999941 1 1 0.999941
0.999936 1 1 0.999936
0.999942 1 1 0.999942
0.999932 1 1 0.999932
0.999944 1 1 0.999944
0.999946 1 1 0.999946
0.999938 1 1 0.999938
0.999948 1 1 0.999948
0.99996 1 1 0.99996
0.999947 1 1 0.999947
0.999968 1 1 0.999968
0.999959 1 1 0.999959
0.999954 1 1 0.999954
0.999955 1 1 0.999955
0.999965 1 1 0.999965
0.999986 1 1 0.999986
0.999965 1 1 0.999965
0.999985 1 1 0.999985
1 1 1 1
0.999986 1 1 0.999986
1 1 1 1
1 1 1 1
1 1 1 1
1 1 1 1
1 1 1 1
1 1 1 1
1 1 1 1
1 1 1 1
0.999985 1 1 0.999985
0.999999 1 1 0.999999
0.999989 1 1 0.999989
1 1 1 1
1 1 1 1
0.99999 1 1 0.99999
1 1 1 1
1 1 1 1
1 1 1 1
1 1 1 1
1 1 1 1
1 1 1 1
0.999613 0.999533 1.00008 1
0.997406 0.9995 0.997903 1
0.976929 0.979359 0.997574 0.999946
0.999964 1 1 0.999964
0.999984 0.999858 1.00013 1
0.999894 0.999654 1.00024 1
0.996234 0.999717 0.996515 1
0.999519 1.00042 0.999211 0.999892
0.985151 0.981099 1.00447 0.99966
0.980684 0.985821 0.994796 0.999994
0.99515 1.00061 0.994544 1
0.997575 1.00111 0.996621 0.999847
0.988982 0.985118 1.0043 0.99962
0.988621 0.994323 0.994339 0.999926
0.999143 1.00036 0.998783 0.999999
0.995224 1.00029 0.995104 0.999831
0.996226 0.992148 1.00459 0.999518
0.996673 1.00016 0.996623 0.999889
0.999876 0.999947 0.999933 0.999996
0.999938 1 1 0.999938
0.999945 1 1 0.999945
0.99996 1 1 0.99996
0.999951 1 1 0.999951
0.999954 1 1 0.999954
0.999963 1 1 0.999963
0.99997 1 1 0.99997
0.999973 1 1 0.999973
0.99316 1 0.993209 0.999951
1.00012 1 1.00021 0.999915
0.999936 1 1 0.999936
0.9999 1 1 0.9999
0.999917 1 1 0.999917
0.999927 1 1 0.999927
0.999928 1 1 0.999928
0.994627 1.00023 0.994476 0.999917
0.999917 1 1 0.999917
0.999902 1 1 0.999902
1.00056 1 1.00066 0.999897
0.999927 1 1 0.999927
1.00117 1 1.00127 0.999906
1.0006 1 1.0007 0.9999
0.99991 1 1 0.99991
0.999916 1 1 0.999916
1.00006 1.00006 1 1
0.999416 0.999415 1 1
0.999122 0.99941 0.999712 1
0.999935 1 1 0.999935
1.00356 1 1.00365 0.99991
0.999742 0.999741 1 1
0.996103 0.990213 1.00635 0.999601
1.00449 0.999619 1.00501 0.999858
0.992764 0.999943 0.99291 0.99991
0.99948 0.999252 1.00023 1
1.00005 0.999758 1.00029 1
0.999934 1 1 0.999934
1.00015 1.00015 0.999998 1
0.999652 0.999554 1.0001 1
1.00198 0.999305 1.0027 0.999971
0.99874 1.00029 0.998453 1
1.00288 0.997047 1.0061 0.999752
0.986951 1.00051 0.986549 0.999899
0.999946 1 1 0.999946
1.00012 1.00014 0.999982 1
1 0.99984 1.00016 1
0.995219 1.00175 0.993485 1
0.993754 0.998286 0.995559 0.9999
1.01021 0.999142 1.01109 0.999992
1.00504 0.996276 1.00901 0.999785
0.999931 1 1 0.999931
0.999933 1 1 0.999933
0.99994 1 1 0.99994
0.999942 1 1 0.999942
0.999932 1 1 0.999932
0.999935 1 1 0.999935
0.999933 1 1 0.999933
0.999936 1 1 0.999936
0.999926 1 1 0.999926
0.999938 1 1 0.999938
0.999941 1 1 0.999941
0.999935 1 1 0.999935
0.999926 1 1 0.999926
0.999945 1 1 0.999945
0.999934 1 1 0.999934
0.999926 1 1 0.999926
0.999935 1 1 0.999935
0.999946 1 1 0.999946
0.999937 1 1 0.999937
0.999951 1 1 0.999951
0.999958 1 1 0.999958
0.999949 1 1 0.999949
0.99997 1 1 0.99997
0.99996 1 1 0.99996
0.999947 1 1 0.999947
0.999987 1 1 0.999987
0.999968 1 1 0.999968
0.999958 1 1 0.999958
0.999966 1 1 0.999966
0.999986 1 1 0.999986
1 1 1 1
0.999985 1 1 0.999985
1 1 1 1
1 1 1 1
1 1 1 1
1 1 1 1
1 1 1 1
1 1 1 1
1 1 1 1
1 1 1 1
0.999983 1 1 0.999983
0.999998 1 1 0.999998
0.999986 1 1 0.999986
1 1 1 1
0.999999 1 1 0.999999
0.999989 1 1 0.999989
1 1 1 1
1 1 1 1
0.999999 1 1 0.999999
1 1 1 1
1 1 1 1
1 1 1 1
1.00004 1.00004 0.999999 1
0.999569 0.999522 1.00005 1
0.997456 0.999479 0.997975 1
0.999965 1 1 0.999965
0.999963 1 1 0.999963
0.999953 1 1 0.999953
0.999351 0.9993 1.00005 1
0.999926 0.999835 1.00009 1
0.999814 0.999568 1.00025 1
0.999377 1.00182 0.997626 0.999932
0.989841 0.985794 1.00448 0.999629
0.986934 0.995608 0.991416 0.999871
0.999606 0.999585 1.00002 1
0.997034 1.00013 0.996972 0.999933
0.99689 0.990832 1.00648 0.999632
0.997464 1.00299 0.994534 0.999955
0.999903 0.999849 1.00006 0.999998
1.00377 0.999852 1.00396 0.999958
1.00016 0.996921 1.00358 0.999672
0.987159 1.00262 0.98465 0.999933
0.999843 1.00012 0.999722 1
0.999937 1 1 0.999937
0.999938 1 1 0.999938
0.999944 1 1 0.999944
0.999951 1 1 0.999951
0.999956 1 1 0.999956
0.99997 1 1 0.99997
0.992725 1 0.992809 0.999915
1.00054 1 1.00065 0.999898
0.999928 1 1 0.999928
0.999902 1 1 0.999902
0.999917 1 1 0.999917
0.999926 1 1 0.999926
0.999915 1 1 0.999915
0.999843 1 0.99994 0.999903
0.99991 1 1 0.99991
1.00065 1 1.00075 0.999899
0.999915 1 1 0.999915
1.00291 1 1.00299 0.999915
0.999927 1 1.00002 0.999907
0.999905 1 1 0.999905
1.00002 1.00002 1 1
1.00005 1.00005 1 1
0.999406 0.999405 1 1
0.999935 1 1 0.999935
1.00373 0.999177 1.00458 0.999978
1.00017 1.00017 0.999999 1
1.00379 0.998747 1.0052 0.999853
0.983178 1.00121 0.982036 0.999953
0.999877 0.999841 1.00004 1
0.999588 0.999557 1.00003 1
0.999947 1 1 0.999947
1.00009 1.0001 0.99999 1
0.999941 0.999815 1.00013 1
1.01209 0.999091 1.01307 0.999941
0.995193 1.00057 0.994628 1
0.994728 1.00273 0.99205 0.999967
0.998356 0.996648 1.00194 0.99977
1.00002 1 1.00006 0.999966
1.00004 1.00004 0.999997 1
1.00001 0.99972 1.00029 1
0.991389 1.0001 0.991288 1
0.989289 0.994663 0.994611 0.999987
1.00396 0.995593 1.00869 0.999712
1.01713 0.998292 1.01893 0.999936
0.999932 1 1 0.999932
0.99994 1 1 0.99994
0.999962 1 1.00004 0.999924
0.999933 1 1 0.999933
0.999937 1 1 0.999937
0.999927 1 1 0.999927
0.999935 1 1.00003 0.999907
0.999934 1 1 0.999934
0.999924 1 1 0.999924
0.999914 1 1 0.999914
0.999935 1 1 0.999935
0.999926 1 1 0.999926
0.999923 1 1 0.999923
0.99993 1 1 0.99993
0.999944 1 1 0.999944
0.999934 1 1 0.999934
0.999937 1 1 0.999937
0.999959 1 1 0.999959
0.999951 1 1 0.999951
0.999968 1 1 0.999968
0.999959 1 1 0.999959
0.99995 1 1 0.99995
0.999988 1 1 0.999988
0.99997 1 1 0.99997
0.999959 1 1 0.999959
1 1 1 1
0.999987 1 1 0.999987
0.999967 1 1 0.999967
0.999986 1 1 0.999986
1 1 1 1
1 1 1 1
1 1 1 1
1 1 1 1
1 1 1 1
1 1 1 1
1 1 1 1
1 1 1 1
0.999986 1 1 0.999986
1 1 1 1
0.999984 1 1 0.999984
1 1 1 1
0.999999 1 1 0.999999
0.999986 1 1 0.999986
1 1 1 1
1 1 1 1
0.999999 1 1 0.999999
1 1 1 1
1 1 1 1
1 1 1 1
1.00013 1.00014 0.99999 1
1.00005 1.00006 0.999998 1
0.999491 0.999491 1 1
0.999965 1 1 0.999965
0.99996 1 1 0.99996
0.999966 1 1 0.999966
0.999963 1 1 0.999963
0.999951 1 1 0.999951
0.999952 1 1 0.999952
0.999944 1 1 0.999944
0.999673 0.999421 1.00025 1
0.99961 0.999592 1.00002 1
0.999865 0.999811 1.00005 1
0.999939 0.999788 1.00015 1
0.999799 1.00135 0.998629 0.99982
0.999886 0.993417 1.00679 0.999725
0.987769 1.00159 0.986333 0.999867
1.00363 0.999329 1.00441 0.999893
1.00061 0.997583 1.00334 0.999699
0.990513 1.00169 0.988969 0.999875
0.999749 1.00119 0.998568 0.999997
1.01058 0.999424 1.01119 0.999967
1.0015 0.998323 1.00345 0.999733
0.990052 1.00254 0.987591 0.999955
0.9983 1.00052 0.99778 1
0.999932 1 1 0.999932
0.999936 1 1 0.999936
0.999938 1 1 0.999938
0.99995 1 1 0.99995
0.998527 1 0.998627 0.9999
1.00062 1 1.00072 0.999898
0.999925 1 1 0.999925
0.999915 1 1 0.999915
0.99991 1 1 0.99991
0.999917 1 1 0.999917
0.999905 1 1 0.999905
1.00269 1 1.00277 0.999917
0.999935 1 1.00003 0.999909
0.999908 1 1 0.999908
1.00321 0.999912 1.00334 0.999953
0.999914 1 1.00003 0.999886
1.00006 1.00006 1 1
0.999996 0.999993 1 1
1.00005 1.00005 1 1
0.999948 1 1 0.999948
1.01023 0.999142 1.01111 0.99999
1.00006 1.00006 0.999995 1
1.00516 0.995843 1.00958 0.999774
0.983905 1.00052 0.983511 0.999879
0.999879 0.99979 1.00009 1
0.994621 1.00059 0.994036 1
0.999955 1 0.99999 0.999965
1.00005 1.00006 0.999996 1
0.999931 0.999624 1.00031 1
1.02198 0.999392 1.02261 0.999995
0.992845 1.0004 0.992449 1
0.987075 0.993535 0.993568 0.999929
1.00287 0.996001 1.00715 0.999742
1.00067 1 1.00071 0.99996
0.999657 0.999517 1.00014 1
0.998232 0.999853 0.998379 1
0.976261 0.985144 0.990988 0.999994
0.996876 0.991257 1.00604 0.999629
1.01565 0.999919 1.01585 0.999878
0.99994 1 1 0.99994
0.999942 1 1.00002 0.999924
1.00209 1 1.00219 0.999903
0.999927 1 1 0.999927
0.999917 1 1.00001 0.999909
1.00004 1 1.00015 0.999892
0.999923 1 1 0.999923
0.999912 1 1 0.999912
0.99991 1 1 0.99991
0.999926 1 1 0.999926
0.999922 1 1 0.999922
0.999924 1 1 0.999924
0.999933 1 1 0.999933
0.999938 1 1 0.999938
0.999929 1 1 0.999929
0.999953 1 1 0.999953
0.999945 1 1 0.999945
0.999933 1 1 0.999933
0.999967 1 1 0.999967
0.999957 1 1 0.999957
0.999952 1 1 0.999952
0.999987 1 1 0.999987
0.999969 1 1 0.999969
0.999961 1 1 0.999961
1 1 1 1
0.999988 1 1 0.999988
0.99997 1 1 0.99997
1 1 1 1
1 1 1 1
0.999987 1 1 0.999987
1 1 1 1
1 1 1 1
1 1 1 1
1 1 1 1
1 1 1 1
1 1 1 1
0.999968 1 1 0.999968
0.999986 1 1 0.999986
1 1 1 1
0.999986 1 1 0.999986
1 1 1 1
1 1 1 1
0.999986 1 1 0.999986
1 1 1 1
1 1 1 1
1 1 1 1
1 1 1 1
1 1 1 1
1 1 1 1
1.00014 1.00014 0.999999 1
1.00009 1.0001 0.999996 1
1.00007 1.00007 0.999997 1
0.999966 1 1 0.999966
0.999959 1 1 0.999959
0.999959 1 1 0.999959
0.999955 1 1 0.999955
0.999954 1 1 0.999954
0.999963 1 1 0.999963
0.99995 1 1 0.99995
0.999952 1 1 0.999952
0.999944 1 1 0.999944
0.999945 1 1 0.999945
0.999871 0.999605 1.00027 1
0.999564 0.99936 1.0002 1
0.999862 0.999859 1 1
1.00011 1.00064 0.999474 0.999997
0.986147 1.00177 0.984459 0.99994
1.00526 0.999888 1.00553 0.999844
1.00221 0.996757 1.00574 0.999724
1.01085 0.999221 1.01175 0.999893
0.99474 0.998458 0.99655 0.999726
0.996402 1.00123 0.99526 0.999919
0.99701 1.00054 0.996476 1
1.01364 0.99868 1.01505 0.999924
1.00163 0.995515 1.00643 0.999712
0.986336 0.995613 0.990811 0.99987
0.992874 1.00046 0.992414 1
0.999938 1 1 0.999938
0.999933 1 1 0.999933
0.999936 1 1 0.999936
1.00252 1 1.0026 0.999919
0.999947 1 1.00004 0.999912
0.999919 1 1 0.999919
0.999904 1 1 0.999904
0.999909 1 1 0.999909
0.999914 1 1.00003 0.999886
1.00324 0.999945 1.00334 0.999953
0.999901 1 1 0.999901
1.00106 0.999999 1.00114 0.999915
0.999416 0.999416 1 1
1.00006 1.00005 1 1
0.99997 0.999966 1 1
0.999964 1 1 0.999964
1.02126 0.999304 1.02204 0.999933
1.00007 1.00007 0.999996 1
1.0033 0.993945 1.00975 0.999662
0.985314 0.994638 0.990754 0.999871
0.999866 0.99953 1.00034 1
0.994254 1.00067 0.993587 1
1.00061 1 1.00065 0.99996
0.999585 0.999508 1.00008 1
0.997734 0.999774 0.99796 1
1.01659 0.999012 1.01767 0.999931
0.977939 0.985443 0.992501 0.999884
0.996884 0.990022 1.00737 0.999561
1.00255 1 1.00262 0.999933
0.998881 0.999527 0.999354 1
0.97541 0.981301 0.994089 0.999908
0.988897 0.985222 1.00413 0.999603
0.997647 1.00014 0.997569 0.999934
0.999924 1 1 0.999924
1.00186 1 1.00195 0.999904
1.00485 1 1.00496 0.999886
0.999912 1 1 0.999912
1.00022 1 1.00033 0.999893
0.999965 1 1.00006 0.999902
0.99991 1 1 0.99991
0.999911 1 1 0.999911
0.999928 1 1 0.999928
0.99992 1 1 0.99992
0.999925 1 1 0.999925
0.999939 1 1 0.999939
0.999943 1 1 0.999943
0.999936 1 1 0.999936
0.999934 1 1 0.999934
0.999947 1 1 0.999947
0.999937 1 1 0.999937
0.999928 1 1 0.999928
0.999965 1 1 0.999965
0.999954 1 1 0.999954
0.999946 1 1 0.999946
0.999985 1 1 0.999985
0.999966 1 1 0.999966
0.999956 1 1 0.999956
1 1 1 1
0.999987 1 1 0.999987
0.99997 1 1 0.99997
1 1 1 1
1 1 1 1
0.999988 1 1 0.999988
1 1 1 1
1 1 1 1
1 1 1 1
1 1 1 1
1 1 1 1
1 1 1 1
0.999968 1 1 0.999968
0.999987 1 1 0.999987
0.999968 1 1 0.999968
1 1 1 1
0.999986 1 1 0.999986
1 1 1 1
1 1 1 1
0.999986 1 1 0.999986
1 1 1 1
1 1 1 1
1 1 1 1
1 1 1 1
1 1 1 1
1 1 1 1
0.999807 0.999807 1 1
1.00015 1.00015 0.999999 1
1.00006 1.00006 0.999998 1
0.999961 1 1 0.999961
0.999967 1 1 0.999967
0.999958 1 1 0.999958
0.999956 1 1 0.999956
0.99996 1 1 0.99996
0.999954 1 1 0.999954
0.999952 1 1 0.999952
0.99995 1 1 0.99995
0.999952 1 1 0.999952
0.999945 1 1 0.999945
0.999945 1 1 0.999945
0.999944 1 1 0.999944
0.996207 0.999547 0.996657 1
0.999822 0.999483 1.00034 1
0.999452 0.999306 1.00015 1
0.995548 1.00176 0.993801 1
0.995831 1.00096 0.994994 0.999883
1.00137 0.99821 1.00343 0.999733
1.01102 0.999337 1.01171 0.999983
1.01654 0.998865 1.0177 0.999997
0.993884 1.00048 0.993407 1
0.99853 0.997484 1.00139 0.999662
0.988809 0.994486 0.994307 0.999985
1.00865 0.999388 1.0093 0.999967
0.996787 0.990602 1.00661 0.999635
0.97769 0.985605 0.991971 0.999998
0.999944 1 1 0.999944
0.999938 1 1 0.999938
0.999934 1 1 0.999934
1.00327 0.999978 1.00334 0.999953
0.999896 1 1.00001 0.999886
0.999909 1 1 0.999909
0.999902 1 1 0.999902
1.00105 1 1.00113 0.999916
0.999928 1 1 0.999928
0.996804 0.998989 0.997811 1
0.999596 0.999595 1 1
1.00005 1.00005 1 1
1.00036 1 1.00041 0.999959
1.01597 0.999899 1.01612 0.999957
0.999479 0.999479 1 1
1.00184 0.992512 1.00964 0.999757
0.98005 0.985474 0.994503 0.999994
0.995861 0.999694 0.996165 1
1.00279 1 1.00285 0.999933
0.997125 0.999486 0.997636 1
0.976247 0.981067 0.995081 1.00001
0.998166 0.999812 0.998525 0.999829
0.98858 0.984683 1.00434 0.999616
0.995772 1.00015 0.995733 0.999894
0.976328 0.980526 0.995705 1.00001
0.982563 0.981275 1.00162 0.999695
0.988348 1.00107 0.987462 0.999829
1.00152 1 1.00162 0.999904
1.00483 1 1.00495 0.999884
1.0021 1 1.0022 0.999908
1.00042 1 1.00052 0.999895
1.00006 1 1.00015 0.999903
0.999941 1 1 0.999941
0.999912 1 1 0.999912
0.99993 1 1 0.99993
0.999956 1 1 0.999956
0.999926 1 1 0.999926
0.99994 1 1 0.99994
0.999955 1 1 0.999955
0.999952 1 1 0.999952
0.999942 1 1 0.999942
0.999944 1 1 0.999944
0.999943 1 1 0.999943
0.999937 1 1 0.999937
0.999934 1 1 0.999934
0.999961 1 1 0.999961
0.999947 1 1 0.999947
0.999935 1 1 0.999935
0.999982 1 1 0.999982
0.999965 1 1 0.999965
0.999955 1 1 0.999955
1 1 1 1
0.999984 1 1 0.999984
0.999966 1 1 0.999966
1 1 1 1
1 1 1 1
0.999987 1 1 0.999987
1 1 1 1
1 1 1 1
1 1 1 1
1 1 1 1
1 1 1 1
1 1 1 1
0.999971 1 1 0.999971
0.999969 1 1 0.999969
0.999987 1 1 0.999987
1 1 1 1
0.999986 1 1 0.999986
0.999967 1 1 0.999967
1 1 1 1
1 1 1 1
0.999986 1 1 0.999986
1 1 1 1
1 1 1 1
1 1 1 1
1 1 1 1
1 1 1 1
1 1 1 1
0.998464 0.99912 0.999343 1
0.999779 0.999778 1 1
1.00017 1.00017 1 1
0.99996 1 1 0.99996
0.999959 1 1 0.999959
0.999955 1 1 0.999955
0.999958 1 1 0.999958
0.999961 1 1 0.999961
0.999954 1 1 0.999954
0.99995 1 1 0.99995
0.999953 1 1 0.999953
0.999947 1 1 0.999947
0.999948 1 1 0.999948
0.999945 1 1 0.999945
0.999944 1 1 0.999944
0.978948 0.982241 0.996645 1
0.996956 0.999732 0.997222 1
0.999779 0.999373 1.00041 1
0.994812 1.0005 0.994313 1
0.983822 0.992723 0.991149 0.999884
1.00269 0.99889 1.00405 0.99976
1.01453 0.998734 1.0159 0.999923
1.00961 0.999357 1.01038 0.999883
0.978001 0.985517 0.992476 0.999897
0.998323 0.992397 1.00627 0.999706
1.00616 0.999944 1.00637 0.999846
0.989052 0.985318 1.00413 0.999663
0.999981 1 1.00005 0.999936
0.999944 1 1 0.999944
0.999938 1 1 0.999938
1.00105 1 1.00114 0.999916
0.999903 1 1 0.999903
0.999943 1 1.00001 0.99993
0.999928 1 1 0.999928
0.974666 0.981479 0.993045 1.00001
0.998032 0.99922 0.99881 1
0.999785 0.999785 1 1
1.00329 1 1.00335 0.999934
0.999174 1.00017 0.999063 0.999946
0.997073 0.999465 0.997604 1
0.989459 0.985424 1.00447 0.999622
0.975585 0.981113 0.994454 0.999912
0.995147 1.00018 0.995067 0.999897
0.975216 0.979562 0.995588 0.999975
0.98382 0.980922 1.00328 0.999674
0.988856 1.00077 0.988159 0.999937
0.987694 1.00114 0.986665 0.999903
0.978234 0.978882 0.999656 0.999681
0.996917 1.00089 0.996095 0.999939
1.00495 1 1.00507 0.999882
1.00165 1 1.00174 0.999908
0.999735 1 0.999775 0.99996
1.00011 1 1.00021 0.999904
0.999943 1 1 0.999943
0.999981 1 1 0.999981
0.999931 1 1 0.999931
0.999956 1 1 0.999956
0.999971 1 1 0.999971
0.99994 1 1 0.99994
0.999955 1 1 0.999955
0.999959 1 1 0.999959
0.999953 1 1 0.999953
0.999952 1 1 0.999952
0.99995 1 1 0.99995
0.999946 1 1 0.999946
0.999942 1 1 0.999942
0.999944 1 1 0.999944
0.999954 1 1 0.999954
0.999944 1 1 0.999944
0.999938 1 1 0.999938
0.999978 1 1 0.999978
0.999961 1 1 0.999961
0.999947 1 1 0.999947
1 1 1 1
0.999982 1 1 0.999982
0.999965 1 1 0.999965
1 1 1 1
1 1 1 1
0.999984 1 1 0.999984
1 1 1 1
1 1 1 1
1 1 1 1
1 1 1 1
1 1 1 1
1 1 1 1
0.999968 1 1 0.999968
0.999969 1 1 0.999969
0.999986 1 1 0.999986
0.999969 1 1 0.999969
0.999987 1 1 0.999987
1 1 1 1
1 1 1 1
1 1 1 1
0.999986 1 1 0.999986
1 1 1 1
1 1 1 1
1 1 1 1
1 1 1 1
1 1 1 1
1 1 1 1
0.978725 0.981108 0.997633 0.999938
0.997751 0.999227 0.998522 1
0.99975 0.99975 1 1
0.999959 1 1 0.999959
0.999955 1 1 0.999955
0.99996 1 1 0.99996
0.999958 1 1 0.999958
0.999954 1 1 0.999954
0.999951 1 1 0.999951
0.999954 1 1 0.999954
0.999947 1 1 0.999947
0.999949 1 1 0.999949
0.999945 1 1 0.999945
0.999943 1 1 0.999943
0.999947 1 1 0.999947
0.999943 1 1 0.999943
0.983506 0.983031 1.00086 0.99962
0.979102 0.982525 0.996552 0.999963
0.996347 0.999924 0.996421 1
0.97935 0.985881 0.993379 0.999997
0.996392 0.990319 1.00661 0.999524
1.0087 0.999441 1.0093 0.999967
1.00595 0.999569 1.00649 0.999895
0.988595 0.98518 1.00381 0.999658
1.00236 0.99995 1.00254 0.999878
0.999973 1 1.00007 0.999903
1.00014 1 1.0002 0.999934
0.999945 1 1 0.999945
0.999956 1 1.00002 0.999932
0.999946 1 1 0.999946
0.97688 0.979149 0.997893 0.999789
0.976222 0.980944 0.99524 0.999947
0.999079 0.999438 0.99964 1
0.994246 1.00027 0.994077 0.9999
0.991321 1.00228 0.989249 0.999819
0.977006 0.979826 0.997178 0.999944
0.985866 0.980818 1.00549 0.999655
0.986674 1.00076 0.986022 0.9999
0.980117 0.979588 1.00078 0.999757
0.99418 1.0016 0.992744 0.999847
0.983945 1.0011 0.982914 0.999947
1.00631 0.999675 1.00669 0.999947
1.00116 1 1.00125 0.999908
0.99919 1 0.99923 0.99996
0.999288 1 0.999296 0.999992
0.999944 1 1 0.999944
0.999964 1 0.999983 0.99998
0.999951 1 0.999967 0.999984
0.999956 1 1 0.999956
0.99997 1 1 0.99997
0.999964 1 1 0.999964
0.999955 1 1 0.999955
0.999958 1 1 0.999958
0.999953 1 1 0.999953
0.999953 1 1 0.999953
0.999949 1 1 0.999949
0.999953 1 1 0.999953
0.99995 1 1 0.99995
0.999949 1 1 0.999949
0.999951 1 1 0.999951
0.999945 1 1 0.999945
0.999942 1 1 0.999942
0.999972 1 1 0.999972
0.999955 1 1 0.999955
0.999946 1 1 0.999946
0.999999 1 1 0.999999
0.999978 1 1 0.999978
0.999961 1 1 0.999961
1 1 1 1
0.999999 1 1 0.999999
0.999982 1 1 0.999982
1 1 1 1
1 1 1 1
1 1 1 1
1 1 1 1
1 1 1 1
1 1 1 1
0.999964 1 1 0.999964
0.999968 1 1 0.999968
0.999982 1 1 0.999982
0.999967 1 1 0.999967
0.999984 1 1 0.999984
1 1 1 1
0.999987 1 1 0.999987
1 1 1 1
1 1 1 1
1 1 1 1
1 1 1 1
1 1 1 1
1 1 1 1
1 1 1 1
1 1 1 1
0.98124 0.981391 1.00008 0.999763
0.977178 0.982381 0.994693 1.00001
0.998695 0.999331 0.999363 1
0.999955 1 1 0.999955
0.99996 1 1 0.99996
0.999954 1 1 0.999954
0.999959 1 1 0.999959
0.999956 1 1 0.999956
0.999953 1 1 0.999953
0.999947 1 1 0.999947
0.999949 1 1 0.999949
0.999945 1 1 0.999945
0.999946 1 1 0.999946
0.999944 1 1 0.999944
0.99991 1 1 0.99991
0.999943 1 1 0.999943
0.999946 1 1 0.999946
0.997665 0.999448 0.998236 0.999979
0.982074 0.98226 1.0001 0.999713
0.976046 0.981438 0.99459 0.999916
0.989135 0.985834 1.00371 0.999639
1.00628 0.999837 1.00649 0.999957
1.0024 0.999683 1.00277 0.999946
0.99988 1 0.999992 0.999888
1.00011 1 1.0002 0.999904
1.00029 1 1.00036 0.999933
0.999964 1 1 0.999964
1.00136 0.999016 1.00245 0.999903
0.979931 0.979898 1.00024 0.999794
0.976222 0.981479 0.994631 1.00001
0.985459 1.00024 0.985327 0.999897
0.995448 1.00239 0.993136 0.999935
0.980876 0.979099 1.00198 0.99984
0.985731 1.0005 0.985289 0.999944
1.00218 1.00005 1.0022 0.999926
0.991063 1 0.991092 0.999971
1.00241 1 1.00249 0.999922
0.998765 1 0.998805 0.999961
0.999095 1 0.999104 0.999991
0.999604 1 0.999629 0.999975
0.99998 1 1 0.99998
0.999983 1 1 0.999983
0.999963 1 1 0.999963
0.999969 1 1 0.999969
0.999963 1 1 0.999963
0.99995 1 1 0.99995
0.999958 1 1 0.999958
0.999953 1 1 0.999953
0.999945 1 1 0.999945
0.999954 1 1 0.999954
0.99995 1 1 0.99995
0.999947 1 1 0.999947
0.999949 1 1 0.999949
0.999949 1 1 0.999949
0.999953 1 1 0.999953
0.999966 1 1 0.999966
0.999953 1 1 0.999953
0.999945 1 1 0.999945
0.999997 1 1 0.999997
0.999972 1 1 0.999972
0.999956 1 1 0.999956
1 1 1 1
0.999998 1 1 0.999998
0.999978 1 1 0.999978
1 1 1 1
1 1 1 1
0.999999 1 1 0.999999
1 1 1 1
1 1 1 1
1 1 1 1
0.999963 1 1 0.999963
0.999966 1 1 0.999966
0.999979 1 1 0.999979
0.999968 1 1 0.999968
0.999981 1 1 0.999981
0.999999 1 1 0.999999
0.999983 1 1 0.999983
1 1 1 1
1 1 1 1
1 1 1 1
1 1 1 1
1 1 1 1
1 1 1 1
1 1 1 1
1 1 1 1
0.996816 0.998426 0.998394 0.999994
0.97913 0.980441 0.998896 0.999768
0.976195 0.982428 0.993718 0.999937
0.999953 1 1 0.999953
0.999955 1 1 0.999955
0.999959 1 1 0.999959
0.999953 1 1 0.999953
0.999956 1 1 0.999956
0.999953 1 1 0.999953
0.999949 1 1 0.999949
0.999945 1 1 0.999945
0.999947 1 1 0.999947
0.999947 1 1 0.999947
0.999928 1 1 0.999928
0.99988 1 1 0.99988
0.999913 1 1 0.999913
0.999943 1 1 0.999943
0.998186 1 0.998282 0.999904
0.997585 1 0.99766 0.999925
0.982386 0.981876 1.00072 0.999802
1.00194 1 1.00208 0.999855
0.999863 1 0.999997 0.999866
1.00024 1 1.00033 0.999905
1.00001 1 1.00002 0.999986
1.00257 0.998812 1.00378 0.999984
0.977642 0.979887 0.997922 0.999786
0.987742 1.00001 0.987795 0.999941
0.999469 1.00035 0.999231 0.999892
0.993699 1 0.99373 0.999968
1.00134 1 1.00141 0.99993
0.999936 1 1 0.999936
0.999928 1 1 0.999928
0.998721 1 0.998731 0.99999
0.999758 1 0.999784 0.999974
0.999946 1 1 0.999946
0.999982 1 1 0.999982
0.999963 1 1 0.999963
0.999945 1 1 0.999945
0.999963 1 1 0.999963
0.99995 1 1 0.99995
0.999939 1 1 0.999939
0.999954 1 1 0.999954
0.999945 1 1 0.999945
0.999943 1 1 0.999943
0.99995 1 1 0.99995
0.999947 1 1 0.999947
0.99995 1 1 0.99995
0.999948 1 1 0.999948
0.999952 1 1 0.999952
0.999964 1 1 0.999964
0.999994 1 1 0.999994
0.999967 1 1 0.999967
0.999954 1 1 0.999954
1 1 1 1
0.999996 1 1 0.999996
0.999972 1 1 0.999972
1 1 1 1
1 1 1 1
0.999998 1 1 0.999998
1 1 1 1
1 1 1 1
1 1 1 1
0.99996 1 1 0.99996
0.999963 1 1 0.999963
0.999978 1 1 0.999978
0.999967 1 1 0.999967
0.99998 1 1 0.99998
0.999999 1 1 0.999999
0.999981 1 1 0.999981
0.999999 1 1 0.999999
1 1 1 1
1 1 1 1
1 1 1 1
1 1 1 1
1 1 1 1
1 1 1 1
1 1 1 1
0.998203 1 0.998227 0.999976
0.996706 0.998897 0.997897 0.99991
0.980917 0.981462 0.999659 0.999785
0.999951 1 1 0.999951
0.999945 1 1 0.999945
0.999953 1 1 0.999953
0.999953 1 1 0.999953
0.999956 1 1 0.999956
0.999952 1 1 0.999952
0.99993 1 1 0.99993
0.999948 1 1 0.999948
0.999951 1 1 0.999951
0.999927 1 1 0.999927
0.999894 1 1 0.999894
0.999928 1 1 0.999928
0.999883 1 1 0.999883
0.999916 1 1 0.999916
0.998274 1 0.998367 0.999907
0.99707 0.999971 0.997213 0.999885
0.999844 1 1 0.999844
0.999993 1 1 0.999993
1.00115 1 1.00116 0.999987
1.00111 0.998407 1.00279 0.99992
0.996403 1 0.996437 0.999966
1.00028 1 1.00034 0.999939
0.999938 1 1 0.999938
0.999933 1 1 0.999933
0.999928 1 1 0.999928
0.999967 1 1 0.999967
0.999973 1 1 0.999973
0.999947 1 1 0.999947
0.999934 1 1 0.999934
0.999962 1 1 0.999962
0.999945 1 1 0.999945
0.999935 1 1 0.999935
0.999951 1 1 0.999951
0.999939 1 1 0.999939
0.999937 1 1 0.999937
0.999945 1 1 0.999945
0.999943 1 1 0.999943
0.999946 1 1 0.999946
0.999947 1 1 0.999947
0.99995 1 1 0.99995
0.99996 1 1 0.99996
0.999951 1 1 0.999951
0.999963 1 1 0.999963
0.99999 1 1 0.99999
1 1 1 1
0.999993 1 1 0.999993
0.999968 1 1 0.999968
1 1 1 1
1 1 1 1
0.999996 1 1 0.999996
1 1 1 1
1 1 1 1
1 1 1 1
0.999953 1 1 0.999953
0.999959 1 1 0.999959
0.999974 1 1 0.999974
0.999963 1 1 0.999963
0.999978 1 1 0.999978
0.999998 1 1 0.999998
0.999981 1 1 0.999981
0.999999 1 1 0.999999
1 1 1 1
1 1 1 1
1 1 1 1
1 1 1 1
1 1 1 1
1 1 1 1
1 1 1 1
0.999984 1 1 0.999984
0.998348 1 0.998368 0.99998
0.996553 0.99846 0.998094 0.999996
0.999938 1 1 0.999938
0.999953 1 1 0.999953
0.999932 1 1 0.999932
0.999945 1 1 0.999945
0.999953 1 1 0.999953
0.999908 1 1 0.999908
0.999951 1 1 0.999951
0.999931 1 1 0.999931
0.999914 1 1 0.999914
0.999926 1 1 0.999926
0.99989 1 1 0.99989
0.999926 1 1 0.999926
0.999886 1 1 0.999886
0.998359 1 0.998448 0.999911
0.999993 1 1 0.999993
0.999991 1 1 0.999991
1.00223 1 1.00224 0.999987
0.99993 1 0.999989 0.999941
0.999939 1 1 0.999939
0.999926 1 1 0.999926
0.999968 1 1 0.999968
0.999959 1 1 0.999959
0.999948 1 1 0.999948
0.999935 1 1 0.999935
0.999937 1 1 0.999937
0.999944 1 1 0.999944
0.999934 1 1 0.999934
0.999934 1 1 0.999934
0.999939 1 1 0.999939
0.999937 1 1 0.999937
0.99994 1 1 0.99994
0.999943 1 1 0.999943
0.999946 1 1 0.999946
0.999955 1 1 0.999955
0.999949 1 1 0.999949
0.99996 1 1 0.99996
0.999985 1 1 0.999985
0.999962 1 1 0.999962
0.999989 1 1 0.999989
1 1 1 1
1 1 1 1
1 1 1 1
0.999993 1 1 0.999993
1 1 1 1
1 1 1 1
1 1 1 1
0.999932 1 1 0.999932
0.999945 1 1 0.999945
0.999952 1 1 0.999952
0.999969 1 1 0.999969
0.999958 1 1 0.999958
0.999974 1 1 0.999974
0.999996 1 1 0.999996
0.999978 1 1 0.999978
0.999998 1 1 0.999998
1 1 1 1
0.999999 1 1 0.999999
1 1 1 1
1 1 1 1
1 1 1 1
1 1 1 1
1 1 1 1
0.999966 1 1 0.999966
0.999983 1 1 0.999983
0.998498 1 0.998515 0.999983
0.999919 1 1 0.999919
0.999941 1 1 0.999941
0.999955 1 1 0.999955
0.999933 1 1 0.999933
0.999944 1 1 0.999944
0.999908 1 1 0.999908
0.999907 1 1 0.999907
0.999931 1 1 0.999931
0.999913 1 1 0.999913
0.999886 1 1 0.999886
0.999924 1 1 0.999924
0.999988 1 1 0.999988
0.999992 1 1 0.999992
0.999988 1 1 0.999988
0.999924 1 1 0.999924
0.999969 1 1 0.999969
0.999958 1 1 0.999958
0.999959 1 1 0.999959
0.999937 1 1 0.999937
0.999935 1 1 0.999935
0.999942 1 1 0.999942
0.999933 1 1 0.999933
0.999934 1 1 0.999934
0.999937 1 1 0.999937
0.999937 1 1 0.999937
0.99994 1 1 0.99994
0.99995 1 1 0.99995
0.999946 1 1 0.999946
0.999955 1 1 0.999955
0.999979 1 1 0.999979
0.99996 1 1 0.99996
0.999985 1 1 0.999985
1 1 1 1
0.999989 1 1 0.999989
1 1 1 1
1 1 1 1
1 1 1 1
1 1 1 1
1 1 1 1
0.99992 1 1 0.99992
0.999943 1 1 0.999943
0.999936 1 1 0.999936
0.999963 1 1 0.999963
0.999946 1 1 0.999946
0.999951 1 1 0.999951
0.999969 1 1 0.999969
0.999994 1 1 0.999994
0.999974 1 1 0.999974
0.999997 1 1 0.999997
1 1 1 1
0.999998 1 1 0.999998
1 1 1 1
1 1 1 1
1 1 1 1
1 1 1 1
1 1 1 1
0.999952 1 1 0.999952
0.999966 1 1 0.999966
0.999982 1 1 0.999982
0.999915 1 1 0.999915
0.999919 1 1 0.999919
0.999944 1 1 0.999944
0.999934 1 1 0.999934
0.999909 1 1 0.999909
0.999905 1 1 0.999905
0.999911 1 1 0.999911
0.999978 1 1 0.999978
0.999984 1 1 0.999984
0.999991 1 1 0.999991
0.999963 1 1 0.999963
0.999958 1 1 0.999958
0.999959 1 1 0.999959
0.999954 1 1 0.999954
0.999933 1 1 0.999933
0.999942 1 1 0.999942
0.999941 1 1 0.999941
0.999934 1 1 0.999934
0.999937 1 1 0.999937
0.999945 1 1 0.999945
0.99994 1 1 0.99994
0.99995 1 1 0.99995
0.999973 1 1 0.999973
0.999955 1 1 0.999955
0.999979 1 1 0.999979
1 1 1 1
0.999985 1 1 0.999985
1 1 1 1
1 1 1 1
1 1 1 1
1 1 1 1
1 1 1 1
0.999917 1 1 0.999917
0.999929 1 1 0.999929
0.999922 1 1 0.999922
0.999959 1 1 0.999959
0.999942 1 1 0.999942
0.999939 1 1 0.999939
0.999989 1 1 0.999989
0.999963 1 1 0.999963
0.999946 1 1 0.999946
0.999969 1 1 0.999969
0.999994 1 1 0.999994
1 1 1 1
0.999997 1 1 0.999997
1 1 1 1
1 1 1 1
1 1 1 1
1 1 1 1
1 1 1 1
0.999945 1 1 0.999945
0.999949 1 1 0.999949
0.999967 1 1 0.999967
0.999912 1 1 0.999912
0.999919 1 1 0.999919
0.999909 1 1 0.999909
0.999965 1 1 0.999965
0.99998 1 1 0.99998
0.99998 1 1 0.99998
0.999961 1 1 0.999961
0.999959 1 1 0.999959
0.999959 1 1 0.999959
0.999954 1 1 0.999954
0.999952 1 1 0.999952
0.999942 1 1 0.999942
0.999941 1 1 0.999941
0.999946 1 1 0.999946
0.999937 1 1 0.999937
0.999946 1 1 0.999946
0.999967 1 1 0.999967
0.99995 1 1 0.99995
0.999973 1 1 0.999973
1 1 1 1
0.999979 1 1 0.999979
1 1 1 1
1 1 1 1
1 1 1 1
1 1 1 1
1 1 1 1
0.999943 1 1 0.999943
0.999921 1 1 0.999921
0.999916 1 1 0.999916
0.999945 1 1 0.999945
0.99993 1 1 0.99993
0.999924 1 1 0.999924
0.999982 1 1 0.999982
0.999956 1 1 0.999956
0.999941 1 1 0.999941
1 1 1 1
0.999989 1 1 0.999989
0.999963 1 1 0.999963
0.999995 1 1 0.999995
1 1 1 1
1 1 1 1
1 1 1 1
1 1 1 1
1 1 1 1
0.99994 1 1 0.99994
0.999944 1 1 0.999944
0.999946 1 1 0.999946
0.999908 1 1 0.999908
0.999957 1 1 0.999957
0.999967 1 1 0.999967
0.999982 1 1 0.999982
0.999959 1 1 0.999959
0.999959 1 1 0.999959
0.99996 1 1 0.99996
0.999954 1 1 0.999954
0.999952 1 1 0.999952
0.999953 1 1 0.999953
0.999942 1 1 0.999942
0.999946 1 1 0.999946
0.999965 1 1 0.999965
0.999946 1 1 0.999946
0.999967 1 1 0.999967
1 1 1 1
0.999973 1 1 0.999973
1 1 1 1
1 1 1 1
1 1 1 1
1 1 1 1
1 1 1 1
0.999943 1 1 0.999943
0.999937 1 1 0.999937
0.999942 1 1 0.999942
0.999933 1 1 0.999933
0.999924 1 1 0.999924
0.999916 1 1 0.999916
0.999969 1 1 0.999969
0.999945 1 1 0.999945
0.999931 1 1 0.999931
1 1 1 1
0.99998 1 1 0.99998
0.999953 1 1 0.999953
1 1 1 1
1 1 1 1
0.99999 1 1 0.99999
1 1 1 1
1 1 1 1
1 1 1 1
0.999944 1 1 0.999944
0.999944 1 1 0.999944
0.999943 1 1 0.999943
0.999964 1 1 0.999964
0.999957 1 1 0.999957
0.999968 1 1 0.999968
0.99996 1 1 0.99996
0.999961 1 1 0.999961
0.999965 1 1 0.999965
0.999951 1 1 0.999951
0.999954 1 1 0.999954
0.999967 1 1 0.999967
0.999947 1 1 0.999947
0.999965 1 1 0.999965
0.999999 1 1 0.999999
0.999968 1 1 0.999968
0.999999 1 1 0.999999
1 1 1 1
1 1 1 1
1 1 1 1
1 1 1 1
0.999941 1 1 0.999941
0.999945 1 1 0.999945
0.999942 1 1 0.999942
0.999941 1 1 0.999941
0.999938 1 1 0.999938
0.999941 1 1 0.999941
0.999959 1 1 0.999959
0.999936 1 1 0.999936
0.999927 1 1 0.999927
1 1 1 1
0.999967 1 1 0.999967
0.999945 1 1 0.999945
1 1 1 1
1 1 1 1
0.999977 1 1 0.999977
1 1 1 1
1 1 1 1
1 1 1 1
0.999953 1 1 0.999953
0.999945 1 1 0.999945
0.999949 1 1 0.999949
0.999969 1 1 0.999969
0.999963 1 1 0.999963
0.999958 1 1 0.999958
0.999961 1 1 0.999961
0.999965 1 1 0.999965
0.999975 1 1 0.999975
0.999955 1 1 0.999955
0.999968 1 1 0.999968
0.999998 1 1 0.999998
0.999966 1 1 0.999966
0.999998 1 1 0.999998
1 1 1 1
0.999999 1 1 0.999999
1 1 1 1
1 1 1 1
0.999948 1 1 0.999948
0.999938 1 1 0.999938
0.999949 1 1 0.999949
0.999945 1 1 0.999945
0.999941 1 1 0.999941
0.999962 1 1 0.999962
0.99994 1 1 0.99994
0.999939 1 1 0.999939
0.999999 1 1 0.999999
0.99996 1 1 0.99996
0.999939 1 1 0.999939
1 1 1 1
1 1 1 1
0.999966 1 1 0.999966
1 1 1 1
1 1 1 1
1 1 1 1
0.999961 1 1 0.999961
0.999953 1 1 0.999953
0.999946 1 1 0.999946
0.999978 1 1 0.999978
0.999969 1 1 0.999969
0.999962 1 1 0.999962
0.999965 1 1 0.999965
0.999975 1 1 0.999975
0.999999 1 1 0.999999
0.999968 1 1 0.999968
0.999998 1 1 0.999998
1 1 1 1
0.999998 1 1 0.999998
1 1 1 1
1 1 1 1
0.999955 1 1 0.999955
0.999946 1 1 0.999946
0.999936 1 1 0.999936
0.999967 1 1 0.999967
0.999949 1 1 0.999949
0.999946 1 1 0.999946
0.999998 1 1 0.999998
0.999962 1 1 0.999962
0.99994 1 1 0.99994
1 1 1 1
0.999999 1 1 0.999999
0.999961 1 1 0.999961
1 1 1 1
1 1 1 1
1 1 1 1
0.999977 1 1 0.999977
0.999961 1 1 0.999961
0.999953 1 1 0.999953
0.999999 1 1 0.999999
0.999978 1 1 0.999978
0.999969 1 1 0.999969
0.999974 1 1 0.999974
0.999999 1 1 0.999999
1 1 1 1
0.999998 1 1 0.999998
1 1 1 1
1 1 1 1
0.999973 1 1 0.999973
0.999955 1 1 0.999955
0.999945 1 1 0.999945
0.999999 1 1 0.999999
0.999967 1 1 0.999967
0.999949 1 1 0.999949
1 1 1 1
0.999998 1 1 0.999998
0.999962 1 1 0.999962
1 1 1 1
1 1 1 1
1 1 1 1
0.999999 1 1 0.999999
0.999976 1 1 0.999976
0.999961 1 1 0.999961
1 1 1 1
0.999999 1 1 0.999999
0.999978 1 1 0.999978
0.999999 1 1 0.999999
1 1 1 1
1 1 1 1
0.999999 1 1 0.999999
0.999973 1 1 0.999973
0.999955 1 1 0.999955
1 1 1 1
0.999998 1 1 0.999998
0.999967 1 1 0.999967
1 1 1 1
0.999998 1 1 0.999998
1 1 1 1
1 1 1 1
0.999999 1 1 0.999999
0.999975 1 1 0.999975
1 1 1 1
0.999999 1 1 0.999999
1 1 1 1
1 1 1 1
0.999999 1 1 0.999999
0.999973 1 1 0.999973
1 1 1 1
0.999998 1 1 0.999998
1 1 1 1
1 1 1 1
0.999999 1 1 0.999999
1 1 1 1
1 1 1 1
0.999999 1 1 0.999999
1 1 1 1
1 1 1 1
1 1 1 1

VECTORS lamdaE float
0.999326 0.997898 0.99813
0.999452 0.997324 0.999291
0.999325 0.997867 0.998147
0.999038 0.998992 0.997706
0.999242 0.998217 0.99801
0.999398 0.997612 0.998246
0.999523 0.998915 0.996654
0.999463 0.997327 0.999302
0.999262 0.998105 0.999152
0.999399 0.997531 0.999269
0.999524 0.997096 0.998436
0.999615 0.99837 0.996827
0.998554 1.00023 0.997456
0.99887 0.999333 0.997664
0.999323 0.997835 0.998165
0.99903 0.998961 0.99773
0.999399 0.997578 0.998261
0.999239 0.998184 0.998029
0.99952 0.998928 0.99666
0.998618 0.999872 0.998923
0.998918 0.999399 0.997572
0.999142 0.998586 0.99787
0.999414 0.99975 0.996093
0.99948 0.999188 0.996487
0.999474 0.997346 0.998343
0.99956 0.998641 0.996833
0.999912 1.00032 0.994561
0.999474 0.997329 0.999312
0.999263 0.998142 0.998563
0.999403 0.997552 0.998761
0.999518 0.997105 0.999332
0.999611 0.998344 0.996835
0.999144 0.998525 0.997849
0.999326 0.997842 0.998146
0.999526 0.999156 0.99676
0.999589 0.996882 0.999362
0.999573 0.998613 0.99716
0.99965 0.998152 0.996964
0.999879 0.99999 0.994689
0.999694 0.996642 0.999366
0.998555 0.999947 0.998914
0.998843 0.999328 0.998317
0.998492 1.00016 0.998882
0.998696 0.999789 0.997577
0.999162 1.00077 0.995267
0.999025 0.998807 0.999046
0.999321 1.00002 0.996264
0.999023 0.998929 0.997753
0.999236 0.998149 0.998048
0.9994 0.997545 0.998277
0.999517 0.998942 0.996666
0.998606 0.999989 0.998198
0.998909 0.999375 0.99759
0.999477 0.997309 0.998355
0.999138 0.998551 0.997892
0.999413 0.999762 0.996096
0.999558 0.998651 0.99684
0.999479 0.9992 0.996491
0.999928 1.00031 0.994531
0.998542 1.00007 0.99891
0.998774 0.999784 0.997502
0.999218 1.0005 0.996015
0.999389 0.999999 0.995916
0.999438 0.999473 0.996304
1.00011 1.00058 0.993888
0.99996 1.0004 0.994248
0.999572 0.997118 0.998411
0.999615 0.99834 0.997019
0.999856 1.00019 0.994806
1.00027 1.00063 0.993281
0.999275 0.99812 0.999168
0.999534 0.997114 0.999344
0.999411 0.997565 0.999275
0.999607 0.998318 0.996842
0.999151 0.998472 0.99908
0.999323 0.997834 0.999205
0.999522 0.999159 0.996197
0.999594 0.9969 0.998921
0.999574 0.998588 0.996678
0.99965 0.998127 0.997205
0.999868 1.00001 0.994685
0.999639 0.996758 0.999363
0.999799 0.997681 0.99713
0.999491 0.999469 0.995905
0.999538 0.998911 0.996408
1.00004 1.00041 0.993907
0.999705 0.99793 0.997515
0.999919 1.00013 0.994462
0.999856 0.999833 0.994902
1.00006 1.00068 0.993631
0.99974 0.996542 0.99937
0.999701 0.996659 0.999368
0.998906 0.999177 0.999012
0.998596 0.999889 0.998933
0.998501 1.00014 0.998888
0.998676 0.999751 0.998252
0.99916 1.00071 0.995656
0.999031 0.998886 0.998387
0.999336 1.00007 0.995951
0.998488 1.0002 0.998887
0.999134 1.00095 0.995174
0.999229 1.00034 0.996136
1.00001 1.00099 0.9934
0.999432 0.999691 0.996413
1.00007 1.00067 0.993595
0.998598 1.00011 0.997466
0.998899 0.999351 0.997608
0.999479 0.997271 0.998367
0.999134 0.998514 0.997914
0.999412 0.999776 0.9961
0.999477 0.999212 0.996495
0.999556 0.998661 0.996847
0.999945 1.00031 0.9945
0.998526 1.00009 0.998902
0.998765 0.999762 0.997515
0.999229 1.00054 0.995521
0.999387 1.00001 0.995917
0.99956 0.99708 0.99887
0.99961 0.998343 0.997167
0.999437 0.999485 0.996308
1.00011 1.00058 0.993815
0.999874 1.00018 0.99477
0.999971 1.0004 0.994286
1.00026 1.00063 0.993288
0.999162 1.00083 0.995223
0.99932 1.00024 0.995827
1.00016 1.00081 0.99343
1.00018 1.00061 0.993594
1.00002 1.00049 0.994017
1.00056 1.00061 0.99282
0.999632 0.996909 0.999343
1.00035 1.00056 0.993177
0.999685 0.998078 0.996966
0.99984 1.00001 0.99474
1.00016 1.00072 0.993402
1.00047 1.00064 0.99287
0.999789 0.997757 0.997049
0.99998 0.999398 0.995061
0.99919 0.998443 0.999104
0.999343 0.997827 0.999229
0.999501 0.999151 0.996188
0.999599 0.996933 0.99936
0.999648 0.998094 0.996991
0.999563 0.998562 0.996673
0.999856 1.00003 0.994681
0.999649 0.996775 0.999364
0.9998 0.99767 0.997131
0.999485 0.999447 0.996246
0.999532 0.998879 0.996706
1.00003 1.00044 0.993904
0.99971 0.997911 0.997088
0.999901 1.00016 0.994461
0.999848 0.999837 0.994901
1.00006 1.00069 0.99359
0.999759 0.997778 0.997117
0.999834 0.997596 0.997145
0.999954 0.999371 0.995151
1.0001 1.00046 0.993739
0.999966 1.00031 0.994182
1.00043 1.00058 0.992973
0.999884 0.999607 0.99507
1.00016 1.00062 0.993439
1 1.00074 0.993713
1.00018 1.00096 0.993197
0.999781 0.996449 0.999374
0.999745 0.996556 0.999371
0.999709 0.996675 0.999369
0.999824 0.997664 0.997072
0.999689 0.996772 0.99935
0.999065 0.998798 0.999053
0.998738 0.999557 0.998974
0.999306 1.00014 0.995609
0.999142 1.0008 0.995298
0.998509 1.00012 0.998895
0.998486 1.0002 0.998884
0.999125 1.00096 0.995175
0.999239 1.00041 0.995813
1.00002 1.00099 0.993394
0.999432 0.999758 0.995769
1.00007 1.00067 0.993592
0.999128 1.00097 0.995157
1 1.00107 0.993333
1.00004 1.00083 0.993502
1.0004 1.00092 0.992695
1.0001 1.00054 0.993661
1.00051 1.00065 0.992762
0.99851 1.00011 0.998895
0.998756 0.999741 0.997527
0.999238 1.00058 0.99503
0.999386 1.00002 0.995917
0.999546 0.997041 0.999331
0.999606 0.998346 0.997315
0.999437 0.999497 0.996312
1.00012 1.00058 0.993743
0.999982 1.00041 0.994323
0.999893 1.00018 0.994735
1.00025 1.00063 0.993294
0.999165 1.00082 0.995224
0.999323 1.00024 0.995826
1.00016 1.0008 0.993297
1.00018 1.00062 0.993638
0.999618 0.996896 0.99934
0.999681 0.998095 0.997183
0.999854 0.999989 0.994875
1.00003 1.0005 0.994014
1.00055 1.0006 0.99274
1.00015 1.00072 0.993385
1.00036 1.00056 0.993219
1.00046 1.00064 0.992876
0.999788 0.997771 0.997049
0.999978 0.999404 0.995062
1.00008 1.00094 0.9933
1.0002 1.00069 0.99348
1.0006 1.00078 0.992557
1.00064 1.00061 0.99249
1.00043 1.00057 0.993073
1.00074 1.00059 0.992408
0.999739 0.99789 0.997016
1.00055 1.00052 0.992812
0.999865 0.999795 0.994891
1.00005 1.00071 0.993544
1.00037 1.00086 0.992971
1.00056 1.00059 0.99275
0.999952 0.999472 0.99504
0.999997 0.999335 0.995091
1.00009 1.00046 0.993797
0.999472 0.999454 0.995945
0.999659 0.996792 0.999365
0.9998 0.997659 0.997131
0.999521 0.99885 0.996455
1.00003 1.00046 0.993901
0.999704 0.997893 0.997086
0.99984 0.999843 0.9949
0.999883 1.0002 0.99446
1.00007 1.00069 0.993548
0.999759 0.997766 0.997118
0.999834 0.997585 0.997146
0.999955 0.999365 0.995151
1.0001 1.00047 0.993733
0.999949 1.00034 0.994183
1.00043 1.00059 0.992969
0.99988 0.999601 0.995071
1.00016 1.00062 0.993465
0.999999 1.00075 0.993706
1.00017 1.00096 0.993152
0.999866 0.997513 0.997162
0.999926 0.999445 0.995137
0.999976 0.999309 0.995169
1.00007 1.00042 0.993889
1.00053 1.0005 0.992851
1.00028 1.00065 0.993235
1.00063 1.00061 0.992553
1.00002 1.0006 0.993823
1.00031 1.00078 0.993021
1.00008 1.00123 0.993081
1.00025 1.00105 0.992863
1.00004 0.999042 0.995297
0.999927 0.997351 0.997193
0.999819 0.996358 0.999378
0.999785 0.996458 0.999376
0.999751 0.996569 0.999373
0.999853 0.997585 0.997094
0.999733 0.996661 0.999356
0.999824 0.997676 0.997072
0.999679 0.996755 0.999349
0.999402 0.999782 0.99576
0.999209 1.00049 0.995457
1.00008 1.00067 0.993589
1.00003 1.00098 0.993387
0.999117 1.00097 0.995176
0.998485 1.0002 0.99888
0.999126 1.00097 0.995156
1.00001 1.00107 0.993329
1.00004 1.00083 0.993498
1.00041 1.00092 0.992687
1.0001 1.00054 0.993655
1.00051 1.00065 0.992764
1.00003 1.00106 0.993306
1.00034 1.00102 0.992723
1.00047 1.00079 0.992701
1.00059 1.00085 0.992407
1.00054 1.00053 0.992815
1.00069 1.00058 0.992477
0.999169 1.00081 0.995225
0.999325 1.00023 0.995825
1.00017 1.0008 0.993164
1.00019 1.00062 0.993682
0.999605 0.996884 0.999337
0.999677 0.998112 0.9974
0.999868 0.999967 0.995009
1.00003 1.0005 0.994011
1.00055 1.00058 0.99266
1.00036 1.00056 0.993261
1.00013 1.00072 0.993369
1.00046 1.00064 0.992883
0.999788 0.997784 0.997048
0.999975 0.999411 0.995064
1.00008 1.00094 0.993252
1.0002 1.00068 0.993478
1.00059 1.00077 0.992542
1.00064 1.00061 0.992579
0.99974 0.997904 0.997014
0.999874 0.99979 0.994891
1.00005 1.0007 0.993599
1.00044 1.00057 0.993082
1.00074 1.00056 0.992386
1.00035 1.00086 0.992915
1.00055 1.00052 0.992814
1.00056 1.00057 0.992745
0.999951 0.999479 0.995042
1.0001 1.00044 0.993756
0.999995 0.999342 0.995091
1.00048 1.00094 0.992658
1.00067 1.00065 0.992501
1.00077 1.00075 0.992145
1.00085 1.00059 0.992148
1.00061 1.0005 0.992687
1.00084 1.0004 0.992381
0.999909 0.999597 0.994997
1.00064 1.00043 0.992728
1.00004 1.0006 0.993767
1.0002 1.00097 0.99301
1.00045 1.00095 0.992646
1.00061 1.00044 0.992872
1.00001 0.999265 0.99513
1.00008 1.00045 0.993822
1.0001 1.00047 0.993684
1.00016 1.00094 0.993279
1.0001 1.00048 0.993727
0.999834 0.997575 0.997147
0.999758 0.997754 0.997119
0.999956 0.999359 0.99515
0.999931 1.00037 0.994184
1.00044 1.00059 0.992966
0.999875 0.999595 0.995073
0.999995 1.00076 0.993698
1.00017 1.00063 0.993491
1.00017 1.00095 0.993107
0.999865 0.997504 0.997163
0.999926 0.999439 0.995137
0.999976 0.999304 0.995169
1.00007 1.00042 0.993886
1.00054 1.0005 0.992846
1.00027 1.00065 0.993236
1.00063 1.00061 0.992549
1.00001 1.00061 0.993824
1.00032 1.00079 0.993064
1.00009 1.00124 0.993066
1.00023 1.00102 0.992941
0.999898 0.997432 0.997179
0.999994 0.999245 0.995195
1.00006 1.00044 0.993885
1.00007 1.0004 0.993894
1.00012 1.00104 0.993168
1.00072 1.00044 0.992534
1.00045 1.00076 0.992776
1.00072 1.00059 0.992421
1.00007 1.00122 0.993122
1.00037 1.0009 0.992798
1.00015 1.00153 0.992508
1.00003 0.999119 0.995257
1.0001 1.00019 0.994055
1.00006 0.998973 0.995325
1.00004 0.99904 0.995299
0.999954 0.997252 0.99763
0.999924 0.997345 0.997406
0.999866 0.996303 0.998543
0.999823 0.996363 0.99938
0.999789 0.996468 0.999377
0.999883 0.99751 0.997111
0.999771 0.996558 0.999361
0.999853 0.997596 0.997093
0.999727 0.996644 0.999354
0.999823 0.997689 0.997071
0.99967 0.996739 0.999347
1.0001 1.00055 0.99365
1.00005 1.00083 0.993494
1.0005 1.00066 0.992767
1.00042 1.00092 0.992679
1.00002 1.00107 0.993325
0.999123 1.00097 0.995157
1.00003 1.00106 0.993311
1.00035 1.00102 0.992719
1.00047 1.00079 0.992699
1.00059 1.00085 0.992416
1.00054 1.00053 0.992814
1.00068 1.00058 0.992484
1.00037 1.00104 0.992678
1.00045 1.00098 0.992561
1.00066 1.00073 0.992383
1.00068 1.0008 0.9923
1.00071 1.00043 0.992561
1.00079 1.00035 0.992541
1.00008 1.00094 0.993204
1.0002 1.00068 0.993476
1.00058 1.00077 0.992526
1.00064 1.00061 0.992669
0.999741 0.997919 0.997011
0.999882 0.999786 0.994891
1.00005 1.0007 0.993654
1.00045 1.00057 0.993092
1.00074 1.00053 0.992364
1.00055 1.00051 0.992816
1.00034 1.00085 0.992859
1.00055 1.00055 0.99274
0.99995 0.999486 0.995043
1.00011 1.00042 0.993715
0.999992 0.999349 0.995091
1.00046 1.00093 0.992622
1.00066 1.00066 0.992497
1.00079 1.00074 0.992099
1.00085 1.00059 0.992167
0.999912 0.999602 0.994998
1.00005 1.00059 0.993768
1.00019 1.00098 0.993063
1.00061 1.00052 0.992712
1.00083 1.00035 0.992401
1.00043 1.00098 0.9926
1.00064 1.00042 0.99273
1.0006 1.00037 0.992902
1.00009 1.00043 0.993825
1.00017 1.00093 0.993217
1.00001 0.999271 0.995128
1.0001 1.00046 0.993684
1.00064 1.00094 0.992246
1.00093 1.00061 0.992031
1.00086 1.00075 0.991873
1.00095 1.00038 0.992107
1.0007 1.00035 0.992671
1.00091 1.0001 0.992521
1.00006 1.0005 0.993827
1.00068 1.00012 0.992943
1.00014 1.0009 0.993194
1.00026 1.00129 0.992649
1.00049 1.00101 0.992479
1.00066 1.00022 0.992958
1.00002 0.999223 0.995159
1.0001 1.00044 0.993694
1.00018 1.00082 0.993276
1.00014 1.00111 0.993111
1.00022 1.00112 0.992952
0.999865 0.997495 0.997164
1.00054 1.00051 0.992842
0.999977 0.9993 0.99517
0.999926 0.999433 0.995137
1.00006 1.00043 0.993884
1.00027 1.00065 0.993236
1.00064 1.00061 0.992545
1 1.00062 0.993824
1.00009 1.00124 0.993052
1.00032 1.00079 0.993107
1.00021 1.00098 0.993019
0.999897 0.997425 0.99718
0.999995 0.999241 0.995195
1.00005 1.00046 0.993884
1.00007 1.00041 0.993892
1.00012 1.00104 0.99315
1.00073 1.00044 0.992524
1.00045 1.00077 0.992777
1.00071 1.0006 0.992403
1.00007 1.00121 0.993126
1.00038 1.0009 0.992823
1.00018 1.0015 0.992551
1.00001 0.999184 0.995222
1.00009 1.00037 0.993906
1.00012 1.00105 0.993154
1.00012 1.00109 0.993134
1.00014 1.00138 0.992848
1.00083 1.00021 0.99252
1.00052 1.00083 0.992573
1.00066 1.00033 0.992693
1.00009 1.00172 0.992571
1.00035 1.00151 0.992263
1.00003 0.999114 0.995259
1.0001 1.00029 0.993857
1.0001 1.0002 0.993993
1.0001 1.00101 0.993363
1.0001 1.00015 0.994094
1.00008 0.998923 0.995337
1.00006 0.998974 0.995326
0.999984 0.997172 0.997643
1.00004 0.999037 0.9953
0.999954 0.997262 0.997632
0.99991 0.996212 0.998554
0.999921 0.997339 0.997617
0.999864 0.99627 0.998963
0.999827 0.996369 0.999381
0.999912 0.997427 0.997136
0.999884 0.997517 0.99711
0.999808 0.996456 0.999364
0.999766 0.996545 0.999359
0.999854 0.997607 0.997091
0.999721 0.996628 0.999353
1.00054 1.00054 0.992813
1.00047 1.00079 0.992697
1.00068 1.00059 0.99249
1.00059 1.00085 0.992426
1.00036 1.00102 0.992715
1.00002 1.00106 0.993315
1.00036 1.00104 0.992685
1.00044 1.00098 0.992577
1.00066 1.00073 0.992384
1.00069 1.00081 0.992271
1.00071 1.00044 0.992558
1.0008 1.00034 0.992531
1.00047 1.00104 0.992511
1.00042 1.00105 0.992539
1.00077 1.00058 0.992272
1.00071 1.00095 0.992171
1.00083 1.0001 0.992634
1.00087 1.00018 0.992609
1.00044 1.00093 0.992586
1.00066 1.00066 0.992494
1.0008 1.00074 0.992053
1.00085 1.00059 0.992185
0.999915 0.999606 0.994999
1.00006 1.00058 0.993769
1.00019 1.00098 0.993115
1.00062 1.00054 0.992737
1.00083 1.0003 0.992421
1.00065 1.00041 0.992732
1.00042 1.00101 0.992555
1.0006 1.00031 0.992932
1.0001 1.00042 0.993829
1.00017 1.00092 0.993156
1.00001 0.999277 0.995126
1.0001 1.00046 0.993684
1.00063 1.00094 0.992256
1.00092 1.00061 0.992037
1.00089 1.00077 0.991846
1.00095 1.0004 0.992118
1.00007 1.00048 0.993829
1.00014 1.00089 0.993234
1.00026 1.00131 0.992644
1.00071 1.00038 0.992657
1.00089 1.00007 0.992581
1.00048 1.00105 0.992458
1.00068 1.00013 0.992945
1.00065 1.00011 0.99304
1.00018 1.00082 0.993277
1.00023 1.0011 0.992919
1.00014 1.00111 0.993103
1.00002 0.999221 0.995073
1.0001 1.00044 0.9937
1.0007 1.00097 0.99207
1.00105 1.00058 0.991755
1.00102 1.00009 0.992284
1.00082 0.999935 0.992833
1.00017 1.00081 0.993316
1.00079 0.999634 0.993251
1.00014 1.00122 0.992856
1.00031 1.00161 0.992243
1.00058 1.00092 0.992383
1.00003 0.999158 0.99503
1.00009 1.00039 0.99393
1.00011 1.00121 0.993043
1.00023 1.001 0.992996
1.00021 1.00143 0.992652
1.00027 1.00121 0.992702
0.999896 0.997418 0.997181
0.999996 0.999237 0.995194
1.00074 1.00045 0.992514
1.00007 1.00041 0.99389
1.00005 1.00047 0.993884
1.00012 1.00104 0.993131
1.00044 1.00077 0.992777
1.0007 1.00062 0.992386
1.00006 1.00121 0.99313
1.0002 1.00147 0.992594
1.00038 1.00091 0.992848
1.00001 0.99918 0.995222
1.00009 1.00037 0.993904
1.00011 1.00104 0.993192
1.00011 1.0011 0.993128
1.00014 1.00139 0.992806
1.00083 1.00025 0.992514
1.00052 1.00083 0.992555
1.00068 1.00029 0.992724
1.00008 1.00172 0.992544
1.00036 1.00156 0.992207
1.00009 1.00033 0.993923
1.00013 1.00112 0.992997
1.00012 1.0015 0.992717
1.00014 1.00146 0.99265
1.0002 1.00153 0.992562
1.00096 0.999373 0.993118
1.00053 1.00112 0.992328
1.00072 1.00006 0.992689
1.00019 1.002 0.992204
1.00035 1.00186 0.991727
1.00003 0.99911 0.995261
1.00009 1.00029 0.993911
1.00011 1.00111 0.993066
1.0001 1.00021 0.993931
1.0001 1.00015 0.994095
1.0001 1.00101 0.993266
1.00009 1.00159 0.992766
1.0001 1.00096 0.993217
1.0001 1.00012 0.994119
1.0001 0.998897 0.995331
1.00008 0.998927 0.995337
1.00001 0.997102 0.997652
1.00006 0.998975 0.995327
0.999984 0.997182 0.997645
0.999948 0.996125 0.998561
0.999953 0.997272 0.997635
0.99991 0.996178 0.998554
0.999861 0.996237 0.999385
0.999943 0.997318 0.997184
0.999914 0.997434 0.997135
0.999846 0.996342 0.999372
0.999885 0.997525 0.997109
0.999804 0.996449 0.999363
0.999762 0.996533 0.999358
1.00071 1.00045 0.992556
1.00066 1.00073 0.992385
1.0008 1.00033 0.992521
1.0007 1.00083 0.992241
1.00043 1.00098 0.992593
1.00035 1.00104 0.992693
1.00045 1.00104 0.992514
1.00043 1.00103 0.992541
1.00078 1.00057 0.99226
1.0007 1.001 0.992093
1.00082 1.00012 0.992643
1.00086 1.00014 0.992613
1.00037 1.00106 0.992638
1.00041 1.00116 0.992442
1.00077 1.00074 0.992152
1.00093 0.999563 0.993071
1.00062 1.00094 0.992266
1.00091 1.00061 0.992042
1.00091 1.00079 0.991819
1.00095 1.00042 0.992129
1.00008 1.00047 0.993832
1.00015 1.00089 0.993274
1.00025 1.00133 0.99264
1.00071 1.00041 0.992643
1.00086 1.00004 0.992642
1.00068 1.00013 0.992947
1.00048 1.00108 0.992437
1.00065 0.999988 0.993122
1.00018 1.00082 0.993278
1.00023 1.00109 0.992885
1.00014 1.00112 0.993094
1.00002 0.999218 0.994987
1.0001 1.00043 0.993707
1.00073 1.00096 0.992003
1.00103 1.00058 0.991799
1.00101 1.00012 0.992306
1.00017 1.00081 0.993315
1.00016 1.00121 0.99291
1.00029 1.00165 0.992231
1.00083 0.99997 0.992798
1.00057 1.00084 0.992484
1.00077 0.999655 0.993234
1.00003 0.999146 0.995042
1.00023 1.00101 0.992993
1.00028 1.00118 0.992715
1.0002 1.00141 0.992685
1.00012 1.00122 0.993069
1.0001 1.00039 0.993842
1.00084 1.0009 0.99192
1.0011 1.00047 0.991776
1.00105 0.999695 0.9926
1.00098 0.999272 0.993208
1.00021 1.00105 0.993005
1.00078 1.00004 0.992834
1.00016 1.00165 0.992417
1.00036 1.00185 0.991961
1.00005 0.999012 0.995134
1.00009 1.00038 0.993951
1.0001 1.00122 0.99315
1.00015 1.0017 0.992454
1.00027 1.00119 0.992706
1.00028 1.00148 0.992426
1.00001 0.999176 0.995223
1.00009 1.00037 0.993902
1.00082 1.00029 0.992508
1.00011 1.00112 0.993122
1.0001 1.00103 0.993231
1.00013 1.0014 0.992763
1.00053 1.00082 0.992537
1.00069 1.00026 0.992756
1.00007 1.00172 0.992517
1.00036 1.00161 0.992152
1.00009 1.00033 0.993924
1.00013 1.00113 0.993035
1.00012 1.00149 0.992775
1.00014 1.00146 0.992694
1.00018 1.00153 0.992582
1.00097 0.999377 0.993155
1.00055 1.00107 0.992343
1.00069 1.00009 0.992841
1.00017 1.00202 0.992159
1.00037 1.00197 0.991651
1.00012 1.00114 0.992995
1.00014 1.00172 0.992397
1.00016 1.00181 0.99234
1.00019 1.00167 0.992317
1.00118 0.998977 0.993232
1.00107 0.999004 0.993243
1.00057 1.00146 0.991831
1.00021 1.00248 0.991429
1.00009 1.0003 0.993964
1.0001 1.00112 0.993118
1.00009 1.00169 0.992622
1.0001 1.00015 0.994095
1.0001 1.00102 0.99317
1.0001 1.00013 0.994119
1.00009 1.0016 0.992696
1.0001 1.00097 0.993255
1.00011 1.00197 0.992318
1.0001 1.00154 0.992663
1.00011 1.00094 0.993236
1.0001 1.00012 0.994118
1.00011 0.998893 0.995312
1.0001 0.9989 0.995331
1.00004 0.997049 0.997653
1.00008 0.99893 0.995337
1.00001 0.997113 0.997652
0.999981 0.996047 0.998567
0.999984 0.997192 0.997646
0.999947 0.996091 0.998561
0.999909 0.996144 0.998553
0.999979 0.997197 0.997233
0.999946 0.997326 0.997181
0.999885 0.996217 0.999384
0.999916 0.997441 0.997133
0.999842 0.996344 0.999369
0.9998 0.996441 0.999362
1.00081 1.00014 0.992652
1.00079 1.00057 0.992248
1.00085 1.0001 0.992617
1.00069 1.00104 0.992014
1.00044 1.00101 0.992544
1.00044 1.00104 0.992518
1.00041 1.00106 0.992562
1.00044 1.00114 0.992424
1.00074 1.00069 0.992229
1.00092 0.999547 0.993024
1.00041 1.00109 0.992507
1.0004 1.00128 0.992351
1.0009 0.999941 0.992702
1.00077 1.00095 0.991936
1.00102 1.00059 0.991844
1.00099 1.00015 0.992327
1.00017 1.00081 0.993315
1.00018 1.0012 0.992965
1.00028 1.00169 0.992218
1.00084 1.00001 0.992764
1.00075 0.999673 0.993216
1.00056 1.00076 0.992584
1.00023 1.00102 0.992991
1.00028 1.00115 0.992729
1.0002 1.0014 0.992717
1.00003 0.999134 0.995053
1.00012 1.00124 0.993096
1.0001 1.00038 0.993754
1.00078 1.00089 0.992013
1.00112 1.00042 0.991764
1.00105 0.999763 0.992545
1.00021 1.00105 0.993002
1.00016 1.00163 0.992468
1.00035 1.00181 0.992002
1.00097 0.999272 0.99326
1.00078 1.00003 0.992821
1.00005 0.999003 0.995231
1.00008 1.00039 0.993949
1.00027 1.00119 0.992703
1.00028 1.00148 0.992433
1.00015 1.00168 0.992487
1.00011 1.00121 0.993106
1.00077 1.00076 0.992163
1.00118 1.00018 0.991913
1.00114 0.998835 0.993291
1.00105 0.998983 0.993442
1.0002 1.00136 0.99265
1.00048 1.00151 0.99202
1.00021 1.00204 0.992092
1.00007 0.998893 0.995396
1.0001 1.00002 0.99423
1.00008 1.00024 0.993915
1.00009 1.00131 0.993015
1.00013 1.00175 0.992441
1.00021 1.00193 0.992152
1.00026 1.00139 0.992507
1.00025 1.00185 0.99221
1.00009 1.00033 0.993924
1.00013 1.00115 0.993073
1.00098 0.999382 0.993193
1.00013 1.00147 0.992737
1.00011 1.00147 0.992833
1.00016 1.00152 0.992602
1.00057 1.00101 0.992358
1.00065 1.00012 0.992994
1.00016 1.00203 0.992114
1.00039 1.00207 0.991575
1.00012 1.00115 0.992988
1.00015 1.00169 0.992462
1.00016 1.0018 0.992388
1.0002 1.00169 0.992351
1.00118 0.998925 0.993205
1.001 0.999172 0.993195
1.0006 1.00145 0.991891
1.00024 1.00246 0.991424
1.0001 1.00178 0.992519
1.00084 0.999774 0.992944
1.00017 1.00215 0.992053
1.00022 1.0022 0.991864
1.0015 0.997882 0.99373
1.00093 1.00071 0.991787
1.00035 1.00277 0.991126
1.0001 1.00113 0.99317
1.00008 1.0017 0.992623
1.00008 1.00208 0.992254
1.0001 1.00013 0.994119
1.0001 1.00097 0.993294
1.0001 1.0016 0.992626
1.0001 1.00013 0.994118
1.0001 1.00094 0.993235
1.00011 1.00198 0.992268
1.0001 1.00154 0.992736
1.00014 1.00217 0.992035
1.00014 1.00193 0.992211
1.00011 1.00149 0.992767
1.0001 1.00096 0.993302
1.0001 1.00014 0.9941
1.00011 0.9989 0.995295
1.00011 0.998895 0.995312
1.00005 0.99702 0.997643
1.0001 0.998903 0.995331
1.00004 0.997062 0.997652
1.00001 0.995986 0.998567
1.00001 0.997124 0.997653
0.99998 0.996015 0.998567
0.999947 0.996058 0.99856
1.00008 0.998783 0.995476
1.00001 0.997091 0.99728
0.999981 0.997205 0.997231
0.999923 0.996104 0.999394
0.999948 0.997333 0.997178
0.99988 0.996225 0.99938
0.999837 0.996346 0.999367
1.00092 0.999531 0.992978
1.00072 1.00064 0.992307
1.00047 1.00113 0.992405
1.00045 1.00106 0.992485
1.00039 1.00109 0.992585
1.00039 1.00134 0.992317
1.00086 0.999889 0.992812
1.00038 1.00118 0.99252
1.00051 1.00087 0.99247
1.0005 0.999892 0.993774
1.00072 1.00088 0.992106
1.00114 1.00038 0.991751
1.00104 0.999832 0.99249
1.00021 1.00106 0.992998
1.00016 1.0016 0.992519
1.00034 1.00178 0.992042
1.00095 0.999273 0.993312
1.00077 1.00003 0.992807
1.00026 1.0012 0.992699
1.00028 1.00148 0.992441
1.00014 1.00166 0.992519
1.00005 0.998995 0.995328
1.00008 1.00039 0.993947
1.00012 1.0012 0.993061
1.00078 1.00075 0.992104
1.00007 0.998894 0.995394
1.0001 1.00001 0.994174
1.00118 1.00015 0.991939
1.00111 0.99898 0.993165
1.0002 1.00134 0.992668
1.00021 1.00205 0.992041
1.00049 1.00141 0.992042
1.00104 0.998973 0.993417
1.00008 1.00024 0.994073
1.00009 1.00132 0.993005
1.00027 1.0014 0.992521
1.00026 1.00175 0.992232
1.00021 1.00194 0.992085
1.00013 1.00174 0.992463
1.00085 1.0011 0.99169
1.00122 0.999384 0.992613
1.0013 0.997684 0.994158
1.00078 1.00031 0.992633
1.00018 1.00166 0.992402
1.00026 1.00238 0.991714
1.00011 0.999886 0.994225
1.00009 1.00011 0.99415
1.00009 1.00094 0.993473
1.00006 1.00129 0.992936
1.00012 1.00184 0.99246
1.00018 1.0022 0.991808
1.0002 1.0024 0.991745
1.0002 1.0018 0.992242
1.00012 1.00116 0.992981
1.00015 1.00167 0.992527
1.00117 0.998872 0.993178
1.00094 0.999337 0.993148
1.00021 1.0017 0.992386
1.00015 1.00178 0.992435
1.00063 1.00144 0.99195
1.00027 1.00244 0.991419
1.0001 1.00177 0.992515
1.00075 0.999601 0.993244
1.00017 1.0021 0.992048
1.00023 1.00217 0.991791
1.0014 0.997985 0.993666
1.00099 1.0007 0.991821
1.00034 1.00286 0.991057
1.00009 1.00227 0.9921
1.00117 0.998002 0.993809
1.00022 1.00239 0.991782
1.00028 1.00301 0.991134
1.00163 0.999055 0.991933
1.0005 1.0027 0.990617
1.00353 0.996244 0.990912
1.00008 1.0017 0.992624
1.00007 1.00209 0.992256
1.0001 1.00231 0.99203
1.0001 1.00013 0.994117
1.0001 1.00094 0.993235
1.0001 1.00154 0.992809
1.00011 1.00199 0.992217
1.0001 1.00014 0.9941
1.0001 1.00096 0.99326
1.00014 1.00216 0.992019
1.00011 1.00149 0.992765
1.00014 1.00194 0.992272
1.0002 1.00216 0.99189
1.00014 1.00187 0.992369
1.00012 1.0015 0.992793
1.0001 1.00099 0.993181
1.0001 1.00015 0.993967
1.00009 1.00104 0.993357
1.0001 1.00016 0.993967
1.00011 0.998908 0.995289
1.00011 0.9989 0.995295
1.00007 0.997028 0.997217
1.00011 0.998897 0.995312
1.00006 0.997035 0.997435
1.00001 0.995919 0.999392
1.00004 0.997075 0.997651
1.00001 0.995955 0.998567
0.99998 0.995983 0.998566
1.0001 0.998679 0.995552
1.00008 0.998785 0.995475
1.00003 0.996991 0.997335
1.00001 0.997098 0.997482
0.999956 0.996002 0.999406
0.999983 0.997212 0.997228
0.999918 0.99611 0.999391
0.999875 0.996233 0.999376
1.00083 0.999839 0.992923
1.00039 1.0014 0.992283
1.00037 1.00109 0.992663
1.00038 1.00118 0.992528
1.0005 1.00091 0.992478
1.00021 1.00009 0.994013
1.00045 1.00114 0.992503
1.00188 0.996178 0.996467
0.999662 0.999481 0.995462
1.00012 0.999769 0.99444
1.00079 1.00074 0.992044
1.00118 1.00012 0.991966
1.00108 0.99912 0.993039
1.0002 1.00132 0.992686
1.0002 1.00207 0.991989
1.00049 1.0013 0.992065
1.00103 0.998964 0.993394
1.00028 1.00141 0.992535
1.00026 1.00166 0.992255
1.00022 1.00196 0.992019
1.00007 0.998896 0.995393
1.00013 1.00172 0.992485
1.00008 1.00023 0.994232
1.00008 1.00133 0.992996
1.0001 1.00001 0.994119
1.00091 1.00103 0.991585
1.00011 0.999871 0.994296
1.00009 1.00011 0.994149
1.00009 1.00095 0.993365
1.00121 0.999407 0.992625
1.00128 0.997852 0.993959
1.0002 1.00164 0.992415
1.00022 1.00232 0.991711
1.00075 1.00024 0.992664
1.00006 1.00127 0.993012
1.00013 1.00184 0.992435
1.00021 1.0018 0.992234
1.0002 1.00228 0.991828
1.00018 1.00222 0.991856
1.00103 1.00101 0.991372
1.00147 0.997232 0.994139
1.00128 0.998613 0.993324
1.00043 1.00193 0.99187
1.00009 1.00209 0.992128
1.00008 1.00075 0.993405
1.00008 1.00109 0.993101
1.00004 1.00165 0.992773
1.00009 1.00206 0.992269
1.00017 1.00213 0.991931
1.00016 1.00282 0.991396
1.00017 1.00252 0.991619
1.0001 1.00177 0.992511
1.00017 1.00205 0.992043
1.00065 0.999432 0.993544
1.0013 0.998091 0.993602
1.00105 1.00069 0.991855
1.00023 1.00215 0.991719
1.00033 1.00293 0.990988
1.00008 1.00224 0.992128
1.00107 0.997962 0.993974
1.0002 1.00234 0.991764
1.00023 1.00297 0.991104
1.00168 0.99888 0.992134
1.00049 1.0029 0.990571
1.00367 0.996267 0.991791
1.00007 1.00252 0.991869
1.0021 0.998151 0.991331
1.0001 1.00285 0.991505
1.00001 1.00419 0.990338
1.00092 1.00193 0.990275
0.994729 1.00356 0.980606
0.999811 0.999679 0.994574
1.00343 0.997546 0.989993
0.997543 0.99598 0.993281
1.00697 0.983718 0.998244
1.00006 1.0021 0.992258
1.00009 1.00229 0.992033
1.00014 1.00235 0.991862
1.0001 1.00014 0.9941
1.0001 1.00096 0.993217
1.00011 1.0015 0.992764
1.00013 1.00194 0.992332
1.00015 1.00215 0.992004
1.00013 1.0015 0.992723
1.0001 1.00015 0.994026
1.0001 1.00099 0.993228
1.00019 1.00217 0.99193
1.00014 1.00186 0.992347
1.00014 1.00183 0.992391
1.0002 1.00208 0.992012
1.00014 1.00155 0.992588
1.0001 1.00102 0.993152
1.0001 1.00016 0.993965
1.00009 1.00102 0.993291
1.0001 1.00163 0.992736
1.00009 1.00109 0.993189
1.00009 1.00104 0.993256
1.0001 1.00018 0.994063
1.0001 1.00016 0.993968
1.00011 0.99892 0.99529
1.00011 0.998907 0.995289
1.00007 0.997049 0.99721
1.00011 0.998901 0.995295
1.00007 0.997029 0.997216
1.00001 0.995908 0.99939
1.00006 0.997051 0.997226
1.00002 0.995919 0.998977
1.00001 0.995924 0.998568
1.0001 0.998604 0.995609
1.0001 0.998681 0.995551
1.00005 0.996909 0.997387
1.00008 0.998787 0.995474
1.00003 0.996988 0.997536
0.999982 0.995914 0.999419
1.00001 0.997112 0.997266
0.999949 0.996033 0.9994
0.999913 0.996117 0.999389
1.0005 1.00095 0.992486
1.00038 1.00117 0.992537
0.999936 1.00028 0.994252
1.00174 0.996381 0.99644
1.00039 1.00113 0.992526
0.999701 0.999835 0.994929
1.00029 1.00136 0.992079
0.998334 0.999839 0.992683
0.999863 0.999815 0.997147
1.00012 0.999698 0.994508
1.00012 0.999777 0.994436
1.00009 1.00062 0.993636
1.00008 1.00047 0.993818
1.00097 1.00096 0.99148
1.0012 0.999424 0.992636
1.00126 0.998027 0.99376
1.00022 1.00161 0.992428
1.00017 1.00227 0.991708
1.00073 1.00018 0.992694
1.00021 1.0018 0.992226
1.0002 1.00216 0.991912
1.00017 1.00224 0.991905
1.00009 1.00012 0.994148
1.00014 1.00184 0.992409
1.00006 1.00126 0.993088
1.00011 0.999856 0.994366
1.00009 1.00096 0.993257
1.00106 1.00088 0.99148
1.00009 1.00077 0.993516
1.00008 1.00107 0.993175
1.00004 1.00157 0.992813
1.00143 0.9975 0.994099
1.00125 0.998492 0.993331
1.00011 1.00213 0.992118
1.00037 1.00187 0.991924
1.00009 1.00208 0.992285
1.00018 1.00209 0.99198
1.00017 1.0025 0.991628
1.00015 1.0028 0.991427
1.00128 0.999144 0.992655
1.00179 0.996391 0.994485
1.00089 1.00103 0.991699
1.00014 1.00243 0.991775
1.00005 1.00172 0.992606
1.00007 1.00189 0.992398
1.00011 1.00275 0.991479
1.00015 1.00335 0.990872
0.995014 1.00124 0.980141
1.00008 1.0022 0.992157
1.00019 1.00229 0.991745
1.00098 0.997917 0.99414
1.00174 0.998705 0.992334
1.00048 1.00307 0.990525
1.00018 1.00295 0.991073
1.00388 0.996248 0.992668
1.00006 1.0025 0.99189
1.00221 0.998162 0.991374
1.00008 1.00278 0.991534
1.00001 1.00411 0.990345
1.00099 1.00172 0.990495
0.994651 1.00253 0.981482
0.999955 0.999657 0.990801
1.00352 0.997375 0.990039
0.997904 0.996524 0.991169
1.00622 0.984131 0.999448
0.999977 1.00268 0.991863
0.997926 0.997486 0.988566
1.00613 0.989129 0.996631
1.00143 1.00119 0.989933
0.999835 1.00365 0.99122
0.999844 1.00518 0.989813
1.00286 0.999237 0.989477
0.995305 1.0036 0.978724
1.00018 0.999317 0.991882
0.998006 0.997283 0.992292
1.01202 0.983816 0.993364
1.00008 1.00228 0.992036
1.00014 1.00236 0.991864
1.00021 1.00225 0.991804
1.0001 1.00015 0.994086
1.0001 1.00099 0.993274
1.00013 1.0015 0.992652
1.00015 1.00185 0.992324
1.00018 1.00218 0.991969
1.0001 1.00016 0.993965
1.00015 1.0018 0.992379
1.00013 1.00155 0.992665
1.0001 1.00102 0.993213
1.0002 1.00208 0.991982
1.00017 1.00192 0.992168
1.00019 1.00222 0.991893
1.00012 1.00164 0.992596
1.0001 1.00102 0.993279
1.00009 1.00102 0.993291
1.0001 1.00163 0.992665
1.0001 1.00162 0.992653
1.00009 1.00171 0.992585
1.00009 1.002 0.992309
1.00011 1.00179 0.992441
1.00009 1.00119 0.993095
1.00009 1.0011 0.993188
1.0001 1.00022 0.994027
1.00009 1.00105 0.993154
1.0001 1.00018 0.994005
1.0001 0.998948 0.995286
1.0001 1.00016 0.993968
1.00011 0.998918 0.99529
1.00005 0.99707 0.997625
1.00011 0.998906 0.995289
1.00007 0.997043 0.997418
1.00004 0.995911 0.998551
1.00007 0.99703 0.997216
1.00001 0.995906 0.999389
1.00003 0.995918 0.998562
1.00012 0.999723 0.9945
1.00011 0.998568 0.995635
1.00011 0.998608 0.995607
1.00006 0.996861 0.997419
1.0001 0.998682 0.99555
1.00005 0.996906 0.997387
0.999999 0.995849 0.99943
1.00002 0.996992 0.997726
0.999986 0.995942 0.999014
0.999965 0.996056 0.998584
1.00161 0.99656 0.996413
1.00031 1.00112 0.992549
0.999731 1.00018 0.994396
0.998353 0.999929 0.995149
0.999679 0.999831 0.997117
1.00049 1.00139 0.991735
1.0005 1.00245 0.992342
0.997348 1.00228 0.992381
0.995122 1.00259 0.976226
0.99704 0.997862 0.988598
1.00407 0.989757 0.997503
1.00009 1.0005 0.993674
1.00012 0.999703 0.994505
1.00012 0.999785 0.994432
1.00009 1.00062 0.99361
1.00009 1.00125 0.993095
1.0001 1.00101 0.993286
1.00007 1.00064 0.993703
1.00008 1.00049 0.99377
1.00109 1.00075 0.991587
1.00139 0.997777 0.994058
1.00123 0.998375 0.993337
1.00013 1.00217 0.992108
1.00032 1.0018 0.991977
1.00018 1.00247 0.991637
1.00014 1.00278 0.991458
1.00018 1.00206 0.99203
1.00008 1.00106 0.993248
1.00008 1.0021 0.992301
1.00009 1.00078 0.993626
1.00004 1.0015 0.992853
1.00127 0.999266 0.992606
1.00006 1.00169 0.992633
1.00007 1.00191 0.992437
1.00178 0.996454 0.994457
1.00081 1.00082 0.991833
1.00018 1.0025 0.991628
1.00011 1.00276 0.991504
1.00016 1.00327 0.990905
1.00241 0.995898 0.993732
1.00118 1.00004 0.992329
1.00033 1.00227 0.991176
1.00022 1.00351 0.990597
1.00005 1.00225 0.992075
1.00004 1.00263 0.991771
1.00007 1.00363 0.99082
0.998269 0.996134 0.991771
0.995037 1.00273 0.981271
1.00005 1.00248 0.991911
1.00007 1.0027 0.991563
1.00232 0.998222 0.991417
1.00107 1.00154 0.990716
1 1.00406 0.990351
0.994915 1.00303 0.975726
0.99992 0.999826 0.996312
1.0036 0.997215 0.990083
0.997704 0.997468 0.988415
1.00534 0.984597 1.00065
0.999986 1.00267 0.991855
0.998072 0.996824 0.991773
1.00587 0.989453 0.997655
1.00152 1.00121 0.98989
0.999839 1.00357 0.991254
0.999767 1.00489 0.990064
1.00262 0.999882 0.98933
0.994903 1.00383 0.975617
1.00026 0.998979 0.996921
0.998183 0.996591 0.988478
1.01139 0.981885 0.995435
1.00001 1.00268 0.991759
1.00628 0.993751 0.993907
1.01458 0.99055 0.986406
0.999711 1.00492 0.989941
0.999583 1.00425 0.9912
1.00141 1.00062 0.994603
1.00004 0.996566 1.00047
0.995158 1.00411 0.976802
0.999364 0.996633 0.986753
1.01507 0.989319 0.98484
1.00014 1.00237 0.991866
1.00021 1.00226 0.991789
1.00015 1.00236 0.991815
1.0001 1.00016 0.993964
1.0001 1.00102 0.993273
1.00012 1.00155 0.992743
1.00015 1.00177 0.992368
1.00021 1.00208 0.991951
1.0001 1.00102 0.993278
1.00017 1.00191 0.992213
1.00012 1.00164 0.992598
1.00019 1.00223 0.991878
1.00013 1.00242 0.991773
1.00015 1.00212 0.99207
1.00011 1.00164 0.992618
1.00009 1.00102 0.99329
1.0001 1.00163 0.992595
1.00011 1.00162 0.992648
1.00009 1.00171 0.992581
1.0001 1.00196 0.992319
1.00008 1.00184 0.99246
1.00012 1.00206 0.992206
1.00007 1.00215 0.992114
1.00014 1.00191 0.992261
1.00013 1.00148 0.992641
1.00014 1.00155 0.992577
1.00012 1.00178 0.992448
1.0001 1.00121 0.993041
1.00009 1.00119 0.993092
1.0001 1.00027 0.99397
1.00009 1.0011 0.993186
1.0001 1.00022 0.994025
1.00008 0.99899 0.995271
1.0001 1.00018 0.993948
1.0001 0.998947 0.995285
1.00004 0.997109 0.997621
1.00011 0.998916 0.99529
1.00006 0.997065 0.997414
1.00003 0.995904 0.998548
1.00007 0.997037 0.997209
1.00002 0.99591 0.999388
1.00001 0.995904 0.999389
1.0001 0.999799 0.994606
1.00011 0.998589 0.995627
1.00011 0.999719 0.994501
1.00006 0.996848 0.997427
1.00011 0.998571 0.995634
1.00011 0.998612 0.995605
1.00006 0.996864 0.997418
1.00001 0.995815 0.999436
1.00004 0.996905 0.997776
1.00001 0.995854 0.999034
0.999997 0.995952 0.998623
0.997562 0.996792 0.992273
1.00514 0.991877 0.994793
0.998382 1.00031 0.997122
0.999488 0.999899 0.997086
1.00069 1.00143 0.99139
0.997261 1.00261 0.997673
1.00064 1.00204 0.992284
0.995197 1.00263 0.979894
0.997003 0.997948 0.992928
1.00449 0.988766 0.997829
0.999042 1.00247 0.994845
0.995257 1.00323 0.979793
0.997875 0.997843 0.991961
1.00993 0.986658 0.994172
1.00006 1.00136 0.992925
1.00009 1.00049 0.993738
1.00012 0.999709 0.994502
1.00009 1.00063 0.993584
1.00009 1.00117 0.993141
1.00008 1.0013 0.993058
1.00009 1.00097 0.993314
1.00007 1.0009 0.993433
1.00007 1.00065 0.993636
1.00008 1.00051 0.993721
1.00126 0.999321 0.992558
1.00175 0.996556 0.99443
1.00073 1.0006 0.991968
1.00021 1.00257 0.991481
1.00016 1.00319 0.990939
1.0001 1.00276 0.99153
1.00006 1.00193 0.992477
1.00006 1.00167 0.992661
1.00217 0.996051 0.9935
1.00004 1.00229 0.992037
1.00004 1.00265 0.991706
1.00116 0.999778 0.992472
1.00037 1.00237 0.991144
1.00022 1.00355 0.990483
1.00007 1.00366 0.990738
1.00303 0.996042 0.992446
1.00003 1.0037 0.990698
1.00013 1.00416 0.990031
1.00004 1.00231 0.992018
1.00003 1.0029 0.991528
1.00005 1.00341 0.991049
1.00605 0.996278 0.989945
0.998338 0.996911 0.988376
0.994916 1.00155 0.979842
0.999996 1.00265 0.991848
0.999849 1.00349 0.991288
1.00162 1.00121 0.989847
0.999679 1.00466 0.990315
0.997794 0.997269 0.988451
0.994866 1.00303 0.982874
1.00066 0.998152 0.992093
1.00238 1.00052 0.989196
0.998228 0.995835 0.99324
1.00626 0.990419 0.997311
1.00973 0.985534 0.994808
1.00001 1.00274 0.991763
1.00593 0.994473 0.99307
1.0145 0.990389 0.986483
0.999704 1.00483 0.989952
0.99952 1.00427 0.991176
1.00176 1.00228 0.990403
1.00062 0.997783 0.993647
0.995509 1.00383 0.977499
0.999809 0.996918 0.991143
1.0135 0.989123 0.98611
0.999896 1.00273 0.991823
1.01431 0.997072 0.982174
1.01866 0.991587 0.979
0.998529 1.00406 0.993185
0.997958 1.00011 1.00146
0.995777 1.0026 0.97901
1.00399 0.994988 0.987361
1.01443 0.992454 0.981345
1.00021 1.00228 0.991774
1.00016 1.00236 0.991808
1.00019 1.00247 0.99179
1.0001 1.00102 0.993277
1.00012 1.00164 0.9926
1.00016 1.0019 0.992258
1.00019 1.00224 0.991862
1.00011 1.00164 0.992617
1.00016 1.00212 0.992069
1.00013 1.00242 0.991778
0.999982 1.00256 0.991947
1.00016 1.00249 0.99167
1.00014 1.0021 0.992131
1.00011 1.00162 0.992644
1.00009 1.00171 0.992577
1.00009 1.00192 0.992328
1.00012 1.00204 0.992227
1.00008 1.00185 0.992464
1.00008 1.00213 0.992137
1.0001 1.00222 0.992057
1.00007 1.00239 0.991927
1.00013 1.00215 0.992099
1.00014 1.00193 0.992258
1.00016 1.00172 0.992369
1.00019 1.00152 0.99256
1.00015 1.00121 0.993011
1.00013 1.00144 0.992723
1.00015 1.00155 0.992622
1.00012 1.0011 0.993048
1.00012 1.00177 0.992455
1.0001 1.00121 0.993044
1.0001 1.00033 0.99392
1.00009 1.0012 0.99309
1.0001 1.00028 0.993967
1.00007 0.999041 0.995249
1.0001 1.00022 0.994023
1.00008 0.998991 0.995269
1.00001 0.997167 0.997612
1.0001 0.998945 0.995285
1.00004 0.997107 0.997409
1.00001 0.995948 0.998545
1.00006 0.997059 0.997205
1.00002 0.995918 0.998968
1.00001 0.99591 0.999387
1.00009 0.999965 0.994359
1.0001 0.99864 0.995596
1.0001 0.999803 0.994471
1.00006 0.996862 0.997422
1.00011 0.998585 0.995628
1.00011 0.999715 0.994503
1.00001 0.995807 0.999436
1.00006 0.996848 0.997427
1.00011 0.998574 0.995632
1.00006 0.996868 0.997417
1.00001 0.995815 0.999434
0.999997 0.995855 0.999426
1.0059 0.995 0.991057
0.998049 0.997126 0.989971
1.01334 0.991871 0.986572
1.00483 0.991252 0.995681
0.997118 1.00207 0.993164
1.0008 1.00159 0.992224
0.995189 1.00282 0.983821
0.996899 0.998142 0.988952
1.00487 0.988057 0.998155
0.999378 1.00189 0.993269
0.994931 1.0033 0.978637
0.998129 0.997053 0.988383
1.01046 0.984581 0.995526
1.00022 0.999572 0.996176
0.994924 1.00379 0.976875
1.00038 0.995228 0.991932
1.01472 0.991055 0.983941
1.00006 1.00187 0.992496
1.00007 1.00133 0.993001
1.00009 1.00048 0.993801
1.00008 1.0011 0.993187
1.00009 1.00158 0.992674
1.00008 1.00126 0.993108
1.00008 1.00094 0.993343
1.00008 1.00104 0.993359
1.00007 1.00088 0.9935
1.00008 1.00066 0.993569
1.00196 0.996256 0.993268
1.00115 0.99945 0.992616
1.00043 1.00249 0.991112
1.00022 1.0036 0.990369
1.00008 1.00369 0.990657
1.00004 1.00267 0.991641
1.00004 1.00233 0.991999
1.00004 1.00235 0.992009
1.00259 0.996228 0.992312
1.00002 1.00289 0.99157
1.00005 1.00345 0.991026
1.00006 1.00378 0.990719
1.00015 1.00414 0.990036
1.00208 0.99889 0.99156
0.999559 1.00496 0.990451
1.00012 1.00403 0.990184
1.00005 1.00276 0.991613
1.00009 1.00339 0.990929
1.01387 0.999957 0.979886
1.00602 0.996231 0.989961
0.998288 0.995867 0.991907
0.999997 1.00282 0.991766
0.999453 1.0043 0.991152
0.9997 1.00466 0.989962
1.00599 0.994793 0.991927
0.995008 1.00413 0.975848
1.00038 0.996653 0.999837
1.00217 1.00393 0.986201
0.999473 0.997651 0.987097
1.01439 0.990232 0.986561
1.01342 0.989897 0.985035
0.9999 1.00278 0.991831
1.01422 0.9977 0.980974
1.01872 0.991462 0.978644
0.998766 1.00403 0.992613
0.998646 1.00006 0.998767
0.996243 1.00316 0.976329
1.01528 0.993396 0.98068
1.00216 0.996593 0.986736
0.999816 1.00217 0.992407
1.01871 0.995177 0.974787
1.02004 0.990783 0.977155
1.01514 0.987623 0.986463
0.997622 1.0016 0.997115
0.995129 1.00048 0.983904
1.00359 0.998588 0.982042
1.00017 1.00236 0.991801
1.00015 1.00249 0.991781
0.999906 1.00268 0.992063
1.00011 1.00164 0.992616
1.00016 1.00212 0.992068
1.00012 1.00244 0.991783
1.00014 1.0021 0.992142
1.00015 1.00254 0.991657
1.00002 1.00249 0.991931
1.00004 1.00272 0.991754
1.00012 1.00252 0.991709
1.00013 1.00201 0.992248
1.00008 1.00185 0.992469
1.00009 1.00211 0.992161
1.00009 1.00236 0.991933
1.00009 1.00221 0.992049
1.00005 1.00254 0.991868
1.0001 1.00203 0.992243
1.00011 1.00235 0.991826
1.00014 1.00194 0.992254
1.00018 1.00174 0.992377
1.00024 1.00181 0.992097
1.00014 1.00154 0.992654
1.00013 1.00115 0.993067
1.00018 1.00152 0.992553
1.00014 1.0009 0.993289
1.00015 1.00121 0.992974
1.00012 1.0014 0.992805
1.00015 1.00154 0.992667
1.00012 1.0011 0.993078
1.00011 1.00031 0.993923
1.0001 1.00121 0.993048
1.0001 1.00032 0.993921
1.00005 0.999096 0.995226
1.0001 1.00028 0.993964
1.00007 0.999044 0.995247
0.999984 0.997218 0.997605
1.00008 0.998991 0.995268
1.00002 0.997165 0.9974
0.999981 0.996011 0.998539
1.00005 0.997101 0.997199
1 0.995961 0.998966
1 0.995935 0.999386
1.00008 1.00013 0.994024
1.00008 0.998756 0.995348
1.00009 0.999968 0.994355
1.00005 0.996909 0.997396
1.00009 0.998645 0.995508
1.00009 0.999806 0.994337
1.00001 0.995814 0.999435
1.00006 0.996859 0.997422
1.00011 0.998581 0.99563
1.00001 0.995806 0.999436
1.00006 0.996849 0.997427
1.00001 0.995816 0.999433
1.01364 0.997742 0.981049
1.00571 0.995533 0.991068
0.998108 0.997119 0.988637
1.00013 1.00109 0.99311
1.01742 0.991935 0.979822
1.0135 0.991917 0.9867
1.00523 0.991331 0.99499
0.99942 1.0013 0.991364
0.995083 1.0036 0.979176
0.998355 0.996275 0.992815
1.00995 0.988246 0.994206
1.00038 0.999338 0.991652
0.995358 1.00309 0.978432
1.00106 0.994473 0.989034
1.01396 0.990906 0.985731
0.99995 0.998285 0.99259
0.994935 1.00235 0.973811
1.00159 0.998338 0.982677
1.01392 0.995909 0.978742
1.00011 1.00217 0.992056
1.00007 1.00191 0.99244
1.00008 1.0013 0.993076
1.00011 1.00164 0.992581
1.0001 1.00156 0.99275
1.00009 1.00122 0.993158
1.00008 1.00103 0.993382
1.00008 1.00087 0.993566
1.00205 0.996461 0.992176
1.00009 1.00388 0.990741
1.00004 1.00239 0.992
1.00017 1.00412 0.99004
1.00005 1.0035 0.991002
1.00002 1.00289 0.991611
1.00005 1.00276 0.991614
1.00172 0.998967 0.991446
1.00009 1.00338 0.990924
1.00014 1.00402 0.990182
0.999604 1.00494 0.99046
1.0001 1.00266 0.991555
1.00055 1.00165 0.991998
0.999643 1.00494 0.99048
1.00016 1.00386 0.990385
1.00011 1.00326 0.990989
1.01839 0.997426 0.97387
1.01387 0.99951 0.979901
1.00599 0.996245 0.989976
0.999908 1.0028 0.991839
0.999002 1.00401 0.992041
1.01413 0.998281 0.979774
0.994964 1.00391 0.977524
0.999393 1.00071 0.993602
1.00187 0.994875 0.986398
1.01876 0.991282 0.978288
1.01618 0.994212 0.980015
0.999882 1.00236 0.992394
1.01861 0.995174 0.974698
1.02006 0.991201 0.976691
0.997604 1.00162 0.99746
1.01433 0.98817 0.988006
0.995544 0.998829 0.984107
1.00211 0.998101 0.982712
0.999781 1.00085 0.993968
1.02014 0.992526 0.974948
1.0188 0.990278 0.979241
1.01017 0.985044 0.995487
1.00143 0.997115 0.984643
0.998019 0.99776 1.00338
0.996581 0.996464 0.982656
1.0001 1.0025 0.991771
0.999943 1.00262 0.991983
0.999571 1.00318 0.991734
1.00014 1.00209 0.992153
1.00014 1.00257 0.991645
1.00007 1.00237 0.991915
1.00012 1.00252 0.991714
1.00003 1.00269 0.99179
0.99997 1.00317 0.991482
1.0001 1.00233 0.991938
1.00008 1.0022 0.992041
1.00005 1.00255 0.991841
0.999911 1.00301 0.991541
1.00006 1.00192 0.992387
1.00009 1.00234 0.991889
1.00023 1.00249 0.991536
1.00026 1.00187 0.992086
1.00021 1.00176 0.992384
1.00025 1.00184 0.992073
1.00013 1.00147 0.992825
1.00004 1.00128 0.99305
1.00014 1.0015 0.992701
1.00011 1.00084 0.993411
1.00013 1.00116 0.99306
1.00016 1.00153 0.992547
1.00011 1.00024 0.993989
1.00014 1.00089 0.993261
1.00015 1.00122 0.992937
1.00012 1.00109 0.993107
1.00011 1.0003 0.993927
1.00004 0.999126 0.99522
1.0001 1.00032 0.993922
1.00005 0.999098 0.995226
0.999962 0.997288 0.997177
1.00007 0.999046 0.995245
0.999993 0.997223 0.997182
0.999932 0.996084 0.999381
1.00002 0.99716 0.99719
0.999975 0.996024 0.998961
0.999984 0.995981 0.999384
1.0001 1.00022 0.993899
1.00006 0.998911 0.995219
1.00009 1.00014 0.994099
1.00003 0.996993 0.997345
1.00008 0.998768 0.995334
1.00009 0.99997 0.994351
0.999996 0.99585 0.999427
1.00005 0.996901 0.997399
1.00009 0.99865 0.995421
1.00001 0.995816 0.999435
1.00006 0.996856 0.997423
1.00001 0.995805 0.999436
1.01795 0.995916 0.975333
1.01369 0.997588 0.981037
1.00595 0.995235 0.990781
1.00013 1.00108 0.993151
1.00017 1.001 0.993049
1.00014 1.00159 0.992643
1.01867 0.992676 0.977277
1.0175 0.992871 0.979435
1.01366 0.991935 0.986829
1.00036 0.99949 0.996337
0.994976 1.00384 0.977594
0.999625 0.997778 0.986599
1.01458 0.991812 0.985505
0.999875 0.998846 0.997476
0.995828 1.00231 0.978614
1.00301 0.997595 0.984833
1.01471 0.996501 0.97848
0.99837 0.996809 1.00112
0.994886 0.998295 0.983096
1.00461 1.00073 0.977976
1.01442 0.991305 0.984078
1.00015 1.00216 0.992005
1.00011 1.00217 0.992065
1.00007 1.00194 0.992383
1.00011 1.00166 0.99257
1.0001 1.00153 0.992826
1.00009 1.00101 0.993404
1.00141 0.999016 0.991332
0.999652 1.00492 0.990469
1.00005 1.00277 0.991615
1.00015 1.00402 0.99018
1.00009 1.00336 0.990919
1.00009 1.00275 0.991508
1.00011 1.00326 0.990965
1.00058 1.00104 0.991849
1.00016 1.00385 0.990363
0.999633 1.00491 0.990358
1.00011 1.00313 0.991045
0.999618 1.00376 0.992108
0.999873 1.0044 0.989991
1.00013 1.00372 0.990501
1.02006 0.99405 0.973817
1.01837 0.996747 0.973816
1.01385 0.99902 0.979916
0.999951 1.00253 0.992383
0.997589 1.00111 0.998415
1.01849 0.995171 0.974609
0.995657 0.999758 0.991293
1.00535 0.997084 0.982976
1.02007 0.991684 0.976227
1.015 0.988668 0.987851
0.999897 1.00088 0.99371
1.02008 0.992856 0.974754
1.01889 0.991177 0.978865
0.99785 0.997257 0.998454
1.01069 0.982973 0.996826
1.00164 0.997135 0.987973
0.99474 0.996822 0.986682
1.00028 0.999759 0.996499
1.01846 0.995394 0.975006
1.01448 0.990376 0.986216
1.00444 0.988382 0.998081
1.00023 0.995016 0.99246
0.995175 0.998301 0.984312
0.998056 0.995119 0.999389
0.999988 1.00255 0.991903
0.999635 1.00321 0.991716
0.999237 1.00384 0.991798
1.00011 1.00251 0.991719
1.00001 1.00268 0.991826
0.999969 1.00313 0.991495
0.999729 1.00438 0.990766
1.00006 1.00256 0.991813
0.999966 1.00315 0.991458
1.00006 1.00347 0.990901
1.00008 1.00233 0.991952
1.00023 1.00252 0.991521
1.00032 1.00258 0.991398
1.00032 1.00209 0.991825
1.00015 1.00155 0.992549
1.00026 1.0019 0.99203
1.00026 1.00189 0.992048
1.00011 1.00121 0.99311
1.00011 1.00141 0.992851
1.00003 1.00095 0.993388
1.00005 1.00127 0.993101
1.00014 1.00145 0.992748
1.00008 1.00022 0.994062
1.00011 1.00083 0.993413
1.00013 1.00117 0.993053
1.00002 0.999132 0.995244
1.00011 1.00023 0.993993
1.00014 1.00089 0.993233
1.00011 1.00029 0.99393
1.00004 0.999126 0.995221
0.999931 0.997352 0.997175
1.00005 0.999099 0.995225
0.999963 0.997292 0.997176
0.999902 0.996197 0.999379
0.999996 0.997226 0.997182
0.999941 0.996099 0.998959
0.999958 0.996043 0.999382
1.00011 1.00023 0.993971
1.00005 0.999019 0.995298
1.0001 1.00023 0.993954
1.00001 0.997102 0.997281
1.00006 0.998914 0.9953
1.00009 1.00014 0.994175
0.999978 0.995915 0.999414
1.00003 0.996983 0.997348
1.00008 0.998779 0.995319
0.999998 0.995848 0.99943
1.00005 0.996894 0.997401
1.00001 0.995818 0.999436
1.01938 0.993321 0.975231
1.01795 0.996189 0.975251
1.01377 0.997567 0.981025
1.00018 1.00091 0.993136
1.0002 1.00115 0.99294
1.00012 1.00107 0.993191
1.00016 1.001 0.993056
1.00015 1.0016 0.992584
1.00018 1.00147 0.992655
1.00017 1.00183 0.992305
1.01751 0.993235 0.979247
1.01867 0.993179 0.976961
1.01758 0.993812 0.979047
1.01553 0.99703 0.978218
1.00005 0.999321 0.992409
0.994934 1.0027 0.982405
1.00253 0.996566 0.983046
0.998556 0.99891 0.997526
0.996459 0.998073 0.980268
1.0029 0.999605 0.979447
1.01307 0.990853 0.984979
0.997198 0.99729 1.00144
0.996976 0.996325 0.98017
1.00489 0.996364 0.984944
1.01108 0.986532 0.992076
1.00013 1.00231 0.991901
1.00015 1.0022 0.991995
1.0001 1.00217 0.992074
1.00012 1.00168 0.992559
1.00061 1.00046 0.991698
0.999637 1.00486 0.990235
1.00009 1.00285 0.991461
1.0001 1.00326 0.99094
1.00016 1.00384 0.990342
1.00009 1.00311 0.991149
1.00015 1.00372 0.990494
0.9992 1.00327 0.993632
0.999904 1.00433 0.99002
1.00012 1.00356 0.99073
0.998262 1.00471 0.995454
1.00006 1.00458 0.989549
1.01832 0.997942 0.973336
1.02 0.993654 0.974058
1.01836 0.996102 0.973762
0.999999 1.00093 0.993451
0.9976 0.997655 1.00286
1.02 0.993199 0.974561
0.996446 0.996518 0.982175
1.002 0.995908 0.985169
1.01898 0.992077 0.978489
1.0101 0.986298 0.99565
1.00016 0.999712 0.996216
1.01846 0.995694 0.974913
1.01464 0.990404 0.98639
0.998176 0.994424 1.00559
1.00476 0.987269 0.998744
1.0007 0.994326 0.989802
0.995652 0.998882 0.982943
0.999982 0.999293 0.997773
1.01397 0.997244 0.981041
1.00573 0.990581 0.99492
0.99776 0.997831 0.992151
0.994926 1.0027 0.979498
0.998674 0.995003 0.996922
0.999707 1.00326 0.991699
0.999321 1.00376 0.991754
0.999028 1.00493 0.991201
0.999968 1.00309 0.991508
0.999724 1.00418 0.990871
0.999868 1.00498 0.989864
1.00002 1.00328 0.991375
1.00008 1.0036 0.990796
1.00032 1.00321 0.990628
1.00024 1.00255 0.991506
1.00033 1.00257 0.991338
1.00038 1.00233 0.99144
1.0005 1.00158 0.991889
1.00031 1.00169 0.992257
1.00032 1.0021 0.991776
1.00011 1.00122 0.992925
1.00016 1.00153 0.992594
1.00025 1.00193 0.991974
1.00007 1.00097 0.99336
1.0001 1.00123 0.993073
1.0001 1.00136 0.992876
1.00002 1.00034 0.994049
1.00004 1.00094 0.993418
1.00006 1.00125 0.993151
0.999995 0.999158 0.995274
1.00008 1.00021 0.994065
1.00012 1.00081 0.993415
0.999904 0.997428 0.997182
1.00002 0.999132 0.995246
1.00011 1.00022 0.993998
1.00004 0.999127 0.995222
0.999932 0.997355 0.997176
0.999866 0.996286 0.999378
0.999965 0.997295 0.997176
0.999897 0.996196 0.999379
0.999927 0.996115 0.99938
1.00018 1.00087 0.993232
1.00013 1.00024 0.993945
1.00004 0.999096 0.995234
1.00012 1.00024 0.993968
0.999986 0.997218 0.997215
1.00005 0.999022 0.995299
1.0001 1.00024 0.994009
0.999953 0.996005 0.999399
1.00001 0.997092 0.997284
1.00006 0.998916 0.99538
0.999981 0.99591 0.999418
1.00003 0.996973 0.997351
1 0.995846 0.999432
1.01797 0.996505 0.974638
1.01946 0.993659 0.974957
1.01795 0.996458 0.975168
1.00017 1.00092 0.993166
1.0002 1.00115 0.992905
1.00019 1.00111 0.992932
1.0002 1.00123 0.992787
1.00023 1.0013 0.992737
1.00016 1.001 0.993063
1.00015 1.00162 0.992526
1.00018 1.00146 0.992657
1.00017 1.00179 0.992325
1.00019 1.00173 0.99241
1.01331 0.993464 0.985498
1.01746 0.993248 0.978859
1.01869 0.993688 0.976646
1.01301 0.991551 0.983809
1.00621 0.999063 0.979364
0.998127 0.999222 0.995255
0.994783 0.996954 0.984719
0.996694 0.998436 0.997608
0.994758 0.997208 0.984958
1.00301 0.99742 0.984218
1.01059 0.984565 0.994123
0.995793 0.999412 0.99742
0.994778 0.999146 0.983231
0.99981 0.997126 0.986478
1.0056 0.986758 0.997644
1.00005 1.00201 0.992348
1.00013 1.00225 0.991984
1.00014 1.00224 0.991984
0.998792 1.00275 0.995162
0.999928 1.00428 0.99005
1.00008 1.00309 0.991253
1.00016 1.00373 0.990487
1.00008 1.00363 0.990764
1.00004 1.00454 0.989565
0.998261 1.00459 0.995443
0.999848 1.00406 0.990433
0.998797 1.00476 0.994048
1.01389 1.00042 0.97961
1.01829 0.997242 0.973327
1.01996 0.993252 0.9743
1.00002 0.999689 0.995947
0.998138 0.994412 0.999336
1.01846 0.995988 0.97482
0.99506 0.998227 0.979213
0.999477 0.998028 0.986581
1.01481 0.990358 0.986563
1.00505 0.986436 0.999406
1.00004 0.999235 0.997766
1.01403 0.997082 0.981017
1.00545 0.990016 0.995794
0.998461 0.994728 1.00033
0.998218 0.996928 0.988432
0.996212 1.00289 0.973976
1.00001 0.999602 0.996592
1.00589 0.99456 0.991469
0.997196 0.997634 0.988644
0.994902 1.00429 0.976225
1.00001 0.995776 0.997938
0.999393 1.00367 0.99171
0.999055 1.00485 0.991214
0.999601 1.00555 0.990152
0.999724 1.00399 0.990977
0.999828 1.0049 0.989977
1.00043 1.00346 0.990136
1.00011 1.00373 0.99069
1.00032 1.00315 0.990666
1.00059 1.00188 0.9915
1.00034 1.00256 0.991279
1.00037 1.00223 0.991487
1.00064 1.00107 0.992117
1.00073 1.00063 0.992347
1.00043 1.00147 0.992105
1.0005 1.00151 0.991914
1.00023 1.00136 0.992668
1.00028 1.00173 0.992185
1.00031 1.00211 0.991726
1.00011 1.0009 0.993335
1.00012 1.00121 0.992975
1.00016 1.00151 0.992639
1 1.00048 0.993962
1.00006 1.00097 0.993351
1.00009 1.00124 0.993036
0.999947 0.999263 0.995262
1.00003 1.00034 0.994049
1.00004 1.00092 0.993448
0.999857 0.99747 0.997616
0.999994 0.999161 0.995275
1.00009 1.00021 0.994068
0.999839 0.996367 0.998537
0.999897 0.997419 0.997395
1.00002 0.999131 0.995248
0.999933 0.997358 0.997176
0.999861 0.99628 0.999379
0.999892 0.996194 0.999379
1.00017 1.00086 0.993221
1.00012 1.00026 0.993933
1.00017 1.00088 0.993212
1.00003 0.999147 0.9952
1.00013 1.00025 0.993943
0.999959 0.997319 0.997166
1.00004 0.999098 0.995234
1.00012 1.00025 0.993965
0.999923 0.996111 0.999384
0.999984 0.99721 0.997217
1.00005 0.999025 0.995299
0.999957 0.995998 0.999404
1.00001 0.997081 0.997287
0.999985 0.995905 0.999422
1.01344 1.0001 0.978586
1.01789 0.996487 0.97456
1.01952 0.99401 0.974684
1.00018 1.00112 0.993005
1.00017 1.00092 0.993197
1.00021 1.00115 0.992869
1.0002 1.00125 0.992829
1.00019 1.00112 0.992967
1.00023 1.00127 0.992739
1.00022 1.0013 0.992713
1.00021 1.00143 0.992583
1.00018 1.00145 0.992659
1.00018 1.00174 0.992345
1.00019 1.00171 0.992402
1.00023 1.00169 0.99244
1.00514 0.991261 0.99668
1.01327 0.99339 0.985624
1.01744 0.993268 0.978472
1.0091 0.988415 0.993577
1.00235 0.99581 0.983705
0.99692 0.996229 0.98027
0.995908 0.99856 1.00546
0.995779 0.999208 1.00379
1.00501 0.987499 0.998183
0.995846 0.998693 0.979072
0.999744 0.997039 0.990719
0.996227 1.00077 1.00088
0.994931 1.00354 0.978685
0.997309 0.998168 0.992497
0.999916 1.00182 0.992818
1.0001 1.00194 0.992356
1.00013 1.00219 0.992067
0.998265 1.00447 0.995434
1.00002 1.00452 0.989582
1.00004 1.00369 0.990798
0.999872 1.00411 0.990503
0.998927 1.00465 0.99391
0.999425 1.00241 0.993791
1.0064 0.995243 0.992771
1.01364 1.00066 0.977974
1.01826 0.996575 0.973317
1.00012 0.999214 0.997757
0.998423 0.995713 1.00217
1.01411 0.997065 0.980993
0.995314 1.00164 0.9834
0.998501 0.99587 0.993148
1.00579 0.990246 0.995261
1.00011 0.999654 0.99669
1.00574 0.995128 0.991455
0.997112 0.997659 0.993018
1.00031 0.996258 0.993378
0.99552 1.00341 0.977866
1.00201 0.998938 0.991501
0.997611 0.996213 0.992586
0.995114 1.00404 0.979364
1.00045 0.997343 0.99265
0.999083 1.00477 0.991228
0.999427 1.00556 0.990139
1.00045 1.00275 0.990946
0.999786 1.00482 0.990089
1.00047 1.00326 0.990189
1.00116 1.00009 0.992193
1.00033 1.00309 0.990704
1.00059 1.00168 0.991585
1.00091 0.999696 0.992973
1.00037 1.00213 0.991534
1.00065 1.00098 0.992148
1.00089 0.999672 0.992962
1.00077 0.999963 0.99292
1.00064 1.00083 0.992367
1.00072 1.00058 0.992395
1.00034 1.00122 0.992466
1.00042 1.00145 0.992164
1.00051 1.00145 0.991938
1.00015 1.00097 0.993187
1.0002 1.00137 0.992661
1.00026 1.00177 0.992113
1.00001 1.00055 0.993881
1.00011 1.00091 0.993332
1.00012 1.00119 0.993025
0.999902 0.99943 0.995187
1.00001 1.00047 0.993964
1.00005 1.00097 0.993343
0.999816 0.997562 0.997192
0.999949 0.999272 0.99526
1.00004 1.00033 0.994048
0.999778 0.996423 0.999385
0.999861 0.99747 0.997198
0.999993 0.999164 0.995276
0.999824 0.996371 0.99938
0.9999 0.997414 0.997186
0.999855 0.996274 0.999379
1.00014 1.00091 0.993337
1.00016 1.00087 0.993242
1.00011 1.00031 0.993921
1.00002 0.999193 0.995181
1.00012 1.00026 0.993931
1.00017 1.00089 0.993193
0.99993 0.997396 0.997143
1.00004 0.999143 0.995201
1.00013 1.00025 0.99394
0.999889 0.996215 0.999374
0.999957 0.997313 0.997167
1.00005 0.999099 0.995234
0.999927 0.996105 0.999388
0.999982 0.997202 0.99722
0.999961 0.995991 0.999408
1.00618 0.993813 0.993888
1.01344 1.00017 0.978562
1.01779 0.996467 0.974482
1.00019 1.00112 0.992975
1.00017 1.00113 0.99302
1.00022 1.00121 0.992813
1.00019 1.00126 0.99287
1.00019 1.00112 0.993002
1.00023 1.00124 0.992742
1.00021 1.00142 0.992603
1.00022 1.00129 0.992731
1.00018 1.00159 0.99253
1.00019 1.00144 0.992725
1.00019 1.00169 0.992395
1.00021 1.00167 0.992423
0.997009 0.996798 0.993373
1.00478 0.99109 0.997675
1.01319 0.993323 0.985749
1.00441 0.988321 0.998721
0.999461 0.997768 0.987428
0.995554 0.999325 0.985059
0.995743 0.999478 0.997663
0.996398 1.0011 0.995222
0.997732 0.997493 0.988645
0.995517 1.00294 0.981049
0.997522 1.00129 0.992137
0.995324 1.00348 0.978034
0.999669 1.0031 0.992459
0.999951 1.00169 0.992845
1.00014 1.00186 0.992365
0.999021 1.00452 0.993774
0.999891 1.00417 0.990573
0.999854 1.00224 0.993837
1.00027 1.00081 0.994018
0.998574 0.995615 0.991792
1.00624 0.995662 0.991381
1.01337 1.00081 0.976337
1.00018 0.999635 0.996782
0.999637 0.995424 1.00158
1.00595 0.99476 0.991228
0.994917 1.00431 0.977002
0.997037 0.998526 0.988791
1.00163 0.998998 0.992765
0.997982 0.996908 0.990345
0.994843 1.00364 0.978135
1.0002 0.998371 0.997535
1.00291 0.997294 0.990569
0.994985 1.00302 0.976019
1.0001 0.999648 0.996768
0.999245 1.0056 0.990127
1.00038 1.0028 0.990902
1.00173 0.997641 0.993368
1.00051 1.00305 0.990242
1.00116 0.999746 0.992249
1.00148 0.997006 0.994518
1.00058 1.00148 0.991669
1.00092 0.999555 0.992998
1.00112 0.998223 0.993904
1.00065 1.00088 0.992178
1.00089 0.999662 0.992955
1.0009 0.999213 0.993363
1.00078 0.999763 0.993132
1.00077 0.999913 0.99297
1.00069 1.00025 0.992831
1.00055 1.00081 0.992564
1.00062 1.00085 0.992378
1.00071 1.00053 0.992444
1.00025 1.00095 0.992907
1.00034 1.00124 0.992526
1.00041 1.00144 0.992222
1.00002 1.00063 0.993763
1.00015 1.00098 0.993182
1.00017 1.00138 0.992654
0.999875 0.999592 0.995075
1.00002 1.00053 0.993884
1.00012 1.00091 0.993328
0.999764 0.997707 0.99715
0.999904 0.999437 0.995186
1.00002 1.00045 0.993967
0.999735 0.996575 0.999382
0.999817 0.997574 0.997191
0.999951 0.99928 0.995258
0.999783 0.996434 0.998963
0.999862 0.997481 0.997198
0.999815 0.996353 0.999381
1.00012 1.00096 0.993301
1.00014 1.00091 0.993275
1.00008 1.00039 0.993895
1.00016 1.00088 0.993264
1.00011 1.00031 0.99392
1 0.999257 0.995161
0.9999 0.997463 0.997136
1.00003 0.999187 0.995182
1.00012 1.00027 0.993929
0.999854 0.996304 0.99937
0.99993 0.99739 0.997143
1.00004 0.999139 0.995201
0.999894 0.996213 0.999376
0.999955 0.997307 0.997169
0.999931 0.996097 0.999393
0.998172 0.996566 0.988811
1.00594 0.994 0.994494
1.01344 1.00023 0.978539
1.00019 1.00113 0.992944
1.00021 1.00121 0.992815
1.00016 1.00113 0.993037
1.00013 1.00118 0.993041
1.00019 1.00127 0.992813
1.00022 1.00141 0.992624
1.00022 1.00128 0.992748
1.00017 1.00157 0.992527
1.00012 1.00142 0.992693
1.00013 1.00171 0.992487
1.00005 1.00171 0.992788
1.00017 1.00151 0.992641
1.00018 1.00165 0.992407
0.995906 1.00228 0.974832
0.997258 0.99777 0.991339
1.00497 0.991619 0.997021
0.997942 0.996765 0.993065
0.994982 1.00379 0.973184
0.996521 1.00098 1.00055
0.998166 1.0012 0.994666
0.995328 1.00275 0.978982
0.999972 0.999126 0.993384
1.00018 1.00385 0.990448
0.999604 1.00311 0.992363
0.999988 1.00157 0.992871
1.00032 1.00207 0.993876
1.00023 0.999636 0.99443
0.995189 1.00037 0.980499
0.998599 0.99608 0.988642
1.00606 0.996191 0.989991
1.00128 0.999021 0.994036
1.00042 0.998826 0.992478
0.998104 0.996526 0.989001
0.994932 1.00423 0.978773
1.00287 0.997582 0.990404
0.995116 1.00268 0.979912
1.00029 0.999507 0.991809
1.00351 0.994982 0.991807
0.998849 1.00254 0.995597
1.00031 1.00289 0.990857
1.00162 0.997842 0.993377
1.00201 0.995271 0.99514
1.00116 0.999394 0.992304
1.00142 0.996986 0.994474
1.00142 0.996664 0.994863
1.00093 0.999415 0.993023
1.00112 0.998289 0.993854
1.00105 0.998522 0.993757
1.00089 0.999657 0.992948
1.00091 0.999273 0.99333
1.00085 0.9995 0.993217
1.00077 0.999716 0.993181
1.00073 1.00005 0.992958
1.00078 0.999862 0.99302
1.0007 1.00024 0.992822
1.00064 1.00041 0.992764
1.00042 1.00073 0.992803
1.00054 1.00084 0.992551
1.00061 1.00088 0.992389
1.00009 1.00069 0.993572
1.00025 1.00096 0.992947
1.00034 1.00125 0.992585
0.999855 0.999795 0.994912
1.00004 1.00062 0.993763
1.00016 1.00098 0.993177
0.999715 0.997878 0.997078
0.999879 0.999596 0.995075
1.00003 1.00051 0.993886
0.999677 0.996714 0.999375
0.999767 0.997722 0.997147
0.999906 0.999445 0.995185
0.999725 0.996564 0.999381
0.999818 0.997587 0.997189
0.999769 0.99644 0.999383
1.00009 1.00104 0.993218
1.00011 1.00096 0.993305
1.00005 1.00052 0.99376
1.00014 1.00092 0.993213
1.00008 1.00041 0.993846
0.999971 0.999367 0.995121
1.0001 1.00031 0.993919
1.00001 0.99925 0.995161
0.999867 0.99754 0.997128
0.999816 0.996386 0.999369
0.9999 0.997455 0.997136
1.00003 0.999181 0.995182
0.999859 0.99631 0.999371
0.999929 0.997383 0.997144
0.999899 0.996212 0.999379
0.995499 1.00203 0.981156
0.998183 0.99667 0.991933
1.00612 0.993551 0.99481
1.00021 1.00122 0.992817
1.00016 1.00112 0.993054
1.00019 1.00127 0.992828
1.00013 1.00117 0.99305
1.00009 1.00133 0.993002
1.00013 1.00131 0.992864
1.00017 1.00155 0.992523
1.00014 1.00145 0.992698
1.00009 1.00173 0.992532
1.00007 1.0015 0.992684
1.0003 1.00157 0.992666
1.00048 1.00251 0.991032
1.00004 1.00166 0.99274
1.00016 1.00157 0.992558
0.999634 0.998904 0.998272
0.995002 1.00251 0.979269
0.997033 0.997876 0.988449
0.995255 1.00339 0.977524
0.998284 1.00047 0.998264
0.999908 0.99936 0.996062
1.00249 0.999533 0.990453
1.00009 1.00331 0.990616
0.999524 1.00311 0.992267
1.00016 0.99856 0.994843
0.997321 1.00277 0.992183
0.995278 1.00169 0.981816
0.998484 0.995291 0.991993
1.00283 0.997868 0.990239
1.00031 0.99942 0.996679
0.995056 1.00271 0.983985
1.00329 0.995334 0.991695
0.999055 1.00207 0.993861
1.00247 0.995934 0.993543
1.0003 1.00264 0.99221
1.0015 0.997928 0.993386
1.00195 0.995396 0.995129
1.00154 0.996922 0.994344
1.00135 0.996979 0.99443
1.00135 0.996894 0.994786
1.00119 0.998329 0.993707
1.00111 0.99836 0.993804
1.00104 0.998632 0.993711
1.001 0.999362 0.993068
1.00091 0.999334 0.993298
1.00083 0.999538 0.993226
1.00078 1.00002 0.992849
1.00075 0.99967 0.993229
1.00073 0.999989 0.992991
1.00069 1.00029 0.992802
1.00071 1.00024 0.992813
1.00065 1.00042 0.992754
1.00054 1.00048 0.992899
1.00021 1.00061 0.993314
1.00041 1.00075 0.992843
1.00054 1.00086 0.992538
0.999858 1.00004 0.994673
1.00009 1.00069 0.993575
1.00024 1.00098 0.992986
0.999662 0.998079 0.99698
0.999865 0.999789 0.994912
1.00005 1.00061 0.993762
0.999614 0.996886 0.99936
0.999719 0.997893 0.997074
0.999883 0.999599 0.995076
0.999666 0.996707 0.999371
0.99977 0.997736 0.997144
0.999715 0.996552 0.999379
1.00007 1.00113 0.993204
1.00009 1.00104 0.993265
1.00001 1.00068 0.993689
1.00011 1.00097 0.993308
1.00004 1.00055 0.993751
0.999929 0.999525 0.995052
1.00007 1.00042 0.993797
0.999971 0.99936 0.995122
0.999827 0.997649 0.997104
1.00001 0.999243 0.995161
0.999868 0.997529 0.997129
0.999773 0.996476 0.999366
0.999822 0.996399 0.999369
0.999901 0.997447 0.997137
0.999864 0.996317 0.999371
0.998514 0.999364 0.998222
0.994928 1.00136 0.979952
0.9979 0.997027 0.988665
1.00013 1.00136 0.992898
1.00019 1.00128 0.992844
1.00014 1.00116 0.993059
1.00014 1.00133 0.992862
1.00008 1.00134 0.992993
1.00005 1.00134 0.992971
1.00015 1.00149 0.992703
1.00004 1.00176 0.992577
1.00011 1.00153 0.992704
1.00012 1.00154 0.992858
1.00043 1.00173 0.991905
1.0016 1.0018 0.989513
1.00039 1.00242 0.991229
1.00003 1.00161 0.992692
1.00273 0.997127 0.990654
0.999702 0.998652 0.995719
0.995227 1.00219 0.983429
0.999958 0.999738 0.991136
1.00253 1.00045 0.988928
1.00002 1.00271 0.990786
0.99988 1.00151 0.995752
0.997292 1.00323 0.997197
0.995144 1.00007 0.980477
1.00301 0.995719 0.991579
0.999045 1.00164 0.991766
1.00227 0.996008 0.993339
1.00034 1.00233 0.99254
1.00127 0.999404 0.992128
1.00028 1.00167 0.991467
1.0019 0.99558 0.995118
1.0015 0.997135 0.994312
1.00113 0.999498 0.992748
1.00129 0.997146 0.99471
1.00117 0.998421 0.993687
1.00113 0.999495 0.992697
1.00103 0.99874 0.993665
1.00096 0.999396 0.993111
1.00091 1.00011 0.992478
1.00081 0.999574 0.993234
1.00078 1.00003 0.992852
1.00073 1.00033 0.992647
1.00072 0.999931 0.993025
1.00069 1.00024 0.992814
1.0006 1.0004 0.992826
1.00065 1.00042 0.992744
1.00054 1.00048 0.992866
1.00034 1.0005 0.993244
0.999906 1.00021 0.994407
1.0002 1.00063 0.993363
1.0004 1.00077 0.992883
0.999611 0.99832 0.996835
0.999872 1.00002 0.994673
1.00009 1.00068 0.993578
0.999545 0.997085 0.99934
0.999667 0.998097 0.996973
0.999875 0.999784 0.994911
0.999602 0.996882 0.999354
0.999723 0.997907 0.997069
0.999655 0.996701 0.999367
1.00009 1.00117 0.993095
1.00007 1.00112 0.993206
0.999998 1.00079 0.993668
1.0001 1.00103 0.993312
1 1.00069 0.993716
0.999886 0.999717 0.994949
1.00003 1.00057 0.993743
0.999927 0.999519 0.995052
0.999778 0.997802 0.997053
0.999971 0.999353 0.995122
0.999827 0.997636 0.997105
0.99972 0.996591 0.99936
0.999868 0.997518 0.99713
0.99978 0.996491 0.999367
0.999828 0.996412 0.999369
1.00146 0.996479 0.994474
0.998467 0.999761 0.994005
0.995186 1.00086 0.981761
1.0001 1.00128 0.992912
1.00034 1.00128 0.992582
1.00007 1.00137 0.992904
1.00015 1.00134 0.992861
1.00006 1.00135 0.992984
1.00007 1.00136 0.992954
1.0005 1.00142 0.992028
1.00015 1.00156 0.992724
0.999954 1.0015 0.993051
1.00041 1.00172 0.991864
1.00133 1.00137 0.990274
1.00187 0.999194 0.991605
1.00161 1.00166 0.989652
1.0003 1.00233 0.991427
1.00282 0.997349 0.990692
0.999374 0.999173 0.993641
1.0026 1.00144 0.987399
0.999771 1.00028 0.994386
0.999803 1.0011 0.995736
0.997307 1.00247 0.992919
1.00211 0.996141 0.993133
1.00039 1.00204 0.992869
1.00133 0.999335 0.992205
1.00039 1.00169 0.991739
1.00088 1.00106 0.991686
1.0002 1.00107 0.993257
1.00147 0.997348 0.99428
1.00111 0.999419 0.992809
1.00109 1.00029 0.992028
1.00115 0.998508 0.993668
1.0011 0.99954 0.992694
1.00104 1.00016 0.992126
1.00093 0.999427 0.993154
1.00091 1.00011 0.992481
1.00084 1.00043 0.992314
1.00077 1.00003 0.992855
1.00073 1.00033 0.992646
1.00064 1.00047 0.992677
1.00069 1.00019 0.992825
1.0006 1.00038 0.992825
1.00042 1.00046 0.993146
1.00054 1.00048 0.992832
1.00033 1.0005 0.993227
0.999969 1.00031 0.994182
0.999581 0.998569 0.99667
0.999919 1.00018 0.994409
1.0002 1.00064 0.993413
0.999475 0.997312 0.999311
0.999617 0.998342 0.996825
0.999886 0.999996 0.994673
0.999532 0.997085 0.999332
0.999673 0.998114 0.996967
0.999589 0.996879 0.999349
1.00016 1.00121 0.99282
1.00009 1.00116 0.993058
1.00003 1.00085 0.993557
1.00007 1.00111 0.993208
0.999988 1.00081 0.993665
0.999854 0.999921 0.994812
0.999996 1.00071 0.993744
0.999883 0.999713 0.994949
0.999722 0.997996 0.996977
0.999926 0.999513 0.995052
0.999777 0.997788 0.997056
0.999656 0.996746 0.999346
0.999827 0.997622 0.997107
0.99973 0.996604 0.999362
0.999788 0.996507 0.999368
1.0011 0.998101 0.99432
1.00154 0.996853 0.995194
0.998133 1.00038 1.0002
1.00056 1.00114 0.992331
1.00006 1.00128 0.993015
1.00053 1.00121 0.991945
1.00033 1.00129 0.992557
1.00002 1.00139 0.99291
1.00122 1.00107 0.990949
1.0001 1.00138 0.992937
1.00051 1.00137 0.992061
1.00176 0.999652 0.991046
1.00039 1.00172 0.991823
1.00146 1.0014 0.990056
1.00193 0.999119 0.9915
1.00161 1.00152 0.98979
1.0029 0.997545 0.990732
1.00012 0.999972 0.994371
0.9997 1.00019 0.994422
0.99972 1.0007 0.995723
1.00138 0.999201 0.992283
1.00051 1.0017 0.992012
1.00098 1.00096 0.9916
1.00025 1.00091 0.993265
1.00043 1.0007 0.992935
1.00109 0.999349 0.992869
1.00109 1.00018 0.992085
1.00099 1.00044 0.992058
1.00108 0.999583 0.992691
1.00105 1.00021 0.992092
1.00097 1.00046 0.992029
1.00091 1.00011 0.992483
1.00085 1.00042 0.992307
1.00074 1.00055 0.992405
1.00073 1.00032 0.992645
1.00065 1.00047 0.992676
1.00047 1.00051 0.992981
1.0006 1.00037 0.992824
1.00041 1.00046 0.99315
1.00002 1.00039 0.993999
1.00032 1.00049 0.99321
0.99998 1.00028 0.994185
0.999551 0.9988 0.997
0.999419 0.997592 0.998247
0.999582 0.998593 0.996904
0.999933 1.00015 0.994412
0.999464 0.997315 0.9993
0.999624 0.998365 0.996816
0.999519 0.997085 0.999325
1.00069 1.00093 0.992032
1.00027 1.00127 0.992509
1.00019 1.0012 0.992782
1.00008 1.0009 0.993419
1.00008 1.00115 0.993021
1.00002 1.00086 0.993558
0.999841 1.00011 0.994654
0.999979 1.00082 0.993662
0.999847 0.999921 0.994812
0.999659 0.998221 0.996883
0.99988 0.999708 0.994948
0.999719 0.997981 0.996981
0.999579 0.996941 0.999328
0.999776 0.997773 0.997059
0.999669 0.996752 0.999351
0.999741 0.996617 0.999364
1.00113 0.998994 0.993202
1.00105 0.998188 0.994178
1.00161 0.997256 0.995914
1.00109 1.00088 0.991391
1.00046 1.00115 0.992475
1.00002 1.00127 0.993119
1.00062 1.00116 0.992013
1.00032 1.00129 0.992533
1.00159 1.00028 0.990857
1.00121 1.00112 0.990893
1.00051 1.00131 0.992094
1.00185 0.99964 0.990985
1.00159 1.00141 0.989838
1.00199 0.999055 0.991395
0.999897 1.00035 0.994101
1.00006 1.00009 0.994335
0.999627 1.00011 0.994458
1.00108 1.00086 0.991514
1.00026 1.00075 0.993273
1.00046 1.00067 0.992905
1.00043 1.00068 0.992907
1.00109 1.00006 0.992142
1.00105 1.00037 0.991993
1.00094 1.00031 0.992244
1.00106 1.00026 0.992058
1.00097 1.00046 0.992022
1.00084 1.0006 0.992141
1.00086 1.00042 0.992301
1.00074 1.00054 0.9924
1.00055 1.00058 0.992752
1.00065 1.00046 0.992675
1.00047 1.0005 0.992979
1.00006 1.00048 0.993819
1.00041 1.00045 0.993153
1.00002 1.00036 0.994003
0.999511 0.999064 0.996837
0.99999 1.00024 0.994189
0.999549 0.998837 0.996974
0.999349 0.997859 0.998123
0.999412 0.997563 0.998753
0.999585 0.998617 0.997138
0.999454 0.997318 0.999288
1.00108 1.00073 0.991508
1.00049 1.00109 0.992442
1.00065 1.00086 0.992224
1.00014 1.00101 0.993166
1.00031 1.00128 0.992518
1.00021 1.0012 0.992745
1.00007 1.00091 0.993419
0.999838 1.00031 0.994463
1.00001 1.00086 0.993558
0.999829 1.00012 0.994653
0.999588 0.99847 0.996781
0.999841 0.999922 0.994812
0.999653 0.998207 0.996888
0.999492 0.99717 0.999306
0.999715 0.997966 0.996985
0.999596 0.99694 0.999333
0.999683 0.996759 0.999355
1.00093 0.999984 0.992596
1.00109 0.999007 0.993209
1.00101 0.998267 0.994036
1.0014 1.00026 0.991153
1.00109 1.00088 0.991391
1.00037 1.00115 0.992619
1.00071 1.00112 0.992082
1.00163 1.00028 0.990873
1.00121 1.00118 0.990838
1.00193 0.999629 0.990925
1.00002 1.00071 0.993647
1.00003 1.00041 0.99391
1.00001 1.0002 0.994299
1.00025 1.00096 0.992991
1.00049 1.00066 0.992876
1.00043 1.0007 0.992896
1.00063 1.00046 0.992732
1.00111 1.0003 0.991929
1.00092 1.00032 0.99225
1.00083 1.00057 0.992208
1.00097 1.00047 0.992015
1.00084 1.0006 0.992143
1.00062 1.00065 0.992532
1.00075 1.00054 0.992394
1.00055 1.00057 0.992748
1.00011 1.00056 0.993627
1.00047 1.0005 0.992978
1.00006 1.00046 0.993821
0.999463 0.999362 0.996658
1.00003 1.00033 0.994006
0.999511 0.999091 0.996811
0.99927 0.998159 0.998013
0.999548 0.998874 0.996948
0.999349 0.99783 0.99814
0.999405 0.997533 0.999261
1.00139 1.00043 0.991258
1.00089 1.0008 0.99186
1.00104 1.00075 0.991594
1.00032 1.00097 0.992975
1.00049 1.00107 0.99241
1.00061 1.00078 0.992416
0.999868 1.00054 0.994173
1.00014 1.00102 0.993164
1.00034 1.0013 0.992527
1.00005 1.00092 0.993419
0.999819 1.00034 0.994462
0.999519 0.998746 0.996651
0.999817 1.00014 0.994652
0.999582 0.998455 0.996786
0.999398 0.997425 0.999283
0.999648 0.998193 0.996894
0.999511 0.997164 0.999312
0.999612 0.99694 0.999339
1.00096 1.00023 0.992305
1.00104 0.999948 0.992459
1.00105 0.999021 0.993215
1.00154 1.00022 0.991024
1.00109 1.00088 0.991392
1.00167 1.00028 0.990889
1.00008 1.00117 0.993085
0.999968 1.00079 0.993711
1.00015 1.00048 0.993719
1.00028 1.00102 0.992896
1.00035 1.00103 0.992746
1.00042 1.00072 0.992884
1.00062 1.00046 0.992732
1.00067 1.00056 0.992622
1.00091 1.00033 0.992256
1.00082 1.00056 0.992224
1.00062 1.0007 0.992491
1.00083 1.0006 0.992146
1.00062 1.00064 0.99253
1.00016 1.00062 0.993452
1.00056 1.00057 0.992743
1.00011 1.00055 0.993628
0.999404 0.999694 0.996418
1.00007 1.00045 0.993823
0.999468 0.999375 0.996627
0.99917 0.998518 0.997882
0.999512 0.999118 0.996785
0.999269 0.998125 0.99803
0.999348 0.9978 0.998156
1.00123 0.999834 0.992209
1.00119 1.00058 0.991466
1.00141 1.0004 0.991228
1.00061 1.00079 0.992483
1.00088 1.00081 0.991914
1.00101 1.00078 0.99168
0.999966 1.00063 0.993848
1.00031 1.00096 0.992873
1.00048 1.00106 0.992379
0.999481 0.999048 0.996432
0.999847 1.00057 0.994174
1.00013 1.00102 0.993163
0.999801 1.00037 0.994462
0.999509 0.998728 0.996658
0.999309 0.997698 0.999251
0.999575 0.99844 0.996792
0.999417 0.997414 0.99929
0.99953 0.997157 0.999319
1.00063 1.00103 0.992175
1.001 1.00019 0.992255
1.00114 0.999909 0.992321
1.00167 1.00017 0.990896
1.00019 1.00134 0.992696
1.00006 1.00118 0.993137
0.999913 1.00086 0.993775
1.0003 1.00108 0.992801
1.00032 1.00104 0.992781
1.00034 1.00092 0.992854
1.00061 1.00046 0.992732
1.00065 1.00056 0.992615
1.00051 1.00073 0.992691
1.0008 1.00056 0.99224
1.0006 1.0007 0.992503
1.00017 1.00073 0.993348
1.00062 1.00064 0.992529
1.00016 1.00062 0.993454
0.999364 1.00007 0.995549
1.00011 1.00054 0.99363
0.999424 0.999718 0.996073
0.999042 0.998792 0.999045
0.999473 0.999389 0.996596
0.999168 0.99848 0.997903
0.999268 0.99809 0.998048
1.00091 1.00047 0.992236
1.00114 1.0001 0.992035
1.00117 0.999886 0.992188
1.00082 1.00064 0.991991
1.00117 1.00054 0.991575
1.00144 1.00037 0.991197
1.00014 1.00059 0.993362
1.00061 1.00079 0.992479
1.00087 1.00082 0.991969
0.999497 0.99932 0.996116
0.999958 1.00066 0.99376
1.00031 1.00095 0.99277
0.99924 0.997993 0.999192
0.999463 0.999029 0.996443
0.999826 1.0006 0.994175
0.999499 0.998711 0.996665
0.999324 0.997685 0.999261
0.999437 0.997403 0.999297
1.00035 1.00138 0.992338
1.00055 1.00098 0.99232
1.00104 1.00016 0.992206
1.00019 1.00119 0.992887
1.0002 1.00135 0.992709
1.00005 1.0012 0.993189
1.0003 1.00105 0.992817
1.00035 1.0009 0.99286
1.0002 1.00099 0.993107
1.00064 1.00056 0.992608
1.0005 1.00075 0.992743
1.00008 1.00084 0.993348
1.00059 1.0007 0.992514
1.00015 1.00073 0.993357
0.999294 1.00039 0.995376
1.00016 1.00063 0.993455
0.999386 1.00005 0.995545
0.998943 0.999139 0.999003
0.999442 0.999741 0.99573
0.999031 0.998845 0.998399
0.999166 0.99844 0.997924
1.00065 1.00106 0.992231
1.00088 1.00031 0.992342
1.00088 1.00046 0.992215
1.00084 1.00044 0.992252
1.0011 1.00012 0.992066
1.00111 0.999938 0.992166
1.00031 1.00056 0.99303
1.00084 1.00064 0.992096
1.00114 1.00051 0.991685
0.999544 0.999543 0.995776
1.00016 1.00062 0.993312
1.00061 1.0008 0.992475
0.999192 0.998301 0.999112
0.999474 0.999309 0.996128
0.999951 1.00069 0.993672
0.999248 0.997976 0.999211
0.999446 0.99901 0.996455
0.99934 0.997672 0.999271
1.00031 1.00117 0.992605
1.00038 1.00134 0.992353
1.00048 1.00094 0.992464
1.00012 1.00118 0.993074
1.00021 1.0012 0.992858
1.00021 1.00137 0.992722
1.00035 1.00088 0.992867
1.00021 1.00097 0.993107
0.999866 1.00105 0.993548
1.00048 1.00076 0.992794
1.00008 1.00085 0.993374
0.999186 1.00068 0.995326
1.00014 1.00074 0.993366
0.999311 1.00037 0.995375
0.998798 0.999507 0.998955
0.999408 1.00003 0.995541
0.998907 0.999175 0.998988
0.999022 0.998901 0.997749
1.00061 1.00083 0.992468
1.00064 1.0011 0.992136
1.00067 1.00052 0.992553
1.00087 1.00031 0.99236
1.00085 1.00045 0.992194
1.00035 1.00052 0.993151
1.00086 1.00044 0.992238
1.00105 1.00015 0.992097
0.999567 0.999748 0.995498
1.00033 1.00057 0.993076
1.00086 1.00064 0.992202
0.999141 0.998614 0.999031
0.99952 0.999545 0.995786
1.00018 1.00065 0.993262
0.999196 0.998282 0.999137
0.999451 0.999298 0.99614
0.999256 0.997959 0.99923
1.00025 1.00109 0.992912
1.00034 1.00115 0.992611
1.00041 1.0013 0.992368
0.999836 1.00118 0.993494
1.00012 1.00118 0.993076
1.00024 1.0012 0.992828
1.00021 1.00095 0.993107
0.999881 1.00104 0.993536
0.999048 1.00094 0.995356
1.00008 1.00086 0.9934
0.99919 1.00066 0.995332
0.998646 0.999834 0.998927
0.999328 1.00035 0.995374
0.998762 0.999544 0.998943
0.998872 0.999211 0.998973
1.00045 1.00084 0.992731
1.00061 1.00085 0.992418
1.00064 1.00112 0.992042
1.00022 1.00065 0.993308
1.00067 1.00053 0.992553
1.00086 1.0003 0.992378
0.999509 0.999966 0.99537
1.00036 1.00052 0.993138
1.00087 1.00045 0.992223
0.999059 0.99893 0.998968
0.999547 0.999757 0.995504
1.00035 1.00057 0.993121
0.999149 0.998594 0.999054
0.999494 0.999548 0.995796
0.999199 0.998262 0.999162
0.999903 1.00112 0.993512
1.00024 1.00109 0.992891
1.00037 1.00113 0.992618
0.998997 1.00108 0.995325
0.999828 1.00119 0.993506
1.00012 1.00117 0.993078
0.999896 1.00104 0.993525
0.999052 1.00093 0.995359
0.998483 1.00009 0.998932
0.999195 1.00064 0.995337
0.9986 0.999866 0.998928
0.998725 0.999581 0.998932
1.00003 1.00092 0.993446
1.00044 1.00084 0.992726
1.00062 1.00087 0.992369
0.999351 1.00018 0.996077
1.00022 1.00065 0.993299
1.00067 1.00053 0.992552
0.998914 0.999251 0.998944
0.999499 0.999983 0.995366
1.00037 1.00052 0.993126
0.999079 0.998907 0.998985
0.999526 0.999766 0.99551
0.999157 0.998573 0.999078
0.999043 1.00098 0.995301
0.999906 1.00112 0.993471
1.00022 1.00109 0.992869
0.998401 1.00022 0.998927
0.999001 1.00107 0.995322
0.99982 1.00119 0.993518
0.999056 1.00091 0.995362
0.998458 1.00011 0.998931
0.998555 0.999899 0.99893
0.999156 1.00053 0.996068
1.00003 1.00092 0.99344
1.00042 1.00085 0.99272
0.998756 0.999552 0.998952
0.999364 1.00029 0.995361
1.00023 1.00065 0.993289
0.998955 0.999225 0.998948
0.99949 1 0.995363
0.999099 0.998885 0.999002
0.998436 1.00047 0.997461
0.999056 1.0009 0.995671
0.999909 1.00111 0.993429
0.998407 1.00022 0.998923
0.999004 1.00107 0.99532
0.998431 1.00013 0.998933
0.998566 1.00012 0.997509
0.999183 1.00062 0.995714
1.00004 1.00092 0.993434
0.99877 0.999671 0.998231
0.999344 1.00032 0.995352
0.998997 0.9992 0.998953
0.998437 1.00015 0.998917
0.999049 1.001 0.995307
0.998414 1.00022 0.998916
0.998549 1.00006 0.998216
0.999165 1.00071 0.99535
0.998825 0.99953 0.998941
0.998476 1.00011 0.998925
0.998626 0.999857 0.998939

TENSORS stress float
0.00118677 2.28469e-05 1.16505e-05
2.28469e-05 0.000145515 -3.98016e-06
1.16505e-05 -3.98016e-06 0.000146607
0.00245447 -2.62175e-05 9.24178e-06
-2.62175e-05 0.000747607 2.74015e-06
9.24178e-06 2.74015e-06 0.000760803
0.00116313 2.35401e-05 4.25748e-06
2.35401e-05 0.000133936 -1.60172e-06
4.25748e-06 -1.60172e-06 0.000135342
0.00124599 2.35514e-05 1.41489e-05
2.35514e-05 0.000209098 -3.15225e-06
1.41489e-05 -3.15225e-06 0.000199471
0.0012088 2.34861e-05 1.23582e-05
2.34861e-05 0.000166375 -3.7217e-06
1.23582e-05 -3.7217e-06 0.000164332
0.00116754 2.20712e-05 1.09329e-05
2.20712e-05 0.000127382 -4.21689e-06
1.09329e-05 -4.21689e-06 0.000131369
0.00115388 1.86476e-05 4.41109e-06
1.86476e-05 0.000117915 -1.62041e-06
4.41109e-06 -1.62041e-06 0.000101271
0.00250797 -2.63827e-05 1.42242e-07
-2.63827e-05 0.00077269 -8.44002e-08
1.42242e-07 -8.44002e-08 0.000785926
0.00278651 -3.21499e-05 4.6257e-06
-3.21499e-05 0.000932412 8.73217e-07
4.6257e-06 8.73217e-07 0.000939029
0.00255788 -2.89472e-05 4.17086e-06
-2.89472e-05 0.000804363 1.00335e-06
4.17086e-06 1.00335e-06 0.000815831
0.00109312 -2.01747e-05 7.87449e-06
-2.01747e-05 7.56831e-05 2.77806e-06
7.87449e-06 2.77806e-06 8.48513e-05
0.000901949 -1.65106e-05 4.40218e-06
-1.65106e-05 -1.75802e-05 2.06858e-06
4.40218e-06 2.06858e-06 -2.85418e-05
0.00114591 -1.76802e-05 1.31111e-05
-1.76802e-05 0.000214989 6.33796e-07
1.31111e-05 6.33796e-07 0.000195504
0.00114679 -2.46442e-05 3.99537e-06
-2.46442e-05 0.000179185 4.57655e-07
3.99537e-06 4.57655e-07 0.000166852
0.0011375 2.42571e-05 -3.25135e-06
2.42571e-05 0.000121431 7.87005e-07
-3.25135e-06 7.87005e-07 0.000123153
0.00121099 2.43205e-05 5.24063e-06
2.43205e-05 0.000192643 -1.27257e-06
5.24063e-06 -1.27257e-06 0.000183353
0.00114467 2.2735e-05 3.99327e-06
2.2735e-05 0.000115945 -1.67414e-06
3.99327e-06 -1.67414e-06 0.000120258
0.00118001 2.41947e-05 4.53056e-06
2.41947e-05 0.000152428 -1.48955e-06
4.53056e-06 -1.48955e-06 0.000150718
0.00117154 1.86778e-05 -1.13769e-06
1.86778e-05 0.000126888 2.02957e-07
-1.13769e-06 2.02957e-07 0.000110221
0.00298272 3.12032e-05 1.39933e-05
3.12032e-05 0.00110075 -8.77503e-07
1.39933e-05 -8.77503e-07 0.00109428
0.00126391 2.27046e-05 1.5222e-05
2.27046e-05 0.00023194 -2.60781e-06
1.5222e-05 -2.60781e-06 0.000218602
0.0012253 2.37769e-05 1.31333e-05
2.37769e-05 0.000186346 -3.4873e-06
1.31333e-05 -3.4873e-06 0.000180693
0.00120723 1.80574e-05 4.20797e-06
1.80574e-05 0.000159931 -1.1359e-06
4.20797e-06 -1.1359e-06 0.000133277
0.00117251 1.92251e-05 4.42257e-06
1.92251e-05 0.000132952 -1.41318e-06
4.42257e-06 -1.41318e-06 0.000113143
0.00116614 2.11838e-05 1.03746e-05
2.11838e-05 0.000117624 -4.39981e-06
1.03746e-05 -4.39981e-06 0.000124254
0.00113189 1.81632e-05 4.2308e-06
1.81632e-05 0.000101807 -1.80584e-06
4.2308e-06 -1.80584e-06 8.84182e-05
0.00139585 4.76176e-06 1.4942e-06
4.76176e-06 0.000208686 -2.88389e-07
1.4942e-06 -2.88389e-07 0.000167129
0.00256245 -2.65684e-05 -9.03664e-06
-2.65684e-05 0.00079821 -2.76213e-06
-9.03664e-06 -2.76213e-06 0.000811487
0.00197892 -2.77882e-05 -3.5226e-06
-2.77882e-05 0.000539128 -8.20378e-07
-3.5226e-06 -8.20378e-07 0.000541405
0.00185267 -2.54872e-05 -3.12777e-06
-2.54872e-05 0.000460478 -9.05607e-07
-3.12777e-06 -9.05607e-07 0.000468361
0.00240457 -2.46671e-05 1.07033e-07
-2.46671e-05 0.000715645 -6.28939e-08
1.07033e-07 -6.28939e-08 0.000730712
0.000861994 -1.64743e-05 9.66987e-08
-1.64743e-05 -3.68466e-05 -4.55646e-08
9.66987e-08 -4.55646e-08 -4.75806e-05
0.00111016 -2.35759e-05 1.02804e-05
-2.35759e-05 0.000129769 1.87631e-06
1.02804e-05 1.87631e-06 0.000124428
0.00112781 -2.29923e-05 9.15485e-06
-2.29923e-05 0.000116429 2.30028e-06
9.15485e-06 2.30028e-06 0.00011808
0.00167383 -2.06201e-05 6.66016e-06
-2.06201e-05 0.000372493 1.54902e-06
6.66016e-06 1.54902e-06 0.000355337
0.00235083 -2.38342e-05 3.71549e-06
-2.38342e-05 0.00068132 1.20287e-06
3.71549e-06 1.20287e-06 0.000698175
0.0016146 -1.94641e-05 6.38977e-06
-1.94641e-05 0.000335393 1.88526e-06
6.38977e-06 1.88526e-06 0.000324934
0.000895335 -1.59389e-05 5.21296e-06
-1.59389e-05 -2.57264e-05 3.26689e-06
5.21296e-06 3.26689e-06 -3.41513e-05
0.000994202 -4.92343e-06 2.39933e-06
-4.92343e-06 1.40903e-05 1.0751e-06
2.39933e-06 1.0751e-06 -2.43287e-05
0.00234184 -1.93864e-05 8.06156e-06
-1.93864e-05 0.000665409 3.33607e-06
8.06156e-06 3.33607e-06 0.000684159
0.00287579 -2.99662e-05 3.30891e-07
-2.99662e-05 0.0010552 -1.31679e-07
3.30891e-07 -1.31679e-07 0.0010482
0.00201128 -2.81308e-05 -4.07823e-06
-2.81308e-05 0.000602603 -5.51109e-07
-4.07823e-06 -5.51109e-07 0.00059508
0.00294539 -2.66551e-05 1.39698e-05
-2.66551e-05 0.00109695 2.22467e-07
1.39698e-05 2.22467e-07 0.00108847
0.00112911 -2.3075e-05 4.13503e-06
-2.3075e-05 0.00019025 3.58697e-07
4.13503e-06 3.58697e-07 0.00017427
0.000690443 -1.61789e-05 6.83012e-06
-1.61789e-05 -6.1322e-05 9.53218e-07
6.83012e-06 9.53218e-07 -0.000100442
0.00290386 -3.41429e-05 5.08098e-06
-3.41429e-05 0.00101648 6.66381e-07
5.08098e-06 6.66381e-07 0.00101759
0.00155673 -2.0819e-05 8.75951e-06
-2.0819e-05 0.000340595 1.45027e-06
8.75951e-06 1.45027e-06 0.000313853
0.00117392 2.51715e-05 -3.85569e-06
2.51715e-05 0.000175192 6.275e-07
-3.85569e-06 6.275e-07 0.000166245
0.00114793 2.4924e-05 -3.42436e-06
2.4924e-05 0.000136909 7.1232e-07
-3.42436e-06 7.1232e-07 0.000135543
0.00112108 2.3425e-05 -3.06953e-06
2.3425e-05 0.000104184 8.48047e-07
-3.06953e-06 8.48047e-07 0.000108822
0.00118985 1.86936e-05 -6.7151e-06
1.86936e-05 0.000136172 2.06278e-06
-6.7151e-06 2.06278e-06 0.00011948
0.00204738 2.59957e-05 -3.09898e-06
2.59957e-05 0.000647312 -2.14771e-07
-3.09898e-06 -2.14771e-07 0.000634695
0.0012242 2.35434e-05 5.6621e-06
2.35434e-05 0.000213445 -1.08369e-06
5.6621e-06 -1.08369e-06 0.000200344
0.00113666 2.17987e-05 3.77471e-06
2.17987e-05 0.000102815 -1.72989e-06
3.77471e-06 -1.72989e-06 0.000109774
0.00119262 2.4506e-05 4.84252e-06
2.4506e-05 0.000170661 -1.38057e-06
4.84252e-06 -1.38057e-06 0.000165378
0.0012257 1.82185e-05 -1.75836e-06
1.82185e-05 0.000169078 2.44523e-07
-1.75836e-06 2.44523e-07 0.000142418
0.00115063 1.81788e-05 -1.03594e-06
1.81788e-05 0.000111183 1.91318e-07
-1.03594e-06 1.91318e-07 9.7802e-05
0.0011898 1.929e-05 -1.30309e-06
1.929e-05 0.0001416 2.31756e-07
-1.30309e-06 2.31756e-07 0.000121775
0.00139567 3.95936e-06 -9.90989e-07
3.95936e-06 0.000207057 5.48394e-07
-9.90989e-07 5.48394e-07 0.000165277
0.00301013 3.08529e-05 1.39709e-05
3.08529e-05 0.00112282 -4.74323e-07
1.39709e-05 -4.74323e-07 0.00111501
0.00126479 2.11566e-05 1.6056e-05
2.11566e-05 0.000248631 -1.98881e-06
1.6056e-05 -1.98881e-06 0.000232283
0.00157196 1.85874e-05 3.53214e-06
1.85874e-05 0.000361005 -3.60206e-07
3.53214e-06 -3.60206e-07 0.00032917
0.00123194 1.62018e-05 4.27452e-06
1.62018e-05 0.000175992 -8.8707e-07
4.27452e-06 -8.8707e-07 0.000146322
0.00118552 1.97961e-05 4.25946e-06
1.97961e-05 0.000145312 -1.27467e-06
4.25946e-06 -1.27467e-06 0.000122129
0.00141334 1.05562e-06 1.14248e-06
1.05562e-06 0.0002005 -2.37762e-07
1.14248e-06 -2.37762e-07 0.000151681
0.00120741 4.51038e-06 1.69224e-06
4.51038e-06 0.000112951 -4.04608e-07
1.69224e-06 -4.04608e-07 6.81224e-05
0.00124539 2.01656e-05 1.01718e-05
2.01656e-05 0.000145423 -4.58061e-06
1.01718e-05 -4.58061e-06 0.000154212
0.0011369 1.77289e-05 4.00901e-06
1.77289e-05 9.70032e-05 -1.86887e-06
4.00901e-06 -1.86887e-06 8.71162e-05
0.00138122 7.08625e-06 1.48998e-06
7.08625e-06 0.000205975 -4.22035e-07
1.48998e-06 -4.22035e-07 0.00016726
0.00111657 -1.14996e-05 8.45803e-07
-1.14996e-05 4.14673e-05 -2.94492e-07
8.45803e-07 -2.94492e-07 -1.30049e-05
0.00287486 -3.14306e-05 -1.03378e-05
-3.14306e-05 0.000974174 -2.26812e-06
-1.03378e-05 -2.26812e-06 0.000980858
0.0024859 -2.48537e-05 -8.7003e-06
-2.48537e-05 0.000753852 -2.89723e-06
-8.7003e-06 -2.89723e-06 0.000768916
0.00265402 -2.82272e-05 -9.47567e-06
-2.82272e-05 0.000850245 -2.60131e-06
-9.47567e-06 -2.60131e-06 0.000861562
0.000822337 -1.64387e-05 -4.1773e-06
-1.64387e-05 -5.59689e-05 -2.21825e-06
-4.1773e-06 -2.21825e-06 -6.64761e-05
0.00286273 -3.19648e-05 1.56869e-07
-3.19648e-05 0.000982317 -1.05987e-07
1.56869e-07 -1.05987e-07 0.000986017
0.00266228 -2.94688e-05 1.18502e-07
-2.94688e-05 0.000864286 -7.90598e-08
1.18502e-07 -7.90598e-08 0.000873242
0.000836189 -1.79992e-05 1.03077e-07
-1.79992e-05 -3.50371e-05 -6.86708e-08
1.03077e-07 -6.86708e-08 -5.61905e-05
0.00174408 -2.12646e-05 -2.79647e-06
-2.12646e-05 0.000385157 -1.00923e-06
-2.79647e-06 -1.00923e-06 0.000398976
0.000870661 -1.69316e-05 3.35009e-08
-1.69316e-05 -2.73379e-05 -2.96608e-08
3.35009e-08 -2.96608e-08 -4.09328e-05
0.00121318 -1.69314e-05 1.48855e-06
-1.69314e-05 0.000129069 4.84546e-07
1.48855e-06 4.84546e-07 0.000122448
0.000983654 -5.99151e-06 1.10674e-07
-5.99151e-06 1.01896e-05 -7.21178e-08
1.10674e-07 -7.21178e-08 -2.84089e-05
0.0023294 -2.11661e-05 8.27313e-06
-2.11661e-05 0.000665308 3.16004e-06
8.27313e-06 3.16004e-06 0.00068317
0.000928975 -1.30233e-05 3.40151e-06
-1.30233e-05 -2.68855e-05 2.56709e-06
3.40151e-06 2.56709e-06 -3.07063e-05
0.000765124 -1.69275e-05 6.32496e-06
-1.69275e-05 -6.46563e-05 2.16082e-06
6.32496e-06 2.16082e-06 -9.01543e-05
0.000834632 -1.71799e-05 5.91934e-06
-1.71799e-05 -3.91918e-05 2.7475e-06
5.91934e-06 2.7475e-06 -5.70295e-05
0.000995426 1.85822e-06 2.30749e-06
1.85822e-06 2.23946e-06 7.40611e-07
2.30749e-06 7.40611e-07 -4.55221e-05
0.00155252 -1.70029e-05 5.65011e-06
-1.70029e-05 0.00028789 2.29648e-06
5.65011e-06 2.29648e-06 0.000284804
0.00100058 -1.00163e-06 2.36413e-06
-1.00163e-06 1.44966e-05 1.04391e-06
2.36413e-06 1.04391e-06 -2.67558e-05
0.00100023 -9.60115e-06 2.2489e-06
-9.60115e-06 1.81618e-05 1.36897e-06
2.2489e-06 1.36897e-06 -1.75243e-05
0.00104466 7.44404e-06 1.19452e-06
7.44404e-06 2.63695e-05 3.30249e-07
1.19452e-06 3.30249e-07 -2.54351e-05
0.00234742 -1.76089e-05 7.74259e-06
-1.76089e-05 0.000663138 3.4846e-06
7.74259e-06 3.4846e-06 0.000682672
0.00239047 -1.94145e-05 1.41982e-07
-1.94145e-05 0.000688552 -5.65117e-08
1.41982e-07 -5.65117e-08 0.000707177
0.00301631 -3.35595e-05 -1.20987e-05
-3.35595e-05 0.00108483 -1.51758e-06
-1.20987e-05 -1.51758e-06 0.00108336
0.00294999 -3.14576e-05 -1.32308e-05
-3.14576e-05 0.00108687 -8.59149e-07
-1.32308e-05 -8.59149e-07 0.00108033
0.00294979 -2.89733e-05 7.26297e-07
-2.89733e-05 0.00109791 -1.54748e-07
7.26297e-07 -1.54748e-07 0.00108957
0.0020003 -2.68401e-05 -4.31376e-06
-2.68401e-05 0.000616026 -4.32591e-07
-4.31376e-06 -4.32591e-07 0.000605298
0.00116139 -1.76373e-05 2.44914e-06
-1.76373e-05 0.000167684 5.24944e-08
2.44914e-06 5.24944e-08 0.000131946
0.00207116 -2.89692e-05 -3.89398e-06
-2.89692e-05 0.000610887 -6.63071e-07
-3.89398e-06 -6.63071e-07 0.0006068
0.00122382 -1.93776e-05 2.07742e-06
-1.93776e-05 0.000177377 1.95456e-07
2.07742e-06 1.95456e-07 0.000148034
0.00299124 -1.99137e-06 1.36284e-05
-1.99137e-06 0.00111982 -8.49469e-08
1.36284e-05 -8.49469e-08 0.00111112
0.000720121 -1.18026e-05 4.81062e-06
-1.18026e-05 -4.33234e-05 1.79188e-07
4.81062e-06 1.79188e-07 -8.41548e-05
0.00153817 -2.20925e-05 9.08278e-06
-2.20925e-05 0.000342414 1.18087e-06
9.08278e-06 1.18087e-06 0.000312575
0.00100329 -1.46663e-05 1.76682e-06
-1.46663e-05 1.199e-05 1.2653e-07
1.76682e-06 1.2653e-07 -4.37841e-05
0.00164881 -2.06107e-05 6.87591e-06
-2.06107e-05 0.000372703 1.01865e-06
6.87591e-06 1.01865e-06 0.000349309
0.00100809 -4.17711e-06 1.92554e-06
-4.17711e-06 7.00233e-06 3.34546e-07
1.92554e-06 3.34546e-07 -4.50049e-05
0.00112807 1.80143e-05 -1.32199e-05
1.80143e-05 0.000201359 6.36536e-07
-1.32199e-05 6.36536e-07 0.000182687
0.00118516 2.45168e-05 -4.11561e-06
2.45168e-05 0.000195297 5.5413e-07
-4.11561e-06 5.5413e-07 0.000182424
0.00110668 2.24282e-05 -2.92037e-06
2.24282e-05 8.77722e-05 8.99503e-07
-2.92037e-06 8.99503e-07 9.50614e-05
0.00115705 2.52781e-05 -3.61057e-06
2.52781e-05 0.000153589 6.61381e-07
-3.61057e-06 6.61381e-07 0.000148686
0.00124701 1.82724e-05 -7.78298e-06
1.82724e-05 0.000179586 1.6273e-06
-7.78298e-06 1.6273e-06 0.000152916
0.00120862 1.93235e-05 -7.03704e-06
1.93235e-05 0.000150974 1.88105e-06
-7.03704e-06 1.88105e-06 0.000131128
0.0011695 1.81841e-05 -6.34145e-06
1.81841e-05 0.000120617 2.20223e-06
-6.34145e-06 2.20223e-06 0.000107243
0.00139741 3.11196e-06 -3.33516e-06
3.11196e-06 0.000206306 1.39073e-06
-3.33516e-06 1.39073e-06 0.000164303
0.00297691 2.98573e-05 -7.19686e-07
2.98573e-05 0.00110839 -1.349e-07
-7.19686e-07 -1.349e-07 0.00110044
0.00122254 2.21518e-05 6.01408e-06
2.21518e-05 0.000228875 -8.0343e-07
6.01408e-06 -8.0343e-07 0.000212684
0.000941164 1.48978e-05 -3.46578e-06
1.48978e-05 5.30385e-05 2.07985e-07
-3.46578e-06 2.07985e-07 1.7095e-05
0.00124207 1.61268e-05 -1.96803e-06
1.61268e-05 0.000181024 2.25403e-07
-1.96803e-06 2.25403e-07 0.000151351
0.00182464 2.2514e-05 5.32779e-06
2.2514e-05 0.000428749 -1.80289e-06
5.32779e-06 -1.80289e-06 0.000440884
0.00134609 1.83729e-05 -8.19315e-07
1.83729e-05 0.000199218 2.44159e-07
-8.19315e-07 2.44159e-07 0.000190533
0.00120541 1.98495e-05 -1.53983e-06
1.98495e-05 0.000155095 2.47596e-07
-1.53983e-06 2.47596e-07 0.000131911
0.00133423 1.03479e-06 -8.44725e-07
1.03479e-06 0.000161298 3.44418e-07
-8.44725e-07 3.44418e-07 0.000111788
0.00138588 5.85843e-06 -9.63302e-07
5.85843e-06 0.000206482 6.12212e-07
-9.63302e-07 6.12212e-07 0.000167493
0.00130827 3.95106e-06 -6.06099e-07
3.95106e-06 0.000161064 2.87774e-07
-6.06099e-07 2.87774e-07 0.000116587
0.00110602 -1.09679e-05 3.65839e-08
-1.09679e-05 3.68401e-05 -5.35603e-08
3.65839e-08 -5.35603e-08 -1.75709e-05
0.000711938 1.39016e-05 4.93889e-06
1.39016e-05 -5.04716e-05 -4.93489e-07
4.93889e-06 -4.93489e-07 -9.02406e-05
0.00123893 1.51329e-05 4.30448e-06
1.51329e-05 0.00018742 -6.6677e-07
4.30448e-06 -6.6677e-07 0.00015549
0.001244 1.05364e-05 1.61421e-06
1.05364e-05 0.00011442 -1.22804e-07
1.61421e-06 -1.22804e-07 6.01052e-05
0.00127224 7.46699e-07 1.57251e-06
7.46699e-07 0.000124782 -3.578e-07
1.57251e-06 -3.578e-07 7.31888e-05
0.00121635 3.42365e-06 1.52718e-06
3.42365e-06 0.000111928 -4.20013e-07
1.52718e-06 -4.20013e-07 6.45196e-05
0.00134806 -1.25917e-05 2.27851e-07
-1.25917e-05 0.000126328 -1.85679e-07
2.27851e-07 -1.85679e-07 6.80523e-05
0.00249971 2.30863e-05 8.58432e-06
2.30863e-05 0.000749899 -3.07064e-06
8.58432e-06 -3.07064e-06 0.00076647
0.00113772 -1.10654e-05 6.55938e-07
-1.10654e-05 4.33219e-05 -1.60555e-07
6.55938e-07 -1.60555e-07 -1.16251e-05
0.000900849 1.61153e-05 3.91616e-06
1.61153e-05 -2.68752e-05 -2.1421e-06
3.91616e-06 -2.1421e-06 -3.47732e-05
0.000976429 9.2538e-06 2.12275e-06
9.2538e-06 9.26758e-06 -1.16043e-06
2.12275e-06 -1.16043e-06 -2.88919e-05
0.00110831 -1.09083e-05 8.98244e-07
-1.09083e-05 4.77019e-05 -5.42369e-07
8.98244e-07 -5.42369e-07 -6.32525e-06
0.00117981 -1.83167e-05 3.57702e-07
-1.83167e-05 5.33886e-05 5.83812e-08
3.57702e-07 5.83812e-08 -4.90426e-06
0.000888076 1.37212e-05 3.50418e-06
1.37212e-05 -4.52807e-05 -2.48559e-06
3.50418e-06 -2.48559e-06 -5.02286e-05
0.000993822 8.13911e-06 2.03441e-06
8.13911e-06 2.92273e-07 -1.56575e-06
2.03441e-06 -1.56575e-06 -3.12271e-05
0.00298426 -3.27357e-05 -1.1061e-05
-3.27357e-05 0.00103751 -2.07132e-06
-1.1061e-05 -2.07132e-06 0.00104155
0.00275182 -2.98677e-05 -9.80664e-06
-2.98677e-05 0.000906028 -2.42611e-06
-9.80664e-06 -2.42611e-06 0.000915174
0.000744229 -1.74957e-05 -4.65429e-06
-1.74957e-05 -7.78617e-05 -1.85027e-06
-4.65429e-06 -1.85027e-06 -9.9038e-05
0.00245383 -2.3072e-05 -8.55198e-06
-2.3072e-05 0.000730892 -3.05983e-06
-8.55198e-06 -3.05983e-06 0.000747401
0.00084528 -1.5997e-05 -3.90299e-06
-1.5997e-05 -5.03559e-05 -2.28652e-06
-3.90299e-06 -2.28652e-06 -5.81775e-05
0.000791477 -1.67117e-05 -4.4731e-06
-1.67117e-05 -6.50716e-05 -2.01653e-06
-4.4731e-06 -2.01653e-06 -7.85408e-05
0.000973235 -7.01767e-06 -2.3133e-06
-7.01767e-06 6.37615e-06 -1.3554e-06
-2.3133e-06 -1.3554e-06 -3.24021e-05
0.00238843 -2.12097e-05 1.37317e-07
-2.12097e-05 0.00069325 -6.18864e-08
1.37317e-07 -6.18864e-08 0.000710978
0.000913695 -1.29935e-05 7.817e-08
-1.29935e-05 -3.44342e-05 -3.36091e-08
7.817e-08 -3.36091e-08 -3.8164e-05
0.00121567 -1.89041e-05 1.94452e-06
-1.89041e-05 0.000155197 2.95228e-07
1.94452e-06 2.95228e-07 0.000132304
0.00120532 -1.8572e-05 1.67917e-06
-1.8572e-05 0.000141798 4.27182e-07
1.67917e-06 4.27182e-07 0.000126255
0.00100115 1.83457e-06 -2.95655e-08
1.83457e-06 5.92529e-06 -1.2718e-07
-2.95655e-08 -1.2718e-07 -4.19986e-05
0.000916454 -1.52604e-05 2.2956e-08
-1.52604e-05 -2.28445e-05 -2.19075e-08
2.2956e-08 -2.19075e-08 -2.86483e-05
0.000987932 -1.73746e-06 -4.35477e-09
-1.73746e-06 1.01974e-05 1.62991e-08
-4.35477e-09 1.62991e-08 -3.12464e-05
0.000980567 -1.01775e-05 9.18158e-08
-1.01775e-05 9.37976e-06 3.96947e-10
9.18158e-08 3.96947e-10 -2.63548e-05
0.000995839 7.66544e-06 -3.55057e-08
7.66544e-06 2.32023e-06 -1.11283e-07
-3.55057e-08 -1.11283e-07 -4.98728e-05
0.000923031 -1.41466e-05 3.69154e-06
-1.41466e-05 -2.52919e-05 2.3981e-06
3.69154e-06 2.3981e-06 -2.99199e-05
0.000935739 -1.19277e-05 3.08207e-06
-1.19277e-05 -2.74632e-05 2.71753e-06
3.08207e-06 2.71753e-06 -3.05398e-05
0.00100395 -9.40736e-06 2.16179e-06
-9.40736e-06 7.45189e-06 1.49454e-06
2.16179e-06 1.49454e-06 -2.31821e-05
0.000993924 1.51437e-07 2.20933e-06
1.51437e-07 -3.482e-06 4.6429e-07
2.20933e-06 4.6429e-07 -5.29622e-05
0.00100268 1.63647e-06 2.3184e-06
1.63647e-06 1.2247e-05 1.00952e-06
2.3184e-06 1.00952e-06 -3.25174e-05
0.00112651 1.35645e-05 9.13706e-07
1.35645e-05 3.04042e-05 3.67376e-07
9.13706e-07 3.67376e-07 -2.65269e-05
0.00100526 -1.1453e-05 2.16062e-06
-1.1453e-05 1.64511e-05 1.44566e-06
2.16062e-06 1.44566e-06 -1.64202e-05
0.000983799 1.097e-05 9.64018e-07
1.097e-05 -1.2965e-05 3.95185e-07
9.64018e-07 3.95185e-07 -6.61056e-05
0.00106579 4.81508e-06 1.22096e-06
4.81508e-06 4.23157e-05 6.3073e-07
1.22096e-06 6.3073e-07 -9.1109e-06
0.00120298 1.93854e-05 1.35794e-07
1.93854e-05 9.39154e-05 -2.38325e-07
1.35794e-07 -2.38325e-07 3.65453e-05
0.00234711 -1.58449e-05 7.32397e-06
-1.58449e-05 0.00065855 3.60613e-06
7.32397e-06 3.60613e-06 0.000678818
0.00238634 -1.76318e-05 1.46377e-07
-1.76318e-05 0.000681715 -5.07942e-08
1.46377e-07 -5.07942e-08 0.000701146
0.00243993 -1.94542e-05 -8.03959e-06
-1.94542e-05 0.00071209 -3.39217e-06
-8.03959e-06 -3.39217e-06 0.000730588
0.000899181 1.26069e-05 3.1941e-06
1.26069e-05 -4.39059e-05 -2.64567e-06
3.1941e-06 -2.64567e-06 -4.79994e-05
0.00249383 2.1217e-05 8.39802e-06
2.1217e-05 0.000740767 -3.24919e-06
8.39802e-06 -3.24919e-06 0.000758401
0.00302981 -3.35149e-05 -1.16524e-05
-3.35149e-05 0.00107381 -1.81289e-06
-1.16524e-05 -1.81289e-06 0.00107511
0.00297575 -3.27915e-05 -1.25917e-05
-3.27915e-05 0.00108365 -1.1981e-06
-1.25917e-05 -1.1981e-06 0.00107948
0.000716539 -1.6032e-05 -4.71087e-06
-1.6032e-05 -6.62328e-05 -1.06952e-06
-4.71087e-06 -1.06952e-06 -9.84779e-05
0.000706881 -1.40273e-05 -4.80578e-06
-1.40273e-05 -5.13415e-05 -7.42671e-07
-4.80578e-06 -7.42671e-07 -9.02701e-05
0.00295361 -2.98805e-05 -1.36171e-05
-2.98805e-05 0.00109869 -4.72614e-07
-1.36171e-05 -4.72614e-07 0.0010905
0.00297928 1.28068e-06 7.87626e-08
1.28068e-06 0.00111423 -9.15288e-08
7.87626e-08 -9.15288e-08 0.00110552
0.000710986 -1.14518e-05 3.21909e-08
-1.14518e-05 -4.68194e-05 -1.36116e-07
3.21909e-08 -1.36116e-07 -8.77093e-05
0.00120188 -1.90717e-05 2.22333e-06
-1.90717e-05 0.00017809 1.45142e-07
2.22333e-06 1.45142e-07 0.00014548
0.00101763 -1.4514e-05 7.09333e-09
-1.4514e-05 1.82354e-05 -7.27778e-08
7.09333e-09 -7.27778e-08 -3.75772e-05
0.000801522 -1.72497e-05 5.31758e-08
-1.72497e-05 -3.93776e-05 -7.92538e-08
5.31758e-08 -7.92538e-08 -6.78738e-05
0.00101031 -3.53928e-06 -6.16562e-08
-3.53928e-06 7.831e-06 -2.7143e-08
-6.16562e-08 -2.7143e-08 -4.41927e-05
0.000707859 5.71664e-07 4.89687e-06
5.71664e-07 -4.86023e-05 -2.96119e-07
4.89687e-06 -2.96119e-07 -8.96679e-05
0.00100397 -1.17403e-05 1.6228e-06
-1.17403e-05 1.3424e-05 -2.57867e-08
1.6228e-06 -2.57867e-08 -4.33626e-05
0.0010095 -9.32517e-06 1.80574e-06
-9.32517e-06 1.15211e-05 3.03843e-07
1.80574e-06 3.03843e-07 -4.23453e-05
0.00113093 -1.71847e-05 7.26197e-07
-1.71847e-05 3.6644e-05 -2.15785e-07
7.26197e-07 -2.15785e-07 -2.48899e-05
0.000999586 -2.14346e-06 2.05761e-06
-2.14346e-06 -4.10173e-07 3.6312e-07
2.05761e-06 3.6312e-07 -5.1042e-05
0.00117002 -1.94071e-06 7.36658e-07
-1.94071e-06 4.41243e-05 1.32399e-07
7.36658e-07 1.32399e-07 -1.49237e-05
0.00294192 2.90553e-05 -1.42802e-05
2.90553e-05 0.00109325 2.50354e-07
-1.42802e-05 2.50354e-07 0.00108514
0.00117992 2.33127e-05 -4.28688e-06
2.33127e-05 0.000208996 4.26154e-07
-4.28688e-06 4.26154e-07 0.000192949
0.000300499 1.20328e-05 -6.90757e-06
1.20328e-05 -0.000259568 9.16107e-07
-6.90757e-06 9.16107e-07 -0.000299644
0.00125319 1.59115e-05 -8.29059e-06
1.59115e-05 0.000186524 1.39474e-06
-8.29059e-06 1.39474e-06 0.000156849
0.00240017 2.55868e-05 -3.78705e-06
2.55868e-05 0.000710407 1.12039e-06
-3.78705e-06 1.12039e-06 0.000725865
0.00155411 1.91011e-05 -6.16963e-06
1.91011e-05 0.000300872 2.28344e-06
-6.16963e-06 2.28344e-06 0.000293389
0.00122737 1.98664e-05 -7.35015e-06
1.98664e-05 0.000165853 1.74661e-06
-7.35015e-06 1.74661e-06 0.000142665
0.00124926 1.06891e-06 -2.81388e-06
1.06891e-06 0.000119338 1.0313e-06
-2.81388e-06 1.0313e-06 6.91417e-05
0.00140958 3.44485e-06 -2.83158e-06
3.44485e-06 0.000209415 9.40981e-07
-2.83158e-06 9.40981e-07 0.000165285
0.00139177 4.67316e-06 -3.33372e-06
4.67316e-06 0.000207573 1.64371e-06
-3.33372e-06 1.64371e-06 0.00016831
0.00109509 -1.04795e-05 -7.42898e-07
-1.04795e-05 3.20353e-05 1.79479e-07
-7.42898e-07 1.79479e-07 -2.23147e-05
0.000707781 1.43513e-05 -4.20694e-08
1.43513e-05 -5.28458e-05 -5.96372e-08
-4.20694e-08 -5.96372e-08 -9.25689e-05
0.00124045 1.48641e-05 -2.13942e-06
1.48641e-05 0.000187842 1.99687e-07
-2.13942e-06 1.99687e-07 0.00015597
0.00106102 1.18501e-05 -3.95384e-07
1.18501e-05 2.48544e-05 6.02357e-08
-3.95384e-07 6.02357e-08 -3.06952e-05
0.00136322 -4.52588e-08 -3.98888e-07
-4.52588e-08 0.000168709 1.20415e-07
-3.98888e-07 1.20415e-07 0.000117521
0.00243306 2.30057e-05 -1.29985e-07
2.30057e-05 0.000718627 -6.39914e-08
-1.29985e-07 -6.39914e-08 0.000735282
0.00123199 1.72526e-05 2.05394e-07
1.72526e-05 0.00013505 -6.77441e-08
2.05394e-07 -6.77441e-08 0.000128491
0.00118629 8.65474e-06 4.66338e-08
8.65474e-06 0.000109929 8.14053e-09
4.66338e-08 8.14053e-09 7.30244e-05
0.0012256 3.69906e-06 -5.326e-07
3.69906e-06 0.000116168 2.32038e-07
-5.326e-07 2.32038e-07 6.87318e-05
0.00120293 -1.18577e-05 -3.96312e-07
-1.18577e-05 5.57479e-05 2.04898e-07
-3.96312e-07 2.04898e-07 -3.23955e-06
0.00102341 -9.75408e-06 -1.56281e-08
-9.75408e-06 8.03141e-06 -9.55483e-08
-1.56281e-08 -9.55483e-08 -4.61838e-05
0.00122367 -1.10645e-05 3.39307e-08
-1.10645e-05 8.45307e-05 1.62188e-08
3.39307e-08 1.62188e-08 2.99946e-05
0.00117207 -1.81728e-05 7.1364e-08
-1.81728e-05 4.99416e-05 -1.39601e-09
7.1364e-08 -1.39601e-09 -8.27373e-06
0.000904561 1.37606e-05 -5.84695e-08
1.37606e-05 -3.70942e-05 -3.72271e-08
-5.84695e-08 -3.72271e-08 -4.21525e-05
0.00099787 8.39573e-06 -8.0658e-08
8.39573e-06 2.52155e-06 -3.72595e-08
-8.0658e-08 -3.72595e-08 -2.90279e-05
0.00100364 1.30323e-05 1.88525e-06
1.30323e-05 5.69119e-06 -1.32616e-07
1.88525e-06 -1.32616e-07 -5.06667e-05
0.00127082 6.48074e-06 1.64176e-06
6.48074e-06 0.000122982 -2.82843e-07
1.64176e-06 -2.82843e-07 6.98857e-05
0.00135567 1.35059e-05 4.75369e-07
1.35059e-05 0.000126656 9.27475e-09
4.75369e-07 9.27475e-09 6.49478e-05
0.00113485 -7.89096e-06 9.98161e-07
-7.89096e-06 1.41737e-05 -5.49933e-07
9.98161e-07 -5.49933e-07 -4.71034e-05
0.00125343 -1.1364e-05 3.23982e-07
-1.1364e-05 9.21475e-05 -2.07928e-07
3.23982e-07 -2.07928e-07 3.62866e-05
0.0013071 -1.33191e-05 -2.96191e-07
-1.33191e-05 8.85244e-05 -1.74231e-07
-2.96191e-07 -1.74231e-07 2.6688e-05
0.000873584 1.49076e-05 3.73395e-06
1.49076e-05 -4.66753e-05 -2.30231e-06
3.73395e-06 -2.30231e-06 -5.28376e-05
0.00118973 -1.68076e-05 4.4924e-08
-1.68076e-05 4.93412e-05 4.15234e-08
4.4924e-08 4.15234e-08 -8.66425e-06
0.000957202 1.15907e-05 2.18944e-06
1.15907e-05 -3.80981e-06 -1.18141e-06
2.18944e-06 -1.18141e-06 -3.93767e-05
0.000907119 -6.92328e-06 1.13971e-06
-6.92328e-06 -3.90616e-05 -8.20357e-07
1.13971e-06 -8.20357e-07 -9.1878e-05
0.00133371 -2.08173e-05 1.70961e-07
-2.08173e-05 0.000139186 -5.25944e-08
1.70961e-07 -5.25944e-08 8.04846e-05
0.00122077 -2.01656e-05 -1.7608e-07
-2.01656e-05 6.40734e-05 5.72909e-07
-1.7608e-07 5.72909e-07 5.03508e-06
0.000981316 9.2275e-06 2.23193e-06
9.2275e-06 -2.59557e-06 -1.40608e-06
2.23193e-06 -1.40608e-06 -3.47913e-05
0.00100105 7.40374e-06 1.77406e-06
7.40374e-06 1.73139e-06 -1.65839e-06
1.77406e-06 -1.65839e-06 -2.91128e-05
0.00106406 -4.51875e-06 1.18757e-06
-4.51875e-06 3.11265e-05 -7.70607e-07
1.18757e-06 -7.70607e-07 -1.77486e-05
0.000738494 -1.80522e-05 -4.7422e-06
-1.80522e-05 -7.5724e-05 -1.59264e-06
-4.7422e-06 -1.59264e-06 -0.000100845
0.00244749 -2.12613e-05 -8.35526e-06
-2.12613e-05 0.000721199 -3.23608e-06
-8.35526e-06 -3.23608e-06 0.000738795
0.000898537 -1.29646e-05 -3.20946e-06
-1.29646e-05 -4.19283e-05 -2.65743e-06
-3.20946e-06 -2.65743e-06 -4.55664e-05
0.000759682 -1.70315e-05 -4.55353e-06
-1.70315e-05 -7.44604e-05 -1.93075e-06
-4.55353e-06 -1.93075e-06 -9.15471e-05
0.00100747 1.83232e-06 -2.26003e-06
1.83232e-06 9.8707e-06 -9.70851e-07
-2.26003e-06 -9.70851e-07 -3.82142e-05
0.000868631 -1.51614e-05 -3.74883e-06
-1.51614e-05 -4.5718e-05 -2.3378e-06
-3.74883e-06 -2.3378e-06 -5.14026e-05
0.00096155 -1.13016e-05 -2.18805e-06
-1.13016e-05 9.48239e-07 -1.49882e-06
-2.18805e-06 -1.49882e-06 -3.48527e-05
0.000975016 -2.53694e-06 -2.39624e-06
-2.53694e-06 5.79193e-06 -1.06608e-06
-2.39624e-06 -1.06608e-06 -3.58438e-05
0.00094602 7.87108e-06 -1.2127e-06
7.87108e-06 -2.2226e-05 -5.21892e-07
-1.2127e-06 -5.21892e-07 -7.48048e-05
0.000905248 -1.41115e-05 6.30437e-08
-1.41115e-05 -3.39926e-05 -3.95148e-08
6.30437e-08 -3.95148e-08 -3.85266e-05
0.000921925 -1.19044e-05 7.97987e-08
-1.19044e-05 -3.42756e-05 -2.5591e-08
7.97987e-08 -2.5591e-08 -3.72662e-05
0.000997998 -9.23229e-06 7.12663e-08
-9.23229e-06 4.42e-06 -3.37568e-08
7.12663e-08 -3.37568e-08 -2.61797e-05
0.00100794 5.04689e-07 -6.82315e-08
5.04689e-07 3.33666e-06 -1.09465e-07
-6.82315e-08 -1.09465e-07 -4.62612e-05
0.00099294 1.14227e-06 -1.09934e-08
1.14227e-06 9.37259e-06 -3.55127e-08
-1.09934e-08 -3.55127e-08 -3.55638e-05
0.00113894 1.39258e-05 6.11242e-08
1.39258e-05 3.6071e-05 2.03499e-08
6.11242e-08 2.03499e-08 -2.09086e-05
0.000985243 -1.17319e-05 -3.44087e-08
-1.17319e-05 7.07415e-06 4.46412e-08
-3.44087e-08 4.46412e-08 -2.57642e-05
0.00103961 1.18801e-05 -4.97436e-08
1.18801e-05 1.38778e-05 -6.31943e-08
-4.97436e-08 -6.31943e-08 -3.90288e-05
0.00106136 4.47274e-06 3.59713e-08
4.47274e-06 4.06115e-05 -1.24143e-07
3.59713e-08 -1.24143e-07 -1.09514e-05
0.00111576 1.89416e-05 -4.25668e-07
1.89416e-05 5.18199e-05 3.36156e-08
-4.25668e-07 3.36156e-08 -5.97291e-06
0.00094226 -1.08408e-05 2.75973e-06
-1.08408e-05 -2.79271e-05 2.83104e-06
2.75973e-06 2.83104e-06 -3.02653e-05
0.0010029 -1.05009e-05 2.28665e-06
-1.05009e-05 1.01422e-05 1.38989e-06
2.28665e-06 1.38989e-06 -2.11145e-05
0.00100799 -8.47869e-06 1.94294e-06
-8.47869e-06 6.94314e-06 1.6207e-06
1.94294e-06 1.6207e-06 -2.31152e-05
0.00106288 -1.78884e-06 1.29925e-06
-1.78884e-06 3.2456e-05 7.48635e-07
1.29925e-06 7.48635e-07 -1.52955e-05
0.00113699 9.11568e-06 9.56684e-07
9.11568e-06 2.55069e-05 7.67744e-08
9.56684e-07 7.67744e-08 -3.18695e-05
0.00111288 1.43978e-05 9.41959e-07
1.43978e-05 3.87974e-05 6.10852e-07
9.41959e-07 6.10852e-07 -1.62827e-05
0.00118672 1.72996e-05 4.06031e-07
1.72996e-05 4.10532e-05 3.11083e-07
4.06031e-07 3.11083e-07 -1.98436e-05
0.00107989 3.13726e-06 1.21418e-06
3.13726e-06 4.64884e-05 8.90391e-07
1.21418e-06 8.90391e-07 -3.06914e-06
0.00110243 1.96062e-05 1.48025e-07
1.96062e-05 3.10383e-05 1.92899e-07
1.48025e-07 1.92899e-07 -2.68529e-05
0.00111174 1.77175e-05 7.75996e-07
1.77175e-05 6.01378e-05 -6.49847e-08
7.75996e-07 -6.49847e-08 1.33968e-07
0.00106953 2.14144e-05 2.59056e-07
2.14144e-05 2.25421e-05 -2.23537e-07
2.59056e-07 -2.23537e-07 -3.85006e-05
0.00102263 -5.13168e-06 1.07221e-06
-5.13168e-06 5.68756e-06 1.81565e-06
1.07221e-06 1.81565e-06 -2.15309e-05
0.000948786 -8.64581e-06 2.11853e-06
-8.64581e-06 -3.17861e-05 2.99075e-06
2.11853e-06 2.99075e-06 -3.26943e-05
0.00234315 -1.40811e-05 6.81527e-06
-1.40811e-05 0.000652395 3.70785e-06
6.81527e-06 3.70785e-06 0.000673376
0.00237691 -1.58605e-05 1.54235e-07
-1.58605e-05 0.00067274 -4.48644e-08
1.54235e-07 -4.48644e-08 0.000692934
0.00242521 -1.7662e-05 -7.62548e-06
-1.7662e-05 0.000700267 -3.52322e-06
-7.62548e-06 -3.52322e-06 0.000719593
0.000908251 1.15881e-05 2.86255e-06
1.15881e-05 -4.27951e-05 -2.74917e-06
2.86255e-06 -2.74917e-06 -4.61498e-05
0.0024787 1.93631e-05 8.08003e-06
1.93631e-05 0.000728548 -3.39985e-06
8.08003e-06 -3.39985e-06 0.000747061
0.000913538 1.26345e-05 -8.08971e-08
1.26345e-05 -3.67498e-05 -3.39308e-08
-8.08971e-08 -3.39308e-08 -4.09436e-05
0.00243397 2.11683e-05 -1.35184e-07
2.11683e-05 0.000712399 -5.99675e-08
-1.35184e-07 -5.99675e-08 0.000730162
0.000727392 -1.68013e-05 -4.75638e-06
-1.68013e-05 -7.23994e-05 -1.29597e-06
-4.75638e-06 -1.29597e-06 -0.000101129
0.000710083 -1.49602e-05 -4.69606e-06
-1.49602e-05 -5.79753e-05 -8.92991e-07
-4.69606e-06 -8.92991e-07 -9.37244e-05
0.00101104 -3.08916e-06 -1.92855e-06
-3.08916e-06 7.95298e-06 -3.7e-07
-1.92855e-06 -3.7e-07 -4.40854e-05
0.0010351 -1.4816e-05 -1.79328e-06
-1.4816e-05 2.59302e-05 -2.9646e-07
-1.79328e-06 -2.9646e-07 -2.9928e-05
0.00070387 -9.59134e-06 -4.91445e-06
-9.59134e-06 -4.94853e-05 -4.54201e-07
-4.91445e-06 -4.54201e-07 -9.03971e-05
0.00296807 2.93421e-06 -1.36114e-05
2.93421e-06 0.00110888 -3.54487e-08
-1.36114e-05 -3.54487e-08 0.00110013
0.000704193 3.2196e-06 -1.66236e-08
3.2196e-06 -5.02331e-05 -1.71544e-07
-1.66236e-08 -1.71544e-07 -9.13185e-05
0.00102051 -9.23389e-06 -4.9397e-08
-9.23389e-06 2.0791e-05 -5.51907e-08
-4.9397e-08 -5.51907e-08 -3.60031e-05
0.00101314 -9.17263e-06 -3.02411e-08
-9.17263e-06 1.29596e-05 -2.10709e-08
-3.02411e-08 -2.10709e-08 -4.09259e-05
0.00115061 -1.76725e-05 -2.0516e-08
-1.76725e-05 4.52763e-05 -8.14839e-08
-2.0516e-08 -8.14839e-08 -1.63213e-05
0.00100906 -1.50473e-06 -8.63817e-08
-1.50473e-06 3.9463e-06 -4.46368e-08
-8.63817e-08 -4.46368e-08 -4.6746e-05
0.0011707 -2.90921e-09 -2.19051e-08
-2.90921e-09 4.4725e-05 9.73641e-09
-2.19051e-08 9.73641e-09 -1.4322e-05
0.00102782 3.85975e-06 1.7186e-06
3.85975e-06 2.23617e-05 -1.0569e-07
1.7186e-06 -1.0569e-07 -3.45094e-05
0.00113013 -6.90344e-06 4.88175e-07
-6.90344e-06 4.2199e-05 -1.19808e-07
4.88175e-07 -1.19808e-07 -1.95557e-05
0.00115884 -9.18698e-06 7.93843e-07
-9.18698e-06 4.31477e-05 1.74424e-08
7.93843e-07 1.74424e-08 -1.73954e-05
0.00122853 -1.90286e-05 3.7694e-07
-1.90286e-05 6.57606e-05 -5.10123e-07
3.7694e-07 -5.10123e-07 2.06849e-06
0.00115981 4.94267e-06 7.19214e-07
4.94267e-06 3.5881e-05 3.66245e-08
7.19214e-07 3.66245e-08 -2.1943e-05
0.00122429 -4.35455e-08 8.54929e-08
-4.35455e-08 5.31423e-05 2.05368e-07
8.54929e-08 2.05368e-07 -7.94218e-06
0.000706391 1.55469e-05 -4.80151e-06
1.55469e-05 -5.39543e-05 3.72857e-07
-4.80151e-06 3.72857e-07 -9.36486e-05
0.00124245 1.44362e-05 -8.71427e-06
1.44362e-05 0.000188497 1.05345e-06
-8.71427e-06 1.05345e-06 0.000156687
0.000880839 1.20094e-05 -2.41666e-06
1.20094e-05 -6.3462e-05 3.15373e-07
-2.41666e-06 3.15373e-07 -0.000120214
0.00145587 -7.18666e-07 -2.40108e-06
-7.18666e-07 0.000213357 6.21213e-07
-2.40108e-06 6.21213e-07 0.000162579
0.00236714 2.29199e-05 -8.45306e-06
2.29199e-05 0.000687674 2.99323e-06
-8.45306e-06 2.99323e-06 0.000704415
0.00156446 1.80136e-05 -5.77964e-06
1.80136e-05 0.000297554 2.07687e-06
-5.77964e-06 2.07687e-06 0.000292348
0.00139729 7.93768e-06 -2.48097e-06
7.93768e-06 0.000211163 1.05609e-06
-2.48097e-06 1.05609e-06 0.000175513
0.00123474 3.95634e-06 -2.52159e-06
3.95634e-06 0.000120364 8.71339e-07
-2.52159e-06 8.71339e-07 7.29002e-05
0.00105883 -1.11291e-05 -1.01366e-06
-1.11291e-05 -1.434e-05 6.95815e-07
-1.01366e-06 6.95815e-07 -7.40413e-05
0.001308 -1.11207e-05 -6.02095e-07
-1.11207e-05 0.000124968 1.51811e-07
-6.02095e-07 1.51811e-07 7.08448e-05
0.000936955 -8.49322e-06 -8.86816e-07
-8.49322e-06 -3.23454e-05 3.89011e-07
-8.86816e-07 3.89011e-07 -8.67485e-05
0.00116341 -1.80202e-05 -1.91919e-07
-1.80202e-05 4.60663e-05 -7.12585e-08
-1.91919e-07 -7.12585e-08 -1.20714e-05
0.000921257 1.37989e-05 -3.65859e-06
1.37989e-05 -2.88158e-05 2.38357e-06
-3.65859e-06 2.38357e-06 -3.39835e-05
0.001002 8.66573e-06 -2.11625e-06
8.66573e-06 4.78036e-06 1.45673e-06
-2.11625e-06 1.45673e-06 -2.67983e-05
0.000932784 1.5152e-05 7.21524e-08
1.5152e-05 -2.87364e-05 6.78841e-09
7.21524e-08 6.78841e-09 -8.56132e-05
0.00126992 4.52164e-06 -3.78031e-07
4.52164e-06 0.000122288 8.59843e-08
-3.78031e-07 8.59843e-08 6.9227e-05
0.00129212 1.45227e-05 -3.99321e-07
1.45227e-05 9.66089e-05 3.45588e-08
-3.99321e-07 3.45588e-08 3.47407e-05
0.00126493 -8.75247e-06 2.10411e-07
-8.75247e-06 7.77146e-05 -1.77918e-07
2.10411e-07 -1.77918e-07 1.73033e-05
0.000895237 1.49498e-05 -3.67622e-08
1.49498e-05 -3.61477e-05 -3.33485e-08
-3.67622e-08 -3.33485e-08 -4.24344e-05
0.000979137 1.05223e-05 -1.1569e-08
1.05223e-05 5.97005e-06 1.33512e-08
-1.1569e-08 1.33512e-08 -2.95383e-05
0.000981033 -6.80833e-06 3.10184e-07
-6.80833e-06 -3.06805e-06 -2.63886e-07
3.10184e-07 -2.63886e-07 -5.53526e-05
0.00129317 -1.16217e-05 -1.93767e-07
-1.16217e-05 0.000110581 7.34313e-08
-1.93767e-07 7.34313e-08 5.48525e-05
0.00123006 -1.22092e-05 -1.68708e-07
-1.22092e-05 5.08521e-05 2.51467e-07
-1.68708e-07 2.51467e-07 -1.10444e-05
0.00119361 -1.96695e-05 -2.76398e-07
-1.96695e-05 7.23802e-05 1.20639e-07
-2.76398e-07 1.20639e-07 1.31305e-05
0.00118909 -1.67048e-05 4.69072e-08
-1.67048e-05 4.89436e-05 4.26202e-08
4.69072e-08 4.26202e-08 -9.02067e-06
0.00118046 -1.96742e-05 1.8946e-07
-1.96742e-05 4.44869e-05 1.95807e-07
1.8946e-07 1.95807e-07 -1.44971e-05
0.000991124 9.54073e-06 -3.03409e-08
9.54073e-06 2.3205e-06 -3.06692e-08
-3.03409e-08 -3.06692e-08 -2.99082e-05
0.00100342 -3.92103e-06 -4.05614e-08
-3.92103e-06 7.42875e-07 -4.85566e-08
-4.05614e-08 -4.85566e-08 -4.8411e-05
0.00100311 7.5738e-06 -8.2096e-08
7.5738e-06 3.01175e-06 -1.84986e-08
-8.2096e-08 -1.84986e-08 -2.78773e-05
0.00134107 2.01943e-05 4.8433e-07
2.01943e-05 0.000132084 1.15269e-07
4.8433e-07 1.15269e-07 7.02076e-05
0.0012929 4.89618e-06 8.72526e-07
4.89618e-06 8.91341e-05 -8.31743e-08
8.72526e-07 -8.31743e-08 2.77043e-05
0.00126757 1.6256e-05 4.55923e-07
1.6256e-05 6.70936e-05 3.57215e-08
4.55923e-07 3.57215e-08 1.77196e-06
0.00129385 -4.68992e-06 3.00763e-08
-4.68992e-06 7.13729e-05 -5.75694e-07
3.00763e-08 -5.75694e-07 7.21653e-06
0.0011549 -1.52193e-05 -8.64151e-08
-1.52193e-05 2.66336e-05 -2.50419e-07
-8.64151e-08 -2.50419e-07 -3.23183e-05
0.00129264 -1.11463e-05 -7.57292e-07
-1.11463e-05 7.11825e-05 -6.6481e-08
-7.57292e-07 -6.6481e-08 1.03072e-05
0.000965471 1.08066e-05 2.25938e-06
1.08066e-05 -5.3735e-06 -1.2626e-06
2.25938e-06 -1.2626e-06 -3.87793e-05
0.00120521 -1.76661e-05 -5.50127e-07
-1.76661e-05 4.81096e-05 1.80184e-07
-5.50127e-07 1.80184e-07 -1.00918e-05
0.00104888 -4.80176e-06 9.69482e-07
-4.80176e-06 3.01782e-05 -4.5285e-07
9.69482e-07 -4.5285e-07 -1.99638e-05
0.000998973 -1.8362e-05 6.65588e-07
-1.8362e-05 -7.09565e-06 -6.90859e-07
6.65588e-07 -6.90859e-07 -6.63071e-05
0.00125138 -2.2279e-05 2.96023e-07
-2.2279e-05 9.15271e-05 4.07931e-07
2.96023e-07 4.07931e-07 2.9318e-05
0.00133272 -2.1377e-05 -8.56342e-07
-2.1377e-05 0.000112654 1.14869e-06
-8.56342e-07 1.14869e-06 5.57249e-05
0.00100705 6.58503e-06 1.56833e-06
6.58503e-06 2.61787e-06 -1.64629e-06
1.56833e-06 -1.64629e-06 -2.74479e-05
0.00106349 -3.96502e-06 1.27486e-06
-3.96502e-06 3.17739e-05 -6.05985e-07
1.27486e-06 -6.05985e-07 -1.68916e-05
0.000925728 -3.53742e-06 1.4063e-06
-3.53742e-06 -3.64017e-05 -1.2653e-06
1.4063e-06 -1.2653e-06 -8.64039e-05
0.0012431 -1.72245e-05 3.25348e-07
-1.72245e-05 0.000115121 2.20282e-07
3.25348e-07 2.20282e-07 5.86749e-05
0.00102127 8.62128e-07 -2.22493e-06
8.62128e-07 9.81343e-06 -6.46136e-07
-2.22493e-06 -6.46136e-07 -3.99024e-05
0.000908041 -1.18809e-05 -2.88858e-06
-1.18809e-05 -4.11276e-05 -2.7848e-06
-2.88858e-06 -2.7848e-06 -4.40311e-05
0.000886984 -1.40744e-05 -3.5132e-06
-1.40744e-05 -4.29264e-05 -2.49373e-06
-3.5132e-06 -2.49373e-06 -4.73647e-05
0.000992281 -9.069e-06 -2.05564e-06
-9.069e-06 1.49973e-06 -1.56949e-06
-2.05564e-06 -1.56949e-06 -2.90661e-05
0.000983906 6.89926e-07 -2.25193e-06
6.89926e-07 6.82854e-06 -1.08134e-06
-2.25193e-06 -1.08134e-06 -3.82802e-05
0.00115003 1.42248e-05 -8.89283e-07
1.42248e-05 4.11226e-05 -3.65154e-07
-8.89283e-07 -3.65154e-07 -1.59056e-05
0.000964093 -1.15367e-05 -2.30627e-06
-1.15367e-05 -2.85548e-06 -1.39857e-06
-2.30627e-06 -1.39857e-06 -3.56492e-05
0.00105689 4.22543e-06 -1.13472e-06
4.22543e-06 3.88733e-05 -8.74526e-07
-1.13472e-06 -8.74526e-07 -1.2822e-05
0.00109869 1.27797e-05 -9.45768e-07
1.27797e-05 4.22142e-05 -4.53254e-07
-9.45768e-07 -4.53254e-07 -1.04556e-05
0.0010278 1.84882e-05 -1.18387e-06
1.84882e-05 9.39796e-06 -1.44571e-07
-1.18387e-06 -1.44571e-07 -4.88191e-05
0.000930091 -1.08181e-05 7.52329e-08
-1.08181e-05 -3.38985e-05 -1.99637e-08
7.52329e-08 -1.99637e-08 -3.61646e-05
0.000992538 -1.02888e-05 3.88569e-08
-1.02888e-05 5.08439e-06 -2.31012e-08
3.88569e-08 -2.31012e-08 -2.61348e-05
0.00100335 -8.35612e-06 6.42494e-08
-8.35612e-06 4.59658e-06 -2.00228e-08
6.42494e-08 -2.00228e-08 -2.54325e-05
0.0010592 -2.0742e-06 7.23301e-08
-2.0742e-06 3.09636e-05 -3.88316e-08
7.23301e-08 -3.88316e-08 -1.68492e-05
0.0011623 9.5494e-06 1.74134e-07
9.5494e-06 3.7285e-05 3.55417e-08
1.74134e-07 3.55417e-08 -2.0169e-05
0.00110766 1.47173e-05 2.50614e-08
1.47173e-05 3.64706e-05 7.27972e-09
2.50614e-08 7.27972e-09 -1.86135e-05
0.00119752 1.73643e-05 1.79237e-09
1.73643e-05 4.58562e-05 1.6734e-07
1.79237e-09 1.6734e-07 -1.50764e-05
0.00106354 1.97194e-06 -6.76263e-08
1.97194e-06 3.96391e-05 2.68132e-08
-6.76263e-08 2.68132e-08 -9.98598e-06
0.00119172 2.02643e-05 -2.13209e-07
2.02643e-05 7.41871e-05 -3.2504e-07
-2.13209e-07 -3.2504e-07 1.66674e-05
0.00111908 1.82186e-05 1.11645e-07
1.82186e-05 6.3324e-05 -2.12794e-07
1.11645e-07 -2.12794e-07 3.13062e-06
0.00107687 2.1287e-05 -7.30503e-07
2.1287e-05 2.75169e-05 -1.02347e-07
-7.30503e-07 -1.02347e-07 -3.26104e-05
0.000949896 -9.74349e-06 2.44812e-06
-9.74349e-06 -2.78297e-05 2.91814e-06
2.44812e-06 2.91814e-06 -2.94473e-05
0.00101095 -7.47801e-06 1.73693e-06
-7.47801e-06 6.13596e-06 1.69751e-06
1.73693e-06 1.69751e-06 -2.32761e-05
0.00107347 1.04109e-06 1.34743e-06
1.04109e-06 3.85882e-05 7.49528e-07
1.34743e-06 7.49528e-07 -9.42292e-06
0.00106168 -3.09247e-06 1.15736e-06
-3.09247e-06 3.13823e-05 9.19931e-07
1.15736e-06 9.19931e-07 -1.62068e-05
0.00109005 8.31654e-06 8.52359e-07
8.31654e-06 4.49848e-05 1.70951e-07
8.52359e-07 1.70951e-07 -1.29804e-05
0.00119486 8.98211e-06 4.23915e-07
8.98211e-06 3.51346e-05 -2.57034e-07
4.23915e-07 -2.57034e-07 -2.46636e-05
0.0011652 2.02389e-05 3.4011e-07
2.02389e-05 4.83032e-05 6.13873e-07
3.4011e-07 6.13873e-07 -1.16283e-05
0.0012457 1.7424e-05 -4.54551e-07
1.7424e-05 6.07691e-05 1.35844e-07
-4.54551e-07 1.35844e-07 -1.10821e-06
0.0011268 1.51158e-05 1.06538e-06
1.51158e-05 6.82794e-05 1.01726e-06
1.06538e-06 1.01726e-06 8.77536e-06
0.00115544 2.28599e-05 5.61992e-07
2.28599e-05 5.13515e-05 2.3156e-07
5.61992e-07 2.3156e-07 -9.31112e-06
0.000939767 2.07828e-05 8.96733e-07
2.07828e-05 -2.87094e-05 -3.25708e-07
8.96733e-07 -3.25708e-07 -9.58567e-05
0.00101988 -5.82527e-06 1.31799e-06
-5.82527e-06 6.55168e-06 1.80517e-06
1.31799e-06 1.80517e-06 -2.14986e-05
0.00106834 8.26779e-07 6.00856e-07
8.26779e-07 3.095e-05 1.10799e-06
6.00856e-07 1.10799e-06 -1.39509e-05
0.00102507 -4.31153e-06 8.6858e-07
-4.31153e-06 4.53094e-06 1.81439e-06
8.6858e-07 1.81439e-06 -2.19887e-05
0.00102084 -5.10303e-06 5.40346e-08
-5.10303e-06 4.79889e-06 2.87636e-09
5.40346e-08 2.87636e-09 -2.23934e-05
0.00153 -8.44661e-06 1.59907e-06
-8.44661e-06 0.000248475 1.8714e-06
1.59907e-06 1.8714e-06 0.000251186
0.00124104 -9.11133e-06 2.6876e-07
-9.11133e-06 0.000111036 6.32e-09
2.6876e-07 6.32e-09 0.000111565
0.00118845 -1.03987e-05 6.54695e-06
-1.03987e-05 8.4218e-05 6.13821e-06
6.54695e-06 6.13821e-06 0.000100136
0.00236543 -1.40862e-05 1.74865e-07
-1.40862e-05 0.000662915 -3.97486e-08
1.74865e-07 -3.97486e-08 0.000683856
0.00240706 -1.58786e-05 -7.13624e-06
-1.58786e-05 0.000687108 -3.63586e-06
-7.13624e-06 -3.63586e-06 0.000707227
0.000918142 1.05894e-05 2.55741e-06
1.05894e-05 -4.13423e-05 -2.82523e-06
2.55741e-06 -2.82523e-06 -4.40132e-05
0.00245641 1.75432e-05 7.66231e-06
1.75432e-05 0.000713467 -3.52287e-06
7.66231e-06 -3.52287e-06 0.00073279
0.000922523 1.16064e-05 -8.07386e-08
1.16064e-05 -3.57752e-05 -2.38399e-08
-8.07386e-08 -2.38399e-08 -3.92214e-05
0.00243173 1.93268e-05 -1.41722e-07
1.93268e-05 0.000706113 -5.54083e-08
-1.41722e-07 -5.54083e-08 0.000724752
0.000927979 1.26637e-05 -3.3878e-06
1.26637e-05 -2.95613e-05 2.55515e-06
-3.3878e-06 2.55515e-06 -3.38546e-05
0.00237526 2.11261e-05 -8.30135e-06
2.11261e-05 0.000684582 3.17463e-06
-8.30135e-06 3.17463e-06 0.000702469
0.00101994 -8.42545e-07 -2.09764e-06
-8.42545e-07 8.93092e-06 -4.18811e-07
-2.09764e-06 -4.18811e-07 -4.18157e-05
0.00101601 -8.3676e-06 -1.83509e-06
-8.3676e-06 1.40326e-05 -3.54951e-07
-1.83509e-06 -3.54951e-07 -3.98648e-05
0.00116991 -1.27168e-06 -7.01744e-07
-1.27168e-06 4.47287e-05 -1.00767e-07
-7.01744e-07 -1.00767e-07 -1.43588e-05
0.00117007 -1.8097e-05 -7.86863e-07
-1.8097e-05 5.38115e-05 4.82656e-08
-7.86863e-07 4.82656e-08 -7.84904e-06
0.00103507 -7.6913e-06 -1.72575e-06
-7.6913e-06 2.72909e-05 -9.74491e-08
-1.72575e-06 -9.74491e-08 -2.95323e-05
0.000696056 4.13504e-06 -4.82037e-06
4.13504e-06 -5.38873e-05 -4.16956e-08
-4.82037e-06 -4.16956e-08 -9.49928e-05
0.00102088 4.72563e-06 4.83441e-08
4.72563e-06 1.93764e-05 -3.67246e-08
4.83441e-08 -3.67246e-08 -3.74612e-05
0.0011451 -7.01674e-06 -6.55073e-08
-7.01674e-06 4.88989e-05 4.65579e-08
-6.55073e-08 4.65579e-08 -1.28896e-05
0.00116172 -1.188e-05 9.60782e-09
-1.188e-05 4.45144e-05 -6.3117e-08
9.60782e-09 -6.3117e-08 -1.60989e-05
0.00123577 -1.90944e-05 -4.61277e-08
-1.90944e-05 6.94728e-05 -8.37417e-08
-4.61277e-08 -8.37417e-08 5.86882e-06
0.00117046 5.01242e-06 -3.87111e-08
5.01242e-06 4.10217e-05 2.42991e-08
-3.87111e-08 2.42991e-08 -1.68436e-05
0.00122897 -9.81037e-07 1.62714e-08
-9.81037e-07 5.58011e-05 6.73214e-08
1.62714e-08 6.73214e-08 -5.25846e-06
0.00116301 1.13208e-05 7.58502e-07
1.13208e-05 5.62029e-05 1.76758e-07
7.58502e-07 1.76758e-07 -6.04394e-06
0.00118632 -9.42865e-06 1.865e-07
-9.42865e-06 5.91205e-05 -3.53206e-07
1.865e-07 -3.53206e-07 -3.84296e-06
0.00121245 -9.14317e-06 3.26052e-07
-9.14317e-06 5.10491e-05 -1.84348e-07
3.26052e-07 -1.84348e-07 -1.19439e-05
0.00127013 -1.92088e-05 7.52756e-07
-1.92088e-05 7.71596e-05 -4.264e-07
7.52756e-07 -4.264e-07 1.28838e-05
0.00122085 2.22818e-06 -2.17403e-08
2.22818e-06 4.81102e-05 -6.55943e-08
-2.17403e-08 -6.55943e-08 -1.13443e-05
0.0013245 -7.46266e-06 -5.28515e-07
-7.46266e-06 9.01927e-05 4.93154e-07
-5.28515e-07 4.93154e-07 3.11139e-05
0.000859744 1.54018e-05 -1.79186e-06
1.54018e-05 -6.42226e-05 6.45936e-08
-1.79186e-06 6.45936e-08 -0.000121589
0.00126882 2.30908e-06 -2.42359e-06
2.30908e-06 0.000121504 4.59622e-07
-2.42359e-06 4.59622e-07 6.8478e-05
0.00123076 1.88753e-05 -1.35198e-06
1.88753e-05 6.76538e-05 2.00285e-08
-1.35198e-06 2.00285e-08 5.55599e-06
0.00139437 -9.59094e-06 -6.22789e-07
-9.59094e-06 0.000140963 1.36682e-07
-6.22789e-07 1.36682e-07 8.1416e-05
0.000916666 1.49881e-05 -3.86783e-06
1.49881e-05 -2.57195e-05 2.2161e-06
-3.86783e-06 2.2161e-06 -3.21312e-05
0.00100087 9.8551e-06 -2.16275e-06
9.8551e-06 1.56872e-05 1.13058e-06
-2.16275e-06 1.13058e-06 -1.9776e-05
0.00105828 -6.76256e-06 -6.38662e-07
-6.76256e-06 3.44479e-05 3.13177e-07
-6.38662e-07 3.13177e-07 -1.73055e-05
0.00133344 -1.18564e-05 -7.01353e-07
-1.18564e-05 0.000129272 3.03439e-07
-7.01353e-07 3.03439e-07 7.36747e-05
0.00115398 -1.10834e-05 1.57606e-08
-1.10834e-05 1.36432e-05 6.68828e-07
1.57606e-08 6.68828e-07 -4.83159e-05
0.00118787 -1.6599e-05 2.91876e-08
-1.6599e-05 4.82838e-05 5.1338e-08
2.91876e-08 5.1338e-08 -9.63976e-06
0.00105507 -1.8543e-05 -6.63256e-07
-1.8543e-05 6.29244e-06 2.91956e-07
-6.63256e-07 2.91956e-07 -5.35051e-05
0.0011416 -1.91768e-05 3.94481e-07
-1.91768e-05 2.55658e-05 -3.64957e-07
3.94481e-07 -3.64957e-07 -3.33631e-05
0.00100103 9.82097e-06 -2.20932e-06
9.82097e-06 7.28596e-06 1.30874e-06
-2.20932e-06 1.30874e-06 -2.49757e-05
0.000944021 -3.33514e-06 -1.2675e-06
-3.33514e-06 -2.90663e-05 6.51535e-07
-1.2675e-06 6.51535e-07 -7.84996e-05
0.0010057 7.78017e-06 -1.88598e-06
7.78017e-06 4.54015e-06 1.5947e-06
-1.88598e-06 1.5947e-06 -2.63949e-05
0.00122992 1.92845e-05 -3.64444e-07
1.92845e-05 7.93921e-05 -6.77046e-08
-3.64444e-07 -6.77046e-08 1.71665e-05
0.00129307 4.29128e-07 -1.70635e-07
4.29128e-07 8.9208e-05 2.28519e-08
-1.70635e-07 2.28519e-08 2.78061e-05
0.00123241 1.8448e-05 -2.60797e-07
1.8448e-05 4.86762e-05 -5.51208e-08
-2.60797e-07 -5.51208e-08 -1.70888e-05
0.00132011 -3.51513e-06 -2.26337e-08
-3.51513e-06 8.40936e-05 -2.09073e-07
-2.26337e-08 -2.09073e-07 2.01313e-05
0.00098365 1.09542e-05 -4.06663e-09
1.09542e-05 3.21796e-06 -1.11024e-08
-4.06663e-09 -1.11024e-08 -3.02028e-05
0.00106227 -4.79049e-06 5.95923e-08
-4.79049e-06 3.57509e-05 -1.89291e-09
5.95923e-08 -1.89291e-09 -1.43163e-05
0.0010724 -1.87169e-05 1.60425e-07
-1.87169e-05 2.91587e-05 -2.42002e-07
1.60425e-07 -2.42002e-07 -2.95924e-05
0.00123824 -1.56493e-05 2.82513e-08
-1.56493e-05 6.70009e-05 -8.8842e-08
2.82513e-08 -8.8842e-08 8.18677e-06
0.00124314 -1.1127e-05 9.09145e-08
-1.1127e-05 4.70655e-05 3.28575e-07
9.09145e-08 3.28575e-07 -1.33715e-05
0.00117805 -2.18715e-05 2.58503e-08
-2.18715e-05 5.73733e-05 1.13975e-07
2.58503e-08 1.13975e-07 -5.46207e-06
0.00121065 -1.72936e-05 3.23892e-08
-1.72936e-05 5.02338e-05 6.74894e-08
3.23892e-08 6.74894e-08 -7.88198e-06
0.0012712 -2.07055e-05 3.02197e-07
-2.07055e-05 8.26829e-05 2.94994e-07
3.02197e-07 2.94994e-07 2.63779e-05
0.00106638 -4.20141e-06 2.62535e-08
-4.20141e-06 3.23846e-05 -3.35109e-08
2.62535e-08 -3.35109e-08 -1.61393e-05
0.00114399 -1.64646e-05 -3.055e-07
-1.64646e-05 6.64075e-05 2.28297e-07
-3.055e-07 2.28297e-07 9.45327e-06
0.00100737 6.68727e-06 -4.76105e-08
6.68727e-06 2.97754e-06 -1.83788e-09
-4.76105e-08 -1.83788e-09 -2.71364e-05
0.000929177 -3.28913e-06 3.05774e-07
-3.28913e-06 -3.51808e-05 -3.39156e-07
3.05774e-07 -3.39156e-07 -8.51252e-05
0.00125217 1.99359e-05 6.73418e-07
1.99359e-05 7.36009e-05 1.89471e-07
6.73418e-07 1.89471e-07 7.96205e-06
0.00140802 6.28304e-06 2.33309e-07
6.28304e-06 0.000119501 -4.54843e-08
2.33309e-07 -4.54843e-08 5.42319e-05
0.00115772 1.84694e-05 1.16185e-07
1.84694e-05 5.15055e-06 -1.49812e-09
1.16185e-07 -1.49812e-09 -6.28083e-05
0.00124736 -4.35954e-07 -6.10031e-07
-4.35954e-07 3.77965e-05 -8.90224e-07
-6.10031e-07 -8.90224e-07 -2.5458e-05
0.00121814 -1.51555e-05 -8.50545e-07
-1.51555e-05 4.73269e-05 3.66692e-08
-8.50545e-07 3.66692e-08 -1.07841e-05
0.00130157 -9.53082e-06 -5.44953e-07
-9.53082e-06 6.64545e-05 -1.54297e-07
-5.44953e-07 -1.54297e-07 8.72193e-06
0.00105666 -3.35352e-06 1.1405e-06
-3.35352e-06 3.13919e-05 -4.84415e-07
1.1405e-06 -4.84415e-07 -1.75863e-05
0.00119775 -1.68528e-05 -1.40766e-06
-1.68528e-05 3.83666e-05 4.4236e-07
-1.40766e-06 4.4236e-07 -1.5966e-05
0.000988085 -1.75624e-05 5.26499e-07
-1.75624e-05 -7.72236e-06 -4.75122e-07
5.26499e-07 -4.75122e-07 -6.48617e-05
0.00115482 -2.19727e-05 4.78133e-07
-2.19727e-05 6.4106e-05 -4.08454e-07
4.78133e-07 -4.08454e-07 -2.1601e-07
0.00122191 -2.36904e-05 3.20388e-07
-2.36904e-05 7.33761e-05 1.35909e-06
3.20388e-07 1.35909e-06 9.31531e-06
0.00132919 -2.11976e-05 -5.63655e-07
-2.11976e-05 0.000103856 7.7389e-07
-5.63655e-07 7.7389e-07 4.90532e-05
0.00101241 6.40558e-06 1.26499e-06
6.40558e-06 4.22163e-06 -1.68611e-06
1.26499e-06 -1.68611e-06 -2.53175e-05
0.000905688 -3.95599e-06 1.26826e-06
-3.95599e-06 -4.65181e-05 -1.46017e-06
1.26826e-06 -1.46017e-06 -9.62625e-05
0.00111174 -1.66712e-05 6.21798e-07
-1.66712e-05 4.89046e-05 5.47558e-08
6.21798e-07 5.47558e-08 -6.92478e-06
0.00115926 -1.58109e-05 6.82217e-07
-1.58109e-05 7.76848e-05 -5.77711e-08
6.82217e-07 -5.77711e-08 1.8738e-05
0.00121673 -2.04012e-05 2.61522e-07
-2.04012e-05 9.75817e-05 3.12792e-07
2.61522e-07 3.12792e-07 3.70762e-05
0.000918022 -1.07943e-05 -2.58332e-06
-1.07943e-05 -3.98269e-05 -2.88576e-06
-2.58332e-06 -2.88576e-06 -4.20202e-05
0.00118685 9.98459e-06 -6.63538e-07
9.98459e-06 4.87374e-05 -3.67778e-08
-6.63538e-07 -3.67778e-08 -8.79725e-06
0.00099843 -8.23759e-06 -1.84004e-06
-8.23759e-06 2.11332e-06 -1.67119e-06
-1.84004e-06 -1.67119e-06 -2.78854e-05
0.000981849 -1.00714e-05 -2.25585e-06
-1.00714e-05 -1.3115e-07 -1.44312e-06
-2.25585e-06 -1.44312e-06 -3.13124e-05
0.00105561 -2.35203e-06 -1.20166e-06
-2.35203e-06 2.95135e-05 -8.86e-07
-1.20166e-06 -8.86e-07 -1.83605e-05
0.00110231 1.50761e-05 -9.07601e-07
1.50761e-05 3.40838e-05 -6.01179e-07
-9.07601e-07 -6.01179e-07 -2.10055e-05
0.00120859 1.74139e-05 -3.22055e-07
1.74139e-05 5.0787e-05 4.80827e-08
-3.22055e-07 4.80827e-08 -1.01819e-05
0.00104816 7.78054e-07 -1.20596e-06
7.78054e-07 3.3268e-05 -7.87645e-07
-1.20596e-06 -7.87645e-07 -1.6427e-05
0.00112784 1.86889e-05 -8.8598e-07
1.86889e-05 6.71849e-05 -6.06419e-07
-8.8598e-07 -6.06419e-07 6.80068e-06
0.00128008 2.09437e-05 -7.524e-07
2.09437e-05 0.00011689 -6.63321e-07
-7.524e-07 -6.63321e-07 5.97423e-05
0.00108657 2.11771e-05 -1.68954e-06
2.11771e-05 3.35651e-05 3.62106e-07
-1.68954e-06 3.62106e-07 -2.56447e-05
0.000938762 -9.72411e-06 8.22984e-08
-9.72411e-06 -3.32205e-05 -1.78845e-08
8.22984e-08 -1.78845e-08 -3.4781e-05
0.00100801 -7.37563e-06 4.36049e-08
-7.37563e-06 4.5942e-06 -1.16259e-08
4.36049e-08 -1.16259e-08 -2.4796e-05
0.00106341 1.52098e-07 -4.73811e-09
1.52098e-07 3.44793e-05 3.52728e-09
-4.73811e-09 3.52728e-09 -1.35968e-05
0.00105959 -3.19821e-06 3.2633e-08
-3.19821e-06 3.05037e-05 -1.165e-08
3.2633e-08 -1.165e-08 -1.71276e-05
0.00105448 7.62673e-06 7.76423e-08
7.62673e-06 2.77964e-05 -9.89233e-08
7.76423e-08 -9.89233e-08 -3.03334e-05
0.00121691 9.44882e-06 2.56894e-07
9.44882e-06 4.51373e-05 4.38087e-09
2.56894e-07 4.38087e-09 -1.47775e-05
0.00116495 2.04215e-05 3.04422e-08
2.04215e-05 4.84267e-05 9.40216e-08
3.04422e-08 9.40216e-08 -1.15357e-05
0.00122417 1.81823e-05 2.11498e-07
1.81823e-05 5.09532e-05 2.9128e-07
2.11498e-07 2.9128e-07 -1.12123e-05
0.00110905 1.57306e-05 2.96302e-07
1.57306e-05 6.02774e-05 3.20967e-07
2.96302e-07 3.20967e-07 7.96405e-07
0.00120763 2.29806e-05 1.75405e-07
2.29806e-05 7.64656e-05 -2.62353e-07
1.75405e-07 -2.62353e-07 1.60433e-05
0.00103988 2.15687e-05 -4.6704e-07
2.15687e-05 1.76015e-05 -3.19979e-07
-4.6704e-07 -3.19979e-07 -4.89342e-05
0.00101501 -6.53157e-06 1.56424e-06
-6.53157e-06 6.08313e-06 1.75625e-06
1.56424e-06 1.75625e-06 -2.26949e-05
0.00106359 -2.29674e-06 1.08122e-06
-2.29674e-06 3.09214e-05 1.00671e-06
1.08122e-06 1.00671e-06 -1.63232e-05
0.0010655 1.22046e-05 6.80651e-07
1.22046e-05 3.33033e-05 2.4021e-07
6.80651e-07 2.4021e-07 -2.49075e-05
0.00109801 4.7834e-06 6.78758e-07
4.7834e-06 4.94074e-05 3.49324e-07
6.78758e-07 3.49324e-07 -9.05716e-06
0.00118219 1.64248e-05 2.70147e-07
1.64248e-05 9.01352e-05 -2.69279e-07
2.70147e-07 -2.69279e-07 2.72038e-05
0.00122163 6.61506e-06 -5.81504e-07
6.61506e-06 3.54273e-05 -9.50438e-07
-5.81504e-07 -9.50438e-07 -2.30399e-05
0.00119135 2.33823e-05 2.16211e-07
2.33823e-05 5.45093e-05 4.69526e-07
2.16211e-07 4.69526e-07 -7.72177e-06
0.00109395 2.11861e-05 -7.40826e-07
2.11861e-05 -1.04712e-05 -5.43178e-07
-7.40826e-07 -5.43178e-07 -6.84058e-05
0.00110777 2.13558e-05 5.11699e-07
2.13558e-05 6.04618e-05 1.11419e-06
5.11699e-07 1.11419e-06 -7.10474e-06
0.0012003 2.49311e-05 1.33345e-06
2.49311e-05 7.86454e-05 -9.96851e-08
1.33345e-06 -9.96851e-08 9.54014e-06
0.00101637 -5.78189e-06 7.20512e-08
-5.78189e-06 4.80126e-06 -3.23808e-09
7.20512e-08 -3.23808e-09 -2.32116e-05
0.000908812 -8.91107e-07 9.24828e-07
-8.91107e-07 -4.59516e-05 1.58831e-06
9.24828e-07 1.58831e-06 -9.32189e-05
0.000989285 -1.74644e-08 -1.45232e-08
-1.74644e-08 -7.45463e-06 2.60062e-08
-1.45232e-08 2.60062e-08 -5.29967e-05
0.00125447 7.40108e-06 2.62543e-07
7.40108e-06 0.000127139 2.49545e-07
2.62543e-07 2.49545e-07 7.11898e-05
0.00106952 5.14833e-07 4.99221e-07
5.14833e-07 3.0936e-05 1.0904e-06
4.99221e-07 1.0904e-06 -1.33406e-05
0.00102908 -3.42309e-06 6.63761e-07
-3.42309e-06 4.34774e-06 1.82487e-06
6.63761e-07 1.82487e-06 -2.17366e-05
0.00102625 -4.30405e-06 5.39023e-08
-4.30405e-06 5.14944e-06 4.01174e-10
5.39023e-08 4.01174e-10 -2.1372e-05
0.00152953 -7.03531e-06 1.30513e-06
-7.03531e-06 0.000244805 1.88941e-06
1.30513e-06 1.88941e-06 0.000248199
0.00101935 -5.07515e-06 -9.61718e-07
-5.07515e-06 4.06564e-06 -1.79827e-06
-9.61718e-07 -1.79827e-06 -2.31028e-05
0.00154683 -8.19576e-06 -1.04403e-06
-8.19576e-06 0.000256789 -1.18883e-06
-1.04403e-06 -1.18883e-06 0.000259437
0.00121122 -8.89924e-06 5.73761e-06
-8.89924e-06 9.05482e-05 6.19933e-06
5.73761e-06 6.19933e-06 0.000107229
0.00153306 -9.2724e-06 -3.4048e-06
-9.2724e-06 0.000253736 -2.97982e-06
-3.4048e-06 -2.97982e-06 0.000255713
0.00174993 -1.13671e-05 3.89243e-06
-1.13671e-05 0.00035815 2.29823e-06
3.89243e-06 2.29823e-06 0.000377074
0.00238784 -1.40925e-05 -6.55479e-06
-1.40925e-05 0.000673511 -3.72932e-06
-6.55479e-06 -3.72932e-06 0.000694411
0.00092755 9.71124e-06 2.13664e-06
9.71124e-06 -4.01052e-05 -2.91118e-06
2.13664e-06 -2.91118e-06 -4.19895e-05
0.000931392 1.06035e-05 -7.43497e-08
1.06035e-05 -3.4941e-05 -1.80594e-08
-7.43497e-08 -1.80594e-08 -3.76762e-05
0.00243227 1.57358e-05 7.16918e-06
1.57358e-05 0.000697482 -3.62959e-06
7.16918e-06 -3.62959e-06 0.000717603
0.00242121 1.75175e-05 -1.45238e-07
1.75175e-05 0.000696624 -4.91183e-08
-1.45238e-07 -4.91183e-08 0.000716043
0.000936722 1.16255e-05 -3.06524e-06
1.16255e-05 -2.87942e-05 2.69722e-06
-3.06524e-06 2.69722e-06 -3.2331e-05
0.00238475 1.9303e-05 -8.0995e-06
1.9303e-05 0.000683685 3.34548e-06
-8.0995e-06 3.34548e-06 0.000702447
0.00118184 5.2137e-06 -7.82829e-07
5.2137e-06 4.65043e-05 1.69763e-09
-7.82829e-07 1.69763e-09 -1.14029e-05
0.0011654 -1.15521e-05 -7.17042e-07
-1.15521e-05 4.61725e-05 -1.32146e-07
-7.17042e-07 -1.32146e-07 -1.44703e-05
0.00123232 -9.33449e-07 5.84227e-08
-9.33449e-07 5.78062e-05 -5.33288e-08
5.84227e-08 -5.33288e-08 -3.20738e-06
0.00123907 -1.91171e-05 -3.64684e-07
-1.91171e-05 7.13488e-05 3.33517e-07
-3.64684e-07 3.33517e-07 7.83426e-06
0.00115983 -6.89793e-06 -6.55907e-07
-6.89793e-06 5.55018e-05 2.05503e-07
-6.55907e-07 2.05503e-07 -6.32289e-06
0.00101399 8.41157e-06 -1.59676e-06
8.41157e-06 1.64387e-05 2.89867e-08
-1.59676e-06 2.89867e-08 -4.03749e-05
0.00115282 1.14333e-05 9.32673e-08
1.14333e-05 5.19332e-05 7.82817e-08
9.32673e-08 7.82817e-08 -1.02657e-05
0.00117808 -1.29475e-05 7.58297e-09
-1.29475e-05 5.61833e-05 -6.79395e-08
7.58297e-09 -6.79395e-08 -6.6839e-06
0.00122575 -1.03949e-05 6.95832e-08
-1.03949e-05 5.73262e-05 -1.68831e-07
6.95832e-08 -1.68831e-07 -5.66947e-06
0.00128641 -1.93804e-05 -3.49202e-08
-1.93804e-05 8.41166e-05 -1.2589e-07
-3.49202e-08 -1.2589e-07 1.94804e-05
0.00122496 2.70676e-06 -5.94094e-08
2.70676e-06 5.02369e-05 9.88695e-08
-5.94094e-08 9.88695e-08 -9.27967e-06
0.0013007 -7.69986e-06 7.47302e-08
-7.69986e-06 7.84732e-05 1.99235e-07
7.47302e-08 1.99235e-07 1.93275e-05
0.00124226 5.38982e-06 4.28255e-07
5.38982e-06 8.54379e-05 5.60903e-07
4.28255e-07 5.60903e-07 2.16763e-05
0.00114414 -7.17907e-06 3.51134e-07
-7.17907e-06 4.20055e-05 -6.94315e-07
3.51134e-07 -6.94315e-07 -2.16098e-05
0.0011893 -1.34445e-05 4.51115e-07
-1.34445e-05 2.81497e-05 3.08674e-07
4.51115e-07 3.08674e-07 -3.49958e-05
0.00138835 -2.07135e-05 3.01343e-07
-2.07135e-05 0.000132865 -2.94274e-07
3.01343e-07 -2.94274e-07 6.6543e-05
0.00120706 -1.24373e-06 -7.06716e-07
-1.24373e-06 2.79823e-05 4.18009e-09
-7.06716e-07 4.18009e-09 -2.87197e-05
0.00142178 -1.31731e-05 -5.80662e-07
-1.31731e-05 0.000129291 2.45916e-07
-5.80662e-07 2.45916e-07 7.18128e-05
0.00111529 1.83359e-05 -1.17483e-06
1.83359e-05 2.51352e-05 -2.85146e-07
-1.17483e-06 -2.85146e-07 -3.74444e-05
0.0012935 -1.73057e-06 -1.19804e-06
-1.73057e-06 8.94553e-05 2.88656e-07
-1.19804e-06 2.88656e-07 2.80366e-05
0.00119861 1.88374e-05 -7.78024e-07
1.88374e-05 3.08686e-05 -5.11021e-08
-7.78024e-07 -5.11021e-08 -3.53106e-05
0.00134674 -2.8334e-06 -1.58746e-07
-2.8334e-06 9.69711e-05 1.72938e-07
-1.58746e-07 1.72938e-07 3.32155e-05
0.00100076 1.07201e-05 -2.18909e-06
1.07201e-05 1.12931e-05 1.18496e-06
-2.18909e-06 1.18496e-06 -2.21341e-05
0.00107467 -4.99952e-06 -9.85117e-07
-4.99952e-06 4.08512e-05 5.34187e-07
-9.85117e-07 5.34187e-07 -9.14192e-06
0.00114252 -1.90278e-05 -2.52382e-07
-1.90278e-05 6.39183e-05 2.09338e-07
-2.52382e-07 2.09338e-07 5.62397e-06
0.00132125 -1.60316e-05 1.4367e-07
-1.60316e-05 0.000107195 5.87701e-08
1.4367e-07 5.87701e-08 4.85224e-05
0.00119562 -1.10998e-05 7.43568e-07
-1.10998e-05 2.38655e-05 5.93618e-07
7.43568e-07 5.93618e-07 -3.61315e-05
0.00121622 -1.69269e-05 6.08376e-07
-1.69269e-05 5.24234e-05 -5.01669e-08
6.08376e-07 -5.01669e-08 -5.60639e-06
0.0011039 -2.14675e-05 -3.70024e-07
-2.14675e-05 2.28557e-05 -6.40532e-08
-3.70024e-07 -6.40532e-08 -4.06077e-05
0.00121006 -2.005e-05 1.00882e-06
-2.005e-05 5.29372e-05 -1.25326e-06
1.00882e-06 -1.25326e-06 -2.74922e-06
0.00106861 -4.42575e-06 -1.21919e-06
-4.42575e-06 3.26874e-05 5.2242e-07
-1.21919e-06 5.2242e-07 -1.56947e-05
0.00104416 -1.57029e-05 -1.04407e-06
-1.57029e-05 1.73748e-05 2.59919e-07
-1.04407e-06 2.59919e-07 -4.00896e-05
0.00100793 6.79383e-06 -1.65736e-06
6.79383e-06 3.4575e-06 1.65946e-06
-1.65736e-06 1.65946e-06 -2.67052e-05
0.00093258 -3.17852e-06 -8.15059e-07
-3.17852e-06 -3.39612e-05 5.66517e-07
-8.15059e-07 5.66517e-07 -8.38537e-05
0.00124219 1.98713e-05 -2.06767e-08
1.98713e-05 6.95409e-05 -2.76951e-07
-2.06767e-08 -2.76951e-07 3.97858e-06
0.00138962 7.98554e-06 -1.35468e-07
7.98554e-06 0.00011136 9.20927e-08
-1.35468e-07 9.20927e-08 4.61031e-05
0.00122464 1.91058e-05 -3.63161e-07
1.91058e-05 3.54871e-05 -1.06847e-07
-3.63161e-07 -1.06847e-07 -3.27913e-05
0.00128622 -1.09678e-06 -8.44135e-08
-1.09678e-06 5.69237e-05 -1.05028e-07
-8.44135e-08 -1.05028e-07 -6.30606e-06
0.00106358 -4.00615e-06 5.35827e-08
-4.00615e-06 3.37827e-05 -2.67362e-08
5.35827e-08 -2.67362e-08 -1.50718e-05
0.00104287 -1.73168e-05 1.95486e-07
-1.73168e-05 1.88415e-05 -1.49813e-07
1.95486e-07 -1.49813e-07 -3.78657e-05
0.00116126 -2.20169e-05 -2.04312e-08
-2.20169e-05 6.80287e-05 -5.4365e-08
-2.04312e-08 -5.4365e-08 3.53292e-06
0.00126302 -1.51919e-05 -1.23733e-07
-1.51919e-05 6.89209e-05 -3.59726e-08
-1.23733e-07 -3.59726e-08 1.05109e-05
0.0012663 -9.93555e-06 2.14189e-07
-9.93555e-06 5.13853e-05 3.15478e-07
2.14189e-07 3.15478e-07 -5.64963e-06
0.00123142 -2.37319e-05 -2.1002e-08
-2.37319e-05 7.8736e-05 2.98558e-07
-2.1002e-08 2.98558e-07 1.42448e-05
0.00121056 -1.66275e-05 6.21924e-09
-1.66275e-05 4.45239e-05 2.04102e-07
6.21924e-09 2.04102e-07 -9.80068e-06
0.00124929 -2.07852e-05 2.88105e-07
-2.07852e-05 6.49532e-05 -9.41324e-07
2.88105e-07 -9.41324e-07 1.15653e-05
0.00111724 -1.65292e-05 5.38389e-08
-1.65292e-05 5.14454e-05 -1.65324e-08
5.38389e-08 -1.65324e-08 -4.36181e-06
0.0011641 -2.00095e-05 -1.7229e-07
-2.00095e-05 7.12231e-05 1.12684e-07
-1.7229e-07 1.12684e-07 1.0487e-05
0.00115532 -1.61054e-05 -5.63151e-08
-1.61054e-05 7.57216e-05 1.86916e-07
-5.63151e-08 1.86916e-07 1.66641e-05
0.000883026 6.17761e-06 -1.16421e-07
6.17761e-06 -5.88544e-05 -2.27863e-08
-1.16421e-07 -2.27863e-08 -8.9146e-05
0.000916159 -3.55711e-06 2.55986e-07
-3.55711e-06 -4.17638e-05 -3.97505e-07
2.55986e-07 -3.97505e-07 -9.13957e-05
0.00124468 2.07272e-05 2.2392e-07
2.07272e-05 6.42291e-05 3.25533e-07
2.2392e-07 3.25533e-07 -3.27119e-06
0.0013191 1.60399e-05 3.94816e-08
1.60399e-05 6.50302e-05 -1.71389e-08
3.94816e-08 -1.71389e-08 -2.72601e-06
0.00129665 -1.34451e-06 -5.95318e-07
-1.34451e-06 5.33128e-05 -1.15117e-06
-5.95318e-07 -1.15117e-06 -6.44251e-06
0.0012263 -1.15081e-05 -1.06949e-06
-1.15081e-05 3.71831e-05 -2.76759e-07
-1.06949e-06 -2.76759e-07 -1.67968e-05
0.00110848 -1.74078e-05 4.89855e-07
-1.74078e-05 4.8288e-05 1.72167e-09
4.89855e-07 1.72167e-09 -7.11628e-06
0.00129655 -1.79756e-05 -1.06102e-06
-1.79756e-05 7.19334e-05 4.30154e-07
-1.06102e-06 4.30154e-07 2.35298e-05
0.000960573 -1.94254e-05 3.33668e-07
-1.94254e-05 -1.88725e-05 -6.87611e-07
3.33668e-07 -6.87611e-07 -8.10855e-05
0.00119168 -2.4165e-05 6.51805e-07
-2.4165e-05 7.90476e-05 -1.51601e-07
6.51805e-07 -1.51601e-07 9.17082e-06
0.00123498 -2.43437e-05 2.87153e-07
-2.43437e-05 7.03374e-05 1.49249e-06
2.87153e-07 1.49249e-06 6.00555e-06
0.000765821 5.69042e-06 1.22065e-06
5.69042e-06 -0.000117505 -2.32565e-06
1.22065e-06 -2.32565e-06 -0.000147795
0.00115444 -2.80509e-06 8.49405e-07
-2.80509e-06 7.50721e-05 -8.56053e-07
8.49405e-07 -8.56053e-07 2.77397e-05
0.00113336 -1.54409e-05 5.77501e-07
-1.54409e-05 6.78009e-05 -3.08481e-07
5.77501e-07 -3.08481e-07 7.64107e-06
0.00113937 -1.97344e-05 3.79364e-07
-1.97344e-05 5.8019e-05 1.40689e-07
3.79364e-07 1.40689e-07 -1.4214e-06
0.00119481 -2.06877e-05 3.74391e-07
-2.06877e-05 8.995e-05 2.72689e-07
3.74391e-07 2.72689e-07 2.49049e-05
0.0011362 -2.0612e-05 1.45425e-08
-2.0612e-05 5.41184e-05 3.09669e-07
1.45425e-08 3.09669e-07 -9.22013e-06
0.000927759 -9.70495e-06 -2.26147e-06
-9.70495e-06 -3.85526e-05 -2.96234e-06
-2.26147e-06 -2.96234e-06 -4.00557e-05
0.00100533 -7.27251e-06 -1.67426e-06
-7.27251e-06 3.16828e-06 -1.74279e-06
-1.67426e-06 -1.74279e-06 -2.61997e-05
0.00123924 9.99541e-06 -1.54528e-08
9.99541e-06 5.5255e-05 2.23735e-07
-1.54528e-08 2.23735e-07 -4.77613e-06
0.00105702 -3.34125e-06 -1.13582e-06
-3.34125e-06 2.93969e-05 -1.00393e-06
-1.13582e-06 -1.00393e-06 -1.82769e-05
0.001052 -7.78215e-07 -1.31073e-06
-7.78215e-07 2.97547e-05 -7.47351e-07
-1.31073e-06 -7.47351e-07 -1.83886e-05
0.00101883 6.81344e-06 -6.03056e-07
6.81344e-06 1.05616e-05 -2.64738e-07
-6.03056e-07 -2.64738e-07 -4.77269e-05
0.00116413 2.05424e-05 -3.28751e-07
2.05424e-05 4.82888e-05 -4.4009e-07
-3.28751e-07 -4.4009e-07 -1.17031e-05
0.00120132 1.8873e-05 4.64514e-07
1.8873e-05 4.05068e-05 3.49369e-07
4.64514e-07 3.49369e-07 -2.19433e-05
0.00108645 1.63134e-05 -4.02283e-07
1.63134e-05 4.99383e-05 -3.0786e-07
-4.02283e-07 -3.0786e-07 -9.51045e-06
0.00113668 2.23155e-05 -1.00654e-06
2.23155e-05 6.23627e-05 -9.87755e-08
-1.00654e-06 -9.87755e-08 -3.55939e-06
0.00125828 2.30921e-05 -8.7075e-07
2.30921e-05 0.000100911 -4.98007e-07
-8.7075e-07 -4.98007e-07 4.07249e-05
0.00101215 -6.45414e-06 6.95075e-08
-6.45414e-06 4.5913e-06 -1.46869e-08
6.95075e-08 -1.46869e-08 -2.41591e-05
0.00106404 -2.10894e-06 2.4813e-09
-2.10894e-06 3.11132e-05 -1.48582e-08
2.4813e-09 -1.48582e-08 -1.61617e-05
0.0010815 1.27333e-05 -6.38349e-08
1.27333e-05 4.17946e-05 -1.05064e-07
-6.38349e-08 -1.05064e-07 -1.60072e-05
0.00110057 5.81862e-06 -5.55609e-08
5.81862e-06 5.09678e-05 -1.48895e-08
-5.55609e-08 -1.48895e-08 -7.65085e-06
0.00112367 1.62971e-05 -2.05265e-07
1.62971e-05 6.18212e-05 -1.29805e-07
-2.05265e-07 -1.29805e-07 -1.56275e-06
0.00123897 7.58546e-06 -2.98012e-07
7.58546e-06 4.49235e-05 -3.58908e-07
-2.98012e-07 -3.58908e-07 -1.38255e-05
0.00118462 2.32683e-05 3.82381e-07
2.32683e-05 5.04585e-05 9.4809e-08
3.82381e-07 9.4809e-08 -1.19104e-05
0.00113999 2.07882e-05 6.3509e-08
2.07882e-05 1.02167e-05 2.73984e-07
6.3509e-08 2.73984e-07 -4.71796e-05
0.00103528 2.08196e-05 2.55826e-07
2.08196e-05 2.62042e-05 5.19911e-07
2.55826e-07 5.19911e-07 -4.16745e-05
0.00120852 2.50506e-05 2.81308e-08
2.50506e-05 8.24951e-05 -1.79614e-07
2.81308e-08 -1.79614e-07 1.25876e-05
0.00106767 -6.42855e-07 1.03144e-06
-6.42855e-07 3.18023e-05 1.09851e-06
1.03144e-06 1.09851e-06 -1.50668e-05
0.000981021 7.15202e-06 1.01629e-06
7.15202e-06 -8.5108e-06 7.75094e-07
1.01629e-06 7.75094e-07 -6.84797e-05
0.00112002 2.08265e-05 1.66718e-07
2.08265e-05 6.17931e-05 1.0984e-07
1.66718e-07 1.0984e-07 -3.16187e-06
0.00102017 1.54446e-05 4.66807e-07
1.54446e-05 1.10731e-05 -3.34283e-08
4.66807e-07 -3.34283e-08 -5.41613e-05
0.00117566 1.95815e-05 6.63213e-09
1.95815e-05 8.18475e-05 -3.22451e-07
6.63213e-09 -3.22451e-07 1.5446e-05
0.00127652 9.69142e-06 -1.03789e-06
9.69142e-06 4.36105e-05 -5.82461e-07
-1.03789e-06 -5.82461e-07 -4.07632e-06
0.00129676 2.70794e-05 3.40885e-07
2.70794e-05 0.000105642 -6.05104e-07
3.40885e-07 -6.05104e-07 3.95274e-05
0.000873776 2.20044e-05 5.21863e-08
2.20044e-05 -0.00012483 -2.48011e-07
5.21863e-08 -2.48011e-07 -0.000181285
0.00132898 2.46534e-05 1.06114e-06
2.46534e-05 0.00015972 1.32786e-06
1.06114e-06 1.32786e-06 8.72876e-05
0.000927835 2.46859e-05 2.71075e-07
2.46859e-05 -5.19247e-05 7.89334e-08
2.71075e-07 7.89334e-08 -0.000128244
0.00101302 -5.73838e-06 -1.17673e-06
-5.73838e-06 3.12187e-06 -1.81037e-06
-1.17673e-06 -1.81037e-06 -2.48542e-05
0.000988528 -5.21846e-07 2.40887e-07
-5.21846e-07 -6.94957e-06 4.33684e-07
2.40887e-07 4.33684e-07 -5.37368e-05
0.000992426 6.60741e-06 6.08671e-07
6.60741e-06 -7.74348e-07 1.00955e-06
6.08671e-07 1.00955e-06 -6.00457e-05
0.000910302 -2.12356e-06 -5.56266e-07
-2.12356e-06 -4.58192e-05 -1.11133e-06
-5.56266e-07 -1.11133e-06 -9.20145e-05
0.00107002 1.52454e-06 3.60423e-08
1.52454e-06 3.12564e-05 1.3126e-08
3.60423e-08 1.3126e-08 -1.30298e-05
0.00112191 5.67823e-06 -1.29976e-07
5.67823e-06 6.23415e-05 -4.20039e-07
-1.29976e-07 -4.20039e-07 5.4882e-06
0.0012117 1.24774e-05 1.70675e-07
1.24774e-05 0.000110506 1.63644e-07
1.70675e-07 1.63644e-07 4.57224e-05
0.000984864 1.31681e-06 3.1106e-07
1.31681e-06 -5.07957e-06 1.01394e-06
3.1106e-07 1.01394e-06 -6.2112e-05
0.00106633 -1.18192e-06 3.82153e-07
-1.18192e-06 2.92852e-05 1.07737e-06
3.82153e-07 1.07737e-06 -1.46262e-05
0.00103321 -2.49953e-06 4.61431e-07
-2.49953e-06 4.65071e-06 1.82766e-06
4.61431e-07 1.82766e-06 -2.12905e-05
0.00103211 -3.4363e-06 4.9289e-08
-3.4363e-06 5.91444e-06 1.36767e-09
4.9289e-08 1.36767e-09 -2.01921e-05
0.00152948 -5.52913e-06 1.00255e-06
-5.52913e-06 0.00024162 1.90618e-06
1.00255e-06 1.90618e-06 0.000245594
0.00102751 -4.29909e-06 -7.58564e-07
-4.29909e-06 5.81369e-06 -1.79927e-06
-7.58564e-07 -1.79927e-06 -2.07112e-05
0.00154587 -6.80563e-06 -8.78659e-07
-6.80563e-06 0.000252867 -1.1953e-06
-8.78659e-07 -1.1953e-06 0.000256188
0.00121511 -7.36895e-06 4.78931e-06
-7.36895e-06 8.82299e-05 6.25383e-06
4.78931e-06 6.25383e-06 0.000105629
0.00156306 -7.99489e-06 -3.40244e-06
-7.99489e-06 0.000264829 -4.226e-06
-3.40244e-06 -4.226e-06 0.000267411
0.00115963 -9.0794e-06 1.89335e-06
-9.0794e-06 6.52109e-05 2.36349e-06
1.89335e-06 2.36349e-06 8.2138e-05
0.00231076 -1.29515e-05 -2.49077e-06
-1.29515e-05 0.00063178 -1.54495e-06
-2.49077e-06 -1.54495e-06 0.000653689
0.000936771 8.77125e-06 1.78876e-06
8.77125e-06 -3.93896e-05 -2.92358e-06
1.78876e-06 -2.92358e-06 -4.01266e-05
0.000941598 9.71157e-06 -1.26151e-07
9.71157e-06 -3.34085e-05 -1.45848e-08
-1.26151e-07 -1.45848e-08 -3.53489e-05
0.00239739 1.39727e-05 6.43373e-06
1.39727e-05 0.000676116 -3.68479e-06
6.43373e-06 -3.68479e-06 0.000697155
0.000944599 1.06165e-05 -2.74348e-06
1.06165e-05 -2.85599e-05 2.78979e-06
-2.74348e-06 2.78979e-06 -3.13594e-05
0.0024063 1.57252e-05 -1.54583e-07
1.57252e-05 0.000685163 -4.29385e-08
-1.54583e-07 -4.29385e-08 0.000705343
0.0023859 1.74988e-05 -7.78683e-06
1.74988e-05 0.00067974 3.48944e-06
-7.78683e-06 3.48944e-06 0.000699255
0.00122927 3.15061e-06 -1.31157e-07
3.15061e-06 5.24661e-05 2.36654e-07
-1.31157e-07 2.36654e-07 -7.1139e-06
0.00124271 -1.26522e-05 -1.31412e-07
-1.26522e-05 6.53325e-05 -1.5004e-07
-1.31412e-07 -1.5004e-07 2.31393e-06
0.00127711 -7.9428e-06 8.42401e-07
-7.9428e-06 6.678e-05 -2.48072e-07
8.42401e-07 -2.48072e-07 7.57652e-06
0.00130259 -1.95717e-05 -6.05154e-07
-1.95717e-05 9.10813e-05 6.24983e-07
-6.05154e-07 6.24983e-07 2.6079e-05
0.00116842 -1.47789e-05 -1.45211e-07
-1.47789e-05 5.25004e-05 3.52485e-07
-1.45211e-07 3.52485e-07 -1.02389e-05
0.00114396 1.13315e-05 -4.98858e-07
1.13315e-05 4.82633e-05 -2.49087e-08
-4.98858e-07 -2.49087e-08 -1.38849e-05
0.00120252 7.08111e-06 9.35044e-08
7.08111e-06 6.73348e-05 2.88409e-07
9.35044e-08 2.88409e-07 3.59964e-06
0.0011602 -8.71601e-06 1.49532e-07
-8.71601e-06 4.85795e-05 9.9505e-08
1.49532e-07 9.9505e-08 -1.48901e-05
0.00120133 -1.38204e-05 1.1233e-07
-1.38204e-05 3.29214e-05 -5.09639e-08
1.1233e-07 -5.09639e-08 -3.03022e-05
0.00131514 -2.05326e-05 -4.81565e-07
-2.05326e-05 9.83319e-05 1.83148e-07
-4.81565e-07 1.83148e-07 3.09412e-05
0.00122138 -1.51221e-06 -2.32529e-07
-1.51221e-06 3.58433e-05 2.43656e-07
-2.32529e-07 2.43656e-07 -2.0884e-05
0.00133558 -1.23536e-05 7.62439e-07
-1.23536e-05 8.77774e-05 -4.71756e-07
7.62439e-07 -4.71756e-07 3.05748e-05
0.0011592 9.01526e-06 -9.75636e-08
9.01526e-06 5.39962e-05 4.70368e-07
-9.75636e-08 4.70368e-07 -8.82949e-06
0.00113839 -1.40047e-05 3.5412e-07
-1.40047e-05 4.07542e-05 -9.02935e-07
3.5412e-07 -9.02935e-07 -2.44677e-05
0.00124495 -1.8246e-05 -5.16551e-07
-1.8246e-05 5.6001e-05 5.91938e-07
-5.16551e-07 5.91938e-07 -9.28159e-06
0.00138213 -4.09199e-06 -1.0979e-06
-4.09199e-06 9.96639e-05 2.24812e-07
-1.0979e-06 2.24812e-07 5.03669e-05
0.00123129 1.98029e-05 -4.53848e-07
1.98029e-05 6.50647e-05 -7.50116e-07
-4.53848e-07 -7.50116e-07 -4.21373e-07
0.00136917 8.08713e-06 -6.96442e-07
8.08713e-06 0.000102204 2.49591e-07
-6.96442e-07 2.49591e-07 3.69924e-05
0.00128418 1.96788e-05 -8.54389e-07
1.96788e-05 6.24118e-05 4.43978e-08
-8.54389e-07 4.43978e-08 -6.18735e-06
0.00132181 -1.33447e-06 4.2366e-07
-1.33447e-06 7.45539e-05 4.31189e-07
4.2366e-07 4.31189e-07 1.13389e-05
0.00107035 -4.40595e-06 -1.10739e-06
-4.40595e-06 3.61108e-05 4.65843e-07
-1.10739e-06 4.65843e-07 -1.26149e-05
0.00110127 -1.70891e-05 -1.48729e-07
-1.70891e-05 4.7046e-05 8.99699e-08
-1.48729e-07 8.99699e-08 -9.22606e-06
0.00116708 -2.20587e-05 -3.27348e-07
-2.20587e-05 7.16818e-05 5.67479e-07
-3.27348e-07 5.67479e-07 7.01032e-06
0.00130802 -1.52246e-05 5.32029e-07
-1.52246e-05 9.05506e-05 1.95224e-08
5.32029e-07 1.95224e-08 3.18429e-05
0.00122869 -1.04166e-05 9.71403e-07
-1.04166e-05 3.51904e-05 8.99515e-07
9.71403e-07 8.99515e-07 -2.11428e-05
0.00122735 -1.63827e-05 1.23515e-06
-1.63827e-05 5.25077e-05 -4.40724e-09
1.23515e-06 -4.40724e-09 -1.80686e-06
0.00124014 -2.37654e-05 -2.72009e-07
-2.37654e-05 8.36408e-05 -5.92138e-07
-2.72009e-07 -5.92138e-07 1.87303e-05
0.00116708 -2.0357e-05 2.65935e-07
-2.0357e-05 2.49114e-05 -2.77545e-06
2.65935e-07 -2.77545e-06 -2.70531e-05
0.00112316 -1.65148e-05 -5.88807e-07
-1.65148e-05 5.41691e-05 -1.64952e-08
-5.88807e-07 -1.64952e-08 -1.61681e-06
0.00111183 -1.96233e-05 -7.31647e-07
-1.96233e-05 4.50164e-05 -1.02507e-07
-7.31647e-07 -1.02507e-07 -1.59485e-05
0.00115135 -1.62709e-05 -8.14585e-07
-1.62709e-05 7.37391e-05 4.24549e-07
-8.14585e-07 4.24549e-07 1.45757e-05
0.000752419 5.89788e-06 -1.42587e-06
5.89788e-06 -0.000122511 1.66171e-06
-1.42587e-06 1.66171e-06 -0.000153552
0.000926929 -2.96953e-06 -6.4503e-07
-2.96953e-06 -3.68824e-05 6.31173e-07
-6.4503e-07 6.31173e-07 -8.63984e-05
0.00124713 2.06707e-05 1.41335e-07
2.06707e-05 6.1818e-05 -5.2409e-07
1.41335e-07 -5.2409e-07 -6.21049e-06
0.00134965 1.57401e-05 -1.03998e-07
1.57401e-05 8.13026e-05 2.02039e-07
-1.03998e-07 2.02039e-07 1.39395e-05
0.0013245 -1.00505e-06 -1.30042e-07
-1.00505e-06 6.84505e-05 1.27443e-07
-1.30042e-07 1.27443e-07 8.71814e-06
0.00112097 -1.69212e-05 3.82316e-08
-1.69212e-05 5.39878e-05 2.28614e-08
3.82316e-08 2.28614e-08 -1.40675e-06
0.00109437 -2.04399e-05 2.20634e-07
-2.04399e-05 4.41757e-05 -2.11628e-07
2.20634e-07 -2.11628e-07 -1.73996e-05
0.00117856 -2.40541e-05 -5.34417e-08
-2.40541e-05 7.45945e-05 2.0826e-09
-5.34417e-08 2.0826e-09 4.34927e-06
0.00125555 -1.15292e-05 3.36118e-08
-1.15292e-05 5.08203e-05 -1.47073e-07
3.36118e-08 -1.47073e-07 -3.66825e-06
0.00122922 -2.36933e-05 -7.11876e-08
-2.36933e-05 6.81379e-05 -4.61124e-07
-7.11876e-08 -4.61124e-07 5.19887e-06
0.00124126 -1.87521e-05 -1.76038e-07
-1.87521e-05 4.691e-05 -2.41219e-07
-1.76038e-07 -2.41219e-07 -1.8298e-06
0.000754759 5.86354e-06 1.60626e-07
5.86354e-06 -0.000122676 -5.9452e-07
1.60626e-07 -5.9452e-07 -0.000152796
0.00114602 -1.98138e-05 5.03964e-09
-1.98138e-05 6.14225e-05 1.63727e-08
5.03964e-09 1.63727e-08 1.90197e-06
0.00113384 -2.05711e-05 -5.25897e-07
-2.05711e-05 5.21621e-05 1.58793e-07
-5.25897e-07 1.58793e-07 -1.08794e-05
0.00120256 -2.06572e-05 -2.86862e-07
-2.06572e-05 9.40476e-05 1.72098e-07
-2.86862e-07 1.72098e-07 2.93996e-05
0.00120078 -1.59803e-05 -1.07177e-07
-1.59803e-05 0.000100503 1.36311e-07
-1.07177e-07 1.36311e-07 4.05372e-05
0.0010333 -2.84311e-06 2.76739e-08
-2.84311e-06 1.54064e-05 1.84667e-07
2.76739e-08 1.84667e-07 -3.26517e-05
0.00136712 2.22036e-05 -1.34331e-07
2.22036e-05 0.000110055 1.49108e-06
-1.34331e-07 1.49108e-06 4.17072e-05
0.00136305 1.58202e-05 -1.05677e-07
1.58202e-05 8.03754e-05 -3.92072e-07
-1.05677e-07 -3.92072e-07 1.35345e-05
0.00126061 -3.07598e-06 -9.1906e-07
-3.07598e-06 3.04857e-05 -1.35268e-06
-9.1906e-07 -1.35268e-06 -2.39067e-05
0.00133056 -1.39663e-05 -1.20431e-06
-1.39663e-05 6.73054e-05 -3.89114e-07
-1.20431e-06 -3.89114e-07 2.1003e-05
0.00113242 -2.00839e-05 3.24745e-07
-2.00839e-05 5.74775e-05 4.42985e-09
3.24745e-07 4.42985e-09 -2.19239e-06
0.00126677 -2.31784e-05 4.15574e-09
-2.31784e-05 5.99936e-05 1.56594e-06
4.15574e-09 1.56594e-06 5.26344e-06
0.00101654 -2.16948e-05 1.37698e-07
-2.16948e-05 8.71799e-06 -7.48589e-07
1.37698e-07 -7.48589e-07 -5.99745e-05
0.00127711 -2.60529e-05 3.67366e-07
-2.60529e-05 0.000117432 6.15406e-07
3.67366e-07 6.15406e-07 4.36776e-05
0.000753408 4.87476e-06 9.6855e-07
4.87476e-06 -0.000126069 -2.25998e-06
9.6855e-07 -2.25998e-06 -0.000154544
0.00116354 -1.42545e-06 7.6596e-07
-1.42545e-06 7.93238e-05 -9.31656e-07
7.6596e-07 -9.31656e-07 3.22695e-05
0.0012614 -1.47522e-05 3.88152e-08
-1.47522e-05 0.000131258 2.14864e-07
3.88152e-08 2.14864e-07 7.2136e-05
0.00112211 -1.96573e-05 5.71537e-07
-1.96573e-05 6.11619e-05 -4.31965e-07
5.71537e-07 -4.31965e-07 -7.2392e-06
0.00110454 -2.0697e-05 1.28856e-07
-2.0697e-05 3.88179e-05 1.43218e-07
1.28856e-07 1.43218e-07 -2.44175e-05
0.0011524 -2.15007e-05 4.77419e-07
-2.15007e-05 6.28031e-05 3.6415e-07
4.77419e-07 3.6415e-07 -4.61669e-06
0.00100971 -6.3791e-06 -1.44051e-06
-6.3791e-06 3.29871e-06 -1.80103e-06
-1.44051e-06 -1.80103e-06 -2.54247e-05
0.00106458 -1.91977e-06 -1.12017e-06
-1.91977e-06 3.13556e-05 -1.07535e-06
-1.12017e-06 -1.07535e-06 -1.59505e-05
0.00125677 8.59694e-06 3.37592e-07
8.59694e-06 5.46831e-05 3.33913e-07
3.37592e-07 3.33913e-07 -4.3545e-06
0.00110363 6.18381e-06 -8.36492e-07
6.18381e-06 5.27676e-05 -4.34719e-07
-8.36492e-07 -4.34719e-07 -5.99618e-06
0.0011012 1.33366e-05 -6.14276e-07
1.33366e-05 5.20719e-05 -3.03517e-07
-6.14276e-07 -3.03517e-07 -5.32885e-06
0.00106887 1.62879e-05 -6.0184e-07
1.62879e-05 3.53128e-05 -1.65847e-07
-6.0184e-07 -1.65847e-07 -2.85359e-05
0.00117919 2.31687e-05 -1.413e-07
2.31687e-05 4.69976e-05 -4.13074e-07
-1.413e-07 -4.13074e-07 -1.55068e-05
0.00118839 2.04507e-05 5.71414e-07
2.04507e-05 3.20017e-05 6.33012e-07
5.71414e-07 6.33012e-07 -2.48579e-05
0.000963111 2.02932e-05 -2.9644e-07
2.02932e-05 -7.86115e-06 -1.8497e-07
-2.9644e-07 -1.8497e-07 -7.60574e-05
0.0012226 2.52217e-05 -6.41845e-07
2.52217e-05 8.91889e-05 -9.70159e-08
-6.41845e-07 -9.70159e-08 1.84652e-05
0.00106693 -3.88793e-07 6.07019e-08
-3.88793e-07 3.14562e-05 -2.36425e-08
6.07019e-08 -2.36425e-08 -1.54122e-05
0.00105268 8.16871e-06 2.89331e-07
8.16871e-06 2.66093e-05 2.67164e-07
2.89331e-07 2.67164e-07 -3.30789e-05
0.00116313 2.11197e-05 -6.37088e-08
2.11197e-05 8.33771e-05 -3.43345e-07
-6.37088e-08 -3.43345e-07 1.90412e-05
0.00107745 1.52151e-05 -2.85527e-07
1.52151e-05 3.95795e-05 2.13145e-08
-2.85527e-07 2.13145e-08 -2.52551e-05
0.00113568 1.93501e-05 -4.92417e-07
1.93501e-05 6.44046e-05 -3.55956e-07
-4.92417e-07 -3.55956e-07 -1.85126e-06
0.00136802 9.27374e-06 -3.45611e-07
9.27374e-06 8.73067e-05 -3.23931e-07
-3.45611e-07 -3.23931e-07 3.996e-05
0.0013141 2.71301e-05 3.29674e-07
2.71301e-05 0.000111722 -4.60546e-08
3.29674e-07 -4.60546e-08 4.60613e-05
0.00103808 2.26355e-05 -2.8768e-07
2.26355e-05 -4.15009e-05 7.03798e-07
-2.8768e-07 7.03798e-07 -9.6687e-05
0.00122676 2.39378e-05 4.91651e-07
2.39378e-05 0.000111685 5.15316e-07
4.91651e-07 5.15316e-07 3.8692e-05
0.00104395 2.55e-05 -7.33993e-07
2.55e-05 3.21184e-06 -8.25938e-08
-7.33993e-07 -8.25938e-08 -7.43457e-05
0.000997684 1.00248e-05 8.99492e-07
1.00248e-05 2.87106e-07 1.00004e-06
8.99492e-07 1.00004e-06 -5.98805e-05
0.00103065 1.90062e-05 6.39908e-07
1.90062e-05 1.78986e-05 3.37357e-08
6.39908e-07 3.37357e-08 -5.11854e-05
0.00115605 2.21364e-05 2.09456e-07
2.21364e-05 7.7328e-05 2.9031e-07
2.09456e-07 2.9031e-07 7.15041e-06
0.00100606 1.99166e-05 7.65607e-07
1.99166e-05 7.59707e-07 -7.80248e-08
7.65607e-07 -7.80248e-08 -6.88742e-05
0.00159903 1.13543e-06 -7.55189e-07
1.13543e-06 0.000175417 1.86013e-07
-7.55189e-07 1.86013e-07 0.000131483
0.00127228 1.98583e-05 6.20861e-07
1.98583e-05 2.73165e-05 -2.63489e-07
6.20861e-07 -2.63489e-07 -1.69135e-05
0.00121445 2.84611e-05 8.37905e-07
2.84611e-05 6.34773e-05 -1.15339e-06
8.37905e-07 -1.15339e-06 -9.27025e-06
0.000964778 2.42234e-05 5.46367e-07
2.42234e-05 -1.68613e-05 7.96694e-07
5.46367e-07 7.96694e-07 -9.9478e-05
0.00106873 -7.69294e-08 -5.13526e-07
-7.69294e-08 3.2281e-05 -7.16789e-07
-5.13526e-07 -7.16789e-07 -1.4025e-05
0.0010757 7.20315e-06 1.57977e-07
7.20315e-06 4.00372e-05 3.31779e-07
1.57977e-07 3.31779e-07 -1.87836e-05
0.00114959 1.54449e-05 3.14353e-07
1.54449e-05 8.08964e-05 3.2007e-07
3.14353e-07 3.2007e-07 1.41389e-05
0.00107153 1.95841e-06 -4.43147e-07
1.95841e-06 3.20615e-05 -1.09123e-06
-4.43147e-07 -1.09123e-06 -1.22353e-05
0.000989328 4.45724e-06 -4.16482e-07
4.45724e-06 -2.44354e-06 -1.12729e-06
-4.16482e-07 -1.12729e-06 -6.0205e-05
0.00106934 -9.61714e-07 8.28393e-08
-9.61714e-07 3.07934e-05 1.34143e-08
8.28393e-08 1.34143e-08 -1.31284e-05
0.00112694 1.07874e-05 -3.7301e-08
1.07874e-05 6.88074e-05 -3.39007e-07
-3.7301e-08 -3.39007e-07 3.32548e-06
0.00104195 3.41557e-06 1.03264e-07
3.41557e-06 2.28833e-05 3.21021e-07
1.03264e-07 3.21021e-07 -3.38154e-05
0.00118644 1.43872e-05 2.48348e-07
1.43872e-05 9.81532e-05 1.39164e-07
2.48348e-07 1.39164e-07 2.71149e-05
0.00102125 -1.93621e-06 1.67045e-07
-1.93621e-06 1.59504e-05 8.70749e-07
1.67045e-07 8.70749e-07 -4.94718e-05
0.000986028 1.07125e-05 4.23367e-07
1.07125e-05 -4.86517e-06 1.00785e-06
4.23367e-07 1.00785e-06 -6.16663e-05
0.00106545 -4.75799e-06 1.99637e-07
-4.75799e-06 2.89335e-05 1.06927e-06
1.99637e-07 1.06927e-06 -1.50175e-05
0.00103547 -1.44762e-06 2.41883e-07
-1.44762e-06 4.69335e-06 1.81222e-06
2.41883e-07 1.81222e-06 -2.13665e-05
0.00103607 -2.52688e-06 5.61599e-08
-2.52688e-06 6.12887e-06 3.51495e-09
5.61599e-08 3.51495e-09 -1.98391e-05
0.00152972 -3.92246e-06 6.90555e-07
-3.92246e-06 0.000239095 1.91679e-06
6.90555e-07 1.91679e-06 0.000243475
0.00103483 -3.45289e-06 -5.63514e-07
-3.45289e-06 7.32651e-06 -1.80535e-06
-5.63514e-07 -1.80535e-06 -1.88017e-05
0.0015462 -5.32454e-06 -6.92943e-07
-5.32454e-06 0.000249851 -1.19422e-06
-6.92943e-07 -1.19422e-06 0.000253738
0.00121769 -5.75774e-06 3.73747e-06
-5.75774e-06 8.5706e-05 6.27035e-06
3.73747e-06 6.27035e-06 0.00010374
0.00156164 -6.63437e-06 -2.71774e-06
-6.63437e-06 0.000260662 -4.26732e-06
-2.71774e-06 -4.26732e-06 0.000263909
0.00116394 -7.50996e-06 1.49933e-06
-7.50996e-06 6.31215e-05 2.38059e-06
1.49933e-06 2.38059e-06 8.07662e-05
0.00110854 -9.15916e-06 -1.41521e-06
-9.15916e-06 4.00967e-05 -1.47166e-06
-1.41521e-06 -1.47166e-06 5.72737e-05
0.000947525 7.49971e-06 1.54341e-06
7.49971e-06 -3.84366e-05 -2.92873e-06
1.54341e-06 -2.92873e-06 -3.79322e-05
0.000952849 8.76333e-06 -8.44004e-08
8.76333e-06 -3.17525e-05 8.03112e-09
-8.44004e-08 8.03112e-09 -3.25604e-05
0.0023561 1.21408e-05 5.67786e-06
1.21408e-05 0.000651461 -3.71165e-06
5.67786e-06 -3.71165e-06 0.000673534
0.000955626 9.71277e-06 -2.40423e-06
9.71277e-06 -2.67165e-05 2.85444e-06
-2.40423e-06 2.85444e-06 -2.87132e-05
0.00238196 1.39481e-05 -2.09848e-07
1.39481e-05 0.000669025 -3.99124e-08
-2.09848e-07 -3.99124e-08 0.000690043
0.00238008 1.57167e-05 -7.36555e-06
1.57167e-05 0.000672728 3.60194e-06
-7.36555e-06 3.60194e-06 0.000692966
0.00123523 -1.70264e-06 6.73134e-07
-1.70264e-06 4.34866e-05 6.44521e-07
6.73134e-07 6.44521e-07 -1.32656e-05
0.00121431 -1.42416e-05 5.68417e-09
-1.42416e-05 3.81562e-05 -1.68024e-07
5.68417e-09 -1.68024e-07 -2.51498e-05
0.00125413 -1.16019e-05 1.78467e-06
-1.16019e-05 4.85905e-05 -1.64903e-06
1.78467e-06 -1.64903e-06 -8.35269e-06
0.00124475 -2.0354e-05 -1.10593e-06
-2.0354e-05 6.50293e-05 6.43796e-07
-1.10593e-06 6.43796e-07 -3.42186e-06
0.00117901 -1.12453e-05 -3.21219e-07
-1.12453e-05 5.64542e-05 7.31678e-07
-3.21219e-07 7.31678e-07 -6.8845e-06
0.00116723 7.32589e-06 -4.06972e-08
7.32589e-06 5.1373e-05 -1.23996e-07
-4.06972e-08 -1.23996e-07 -1.23688e-05
0.00117796 1.07658e-05 2.2864e-07
1.07658e-05 5.90609e-05 -4.176e-08
2.2864e-07 -4.176e-08 -4.42457e-06
0.0011938 -1.6174e-05 -3.57501e-07
-1.6174e-05 6.45395e-05 4.91605e-07
-3.57501e-07 4.91605e-07 -7.58347e-07
0.00120616 -1.75993e-05 1.86813e-07
-1.75993e-05 3.91958e-05 3.30887e-08
1.86813e-07 3.30887e-08 -2.51171e-05
0.0012748 -4.73282e-06 3.28794e-07
-4.73282e-06 4.77315e-05 2.01552e-09
3.28794e-07 2.01552e-09 -1.94831e-06
0.00114091 4.99388e-06 1.24521e-07
4.99388e-06 4.09859e-05 -2.40319e-07
1.24521e-07 -2.40319e-07 -2.32534e-05
0.00112606 -2.05959e-05 9.07783e-08
-2.05959e-05 3.677e-05 -3.95274e-07
9.07783e-08 -3.95274e-07 -3.01519e-05
0.00128938 -1.17746e-05 -1.25462e-06
-1.17746e-05 6.00361e-05 1.05516e-06
-1.25462e-06 1.05516e-06 4.92658e-06
0.00125463 2.06584e-05 -3.4277e-07
2.06584e-05 6.16736e-05 -1.44882e-06
-3.4277e-07 -1.44882e-06 -6.87476e-06
0.00138301 1.55062e-05 -1.08991e-07
1.55062e-05 9.88995e-05 4.68151e-07
-1.08991e-07 4.68151e-07 3.19288e-05
0.00135278 -7.53125e-07 6.79041e-07
-7.53125e-07 8.37436e-05 9.49369e-07
6.79041e-07 9.49369e-07 2.40439e-05
0.00113208 -1.63195e-05 -4.54234e-07
-1.63195e-05 5.90326e-05 9.01442e-08
-4.54234e-07 9.01442e-08 3.65226e-06
0.00122868 -2.14582e-05 -2.59033e-08
-2.14582e-05 0.000107449 1.77497e-07
-2.59033e-08 1.77497e-07 4.65126e-05
0.00116481 -2.39419e-05 -4.09529e-07
-2.39419e-05 6.98892e-05 5.97192e-07
-4.09529e-07 5.97192e-07 -7.28924e-07
0.00128721 -1.15287e-05 9.40612e-07
-1.15287e-05 6.55892e-05 2.57659e-07
9.40612e-07 2.57659e-07 1.05886e-05
0.00117828 -1.94826e-05 7.58869e-07
-1.94826e-05 1.82288e-05 -6.69355e-07
7.58869e-07 -6.69355e-07 -3.08322e-05
0.00123159 -2.31385e-05 -5.33907e-07
-2.31385e-05 6.9877e-05 -2.14955e-06
-5.33907e-07 -2.14955e-06 8.30935e-06
0.00115307 -1.98959e-05 -3.77395e-07
-1.98959e-05 6.50155e-05 -9.78778e-08
-3.77395e-07 -9.78778e-08 5.41469e-06
0.00113019 -2.05131e-05 -1.07765e-06
-2.05131e-05 4.96234e-05 8.60123e-08
-1.07765e-06 8.60123e-08 -1.31227e-05
0.00120979 -2.06217e-05 -8.99059e-07
-2.06217e-05 9.78965e-05 2.7581e-08
-8.99059e-07 2.7581e-08 3.36472e-05
0.000745184 6.04096e-06 -8.41242e-07
6.04096e-06 -0.000127156 1.11139e-06
-8.41242e-07 1.11139e-06 -0.000157105
0.00126945 -1.67309e-05 -6.56013e-07
-1.67309e-05 0.000133832 6.80259e-07
-6.56013e-07 6.80259e-07 7.40518e-05
0.000913465 -4.03891e-06 -8.12069e-07
-4.03891e-06 -4.36231e-05 1.15393e-06
-8.12069e-07 1.15393e-06 -9.2429e-05
0.00130663 2.17025e-05 -2.06825e-08
2.17025e-05 8.58722e-05 5.37385e-07
-2.06825e-08 5.37385e-07 1.83913e-05
0.00134674 1.50501e-05 1.14922e-07
1.50501e-05 7.00747e-05 2.31684e-07
1.14922e-07 2.31684e-07 3.40213e-06
0.00127665 -2.71841e-06 -1.00979e-07
-2.71841e-06 3.88674e-05 -1.79806e-07
-1.00979e-07 -1.79806e-07 -1.64446e-05
0.00114634 -2.02296e-05 4.09829e-08
-2.02296e-05 6.39502e-05 8.81439e-08
4.09829e-08 8.81439e-08 4.22452e-06
0.00106068 -2.19739e-05 -2.81892e-08
-2.19739e-05 2.99833e-05 4.0876e-08
-2.81892e-08 4.0876e-08 -3.80856e-05
0.00126335 -2.56522e-05 -3.94556e-07
-2.56522e-05 0.000111336 5.30407e-07
-3.94556e-07 5.30407e-07 3.81421e-05
0.00134627 -1.45124e-05 1.88503e-07
-1.45124e-05 7.67361e-05 1.61031e-07
1.88503e-07 1.61031e-07 3.08799e-05
0.00122279 -2.29393e-05 -1.4463e-07
-2.29393e-05 3.90503e-05 -5.61865e-07
-1.4463e-07 -5.61865e-07 -1.57919e-05
0.000888123 5.0991e-06 1.81479e-07
5.0991e-06 -6.06526e-05 -5.7173e-07
1.81479e-07 -5.7173e-07 -8.82192e-05
0.00115462 -3.01401e-07 -4.26323e-08
-3.01401e-07 7.55533e-05 1.12147e-07
-4.26323e-08 1.12147e-07 2.84227e-05
0.00110356 -2.06972e-05 -2.25358e-07
-2.06972e-05 3.84952e-05 1.10221e-07
-2.25358e-07 1.10221e-07 -2.48016e-05
0.00116491 -2.16357e-05 -5.77053e-08
-2.16357e-05 6.8921e-05 4.05557e-08
-5.77053e-08 4.05557e-08 1.5631e-06
0.00112696 -1.95818e-05 1.61083e-07
-1.95818e-05 6.39213e-05 -1.77753e-07
1.61083e-07 -1.77753e-07 -4.09048e-06
0.00120996 -1.59392e-05 -4.78879e-07
-1.59392e-05 0.000105521 6.67169e-07
-4.78879e-07 6.67169e-07 4.59796e-05
0.00128932 2.23172e-05 5.60908e-07
2.23172e-05 7.76948e-05 1.39405e-06
5.60908e-07 1.39405e-06 1.23668e-05
0.00139093 1.21081e-05 -3.37639e-07
1.21081e-05 8.44921e-05 -1.21844e-06
-3.37639e-07 -1.21844e-06 2.07587e-05
0.00130692 -7.8812e-06 -1.9851e-06
-7.8812e-06 3.77792e-05 -1.12991e-06
-1.9851e-06 -1.12991e-06 -4.81771e-06
0.00144913 -2.1032e-05 -1.09138e-06
-2.1032e-05 0.000116552 4.4513e-07
-1.09138e-06 4.4513e-07 7.41382e-05
0.00106456 -2.10518e-05 1.53979e-08
-2.10518e-05 2.657e-05 1.62354e-08
1.53979e-08 1.62354e-08 -3.82676e-05
0.00128442 -2.62068e-05 4.21429e-07
-2.62068e-05 0.000106355 2.3065e-06
4.21429e-07 2.3065e-06 3.52332e-05
0.00129048 -2.56197e-05 1.67254e-07
-2.56197e-05 0.000138836 -8.26235e-07
1.67254e-07 -8.26235e-07 6.512e-05
0.00102478 4.23505e-06 7.23949e-07
4.23505e-06 3.42186e-06 -1.6952e-06
7.23949e-07 -1.6952e-06 -2.20114e-05
0.00107877 -2.83107e-06 2.05078e-07
-2.83107e-06 3.46324e-05 -1.10939e-06
2.05078e-07 -1.10939e-06 -7.72386e-06
0.000865215 4.18667e-06 3.26754e-07
4.18667e-06 -6.5789e-05 -1.50399e-06
3.26754e-07 -1.50399e-06 -0.000112353
0.00117519 -1.14423e-05 1.51076e-07
-1.14423e-05 9.05089e-05 -7.23816e-08
1.51076e-07 -7.23816e-08 2.96103e-05
0.00111044 -1.9093e-05 6.78355e-07
-1.9093e-05 5.78258e-05 -4.55659e-07
6.78355e-07 -4.55659e-07 -1.10171e-05
0.00119294 -2.14119e-05 7.25037e-07
-2.14119e-05 9.16473e-05 3.01934e-07
7.25037e-07 3.01934e-07 1.91908e-05
0.00110153 -2.18013e-05 3.9525e-07
-2.18013e-05 3.8866e-05 7.94493e-08
3.9525e-07 7.94493e-08 -2.74137e-05
0.00131109 -2.38408e-05 -1.08057e-09
-2.38408e-05 0.000144283 4.84483e-07
-1.08057e-09 4.84483e-07 7.2817e-05
0.00106591 -9.03841e-08 -9.26086e-07
-9.03841e-08 3.09607e-05 -1.13422e-06
-9.26086e-07 -1.13422e-06 -1.59048e-05
0.0011248 9.89341e-06 -5.36496e-07
9.89341e-06 6.19576e-05 -3.10441e-07
-5.36496e-07 -3.10441e-07 2.53631e-06
0.00146166 8.84519e-06 6.27559e-07
8.84519e-06 0.000132021 1.23825e-07
6.27559e-07 1.23825e-07 8.50098e-05
0.00113953 1.60201e-05 -8.76765e-07
1.60201e-05 7.02487e-05 8.31285e-08
-8.76765e-07 8.31285e-08 5.79693e-06
0.00120669 2.14156e-05 -6.06629e-07
2.14156e-05 0.0001051 -8.81528e-07
-6.06629e-07 -8.81528e-07 4.13921e-05
0.00108122 1.87583e-05 -7.01253e-07
1.87583e-05 4.01211e-05 -4.16347e-07
-7.01253e-07 -4.16347e-07 -2.59654e-05
0.00132645 2.71389e-05 2.70609e-07
2.71389e-05 0.000115366 2.72625e-07
2.70609e-07 2.72625e-07 5.01722e-05
0.00119561 2.32341e-05 -3.84015e-08
2.32341e-05 3.85759e-05 1.86724e-06
-3.84015e-08 1.86724e-06 -1.53299e-05
0.00112228 2.31905e-05 -5.86604e-09
2.31905e-05 6.24831e-05 -7.64496e-08
-5.86604e-09 -7.64496e-08 -1.10573e-05
0.00114535 2.61921e-05 -1.53242e-06
2.61921e-05 5.1265e-05 -1.91958e-07
-1.53242e-06 -1.91958e-07 -2.75046e-05
0.000996741 9.56737e-06 2.40704e-07
9.56737e-06 6.33027e-08 3.20267e-07
2.40704e-07 3.20267e-07 -6.0221e-05
0.00109598 1.93893e-05 -2.26384e-07
1.93893e-05 4.9354e-05 -3.90217e-07
-2.26384e-07 -3.90217e-07 -1.89585e-05
0.00117791 2.22689e-05 -1.516e-07
2.22689e-05 8.85934e-05 -3.92423e-07
-1.516e-07 -3.92423e-07 1.89485e-05
0.00110964 2.01391e-05 1.79422e-09
2.01391e-05 5.04136e-05 -1.67218e-07
1.79422e-09 -1.67218e-07 -1.89057e-05
0.00145486 1.08377e-06 2.79317e-07
1.08377e-06 0.000105767 -6.78914e-07
2.79317e-07 -6.78914e-07 6.18723e-05
0.00123654 1.92829e-05 2.86542e-07
1.92829e-05 1.76999e-05 1.71863e-08
2.86542e-07 1.71863e-08 -2.80818e-05
0.0013706 2.94731e-05 -3.10246e-07
2.94731e-05 0.000136744 -8.24856e-08
-3.10246e-07 -8.24856e-08 6.47352e-05
0.00101374 2.48949e-05 1.20601e-07
2.48949e-05 3.91195e-06 1.74399e-07
1.20601e-07 1.74399e-07 -7.85686e-05
0.00117085 1.86638e-05 1.86313e-07
1.86638e-05 9.0359e-05 9.80593e-08
1.86313e-07 9.80593e-08 2.21461e-05
0.00124925 -1.27871e-05 -1.98747e-06
-1.27871e-05 4.27305e-05 -1.29487e-07
-1.98747e-06 -1.29487e-07 -9.22825e-06
0.00126408 2.22803e-05 7.04898e-07
2.22803e-05 0.000131197 3.92456e-07
7.04898e-07 3.92456e-07 5.65847e-05
0.00119371 2.44028e-05 5.34677e-07
2.44028e-05 9.25761e-05 5.31383e-07
5.34677e-07 5.31383e-07 1.58613e-05
0.00166423 1.57512e-05 1.22442e-06
1.57512e-05 0.000171758 -1.13288e-06
1.22442e-06 -1.13288e-06 0.000139727
0.00117481 2.95937e-05 2.43759e-06
2.95937e-05 5.20697e-06 -1.6207e-06
2.43759e-06 -1.6207e-06 -6.33851e-05
0.00138819 3.03564e-05 8.1342e-07
3.03564e-05 0.000177076 8.69153e-07
8.1342e-07 8.69153e-07 9.03961e-05
0.00115859 7.48883e-06 -3.23918e-07
7.48883e-06 8.06608e-05 -3.65481e-07
-3.23918e-07 -3.65481e-07 2.22949e-05
0.00114211 1.53474e-05 -4.48175e-08
1.53474e-05 7.77088e-05 -7.6866e-08
-4.48175e-08 -7.6866e-08 1.09369e-05
0.00114845 1.8083e-05 3.20583e-07
1.8083e-05 8.33515e-05 1.21493e-07
3.20583e-07 1.21493e-07 1.09936e-05
0.00107235 7.86487e-07 -2.81484e-07
7.86487e-07 3.2306e-05 -1.07205e-06
-2.81484e-07 -1.07205e-06 -1.16299e-05
0.0010979 5.97182e-06 -1.33352e-07
5.97182e-06 5.02444e-05 -3.39386e-07
-1.33352e-07 -3.39386e-07 -6.09341e-06
0.00104219 8.72404e-06 -2.80653e-07
8.72404e-06 2.71001e-05 -9.11469e-07
-2.80653e-07 -9.11469e-07 -3.90745e-05
0.00106883 -4.3901e-06 8.27284e-08
-4.3901e-06 3.05917e-05 1.2566e-08
8.27284e-08 1.2566e-08 -1.33769e-05
0.00098585 5.03278e-06 2.68918e-08
5.03278e-06 -4.84551e-06 3.32729e-07
2.68918e-08 3.32729e-07 -6.16243e-05
0.00113155 1.17973e-05 2.0435e-08
1.17973e-05 7.12501e-05 -3.32633e-07
2.0435e-08 -3.32633e-07 -3.48035e-07
0.00112638 4.15779e-06 7.61185e-08
4.15779e-06 6.74493e-05 3.1461e-07
7.61185e-08 3.1461e-07 2.6898e-06
0.00116588 1.8081e-05 1.42531e-07
1.8081e-05 8.64563e-05 -1.10448e-07
1.42531e-07 -1.10448e-07 1.1595e-05
0.0010804 -6.19555e-07 1.98254e-07
-6.19555e-07 4.29162e-05 5.72028e-07
1.98254e-07 5.72028e-07 -2.88397e-05
0.00114402 1.18398e-05 2.01159e-07
1.18398e-05 7.44663e-05 4.67891e-07
2.01159e-07 4.67891e-07 1.02539e-05
0.00109153 3.75508e-06 2.66119e-07
3.75508e-06 4.72908e-05 6.88792e-07
2.66119e-07 6.88792e-07 -8.98757e-06
0.00106847 -5.54691e-06 4.09424e-08
-5.54691e-06 3.0418e-05 1.03782e-06
4.09424e-08 1.03782e-06 -1.38051e-05
0.00103623 -2.63755e-07 4.35683e-08
-2.63755e-07 4.62954e-06 1.78506e-06
4.35683e-08 1.78506e-06 -2.16105e-05
0.00103714 -1.48609e-06 4.62816e-08
-1.48609e-06 5.55569e-06 4.92461e-09
4.62816e-08 4.92461e-09 -2.05194e-05
0.00152763 -2.17187e-06 3.71367e-07
-2.17187e-06 0.000236214 1.91774e-06
3.71367e-07 1.91774e-06 0.000240747
0.00103835 -2.55601e-06 -3.48543e-07
-2.55601e-06 7.31721e-06 -1.8083e-06
-3.48543e-07 -1.8083e-06 -1.86745e-05
0.0015477 -3.74565e-06 -4.83565e-07
-3.74565e-06 0.000247951 -1.19114e-06
-4.83565e-07 -1.19114e-06 0.000252218
0.00121796 -4.06368e-06 2.58692e-06
-4.06368e-06 8.27578e-05 6.26694e-06
2.58692e-06 6.26694e-06 0.00010126
0.00156247 -5.18714e-06 -1.97115e-06
-5.18714e-06 0.000257883 -4.28971e-06
-1.97115e-06 -4.28971e-06 0.000261683
0.00116763 -5.85758e-06 1.05371e-06
-5.85758e-06 6.11697e-05 2.38455e-06
1.05371e-06 2.38455e-06 7.94458e-05
0.00111355 -7.53317e-06 -1.13303e-06
-7.53317e-06 3.83614e-05 -1.4907e-06
-1.13303e-06 -1.4907e-06 5.62559e-05
0.00102941 3.49301e-06 4.89353e-07
3.49301e-06 3.45114e-06 -1.73251e-06
4.89353e-07 -1.73251e-06 -2.05992e-05
0.000954802 6.16719e-06 1.1979e-06
6.16719e-06 -3.84439e-05 -2.97746e-06
1.1979e-06 -2.97746e-06 -3.68155e-05
0.000961463 7.49512e-06 -5.41129e-08
7.49512e-06 -3.18065e-05 2.20097e-09
-5.41129e-08 2.20097e-09 -3.13666e-05
0.00232863 1.01703e-05 4.99192e-06
1.01703e-05 0.000633635 -3.75318e-06
4.99192e-06 -3.75318e-06 0.000656639
0.000968604 8.75628e-06 -1.97098e-06
8.75628e-06 -2.42716e-05 2.91006e-06
-1.97098e-06 2.91006e-06 -2.51496e-05
0.00234722 1.21453e-05 -2.09926e-07
1.21453e-05 0.000647646 -3.14711e-08
-2.09926e-07 -3.14711e-08 0.000669637
0.00236705 1.39415e-05 -6.8256e-06
1.39415e-05 0.000662184 3.6962e-06
-6.8256e-06 3.6962e-06 0.000683176
0.00116708 -5.36256e-06 1.14638e-06
-5.36256e-06 -4.38796e-06 -2.9947e-07
1.14638e-06 -2.9947e-07 -5.44495e-05
0.00116564 -1.6927e-05 2.86944e-07
-1.6927e-05 2.16067e-05 -7.02239e-07
2.86944e-07 -7.02239e-07 -4.17381e-05
0.00124907 -1.6033e-05 -5.25671e-07
-1.6033e-05 8.82309e-05 1.49422e-06
-5.25671e-07 1.49422e-06 2.29051e-05
0.00119237 1.327e-05 5.95081e-08
1.327e-05 6.21167e-05 -7.365e-07
5.95081e-08 -7.365e-07 -2.01681e-06
0.00118947 6.04944e-06 1.35327e-07
6.04944e-06 6.65156e-05 -3.85934e-07
1.35327e-07 -3.85934e-07 3.02935e-06
0.00116677 -2.08694e-05 -8.75373e-08
-2.08694e-05 5.69537e-05 3.42503e-07
-8.75373e-08 3.42503e-07 -1.06286e-05
0.00126507 -1.15698e-05 -4.78943e-07
-1.15698e-05 5.11058e-05 2.7641e-07
-4.78943e-07 2.7641e-07 -2.72029e-06
0.00119619 1.81591e-06 7.14548e-07
1.81591e-06 7.15373e-05 -1.32524e-06
7.14548e-07 -1.32524e-06 6.73311e-06
0.00108461 -1.86406e-05 -1.39173e-06
-1.86406e-05 2.07774e-06 9.10167e-07
-1.39173e-06 9.10167e-07 -6.12326e-05
0.00131698 -2.04401e-05 -1.10853e-06
-2.04401e-05 0.000120822 -4.77151e-07
-1.10853e-06 -4.77151e-07 7.50396e-05
0.00124896 2.12316e-05 1.70849e-07
2.12316e-05 6.30184e-05 -3.56585e-07
1.70849e-07 -3.56585e-07 -3.59923e-06
0.00133421 1.40283e-05 1.63884e-07
1.40283e-05 6.16057e-05 5.69983e-07
1.63884e-07 5.69983e-07 -4.90508e-06
0.00128867 -2.41886e-06 7.30319e-07
-2.41886e-06 4.54359e-05 8.30502e-07
7.30319e-07 8.30502e-07 -1.0801e-05
0.00115869 -2.03619e-05 -2.61419e-07
-2.03619e-05 6.96998e-05 1.87417e-07
-2.61419e-07 1.87417e-07 9.91785e-06
0.0011029 -2.2238e-05 -9.02273e-08
-2.2238e-05 5.03106e-05 7.9606e-07
-9.02273e-08 7.9606e-07 -1.71291e-05
0.00124177 -2.51664e-05 -3.19889e-07
-2.51664e-05 0.000101418 2.55351e-07
-3.19889e-07 2.55351e-07 2.881e-05
0.00137179 -1.51636e-05 2.47385e-06
-1.51636e-05 9.06703e-05 3.13657e-07
2.47385e-06 3.13657e-07 4.52591e-05
0.00118676 -2.27235e-05 -7.80846e-07
-2.27235e-05 2.19555e-05 -2.09905e-06
-7.80846e-07 -2.09905e-06 -3.30238e-05
0.00110176 -2.06888e-05 -6.08312e-07
-2.06888e-05 3.77807e-05 -2.71328e-08
-6.08312e-07 -2.71328e-08 -2.55753e-05
0.00117925 -2.17874e-05 -5.88072e-07
-2.17874e-05 7.58722e-05 -2.82675e-07
-5.88072e-07 -2.82675e-07 8.57791e-06
0.0011298 -1.94815e-05 -2.70004e-07
-1.94815e-05 6.57304e-05 -5.75661e-08
-2.70004e-07 -5.75661e-08 -1.88939e-06
0.00102228 5.36908e-06 -7.38229e-07
5.36908e-06 4.51769e-06 1.09989e-06
-7.38229e-07 1.09989e-06 -2.21422e-05
0.0011442 2.34368e-06 -6.48322e-07
2.34368e-06 7.11523e-05 1.2081e-06
-6.48322e-07 1.2081e-06 2.3907e-05
0.00115542 -1.58992e-05 -1.10118e-06
-1.58992e-05 7.82762e-05 1.13772e-06
-1.10118e-06 1.13772e-06 1.83428e-05
0.0012183 2.15534e-05 8.97941e-08
2.15534e-05 4.22756e-05 3.93903e-07
8.97941e-08 3.93903e-07 -2.35991e-05
0.00102921 4.21388e-06 -4.87732e-08
4.21388e-06 5.45172e-06 -7.57882e-09
-4.87732e-08 -7.57882e-09 -1.99939e-05
0.000981948 2.60409e-07 -2.37311e-07
2.60409e-07 -1.23932e-05 -1.50729e-08
-2.37311e-07 -1.50729e-08 -5.52423e-05
0.0013878 1.19868e-05 1.02085e-07
1.19868e-05 8.25751e-05 4.3732e-07
1.02085e-07 4.3732e-07 1.92959e-05
0.00125189 -8.35966e-06 -1.74028e-07
-8.35966e-06 1.4572e-05 -2.12011e-07
-1.74028e-07 -2.12011e-07 -3.01434e-05
0.00106048 -2.09594e-05 -1.02632e-07
-2.09594e-05 2.44571e-05 3.13751e-07
-1.02632e-07 3.13751e-07 -4.00889e-05
0.00122227 -2.51802e-05 -1.51008e-07
-2.51802e-05 0.000106072 1.32589e-07
-1.51008e-07 1.32589e-07 3.17533e-05
0.00117005 -2.50267e-05 4.78803e-07
-2.50267e-05 4.98565e-05 4.38251e-07
4.78803e-07 4.38251e-07 -2.05163e-05
0.00138527 -2.13594e-05 1.01004e-07
-2.13594e-05 8.56785e-05 -5.91648e-07
1.01004e-07 -5.91648e-07 4.3138e-05
0.00110358 2.11827e-06 1.48444e-07
2.11827e-06 5.00264e-05 -4.5533e-07
1.48444e-07 -4.5533e-07 4.94897e-06
0.00116281 -9.89611e-06 -2.47511e-07
-9.89611e-06 8.50771e-05 4.53057e-07
-2.47511e-07 4.53057e-07 2.39882e-05
0.00115323 -2.21837e-05 2.49578e-07
-2.21837e-05 6.3387e-05 6.34681e-08
2.49578e-07 6.34681e-08 -2.76386e-06
0.00121414 -2.31052e-05 -4.91617e-07
-2.31052e-05 9.61966e-05 -6.08575e-08
-4.91617e-07 -6.08575e-08 2.54106e-05
0.00113396 -2.09843e-05 1.47332e-07
-2.09843e-05 6.26929e-05 1.3927e-07
1.47332e-07 1.3927e-07 -1.05267e-05
0.00112534 -1.92024e-05 2.74435e-07
-1.92024e-05 6.49572e-05 -3.19329e-07
2.74435e-07 -3.19329e-07 -3.58949e-06
0.00137276 2.34298e-05 1.10174e-06
2.34298e-05 0.000111269 5.76822e-07
1.10174e-06 5.76822e-07 3.95448e-05
0.00139084 7.03068e-06 -1.12775e-06
7.03068e-06 7.46057e-05 -1.82655e-06
-1.12775e-06 -1.82655e-06 2.23531e-05
0.00140944 -1.64973e-05 -3.18144e-06
-1.64973e-05 6.32775e-05 -1.46262e-07
-3.18144e-06 -1.46262e-07 3.61077e-05
0.00134145 -2.69054e-05 2.31992e-07
-2.69054e-05 9.83396e-05 2.23783e-06
2.31992e-07 2.23783e-06 4.025e-05
0.00109474 -2.26456e-05 -3.2263e-08
-2.26456e-05 4.4382e-05 -4.08151e-07
-3.2263e-08 -4.08151e-07 -2.44842e-05
0.00139767 -2.8771e-05 -3.19921e-07
-2.8771e-05 0.000187779 2.48405e-08
-3.19921e-07 2.48405e-08 0.000108754
0.000893966 1.8133e-06 1.57953e-07
1.8133e-06 -5.68117e-05 -1.50291e-06
1.57953e-07 -1.50291e-06 -9.84835e-05
0.00106848 -2.55339e-06 5.34245e-07
-2.55339e-06 3.10305e-05 -1.01558e-06
5.34245e-07 -1.01558e-06 -1.25717e-05
0.00128548 -6.95452e-07 -8.16655e-08
-6.95452e-07 0.000142373 -8.61761e-08
-8.16655e-08 -8.61761e-08 8.77911e-05
0.000931811 -1.13682e-06 2.51781e-07
-1.13682e-06 -2.52386e-05 -6.94349e-07
2.51781e-07 -6.94349e-07 -8.69134e-05
0.00122507 -1.76915e-05 4.87828e-07
-1.76915e-05 0.000115298 2.12982e-08
4.87828e-07 2.12982e-08 4.62825e-05
0.00101358 -1.96785e-05 1.79171e-07
-1.96785e-05 8.33884e-06 -1.826e-07
1.79171e-07 -1.826e-07 -6.89854e-05
0.00126325 -2.33136e-05 8.80642e-07
-2.33136e-05 0.000129208 2.82078e-07
8.80642e-07 2.82078e-07 5.03645e-05
0.0011155 -2.37541e-05 4.77361e-08
-2.37541e-05 5.35287e-05 2.95323e-07
4.77361e-08 2.95323e-07 -1.7558e-05
0.000996856 9.52404e-06 -3.96975e-07
9.52404e-06 3.35788e-07 -3.93932e-07
-3.96975e-07 -3.93932e-07 -6.0077e-05
0.00115837 1.87858e-05 -1.22121e-06
1.87858e-05 7.94033e-05 -5.52459e-07
-1.22121e-06 -5.52459e-07 1.18899e-05
0.00131023 1.04006e-06 5.21355e-08
1.04006e-06 3.57801e-05 -1.16484e-06
5.21355e-08 -1.16484e-06 -8.05851e-06
0.00120077 1.87234e-05 -1.12431e-07
1.87234e-05 7.98459e-06 8.55819e-07
-1.12431e-07 8.55819e-07 -3.93303e-05
0.001219 2.06639e-05 -9.21908e-07
2.06639e-05 0.000102779 -2.26026e-07
-9.21908e-07 -2.26026e-07 3.37622e-05
0.00120732 2.23885e-05 -6.27122e-07
2.23885e-05 0.000103476 -9.43781e-07
-6.27122e-07 -9.43781e-07 3.43517e-05
0.00153514 3.05272e-05 -5.09459e-07
3.05272e-05 0.000214099 5.45126e-07
-5.09459e-07 5.45126e-07 0.000142813
0.00107533 2.56636e-05 -7.2304e-07
2.56636e-05 3.09153e-05 -6.20183e-07
-7.2304e-07 -6.20183e-07 -5.14684e-05
0.00114537 1.88794e-05 -2.44328e-07
1.88794e-05 7.81833e-05 -3.22749e-07
-2.44328e-07 -3.22749e-07 9.93966e-06
0.00110728 -1.16811e-05 -1.64517e-07
-1.16811e-05 -1.70914e-05 7.30238e-07
-1.64517e-07 7.30238e-07 -6.53763e-05
0.00118007 2.17205e-05 1.46477e-07
2.17205e-05 8.99132e-05 2.97408e-07
1.46477e-07 2.97408e-07 1.54929e-05
0.0010886 2.35247e-05 1.71936e-07
2.35247e-05 4.04046e-05 -4.18964e-08
1.71936e-07 -4.18964e-08 -3.69611e-05
0.00139642 1.35281e-05 5.21057e-07
1.35281e-05 5.21736e-05 -3.41773e-07
5.21057e-07 -3.41773e-07 1.87489e-05
0.00142195 3.16529e-05 5.53286e-07
3.16529e-05 0.000118635 -6.03646e-07
5.53286e-07 -6.03646e-07 5.06245e-05
0.00139594 3.07408e-05 4.04385e-07
3.07408e-05 0.00018201 5.32977e-07
4.04385e-07 5.32977e-07 9.41903e-05
0.00122751 1.9966e-05 1.89729e-07
1.9966e-05 0.000122129 1.86786e-07
1.89729e-07 1.86786e-07 4.7321e-05
0.00132967 2.55516e-06 7.73114e-07
2.55516e-06 1.86531e-05 -2.77981e-06
7.73114e-07 -2.77981e-06 -1.3642e-05
0.00135971 2.40211e-05 1.67428e-07
2.40211e-05 0.000174444 -4.72153e-08
1.67428e-07 -4.72153e-08 9.60923e-05
0.0015342 3.00779e-05 -2.57754e-07
3.00779e-05 0.000256355 1.16323e-06
-2.57754e-07 1.16323e-06 0.000168603
0.00116288 3.3048e-05 3.33147e-06
3.3048e-05 -7.69729e-05 -1.31738e-06
3.33147e-06 -1.31738e-06 -0.000133332
0.00102693 3.21842e-05 1.14732e-06
3.21842e-05 -1.41119e-05 1.60896e-07
1.14732e-06 1.60896e-07 -0.000105496
0.00179645 -5.72503e-05 -7.66156e-06
-5.72503e-05 -8.70091e-05 -8.9233e-06
-7.66156e-06 -8.9233e-06 -4.42373e-05
0.00113538 1.54529e-05 -3.18765e-07
1.54529e-05 7.48796e-05 -5.04837e-07
-3.18765e-07 -5.04837e-07 8.08746e-06
0.0011359 1.79236e-05 -3.52996e-08
1.79236e-05 7.82593e-05 -6.61793e-08
-3.52996e-08 -6.61793e-08 5.84028e-06
0.00121495 1.87052e-05 2.36152e-07
1.87052e-05 0.000115149 -1.62532e-07
2.36152e-07 -1.62532e-07 3.95137e-05
0.00107123 -4.71317e-06 -7.27436e-08
-4.71317e-06 3.17753e-05 -1.0497e-06
-7.27436e-08 -1.0497e-06 -1.22065e-05
0.000986283 -9.94351e-07 -1.82847e-07
-9.94351e-07 -4.5319e-06 -3.5214e-07
-1.82847e-07 -3.5214e-07 -6.12891e-05
0.00123237 1.01233e-05 -1.73985e-07
1.01233e-05 0.000119357 -2.21413e-07
-1.73985e-07 -2.21413e-07 5.52561e-05
0.00107694 1.01735e-05 -3.87698e-07
1.01735e-05 4.44779e-05 -7.88549e-07
-3.87698e-07 -7.88549e-07 -2.76871e-05
0.00106884 -6.52183e-06 3.15937e-08
-6.52183e-06 3.06057e-05 1.41058e-08
3.15937e-08 1.41058e-08 -1.36369e-05
0.00103696 4.58341e-06 1.10578e-07
4.58341e-06 2.05035e-05 1.7053e-08
1.10578e-07 1.7053e-08 -3.61697e-05
0.00113388 1.76989e-05 -2.6254e-07
1.76989e-05 7.05085e-05 -4.13097e-07
-2.6254e-07 -4.13097e-07 -4.44417e-06
0.00114443 6.35088e-06 -4.9807e-08
6.35088e-06 7.47175e-05 -3.54029e-08
-4.9807e-08 -3.54029e-08 1.04986e-05
0.00115066 1.19843e-06 9.34642e-08
1.19843e-06 7.801e-05 -8.49251e-09
9.34642e-08 -8.49251e-09 6.77071e-06
0.00112593 9.15023e-06 7.63968e-08
9.15023e-06 6.13351e-05 4.51398e-07
7.63968e-08 4.51398e-07 -1.47493e-05
0.00120415 1.20748e-05 7.67347e-08
1.20748e-05 0.000103613 7.23884e-08
7.67347e-08 7.23884e-08 3.36332e-05
0.00123134 1.46388e-05 1.09e-07
1.46388e-05 0.000116271 1.67031e-07
1.09e-07 1.67031e-07 5.22473e-05
0.000961001 1.24946e-06 2.26375e-08
1.24946e-06 -1.62357e-05 6.80704e-07
2.26375e-08 6.80704e-07 -7.38162e-05
0.000888335 -4.62543e-07 -3.30098e-08
-4.62543e-07 -5.71893e-05 1.39846e-06
-3.30098e-08 1.39846e-06 -0.000102749
0.00126727 1.28892e-06 1.3834e-08
1.28892e-06 0.000134345 2.74059e-07
1.3834e-08 2.74059e-07 7.80993e-05
0.000893742 4.23797e-07 -2.15883e-07
4.23797e-07 -5.44693e-05 1.39803e-06
-2.15883e-07 1.39803e-06 -0.000100016
0.001037 9.86798e-07 -1.55185e-07
9.86798e-07 5.1423e-06 1.75636e-06
-1.55185e-07 1.75636e-06 -2.12021e-05
0.00103711 -3.04671e-07 4.84208e-08
-3.04671e-07 5.05673e-06 5.30356e-09
4.84208e-08 5.30356e-09 -2.11853e-05
0.000975828 -3.15128e-07 8.6542e-08
-3.15128e-07 -3.48354e-05 3.09074e-06
8.6542e-08 3.09074e-06 -3.31615e-05
0.00103868 -1.52378e-06 -1.49077e-07
-1.52378e-06 6.35082e-06 -1.78853e-06
-1.49077e-07 -1.78853e-06 -1.97382e-05
0.00126187 -1.98852e-06 -2.6893e-07
-1.98852e-06 0.000106137 -1.21103e-06
-2.6893e-07 -1.21103e-06 0.000109179
0.00232026 -2.52047e-06 1.32975e-06
-2.52047e-06 0.000620456 3.89728e-06
1.32975e-06 3.89728e-06 0.000644858
0.00156587 -3.64266e-06 -1.18413e-06
-3.64266e-06 0.000256911 -4.29237e-06
-1.18413e-06 -4.29237e-06 0.000261061
0.0011702 -4.11543e-06 5.80069e-07
-4.11543e-06 5.93562e-05 2.38111e-06
5.80069e-07 2.38111e-06 7.81004e-05
0.00111839 -5.82191e-06 -8.28891e-07
-5.82191e-06 3.70011e-05 -1.50109e-06
-8.28891e-07 -1.50109e-06 5.55237e-05
0.00103205 2.52723e-06 3.32612e-07
2.52723e-06 2.67857e-06 -1.79393e-06
3.32612e-07 -1.79393e-06 -2.00685e-05
0.00103357 3.46793e-06 -6.87182e-08
3.46793e-06 5.39917e-06 -2.95534e-09
-6.87182e-08 -2.95534e-09 -1.86684e-05
0.000961771 4.76876e-06 8.76664e-07
4.76876e-06 -3.79591e-05 -2.99604e-06
8.76664e-07 -2.99604e-06 -3.51941e-05
0.00125046 6.4263e-06 -2.23645e-07
6.4263e-06 0.000106124 2.61021e-08
-2.23645e-07 2.61021e-08 0.000109018
0.00230128 8.17018e-06 4.11984e-06
8.17018e-06 0.000616473 -3.76662e-06
4.11984e-06 -3.76662e-06 0.00064034
0.000975222 7.48992e-06 -1.67421e-06
7.48992e-06 -2.52669e-05 2.92408e-06
-1.67421e-06 2.92408e-06 -2.48903e-05
0.00231694 1.0218e-05 -2.16138e-07
1.0218e-05 0.000628477 -2.60333e-08
-2.16138e-07 -2.60333e-08 0.000651423
0.00233764 1.21419e-05 -6.09807e-06
1.21419e-05 0.000643483 3.76045e-06
-6.09807e-06 3.76045e-06 0.000665397
0.00124548 -1.1439e-05 2.8734e-07
-1.1439e-05 4.43813e-05 -7.58685e-07
2.8734e-07 -7.58685e-07 -8.16618e-06
0.00120737 -2.11293e-05 3.23717e-07
-2.11293e-05 7.69847e-05 1.26023e-06
3.23717e-07 1.26023e-06 8.75532e-06
0.00123359 4.74619e-06 -7.42347e-09
4.74619e-06 9.00197e-05 -5.20307e-07
-7.42347e-09 -5.20307e-07 2.72392e-05
0.00119981 1.1901e-06 -3.22398e-07
1.1901e-06 7.32205e-05 -1.04409e-06
-3.22398e-07 -1.04409e-06 8.55178e-06
0.00113955 -1.87478e-05 -3.43396e-08
-1.87478e-05 2.95464e-05 1.97826e-07
-3.43396e-08 1.97826e-07 -3.3906e-05
0.00115483 -2.07059e-05 1.30285e-06
-2.07059e-05 6.37003e-05 2.32678e-07
1.30285e-06 2.32678e-07 1.86205e-05
0.00135564 -2.4139e-06 -1.05868e-06
-2.4139e-06 0.000140881 1.3841e-06
-1.05868e-06 1.3841e-06 7.62855e-05
0.00112954 -4.65488e-05 -9.67213e-06
-4.65488e-05 1.74235e-05 -7.53354e-06
-9.67213e-06 -7.53354e-06 2.04843e-05
0.000978163 -4.81396e-06 -1.6294e-06
-4.81396e-06 6.44186e-06 -9.06753e-08
-1.6294e-06 -9.06753e-08 -2.23709e-05
0.00106842 -3.9597e-07 -1.88244e-07
-3.9597e-07 2.64178e-05 -9.81856e-07
-1.88244e-07 -9.81856e-07 -1.2561e-05
0.00114385 2.07874e-05 -5.56385e-07
2.07874e-05 5.26365e-06 -2.81846e-07
-5.56385e-07 -2.81846e-07 -6.1156e-05
0.00139079 1.18522e-05 6.78478e-07
1.18522e-05 8.36941e-05 1.23712e-06
6.78478e-07 1.23712e-06 2.08449e-05
0.00118071 -8.80391e-06 1.81073e-06
-8.80391e-06 -1.63069e-05 1.02724e-06
1.81073e-06 1.02724e-06 -6.3105e-05
0.00105967 -2.08974e-05 -2.41999e-07
-2.08974e-05 2.39402e-05 4.60089e-07
-2.41999e-07 4.60089e-07 -4.03234e-05
0.00115414 -2.47432e-05 6.45956e-09
-2.47432e-05 7.33774e-05 1.10344e-06
6.45956e-09 1.10344e-06 -1.54847e-06
0.00105485 -2.38731e-05 -4.00324e-08
-2.38731e-05 -7.04719e-06 -9.7232e-07
-4.00324e-08 -9.7232e-07 -7.66647e-05
0.00130974 -2.15944e-05 9.18535e-07
-2.15944e-05 4.95621e-05 -2.19469e-06
9.18535e-07 -2.19469e-06 6.87826e-06
0.00120702 -2.2578e-05 1.16372e-07
-2.2578e-05 8.89577e-05 -2.46556e-07
1.16372e-07 -2.46556e-07 2.29267e-05
0.00111453 -2.23523e-05 -1.32245e-06
-2.23523e-05 4.69011e-05 -7.77093e-07
-1.32245e-06 -7.77093e-07 -2.3208e-05
0.00107312 -2.05442e-05 -7.1487e-07
-2.05442e-05 3.28692e-05 -8.90844e-08
-7.1487e-07 -8.90844e-08 -4.11125e-05
0.00103347 4.18556e-06 -8.23919e-07
4.18556e-06 7.39936e-06 1.68131e-06
-8.23919e-07 1.68131e-06 -1.8059e-05
0.00114411 -1.93525e-05 -6.61811e-08
-1.93525e-05 7.39258e-05 3.07309e-08
-6.61811e-08 3.07309e-08 5.66983e-06
0.00134005 2.98612e-07 -3.40858e-07
2.98612e-07 0.000164915 5.51519e-07
-3.40858e-07 5.51519e-07 0.000121333
0.00115364 -9.77004e-06 -7.01539e-07
-9.77004e-06 8.10893e-05 9.14965e-07
-7.01539e-07 9.14965e-07 1.98479e-05
0.000884161 1.32671e-06 -4.67846e-07
1.32671e-06 -5.98922e-05 1.03763e-06
-4.67846e-07 1.03763e-06 -0.000103249
0.00133204 2.30907e-05 1.89083e-07
2.30907e-05 8.50313e-05 1.27066e-07
1.89083e-07 1.27066e-07 1.26967e-05
0.000982528 1.09808e-06 6.98503e-08
1.09808e-06 -1.40033e-05 -4.599e-07
6.98503e-08 -4.599e-07 -5.49206e-05
0.00107021 -2.82001e-06 6.03668e-08
-2.82001e-06 3.18931e-05 1.17782e-08
6.03668e-08 1.17782e-08 -1.17262e-05
0.00114501 3.40337e-07 -1.27632e-07
3.40337e-07 7.41119e-05 4.59753e-07
-1.27632e-07 4.59753e-07 1.8414e-05
0.0014136 7.22364e-06 4.02387e-07
7.22364e-06 8.63722e-05 3.93677e-07
4.02387e-07 3.93677e-07 3.40726e-05
0.00131469 -1.73094e-05 -8.52682e-09
-1.73094e-05 1.94499e-05 -1.05859e-06
-8.52682e-09 -1.05859e-06 -1.06477e-05
0.00112715 -2.29003e-05 3.11598e-08
-2.29003e-05 5.83473e-05 1.16367e-07
3.11598e-08 1.16367e-07 -1.02115e-05
0.00116976 -2.70092e-05 2.94759e-07
-2.70092e-05 8.09873e-05 -1.86872e-08
2.94759e-07 -1.86872e-08 2.04548e-06
0.0012081 -2.58692e-05 -1.43164e-07
-2.58692e-05 3.55719e-05 4.53319e-07
-1.43164e-07 4.53319e-07 -2.18812e-05
0.00101964 -2.05765e-06 -3.22551e-08
-2.05765e-06 1.74484e-05 2.85699e-08
-3.22551e-08 2.85699e-08 -4.33688e-05
0.00121724 -1.79148e-05 1.85839e-07
-1.79148e-05 0.000110743 4.9318e-08
1.85839e-07 4.9318e-08 4.1459e-05
0.00112432 -2.3789e-05 -2.66308e-07
-2.3789e-05 5.73573e-05 -6.03256e-08
-2.66308e-07 -6.03256e-08 -1.38098e-05
0.00121373 -2.27767e-05 -1.59452e-10
-2.27767e-05 0.000104397 1.24125e-08
-1.59452e-10 1.24125e-08 2.69404e-05
0.00110008 -2.03034e-05 -4.9498e-07
-2.03034e-05 5.09782e-05 3.84476e-07
-4.9498e-07 3.84476e-07 -2.59514e-05
0.00135868 2.46418e-05 1.96138e-07
2.46418e-05 8.70178e-05 -9.86366e-07
1.96138e-07 -9.86366e-07 1.25073e-05
0.00127604 -3.63735e-06 -2.84506e-06
-3.63735e-06 -2.27175e-05 -2.54198e-06
-2.84506e-06 -2.54198e-06 -4.61215e-05
0.00151678 -2.79296e-05 -1.20735e-06
-2.79296e-05 0.000121227 2.5362e-06
-1.20735e-06 2.5362e-06 8.04953e-05
0.00150474 -3.17423e-05 3.71033e-07
-3.17423e-05 0.000221157 2.76992e-07
3.71033e-07 2.76992e-07 0.000146209
0.00100912 -2.49623e-05 -1.96568e-07
-2.49623e-05 1.43225e-05 -5.29203e-07
-1.96568e-07 -5.29203e-07 -5.96347e-05
0.000893129 1.08039e-05 -4.9333e-08
1.08039e-05 -4.92276e-05 -9.03191e-07
-4.9333e-08 -9.03191e-07 -0.000103535
0.000933112 -5.95951e-07 2.92846e-07
-5.95951e-07 -2.75697e-05 -5.67569e-07
2.92846e-07 -5.67569e-07 -8.65001e-05
0.0011619 8.76976e-06 -2.73881e-08
8.76976e-06 9.10671e-05 2.02555e-07
-2.73881e-08 2.02555e-07 2.58219e-05
0.00118102 -1.75868e-05 5.2331e-07
-1.75868e-05 9.78693e-05 -3.88447e-07
5.2331e-07 -3.88447e-07 2.5763e-05
0.00104145 -1.92086e-05 -3.1499e-08
-1.92086e-05 2.281e-05 2.77285e-07
-3.1499e-08 2.77285e-07 -5.2932e-05
0.00125048 -2.2702e-05 1.22881e-06
-2.2702e-05 0.000128824 -4.64857e-07
1.22881e-06 -4.64857e-07 4.44103e-05
0.00116155 -2.51151e-05 1.09536e-06
-2.51151e-05 8.32601e-05 4.86093e-07
1.09536e-06 4.86093e-07 2.36042e-06
0.00111757 1.86621e-05 -5.71678e-07
1.86621e-05 6.49906e-05 -7.81686e-07
-5.71678e-07 -7.81686e-07 -3.28023e-06
0.00109994 2.12041e-05 -3.79436e-07
2.12041e-05 5.05409e-05 1.66287e-07
-3.79436e-07 1.66287e-07 -2.37005e-05
0.000941898 -1.04212e-05 2.09767e-06
-1.04212e-05 -8.72936e-05 1.27355e-06
2.09767e-06 1.27355e-06 -0.000131937
0.00110887 1.13219e-05 1.36741e-06
1.13219e-05 -7.61749e-05 -7.6325e-08
1.36741e-06 -7.6325e-08 -0.000111014
0.00166681 3.37106e-05 -7.99629e-07
3.37106e-05 0.000231139 4.80757e-07
-7.99629e-07 4.80757e-07 0.00016369
0.000972763 2.25738e-05 -2.99615e-07
2.25738e-05 -1.69583e-05 -3.70994e-07
-2.99615e-07 -3.70994e-07 -9.49506e-05
0.00138104 3.09402e-05 -6.26287e-07
3.09402e-05 0.000175918 2.91607e-08
-6.26287e-07 2.91607e-08 8.70049e-05
0.00121135 1.98143e-05 1.58306e-08
1.98143e-05 0.000114344 1.96137e-08
1.58306e-08 1.96137e-08 3.99709e-05
0.00115246 2.34275e-06 -1.3929e-06
2.34275e-06 -5.59786e-05 9.69148e-08
-1.3929e-06 9.69148e-08 -8.67177e-05
0.00120763 2.27647e-05 -9.79379e-08
2.27647e-05 0.000101702 -1.01463e-08
-9.79379e-08 -1.01463e-08 2.33349e-05
0.00126862 2.76402e-05 -1.75333e-07
2.76402e-05 0.000131755 3.22878e-07
-1.75333e-07 3.22878e-07 4.36795e-05
0.00137401 3.26152e-05 1.56292e-06
3.26152e-05 1.90259e-05 -1.03413e-06
1.56292e-06 -1.03413e-06 -3.42475e-05
0.00121544 3.39657e-05 -2.82922e-07
3.39657e-05 7.95922e-05 6.2572e-07
-2.82922e-07 6.2572e-07 -1.31745e-05
0.00189167 -4.82453e-05 -1.05717e-06
-4.82453e-05 5.52519e-05 4.67162e-07
-1.05717e-06 4.67162e-07 7.90784e-05
0.00122082 1.98793e-05 -1.75872e-07
1.98793e-05 0.000121495 -3.22718e-07
-1.75872e-07 -3.22718e-07 4.31324e-05
0.00102982 3.6963e-05 6.58477e-06
3.6963e-05 -0.000224201 2.17032e-06
6.58477e-06 2.17032e-06 -0.00028107
0.00127358 2.37993e-05 -7.62377e-07
2.37993e-05 0.00014577 -2.05018e-07
-7.62377e-07 -2.05018e-07 6.2187e-05
0.00123233 3.02013e-05 -1.34219e-06
3.02013e-05 0.000142051 1.49773e-06
-1.34219e-06 1.49773e-06 3.87942e-05
0.000690648 4.14328e-05 1.65636e-06
4.14328e-05 -0.000221879 -1.04394e-06
1.65636e-06 -1.04394e-06 -0.000312708
0.00506267 3.68629e-05 -2.68171e-06
3.68629e-05 0.00160081 -1.20375e-06
-2.68171e-06 -1.20375e-06 0.00131251
0.000388693 -3.05087e-05 3.26125e-05
-3.05087e-05 -0.000196789 1.07283e-05
3.26125e-05 1.07283e-05 -0.000329078
0.00211088 -6.51206e-06 -1.10268e-05
-6.51206e-06 7.53092e-05 -7.09769e-06
-1.10268e-05 -7.09769e-06 0.00011355
-0.00285581 -3.74241e-05 -4.46386e-05
-3.74241e-05 -0.00143345 -1.52929e-05
-4.46386e-05 -1.52929e-05 -0.00144761
0.000793359 -5.18003e-05 2.29737e-07
-5.18003e-05 3.08355e-05 6.09029e-07
2.29737e-07 6.09029e-07 0.000169635
0.00112413 1.77724e-05 -2.70078e-07
1.77724e-05 7.35095e-05 -3.08505e-07
-2.70078e-07 -3.08505e-07 1.03172e-06
0.00117524 1.82651e-05 -1.3397e-08
1.82651e-05 9.65407e-05 -9.13824e-08
-1.3397e-08 -9.13824e-08 2.0971e-05
0.00115921 1.65249e-05 2.90621e-07
1.65249e-05 8.43535e-05 -9.91291e-08
2.90621e-07 -9.91291e-08 6.95208e-06
0.00106996 -7.09574e-06 4.8234e-08
-7.09574e-06 3.11568e-05 -1.01746e-06
4.8234e-08 -1.01746e-06 -1.3102e-05
0.00098349 6.32371e-06 -1.02981e-07
6.32371e-06 -5.7254e-06 -6.8502e-07
-1.02981e-07 -6.8502e-07 -6.28007e-05
0.00114447 7.48435e-07 -1.27617e-07
7.48435e-07 7.46983e-05 -5.45418e-07
-1.27617e-07 -5.45418e-07 1.05375e-05
0.00122123 4.88722e-06 -1.64085e-07
4.88722e-06 0.000113192 -5.11277e-07
-1.64085e-07 -5.11277e-07 4.2515e-05
0.00110295 1.61042e-05 -7.93826e-07
1.61042e-05 5.50379e-05 -6.18541e-07
-7.93826e-07 -6.18541e-07 -1.99735e-05
0.00113345 1.22085e-05 -9.24019e-08
1.22085e-05 6.82901e-05 -3.22913e-07
-9.24019e-08 -3.22913e-07 3.60921e-06
0.000978977 -8.23479e-07 -1.65475e-08
-8.23479e-07 -1.31244e-05 3.96615e-07
-1.65475e-08 3.96615e-07 -5.81153e-05
0.00102615 -2.34545e-07 1.1355e-08
-2.34545e-07 1.57178e-05 1.03685e-08
1.1355e-08 1.03685e-08 -4.14322e-05
0.00116011 1.06044e-05 -3.11423e-08
1.06044e-05 7.90131e-05 1.84193e-07
-3.11423e-08 1.84193e-07 3.31391e-06
0.00117298 1.10429e-05 -6.30273e-08
1.10429e-05 8.76813e-05 -2.9349e-07
-6.30273e-08 -2.9349e-07 1.7567e-05
0.00119417 1.83985e-05 -3.61705e-08
1.83985e-05 9.80959e-05 -1.46085e-07
-3.61705e-08 -1.46085e-07 2.84224e-05
0.00119711 1.29587e-05 -7.84513e-09
1.29587e-05 9.51469e-05 2.43001e-07
-7.84513e-09 2.43001e-07 2.07012e-05
0.00104796 1.34165e-05 1.13856e-07
1.34165e-05 2.59041e-05 8.14247e-07
1.13856e-07 8.14247e-07 -4.03647e-05
0.000959869 -1.08006e-06 3.94322e-08
-1.08006e-06 -1.64165e-05 3.07273e-07
3.94322e-08 3.07273e-07 -7.44407e-05
0.000888991 -4.09954e-06 -2.32824e-07
-4.09954e-06 -5.6785e-05 1.37646e-06
-2.32824e-07 1.37646e-06 -0.000102376
0.00114833 1.83607e-06 -2.78235e-08
1.83607e-06 7.5691e-05 5.87927e-07
-2.78235e-08 5.87927e-07 1.89779e-05
0.00124414 2.87766e-06 -5.40154e-08
2.87766e-06 0.000125682 1.31903e-07
-5.40154e-08 1.31903e-07 6.04662e-05
0.00108598 -4.82643e-06 -2.04949e-07
-4.82643e-06 4.64875e-05 6.92664e-07
-2.04949e-07 6.92664e-07 -1.16492e-05
0.00112039 -8.13479e-07 1.41111e-07
-8.13479e-07 6.27594e-05 -3.98952e-07
1.41111e-07 -3.98952e-07 5.55743e-06
0.00106988 -2.38914e-06 -2.68208e-07
-2.38914e-06 3.15465e-05 1.02826e-06
-2.68208e-07 1.02826e-06 -1.32455e-05
0.000894786 1.56705e-06 -4.93098e-09
1.56705e-06 -5.39123e-05 3.90552e-07
-4.93098e-09 3.90552e-07 -9.94848e-05
0.00103671 2.12413e-06 -3.35062e-07
2.12413e-06 5.68134e-06 1.74264e-06
-3.35062e-07 1.74264e-06 -2.07408e-05
0.00103706 9.47036e-07 3.99001e-08
9.47036e-07 5.11354e-06 5.65076e-09
3.99001e-08 5.65076e-09 -2.12204e-05
0.00100108 1.26428e-06 -3.77278e-07
1.26428e-06 -2.24803e-05 4.29409e-06
-3.77278e-07 4.29409e-06 -2.10238e-05
0.00103813 -3.46272e-07 5.43957e-08
-3.46272e-07 5.54713e-06 -1.76971e-06
5.43957e-08 -1.76971e-06 -2.0697e-05
0.000977365 -3.1884e-07 7.82722e-08
-3.1884e-07 -3.40765e-05 2.9122e-09
7.82722e-08 2.9122e-09 -3.24168e-05
0.00232816 -5.48337e-07 7.683e-08
-5.48337e-07 0.000623399 3.90084e-06
7.683e-08 3.90084e-06 0.000647874
0.000997127 -1.88667e-06 -3.73241e-07
-1.88667e-06 -2.34853e-05 -4.31793e-06
-3.73241e-07 -4.31793e-06 -2.19359e-05
0.00174532 -2.3474e-06 -2.49956e-08
-2.3474e-06 0.000338859 2.77332e-08
-2.49956e-08 2.77332e-08 0.000360557
0.00112289 -4.01946e-06 -5.1427e-07
-4.01946e-06 3.61506e-05 -1.50575e-06
-5.1427e-07 -1.50575e-06 5.51406e-05
0.00103229 1.29116e-06 1.18293e-07
1.29116e-06 1.41088e-06 -1.76831e-06
1.18293e-07 -1.76831e-06 -2.03794e-05
0.00103652 2.50527e-06 -3.17397e-08
2.50527e-06 4.77504e-06 -5.06966e-09
-3.17397e-08 -5.06966e-09 -1.79875e-05
0.000968432 3.26009e-06 5.36541e-07
3.26009e-06 -3.6867e-05 -3.02577e-06
5.36541e-07 -3.02577e-06 -3.31239e-05
0.00103833 3.44795e-06 -6.23963e-07
3.44795e-06 7.65322e-06 1.72527e-06
-6.23963e-07 1.72527e-06 -1.64348e-05
0.00124202 4.94018e-06 -5.44036e-09
4.94018e-06 9.90233e-05 -5.70863e-07
-5.44036e-09 -5.70863e-07 0.000103124
0.00227398 6.14175e-06 3.13048e-06
6.14175e-06 0.000600134 -3.7816e-06
3.13048e-06 -3.7816e-06 0.000624759
0.00096765 6.16564e-06 -1.41136e-06
6.16564e-06 -3.21483e-05 2.94476e-06
-1.41136e-06 2.94476e-06 -3.07608e-05
0.00231558 8.07077e-06 -1.44352e-06
8.07077e-06 0.000624332 1.11483e-06
-1.44352e-06 1.11483e-06 0.000647926
0.00230594 1.02506e-05 -5.33066e-06
1.02506e-05 0.000623649 3.76938e-06
-5.33066e-06 3.76938e-06 0.000646533
0.00120468 -1.89096e-05 -1.68343e-07
-1.89096e-05 6.15784e-05 2.60241e-07
-1.68343e-07 2.60241e-07 -2.00238e-06
0.00120337 5.52452e-07 -5.25098e-07
5.52452e-07 7.48923e-05 -9.71371e-07
-5.25098e-07 -9.71371e-07 1.0354e-05
0.00105392 -2.09599e-05 6.46778e-06
-2.09599e-05 3.37085e-05 1.73512e-06
6.46778e-06 1.73512e-06 -1.05494e-05
0.00102325 -4.48121e-05 -4.20804e-06
-4.48121e-05 -3.09276e-05 -2.37154e-06
-4.20804e-06 -2.37154e-06 -2.12503e-05
0.00112998 -2.70902e-06 -2.33878e-07
-2.70902e-06 3.89381e-05 -3.94042e-07
-2.33878e-07 -3.94042e-07 -2.55405e-05
0.000968861 -4.28981e-06 -1.57378e-08
-4.28981e-06 -5.83727e-06 -1.89611e-06
-1.57378e-08 -1.89611e-06 -4.17193e-05
0.000950723 1.91226e-05 -9.80784e-07
1.91226e-05 -6.17629e-05 3.7968e-06
-9.80784e-07 3.7968e-06 -0.00013343
0.00117474 -2.5071e-05 8.45958e-05
-2.5071e-05 -0.000133685 2.26102e-05
8.45958e-05 2.26102e-05 -0.000240911
0.00116988 -9.3932e-06 -7.74043e-06
-9.3932e-06 0.000259033 3.76775e-06
-7.74043e-06 3.76775e-06 0.000238788
0.00107248 -3.64966e-07 9.26931e-08
-3.64966e-07 2.75935e-05 -9.17093e-07
9.26931e-08 -9.17093e-07 -1.03526e-05
0.00107611 -9.75839e-07 -1.7821e-07
-9.75839e-07 3.01631e-05 5.84787e-09
-1.7821e-07 5.84787e-09 -8.89432e-06
0.00106967 1.12349e-05 -3.67983e-07
1.12349e-05 3.498e-05 -5.05058e-07
-3.67983e-07 -5.05058e-07 -1.63945e-05
0.00108063 -3.3174e-06 -7.06804e-09
-3.3174e-06 4.03245e-05 -1.40247e-07
-7.06804e-09 -1.40247e-07 -8.49312e-06
0.0012894 2.27406e-05 -5.81823e-07
2.27406e-05 5.74894e-05 3.16358e-07
-5.81823e-07 3.16358e-07 -1.54121e-05
0.00142624 7.33439e-06 2.19199e-06
7.33439e-06 9.32096e-05 2.04517e-06
2.19199e-06 2.04517e-06 4.08829e-05
0.00123306 -1.81521e-05 1.54542e-06
-1.81521e-05 -1.80836e-05 -9.21807e-07
1.54542e-06 -9.21807e-07 -5.11452e-05
0.00115821 -2.31471e-05 5.50464e-08
-2.31471e-05 7.16692e-05 6.12266e-07
5.50464e-08 6.12266e-07 3.42093e-06
0.000938874 -2.52262e-05 6.33822e-07
-2.52262e-05 -2.72002e-05 -9.16267e-08
6.33822e-07 -9.16267e-08 -0.000106055
0.00108393 -2.49263e-05 5.66057e-08
-2.49263e-05 -2.28536e-05 -1.94953e-06
5.66057e-08 -1.94953e-06 -7.96755e-05
0.00113118 -2.38091e-05 -7.8569e-07
-2.38091e-05 6.01895e-05 -6.57725e-08
-7.8569e-07 -6.57725e-08 -1.10487e-05
0.0011686 -2.22779e-05 -9.64393e-07
-2.22779e-05 8.16503e-05 -3.74602e-07
-9.64393e-07 -3.74602e-07 5.57965e-06
0.00118605 -2.09201e-05 -7.15303e-07
-2.09201e-05 9.33541e-05 8.40986e-07
-7.15303e-07 8.40986e-07 1.68216e-05
0.0010753 -1.14027e-06 -4.02749e-07
-1.14027e-06 3.43584e-05 1.00108e-06
-4.02749e-07 1.00108e-06 -9.26712e-06
0.00120574 -1.82317e-05 -5.14968e-07
-1.82317e-05 0.000104464 1.84863e-07
-5.14968e-07 1.84863e-07 3.49118e-05
0.00110791 -3.49654e-06 -2.48862e-07
-3.49654e-06 6.04065e-05 8.00268e-07
-2.48862e-07 8.00268e-07 4.33572e-07
0.00107037 1.43832e-06 -1.07061e-07
1.43832e-06 2.84901e-05 6.00857e-07
-1.07061e-07 6.00857e-07 -1.1682e-05
0.00100083 1.52615e-06 -3.66416e-07
1.52615e-06 4.11264e-06 1.24661e-06
-3.66416e-07 1.24661e-06 -5.26999e-05
0.00136689 2.38919e-05 1.65094e-07
2.38919e-05 8.96878e-05 1.1394e-06
1.65094e-07 1.1394e-06 1.71522e-05
0.00107948 1.08464e-05 -4.65315e-08
1.08464e-05 4.14708e-05 -3.75464e-07
-4.65315e-08 -3.75464e-07 -1.1828e-05
0.00101762 -4.95813e-06 1.96978e-07
-4.95813e-06 1.35426e-05 8.08159e-09
1.96978e-07 8.08159e-09 -4.4615e-05
0.00109668 2.73422e-06 5.6625e-08
2.73422e-06 5.89668e-05 8.07565e-07
5.6625e-08 8.07565e-07 -5.44987e-06
0.0014297 -3.75301e-06 9.07435e-08
-3.75301e-06 6.07816e-05 4.05963e-07
9.07435e-08 4.05963e-07 3.48777e-05
0.00128436 -2.6459e-05 -7.4864e-07
-2.6459e-05 8.84801e-06 -9.78468e-07
-7.4864e-07 -9.78468e-07 -3.11306e-05
0.00112346 -2.57091e-05 9.33549e-08
-2.57091e-05 6.79393e-05 -1.96894e-07
9.33549e-08 -1.96894e-07 -6.20507e-06
0.00130072 -3.01442e-05 1.42243e-07
-3.01442e-05 0.00012703 4.33623e-07
1.42243e-07 4.33623e-07 5.28233e-05
0.00122186 -1.70374e-05 1.36967e-08
-1.70374e-05 0.000118157 -7.30856e-09
1.36967e-08 -7.30856e-09 4.61576e-05
0.00108182 -1.97637e-05 -4.71821e-07
-1.97637e-05 4.15875e-05 7.0394e-07
-4.71821e-07 7.0394e-07 -3.34568e-05
0.00115019 -2.50738e-05 -1.15646e-07
-2.50738e-05 7.71224e-05 -1.20789e-07
-1.15646e-07 -1.20789e-07 -3.55457e-06
0.00124836 -2.24941e-05 4.34183e-07
-2.24941e-05 0.000128424 -2.69666e-07
4.34183e-07 -2.69666e-07 4.43848e-05
0.00132925 2.1431e-05 -1.60377e-06
2.1431e-05 3.41209e-05 -3.929e-06
-1.60377e-06 -3.929e-06 -1.65339e-05
0.00145427 -2.70001e-05 -1.96504e-06
-2.70001e-05 3.10614e-05 -1.97497e-06
-1.96504e-06 -1.97497e-06 1.67568e-05
0.0014849 -3.52199e-05 1.66069e-06
-3.52199e-05 0.000156805 2.40388e-06
1.66069e-06 2.40388e-06 8.55771e-05
0.00117235 -3.08963e-05 3.6292e-07
-3.08963e-05 8.9409e-05 -1.83655e-07
3.6292e-07 -1.83655e-07 1.03593e-05
0.00105122 6.26197e-06 -2.28903e-07
6.26197e-06 3.615e-05 -4.05389e-07
-2.28903e-07 -4.05389e-07 -3.09308e-05
0.00105381 -1.4414e-05 5.34276e-08
-1.4414e-05 3.6738e-05 -1.11773e-06
5.34276e-08 -1.11773e-06 -3.32251e-05
0.00111586 -1.97523e-05 1.94346e-07
-1.97523e-05 6.76965e-05 -4.31655e-07
1.94346e-07 -4.31655e-07 -1.5642e-05
0.00122695 -2.38352e-05 1.13628e-06
-2.38352e-05 0.000121194 2.66335e-07
1.13628e-06 2.66335e-07 2.89557e-05
0.00119034 2.70309e-05 6.78042e-07
2.70309e-05 -0.00047975 1.80747e-06
6.78042e-07 1.80747e-06 -0.000690156
0.00118776 1.95951e-05 -8.10778e-08
1.95951e-05 0.000103008 -2.19701e-07
-8.10778e-08 -2.19701e-07 2.90806e-05
0.00106093 2.15512e-05 1.01397e-07
2.15512e-05 3.14764e-05 3.23629e-07
1.01397e-07 3.23629e-07 -4.69079e-05
0.00100975 1.9725e-06 -9.56145e-07
1.9725e-06 -0.000115909 1.11945e-06
-9.56145e-07 1.11945e-06 -0.000145061
0.00159402 3.21958e-05 -1.22331e-06
3.21958e-05 0.000119144 -1.25606e-07
-1.22331e-06 -1.25606e-07 6.89517e-05
0.00137641 3.55595e-05 -1.56828e-06
3.55595e-05 0.000159867 1.28778e-06
-1.56828e-06 1.28778e-06 6.56115e-05
0.00102425 2.53755e-05 3.09054e-08
2.53755e-05 1.74576e-05 -2.01264e-07
3.09054e-08 -2.01264e-07 -7.09874e-05
0.00229584 -3.89408e-05 5.09414e-06
-3.89408e-05 0.000336249 9.24331e-06
5.09414e-06 9.24331e-06 0.000336274
0.00118254 1.94949e-05 7.93012e-08
1.94949e-05 0.000103941 -1.3344e-07
7.93012e-08 -1.3344e-07 2.58501e-05
0.00143479 3.66582e-05 2.08552e-06
3.66582e-05 -3.66111e-05 -2.61187e-08
2.08552e-06 -2.61187e-08 -9.26593e-05
0.00114564 2.25435e-05 1.66764e-08
2.25435e-05 8.47171e-05 -2.58444e-07
1.66764e-08 -2.58444e-07 1.70898e-06
0.00112692 2.89969e-05 -6.9728e-07
2.89969e-05 9.01683e-05 7.36662e-07
-6.9728e-07 7.36662e-07 -1.22313e-05
0.000929671 4.18525e-05 1.48193e-07
4.18525e-05 -0.000113609 -3.5087e-07
1.48193e-07 -3.5087e-07 -0.000200685
0.000666463 3.42906e-05 -1.16308e-05
3.42906e-05 -0.000411768 -3.16625e-06
-1.16308e-05 -3.16625e-06 -0.000702187
0.00192785 -1.24383e-05 8.07317e-06
-1.24383e-05 0.000234118 -1.6481e-06
8.07317e-06 -1.6481e-06 -2.09398e-06
0.00220367 3.81155e-06 -1.95461e-06
3.81155e-06 0.000121123 -6.80733e-07
-1.95461e-06 -6.80733e-07 0.000148359
-0.000540186 -3.94638e-05 -1.03844e-05
-3.94638e-05 -0.000428293 -3.42588e-06
-1.03844e-05 -3.42588e-06 -0.000481667
0.000454071 -5.30874e-05 -1.72984e-06
-5.30874e-05 -0.000130128 7.72994e-07
-1.72984e-06 7.72994e-07 -3.89899e-06
0.00113966 1.86708e-05 2.52197e-07
1.86708e-05 9.17624e-05 -3.29405e-07
2.52197e-07 -3.29405e-07 1.24068e-05
0.000654244 1.9674e-05 -6.17016e-05
1.9674e-05 0.000132223 -6.84762e-06
-6.17016e-05 -6.84762e-06 3.40981e-05
0.00126593 -2.79502e-05 7.57384e-06
-2.79502e-05 0.000459772 6.18761e-06
7.57384e-06 6.18761e-06 0.000522498
0.00135426 5.58045e-05 5.22948e-06
5.58045e-05 1.28917e-05 4.87336e-06
5.22948e-06 4.87336e-06 -7.75881e-05
0.00117667 2.14133e-05 -4.41233e-07
2.14133e-05 0.000129046 5.50009e-08
-4.41233e-07 5.50009e-08 3.71259e-05
0.00144463 3.43024e-05 -2.08913e-06
3.43024e-05 0.000270227 -3.75007e-07
-2.08913e-06 -3.75007e-07 0.000147801
0.00204092 1.29726e-05 -2.44468e-05
1.29726e-05 0.000187983 -2.71613e-05
-2.44468e-05 -2.71613e-05 0.000121323
0.00527153 1.40206e-05 -4.39551e-05
1.40206e-05 0.00153237 -1.77532e-05
-4.39551e-05 -1.77532e-05 0.00111283
0.00128544 3.61489e-05 2.60943e-05
3.61489e-05 0.000144162 2.15466e-05
2.60943e-05 2.15466e-05 -0.000205046
6.16047e-05 -9.11617e-05 -4.34868e-05
-9.11617e-05 -3.07956e-05 -2.8392e-05
-4.34868e-05 -2.8392e-05 -3.51339e-05
-0.000538312 -3.12083e-05 6.75187e-06
-3.12083e-05 -0.00069471 -1.1864e-06
6.75187e-06 -1.1864e-06 -0.000636725
0.00113065 1.77746e-05 -3.69527e-07
1.77746e-05 7.56326e-05 -2.21711e-07
-3.69527e-07 -2.21711e-07 1.33122e-07
0.00117894 1.68393e-05 -1.34285e-07
1.68393e-05 9.4001e-05 2.24823e-08
-1.34285e-07 2.24823e-08 1.65684e-05
0.0011713 1.59804e-05 -3.23903e-08
1.59804e-05 8.23153e-05 -1.36127e-07
-3.23903e-08 -1.36127e-07 4.97788e-06
0.00106937 -1.19161e-06 2.32773e-08
-1.19161e-06 3.08385e-05 -5.95456e-07
2.32773e-08 -5.95456e-07 -1.35967e-05
0.00109055 -2.94539e-06 2.70959e-08
-2.94539e-06 4.72708e-05 -6.53412e-07
2.70959e-08 -6.53412e-07 -9.43611e-06
0.00103381 9.1219e-06 -2.63411e-07
9.1219e-06 1.94867e-05 -8.35138e-07
-2.63411e-07 -8.35138e-07 -4.58377e-05
0.00113893 1.11211e-05 -1.24637e-07
1.11211e-05 7.0511e-05 -7.03082e-07
-1.24637e-07 -7.03082e-07 1.92899e-07
0.00119257 9.8958e-06 -2.02895e-07
9.8958e-06 9.59713e-05 -2.30645e-08
-2.02895e-07 -2.30645e-08 2.05965e-05
0.000892101 -4.35352e-07 2.27508e-08
-4.35352e-07 -5.52944e-05 3.90847e-07
2.27508e-08 3.90847e-07 -0.000100904
0.00114176 1.50403e-05 -1.54938e-07
1.50403e-05 7.19574e-05 -4.86244e-07
-1.54938e-07 -4.86244e-07 2.37913e-06
0.00114142 6.67234e-06 2.39869e-08
6.67234e-06 7.19243e-05 3.36008e-07
2.39869e-08 3.36008e-07 6.45218e-06
0.00104749 1.05952e-06 5.20707e-08
1.05952e-06 2.6163e-05 -3.0743e-07
5.20707e-08 -3.0743e-07 -3.12769e-05
0.00115765 1.26424e-05 4.75146e-08
1.26424e-05 7.57225e-05 2.08279e-07
4.75146e-08 2.08279e-07 9.90391e-07
0.00109731 1.25609e-05 2.59574e-08
1.25609e-05 4.8507e-05 3.19119e-07
2.59574e-08 3.19119e-07 -2.37138e-05
0.00117208 1.08551e-05 9.39025e-08
1.08551e-05 8.49698e-05 6.81612e-08
9.39025e-08 6.81612e-08 8.72909e-06
0.00113035 -5.21998e-06 -9.17957e-08
-5.21998e-06 6.79144e-05 4.67886e-07
-9.17957e-08 4.67886e-07 1.3838e-06
0.00114035 -4.78934e-06 -3.9108e-08
-4.78934e-06 7.1636e-05 2.26579e-07
-3.9108e-08 2.26579e-07 1.48222e-05
0.00114579 -3.80227e-07 8.93455e-10
-3.80227e-07 7.4588e-05 -6.62839e-08
8.93455e-10 -6.62839e-08 1.78681e-05
0.00114736 -3.27254e-06 -5.97809e-08
-3.27254e-06 7.83067e-05 -3.16091e-07
-5.97809e-08 -3.16091e-07 1.23941e-05
0.00113923 2.3711e-06 -9.80982e-08
2.3711e-06 7.38536e-05 5.60496e-07
-9.80982e-08 5.60496e-07 7.76585e-06
0.00111366 -7.75791e-06 -8.78329e-08
-7.75791e-06 6.3326e-05 4.76848e-07
-8.78329e-08 4.76848e-07 -3.80301e-06
0.00116099 -1.056e-05 -9.8448e-09
-1.056e-05 8.73143e-05 -1.34231e-07
-9.8448e-09 -1.34231e-07 1.603e-05
0.00110042 -1.69281e-05 -7.10492e-07
-1.69281e-05 5.512e-05 3.74667e-07
-7.10492e-07 3.74667e-07 -1.38641e-05
0.00108526 -7.4924e-06 -2.10466e-07
-7.4924e-06 4.67419e-05 7.10268e-07
-2.10466e-07 7.10268e-07 -1.27385e-05
0.00109291 -6.80438e-06 -7.87836e-09
-6.80438e-06 4.99313e-05 -1.4041e-08
-7.87836e-09 -1.4041e-08 -8.22791e-06
0.0010674 -4.29133e-06 -4.37756e-07
-4.29133e-06 3.05482e-05 1.04573e-06
-4.37756e-07 1.04573e-06 -1.47844e-05
0.000975063 -2.84539e-06 3.07496e-07
-2.84539e-06 -8.07673e-06 -1.09914e-06
3.07496e-07 -1.09914e-06 -6.62386e-05
0.000984056 -1.46942e-06 6.51123e-08
-1.46942e-06 -1.02371e-05 -6.86266e-09
6.51123e-08 -6.86266e-09 -5.55649e-05
0.00103407 3.06282e-06 -5.37387e-07
3.06282e-06 5.71022e-06 1.73279e-06
-5.37387e-07 1.73279e-06 -2.09388e-05
0.000896272 2.39327e-06 1.56151e-07
2.39327e-06 -5.31472e-05 -5.98088e-07
1.56151e-07 -5.98088e-07 -9.87455e-05
0.00103654 2.08591e-06 5.16683e-08
2.08591e-06 5.50925e-06 5.45307e-09
5.16683e-08 5.45307e-09 -2.08994e-05
0.0015758 2.99233e-06 -1.31661e-06
2.99233e-06 0.000260021 4.23806e-06
-1.31661e-06 4.23806e-06 0.000264026
0.00103705 9.07378e-07 2.36492e-07
9.07378e-07 5.05037e-06 -1.756e-06
2.36492e-07 -1.756e-06 -2.12726e-05
0.00127688 1.36112e-06 -2.90004e-07
1.36112e-06 0.000112691 5.969e-07
-2.90004e-07 5.969e-07 0.000115559
0.0011797 1.17796e-06 -8.01531e-07
1.17796e-06 6.07744e-05 3.79853e-06
-8.01531e-07 3.79853e-06 7.97462e-05
0.000978903 -3.22635e-07 8.12253e-08
-3.22635e-07 -3.33174e-05 -3.08054e-06
8.12253e-08 -3.08054e-06 -3.1672e-05
0.00232458 -4.62772e-07 3.98625e-07
-4.62772e-07 0.000621636 2.25928e-10
3.98625e-07 2.25928e-10 0.000646123
0.00116884 -1.99001e-06 -4.41995e-07
-1.99001e-06 5.65962e-05 -3.80837e-06
-4.41995e-07 -3.80837e-06 7.55911e-05
0.00108357 -9.75619e-07 -1.81866e-08
-9.75619e-07 3.36112e-05 -5.48542e-07
-1.81866e-08 -5.48542e-07 -4.56469e-06
0.00103355 8.70289e-10 -1.97407e-08
8.70289e-10 1.31766e-06 -1.77125e-06
-1.97407e-08 -1.77125e-06 -2.00221e-05
0.00103713 1.26815e-06 -5.73698e-08
1.26815e-06 3.74826e-06 -1.85928e-09
-5.73698e-08 -1.85928e-09 -1.80821e-05
0.000972877 1.63107e-06 2.71049e-07
1.63107e-06 -3.58618e-05 -3.02824e-06
2.71049e-07 -3.02824e-06 -3.15317e-05
0.00104022 2.48237e-06 -3.96147e-07
2.48237e-06 6.49474e-06 1.78187e-06
-3.96147e-07 1.78187e-06 -1.62801e-05
0.000968496 3.24176e-06 2.97888e-08
3.24176e-06 -3.69592e-05 -5.9513e-07
2.97888e-08 -5.9513e-07 -3.31879e-05
0.00225045 4.09765e-06 2.0267e-06
4.09765e-06 0.000586538 -3.78347e-06
2.0267e-06 -3.78347e-06 0.000611743
0.00150655 5.30414e-06 -9.72158e-07
5.30414e-06 0.000228733 1.83705e-06
-9.72158e-07 1.83705e-06 0.000234045
0.00173212 5.80074e-06 -7.02389e-08
5.80074e-06 0.000335562 1.13717e-06
-7.02389e-08 1.13717e-06 0.000357337
0.00120254 7.20456e-06 -4.70836e-06
7.20456e-06 7.99451e-05 6.10864e-06
-4.70836e-06 6.10864e-06 9.80434e-05
0.000903158 -4.31067e-05 1.24648e-06
-4.31067e-05 -8.56217e-05 2.25433e-06
1.24648e-06 2.25433e-06 -6.93733e-05
0.000867934 -3.13926e-06 -2.11572e-07
-3.13926e-06 -7.92271e-05 -6.67767e-07
-2.11572e-07 -6.67767e-07 -0.000143648
0.000906304 -3.66737e-06 -1.7095e-07
-3.66737e-06 -4.29341e-05 -4.95671e-06
-1.7095e-07 -4.95671e-06 -8.58227e-05
0.000648674 -3.47047e-05 3.02947e-05
-3.47047e-05 -0.000167429 4.7676e-06
3.02947e-05 4.7676e-06 -0.000252215
0.000713717 -1.27277e-05 -2.71702e-06
-1.27277e-05 4.1112e-05 4.57979e-07
-2.71702e-06 4.57979e-07 2.66602e-05
0.00103046 2.05391e-05 -5.90506e-07
2.05391e-05 -3.61977e-05 -9.49098e-07
-5.90506e-07 -9.49098e-07 -0.000110822
0.0010847 3.2426e-05 -2.48849e-06
3.2426e-05 0.000115921 5.16095e-06
-2.48849e-06 5.16095e-06 4.57091e-05
0.000583677 1.02855e-06 6.84666e-05
1.02855e-06 -0.000290746 7.49439e-06
6.84666e-05 7.49439e-06 -0.000430465
0.00530064 1.3909e-06 -2.36267e-05
1.3909e-06 0.00133606 8.6243e-06
-2.36267e-05 8.6243e-06 0.00100113
0.00171099 6.4537e-05 -1.82728e-05
6.4537e-05 0.000727041 1.03107e-05
-1.82728e-05 1.03107e-05 0.000647588
0.00103712 3.88874e-05 -9.63726e-07
3.88874e-05 0.000287062 -1.11539e-06
-9.63726e-07 -1.11539e-06 0.000380384
0.00092349 -2.62628e-07 1.79309e-07
-2.62628e-07 -3.64528e-05 -9.41469e-07
1.79309e-07 -9.41469e-07 -8.68152e-05
0.00107675 -9.68389e-07 1.5177e-07
-9.68389e-07 2.97019e-05 1.58073e-08
1.5177e-07 1.58073e-08 -8.30021e-06
0.00108412 -1.95811e-06 -2.29112e-07
-1.95811e-06 3.40761e-05 1.04007e-06
-2.29112e-07 1.04007e-06 -5.06595e-06
0.00102567 1.01037e-05 -3.1778e-08
1.01037e-05 1.3879e-05 3.07475e-08
-3.1778e-08 3.07475e-08 -3.7739e-05
0.0011886 1.82939e-05 -1.74824e-08
1.82939e-05 9.70932e-05 2.47697e-07
-1.74824e-08 2.47697e-07 3.71135e-05
0.0011357 1.08543e-05 1.14378e-07
1.08543e-05 6.93045e-05 1.73952e-07
1.14378e-07 1.73952e-07 1.25493e-05
0.0011277 -6.46398e-07 1.65929e-07
-6.46398e-07 6.54456e-05 -1.23712e-06
1.65929e-07 -1.23712e-06 1.45601e-05
0.00102933 -7.37373e-06 -4.17084e-09
-7.37373e-06 1.58795e-05 3.78786e-07
-4.17084e-09 3.78786e-07 -3.35388e-05
0.00139379 2.31879e-05 7.27521e-07
2.31879e-05 0.00010136 1.77923e-06
7.27521e-07 1.77923e-06 3.0772e-05
0.00160523 -3.88571e-06 4.75572e-06
-3.88571e-06 0.000155022 1.39682e-06
4.75572e-06 1.39682e-06 0.00012627
0.00105979 -2.50287e-05 -1.67809e-06
-2.50287e-05 -9.98174e-05 -3.26569e-06
-1.67809e-06 -3.26569e-06 -0.00013907
0.00124188 -2.64812e-05 4.44029e-07
-2.64812e-05 0.000123507 1.28952e-07
4.44029e-07 1.28952e-07 4.91679e-05
0.0011062 -2.86127e-05 3.575e-07
-2.86127e-05 3.7336e-05 -2.03089e-07
3.575e-07 -2.03089e-07 -3.6137e-05
0.00114079 -2.50531e-05 -1.27298e-06
-2.50531e-05 7.19895e-05 -3.45843e-07
-1.27298e-06 -3.45843e-07 -8.47381e-06
0.00124226 -2.22485e-05 -1.01025e-07
-2.22485e-05 0.000126143 -2.41123e-08
-1.01025e-07 -2.41123e-08 4.24811e-05
0.00112466 -2.03378e-05 -8.25524e-07
-2.03378e-05 6.156e-05 9.30793e-07
-8.25524e-07 9.30793e-07 -1.27918e-05
0.00110277 -7.331e-06 -2.19803e-07
-7.331e-06 5.4902e-05 8.11853e-07
-2.19803e-07 8.11853e-07 -2.4799e-06
0.00126541 -1.63632e-05 -1.50098e-07
-1.63632e-05 0.000139687 3.58397e-07
-1.50098e-07 3.58397e-07 6.77993e-05
0.00126893 1.02397e-05 2.20367e-08
1.02397e-05 0.000133633 2.83451e-07
2.20367e-08 2.83451e-07 8.1349e-05
0.00104175 -3.67138e-06 -3.28442e-09
-3.67138e-06 3.18112e-05 1.27084e-06
-3.28442e-09 1.27084e-06 -3.18075e-05
0.00156722 2.27137e-05 1.28924e-06
2.27137e-05 0.000143076 -1.90381e-07
1.28924e-06 -1.90381e-07 9.13321e-05
0.00106616 4.94306e-06 -1.51539e-07
4.94306e-06 4.30348e-05 1.85475e-07
-1.51539e-07 1.85475e-07 -2.37222e-05
0.00113206 -1.50064e-05 7.03672e-08
-1.50064e-05 7.54347e-05 -3.0806e-07
7.03672e-08 -3.0806e-07 5.71558e-06
0.00137875 -2.61907e-05 -3.07271e-06
-2.61907e-05 -6.85546e-07 -1.56895e-06
-3.07271e-06 -1.56895e-06 -1.42166e-05
0.00104414 -3.23823e-05 1.30787e-06
-3.23823e-05 -4.73527e-05 9.23033e-07
1.30787e-06 9.23033e-07 -0.000116197
0.00119506 -3.13133e-05 -3.38723e-07
-3.13133e-05 9.67538e-05 -1.17806e-07
-3.38723e-07 -1.17806e-07 1.59399e-05
0.00113999 -1.97839e-05 -5.31751e-08
-1.97839e-05 8.00509e-05 -2.57841e-07
-5.31751e-08 -2.57841e-07 -3.05762e-06
0.0011772 -2.3432e-05 3.14527e-07
-2.3432e-05 9.62147e-05 3.17685e-07
3.14527e-07 3.17685e-07 4.65503e-06
0.00230892 1.32369e-06 -6.42529e-06
1.32369e-06 0.00031283 1.18166e-06
-6.42529e-06 1.18166e-06 0.000332117
0.00168471 -4.61269e-05 3.36962e-06
-4.61269e-05 0.000225889 3.09969e-06
3.36962e-06 3.09969e-06 0.000167672
0.000550654 -3.3761e-05 -3.14244e-07
-3.3761e-05 -0.000227077 -1.93491e-07
-3.14244e-07 -1.93491e-07 -0.000311321
0.0012608 -3.07688e-05 7.08262e-07
-3.07688e-05 0.00013307 6.95198e-07
7.08262e-07 6.95198e-07 3.72219e-05
0.00104957 -1.31278e-05 -4.56065e-08
-1.31278e-05 3.8353e-05 -6.3192e-07
-4.56065e-08 -6.3192e-07 -3.66168e-05
0.00114874 -1.78569e-05 -1.01937e-07
-1.78569e-05 8.94905e-05 -7.09474e-07
-1.01937e-07 -7.09474e-07 9.55899e-06
0.00131424 -2.01774e-05 3.44666e-10
-2.01774e-05 0.000172569 -6.92105e-07
3.44666e-10 -6.92105e-07 7.85014e-05
-0.00197954 3.18213e-06 -5.6701e-05
3.18213e-06 -0.000785934 7.55996e-07
-5.6701e-05 7.55996e-07 -0.000715949
0.00507127 1.45101e-05 -1.95179e-05
1.45101e-05 0.00151892 9.25427e-07
-1.95179e-05 9.25427e-07 0.00127761
0.00114629 1.91314e-05 2.05371e-07
1.91314e-05 8.73185e-05 -7.66606e-08
2.05371e-07 -7.66606e-08 9.50012e-06
0.00101804 2.12941e-05 7.09003e-07
2.12941e-05 2.38434e-05 -4.67029e-07
7.09003e-07 -4.67029e-07 -5.85919e-05
0.00192417 3.64605e-05 -4.89593e-06
3.64605e-05 0.000192044 1.97188e-07
-4.89593e-06 1.97188e-07 0.000136531
0.00124052 4.26786e-05 -1.27975e-06
4.26786e-05 2.8413e-05 5.35131e-07
-1.27975e-06 5.35131e-07 -5.49305e-05
0.00103852 2.78602e-05 -3.53042e-07
2.78602e-05 4.69059e-05 -5.10973e-07
-3.53042e-07 -5.10973e-07 -5.45378e-05
0.00565273 6.75255e-05 -1.83827e-06
6.75255e-05 0.00144528 3.23954e-06
-1.83827e-06 3.23954e-06 0.00108296
2.74009e-05 -3.32096e-05 -2.20684e-05
-3.32096e-05 -0.000179583 -9.8884e-06
-2.20684e-05 -9.8884e-06 -0.000341554
0.00224479 1.22752e-05 1.3764e-05
1.22752e-05 0.000142076 8.88507e-06
1.3764e-05 8.88507e-06 0.000159037
0.00216478 -6.31505e-05 1.89471e-05
-6.31505e-05 0.000936545 9.03418e-06
1.89471e-05 9.03418e-06 0.000854716
1.96097e-05 -5.39797e-05 5.75109e-06
-5.39797e-05 -0.000348444 3.43198e-06
5.75109e-06 3.43198e-06 -0.00023357
0.00113873 1.86756e-05 1.97786e-07
1.86756e-05 9.03446e-05 -1.15002e-07
1.97786e-07 -1.15002e-07 1.09965e-05
-0.00158874 7.9699e-06 -1.32316e-05
7.9699e-06 -0.000522487 -1.43152e-06
-1.32316e-05 -1.43152e-06 -0.000506839
0.00103921 -2.64933e-05 3.46504e-07
-2.64933e-05 0.00036374 -8.88769e-08
3.46504e-07 -8.88769e-08 0.000419922
0.00159119 5.73858e-05 1.4767e-06
5.73858e-05 0.000119872 1.49459e-06
1.4767e-06 1.49459e-06 2.9522e-05
0.00112005 2.03841e-05 3.09163e-07
2.03841e-05 0.000100396 -7.75803e-07
3.09163e-07 -7.75803e-07 9.79991e-06
0.00109014 3.11972e-05 1.46802e-08
3.11972e-05 0.000106176 3.62421e-07
1.46802e-08 3.62421e-07 -1.22665e-05
0.00206858 1.85906e-05 -1.76962e-05
1.85906e-05 0.000224944 -1.65222e-05
-1.76962e-05 -1.65222e-05 0.000155593
0.00370755 5.80792e-05 8.34464e-06
5.80792e-05 0.000654408 6.04186e-06
8.34464e-06 6.04186e-06 0.00014576
6.98227e-05 1.23847e-05 -6.55966e-06
1.23847e-05 -0.00014948 -1.05098e-05
-6.55966e-06 -1.05098e-05 -0.000292237
0.00171941 -0.000117463 -6.43315e-08
-0.000117463 0.000380419 4.56334e-06
-6.43315e-08 4.56334e-06 0.000283307
-0.000790586 -3.6504e-05 -7.77564e-07
-3.6504e-05 -0.000876026 -8.84154e-06
-7.77564e-07 -8.84154e-06 -0.000790278
0.00109885 1.49986e-05 -1.45269e-07
1.49986e-05 6.80793e-05 -3.87617e-07
-1.45269e-07 -3.87617e-07 -1.21284e-05
0.000116508 -5.70371e-06 1.07369e-05
-5.70371e-06 -0.000117748 4.65534e-06
1.07369e-05 4.65534e-06 -0.000110706
0.000755382 -9.01402e-06 1.12341e-05
-9.01402e-06 0.000168905 1.58524e-05
1.12341e-05 1.58524e-05 0.000152649
0.00143829 3.22657e-05 7.31621e-06
3.22657e-05 0.000268122 5.09137e-06
7.31621e-06 5.09137e-06 0.000120081
0.00124419 1.61106e-05 -4.1988e-06
1.61106e-05 0.000195005 -1.29816e-06
-4.1988e-06 -1.29816e-06 9.12512e-05
0.00280172 1.02414e-05 -8.49957e-06
1.02414e-05 0.000948819 -5.98651e-06
-8.49957e-06 -5.98651e-06 0.000900517
-0.000993436 3.97186e-05 -1.2879e-05
3.97186e-05 -0.000578687 -9.34855e-06
-1.2879e-05 -9.34855e-06 -0.000670018
0.00348275 -1.62067e-05 3.43966e-05
-1.62067e-05 0.000375389 2.07895e-05
3.43966e-05 2.07895e-05 -0.000146633
0.00217796 -0.000155569 -1.632e-05
-0.000155569 0.000405887 -2.67368e-05
-1.632e-05 -2.67368e-05 0.000301053
6.1438e-05 -1.13226e-05 5.98888e-06
-1.13226e-05 -0.000304049 1.51966e-06
5.98888e-06 1.51966e-06 -0.000319101
0.00120187 1.73347e-05 -2.35461e-07
1.73347e-05 0.000105234 4.30811e-07
-2.35461e-07 4.30811e-07 2.77557e-05
0.0011615 1.51231e-05 7.91571e-08
1.51231e-05 7.7917e-05 8.52837e-08
7.91571e-08 8.52837e-08 3.72256e-07
0.00113437 1.32574e-05 2.88608e-07
1.32574e-05 7.1448e-05 1.3175e-07
2.88608e-07 1.3175e-07 -6.41355e-06
0.000895693 3.16104e-06 9.88159e-08
3.16104e-06 -5.35785e-05 -5.9074e-07
9.88159e-08 -5.9074e-07 -9.92065e-05
0.00113413 3.05032e-06 2.35645e-08
3.05032e-06 6.83161e-05 -9.20168e-07
2.35645e-08 -9.20168e-07 1.14532e-05
0.00123333 -2.54318e-07 1.27533e-08
-2.54318e-07 0.000117248 -8.16654e-08
1.27533e-08 -8.16654e-08 5.25645e-05
0.00109491 1.21663e-05 -1.96996e-07
1.21663e-05 4.8389e-05 -8.69639e-07
-1.96996e-07 -8.69639e-07 -2.10942e-05
0.00111738 1.32004e-05 3.75408e-09
1.32004e-05 5.58756e-05 4.46408e-08
3.75408e-09 4.46408e-08 -1.91509e-05
0.00113683 3.07742e-06 9.37722e-08
3.07742e-06 7.00131e-05 -3.89857e-07
9.37722e-08 -3.89857e-07 1.31411e-05
0.00112828 1.1861e-05 2.55066e-08
1.1861e-05 6.38688e-05 1.01397e-07
2.55066e-08 1.01397e-07 -7.80785e-06
0.00113806 4.82138e-07 -5.64462e-08
4.82138e-07 7.16835e-05 8.89067e-08
-5.64462e-08 8.89067e-08 5.10806e-06
0.00116937 1.1768e-05 -5.33001e-09
1.1768e-05 8.36191e-05 5.7895e-08
-5.33001e-09 5.7895e-08 7.14879e-06
0.00112608 9.87991e-06 2.685e-08
9.87991e-06 6.88268e-05 -2.28195e-07
2.685e-08 -2.28195e-07 -9.69571e-06
0.00116884 7.73983e-06 8.25413e-08
7.73983e-06 8.62332e-05 3.67961e-07
8.25413e-08 3.67961e-07 1.21798e-05
0.00114586 3.64615e-06 7.50796e-08
3.64615e-06 7.58406e-05 4.81419e-07
7.50796e-08 4.81419e-07 9.47515e-06
0.00114253 -1.84224e-06 4.58232e-08
-1.84224e-06 7.31515e-05 -7.21429e-07
4.58232e-08 -7.21429e-07 1.64303e-05
0.00105193 -9.97851e-06 2.29229e-07
-9.97851e-06 3.15585e-05 -8.82527e-07
2.29229e-07 -8.82527e-07 -3.50604e-05
0.00114613 1.46176e-06 6.81551e-08
1.46176e-06 7.67736e-05 -2.58903e-08
6.81551e-08 -2.58903e-08 1.07207e-05
0.00111993 -8.48831e-06 -3.07897e-08
-8.48831e-06 6.62353e-05 6.7119e-09
-3.07897e-08 6.7119e-09 -9.67973e-07
0.00112159 -1.30204e-05 1.84096e-07
-1.30204e-05 6.78945e-05 -4.5389e-07
1.84096e-07 -4.5389e-07 -3.142e-06
0.00109097 -1.29975e-05 -2.53876e-07
-1.29975e-05 5.4213e-05 7.63786e-07
-2.53876e-07 7.63786e-07 -1.48449e-05
0.00117794 -5.71327e-06 -1.78249e-07
-5.71327e-06 9.3838e-05 7.32704e-08
-1.78249e-07 7.32704e-08 2.12333e-05
0.00103088 -1.68837e-05 3.22584e-08
-1.68837e-05 2.67609e-05 1.61366e-07
3.22584e-08 1.61366e-07 -4.73484e-05
0.00113093 -1.87283e-05 -2.38864e-07
-1.87283e-05 6.744e-05 -7.15386e-07
-2.38864e-07 -7.15386e-07 -3.94508e-06
0.00100494 -2.02681e-05 -3.83072e-08
-2.02681e-05 4.84314e-06 -5.42282e-08
-3.83072e-08 -5.42282e-08 -6.07735e-05
0.00104895 -1.85135e-05 -6.09265e-07
-1.85135e-05 2.60038e-05 -2.6354e-07
-6.09265e-07 -2.6354e-07 -4.05014e-05
0.00111398 -1.65816e-05 -2.76813e-07
-1.65816e-05 6.12403e-05 2.1431e-07
-2.76813e-07 2.1431e-07 -7.62554e-06
0.00109618 -1.21762e-05 -7.52155e-07
-1.21762e-05 5.07592e-05 9.79065e-07
-7.52155e-07 9.79065e-07 -9.3647e-06
0.00109453 -8.9574e-06 8.79363e-09
-8.9574e-06 5.12315e-05 -1.71838e-08
8.79363e-09 -1.71838e-08 -8.31685e-06
0.00106411 -4.20977e-06 -5.57187e-07
-4.20977e-06 2.94056e-05 1.06823e-06
-5.57187e-07 1.06823e-06 -1.67635e-05
0.00109752 -9.39755e-06 2.98621e-07
-9.39755e-06 5.22732e-05 -6.79779e-07
2.98621e-07 -6.79779e-07 -5.92381e-06
0.00106906 -3.31832e-06 6.68509e-08
-3.31832e-06 3.13574e-05 -1.05267e-08
6.68509e-08 -1.05267e-08 -1.3997e-05
0.00102903 3.81763e-06 -7.31798e-07
3.81763e-06 4.86869e-06 1.7302e-06
-7.31798e-07 1.7302e-06 -2.21948e-05
0.00089755 -8.41521e-07 3.32482e-07
-8.41521e-07 -5.23225e-05 -1.0316e-06
3.32482e-07 -1.0316e-06 -9.81867e-05
0.00103419 3.03914e-06 4.65814e-08
3.03914e-06 5.66351e-06 3.12538e-09
4.65814e-08 3.12538e-09 -2.09792e-05
0.00157353 4.6113e-06 -2.04092e-06
4.6113e-06 0.000260791 4.20445e-06
-2.04092e-06 4.20445e-06 0.00026448
0.00103602 2.04849e-06 4.41662e-07
2.04849e-06 5.16009e-06 -1.75355e-06
4.41662e-07 -1.75355e-06 -2.12334e-05
0.00127419 3.02865e-06 -4.70225e-07
3.02865e-06 0.00011241 5.95147e-07
-4.70225e-07 5.95147e-07 0.000115085
0.00112982 3.34187e-06 -5.37088e-07
3.34187e-06 3.74049e-05 1.48887e-06
-5.37088e-07 1.48887e-06 5.64143e-05
0.000979719 1.30583e-06 3.89107e-07
1.30583e-06 -3.29152e-05 -3.06211e-06
3.89107e-07 -3.06211e-06 -3.13623e-05
0.00233178 1.62878e-06 3.75054e-07
1.62878e-06 0.000625063 4.11253e-09
3.75054e-07 4.11253e-09 0.000649509
0.00232092 -3.76496e-07 5.03953e-07
-3.76496e-07 0.000619837 -3.88958e-06
5.03953e-07 -3.88958e-06 0.000644337
0.00130995 9.61277e-07 -1.72341e-07
9.61277e-07 0.000145634 -8.21196e-07
-1.72341e-07 -8.21196e-07 0.000107896
0.00104235 -1.08694e-06 -2.26051e-07
-1.08694e-06 6.05263e-06 -1.77964e-06
-2.26051e-07 -1.77964e-06 -1.54913e-05
0.00107625 -1.76806e-06 -4.91212e-08
-1.76806e-06 3.01235e-05 3.92749e-07
-4.91212e-08 3.92749e-07 -8.01426e-06
0.000975569 2.0345e-08 -7.42786e-08
2.0345e-08 -3.4918e-05 -3.04269e-06
-7.42786e-08 -3.04269e-06 -3.04344e-05
0.00103637 -1.59412e-08 -2.09278e-08
-1.59412e-08 2.7129e-06 2.34437e-09
-2.09278e-08 2.34437e-09 -1.86607e-05
0.00104222 1.24513e-06 -2.30585e-07
1.24513e-06 6.20062e-06 1.79357e-06
-2.30585e-07 1.79357e-06 -1.567e-05
0.000977012 1.64461e-06 -5.38606e-08
1.64461e-06 -3.38319e-05 -1.54615e-09
-5.38606e-08 -1.54615e-09 -2.95372e-05
0.00223938 2.03522e-06 8.87375e-07
2.03522e-06 0.000580003 -3.82035e-06
8.87375e-07 -3.82035e-06 0.000605507
0.00150542 3.6252e-06 -6.68423e-07
3.6252e-06 0.000225991 1.86162e-06
-6.68423e-07 1.86162e-06 0.000232294
0.00170113 3.94044e-06 4.60516e-07
3.94044e-06 0.000317826 1.05171e-08
4.60516e-07 1.05171e-08 0.000340417
0.00121315 5.38437e-06 -3.81387e-06
5.38437e-06 8.12582e-05 6.07284e-06
-3.81387e-06 6.07284e-06 0.000100416
-0.00380085 2.11098e-05 -3.15856e-05
2.11098e-05 -0.00182215 9.89708e-06
-3.15856e-05 9.89708e-06 -0.00179982
-0.00118539 2.78774e-05 4.28072e-07
2.78774e-05 -0.000945725 -4.6166e-07
4.28072e-07 -4.6166e-07 -0.000922779
0.000225047 -2.74455e-05 -2.85854e-05
-2.74455e-05 -0.000159033 -5.32763e-06
-2.85854e-05 -5.32763e-06 -0.000235777
0.000299434 -1.58616e-05 2.19501e-06
-1.58616e-05 -0.000154184 -9.39086e-07
2.19501e-06 -9.39086e-07 -0.000163578
0.00114363 2.23813e-05 -4.07615e-06
2.23813e-05 5.29045e-06 -2.77059e-06
-4.07615e-06 -2.77059e-06 -7.23248e-05
0.000326251 -5.37791e-06 1.17962e-05
-5.37791e-06 -1.19483e-05 7.59377e-09
1.17962e-05 7.59377e-09 -6.5213e-05
0.00129895 3.56287e-05 7.55625e-07
3.56287e-05 0.000183077 2.50512e-06
7.55625e-07 2.50512e-06 0.000112454
0.00304947 -8.12573e-06 -1.70726e-05
-8.12573e-06 0.000550995 1.4654e-06
-1.70726e-05 1.4654e-06 0.000262014
-0.00132868 3.84055e-05 1.19621e-05
3.84055e-05 -0.000579392 -3.23598e-06
1.19621e-05 -3.23598e-06 -0.00059593
0.000498634 4.18859e-05 4.47722e-07
4.18859e-05 -3.09664e-05 1.29902e-06
4.47722e-07 1.29902e-06 5.62883e-05
0.000407073 1.73742e-05 1.34821e-05
1.73742e-05 -3.69724e-05 -1.14393e-05
1.34821e-05 -1.14393e-05 -0.000148777
0.00430852 1.30689e-05 -2.45957e-05
1.30689e-05 0.00116726 1.68099e-05
-2.45957e-05 1.68099e-05 0.000837845
0.000135983 8.09071e-05 -3.38929e-05
8.09071e-05 1.06171e-05 3.19372e-05
-3.38929e-05 3.19372e-05 1.69967e-05
0.00115196 2.91649e-05 3.09403e-06
2.91649e-05 0.000327068 -3.68571e-06
3.09403e-06 -3.68571e-06 0.000396855
0.00102073 6.60326e-06 -8.28393e-08
6.60326e-06 1.82749e-05 -9.32403e-07
-8.28393e-08 -9.32403e-07 -4.38862e-05
0.00101284 -1.04689e-07 1.10421e-07
-1.04689e-07 6.75884e-06 -4.14758e-07
1.10421e-07 -4.14758e-07 -4.29487e-05
0.0010812 -1.13792e-06 1.70145e-07
-1.13792e-06 3.19023e-05 9.56133e-07
1.70145e-07 9.56133e-07 -6.15449e-06
0.000982174 8.8193e-06 2.19084e-08
8.8193e-06 -7.07716e-06 5.54372e-07
2.19084e-08 5.54372e-07 -5.89288e-05
0.00114249 1.78076e-05 3.43914e-07
1.78076e-05 7.44308e-05 8.43583e-07
3.43914e-07 8.43583e-07 1.5271e-05
0.00118425 8.6231e-06 7.86328e-08
8.6231e-06 9.62582e-05 -4.34422e-07
7.86328e-08 -4.34422e-07 3.56884e-05
0.0011054 3.24777e-06 1.34358e-07
3.24777e-06 5.49509e-05 9.07093e-07
1.34358e-07 9.07093e-07 -1.36986e-06
0.00111028 -4.67776e-07 1.10955e-07
-4.67776e-07 5.87092e-05 -3.08834e-07
1.10955e-07 -3.08834e-07 3.88464e-06
0.00105038 -1.58311e-06 1.9486e-08
-1.58311e-06 2.77246e-05 -4.57498e-07
1.9486e-08 -4.57498e-07 -2.38493e-05
0.000976659 -1.1368e-05 -4.01148e-07
-1.1368e-05 -9.22865e-06 1.04169e-06
-4.01148e-07 1.04169e-06 -5.92434e-05
0.00170888 2.38597e-05 3.4276e-06
2.38597e-05 0.000204147 4.86314e-06
3.4276e-06 4.86314e-06 0.000151836
0.00134676 -2.53877e-05 -3.4882e-06
-2.53877e-05 -1.15657e-05 -2.02382e-06
-3.4882e-06 -2.02382e-06 -2.36892e-05
0.00057954 -2.93923e-05 6.24642e-08
-2.93923e-05 -0.000262818 -8.90967e-07
6.24642e-08 -8.90967e-07 -0.000329206
0.00118442 -3.14488e-05 -5.10198e-07
-3.14488e-05 8.85206e-05 3.58975e-07
-5.10198e-07 3.58975e-07 5.95127e-06
0.00112777 -2.30372e-05 -3.8359e-07
-2.30372e-05 7.13376e-05 1.08154e-08
-3.8359e-07 1.08154e-08 -1.9538e-05
0.00116116 -1.9799e-05 -1.33129e-07
-1.9799e-05 9.09983e-05 1.14949e-07
-1.33129e-07 1.14949e-07 8.12287e-06
0.00120432 -1.74581e-05 1.72836e-07
-1.74581e-05 0.000111275 1.10189e-07
1.72836e-07 1.10189e-07 4.18139e-05
0.00108088 4.54375e-06 1.78091e-07
4.54375e-06 4.972e-05 7.92905e-07
1.78091e-07 7.92905e-07 -1.66823e-05
0.00172705 -5.15557e-06 -2.22573e-06
-5.15557e-06 4.55346e-05 -8.7832e-07
-2.22573e-06 -8.7832e-07 5.29034e-05
0.00103232 -7.50904e-06 -2.21782e-08
-7.50904e-06 3.0667e-05 -1.9149e-07
-2.21782e-08 -1.9149e-07 -4.48639e-05
0.00107673 -1.71605e-05 7.00002e-08
-1.71605e-05 5.47455e-05 -4.19709e-07
7.00002e-08 -4.19709e-07 -2.59471e-05
0.00138026 -4.35826e-05 1.59903e-06
-4.35826e-05 8.01788e-05 1.16982e-06
1.59903e-06 1.16982e-06 2.73335e-05
0.000892128 -3.6386e-05 -8.63927e-07
-3.6386e-05 -6.91319e-05 2.05674e-07
-8.63927e-07 2.05674e-07 -0.000154037
0.00118454 -3.00441e-05 4.37729e-07
-3.00441e-05 9.42652e-05 -1.34183e-07
4.37729e-07 -1.34183e-07 -3.03079e-06
0.00124832 -2.00141e-05 8.59092e-08
-2.00141e-05 0.000140546 -2.74221e-07
8.59092e-08 -2.74221e-07 4.54838e-05
0.00306474 -3.00049e-05 -5.06077e-06
-3.00049e-05 0.000575666 5.87849e-06
-5.06077e-06 5.87849e-06 0.000603104
0.000904702 -3.80068e-05 -3.21458e-08
-3.80068e-05 -1.33977e-05 4.07067e-07
-3.21458e-08 4.07067e-07 -0.000110726
0.00116925 -2.0087e-05 -5.58052e-07
-2.0087e-05 9.6596e-05 3.73936e-07
-5.58052e-07 3.73936e-07 -8.06734e-06
0.00102495 4.627e-06 -7.20053e-10
4.627e-06 2.7749e-05 4.1178e-07
-7.20053e-10 4.1178e-07 -4.81157e-05
0.00113558 -1.43599e-05 -1.14849e-07
-1.43599e-05 8.57405e-05 -8.84324e-08
-1.14849e-07 -8.84324e-08 2.15163e-06
0.00125893 -1.68034e-05 -1.2146e-07
-1.68034e-05 0.000146487 -2.69166e-07
-1.2146e-07 -2.69166e-07 5.57671e-05
0.000781372 1.69621e-06 1.36846e-05
1.69621e-06 0.000233239 1.11062e-06
1.36846e-05 1.11062e-06 0.000224615
0.00142786 6.73992e-06 4.39196e-07
6.73992e-06 0.000536413 -2.93307e-06
4.39196e-07 -2.93307e-06 0.000501561
0.00102384 5.90464e-05 -3.62716e-05
5.90464e-05 -0.000579101 4.40396e-06
-3.62716e-05 4.40396e-06 -0.000803982
0.00113427 1.86414e-05 2.02585e-07
1.86414e-05 8.71771e-05 8.48834e-08
2.02585e-07 8.48834e-08 7.84832e-06
0.0010702 1.93504e-05 1.44328e-06
1.93504e-05 7.43315e-05 -1.46495e-06
1.44328e-06 -1.46495e-06 -1.488e-05
0.00181876 5.90304e-05 -2.28043e-06
5.90304e-05 0.000221615 -1.38366e-06
-2.28043e-06 -1.38366e-06 0.00013153
0.000782315 2.87668e-05 2.66037e-06
2.87668e-05 -3.43447e-05 5.34206e-07
2.66037e-06 5.34206e-07 -0.000148895
0.00208389 -2.73241e-05 1.49533e-05
-2.73241e-05 0.000925389 4.77845e-06
1.49533e-05 4.77845e-06 0.000895107
0.000537902 -4.66542e-06 5.3599e-05
-4.66542e-06 -0.000453148 3.64072e-05
5.3599e-05 3.64072e-05 -0.000720421
0.0016484 2.96136e-05 -6.79718e-05
2.96136e-05 9.74454e-05 -5.72796e-05
-6.79718e-05 -5.72796e-05 -0.000120548
0.00210818 2.40428e-05 6.51553e-06
2.40428e-05 0.000277182 8.55592e-07
6.51553e-06 8.55592e-07 0.000201622
-0.00167021 -8.72229e-05 3.67657e-05
-8.72229e-05 -0.00107298 3.45131e-05
3.67657e-05 3.45131e-05 -0.00107853
0.0027578 -2.4318e-05 -3.02196e-06
-2.4318e-05 0.00139862 -4.46949e-06
-3.02196e-06 -4.46949e-06 0.00145127
0.000962374 -4.47067e-05 -1.43472e-05
-4.47067e-05 0.000186093 -1.42274e-05
-1.43472e-05 -1.42274e-05 0.000266348
0.00117741 1.57006e-05 -9.25133e-08
1.57006e-05 0.00010746 -8.24906e-08
-9.25133e-08 -8.24906e-08 2.69944e-05
0.000723293 -7.02504e-06 4.97788e-06
-7.02504e-06 0.000226378 1.46657e-06
4.97788e-06 1.46657e-06 0.000232795
0.000560973 -9.67126e-06 2.82089e-06
-9.67126e-06 5.02774e-05 4.37485e-06
2.82089e-06 4.37485e-06 3.57996e-05
0.00122922 3.50261e-05 1.98345e-06
3.50261e-05 0.000171423 3.47943e-06
1.98345e-06 3.47943e-06 2.35663e-05
0.00103961 1.38953e-05 -3.62877e-07
1.38953e-05 0.000100999 -4.03936e-07
-3.62877e-07 -4.03936e-07 -3.07706e-06
0.00248487 9.2604e-06 7.1665e-06
9.2604e-06 0.000670475 1.11396e-05
7.1665e-06 1.11396e-05 0.000550316
0.00171473 6.53703e-05 -1.32672e-05
6.53703e-05 0.000274244 -3.84665e-05
-1.32672e-05 -3.84665e-05 2.22818e-05
0.00526342 -5.98296e-05 4.38354e-06
-5.98296e-05 0.00130696 2.60807e-06
4.38354e-06 2.60807e-06 0.000854375
-0.000405749 -0.00012204 4.90239e-06
-0.00012204 -0.000518466 1.36639e-05
4.90239e-06 1.36639e-05 -0.000599784
0.000549149 -1.71207e-05 -2.36495e-06
-1.71207e-05 -4.41533e-05 -1.64526e-06
-2.36495e-06 -1.64526e-06 -4.41096e-05
0.00091422 1.05579e-05 -1.94917e-07
1.05579e-05 -1.17485e-05 -1.72965e-07
-1.94917e-07 -1.72965e-07 -9.18387e-05
0.00172564 1.17542e-06 1.20672e-05
1.17542e-06 0.000813544 4.48054e-06
1.20672e-05 4.48054e-06 0.000761854
0.000930343 4.97556e-06 8.25525e-06
4.97556e-06 0.00020832 3.14889e-06
8.25525e-06 3.14889e-06 0.000158812
0.000483557 1.14722e-06 1.55178e-06
1.14722e-06 -6.44486e-05 5.30208e-06
1.55178e-06 5.30208e-06 -0.000164433
-0.000961465 2.83143e-05 1.27677e-05
2.83143e-05 -0.000408 1.99953e-05
1.27677e-05 1.99953e-05 -0.000461408
0.0048785 -9.2635e-05 -1.60929e-05
-9.2635e-05 0.00100944 -2.26243e-05
-1.60929e-05 -2.26243e-05 0.000509411
0.000281866 -0.000102563 -7.71043e-06
-0.000102563 -0.000811387 -3.1988e-05
-7.71043e-06 -3.1988e-05 -0.000626947
0.000233155 -4.27739e-06 -8.24962e-07
-4.27739e-06 -0.000220002 -2.24575e-06
-8.24962e-07 -2.24575e-06 -0.000262753
0.00114682 1.46121e-05 -5.38746e-08
1.46121e-05 7.12177e-05 7.61176e-08
-5.38746e-08 7.61176e-08 -6.54545e-06
0.00116464 1.09597e-05 -4.68764e-08
1.09597e-05 8.47959e-05 2.16573e-07
-4.68764e-08 2.16573e-07 6.94957e-06
0.00140435 8.98007e-06 -1.83576e-07
8.98007e-06 0.000198434 -2.59065e-07
-1.83576e-07 -2.59065e-07 0.00012004
0.00113463 1.13884e-05 -4.18806e-08
1.13884e-05 6.8999e-05 -1.00541e-06
-4.18806e-08 -1.00541e-06 1.20653e-05
0.00114883 5.61196e-06 -1.51237e-08
5.61196e-06 7.68248e-05 -2.73144e-07
-1.51237e-08 -2.73144e-07 1.02237e-05
0.00116109 1.06713e-05 -2.54125e-08
1.06713e-05 8.01215e-05 -1.7716e-07
-2.54125e-08 -1.7716e-07 8.9891e-06
0.00117292 1.15928e-05 -1.87977e-07
1.15928e-05 8.52106e-05 -3.55459e-08
-1.87977e-07 -3.55459e-08 8.53133e-06
0.00114417 9.89154e-06 3.28299e-08
9.89154e-06 7.51169e-05 8.17865e-09
3.28299e-08 8.17865e-09 8.67387e-06
0.00119201 1.09376e-05 4.41015e-08
1.09376e-05 9.70435e-05 2.54116e-07
4.41015e-08 2.54116e-07 2.29325e-05
0.00110709 9.74926e-06 -4.95147e-08
9.74926e-06 6.01506e-05 -1.63794e-07
-4.95147e-08 -1.63794e-07 -1.83366e-05
0.00112572 8.46531e-06 7.55596e-08
8.46531e-06 8.18664e-05 -4.80534e-08
7.55596e-08 -4.80534e-08 4.12655e-06
0.0011399 6.70186e-06 3.92057e-07
6.70186e-06 7.41285e-05 6.0636e-08
3.92057e-07 6.0636e-08 -5.7276e-06
0.00121805 6.82244e-06 7.32864e-08
6.82244e-06 0.000110766 3.07263e-07
7.32864e-08 3.07263e-07 3.73406e-05
0.00115233 -7.62541e-08 9.72208e-08
-7.62541e-08 7.93838e-05 -5.96494e-07
9.72208e-08 -5.96494e-07 1.33605e-05
0.00112586 -8.33745e-06 8.62692e-08
-8.33745e-06 6.89637e-05 -5.31644e-07
8.62692e-08 -5.31644e-07 1.70119e-06
0.00108069 -1.57157e-05 3.938e-07
-1.57157e-05 4.7819e-05 -9.64228e-07
3.938e-07 -9.64228e-07 -2.29705e-05
0.00118495 -4.88549e-06 -8.19149e-09
-4.88549e-06 9.65352e-05 -2.5564e-07
-8.19149e-09 -2.5564e-07 2.43078e-05
0.00110972 -1.04561e-05 -5.19658e-09
-1.04561e-05 6.32131e-05 1.6438e-07
-5.19658e-09 1.6438e-07 -5.82295e-06
0.00106423 -1.62784e-05 5.2177e-08
-1.62784e-05 4.20751e-05 -1.59622e-07
5.2177e-08 -1.59622e-07 -3.16617e-05
0.00111842 -1.73666e-05 -6.19455e-07
-1.73666e-05 6.80162e-05 -1.00992e-07
-6.19455e-07 -1.00992e-07 -6.95224e-06
0.00111576 -1.77071e-05 5.81019e-08
-1.77071e-05 6.944e-05 1.55766e-07
5.81019e-08 1.55766e-07 -7.70502e-06
0.00118716 -2.12402e-05 -2.37287e-08
-2.12402e-05 9.78964e-05 -2.09711e-07
-2.37287e-08 -2.09711e-07 2.36573e-05
0.00114018 -1.87876e-05 -3.01106e-07
-1.87876e-05 7.20941e-05 -7.49207e-08
-3.01106e-07 -7.49207e-08 6.03817e-07
0.00104332 -2.10639e-05 -2.27849e-07
-2.10639e-05 2.22528e-05 1.90165e-07
-2.27849e-07 1.90165e-07 -4.71715e-05
0.00113487 -2.21233e-05 -7.81209e-07
-2.21233e-05 6.24058e-05 8.25861e-07
-7.81209e-07 8.25861e-07 -4.07673e-06
0.00121384 -1.93414e-05 -3.12692e-07
-1.93414e-05 0.000103092 -4.12161e-07
-3.12692e-07 -4.12161e-07 4.26228e-05
0.00104807 -2.07111e-05 4.30286e-07
-2.07111e-05 2.60634e-05 -6.02344e-07
4.30286e-07 -6.02344e-07 -3.85444e-05
0.00112473 -1.89683e-05 2.81399e-07
-1.89683e-05 6.23304e-05 -1.57006e-07
2.81399e-07 -1.57006e-07 -3.68489e-06
0.000999337 -1.22847e-05 -8.24668e-07
-1.22847e-05 1.19721e-06 4.17277e-07
-8.24668e-07 4.17277e-07 -5.82634e-05
0.00112529 -1.63209e-05 1.12315e-07
-1.63209e-05 6.6289e-05 1.07025e-07
1.12315e-07 1.07025e-07 -2.45778e-06
0.00109777 -1.19027e-05 -1.33449e-07
-1.19027e-05 5.15209e-05 3.17867e-07
-1.33449e-07 3.17867e-07 -8.55309e-06
0.00106869 -3.22757e-06 -7.12149e-07
-3.22757e-06 3.19196e-05 1.1123e-06
-7.12149e-07 1.1123e-06 -1.49925e-05
0.001104 -9.94443e-06 3.12407e-07
-9.94443e-06 5.57785e-05 -7.21416e-07
3.12407e-07 -7.21416e-07 -3.80904e-06
0.00106844 -4.17293e-06 3.01987e-08
-4.17293e-06 3.15085e-05 -1.55825e-08
3.01987e-08 -1.55825e-08 -1.47095e-05
0.00102315 4.56318e-06 -9.53717e-07
4.56318e-06 3.8056e-06 1.71501e-06
-9.53717e-07 1.71501e-06 -2.37815e-05
0.00107034 -2.37923e-06 5.18474e-07
-2.37923e-06 3.19792e-05 -1.06059e-06
5.18474e-07 -1.06059e-06 -1.33965e-05
0.00102963 3.81544e-06 6.23215e-08
3.81544e-06 5.10557e-06 4.55807e-09
6.23215e-08 4.55807e-09 -2.19672e-05
0.00157237 6.1251e-06 -2.73802e-06
6.1251e-06 0.000262816 4.16428e-06
-2.73802e-06 4.16428e-06 0.000266018
0.00103395 3.018e-06 6.34204e-07
3.018e-06 5.44488e-06 -1.75091e-06
6.34204e-07 -1.75091e-06 -2.11906e-05
0.00127206 4.58597e-06 -6.47387e-07
4.58597e-06 0.000113308 5.90763e-07
-6.47387e-07 5.90763e-07 0.000115635
0.00112685 5.2242e-06 -8.33593e-07
5.2242e-06 3.81449e-05 1.47679e-06
-8.33593e-07 1.47679e-06 5.67907e-05
0.000979427 2.89106e-06 7.22452e-07
2.89106e-06 -3.20835e-05 -3.03965e-06
7.22452e-07 -3.03965e-06 -3.07254e-05
0.00173643 3.64284e-06 1.03846e-06
3.64284e-06 0.000334366 -1.181e-06
1.03846e-06 -1.181e-06 0.000356007
0.00232322 1.77667e-06 1.59582e-06
1.77667e-06 0.000621106 -3.87765e-06
1.59582e-06 -3.87765e-06 0.000645554
0.00113791 -3.40776e-06 -7.12032e-08
-3.40776e-06 6.45528e-05 -8.92616e-07
-7.12032e-08 -8.92616e-07 2.35623e-05
0.00103943 -2.19169e-06 -3.94423e-07
-2.19169e-06 5.95766e-06 -1.75794e-06
-3.94423e-07 -1.75794e-06 -1.61785e-05
0.00110464 -2.0561e-06 1.10738e-07
-2.0561e-06 4.60451e-05 1.59752e-07
1.10738e-07 1.59752e-07 7.0758e-06
0.000978941 -1.48961e-06 -4.20413e-07
-1.48961e-06 -3.28982e-05 -3.02955e-06
-4.20413e-07 -3.02955e-06 -2.8559e-05
0.00103675 -1.10331e-06 -5.69465e-08
-1.10331e-06 3.34614e-06 8.62913e-10
-5.69465e-08 8.62913e-10 -1.81613e-05
0.00106971 -2.29729e-06 -1.30279e-07
-2.29729e-06 2.70318e-05 1.32881e-06
-1.30279e-07 1.32881e-06 -1.10695e-05
0.00223596 -7.66722e-09 -3.36826e-07
-7.66722e-09 0.000578049 -3.82594e-06
-3.36826e-07 -3.82594e-06 0.000603619
0.000975858 3.51059e-08 -9.12309e-08
3.51059e-08 -3.47706e-05 -3.86268e-09
-9.12309e-08 -3.86268e-09 -3.02925e-05
0.00103853 -3.29127e-08 -2.43966e-08
-3.29127e-08 3.78015e-06 1.79744e-06
-2.43966e-08 1.79744e-06 -1.76238e-05
0.000981145 1.65789e-06 -3.87116e-07
1.65789e-06 -3.18075e-05 3.02417e-06
-3.87116e-07 3.02417e-06 -2.75475e-05
0.00223478 2.09136e-06 -3.89361e-07
2.09136e-06 0.000577879 -4.36611e-09
-3.89361e-07 -4.36611e-09 0.000603373
0.00224915 4.08167e-06 -2.69375e-06
4.08167e-06 0.000586129 3.7922e-06
-2.69375e-06 3.7922e-06 0.000611263
-0.00129954 1.57145e-05 8.9489e-06
1.57145e-05 -0.000991793 -2.12129e-06
8.9489e-06 -2.12129e-06 -0.00100019
-0.00080405 1.2302e-05 2.08248e-05
1.2302e-05 -0.000339126 -4.95484e-06
2.08248e-05 -4.95484e-06 -0.000361597
0.000493545 5.09351e-06 1.56841e-05
5.09351e-06 3.02364e-05 -6.1643e-06
1.56841e-05 -6.1643e-06 9.56372e-06
-0.00116896 3.10932e-05 -6.62168e-06
3.10932e-05 -0.00094461 1.54819e-06
-6.62168e-06 1.54819e-06 -0.000912185
0.00060695 8.8818e-06 -3.25203e-05
8.8818e-06 -0.000283244 -4.19416e-06
-3.25203e-05 -4.19416e-06 -0.000376441
0.00136156 3.73873e-05 3.6736e-06
3.73873e-05 0.000182509 -3.41416e-07
3.6736e-06 -3.41416e-07 0.000111798
0.000935008 -2.60844e-05 -8.14147e-06
-2.60844e-05 -0.000121533 -1.47019e-06
-8.14147e-06 -1.47019e-06 -0.000352406
0.00217035 4.43948e-05 6.23556e-05
4.43948e-05 0.000962987 -2.29026e-05
6.23556e-05 -2.29026e-05 0.000883199
8.81304e-05 4.40958e-05 3.83483e-06
4.40958e-05 -0.000264652 -4.62766e-06
3.83483e-06 -4.62766e-06 -0.000185293
0.00137961 1.81341e-05 -3.08687e-06
1.81341e-05 0.000221884 1.06101e-06
-3.08687e-06 1.06101e-06 0.00011527
0.00233034 -4.69156e-05 3.68258e-06
-4.69156e-05 0.000127286 -2.44978e-06
3.68258e-06 -2.44978e-06 -0.000313197
0.00206287 0.000110105 -1.04342e-06
0.000110105 0.000601023 4.25362e-06
-1.04342e-06 4.25362e-06 0.000520859
0.000739097 2.08076e-05 -3.12764e-06
2.08076e-05 7.57136e-05 -1.82701e-06
-3.12764e-06 -1.82701e-06 0.000159366
0.000525141 -1.85226e-05 4.6499e-06
-1.85226e-05 2.38004e-06 -4.96489e-06
4.6499e-06 -4.96489e-06 -0.000121309
0.00252535 1.43734e-05 3.43569e-05
1.43734e-05 -4.00506e-05 -1.4819e-05
3.43569e-05 -1.4819e-05 -0.000603728
-0.00114831 0.000121552 -2.2778e-05
0.000121552 -0.000980347 4.49348e-05
-2.2778e-05 4.49348e-05 -0.00102591
9.07924e-05 -4.33594e-07 1.25419e-05
-4.33594e-07 -0.000267743 6.32581e-07
1.25419e-05 6.32581e-07 -0.000292459
0.00114624 -2.82247e-06 1.77283e-07
-2.82247e-06 8.22213e-05 -6.05376e-07
1.77283e-07 -6.05376e-07 1.3304e-05
0.00111199 8.24209e-06 -2.34136e-07
8.24209e-06 6.18849e-05 -1.90836e-07
-2.34136e-07 -1.90836e-07 6.0496e-07
0.00110083 6.01955e-08 2.01526e-07
6.01955e-08 4.93842e-05 1.87234e-07
2.01526e-07 1.87234e-07 3.26704e-07
0.00109124 1.7288e-05 4.68205e-07
1.7288e-05 4.94306e-05 1.24554e-06
4.68205e-07 1.24554e-06 -8.91443e-06
0.00108015 6.29076e-06 -2.85997e-08
6.29076e-06 4.57924e-05 -1.57769e-07
-2.85997e-08 -1.57769e-07 -1.98741e-05
0.00120713 6.58188e-06 5.1588e-08
6.58188e-06 0.000106858 3.83447e-07
5.1588e-08 3.83447e-07 4.69929e-05
0.00107547 -2.0881e-06 -3.75786e-07
-2.0881e-06 4.07309e-05 1.60695e-06
-3.75786e-07 1.60695e-06 -1.51118e-05
0.00123892 9.79168e-06 -2.19127e-07
9.79168e-06 0.000121474 -5.06999e-07
-2.19127e-07 -5.06999e-07 6.5166e-05
0.00119108 4.30429e-06 1.36592e-08
4.30429e-06 9.77673e-05 4.23144e-07
1.36592e-08 4.23144e-07 4.36362e-05
0.000974416 -3.39792e-06 -1.28852e-07
-3.39792e-06 -9.32206e-06 2.94962e-07
-1.28852e-07 2.94962e-07 -6.15998e-05
0.00130453 -1.19622e-05 -1.58259e-06
-1.19622e-05 -0.000144985 2.16205e-06
-1.58259e-06 2.16205e-06 -0.000151028
0.000966943 -4.05215e-05 -1.74237e-06
-4.05215e-05 -0.000118104 3.98001e-07
-1.74237e-06 3.98001e-07 -0.000165786
0.00129469 -3.94883e-05 -2.39628e-09
-3.94883e-05 0.000117093 1.20795e-06
-2.39628e-09 1.20795e-06 3.14992e-05
0.00112375 -2.94434e-05 -7.68396e-07
-2.94434e-05 6.26765e-05 -3.17815e-07
-7.68396e-07 -3.17815e-07 -3.60542e-05
0.00117922 -1.97798e-05 3.47294e-07
-1.97798e-05 0.000106968 2.73238e-08
3.47294e-07 2.73238e-08 1.09191e-05
0.0010068 -1.69774e-05 1.42485e-07
-1.69774e-05 2.10054e-05 -1.23396e-07
1.42485e-07 -1.23396e-07 -6.04637e-05
0.00100978 -2.91166e-06 -5.79267e-08
-2.91166e-06 2.05403e-05 1.00783e-07
-5.79267e-08 1.00783e-07 -5.55611e-05
0.00107598 -6.92395e-06 -6.44629e-09
-6.92395e-06 5.27731e-05 6.99579e-07
-6.44629e-09 6.99579e-07 -2.34252e-05
0.00178488 -2.96218e-05 6.54519e-07
-2.96218e-05 -8.05645e-06 3.74073e-07
6.54519e-07 3.74073e-07 1.93563e-05
0.00117393 -9.63932e-06 3.28016e-08
-9.63932e-06 0.000104758 -2.58798e-07
3.28016e-08 -2.58798e-07 2.16667e-05
0.00128727 -1.81197e-05 2.11894e-07
-1.81197e-05 0.000160256 4.67315e-09
2.11894e-07 4.67315e-09 6.91171e-05
0.00123766 -3.97757e-05 3.13452e-07
-3.97757e-05 0.000141741 -5.23995e-07
3.13452e-07 -5.23995e-07 4.45053e-05
0.00122107 -2.00416e-05 5.68384e-08
-2.00416e-05 0.000119389 -1.21692e-07
5.68384e-08 -1.21692e-07 1.49571e-05
0.00261301 -4.82953e-05 -1.20267e-05
-4.82953e-05 0.000514933 1.01856e-05
-1.20267e-05 1.01856e-05 0.000475897
0.000945147 -1.52972e-05 -1.03226e-06
-1.52972e-05 5.99154e-05 3.86898e-07
-1.03226e-06 3.86898e-07 -5.03215e-05
0.00117022 -1.48088e-05 -4.44589e-07
-1.48088e-05 9.78237e-05 6.88508e-07
-4.44589e-07 6.88508e-07 -4.52429e-06
0.00111296 7.26828e-06 -8.42662e-08
7.26828e-06 7.20361e-05 1.53218e-07
-8.42662e-08 1.53218e-07 -9.86411e-06
0.00116558 -8.38232e-07 -1.20678e-07
-8.38232e-07 9.77056e-05 2.49929e-07
-1.20678e-07 2.49929e-07 5.92042e-06
0.00159407 1.87309e-06 5.19784e-06
1.87309e-06 0.00075161 1.36677e-06
5.19784e-06 1.36677e-06 0.000682678
-0.000274891 3.03129e-06 4.80315e-06
3.03129e-06 -0.00038188 -3.66509e-07
4.80315e-06 -3.66509e-07 -0.000396215
-0.00402208 1.83541e-06 5.69143e-05
1.83541e-06 -0.00197942 -8.80015e-07
5.69143e-05 -8.80015e-07 -0.00191803
0.00126553 1.6608e-05 1.58293e-07
1.6608e-05 0.000151721 4.63485e-07
1.58293e-07 4.63485e-07 7.09497e-05
0.000846105 1.23923e-05 1.71034e-06
1.23923e-05 1.25905e-05 -7.24595e-07
1.71034e-06 -7.24595e-07 -9.15993e-05
0.000880247 3.78589e-05 2.76994e-06
3.78589e-05 5.31937e-06 -3.45482e-06
2.76994e-06 -3.45482e-06 -0.00014063
-0.000703564 -5.58614e-06 -3.79116e-06
-5.58614e-06 -0.000621878 -1.9453e-06
-3.79116e-06 -1.9453e-06 -0.000627038
0.00200993 -2.25796e-05 2.86743e-06
-2.25796e-05 -0.000297577 1.84091e-05
2.86743e-06 1.84091e-05 -0.000863851
-0.000285636 3.38174e-05 -1.58992e-05
3.38174e-05 -0.000286625 -2.71623e-05
-1.58992e-05 -2.71623e-05 -0.000385866
0.00239329 5.4788e-06 4.34369e-05
5.4788e-06 0.000478667 1.40378e-05
4.34369e-05 1.40378e-05 0.000291002
0.00349279 -0.000151792 4.4005e-05
-0.000151792 0.00114482 5.40153e-05
4.4005e-05 5.40153e-05 0.00100142
0.000338337 -1.04489e-05 -1.45064e-05
-1.04489e-05 -8.42757e-05 -7.60461e-06
-1.45064e-05 -7.60461e-06 -9.68371e-05
0.00014644 -1.41889e-05 -1.13958e-05
-1.41889e-05 -0.000278976 -4.48006e-06
-1.13958e-05 -4.48006e-06 -0.00029258
0.00101304 1.3695e-05 7.60523e-07
1.3695e-05 3.62868e-05 5.59766e-07
7.60523e-07 5.59766e-07 -4.39493e-05
0.00125753 2.01382e-06 1.78078e-06
2.01382e-06 0.000525764 9.19253e-07
1.78078e-06 9.19253e-07 0.000468078
0.000669724 5.30437e-06 4.21454e-07
5.30437e-06 4.39588e-05 6.59468e-08
4.21454e-07 6.59468e-08 -6.84024e-06
0.00051514 4.01322e-06 6.16087e-06
4.01322e-06 -7.39344e-05 7.01109e-07
6.16087e-06 7.01109e-07 -0.000187301
0.000739397 3.36175e-05 -1.27366e-05
3.36175e-05 0.000236263 -1.00527e-06
-1.27366e-05 -1.00527e-06 0.000101506
0.00495687 -3.4884e-05 1.24614e-05
-3.4884e-05 0.000750826 9.08429e-06
1.24614e-05 9.08429e-06 0.000215074
0.000679071 -2.56034e-06 -1.25886e-06
-2.56034e-06 7.42845e-05 1.27188e-06
-1.25886e-06 1.27188e-06 2.6717e-05
0.00192617 -0.000126766 3.25536e-06
-0.000126766 2.50326e-05 6.19659e-06
3.25536e-06 6.19659e-06 6.31328e-05
0.000731614 8.65446e-07 -6.18104e-07
8.65446e-07 -9.87799e-05 -3.51191e-06
-6.18104e-07 -3.51191e-06 -0.000170734
0.000802042 9.17552e-06 2.97458e-06
9.17552e-06 0.000132514 9.90315e-07
2.97458e-06 9.90315e-07 5.20237e-05
0.000685066 -2.17394e-06 -9.21742e-07
-2.17394e-06 2.54219e-05 1.35719e-06
-9.21742e-07 1.35719e-06 -2.95044e-05
-3.00981e-05 4.79027e-07 -1.24691e-05
4.79027e-07 -0.000368273 1.79088e-06
-1.24691e-05 1.79088e-06 -0.000368375
-0.000556088 -1.23264e-06 -8.50012e-06
-1.23264e-06 -0.000471084 -1.32454e-06
-8.50012e-06 -1.32454e-06 -0.000541563
0.00652048 -4.30279e-05 -1.7932e-05
-4.30279e-05 0.00175525 4.59451e-06
-1.7932e-05 4.59451e-06 0.00120573
0.000921989 9.72795e-07 4.55228e-06
9.72795e-07 -0.000849386 -2.98122e-05
4.55228e-06 -2.98122e-05 -0.000561141
0.00120109 1.04407e-05 1.9172e-08
1.04407e-05 0.000101218 1.6722e-07
1.9172e-08 1.6722e-07 2.3361e-05
0.00128492 6.69323e-06 -1.19094e-07
6.69323e-06 0.00014449 -3.8829e-07
-1.19094e-07 -3.8829e-07 6.58225e-05
0.0012462 8.27403e-06 -2.46126e-07
8.27403e-06 0.00014772 5.7277e-07
-2.46126e-07 5.7277e-07 7.04535e-05
0.00114033 1.61378e-05 -1.1388e-07
1.61378e-05 7.34049e-05 -4.68316e-07
-1.1388e-07 -4.68316e-07 6.8875e-06
0.00121064 1.48912e-05 1.62715e-08
1.48912e-05 0.000105749 1.02129e-07
1.62715e-08 1.02129e-07 3.15718e-05
0.00111853 9.42528e-06 -4.00521e-07
9.42528e-06 6.63921e-05 -2.2189e-08
-4.00521e-07 -2.2189e-08 -1.21463e-05
0.00122385 7.09745e-06 -2.67624e-08
7.09745e-06 0.000113627 -5.12624e-08
-2.67624e-08 -5.12624e-08 4.03037e-05
0.00116587 4.773e-06 1.08671e-07
4.773e-06 8.77667e-05 6.37367e-08
1.08671e-07 6.37367e-08 7.56933e-06
0.00110259 9.77588e-06 -8.13112e-08
9.77588e-06 6.764e-05 4.70134e-07
-8.13112e-08 4.70134e-07 -9.87369e-06
0.00112769 1.21314e-05 2.94577e-07
1.21314e-05 8.55464e-05 -3.51947e-07
2.94577e-07 -3.51947e-07 5.23765e-06
0.00113419 -1.00393e-05 -1.83051e-07
-1.00393e-05 7.48683e-05 3.56319e-07
-1.83051e-07 3.56319e-07 -4.86986e-06
0.00119636 -4.41307e-06 -7.83846e-08
-4.41307e-06 0.000101293 -6.19032e-07
-7.83846e-08 -6.19032e-07 2.9436e-05
0.00113008 -8.18533e-06 3.81038e-08
-8.18533e-06 7.29718e-05 -2.05438e-07
3.81038e-08 -2.05438e-07 3.95503e-06
0.00109442 -1.5749e-05 7.80215e-09
-1.5749e-05 5.59282e-05 -3.22015e-07
7.80215e-09 -3.22015e-07 -1.74395e-05
0.00112382 -1.76719e-05 1.02638e-07
-1.76719e-05 7.18872e-05 -5.91656e-08
1.02638e-07 -5.91656e-08 -5.02128e-06
0.00107378 -1.62406e-05 -2.531e-07
-1.62406e-05 4.6775e-05 1.84535e-07
-2.531e-07 1.84535e-07 -2.82255e-05
0.00114923 -1.98356e-05 -4.47841e-07
-1.98356e-05 8.97457e-05 4.78433e-07
-4.47841e-07 4.78433e-07 1.11888e-05
0.00112965 -2.07644e-05 2.51632e-07
-2.07644e-05 7.19881e-05 -2.74885e-07
2.51632e-07 -2.74885e-07 -3.39186e-07
0.00102649 -2.2517e-05 1.14626e-07
-2.2517e-05 2.19689e-05 5.43538e-07
1.14626e-07 5.43538e-07 -5.61173e-05
0.0011567 -1.88403e-05 4.29592e-07
-1.88403e-05 8.01183e-05 1.40279e-07
4.29592e-07 1.40279e-07 8.52586e-06
0.0011717 -2.21075e-05 4.893e-08
-2.21075e-05 8.25174e-05 3.87961e-07
4.893e-08 3.87961e-07 1.31004e-05
0.00104388 -2.31534e-05 -2.47316e-07
-2.31534e-05 1.49315e-05 7.65906e-07
-2.47316e-07 7.65906e-07 -5.75825e-05
0.00112476 -2.117e-05 -5.87604e-07
-2.117e-05 6.30393e-05 2.00835e-07
-5.87604e-07 2.00835e-07 -2.74945e-06
0.00113004 -1.8493e-05 -8.76026e-07
-1.8493e-05 6.44729e-05 3.12925e-07
-8.76026e-07 3.12925e-07 4.74996e-06
0.00107601 -2.16167e-05 -3.20805e-07
-2.16167e-05 3.54909e-05 1.37343e-07
-3.20805e-07 1.37343e-07 -3.11264e-05
0.00111228 -1.3069e-05 -7.23864e-07
-1.3069e-05 5.33314e-05 2.53075e-07
-7.23864e-07 2.53075e-07 -2.72871e-06
0.00117075 -1.93269e-05 4.54935e-08
-1.93269e-05 8.20877e-05 -1.65222e-07
4.54935e-08 -1.65222e-07 2.12137e-05
0.00108758 -2.10608e-05 5.63079e-07
-2.10608e-05 4.55956e-05 -8.7774e-07
5.63079e-07 -8.7774e-07 -1.79997e-05
0.00120176 -1.94094e-05 1.02086e-06
-1.94094e-05 9.92567e-05 -2.46731e-07
1.02086e-06 -2.46731e-07 3.37304e-05
0.00104498 -1.28224e-05 4.11891e-08
-1.28224e-05 2.31784e-05 -1.81358e-08
4.11891e-08 -1.81358e-08 -3.59713e-05
0.00107127 -2.65135e-06 -9.45973e-07
-2.65135e-06 3.22801e-05 1.06261e-06
-9.45973e-07 1.06261e-06 -1.44792e-05
0.00109867 -1.0821e-05 4.59546e-07
-1.0821e-05 5.19742e-05 -3.14944e-07
4.59546e-07 -3.14944e-07 -8.05771e-06
0.00106779 -2.94984e-06 6.46886e-08
-2.94984e-06 3.1383e-05 1.19335e-08
6.46886e-08 1.19335e-08 -1.54954e-05
0.00101917 5.52286e-06 -1.14948e-06
5.52286e-06 3.78812e-06 1.72347e-06
-1.14948e-06 1.72347e-06 -2.43545e-05
0.00107326 -4.30452e-06 6.22602e-07
-4.30452e-06 3.3846e-05 -1.09923e-06
6.22602e-07 -1.09923e-06 -1.24244e-05
0.00102479 4.57979e-06 4.82481e-08
4.57979e-06 4.59275e-06 1.02841e-09
4.82481e-08 1.02841e-09 -2.30209e-05
0.00154113 7.59465e-06 -2.85727e-06
7.59465e-06 0.000250799 2.92431e-06
-2.85727e-06 2.92431e-06 0.000253576
0.00103027 3.81562e-06 8.60905e-07
3.81562e-06 5.36781e-06 -1.73922e-06
8.60905e-07 -1.73922e-06 -2.17153e-05
0.00126905 6.04399e-06 -7.908e-07
6.04399e-06 0.000114497 5.9311e-07
-7.908e-07 5.9311e-07 0.000116328
0.00112253 7.02011e-06 -1.1251e-06
7.02011e-06 3.91052e-05 1.46222e-06
-1.1251e-06 1.46222e-06 5.72093e-05
0.000978232 4.39388e-06 1.05334e-06
4.39388e-06 -3.07446e-05 -3.0151e-06
1.05334e-06 -3.0151e-06 -2.97492e-05
0.00173994 5.64396e-06 1.3903e-06
5.64396e-06 0.00033806 -1.17189e-06
1.3903e-06 -1.17189e-06 0.000359355
0.00232558 3.90599e-06 2.6744e-06
3.90599e-06 0.000623412 -3.85888e-06
2.6744e-06 -3.85888e-06 0.000647659
0.000883969 -1.50159e-06 -3.43775e-07
-1.50159e-06 -5.75932e-05 -1.46796e-06
-3.43775e-07 -1.46796e-06 -0.000102577
0.000792545 -3.31155e-06 -5.76514e-07
-3.31155e-06 -0.000111811 -2.284e-06
-5.76514e-07 -2.284e-06 -0.000136807
0.00114155 -3.18277e-06 4.78356e-08
-3.18277e-06 6.61938e-05 1.16771e-07
4.78356e-08 1.16771e-07 2.51424e-05
0.000983919 -3.05242e-06 -7.23711e-07
-3.05242e-06 -2.93378e-05 -2.99991e-06
-7.23711e-07 -2.99991e-06 -2.55257e-05
0.000911566 -2.18996e-06 -1.98917e-08
-2.18996e-06 -5.60704e-05 1.73504e-09
-1.98917e-08 1.73504e-09 -7.89916e-05
0.000897195 -4.32849e-06 1.33374e-07
-4.32849e-06 -5.45547e-05 1.13323e-06
1.33374e-07 1.13323e-06 -9.47575e-05
0.00223125 -2.02419e-06 -1.58372e-06
-2.02419e-06 0.0005762 -3.81168e-06
-1.58372e-06 -3.81168e-06 0.000601706
0.000975456 -1.47711e-06 -8.21484e-08
-1.47711e-06 -3.46088e-05 5.3821e-09
-8.21484e-08 5.3821e-09 -3.02445e-05
0.00103098 -1.1195e-06 1.13369e-07
-1.1195e-06 5.58976e-07 1.75059e-06
1.13369e-07 1.75059e-06 -2.09104e-05
0.00223575 4.13105e-08 -4.23972e-07
4.13105e-08 0.000577941 9.66308e-10
-4.23972e-07 9.66308e-10 0.000603515
0.000975987 4.97829e-08 -1.1808e-07
4.97829e-08 -3.47051e-05 3.04716e-06
-1.1808e-07 3.04716e-06 -3.02318e-05
0.00223086 2.14606e-06 -1.49978e-06
2.14606e-06 0.000576089 3.81176e-06
-1.49978e-06 3.81176e-06 0.00060157
0.000826127 6.77189e-07 8.89836e-06
6.77189e-07 0.000261572 -3.31749e-06
8.89836e-06 -3.31749e-06 0.000200753
0.000783056 1.66999e-05 -1.09208e-07
1.66999e-05 0.000231291 9.66793e-07
-1.09208e-07 9.66793e-07 0.000231489
0.000759616 6.69178e-06 8.17229e-05
6.69178e-06 0.000171519 -1.22341e-05
8.17229e-05 -1.22341e-05 8.76905e-05
0.00109219 9.76613e-06 -4.95448e-07
9.76613e-06 4.58795e-05 -4.42899e-07
-4.95448e-07 -4.42899e-07 -1.29755e-05
0.000386564 -1.38987e-05 5.57629e-06
-1.38987e-05 -0.000106994 -7.42765e-06
5.57629e-06 -7.42765e-06 -0.00015377
0.000711966 5.55554e-06 3.36195e-06
5.55554e-06 0.000166221 -7.72125e-07
3.36195e-06 -7.72125e-07 0.000146957
0.00073083 3.47467e-05 -1.29738e-05
3.47467e-05 0.000149181 1.07709e-05
-1.29738e-05 1.07709e-05 0.000193023
0.00116263 1.28337e-05 -2.41326e-05
1.28337e-05 -6.00441e-05 7.3292e-06
-2.41326e-05 7.3292e-06 -0.000193737
0.00450727 1.78463e-06 8.67046e-07
1.78463e-06 0.00132157 -8.56416e-07
8.67046e-07 -8.56416e-07 0.000891234
-0.00125819 8.50577e-05 3.9315e-05
8.50577e-05 -0.000784791 -2.83734e-05
3.9315e-05 -2.83734e-05 -0.000799993
0.00244008 1.7781e-05 -9.03403e-06
1.7781e-05 0.00113951 1.11468e-06
-9.03403e-06 1.11468e-06 0.0012003
0.00219974 -4.8211e-05 -1.74555e-05
-4.8211e-05 0.000406661 7.36676e-06
-1.74555e-05 7.36676e-06 0.000185884
0.00480738 5.14349e-05 1.70808e-05
5.14349e-05 0.00116777 -2.34765e-05
1.70808e-05 -2.34765e-05 0.000697215
4.55078e-06 0.000128645 -7.69411e-07
0.000128645 -0.00070651 9.45258e-06
-7.69411e-07 9.45258e-06 -0.000751074
0.00116881 4.14165e-06 1.62785e-06
4.14165e-06 0.00037355 -3.57715e-06
1.62785e-06 -3.57715e-06 0.000365867
0.00100414 -7.78482e-05 2.65538e-05
-7.78482e-05 -0.000152917 -3.85666e-05
2.65538e-05 -3.85666e-05 -0.000393782
0.00529788 9.11707e-05 8.68787e-06
9.11707e-05 0.000687437 -4.56254e-05
8.68787e-06 -4.56254e-05 5.56597e-05
0.00103756 0.000122243 9.94559e-06
0.000122243 -0.000719722 3.72631e-05
9.94559e-06 3.72631e-05 -0.000694059
0.000265042 -1.38182e-06 2.36623e-06
-1.38182e-06 -0.000178733 5.16376e-06
2.36623e-06 5.16376e-06 -0.000246124
0.00110082 1.33055e-06 -2.15624e-07
1.33055e-06 5.71839e-05 -5.39636e-07
-2.15624e-07 -5.39636e-07 -1.74252e-05
0.00112883 -5.66261e-06 4.19628e-08
-5.66261e-06 7.37108e-05 3.3047e-08
4.19628e-08 3.3047e-08 4.02039e-06
0.00120624 1.02945e-05 -4.38527e-09
1.02945e-05 0.000106866 5.89809e-07
-4.38527e-09 5.89809e-07 4.6468e-05
0.00108534 1.26133e-05 -4.4636e-07
1.26133e-05 4.69618e-05 -7.63021e-07
-4.4636e-07 -7.63021e-07 -1.98412e-05
0.00116092 1.21287e-05 -4.1455e-09
1.21287e-05 8.47659e-05 3.31234e-07
-4.1455e-09 3.31234e-07 1.99657e-05
0.00122931 2.11748e-06 1.18682e-07
2.11748e-06 0.000117178 1.25662e-06
1.18682e-07 1.25662e-06 5.7988e-05
0.00126357 9.2938e-06 -1.07926e-07
9.2938e-06 0.000132888 5.2622e-08
-1.07926e-07 5.2622e-08 7.69009e-05
0.00127115 9.30934e-06 1.83694e-07
9.30934e-06 0.00013644 1.19143e-06
1.83694e-07 1.19143e-06 8.3028e-05
0.00026954 -2.94321e-05 1.10459e-06
-2.94321e-05 -0.000702495 -1.55584e-06
1.10459e-06 -1.55584e-06 -0.000670325
0.00159489 -4.18154e-05 -1.10894e-08
-4.18154e-05 0.000309297 -2.37836e-07
-1.10894e-08 -2.37836e-07 0.000211802
0.00112653 -1.81653e-05 1.05883e-07
-1.81653e-05 7.75403e-05 7.25814e-07
1.05883e-07 7.25814e-07 1.01518e-06
0.00127538 -1.97773e-05 5.61791e-07
-1.97773e-05 0.000143372 -3.92131e-07
5.61791e-07 -3.92131e-07 3.91666e-05
0.00133092 -1.94638e-05 3.17292e-07
-1.94638e-05 0.000181635 4.26376e-07
3.17292e-07 4.26376e-07 9.00299e-05
0.00121404 -4.04263e-06 1.9793e-08
-4.04263e-06 0.000124588 -4.35941e-07
1.9793e-08 -4.35941e-07 4.19991e-05
0.00113421 5.91119e-06 -1.59404e-08
5.91119e-06 8.2206e-05 5.22761e-08
-1.59404e-08 5.22761e-08 2.66727e-07
0.00137156 -3.59086e-05 7.73773e-07
-3.59086e-05 -7.22634e-05 1.53988e-08
7.73773e-07 1.53988e-08 -8.83479e-05
0.00116198 -2.91399e-06 -5.31893e-08
-2.91399e-06 9.50306e-05 1.11182e-07
-5.31893e-08 1.11182e-07 3.21608e-06
0.00121379 -1.45242e-05 4.3109e-07
-1.45242e-05 0.000117199 6.87354e-08
4.3109e-07 6.87354e-08 1.49304e-05
0.00108383 -1.84835e-05 -1.08674e-07
-1.84835e-05 0.00012181 2.16048e-07
-1.08674e-07 2.16048e-07 1.24614e-05
0.00105663 1.03432e-05 -5.96708e-08
1.03432e-05 3.93851e-05 5.50053e-07
-5.96708e-08 5.50053e-07 -4.26339e-05
0.00217107 -4.13116e-05 -1.05125e-05
-4.13116e-05 0.000501438 1.9917e-05
-1.05125e-05 1.9917e-05 0.000420833
0.00125298 1.65842e-06 -7.96517e-07
1.65842e-06 0.000200741 -3.63764e-07
-7.96517e-07 -3.63764e-07 9.15992e-05
0.00133198 -7.03544e-06 -4.55656e-07
-7.03544e-06 0.000172662 7.57261e-07
-4.55656e-07 7.57261e-07 7.34331e-05
0.0011734 1.07674e-05 -5.38156e-08
1.07674e-05 9.68442e-05 4.59778e-07
-5.38156e-08 4.59778e-07 6.33318e-06
0.00127745 1.86218e-06 1.66651e-06
1.86218e-06 0.000445438 5.93466e-07
1.66651e-06 5.93466e-07 0.000355821
0.00134112 2.70845e-06 -4.54291e-06
2.70845e-06 0.000590083 1.78314e-07
-4.54291e-06 1.78314e-07 0.000521234
-0.00130146 4.15354e-06 -3.34308e-06
4.15354e-06 -0.000978878 -4.00481e-07
-3.34308e-06 -4.00481e-07 -0.000998057
0.00108217 1.55103e-05 -8.75835e-08
1.55103e-05 6.93975e-05 1.25763e-07
-8.75835e-08 1.25763e-07 -1.08311e-05
0.000541424 5.35708e-07 5.01064e-07
5.35708e-07 -8.27349e-05 3.41593e-06
5.01064e-07 3.41593e-06 -0.000211126
0.000766011 2.96979e-06 -1.17813e-05
2.96979e-06 0.000223014 -2.80437e-06
-1.17813e-05 -2.80437e-06 0.000159347
0.00349855 -0.000106431 4.49128e-06
-0.000106431 0.000446465 7.71618e-06
4.49128e-06 7.71618e-06 -0.000160604
0.00282147 6.10396e-05 -6.02691e-06
6.10396e-05 0.000855556 -3.87503e-05
-6.02691e-06 -3.87503e-05 0.000639454
0.00200719 -0.000130224 -3.17549e-06
-0.000130224 -0.000369566 5.33991e-05
-3.17549e-06 5.33991e-05 -0.000191486
0.000359119 5.69707e-06 -6.85458e-06
5.69707e-06 -0.000152104 -3.48233e-06
-6.85458e-06 -3.48233e-06 -0.000204026
0.00109599 -1.03889e-06 1.31094e-06
-1.03889e-06 0.000349167 4.29827e-07
1.31094e-06 4.29827e-07 0.000297075
0.00112948 2.30609e-06 -4.30397e-07
2.30609e-06 9.33692e-05 -7.64673e-07
-4.30397e-07 -7.64673e-07 2.06006e-05
0.000635028 9.08601e-06 4.4466e-07
9.08601e-06 3.00018e-05 2.00772e-07
4.4466e-07 2.00772e-07 -5.13668e-05
0.000741283 -2.81556e-06 -2.2057e-06
-2.81556e-06 5.97224e-05 3.03565e-07
-2.2057e-06 3.03565e-07 1.10596e-06
0.000123645 -7.05544e-06 5.70566e-07
-7.05544e-06 -0.000159001 -3.16236e-06
5.70566e-07 -3.16236e-06 -0.000211435
0.00126778 4.13699e-06 -1.52824e-06
4.13699e-06 0.000416277 3.9122e-06
-1.52824e-06 3.9122e-06 0.000429415
0.00336898 -1.33956e-05 3.19085e-06
-1.33956e-05 0.000103686 1.68879e-05
3.19085e-06 1.68879e-05 -0.000279552
0.00344939 1.56777e-05 7.33067e-06
1.56777e-05 6.37359e-05 1.42217e-06
7.33067e-06 1.42217e-06 0.000476679
0.000815724 -5.50275e-06 -1.34045e-07
-5.50275e-06 -5.57311e-05 -3.20936e-06
-1.34045e-07 -3.20936e-06 -0.000106978
0.000781559 8.10264e-07 1.02699e-06
8.10264e-07 7.9882e-05 3.62142e-07
1.02699e-06 3.62142e-07 7.95275e-06
0.000443042 -1.11224e-05 -6.19525e-06
-1.11224e-05 -0.000106311 8.89569e-06
-6.19525e-06 8.89569e-06 -0.000150181
0.00123087 2.86281e-05 -2.75509e-06
2.86281e-05 0.000360379 4.53919e-06
-2.75509e-06 4.53919e-06 0.000445633
0.00160102 0.000125706 -4.29477e-06
0.000125706 -0.000412597 -4.29794e-05
-4.29477e-06 -4.29794e-05 -0.000336972
0.000884819 2.46551e-06 6.41406e-07
2.46551e-06 0.000413643 -9.84145e-06
6.41406e-07 -9.84145e-06 0.000338407
0.00483813 -1.35461e-05 1.42681e-05
-1.35461e-05 0.000914971 1.92459e-05
1.42681e-05 1.92459e-05 0.000170576
0.00113665 3.22687e-06 5.88797e-07
3.22687e-06 7.71029e-05 -5.40442e-07
5.88797e-07 -5.40442e-07 -1.84492e-06
0.00107416 8.41665e-06 3.62446e-07
8.41665e-06 6.41944e-05 -6.78993e-07
3.62446e-07 -6.78993e-07 -1.35355e-05
0.000924781 1.44667e-05 -6.46545e-08
1.44667e-05 6.98767e-08 -7.85628e-07
-6.46545e-08 -7.85628e-07 -8.40235e-05
0.00122078 7.51486e-06 -1.38073e-07
7.51486e-06 0.000112174 -3.23596e-07
-1.38073e-07 -3.23596e-07 3.8979e-05
0.00117745 4.74862e-06 -1.58774e-07
4.74862e-06 9.41783e-05 -5.60891e-08
-1.58774e-07 -5.60891e-08 1.36807e-05
0.00104209 1.05554e-05 -7.1393e-07
1.05554e-05 3.41786e-05 1.36798e-06
-7.1393e-07 1.36798e-06 -4.28916e-05
0.00111655 -9.65565e-06 -1.16766e-07
-9.65565e-06 6.67565e-05 1.56194e-07
-1.16766e-07 1.56194e-07 -1.29138e-05
0.00111397 8.28435e-06 -8.12198e-08
8.28435e-06 7.91876e-05 3.22155e-07
-8.12198e-08 3.22155e-07 -6.04662e-07
0.00119289 -1.2123e-05 3.38034e-07
-1.2123e-05 0.000125001 6.29013e-07
3.38034e-07 6.29013e-07 3.96476e-05
0.00113694 -1.76785e-05 1.38636e-07
-1.76785e-05 7.68574e-05 -2.21855e-07
1.38636e-07 -2.21855e-07 1.67643e-07
0.00103123 -1.51555e-05 3.23324e-08
-1.51555e-05 2.6515e-05 2.05767e-07
3.23324e-08 2.05767e-07 -4.85198e-05
0.0011625 -2.0092e-05 5.40715e-08
-2.0092e-05 9.49887e-05 3.66187e-07
5.40715e-08 3.66187e-07 1.61042e-05
0.000932109 -2.16091e-05 -3.65034e-07
-2.16091e-05 -1.25488e-06 1.35937e-06
-3.65034e-07 1.35937e-06 -8.57285e-05
0.0010627 -2.02024e-05 2.45663e-07
-2.02024e-05 4.17303e-05 1.5502e-07
2.45663e-07 1.5502e-07 -2.86894e-05
0.00104346 -2.24244e-05 3.32735e-07
-2.24244e-05 3.20865e-05 -3.20294e-07
3.32735e-07 -3.20294e-07 -4.53454e-05
0.00120529 -2.66019e-05 -1.64493e-07
-2.66019e-05 9.79044e-05 6.60542e-07
-1.64493e-07 6.60542e-07 1.64264e-05
0.00119303 -2.45185e-05 -9.58758e-07
-2.45185e-05 8.56544e-05 8.98724e-07
-9.58758e-07 8.98724e-07 1.27984e-05
0.00129366 -2.31221e-05 3.68061e-07
-2.31221e-05 0.000139746 6.41058e-08
3.68061e-07 6.41058e-08 7.03421e-05
0.00110004 -2.37265e-05 -9.89085e-08
-2.37265e-05 4.14509e-05 -3.89863e-08
-9.89085e-08 -3.89863e-08 -3.14604e-05
0.00124623 -2.15609e-05 -3.08441e-08
-2.15609e-05 0.000122463 -5.29723e-08
-3.08441e-08 -5.29723e-08 5.87159e-05
0.00103286 -1.58003e-05 -4.7914e-07
-1.58003e-05 2.55564e-05 2.16227e-07
-4.7914e-07 2.16227e-07 -3.51179e-05
0.00113023 -2.11423e-05 2.88578e-07
-2.11423e-05 6.54208e-05 -1.17861e-07
2.88578e-07 -1.17861e-07 3.1311e-07
0.00110387 -9.62251e-06 -8.63472e-07
-9.62251e-06 5.17678e-05 1.12269e-07
-8.63472e-07 1.12269e-07 -2.85204e-06
0.00113958 -1.8523e-05 -4.18011e-07
-1.8523e-05 6.88296e-05 2.94992e-07
-4.18011e-07 2.94992e-07 9.01617e-06
0.00101787 -2.11195e-05 1.41935e-07
-2.11195e-05 8.91161e-06 -2.63452e-07
1.41935e-07 -2.63452e-07 -5.7841e-05
0.00107142 -2.70896e-06 -1.14408e-06
-2.70896e-06 3.1756e-05 9.21718e-07
-1.14408e-06 9.21718e-07 -1.40241e-05
0.0010718 -1.29301e-05 3.89191e-08
-1.29301e-05 3.32776e-05 7.09747e-08
3.89191e-08 7.09747e-08 -2.3022e-05
0.00112764 -1.93413e-05 1.0564e-06
-1.93413e-05 6.10513e-05 -2.31512e-07
1.0564e-06 -2.31512e-07 -2.27085e-07
0.0010906 -1.3286e-05 8.09104e-07
-1.3286e-05 4.51882e-05 -4.39963e-07
8.09104e-07 -4.39963e-07 -1.36548e-05
0.00106756 -2.1853e-06 6.81947e-08
-2.1853e-06 3.03405e-05 2.42645e-08
6.81947e-08 2.42645e-08 -1.63371e-05
0.00101682 6.27773e-06 -1.38818e-06
6.27773e-06 3.97166e-06 1.71306e-06
-1.38818e-06 1.71306e-06 -2.44304e-05
0.00106765 -2.73772e-06 8.01042e-07
-2.73772e-06 3.11928e-05 -1.02928e-06
8.01042e-07 -1.02928e-06 -1.56512e-05
0.0010195 5.56383e-06 5.79885e-08
5.56383e-06 3.9705e-06 7.2937e-09
5.79885e-08 7.2937e-09 -2.41871e-05
0.000942792 8.38687e-06 -1.86664e-06
8.38687e-06 -3.84625e-05 2.90727e-06
-1.86664e-06 2.90727e-06 -3.90226e-05
0.0010265 4.59797e-06 1.05695e-06
4.59797e-06 5.42278e-06 -1.73356e-06
1.05695e-06 -1.73356e-06 -2.22191e-05
0.000956395 7.12318e-06 7.88695e-08
7.12318e-06 -3.53195e-05 1.3594e-08
7.88695e-08 1.3594e-08 -3.53537e-05
0.0023083 1.05549e-05 -2.11552e-06
1.05549e-05 0.000622743 1.52781e-06
-2.11552e-06 1.52781e-06 0.000645802
0.000974898 5.79188e-06 1.41017e-06
5.79188e-06 -2.97034e-05 -2.97866e-06
1.41017e-06 -2.97866e-06 -2.92127e-05
0.00174365 7.59378e-06 1.70654e-06
7.59378e-06 0.000342756 -1.15982e-06
1.70654e-06 -1.15982e-06 0.000363531
0.00232929 5.99874e-06 3.68215e-06
5.99874e-06 0.000627319 -3.83841e-06
3.68215e-06 -3.83841e-06 0.000651202
0.000875166 1.25528e-07 -6.65921e-07
1.25528e-07 -6.2806e-05 -1.42635e-06
-6.65921e-07 -1.42635e-06 -0.000109388
0.000776306 -4.0992e-06 -7.77433e-07
-4.0992e-06 -0.000117001 -2.27806e-06
-7.77433e-07 -2.27806e-06 -0.000144077
0.00101956 -2.37806e-06 -8.72276e-08
-2.37806e-06 7.93904e-06 -4.63407e-07
-8.72276e-08 -4.63407e-07 -3.63964e-05
0.000985766 -4.58477e-06 -1.01437e-06
-4.58477e-06 -2.64604e-05 -2.96973e-06
-1.01437e-06 -2.96973e-06 -2.36296e-05
0.0007811 -3.31643e-06 -9.95722e-08
-3.31643e-06 -0.000117106 -5.67395e-07
-9.95722e-08 -5.67395e-07 -0.000142303
0.00114586 -2.31448e-06 2.24599e-07
-2.31448e-06 6.81334e-05 1.12325e-06
2.24599e-07 1.12325e-06 2.70211e-05
0.00223717 -4.07411e-06 -2.67255e-06
-4.07411e-06 0.000580384 -3.79911e-06
-2.67255e-06 -3.79911e-06 0.000605569
0.000975224 -3.04562e-06 -6.98296e-08
-3.04562e-06 -3.36071e-05 -1.22645e-09
-6.98296e-08 -1.22645e-09 -2.97261e-05
0.00078486 -2.18706e-06 3.00694e-07
-2.18706e-06 -0.000117557 1.7559e-06
3.00694e-07 1.7559e-06 -0.000141264
0.00223793 -1.97861e-06 -4.28015e-07
-1.97861e-06 0.000579362 6.68386e-09
-4.28015e-07 6.68386e-09 0.000604856
0.000972096 -1.46412e-06 2.46295e-07
-1.46412e-06 -3.62602e-05 3.03557e-06
2.46295e-07 3.03557e-06 -3.18705e-05
0.00223479 9.09898e-08 -3.43413e-07
9.09898e-08 0.000577473 3.81082e-06
-3.43413e-07 3.81082e-06 0.000603056
0.000763133 -1.15404e-05 1.79223e-06
-1.15404e-05 0.000127236 -2.18334e-06
1.79223e-06 -2.18334e-06 4.7587e-05
0.000762093 5.81198e-07 -2.99208e-07
5.81198e-07 0.000220467 3.07062e-07
-2.99208e-07 3.07062e-07 0.000160204
0.000622051 1.53645e-05 -9.28473e-06
1.53645e-05 0.000127074 4.05229e-06
-9.28473e-06 4.05229e-06 0.000126773
0.00113462 1.31742e-05 -1.64209e-07
1.31742e-05 6.6491e-05 4.48276e-08
-1.64209e-07 4.48276e-08 8.09123e-06
0.00101579 1.47118e-05 -5.63774e-07
1.47118e-05 4.038e-06 -4.28559e-07
-5.63774e-07 -4.28559e-07 -5.48853e-05
0.00119749 1.53279e-05 -1.95147e-08
1.53279e-05 9.82371e-05 3.63133e-07
-1.95147e-08 3.63133e-07 3.23423e-05
0.00049414 -1.49468e-06 -1.47624e-06
-1.49468e-06 -5.85784e-05 5.60206e-07
-1.47624e-06 5.60206e-07 -0.000119378
0.000792569 -1.41497e-05 6.76518e-07
-1.41497e-05 0.000150776 -4.87352e-07
6.76518e-07 -4.87352e-07 0.000100562
0.000912419 5.91134e-06 -8.42772e-06
5.91134e-06 0.000292307 7.32318e-06
-8.42772e-06 7.32318e-06 0.000274363
0.000527903 -1.84217e-05 -1.62311e-05
-1.84217e-05 3.51629e-05 1.44762e-05
-1.62311e-05 1.44762e-05 -0.000102934
0.00319903 -6.74391e-06 2.42295e-06
-6.74391e-06 0.000354332 -1.24719e-05
2.42295e-06 -1.24719e-05 -0.000196206
0.00293079 0.000155878 1.24472e-05
0.000155878 0.000873114 -2.37272e-05
1.24472e-05 -2.37272e-05 0.000751473
0.00147945 2.07569e-07 -7.4726e-06
2.07569e-07 0.000603977 -5.7838e-07
-7.4726e-06 -5.7838e-07 0.00058425
0.00045875 -5.25294e-05 -1.11395e-05
-5.25294e-05 -3.3295e-06 9.13497e-06
-1.11395e-05 9.13497e-06 -0.000127977
0.00632218 7.40707e-05 2.12661e-05
7.40707e-05 0.00153577 -3.85541e-05
2.12661e-05 -3.85541e-05 0.000978287
0.00105583 0.000113747 5.41067e-06
0.000113747 -0.000351995 6.37276e-06
5.41067e-06 6.37276e-06 -0.000351181
0.000670752 8.62839e-07 3.17168e-06
8.62839e-07 9.04927e-05 -9.33611e-07
3.17168e-06 -9.33611e-07 2.25858e-05
-0.00147584 -4.67423e-05 1.39232e-05
-4.67423e-05 -0.000848683 -3.5113e-05
1.39232e-05 -3.5113e-05 -0.000945246
0.00497996 0.000103838 8.26151e-06
0.000103838 0.000445455 -3.82836e-05
8.26151e-06 -3.82836e-05 0.000216703
0.00153223 4.14383e-06 -4.1617e-06
4.14383e-06 -0.000594773 2.44859e-05
-4.1617e-06 2.44859e-05 -0.000417116
0.000143378 1.79925e-07 -5.20694e-06
1.79925e-07 -0.000230755 2.15448e-06
-5.20694e-06 2.15448e-06 -0.000255882
0.00112179 1.46258e-05 -6.37128e-07
1.46258e-05 6.40582e-05 7.72613e-08
-6.37128e-07 7.72613e-08 -1.10058e-05
0.00109924 -1.0785e-07 2.46138e-08
-1.0785e-07 5.68341e-05 -2.73441e-07
2.46138e-08 -2.73441e-07 -1.7712e-05
0.00111209 -8.6088e-06 7.35014e-08
-8.6088e-06 6.55157e-05 6.35329e-07
7.35014e-08 6.35329e-07 -4.94826e-06
0.00110682 1.30877e-05 -2.82034e-07
1.30877e-05 5.72794e-05 -5.95345e-07
-2.82034e-07 -5.95345e-07 -9.73393e-06
0.00124231 1.68378e-05 3.31715e-07
1.68378e-05 0.000124059 9.50193e-07
3.31715e-07 9.50193e-07 6.00988e-05
0.00128755 8.98986e-06 4.93511e-08
8.98986e-06 0.000143968 7.48878e-07
4.93511e-08 7.48878e-07 8.83051e-05
0.000259725 -2.27476e-05 8.34263e-06
-2.27476e-05 -0.000599914 -7.77614e-06
8.34263e-06 -7.77614e-06 -0.000594946
0.00122477 -1.68508e-05 8.21987e-07
-1.68508e-05 0.000184857 -1.3444e-07
8.21987e-07 -1.3444e-07 7.62249e-05
0.00115547 4.32498e-06 9.65588e-08
4.32498e-06 9.24271e-05 2.1928e-08
9.65588e-08 2.1928e-08 1.0443e-05
0.00126401 -1.46071e-05 1.28338e-06
-1.46071e-05 0.000139871 -4.80185e-07
1.28338e-06 -4.80185e-07 3.76642e-05
0.00113974 -4.76206e-06 1.93875e-07
-4.76206e-06 8.3361e-05 1.02471e-07
1.93875e-07 1.02471e-07 -8.46186e-06
0.00110536 1.09478e-05 2.79461e-07
1.09478e-05 6.40806e-05 3.35097e-07
2.79461e-07 3.35097e-07 -1.88371e-05
0.00111939 1.14005e-05 1.40742e-07
1.14005e-05 7.11566e-05 2.82532e-07
1.40742e-07 2.82532e-07 -1.96484e-05
0.00112612 -3.46636e-05 2.67073e-06
-3.46636e-05 -1.86133e-05 4.45816e-07
2.67073e-06 4.45816e-07 -8.71399e-05
0.00124288 -9.22732e-06 -8.26659e-08
-9.22732e-06 0.000131536 -3.79333e-07
-8.26659e-08 -3.79333e-07 3.20754e-05
0.00123077 3.35408e-06 1.36616e-07
3.35408e-06 0.000179385 4.04172e-07
1.36616e-07 4.04172e-07 6.81747e-05
0.00104305 1.44534e-05 -6.64534e-07
1.44534e-05 3.35934e-05 -1.47725e-07
-6.64534e-07 -1.47725e-07 -5.59575e-05
0.00192581 -1.49496e-05 -7.02984e-06
-1.49496e-05 0.000523732 2.38585e-05
-7.02984e-06 2.38585e-05 0.000420966
0.00107415 -1.84952e-06 3.18569e-07
-1.84952e-06 5.3904e-05 -8.27545e-07
3.18569e-07 -8.27545e-07 -5.31293e-05
0.00107273 8.97982e-08 -2.32744e-07
8.97982e-08 5.47309e-05 3.84445e-07
-2.32744e-07 3.84445e-07 -4.27905e-05
0.000956294 3.03579e-06 4.37206e-07
3.03579e-06 0.00019597 9.94146e-08
4.37206e-07 9.94146e-08 0.00011404
0.000821961 1.30582e-06 7.76789e-07
1.30582e-06 0.000157133 5.00691e-07
7.76789e-07 5.00691e-07 6.76567e-05
0.00104851 3.47293e-06 -1.48464e-05
3.47293e-06 0.000403735 5.70645e-07
-1.48464e-05 5.70645e-07 0.000335058
0.00151326 8.68057e-06 5.31824e-08
8.68057e-06 0.000278388 2.55491e-06
5.31824e-08 2.55491e-06 0.000204826
0.00115641 -5.77078e-06 7.23477e-06
-5.77078e-06 0.000326198 -1.58716e-06
7.23477e-06 -1.58716e-06 0.000274399
0.000460285 8.97144e-06 -1.87007e-06
8.97144e-06 -7.72295e-05 -5.6797e-07
-1.87007e-06 -5.6797e-07 -0.000159511
0.00283976 -4.4049e-05 -5.89975e-07
-4.4049e-05 0.000186045 -8.2474e-06
-5.89975e-07 -8.2474e-06 0.000139074
0.001125 6.7662e-06 1.8555e-06
6.7662e-06 -0.00070986 3.00818e-05
1.8555e-06 3.00818e-05 -0.000404453
0.000837894 -3.46426e-06 -3.38835e-07
-3.46426e-06 0.000119416 1.02686e-06
-3.38835e-07 1.02686e-06 5.70517e-05
0.00142364 9.37596e-07 7.54609e-06
9.37596e-07 0.000546547 -1.57598e-06
7.54609e-06 -1.57598e-06 0.00054861
0.00109118 -6.89227e-06 1.831e-06
-6.89227e-06 5.52173e-05 2.20069e-06
1.831e-06 2.20069e-06 1.98936e-06
0.000807842 -1.20651e-07 3.56999e-07
-1.20651e-07 9.85918e-05 8.47822e-07
3.56999e-07 8.47822e-07 2.48225e-05
0.00084371 -1.21508e-05 -1.07945e-06
-1.21508e-05 0.000148108 6.26462e-07
-1.07945e-06 6.26462e-07 0.000100824
0.000255222 2.80903e-05 -1.00784e-06
2.80903e-05 -6.3406e-05 -9.95597e-08
-1.00784e-06 -9.95597e-08 -0.000402762
0.000811648 2.1969e-05 2.34642e-06
2.1969e-05 0.000106605 2.03473e-06
2.34642e-06 2.03473e-06 0.000204036
0.000207475 0.000111648 -3.69095e-06
0.000111648 -0.000637502 -8.17988e-06
-3.69095e-06 -8.17988e-06 -0.000567844
0.005299 2.23762e-05 7.62333e-06
2.23762e-05 0.000437128 -2.00345e-05
7.62333e-06 -2.00345e-05 0.000633033
0.00128402 7.77276e-07 -3.61577e-08
7.77276e-07 0.000286005 -1.08477e-05
-3.61577e-08 -1.08477e-05 0.000251726
0.000780946 -8.25476e-06 -2.4783e-06
-8.25476e-06 0.000126263 1.87595e-06
-2.4783e-06 1.87595e-06 4.63492e-05
0.000530839 6.49022e-06 -1.64919e-05
6.49022e-06 2.6032e-05 7.10332e-06
-1.64919e-05 7.10332e-06 9.01939e-06
0.000946193 3.80962e-05 1.25203e-06
3.80962e-05 0.000209171 1.27401e-06
1.25203e-06 1.27401e-06 0.000318407
-0.00113489 0.000118227 2.9308e-05
0.000118227 -0.000936265 -4.78162e-05
2.9308e-05 -4.78162e-05 -0.000985159
0.00680874 8.14563e-05 -2.5396e-06
8.14563e-05 0.0014993 -1.16374e-06
-2.5396e-06 -1.16374e-06 0.00121675
0.000413666 -2.13827e-05 -1.04326e-05
-2.13827e-05 0.000170463 4.86956e-05
-1.04326e-05 4.86956e-05 -0.000380269
0.000919335 8.56786e-06 1.20152e-06
8.56786e-06 -1.16344e-05 -1.84207e-06
1.20152e-06 -1.84207e-06 -8.97827e-05
0.00108281 1.21753e-05 7.89043e-07
1.21753e-05 7.45219e-05 -1.37509e-06
7.89043e-07 -1.37509e-06 -9.5802e-06
0.0010431 3.7234e-06 3.5542e-07
3.7234e-06 8.57008e-05 5.08323e-07
3.5542e-07 5.08323e-07 -1.7964e-06
0.00110988 -1.11272e-05 -6.2421e-08
-1.11272e-05 6.38136e-05 -1.79543e-07
-6.2421e-08 -1.79543e-07 -1.57781e-05
0.00110182 6.71693e-06 -3.71864e-07
6.71693e-06 7.47787e-05 1.33576e-06
-3.71864e-07 1.33576e-06 -4.67118e-06
0.0011611 -8.97591e-06 -1.04392e-08
-8.97591e-06 0.000109102 2.84737e-07
-1.04392e-08 2.84737e-07 2.40242e-05
0.00117561 -2.17625e-05 9.11742e-07
-2.17625e-05 0.000144996 7.09028e-07
9.11742e-07 7.09028e-07 4.61527e-05
0.00117215 -2.03201e-05 3.63025e-07
-2.03201e-05 9.83695e-05 -9.39981e-08
3.63025e-07 -9.39981e-08 1.91771e-05
0.00119425 -2.43061e-05 -2.23255e-07
-2.43061e-05 0.000121645 4.10607e-07
-2.23255e-07 4.10607e-07 3.58936e-05
0.00117071 -2.85958e-05 -4.9022e-07
-2.85958e-05 0.000102375 1.61822e-06
-4.9022e-07 1.61822e-06 9.44763e-06
0.00106924 -2.24137e-05 1.74217e-07
-2.24137e-05 4.62645e-05 -5.89318e-07
1.74217e-07 -5.89318e-07 -3.05103e-05
0.00123178 -2.67335e-05 -1.15438e-07
-2.67335e-05 0.000110813 4.53922e-08
-1.15438e-07 4.53922e-08 2.90646e-05
0.00142777 -2.98168e-05 -9.7172e-07
-2.98168e-05 0.000197568 6.61219e-07
-9.7172e-07 6.61219e-07 0.000114471
0.0013085 -2.65951e-05 -7.56391e-07
-2.65951e-05 0.000137676 7.63445e-07
-7.56391e-07 7.63445e-07 6.12464e-05
0.00102263 -2.10779e-05 -4.3466e-07
-2.10779e-05 1.20003e-05 7.46683e-07
-4.3466e-07 7.46683e-07 -5.488e-05
0.00114221 -2.42373e-05 -1.23837e-07
-2.42373e-05 6.16024e-05 1.71917e-07
-1.23837e-07 1.71917e-07 -1.20068e-05
0.00116056 -2.43315e-05 1.72805e-07
-2.43315e-05 7.00809e-05 -4.0611e-07
1.72805e-07 -4.0611e-07 -3.23804e-06
0.00122043 -1.95246e-05 -5.61591e-08
-1.95246e-05 0.000110528 -5.05406e-08
-5.61591e-08 -5.05406e-08 5.08537e-05
0.00115021 -2.06368e-05 4.86403e-07
-2.06368e-05 7.69644e-05 -4.65105e-07
4.86403e-07 -4.65105e-07 1.37034e-05
0.000993298 -5.34971e-06 -4.73476e-07
-5.34971e-06 5.71915e-06 5.05365e-07
-4.73476e-07 5.05365e-07 -4.98221e-05
0.00110662 -1.62359e-05 8.66574e-08
-1.62359e-05 6.06014e-05 -7.2243e-08
8.66574e-08 -7.2243e-08 5.32818e-07
0.0011363 -2.11176e-05 1.29184e-06
-2.11176e-05 6.808e-05 -7.86386e-07
1.29184e-06 -7.86386e-07 3.65172e-06
0.00105815 5.09532e-07 -1.29233e-06
5.09532e-07 2.80032e-05 7.80266e-07
-1.29233e-06 7.80266e-07 -1.70608e-05
0.00111102 -9.95324e-06 -1.98712e-07
-9.95324e-06 5.45149e-05 -3.0407e-08
-1.98712e-07 -3.0407e-08 -1.64503e-08
0.00115234 -1.85795e-05 2.69056e-07
-1.85795e-05 7.47714e-05 8.41166e-09
2.69056e-07 8.41166e-09 1.48558e-05
0.00101267 7.00565e-06 -1.67522e-06
7.00565e-06 3.37353e-06 1.62935e-06
-1.67522e-06 1.62935e-06 -2.49002e-05
0.0010696 -2.08402e-06 7.55547e-08
-2.08402e-06 3.06115e-05 4.93989e-08
7.55547e-08 4.93989e-08 -1.50619e-05
0.00103392 -1.30025e-05 9.84944e-07
-1.30025e-05 1.44549e-05 -1.75322e-07
9.84944e-07 -1.75322e-07 -4.20896e-05
0.00106395 -1.59384e-06 1.03e-06
-1.59384e-06 2.84339e-05 -9.58463e-07
1.03e-06 -9.58463e-07 -1.81599e-05
0.00101433 6.36052e-06 8.45979e-08
6.36052e-06 2.87109e-06 2.19306e-08
8.45979e-08 2.19306e-08 -2.55268e-05
0.000936139 9.57999e-06 -2.17876e-06
9.57999e-06 -3.83542e-05 2.85234e-06
-2.17876e-06 2.85234e-06 -3.94028e-05
0.00101995 5.60866e-06 1.26035e-06
5.60866e-06 4.21328e-06 -1.71236e-06
1.26035e-06 -1.71236e-06 -2.39603e-05
0.000952673 8.39498e-06 7.31872e-08
8.39498e-06 -3.37788e-05 1.52443e-08
7.31872e-08 1.52443e-08 -3.43705e-05
0.0023766 1.19227e-05 -5.74051e-06
1.19227e-05 0.000659649 3.69216e-06
-5.74051e-06 3.69216e-06 0.000681837
0.000969261 7.10947e-06 1.73566e-06
7.10947e-06 -2.92997e-05 -2.93277e-06
1.73566e-06 -2.93277e-06 -2.9358e-05
0.00173803 9.50867e-06 1.96581e-06
9.50867e-06 0.000343799 -1.14317e-06
1.96581e-06 -1.14317e-06 0.000363984
0.00233377 8.04368e-06 4.59451e-06
8.04368e-06 0.000632395 -3.79721e-06
4.59451e-06 -3.79721e-06 0.000655787
0.00105382 5.09504e-06 -7.69719e-07
5.09504e-06 2.27534e-05 -9.0634e-07
-7.69719e-07 -9.0634e-07 -2.31827e-05
0.00101778 -4.78469e-06 -9.90329e-07
-4.78469e-06 2.36176e-06 -1.65814e-06
-9.90329e-07 -1.65814e-06 -2.46904e-05
0.000969118 2.24128e-06 -3.01475e-07
2.24128e-06 -1.68245e-05 -4.41722e-07
-3.01475e-07 -4.41722e-07 -6.29692e-05
0.000983194 -6.00782e-06 -1.31884e-06
-6.00782e-06 -2.492e-05 -2.94088e-06
-1.31884e-06 -2.94088e-06 -2.33533e-05
0.000900441 -4.22312e-06 -1.72198e-07
-4.22312e-06 -5.65811e-05 -5.65329e-07
-1.72198e-07 -5.65329e-07 -8.29763e-05
0.00115605 -3.43603e-06 2.05923e-07
-3.43603e-06 7.39045e-05 5.5297e-07
2.05923e-07 5.5297e-07 3.02152e-05
0.00225575 -6.12244e-06 -3.6273e-06
-6.12244e-06 0.000591624 -3.78666e-06
-3.6273e-06 -3.78666e-06 0.000616225
0.000972945 -4.58899e-06 -6.99937e-08
-4.58899e-06 -3.26999e-05 -3.97854e-09
-6.99937e-08 -3.97854e-09 -2.97769e-05
0.000769173 -3.31751e-06 3.59739e-07
-3.31751e-06 -0.000122607 1.14977e-06
3.59739e-07 1.14977e-06 -0.000148006
0.00224549 -4.02098e-06 -3.60654e-07
-4.02098e-06 0.000584207 1.21629e-08
-3.60654e-07 1.21629e-08 0.000609419
0.000966617 -3.03813e-06 5.73376e-07
-3.03813e-06 -3.78363e-05 3.01645e-06
5.73376e-07 3.01645e-06 -3.38863e-05
0.00224551 -1.93427e-06 8.97698e-07
-1.93427e-06 0.000582971 3.82789e-06
8.97698e-07 3.82789e-06 0.000608448
0.000647897 -1.22645e-06 -4.7201e-07
-1.22645e-06 1.47097e-05 -1.14848e-06
-4.7201e-07 -1.14848e-06 -5.84932e-05
0.000887652 -1.14909e-05 6.74423e-07
-1.14909e-05 0.000205823 -2.20375e-07
6.74423e-07 -2.20375e-07 0.000125753
0.000801363 4.68928e-07 -9.62885e-06
4.68928e-07 0.000243842 3.23668e-06
-9.62885e-06 3.23668e-06 0.000184085
0.00102294 1.36154e-05 -5.32051e-07
1.36154e-05 6.23269e-06 -2.83379e-07
-5.32051e-07 -2.83379e-07 -5.12964e-05
0.00118769 1.84112e-05 -1.58242e-07
1.84112e-05 8.54877e-05 2.4788e-07
-1.58242e-07 2.4788e-07 2.47244e-05
0.00117879 1.54528e-05 3.84937e-07
1.54528e-05 8.80111e-05 6.13505e-07
3.84937e-07 6.13505e-07 3.0027e-05
0.00101004 1.44822e-05 1.92508e-08
1.44822e-05 1.62075e-06 2.43709e-08
1.92508e-08 2.43709e-08 -5.72244e-05
0.00114295 1.56423e-05 2.01412e-07
1.56423e-05 7.15031e-05 3.03212e-07
2.01412e-07 3.03212e-07 4.94154e-06
0.00116706 1.9014e-05 -2.82071e-07
1.9014e-05 7.91443e-05 9.46859e-08
-2.82071e-07 9.46859e-08 1.39234e-05
0.00115544 1.93283e-05 5.2272e-08
1.93283e-05 7.6551e-05 5.30976e-07
5.2272e-08 5.30976e-07 6.02221e-06
0.000889297 8.40879e-06 -8.22732e-06
8.40879e-06 0.000212629 -3.75788e-06
-8.22732e-06 -3.75788e-06 0.000159334
0.000676822 -1.86117e-06 8.01086e-07
-1.86117e-06 5.55594e-05 1.34025e-08
8.01086e-07 1.34025e-08 -8.11799e-06
0.00120069 -1.44456e-05 -3.69024e-06
-1.44456e-05 0.000409362 -1.10624e-08
-3.69024e-06 -1.10624e-08 0.000355621
0.0010611 2.79578e-06 5.0572e-07
2.79578e-06 0.000349815 -3.1075e-06
5.0572e-07 -3.1075e-06 0.000281413
0.00258007 -7.99879e-05 -5.21624e-05
-7.99879e-05 0.000654275 5.92384e-05
-5.21624e-05 5.92384e-05 0.000361445
0.000760995 9.11421e-05 3.51651e-05
9.11421e-05 -0.000657915 -5.17368e-05
3.51651e-05 -5.17368e-05 -0.00115879
0.00475203 0.000122166 1.80994e-06
0.000122166 0.000984573 -1.79039e-05
1.80994e-06 -1.79039e-05 0.00109185
0.00124614 -6.50446e-05 -2.91936e-05
-6.50446e-05 0.000256089 2.72692e-05
-2.91936e-05 2.72692e-05 7.47402e-05
0.0047385 4.79159e-05 6.32971e-06
4.79159e-05 0.000380708 -3.36765e-05
6.32971e-06 -3.36765e-05 -4.07807e-05
0.00369891 1.1615e-05 -9.87515e-06
1.1615e-05 0.000129172 -2.46344e-07
-9.87515e-06 -2.46344e-07 0.000433743
0.0004896 -5.7476e-06 3.91222e-06
-5.7476e-06 -6.70299e-05 2.61618e-06
3.91222e-06 2.61618e-06 -7.8485e-05
-0.00062793 -3.52279e-05 5.04221e-06
-3.52279e-05 -0.000434344 -8.38532e-06
5.04221e-06 -8.38532e-06 -0.000571837
0.00409446 -2.39867e-05 -1.36509e-06
-2.39867e-05 0.000106782 -0.000104067
-1.36509e-06 -0.000104067 -0.000458894
0.00119146 -8.81369e-05 8.08004e-07
-8.81369e-05 -0.000347392 3.30924e-05
8.08004e-07 3.30924e-05 -0.000249024
-0.00065439 -2.33615e-05 -6.39936e-06
-2.33615e-05 -0.000734705 1.79008e-06
-6.39936e-06 1.79008e-06 -0.00069367
0.00114344 2.06617e-05 -1.88973e-06
2.06617e-05 7.70711e-05 4.07119e-07
-1.88973e-06 4.07119e-07 2.76289e-08
0.00116036 1.23124e-05 -5.0152e-08
1.23124e-05 8.30893e-05 -5.42848e-08
-5.0152e-08 -5.42848e-08 7.74644e-06
0.00109748 -1.26848e-06 5.29268e-08
-1.26848e-06 5.63684e-05 -1.69947e-07
5.29268e-08 -1.69947e-07 -1.8095e-05
0.00112729 1.29357e-05 -4.46144e-08
1.29357e-05 6.70814e-05 -3.4053e-07
-4.46144e-08 -3.4053e-07 -1.08922e-07
0.000133629 -3.00713e-05 1.0176e-05
-3.00713e-05 -0.000513789 -1.39285e-05
1.0176e-05 -1.39285e-05 -0.000571169
0.00120748 5.44924e-07 9.00761e-07
5.44924e-07 0.000155644 -1.67144e-06
9.00761e-07 -1.67144e-06 4.34227e-05
0.00115648 1.16531e-05 5.87382e-07
1.16531e-05 8.98799e-05 4.25553e-07
5.87382e-07 4.25553e-07 6.05901e-06
0.00107236 1.16648e-05 8.70436e-08
1.16648e-05 4.86234e-05 1.34222e-07
8.70436e-08 1.34222e-07 -4.24606e-05
0.00114901 -1.01215e-05 -6.41442e-08
-1.01215e-05 8.80153e-05 -1.38317e-06
-6.41442e-08 -1.38317e-06 -1.16167e-05
0.00112509 1.56166e-05 -3.16952e-07
1.56166e-05 7.45525e-05 -9.32546e-08
-3.16952e-07 -9.32546e-08 -1.38443e-05
0.001124 1.78824e-06 -2.01656e-07
1.78824e-06 7.80572e-05 -2.53724e-07
-2.01656e-07 -2.53724e-07 -1.94871e-05
0.000795429 -1.10982e-05 5.01457e-06
-1.10982e-05 7.41389e-05 -2.71048e-06
5.01457e-06 -2.71048e-06 -1.26363e-05
0.00105237 -3.19018e-06 4.2808e-07
-3.19018e-06 4.32363e-05 -9.64243e-07
4.2808e-07 -9.64243e-07 -6.31296e-05
0.00113511 1.32689e-05 -4.20766e-07
1.32689e-05 8.56857e-05 2.04741e-07
-4.20766e-07 2.04741e-07 -8.99791e-06
0.000632348 9.43529e-06 4.57293e-06
9.43529e-06 0.00017735 2.78769e-05
4.57293e-06 2.78769e-05 0.000103841
0.0012741 -2.1522e-07 6.97603e-07
-2.1522e-07 0.000135254 -1.46534e-06
6.97603e-07 -1.46534e-06 2.3e-05
0.00119692 3.20848e-06 -1.12431e-06
3.20848e-06 0.00039783 -8.13879e-08
-1.12431e-06 -8.13879e-08 0.000303762
0.000777528 1.52305e-06 2.16318e-07
1.52305e-06 8.43627e-05 7.30747e-08
2.16318e-07 7.30747e-08 4.53723e-06
0.000387272 8.26171e-07 -4.53562e-08
8.26171e-07 -0.000117984 1.23469e-07
-4.53562e-08 1.23469e-07 -0.000207374
0.00133885 -8.6903e-06 -1.44217e-06
-8.6903e-06 0.000154926 6.28096e-06
-1.44217e-06 6.28096e-06 9.9581e-05
-0.000166304 1.80143e-06 4.72153e-07
1.80143e-06 -0.000126915 1.33752e-05
4.72153e-07 1.33752e-05 -0.000199592
0.000820393 -1.00388e-06 5.98422e-07
-1.00388e-06 0.000109087 6.39602e-07
5.98422e-07 6.39602e-07 3.34435e-05
0.0040334 5.07186e-05 8.65637e-07
5.07186e-05 0.000545373 -5.06187e-05
8.65637e-07 -5.06187e-05 -0.000218901
0.00509279 0.000119995 -4.24202e-06
0.000119995 0.00117001 1.97904e-05
-4.24202e-06 1.97904e-05 0.00136524
0.00124234 -1.3204e-05 3.52579e-06
-1.3204e-05 0.000400826 -1.41851e-06
3.52579e-06 -1.41851e-06 0.000350049
0.00230715 1.90702e-05 7.5691e-06
1.90702e-05 0.00103964 -1.62817e-06
7.5691e-06 -1.62817e-06 0.00111809
0.000991485 4.1799e-07 -3.73867e-07
4.1799e-07 0.000124863 -5.54991e-07
-3.73867e-07 -5.54991e-07 9.14053e-05
0.000910059 -7.98307e-06 -1.24664e-06
-7.98307e-06 0.00020778 2.69904e-07
-1.24664e-06 2.69904e-07 0.000127471
0.000767934 6.37234e-06 -3.2093e-06
6.37234e-06 0.000173427 8.2778e-07
-3.2093e-06 8.2778e-07 0.00015808
0.000139827 -4.99465e-06 -3.12238e-07
-4.99465e-06 0.000134703 8.57524e-06
-3.12238e-07 8.57524e-06 -6.02863e-05
0.000431499 4.12423e-05 -5.28002e-07
4.12423e-05 -9.21601e-05 -1.82539e-06
-5.28002e-07 -1.82539e-06 1.19786e-05
-0.000299385 0.000124291 3.08512e-06
0.000124291 -0.00079135 -1.10032e-05
3.08512e-06 -1.10032e-05 -0.000826632
0.00230194 5.07987e-05 8.01661e-06
5.07987e-05 -0.000293076 -2.97365e-05
8.01661e-06 -2.97365e-05 -0.000791396
0.000767191 -1.05038e-06 6.03218e-06
-1.05038e-06 9.49116e-05 -1.94389e-05
6.03218e-06 -1.94389e-05 7.56839e-05
0.00085967 6.08343e-07 -9.37695e-06
6.08343e-07 0.000274742 3.12093e-06
-9.37695e-06 3.12093e-06 0.000215188
-0.00129513 2.54371e-05 -5.56107e-07
2.54371e-05 -0.00103272 1.07713e-06
-5.56107e-07 1.07713e-06 -0.00100162
6.89991e-05 7.65564e-05 3.58506e-05
7.65564e-05 -4.15927e-06 -3.43833e-05
3.58506e-05 -3.43833e-05 4.99126e-06
0.00542048 9.19671e-05 1.47799e-05
9.19671e-05 0.00115973 -2.91605e-05
1.47799e-05 -2.91605e-05 0.000707715
0.00150427 -6.78157e-05 -2.27839e-05
-6.78157e-05 0.000255906 7.52625e-05
-2.27839e-05 7.52625e-05 -0.00018004
0.00128759 1.04707e-05 -1.86046e-08
1.04707e-05 0.000171069 -2.59533e-06
-1.86046e-08 -2.59533e-06 8.69251e-05
0.0011238 5.80365e-06 -8.371e-08
5.80365e-06 0.000116592 -2.1902e-07
-8.371e-08 -2.1902e-07 2.94386e-05
0.000957945 -1.16137e-05 2.02811e-06
-1.16137e-05 9.84367e-05 1.02039e-06
2.02811e-06 1.02039e-06 -2.25554e-05
0.0011266 -8.84803e-06 -2.63246e-07
-8.84803e-06 9.18544e-05 -8.51253e-08
-2.63246e-07 -8.51253e-08 7.10045e-06
0.00101691 -2.03486e-05 4.42208e-07
-2.03486e-05 6.72933e-05 1.81903e-07
4.42208e-07 1.81903e-07 -2.95545e-05
0.00130078 -3.21638e-05 1.16145e-06
-3.21638e-05 0.000189812 4.72509e-07
1.16145e-06 4.72509e-07 7.81696e-05
0.0014414 -2.68692e-05 1.82766e-07
-2.68692e-05 0.000237585 -3.59676e-07
1.82766e-07 -3.59676e-07 0.000150551
0.00127137 -2.97431e-05 -2.02711e-07
-2.97431e-05 0.000149865 4.94612e-07
-2.02711e-07 4.94612e-07 5.54239e-05
0.00120085 -3.23945e-05 -1.6408e-06
-3.23945e-05 9.10464e-05 -3.68202e-07
-1.6408e-06 -3.68202e-07 -3.00865e-06
0.0012569 -2.68657e-05 9.85146e-08
-2.68657e-05 0.000123117 -6.9686e-07
9.85146e-08 -6.9686e-07 4.10972e-05
0.00134517 -2.91959e-05 -1.88497e-07
-2.91959e-05 0.000156764 4.71704e-08
-1.88497e-07 4.71704e-08 7.31017e-05
0.00130341 -2.83386e-05 -4.77959e-07
-2.83386e-05 0.000130361 -5.97958e-07
-4.77959e-07 -5.97958e-07 4.90041e-05
0.00125132 -2.53042e-05 -6.423e-07
-2.53042e-05 8.90965e-05 -8.99599e-07
-6.423e-07 -8.99599e-07 1.62556e-05
0.00132463 -2.50517e-05 -8.12325e-07
-2.50517e-05 0.000144472 1.12017e-06
-8.12325e-07 1.12017e-06 7.42986e-05
0.0012468 -2.61533e-05 -1.2923e-07
-2.61533e-05 0.000108021 6.01263e-08
-1.2923e-07 6.01263e-08 3.10088e-05
0.000985164 -1.95964e-05 -3.56373e-07
-1.95964e-05 -4.66369e-06 1.86648e-07
-3.56373e-07 1.86648e-07 -6.62418e-05
0.00108698 -2.14981e-05 2.7006e-07
-2.14981e-05 4.25635e-05 -7.39079e-08
2.7006e-07 -7.39079e-08 -2.37686e-05
0.00109519 -2.40044e-05 4.26707e-07
-2.40044e-05 3.92792e-05 -6.23553e-07
4.26707e-07 -6.23553e-07 -3.50791e-05
0.00111866 -1.15515e-05 -3.1387e-07
-1.15515e-05 6.29421e-05 2.91579e-07
-3.1387e-07 2.91579e-07 7.01166e-06
0.00115579 -1.89558e-05 1.28941e-07
-1.89558e-05 7.99793e-05 -1.44576e-07
1.28941e-07 -1.44576e-07 1.98627e-05
0.00105521 -1.97291e-05 9.80982e-07
-1.97291e-05 3.19758e-05 -5.78154e-07
9.80982e-07 -5.78154e-07 -3.08027e-05
0.00104052 4.60102e-06 -1.00401e-06
4.60102e-06 2.5419e-05 8.00945e-07
-1.00401e-06 8.00945e-07 -2.05328e-05
0.00103386 -4.58272e-06 -1.31672e-07
-4.58272e-06 2.47636e-05 1.55249e-07
-1.31672e-07 1.55249e-07 -3.04029e-05
0.00117743 -1.6626e-05 4.43096e-07
-1.6626e-05 9.42104e-05 -2.9358e-07
4.43096e-07 -2.9358e-07 3.4757e-05
0.00100128 8.17633e-06 -1.87422e-06
8.17633e-06 7.92737e-07 1.51161e-06
-1.87422e-06 1.51161e-06 -2.74349e-05
0.00106649 3.57119e-07 -9.43642e-08
3.57119e-07 3.15715e-05 -1.48205e-08
-9.43642e-08 -1.48205e-08 -1.34123e-05
0.001116 -1.01834e-05 5.1106e-07
-1.01834e-05 5.6199e-05 -2.36571e-07
5.1106e-07 -2.36571e-07 1.76438e-06
0.000968351 1.07606e-05 -3.34401e-06
1.07606e-05 -1.94799e-05 3.84096e-06
-3.34401e-06 3.84096e-06 -2.10606e-05
0.00101007 7.10707e-06 6.67044e-08
7.10707e-06 2.25136e-06 2.95103e-08
6.67044e-08 2.95103e-08 -2.60035e-05
0.00106765 -1.6279e-06 1.24319e-06
-1.6279e-06 2.93953e-05 -7.93966e-07
1.24319e-06 -7.93966e-07 -1.61723e-05
0.00101231 6.44666e-06 1.53949e-06
6.44666e-06 1.99891e-06 -1.65642e-06
1.53949e-06 -1.65642e-06 -2.63954e-05
0.000944047 9.59826e-06 9.09886e-08
9.59826e-06 -3.45547e-05 2.56281e-08
9.09886e-08 2.56281e-08 -3.56294e-05
0.00238907 1.38429e-05 -6.35404e-06
1.38429e-05 0.000669785 3.61173e-06
-6.35404e-06 3.61173e-06 0.000691284
0.000962147 8.403e-06 2.03712e-06
8.403e-06 -2.92952e-05 -2.88047e-06
2.03712e-06 -2.88047e-06 -2.9917e-05
0.00235773 1.19523e-05 1.91032e-07
1.19523e-05 0.000650902 3.02934e-08
1.91032e-07 3.02934e-08 0.000673107
0.00233614 1.00374e-05 5.36276e-06
1.00374e-05 0.000637008 -3.73784e-06
5.36276e-06 -3.73784e-06 0.000659842
0.00110708 1.26917e-05 -5.58866e-07
1.26917e-05 4.70776e-05 -1.8995e-07
-5.58866e-07 -1.8995e-07 -9.29722e-06
0.00106518 3.09585e-06 -8.50272e-07
3.09585e-06 2.7184e-05 -8.73154e-07
-8.50272e-07 -8.73154e-07 -1.89942e-05
0.00100747 -5.23804e-06 -1.23975e-06
-5.23804e-06 -1.21919e-06 -1.62526e-06
-1.23975e-06 -1.62526e-06 -2.93087e-05
0.0010661 5.39797e-06 -2.69339e-08
5.39797e-06 2.86493e-05 7.45145e-09
-2.69339e-08 7.45145e-09 -1.73634e-05
0.000974666 -7.26379e-06 -1.65936e-06
-7.26379e-06 -2.57679e-05 -2.90583e-06
-1.65936e-06 -2.90583e-06 -2.55295e-05
0.00102033 -4.80414e-06 -8.17853e-08
-4.80414e-06 3.71484e-06 1.52947e-08
-8.17853e-08 1.52947e-08 -2.33535e-05
0.00106358 5.50185e-06 2.75877e-07
5.50185e-06 2.93478e-05 5.82433e-07
2.75877e-07 5.82433e-07 -1.63271e-05
0.00228548 -8.1299e-06 -4.51929e-06
-8.1299e-06 0.000609121 -3.77769e-06
-4.51929e-06 -3.77769e-06 0.000632927
0.000968081 -6.0197e-06 -7.90565e-08
-6.0197e-06 -3.22025e-05 -6.23768e-09
-7.90565e-08 -6.23768e-09 -3.05429e-05
0.00102399 -4.35933e-06 5.12524e-07
-4.35933e-06 3.55997e-06 1.13387e-06
5.12524e-07 1.13387e-06 -2.21538e-05
0.00226533 -6.07431e-06 -3.10662e-07
-6.07431e-06 0.000595938 1.78455e-08
-3.10662e-07 1.78455e-08 0.000620596
0.000959904 -4.5926e-06 8.62157e-07
-4.5926e-06 -3.90488e-05 2.99044e-06
8.62157e-07 2.99044e-06 -3.60325e-05
0.00225406 -3.96586e-06 2.1285e-06
-3.96586e-06 0.000588151 3.79303e-06
2.1285e-06 3.79303e-06 0.000613391
0.000760355 7.4182e-06 -1.88903e-06
7.4182e-06 0.000125962 -2.6568e-06
-1.88903e-06 -2.6568e-06 4.08033e-05
0.000777259 -2.23314e-06 -1.01245e-07
-2.23314e-06 9.52841e-05 -1.27451e-06
-1.01245e-07 -1.27451e-06 1.9983e-05
0.00101036 -1.14173e-05 -4.65491e-07
-1.14173e-05 0.00028326 9.30591e-07
-4.65491e-07 9.30591e-07 0.000202736
0.00106351 1.34165e-05 5.59586e-08
1.34165e-05 2.65909e-05 2.19397e-08
5.59586e-08 2.19397e-08 -3.06951e-05
0.00114075 1.7976e-05 2.18295e-07
1.7976e-05 6.24346e-05 1.42443e-07
2.18295e-07 1.42443e-07 1.33456e-06
0.00107388 1.39051e-05 -3.02437e-07
1.39051e-05 3.07374e-05 -1.17722e-07
-3.02437e-07 -1.17722e-07 -2.98359e-05
0.00107595 1.79748e-05 -5.79764e-07
1.79748e-05 3.16841e-05 -9.83181e-08
-5.79764e-07 -9.83181e-08 -3.10077e-05
0.00119116 1.91472e-05 1.07892e-07
1.91472e-05 8.54563e-05 3.92638e-07
1.07892e-07 3.92638e-07 2.19746e-05
0.00100354 1.42443e-05 6.31323e-07
1.42443e-05 -1.14621e-06 4.1985e-07
6.31323e-07 4.1985e-07 -5.99137e-05
0.00108876 1.65883e-05 4.31471e-07
1.65883e-05 4.49385e-05 2.82987e-07
4.31471e-07 2.82987e-07 -2.23085e-05
0.00115984 1.89731e-05 5.55246e-09
1.89731e-05 7.55071e-05 3.50716e-09
5.55246e-09 3.50716e-09 1.03463e-05
0.00113371 1.87583e-05 2.88545e-07
1.87583e-05 6.53179e-05 2.34031e-07
2.88545e-07 2.34031e-07 -4.77567e-06
0.00121208 2.01341e-05 -1.38821e-07
2.01341e-05 0.000101727 5.07402e-07
-1.38821e-07 5.07402e-07 3.27785e-05
0.000667196 -1.27439e-05 -9.56914e-06
-1.27439e-05 0.000148553 -1.37207e-05
-9.56914e-06 -1.37207e-05 0.000119875
0.000592038 8.14398e-06 -1.97614e-06
8.14398e-06 2.79293e-05 -8.32131e-07
-1.97614e-06 -8.32131e-07 -2.74223e-05
0.000888085 -2.17487e-06 -5.1154e-07
-2.17487e-06 0.000187028 -1.65486e-06
-5.1154e-07 -1.65486e-06 0.000120531
1.26013e-05 -3.01024e-06 1.3339e-05
-3.01024e-06 -0.000349764 2.70831e-06
1.3339e-05 2.70831e-06 -0.000376252
0.00172241 9.53778e-06 -2.8922e-06
9.53778e-06 -0.000455201 -2.3996e-05
-2.8922e-06 -2.3996e-05 -0.000259298
0.00134978 -6.95468e-05 -3.28986e-05
-6.95468e-05 0.000185101 0.000100571
-3.28986e-05 0.000100571 -0.000113163
0.00535801 9.34492e-05 1.0014e-05
9.34492e-05 0.000780717 -1.69349e-05
1.0014e-05 -1.69349e-05 0.000461083
0.0006851 -5.33077e-05 -8.43659e-06
-5.33077e-05 2.55056e-05 1.47698e-05
-8.43659e-06 1.47698e-05 -0.000305978
0.00612439 9.80035e-06 -5.25398e-06
9.80035e-06 0.000503345 3.78669e-06
-5.25398e-06 3.78669e-06 0.000759415
0.002417 -0.000121273 2.75995e-07
-0.000121273 0.000202729 -5.97221e-06
2.75995e-07 -5.97221e-06 0.00017488
-0.000812177 -2.73401e-05 -2.68539e-07
-2.73401e-05 -0.000856585 6.91e-06
-2.68539e-07 6.91e-06 -0.000789712
0.000221761 -1.70808e-05 7.69827e-06
-1.70808e-05 -3.97482e-05 -4.04305e-05
7.69827e-06 -4.04305e-05 -0.000489123
0.00582248 -0.000105475 1.2411e-05
-0.000105475 0.00115146 3.11557e-05
1.2411e-05 3.11557e-05 0.000733456
0.00322085 -0.000157046 8.36242e-06
-0.000157046 0.000906999 2.32319e-05
8.36242e-06 2.32319e-05 0.000829543
0.000803193 -5.07622e-05 -1.05633e-06
-5.07622e-05 9.26514e-05 3.99946e-09
-1.05633e-06 3.99946e-09 0.000202665
0.00110196 2.3685e-05 -4.468e-07
2.3685e-05 6.22617e-05 1.08589e-06
-4.468e-07 1.08589e-06 -9.11489e-06
0.00117112 2.07108e-05 -4.66543e-07
2.07108e-05 9.021e-05 8.45941e-10
-4.66543e-07 8.45941e-10 1.43043e-05
0.00119955 9.26673e-06 2.7886e-07
9.26673e-06 0.000102447 -3.56801e-07
2.7886e-07 -3.56801e-07 2.68202e-05
-0.00020517 -6.96553e-06 -3.88738e-08
-6.96553e-06 -0.00031895 -1.68465e-05
-3.88738e-08 -1.68465e-05 -0.000391096
0.00104669 -5.70736e-06 1.42112e-07
-5.70736e-06 4.10226e-05 -1.88407e-06
1.42112e-07 -1.88407e-06 -6.48566e-05
0.00120195 1.6916e-05 6.72252e-07
1.6916e-05 0.00011315 5.91403e-08
6.72252e-07 5.91403e-08 2.59088e-05
0.00116992 3.93757e-06 3.20174e-07
3.93757e-06 9.89567e-05 -7.26128e-07
3.20174e-07 -7.26128e-07 1.38079e-06
0.0011662 1.37684e-05 7.30673e-07
1.37684e-05 0.000104093 -8.48532e-10
7.30673e-07 -8.48532e-10 9.41294e-06
0.00117119 -1.85808e-07 -4.99359e-07
-1.85808e-07 8.75303e-05 -1.32265e-06
-4.99359e-07 -1.32265e-06 -2.44985e-05
0.000528399 1.22107e-06 -4.94335e-06
1.22107e-06 0.000128454 1.06508e-05
-4.94335e-06 1.06508e-05 5.35515e-05
0.0010526 2.17881e-05 -2.51907e-06
2.17881e-05 4.79259e-05 -2.15264e-07
-2.51907e-06 -2.15264e-07 -5.32021e-05
0.000632735 1.60906e-05 7.06923e-07
1.60906e-05 0.000113788 2.39396e-05
7.06923e-07 2.39396e-05 3.27586e-05
0.00173487 -2.10849e-06 -1.11143e-05
-2.10849e-06 0.000839283 -8.9903e-07
-1.11143e-05 -8.9903e-07 0.000768198
0.000743922 2.89516e-06 -9.11283e-07
2.89516e-06 0.000111199 -4.34602e-07
-9.11283e-07 -4.34602e-07 1.75991e-05
0.000620343 -3.24233e-08 -1.03633e-07
-3.24233e-08 -1.40705e-05 -8.92381e-08
-1.03633e-07 -8.92381e-08 -9.18644e-05
0.000595792 2.89565e-06 1.43629e-06
2.89565e-06 -8.14797e-05 1.43309e-05
1.43629e-06 1.43309e-05 -0.0001135
0.000430945 2.86469e-05 7.11791e-07
2.86469e-05 0.000177213 -2.40984e-05
7.11791e-07 -2.40984e-05 -0.000482492
0.00103601 -7.70143e-06 -1.78995e-08
-7.70143e-06 0.000287297 -4.73392e-07
-1.78995e-08 -4.73392e-07 0.000206562
0.00751248 6.49468e-05 3.81611e-06
6.49468e-05 0.00177878 -2.60169e-05
3.81611e-06 -2.60169e-05 0.0011114
0.00292987 0.000152354 -1.59657e-05
0.000152354 0.000908154 2.6414e-05
-1.59657e-05 2.6414e-05 0.0007793
0.000960562 6.13569e-06 9.37335e-06
6.13569e-06 0.000294307 -9.37384e-06
9.37335e-06 -9.37384e-06 0.000280702
6.09648e-05 4.37003e-05 -5.52142e-06
4.37003e-05 -0.000297288 4.457e-06
-5.52142e-06 4.457e-06 -0.000202068
0.000766151 2.62142e-06 -5.79464e-07
2.62142e-06 9.48492e-05 -6.55832e-07
-5.79464e-07 -6.55832e-07 7.37358e-05
0.000787226 6.97559e-07 5.0495e-07
6.97559e-07 0.000228197 -4.69478e-07
5.0495e-07 -4.69478e-07 0.000169105
-0.00122147 2.83662e-05 7.39368e-06
2.83662e-05 -0.000996588 -1.83257e-06
7.39368e-06 -1.83257e-06 -0.000955921
0.000632717 -4.29395e-05 -3.57e-06
-4.29395e-05 0.000112095 2.81191e-05
-3.57e-06 2.81191e-05 -0.00024381
0.00205207 0.000107687 2.18944e-07
0.000107687 0.000626976 -4.45973e-06
2.18944e-07 -4.45973e-06 0.000539784
0.0057818 4.79895e-05 1.38089e-05
4.79895e-05 0.0011649 -1.29057e-05
1.38089e-05 -1.29057e-05 0.000422665
0.000532256 -1.29415e-05 8.3824e-06
-1.29415e-05 -4.08772e-05 -1.335e-05
8.3824e-06 -1.335e-05 -9.80796e-05
-0.001336 1.16364e-05 -9.24341e-06
1.16364e-05 -0.00101653 2.488e-06
-9.24341e-06 2.488e-06 -0.00102071
0.00171464 6.2021e-05 1.94488e-05
6.2021e-05 0.000735668 -1.22392e-05
1.94488e-05 -1.22392e-05 0.000661006
0.00246504 8.5285e-06 -3.99408e-05
8.5285e-06 -5.86899e-05 1.34371e-05
-3.99408e-05 1.34371e-05 -0.000640241
2.09288e-05 -3.51036e-05 -1.63133e-05
-3.51036e-05 -0.000372094 4.14491e-05
-1.63133e-05 4.14491e-05 -0.000523448
0.00117631 9.20555e-06 2.12576e-07
9.20555e-06 0.000134168 -6.41835e-07
2.12576e-07 -6.41835e-07 4.72978e-05
0.00095932 -8.31549e-06 -1.66336e-07
-8.31549e-06 9.22276e-05 -1.77588e-07
-1.66336e-07 -1.77588e-07 -2.46697e-05
0.00160993 -4.41761e-05 1.15386e-06
-4.41761e-05 0.000403629 7.2999e-07
1.15386e-06 7.2999e-07 0.000256783
0.00088428 -1.90781e-05 -2.69036e-07
-1.90781e-05 2.03919e-06 -6.50941e-07
-2.69036e-07 -6.50941e-07 -9.2915e-05
0.00117206 -3.03393e-05 4.64719e-07
-3.03393e-05 0.000134657 -1.06335e-07
4.64719e-07 -1.06335e-07 2.31941e-05
0.00128691 -3.95838e-05 -1.81651e-06
-3.95838e-05 0.000118937 -2.73425e-06
-1.81651e-06 -2.73425e-06 1.84552e-05
0.00139151 -3.1085e-05 1.2486e-07
-3.1085e-05 0.000206643 -6.81906e-07
1.2486e-07 -6.81906e-07 0.000110669
0.00120281 -3.22601e-05 -3.57454e-07
-3.22601e-05 9.09681e-05 -8.2579e-07
-3.57454e-07 -8.2579e-07 -2.40349e-06
0.00140106 -3.16618e-05 -1.12143e-06
-3.16618e-05 0.000154795 -2.0714e-06
-1.12143e-06 -2.0714e-06 7.67031e-05
0.001259 -2.85248e-05 3.20213e-07
-2.85248e-05 0.000114342 -6.19488e-07
3.20213e-07 -6.19488e-07 3.01079e-05
0.0012071 -2.72097e-05 2.77226e-07
-2.72097e-05 8.36395e-05 -5.19382e-07
2.77226e-07 -5.19382e-07 3.18862e-06
0.00128946 -2.50169e-05 -4.08305e-07
-2.50169e-05 9.07756e-05 -2.09911e-06
-4.08305e-07 -2.09911e-06 2.31979e-05
0.00125439 -2.26348e-05 -1.5427e-07
-2.26348e-05 6.29677e-05 -1.202e-06
-1.5427e-07 -1.202e-06 1.43437e-07
0.00117624 -2.40685e-05 -5.88824e-07
-2.40685e-05 5.89186e-05 -2.32426e-08
-5.88824e-07 -2.32426e-08 -1.13852e-05
0.00119397 -2.45398e-05 1.83889e-08
-2.45398e-05 6.084e-05 -4.7166e-07
1.83889e-08 -4.7166e-07 -1.14353e-05
0.00119107 -2.2273e-05 -4.91264e-07
-2.2273e-05 8.52131e-05 8.15319e-07
-4.91264e-07 8.15319e-07 2.06155e-05
0.00119592 -2.41662e-05 -1.76676e-07
-2.41662e-05 8.4485e-05 2.13324e-07
-1.76676e-07 2.13324e-07 1.33225e-05
0.00117845 -2.5643e-05 2.61612e-07
-2.5643e-05 7.52883e-05 -4.1752e-07
2.61612e-07 -4.1752e-07 -2.30923e-06
0.00109147 -1.63672e-05 -5.30166e-07
-1.63672e-05 4.60848e-05 8.86876e-08
-5.30166e-07 8.86876e-08 -9.76055e-06
0.00103554 -1.99113e-05 -7.43759e-08
-1.99113e-05 1.97533e-05 -2.74434e-07
-7.43759e-08 -2.74434e-07 -4.12477e-05
0.00115315 -2.19318e-05 8.46608e-07
-2.19318e-05 7.39757e-05 -9.51804e-07
8.46608e-07 -9.51804e-07 8.19142e-06
0.00104824 2.93531e-06 -9.14243e-07
2.93531e-06 3.23267e-05 8.21447e-07
-9.14243e-07 8.21447e-07 -1.53069e-05
0.00106754 -1.00889e-05 1.29409e-07
-1.00889e-05 3.9071e-05 1.28114e-07
1.29409e-07 1.28114e-07 -1.69523e-05
0.0010904 -1.84112e-05 5.28076e-07
-1.84112e-05 4.90524e-05 -2.08257e-07
5.28076e-07 -2.08257e-07 -1.15036e-05
0.000985124 9.73279e-06 -1.91965e-06
9.73279e-06 -1.77795e-06 1.44194e-06
-1.91965e-06 1.44194e-06 -3.08346e-05
0.00105649 3.52008e-06 -4.30518e-08
3.52008e-06 3.2372e-05 -3.30825e-08
-4.30518e-08 -3.30825e-08 -1.3534e-05
0.00107468 -4.20652e-06 1.86819e-07
-4.20652e-06 4.3926e-05 -1.5013e-07
1.86819e-07 -1.5013e-07 -1.08613e-05
0.00151954 1.31116e-05 -4.50864e-06
1.31116e-05 0.000254074 2.59602e-06
-4.50864e-06 2.59602e-06 0.000255054
0.00100583 8.28686e-06 1.49578e-08
8.28686e-06 3.07602e-06 1.33266e-08
1.49578e-08 1.33266e-08 -2.51642e-05
0.0010732 5.22095e-07 1.06243e-06
5.22095e-07 3.43562e-05 -7.72639e-07
1.06243e-06 -7.72639e-07 -1.05419e-05
0.00118774 1.28552e-05 -6.00688e-06
1.28552e-05 8.68729e-05 3.4092e-06
-6.00688e-06 3.4092e-06 0.000102224
0.00124746 1.13226e-05 -1.18369e-06
1.13226e-05 0.000117245 5.62684e-07
-1.18369e-06 5.62684e-07 0.000117139
0.0010075 7.21005e-06 1.77766e-06
7.21005e-06 1.14213e-06 -1.5424e-06
1.77766e-06 -1.5424e-06 -2.7093e-05
0.000952051 9.61786e-06 2.38275e-06
9.61786e-06 -3.07128e-05 -2.79875e-06
2.38275e-06 -2.79875e-06 -3.18131e-05
0.00236241 1.38514e-05 1.79402e-07
1.38514e-05 0.000657243 3.63441e-08
1.79402e-07 3.63441e-08 0.000678802
0.00233802 1.19774e-05 6.01021e-06
1.19774e-05 0.000641756 -3.66767e-06
6.01021e-06 -3.66767e-06 0.00066398
0.0010541 8.0615e-06 -6.04302e-07
8.0615e-06 2.19412e-05 -2.98192e-07
-6.04302e-07 -2.98192e-07 -3.45019e-05
0.00107024 3.01124e-07 -1.00654e-06
3.01124e-07 2.99017e-05 -7.83449e-07
-1.00654e-06 -7.83449e-07 -1.64667e-05
0.00108254 1.11791e-05 -1.04082e-08
1.11791e-05 3.53819e-05 3.31489e-08
-1.04082e-08 3.31489e-08 -2.12205e-05
0.00100635 -5.89688e-06 -1.46237e-06
-5.89688e-06 -6.37227e-07 -1.5903e-06
-1.46237e-06 -1.5903e-06 -2.93456e-05
0.00106885 3.40602e-06 -2.65415e-08
3.40602e-06 2.9045e-05 5.47316e-10
-2.65415e-08 5.47316e-10 -1.71907e-05
0.000961821 -8.36172e-06 -2.03807e-06
-8.36172e-06 -2.86679e-05 -2.85074e-06
-2.03807e-06 -2.85074e-06 -2.95327e-05
0.00101321 -5.16273e-06 -6.74561e-08
-5.16273e-06 1.47747e-06 1.67611e-08
-6.74561e-08 1.67611e-08 -2.66202e-05
0.00107764 5.70689e-06 7.68948e-07
5.70689e-06 3.41813e-05 1.00098e-06
7.68948e-07 1.00098e-06 -1.19051e-05
0.00232176 -1.00759e-05 -5.35515e-06
-1.00759e-05 0.00063041 -3.75948e-06
-5.35515e-06 -3.75948e-06 0.000653303
0.000959797 -7.27471e-06 -9.32569e-08
-7.27471e-06 -3.28473e-05 -2.74156e-09
-9.32569e-08 -2.74156e-09 -3.25377e-05
0.00102269 -4.8315e-06 8.27941e-07
-4.8315e-06 4.97153e-06 1.68048e-06
8.27941e-07 1.68048e-06 -2.21126e-05
0.00229511 -8.09633e-06 -2.80198e-07
-8.09633e-06 0.000613371 2.31775e-08
-2.80198e-07 2.31775e-08 0.000637255
0.000952653 -6.03142e-06 1.14873e-06
-6.03142e-06 -3.96384e-05 2.96377e-06
1.14873e-06 2.96377e-06 -3.78846e-05
0.00227478 -6.02051e-06 3.17153e-06
-6.02051e-06 0.000600188 3.76653e-06
3.17153e-06 3.76653e-06 0.000624905
0.000485197 -8.61744e-06 -1.27999e-05
-8.61744e-06 6.19704e-05 -5.46557e-06
-1.27999e-05 -5.46557e-06 -1.28913e-05
0.000617802 7.12654e-06 -6.46372e-07
7.12654e-06 3.8257e-05 -9.3714e-07
-6.46372e-07 -9.3714e-07 -4.76706e-05
0.00089176 -3.17371e-06 -9.97197e-07
-3.17371e-06 0.000166971 -4.89917e-07
-9.97197e-07 -4.89917e-07 8.95423e-05
0.00116242 1.40091e-05 -1.02222e-07
1.40091e-05 7.48523e-05 4.05299e-07
-1.02222e-07 4.05299e-07 1.49426e-05
0.00110457 1.28487e-05 5.64376e-07
1.28487e-05 4.71577e-05 3.27645e-07
5.64376e-07 3.27645e-07 -9.88025e-06
0.00109328 1.75373e-05 4.79927e-07
1.75373e-05 3.9117e-05 1.01061e-08
4.79927e-07 1.01061e-08 -2.23175e-05
0.00113929 1.84733e-05 -1.90438e-07
1.84733e-05 6.30347e-05 -1.75735e-07
-1.90438e-07 -1.75735e-07 6.81011e-07
0.00113639 1.48688e-05 -1.59704e-07
1.48688e-05 6.12673e-05 -2.00137e-07
-1.59704e-07 -2.00137e-07 9.9602e-07
0.00115742 1.87858e-05 2.51705e-07
1.87858e-05 6.87359e-05 2.14783e-07
2.51705e-07 2.14783e-07 5.43007e-06
0.00112192 1.87656e-05 -2.23224e-07
1.87656e-05 5.27063e-05 1.02286e-07
-2.23224e-07 1.02286e-07 -1.10312e-05
0.00110046 1.89435e-05 -1.24581e-07
1.89435e-05 4.37875e-05 2.54009e-07
-1.24581e-07 2.54009e-07 -2.19447e-05
0.00115258 1.89295e-05 3.1981e-07
1.89295e-05 7.18583e-05 -9.51287e-08
3.1981e-07 -9.51287e-08 6.75618e-06
0.00111045 1.87742e-05 6.66703e-07
1.87742e-05 5.33487e-05 -1.55475e-07
6.66703e-07 -1.55475e-07 -1.63229e-05
0.00117198 1.97765e-05 -1.26678e-07
1.97765e-05 8.21007e-05 -2.94606e-08
-1.26678e-07 -2.94606e-08 1.31736e-05
0.00133867 2.1184e-05 5.33916e-07
2.1184e-05 0.000159271 7.08221e-07
5.33916e-07 7.08221e-07 9.08577e-05
0.00153857 -3.70784e-05 -7.00848e-06
-3.70784e-05 0.000661366 -3.20315e-06
-7.00848e-06 -3.20315e-06 0.000711613
0.000595984 -1.37053e-05 -2.72603e-06
-1.37053e-05 0.000106474 -2.86747e-06
-2.72603e-06 -2.86747e-06 7.92349e-05
0.000321914 7.81906e-06 3.80945e-06
7.81906e-06 -0.000140295 2.57449e-06
3.80945e-06 2.57449e-06 -0.000197732
0.00128691 -3.64067e-05 1.4357e-05
-3.64067e-05 0.000428394 1.17574e-05
1.4357e-05 1.17574e-05 0.000482848
0.00124908 -0.000109668 4.47125e-06
-0.000109668 -0.000742431 -5.40486e-05
4.47125e-06 -5.40486e-05 -0.000665229
0.00394402 2.97696e-05 -3.80634e-06
2.97696e-05 3.57386e-05 0.000104161
-3.80634e-06 0.000104161 -0.000522498
-0.000215599 -2.99134e-05 -1.21377e-05
-2.99134e-05 2.20133e-05 2.56953e-05
-1.21377e-05 2.56953e-05 -8.3645e-05
0.000664891 3.23796e-08 -5.73264e-06
3.23796e-08 0.000398762 -9.04576e-06
-5.73264e-06 -9.04576e-06 0.000208026
0.000414659 -5.15373e-05 1.88384e-06
-5.15373e-05 -0.000100647 -9.13791e-07
1.88384e-06 -9.13791e-07 -6.04781e-06
0.00612235 -5.20969e-05 1.05137e-05
-5.20969e-05 0.000815563 3.40669e-05
1.05137e-05 3.40669e-05 0.000469026
-0.00104802 -0.000121094 -3.10528e-06
-0.000121094 -0.000850763 -1.25887e-05
-3.10528e-06 -1.25887e-05 -0.000887308
0.000148289 3.33791e-05 -1.23781e-05
3.33791e-05 2.71258e-05 -2.99759e-05
-1.23781e-05 -2.99759e-05 -0.000101556
0.00463178 -0.000139278 2.38035e-05
-0.000139278 0.00092646 3.46971e-05
2.38035e-05 3.46971e-05 0.000368993
-6.9187e-06 -9.5897e-05 3.75819e-05
-9.5897e-05 -6.41112e-05 2.52291e-05
3.75819e-05 2.52291e-05 -5.59039e-05
0.0010685 2.88789e-05 -1.332e-06
2.88789e-05 5.57227e-05 1.03496e-06
-1.332e-06 1.03496e-06 -1.0283e-05
0.00115641 2.31831e-05 1.33725e-06
2.31831e-05 8.37352e-05 1.78506e-07
1.33725e-06 1.78506e-07 1.28977e-05
0.00119942 2.07537e-05 1.50755e-07
2.07537e-05 0.000103618 -7.0668e-07
1.50755e-07 -7.0668e-07 2.88514e-05
0.000422233 -2.34381e-06 2.76762e-06
-2.34381e-06 7.8393e-05 -6.71117e-06
2.76762e-06 -6.71117e-06 2.05633e-06
0.00109275 -4.2421e-07 8.30976e-09
-4.2421e-07 5.14781e-05 -8.31532e-07
8.30976e-09 -8.31532e-07 -6.01787e-05
0.00120545 1.40852e-05 2.46106e-06
1.40852e-05 0.000126062 -3.22786e-08
2.46106e-06 -3.22786e-08 3.1403e-05
0.00124367 2.25997e-05 -1.02512e-07
2.25997e-05 0.000141648 -5.32338e-08
-1.02512e-07 -5.32338e-08 4.12567e-05
0.000754156 1.84593e-05 3.66765e-06
1.84593e-05 0.000160185 9.6711e-06
3.66765e-06 9.6711e-06 7.68363e-05
-0.000372705 4.0879e-05 -8.24684e-07
4.0879e-05 -0.000487538 8.80993e-06
-8.24684e-07 8.80993e-06 -0.000553937
0.00223221 -4.59788e-06 -1.17445e-05
-4.59788e-06 0.00112936 -1.5974e-07
-1.17445e-05 -1.5974e-07 0.0011388
0.000642936 -4.37975e-07 -1.11014e-06
-4.37975e-07 0.000160021 -1.10947e-06
-1.11014e-06 -1.10947e-06 7.94714e-05
0.00031092 2.6472e-06 -2.01336e-07
2.6472e-06 -0.000162756 -3.60381e-07
-2.01336e-07 -3.60381e-07 -0.000255928
0.00104917 1.68641e-06 -9.36157e-06
1.68641e-06 0.000232939 1.8124e-05
-9.36157e-06 1.8124e-05 0.00020014
0.000662444 -2.77279e-05 4.35873e-06
-2.77279e-05 0.000171833 -2.95834e-05
4.35873e-06 -2.95834e-05 -1.72549e-05
0.000825825 8.16779e-07 1.05757e-05
8.16779e-07 0.000251021 -3.34073e-06
1.05757e-05 -3.34073e-06 0.00019232
0.00141188 6.07453e-05 -2.14064e-05
6.07453e-05 -0.000265817 3.19056e-05
-2.14064e-05 3.19056e-05 -0.000840037
-0.0012143 8.13639e-05 -4.15002e-05
8.13639e-05 -0.000728991 2.95027e-05
-4.15002e-05 2.95027e-05 -0.000747409
0.000817048 3.15728e-05 1.32343e-05
3.15728e-05 0.000184556 -1.17139e-05
1.32343e-05 -1.17139e-05 0.00023725
0.00110407 -9.04364e-06 1.65273e-06
-9.04364e-06 0.000221298 8.73659e-07
1.65273e-06 8.73659e-07 0.000169026
0.000807789 1.27162e-05 1.57937e-07
1.27162e-05 0.000243306 -9.50296e-07
1.57937e-07 -9.50296e-07 0.000248097
-0.00152861 3.30272e-05 -1.24774e-05
3.30272e-05 -0.000645165 3.79852e-06
-1.24774e-05 3.79852e-06 -0.000657301
0.00195731 -7.18095e-05 -1.28989e-05
-7.18095e-05 0.000319198 3.98944e-05
-1.28989e-05 3.98944e-05 -4.90821e-05
0.00500353 4.28672e-05 -1.13323e-05
4.28672e-05 0.00125761 1.01662e-05
-1.13323e-05 1.01662e-05 0.000767372
0.00177951 -3.14031e-05 1.61375e-05
-3.14031e-05 0.000140354 -1.32565e-05
1.61375e-05 -1.32565e-05 0.000110435
-0.00399609 2.30996e-05 3.24386e-05
2.30996e-05 -0.00194262 -1.19527e-05
3.24386e-05 -1.19527e-05 -0.00190545
0.004624 1.87929e-05 2.14427e-05
1.87929e-05 0.00132556 -1.80033e-05
2.14427e-05 -1.80033e-05 0.000979427
0.000755854 -6.21396e-05 -2.7559e-05
-6.21396e-05 -0.000229723 3.74874e-05
-2.7559e-05 3.74874e-05 -0.00053496
0.000958528 -5.59705e-06 -1.34975e-06
-5.59705e-06 8.36017e-05 -4.4218e-07
-1.34975e-06 -4.4218e-07 -2.81472e-05
0.00127619 -3.73147e-05 3.47808e-07
-3.73147e-05 0.00025125 5.51988e-07
3.47808e-07 5.51988e-07 9.94728e-05
0.00123093 -5.6124e-05 -2.15784e-06
-5.6124e-05 0.000108188 -6.00996e-07
-2.15784e-06 -6.00996e-07 3.49337e-06
0.00101667 -2.8465e-05 -5.91389e-07
-2.8465e-05 6.66799e-05 -3.91258e-07
-5.91389e-07 -3.91258e-07 -4.47064e-05
0.00118322 -3.87648e-05 -9.61201e-07
-3.87648e-05 6.46001e-05 -1.34143e-06
-9.61201e-07 -1.34143e-06 -3.48909e-05
0.00168004 -3.96756e-05 -1.84197e-06
-3.96756e-05 0.000218544 -4.69318e-06
-1.84197e-06 -4.69318e-06 0.000158005
0.00119949 -3.2065e-05 6.95687e-07
-3.2065e-05 8.80019e-05 -1.06698e-06
6.95687e-07 -1.06698e-06 -4.6512e-06
0.00121355 -2.97007e-05 4.87787e-07
-2.97007e-05 6.28582e-05 -7.94761e-07
4.87787e-07 -7.94761e-07 -1.3412e-05
0.00136534 -2.47931e-05 1.04742e-07
-2.47931e-05 9.30244e-05 -3.12537e-06
1.04742e-07 -3.12537e-06 4.19188e-05
0.001111 -2.60782e-05 6.04121e-07
-2.60782e-05 3.69537e-05 -5.8833e-08
6.04121e-07 -5.8833e-08 -4.25823e-05
0.00120068 -2.4026e-05 -7.54457e-08
-2.4026e-05 4.68214e-05 -4.50892e-07
-7.54457e-08 -4.50892e-07 -1.9962e-05
0.00125631 -2.02853e-05 4.80721e-07
-2.02853e-05 4.22667e-05 -1.87761e-06
4.80721e-07 -1.87761e-06 -8.9285e-06
0.00123272 -1.89595e-05 2.40564e-07
-1.89595e-05 4.49203e-05 -9.14808e-07
2.40564e-07 -9.14808e-07 -8.578e-06
0.00128074 -2.31927e-05 -4.97981e-07
-2.31927e-05 8.63431e-05 -7.04429e-07
-4.97981e-07 -7.04429e-07 2.24075e-05
0.00121803 -2.18625e-05 2.60849e-07
-2.18625e-05 4.61276e-05 3.24421e-07
2.60849e-07 3.24421e-07 -1.59904e-05
0.00103622 -2.14016e-05 -7.45125e-07
-2.14016e-05 -1.32633e-06 3.63446e-07
-7.45125e-07 3.63446e-07 -6.69853e-05
0.00121007 -2.41615e-05 3.66103e-07
-2.41615e-05 7.63325e-05 -3.35271e-07
3.66103e-07 -3.35271e-07 6.65653e-06
0.00113386 -2.37428e-05 4.7799e-07
-2.37428e-05 3.12105e-05 1.37671e-07
4.7799e-07 1.37671e-07 -4.04864e-05
0.00110303 -1.9015e-05 -4.64603e-07
-1.9015e-05 4.82839e-05 5.11539e-07
-4.64603e-07 5.11539e-07 -9.33264e-06
0.00109635 -2.15266e-05 6.41877e-08
-2.15266e-05 4.19039e-05 -6.19816e-08
6.41877e-08 -6.19816e-08 -2.28598e-05
0.00106385 -2.32559e-05 4.13265e-07
-2.32559e-05 2.29239e-05 -6.40537e-07
4.13265e-07 -6.40537e-07 -4.92257e-05
0.00105198 -7.87665e-07 -1.08302e-06
-7.87665e-07 3.38812e-05 6.14159e-07
-1.08302e-06 6.14159e-07 -1.49096e-05
0.00110894 -1.58985e-05 -7.56099e-08
-1.58985e-05 5.40903e-05 -8.92633e-08
-7.56099e-08 -8.92633e-08 -1.7811e-06
0.00108873 -2.02553e-05 2.18244e-07
-2.02553e-05 4.55348e-05 -6.26165e-07
2.18244e-07 -6.26165e-07 -1.48966e-05
0.000973996 1.10333e-05 -1.9649e-06
1.10333e-05 -1.71706e-06 1.43697e-06
-1.9649e-06 1.43697e-06 -3.25009e-05
0.00105458 1.94038e-06 9.62598e-08
1.94038e-06 3.45131e-05 6.25931e-08
9.62598e-08 6.25931e-08 -1.29964e-05
0.00101678 -8.39501e-06 6.07271e-07
-8.39501e-06 1.53775e-05 -1.18668e-07
6.07271e-07 -1.18668e-07 -4.07462e-05
0.000900084 1.33262e-05 -3.07194e-06
1.33262e-05 -4.34841e-05 2.48206e-06
-3.07194e-06 2.48206e-06 -4.59977e-05
0.00100011 9.85844e-06 -7.1547e-09
9.85844e-06 5.39782e-06 -5.66292e-09
-7.1547e-09 -5.66292e-09 -2.37208e-05
0.00107305 2.55632e-06 9.23246e-07
2.55632e-06 3.96303e-05 -8.30694e-07
9.23246e-07 -8.30694e-07 -6.23607e-06
0.00231695 1.8354e-05 -3.17027e-06
1.8354e-05 0.00064385 1.34763e-06
-3.17027e-06 1.34763e-06 0.000664314
0.00091644 1.20561e-05 6.66775e-08
1.20561e-05 -4.03974e-05 3.34317e-08
6.66775e-08 3.34317e-08 -4.21829e-05
0.00101025 8.38513e-06 1.89011e-06
8.38513e-06 5.30143e-06 -1.47097e-06
1.89011e-06 -1.47097e-06 -2.29511e-05
0.00238138 1.57298e-05 1.41706e-07
1.57298e-05 0.000670514 4.03649e-08
1.41706e-07 4.03649e-08 0.000691383
0.000941565 1.08178e-05 2.70369e-06
1.08178e-05 -3.22545e-05 -2.67928e-06
2.70369e-06 -2.67928e-06 -3.37067e-05
0.00233614 1.38668e-05 6.57706e-06
1.38668e-05 0.000644905 -3.56831e-06
6.57706e-06 -3.56831e-06 0.000666518
0.00120724 5.9581e-06 -2.87805e-07
5.9581e-06 9.92522e-05 2.37728e-07
-2.87805e-07 2.37728e-07 4.36584e-05
0.0010794 6.70428e-06 -8.8349e-08
6.70428e-06 3.48726e-05 -1.34483e-07
-8.8349e-08 -1.34483e-07 -2.13923e-05
0.00107107 -2.05345e-06 -1.03893e-06
-2.05345e-06 3.20626e-05 -7.18801e-07
-1.03893e-06 -7.18801e-07 -1.46974e-05
0.00100856 -6.80424e-06 -1.69265e-06
-6.80424e-06 1.8773e-06 -1.51302e-06
-1.69265e-06 -1.51302e-06 -2.73007e-05
0.00106742 1.2709e-06 -4.96305e-08
1.2709e-06 2.87542e-05 1.91709e-08
-4.96305e-08 1.91709e-08 -1.76711e-05
0.00105818 1.00068e-05 5.24923e-07
1.00068e-05 2.37842e-05 2.56222e-07
5.24923e-07 2.56222e-07 -3.30506e-05
0.000949906 -9.41386e-06 -2.39474e-06
-9.41386e-06 -3.1223e-05 -2.7709e-06
-2.39474e-06 -2.7709e-06 -3.28326e-05
0.00100886 -5.78229e-06 -5.87563e-08
-5.78229e-06 3.31386e-07 7.96445e-09
-5.87563e-08 7.96445e-09 -2.83453e-05
0.00107211 4.01979e-06 8.58478e-07
4.01979e-06 3.0705e-05 9.39659e-07
8.58478e-07 9.39659e-07 -1.55894e-05
0.0023514 -1.19608e-05 -6.09264e-06
-1.19608e-05 0.000648726 -3.69974e-06
-6.09264e-06 -3.69974e-06 0.00067076
0.000948887 -8.35718e-06 -9.93634e-08
-8.35718e-06 -3.48293e-05 1.17411e-08
-9.93634e-08 1.17411e-08 -3.56411e-05
0.00101911 -5.08747e-06 1.11458e-06
-5.08747e-06 4.24982e-06 1.65353e-06
1.11458e-06 1.65353e-06 -2.38556e-05
0.00233283 -1.00562e-05 -2.48163e-07
-1.00562e-05 0.000635336 2.91542e-08
-2.48163e-07 2.91542e-08 0.000658302
0.000944456 -7.28671e-06 1.46427e-06
-7.28671e-06 -4.01555e-05 2.94487e-06
1.46427e-06 2.94487e-06 -3.97733e-05
0.00230475 -8.05766e-06 4.08612e-06
-8.05766e-06 0.000617625 3.74429e-06
4.08612e-06 3.74429e-06 0.000641587
-1.14904e-05 -1.79847e-05 -7.80341e-06
-1.79847e-05 -0.000196706 -4.71948e-06
-7.80341e-06 -4.71948e-06 -0.000188261
0.000490883 -5.67909e-06 -4.83698e-07
-5.67909e-06 6.74971e-05 -1.56908e-06
-4.83698e-07 -1.56908e-06 -7.42536e-06
0.000459627 6.82504e-06 1.46222e-06
6.82504e-06 -5.89634e-05 8.18108e-07
1.46222e-06 8.18108e-07 -0.000145705
0.00113947 1.39355e-05 7.91777e-08
1.39355e-05 6.33033e-05 1.59223e-07
7.91777e-08 1.59223e-07 3.08129e-06
0.00115946 1.56867e-05 -7.078e-08
1.56867e-05 7.49661e-05 4.53644e-07
-7.078e-08 4.53644e-07 1.50457e-05
0.00112614 1.90834e-05 3.67729e-08
1.90834e-05 5.45128e-05 4.60121e-07
3.67729e-08 4.60121e-07 -7.80207e-06
0.00120269 1.89727e-05 1.36528e-07
1.89727e-05 9.4427e-05 -3.14766e-07
1.36528e-07 -3.14766e-07 3.24101e-05
0.00120043 1.5818e-05 1.53537e-07
1.5818e-05 9.25414e-05 -2.15243e-07
1.53537e-07 -2.15243e-07 3.25682e-05
0.00112249 1.84154e-05 3.51172e-07
1.84154e-05 5.14863e-05 1.52154e-07
3.51172e-07 1.52154e-07 -1.16465e-05
0.00112978 1.91182e-05 -8.58787e-08
1.91182e-05 5.76583e-05 -8.58217e-09
-8.58787e-08 -8.58217e-09 -7.81163e-06
0.00113795 1.88889e-05 4.83209e-08
1.88889e-05 6.03141e-05 3.16647e-08
4.83209e-08 3.16647e-08 -3.19884e-06
0.00115338 1.99924e-05 -2.10395e-07
1.99924e-05 7.35756e-05 3.23259e-07
-2.10395e-07 3.23259e-07 6.43466e-06
0.00123477 2.07945e-05 7.02621e-07
2.07945e-05 0.000111204 1.81202e-06
7.02621e-07 1.81202e-06 4.67306e-05
0.00113335 1.94357e-05 -1.65724e-08
1.94357e-05 6.31714e-05 -5.03504e-07
-1.65724e-08 -5.03504e-07 -5.73609e-06
0.00120595 2.02272e-05 1.7746e-08
2.02272e-05 9.6679e-05 -2.20852e-08
1.7746e-08 -2.20852e-08 2.81611e-05
-0.00298967 -6.02957e-05 4.19827e-05
-6.02957e-05 -0.00148074 1.77797e-05
4.19827e-05 1.77797e-05 -0.00150028
0.000887203 -3.61297e-05 2.61305e-07
-3.61297e-05 0.000296964 1.20867e-07
2.61305e-07 1.20867e-07 0.000344481
0.000492492 -1.45037e-05 1.43084e-05
-1.45037e-05 4.62692e-05 7.97438e-06
1.43084e-05 7.97438e-06 2.05592e-05
7.69825e-05 -5.14435e-05 -2.06486e-06
-5.14435e-05 -0.000260707 -4.0006e-06
-2.06486e-06 -4.0006e-06 -0.000181624
0.00390496 -0.000157094 -2.67232e-05
-0.000157094 0.00130571 -5.11434e-05
-2.67232e-05 -5.11434e-05 0.00121307
0.0016154 -8.09223e-05 6.25482e-06
-8.09223e-05 -0.000758436 3.23212e-05
6.25482e-06 3.23212e-05 -0.0010017
0.000473749 1.28964e-05 4.28368e-06
1.28964e-05 8.34162e-05 2.52093e-05
4.28368e-06 2.52093e-05 -0.000378554
0.00118924 5.2638e-05 -9.17525e-06
5.2638e-05 0.000232883 -2.89591e-05
-9.17525e-06 -2.89591e-05 -0.000102995
0.00187476 -0.000122135 -4.62186e-07
-0.000122135 0.000486556 -4.21803e-06
-4.62186e-07 -4.21803e-06 0.000418613
0.00441543 -7.00524e-05 1.92272e-05
-7.00524e-05 0.000815742 3.45684e-05
1.92272e-05 3.45684e-05 0.000335939
-6.52007e-05 5.98081e-05 -3.01954e-05
5.98081e-05 -0.000530296 -7.45231e-05
-3.01954e-05 -7.45231e-05 -0.000853931
0.00326865 -9.50338e-06 1.17363e-05
-9.50338e-06 0.000416124 1.90803e-05
1.17363e-05 1.90803e-05 -9.86225e-05
0.00154614 3.98154e-05 3.53913e-06
3.98154e-05 0.000321186 -1.3412e-06
3.53913e-06 -1.3412e-06 0.000244931
0.00100119 2.69659e-05 7.37756e-08
2.69659e-05 2.13328e-05 -1.17718e-07
7.37756e-08 -1.17718e-07 -4.37636e-05
0.00120909 2.26922e-05 1.79483e-06
2.26922e-05 0.000104521 -1.04052e-06
1.79483e-06 -1.04052e-06 3.42128e-05
0.000740044 2.0437e-05 -1.48212e-06
2.0437e-05 0.000146486 -5.79009e-06
-1.48212e-06 -5.79009e-06 6.0575e-05
0.00145336 2.38219e-05 1.77284e-06
2.38219e-05 0.000243433 6.61593e-08
1.77284e-06 6.61593e-08 0.000143734
0.000961824 4.95535e-05 1.14393e-06
4.95535e-05 0.000111668 2.52679e-06
1.14393e-06 2.52679e-06 4.71821e-05
-0.00068406 4.5847e-05 5.22613e-06
4.5847e-05 -0.000674654 2.6522e-06
5.22613e-06 2.6522e-06 -0.000729797
-0.00181618 2.93101e-06 5.42253e-05
2.93101e-06 -0.000767238 -1.31238e-06
5.42253e-05 -1.31238e-06 -0.000677705
0.00047998 -3.72385e-06 -5.30951e-06
-3.72385e-06 8.27479e-05 3.70576e-07
-5.30951e-06 3.70576e-07 7.77828e-05
-0.00051797 1.25005e-06 1.19682e-05
1.25005e-06 -0.000562524 -1.72712e-06
1.19682e-05 -1.72712e-06 -0.000652494
0.00124166 -4.09756e-07 -1.00744e-05
-4.09756e-07 0.000279689 1.28123e-05
-1.00744e-05 1.28123e-05 0.000239521
1.98038e-05 -4.96191e-05 -6.09711e-06
-4.96191e-05 -9.3382e-05 2.73061e-06
-6.09711e-06 2.73061e-06 -0.000262669
0.000613333 1.16506e-05 9.84105e-06
1.16506e-05 0.000117828 -4.05522e-06
9.84105e-06 -4.05522e-06 0.000122987
0.00318086 -9.33412e-06 3.50534e-05
-9.33412e-06 0.000330666 -2.30656e-05
3.50534e-05 -2.30656e-05 -0.00023687
0.00262479 3.07234e-05 -6.6431e-05
3.07234e-05 0.00120244 2.46894e-05
-6.6431e-05 2.46894e-05 0.00111866
0.00103055 -2.62641e-05 -4.13914e-06
-2.62641e-05 -9.42174e-05 3.78684e-07
-4.13914e-06 3.78684e-07 -0.000132381
-0.000749737 1.20966e-05 -2.27682e-05
1.20966e-05 -0.000330106 5.45731e-06
-2.27682e-05 5.45731e-06 -0.000342808
0.00214503 -4.33818e-05 -5.33635e-06
-4.33818e-05 6.52326e-05 3.48496e-06
-5.33635e-06 3.48496e-06 -0.000412452
0.000257241 -3.35298e-05 5.16462e-06
-3.35298e-05 -2.01668e-05 2.95617e-06
5.16462e-06 2.95617e-06 -0.000211773
0.00162462 -3.27793e-05 1.46551e-05
-3.27793e-05 -0.000131336 -8.69617e-06
1.46551e-05 -8.69617e-06 -0.000101509
0.00551176 1.36417e-05 2.21982e-05
1.36417e-05 0.00143186 -1.02028e-05
2.21982e-05 -1.02028e-05 0.00108675
0.000718452 1.59677e-06 -5.30654e-06
1.59677e-06 0.000167965 1.84831e-06
-5.30654e-06 1.84831e-06 9.93227e-06
0.000925804 -2.97408e-05 -3.52484e-07
-2.97408e-05 9.46639e-05 -2.60469e-06
-3.52484e-07 -2.60469e-06 -6.37881e-05
0.00102595 -5.30858e-05 -1.18017e-08
-5.30858e-05 1.22589e-05 -2.01696e-07
-1.18017e-08 -2.01696e-07 -8.98224e-05
0.001375 -5.36849e-05 -9.02977e-06
-5.36849e-05 5.90036e-06 8.39551e-07
-9.02977e-06 8.39551e-07 -2.59185e-05
0.00107231 -3.77555e-05 -1.80674e-07
-3.77555e-05 6.12004e-06 1.34758e-07
-1.80674e-07 1.34758e-07 -9.20955e-05
0.00126209 -3.67231e-05 -1.92466e-07
-3.67231e-05 1.30698e-05 -1.47102e-07
-1.92466e-07 -1.47102e-07 -4.49037e-05
0.00154455 -2.582e-05 1.11401e-06
-2.582e-05 0.000103468 -2.1705e-06
1.11401e-06 -2.1705e-06 8.41755e-05
0.00101878 -2.76808e-05 1.65298e-06
-2.76808e-05 -3.22607e-05 1.10264e-06
1.65298e-06 1.10264e-06 -0.000106721
0.00122395 -2.37252e-05 1.85733e-07
-2.37252e-05 2.24593e-05 -8.42429e-08
1.85733e-07 -8.42429e-08 -2.75519e-05
0.00126244 -1.78782e-05 1.80795e-06
-1.78782e-05 1.22313e-05 -1.38175e-06
1.80795e-06 -1.38175e-06 -2.10068e-05
0.00110823 -2.3046e-05 3.60266e-07
-2.3046e-05 1.11047e-06 1.23303e-06
3.60266e-07 1.23303e-06 -6.48665e-05
0.00123137 -2.01662e-05 2.0697e-07
-2.01662e-05 3.00832e-05 3.62955e-07
2.0697e-07 3.62955e-07 -2.11175e-05
0.00120194 -1.61276e-05 1.16299e-06
-1.61276e-05 1.20585e-05 -4.4019e-07
1.16299e-06 -4.4019e-07 -3.26199e-05
0.00126705 -1.63037e-05 4.63282e-07
-1.63037e-05 6.00312e-05 -3.52501e-07
4.63282e-07 -3.52501e-07 9.72187e-06
0.00124724 -1.87868e-05 -1.47654e-07
-1.87868e-05 5.12659e-05 7.07809e-07
-1.47654e-07 7.07809e-07 -1.46992e-06
0.00125853 -1.99452e-05 1.11297e-07
-1.99452e-05 6.73234e-05 -1.26766e-06
1.11297e-07 -1.26766e-06 1.12063e-05
0.00125086 -2.17278e-05 -6.13926e-07
-2.17278e-05 8.06512e-05 -3.51998e-07
-6.13926e-07 -3.51998e-07 1.8574e-05
0.00127842 -2.30555e-05 3.12547e-07
-2.30555e-05 8.69491e-05 -5.00222e-08
3.12547e-07 -5.00222e-08 2.29656e-05
0.00118649 -2.1139e-05 6.97609e-07
-2.1139e-05 3.16085e-05 1.68441e-06
6.97609e-07 1.68441e-06 -2.98159e-05
0.000996142 -1.91942e-05 -9.71318e-07
-1.91942e-05 -1.38868e-05 8.06224e-07
-9.71318e-07 8.06224e-07 -7.39329e-05
0.00115417 -2.22084e-05 4.27597e-08
-2.22084e-05 5.5892e-05 -2.00855e-08
4.27597e-08 -2.00855e-08 -9.23689e-06
0.00123891 -2.42079e-05 9.00203e-07
-2.42079e-05 9.13613e-05 -5.25066e-07
9.00203e-07 -5.25066e-07 2.23219e-05
0.00104557 -4.84914e-06 -9.33449e-07
-4.84914e-06 2.99076e-05 6.06257e-07
-9.33449e-07 6.06257e-07 -2.04582e-05
0.00112013 -1.87243e-05 3.6654e-08
-1.87243e-05 5.60587e-05 -4.6742e-08
3.6654e-08 -4.6742e-08 -1.60102e-06
0.00100596 -2.08177e-05 4.12134e-07
-2.08177e-05 5.54225e-07 -9.01442e-07
4.12134e-07 -9.01442e-07 -6.43706e-05
0.000961923 1.18369e-05 -2.11206e-06
1.18369e-05 -3.88091e-06 1.34666e-06
-2.11206e-06 1.34666e-06 -3.66501e-05
0.00105881 -1.97701e-06 -3.73741e-08
-1.97701e-06 3.61383e-05 2.16265e-08
-3.73741e-08 2.16265e-08 -1.25211e-05
0.00112526 -1.53648e-05 5.20965e-07
-1.53648e-05 6.15518e-05 -3.75637e-07
5.20965e-07 -3.75637e-07 5.65556e-06
0.000883334 1.44982e-05 -3.26491e-06
1.44982e-05 -4.56539e-05 2.38919e-06
-3.26491e-06 2.38919e-06 -4.9535e-05
0.000990926 1.12156e-05 5.4669e-08
1.12156e-05 6.36402e-06 2.24358e-08
5.4669e-08 2.24358e-08 -2.44659e-05
0.00106123 8.27565e-07 1.09007e-06
8.27565e-07 3.68679e-05 -6.43307e-07
1.09007e-06 -6.43307e-07 -1.05177e-05
0.00239655 1.95323e-05 -7.61723e-06
1.95323e-05 0.000687739 3.21975e-06
-7.61723e-06 3.21975e-06 0.000707067
0.000918153 1.33622e-05 3.12354e-08
1.33622e-05 -3.4655e-05 1.81921e-08
3.12354e-08 1.81921e-08 -3.72728e-05
0.0010152 9.9824e-06 1.91254e-06
9.9824e-06 1.26216e-05 -1.46872e-06
1.91254e-06 -1.46872e-06 -1.65594e-05
0.00172829 1.65305e-05 2.61355e-06
1.65305e-05 0.000356356 -1.02087e-06
2.61355e-06 -1.02087e-06 0.000373995
0.000935738 1.2091e-05 2.98632e-06
1.2091e-05 -3.10327e-05 -2.54587e-06
2.98632e-06 -2.54587e-06 -3.29075e-05
0.00232535 1.57411e-05 7.01525e-06
1.57411e-05 0.000643993 -3.44081e-06
7.01525e-06 -3.44081e-06 0.000665019
0.00115419 4.2644e-06 -3.34628e-07
4.2644e-06 7.60086e-05 3.09474e-07
-3.34628e-07 3.09474e-07 1.97735e-05
0.00112551 3.63393e-06 1.58842e-07
3.63393e-06 5.93247e-05 3.37307e-07
1.58842e-07 3.37307e-07 3.15323e-06
0.00106789 -4.39981e-06 -1.08452e-06
-4.39981e-06 3.37506e-05 -6.32614e-07
-1.08452e-06 -6.32614e-07 -1.37858e-05
0.00110411 5.32909e-06 3.46752e-07
5.32909e-06 4.75167e-05 3.56344e-09
3.46752e-07 3.56344e-09 -8.56828e-06
0.00106294 -1.72341e-06 2.02418e-08
-1.72341e-06 2.84083e-05 1.06031e-08
2.02418e-08 1.06031e-08 -1.83817e-05
0.00101064 -8.00573e-06 -1.86485e-06
-8.00573e-06 5.11529e-06 -1.42275e-06
-1.86485e-06 -1.42275e-06 -2.46623e-05
0.000941194 -1.05452e-05 -2.71965e-06
-1.05452e-05 -3.21359e-05 -2.66202e-06
-2.71965e-06 -2.66202e-06 -3.43014e-05
0.00100653 -6.67622e-06 -6.65709e-08
-6.67622e-06 6.51453e-07 1.24777e-08
-6.65709e-08 1.24777e-08 -2.8484e-05
0.00106517 1.90025e-06 9.63883e-07
1.90025e-06 2.78739e-05 8.54785e-07
9.63883e-07 8.54785e-07 -1.86046e-05
0.00236321 -1.38143e-05 -6.67641e-06
-1.38143e-05 0.000658424 -3.59991e-06
-6.67641e-06 -3.59991e-06 0.000679751
0.000938802 -9.39862e-06 -8.33277e-08
-9.39862e-06 -3.65915e-05 2.15431e-08
-8.33277e-08 2.15431e-08 -3.81472e-05
0.00101144 -5.66846e-06 1.35681e-06
-5.66846e-06 1.33794e-06 1.6066e-06
1.35681e-06 1.6066e-06 -2.73075e-05
0.00236796 -1.19461e-05 -2.15414e-07
-1.19461e-05 0.000656344 3.51975e-08
-2.15414e-07 3.51975e-08 0.0006784
0.000936192 -8.35286e-06 1.82306e-06
-8.35286e-06 -4.08739e-05 2.90342e-06
1.82306e-06 2.90342e-06 -4.1633e-05
0.00234303 -1.00353e-05 4.94249e-06
-1.00353e-05 0.000639841 3.72322e-06
4.94249e-06 3.72322e-06 0.000662882
0.000332309 3.03445e-06 6.06008e-05
3.03445e-06 -8.28122e-05 6.27417e-06
6.06008e-05 6.27417e-06 -0.000166793
0.00128975 -1.94661e-05 -5.61648e-07
-1.94661e-05 0.000576964 -1.06986e-06
-5.61648e-07 -1.06986e-06 0.000591699
0.000491505 -2.80413e-06 1.21587e-05
-2.80413e-06 6.98573e-05 2.1106e-06
1.21587e-05 2.1106e-06 -5.0835e-06
0.00111473 1.3722e-05 4.0144e-07
1.3722e-05 5.08682e-05 5.00259e-09
4.0144e-07 5.00259e-09 -9.65599e-06
0.00112326 1.90117e-05 3.9591e-07
1.90117e-05 5.35665e-05 1.72785e-07
3.9591e-07 1.72785e-07 -8.76004e-06
0.00115841 1.612e-05 8.56291e-08
1.612e-05 7.4923e-05 6.50323e-08
8.56291e-08 6.50323e-08 1.51806e-05
0.00114256 1.82404e-05 1.01695e-07
1.82404e-05 7.04034e-05 4.39392e-07
1.01695e-07 4.39392e-07 1.03026e-05
0.00113458 1.94081e-05 -2.36924e-07
1.94081e-05 6.14172e-05 4.52028e-07
-2.36924e-07 4.52028e-07 -1.28697e-06
0.00115892 1.92908e-05 9.8999e-08
1.92908e-05 7.14325e-05 -2.13094e-07
9.8999e-08 -2.13094e-07 6.22634e-06
0.00115394 1.90036e-05 3.46247e-07
1.90036e-05 6.78641e-05 -1.74737e-07
3.46247e-07 -1.74737e-07 4.58048e-06
0.00110199 1.9619e-05 -1.25059e-07
1.9619e-05 4.88227e-05 -4.33957e-08
-1.25059e-07 -4.33957e-08 -1.82609e-05
0.000965594 1.92425e-05 7.39321e-08
1.92425e-05 -1.3705e-05 6.95499e-07
7.39321e-08 6.95499e-07 -7.85595e-05
0.00111507 2.25063e-05 2.17896e-07
2.25063e-05 5.94297e-05 1.35003e-06
2.17896e-07 1.35003e-06 -8.87202e-06
0.00135277 2.8863e-05 1.06799e-06
2.8863e-05 0.000178929 -6.81641e-08
1.06799e-06 -6.81641e-08 0.000113196
0.00118024 2.08318e-05 -2.44838e-07
2.08318e-05 8.60303e-05 -4.78725e-08
-2.44838e-07 -4.78725e-08 2.0365e-05
0.00107032 1.92456e-05 -1.37152e-07
1.92456e-05 3.28089e-05 -6.86932e-07
-1.37152e-07 -6.86932e-07 -3.58232e-05
0.00690255 -3.56904e-06 -1.00554e-05
-3.56904e-06 0.00179443 2.21187e-06
-1.00554e-05 2.21187e-06 0.00138007
2.29347e-05 -6.53417e-05 9.49356e-06
-6.53417e-05 -0.000192836 3.35723e-06
9.49356e-06 3.35723e-06 -0.000250862
0.00193318 -3.52336e-05 2.97164e-06
-3.52336e-05 0.00090921 4.17109e-06
2.97164e-06 4.17109e-06 0.000957403
-0.00160317 -9.42666e-05 -3.08415e-05
-9.42666e-05 -0.000999303 -3.23434e-05
-3.08415e-05 -3.23434e-05 -0.000997693
0.00526799 -0.000127648 1.71353e-05
-0.000127648 0.000902918 4.71122e-05
1.71353e-05 4.71122e-05 0.000163302
0.000826155 3.77168e-05 -1.68462e-06
3.77168e-05 0.000343795 -9.89897e-06
-1.68462e-06 -9.89897e-06 0.00021007
0.00122074 6.46386e-05 -1.85272e-05
6.46386e-05 0.000195008 -2.01536e-05
-1.85272e-05 -2.01536e-05 -1.65776e-05
0.00446727 -7.53745e-05 9.76241e-06
-7.53745e-05 0.00101557 1.18468e-05
9.76241e-06 1.18468e-05 0.000585992
0.000935754 4.38464e-05 -3.59847e-05
4.38464e-05 -7.56813e-05 -3.25964e-05
-3.59847e-05 -3.25964e-05 -0.000275495
0.00138206 4.55243e-05 1.06767e-05
4.55243e-05 0.000194711 -1.10688e-06
1.06767e-05 -1.10688e-06 9.4558e-05
0.00113502 3.68719e-05 -1.45961e-06
3.68719e-05 0.000133328 -2.02209e-06
-1.45961e-06 -2.02209e-06 5.45121e-05
0.000942907 2.51614e-05 9.87412e-07
2.51614e-05 -8.66621e-06 -1.4055e-06
9.87412e-07 -1.4055e-06 -7.28757e-05
0.00215268 5.71104e-05 -6.74182e-06
5.71104e-05 0.000650412 -7.4841e-06
-6.74182e-06 -7.4841e-06 0.000587938
0.000154115 5.51398e-05 -3.41231e-06
5.51398e-05 -0.000383593 -1.296e-06
-3.41231e-06 -1.296e-06 -0.00042496
0.00120148 6.17191e-05 -6.634e-07
6.17191e-05 -0.00052664 -5.23649e-06
-6.634e-07 -5.23649e-06 -0.000719633
0.0014616 8.01713e-06 6.30114e-07
8.01713e-06 0.000476591 4.05712e-06
6.30114e-07 4.05712e-06 0.000462675
-0.00121233 -3.12619e-06 3.64341e-06
-3.12619e-06 -0.000926664 -4.81465e-08
3.64341e-06 -4.81465e-08 -0.000945181
0.000519342 -2.48167e-05 -1.28627e-05
-2.48167e-05 -0.000221386 8.80104e-06
-1.28627e-05 8.80104e-06 -0.000271507
0.00251187 -6.27393e-05 2.36592e-05
-6.27393e-05 0.000715657 -2.05136e-05
2.36592e-05 -2.05136e-05 0.000338432
0.000506054 8.44631e-06 -8.47834e-05
8.44631e-06 2.28856e-05 1.70619e-05
-8.47834e-05 1.70619e-05 -5.17574e-05
0.00450961 6.61861e-06 -8.43183e-08
6.61861e-06 0.00135631 2.56208e-06
-8.43183e-08 2.56208e-06 0.000890338
0.00166448 -2.8656e-05 1.7563e-06
-2.8656e-05 -0.000110788 -3.65333e-07
1.7563e-06 -3.65333e-07 -7.60812e-05
0.00317758 1.40758e-05 1.65072e-05
1.40758e-05 0.000598288 -1.28913e-06
1.65072e-05 -1.28913e-06 0.000294845
0.00211388 -2.38526e-05 2.02113e-05
-2.38526e-05 0.000433963 -7.97556e-06
2.02113e-05 -7.97556e-06 0.000169157
0.00223763 -9.89934e-06 1.00878e-06
-9.89934e-06 4.73527e-05 -6.69349e-06
1.00878e-06 -6.69349e-06 0.000140732
0.000605854 2.9252e-05 -1.50171e-05
2.9252e-05 0.000119206 1.16236e-05
-1.50171e-05 1.16236e-05 -7.48124e-06
0.000886798 -5.03951e-05 4.59705e-06
-5.03951e-05 -5.23079e-05 -1.95056e-06
4.59705e-06 -1.95056e-06 -0.000151667
0.00130985 -5.18843e-05 -2.45662e-06
-5.18843e-05 -1.78244e-05 7.77652e-07
-2.45662e-06 7.77652e-07 -4.55444e-05
0.00149345 -2.25286e-05 6.89602e-07
-2.25286e-05 1.37475e-05 2.8972e-06
6.89602e-07 2.8972e-06 1.83403e-05
0.000820639 -3.37999e-05 2.96779e-06
-3.37999e-05 -0.00020376 3.33083e-06
2.96779e-06 3.33083e-06 -0.000258997
0.00126923 -2.48988e-05 6.92718e-07
-2.48988e-05 -2.57729e-05 1.48347e-06
6.92718e-07 1.48347e-06 -4.50598e-05
0.00132405 -1.17457e-05 2.90976e-06
-1.17457e-05 1.9024e-06 1.13965e-06
2.90976e-06 1.13965e-06 -1.1717e-05
0.00109136 -2.27623e-05 5.61629e-07
-2.27623e-05 -4.41213e-05 2.83578e-06
5.61629e-07 2.83578e-06 -9.3021e-05
0.00126857 -1.81265e-05 3.50593e-07
-1.81265e-05 1.62407e-05 1.01598e-06
3.50593e-07 1.01598e-06 -1.78367e-05
0.00123359 -1.13183e-05 2.24665e-06
-1.13183e-05 8.48357e-06 5.10405e-07
2.24665e-06 5.10405e-07 -2.80256e-05
0.00121646 -2.00911e-05 3.26398e-07
-2.00911e-05 2.26951e-05 2.23963e-06
3.26398e-07 2.23963e-06 -2.85379e-05
0.00126172 -1.67403e-05 1.40424e-07
-1.67403e-05 4.1023e-05 5.43563e-07
1.40424e-07 5.43563e-07 -4.31101e-06
0.00123163 -1.33778e-05 9.4778e-07
-1.33778e-05 3.41917e-05 1.42493e-07
9.4778e-07 1.42493e-07 -1.36268e-05
0.00123468 -1.66581e-05 -4.58315e-07
-1.66581e-05 4.49031e-05 3.55154e-07
-4.58315e-07 3.55154e-07 -4.70488e-06
0.00128878 -1.75146e-05 7.23492e-07
-1.75146e-05 7.69066e-05 -6.74657e-07
7.23492e-07 -6.74657e-07 2.3207e-05
0.00126029 -1.86196e-05 2.21343e-08
-1.86196e-05 5.68461e-05 1.84443e-06
2.21343e-08 1.84443e-06 4.88424e-06
0.00126547 -1.98812e-05 2.17849e-08
-1.98812e-05 6.99243e-05 -2.21048e-07
2.17849e-08 -2.21048e-07 1.37574e-05
0.00126043 -1.95428e-05 -3.84124e-08
-1.95428e-05 7.38845e-05 -6.7504e-07
-3.84124e-08 -6.7504e-07 1.61299e-05
0.0010676 -1.88621e-05 -9.56479e-07
-1.88621e-05 3.36688e-06 2.76972e-07
-9.56479e-07 2.76972e-07 -5.6158e-05
0.00124472 -2.17106e-05 2.70927e-08
-2.17106e-05 7.84793e-05 -1.31525e-07
2.70927e-08 -1.31525e-07 1.61271e-05
0.00128108 -2.29651e-05 7.17659e-07
-2.29651e-05 8.9922e-05 6.33059e-07
7.17659e-07 6.33059e-07 2.58834e-05
0.00106567 -1.00181e-05 -9.74371e-07
-1.00181e-05 3.38281e-05 7.08209e-07
-9.74371e-07 7.08209e-07 -1.85682e-05
0.00106171 -1.96377e-05 -1.97957e-07
-1.96377e-05 1.84698e-05 2.64866e-07
-1.97957e-07 2.64866e-07 -4.12567e-05
0.00126498 -2.29524e-05 6.41388e-07
-2.29524e-05 0.000109819 -5.02019e-07
6.41388e-07 -5.02019e-07 4.52172e-05
0.000955939 1.23384e-05 -2.11435e-06
1.23384e-05 -3.40637e-06 1.27854e-06
-2.11435e-06 1.27854e-06 -3.88238e-05
0.00106154 -5.18548e-06 -4.69029e-08
-5.18548e-06 3.66287e-05 -6.27881e-10
-4.69029e-08 -6.27881e-10 -1.36837e-05
0.00113878 -1.84212e-05 5.32442e-07
-1.84212e-05 6.45579e-05 -6.09811e-07
5.32442e-07 -6.09811e-07 6.85447e-06
0.000868374 1.54132e-05 -3.51664e-06
1.54132e-05 -4.69948e-05 2.27532e-06
-3.51664e-06 2.27532e-06 -5.26401e-05
0.000981865 1.21008e-05 3.71849e-08
1.21008e-05 5.44843e-06 1.10201e-08
3.71849e-08 1.10201e-08 -2.73316e-05
0.00106473 -3.07544e-06 1.10708e-06
-3.07544e-06 3.79774e-05 -6.04096e-07
1.10708e-06 -6.04096e-07 -1.05496e-05
0.00240521 2.14196e-05 -7.83021e-06
2.14196e-05 0.000698304 3.07303e-06
-7.83021e-06 3.07303e-06 0.000716541
0.000908866 1.45332e-05 5.23206e-08
1.45332e-05 -3.3361e-05 1.59322e-08
5.23206e-08 1.59322e-08 -3.73724e-05
0.00100803 1.14062e-05 2.02255e-06
1.14062e-05 1.45253e-05 -1.3699e-06
2.02255e-06 -1.3699e-06 -1.63507e-05
0.00234601 1.95103e-05 1.19907e-07
1.95103e-05 0.000663947 4.81249e-08
1.19907e-07 4.81249e-08 0.000683362
0.000935965 1.33943e-05 3.1953e-06
1.33943e-05 -2.59548e-05 -2.44114e-06
3.1953e-06 -2.44114e-06 -2.86755e-05
0.00230774 1.76194e-05 7.32989e-06
1.76194e-05 0.000640342 -3.29426e-06
7.32989e-06 -3.29426e-06 0.000660719
0.00106694 8.25736e-06 -2.90216e-07
8.25736e-06 3.6512e-05 2.16553e-07
-2.90216e-07 2.16553e-07 -2.1079e-05
0.00114758 4.76048e-06 8.5315e-08
4.76048e-06 7.32348e-05 1.49564e-07
8.5315e-08 1.49564e-07 1.70077e-05
0.000956334 -6.19363e-06 -1.25581e-06
-6.19363e-06 -1.65516e-05 -7.13243e-07
-1.25581e-06 -7.13243e-07 -6.61847e-05
0.00104365 1.53066e-06 6.27498e-07
1.53066e-06 1.93305e-05 3.77767e-07
6.27498e-07 3.77767e-07 -3.74192e-05
0.0010042 -5.04045e-06 -7.2039e-10
-5.04045e-06 3.15121e-06 3.67868e-08
-7.2039e-10 3.67868e-08 -4.4944e-05
0.00100885 -9.60191e-06 -1.95562e-06
-9.60191e-06 8.12963e-06 -1.32603e-06
-1.95562e-06 -1.32603e-06 -2.27177e-05
0.0010548 -1.40672e-06 1.09756e-06
-1.40672e-06 2.47512e-05 7.48833e-07
1.09756e-06 7.48833e-07 -2.20712e-05
0.00100397 -7.86068e-06 -4.02338e-08
-7.86068e-06 1.73552e-06 1.73439e-08
-4.02338e-08 1.73439e-08 -2.79964e-05
0.00093505 -1.17839e-05 -3.00021e-06
-1.17839e-05 -3.1418e-05 -2.53017e-06
-3.00021e-06 -2.53017e-06 -3.42149e-05
0.00235997 -1.56725e-05 -7.10752e-06
-1.56725e-05 0.00066098 -3.47361e-06
-7.10752e-06 -3.47361e-06 0.000681675
0.000930522 -1.05192e-05 -7.40118e-08
-1.05192e-05 -3.73983e-05 2.80075e-08
-7.40118e-08 2.80075e-08 -3.94951e-05
0.00100466 -6.55105e-06 1.58197e-06
-6.55105e-06 -4.90709e-07 1.55767e-06
1.58197e-06 1.55767e-06 -2.95848e-05
0.00239007 -1.38022e-05 -1.77465e-07
-1.38022e-05 0.000671098 3.91978e-08
-1.77465e-07 3.91978e-08 0.000692372
0.000927968 -9.38373e-06 2.1945e-06
-9.38373e-06 -4.18289e-05 2.81657e-06
2.1945e-06 2.81657e-06 -4.33314e-05
0.00238527 -1.19376e-05 5.74876e-06
-1.19376e-05 0.000664343 3.6963e-06
5.74876e-06 3.6963e-06 0.000686416
0.00593711 3.76685e-05 4.40951e-06
3.76685e-05 0.00179675 1.03857e-06
4.40951e-06 1.03857e-06 0.00153496
-0.00128876 -8.24864e-06 1.28451e-05
-8.24864e-06 -0.00045974 1.35885e-06
1.28451e-05 1.35885e-06 -0.000434416
0.000442304 -1.8395e-05 7.47816e-06
-1.8395e-05 8.4844e-05 2.39286e-06
7.47816e-06 2.39286e-06 9.61483e-05
0.00112256 1.89656e-05 5.93581e-07
1.89656e-05 5.37112e-05 -2.48254e-07
5.93581e-07 -2.48254e-07 -8.63688e-06
0.00115818 1.656e-05 2.75259e-07
1.656e-05 7.5277e-05 -2.63787e-07
2.75259e-07 -2.63787e-07 1.57103e-05
0.00115908 1.96301e-05 -2.21139e-08
1.96301e-05 7.34387e-05 -1.92779e-09
-2.21139e-08 -1.92779e-09 1.08739e-05
0.00115227 1.86888e-05 1.57334e-08
1.86888e-05 7.48949e-05 -8.60656e-09
1.57334e-08 -8.60656e-09 1.49154e-05
0.00116871 1.92159e-05 5.71352e-07
1.92159e-05 8.79398e-05 4.13842e-07
5.71352e-07 4.13842e-07 2.65871e-05
0.00108413 1.95029e-05 -1.56148e-07
1.95029e-05 4.23476e-05 6.28487e-07
-1.56148e-07 6.28487e-07 -2.01843e-05
0.0010433 1.91793e-05 3.13222e-08
1.91793e-05 2.06304e-05 -5.05365e-07
3.13222e-08 -5.05365e-07 -4.63892e-05
0.00106108 1.98444e-05 3.78868e-07
1.98444e-05 3.15912e-05 -4.4681e-08
3.78868e-07 -4.4681e-08 -3.33112e-05
0.00106738 2.21529e-05 4.40264e-07
2.21529e-05 4.07695e-05 -1.34514e-07
4.40264e-07 -1.34514e-07 -2.73173e-05
0.000896718 2.20053e-05 7.64676e-07
2.20053e-05 -4.24239e-05 4.3983e-07
7.64676e-07 4.3983e-07 -0.000107926
0.00175135 3.10326e-05 1.22085e-06
3.10326e-05 0.000349751 8.85378e-07
1.22085e-06 8.85378e-07 0.000284099
0.00135571 3.99005e-05 1.22529e-06
3.99005e-05 0.000141222 -2.41366e-06
1.22529e-06 -2.41366e-06 5.45077e-05
0.00115648 2.71462e-05 -2.16483e-09
2.71462e-05 8.4964e-05 3.88899e-07
-2.16483e-09 3.88899e-07 1.89858e-05
0.00109488 2.06078e-05 -7.7018e-07
2.06078e-05 4.63445e-05 -1.82416e-06
-7.7018e-07 -1.82416e-06 -2.04806e-05
0.000681968 -2.47699e-06 -2.31222e-05
-2.47699e-06 6.75577e-05 -8.2774e-06
-2.31222e-05 -8.2774e-06 2.70933e-05
0.00281055 -1.1564e-05 -1.71194e-05
-1.1564e-05 0.000262665 -1.91076e-06
-1.71194e-05 -1.91076e-06 -5.49436e-05
0.00143864 -7.31408e-05 -1.92653e-05
-7.31408e-05 0.000598503 -8.57726e-06
-1.92653e-05 -8.57726e-06 0.00051821
0.00277611 -3.52541e-05 2.10539e-05
-3.52541e-05 8.0684e-05 -1.22856e-06
2.10539e-05 -1.22856e-06 -0.000434503
0.00188669 6.36164e-05 9.72417e-06
6.36164e-05 0.000660825 2.34374e-05
9.72417e-06 2.34374e-05 0.000550754
0.000495679 3.53684e-05 -7.15532e-06
3.53684e-05 -0.000102562 -1.58488e-06
-7.15532e-06 -1.58488e-06 -0.000188985
0.00101556 1.19116e-05 1.51069e-05
1.19116e-05 -0.000156599 6.95416e-06
1.51069e-05 6.95416e-06 -0.000232398
0.000805506 4.61009e-05 6.00561e-07
4.61009e-05 -9.24767e-05 2.66025e-06
6.00561e-07 2.66025e-06 -0.000190247
0.000665991 3.33849e-05 -9.55849e-07
3.33849e-05 -8.13187e-05 2.12186e-07
-9.55849e-07 2.12186e-07 -0.000162831
0.00118986 6.53814e-05 -1.70034e-05
6.53814e-05 -1.77866e-06 -1.63101e-05
-1.70034e-05 -1.63101e-05 -2.99393e-05
0.000727842 2.2898e-05 -6.87359e-05
2.2898e-05 -0.000181578 -6.03669e-06
-6.87359e-05 -6.03669e-06 -0.000334935
0.00512067 5.16395e-05 1.74228e-05
5.16395e-05 0.00148494 -2.63051e-06
1.74228e-05 -2.63051e-06 0.00125843
-0.00397656 1.15184e-06 -5.46353e-05
1.15184e-06 -0.00203192 1.7036e-06
-5.46353e-05 1.7036e-06 -0.00195116
0.00171885 -2.27655e-05 -7.93674e-06
-2.27655e-05 -8.31238e-05 5.73388e-06
-7.93674e-06 5.73388e-06 -4.44774e-05
0.000342097 8.28266e-06 1.94594e-05
8.28266e-06 1.66722e-05 -1.18288e-05
1.94594e-05 -1.18288e-05 -0.000164802
0.000758934 -1.6977e-05 1.08201e-05
-1.6977e-05 -0.000199184 2.64455e-06
1.08201e-05 2.64455e-06 -0.000441153
0.00190822 -1.75535e-05 -2.58824e-06
-1.75535e-05 -7.69973e-05 1.28014e-06
-2.58824e-06 1.28014e-06 -4.34134e-07
0.00116277 3.96993e-05 3.81906e-06
3.96993e-05 0.000176823 -1.489e-06
3.81906e-06 -1.489e-06 5.82152e-05
0.00228897 2.05413e-05 7.32298e-06
2.05413e-05 0.000268346 -4.21238e-06
7.32298e-06 -4.21238e-06 0.000313879
0.000826295 3.87215e-05 3.15825e-06
3.87215e-05 -1.05913e-05 -3.93013e-06
3.15825e-06 -3.93013e-06 -8.00753e-05
0.00106143 -4.95618e-05 3.78987e-06
-4.95618e-05 -0.000130075 1.20536e-06
3.78987e-06 1.20536e-06 -0.000153871
0.00140354 -2.14299e-05 3.36741e-06
-2.14299e-05 -2.14941e-05 5.64377e-07
3.36741e-06 5.64377e-07 -1.55391e-05
0.00134731 7.67644e-06 1.82811e-06
7.67644e-06 -2.42437e-07 3.02101e-06
1.82811e-06 3.02101e-06 -1.68637e-05
0.00100618 -2.4124e-05 1.97078e-06
-2.4124e-05 -0.000148413 3.55937e-06
1.97078e-06 3.55937e-06 -0.000168094
0.00134922 -1.21079e-05 4.99691e-07
-1.21079e-05 2.19603e-05 8.70873e-07
4.99691e-07 8.70873e-07 5.74924e-06
0.00135315 -3.30566e-07 2.20681e-06
-3.30566e-07 5.11205e-05 1.54909e-06
2.20681e-06 1.54909e-06 1.55845e-05
0.00127941 -1.83425e-05 -4.39533e-07
-1.83425e-05 2.27277e-05 2.50082e-06
-4.39533e-07 2.50082e-06 -1.22388e-05
0.00129745 -1.168e-05 4.30912e-08
-1.168e-05 4.1262e-05 4.71877e-07
4.30912e-08 4.71877e-07 3.62566e-06
0.00129253 -6.81169e-06 1.18372e-06
-6.81169e-06 4.85486e-05 5.3273e-07
1.18372e-06 5.3273e-07 4.51876e-07
0.00131927 -1.73312e-05 -7.92178e-07
-1.73312e-05 6.89541e-05 1.28931e-06
-7.92178e-07 1.28931e-06 2.29657e-05
0.00124722 -1.42192e-05 -2.81043e-07
-1.42192e-05 4.35735e-05 -2.16298e-08
-2.81043e-07 -2.16298e-08 -4.42432e-06
0.00123991 -1.48723e-05 1.06899e-06
-1.48723e-05 4.85982e-05 1.42107e-07
1.06899e-06 1.42107e-07 -5.89284e-06
0.00120233 -1.70027e-05 -9.43532e-07
-1.70027e-05 2.99168e-05 7.78965e-07
-9.43532e-07 7.78965e-07 -1.9006e-05
0.00123879 -1.70077e-05 -2.54774e-07
-1.70077e-05 5.25657e-05 -2.3377e-07
-2.54774e-07 -2.3377e-07 -4.88042e-07
0.00128225 -1.79235e-05 3.85743e-07
-1.79235e-05 7.97619e-05 -4.32608e-07
3.85743e-07 -4.32608e-07 2.31165e-05
0.00127378 -1.98136e-05 1.86655e-08
-1.98136e-05 7.31671e-05 9.04828e-07
1.86655e-08 9.04828e-07 1.695e-05
0.0012559 -1.94716e-05 6.4082e-08
-1.94716e-05 7.15675e-05 -1.95725e-07
6.4082e-08 -1.95725e-07 1.3693e-05
0.00124171 -1.81316e-05 -3.12807e-07
-1.81316e-05 7.50093e-05 -2.50035e-07
-3.12807e-07 -2.50035e-07 1.80118e-05
0.000955825 -1.15064e-05 -1.41191e-06
-1.15064e-05 -3.14426e-05 7.26398e-07
-1.41191e-06 7.26398e-07 -8.56605e-05
0.00113015 -1.93395e-05 -1.97289e-07
-1.93395e-05 3.48682e-05 1.2723e-07
-1.97289e-07 1.2723e-07 -2.44145e-05
0.00123865 -2.16953e-05 6.13159e-07
-2.16953e-05 7.63133e-05 1.52638e-08
6.13159e-07 1.52638e-08 1.36893e-05
0.000970379 8.57678e-06 -2.04134e-06
8.57678e-06 4.88673e-06 1.29872e-06
-2.04134e-06 1.29872e-06 -3.39942e-05
0.00107149 -9.10393e-06 2.04245e-08
-9.10393e-06 3.64381e-05 5.97628e-08
2.04245e-08 5.97628e-08 -1.59192e-05
0.00112937 -2.01208e-05 4.66084e-07
-2.01208e-05 5.17902e-05 -2.81994e-07
4.66084e-07 -2.81994e-07 -7.61654e-06
0.00084933 1.61386e-05 -3.76509e-06
1.61386e-05 -4.97525e-05 2.13563e-06
-3.76509e-06 2.13563e-06 -5.75551e-05
0.000979913 1.11888e-05 1.81511e-08
1.11888e-05 7.21569e-06 -3.09908e-08
1.81511e-08 -3.09908e-08 -2.81416e-05
0.0010772 -5.58581e-06 1.01884e-06
-5.58581e-06 4.32035e-05 -7.17575e-07
1.01884e-06 -7.17575e-07 -7.05584e-06
0.0024327 2.3221e-05 -8.10525e-06
2.3221e-05 0.00071878 2.94022e-06
-8.10525e-06 2.94022e-06 0.000735629
0.000897385 1.54527e-05 6.48447e-08
1.54527e-05 -3.31518e-05 2.84181e-08
6.48447e-08 2.84181e-08 -3.89337e-05
0.00100088 1.23573e-05 2.05931e-06
1.23573e-05 1.43418e-05 -1.25546e-06
2.05931e-06 -1.25546e-06 -1.84477e-05
0.00235376 2.13528e-05 1.25656e-07
2.13528e-05 0.000674225 5.47867e-08
1.25656e-07 5.47867e-08 0.000692493
0.000934278 1.45686e-05 3.42374e-06
1.45686e-05 -2.11304e-05 -2.32887e-06
3.42374e-06 -2.32887e-06 -2.52711e-05
0.00229538 1.94786e-05 7.58544e-06
1.94786e-05 0.00064011 -3.16611e-06
7.58544e-06 -3.16611e-06 0.000659614
0.00111849 1.24091e-05 -3.20246e-07
1.24091e-05 6.36862e-05 -4.74258e-08
-3.20246e-07 -4.74258e-08 5.4361e-06
0.00114065 9.18026e-06 3.09252e-08
9.18026e-06 7.2049e-05 4.31419e-08
3.09252e-08 4.31419e-08 1.49446e-05
0.000959508 -4.38829e-06 -1.092e-06
-4.38829e-06 -1.06349e-05 -5.22069e-07
-1.092e-06 -5.22069e-07 -6.18521e-05
0.00114049 5.25479e-06 4.56048e-07
5.25479e-06 7.02227e-05 5.00279e-08
4.56048e-07 5.00279e-08 1.40058e-05
0.000948697 -6.19768e-06 -1.71442e-07
-6.19768e-06 -1.93082e-05 -2.06211e-07
-1.71442e-07 -2.06211e-07 -6.91611e-05
0.00100188 -1.12561e-05 -2.02002e-06
-1.12561e-05 9.91634e-06 -1.19701e-06
-2.02002e-06 -1.19701e-06 -2.25586e-05
0.000941021 -5.64607e-06 1.06665e-06
-5.64607e-06 -2.7199e-05 6.84522e-07
1.06665e-06 6.84522e-07 -7.58558e-05
0.00099862 -9.42796e-06 -1.913e-08
-9.42796e-06 3.13948e-06 1.82309e-08
-1.913e-08 1.82309e-08 -2.76626e-05
0.000930808 -1.31086e-05 -3.21871e-06
-1.31086e-05 -2.88687e-05 -2.39312e-06
-3.21871e-06 -2.39312e-06 -3.26521e-05
0.00099757 -7.71151e-06 1.80456e-06
-7.71151e-06 -1.51908e-06 1.47624e-06
1.80456e-06 1.47624e-06 -3.12056e-05
0.00092282 -1.17463e-05 -5.92925e-08
-1.17463e-05 -3.75201e-05 3.10079e-08
-5.92925e-08 3.10079e-08 -4.02261e-05
0.00234901 -1.75535e-05 -7.4113e-06
-1.75535e-05 0.000660328 -3.33067e-06
-7.4113e-06 -3.33067e-06 0.000680326
0.00239809 -1.56651e-05 -1.53826e-07
-1.56651e-05 0.000679111 4.40042e-08
-1.53826e-07 4.40042e-08 0.000699699
0.000919646 -1.04939e-05 2.52993e-06
-1.04939e-05 -4.27624e-05 2.7123e-06
2.52993e-06 2.7123e-06 -4.47896e-05
0.00241748 -1.37965e-05 6.46263e-06
-1.37965e-05 0.000684039 3.63599e-06
6.46263e-06 3.63599e-06 0.000705257
0.000566503 -1.32225e-05 -3.04419e-05
-1.32225e-05 -3.41481e-05 -6.52575e-06
-3.04419e-05 -6.52575e-06 -6.8161e-05
0.00141513 4.19552e-05 -1.31642e-05
4.19552e-05 -0.000419286 -4.54613e-06
-1.31642e-05 -4.54613e-06 -0.000660611
0.00242877 -5.12704e-05 -1.69273e-05
-5.12704e-05 0.000975403 -4.00887e-06
-1.69273e-05 -4.00887e-06 0.000960134
0.00119311 2.09692e-05 1.11827e-06
2.09692e-05 9.6063e-05 4.91791e-07
1.11827e-06 4.91791e-07 3.35728e-05
0.0011821 1.98395e-05 2.22236e-07
1.98395e-05 8.48223e-05 -4.4038e-07
2.22236e-07 -4.4038e-07 2.23911e-05
0.00115944 1.90403e-05 1.39051e-07
1.90403e-05 7.81611e-05 -3.38572e-07
1.39051e-07 -3.38572e-07 1.83115e-05
0.00113373 1.99256e-05 1.87312e-08
1.99256e-05 6.58894e-05 -1.74648e-08
1.87312e-08 -1.74648e-08 3.25717e-06
0.00113317 1.93594e-05 -1.6251e-07
1.93594e-05 7.19362e-05 -2.17354e-07
-1.6251e-07 -2.17354e-07 1.0396e-05
0.00101051 2.08952e-05 -1.21455e-07
2.08952e-05 1.47317e-05 6.24342e-07
-1.21455e-07 6.24342e-07 -4.71912e-05
0.00117768 2.06289e-05 5.0158e-07
2.06289e-05 8.68643e-05 -7.59663e-07
5.0158e-07 -7.59663e-07 2.189e-05
0.00103358 2.19399e-05 -7.19291e-07
2.19399e-05 2.88449e-05 -1.63613e-06
-7.19291e-07 -1.63613e-06 -3.90611e-05
0.00110498 2.35445e-05 -1.09067e-07
2.35445e-05 5.51361e-05 -1.22119e-09
-1.09067e-07 -1.22119e-09 -1.02234e-05
0.00139782 2.82423e-05 6.82245e-08
2.82423e-05 0.000195186 2.38453e-08
6.82245e-08 2.38453e-08 0.000131241
0.00126406 3.26967e-05 1.44126e-06
3.26967e-05 0.000101799 -1.61542e-06
1.44126e-06 -1.61542e-06 2.79655e-05
0.00148016 3.77764e-05 -4.54719e-06
3.77764e-05 0.00010165 -1.5999e-06
-4.54719e-06 -1.5999e-06 5.31392e-06
0.00120323 3.7876e-05 1.85139e-06
3.7876e-05 7.6155e-05 1.87567e-06
1.85139e-06 1.87567e-06 -8.26688e-06
0.000995233 2.56776e-05 -1.54734e-06
2.56776e-05 7.08182e-06 6.28297e-07
-1.54734e-06 6.28297e-07 -5.9134e-05
0.00108199 -3.79914e-05 7.39612e-06
-3.79914e-05 -0.000311596 8.39765e-06
7.39612e-06 8.39765e-06 -0.000358233
0.000680701 1.03151e-05 1.9512e-06
1.03151e-05 -0.000150664 1.06938e-06
1.9512e-06 1.06938e-06 -0.000229936
0.000845599 -1.46909e-05 -3.24634e-05
-1.46909e-05 -0.000342661 -2.32138e-05
-3.24634e-05 -2.32138e-05 -0.000591182
0.00222215 6.43044e-05 1.14184e-05
6.43044e-05 0.000306834 2.47699e-05
1.14184e-05 2.47699e-05 0.000139398
0.00159664 1.85898e-05 6.02311e-06
1.85898e-05 6.00227e-05 1.50701e-06
6.02311e-06 1.50701e-06 -3.58433e-05
0.000168103 4.64626e-05 -5.7036e-07
4.64626e-05 -0.000411074 7.92443e-06
-5.7036e-07 7.92443e-06 -0.000505964
0.00153219 -7.89735e-06 8.70513e-06
-7.89735e-06 0.000450485 -5.3712e-06
8.70513e-06 -5.3712e-06 0.000408969
0.000245137 1.15268e-05 -1.26614e-05
1.15268e-05 -1.26735e-05 -3.37162e-07
-1.26614e-05 -3.37162e-07 -8.64122e-05
0.000718833 9.32936e-05 3.88301e-05
9.32936e-05 -0.000791533 -3.70456e-06
3.88301e-05 -3.70456e-06 -0.000986405
0.00144064 -2.64914e-05 4.4719e-08
-2.64914e-05 -0.000267748 2.79676e-06
4.4719e-08 2.79676e-06 -0.000203489
0.00088775 2.95427e-05 2.72365e-05
2.95427e-05 -0.000128874 -8.60478e-06
2.72365e-05 -8.60478e-06 -0.000285243
0.00178034 1.00069e-05 3.03184e-06
1.00069e-05 3.50919e-05 8.33717e-07
3.03184e-06 8.33717e-07 6.53329e-05
0.000977346 4.14054e-05 1.16417e-06
4.14054e-05 6.23844e-05 -2.47931e-06
1.16417e-06 -2.47931e-06 -7.27802e-06
0.00137932 3.68522e-05 -1.20442e-06
3.68522e-05 3.48029e-05 2.33314e-06
-1.20442e-06 2.33314e-06 -2.32189e-05
0.000388558 2.68154e-05 -1.31487e-06
2.68154e-05 -0.00032823 -4.07645e-06
-1.31487e-06 -4.07645e-06 -0.000407212
0.00142733 -2.03021e-05 2.90235e-06
-2.03021e-05 -2.96456e-06 1.12374e-06
2.90235e-06 1.12374e-06 5.33325e-06
0.00145277 6.99205e-06 -1.51465e-07
6.99205e-06 5.99016e-05 -2.64909e-07
-1.51465e-07 -2.64909e-07 3.99518e-05
0.00146126 1.84511e-05 6.16092e-07
1.84511e-05 0.000117776 1.08161e-06
6.16092e-07 1.08161e-06 6.5894e-05
0.00140743 -1.23731e-05 -2.0155e-06
-1.23731e-05 5.79662e-05 7.54385e-07
-2.0155e-06 7.54385e-07 3.92721e-05
0.0013872 -3.59828e-07 -2.45638e-07
-3.59828e-07 7.06276e-05 -2.67052e-07
-2.45638e-07 -2.67052e-07 3.42456e-05
0.00137232 4.87721e-06 1.45722e-06
4.87721e-06 7.55139e-05 1.13256e-06
1.45722e-06 1.13256e-06 2.33085e-05
0.00135723 -1.20289e-05 -2.14339e-06
-1.20289e-05 7.21171e-05 3.52531e-07
-2.14339e-06 3.52531e-07 3.33645e-05
0.00129464 -7.73937e-06 -6.34104e-07
-7.73937e-06 5.30512e-05 -3.67339e-07
-6.34104e-07 -3.67339e-07 5.09072e-06
0.00126073 -9.61401e-06 8.49984e-07
-9.61401e-06 4.6239e-05 7.55498e-07
8.49984e-07 7.55498e-07 -1.19966e-05
0.00125934 -1.50191e-05 -1.61216e-06
-1.50191e-05 5.12954e-05 -1.95467e-07
-1.61216e-06 -1.95467e-07 3.12802e-06
0.00124094 -1.46056e-05 3.60203e-08
-1.46056e-05 4.93306e-05 -1.81447e-07
3.60203e-08 -1.81447e-07 -5.14391e-06
0.00124008 -1.63173e-05 5.05408e-07
-1.63173e-05 5.57302e-05 8.08254e-08
5.05408e-07 8.08254e-08 -2.551e-06
0.00118797 -1.65492e-05 -9.93952e-07
-1.65492e-05 2.78202e-05 4.49364e-07
-9.93952e-07 4.49364e-07 -2.4586e-05
0.00122354 -1.71821e-05 -3.65217e-08
-1.71821e-05 5.0815e-05 -1.86609e-07
-3.65217e-08 -1.86609e-07 -5.4352e-06
0.0011881 -1.63758e-05 -1.91743e-07
-1.63758e-05 4.32273e-05 -1.80024e-07
-1.91743e-07 -1.80024e-07 -1.39057e-05
0.0012525 -1.9406e-05 2.50773e-07
-1.9406e-05 6.97875e-05 3.97164e-07
2.50773e-07 3.97164e-07 1.17913e-05
0.00117888 -1.77034e-05 8.9123e-08
-1.77034e-05 4.46623e-05 -1.37452e-07
8.9123e-08 -1.37452e-07 -1.2651e-05
0.00112717 -1.26422e-05 -9.61662e-07
-1.26422e-05 3.86115e-05 2.88709e-07
-9.61662e-07 2.88709e-07 -1.54274e-05
0.000990409 2.92894e-06 -2.22143e-06
2.92894e-06 1.12801e-05 1.19298e-06
-2.22143e-06 1.19298e-06 -3.08841e-05
0.00102675 -1.14086e-05 -3.14055e-07
-1.14086e-05 3.78666e-06 2.63705e-07
-3.14055e-07 2.63705e-07 -5.00337e-05
0.00118982 -1.97822e-05 5.26734e-07
-1.97822e-05 6.5033e-05 -9.47946e-08
5.26734e-07 -9.47946e-08 5.99309e-06
0.000824538 1.66387e-05 -3.95907e-06
1.66387e-05 -5.52259e-05 2.08868e-06
-3.95907e-06 2.08868e-06 -6.58028e-05
0.000985514 6.61364e-06 7.94928e-08
6.61364e-06 1.07556e-05 -9.75936e-10
7.94928e-08 -9.75936e-10 -2.79802e-05
0.00107837 -8.27244e-06 1.06677e-06
-8.27244e-06 3.95122e-05 -6.49029e-07
1.06677e-06 -6.49029e-07 -1.28036e-05
0.00247304 2.49405e-05 -8.39878e-06
2.49405e-05 0.000746333 2.79449e-06
-8.39878e-06 2.79449e-06 0.000761572
0.00088383 1.61837e-05 3.01511e-08
1.61837e-05 -3.33719e-05 4.56163e-09
3.01511e-08 4.56163e-09 -4.13463e-05
0.00100298 9.91629e-06 2.08997e-06
9.91629e-06 1.7428e-05 -1.25031e-06
2.08997e-06 -1.25031e-06 -1.7874e-05
0.0023786 2.31132e-05 1.34287e-07
2.31132e-05 0.0006936 6.30754e-08
1.34287e-07 6.30754e-08 0.000710452
0.000926061 1.54893e-05 3.70815e-06
1.54893e-05 -1.94642e-05 -2.19084e-06
3.70815e-06 -2.19084e-06 -2.53823e-05
0.00230257 2.12806e-05 7.87038e-06
2.12806e-05 0.00065027 -3.04944e-06
7.87038e-06 -3.04944e-06 0.000668571
0.00106903 1.64412e-05 -2.02417e-07
1.64412e-05 3.82107e-05 -1.02806e-07
-2.02417e-07 -1.02806e-07 -2.13438e-05
0.00109868 1.26525e-05 -6.40677e-08
1.26525e-05 5.41786e-05 -1.26657e-07
-6.40677e-08 -1.26657e-07 -4.00491e-06
0.00106576 -7.54284e-07 -8.46984e-07
-7.54284e-07 4.30767e-05 -2.63904e-07
-8.46984e-07 -2.63904e-07 -9.03596e-06
0.00121525 1.02275e-05 2.8489e-07
1.02275e-05 0.000108043 -2.07282e-07
2.8489e-07 -2.07282e-07 5.14168e-05
0.00100105 -4.54593e-06 -1.49368e-07
-4.54593e-06 1.03609e-05 -1.72271e-07
-1.49368e-07 -1.72271e-07 -4.06869e-05
0.000995316 -1.26825e-05 -2.01007e-06
-1.26825e-05 1.21547e-05 -1.0799e-06
-2.01007e-06 -1.0799e-06 -2.24343e-05
0.000941093 -6.20237e-06 8.47887e-07
-6.20237e-06 -2.20373e-05 2.91734e-07
8.47887e-07 2.91734e-07 -7.21113e-05
0.000989471 -1.1054e-05 -2.20256e-08
-1.1054e-05 3.94865e-06 2.56879e-08
-2.20256e-08 2.56879e-08 -2.8492e-05
0.000925263 -1.44065e-05 -3.42931e-06
-1.44065e-05 -2.58608e-05 -2.24138e-06
-3.42931e-06 -2.24138e-06 -3.11252e-05
0.000988442 -9.25725e-06 1.94205e-06
-9.25725e-06 -1.83331e-06 1.37698e-06
1.94205e-06 1.37698e-06 -3.25898e-05
0.000914304 -1.30644e-05 -4.09491e-08
-1.30644e-05 -3.70269e-05 2.43992e-08
-4.09491e-08 2.43992e-08 -4.06943e-05
0.0023399 -1.94386e-05 -7.6479e-06
-1.94386e-05 0.000661618 -3.18969e-06
-7.6479e-06 -3.18969e-06 0.000680695
0.000910436 -1.17079e-05 2.83766e-06
-1.17079e-05 -4.37012e-05 2.59488e-06
2.83766e-06 2.59488e-06 -4.63149e-05
0.00239755 -1.75554e-05 -1.38171e-07
-1.75554e-05 0.000683378 4.91623e-08
-1.38171e-07 4.91623e-08 0.000703254
0.00243602 -1.56644e-05 7.0157e-06
-1.56644e-05 0.000697153 3.52978e-06
7.0157e-06 3.52978e-06 0.000717635
0.00091219 -5.70033e-05 9.52936e-06
-5.70033e-05 -0.000241903 4.90643e-07
9.52936e-06 4.90643e-07 -0.000247741
0.00111371 6.07362e-06 -6.46819e-06
6.07362e-06 -6.4641e-05 3.66947e-06
-6.46819e-06 3.66947e-06 -0.000167962
0.00396456 4.00706e-05 -4.65358e-05
4.00706e-05 0.00087764 -1.78057e-05
-4.65358e-05 -1.78057e-05 0.000637071
0.000997744 2.06085e-05 8.32133e-07
2.06085e-05 3.35809e-06 5.6418e-07
8.32133e-07 5.6418e-07 -5.87307e-05
0.00127926 2.40639e-05 9.55923e-07
2.40639e-05 0.000117576 -2.59967e-07
9.55923e-07 -2.59967e-07 5.27445e-05
0.00104696 2.03343e-05 2.16821e-07
2.03343e-05 3.0126e-05 1.02343e-08
2.16821e-07 1.02343e-08 -3.25088e-05
0.00118114 2.03321e-05 6.02506e-08
2.03321e-05 8.82252e-05 -6.79755e-07
6.02506e-08 -6.79755e-07 2.55159e-05
0.00110489 1.95709e-05 -3.19994e-07
1.95709e-05 5.92774e-05 -4.37928e-07
-3.19994e-07 -4.37928e-07 -2.44952e-06
0.00110355 2.18162e-05 8.44775e-08
2.18162e-05 5.75157e-05 1.84338e-07
8.44775e-08 1.84338e-07 -4.62484e-06
0.00121331 2.92296e-05 2.44416e-07
2.92296e-05 6.94211e-05 -7.4968e-07
2.44416e-07 -7.4968e-07 -1.53912e-06
0.00130151 2.501e-05 1.50017e-07
2.501e-05 0.000147246 -4.30545e-07
1.50017e-07 -4.30545e-07 8.20298e-05
0.00105663 2.55519e-05 -3.08004e-06
2.55519e-05 4.62123e-05 -1.06267e-06
-3.08004e-06 -1.06267e-06 -1.60114e-05
0.0011489 3.19796e-05 1.42147e-08
3.19796e-05 4.70006e-05 -7.23649e-08
1.42147e-08 -7.23649e-08 -2.73924e-05
0.0011814 3.12242e-05 8.47922e-07
3.12242e-05 -2.32144e-05 -1.49584e-06
8.47922e-07 -1.49584e-06 -0.000110164
0.00154613 2.94471e-07 -2.33782e-06
2.94471e-07 9.31408e-05 3.99415e-06
-2.33782e-06 3.99415e-06 3.28089e-05
0.00154469 3.64213e-05 -1.93115e-06
3.64213e-05 0.000130037 5.02122e-07
-1.93115e-06 5.02122e-07 3.59013e-05
0.00106585 3.60769e-05 -5.30621e-07
3.60769e-05 1.81587e-05 4.62719e-06
-5.30621e-07 4.62719e-06 -6.39411e-05
0.00180375 -3.44351e-05 1.38502e-06
-3.44351e-05 3.06398e-05 -1.342e-08
1.38502e-06 -1.342e-08 -1.69706e-05
0.00131288 5.97857e-06 5.66934e-05
5.97857e-06 -1.0699e-05 1.41045e-05
5.66934e-05 1.41045e-05 -0.000129308
0.00227881 2.53649e-05 -5.98327e-06
2.53649e-05 0.000328323 -9.54268e-08
-5.98327e-06 -9.54268e-08 0.00021211
0.00123017 -1.88141e-06 4.83795e-07
-1.88141e-06 0.000107345 -3.27208e-06
4.83795e-07 -3.27208e-06 6.43525e-05
0.000824617 -1.37432e-05 3.54278e-06
-1.37432e-05 9.60868e-05 -1.18321e-06
3.54278e-06 -1.18321e-06 6.39299e-05
0.00114116 3.50566e-05 2.87676e-05
3.50566e-05 -2.4657e-05 4.13522e-06
2.87676e-05 4.13522e-06 -0.000120361
0.00147596 -9.03744e-07 4.79966e-06
-9.03744e-07 -9.80997e-05 -2.63e-06
4.79966e-06 -2.63e-06 -8.74266e-05
0.00105869 4.33658e-05 -4.29643e-06
4.33658e-05 0.000107314 -4.09861e-07
-4.29643e-06 -4.09861e-07 3.82264e-05
0.00153079 3.72495e-05 -2.12871e-06
3.72495e-05 0.000104897 6.8445e-07
-2.12871e-06 6.8445e-07 4.87403e-05
0.00103473 3.08014e-05 4.32693e-07
3.08014e-05 -1.70505e-05 1.27433e-06
4.32693e-07 1.27433e-06 -9.27347e-05
0.00126128 2.92528e-05 -1.33756e-06
2.92528e-05 6.05601e-05 -1.15783e-06
-1.33756e-06 -1.15783e-06 -1.10506e-05
0.00136673 2.62237e-05 -4.78389e-07
2.62237e-05 0.000179243 -1.96983e-06
-4.78389e-07 -1.96983e-06 0.000121728
0.00156987 6.16773e-06 -3.51607e-06
6.16773e-06 0.000125926 -2.28498e-06
-3.51607e-06 -2.28498e-06 0.000102105
0.00139775 1.75694e-05 -2.96827e-07
1.75694e-05 8.69986e-05 -1.14852e-06
-2.96827e-07 -1.14852e-06 3.61306e-05
0.00145434 2.18836e-05 9.39136e-08
2.18836e-05 0.000123443 4.95358e-07
9.39136e-08 4.95358e-07 5.99194e-05
0.00141599 -4.19634e-07 -3.37287e-06
-4.19634e-07 8.74289e-05 -1.13297e-06
-3.37287e-06 -1.13297e-06 5.02445e-05
0.00135162 4.84523e-06 -1.82261e-07
4.84523e-06 6.81446e-05 -2.87305e-07
-1.82261e-07 -2.87305e-07 1.55894e-05
0.00122331 3.75624e-06 5.94309e-07
3.75624e-06 1.6402e-05 9.91682e-07
5.94309e-07 9.91682e-07 -4.53554e-05
0.00129647 -8.58625e-06 -2.4651e-06
-8.58625e-06 5.73316e-05 -9.34214e-07
-2.4651e-06 -9.34214e-07 9.52021e-06
0.00126809 -9.10306e-06 9.07981e-08
-9.10306e-06 4.98724e-05 -1.21745e-07
9.07981e-08 -1.21745e-07 -8.34612e-06
0.00125515 -1.22143e-05 3.90001e-07
-1.22143e-05 5.26737e-05 5.36498e-07
3.90001e-07 5.36498e-07 -9.07874e-06
0.00124291 -1.43026e-05 -1.03445e-06
-1.43026e-05 5.04859e-05 -5.06923e-07
-1.03445e-06 -5.06923e-07 -3.97051e-06
0.00123857 -1.59839e-05 3.84079e-09
-1.59839e-05 5.46856e-05 -1.32078e-07
3.84079e-09 -1.32078e-07 -3.55737e-06
0.00121681 -1.6055e-05 -5.04745e-08
-1.6055e-05 5.33725e-05 8.26926e-08
-5.04745e-08 8.26926e-08 -5.50616e-06
0.00116445 -1.6503e-05 -3.70512e-07
-1.6503e-05 2.16816e-05 1.85959e-07
-3.70512e-07 1.85959e-07 -3.41744e-05
0.00115869 -1.6072e-05 -8.70414e-08
-1.6072e-05 2.88508e-05 -7.79172e-08
-8.70414e-08 -7.79172e-08 -2.82e-05
0.00115273 -1.22801e-05 -8.34452e-07
-1.22801e-05 4.3787e-05 1.46021e-07
-8.34452e-07 1.46021e-07 -1.07973e-05
0.00111499 -1.72884e-05 6.349e-07
-1.72884e-05 1.38528e-05 1.22522e-08
6.349e-07 1.22522e-08 -4.37807e-05
0.00105086 -1.16491e-05 -4.55748e-08
-1.16491e-05 2.66791e-06 3.85218e-08
-4.55748e-08 3.85218e-08 -5.15263e-05
0.0010052 6.56411e-07 -2.32178e-06
6.56411e-07 1.3186e-05 9.45517e-07
-2.32178e-06 9.45517e-07 -3.15012e-05
0.000852778 1.71256e-05 -4.23202e-06
1.71256e-05 -3.68603e-05 2.02482e-06
-4.23202e-06 2.02482e-06 -5.03991e-05
0.000992759 1.97634e-06 6.99436e-08
1.97634e-06 1.0939e-05 5.23093e-08
6.99436e-08 5.23093e-08 -3.10278e-05
0.00109905 -1.13487e-05 7.83933e-07
-1.13487e-05 3.96435e-05 -2.58073e-07
7.83933e-07 -2.58073e-07 -1.37796e-05
0.0025387 2.66193e-05 -8.66937e-06
2.66193e-05 0.000786408 2.65105e-06
-8.66937e-06 2.65105e-06 0.0007998
0.000866403 1.66916e-05 5.31527e-08
1.66916e-05 -3.53195e-05 -2.37253e-09
5.31527e-08 -2.37253e-09 -4.61153e-05
0.00100178 4.8426e-06 2.17629e-06
4.8426e-06 1.71801e-05 -1.19938e-06
2.17629e-06 -1.19938e-06 -2.14126e-05
0.00242074 2.48114e-05 1.1825e-07
2.48114e-05 0.000722048 6.34627e-08
1.1825e-07 6.34627e-08 0.000737251
0.000917882 1.62204e-05 3.92052e-06
1.62204e-05 -1.71889e-05 -2.11446e-06
3.92052e-06 -2.11446e-06 -2.53363e-05
0.00232526 2.30115e-05 8.15854e-06
2.30115e-05 0.000668766 -2.90216e-06
8.15854e-06 -2.90216e-06 0.000685621
0.000955385 1.8848e-05 -1.45595e-07
1.8848e-05 -2.37324e-05 -3.08284e-07
-1.45595e-07 -3.08284e-07 -8.61192e-05
0.000997966 1.63724e-05 -2.709e-08
1.63724e-05 3.82067e-06 -6.27609e-08
-2.709e-08 -6.27609e-08 -5.60804e-05
0.00108795 4.07591e-06 -8.67699e-07
4.07591e-06 5.13491e-05 -2.00936e-07
-8.67699e-07 -2.00936e-07 -2.1239e-06
0.00107928 1.28391e-05 6.34426e-08
1.28391e-05 4.48413e-05 -2.98909e-07
6.34426e-08 -2.98909e-07 -1.32727e-05
0.00104724 -1.98918e-06 2.44821e-08
-1.98918e-06 3.50387e-05 2.1334e-08
2.44821e-08 2.1334e-08 -1.71691e-05
0.000993489 -1.28198e-05 -2.0327e-06
-1.28198e-05 1.56563e-05 -9.56363e-07
-2.0327e-06 -9.56363e-07 -2.13714e-05
0.00104194 -4.72567e-06 8.06766e-07
-4.72567e-06 3.10527e-05 1.85326e-07
8.06766e-07 1.85326e-07 -1.98251e-05
0.000978839 -1.24601e-05 -6.79767e-09
-1.24601e-05 4.40047e-06 1.0916e-08
-6.79767e-09 1.0916e-08 -3.01701e-05
0.000917242 -1.55731e-05 -3.63327e-06
-1.55731e-05 -2.30573e-05 -2.09232e-06
-3.63327e-06 -2.09232e-06 -3.0271e-05
0.00097704 -1.08507e-05 2.02507e-06
-1.08507e-05 -2.02922e-06 1.2736e-06
2.02507e-06 1.2736e-06 -3.44353e-05
0.000903598 -1.43553e-05 -4.50453e-08
-1.43553e-05 -3.63939e-05 2.3169e-08
-4.50453e-08 2.3169e-08 -4.15296e-05
0.00234047 -2.12805e-05 -7.88523e-06
-2.12805e-05 0.000668993 -3.04716e-06
-7.88523e-06 -3.04716e-06 0.000686825
0.000897695 -1.30191e-05 3.09371e-06
-1.30191e-05 -4.52426e-05 2.46258e-06
3.09371e-06 2.46258e-06 -4.87928e-05
0.00239588 -1.94681e-05 -1.25966e-07
-1.94681e-05 0.000688013 5.28405e-08
-1.25966e-07 5.28405e-08 0.000706996
0.00244613 -1.75607e-05 7.42445e-06
-1.75607e-05 0.000706455 3.39583e-06
7.42445e-06 3.39583e-06 0.000726208
0.00141727 -2.50391e-05 1.22955e-06
-2.50391e-05 9.72816e-05 4.17705e-07
1.22955e-06 4.17705e-07 6.81174e-05
0.00126693 -5.47295e-05 -1.39785e-07
-5.47295e-05 6.7265e-06 -3.33905e-06
-1.39785e-07 -3.33905e-06 8.11152e-07
-0.000185732 3.3453e-07 2.41918e-05
3.3453e-07 -0.000153932 7.17723e-06
2.41918e-05 7.17723e-06 -0.000180704
0.00145303 2.63363e-05 1.13805e-06
2.63363e-05 0.000179227 -5.52096e-07
1.13805e-06 -5.52096e-07 0.000113015
0.00102319 2.12102e-05 -2.18709e-07
2.12102e-05 1.91921e-05 1.26322e-07
-2.18709e-07 1.26322e-07 -4.1948e-05
0.000881645 2.29071e-05 -4.53305e-07
2.29071e-05 -9.55069e-05 -1.11982e-07
-4.53305e-07 -1.11982e-07 -0.000166014
0.00123634 2.37892e-05 4.45584e-08
2.37892e-05 9.7329e-05 2.79794e-08
4.45584e-08 2.79794e-08 3.21935e-05
0.000904281 1.97072e-05 -5.37675e-07
1.97072e-05 -3.39677e-05 1.89458e-07
-5.37675e-07 1.89458e-07 -9.67747e-05
0.00142775 3.0024e-05 -2.33645e-07
3.0024e-05 0.000102908 -2.78342e-06
-2.33645e-07 -2.78342e-06 2.42829e-05
0.0012001 2.27374e-05 -4.15595e-07
2.27374e-05 0.000101965 -5.37113e-07
-4.15595e-07 -5.37113e-07 3.96036e-05
0.00119853 2.88207e-05 4.6918e-08
2.88207e-05 6.14238e-05 7.55046e-07
4.6918e-08 7.55046e-07 -8.91011e-06
0.00128003 1.4292e-07 9.78257e-07
1.4292e-07 -3.36722e-05 3.43972e-06
9.78257e-07 3.43972e-06 -0.000102508
0.00102297 3.11043e-05 -5.63834e-07
3.11043e-05 -1.27097e-05 1.34446e-06
-5.63834e-07 1.34446e-06 -8.76718e-05
0.00138028 3.29835e-05 -1.37235e-07
3.29835e-05 5.79472e-05 -5.74354e-07
-1.37235e-07 -5.74354e-07 -3.11253e-05
0.00147476 -3.19504e-07 -1.92662e-10
-3.19504e-07 5.23915e-05 9.33162e-07
-1.92662e-10 9.33162e-07 -8.60257e-06
0.00157528 3.4678e-05 -1.42488e-07
3.4678e-05 0.000142697 1.7426e-06
-1.42488e-07 1.7426e-06 5.07364e-05
0.00244934 -3.09434e-05 -1.09208e-05
-3.09434e-05 0.000336764 -9.57412e-06
-1.09208e-05 -9.57412e-06 0.000288119
0.00134027 -8.23426e-06 4.80752e-07
-8.23426e-06 0.000154125 -1.79927e-06
4.80752e-07 -1.79927e-06 0.000113004
0.000833303 -1.23324e-06 8.42561e-07
-1.23324e-06 -7.48034e-05 7.38298e-07
8.42561e-07 7.38298e-07 -0.000117465
0.00010044 -1.90745e-05 -3.01491e-06
-1.90745e-05 -0.000263842 1.99496e-06
-3.01491e-06 1.99496e-06 -0.000287535
0.00155599 3.7218e-05 -4.30439e-06
3.7218e-05 0.000113249 -4.61113e-06
-4.30439e-06 -4.61113e-06 5.9492e-05
0.00163848 3.443e-05 5.1143e-06
3.443e-05 0.000274832 5.46753e-06
5.1143e-06 5.46753e-06 0.000202461
0.00133164 3.00727e-05 -9.76853e-07
3.00727e-05 8.34099e-05 -1.05736e-06
-9.76853e-07 -1.05736e-06 1.16685e-05
0.00137575 2.57376e-05 5.66845e-07
2.57376e-05 0.000173159 2.28288e-06
5.66845e-07 2.28288e-06 0.00011671
0.00126644 2.52335e-05 -1.40038e-06
2.52335e-05 9.69784e-05 -2.90885e-06
-1.40038e-06 -2.90885e-06 3.87151e-05
0.00133513 1.66949e-05 -1.63084e-06
1.66949e-05 5.70899e-05 -2.29701e-06
-1.63084e-06 -2.29701e-06 7.16304e-06
0.00137701 2.07768e-05 -2.26453e-08
2.07768e-05 8.49895e-05 -3.9806e-07
-2.26453e-08 -3.9806e-07 2.26579e-05
0.00138967 2.10155e-05 -9.18704e-07
2.10155e-05 0.000102801 -7.45674e-07
-9.18704e-07 -7.45674e-07 3.85841e-05
0.00133003 4.71896e-06 -1.84766e-06
4.71896e-06 6.02977e-05 -1.17771e-06
-1.84766e-06 -1.17771e-06 7.39826e-06
0.00128503 4.475e-06 2.26203e-07
4.475e-06 4.56707e-05 1.47643e-07
2.26203e-07 1.47643e-07 -1.66689e-05
0.00130244 3.25326e-06 4.36444e-08
3.25326e-06 6.36135e-05 5.25627e-07
4.36444e-08 5.25627e-07 -8.66189e-07
0.00127527 -8.53106e-06 -9.86365e-07
-8.53106e-06 5.34242e-05 -9.8282e-07
-9.86365e-07 -9.8282e-07 -4.7775e-06
0.00126393 -1.16987e-05 6.21833e-08
-1.16987e-05 5.62202e-05 -7.60464e-08
6.21833e-08 -7.60464e-08 -5.54905e-06
0.00122926 -1.35479e-05 -1.07168e-07
-1.35479e-05 5.09359e-05 3.72126e-07
-1.07168e-07 3.72126e-07 -1.07739e-05
0.00123777 -1.56892e-05 -4.75542e-07
-1.56892e-05 5.3968e-05 -3.43415e-07
-4.75542e-07 -3.43415e-07 -4.23687e-06
0.00121517 -1.588e-05 -1.82518e-08
-1.588e-05 5.23083e-05 -8.34975e-08
-1.82518e-08 -8.34975e-08 -6.54341e-06
0.00116165 -1.22076e-05 -6.84011e-07
-1.22076e-05 4.3037e-05 1.94668e-07
-6.84011e-07 1.94668e-07 -1.33003e-05
0.00113096 -1.57337e-05 1.57597e-07
-1.57337e-05 1.52183e-05 1.4124e-08
1.57597e-07 1.4124e-08 -4.17455e-05
0.00113927 -1.17129e-05 -3.32709e-08
-1.17129e-05 3.76225e-05 -8.04316e-09
-3.32709e-08 -8.04316e-09 -1.69222e-05
0.00101271 3.12099e-07 -2.24621e-06
3.12099e-07 1.28676e-05 7.10419e-07
-2.24621e-06 7.10419e-07 -3.38972e-05
0.000973815 -1.06123e-05 9.19202e-07
-1.06123e-05 -3.36266e-05 -1.93822e-07
9.19202e-07 -1.93822e-07 -8.7974e-05
0.000998197 2.33799e-07 8.37115e-09
2.33799e-07 8.57416e-06 6.57789e-08
8.37115e-09 6.57789e-08 -3.59024e-05
0.00158069 2.06336e-05 -3.68161e-06
2.06336e-05 0.000322377 1.04213e-06
-3.68161e-06 1.04213e-06 0.000309384
0.00120811 2.21674e-05 -1.07923e-05
2.21674e-05 0.000145043 4.11442e-06
-1.07923e-05 4.11442e-06 0.000149157
0.00123771 1.86022e-05 -1.715e-07
1.86022e-05 0.000150725 7.25343e-08
-1.715e-07 7.25343e-08 0.00013862
0.00099566 1.02504e-06 2.28722e-06
1.02504e-06 1.08597e-05 -1.01044e-06
2.28722e-06 -1.01044e-06 -3.0909e-05
0.0024929 2.64531e-05 1.16452e-07
2.64531e-05 0.000765097 7.02148e-08
1.16452e-07 7.02148e-08 0.000778402
0.000908226 1.6741e-05 4.13344e-06
1.6741e-05 -1.54264e-05 -2.05516e-06
4.13344e-06 -2.05516e-06 -2.64419e-05
0.00236817 2.46675e-05 8.48378e-06
2.46675e-05 0.000697619 -2.77424e-06
8.48378e-06 -2.77424e-06 0.000712791
0.00111827 2.34163e-05 3.27563e-07
2.34163e-05 2.77666e-06 1.33459e-08
3.27563e-07 1.33459e-08 -6.50354e-05
0.000950347 2.05122e-05 3.53589e-07
2.05122e-05 -3.63151e-05 -1.23071e-07
3.53589e-07 -1.23071e-07 -0.000101933
0.000979758 1.93358e-05 -2.92624e-08
1.93358e-05 -1.43671e-05 -2.95034e-08
-2.92624e-08 -2.95034e-08 -7.70598e-05
0.00110206 8.77557e-06 -7.86813e-07
8.77557e-06 5.409e-05 -2.98379e-07
-7.86813e-07 -2.98379e-07 -8.84458e-07
0.000925088 1.62777e-05 3.56916e-08
1.62777e-05 -3.14548e-05 4.67199e-08
3.56916e-08 4.67199e-08 -9.16959e-05
0.00105971 3.02264e-06 -1.62424e-08
3.02264e-06 3.86961e-05 3.95869e-08
-1.62424e-08 3.95869e-08 -1.48025e-05
0.000997549 -1.07708e-05 -2.08274e-06
-1.07708e-05 2.01192e-05 -8.10795e-07
-2.08274e-06 -8.10795e-07 -1.93917e-05
0.00102924 -3.2928e-06 8.55484e-07
-3.2928e-06 2.72436e-05 2.88873e-07
8.55484e-07 2.88873e-07 -2.50615e-05
0.000972039 -1.31557e-05 -3.01576e-08
-1.31557e-05 5.87353e-06 7.61921e-09
-3.01576e-08 7.61921e-09 -3.11802e-05
0.000906974 -1.65424e-05 -3.86663e-06
-1.65424e-05 -2.0416e-05 -1.93427e-06
-3.86663e-06 -1.93427e-06 -2.99294e-05
0.000962333 -1.22354e-05 2.07653e-06
-1.22354e-05 -3.36849e-06 1.14613e-06
2.07653e-06 1.14613e-06 -3.79204e-05
0.00089059 -1.55095e-05 -3.97397e-08
-1.55095e-05 -3.58068e-05 1.94084e-08
-3.97397e-08 1.94084e-08 -4.28884e-05
0.00235307 -2.3027e-05 -8.15278e-06
-2.3027e-05 0.000683684 -2.90134e-06
-8.15278e-06 -2.90134e-06 0.000699945
0.00088182 -1.43034e-05 3.30201e-06
-1.43034e-05 -4.69869e-05 2.32728e-06
3.30201e-06 2.32728e-06 -5.19927e-05
0.00240029 -2.135e-05 -1.26938e-07
-2.135e-05 0.000696919 5.79549e-08
-1.26938e-07 5.79549e-08 0.000714715
0.00245202 -1.9492e-05 7.70493e-06
-1.9492e-05 0.000714491 3.24523e-06
7.70493e-06 3.24523e-06 0.00073338
0.00144533 -2.90524e-05 1.87326e-06
-2.90524e-05 0.000101072 1.52894e-06
1.87326e-06 1.52894e-06 5.60756e-05
0.00146906 -2.56368e-05 1.6949e-06
-2.56368e-05 0.000112702 -1.63326e-06
1.6949e-06 -1.63326e-06 8.16167e-05
0.00177826 -5.27845e-05 -9.72375e-06
-5.27845e-05 0.00032533 -6.9423e-06
-9.72375e-06 -6.9423e-06 0.000319233
0.00136237 2.61811e-05 -2.22233e-07
2.61811e-05 8.32041e-05 -1.3904e-06
-2.22233e-07 -1.3904e-06 1.0005e-05
0.0013404 2.54015e-05 -2.31873e-08
2.54015e-05 0.000134048 2.22336e-07
-2.31873e-08 2.22336e-07 6.9053e-05
0.001026 2.16825e-05 -1.50021e-06
2.16825e-05 2.4377e-05 -4.0599e-07
-1.50021e-06 -4.0599e-07 -3.57958e-05
0.00119569 2.48125e-05 1.99239e-07
2.48125e-05 4.87253e-05 4.0517e-07
1.99239e-07 4.0517e-07 -2.06368e-05
0.00119077 2.34983e-05 -9.42117e-07
2.34983e-05 7.56969e-05 4.12373e-07
-9.42117e-07 4.12373e-07 1.02759e-05
0.00133391 3.43219e-06 -7.63007e-08
3.43219e-06 1.66509e-05 1.05805e-06
-7.63007e-08 1.05805e-06 -5.78563e-05
0.00141487 3.0189e-05 -6.25778e-07
3.0189e-05 9.74161e-05 -1.0121e-06
-6.25778e-07 -1.0121e-06 1.79299e-05
0.00117346 2.83845e-05 -2.6087e-07
2.83845e-05 4.88561e-05 2.28625e-06
-2.6087e-07 2.28625e-06 -2.08747e-05
0.00145632 3.9044e-07 6.62808e-08
3.9044e-07 4.34902e-05 1.01512e-06
6.62808e-08 1.01512e-06 -2.56879e-05
0.00156867 3.47237e-05 -1.03605e-06
3.47237e-05 0.000134092 7.28857e-07
-1.03605e-06 7.28857e-07 4.29243e-05
0.00141904 -5.84699e-07 3.62893e-06
-5.84699e-07 1.91354e-05 -1.75101e-06
3.62893e-06 -1.75101e-06 -4.25587e-05
0.000722571 -2.01832e-06 2.82586e-07
-2.01832e-06 -0.000118574 -5.28037e-07
2.82586e-07 -5.28037e-07 -0.000164754
0.00118931 -6.31502e-06 -7.918e-07
-6.31502e-06 9.15448e-05 -4.79657e-07
-7.918e-07 -4.79657e-07 4.93153e-05
0.000451961 -4.86024e-07 2.16767e-06
-4.86024e-07 -0.000249412 4.57619e-06
2.16767e-06 4.57619e-06 -0.000291805
0.001424 3.09902e-05 2.02732e-06
3.09902e-05 0.000116498 -1.29145e-06
2.02732e-06 -1.29145e-06 4.46572e-05
0.00132387 2.48124e-05 2.59939e-06
2.48124e-05 0.000139635 5.71605e-06
2.59939e-06 5.71605e-06 8.41443e-05
0.00126496 2.51492e-05 -7.81245e-07
2.51492e-05 9.35178e-05 -3.24434e-07
-7.81245e-07 -3.24434e-07 3.51253e-05
0.00117176 2.10623e-05 3.86074e-08
2.10623e-05 5.22546e-05 -1.46642e-06
3.86074e-08 -1.46642e-06 -6.01859e-06
0.00128563 1.95398e-05 -3.30732e-07
1.95398e-05 3.96801e-05 -5.29233e-07
-3.30732e-07 -5.29233e-07 -2.14151e-05
0.00138162 2.03082e-05 -2.82852e-07
2.03082e-05 9.28773e-05 -1.41899e-07
-2.82852e-07 -1.41899e-07 2.85301e-05
0.00129218 1.76009e-05 -8.4607e-07
1.76009e-05 6.03465e-05 -1.76274e-06
-8.4607e-07 -1.76274e-06 -1.3328e-06
0.00134974 5.11348e-06 -6.48139e-07
5.11348e-06 7.62591e-05 -3.91651e-07
-6.48139e-07 -3.91651e-07 1.33464e-05
0.00129552 2.97914e-06 2.16914e-08
2.97914e-06 6.03302e-05 3.99493e-07
2.16914e-08 3.99493e-07 -4.23157e-06
0.00126275 -2.00234e-06 -3.361e-07
-2.00234e-06 5.72251e-05 3.57407e-07
-3.361e-07 3.57407e-07 -7.06913e-06
0.0012716 -1.1097e-05 -2.36689e-07
-1.1097e-05 5.9254e-05 -6.84482e-07
-2.36689e-07 -6.84482e-07 -2.53165e-06
0.00123687 -1.33867e-05 3.38314e-08
-1.33867e-05 5.40103e-05 -8.20401e-09
3.38314e-08 -8.20401e-09 -7.71817e-06
0.00117662 -1.14301e-05 -7.25214e-07
-1.14301e-05 4.34812e-05 3.47034e-07
-7.25214e-07 3.47034e-07 -1.53064e-05
0.00121387 -1.57403e-05 5.53343e-08
-1.57403e-05 5.14022e-05 -2.57375e-07
5.53343e-08 -2.57375e-07 -7.4234e-06
0.00115517 -1.18413e-05 -1.21099e-09
-1.18413e-05 3.97991e-05 -4.77289e-08
-1.21099e-09 -4.77289e-08 -1.65265e-05
0.00101436 -7.94899e-08 -2.07204e-06
-7.94899e-08 1.05082e-05 5.79674e-07
-2.07204e-06 5.79674e-07 -3.84031e-05
0.00112509 -1.11671e-05 7.39078e-07
-1.11671e-05 3.11264e-05 -1.44959e-07
7.39078e-07 -1.44959e-07 -2.33786e-05
0.00100325 -1.20632e-08 -4.7061e-08
-1.20632e-08 7.32685e-06 5.64909e-08
-4.7061e-08 5.64909e-08 -3.92562e-05
0.00160499 2.16303e-05 -3.75726e-06
2.16303e-05 0.000339762 8.88828e-07
-3.75726e-06 8.88828e-07 0.000323726
0.000991593 -2.51854e-07 2.30134e-06
-2.51854e-07 4.14407e-06 -7.77378e-07
2.30134e-06 -7.77378e-07 -4.0122e-05
0.00159178 2.04048e-05 2.11781e-06
2.04048e-05 0.000328157 -7.56508e-07
2.11781e-06 -7.56508e-07 0.000314744
0.00119434 2.29005e-05 -1.16027e-05
2.29005e-05 0.000146741 3.9333e-06
-1.16027e-05 3.9333e-06 0.000148055
0.00188742 2.51366e-05 -5.74773e-06
2.51366e-05 0.000476528 1.62488e-06
-5.74773e-06 1.62488e-06 0.000484303
0.00162396 1.96752e-05 6.22921e-06
1.96752e-05 0.000338873 -1.86478e-06
6.22921e-06 -1.86478e-06 0.000328217
0.00244662 2.62682e-05 8.94311e-06
2.62682e-05 0.000743556 -2.67159e-06
8.94311e-06 -2.67159e-06 0.000756776
0.00129243 2.31903e-05 -3.08358e-07
2.31903e-05 4.93862e-05 -1.27723e-06
-3.08358e-07 -1.27723e-06 -2.18198e-05
0.00130694 2.3113e-05 9.12178e-07
2.3113e-05 0.00011489 -8.02007e-08
9.12178e-07 -8.02007e-08 5.00167e-05
0.00115501 2.37249e-05 5.35436e-07
2.37249e-05 2.40707e-05 4.91323e-07
5.35436e-07 4.91323e-07 -4.1512e-05
0.00110198 1.32567e-05 -6.04814e-07
1.32567e-05 4.87465e-05 -6.24389e-07
-6.04814e-07 -6.24389e-07 -9.17266e-06
0.00109735 2.18746e-05 -1.35766e-07
2.18746e-05 3.19515e-05 4.55995e-08
-1.35766e-07 4.55995e-08 -3.35648e-05
0.0010056 1.9836e-05 1.11527e-07
1.9836e-05 -4.30825e-06 3.77614e-07
1.11527e-07 3.77614e-07 -6.73084e-05
0.00108294 8.63957e-06 2.38696e-08
8.63957e-06 4.57684e-05 -1.82193e-08
2.38696e-08 -1.82193e-08 -9.25163e-06
0.00100298 -6.66119e-06 -2.02722e-06
-6.66119e-06 2.43528e-05 -7.95531e-07
-2.02722e-06 -7.95531e-07 -1.79856e-05
0.00103198 2.03752e-06 6.74541e-07
2.03752e-06 2.62665e-05 1.75289e-07
6.74541e-07 1.75289e-07 -2.72542e-05
0.000975616 -1.15487e-05 -6.52939e-08
-1.15487e-05 1.07008e-05 9.58603e-09
-6.52939e-08 9.58603e-09 -2.89199e-05
0.00089463 -1.72703e-05 -4.08784e-06
-1.72703e-05 -1.79301e-05 -1.77056e-06
-4.08784e-06 -1.77056e-06 -2.9952e-05
0.000950668 -1.33239e-05 2.06355e-06
-1.33239e-05 -3.87547e-06 1.04167e-06
2.06355e-06 1.04167e-06 -4.09518e-05
0.000876277 -1.64662e-05 -4.87437e-08
-1.64662e-05 -3.49542e-05 2.49026e-08
-4.87437e-08 2.49026e-08 -4.43326e-05
0.00237748 -2.46349e-05 -8.4642e-06
-2.46349e-05 0.000705396 -2.74066e-06
-8.4642e-06 -2.74066e-06 0.000719824
0.000863818 -1.54437e-05 3.51052e-06
-1.54437e-05 -4.86168e-05 2.17345e-06
3.51052e-06 2.17345e-06 -5.55656e-05
0.0024143 -2.3146e-05 -1.2359e-07
-2.3146e-05 0.000711959 6.21464e-08
-1.2359e-07 6.21464e-08 0.000728244
0.00246045 -2.14146e-05 7.91198e-06
-2.14146e-05 0.000725009 3.09047e-06
7.91198e-06 3.09047e-06 0.000742768
0.0013289 -2.20602e-05 -3.62092e-07
-2.20602e-05 7.45448e-05 2.97382e-06
-3.62092e-07 2.97382e-06 1.78071e-05
0.00135366 -2.81173e-05 2.60417e-07
-2.81173e-05 6.01544e-05 -9.7491e-07
2.60417e-07 -9.7491e-07 1.5114e-05
0.00154292 -2.65586e-05 1.76011e-06
-2.65586e-05 0.000137341 -2.29159e-06
1.76011e-06 -2.29159e-06 0.000104386
0.00112839 7.10945e-06 -5.26695e-07
7.10945e-06 -6.45987e-05 5.1645e-07
-5.26695e-07 5.1645e-07 -0.000136239
0.00136797 2.58534e-05 7.96539e-08
2.58534e-05 8.60572e-05 -4.05709e-07
7.96539e-08 -4.05709e-07 1.2819e-05
0.00125224 2.46299e-05 -1.12661e-06
2.46299e-05 0.000100274 7.92035e-07
-1.12661e-06 7.92035e-07 3.64897e-05
0.00151174 2.67341e-05 -1.50093e-07
2.67341e-05 0.000193902 3.58424e-07
-1.50093e-07 3.58424e-07 0.000125684
0.00147713 4.33232e-06 3.90224e-08
4.33232e-06 8.28095e-05 6.93242e-08
3.90224e-08 6.93242e-08 8.58218e-06
0.00139428 3.02831e-05 -5.94883e-07
3.02831e-05 8.84497e-05 6.22438e-07
-5.94883e-07 6.22438e-07 8.08896e-06
0.00163741 6.42674e-07 -7.24232e-07
6.42674e-07 0.000122841 -1.33492e-06
-7.24232e-07 -1.33492e-06 5.33213e-05
0.000993271 -4.90398e-07 1.69312e-06
-4.90398e-07 3.7246e-06 1.50055e-08
1.69312e-06 1.50055e-08 -4.83387e-05
0.00096682 -9.07432e-07 -7.61724e-08
-9.07432e-07 -1.20547e-05 -9.38043e-08
-7.61724e-08 -9.38043e-08 -6.01314e-05
0.0010574 -3.95603e-06 -1.74217e-06
-3.95603e-06 3.72428e-05 1.45381e-06
-1.74217e-06 1.45381e-06 -6.02079e-06
0.001145 1.9152e-05 5.21324e-07
1.9152e-05 5.76888e-05 -6.14884e-07
5.21324e-07 -6.14884e-07 -1.49091e-06
0.00132175 2.55213e-05 1.0077e-06
2.55213e-05 0.000117217 1.64046e-06
1.0077e-06 1.64046e-06 5.86693e-05
0.00117852 2.11909e-05 4.65349e-07
2.11909e-05 5.58408e-05 -4.61375e-08
4.65349e-07 -4.61375e-08 -2.67745e-06
0.0012327 2.02935e-05 -9.01373e-09
2.02935e-05 6.17655e-05 -2.28e-07
-9.01373e-09 -2.28e-07 3.39903e-06
0.00137993 1.96765e-05 8.3266e-08
1.96765e-05 8.60736e-05 5.09535e-07
8.3266e-08 5.09535e-07 2.1573e-05
0.00127813 1.7243e-05 -5.25253e-07
1.7243e-05 5.49025e-05 -5.5975e-07
-5.25253e-07 -5.5975e-07 -6.81208e-06
0.00128175 1.55209e-05 -7.37434e-07
1.55209e-05 6.72844e-05 -1.16121e-06
-7.37434e-07 -1.16121e-06 3.67258e-06
0.00128842 3.23925e-06 4.93376e-07
3.23925e-06 5.69737e-05 2.20602e-07
4.93376e-07 2.20602e-07 -7.68076e-06
0.00125425 -8.43031e-07 2.02617e-08
-8.43031e-07 5.35353e-05 1.61842e-07
2.02617e-08 1.61842e-07 -1.07793e-05
0.00119854 -6.67654e-06 -9.03916e-07
-6.67654e-06 4.71927e-05 2.99394e-07
-9.03916e-07 2.99394e-07 -1.38929e-05
0.00124366 -1.31561e-05 2.37146e-07
-1.31561e-05 5.67092e-05 -3.97789e-07
2.37146e-07 -3.97789e-07 -5.03771e-06
0.00117461 -1.11583e-05 3.73137e-08
-1.11583e-05 4.21307e-05 3.10031e-08
3.73137e-08 3.10031e-08 -1.66668e-05
0.00102044 -1.17849e-06 -1.9708e-06
-1.17849e-06 8.63377e-06 5.45053e-07
-1.9708e-06 5.45053e-07 -4.23906e-05
0.00114883 -1.14072e-05 6.66427e-07
-1.14072e-05 3.66276e-05 -2.75081e-07
6.66427e-07 -2.75081e-07 -1.9686e-05
0.00100793 -2.40702e-07 -7.25797e-08
-2.40702e-07 6.75052e-06 3.53229e-08
-7.25797e-08 3.53229e-08 -4.20469e-05
0.00162399 2.27809e-05 -3.66508e-06
2.27809e-05 0.000355675 7.64932e-07
-3.66508e-06 7.64932e-07 0.000336251
0.000993669 -3.04032e-07 2.22105e-06
-3.04032e-07 1.72488e-06 -6.03739e-07
2.22105e-06 -6.03739e-07 -4.46756e-05
0.00160485 2.1417e-05 2.2257e-06
2.1417e-05 0.000339859 -7.11217e-07
2.2257e-06 -7.11217e-07 0.000323472
0.00121878 2.37222e-05 -1.22702e-05
2.37222e-05 0.000168118 3.64053e-06
-1.22702e-05 3.64053e-06 0.000166492
0.00160471 2.0183e-05 7.85052e-06
2.0183e-05 0.000334781 -2.55712e-06
7.85052e-06 -2.55712e-06 0.000320949
0.00117466 2.35962e-05 -4.22277e-06
2.35962e-05 0.000137012 1.58594e-06
-4.22277e-06 1.58594e-06 0.000138621
0.00256441 2.89484e-05 4.07511e-06
2.89484e-05 0.000807036 -9.8812e-07
4.07511e-06 -9.8812e-07 0.000818436
0.00147623 9.39815e-06 -6.34857e-07
9.39815e-06 0.000107598 -2.27904e-07
-6.34857e-07 -2.27904e-07 3.62817e-05
0.00130561 2.22799e-05 1.7967e-07
2.22799e-05 7.45991e-05 -1.14034e-06
1.7967e-07 -1.14034e-06 6.21582e-06
0.00133706 2.36361e-05 -5.01624e-07
2.36361e-05 7.48806e-05 6.15644e-07
-5.01624e-07 6.15644e-07 4.32081e-06
0.00133698 1.74341e-05 -2.85836e-07
1.74341e-05 0.000145785 -1.78089e-07
-2.85836e-07 -1.78089e-07 8.65728e-05
0.00121613 2.2796e-05 3.50027e-07
2.2796e-05 7.10971e-05 -2.20028e-07
3.50027e-07 -2.20028e-07 5.97247e-06
0.00118019 2.39434e-05 5.486e-07
2.39434e-05 3.98799e-05 8.33359e-07
5.486e-07 8.33359e-07 -2.34618e-05
0.00100836 -1.04629e-06 -1.96943e-06
-1.04629e-06 2.56038e-05 -1.00295e-06
-1.96943e-06 -1.00295e-06 -2.06119e-05
0.00110252 1.36291e-05 9.96725e-09
1.36291e-05 4.91594e-05 -8.97361e-08
9.96725e-09 -8.97361e-08 -8.79767e-06
0.00124454 2.32479e-05 3.55424e-07
2.32479e-05 0.000100344 5.73656e-07
3.55424e-07 5.73656e-07 3.49245e-05
0.00106131 8.57571e-06 6.61254e-07
8.57571e-06 3.62451e-05 1.55164e-07
6.61254e-07 1.55164e-07 -1.8817e-05
0.000984222 -7.74216e-06 -3.74895e-08
-7.74216e-06 1.71559e-05 -2.67276e-08
-3.74895e-08 -2.67276e-08 -2.53799e-05
0.000886501 -1.77871e-05 -4.20374e-06
-1.77871e-05 -1.33385e-05 -1.69783e-06
-4.20374e-06 -1.69783e-06 -2.82409e-05
0.000953982 -1.24815e-05 2.04601e-06
-1.24815e-05 1.43565e-06 9.15444e-07
2.04601e-06 9.15444e-07 -3.83004e-05
0.00085992 -1.71726e-05 -5.05264e-08
-1.71726e-05 -3.43277e-05 2.53484e-08
-5.05264e-08 2.53484e-08 -4.62102e-05
0.00241544 -2.60922e-05 -8.82554e-06
-2.60922e-05 0.000734466 -2.56992e-06
-8.82554e-06 -2.56992e-06 0.000746895
0.000845946 -1.63886e-05 3.707e-06
-1.63886e-05 -4.93201e-05 2.01447e-06
3.707e-06 2.01447e-06 -5.85639e-05
0.00243761 -2.4804e-05 -1.25124e-07
-2.4804e-05 0.00073288 6.73025e-08
-1.25124e-07 6.73025e-08 0.000747384
0.00247586 -2.32562e-05 8.13374e-06
-2.32562e-05 0.000740384 2.93794e-06
8.13374e-06 2.93794e-06 0.000756695
0.0013517 -1.72887e-05 3.7527e-07
-1.72887e-05 8.55317e-05 1.62072e-06
3.7527e-07 1.62072e-06 2.50091e-05
0.00140187 -2.22109e-05 -4.99345e-08
-2.22109e-05 0.00010014 7.01241e-07
-4.99345e-08 7.01241e-07 4.24882e-05
0.001256 -2.71482e-05 -1.15e-06
-2.71482e-05 1.65529e-05 -3.37599e-06
-1.15e-06 -3.37599e-06 -2.85362e-05
0.00130343 6.59936e-06 -1.18995e-07
6.59936e-06 7.19232e-06 -1.6691e-07
-1.18995e-07 -1.6691e-07 -6.51891e-05
0.00136237 2.54546e-05 -1.55312e-07
2.54546e-05 8.35922e-05 5.83177e-07
-1.55312e-07 5.83177e-07 1.03287e-05
0.00163731 5.28166e-06 3.11554e-07
5.28166e-06 0.000156616 -1.06864e-06
3.11554e-07 -1.06864e-06 8.26989e-05
0.0010397 -1.02621e-06 9.12477e-07
-1.02621e-06 2.38202e-05 1.85507e-07
9.12477e-07 1.85507e-07 -3.59806e-05
0.00102427 -1.91397e-07 5.73439e-07
-1.91397e-07 2.46363e-05 -3.43273e-08
5.73439e-07 -3.43273e-08 -2.73484e-05
0.00118577 -5.91794e-08 -1.22359e-07
-5.91794e-08 8.30043e-05 4.9484e-07
-1.22359e-07 4.9484e-07 3.30052e-05
0.00117594 1.8869e-05 -3.6426e-07
1.8869e-05 7.0946e-05 3.23493e-07
-3.6426e-07 3.23493e-07 1.05672e-05
0.00118506 1.89153e-05 2.76232e-07
1.89153e-05 6.86882e-05 -2.04961e-07
2.76232e-07 -2.04961e-07 6.9939e-06
0.00117916 2.13069e-05 3.4099e-07
2.13069e-05 5.66388e-05 1.07852e-06
3.4099e-07 1.07852e-06 -2.12951e-06
0.0012079 2.0049e-05 1.69997e-07
2.0049e-05 5.06068e-05 5.04453e-07
1.69997e-07 5.04453e-07 -7.79272e-06
0.00134124 2.09495e-05 2.05343e-07
2.09495e-05 0.00011177 -3.41998e-07
2.05343e-07 -3.41998e-07 5.18603e-05
0.00126208 1.63163e-05 3.32781e-07
1.63163e-05 4.85441e-05 5.75482e-07
3.32781e-07 5.75482e-07 -1.31974e-05
0.00125272 1.3744e-05 -2.69858e-07
1.3744e-05 5.43297e-05 -3.56574e-07
-2.69858e-07 -3.56574e-07 -9.09207e-06
0.00120491 8.54029e-06 -1.2681e-06
8.54029e-06 5.11636e-05 -2.32037e-07
-1.2681e-06 -2.32037e-07 -1.07358e-05
0.0012444 -1.18273e-06 2.90806e-07
-1.18273e-06 4.9162e-05 -1.15109e-08
2.90806e-07 -1.15109e-08 -1.51362e-05
0.00119092 -6.08616e-06 1.94569e-08
-6.08616e-06 4.35058e-05 4.90647e-08
1.94569e-08 4.90647e-08 -1.75853e-05
0.00102515 -5.83206e-07 -1.99669e-06
-5.83206e-07 6.20518e-06 4.19722e-07
-1.99669e-06 4.19722e-07 -4.66998e-05
0.00117355 -1.08519e-05 8.1161e-07
-1.08519e-05 4.12232e-05 -2.79826e-07
8.1161e-07 -2.79826e-07 -1.75841e-05
0.00101535 -8.36117e-07 -5.297e-08
-8.36117e-07 6.06099e-06 7.85765e-08
-5.297e-08 7.85765e-08 -4.49341e-05
0.00156976 2.17142e-05 -3.50237e-06
2.17142e-05 0.000337159 6.71302e-07
-3.50237e-06 6.71302e-07 0.000313685
0.00100141 -2.77221e-07 2.11055e-06
-2.77221e-07 2.94668e-06 -5.53839e-07
2.11055e-06 -5.53839e-07 -4.57401e-05
0.00161535 2.21444e-05 2.34659e-06
2.21444e-05 0.000351005 -6.63937e-07
2.34659e-06 -6.63937e-07 0.00033129
0.00123406 2.42065e-05 -1.29528e-05
2.42065e-05 0.000187463 3.36071e-06
-1.29528e-05 3.36071e-06 0.000182363
0.00160631 2.12204e-05 8.01425e-06
2.12204e-05 0.000340709 -2.28825e-06
8.01425e-06 -2.28825e-06 0.000323967
0.00119206 2.4425e-05 -4.47162e-06
2.4425e-05 0.000155006 1.46878e-06
-4.47162e-06 1.46878e-06 0.000153712
0.00115369 2.43149e-05 3.25508e-06
2.43149e-05 0.000126698 -7.84543e-07
3.25508e-06 -7.84543e-07 0.000128603
0.00147747 -1.17733e-05 1.48089e-07
-1.17733e-05 0.000119368 1.06157e-06
1.48089e-07 1.06157e-06 6.06726e-05
0.00135299 1.15755e-05 -7.41097e-07
1.15755e-05 6.7928e-05 -1.95959e-07
-7.41097e-07 -1.95959e-07 -2.47084e-06
0.00147692 9.0092e-06 -2.61922e-07
9.0092e-06 0.000105024 -3.95286e-07
-2.61922e-07 -3.95286e-07 3.3589e-05
0.00129045 1.86829e-05 -5.93949e-07
1.86829e-05 9.41888e-05 -6.82451e-07
-5.93949e-07 -6.82451e-07 3.16218e-05
0.00135933 2.24766e-05 3.22565e-07
2.24766e-05 0.000102187 4.14053e-07
3.22565e-07 4.14053e-07 3.42692e-05
0.00138601 2.41265e-05 5.5449e-07
2.41265e-05 0.000102469 1.47076e-06
5.5449e-07 1.47076e-06 3.25458e-05
0.00098573 2.76244e-06 -2.08304e-06
2.76244e-06 6.01791e-06 -8.75224e-07
-2.08304e-06 -8.75224e-07 -4.36046e-05
0.0011548 1.67274e-05 4.15534e-07
1.67274e-05 5.76001e-05 3.99581e-07
4.15534e-07 3.99581e-07 -2.59912e-06
0.00112694 2.25215e-05 2.8684e-07
2.25215e-05 2.81254e-05 9.66652e-07
2.8684e-07 9.66652e-07 -3.72588e-05
0.000885768 -1.82263e-05 -4.19861e-06
-1.82263e-05 -7.8405e-06 -1.78501e-06
-4.19861e-06 -1.78501e-06 -2.64523e-05
0.000990238 -2.35892e-06 -1.29512e-08
-2.35892e-06 1.89314e-05 -5.90534e-08
-1.29512e-08 -5.90534e-08 -2.74706e-05
0.00110274 1.392e-05 6.02091e-07
1.392e-05 4.94181e-05 4.23166e-07
6.02091e-07 4.23166e-07 -8.57454e-06
0.000964205 -8.85383e-06 2.03558e-06
-8.85383e-06 9.39321e-06 8.18236e-07
2.03558e-06 8.18236e-07 -3.33426e-05
0.000840061 -1.76179e-05 -3.68436e-08
-1.76179e-05 -3.51307e-05 -7.83553e-09
-3.68436e-08 -7.83553e-09 -4.98746e-05
0.00248247 -2.74197e-05 -9.33032e-06
-2.74197e-05 0.000777389 -2.44325e-06
-9.33032e-06 -2.44325e-06 0.000787645
0.000825735 -1.70746e-05 3.92548e-06
-1.70746e-05 -5.04674e-05 1.84684e-06
3.92548e-06 1.84684e-06 -6.22124e-05
0.00247125 -2.63023e-05 -1.23885e-07
-2.63023e-05 0.00075979 7.14897e-08
-1.23885e-07 7.14897e-08 0.000772324
0.00249884 -2.49688e-05 8.37947e-06
-2.49688e-05 0.000760867 2.78085e-06
8.37947e-06 2.78085e-06 0.000775446
0.00125788 -2.00401e-05 1.04143e-06
-2.00401e-05 7.70663e-05 -7.00172e-07
1.04143e-06 -7.00172e-07 1.02331e-05
0.0013475 -1.70005e-05 -1.49164e-07
-1.70005e-05 7.97173e-05 3.33095e-07
-1.49164e-07 3.33095e-07 1.89135e-05
0.00146408 -2.23273e-05 -3.30456e-07
-2.23273e-05 0.000120656 -1.73564e-06
-3.30456e-07 -1.73564e-06 6.2099e-05
0.00148429 6.1115e-06 7.76301e-07
6.1115e-06 8.18704e-05 -3.5233e-07
7.76301e-07 -3.5233e-07 8.72294e-06
0.00108913 -1.50006e-06 3.62882e-09
-1.50006e-06 3.81095e-05 8.15757e-07
3.62882e-09 8.15757e-07 -2.59964e-05
0.00108388 -1.10984e-06 -4.80987e-07
-1.10984e-06 4.68125e-05 6.57759e-09
-4.80987e-07 6.57759e-09 -1.25419e-05
0.00105955 9.3392e-08 -1.06719e-06
9.3392e-08 4.73985e-05 1.00981e-07
-1.06719e-06 1.00981e-07 -4.48971e-06
0.00118762 1.79766e-05 -9.09825e-07
1.79766e-05 7.51954e-05 1.45421e-06
-9.09825e-07 1.45421e-06 1.36418e-05
0.00117219 1.89676e-05 2.83825e-07
1.89676e-05 6.4852e-05 3.28169e-07
2.83825e-07 3.28169e-07 3.39295e-06
0.00117989 2.01763e-05 -2.99605e-07
2.01763e-05 6.58397e-05 -5.5855e-07
-2.99605e-07 -5.5855e-07 5.68796e-06
0.00118093 1.97735e-05 5.21709e-07
1.97735e-05 3.83181e-05 1.46449e-06
5.21709e-07 1.46449e-06 -2.00982e-05
0.00128521 2.07104e-05 2.04475e-07
2.07104e-05 8.59241e-05 3.84393e-07
2.04475e-07 3.84393e-07 2.59042e-05
0.00120929 1.95931e-05 -7.58892e-07
1.95931e-05 6.31684e-05 -6.79041e-07
-7.58892e-07 -6.79041e-07 2.72714e-06
0.00122273 1.34272e-05 1.47197e-07
1.34272e-05 4.09933e-05 4.68948e-07
1.47197e-07 4.68948e-07 -2.22763e-05
0.00118038 9.77975e-06 -1.61061e-07
9.77975e-06 4.039e-05 7.17598e-08
-1.61061e-07 7.17598e-08 -2.1425e-05
0.00104073 8.96772e-06 -2.0335e-06
8.96772e-06 1.43068e-05 2.43391e-07
-2.0335e-06 2.43391e-07 -4.02852e-05
0.0011801 -2.85749e-06 8.84491e-07
-2.85749e-06 3.84019e-05 -1.96092e-07
8.84491e-07 -1.96092e-07 -2.27202e-05
0.0010244 -1.53912e-07 -4.12736e-08
-1.53912e-07 6.12986e-06 5.11691e-08
-4.12736e-08 5.11691e-08 -4.67997e-05
0.000715437 1.47972e-05 -4.69925e-06
1.47972e-05 -7.26662e-05 1.10468e-06
-4.69925e-06 1.10468e-06 -0.000104929
0.00101116 -6.85045e-07 2.09315e-06
-6.85045e-07 3.86907e-06 -4.43204e-07
2.09315e-06 -4.43204e-07 -4.70889e-05
0.00116379 1.8277e-05 2.84199e-06
1.8277e-05 0.00013758 -6.1011e-07
2.84199e-06 -6.1011e-07 0.000111517
0.00293435 3.32298e-05 -1.14138e-05
3.32298e-05 0.00102949 1.84615e-06
-1.14138e-05 1.84615e-06 0.00103078
0.0016066 2.09043e-05 8.18502e-06
2.09043e-05 0.000346283 -2.06531e-06
8.18502e-06 -2.06531e-06 0.000326284
0.00120191 2.49212e-05 -4.74814e-06
2.49212e-05 0.000171786 1.34999e-06
-4.74814e-06 1.34999e-06 0.000167071
0.00116263 2.51424e-05 3.41773e-06
2.51424e-05 0.000140617 -6.9315e-07
3.41773e-06 -6.9315e-07 0.000139663
0.00144067 -1.78767e-05 8.45125e-07
-1.78767e-05 0.000135567 -8.71296e-07
8.45125e-07 -8.71296e-07 7.29471e-05
0.00134311 -6.57443e-06 -3.70219e-07
-6.57443e-06 6.39548e-05 9.42341e-07
-3.70219e-07 9.42341e-07 1.90628e-06
0.00133558 -1.14284e-05 2.14787e-07
-1.14284e-05 5.62067e-05 3.5377e-08
2.14787e-07 3.5377e-08 -3.11668e-06
0.00102308 1.26729e-05 -1.26346e-06
1.26729e-05 -5.6874e-05 -4.91406e-07
-1.26346e-06 -4.91406e-07 -0.000123071
0.00139453 1.1451e-05 1.15599e-07
1.1451e-05 8.99266e-05 1.00315e-08
1.15599e-07 1.00315e-08 2.0792e-05
0.0014765 8.65722e-06 4.2277e-07
8.65722e-06 0.00010184 -5.86306e-07
4.2277e-07 -5.86306e-07 3.03017e-05
0.000789346 4.74931e-06 -2.66794e-06
4.74931e-06 -0.00010673 -1.30191e-06
-2.66794e-06 -1.30191e-06 -0.000160492
0.00129807 1.87653e-05 2.38367e-07
1.87653e-05 9.77746e-05 1.083e-08
2.38367e-07 1.083e-08 3.5131e-05
0.00141884 2.27329e-05 4.65801e-07
2.27329e-05 0.000132328 1.26007e-06
4.65801e-07 1.26007e-06 6.48926e-05
0.000875999 -1.61242e-05 -4.49472e-06
-1.61242e-05 -1.22103e-05 -1.72941e-06
-4.49472e-06 -1.72941e-06 -3.50291e-05
0.00087281 1.87585e-06 -2.73963e-08
1.87585e-06 -4.81137e-05 6.29391e-08
-2.73963e-08 6.29391e-08 -9.87319e-05
0.000974794 1.59826e-05 1.03992e-06
1.59826e-05 -2.95417e-05 1.11925e-06
1.03992e-06 1.11925e-06 -9.07322e-05
0.00261097 -2.86827e-05 -1.01836e-05
-2.86827e-05 0.000848352 -2.40434e-06
-1.01836e-05 -2.40434e-06 0.000856143
0.000818505 -1.78652e-05 -5.32795e-08
-1.78652e-05 -3.90659e-05 -5.74396e-08
-5.32795e-08 -5.74396e-08 -5.74812e-05
0.000971907 -3.69135e-06 1.91375e-06
-3.69135e-06 1.21886e-05 9.19023e-07
1.91375e-06 9.19023e-07 -3.44015e-05
0.000793054 -1.74427e-05 4.11482e-06
-1.74427e-05 -5.71717e-05 1.72467e-06
4.11482e-06 1.72467e-06 -7.17588e-05
0.00252949 -2.76768e-05 -1.12596e-07
-2.76768e-05 0.000798726 7.25827e-08
-1.12596e-07 7.25827e-08 0.000809123
0.00252919 -2.6511e-05 8.67509e-06
-2.6511e-05 0.000786074 2.6143e-06
8.67509e-06 2.6143e-06 0.000798716
0.00111434 -1.92696e-05 2.36557e-07
-1.92696e-05 3.6007e-05 3.14786e-07
2.36557e-07 3.14786e-07 -3.16361e-05
0.00116986 -1.91544e-05 -4.46501e-07
-1.91544e-05 4.08302e-05 -8.5905e-07
-4.46501e-07 -8.5905e-07 -2.44849e-05
0.00134381 -1.66941e-05 -3.4246e-07
-1.66941e-05 7.41533e-05 -9.65184e-07
-3.4246e-07 -9.65184e-07 1.30676e-05
0.00111986 6.31592e-06 1.7507e-07
6.31592e-06 5.29446e-05 1.05812e-07
1.7507e-07 1.05812e-07 -8.4111e-06
0.0011512 -6.33111e-07 1.15883e-08
-6.33111e-07 6.76206e-05 4.06685e-07
1.15883e-08 4.06685e-07 3.58509e-06
0.0011292 -7.41762e-07 -1.67622e-06
-7.41762e-07 7.03227e-05 -3.54855e-08
-1.67622e-06 -3.54855e-08 1.14081e-05
0.00117053 1.95739e-05 -1.1277e-07
1.95739e-05 6.62742e-05 4.4931e-07
-1.1277e-07 4.4931e-07 5.03176e-06
0.00116754 2.00763e-05 8.44937e-08
2.00763e-05 5.94781e-05 2.34601e-07
8.44937e-08 2.34601e-07 -5.0073e-07
0.00119063 1.9276e-05 -4.07171e-07
1.9276e-05 8.52242e-05 -5.11996e-07
-4.07171e-07 -5.11996e-07 2.68838e-05
0.00123298 2.0485e-05 4.87404e-07
2.0485e-05 6.18658e-05 1.52141e-06
4.87404e-07 1.52141e-06 1.73208e-06
0.00124792 1.99876e-05 1.12909e-08
1.99876e-05 8.37848e-05 3.59549e-08
1.12909e-08 3.59549e-08 2.37274e-05
0.000914094 1.64378e-05 -2.30493e-06
1.64378e-05 -3.82104e-05 -3.78432e-07
-2.30493e-06 -3.78432e-07 -9.36748e-05
0.00115787 8.30167e-06 8.47592e-07
8.30167e-06 3.04748e-05 3.89559e-07
8.47592e-07 3.89559e-07 -3.12316e-05
0.0010209 8.86857e-06 -1.84261e-08
8.86857e-06 5.71749e-06 1.46841e-07
-1.84261e-08 1.46841e-07 -4.88241e-05
0.000716724 1.4094e-05 -4.77131e-06
1.4094e-05 -6.34054e-05 8.09948e-07
-4.77131e-06 8.09948e-07 -9.91496e-05
0.00102116 3.43928e-07 2.06951e-06
3.43928e-07 4.87865e-06 -3.47998e-07
2.06951e-06 -3.47998e-07 -4.80733e-05
0.000754656 1.50324e-05 7.24564e-08
1.50324e-05 -5.58964e-05 8.59664e-08
7.24564e-08 8.59664e-08 -8.80748e-05
0.00306492 3.41863e-05 -1.20116e-05
3.41863e-05 0.00110476 1.51458e-06
-1.20116e-05 1.51458e-06 0.00110347
0.000752197 1.60425e-05 6.3184e-06
1.60425e-05 -6.45175e-05 -1.88935e-06
6.3184e-06 -1.88935e-06 -9.32029e-05
0.00202574 2.9063e-05 2.25215e-06
2.9063e-05 0.000588524 1.98275e-07
2.25215e-06 1.98275e-07 0.000584822
0.00116745 2.56713e-05 3.58274e-06
2.56713e-05 0.000155008 -6.15439e-07
3.58274e-06 -6.15439e-07 0.000150685
0.00146106 -2.20808e-05 2.5389e-07
-2.20808e-05 0.000174279 -2.15671e-07
2.5389e-07 -2.15671e-07 0.000107839
0.00127096 -1.51529e-05 -2.40728e-07
-1.51529e-05 5.50437e-05 -2.68429e-07
-2.40728e-07 -2.68429e-07 -5.7216e-06
0.00128654 -1.70111e-05 -4.28472e-07
-1.70111e-05 6.35154e-05 -1.00752e-08
-4.28472e-07 -1.00752e-08 6.88137e-07
0.00117844 -1.42707e-06 -1.06867e-06
-1.42707e-06 1.54146e-05 6.72508e-07
-1.06867e-06 6.72508e-07 -4.69419e-05
0.0012779 -6.93269e-06 3.40851e-07
-6.93269e-06 3.67479e-05 -1.89322e-07
3.40851e-07 -1.89322e-07 -2.52151e-05
0.00119405 -1.11199e-05 2.54403e-07
-1.11199e-05 -6.79814e-06 -5.40501e-07
2.54403e-07 -5.40501e-07 -6.67501e-05
0.000800353 5.18893e-06 -2.88333e-06
5.18893e-06 -0.000117659 -1.02955e-06
-2.88333e-06 -1.02955e-06 -0.000174114
0.00125365 1.42053e-05 -3.42226e-07
1.42053e-05 5.32897e-05 5.20081e-08
-3.42226e-07 5.20081e-08 -1.18015e-05
0.00142726 1.12549e-05 8.23928e-07
1.12549e-05 0.00010795 -3.88657e-07
8.23928e-07 -3.88657e-07 4.0065e-05
0.000855984 -1.25818e-05 -4.8836e-06
-1.25818e-05 -2.48739e-05 -1.61921e-06
-4.8836e-06 -1.61921e-06 -5.17828e-05
0.00080695 5.3093e-06 -5.30554e-07
5.3093e-06 -9.95082e-05 -3.60114e-07
-5.30554e-07 -3.60114e-07 -0.000153861
0.00130469 1.88842e-05 1.05409e-06
1.88842e-05 0.000100857 8.17766e-07
1.05409e-06 8.17766e-07 3.81403e-05
0.00279251 -2.99424e-05 -1.13097e-05
-2.99424e-05 0.000943268 -2.31897e-06
-1.13097e-05 -2.31897e-06 0.000948389
0.000803425 -1.73898e-05 -1.6517e-07
-1.73898e-05 -4.54027e-05 1.01888e-08
-1.6517e-07 1.01888e-08 -6.81039e-05
0.000760864 7.51457e-07 1.8443e-06
7.51457e-07 -0.000101801 1.12538e-06
1.8443e-06 1.12538e-06 -0.00015342
0.00264022 -2.89983e-05 -1.03228e-07
-2.89983e-05 0.000861763 7.64181e-08
-1.03228e-07 7.64181e-08 0.000869774
0.00075062 -1.75123e-05 4.22547e-06
-1.75123e-05 -7.05583e-05 1.75866e-06
4.22547e-06 1.75866e-06 -8.87792e-05
0.00257564 -2.7907e-05 9.00296e-06
-2.7907e-05 0.000819599 2.44436e-06
9.00296e-06 2.44436e-06 0.000830146
0.00109009 -1.0382e-05 -3.06774e-07
-1.0382e-05 2.62551e-05 3.18254e-07
-3.06774e-07 3.18254e-07 -3.75594e-05
0.00116898 -1.94264e-05 5.9606e-07
-1.94264e-05 5.95315e-05 -7.69394e-07
5.9606e-07 -7.69394e-07 -7.66692e-06
0.00108718 -1.8292e-05 -1.32885e-06
-1.8292e-05 7.09251e-06 -1.3336e-06
-1.32885e-06 -1.3336e-06 -5.67081e-05
0.00115206 3.79268e-06 -1.80781e-07
3.79268e-06 7.51299e-05 8.89234e-08
-1.80781e-07 8.89234e-08 1.54776e-05
0.00117351 6.47404e-06 -1.47968e-07
6.47404e-06 7.65261e-05 -6.16792e-08
-1.47968e-07 -6.16792e-08 1.48938e-05
0.00120968 -1.20323e-07 -2.94951e-07
-1.20323e-07 9.54768e-05 2.90214e-07
-2.94951e-07 2.90214e-07 3.15234e-05
0.00115325 1.99587e-05 1.7479e-07
1.99587e-05 5.21663e-05 3.38569e-07
1.7479e-07 3.38569e-07 -7.63324e-06
0.00118127 1.92128e-05 2.01495e-07
1.92128e-05 7.98377e-05 2.631e-08
2.01495e-07 2.631e-08 2.16325e-05
0.000838935 1.52044e-05 -1.96965e-06
1.52044e-05 -5.38936e-05 -4.50529e-07
-1.96965e-06 -4.50529e-07 -0.000108889
0.00128607 2.03905e-05 8.32047e-07
2.03905e-05 0.000104193 8.77315e-07
8.32047e-07 8.77315e-07 4.4519e-05
0.000978519 1.688e-05 -3.9121e-07
1.688e-05 -7.16082e-06 1.13704e-08
-3.9121e-07 1.13704e-08 -6.24172e-05
0.000722339 1.54941e-05 -4.85371e-06
1.54941e-05 -4.85485e-05 4.35333e-07
-4.85371e-06 4.35333e-07 -8.66073e-05
0.00100216 8.7391e-06 1.96212e-06
8.7391e-06 -2.36406e-06 6.59679e-08
1.96212e-06 6.59679e-08 -5.68562e-05
0.000735573 1.54624e-05 7.37499e-08
1.54624e-05 -5.60017e-05 9.22817e-08
7.37499e-08 9.22817e-08 -9.16431e-05
0.00306884 3.37768e-05 -1.2769e-05
3.37768e-05 0.00112292 1.18669e-06
-1.2769e-05 1.18669e-06 0.00111893
0.000794772 1.51619e-05 4.7027e-06
1.51619e-05 -3.87046e-05 -8.65684e-07
4.7027e-06 -8.65684e-07 -7.07967e-05
0.00297876 3.32574e-05 1.50748e-07
3.32574e-05 0.00106653 1.25685e-07
1.50748e-07 1.25685e-07 0.00106492
0.00112478 2.36448e-05 1.07407e-05
2.36448e-05 0.000151039 -1.58857e-06
1.07407e-05 -1.58857e-06 0.000142384
0.00132885 -1.99799e-05 -5.90083e-07
-1.99799e-05 0.000112879 6.08734e-08
-5.90083e-07 6.08734e-08 4.99363e-05
0.00134905 -2.13259e-05 2.77725e-07
-2.13259e-05 0.000120576 1.05654e-07
2.77725e-07 1.05654e-07 5.30006e-05
0.0011846 -1.52008e-05 -7.07165e-07
-1.52008e-05 3.54819e-05 2.11327e-07
-7.07165e-07 2.11327e-07 -2.47859e-05
0.00125099 -1.52227e-05 1.63799e-07
-1.52227e-05 4.64808e-05 -3.21247e-07
1.63799e-07 -3.21247e-07 -1.41143e-05
0.00113455 -1.61501e-05 -8.30701e-08
-1.61501e-05 -7.44456e-06 8.62909e-07
-8.30701e-08 8.62909e-07 -7.04911e-05
0.00102492 -2.81677e-06 -2.36009e-06
-2.81677e-06 -1.18476e-05 8.29136e-08
-2.36009e-06 8.29136e-08 -6.67904e-05
0.00122038 -1.29453e-06 1.50851e-08
-1.29453e-06 3.42098e-05 1.94758e-07
1.50851e-08 1.94758e-07 -2.82776e-05
0.00121342 -7.22832e-06 1.95607e-07
-7.22832e-06 9.85388e-06 -1.1914e-06
1.95607e-07 -1.1914e-06 -5.20205e-05
0.000823751 -9.69524e-06 -5.12542e-06
-9.69524e-06 -4.13421e-05 -1.33298e-06
-5.12542e-06 -1.33298e-06 -7.17963e-05
0.000937252 6.49918e-06 -6.38714e-07
6.49918e-06 -5.27164e-05 -1.69006e-07
-6.38714e-07 -1.69006e-07 -0.0001087
0.00148592 1.56644e-05 8.87204e-07
1.56644e-05 0.000164246 4.05757e-07
8.87204e-07 4.05757e-07 0.000100262
0.00296791 -3.10627e-05 -1.24767e-05
-3.10627e-05 0.00103556 -2.14766e-06
-1.24767e-05 -2.14766e-06 0.00103801
0.000793959 -1.31283e-05 -1.74109e-07
-1.31283e-05 -5.267e-05 3.5881e-08
-1.74109e-07 3.5881e-08 -7.95327e-05
0.000827482 6.19242e-06 1.62366e-06
6.19242e-06 -9.09388e-05 7.10822e-07
1.62366e-06 7.10822e-07 -0.000145875
0.00281205 -3.03083e-05 -1.33051e-07
-3.03083e-05 0.000952351 1.0364e-07
-1.33051e-07 1.0364e-07 0.000957747
0.000729415 -1.75916e-05 4.34821e-06
-1.75916e-05 -7.9264e-05 1.88942e-06
4.34821e-06 1.88942e-06 -0.000101833
0.0026687 -2.9257e-05 9.4333e-06
-2.9257e-05 0.000874765 2.31163e-06
9.4333e-06 2.31163e-06 0.000883004
0.00121228 -8.15904e-06 -4.91712e-07
-8.15904e-06 9.11017e-05 2.0911e-07
-4.91712e-07 2.0911e-07 3.06693e-05
0.00115516 -1.35204e-05 -3.86789e-08
-1.35204e-05 5.51896e-05 -1.601e-07
-3.86789e-08 -1.601e-07 -8.41242e-06
0.00122444 -1.97363e-05 1.09069e-07
-1.97363e-05 8.35608e-05 -1.43972e-06
1.09069e-07 -1.43972e-06 1.67897e-05
0.000866544 5.53648e-07 -1.61795e-06
5.53648e-07 -3.69958e-05 1.53577e-07
-1.61795e-06 1.53577e-07 -9.32138e-05
0.00116008 7.23847e-06 1.66423e-07
7.23847e-06 7.87622e-05 -4.63557e-08
1.66423e-07 -4.63557e-08 1.91914e-05
0.00123053 7.00688e-06 1.99001e-08
7.00688e-06 0.000101693 8.74509e-08
1.99001e-08 8.74509e-08 3.97903e-05
0.00117176 1.92586e-05 7.48847e-07
1.92586e-05 7.43922e-05 3.87916e-07
7.48847e-07 3.87916e-07 1.63184e-05
0.000864789 1.54576e-05 -3.90422e-07
1.54576e-05 -4.2804e-05 -1.25548e-07
-3.90422e-07 -1.25548e-07 -9.78619e-05
0.00070463 1.45436e-05 -4.77358e-06
1.45436e-05 -4.27102e-05 -3.72043e-08
-4.77358e-06 -3.72043e-08 -8.21278e-05
0.00104148 1.73034e-05 1.57247e-06
1.73034e-05 2.32854e-05 4.49116e-07
1.57247e-06 4.49116e-07 -3.1772e-05
0.000715256 1.6394e-05 4.61145e-08
1.6394e-05 -5.25603e-05 2.23247e-07
4.61145e-08 2.23247e-07 -9.04729e-05
0.00302041 3.26082e-05 -1.34429e-05
3.26082e-05 0.00111607 8.03862e-07
-1.34429e-05 8.03862e-07 0.00110983
0.000754983 1.65789e-05 4.7436e-06
1.65789e-05 -4.83551e-05 -5.76144e-07
4.7436e-06 -5.76144e-07 -8.38874e-05
0.00299032 3.27134e-05 1.93631e-07
3.27134e-05 0.00108846 1.27146e-07
1.93631e-07 1.27146e-07 0.00108418
0.0028974 3.22764e-05 1.27279e-05
3.22764e-05 0.00103051 -1.36498e-06
1.27279e-05 -1.36498e-06 0.00102859
0.00121503 -1.89402e-05 -7.5502e-07
-1.89402e-05 7.28523e-05 2.51616e-07
-7.5502e-07 2.51616e-07 1.21454e-05
0.00129942 -1.98633e-05 5.81321e-08
-1.98633e-05 9.8194e-05 2.72725e-07
5.81321e-08 2.72725e-07 3.46674e-05
0.00123395 -2.05543e-05 1.49448e-07
-2.05543e-05 6.52464e-05 8.72422e-07
1.49448e-07 8.72422e-07 -3.44313e-06
0.00102019 -1.35379e-05 -2.01775e-06
-1.35379e-05 -9.11587e-07 1.5211e-08
-2.01775e-06 1.5211e-08 -5.53634e-05
0.00118988 -1.51244e-05 1.93751e-07
-1.51244e-05 3.80728e-05 -1.91831e-07
1.93751e-07 -1.91831e-07 -2.22159e-05
0.00123266 -1.52857e-05 -1.11445e-07
-1.52857e-05 3.86354e-05 -6.36268e-07
-1.11445e-07 -6.36268e-07 -2.17841e-05
0.0007696 -1.33304e-05 -5.19244e-06
-1.33304e-05 -6.07024e-05 -8.29003e-07
-5.19244e-06 -8.29003e-07 -9.37057e-05
0.00105436 -1.86217e-06 1.74745e-08
-1.86217e-06 1.18325e-06 2.35452e-07
1.74745e-08 2.35452e-07 -5.38507e-05
0.00126117 -1.20934e-06 1.12249e-06
-1.20934e-06 5.24755e-05 -2.53811e-07
1.12249e-06 -2.53811e-07 -1.01444e-05
0.00307926 -3.18325e-05 -1.34417e-05
-3.18325e-05 0.00109952 -1.85193e-06
-1.34417e-05 -1.85193e-06 0.00109945
0.00077955 -1.00415e-05 -1.12133e-07
-1.00415e-05 -6.07977e-05 1.13588e-07
-1.12133e-07 1.13588e-07 -9.1268e-05
0.00107171 7.87336e-06 1.83564e-06
7.87336e-06 1.10538e-05 6.57207e-07
1.83564e-06 6.57207e-07 -4.44567e-05
0.00300123 -3.15601e-05 -1.301e-07
-3.15601e-05 0.00105082 1.199e-07
-1.301e-07 1.199e-07 0.00105355
0.000731856 -1.50017e-05 4.59489e-06
-1.50017e-05 -8.04198e-05 1.81696e-06
4.59489e-06 1.81696e-06 -0.000107266
0.00283203 -3.06566e-05 1.01881e-05
-3.06566e-05 0.000961606 2.23602e-06
1.01881e-05 2.23602e-06 0.000967281
0.0010103 -1.06661e-05 -1.52844e-06
-1.06661e-05 2.63134e-05 -3.59291e-08
-1.52844e-06 -3.59291e-08 -2.92146e-05
0.00113364 -1.055e-05 8.46826e-08
-1.055e-05 5.41969e-05 1.1422e-07
8.46826e-08 1.1422e-07 -6.49524e-06
0.00121618 -1.68676e-05 8.48047e-07
-1.68676e-05 8.21727e-05 -7.21081e-07
8.48047e-07 -7.21081e-07 1.87799e-05
0.000691995 5.56059e-06 -4.63061e-06
5.56059e-06 -4.34598e-05 1.94098e-07
-4.63061e-06 1.94098e-07 -8.3842e-05
0.000864008 3.80684e-06 -2.39553e-07
3.80684e-06 -3.74904e-05 7.46683e-08
-2.39553e-07 7.46683e-08 -9.35711e-05
0.00116719 1.01793e-05 4.42279e-07
1.01793e-05 8.19301e-05 9.88444e-08
4.42279e-07 9.88444e-08 2.2446e-05
0.000890236 1.55864e-05 1.29987e-06
1.55864e-05 -3.1906e-05 1.87886e-07
1.29987e-06 1.87886e-07 -8.70235e-05
0.000697623 1.50622e-05 -3.99457e-08
1.50622e-05 -4.65768e-05 -9.96681e-08
-3.99457e-08 -9.96681e-08 -8.58965e-05
0.00287923 3.03118e-05 -1.34299e-05
3.03118e-05 0.00106462 3.69427e-07
-1.34299e-05 3.69427e-07 0.00105684
0.000710269 1.75605e-05 4.86606e-06
1.75605e-05 -5.56331e-05 3.16446e-08
4.86606e-06 3.16446e-08 -9.3404e-05
0.00292321 3.12919e-05 3.13816e-07
3.12919e-05 0.00107341 1.59146e-07
3.13816e-07 1.59146e-07 0.001067
0.00290934 3.1558e-05 1.35593e-05
3.1558e-05 0.00105287 -1.00035e-06
1.35593e-05 -1.00035e-06 0.0010483
0.00101029 -1.66558e-05 -1.81635e-06
-1.66558e-05 1.37317e-05 2.34029e-08
-1.81635e-06 2.34029e-08 -4.12403e-05
0.00116999 -1.85659e-05 5.1989e-10
-1.85659e-05 5.21491e-05 8.01979e-08
5.1989e-10 8.01979e-08 -8.6518e-06
0.00127184 -1.97699e-05 3.68985e-07
-1.97699e-05 8.44748e-05 1.35498e-07
3.68985e-07 1.35498e-07 2.03527e-05
0.00160917 -2.21569e-05 -7.7161e-06
-2.21569e-05 0.000364393 -5.90639e-07
-7.7161e-06 -5.90639e-07 0.000335133
0.00103749 -1.29832e-05 1.54325e-07
-1.29832e-05 6.73546e-06 -5.30872e-08
1.54325e-07 -5.30872e-08 -4.77919e-05
0.00119514 -1.50339e-05 8.4341e-07
-1.50339e-05 4.06539e-05 -6.35663e-07
8.4341e-07 -6.35663e-07 -1.96545e-05
0.00304836 -3.19337e-05 -1.38002e-05
-3.19337e-05 0.00110037 -1.4261e-06
-1.38002e-05 -1.4261e-06 0.00109803
0.000757707 -1.2321e-05 -4.20081e-08
-1.2321e-05 -6.54219e-05 1.82579e-07
-4.20081e-08 1.82579e-07 -9.85403e-05
0.00108342 -8.88016e-07 2.48016e-06
-8.88016e-07 1.40334e-05 4.19446e-07
2.48016e-06 4.19446e-07 -4.10927e-05
0.00313461 -3.24664e-05 -1.44407e-07
-3.24664e-05 0.00112441 1.38646e-07
-1.44407e-07 1.38646e-07 0.00112459
0.000737201 -1.02249e-05 4.99093e-06
-1.02249e-05 -7.93973e-05 1.64376e-06
4.99093e-06 1.64376e-06 -0.000109878
0.00302916 -3.20012e-05 1.13426e-05
-3.20012e-05 0.00106359 2.13655e-06
1.13426e-05 2.13655e-06 0.00106659
0.000666986 -8.24408e-06 -6.80204e-06
-8.24408e-06 -6.05022e-05 -5.72981e-07
-6.80204e-06 -5.72981e-07 -0.000100541
0.000959037 -1.01711e-05 1.12764e-07
-1.01711e-05 9.81136e-07 1.61699e-08
1.12764e-07 1.61699e-08 -5.49123e-05
0.00105729 -1.30409e-05 6.95328e-07
-1.30409e-05 1.83614e-05 -1.76638e-07
6.95328e-07 -1.76638e-07 -4.25863e-05
0.00279996 -1.27458e-06 -1.23581e-05
-1.27458e-06 0.00103489 6.66069e-08
-1.23581e-05 6.66069e-08 0.00102629
0.000696268 4.20466e-06 7.96001e-08
4.20466e-06 -4.17506e-05 2.12839e-07
7.96001e-08 2.12839e-07 -8.21558e-05
0.000863908 7.35096e-06 1.12245e-06
7.35096e-06 -3.69007e-05 1.73556e-07
1.12245e-06 1.73556e-07 -9.2843e-05
0.000691223 1.55932e-05 4.57964e-06
1.55932e-05 -5.01857e-05 -1.68516e-07
4.57964e-06 -1.68516e-07 -8.94049e-05
0.00282782 2.95309e-05 5.6648e-07
2.95309e-05 0.00104228 9.45728e-08
5.6648e-07 9.45728e-08 0.00103437
0.00282861 3.02122e-05 1.36302e-05
3.02122e-05 0.00103199 -5.13415e-07
1.36302e-05 -5.13415e-07 0.00102539
0.00149431 -2.10656e-05 -9.69429e-06
-2.10656e-05 0.000329157 -8.20083e-07
-9.69429e-06 -8.20083e-07 0.000297545
0.00102161 -1.65642e-05 5.08146e-08
-1.65642e-05 1.8702e-05 5.89697e-08
5.08146e-08 5.89697e-08 -3.63172e-05
0.00112418 -1.8179e-05 5.1558e-07
-1.8179e-05 3.11203e-05 -6.49701e-08
5.1558e-07 -6.49701e-08 -2.97784e-05
0.00299625 -3.41476e-05 -5.83546e-06
-3.41476e-05 0.0010921 -4.42003e-07
-5.83546e-06 -4.42003e-07 0.0010877
0.000772589 -1.68135e-05 1.05605e-08
-1.68135e-05 -4.33821e-05 7.20422e-08
1.05605e-08 7.20422e-08 -7.86618e-05
0.00105498 -1.23323e-05 2.25074e-06
-1.23323e-05 1.44653e-05 -1.20441e-07
2.25074e-06 -1.20441e-07 -4.01309e-05
0.00315028 -3.2721e-05 -1.78159e-07
-3.2721e-05 0.00114585 1.5167e-07
-1.78159e-07 1.5167e-07 0.0011437
0.000746922 -1.10176e-05 5.27603e-06
-1.10176e-05 -6.96427e-05 1.25313e-06
5.27603e-06 1.25313e-06 -0.00010287
0.00319265 -3.31167e-05 1.25153e-05
-3.31167e-05 0.00115057 1.95191e-06
1.25153e-05 1.95191e-06 0.00115099
0.00112996 -1.59391e-05 -1.1222e-05
-1.59391e-05 0.000220169 -3.04925e-07
-1.1222e-05 -3.04925e-07 0.000199165
0.00113856 -1.31262e-05 -2.42067e-06
-1.31262e-05 0.000167433 3.34768e-08
-2.42067e-06 3.34768e-08 0.000130663
0.000905784 -9.46913e-06 1.66037e-06
-9.46913e-06 -2.52802e-05 5.89086e-08
1.66037e-06 5.89086e-08 -8.15355e-05
0.00281078 5.23712e-07 1.8415e-07
5.23712e-07 0.00103975 1.10709e-07
1.8415e-07 1.10709e-07 0.00103108
0.000697768 2.80863e-06 4.64515e-06
2.80863e-06 -4.12984e-05 2.1973e-07
4.64515e-06 2.1973e-07 -8.17245e-05
0.00277322 2.96582e-05 1.18591e-05
2.96582e-05 0.00101865 -2.21702e-07
1.18591e-05 -2.21702e-07 0.00101057
0.00109327 -2.11209e-05 -4.25668e-06
-2.11209e-05 0.000187371 -3.13239e-07
-4.25668e-06 -3.13239e-07 0.000168784
0.00119741 -1.96262e-05 -2.42279e-06
-1.96262e-05 0.000182553 -4.33404e-08
-2.42279e-06 -4.33404e-08 0.000147766
0.00103393 -1.66561e-05 1.81538e-06
-1.66561e-05 2.41442e-05 9.37423e-08
1.81538e-06 9.37423e-08 -3.09281e-05
0.00215526 -2.76878e-05 4.6068e-06
-2.76878e-05 0.000681988 4.32314e-07
4.6068e-06 4.32314e-07 0.000671635
0.000741646 -1.51995e-05 5.2239e-06
-1.51995e-05 -5.63081e-05 7.95376e-07
5.2239e-06 7.95376e-07 -9.18264e-05
0.00325425 -3.36329e-05 1.35563e-05
-3.36329e-05 0.00119229 1.64865e-06
1.35563e-05 1.64865e-06 0.00119032
0.0028021 -2.83745e-05 -4.71703e-07
-2.83745e-05 0.00103208 1.42092e-07
-4.71703e-07 1.42092e-07 0.00102384
0.000714308 -1.20109e-05 4.87636e-06
-1.20109e-05 -3.78613e-05 5.18947e-07
4.87636e-06 5.18947e-07 -7.79172e-05
0.00282214 1.87033e-06 1.28813e-05
1.87033e-06 0.00104451 7.12589e-08
1.28813e-05 7.12589e-08 0.00103585
0.00200288 -2.53779e-05 4.62747e-06
-2.53779e-05 0.000631497 2.87456e-07
4.62747e-06 2.87456e-07 0.000618537
0.000727133 -1.63506e-05 4.97195e-06
-1.63506e-05 -4.41158e-05 6.95239e-07
4.97195e-06 6.95239e-07 -8.2133e-05
0.00316968 -3.31864e-05 1.40426e-05
-3.31864e-05 0.00116961 1.25087e-06
1.40426e-05 1.25087e-06 0.00116542
0.00288226 -2.97609e-05 1.35387e-05
-2.97609e-05 0.00106694 4.87867e-07
1.35387e-05 4.87867e-07 0.00105898
0.00300804 -3.18387e-05 1.38686e-05
-3.18387e-05 0.00111207 8.73687e-07
1.38686e-05 8.73687e-07 0.00110578
