# vtk DataFile Version 2.0
Wound Healing Simulation
ASCII
DATASET UNSTRUCTURED_GRID
POINTS 3012 float
69.9759 18.75 4
67.2507 60.3285 4
69.976 18.75 2
73.0099 25.446 4
71.1327 20.9142 4
68.6801 16.6661 4
67.8227 19.9265 3.97596
67.2507 60.3286 2
71.1327 54.0858 4
68.6801 58.3339 4
65.6939 62.2254 4
65.3096 58.9998 3.9752
74.6784 42.3946 4
73.7221 47.2057 4
69.9759 18.75 0
73.0099 25.446 2
68.6801 16.6661 2
71.1327 20.9142 2
67.8233 19.93 2
74.6792 32.6053 4
73.7222 27.7943 4
72.1454 23.1494 4
70.612 26.2215 3.97588
68.883 21.9582 3.97633
67.2507 14.6715 4
66.6341 17.9731 3.97475
65.7894 21.0288 3.96464
67.2507 60.3285 0
71.1327 54.0858 2
68.6801 58.3339 2
65.694 62.2255 2
65.3108 58.9948 2
72.1454 51.8506 4
69.9759 56.25 4
68.8336 53.1133 3.97575
64.0165 64.0165 4
66.608 57.1328 3.97562
63.8827 60.7637 3.97492
63.4936 57.7645 3.96623
60.3285 67.2507 4
74.6792 42.3947 2
73.7222 47.2057 2
74.9194 39.9526 4
74.2788 44.8158 4
72.1667 42.0857 3.97705
73.0099 49.554 4
71.2472 46.5979 3.97561
73.0099 25.446 0
71.1327 20.9142 0
68.6801 16.6661 0
67.8227 19.9265 0.0240437
74.6792 32.6053 2
73.7222 27.7943 2
67.2508 14.6715 2
72.1455 23.1494 2
70.6117 26.2222 2
66.635 17.9776 2
68.8832 21.9605 2
65.7879 21.0301 2
74.9197 35.0474 4
74.2794 30.1841 4
72.1834 32.9442 3.97726
71.2763 28.4322 3.97598
69.8132 24.0598 3.9763
68.3407 26.9543 3.96492
66.7552 22.9361 3.9644
65.694 12.7746 4
65.3204 16.1055 3.97375
64.7055 19.2004 3.96504
63.8123 22.0646 3.96441
71.1327 54.0858 0
65.6939 62.2254 0
68.6801 58.3339 0
65.3096 58.9998 0.0248014
72.1455 51.8506 2
69.9759 56.25 2
68.8337 53.1109 2
64.0165 64.0165 2
66.6088 57.1283 2
63.8844 60.7585 2
63.4921 57.7641 2
62.2254 65.694 4
58.892 65.413 3.98427
69.7663 50.9891 3.97548
67.7809 55.167 3.97585
66.6411 52.2071 3.96455
62.3328 62.4244 3.97773
64.6531 56.0271 3.96569
62.1964 59.3921 3.96629
61.7829 56.6569 3.96217
58.3339 68.6801 4
60.3285 67.2508 2
73.7221 47.2057 0
74.6784 42.3946 0
74.9197 39.9526 2
74.2794 44.8159 2
72.166 42.0854 2
73.0099 49.554 2
71.2469 46.5975 2
75 37.5 4
72.404 39.8025 3.97795
71.7808 44.3529 3.97667
69.7993 41.79 3.96718
70.5728 48.8135 3.97522
68.9061 46.014 3.96566
74.6792 32.6053 0
73.7222 27.7943 0
67.2507 14.6715 0
72.1454 23.1494 0
70.612 26.2215 0.0241214
68.883 21.9582 0.023674
66.6341 17.9731 0.0252517
65.7894 21.0288 0.0353624
74.9197 35.0474 2
74.2794 30.1841 2
72.1826 32.9445 2
71.276 28.4327 2
65.694 12.7745 2
65.3218 16.1108 2
69.8131 24.0611 2
68.3403 26.9553 2
64.7044 19.2015 2
66.7547 22.9373 2
63.8118 22.0653 2
72.4119 35.2249 3.97799
71.8023 30.6771 3.97692
69.8354 33.2709 3.96708
68.9606 29.0411 3.96558
67.6047 24.9147 3.96465
66.1049 27.6578 3.968
64.0165 10.9835 4
64.6731 23.8579 3.9657
63.8863 14.3303 3.97443
63.5048 17.4564 3.96554
62.8376 20.352 3.96268
61.9344 23.0028 3.96807
60.6813 11.1014 3.97916
57.6065 11.4708 3.97011
72.1454 51.8506 0
69.9759 56.25 0
68.8336 53.1133 0.0242523
64.0165 64.0165 0
63.8827 60.7637 0.0250848
66.608 57.1328 0.0243769
63.4936 57.7645 0.0337727
62.2255 65.694 2
58.8944 65.4098 2
69.7661 50.9878 2
67.7813 55.1636 2
66.6401 52.206 2
62.3353 62.42 2
64.6519 56.0265 2
62.1942 59.3918 2
61.7835 56.6573 2
60.6662 63.9739 3.98041
57.0232 66.7339 3.98741
57.5534 63.6783 3.97132
67.499 50.175 3.96457
65.6943 54.1705 3.96498
64.4413 51.3572 3.96578
60.7677 60.9187 3.96875
62.7597 55.0424 3.96367
60.6332 58.1335 3.96102
60.238 55.7396 3.96461
56.25 69.9759 4
58.3339 68.6801 2
60.3285 67.2507 0
58.9186 9.65902 3.98064
62.2254 9.30607 4
73.0099 49.554 0
74.2788 44.8158 0
71.2472 46.5979 0.024386
72.1667 42.0857 0.0229481
74.9194 39.9526 0
75 37.5 2
72.4038 39.8024 2
71.7805 44.3523 2
69.7985 41.7896 2
70.5723 48.813 2
68.9058 46.0133 2
72.4875 37.5126 3.97757
70.0369 39.6583 3.96757
69.425 43.9072 3.96654
67.5084 41.49 3.97138
68.2589 48.1059 3.96492
66.6054 45.4216 3.96975
74.9197 35.0474 0
74.2794 30.1841 0
72.1834 32.9442 0.0227398
71.2763 28.4322 0.0240169
65.694 12.7746 0
65.3204 16.1055 0.0262493
69.8132 24.0598 0.0237029
68.3407 26.9543 0.0350788
66.7552 22.9361 0.0355982
64.7055 19.2004 0.0349622
63.8123 22.0646 0.035591
72.4117 35.2249 2
71.8021 30.6778 2
69.8347 33.2715 2
68.9603 29.0419 2
64.0165 10.9835 2
63.8884 14.3354 2
63.5035 17.4575 2
67.6043 24.9159 2
66.1043 27.6585 2
62.8375 20.3524 2
64.6728 23.8587 2
61.9334 23.0038 2
60.6838 11.1054 2
57.6074 11.4635 2
70.0537 35.394 3.96754
69.4622 31.1522 3.96629
67.575 33.6017 3.97067
66.6815 29.6426 3.96874
65.4351 25.7252 3.96675
63.947 28.3025 3.97435
62.3383 12.6589 3.97707
62.6817 24.6941 3.97032
62.1913 15.8003 3.96675
61.759 18.7178 3.96141
61.0701 21.405 3.9653
60.1863 23.8156 3.97204
59.2401 12.8087 3.96794
55.8694 10.2518 3.9733
56.3947 13.1678 3.96871
69.7663 50.9891 0.0245248
62.2254 65.694 0
58.892 65.413 0.0157306
67.7809 55.167 0.0241503
66.6411 52.2071 0.0354535
62.3328 62.4244 0.0222668
62.1964 59.3921 0.0337106
64.6531 56.0271 0.0343104
61.7829 56.6569 0.0378313
60.6685 63.9708 2
57.0254 66.7325 2
57.5544 63.6815 2
67.4993 50.1741 2
65.6931 54.1697 2
64.4412 51.3567 2
60.7668 60.9203 2
62.7601 55.0426 2
60.6369 58.135 2
60.2374 55.7394 2
55.069 67.9312 3.98865
59.2133 62.3384 3.96935
55.8015 64.902 3.97649
56.3169 62.0472 3.97007
65.2252 49.3815 3.96709
63.6238 53.2646 3.96452
62.2385 50.5951 3.96936
59.3193 59.5285 3.96341
60.9445 54.2578 3.9668
59.2112 56.9627 3.96209
59.1077 55.1215 3.96744
48.1 68.5751 3.98484
50.9468 69.9313 3.99021
54.0858 71.1327 4
56.25 69.976 2
58.3339 68.6801 0
57.0558 8.33844 3.98252
60.3285 7.74928 4
58.9213 9.6632 2
62.2255 9.30602 2
70.5728 48.8135 0.0247809
71.7808 44.3529 0.023331
68.9061 46.014 0.0343438
69.7993 41.79 0.0328165
72.404 39.8025 0.0220455
75 37.5 0
72.4867 37.5125 2
70.0366 39.6581 2
69.4247 43.9067 2
67.5069 41.4897 2
68.2588 48.1051 2
66.6032 45.421 2
70.125 37.523 3.9676
67.7537 39.5097 3.97184
67.1244 43.4569 3.97039
65.3457 41.1904 3.97697
65.9599 47.3948 3.96858
64.4204 44.8093 3.97518
72.4119 35.2249 0.0220079
71.8023 30.6771 0.0230765
69.8354 33.2709 0.0329234
68.9606 29.0411 0.034418
64.0165 10.9835 0
63.8863 14.3303 0.0255729
63.5048 17.4564 0.0344647
67.6047 24.9147 0.0353452
66.1049 27.6578 0.0320001
64.6731 23.8579 0.0343033
62.8376 20.352 0.0373222
61.9344 23.0028 0.0319341
60.6813 11.1014 0.0208411
57.6065 11.4708 0.0298928
70.0534 35.3943 2
69.4619 31.1529 2
67.5736 33.6021 2
66.6802 29.6433 2
62.3408 12.6636 2
62.1897 15.801 2
61.7593 18.7177 2
65.4345 25.726 2
63.9449 28.3036 2
61.0691 21.4058 2
62.6805 24.6951 2
60.1853 23.8167 2
59.2407 12.8086 2
56.396 13.1651 2
55.8714 10.2501 2
67.793 35.5539 3.97143
67.1819 31.6377 3.96973
65.502 33.9482 3.97711
64.4614 30.232 3.97568
63.349 26.467 3.97241
61.9571 28.8515 3.97618
60.7687 14.2458 3.96786
60.7834 25.4223 3.9746
60.5803 17.1617 3.96112
60.0865 19.8837 3.96213
59.4319 22.3522 3.96782
58.6727 24.434 3.97444
54.0344 9.14665 3.97401
57.8979 14.3755 3.96664
54.7769 12.0609 3.96945
55.2949 14.7127 3.96695
67.499 50.175 0.0354347
57.0232 66.7339 0.0125912
60.6662 63.9739 0.0195875
57.5534 63.6783 0.0286807
65.6943 54.1705 0.0350245
64.4413 51.3572 0.0342213
60.7677 60.9187 0.031252
60.6332 58.1335 0.0389814
62.7597 55.0424 0.0363295
60.238 55.7396 0.0353893
55.0708 67.9299 2
59.2135 62.3403 2
55.8019 64.9016 2
56.3156 62.0473 2
65.2249 49.381 2
63.6239 53.2644 2
62.2382 50.5945 2
59.3192 59.5305 2
60.945 54.2577 2
59.2161 56.9637 2
59.1108 55.1217 2
53.0411 68.9993 3.98997
53.9639 66.0059 3.97922
57.8683 60.8343 3.96875
54.6759 63.1835 3.97133
55.1935 60.5651 3.9696
62.9752 48.6076 3.9714
61.5705 52.5196 3.96802
59.9704 49.9349 3.9718
57.9802 58.2204 3.96172
59.1401 53.876 3.96881
57.9697 55.7401 3.96295
50.1067 67.8531 3.98399
47.4611 66.5723 3.97998
46.0539 69.1543 3.9856
48.1005 68.5753 2
48.8007 70.7226 3.99063
50.9482 69.9307 2
51.8506 72.1454 4
54.0858 71.1327 2
56.25 69.9759 0
55.1008 7.14259 3.9864
58.3339 6.31992 4
57.0589 8.34173 2
60.3286 7.74926 2
58.9186 9.65902 0.0193586
62.2254 9.30607 0
68.2589 48.1059 0.0350805
69.425 43.9072 0.0334578
66.6054 45.4216 0.0302508
67.5084 41.49 0.0286203
70.0369 39.6583 0.0324275
72.4875 37.5126 0.0224284
70.1243 37.5231 2
67.7519 39.5096 2
67.1236 43.4566 2
65.3427 41.1896 2
65.9594 47.3943 2
64.4182 44.8084 2
67.8545 37.524 3.97183
65.5846 39.3619 3.97681
64.9612 42.9962 3.97676
63.4474 40.9028 3.97677
63.7311 46.6688 3.97325
62.4702 44.1553 3.97658
70.0537 35.394 0.0324606
69.4622 31.1522 0.0337109
67.575 33.6017 0.0293275
66.6815 29.6426 0.0312596
62.3383 12.6589 0.022933
62.1913 15.8003 0.0332504
61.759 18.7178 0.0385883
65.4351 25.7252 0.0332522
63.947 28.3025 0.0256506
62.6817 24.6941 0.0296848
61.0701 21.405 0.0346969
60.1863 23.8156 0.027961
59.2401 12.8087 0.0320609
56.3947 13.1678 0.0312901
55.8694 10.2518 0.0267028
67.7909 35.5541 2
67.1815 31.6382 2
65.4985 33.9492 2
64.459 30.233 2
60.7684 14.2464 2
60.5797 17.1612 2
60.0851 19.8844 2
63.3471 26.4681 2
61.9547 28.8525 2
59.4339 22.3527 2
60.7817 25.4235 2
58.6722 24.4352 2
57.8967 14.3753 2
55.2954 14.7104 2
54.0364 9.14654 2
54.7777 12.0572 2
65.683 35.6788 3.97693
64.9817 32.1851 3.97658
64.011 34.2767 3.97684
62.2742 30.6971 3.97623
61.3666 27.1525 3.97581
60.482 29.2305 3.97642
59.2941 15.7052 3.96215
58.9894 25.9112 3.97613
59.0329 18.4194 3.96077
58.5355 20.9509 3.96345
57.9912 23.2121 3.96937
57.6309 24.7955 3.9751
52.1097 8.16203 3.97762
53.0501 11.0497 3.97087
56.6528 15.8011 3.96257
53.7916 13.7499 3.96592
54.3397 16.0777 3.96149
55.069 67.9312 0.0113545
65.2252 49.3815 0.0329104
55.8015 64.902 0.0235066
59.2133 62.3384 0.0306514
56.3169 62.0472 0.0299277
63.6238 53.2646 0.0354815
62.2385 50.5951 0.0306411
59.3193 59.5285 0.0365853
59.2112 56.9627 0.037913
60.9445 54.2578 0.0332015
59.1077 55.1215 0.0325559
53.0427 68.9987 2
53.9646 66.006 2
57.8668 60.8352 2
54.6755 63.1851 2
55.1912 60.5652 2
62.9742 48.6068 2
61.5706 52.5192 2
59.9714 49.9344 2
57.9773 58.2211 2
59.1437 53.8761 2
57.9664 55.7385 2
52.0678 66.9953 3.9826
52.9486 64.2045 3.9762
56.6263 59.4469 3.96818
53.6652 61.5752 3.97124
54.2312 59.2697 3.97484
60.6472 47.7978 3.97312
59.4542 52.024 3.96979
57.6413 49.5064 3.97342
56.6958 56.9268 3.96409
56.8872 54.0294 3.96657
50.1071 67.853 2
49.3348 65.9126 3.97995
47.4612 66.5724 2
46.8893 64.7224 3.97878
45.5565 67.0896 3.9804
43.9715 69.5863 3.98644
46.0545 69.1545 2
46.6071 71.367 3.99096
48.1 68.5751 0.0151581
48.802 70.7224 2
49.554 73.0099 4
50.9468 69.9313 0.00978899
51.8506 72.1455 2
54.0858 71.1327 0
53.0631 6.0731 3.98909
55.104 7.14393 2
56.25 5.02411 4
58.3339 6.3199 2
57.0558 8.33844 0.0174771
60.3285 7.74928 0
65.9599 47.3948 0.031422
67.1244 43.4569 0.029606
64.4204 44.8093 0.024823
65.3457 41.1904 0.0230317
67.7537 39.5097 0.0281553
70.125 37.523 0.0324018
67.8531 37.524 2
65.5812 39.3615 2
64.9579 42.9952 2
63.4459 40.9026 2
63.7294 46.6679 2
62.4683 44.1544 2
65.6932 37.5041 3.97679
63.5969 39.2549 3.97678
63.0024 42.5084 3.97658
62.0489 40.6637 3.9766
61.6147 45.8464 3.97523
61.0297 43.6132 3.97631
67.793 35.5539 0.0285711
67.1819 31.6377 0.0302711
65.502 33.9482 0.0228871
64.4614 30.232 0.0243157
60.7687 14.2458 0.0321382
60.5803 17.1617 0.0388752
60.0865 19.8837 0.037867
63.349 26.467 0.0275918
61.9571 28.8515 0.0238152
60.7834 25.4223 0.0253978
59.4319 22.3522 0.0321813
58.6727 24.434 0.0255579
57.8979 14.3755 0.033358
55.2949 14.7127 0.033052
54.0344 9.14665 0.0259934
54.7769 12.0609 0.0305473
65.6796 35.6793 2
64.9783 32.1861 2
64.0091 34.2773 2
62.2723 30.6975 2
59.2927 15.7044 2
59.0392 18.4176 2
58.5361 20.9517 2
61.3649 27.1536 2
60.481 29.231 2
57.9852 23.2144 2
58.9885 25.9125 2
57.6362 24.7975 2
56.6509 15.8004 2
54.3435 16.0744 2
53.7909 13.7401 2
52.1115 8.16187 2
53.0511 11.0477 2
63.8056 35.6482 3.97665
62.5967 33.0899 3.97644
60.1984 30.6974 3.97611
59.184 28.0218 3.97618
57.8951 17.0416 3.95996
57.35 25.868 3.97608
57.5589 19.5696 3.9602
57.0948 21.9667 3.96368
56.8227 24.0918 3.97035
50.1107 7.29119 3.98276
51.2272 10.1438 3.97416
52.1565 12.8497 3.97168
55.4911 17.0491 3.95946
52.9478 15.3471 3.96366
53.7071 17.074 3.95926
53.0411 68.9993 0.010032
53.9639 66.0059 0.0207832
62.9752 48.6076 0.0285961
54.6759 63.1835 0.0286729
57.8683 60.8343 0.0312469
55.1935 60.5651 0.0304015
61.5705 52.5196 0.031981
59.9704 49.9349 0.0282049
57.9802 58.2204 0.0382775
57.9697 55.7401 0.0370463
59.1401 53.876 0.0311914
52.0685 66.9957 2
52.9481 64.2051 2
56.6245 59.4477 2
53.6637 61.5778 2
54.2287 59.2704 2
60.6468 47.7969 2
59.455 52.0234 2
57.6391 49.5052 2
56.6925 56.93 2
56.8841 54.0279 2
51.1651 65.1176 3.97851
52.0351 62.5169 3.97306
55.4362 58.1992 3.96326
52.8047 60.0686 3.97038
53.5984 58.4161 3.96799
57.8284 46.7297 3.97588
57.2447 51.6825 3.97005
55.7928 49.4241 3.97257
55.3445 55.7148 3.9647
55.0777 53.2784 3.96306
50.1067 67.8531 0.0160095
49.3347 65.9124 2
48.6139 64.1096 3.97888
47.4611 66.5723 0.0200182
45.5566 67.09 2
46.8898 64.7222 2
46.376 63.0357 3.98231
45.1305 65.1831 3.97821
43.63 67.4612 3.982
41.8592 69.8732 3.98609
43.9718 69.5868 2
44.3744 71.8615 3.99124
46.0539 69.1543 0.0144038
46.6082 71.3669 2
47.2057 73.7222 4
48.8007 70.7226 0.00937471
49.554 73.0099 2
51.8506 72.1454 0
50.9539 5.13367 3.99066
53.0655 6.07407 2
54.0858 3.86728 4
55.1008 7.14259 0.0135982
56.25 5.02406 2
58.3339 6.31992 0
63.7311 46.6688 0.0267493
64.9612 42.9962 0.0232443
62.4702 44.1553 0.0234232
63.4474 40.9028 0.0232346
65.5846 39.3619 0.0231869
67.8545 37.524 0.0281745
65.6896 37.5042 2
63.5957 39.2549 2
63.0011 42.5079 2
62.0492 40.6635 2
61.6131 45.8454 2
61.0286 43.613 2
63.6607 37.4582 3.9767
61.7587 39.3356 3.97679
60.775 41.9018 3.97663
59.7943 44.6735 3.97657
65.683 35.6788 0.0230693
64.9817 32.1851 0.0234235
64.011 34.2767 0.0231626
62.2742 30.6971 0.0237738
59.2941 15.7052 0.0378467
59.0329 18.4194 0.0392275
58.5355 20.9509 0.036549
61.3666 27.1525 0.0241891
60.482 29.2305 0.0235783
58.9894 25.9112 0.0238717
57.9912 23.2121 0.0306293
57.6309 24.7955 0.0249046
56.6528 15.8011 0.0374306
54.3397 16.0777 0.038511
53.7916 13.7499 0.0340845
52.1097 8.16203 0.0223787
53.0501 11.0497 0.029132
63.8043 35.6483 2
62.5963 33.0904 2
60.1988 30.6977 2
57.8925 17.0417 2
57.5719 19.5658 2
57.0901 21.9691 2
59.1827 28.0227 2
56.8389 24.093 2
57.351 25.8714 2
50.1125 7.28953 2
55.4915 17.0476 2
53.7123 17.066 2
52.9478 15.3391 2
52.1574 12.8539 2
51.2286 10.1417 2
61.801 35.3818 3.97645
59.8209 32.8115 3.9762
58.1266 30.1873 3.97598
56.8344 27.5329 3.97662
56.5514 18.2383 3.96079
55.8782 25.2675 3.97528
56.1542 20.6412 3.96083
55.7712 23.0217 3.96388
48.0559 6.53087 3.98694
49.3219 9.34414 3.977
50.4219 12.0316 3.97367
51.3508 14.5644 3.96541
54.3362 18.0182 3.95974
52.3165 17.1457 3.95919
52.0678 66.9953 0.0173969
52.9486 64.2045 0.0237974
60.6472 47.7978 0.0268784
53.6652 61.5752 0.0287551
56.6263 59.4469 0.0318248
54.2312 59.2697 0.0251611
59.4542 52.024 0.0302134
57.6413 49.5064 0.0265773
56.6958 56.9268 0.0359062
56.8872 54.0294 0.0334283
51.165 65.1183 2
52.0339 62.5184 2
55.4349 58.1997 2
52.8033 60.0722 2
53.5966 58.418 2
57.8275 46.7287 2
57.2413 51.6811 2
55.7864 49.4221 2
55.3423 55.7147 2
55.0786 53.2783 2
50.3399 63.3666 3.97972
51.2224 60.8891 3.97489
54.1513 57.2076 3.96794
52.2558 58.5662 3.97072
56.0656 44.0448 3.97666
54.95 47.7493 3.97462
54.67 51.2629 3.96572
53.8152 54.4539 3.9656
49.3348 65.9126 0.020055
48.6141 64.1088 2
47.9527 62.4578 3.98052
45.5565 67.0896 0.0195958
46.8893 64.7224 0.0212216
43.63 67.4619 2
46.3763 63.0355 2
45.131 65.1833 2
45.9785 61.5655 3.9891
44.7632 63.4338 3.97755
43.3558 65.4945 3.97869
41.6624 67.6795 3.98163
39.7016 70.019 3.98557
41.8595 69.8738 2
42.109 72.206 3.99165
43.9715 69.5863 0.0135554
44.3753 71.8616 2
44.8159 74.2794 4
46.6071 71.367 0.00903589
47.2057 73.7222 2
49.554 73.0099 0
48.7852 4.3239 3.99174
50.9556 5.13349 2
51.8506 2.85458 4
53.0631 6.0731 0.0109104
54.0858 3.86728 2
56.25 5.02411 0
61.6147 45.8464 0.0247712
63.0024 42.5084 0.0234202
61.0297 43.6132 0.0236911
62.0489 40.6637 0.023398
63.5969 39.2549 0.0232185
65.6932 37.5041 0.0232066
63.6595 37.4582 2
61.7594 39.3358 2
60.7759 41.9017 2
59.7941 44.6727 2
61.5885 37.4443 3.97691
59.7359 39.8106 3.97683
58.425 42.8304 3.97621
63.8056 35.6482 0.0233512
62.5967 33.0899 0.0235583
60.1984 30.6974 0.0238928
57.8951 17.0416 0.0400394
57.5589 19.5696 0.0397965
57.0948 21.9667 0.0363164
59.184 28.0218 0.0238244
57.35 25.868 0.0239225
56.8227 24.0918 0.0296548
55.4911 17.0491 0.0405419
53.7071 17.074 0.0407355
52.9478 15.3471 0.0363363
50.1107 7.29119 0.0172418
52.1565 12.8497 0.028324
51.2272 10.1438 0.0258448
61.8017 35.3819 2
59.8212 32.8115 2
58.1276 30.1867 2
56.5541 18.2371 2
56.1694 20.6355 2
55.7773 23.0271 2
56.8339 27.5342 2
55.881 25.2724 2
48.0571 6.52985 2
49.3233 9.34264 2
54.3471 18.016 2
52.3101 17.1354 2
51.3481 14.5636 2
50.4235 12.0311 2
59.3726 35.1526 3.97658
57.4034 32.3606 3.97566
55.9958 29.4873 3.97629
54.9375 26.7957 3.97565
55.2225 19.2924 3.96202
54.5491 24.2377 3.97002
54.7469 21.7069 3.96015
45.9625 5.88508 3.98852
43.3742 7.47843 3.98437
47.3544 8.63127 3.98151
48.5927 11.3166 3.97414
49.69 13.7883 3.97001
50.5917 16.2144 3.96439
53.0288 18.7829 3.96191
51.2377 18.1941 3.96483
51.1651 65.1176 0.0214876
52.0351 62.5169 0.0269381
57.8284 46.7297 0.0241174
52.8047 60.0686 0.0296239
55.4362 58.1992 0.0367407
53.5984 58.4161 0.0320088
57.2447 51.6825 0.0299514
55.7928 49.4241 0.0274333
55.3445 55.7148 0.0353016
55.0777 53.2784 0.0369438
50.3395 63.3658 2
51.2205 60.8878 2
54.15 57.2088 2
52.254 58.5677 2
56.0661 44.0441 2
54.9465 47.7477 2
54.6681 51.2616 2
53.815 54.4554 2
49.578 61.7286 3.97615
54.8208 41.6378 3.97408
50.523 59.2776 3.96972
52.0769 56.4205 3.96809
53.4811 45.3884 3.97413
52.8173 49.1788 3.96965
52.3654 52.7413 3.96055
48.6139 64.1096 0.0211193
47.9521 62.4558 2
47.3132 60.9889 3.99014
43.63 67.4612 0.0180012
45.1305 65.1831 0.0217934
46.376 63.0357 0.0176914
41.6627 67.6793 2
43.3565 65.4952 2
45.9771 61.566 2
44.7637 63.434 2
45.7483 60.611 3.9879
44.4775 61.8092 3.97956
43.1444 63.7087 3.97832
41.5455 65.6323 3.97742
39.632 67.7567 3.98091
37.5259 70.0432 3.9844
39.7017 70.0193 2
39.8163 72.4025 3.99149
41.8592 69.8732 0.0139133
42.1097 72.2063 2
42.3947 74.6792 4
44.3744 71.8615 0.00876119
44.8159 74.2794 2
47.2057 73.7222 0
43.8518 5.36203 3.98773
46.5713 3.64835 3.99212
48.7861 4.32368 2
49.554 1.99015 4
50.9539 5.13367 0.00933831
51.8506 2.85453 2
54.0858 3.86728 0
59.7943 44.6735 0.023428
60.775 41.9018 0.0233663
61.7587 39.3356 0.0232093
63.6607 37.4582 0.0232961
61.5891 37.4443 2
59.7369 39.8105 2
58.4253 42.8302 2
59.227 37.5656 3.97725
57.3552 40.5965 3.97716
54.2217 39.6507 3.97518
61.801 35.3818 0.0235485
59.8209 32.8115 0.023801
58.1266 30.1873 0.0240202
56.5514 18.2383 0.0392093
56.1542 20.6412 0.0391668
55.7712 23.0217 0.0361158
56.8344 27.5329 0.0233837
55.8782 25.2675 0.0247164
54.3362 18.0182 0.0402588
52.3165 17.1457 0.0408106
51.3508 14.5644 0.0345875
48.0559 6.53087 0.0130626
49.3219 9.34414 0.0230017
50.4219 12.0316 0.0263273
59.3735 35.1522 2
45.9632 5.8837 2
43.3746 7.4765 2
57.4045 32.361 2
55.9956 29.4867 2
55.2132 19.2968 2
54.7729 21.7094 2
54.5452 24.2427 2
54.9351 26.7982 2
47.3557 8.62883 2
48.5942 11.3157 2
53.0382 18.7607 2
51.244 18.1912 2
50.5893 16.2147 2
49.6891 13.7905 2
56.7321 34.8063 3.97712
55.0626 31.64 3.97567
53.9152 28.5951 3.97704
53.3148 25.7133 3.97501
53.8146 20.2607 3.9611
53.2877 22.8959 3.95624
41.3998 7.08321 3.98373
45.3602 7.9982 3.98697
42.8664 9.42394 3.97896
46.6643 10.6656 3.97962
47.7263 13.1302 3.97501
48.8958 15.4622 3.96953
49.9416 17.779 3.95954
51.5419 19.4774 3.9709
50.3399 63.3666 0.0202797
51.2224 60.8891 0.0251135
56.0656 44.0448 0.0233433
54.95 47.7493 0.0253751
52.2558 58.5662 0.0292793
54.1513 57.2076 0.0320605
54.67 51.2629 0.0342804
53.8152 54.4539 0.0344048
49.5764 61.7274 2
54.8106 41.6335 2
50.5211 59.2786 2
52.0792 56.4231 2
53.4769 45.3859 2
52.8171 49.1771 2
52.3666 52.741 2
48.8192 60.1805 3.97665
51.5877 42.5051 3.9833
49.7129 57.5745 3.96605
50.3963 54.349 3.96191
51.1551 47.0954 3.97508
50.8105 50.8173 3.95488
47.27 43.5761 3.97498
47.9527 62.4578 0.0194791
47.3112 60.9872 2
46.5914 59.7793 3.99431
41.6624 67.6795 0.0183666
43.3558 65.4945 0.021309
44.7632 63.4338 0.0224455
45.9785 61.5655 0.0109028
39.6325 67.7574 2
41.5461 65.6308 2
45.7475 60.6113 2
43.1446 63.7083 2
44.4758 61.8107 2
44.6049 60.2673 3.99533
42.9457 62.0605 3.97483
41.5996 63.802 3.97739
39.6469 65.5964 3.97645
37.5632 67.737 3.97892
31.698 65.1135 3.97647
33.3928 67.475 3.9788
35.334 69.9536 3.98455
37.5257 70.0446 2
37.509 72.4568 3.99198
39.7016 70.019 0.0144312
39.8167 72.4026 2
39.9526 74.9197 4
42.109 72.206 0.0083505
42.3947 74.6792 2
44.8159 74.2794 0
41.7366 4.97024 3.98822
43.8522 5.36049 2
44.3268 3.11142 3.99257
46.572 3.64789 2
47.2057 1.27793 4
48.7852 4.3239 0.00825569
49.554 1.99013 2
51.8506 2.85458 0
58.425 42.8304 0.0237863
59.7359 39.8106 0.0231683
61.5885 37.4443 0.0230932
59.2282 37.5664 2
57.3548 40.5981 2
54.212 39.6575 2
56.0906 37.8773 3.97677
48.615 41.2264 3.97303
52.1799 39.2901 3.98298
39.4435 6.80635 3.98482
59.3726 35.1526 0.023422
57.4034 32.3606 0.0243443
55.9958 29.4873 0.0237112
55.2225 19.2924 0.0379793
54.7469 21.7069 0.0398544
54.5491 24.2377 0.0299809
54.9375 26.7957 0.0243536
53.0288 18.7829 0.0380948
51.2377 18.1941 0.03517
50.5917 16.2144 0.0356131
45.9625 5.88508 0.0114777
49.69 13.7883 0.0299895
47.3544 8.63127 0.0184914
48.5927 11.3166 0.0258569
43.3742 7.47843 0.0156348
56.7318 34.8072 2
41.4001 7.08321 2
45.3607 7.99614 2
42.8672 9.42211 2
55.065 31.6382 2
53.9138 28.596 2
53.8185 20.2772 2
53.2765 22.896 2
53.3119 25.7131 2
46.6657 10.6615 2
47.7264 13.1271 2
51.5605 19.478 2
49.9412 17.7807 2
48.8902 15.4729 2
54.0433 34.0048 3.97492
52.7725 30.6901 3.97567
52.0223 27.4437 3.97481
51.7966 24.3344 3.97867
52.2098 21.2207 3.9737
41.0133 9.05719 3.97769
44.7262 9.99883 3.98569
42.4623 10.908 3.99984
45.989 12.742 3.97112
47.6511 14.6364 3.96788
48.049 17.0383 3.96553
49.7442 19.8645 3.9758
49.578 61.7286 0.0238468
50.523 59.2776 0.0302832
54.8208 41.6378 0.0259199
53.4811 45.3884 0.0258709
52.8173 49.1788 0.0303515
52.0769 56.4205 0.0319124
52.3654 52.7413 0.0394502
48.8163 60.1785 2
51.6023 42.5176 2
49.7112 57.5746 2
50.3963 54.3503 2
51.1569 47.0938 2
50.8125 50.8169 2
47.2832 43.6096 2
47.9358 58.7022 3.98191
49.2555 45.1147 3.98081
48.4714 55.8625 3.95978
48.8561 52.5025 3.9761
49.1728 48.897 3.97066
45.0137 39.7904 3.85461
45.5034 42.492 3.89336
45.7678 45.5768 3.9833
42.8418 41.0101 3.67739
41.5651 41.8052 3.47941
47.3132 60.9889 0.00986189
46.5894 59.7759 2
45.43 58.7791 3.99475
39.632 67.7567 0.0190915
41.5455 65.6323 0.022585
43.1444 63.7087 0.0216762
44.4775 61.8092 0.0204444
45.7483 60.611 0.0121039
41.5996 63.8006 2
37.5634 67.7384 2
39.6476 65.5973 2
44.6051 60.2683 2
42.9438 62.0607 2
41.749 62.4677 3.97693
42.467 59.9534 3.98106
39.8943 63.5329 3.97602
37.6419 65.492 3.97577
35.4637 67.6465 3.97868
33.576 65.3252 3.975
31.9604 63.2765 3.97632
29.8857 64.7044 3.98025
31.6977 65.114 2
31.3779 67.1858 3.97928
33.3925 67.476 2
33.1576 69.7472 3.98461
35.3335 69.9548 2
35.1957 72.3714 3.992
37.5259 70.0432 0.0156004
37.5091 72.4574 2
37.5 75 4
39.8163 72.4025 0.00851201
39.9526 74.9197 2
42.3947 74.6792 0
39.6245 4.718 3.98932
41.7368 4.96997 2
42.0633 2.71845 3.99298
43.8518 5.36203 0.0122662
44.327 3.11063 2
44.8158 0.721173 4
46.5713 3.64835 0.00788004
47.2057 1.27779 2
49.554 1.99015 0
57.3552 40.5965 0.0228392
59.227 37.5656 0.0227536
54.2217 39.6507 0.0248217
48.6398 41.2367 2
56.0907 37.8745 2
52.1752 39.2551 2
53.0397 36.6159 3.97793
46.5448 40.3064 3.89692
49.5598 38.5071 3.98445
37.5175 6.67631 3.98546
39.4443 6.80478 2
39.2111 8.69812 3.98199
35.9434 8.49687 3.98387
56.7321 34.8063 0.0228849
55.0626 31.64 0.0243325
53.9152 28.5951 0.0229585
53.8146 20.2607 0.0388952
53.2877 22.8959 0.043764
53.3148 25.7133 0.0249878
51.5419 19.4774 0.0290997
49.9416 17.779 0.0404628
48.8958 15.4622 0.0304746
45.3602 7.9982 0.0130269
47.7263 13.1302 0.0249894
46.6643 10.6656 0.020375
41.3998 7.08321 0.0162729
42.8664 9.42394 0.0210353
54.0425 34.0035 2
41.0147 9.05914 2
44.7268 9.99686 2
42.4637 10.9085 2
52.7673 30.6878 2
52.0293 27.4444 2
52.2092 21.2279 2
51.7869 24.3395 2
45.9891 12.7358 2
47.6446 14.609 2
49.761 19.8523 2
48.0456 17.0455 2
51.5497 32.9175 3.98237
50.6015 29.4041 3.97751
50.3206 25.9456 3.97054
49.7712 22.4604 3.98502
40.5644 11.6193 3.9828
43.8453 11.9127 3.97963
45.7677 15.4755 3.988
47.4468 19.4761 3.97867
45.4743 37.4818 3.85149
48.8192 60.1805 0.0233483
49.7129 57.5745 0.0339502
51.5877 42.5051 0.0167026
51.1551 47.0954 0.024923
50.8105 50.8173 0.0451179
50.3963 54.349 0.0380901
47.27 43.5761 0.0250163
47.9337 58.7056 2
49.2723 45.1293 2
48.4673 55.8647 2
48.8551 52.5054 2
49.1751 48.8982 2
45.1011 39.8105 2
45.5332 42.5173 2
45.7746 45.593 2
42.8887 41.058 2
41.6013 41.8302 2
46.7633 57.3085 3.97861
43.5667 39.3493 3.67728
41.9379 40.7333 3.49584
47.4376 47.1448 3.98383
46.9906 54.1708 3.9604
47.2364 50.6473 3.97832
44.2952 47.2032 3.98176
44.1532 41.8296 3.85215
44.2602 44.3123 3.89181
41.8671 42.4329 3.71851
40.5842 42.1 3.46614
46.5914 59.7793 0.00568738
45.4304 58.7771 2
43.8377 57.6667 3.98248
37.5632 67.737 0.0210789
39.6469 65.5964 0.0235486
41.5996 63.802 0.0226125
42.9457 62.0605 0.0251716
44.6049 60.2673 0.00466744
35.4637 67.648 2
41.7476 62.4707 2
39.8937 63.5335 2
37.6423 65.4935 2
42.4691 59.9511 2
40.6196 61.61 3.98073
40.4311 58.1317 3.98295
37.8374 63.1884 3.97309
35.573 65.4143 3.97619
33.576 65.3261 2
31.9612 63.2788 2
33.6293 63.3163 3.97462
30.3801 62.8385 3.98066
32.1284 61.9793 3.98708
26.8806 61.4613 3.97879
28.0664 64.1337 3.9788
29.8848 64.7058 2
29.4079 66.7492 3.98003
31.698 65.1135 0.023525
31.3775 67.1863 2
31.0154 69.4128 3.98456
33.3928 67.475 0.0211987
33.1569 69.748 2
32.8938 72.1457 3.99142
35.334 69.9536 0.0154511
35.1953 72.372 2
35.0474 74.9194 4
37.509 72.4568 0.00801718
37.5 75 2
39.9526 74.9197 0
35.622 6.72784 3.98483
37.5243 4.61705 3.98963
39.6248 4.71654 2
39.7898 2.47518 3.99305
41.7366 4.97024 0.0117836
42.0633 2.71817 2
42.3946 0.32156 4
44.3268 3.11142 0.0074308
44.8159 0.72056 2
47.2057 1.27793 0
48.615 41.2264 0.0269677
56.0906 37.8773 0.0232287
52.1799 39.2901 0.0170172
46.5668 40.3101 2
49.5588 38.5057 2
53.0385 36.6413 2
50.3642 35.5653 3.97396
47.2098 37.7623 3.90666
45.0365 35.1819 3.85365
42.8831 33.9459 3.67497
41.599 33.1563 3.47792
37.4587 8.53698 3.98465
37.5182 6.67567 2
39.4435 6.80635 0.0151795
39.2132 8.69608 2
38.9759 10.1345 3.98415
35.8998 9.7796 3.97975
34.1534 8.82912 3.98189
35.9445 8.49412 2
54.0433 34.0048 0.0250848
52.7725 30.6901 0.0243333
52.0223 27.4437 0.0251901
52.2098 21.2207 0.0263038
51.7966 24.3344 0.0213287
49.7442 19.8645 0.0242038
48.049 17.0383 0.0344652
47.6511 14.6364 0.0321212
44.7262 9.99883 0.0143093
45.989 12.742 0.0288785
41.0133 9.05719 0.0223078
42.4623 10.908 0.000158582
51.5605 32.9149 2
40.567 11.6239 2
43.8441 11.9104 2
50.6201 29.4026 2
50.3161 25.9493 2
49.7611 22.4545 2
45.7573 15.4255 2
47.449 19.5048 2
49.1332 31.5456 3.98659
48.6971 27.7147 3.97704
49.0618 24.5952 3.97893
47.0818 22.2402 3.98988
38.2996 12.7499 3.97696
42.0844 14.3157 3.97921
44.7585 18.603 3.97591
43.9897 37.4856 3.68934
45.5701 37.4864 2
47.9358 58.7022 0.0180868
48.4714 55.8625 0.0402168
49.2555 45.1147 0.0191911
49.1728 48.897 0.0293396
48.8561 52.5025 0.0239
45.0137 39.7904 0.145388
45.5034 42.492 0.106637
45.7678 45.5768 0.0166972
42.8418 41.0101 0.322609
41.5651 41.8052 0.52059
46.7607 57.3118 2
43.6331 39.3757 2
41.944 40.7473 2
47.4446 47.1403 2
46.9856 54.1744 2
47.2364 50.6535 2
44.3295 47.1969 2
44.205 41.8632 2
44.3107 44.3421 2
41.9234 42.4865 2
40.6158 42.1135 2
45.2972 55.8899 3.99928
42.2823 39.207 3.50614
40.4726 40.6118 3.61114
45.6496 48.7876 4.00231
45.2829 52.4352 3.98369
43.0402 48.1982 3.99408
42.9398 45.8424 3.88438
43.0305 43.5936 3.83332
40.6929 43.4411 3.69745
39.1724 42.3579 3.51069
45.43 58.7791 0.00525274
43.8358 57.6734 2
42.0614 56.2535 3.9866
35.4637 67.6465 0.0213164
37.6419 65.492 0.0242284
39.8943 63.5329 0.0239815
41.749 62.4677 0.0230742
42.467 59.9534 0.0189422
35.5735 65.4161 2
40.6196 61.6093 2
37.8376 63.1889 2
40.4313 58.1359 2
38.9084 56.3995 3.99351
38.2477 60.2934 3.98023
35.6072 63.1826 3.9731
33.576 65.3252 0.0249964
31.9604 63.2765 0.0236795
33.6303 63.3176 2
30.3804 62.8404 2
32.1297 61.9815 2
28.6879 62.1758 3.98003
33.348 61.4854 3.97835
31.0774 61.2034 3.98134
27.5924 59.5531 3.97998
23.827 59.0356 3.99232
25.0501 60.8313 3.97708
26.8812 61.4618 2
26.2356 63.4628 3.97648
28.0657 64.1321 2
27.465 66.1734 3.97964
29.8857 64.7044 0.0197457
29.4071 66.7493 2
28.9081 68.9383 3.9839
31.3779 67.1858 0.0207171
31.0146 69.413 2
30.6167 71.7773 3.99091
33.1576 69.7472 0.0153878
32.8929 72.1461 2
32.6054 74.6784 4
35.1957 72.3714 0.00800438
35.0474 74.9197 2
37.5 75 0
33.7252 6.98418 3.98355
35.4364 4.68727 3.98929
35.6226 6.72643 2
37.5155 2.38755 3.99318
37.5246 4.61639 2
39.6245 4.718 0.0106833
39.7896 2.4744 2
39.9526 0.0806499 4
42.0633 2.71845 0.00702226
42.3947 0.320817 2
44.8158 0.721173 0
43.5827 35.6219 3.68099
41.9592 34.2237 3.48464
46.5448 40.3064 0.103078
49.5598 38.5071 0.0155462
53.0397 36.6159 0.0220674
47.2045 37.7372 2
50.3736 35.5601 2
45.1123 35.1606 2
42.9251 33.9008 2
41.6271 33.1307 2
47.4066 34.3438 3.94374
44.2042 33.1334 3.83606
41.9165 32.5313 3.71709
40.613 32.8718 3.46525
37.3117 10.6342 3.9812
37.4605 8.53649 2
37.5175 6.67631 0.0145403
39.2111 8.69812 0.0180082
38.9796 10.1326 2
34.7565 10.3894 3.9804
35.9018 9.77412 2
32.3804 9.3754 3.97799
34.1527 8.82449 2
35.9434 8.49687 0.0161268
51.5497 32.9175 0.0176301
50.6015 29.4041 0.0224922
50.3206 25.9456 0.0294583
49.7712 22.4604 0.0149815
47.4468 19.4761 0.021334
45.7677 15.4755 0.011996
43.8453 11.9127 0.0203719
40.5644 11.6193 0.0172007
49.1531 31.5335 2
38.3008 12.7448 2
42.0895 14.3274 2
48.7001 27.7173 2
49.0551 24.5967 2
47.067 22.2374 2
44.7612 18.6668 2
47.0437 29.7053 3.98423
46.7441 25.3201 3.97082
44.2134 21.6082 3.97964
36.586 12.9629 3.97411
38.6797 14.8632 3.97438
41.7277 17.9422 3.97909
42.4433 37.4678 3.54271
44.0474 37.4864 2
45.4743 37.4818 0.148508
46.7633 57.3085 0.021388
46.9906 54.1708 0.0396025
47.4376 47.1448 0.0161688
47.2364 50.6473 0.0216759
43.5667 39.3493 0.322724
44.1532 41.8296 0.147854
44.2602 44.3123 0.108187
44.2952 47.2032 0.0182444
41.8671 42.4329 0.281492
41.9379 40.7333 0.504162
40.5842 42.1 0.533858
45.2937 55.8921 2
42.2845 39.2134 2
40.5048 40.5972 2
45.6483 48.8048 2
45.2779 52.4372 2
43.0758 48.2149 2
42.9967 45.8902 2
43.0823 43.6259 2
40.7346 43.506 2
39.1701 42.3731 2
43.6216 54.3521 3.99394
40.5764 39.0547 3.62985
39.0673 40.6863 3.58042
43.3684 50.2846 4.00363
41.6779 47.3507 3.92662
41.5905 44.9363 3.84519
39.3406 44.0935 3.66298
37.4987 42.4705 3.5513
43.8377 57.6667 0.0175225
42.0649 56.245 2
40.3749 54.8134 3.99504
35.573 65.4143 0.0238077
37.8374 63.1884 0.0269084
40.6196 61.61 0.0192658
40.4311 58.1317 0.0170514
35.6078 63.1819 2
38.2467 60.2953 2
38.9104 56.3859 2
37.9833 55.0804 3.99487
36.931 57.5851 3.99155
35.3647 60.8859 3.9791
33.6293 63.3163 0.0253801
30.3801 62.8385 0.0193365
32.1284 61.9793 0.0129238
33.3489 61.4856 2
28.6883 62.179 2
31.0786 61.2073 2
29.4208 60.2567 3.97596
32.3688 59.7039 3.99243
28.063 58.3384 4.01025
27.5942 59.5528 2
25.4151 58.554 3.98043
22.8121 58.1903 3.96791
23.42 60.3006 3.97828
23.8288 59.0357 2
25.0511 60.8304 2
24.4413 62.7457 3.97696
26.8806 61.4613 0.0212135
26.2359 63.4633 2
25.5501 65.4815 3.97829
28.0664 64.1337 0.021203
27.4643 66.1735 2
26.8379 68.3267 3.98393
29.4079 66.7492 0.0199728
28.9071 68.9381 2
28.3719 71.2626 3.99022
31.0154 69.4128 0.0154379
30.6156 71.7772 2
30.1842 74.2788 4
32.8938 72.1457 0.00858413
32.6053 74.6792 2
35.0474 74.9194 0
31.7897 7.42343 3.98205
33.3491 4.92718 3.98826
33.7251 6.98136 2
35.2459 2.46349 3.9932
35.4365 4.68655 2
35.622 6.72784 0.0151658
37.5 0 4
37.5151 2.38716 2
37.5243 4.61705 0.0103694
39.7898 2.47518 0.00694636
39.9526 0.0802889 2
42.3946 0.32156 0
42.2766 35.7269 3.4939
43.6599 35.591 2
40.5107 34.3502 3.61119
41.958 34.2065 2
47.2098 37.7623 0.0933368
50.3642 35.5653 0.0260386
45.0365 35.1819 0.14635
42.8831 33.9459 0.325027
41.599 33.1563 0.522082
47.4335 34.3639 2
44.2453 33.1033 2
41.9691 32.4754 2
40.6417 32.8578 2
45.5144 31.7564 3.90464
43.0765 31.3702 3.82736
40.7345 31.5276 3.69656
39.1932 32.6304 3.50605
35.6957 11.787 3.97625
37.3157 10.6322 2
37.4587 8.53698 0.0153495
38.9759 10.1345 0.0158481
33.1015 11.2278 3.97266
34.7556 10.3813 2
35.8998 9.7796 0.020253
30.486 10.0275 3.97729
32.3799 9.37438 2
34.1534 8.82912 0.0181069
49.1332 31.5456 0.0134066
48.6971 27.7147 0.0229552
49.0618 24.5952 0.0210667
47.0818 22.2402 0.0101243
44.7585 18.603 0.024093
42.0844 14.3157 0.0207899
38.2996 12.7499 0.0230352
36.5828 12.941 2
47.0532 29.6522 2
38.6773 14.8408 2
41.7194 17.9426 2
46.7456 25.32 2
44.1985 21.5823 2
45.0107 27.8463 4.00143
43.5839 24.2483 4.02809
41.2879 20.9575 3.9872
35.7718 14.8038 3.97699
38.6678 17.6718 3.983
40.633 37.4528 3.64544
42.454 37.4722 2
43.9897 37.4856 0.31066
45.2972 55.8899 0.000720164
45.2829 52.4352 0.0163082
45.6496 48.7876 -0.00230669
42.2823 39.207 0.493859
43.0305 43.5936 0.166678
42.9398 45.8424 0.115615
43.0402 48.1982 0.00592461
40.6929 43.4411 0.302555
40.4726 40.6118 0.38886
39.1724 42.3579 0.489311
43.6192 54.3486 2
40.5838 39.0544 2
39.068 40.6804 2
43.36 50.2978 2
41.6825 47.386 2
41.6129 44.981 2
37.4947 42.4914 2
39.3568 44.1579 2
41.7738 52.825 3.99882
39.0773 39.0898 3.59063
37.5029 40.7419 3.61139
35.8326 42.3681 3.50934
40.8096 49.429 3.99447
39.7236 45.6802 3.81594
37.4985 44.3571 3.69577
42.0614 56.2535 0.0134004
40.3738 54.8216 2
38.7231 53.6292 3.99641
35.6072 63.1826 0.0269049
38.2477 60.2934 0.0197742
38.9084 56.3995 0.00649138
35.3648 60.8814 2
36.932 57.5872 2
37.9845 55.08 2
36.3202 55.1542 3.99748
34.4968 58.4902 3.99458
33.348 61.4854 0.021648
28.6879 62.1758 0.0199712
31.0774 61.2034 0.0186574
32.3693 59.7075 2
29.4221 60.2558 2
30.3353 57.7798 3.98467
28.0658 58.3374 2
27.0275 56.7885 3.96746
27.5924 59.5531 0.0200157
25.4177 58.5536 2
23.9357 56.7478 3.95912
21.4233 57.3343 3.95892
22.0214 59.5717 3.97722
22.8139 58.1917 2
22.7478 61.9929 3.97328
23.421 60.3001 2
23.827 59.0356 0.00767996
25.0501 60.8313 0.0229227
24.4419 62.749 2
23.6858 64.6974 3.97581
26.2356 63.4628 0.023516
25.5493 65.4829 2
24.8104 67.5876 3.98269
27.465 66.1734 0.0203619
26.8368 68.3274 2
26.1672 70.6035 3.99011
28.9081 68.9383 0.0160987
28.3707 71.2623 2
27.7943 73.7221 4
30.6167 71.7773 0.0090853
30.1841 74.2794 2
32.6054 74.6784 0
29.8126 7.99957 3.98008
31.2545 5.33378 3.9873
31.7893 7.42204 2
32.982 2.70177 3.99278
33.3487 4.92552 2
33.7252 6.98418 0.0164538
35.0474 0.080333 4
35.2454 2.46323 2
35.4364 4.68727 0.0107072
37.5 0 2
37.5155 2.38755 0.00681917
39.9526 0.0806499 0
40.6201 35.8745 3.6326
42.2811 35.728 2
43.5827 35.6219 0.319008
28.5465 10.7027 3.97712
39.0788 34.3009 3.57817
40.5202 34.3598 2
41.9592 34.2237 0.515362
47.4066 34.3438 0.056263
44.2042 33.1334 0.163936
41.9165 32.5313 0.282914
40.613 32.8718 0.534753
45.5486 31.7381 2
43.1212 31.3356 2
40.7763 31.4625 2
39.1968 32.616 2
43.8819 29.9728 3.89799
41.6093 30.0243 3.84652
39.37 30.884 3.66171
37.5301 32.527 3.54963
34.0985 12.9524 3.97373
35.6955 11.7731 2
37.3117 10.6342 0.0187984
31.1915 11.9998 3.97734
33.1019 11.2275 2
34.7565 10.3894 0.0195993
30.4845 10.0232 2
32.3804 9.3754 0.0220101
47.0437 29.7053 0.0157662
46.7441 25.3201 0.0291801
36.586 12.9629 0.025893
44.2134 21.6082 0.0203627
41.7277 17.9422 0.0209096
38.6797 14.8632 0.0256153
35.7754 14.8125 2
45.0077 27.8437 2
38.666 17.6769 2
41.2712 20.9467 2
43.5723 24.2319 2
33.6148 15.9094 3.9839
42.7425 26.6833 3.98505
40.7814 23.5549 3.99556
38.3942 20.4432 3.99354
35.8467 17.5661 3.98089
39.0961 37.4872 3.60436
40.6333 37.4562 2
42.4433 37.4678 0.457294
43.6216 54.3521 0.00606025
43.3684 50.2846 -0.00363449
40.5764 39.0547 0.370148
41.5905 44.9363 0.154815
41.6779 47.3507 0.073376
39.3406 44.0935 0.337022
39.0673 40.6863 0.419582
37.4987 42.4705 0.4487
41.7651 52.8255 2
39.0706 39.0767 2
37.4998 40.7312 2
40.7944 49.4478 2
35.8301 42.3815 2
39.741 45.7381 2
37.4915 44.4184 2
39.7258 51.6228 4.00303
37.5072 39.0938 3.62771
35.9458 40.7014 3.58122
34.416 42.1173 3.46746
35.6568 44.1115 3.6521
38.6631 48.3285 3.93892
37.5278 45.9707 3.84685
40.3749 54.8134 0.00495511
38.7235 53.6191 2
36.7571 52.9356 3.99653
35.3647 60.8859 0.0208975
36.931 57.5851 0.00844569
37.9833 55.0804 0.00513488
34.4951 58.4865 2
36.3232 55.1431 2
33.2665 55.3517 3.99293
32.3688 59.7039 0.00757404
29.4208 60.2567 0.0240387
30.3375 57.7758 2
28.8185 55.283 3.98702
28.063 58.3384 -0.0102519
27.0307 56.7875 2
25.4606 55.0768 3.95758
21.9698 55.267 3.95968
25.4151 58.554 0.0195698
23.9378 56.7494 2
20.2949 56.9662 3.96281
20.6812 58.7271 3.96763
21.4254 57.3358 2
21.1827 61.1237 3.97401
22.0223 59.5727 2
22.8121 58.1903 0.0320868
21.9013 63.8191 3.97531
22.7489 61.9946 2
23.42 60.3006 0.0217248
24.4413 62.7457 0.0230366
23.6851 64.697 2
22.8389 66.7298 3.97997
25.5501 65.4815 0.0217064
24.8091 67.5881 2
24.0114 69.805 3.98998
26.8379 68.3267 0.0160704
26.1655 70.6035 2
25.446 73.0099 4
28.3719 71.2626 0.0097809
27.7943 73.7222 2
30.1842 74.2788 0
27.8225 8.65968 3.98014
29.1567 5.88069 3.98543
29.8115 7.99631 2
30.7276 3.09853 3.99252
31.254 5.33242 2
31.7897 7.42343 0.0179488
32.6053 0.320823 4
32.9812 2.70114 2
33.3491 4.92718 0.0117407
35.0474 0.0802903 2
35.2459 2.46349 0.00679933
37.5 0 0
39.0652 35.8942 3.59956
40.6024 35.8744 2
42.2766 35.7269 0.5061
28.545 10.6998 2
26.6252 11.3989 3.97771
29.2324 12.6525 3.98105
37.5223 34.2613 3.6103
39.0935 34.3175 2
40.5107 34.3502 0.388813
45.5144 31.7564 0.095365
43.0765 31.3702 0.172639
40.7345 31.5276 0.303437
39.1932 32.6304 0.493954
43.9141 29.9393 2
41.6391 29.9828 2
39.3777 30.8208 2
37.5312 32.5064 2
42.0356 28.6635 3.86802
39.7216 29.2879 3.8381
37.5243 30.6424 3.69665
35.8531 32.6333 3.5126
31.9265 14.4997 3.9798
34.0996 12.9586 2
35.6957 11.787 0.0237461
31.1902 11.9933 2
33.1015 11.2278 0.027344
30.486 10.0275 0.0227066
45.0107 27.8463 -0.00142624
43.5839 24.2483 -0.0280948
35.7718 14.8038 0.0230114
41.2879 20.9575 0.0127955
38.6678 17.6718 0.0170007
33.6105 15.8981 2
35.8405 17.5698 2
42.776 26.6641 2
38.3784 20.5089 2
40.7746 23.5311 2
33.5515 17.4482 3.98116
40.2097 25.9629 3.95501
38.0321 23.2916 3.99833
35.5682 20.195 3.99633
37.5129 37.4901 3.6433
39.0853 37.48 2
40.633 37.4528 0.354562
41.7738 52.825 0.0011771
40.8096 49.429 0.00552944
39.0773 39.0898 0.409367
39.7236 45.6802 0.184056
37.4985 44.3571 0.304228
37.5029 40.7419 0.388606
35.8326 42.3681 0.490663
39.7093 51.6291 2
37.5089 39.0894 2
35.9433 40.6906 2
38.6795 48.3862 2
34.3884 42.131 2
35.6358 44.1737 2
37.5226 46.0283 2
37.6802 50.6304 3.99568
35.9528 39.1022 3.59867
34.5359 40.6377 3.61388
33.4292 41.8252 3.48202
34.3079 43.4542 3.69255
35.2412 45.6997 3.83387
36.9236 47.9371 3.90372
38.7231 53.6292 0.00358894
36.7609 52.9175 2
34.4504 52.2648 3.99826
34.4968 58.4902 0.00541818
36.3202 55.1542 0.00252025
33.272 55.3609 2
30.658 53.2585 3.99301
30.3353 57.7798 0.0153274
28.8205 55.2786 2
27.0942 53.3651 3.95757
27.0275 56.7885 0.032544
25.464 55.0788 2
23.8174 53.383 3.9554
20.765 53.1096 3.95836
20.0642 55.756 3.96194
21.9681 55.2692 2
23.9357 56.7478 0.0408831
19.4873 57.8341 3.9638
20.2918 56.9685 2
19.7252 60.1506 3.97334
20.6795 58.729 2
21.4233 57.3343 0.0410752
20.2158 62.8322 3.9717
21.1835 61.125 2
22.0214 59.5717 0.0227815
20.9411 65.7559 3.97725
21.9011 63.8226 2
22.7478 61.9929 0.0267177
23.6858 64.6974 0.0241936
22.8376 66.7297 2
21.9141 68.8721 3.98927
24.8104 67.5876 0.0173071
24.0093 69.8043 2
23.1494 72.1454 4
26.1672 70.6035 0.00988666
25.446 73.0099 2
27.7943 73.7221 0
25.8617 9.38878 3.97936
27.0715 6.54519 3.98398
27.8209 8.65754 2
28.49 3.64453 3.99162
29.1558 5.87865 2
29.8126 7.99957 0.019919
30.1841 0.720592 4
30.7263 3.09816 2
31.2545 5.33378 0.0126987
32.6053 0.320817 2
32.982 2.70177 0.00722244
35.0474 0.080333 0
37.51 35.8923 3.62361
39.0501 35.8906 2
40.6201 35.8745 0.367396
24.7823 12.088 3.97593
23.7642 14.3869 3.9755
28.5465 10.7027 0.0228801
26.6237 11.3963 2
29.2303 12.6502 2
27.3002 13.3851 3.9787
29.7934 14.213 3.98151
35.9535 34.3035 3.58128
37.5296 34.2709 2
39.0788 34.3009 0.421826
37.5301 32.527 0.450368
43.8819 29.9728 0.102005
41.6093 30.0243 0.153476
39.37 30.884 0.338292
42.0671 28.6046 2
39.745 29.2328 2
37.5267 30.5819 2
35.8533 32.6201 2
39.8854 27.9234 3.88076
37.4865 29.0205 3.83906
35.6845 30.9015 3.665
34.4369 32.8849 3.46946
30.9413 16.8573 3.98719
31.9232 14.4885 2
34.0985 12.9524 0.0262699
31.1915 11.9998 0.0226623
42.7425 26.6833 0.0149483
40.7814 23.5549 0.00443928
33.6148 15.9094 0.0160984
35.8467 17.5661 0.0191058
38.3942 20.4432 0.00645811
33.5468 17.4624 2
35.5829 20.1842 2
40.282 25.9487 2
38.0164 23.2498 2
32.8822 19.8456 3.99596
37.6557 25.6036 3.96828
35.2338 22.9435 4.00202
35.9325 37.4885 3.60664
37.5061 37.4898 2
39.0961 37.4872 0.395641
39.7258 51.6228 -0.00303353
38.6631 48.3285 0.0610779
37.5072 39.0938 0.372293
37.5278 45.9707 0.153149
35.6568 44.1115 0.347897
35.9458 40.7014 0.418775
34.416 42.1173 0.532535
37.6639 50.6649 2
35.9694 39.0901 2
34.5043 40.6295 2
36.908 47.9973 2
33.3946 41.8515 2
34.2688 43.5161 2
35.2203 45.7522 2
35.5642 49.8185 3.98667
34.4299 39.0967 3.63134
33.0661 40.7588 3.49001
33.1228 42.4487 3.72212
33.4368 44.9441 3.83638
34.4649 47.0826 3.87599
36.7571 52.9356 0.00347297
34.4447 52.2759 2
32.2248 51.0592 4.01176
33.2665 55.3517 0.0070688
30.6618 53.2614 2
28.689 51.476 3.98659
28.8185 55.283 0.012975
27.096 53.3641 2
25.3901 51.621 3.95344
25.4606 55.0768 0.0424229
23.8178 53.3878 2
22.329 51.674 3.95138
19.6126 51.5019 3.9611
19.1543 54.2116 3.96122
20.7664 53.1087 2
18.541 56.6576 3.96331
20.0615 55.7579 2
21.9698 55.267 0.0403247
18.3935 59.0631 3.96631
19.4846 57.8359 2
20.2949 56.9662 0.0371929
18.6305 61.721 3.97179
19.7251 60.1532 2
20.6812 58.7271 0.0323725
19.1303 64.6663 3.97632
20.2161 62.8354 2
21.1827 61.1237 0.0259917
19.8884 67.8084 3.98719
20.9396 65.7548 2
21.9013 63.8191 0.0246943
22.8389 66.7298 0.0200292
21.9116 68.8708 2
20.9142 71.1327 4
24.0114 69.805 0.0100151
23.1494 72.1455 2
25.446 73.0099 0
23.1046 12.8061 3.97729
23.9751 10.1784 3.97714
25.0251 7.31612 3.9827
25.8598 9.38701 2
26.2819 4.32866 3.99071
27.0701 6.54385 2
27.8225 8.65968 0.0198641
27.7943 1.27781 4
28.4881 3.64425 2
29.1567 5.88069 0.0145695
30.1841 0.720551 2
30.7276 3.09853 0.00748284
32.6053 0.320823 0
35.9397 35.8835 3.58961
37.5269 35.9011 2
39.0652 35.8942 0.400444
24.779 12.0826 2
23.7646 14.3916 2
22.497 15.0754 3.97922
25.3682 13.93 3.97183
24.0504 15.6472 3.98518
26.6252 11.3989 0.0222882
29.2324 12.6525 0.0189451
27.3 13.3831 2
29.7887 14.2099 2
28.3773 15.9824 3.98378
34.5528 34.3701 3.60998
35.9506 34.3089 2
37.5223 34.2613 0.389696
35.8531 32.6333 0.487403
37.5243 30.6424 0.303353
42.0356 28.6635 0.131979
39.7216 29.2879 0.161902
39.9182 27.8813 2
37.4829 28.9629 2
35.6695 30.8326 2
34.4048 32.874 2
37.6212 27.6536 3.87592
35.2897 29.3047 3.83602
34.3163 31.546 3.69241
33.4485 33.1739 3.47959
30.2287 19.4315 3.98312
30.9364 16.8457 2
31.9265 14.4997 0.0201992
40.2097 25.9629 0.0449893
38.0321 23.2916 0.00167046
33.5515 17.4482 0.0188437
35.5682 20.195 0.00367483
32.8807 19.8696 2
35.236 22.9288 2
37.7143 25.5799 2
32.4137 22.5803 3.99765
35.1109 25.5197 3.99073
34.385 37.5076 3.64841
35.934 37.4963 2
37.5129 37.4901 0.356697
37.6802 50.6304 0.00431562
36.9236 47.9371 0.0962794
35.9528 39.1022 0.401334
35.2412 45.6997 0.166132
34.3079 43.4542 0.307452
34.5359 40.6377 0.386122
33.4292 41.8252 0.517979
35.5449 49.8308 2
34.4282 39.0938 2
33.0615 40.7722 2
34.4482 47.1329 2
33.0805 42.5039 2
33.4102 44.9883 2
33.406 48.9014 3.97461
32.7375 39.2472 3.49768
32.1408 41.0345 3.67719
31.9575 43.6095 3.83252
32.6309 46.0665 3.87839
34.4504 52.2648 0.00173935
32.2307 51.07 2
30.2205 49.6328 4.00133
30.658 53.2585 0.0069945
28.6904 51.4702 2
26.8989 49.8439 3.97273
27.0942 53.3651 0.0424313
25.3902 51.6229 2
23.7747 50.0316 3.9626
23.8174 53.383 0.044598
22.3297 51.672 2
20.9359 50.1625 3.96445
18.4012 50.2027 3.96954
18.17 52.6785 3.96366
19.6119 51.5009 2
17.6182 55.2581 3.96231
19.1521 54.2116 2
20.765 53.1096 0.0416446
17.1862 57.8222 3.96097
18.5364 56.6592 2
20.0642 55.756 0.0380643
17.1478 60.5059 3.96702
18.3927 59.0643 2
19.4873 57.8341 0.0362026
17.4128 63.4483 3.96984
18.6311 61.7226 2
19.7252 60.1506 0.0266567
17.9446 66.6158 3.98565
19.1293 64.6636 2
20.2158 62.8322 0.0282961
18.75 69.9759 4
19.8858 67.806 2
20.9411 65.7559 0.022746
21.9141 68.8721 0.0107289
20.9142 71.1327 2
23.1494 72.1454 0
21.5994 13.634 3.97495
22.1948 11.0421 3.97356
23.1024 12.8114 2
23.0428 8.18293 3.98052
23.9722 10.1764 2
24.1196 5.14347 3.99002
25.0233 7.31517 2
25.8617 9.38878 0.0206352
25.446 1.99014 4
26.2794 4.329 2
27.0715 6.54519 0.0160171
27.7943 1.27778 2
28.49 3.64453 0.0083846
30.1841 0.720592 0
34.4502 35.9133 3.62858
35.95 35.8992 2
37.51 35.8923 0.376391
21.3315 15.8826 3.98165
24.7823 12.088 0.0240723
23.7642 14.3869 0.0245014
25.3674 13.9189 2
22.4986 15.0708 2
24.054 15.6536 2
23.2986 16.2826 3.96926
25.4072 16.1173 3.98352
27.3002 13.3851 0.0212968
29.7934 14.213 0.0184885
28.3722 15.99 2
27.4712 18.8524 3.98296
33.0785 34.2478 3.49755
34.5207 34.3843 2
35.9535 34.3035 0.418718
34.4369 32.8849 0.530539
35.6845 30.9015 0.335003
37.4865 29.0205 0.160941
39.8854 27.9234 0.119244
37.5947 27.6147 2
33.4171 33.1502 2
35.2902 29.2417 2
34.2752 31.4803 2
35.1896 27.7519 3.89073
33.4349 30.0483 3.83764
33.1481 32.5486 3.71837
29.7261 22.0329 4.00533
30.2306 19.4358 2
30.9413 16.8573 0.0128078
37.6557 25.6036 0.0317232
35.2338 22.9435 -0.00202415
32.8822 19.8456 0.00403588
32.4202 22.573 2
35.1421 25.5092 2
31.9853 25.8435 4.00557
32.5678 37.506 3.54229
34.3969 37.5023 2
35.9325 37.4885 0.393355
35.5642 49.8185 0.0133265
34.4649 47.0826 0.124015
34.4299 39.0967 0.36866
33.4368 44.9441 0.163619
33.1228 42.4487 0.27788
33.0661 40.7588 0.509992
33.3935 48.9025 2
32.7464 39.2536 2
32.101 41.076 2
32.5974 46.1157 2
31.911 43.6419 2
31.5644 47.7491 3.97989
31.4394 39.3662 3.68122
30.8258 41.8553 3.84196
31.0197 44.702 3.89095
32.2248 51.0592 -0.0117591
30.2269 49.6607 2
28.3698 48.0189 3.96367
28.689 51.476 0.0134129
26.8982 49.8451 2
25.1778 48.2885 3.96615
25.3901 51.621 0.0465563
23.776 50.0304 2
22.2179 48.611 3.97089
22.329 51.674 0.0486234
20.9344 50.1617 2
19.5147 48.9471 3.97338
17.28 49.2162 3.97471
17.1175 51.2981 3.96855
18.4038 50.2012 2
16.6265 53.7813 3.96503
18.1686 52.6781 2
19.6126 51.5019 0.0388988
16.0793 56.4165 3.96236
17.6167 55.2587 2
19.1543 54.2116 0.0387848
15.7643 59.1754 3.96455
17.1821 57.8242 2
18.541 56.6576 0.0366889
15.7934 62.1048 3.96831
17.1488 60.5081 2
18.3935 59.0631 0.0336875
16.0914 65.2984 3.98364
17.4114 63.4547 2
18.6305 61.721 0.0282072
16.6661 68.6801 4
17.942 66.6135 2
19.1303 64.6663 0.0236795
18.75 69.9759 2
19.8884 67.8084 0.0128086
20.9142 71.1327 0
20.234 14.6463 3.96876
21.5978 13.6458 2
20.536 12.0209 3.97455
21.1461 9.15548 3.97831
22.1916 11.0406 2
23.1046 12.8061 0.0227062
22.0187 6.08228 3.98961
23.0403 8.18186 2
23.9751 10.1784 0.0228555
23.1494 2.85457 4
24.1166 5.14431 2
25.0251 7.31612 0.0172992
25.446 1.99012 2
26.2819 4.32866 0.00928869
27.7943 1.27781 0
32.7288 35.769 3.5059
34.4409 35.9136 2
35.9397 35.8835 0.410391
21.3343 15.8754 2
20.3433 17.0096 3.96921
22.131 16.6808 3.96719
25.3682 13.93 0.0281689
22.497 15.0754 0.0207757
24.0504 15.6472 0.014818
25.4099 16.1084 2
23.3027 16.2802 2
24.2487 18.5534 3.96832
27.1601 21.6419 3.99423
28.3773 15.9824 0.0162157
27.4668 18.9001 2
32.1796 33.9713 3.67195
33.077 34.2305 2
34.5528 34.3701 0.390025
33.4485 33.1739 0.520411
34.3163 31.546 0.307595
35.2897 29.3047 0.163979
37.6212 27.6536 0.12408
35.1911 27.7022 2
33.0739 32.4959 2
33.4054 30.0088 2
32.8812 28.4029 3.90008
31.9673 31.3923 3.82359
29.1138 24.5268 4.00223
29.722 22.0476 2
30.2287 19.4315 0.0168785
35.1109 25.5197 0.00926975
32.4137 22.5803 0.00235231
31.9766 25.8159 2
30.1003 27.4961 3.97807
31.0244 37.4979 3.68619
32.5733 37.505 2
34.385 37.5076 0.351594
33.406 48.9014 0.0253904
32.6309 46.0665 0.121615
32.7375 39.2472 0.502318
31.9575 43.6095 0.167484
32.1408 41.0345 0.322812
31.5173 47.7725 2
31.3653 39.3898 2
30.7859 41.8857 2
30.9752 44.7418 2
29.7904 46.3577 3.99173
29.9803 39.8111 3.85658
29.5095 42.9666 3.89896
30.2205 49.6328 -0.00133205
28.3654 48.0164 2
26.5856 46.4578 3.98237
26.8989 49.8439 0.0272687
25.1786 48.2866 2
23.4635 46.876 3.97373
23.7747 50.0316 0.0374007
22.2168 48.6113 2
20.5168 47.4567 3.97656
20.9359 50.1625 0.03555
19.5151 48.9457 2
18.1103 48.0496 3.97696
16.5128 48.5765 3.97654
17.2812 49.2151 2
16.1857 50.0694 3.97286
15.6392 52.3282 3.96848
17.1192 51.2971 2
18.4012 50.2027 0.0304599
15.0279 54.911 3.96374
16.6282 53.7808 2
18.17 52.6785 0.0363353
14.4925 57.7063 3.96209
16.0796 56.4169 2
17.6182 55.2581 0.0376857
14.2712 60.6695 3.96804
15.7665 59.1764 2
17.1862 57.8222 0.0390286
14.3361 63.8553 3.97934
15.7941 62.1072 2
17.1478 60.5059 0.0329762
14.6715 67.2507 4
16.0887 65.2948 2
17.4128 63.4483 0.0301564
16.6661 68.6801 2
17.9446 66.6158 0.0143539
18.75 69.9759 0
18.9538 15.829 3.97623
20.2352 14.6429 2
18.9893 13.1431 3.97388
21.5994 13.634 0.0250506
20.5343 12.0233 2
19.3464 10.2461 3.97601
19.9937 7.14744 3.98801
21.1428 9.15504 2
22.1948 11.0421 0.0264444
20.9142 3.86727 4
22.015 6.08368 2
23.0428 8.18293 0.0194778
23.1494 2.85451 2
24.1196 5.14347 0.00998151
25.446 1.99014 0
31.4639 35.6392 3.67694
32.7334 35.7612 2
34.4502 35.9133 0.371423
21.3315 15.8826 0.0183466
22.1339 16.6739 2
20.3455 17.0045 2
19.3343 18.4744 3.95659
21.8244 17.9316 3.97855
25.4072 16.1173 0.016476
23.2986 16.2826 0.0307443
24.24 18.5768 2
22.4148 19.9984 3.96931
24.7418 21.5134 3.9862
26.7331 23.8127 3.98086
27.1697 21.567 2
27.4712 18.8524 0.0170435
30.8816 33.1561 3.84826
32.1396 33.9201 2
33.0785 34.2478 0.502451
33.1481 32.5486 0.281633
33.4349 30.0483 0.162364
35.1896 27.7519 0.109267
32.841 28.3717 2
31.9108 31.3514 2
30.7107 29.7871 3.92665
28.364 26.6836 3.99657
29.0984 24.5333 2
29.7261 22.0329 -0.00533347
31.9853 25.8435 -0.00556794
30.0922 27.4737 2
29.5315 37.4969 3.85249
30.9635 37.4963 2
32.5678 37.506 0.457711
31.5644 47.7491 0.0201101
31.0197 44.702 0.109051
31.4394 39.3662 0.318778
30.8258 41.8553 0.158041
29.7947 46.3577 2
29.9081 39.8241 2
29.4782 43.0016 2
28.0568 44.6835 3.97014
27.74 40.5354 3.93304
28.3698 48.0189 0.0363325
26.5835 46.4565 2
24.7681 44.9909 3.97856
25.1778 48.2885 0.0338481
23.4617 46.8756 2
21.5385 45.7327 3.97779
22.2179 48.611 0.0291115
20.517 47.4558 2
18.8396 46.6 3.97673
19.5147 48.9471 0.0266194
18.111 48.0484 2
16.7494 47.5996 3.97646
16.5143 48.5755 2
15.531 48.9208 3.97564
17.28 49.2162 0.0252855
16.1876 50.0685 2
14.7537 50.9039 3.97187
14.0011 53.3716 3.96641
15.6406 52.3275 2
17.1175 51.2981 0.0314546
13.3214 56.1323 3.9621
15.0284 54.911 2
16.6265 53.7813 0.0349672
12.8574 59.1086 3.96656
14.4962 57.7062 2
16.0793 56.4165 0.0376386
12.682 62.2971 3.97656
14.2728 60.6697 2
15.7643 59.1754 0.035445
12.7746 65.6939 4
14.3337 63.8515 2
15.7934 62.1048 0.0316882
14.6714 67.2507 2
16.0914 65.2984 0.0163642
16.6661 68.6801 0
17.7103 17.2058 3.96351
18.9538 15.8267 2
17.5253 14.4134 3.96921
20.234 14.6463 0.0312357
18.9884 13.1475 2
17.6428 11.4659 3.97338
20.536 12.0209 0.0254458
19.3429 10.2471 2
18.054 8.34047 3.98595
18.75 5.0241 4
19.9893 7.14967 2
21.1461 9.15548 0.0216865
20.9142 3.86727 2
22.0187 6.08228 0.0103945
23.1494 2.85457 0
30.0089 35.2011 3.85524
31.3928 35.6154 2
32.7288 35.769 0.494105
22.131 16.6808 0.0328116
20.3433 17.0096 0.0307868
21.8232 17.9309 2
19.3294 18.4685 2
18.1653 20.0287 3.96165
20.9968 19.4695 3.96596
24.2487 18.5534 0.0316797
22.4074 20.0056 2
24.75 21.496 2
22.5821 21.8435 3.98158
25.0077 23.2514 3.97223
25.9666 26.06 3.97895
26.7305 23.8055 2
27.1601 21.6419 0.00577023
29.2716 32.5024 3.89952
30.8164 33.1208 2
32.1796 33.9713 0.328053
31.9673 31.3923 0.176408
32.8812 28.4029 0.099924
30.6886 29.7766 2
27.7164 29.262 4.01478
28.3503 26.6942 2
29.1138 24.5268 -0.00223033
30.1003 27.4961 0.0219286
27.8768 37.3602 3.90229
29.4594 37.4889 2
31.0244 37.4979 0.313813
29.7904 46.3577 0.00827279
29.5095 42.9666 0.101036
29.9803 39.8111 0.143421
28.0511 44.7399 2
27.7091 40.5307 2
26.1396 43.0375 3.98862
25.0073 39.4433 3.97222
26.5856 46.4578 0.0176309
24.7576 44.993 2
22.6803 43.7725 3.97656
23.4635 46.876 0.0262682
21.5351 45.7341 2
19.6044 44.8379 3.97638
20.5168 47.4567 0.0234412
18.8395 46.6004 2
17.1047 46.0973 3.97635
18.1103 48.0496 0.0230373
16.7506 47.5988 2
15.2945 47.5746 3.97623
16.5128 48.5765 0.0234587
15.5329 48.9199 2
14.063 49.4702 3.97428
16.1857 50.0694 0.0271372
14.755 50.9033 2
13.0721 51.8165 3.96873
12.2262 54.4928 3.96348
14.0019 53.3712 2
15.6392 52.3282 0.0315194
11.5442 57.4466 3.96573
13.3219 56.1324 2
15.0279 54.911 0.0362565
11.137 60.6227 3.97416
12.8592 59.1081 2
14.4925 57.7063 0.0379055
10.9835 64.0165 4
12.6803 62.2925 2
14.2712 60.6695 0.0319627
12.7745 65.694 2
14.3361 63.8553 0.02066
14.6715 67.2507 0
16.5107 18.7134 3.96173
17.7098 17.2037 2
16.1199 15.8198 3.96658
18.9538 15.829 0.0237693
17.5244 14.4099 2
16.0269 12.8344 3.97155
18.9893 13.1431 0.0261188
17.6409 11.4713 2
16.2049 9.66464 3.98363
19.3464 10.2461 0.0239895
18.0492 8.34461 2
16.6661 6.31991 4
18.75 5.02404 2
19.9937 7.14744 0.011986
20.9142 3.86727 0
28.4025 34.845 3.89977
29.9277 35.1682 2
31.4639 35.6392 0.32306
16.9009 21.4652 3.96709
21.8244 17.9316 0.0214517
19.3343 18.4744 0.0434064
20.9905 19.4659 2
18.1631 20.026 2
19.9795 21.6829 3.97101
22.4148 19.9984 0.0306899
24.7418 21.5134 0.0137981
22.5772 21.8495 2
25.0011 23.2529 2
23.2832 24.7241 3.97196
25.2652 28.6599 3.98369
25.9589 26.0646 2
26.7331 23.8127 0.0191376
27.1242 31.8612 3.9824
29.2364 32.4813 2
30.8816 33.1561 0.151736
30.7107 29.7871 0.0733516
27.7281 29.2409 2
28.364 26.6836 0.00342756
25.7019 36.8507 3.97005
27.8585 37.365 2
29.5315 37.4969 0.147511
28.0568 44.6835 0.0298641
27.74 40.5354 0.0669562
26.1166 43.0589 2
24.9836 39.4476 2
23.8916 41.7863 3.98239
22.7271 38.5234 3.97921
24.7681 44.9909 0.0214359
22.6781 43.7726 2
20.4808 42.788 3.97547
21.5385 45.7327 0.0222115
19.6047 44.8385 2
17.5109 44.2765 3.97577
18.8396 46.6 0.0232692
17.1054 46.0975 2
15.2562 45.9979 3.97598
16.7494 47.5996 0.0235409
15.2961 47.5738 2
13.5927 47.9359 3.97563
15.531 48.9208 0.0243623
14.0646 49.4695 2
12.3028 50.1993 3.97072
14.7537 50.9039 0.0281342
13.0731 51.8159 2
11.2239 52.806 3.965
10.3354 55.7036 3.96496
12.2267 54.4925 2
14.0011 53.3716 0.0335886
9.70379 58.8458 3.97388
11.5452 57.4463 2
13.3214 56.1323 0.0378979
9.30605 62.2254 4
11.1357 60.6186 2
12.8574 59.1086 0.033443
10.9835 64.0165 2
12.682 62.2971 0.0234355
12.7746 65.6939 0
15.298 20.2522 3.96358
16.5105 18.7129 2
14.779 17.3405 3.96351
17.7103 17.2058 0.0364858
16.1212 15.8182 2
14.4904 14.3207 3.96716
17.5253 14.4134 0.0307903
16.0259 12.8301 2
14.4474 11.1166 3.98123
17.6428 11.4659 0.0266242
16.2007 9.6702 2
14.6715 7.74927 4
18.054 8.34047 0.0140504
16.6661 6.31988 2
18.75 5.0241 0
26.363 34.3527 3.97614
28.3848 34.8528 2
30.0089 35.2011 0.144762
18.1517 22.4291 3.97396
15.8025 23.0093 3.97072
16.9027 21.4647 2
20.9968 19.4695 0.03404
18.1653 20.0287 0.0383501
19.9773 21.6808 2
20.0921 24.5205 3.97203
22.5821 21.8435 0.0184169
25.0077 23.2514 0.0277744
23.2796 24.7256 2
22.6288 27.9881 3.97176
24.6893 31.3497 3.98202
25.2704 28.6524 2
25.9666 26.06 0.0210541
27.0992 31.8234 2
29.2716 32.5024 0.100479
27.7164 29.262 -0.0147772
23.4548 36.291 3.98291
25.684 36.849 2
27.8768 37.3602 0.097706
26.1396 43.0375 0.0113838
25.0073 39.4433 0.0277843
23.8716 41.7852 2
22.7147 38.5199 2
21.5781 40.6054 3.97491
20.9337 37.8024 3.97713
22.6803 43.7725 0.0234448
20.4798 42.7888 2
17.9888 42.0251 3.97574
19.6044 44.8379 0.0236185
17.511 44.277 2
15.305 44.1177 3.97564
17.1047 46.0973 0.0236481
15.2569 45.9977 2
13.291 46.2258 3.97583
15.2945 47.5746 0.0237685
13.5943 47.9352 2
11.6929 48.4997 3.97249
14.063 49.4702 0.025725
12.3042 50.1985 2
10.355 51.0528 3.96617
13.0721 51.8165 0.0312688
11.2247 52.8054 2
9.24478 53.885 3.96476
8.38745 56.98 3.97485
10.3371 55.7028 2
12.2262 54.4928 0.036518
7.74927 60.3285 4
9.70274 58.8416 2
11.5442 57.4466 0.0342674
9.306 62.2255 2
11.137 60.6227 0.0258402
10.9835 64.0165 0
14.1306 21.8156 3.96684
15.2958 20.2514 2
13.5058 18.9375 3.96318
16.5107 18.7134 0.0382716
14.7804 17.3394 2
13.035 15.9069 3.96961
16.1199 15.8198 0.0334211
14.4912 14.319 2
12.7852 12.6924 3.97824
16.0269 12.8344 0.0284545
14.4444 11.1233 2
12.7746 9.30605 4
16.2049 9.66464 0.0163681
14.6715 7.74924 2
16.6661 6.31991 0
24.0375 33.8801 3.98152
26.3425 34.3498 2
28.4025 34.845 0.100228
18.0237 24.1616 3.97225
18.1585 22.4294 2
14.6386 24.5395 3.97281
15.8048 23.0092 2
16.9009 21.4652 0.0329145
19.6172 27.3583 3.97424
19.9795 21.6829 0.0289896
20.0874 24.5197 2
21.999 30.8178 3.97464
23.2832 24.7241 0.0280395
22.6283 27.9903 2
24.6576 31.3452 2
25.2652 28.6599 0.0163096
27.1242 31.8612 0.0176038
21.0572 35.9662 3.97642
23.455 36.2923 2
25.7019 36.8507 0.0299452
23.8916 41.7863 0.0176142
22.7271 38.5234 0.0207868
21.5819 40.6068 2
20.9338 37.8004 2
18.7481 38.9887 3.97701
20.4808 42.788 0.0245349
17.9881 42.0254 2
15.2905 41.8655 3.97608
17.5109 44.2765 0.0242265
15.3048 44.1178 2
13.0566 44.3308 3.97598
15.2562 45.9979 0.024022
13.2926 46.2251 2
11.2079 46.6886 3.97432
13.5927 47.9359 0.0243726
11.6948 48.4988 2
9.62547 49.215 3.96718
12.3028 50.1993 0.0292831
10.3554 51.0521 2
8.27738 51.9995 3.96462
11.2239 52.806 0.0350036
9.24634 53.8837 2
7.19645 55.0317 3.97594
6.31991 58.3339 4
8.38656 56.9761 2
10.3354 55.7036 0.0350422
7.74924 60.3285 2
9.70379 58.8458 0.0261228
9.30605 62.2254 0
13.5041 25.4355 3.97574
13.0329 23.343 3.96989
14.1293 21.8152 2
12.3166 20.5855 3.96384
15.298 20.2522 0.0364209
13.507 18.9367 2
11.6677 17.5806 3.96775
14.779 17.3405 0.0364866
13.0378 15.9063 2
11.2234 14.3782 3.97466
14.4904 14.3207 0.032835
12.7828 12.6977 2
10.9835 10.9835 4
14.4474 11.1166 0.0187651
12.7745 9.306 2
14.6715 7.74927 0
21.407 33.4913 3.97622
24.0408 33.8666 2
26.363 34.3527 0.023862
16.3544 26.5155 3.97389
18.0274 24.1618 2
18.1517 22.4291 0.0260353
14.6381 24.5396 2
15.8025 23.0093 0.0292828
19.0188 30.3136 3.97473
19.6172 27.3585 2
20.0921 24.5205 0.0279746
22.0152 30.8187 2
22.6288 27.9881 0.028237
24.6893 31.3497 0.0179811
18.3561 35.9978 3.97756
21.0592 35.9661 2
23.4548 36.291 0.0170928
21.5781 40.6054 0.0250941
20.9337 37.8024 0.0228655
18.7461 38.988 2
14.7873 39.1609 3.97701
17.9888 42.0251 0.0242649
15.2898 41.8652 2
12.7531 42.2365 3.97641
15.305 44.1177 0.0243607
13.0576 44.3304 2
10.7945 44.7639 3.97596
13.291 46.2258 0.0241707
11.2102 46.6877 2
9.01199 47.297 3.96833
11.6929 48.4997 0.0275124
9.62617 49.2143 2
7.44299 50.0335 3.96458
10.355 51.0528 0.0338325
8.27759 51.9983 2
6.13705 53.0074 3.97623
9.24478 53.885 0.0352379
7.19587 55.0285 2
5.0241 56.25 4
6.31988 58.3339 2
8.38745 56.98 0.0251545
7.74927 60.3285 0
13.7828 26.892 3.9755
12.1435 24.8428 3.97254
13.5031 25.4355 2
11.2441 22.2689 3.96564
13.0335 23.3433 2
14.1306 21.8156 0.0331563
12.3177 20.5851 2
10.4004 19.3293 3.96628
13.5058 18.9375 0.0368176
11.6703 17.5806 2
9.76404 16.1613 3.97414
13.035 15.9069 0.0303902
11.2218 14.3838 2
9.30607 12.7746 4
12.7852 12.6924 0.0217616
10.9835 10.9835 2
12.7746 9.30605 0
18.5145 33.186 3.97618
21.4062 33.4946 2
24.0375 33.8801 0.0184776
15.9766 29.7455 3.97558
16.3535 26.5156 2
18.0237 24.1616 0.0277461
14.6386 24.5395 0.0271885
19.0173 30.3138 2
19.6172 27.3583 0.0257605
21.999 30.8178 0.0253574
15.4203 36.0366 3.97722
18.3553 35.9983 2
21.0572 35.9662 0.0235803
12.9831 37.8292 3.97705
18.7481 38.9887 0.0229943
14.7867 39.1608 2
12.2544 40.1197 3.97673
15.2905 41.8655 0.0239211
12.7539 42.2361 2
10.3972 42.7488 3.97652
13.0566 44.3308 0.0240237
10.7968 44.7631 2
8.49117 45.3026 3.96908
11.2079 46.6886 0.0256846
9.01255 47.2964 2
6.73376 47.9987 3.96474
9.62547 49.215 0.0328208
7.44333 50.0324 2
5.2137 50.9108 3.97598
8.27738 51.9995 0.0353828
6.1369 53.0051 2
3.86727 54.0858 4
7.19645 55.0317 0.0240614
5.02404 56.25 2
6.31991 58.3339 0
13.2661 29.1034 3.97514
11.5903 26.5384 3.97341
13.7818 26.8921 2
10.3003 23.9966 3.96741
12.1454 24.8434 2
13.5041 25.4355 0.0242554
9.25438 21.1435 3.9655
11.2456 22.2691 2
13.0329 23.343 0.0301095
12.3166 20.5855 0.0361628
10.403 19.3294 2
8.4201 18.0318 3.97424
11.6677 17.5806 0.0322543
9.76302 16.1665 2
7.74928 14.6715 4
11.2234 14.3782 0.0253369
9.30602 12.7745 2
10.9835 10.9835 0
14.9655 32.9207 3.9764
18.5132 33.1852 2
21.407 33.4913 0.0237778
15.9774 29.7458 2
16.3544 26.5155 0.0261098
19.0188 30.3136 0.0252716
13.283 36.2214 3.97676
15.4195 36.0365 2
18.3561 35.9978 0.0224371
12.9832 37.829 2
11.5831 38.3052 3.97709
14.7873 39.1609 0.0229948
12.2556 40.1196 2
9.97609 40.7369 3.9768
12.7531 42.2365 0.0235904
10.4007 42.7478 2
8.03778 43.2561 3.96979
10.7945 44.7639 0.0240429
8.49328 45.302 2
6.13927 45.9039 3.96525
9.01199 47.297 0.031671
6.73415 47.9978 2
4.42499 48.7514 3.97557
7.44299 50.0335 0.0354228
5.21376 50.9095 2
2.85457 51.8506 4
6.13705 53.0074 0.0237747
3.86727 54.0858 2
5.0241 56.25 0
12.3967 31.3058 3.97607
11.0019 28.4582 3.97455
13.2665 29.1038 2
9.51664 25.8229 3.96825
11.5921 26.5389 2
13.7828 26.892 0.0244966
8.24163 23.0258 3.96524
10.3012 23.9969 2
12.1435 24.8428 0.027462
7.20242 19.9802 3.97571
9.26007 21.1449 2
11.2441 22.2689 0.0343579
10.4004 19.3293 0.0337223
8.41966 18.036 2
6.31992 16.6661 4
9.76404 16.1613 0.0258623
7.74926 14.6714 2
9.30607 12.7746 0
12.4352 34.3232 3.97648
14.965 32.9214 2
18.5145 33.186 0.0238243
15.9766 29.7455 0.0244172
11.1202 36.619 3.97684
13.283 36.2214 2
15.4203 36.0366 0.0227809
12.9831 37.8292 0.0229535
11.5848 38.3048 2
9.55713 38.8172 3.97699
12.2544 40.1197 0.0232698
9.97915 40.7363 2
7.64374 41.2025 3.97058
10.3972 42.7488 0.0234832
8.03823 43.2557 2
5.65043 43.767 3.96605
8.49117 45.3026 0.030923
6.13957 45.9031 2
3.77032 46.5369 3.97568
6.73376 47.9987 0.0352614
4.42527 48.7506 2
1.99014 49.554 4
5.2137 50.9108 0.0240202
2.85451 51.8506 2
3.86727 54.0858 0
11.2089 32.9522 3.97664
10.3065 30.4157 3.97533
12.3975 31.3065 2
8.82489 27.753 3.96862
11.0041 28.4588 2
13.2661 29.1034 0.0248558
7.36463 24.9835 3.96508
9.51714 25.8233 2
11.5903 26.5384 0.0265873
6.11929 22.0024 3.97647
8.24311 23.0268 2
10.3003 23.9966 0.0325937
5.02411 18.75 4
7.20188 19.9834 2
9.25438 21.1435 0.0345036
8.4201 18.0318 0.0257622
6.3199 16.6661 2
7.74928 14.6715 0
10.7075 35.0157 3.9767
12.4352 34.3235 2
14.9655 32.9207 0.0235962
9.21518 36.9874 3.97698
11.1221 36.619 2
13.283 36.2214 0.0232377
11.5831 38.3052 0.0229069
9.5604 38.8171 2
7.31842 39.1782 3.97094
9.97609 40.7369 0.0231976
7.64501 41.2022 2
5.26525 41.6131 3.96647
8.03778 43.2561 0.0302141
5.65075 43.7664 2
3.24774 44.2816 3.97633
6.13927 45.9039 0.0347516
3.77068 46.5362 2
1.27781 47.2057 4
4.42499 48.7514 0.0244305
1.99012 49.554 2
2.85457 51.8506 0
10.3426 33.9028 3.97654
9.58507 32.1783 3.9761
11.211 32.9528 2
8.16613 29.712 3.96917
10.309 30.4164 2
12.3967 31.3058 0.0239278
6.6069 27.0092 3.96512
8.82595 27.7534 2
11.0019 28.4582 0.0254476
5.1745 24.0947 3.97633
7.36461 24.9843 2
9.51664 25.8229 0.0317487
3.86728 20.9142 4
6.11925 22.0046 2
8.24163 23.0258 0.0347562
5.02406 18.75 2
7.20242 19.9802 0.0242858
6.31992 16.6661 0
9.02948 35.2889 3.97713
10.7097 35.016 2
12.4352 34.3232 0.0235217
7.09457 37.2063 3.97083
9.2185 36.9876 2
11.1202 36.619 0.0231631
9.55713 38.8172 0.0230124
7.32012 39.1779 2
4.99252 39.467 3.967
7.64374 41.2025 0.0294228
5.26598 41.6126 2
2.85803 42.0018 3.97666
5.65043 43.767 0.0339522
3.24797 44.281 2
0.720592 44.8159 4
3.77032 46.5369 0.0243237
1.27778 47.2057 2
1.99014 49.554 0
9.06963 33.7137 3.97698
10.3456 33.9031 2
7.59584 31.6211 3.96981
9.58813 32.1789 2
11.2089 32.9522 0.0233591
5.95132 29.0704 3.9656
8.16696 29.7123 2
10.3065 30.4157 0.0246695
4.3619 26.2472 3.97604
6.60732 27.0099 2
8.82489 27.753 0.0313771
2.85458 23.1494 4
5.17473 24.0958 2
7.36463 24.9835 0.0349157
3.86728 20.9142 2
6.11929 22.0024 0.0235344
5.02411 18.75 0
7.04195 35.3103 3.97058
9.03298 35.2893 2
10.7075 35.0157 0.0233045
4.84265 37.3399 3.96731
7.09668 37.2062 2
9.21518 36.9874 0.0230189
7.31842 39.1782 0.0290616
4.99325 39.4668 2
2.60592 39.7134 3.977
5.26525 41.6131 0.0335255
2.85858 42.0016 2
0.320823 42.3947 4
3.24774 44.2816 0.0236656
0.720551 44.8159 2
1.27781 47.2057 0
7.20525 33.4688 3.9702
9.07305 33.7141 2
10.3426 33.9028 0.0234555
5.42154 31.1344 3.96633
7.59711 31.6213 2
9.58507 32.1783 0.0239007
3.68324 28.4434 3.97609
5.95169 29.071 2
8.16613 29.712 0.03083
1.99015 25.446 4
4.36218 26.2477 2
6.6069 27.0092 0.0348762
2.85453 23.1494 2
5.1745 24.0947 0.0236741
3.86728 20.9142 0
4.85697 35.252 3.96715
7.04336 35.3103 2
9.02948 35.2889 0.0228742
2.49737 37.4281 3.97782
4.84283 37.34 2
7.09457 37.2063 0.0291725
4.99252 39.467 0.0330044
2.6066 39.7137 2
0.080333 39.9526 4
2.85803 42.0018 0.023338
0.320817 42.3947 2
0.720592 44.8159 0
5.05046 33.1909 3.9669
7.20673 33.469 2
9.06963 33.7137 0.0230202
3.14729 30.6662 3.97659
5.42189 31.135 2
7.59584 31.6211 0.0301941
1.27793 27.7943 4
3.68367 28.4437 2
5.95132 29.0704 0.0344009
1.99013 25.446 2
4.3619 26.2472 0.0239632
2.85458 23.1494 0
2.54947 35.1588 3.97752
4.85778 35.2524 2
7.04195 35.3103 0.0294197
0 37.5 4
2.49753 37.4286 2
4.84265 37.3399 0.0326928
2.60592 39.7134 0.0229965
0.0802903 39.9526 2
0.320823 42.3947 0
2.76715 32.9057 3.97756
5.05078 33.1914 2
7.20525 33.4688 0.0298012
0.721173 30.1842 4
3.14772 30.6667 2
5.42154 31.1344 0.0336684
1.27779 27.7943 2
3.68324 28.4434 0.0239089
1.99015 25.446 0
0.0806499 35.0474 4
2.55022 35.1594 2
4.85697 35.252 0.0328484
0 37.5 2
2.49737 37.4281 0.0221764
0.080333 39.9526 0
0.32156 32.6054 4
2.76739 32.9064 2
5.05046 33.1909 0.0330993
0.72056 30.1841 2
3.14729 30.6662 0.0234105
1.27793 27.7943 0
0.0802889 35.0474 2
2.54947 35.1588 0.0224792
0 37.5 0
0.320817 32.6053 2
2.76715 32.9057 0.022441
0.721173 30.1842 0
0.0806499 35.0474 0
0.32156 32.6054 0
CELLS 1910 17190
8 18 6 25 56 2 0 5 16
8 57 23 6 18 17 4 0 2
8 78 36 9 29 31 11 1 7
8 31 11 1 7 79 37 10 30
8 110 57 18 50 48 17 2 14
8 50 18 56 111 14 2 16 49
8 116 62 22 55 52 20 3 15
8 56 25 67 118 16 5 24 53
8 119 63 23 57 54 21 4 17
8 55 22 63 119 15 3 21 54
8 58 26 68 121 18 6 25 56
8 122 65 26 58 57 23 6 18
8 73 31 7 27 142 79 30 71
8 143 78 29 72 73 31 7 27
8 83 147 76 34 32 74 28 8
8 84 148 78 36 33 75 29 9
8 76 34 8 28 148 84 33 75
8 37 79 150 86 10 30 77 35
8 151 87 36 78 80 38 11 31
8 80 38 11 31 152 88 37 79
8 175 100 42 94 96 44 12 40
8 44 96 176 101 12 40 95 43
8 101 176 98 46 43 95 41 13
8 46 98 178 103 13 41 97 45
8 178 103 45 97 147 83 32 74
8 189 116 55 109 106 52 15 47
8 111 56 118 191 49 16 53 107
8 192 119 57 110 108 54 17 48
8 109 55 119 192 47 15 54 108
8 194 122 58 112 110 57 18 50
8 112 58 121 195 50 18 56 111
8 115 61 19 51 197 124 59 113
8 115 61 125 198 51 19 60 114
8 198 125 62 116 114 60 20 52
8 200 127 64 120 116 62 22 55
8 118 67 132 202 53 24 66 117
8 121 68 133 203 56 25 67 118
8 120 64 128 204 55 22 63 119
8 204 128 65 122 119 63 23 57
8 206 134 68 121 123 69 26 58
8 123 69 26 58 207 131 65 122
8 226 147 74 138 140 76 28 70
8 229 148 75 139 143 78 29 72
8 140 76 28 70 229 148 75 139
8 142 79 30 71 231 150 77 141
8 144 80 31 73 232 152 79 142
8 233 151 78 143 144 80 31 73
8 150 86 35 77 235 154 81 145
8 235 154 81 145 146 82 39 91
8 146 82 39 91 236 155 90 165
8 238 157 83 147 149 85 34 76
8 239 158 84 148 151 87 36 78
8 149 85 34 76 239 158 84 148
8 152 88 37 79 241 160 86 150
8 242 161 87 151 153 89 38 80
8 153 89 38 80 243 162 88 152
8 171 98 41 92 265 178 97 169
8 265 178 97 169 226 147 74 138
8 172 96 40 93 266 176 95 170
8 266 176 95 170 171 98 41 92
8 269 175 94 173 172 96 40 93
8 271 180 99 174 175 100 42 94
8 197 124 59 113 271 180 99 174
8 272 181 100 175 177 102 44 96
8 273 182 101 176 179 104 46 98
8 177 102 44 96 273 182 101 176
8 179 104 46 98 275 184 103 178
8 275 184 103 178 238 157 83 147
8 188 115 51 105 283 197 113 186
8 188 115 198 284 105 51 114 187
8 284 198 116 189 187 114 52 106
8 286 200 120 193 189 116 55 109
8 191 118 202 288 107 53 117 190
8 195 121 203 289 111 56 118 191
8 193 120 204 290 109 55 119 192
8 290 204 122 194 192 119 57 110
8 196 123 58 112 292 207 122 194
8 293 206 121 195 196 123 58 112
8 199 126 61 115 297 211 124 197
8 298 212 127 200 198 125 62 116
8 199 126 212 298 115 61 125 198
8 205 129 64 120 300 214 127 200
8 301 217 130 201 202 132 66 117
8 209 136 168 264 301 217 130 201
8 302 219 132 202 203 133 67 118
8 303 220 133 203 206 134 68 121
8 205 129 215 304 120 64 128 204
8 304 215 131 207 204 128 65 122
8 306 221 134 206 208 135 69 123
8 208 135 69 123 307 218 131 207
8 210 137 167 263 309 223 136 209
8 328 238 147 226 230 149 76 140
8 228 146 91 166 329 236 165 260
8 231 150 77 141 330 235 145 227
8 330 235 145 227 228 146 91 166
8 332 239 148 229 233 151 78 143
8 230 149 76 140 332 239 148 229
8 232 152 79 142 334 241 150 231
8 234 153 80 144 335 243 152 232
8 336 242 151 233 234 153 80 144
8 236 155 90 165 338 245 164 259
8 241 160 86 150 339 246 154 235
8 339 246 154 235 237 156 82 146
8 237 156 82 146 340 247 155 236
8 342 249 157 238 240 159 85 149
8 343 250 158 239 242 161 87 151
8 240 159 85 149 343 250 158 239
8 243 162 88 152 345 252 160 241
8 244 163 253 346 153 89 161 242
8 244 163 89 153 347 254 162 243
8 311 224 261 371 210 137 167 263
8 263 167 262 372 209 136 168 264
8 267 179 98 171 375 275 178 265
8 375 275 178 265 328 238 147 226
8 376 273 176 266 267 179 98 171
8 268 177 96 172 376 273 176 266
8 379 272 175 269 268 177 96 172
8 380 271 174 270 269 175 94 173
8 283 197 113 186 380 271 174 270
8 381 277 180 271 272 181 100 175
8 297 211 124 197 381 277 180 271
8 382 278 181 272 274 183 102 177
8 274 183 102 177 383 279 182 273
8 383 279 182 273 276 185 104 179
8 385 281 184 275 342 249 157 238
8 276 185 104 179 385 281 184 275
8 285 199 115 188 393 297 197 283
8 394 298 200 286 284 198 116 189
8 285 199 298 394 188 115 198 284
8 291 205 120 193 396 300 200 286
8 397 301 201 287 288 202 117 190
8 295 209 264 374 397 301 201 287
8 398 302 202 288 289 203 118 191
8 399 303 203 289 293 206 121 195
8 291 205 304 400 193 120 204 290
8 400 304 207 292 290 204 122 194
8 294 208 123 196 402 307 207 292
8 403 306 206 293 294 208 123 196
8 296 210 263 373 405 309 209 295
8 408 312 213 299 297 211 126 199
8 299 213 313 409 199 126 212 298
8 409 313 214 300 298 212 127 200
8 305 216 129 205 411 315 214 300
8 412 318 217 301 302 219 132 202
8 309 223 136 209 412 318 217 301
8 413 320 219 302 303 220 133 203
8 306 221 321 414 206 134 220 303
8 307 218 131 207 415 316 215 304
8 305 216 316 415 205 129 215 304
8 417 322 221 306 308 222 135 208
8 308 222 135 208 418 319 218 307
8 310 225 137 210 420 325 223 309
8 423 326 224 311 310 225 137 210
8 329 236 165 260 441 338 259 368
8 442 342 238 328 333 240 149 230
8 331 237 146 228 443 340 236 329
8 334 241 150 231 444 339 235 330
8 444 339 235 330 331 237 146 228
8 446 343 239 332 336 242 151 233
8 333 240 149 230 446 343 239 332
8 335 243 152 232 448 345 241 334
8 337 244 153 234 449 347 243 335
8 337 244 346 450 234 153 242 336
8 338 245 164 259 452 349 258 367
8 340 247 155 236 453 350 245 338
8 345 252 160 241 454 351 246 339
8 454 351 246 339 341 248 156 237
8 341 248 156 237 455 352 247 340
8 240 159 251 344 342 249 354 457
8 242 161 253 346 343 250 355 458
8 343 250 355 458 240 159 251 344
8 347 254 162 243 460 357 252 345
8 348 255 358 461 244 163 253 346
8 348 255 163 244 462 359 254 347
8 473 360 257 365 363 256 364 482
8 452 349 258 367 365 257 366 485
8 422 324 369 488 311 224 261 371
8 371 261 370 490 263 167 262 372
8 407 311 371 491 296 210 263 373
8 373 263 372 492 295 209 264 374
8 493 385 275 375 442 342 238 328
8 377 276 179 267 493 385 275 375
8 378 274 177 268 494 383 273 376
8 494 383 273 376 377 276 179 267
8 497 382 272 379 378 274 177 268
8 498 381 271 380 379 272 175 269
8 393 297 197 283 498 381 271 380
8 499 387 277 381 382 278 181 272
8 408 312 211 297 499 387 277 381
8 500 388 278 382 384 280 183 274
8 501 389 279 383 386 282 185 276
8 384 280 183 274 501 389 279 383
8 386 282 185 276 503 391 281 385
8 503 391 281 385 457 354 249 342
8 511 408 299 395 393 297 199 285
8 395 299 409 512 285 199 298 394
8 512 409 300 396 394 298 200 286
8 401 305 205 291 514 411 300 396
8 515 412 301 397 398 302 202 288
8 405 309 209 295 515 412 301 397
8 516 413 302 398 399 303 203 289
8 403 306 414 517 293 206 303 399
8 402 307 207 292 518 415 304 400
8 401 305 415 518 291 205 304 400
8 404 308 208 294 520 418 307 402
8 521 417 306 403 404 308 208 294
8 406 310 210 296 523 420 309 405
8 526 423 311 407 406 310 210 296
8 410 314 213 299 527 424 312 408
8 528 425 315 411 409 313 214 300
8 410 314 425 528 299 213 313 409
8 416 317 216 305 530 427 315 411
8 531 430 318 412 413 320 219 302
8 420 325 223 309 531 430 318 412
8 532 432 320 413 414 321 220 303
8 417 322 433 533 306 221 321 414
8 418 319 218 307 534 428 316 415
8 416 317 428 534 305 216 316 415
8 419 323 434 536 308 222 322 417
8 419 323 222 308 537 431 319 418
8 421 327 225 310 539 438 325 420
8 421 327 439 541 310 225 326 423
8 543 437 324 422 423 326 224 311
8 441 338 259 368 559 452 367 486
8 443 340 236 329 560 453 338 441
8 333 240 344 447 442 342 457 561
8 445 341 237 331 562 455 340 443
8 448 345 241 334 563 454 339 444
8 563 454 339 444 445 341 237 331
8 336 242 346 450 446 343 458 565
8 446 343 458 565 333 240 344 447
8 449 347 243 335 567 460 345 448
8 451 348 244 337 568 462 347 449
8 451 348 461 569 337 244 346 450
8 570 463 349 452 473 360 257 365
8 453 350 245 338 570 463 349 452
8 455 352 247 340 571 464 350 453
8 460 357 252 345 572 465 351 454
8 572 465 351 454 456 353 248 341
8 456 353 248 341 573 466 352 455
8 344 251 356 459 457 354 468 575
8 458 355 469 576 344 251 356 459
8 346 253 358 461 458 355 469 576
8 462 359 254 347 578 471 357 460
8 348 255 359 462 461 358 472 579
8 591 474 360 473 475 361 256 363
8 475 361 256 363 594 477 362 479
8 363 256 364 482 479 362 480 603
8 590 473 365 484 481 363 482 605
8 482 364 257 365 606 483 366 485
8 559 452 367 486 484 365 485 607
8 542 436 487 609 422 324 369 488
8 525 422 488 611 407 311 371 491
8 488 369 489 612 371 261 370 490
8 491 371 490 613 373 263 372 492
8 495 386 276 377 614 503 385 493
8 614 503 385 493 561 457 342 442
8 615 501 383 494 495 386 276 377
8 496 384 274 378 615 501 383 494
8 618 500 382 497 496 384 274 378
8 619 499 381 498 497 382 272 379
8 511 408 297 393 619 499 381 498
8 620 505 387 499 500 388 278 382
8 527 424 312 408 620 505 387 499
8 502 390 506 621 384 280 388 500
8 622 507 389 501 504 392 282 386
8 502 390 280 384 622 507 389 501
8 504 392 282 386 624 509 391 503
8 624 509 391 503 575 468 354 457
8 513 410 299 395 630 527 408 511
8 631 528 411 514 512 409 300 396
8 513 410 528 631 395 299 409 512
8 519 416 305 401 633 530 411 514
8 634 531 412 515 516 413 302 398
8 523 420 309 405 634 531 412 515
8 635 532 413 516 517 414 303 399
8 521 417 533 636 403 306 414 517
8 520 418 307 402 637 534 415 518
8 519 416 534 637 401 305 415 518
8 522 419 308 404 639 537 418 520
8 522 419 536 640 404 308 417 521
8 524 421 310 406 642 539 420 523
8 524 421 541 644 406 310 423 526
8 646 543 422 525 526 423 311 407
8 529 426 314 410 647 544 424 527
8 528 425 545 648 411 315 427 530
8 529 426 545 648 410 314 425 528
8 535 429 317 416 649 546 427 530
8 650 548 430 531 532 432 320 413
8 539 438 325 420 650 548 430 531
8 533 433 550 651 414 321 432 532
8 536 434 551 652 417 322 433 533
8 537 431 319 418 653 547 428 534
8 535 429 547 653 416 317 428 534
8 538 435 552 654 419 323 434 536
8 538 435 323 419 655 549 431 537
8 540 440 327 421 657 556 438 539
8 540 440 557 659 421 327 439 541
8 541 439 555 660 423 326 437 543
8 661 554 436 542 543 437 324 422
8 676 570 452 559 590 473 365 484
8 560 453 338 441 676 570 452 559
8 562 455 340 443 677 571 453 560
8 447 344 459 566 561 457 575 678
8 564 456 341 445 679 573 455 562
8 567 460 345 448 680 572 454 563
8 680 572 454 563 564 456 341 445
8 565 458 576 682 447 344 459 566
8 450 346 461 569 565 458 576 682
8 568 462 347 449 684 578 460 567
8 451 348 462 568 569 461 579 685
8 686 580 463 570 591 474 360 473
8 571 464 350 453 686 580 463 570
8 573 466 352 455 687 581 464 571
8 572 465 582 688 460 357 471 578
8 574 467 582 688 456 353 465 572
8 574 467 353 456 689 583 466 573
8 459 356 470 577 575 468 585 691
8 576 469 586 692 459 356 470 577
8 461 358 472 579 576 469 586 692
8 462 359 471 578 579 472 588 694
8 704 591 473 590 593 475 363 481
8 595 476 592 705 475 361 474 591
8 593 475 363 481 707 594 479 602
8 594 477 362 479 709 598 478 600
8 595 476 361 475 711 597 477 594
8 479 362 480 603 600 478 601 720
8 481 363 482 605 602 479 603 722
8 603 480 364 482 723 604 483 606
8 605 482 365 484 724 606 485 607
8 656 553 608 726 542 436 487 609
8 645 542 609 728 525 422 488 611
8 609 487 610 729 488 369 489 612
8 611 488 612 730 491 371 490 613
8 616 504 386 495 731 624 503 614
8 731 624 503 614 678 575 457 561
8 732 622 501 615 616 504 386 495
8 617 502 384 496 732 622 501 615
8 617 502 621 735 496 384 500 618
8 736 620 499 619 618 500 382 497
8 630 527 408 511 736 620 499 619
8 621 506 626 737 500 388 505 620
8 647 544 424 527 737 626 505 620
8 623 508 627 738 502 390 506 621
8 623 508 390 502 739 628 507 622
8 625 510 628 739 504 392 507 622
8 740 629 509 624 691 585 468 575
8 625 510 392 504 740 629 509 624
8 632 529 410 513 744 647 527 630
8 631 528 648 745 514 411 530 633
8 632 529 648 745 513 410 528 631
8 638 535 416 519 746 649 530 633
8 747 650 531 634 635 532 413 516
8 642 539 420 523 747 650 531 634
8 636 533 651 748 517 414 532 635
8 640 536 652 749 521 417 533 636
8 639 537 418 520 750 653 534 637
8 638 535 653 750 519 416 534 637
8 641 538 419 522 751 655 537 639
8 641 538 654 752 522 419 536 640
8 643 540 421 524 753 657 539 642
8 643 540 659 755 524 421 541 644
8 644 541 660 757 526 423 543 646
8 758 661 542 645 646 543 422 525
8 529 426 544 647 648 545 662 759
8 530 427 545 648 649 546 663 760
8 535 429 546 649 653 547 664 761
8 762 666 548 650 651 550 432 532
8 657 556 438 539 762 666 548 650
8 652 551 668 763 533 433 550 651
8 654 552 669 764 536 434 551 652
8 655 549 431 537 765 665 547 653
8 538 435 549 655 654 552 667 766
8 661 554 671 768 542 436 553 656
8 658 558 440 540 769 674 556 657
8 658 558 675 770 540 440 557 659
8 659 557 673 771 541 439 555 660
8 660 555 672 772 543 437 554 661
8 788 686 570 676 704 591 473 590
8 677 571 453 560 788 686 570 676
8 679 573 455 562 789 687 571 677
8 566 459 577 683 678 575 691 790
8 681 574 456 564 791 689 573 679
8 680 572 688 792 567 460 578 684
8 681 574 688 792 564 456 572 680
8 682 576 692 794 566 459 577 683
8 569 461 579 685 682 576 692 794
8 568 462 578 684 685 579 694 796
8 687 581 464 571 798 696 580 686
8 798 696 580 686 705 592 474 591
8 689 583 466 573 799 697 581 687
8 688 582 698 800 578 471 588 694
8 690 584 698 800 574 467 582 688
8 690 584 467 574 801 699 583 689
8 693 587 701 803 577 470 585 691
8 693 587 470 577 804 702 586 692
8 695 589 702 804 579 472 586 692
8 695 589 472 579 805 703 588 694
8 708 595 705 813 593 475 591 704
8 710 596 706 814 595 476 592 705
8 707 594 479 602 816 709 600 719
8 708 595 475 593 817 711 594 707
8 709 598 478 600 819 715 599 717
8 711 597 477 594 820 714 598 709
8 710 596 476 595 822 713 597 711
8 600 478 601 720 717 599 718 832
8 602 479 603 722 719 600 720 834
8 720 601 480 603 835 721 604 723
8 722 603 482 605 836 723 606 724
8 767 670 725 839 656 553 608 726
8 756 656 726 841 645 542 609 728
8 726 608 727 842 609 487 610 729
8 728 609 729 843 611 488 612 730
8 844 740 624 731 790 691 575 678
8 733 625 504 616 844 740 624 731
8 734 623 502 617 845 739 622 732
8 733 625 739 845 616 504 622 732
8 734 623 738 846 617 502 621 735
8 735 621 737 847 618 500 620 736
8 744 647 527 630 847 737 620 736
8 621 506 627 738 737 626 741 848
8 647 544 626 737 759 662 741 848
8 623 508 628 739 738 627 742 849
8 740 629 585 691 850 743 700 802
8 625 510 629 740 739 628 743 850
8 632 529 647 744 745 648 759 854
8 633 530 648 745 746 649 760 855
8 638 535 649 746 750 653 761 856
8 857 762 650 747 748 651 532 635
8 753 657 539 642 857 762 650 747
8 749 652 763 858 636 533 651 748
8 752 654 764 859 640 536 652 749
8 751 655 537 639 860 765 653 750
8 641 538 655 751 752 654 766 861
8 754 658 540 643 862 769 657 753
8 754 658 770 863 643 540 659 755
8 755 659 771 864 644 541 660 757
8 758 661 768 866 645 542 656 756
8 757 660 772 867 646 543 661 758
8 759 662 773 868 648 545 663 760
8 649 546 663 760 761 664 774 871
8 765 665 547 653 872 775 664 761
8 873 777 666 762 763 668 550 651
8 769 674 556 657 873 777 666 762
8 764 669 779 874 652 551 668 763
8 654 552 667 766 764 669 778 875
8 655 549 665 765 766 667 776 876
8 768 671 782 877 656 553 670 767
8 772 672 783 878 661 554 671 768
8 658 558 674 769 770 675 786 879
8 659 557 675 770 771 673 785 881
8 882 784 672 772 771 673 555 660
8 789 687 571 677 897 798 686 788
8 897 798 686 788 813 705 591 704
8 791 689 573 679 898 799 687 789
8 795 693 803 900 683 577 691 790
8 793 690 574 681 901 801 689 791
8 792 688 800 902 684 578 694 796
8 793 690 800 902 681 574 688 792
8 795 693 577 683 903 804 692 794
8 797 695 804 903 685 579 692 794
8 797 695 579 685 904 805 694 796
8 905 806 697 799 798 696 581 687
8 814 706 806 905 705 592 696 798
8 689 583 697 799 801 699 808 907
8 800 698 809 908 694 588 703 805
8 690 584 699 801 800 698 809 908
8 803 701 810 909 691 585 700 802
8 693 587 702 804 803 701 811 910
8 695 589 703 805 804 702 812 911
8 818 710 814 919 708 595 705 813
8 821 712 815 920 710 596 706 814
8 816 709 600 719 922 819 717 831
8 817 711 594 707 923 820 709 816
8 818 710 595 708 924 822 711 817
8 819 715 599 717 926 827 716 829
8 820 714 598 709 927 826 715 819
8 929 825 713 822 820 714 597 711
8 821 712 596 710 930 824 713 822
8 717 599 718 832 829 716 830 942
8 719 600 720 834 831 717 832 944
8 832 718 601 720 945 833 721 835
8 834 720 603 722 946 835 723 836
8 869 780 838 950 767 670 725 839
8 865 767 839 952 756 656 726 841
8 839 725 840 953 726 608 727 842
8 841 726 842 954 728 609 729 843
8 844 740 691 790 955 850 802 899
8 733 625 740 844 845 739 850 955
8 734 623 739 845 846 738 849 956
8 735 621 738 846 847 737 848 957
8 744 647 737 847 854 759 848 957
8 738 627 742 849 848 741 851 958
8 848 741 851 958 759 662 773 868
8 850 743 700 802 959 852 807 906
8 849 742 628 739 959 852 743 850
8 854 759 868 965 745 648 760 855
8 746 649 760 855 856 761 871 966
8 860 765 653 750 967 872 761 856
8 968 873 762 857 858 763 651 748
8 862 769 657 753 968 873 762 857
8 859 764 874 969 749 652 763 858
8 752 654 766 861 859 764 875 970
8 751 655 765 860 861 766 876 971
8 754 658 769 862 863 770 879 972
8 755 659 770 863 864 771 881 974
8 976 882 772 867 864 771 660 757
8 866 768 877 977 756 656 767 865
8 867 772 878 978 758 661 768 866
8 760 663 773 868 871 774 883 980
8 870 781 837 948 982 890 780 869
8 982 890 780 869 877 782 670 767
8 761 664 774 871 872 775 884 984
8 876 776 665 765 985 885 775 872
8 873 777 668 763 986 887 779 874
8 769 674 777 873 879 786 887 986
8 764 669 778 875 874 779 888 987
8 766 667 776 876 875 778 886 988
8 878 783 892 989 768 671 782 877
8 878 783 672 772 990 893 784 882
8 880 787 675 770 991 896 786 879
8 880 787 895 992 770 675 785 881
8 881 785 894 993 771 673 784 882
8 1006 905 799 898 897 798 687 789
8 919 814 905 1006 813 705 798 897
8 791 689 799 898 901 801 907 1007
8 900 803 909 1009 790 691 802 899
8 795 693 804 903 900 803 910 1010
8 902 800 908 1011 796 694 805 904
8 793 690 801 901 902 800 908 1011
8 797 695 805 904 903 804 911 1012
8 799 697 806 905 907 808 912 1013
8 920 815 912 1013 814 706 806 905
8 802 700 810 909 906 807 913 1014
8 801 699 808 907 908 809 914 1015
8 805 703 809 908 911 812 915 1016
8 803 701 811 910 909 810 916 1017
8 911 812 917 1018 804 702 811 910
8 925 821 920 1030 818 710 814 919
8 928 823 921 1031 821 712 815 920
8 922 819 717 831 1033 926 829 941
8 923 820 709 816 1034 927 819 922
8 1035 929 822 924 923 820 711 817
8 925 821 710 818 1036 930 822 924
8 1038 933 825 929 927 826 714 820
8 926 827 716 829 1039 935 828 939
8 927 826 715 819 1040 934 827 926
8 928 823 712 821 1041 931 824 930
8 1042 932 824 930 929 825 713 822
8 829 716 830 942 939 828 940 1058
8 831 717 832 944 941 829 942 1060
8 942 830 718 832 1061 943 833 945
8 944 832 720 834 1062 945 835 946
8 981 889 947 1064 870 781 837 948
8 948 837 949 1067 869 780 838 950
8 975 869 950 1069 865 767 839 952
8 950 838 951 1070 839 725 840 953
8 952 839 953 1071 841 726 842 954
8 955 850 802 899 1072 959 906 1008
8 956 849 739 845 1072 959 850 955
8 846 738 849 956 957 848 958 1073
8 957 848 958 1073 854 759 868 965
8 849 742 852 959 958 851 961 1076
8 960 853 961 1076 906 807 852 959
8 958 851 961 1076 868 773 883 980
8 960 853 807 906 1077 963 913 1014
8 855 760 868 965 966 871 980 1085
8 856 761 871 966 967 872 984 1086
8 971 876 765 860 1087 985 872 967
8 968 873 763 858 1088 986 874 969
8 862 769 873 968 972 879 986 1088
8 859 764 875 970 969 874 987 1089
8 861 766 876 971 970 875 988 1090
8 973 880 770 863 1091 991 879 972
8 973 880 992 1092 863 770 881 974
8 974 881 993 1093 864 771 882 976
8 979 870 948 1066 1094 982 869 975
8 1094 982 869 975 977 877 767 865
8 978 878 772 867 1095 990 882 976
8 978 878 989 1096 866 768 877 977
8 871 774 883 980 984 884 994 1099
8 983 891 999 1100 870 781 889 981
8 1101 1000 890 982 989 892 782 877
8 983 891 781 870 1101 1000 890 982
8 872 775 884 984 985 885 995 1103
8 876 776 885 985 988 886 996 1104
8 986 887 779 874 1105 998 888 987
8 879 786 887 986 991 896 998 1105
8 875 778 886 988 987 888 997 1106
8 990 893 1002 1107 878 783 892 989
8 1108 1003 893 990 993 894 784 882
8 880 787 896 991 992 895 1005 1109
8 993 894 785 881 1110 1004 895 992
8 898 799 905 1006 1007 907 1013 1120
8 1030 920 1013 1120 919 814 905 1006
8 901 801 907 1007 1011 908 1015 1121
8 899 802 909 1009 1008 906 1014 1122
8 900 803 910 1010 1009 909 1017 1123
8 1012 911 1018 1124 903 804 910 1010
8 904 805 908 1011 1012 911 1016 1125
8 1013 912 1020 1127 907 808 914 1015
8 1031 921 1020 1127 920 815 912 1013
8 1019 918 962 1075 1128 1021 913 1014
8 1128 1021 913 1014 1017 916 810 909
8 1015 914 1022 1129 908 809 915 1016
8 1016 915 1023 1130 911 812 917 1018
8 1018 917 1024 1131 910 811 916 1017
8 1037 928 1031 1148 925 821 920 1030
8 928 823 931 1041 1031 921 1032 1149
8 1033 926 829 941 1151 1039 939 1057
8 1034 927 819 922 1152 1040 926 1033
8 1153 1038 929 1035 1034 927 820 923
8 1154 1042 930 1036 1035 929 822 924
8 1037 928 821 925 1155 1041 930 1036
8 1039 935 828 939 1156 1047 938 1055
8 1157 1043 932 1042 1038 933 825 929
8 1038 933 826 927 1158 1045 934 1040
8 1040 934 827 926 1159 1046 935 1039
8 930 824 932 1042 1041 931 1044 1160
8 1051 936 1048 1165 1175 1052 937 1053
8 1156 1047 938 1055 1053 937 1054 1178
8 939 828 940 1058 1055 938 1056 1181
8 941 829 942 1060 1057 939 1058 1183
8 942 830 943 1061 1058 940 1059 1184
8 1060 942 832 944 1185 1061 945 1062
8 1082 964 1063 1188 981 889 947 1064
8 1097 981 1064 1190 979 870 948 1066
8 1064 947 1065 1191 948 837 949 1067
8 1066 948 1067 1193 975 869 950 1069
8 1067 949 1068 1194 950 838 951 1070
8 1069 950 1070 1195 952 839 953 1071
8 956 849 959 1072 1073 958 1076 1197
8 1074 960 1076 1197 1008 906 959 1072
8 1073 958 1076 1197 965 868 980 1085
8 1074 960 906 1008 1198 1077 1014 1122
8 1133 1026 1079 1199 1019 918 962 1075
8 1077 963 913 1014 1200 1080 962 1075
8 960 853 963 1077 1076 961 1078 1201
8 980 883 961 1076 1099 994 1078 1201
8 1210 1083 964 1082 1100 999 889 981
8 966 871 980 1085 1086 984 1099 1215
8 967 872 984 1086 1087 985 1103 1216
8 971 876 985 1087 1090 988 1104 1217
8 1088 986 874 969 1218 1105 987 1089
8 972 879 986 1088 1091 991 1105 1218
8 970 875 988 1090 1089 987 1106 1219
8 973 880 991 1091 1092 992 1109 1220
8 1093 993 881 974 1221 1110 992 1092
8 1222 1108 990 1095 1093 993 882 976
8 1223 1101 982 1094 1096 989 877 977
8 1098 983 870 979 1223 1101 982 1094
8 1095 990 1107 1224 978 878 989 1096
8 1098 983 1100 1225 979 870 981 1097
8 984 884 994 1099 1103 995 1111 1227
8 1102 1001 1115 1228 983 891 999 1100
8 1101 1000 892 989 1229 1116 1002 1107
8 1102 1001 891 983 1229 1116 1000 1101
8 985 885 995 1103 1104 996 1112 1230
8 988 886 996 1104 1106 997 1113 1231
8 1105 998 888 987 1232 1114 997 1106
8 991 896 998 1105 1109 1005 1114 1232
8 1108 1003 1117 1233 990 893 1002 1107
8 1108 1003 894 993 1233 1117 1004 1110
8 992 895 1005 1109 1110 1004 1118 1234
8 1120 1013 1127 1244 1007 907 1015 1121
8 1148 1031 1127 1244 1030 920 1013 1120
8 1121 1015 1129 1245 1011 908 1016 1125
8 1126 1019 1075 1196 1246 1128 1014 1122
8 1246 1128 1014 1122 1123 1017 909 1009
8 1124 1018 1131 1247 1010 910 1017 1123
8 1125 1016 1130 1248 1012 911 1018 1124
8 1127 1020 1137 1254 1015 914 1022 1129
8 1031 921 1032 1149 1127 1020 1137 1254
8 1134 1027 918 1019 1257 1140 1021 1128
8 1257 1140 1021 1128 1131 1024 916 1017
8 1129 1022 1141 1258 1016 915 1023 1130
8 1130 1023 1142 1259 1018 917 1024 1131
8 1261 1144 1025 1132 1133 1026 1079 1199
8 1255 1138 1025 1132 1135 1028 1144 1261
8 1133 1026 918 1019 1262 1145 1027 1134
8 1136 1029 1139 1256 1263 1146 1028 1135
8 1037 928 1041 1155 1148 1031 1149 1275
8 1041 931 1044 1160 1149 1032 1150 1276
8 1151 1039 939 1057 1278 1156 1055 1180
8 1152 1040 926 1033 1279 1159 1039 1151
8 1153 1038 927 1034 1280 1158 1040 1152
8 1281 1157 1042 1154 1153 1038 929 1035
8 1036 930 1042 1154 1155 1041 1160 1282
8 1283 1164 1046 1159 1156 1047 935 1039
8 1165 1048 1164 1283 1053 937 1047 1156
8 1157 1043 933 1038 1284 1161 1045 1158
8 1157 1043 1161 1284 1042 932 1044 1160
8 1040 934 1046 1159 1158 1045 1163 1285
8 1166 1049 1167 1292 1051 936 1048 1165
8 1166 1049 936 1051 1293 1168 1050 1172
8 1051 936 1052 1175 1172 1050 1173 1306
8 1174 1051 1165 1290 1308 1175 1053 1177
8 1053 937 1054 1178 1175 1052 1176 1309
8 1278 1156 1055 1180 1177 1053 1178 1311
8 1055 938 1056 1181 1178 1054 1179 1312
8 1057 939 1058 1183 1180 1055 1181 1314
8 1058 940 1059 1184 1181 1056 1182 1315
8 1060 942 1061 1185 1183 1058 1184 1316
8 1208 1081 1187 1321 1082 964 1063 1188
8 1209 1082 1188 1322 1097 981 1064 1190
8 1188 1063 1189 1323 1064 947 1065 1191
8 1190 1064 1191 1325 1066 948 1067 1193
8 1191 1065 1192 1326 1067 949 1068 1194
8 1067 1193 1069 950 1194 1327 1195 1070
8 1250 1133 1199 1330 1126 1019 1075 1196
8 1198 1077 1014 1122 1331 1200 1075 1196
8 1074 960 1077 1198 1197 1076 1201 1332
8 1085 980 1076 1197 1215 1099 1201 1332
8 1199 1079 1203 1333 1075 962 1080 1200
8 1132 1025 1119 1243 1199 1079 1203 1333
8 1201 1078 963 1077 1334 1202 1080 1200
8 1099 994 1078 1201 1227 1111 1202 1334
8 1343 1207 1081 1208 1210 1083 964 1082
8 1214 1084 1186 1319 1343 1207 1081 1208
8 1345 1210 1082 1209 1225 1100 981 1097
8 1346 1211 1083 1210 1228 1115 999 1100
8 1086 984 1099 1215 1216 1103 1227 1352
8 1087 985 1103 1216 1217 1104 1230 1353
8 1090 988 1104 1217 1219 1106 1231 1354
8 1218 1105 987 1089 1355 1232 1106 1219
8 1091 991 1105 1218 1220 1109 1232 1355
8 1092 992 1109 1220 1221 1110 1234 1356
8 1222 1108 1233 1357 1095 990 1107 1224
8 1222 1108 993 1093 1357 1233 1110 1221
8 1223 1101 989 1096 1358 1229 1107 1224
8 1226 1102 983 1098 1358 1229 1101 1223
8 1226 1102 1228 1359 1098 983 1100 1225
8 1103 995 1111 1227 1230 1112 1235 1360
8 1107 1002 1117 1233 1229 1116 1240 1362
8 1102 1001 1116 1229 1228 1115 1240 1362
8 1104 996 1112 1230 1231 1113 1236 1363
8 1364 1237 1114 1232 1231 1113 997 1106
8 1109 1005 1114 1232 1234 1118 1238 1365
8 1110 1004 1118 1234 1233 1117 1241 1366
8 1242 1374 1255 1138 1119 1243 1132 1025
8 1244 1127 1254 1376 1121 1015 1129 1245
8 1148 1031 1149 1275 1244 1127 1254 1376
8 1245 1129 1258 1377 1125 1016 1130 1248
8 1251 1134 1019 1126 1378 1257 1128 1246
8 1378 1257 1128 1246 1247 1131 1017 1123
8 1248 1130 1259 1379 1124 1018 1131 1247
8 1261 1381 1250 1133 1132 1249 1330 1199
8 1255 1380 1252 1135 1132 1249 1381 1261
8 1250 1133 1019 1126 1382 1262 1134 1251
8 1253 1136 1256 1385 1384 1263 1135 1252
8 1254 1137 1265 1387 1129 1022 1141 1258
8 1149 1032 1150 1276 1254 1137 1265 1387
8 1028 1135 1255 1138 1139 1256 1388 1266
8 1136 1029 1147 1264 1256 1139 1267 1389
8 1390 1268 1140 1257 1259 1142 1024 1131
8 1260 1143 1027 1134 1390 1268 1140 1257
8 1258 1141 1269 1391 1130 1023 1142 1259
8 1262 1145 1027 1134 1393 1271 1143 1260
8 1261 1144 1026 1133 1394 1272 1145 1262
8 1135 1028 1144 1261 1263 1146 1272 1394
8 1136 1029 1146 1263 1264 1147 1273 1395
8 1155 1041 1160 1282 1275 1149 1276 1405
8 1276 1150 1044 1160 1406 1277 1162 1286
8 1408 1283 1159 1279 1278 1156 1039 1151
8 1290 1165 1283 1408 1177 1053 1156 1278
8 1152 1040 1159 1279 1280 1158 1285 1409
8 1281 1157 1038 1153 1410 1284 1158 1280
8 1281 1157 1284 1410 1154 1042 1160 1282
8 1159 1046 1164 1283 1285 1163 1289 1412
8 1292 1167 1289 1412 1165 1048 1164 1283
8 1158 1045 1163 1285 1284 1161 1288 1413
8 1284 1161 1288 1413 1160 1044 1162 1286
8 1291 1166 1292 1418 1174 1051 1165 1290
8 1291 1166 1051 1174 1419 1293 1172 1305
8 1294 1169 1296 1421 1166 1049 1167 1292
8 1293 1168 1050 1172 1422 1295 1171 1303
8 1294 1169 1049 1166 1423 1297 1168 1293
8 1422 1295 1171 1303 1301 1170 1302 1435
8 1172 1050 1173 1306 1303 1171 1304 1438
8 1174 1051 1175 1308 1305 1172 1306 1440
8 1175 1052 1176 1309 1306 1173 1307 1441
8 1177 1053 1178 1311 1308 1175 1309 1443
8 1178 1054 1179 1312 1309 1176 1310 1444
8 1180 1055 1181 1314 1311 1178 1312 1446
8 1056 1181 1312 1179 1182 1315 1447 1313
8 1183 1058 1184 1316 1314 1181 1315 1448
8 1319 1186 1084 1214 1451 1317 1213 1350
8 1319 1186 1318 1453 1208 1081 1187 1321
8 1321 1187 1320 1456 1188 1063 1189 1323
8 1344 1208 1321 1457 1209 1082 1188 1322
8 1322 1188 1323 1458 1190 1064 1191 1325
8 1323 1189 1324 1459 1191 1065 1192 1326
8 1191 1325 1193 1067 1326 1460 1327 1194
8 1242 1374 1243 1119 1328 1462 1335 1204
8 1330 1199 1333 1465 1196 1075 1200 1331
8 1132 1249 1330 1199 1243 1375 1465 1333
8 1332 1201 1077 1198 1466 1334 1200 1331
8 1215 1099 1201 1332 1352 1227 1334 1466
8 1119 1243 1333 1203 1204 1335 1470 1338
8 1333 1203 1338 1470 1200 1080 1202 1334
8 1227 1111 1202 1334 1360 1235 1338 1470
8 1328 1462 1335 1204 1205 1336 1471 1339
8 1337 1206 1340 1472 1464 1329 1205 1336
8 1346 1211 1342 1479 1210 1083 1207 1343
8 1346 1211 1115 1228 1479 1342 1239 1361
8 1348 1212 1084 1214 1479 1342 1207 1343
8 1480 1343 1208 1344 1345 1210 1082 1209
8 1351 1214 1319 1454 1480 1343 1208 1344
8 1481 1346 1210 1345 1359 1228 1100 1225
8 1348 1212 1347 1483 1214 1084 1213 1350
8 1216 1103 1227 1352 1353 1230 1360 1488
8 1217 1104 1230 1353 1354 1231 1363 1489
8 1490 1364 1232 1355 1354 1231 1106 1219
8 1220 1109 1232 1355 1356 1234 1365 1491
8 1221 1110 1234 1356 1357 1233 1366 1492
8 1224 1107 1233 1357 1358 1229 1362 1493
8 1226 1102 1229 1358 1359 1228 1362 1493
8 1230 1112 1235 1360 1363 1236 1367 1496
8 1361 1239 1115 1228 1497 1371 1240 1362
8 1366 1241 1372 1498 1233 1117 1240 1362
8 1364 1237 1113 1231 1499 1368 1236 1363
8 1364 1237 1368 1499 1232 1114 1238 1365
8 1234 1118 1238 1365 1366 1241 1369 1500
8 1507 1373 1242 1374 1388 1266 1138 1255
8 1508 1374 1243 1375 1380 1255 1132 1249
8 1376 1254 1387 1509 1245 1129 1258 1377
8 1275 1149 1276 1405 1376 1254 1387 1509
8 1377 1258 1391 1510 1248 1130 1259 1379
8 1511 1390 1257 1378 1379 1259 1131 1247
8 1383 1260 1134 1251 1511 1390 1257 1378
8 1252 1135 1256 1385 1380 1255 1388 1512
8 1261 1381 1513 1394 1133 1250 1382 1262
8 1135 1252 1384 1263 1261 1381 1513 1394
8 1382 1262 1134 1251 1514 1393 1260 1383
8 1253 1136 1263 1384 1386 1264 1395 1516
8 1253 1136 1264 1386 1385 1256 1389 1517
8 1387 1265 1397 1519 1258 1141 1269 1391
8 1276 1150 1277 1406 1387 1265 1397 1519
8 1256 1139 1267 1389 1388 1266 1398 1520
8 1264 1147 1274 1396 1389 1267 1399 1521
8 1392 1270 1143 1260 1522 1400 1268 1390
8 1390 1268 1142 1259 1522 1400 1269 1391
8 1392 1270 1401 1523 1260 1143 1271 1393
8 1272 1394 1524 1402 1145 1262 1393 1271
8 1395 1273 1146 1263 1524 1402 1272 1394
8 1273 1395 1264 1147 1403 1526 1396 1274
8 1405 1276 1160 1282 1534 1406 1286 1411
8 1414 1287 1407 1535 1286 1162 1277 1406
8 1279 1159 1283 1408 1409 1285 1412 1537
8 1418 1292 1412 1537 1290 1165 1283 1408
8 1280 1158 1285 1409 1410 1284 1413 1538
8 1410 1284 1413 1538 1282 1160 1286 1411
8 1285 1163 1289 1412 1413 1288 1417 1540
8 1421 1296 1417 1540 1292 1167 1289 1412
8 1414 1287 1162 1286 1541 1416 1288 1413
8 1420 1294 1421 1545 1291 1166 1292 1418
8 1419 1293 1172 1305 1546 1422 1303 1437
8 1420 1294 1166 1291 1547 1423 1293 1419
8 1294 1169 1297 1423 1421 1296 1425 1548
8 1423 1297 1168 1293 1549 1424 1295 1422
8 1301 1170 1298 1427 1422 1295 1424 1549
8 1432 1300 1428 1554 1301 1170 1298 1427
8 1431 1299 1428 1554 1560 1430 1300 1432
8 1563 1433 1300 1432 1435 1302 1170 1301
8 1546 1422 1303 1437 1434 1301 1435 1565
8 1303 1171 1304 1438 1435 1302 1436 1566
8 1305 1172 1306 1440 1437 1303 1438 1568
8 1306 1173 1307 1441 1438 1304 1439 1569
8 1308 1175 1309 1443 1440 1306 1441 1571
8 1309 1176 1310 1444 1441 1307 1442 1572
8 1311 1178 1312 1446 1443 1309 1444 1574
8 1179 1312 1444 1310 1313 1447 1575 1445
8 1314 1181 1315 1448 1446 1312 1447 1576
8 1350 1213 1349 1486 1451 1317 1449 1579
8 1451 1317 1450 1581 1319 1186 1318 1453
8 1454 1319 1214 1351 1582 1451 1350 1487
8 1453 1318 1452 1584 1321 1187 1320 1456
8 1454 1319 1453 1585 1344 1208 1321 1457
8 1456 1320 1455 1586 1323 1189 1324 1459
8 1457 1321 1456 1587 1322 1188 1323 1458
8 1458 1323 1459 1588 1325 1191 1326 1460
8 1205 1336 1464 1329 1328 1462 1590 1461
8 1507 1373 1461 1590 1374 1242 1328 1462
8 1508 1374 1462 1591 1375 1243 1335 1467
8 1337 1206 1329 1464 1473 1341 1463 1594
8 1375 1243 1335 1467 1465 1333 1470 1596
8 1465 1333 1470 1596 1331 1200 1334 1466
8 1352 1227 1334 1466 1488 1360 1470 1596
8 1591 1462 1336 1468 1467 1335 1471 1597
8 1469 1337 1472 1598 1595 1464 1336 1468
8 1471 1339 1474 1600 1335 1204 1338 1470
8 1600 1474 1367 1496 1470 1338 1235 1360
8 1336 1205 1340 1472 1471 1339 1475 1601
8 1337 1206 1341 1473 1472 1340 1476 1602
8 1495 1370 1478 1609 1361 1239 1342 1479
8 1348 1212 1342 1479 1483 1347 1478 1609
8 1481 1346 1479 1610 1345 1210 1343 1480
8 1481 1346 1228 1359 1610 1479 1361 1494
8 1484 1348 1214 1351 1610 1479 1343 1480
8 1483 1347 1482 1612 1350 1213 1349 1486
8 1484 1348 1483 1613 1351 1214 1350 1487
8 1353 1230 1360 1488 1489 1363 1496 1616
8 1490 1364 1231 1354 1617 1499 1363 1489
8 1490 1364 1499 1617 1355 1232 1365 1491
8 1356 1234 1365 1491 1492 1366 1500 1619
8 1492 1366 1498 1620 1357 1233 1362 1493
8 1494 1361 1228 1359 1621 1497 1362 1493
8 1495 1370 1239 1361 1622 1504 1371 1497
8 1363 1236 1367 1496 1499 1368 1501 1623
8 1497 1371 1240 1362 1624 1505 1372 1498
8 1625 1503 1372 1498 1500 1369 1241 1366
8 1365 1238 1368 1499 1500 1369 1502 1626
8 1520 1398 1506 1633 1388 1266 1373 1507
8 1634 1507 1374 1508 1512 1388 1255 1380
8 1509 1387 1519 1635 1377 1258 1391 1510
8 1405 1276 1406 1534 1509 1387 1519 1635
8 1515 1392 1260 1383 1636 1522 1390 1511
8 1511 1390 1259 1379 1636 1522 1391 1510
8 1385 1256 1389 1517 1512 1388 1520 1637
8 1513 1394 1262 1382 1638 1524 1393 1514
8 1395 1516 1638 1524 1263 1384 1513 1394
8 1515 1392 1523 1639 1383 1260 1393 1514
8 1516 1395 1526 1640 1386 1264 1396 1518
8 1386 1264 1396 1518 1517 1389 1521 1641
8 1519 1397 1527 1643 1391 1269 1400 1522
8 1535 1407 1527 1643 1406 1277 1397 1519
8 1389 1267 1399 1521 1520 1398 1528 1644
8 1645 1529 1399 1521 1525 1404 1274 1396
8 1392 1270 1400 1522 1523 1401 1531 1646
8 1524 1402 1271 1393 1648 1532 1401 1523
8 1403 1526 1648 1532 1273 1395 1524 1402
8 1525 1404 1274 1396 1649 1533 1403 1526
8 1539 1414 1535 1657 1411 1286 1406 1534
8 1542 1415 1536 1658 1414 1287 1407 1535
8 1409 1285 1412 1537 1538 1413 1540 1660
8 1545 1421 1540 1660 1418 1292 1412 1537
8 1539 1414 1286 1411 1661 1541 1413 1538
8 1540 1417 1544 1663 1413 1288 1416 1541
8 1421 1296 1425 1548 1540 1417 1544 1663
8 1542 1415 1287 1414 1664 1543 1416 1541
8 1420 1294 1423 1547 1545 1421 1548 1666
8 1547 1423 1293 1419 1667 1549 1422 1546
8 1434 1301 1427 1553 1546 1422 1549 1667
8 1423 1297 1424 1549 1548 1425 1550 1668
8 1551 1426 1550 1668 1427 1298 1424 1549
8 1551 1426 1298 1427 1671 1552 1428 1554
8 1562 1432 1554 1674 1434 1301 1427 1553
8 1431 1299 1429 1558 1554 1428 1555 1675
8 1431 1299 1430 1560 1558 1429 1557 1680
8 1560 1430 1300 1432 1683 1559 1433 1563
8 1561 1431 1554 1674 1684 1560 1432 1562
8 1685 1563 1432 1562 1565 1435 1301 1434
8 1435 1302 1436 1566 1563 1433 1564 1686
8 1437 1303 1438 1568 1565 1435 1566 1688
8 1438 1304 1439 1569 1566 1436 1567 1689
8 1440 1306 1441 1571 1568 1438 1569 1691
8 1441 1307 1442 1572 1569 1439 1570 1692
8 1443 1309 1444 1574 1571 1441 1572 1694
8 1310 1444 1572 1442 1445 1575 1695 1573
8 1446 1312 1447 1576 1574 1444 1575 1696
8 1486 1349 1485 1614 1579 1449 1577 1699
8 1451 1317 1449 1579 1581 1450 1578 1701
8 1487 1350 1486 1615 1582 1451 1579 1702
8 1581 1450 1580 1704 1453 1318 1452 1584
8 1582 1451 1581 1705 1454 1319 1453 1585
8 1584 1452 1583 1706 1456 1320 1455 1586
8 1585 1453 1584 1707 1457 1321 1456 1587
8 1587 1456 1586 1708 1458 1323 1459 1588
8 1633 1506 1589 1710 1507 1373 1461 1590
8 1464 1329 1461 1590 1594 1463 1589 1710
8 1468 1336 1462 1591 1595 1464 1590 1711
8 1634 1507 1590 1711 1508 1374 1462 1591
8 1473 1341 1463 1594 1603 1477 1593 1716
8 1469 1337 1464 1595 1599 1473 1594 1717
8 1471 1597 1467 1335 1600 1718 1596 1470
8 1718 1600 1496 1616 1596 1470 1360 1488
8 1336 1468 1597 1471 1472 1598 1719 1601
8 1469 1337 1473 1599 1598 1472 1602 1720
8 1722 1604 1501 1623 1600 1474 1367 1496
8 1475 1601 1471 1339 1604 1722 1600 1474
8 1602 1476 1605 1723 1472 1340 1475 1601
8 1476 1602 1724 1606 1341 1473 1603 1477
8 1483 1347 1478 1609 1612 1482 1608 1731
8 1495 1370 1504 1622 1609 1478 1608 1731
8 1618 1495 1609 1732 1494 1361 1479 1610
8 1484 1348 1479 1610 1613 1483 1609 1732
8 1486 1349 1482 1612 1614 1485 1611 1733
8 1613 1483 1612 1734 1487 1350 1486 1615
8 1489 1363 1496 1616 1617 1499 1623 1736
8 1491 1365 1499 1617 1619 1500 1626 1737
8 1618 1495 1361 1494 1738 1622 1497 1621
8 1739 1625 1498 1620 1619 1500 1366 1492
8 1621 1497 1362 1493 1740 1624 1498 1620
8 1742 1631 1504 1622 1624 1505 1371 1497
8 1743 1628 1502 1626 1623 1501 1368 1499
8 1744 1630 1505 1624 1625 1503 1372 1498
8 1745 1629 1503 1625 1626 1502 1369 1500
8 1520 1398 1528 1644 1633 1506 1632 1751
8 1637 1520 1633 1752 1512 1388 1507 1634
8 1635 1519 1643 1753 1510 1391 1522 1636
8 1657 1535 1643 1753 1534 1406 1519 1635
8 1515 1392 1522 1636 1639 1523 1646 1754
8 1517 1389 1521 1641 1637 1520 1644 1755
8 1524 1638 1756 1648 1393 1514 1639 1523
8 1640 1526 1395 1516 1756 1648 1524 1638
8 1642 1525 1396 1518 1757 1649 1526 1640
8 1758 1645 1521 1641 1642 1525 1396 1518
8 1646 1531 1400 1522 1760 1650 1527 1643
8 1535 1407 1536 1658 1643 1527 1650 1760
8 1521 1399 1529 1645 1644 1528 1651 1761
8 1647 1530 1652 1762 1525 1404 1529 1645
8 1401 1523 1648 1532 1531 1646 1763 1655
8 1525 1404 1533 1649 1647 1530 1654 1765
8 1533 1649 1766 1656 1403 1526 1648 1532
8 1662 1542 1658 1774 1539 1414 1535 1657
8 1542 1415 1543 1664 1658 1536 1659 1775
8 1660 1540 1663 1777 1538 1413 1541 1661
8 1545 1421 1548 1666 1660 1540 1663 1777
8 1662 1542 1414 1539 1778 1664 1541 1661
8 1664 1543 1416 1541 1779 1665 1544 1663
8 1548 1425 1550 1668 1663 1544 1665 1779
8 1547 1423 1549 1667 1666 1548 1668 1781
8 1670 1551 1668 1781 1553 1427 1549 1667
8 1551 1426 1552 1671 1668 1550 1669 1782
8 1670 1551 1427 1553 1784 1671 1554 1674
8 1675 1555 1672 1785 1554 1428 1552 1671
8 1678 1556 1673 1789 1558 1429 1555 1675
8 1561 1431 1558 1681 1674 1554 1675 1790
8 1794 1677 1556 1678 1680 1557 1429 1558
8 1560 1430 1559 1683 1680 1557 1679 1797
8 1561 1431 1560 1684 1681 1558 1680 1798
8 1563 1433 1564 1686 1683 1559 1682 1800
8 1684 1560 1432 1562 1801 1683 1563 1685
8 1565 1435 1566 1688 1685 1563 1686 1802
8 1566 1436 1567 1689 1686 1564 1687 1803
8 1568 1438 1569 1691 1688 1566 1689 1805
8 1569 1439 1570 1692 1689 1567 1690 1806
8 1571 1441 1572 1694 1691 1569 1692 1808
8 1442 1572 1692 1570 1573 1695 1809 1693
8 1574 1444 1575 1696 1694 1572 1695 1810
8 1614 1485 1592 1712 1699 1577 1697 1813
8 1579 1449 1577 1699 1701 1578 1698 1815
8 1615 1486 1614 1735 1702 1579 1699 1816
8 1701 1578 1700 1818 1581 1450 1580 1704
8 1582 1451 1579 1702 1705 1581 1701 1819
8 1704 1580 1703 1820 1584 1452 1583 1706
8 1705 1581 1704 1821 1585 1453 1584 1707
8 1707 1584 1706 1822 1587 1456 1586 1708
8 1710 1589 1506 1633 1824 1709 1632 1751
8 1594 1463 1589 1710 1716 1593 1709 1824
8 1752 1633 1710 1825 1634 1507 1590 1711
8 1595 1464 1590 1711 1717 1594 1710 1825
8 1830 1714 1592 1712 1733 1611 1485 1614
8 1603 1477 1593 1716 1725 1607 1715 1834
8 1599 1473 1594 1717 1721 1603 1716 1835
8 1837 1722 1623 1736 1718 1600 1496 1616
8 1719 1601 1722 1837 1597 1471 1600 1718
8 1602 1720 1598 1472 1723 1838 1719 1601
8 1720 1602 1473 1599 1839 1724 1603 1721
8 1723 1605 1726 1840 1601 1475 1604 1722
8 1840 1726 1628 1743 1722 1604 1501 1623
8 1724 1606 1727 1841 1602 1476 1605 1723
8 1725 1607 1728 1842 1603 1477 1606 1724
8 1612 1482 1608 1731 1733 1611 1730 1849
8 1741 1627 1730 1849 1622 1504 1608 1731
8 1613 1483 1609 1732 1734 1612 1731 1850
8 1618 1495 1622 1738 1732 1609 1731 1850
8 1615 1486 1612 1734 1735 1614 1733 1851
8 1852 1743 1626 1737 1736 1623 1499 1617
8 1853 1745 1625 1739 1737 1626 1500 1619
8 1855 1742 1622 1738 1740 1624 1497 1621
8 1856 1744 1624 1740 1739 1625 1498 1620
8 1741 1627 1504 1622 1857 1746 1631 1742
8 1742 1631 1505 1624 1858 1749 1630 1744
8 1859 1747 1629 1745 1743 1628 1502 1626
8 1860 1748 1630 1744 1745 1629 1503 1625
8 1644 1528 1651 1761 1751 1632 1750 1865
8 1637 1520 1644 1755 1752 1633 1751 1866
8 1754 1646 1522 1636 1867 1760 1643 1753
8 1657 1535 1658 1774 1753 1643 1760 1867
8 1639 1523 1646 1754 1756 1648 1763 1868
8 1641 1521 1645 1758 1755 1644 1761 1869
8 1757 1649 1526 1640 1870 1766 1648 1756
8 1642 1525 1649 1757 1759 1647 1765 1871
8 1759 1647 1762 1872 1642 1525 1645 1758
8 1760 1650 1767 1874 1646 1531 1655 1763
8 1658 1536 1659 1775 1760 1650 1767 1874
8 1762 1652 1768 1875 1645 1529 1651 1761
8 1764 1653 1769 1876 1647 1530 1652 1762
8 1656 1766 1877 1773 1532 1648 1763 1655
8 1771 1879 1765 1654 1653 1764 1647 1530
8 1533 1649 1765 1654 1656 1766 1880 1772
8 1662 1542 1664 1778 1774 1658 1775 1887
8 1664 1543 1665 1779 1775 1659 1776 1888
8 1778 1664 1541 1661 1890 1779 1663 1777
8 1666 1548 1668 1781 1777 1663 1779 1890
8 1782 1669 1780 1891 1668 1550 1665 1779
8 1670 1551 1671 1784 1781 1668 1782 1893
8 1671 1552 1672 1785 1782 1669 1783 1894
8 1790 1675 1785 1896 1674 1554 1671 1784
8 1675 1555 1673 1789 1785 1672 1786 1897
8 1792 1676 1788 1903 1678 1556 1673 1789
8 1795 1678 1789 1904 1681 1558 1675 1790
8 1792 1676 1556 1678 1906 1791 1677 1794
8 1680 1557 1679 1797 1794 1677 1793 1909
8 1910 1794 1678 1795 1798 1680 1558 1681
8 1683 1559 1682 1800 1797 1679 1796 1912
8 1684 1560 1683 1801 1798 1680 1797 1913
8 1686 1564 1687 1803 1800 1682 1799 1915
8 1685 1563 1686 1802 1801 1683 1800 1916
8 1688 1566 1689 1805 1802 1686 1803 1917
8 1689 1567 1690 1806 1803 1687 1804 1918
8 1691 1569 1692 1808 1805 1689 1806 1920
8 1692 1570 1693 1809 1806 1690 1807 1921
8 1694 1572 1695 1810 1808 1692 1809 1922
8 1829 1713 1811 1926 1712 1592 1697 1813
8 1813 1697 1812 1928 1699 1577 1698 1815
8 1735 1614 1712 1828 1816 1699 1813 1929
8 1815 1698 1814 1931 1701 1578 1700 1818
8 1702 1579 1699 1816 1819 1701 1815 1932
8 1818 1700 1817 1933 1704 1580 1703 1820
8 1819 1701 1818 1934 1705 1581 1704 1821
8 1821 1704 1820 1935 1707 1584 1706 1822
8 1824 1709 1632 1751 1937 1823 1750 1865
8 1716 1593 1709 1824 1834 1715 1823 1937
8 1825 1710 1633 1752 1938 1824 1751 1866
8 1717 1594 1710 1825 1835 1716 1824 1938
8 1945 1830 1712 1828 1851 1733 1614 1735
8 1830 1714 1831 1946 1712 1592 1713 1829
8 1947 1832 1714 1830 1849 1730 1611 1733
8 1843 1729 1607 1725 1950 1833 1715 1834
8 1721 1603 1716 1835 1836 1725 1834 1951
8 1836 1725 1842 1953 1721 1603 1724 1839
8 1723 1838 1719 1601 1840 1954 1837 1722
8 1954 1840 1743 1852 1837 1722 1623 1736
8 1724 1839 1720 1602 1841 1955 1838 1723
8 1841 1727 1844 1956 1723 1605 1726 1840
8 1956 1844 1747 1859 1840 1726 1628 1743
8 1728 1842 1724 1606 1845 1957 1841 1727
8 1725 1607 1729 1843 1842 1728 1846 1958
8 1741 1627 1746 1857 1849 1730 1848 1965
8 1734 1612 1731 1850 1851 1733 1849 1966
8 1854 1741 1849 1966 1738 1622 1731 1850
8 1967 1859 1745 1853 1852 1743 1626 1737
8 1968 1860 1744 1856 1853 1745 1625 1739
8 1854 1741 1622 1738 1969 1857 1742 1855
8 1855 1742 1624 1740 1970 1858 1744 1856
8 1857 1746 1631 1742 1971 1861 1749 1858
8 1858 1749 1630 1744 1972 1863 1748 1860
8 1859 1747 1862 1973 1745 1629 1748 1860
8 1875 1768 1864 1977 1761 1651 1750 1865
8 1755 1644 1761 1869 1866 1751 1865 1978
8 1867 1760 1874 1979 1754 1646 1763 1868
8 1774 1658 1775 1887 1867 1760 1874 1979
8 1870 1766 1648 1756 1980 1877 1763 1868
8 1872 1762 1875 1981 1758 1645 1761 1869
8 1757 1649 1766 1870 1871 1765 1880 1982
8 1983 1879 1764 1873 1871 1765 1647 1759
8 1873 1764 1876 1984 1759 1647 1762 1872
8 1877 1773 1655 1763 1986 1881 1767 1874
8 1775 1659 1776 1888 1874 1767 1881 1986
8 1876 1769 1882 1987 1762 1652 1768 1875
8 1878 1770 1883 1988 1764 1653 1769 1876
8 1880 1772 1656 1766 1989 1886 1773 1877
8 1878 1770 1653 1764 1990 1884 1771 1879
8 1765 1654 1772 1880 1879 1771 1885 1991
8 1778 1664 1779 1890 1887 1775 1888 1997
8 1998 1889 1776 1888 1891 1780 1665 1779
8 1893 1782 1891 2000 1781 1668 1779 1890
8 1894 1783 1892 2001 1782 1669 1780 1891
8 1784 1671 1785 1896 1893 1782 1894 2003
8 1897 1786 1895 2004 1785 1672 1783 1894
8 1790 1675 1789 1904 1896 1785 1897 2006
8 1901 1787 1898 2007 1789 1673 1786 1897
8 1903 1788 1900 2013 1789 1673 1787 1901
8 1792 1676 1791 1906 1903 1788 1902 2016
8 1907 1792 1903 2017 1795 1678 1789 1904
8 1906 1791 1677 1794 2019 1905 1793 1909
8 1907 1792 1678 1795 2020 1906 1794 1910
8 1797 1679 1796 1912 1909 1793 1908 2022
8 1798 1680 1797 1913 1910 1794 1909 2023
8 1800 1682 1799 1915 1912 1796 1911 2025
8 1801 1683 1800 1916 1913 1797 1912 2026
8 1803 1687 1804 1918 1915 1799 1914 2028
8 1802 1686 1803 1917 1916 1800 1915 2029
8 1805 1689 1806 1920 1917 1803 1918 2030
8 1806 1690 1807 1921 1918 1804 1919 2031
8 1808 1692 1809 1922 1920 1806 1921 2032
8 1939 1826 1924 2037 1829 1713 1811 1926
8 1926 1811 1925 2039 1813 1697 1812 1928
8 1944 1829 1926 2040 1828 1712 1813 1929
8 1928 1812 1927 2042 1815 1698 1814 1931
8 1929 1813 1928 2043 1816 1699 1815 1932
8 1931 1814 1930 2044 1818 1700 1817 1933
8 1932 1815 1931 2045 1819 1701 1818 1934
8 1934 1818 1933 2046 1821 1704 1820 1935
8 2048 1936 1823 1937 1977 1864 1750 1865
8 1950 1833 1715 1834 2048 1936 1823 1937
8 1938 1824 1751 1866 2049 1937 1865 1978
8 1835 1716 1824 1938 1951 1834 1937 2049
8 1939 1826 1713 1829 2053 1942 1831 1946
8 1940 1827 1923 2035 2053 1942 1826 1939
8 1945 1830 1946 2058 1828 1712 1829 1944
8 2059 1947 1830 1945 1966 1849 1733 1851
8 1947 1832 1730 1849 2060 1948 1848 1965
8 1947 1832 1948 2060 1830 1714 1831 1946
8 1959 1847 1729 1843 2063 1949 1833 1950
8 1952 1843 1725 1836 2064 1950 1834 1951
8 1836 1725 1843 1952 1953 1842 1958 2066
8 1953 1842 1957 2067 1839 1724 1841 1955
8 1841 1955 1838 1723 1956 2068 1954 1840
8 2068 1956 1859 1967 1954 1840 1743 1852
8 1956 1844 1960 2069 1859 1747 1862 1973
8 1845 1957 1841 1727 1960 2069 1956 1844
8 1728 1842 1957 1845 1846 1958 2071 1961
8 1962 2072 1959 1847 1846 1958 1843 1729
8 1971 1861 1964 2077 1857 1746 1848 1965
8 1854 1741 1857 1969 1966 1849 1965 2078
8 1967 1859 1973 2079 1853 1745 1860 1968
8 1970 1858 1744 1856 2080 1972 1860 1968
8 1969 1857 1742 1855 2081 1971 1858 1970
8 1971 1861 1749 1858 2082 1974 1863 1972
8 1973 1862 1975 2083 1860 1748 1863 1972
8 1987 1882 1976 2086 1875 1768 1864 1977
8 1981 1875 1977 2087 1869 1761 1865 1978
8 1980 1877 1763 1868 2088 1986 1874 1979
8 1887 1775 1888 1997 1979 1874 1986 2088
8 1880 1982 2089 1989 1766 1870 1980 1877
8 1984 1876 1987 2090 1872 1762 1875 1981
8 1765 1871 1983 1879 1880 1982 2091 1991
8 1985 1878 1764 1873 2092 1990 1879 1983
8 1985 1878 1988 2093 1873 1764 1876 1984
8 2094 1992 1881 1986 1998 1889 1776 1888
8 1986 1881 1992 2094 1877 1773 1886 1989
8 1988 1883 1993 2095 1876 1769 1882 1987
8 1878 1770 1884 1990 1988 1883 1994 2096
8 1991 1885 1772 1880 2097 1996 1886 1989
8 1879 1771 1885 1991 1990 1884 1995 2098
8 2103 1998 1888 1997 2000 1891 1779 1890
8 2104 1999 1889 1998 2001 1892 1780 1891
8 2003 1894 2001 2106 1893 1782 1891 2000
8 2004 1895 2002 2107 1894 1783 1892 2001
8 2006 1897 2004 2109 1896 1785 1894 2003
8 2007 1898 2005 2110 1897 1786 1895 2004
8 2014 1901 2007 2112 1904 1789 1897 2006
8 2011 1899 2008 2113 1901 1787 1898 2007
8 2119 2010 1899 2011 2013 1900 1787 1901
8 2016 1902 2012 2122 1903 1788 1900 2013
8 2017 1903 2013 2123 1904 1789 1901 2014
8 1906 1791 1905 2019 2016 1902 2015 2125
8 1907 1792 1906 2020 2017 1903 2016 2126
8 1909 1793 1908 2022 2019 1905 2018 2128
8 2020 1906 1794 1910 2129 2019 1909 2023
8 1912 1796 1911 2025 2022 1908 2021 2131
8 1913 1797 1912 2026 2023 1909 2022 2132
8 1915 1799 1914 2028 2025 1911 2024 2134
8 1916 1800 1915 2029 2026 1912 2025 2135
8 1918 1804 1919 2031 2028 1914 2027 2136
8 1917 1803 1918 2030 2029 1915 2028 2137
8 1920 1806 1921 2032 2030 1918 2031 2138
8 1940 1827 1941 2054 2035 1923 2033 2140
8 2035 1923 2034 2143 1939 1826 1924 2037
8 2037 1924 2036 2146 1926 1811 1925 2039
8 2051 1939 2037 2147 1944 1829 1926 2040
8 2039 1925 2038 2149 1928 1812 1927 2042
8 2040 1926 2039 2150 1929 1813 1928 2043
8 2042 1927 2041 2151 1931 1814 1930 2044
8 2043 1928 2042 2152 1932 1815 1931 2045
8 2045 1931 2044 2153 1934 1818 1933 2046
8 2155 2047 1936 2048 2086 1976 1864 1977
8 2063 1949 1833 1950 2155 2047 1936 2048
8 2156 2048 1937 2049 2087 1977 1865 1978
8 2064 1950 1834 1951 2156 2048 1937 2049
8 2051 1939 1829 1944 2160 2053 1946 2058
8 2052 1940 2035 2144 2160 2053 1939 2051
8 2053 1942 1831 1946 2163 2057 1948 2060
8 2055 1943 1827 1940 2163 2057 1942 2053
8 2055 1943 2056 2164 1940 1827 1941 2054
8 2059 1947 1849 1966 2167 2060 1965 2078
8 2059 1947 2060 2167 1945 1830 1946 2058
8 2077 1964 2061 2168 1965 1848 1948 2060
8 2070 1963 1847 1959 2170 2062 1949 2063
8 2065 1959 1843 1952 2171 2063 1950 2064
8 2173 2072 1958 2066 2065 1959 1843 1952
8 1953 1842 1958 2066 2067 1957 2071 2174
8 2068 1956 2069 2175 1967 1859 1973 2079
8 2067 1957 2069 2175 1955 1841 1956 2068
8 1845 1957 2069 1960 1961 2071 2176 2073
8 2069 1960 2073 2176 1973 1862 1975 2083
8 2070 1963 2075 2177 1959 1847 1962 2072
8 1846 1958 2071 1961 1962 2072 2178 2074
8 2077 1964 1861 1971 2182 2076 1974 2082
8 2081 1971 2077 2183 1969 1857 1965 2078
8 2079 1973 2083 2184 1968 1860 1972 2080
8 2081 1971 1858 1970 2185 2082 1972 2080
8 2083 1975 2084 2186 1972 1863 1974 2082
8 2086 1976 1882 1987 2189 2085 1993 2095
8 2090 1987 2086 2190 1981 1875 1977 2087
8 2191 2094 1986 2088 2103 1998 1888 1997
8 2088 1986 2094 2191 1980 1877 1989 2089
8 1991 2091 2192 2097 1880 1982 2089 1989
8 2093 1988 2095 2193 1984 1876 1987 2090
8 1879 1983 2092 1990 1991 2091 2194 2098
8 1985 1878 1990 2092 2093 1988 2096 2195
8 2097 1996 1886 1989 2196 2099 1992 2094
8 2196 2099 1992 2094 2104 1999 1889 1998
8 1994 2096 1988 1883 2100 2197 2095 1993
8 2096 1994 1884 1990 2198 2101 1995 2098
8 1995 2098 2199 2102 1885 1991 2097 1996
8 2203 2104 1998 2103 2106 2001 1891 2000
8 2107 2002 2105 2204 2001 1892 1999 2104
8 2109 2004 2107 2206 2003 1894 2001 2106
8 2110 2005 2108 2207 2004 1895 2002 2107
8 2112 2007 2110 2209 2006 1897 2004 2109
8 2113 2008 2111 2210 2007 1898 2005 2110
8 2120 2011 2113 2212 2014 1901 2007 2112
8 2117 2009 2114 2213 2011 1899 2008 2113
8 2219 2116 2009 2117 2119 2010 1899 2011
8 2222 2118 2010 2119 2122 2012 1900 2013
8 2223 2119 2011 2120 2123 2013 1901 2014
8 2016 1902 2015 2125 2122 2012 2121 2225
8 2126 2016 2122 2226 2017 1903 2013 2123
8 2019 1905 2018 2128 2125 2015 2124 2228
8 2020 1906 2019 2129 2126 2016 2125 2229
8 2022 1908 2021 2131 2128 2018 2127 2231
8 2023 1909 2022 2132 2129 2019 2128 2232
8 2025 1911 2024 2134 2131 2021 2130 2234
8 2026 1912 2025 2135 2132 2022 2131 2235
8 1914 2028 2134 2024 2027 2136 2236 2133
8 2029 1915 2028 2137 2135 2025 2134 2237
8 2030 1918 2031 2138 2137 2028 2136 2238
8 2157 2050 2139 2240 2054 1941 2033 2140
8 2052 1940 2054 2161 2144 2035 2140 2242
8 2140 2033 2141 2243 2035 1923 2034 2143
8 2143 2034 2142 2246 2037 1924 2036 2146
8 2144 2035 2143 2247 2051 1939 2037 2147
8 2146 2036 2145 2249 2039 1925 2038 2149
8 2147 2037 2146 2250 2040 1926 2039 2150
8 2149 2038 2148 2251 2042 1927 2041 2151
8 2150 2039 2149 2252 2043 1928 2042 2152
8 2152 2042 2151 2253 2045 1931 2044 2153
8 2255 2154 2047 2155 2189 2085 1976 2086
8 2170 2062 1949 2063 2255 2154 2047 2155
8 2256 2155 2048 2156 2190 2086 1977 2087
8 2171 2063 1950 2064 2256 2155 2048 2156
8 2258 2159 2050 2157 2164 2056 1941 2054
8 2160 2053 1946 2058 2262 2163 2060 2167
8 2162 2055 1940 2052 2262 2163 2053 2160
8 2162 2055 2164 2263 2052 1940 2054 2161
8 2163 2057 1948 2060 2264 2165 2061 2168
8 2055 1943 2057 2163 2164 2056 2165 2264
8 2182 2076 2166 2268 2077 1964 2061 2168
8 2183 2077 2168 2269 2078 1965 2060 2167
8 2070 1963 2062 2170 2177 2075 2169 2271
8 2172 2070 1959 2065 2272 2170 2063 2171
8 2172 2070 2177 2273 2065 1959 2072 2173
8 2066 1958 2072 2173 2174 2071 2178 2274
8 2067 1957 2071 2174 2175 2069 2176 2275
8 2175 2069 2176 2275 2079 1973 2083 2184
8 2071 1961 2074 2178 2176 2073 2179 2276
8 2176 2073 2179 2276 2083 1975 2084 2186
8 2072 1962 2075 2177 2178 2074 2180 2277
8 2182 2076 1974 2082 2280 2181 2084 2186
8 2183 2077 1971 2081 2281 2182 2082 2185
8 2184 2083 2186 2282 2080 1972 2082 2185
8 2189 2085 1993 2095 2285 2188 2100 2197
8 2190 2086 1987 2090 2286 2189 2095 2193
8 2192 2097 1989 2089 2287 2196 2094 2191
8 2287 2196 2094 2191 2203 2104 1998 2103
8 2194 2098 1991 2091 2288 2199 2097 2192
8 2195 2096 2197 2289 2093 1988 2095 2193
8 2096 2195 2290 2198 1990 2092 2194 2098
8 2097 1996 2099 2196 2199 2102 2200 2291
8 2196 2099 1999 2104 2291 2200 2105 2204
8 2100 2197 2292 2201 1994 2096 2198 2101
8 1995 2098 2198 2101 2102 2199 2293 2202
8 2206 2107 2204 2296 2106 2001 2104 2203
8 2207 2108 2205 2297 2107 2002 2105 2204
8 2209 2110 2207 2299 2109 2004 2107 2206
8 2210 2111 2208 2300 2110 2005 2108 2207
8 2212 2113 2210 2302 2112 2007 2110 2209
8 2213 2114 2211 2303 2113 2008 2111 2210
8 2220 2117 2213 2305 2120 2011 2113 2212
8 2216 2115 2214 2306 2117 2009 2114 2213
8 2216 2115 2009 2117 2311 2217 2116 2219
8 2219 2116 2010 2119 2314 2218 2118 2222
8 2315 2219 2117 2220 2223 2119 2011 2120
8 2122 2012 2121 2225 2222 2118 2221 2317
8 2318 2222 2119 2223 2226 2122 2013 2123
8 2125 2015 2124 2228 2225 2121 2224 2320
8 2126 2016 2125 2229 2226 2122 2225 2321
8 2128 2018 2127 2231 2228 2124 2227 2323
8 2129 2019 2128 2232 2229 2125 2228 2324
8 2131 2021 2130 2234 2231 2127 2230 2326
8 2132 2022 2131 2235 2232 2128 2231 2327
8 2134 2024 2133 2236 2234 2130 2233 2328
8 2135 2025 2134 2237 2235 2131 2234 2329
8 2137 2028 2136 2238 2237 2134 2236 2330
8 2157 2050 2158 2259 2240 2139 2239 2332
8 2257 2157 2240 2334 2161 2054 2140 2242
8 2240 2139 2241 2335 2140 2033 2141 2243
8 2242 2140 2243 2337 2144 2035 2143 2247
8 2243 2141 2244 2338 2143 2034 2142 2246
8 2246 2142 2245 2341 2146 2036 2145 2249
8 2247 2143 2246 2342 2147 2037 2146 2250
8 2249 2145 2248 2343 2149 2038 2148 2251
8 2250 2146 2249 2344 2150 2039 2149 2252
8 2252 2149 2251 2345 2152 2042 2151 2253
8 2169 2271 2347 2254 2062 2170 2255 2154
8 2189 2085 2188 2285 2255 2154 2254 2347
8 2348 2255 2155 2256 2286 2189 2086 2190
8 2272 2170 2063 2171 2348 2255 2155 2256
8 2349 2258 2157 2257 2263 2164 2054 2161
8 2258 2159 2261 2351 2157 2050 2158 2259
8 2258 2159 2056 2164 2351 2261 2165 2264
8 2262 2163 2060 2167 2355 2264 2168 2269
8 2162 2055 2163 2262 2263 2164 2264 2355
8 2357 2266 2165 2264 2268 2166 2061 2168
8 2268 2166 2076 2182 2361 2267 2181 2280
8 2281 2182 2268 2362 2183 2077 2168 2269
8 2271 2169 2270 2364 2177 2075 2180 2277
8 2172 2070 2170 2272 2273 2177 2271 2365
8 2072 2173 2274 2178 2177 2273 2366 2277
8 2071 2174 2275 2176 2178 2274 2367 2276
8 2275 2176 2276 2367 2184 2083 2186 2282
8 2283 2187 2084 2186 2368 2278 2179 2276
8 2178 2074 2180 2277 2276 2179 2278 2368
8 2283 2187 2279 2370 2186 2084 2181 2280
8 2281 2182 2082 2185 2371 2280 2186 2282
8 2188 2285 2374 2284 2100 2197 2292 2201
8 2286 2189 2095 2193 2375 2285 2197 2289
8 2192 2097 2196 2287 2288 2199 2291 2376
8 2287 2196 2104 2203 2376 2291 2204 2296
8 2194 2098 2199 2288 2290 2198 2293 2377
8 2289 2197 2096 2195 2378 2292 2198 2290
8 2291 2200 2105 2204 2379 2294 2205 2297
8 2199 2102 2200 2291 2293 2202 2294 2379
8 2198 2101 2202 2293 2292 2201 2295 2380
8 2299 2207 2297 2383 2206 2107 2204 2296
8 2300 2208 2298 2384 2207 2108 2205 2297
8 2302 2210 2300 2386 2209 2110 2207 2299
8 2303 2211 2301 2387 2210 2111 2208 2300
8 2305 2213 2303 2389 2212 2113 2210 2302
8 2306 2214 2304 2390 2213 2114 2211 2303
8 2310 2216 2306 2392 2220 2117 2213 2305
8 2308 2215 2307 2393 2216 2115 2214 2306
8 2308 2215 2115 2216 2396 2309 2217 2311
8 2310 2216 2117 2220 2398 2311 2219 2315
8 2311 2217 2116 2219 2399 2312 2218 2314
8 2314 2218 2118 2222 2402 2313 2221 2317
8 2315 2219 2119 2223 2403 2314 2222 2318
8 2225 2121 2224 2320 2317 2221 2316 2405
8 2226 2122 2225 2321 2318 2222 2317 2406
8 2228 2124 2227 2323 2320 2224 2319 2408
8 2229 2125 2228 2324 2321 2225 2320 2409
8 2231 2127 2230 2326 2323 2227 2322 2411
8 2232 2128 2231 2327 2324 2228 2323 2412
8 2234 2130 2233 2328 2326 2230 2325 2413
8 2235 2131 2234 2329 2327 2231 2326 2414
8 2237 2134 2236 2330 2329 2234 2328 2415
8 2259 2158 2260 2352 2332 2239 2331 2417
8 2257 2157 2259 2350 2334 2240 2332 2419
8 2240 2139 2239 2332 2335 2241 2333 2420
8 2334 2240 2335 2422 2242 2140 2243 2337
8 2335 2241 2336 2423 2243 2141 2244 2338
8 2337 2243 2338 2425 2247 2143 2246 2342
8 2338 2244 2339 2426 2246 2142 2245 2341
8 2341 2245 2340 2428 2249 2145 2248 2343
8 2342 2246 2341 2429 2250 2146 2249 2344
8 2344 2249 2343 2430 2252 2149 2251 2345
8 2188 2285 2347 2254 2284 2374 2432 2346
8 2347 2254 2346 2432 2271 2169 2270 2364
8 2365 2271 2170 2272 2433 2347 2255 2348
8 2286 2189 2285 2375 2348 2255 2347 2433
8 2349 2258 2351 2435 2257 2157 2259 2350
8 2349 2258 2164 2263 2435 2351 2264 2355
8 2259 2158 2261 2351 2352 2260 2354 2437
8 2356 2265 2354 2437 2264 2165 2261 2351
8 2441 2357 2264 2355 2362 2268 2168 2269
8 2356 2265 2165 2264 2442 2358 2266 2357
8 2443 2359 2266 2357 2361 2267 2166 2268
8 2370 2279 2360 2446 2280 2181 2267 2361
8 2362 2268 2182 2281 2447 2361 2280 2371
8 2180 2277 2368 2278 2270 2364 2449 2363
8 2271 2365 2273 2177 2364 2450 2366 2277
8 2372 2283 2186 2282 2451 2368 2276 2367
8 2178 2274 2367 2276 2277 2366 2451 2368
8 2283 2187 2278 2368 2370 2279 2369 2452
8 2372 2283 2370 2453 2282 2186 2280 2371
8 2284 2374 2455 2373 2201 2292 2380 2295
8 2375 2285 2197 2289 2456 2374 2292 2378
8 2376 2291 2204 2296 2457 2379 2297 2383
8 2288 2199 2291 2376 2377 2293 2379 2457
8 2198 2290 2378 2292 2293 2377 2458 2380
8 2293 2202 2294 2379 2380 2295 2381 2459
8 2384 2298 2381 2459 2297 2205 2294 2379
8 2386 2300 2384 2463 2299 2207 2297 2383
8 2387 2301 2385 2464 2300 2208 2298 2384
8 2389 2303 2387 2466 2302 2210 2300 2386
8 2390 2304 2388 2467 2303 2211 2301 2387
8 2392 2306 2390 2469 2305 2213 2303 2389
8 2393 2307 2391 2470 2306 2214 2304 2390
8 2395 2308 2393 2472 2310 2216 2306 2392
8 2308 2215 2309 2396 2393 2307 2394 2473
8 2395 2308 2216 2310 2475 2396 2311 2398
8 2396 2309 2217 2311 2476 2397 2312 2399
8 2398 2311 2219 2315 2478 2399 2314 2403
8 2399 2312 2218 2314 2479 2400 2313 2402
8 2317 2221 2316 2405 2402 2313 2401 2482
8 2403 2314 2222 2318 2483 2402 2317 2406
8 2320 2224 2319 2408 2405 2316 2404 2485
8 2321 2225 2320 2409 2406 2317 2405 2486
8 2323 2227 2322 2411 2408 2319 2407 2488
8 2324 2228 2323 2412 2409 2320 2408 2489
8 2326 2230 2325 2413 2411 2322 2410 2490
8 2327 2231 2326 2414 2412 2323 2411 2491
8 2329 2234 2328 2415 2414 2326 2413 2492
8 2417 2331 2260 2352 2494 2416 2353 2438
8 2350 2259 2352 2436 2419 2332 2417 2496
8 2332 2239 2331 2417 2420 2333 2418 2497
8 2334 2240 2332 2419 2422 2335 2420 2499
8 2420 2333 2421 2500 2335 2241 2336 2423
8 2422 2335 2423 2502 2337 2243 2338 2425
8 2423 2336 2424 2503 2338 2244 2339 2426
8 2425 2338 2426 2505 2342 2246 2341 2429
8 2426 2339 2427 2506 2341 2245 2340 2428
8 2429 2341 2428 2507 2344 2249 2343 2430
8 2432 2346 2284 2374 2509 2431 2373 2455
8 2432 2346 2431 2509 2364 2270 2363 2449
8 2375 2285 2374 2456 2433 2347 2432 2510
8 2347 2433 2365 2271 2432 2510 2450 2364
8 2350 2259 2351 2435 2436 2352 2437 2514
8 2440 2356 2437 2514 2355 2264 2351 2435
8 2352 2260 2354 2437 2438 2353 2439 2516
8 2356 2265 2358 2442 2437 2354 2439 2516
8 2440 2356 2264 2355 2518 2442 2357 2441
8 2519 2443 2357 2441 2447 2361 2268 2362
8 2443 2359 2444 2520 2357 2266 2358 2442
8 2443 2359 2267 2361 2520 2444 2360 2446
8 2446 2360 2279 2370 2523 2445 2369 2452
8 2453 2370 2446 2524 2371 2280 2361 2447
8 2449 2363 2448 2525 2368 2278 2369 2452
8 2366 2277 2364 2450 2451 2368 2449 2526
8 2372 2283 2368 2451 2453 2370 2452 2527
8 2455 2373 2295 2380 2529 2454 2382 2460
8 2456 2374 2292 2378 2530 2455 2380 2458
8 2377 2293 2379 2457 2458 2380 2459 2531
8 2463 2384 2459 2531 2383 2297 2379 2457
8 2533 2461 2382 2460 2459 2381 2295 2380
8 2464 2385 2461 2533 2384 2298 2381 2459
8 2466 2387 2464 2537 2386 2300 2384 2463
8 2467 2388 2465 2538 2387 2301 2385 2464
8 2469 2390 2467 2540 2389 2303 2387 2466
8 2470 2391 2468 2541 2390 2304 2388 2467
8 2472 2393 2470 2543 2392 2306 2390 2469
8 2393 2307 2394 2473 2470 2391 2471 2544
8 2395 2308 2396 2475 2472 2393 2473 2546
8 2396 2309 2397 2476 2473 2394 2474 2547
8 2475 2396 2311 2398 2549 2476 2399 2478
8 2476 2397 2312 2399 2550 2477 2400 2479
8 2478 2399 2314 2403 2552 2479 2402 2483
8 2479 2400 2313 2402 2553 2480 2401 2482
8 2405 2316 2404 2485 2482 2401 2481 2556
8 2406 2317 2405 2486 2483 2402 2482 2557
8 2408 2319 2407 2488 2485 2404 2484 2559
8 2409 2320 2408 2489 2486 2405 2485 2560
8 2411 2322 2410 2490 2488 2407 2487 2561
8 2412 2323 2411 2491 2489 2408 2488 2562
8 2414 2326 2413 2492 2491 2411 2490 2563
8 2513 2434 2493 2565 2438 2353 2416 2494
8 2496 2417 2352 2436 2567 2494 2438 2515
8 2494 2416 2495 2568 2417 2331 2418 2497
8 2419 2332 2417 2496 2499 2420 2497 2570
8 2497 2418 2498 2571 2420 2333 2421 2500
8 2499 2420 2500 2573 2422 2335 2423 2502
8 2500 2421 2501 2574 2423 2336 2424 2503
8 2502 2423 2503 2576 2425 2338 2426 2505
8 2503 2424 2504 2577 2426 2339 2427 2506
8 2505 2426 2506 2578 2429 2341 2428 2507
8 2509 2431 2373 2455 2580 2508 2454 2529
8 2509 2431 2508 2580 2449 2363 2448 2525
8 2432 2510 2581 2509 2374 2456 2530 2455
8 2432 2510 2450 2364 2509 2581 2526 2449
8 2583 2511 2434 2513 2516 2439 2353 2438
8 2436 2352 2437 2514 2515 2438 2516 2588
8 2440 2356 2442 2518 2514 2437 2516 2588
8 2442 2358 2444 2520 2516 2439 2517 2589
8 2519 2443 2520 2591 2441 2357 2442 2518
8 2519 2443 2361 2447 2591 2520 2446 2524
8 2446 2360 2445 2523 2520 2444 2521 2592
8 2525 2448 2522 2593 2452 2369 2445 2523
8 2524 2446 2370 2453 2594 2523 2452 2527
8 2526 2449 2525 2595 2451 2368 2452 2527
8 2534 2462 2528 2597 2460 2382 2454 2529
8 2530 2455 2380 2458 2598 2529 2460 2532
8 2599 2533 2460 2532 2531 2459 2380 2458
8 2537 2464 2533 2599 2463 2384 2459 2531
8 2534 2462 2382 2460 2601 2535 2461 2533
8 2538 2465 2535 2601 2464 2385 2461 2533
8 2540 2467 2538 2604 2466 2387 2464 2537
8 2541 2468 2539 2605 2467 2388 2465 2538
8 2543 2470 2541 2607 2469 2390 2467 2540
8 2470 2391 2471 2544 2541 2468 2542 2608
8 2472 2393 2473 2546 2543 2470 2544 2610
8 2473 2394 2474 2547 2544 2471 2545 2611
8 2475 2396 2476 2549 2546 2473 2547 2613
8 2476 2397 2477 2550 2547 2474 2548 2614
8 2549 2476 2399 2478 2616 2550 2479 2552
8 2479 2400 2480 2553 2550 2477 2551 2617
8 2552 2479 2402 2483 2619 2553 2482 2557
8 2482 2401 2481 2556 2553 2480 2554 2620
8 2485 2404 2484 2559 2556 2481 2555 2623
8 2486 2405 2485 2560 2557 2482 2556 2624
8 2488 2407 2487 2561 2559 2484 2558 2625
8 2489 2408 2488 2562 2560 2485 2559 2626
8 2491 2411 2490 2563 2562 2488 2561 2627
8 2513 2434 2512 2585 2565 2493 2564 2630
8 2586 2513 2565 2632 2515 2438 2494 2567
8 2565 2493 2566 2633 2494 2416 2495 2568
8 2567 2494 2568 2635 2496 2417 2497 2570
8 2568 2495 2569 2636 2497 2418 2498 2571
8 2570 2497 2571 2638 2499 2420 2500 2573
8 2571 2498 2572 2639 2500 2421 2501 2574
8 2573 2500 2574 2641 2502 2423 2503 2576
8 2574 2501 2575 2642 2503 2424 2504 2577
8 2576 2503 2577 2643 2505 2426 2506 2578
8 2597 2528 2579 2645 2529 2454 2508 2580
8 2580 2508 2579 2645 2525 2448 2522 2593
8 2581 2509 2455 2530 2646 2580 2529 2598
8 2581 2509 2580 2646 2526 2449 2525 2595
8 2583 2511 2582 2648 2513 2434 2512 2585
8 2583 2511 2439 2516 2648 2582 2517 2589
8 2649 2583 2513 2586 2588 2516 2438 2515
8 2589 2517 2444 2520 2653 2587 2521 2592
8 2518 2442 2520 2591 2588 2516 2589 2654
8 2593 2522 2590 2655 2523 2445 2521 2592
8 2524 2446 2523 2594 2591 2520 2592 2656
8 2595 2525 2593 2657 2527 2452 2523 2594
8 2602 2536 2596 2659 2534 2462 2528 2597
8 2600 2534 2597 2660 2532 2460 2529 2598
8 2600 2534 2460 2532 2661 2601 2533 2599
8 2604 2538 2601 2661 2537 2464 2533 2599
8 2602 2536 2462 2534 2663 2603 2535 2601
8 2601 2535 2465 2538 2663 2603 2539 2605
8 2607 2541 2605 2665 2540 2467 2538 2604
8 2608 2542 2606 2666 2541 2468 2539 2605
8 2543 2470 2544 2610 2607 2541 2608 2668
8 2544 2471 2545 2611 2608 2542 2609 2669
8 2546 2473 2547 2613 2610 2544 2611 2671
8 2547 2474 2548 2614 2611 2545 2612 2672
8 2549 2476 2550 2616 2613 2547 2614 2674
8 2550 2477 2551 2617 2614 2548 2615 2675
8 2552 2479 2553 2619 2616 2550 2617 2677
8 2553 2480 2554 2620 2617 2551 2618 2678
8 2557 2482 2556 2624 2619 2553 2620 2680
8 2556 2481 2555 2623 2620 2554 2621 2681
8 2559 2484 2558 2625 2623 2555 2622 2683
8 2560 2485 2559 2626 2624 2556 2623 2684
8 2562 2488 2561 2627 2626 2559 2625 2685
8 2690 2629 2564 2630 2650 2584 2512 2585
8 2586 2513 2585 2651 2632 2565 2630 2691
8 2630 2564 2631 2692 2565 2493 2566 2633
8 2632 2565 2633 2694 2567 2494 2568 2635
8 2633 2566 2634 2695 2568 2495 2569 2636
8 2635 2568 2636 2697 2570 2497 2571 2638
8 2636 2569 2637 2698 2571 2498 2572 2639
8 2638 2571 2639 2700 2573 2500 2574 2641
8 2639 2572 2640 2701 2574 2501 2575 2642
8 2641 2574 2642 2702 2576 2503 2577 2643
8 2597 2528 2596 2659 2645 2579 2644 2704
8 2645 2579 2644 2704 2593 2522 2590 2655
8 2660 2597 2645 2705 2598 2529 2580 2646
8 2646 2580 2645 2705 2595 2525 2593 2657
8 2650 2584 2512 2585 2707 2647 2582 2648
8 2648 2582 2517 2589 2707 2647 2587 2653
8 2649 2583 2648 2708 2586 2513 2585 2651
8 2649 2583 2516 2588 2708 2648 2589 2654
8 2655 2590 2652 2710 2592 2521 2587 2653
8 2654 2589 2520 2591 2711 2653 2592 2656
8 2657 2593 2655 2712 2594 2523 2592 2656
8 2602 2536 2603 2663 2659 2596 2658 2714
8 2662 2602 2659 2715 2600 2534 2597 2660
8 2662 2602 2534 2600 2717 2663 2601 2661
8 2661 2601 2538 2604 2717 2663 2605 2665
8 2666 2606 2664 2718 2605 2539 2603 2663
8 2668 2608 2666 2720 2607 2541 2605 2665
8 2608 2542 2609 2669 2666 2606 2667 2721
8 2610 2544 2611 2671 2668 2608 2669 2723
8 2611 2545 2612 2672 2669 2609 2670 2724
8 2613 2547 2614 2674 2671 2611 2672 2726
8 2614 2548 2615 2675 2672 2612 2673 2727
8 2616 2550 2617 2677 2674 2614 2675 2729
8 2617 2551 2618 2678 2675 2615 2676 2730
8 2619 2553 2620 2680 2677 2617 2678 2732
8 2620 2554 2621 2681 2678 2618 2679 2733
8 2624 2556 2623 2684 2680 2620 2681 2735
8 2681 2621 2555 2623 2736 2682 2622 2683
8 2626 2559 2625 2685 2684 2623 2683 2737
8 2688 2628 2584 2650 2740 2686 2647 2707
8 2688 2628 2687 2742 2650 2584 2629 2690
8 2690 2629 2689 2745 2630 2564 2631 2692
8 2746 2690 2630 2691 2709 2650 2585 2651
8 2691 2630 2692 2747 2632 2565 2633 2694
8 2692 2631 2693 2748 2633 2566 2634 2695
8 2694 2633 2695 2750 2635 2568 2636 2697
8 2695 2634 2696 2751 2636 2569 2637 2698
8 2697 2636 2698 2753 2638 2571 2639 2700
8 2698 2637 2699 2754 2639 2572 2640 2701
8 2700 2639 2701 2755 2641 2574 2642 2702
8 2659 2596 2658 2714 2704 2644 2703 2757
8 2704 2644 2703 2757 2655 2590 2652 2710
8 2660 2597 2659 2715 2705 2645 2704 2758
8 2705 2645 2704 2758 2657 2593 2655 2712
8 2759 2706 2647 2707 2710 2652 2587 2653
8 2709 2650 2585 2651 2760 2707 2648 2708
8 2708 2648 2589 2654 2760 2707 2653 2711
8 2712 2655 2710 2761 2656 2592 2653 2711
8 2763 2713 2658 2714 2718 2664 2603 2663
8 2662 2602 2663 2717 2715 2659 2714 2764
8 2720 2666 2718 2767 2665 2605 2663 2717
8 2768 2719 2664 2718 2721 2667 2606 2666
8 2668 2608 2669 2723 2720 2666 2721 2770
8 2669 2609 2670 2724 2721 2667 2722 2771
8 2671 2611 2672 2726 2723 2669 2724 2773
8 2672 2612 2673 2727 2724 2670 2725 2774
8 2674 2614 2675 2729 2726 2672 2727 2776
8 2675 2615 2676 2730 2727 2673 2728 2777
8 2677 2617 2678 2732 2729 2675 2730 2779
8 2678 2618 2679 2733 2730 2676 2731 2780
8 2680 2620 2681 2735 2732 2678 2733 2782
8 2733 2679 2621 2681 2783 2734 2682 2736
8 2735 2681 2623 2684 2784 2736 2683 2737
8 2740 2686 2647 2707 2787 2738 2706 2759
8 2688 2628 2686 2740 2742 2687 2739 2789
8 2743 2688 2650 2709 2790 2740 2707 2760
8 2742 2687 2741 2792 2690 2629 2689 2745
8 2743 2688 2742 2793 2709 2650 2690 2746
8 2745 2689 2744 2795 2692 2631 2693 2748
8 2746 2690 2745 2796 2691 2630 2692 2747
8 2747 2692 2748 2797 2694 2633 2695 2750
8 2748 2693 2749 2798 2695 2634 2696 2751
8 2750 2695 2751 2800 2697 2636 2698 2753
8 2751 2696 2752 2801 2698 2637 2699 2754
8 2753 2698 2754 2802 2700 2639 2701 2755
8 2763 2713 2756 2804 2714 2658 2703 2757
8 2759 2706 2652 2710 2804 2756 2703 2757
8 2715 2659 2714 2764 2758 2704 2757 2805
8 2758 2704 2757 2805 2712 2655 2710 2761
8 2806 2759 2707 2760 2761 2710 2653 2711
8 2765 2716 2762 2808 2718 2664 2713 2763
8 2809 2763 2714 2764 2767 2718 2663 2717
8 2765 2716 2664 2718 2811 2766 2719 2768
8 2813 2768 2718 2767 2770 2721 2666 2720
8 2814 2769 2719 2768 2771 2722 2667 2721
8 2723 2669 2724 2773 2770 2721 2771 2816
8 2724 2670 2725 2774 2771 2722 2772 2817
8 2726 2672 2727 2776 2773 2724 2774 2819
8 2727 2673 2728 2777 2774 2725 2775 2820
8 2729 2675 2730 2779 2776 2727 2777 2822
8 2730 2676 2731 2780 2777 2728 2778 2823
8 2732 2678 2733 2782 2779 2730 2780 2825
8 2780 2731 2679 2733 2826 2781 2734 2783
8 2782 2733 2681 2735 2827 2783 2736 2784
8 2830 2785 2738 2787 2804 2756 2706 2759
8 2789 2739 2686 2740 2832 2786 2738 2787
8 2790 2740 2707 2760 2833 2787 2759 2806
8 2742 2687 2739 2789 2792 2741 2788 2835
8 2743 2688 2740 2790 2793 2742 2789 2836
8 2792 2741 2791 2838 2745 2689 2744 2795
8 2793 2742 2792 2839 2746 2690 2745 2796
8 2795 2744 2794 2841 2748 2693 2749 2798
8 2796 2745 2795 2842 2747 2692 2748 2797
8 2797 2748 2798 2843 2750 2695 2751 2800
8 2798 2749 2799 2844 2751 2696 2752 2801
8 2800 2751 2801 2845 2753 2698 2754 2802
8 2808 2762 2803 2847 2763 2713 2756 2804
8 2809 2763 2804 2848 2764 2714 2757 2805
8 2806 2759 2710 2761 2848 2804 2757 2805
8 2765 2716 2766 2811 2808 2762 2807 2850
8 2810 2765 2808 2851 2767 2718 2763 2809
8 2810 2765 2718 2767 2852 2811 2768 2813
8 2811 2766 2719 2768 2853 2812 2769 2814
8 2855 2814 2768 2813 2816 2771 2721 2770
8 2856 2815 2769 2814 2817 2772 2722 2771
8 2773 2724 2774 2819 2816 2771 2817 2858
8 2774 2725 2775 2820 2817 2772 2818 2859
8 2776 2727 2777 2822 2819 2774 2820 2861
8 2777 2728 2778 2823 2820 2775 2821 2862
8 2779 2730 2780 2825 2822 2777 2823 2864
8 2823 2778 2731 2780 2865 2824 2781 2826
8 2825 2780 2733 2782 2866 2826 2783 2827
8 2869 2828 2785 2830 2847 2803 2756 2804
8 2871 2829 2786 2832 2830 2785 2738 2787
8 2872 2830 2787 2833 2848 2804 2759 2806
8 2789 2739 2786 2832 2835 2788 2831 2874
8 2836 2789 2740 2790 2875 2832 2787 2833
8 2792 2741 2788 2835 2838 2791 2834 2877
8 2793 2742 2789 2836 2839 2792 2835 2878
8 2838 2791 2837 2880 2795 2744 2794 2841
8 2839 2792 2838 2881 2796 2745 2795 2842
8 2841 2794 2840 2882 2798 2749 2799 2844
8 2842 2795 2841 2883 2797 2748 2798 2843
8 2843 2798 2844 2884 2800 2751 2801 2845
8 2886 2846 2803 2847 2850 2807 2762 2808
8 2851 2808 2847 2887 2809 2763 2804 2848
8 2850 2807 2766 2811 2889 2849 2812 2853
8 2810 2765 2811 2852 2851 2808 2850 2890
8 2852 2811 2768 2813 2891 2853 2814 2855
8 2853 2812 2769 2814 2892 2854 2815 2856
8 2894 2856 2814 2855 2858 2817 2771 2816
8 2817 2772 2818 2859 2856 2815 2857 2895
8 2819 2774 2820 2861 2858 2817 2859 2897
8 2820 2775 2821 2862 2859 2818 2860 2898
8 2822 2777 2823 2864 2861 2820 2862 2900
8 2823 2778 2824 2865 2862 2821 2863 2901
8 2864 2823 2780 2825 2902 2865 2826 2866
8 2904 2867 2828 2869 2886 2846 2803 2847
8 2869 2828 2868 2906 2830 2785 2829 2871
8 2907 2869 2830 2872 2887 2847 2804 2848
8 2871 2829 2870 2909 2832 2786 2831 2874
8 2910 2871 2832 2875 2872 2830 2787 2833
8 2835 2788 2831 2874 2877 2834 2873 2912
8 2836 2789 2832 2875 2878 2835 2874 2913
8 2877 2834 2876 2915 2838 2791 2837 2880
8 2839 2792 2835 2878 2881 2838 2877 2916
8 2880 2837 2879 2917 2841 2794 2840 2882
8 2881 2838 2880 2918 2842 2795 2841 2883
8 2883 2841 2882 2919 2843 2798 2844 2884
8 2921 2885 2846 2886 2889 2849 2807 2850
8 2922 2886 2847 2887 2890 2850 2808 2851
8 2889 2849 2812 2853 2924 2888 2854 2892
8 2890 2850 2811 2852 2925 2889 2853 2891
8 2891 2853 2814 2855 2926 2892 2856 2894
8 2892 2854 2815 2856 2927 2893 2857 2895
8 2858 2817 2859 2897 2894 2856 2895 2929
8 2859 2818 2860 2898 2895 2857 2896 2930
8 2861 2820 2862 2900 2897 2859 2898 2932
8 2862 2821 2863 2901 2898 2860 2899 2933
8 2864 2823 2865 2902 2900 2862 2901 2934
8 2904 2867 2846 2886 2936 2903 2885 2921
8 2904 2867 2903 2936 2869 2828 2868 2906
8 2937 2904 2869 2907 2922 2886 2847 2887
8 2906 2868 2905 2939 2871 2829 2870 2909
8 2907 2869 2906 2940 2872 2830 2871 2910
8 2909 2870 2908 2942 2874 2831 2873 2912
8 2910 2871 2909 2943 2875 2832 2874 2913
8 2912 2873 2911 2945 2877 2834 2876 2915
8 2878 2835 2874 2913 2916 2877 2912 2946
8 2915 2876 2914 2947 2880 2837 2879 2917
8 2916 2877 2915 2948 2881 2838 2880 2918
8 2918 2880 2917 2949 2883 2841 2882 2919
8 2921 2885 2849 2889 2951 2920 2888 2924
8 2952 2921 2886 2922 2925 2889 2850 2890
8 2924 2888 2854 2892 2954 2923 2893 2927
8 2925 2889 2853 2891 2955 2924 2892 2926
8 2926 2892 2856 2894 2956 2927 2895 2929
8 2895 2857 2896 2930 2927 2893 2928 2957
8 2897 2859 2898 2932 2929 2895 2930 2959
8 2898 2860 2899 2933 2930 2896 2931 2960
8 2900 2862 2901 2934 2932 2898 2933 2961
8 2936 2903 2885 2921 2963 2935 2920 2951
8 2936 2903 2935 2963 2906 2868 2905 2939
8 2937 2904 2886 2922 2964 2936 2921 2952
8 2937 2904 2936 2964 2907 2869 2906 2940
8 2939 2905 2938 2966 2909 2870 2908 2942
8 2940 2906 2939 2967 2910 2871 2909 2943
8 2942 2908 2941 2969 2912 2873 2911 2945
8 2943 2909 2942 2970 2913 2874 2912 2946
8 2945 2911 2944 2971 2915 2876 2914 2947
8 2946 2912 2945 2972 2916 2877 2915 2948
8 2948 2915 2947 2973 2918 2880 2917 2949
8 2951 2920 2888 2924 2975 2950 2923 2954
8 2952 2921 2889 2925 2976 2951 2924 2955
8 2927 2893 2928 2957 2954 2923 2953 2978
8 2955 2924 2892 2926 2979 2954 2927 2956
8 2929 2895 2930 2959 2956 2927 2957 2980
8 2930 2896 2931 2960 2957 2928 2958 2981
8 2932 2898 2933 2961 2959 2930 2960 2982
8 2951 2920 2950 2975 2963 2935 2962 2984
8 2963 2935 2962 2984 2939 2905 2938 2966
8 2964 2936 2921 2952 2985 2963 2951 2976
8 2964 2936 2963 2985 2940 2906 2939 2967
8 2966 2938 2965 2987 2942 2908 2941 2969
8 2967 2939 2966 2988 2943 2909 2942 2970
8 2969 2941 2968 2989 2945 2911 2944 2971
8 2970 2942 2969 2990 2946 2912 2945 2972
8 2972 2945 2971 2991 2948 2915 2947 2973
8 2954 2923 2953 2978 2975 2950 2974 2993
8 2976 2951 2924 2955 2994 2975 2954 2979
8 2957 2928 2958 2981 2978 2953 2977 2995
8 2956 2927 2957 2980 2979 2954 2978 2996
8 2959 2930 2960 2982 2980 2957 2981 2997
8 2984 2962 2983 2999 2966 2938 2965 2987
8 2975 2950 2974 2993 2984 2962 2983 2999
8 2976 2951 2975 2994 2985 2963 2984 3000
8 2985 2963 2984 3000 2967 2939 2966 2988
8 2987 2965 2986 3001 2969 2941 2968 2989
8 2988 2966 2987 3002 2970 2942 2969 2990
8 2990 2969 2989 3003 2972 2945 2971 2991
8 2978 2953 2977 2995 2993 2974 2992 3004
8 2979 2954 2978 2996 2994 2975 2993 3005
8 2980 2957 2981 2997 2996 2978 2995 3006
8 2974 2993 2999 2983 2992 3004 3007 2998
8 2983 2999 2987 2965 2998 3007 3001 2986
8 3000 2984 2999 3008 2988 2966 2987 3002
8 2994 2975 2993 3005 3000 2984 2999 3008
8 3002 2987 3001 3009 2990 2969 2989 3003
8 2996 2978 2995 3006 3005 2993 3004 3010
8 3005 2993 3004 3010 3008 2999 3007 3011
8 3008 2999 3007 3011 3002 2987 3001 3009

CELL_TYPES 1910
12
12
12
12
12
12
12
12
12
12
12
12
12
12
12
12
12
12
12
12
12
12
12
12
12
12
12
12
12
12
12
12
12
12
12
12
12
12
12
12
12
12
12
12
12
12
12
12
12
12
12
12
12
12
12
12
12
12
12
12
12
12
12
12
12
12
12
12
12
12
12
12
12
12
12
12
12
12
12
12
12
12
12
12
12
12
12
12
12
12
12
12
12
12
12
12
12
12
12
12
12
12
12
12
12
12
12
12
12
12
12
12
12
12
12
12
12
12
12
12
12
12
12
12
12
12
12
12
12
12
12
12
12
12
12
12
12
12
12
12
12
12
12
12
12
12
12
12
12
12
12
12
12
12
12
12
12
12
12
12
12
12
12
12
12
12
12
12
12
12
12
12
12
12
12
12
12
12
12
12
12
12
12
12
12
12
12
12
12
12
12
12
12
12
12
12
12
12
12
12
12
12
12
12
12
12
12
12
12
12
12
12
12
12
12
12
12
12
12
12
12
12
12
12
12
12
12
12
12
12
12
12
12
12
12
12
12
12
12
12
12
12
12
12
12
12
12
12
12
12
12
12
12
12
12
12
12
12
12
12
12
12
12
12
12
12
12
12
12
12
12
12
12
12
12
12
12
12
12
12
12
12
12
12
12
12
12
12
12
12
12
12
12
12
12
12
12
12
12
12
12
12
12
12
12
12
12
12
12
12
12
12
12
12
12
12
12
12
12
12
12
12
12
12
12
12
12
12
12
12
12
12
12
12
12
12
12
12
12
12
12
12
12
12
12
12
12
12
12
12
12
12
12
12
12
12
12
12
12
12
12
12
12
12
12
12
12
12
12
12
12
12
12
12
12
12
12
12
12
12
12
12
12
12
12
12
12
12
12
12
12
12
12
12
12
12
12
12
12
12
12
12
12
12
12
12
12
12
12
12
12
12
12
12
12
12
12
12
12
12
12
12
12
12
12
12
12
12
12
12
12
12
12
12
12
12
12
12
12
12
12
12
12
12
12
12
12
12
12
12
12
12
12
12
12
12
12
12
12
12
12
12
12
12
12
12
12
12
12
12
12
12
12
12
12
12
12
12
12
12
12
12
12
12
12
12
12
12
12
12
12
12
12
12
12
12
12
12
12
12
12
12
12
12
12
12
12
12
12
12
12
12
12
12
12
12
12
12
12
12
12
12
12
12
12
12
12
12
12
12
12
12
12
12
12
12
12
12
12
12
12
12
12
12
12
12
12
12
12
12
12
12
12
12
12
12
12
12
12
12
12
12
12
12
12
12
12
12
12
12
12
12
12
12
12
12
12
12
12
12
12
12
12
12
12
12
12
12
12
12
12
12
12
12
12
12
12
12
12
12
12
12
12
12
12
12
12
12
12
12
12
12
12
12
12
12
12
12
12
12
12
12
12
12
12
12
12
12
12
12
12
12
12
12
12
12
12
12
12
12
12
12
12
12
12
12
12
12
12
12
12
12
12
12
12
12
12
12
12
12
12
12
12
12
12
12
12
12
12
12
12
12
12
12
12
12
12
12
12
12
12
12
12
12
12
12
12
12
12
12
12
12
12
12
12
12
12
12
12
12
12
12
12
12
12
12
12
12
12
12
12
12
12
12
12
12
12
12
12
12
12
12
12
12
12
12
12
12
12
12
12
12
12
12
12
12
12
12
12
12
12
12
12
12
12
12
12
12
12
12
12
12
12
12
12
12
12
12
12
12
12
12
12
12
12
12
12
12
12
12
12
12
12
12
12
12
12
12
12
12
12
12
12
12
12
12
12
12
12
12
12
12
12
12
12
12
12
12
12
12
12
12
12
12
12
12
12
12
12
12
12
12
12
12
12
12
12
12
12
12
12
12
12
12
12
12
12
12
12
12
12
12
12
12
12
12
12
12
12
12
12
12
12
12
12
12
12
12
12
12
12
12
12
12
12
12
12
12
12
12
12
12
12
12
12
12
12
12
12
12
12
12
12
12
12
12
12
12
12
12
12
12
12
12
12
12
12
12
12
12
12
12
12
12
12
12
12
12
12
12
12
12
12
12
12
12
12
12
12
12
12
12
12
12
12
12
12
12
12
12
12
12
12
12
12
12
12
12
12
12
12
12
12
12
12
12
12
12
12
12
12
12
12
12
12
12
12
12
12
12
12
12
12
12
12
12
12
12
12
12
12
12
12
12
12
12
12
12
12
12
12
12
12
12
12
12
12
12
12
12
12
12
12
12
12
12
12
12
12
12
12
12
12
12
12
12
12
12
12
12
12
12
12
12
12
12
12
12
12
12
12
12
12
12
12
12
12
12
12
12
12
12
12
12
12
12
12
12
12
12
12
12
12
12
12
12
12
12
12
12
12
12
12
12
12
12
12
12
12
12
12
12
12
12
12
12
12
12
12
12
12
12
12
12
12
12
12
12
12
12
12
12
12
12
12
12
12
12
12
12
12
12
12
12
12
12
12
12
12
12
12
12
12
12
12
12
12
12
12
12
12
12
12
12
12
12
12
12
12
12
12
12
12
12
12
12
12
12
12
12
12
12
12
12
12
12
12
12
12
12
12
12
12
12
12
12
12
12
12
12
12
12
12
12
12
12
12
12
12
12
12
12
12
12
12
12
12
12
12
12
12
12
12
12
12
12
12
12
12
12
12
12
12
12
12
12
12
12
12
12
12
12
12
12
12
12
12
12
12
12
12
12
12
12
12
12
12
12
12
12
12
12
12
12
12
12
12
12
12
12
12
12
12
12
12
12
12
12
12
12
12
12
12
12
12
12
12
12
12
12
12
12
12
12
12
12
12
12
12
12
12
12
12
12
12
12
12
12
12
12
12
12
12
12
12
12
12
12
12
12
12
12
12
12
12
12
12
12
12
12
12
12
12
12
12
12
12
12
12
12
12
12
12
12
12
12
12
12
12
12
12
12
12
12
12
12
12
12
12
12
12
12
12
12
12
12
12
12
12
12
12
12
12
12
12
12
12
12
12
12
12
12
12
12
12
12
12
12
12
12
12
12
12
12
12
12
12
12
12
12
12
12
12
12
12
12
12
12
12
12
12
12
12
12
12
12
12
12
12
12
12
12
12
12
12
12
12
12
12
12
12
12
12
12
12
12
12
12
12
12
12
12
12
12
12
12
12
12
12
12
12
12
12
12
12
12
12
12
12
12
12
12
12
12
12
12
12
12
12
12
12
12
12
12
12
12
12
12
12
12
12
12
12
12
12
12
12
12
12
12
12
12
12
12
12
12
12
12
12
12
12
12
12
12
12
12
12
12
12
12
12
12
12
12
12
12
12
12
12
12
12
12
12
12
12
12
12
12
12
12
12
12
12
12
12
12
12
12
12
12
12
12
12
12
12
12
12
12
12
12
12
12
12
12
12
12
12
12
12
12
12
12
12
12
12
12
12
12
12
12
12
12
12
12
12
12
12
12
12
12
12
12
12
12
12
12
12
12
12
12
12
12
12
12
12
12
12
12
12
12
12
12
12
12
12
12
12
12
12
12
12
12
12
12
12
12
12
12
12
12
12
12
12
12
12
12
12
12
12
12
12
12
12
12
12
12
12
12
12
12
12
12
12
12
12
12
12
12
12
12
12
12
12
12
12
12
12
12
12
12
12
12
12
12
12
12
12
12
12
12
12
12
12
12
12
12
12
12
12
12
12
12
12
12
12
12
12
12
12
12
12
12
12
12
12
12
12
12
12
12
12
12
12
12
12
12
12
12
12
12
12
12
12
12
12
12
12
12
12
12
12
12
12
12
12
12
12
12
12
12
12
12
12
12
12
12
12
12
12
12
12
12
12
12
12
12
12
12
12
12
12
12
12
12
12
12
12
12
12
12
12
12
12
12
12
12
12
12
12
12
12
12
12
12
12
12
12
12
12
12
12
12
12
12
12
12
12
12
12
12
12
12
12
12
12
12
12
12
12
12
12
12
12
12
12
12
12
12
12
12
12
12
12
12
12
12
12
12
12
12
12
12
12
12
12
12
12
12
12
12
12
12
12
12
12
12
12
12
12
12
12
12
12
12
12
12
12
12
12
12
12
12
12
12
12
12
12
12
12
12
12
12
12
12
12
12
12
12
12
12
12
12
12
12
12
12
12
12
12
12
12
12
12
12
12
12
12
12
12
12
12
12
12
12
12
12
12
12
12
12
12
12
12
12
12
12
12
12
12
12
12
12
12
12
12
12
12
12
12
12
12
12
12
12
12
12
12
12
12
12
12
12
12
12
12
12
12
12
12
12
12
12
12
12
12
12
12
12
12
12
12
12
12
12
12
12
12
12
12
12
12
12
12
12
12
12
12
12
12
12

POINT_DATA 3012
SCALARS Jp_lamdaP float 4
LOOKUP_TABLE default
0.999681 1 1 0.999681
1 1 1 1
0.99969 1 1 0.99969
0.999627 1 1 0.999627
0.999683 1 1 0.999683
0.999663 1 1 0.999663
0.998874 1.00001 1 0.998868
1 1 1 1
1 1 1 1
1 1 1 1
0.999756 1 1 0.999756
0.998981 1 1 0.998981
0.999621 1 1 0.999621
0.99963 1 1 0.99963
0.999692 1 1 0.999692
0.999653 1 1 0.999653
0.99967 1 1 0.99967
0.999699 1 1 0.999699
0.998925 1.00006 1 0.998869
1 1 1 1
0.999608 1 1 0.999608
0.99966 1 1 0.99966
0.998743 1 1 0.998743
0.998854 1.00001 1 0.998845
0.99967 1 1 0.99967
0.998884 1 1 0.998884
1.01197 1.01438 1 0.997624
1 1 1 1
0.999832 1 1 0.999832
0.999845 1 1 0.999845
1 1 1 1
0.99899 1 1 0.99899
0.999656 1 1 0.999656
0.999683 1 1 0.999683
0.999213 1.0002 1 0.999012
1 1 1 1
0.999096 1 1 0.999096
0.999082 1 1 0.999082
1.00532 1.00773 1 0.997608
1 1 1 1
1 1 1 1
0.999815 1 1 0.999815
1 1 1 1
0.999635 1 1 0.999635
0.998672 1 1 0.998672
1 1 1 1
0.998914 1 1 0.998914
0.999676 1 1 0.999676
0.999711 1 1 0.999711
0.999671 1 1 0.999671
0.998946 1.00007 1 0.998874
0.999799 1 1 0.999799
0.999632 1 1 0.999632
0.999683 1 1 0.999683
0.999683 1 1 0.999683
0.99874 1 1 0.99874
0.998889 1 1 0.998887
0.998853 1.00001 1 0.998846
1.01233 1.01476 1 0.99761
1 1 1 1
0.999608 1 1 0.999608
0.998938 1 1 0.998938
0.998712 1 1 0.998712
0.998797 1 1 0.998797
1.01535 1.01804 1 0.997356
1.0134 1.01597 1 0.997471
0.999734 1 1 0.999734
0.998987 1 1 0.998987
1.00938 1.01169 1 0.997716
1.03112 1.0345 1 0.996739
1 1 1 1
1 1 1 1
1 1 1 1
0.998998 1 1 0.998998
1 1 1 1
1 1 1 1
0.998986 1.00015 1 0.99884
0.999911 1 1 0.999911
0.998946 1 1 0.998945
0.999219 1 1.00003 0.999193
1.00407 1.00648 1 0.997605
1 1 1 1
1.00116 1 1.00138 0.999778
0.998874 1.00011 1 0.998764
0.998951 1.00008 1 0.998874
1.01639 1.01927 1 0.997183
0.999775 1 1.00033 0.99944
1.00997 1.01249 1 0.997507
1.00127 1.00352 1 0.997757
1.01284 1.016 1 0.996894
1 1 1 1
1 1 1 1
1 1 1 1
1 1 1 1
1 1 1 1
0.999816 1 1 0.999816
0.998797 1 1 0.998797
0.999817 1 1 0.999817
0.998823 1 1 0.998823
1 1 1 1
0.998684 1 1 0.998684
0.998905 1 1 0.998905
1.01503 1.01809 1 0.996989
0.998951 1 1 0.998949
1.01793 1.02097 1 0.997026
0.999642 1 1 0.999642
0.999654 1 1 0.999654
0.999693 1 1 0.999693
0.999702 1 1 0.999702
0.998739 1 1 0.998739
0.998863 1.00001 1 0.99885
0.998914 1.00002 1 0.998893
1.0127 1.01514 1 0.997596
1 1 1 1
0.999631 1 1 0.999631
0.998712 1 1 0.998712
0.998707 1 1 0.998707
0.999868 1 1 0.999868
0.999063 1 1 0.999063
0.998796 1 1 0.998796
1.01534 1.01807 1 0.997319
1.01006 1.01239 1 0.997699
1.0137 1.01624 1 0.997498
1.03103 1.0344 1 0.996747
0.998707 1 1 0.998707
0.998707 1 1 0.998707
1.0139 1.01671 1 0.997227
1.01536 1.01815 1 0.997263
1.01513 1.01781 1 0.997368
1.04003 1.04351 1 0.996667
1 1 1 1
1.03413 1.03755 1 0.996712
0.999442 1 1.00025 0.999196
1.00496 1.00728 1 0.997699
1.02762 1.03096 1 0.996766
1.03761 1.04114 1 0.996608
1.00133 1 1.00181 0.999518
1.00647 1 1.00803 0.998456
1 1 1 1
1 1 1 1
0.998971 1.00012 1 0.998846
1 1 1 1
0.999299 1 1.00015 0.99915
0.998951 1 1 0.998951
1.00295 1.00536 1 0.997601
1 1 1 1
1.00074 1 1.00094 0.999801
0.999039 1.00017 1 0.998873
0.999027 1.00005 1 0.998975
1.01583 1.0187 1 0.997183
1.00006 1 1.00067 0.999389
1.00867 1.01119 1 0.99751
1.00051 1.00275 1.00001 0.997756
1.01397 1.01715 1 0.996882
1.0012 1 1.00161 0.99959
0.999967 1 1.00007 0.999898
1.00347 1 1.00473 0.998744
1.0181 1.02108 1 0.99708
1.0138 1.0165 1 0.997344
1.03753 1.04109 1 0.996579
0.999756 1.00114 1.00058 0.998036
1.02292 1.02617 1 0.996837
1.00885 1.01132 1.00057 0.996984
1.02267 1.02603 1 0.996724
1 1 1 1
1 1 1 1
1 1 1 1
1.00067 1 1.00102 0.999658
1 1 1 1
1 1 1 1
1 1 1 1
0.998748 1.00002 1 0.998733
0.998705 1 1 0.998705
1 1 1 1
1 1 1 1
0.998685 1 1 0.998685
0.998815 1 1 0.998815
1.01558 1.01865 1 0.996989
0.998803 1.00005 1 0.99875
1.01811 1.02115 1 0.997026
0.998682 1 1 0.998682
1.01369 1.01678 1 0.996956
1.01671 1.01975 1 0.997019
1.04518 1.04875 1 0.996592
1.01836 1.02139 1 0.997036
1.04651 1.05009 1 0.996596
1 1 1 1
0.999654 1 1 0.999654
0.998463 1 1 0.998463
0.998702 1 1 0.998702
1 1 1 1
0.999141 1 1 0.999141
0.998798 1 1 0.998798
1.0153 1.01807 1 0.997281
1.01403 1.01654 1 0.997526
1.01074 1.01309 1 0.997682
1.03094 1.0343 1 0.996754
0.998704 1 1 0.998704
0.998702 1 1 0.998702
1.01379 1.01674 1 0.997103
1.01541 1.01818 1 0.997285
1 1 1 1
0.999346 1 1.00011 0.999238
1.00632 1.00856 1 0.997776
1.01508 1.01776 1 0.997364
1.03984 1.04333 1 0.996651
1.02707 1.03041 1 0.996759
1.03437 1.03775 1 0.996748
1.0372 1.04072 1 0.996617
1.00121 1 1.0017 0.999507
1.00488 1 1.00644 0.998457
1.01337 1.01644 1 0.996977
1.01425 1.01704 1 0.997252
1.04229 1.04578 1 0.996659
1.04038 1.0439 1 0.996626
1.0374 1.04079 1 0.996743
1.04775 1.05123 0.999952 0.996735
1.0005 1 1.00114 0.999359
1.04 1.04346 1 0.996684
1.00083 1.00285 1.00011 0.997884
1.02023 1.02345 1 0.996848
1.03511 1.03868 1 0.996555
1.03809 1.04143 1 0.996789
1.00307 1.00014 1.00471 0.998229
1.00374 1 1.00501 0.998739
1.00326 1.00004 1.00546 0.997779
0.998952 1.00016 1 0.998792
1 1 1 1
1.00018 1 1.00036 0.999824
0.998944 1.00004 1 0.998908
1.0152 1.01806 1 0.997184
1.00023 1 1.00083 0.999393
0.999429 1.00164 1.00004 0.997755
1.00738 1.00989 1 0.997513
1.01512 1.01831 1 0.996869
1.00104 1 1.00143 0.999612
0.999915 1 1 0.999915
1.004 1 1.00527 0.998745
1.01762 1.0206 1 0.997078
1.01284 1.01553 1 0.997348
1.03763 1.0412 1 0.996575
0.999128 1.0006 1.00049 0.99804
1.02412 1.02736 1 0.996841
1.00806 1.01064 1.00047 0.996979
1.0234 1.02677 1 0.996717
0.999956 1 1 0.999956
1.00148 1.00017 1.00295 0.998363
1.00209 1 1.00296 0.999132
1.00387 1.00002 1.00579 0.998066
1.04191 1.04553 1 0.996543
1.03163 1.03504 1 0.996703
1.04195 1.0456 1 0.996509
1.00371 1.00592 1.00049 0.997312
1.02974 1.03312 1 0.996731
1.01857 1.02038 1.00158 0.99666
1.03101 1.03449 1 0.996629
0.999687 1 1 0.999687
0.999993 1 1 0.999993
1 1 1 1
1 1 1 1
1 1 1 1
0.999927 1 1.00014 0.999785
1 1 1 1
1.00115 1 1.00151 0.999644
1 1 1 1
0.998857 1.00011 1 0.998751
0.998722 1 1 0.998722
1.01839 1.02143 1 0.997025
1.01611 1.01918 1 0.99699
0.998687 1 1 0.998687
1 1 1 1
0.998681 1 1 0.998681
1.01403 1.01713 1 0.996956
1.01716 1.0202 1 0.997019
1.04442 1.04799 1 0.99659
1.01839 1.02142 1 0.997033
1.04662 1.0502 1 0.996594
1.01317 1.01626 1 0.996952
1.04373 1.04733 1 0.996563
1.04596 1.04952 1 0.996607
1.05123 1.05616 0.998458 0.996862
1.04595 1.04956 1 0.996565
1.05347 1.0573 0.999607 0.996768
0.998702 1 1 0.998702
0.998696 1 1 0.998696
1.0137 1.01677 1 0.996978
1.01549 1.01823 1 0.997308
1 1 1 1
0.99928 1 1 0.99928
1.00763 1.0098 1 0.997852
1.01503 1.01772 1 0.997359
1.03969 1.0432 1 0.996634
1.03457 1.03791 1 0.996783
1.02653 1.02988 1 0.996752
1.03693 1.04044 1 0.996625
1.00129 1 1.0018 0.999495
1.00404 1 1.00559 0.998459
1.01327 1.01636 1 0.996957
1.01429 1.01709 1 0.997247
1.04219 1.04567 0.999991 0.996679
1.04043 1.04394 1 0.996638
1.00021 1 1.00086 0.999348
1.00204 1.00409 1.00008 0.997882
1.01975 1.02294 1 0.996881
1.03769 1.04109 1 0.996728
1.04796 1.05142 0.999933 0.996775
1.03473 1.03833 1 0.996534
1.03985 1.04331 1 0.996689
1.03832 1.04167 1 0.996786
1.00276 1.00021 1.00432 0.998232
1.00394 1.00023 1.00594 0.997782
1.00421 1 1.00548 0.998738
1.042 1.04553 1 0.996626
1.04154 1.045 1 0.996695
1.05108 1.05567 0.998849 0.996802
1.04904 1.05279 0.999666 0.996765
1.043 1.04639 1 0.99676
1.04403 1.04976 0.997482 0.997058
0.999287 1.00062 1.0006 0.99807
1.04034 1.04364 0.999922 0.996915
1.00872 1.01159 1 0.997159
1.02634 1.03001 1 0.996443
1.03446 1.03809 1 0.996504
1.0331 1.03618 1 0.997036
1.00165 1 1.00265 0.999008
0.99917 1.00082 1.00067 0.99768
1.00824 1 1.01033 0.997939
1.00204 1.00185 1.00266 0.997532
1.01726 1.02024 1 0.997076
0.999931 1 1 0.999931
1.00102 1 1.00139 0.999634
1.00523 1 1.00649 0.998746
1.01188 1.01456 1 0.997352
1.03778 1.04135 1 0.99657
0.998604 1.00015 1.00041 0.998045
1.00732 1.01005 1.00033 0.996973
1.0253 1.02854 1 0.996846
1.02343 1.0268 1 0.99671
0.999965 1 1 0.999965
1.00235 1.00008 1.00391 0.998364
1.0017 1 1.00256 0.999142
1.00456 1.00002 1.00649 0.99806
1.0418 1.04542 1 0.996538
1.03185 1.03527 1 0.996702
1.04155 1.0452 1 0.996506
1.00218 1.00442 1.00045 0.997319
1.02943 1.03281 1 0.996732
1.01815 1.01982 1.00173 0.996648
1.03076 1.03416 1 0.996709
0.999982 1 1 0.999982
1.00006 1 1.00065 0.999409
1.00111 1.00148 1.00191 0.997724
1.0048 1 1.00638 0.998422
1.00114 1.0002 1.00319 0.997758
1.04662 1.05023 1 0.996558
1.03576 1.03931 1 0.99659
1.03733 1.04084 1 0.996626
1.00742 1.00851 1.00199 0.996928
1.02825 1.03163 1 0.996722
1.01765 1.02044 1.00086 0.996417
0.999645 1 1 0.999645
0.999137 1 1 0.999137
0.999719 1 1 0.999719
0.999689 1 1 0.999689
0.999997 1 1 0.999997
0.999994 1 1 0.999994
1 1 1 1
1 1 1 1
1 1 1 1
0.999897 1 1 0.999897
1 1 1 1
1.00028 1 1.00051 0.999769
1 1 1 1
1.00121 1 1.00158 0.99963
1 1 1 1
1.01835 1.02138 1 0.99703
1.01755 1.02059 1 0.997018
1.04645 1.05003 1 0.996591
1.04364 1.04722 1 0.996588
1.01445 1.01754 1 0.996956
0.99868 1 1 0.99868
1.01329 1.01639 1 0.996952
1.04339 1.04699 1 0.996563
1.04548 1.04904 1 0.996604
1.05153 1.05676 0.998168 0.996879
1.04526 1.04887 1 0.996561
1.05315 1.0569 0.999677 0.996766
1.04237 1.04597 1 0.996555
1.0505 1.05633 0.997582 0.996884
1.05288 1.05724 0.999037 0.996833
1.04785 1.05595 0.99522 0.997097
1.0499 1.05341 1 0.996669
1.0495 1.05665 0.996112 0.99711
1.0132 1.01631 1 0.996938
1.01434 1.01715 1 0.997242
1.04212 1.04558 0.999987 0.996699
1.04044 1.04394 1 0.996651
0.999899 1 1.00056 0.999337
1.0032 1.00529 1.00003 0.99788
1.01965 1.0228 1 0.996914
1.038 1.04142 1 0.996712
1.04819 1.05163 0.999914 0.996814
1.03976 1.04321 1 0.996694
1.03421 1.03782 1 0.996513
1.03853 1.04188 1 0.996784
1.00211 1.0003 1.00359 0.998234
1.00448 1.00042 1.00629 0.997784
1.00443 1 1.00571 0.998736
1.04208 1.04564 1 0.9966
1.04174 1.04519 1 0.996692
1.05062 1.05537 0.998654 0.996844
1.04912 1.05296 0.999601 0.996751
1.00001 1.00121 1.00074 0.998068
1.00987 1.01276 1 0.997154
1.02507 1.02865 1.00003 0.996487
1.04312 1.04654 0.999997 0.996731
1.04376 1.04974 0.99719 0.997107
1.03505 1.03872 1 0.996466
1.04035 1.04363 0.99993 0.996918
1.03388 1.03692 0.999995 0.99707
1.00044 1.00159 1.00117 0.997681
1.00215 1.00189 1.00277 0.997502
1.00219 1 1.00319 0.999004
1.00763 1 1.00967 0.997978
1.05059 1.05551 0.998496 0.996833
1.05131 1.05569 0.99905 0.996799
1.04406 1.05204 0.995392 0.997011
1.04365 1.05239 0.994553 0.997131
1.04196 1.04588 0.999207 0.997043
1.04048 1.04869 0.994873 0.99729
1.00149 1.00403 1 0.997469
1.03495 1.03926 0.998574 0.997273
1.01388 1.01722 1 0.996716
1.02438 1.02806 1.00018 0.996242
1.036 1.03966 1 0.996483
1.03471 1.03772 1 0.997105
0.999801 1 1.00057 0.999228
1.0074 1 1.00919 0.998221
1.00069 1.00329 1 0.997406
1.00412 1.00001 1.00645 0.997669
1.00246 1.00288 1.00217 0.997418
0.999974 1 1 0.999974
1.0416 1.04522 1 0.996532
1.00076 1 1.00161 0.999151
1.00312 1.00008 1.00469 0.998364
1.00501 1.00001 1.00697 0.998054
1.03207 1.03549 1 0.9967
1.04118 1.04484 1 0.996503
1.00085 1.00302 1.00051 0.997325
1.01901 1.02047 1.00193 0.996636
1.02926 1.03263 1 0.996734
1.03107 1.0344 1 0.996788
0.999986 1 1 0.999986
0.999787 1 1.00037 0.999419
1.0001 1.00103 1.00134 0.997727
1.00583 1 1.00742 0.998421
1.00151 1.00016 1.00362 0.997743
1.04651 1.05013 1 0.996552
1.03568 1.03922 1 0.996588
1.03737 1.0409 1 0.996615
1.00747 1.00843 1.00213 0.996932
1.03065 1.03404 1 0.996717
1.01791 1.02057 1.00096 0.996439
0.999566 1 1 0.999566
1.00126 1 1.00249 0.998771
1.00092 1.00307 1.00048 0.997384
1.00642 1.00008 1.00831 0.99805
1.00134 1.00162 1.00203 0.997699
1.04312 1.04652 1 0.996748
1.03177 1.03525 1 0.996643
1.03671 1.04 1 0.996834
1.00316 1.00263 1.00379 0.996748
1.01622 1.01993 1 0.996368
0.999648 1 1 0.999648
0.999059 1 1 0.999059
0.999112 1 1 0.999112
0.998861 1 1 0.998861
0.999157 1 1 0.999157
0.999736 1 1 0.999736
0.999721 1 1 0.999721
0.999999 1 1 0.999999
0.999691 1 1 0.999691
0.999998 1 1 0.999998
1 1 1 1
0.999995 1 1 0.999995
1 1 1 1
1 1 1 1
0.999969 1 1 0.999969
0.999958 1 1.00008 0.999878
1 1 1 1
1 1 1 1
1.00065 1 1.00089 0.999752
1 1 1 1
1.0447 1.04831 1 0.996557
1.04523 1.04879 1 0.996602
1.05304 1.05672 0.999749 0.996764
1.0519 1.05741 0.997886 0.996897
1.04296 1.04656 1 0.996563
1.01333 1.01643 1 0.996952
1.04235 1.04595 1 0.996555
1.0504 1.05617 0.997646 0.996878
1.05314 1.05742 0.999113 0.996833
1.04704 1.05567 0.994675 0.997128
1.05067 1.05418 1 0.996662
1.04947 1.05653 0.996174 0.997132
1.0505 1.05591 0.998018 0.996853
1.04575 1.05435 0.994761 0.997071
1.04799 1.05684 0.994434 0.997171
1.04635 1.05752 0.992157 0.997252
1.04856 1.05263 0.999172 0.996955
1.04635 1.05712 0.992446 0.997341
1.04206 1.04565 1 0.996574
1.04188 1.04534 1 0.99669
1.05012 1.05504 0.998451 0.996885
1.04909 1.05302 0.999533 0.996736
1.00078 1.00183 1.00088 0.998066
1.01041 1.0133 1 0.997149
1.02346 1.02684 1.00018 0.996531
1.04319 1.04665 1 0.996702
1.04346 1.04972 0.996876 0.997157
1.04028 1.04356 0.999939 0.99692
1.03558 1.03929 1 0.996428
1.03397 1.03697 1 0.997105
1.00163 1.00216 1.00179 0.997681
1.0021 1.00174 1.0029 0.997471
1.00262 1 1.00362 0.999001
1.00664 1 1.00864 0.998018
1.0504 1.05532 0.998501 0.996832
1.05083 1.05509 0.999184 0.996778
1.04422 1.05229 0.995267 0.997044
1.04424 1.05248 0.995038 0.997114
1.00236 1.00492 1 0.997461
1.01236 1.01562 1.00003 0.996759
1.02464 1.02811 1.00039 0.996231
1.04192 1.04564 0.999444 0.996995
1.0394 1.04796 0.994463 0.997347
1.03266 1.03632 1 0.996468
1.03586 1.04008 0.998665 0.997274
1.0353 1.03825 1 0.997164
1.00066 1.00326 1 0.997404
1.00219 1.00331 1.00147 0.997417
1.00503 1.00029 1.00708 0.997663
1.00021 1 1.00102 0.999191
1.00691 1 1.00866 0.998259
1.04442 1.05341 0.994389 0.997058
1.04467 1.05397 0.994074 0.997088
1.04011 1.05244 0.990926 0.997334
1.0362 1.04467 0.994518 0.997355
1.00453 1.0074 1 0.997141
1.03985 1.04424 0.998332 0.997451
1.00762 1.0109 1.00029 0.996463
1.02127 1.02482 1.00051 0.996036
1.0298 1.03345 1 0.996466
0.999391 1 1 0.999391
1.00352 1 1.00495 0.998572
1.00588 1 1.00793 0.997971
1.00215 1.00487 1 0.997297
1.00381 1.00003 1.0064 0.997391
1.00279 1.00412 1.0014 0.997272
0.999989 1 1 0.999989
0.999531 1 1.0001 0.999428
1.04639 1.05002 1 0.996546
1.00707 1 1.00866 0.99842
0.998896 1.00043 1.00074 0.997729
1.00163 1.00001 1.0039 0.997727
1.03544 1.03899 1 0.996586
1.0373 1.04083 1 0.996603
1.00687 1.00766 1.00229 0.996936
1.01711 1.01993 1.00077 0.996461
1.03298 1.03639 1 0.996713
0.999571 1 1 0.999571
1.00118 1 1.00241 0.998775
1.00078 1.00299 1.00041 0.997382
1.00758 1.00001 1.00955 0.998044
1.00121 1.00178 1.00174 0.9977
1.04309 1.0465 1 0.996741
1.03224 1.03573 1 0.996631
1.03664 1.0399 1 0.99686
1.00413 1.00418 1.00324 0.996709
1.01507 1.01874 1.00006 0.996339
0.999089 1 1.00009 0.998999
1.00711 1 1.00878 0.998337
1.00231 1.00307 1.002 0.997253
1.00636 1.00182 1.00673 0.997819
1.00532 1.00676 1.001 0.997574
1.04195 1.04677 0.998156 0.997233
1.03147 1.03506 1 0.99654
1.03362 1.03688 1 0.996856
1.00612 1.00522 1.00433 0.99658
1.00629 1.01018 1 0.99615
0.999651 1 1 0.999651
0.999078 1 1 0.999078
0.998784 1 1 0.998784
0.999087 1 1 0.999087
0.999156 1 1 0.999156
0.998831 1 1 0.998831
0.998731 1 1 0.998731
0.998819 1 1.00004 0.998775
0.999173 1 1 0.999173
0.99973 1 1 0.99973
0.999736 1 1 0.999736
1 1 1 1
0.999723 1 1 0.999723
1 1 1 1
1 1 1 1
0.999999 1 1 0.999999
1 1 1 1
1 1 1 1
0.999996 1 1 0.999996
0.999954 1 1 0.999954
1 1 1 1
1.0002 1 1.00034 0.999859
1 1 1 1
1 1 1 1
1.05139 1.05492 1 0.996655
1.05317 1.05737 0.999188 0.996832
1.04941 1.05636 0.996254 0.997155
1.04617 1.05536 0.994113 0.997159
1.05035 1.05605 0.997724 0.996873
1.04247 1.04607 1 0.996556
1.05044 1.05574 0.998137 0.996833
1.04631 1.05449 0.995163 0.997064
1.04747 1.05635 0.994422 0.997156
1.04534 1.0571 0.991589 0.997264
1.04814 1.05199 0.999378 0.996956
1.04448 1.05602 0.991669 0.997381
1.0464 1.05427 0.995477 0.997046
1.0466 1.05864 0.991358 0.997248
1.04654 1.05925 0.99062 0.997352
1.04187 1.05311 0.991896 0.997408
1.05028 1.0552 0.998507 0.996832
1.05047 1.05461 0.999321 0.996757
1.04442 1.05256 0.995173 0.997076
1.04491 1.05268 0.995507 0.997096
1.00369 1.00625 1 0.997453
1.01149 1.01474 1 0.996802
1.02489 1.02818 1.00058 0.996221
1.04191 1.04542 0.99969 0.996946
1.03825 1.04719 0.994039 0.997404
1.03709 1.04124 0.998733 0.997275
1.03017 1.03384 1 0.996453
1.03747 1.04036 1 0.997222
1.00097 1.00358 1 0.997403
1.00259 1.0045 1.00069 0.997415
1.00647 1.0005 1.00833 0.997657
1.00055 1 1.0014 0.999156
1.00669 1 1.0084 0.998298
1.04488 1.05382 0.994447 0.99706
1.04515 1.05445 0.994084 0.997083
1.03992 1.05168 0.99147 0.997325
1.00468 1.00756 1 0.997136
1.0082 1.01147 1.00026 0.996506
1.01992 1.02321 1.00076 0.996024
1.03672 1.0449 0.994824 0.997341
1.03256 1.03612 1 0.996573
1.03638 1.04102 0.998118 0.997419
0.999423 1 1 0.999423
1.00265 1.00538 1 0.997287
1.00123 1.00326 1.00058 0.9974
1.00555 1.00083 1.00736 0.997381
1.00613 1 1.00816 0.997994
1.00353 1 1.005 0.998537
1.04499 1.05676 0.991702 0.997138
1.04334 1.05884 0.988065 0.997258
1.03376 1.05 0.987076 0.997417
1.03488 1.04751 0.990361 0.997558
1.00518 1.00827 1 0.996943
1.03153 1.03495 0.999673 0.997024
1.00399 1.00632 1.00165 0.996049
1.01141 1.01454 1.00104 0.995871
0.999649 1 1 0.999649
1.00008 1 1.00122 0.998861
1.00427 1 1.00605 0.998235
1.00608 1 1.00854 0.997559
1.00297 1.00458 1.00129 0.997114
1.00734 1.00188 1.00838 0.997093
0.999577 1 1 0.999577
1.001 1 1.00222 0.998779
1.04329 1.04671 1 0.996734
1.00878 1 1.01076 0.998038
1.00067 1.00303 1.00027 0.997379
1.00069 1.00146 1.00152 0.997701
1.03293 1.03643 1 0.996619
1.03684 1.04008 1 0.996886
1.00548 1.0061 1.00273 0.99667
1.01397 1.01745 1.00027 0.99631
0.999007 1 1 0.999002
1.00722 1 1.00891 0.99833
1.00286 1.00363 1.00198 0.997262
1.00551 1.00131 1.00638 0.997827
1.00547 1.00736 1.00048 0.997652
1.04301 1.04798 0.99797 0.997279
1.03105 1.03461 1 0.996561
1.03514 1.03833 1 0.996929
1.00607 1.00495 1.00458 0.996545
1.00662 1.01055 1.00003 0.996081
0.999576 1 1.00091 0.998672
1.00746 1 1.00953 0.997952
1.00724 1.00632 1.00378 0.997138
1.0047 1.00565 1.00161 0.997456
1.03973 1.06132 0.982087 0.997534
1.0362 1.04012 0.998913 0.997314
1.01932 1.02315 1 0.996256
1.00885 1.00844 1.00426 0.996163
0.999096 1 1 0.999096
0.998796 1 1 0.998796
0.998725 1 1 0.998725
0.999155 1 1 0.999155
0.998802 1 1 0.998802
0.999171 1 1 0.999171
0.998733 1 1 0.998733
0.998828 1 1.00004 0.998787
0.998752 1 1 0.998752
0.99882 1 1.0002 0.998616
0.998737 1 1 0.998737
0.999153 1 1 0.999153
0.999704 1 1 0.999704
0.999729 1 1 0.999729
1 1 1 1
0.999737 1 1 0.999737
1 1 1 1
1 1 1 1
1 1 1 1
1 1 1 1
1 1 1 1
1 1 1 1
0.99999 1 1 0.99999
1 1 1 1
0.999939 1 1 0.999939
1 1 1 1
1 1 1 1
1.04762 1.05124 0.999594 0.996957
1.04703 1.05596 0.994385 0.99714
1.04271 1.05501 0.990893 0.997421
1.04439 1.05674 0.991014 0.997275
1.04687 1.05465 0.995558 0.997057
1.05029 1.05551 0.998234 0.996814
1.04617 1.05417 0.995349 0.997046
1.04648 1.05831 0.991557 0.997239
1.04536 1.05843 0.990276 0.997351
1.0432 1.05409 0.992236 0.997418
1.04764 1.05869 0.992351 0.997193
1.0483 1.06507 0.986821 0.997402
1.04703 1.06419 0.986372 0.997473
1.04533 1.05422 0.994486 0.997062
1.04556 1.05486 0.99409 0.997078
1.03984 1.05092 0.992114 0.997316
1.00438 1.00727 1 0.997131
1.00819 1.0115 1.00018 0.996548
1.01824 1.02145 1.00085 0.996012
1.03726 1.04512 0.995137 0.997327
1.03228 1.03717 0.997892 0.997387
1.03385 1.03729 1 0.996679
1.00158 1.00428 1.00004 0.997277
0.998413 1.00089 1 0.997528
1.00671 1.00133 1.00802 0.997371
0.999457 1 1 0.999457
1.0055 1 1.0075 0.998017
1.00362 1 1.00513 0.998502
1.04576 1.05728 0.991931 0.997146
1.04277 1.05858 0.987765 0.997265
1.03395 1.0496 0.987654 0.997409
1.00279 1.00587 1 0.996935
1.00407 1.00657 1.0014 0.996128
1.01167 1.01487 1.0009 0.995947
1.03506 1.04723 0.990796 0.997562
1.02918 1.03314 0.999164 0.997004
0.999708 1 1 0.999708
1.00009 1 1.00123 0.998859
1.00027 1.00297 1.00015 0.997163
1.00924 1.0015 1.01051 0.997241
1.00566 1 1.00807 0.997603
1.00423 1 1.00604 0.998202
1.04591 1.06251 0.987017 0.997323
1.03517 1.05908 0.980003 0.997372
1.03086 1.04966 0.984448 0.997606
1.02519 1.03591 0.992059 0.99757
1.00234 1.00442 1.00131 0.996623
1.0112 1.01366 1.0014 0.99618
1.00429 1.00583 1.00264 0.995837
0.999854 1 1 0.999854
0.99937 1 1 0.99937
0.999104 1 1 0.999104
1.00083 1 1.00243 0.998403
1.00563 1 1.00777 0.997873
1.00864 1 1.01128 0.997393
0.999236 1.00192 1.00009 0.997231
1.03138 1.00089 1.03307 0.997473
0.999006 1 1 0.999006
1.00767 1 1.00936 0.998322
1.04406 1.04915 0.997815 0.997325
1.00544 1.00137 1.00624 0.997835
1.00364 1.00423 1.00215 0.997272
1.00549 1.00774 1.00004 0.99773
1.03029 1.03383 1 0.996581
1.03649 1.03961 1 0.997002
1.00598 1.00467 1.00482 0.996511
1.00684 1.01087 1 0.996012
0.999972 1 1.00133 0.998639
1.007 1 1.00905 0.997964
1.00872 1.00741 1.00415 0.997167
1.00418 1.00528 1.00142 0.997493
1.04199 1.06342 0.982254 0.997553
1.03683 1.04048 0.999226 0.997263
1.01968 1.02346 1 0.996303
1.00998 1.01012 1.00377 0.996111
1.00112 1 1.0027 0.998427
1.0422 1.06738 0.978803 0.997559
1.00197 1 1.00436 0.997614
1.00773 1.00816 1.00268 0.996902
1.03534 1.0506 0.987799 0.997653
1.0171 1.02078 1 0.996397
1.00743 1.0083 1.00323 0.995916
0.998809 1 1 0.998809
0.998714 1 1 0.998714
0.99876 1 1 0.99876
0.99917 1 1 0.99917
0.998798 1 1 0.998798
0.998735 1 1 0.998735
0.99915 1 1 0.99915
0.998788 1 1.00005 0.998742
0.998759 1 1 0.998759
0.998685 1 1.00005 0.998635
0.998815 1 1 0.998815
0.998712 1 1.00006 0.998656
0.998903 1 1.00039 0.998513
0.998686 1 1 0.998686
0.999091 1 1 0.999091
0.999669 1 1 0.999669
0.999701 1 1 0.999701
1 1 1 1
0.999727 1 1 0.999727
1 1 1 1
1 1 1 1
1 1 1 1
1 1 1 1
1 1 1 1
0.999879 1 1 0.999879
1 1 1 1
1 1 1 1
1 1 1 1
0.999985 1 1 0.999985
1 1 1 1
1 1 1 1
1.04449 1.05506 0.992532 0.997428
1.04416 1.05751 0.990002 0.997351
1.04631 1.05793 0.99176 0.99723
1.04594 1.05406 0.995245 0.997045
1.04729 1.0586 0.992081 0.997211
1.04815 1.06451 0.987212 0.997393
1.0451 1.0623 0.986296 0.997482
1.048 1.06493 0.98669 0.997382
1.05678 1.0752 0.98534 0.997496
1.04716 1.06944 0.981368 0.997757
1.04651 1.05778 0.992172 0.997153
1.04218 1.05834 0.987423 0.997272
1.03402 1.0492 0.988103 0.997401
1.00234 1.00537 1.00006 0.996928
1.0047 1.00725 1.00126 0.996208
1.01379 1.01705 1.00078 0.996022
1.03523 1.0469 0.991268 0.997567
1.02717 1.03161 0.998708 0.996984
1.00044 1.00315 1.00009 0.997212
1.01206 1.00196 1.01273 0.997387
1.00644 1.00013 1.00868 0.997647
0.999768 1 1 0.999768
1.00001 1 1.00115 0.998858
1.00438 1 1.00623 0.998168
1.0458 1.06279 0.986645 0.997334
0.999849 1 1 0.999849
0.999338 1 1 0.999338
1.03562 1.05829 0.98116 0.997374
1.02952 1.04884 0.983963 0.997575
1.00272 1.0043 1.00172 0.99671
1.00466 1.00554 1.00332 0.995827
1.01198 1.01501 1.00084 0.996173
1.02399 1.03535 0.991461 0.997546
0.999208 1 1.00002 0.999184
1.00072 1 1.00233 0.998396
1.001 1.00177 1.00211 0.997129
1.02693 1.00093 1.02841 0.997639
1.00688 1.00004 1.00945 0.997411
1.00538 1 1.0075 0.997891
1.05457 1.07406 0.984356 0.997453
1.01713 1.05642 0.965211 0.997511
1.0203 1.04187 0.981494 0.997759
1.00598 1.01732 0.991564 0.997263
1.00385 1.00189 1.00519 0.996779
1.00435 1.00308 1.0055 0.99579
0.999311 1 1 0.999311
0.999329 1 1 0.999329
0.99904 1 1 0.99904
0.998585 1 1.00001 0.998571
1.00302 1 1.00487 0.998152
1.005 1.00016 1.00731 0.997548
1.04442 1 1.04713 0.997416
1.00189 1.00049 1.00368 0.99772
1.00026 1 1.00165 0.998607
1.00614 1 1.00818 0.997977
1.04348 1.06447 0.982662 0.997572
1.03715 1.04059 0.999478 0.997213
1.00368 1.005 1.00115 0.997529
1.01029 1.00868 1.00441 0.997195
1.02037 1.02407 1.00004 0.99635
1.01127 1.01188 1.00335 0.996058
1.00135 1 1.00295 0.998411
1.04463 1.07045 0.97821 0.997611
1.0025 1 1.00488 0.997638
1.00659 1.00707 1.00269 0.996845
1.03399 1.04967 0.987405 0.997627
1.01653 1.02013 1 0.996475
1.00827 1.00888 1.00348 0.995932
1.00348 1 1.0054 0.998092
1.01538 1.04401 0.974487 0.998037
1.00338 1.00298 1.00306 0.997345
1.0041 1.00389 1.00379 0.996434
1.01691 1.02653 0.993408 0.997212
1.00204 1.00372 1.00221 0.996123
0.982187 1.0039 0.980765 0.997561
0.998703 1 1 0.998703
0.999198 0.999879 1.00056 0.998759
0.999032 1 1.00036 0.99867
0.999147 1 1 0.999147
0.998928 1 1.00018 0.998747
0.998653 1 1 0.998653
0.998766 1 1 0.998766
0.999091 1 1 0.999091
0.998677 1 1 0.998677
0.998781 1 1 0.998781
0.998739 1 1.00023 0.998514
0.998704 1 1.00006 0.998644
0.99877 1 1 0.99877
0.998804 1 1.00047 0.998334
0.99954 1 1.00105 0.998491
0.998571 1 1 0.998571
0.998962 1 1 0.998962
0.998978 1 1.00023 0.998743
0.998937 1 1 0.998937
0.99965 1 1 0.99965
0.999666 1 1 0.999666
1 1 1 1
0.999698 1 1 0.999698
1 1 1 1
1 1 1 1
1 1 1 1
1 1 1 1
1 1 1 1
0.999903 1 1 0.999903
0.999879 1 1 0.999879
1 1 1 1
1 1 1 1
1 1 1 1
0.999999 1 1 0.999999
1 1 1 1
1 1 1 1
1.04343 1.06078 0.986118 0.997491
1.04791 1.06398 0.987481 0.997383
1.04698 1.05855 0.991814 0.99723
1.04804 1.0649 0.986748 0.99738
1.05444 1.07302 0.985151 0.997493
1.04668 1.06796 0.982347 0.997687
1.05795 1.07971 0.982247 0.997561
0.977398 1.01605 0.965809 0.996009
1.0121 1.04137 0.973424 0.998435
0.999437 1 1 0.999437
1.0457 1.06308 0.986271 0.997345
1.03622 1.05753 0.982423 0.997375
1.02821 1.0481 0.983436 0.997544
1.00019 1.00258 1.00082 0.996796
1.00414 1.00432 1.00402 0.995816
1.01198 1.01542 1.00045 0.996166
1.02296 1.03487 0.990955 0.997521
0.998919 1.00184 1.00006 0.997029
1.02003 1 1.02227 0.997808
1.00493 1 1.00752 0.997429
0.999844 1 1 0.999844
1.0063 1 1.0084 0.997908
0.999309 1 1.00005 0.999262
1.00067 1 1.00228 0.998389
0.999306 1 1 0.999306
1.05147 1.07433 0.981211 0.99746
0.999353 1 1 0.999353
0.999329 1 1 0.999329
0.999005 1 1 0.999005
1.02114 1.05664 0.968812 0.99751
1.02086 1.04234 0.981637 0.997713
1.00105 1.00166 1.00259 0.996806
1.00654 1.00509 1.00556 0.995902
1.00544 1.01527 0.993049 0.997248
0.998681 1 1.00006 0.998622
1.00327 1 1.00517 0.998107
1.00716 1.00031 1.00925 0.997621
1.03521 1 1.03786 0.997447
1.00387 1.00001 1.00629 0.997594
1.03482 1.06344 0.975462 0.997563
1.00285 1.04858 0.958638 0.997658
1.01313 1.02663 0.989395 0.997424
0.993021 1.00603 0.990031 0.997005
1.00351 1 1.0062 0.997329
0.998891 1 1 0.998891
0.998826 1 1 0.998826
0.999658 1 1.00093 0.998729
1.00243 1 1.00408 0.998353
1.00594 1 1.00799 0.997971
1.03344 1 1.03593 0.997597
1.02819 1.00111 1.02953 0.997595
1.00135 1 1.00296 0.998395
1.00299 1 1.00534 0.997663
1.04626 1.0744 0.976093 0.997661
1.03309 1.04945 0.986787 0.9976
1.01608 1.0196 1 0.996553
1.00527 1.00581 1.00268 0.996789
1.00882 1.00929 1.0036 0.99595
1.00325 1 1.00513 0.998133
1.01421 1.04415 0.973205 0.99807
1.00124 1.00194 1.00195 0.99736
1.00342 1.00292 1.00408 0.996438
1.01636 1.02684 0.99245 0.997322
1.00227 1.00345 1.00273 0.996114
0.982018 1.0039 0.98148 0.996664
1.00348 1.00065 1.00488 0.997959
1.00514 1.02298 0.984513 0.998014
1.00065 1.00137 1.00202 0.997267
1.00443 1.00137 1.00644 0.996638
0.993106 1.00605 0.99004 0.997061
0.92586 0.979392 0.967129 0.977471
0.926273 0.973103 0.962993 0.988455
0.973347 0.986408 0.989084 0.997649
0.757572 0.851544 0.928222 0.958439
0.682904 0.821536 0.878269 0.946467
0.999389 0.999749 1.00088 0.998758
0.999818 0.999874 1.00122 0.998722
0.999172 1 1.00046 0.998709
0.99909 1 1 0.99909
0.998668 1 1 0.998668
0.998528 1 1.00001 0.998515
0.998634 1 1 0.998631
0.998747 1 1 0.998747
1.00024 1 1.00178 0.998467
0.998995 1 1 0.998995
0.998592 1 1 0.998591
0.998743 1 1.00001 0.998735
0.999117 1 1.00075 0.998368
1.00131 1 1.00294 0.99838
1.00188 1 1.00343 0.998452
1.00064 1 1.00224 0.998396
0.998699 1 1.00019 0.998509
0.998931 1 1 0.998931
0.998592 1 1 0.998592
0.998718 1 1.00015 0.99857
0.998768 1 1.00001 0.998754
0.998919 1 1.00022 0.998704
0.999046 1 1 0.999046
0.998934 1 1 0.998934
0.999645 1 1 0.999645
0.99965 1 1 0.99965
1 1 1 1
0.999664 1 1 0.999664
1 1 1 1
1 1 1 1
1 1 1 1
1 1 1 1
1 1 1 1
0.999926 1 1 0.999926
0.999899 1 1 0.999899
1 1 1 1
0.999878 1 1 0.999878
1 1 1 1
1 1 1 1
1 1 1 1
1 1 1 1
1 1 1 1
1.05176 1.07053 0.984933 0.997491
1.04809 1.06486 0.98684 0.997378
1.04682 1.06686 0.983555 0.997618
0.979297 1.01587 0.967796 0.996079
1.05487 1.07701 0.981842 0.997561
1.02363 1.04466 0.981534 0.99831
1.04103 1.05509 0.988968 0.997683
0.935192 0.981257 0.965046 0.987575
0.994753 1.01935 0.978979 0.996823
0.999452 1 1 0.999452
0.999433 1 1 0.999433
0.999002 1 1 0.999002
0.999078 1 1 0.999078
1.04924 1.07463 0.978857 0.997468
1.02469 1.0564 0.972409 0.997509
1.02126 1.04256 0.981864 0.997666
1.00029 1.00079 1.00267 0.996833
1.00903 1.00767 1.00536 0.996012
1.00445 1.01328 0.994035 0.997232
1.01587 1 1.0184 0.99752
1.02797 1.00003 1.03053 0.997477
1.00206 1 1.00443 0.997638
0.999328 1 1 0.999328
1.00192 1 1.00386 0.998062
0.998723 1 1.00005 0.998674
0.999394 1 1 0.999394
0.998969 1 1 0.998969
1.03246 1.06326 0.973391 0.997578
0.998934 1 1 0.998934
0.998882 1 1 0.998882
0.999009 1 1.00014 0.998866
1.00746 1.0511 0.960734 0.997651
1.01237 1.02643 0.988844 0.997423
1.00358 1.00029 1.00599 0.997311
0.995283 1.0062 0.992054 0.997071
1.00106 1 1.00275 0.998309
1.00481 1 1.00695 0.99788
1.03379 1.00116 1.0351 0.997576
1.03369 1.00016 1.03609 0.997532
0.997584 1.04167 0.95984 0.997751
0.995636 1.03187 0.967171 0.997639
1.00446 1.01033 0.997085 0.997097
0.986659 1.00089 0.987847 0.997914
0.998856 1 1.00027 0.998584
1.00054 1 1.00204 0.998503
1.01203 1 1.01377 0.998279
1.05227 1 1.05481 0.997592
0.901743 0.968934 0.954599 0.974917
1.0036 1 1.00543 0.998174
0.999335 1.00087 1.00109 0.997374
1.01434 1.04393 0.973494 0.998104
1.01602 1.02682 0.99203 0.997433
1.0026 1.00322 1.0033 0.996103
1.00313 1.00223 1.00447 0.996441
0.982766 1.00495 0.9821 0.995744
1.00233 1.0003 1.00402 0.998017
1.0051 1.02419 0.983327 0.998001
1.00029 1.00139 1.00163 0.997283
1.00452 1.00179 1.00611 0.996639
0.996479 1.00695 0.992519 0.997062
0.924614 0.985773 0.962047 0.974961
0.92018 0.970309 0.961962 0.985837
0.9768 0.986802 0.992175 0.997671
0.755996 0.847867 0.929525 0.959248
0.66846 0.810791 0.87489 0.942353
1.00078 1.00013 1.00244 0.998214
0.786611 0.86973 0.940823 0.961319
0.722178 0.827181 0.921168 0.947774
0.989036 1.00649 0.98467 0.997962
1.00733 1.00141 1.00824 0.997692
1.01272 1.00475 1.01058 0.997377
0.968263 0.980097 0.989991 0.997914
0.912163 0.963234 0.970522 0.975743
0.894891 0.944106 0.962908 0.984384
0.744733 0.849303 0.912076 0.961406
0.74257 0.872931 0.899082 0.946147
1.00091 0.999758 1.00238 0.998773
1.00044 0.999925 1.00183 0.998686
1.00225 1 1.0034 0.998852
0.999028 1 1 0.999028
0.99861 1 1 0.99861
1.00062 1 1.00218 0.998442
0.999658 1 1.00126 0.998403
0.9987 1 1 0.9987
0.998932 1 1 0.998932
1.00141 1 1.00305 0.99837
1.00103 1 1.00263 0.998409
0.998588 1 1.00004 0.998545
1.00179 1 1.00332 0.998473
1.00369 1 1.00528 0.998417
1.00823 1 1.00968 0.998564
0.999322 1 1.00098 0.998345
0.998697 1 1.00014 0.998557
0.998597 1 1.00001 0.998588
0.99884 1 1.00027 0.998573
0.998874 1 1.00046 0.99841
0.999139 1 1.00054 0.998597
0.999769 1 1.0012 0.998571
1.0034 1 1.00501 0.998391
0.999522 1 1.00081 0.998714
0.998886 1 1.00013 0.998755
0.99908 1 1 0.99908
0.998793 1 1.00013 0.998665
0.999019 1 1 0.999019
0.999635 1 1 0.999635
0.998931 1 1 0.998931
0.999646 1 1 0.999646
1 1 1 1
0.99965 1 1 0.99965
1 1 1 1
1 1 1 1
1 1 1 1
1 1 1 1
1 1 1 1
0.99941 1 1 0.99941
0.999929 1 1 0.999929
0.999923 1 1 0.999923
1 1 1 1
0.999896 1 1 0.999896
1 1 1 1
1 1 1 1
1 1 1 1
1 1 1 1
1 1 1 1
0.981608 1.01574 0.970129 0.996155
1.05244 1.07401 0.98232 0.99756
1.03012 1.0477 0.985013 0.998183
0.928721 0.974779 0.963665 0.988674
0.994632 1.01907 0.978973 0.996983
1.04113 1.05873 0.98571 0.997637
1.0072 1.02704 0.983641 0.996994
0.942935 0.975626 0.976316 0.989938
0.923641 0.978083 0.968159 0.975396
0.75322 0.848665 0.923413 0.961146
0.652442 0.783651 0.880392 0.945679
0.999024 1 1 0.999024
0.99945 1 1 0.99945
0.999429 1 1 0.999429
0.998993 1 1 0.998993
0.998759 1 1 0.998759
0.998783 1 1 0.998783
0.998966 1 1 0.998966
0.99904 1 1 0.99904
1.02871 1.06335 0.969763 0.997592
1.0126 1.05469 0.962359 0.997644
1.01188 1.02633 0.988462 0.997422
1.00277 1.00101 1.00447 0.997294
0.997672 1.00614 0.994427 0.997138
1.03665 1.00064 1.03852 0.997557
1.03322 1.00021 1.03562 0.997467
1.00547 1 1.00769 0.99779
0.998938 1 1 0.998938
1.00101 1 1.00276 0.998263
0.998978 1 1 0.998978
0.999002 1 1 0.999002
0.996866 1.04238 0.958478 0.997761
0.999139 1 1.00053 0.998607
1.00045 1 1.0019 0.998548
0.994536 1.03055 0.967358 0.997614
1.0018 1.01061 0.994035 0.99723
0.988865 1.00118 0.989878 0.997799
1.01985 1.00008 1.0217 0.998107
1.04822 1.00088 1.0498 0.99762
0.983781 1.02707 0.96004 0.997725
0.985667 1.00982 0.978385 0.997645
0.980429 1.00166 0.98109 0.99767
0.990099 1.00118 0.99086 0.998059
1.00392 1 1.00571 0.998227
1.00909 1 1.01083 0.998277
1.04809 1 1.05028 0.997921
0.785377 0.879017 0.927916 0.96288
0.919427 0.975945 0.962875 0.978412
1.00072 1 1.00265 0.998076
0.999792 1.0012 1.0013 0.997299
1.00517 1.02572 0.981942 0.99799
0.999252 1.00819 0.994053 0.997063
1.00473 1.00239 1.00571 0.996643
0.92004 0.975358 0.9667 0.975778
0.924926 0.976982 0.959718 0.986455
0.977611 0.985463 0.994331 0.997687
0.758507 0.849582 0.927938 0.962135
0.655695 0.800229 0.873434 0.938119
1.00038 0.999928 1.00224 0.998213
0.784666 0.875685 0.931431 0.962024
0.709879 0.815572 0.920518 0.945562
0.988823 1.00735 0.983612 0.997959
1.0074 1.00181 1.00788 0.997715
1.01098 1.00309 1.01037 0.997529
0.960932 0.974448 0.988036 0.998071
0.92108 0.974184 0.97134 0.973386
0.892908 0.944279 0.958251 0.986795
0.749673 0.846411 0.923024 0.959573
0.741188 0.87828 0.892821 0.945216
1.00285 1 1.00419 0.998662
0.754404 0.839148 0.94729 0.949035
0.827111 0.910319 0.950048 0.956368
0.988968 0.997347 0.992915 0.998674
1.01453 1.00246 1.01345 0.998615
0.970288 0.965765 1.00688 0.997822
0.897371 0.931522 0.975072 0.987966
0.882778 0.933492 0.972719 0.972195
0.753513 0.842593 0.931163 0.960388
0.78666 0.916207 0.904509 0.94925
1.00128 0.999703 1.00292 0.998663
1.00163 1 1.00282 0.998815
1.00541 0.999865 1.00647 0.999079
0.998933 1 1 0.998933
0.998581 1 1 0.998581
1.0017 1 1.00328 0.998421
1.00184 1 1.00349 0.998359
1.00143 1 1.00294 0.998494
0.998628 1 1.00007 0.998555
1.00229 1 1.00389 0.998402
0.999343 1 1.001 0.998347
1.00852 0.999924 1.00999 0.99862
1.02663 0.999042 1.02855 0.999097
1.00406 1 1.00564 0.998426
0.998705 1 1.0004 0.998307
0.998586 1 1 0.998585
0.999108 1 1.00053 0.998575
0.999157 1 1.00075 0.998404
0.999438 1 1.00085 0.998587
0.999318 1 1.00067 0.998644
1.00222 1 1.0037 0.998523
1.00015 1 1.00168 0.998474
1.00161 1 1.00296 0.998653
0.99911 1 1.0007 0.998412
0.998764 1 1.00093 0.997837
1.00273 1 1.00445 0.998287
1.00295 1 1.00456 0.99839
1.00252 1 1.00391 0.998612
1.00025 1 1.00154 0.998712
0.999062 1 1 0.999062
0.999197 1 1.00044 0.998755
0.999081 1 1 0.999081
0.999628 1 1 0.999628
0.998991 1 1 0.998991
0.999637 1 1 0.999637
0.999998 1 1 0.999998
0.999647 1 1 0.999647
0.999999 1 1 0.999999
1 1 1 1
1 1 1 1
1 1 1 1
1 1 1 1
0.99942 1 1 0.99942
0.999909 1 1 0.999909
0.999412 1 1 0.999412
1 1 1 1
0.99993 1 1 0.99993
0.999919 1 1 0.999919
1 1 1 1
1 1 1 1
1 1 1 1
1 1 1 1
1 1 1 1
0.779576 0.866636 0.937629 0.959381
0.716352 0.823681 0.917995 0.947387
0.930038 0.97869 0.960676 0.989188
0.996108 1.01879 0.980534 0.997148
1.0443 1.06266 0.985097 0.997593
0.92465 0.959678 0.971922 0.991335
1.00752 1.02644 0.984395 0.997128
0.935094 0.989707 0.967524 0.976533
0.754184 0.851269 0.92377 0.959062
0.65188 0.791352 0.874918 0.941522
0.957722 0.996242 0.967611 0.993515
0.922402 0.970929 0.97315 0.976232
0.741968 0.847583 0.911183 0.960721
0.726866 0.862981 0.891286 0.945009
0.999896 1 1.00128 0.998616
0.999057 1 1 0.999057
0.999449 1 1 0.999449
0.998984 1 1 0.998984
0.998811 1 1 0.998811
0.999673 1 1.00109 0.998588
0.998763 1 1 0.998763
0.998675 1 1 0.998675
0.998927 1 1 0.998927
0.999002 1 1 0.999002
0.997338 1.04257 0.958752 0.997772
0.991787 1.02802 0.967079 0.997592
0.999411 1.01116 0.99099 0.997363
0.990916 1.00128 0.991942 0.997684
1.04315 1.00231 1.04319 0.997648
1.02808 1.00013 1.03008 0.997937
0.999069 1 1.00048 0.998595
0.999336 1 1.00071 0.99863
0.984606 1.02736 0.960508 0.997785
1.00486 1 1.00668 0.998194
1.00869 1 1.01047 0.998233
0.983541 1.00806 0.978045 0.997579
0.978508 1.00128 0.979453 0.997763
0.992047 1.002 0.992065 0.997986
1.04192 1 1.04414 0.99788
0.982243 1.00392 0.980305 0.998063
0.973032 0.999704 0.97483 0.998451
1.01368 1.00091 1.01459 0.998199
1.00857 1 1.01044 0.998149
1.00843 1 1.01042 0.998034
1.02637 1 1.02841 0.998022
0.778012 0.854295 0.952429 0.956194
0.793813 0.877884 0.938994 0.962983
0.90805 0.972527 0.957625 0.975018
1.00033 0.99985 1.00227 0.998211
1.00711 1.00178 1.0076 0.997737
0.991332 1.00842 0.985068 0.997958
1.0094 1.00169 1.01004 0.997677
0.779645 0.870671 0.929684 0.96318
0.916052 0.970373 0.968202 0.975024
0.888992 0.940871 0.959747 0.984489
0.958039 0.970514 0.988903 0.998224
0.744843 0.846174 0.919472 0.957341
0.710352 0.817217 0.918636 0.946222
0.731582 0.868771 0.888907 0.947331
1.00314 0.999857 1.00463 0.998657
0.756122 0.841939 0.943877 0.951472
0.838021 0.920175 0.952492 0.956144
0.988956 0.995186 0.994971 0.998763
1.0144 1.00146 1.01437 0.998573
0.967707 0.964671 1.00496 0.998199
0.891574 0.935103 0.967282 0.9857
0.896371 0.940908 0.977216 0.974877
0.774148 0.865016 0.933824 0.958373
0.774126 0.904399 0.899988 0.951075
1.0072 0.998999 1.00878 0.999431
0.851593 0.924972 0.956982 0.962055
0.822972 0.915054 0.936371 0.960484
0.988734 0.974486 1.01491 0.999715
0.918456 0.931184 0.994447 0.991839
0.90304 0.931605 0.995536 0.973684
0.815671 0.892953 0.954755 0.956741
0.809043 0.940229 0.90537 0.950413
1.00159 1 1.00282 0.998778
1.00536 0.999569 1.00672 0.999075
1.02287 0.99811 1.02547 0.999354
0.998719 1 1.00017 0.998554
0.999287 1 1.00094 0.998349
1.00053 1 1.00215 0.998387
1.00875 0.999816 1.01027 0.998676
0.998947 1 1.00064 0.998307
1.00411 1 1.0057 0.998418
1.0313 0.999669 1.03249 0.999174
1.04253 0.996618 1.04665 0.999446
1.03253 0.999463 1.03405 0.999068
0.9989 1 1.00053 0.998375
0.99942 1 1.00103 0.998396
0.999326 1 1.00075 0.998576
0.998717 1 1 0.998717
0.999785 1 1.0013 0.998491
1.00153 1 1.00301 0.998524
1.00208 1 1.00342 0.998668
1.00099 1 1.00247 0.998521
1.00649 0.99962 1.00791 0.998969
0.997655 1.00018 0.998961 0.998509
0.999689 1.00044 1.00082 0.998434
0.998738 1 1.00069 0.998045
1.00064 1.00204 1.00153 0.997077
1.00205 1 1.00387 0.998185
0.99883 1 1.00079 0.99804
1.00241 1 1.00411 0.998305
1.00437 1 1.00593 0.998456
1.00223 1 1.00384 0.99839
1.00219 1 1.00358 0.998611
0.999161 1 1.00019 0.998972
1.00048 1 1.00178 0.998709
0.99906 1 1 0.99906
0.999615 1 1 0.999615
0.999083 1 1 0.999083
0.999629 1 1 0.999629
0.999992 1 1 0.999992
0.999639 1 1 0.999639
0.999996 1 1 0.999996
1 1 1 1
0.999999 1 1 0.999999
1 1 1 1
1 1 1 1
0.999197 1 1 0.999197
0.999873 1 1 0.999873
0.99935 1 1 0.99935
1 1 1 1
0.999914 1 1 0.999914
0.999412 1 1 0.999412
1 1 1 1
1 1 1 1
0.99993 1 1 0.99993
1 1 1 1
1 1 1 1
1 1 1 1
0.750444 0.838829 0.939896 0.951843
0.785509 0.873878 0.93547 0.960883
0.832923 0.919382 0.947919 0.955735
0.711819 0.820218 0.91731 0.946072
0.925636 0.968933 0.965998 0.988941
1.0054 1.02598 0.982628 0.997271
0.940611 0.987362 0.974599 0.977479
0.763072 0.854784 0.928599 0.961348
0.655405 0.802491 0.871356 0.93729
0.956052 0.991269 0.971594 0.992671
0.917048 0.970925 0.971447 0.972271
0.755085 0.856027 0.919768 0.959025
0.728646 0.867756 0.890493 0.94295
0.93382 0.977789 0.964262 0.990427
0.898157 0.937768 0.985708 0.971647
0.776466 0.874143 0.928541 0.956619
0.780551 0.914146 0.902047 0.946578
1.0016 1 1.00325 0.998355
0.999236 1 1.00058 0.99866
0.99909 1 1 0.99909
0.998862 1 1 0.998862
0.998664 1 1.0004 0.998263
0.99898 1 1.00035 0.99863
0.998743 1 1 0.998743
0.998642 1 1 0.998642
0.99872 1 1.00001 0.998712
0.998888 1 1 0.998888
0.985941 1.02858 0.960619 0.997844
0.983804 1.00713 0.979276 0.997517
0.976602 1.00129 0.977443 0.997854
0.99621 1.00326 0.995048 0.997916
1.03467 1 1.03691 0.997839
1.00784 1 1.00966 0.998191
1.00531 1 1.00716 0.99816
1.00763 1 1.00953 0.998113
0.979789 1.0042 0.977583 0.998069
1.00702 1 1.00901 0.998027
1.02709 1 1.02914 0.998008
0.97153 1.00007 0.972994 0.998425
1.0107 1.00196 1.01059 0.998157
0.954234 0.983597 0.971615 0.998489
0.98694 0.99245 0.995212 0.999233
1.03835 0.999668 1.04035 0.998409
1.00443 1 1.00641 0.998037
1.01669 1 1.01865 0.998077
0.860825 0.930016 0.958953 0.965222
0.779883 0.853827 0.95576 0.955676
0.782556 0.872098 0.933803 0.960937
1.00343 0.99991 1.00488 0.998652
1.0148 1.00046 1.01582 0.99853
0.985742 0.992953 0.993878 0.998852
0.76011 0.844614 0.945031 0.952296
0.896546 0.937597 0.983859 0.971904
0.894425 0.93298 0.971127 0.987179
0.959443 0.961175 0.999633 0.998565
0.773449 0.866672 0.928934 0.96071
0.844976 0.92555 0.954977 0.955986
0.778887 0.907862 0.901923 0.95123
1.00577 0.998926 1.00747 0.999387
0.848477 0.923682 0.953404 0.963476
0.823245 0.915245 0.936438 0.960534
0.991444 0.978432 1.01375 0.999551
0.929745 0.940663 0.99678 0.991586
0.87943 0.924512 0.979939 0.970711
0.810039 0.940214 0.905824 0.95112
0.830224 0.90059 0.962472 0.957812
1.00392 0.982486 1.02211 0.999711
0.831842 0.909945 0.94259 0.969847
0.84504 0.936134 0.938329 0.96202
0.780267 0.913106 0.902548 0.946785
0.967016 0.955507 1.01422 0.997857
0.927809 0.944641 1.00751 0.974863
0.870355 0.931821 0.973706 0.95926
1.00579 0.999238 1.00749 0.99907
1.02264 0.997837 1.02561 0.99927
1.02267 0.986234 1.0374 0.999566
0.999004 1 1.0007 0.998306
1.00385 1 1.00545 0.998409
1.03645 0.999848 1.03739 0.999251
0.999158 1 1.00078 0.998381
1.03188 0.999538 1.03331 0.999079
1.04371 0.996474 1.04801 0.999421
1.03237 0.993138 1.04004 0.999489
1.0214 0.999204 1.02317 0.999058
0.999639 1 1.00113 0.998509
1.00125 1 1.00273 0.998525
1.00267 1 1.00399 0.998685
1.00585 0.999879 1.00704 0.998942
1.00043 1 1.00191 0.99852
1.00235 1 1.00349 0.998861
0.998252 1.00006 0.999424 0.998769
1.00176 1.00014 1.00398 0.997644
1.00015 1.00086 1.00084 0.998459
0.999124 1.0006 1.00057 0.997963
0.998486 1.00064 1.00101 0.996837
1.01139 1.01332 1.00129 0.996812
1.00183 1.00123 1.00276 0.99785
0.999843 1.00134 1.00138 0.997124
1.00685 1 1.0086 0.998267
1.00296 1.00026 1.00453 0.998174
0.998886 1 1.00065 0.998241
1.00224 1 1.00393 0.998323
1.0038 1 1.00532 0.998491
0.999592 1 1.00074 0.99885
1.00206 1 1.00346 0.99861
0.999235 1 1.00026 0.998972
0.999563 1 1 0.999563
0.999057 1 1 0.999057
0.999612 1 1 0.999612
0.999988 1 1 0.999988
0.999629 1 1 0.999629
0.999991 1 1 0.999991
1 1 1 1
0.999994 1 1 0.999994
1 1 1 1
1 1 1 1
0.998965 1 1 0.998965
0.999694 1 1 0.999694
0.999195 1 1 0.999195
1 1 1 1
0.999826 1 1 0.999826
0.99928 1 1 0.99928
1 1 1 1
1 1 1 1
0.999918 1 1 0.999918
1 1 1 1
1 1 1 1
1 1 1 1
0.847487 0.927084 0.949587 0.962675
0.747242 0.838362 0.9347 0.95358
0.782352 0.869973 0.936269 0.960496
0.998522 1 1 0.998522
0.828912 0.912821 0.943253 0.962708
0.831639 0.918941 0.947046 0.9556
0.714753 0.826585 0.912315 0.947816
0.963501 0.993962 0.977567 0.991599
0.915183 0.964676 0.972395 0.975627
0.759358 0.867955 0.914477 0.956702
0.723818 0.856773 0.894876 0.944062
0.931726 0.974719 0.967913 0.98758
0.895296 0.937664 0.979676 0.974623
0.78657 0.876479 0.937747 0.956996
0.776648 0.908329 0.902777 0.94711
0.894591 0.938672 0.967808 0.984739
0.892644 0.923746 0.994064 0.972101
0.843795 0.912954 0.964664 0.958103
0.809833 0.939508 0.907007 0.950352
1.00116 1 1.00304 0.998126
1.00282 1 1.00452 0.998312
0.998801 1 1.0001 0.998704
0.998338 1 1.00002 0.998322
0.99889 1 1.00056 0.998327
0.998671 1 1 0.998671
0.998649 1 1 0.998649
0.998774 1 1.00003 0.998749
0.976095 1.00483 0.973278 0.998071
0.969445 1.00073 0.970289 0.998404
1.00708 1 1.00902 0.998077
1.00811 1.00297 1.00703 0.998113
1.02891 1 1.03098 0.997993
1.00639 1 1.00838 0.998019
1.00465 1 1.00662 0.998047
0.959006 0.984389 0.975598 0.998582
1.01498 1 1.0169 0.998108
1.02772 1.00032 1.02899 0.998439
0.983858 0.993232 0.991271 0.999285
1.00632 1 1.00818 0.998163
0.952848 0.971365 0.982555 0.998354
1.00208 0.988967 1.01379 0.999472
1.04738 0.997261 1.0518 0.998538
1.00733 1 1.00908 0.998267
0.842552 0.913057 0.94907 0.972301
0.860157 0.929877 0.958389 0.965186
0.783327 0.853295 0.961108 0.955151
1.00375 0.998648 1.00577 0.999346
0.994775 0.981656 1.01398 0.999392
0.847431 0.924267 0.950254 0.964866
0.904917 0.927518 1.00127 0.974396
0.919467 0.93807 0.991623 0.988449
0.830251 0.901686 0.962606 0.956545
0.823998 0.916254 0.936231 0.960567
0.812044 0.941124 0.906511 0.951831
1.00754 0.988379 1.01973 0.999669
0.833428 0.911199 0.943115 0.969817
0.843971 0.934007 0.937331 0.964017
0.97585 0.961035 1.01595 0.999477
0.775737 0.90699 0.902934 0.947231
0.906933 0.92899 1.00346 0.972888
0.877481 0.939627 0.973998 0.958792
1.00371 0.97829 1.02624 0.999756
0.855076 0.930274 0.945757 0.971883
0.826715 0.910305 0.943155 0.96291
0.724623 0.861409 0.889975 0.945203
0.842909 0.912852 0.964215 0.95765
0.954253 0.953334 1.00562 0.99537
0.934571 0.942029 1.02328 0.969509
1.01975 0.998198 1.02242 0.999188
1.025 0.987603 1.03835 0.999534
1.01088 0.975918 1.03626 0.999582
0.999329 1 1.00094 0.998387
1.03356 0.999592 1.03492 0.999091
1.04491 0.997684 1.04797 0.999396
1.01614 0.999338 1.01778 0.999045
1.03238 0.9948 1.03831 0.999488
1.01189 0.990688 1.02218 0.999235
1.00466 1 1.00576 0.998914
0.999997 1 1.00148 0.998521
1.00449 1 1.00566 0.998841
1.00938 1 1.01123 0.998176
0.999028 1 1 0.999028
1.00017 1.00015 1.0022 0.997825
1.00165 1.0008 1.00429 0.996574
1.00539 1.00738 1.00188 0.99616
0.999558 1.00128 1.0004 0.997879
0.998856 1.0011 1.00109 0.996662
1.01257 1.01518 1.00053 0.996904
1.00685 1.00686 1.00261 0.99739
1.01055 1.01243 1.00125 0.996898
1.00678 1 1.00873 0.998067
1.0037 1.00258 1.0033 0.997828
0.998753 1.00031 1.00128 0.997171
1.00228 1 1.00362 0.998669
1.00631 1 1.00805 0.99828
1.00384 1.00044 1.00524 0.998163
1.0035 1 1.00498 0.998525
1.00005 1 1.0012 0.998849
0.999465 1 1 0.999465
0.999423 1 1.00045 0.998972
0.999559 1 1 0.999559
0.999984 1 1 0.999984
0.99961 1 1 0.99961
0.999987 1 1 0.999987
1 1 1 1
0.99999 1 1 0.99999
1 1 1 1
1 1 1 1
0.998879 1 1 0.998879
0.999558 1 1 0.999558
0.999008 1 1 0.999008
1 1 1 1
0.99968 1 1 0.99968
0.999193 1 1 0.999193
1 1 1 1
1 1 1 1
0.999779 1 1 0.999779
1 1 1 1
1 1 1 1
1 1 1 1
0.837701 0.912614 0.945702 0.970616
0.850269 0.926747 0.953065 0.962658
0.747576 0.838532 0.93477 0.953743
0.998554 1 1 0.998554
0.998484 1 1 0.998484
0.998417 1 1 0.998417
0.84413 0.937473 0.936176 0.961818
0.825539 0.912315 0.939886 0.962759
0.831084 0.91838 0.947118 0.955473
0.936383 0.978688 0.966879 0.989548
0.883727 0.933265 0.974661 0.971538
0.776212 0.859841 0.939918 0.960445
0.789004 0.917595 0.909031 0.945909
0.89732 0.942553 0.964189 0.987369
0.897665 0.927378 0.995285 0.972546
0.822434 0.889628 0.963975 0.959019
0.809472 0.94035 0.905169 0.951005
0.892294 0.93165 0.972082 0.985263
0.912492 0.933077 1.0045 0.97356
0.870014 0.929958 0.975061 0.959469
0.790461 0.918841 0.906325 0.949196
0.998799 1 1.00062 0.998183
1.00183 1 1.00374 0.998099
1.00276 1 1.0045 0.998268
0.998324 1 1.00001 0.998312
0.99873 1 1.00034 0.998392
0.998655 1 1 0.998655
0.962352 0.982402 0.980908 0.998657
0.979196 0.992373 0.987391 0.999322
1.00485 1 1.00681 0.998058
1.01946 1.00052 1.02049 0.998469
1.01574 1 1.01763 0.998139
1.0081 1 1.00997 0.998147
1.00781 0.999916 1.00962 0.998293
0.959475 0.971531 0.989127 0.998447
1.04626 0.997016 1.05077 0.99868
1.00624 0.985 1.02218 0.999394
1.00755 1 1.00912 0.998445
0.978031 0.963686 1.01667 0.998242
1.00654 0.979199 1.02853 0.999411
1.03478 0.992235 1.04413 0.998796
0.867717 0.935038 0.952553 0.974226
0.843841 0.913516 0.949555 0.972802
0.859593 0.929679 0.958001 0.965148
1.01256 0.994396 1.01865 0.999627
0.964809 0.95805 1.0087 0.998364
0.835023 0.912273 0.943837 0.969788
0.902132 0.917429 1.00658 0.976897
0.872048 0.936722 0.972408 0.957373
0.843967 0.932406 0.936996 0.966012
0.789988 0.916933 0.91061 0.94613
0.999402 0.975533 1.02469 0.999783
0.856206 0.930126 0.946442 0.972618
0.826951 0.912368 0.941239 0.962964
0.950595 0.948971 1.01004 0.991751
0.726934 0.866101 0.889821 0.943244
0.817502 0.888162 0.960447 0.958348
0.944113 0.94764 1.02315 0.973741
1.00171 0.96198 1.04236 0.998989
0.838476 0.912018 0.947062 0.970753
0.83946 0.923995 0.950257 0.956071
0.651214 0.781211 0.880994 0.9462
0.770957 0.869028 0.927418 0.95658
0.910675 0.929881 1.00664 0.972887
0.929336 0.944469 0.994755 0.989165
1.02851 0.988906 1.04057 0.999501
1.01481 0.982445 1.03338 0.999586
1.0128 0.987518 1.02609 0.999519
1.01075 0.99963 1.0121 0.999032
1.03073 0.995974 1.03543 0.999487
1.01534 0.988889 1.02745 0.999319
1.00863 1 1.00982 0.998816
1.00672 1 1.00791 0.99882
1.00795 1.00003 1.00994 0.998008
1.0184 1.00082 1.02091 0.996721
0.998488 1.00005 1.00043 0.998008
1.00313 1.00117 1.00541 0.996561
1.00419 1.00251 1.006 0.995705
1.00533 1.0077 1.00191 0.995743
1.0074 1.00984 1.00108 0.996512
1.00521 1.00723 1.00189 0.996111
0.999096 1.00138 1.00124 0.996488
1.00546 1.00718 1.0011 0.997197
1.01269 1.01526 1.00048 0.996989
1.00236 1.00006 1.00464 0.997679
1.00803 1.00784 1.00274 0.997453
1.01031 1.01218 1.00117 0.996985
1.00697 1 1.00861 0.998374
1.00603 1.0001 1.00788 0.998066
1.00573 1.00413 1.0038 0.997806
0.999468 1 1.00014 0.999332
1.00191 1 1.00325 0.998667
1.00548 1 1.0072 0.998293
0.999944 1 1.0011 0.998848
0.999477 1 1.00002 0.99946
0.99997 1 1 0.99997
0.999555 1 1 0.999555
0.99998 1 1 0.99998
1 1 1 1
0.999987 1 1 0.999987
1 1 1 1
1 1 1 1
0.998847 1 1 0.998847
0.999541 1 1 0.999541
0.998905 1 1 0.998905
0.999999 1 1 0.999999
0.999599 1 1 0.999599
0.999051 1 1 0.999051
1 1 1 1
1 1 1 1
0.999666 1 1 0.999666
1 1 1 1
1 1 1 1
1 1 1 1
0.854595 0.930245 0.945406 0.971728
0.839644 0.913328 0.947178 0.970592
0.851689 0.92588 0.955539 0.962671
0.999258 1 1.00087 0.998386
0.99939 1 1.00115 0.998247
0.998587 1 1 0.998587
0.998473 1 1 0.998473
0.998406 1 1 0.998406
0.998398 1 1 0.998398
0.998358 1 1 0.998358
0.823345 0.917522 0.934487 0.960267
0.845639 0.935369 0.937989 0.963838
0.823617 0.910969 0.93903 0.962814
0.809773 0.941329 0.90393 0.951673
0.890723 0.937491 0.964536 0.985047
0.897468 0.923989 0.998259 0.972991
0.831208 0.90049 0.961554 0.959969
0.884105 0.932481 0.963201 0.984344
0.909835 0.926073 1.01229 0.970542
0.876441 0.938912 0.97295 0.959416
0.77591 0.906205 0.900307 0.95103
0.906208 0.935984 0.981072 0.986867
0.921672 0.934871 1.01617 0.970196
0.820798 0.896929 0.956155 0.957083
0.743514 0.875199 0.898152 0.945871
1.01202 1 1.01361 0.998427
1.00013 1 1.00194 0.998197
1.00292 1 1.00486 0.998072
0.998303 1 1 0.998303
0.966184 0.971803 0.995645 0.998568
1.00848 0.982992 1.02664 0.999311
1.00714 1 1.00902 0.998131
1.00748 1 1.00918 0.998318
1.03917 0.995464 1.04514 0.998821
1.00602 1 1.00759 0.998441
1.03532 0.992023 1.04491 0.998782
0.976132 0.963034 1.01661 0.997036
1.00459 0.970624 1.03545 0.999552
1.01278 0.992346 1.02171 0.99891
0.956062 0.934889 1.02602 0.99671
1.01626 0.971414 1.0469 0.999296
0.843507 0.91267 0.950469 0.972383
0.865664 0.934307 0.950031 0.975264
0.844757 0.913701 0.949905 0.973302
0.993987 0.970971 1.0239 0.999805
0.95679 0.953514 1.00778 0.995684
0.855505 0.929034 0.946055 0.973362
0.94222 0.950848 1.02145 0.970122
0.822169 0.89489 0.957672 0.959345
0.826543 0.913881 0.939167 0.963015
0.723125 0.855269 0.89533 0.944338
1.00334 0.964439 1.04122 0.999156
0.839119 0.914048 0.945703 0.970733
0.834336 0.920223 0.948457 0.955939
0.931906 0.944551 0.994927 0.991643
0.651742 0.790211 0.875459 0.942099
0.779026 0.870206 0.935723 0.956716
0.909698 0.926621 1.01119 0.970874
0.996193 0.969835 1.02965 0.997603
0.848523 0.928309 0.949221 0.962949
0.716443 0.822722 0.918648 0.947937
0.743947 0.849172 0.911432 0.961218
0.883354 0.913836 0.993009 0.973449
0.897723 0.9274 0.982065 0.985678
1.01854 0.98643 1.03298 0.99959
1.0133 0.984468 1.02979 0.999517
0.986926 0.982116 1.00557 0.999327
1.01945 0.987345 1.03313 0.999402
1.00633 0.993421 1.01411 0.9989
1.00192 1.0008 1.00331 0.997819
1.00681 1.00002 1.00896 0.99784
1.01636 1.00074 1.01904 0.996624
1.00929 1.00044 1.0131 0.995801
1.00477 1.00184 1.0064 0.996549
1.00478 1.00228 1.00691 0.995616
1.00205 1.0022 1.00448 0.995391
1.018 1.0222 1 0.995885
1.01196 1.01523 1.00077 0.996017
1.00568 1.00784 1.00218 0.995687
1.00417 1.00726 1.00013 0.996807
1.00625 1.00896 1.00074 0.996575
1.00497 1.00704 1.0019 0.996061
1.00206 1.00371 1.00112 0.997245
1.00551 1.00727 1.00108 0.997175
1.01253 1.01507 1.00043 0.997073
1.00552 1 1.00755 0.997989
1.00279 1.00045 1.00461 0.997739
1.00899 1.0086 1.00288 0.997517
1.0009 1 1.00182 0.999087
1.00569 1 1.00732 0.998379
1.00524 1.00018 1.00701 0.998065
0.999948 1 1 0.999948
0.99984 1 1.00052 0.999325
1.00193 1 1.00327 0.998665
0.999642 1 1.00019 0.999456
0.999965 1 1 0.999965
1 1 1 1
0.999977 1 1 0.999977
1 1 1 1
1 1 1 1
1.00103 1 1.00266 0.998374
0.998719 1 1 0.998719
0.999432 1 1 0.999432
0.998844 1 1 0.998844
0.99999 1 1 0.99999
0.999544 1 1 0.999544
0.998931 1 1 0.998931
1 1 1 1
0.999999 1 1 0.999999
0.99964 1 1 0.99964
1 1 1 1
1 1 1 1
1 1 1 1
0.831143 0.910005 0.941856 0.969723
0.85323 0.928541 0.944899 0.972478
0.840535 0.915259 0.946209 0.970564
0.99922 1 1.00082 0.998398
1.00015 1 1.00191 0.998247
1.00014 1 1.00186 0.998282
0.998984 1 1.00073 0.998257
1.00496 1 1.00676 0.998205
0.998462 1 1 0.998462
0.998396 1 1 0.998396
0.9984 1 1 0.9984
0.998362 1 1 0.998362
1.007 1 1.0086 0.998416
0.827436 0.911797 0.949167 0.956078
0.824313 0.917201 0.935839 0.960343
0.846936 0.934457 0.938387 0.96585
0.778374 0.908864 0.900366 0.951197
0.872855 0.935606 0.974162 0.957675
0.877865 0.927488 0.962849 0.983018
0.918621 0.934585 1.00997 0.973219
0.903412 0.938856 0.977931 0.983962
0.931537 0.945102 1.01272 0.973264
0.833547 0.901463 0.96457 0.958625
0.742816 0.880857 0.892508 0.944852
0.917133 0.93171 0.998154 0.986176
0.914783 0.928623 1.01153 0.973868
0.755754 0.844901 0.931734 0.960024
0.682358 0.821095 0.878817 0.945628
1.01147 1 1.0125 0.998983
1.01326 1 1.01485 0.998433
1.00265 1 1.00445 0.998212
0.977271 0.965387 1.0166 0.995784
1.0072 0.964857 1.0442 0.999703
1.00586 1 1.00743 0.998436
1.03771 0.99189 1.04748 0.99877
1.01402 0.99522 1.01999 0.998917
1.02145 0.977775 1.04541 0.999285
0.962084 0.944999 1.02148 0.99667
1.01802 0.993721 1.02512 0.999345
0.974332 0.960668 1.01725 0.997029
0.859322 0.929571 0.958069 0.964888
0.845573 0.913832 0.951103 0.972876
0.863566 0.933384 0.947653 0.976305
1.00555 0.970112 1.03726 0.999302
0.928649 0.942724 0.997452 0.987586
0.842065 0.916101 0.946924 0.970706
0.913653 0.934937 1.00679 0.970645
0.767474 0.851814 0.938394 0.960138
0.829505 0.916412 0.947 0.955825
0.655062 0.801386 0.871514 0.93792
0.995229 0.968653 1.0297 0.997806
0.849889 0.926349 0.952783 0.962927
0.712066 0.820168 0.917129 0.946645
0.904795 0.934894 0.980476 0.987076
0.756291 0.856763 0.920037 0.959452
0.877013 0.91839 0.983091 0.971371
0.957977 0.957765 1.00399 0.996244
0.750701 0.839646 0.938852 0.9523
0.75308 0.848432 0.922991 0.961672
0.894556 0.937384 0.982065 0.971739
0.876051 0.924216 0.959524 0.98787
1.01208 0.98174 1.0314 0.999515
0.990872 0.980942 1.01083 0.999301
0.996147 0.994147 1.00354 0.998475
1.0038 0.986216 1.01887 0.998979
1.00139 1.00085 1.00264 0.997902
0.99804 1.00199 0.999119 0.996941
1.01412 1.00067 1.01697 0.996526
1.00787 1.00069 1.01142 0.995807
0.999144 1.00178 1.00137 0.996007
1.00504 1.00195 1.00759 0.995527
1.00219 1.00309 1.0037 0.995424
1.01635 1.02033 1 0.996099
1.03794 1.04164 1 0.996443
1.02754 1.03168 1.00002 0.995963
1.01798 1.02215 1 0.995913
1.01328 1.01705 1 0.996299
1.01049 1.0135 1.00107 0.995964
1.00617 1.00813 1.00244 0.995631
1.00537 1.00843 1 0.996968
1.00271 1.00582 1.00002 0.996881
1.0049 1.00797 1.00032 0.996639
1.00056 1.00088 1.00208 0.997607
1.00212 1.00356 1.0013 0.99728
1.00571 1.00748 1.0011 0.997152
1.00605 1 1.00739 0.998668
1.00575 1.00019 1.00758 0.997992
1.00323 1.00072 1.00472 0.997799
0.999901 1 1 0.999901
1.00178 1 1.00271 0.999079
1.00503 1 1.00666 0.998383
1 1 1 1
0.999938 1 1 0.999938
1.00009 1 1.00077 0.999318
0.999959 1 1 0.999959
1 1 1 1
1 1 1 1
1.00422 1 1.00594 0.998285
0.99976 1 1.00118 0.998582
1.00145 1 1.0031 0.998356
0.999321 1 1 0.999321
0.998916 1 1.0002 0.998717
0.99997 1 1 0.99997
0.999436 1 1 0.999436
0.99884 1 1 0.99884
1 1 1 1
0.999993 1 1 0.999993
0.999547 1 1 0.999547
1 1 1 1
1 1 1 1
1 1 1 1
0.847456 0.92532 0.948878 0.965194
0.834203 0.912156 0.943118 0.969699
0.85336 0.926525 0.946366 0.973232
0.998813 1.00013 1.00039 0.998291
0.999707 1 1.0013 0.998409
1.00052 1 1.00228 0.998246
0.998911 1 1.00066 0.998254
0.999992 1 1.00169 0.998304
1.00308 1 1.0048 0.998283
1.01104 1 1.01311 0.997962
1.01313 1 1.01491 0.99824
0.998402 1 1 0.998402
0.998367 1 1 0.998367
1.0066 1 1.00822 0.998401
1.01963 0.99969 1.02137 0.998613
0.722638 0.826663 0.922812 0.947281
0.837797 0.921521 0.951129 0.95586
0.825253 0.917044 0.937011 0.960401
0.734343 0.872551 0.888764 0.946939
0.835494 0.905793 0.963052 0.957777
0.925195 0.938096 1.01648 0.970261
0.904397 0.932009 0.985479 0.984671
0.915534 0.931095 0.995085 0.988144
0.669207 0.812139 0.875089 0.941624
0.908864 0.92645 1.01027 0.971048
0.774486 0.865497 0.934198 0.957876
0.914994 0.939074 0.985014 0.989182
0.900608 0.927816 0.99563 0.974935
0.744966 0.850397 0.912676 0.959839
0.998679 1 0.999137 0.999541
1.01102 1 1.01205 0.99899
1.0132 1 1.01478 0.998439
0.960635 0.945575 1.01929 0.996698
1.02656 0.983913 1.0441 0.999273
1.01439 0.997408 1.01812 0.998924
1.01791 0.994877 1.02382 0.999344
0.971374 0.959685 1.01515 0.997074
0.993547 0.987128 1.00851 0.998011
0.779184 0.854169 0.956985 0.953216
0.856684 0.928804 0.954133 0.966691
0.845395 0.914338 0.9499 0.973362
0.996359 0.967678 1.03175 0.99795
0.894928 0.930223 0.973806 0.987936
0.848892 0.92445 0.953612 0.962936
0.882248 0.910861 0.995922 0.972554
0.762555 0.87078 0.914851 0.957221
0.715492 0.826847 0.912447 0.948358
0.958758 0.955531 1.00709 0.996315
0.747556 0.838884 0.934095 0.954005
0.755186 0.851418 0.924304 0.959614
0.876972 0.925125 0.962617 0.984763
0.89365 0.940019 0.975375 0.974674
0.949986 0.966174 0.985046 0.998172
0.776318 0.863821 0.936414 0.959728
0.924311 0.97337 0.972832 0.976118
0.887746 0.938507 0.960778 0.984527
0.994306 0.979371 1.01598 0.99928
0.98808 0.993938 0.99553 0.99857
0.994145 1.00137 0.995129 0.997644
1.00157 1.00096 1.00264 0.997985
1.00134 1.00243 1.002 0.996923
1.00022 1.00387 0.999428 0.996937
1.00657 1.00089 1.0099 0.995814
0.999014 1.00134 1.00167 0.996018
1.02131 1.02532 0.999211 0.996882
1.0026 1.00398 1.00319 0.995456
1.01533 1.01929 1 0.99611
1.03846 1.04187 0.999705 0.997025
1.04137 1.04444 1 0.997064
1.04058 1.04438 1 0.99636
1.03807 1.04173 1 0.996486
1.02869 1.03263 1 0.996183
1.02606 1.03016 1 0.99602
1.01777 1.02191 1 0.995941
1.01731 1.02073 1 0.99665
1.01347 1.01707 1.00014 0.996326
1.00915 1.0118 1.00148 0.995912
1.00178 1.0045 1 0.99729
1.00562 1.00869 1 0.996962
1.00135 1.00441 1 0.996955
1.00327 1.00011 1.00494 0.998237
1.00174 1.0018 1.00234 0.997605
1.00195 1.0032 1.00145 0.997314
1.00035 1 1.00057 0.999783
1.00422 1 1.00557 0.998664
1.00505 1.00041 1.00665 0.997995
1 1 1 1
0.999883 1 1 0.999883
1.00193 1 1.00286 0.99907
1 1 1 1
0.999929 1 1 0.999929
1 1 1 1
0.999769 1.00001 1.00158 0.998184
1.0029 1 1.00464 0.998273
1.00289 1 1.00445 0.998445
0.999763 1 1.00056 0.999204
1.00009 1 1.00152 0.99858
1.00093 1 1.0026 0.998337
0.999942 1 1 0.999942
0.999325 1 1 0.999325
0.998784 1 1.00007 0.998715
1 1 1 1
0.999976 1 1 0.999976
0.99944 1 1 0.99944
1 1 1 1
0.999996 1 1 0.999996
1 1 1 1
0.754182 0.839199 0.946491 0.949498
0.84802 0.925771 0.949036 0.965206
0.83755 0.914583 0.94441 0.969676
1.00124 1 1.00297 0.998271
1.00455 1.00166 1.00491 0.997991
1.00898 1 1.01088 0.998123
0.999813 1 1.00156 0.998251
0.999729 1 1.00141 0.998325
1.00321 1 1.00486 0.998361
1.01157 1 1.01338 0.99821
1.0105 1 1.01252 0.998003
1.01223 1.00021 1.01416 0.997881
0.989013 1.00065 0.989385 0.998974
1.00515 1 1.00678 0.998387
1.01579 0.999762 1.01748 0.998585
0.754894 0.847604 0.930053 0.957603
0.709148 0.814466 0.921306 0.945061
0.844905 0.927341 0.953323 0.955715
0.657114 0.802102 0.873839 0.937518
0.776034 0.866252 0.932987 0.960197
0.898245 0.921895 1.00133 0.973048
0.92207 0.937048 0.998388 0.985605
0.905738 0.932601 0.983968 0.987019
0.746145 0.84413 0.922098 0.958598
0.883476 0.917567 0.990065 0.972508
0.895573 0.938307 0.965862 0.988191
0.883187 0.939351 0.96707 0.972226
1.00361 1 1.00459 0.999021
0.998257 1 0.998772 0.999485
1.01076 1 1.01178 0.998995
0.969224 0.959642 1.0129 0.99712
1.01776 0.995824 1.0227 0.999344
0.99434 0.988212 1.00827 0.997945
0.981139 0.992061 0.991921 0.997045
0.786182 0.880892 0.926923 0.962847
0.779669 0.852955 0.958208 0.953948
0.857542 0.929961 0.952153 0.968465
0.961439 0.962089 1.00287 0.996465
0.879357 0.925145 0.964679 0.985309
0.748314 0.83959 0.934122 0.954141
0.879832 0.932295 0.971078 0.971835
0.765487 0.857264 0.928306 0.961904
0.953763 0.968672 0.987371 0.997202
0.785381 0.873435 0.935454 0.961231
0.920278 0.973893 0.971701 0.972468
0.892361 0.940792 0.961002 0.987012
0.960178 0.985322 0.976376 0.998059
0.927759 0.980236 0.970274 0.975461
0.931183 0.977864 0.962734 0.989123
0.979148 0.992681 0.987699 0.998651
0.990786 1.00177 0.991402 0.997617
0.981666 1.00753 0.976761 0.997509
1.00324 1.00278 1.00356 0.996905
0.999591 1.00402 0.998648 0.996933
1.02227 1.0331 0.991929 0.997568
0.998728 1.00084 1.00186 0.996029
1.02052 1.02514 0.99862 0.996863
1.03565 1.04413 0.994278 0.997592
1.01432 1.01827 1 0.996121
1.03762 1.04146 0.999292 0.997019
1.04075 1.04545 0.997951 0.99755
1.03858 1.04142 0.999844 0.997428
1.04228 1.04533 0.999943 0.997133
1.04084 1.04406 1 0.996916
1.04198 1.04572 1 0.996424
1.04065 1.04443 1 0.996375
1.03838 1.042 1 0.996529
1.02953 1.03322 1 0.996432
1.03033 1.03424 1 0.996214
1.02456 1.0286 1 0.996077
1.01084 1.01388 1 0.997001
1.01635 1.01977 1 0.996646
1.01359 1.01712 1.00017 0.996353
0.998818 1.00061 1.00026 0.997945
1.0034 1.00613 1 0.997287
1.00633 1.0094 1 0.996956
1.00133 1 1.00177 0.999559
1.00283 1.00025 1.00435 0.998238
1.00341 1.00281 1.003 0.997603
1 1 1 1
1.00109 1 1.00133 0.999759
1.0036 1 1.00495 0.998661
0.999998 1 1 0.999998
1.00026 1 1.00039 0.999869
1 1 1 1
0.998578 1.00049 1 0.998084
1.00106 1.00007 1.0028 0.998199
1.00354 1 1.00524 0.998311
1.00107 1 1.00281 0.99826
1.00298 1 1.00454 0.998445
1.00108 1 1.00203 0.999055
0.999905 1 1 0.999905
0.999623 1 1.00042 0.999206
1.00091 1 1.00233 0.998578
1 1 1 1
0.99995 1 1 0.99995
0.999329 1 1 0.999329
1 1 1 1
0.999983 1 1 0.999983
1 1 1 1
0.785094 0.869185 0.939772 0.96114
0.756972 0.841827 0.946557 0.949971
0.847654 0.925746 0.948647 0.96521
1.00398 1 1.00574 0.998251
1.01123 1 1.01328 0.997981
1.00265 1.00102 1.00358 0.998065
1.00108 1.00304 1.00081 0.997239
1.01114 1.00103 1.01215 0.997974
1.01042 1 1.01226 0.998181
1.0086 1 1.01058 0.998045
1.01546 1.00044 1.0171 0.997952
0.999175 1.00151 1 0.997666
0.97888 1.00127 0.979015 0.998592
0.978897 1.00035 0.980783 0.997727
0.989265 1.00061 0.989639 0.999015
1.01013 1 1.01159 0.998558
0.909847 0.965307 0.967376 0.974333
0.752075 0.843734 0.929779 0.958685
0.708644 0.815628 0.918726 0.945693
0.744183 0.846629 0.919237 0.956224
0.894733 0.928614 0.991081 0.972185
0.909458 0.928985 0.989596 0.989272
0.896713 0.937342 0.966516 0.989797
0.898907 0.942874 0.977184 0.97563
0.923392 0.971097 0.961536 0.988913
0.994475 1.00132 0.994938 0.998218
1.00341 1 1.00442 0.998999
0.998088 1 0.998659 0.999428
0.996038 0.990607 1.00758 0.997916
0.987157 0.995599 0.994286 0.997218
0.903737 0.967294 0.958311 0.974938
0.794377 0.879314 0.938054 0.963064
0.779556 0.85039 0.960192 0.954709
0.959652 0.973926 0.989123 0.996179
0.895494 0.94428 0.963077 0.984694
0.783966 0.870387 0.937427 0.960833
0.914876 0.964808 0.971997 0.975565
0.967957 0.985086 0.984448 0.998134
0.936768 0.989633 0.969471 0.976388
0.927708 0.974021 0.965293 0.986697
0.981271 1.00413 0.979657 0.997527
0.954328 0.993703 0.96767 0.992461
0.991764 1.00432 0.989859 0.99761
0.981072 1.00721 0.976525 0.99746
0.997261 1.03379 0.966803 0.997791
0.999058 1.00402 0.998123 0.996928
1.023 1.03348 0.992297 0.997542
1.03336 1.05194 0.984438 0.997869
1.01964 1.02496 0.997953 0.996845
1.03513 1.04427 0.993662 0.997569
1.03137 1.04429 0.989808 0.997792
1.03661 1.04093 0.998837 0.997013
1.04072 1.04591 0.997496 0.99753
1.03834 1.04426 0.996696 0.997625
1.03898 1.04191 0.999711 0.997482
1.03728 1.04028 0.999883 0.997239
1.04305 1.04612 0.999863 0.997202
1.04074 1.04397 1 0.996908
1.04291 1.04634 1 0.99672
1.03902 1.0427 1 0.996472
1.04178 1.04553 1 0.996413
1.0407 1.04447 1 0.996391
1.02329 1.02659 1 0.996786
1.02908 1.03275 1 0.996443
1.03203 1.03592 1 0.996245
1.0008 1.00308 1 0.997726
1.01134 1.01439 1 0.996999
1.01523 1.01865 1 0.996643
1.00023 1 1.00093 0.999299
0.999654 1.00123 1.00049 0.997945
1.00481 1.00754 1 0.997283
1 1 1 1
1.00124 1 1.00171 0.999534
1.00196 1.00039 1.00334 0.998239
1 1 1 1
1.00129 1 1.00155 0.999734
1 1 1 1
1.00233 1.00499 1 0.997356
0.998762 1.00069 1 0.998072
1.00025 1 1.00215 0.998108
1.00278 1 1.00458 0.998214
1.00301 1 1.00473 0.998281
1.00256 1 1.00373 0.998837
1.00337 1 1.00493 0.998444
1.0006 1 1.00154 0.999056
0.999857 1 1 0.999857
1 1 1 1
0.999916 1 1 0.999916
0.999416 1 1.00021 0.999209
1 1 1 1
0.999958 1 1 0.999958
1 1 1 1
0.927854 0.981307 0.967391 0.977401
0.784169 0.875164 0.931501 0.961915
0.762694 0.845529 0.950693 0.948816
1.01266 1 1.01485 0.997839
1.00057 1.00056 1.00187 0.998139
1.00915 1.00092 1.01031 0.997937
1.00252 1.00414 1.00107 0.997315
1.01104 1.01409 1.00016 0.996836
0.999443 1.00188 1 0.997568
1.0199 1.00075 1.02115 0.998022
0.999533 1.00207 1 0.997465
0.984873 1.00155 0.984752 0.998575
0.995404 1.00128 0.99645 0.997672
0.975722 1.00325 0.974674 0.997834
0.995358 1.00129 0.996745 0.997323
0.980404 1.00082 0.981705 0.997858
0.993213 1.00049 0.993666 0.999057
0.92912 0.976912 0.961702 0.988952
0.915088 0.970201 0.967807 0.974568
0.755546 0.845094 0.929868 0.961467
0.902207 0.945982 0.981449 0.971751
0.901379 0.936491 0.971476 0.990767
0.926333 0.968191 0.964322 0.992166
0.987038 1.00377 0.985775 0.997523
0.992405 1.00067 0.993532 0.998197
1.00323 1 1.00425 0.998978
0.988964 0.998047 0.993511 0.997371
0.940359 0.974017 0.975951 0.989235
0.919181 0.974112 0.964471 0.97837
0.782294 0.87324 0.932242 0.960966
0.967715 0.981089 0.988144 0.998203
0.930775 0.978287 0.962654 0.988344
0.94147 0.987928 0.975153 0.977256
0.973513 1.00237 0.973578 0.99757
0.952996 0.989783 0.970888 0.991703
0.974703 1.02437 0.953877 0.997521
0.99585 1.01669 0.982944 0.9965
0.979714 1.00691 0.975528 0.997404
0.995524 1.03228 0.966532 0.997785
1.00447 1.05348 0.955573 0.997805
1.02434 1.03445 0.992701 0.997516
1.03313 1.05173 0.984431 0.99785
1.02826 1.04813 0.983269 0.997743
1.03502 1.04464 0.993228 0.997546
1.03111 1.04363 0.990206 0.997774
1.03768 1.04947 0.991143 0.997595
1.04086 1.04646 0.997133 0.997509
1.03637 1.04229 0.996694 0.997617
1.03846 1.0433 0.99801 0.997345
1.03943 1.0424 0.999616 0.997535
1.03766 1.0406 0.99989 0.997285
1.04134 1.04456 1 0.99692
1.04071 1.04395 1 0.996899
1.04292 1.04637 1 0.996709
1.04135 1.04486 1 0.996647
1.03129 1.03472 1 0.996684
1.03906 1.04273 1 0.996477
1.04153 1.04529 1 0.996401
1.00596 1.00845 1 0.997532
1.02242 1.02572 1 0.996789
1.02861 1.03227 1 0.996454
0.999203 1 1.00012 0.999085
1.00221 1.0045 1 0.997724
1.01171 1.01476 1 0.996996
1 1 1 1
0.99999 1 1.00071 0.999282
1.00038 1.0018 1.00064 0.997946
1 1 1 1
1.00131 1 1.0018 0.99951
1 1 1 1
1.01236 1.01547 1 0.996934
1.00403 1.00666 1 0.997382
1.00387 1.00556 1.00066 0.997651
0.9988 1.00074 1 0.998061
1.00009 1 1.00203 0.998066
1.00173 1 1.00319 0.998546
1.00248 1 1.00424 0.998251
1.00247 1 1.00364 0.998838
1.00062 1 1.00084 0.999783
1.00029 1 1.00124 0.999057
0.999867 1 1 0.999867
1 1 1 1
1 1 1 1
0.999926 1 1 0.999926
1 1 1 1
0.93138 0.977062 0.963254 0.98961
0.919681 0.980681 0.962416 0.974421
0.776883 0.868099 0.92929 0.96302
1.02591 1.02931 1.00007 0.996632
1.00731 1.00063 1.00879 0.997901
1.00396 1.00523 1.00135 0.997392
0.999217 1.00167 1 0.997548
1.01037 1.01316 1.00042 0.996819
1.00264 1.00528 0.999894 0.997478
0.999536 1.00228 1 0.997265
0.986924 1.00127 0.987093 0.998556
0.993286 1.00152 0.994076 0.997684
0.969465 1.00219 0.969537 0.997735
1.00246 1.00949 0.996 0.997024
1.00058 1.00686 0.996404 0.997343
0.996193 1.00195 0.996956 0.997286
0.981013 1.00134 0.981677 0.997989
0.985377 1.00613 0.981322 0.998018
0.924675 0.975152 0.960041 0.987705
0.91678 0.97181 0.967342 0.975223
0.920012 0.962178 0.965814 0.990021
0.989757 1.00538 0.986239 0.998195
0.992402 1.0002 0.994022 0.99817
0.986235 1.00668 0.983437 0.996189
0.926308 0.959986 0.974009 0.990668
0.906563 0.970885 0.957634 0.975058
0.969773 1.00031 0.97179 0.997612
0.960291 0.99176 0.977355 0.990704
0.978244 1.02544 0.956246 0.997621
0.997564 1.01633 0.984736 0.996748
0.993283 1.03912 0.95815 0.997639
1.0423 1.0544 0.991013 0.997493
0.992831 1.0302 0.96587 0.99778
1.00834 1.05482 0.958057 0.997791
1.0171 1.05872 0.963 0.997601
1.0321 1.051 0.984146 0.99783
1.02664 1.04706 0.982718 0.997739
1.03671 1.05519 0.984969 0.99748
1.03056 1.04283 0.990459 0.997755
1.03646 1.04836 0.991016 0.997608
1.04049 1.04879 0.99478 0.997294
1.03436 1.04032 0.996645 0.997609
1.03899 1.04378 0.998059 0.997343
1.04352 1.04689 0.999759 0.997018
1.03799 1.04088 0.999896 0.99733
1.0417 1.04487 1 0.996961
1.04332 1.04678 1 0.996701
1.04292 1.04638 1 0.996698
1.04113 1.04465 1 0.996629
1.03425 1.03767 1 0.996708
1.0112 1.01383 1 0.99741
1.03058 1.03399 1 0.996701
1.03909 1.04276 1 0.996482
0.998938 1 1 0.998938
1.00758 1.01008 1 0.997532
1.02176 1.02504 1 0.996792
1 1 1 1
0.999074 1 1 0.999072
1.00376 1.00605 1 0.997722
1 1 1 1
0.999627 1 1.00036 0.999266
1 1 1 1
1.025 1.02847 1 0.996629
1.01373 1.01684 1 0.996933
1.01152 1.0143 1 0.997255
1.00566 1.00827 1.00001 0.997407
1.00264 1.00444 1.00056 0.997645
1.00141 1.00126 1.00191 0.998231
0.999812 1 1.00179 0.998024
1.00269 1 1.00415 0.998547
1.00115 1 1.00149 0.999659
1.00192 1 1.00308 0.99884
1.0001 1 1.0003 0.999794
1 1 1 1
0.999877 1 1 0.999877
1 1 1 1
1 1 1 1
0.980905 1.01057 0.972786 0.997803
0.925834 0.974147 0.9627 0.987227
0.916899 0.970932 0.965837 0.977752
1.01772 1.02073 1.00001 0.997036
1.03591 1.03936 1 0.996679
1.02384 1.0271 1.00013 0.996699
0.999239 1.00172 1 0.997527
1.00982 1.01232 1.00073 0.996799
1.00349 1.00705 0.99901 0.99745
1.01906 1.02371 0.998477 0.996977
0.992236 1.00229 0.992256 0.997697
0.965801 1.00167 0.966474 0.997636
1.00372 1.01121 0.995469 0.99711
1.02195 1.02968 0.995654 0.996832
1.00628 1.02462 0.984481 0.997583
1.00304 1.00867 0.997103 0.997305
0.997526 1.00262 0.997661 0.997247
0.989826 1.00797 0.983719 0.998248
0.928204 0.977359 0.962849 0.98635
0.989711 1.00583 0.985071 0.998888
1.02224 1.04201 0.982888 0.998107
0.984131 1.00539 0.982478 0.99631
0.930303 0.970711 0.969513 0.988509
0.981261 1.02685 0.95779 0.997716
0.999172 1.01642 0.985981 0.997009
0.991607 1.03971 0.95587 0.997769
1.042 1.0558 0.989397 0.997508
1.0366 1.06511 0.975675 0.997498
1.06833 1.0831 0.988705 0.997631
1.01246 1.05693 0.960053 0.997778
1.02231 1.05969 0.96704 0.997602
1.04004 1.06436 0.979706 0.997384
1.02533 1.04615 0.982324 0.997735
1.03651 1.05436 0.985561 0.997479
1.04088 1.05425 0.990032 0.99726
1.03529 1.04726 0.990925 0.997621
1.04098 1.04926 0.994808 0.997291
1.04602 1.05093 0.998306 0.997021
1.03948 1.04423 0.998108 0.997342
1.04383 1.04719 0.999779 0.997017
1.04632 1.04976 1 0.996722
1.04205 1.04519 1 0.997002
1.04285 1.04629 1 0.996715
1.03679 1.04024 1 0.996688
1.04094 1.04448 1 0.99661
1.03415 1.03757 1 0.996704
1.0134 1.0161 1 0.997342
0.998982 1.00011 1 0.998875
1.01175 1.01438 1 0.997409
1.0299 1.03329 1 0.996718
1 1 1 1
0.998947 1.00002 1 0.998926
1.00913 1.01162 1 0.997531
1 1 1 1
0.999059 1 1 0.999059
1 1 1 1
1.03353 1.03711 1 0.996552
1.02478 1.02826 1 0.996618
1.01829 1.0214 1 0.996952
1.01479 1.01791 1 0.996932
1.01022 1.01299 1 0.997262
1.00277 1.00448 1.00035 0.997945
1.00126 1.00317 1.00046 0.997639
1.00147 1.00079 1.00245 0.998234
1.00052 1 1.00106 0.999454
1.00423 1 1.00569 0.998548
1.00101 1 1.00133 0.999675
1 1 1 1
0.99986 1 1.00006 0.999805
1 1 1 1
1 1 1 1
1.00612 1.03732 0.971811 0.998056
0.978022 1.00952 0.971642 0.997074
0.925972 0.975959 0.960361 0.987943
1.03109 1.03434 1 0.996858
1.01906 1.02189 1 0.997228
1.05097 1.05441 1 0.996735
1.03654 1.04001 1 0.996663
1.02189 1.02502 1.00018 0.996766
1.04268 1.04805 0.998141 0.996732
1.00417 1.00884 0.997944 0.997423
1.01881 1.02292 0.99907 0.996914
1.04062 1.05869 0.985887 0.997006
1.00389 1.01269 0.994095 0.997196
1.02241 1.03028 0.995563 0.996777
1.00752 1.02631 0.984039 0.997616
1.00342 1.00895 0.997241 0.997264
0.994709 1.00979 0.986581 0.998465
1.05375 1.07455 0.982931 0.997678
1.02347 1.04159 0.984447 0.998129
0.982563 1.00409 0.982069 0.996427
0.990677 1.0396 0.954946 0.997897
1.04068 1.05614 0.987809 0.997525
1.0323 1.06425 0.972386 0.99752
1.06921 1.08503 0.987764 0.997625
1.0576 1.07748 0.983993 0.997515
1.0271 1.06029 0.971027 0.997603
1.04073 1.06375 0.980923 0.997393
1.04231 1.0595 0.986459 0.997284
1.03627 1.0535 0.986132 0.997478
1.04081 1.05399 0.990223 0.997241
1.04564 1.05389 0.995153 0.997005
1.04151 1.04976 0.994839 0.997288
1.04616 1.05103 0.998347 0.997017
1.04941 1.0529 0.999965 0.996728
1.04417 1.04751 0.999801 0.997016
1.04614 1.04958 1 0.996725
1.0403 1.0438 1 0.996641
1.04238 1.0458 1 0.996728
1.03691 1.04035 1 0.996693
1.01441 1.01719 1 0.99727
1.03402 1.03745 1 0.9967
1.01364 1.01634 1 0.997341
0.999256 1.00019 1 0.999062
0.999645 1 1 0.999645
0.999047 1.00009 1 0.998956
1.01226 1.01489 1 0.997409
1 1 1 1
0.998914 1 1 0.998914
1 1 1 1
1.05702 1.06039 1 0.996821
1.04271 1.04621 1 0.996653
1.03451 1.03809 1 0.996555
1.02596 1.02925 1 0.996802
1.02491 1.0284 1 0.996607
1.01927 1.02238 1 0.996951
1.00692 1.00924 1 0.997706
1.00908 1.01184 1 0.99727
1.00178 1.00337 1.00047 0.997947
0.99932 1 1.00012 0.999198
1.00143 1.00038 1.00282 0.998236
1.00065 1 1.00117 0.999474
1 1 1 1
1.00045 1 1.00076 0.999691
1 1 1 1
1 1 1 1
1.04764 1.07306 0.978838 0.997426
1.01044 1.04289 0.970709 0.998113
0.975227 1.00962 0.96947 0.996356
1.04801 1.05187 0.999569 0.996756
1.02866 1.03185 1 0.99691
1.02013 1.02277 1 0.997417
1.04964 1.05306 1 0.996752
1.0372 1.04069 1 0.996647
1.05073 1.06709 0.987644 0.996986
1.03923 1.04495 0.997833 0.996692
1.01851 1.02184 0.999884 0.996851
1.03931 1.0572 0.986042 0.997001
1.02543 1.03302 0.99592 0.996722
1.01247 1.03207 0.983313 0.997657
1.05764 1.07535 0.985888 0.997613
1.0568 1.07664 0.983827 0.997711
1.02416 1.04142 0.985243 0.998152
1.02938 1.06459 0.969317 0.99754
1.07099 1.08781 0.986883 0.997619
1.05754 1.07842 0.983069 0.997522
1.0484 1.06144 0.990313 0.997377
1.04137 1.06305 0.982156 0.997403
1.04257 1.05919 0.986998 0.997271
1.04654 1.05622 0.993779 0.997039
1.04076 1.05376 0.990412 0.997221
1.04619 1.05442 0.995168 0.997004
1.05173 1.0557 0.999517 0.996729
1.04627 1.0511 0.998387 0.997014
1.04973 1.05321 0.999963 0.996728
1.04295 1.04652 1 0.996588
1.04596 1.04939 1 0.996728
1.04051 1.04401 1 0.996645
1.01574 1.01862 1 0.997175
1.03703 1.04047 1 0.996698
1.01482 1.0176 1 0.99727
0.999227 1.00015 1 0.999073
1.01382 1.01652 1 0.997339
0.999241 1.00018 1 0.999057
0.999667 1 1 0.999667
0.99983 1 1 0.99983
0.999166 1.00012 1 0.999044
1 1 1 1
1.05202 1.05577 0.999631 0.996812
1.04796 1.05141 1 0.996717
1.05599 1.05923 1 0.996943
1.03604 1.03944 1 0.99673
1.04474 1.04826 1 0.996641
1.03542 1.039 1 0.996558
1.02692 1.03022 1 0.996795
1.01219 1.01472 1 0.997511
1.02016 1.02328 1 0.99695
1.00544 1.00776 1 0.997707
0.998996 1 1 0.998996
1.00067 1.0022 1.00052 0.99795
0.999598 1 1.00038 0.999217
1 1 1 1
1.00096 1 1.00146 0.999494
1 1 1 1
1 1 1 1
1.04893 1.06963 0.983286 0.997314
1.04538 1.07062 0.978944 0.997421
1.0131 1.04585 0.970474 0.998162
1.05111 1.06082 0.993927 0.996901
1.04545 1.04952 0.999363 0.996757
1.02652 1.02964 1 0.996964
1.04813 1.05152 1 0.996769
1.04927 1.06535 0.987905 0.996962
1.03568 1.04172 0.997544 0.996652
1.0339 1.05138 0.986336 0.996997
1.05198 1.06512 0.990203 0.997438
1.05619 1.07372 0.986067 0.997574
1.05964 1.07838 0.98485 0.997744
1.04705 1.05672 0.99355 0.997275
1.05706 1.07902 0.982073 0.99753
1.04832 1.06154 0.990158 0.997363
1.04824 1.05707 0.994491 0.997141
1.04288 1.0589 0.98758 0.997259
1.04669 1.0564 0.993749 0.997042
1.05237 1.05699 0.998879 0.996744
1.04667 1.0549 0.995188 0.997003
1.05159 1.05558 0.99949 0.996731
1.044 1.04761 1 0.996551
1.04996 1.05344 0.999961 0.996729
1.04307 1.04664 1 0.996591
1.01667 1.01964 1 0.997083
1.04069 1.04419 1 0.996649
1.01603 1.01891 1 0.997176
0.999119 1.00007 1 0.999048
1.01531 1.01809 1 0.997269
0.999212 1.00015 1 0.999062
0.999672 1 1 0.999672
0.99927 1.00022 1 0.999054
0.999675 1 1 0.999675
1 1 1 1
1.05137 1.05671 0.998224 0.996715
1.05013 1.05365 1 0.996662
1.05372 1.05751 0.999604 0.996811
1.04231 1.0457 1 0.996756
1.04922 1.05264 1 0.996749
1.05511 1.05822 1 0.997065
1.01587 1.01856 1 0.997354
1.036 1.0394 1 0.996721
1.04699 1.05053 1 0.996629
1.02777 1.03108 1 0.996788
1.01064 1.01316 1 0.997512
0.999067 1.00017 1 0.998892
1.00396 1.00627 1 0.997708
0.99901 1 1 0.99901
1 1 1 1
0.99982 1 1.00059 0.999235
1 1 1 1
1 1 1 1
1.0473 1.06087 0.989997 0.997184
1.04883 1.06981 0.983047 0.997298
1.04525 1.07057 0.978875 0.997417
1.0504 1.06021 0.993811 0.996917
1.04259 1.04687 0.99915 0.996757
1.04875 1.06459 0.988145 0.996938
1.04861 1.05885 0.993037 0.997275
1.05232 1.06527 0.990385 0.997432
1.0548 1.07222 0.986181 0.997535
1.04746 1.05702 0.993641 0.997295
1.04806 1.05561 0.99575 0.997088
1.04822 1.06166 0.989968 0.997349
1.04853 1.05708 0.994794 0.997101
1.05197 1.05725 0.998172 0.996831
1.04685 1.0566 0.993716 0.997044
1.05211 1.05678 0.998828 0.996747
1.04421 1.04785 1 0.996527
1.05166 1.05568 0.999461 0.996732
1.04442 1.04804 1 0.996552
1.01695 1.01999 1 0.997021
1.04333 1.0469 1 0.996593
1.01676 1.01973 1 0.997084
0.998993 1 1 0.998993
1.01633 1.01921 1 0.997176
0.999062 1.00003 1 0.999031
0.999651 1 1 0.999651
0.999143 1.00009 1 0.999054
0.999689 1 1 0.999689
0.999678 1 1 0.999678
1.05072 1.05876 0.995421 0.99697
1.05205 1.05574 0.999936 0.996569
1.05179 1.058 0.99737 0.996743
1.04456 1.04804 1 0.996678
1.0493 1.05282 1 0.996651
1.05539 1.05921 0.999579 0.996811
1.0177 1.02051 1 0.997246
1.04213 1.04555 1 0.996724
1.05028 1.05367 1 0.99678
0.999526 1.00066 1 0.998862
1.01559 1.01828 1 0.997356
1.03614 1.03956 1 0.996712
1.00934 1.01186 1 0.997514
0.99912 1.00022 1 0.998903
1 1 1 1
0.999025 1 1 0.999025
1 1 1 1
1 1 1 1
1.04583 1.05599 0.993188 0.997169
1.04744 1.06092 0.990092 0.997177
1.04828 1.06946 0.982869 0.997281
1.04973 1.05963 0.993703 0.996933
1.04847 1.05472 0.997022 0.997046
1.04886 1.05892 0.993201 0.997285
1.0527 1.0654 0.990631 0.997425
1.0479 1.05732 0.993754 0.997316
1.0481 1.05575 0.995641 0.997098
1.05209 1.05701 0.99852 0.99682
1.04889 1.05713 0.995136 0.99706
1.0521 1.05709 0.998493 0.996783
1.04425 1.04794 0.999901 0.996572
1.05176 1.05648 0.99878 0.996749
1.04465 1.04829 1 0.996529
1.01652 1.0196 1 0.996974
1.04455 1.04816 1 0.996554
1.0168 1.01984 1 0.997022
0.998757 1 1 0.998757
1.01679 1.01976 1 0.997085
0.998892 1 1 0.998892
1 1 1 1
0.999017 1 1 0.999017
0.999674 1 1 0.999674
0.999699 1 1 0.999699
1.04867 1.05574 0.996227 0.997061
1.05147 1.05591 0.999101 0.996697
1.05114 1.05856 0.996016 0.99696
1.04426 1.04789 1 0.996538
1.05095 1.05493 0.999638 0.996586
1.05224 1.05934 0.996519 0.996771
1.01773 1.02072 1 0.997072
1.04474 1.04822 1 0.996678
1.04851 1.05204 1 0.996639
0.999328 1.00047 1 0.998862
1.01736 1.02021 1 0.997205
1.04191 1.04537 1 0.996693
1 1 1 1
0.999347 1.00047 1 0.998873
1.01479 1.01748 1 0.997358
0.999057 1.00014 1 0.998916
1 1 1 1
1 1 1 1
1.04723 1.05346 0.997018 0.997059
1.04616 1.05619 0.993308 0.997176
1.04751 1.06094 0.990139 0.997169
1.05221 1.05643 0.99925 0.996758
1.04783 1.05441 0.996694 0.997059
1.04911 1.05898 0.99336 0.997296
1.04807 1.05589 0.995476 0.997108
1.05172 1.05677 0.998395 0.996821
1.04337 1.04691 0.999988 0.996633
1.05209 1.05685 0.998754 0.996735
1.04433 1.04799 0.999936 0.996571
1.01575 1.01893 1 0.996881
1.04524 1.04888 1 0.996532
1.01634 1.01943 1 0.996974
0.998717 1 1 0.998717
1.01677 1.0198 1 0.997022
0.998754 1 1 0.998754
1 1 1 1
0.998776 1 1 0.998776
0.999817 1 1 0.999817
0.999693 1 1 0.999693
1.04818 1.05408 0.997378 0.997015
1.05213 1.05599 0.999582 0.996765
1.0487 1.05571 0.996278 0.997069
1.04398 1.04761 1 0.996534
1.05233 1.05644 0.99942 0.996681
1.05156 1.05836 0.996612 0.99695
1.01697 1.02005 1 0.996981
1.04409 1.04769 1 0.996561
1.04983 1.05411 0.999331 0.996603
0.998921 1.00008 1 0.998839
1.0176 1.0206 1 0.997059
1.04492 1.0484 1 0.996678
1 1 1 1
0.999419 1.00055 1 0.998872
1.01722 1.02011 1 0.997164
1 1 1 1
0.999429 1.00055 1 0.998885
1 1 1 1
1.05202 1.05629 0.999147 0.996805
1.04672 1.05292 0.997062 0.997043
1.04644 1.05633 0.993438 0.997182
1.04277 1.0463 1 0.996629
1.05172 1.05623 0.998949 0.99678
1.0472 1.0541 0.996372 0.997072
1.0514 1.05653 0.998322 0.996822
1.04333 1.04695 0.999901 0.996633
1.01484 1.01803 1 0.996867
1.04446 1.04805 1 0.99657
1.01566 1.01881 1 0.996907
0.998669 1 1 0.998669
1.01609 1.01918 1 0.996975
0.998714 1 1 0.998714
1 1 1 1
0.998752 1 1 0.998752
1 1 1 1
0.999667 1 1 0.999667
1.05329 1.05731 0.999409 0.996782
1.04745 1.05387 0.996866 0.997037
1.0435 1.04709 1 0.99657
1.05263 1.05639 0.999674 0.996763
1.04878 1.05575 0.996313 0.997076
1.01595 1.019 1 0.997009
1.04347 1.0471 1 0.99653
1.05316 1.05695 0.999747 0.996665
0.998787 1 1 0.998787
1.01725 1.02031 1 0.997005
1.04389 1.04747 1 0.996584
1 1 1 1
0.999051 1.00021 1 0.998845
1.01755 1.02056 1 0.997046
1 1 1 1
0.999413 1.00053 1 0.998881
1 1 1 1
1.04264 1.04614 1 0.996657
1.05199 1.05614 0.999275 0.996792
1.04622 1.05239 0.997104 0.997028
1.01391 1.01709 1 0.996881
1.04271 1.04628 0.999965 0.996629
1.05124 1.05603 0.998661 0.996802
1.04326 1.047 0.999802 0.996633
1.0149 1.01809 1 0.996867
0.998641 1 1 0.998641
1.01558 1.01871 1 0.996933
0.998666 1 1 0.998666
1 1 1 1
0.998712 1 1 0.998712
1 1 1 1
1 1 1 1
1.04335 1.04692 1 0.996588
1.05299 1.0571 0.999287 0.996824
1.0467 1.05362 0.996367 0.99706
1.01511 1.01816 1 0.997006
1.04312 1.04671 1 0.996567
1.05312 1.05678 0.99977 0.996762
0.998738 1 1 0.998738
1.01635 1.0194 1 0.997006
1.04299 1.04663 1 0.996527
1 1 1 1
0.998795 1 1 0.998791
1.01751 1.02054 1 0.997029
1 1 1 1
0.999097 1.00025 1 0.998851
1 1 1 1
1.01387 1.01697 1 0.996954
1.04253 1.04607 0.999989 0.996629
1.052 1.05602 0.99942 0.996779
0.998656 1 1 0.998656
1.01404 1.01721 1 0.996878
1.04265 1.04627 0.999908 0.996629
1.01495 1.01815 1 0.996866
0.998641 1 1 0.998641
1 1 1 1
0.998664 1 1 0.998664
1 1 1 1
1 1 1 1
1.01441 1.01748 1 0.996988
1.04305 1.0466 1 0.996608
1.05269 1.05689 0.99916 0.996866
0.998923 1 1 0.998923
1.01537 1.01842 1 0.997004
1.04272 1.04632 1 0.996563
1 1 1 1
0.99874 1 1 0.99874
1.01673 1.01978 1 0.997004
1 1 1 1
0.998838 1.00004 1 0.998794
1 1 1 1
0.998647 1 1 0.998647
1.01401 1.01713 1 0.99693
1.04243 1.04602 0.999962 0.996601
1 1 1 1
0.998655 1 1 0.998655
1.01415 1.01733 1 0.996875
0.998639 1 1 0.998639
1 1 1 1
1 1 1 1
0.998884 1 1 0.998884
1.01463 1.0177 1 0.996988
1.04274 1.04627 1 0.996627
1 1 1 1
0.998713 1 1 0.998713
1.01564 1.0187 1 0.997003
1 1 1 1
0.998741 1 1 0.998741
1 1 1 1
0.999613 1 1 0.999613
0.998774 1 1 0.998774
1.01412 1.01727 1 0.996906
1 1 1 1
0.998656 1 1 0.998656
1 1 1 1
0.999627 1 1 0.999627
0.998792 1 1 0.998792
1.01489 1.01795 1 0.996989
0.999812 1 1 0.999812
0.998713 1 1 0.998713
1 1 1 1
1 1 1 1
0.998678 1 1 0.998678
1 1 1 1
0.999812 1 1 0.999812
0.998698 1 1 0.998698
1 1 1 1
1 1 1 1
1 1 1 1

VECTORS lamdaE float
1.00139 1.00011 0.993627
1.00094 1.00077 0.996888
1.00093 1.00031 0.993931
1.00148 1.00004 0.993558
1.00147 0.999963 0.993672
1.00134 1.00035 0.993424
1.00278 1.00042 0.990594
1.00095 1.00071 0.996886
1.0009 1.00015 0.997352
1.00039 1.00094 0.997381
1.00079 1.0009 0.993629
1.00243 1.0013 0.98937
1.00103 0.999976 0.994111
1.0008 1.00003 0.99421
1.00053 1.00051 0.994207
1.00114 1.00002 0.993897
1.00084 1.00071 0.993701
1.00109 1.00002 0.99399
1.00299 1.00024 0.990458
1.00105 1.00002 0.997011
1.00141 1.00008 0.993608
1.00149 0.999965 0.993643
1.00283 1.00015 0.990769
1.00288 1.00016 0.990688
1.00131 1.00052 0.993257
1.0026 1.00093 0.990371
1.0052 1.00073 0.986028
1.00095 1.00066 0.996897
1.00112 1.00004 0.995542
1.00071 1.00066 0.995543
1.00087 1.00072 0.996946
1.00232 1.00145 0.989382
1.00141 0.999817 0.993657
1.00117 1.00021 0.99375
1.00318 1.00005 0.99099
0.999952 1.001 0.997643
1.00287 1.00075 0.990914
1.0021 1.00188 0.989335
1.00453 1.00147 0.985685
1.00017 0.999504 0.997977
1.00106 0.999989 0.997007
1.00103 1.00002 0.995565
1.00098 0.999974 0.99706
1.00063 1.00005 0.994439
1.00272 0.999931 0.990315
1.001 0.999964 0.997277
1.00313 1.00007 0.99106
1.00081 0.999963 0.994235
1.00073 1.00006 0.994294
1.00035 1.0011 0.99396
1.0032 1.00006 0.990336
1.00087 1.00004 0.995717
1.00105 1.0001 0.993946
1.00077 1.00099 0.993513
1.00115 0.99994 0.99397
1.00298 1.00011 0.990606
1.00287 1.00066 0.990238
1.00306 1.00006 0.990544
1.00519 1.00073 0.986043
1.00096 1 0.997056
1.00126 1.00007 0.993817
1.00247 0.999999 0.991994
1.00273 1.00015 0.990924
1.00287 1.0001 0.990752
1.00507 1.00025 0.986626
1.00518 1.0003 0.986357
1.00107 1.00048 0.993551
1.00208 1.00189 0.9902
1.00517 1.00102 0.985845
1.0053 1.00029 0.985532
1.0014 1.00007 0.996885
1.00079 1.00065 0.997096
1.00104 1.00054 0.996893
1.00224 1.00156 0.989388
1.00147 0.999942 0.99683
1.00127 1.00026 0.996906
1.00304 0.999998 0.98957
1.00022 1.00078 0.995921
1.00262 1.00078 0.989501
1.00197 1.00212 0.990214
1.00461 1.00131 0.985672
1.00044 1.00013 0.997543
1.00029 1.00197 0.992423
1.00321 0.999962 0.989408
1.00304 1.00014 0.989518
1.0052 1.00031 0.98575
1.00144 1.00256 0.991522
1.00492 1.00081 0.985682
1.00368 1.00274 0.985847
1.00526 1.00138 0.984429
0.999989 0.998636 0.998424
1.00002 0.99927 0.998165
1.00134 0.999996 0.996832
1.00112 0.999987 0.996983
1.00102 0.999979 0.997057
1.0009 0.999999 0.995718
1.00277 0.999923 0.990991
1.00119 0.999979 0.995472
1.00307 1.00009 0.990358
1.00099 0.999986 0.997073
1.00256 0.999846 0.990604
1.00297 1.00003 0.991369
1.00494 0.999354 0.987263
1.00321 1 0.990967
1.00516 0.999743 0.986505
1.00101 0.999997 0.994138
1.00069 1.00012 0.994288
1.00022 1.00151 0.993767
1.00081 0.999888 0.994295
1.00313 1.00012 0.990443
1.00322 0.999975 0.990407
1.00312 1.00037 0.990114
1.00515 1.00072 0.986059
1.00101 0.999987 0.997064
1.00091 1.00007 0.994152
1.00265 0.999959 0.990844
1.00287 1.00013 0.990751
1.00083 1.00091 0.995221
1.00245 1.00168 0.990275
1.00302 1.00005 0.990601
1.00509 1.00012 0.98676
1.00511 1.00102 0.985869
1.00518 1.00045 0.986259
1.00529 1.00029 0.985568
1.00255 0.999893 0.990599
1.00257 1.00005 0.991219
1.00485 0.999222 0.988035
1.00501 0.999782 0.987159
1.00511 1.0001 0.986658
1.00531 0.998786 0.987286
1.00043 1.0007 0.997336
1.00531 0.999667 0.986152
1.00154 1.00281 0.989185
1.00476 1.00138 0.985342
1.0053 1.00099 0.984896
1.00524 0.998486 0.987292
1.00076 1.00293 0.990552
1.00173 1.00468 0.987147
1.00148 0.999963 0.996849
1.00124 1.00029 0.996897
1.00306 0.999977 0.989561
1.00041 1.00046 0.997438
1.00162 1.00243 0.989509
1.00261 1.00077 0.989518
1.0047 1.00118 0.985659
1.00026 1.00005 0.9977
1.00015 1.00213 0.992455
1.00323 0.999992 0.99018
1.00306 1.0002 0.990244
1.0052 1.00032 0.985727
1.00106 1.00275 0.990208
1.00496 1.00077 0.985666
1.0039 1.00238 0.985842
1.00528 1.00128 0.984555
1.00062 1.00253 0.991168
1.00007 1.00125 0.993614
1.00155 1.00478 0.987867
1.00523 1.00014 0.985913
1.00514 1.00046 0.985676
1.00531 0.999462 0.986439
1.00311 1.00323 0.986331
1.0053 1.00051 0.985395
1.00503 1.00193 0.984263
1.0053 1.0005 0.985175
0.999936 0.998181 0.998697
0.999914 0.998602 0.998539
0.999907 0.999124 0.998332
1.0005 1.00271 0.991228
1.00021 1.00039 0.997597
1.00146 0.999964 0.996812
1.00121 0.999995 0.996904
1.00292 1.00012 0.989718
1.00265 0.999921 0.990374
1.001 0.999978 0.997047
1.00096 0.99998 0.99707
1.00255 0.999857 0.990597
1.00289 1.00002 0.990679
1.00492 0.999355 0.987262
1.00307 1.00005 0.989507
1.00513 0.999752 0.986503
1.00251 0.999855 0.990661
1.00486 0.999249 0.987486
1.00505 0.999516 0.986905
1.00535 0.997026 0.989069
1.00522 0.999942 0.986164
1.00535 0.997768 0.988269
1.00097 0.999986 0.997063
1.00054 1.00012 0.994487
1.00267 0.999956 0.989836
1.00303 1.00013 0.990577
1.00014 1.00143 0.997309
1.00293 1.00129 0.990352
1.00318 1.00003 0.990451
1.00512 0.99997 0.986894
1.00518 1.00058 0.986159
1.00506 1.00105 0.985892
1.00529 1.00029 0.985604
1.00253 0.999886 0.990603
1.00273 1.00007 0.991046
1.00488 0.999206 0.987742
1.00505 0.999925 0.98702
1.00057 1.00074 0.997223
1.00179 1.00255 0.990029
1.0046 1.00175 0.98558
1.00513 1.00015 0.986616
1.00531 0.998434 0.987638
1.0053 1.0009 0.984975
1.00531 0.999781 0.986129
1.00523 0.998508 0.987312
1.00082 1.00283 0.990538
1.00183 1.00462 0.987149
1.00483 0.999321 0.987463
1.00494 0.999521 0.987616
1.00535 0.997587 0.988518
1.00532 0.997674 0.988352
1.00532 0.998935 0.986974
1.00525 0.996263 0.989778
1.00108 1.00304 0.989822
1.00524 0.99746 0.98837
1.00395 1.00241 0.98557
1.00532 1.00149 0.984224
1.00523 0.999878 0.986051
1.0052 0.996749 0.989203
1.0027 1.00379 0.986429
1.00107 1.00508 0.987944
1.00346 1.00284 0.986297
1.0031 0.999973 0.989502
1.00007 0.999886 0.997881
1.00003 1.00213 0.992484
1.00289 1.00023 0.989579
1.00521 1.00032 0.985702
1.00099 1.00296 0.990145
1.00406 1.00199 0.985836
1.005 1.00072 0.985649
1.0053 1.00118 0.98468
1.00058 1.00266 0.991172
1.00001 1.00108 0.993658
1.00122 1.00502 0.987829
1.00521 1.00016 0.985889
1.00515 1.00047 0.985657
1.00531 0.999466 0.986415
1.00321 1.00301 0.986345
1.0053 1.00059 0.985306
1.00515 1.00188 0.984229
1.0053 1.00027 0.985347
1.00006 1.00032 0.994439
1.00245 1.00402 0.986934
1.00088 1.00445 0.989178
1.00257 1.00377 0.987056
1.00532 0.998841 0.9871
1.00531 1.00006 0.985794
1.00525 0.997666 0.988136
1.00471 1.0019 0.984883
1.00525 0.999155 0.986763
1.00528 1.0013 0.984692
1.0053 0.999478 0.986193
1.00023 1.00172 0.992777
1.00027 0.999109 0.99527
0.999965 0.997722 0.998851
0.999912 0.998058 0.998757
0.999871 0.998454 0.998631
1.00012 1.00244 0.992108
1.0001 1.00001 0.99784
1.00057 1.00266 0.991196
1.00031 1.00048 0.997504
1.00305 1.0001 0.989512
1.0028 1 0.990052
1.0051 0.99976 0.986501
1.00491 0.999362 0.98726
1.00256 0.999872 0.990597
1.00101 0.999969 0.997067
1.00253 0.99985 0.990664
1.00485 0.999259 0.987486
1.00503 0.999531 0.986904
1.00534 0.997035 0.989078
1.00519 0.999976 0.986147
1.00535 0.997759 0.988259
1.00482 0.999252 0.987532
1.00532 0.996835 0.989306
1.00537 0.997354 0.9887
1.00524 0.994945 0.991243
1.00534 0.998254 0.987732
1.00525 0.995561 0.990515
1.00254 0.999884 0.990612
1.00289 1.00005 0.990872
1.00491 0.999169 0.987451
1.00507 1.00006 0.98688
1.0007 1.00079 0.997098
1.00213 1.00235 0.990675
1.00456 1.00204 0.985814
1.00514 1.00018 0.986574
1.00531 0.998079 0.987989
1.00531 0.999897 0.986107
1.00531 1.00079 0.985055
1.00523 0.998529 0.987332
1.00087 1.00276 0.990525
1.00188 1.00454 0.98715
1.00484 0.999145 0.987608
1.00496 0.9995 0.987593
1.00535 0.997366 0.988753
1.00532 0.998053 0.987978
1.00115 1.00295 0.989821
1.00389 1.00261 0.985589
1.0053 1.0016 0.984139
1.00532 0.999143 0.986812
1.00525 0.995963 0.990036
1.00524 0.999671 0.986254
1.00523 0.997478 0.988376
1.0052 0.996705 0.98914
1.00267 1.00389 0.986402
1.00325 1.00291 0.986245
1.00113 1.005 0.987973
1.00533 0.997331 0.988826
1.00536 0.997549 0.988552
1.00522 0.995377 0.990866
1.00524 0.995385 0.990617
1.00525 0.996395 0.989365
1.00524 0.995135 0.99077
1.00334 1.00317 0.985955
1.0052 0.995638 0.990073
1.00523 1.00227 0.983732
1.00525 1.00087 0.984802
1.0052 0.998329 0.987544
1.00517 0.996045 0.989868
1.00064 1.00489 0.988754
1.00443 1.00225 0.985309
1.00236 1.00421 0.986512
1.00481 1.00191 0.985353
1.00521 1.00018 0.985865
0.999988 1.00106 0.993702
1.00042 1.00284 0.991183
1.00088 1.0051 0.987791
1.00515 1.00047 0.985637
1.00531 0.999472 0.98639
1.00333 1.00279 0.986362
1.00524 1.00189 0.984193
1.00531 1.00069 0.985218
1.00529 1.00004 0.985518
1.00006 1.00024 0.994477
1.00234 1.00395 0.986943
1.00068 1.00452 0.989182
1.00244 1.00376 0.987031
1.00532 0.998841 0.987079
1.00531 1.00007 0.985767
1.00525 0.997655 0.988133
1.00481 1.00185 0.984898
1.00525 0.999302 0.986573
1.00526 1.00117 0.984669
1.00529 0.999366 0.98635
1.00018 0.999591 0.994973
1.00056 1.00354 0.990531
1.00379 1.00228 0.986139
1.00165 1.00492 0.987853
1.00378 1.00151 0.987347
1.00527 0.996866 0.988968
1.00524 0.998432 0.987324
1.00522 0.996496 0.989141
1.0048 1.0016 0.984845
1.00524 0.998228 0.987504
1.00501 1.00045 0.985677
1.00032 1.00197 0.992387
1.00034 1.00326 0.991088
1.00011 1.00161 0.9931
1.0002 1.00174 0.992773
1.00024 0.998859 0.996148
1.00025 0.999062 0.995648
1.00015 0.997363 0.997537
0.999965 0.997669 0.998882
0.999901 0.997976 0.998806
0.999877 1.00161 0.99332
0.999926 0.999512 0.998202
1.00022 1.00234 0.992096
1.00018 1.00008 0.997745
1.00063 1.00257 0.991168
1.00044 1.00053 0.997411
1.00516 1.00001 0.986131
1.00501 0.999541 0.986903
1.00535 0.997778 0.988247
1.00533 0.997044 0.989086
1.00483 0.99927 0.987487
1.00252 0.99984 0.990663
1.00482 0.999253 0.987536
1.00532 0.996841 0.98931
1.00536 0.997367 0.9887
1.00524 0.994946 0.991224
1.00534 0.998258 0.987716
1.00526 0.995526 0.990521
1.00532 0.996833 0.989327
1.00526 0.994958 0.991231
1.00523 0.995112 0.991033
1.00518 0.994958 0.991252
1.00527 0.99616 0.989781
1.00524 0.994904 0.990904
1.00485 0.998971 0.987754
1.00499 0.999493 0.98757
1.00534 0.997174 0.988988
1.00532 0.998436 0.987604
1.00124 1.00288 0.989825
1.00369 1.00294 0.985612
1.00529 1.00173 0.984053
1.00532 0.999351 0.986651
1.00524 0.995662 0.990295
1.00523 0.997496 0.988383
1.00525 0.999471 0.986456
1.0052 0.996651 0.989077
1.00266 1.00407 0.986373
1.0032 1.0029 0.986194
1.0012 1.00488 0.988002
1.00533 0.997162 0.989011
1.00536 0.997524 0.988557
1.00523 0.995173 0.991045
1.00523 0.995633 0.990402
1.00327 1.00335 0.985948
1.0052 1.00228 0.983773
1.00525 1.00103 0.984654
1.00524 0.996721 0.989074
1.00525 0.995028 0.990797
1.00521 0.998249 0.987504
1.00521 0.995665 0.990051
1.00518 0.995936 0.989925
1.00425 1.00252 0.985271
1.00475 1.0019 0.985133
1.0008 1.00477 0.988773
1.00217 1.00423 0.986582
1.00523 0.994954 0.991312
1.00525 0.995534 0.990514
1.00514 0.994948 0.991331
1.00521 0.99491 0.990947
1.00521 0.995095 0.990596
1.00524 0.994931 0.990772
1.00512 1.00227 0.984128
1.00522 0.99502 0.990514
1.0052 1.00212 0.983699
1.00522 1.00018 0.985415
1.0052 0.997547 0.988067
1.00518 0.996084 0.989802
1.00043 1.00427 0.989806
1.0012 1.00509 0.987371
1.00508 1.00246 0.984032
1.00398 1.00355 0.98559
1.00501 1.00321 0.983592
1.00005 1.00013 0.994513
1.00532 0.998839 0.987057
1.00046 1.00468 0.989187
1.00224 1.00394 0.98695
1.00237 1.00369 0.987007
1.00531 1.00008 0.98574
1.00524 0.997643 0.98813
1.00513 1.00157 0.984914
1.00524 1.00107 0.984648
1.00525 0.999445 0.986385
1.00529 0.99927 0.986507
1.00017 0.999526 0.995006
1.00039 1.00366 0.990557
1.00403 1.002 0.986175
1.00121 1.00503 0.987819
1.00353 1.00145 0.98738
1.00527 0.996843 0.988968
1.00524 0.998415 0.987319
1.00523 0.996449 0.989133
1.00496 1.00165 0.984785
1.00525 0.998312 0.987346
1.00508 1.00045 0.985778
1.00039 1.0026 0.991666
1.00084 1.0049 0.989111
1.00463 1.0011 0.985823
1.00211 1.00402 0.987737
1.00439 1.00018 0.987955
1.00526 0.9958 0.989881
1.00522 0.997268 0.988267
1.00524 0.995851 0.989422
1.00487 1.00109 0.985192
1.00507 0.999087 0.986573
1.00032 1.00195 0.99239
1.00037 1.00323 0.990873
1.00014 1.00344 0.991052
1.00052 1.00353 0.990772
1.00019 1.00329 0.991339
1.00003 1.00145 0.993356
1.00009 1.00159 0.993109
1.00021 0.998743 0.996301
1.00019 1.00177 0.992769
1.00025 0.998844 0.996171
1.00021 0.997111 0.997647
1.00024 0.999039 0.996018
1.00008 0.997377 0.998242
0.99997 0.997571 0.998908
0.999808 1.00052 0.994515
0.99992 1.00162 0.993307
0.999769 0.998774 0.998617
1.00005 0.999575 0.998052
1.00032 1.00228 0.992081
1.00026 1.00021 0.997654
1.00533 0.998259 0.9877
1.00535 0.997356 0.988701
1.00527 0.995484 0.990526
1.00524 0.994947 0.991206
1.00532 0.996848 0.989314
1.00482 0.999255 0.987539
1.00532 0.996837 0.989325
1.00526 0.994958 0.991235
1.00524 0.995093 0.991044
1.00518 0.994957 0.991213
1.00528 0.996118 0.989781
1.00524 0.994918 0.990903
1.00525 0.994958 0.991257
1.0052 0.994949 0.99129
1.00521 0.994939 0.991088
1.00526 0.994944 0.991078
1.00527 0.995225 0.990486
1.00528 0.994887 0.990859
1.00533 0.996987 0.989195
1.00535 0.997508 0.988562
1.00523 0.994954 0.991224
1.00521 0.995879 0.990186
1.00321 1.00347 0.985942
1.00517 1.00227 0.983812
1.00523 1.00111 0.984505
1.00524 0.997046 0.988782
1.00525 0.994924 0.990823
1.00522 0.995693 0.990028
1.00521 0.998163 0.987465
1.00518 0.995798 0.989988
1.00392 1.00294 0.985235
1.0046 1.00194 0.984913
1.00098 1.00466 0.988791
1.00208 1.00421 0.986654
1.00524 0.994952 0.991302
1.00524 0.995523 0.990572
1.00514 0.994948 0.991314
1.00522 0.994915 0.990943
1.00489 1.00252 0.984131
1.0052 1.00218 0.98362
1.0052 1.00016 0.985395
1.00522 0.995205 0.990504
1.00524 0.994927 0.990751
1.00517 0.997592 0.988065
1.00521 0.99502 0.990496
1.00519 0.995868 0.989909
1.00497 1.00251 0.984077
1.00499 1.0034 0.983361
1.00361 1.00336 0.985609
1.00043 1.00409 0.989848
1.00107 1.0051 0.987523
1.00518 0.99495 0.99125
1.00519 0.994943 0.991109
1.00526 0.994919 0.990697
1.00525 0.99491 0.990695
1.00514 1.00297 0.983259
1.00522 0.995054 0.990444
1.00503 1.0017 0.983943
1.00515 0.999626 0.985894
1.00513 0.997239 0.98827
0.999898 1.00329 0.991364
1.00074 1.0051 0.988658
1.00175 1.00503 0.987091
1.00497 1.00382 0.982866
1.00451 1.00327 0.984453
1.00506 1.00317 0.982809
1.00016 0.999476 0.995039
1.00028 1.0038 0.990582
1.00527 0.99682 0.988969
1.0008 1.00514 0.987783
1.00405 1.00195 0.986213
1.00339 1.00154 0.987415
1.00524 0.998399 0.987313
1.00523 0.996404 0.989126
1.00514 1.00165 0.984723
1.00511 1.00049 0.98588
1.00525 0.99838 0.987188
1.00033 1.00265 0.991677
1.0005 1.00498 0.989124
1.00483 1.00098 0.985827
1.00188 1.00421 0.987697
1.00413 0.999669 0.98792
1.00526 0.995755 0.989893
1.00523 0.997283 0.988246
1.00525 0.995894 0.989406
1.00486 1.00112 0.985224
1.00509 0.999185 0.986559
1.0005 1.00402 0.990307
1.00014 1.00512 0.988899
1.00498 1.00104 0.985476
1.00225 1.00184 0.988211
1.00524 0.999485 0.987389
1.00524 0.995109 0.990277
1.00526 0.997293 0.988009
1.00529 0.996156 0.988896
1.00486 1.0001 0.986091
1.00514 0.999197 0.986465
1.00032 1.00192 0.992394
1.00038 1.00334 0.990869
1.00003 1.00365 0.990945
0.999997 1.00355 0.991017
1.00008 1.00342 0.991328
1.00012 1.0038 0.990832
0.999978 1.00325 0.991753
1 1.00404 0.990594
1.00005 1.0032 0.991658
1.00001 1.0015 0.993351
1.00003 1.00145 0.993359
1.00013 0.998715 0.996436
1.00007 1.00155 0.993117
1.00022 0.99873 0.996323
1.00021 0.996991 0.997736
1.00027 0.99882 0.996197
1.00018 0.997126 0.997648
0.999987 0.997379 0.998967
0.99984 0.999574 0.995418
0.999835 1.00059 0.994469
0.999721 0.998215 0.998876
1 1.00156 0.993296
0.999866 0.99897 0.998467
1.00014 0.999701 0.997916
1.00528 0.99608 0.989781
1.00525 0.995078 0.991055
1.00523 0.994933 0.990903
1.00518 0.994957 0.991174
1.00525 0.994956 0.991239
1.00532 0.996842 0.989323
1.00525 0.994959 0.991275
1.0052 0.994948 0.991301
1.0052 0.994931 0.991118
1.00526 0.994936 0.991052
1.00527 0.995228 0.99051
1.00527 0.994885 0.990805
1.0052 0.994947 0.991294
1.00526 0.994933 0.991136
1.00527 0.994932 0.990923
1.00527 0.994864 0.990645
1.00524 0.994951 0.991293
1.00523 0.995509 0.990629
1.00513 0.994949 0.991297
1.00523 0.994919 0.99094
1.00474 1.00262 0.984133
1.00521 1.00226 0.983545
1.00519 1.00023 0.985375
1.00523 0.995316 0.990413
1.00524 0.994922 0.990731
1.00521 0.99503 0.990478
1.00514 0.997594 0.98806
1.00523 0.995661 0.990015
1.00474 1.00259 0.984122
1.00503 1.0033 0.98313
1.00308 1.00351 0.985628
1.00044 1.00389 0.9899
1.00105 1.0051 0.987678
1.00518 0.994948 0.99125
1.0052 0.994942 0.991115
1.00525 0.994923 0.990722
1.00508 1.00297 0.983315
1.0051 1.00187 0.983867
1.00513 0.999707 0.985887
1.00524 0.994915 0.990695
1.00518 0.997066 0.98853
1.00521 0.995091 0.990389
0.999933 1.00304 0.991598
1.0049 1.00361 0.982953
1.00486 1.00414 0.982537
1.00434 1.00332 0.984512
1.00181 1.005 0.987196
1.00058 1.0051 0.988643
1.00525 0.994943 0.991112
1.00528 0.994909 0.990836
1.00526 0.994909 0.990612
1.00523 0.994877 0.990599
1.00509 1.00296 0.983212
1.00521 0.995414 0.989964
1.00504 1.00139 0.984447
1.00506 0.99982 0.98599
1.00001 1.00128 0.993195
1.00007 1.00475 0.990118
1.00125 1.00505 0.988419
1.00256 1.00504 0.985486
1.00476 1.00407 0.983147
1.00504 1.00335 0.983163
1.00026 1.00271 0.991688
1.00012 1.00505 0.989139
1.00525 0.99571 0.989905
1.00156 1.00428 0.987656
1.00504 1.00083 0.985831
1.00372 0.999454 0.987873
1.00524 0.997299 0.988224
1.00525 0.995931 0.989387
1.00488 1.00118 0.985252
1.00513 0.999296 0.986546
1.00033 1.00412 0.990312
1.00055 1.00513 0.98867
1.00502 1.00091 0.985459
1.00263 1.00185 0.98809
1.00497 0.999633 0.987072
1.00525 0.995131 0.990329
1.00526 0.997204 0.988207
1.00528 0.996242 0.988956
1.00485 1.00011 0.986161
1.0051 0.999414 0.986225
0.999633 1.00422 0.990418
1.00049 1.00468 0.988747
1.00497 1.00013 0.986269
1.00398 0.999757 0.987392
1.00533 0.994858 0.990329
1.00525 0.99579 0.989832
1.00521 0.998354 0.986831
1.00515 0.999427 0.986144
1.00047 1.00332 0.990865
1.00017 1.00361 0.99093
0.999465 1.00377 0.992368
0.999978 1.00356 0.991317
0.999694 1.00409 0.990894
1.00002 1.00321 0.991649
0.999691 1.00325 0.992067
1.00004 1.00417 0.990538
0.99966 1.00153 0.993904
0.999788 1.00426 0.991032
0.999896 1.00423 0.990558
1.00014 1.00305 0.991645
0.999975 1.00176 0.993095
0.999976 1.0015 0.993343
1.00002 0.998776 0.996539
1.00001 1.00142 0.993364
1.00014 0.998731 0.996452
1.00015 0.997014 0.997815
1.00022 0.998727 0.996347
1.0002 0.997002 0.997736
1.00015 0.99715 0.997642
0.999973 0.998824 0.995993
0.999843 0.999697 0.995351
0.999723 0.997747 0.999035
0.999828 1.00069 0.994419
0.999762 0.998295 0.998809
0.999992 0.999037 0.998301
1.00527 0.995228 0.990534
1.00519 0.994924 0.991148
1.00526 0.994882 0.990752
1.00526 0.994927 0.991026
1.0052 0.994948 0.991312
1.00525 0.994961 0.991293
1.0052 0.994949 0.991302
1.00526 0.994934 0.991135
1.00527 0.994921 0.990917
1.00526 0.994865 0.990671
1.00526 0.994942 0.991164
1.00528 0.994924 0.991023
1.0053 0.994868 0.990739
1.00517 0.994947 0.99125
1.00522 0.994941 0.991121
1.00525 0.994928 0.990746
1.00503 1.00296 0.983371
1.00511 1.00196 0.983786
1.00508 0.999677 0.985877
1.00524 0.994921 0.990695
1.00521 0.995137 0.990334
1.00521 0.996856 0.988785
1.00485 1.00358 0.983038
1.00494 1.00414 0.982279
1.00429 1.00324 0.98457
0.999982 1.00285 0.991838
1.00189 1.0049 0.987299
1.00035 1.00511 0.98862
1.00526 0.994943 0.991121
1.00528 0.994907 0.990805
1.00527 0.994909 0.990605
1.00499 1.00306 0.983248
1.00491 1.00132 0.98437
1.00506 0.999462 0.986343
1.00523 0.99488 0.990558
1.00515 0.995537 0.98991
1.00001 1.00124 0.993424
1.00001 1.00477 0.990089
1.00478 1.00322 0.983043
1.00466 1.00363 0.983442
1.00293 1.00483 0.985664
1.00104 1.00506 0.988236
1.00529 0.994911 0.991013
1.00532 0.994868 0.990535
1.00528 0.994887 0.990551
1.0052 0.994932 0.990327
1.00442 1.00253 0.98393
1.00516 0.997548 0.988088
1.0049 1.00168 0.984484
1.00018 1.00039 0.994191
1.00032 1.00146 0.992979
0.999731 1.00302 0.992107
1.00043 1.00504 0.989201
1.00117 1.00507 0.987364
1.00335 1.00429 0.984193
1.00391 1.00394 0.984225
1.00391 1.00464 0.984558
1.00012 1.0043 0.990317
1.00084 1.00515 0.988441
1.00527 0.995157 0.99038
1.00303 1.0015 0.987975
1.00504 1.00076 0.985447
1.00484 0.999892 0.986766
1.00527 0.997089 0.988408
1.00527 0.996318 0.989021
1.00489 1.00008 0.986231
1.00507 0.999574 0.985988
0.999985 1.00409 0.990257
1.00068 1.0047 0.988567
1.0051 1.00007 0.986208
1.00445 1.00015 0.987372
1.00534 0.994844 0.990345
1.00527 0.995705 0.989753
1.00517 0.99831 0.986944
1.00516 0.999517 0.986105
0.999803 1.0042 0.990328
1.00536 0.9949 0.990329
1.00252 1.00384 0.987998
1.00485 0.999476 0.98687
1.00528 0.99506 0.990553
1.00517 0.997433 0.986858
1.00502 1.00071 0.985506
1.00027 1.00363 0.990916
0.999423 1.00357 0.992278
0.998677 1.00266 0.994956
1.00001 1.00316 0.99164
1.00007 1.00434 0.990482
0.998909 1.0038 0.992377
1.00012 1.00302 0.991638
0.999858 1.00436 0.990561
0.998904 1.00209 0.994253
0.999909 1.00422 0.990933
0.999209 1.0001 0.996822
0.999082 1.0029 0.993377
0.999665 1.00494 0.990251
1.00035 1.00409 0.990172
1.00018 1.00333 0.991235
0.999906 1.00216 0.992807
0.999909 1.0019 0.993075
0.999895 0.999012 0.996562
0.999939 1.00159 0.993334
1.00003 0.998827 0.996536
1.00004 0.997102 0.997897
1.00014 0.998734 0.99647
1.00016 0.997006 0.997811
1.00019 0.997013 0.99773
1.00018 1.00045 0.994184
1.00006 0.998426 0.996268
0.999968 0.998904 0.995949
0.999802 0.997379 0.999125
0.999844 0.999814 0.995286
0.999754 0.997859 0.998996
0.999822 0.998442 0.998715
1.00525 0.994867 0.990696
1.00527 0.99491 0.990912
1.00526 0.994936 0.991134
1.00519 0.994951 0.99131
1.00526 0.994944 0.991164
1.00528 0.994922 0.991037
1.00528 0.994876 0.99071
1.00528 0.994925 0.991073
1.00534 0.994919 0.99084
1.00545 0.995017 0.991102
1.00526 0.994942 0.99113
1.00528 0.994904 0.990775
1.00527 0.994908 0.990598
1.00489 1.0032 0.983286
1.00489 1.00174 0.984314
1.00489 0.999206 0.986694
1.00522 0.994886 0.990517
1.00502 0.995747 0.989856
1.00455 1.00347 0.98294
1.00423 1.00438 0.983692
1.00287 1.00453 0.985841
0.999995 1.00116 0.993653
1.00005 1.00477 0.99006
1.00094 1.00506 0.98805
1.00529 0.994908 0.990997
1.00016 1.0004 0.994179
1.00024 1.00154 0.992841
1.00532 0.994878 0.990548
1.00526 0.99489 0.990564
1.00479 1.00275 0.983837
1.00468 1.00166 0.984683
1.00513 0.99727 0.98799
1.00521 0.994915 0.990258
0.999765 1.00306 0.992275
1.00046 1.00504 0.989161
1.00409 1.00377 0.984062
1.00365 1.00414 0.98442
1.00367 1.00453 0.984228
1.00134 1.00504 0.987287
1.00537 0.994877 0.990745
1.00533 0.994835 0.990456
1.00523 0.994865 0.990381
1.00519 0.994934 0.990322
1.00407 1.00246 0.984986
1.00447 1.00128 0.985915
1.00007 1.00219 0.992302
1.00007 1.00162 0.993156
1.00134 1.00042 0.992672
1.00039 1.00365 0.990503
1.00064 1.00506 0.988773
1.00231 1.00448 0.986507
1.0023 1.00506 0.984615
1.00308 1.00085 0.987626
1.00041 1.00395 0.990098
1.00107 1.00473 0.988384
1.00534 0.994831 0.990361
1.00528 0.995663 0.989675
1.0049 1.00046 0.987347
1.00518 1.00006 0.986143
1.00512 0.998278 0.987055
1.00517 0.999622 0.98607
1.00031 1.00396 0.99023
1.00538 0.994915 0.99056
1.00194 1.00384 0.988163
1.005 0.999651 0.98664
1.00527 0.99505 0.990576
1.00515 0.99762 0.987064
1.00493 1.00052 0.985495
0.999892 1.00489 0.990514
1.00493 0.994815 0.990889
1.00277 1.00258 0.987817
1.00474 1.0013 0.985041
1.00507 0.995711 0.989789
1.0037 1.00116 0.986115
0.998787 0.995536 0.986499
0.999229 1.00355 0.992193
0.998154 1.00295 0.994952
0.998733 1.00189 0.996063
1.00003 1.0031 0.99163
0.999814 1.00448 0.990565
1.00031 1.0038 0.990838
0.998472 1.00228 0.994616
1.00011 1.00342 0.991236
1.00025 1.00416 0.990212
0.999255 1.00004 0.996426
0.999805 1.00485 0.990264
0.999468 1.00282 0.992964
0.9984 1.00118 0.997071
1.00032 1.00436 0.990097
1.00016 1.00474 0.990072
1.00067 1.00417 0.98979
1.00012 1.00386 0.990592
1.00035 1.00442 0.990179
1.00012 1.00405 0.990357
0.999905 1.00226 0.99269
0.999926 1.00214 0.992788
0.99977 0.99915 0.995992
0.999908 1.00188 0.993053
0.999884 0.999066 0.996238
1 0.997272 0.999105
1.00004 0.998877 0.996534
1.00006 0.997073 0.997896
1.00017 0.996998 0.997803
1.00007 1.00042 0.994298
1.00019 1.00035 0.994216
1.0001 0.998241 0.996432
1.00005 0.998433 0.996543
0.99987 0.99713 0.999179
0.999957 0.999003 0.995905
0.999803 0.997458 0.999104
0.999784 0.997899 0.998958
1.00527 0.994884 0.990681
1.00527 0.994921 0.991051
1.00526 0.994945 0.991164
1.00528 0.994925 0.991072
1.00534 0.994918 0.990825
1.00543 0.994969 0.990803
1.00541 0.994892 0.990848
1.00135 0.994883 0.982158
1.00471 0.99492 0.992356
1.00008 1.00168 0.993022
1.00529 0.994907 0.99098
1.00532 0.994886 0.990561
1.00525 0.99489 0.990577
1.00475 1.0024 0.983724
1.00489 1.00126 0.984866
1.00511 0.997118 0.987895
1.00523 0.994889 0.990189
1.0045 1.00333 0.983932
1.00398 1.00374 0.984325
1.00357 1.00454 0.984264
1.00015 1.00042 0.994168
1.0018 1.00505 0.987208
0.999782 1.00306 0.992428
1.00044 1.00504 0.989117
1.00022 1.00152 0.992704
1.00537 0.994865 0.990745
1.00003 1.00224 0.992437
1.00006 1.00164 0.993168
1.00103 1.00039 0.992981
1.00534 0.994845 0.990424
1.00522 0.994865 0.99035
1.00333 1.0033 0.985072
1.00473 1.00008 0.986432
1.00518 0.99493 0.99024
1.00016 1.0037 0.990691
1.00087 1.00505 0.98858
1.00316 1.00231 0.987137
1.00291 1.00489 0.984435
1.00263 1.00413 0.986673
1.00533 0.994824 0.990931
1.00522 0.994779 0.990754
1.00517 0.994989 0.98992
1.00498 0.99703 0.990078
1.00193 1.0022 0.988621
0.999517 1.00356 0.991764
1.00109 1.00089 0.992262
1.00006 1.00012 0.993145
1.00039 1.00446 0.990689
1.00035 1.00509 0.989308
1.00091 1.00436 0.987838
1.0023 1.00019 0.989931
1.00104 1.00364 0.990129
1.00112 1.00382 0.988332
1.0054 0.994921 0.990781
1.00527 0.995 0.99059
1.00515 0.997763 0.987271
1.00507 0.999782 0.986409
1.00487 1.00035 0.985487
1.00032 1.00467 0.990502
1.00467 0.994834 0.991095
1.00289 1.00232 0.9877
1.00481 1.00137 0.984921
1.00506 0.995596 0.990045
1.00399 1.00101 0.986197
0.998557 0.996635 0.984635
0.999509 1.00435 0.991215
1.00299 0.996301 0.991089
1.00344 1.00239 0.985902
1.00308 1.0011 0.986916
1.00332 0.997576 0.990733
0.999955 0.994873 0.944945
0.995302 0.994809 0.965897
0.9956 0.999773 0.988337
0.999339 0.994787 0.863252
0.994716 0.994828 0.82611
0.997758 1.00319 0.994949
0.997873 1.00234 0.996356
0.997883 1.00291 0.996578
1.00007 1.00346 0.991238
1.0003 1.00394 0.990251
0.999967 1.00475 0.990278
0.999699 1.00291 0.992536
0.99922 0.999892 0.99602
1.00014 1.0046 0.990089
1.00015 1.00383 0.990678
1.00058 1.00414 0.989832
0.998639 1.0005 0.996499
0.999959 1.0045 0.990441
1.0004 1.00456 0.990437
0.998832 1.00458 0.992026
1.00014 1.00465 0.990178
1.00051 1.0046 0.989258
1.00022 1.00394 0.990392
1.00037 1.0049 0.989418
1.00045 1.00401 0.990522
0.999675 1.00474 0.990749
1.00019 1.00453 0.990129
1.00027 1.00371 0.990769
1.00016 1.00405 0.990345
0.999928 1.00225 0.992693
0.999917 1.00227 0.992694
0.999741 0.999237 0.995999
0.999896 1.00223 0.99277
0.999759 0.999192 0.995984
0.99995 0.99728 0.999132
0.999865 0.999134 0.995915
0.99998 0.99727 0.998504
1.00009 0.997046 0.997893
0.999937 1.00028 0.994621
1.00006 1.00046 0.994303
1.00009 0.998101 0.996596
1.0002 1.00025 0.994247
1.00009 0.998192 0.996712
0.999926 0.996874 0.999226
1.00007 0.99847 0.99623
0.999869 0.997237 0.999158
0.999813 0.997552 0.999084
1.00533 0.994915 0.990809
1.00528 0.994925 0.991072
1.00541 0.994942 0.990514
1.00076 0.994834 0.982301
1.00541 0.994893 0.990859
1.00458 0.99494 0.992108
1.00514 0.996176 0.991217
0.996281 0.994887 0.965148
1.00126 0.995644 0.984437
1.00012 1.00142 0.993289
1.00005 1.00183 0.992985
0.999419 1.00378 0.991893
0.999879 1.00229 0.992695
1.00537 0.994861 0.990744
1.00534 0.99486 0.990393
1.00521 0.994869 0.990319
1.00425 1.0036 0.985163
1.00465 0.998243 0.986967
1.00518 0.994926 0.990158
1.00274 1.0031 0.986628
1.00428 1.00495 0.984245
1.00281 1.00277 0.986832
1 1.00175 0.993184
1.00086 1.00498 0.988397
1.00009 1.00374 0.990881
0.999932 1.00246 0.992569
1.00053 1.00069 0.993267
1.00533 0.994824 0.990938
0.999827 1.00349 0.991616
1.00124 1.0005 0.992486
0.998667 1.00118 0.995204
1.00524 0.994804 0.990663
1.00517 0.995046 0.989933
1.00314 1.00101 0.988607
1.00466 0.996095 0.990428
1.00052 1.00445 0.990085
1.00067 1.00487 0.988535
1.002 1.00185 0.989821
1.00233 1.0037 0.987269
1.00433 0.995073 0.991663
1.0051 0.994947 0.991098
1.005 0.995965 0.989613
1.00332 0.997011 0.992734
0.998273 1.00459 0.992854
1.00089 1.00121 0.992086
0.998208 1.00482 0.992868
0.999293 1.00454 0.990874
0.99998 0.994896 0.93209
1.00055 1.00453 0.990486
1.0029 1.00244 0.987579
1.00433 0.994866 0.991331
1.0051 0.99554 0.990296
1.00416 1.00086 0.986262
1.00463 1.00152 0.984795
0.998453 0.997327 0.982633
0.99976 1.00427 0.991544
1.00294 0.996461 0.991001
1.00338 1.00263 0.985952
1.00359 1.0011 0.987009
1.00374 0.997634 0.990458
1.00004 0.994871 0.932459
0.995712 0.994796 0.962338
0.995564 1.00027 0.988522
0.99837 0.994762 0.868023
0.994722 0.99483 0.816409
0.99954 1.00422 0.991329
0.999788 0.994822 0.874341
0.994719 0.994807 0.81888
1.0003 0.999725 0.992641
1.00162 1.00208 0.989389
1.00144 0.999494 0.992536
0.995095 0.998927 0.9908
0.997907 0.994824 0.943625
0.994917 0.994766 0.958446
0.996572 0.994856 0.884945
0.994728 0.994808 0.809578
0.997264 1.00271 0.996659
0.997614 1.00224 0.996421
0.997854 1.00441 0.995082
1.00022 1.00375 0.990764
1.00053 1.00411 0.989876
0.99967 1.00491 0.990107
0.999712 1.0046 0.990783
0.999098 0.999647 0.995932
1.00023 1.00393 0.990398
1.00014 1.0047 0.990338
1.00001 1.00478 0.990047
1.00066 1.00448 0.989385
0.998774 1.00444 0.992309
0.999508 1.00467 0.991551
0.99768 1.00511 0.993055
1.00015 1.00503 0.989483
1.00054 1.00464 0.989443
1.00047 1.00479 0.989403
1.00026 1.00372 0.990776
1.00036 1.00497 0.989624
0.999866 1.0039 0.991283
0.999358 1.00286 0.991783
0.999311 1.00504 0.990825
0.999556 1.00473 0.990678
0.999849 1.00441 0.990775
1.00011 1.00368 0.990947
1.00007 1.00453 0.99008
1.00026 1.00369 0.990708
1 1.00222 0.992623
1.00023 1.00401 0.990333
0.999936 1.00222 0.992705
0.999917 0.999203 0.996448
0.999898 1.00228 0.992697
0.999783 0.999206 0.996261
0.999899 0.997277 0.997974
0.99975 0.99921 0.995976
0.999945 0.997299 0.99914
0.999976 0.997296 0.997899
1.00021 1.00141 0.993086
0.999923 1.00017 0.99477
0.999945 1.00031 0.994612
1.00006 0.998033 0.996702
1.00004 1.00051 0.994306
1.0001 0.998064 0.996595
0.999968 0.99677 0.999256
1.00007 0.998189 0.996957
0.999932 0.997025 0.998664
0.999901 0.997288 0.99803
1.00024 0.994812 0.982428
1.00541 0.994895 0.990869
1.00432 0.99564 0.991848
0.996476 0.994879 0.96577
1.00133 0.995341 0.984804
1.00517 0.995611 0.991188
1.00347 0.99636 0.986624
0.997181 0.995039 0.968528
0.999976 0.99487 0.942864
0.998347 0.994825 0.886298
0.994662 0.994792 0.824899
0.999737 1.00241 0.992622
1.00015 1.00136 0.993274
1.00015 1.00175 0.992946
0.999757 1.00323 0.992015
0.999286 1.00405 0.992227
1.00056 1.00196 0.991877
1.00015 1.0029 0.991997
1.0001 1.00213 0.992548
1.00534 0.994817 0.990937
1.00525 0.99482 0.990575
1.00517 0.995052 0.989942
1.00309 1.00124 0.988591
1.00448 0.995647 0.990778
1.00188 1.0026 0.989693
1.00379 1.00399 0.986708
1.00128 1.00508 0.987769
1.00124 1.00009 0.992706
1.00057 1.00455 0.989453
1.0004 1.00307 0.991481
0.997875 1.00132 0.997232
1.00429 0.994819 0.991933
0.998746 1.0041 0.992795
1.00069 1.00162 0.992457
1.00485 0.994901 0.991066
1.00476 0.995762 0.989925
1.00273 0.996976 0.992415
0.999478 1.00511 0.991306
1.00057 1.00339 0.991095
1.00327 0.994804 0.991469
1.00395 0.998482 0.990547
1.00468 0.995504 0.99087
1.00093 0.998243 0.993803
0.99945 1.00492 0.990663
0.998937 1.00427 0.99224
0.99935 1.00507 0.991892
0.999792 0.99491 0.877029
1.00027 0.994869 0.945587
1.00015 1.00387 0.991873
1.00353 1.00273 0.986012
1.00285 0.997006 0.990908
1.00409 0.997705 0.990193
1.00403 1.00121 0.987123
0.999992 0.994896 0.943328
0.995934 0.994764 0.961866
0.995582 1.00084 0.988747
0.997844 0.994815 0.885268
0.994725 0.994823 0.80616
0.99977 1.00413 0.991293
0.99981 0.994854 0.87368
0.994683 0.994789 0.812139
1.00041 0.99972 0.992619
1.00162 1.0022 0.989379
1.00137 0.999608 0.992925
0.99492 1.00014 0.991497
0.998668 0.995345 0.937521
0.994847 0.994783 0.960151
0.996102 0.995831 0.884414
0.994746 0.994802 0.808114
0.998692 1.00406 0.994122
0.994714 0.994808 0.810194
0.994746 0.99478 0.820073
0.997009 1.00222 0.996775
0.999819 1.00206 0.994311
0.994992 0.999698 0.988679
0.994988 0.994897 0.96134
0.995643 0.99478 0.932391
0.994762 0.996982 0.889127
0.994829 0.994834 0.813745
0.997594 1.00184 0.996268
0.998264 1.00368 0.994863
0.997044 1.0039 0.99532
1.00022 1.00393 0.990403
1.00079 1.00431 0.989513
1.00002 1.00488 0.989914
0.999869 1.00476 0.99024
0.998361 1.00437 0.992593
1.0005 1.00473 0.989433
0.999552 1.00445 0.991241
1.00035 1.00495 0.989491
0.997287 1.00503 0.993444
0.995928 1.00521 0.996296
0.99892 1.00497 0.991719
1.0005 1.00505 0.989377
1.00056 1.00469 0.989388
1.00017 1.00332 0.991025
1.00029 1.00495 0.989572
0.999976 1.00377 0.991192
0.999197 1.00297 0.992555
0.999024 1.00489 0.991234
0.998946 1.00493 0.991364
0.998868 1.0035 0.992867
1.00045 1.00173 0.992575
1.00208 0.999962 0.990942
0.999079 1.00488 0.991068
0.999486 1.00485 0.990874
0.999608 1.005 0.990081
0.999614 1.00486 0.990679
1.00004 1.00389 0.990828
0.999849 1.00446 0.990798
1.00015 1.00368 0.990968
1.00003 1.00221 0.992502
1.00026 1.00374 0.990647
0.999987 1.00221 0.992639
1.00004 0.99916 0.996269
0.999927 1.00222 0.992717
0.999894 0.999176 0.996106
1 0.997221 0.997839
0.999777 0.999192 0.99597
0.999952 0.997268 0.999147
0.999943 0.997296 0.999148
1.00026 1.00183 0.992931
0.999938 1.00034 0.994614
1.00012 1.00158 0.993096
1.00005 0.997996 0.996744
0.999919 1.00018 0.99477
0.999946 1.00035 0.994605
1.00007 0.998029 0.996691
0.999993 0.996686 0.999271
1.00007 0.99808 0.997085
0.99998 0.996767 0.998736
0.999951 0.997042 0.998151
0.999809 0.994828 0.861919
0.994687 0.994766 0.810443
0.99657 0.994876 0.966172
1.00122 0.994911 0.985261
1.00523 0.99483 0.991167
0.99683 0.99526 0.968282
1.00354 0.995506 0.987137
1.00088 0.994883 0.939665
0.998719 0.994786 0.868139
0.994697 0.994811 0.81542
0.99808 0.994852 0.973951
0.99885 0.994869 0.942873
0.996653 0.994857 0.88491
0.994737 0.994789 0.815722
1.00017 1.00328 0.991561
0.999883 1.00216 0.99276
1.00013 1.00142 0.993262
0.999917 1.00293 0.992137
0.999137 1.00401 0.992484
1.0002 1.00365 0.990799
1.00032 1.00276 0.991685
1.00043 1.00363 0.990414
1.00012 1.00289 0.991879
0.999997 1.00242 0.992393
1.00411 0.994786 0.992188
1.00471 0.994835 0.991036
1.00448 0.99561 0.990238
1.00231 0.99747 0.992093
1.00106 1.00317 0.991316
0.999533 1.00519 0.989765
1.00031 1.00202 0.992887
0.998913 1.00402 0.992724
1.00251 0.994914 0.991898
0.999532 1.00503 0.990442
0.998633 1.00462 0.992022
1.00375 0.997261 0.990748
1.00446 0.995551 0.99098
1.00108 0.998287 0.99414
0.999159 1.00505 0.991696
1.00026 0.995171 0.991227
1.00142 0.998599 0.993564
0.999187 1.00138 0.994903
0.998672 1.0049 0.98996
0.99875 1.00514 0.99074
0.998585 1.00504 0.992193
0.994726 0.994842 0.833225
0.999791 0.994882 0.882042
0.999991 0.994875 0.932408
0.99956 1.00402 0.99124
1.00185 1.00236 0.989347
1.00051 0.99951 0.992592
1.00126 0.999776 0.993321
0.999814 0.994873 0.885695
0.99821 0.994834 0.932643
0.994844 0.994853 0.958514
0.994891 1.00106 0.9921
0.996845 0.994824 0.869924
0.994659 0.994789 0.817481
0.994785 0.994814 0.821945
0.998513 1.00346 0.993833
0.994705 0.994816 0.820022
0.994772 0.994785 0.819527
0.997128 1.00072 0.997434
0.999421 1.00207 0.994187
0.995027 0.998551 0.991085
0.995468 0.994857 0.960072
0.996461 0.997434 0.943307
0.994724 0.997375 0.872915
0.994944 0.994829 0.823935
0.997134 1.00409 0.996283
0.994786 0.994831 0.82838
0.994815 0.99479 0.816731
0.995017 1.00244 0.999932
0.995341 0.997062 0.96863
0.994843 0.998911 0.942479
0.995263 0.996188 0.86488
0.995184 0.994872 0.830775
0.998675 1.0027 0.994606
0.997367 1.00428 0.9955
0.995715 1.00423 0.997802
1.00041 1.00476 0.989422
1.00047 1.00494 0.9895
0.999686 1.00416 0.990931
0.997085 1.00491 0.993834
1.00029 1.00504 0.989385
0.998877 1.00499 0.991708
0.995779 1.00517 0.996667
0.995031 1.00501 0.99826
0.995788 1.00514 0.996829
0.999402 1.00492 0.99123
1.00026 1.00496 0.989518
1.00003 1.00355 0.991099
0.998895 1.00324 0.993308
0.998955 1.00491 0.99143
0.999217 1.00487 0.991251
0.998861 1.00369 0.992991
0.998899 1.0046 0.99189
0.996688 1.00496 0.995493
1.00235 0.997418 0.993218
1.00011 1.0015 0.99308
1.00109 1.00097 0.991683
1.00457 1.00055 0.986954
1.00147 1.00228 0.990808
1.00098 0.999895 0.992792
0.999607 1.00462 0.990803
0.999689 1.00512 0.989673
0.999722 1.00461 0.990923
0.999885 1.00503 0.990088
1.00006 1.00451 0.990192
0.999993 1.0047 0.99068
1.00025 1.00369 0.990812
1.00011 1.00231 0.992322
1.00033 1.00342 0.990991
1.00011 1.00218 0.99251
1.00015 0.999179 0.996071
1.00002 1.00216 0.992656
1.00003 0.999163 0.995896
1.00009 0.997242 0.997705
0.999898 0.999153 0.99581
0.999989 0.997232 0.99849
0.999964 0.997248 0.99913
1.0002 1.00249 0.992
1.00008 1.00047 0.994314
1.00018 1.00186 0.992753
1.00004 0.998059 0.99669
0.999957 1.00029 0.99462
1.00013 1.00156 0.993106
1.00002 0.996647 0.999279
1.00005 0.997996 0.996744
0.999922 1.0002 0.994771
1.00008 0.998015 0.99668
0.999995 0.996722 0.999267
0.999965 0.996761 0.999253
0.994687 0.994779 0.813968
0.999801 0.994843 0.873557
0.994756 0.994769 0.817356
0.994706 0.99477 0.809422
0.996833 0.994892 0.966264
1.00345 0.994872 0.987657
0.999926 0.994865 0.935807
0.999147 0.994819 0.886197
0.994732 0.994825 0.805632
0.998501 0.994876 0.973134
0.99985 0.995963 0.929165
0.996315 0.996756 0.883018
0.994722 0.994788 0.808588
0.995273 0.994833 0.965932
0.99643 0.996646 0.930862
0.994825 0.997386 0.865507
0.994819 0.994854 0.812095
1.00084 1.00454 0.990224
0.999861 1.00327 0.99167
1.00002 1.0019 0.992894
0.998852 1.00376 0.992744
1.0008 1.00407 0.98933
1.00015 1.0035 0.991012
0.999918 1.00327 0.991501
1.00091 1.00318 0.99042
1.00052 1.00371 0.990522
1.00016 1.00271 0.991763
1.00211 0.994793 0.992323
1.00364 0.996298 0.990967
1.00413 0.995656 0.991094
1.00094 0.997292 0.9945
1.00012 1.00506 0.991486
0.999023 1.00504 0.991815
0.999678 1.00497 0.990216
1.00015 1.00493 0.989714
0.999869 0.995303 0.991661
0.999631 1.00512 0.99049
0.999294 1.00503 0.992066
1.00137 0.998139 0.99428
0.999905 1.00034 0.99472
0.996574 0.998786 0.991363
0.996738 0.998958 1.00085
0.99727 1.00333 0.995406
0.999612 1.00501 0.990563
0.997937 1.00513 0.993284
0.994815 0.994816 0.834273
0.994718 0.994824 0.829333
0.999799 0.99489 0.86559
0.998464 1.003 0.993599
0.99914 1.00179 0.994053
0.997264 0.999979 0.998095
0.99468 0.9948 0.818747
0.996608 0.996651 0.932144
0.995619 0.994879 0.959981
0.994881 0.997231 0.993763
0.994799 0.997288 0.890902
0.994775 0.994788 0.819557
0.995059 0.994838 0.824942
0.997436 1.00409 0.99612
0.994793 0.994827 0.831272
0.994805 0.99479 0.817515
0.995222 1.00176 0.999042
0.995299 0.996299 0.970594
0.994866 0.996551 0.931055
0.995035 0.994864 0.827154
0.994996 0.998732 0.872886
0.99498 1.00483 0.999727
0.994795 0.994824 0.824496
0.994867 0.994826 0.824318
0.994811 0.994847 0.812729
0.994816 0.998912 0.990389
0.994873 0.998702 0.945987
0.996982 0.996865 0.880614
0.997794 1.00486 0.995707
0.995884 1.00471 0.99762
0.995105 1.00483 0.99921
1.00021 1.00505 0.989394
0.998841 1.00503 0.991693
0.99562 1.00516 0.997033
0.999109 1.00502 0.991201
0.995969 1.00505 0.996827
0.995218 1.00487 0.998218
0.994983 1.00515 0.998443
0.995862 1.00489 0.996862
0.998887 1.00484 0.99151
0.999354 1.00494 0.991268
0.998897 1.00402 0.99314
0.996909 1.00486 0.995349
0.99893 1.00482 0.991773
0.999149 1.00212 0.99405
0.999996 0.997914 0.996572
1.00248 1.00037 0.989079
0.999754 1.0013 0.993549
1.00164 1.00106 0.991179
1.00435 1.00187 0.985903
1.00503 1.00219 0.984177
1.00324 1.00002 0.989671
1.00381 1.00052 0.987325
1.00074 1.00511 0.988865
1.00086 1.00255 0.991197
0.999882 0.999907 0.994618
1.00014 1.0044 0.990539
0.999862 1.00511 0.989712
1.0002 1.00494 0.989447
1.00013 1.00506 0.990097
1.00021 1.00433 0.990207
1.00014 1.00276 0.991785
1.00034 1.00365 0.990794
1.00015 1.00226 0.992312
1.00018 0.999231 0.99596
1.00013 1.00215 0.992518
1.00014 0.999185 0.9957
1.00017 0.99728 0.997558
1.00003 0.99917 0.995576
1.00007 0.997235 0.998394
1.00002 0.997217 0.999076
1.00053 1.00275 0.991072
1.0001 1.00084 0.993596
1.00033 1.00237 0.991991
1.0001 0.998118 0.996533
1.00004 1.00049 0.994164
1.00014 1.00187 0.992578
1.00004 0.996675 0.999263
1.00006 0.998025 0.9967
0.999976 1.00021 0.994627
1.00002 0.996666 0.999277
1.00004 0.998008 0.996744
0.999996 0.996695 0.999265
0.994822 0.99482 0.824922
0.994696 0.994811 0.826268
0.999799 0.994821 0.872761
1.0011 1.00274 0.990383
0.994818 0.994795 0.823585
0.994756 0.994768 0.817319
0.994736 0.99478 0.821467
0.999089 0.994885 0.972266
0.99845 0.994847 0.941751
0.996416 0.994855 0.867395
0.994697 0.994802 0.816851
0.996474 0.994852 0.96334
0.996558 0.998606 0.941581
0.994757 0.996931 0.868643
0.994823 0.994839 0.816327
0.994845 0.994957 0.958003
0.99484 0.996816 0.940183
0.995388 0.999963 0.876151
0.995099 0.994884 0.830582
0.99976 1.00495 0.99015
1.0003 1.00436 0.990127
1.00003 1.0033 0.991779
1.0006 1.00338 0.990383
1.00057 1.00443 0.989616
1.00014 1.00377 0.991222
1.0009 1.00331 0.990381
1.0005 1.00375 0.990624
0.998791 0.996652 0.991928
1.00101 0.997596 0.99491
1.0004 1.00498 0.989466
1.00067 0.999798 0.994543
0.999518 1.00499 0.991939
1.00005 1.00512 0.99025
0.999295 1.00489 0.990666
0.996008 0.998216 0.992061
0.998246 1.00513 0.993259
0.997824 1.00308 0.995679
0.996272 0.999775 1.00102
0.998927 1.00487 0.991976
0.994801 1.00073 0.988151
0.995353 1.00258 0.999214
0.996088 1.00496 0.996606
0.99808 1.00542 0.993822
0.994783 0.994805 0.8301
0.99482 0.994817 0.832091
0.994707 0.994813 0.825352
0.997713 1.00417 0.995936
0.995432 1.00074 0.998143
0.994807 0.994826 0.833989
0.994802 0.998565 0.942941
0.995606 0.996154 0.967947
0.995033 0.998719 0.871323
0.994806 0.99479 0.818112
0.99488 0.994856 0.823564
0.995421 1.00463 0.999386
0.994798 0.994822 0.824511
0.994861 0.994833 0.82562
0.994784 0.999478 0.994127
0.994818 0.994835 0.816669
0.994853 0.996315 0.938364
0.995988 0.997481 0.882673
0.994778 1.00334 0.998596
0.994834 0.994842 0.830412
0.9948 0.994801 0.824572
0.994737 0.9948 0.816058
0.995404 0.999969 0.875312
0.994902 1.00055 0.975639
0.995483 0.997927 0.931407
0.996192 1.00504 0.997447
0.995074 1.00506 0.999179
0.994882 1.00518 0.998481
0.998785 1.00509 0.991172
0.995907 1.00513 0.99683
0.995066 1.0052 0.99817
0.995932 1.00484 0.996787
0.994957 1.00515 0.99848
0.99777 1.00209 0.997507
0.997127 1.00467 0.995192
0.998935 1.0049 0.99167
0.998995 1.00236 0.994696
0.998917 1.00224 0.992558
0.997766 0.998373 0.999787
1.00225 0.999978 0.990261
1.00427 1.00421 0.982826
1.00474 1.00285 0.983623
1.00216 1.00107 0.990634
1.00429 1.0022 0.985164
1.00511 1.00218 0.984092
1.00467 1.00007 0.98668
1.00478 1.00197 0.984555
1.00145 1.00343 0.988816
1.00298 1.00053 0.989445
1.00312 1.00044 0.987712
1.00037 1.00512 0.988736
1.0003 1.00506 0.989124
1.00032 1.0027 0.991587
0.999967 1.00511 0.98975
1.00031 1.00494 0.989464
1.00018 1.00376 0.990795
1.00037 1.00428 0.990221
1.00018 1.0028 0.991768
1.00014 0.999444 0.995104
1.00022 1.00228 0.992305
1.0002 0.99923 0.995243
1.00007 0.997272 0.998955
1.00014 0.999217 0.995366
1.00013 0.997274 0.998281
1.00008 0.997228 0.99901
1.00052 1.00284 0.990967
1.00026 1.00134 0.992881
1.00046 1.00281 0.99122
1.00016 0.998288 0.996281
1.00017 1.00083 0.993515
1.00037 1.00236 0.991979
1.00007 0.996672 0.999228
1.00011 0.998096 0.996548
1.00005 1.00049 0.994014
1.00004 0.996651 0.999269
1.00007 0.997988 0.99671
1.00001 0.996703 0.999275
0.9948 0.994828 0.830812
0.99482 0.99482 0.825172
0.994688 0.994825 0.826215
1.00098 1.0028 0.990564
1.00076 1.00299 0.990458
1.00107 1.00217 0.991216
0.994871 0.994829 0.823487
0.994817 0.994791 0.824226
0.994755 0.994759 0.817357
0.996781 0.994853 0.964262
0.996245 0.994794 0.929999
0.994786 0.999028 0.889395
0.994822 0.994833 0.810864
0.994993 0.994953 0.960817
0.994896 0.998157 0.93653
0.995298 0.998146 0.872461
0.995059 0.994872 0.82673
0.995728 0.995132 0.957644
0.994857 0.997338 0.941089
0.996511 0.997017 0.880909
0.994839 0.994831 0.814609
0.999856 1.00336 0.991508
1.00034 1.00439 0.989953
1.00044 1.00395 0.990027
1.00079 1.00324 0.990321
1.00025 1.00461 0.989906
1.00087 1.00349 0.990345
0.995878 0.99694 0.992879
0.996111 1.00057 1.00132
0.999678 1.0042 0.990764
0.998643 1.00251 0.99588
0.998418 1.00512 0.993226
0.998487 1.00455 0.992468
0.997429 1.00536 0.993882
0.994923 1.00108 0.988032
0.995886 1.00512 0.997054
0.995841 1.00273 0.998469
0.997461 1.0052 0.994251
0.994929 1.00272 0.984886
0.995545 1.00447 0.995611
0.9955 1.00483 0.997983
0.99484 0.99483 0.829663
0.994786 0.994814 0.829525
0.994823 0.994813 0.829942
0.99574 1.00404 0.999009
0.994788 0.999831 0.990162
0.994795 0.99482 0.824538
0.994846 0.998056 0.938032
0.996502 0.996872 0.867759
0.99486 0.994835 0.826901
0.994816 0.99483 0.811615
0.994787 1.00315 0.999052
0.994826 0.994843 0.830839
0.994816 0.994803 0.825251
0.994874 0.999555 0.973035
0.994715 0.994798 0.809284
0.995813 0.999577 0.869943
0.995098 0.995568 0.944682
0.99486 1.00518 0.991041
0.994792 0.99484 0.83103
0.994776 0.994788 0.818528
0.994658 0.994802 0.826304
0.994787 0.997395 0.864853
0.994856 0.998955 0.939722
0.99488 1.00093 0.967328
0.995097 1.00494 0.999129
0.994922 1.0052 0.998446
0.996438 1.00349 0.997601
0.996091 1.00473 0.996714
0.994972 1.00509 0.998488
0.996403 1.00381 0.997581
0.999408 0.998456 0.99818
0.998804 1.00282 0.995328
1.00122 1.00173 0.991708
1.00227 1.00477 0.985795
1.00186 0.999643 0.991636
1.00424 1.00404 0.983414
1.00431 1.00494 0.982232
1.00503 1.00167 0.983956
1.00506 1.00188 0.98418
1.00468 1.00294 0.983545
1.0045 1.00243 0.984442
1.00509 1.00139 0.984981
1.00512 1.00211 0.98409
1.00348 1.00109 0.987668
1.00448 1.00018 0.986994
1.00443 1.00179 0.984936
1.00071 1.00512 0.988039
1.0016 1.00365 0.988764
1.00259 1.00118 0.989207
1.00034 1.00449 0.989855
1.00066 1.00511 0.988743
1.00002 1.00501 0.989384
1.00047 1.00488 0.989483
1.00029 1.00359 0.9908
1.00004 1.00003 0.994646
1.00028 1.0027 0.99175
1.00016 0.999487 0.995078
1.00008 0.997405 0.99892
1.00021 0.999248 0.995238
1.00014 0.9973 0.998233
1.00011 0.997268 0.998958
1.0006 1.00324 0.990749
1.00038 1.0016 0.992614
1.00063 1.00273 0.991022
1.00023 0.998547 0.995906
1.00025 1.00134 0.992966
1.00045 1.00281 0.991369
1.0001 0.99675 0.99917
1.00017 0.998237 0.996302
1.00021 1.0008 0.993435
1.00007 0.996691 0.999239
1.00011 0.998071 0.996563
1.00004 0.996662 0.999276
0.994834 0.994837 0.829653
0.994802 0.994842 0.830836
0.994816 0.994831 0.825477
1.00028 1.00442 0.989643
1.00117 1.00411 0.989784
1.00078 1.00292 0.990749
1.00067 1.00326 0.990352
1.00061 1.00236 0.991385
1.00034 1.00296 0.991243
1.00028 1.00194 0.992355
0.994832 0.994802 0.816989
0.994875 0.994838 0.824901
0.99481 0.994812 0.824884
0.994885 0.994862 0.822967
0.99515 0.99488 0.958301
0.994854 0.999244 0.931606
0.99543 0.995886 0.886386
0.995369 0.99494 0.956687
0.994841 0.998767 0.928809
0.995494 0.997755 0.882953
0.994887 0.994827 0.824616
0.996056 0.996373 0.960447
0.995042 0.999527 0.930072
0.995303 0.996479 0.864948
0.994735 0.994815 0.810467
0.998059 1.0048 0.993514
0.999648 1.00381 0.991773
1.00041 1.00466 0.989758
1.00089 1.00342 0.990265
0.995123 1.00124 0.988108
0.995967 1.00327 0.997573
0.998218 1.00508 0.992962
0.997228 1.0053 0.993948
0.995731 1.00514 0.997553
0.997415 1.00477 0.994299
0.995556 1.00482 0.99799
0.995888 1.00265 0.981497
0.995064 1.00509 0.995889
0.995848 1.00402 0.997362
0.994815 1.00489 0.980699
0.995245 1.00317 0.99902
0.99478 0.994816 0.830502
0.994838 0.994831 0.832687
0.99479 0.994828 0.828934
0.994791 1.00306 0.999485
0.994846 0.999351 0.976413
0.994819 0.99484 0.831315
0.995293 0.99748 0.932353
0.996003 0.996871 0.884845
0.994826 0.994822 0.825871
0.994696 0.994807 0.817372
0.994874 1.00446 0.991908
0.994808 0.994838 0.831079
0.994759 0.994783 0.818543
0.994886 0.999854 0.96727
0.994703 0.994814 0.816949
0.99473 0.997345 0.867156
0.995205 0.998814 0.928018
0.994968 1.0048 0.98585
0.994833 0.994819 0.825119
0.994678 0.994774 0.811973
0.996425 0.994858 0.886348
0.994787 0.998369 0.939585
0.994819 0.999988 0.96028
0.994949 1.00527 0.998786
0.995705 1.00408 0.997681
0.99692 1.00002 0.999121
0.995312 1.00501 0.997645
0.997743 1.00021 0.998471
1.00197 0.999189 0.993491
1.00361 1.00111 0.990867
1.00316 1.00486 0.985068
1.00368 1.00416 0.983457
1.00396 1.00405 0.983998
1.00446 1.00473 0.982172
1.00438 1.00423 0.982786
1.00519 1.00001 0.985345
1.00513 1.00104 0.984879
1.00503 1.00188 0.983926
1.0051 1.00165 0.984528
1.00506 1.00176 0.984183
1.00455 1.00314 0.983465
1.00511 1.00108 0.985539
1.00497 1.00162 0.984828
1.00513 1.00205 0.984093
1.00231 1.00384 0.987361
1.00327 1.00128 0.987955
1.0043 1.0002 0.987309
1.00049 1.00484 0.98881
1.00109 1.00499 0.988092
1.0016 1.00388 0.98871
1.0001 1.00057 0.993994
1.00044 1.00428 0.98986
1.00087 1.0051 0.98875
1.00035 1.0035 0.990803
1.00007 1.00008 0.994612
1.00003 0.997665 0.99885
1.00017 0.99952 0.995052
1.00008 0.99742 0.998907
1.00011 0.997273 0.998935
1.00008 1.00508 0.989817
1.00071 1.00401 0.989891
1.00049 1.00206 0.992006
1.00061 1.00315 0.990734
1.00026 0.998882 0.995504
1.00037 1.00164 0.992604
1.00065 1.00272 0.991078
1.00012 0.996912 0.999077
1.00022 0.998525 0.995928
1.00026 1.00135 0.993048
1.0001 0.996737 0.999188
1.00017 0.998209 0.996323
1.00007 0.996667 0.99925
0.994797 0.994834 0.824557
0.994817 0.994833 0.830117
0.994811 0.994832 0.830854
1.00043 1.00465 0.989618
1.00065 1.00359 0.989958
1.00012 1.00288 0.990218
0.999844 1.0045 0.989925
1.00153 1.00341 0.99034
1.00077 1.00343 0.990245
1.00042 1.00249 0.991552
1.00043 1.00296 0.991266
1.00037 1.00213 0.992362
0.999016 1.00398 0.992715
0.994753 0.994778 0.820361
0.994815 0.994799 0.817824
0.994877 0.994831 0.826245
0.995043 0.994839 0.825563
0.995985 0.997022 0.868355
0.995064 0.995261 0.95538
0.994869 0.997742 0.940709
0.995389 0.996701 0.956773
0.994891 0.996195 0.941789
0.994974 0.999124 0.873519
0.994752 0.994802 0.809022
0.994848 0.998896 0.960239
0.994831 1.00077 0.941656
0.99477 0.998133 0.888646
0.994707 0.994834 0.827169
0.998334 1.00222 0.99587
0.997697 1.00468 0.993764
0.999591 1.00369 0.992046
0.996488 1.0024 0.977825
0.994953 1.00514 0.996217
0.997223 1.00471 0.994344
0.995121 1.00487 0.997996
0.996176 1.00404 0.997345
0.995181 1.00283 0.999308
0.994891 1.00257 0.979992
0.995821 1.00127 1.00001
0.99571 1.0005 0.98626
0.994817 0.99482 0.833259
0.99479 0.994826 0.829944
0.994831 0.994829 0.835745
0.994892 1.00385 0.992242
0.994841 0.999533 0.964782
0.994822 0.994843 0.831113
0.994853 0.999328 0.939667
0.994755 0.999057 0.887503
0.994742 0.994764 0.818695
0.994731 0.994827 0.807251
0.995316 1.00462 0.986587
0.994816 0.994826 0.825274
0.994702 0.994776 0.811044
0.995035 0.99935 0.961295
0.996147 0.996205 0.884011
0.994867 0.998071 0.934454
0.995147 1.00318 0.9836
0.994686 0.994784 0.814739
0.998319 0.994833 0.887516
0.996288 0.996747 0.93108
0.994849 0.996563 0.962694
0.995509 1.00498 0.997759
0.99644 1.00096 0.999084
0.998969 1.00215 0.995666
0.996051 1.0021 0.99873
1.00085 0.999609 0.994143
1.00355 0.999343 0.989711
1.00397 1.00484 0.984323
1.00364 1.00426 0.983339
1.00425 1.00125 0.985218
1.00474 1.00453 0.982114
1.00446 1.00379 0.982874
1.00496 1.00008 0.985846
1.00527 0.997453 0.987648
1.00524 0.999511 0.985704
1.00519 0.99992 0.985428
1.00519 1.00088 0.985098
1.00513 1.00108 0.98479
1.00504 1.00204 0.983894
1.00517 1.002 0.984414
1.00499 1.00157 0.984559
1.00505 1.00167 0.984186
1.0043 1.00168 0.98625
1.00459 1.00148 0.985638
1.00488 1.0019 0.984677
1.00096 1.0051 0.987451
1.00221 1.00377 0.987362
1.00323 1.00146 0.98824
1.00008 1.00148 0.9941
1.00075 1.00482 0.988817
1.00143 1.0048 0.988147
1.00005 0.998169 0.996784
1.0001 1.00078 0.994346
1.00057 1.00416 0.989863
1.00009 1.00016 0.994577
1.00004 0.997741 0.998802
1.00008 0.997433 0.998892
1.00047 1.00509 0.989213
1.00082 1.00491 0.989059
0.999792 1.0051 0.989701
1.00053 1.00287 0.99117
1.00053 1.00426 0.989867
1.00023 0.999267 0.995171
1.00047 1.00206 0.992017
1.00072 1.00307 0.990717
1.00012 0.997162 0.998984
1.00026 0.998862 0.99552
1.00036 1.00168 0.992594
1.00012 0.996901 0.999107
1.00022 0.998489 0.995951
1.0001 0.996737 0.999206
0.994787 0.994823 0.834694
0.994807 0.994836 0.824588
0.994805 0.994847 0.830603
1.00143 1.00177 0.98992
1.00004 1.00505 0.989593
1.00046 1.00341 0.990144
1.00046 1.00478 0.989659
1.001 1.0025 0.990286
1.00071 1.0032 0.991398
1.00292 1.00227 0.987837
0.998479 1.00493 0.991446
1.00049 1.00289 0.991287
1.00009 1.00201 0.992368
0.998809 1.00385 0.992628
0.998095 1.00501 0.99331
0.994715 0.994802 0.819061
0.994775 0.994783 0.819858
0.994816 0.994797 0.818498
0.994779 0.994814 0.822372
0.994897 0.99902 0.872411
0.995341 0.998538 0.930227
0.994924 0.996063 0.956842
0.994881 0.999251 0.959447
0.994715 0.994837 0.817347
0.994868 0.996688 0.934021
0.994762 0.99849 0.872305
0.994923 0.996573 0.965024
0.994867 0.999464 0.942711
0.996128 0.994855 0.885616
0.999519 0.996003 0.999504
0.998243 1.00204 0.995803
0.997645 1.0045 0.994
0.994906 1.00171 0.979759
0.994923 1.00233 0.999559
0.996765 1.00391 0.997318
0.99689 1.00084 1.00018
0.995224 0.999316 0.986439
0.996464 0.99831 0.99215
0.994716 0.994845 0.82786
0.994815 0.994812 0.834741
0.994799 0.994827 0.829315
0.99499 1.00438 0.986865
0.994863 0.999972 0.961014
0.9948 0.994833 0.825607
0.994839 0.999351 0.930091
0.996279 0.994864 0.868767
0.994741 0.99479 0.822779
0.994779 1.00458 0.983571
0.994696 0.994818 0.826845
0.998372 0.994792 0.869264
0.994862 0.995867 0.958441
0.996315 0.998195 0.942019
0.994873 1.00277 0.989541
0.999802 0.994841 0.862113
0.998679 0.99488 0.943904
0.994847 0.99485 0.957562
0.995943 1.00162 0.999106
0.998293 1.00128 0.995393
1.00142 1.00313 0.991217
0.99979 0.999791 0.9948
1.00285 0.999968 0.989533
1.00427 0.999484 0.987878
1.00371 1.00434 0.983221
1.00426 1.00139 0.985142
1.00505 0.996945 0.988055
1.00446 1.00325 0.982963
1.00481 0.999939 0.985855
1.00528 0.996065 0.989015
1.00525 0.995869 0.989642
1.00527 0.997645 0.98757
1.00528 0.997388 0.987769
1.00526 0.999321 0.985921
1.00523 0.999477 0.98589
1.00518 0.999859 0.985512
1.00526 1.00123 0.984512
1.00519 1.0008 0.985055
1.00513 1.00109 0.984699
1.00514 1.00124 0.98503
1.00501 1.00193 0.984446
1.00487 1.00147 0.98459
1.00249 1.00388 0.986599
1.004 1.00204 0.986168
1.00399 1.00186 0.985739
1.00015 1.00235 0.992072
1.00148 1.00501 0.987473
1.00215 1.00389 0.987358
0.999825 0.998955 0.998478
1.00012 1.00156 0.993043
1.00098 1.00476 0.988825
1.00004 0.998133 0.998634
1.00009 1.00082 0.993867
1.00006 0.99779 0.998749
1.00257 1.0034 0.988135
1.00052 1.00506 0.989044
1.00093 1.00507 0.988661
1.00052 1.00377 0.990258
1.00058 1.00495 0.989035
0.999992 1.0051 0.989587
1.00015 0.99981 0.994783
1.00049 1.00287 0.991195
1.00032 1.00436 0.98984
1.0001 0.997385 0.998911
1.00024 0.99921 0.995187
1.00046 1.00205 0.992027
1.00012 0.997124 0.999011
1.00025 0.998847 0.995536
1.00011 0.996856 0.999136
0.994717 0.994808 0.812481
0.994807 0.994825 0.834974
0.994813 0.994838 0.824639
1.00131 1.00247 0.989869
1.00458 1.00163 0.987103
1.00183 1.00335 0.988971
1.00047 1.00466 0.989391
1.00213 1.00221 0.990351
0.999466 1.00253 0.992432
0.999284 1.0047 0.991051
1.00201 1.00282 0.988595
1.00211 1.003 0.988837
0.99928 0.99992 0.995689
0.999512 1.00376 0.992534
0.998446 1.0049 0.993222
0.998958 0.994815 0.862727
0.994685 0.994793 0.812614
0.994783 0.994786 0.819916
0.994731 0.994822 0.806987
0.994804 0.997387 0.890148
0.994839 0.99864 0.92954
0.99498 0.996935 0.957979
0.994877 0.996869 0.962925
0.99638 0.997592 0.883616
0.994851 0.997701 0.930929
0.994863 0.997313 0.966117
0.996123 0.995178 0.931117
1.00031 0.995678 1.00059
0.999318 0.997292 0.999471
0.998065 1.00192 0.995762
0.994936 0.998942 0.986747
0.997656 1.0002 1.00035
0.996947 0.998379 0.991842
0.996874 0.995902 0.990728
0.999792 0.99492 0.875975
0.994706 0.994831 0.825486
0.994821 0.994813 0.836073
0.994793 1.00487 0.983892
0.994858 0.994898 0.956876
0.994692 0.994831 0.826643
0.996108 0.994793 0.931317
0.99891 0.994829 0.887616
0.994876 1.00079 0.986337
0.999786 0.994856 0.87387
0.9991 0.995497 0.930624
0.994856 0.994812 0.959586
0.996936 0.998087 0.987864
0.999948 0.994888 0.943673
0.995291 0.994822 0.964267
0.997895 1.0003 0.99509
1.00043 1.00126 0.991291
1.00371 0.999616 0.99065
1.00216 1.00091 0.989371
1.00407 0.999391 0.987863
1.00515 0.996239 0.989171
1.00431 1.00157 0.985071
1.00497 0.99743 0.987994
1.00526 0.995081 0.989951
1.00471 0.999792 0.985862
1.00528 0.996136 0.988961
1.00524 0.995048 0.990377
1.00525 0.99524 0.990406
1.00526 0.995797 0.9898
1.00523 0.996277 0.989503
1.00528 0.997987 0.987538
1.00526 0.997702 0.987698
1.0053 0.997314 0.987892
1.00529 1.00004 0.985592
1.00527 0.999366 0.985884
1.00522 0.999418 0.986076
1.00527 1.00153 0.984456
1.00527 1.00124 0.984547
1.00519 1.00075 0.985012
1.00347 1.00272 0.986189
1.00504 1.00136 0.985016
1.00481 1.00188 0.984478
1.00061 1.00292 0.990808
1.00255 1.0039 0.986587
1.00388 1.00212 0.98609
1.00002 0.999227 0.998207
1.00031 1.00225 0.992037
1.00189 1.00484 0.987494
0.999967 0.998885 0.997409
1.00019 1.00156 0.993043
1.00006 0.998378 0.998532
1.00393 1.00095 0.98788
1.00176 1.00339 0.988311
1.00081 1.00506 0.988305
1.00049 1.00503 0.988867
1.00063 1.00508 0.988695
1.00072 1.00447 0.989363
1.00012 1.00054 0.994145
1.00044 1.00391 0.990247
1.00022 1.00506 0.989012
1.00007 0.997676 0.998801
1.00015 0.999739 0.994807
1.00044 1.00289 0.991219
1.00009 0.99736 0.998932
1.00025 0.999165 0.995208
1.00011 0.997094 0.999039
0.999792 0.994831 0.873623
0.994703 0.994817 0.818041
0.994816 0.994823 0.835262
1.00107 1.00268 0.989821
1.00175 1.00367 0.988169
1.00391 1.00224 0.987185
1.00506 1.00357 0.98314
1.00173 1.00302 0.988569
0.999644 1.00485 0.990689
1.00142 1.00324 0.989347
1.00122 1.00318 0.98942
1.00425 0.997627 0.988627
1.00194 0.99954 0.992645
1.0029 0.995901 0.993724
1.00017 0.999323 0.995532
0.999349 1.00375 0.993144
0.998073 0.99487 0.941355
0.999095 0.994782 0.867414
0.99466 0.99479 0.817765
0.996459 0.99522 0.869979
0.994865 0.999303 0.939946
0.994889 0.995591 0.964259
0.99487 0.996907 0.967797
0.996762 0.998756 0.943056
0.995726 0.994811 0.967284
0.999684 0.996094 0.999437
0.999668 0.996066 1.00062
0.999037 0.998605 0.999412
0.997508 0.997912 0.991655
0.997646 0.996518 0.990989
0.999979 0.994896 0.931951
0.999793 0.994891 0.881473
0.994691 0.994815 0.823225
0.994875 0.999592 0.982851
0.99507 0.994806 0.957767
0.999799 0.994827 0.87321
0.998398 0.99485 0.942828
0.996657 0.998024 0.988099
1.00053 0.994891 0.939917
0.996263 0.99485 0.961991
1.00052 0.994835 0.988016
0.998376 0.994872 0.972014
0.999264 0.99938 0.991428
1.00307 0.997896 0.990684
1.00495 0.995207 0.991514
1.00391 0.999095 0.987839
1.0051 0.996128 0.989046
1.00525 0.994874 0.990344
1.0048 0.997885 0.987933
1.00525 0.995143 0.989899
1.00524 0.994874 0.990487
1.00527 0.996199 0.988908
1.00524 0.995084 0.990343
1.00526 0.994909 0.990602
1.00525 0.995175 0.99047
1.00522 0.99546 0.990385
1.00525 0.99573 0.989958
1.00523 0.996259 0.989502
1.00523 0.996843 0.988881
1.00529 0.998945 0.986793
1.00528 0.998049 0.987518
1.00526 0.997759 0.987826
1.00532 1.00114 0.984599
1.0053 1.00012 0.985463
1.00527 0.999412 0.985847
1.00413 1.00196 0.985797
1.00515 1.00158 0.984499
1.00527 1.00127 0.984582
1.00114 1.00303 0.989787
1.00331 1.00295 0.986188
1.00476 1.00164 0.985002
1.00014 0.999979 0.997798
1.00073 1.00275 0.990803
1.00273 1.00397 0.986575
1.0001 0.999378 0.998066
1.00048 1.00217 0.992
1.00009 0.998815 0.998291
1.00506 1.00259 0.984184
1.00364 1.00098 0.987759
1.00203 1.00356 0.987542
1.0011 1.00348 0.988504
1.0009 1.00501 0.988122
1.00099 1.00495 0.988428
1.00049 1.00508 0.988724
1.0005 1.00466 0.989327
1.0002 1.00128 0.993271
1.00005 0.998112 0.998595
1.00009 1.00048 0.994166
1.00033 1.00402 0.990237
1.00005 0.997637 0.998841
1.00015 0.999662 0.994822
1.00009 0.997333 0.998953
0.999971 0.994879 0.944788
0.999813 0.994856 0.873231
0.994683 0.994808 0.812383
1.0015 1.00459 0.987362
1.00319 1.00269 0.987271
1.00283 1.00286 0.988018
1.00463 1.00331 0.983716
1.00519 1.00111 0.984553
1.00353 1.00041 0.986875
1.00042 1.00346 0.989977
1.00443 0.99773 0.988306
1.002 0.999172 0.992754
1.00386 0.996133 0.990287
1.00407 0.996772 0.991816
1.00271 0.996667 0.99319
1.00247 0.996134 0.99376
0.99966 0.999879 0.995374
0.995902 0.994858 0.965407
0.999021 0.996101 0.937072
0.997966 0.99484 0.883844
0.996182 0.996902 0.930764
0.994935 0.996803 0.968268
0.995476 0.995684 0.973141
0.99924 0.994873 0.992835
1.00037 0.995522 0.998991
0.999036 0.996235 1.00068
0.998755 0.998357 0.991288
0.997289 0.995705 0.966593
1.00009 0.994876 0.945357
0.999798 0.994896 0.864898
0.996157 0.998047 0.988412
0.996725 0.994859 0.96265
0.999882 0.994872 0.935826
1 0.995291 0.988319
0.99854 0.994878 0.97127
1.00288 0.995017 0.990326
1.00322 0.996997 0.985022
1.00217 0.996346 0.990701
1.00447 0.995173 0.991532
1.00519 0.994783 0.990927
1.005 0.996158 0.988922
1.00525 0.994874 0.990295
1.00527 0.99491 0.990491
1.00525 0.995222 0.989845
1.00524 0.994883 0.990467
1.00527 0.994909 0.990531
1.00524 0.995122 0.990309
1.00525 0.994914 0.990596
1.00525 0.994941 0.990642
1.00525 0.995104 0.990532
1.00522 0.99538 0.990416
1.00523 0.996035 0.989868
1.00522 0.996245 0.9895
1.00523 0.996881 0.98887
1.00527 0.99813 0.987731
1.00532 1.00035 0.985435
1.0053 0.99911 0.986575
1.00528 0.998112 0.987497
1.00491 1.00091 0.985553
1.00531 1.00115 0.98464
1.0053 1.0002 0.985334
1.00167 1.00267 0.989153
1.00399 1.00224 0.985797
1.00503 1.00162 0.984539
1.00049 1.00058 0.997329
1.00121 1.00288 0.989782
1.00315 1.0032 0.986186
1.00032 1.00015 0.997607
1.00078 1.00261 0.990807
1.00023 0.999559 0.997893
1.00501 1.00176 0.984479
1.00505 1.00229 0.984381
1.00421 1.00208 0.985503
1.00335 1.00158 0.987636
1.00206 1.00359 0.987343
1.00196 1.00457 0.987353
1.00089 1.0049 0.987942
1.00085 1.00503 0.988433
1.00032 1.00209 0.992326
1.00038 1.00489 0.989293
1.0001 1.00137 0.9933
1.00002 0.998795 0.998324
1.00002 0.998078 0.998673
1.00004 1.00047 0.994191
1.00004 0.997583 0.998875
0.996885 0.99488 0.967016
0.99995 0.994871 0.931415
0.999812 0.994869 0.885005
1.00524 0.998987 0.986356
1.00403 1.00275 0.987481
1.00417 1.00306 0.984292
1.00432 1.00023 0.987144
1.00516 1.00132 0.984511
1.00488 0.997962 0.988136
1.0048 0.999118 0.987989
1.00181 0.998422 0.992869
1.00448 0.996777 0.990148
1.00391 0.99696 0.990907
1.00478 0.996176 0.989646
1.00326 0.994966 0.994268
1.00272 0.996293 0.993259
1.00233 0.996369 0.993785
0.998784 0.994858 0.991238
0.995835 0.994867 0.963792
0.998716 0.994848 0.932168
0.995125 0.996174 0.972121
0.998864 0.994863 0.995519
1.00046 0.995076 0.998491
1.00191 0.995498 0.982069
0.997333 0.995174 0.966753
0.999987 0.994892 0.93201
0.999284 0.995239 0.988639
0.998886 0.994885 0.970532
1.00203 0.994864 0.990831
1.00308 0.996237 0.98587
1.00394 0.994998 0.991189
1.00472 0.997041 0.990894
1.00408 0.995031 0.991538
1.00514 0.994814 0.99082
1.00533 0.994858 0.990423
1.00525 0.994873 0.990247
1.00526 0.9949 0.990489
1.00531 0.9949 0.990462
1.00524 0.994893 0.990447
1.00527 0.994905 0.990541
1.00527 0.994902 0.990675
1.00523 0.994919 0.990589
1.00525 0.994937 0.990629
1.00525 0.995202 0.990535
1.00522 0.9953 0.990447
1.00523 0.995906 0.98999
1.00528 0.99727 0.988668
1.00523 0.996915 0.988859
1.00527 0.998064 0.987801
1.00531 0.999943 0.985978
1.00515 1.00058 0.985508
1.00532 1.00048 0.98529
1.0053 0.999272 0.986358
1.00247 1.00152 0.989025
1.00479 1.00107 0.985559
1.0053 1.00115 0.984682
1.00081 1.0008 0.996995
1.00192 1.00237 0.989143
1.00384 1.00243 0.985801
1.00062 1.00064 0.99719
1.00134 1.00276 0.989779
1.00047 1.0003 0.997434
1.00528 1.00039 0.98523
1.00517 1.00178 0.984373
1.0051 1.0013 0.98494
1.00516 1.00194 0.984577
1.00441 1.00196 0.985464
1.00294 1.00373 0.986538
1.00223 1.00328 0.987143
1.00169 1.00472 0.987366
1.00055 1.00262 0.991301
1.00069 1.00507 0.988434
1.00017 1.00212 0.992352
1 0.999526 0.998016
0.999998 1.00135 0.993328
0.999989 0.998675 0.998426
0.999991 0.99798 0.998742
1.00047 0.994911 0.987021
0.996695 0.99489 0.963495
0.99998 0.994875 0.94458
1.00515 0.997489 0.988143
1.00528 0.997066 0.9884
1.00525 0.99876 0.986619
1.00505 0.999591 0.987407
1.00514 1.0016 0.984471
1.0049 0.997828 0.988416
1.00517 0.995615 0.989385
1.00492 0.996692 0.990018
1.00376 0.997542 0.990004
1.00458 0.996706 0.990064
1.00506 0.99512 0.990768
1.00367 0.994992 0.993066
1.00291 0.99515 0.993954
1.00299 0.995846 0.993341
0.999472 0.994875 0.991321
0.995774 0.994862 0.962346
0.998814 0.994855 0.998326
1.00459 0.99488 0.9908
1.00179 0.996033 0.982198
0.99745 0.994864 0.965146
1.0017 0.994784 0.991297
1.00294 0.9954 0.986739
1.00395 0.994946 0.991855
1.00475 0.996184 0.991002
1.00531 0.994812 0.990909
1.00541 0.994873 0.991153
1.0051 0.994834 0.990716
1.00535 0.99486 0.990395
1.00535 0.994873 0.990492
1.00524 0.994888 0.990487
1.00531 0.994901 0.990486
1.00527 0.994902 0.990658
1.00526 0.994901 0.990552
1.00527 0.994901 0.99067
1.00526 0.994955 0.990817
1.00525 0.994934 0.990617
1.00525 0.995209 0.990511
1.00528 0.996483 0.98937
1.00523 0.995774 0.990112
1.00527 0.997201 0.988717
1.00533 0.999406 0.986465
1.00527 0.997997 0.987872
1.00531 0.999852 0.986086
1.00521 1.00045 0.985557
1.00282 1.00066 0.98923
1.00514 1.0006 0.985515
1.00533 1.00061 0.985145
1.00105 1.00079 0.996808
1.0025 1.00146 0.989016
1.00467 1.0013 0.985566
1.0009 1.00086 0.996901
1.00206 1.00215 0.989132
1.00073 1.00079 0.997056
1.00528 0.998611 0.986938
1.00526 1.00024 0.985424
1.00527 1.00089 0.985038
1.00519 1.00175 0.984268
1.00515 1.00124 0.984938
1.00354 1.00253 0.986422
1.00461 1.00187 0.98543
1.00283 1.00348 0.986536
1.0009 1.00296 0.990251
1.00136 1.00482 0.987379
1.00045 1.00274 0.991335
1.00011 1.00034 0.997662
1.00009 1.00224 0.992377
0.999964 0.999385 0.998135
0.999944 0.998572 0.998519
1.00434 0.994866 0.992166
1.00066 0.994913 0.984817
0.996563 0.994908 0.962954
1.00522 0.996403 0.989302
1.00513 0.997054 0.988452
1.00526 0.99592 0.989657
1.00528 0.997097 0.988368
1.00525 0.998494 0.986877
1.0053 0.994916 0.990066
1.00502 0.997877 0.988686
1.0052 0.995925 0.989398
1.00527 0.994833 0.990543
1.00448 0.997085 0.990481
1.00505 0.995195 0.990455
1.00339 0.995038 0.99333
1.00232 0.995587 0.993645
0.999935 0.994896 0.991217
1.00537 0.994887 0.990864
1.00458 0.995746 0.991026
1.0016 0.996477 0.982389
1.00384 0.994805 0.992505
1.00474 0.995413 0.991117
1.0053 0.994806 0.990964
1.00542 0.994896 0.991086
1.00538 0.994871 0.990906
1.00537 0.994866 0.99037
1.00535 0.994878 0.990505
1.00528 0.994903 0.990795
1.0053 0.994904 0.99051
1.00528 0.994905 0.990655
1.00522 0.9949 0.990978
1.00527 0.9949 0.990665
1.00527 0.994944 0.990789
1.00528 0.995774 0.990149
1.00525 0.995216 0.990487
1.00529 0.996516 0.989362
1.00535 0.99887 0.987041
1.00527 0.997132 0.988767
1.00533 0.999415 0.986489
1.00521 1.00039 0.985656
1.00531 0.999764 0.986193
1.00521 1.00046 0.985571
1.00287 1.00029 0.991196
1.00143 1.00024 0.993441
1.00287 1.00065 0.990058
1.00509 1.00064 0.985522
1.00109 1.0008 0.996792
1.00264 1.00126 0.989002
1.00096 1.00091 0.996825
1.00524 0.995817 0.990032
1.00526 0.997393 0.988392
1.00528 0.998598 0.987129
1.00531 1.00028 0.98554
1.00525 1.00012 0.98562
1.00529 1.00092 0.984974
1.00422 1.00135 0.986282
1.00519 1.00121 0.984934
1.0037 1.00208 0.986413
1.00154 1.00277 0.989427
1.00281 1.00322 0.98653
1.00088 1.00307 0.990241
1.00037 1.00093 0.997234
1.00033 1.00277 0.991366
1 1.00008 0.997803
0.999916 0.999251 0.998245
1.00536 0.994835 0.990805
1.00438 0.9948 0.991904
1.00113 0.994871 0.982677
1.0053 0.995267 0.990137
1.00517 0.996375 0.98918
1.00515 0.996641 0.988764
1.00526 0.996085 0.989617
1.00528 0.997135 0.988334
1.00536 0.994832 0.990524
1.00531 0.994927 0.990087
1.00521 0.996202 0.98941
1.00523 0.994834 0.990582
1.00505 0.995233 0.99014
1.00322 0.994862 0.993595
1.00535 0.994913 0.990964
1.00539 0.994885 0.991046
1.00461 0.996434 0.991248
1.0053 0.994803 0.991002
1.00543 0.994905 0.991023
1.00538 0.994873 0.990869
1.00528 0.994929 0.991065
1.00535 0.994883 0.990517
1.00528 0.994906 0.990764
1.00519 0.994932 0.991115
1.00528 0.994909 0.990651
1.00523 0.994901 0.990963
1.00527 0.995258 0.99076
1.00527 0.994935 0.990761
1.00528 0.9958 0.990137
1.00535 0.998364 0.987605
1.0053 0.996548 0.989355
1.00535 0.998874 0.987063
1.00517 1.00034 0.985789
1.00532 0.999422 0.986514
1.00522 1.00037 0.985674
1.00296 1.00006 0.991303
1.00521 1.00047 0.985582
1.00308 1.00018 0.991068
1.00149 0.999955 0.99365
1.00116 1.00052 0.995198
1.00308 1.0006 0.990713
1.0011 1.00082 0.996789
1.00525 0.995127 0.99072
1.00525 0.997033 0.988768
1.00523 0.995684 0.99019
1.00532 0.999522 0.986311
1.00525 0.997451 0.988382
1.00528 0.998575 0.987321
1.00531 1.00032 0.985481
1.00493 1.00043 0.985967
1.0053 1.00095 0.984909
1.00437 1.00107 0.986275
1.0022 1.00191 0.989086
1.00379 1.0017 0.986409
1.00136 1.00293 0.989418
1.00062 1.00129 0.996905
1.00072 1.00323 0.990249
1.00021 1.0008 0.997405
0.999954 0.999921 0.997935
1.00532 0.994897 0.990748
1.00532 0.994835 0.990827
1.0043 0.994801 0.991638
1.0053 0.99486 0.990674
1.00528 0.995328 0.990114
1.00509 0.996354 0.989064
1.00526 0.996251 0.989577
1.00535 0.994838 0.990528
1.00532 0.994939 0.990107
1.00518 0.994835 0.990621
1.00529 0.994956 0.991059
1.00533 0.994914 0.990946
1.0054 0.994897 0.991225
1.00524 0.994952 0.991183
1.00538 0.994871 0.990833
1.00528 0.99493 0.991053
1.00518 0.994951 0.991195
1.00528 0.99491 0.990733
1.00519 0.994931 0.991117
1.00527 0.995001 0.991104
1.00524 0.994902 0.990948
1.00525 0.995273 0.990752
1.00535 0.99792 0.988088
1.00528 0.995825 0.990124
1.00535 0.99837 0.987623
1.00513 1.00021 0.986006
1.00534 0.998878 0.987086
1.0052 1.00031 0.985811
1.00295 1.00009 0.991275
1.00524 1.00035 0.985691
1.00313 0.999998 0.991148
1.00155 0.999853 0.993662
1.00328 1.00006 0.990948
1.00106 1.00012 0.993943
1.00057 1.00086 0.997298
1.00526 0.994917 0.990824
1.00528 0.996184 0.989698
1.00525 0.995186 0.990631
1.00534 0.999149 0.986746
1.00526 0.996721 0.989021
1.00522 0.995547 0.990348
1.00521 1.00008 0.985924
1.00531 0.99952 0.986269
1.00526 0.997507 0.988373
1.00531 1.00034 0.985422
1.005 1.00036 0.985958
1.00265 1.001 0.989201
1.00454 1.00078 0.986268
1.00206 1.00211 0.98911
1.00079 1.00132 0.996791
1.00132 1.00305 0.989397
1.00053 1.00116 0.997022
1.00006 1.00058 0.997567
1.00527 0.994911 0.990955
1.00532 0.994897 0.990714
1.0053 0.994833 0.990851
1.0053 0.994864 0.990706
1.00526 0.995389 0.990091
1.00534 0.994846 0.990532
1.00525 0.994963 0.991112
1.00529 0.99495 0.991068
1.00532 0.994916 0.990929
1.00524 0.994953 0.991174
1.00515 0.994948 0.991391
1.00528 0.994931 0.991042
1.00518 0.994951 0.991235
1.00526 0.994935 0.991179
1.00519 0.99493 0.991118
1.00525 0.994999 0.991094
1.00537 0.997541 0.988488
1.00523 0.995279 0.990744
1.00536 0.997918 0.988094
1.00509 0.99999 0.986327
1.00534 0.998375 0.987641
1.00516 1.00019 0.986022
1.00288 1.00019 0.991247
1.00522 1.00027 0.985832
1.00311 1.00003 0.991111
1.00157 0.999898 0.993588
1.00329 0.999943 0.991003
1.00117 0.999897 0.993981
1.00066 1.0003 0.99422
1.00525 0.994912 0.991024
1.00526 0.995559 0.990385
1.00526 0.994908 0.990829
1.00535 0.998274 0.987634
1.00528 0.996258 0.989602
1.00526 0.995246 0.990542
1.00526 0.999954 0.986013
1.00534 0.9988 0.987027
1.00526 0.996416 0.989275
1.00287 1.00028 0.989538
1.00521 1.00006 0.985913
1.00531 0.999524 0.986226
1.00503 1.0003 0.985952
1.00259 1.00109 0.989221
1.00095 1.00106 0.996837
1.0019 1.0023 0.989134
1.00076 1.00124 0.996825
1.0004 1.00109 0.997157
1.00525 0.994953 0.99108
1.00528 0.994915 0.99093
1.00531 0.994897 0.99068
1.00531 0.994867 0.990737
1.00516 0.99496 0.991375
1.00525 0.994958 0.991121
1.00529 0.994945 0.991077
1.00524 0.994954 0.991166
1.00516 0.994948 0.991373
1.00525 0.99529 0.990882
1.00518 0.99495 0.991274
1.00526 0.995133 0.991001
1.00537 0.996894 0.989173
1.00524 0.995004 0.991085
1.00538 0.997537 0.988483
1.00502 0.999766 0.986688
1.00538 0.997929 0.988098
1.00511 0.99997 0.986331
1.00286 1.00024 0.989693
1.00518 1.00016 0.986038
1.00303 1.00016 0.990293
1.00135 0.999969 0.996857
1.00327 0.999993 0.990947
1.00123 0.999882 0.993913
1.00082 0.999936 0.994282
1.00522 0.994954 0.991122
1.00524 0.995403 0.990701
1.00525 0.994921 0.991025
1.00533 0.997661 0.98833
1.00526 0.99572 0.990179
1.00526 0.9949 0.990834
1.00524 0.999596 0.986402
1.00535 0.998262 0.987653
1.00528 0.996327 0.989506
1.00296 0.999874 0.989775
1.00525 0.999804 0.986126
1.00533 0.998448 0.98731
1.00109 1.0006 0.996937
1.00287 1.00025 0.989545
1.00524 1.00003 0.985897
1.0025 1.00118 0.98924
1.00094 1.00103 0.996807
1.00071 1.00119 0.996875
1.00514 0.994969 0.991286
1.00524 0.994956 0.991083
1.00528 0.994921 0.990904
1.00523 0.99533 0.990935
1.00516 0.99496 0.991346
1.00525 0.994954 0.991129
1.00517 0.994949 0.991356
1.00525 0.99533 0.990881
1.00536 0.997067 0.989039
1.00527 0.995343 0.990822
1.00537 0.997264 0.988801
1.00494 0.999244 0.987346
1.0054 0.997519 0.988478
1.00503 0.999754 0.986691
1.00277 1.00015 0.989938
1.00514 0.999952 0.986336
1.00287 1.00022 0.989705
1.00129 1.00002 0.99686
1.00307 1.00014 0.989478
1.0012 0.999976 0.995416
1.00089 0.999835 0.994236
1.00514 0.994967 0.991308
1.00522 0.995288 0.990948
1.0052 0.994955 0.991139
1.00533 0.997852 0.988163
1.00525 0.995336 0.990718
1.00524 0.99493 0.991027
1.00518 0.999533 0.986588
1.00533 0.998009 0.987972
1.00526 0.99588 0.989973
1.00303 0.999776 0.989794
1.00522 0.99958 0.986415
1.00535 0.99825 0.987671
1.00126 1.00019 0.99696
1.003 0.999828 0.989778
1.00524 0.99965 0.986237
1.00112 1.00061 0.996897
1.0029 1.00023 0.989555
1.0009 1.00103 0.996806
1.00521 0.995391 0.990844
1.00515 0.994969 0.991311
1.00524 0.994959 0.991085
1.00536 0.997063 0.989069
1.00523 0.995368 0.990908
1.00517 0.994959 0.991317
1.00525 0.995364 0.99088
1.00536 0.997089 0.989046
1.00488 0.999074 0.987609
1.00538 0.997625 0.988429
1.00496 0.9994 0.987158
1.0027 1.00003 0.990177
1.00504 0.999739 0.986694
1.00274 1.00017 0.989949
1.00119 1.00003 0.996892
1.00285 1.00021 0.989715
1.00125 1.00003 0.996866
1.0013 0.999946 0.993693
1.0052 0.995541 0.990726
1.00514 0.994965 0.991268
1.00534 0.997628 0.98842
1.00523 0.995214 0.990953
1.00519 0.994956 0.991156
1.0051 0.999783 0.986509
1.00532 0.997862 0.988164
1.00526 0.995269 0.990735
1.00299 0.999891 0.989779
1.00516 0.999704 0.986434
1.00532 0.998362 0.987615
1.00137 0.999967 0.996914
1.00304 0.999772 0.989794
1.0052 0.99956 0.98643
1.00125 1.00022 0.996956
1.00303 0.99979 0.989779
1.00112 1.00062 0.99685
1.00536 0.997157 0.988953
1.0052 0.995417 0.99087
1.00515 0.994968 0.991336
1.00488 0.999022 0.987669
1.00536 0.997075 0.98907
1.00522 0.995394 0.990881
1.00536 0.997116 0.989053
1.00491 0.999058 0.987579
1.0026 0.999969 0.990406
1.00496 0.999553 0.986969
1.00268 1.00004 0.990186
1.00113 1.00002 0.99694
1.00274 1.00018 0.989963
1.00115 1.00005 0.996915
1.00122 1.00004 0.99688
1.00535 0.997447 0.988619
1.00521 0.9953 0.990916
1.00513 0.994962 0.991227
1.00502 0.99966 0.986809
1.00533 0.997639 0.988421
1.00525 0.99514 0.990958
1.00288 1.00001 0.989879
1.00507 0.999816 0.986507
1.00532 0.99787 0.988165
1.00134 0.999931 0.996869
1.00299 0.999909 0.989775
1.00514 0.999866 0.986279
1.00135 1.00001 0.996933
1.00306 0.999784 0.989793
1.00128 1.00023 0.996944
1.0049 0.999391 0.987273
1.00535 0.996994 0.989116
1.0052 0.995432 0.990895
1.00256 0.99989 0.990582
1.00488 0.998997 0.987665
1.00536 0.997096 0.989072
1.00493 0.999039 0.98755
1.00261 0.999941 0.990414
1.00107 1.00002 0.99697
1.00266 1.00005 0.990194
1.0011 1.00003 0.996945
1.0011 1.00007 0.996931
1.00495 0.999509 0.987092
1.00535 0.997228 0.988855
1.00522 0.995055 0.991105
1.00287 1.00003 0.991469
1.00499 0.999673 0.986813
1.00533 0.997651 0.988423
1.00125 0.999965 0.996877
1.00288 1.00003 0.989874
1.00504 0.999851 0.986505
1.00136 0.999952 0.996886
1.00299 0.999933 0.989771
1.00136 1.00002 0.996948
1.00266 0.999888 0.99047
1.00489 0.999223 0.987425
1.00535 0.996842 0.989279
1.00099 0.999982 0.997033
1.00255 0.999886 0.990576
1.0049 0.998977 0.987662
1.00261 0.999916 0.990418
1.00104 1.00001 0.996992
1.00108 1.00005 0.996958
1.00284 0.999957 0.991643
1.00493 0.999514 0.987093
1.00535 0.997011 0.989089
1.00068 1.00001 0.997439
1.00275 1.00003 0.990105
1.00496 0.999684 0.986819
1.00128 0.999972 0.996879
1.00288 1.00005 0.989867
1.00137 0.999966 0.996901
1.00098 0.999943 0.994221
1.00269 0.999892 0.991154
1.00489 0.999054 0.987577
1.00102 0.999985 0.997039
1.00256 0.999886 0.990578
1.00106 0.999996 0.997009
1.00051 0.999992 0.994664
1.00274 0.99994 0.991003
1.00491 0.999524 0.987094
1.0009 0.999995 0.995718
1.00274 1.00003 0.990123
1.00131 0.999976 0.996883
1.00102 0.999969 0.997031
1.00256 0.999882 0.990566
1.00098 0.999985 0.997036
1.00079 0.999965 0.995852
1.00264 0.999931 0.990407
1.00119 0.999988 0.996913
1.00103 0.99997 0.997036
1.00107 0.999976 0.996985

TENSORS stress float
0.00218728 -0.00014915 0.000253276
-0.00014915 0.00103429 -4.22631e-05
0.000253276 -4.22631e-05 0.00100829
0.00677114 4.56884e-05 0.000286492
4.56884e-05 0.00391297 3.2273e-05
0.000286492 3.2273e-05 0.00391669
0.00183879 -7.98977e-05 0.000106796
-7.98977e-05 0.000814854 -1.67782e-05
0.000106796 -1.67782e-05 0.000777649
0.00219539 -8.48572e-05 0.0002452
-8.48572e-05 0.00101536 -2.4485e-05
0.0002452 -2.4485e-05 0.000998814
0.00221859 -0.000131185 0.000247574
-0.000131185 0.00104371 -3.71462e-05
0.000247574 -3.71462e-05 0.00102112
0.00212974 -0.000151633 0.000261917
-0.000151633 0.000999892 -4.37622e-05
0.000261917 -4.37622e-05 0.000974082
0.00184323 -0.000137423 4.91594e-05
-0.000137423 0.000729036 -1.33155e-05
4.91594e-05 -1.33155e-05 0.000618296
0.00671496 3.57529e-05 -7.45126e-06
3.57529e-05 0.00386874 -1.31651e-06
-7.45126e-06 -1.31651e-06 0.00387702
0.00648102 0.000204514 0.000143679
0.000204514 0.00371771 1.36707e-05
0.000143679 1.36707e-05 0.00369247
0.00646313 -4.06802e-05 7.81158e-05
-4.06802e-05 0.00369572 3.88243e-06
7.81158e-05 3.88243e-06 0.00367536
0.00189434 0.000192387 0.000265613
0.000192387 0.000855401 3.38858e-05
0.000265613 3.38858e-05 0.0008472
0.000455903 0.000252404 2.62381e-05
0.000252404 -0.000103795 2.00669e-05
2.62381e-05 2.00669e-05 -0.000237115
0.00179339 -3.34871e-05 0.000241213
-3.34871e-05 0.000763093 3.97997e-06
0.000241213 3.97997e-06 0.000763633
0.00146998 1.70413e-06 6.16034e-05
1.70413e-06 0.000582834 1.7548e-06
6.16034e-05 1.7548e-06 0.00053693
0.00156168 -7.91189e-05 -5.57286e-05
-7.91189e-05 0.00065018 9.76478e-06
-5.57286e-05 9.76478e-06 0.000597342
0.00183514 -8.47286e-05 8.07174e-05
-8.47286e-05 0.000807651 -4.94971e-06
8.07174e-05 -4.94971e-06 0.000773824
0.00186881 -6.73757e-05 0.000115915
-6.73757e-05 0.000839387 -1.80042e-05
0.000115915 -1.80042e-05 0.000798341
0.00185148 -8.80292e-05 9.49979e-05
-8.80292e-05 0.000815932 -1.30022e-05
9.49979e-05 -1.30022e-05 0.000781765
0.00188734 -0.000171908 -4.055e-05
-0.000171908 0.000754476 5.77985e-06
-4.055e-05 5.77985e-06 0.000653199
0.00611167 -0.000142014 0.000312107
-0.000142014 0.00349732 -1.31696e-05
0.000312107 -1.31696e-05 0.00351431
0.0021327 -6.22348e-05 0.000243226
-6.22348e-05 0.000976082 -1.82152e-05
0.000243226 -1.82152e-05 0.000962389
0.00222909 -0.000108905 0.000245592
-0.000108905 0.0010419 -3.10029e-05
0.000245592 -3.10029e-05 0.00102286
0.001786 -0.000136705 6.95021e-05
-0.000136705 0.000685379 -1.06585e-05
6.95021e-05 -1.06585e-05 0.000588295
0.00183239 -0.000143109 5.85613e-05
-0.000143109 0.000712594 -1.28247e-05
5.85613e-05 -1.28247e-05 0.000609334
0.00206025 -0.000128318 0.000260792
-0.000128318 0.000949026 -4.045e-05
0.000260792 -4.045e-05 0.000926618
0.0018474 -0.000132983 4.1161e-05
-0.000132983 0.000748075 -1.3792e-05
4.1161e-05 -1.3792e-05 0.000626172
0.00207773 -0.000318047 1.70684e-05
-0.000318047 0.000656973 -7.2471e-06
1.70684e-05 -7.2471e-06 0.00044878
0.00667025 2.10883e-05 -0.000284311
2.10883e-05 0.00383092 -2.27013e-05
-0.000284311 -2.27013e-05 0.003844
0.00421529 0.000152558 -0.000143766
0.000152558 0.00229688 -1.60323e-05
-0.000143766 -1.60323e-05 0.00227461
0.0041387 6.3627e-05 -0.000141964
6.3627e-05 0.00225965 -1.34094e-05
-0.000141964 -1.34094e-05 0.0022382
0.00661424 -3.5575e-05 -3.89556e-06
-3.5575e-05 0.00381709 -3.86926e-07
-3.89556e-06 -3.86926e-07 0.00382107
0.000452395 0.000235453 -1.35841e-06
0.000235453 -0.000103565 -1.10444e-06
-1.35841e-06 -1.10444e-06 -0.000236827
0.00185728 6.85965e-05 0.000250966
6.85965e-05 0.000803458 2.29626e-05
0.000250966 2.29626e-05 0.000790642
0.00196653 0.000158113 0.000256923
0.000158113 0.000904717 3.56314e-05
0.000256923 3.56314e-05 0.000880212
0.00282577 0.000208371 0.000154133
0.000208371 0.00132513 2.2066e-05
0.000154133 2.2066e-05 0.00124358
0.00581447 -0.00030657 7.93984e-06
-0.00030657 0.003386 5.36376e-06
7.93984e-06 5.36376e-06 0.00332743
0.00295516 0.000285162 0.000159043
0.000285162 0.00144718 2.74983e-05
0.000159043 2.74983e-05 0.00135012
0.00045004 0.000219624 2.66661e-05
0.000219624 -0.000102716 2.64752e-05
2.66661e-05 2.64752e-05 -0.000234651
0.000910836 0.000252423 1.31378e-05
0.000252423 3.46637e-05 6.36573e-06
1.31378e-05 6.36573e-06 -0.000181378
0.0046049 -0.000106591 0.000175731
-0.000106591 0.00260757 1.53703e-05
0.000175731 1.53703e-05 0.00260685
0.00609188 8.17871e-05 3.36683e-06
8.17871e-05 0.0034721 -1.82116e-06
3.36683e-06 -1.82116e-06 0.00349628
0.00397575 8.99081e-05 -0.000120253
8.99081e-05 0.00214517 -5.37454e-06
-0.000120253 -5.37454e-06 0.00213351
0.00594638 5.81289e-05 0.000303273
5.81289e-05 0.0033841 4.24464e-06
0.000303273 4.24464e-06 0.00340889
0.00142354 8.75638e-05 6.39699e-05
8.75638e-05 0.000557019 4.26243e-06
6.39699e-05 4.26243e-06 0.000516148
0.00052175 1.14149e-05 1.5279e-05
1.14149e-05 -0.00013219 1.93998e-06
1.5279e-05 1.93998e-06 -0.000217165
0.00629947 0.000232229 0.000174672
0.000232229 0.00362854 1.67524e-05
0.000174672 1.67524e-05 0.00360304
0.00282207 7.59952e-05 0.000144775
7.59952e-05 0.00129503 9.21694e-06
0.000144775 9.21694e-06 0.00123636
0.00142826 -8.60642e-05 -7.60289e-05
-8.60642e-05 0.00057157 9.6462e-06
-7.60289e-05 9.6462e-06 0.000519794
0.00147424 -0.000108331 -6.87853e-05
-0.000108331 0.00060243 1.17869e-05
-6.87853e-05 1.17869e-05 0.000547049
0.00164254 -3.70221e-05 -4.41223e-05
-3.70221e-05 0.000698742 8.53132e-06
-4.41223e-05 8.53132e-06 0.000645325
0.00193533 -0.000175318 -0.0001365
-0.000175318 0.000776871 2.47439e-05
-0.0001365 2.47439e-05 0.000686644
0.00382856 -1.83239e-05 -0.000122002
-1.83239e-05 0.00206338 -1.7567e-06
-0.000122002 -1.7567e-06 0.0020514
0.00179681 -6.60378e-05 8.55597e-05
-6.60378e-05 0.000780278 -3.95458e-06
8.55597e-05 -3.95458e-06 0.000750521
0.00182008 -4.49216e-05 0.000120341
-4.49216e-05 0.000812239 -1.65524e-05
0.000120341 -1.65524e-05 0.000769989
0.00184543 -8.70478e-05 8.62615e-05
-8.70478e-05 0.000811658 -8.45804e-06
8.62615e-05 -8.45804e-06 0.000778393
0.00185983 -0.000114774 -3.24638e-05
-0.000114774 0.000720916 2.20515e-06
-3.24638e-05 2.20515e-06 0.000635176
0.00189065 -0.000175424 -4.69256e-05
-0.000175424 0.000767649 6.59333e-06
-4.69256e-05 6.59333e-06 0.000658805
0.00188947 -0.000160174 -3.48956e-05
-0.000160174 0.000747819 4.09132e-06
-3.48956e-05 4.09132e-06 0.000652362
0.00207754 -0.000318923 -9.65808e-06
-0.000318923 0.00065211 2.58979e-06
-9.65808e-06 2.58979e-06 0.000444175
0.00593284 7.69124e-06 0.000299237
7.69124e-06 0.00337361 -2.11074e-06
0.000299237 -2.11074e-06 0.00339967
0.00206173 -3.79706e-05 0.00023856
-3.79706e-05 0.000935808 -1.25618e-05
0.00023856 -1.25618e-05 0.000925698
0.00244892 -7.35585e-06 5.11554e-05
-7.35585e-06 0.00108847 -1.00392e-06
5.11554e-05 -1.00392e-06 0.00102055
0.00175081 -0.000111063 6.1992e-05
-0.000111063 0.000657773 -7.06443e-06
6.1992e-05 -7.06443e-06 0.000569053
0.00179854 -0.000141095 6.55291e-05
-0.000141095 0.000691859 -1.21594e-05
6.55291e-05 -1.21594e-05 0.000592247
0.00190018 -0.000205628 1.09992e-05
-0.000205628 0.000473359 -2.88603e-06
1.09992e-05 -2.88603e-06 0.00030875
0.00191196 -0.00027944 1.64212e-05
-0.00027944 0.000513495 -5.4324e-06
1.64212e-05 -5.4324e-06 0.000322824
0.00182558 -8.50769e-05 0.000236141
-8.50769e-05 0.00080429 -3.20143e-05
0.000236141 -3.20143e-05 0.000786496
0.00176377 -0.000100288 3.18664e-05
-0.000100288 0.000713736 -1.33753e-05
3.18664e-05 -1.33753e-05 0.000589554
0.00211479 -0.000345933 1.71874e-05
-0.000345933 0.000723584 -8.25858e-06
1.71874e-05 -8.25858e-06 0.000500355
0.00166216 -0.000410951 6.34093e-06
-0.000410951 0.000176806 -5.78883e-07
6.34093e-06 -5.78883e-07 -7.8858e-05
0.00684889 0.000261193 -0.000338982
0.000261193 0.00394734 -3.74162e-05
-0.000338982 -3.74162e-05 0.0039526
0.00651816 -6.19239e-05 -0.000255305
-6.19239e-05 0.00375874 -1.81425e-05
-0.000255305 -1.81425e-05 0.00376443
0.00671341 9.89188e-05 -0.000300668
9.89188e-05 0.00385066 -2.73903e-05
-0.000300668 -2.73903e-05 0.00386606
0.000421062 0.000226036 -2.49969e-05
0.000226036 -0.000117388 -2.03728e-05
-2.49969e-05 -2.03728e-05 -0.000252989
0.0067514 0.000237577 -2.33828e-06
0.000237577 0.00388221 -2.35827e-06
-2.33828e-06 -2.35827e-06 0.00389169
0.00686522 0.000209761 -8.98562e-06
0.000209761 0.0039503 -2.8887e-06
-8.98562e-06 -2.8887e-06 0.00395858
0.0003606 0.000130685 2.9604e-07
0.000130685 -0.000218335 -2.87329e-07
2.9604e-07 -2.87329e-07 -0.00033103
0.00363479 -9.89364e-05 -0.000116815
-9.89364e-05 0.00199312 -4.3634e-06
-0.000116815 -4.3634e-06 0.00195923
0.000365412 0.000209091 3.07981e-07
0.000209091 -0.000168326 -4.60514e-07
3.07981e-07 -4.60514e-07 -0.000299026
0.00174691 0.000226264 5.66431e-05
0.000226264 0.000711454 3.18779e-06
5.66431e-05 3.18779e-06 0.000601594
0.00084474 0.000245295 3.23111e-07
0.000245295 -8.28214e-07 9.90223e-09
3.23111e-07 9.90223e-09 -0.000214666
0.00553829 -0.000132556 0.000205456
-0.000132556 0.00320192 2.21185e-05
0.000205456 2.21185e-05 0.00318929
0.000598166 5.11735e-05 1.44167e-05
5.11735e-05 4.92285e-05 1.3396e-05
1.44167e-05 1.3396e-05 -2.45596e-05
0.000470817 0.000101022 1.52937e-05
0.000101022 -0.000168553 1.02149e-05
1.52937e-05 1.02149e-05 -0.000275371
0.000489589 0.000160105 1.97856e-05
0.000160105 -0.000125009 1.79022e-05
1.97856e-05 1.79022e-05 -0.000245228
0.00113433 0.00024034 1.497e-05
0.00024034 2.36097e-06 5.42029e-06
1.497e-05 5.42029e-06 -0.000194422
0.00298713 0.000203552 0.000141927
0.000203552 0.00149966 1.98682e-05
0.000141927 1.98682e-05 0.00142086
0.000983767 0.000263114 1.46516e-05
0.000263114 1.18266e-05 6.64902e-06
1.46516e-05 6.64902e-06 -0.000201352
0.00082555 0.00024834 1.22053e-05
0.00024834 7.13579e-05 6.12721e-06
1.22053e-05 6.12721e-06 -0.00014955
0.00122068 0.000398485 1.86278e-06
0.000398485 0.000125521 -1.35588e-06
1.86278e-06 -1.35588e-06 -0.000165467
0.00356089 -0.000122352 0.000109094
-0.000122352 0.00194293 6.70212e-06
0.000109094 6.70212e-06 0.00194199
0.00417213 -0.000162891 2.33543e-05
-0.000162891 0.00234551 -5.64952e-07
2.33543e-05 -5.64952e-07 0.00233195
0.00654597 6.07455e-05 -0.000321692
6.07455e-05 0.00373995 -1.59746e-05
-0.000321692 -1.59746e-05 0.0037628
0.00618761 7.29579e-05 -0.000313833
7.29579e-05 0.00352771 -9.7489e-06
-0.000313833 -9.7489e-06 0.00355304
0.00603621 8.37972e-05 -6.11275e-08
8.37972e-05 0.00344516 -3.76571e-06
-6.11275e-08 -3.76571e-06 0.00346671
0.00384579 3.22898e-05 -0.000131219
3.22898e-05 0.00206403 -6.81227e-06
-0.000131219 -6.81227e-06 0.00205766
0.00159709 3.84298e-05 6.23621e-05
3.84298e-05 0.000540417 1.70461e-06
6.23621e-05 1.70461e-06 0.000472432
0.00416045 0.000148438 -0.000122919
0.000148438 0.00226472 -7.28714e-06
-0.000122919 -7.28714e-06 0.00224517
0.00166056 9.24969e-05 6.39154e-05
9.24969e-05 0.000573474 3.1472e-06
6.39154e-05 3.1472e-06 0.000494453
0.00599024 0.000122547 0.000306106
0.000122547 0.0034255 7.2455e-06
0.000306106 7.2455e-06 0.00344198
0.000424609 1.05218e-05 1.8484e-05
1.05218e-05 -0.000187447 9.54115e-07
1.8484e-05 9.54115e-07 -0.000269256
0.00280144 3.93333e-05 0.00014228
3.93333e-05 0.00128545 6.23241e-06
0.00014228 6.23241e-06 0.00123282
0.0011129 6.32432e-05 1.18629e-05
6.32432e-05 -3.5162e-05 8.66167e-07
1.18629e-05 8.66167e-07 -0.000168026
0.00277883 0.000121137 0.000150383
0.000121137 0.00127119 1.22692e-05
0.000150383 1.22692e-05 0.00120588
0.00120612 0.0001439 1.20969e-05
0.0001439 2.72162e-06 1.90191e-06
1.20969e-05 1.90191e-06 -0.00015329
0.00181435 4.24093e-05 -0.000240407
4.24093e-05 0.000774542 3.00273e-06
-0.000240407 3.00273e-06 0.000776877
0.00142406 -1.66251e-05 -6.23979e-05
-1.66251e-05 0.000560592 2.84476e-06
-6.23979e-05 2.84476e-06 0.000514751
0.00165934 -2.67315e-07 -3.605e-05
-2.67315e-07 0.000713678 8.17982e-06
-3.605e-05 8.17982e-06 0.000658609
0.0014239 -0.000101312 -7.69328e-05
-0.000101312 0.000571209 1.16538e-05
-7.69328e-05 1.16538e-05 0.000517868
0.00198358 -9.37527e-05 -0.000130147
-9.37527e-05 0.000787836 1.22394e-05
-0.000130147 1.22394e-05 0.000713467
0.00197475 -0.00014713 -0.000132926
-0.00014713 0.000790212 2.0869e-05
-0.000132926 2.0869e-05 0.000706992
0.00188449 -0.000189176 -0.000139905
-0.000189176 0.00075645 2.65324e-05
-0.000139905 2.65324e-05 0.000659385
0.00202611 -0.0003157 -3.29839e-05
-0.0003157 0.00061583 1.1301e-05
-3.29839e-05 1.1301e-05 0.000408904
0.0060291 -0.000104889 2.31005e-06
-0.000104889 0.00344545 -1.86222e-06
2.31005e-06 -1.86222e-06 0.00346402
0.0017027 3.01899e-05 9.25485e-05
3.01899e-05 0.000715726 -4.50294e-06
9.25485e-05 -4.50294e-06 0.000694365
0.00115526 -1.03483e-05 -6.54825e-05
-1.03483e-05 0.00027032 1.93772e-06
-6.54825e-05 1.93772e-06 0.000201128
0.00182528 -7.51664e-05 -3.5624e-05
-7.51664e-05 0.000696658 2.85051e-06
-3.5624e-05 2.85051e-06 0.000617414
0.00429366 -3.31952e-05 0.00024335
-3.31952e-05 0.00236486 -1.5665e-05
0.00024335 -1.5665e-05 0.00235724
0.00242967 -0.000180097 -4.21673e-05
-0.000180097 0.001117 3.55941e-06
-4.21673e-05 3.55941e-06 0.00100532
0.00187481 -0.000138701 -3.20899e-05
-0.000138701 0.000733968 2.90263e-06
-3.20899e-05 2.90263e-06 0.000643972
0.00196226 -0.000205784 -1.00198e-05
-0.000205784 0.000507977 1.84609e-06
-1.00198e-05 1.84609e-06 0.000346414
0.00204865 -0.000344607 -8.31315e-06
-0.000344607 0.000676671 2.45047e-06
-8.31315e-06 2.45047e-06 0.00045317
0.001983 -0.000282302 -8.28446e-06
-0.000282302 0.000558513 2.19784e-06
-8.28446e-06 2.19784e-06 0.000366629
0.00170048 -0.000413324 7.44278e-07
-0.000413324 0.000202398 -1.76124e-07
7.44278e-07 -1.76124e-07 -5.29262e-05
0.000464235 9.85656e-06 1.93133e-05
9.85656e-06 -0.00016661 -7.06664e-07
1.93133e-05 -7.06664e-07 -0.000245085
0.00166411 -2.86318e-06 5.2473e-05
-2.86318e-06 0.000594852 -2.74803e-06
5.2473e-05 -2.74803e-06 0.000518726
0.00181573 -6.69309e-05 1.07348e-05
-6.69309e-05 0.000409182 -4.0789e-07
1.07348e-05 -4.0789e-07 0.000289572
0.00181366 -0.000161823 1.07773e-05
-0.000161823 0.000407158 -1.64687e-06
1.07773e-05 -1.64687e-06 0.00026012
0.00187442 -0.00024134 1.37595e-05
-0.00024134 0.000463245 -3.66905e-06
1.37595e-05 -3.66905e-06 0.000288991
0.00187571 -0.000287257 2.8092e-07
-0.000287257 0.000188864 -8.36052e-08
2.8092e-07 -8.36052e-08 1.44975e-05
0.00607548 0.000111927 0.000212082
0.000111927 0.00350755 -1.6205e-05
0.000212082 -1.6205e-05 0.00350136
0.00166719 -0.000379212 4.41705e-06
-0.000379212 0.000131256 -4.57913e-07
4.41705e-06 -4.57913e-07 -9.79565e-05
0.000261748 -0.00017549 2.04501e-05
-0.00017549 -0.000227428 -2.02818e-05
2.04501e-05 -2.02818e-05 -0.000343238
0.0009062 -0.000264095 1.36769e-05
-0.000264095 2.66003e-05 -8.66818e-06
1.36769e-05 -8.66818e-06 -0.000197171
0.00173904 -0.000456361 8.02864e-06
-0.000456361 0.000287266 -1.29181e-06
8.02864e-06 -1.29181e-06 -2.13822e-06
0.00190164 -0.000483599 2.24142e-06
-0.000483599 0.000217562 2.08788e-06
2.24142e-06 2.08788e-06 -2.81172e-05
0.000466128 -0.000139405 2.21676e-05
-0.000139405 -6.27141e-05 -1.61523e-05
2.21676e-05 -1.61523e-05 -0.000160691
0.000532457 -0.000120474 -2.51704e-07
-0.000120474 3.64207e-05 -1.47056e-07
-2.51704e-07 -1.47056e-07 -0.000200699
0.00683042 0.000261331 -0.000347989
0.000261331 0.00393722 -3.56551e-05
-0.000347989 -3.56551e-05 0.0039435
0.00681604 0.000195747 -0.000322435
0.000195747 0.00391779 -3.37359e-05
-0.000322435 -3.37359e-05 0.00392961
0.000364164 0.000128928 -1.8438e-05
0.000128928 -0.000218201 -1.26254e-05
-1.8438e-05 -1.26254e-05 -0.000331256
0.00581189 -0.000135509 -0.000200599
-0.000135509 0.0033531 -1.45223e-05
-0.000200599 -1.45223e-05 0.00334542
0.000353075 0.000197605 -2.32094e-05
0.000197605 -0.000163308 -2.01778e-05
-2.32094e-05 -2.01778e-05 -0.000280282
0.000363607 0.000196467 -2.08312e-05
0.000196467 -0.00016816 -1.85383e-05
-2.08312e-05 -1.85383e-05 -0.000300044
0.000847307 0.000242182 -1.41231e-05
0.000242182 4.91345e-06 -7.04033e-06
-1.41231e-05 -7.04033e-06 -0.000207257
0.00522629 -0.000128715 1.34627e-06
-0.000128715 0.0029975 5.35244e-07
1.34627e-06 5.35244e-07 0.00299048
0.000536541 3.94254e-05 1.42599e-06
3.94254e-05 1.53489e-05 5.02274e-07
1.42599e-06 5.02274e-07 -5.4348e-05
0.00167843 0.000142178 6.56903e-05
0.000142178 0.000590027 5.66835e-06
6.56903e-05 5.66835e-06 0.000498269
0.00166675 0.000204542 6.65638e-05
0.000204542 0.000617489 6.31767e-06
6.65638e-05 6.31767e-06 0.000510911
0.00111025 0.000239326 1.29084e-07
0.000239326 -7.07018e-06 -2.8905e-07
1.29084e-07 -2.8905e-07 -0.000204546
0.000453257 0.000170977 -5.61858e-08
0.000170977 -8.44087e-05 -4.54737e-07
-5.61858e-08 -4.54737e-07 -0.000187296
0.00096009 0.00025772 7.6115e-07
0.00025772 5.80778e-06 7.48048e-08
7.6115e-07 7.48048e-08 -0.000205977
0.000833523 0.00023923 2.56889e-07
0.00023923 6.86624e-05 -7.74468e-07
2.56889e-07 -7.74468e-07 -0.000147888
0.00135248 0.000419148 -2.41107e-07
0.000419148 0.000194946 -3.71172e-07
-2.41107e-07 -3.71172e-07 -9.94927e-05
0.00042286 0.000120794 1.82695e-05
0.000120794 -7.42259e-05 1.62426e-05
1.82695e-05 1.62426e-05 -0.000170003
0.000717647 3.43419e-06 8.1188e-06
3.43419e-06 0.000132307 1.13782e-05
8.1188e-06 1.13782e-05 8.03296e-05
0.00124985 0.000184623 5.27969e-06
0.000184623 0.000495209 4.6353e-06
5.27969e-06 4.6353e-06 0.00028184
0.00117901 0.000212307 1.32241e-05
0.000212307 -8.40255e-07 4.08499e-06
1.32241e-05 4.08499e-06 -0.000184662
0.00107481 0.000259785 1.55718e-05
0.000259785 8.32307e-06 6.32275e-06
1.55718e-05 6.32275e-06 -0.000198793
0.00186086 0.000406987 3.71654e-06
0.000406987 0.000226517 -2.71051e-08
3.71654e-06 -2.71051e-08 -6.55441e-06
0.000725166 0.000216297 9.33211e-06
0.000216297 6.28876e-05 5.97574e-06
9.33211e-06 5.97574e-06 -0.00015044
0.00171413 0.000461825 3.58635e-06
0.000461825 0.000306361 -6.57856e-07
3.58635e-06 -6.57856e-07 2.34024e-05
0.00103104 0.000364073 7.65108e-07
0.000364073 8.90942e-05 -1.33028e-06
7.65108e-07 -1.33028e-06 -0.000208076
0.00152055 0.00050912 -6.21154e-06
0.00050912 0.000199704 -4.04265e-06
-6.21154e-06 -4.04265e-06 -0.000117086
0.003169 -0.000131765 6.8294e-05
-0.000131765 0.00169217 3.74035e-06
6.8294e-05 3.74035e-06 0.00168894
0.00349907 -0.000158686 1.34576e-05
-0.000158686 0.00191139 -8.31339e-07
1.34576e-05 -8.31339e-07 0.00190058
0.00393542 -0.000197901 -8.09761e-05
-0.000197901 0.00220248 -5.8707e-06
-8.09761e-05 -5.8707e-06 0.00217981
0.000468357 -0.000120607 2.06803e-05
-0.000120607 -4.47415e-05 -1.45566e-05
2.06803e-05 -1.45566e-05 -0.0001282
0.00546408 0.000157234 0.000172273
0.000157234 0.00315729 -1.68232e-05
0.000172273 -1.68232e-05 0.00313889
0.00674371 0.000220167 -0.000346496
0.000220167 0.00387782 -2.95611e-05
-0.000346496 -2.95611e-05 0.00389023
0.00630703 9.50139e-05 -0.000317031
9.50139e-05 0.00359826 -1.37389e-05
-0.000317031 -1.37389e-05 0.00362209
0.00043154 9.77875e-05 -1.94072e-05
9.77875e-05 -0.000192377 -5.59494e-06
-1.94072e-05 -5.59494e-06 -0.000287948
0.000424874 4.35174e-05 -1.90968e-05
4.35174e-05 -0.000188287 -2.81857e-06
-1.90968e-05 -2.81857e-06 -0.000274061
0.00598257 -6.23428e-06 -0.000300765
-6.23428e-06 0.0034027 -2.5926e-06
-0.000300765 -2.5926e-06 0.00342899
0.00592646 6.30588e-06 -1.44387e-07
6.30588e-06 0.00336913 -9.90114e-07
-1.44387e-07 -9.90114e-07 0.00339548
0.000406126 8.7131e-07 -8.91061e-08
8.7131e-07 -0.000201769 1.37511e-07
-8.91061e-08 1.37511e-07 -0.000281764
0.00159499 4.0105e-05 6.31635e-05
4.0105e-05 0.000532906 2.82655e-06
6.31635e-05 2.82655e-06 0.000462352
0.00108387 6.68448e-05 -8.02447e-08
6.68448e-05 -5.6916e-05 -6.29926e-08
-8.02447e-08 -6.29926e-08 -0.00019066
0.000392312 8.39476e-05 -6.20179e-07
8.39476e-05 -0.00021694 -4.48391e-07
-6.20179e-07 -4.48391e-07 -0.000319043
0.00113459 0.00014425 -2.39674e-07
0.00014425 -4.21177e-05 -1.64266e-07
-2.39674e-07 -1.64266e-07 -0.000199303
0.000399751 -3.14778e-05 1.90931e-05
-3.14778e-05 -0.000207105 -7.55021e-07
1.90931e-05 -7.55021e-07 -0.000284505
0.00106596 2.73114e-05 1.15736e-05
2.73114e-05 -5.33983e-05 4.76445e-07
1.15736e-05 4.76445e-07 -0.000180975
0.00114626 0.000103422 1.18048e-05
0.000103422 -2.69934e-05 1.3951e-06
1.18048e-05 1.3951e-06 -0.000169879
0.0018384 0.000107657 3.20641e-07
0.000107657 8.33034e-05 -4.30269e-07
3.20641e-07 -4.30269e-07 -2.36778e-05
0.00119847 0.000179055 1.23023e-05
0.000179055 -1.33306e-06 2.75665e-06
1.23023e-05 2.75665e-06 -0.000171108
0.00191933 0.000243259 9.00041e-07
0.000243259 0.000141643 -6.98085e-07
9.00041e-07 -6.98085e-07 -3.15127e-06
0.00594563 -6.62717e-05 -0.00030507
-6.62717e-05 0.00338767 2.99854e-06
-0.00030507 2.99854e-06 0.00341024
0.00135968 -0.000155799 -6.33046e-05
-0.000155799 0.000536575 7.65407e-06
-6.33046e-05 7.65407e-06 0.000486544
-0.000255963 -6.15891e-06 -1.20249e-05
-6.15891e-06 -0.000606727 1.80541e-06
-1.20249e-05 1.80541e-06 -0.000701288
0.00193814 -6.68715e-05 -0.000128124
-6.68715e-05 0.000760165 8.61285e-06
-0.000128124 8.61285e-06 0.000690267
0.00643944 0.000269548 -2.70155e-05
0.000269548 0.00373865 3.89549e-06
-2.70155e-05 3.89549e-06 0.00368739
0.00307293 -0.000266571 -0.000144203
-0.000266571 0.00151544 2.77394e-05
-0.000144203 2.77394e-05 0.00140895
0.00199393 -0.00012005 -0.000131145
-0.00012005 0.000796667 1.63569e-05
-0.000131145 1.63569e-05 0.000718769
0.00200147 -0.000204579 -3.03364e-05
-0.000204579 0.000528228 5.57377e-06
-3.03364e-05 5.57377e-06 0.000369981
0.00203275 -0.00028366 -3.17389e-05
-0.00028366 0.000589889 9.72798e-06
-3.17389e-05 9.72798e-06 0.000397181
0.00202808 -0.000346232 -3.07781e-05
-0.000346232 0.000659062 1.19416e-05
-3.07781e-05 1.19416e-05 0.00043489
0.00174721 -0.00041637 -4.67294e-06
-0.00041637 0.000233254 3.53612e-07
-4.67294e-06 3.53612e-07 -2.18221e-05
0.000403944 4.71051e-06 -3.85381e-08
4.71051e-06 -0.000202085 3.02474e-07
-3.85381e-08 3.02474e-07 -0.000281556
0.00179721 -8.57801e-05 -3.43218e-05
-8.57801e-05 0.000683827 4.79973e-07
-3.43218e-05 4.79973e-07 0.000609305
0.0014566 -6.25472e-05 -1.04666e-05
-6.25472e-05 0.000185095 6.82169e-07
-1.04666e-05 6.82169e-07 6.10828e-05
0.00189828 -0.000162531 -8.89386e-06
-0.000162531 0.000459336 1.41134e-06
-8.89386e-06 1.41134e-06 0.000311136
0.00631014 0.000110662 5.34294e-06
0.000110662 0.0036567 6.4102e-07
5.34294e-06 6.4102e-07 0.00364839
0.00170066 -0.000178287 4.31712e-06
-0.000178287 0.000683587 6.0032e-07
4.31712e-06 6.0032e-07 0.000558182
0.00137681 -0.000299227 1.37211e-06
-0.000299227 0.000322052 -1.07498e-06
1.37211e-06 -1.07498e-06 9.47529e-05
0.00192409 -0.000244516 -8.90126e-06
-0.000244516 0.000493592 2.23175e-06
-8.90126e-06 2.23175e-06 0.000318678
0.00189729 -0.00029087 -6.01816e-07
-0.00029087 0.00019818 2.51456e-08
-6.01816e-07 2.51456e-08 2.91704e-05
0.00174173 -0.000455419 1.11805e-06
-0.000455419 0.000291969 -3.39701e-07
1.11805e-06 -3.39701e-07 4.28669e-06
0.00179483 -0.000384281 6.25949e-07
-0.000384281 0.000213588 -1.84047e-07
6.25949e-07 -1.84047e-07 -1.59077e-05
0.00193521 -0.000484671 7.95895e-07
-0.000484671 0.000243322 8.9097e-08
7.95895e-07 8.9097e-08 -2.17317e-06
0.000471866 -0.000149112 1.89319e-06
-0.000149112 -6.32248e-05 5.6762e-07
1.89319e-06 5.6762e-07 -0.00016206
0.000705638 -0.000158599 7.33462e-07
-0.000158599 0.000128742 1.51562e-07
7.33462e-07 1.51562e-07 -9.65893e-05
0.00106535 -3.0783e-05 1.17799e-05
-3.0783e-05 -4.85286e-05 -5.19931e-07
1.17799e-05 -5.19931e-07 -0.000176527
0.00186935 -0.000111084 9.76397e-06
-0.000111084 0.000442675 -8.67158e-07
9.76397e-06 -8.67158e-07 0.000312144
0.00183267 -0.000112509 1.08846e-07
-0.000112509 0.000107915 2.87495e-07
1.08846e-07 2.87495e-07 -7.87669e-06
0.00180442 -0.000235482 -4.52506e-07
-0.000235482 0.000115535 8.66507e-07
-4.52506e-07 8.66507e-07 -2.655e-05
0.00179932 -0.000342011 7.77148e-07
-0.000342011 0.00016888 4.54365e-07
7.77148e-07 4.54365e-07 -2.85469e-05
0.00208011 -0.000336021 1.95255e-06
-0.000336021 0.000196555 -2.62653e-07
1.95255e-06 -2.62653e-07 5.71371e-05
0.000368817 -0.000161149 2.01463e-05
-0.000161149 -0.00013821 -1.9277e-05
2.01463e-05 -1.9277e-05 -0.000249227
0.00195159 -0.000446406 6.68231e-07
-0.000446406 0.000202302 1.62443e-06
6.68231e-07 1.62443e-06 -4.29918e-06
0.000592561 -0.000231246 9.72687e-06
-0.000231246 -7.93816e-05 -8.23801e-06
9.72687e-06 -8.23801e-06 -0.000299819
0.00142973 -0.000462521 1.02997e-05
-0.000462521 0.000190364 -1.78278e-06
1.02997e-05 -1.78278e-06 -0.000127186
0.00209764 -0.000544788 2.5839e-06
-0.000544788 0.000405634 1.3175e-06
2.5839e-06 1.3175e-06 0.000108127
0.00221763 -0.000521266 -1.76174e-06
-0.000521266 0.00037323 4.28718e-06
-1.76174e-06 4.28718e-06 0.000156536
0.000626969 -0.000206908 1.89667e-06
-0.000206908 6.07227e-05 -3.36131e-06
1.89667e-06 -3.36131e-06 -0.000185356
0.000603963 -0.00011489 5.78476e-07
-0.00011489 8.43804e-05 -1.54964e-06
5.78476e-07 -1.54964e-06 -0.000107682
0.000954555 -0.000270698 -1.50014e-06
-0.000270698 0.000277951 2.66488e-06
-1.50014e-06 2.66488e-06 -1.14844e-05
0.000372977 0.000106532 -1.76835e-05
0.000106532 -0.000224509 -9.66757e-06
-1.76835e-05 -9.66757e-06 -0.000332374
0.00478461 -0.000189763 -0.000134495
-0.000189763 0.00274095 -1.12172e-05
-0.000134495 -1.12172e-05 0.00271888
0.000272071 2.97487e-05 -9.40251e-06
2.97487e-05 -0.000145286 -1.30769e-05
-9.40251e-06 -1.30769e-05 -0.000210037
0.000346328 0.000160714 -1.96674e-05
0.000160714 -0.000206036 -1.58138e-05
-1.96674e-05 -1.58138e-05 -0.000327738
0.00108654 0.000238264 -1.59154e-05
0.000238264 -1.61087e-05 -6.06437e-06
-1.59154e-05 -6.06437e-06 -0.000214193
0.000494206 0.00016022 -2.30527e-05
0.00016022 -6.00155e-05 -1.83845e-05
-2.30527e-05 -1.83845e-05 -0.00016164
0.000623629 0.000220662 -1.07566e-05
0.000220662 -6.25737e-05 -7.57195e-06
-1.07566e-05 -7.57195e-06 -0.000274119
0.000952844 0.000253557 -1.48161e-05
0.000253557 9.82486e-06 -7.06745e-06
-1.48161e-05 -7.06745e-06 -0.000200709
0.00145224 0.000436458 -3.48193e-06
0.000436458 0.000243974 4.26148e-07
-3.48193e-06 4.26148e-07 -5.31532e-05
0.00052099 0.000114435 2.88804e-08
0.000114435 -1.92188e-05 1.18119e-06
2.88804e-08 1.18119e-06 -0.000108373
0.00038568 -1.64797e-05 3.13342e-07
-1.64797e-05 -6.56525e-05 6.43088e-07
3.13342e-07 6.43088e-07 -0.000119101
0.000740867 0.000111684 3.26975e-06
0.000111684 0.000165678 -8.11806e-07
3.26975e-06 -8.11806e-07 -3.16162e-05
0.00114562 0.000212269 -1.13131e-07
0.000212269 -1.65146e-05 -2.99952e-07
-1.13131e-07 -2.99952e-07 -0.000201476
0.00105128 0.000256389 3.71627e-07
0.000256389 2.23861e-06 -1.97801e-07
3.71627e-07 -1.97801e-07 -0.000204667
0.00182831 0.000404782 -2.18952e-07
0.000404782 0.000204756 -1.36073e-07
-2.18952e-07 -1.36073e-07 -2.84559e-05
0.000667616 0.000217802 -3.28367e-07
0.000217802 2.89708e-05 1.4497e-08
-3.28367e-07 1.4497e-08 -0.000183083
0.00171308 0.000459911 -2.80079e-07
0.000459911 0.000300175 -3.34593e-07
-2.80079e-07 -3.34593e-07 1.63928e-05
0.00121706 0.000383056 5.95916e-07
0.000383056 0.000208641 -9.92781e-07
5.95916e-07 -9.92781e-07 -9.18341e-05
0.00151079 0.000519504 -4.48332e-07
0.000519504 0.000177346 1.5911e-06
-4.48332e-07 1.5911e-06 -0.000140049
0.00052666 -2.58585e-05 2.21492e-06
-2.58585e-05 1.75961e-05 9.33084e-06
2.21492e-06 9.33084e-06 -2.52147e-05
0.00103869 0.000183407 5.37491e-06
0.000183407 0.000314875 3.67369e-06
5.37491e-06 3.67369e-06 9.67674e-05
0.000974031 6.52091e-05 3.57786e-07
6.52091e-05 0.00030089 6.50774e-06
3.57786e-07 6.50774e-06 0.000151963
0.00116412 0.000193167 1.74974e-06
0.000193167 0.000454413 3.40728e-07
1.74974e-06 3.40728e-07 0.000178309
0.00190708 0.000361514 1.1987e-06
0.000361514 0.00019475 -1.40238e-06
1.1987e-06 -1.40238e-06 -6.97597e-06
0.00177279 0.000440694 4.31746e-06
0.000440694 0.00024764 1.2236e-07
4.31746e-06 1.2236e-07 -1.47689e-05
0.00205921 0.000475554 1.55311e-07
0.000475554 0.000251855 -8.52909e-07
1.55311e-07 -8.52909e-07 2.92795e-05
0.000904702 0.000292319 2.48592e-06
0.000292319 6.48196e-05 1.49777e-06
2.48592e-06 1.49777e-06 -0.000196354
0.00218665 0.000589487 -3.70142e-06
0.000589487 0.00047983 -1.71632e-06
-3.70142e-06 -1.71632e-06 0.000181025
0.00178295 0.000545704 -3.82648e-06
0.000545704 0.000472579 -5.364e-06
-3.82648e-06 -5.364e-06 0.000109197
0.00182323 0.000566312 -1.06151e-06
0.000566312 0.000274762 -1.18255e-06
-1.06151e-06 -1.18255e-06 -3.59818e-05
0.000560605 4.35249e-05 2.40387e-06
4.35249e-05 4.7715e-05 4.17642e-06
2.40387e-06 4.17642e-06 -2.47032e-05
0.000478252 -2.1444e-05 1.82874e-06
-2.1444e-05 -2.96163e-05 6.84069e-06
1.82874e-06 6.84069e-06 -5.77933e-05
0.00279756 -0.000121416 4.33432e-05
-0.000121416 0.00145098 3.99641e-06
4.33432e-05 3.99641e-06 0.00145018
0.00301981 -0.000144112 8.33502e-06
-0.000144112 0.00160104 -8.2523e-07
8.33502e-06 -8.2523e-07 0.00159401
0.00331224 -0.00017232 -5.46324e-05
-0.00017232 0.00179696 -3.88962e-06
-5.46324e-05 -3.88962e-06 0.00178164
0.000414335 -9.93101e-05 1.61026e-05
-9.93101e-05 -5.69767e-05 -1.4305e-05
1.61026e-05 -1.4305e-05 -0.000127872
0.00498013 0.000178715 0.000139823
0.000178715 0.00286641 -1.57817e-05
0.000139823 -1.57817e-05 0.00284284
0.000503349 -0.000118868 3.81304e-07
-0.000118868 -2.28365e-05 3.40518e-07
3.81304e-07 3.40518e-07 -0.000111723
0.0057116 0.000137 3.90795e-06
0.000137 0.00330486 7.65736e-07
3.90795e-06 7.65736e-07 0.00329006
0.000416954 0.000109433 -1.90292e-05
0.000109433 -0.000198722 -7.60014e-06
-1.90292e-05 -7.60014e-06 -0.000302955
0.000440988 3.49522e-05 -1.8113e-05
3.49522e-05 -0.00018586 -3.50987e-06
-1.8113e-05 -3.50987e-06 -0.00027412
0.00108732 0.000144523 -1.20342e-05
0.000144523 -7.36471e-05 -2.17298e-06
-1.20342e-05 -2.17298e-06 -0.000231813
0.00105854 6.92687e-05 -1.19118e-05
6.92687e-05 -7.6185e-05 -9.14625e-07
-1.19118e-05 -9.14625e-07 -0.000210622
0.000459841 -7.61582e-06 -1.91734e-05
-7.61582e-06 -0.000171552 -9.23052e-07
-1.91734e-05 -9.23052e-07 -0.000249759
0.00601921 -9.97862e-05 -0.00031197
-9.97862e-05 0.00343837 5.38383e-06
-0.00031197 5.38383e-06 0.00345877
0.00044734 -2.24614e-06 8.3573e-08
-2.24614e-06 -0.000178333 -6.63371e-07
8.3573e-08 -6.63371e-07 -0.000255658
0.00105063 3.26397e-05 -8.07616e-08
3.26397e-05 -6.47114e-05 5.01117e-08
-8.07616e-08 5.01117e-08 -0.000192764
0.0011215 0.00010525 -1.81576e-07
0.00010525 -4.54256e-05 -6.28974e-08
-1.81576e-07 -6.28974e-08 -0.00018923
0.00182885 0.000105739 -1.11049e-07
0.000105739 8.3569e-05 2.17303e-07
-1.11049e-07 2.17303e-07 -2.32749e-05
0.00115967 0.00018048 -2.8818e-07
0.00018048 -2.40512e-05 -2.75737e-07
-2.8818e-07 -2.75737e-07 -0.00019537
0.00188531 0.000241488 -1.77684e-07
0.000241488 0.000119006 1.33236e-07
-1.77684e-07 1.33236e-07 -2.59951e-05
0.0010448 -3.46064e-06 1.16055e-05
-3.46064e-06 -6.09378e-05 -2.15288e-07
1.16055e-05 -2.15288e-07 -0.000187569
0.00179215 5.02251e-05 8.84237e-07
5.02251e-05 6.08744e-05 -4.44064e-08
8.84237e-07 -4.44064e-08 -3.75447e-05
0.00186486 0.000172637 1.11854e-07
0.000172637 0.000103175 -7.52783e-07
1.11854e-07 -7.52783e-07 -1.95344e-05
0.00197791 0.000133693 3.55886e-06
0.000133693 5.57461e-05 1.07515e-06
3.55886e-06 1.07515e-06 -8.2444e-07
0.0019434 0.000308758 1.22906e-06
0.000308758 0.000170569 -8.81975e-07
1.22906e-06 -8.81975e-07 -1.32879e-06
0.00204738 0.000273385 2.57209e-06
0.000273385 0.000110855 -4.74023e-07
2.57209e-06 -4.74023e-07 4.41965e-06
0.000432021 -2.54561e-06 -1.83348e-05
-2.54561e-06 -0.00018132 8.82998e-07
-1.83348e-05 8.82998e-07 -0.000262998
0.00189274 -4.15571e-05 -0.000125742
-4.15571e-05 0.000734009 5.7583e-06
-0.000125742 5.7583e-06 0.000669726
0.00105868 -5.72964e-05 -1.78766e-05
-5.72964e-05 -6.28782e-05 1.60279e-06
-1.78766e-05 1.60279e-06 -0.000191679
0.00196264 -0.000162313 -2.81616e-05
-0.000162313 0.000498253 4.23158e-06
-2.81616e-05 4.23158e-06 0.000349022
0.00651884 9.01593e-05 -0.000244811
9.01593e-05 0.00378098 2.37214e-05
-0.000244811 2.37214e-05 0.00377462
0.00318268 -0.000251547 -0.000151464
-0.000251547 0.00160087 2.29352e-05
-0.000151464 2.29352e-05 0.00150423
0.00205958 -0.000355546 -2.58779e-05
-0.000355546 0.000746409 1.08806e-05
-2.58779e-05 1.08806e-05 0.000511443
0.00194819 -0.000245836 -3.09746e-05
-0.000245836 0.000507402 7.75603e-06
-3.09746e-05 7.75603e-06 0.000332261
0.0019145 -0.000294354 -2.4709e-06
-0.000294354 0.000204016 -3.46125e-07
-2.4709e-06 -3.46125e-07 4.03588e-05
0.00192313 -0.000389429 -3.76446e-06
-0.000389429 0.000296965 6.93759e-07
-3.76446e-06 6.93759e-07 6.71551e-05
0.00172289 -0.000452684 -6.63625e-06
-0.000452684 0.00028212 4.26741e-07
-6.63625e-06 4.26741e-07 -3.46118e-06
0.00197018 -0.000486353 -4.4988e-07
-0.000486353 0.000268535 -1.9771e-06
-4.4988e-07 -1.9771e-06 2.30562e-05
0.000446137 -0.000155724 -2.02044e-05
-0.000155724 -7.37174e-05 1.75841e-05
-2.02044e-05 1.75841e-05 -0.000178828
0.000717798 -0.000184115 -7.30577e-07
-0.000184115 0.000136031 -1.5642e-07
-7.30577e-07 -1.5642e-07 -8.84348e-05
0.0010453 -2.56761e-05 2.84277e-07
-2.56761e-05 -6.33258e-05 7.03791e-08
2.84277e-07 7.03791e-08 -0.000188681
0.00187006 -0.000111617 -9.03119e-06
-0.000111617 0.00044115 1.07039e-06
-9.03119e-06 1.07039e-06 0.000310827
0.00185213 -0.0001094 8.19612e-08
-0.0001094 0.000117652 -1.79537e-07
8.19612e-08 -1.79537e-07 6.7758e-06
0.00179166 -0.000234468 -2.47034e-06
-0.000234468 0.000113456 7.60508e-07
-2.47034e-06 7.60508e-07 -3.49717e-05
0.000438596 -0.000181986 1.31286e-07
-0.000181986 -9.68575e-05 1.29582e-07
1.31286e-07 1.29582e-07 -0.000208713
0.000803156 -0.000245783 -4.30289e-07
-0.000245783 4.30469e-05 -1.16118e-07
-4.30289e-07 -1.16118e-07 -0.000180235
0.0014055 -0.000458268 1.8941e-06
-0.000458268 0.000181974 -3.77587e-07
1.8941e-06 -3.77587e-07 -0.000135798
0.00184997 -0.000343422 -3.05166e-06
-0.000343422 0.000202759 8.62514e-07
-3.05166e-06 8.62514e-07 2.30493e-06
0.00204155 -0.000336926 2.1716e-06
-0.000336926 0.000162316 -1.01429e-06
2.1716e-06 -1.01429e-06 2.78911e-05
0.00214581 -0.000553447 -6.76574e-07
-0.000553447 0.00043143 -5.61505e-07
-6.76574e-07 -5.61505e-07 0.00013488
0.001964 -0.000446994 6.05151e-07
-0.000446994 0.000211571 2.49855e-08
6.05151e-07 2.49855e-08 4.85375e-06
0.00208325 -0.000515294 6.93579e-07
-0.000515294 0.000282701 8.68566e-07
6.93579e-07 8.68566e-07 6.54791e-05
0.00063913 -0.000198418 3.5716e-07
-0.000198418 6.91823e-05 -3.87297e-07
3.5716e-07 -3.87297e-07 -0.000173529
0.000457449 -0.000181666 7.30037e-07
-0.000181666 -5.82079e-05 4.50475e-07
7.30037e-07 4.50475e-07 -0.00032373
0.000700237 -0.000134996 6.94699e-07
-0.000134996 0.000146626 5.01317e-08
6.94699e-07 5.01317e-08 -5.20619e-05
0.00180568 -5.01326e-05 1.82025e-07
-5.01326e-05 8.96023e-05 1.20447e-07
1.82025e-07 1.20447e-07 -1.62937e-05
0.00192323 -0.000170617 -2.33752e-06
-0.000170617 0.000173418 8.77421e-07
-2.33752e-06 8.77421e-07 5.07191e-05
0.00197735 -0.000127662 5.35188e-06
-0.000127662 6.84527e-05 -9.88537e-07
5.35188e-06 -9.88537e-07 1.93415e-06
0.00195002 -0.000275191 5.21739e-07
-0.000275191 7.85355e-05 4.34043e-07
5.21739e-07 4.34043e-07 -2.65122e-05
0.00182824 -0.000395539 -1.01746e-06
-0.000395539 7.49429e-05 1.74201e-06
-1.01746e-06 1.74201e-06 -9.3497e-05
0.00220135 -0.000367916 3.71477e-06
-0.000367916 0.000205847 -1.28072e-06
3.71477e-06 -1.28072e-06 0.000104859
0.000650174 -0.000235 6.23778e-06
-0.000235 2.27111e-05 -6.77431e-06
6.23778e-06 -6.77431e-06 -0.000202006
0.00193721 -0.000473376 -7.23954e-07
-0.000473376 0.000138656 1.57845e-06
-7.23954e-07 1.57845e-06 -4.09317e-05
0.00129924 -0.000421787 7.6303e-06
-0.000421787 0.000256179 -3.20018e-06
7.6303e-06 -3.20018e-06 -6.29293e-05
0.00181025 -0.000608401 6.43282e-06
-0.000608401 0.000321297 1.74118e-06
6.43282e-06 1.74118e-06 -4.28796e-05
0.00222202 -0.0005844 3.46752e-06
-0.0005844 0.000431681 4.33039e-06
3.46752e-06 4.33039e-06 0.000150116
0.00227105 -0.000544814 -3.09436e-06
-0.000544814 0.000408057 2.45336e-06
-3.09436e-06 2.45336e-06 0.000199931
0.000434981 -0.000105505 -2.01374e-07
-0.000105505 -8.86678e-06 -6.06277e-06
-2.01374e-07 -6.06277e-06 -0.000171863
0.00115542 -0.000292328 8.08443e-07
-0.000292328 0.000293505 -1.65439e-06
8.08443e-07 -1.65439e-06 4.24375e-05
0.00046523 -0.000184281 4.2021e-07
-0.000184281 4.87021e-05 4.6796e-06
4.2021e-07 4.6796e-06 -0.000263783
0.00169282 -0.000374382 -2.3132e-06
-0.000374382 0.000651824 2.60604e-06
-2.3132e-06 2.60604e-06 0.000356314
0.00111663 0.000212916 -1.41819e-05
0.000212916 -3.03482e-05 -4.64209e-06
-1.41819e-05 -4.64209e-06 -0.000216522
0.000362154 -4.3122e-05 2.57486e-06
-4.3122e-05 -6.52777e-05 -1.1915e-05
2.57486e-06 -1.1915e-05 -0.000125696
0.000419017 9.46377e-05 -1.93286e-05
9.46377e-05 -8.20988e-05 -1.45102e-05
-1.93286e-05 -1.45102e-05 -0.000165083
-4.57403e-05 9.06021e-05 -2.12658e-06
9.06021e-05 -0.00031197 -4.71114e-06
-2.12658e-06 -4.71114e-06 -0.000511343
0.00101344 0.000252311 -1.58923e-05
0.000252311 -1.25461e-05 -6.87819e-06
-1.58923e-05 -6.87819e-06 -0.000219241
0.00180549 0.0004032 -3.66479e-06
0.0004032 0.000188832 2.30813e-08
-3.66479e-06 2.30813e-08 -4.45755e-05
0.000654346 0.000219691 -6.20257e-06
0.000219691 2.04622e-05 -4.27488e-06
-6.20257e-06 -4.27488e-06 -0.000190317
0.00139111 0.000400688 -3.52428e-06
0.000400688 0.000321484 -2.17974e-06
-3.52428e-06 -2.17974e-06 1.80142e-05
0.00171483 0.000458468 -3.72225e-06
0.000458468 0.00029604 2.57116e-07
-3.72225e-06 2.57116e-07 1.12993e-05
0.00147211 0.000524766 3.07005e-06
0.000524766 0.000142731 5.30579e-06
3.07005e-06 5.30579e-06 -0.000173877
0.000470239 -4.11073e-05 -3.62854e-06
-4.11073e-05 -9.82758e-06 8.53982e-07
-3.62854e-06 8.53982e-07 -5.6235e-05
0.000666104 0.000200493 -1.33868e-06
0.000200493 9.86982e-05 -6.87774e-07
-1.33868e-06 -6.87774e-07 -0.000129197
0.000601225 6.16898e-05 2.2303e-07
6.16898e-05 6.73647e-05 3.68707e-07
2.2303e-07 3.68707e-07 -7.27372e-05
0.000794445 0.000165913 7.8781e-07
0.000165913 0.000212425 -8.68414e-07
7.8781e-07 -8.68414e-07 -5.47993e-05
0.00188734 0.000359914 -1.15027e-06
0.000359914 0.00018262 -9.7245e-07
-1.15027e-06 -9.7245e-07 -1.92231e-05
0.00174354 0.000439599 -2.28741e-07
0.000439599 0.000228185 -2.05902e-07
-2.28741e-07 -2.05902e-07 -3.48989e-05
0.00202515 0.000471439 2.79452e-07
0.000471439 0.000234275 1.97931e-07
2.79452e-07 1.97931e-07 1.25197e-05
0.00105574 0.000307926 2.75585e-06
0.000307926 0.000175328 3.42688e-07
2.75585e-06 3.42688e-07 -8.76246e-05
0.00207899 0.000571122 -1.47443e-07
0.000571122 0.000422276 3.30206e-07
-1.47443e-07 3.30206e-07 0.000125297
0.0015331 0.000523706 -1.12576e-06
0.000523706 0.000317036 -1.76492e-06
-1.12576e-06 -1.76492e-06 -4.47273e-05
0.00184753 0.000559855 -4.07349e-06
0.000559855 0.000294849 1.84972e-06
-4.07349e-06 1.84972e-06 -8.92098e-06
0.000532 -2.83815e-05 1.52206e-06
-2.83815e-05 1.22278e-05 7.94128e-06
1.52206e-06 7.94128e-06 -2.19657e-05
0.000809863 5.19017e-05 2.26977e-06
5.19017e-05 0.00019845 6.34339e-06
2.26977e-06 6.34339e-06 8.91234e-05
0.000762771 0.000234352 1.46737e-06
0.000234352 6.93817e-05 2.23061e-06
1.46737e-06 2.23061e-06 -0.000167798
0.00166659 0.000170059 1.84396e-07
0.000170059 0.000808039 2.12294e-06
1.84396e-07 2.12294e-06 0.000546841
0.00139879 0.000369894 -1.09576e-06
0.000369894 0.000530247 -2.05648e-06
-1.09576e-06 -2.05648e-06 0.000261783
0.0021143 0.000425501 -4.52016e-07
0.000425501 0.000220579 -2.67829e-06
-4.52016e-07 -2.67829e-06 3.7203e-05
0.00201878 0.000530271 -6.98521e-07
0.000530271 0.000297549 -1.04892e-06
-6.98521e-07 -1.04892e-06 3.39873e-05
0.00205353 0.000515852 -1.87543e-06
0.000515852 0.000230145 -8.97684e-07
-1.87543e-06 -8.97684e-07 1.46136e-05
0.00100632 0.000425459 4.91853e-06
0.000425459 0.000119756 1.39384e-06
4.91853e-06 1.39384e-06 -0.000219202
0.00226265 0.000637036 -2.12264e-06
0.000637036 0.000477664 -1.05066e-06
-2.12264e-06 -1.05066e-06 0.000178311
0.00160237 0.000582795 6.09155e-06
0.000582795 0.000292308 -3.15816e-06
6.09155e-06 -3.15816e-06 -6.82507e-05
0.000599023 4.0248e-05 2.31007e-06
4.0248e-05 7.00901e-05 4.49715e-06
2.31007e-06 4.49715e-06 -8.02877e-06
0.000627101 8.82214e-05 -1.17588e-07
8.82214e-05 0.000126753 2.32223e-06
-1.17588e-07 2.32223e-06 2.95293e-06
0.000587433 5.313e-05 2.39828e-06
5.313e-05 7.06403e-05 4.01355e-06
2.39828e-06 4.01355e-06 5.26225e-07
0.000531945 8.06904e-06 -6.51513e-07
8.06904e-06 3.08941e-05 -3.45173e-08
-6.51513e-07 -3.45173e-08 -4.16259e-05
0.00130585 -3.76552e-05 1.38895e-06
-3.76552e-05 0.000488969 3.91993e-06
1.38895e-06 3.91993e-06 0.000467526
0.000898509 -3.34169e-05 3.17732e-07
-3.34169e-05 0.000235397 -1.74793e-07
3.17732e-07 -1.74793e-07 0.000209207
0.000851682 -5.06613e-05 3.25386e-05
-5.06613e-05 0.000211356 9.09682e-06
3.25386e-05 9.09682e-06 0.000209635
0.00276435 -0.000123152 6.88223e-06
-0.000123152 0.00142999 -6.59549e-07
6.88223e-06 -6.59549e-07 0.0014287
0.00294357 -0.000145604 -4.37124e-05
-0.000145604 0.00155348 -3.84377e-06
-4.37124e-05 -3.84377e-06 0.00154597
0.000354714 -5.34977e-05 7.9269e-06
-5.34977e-05 -8.05893e-05 -1.15893e-05
7.9269e-06 -1.15893e-05 -0.00013711
0.00436695 0.000167247 0.000102135
0.000167247 0.0024692 -9.46297e-06
0.000102135 -9.46297e-06 0.00245116
0.000475437 -9.61076e-05 -1.72715e-06
-9.61076e-05 -2.03199e-05 5.47885e-07
-1.72715e-06 5.47885e-07 -9.477e-05
0.00513493 0.00014667 -9.83826e-06
0.00014667 0.0029528 -1.09764e-06
-9.83826e-06 -1.09764e-06 0.00293659
0.000503554 -0.000124231 -1.99587e-05
-0.000124231 -2.66517e-05 1.53111e-05
-1.99587e-05 1.53111e-05 -0.000117144
0.00592935 0.000140179 -0.000205949
0.000140179 0.00344667 2.3241e-05
-0.000205949 2.3241e-05 0.00342883
0.00110844 0.000181143 -1.27128e-05
0.000181143 -5.36825e-05 -3.25447e-06
-1.27128e-05 -3.25447e-06 -0.000226431
0.00107927 0.000108541 -1.1901e-05
0.000108541 -7.36795e-05 -1.43806e-06
-1.1901e-05 -1.43806e-06 -0.000218721
0.00188975 0.000237224 -2.12477e-06
0.000237224 0.000122113 8.70584e-07
-2.12477e-06 8.70584e-07 -2.23283e-05
0.00181895 0.000104047 -3.54675e-07
0.000104047 8.38257e-05 9.56043e-07
-3.54675e-07 9.56043e-07 -2.29113e-05
0.001039 3.74912e-05 -1.16713e-05
3.74912e-05 -7.42674e-05 -3.9973e-07
-1.16713e-05 -3.9973e-07 -0.000202806
0.000411233 2.89561e-05 -1.90891e-05
2.89561e-05 -0.000202628 -6.52225e-07
-1.90891e-05 -6.52225e-07 -0.000278628
0.00103673 2.5176e-07 -6.33504e-08
2.5176e-07 -6.63537e-05 -6.68877e-08
-6.33504e-08 -6.68877e-08 -0.000193032
0.00180068 5.10111e-05 -1.11226e-07
5.10111e-05 6.98327e-05 2.15164e-07
-1.11226e-07 2.15164e-07 -2.86202e-05
0.00186616 0.000169818 -6.35055e-08
0.000169818 0.00010609 2.55312e-08
-6.35055e-08 2.55312e-08 -1.6269e-05
0.0019774 0.000132181 -8.94106e-08
0.000132181 4.57079e-05 8.97932e-08
-8.94106e-08 8.97932e-08 -7.98001e-06
0.00191415 0.00030557 -4.29528e-07
0.00030557 0.000156643 -4.47241e-08
-4.29528e-07 -4.47241e-08 -1.50506e-05
0.00203323 0.00027181 -5.31344e-07
0.00027181 0.000105182 1.13216e-07
-5.31344e-07 1.13216e-07 -1.28095e-06
0.00177945 -6.83636e-07 9.51107e-07
-6.83636e-07 6.31536e-05 1.835e-07
9.51107e-07 1.835e-07 -3.35614e-05
0.00196607 6.3015e-05 2.92105e-06
6.3015e-05 3.84343e-05 4.56828e-07
2.92105e-06 4.56828e-07 -2.76373e-06
0.00197436 0.000198672 3.30715e-06
0.000198672 5.54566e-05 6.05559e-07
3.30715e-06 6.05559e-07 -2.06282e-05
0.00202177 0.000123518 6.65787e-06
0.000123518 4.02472e-05 9.52907e-07
6.65787e-06 9.52907e-07 1.7251e-05
0.00213669 0.00036244 9.23311e-07
0.00036244 0.000196255 -1.09419e-06
9.23311e-07 -1.09419e-06 5.04322e-05
0.00204347 0.000287413 3.08078e-06
0.000287413 2.77967e-05 1.09775e-06
3.08078e-06 1.09775e-06 -3.71713e-05
0.00102415 -2.17386e-05 -1.21046e-05
-2.17386e-05 -7.87164e-05 6.05008e-07
-1.21046e-05 6.05008e-07 -0.000201532
0.00189221 -0.000112829 -2.75688e-05
-0.000112829 0.000453134 3.01248e-06
-2.75688e-05 3.01248e-06 0.000322937
0.00191629 -0.000104907 -2.2608e-06
-0.000104907 0.0001554 -4.31051e-07
-2.2608e-06 -4.31051e-07 4.97914e-05
0.00178302 -0.00023307 -2.65663e-06
-0.00023307 0.000114473 6.43615e-07
-2.65663e-06 6.43615e-07 -4.02111e-05
0.000552909 -0.000208406 -2.54567e-05
-0.000208406 -2.68567e-05 1.93035e-05
-2.54567e-05 1.93035e-05 -0.000140555
0.000851565 -0.000250584 -1.1583e-05
-0.000250584 7.2359e-05 7.98123e-06
-1.1583e-05 7.98123e-06 -0.000153137
0.00142852 -0.000460126 -5.91346e-06
-0.000460126 0.000201318 1.44878e-06
-5.91346e-06 1.44878e-06 -0.000118282
0.00190014 -0.000344704 -5.23716e-06
-0.000344704 0.000236279 1.13758e-06
-5.23716e-06 1.13758e-06 3.28335e-05
0.00200411 -0.000337942 2.17064e-07
-0.000337942 0.000128673 -1.13124e-06
2.17064e-07 -1.13124e-06 -7.42691e-07
0.0019756 -0.00044763 -3.05241e-07
-0.00044763 0.00021994 -1.2815e-06
-3.05241e-07 -1.2815e-06 1.30805e-05
0.0021996 -0.000561565 -2.5365e-06
-0.000561565 0.000462837 -3.61114e-06
-2.5365e-06 -3.61114e-06 0.000167498
0.00193574 -0.000505381 2.78542e-06
-0.000505381 0.00018469 -2.89762e-06
2.78542e-06 -2.89762e-06 -3.18105e-05
0.000857286 -0.000200172 -5.37578e-06
-0.000200172 0.000195672 4.21762e-06
-5.37578e-06 4.21762e-06 -3.81274e-05
0.000250569 -0.000150895 5.40184e-07
-0.000150895 -0.00019417 -2.09213e-06
5.40184e-07 -2.09213e-06 -0.000455932
0.00075641 -0.000157801 -6.73371e-07
-0.000157801 0.000178521 1.41845e-06
-6.73371e-07 1.41845e-06 -2.21261e-05
0.00182796 -4.71942e-05 1.08991e-07
-4.71942e-05 0.000101389 1.92743e-08
1.08991e-07 1.92743e-08 -1.37277e-06
0.00188885 -0.000177202 -2.90993e-06
-0.000177202 0.000150783 4.22817e-07
-2.90993e-06 4.22817e-07 2.67175e-05
0.00198673 -0.000124903 2.73158e-06
-0.000124903 6.88659e-05 -4.11583e-07
2.73158e-06 -4.11583e-07 8.58251e-06
0.00193607 -0.000267845 -1.11108e-06
-0.000267845 7.1447e-05 5.03646e-07
-1.11108e-06 5.03646e-07 -3.57766e-05
0.000742537 -0.000238467 7.8412e-07
-0.000238467 7.91699e-05 -3.18312e-07
7.8412e-07 -3.18312e-07 -0.000148101
0.00132278 -0.000427555 -1.00039e-06
-0.000427555 0.000261424 -2.7881e-07
-1.00039e-06 -2.7881e-07 -5.85925e-05
0.00177481 -0.000600986 8.53266e-07
-0.000600986 0.000314849 7.70533e-07
8.53266e-07 7.70533e-07 -5.05834e-05
0.00183909 -0.000393591 -1.3777e-06
-0.000393591 8.74954e-05 1.03731e-06
-1.3777e-06 1.03731e-06 -8.62871e-05
0.00212433 -0.000367486 1.01152e-06
-0.000367486 0.000149347 -4.15102e-07
1.01152e-06 -4.15102e-07 5.23569e-05
0.00210426 -0.000581811 -3.02044e-07
-0.000581811 0.00034792 5.49135e-07
-3.02044e-07 5.49135e-07 6.45562e-05
0.00196968 -0.000474755 -1.76914e-07
-0.000474755 0.000157928 6.27092e-07
-1.76914e-07 6.27092e-07 -2.2077e-05
0.00220555 -0.000529978 8.04269e-07
-0.000529978 0.000357985 -6.25496e-07
8.04269e-07 -6.25496e-07 0.000156222
0.00106404 -0.000289493 -3.59118e-07
-0.000289493 0.000245552 1.00348e-06
-3.59118e-07 1.00348e-06 -1.42879e-05
0.00121771 -0.000332921 -6.66675e-07
-0.000332921 0.000352619 1.81694e-06
-6.66675e-07 1.81694e-06 5.89921e-05
0.000677486 -0.000119304 -3.81189e-07
-0.000119304 0.00014195 -5.75518e-07
-3.81189e-07 -5.75518e-07 -2.74834e-05
0.000111784 -0.000106177 8.30141e-07
-0.000106177 -0.000191983 -2.24083e-06
8.30141e-07 -2.24083e-06 -0.000479052
0.00199134 -6.46732e-05 4.36861e-06
-6.46732e-05 7.19544e-05 -8.30498e-07
4.36861e-06 -8.30498e-07 2.2467e-05
0.00191443 -0.000203287 3.25499e-06
-0.000203287 2.41864e-05 -8.44081e-07
3.25499e-06 -8.44081e-07 -6.07777e-05
0.00197353 -0.000118158 6.77174e-06
-0.000118158 4.52963e-05 -1.27509e-06
6.77174e-06 -1.27509e-06 2.16646e-05
0.00206271 -0.000298642 1.25642e-06
-0.000298642 5.49398e-05 -7.38654e-07
1.25642e-06 -7.38654e-07 2.82984e-06
0.00189792 -0.000423575 -8.97557e-07
-0.000423575 6.75976e-05 1.83142e-07
-8.97557e-07 1.83142e-07 -7.38814e-05
0.00208555 -0.000378715 4.39954e-06
-0.000378715 8.89064e-05 -1.57018e-06
4.39954e-06 -1.57018e-06 1.3365e-05
0.00130765 -0.000367671 5.49472e-06
-0.000367671 0.000348836 -5.15126e-06
5.49472e-06 -5.15126e-06 5.76957e-05
0.00196906 -0.000502014 -3.10665e-06
-0.000502014 0.000135295 -1.1722e-08
-3.10665e-06 -1.1722e-08 -2.63296e-05
0.0015482 -0.000593239 -1.66475e-06
-0.000593239 0.000333596 2.66592e-06
-1.66475e-06 2.66592e-06 -6.26864e-05
0.00200233 -0.000671312 4.85838e-06
-0.000671312 0.000393622 2.85726e-06
4.85838e-06 2.85726e-06 1.81987e-05
0.00205784 -0.000590828 -8.16726e-07
-0.000590828 0.00027387 4.68656e-06
-8.16726e-07 4.68656e-06 -4.27901e-07
0.00229066 -0.000562486 -1.01141e-05
-0.000562486 0.000382345 -1.88462e-06
-1.01141e-05 -1.88462e-06 0.000171285
0.000495525 -0.000104142 -1.19409e-06
-0.000104142 2.75383e-05 -6.85238e-06
-1.19409e-06 -6.85238e-06 -0.000105656
7.1722e-05 -0.000131254 -3.90852e-06
-0.000131254 -0.000148134 -1.1692e-06
-3.90852e-06 -1.1692e-06 -0.000436172
0.00140845 -0.000403771 2.59823e-07
-0.000403771 0.000435258 -3.49485e-06
2.59823e-07 -3.49485e-06 0.000122519
0.00227903 -0.000384911 -3.11151e-06
-0.000384911 0.00110441 8.72334e-06
-3.11151e-06 8.72334e-06 0.000783498
0.00169422 -0.000424524 -1.00455e-05
-0.000424524 0.000647096 5.89675e-06
-1.00455e-05 5.89675e-06 0.000303087
0.000322153 -4.65238e-05 -4.71375e-07
-4.65238e-05 -0.000101062 -8.86233e-06
-4.71375e-07 -8.86233e-06 -0.00014645
0.00185394 0.00035718 -3.16623e-06
0.00035718 0.000162574 -3.4883e-07
-3.16623e-06 -3.4883e-07 -3.92482e-05
0.000315821 2.78429e-05 -9.87005e-07
2.78429e-05 -0.000103119 -6.06591e-06
-9.87005e-07 -6.06591e-06 -0.000237335
0.000437812 0.000194322 -6.49667e-06
0.000194322 -6.42656e-05 -1.66796e-06
-6.49667e-06 -1.66796e-06 -0.000279359
0.000497169 0.000153506 -2.98944e-07
0.000153506 1.29564e-05 2.94559e-07
-2.98944e-07 2.94559e-07 -0.000244839
0.00172128 0.000439163 -4.35455e-06
0.000439163 0.000212926 -2.12537e-07
-4.35455e-06 -2.12537e-07 -5.09394e-05
0.00199378 0.000467661 1.06317e-06
0.000467661 0.000218022 1.39802e-06
1.06317e-06 1.39802e-06 -2.98575e-06
0.0014236 0.000354802 -2.50403e-06
0.000354802 0.000423485 -3.27058e-06
-2.50403e-06 -3.27058e-06 0.000148572
0.0013743 0.000517691 4.29807e-07
0.000517691 0.000209544 2.37178e-06
4.29807e-07 2.37178e-06 -0.000155481
0.00197278 0.000552544 1.91163e-06
0.000552544 0.000364391 2.80712e-06
1.91163e-06 2.80712e-06 6.93735e-05
0.00192461 0.000563008 2.98126e-06
0.000563008 0.000345434 8.37338e-06
2.98126e-06 8.37338e-06 4.56144e-05
0.000463866 -2.48352e-05 -9.26542e-07
-2.48352e-05 -2.99774e-05 2.76653e-07
-9.26542e-07 2.76653e-07 -6.33768e-05
0.000603709 3.67118e-05 2.27275e-07
3.67118e-05 7.46444e-05 3.05649e-07
2.27275e-07 3.05649e-07 -3.18306e-05
0.000992377 0.000269562 6.95712e-07
0.000269562 0.000213556 1.50868e-06
6.95712e-07 1.50868e-06 -2.65713e-05
0.000702622 0.000107822 -3.07228e-08
0.000107822 0.000200118 -8.70957e-07
-3.07228e-08 -8.70957e-07 -4.63471e-05
0.000728498 0.000267166 -1.23715e-06
0.000267166 7.48063e-05 1.809e-06
-1.23715e-06 1.809e-06 -0.000157811
0.00208436 0.000424133 -1.57233e-06
0.000424133 0.000202004 -1.72345e-06
-1.57233e-06 -1.72345e-06 1.87548e-05
0.00198558 0.000527218 5.76186e-07
0.000527218 0.000278721 1.78213e-07
5.76186e-07 1.78213e-07 1.5717e-05
0.00199237 0.000512286 1.69795e-06
0.000512286 0.000193993 1.52319e-07
1.69795e-06 1.52319e-07 -2.14155e-05
0.001366 0.000462336 2.41017e-06
0.000462336 0.000353136 5.77274e-07
2.41017e-06 5.77274e-07 3.51962e-06
0.00214535 0.00062324 2.19806e-06
0.00062324 0.000392641 3.32506e-07
2.19806e-06 3.32506e-07 9.41689e-05
0.00193715 0.000615875 -3.23672e-06
0.000615875 0.000501098 -3.53341e-08
-3.23672e-06 -3.53341e-08 0.000135874
0.00064531 3.68735e-05 7.796e-07
3.68735e-05 9.92191e-05 5.06572e-06
7.796e-07 5.06572e-06 1.01885e-05
0.00145522 0.000176134 4.36367e-07
0.000176134 0.000661561 2.70611e-06
4.36367e-07 2.70611e-06 0.000468749
0.000953074 0.000337623 -2.58637e-06
0.000337623 0.000144731 4.65895e-06
-2.58637e-06 4.65895e-06 -0.000125693
0.0013707 0.0002005 1.74629e-06
0.0002005 0.000600599 -3.80833e-06
1.74629e-06 -3.80833e-06 0.000320853
0.00198094 0.000309919 -4.77266e-06
0.000309919 0.000763394 5.16151e-07
-4.77266e-06 5.16151e-07 0.000544671
0.00206332 0.000444817 -4.04688e-06
0.000444817 0.000168455 -2.19454e-06
-4.04688e-06 -2.19454e-06 -6.69574e-07
0.00204531 0.000580355 -1.14425e-06
0.000580355 0.000278459 -3.22464e-07
-1.14425e-06 -3.22464e-07 1.64488e-05
0.00189231 0.000555777 6.12097e-06
0.000555777 9.14882e-05 1.44501e-07
6.12097e-06 1.44501e-07 -0.000130522
0.00125956 0.000532841 8.86746e-06
0.000532841 0.00030108 -2.24268e-06
8.86746e-06 -2.24268e-06 -9.42676e-05
0.00158821 0.00060917 1.09826e-05
0.00060917 0.000179245 -8.16248e-07
1.09826e-05 -8.16248e-07 -0.000153059
0.000572378 3.36539e-05 -3.57978e-07
3.36539e-05 5.06609e-05 2.11101e-07
-3.57978e-07 2.11101e-07 -2.55937e-05
0.000350484 5.65825e-05 4.385e-07
5.65825e-05 -6.43195e-05 2.60954e-06
4.385e-07 2.60954e-06 -0.000180311
0.000371759 5.50606e-05 -5.9451e-07
5.50606e-05 -4.88501e-05 -2.53101e-07
-5.9451e-07 -2.53101e-07 -0.000158541
0.00102044 0.000152842 -1.49944e-06
0.000152842 0.000375752 -1.10995e-06
-1.49944e-06 -1.10995e-06 0.000234287
0.000687978 0.000113415 1.76473e-06
0.000113415 0.00016834 2.61823e-06
1.76473e-06 2.61823e-06 4.80974e-05
0.000544245 6.20956e-05 2.62325e-06
6.20956e-05 4.93082e-05 3.63243e-06
2.62325e-06 3.63243e-06 -1.97674e-05
0.000530867 1.41338e-05 -6.7375e-07
1.41338e-05 3.52595e-05 -4.75613e-08
-6.7375e-07 -4.75613e-08 -3.42852e-05
0.00127672 -2.2761e-05 1.2512e-06
-2.2761e-05 0.00046955 3.53964e-06
1.2512e-06 3.53964e-06 0.000451136
0.000550616 2.33529e-05 -1.66505e-06
2.33529e-05 3.73234e-05 -4.27171e-06
-1.66505e-06 -4.27171e-06 -3.18657e-05
0.0013379 -3.25792e-05 -7.96833e-06
-3.25792e-05 0.000508534 -1.56371e-06
-7.96833e-06 -1.56371e-06 0.000488439
0.000800531 -3.67959e-05 3.23532e-05
-3.67959e-05 0.000171425 8.98364e-06
3.23532e-05 8.98364e-06 0.000174213
0.00136532 -4.00902e-05 -1.41701e-05
-4.00902e-05 0.000530202 -5.29426e-06
-1.41701e-05 -5.29426e-06 0.000507158
0.00170666 -7.54429e-05 3.14428e-05
-7.54429e-05 0.0007525 1.53017e-06
3.14428e-05 1.53017e-06 0.000753531
0.00267206 -0.000118715 -3.78475e-05
-0.000118715 0.00137052 -4.19132e-06
-3.78475e-05 -4.19132e-06 0.00137027
0.000305448 8.12677e-05 -6.70655e-06
8.12677e-05 -8.28942e-05 -9.55112e-06
-6.70655e-06 -9.55112e-06 -0.000140227
0.000444312 -3.63731e-05 -1.76936e-07
-3.63731e-05 -1.99017e-05 7.39441e-07
-1.76936e-07 7.39441e-07 -8.20953e-05
0.00352065 0.000183522 1.2723e-05
0.000183522 0.00193187 -7.07032e-06
1.2723e-05 -7.07032e-06 0.00190993
0.00453549 0.000131407 -1.53028e-05
0.000131407 0.0025697 -1.3826e-06
-1.53028e-05 -1.3826e-06 0.00255978
0.000618782 -9.83998e-05 -1.56386e-05
-9.83998e-05 6.4923e-05 1.35373e-05
-1.56386e-05 1.35373e-05 -1.25713e-05
0.00538589 0.00013195 -0.00017987
0.00013195 0.00310742 2.06043e-05
-0.00017987 2.06043e-05 0.00309327
0.00188423 0.000302834 -2.25851e-06
0.000302834 0.00014123 8.55427e-07
-2.25851e-06 8.55427e-07 -3.03744e-05
0.00183217 0.000169203 -8.70046e-07
0.000169203 8.57563e-05 8.0926e-07
-8.70046e-07 8.0926e-07 -3.69439e-05
0.00201398 0.000271463 -2.33897e-06
0.000271463 9.4985e-05 1.01412e-06
-2.33897e-06 1.01412e-06 -1.17885e-05
0.00197826 0.00013052 -3.30968e-06
0.00013052 3.62013e-05 -4.00467e-07
-3.30968e-06 -4.00467e-07 -1.46419e-05
0.00180831 5.30373e-05 -7.81041e-07
5.30373e-05 7.90245e-05 4.99999e-07
-7.81041e-07 4.99999e-07 -1.94792e-05
0.00103832 5.04978e-06 -1.12988e-05
5.04978e-06 -6.54476e-05 -1.64537e-08
-1.12988e-05 -1.64537e-08 -0.000192071
0.00179152 2.77828e-06 7.33404e-08
2.77828e-06 7.20237e-05 1.89082e-07
7.33404e-08 1.89082e-07 -2.47494e-05
0.00196012 5.43106e-05 -6.54052e-07
5.43106e-05 3.65241e-05 -3.22336e-09
-6.54052e-07 -3.22336e-09 -4.82413e-06
0.00199512 0.000199014 -4.1032e-07
0.000199014 6.72124e-05 3.77524e-07
-4.1032e-07 3.77524e-07 -9.0438e-06
0.00198484 0.000121388 3.44416e-07
0.000121388 1.07411e-05 -7.32824e-08
3.44416e-07 -7.32824e-08 -6.86788e-06
0.00209833 0.000362508 -4.28877e-07
0.000362508 0.000165324 -8.6237e-08
-4.28877e-07 -8.6237e-08 1.93021e-05
0.00202988 0.000281129 1.3344e-07
0.000281129 2.09879e-05 2.82983e-07
1.3344e-07 2.82983e-07 -4.26213e-05
0.001956 -5.14602e-06 3.77577e-06
-5.14602e-06 4.09094e-05 -1.74056e-07
3.77577e-06 -1.74056e-07 -2.40451e-06
0.00198493 5.23904e-05 5.81646e-06
5.23904e-05 3.05754e-05 1.56353e-07
5.81646e-06 1.56353e-07 1.8542e-05
0.00204274 0.000197188 3.24734e-06
0.000197188 2.44615e-05 7.08259e-07
3.24734e-06 7.08259e-07 -3.9401e-06
0.0020742 0.000123381 3.09558e-06
0.000123381 1.53094e-05 3.23341e-07
3.09558e-06 3.23341e-07 2.04206e-05
0.00199421 0.000354111 1.3292e-06
0.000354111 5.9205e-05 -6.57846e-08
1.3292e-06 -6.57846e-08 -5.94326e-05
0.00221958 0.000288918 3.47153e-06
0.000288918 7.7424e-05 1.1869e-06
3.47153e-06 1.1869e-06 4.85294e-05
0.0018428 -4.42446e-05 -1.60884e-06
-4.42446e-05 0.000109278 -3.85833e-07
-1.60884e-06 -3.85833e-07 9.67662e-06
0.00187384 -0.000182418 -3.41393e-06
-0.000182418 0.000139481 1.45832e-09
-3.41393e-06 1.45832e-09 1.44184e-05
0.00197304 -0.000122923 -5.31535e-07
-0.000122923 5.46487e-05 3.10486e-07
-5.31535e-07 3.10486e-07 4.7964e-07
0.00191473 -0.000260874 -2.34338e-06
-0.000260874 6.08445e-05 4.2441e-07
-2.34338e-06 4.2441e-07 -4.86579e-05
0.000770995 -0.000237725 -9.2014e-06
-0.000237725 9.37363e-05 7.88248e-06
-9.2014e-06 7.88248e-06 -0.000134817
0.00130709 -0.000426795 -7.87167e-06
-0.000426795 0.000245673 2.12157e-06
-7.87167e-06 2.12157e-06 -7.32734e-05
0.00159663 -0.000578844 1.41369e-06
-0.000578844 0.000223357 -1.70882e-06
1.41369e-06 -1.70882e-06 -0.000140938
0.0018474 -0.000391385 -1.21694e-06
-0.000391385 9.86914e-05 3.72603e-08
-1.21694e-06 3.72603e-08 -8.04401e-05
0.00204642 -0.000366252 -1.08546e-06
-0.000366252 9.24389e-05 5.80208e-07
-1.08546e-06 5.80208e-07 -1.85052e-07
0.00199985 -0.000475978 2.8919e-07
-0.000475978 0.000176314 -3.13685e-07
2.8919e-07 -3.13685e-07 -4.11784e-06
0.00197492 -0.000581934 -2.16183e-06
-0.000581934 0.000256725 -3.78032e-06
-2.16183e-06 -3.78032e-06 -2.96222e-05
0.00208199 -0.000516827 8.66301e-06
-0.000516827 0.000278451 -4.42526e-06
8.66301e-06 -4.42526e-06 8.16068e-05
0.000828054 -0.000265006 -9.81247e-07
-0.000265006 0.000108867 2.29464e-06
-9.81247e-07 2.29464e-06 -0.000153841
0.000599341 -0.000249461 2.00274e-06
-0.000249461 -5.85075e-05 -3.65326e-07
2.00274e-06 -3.65326e-07 -0.00033264
0.000967443 -0.000129578 -7.18212e-07
-0.000129578 0.00031842 5.47991e-06
-7.18212e-07 5.47991e-06 0.000144918
-3.47232e-05 -6.88053e-05 2.0942e-06
-6.88053e-05 -0.000303214 -5.66047e-06
2.0942e-06 -5.66047e-06 -0.000567038
0.00199132 -6.44796e-05 -2.36757e-07
-6.44796e-05 7.32578e-05 1.14219e-07
-2.36757e-07 1.14219e-07 2.36572e-05
0.00195042 -0.000203665 2.97118e-06
-0.000203665 5.40557e-05 -8.87198e-07
2.97118e-06 -8.87198e-07 -3.15742e-05
0.00195076 -0.000116903 9.25416e-07
-0.000116903 2.55262e-05 -2.01323e-07
9.25416e-07 -2.01323e-07 3.38989e-06
0.00206134 -0.000297265 -9.99778e-07
-0.000297265 6.08392e-05 2.50911e-07
-9.99778e-07 2.50911e-07 4.32192e-06
0.00114132 -0.000340051 -2.58938e-06
-0.000340051 0.000232111 9.07923e-08
-2.58938e-06 9.07923e-08 -5.03074e-05
0.00146549 -0.000572117 2.03454e-06
-0.000572117 0.000296238 -5.33421e-07
2.03454e-06 -5.33421e-07 -9.3751e-05
0.00190645 -0.000673088 -2.79468e-07
-0.000673088 0.000331579 3.79003e-07
-2.79468e-07 3.79003e-07 -4.90821e-05
0.00192337 -0.000421065 -1.23936e-06
-0.000421065 9.09625e-05 6.24495e-07
-1.23936e-06 6.24495e-07 -5.42221e-05
0.00204962 -0.000379046 1.21967e-06
-0.000379046 6.72135e-05 -1.50677e-07
1.21967e-06 -1.50677e-07 -4.49072e-06
0.00202434 -0.000591329 -2.56152e-07
-0.000591329 0.000277796 3.80623e-07
-2.56152e-07 3.80623e-07 1.67369e-06
0.00192631 -0.000500892 -9.44689e-07
-0.000500892 0.000103016 9.61917e-07
-9.44689e-07 9.61917e-07 -5.97089e-05
0.00216271 -0.000547115 3.52933e-06
-0.000547115 0.00029882 -4.87412e-06
3.52933e-06 -4.87412e-06 9.51767e-05
0.00127986 -0.00038832 -1.01097e-06
-0.00038832 0.000355088 -1.90062e-07
-1.01097e-06 -1.90062e-07 4.65572e-05
0.00161883 -0.000411962 -9.34361e-07
-0.000411962 0.000579569 1.65344e-06
-9.34361e-07 1.65344e-06 0.000243447
0.00110735 -0.000278937 7.89551e-07
-0.000278937 0.000365531 -2.88652e-07
7.89551e-07 -2.88652e-07 6.09726e-05
0.000300197 -7.46864e-05 -2.24564e-06
-7.46864e-05 -9.60488e-05 9.47024e-07
-2.24564e-06 9.47024e-07 -0.000229598
1.25315e-05 -7.8182e-05 -7.85827e-07
-7.8182e-05 -0.00020414 -9.25324e-07
-7.85827e-07 -9.25324e-07 -0.000471809
0.00192076 -6.34526e-05 5.04217e-06
-6.34526e-05 -9.40765e-06 -4.58466e-07
5.04217e-06 -4.58466e-07 -1.90258e-05
0.00199115 -0.0001806 3.98621e-06
-0.0001806 9.58626e-06 -1.1056e-06
3.98621e-06 -1.1056e-06 -1.22019e-05
0.00210856 -0.000347937 8.72094e-07
-0.000347937 1.97091e-05 -5.17779e-07
8.72094e-07 -5.17779e-07 -1.04261e-05
0.00206308 -0.000441344 2.20527e-06
-0.000441344 0.00010055 -1.8694e-06
2.20527e-06 -1.8694e-06 7.23114e-06
0.00147465 -0.000483332 9.66081e-07
-0.000483332 0.00042931 -1.8164e-06
9.66081e-07 -1.8164e-06 6.82965e-05
0.00222852 -0.000603822 -4.29975e-06
-0.000603822 0.000199603 -5.10285e-06
-4.29975e-06 -5.10285e-06 1.50845e-05
0.00121075 -0.000630581 -1.36379e-05
-0.000630581 0.000125456 5.91758e-06
-1.36379e-05 5.91758e-06 -0.000295939
0.00202994 -0.000736532 2.65453e-06
-0.000736532 0.000366913 5.75325e-07
2.65453e-06 5.75325e-07 -2.70953e-05
0.00182473 -0.000555421 -1.38603e-05
-0.000555421 0.000150485 8.7082e-07
-1.38603e-05 8.7082e-07 -0.000109008
2.22213e-05 -9.09054e-06 -2.91952e-06
-9.09054e-06 -0.000255975 -6.27359e-06
-2.91952e-06 -6.27359e-06 -0.000361015
0.000814369 -0.000147826 -2.28329e-06
-0.000147826 0.000304252 -7.53948e-07
-2.28329e-06 -7.53948e-07 7.19723e-05
0.000989734 -0.000206487 -1.8625e-06
-0.000206487 0.000393261 -3.88468e-06
-1.8625e-06 -3.88468e-06 0.000105668
0.00163338 -0.000476012 -8.92691e-06
-0.000476012 0.000563291 2.26197e-06
-8.92691e-06 2.26197e-06 0.000200998
0.00173247 -0.00032606 -2.59285e-06
-0.00032606 0.00069864 1.09207e-05
-2.59285e-06 1.09207e-05 0.000378839
0.000937783 -0.000385085 -1.01981e-05
-0.000385085 0.000123938 1.52804e-05
-1.01981e-05 1.52804e-05 -0.000222474
0.000409963 -2.27901e-05 -2.21551e-06
-2.27901e-05 -6.34835e-05 -7.18607e-06
-2.21551e-06 -7.18607e-06 -9.61959e-05
0.000552366 2.64956e-05 -5.87121e-07
2.64956e-05 4.75984e-05 -6.3251e-06
-5.87121e-07 -6.3251e-06 -5.77246e-05
0.00205444 0.000422707 -2.0985e-06
0.000422707 0.000183708 -5.69957e-07
-2.0985e-06 -5.69957e-07 5.96074e-07
-0.000210341 1.43734e-05 3.43439e-07
1.43734e-05 -0.000366898 -2.18423e-06
3.43439e-07 -2.18423e-06 -0.000606198
0.0010277 0.000272066 -1.9846e-06
0.000272066 0.00023406 -4.0354e-07
-1.9846e-06 -4.0354e-07 1.05786e-06
0.000604928 0.000220266 -3.61992e-07
0.000220266 -3.44942e-05 1.46558e-06
-3.61992e-07 1.46558e-06 -0.000241805
0.00194716 0.000523306 1.63189e-06
0.000523306 0.000257888 1.30694e-06
1.63189e-06 1.30694e-06 -4.34958e-06
0.00194031 0.000509108 2.15837e-06
0.000509108 0.000164088 5.6896e-07
2.15837e-06 5.6896e-07 -5.11857e-05
0.00170224 0.000493823 -8.05376e-07
0.000493823 0.000576254 -1.06487e-06
-8.05376e-07 -1.06487e-06 0.000217002
0.00218928 0.000634102 -4.09607e-06
0.000634102 0.000663897 2.27926e-06
-4.09607e-06 2.27926e-06 0.000300235
0.00201397 0.000608806 6.59991e-07
0.000608806 0.000298667 1.88646e-06
6.59991e-07 1.88646e-06 1.09244e-06
0.000582107 3.40974e-05 -4.59415e-07
3.40974e-05 6.289e-05 5.83922e-07
-4.59415e-07 5.83922e-07 -2.63334e-05
0.00075011 8.71009e-05 -9.67445e-07
8.71009e-05 0.000212201 2.61788e-07
-9.67445e-07 2.61788e-07 3.67932e-05
0.00126081 0.000369655 4.1989e-07
0.000369655 0.000335266 8.65246e-07
4.1989e-07 8.65246e-07 5.97381e-05
0.00102497 0.00015883 1.9762e-06
0.00015883 0.000374159 -3.46575e-07
1.9762e-06 -3.46575e-07 0.000103989
0.000547468 0.000206875 2.4922e-06
0.000206875 -0.000126441 1.40623e-07
2.4922e-06 1.40623e-07 -0.000325818
0.00201718 0.000444829 -2.37169e-06
0.000444829 0.000142676 -1.58103e-06
-2.37169e-06 -1.58103e-06 -2.7166e-05
0.00206058 0.000581317 1.90842e-06
0.000581317 0.000286006 6.23237e-07
1.90842e-06 6.23237e-07 2.37322e-05
0.00196251 0.000556738 9.43746e-07
0.000556738 0.000132279 1.38344e-07
9.43746e-07 1.38344e-07 -8.87411e-05
0.00134455 0.000552839 2.24973e-06
0.000552839 0.000334904 1.22635e-06
2.24973e-06 1.22635e-06 -6.12893e-05
0.00175312 0.0006299 -2.19665e-06
0.0006299 0.000292805 -1.98373e-06
-2.19665e-06 -1.98373e-06 -4.70503e-05
0.00103622 0.000117107 1.17535e-06
0.000117107 0.00038215 2.95272e-06
1.17535e-06 2.95272e-06 0.00024036
-0.000219874 -6.99835e-06 -2.52805e-06
-6.99835e-06 -0.000332766 9.86112e-07
-2.52805e-06 9.86112e-07 -0.000571135
0.00147891 0.000444804 -1.9204e-06
0.000444804 0.000458991 -1.65391e-06
-1.9204e-06 -1.65391e-06 0.000134738
-0.000652436 0.00010652 4.69177e-06
0.00010652 -0.000754838 -1.24154e-06
4.69177e-06 -1.24154e-06 -0.000978974
0.00250713 0.000466505 -2.9255e-06
0.000466505 0.00101878 -2.26049e-06
-2.9255e-06 -2.26049e-06 0.000759601
0.00196724 0.000479171 1.201e-06
0.000479171 2.83977e-05 -2.44942e-07
1.201e-06 -2.44942e-07 -0.000117981
0.00212709 0.000642307 8.90085e-06
0.000642307 0.000294924 -1.51114e-06
8.90085e-06 -1.51114e-06 6.20417e-06
0.00198165 0.00058841 9.62175e-06
0.00058841 0.00011615 1.896e-06
9.62175e-06 1.896e-06 -0.000121713
0.00131348 0.000573563 9.91229e-06
0.000573563 0.000266315 1.57809e-06
9.91229e-06 1.57809e-06 -0.000129294
0.00200189 0.000716379 2.61311e-06
0.000716379 0.000449574 1.2533e-07
2.61311e-06 1.2533e-07 7.82776e-05
0.000525238 2.57548e-05 -1.88972e-06
2.57548e-05 1.94632e-05 -4.44654e-06
-1.88972e-06 -4.44654e-06 -5.5382e-05
0.000532232 7.08633e-05 1.33163e-06
7.08633e-05 5.33921e-05 4.2242e-07
1.33163e-06 4.2242e-07 -6.554e-05
0.000288681 5.66853e-05 -4.63625e-07
5.66853e-05 -0.000106671 1.2939e-06
-4.63625e-07 1.2939e-06 -0.000218684
0.000140885 -2.05046e-05 -1.3763e-07
-2.05046e-05 -0.00018659 -3.03389e-06
-1.3763e-07 -3.03389e-06 -0.000297447
0.000596295 6.31382e-05 -3.36439e-07
6.31382e-05 0.000110316 5.17452e-08
-3.36439e-07 5.17452e-08 -7.03001e-06
0.000567079 9.25265e-05 -6.95742e-07
9.25265e-05 8.02869e-05 -7.25611e-08
-6.95742e-07 -7.25611e-08 -4.28095e-05
0.000754709 0.000135397 -3.40699e-06
0.000135397 0.000214619 -4.35057e-06
-3.40699e-06 -4.35057e-06 8.84237e-05
0.000271654 1.54953e-05 -7.46178e-07
1.54953e-05 -8.71647e-05 -2.76945e-07
-7.46178e-07 -2.76945e-07 -0.000220871
0.000681558 9.74223e-05 7.3916e-07
9.74223e-05 0.000155464 2.69499e-06
7.3916e-07 2.69499e-06 4.72924e-05
0.000566158 7.00375e-05 3.36907e-06
7.00375e-05 6.60887e-05 3.51337e-06
3.36907e-06 3.51337e-06 -4.9336e-06
0.000525736 2.22752e-05 -2.44094e-06
2.22752e-05 3.59327e-05 1.44277e-08
-2.44094e-06 1.44277e-08 -3.18592e-05
0.0012443 -7.24113e-06 1.69634e-06
-7.24113e-06 0.000451914 3.16489e-06
1.69634e-06 3.16489e-06 0.000435191
0.000430359 -6.40629e-05 2.21289e-06
-6.40629e-05 -2.00179e-05 -3.93638e-06
2.21289e-06 -3.93638e-06 -9.34314e-05
0.00130918 -1.77068e-05 -6.92291e-06
-1.77068e-05 0.000489525 -1.6344e-06
-6.92291e-06 -1.6344e-06 0.000472125
0.000754138 -2.67079e-05 2.81381e-05
-2.67079e-05 0.00013983 9.15377e-06
2.81381e-05 9.15377e-06 0.000144783
0.00136491 -2.92427e-05 -1.2555e-05
-2.92427e-05 0.000524988 -7.03873e-06
-1.2555e-05 -7.03873e-06 0.000505623
0.0007635 -4.09049e-05 1.12108e-05
-4.09049e-05 0.00014792 3.39119e-06
1.12108e-05 3.39119e-06 0.000148748
0.00252795 -0.000112237 -1.9679e-06
-0.000112237 0.00127148 -2.78045e-06
-1.9679e-06 -2.78045e-06 0.00127223
0.000317562 6.13589e-05 -4.24193e-06
6.13589e-05 -9.38098e-05 -6.08892e-06
-4.24193e-06 -6.08892e-06 -0.000131736
0.000422729 1.4621e-05 -3.42596e-06
1.4621e-05 -2.9673e-05 1.28441e-07
-3.42596e-06 1.28441e-07 -7.75169e-05
0.00296648 0.000150022 6.21413e-06
0.000150022 0.00157561 -6.11362e-06
6.21413e-06 -6.11362e-06 0.00156403
0.000562706 -6.77656e-05 -1.02779e-05
-6.77656e-05 4.52368e-05 1.17459e-05
-1.02779e-05 1.17459e-05 -1.59042e-05
0.00382185 0.000139222 -3.39712e-05
0.000139222 0.00211296 -2.69543e-07
-3.39712e-05 -2.69543e-07 0.00210264
0.00474357 0.00010549 -0.000160205
0.00010549 0.0026936 1.65607e-05
-0.000160205 1.65607e-05 0.00268903
0.00206224 0.000362561 -2.27886e-06
0.000362561 0.000136166 9.6317e-07
-2.27886e-06 9.6317e-07 -1.00464e-05
0.00201779 0.000198158 -2.65229e-06
0.000198158 8.15229e-05 3.75561e-07
-2.65229e-06 3.75561e-07 5.36688e-06
0.00201386 0.000274148 -1.64121e-06
0.000274148 1.31076e-05 2.51991e-07
-1.64121e-06 2.51991e-07 -4.91625e-05
0.00194739 0.000119451 -3.39866e-06
0.000119451 -1.90102e-05 -5.13954e-07
-3.39866e-06 -5.13954e-07 -3.11359e-05
0.00195234 4.72059e-05 -4.61465e-06
4.72059e-05 3.3522e-05 -1.70438e-07
-4.61465e-06 -1.70438e-07 -8.17479e-06
0.00180367 5.55605e-06 -8.79618e-07
5.55605e-06 7.96173e-05 1.90673e-07
-8.79618e-07 1.90673e-07 -1.71653e-05
0.00196784 -5.72886e-06 -2.82593e-07
-5.72886e-06 5.24339e-05 -3.12856e-08
-2.82593e-07 -3.12856e-08 8.03438e-06
0.00199178 5.29061e-05 1.27719e-06
5.29061e-05 3.89367e-05 4.75214e-08
1.27719e-06 4.75214e-08 2.31269e-05
0.00204668 0.000194614 -5.6251e-09
0.000194614 3.05158e-05 6.05073e-08
-5.6251e-09 6.05073e-08 2.92415e-06
0.00204444 0.000124563 6.52124e-07
0.000124563 -8.48226e-06 1.60411e-07
6.52124e-07 1.60411e-07 1.92026e-06
0.00201359 0.000354262 -5.63328e-07
0.000354262 8.12204e-05 1.01826e-07
-5.63328e-07 1.01826e-07 -3.87772e-05
0.00214251 0.000289231 2.97946e-06
0.000289231 2.63609e-05 3.89891e-07
2.97946e-06 3.89891e-07 4.34669e-06
0.00194332 -1.13189e-05 5.14326e-06
-1.13189e-05 1.43991e-05 8.52666e-08
5.14326e-06 8.52666e-08 -3.28646e-06
0.00204487 5.93618e-05 1.295e-06
5.93618e-05 -1.18891e-05 -2.8587e-07
1.295e-06 -2.8587e-07 6.72122e-06
0.00211362 0.00019239 8.89091e-07
0.00019239 -7.10609e-06 2.47986e-07
8.89091e-07 2.47986e-07 1.52436e-06
0.00212856 0.000386942 -2.64211e-08
0.000386942 2.76035e-05 9.07473e-07
-2.64211e-08 9.07473e-07 -2.2758e-05
0.00199146 -6.4209e-05 -4.69037e-06
-6.4209e-05 7.4148e-05 9.94818e-07
-4.69037e-06 9.94818e-07 2.44214e-05
0.00197672 -0.000204593 2.70594e-07
-0.000204593 7.74979e-05 -6.50531e-07
2.70594e-07 -6.50531e-07 -9.00266e-06
0.00192833 -0.000115689 -5.03191e-06
-0.000115689 6.49272e-06 1.32844e-06
-5.03191e-06 1.32844e-06 -1.44784e-05
0.00206625 -0.000296339 -5.19473e-06
-0.000296339 6.90619e-05 1.2819e-06
-5.19473e-06 1.2819e-06 8.23466e-06
0.000954313 -0.000326355 -6.25962e-06
-0.000326355 0.000107354 3.08765e-06
-6.25962e-06 3.08765e-06 -0.000174049
0.0014694 -0.000561656 6.10756e-06
-0.000561656 0.000306723 -2.76618e-06
6.10756e-06 -2.76618e-06 -7.88775e-05
0.00193762 -0.000688171 -3.00199e-06
-0.000688171 0.000346442 -2.32574e-06
-3.00199e-06 -2.32574e-06 -4.2487e-05
0.00195371 -0.00041929 -2.66736e-06
-0.00041929 0.000117077 8.16421e-07
-2.66736e-06 8.16421e-07 -3.20407e-05
0.0020111 -0.000379872 -1.09573e-06
-0.000379872 4.43013e-05 1.05389e-06
-1.09573e-06 1.05389e-06 -2.35827e-05
0.00190472 -0.000502392 1.047e-06
-0.000502392 8.00369e-05 1.75723e-06
1.047e-06 1.75723e-06 -8.40891e-05
0.00196827 -0.000579712 4.22853e-07
-0.000579712 0.000262863 -3.20366e-06
4.22853e-07 -3.20366e-06 -1.07588e-05
0.00209438 -0.000533854 1.46449e-05
-0.000533854 0.000239913 -6.06801e-06
1.46449e-05 -6.06801e-06 4.37989e-05
0.000920992 -0.000348774 -8.94168e-07
-0.000348774 0.000129159 1.54011e-06
-8.94168e-07 1.54011e-06 -0.000170239
0.00129858 -0.000384767 9.24558e-06
-0.000384767 0.000349646 -3.55726e-06
9.24558e-06 -3.55726e-06 2.40523e-05
1.81855e-05 -0.000164719 2.24649e-06
-0.000164719 -0.000299497 -9.44248e-06
2.24649e-06 -9.44248e-06 -0.000597948
0.000109736 -5.80367e-05 3.80336e-07
-5.80367e-05 -0.000214726 5.64462e-06
3.80336e-07 5.64462e-06 -0.000350072
0.000183015 -3.32593e-05 4.04762e-06
-3.32593e-05 -0.000110061 2.90071e-07
4.04762e-06 2.90071e-07 -0.000365816
0.00191017 -7.15114e-05 -1.34588e-08
-7.15114e-05 -1.92339e-05 -1.85565e-07
-1.34588e-08 -1.85565e-07 -2.99885e-05
0.00202938 -0.000182129 1.23855e-06
-0.000182129 3.07019e-05 -9.24074e-08
1.23855e-06 -9.24074e-08 8.24704e-06
0.00210033 -0.000341963 -6.65233e-07
-0.000341963 3.00256e-05 1.01459e-07
-6.65233e-07 1.01459e-07 -3.98198e-06
0.00140052 -0.000478526 -1.58799e-06
-0.000478526 0.000379196 -8.07474e-07
-1.58799e-06 -8.07474e-07 1.94917e-05
0.00148414 -0.000645995 3.12256e-06
-0.000645995 0.000286127 -9.13971e-07
3.12256e-06 -9.13971e-07 -0.000135387
0.00206876 -0.000745094 -3.32489e-08
-0.000745094 0.000397967 -1.52952e-07
-3.32489e-08 -1.52952e-07 -2.16328e-06
0.00204165 -0.00043806 1.98952e-07
-0.00043806 8.91542e-05 2.22629e-07
1.98952e-07 2.22629e-07 -6.26961e-06
0.00207871 -0.000597291 1.23009e-06
-0.000597291 0.000275739 -3.51115e-06
1.23009e-06 -3.51115e-06 1.26456e-05
0.00213317 -0.00058394 -1.57031e-06
-0.00058394 0.000173996 -3.26264e-07
-1.57031e-06 -3.26264e-07 -5.81412e-06
8.80009e-05 4.42919e-05 -1.93033e-06
4.42919e-05 -0.000225887 -8.6143e-07
-1.93033e-06 -8.6143e-07 -0.000322116
0.00129857 -0.000439294 -2.94124e-07
-0.000439294 0.000343182 -1.84724e-06
-2.94124e-07 -1.84724e-06 -7.833e-06
0.00144205 -0.000445898 -1.5545e-06
-0.000445898 0.000450512 8.93257e-07
-1.5545e-06 8.93257e-07 8.73154e-05
0.00141109 -0.000336482 -1.0032e-06
-0.000336482 0.000526167 2.20785e-06
-1.0032e-06 2.20785e-06 0.000186074
0.00125661 -0.000214717 1.61565e-06
-0.000214717 0.000554799 -2.97317e-06
1.61565e-06 -2.97317e-06 0.000268558
0.000422088 -6.77842e-05 -8.32684e-07
-6.77842e-05 4.92879e-05 1.31654e-06
-8.32684e-07 1.31654e-06 -0.000172292
0.00202925 -9.28166e-05 2.11787e-06
-9.28166e-05 -4.78981e-06 -1.57013e-07
2.11787e-06 -1.57013e-07 6.8533e-06
0.00217179 -0.000238388 3.52837e-07
-0.000238388 -6.52698e-06 -1.45338e-07
3.52837e-07 -1.45338e-07 1.61794e-05
0.00216906 -0.000418921 1.05995e-06
-0.000418921 2.71752e-05 -4.45401e-07
1.05995e-06 -4.45401e-07 1.3468e-05
0.00221927 -0.000522751 2.25261e-06
-0.000522751 9.90079e-05 -2.53711e-06
2.25261e-06 -2.53711e-06 2.14889e-05
0.00159329 -0.000579996 -8.9089e-06
-0.000579996 0.000456139 4.36413e-06
-8.9089e-06 4.36413e-06 5.31991e-05
0.00213512 -0.000664893 -2.19607e-06
-0.000664893 0.00021942 -5.20659e-06
-2.19607e-06 -5.20659e-06 -1.95135e-05
0.00190454 -0.000767371 -2.84718e-05
-0.000767371 0.000503088 4.79011e-06
-2.84718e-05 4.79011e-06 3.70061e-05
0.00238117 -0.000813417 -1.73396e-05
-0.000813417 0.000596028 -7.93636e-07
-1.73396e-05 -7.93636e-07 0.000173907
2.45639e-06 5.46577e-05 -5.73604e-06
5.46577e-05 -0.000284784 -3.06586e-06
-5.73604e-06 -3.06586e-06 -0.000357922
0.000780293 -4.48445e-08 -2.412e-06
-4.48445e-08 0.000259129 -1.36076e-06
-2.412e-06 -1.36076e-06 9.51593e-05
0.00168682 -0.00024169 -5.12898e-06
-0.00024169 0.000857176 1.88019e-07
-5.12898e-06 1.88019e-07 0.000590397
0.000739638 -0.000116266 -4.96381e-07
-0.000116266 0.000180572 -3.89363e-06
-4.96381e-07 -3.89363e-06 -0.000120727
0.00224294 -0.000592918 -1.34718e-05
-0.000592918 0.000900426 1.09761e-05
-1.34718e-05 1.09761e-05 0.000495354
0.00162469 -0.000454546 -5.11925e-06
-0.000454546 0.000610632 2.31932e-05
-5.11925e-06 2.31932e-05 0.000193543
0.000515185 2.36341e-05 -1.42515e-06
2.36341e-05 2.24782e-05 -4.92233e-06
-1.42515e-06 -4.92233e-06 -6.5591e-05
-5.8638e-05 2.26196e-05 1.45769e-06
2.26196e-05 -0.000304513 -1.61797e-06
1.45769e-06 -1.61797e-06 -0.000458928
0.00197218 0.000445578 -1.84208e-06
0.000445578 0.00011571 -1.08719e-06
-1.84208e-06 -1.08719e-06 -5.50521e-05
0.000282779 8.60852e-05 1.62071e-07
8.60852e-05 -0.000101724 2.0116e-06
1.62071e-07 2.0116e-06 -0.000355505
0.00154005 0.00039887 -3.6873e-06
0.00039887 0.000505816 -3.09736e-06
-3.6873e-06 -3.09736e-06 0.000227053
-0.000851742 7.40976e-05 -1.53257e-06
7.40976e-05 -0.00100796 3.25785e-06
-1.53257e-06 3.25785e-06 -0.00117102
0.00207132 0.000582307 2.13615e-06
0.000582307 0.000289228 9.70791e-07
2.13615e-06 9.70791e-07 2.66124e-05
0.00201113 0.000555814 -7.02832e-06
0.000555814 0.000157966 -1.7096e-07
-7.02832e-06 -1.7096e-07 -6.17777e-05
0.00151892 0.000582868 -4.05777e-06
0.000582868 0.000423087 2.9068e-06
-4.05777e-06 2.9068e-06 2.30795e-05
0.00200588 0.000659786 -6.40499e-06
0.000659786 0.000460709 1.20573e-07
-6.40499e-06 1.20573e-07 0.00011024
0.000759183 7.39816e-05 -7.40071e-07
7.39816e-05 0.000201747 1.31082e-07
-7.40071e-07 1.31082e-07 7.03886e-05
0.000477234 6.75325e-05 1.17308e-06
6.75325e-05 9.86523e-05 3.43526e-07
1.17308e-06 3.43526e-07 -0.000153905
0.00130945 0.000422249 -2.89421e-06
0.000422249 0.000349709 -1.51943e-06
-2.89421e-06 -1.51943e-06 3.20637e-05
0.000141656 0.000128757 4.64452e-07
0.000128757 -0.000290841 -2.21966e-06
4.64452e-07 -2.21966e-06 -0.000507858
0.00161954 0.000368558 3.2689e-06
0.000368558 0.000454612 -2.55692e-06
3.2689e-06 -2.55692e-06 0.000218633
0.00212192 0.000492612 -2.74693e-06
0.000492612 0.000110714 -1.03372e-06
-2.74693e-06 -1.03372e-06 -3.49772e-05
0.00226658 0.000643569 2.80085e-06
0.000643569 0.000382636 -4.87224e-07
2.80085e-06 -4.87224e-07 9.9743e-05
0.00217783 0.000612843 2.57096e-06
0.000612843 0.00022412 2.87252e-06
2.57096e-06 2.87252e-06 -1.83341e-05
0.00142302 0.000589967 4.03378e-06
0.000589967 0.000336599 1.51781e-06
4.03378e-06 1.51781e-06 -6.47985e-05
0.00189214 0.000725544 -4.76758e-06
0.000725544 0.000384737 1.40812e-07
-4.76758e-06 1.40812e-07 1.85116e-06
-0.000591414 8.16814e-06 -2.89447e-06
8.16814e-06 -0.00062914 5.34079e-06
-2.89447e-06 5.34079e-06 -0.000757214
-0.000222625 0.000205488 1.09383e-06
0.000205488 -0.000267711 1.67756e-06
1.09383e-06 1.67756e-06 -0.000576433
0.00141411 0.000464215 2.82595e-06
0.000464215 0.000389378 -1.20459e-06
2.82595e-06 -1.20459e-06 5.13776e-05
-0.000260847 0.000167914 1.30872e-06
0.000167914 -0.000676143 -1.93085e-06
1.30872e-06 -1.93085e-06 -0.000877869
0.00232617 0.00049711 4.99664e-06
0.00049711 -5.05847e-05 2.52473e-06
4.99664e-06 2.52473e-06 -4.19547e-05
0.00274159 0.000620655 8.51885e-06
0.000620655 0.000493472 1.5928e-06
8.51885e-06 1.5928e-06 0.000295191
0.00212637 0.000727316 4.82972e-06
0.000727316 0.000325069 -2.91512e-06
4.82972e-06 -2.91512e-06 -2.13262e-05
0.00166585 0.000696868 1.70898e-06
0.000696868 0.000359286 8.82011e-07
1.70898e-06 8.82011e-07 -6.89403e-05
0.000710843 0.000112066 -8.07637e-07
0.000112066 0.000173723 -2.00387e-06
-8.07637e-07 -2.00387e-06 4.74334e-05
0.000544618 9.84831e-05 -8.66101e-07
9.84831e-05 6.71526e-05 -5.52975e-07
-8.66101e-07 -5.52975e-07 -5.70828e-05
0.0011807 9.88628e-05 -7.10777e-06
9.88628e-05 0.000464948 -3.42515e-06
-7.10777e-06 -3.42515e-06 0.000361144
0.000555256 4.32115e-05 -1.03908e-06
4.32115e-05 6.18919e-05 -3.00654e-06
-1.03908e-06 -3.00654e-06 -3.91707e-05
5.03271e-05 4.00683e-05 -8.2726e-08
4.00683e-05 -0.000239224 -7.66575e-07
-8.2726e-08 -7.66575e-07 -0.000352595
0.00060558 5.08691e-05 -5.94607e-07
5.08691e-05 0.000110011 1.81589e-07
-5.94607e-07 1.81589e-07 1.36787e-06
0.000505066 0.000125581 -3.12622e-07
0.000125581 7.69825e-05 7.01599e-07
-3.12622e-07 7.01599e-07 -4.92491e-05
0.000489816 5.44771e-05 1.09167e-06
5.44771e-05 5.65949e-05 1.625e-08
1.09167e-06 1.625e-08 -8.41393e-05
0.000621445 0.000101759 4.21331e-06
0.000101759 0.000104675 -2.83109e-06
4.21331e-06 -2.83109e-06 1.99733e-05
0.000740029 1.33196e-05 3.17652e-06
1.33196e-05 0.000210739 -4.95219e-06
3.17652e-06 -4.95219e-06 7.60818e-05
0.000246495 6.56733e-05 -3.5543e-08
6.56733e-05 -9.74931e-05 2.14047e-06
-3.5543e-08 2.14047e-06 -0.000232786
0.000671388 0.000109943 2.39782e-06
0.000109943 0.000151513 3.42309e-06
2.39782e-06 3.42309e-06 3.9233e-05
0.000469215 7.60961e-05 3.3395e-06
7.60961e-05 1.27504e-05 3.49559e-06
3.3395e-06 3.49559e-06 -6.48792e-05
0.000466092 1.45894e-05 -1.54381e-06
1.45894e-05 2.5566e-06 -2.97453e-07
-1.54381e-06 -2.97453e-07 -6.69538e-05
0.00120938 7.88366e-06 1.74831e-06
7.88366e-06 0.000436047 2.84989e-06
1.74831e-06 2.84989e-06 0.000419447
0.000459832 -4.32275e-05 1.28607e-07
-4.32275e-05 -6.42404e-06 -3.10476e-06
1.28607e-07 -3.10476e-06 -7.29974e-05
0.00130133 -5.69385e-06 -6.61231e-06
-5.69385e-06 0.000487729 -1.69166e-06
-6.61231e-06 -1.69166e-06 0.000471555
0.000749143 -1.68792e-05 2.56466e-05
-1.68792e-05 0.000138572 9.08171e-06
2.56466e-05 9.08171e-06 0.000144426
0.00134872 -1.99939e-05 -1.04873e-05
-1.99939e-05 0.000514431 -6.70331e-06
-1.04873e-05 -6.70331e-06 0.000497473
0.00074992 -3.02915e-05 9.75278e-06
-3.02915e-05 0.000135786 3.44986e-06
9.75278e-06 3.44986e-06 0.000139305
0.000721347 -4.16379e-05 1.42526e-07
-4.16379e-05 0.000121062 -3.0559e-06
1.42526e-07 -3.0559e-06 0.000121165
0.000396367 4.20252e-05 -1.71607e-06
4.20252e-05 -6.64408e-05 -4.11242e-06
-1.71607e-06 -4.11242e-06 -9.02523e-05
0.000408321 7.29357e-05 -2.36682e-07
7.29357e-05 -3.26282e-05 3.56079e-07
-2.36682e-07 3.56079e-07 -7.45219e-05
0.00252097 0.000116122 8.9735e-06
0.000116122 0.00128554 -5.01393e-06
8.9735e-06 -5.01393e-06 0.00128344
0.00048393 1.71001e-05 -5.07721e-06
1.71001e-05 1.22977e-05 1.00386e-05
-5.07721e-06 1.00386e-05 -3.91173e-05
0.00308479 0.0001531 -1.16959e-05
0.0001531 0.00164936 -1.25854e-06
-1.16959e-05 -1.25854e-06 0.0016368
0.00397714 8.39996e-05 -0.00013253
8.39996e-05 0.0022047 1.22694e-05
-0.00013253 1.22694e-05 0.00220749
0.00203008 0.000354055 -9.87696e-07
0.000354055 0.000102386 6.49001e-07
-9.87696e-07 6.49001e-07 -1.89906e-05
0.0020547 0.000192627 -5.03503e-06
0.000192627 3.81756e-05 -8.95125e-07
-5.03503e-06 -8.95125e-07 1.15104e-05
0.00206946 0.00028982 -5.80603e-07
0.00028982 -2.28142e-05 -2.7004e-07
-5.80603e-07 -2.7004e-07 -3.79873e-05
0.00201372 0.000125931 -1.33825e-06
0.000125931 -3.35049e-05 -1.88627e-07
-1.33825e-06 -1.88627e-07 -1.77433e-05
0.00200007 5.37188e-05 -4.77473e-06
5.37188e-05 4.80309e-05 -3.81905e-07
-4.77473e-06 -3.81905e-07 2.85125e-05
0.00198159 -8.4492e-06 -5.68327e-06
-8.4492e-06 6.52878e-05 4.22838e-07
-5.68327e-06 4.22838e-07 2.0047e-05
0.00195194 -9.30569e-06 -8.21297e-08
-9.30569e-06 2.04451e-05 -6.89148e-08
-8.21297e-08 -6.89148e-08 3.8863e-06
0.00204322 6.20689e-05 1.14095e-06
6.20689e-05 -7.90794e-06 1.74008e-07
1.14095e-06 1.74008e-07 8.55305e-06
0.00211745 0.000198962 1.04115e-06
0.000198962 -3.92945e-06 2.22672e-07
1.04115e-06 2.22672e-07 6.44657e-06
0.0021364 0.000377974 6.4101e-07
0.000377974 2.58885e-05 1.98823e-07
6.4101e-07 1.98823e-07 -2.40827e-05
0.00201615 -1.54617e-05 5.55041e-07
-1.54617e-05 -1.45128e-05 -1.62208e-07
5.55041e-07 -1.62208e-07 -3.41152e-06
0.00217395 0.000112521 -4.33154e-07
0.000112521 -4.14578e-05 -6.756e-07
-4.33154e-07 -6.756e-07 1.40511e-05
0.00233038 0.0003021 2.56229e-06
0.0003021 1.55749e-05 5.4881e-07
2.56229e-06 5.4881e-07 3.86101e-05
0.00189919 -7.96022e-05 -4.67751e-06
-7.96022e-05 -2.95306e-05 5.38192e-07
-4.67751e-06 5.38192e-07 -4.12407e-05
0.00206685 -0.000183244 -3.34272e-06
-0.000183244 5.19429e-05 6.45049e-07
-3.34272e-06 6.45049e-07 2.89241e-05
0.0020903 -0.000335476 -2.50627e-06
-0.000335476 4.00781e-05 6.69501e-07
-2.50627e-06 6.69501e-07 1.39958e-06
0.00134791 -0.00047382 -2.77023e-06
-0.00047382 0.000344609 9.57567e-08
-2.77023e-06 9.57567e-08 -1.30967e-05
0.00147876 -0.000625196 1.6957e-05
-0.000625196 0.000286556 -6.22469e-06
1.6957e-05 -6.22469e-06 -0.00012559
0.00188743 -0.000730608 -2.14904e-06
-0.000730608 0.000306741 7.36111e-07
-2.14904e-06 7.36111e-07 -9.38874e-05
0.00203303 -0.000435219 -1.84045e-06
-0.000435219 8.54022e-05 1.5007e-06
-1.84045e-06 1.5007e-06 -1.22202e-05
0.00206803 -0.000564785 5.92398e-06
-0.000564785 0.000169857 2.95883e-06
5.92398e-06 2.95883e-06 -5.31714e-06
0.00221485 -0.000629951 1.44593e-05
-0.000629951 0.000342147 -6.98752e-06
1.44593e-05 -6.98752e-06 7.65569e-05
0.00126598 -0.000427418 2.43819e-06
-0.000427418 0.000327876 -3.05773e-06
2.43819e-06 -3.05773e-06 -1.70908e-05
0.00127214 -0.000438457 5.33763e-06
-0.000438457 0.000355441 -1.20561e-05
5.33763e-06 -1.20561e-05 -6.2377e-06
0.00125454 -0.000380601 -9.00637e-07
-0.000380601 0.000458119 -9.97018e-06
-9.00637e-07 -9.97018e-06 9.68589e-05
0.000278346 4.33455e-05 3.47591e-06
4.33455e-05 -0.000110972 2.43261e-06
3.47591e-06 2.43261e-06 -0.000203324
0.00145421 -0.000231347 3.23078e-06
-0.000231347 0.00065203 3.51451e-06
3.23078e-06 3.51451e-06 0.000382756
-0.000167283 8.79057e-06 5.5757e-06
8.79057e-06 -0.000329535 9.64847e-07
5.5757e-06 9.64847e-07 -0.000537604
0.00203951 -9.11609e-05 -5.09566e-07
-9.11609e-05 5.50809e-07 1.33916e-07
-5.09566e-07 1.33916e-07 1.03889e-05
0.0021386 -0.000245378 9.33834e-08
-0.000245378 -2.96876e-05 -7.98558e-08
9.33834e-08 -7.98558e-08 -5.75495e-06
0.0021575 -0.000411651 -7.30533e-07
-0.000411651 2.71635e-05 2.78697e-07
-7.30533e-07 2.78697e-07 9.94796e-06
0.00152084 -0.000565274 -5.97276e-07
-0.000565274 0.00043086 6.24253e-07
-5.97276e-07 6.24253e-07 3.19674e-05
0.00129318 -0.00068949 3.82931e-06
-0.00068949 0.000151341 -1.89654e-06
3.82931e-06 -1.89654e-06 -0.000296189
0.00234673 -0.000795673 -4.77848e-06
-0.000795673 0.000571515 9.01059e-08
-4.77848e-06 9.01059e-08 0.000165347
0.00217847 -0.000530214 3.3161e-07
-0.000530214 7.64549e-05 -6.69009e-07
3.3161e-07 -6.69009e-07 -7.87874e-06
0.00206552 -0.000649804 2.11873e-06
-0.000649804 0.000191587 -2.05577e-06
2.11873e-06 -2.05577e-06 -4.06702e-05
0.000282476 6.0101e-05 -1.51973e-06
6.0101e-05 -0.000112037 -1.26692e-06
-1.51973e-06 -1.26692e-06 -0.000181122
0.000629844 -2.25709e-05 -7.14889e-07
-2.25709e-05 0.000158248 7.10326e-07
-7.14889e-07 7.10326e-07 2.26095e-07
0.000911621 -0.000446718 -3.18001e-06
-0.000446718 8.19154e-05 1.95851e-06
-3.18001e-06 1.95851e-06 -0.000281002
0.00140392 -0.000402026 -3.01918e-06
-0.000402026 0.00049343 -6.08968e-07
-3.01918e-06 -6.08968e-07 8.46609e-05
0.00163652 -0.000208244 -5.8124e-07
-0.000208244 0.000734553 -1.51064e-06
-5.8124e-07 -1.51064e-06 0.000424787
0.000902549 -0.000177259 -7.06042e-07
-0.000177259 0.000360262 1.43422e-06
-7.06042e-07 1.43422e-06 0.000103154
0.00212923 -0.000126683 -1.59996e-06
-0.000126683 -4.60246e-05 3.7205e-07
-1.59996e-06 3.7205e-07 6.28024e-06
0.00226963 -0.000351109 -2.13275e-06
-0.000351109 -6.49271e-05 1.05527e-06
-2.13275e-06 1.05527e-06 6.00665e-06
0.00224618 -0.000495412 2.76794e-06
-0.000495412 2.96133e-05 -7.00965e-07
2.76794e-06 -7.00965e-07 2.25313e-05
0.00236309 -0.00068984 7.52194e-06
-0.00068984 0.000191097 -3.47811e-06
7.52194e-06 -3.47811e-06 3.79828e-05
0.000683544 -0.000517314 -5.00148e-06
-0.000517314 -8.36073e-05 -7.29152e-06
-5.00148e-06 -7.29152e-06 -0.000487394
0.00260468 -0.000867562 -5.30092e-07
-0.000867562 0.000633099 4.92551e-06
-5.30092e-07 4.92551e-06 0.000248536
0.00228534 -0.000875429 -3.11253e-05
-0.000875429 0.000665859 -4.70378e-06
-3.11253e-05 -4.70378e-06 0.000156758
0.000548092 4.59461e-05 -3.18796e-07
4.59461e-05 3.66287e-05 -2.12768e-07
-3.18796e-07 -2.12768e-07 -1.49259e-05
0.000671599 -0.000141024 3.88051e-06
-0.000141024 0.000168678 -1.20133e-06
3.88051e-06 -1.20133e-06 6.12736e-05
0.000303786 7.99017e-05 -7.81298e-06
7.99017e-05 -5.77641e-05 -7.98325e-07
-7.81298e-06 -7.98325e-07 -0.000169778
0.000776126 -5.93876e-05 -3.47669e-06
-5.93876e-05 0.000273273 1.72442e-06
-3.47669e-06 1.72442e-06 6.5332e-05
5.74569e-05 -0.000121697 2.25595e-06
-0.000121697 -0.000207673 -6.99398e-06
2.25595e-06 -6.99398e-06 -0.000462798
-0.000230531 -0.000110767 5.69246e-06
-0.000110767 -0.000375853 -1.08883e-06
5.69246e-06 -1.08883e-06 -0.000758452
0.00147508 -0.000538849 -3.09935e-05
-0.000538849 0.000437811 2.30417e-05
-3.09935e-05 2.30417e-05 6.74592e-05
0.00283527 -0.000526731 -2.7352e-05
-0.000526731 0.0015426 1.57444e-05
-2.7352e-05 1.57444e-05 0.000919497
0.00053725 3.5426e-05 -3.70303e-07
3.5426e-05 5.28636e-05 -1.74922e-06
-3.70303e-07 -1.74922e-06 -6.63003e-05
0.00086812 0.000196072 -5.48134e-07
0.000196072 0.000330854 5.51571e-07
-5.48134e-07 5.51571e-07 7.07264e-05
0.00227955 0.000506337 -3.38118e-06
0.000506337 0.000195732 -1.92274e-06
-3.38118e-06 -1.92274e-06 5.04783e-05
0.000444606 0.000211458 -4.3277e-06
0.000211458 -7.70025e-05 2.75049e-06
-4.3277e-06 2.75049e-06 -0.000324934
0.00110479 0.000397625 -2.67276e-06
0.000397625 0.000217725 3.66794e-07
-2.67276e-06 3.66794e-07 -9.48113e-05
0.00123135 0.000309881 -5.01633e-06
0.000309881 0.000198748 -6.56372e-06
-5.01633e-06 -6.56372e-06 -2.24003e-05
0.00238245 0.000640478 -7.37836e-06
0.000640478 0.000459058 -8.01786e-07
-7.37836e-06 -8.01786e-07 0.000183385
0.00236757 0.000636149 -1.21524e-05
0.000636149 0.000330225 4.19734e-06
-1.21524e-05 4.19734e-06 8.36506e-05
0.00164863 0.000623745 -3.66186e-06
0.000623745 0.000471993 9.19397e-07
-3.66186e-06 9.19397e-07 6.25232e-05
0.00172458 0.000729479 -4.79693e-06
0.000729479 0.000283266 -8.7976e-07
-4.79693e-06 -8.7976e-07 -0.000109223
-0.000171513 6.42334e-05 6.82993e-07
6.42334e-05 -0.000363379 1.42025e-06
6.82993e-07 1.42025e-06 -0.000508159
2.73787e-07 0.000224392 -3.70902e-07
0.000224392 -0.000137357 -2.87394e-06
-3.70902e-07 -2.87394e-06 -0.000443028
0.00162176 0.000498093 1.64906e-06
0.000498093 0.000500817 4.77147e-08
1.64906e-06 4.77147e-08 0.000152527
0.00144755 0.000329247 -2.53027e-06
0.000329247 0.000397085 1.24189e-06
-2.53027e-06 1.24189e-06 0.000164644
0.00233165 0.000478861 7.13127e-07
0.000478861 -6.40875e-05 -7.54022e-07
7.13127e-07 -7.54022e-07 -4.82868e-05
0.00257951 0.00061866 3.43562e-06
0.00061866 0.000398555 1.54656e-07
3.43562e-06 1.54656e-07 0.000194404
0.00208054 0.000710049 -1.66254e-06
0.000710049 0.000309447 1.25814e-07
-1.66254e-06 1.25814e-07 -2.96387e-05
0.00179276 0.000706733 9.16182e-07
0.000706733 0.000416485 2.99944e-07
9.16182e-07 2.99944e-07 -7.43167e-06
-0.000324394 4.19853e-05 -2.40961e-06
4.19853e-05 -0.000454925 4.52145e-06
-2.40961e-06 4.52145e-06 -0.000605874
0.00223268 0.000369972 1.17879e-05
0.000369972 -0.000173141 3.59047e-06
1.17879e-05 3.59047e-06 -0.000100423
0.00260766 0.000498872 6.61926e-06
0.000498872 0.00140851 8.46627e-06
6.61926e-06 8.46627e-06 0.00107433
0.00135188 0.000481647 2.61842e-06
0.000481647 0.000273695 -2.34769e-07
2.61842e-06 -2.34769e-07 -4.86499e-05
0.00259215 0.000598894 -1.42117e-05
0.000598894 0.000239125 -7.38723e-06
-1.42117e-05 -7.38723e-06 0.000159053
0.00118597 0.000659086 2.29047e-06
0.000659086 -0.000304572 -7.98061e-06
2.29047e-06 -7.98061e-06 -0.000623321
0.00266252 0.000825946 1.30939e-06
0.000825946 0.000860833 4.43124e-06
1.30939e-06 4.43124e-06 0.000407348
0.000790526 0.000115077 -1.20201e-06
0.000115077 0.000220367 -2.01986e-06
-1.20201e-06 -2.01986e-06 9.41587e-05
0.000641075 0.000108299 -3.47231e-06
0.000108299 0.000146094 -1.33426e-06
-3.47231e-06 -1.33426e-06 3.5839e-05
0.0013906 0.000111051 -3.65319e-06
0.000111051 0.000615568 -2.29889e-07
-3.65319e-06 -2.29889e-07 0.000537734
0.000503533 7.2106e-06 5.4728e-07
7.2106e-06 4.85331e-05 -3.46264e-06
5.4728e-07 -3.46264e-06 -6.10208e-05
0.000710981 8.49721e-05 2.10053e-06
8.49721e-05 0.00020026 -7.30064e-07
2.10053e-06 -7.30064e-07 5.4354e-05
-0.000153522 7.40241e-05 -2.05146e-06
7.40241e-05 -0.000309351 4.91693e-06
-2.05146e-06 4.91693e-06 -0.000425486
0.000555593 2.22172e-05 -1.42279e-06
2.22172e-05 8.58045e-05 1.04984e-08
-1.42279e-06 1.04984e-08 -2.98505e-05
0.000331549 -1.21889e-05 -1.00781e-06
-1.21889e-05 -2.9137e-05 -4.86628e-08
-1.00781e-06 -4.86628e-08 -0.000173354
9.74171e-05 4.99323e-05 -1.32773e-07
4.99323e-05 -0.000197263 1.34668e-06
-1.32773e-07 1.34668e-06 -0.000271218
0.000809557 9.37394e-05 9.99742e-07
9.37394e-05 0.000268914 -1.25108e-06
9.99742e-07 -1.25108e-06 0.000121638
0.00168794 0.000130941 -3.50839e-07
0.000130941 0.000758433 -2.48149e-06
-3.50839e-07 -2.48149e-06 0.000710472
0.00044375 2.17527e-05 1.00882e-05
2.17527e-05 1.32049e-05 -7.11495e-06
1.00882e-05 -7.11495e-06 -7.44537e-05
0.00029234 0.00010466 5.7757e-07
0.00010466 -4.32646e-05 2.15297e-06
5.7757e-07 2.15297e-06 -0.000198951
0.000560258 4.77941e-05 1.64996e-06
4.77941e-05 0.000109314 3.32831e-06
1.64996e-06 3.32831e-06 -4.85537e-05
0.000577962 3.40884e-05 2.76257e-06
3.40884e-05 9.12966e-05 3.01986e-06
2.76257e-06 3.01986e-06 -2.58318e-05
0.000476952 -5.62676e-05 -3.06924e-07
-5.62676e-05 1.54288e-05 3.08474e-06
-3.06924e-07 3.08474e-06 -6.32528e-05
0.000493024 1.00619e-05 2.12784e-07
1.00619e-05 1.97083e-05 -3.48147e-07
2.12784e-07 -3.48147e-07 -5.21491e-05
0.00129113 2.70649e-05 3.24657e-06
2.70649e-05 0.000495697 3.03948e-06
3.24657e-06 3.03948e-06 0.000476491
0.000496183 9.87235e-07 7.63186e-08
9.87235e-07 1.2531e-05 -3.21247e-06
7.63186e-08 -3.21247e-06 -5.10542e-05
0.00130517 1.03499e-05 -6.01824e-06
1.03499e-05 0.000496227 -1.7001e-06
-6.01824e-06 -1.7001e-06 0.000479428
0.000744859 -9.16336e-06 2.07206e-05
-9.16336e-06 0.000140445 8.81121e-06
2.07206e-05 8.81121e-06 0.000146205
0.0013485 -9.65814e-06 -8.15278e-06
-9.65814e-06 0.000517107 -6.52547e-06
-8.15278e-06 -6.52547e-06 0.000501277
0.000774017 -2.07551e-05 7.5165e-06
-2.07551e-05 0.000151145 3.48887e-06
7.5165e-06 3.48887e-06 0.000155891
0.000752946 -3.16381e-05 1.09666e-07
-3.16381e-05 0.00013559 -2.86235e-06
1.09666e-07 -2.86235e-06 0.000138608
0.000645495 -9.43687e-06 1.40614e-06
-9.43687e-06 9.22255e-05 -1.52361e-06
1.40614e-06 -1.52361e-06 4.35846e-05
0.000424982 2.8079e-05 -2.79294e-07
2.8079e-05 -6.01521e-05 -3.61517e-06
-2.79294e-07 -3.61517e-06 -7.70603e-05
0.000435968 4.66497e-05 4.25977e-07
4.66497e-05 -3.90069e-05 2.62676e-07
4.25977e-07 2.62676e-07 -6.45129e-05
0.00230575 9.05031e-05 1.25231e-05
9.05031e-05 0.00113955 -4.4886e-06
1.25231e-05 -4.4886e-06 0.00114451
0.000493568 6.5791e-05 5.6577e-06
6.5791e-05 1.52024e-05 7.7432e-06
5.6577e-06 7.7432e-06 -2.49126e-05
0.00270138 0.00012534 -5.19796e-06
0.00012534 0.00140023 -5.74477e-07
-5.19796e-06 -5.74477e-07 0.00139592
0.00330974 0.000119876 -4.78465e-05
0.000119876 0.00178117 5.70243e-06
-4.78465e-05 5.70243e-06 0.00177575
0.00214091 0.000369455 -2.43196e-07
0.000369455 2.17609e-05 -4.59485e-07
-2.43196e-07 -4.59485e-07 -2.75831e-05
0.00212025 0.000205354 -1.68747e-06
0.000205354 -1.36691e-08 -2.08193e-07
-1.68747e-06 -2.08193e-07 1.14487e-05
0.00204089 6.58873e-05 -1.34273e-06
6.58873e-05 -3.57463e-06 6.88168e-08
-1.34273e-06 6.88168e-08 1.06687e-05
0.00195869 -7.19883e-06 -4.85012e-06
-7.19883e-06 2.5618e-05 -9.21172e-08
-4.85012e-06 -9.21172e-08 1.00051e-05
0.0020189 -1.03648e-05 -9.17915e-07
-1.03648e-05 -1.44242e-05 -3.26781e-08
-9.17915e-07 -3.26781e-08 -6.95922e-07
0.00215299 0.000105587 -1.0765e-07
0.000105587 -4.47503e-05 2.46852e-07
-1.0765e-07 2.46852e-07 8.04615e-06
0.00226779 0.000308765 -1.18991e-06
0.000308765 -1.14107e-05 2.1952e-08
-1.18991e-06 2.1952e-08 1.10952e-05
0.00213236 -1.08236e-05 -1.57788e-06
-1.08236e-05 -6.03556e-05 -4.53736e-07
-1.57788e-06 -4.53736e-07 2.27808e-06
0.00234806 0.000159536 5.44146e-06
0.000159536 -5.11218e-05 -1.29056e-06
5.44146e-06 -1.29056e-06 1.3203e-05
0.00252248 0.000112541 1.15115e-05
0.000112541 0.000134695 1.19804e-05
1.15115e-05 1.19804e-05 0.000212167
0.00204893 -8.99452e-05 -1.91401e-06
-8.99452e-05 5.71634e-06 2.61352e-07
-1.91401e-06 2.61352e-07 1.36322e-05
0.00211001 -0.000253825 -6.73414e-07
-0.000253825 -5.09163e-05 2.78274e-08
-6.73414e-07 2.78274e-08 -2.57221e-05
0.00214271 -0.000403667 -5.50681e-07
-0.000403667 2.47632e-05 -3.71316e-08
-5.50681e-07 -3.71316e-08 5.29253e-06
0.00154001 -0.000571213 5.44156e-06
-0.000571213 0.000443171 -2.57394e-06
5.44156e-06 -2.57394e-06 4.11807e-05
0.00175451 -0.000737305 1.98059e-05
-0.000737305 0.000419703 -4.79228e-07
1.98059e-05 -4.79228e-07 -3.77549e-05
0.00194823 -0.000733097 7.55159e-06
-0.000733097 0.000348063 -1.80058e-07
7.55159e-06 -1.80058e-07 -3.50636e-05
0.00209603 -0.000533354 -2.27428e-08
-0.000533354 3.12434e-05 3.22762e-06
-2.27428e-08 3.22762e-06 -5.92126e-05
0.00189932 -0.000624784 2.35277e-06
-0.000624784 0.000113641 2.0857e-06
2.35277e-06 2.0857e-06 -0.000111194
0.000535668 -0.00040029 7.74037e-06
-0.00040029 -0.000145447 -1.62072e-05
7.74037e-06 -1.62072e-05 -0.0004996
0.00171568 -0.000407709 1.7491e-05
-0.000407709 0.000737914 -1.76999e-05
1.7491e-05 -1.76999e-05 0.000308121
0.00129197 -0.00012768 -1.50911e-06
-0.00012768 0.000488791 2.43674e-06
-1.50911e-06 2.43674e-06 0.000204665
0.000461575 1.98697e-05 2.94557e-06
1.98697e-05 -1.89171e-06 1.05598e-06
2.94557e-06 1.05598e-06 -6.64288e-05
0.000691785 3.15972e-05 6.26839e-06
3.15972e-05 0.000191623 2.2447e-06
6.26839e-06 2.2447e-06 3.54754e-05
0.000401625 -0.000121464 9.08991e-07
-0.000121464 3.63409e-05 6.25332e-06
9.08991e-07 6.25332e-06 -0.000213581
0.00213944 -0.000129615 5.77029e-07
-0.000129615 -4.82572e-05 -8.98493e-08
5.77029e-07 -8.98493e-08 6.41004e-06
0.000492204 1.08789e-05 1.7188e-06
1.08789e-05 1.68829e-06 3.0955e-07
1.7188e-06 3.0955e-07 -4.95744e-05
0.00039745 -7.2058e-05 -2.18023e-06
-7.2058e-05 -3.3567e-05 -5.47935e-07
-2.18023e-06 -5.47935e-07 -0.000121398
0.00224887 -0.000340973 -1.96934e-07
-0.000340973 -5.57622e-05 1.54693e-07
-1.96934e-07 1.54693e-07 6.29932e-06
0.00219673 -0.00048412 -1.78197e-06
-0.00048412 7.78753e-06 3.16176e-07
-1.78197e-06 3.16176e-07 7.67929e-06
0.00183825 -0.000659114 -1.57833e-06
-0.000659114 0.000589232 1.99085e-06
-1.57833e-06 1.99085e-06 0.000150743
0.00189957 -0.000824842 6.61301e-06
-0.000824842 0.000470153 9.4658e-07
6.61301e-06 9.4658e-07 -3.4468e-05
0.00197875 -0.000802013 3.6669e-06
-0.000802013 0.000267548 -4.85985e-06
3.6669e-06 -4.85985e-06 -0.000100076
0.00226765 -0.000679807 3.04174e-06
-0.000679807 0.000139255 -1.12726e-06
3.04174e-06 -1.12726e-06 -8.01924e-06
0.0006731 1.19665e-05 -8.29275e-07
1.19665e-05 0.000183307 -1.14117e-06
-8.29275e-07 -1.14117e-06 6.66319e-05
0.00078133 -5.363e-05 9.22372e-07
-5.363e-05 0.00027762 1.91175e-06
9.22372e-07 1.91175e-06 6.85199e-05
0.00145082 -0.000519359 3.51922e-06
-0.000519359 0.000439899 4.56166e-06
3.51922e-06 4.56166e-06 5.6072e-05
0.00113911 -0.000368859 1.06881e-05
-0.000368859 0.000487075 -8.2237e-06
1.06881e-05 -8.2237e-06 -4.59189e-05
0.000967084 -0.000140633 -9.83902e-07
-0.000140633 0.000295041 -1.03938e-06
-9.83902e-07 -1.03938e-06 -4.36238e-05
0.000290304 -9.34773e-05 5.39203e-07
-9.34773e-05 -5.66478e-05 -1.62777e-06
5.39203e-07 -1.62777e-06 -0.000320662
0.0021491 -0.000150211 1.2054e-06
-0.000150211 -0.000177926 -8.35083e-07
1.2054e-06 -8.35083e-07 -0.000103083
0.00224105 -0.000437305 -1.20004e-06
-0.000437305 -0.000207961 3.14475e-06
-1.20004e-06 3.14475e-06 -1.41574e-05
0.00243041 -0.000666458 -3.43503e-06
-0.000666458 8.36146e-05 -9.30351e-07
-3.43503e-06 -9.30351e-07 4.52758e-05
0.00247334 -0.000885388 1.09293e-05
-0.000885388 0.000341224 -3.83703e-06
1.09293e-05 -3.83703e-06 0.000107973
0.0011869 -0.000619187 -2.56002e-06
-0.000619187 0.000251379 -1.86802e-05
-2.56002e-06 -1.86802e-05 -0.000199033
0.00294501 -0.00102909 -8.32353e-06
-0.00102909 0.000961898 8.36806e-06
-8.32353e-06 8.36806e-06 0.000416453
0.000160748 5.01702e-05 -2.61076e-06
5.01702e-05 -0.000173213 -4.79641e-06
-2.61076e-06 -4.79641e-06 -0.000268838
0.00056709 -4.64248e-05 4.06047e-06
-4.64248e-05 7.86283e-05 7.24381e-07
4.06047e-06 7.24381e-07 -6.18189e-06
0.00122473 -0.000154192 -2.18702e-06
-0.000154192 0.000461426 1.20299e-05
-2.18702e-06 1.20299e-05 0.000349107
0.000516117 1.86616e-05 -3.92121e-06
1.86616e-05 8.49053e-05 3.61976e-06
-3.92121e-06 3.61976e-06 -7.70222e-05
0.000737026 -9.08071e-05 -3.51959e-06
-9.08071e-05 0.000227971 6.97682e-06
-3.51959e-06 6.97682e-06 8.4465e-06
0.000754499 -6.8307e-05 1.00803e-05
-6.8307e-05 0.000154328 -1.03533e-05
1.00803e-05 -1.03533e-05 -9.78304e-05
-0.000978272 -0.000275824 1.14128e-06
-0.000275824 -0.000475668 -2.19114e-06
1.14128e-06 -2.19114e-06 -0.00124752
6.86496e-06 -0.000504908 -5.20814e-05
-0.000504908 -0.000473906 1.98918e-05
-5.20814e-05 1.98918e-05 -0.000818833
0.000426491 7.09295e-05 -8.16709e-07
7.09295e-05 2.72414e-05 -1.48033e-06
-8.16709e-07 -1.48033e-06 -0.000144536
0.000770177 0.000250344 -1.01961e-05
0.000250344 0.000315047 -5.56911e-06
-1.01961e-05 -5.56911e-06 1.86076e-05
0.00233674 0.000460523 -8.99923e-06
0.000460523 -6.94098e-05 -3.59671e-06
-8.99923e-06 -3.59671e-06 -4.91814e-05
0.002463 0.00061938 -9.00047e-06
0.00061938 0.000333132 -1.12709e-06
-9.00047e-06 -1.12709e-06 0.000122767
0.00298093 0.000439922 -6.45194e-06
0.000439922 0.00132812 -1.00246e-06
-6.45194e-06 -1.00246e-06 0.00108658
0.00171402 0.00051601 -4.24463e-06
0.00051601 0.00054721 -4.06478e-06
-4.24463e-06 -4.06478e-06 0.000191606
0.00202566 0.000692516 -5.07257e-06
0.000692516 0.000288163 1.23444e-06
-5.07257e-06 1.23444e-06 -4.41513e-05
0.00193445 0.000715679 -3.57732e-06
0.000715679 0.000484142 -1.80457e-06
-3.57732e-06 -1.80457e-06 6.41138e-05
0.000426601 0.000104727 1.11852e-06
0.000104727 3.23477e-05 -1.31904e-06
1.11852e-06 -1.31904e-06 -0.000151587
0.00239643 0.000354325 -2.47626e-06
0.000354325 -7.04697e-05 -1.96195e-06
-2.47626e-06 -1.96195e-06 6.9412e-06
0.00143856 0.000329412 1.0865e-06
0.000329412 0.000661554 1.69983e-06
1.0865e-06 1.69983e-06 0.000372507
0.00158134 0.000502461 2.34358e-06
0.000502461 0.000441344 1.06803e-06
2.34358e-06 1.06803e-06 0.000108399
0.0025863 0.000594325 1.8231e-06
0.000594325 0.000250618 3.46929e-07
1.8231e-06 3.46929e-07 0.000170243
0.00166994 0.000700649 -1.68247e-06
0.000700649 -1.86605e-05 -4.64058e-06
-1.68247e-06 -4.64058e-06 -0.000341658
0.00212096 0.00075699 2.1116e-07
0.00075699 0.000564045 5.77111e-07
2.1116e-07 5.77111e-07 0.000122775
0.0012021 0.000266776 -4.35452e-06
0.000266776 0.000584573 3.07228e-06
-4.35452e-06 3.07228e-06 0.000336496
0.00345158 0.000504335 -7.76237e-05
0.000504335 0.000562771 -2.08539e-05
-7.76237e-05 -2.08539e-05 0.000691804
0.00146099 0.000477483 -6.08031e-06
0.000477483 0.000588895 4.57764e-06
-6.08031e-06 4.57764e-06 0.00026154
0.00159891 0.000589331 -2.07888e-06
0.000589331 0.00037812 -4.55154e-06
-2.07888e-06 -4.55154e-06 -2.14006e-05
0.00219068 0.000774679 -3.07017e-05
0.000774679 0.000124097 -1.8322e-05
-3.07017e-05 -1.8322e-05 -9.55147e-05
0.00109835 0.00066096 -2.04712e-05
0.00066096 -6.32779e-05 -1.91384e-06
-2.04712e-05 -1.91384e-06 -0.00046875
0.000372983 0.000768383 2.86135e-05
0.000768383 -0.00169179 -3.75882e-05
2.86135e-05 -3.75882e-05 -0.0013989
-1.82031e-05 0.000119805 3.34247e-06
0.000119805 -0.000234128 -8.46193e-07
3.34247e-06 -8.46193e-07 -0.000352932
0.000488298 0.000111238 3.22094e-07
0.000111238 0.000104579 1.69626e-06
3.22094e-07 1.69626e-06 1.5958e-05
0.0020097 0.00017058 1.42456e-06
0.00017058 0.000997074 -2.67659e-07
1.42456e-06 -2.67659e-07 0.000918253
0.00042599 -6.38893e-05 5.02277e-07
-6.38893e-05 1.36825e-05 -3.89912e-06
5.02277e-07 -3.89912e-06 -0.000105309
0.000416301 -4.00525e-05 -6.60963e-07
-4.00525e-05 1.93494e-05 -1.21358e-06
-6.60963e-07 -1.21358e-06 -0.000121476
0.00102046 0.000182979 2.24739e-07
0.000182979 0.000402569 1.16394e-06
2.24739e-07 1.16394e-06 0.000243092
-0.000171586 2.58484e-05 -6.10142e-06
2.58484e-05 -0.000342114 1.34363e-05
-6.10142e-06 1.34363e-05 -0.000413795
0.0005293 -1.40943e-05 -3.45086e-07
-1.40943e-05 7.77058e-05 -1.1444e-07
-3.45086e-07 -1.1444e-07 -4.82133e-05
0.000493819 6.67969e-05 1.43602e-07
6.67969e-05 4.89885e-05 -6.49269e-07
1.43602e-07 -6.49269e-07 -9.39966e-05
0.00112132 0.000110705 2.64212e-06
0.000110705 0.000404727 4.46109e-06
2.64212e-06 4.46109e-06 0.000355575
0.000527771 6.54713e-05 1.60403e-06
6.54713e-05 8.26588e-05 7.37099e-07
1.60403e-06 7.37099e-07 -6.37327e-05
0.000676256 4.94887e-05 -1.39441e-06
4.94887e-05 0.000149591 -2.04286e-06
-1.39441e-06 -2.04286e-06 5.24116e-05
0.00160648 0.000129766 -2.26436e-06
0.000129766 0.000734349 -1.24848e-05
-2.26436e-06 -1.24848e-05 0.000683019
0.000854259 0.000135418 -2.01635e-06
0.000135418 0.000247732 -2.62833e-06
-2.01635e-06 -2.62833e-06 0.000102289
0.000945112 0.000131716 1.71506e-06
0.000131716 0.000332978 1.35306e-06
1.71506e-06 1.35306e-06 0.000176773
0.000895004 8.82764e-05 2.5704e-07
8.82764e-05 0.000320382 1.68596e-06
2.5704e-07 1.68596e-06 0.000147664
0.000275374 -2.35039e-05 -6.86897e-08
-2.35039e-05 -9.93031e-05 2.54966e-06
-6.86897e-08 2.54966e-06 -0.000222112
0.00104267 -7.49835e-05 4.33532e-07
-7.49835e-05 0.000447775 -1.74113e-06
4.33532e-07 -1.74113e-06 0.000264676
0.000207261 -3.96773e-05 -1.2895e-06
-3.96773e-05 -0.000138675 3.32515e-06
-1.2895e-06 3.32515e-06 -0.00026651
0.000459845 3.86201e-06 -1.74003e-06
3.86201e-06 1.04756e-05 3.19341e-06
-1.74003e-06 3.19341e-06 -7.33211e-05
0.000478472 3.80318e-05 2.473e-06
3.80318e-05 1.94044e-05 -1.49335e-07
2.473e-06 -1.49335e-07 -6.18351e-05
0.00038497 2.15623e-05 2.43525e-07
2.15623e-05 -6.58742e-05 4.45336e-06
2.43525e-07 4.45336e-06 -8.92923e-05
0.000438149 7.03505e-06 -2.93409e-06
7.03505e-06 -6.35366e-06 -3.57577e-06
-2.93409e-06 -3.57577e-06 -8.34864e-05
0.000882902 1.62331e-05 -3.41777e-06
1.62331e-05 0.000239676 -1.54565e-06
-3.41777e-06 -1.54565e-06 0.000219352
0.00261009 -5.18966e-06 1.86869e-05
-5.18966e-06 0.00131024 5.5041e-06
1.86869e-05 5.5041e-06 0.00132315
0.00139245 2.13832e-05 -9.75432e-06
2.13832e-05 0.000551849 -6.58699e-06
-9.75432e-06 -6.58699e-06 0.000534459
0.000767433 -1.0995e-05 6.47527e-06
-1.0995e-05 0.000151021 3.40319e-06
6.47527e-06 3.40319e-06 0.000156352
0.0007886 -2.16388e-05 5.53777e-07
-2.16388e-05 0.000156991 -2.63882e-06
5.53777e-07 -2.63882e-06 0.000161549
0.000500913 1.38637e-05 -2.25743e-06
1.38637e-05 9.67137e-06 -2.44981e-06
-2.25743e-06 -2.44981e-06 -3.96925e-05
0.000553924 -2.32078e-05 8.39499e-07
-2.32078e-05 3.81393e-05 -3.28718e-07
8.39499e-07 -3.28718e-07 -1.1905e-05
0.000500461 2.29325e-05 1.44635e-08
2.29325e-05 -1.80539e-05 -3.5728e-06
1.44635e-08 -3.5728e-06 -3.18229e-05
0.000801595 3.78168e-05 -1.35465e-07
3.78168e-05 0.00017767 1.15694e-07
-1.35465e-07 1.15694e-07 0.000161989
0.00218672 7.07834e-05 9.7535e-06
7.07834e-05 0.0010566 -4.48308e-06
9.7535e-06 -4.48308e-06 0.00106616
0.000486989 5.45465e-05 4.9458e-06
5.45465e-05 -2.62101e-06 5.55779e-06
4.9458e-06 5.55779e-06 -3.10191e-05
0.00239312 9.65231e-05 -2.87522e-06
9.65231e-05 0.00119581 -2.81192e-07
-2.87522e-06 -2.81192e-07 0.00119927
0.00277615 0.000131712 3.13176e-06
0.000131712 0.00144824 7.06466e-06
3.13176e-06 7.06466e-06 0.0014424
0.00221039 0.000315399 -2.53583e-06
0.000315399 -3.83327e-05 -6.72313e-07
-2.53583e-06 -6.72313e-07 -1.53224e-05
0.00212821 0.000100298 1.7893e-06
0.000100298 -5.17528e-05 6.7161e-07
1.7893e-06 6.7161e-07 -5.41293e-07
0.00202365 -6.03417e-06 -7.72571e-07
-6.03417e-06 -1.36036e-05 -6.04352e-08
-7.72571e-07 -6.04352e-08 2.76762e-06
0.0021212 -7.23517e-06 1.36295e-07
-7.23517e-06 -6.63322e-05 -2.29155e-07
1.36295e-07 -2.29155e-07 -3.86959e-06
0.0023264 0.000164925 -3.85502e-07
0.000164925 -4.90657e-05 4.61134e-07
-3.85502e-07 4.61134e-07 1.43999e-05
0.00224751 8.93174e-05 8.24263e-06
8.93174e-05 -5.18061e-05 -5.55108e-06
8.24263e-06 -5.55108e-06 2.06937e-05
0.00236835 -3.27827e-06 1.69623e-06
-3.27827e-06 -9.03897e-05 -1.79814e-06
1.69623e-06 -1.79814e-06 1.14175e-05
0.00450397 0.000794406 5.64457e-05
0.000794406 -0.000419206 1.11467e-05
5.64457e-05 1.11467e-05 0.00020761
0.00276521 6.8732e-05 -2.45824e-05
6.8732e-05 0.000428293 2.86882e-05
-2.45824e-05 2.86882e-05 0.000627949
0.000486863 0.000108514 -2.92091e-06
0.000108514 4.1281e-05 -1.20135e-06
-2.92091e-06 -1.20135e-06 -5.23037e-05
0.00214629 -0.000130638 8.47999e-07
-0.000130638 -5.24662e-05 -3.19747e-07
8.47999e-07 -3.19747e-07 4.76413e-06
0.0022217 -0.000330297 2.18562e-06
-0.000330297 -5.08492e-05 -8.15424e-07
2.18562e-06 -8.15424e-07 1.85684e-06
0.0021547 -0.000475493 -4.88944e-07
-0.000475493 -1.18398e-05 4.28227e-07
-4.88944e-07 4.28227e-07 -5.21937e-06
0.00101809 -0.000570109 -2.34527e-06
-0.000570109 0.00011169 9.31111e-06
-2.34527e-06 9.31111e-06 -0.000303421
0.00217772 -0.000850455 1.85863e-05
-0.000850455 0.00062336 9.85814e-06
1.85863e-05 9.85814e-06 0.000118508
0.00160279 -0.000761888 -7.34067e-06
-0.000761888 4.83398e-05 -4.92424e-06
-7.34067e-06 -4.92424e-06 -0.000307745
0.00219825 -0.000674136 -5.75023e-06
-0.000674136 0.000101335 1.28579e-06
-5.75023e-06 1.28579e-06 -4.22554e-05
0.00170531 -0.000519628 3.74093e-05
-0.000519628 0.000527818 -3.14235e-05
3.74093e-05 -3.14235e-05 0.000173694
0.001258 -0.000394338 2.74497e-05
-0.000394338 0.000513027 -2.61975e-05
2.74497e-05 -2.61975e-05 4.51971e-05
0.000791522 -6.54317e-05 4.43966e-07
-6.54317e-05 0.000148004 5.37845e-06
4.43966e-07 5.37845e-06 -0.0001544
0.000491672 1.00386e-05 2.18407e-06
1.00386e-05 1.8861e-06 1.01014e-06
2.18407e-06 1.01014e-06 -4.9908e-05
0.00133447 -0.000103865 9.74599e-07
-0.000103865 0.000597118 6.35432e-06
9.74599e-07 6.35432e-06 0.000311501
0.000932208 -2.46827e-05 7.25756e-06
-2.46827e-05 0.000359595 -1.02951e-06
7.25756e-06 -1.02951e-06 0.000236899
0.000683231 -4.71336e-05 2.47069e-06
-4.71336e-05 0.00020706 -7.09398e-07
2.47069e-06 -7.09398e-07 3.74558e-06
0.000133586 -4.32425e-05 -3.30622e-06
-4.32425e-05 -0.000206905 -2.20776e-07
-3.30622e-06 -2.20776e-07 -0.000290627
0.00222015 -0.000167814 -5.02688e-07
-0.000167814 -0.000166317 7.00976e-10
-5.02688e-07 7.00976e-10 -6.54938e-05
0.000343651 2.57216e-05 3.93893e-07
2.57216e-05 -4.55442e-05 -2.40918e-06
3.93893e-07 -2.40918e-06 -0.000147051
0.000584374 -5.63859e-05 2.59188e-06
-5.63859e-05 0.000104014 9.87179e-07
2.59188e-06 9.87179e-07 1.01993e-05
0.000893667 -0.000124813 3.31491e-06
-0.000124813 0.000252289 1.88193e-07
3.31491e-06 1.88193e-07 0.000150485
0.00226325 -0.000449293 2.03466e-06
-0.000449293 -0.000174261 -7.53841e-07
2.03466e-06 -7.53841e-07 -1.79532e-05
0.00233885 -0.000660953 5.1671e-07
-0.000660953 3.31571e-05 -6.9082e-07
5.1671e-07 -6.9082e-07 -4.95024e-06
0.00049745 -0.000473462 7.07475e-06
-0.000473462 -0.000147511 -5.2569e-08
7.07475e-06 -5.2569e-08 -0.000534713
0.00262933 -0.00100277 1.67743e-05
-0.00100277 0.000766305 3.3942e-07
1.67743e-05 3.3942e-07 0.000241146
0.00233338 -0.000874755 -8.87311e-07
-0.000874755 0.000281791 2.19147e-06
-8.87311e-07 2.19147e-06 3.70928e-05
0.000294532 -3.02759e-05 -8.92519e-07
-3.02759e-05 -5.3376e-05 1.29649e-07
-8.92519e-07 1.29649e-07 -0.000206358
0.0010236 -0.00011844 -9.36752e-07
-0.00011844 0.000424626 3.71715e-06
-9.36752e-07 3.71715e-06 0.000181467
0.00162751 -0.000696965 -1.82268e-06
-0.000696965 0.000482142 1.90351e-06
-1.82268e-06 1.90351e-06 5.26346e-05
0.000147424 -0.000204296 -9.42817e-07
-0.000204296 -1.43854e-05 1.27703e-06
-9.42817e-07 1.27703e-06 -0.000612165
0.0012447 -0.000122482 1.40959e-06
-0.000122482 0.00046576 5.92023e-06
1.40959e-06 5.92023e-06 0.000207903
0.00267252 -0.000317679 -6.92066e-06
-0.000317679 0.000101877 5.87817e-07
-6.92066e-06 5.87817e-07 0.000210843
0.00202949 -0.000497589 -1.61352e-05
-0.000497589 -0.000292771 7.52415e-06
-1.61352e-05 7.52415e-06 -6.64455e-05
0.00217781 -0.000796029 -6.60764e-06
-0.000796029 5.80736e-05 -4.37431e-07
-6.60764e-06 -4.37431e-07 -0.000117957
0.00432802 -0.00116672 -9.34141e-06
-0.00116672 0.00152501 -1.919e-06
-9.34141e-06 -1.919e-06 0.00117807
0.000231293 -0.000598331 -2.06072e-05
-0.000598331 -0.000330814 -7.3033e-06
-2.06072e-05 -7.3033e-06 -0.000756148
8.39146e-05 -2.83495e-05 3.39922e-07
-2.83495e-05 -0.000202426 -8.71818e-08
3.39922e-07 -8.71818e-08 -0.000311193
0.00074143 1.58533e-05 -3.24737e-06
1.58533e-05 0.000143222 1.03302e-05
-3.24737e-06 1.03302e-05 4.10844e-05
-0.00161483 -0.000113478 -5.67288e-06
-0.000113478 -0.00130355 -4.58311e-07
-5.67288e-06 -4.58311e-07 -0.00137917
0.00199932 -0.0002762 -1.98664e-05
-0.0002762 0.00102691 2.21046e-05
-1.98664e-05 2.21046e-05 0.000819317
0.000853919 -9.23094e-05 -4.92727e-06
-9.23094e-05 0.000299483 2.49648e-05
-4.92727e-06 2.49648e-05 7.24106e-05
-0.00147255 -0.000116927 5.37734e-06
-0.000116927 -0.000561724 -5.16674e-07
5.37734e-06 -5.16674e-07 -0.0013072
0.000316662 -0.000767145 -1.8992e-05
-0.000767145 2.19381e-05 7.28845e-06
-1.8992e-05 7.28845e-06 -0.000623125
0.00158695 0.000220221 -3.0413e-06
0.000220221 0.000760104 -6.55338e-06
-3.0413e-06 -6.55338e-06 0.000544899
-0.00039044 9.0703e-05 -4.31397e-06
9.0703e-05 -0.000493695 -2.17173e-06
-4.31397e-06 -2.17173e-06 -0.000722477
0.00252745 0.000329573 1.80153e-06
0.000329573 2.13062e-06 1.26428e-06
1.80153e-06 1.26428e-06 9.51508e-05
0.00253319 0.00058724 1.23712e-05
0.00058724 0.000227367 5.793e-06
1.23712e-05 5.793e-06 0.000151527
0.00213204 0.000740028 6.68552e-06
0.000740028 0.000253137 2.85759e-06
6.68552e-06 2.85759e-06 -7.32611e-05
0.00157972 0.000497863 -1.73642e-06
0.000497863 0.00046444 1.45039e-07
-1.73642e-06 1.45039e-07 0.00012736
0.0016962 0.000702876 9.31413e-07
0.000702876 0.000333163 1.93994e-06
9.31413e-07 1.93994e-06 -9.7525e-05
0.00195097 0.000288253 6.15035e-07
0.000288253 0.000989589 -3.77918e-07
6.15035e-07 -3.77918e-07 0.000764039
0.00273471 0.000409028 5.16956e-06
0.000409028 0.00018606 2.6234e-06
5.16956e-06 2.6234e-06 0.000345604
0.0012002 0.000397189 -3.6019e-06
0.000397189 0.000400603 2.78129e-06
-3.6019e-06 2.78129e-06 0.000108354
0.00168421 0.000604113 3.32981e-06
0.000604113 0.000466462 -1.84443e-07
3.32981e-06 -1.84443e-07 5.03911e-05
0.00226178 0.000762774 -3.20206e-06
0.000762774 0.000178162 -3.55064e-06
-3.20206e-06 -3.55064e-06 -2.33866e-05
0.00181691 0.00075164 -4.42892e-06
0.00075164 0.000342078 5.18789e-06
-4.42892e-06 5.18789e-06 -8.38119e-05
0.00308179 0.0010715 4.25573e-05
0.0010715 -0.000527045 7.76893e-06
4.25573e-05 7.76893e-06 -0.000407769
0.00051099 0.000270771 -4.30277e-06
0.000270771 0.000176228 2.62639e-06
-4.30277e-06 2.62639e-06 -7.29723e-05
0.00283691 0.000750541 -8.30689e-05
0.000750541 0.000360448 -3.70309e-05
-8.30689e-05 -3.70309e-05 0.000319193
0.000740329 0.000403046 -7.40195e-06
0.000403046 -4.40197e-05 3.5059e-06
-7.40195e-06 3.5059e-06 -0.000360201
-2.46935e-05 0.000452265 8.67612e-07
0.000452265 -0.000545119 -1.3943e-05
8.67612e-07 -1.3943e-05 -0.000933128
0.00121193 0.000797815 -3.50284e-05
0.000797815 -0.000193039 -1.07338e-05
-3.50284e-05 -1.07338e-05 -0.000453668
0.0145061 0.000385921 -0.000477693
0.000385921 0.00229491 -6.88066e-05
-0.000477693 -6.88066e-05 0.00175703
0.00377373 0.00165863 -4.9165e-05
0.00165863 -0.00180372 -7.38667e-05
-4.9165e-05 -7.38667e-05 -0.000650591
0.00025458 0.00121502 9.04078e-06
0.00121502 -0.000894456 8.52667e-07
9.04078e-06 8.52667e-07 -0.00114311
0.00170739 -0.00212133 0.00143479
-0.00212133 0.00171725 0.000301306
0.00143479 0.000301306 -0.0014951
0.0210799 -0.0081572 -3.39613e-05
-0.0081572 0.00795126 8.01627e-05
-3.39613e-05 8.01627e-05 0.00575839
-0.000167107 0.000106194 7.8936e-06
0.000106194 -0.00026251 2.22901e-06
7.8936e-06 2.22901e-06 -0.000359537
0.000936563 0.000115467 -3.92763e-07
0.000115467 0.000385598 -2.6806e-06
-3.92763e-07 -2.6806e-06 0.000306884
0.0020735 0.000267627 9.59627e-07
0.000267627 0.00110705 -3.0285e-07
9.59627e-07 -3.0285e-07 0.000987574
0.000497085 -5.56464e-05 -7.6123e-07
-5.56464e-05 6.73074e-05 -2.70407e-06
-7.6123e-07 -2.70407e-06 -6.36786e-05
0.000341038 6.50161e-05 -1.14564e-06
6.50161e-05 -4.68135e-05 -2.98601e-06
-1.14564e-06 -2.98601e-06 -0.000189727
0.000794433 -2.01895e-05 -6.47691e-08
-2.01895e-05 0.000247693 -1.07352e-06
-6.47691e-08 -1.07352e-06 9.80713e-05
0.000758026 7.51549e-05 -4.20123e-06
7.51549e-05 0.000194626 1.04015e-05
-4.20123e-06 1.04015e-05 9.16128e-05
0.000225293 7.76167e-05 2.90567e-06
7.76167e-05 -0.000148852 9.62203e-06
2.90567e-06 9.62203e-06 -0.000197408
0.000716971 0.000140398 -1.45384e-06
0.000140398 0.000217288 -4.32495e-07
-1.45384e-06 -4.32495e-07 4.30937e-05
0.000409326 -9.21624e-06 4.22892e-07
-9.21624e-06 -6.84177e-06 9.83915e-07
4.22892e-07 9.83915e-07 -0.000134614
0.000703871 5.15875e-05 -6.30198e-07
5.15875e-05 0.000193128 6.85588e-09
-6.30198e-07 6.85588e-09 2.86775e-05
0.000367526 8.73741e-05 -1.24951e-06
8.73741e-05 -3.42046e-05 -1.50517e-06
-1.24951e-06 -1.50517e-06 -8.44329e-05
0.000668535 0.000114848 -1.47438e-06
0.000114848 0.00014876 -1.65232e-07
-1.47438e-06 -1.65232e-07 6.02209e-06
0.00182199 0.000218495 -1.24738e-06
0.000218495 0.000895109 -1.12443e-06
-1.24738e-06 -1.12443e-06 0.000709315
0.000259472 0.00010171 4.33029e-07
0.00010171 -2.89541e-05 -3.5592e-06
4.33029e-07 -3.5592e-06 -0.000186847
0.000926784 0.000108592 3.19719e-06
0.000108592 0.000333404 -2.99922e-08
3.19719e-06 -2.99922e-08 0.000167759
0.000389751 -1.52665e-05 1.25091e-06
-1.52665e-05 -2.0412e-05 -9.15684e-08
1.25091e-06 -9.15684e-08 -0.000179585
0.000347814 -7.18999e-05 -8.18079e-07
-7.18999e-05 -4.64808e-05 1.99721e-06
-8.18079e-07 1.99721e-06 -0.00017902
0.000725412 -3.3077e-05 -8.11003e-07
-3.3077e-05 0.000205356 -7.87972e-07
-8.11003e-07 -7.87972e-07 4.13303e-05
0.00123913 -3.79205e-06 5.01093e-07
-3.79205e-06 0.000517323 -1.01404e-05
5.01093e-07 -1.01404e-05 0.000361657
0.000717002 -4.79134e-05 -1.05406e-06
-4.79134e-05 0.000239529 -1.11551e-06
-1.05406e-06 -1.11551e-06 8.2185e-05
0.000763993 -6.93856e-05 1.90163e-06
-6.93856e-05 0.000245673 -6.97691e-07
1.90163e-06 -6.97691e-07 8.36113e-05
0.000662637 -0.000123658 -1.81114e-06
-0.000123658 0.000155362 2.79176e-06
-1.81114e-06 2.79176e-06 2.31657e-05
0.000298425 -2.41983e-05 1.36413e-07
-2.41983e-05 -7.82063e-05 1.10692e-06
1.36413e-07 1.10692e-06 -0.00020958
0.000503745 -5.51923e-05 -1.80646e-06
-5.51923e-05 2.80393e-05 3.81942e-06
-1.80646e-06 3.81942e-06 -5.02779e-05
0.000501615 -3.73839e-05 1.94393e-06
-3.73839e-05 3.39486e-05 9.674e-08
1.94393e-06 9.674e-08 -4.85631e-05
0.000445847 3.04089e-06 2.80551e-06
3.04089e-06 -2.46745e-05 6.41437e-06
2.80551e-06 6.41437e-06 -4.95715e-05
0.000516997 5.07287e-05 -1.97256e-06
5.07287e-05 3.75517e-05 -3.39458e-06
-1.97256e-06 -3.39458e-06 -3.98112e-05
0.000408066 3.13533e-05 3.66722e-07
3.13533e-05 -4.95722e-05 7.1755e-08
3.66722e-07 7.1755e-08 -7.40196e-05
0.0025357 4.57594e-06 5.07591e-06
4.57594e-06 0.00126582 5.37935e-06
5.07591e-06 5.37935e-06 0.00127834
0.000472088 3.84854e-05 -3.60004e-06
3.84854e-05 -1.43418e-05 -7.18602e-06
-3.60004e-06 -7.18602e-06 -3.92297e-05
0.00170683 -5.41229e-06 -3.30016e-06
-5.41229e-06 0.000743662 1.63592e-07
-3.30016e-06 1.63592e-07 0.000751828
0.000805429 -1.14406e-05 4.99948e-07
-1.14406e-05 0.000170303 -2.31121e-06
4.99948e-07 -2.31121e-06 0.000175728
0.000447446 4.27702e-06 -4.14861e-07
4.27702e-06 -2.6977e-05 -1.74087e-06
-4.14861e-07 -1.74087e-06 -6.83012e-05
0.000538766 -3.75083e-05 7.92104e-08
-3.75083e-05 3.65529e-05 5.41694e-09
7.92104e-08 5.41694e-09 -1.48733e-05
0.000525503 1.23532e-05 8.08111e-07
1.23532e-05 -4.66341e-06 -3.35239e-06
8.08111e-07 -3.35239e-06 -1.54799e-05
0.000477028 -3.66136e-05 -1.37095e-06
-3.66136e-05 -9.11194e-06 4.76556e-07
-1.37095e-06 4.76556e-07 -5.94931e-05
0.000798991 2.75452e-05 -1.7595e-07
2.75452e-05 0.000169995 -7.20731e-07
-1.7595e-07 -7.20731e-07 0.000158353
0.00201438 5.2175e-05 6.30748e-06
5.2175e-05 0.000941894 -4.56519e-06
6.30748e-06 -4.56519e-06 0.000955435
0.000461956 3.33451e-05 1.00225e-06
3.33451e-05 -3.56995e-05 3.7396e-06
1.00225e-06 3.7396e-06 -5.37063e-05
0.00230683 7.62802e-05 -5.86041e-06
7.62802e-05 0.00113491 1.15259e-06
-5.86041e-06 1.15259e-06 0.00114309
0.00252564 0.000104587 -2.04369e-06
0.000104587 0.00128111 5.61926e-06
-2.04369e-06 5.61926e-06 0.00128268
0.00229682 0.000172257 -3.17227e-06
0.000172257 -5.02462e-05 -7.7592e-07
-3.17227e-06 -7.7592e-07 1.2661e-05
0.00211363 -6.42523e-06 1.75046e-06
-6.42523e-06 -6.9629e-05 -5.44419e-09
1.75046e-06 -5.44419e-09 -7.68583e-06
0.00202586 6.46512e-05 -6.40882e-06
6.46512e-05 -0.000213379 3.10658e-06
-6.40882e-06 3.10658e-06 -0.000144106
0.00256287 0.000591894 9.09619e-05
0.000591894 -0.00139522 1.93887e-05
9.09619e-05 1.93887e-05 -0.000705166
0.00235654 -3.06009e-05 -4.38789e-07
-3.06009e-05 -7.51021e-05 -2.73523e-06
-4.38789e-07 -2.73523e-06 2.61164e-05
0.00219142 6.41168e-05 7.65276e-07
6.41168e-05 8.8494e-05 -9.22773e-06
7.65276e-07 -9.22773e-06 0.000227469
0.00326313 -4.02579e-05 -2.47589e-05
-4.02579e-05 0.000847735 -1.94716e-07
-2.47589e-05 -1.94716e-07 0.000872486
0.00322782 9.85934e-05 -1.42667e-05
9.85934e-05 -0.00183826 -3.53572e-05
-1.42667e-05 -3.53572e-05 -0.000809166
0.00258953 0.000204652 0.000123398
0.000204652 -0.000783759 4.9971e-05
0.000123398 4.9971e-05 -0.000272925
0.000590751 8.71907e-05 -3.53439e-07
8.71907e-05 0.000108204 -7.20815e-07
-3.53439e-07 -7.20815e-07 1.55224e-05
0.000577375 -3.18327e-06 4.7274e-07
-3.18327e-06 0.000110597 -1.11124e-07
4.7274e-07 -1.11124e-07 9.11731e-06
0.000353979 -9.09256e-05 -6.30751e-06
-9.09256e-05 -1.68439e-05 7.6458e-07
-6.30751e-06 7.6458e-07 -0.000132207
0.000431241 -5.15232e-05 -3.98412e-06
-5.15232e-05 3.59664e-05 2.17084e-06
-3.98412e-06 2.17084e-06 -8.13883e-05
0.0023025 -0.000187693 -3.29963e-06
-0.000187693 -0.000140165 1.11508e-07
-3.29963e-06 1.11508e-07 -2.17053e-05
0.00226568 -0.000455987 1.01502e-06
-0.000455987 -0.000145969 -2.43095e-06
1.01502e-06 -2.43095e-06 -2.56996e-05
0.00224667 -0.00065214 -3.55796e-06
-0.00065214 -1.49318e-05 1.13416e-06
-3.55796e-06 1.13416e-06 -5.25826e-05
0.00359839 -0.000826132 1.70259e-05
-0.000826132 0.00163204 1.35956e-05
1.70259e-05 1.35956e-05 0.00117999
0.000439903 -0.000767699 -1.8845e-06
-0.000767699 -0.000459929 2.09495e-07
-1.8845e-06 2.09495e-07 -0.000938643
0.00222113 -0.00086475 1.07841e-07
-0.00086475 0.000236012 -2.7001e-06
1.07841e-07 -2.7001e-06 -1.62668e-05
0.00100695 -0.000683923 1.84273e-05
-0.000683923 0.00010183 -1.80003e-05
1.84273e-05 -1.80003e-05 -0.000367497
0.00364522 -0.000306576 9.56437e-06
-0.000306576 0.00180006 -3.73588e-06
9.56437e-06 -3.73588e-06 0.0014083
-7.15709e-06 -1.94514e-05 -5.88283e-06
-1.94514e-05 -0.000379756 4.84793e-06
-5.88283e-06 4.84793e-06 -0.000583794
0.000637894 -5.32766e-05 3.74647e-06
-5.32766e-05 0.000136704 -6.02409e-07
3.74647e-06 -6.02409e-07 4.38461e-05
0.000599547 -0.000131386 -3.30227e-06
-0.000131386 0.00017371 -1.21755e-05
-3.30227e-06 -1.21755e-05 -7.2625e-05
0.000469106 -2.95247e-05 5.28448e-06
-2.95247e-05 5.49937e-05 -6.96986e-07
5.28448e-06 -6.96986e-07 -9.4077e-05
0.00060819 1.38165e-06 6.6114e-07
1.38165e-06 0.000146316 1.92342e-06
6.6114e-07 1.92342e-06 3.18827e-05
0.000557014 -7.00473e-05 -7.56046e-06
-7.00473e-05 4.26804e-05 -4.43647e-07
-7.56046e-06 -4.43647e-07 -4.56424e-05
0.0026142 -0.000299947 1.97971e-06
-0.000299947 7.79361e-05 1.36721e-06
1.97971e-06 1.36721e-06 0.000203289
0.000497312 -2.46143e-05 -6.78719e-07
-2.46143e-05 7.45957e-05 1.77034e-06
-6.78719e-07 1.77034e-06 -5.44438e-05
0.000842282 -4.17495e-05 6.44319e-06
-4.17495e-05 0.000218933 -1.13627e-07
6.44319e-06 -1.13627e-07 0.000106476
-0.000469544 -3.53227e-05 3.50659e-06
-3.53227e-05 -0.000538996 3.34549e-08
3.50659e-06 3.34549e-08 -0.0005994
0.00202988 -0.00051007 6.39453e-07
-0.00051007 -0.000315929 -1.2473e-06
6.39453e-07 -1.2473e-06 -0.000104221
0.00226214 -0.000803115 2.15988e-06
-0.000803115 0.000100578 -1.29249e-06
2.15988e-06 -1.29249e-06 -6.92981e-05
0.00188196 -0.000824546 -4.14728e-06
-0.000824546 0.000586566 2.53402e-07
-4.14728e-06 2.53402e-07 0.000121398
0.00258289 -0.000996243 -6.08409e-06
-0.000996243 0.00057324 1.67291e-06
-6.08409e-06 1.67291e-06 0.000245792
0.00145558 -0.000153839 2.75164e-06
-0.000153839 0.000671023 -2.35254e-06
2.75164e-06 -2.35254e-06 0.000474089
0.000220681 -3.39461e-05 7.19836e-06
-3.39461e-05 -0.000121731 8.83234e-06
7.19836e-06 8.83234e-06 -0.000341395
0.00176918 -0.000989763 2.37984e-06
-0.000989763 0.000910286 -2.80472e-06
2.37984e-06 -2.80472e-06 0.000191015
0.00100388 -0.000381259 -6.81729e-06
-0.000381259 0.000420426 -1.0604e-06
-6.81729e-06 -1.0604e-06 -7.63791e-05
0.00335828 -0.00043855 -4.22402e-05
-0.00043855 0.000421222 3.86991e-06
-4.22402e-05 3.86991e-06 0.000676007
0.00259661 -0.000664144 -4.14962e-05
-0.000664144 0.000209977 1.33297e-05
-4.14962e-05 1.33297e-05 0.000269892
0.00251615 -0.000933539 2.68653e-06
-0.000933539 0.000427982 -8.01243e-06
2.68653e-06 -8.01243e-06 0.000111153
0.00297926 -0.000994177 2.84956e-06
-0.000994177 0.00100422 4.86206e-06
2.84956e-06 4.86206e-06 0.00066623
0.000137156 -5.33171e-05 -2.17348e-06
-5.33171e-05 -9.20103e-05 -7.74313e-06
-2.17348e-06 -7.74313e-06 -0.000216123
0.000479962 -0.000125456 -1.0841e-05
-0.000125456 6.55353e-05 -5.26346e-06
-1.0841e-05 -5.26346e-06 -0.000110619
0.000120944 -0.000180215 -6.09262e-06
-0.000180215 0.000114438 4.84671e-05
-6.09262e-06 4.84671e-05 -0.00020957
-0.000613235 -0.000812139 -3.69385e-06
-0.000812139 0.000185297 -2.71605e-05
-3.69385e-06 -2.71605e-05 -0.000857435
0.00250214 -0.000465623 5.59682e-05
-0.000465623 -0.00516168 -1.73675e-05
5.59682e-05 -1.73675e-05 -0.00520622
0.00228233 0.000276887 1.82329e-07
0.000276887 0.00117113 -3.91905e-06
1.82329e-07 -3.91905e-06 0.000949264
0.00120319 0.000344498 -5.24971e-07
0.000344498 0.000390462 -8.25225e-07
-5.24971e-07 -8.25225e-07 0.000120949
0.00191089 0.000335215 5.86439e-05
0.000335215 -0.0002705 1.81022e-05
5.86439e-05 1.81022e-05 -8.77254e-05
0.00255022 0.000771715 2.35555e-05
0.000771715 0.000348503 9.5636e-06
2.35555e-05 9.5636e-06 0.00015769
0.00215811 0.000795169 7.42766e-06
0.000795169 0.000544866 1.06368e-05
7.42766e-06 1.06368e-05 0.00010597
0.00122305 0.000553566 5.9184e-06
0.000553566 0.000229069 6.11765e-06
5.9184e-06 6.11765e-06 -0.000190013
0.00543048 0.00138602 0.000116516
0.00138602 0.000381506 3.59268e-05
0.000116516 3.59268e-05 0.000295781
0.00151495 0.000311461 5.33031e-06
0.000311461 0.000762124 1.02214e-08
5.33031e-06 1.02214e-08 0.000524558
0.00262693 0.000709891 -2.31789e-05
0.000709891 0.000235286 7.10781e-07
-2.31789e-05 7.10781e-07 0.000225044
0.000924772 0.000426363 -4.60795e-06
0.000426363 0.000107117 3.45211e-06
-4.60795e-06 3.45211e-06 -0.000220694
0.00144318 0.000644074 8.40603e-07
0.000644074 0.000305207 -6.38241e-06
8.40603e-07 -6.38241e-06 -0.000121264
0.00220466 0.000882907 -1.13466e-05
0.000882907 0.000338633 -5.09954e-07
-1.13466e-05 -5.09954e-07 4.8424e-05
0.00460111 -0.000651147 -0.000162233
-0.000651147 -0.00464717 -8.30473e-05
-0.000162233 -8.30473e-05 -0.0055287
0.00705358 0.00171023 -0.000136699
0.00171023 -0.000238963 -6.02743e-05
-0.000136699 -6.02743e-05 0.000678053
0.000997896 0.0012023 -1.53041e-06
0.0012023 -0.000461954 6.37132e-06
-1.53041e-06 6.37132e-06 -0.000814376
0.000563913 -0.00190107 0.000517617
-0.00190107 0.00277586 0.000205677
0.000517617 0.000205677 -0.000104609
0.0128854 -0.00825442 -0.000469717
-0.00825442 0.00607479 -0.000429165
-0.000469717 -0.000429165 0.00372395
0.000832042 0.000261917 -1.58891e-05
0.000261917 0.000255426 3.18884e-07
-1.58891e-05 3.18884e-07 4.30997e-05
0.00112944 0.00054392 0.000725569
0.00054392 0.00402894 7.1878e-05
0.000725569 7.1878e-05 0.00206678
0.00345334 -0.00292707 -0.000178829
-0.00292707 0.00550866 -0.0002289
-0.000178829 -0.0002289 0.000542715
0.00298251 0.00112088 -5.29388e-05
0.00112088 0.000559179 -1.24929e-05
-5.29388e-05 -1.24929e-05 0.000380766
0.000747074 0.00033586 -2.63248e-05
0.00033586 8.81567e-06 -4.23991e-06
-2.63248e-05 -4.23991e-06 -0.000278454
0.000767614 0.000661093 -2.99748e-05
0.000661093 -8.52957e-06 -2.5989e-05
-2.99748e-05 -2.5989e-05 -0.000368896
-7.54541e-05 0.00111017 5.38324e-05
0.00111017 -0.000799708 9.5367e-05
5.38324e-05 9.5367e-05 -0.00117187
0.0124267 0.00235961 5.38314e-05
0.00235961 0.00144126 -2.57232e-05
5.38314e-05 -2.57232e-05 0.000477865
0.00467392 0.00251587 -3.87794e-05
0.00251587 -0.000121665 -5.20261e-05
-3.87794e-05 -5.20261e-05 0.000352681
0.0146597 -0.00637061 0.000983626
-0.00637061 0.00456233 0.000519051
0.000983626 0.000519051 0.00116406
0.0126864 -0.00293627 -8.46016e-05
-0.00293627 0.00340387 0.000605197
-8.46016e-05 0.000605197 0.00190731
0.000411273 9.86389e-05 5.67202e-06
9.86389e-05 9.92357e-05 -3.3541e-06
5.67202e-06 -3.3541e-06 1.47003e-05
0.000167584 0.000127323 8.4181e-06
0.000127323 -5.00083e-05 1.09004e-06
8.4181e-06 1.09004e-06 -0.000154873
0.00190778 0.000294957 2.57234e-06
0.000294957 0.00102171 -1.16539e-06
2.57234e-06 -1.16539e-06 0.00084623
0.000577044 8.80461e-06 8.47677e-07
8.80461e-06 0.000122381 -2.49149e-07
8.47677e-07 -2.49149e-07 -2.12231e-05
0.000613653 6.95184e-05 -7.62172e-07
6.95184e-05 0.000129154 -2.00119e-06
-7.62172e-07 -2.00119e-06 -2.84836e-05
5.62839e-05 3.47974e-05 -1.86513e-06
3.47974e-05 -0.000210887 9.07575e-07
-1.86513e-06 9.07575e-07 -0.000362425
0.000710941 0.000112923 -7.75701e-06
0.000112923 0.000194057 2.1395e-06
-7.75701e-06 2.1395e-06 4.75537e-05
-0.000577176 5.44502e-05 -3.84416e-06
5.44502e-05 -0.000632191 4.56251e-07
-3.84416e-06 4.56251e-07 -0.000680703
0.000353506 -1.37099e-05 1.62301e-07
-1.37099e-05 -3.68903e-05 8.94524e-07
1.62301e-07 8.94524e-07 -0.000173318
0.00126612 0.000139397 1.78236e-06
0.000139397 0.000533063 1.06329e-07
1.78236e-06 1.06329e-07 0.000363478
0.000588782 5.69257e-05 1.24371e-07
5.69257e-05 0.000133518 1.64278e-07
1.24371e-07 1.64278e-07 -3.76539e-05
0.000755036 3.51679e-05 1.27637e-06
3.51679e-05 0.000234355 -4.23026e-07
1.27637e-06 -4.23026e-07 5.64928e-05
0.00033333 0.000103452 -5.04592e-07
0.000103452 1.61624e-05 -2.65943e-06
-5.04592e-07 -2.65943e-06 -0.000138855
0.00142892 0.000132032 -1.80814e-06
0.000132032 0.000660615 -3.15639e-06
-1.80814e-06 -3.15639e-06 0.000492778
-0.000364429 5.24287e-05 -5.93439e-06
5.24287e-05 -0.000287696 -5.79959e-06
-5.93439e-06 -5.79959e-06 -0.000502493
0.000483217 -8.25196e-05 1.82303e-07
-8.25196e-05 6.06647e-05 -6.42114e-07
1.82303e-07 -6.42114e-07 -0.0001086
0.000774076 -8.18846e-05 -1.09415e-06
-8.18846e-05 0.000252725 -7.0854e-07
-1.09415e-06 -7.0854e-07 7.39921e-05
0.000772388 -5.01184e-05 -2.24784e-07
-5.01184e-05 0.000249364 -6.16807e-07
-2.24784e-07 -6.16807e-07 7.36946e-05
0.000722688 -2.66449e-05 -3.64468e-06
-2.66449e-05 0.000181156 3.23631e-07
-3.64468e-06 3.23631e-07 4.31545e-05
0.00108631 1.45571e-06 -6.27201e-06
1.45571e-06 0.000476531 -5.32552e-06
-6.27201e-06 -5.32552e-06 0.000278748
0.000772772 -5.78692e-05 2.57661e-06
-5.78692e-05 0.000228986 -9.44507e-06
2.57661e-06 -9.44507e-06 9.37858e-05
-0.00128097 -2.64086e-06 -3.1374e-06
-2.64086e-06 -0.00104148 -6.61237e-06
-3.1374e-06 -6.61237e-06 -0.0011561
0.000431705 -4.46459e-05 2.03192e-06
-4.46459e-05 4.94709e-05 -2.02231e-06
2.03192e-06 -2.02231e-06 -0.000123119
0.000346865 -7.77329e-05 2.12803e-06
-7.77329e-05 -3.057e-05 2.87317e-07
2.12803e-06 2.87317e-07 -0.000165585
0.000709537 -0.00010146 -1.2424e-06
-0.00010146 0.000216034 -4.45149e-08
-1.2424e-06 -4.45149e-08 6.52656e-05
0.000513811 -8.34457e-05 -1.14899e-06
-8.34457e-05 4.49185e-05 1.99395e-06
-1.14899e-06 1.99395e-06 -7.03528e-05
0.000415484 -8.14322e-05 3.37098e-06
-8.14322e-05 -5.39095e-06 8.17423e-07
3.37098e-06 8.17423e-07 -0.000143449
0.000543321 -0.000113207 1.28752e-08
-0.000113207 7.76365e-05 2.00526e-07
1.28752e-08 2.00526e-07 -5.32049e-05
0.000540171 -5.42931e-05 -1.94791e-06
-5.42931e-05 4.77433e-05 4.50212e-06
-1.94791e-06 4.50212e-06 -3.11325e-05
0.000387921 -1.03554e-05 8.75368e-07
-1.03554e-05 -6.94514e-06 -9.00782e-07
8.75368e-07 -9.00782e-07 -0.00014982
0.00049405 9.60623e-07 2.18558e-06
9.60623e-07 2.96027e-05 1.22288e-07
2.18558e-06 1.22288e-07 -5.34328e-05
0.00145082 -2.81247e-05 -8.87343e-06
-2.81247e-05 0.000596673 6.79256e-06
-8.87343e-06 6.79256e-06 0.00057585
0.000485168 6.61101e-05 -1.98954e-06
6.61101e-05 2.37969e-05 -3.31692e-06
-1.98954e-06 -3.31692e-06 -5.83113e-05
0.000872684 -1.55698e-05 -3.79388e-06
-1.55698e-05 0.000241652 7.29007e-07
-3.79388e-06 7.29007e-07 0.000218829
0.000782085 3.44179e-06 -2.86496e-06
3.44179e-06 0.000170587 4.8311e-06
-2.86496e-06 4.8311e-06 0.000175126
0.000399824 -1.66956e-05 3.16669e-06
-1.66956e-05 -5.54513e-05 -4.89607e-06
3.16669e-06 -4.89607e-06 -7.91948e-05
0.00256525 3.54646e-06 6.78028e-06
3.54646e-06 0.00128465 -1.24907e-08
6.78028e-06 -1.24907e-08 0.00129708
0.000890475 2.47342e-06 -8.65625e-06
2.47342e-06 0.000234293 -5.35763e-06
-8.65625e-06 -5.35763e-06 0.000238278
0.000495052 6.36786e-05 2.02251e-06
6.36786e-05 5.0994e-05 1.05055e-06
2.02251e-06 1.05055e-06 -4.79363e-05
0.000462758 5.14332e-05 -2.61211e-06
5.14332e-05 -6.54461e-06 -2.20719e-06
-2.61211e-06 -2.20719e-06 -5.2863e-05
0.00048369 -4.40522e-06 1.60156e-06
-4.40522e-06 7.10973e-06 1.27427e-07
1.60156e-06 1.27427e-07 -4.15449e-05
0.000486063 9.00109e-06 7.23497e-07
9.00109e-06 -2.84171e-05 -3.10117e-06
7.23497e-07 -3.10117e-06 -3.77848e-05
0.000554987 -6.12559e-05 -1.67695e-06
-6.12559e-05 5.44876e-05 2.20252e-06
-1.67695e-06 2.20252e-06 -1.29026e-06
0.000481089 1.32374e-05 8.53789e-08
1.32374e-05 -3.27776e-05 -7.15728e-07
8.53789e-08 -7.15728e-07 -4.33806e-05
0.00200868 3.62076e-05 4.28635e-06
3.62076e-05 0.000934102 -4.63031e-06
4.28635e-06 -4.63031e-06 0.000949873
0.00109557 3.54658e-05 -7.87746e-08
3.54658e-05 0.000357888 1.65217e-06
-7.87746e-08 1.65217e-06 0.0003474
0.00146126 4.49771e-05 -2.75858e-07
4.49771e-05 0.000595133 1.42559e-06
-2.75858e-07 1.42559e-06 0.000603916
0.000870793 4.85654e-05 -6.94743e-06
4.85654e-05 0.000229906 7.98183e-06
-6.94743e-06 7.98183e-06 0.000231326
0.000844321 0.000405402 7.93643e-05
0.000405402 -0.0022202 1.65199e-05
7.93643e-05 1.65199e-05 -0.0015085
0.00232721 -5.03599e-05 -4.56145e-06
-5.03599e-05 -6.00752e-05 5.98995e-06
-4.56145e-06 5.98995e-06 3.33131e-05
0.00220122 7.02462e-05 3.16915e-05
7.02462e-05 0.000121815 -1.27525e-05
3.16915e-05 -1.27525e-05 0.000239863
0.00267642 0.000362379 -5.11171e-05
0.000362379 -0.00174538 -3.43507e-05
-5.11171e-05 -3.43507e-05 -0.000480282
0.00240006 0.000113483 4.26646e-05
0.000113483 -0.000678425 -1.77232e-06
4.26646e-05 -1.77232e-06 -0.000280166
0.00258549 -5.01913e-05 3.1853e-06
-5.01913e-05 0.000353184 -9.35333e-06
3.1853e-06 -9.35333e-06 0.000406773
0.00471266 -0.000337168 -5.67124e-05
-0.000337168 0.0010946 -1.79008e-05
-5.67124e-05 -1.79008e-05 0.00121474
0.00298209 -0.000222489 2.66864e-05
-0.000222489 -0.000399948 6.79642e-06
2.66864e-05 6.79642e-06 0.000148148
0.0157173 -0.000826359 4.2698e-05
-0.000826359 0.00273328 -1.01624e-05
4.2698e-05 -1.01624e-05 0.00162854
0.0151177 0.00532051 0.00137455
0.00532051 0.00592154 -0.000455098
0.00137455 -0.000455098 0.00311131
0.0181501 0.00618212 3.65047e-05
0.00618212 0.0117263 9.55451e-06
3.65047e-05 9.55451e-06 0.00901362
0.000166522 -9.8792e-05 -4.3962e-07
-9.8792e-05 -0.000137955 -6.09096e-07
-4.3962e-07 -6.09096e-07 -0.000248227
0.000550004 -7.87486e-06 1.53712e-06
-7.87486e-06 8.20436e-05 -1.18953e-07
1.53712e-06 -1.18953e-07 -1.09048e-05
0.000627089 -8.76067e-05 1.44449e-08
-8.76067e-05 0.000148044 3.3231e-06
1.44449e-08 3.3231e-06 4.00281e-05
0.000542932 -3.29064e-05 6.80554e-07
-3.29064e-05 9.0389e-05 4.77943e-07
6.80554e-07 4.77943e-07 -2.49216e-05
0.000912987 0.000107677 -5.14939e-06
0.000107677 0.000363084 7.99357e-07
-5.14939e-06 7.99357e-07 0.00022674
0.000442892 0.00012654 5.01987e-07
0.00012654 -2.53096e-08 8.00107e-06
5.01987e-07 8.00107e-06 -0.000119492
0.000971212 -8.52909e-06 2.45813e-06
-8.52909e-06 0.000376277 4.08049e-06
2.45813e-06 4.08049e-06 0.000238566
0.000507819 -2.82451e-05 -1.56323e-06
-2.82451e-05 6.47109e-05 1.38113e-06
-1.56323e-06 1.38113e-06 -4.86553e-05
0.00255735 -0.000283578 1.11798e-05
-0.000283578 3.76328e-05 -6.10679e-07
1.11798e-05 -6.10679e-07 0.000193784
0.00207032 -0.000533099 1.48827e-05
-0.000533099 -0.000328635 -7.07979e-06
1.48827e-05 -7.07979e-06 -0.00013144
0.00226419 -0.00080449 3.1211e-07
-0.00080449 9.74945e-05 2.5735e-06
3.1211e-07 2.5735e-06 -6.64437e-05
0.00213859 -0.000823741 1.7348e-05
-0.000823741 0.000700013 7.78764e-06
1.7348e-05 7.78764e-06 0.00026225
0.0019553 -0.000953167 -1.50145e-05
-0.000953167 0.000225238 4.34237e-06
-1.50145e-05 4.34237e-06 -0.000104074
0.00228503 -0.00107442 3.41563e-05
-0.00107442 0.00127479 -9.89122e-06
3.41563e-05 -9.89122e-06 0.000477112
0.00469309 -0.000733778 6.38039e-06
-0.000733778 0.00236844 3.74353e-06
6.38039e-06 3.74353e-06 0.00196866
0.000886905 -0.000206259 6.54111e-06
-0.000206259 0.000350017 -4.28228e-05
6.54111e-06 -4.28228e-05 6.16833e-05
0.000596513 -7.59486e-05 3.32147e-06
-7.59486e-05 4.78667e-05 6.81282e-07
3.32147e-06 6.81282e-07 -5.09844e-05
0.000821701 -8.11346e-05 9.45797e-06
-8.11346e-05 0.000240626 -1.74896e-05
9.45797e-06 -1.74896e-05 6.41712e-05
0.00108737 -5.03587e-05 3.65751e-06
-5.03587e-05 0.00043346 2.08243e-06
3.65751e-06 2.08243e-06 0.000293804
0.000770959 2.42582e-05 6.49755e-06
2.42582e-05 0.000243623 -4.80011e-06
6.49755e-06 -4.80011e-06 0.000208265
0.00240435 -0.000390972 -5.80846e-07
-0.000390972 -7.26102e-05 3.18801e-06
-5.80846e-07 3.18801e-06 0.000201166
0.000485962 -7.92401e-05 -3.13124e-06
-7.92401e-05 0.000112576 -1.29782e-07
-3.13124e-06 -1.29782e-07 -1.95178e-05
0.00115089 -0.000168486 -7.46724e-06
-0.000168486 0.00046176 5.09858e-06
-7.46724e-06 5.09858e-06 0.000305302
0.00174157 -0.000616764 7.32755e-06
-0.000616764 -0.000289051 -3.45621e-06
7.32755e-06 -3.45621e-06 -0.000183685
0.0018117 -0.000830237 1.16843e-06
-0.000830237 3.3217e-05 5.41861e-08
1.16843e-06 5.41861e-08 -0.00021414
0.00087586 -0.00074952 -9.02976e-07
-0.00074952 -0.000196992 -4.2934e-06
-9.02976e-07 -4.2934e-06 -0.000481776
0.0016611 -0.000341482 6.01518e-07
-0.000341482 0.000936251 -2.4226e-05
6.01518e-07 -2.4226e-05 0.000564207
0.00157647 -0.000644105 4.35955e-06
-0.000644105 0.00122609 3.45324e-06
4.35955e-06 3.45324e-06 0.000399175
0.00495949 -0.000785889 -5.10141e-05
-0.000785889 0.00117095 2.15931e-05
-5.10141e-05 2.15931e-05 0.00136297
0.0042012 -0.000958818 -4.93509e-05
-0.000958818 0.00136292 1.39899e-05
-4.93509e-05 1.39899e-05 0.00117443
0.00207186 -0.000951422 8.08573e-06
-0.000951422 0.00027766 -2.38054e-06
8.08573e-06 -2.38054e-06 1.91908e-05
-0.000708103 -0.000447511 -6.16122e-06
-0.000447511 -0.000799233 1.56144e-05
-6.16122e-06 1.56144e-05 -0.000939063
0.000315126 -0.000138708 9.72415e-07
-0.000138708 4.94717e-05 9.30152e-06
9.72415e-07 9.30152e-06 -0.000175615
0.000356185 -0.000171034 5.15884e-06
-0.000171034 0.000133499 3.83995e-07
5.15884e-06 3.83995e-07 -0.000124728
0.00193805 -0.000258462 -6.11501e-06
-0.000258462 0.00141313 -2.31657e-05
-6.11501e-06 -2.31657e-05 0.000747171
-0.00666476 -0.000355197 0.000538486
-0.000355197 -0.0043264 -2.72135e-05
0.000538486 -2.72135e-05 -0.00385789
0.011618 -0.000335487 6.43844e-05
-0.000335487 0.0013202 1.79892e-05
6.43844e-05 1.79892e-05 0.00133483
0.00241297 0.000337174 9.86002e-06
0.000337174 0.00125837 -8.85095e-06
9.86002e-06 -8.85095e-06 0.00104947
0.00151335 0.000497632 -3.09328e-06
0.000497632 0.000497537 3.98808e-06
-3.09328e-06 3.98808e-06 0.000147767
0.00284298 0.000669162 9.75077e-05
0.000669162 0.00037541 4.18653e-05
9.75077e-05 4.18653e-05 0.000383546
0.00295296 0.000953586 2.30448e-05
0.000953586 0.000738217 8.7248e-06
2.30448e-05 8.7248e-06 0.000428593
0.00291764 0.000832875 1.63648e-05
0.000832875 0.00115314 4.28438e-06
1.63648e-05 4.28438e-06 0.000691303
0.0156125 0.000718077 8.03091e-05
0.000718077 0.00304224 -4.06667e-05
8.03091e-05 -4.06667e-05 0.00227634
0.0085936 0.00222734 -0.000210605
0.00222734 -0.000420862 -1.36805e-05
-0.000210605 -1.36805e-05 0.000736782
0.0019244 0.00121799 7.31065e-06
0.00121799 0.000156173 -3.14201e-05
7.31065e-06 -3.14201e-05 -0.000310295
0.0131096 -0.00410915 -0.000472051
-0.00410915 0.00557655 -6.12536e-06
-0.000472051 -6.12536e-06 0.00297882
0.00296067 -0.00858226 -0.0023388
-0.00858226 0.00402864 -0.00147384
-0.0023388 -0.00147384 0.00120637
0.00108905 0.000322379 1.72159e-06
0.000322379 0.00047415 -9.17433e-07
1.72159e-06 -9.17433e-07 0.000228798
-0.00175959 -0.00241606 0.000455923
-0.00241606 -0.00266319 7.61792e-05
0.000455923 7.61792e-05 -0.00444637
-0.00261021 -0.00222348 -0.00048653
-0.00222348 0.00528941 -0.000197957
-0.00048653 -0.000197957 0.000105314
0.00338814 0.00106407 -1.59488e-05
0.00106407 0.000739941 1.81685e-06
-1.59488e-05 1.81685e-06 0.000609679
0.000828333 0.000412439 -8.27117e-06
0.000412439 0.000111044 8.09287e-06
-8.27117e-06 8.09287e-06 -0.000223674
0.00122456 0.000764143 5.93787e-06
0.000764143 0.000233004 1.8162e-06
5.93787e-06 1.8162e-06 -0.000164877
0.00115306 0.00110384 5.17615e-05
0.00110384 9.27896e-05 3.47053e-05
5.17615e-05 3.47053e-05 -0.00018767
0.0139343 0.00247017 -0.000146253
0.00247017 0.00112987 -8.79499e-05
-0.000146253 -8.79499e-05 -0.00064063
0.00453392 0.00285718 -4.55603e-05
0.00285718 -0.000445549 -4.3404e-05
-4.55603e-05 -4.3404e-05 0.000308724
0.0170815 -0.0048935 0.000532822
-0.0048935 0.00693887 -1.18878e-05
0.000532822 -1.18878e-05 0.00334564
0.0152442 -0.00412337 0.000161255
-0.00412337 0.00264106 0.00070561
0.000161255 0.00070561 0.000834922
0.0022008 0.000388447 -2.05346e-05
0.000388447 0.0011132 -1.32013e-05
-2.05346e-05 -1.32013e-05 0.000899132
-0.0104641 0.00121281 -0.00014413
0.00121281 0.00351969 -0.00013876
-0.00014413 -0.00013876 -0.00286164
0.00488243 0.000838472 -0.00036364
0.000838472 0.0038965 -0.000481831
-0.00036364 -0.000481831 -0.000809479
0.00262172 0.000801897 -2.87901e-05
0.000801897 0.000662455 -1.47917e-06
-2.87901e-05 -1.47917e-06 0.000621392
0.00225503 0.000784803 -6.92724e-05
0.000784803 0.000944524 -2.60536e-05
-6.92724e-05 -2.60536e-05 0.000565175
0.000711184 0.000772347 -0.000100692
0.000772347 0.000679861 -2.39778e-05
-0.000100692 -2.39778e-05 -1.57472e-05
-0.00259787 0.0016307 -3.62101e-05
0.0016307 -0.00121653 -3.90579e-05
-3.62101e-05 -3.90579e-05 -0.00142456
0.000359257 0.00295504 0.0003671
0.00295504 -0.00205554 0.00013241
0.0003671 0.00013241 -0.00447877
0.0185463 -0.00598251 0.000221497
-0.00598251 0.00935063 0.000689771
0.000221497 0.000689771 0.00520662
0.00870847 -0.000973174 -0.000171054
-0.000973174 -0.00203707 -0.000146213
-0.000171054 -0.000146213 -0.000994076
-0.00073898 0.000119374 3.85495e-06
0.000119374 -0.000556543 -7.20464e-06
3.85495e-06 -7.20464e-06 -0.000688211
0.00157674 0.000282411 1.07355e-05
0.000282411 0.000803938 2.47469e-06
1.07355e-05 2.47469e-06 0.000633574
-0.000704393 5.69931e-05 -1.66465e-06
5.69931e-05 -0.00049721 -7.77133e-07
-1.66465e-06 -7.77133e-07 -0.000656831
0.000332004 5.27936e-05 1.68595e-06
5.27936e-05 -5.06597e-05 5.13136e-08
1.68595e-06 5.13136e-08 -0.000186399
0.000991531 9.04447e-05 -1.05767e-06
9.04447e-05 0.000390491 -1.48078e-06
-1.05767e-06 -1.48078e-06 0.000205768
0.000573215 1.20489e-05 -2.08958e-06
1.20489e-05 0.000131891 1.96718e-06
-2.08958e-06 1.96718e-06 -4.83214e-05
0.000535624 9.09006e-05 4.77969e-06
9.09006e-05 9.08003e-05 5.00416e-06
4.77969e-06 5.00416e-06 -7.99884e-05
-0.000408052 5.49532e-05 -4.07145e-06
5.49532e-05 -0.000424352 8.78354e-07
-4.07145e-06 8.78354e-07 -0.000568915
0.000778085 4.51087e-05 1.58443e-07
4.51087e-05 0.000258571 -9.53934e-07
1.58443e-07 -9.53934e-07 7.8884e-05
0.000755714 8.60663e-05 7.53835e-07
8.60663e-05 0.000236268 -1.30162e-07
7.53835e-07 -1.30162e-07 7.69946e-05
0.000855808 -4.80725e-05 -9.98464e-07
-4.80725e-05 0.000298094 2.01129e-06
-9.98464e-07 2.01129e-06 0.0001199
-0.000911935 2.12153e-05 2.35902e-06
2.12153e-05 -0.000605307 3.77543e-07
2.35902e-06 3.77543e-07 -0.000814582
-5.00407e-05 4.41755e-05 -2.75477e-06
4.41755e-05 0.000129237 4.85261e-06
-2.75477e-06 4.85261e-06 -0.000210777
0.000629069 -3.71486e-05 -1.82365e-06
-3.71486e-05 0.000232832 -8.94635e-06
-1.82365e-06 -8.94635e-06 4.73136e-05
0.00118431 -1.92434e-05 -3.12652e-07
-1.92434e-05 0.000537583 -2.66574e-07
-3.12652e-07 -2.66574e-07 0.000334198
0.00079955 -8.01983e-05 -4.79735e-07
-8.01983e-05 0.000272037 -1.07032e-06
-4.79735e-07 -1.07032e-06 9.0606e-05
0.000284017 -7.87552e-05 4.01166e-06
-7.87552e-05 -0.000102595 7.08464e-06
4.01166e-06 7.08464e-06 -0.000229599
0.000807986 -8.89884e-05 6.39881e-07
-8.89884e-05 0.000285581 -1.37398e-06
6.39881e-07 -1.37398e-06 9.97134e-05
0.000723407 -6.40056e-05 -1.78357e-06
-6.40056e-05 0.000187577 6.33795e-09
-1.78357e-06 6.33795e-09 5.38775e-05
-0.000397052 -5.86314e-05 2.00679e-06
-5.86314e-05 -0.00048583 3.71709e-06
2.00679e-06 3.71709e-06 -0.000596557
8.09414e-05 -4.99681e-05 3.21947e-07
-4.99681e-05 -0.000158506 -2.34024e-06
3.21947e-07 -2.34024e-06 -0.000313179
0.000101297 -3.19217e-05 -7.14813e-06
-3.19217e-05 -0.000103261 -4.03044e-06
-7.14813e-06 -4.03044e-06 -0.000271915
1.46672e-06 -8.32712e-05 3.54248e-06
-8.32712e-05 -0.00020571 -5.08747e-06
3.54248e-06 -5.08747e-06 -0.000339572
0.0010067 -0.000112375 8.91657e-06
-0.000112375 0.000287932 -1.56346e-05
8.91657e-06 -1.56346e-05 0.000185964
0.000290505 -0.00014041 6.40663e-07
-0.00014041 -0.000188008 4.01813e-06
6.40663e-07 4.01813e-06 -0.000339212
-2.17462e-05 -5.54032e-05 -6.136e-06
-5.54032e-05 -0.000225784 -2.81012e-06
-6.136e-06 -2.81012e-06 -0.000392074
0.000663877 -5.76574e-05 1.26931e-06
-5.76574e-05 0.000185842 -1.00922e-06
1.26931e-06 -1.00922e-06 1.38843e-05
2.96293e-06 -3.61316e-05 1.7568e-06
-3.61316e-05 -0.000229284 -1.43656e-06
1.7568e-06 -1.43656e-06 -0.000394398
0.000676825 -0.000105715 -3.94596e-08
-0.000105715 0.000199322 -2.15113e-07
-3.94596e-08 -2.15113e-07 4.28256e-05
0.000469748 -2.4928e-05 1.43044e-06
-2.4928e-05 2.3199e-05 1.36253e-06
1.43044e-06 1.36253e-06 -9.63625e-05
0.000820062 -0.000100958 -1.62904e-06
-0.000100958 0.000277122 1.17155e-06
-1.62904e-06 1.17155e-06 0.000129369
0.000634595 -8.19956e-05 -8.676e-07
-8.19956e-05 0.000134678 1.27276e-07
-8.676e-07 1.27276e-07 9.4533e-06
0.000424519 3.17649e-05 1.33051e-07
3.17649e-05 -2.54974e-05 4.06479e-06
1.33051e-07 4.06479e-06 -0.000105322
0.000519414 -0.000106028 1.17446e-06
-0.000106028 5.69536e-05 -1.4389e-06
1.17446e-06 -1.4389e-06 -7.12282e-05
0.000518187 -3.73452e-05 -4.10755e-07
-3.73452e-05 3.08489e-05 1.09244e-07
-4.10755e-07 1.09244e-07 -4.53914e-05
0.00142155 1.0231e-05 -7.2797e-06
1.0231e-05 0.000570811 7.14088e-06
-7.2797e-06 7.14088e-06 0.000550342
0.000490226 -5.93026e-05 1.17038e-06
-5.93026e-05 2.23978e-05 -3.50997e-06
1.17038e-06 -3.50997e-06 -5.73113e-05
0.000873467 -1.60961e-05 -6.67457e-06
-1.60961e-05 0.000235439 8.11481e-07
-6.67457e-06 8.11481e-07 0.000212845
0.000763574 1.25607e-05 1.05653e-06
1.25607e-05 0.0001502 2.24083e-06
1.05653e-06 2.24083e-06 0.000153888
0.000432492 -1.49496e-05 2.39834e-06
-1.49496e-05 -3.72753e-05 -4.63354e-06
2.39834e-06 -4.63354e-06 -6.05892e-05
0.00254719 1.30008e-05 6.91598e-06
1.30008e-05 0.00127301 3.47004e-08
6.91598e-06 3.47004e-08 0.00128568
0.00256642 1.99247e-06 7.97641e-07
1.99247e-06 0.00128537 -5.08079e-06
7.97641e-07 -5.08079e-06 0.00129781
0.00102296 7.93759e-05 -9.42176e-07
7.93759e-05 0.000380681 1.12565e-06
-9.42176e-07 1.12565e-06 0.000277635
0.000514669 6.02996e-05 -1.932e-06
6.02996e-05 3.00006e-05 -2.29623e-06
-1.932e-06 -2.29623e-06 -2.14121e-05
0.000543803 -1.50096e-05 -1.28119e-07
-1.50096e-05 8.50392e-05 7.83423e-07
-1.28119e-07 7.83423e-07 -1.42367e-05
0.000487965 6.81386e-06 7.75062e-07
6.81386e-06 -2.7478e-05 -3.31691e-06
7.75062e-07 -3.31691e-06 -3.61554e-05
0.000465761 -1.30099e-05 9.21951e-07
-1.30099e-05 -5.65528e-06 -1.67591e-07
9.21951e-07 -1.67591e-07 -5.13223e-05
0.000541515 -5.87231e-05 -1.20221e-06
-5.87231e-05 4.65688e-05 2.15815e-06
-1.20221e-06 2.15815e-06 -4.52658e-06
0.000487428 7.23802e-06 -4.4986e-07
7.23802e-06 -2.80097e-05 -5.70074e-09
-4.4986e-07 -5.70074e-09 -3.73486e-05
0.00196862 2.20476e-05 -9.42074e-07
2.20476e-05 0.000906254 -4.69862e-06
-9.42074e-07 -4.69862e-06 0.00092351
0.00112879 2.36754e-05 -4.92309e-07
2.36754e-05 0.000375786 2.07334e-06
-4.92309e-07 2.07334e-06 0.000367995
0.00130665 2.92151e-05 -1.28748e-06
2.92151e-05 0.000491477 1.9443e-08
-1.28748e-06 1.9443e-08 0.000503931
0.000811788 3.50049e-05 -8.75313e-06
3.50049e-05 0.000185997 7.37599e-06
-8.75313e-06 7.37599e-06 0.000191799
-0.00878015 0.00118161 0.000504655
0.00118161 -0.00309818 -4.06519e-05
0.000504655 -4.06519e-05 -0.00579285
-0.00110377 0.0001848 0.00107413
0.0001848 0.00605644 -0.000273378
0.00107413 -0.000273378 0.0024391
0.00229907 0.000331911 -0.000161319
0.000331911 -0.00223004 -2.77905e-05
-0.000161319 -2.77905e-05 -0.00067402
0.00167295 1.65339e-05 1.45481e-05
1.65339e-05 -0.00103043 -2.99227e-05
1.45481e-05 -2.99227e-05 -0.000596728
0.00170595 -7.3286e-05 6.67794e-06
-7.3286e-05 -0.000265074 1.82566e-05
6.67794e-06 1.82566e-05 -0.000208213
-0.00127895 3.36872e-05 -9.3832e-05
3.36872e-05 -0.00158143 -2.56543e-05
-9.3832e-05 -2.56543e-05 -0.0005537
0.0038586 -0.000387177 3.62712e-06
-0.000387177 0.000441767 5.70387e-06
3.62712e-06 5.70387e-06 0.000578195
0.0120281 -8.12159e-05 0.000181332
-8.12159e-05 -0.000552036 -7.32778e-05
0.000181332 -7.32778e-05 -0.00131025
0.00120223 0.0035224 -1.15962e-06
0.0035224 0.000797908 -6.3108e-05
-1.15962e-06 -6.3108e-05 -0.00250896
0.0119311 0.00703682 -0.00049645
0.00703682 0.00821752 0.000249965
-0.00049645 0.000249965 0.00567413
0.00185621 -0.000743837 3.28282e-05
-0.000743837 -0.00216741 -4.04465e-05
3.28282e-05 -4.04465e-05 -0.00107283
0.0152474 -0.00223259 0.00021619
-0.00223259 0.00183281 -7.5111e-05
0.00021619 -7.5111e-05 0.00036147
0.0155033 0.0061211 0.000376555
0.0061211 0.00478705 -0.000531606
0.000376555 -0.000531606 0.00145537
0.0188872 0.00414635 -0.00031697
0.00414635 0.00559523 0.000264997
-0.00031697 0.000264997 0.00364638
0.000967471 0.000166535 -3.14851e-06
0.000166535 0.000400465 4.43063e-06
-3.14851e-06 4.43063e-06 0.000225925
0.000358152 3.78032e-05 3.7111e-07
3.78032e-05 -3.35107e-05 -1.05141e-06
3.7111e-07 -1.05141e-06 -0.000136376
0.000559155 -9.54218e-05 1.75399e-06
-9.54218e-05 9.76074e-05 1.39661e-06
1.75399e-06 1.39661e-06 -1.03561e-06
0.000657486 1.31598e-05 7.03464e-06
1.31598e-05 0.000166952 -3.04946e-07
7.03464e-06 -3.04946e-07 4.63132e-05
0.000860865 8.76317e-05 2.43296e-06
8.76317e-05 0.000345197 1.39439e-06
2.43296e-06 1.39439e-06 0.000206595
0.000469581 8.66139e-06 -3.53155e-07
8.66139e-06 6.73971e-05 7.87861e-06
-3.53155e-07 7.87861e-06 -9.66103e-05
0.000751032 9.36112e-05 1.0427e-06
9.36112e-05 0.000220474 3.35061e-06
1.0427e-06 3.35061e-06 8.52355e-05
0.00046037 6.24319e-05 4.66574e-06
6.24319e-05 2.00534e-05 1.15743e-06
4.66574e-06 1.15743e-06 -0.000119946
0.000714258 -3.544e-05 2.78962e-06
-3.544e-05 0.000215467 -1.27459e-06
2.78962e-06 -1.27459e-06 7.8528e-05
0.000480738 -1.64624e-05 2.1525e-06
-1.64624e-05 3.76695e-05 -3.00974e-06
2.1525e-06 -3.00974e-06 -6.91218e-05
0.001405 -0.000333681 3.32152e-05
-0.000333681 -0.0005745 -5.08473e-06
3.32152e-05 -5.08473e-06 -0.000297493
0.00111983 -0.0005703 3.10092e-05
-0.0005703 -0.000630429 -1.02431e-05
3.10092e-05 -1.02431e-05 -0.000491916
0.00104112 -0.000719624 2.44888e-06
-0.000719624 -0.00040114 2.81569e-06
2.44888e-06 2.81569e-06 -0.000574922
1.31321e-05 -0.000652824 -1.20599e-05
-0.000652824 -0.000659583 2.78736e-06
-1.20599e-05 2.78736e-06 -0.000928762
0.00302165 -0.000493456 8.93416e-06
-0.000493456 0.00187231 3.4419e-05
8.93416e-06 3.4419e-05 0.00122507
-0.000191312 -0.000486536 -2.72655e-06
-0.000486536 -0.0001736 -5.66317e-06
-2.72655e-06 -5.66317e-06 -0.000662539
0.00144446 -0.000231541 5.3355e-06
-0.000231541 0.000636304 -2.29127e-06
5.3355e-06 -2.29127e-06 0.000503821
0.000674695 -4.80115e-05 -3.0392e-07
-4.80115e-05 0.000222718 3.17072e-06
-3.0392e-07 3.17072e-06 8.73765e-05
0.00238712 -0.000570357 1.04638e-05
-0.000570357 -0.000188497 -8.49703e-06
1.04638e-05 -8.49703e-06 6.51939e-05
0.000358951 -5.06402e-05 6.1791e-07
-5.06402e-05 8.02163e-05 1.7429e-06
6.1791e-07 1.7429e-06 -0.000156896
-0.000210446 -0.000176246 -9.27836e-07
-0.000176246 -0.000201239 -5.5598e-06
-9.27836e-07 -5.5598e-06 -0.000460094
0.00186676 -0.00075645 1.95967e-05
-0.00075645 3.94305e-05 -2.47543e-06
1.95967e-05 -2.47543e-06 -2.3858e-05
0.00188415 -0.000940256 -6.81869e-07
-0.000940256 0.000103474 3.27531e-06
-6.81869e-07 3.27531e-06 -8.8735e-05
0.000310584 -0.000692985 1.97454e-05
-0.000692985 -0.000199403 -1.45414e-05
1.97454e-05 -1.45414e-05 -0.000456051
0.00115908 -0.000351333 4.50909e-06
-0.000351333 0.000974914 -1.84589e-05
4.50909e-06 -1.84589e-05 0.000297858
0.00257935 -0.000919853 -6.23304e-05
-0.000919853 0.000342769 3.65927e-05
-6.23304e-05 3.65927e-05 8.20732e-05
0.00101381 -0.000678344 -3.41608e-05
-0.000678344 -0.000184086 6.90953e-06
-3.41608e-05 6.90953e-06 -0.000209521
0.000493378 -0.000646887 -7.39059e-05
-0.000646887 0.000292183 4.80813e-05
-7.39059e-05 4.80813e-05 -0.000133588
-0.00267814 -0.000246918 -7.22949e-06
-0.000246918 -0.00177881 1.1585e-05
-7.22949e-06 1.1585e-05 -0.00202354
-0.00100477 -5.28189e-05 2.80147e-06
-5.28189e-05 -0.000673746 9.35779e-06
2.80147e-06 9.35779e-06 -0.000958508
0.000554213 -7.04218e-05 8.62176e-06
-7.04218e-05 0.000356743 -1.32709e-05
8.62176e-06 -1.32709e-05 -2.12595e-05
-0.00232713 0.00122263 -0.000396036
0.00122263 0.00692642 1.91542e-05
-0.000396036 1.91542e-05 0.00222047
0.000338052 -0.00144464 -1.01085e-05
-0.00144464 0.00227554 1.44967e-05
-1.01085e-05 1.44967e-05 0.00144074
0.00239551 0.001025 -0.000120847
0.001025 -0.00521955 -2.91151e-05
-0.000120847 -2.91151e-05 -0.00545391
0.000217632 0.000246277 1.26795e-05
0.000246277 -2.72364e-05 -4.32132e-06
1.26795e-05 -4.32132e-06 -0.000266056
0.00156242 0.000569554 1.12546e-05
0.000569554 0.000587939 1.88197e-05
1.12546e-05 1.88197e-05 0.000190267
0.00348403 0.000944587 6.60324e-05
0.000944587 0.000778727 1.95485e-05
6.60324e-05 1.95485e-05 0.000686911
0.00162788 0.00083792 1.44573e-05
0.00083792 0.000468864 2.07947e-05
1.44573e-05 2.07947e-05 3.75322e-05
0.0124911 -0.0027901 0.000213958
-0.0027901 0.00462661 6.9637e-05
0.000213958 6.9637e-05 0.00363978
0.00365222 0.00131073 -0.000363451
0.00131073 -0.00421807 -6.94591e-05
-0.000363451 -6.94591e-05 -0.00588128
0.00518228 0.00272527 1.91513e-05
0.00272527 0.000231146 2.98297e-05
1.91513e-05 2.98297e-05 0.000681399
0.00248438 0.00109566 5.26336e-05
0.00109566 0.00097909 -1.40964e-05
5.26336e-05 -1.40964e-05 0.000751161
0.00698922 -0.00313253 -0.000381099
-0.00313253 0.00327731 -0.00036299
-0.000381099 -0.00036299 1.57162e-05
-0.000334682 -0.00325054 -0.000655041
-0.00325054 0.00580263 -0.000210232
-0.000655041 -0.000210232 0.00049355
0.0231691 -0.00526367 0.000689714
-0.00526367 0.00640271 0.000366446
0.000689714 0.000366446 0.00433511
0.000414314 0.000237519 1.69303e-05
0.000237519 6.85488e-05 -4.1269e-06
1.69303e-05 -4.1269e-06 -0.000137349
-0.00414639 0.000449638 -0.000179825
0.000449638 0.0054026 -3.55547e-05
-0.000179825 -3.55547e-05 2.82569e-06
0.005552 0.00114524 -0.000121634
0.00114524 0.00322766 -0.000168683
-0.000121634 -0.000168683 -0.00193617
0.00175173 0.000818152 1.10554e-05
0.000818152 0.000296859 3.49607e-06
1.10554e-05 3.49607e-06 0.000189665
0.000757165 0.000605587 1.23037e-05
0.000605587 0.000225422 4.39774e-06
1.23037e-05 4.39774e-06 -0.000162991
0.000751905 0.000917007 -5.53815e-05
0.000917007 0.000495908 -6.11858e-05
-5.53815e-05 -6.11858e-05 -6.64598e-05
0.00414719 0.00304688 2.82539e-05
0.00304688 0.00123793 2.81605e-05
2.82539e-05 2.81605e-05 0.00102769
0.0166345 0.00398905 4.57073e-05
0.00398905 0.00384184 1.32968e-05
4.57073e-05 1.32968e-05 0.00168816
0.00759469 -0.00359585 8.39064e-05
-0.00359585 0.00314009 -8.46727e-05
8.39064e-05 -8.46727e-05 -0.00155513
0.0150127 -0.00221029 -8.45066e-06
-0.00221029 0.00213431 -6.79125e-05
-8.45066e-06 -6.79125e-05 0.00333474
0.000767932 0.000449251 -1.47571e-05
0.000449251 0.000297352 -7.66248e-06
-1.47571e-05 -7.66248e-06 1.58905e-05
0.00195576 0.000211537 -0.000332793
0.000211537 0.0021127 -7.76284e-05
-0.000332793 -7.76284e-05 -0.00242587
0.000872599 0.000727241 -0.000123986
0.000727241 -0.000187389 -0.000170335
-0.000123986 -0.000170335 -0.00175765
-0.000646542 0.000288453 -5.02382e-06
0.000288453 -0.000146057 -1.99452e-05
-5.02382e-06 -1.99452e-05 -0.00039955
-0.000781302 0.000617887 -0.000187777
0.000617887 0.000993168 -1.03064e-05
-0.000187777 -1.03064e-05 0.000200591
0.0139052 0.00466624 0.000103241
0.00466624 0.00447387 -4.07971e-05
0.000103241 -4.07971e-05 0.000214933
-0.00210916 -0.00502606 1.36842e-06
-0.00502606 -0.000273937 0.000228918
1.36842e-06 0.000228918 -0.00499354
0.0116604 0.000318712 6.08268e-05
0.000318712 -0.00158652 -0.000323413
6.08268e-05 -0.000323413 0.000972546
0.000838194 0.000181023 -4.16982e-06
0.000181023 0.000311452 1.48132e-05
-4.16982e-06 1.48132e-05 0.000176409
0.000949017 0.000226641 -9.67737e-06
0.000226641 0.000516995 -5.55896e-06
-9.67737e-06 -5.55896e-06 0.00032007
-0.0003874 0.000102801 8.22639e-07
0.000102801 -9.32456e-05 3.11133e-08
8.22639e-07 3.11133e-08 -0.000393863
0.000615343 8.73623e-05 -1.75716e-06
8.73623e-05 0.000138801 -1.46567e-06
-1.75716e-06 -1.46567e-06 -2.75898e-05
0.00113114 -3.91087e-05 -2.09807e-06
-3.91087e-05 0.000480059 4.81257e-06
-2.09807e-06 4.81257e-06 0.000292473
0.00021188 7.22685e-05 2.47359e-06
7.22685e-05 -0.000111533 2.64619e-06
2.47359e-06 2.64619e-06 -0.000262646
-0.00104779 2.91071e-05 1.91594e-06
2.91071e-05 -0.000672016 2.82187e-06
1.91594e-06 2.82187e-06 -0.000881344
0.000680982 -2.69824e-05 1.22722e-06
-2.69824e-05 0.000189807 2.24293e-07
1.22722e-06 2.24293e-07 1.28692e-05
0.000536799 2.42564e-05 2.85043e-07
2.42564e-05 0.000170277 -2.33021e-06
2.85043e-07 -2.33021e-06 -1.1063e-05
3.6657e-05 2.76621e-05 1.95366e-06
2.76621e-05 0.00021816 2.90473e-06
1.95366e-06 2.90473e-06 -0.00014833
-0.000378348 5.70208e-05 -4.05742e-06
5.70208e-05 0.000151497 1.24117e-05
-4.05742e-06 1.24117e-05 -0.000334781
0.000366414 -1.04652e-06 -2.84477e-06
-1.04652e-06 0.000438648 -1.76556e-06
-2.84477e-06 -1.76556e-06 5.54213e-05
0.0010228 1.8549e-05 -1.63833e-06
1.8549e-05 0.000446113 -4.99378e-06
-1.63833e-06 -4.99378e-06 0.0002816
0.000692199 -0.000145126 2.48055e-06
-0.000145126 0.00019817 1.7447e-06
2.48055e-06 1.7447e-06 2.16991e-05
0.000403969 -4.11371e-05 9.47571e-07
-4.11371e-05 -2.51191e-05 3.36281e-06
9.47571e-07 3.36281e-06 -0.000150966
0.000362554 -9.20242e-05 1.10648e-06
-9.20242e-05 -1.0613e-05 1.25113e-05
1.10648e-06 1.25113e-05 -0.000110285
0.000202374 -4.02099e-05 2.45004e-06
-4.02099e-05 -6.31475e-05 3.34601e-06
2.45004e-06 3.34601e-06 -0.000215608
0.000569228 -4.71403e-05 -1.53191e-08
-4.71403e-05 0.000133222 6.60903e-07
-1.53191e-08 6.60903e-07 -1.79901e-05
0.000460035 -5.09352e-05 -1.27297e-07
-5.09352e-05 7.16103e-05 -2.10009e-06
-1.27297e-07 -2.10009e-06 -5.93082e-05
0.000312979 -5.42804e-05 -8.27781e-06
-5.42804e-05 -2.72519e-05 -4.92232e-06
-8.27781e-06 -4.92232e-06 -0.000161248
0.000529299 -7.5981e-05 9.85031e-06
-7.5981e-05 0.000273766 -7.0455e-06
9.85031e-06 -7.0455e-06 0.000109398
0.000567889 -0.000194033 1.08513e-06
-0.000194033 -7.70867e-05 3.93328e-06
1.08513e-06 3.93328e-06 -0.000166337
0.000599719 -0.000135703 -1.10288e-05
-0.000135703 6.13707e-05 -6.34492e-07
-1.10288e-05 -6.34492e-07 -4.91342e-05
0.000326357 -0.000179009 7.92757e-06
-0.000179009 -0.000124255 7.20927e-06
7.92757e-06 7.20927e-06 -0.000276863
0.0019238 -0.000505414 1.24715e-06
-0.000505414 0.000747434 2.02985e-05
1.24715e-06 2.02985e-05 0.000426452
0.00179962 -0.000242201 3.97223e-06
-0.000242201 0.000816946 -8.55303e-06
3.97223e-06 -8.55303e-06 0.000623935
4.95983e-05 -0.000123081 -9.27625e-06
-0.000123081 -0.000293884 -5.93986e-06
-9.27625e-06 -5.93986e-06 -0.000421279
0.000532452 -7.842e-05 -6.11913e-08
-7.842e-05 8.71133e-05 -7.45909e-07
-6.11913e-08 -7.45909e-07 -7.7496e-05
-0.000209797 -4.77902e-05 -4.33011e-07
-4.77902e-05 -0.000344373 -2.90158e-06
-4.33011e-07 -2.90158e-06 -0.000536914
0.000975709 -6.98841e-05 -4.0058e-07
-6.98841e-05 0.00036971 1.6253e-06
-4.0058e-07 1.6253e-06 0.000199267
0.00073326 -0.00012249 -4.00848e-07
-0.00012249 0.000231036 4.59015e-07
-4.00848e-07 4.59015e-07 5.3006e-05
0.000531702 -6.14857e-05 1.16496e-06
-6.14857e-05 4.93762e-05 1.66678e-06
1.16496e-06 1.66678e-06 -7.28715e-05
0.00135579 -0.00018311 -2.24e-06
-0.00018311 0.000641212 -2.52739e-07
-2.24e-06 -2.52739e-07 0.000459671
0.000672966 -0.00010292 -5.08857e-07
-0.00010292 0.000150827 3.47414e-08
-5.08857e-07 3.47414e-08 2.49825e-05
0.00050533 8.08933e-06 -1.13573e-06
8.08933e-06 1.98769e-05 3.41688e-06
-1.13573e-06 3.41688e-06 -6.06251e-05
0.00072064 -0.000129325 6.98771e-07
-0.000129325 0.000188536 -1.94107e-06
6.98771e-07 -1.94107e-06 5.91451e-05
0.000588409 -5.35926e-05 -1.6224e-07
-5.35926e-05 7.29108e-05 1.64451e-07
-1.6224e-07 1.64451e-07 -6.31386e-06
0.00143652 1.18462e-05 -1.19377e-05
1.18462e-05 0.000575545 7.39989e-06
-1.19377e-05 7.39989e-06 0.000553611
0.000539498 -6.66467e-05 1.69967e-06
-6.66467e-05 5.22016e-05 -4.07488e-06
1.69967e-06 -4.07488e-06 -2.94645e-05
0.000870845 -1.03798e-05 -7.95399e-06
-1.03798e-05 0.000227065 6.93396e-07
-7.95399e-06 6.93396e-07 0.000203685
0.000806373 2.19676e-05 1.10438e-06
2.19676e-05 0.000173907 2.8196e-06
1.10438e-06 2.8196e-06 0.000175941
0.000436062 -2.82924e-05 2.22805e-06
-2.82924e-05 -4.00689e-05 -5.02884e-06
2.22805e-06 -5.02884e-06 -6.47601e-05
0.00165923 2.14724e-05 1.05087e-05
2.14724e-05 0.00071459 -1.47653e-06
1.05087e-05 -1.47653e-06 0.000722768
0.00251851 1.25382e-05 1.07347e-05
1.25382e-05 0.00125442 -5.17562e-06
1.07347e-05 -5.17562e-06 0.00126719
0.000499184 4.98191e-05 1.40344e-06
4.98191e-05 3.26233e-05 -1.13094e-06
1.40344e-06 -1.13094e-06 -6.82167e-05
0.000601551 6.1026e-05 -1.33701e-06
6.1026e-05 7.83672e-05 -1.68465e-06
-1.33701e-06 -1.68465e-06 2.39719e-05
0.000590612 7.38562e-07 9.61844e-07
7.38562e-07 0.000103536 7.71893e-07
9.61844e-07 7.71893e-07 4.93325e-06
0.000475974 3.5167e-06 1.45414e-06
3.5167e-06 -3.37127e-05 -3.57375e-06
1.45414e-06 -3.57375e-06 -4.31498e-05
0.000496605 5.07814e-05 6.90311e-08
5.07814e-05 1.39726e-05 -1.65579e-07
6.90311e-08 -1.65579e-07 -3.46243e-05
0.000536897 -0.000112967 -2.61596e-06
-0.000112967 7.12137e-05 5.46442e-07
-2.61596e-06 5.46442e-07 -2.2262e-05
0.00199021 8.34035e-06 -6.076e-06
8.34035e-06 0.000917792 -4.74592e-06
-6.076e-06 -4.74592e-06 0.000935861
0.00046522 5.23884e-06 -2.41702e-07
5.23884e-06 -4.1258e-05 2.71089e-08
-2.41702e-07 2.71089e-08 -4.99192e-05
0.000500136 -1.27978e-05 -1.41809e-06
-1.27978e-05 1.267e-05 2.06379e-06
-1.41809e-06 2.06379e-06 -3.10586e-05
0.000474478 5.71653e-06 -1.20936e-06
5.71653e-06 -3.67788e-05 3.36935e-06
-1.20936e-06 3.36935e-06 -4.60914e-05
0.00202023 2.36303e-05 -5.25461e-06
2.36303e-05 0.000938882 -1.06899e-07
-5.25461e-06 -1.06899e-07 0.000955806
0.00198274 3.72799e-05 -5.30352e-06
3.72799e-05 0.00091796 4.63403e-06
-5.30352e-06 4.63403e-06 0.000933772
-0.00649637 -0.00167033 -0.000175979
-0.00167033 0.00539341 5.52451e-05
-0.000175979 5.52451e-05 0.00127728
0.00180704 0.00134309 -0.000254545
0.00134309 0.000577753 7.84266e-05
-0.000254545 7.84266e-05 -0.00143773
0.00293646 -0.000979872 -0.000599326
-0.000979872 0.00123045 0.000259005
-0.000599326 0.000259005 -0.00335511
-0.00053659 0.000614384 0.00106492
0.000614384 0.00598656 -0.00033166
0.00106492 -0.00033166 0.00191702
0.00230812 0.000569686 -4.06659e-05
0.000569686 -0.0011127 -1.14597e-06
-4.06659e-05 -1.14597e-06 -0.000260327
0.0027161 -0.000454715 8.95477e-05
-0.000454715 -0.000290242 7.19666e-06
8.95477e-05 7.19666e-06 -0.000171751
0.000773889 -0.000366319 0.0002715
-0.000366319 -0.00475681 -6.22016e-05
0.0002715 -6.22016e-05 -0.00645783
0.0208253 0.00315082 -0.000782335
0.00315082 0.00926468 6.43937e-05
-0.000782335 6.43937e-05 0.00644298
0.00420434 0.00814273 -0.00224003
0.00814273 0.00393192 0.00145911
-0.00224003 0.00145911 0.00121685
0.0046222 -0.000610419 2.73033e-05
-0.000610419 -0.000417465 6.82571e-06
2.73033e-05 6.82571e-06 0.000267533
0.00892289 -0.00211375 0.000155748
-0.00211375 -0.00145195 -0.000133367
0.000155748 -0.000133367 -0.00371409
0.0199516 0.0053466 -0.000315459
0.0053466 0.00629045 -0.000109752
-0.000315459 -0.000109752 0.00300204
0.0141613 0.00426002 -2.19069e-05
0.00426002 0.00264652 0.000392635
-2.19069e-05 0.000392635 0.00046997
0.00176403 -0.00167121 -0.000113953
-0.00167121 -0.00301262 2.57315e-05
-0.000113953 2.57315e-05 -0.00192439
0.00608745 -0.00347927 0.000408216
-0.00347927 -0.00015354 -0.000221239
0.000408216 -0.000221239 -0.00393981
0.00598253 0.00332226 0.000100545
0.00332226 0.00101905 -0.000788133
0.000100545 -0.000788133 -0.00268165
0.00851907 0.000852979 -0.000274172
0.000852979 -0.00234069 5.68811e-06
-0.000274172 5.68811e-06 -0.00140718
0.00251046 -9.16563e-05 1.18746e-06
-9.16563e-05 0.0014218 1.68585e-05
1.18746e-06 1.68585e-05 0.00115206
0.000364577 0.00010514 -1.58547e-06
0.00010514 -1.18359e-06 -2.36006e-06
-1.58547e-06 -2.36006e-06 -0.000144307
0.000515436 9.96167e-05 3.0443e-06
9.96167e-05 5.2701e-05 -1.26076e-06
3.0443e-06 -1.26076e-06 -4.4371e-05
0.000187976 9.29238e-06 7.29401e-06
9.29238e-06 -9.10593e-05 -1.61592e-06
7.29401e-06 -1.61592e-06 -0.000205143
0.000444314 9.67979e-05 3.25595e-06
9.67979e-05 2.97252e-05 3.29797e-06
3.25595e-06 3.29797e-06 -0.000155118
0.000445195 3.64487e-05 -1.32748e-07
3.64487e-05 3.94795e-05 2.40938e-06
-1.32748e-07 2.40938e-06 -0.000110225
0.000254957 3.06963e-05 1.57564e-06
3.06963e-05 -8.57056e-05 -3.84304e-06
1.57564e-06 -3.84304e-06 -0.000215629
0.000923856 0.000178825 3.52254e-06
0.000178825 0.000345578 7.19645e-06
3.52254e-06 7.19645e-06 0.000170359
0.000910855 0.00012939 -2.01292e-07
0.00012939 0.000344942 -2.03561e-07
-2.01292e-07 -2.03561e-07 0.000174709
0.000388782 -1.96359e-05 -3.92542e-06
-1.96359e-05 -1.29087e-06 -6.68555e-06
-3.92542e-06 -6.68555e-06 -0.000131776
0.000475773 -0.000446282 8.14187e-05
-0.000446282 -0.00120913 -4.09882e-05
8.14187e-05 -4.09882e-05 -0.000912364
0.00022117 -0.000625791 1.5767e-05
-0.000625791 -0.00089141 -9.14266e-06
1.5767e-05 -9.14266e-06 -0.000884342
0.0014204 -0.00089101 -1.15777e-05
-0.00089101 -0.000202462 1.50837e-05
-1.15777e-05 1.50837e-05 -0.000314677
-0.000972223 -0.000676493 4.66766e-06
-0.000676493 -0.000881721 -6.93091e-06
4.66766e-06 -6.93091e-06 -0.00123048
0.00347383 -0.00045576 -2.4416e-05
-0.00045576 0.00214647 6.48614e-05
-2.4416e-05 6.48614e-05 0.00163739
0.00108032 -0.00021237 -3.51554e-06
-0.00021237 0.000605887 6.21428e-06
-3.51554e-06 6.21428e-06 0.000322248
0.000307926 0.000129009 -3.06295e-06
0.000129009 3.26896e-05 -1.60426e-05
-3.06295e-06 -1.60426e-05 -0.000200635
0.000696116 -7.97664e-05 -2.68594e-06
-7.97664e-05 0.000285277 9.7258e-06
-2.68594e-06 9.7258e-06 8.79162e-06
0.0017318 -0.000783865 -6.00279e-06
-0.000783865 -0.000206933 -4.24258e-06
-6.00279e-06 -4.24258e-06 -0.000256602
0.00081761 -6.58869e-05 1.23333e-06
-6.58869e-05 0.000384349 5.00229e-06
1.23333e-06 5.00229e-06 0.000116479
0.00216019 -0.000289903 1.97884e-06
-0.000289903 0.00131015 -1.51783e-06
1.97884e-06 -1.51783e-06 0.000915032
0.00142216 -0.000723528 7.10526e-06
-0.000723528 2.81151e-05 3.79581e-06
7.10526e-06 3.79581e-06 -8.29102e-06
0.000628169 -0.000646104 -2.91083e-05
-0.000646104 0.000293597 7.494e-06
-2.91083e-05 7.494e-06 -9.09606e-05
0.00205583 -0.00133715 3.30461e-05
-0.00133715 5.67526e-06 -1.60294e-05
3.30461e-05 -1.60294e-05 2.11232e-06
-0.000292671 -0.000456795 -6.46225e-06
-0.000456795 -0.000454674 2.31807e-05
-6.46225e-06 2.31807e-05 -0.000489372
-0.00118235 -8.20141e-05 1.68528e-05
-8.20141e-05 -0.00049914 -9.60492e-07
1.68528e-05 -9.60492e-07 -0.000975643
0.000717784 1.03606e-05 -4.53233e-06
1.03606e-05 0.000278936 -1.52102e-06
-4.53233e-06 -1.52102e-06 5.11099e-05
0.000672716 -1.91913e-05 7.08182e-06
-1.91913e-05 0.000419907 -7.78814e-06
7.08182e-06 -7.78814e-06 0.00010714
0.00130996 0.000117699 -4.09822e-05
0.000117699 0.00184478 -1.59773e-05
-4.09822e-05 -1.59773e-05 -0.0020586
-0.00641531 0.000418602 -0.000346016
0.000418602 0.00628657 -1.83212e-05
-0.000346016 -1.83212e-05 0.00129862
-0.0131396 -0.00235562 -0.000683657
-0.00235562 -0.00539198 -9.76924e-06
-0.000683657 -9.76924e-06 -0.00609517
-0.000788042 0.000165695 1.01889e-05
0.000165695 -0.00059591 -5.9726e-06
1.01889e-05 -5.9726e-06 -0.000822707
-0.000766978 0.000452161 -3.75157e-06
0.000452161 -0.000542845 8.52155e-06
-3.75157e-06 8.52155e-06 -0.000941184
0.00202716 0.000930334 2.95643e-05
0.000930334 0.000465839 2.49277e-05
2.95643e-05 2.49277e-05 0.000326843
-0.00557208 0.00186336 6.91769e-05
0.00186336 0.00586426 5.57479e-05
6.91769e-05 5.57479e-05 0.00131538
0.00680068 0.00342238 -0.000275877
0.00342238 0.000163701 -0.000159055
-0.000275877 -0.000159055 -0.00326324
0.00203005 0.00209876 0.000409326
0.00209876 0.000447106 0.000148556
0.000409326 0.000148556 0.000279138
0.000168553 0.000884979 2.41919e-05
0.000884979 3.76968e-05 -4.34376e-05
2.41919e-05 -4.34376e-05 -0.000234487
0.0258923 -0.00361237 -0.000163471
-0.00361237 0.00836382 -0.000350362
-0.000163471 -0.000350362 0.00524573
0.00612684 0.00147818 0.000514786
0.00147818 0.00308003 0.000186813
0.000514786 0.000186813 -0.00251034
0.013777 -0.00191945 0.00016895
-0.00191945 0.0023611 3.18302e-05
0.00016895 3.18302e-05 0.00367415
0.00125752 0.000497223 2.55513e-06
0.000497223 0.000650711 -2.08021e-06
2.55513e-06 -2.08021e-06 0.000354516
0.00380073 0.000535134 -7.51931e-06
0.000535134 0.00302399 1.43789e-05
-7.51931e-06 1.43789e-05 -0.000375271
0.00156675 0.000665584 6.49326e-05
0.000665584 7.52306e-05 2.10229e-06
6.49326e-05 2.10229e-06 -0.00152517
-0.000426489 0.000463411 -3.00282e-06
0.000463411 -0.000142316 -5.33882e-06
-3.00282e-06 -5.33882e-06 -0.000461797
0.000273658 0.00119821 -0.000119985
0.00119821 0.00085119 -5.78528e-05
-0.000119985 -5.78528e-05 -0.000347552
0.000988132 0.00432194 0.000196689
0.00432194 0.000558615 0.000107266
0.000196689 0.000107266 -0.00382381
0.00935443 2.42365e-05 -5.21751e-06
2.42365e-05 -0.00341677 -0.000208284
-5.21751e-06 -0.000208284 -0.00059206
0.00511221 -0.00256705 -7.12497e-05
-0.00256705 0.00323211 -0.000161167
-7.12497e-05 -0.000161167 -0.00148207
0.000955053 0.00039477 -7.25569e-06
0.00039477 0.000767774 -1.41314e-05
-7.25569e-06 -1.41314e-05 0.000422841
-0.00279675 0.000195689 1.2164e-05
0.000195689 -1.38145e-05 2.14047e-05
1.2164e-05 2.14047e-05 -0.000356753
0.00476701 -0.000138323 0.00010696
-0.000138323 -0.000223478 -0.00015562
0.00010696 -0.00015562 -0.00142063
0.0084053 0.00103585 0.000279967
0.00103585 -0.00205697 -1.98434e-05
0.000279967 -1.98434e-05 -0.00123081
-0.00243519 0.000136645 3.06032e-05
0.000136645 -0.000116769 -3.04862e-05
3.06032e-05 -3.04862e-05 -0.000919341
0.013223 0.00332592 0.000301092
0.00332592 0.00622154 7.13561e-05
0.000301092 7.13561e-05 0.0010606
0.000969925 -0.000524765 4.70592e-05
-0.000524765 0.00255211 0.000381096
4.70592e-05 0.000381096 -0.00100005
0.00318036 0.000452858 2.66693e-05
0.000452858 0.00189716 1.0014e-05
2.66693e-05 1.0014e-05 0.00164467
0.000392004 0.000200379 -5.74503e-06
0.000200379 0.000404425 -1.66439e-06
-5.74503e-06 -1.66439e-06 6.03244e-05
0.000210866 0.000175692 1.54347e-06
0.000175692 0.000472234 1.18927e-06
1.54347e-06 1.18927e-06 3.93202e-05
0.000517437 0.000145681 1.2594e-06
0.000145681 0.000100995 3.05973e-07
1.2594e-06 3.05973e-07 -8.17513e-05
0.000485553 6.80323e-05 8.62531e-07
6.80323e-05 0.000120761 3.56255e-06
8.62531e-07 3.56255e-06 -4.78802e-05
0.000174682 -1.89975e-05 6.564e-06
-1.89975e-05 0.000331188 -2.66259e-06
6.564e-06 -2.66259e-06 -5.58986e-05
0.000412257 2.29868e-05 1.66128e-07
2.29868e-05 5.4788e-05 -5.96505e-07
1.66128e-07 -5.96505e-07 -9.4755e-05
0.00066234 -3.50836e-05 -1.18373e-06
-3.50836e-05 0.00061635 -2.43951e-06
-1.18373e-06 -2.43951e-06 0.000233908
4.89147e-05 5.20326e-05 3.00317e-08
5.20326e-05 0.000398694 -1.65469e-06
3.00317e-08 -1.65469e-06 -8.08401e-05
1.26793e-05 -8.07224e-06 -7.31057e-06
-8.07224e-06 0.000325597 8.3176e-06
-7.31057e-06 8.3176e-06 -7.30654e-05
0.000307996 -2.45222e-05 3.02099e-07
-2.45222e-05 0.00033874 -4.63911e-06
3.02099e-07 -4.63911e-06 3.18913e-05
6.78943e-05 -6.24972e-05 3.29463e-06
-6.24972e-05 -0.000173339 8.92013e-06
3.29463e-06 8.92013e-06 -0.000306298
0.00103884 -5.16859e-05 -8.95517e-07
-5.16859e-05 0.0004169 3.05025e-06
-8.95517e-07 3.05025e-06 0.000266543
0.00127148 -5.97189e-05 -1.37969e-05
-5.97189e-05 0.000570499 1.13029e-05
-1.37969e-05 1.13029e-05 0.000437767
0.000741521 -8.34523e-05 3.81222e-06
-8.34523e-05 0.000383132 -6.89101e-07
3.81222e-06 -6.89101e-07 0.000226528
0.000532786 -5.42912e-05 -7.98467e-07
-5.42912e-05 0.000104085 -8.42617e-07
-7.98467e-07 -8.42617e-07 -2.81727e-05
0.000402859 -0.000173299 7.73738e-08
-0.000173299 2.53122e-05 2.94196e-06
7.73738e-08 2.94196e-06 -0.000113954
0.000144555 -0.000153396 -1.16251e-05
-0.000153396 -0.000228215 -1.49521e-06
-1.16251e-05 -1.49521e-06 -0.00028537
-0.000758883 -0.000296762 1.06781e-05
-0.000296762 -0.000718186 1.87997e-05
1.06781e-05 1.87997e-05 -0.00100849
0.000132046 -0.000168139 5.67444e-06
-0.000168139 -0.00020145 -7.59199e-07
5.67444e-06 -7.59199e-07 -0.000317706
0.00115479 -0.000279105 -3.62952e-06
-0.000279105 0.00036996 1.11186e-05
-3.62952e-06 1.11186e-05 0.00018799
0.0019883 -0.000544665 -6.93361e-06
-0.000544665 0.000804581 1.39961e-05
-6.93361e-06 1.39961e-05 0.000447534
0.00157375 -0.00050311 -5.88677e-06
-0.00050311 0.000427413 -3.12137e-07
-5.88677e-06 -3.12137e-07 6.11316e-05
0.00131422 -0.000338996 1.8291e-06
-0.000338996 0.000469994 2.39883e-06
1.8291e-06 2.39883e-06 0.000231264
0.000469005 -0.000322568 9.61423e-06
-0.000322568 -0.000140656 -4.1501e-06
9.61423e-06 -4.1501e-06 -0.00041162
0.00123852 -0.000164781 3.02854e-06
-0.000164781 0.000539063 -4.11875e-06
3.02854e-06 -4.11875e-06 0.00029721
0.00122666 -0.000219697 -7.9896e-06
-0.000219697 0.000505946 7.90516e-07
-7.9896e-06 7.90516e-07 0.000301631
-6.63026e-05 -0.000121679 1.11117e-05
-0.000121679 -0.000327686 -1.65032e-05
1.11117e-05 -1.65032e-05 -0.00043459
0.00116064 -0.000106153 -1.40043e-06
-0.000106153 0.000446163 2.47268e-06
-1.40043e-06 2.47268e-06 0.000281418
0.000264391 -8.31942e-05 8.23599e-07
-8.31942e-05 -5.66841e-05 -5.12147e-07
8.23599e-07 -5.12147e-07 -0.000248204
0.000443457 -5.28557e-05 2.02048e-06
-5.28557e-05 -9.78158e-06 6.31073e-07
2.02048e-06 6.31073e-07 -0.000145818
0.00139654 -0.000209808 -1.75959e-06
-0.000209808 0.000652389 9.28374e-07
-1.75959e-06 9.28374e-07 0.000459484
0.000649441 -9.35067e-05 -3.8619e-07
-9.35067e-05 0.000136491 -1.32177e-07
-3.8619e-07 -1.32177e-07 1.07955e-06
0.000434939 1.33356e-05 3.07832e-06
1.33356e-05 -1.29859e-05 4.44908e-06
3.07832e-06 4.44908e-06 -0.000107492
0.000793399 -0.000131041 -6.9531e-07
-0.000131041 0.000238706 -2.2275e-06
-6.9531e-07 -2.2275e-06 0.00010198
0.000491984 7.61795e-06 -2.10211e-06
7.61795e-06 1.94993e-05 -2.07641e-07
-2.10211e-06 -2.07641e-07 -6.67673e-05
0.00141409 1.20915e-05 -1.57783e-05
1.20915e-05 0.000561801 5.20365e-06
-1.57783e-05 5.20365e-06 0.000538516
0.000585224 -6.20944e-05 1.99779e-06
-6.20944e-05 7.48004e-05 -4.10368e-06
1.99779e-06 -4.10368e-06 -6.96572e-06
0.000885282 -5.93335e-06 -8.01532e-06
-5.93335e-06 0.000230893 5.77717e-07
-8.01532e-06 5.77717e-07 0.000206382
0.000839406 3.20949e-05 3.85458e-07
3.20949e-05 0.000192575 3.03615e-06
3.85458e-07 3.03615e-06 0.000192412
0.000451119 -2.03643e-05 2.21663e-06
-2.03643e-05 -3.78207e-05 -5.77526e-06
2.21663e-06 -5.77526e-06 -6.36977e-05
0.00171322 3.35525e-05 1.35262e-05
3.35525e-05 0.000745918 -1.25752e-06
1.35262e-05 -1.25752e-06 0.000752919
0.002537 2.68159e-05 1.5479e-05
2.68159e-05 0.00126395 -5.41801e-06
1.5479e-05 -5.41801e-06 0.00127634
0.000313408 1.69958e-05 1.10089e-06
1.69958e-05 -6.64955e-05 1.00309e-06
1.10089e-06 1.00309e-06 -0.000198108
0.000155862 1.90927e-05 -3.2942e-08
1.90927e-05 -0.000203043 -3.57526e-06
-3.2942e-08 -3.57526e-06 -0.000265267
0.000627651 4.96192e-05 1.01262e-07
4.96192e-05 0.000123691 1.23577e-07
1.01262e-07 1.23577e-07 1.2641e-05
0.000475241 3.06134e-06 1.2761e-06
3.06134e-06 -3.59321e-05 -3.68936e-06
1.2761e-06 -3.68936e-06 -4.69379e-05
0.000332899 5.85545e-06 1.58401e-06
5.85545e-06 -9.45679e-05 2.99984e-09
1.58401e-06 2.99984e-09 -0.000146732
0.000270712 -9.4139e-05 -1.06102e-06
-9.4139e-05 -9.81543e-05 -1.00191e-06
-1.06102e-06 -1.00191e-06 -0.000197055
0.00205346 -5.58707e-06 -1.08107e-05
-5.58707e-06 0.000956809 -4.76426e-06
-1.08107e-05 -4.76426e-06 0.000974729
0.000469838 2.6872e-06 -2.71986e-09
2.6872e-06 -3.84639e-05 -7.19156e-08
-2.71986e-09 -7.19156e-08 -4.76038e-05
0.000443763 -1.57943e-05 -2.3979e-06
-1.57943e-05 -2.4052e-05 2.13444e-06
-2.3979e-06 2.13444e-06 -6.95695e-05
0.00200571 9.70618e-06 -4.58488e-06
9.70618e-06 0.000927862 8.15387e-09
-4.58488e-06 8.15387e-09 0.000945734
0.000460179 4.43175e-06 -1.08943e-06
4.43175e-06 -4.38366e-05 3.24331e-06
-1.08943e-06 3.24331e-06 -5.25573e-05
0.00197869 2.46006e-05 1.03835e-06
2.46006e-05 0.000912697 4.77551e-06
1.03835e-06 4.77551e-06 0.000929696
-0.000228121 -0.000723502 -0.000232788
-0.000723502 -0.000144353 8.52632e-05
-0.000232788 8.52632e-05 -0.00318566
0.00169646 0.000570726 -0.000104802
0.000570726 0.00723239 1.826e-05
-0.000104802 1.826e-05 0.00330448
0.00206357 -6.43424e-05 -0.000802591
-6.43424e-05 0.00370353 0.000158231
-0.000802591 0.000158231 0.00187097
0.000710728 0.000123912 4.32086e-06
0.000123912 0.000175993 6.37692e-06
4.32086e-06 6.37692e-06 1.88207e-05
0.00485247 -0.000844152 -7.7497e-05
-0.000844152 0.0031458 0.00022602
-7.7497e-05 0.00022602 0.00109172
0.00405749 -0.00121734 -0.000264041
-0.00121734 0.00167603 2.36245e-05
-0.000264041 2.36245e-05 -0.00288618
0.0101812 0.00301629 0.000344425
0.00301629 0.00738854 -0.000325648
0.000344425 -0.000325648 0.00345223
0.00702813 -0.000964774 0.000113221
-0.000964774 0.000800357 -2.30309e-05
0.000113221 -2.30309e-05 0.00104505
0.0129452 -0.00214642 0.000256368
-0.00214642 0.00104103 -0.000124376
0.000256368 -0.000124376 -0.00019272
0.00743322 0.00455205 -0.000603309
0.00455205 5.79405e-05 0.000408994
-0.000603309 0.000408994 -0.00296769
0.0133307 0.00413277 9.18363e-05
0.00413277 0.00450452 0.000217674
9.18363e-05 0.000217674 0.00199284
0.00716386 -0.00208725 -0.000123192
-0.00208725 0.000166998 -6.36911e-06
-0.000123192 -6.36911e-06 0.000555282
0.0172896 -0.00376867 3.87066e-05
-0.00376867 0.00426221 -3.19446e-05
3.87066e-05 -3.19446e-05 0.00180137
0.0080451 0.00273019 0.00015309
0.00273019 0.00257563 -0.000336611
0.00015309 -0.000336611 -0.00136817
0.0115629 0.0012416 1.27902e-05
0.0012416 -0.000512229 3.94341e-05
1.27902e-05 3.94341e-05 -0.000177456
0.00304479 -0.00234832 -5.49021e-05
-0.00234832 -3.31974e-06 7.4201e-05
-5.49021e-05 7.4201e-05 -0.000129399
0.0111837 -0.00411353 0.000145809
-0.00411353 0.00468137 -0.000103699
0.000145809 -0.000103699 0.000349309
0.0094585 -0.000241565 0.00013305
-0.000241565 0.00435173 -0.000435464
0.00013305 -0.000435464 0.00165707
0.0116662 0.000515192 -0.000126292
0.000515192 -0.00135312 0.000234858
-0.000126292 0.000234858 0.000885874
0.000379154 6.38145e-05 3.37878e-06
6.38145e-05 7.2393e-05 8.01231e-06
3.37878e-06 8.01231e-06 -0.000148158
0.000779278 -0.000132862 5.91734e-07
-0.000132862 0.000335783 -4.01984e-07
5.91734e-07 -4.01984e-07 8.88592e-05
0.000969533 0.000147381 1.65081e-06
0.000147381 0.000396123 -5.37514e-06
1.65081e-06 -5.37514e-06 0.000238361
0.000484746 0.00012385 7.07864e-07
0.00012385 2.34476e-05 9.60658e-06
7.07864e-07 9.60658e-06 -0.000122195
0.000819057 0.000184465 5.01426e-07
0.000184465 0.000291577 9.43994e-07
5.01426e-07 9.43994e-07 9.6119e-05
0.00110101 9.98994e-05 -4.96159e-06
9.98994e-05 0.000464587 -4.77733e-06
-4.96159e-06 -4.77733e-06 0.000307439
0.00103769 0.000168772 -1.47538e-06
0.000168772 0.000418343 -1.44252e-07
-1.47538e-06 -1.44252e-07 0.000241573
0.00106609 0.000180163 1.50255e-06
0.000180163 0.000459585 2.64455e-06
1.50255e-06 2.64455e-06 0.000279737
0.000329471 -0.000559934 0.000109796
-0.000559934 -0.00100673 -6.27455e-05
0.000109796 -6.27455e-05 -0.000862098
0.000698093 -0.000680593 -2.17491e-05
-0.000680593 -0.000456098 -5.83336e-06
-2.17491e-05 -5.83336e-06 -0.000412919
0.00102003 -0.000234363 1.84242e-06
-0.000234363 0.000503655 -2.79968e-05
1.84242e-06 -2.79968e-05 0.00020861
0.0016127 -0.000685104 1.86059e-05
-0.000685104 0.000799229 -2.60402e-05
1.86059e-05 -2.60402e-05 0.000454453
0.00257723 -0.000450189 -1.99561e-05
-0.000450189 0.00149909 1.94227e-05
-1.99561e-05 1.94227e-05 0.00111571
0.00153325 -0.000149564 2.283e-06
-0.000149564 0.000809577 -2.24116e-05
2.283e-06 -2.24116e-05 0.000530562
-7.04159e-05 -4.99181e-05 3.48156e-06
-4.99181e-05 -0.000217622 7.28853e-06
3.48156e-06 7.28853e-06 -0.000430308
0.000364635 -0.00109992 -4.56596e-06
-0.00109992 -0.000755982 -3.59212e-06
-4.56596e-06 -3.59212e-06 -0.000773563
0.00135 1.58348e-05 -9.06992e-07
1.58348e-05 0.000832544 -1.51349e-06
-9.06992e-07 -1.51349e-06 0.000513797
0.000413024 -0.00023277 2.46636e-06
-0.00023277 0.00034943 3.72849e-06
2.46636e-06 3.72849e-06 -7.83976e-05
-0.000205484 -0.000372427 2.39978e-05
-0.000372427 -0.000412277 1.12405e-06
2.39978e-05 1.12405e-06 -0.000388328
0.000885021 0.000111347 -4.03318e-07
0.000111347 0.000383834 -4.6735e-07
-4.03318e-07 -4.6735e-07 0.000185366
-0.0004551 -0.000941162 -4.92343e-05
-0.000941162 -0.000629941 -2.60272e-05
-4.92343e-05 -2.60272e-05 -0.000804016
-0.00091406 -0.000383566 -1.46659e-05
-0.000383566 -0.000514852 3.13109e-05
-1.46659e-05 3.13109e-05 -0.000750843
-2.0856e-05 0.000146529 1.94281e-05
0.000146529 0.000361 -2.86923e-05
1.94281e-05 -2.86923e-05 -0.000182869
0.00218518 0.0003294 -5.20466e-06
0.0003294 0.00131261 -3.60543e-06
-5.20466e-06 -3.60543e-06 0.00105422
-0.00113521 9.30771e-05 9.99566e-05
9.30771e-05 0.00138517 1.82575e-05
9.99566e-05 1.82575e-05 0.000532442
0.00050922 -1.87356e-05 0.000149543
-1.87356e-05 0.00125582 -3.25809e-05
0.000149543 -3.25809e-05 -0.00264802
-0.011049 -0.000326867 -0.000255614
-0.000326867 0.00577271 2.57015e-05
-0.000255614 2.57015e-05 0.000339123
0.00172097 0.000529766 2.00794e-05
0.000529766 0.00100145 2.67321e-06
2.00794e-05 2.67321e-06 0.000695944
-0.000737029 0.000643706 1.24973e-05
0.000643706 -0.000347175 1.11039e-05
1.24973e-05 1.11039e-05 -0.000778218
0.00541861 0.000703372 0.00029187
0.000703372 0.00362754 5.42061e-05
0.00029187 5.42061e-05 0.00129985
0.0101895 0.00358705 0.00027196
0.00358705 0.00346976 0.000192297
0.00027196 0.000192297 -0.000625155
0.0041783 0.00224375 -7.89556e-05
0.00224375 0.00240783 -9.21158e-05
-7.89556e-05 -9.21158e-05 0.00105154
0.00490409 -0.00219678 -0.000176618
-0.00219678 0.00406586 -0.000437396
-0.000176618 -0.000437396 0.000401012
0.00259489 0.000561112 0.000128851
0.000561112 0.000326071 0.000183999
0.000128851 0.000183999 -0.00124765
0.00727364 -0.000196297 -4.87359e-05
-0.000196297 -0.0053503 -0.00023113
-4.87359e-05 -0.00023113 -0.00210154
0.000990603 0.000465871 6.07724e-06
0.000465871 0.000752286 1.81843e-06
6.07724e-06 1.81843e-06 0.000383095
-0.00238828 8.2441e-05 -2.60899e-06
8.2441e-05 4.71974e-05 1.57027e-06
-2.60899e-06 1.57027e-06 -0.000424829
0.00424426 -4.58973e-05 0.000106116
-4.58973e-05 -0.000255248 2.37347e-05
0.000106116 2.37347e-05 -0.000802863
-0.00173038 0.000399013 -1.28359e-05
0.000399013 -0.000310615 -1.04033e-05
-1.28359e-05 -1.04033e-05 -0.00101679
0.0112772 0.00136499 -5.62581e-06
0.00136499 -0.00043784 -3.99173e-05
-5.62581e-06 -3.99173e-05 -0.000187438
0.00251163 0.00180884 0.00020731
0.00180884 0.00366304 0.000130674
0.00020731 0.000130674 -0.00194082
0.00676183 0.000655058 -0.000165599
0.000655058 0.00313551 3.77058e-06
-0.000165599 3.77058e-06 -0.000404967
0.000412424 0.000405938 1.39765e-06
0.000405938 0.000536513 -2.33943e-05
1.39765e-06 -2.33943e-05 2.99846e-05
0.00139744 -1.14385e-05 7.65263e-06
-1.14385e-05 0.000146167 -1.84433e-05
7.65263e-06 -1.84433e-05 -0.000138233
0.00387089 -0.00103628 6.28747e-05
-0.00103628 0.00311257 -0.000227791
6.28747e-05 -0.000227791 0.00128456
0.018709 0.00451917 0.000300073
0.00451917 0.00546618 -0.000266467
0.000300073 -0.000266467 0.00352181
0.00858661 -0.000114184 -0.000111246
-0.000114184 0.00436286 0.000440803
-0.000111246 0.000440803 0.00138961
0.000327273 0.00041024 -1.735e-05
0.00041024 0.000645375 -0.000129981
-1.735e-05 -0.000129981 3.44937e-05
0.00405156 0.00149243 0.000255906
0.00149243 0.00587941 3.03004e-05
0.000255906 3.03004e-05 -0.00218553
0.0013668 0.000329005 9.14152e-06
0.000329005 0.000967521 1.00756e-05
9.14152e-06 1.00756e-05 0.000611546
0.000620579 0.000229587 4.00346e-06
0.000229587 0.000701128 1.1571e-06
4.00346e-06 1.1571e-06 0.000283156
0.0003775 -2.54899e-05 -1.75619e-05
-2.54899e-05 0.000683831 -5.51037e-07
-1.75619e-05 -5.51037e-07 0.000328595
-0.000298604 -4.81667e-05 1.16345e-06
-4.81667e-05 -0.00039971 4.23996e-06
1.16345e-06 4.23996e-06 -0.000532784
0.000601389 -1.33091e-05 4.69595e-06
-1.33091e-05 0.000584502 -2.77027e-06
4.69595e-06 -2.77027e-06 0.000195457
0.000166351 5.03324e-05 5.34463e-06
5.03324e-05 0.000463216 -4.31926e-06
5.34463e-06 -4.31926e-06 -7.93387e-06
0.000306721 -3.38616e-05 4.88327e-07
-3.38616e-05 0.000277454 2.06596e-07
4.88327e-07 2.06596e-07 2.64039e-05
-9.45724e-06 -2.91892e-05 4.21628e-06
-2.91892e-05 0.000310541 6.46178e-07
4.21628e-06 6.46178e-07 -9.23708e-05
0.00133402 -0.000335785 3.49343e-06
-0.000335785 0.000892688 -1.13124e-05
3.49343e-06 -1.13124e-05 0.000568741
0.000787452 -8.82821e-05 -6.67076e-06
-8.82821e-05 0.000385685 7.19418e-06
-6.67076e-06 7.19418e-06 0.000242159
0.000519852 -1.23132e-05 -1.2919e-06
-1.23132e-05 9.38151e-05 1.9247e-06
-1.2919e-06 1.9247e-06 -3.64964e-05
0.00134238 -0.000265922 1.26451e-06
-0.000265922 0.000590795 5.3053e-06
1.26451e-06 5.3053e-06 0.000420495
-0.00253315 -0.000143949 1.8323e-05
-0.000143949 -0.00156774 1.8172e-05
1.8323e-05 1.8172e-05 -0.00189333
-0.000175956 -0.000114865 8.82834e-06
-0.000114865 -0.000335446 -2.40923e-06
8.82834e-06 -2.40923e-06 -0.000361497
-7.93258e-05 -0.000331725 -9.13453e-07
-0.000331725 -0.000356345 -4.61791e-06
-9.13453e-07 -4.61791e-06 -0.0006112
0.00125903 -0.000520768 1.17268e-07
-0.000520768 0.000316387 -1.22334e-06
1.17268e-07 -1.22334e-06 -0.000123281
0.00166834 -0.00061697 -5.68799e-06
-0.00061697 0.000443631 -4.71761e-07
-5.68799e-06 -4.71761e-07 1.55965e-05
0.00174714 -0.000358921 4.90195e-06
-0.000358921 0.000718814 -3.36405e-06
4.90195e-06 -3.36405e-06 0.000511451
0.00128933 -0.00046477 1.17671e-06
-0.00046477 0.000361483 7.42888e-07
1.17671e-06 7.42888e-07 1.17163e-05
0.00163423 -0.000517777 4.86673e-06
-0.000517777 0.000442823 -3.86717e-06
4.86673e-06 -3.86717e-06 8.22905e-05
0.000818674 -0.000329377 -1.56296e-06
-0.000329377 3.75966e-05 6.1698e-06
-1.56296e-06 6.1698e-06 -0.000238927
0.00113193 -0.000445523 2.19407e-06
-0.000445523 0.000170622 -5.20516e-06
2.19407e-06 -5.20516e-06 -0.00017548
0.000447565 -0.00014758 1.05657e-06
-0.00014758 2.75566e-05 -5.51537e-06
1.05657e-06 -5.51537e-06 -0.000222222
0.00110035 -0.000337674 -6.27667e-06
-0.000337674 0.000350902 3.97081e-06
-6.27667e-06 3.97081e-06 9.63131e-05
-0.000842565 -0.00015576 -7.60448e-07
-0.00015576 -0.000937689 -9.79912e-06
-7.60448e-07 -9.79912e-06 -0.00116159
8.15984e-05 -5.45095e-05 1.29836e-06
-5.45095e-05 -0.000217155 -2.1495e-06
1.29836e-06 -2.1495e-06 -0.000390979
0.000423388 -0.000134236 2.43103e-07
-0.000134236 5.92409e-05 4.68041e-07
2.43103e-07 4.68041e-07 -0.00017975
0.000656947 -0.000209331 9.19378e-06
-0.000209331 0.000200618 -5.07501e-07
9.19378e-06 -5.07501e-07 -1.95589e-05
0.000571444 -0.000120071 -6.5242e-08
-0.000120071 0.000128844 3.15027e-06
-6.5242e-08 3.15027e-06 -6.14294e-05
0.000711964 -0.000106813 -6.32201e-08
-0.000106813 0.000174603 3.48077e-07
-6.32201e-08 3.48077e-07 2.22426e-05
0.000582586 -2.55583e-06 2.24353e-06
-2.55583e-06 7.0401e-05 6.14418e-06
2.24353e-06 6.14418e-06 -3.25408e-05
0.000982896 -0.000133474 -2.04194e-06
-0.000133474 0.000358882 -1.08386e-06
-2.04194e-06 -1.08386e-06 0.000208817
0.000577789 -4.69654e-06 -1.19157e-06
-4.69654e-06 6.60348e-05 -3.45807e-07
-1.19157e-06 -3.45807e-07 -2.37324e-05
0.000412627 4.45076e-05 1.94886e-06
4.45076e-05 -5.75886e-05 6.86011e-06
1.94886e-06 6.86011e-06 -9.24846e-05
0.00068506 -6.11183e-05 9.09018e-07
-6.11183e-05 0.000132261 -3.72541e-06
9.09018e-07 -3.72541e-06 4.86682e-05
0.000458284 5.03644e-06 -1.09977e-06
5.03644e-06 -3.94979e-05 -4.47063e-08
-1.09977e-06 -4.47063e-08 -6.83256e-05
0.00256853 9.01516e-05 -2.32184e-06
9.01516e-05 0.00128642 2.56794e-06
-2.32184e-06 2.56794e-06 0.00129145
0.000471577 -1.1418e-05 2.32991e-06
-1.1418e-05 -2.9999e-05 -5.96686e-06
2.32991e-06 -5.96686e-06 -5.73094e-05
0.00174684 4.70673e-05 1.63277e-05
4.70673e-05 0.000766479 -1.03999e-06
1.63277e-05 -1.03999e-06 0.000771529
0.00259762 4.27242e-05 2.22718e-05
4.27242e-05 0.00130089 -5.57617e-06
2.22718e-05 -5.57617e-06 0.00131231
0.000277932 2.08898e-05 9.09189e-07
2.08898e-05 -0.000107671 8.57156e-07
9.09189e-07 8.57156e-07 -0.000229104
0.000224344 1.07469e-05 1.14779e-06
1.07469e-05 -0.00016142 -2.8328e-06
1.14779e-06 -2.8328e-06 -0.000235433
0.000466308 3.68897e-05 -5.91226e-07
3.68897e-05 2.50676e-05 -1.20519e-06
-5.91226e-07 -1.20519e-06 -0.000100513
0.000499127 2.2547e-06 1.53901e-06
2.2547e-06 -2.12983e-05 -4.19887e-06
1.53901e-06 -4.19887e-06 -3.53418e-05
0.000199393 1.52492e-05 -5.76048e-07
1.52492e-05 -0.000176422 -1.7702e-06
-5.76048e-07 -1.7702e-06 -0.000240806
0.000669111 5.64292e-05 -3.22777e-08
5.64292e-05 0.000162058 1.56194e-06
-3.22777e-08 1.56194e-06 4.2359e-05
0.00207516 -1.89769e-05 -1.61084e-05
-1.89769e-05 0.00096934 -4.66841e-06
-1.61084e-05 -4.66841e-06 0.000987011
0.000476775 1.12263e-06 -6.21179e-07
1.12263e-06 -3.53348e-05 -6.76976e-08
-6.21179e-07 -6.76976e-08 -4.60305e-05
0.000120357 1.42653e-05 1.48612e-06
1.42653e-05 -0.000224363 1.5291e-06
1.48612e-06 1.5291e-06 -0.000280262
0.00202921 -4.34015e-06 -4.03278e-06
-4.34015e-06 0.000941377 4.40511e-08
-4.03278e-06 4.40511e-08 0.000959487
0.000458434 2.22805e-06 -1.35093e-06
2.22805e-06 -4.62757e-05 3.40972e-06
-1.35093e-06 3.40972e-06 -5.50533e-05
0.00205012 1.12556e-05 6.51067e-06
1.12556e-05 0.00095616 4.83296e-06
6.51067e-06 4.83296e-06 0.00097363
0.000427603 -3.74904e-05 0.000119024
-3.74904e-05 0.00199094 4.37683e-05
0.000119024 4.37683e-05 0.00142893
-0.000202141 -0.000361479 -4.68216e-05
-0.000361479 0.000366368 -1.16028e-05
-4.68216e-05 -1.16028e-05 -0.00329681
0.00021661 0.000552169 -2.17361e-05
0.000552169 0.00688811 -4.31109e-05
-2.17361e-05 -4.31109e-05 0.00286852
0.000758453 0.000131559 4.79973e-07
0.000131559 0.000197098 7.31731e-08
4.79973e-07 7.31731e-08 5.031e-05
0.000377453 9.18642e-05 5.42498e-06
9.18642e-05 -5.49926e-05 4.78051e-06
5.42498e-06 4.78051e-06 -0.000188948
0.00105563 0.000188622 7.35143e-06
0.000188622 0.000383108 7.92291e-06
7.35143e-06 7.92291e-06 0.000234621
0.00561706 -0.00027225 -7.70875e-05
-0.00027225 -0.000407777 0.000227179
-7.70875e-05 0.000227179 -0.00139142
0.00479718 -0.000957206 8.66506e-05
-0.000957206 0.00283694 3.24504e-06
8.66506e-05 3.24504e-06 0.00139414
0.0045987 -0.00163382 0.000178995
-0.00163382 0.00193956 -0.000243702
0.000178995 -0.000243702 -0.00271529
0.00846291 -0.00250988 -2.69391e-05
-0.00250988 0.000315669 -3.24033e-05
-2.69391e-05 -3.24033e-05 0.000920892
0.0007838 -0.00298752 -0.000381154
-0.00298752 -0.0019712 9.94032e-05
-0.000381154 9.94032e-05 -0.00478524
0.0254544 0.00394694 0.000203157
0.00394694 0.0102954 0.000162594
0.000203157 0.000162594 0.00596431
0.00699882 -8.04586e-05 0.000274968
-8.04586e-05 -0.00280817 -0.000222393
0.000274968 -0.000222393 -0.00290789
0.0045134 -0.00269017 -3.15456e-05
-0.00269017 0.00011542 1.72765e-05
-3.15456e-05 1.72765e-05 0.000390964
0.00727157 -0.00387431 -0.000109139
-0.00387431 0.00274575 2.07469e-05
-0.000109139 2.07469e-05 -0.00190583
-0.00250296 0.00356897 -8.73255e-05
0.00356897 0.00357007 -0.000299584
-8.73255e-05 -0.000299584 -0.00112289
0.00962122 0.000143631 -7.13972e-05
0.000143631 -0.00353957 0.000136434
-7.13972e-05 0.000136434 -0.000609805
0.0018601 -0.00188607 -0.00011592
-0.00188607 0.00105252 4.95716e-05
-0.00011592 4.95716e-05 0.000639385
0.0105691 -0.00290059 -0.00028738
-0.00290059 0.00563686 0.000169556
-0.00028738 0.000169556 0.00059886
-0.000673939 -6.64637e-05 4.29346e-05
-6.64637e-05 0.00230786 -0.000342301
4.29346e-05 -0.000342301 -0.00135426
0.00880753 -0.000961782 0.000116603
-0.000961782 -0.00197717 5.6476e-05
0.000116603 5.6476e-05 -0.00117094
0.000277551 9.62834e-05 5.11675e-06
9.62834e-05 -5.90622e-05 1.70904e-05
5.11675e-06 1.70904e-05 -0.000210125
0.000732843 -9.69292e-06 2.64185e-06
-9.69292e-06 0.000270637 -3.32135e-06
2.64185e-06 -3.32135e-06 4.0691e-05
0.000449648 -0.000153013 1.34409e-06
-0.000153013 5.3139e-05 -1.10082e-05
1.34409e-06 -1.10082e-05 -0.000156191
0.000662066 0.000132551 -2.04156e-06
0.000132551 0.000136853 1.32872e-06
-2.04156e-06 1.32872e-06 -1.64344e-05
0.00072928 0.000134914 2.39276e-06
0.000134914 0.000236666 -4.47229e-06
2.39276e-06 -4.47229e-06 5.42653e-05
0.00118102 0.000195572 -3.45937e-06
0.000195572 0.000512347 -3.79194e-06
-3.45937e-06 -3.79194e-06 0.000332371
-0.000751133 -0.000933635 3.12301e-05
-0.000933635 -0.0012765 -1.3222e-05
3.12301e-05 -1.3222e-05 -0.00129324
0.00098444 -0.000358198 2.50233e-05
-0.000358198 0.000263329 -2.54986e-05
2.50233e-05 -2.54986e-05 0.00030408
-9.43353e-07 3.10303e-05 -1.23382e-06
3.10303e-05 -0.000167973 -1.26599e-05
-1.23382e-06 -1.26599e-05 -0.000390265
0.00210941 -0.000456358 5.70521e-05
-0.000456358 0.0012698 -2.43687e-05
5.70521e-05 -2.43687e-05 0.000874489
0.00171364 -0.000109136 -2.54343e-06
-0.000109136 0.00101384 7.57856e-06
-2.54343e-06 7.57856e-06 0.000719517
8.72021e-06 9.39903e-05 3.75677e-06
9.39903e-05 -0.000104208 4.20743e-06
3.75677e-06 4.20743e-06 -0.000320892
0.000625455 0.000129505 9.77274e-07
0.000129505 0.000347772 -2.9397e-06
9.77274e-07 -2.9397e-06 0.00012372
0.000244674 -0.00108262 -1.78597e-05
-0.00108262 -0.000332249 -3.34394e-06
-1.78597e-05 -3.34394e-06 -0.000608969
0.000220638 -3.0903e-05 -6.40563e-06
-3.0903e-05 0.000494915 5.15063e-06
-6.40563e-06 5.15063e-06 -2.70928e-05
0.00135597 -0.000336072 3.64402e-07
-0.000336072 0.000744031 -9.62439e-06
3.64402e-07 -9.62439e-06 0.000442576
0.00103927 0.000172149 -4.61371e-07
0.000172149 0.000583964 -1.40202e-05
-4.61371e-07 -1.40202e-05 0.000373882
-0.00244517 -0.000232458 -6.9486e-05
-0.000232458 -0.000469665 -1.49844e-05
-6.9486e-05 -1.49844e-05 -0.00132813
0.000355056 -0.00017955 -2.61826e-05
-0.00017955 0.00058524 8.15433e-06
-2.61826e-05 8.15433e-06 0.000215355
9.45694e-05 0.000107867 -1.01534e-05
0.000107867 0.000441541 1.17377e-05
-1.01534e-05 1.17377e-05 4.54311e-06
-0.000210063 0.000160654 -9.43528e-06
0.000160654 -0.000612886 2.35437e-06
-9.43528e-06 2.35437e-06 -0.00162005
-0.00169488 0.00015981 4.59095e-05
0.00015981 0.00110674 -1.41902e-05
4.59095e-05 -1.41902e-05 0.000271448
-0.00031356 -0.000152121 0.000318908
-0.000152121 0.000690373 2.35984e-05
0.000318908 2.35984e-05 -0.0032166
5.11744e-05 0.000425893 6.18191e-07
0.000425893 0.000187336 1.54454e-05
6.18191e-07 1.54454e-05 -0.000201552
0.000557011 0.000782368 -1.68228e-05
0.000782368 0.000457391 -7.56833e-06
-1.68228e-05 -7.56833e-06 -0.000151844
-0.00217485 3.99571e-05 -2.96326e-05
3.99571e-05 8.72877e-05 -1.72624e-05
-2.96326e-05 -1.72624e-05 -0.000520119
-0.00456819 0.000714122 6.19096e-05
0.000714122 0.00238642 0.000177663
6.19096e-05 0.000177663 -0.00290927
-0.00174403 0.00130492 -0.000189027
0.00130492 -0.00187554 -0.000456819
-0.000189027 -0.000456819 -0.00623642
0.00353416 3.08696e-05 8.07537e-05
3.08696e-05 -0.000339666 9.94845e-05
8.07537e-05 9.94845e-05 -0.000356096
0.00656771 6.59653e-05 -0.000276157
6.59653e-05 -0.00256226 0.000227085
-0.000276157 0.000227085 -0.00290113
0.000240964 0.000329853 4.34115e-07
0.000329853 0.000486238 -9.43995e-07
4.34115e-07 -9.43995e-07 4.63609e-05
0.001013 -4.94821e-07 3.00927e-05
-4.94821e-07 6.414e-05 -1.81822e-05
3.00927e-05 -1.81822e-05 -0.000197066
0.00404235 -0.000757617 -8.53564e-05
-0.000757617 0.00279434 2.75961e-06
-8.53564e-05 2.75961e-06 0.00131815
-0.000205074 0.00063906 -0.000127644
0.00063906 0.00106978 -5.88071e-06
-0.000127644 -5.88071e-06 -0.000256884
0.0135675 0.00461526 2.97048e-05
0.00461526 0.00261634 -0.000387655
2.97048e-05 -0.000387655 0.000478254
-0.000118153 0.00288622 7.37851e-05
0.00288622 0.00394356 0.000309295
7.37851e-05 0.000309295 -0.000751892
0.0053288 0.000581698 5.68247e-05
0.000581698 0.00585809 -2.31332e-05
5.68247e-05 -2.31332e-05 -0.00130665
0.000800073 -2.3345e-05 4.31684e-05
-2.3345e-05 0.00143798 -2.80183e-05
4.31684e-05 -2.80183e-05 0.000467162
4.51771e-05 -0.000131132 -0.000103735
-0.000131132 0.00203338 3.65736e-06
-0.000103735 3.65736e-06 0.00134255
0.00210631 -0.000885798 0.000673732
-0.000885798 0.000735864 -0.000250752
0.000673732 -0.000250752 -0.00404102
0.0174654 0.00665312 -6.07983e-05
0.00665312 0.0118361 1.57012e-06
-6.07983e-05 1.57012e-06 0.00899407
0.00501777 0.00353724 -0.000161122
0.00353724 0.00107315 0.00075857
-0.000161122 0.00075857 -0.0025561
0.0118933 -0.00317771 0.000258661
-0.00317771 0.00581169 -0.000215221
0.000258661 -0.000215221 0.000290174
0.00364396 -0.00072392 -7.14713e-05
-0.00072392 0.00305143 3.93356e-05
-7.14713e-05 3.93356e-05 0.00219868
0.000625457 0.000236527 -8.47207e-07
0.000236527 0.000727749 2.51886e-06
-8.47207e-07 2.51886e-06 0.00029799
4.19214e-05 -5.02416e-05 -8.51599e-06
-5.02416e-05 0.000415279 -2.86838e-06
-8.51599e-06 -2.86838e-06 3.95232e-05
0.00131492 -0.000487375 3.57995e-05
-0.000487375 0.000936439 -1.38298e-05
3.57995e-05 -1.38298e-05 0.00045061
0.000443812 -7.63062e-05 -1.40401e-06
-7.63062e-05 0.000316644 2.97488e-06
-1.40401e-06 2.97488e-06 0.000109036
4.32732e-06 -3.82757e-05 1.12206e-06
-3.82757e-05 0.000293007 -1.10708e-05
1.12206e-06 -1.10708e-05 -9.05615e-05
0.000423584 -0.000278091 -4.08225e-06
-0.000278091 0.00047785 3.6271e-07
-4.08225e-06 3.6271e-07 0.000139283
0.000877194 -0.000545146 2.3142e-05
-0.000545146 0.000317143 -2.17124e-05
2.3142e-05 -2.17124e-05 5.7046e-05
0.00249711 -0.000372633 -2.23888e-06
-0.000372633 0.00130453 1.39491e-06
-2.23888e-06 1.39491e-06 0.00109083
0.00189764 -0.000634261 1.46097e-05
-0.000634261 0.00086292 -3.36521e-06
1.46097e-05 -3.36521e-06 0.000477458
0.00107701 -0.000541687 8.88103e-06
-0.000541687 0.000379711 4.17014e-07
8.88103e-06 4.17014e-07 -0.00021107
0.000525557 -0.000336036 -5.57966e-06
-0.000336036 -3.28323e-05 -4.81596e-06
-5.57966e-06 -4.81596e-06 -0.000239932
0.00188363 -0.000593494 -2.30437e-06
-0.000593494 0.00064002 -4.19568e-07
-2.30437e-06 -4.19568e-07 0.000196257
0.00224599 -0.000761254 -5.00279e-06
-0.000761254 0.000760091 3.81579e-07
-5.00279e-06 3.81579e-07 0.000217337
0.0019054 -0.00079036 -1.02998e-05
-0.00079036 0.000419276 1.78519e-06
-1.02998e-05 1.78519e-06 -5.69864e-05
0.00172705 -0.000654435 -1.4045e-06
-0.000654435 0.000461773 -7.27488e-07
-1.4045e-06 -7.27488e-07 4.07502e-05
0.00158043 -0.000610171 -4.91607e-06
-0.000610171 0.000382496 1.42914e-06
-4.91607e-06 1.42914e-06 -4.59843e-05
0.00118035 -0.000457186 -2.0395e-06
-0.000457186 0.000265684 -5.37039e-06
-2.0395e-06 -5.37039e-06 -9.2587e-05
0.00153808 -0.000471751 9.24329e-06
-0.000471751 0.000456347 -1.23515e-06
9.24329e-06 -1.23515e-06 0.000124317
0.00155989 -0.000516212 5.62028e-06
-0.000516212 0.000399057 -2.48754e-06
5.62028e-06 -2.48754e-06 3.85382e-05
0.000542048 -0.000219971 3.0845e-06
-0.000219971 -3.00576e-05 -1.71225e-07
3.0845e-06 -1.71225e-07 -0.000272673
0.000959948 -0.000355345 3.6302e-06
-0.000355345 0.000136 -2.48003e-06
3.6302e-06 -2.48003e-06 -0.000145638
0.000485774 -0.00036544 -1.72984e-06
-0.00036544 -0.000215626 -8.6143e-06
-1.72984e-06 -8.6143e-06 -0.000537154
-8.88507e-05 -4.94665e-05 6.55197e-07
-4.94665e-05 -0.000291048 -2.50905e-06
6.55197e-07 -2.50905e-06 -0.000526638
0.0010623 -0.00021965 -4.41881e-07
-0.00021965 0.000420517 2.91684e-08
-4.41881e-07 2.91684e-08 0.000158576
0.000763911 -0.000320721 -2.83699e-06
-0.000320721 0.000156082 -1.80785e-06
-2.83699e-06 -1.80785e-06 -0.000110758
0.000678522 -3.94964e-05 4.2209e-07
-3.94964e-05 0.000125849 7.50292e-06
4.2209e-07 7.50292e-06 8.52683e-06
0.000797859 -0.00011084 -3.23796e-07
-0.00011084 0.000224718 -1.37765e-07
-3.23796e-07 -1.37765e-07 4.50219e-05
3.45383e-05 -0.000107184 5.71545e-07
-0.000107184 -0.000174288 3.8362e-06
5.71545e-07 3.8362e-06 -0.000402451
0.00103866 -0.000128451 -4.62139e-07
-0.000128451 0.000388095 -6.14834e-07
-4.62139e-07 -6.14834e-07 0.00022534
0.000608278 -4.64389e-05 -1.16428e-07
-4.64389e-05 8.35161e-05 -3.62e-07
-1.16428e-07 -3.62e-07 -2.03727e-05
0.000370243 2.70605e-05 1.91318e-06
2.70605e-05 -7.70131e-05 8.98864e-06
1.91318e-06 8.98864e-06 -0.000118242
0.000646444 -5.17199e-05 -3.60899e-07
-5.17199e-05 0.000105212 -4.56166e-06
-3.60899e-07 -4.56166e-06 1.49927e-05
0.000483411 1.74905e-05 -2.51819e-06
1.74905e-05 -1.81077e-05 -2.32543e-07
-2.51819e-06 -2.32543e-07 -5.10482e-05
0.00271812 9.68886e-05 -3.64133e-05
9.68886e-05 0.00138721 4.61557e-06
-3.64133e-05 4.61557e-06 0.00139172
0.000502195 -2.52495e-06 2.1676e-06
-2.52495e-06 -1.39758e-05 -6.16492e-06
2.1676e-06 -6.16492e-06 -4.22521e-05
0.00174023 6.31518e-05 1.89528e-05
6.31518e-05 0.000764877 -7.40236e-07
1.89528e-05 -7.40236e-07 0.000767674
0.00265944 6.15473e-05 2.74648e-05
6.15473e-05 0.00134071 -5.23339e-06
2.74648e-05 -5.23339e-06 0.00135037
0.000739169 9.78195e-05 3.86663e-06
9.78195e-05 0.000193839 1.21771e-06
3.86663e-06 1.21771e-06 5.7748e-05
0.000519564 4.77533e-05 1.51344e-06
4.77533e-05 2.33482e-05 -2.07957e-06
1.51344e-06 -2.07957e-06 -5.64918e-05
0.000458949 5.37081e-05 -1.05458e-06
5.37081e-05 2.016e-05 -1.24626e-06
-1.05458e-06 -1.24626e-06 -0.000112359
0.00049415 3.24969e-06 8.00774e-07
3.24969e-06 -2.39761e-05 -5.11377e-06
8.00774e-07 -5.11377e-06 -4.28677e-05
0.000331398 3.79804e-05 -2.22233e-06
3.79804e-05 -9.30577e-05 -1.83076e-06
-2.22233e-06 -1.83076e-06 -0.000166457
0.000662497 7.68873e-05 -7.53989e-07
7.68873e-05 0.000151435 -2.51175e-06
-7.53989e-07 -2.51175e-06 2.54982e-05
0.00217694 -3.43357e-05 -2.01741e-05
-3.43357e-05 0.00103337 -4.77342e-06
-2.01741e-05 -4.77342e-06 0.00104961
0.000470056 -3.25618e-06 7.86869e-09
-3.25618e-06 -4.0181e-05 -1.35921e-07
7.86869e-09 -1.35921e-07 -5.37417e-05
0.000131588 1.40495e-05 -1.41101e-06
1.40495e-05 -0.000219133 3.50438e-07
-1.41101e-06 3.50438e-07 -0.000284743
0.00211403 -1.83774e-05 -5.34753e-06
-1.83774e-05 0.000993914 1.24922e-07
-5.34753e-06 1.24922e-07 0.00101146
0.000464591 -1.93475e-06 -2.22351e-06
-1.93475e-06 -4.32528e-05 3.48988e-06
-2.22351e-06 3.48988e-06 -5.36847e-05
0.00206069 -2.90462e-06 1.13397e-05
-2.90462e-06 0.000961105 4.81149e-06
1.13397e-05 4.81149e-06 0.000979089
0.00136007 -0.000224433 -5.38971e-05
-0.000224433 5.00677e-05 3.39196e-05
-5.38971e-05 3.39196e-05 -0.000264365
-0.000553068 -0.000205272 5.91332e-05
-0.000205272 0.00167009 -3.286e-06
5.91332e-05 -3.286e-06 0.000970807
-0.000763539 -0.000368522 0.000153288
-0.000368522 0.000583807 -0.000133698
0.000153288 -0.000133698 -0.00348046
0.000143348 4.93615e-05 2.80443e-06
4.93615e-05 -0.000199172 4.1543e-06
2.80443e-06 4.1543e-06 -0.000338229
0.00211293 0.000102874 1.30281e-06
0.000102874 0.00101505 2.08242e-06
1.30281e-06 2.08242e-06 0.000848061
0.00073535 0.000146072 -2.44227e-06
0.000146072 0.000187843 -4.83589e-06
-2.44227e-06 -4.83589e-06 4.46741e-05
0.000407837 7.76968e-05 8.44644e-07
7.76968e-05 -4.94618e-05 9.00122e-07
8.44644e-07 9.00122e-07 -0.000174285
0.000456955 9.52472e-05 3.73047e-07
9.52472e-05 -1.79196e-06 -6.71761e-07
3.73047e-07 -6.71761e-07 -0.000128801
0.000484413 8.86745e-05 5.82262e-06
8.86745e-05 1.07121e-05 2.94422e-06
5.82262e-06 2.94422e-06 -0.000109375
0.000433975 0.000153786 1.03756e-05
0.000153786 2.59928e-05 7.50595e-06
1.03756e-05 7.50595e-06 -0.000110478
0.00151545 0.000826165 0.00019242
0.000826165 -0.000460523 0.000241963
0.00019242 0.000241963 -0.00176017
0.00464358 -0.000182528 -4.55625e-05
-0.000182528 -0.000214935 5.63874e-05
-4.55625e-05 5.63874e-05 -0.000996011
0.00394532 -0.000660587 0.000183293
-0.000660587 0.00267353 -0.000105525
0.000183293 -0.000105525 0.00146932
0.00754262 -0.000123679 -5.01481e-07
-0.000123679 -0.00578195 0.000171013
-5.01481e-07 0.000171013 -0.00209358
0.00418213 -0.00261382 -0.000111097
-0.00261382 0.00049593 4.15734e-05
-0.000111097 4.15734e-05 0.000582827
0.00132762 -0.00369934 -0.00023989
-0.00369934 0.00151349 7.72744e-05
-0.00023989 7.72744e-05 -0.00401737
0.0147821 0.00404858 0.000113218
0.00404858 0.007018 -0.000143166
0.000113218 -0.000143166 0.00272989
0.00244193 -0.00219648 -6.11667e-05
-0.00219648 0.000192868 2.40308e-05
-6.11667e-05 2.40308e-05 0.000388126
-0.00128949 -0.000745102 -5.37671e-05
-0.000745102 0.00363855 5.18082e-05
-5.37671e-05 5.18082e-05 -0.00316734
0.00764322 0.000564782 0.000184867
0.000564782 0.0031403 -2.46989e-05
0.000184867 -2.46989e-05 -0.000176372
0.0148572 -0.00207333 -7.18459e-05
-0.00207333 0.00196116 -1.96671e-05
-7.18459e-05 -1.96671e-05 0.003231
-0.00138939 -0.000489276 -0.000192454
-0.000489276 7.17479e-05 0.000142316
-0.000192454 0.000142316 4.89542e-05
0.00352579 0.00201098 -0.00018029
0.00201098 0.00519604 -8.83874e-05
-0.00018029 -8.83874e-05 -0.00173336
-0.00213623 -0.00477585 1.07919e-05
-0.00477585 -0.000543172 -0.000240511
1.07919e-05 -0.000240511 -0.00525875
0.0129908 -0.00279126 0.000116273
-0.00279126 0.00323332 -0.000598604
0.000116273 -0.000598604 0.00195075
0.000870309 2.38948e-05 1.16628e-05
2.38948e-05 0.000439721 2.64657e-06
1.16628e-05 2.64657e-06 0.00022479
0.000812183 0.000181052 -1.18635e-06
0.000181052 0.000295331 -3.0038e-06
-1.18635e-06 -3.0038e-06 0.000129324
0.000993415 -2.49574e-05 9.16242e-07
-2.49574e-05 0.000453009 -2.36073e-06
9.16242e-07 -2.36073e-06 0.000196696
0.00107516 0.000159491 -3.77061e-06
0.000159491 0.000422125 -9.08054e-06
-3.77061e-06 -9.08054e-06 0.000245846
0.00103089 -0.000969866 3.17103e-05
-0.000969866 0.000119055 3.25341e-05
3.17103e-05 3.25341e-05 -0.000224163
0.00285611 -0.000323274 -8.4929e-07
-0.000323274 0.00166707 -2.76306e-05
-8.4929e-07 -2.76306e-05 0.00128158
0.000865136 9.69561e-05 -7.97853e-06
9.69561e-05 0.000406086 -1.29979e-05
-7.97853e-06 -1.29979e-05 0.000213097
0.000145346 0.000115115 -1.88549e-06
0.000115115 4.7831e-05 -3.30363e-06
-1.88549e-06 -3.30363e-06 -0.000170906
0.000471367 1.93149e-05 -2.22005e-06
1.93149e-05 0.000617542 1.79807e-05
-2.22005e-06 1.79807e-05 0.000170187
0.00038635 5.5501e-05 3.38641e-06
5.5501e-05 0.000137371 4.29455e-06
3.38641e-06 4.29455e-06 -3.47942e-05
0.000222206 0.000148367 3.3729e-06
0.000148367 0.000525307 1.76672e-06
3.3729e-06 1.76672e-06 7.09216e-05
0.00122642 -0.000399367 9.49499e-07
-0.000399367 0.00133912 4.30076e-06
9.49499e-07 4.30076e-06 0.000243872
9.93674e-05 -0.000117884 1.16489e-05
-0.000117884 0.000626249 1.76797e-06
1.16489e-05 1.76797e-06 0.000223971
-0.000732546 9.06649e-05 1.21483e-06
9.06649e-05 -0.000316783 -1.11409e-05
1.21483e-06 -1.11409e-05 -0.000551293
0.00212725 -2.76605e-05 -7.64926e-05
-2.76605e-05 0.00346175 -3.15364e-05
-7.64926e-05 -3.15364e-05 0.00174674
0.000891619 0.000321641 -2.836e-05
0.000321641 0.00106325 1.89886e-05
-2.836e-05 1.89886e-05 0.00053591
-0.0016555 5.99782e-05 -7.16352e-05
5.99782e-05 0.00144342 -8.44027e-06
-7.16352e-05 -8.44027e-06 0.000481064
0.000893452 4.06189e-05 1.23286e-05
4.06189e-05 -0.000123724 4.45568e-06
1.23286e-05 4.45568e-06 -0.000492215
-0.00241284 0.000204331 -1.0944e-05
0.000204331 0.000742977 -5.47704e-05
-1.0944e-05 -5.47704e-05 -5.10831e-05
0.000190045 0.000240089 -2.02548e-05
0.000240089 0.000554054 7.10997e-06
-2.02548e-05 7.10997e-06 0.000200125
-0.00152234 0.000779191 0.000134494
0.000779191 -0.000284901 0.000101289
0.000134494 0.000101289 -0.000982821
0.000680842 1.70597e-05 5.51965e-05
1.70597e-05 -1.95257e-05 -5.93731e-06
5.51965e-05 -5.93731e-06 -9.15462e-05
0.0053329 -0.00197183 0.000215259
-0.00197183 0.00546445 -0.000175728
0.000215259 -0.000175728 -0.00250985
0.016991 0.00355143 -0.000156651
0.00355143 0.00753524 0.000142994
-0.000156651 0.000142994 0.00340542
0.00335105 -0.000572613 -0.000169663
-0.000572613 0.00220248 0.00011241
-0.000169663 0.00011241 0.00113817
0.0125576 0.00435635 -5.92189e-05
0.00435635 0.0045716 -0.000204137
-5.92189e-05 -0.000204137 0.00193019
0.000391844 0.000197534 -5.69205e-05
0.000197534 0.00109097 1.41106e-05
-5.69205e-05 1.41106e-05 0.000152395
7.4046e-05 -0.000175772 -6.86435e-05
-0.000175772 0.00165754 1.12665e-06
-6.86435e-05 1.12665e-06 0.0011901
0.00332561 -0.00130167 0.000259873
-0.00130167 0.0015167 -3.24159e-05
0.000259873 -3.24159e-05 -0.0030942
-0.00225577 -0.000131855 4.01359e-05
-0.000131855 -0.000453946 3.01718e-05
4.01359e-05 3.01718e-05 -0.000860717
0.0112063 0.00743703 0.000539087
0.00743703 0.00823666 -0.000248855
0.000539087 -0.000248855 0.00561849
0.00707128 0.00286518 -0.00016244
0.00286518 0.00247107 0.000341785
-0.00016244 0.000341785 -0.00141762
-0.00268384 -0.00119374 0.000159588
-0.00119374 0.00263242 -0.000131518
0.000159588 -0.000131518 -0.00458971
-0.000456716 -0.000374964 2.56922e-05
-0.000374964 0.000598175 -2.62787e-05
2.56922e-05 -2.62787e-05 -0.000333323
0.000204045 -0.000677784 0.00026112
-0.000677784 -0.000217196 -6.27022e-05
0.00026112 -6.27022e-05 -0.00321158
-0.00119883 0.000360743 -0.00102379
0.000360743 0.00623125 0.000282849
-0.00102379 0.000282849 0.00260344
0.0156253 0.00643981 -0.000545076
0.00643981 0.00472452 0.000534077
-0.000545076 0.000534077 0.00139598
0.00861884 -0.00315935 -0.00013586
-0.00315935 0.00349909 4.92722e-05
-0.00013586 4.92722e-05 -0.000119206
0.00284358 -0.00134833 6.46158e-06
-0.00134833 0.00237922 1.10874e-05
6.46158e-06 1.10874e-05 0.00162263
0.000400678 -5.39819e-05 7.17093e-06
-5.39819e-05 0.000562591 1.4944e-06
7.17093e-06 1.4944e-06 0.000181453
0.000122478 -0.000352618 -1.09735e-07
-0.000352618 0.000359729 -7.28709e-07
-1.09735e-07 -7.28709e-07 -0.000135696
0.000560273 -0.000640346 4.60804e-06
-0.000640346 0.000309056 -3.87066e-06
4.60804e-06 -3.87066e-06 5.30224e-05
-0.000519147 -0.00021109 1.46934e-06
-0.00021109 3.20223e-05 7.79119e-06
1.46934e-06 7.79119e-06 -0.000317394
-0.000564697 -0.000366038 -1.69503e-07
-0.000366038 -0.000342244 -9.4089e-07
-1.69503e-07 -9.4089e-07 -0.000604475
0.00289809 -0.000819594 3.93655e-05
-0.000819594 0.00119309 -9.12093e-06
3.93655e-05 -9.12093e-06 0.000844436
0.006375 -0.00115382 -1.39201e-05
-0.00115382 0.00331758 1.03533e-07
-1.39201e-05 1.03533e-07 0.002862
0.00276152 -0.000757692 9.5253e-06
-0.000757692 0.00122665 -1.83465e-06
9.5253e-06 -1.83465e-06 0.000639693
0.00156485 -0.000747204 8.14132e-06
-0.000747204 0.000357766 -1.32392e-05
8.14132e-06 -1.32392e-05 -0.00023622
0.00207227 -0.000609673 -9.66911e-06
-0.000609673 0.00071871 -6.35687e-06
-9.66911e-06 -6.35687e-06 0.000281884
0.00231541 -0.000779653 2.39936e-06
-0.000779653 0.000776215 -1.14431e-06
2.39936e-06 -1.14431e-06 0.000225019
0.00246837 -0.000857802 -5.58207e-07
-0.000857802 0.000774852 -1.04473e-05
-5.58207e-07 -1.04473e-05 0.000228705
0.00212343 -0.000714007 -5.67104e-06
-0.000714007 0.000385986 -5.07444e-06
-5.67104e-06 -5.07444e-06 4.23433e-06
0.00238913 -0.000844584 -7.0391e-06
-0.000844584 0.000668201 1.56122e-06
-7.0391e-06 1.56122e-06 0.000209604
0.00221704 -0.000827649 -2.74784e-06
-0.000827649 0.00059057 -1.34417e-07
-2.74784e-06 -1.34417e-07 0.000103355
0.00174779 -0.000629041 9.10924e-06
-0.000629041 0.000509331 -2.6606e-06
9.10924e-06 -2.6606e-06 0.000116107
0.00148121 -0.000616249 2.48805e-06
-0.000616249 0.00032078 -6.04251e-07
2.48805e-06 -6.04251e-07 -8.5004e-05
0.00140095 -0.000590199 2.64188e-06
-0.000590199 0.000267075 -3.71872e-08
2.64188e-06 -3.71872e-08 -0.000158326
0.00178144 -0.000441127 7.48505e-06
-0.000441127 0.00064343 2.96222e-06
7.48505e-06 2.96222e-06 0.000338353
0.00138914 -0.000453158 -1.15715e-06
-0.000453158 0.000367631 -1.68228e-06
-1.15715e-06 -1.68228e-06 3.72136e-05
0.00150775 -0.000516182 6.27606e-06
-0.000516182 0.000369778 8.37314e-07
6.27606e-06 8.37314e-07 9.42685e-06
0.00107339 -0.000208735 2.72956e-06
-0.000208735 0.000396334 -4.6491e-06
2.72956e-06 -4.6491e-06 0.000119787
0.000710684 -0.000242571 -2.26156e-06
-0.000242571 9.14679e-05 1.59571e-06
-2.26156e-06 1.59571e-06 -0.000152922
0.000990627 -0.000364561 1.19428e-06
-0.000364561 0.000162325 -9.25404e-06
1.19428e-06 -9.25404e-06 -0.000119602
7.17011e-05 -5.67777e-05 -7.02823e-07
-5.67777e-05 -0.000255735 5.23198e-06
-7.02823e-07 5.23198e-06 -0.000396989
0.000741507 -0.000103221 -2.42634e-07
-0.000103221 0.000220427 8.4876e-07
-2.42634e-07 8.4876e-07 -1.91361e-05
0.00132744 -0.000300712 2.07456e-06
-0.000300712 0.000608918 1.66931e-06
2.07456e-06 1.66931e-06 0.000330691
0.000357835 -2.25344e-06 -4.77939e-06
-2.25344e-06 -9.22507e-05 1.36118e-05
-4.77939e-06 1.36118e-05 -0.000137505
0.000644944 -5.85278e-05 6.05691e-07
-5.85278e-05 9.76799e-05 6.63999e-08
6.05691e-07 6.63999e-08 -1.91635e-05
0.00132128 -0.000183906 -1.57956e-06
-0.000183906 0.000550128 1.71264e-06
-1.57956e-06 1.71264e-06 0.000362179
0.000628085 -5.28841e-05 -6.57407e-07
-5.28841e-05 9.37364e-05 -5.51411e-06
-6.57407e-07 -5.51411e-06 -1.09586e-05
0.000454381 1.65667e-05 -3.75527e-07
1.65667e-05 -2.94058e-05 -3.91514e-07
-3.75527e-07 -3.91514e-07 -6.90118e-05
0.00286009 0.000121636 -3.73091e-05
0.000121636 0.00148587 4.50477e-06
-3.73091e-05 4.50477e-06 0.00148453
0.000528143 9.37432e-06 1.23352e-06
9.37432e-06 6.23037e-06 -7.37845e-06
1.23352e-06 -7.37845e-06 -2.54362e-05
0.00271926 9.98603e-05 4.49958e-06
9.98603e-05 0.00138838 5.15613e-07
4.49958e-06 5.15613e-07 0.00139234
0.00263075 7.99177e-05 3.06955e-05
7.99177e-05 0.00132616 -4.76764e-06
3.06955e-05 -4.76764e-06 0.00133386
0.000869123 9.05276e-05 3.54105e-06
9.05276e-05 0.000336208 -4.9058e-06
3.54105e-06 -4.9058e-06 0.000140932
0.00090033 0.000141213 6.47005e-06
0.000141213 0.000318885 8.09843e-07
6.47005e-06 8.09843e-07 0.000152208
0.000581482 4.12437e-05 2.8185e-06
4.12437e-05 5.93449e-05 -3.14657e-06
2.8185e-06 -3.14657e-06 -2.9369e-05
0.000619361 0.000104285 2.48137e-07
0.000104285 0.000113882 -2.32882e-07
2.48137e-07 -2.32882e-07 -1.88767e-05
0.000476747 3.94068e-07 3.40731e-07
3.94068e-07 -3.2456e-05 -6.25376e-06
3.40731e-07 -6.25376e-06 -5.67649e-05
0.00053729 5.04321e-05 1.88875e-07
5.04321e-05 3.49335e-05 -1.34373e-07
1.88875e-07 -1.34373e-07 -4.50316e-05
0.000577316 5.59013e-05 -3.83506e-06
5.59013e-05 8.00126e-05 -2.03995e-06
-3.83506e-06 -2.03995e-06 -4.34186e-05
0.00232939 -5.04854e-05 -2.63209e-05
-5.04854e-05 0.00113074 -4.93678e-06
-2.63209e-05 -4.93678e-06 0.00114456
0.000477497 -1.97346e-06 -7.60814e-07
-1.97346e-06 -3.40676e-05 -1.61763e-07
-7.60814e-07 -1.61763e-07 -5.24651e-05
0.000480895 5.55387e-05 -3.16067e-06
5.55387e-05 1.79126e-06 2.29474e-07
-3.16067e-06 2.29474e-07 -7.11491e-05
0.00217574 -3.36179e-05 -4.72096e-06
-3.36179e-05 0.00103257 2.27947e-07
-4.72096e-06 2.27947e-07 0.00104894
0.000472978 -2.85275e-06 -2.30212e-06
-2.85275e-06 -3.87917e-05 3.86841e-06
-2.30212e-06 3.86841e-06 -5.1995e-05
0.00209541 -1.76722e-05 1.53983e-05
-1.76722e-05 0.000982043 4.67433e-06
1.53983e-05 4.67433e-06 0.000999687
-0.00217468 0.000154254 -1.40879e-05
0.000154254 0.000173202 -3.24507e-05
-1.40879e-05 -3.24507e-05 -9.8739e-05
0.00137148 -0.000187731 -1.56201e-05
-0.000187731 0.000189621 1.19655e-05
-1.56201e-05 1.19655e-05 4.18078e-05
1.719e-05 -0.000192457 7.77362e-06
-0.000192457 0.00155611 -3.55619e-05
7.77362e-06 -3.55619e-05 0.00098413
0.000802993 0.000100324 -2.45214e-07
0.000100324 0.000252731 1.03845e-06
-2.45214e-07 1.03845e-06 8.26709e-05
0.000348697 8.73172e-05 5.02995e-06
8.73172e-05 -7.72254e-05 -1.35086e-06
5.02995e-06 -1.35086e-06 -0.000230991
-0.00161176 -1.40945e-05 -3.85286e-06
-1.40945e-05 -0.00126999 -7.04545e-06
-3.85286e-06 -7.04545e-06 -0.00141119
-0.000367885 3.11637e-05 7.51956e-07
3.11637e-05 -0.000496968 1.25088e-05
7.51956e-07 1.25088e-05 -0.000636724
0.00289732 0.00039809 -3.02316e-06
0.00039809 0.00153442 -4.18377e-07
-3.02316e-06 -4.18377e-07 0.00128193
0.00077055 4.66771e-05 -5.58512e-06
4.66771e-05 0.000165641 -4.85342e-06
-5.58512e-06 -4.85342e-06 4.27853e-05
0.000448622 9.86954e-05 -6.84861e-06
9.86954e-05 -9.74582e-06 -9.98377e-06
-6.84861e-06 -9.98377e-06 -0.000129432
0.000734671 6.92745e-05 2.95254e-07
6.92745e-05 0.00016692 -4.36652e-07
2.95254e-07 -4.36652e-07 4.51788e-05
0.000962768 0.000161686 -5.70878e-07
0.000161686 0.000335954 -1.99326e-06
-5.70878e-07 -1.99326e-06 0.000205735
0.000822416 0.000121817 7.15087e-06
0.000121817 0.000382104 -1.47085e-05
7.15087e-06 -1.47085e-05 0.000170128
0.00525539 0.000872733 0.000374674
0.000872733 0.0037766 0.000466196
0.000374674 0.000466196 -0.000846428
0.00211634 0.000679145 1.97884e-05
0.000679145 2.94264e-05 8.77468e-05
1.97884e-05 8.77468e-05 -0.00150581
0.00405719 -0.000132495 3.18713e-05
-0.000132495 -0.000196023 -1.89181e-05
3.18713e-05 -1.89181e-05 -0.000560629
0.0139273 -0.00180151 -0.000259714
-0.00180151 0.0021283 -0.00012778
-0.000259714 -0.00012778 0.00374981
-0.00349007 0.00154675 7.12646e-05
0.00154675 -0.0021811 0.000424646
7.12646e-05 0.000424646 -0.00659165
0.00237281 -0.00219392 -5.25802e-05
-0.00219392 0.000682763 -3.02277e-05
-5.25802e-05 -3.02277e-05 0.000720324
0.00888314 -0.00205387 -0.000124705
-0.00205387 0.00520455 2.86351e-05
-0.000124705 2.86351e-05 0.00017659
0.00108603 -0.000852902 -8.48475e-05
-0.000852902 0.000835851 0.00010515
-8.48475e-05 0.00010515 0.000522592
0.00940267 -0.000102984 -0.000144056
-0.000102984 0.00625276 1.33428e-06
-0.000144056 1.33428e-06 -8.17714e-05
0.00502344 -0.00256002 0.000100127
-0.00256002 0.00336021 0.000178076
0.000100127 0.000178076 -0.00125754
0.0153875 -0.00393888 -0.000157031
-0.00393888 0.00246374 -0.000695383
-0.000157031 -0.000695383 0.000792281
0.00307095 -2.67653e-05 -0.000127044
-2.67653e-05 0.00293417 0.000110947
-0.000127044 0.000110947 0.00189245
0.0131261 0.00250488 -0.000175817
0.00250488 0.00719503 1.56362e-05
-0.000175817 1.56362e-05 0.00218965
0.019116 -0.00604749 -0.000173837
-0.00604749 0.00925751 -0.000677496
-0.000173837 -0.000677496 0.0052025
0.0212374 -0.00777795 8.16617e-05
-0.00777795 0.00810706 -6.93998e-05
8.16617e-05 -6.93998e-05 0.00592391
0.00098949 0.000286176 1.3194e-05
0.000286176 0.000559787 -3.06553e-07
1.3194e-05 -3.06553e-07 0.000278237
0.000104219 4.80761e-05 3.04394e-06
4.80761e-05 4.01442e-05 2.60782e-06
3.04394e-06 2.60782e-06 -0.000216741
0.00088226 0.000178575 -9.58324e-06
0.000178575 0.000353128 -1.30125e-05
-9.58324e-06 -1.30125e-05 0.000174951
0.00354031 -0.000585024 1.86201e-05
-0.000585024 0.00208693 2.69836e-05
1.86201e-05 2.69836e-05 0.000832657
8.53389e-05 -9.50226e-05 7.84563e-06
-9.50226e-05 0.000762412 -4.00519e-05
7.84563e-06 -4.00519e-05 0.000314983
-0.000101347 3.34942e-05 -5.20297e-06
3.34942e-05 -0.00016055 2.27489e-06
-5.20297e-06 2.27489e-06 -0.000327856
-0.000679343 2.87436e-05 1.11969e-05
2.87436e-05 -3.19522e-06 -7.17017e-06
1.11969e-05 -7.17017e-06 -0.000461432
0.00011004 0.000117878 7.61475e-07
0.000117878 0.000160178 -1.08937e-06
7.61475e-07 -1.08937e-06 -8.57868e-05
0.000477271 0.000338395 1.22452e-05
0.000338395 0.000695658 -3.43795e-07
1.22452e-05 -3.43795e-07 0.000169114
-0.00198245 -8.80136e-05 0.000264894
-8.80136e-05 0.000866041 -1.97635e-05
0.000264894 -1.97635e-05 -0.000955659
-0.00130321 0.000305566 -1.17526e-05
0.000305566 -0.00066994 1.26674e-05
-1.17526e-05 1.26674e-05 -0.00103082
0.00298938 0.000892074 -0.00014272
0.000892074 0.00227388 -7.35202e-05
-0.00014272 -7.35202e-05 0.000908662
0.00133524 0.000197787 0.00017172
0.000197787 0.0016886 5.7114e-05
0.00017172 5.7114e-05 -0.00222216
-0.00198914 0.000156965 -4.91606e-05
0.000156965 0.00116624 1.61023e-05
-4.91606e-05 1.61023e-05 0.000165634
0.0022006 -0.000220071 -2.22826e-05
-0.000220071 0.000520234 -1.94046e-06
-2.22826e-05 -1.94046e-06 0.000715242
-0.000653687 0.000492654 0.000125604
0.000492654 0.000382002 1.27445e-05
0.000125604 1.27445e-05 -0.000630444
0.00131807 0.000310325 -9.0844e-05
0.000310325 0.00212775 8.865e-05
-9.0844e-05 8.865e-05 0.000802078
-0.000144324 -0.00024258 -1.11355e-05
-0.00024258 0.00147773 -3.22776e-06
-1.11355e-05 -3.22776e-06 0.000853355
0.0164211 -0.00381206 0.000215756
-0.00381206 0.00810776 -0.000102887
0.000215756 -0.000102887 0.00220123
0.0228516 0.00435726 -0.000108374
0.00435726 0.0100153 -0.000146918
-0.000108374 -0.000146918 0.00568445
0.00487525 -0.00146766 -0.000237376
-0.00146766 0.00242433 0.000236805
-0.000237376 0.000236805 -0.00204303
0.00371716 0.00850572 0.00233026
0.00850572 0.00392821 -0.0014911
0.00233026 -0.0014911 0.00126582
0.00109804 -0.000460971 3.63613e-05
-0.000460971 0.0013919 -1.08776e-05
3.63613e-05 -1.08776e-05 0.000377183
-0.000250977 -0.000492095 4.02401e-05
-0.000492095 0.000337094 1.39825e-05
4.02401e-05 1.39825e-05 -0.00322377
-0.00055435 0.000762554 -0.00108628
0.000762554 0.00597193 0.000332166
-0.00108628 0.000332166 0.00202164
0.000796148 -0.000777759 7.21969e-06
-0.000777759 0.0011973 3.22141e-05
7.21969e-06 3.22141e-05 0.000527895
0.0191656 0.00575845 0.000326479
0.00575845 0.00591287 9.26413e-05
0.000326479 9.26413e-05 0.00259778
0.00743415 -0.00446972 0.00018195
-0.00446972 0.00244154 -7.3777e-05
0.00018195 -7.3777e-05 -0.00140352
0.00147082 -0.00117693 -1.21273e-05
-0.00117693 0.000901692 2.94415e-05
-1.21273e-05 2.94415e-05 0.000163271
-0.00639811 -0.00163868 0.000133888
-0.00163868 0.00517749 -7.2503e-05
0.000133888 -7.2503e-05 0.00129577
0.0154604 0.00549353 -0.00143006
0.00549353 0.00605808 0.000510261
-0.00143006 0.000510261 0.003354
0.00609022 -0.00329429 -0.000414079
-0.00329429 -0.000384724 0.000183932
-0.000414079 0.000183932 -0.00374932
0.00137106 -0.00189059 0.000189468
-0.00189059 8.98831e-05 -0.000115911
0.000189468 -0.000115911 0.000978702
0.000931256 -0.000471293 -9.00915e-05
-0.000471293 0.000716085 3.1853e-05
-9.00915e-05 3.1853e-05 0.000272417
0.000730956 -0.000575945 -6.66805e-06
-0.000575945 0.000434268 1.20862e-05
-6.66805e-06 1.20862e-05 0.000113216
0.00325411 -0.000869074 2.17746e-05
-0.000869074 0.00148765 -9.86543e-06
2.17746e-05 -9.86543e-06 0.00113008
-0.00191285 -0.000186755 7.28864e-06
-0.000186755 -0.000934335 1.12429e-05
7.28864e-06 1.12429e-05 -0.00119656
0.00117429 -0.000606353 4.88386e-06
-0.000606353 0.000294193 -2.05884e-06
4.88386e-06 -2.05884e-06 -3.57152e-05
0.00286148 -0.000915386 9.66266e-06
-0.000915386 0.000873416 -9.7217e-07
9.66266e-06 -9.7217e-07 0.000496771
0.00402836 -0.000917373 -2.85852e-05
-0.000917373 0.00185663 3.17636e-06
-2.85852e-05 3.17636e-06 0.00127815
0.00138735 -0.00070003 -3.94823e-07
-0.00070003 0.000246643 -1.15008e-06
-3.94823e-07 -1.15008e-06 -0.000325921
0.00175201 -0.000857203 2.07734e-06
-0.000857203 0.00020941 -1.20313e-05
2.07734e-06 -1.20313e-05 -0.00024972
0.00280292 -0.000850094 1.95397e-07
-0.000850094 0.00101991 4.31979e-06
1.95397e-07 4.31979e-06 0.000454946
0.00217526 -0.000828349 8.55004e-07
-0.000828349 0.000587814 -4.7345e-06
8.55004e-07 -4.7345e-06 6.08253e-05
0.00259473 -0.000772873 1.38202e-07
-0.000772873 0.000601756 -9.68315e-06
1.38202e-07 -9.68315e-06 0.000224187
0.0017248 -0.000502082 -5.50513e-06
-0.000502082 3.25639e-06 -3.05919e-06
-5.50513e-06 -3.05919e-06 -0.000242067
0.00187542 -0.00071272 -1.78853e-06
-0.00071272 0.00019278 -1.37183e-06
-1.78853e-06 -1.37183e-06 -0.000187217
0.0021163 -0.000714511 2.92674e-06
-0.000714511 0.000374117 -2.91443e-06
2.92674e-06 -2.91443e-06 -5.49666e-06
0.00222647 -0.000740963 -2.94716e-06
-0.000740963 0.000637462 -6.91686e-07
-2.94716e-06 -6.91686e-07 0.000226416
0.0023373 -0.000837752 -2.87995e-06
-0.000837752 0.000648974 3.93941e-08
-2.87995e-06 3.93941e-08 0.000186297
0.00246911 -0.000859036 6.52702e-06
-0.000859036 0.000725499 -3.58926e-06
6.52702e-06 -3.58926e-06 0.000228389
0.00192774 -0.00055032 7.04092e-06
-0.00055032 0.000675389 7.75782e-07
7.04092e-06 7.75782e-07 0.000317451
0.00137835 -0.00057835 2.43126e-06
-0.00057835 0.00030089 -2.22746e-07
2.43126e-06 -2.22746e-07 -7.7523e-05
0.0012652 -0.00058408 2.15221e-06
-0.00058408 0.000196728 1.6687e-06
2.15221e-06 1.6687e-06 -0.00019505
0.00137229 -0.000349292 -3.6489e-07
-0.000349292 0.00045834 -4.14433e-07
-3.6489e-07 -4.14433e-07 0.000191789
0.00120319 -0.000369319 7.82454e-07
-0.000369319 0.000297499 -4.79823e-07
7.82454e-07 -4.79823e-07 8.25024e-06
0.0013446 -0.000444821 -6.8987e-06
-0.000444821 0.000344768 -4.43956e-07
-6.8987e-06 -4.43956e-07 1.34539e-05
-0.000330719 -8.82415e-05 -2.15175e-06
-8.82415e-05 -0.000493215 1.94541e-06
-2.15175e-06 1.94541e-06 -0.000700235
0.000733905 -0.000223726 6.91268e-07
-0.000223726 0.000193517 -2.94044e-07
6.91268e-07 -2.94044e-07 -8.60208e-05
0.00125744 -0.000292527 -4.64796e-06
-0.000292527 0.000448671 1.87528e-06
-4.64796e-06 1.87528e-06 0.000193719
0.00175976 2.99322e-05 -4.35311e-05
2.99322e-05 0.000795572 8.56401e-06
-4.35311e-05 8.56401e-06 0.000747318
0.000706468 -0.000104998 2.50188e-07
-0.000104998 0.000132139 -5.36481e-07
2.50188e-07 -5.36481e-07 -1.73133e-05
0.00139543 -0.000156412 -1.5972e-06
-0.000156412 0.000625976 2.83219e-06
-1.5972e-06 2.83219e-06 0.000378805
0.000710671 3.62216e-05 -4.88823e-05
3.62216e-05 0.000134218 5.92453e-06
-4.88823e-05 5.92453e-06 0.000124397
0.00115829 1.99382e-05 -1.62175e-05
1.99382e-05 0.000412822 -5.68859e-07
-1.62175e-05 -5.68859e-07 0.000368546
0.000772393 -7.069e-05 2.02467e-06
-7.069e-05 0.00017134 -6.88139e-06
2.02467e-06 -6.88139e-06 5.37859e-05
0.000594138 1.09357e-05 1.97992e-06
1.09357e-05 5.42741e-05 -9.36585e-06
1.97992e-06 -9.36585e-06 1.50824e-05
0.00293741 0.000122717 7.83342e-06
0.000122717 0.00153451 7.1322e-07
7.83342e-06 7.1322e-07 0.00153303
0.00271932 0.000100354 3.45945e-05
0.000100354 0.00138869 -4.59714e-06
3.45945e-05 -4.59714e-06 0.00139268
0.000976741 0.000137327 1.04959e-05
0.000137327 0.000385075 -1.26915e-06
1.04959e-05 -1.26915e-06 0.000169683
0.0012894 0.000161177 4.50796e-06
0.000161177 0.000577809 -2.01926e-06
4.50796e-06 -2.01926e-06 0.000379008
3.68435e-05 5.786e-05 3.27923e-07
5.786e-05 -0.000209475 6.06759e-07
3.27923e-07 6.06759e-07 -0.000381874
0.000643522 3.94274e-05 3.09149e-06
3.94274e-05 9.85675e-05 -4.50858e-06
3.09149e-06 -4.50858e-06 -2.41179e-06
0.000797668 0.00011055 6.90304e-07
0.00011055 0.000241066 7.56882e-08
6.90304e-07 7.56882e-08 8.60066e-05
0.000467853 1.01285e-05 -1.82075e-06
1.01285e-05 -3.27519e-05 -7.7151e-06
-1.82075e-06 -7.7151e-06 -6.24955e-05
0.00054485 4.31041e-05 -1.06506e-07
4.31041e-05 3.95043e-05 -3.99027e-07
-1.06506e-07 -3.99027e-07 -5.01476e-05
0.000715754 6.84559e-05 -3.19271e-06
6.84559e-05 0.000197536 -5.38015e-07
-3.19271e-06 -5.38015e-07 4.7859e-05
0.00255704 -6.88156e-05 -3.46431e-05
-6.88156e-05 0.00127761 -4.90134e-06
-3.46431e-05 -4.90134e-06 0.00128817
0.000454998 2.94121e-06 -6.15512e-07
2.94121e-06 -4.52478e-05 -1.41283e-07
-6.15512e-07 -1.41283e-07 -6.93558e-05
0.000553517 5.44571e-05 -7.57793e-07
5.44571e-05 4.64225e-05 2.53995e-06
-7.57793e-07 2.53995e-06 -3.40559e-05
0.00234169 -5.07782e-05 -5.96327e-06
-5.07782e-05 0.00113849 3.52964e-07
-5.96327e-06 3.52964e-07 0.00115229
0.000440167 -1.06139e-05 -3.86116e-06
-1.06139e-05 -5.71241e-05 4.80946e-06
-3.86116e-06 4.80946e-06 -7.52222e-05
0.00220066 -3.24252e-05 2.09808e-05
-3.24252e-05 0.00104819 4.63534e-06
2.09808e-05 4.63534e-06 0.00106466
0.00645084 0.000593471 0.000307265
0.000593471 0.00362846 6.62157e-05
0.000307265 6.62157e-05 0.00146141
-0.00189682 9.86467e-05 -2.33501e-06
9.86467e-05 0.000142537 -6.59245e-06
-2.33501e-06 -6.59245e-06 -0.000352147
0.000651715 6.8717e-05 -1.44311e-05
6.8717e-05 0.000267606 -7.1694e-06
-1.44311e-05 -7.1694e-06 7.24433e-05
-0.000430538 0.000101676 -7.66708e-06
0.000101676 -0.000589355 2.55423e-06
-7.66708e-06 2.55423e-06 -0.000738258
0.000415373 6.5532e-05 -6.1379e-06
6.5532e-05 -2.85057e-06 -3.54529e-06
-6.1379e-06 -3.54529e-06 -0.000155627
-8.68311e-05 5.76873e-05 -2.68384e-07
5.76873e-05 -0.000342772 -3.03754e-06
-2.68384e-07 -3.03754e-06 -0.000493533
0.00118435 7.15395e-05 1.34477e-06
7.15395e-05 0.000448997 -2.7359e-07
1.34477e-06 -2.7359e-07 0.00029664
0.000105754 8.89317e-05 -2.49879e-06
8.89317e-05 -0.000239088 -2.30613e-06
-2.49879e-06 -2.30613e-06 -0.000383425
0.00207336 0.000292334 -2.97826e-06
0.000292334 0.00103244 -3.81015e-06
-2.97826e-06 -3.81015e-06 0.000832529
0.00103371 0.000244762 -7.63996e-06
0.000244762 0.00035061 -1.41395e-05
-7.63996e-06 -1.41395e-05 5.33558e-05
-0.00100248 8.87333e-05 5.69001e-07
8.87333e-05 -0.000626275 7.94422e-07
5.69001e-07 7.94422e-07 -0.00095013
0.000794318 0.000149358 -5.60529e-06
0.000149358 0.000230409 -4.50834e-06
-5.60529e-06 -4.50834e-06 9.03713e-05
0.00012824 5.48854e-05 -7.99335e-06
5.48854e-05 -0.00022605 -8.31492e-06
-7.99335e-06 -8.31492e-06 -0.000319661
3.62299e-06 4.74777e-05 1.27017e-07
4.74777e-05 -0.000134405 1.08643e-06
1.27017e-07 1.08643e-06 -0.000333257
0.000930932 0.000277826 1.59192e-05
0.000277826 0.000590093 -2.44119e-06
1.59192e-05 -2.44119e-06 0.000218928
0.00297107 -0.00282537 0.000132315
-0.00282537 0.00554371 0.00025241
0.000132315 0.00025241 0.00033357
0.00604218 0.00121637 0.000123809
0.00121637 0.00311686 0.000165582
0.000123809 0.000165582 -0.00189302
0.00289051 0.000448579 -3.33868e-05
0.000448579 0.000546773 -7.81946e-05
-3.33868e-05 -7.81946e-05 -0.0012136
0.0230995 -0.00497308 -0.000689528
-0.00497308 0.00611747 -0.00035968
-0.000689528 -0.00035968 0.00418808
0.0058386 -0.00171315 0.000260484
-0.00171315 0.00364619 0.000473591
0.000260484 0.000473591 0.000251259
0.00365887 -0.00152443 -0.000234173
-0.00152443 0.00498655 9.38679e-05
-0.000234173 9.38679e-05 -0.00204179
-0.000966365 -0.000504129 0.000132097
-0.000504129 0.000997722 1.39777e-05
0.000132097 1.39777e-05 6.47795e-05
-0.00036244 -0.000151774 8.5492e-05
-0.000151774 0.000948288 5.46495e-05
8.5492e-05 5.46495e-05 0.000291197
0.01327 -0.00808369 0.000437055
-0.00808369 0.00607178 0.000411992
0.000437055 0.000411992 0.00365295
0.00172117 0.00142123 -9.31544e-05
0.00142123 0.00401227 -8.04706e-05
-9.31544e-05 -8.04706e-05 -0.00230829
0.00772337 -0.00356439 -0.000125412
-0.00356439 0.00330621 0.000100284
-0.000125412 0.000100284 -0.00134233
0.00055329 0.000673805 -1.75213e-05
0.000673805 0.0010682 6.99888e-05
-1.75213e-05 6.99888e-05 0.000748385
0.011682 0.0036992 -0.000106302
0.0036992 0.00400747 6.28089e-06
-0.000106302 6.28089e-06 0.000281208
0.0136156 -0.00634863 -0.000789905
-0.00634863 0.00404191 -0.000503801
-0.000789905 -0.000503801 0.000394043
-0.00023282 0.000439007 6.19557e-07
0.000439007 -0.000524881 -5.06197e-06
6.19557e-07 -5.06197e-06 -0.000666263
0.000460789 0.000150236 8.0046e-06
0.000150236 0.000208451 3.63901e-06
8.0046e-06 3.63901e-06 -1.40307e-05
4.43101e-05 5.93791e-05 -8.35079e-06
5.93791e-05 -1.42415e-05 -4.92207e-06
-8.35079e-06 -4.92207e-06 -0.000258602
-0.00395957 -0.000357194 -0.000128191
-0.000357194 -0.000324419 -6.74246e-05
-0.000128191 -6.74246e-05 -0.00208491
-0.000858939 0.000252003 1.89897e-05
0.000252003 -0.000191395 -2.19102e-05
1.89897e-05 -2.19102e-05 -0.000707205
0.00134219 0.00018116 -5.38331e-06
0.00018116 0.000850931 1.11321e-05
-5.38331e-06 1.11321e-05 0.000600369
0.00105406 0.000619464 1.52339e-05
0.000619464 0.000555312 3.83345e-06
1.52339e-05 3.83345e-06 0.000166426
-0.000404788 0.000481472 4.07805e-05
0.000481472 0.000639311 -2.97828e-05
4.07805e-05 -2.97828e-05 -0.000533942
0.000670066 0.00121953 6.05127e-05
0.00121953 -5.24144e-05 7.02737e-06
6.05127e-05 7.02737e-06 -0.000827655
-0.00573485 0.00107406 0.000334059
0.00107406 0.00528644 7.61084e-06
0.000334059 7.61084e-06 -0.00121753
0.00227782 -0.0001306 -8.16978e-06
-0.0001306 0.00194376 6.21559e-05
-8.16978e-06 6.21559e-05 -0.000758592
-0.00236652 -5.22792e-05 -1.12006e-05
-5.22792e-05 0.000701077 4.7938e-05
-1.12006e-05 4.7938e-05 -5.93944e-05
-0.000398999 -0.000263822 -6.27862e-05
-0.000263822 0.000692158 1.58554e-05
-6.27862e-05 1.58554e-05 -0.000371758
-0.00146775 -0.000386841 -5.75593e-05
-0.000386841 -0.000447735 4.55531e-05
-5.75593e-05 4.55531e-05 -0.000200307
-0.000164178 -0.000403941 -0.000177333
-0.000403941 0.000701815 0.000109434
-0.000177333 0.000109434 -0.00309331
0.000147024 -0.0036097 0.000260241
-0.0036097 0.00208324 -8.53694e-05
0.000260241 -8.53694e-05 -0.00345798
0.00834687 0.00487947 0.000648175
0.00487947 0.000102967 -0.000430861
0.000648175 -0.000430861 -0.00291346
0.00953612 0.00305487 -0.000389143
0.00305487 0.00720317 0.000303769
-0.000389143 0.000303769 0.00328053
0.00118741 -0.000742183 -1.07806e-05
-0.000742183 0.00117889 -2.08034e-06
-1.07806e-05 -2.08034e-06 0.000480667
0.00174893 0.000500906 0.000115549
0.000500906 0.00700609 -1.80575e-05
0.000115549 -1.80575e-05 0.0032043
0.000377712 0.00375303 9.93269e-06
0.00375303 0.000588925 6.64114e-05
9.93269e-06 6.64114e-05 -0.00277444
0.0024599 -0.00241967 8.59513e-05
-0.00241967 0.000696521 -3.94994e-05
8.59513e-05 -3.94994e-05 0.000878156
0.0169007 -0.00360573 1.97128e-05
-0.00360573 0.00353 -4.55825e-06
1.97128e-05 -4.55825e-06 0.00163293
0.00313991 -0.00150478 8.16557e-06
-0.00150478 0.00124939 1.96856e-05
8.16557e-06 1.96856e-05 0.000935943
-0.00852819 0.00113479 -0.000538617
0.00113479 -0.00272743 8.15633e-05
-0.000538617 8.15633e-05 -0.0052863
0.0158408 -0.00231633 -0.000220867
-0.00231633 0.00223994 6.98655e-05
-0.000220867 6.98655e-05 0.000812087
0.00385795 -0.00258648 0.000102428
-0.00258648 -0.000105625 -7.13161e-05
0.000102428 -7.13161e-05 0.000326623
0.000491467 -0.000470589 -1.29776e-05
-0.000470589 0.000388695 1.77219e-05
-1.29776e-05 1.77219e-05 6.37725e-07
0.0009287 -0.000738496 -1.32593e-06
-0.000738496 0.000121318 -1.29121e-06
-1.32593e-06 -1.29121e-06 -0.000108539
0.00572738 -0.00104976 2.50113e-05
-0.00104976 0.00246038 -1.09365e-05
2.50113e-05 -1.09365e-05 0.00208323
-0.000723499 -0.000385167 -7.61418e-06
-0.000385167 -0.000690018 7.22085e-06
-7.61418e-06 7.22085e-06 -0.00100903
0.00136904 -0.000748364 -4.0991e-06
-0.000748364 0.000115487 -8.98294e-07
-4.0991e-06 -8.98294e-07 -0.000263574
0.0028888 -0.000974985 5.31819e-06
-0.000974985 0.000696706 -7.60995e-06
5.31819e-06 -7.60995e-06 0.000310615
0.001569 -0.000699429 -1.27385e-05
-0.000699429 0.00031366 7.61573e-06
-1.27385e-05 7.61573e-06 -0.000241901
0.00188109 -0.000860812 -1.37054e-06
-0.000860812 0.000281255 6.646e-07
-1.37054e-06 6.646e-07 -0.000185767
0.00171147 -0.000698729 -1.38571e-07
-0.000698729 -4.76897e-05 -6.87362e-06
-1.38571e-07 -6.87362e-06 -0.000337157
0.00151757 -0.00075605 -3.08527e-06
-0.00075605 0.000204129 2.74579e-06
-3.08527e-06 2.74579e-06 -0.000299458
0.00195283 -0.000691806 -1.02925e-06
-0.000691806 0.000256352 1.46449e-06
-1.02925e-06 1.46449e-06 -0.000103658
0.00198455 -0.000525076 -1.07313e-06
-0.000525076 8.62243e-05 -4.37509e-06
-1.07313e-06 -4.37509e-06 -0.000122281
0.0018627 -0.000433408 -5.29094e-06
-0.000433408 7.13379e-05 -1.00573e-06
-5.29094e-06 -1.00573e-06 -0.00010098
0.00168999 -0.000516576 -6.00117e-06
-0.000516576 -6.59985e-07 -1.98684e-06
-6.00117e-06 -1.98684e-06 -0.000257532
0.00179876 -0.000502071 1.48952e-06
-0.000502071 5.03137e-05 2.72879e-06
1.48952e-06 2.72879e-06 -0.00019147
0.00165632 -0.000615551 -5.9321e-06
-0.000615551 0.000120559 -2.4017e-06
-5.9321e-06 -2.4017e-06 -0.000220804
0.00204314 -0.000719577 2.74691e-06
-0.000719577 0.000310626 -3.53347e-07
2.74691e-06 -3.53347e-07 -6.54987e-05
0.00211694 -0.000714325 5.81123e-06
-0.000714325 0.000369468 1.4699e-06
5.81123e-06 1.4699e-06 -7.79714e-06
0.00161406 -0.000604491 -1.4069e-06
-0.000604491 0.000317351 -2.11063e-06
-1.4069e-06 -2.11063e-06 -5.96663e-05
0.00205903 -0.000727911 1.93681e-06
-0.000727911 0.000534448 -6.77066e-07
1.93681e-06 -6.77066e-07 0.000123363
0.00224331 -0.00082463 1.21452e-06
-0.00082463 0.000605418 -1.63518e-06
1.21452e-06 -1.63518e-06 0.000139688
0.001276 -0.000359859 -5.81392e-06
-0.000359859 0.000294091 1.96911e-06
-5.81392e-06 1.96911e-06 2.38427e-05
0.00148002 -0.00049803 2.05987e-06
-0.00049803 0.000389334 1.16638e-06
2.05987e-06 1.16638e-06 4.55118e-05
0.000925436 -0.000516958 -5.37671e-06
-0.000516958 4.18206e-05 1.75326e-06
-5.37671e-06 1.75326e-06 -0.000319558
0.000509369 -0.000201711 -6.6722e-06
-0.000201711 -4.00397e-05 -6.07963e-07
-6.6722e-06 -6.07963e-07 -0.000259163
0.00107014 -0.000334943 3.42311e-07
-0.000334943 0.000260815 -5.79693e-07
3.42311e-07 -5.79693e-07 2.08437e-06
0.000380729 -0.000278801 -9.42841e-06
-0.000278801 -0.000196054 1.01804e-07
-9.42841e-06 1.01804e-07 -0.00046643
0.000298603 -4.29218e-05 -1.00051e-05
-4.29218e-05 -0.000134989 1.32512e-05
-1.00051e-05 1.32512e-05 -0.00020511
0.000855511 -0.000161523 2.52961e-06
-0.000161523 0.000241562 1.07186e-06
2.52961e-06 1.07186e-06 2.59103e-05
0.000754793 -0.000241276 3.19837e-07
-0.000241276 0.000206677 2.11329e-06
3.19837e-07 2.11329e-06 -6.85097e-05
0.00372083 0.000221725 2.7143e-06
0.000221725 0.00206205 4.77094e-06
2.7143e-06 4.77094e-06 0.0020298
0.000464093 -1.89262e-05 1.77376e-07
-1.89262e-05 -2.68735e-05 -4.05976e-07
1.77376e-07 -4.05976e-07 -8.39837e-05
0.00119208 -0.000106349 -3.03849e-07
-0.000106349 0.000438324 -6.45994e-06
-3.03849e-07 -6.45994e-06 0.000278816
0.00325794 0.000141114 8.45986e-06
0.000141114 0.00174324 6.8475e-07
8.45986e-06 6.8475e-07 0.00173715
0.000522293 -1.72222e-06 3.94529e-06
-1.72222e-06 1.1376e-05 -1.09093e-05
3.94529e-06 -1.09093e-05 -3.68133e-05
0.00296589 0.000117815 4.98804e-05
0.000117815 0.00155134 -4.72077e-06
4.98804e-05 -4.72077e-06 0.00155114
0.00216501 0.000316525 7.26702e-06
0.000316525 0.00104539 3.65363e-06
7.26702e-06 3.65363e-06 0.000817507
0.000813578 0.000151937 6.00401e-07
0.000151937 0.000291693 -3.89197e-06
6.00401e-07 -3.89197e-06 7.09407e-05
0.0012447 0.000164698 1.09917e-06
0.000164698 0.000566815 -6.88103e-06
1.09917e-06 -6.88103e-06 0.000333367
0.000653577 5.54956e-05 2.69914e-06
5.54956e-05 0.000108568 -5.46556e-06
2.69914e-06 -5.46556e-06 -1.02527e-05
0.000745673 0.000102031 1.99754e-07
0.000102031 0.000226148 1.44416e-06
1.99754e-07 1.44416e-06 4.10027e-05
0.00035282 0.000111322 -1.09738e-06
0.000111322 4.92978e-06 4.9974e-06
-1.09738e-06 4.9974e-06 -0.000183237
0.000508763 -7.16811e-07 -1.76331e-06
-7.16811e-07 -6.7919e-07 -9.27311e-06
-1.76331e-06 -9.27311e-06 -3.73151e-05
0.000594682 4.25226e-05 -3.95825e-08
4.25226e-05 7.30421e-05 -3.27959e-07
-3.95825e-08 -3.27959e-07 -2.98002e-05
0.000405882 8.46986e-05 -4.79632e-06
8.46986e-05 -1.94428e-05 -3.81129e-07
-4.79632e-06 -3.81129e-07 -0.000158349
0.00272165 -8.61764e-05 -4.33251e-05
-8.61764e-05 0.00138648 -4.66816e-06
-4.33251e-05 -4.66816e-06 0.00139405
0.000427181 -1.8433e-05 2.69786e-06
-1.8433e-05 -5.64525e-05 -1.26453e-07
2.69786e-06 -1.26453e-07 -8.68895e-05
0.00050715 4.70077e-05 -2.04877e-06
4.70077e-05 1.7716e-05 3.21562e-06
-2.04877e-06 3.21562e-06 -7.24324e-05
0.00253049 -6.90032e-05 -6.51481e-06
-6.90032e-05 0.00126076 4.79892e-07
-6.51481e-06 4.79892e-07 0.00127123
0.000441179 -3.18898e-06 -2.03915e-06
-3.18898e-06 -5.37665e-05 5.98693e-06
-2.03915e-06 5.98693e-06 -7.74651e-05
0.00230664 -4.99768e-05 2.34123e-05
-4.99768e-05 0.00111631 4.65906e-06
2.34123e-05 4.65906e-06 0.0011304
-0.00963238 0.0010372 -9.66607e-05
0.0010372 0.00364915 8.06217e-05
-9.66607e-05 8.06217e-05 -0.00246941
0.00606651 0.000413821 1.57941e-06
0.000413821 0.00351336 -1.94265e-06
1.57941e-06 -1.94265e-06 0.00144906
-0.00153571 3.85378e-05 3.80847e-05
3.85378e-05 0.000161591 1.67531e-05
3.80847e-05 1.67531e-05 -0.000558515
0.00021003 0.00012952 -9.59528e-07
0.00012952 -0.000156262 2.0137e-06
-9.59528e-07 2.0137e-06 -0.000341224
0.00339901 0.000648314 1.31262e-05
0.000648314 0.00173759 1.06643e-05
1.31262e-05 1.06643e-05 0.00139166
0.00142603 0.000189531 -8.65099e-06
0.000189531 0.000682364 1.73889e-06
-8.65099e-06 1.73889e-06 0.000384235
0.000625892 7.26368e-05 -7.18402e-06
7.26368e-05 0.000101495 -1.30407e-05
-7.18402e-06 -1.30407e-05 -5.3646e-05
0.00255786 0.000275505 3.5058e-06
0.000275505 0.00124773 -1.75762e-06
3.5058e-06 -1.75762e-06 0.00108343
-0.000546684 4.05801e-05 -9.00401e-06
4.05801e-05 -0.000569059 8.80727e-06
-9.00401e-06 8.80727e-06 -0.000714319
0.000153927 9.57871e-05 -1.31594e-06
9.57871e-05 -1.40724e-05 5.43432e-06
-1.31594e-06 5.43432e-06 -0.000285363
0.000581871 0.000155177 -2.82409e-06
0.000155177 0.000127 -5.57126e-06
-2.82409e-06 -5.57126e-06 -0.00017217
0.00185799 0.000477239 7.50014e-06
0.000477239 0.000920023 -2.74606e-05
7.50014e-06 -2.74606e-05 0.000493068
0.000175024 0.0004522 -1.54297e-05
0.0004522 -0.000227094 4.78679e-05
-1.54297e-05 4.78679e-05 -0.000382555
0.00147869 3.95856e-05 -1.24108e-05
3.95856e-05 0.000733265 1.44008e-05
-1.24108e-05 1.44008e-05 0.000544953
0.00139533 0.000245369 4.80656e-06
0.000245369 0.000873622 -1.05417e-05
4.80656e-06 -1.05417e-05 0.000518939
-0.000718353 -0.0022259 -0.00144386
-0.0022259 0.00128117 -0.000250631
-0.00144386 -0.000250631 -0.00231433
-0.0026729 -0.00214052 0.000491537
-0.00214052 0.00538686 0.000194545
0.000491537 0.000194545 2.30806e-05
0.00677968 0.00153326 -0.000514252
0.00153326 0.00292369 -0.000178358
-0.000514252 -0.000178358 -0.00246098
0.00312709 -0.00850509 0.00229554
-0.00850509 0.00390281 0.0014572
0.00229554 0.0014572 0.000898193
0.0241404 -0.00371362 6.30442e-05
-0.00371362 0.00819648 0.0003425
6.30442e-05 0.0003425 0.00497842
-0.00297083 0.00143151 -1.49445e-05
0.00143151 0.00216968 -0.00018524
-1.49445e-05 -0.00018524 -0.0034026
-0.00257847 0.000156351 -0.000391552
0.000156351 0.000601798 -6.71189e-05
-0.000391552 -6.71189e-05 -0.00103237
0.00114385 0.000710839 7.38962e-05
0.000710839 0.0015596 5.06621e-05
7.38962e-05 5.06621e-05 0.00124695
0.0190685 -0.00468078 -0.00060428
-0.00468078 0.0078125 6.48728e-06
-0.00060428 6.48728e-06 0.00429652
-0.00247294 0.00276666 -0.000106529
0.00276666 0.000338934 -4.57426e-05
-0.000106529 -4.57426e-05 -0.00430157
0.0030976 0.00202107 1.17973e-05
0.00202107 0.000933872 -7.0488e-05
1.17973e-05 -7.0488e-05 0.00156318
0.00249051 0.00434106 -0.000374975
0.00434106 -0.00205166 -0.000106947
-0.000374975 -0.000106947 -0.00471974
0.00324856 0.00113777 2.31308e-05
0.00113777 0.00119935 -1.35955e-05
2.31308e-05 -1.35955e-05 0.000857528
0.00100452 0.00054909 -5.97514e-06
0.00054909 0.000281233 -1.28257e-06
-5.97514e-06 -1.28257e-06 0.000117676
-0.000176397 0.000145228 -5.71245e-06
0.000145228 -0.000169274 4.0153e-07
-5.71245e-06 4.0153e-07 -0.000398127
-0.00172908 0.000329284 -7.34822e-05
0.000329284 -4.94535e-05 -7.47448e-05
-7.34822e-05 -7.47448e-05 -0.00106718
0.00223998 0.000774444 -3.15679e-05
0.000774444 0.0011366 -2.06481e-05
-3.15679e-05 -2.06481e-05 0.000730684
0.00179045 0.00135727 1.1218e-05
0.00135727 0.000441558 -8.26842e-06
1.1218e-05 -8.26842e-06 -0.000324457
-0.000621058 0.00149491 9.94257e-05
0.00149491 -0.00162557 4.4683e-05
9.94257e-05 4.4683e-05 -0.00191905
-0.0061254 -0.00043162 -0.000559942
-0.00043162 -0.00444854 4.2705e-05
-0.000559942 4.2705e-05 -0.00401237
-0.00821247 0.000481137 0.000364264
0.000481137 0.00544412 1.59569e-05
0.000364264 1.59569e-05 -0.000599223
0.00292957 -0.000102326 -0.000117995
-0.000102326 0.00204649 3.37301e-05
-0.000117995 3.37301e-05 0.000296415
0.00232449 -0.000912987 -4.79513e-05
-0.000912987 0.00136396 -4.72548e-05
-4.79513e-05 -4.72548e-05 0.000688356
-0.000527559 -0.00185102 2.39627e-05
-0.00185102 -0.000681037 4.65458e-05
2.39627e-05 4.65458e-05 -0.000436787
0.000639514 0.000573917 4.57473e-05
0.000573917 0.00671513 4.11326e-05
4.57473e-05 4.11326e-05 0.00281459
0.00212542 -0.00306863 0.000444291
-0.00306863 -0.00163243 -0.000120011
0.000444291 -0.000120011 -0.00397605
0.0210017 0.00328498 0.000786252
0.00328498 0.00924116 -9.67076e-05
0.000786252 -9.67076e-05 0.00645647
0.0015914 -0.00155236 -1.66696e-05
-0.00155236 0.000335807 4.95263e-06
-1.66696e-05 4.95263e-06 -0.000223307
0.00181596 0.00137059 0.000246218
0.00137059 0.000558187 -7.44663e-05
0.000246218 -7.44663e-05 -0.00144319
0.00772492 -0.00202514 -0.000155208
-0.00202514 -0.00215583 0.000137107
-0.000155208 0.000137107 -0.00435191
0.00399043 -0.00259747 -1.2033e-05
-0.00259747 -0.000297345 2.66236e-05
-1.2033e-05 2.66236e-05 0.000324578
0.00247982 -0.00132276 7.12672e-05
-0.00132276 0.000198824 -1.86242e-05
7.12672e-05 -1.86242e-05 7.43992e-05
0.0161983 -0.000812581 -5.98333e-05
-0.000812581 0.00321676 4.18988e-05
-5.98333e-05 4.18988e-05 0.00196587
0.00237829 -0.00166669 0.000123285
-0.00166669 -0.00305159 -9.12887e-05
0.000123285 -9.12887e-05 -0.00181428
-0.000753786 -0.000603719 -2.95385e-05
-0.000603719 -0.000884361 2.93049e-05
-2.95385e-05 2.93049e-05 -0.000981822
0.000169794 -0.000546131 -3.95195e-05
-0.000546131 -0.000587431 3.43511e-06
-3.95195e-05 3.43511e-06 -0.000721062
0.00609341 -0.00110173 6.31909e-05
-0.00110173 0.00230191 -2.25424e-05
6.31909e-05 -2.25424e-05 0.00209029
0.000408156 -0.000627895 -1.5881e-05
-0.000627895 -0.000355223 -1.9434e-06
-1.5881e-05 -1.9434e-06 -0.000737962
0.00210912 -0.000880424 -2.00571e-06
-0.000880424 0.000294264 -3.19426e-06
-2.00571e-06 -3.19426e-06 -6.72273e-05
0.00270743 -0.00080628 1.44213e-06
-0.00080628 0.000316942 -4.77114e-06
1.44213e-06 -4.77114e-06 0.000113517
0.0021997 -0.00088565 -1.24971e-06
-0.00088565 0.000451885 8.92229e-06
-1.24971e-06 8.92229e-06 -2.5054e-05
0.00214155 -0.000736337 -8.75944e-07
-0.000736337 0.00018803 1.14632e-06
-8.75944e-07 1.14632e-06 -0.0001068
0.00211205 -0.000548587 3.38341e-07
-0.000548587 3.76924e-05 -1.5243e-06
3.38341e-07 -1.5243e-06 -9.47281e-05
0.00141898 -0.000622853 5.77677e-06
-0.000622853 -3.20035e-05 7.77764e-06
5.77677e-06 7.77764e-06 -0.000376608
0.00197382 -0.000516873 -4.21492e-07
-0.000516873 8.32262e-05 2.20203e-06
-4.21492e-07 2.20203e-06 -0.000119903
0.00203492 -0.000479601 -2.61247e-06
-0.000479601 8.29652e-05 1.2094e-06
-2.61247e-06 1.2094e-06 -5.77078e-05
0.00200817 -0.000450433 -4.7223e-06
-0.000450433 0.000158048 9.69731e-07
-4.7223e-06 9.69731e-07 5.06126e-06
0.00197666 -0.000441573 -3.00297e-06
-0.000441573 0.000134671 3.32796e-06
-3.00297e-06 3.32796e-06 -3.45339e-05
0.00205473 -0.000455548 -2.89011e-06
-0.000455548 0.000226564 -4.05807e-06
-2.89011e-06 -4.05807e-06 4.11388e-05
0.00198603 -0.00054444 -6.92597e-06
-0.00054444 0.000204729 -2.68251e-06
-6.92597e-06 -2.68251e-06 -6.00297e-05
0.00191347 -0.000533197 1.80745e-06
-0.000533197 0.000141876 8.8247e-07
1.80745e-06 8.8247e-07 -0.000115771
0.0018715 -0.000502108 6.9513e-06
-0.000502108 9.48923e-05 7.57936e-06
6.9513e-06 7.57936e-06 -0.000143306
0.00188291 -0.000605633 -7.72263e-06
-0.000605633 0.000322484 -2.07811e-06
-7.72263e-06 -2.07811e-06 -1.88786e-05
0.00167484 -0.00062397 -5.02661e-07
-0.00062397 0.000118572 1.09236e-07
-5.02661e-07 1.09236e-07 -0.000226017
0.0021811 -0.000724621 8.17054e-06
-0.000724621 0.0004096 9.36135e-07
8.17054e-06 9.36135e-07 3.7532e-05
0.00143311 -0.000442914 -1.01919e-05
-0.000442914 0.000298882 3.82368e-06
-1.01919e-05 3.82368e-06 -1.06894e-05
0.00170976 -0.000612032 -7.17103e-07
-0.000612032 0.000379318 7.30628e-07
-7.17103e-07 7.30628e-07 1.8644e-06
0.00194912 -0.000722595 2.58712e-06
-0.000722595 0.000464246 5.82338e-07
2.58712e-06 5.82338e-07 5.1727e-05
0.000708205 -0.000216661 -8.05299e-06
-0.000216661 2.94894e-05 4.3364e-06
-8.05299e-06 4.3364e-06 -0.000180036
0.00118737 -0.000358758 9.67999e-07
-0.000358758 0.000231395 -2.8939e-07
9.67999e-07 -2.8939e-07 -4.15777e-05
0.000974119 -0.000441031 -1.3996e-06
-0.000441031 6.43638e-05 1.54418e-06
-1.3996e-06 1.54418e-06 -0.000264842
0.000454686 -0.000120159 -2.13145e-05
-0.000120159 -6.91417e-05 1.52016e-05
-2.13145e-05 1.52016e-05 -0.000159922
0.000655224 -0.000193948 -1.60311e-06
-0.000193948 7.16741e-05 1.14514e-06
-1.60311e-06 1.14514e-06 -0.000160989
0.000792464 -0.000352683 1.49363e-06
-0.000352683 8.59359e-05 2.83067e-07
1.49363e-06 2.83067e-07 -0.00017879
0.00418289 0.00020398 -8.5138e-05
0.00020398 0.00235265 6.17947e-06
-8.5138e-05 6.17947e-06 0.00232855
0.000493795 -5.98639e-05 1.15143e-06
-5.98639e-05 -1.8369e-05 -4.32161e-07
1.15143e-06 -4.32161e-07 -9.45435e-05
0.0016708 -0.000240554 4.89844e-06
-0.000240554 0.000742256 -2.51844e-06
4.89844e-06 -2.51844e-06 0.00051824
0.00242944 0.000127998 4.92106e-05
0.000127998 0.00123474 1.34348e-06
4.92106e-05 1.34348e-06 0.00121343
0.000661367 -2.7411e-05 9.46504e-06
-2.7411e-05 9.23168e-05 -1.25765e-05
9.46504e-06 -1.25765e-05 3.29144e-05
0.00350979 0.000134689 7.80889e-05
0.000134689 0.00190117 -4.57835e-06
7.80889e-05 -4.57835e-06 0.00189699
0.00166529 0.000324263 4.53134e-06
0.000324263 0.000629233 -2.49319e-06
4.53134e-06 -2.49319e-06 0.000419656
0.00040987 0.000132098 -3.15256e-06
0.000132098 -6.34522e-05 -7.56103e-08
-3.15256e-06 -7.56103e-08 -0.000251837
0.000478001 0.000152949 1.99121e-06
0.000152949 5.68294e-05 -7.62659e-06
1.99121e-06 -7.62659e-06 -0.000166325
0.000448951 0.000124814 -2.66611e-06
0.000124814 4.53353e-05 1.06869e-05
-2.66611e-06 1.06869e-05 -0.000155752
0.000595463 9.32321e-05 8.35608e-07
9.32321e-05 0.000134167 2.05496e-07
8.35608e-07 2.05496e-07 -7.32553e-05
0.000904652 0.000101954 1.02052e-06
0.000101954 0.00025625 -8.43042e-06
1.02052e-06 -8.43042e-06 0.000116893
0.000585076 2.64851e-05 -4.56673e-06
2.64851e-05 4.89609e-05 -1.14861e-05
-4.56673e-06 -1.14861e-05 3.41885e-06
0.000645674 5.18878e-05 4.38037e-07
5.18878e-05 0.000109816 2.64458e-08
4.38037e-07 2.64458e-08 -1.03857e-05
3.24187e-05 3.94058e-05 -6.07817e-06
3.94058e-05 -0.000244984 1.68987e-06
-6.07817e-06 1.68987e-06 -0.000407346
0.00291668 -0.000100106 -5.96208e-05
-0.000100106 0.00151608 -4.75182e-06
-5.96208e-05 -4.75182e-06 0.00152119
0.000426615 1.22058e-05 8.87806e-07
1.22058e-05 -5.04367e-05 -2.68638e-07
8.87806e-07 -2.68638e-07 -8.69235e-05
0.000527894 4.36988e-05 -3.25441e-06
4.36988e-05 3.74852e-05 4.36609e-06
-3.25441e-06 4.36609e-06 -6.73941e-05
0.00270016 -8.68941e-05 -7.13423e-06
-8.68941e-05 0.00137315 5.7583e-07
-7.13423e-06 5.7583e-07 0.00138024
0.000407218 -9.822e-06 4.67268e-07
-9.822e-06 -6.84042e-05 7.29136e-06
4.67268e-07 7.29136e-06 -9.84557e-05
0.00251821 -6.86188e-05 2.96133e-05
-6.86188e-05 0.00125281 4.83558e-06
2.96133e-05 4.83558e-06 0.00126328
0.00100307 0.000110453 -0.000788989
0.000110453 0.00361954 -5.54608e-05
-0.000788989 -5.54608e-05 0.00155538
-0.00575434 0.000174389 3.69981e-05
0.000174389 0.0046169 -1.21357e-06
3.69981e-05 -1.21357e-06 -0.00171299
0.00573314 0.000191542 -0.000229323
0.000191542 0.00341262 -6.08111e-05
-0.000229323 -6.08111e-05 0.00149643
-0.000143799 4.13703e-05 2.33254e-06
4.13703e-05 -0.000373498 -9.8514e-06
2.33254e-06 -9.8514e-06 -0.000559412
0.000563232 7.94143e-05 5.90125e-06
7.94143e-05 0.000109052 7.5864e-06
5.90125e-06 7.5864e-06 -0.000174164
0.0026546 0.000550596 -3.28803e-06
0.000550596 0.00131297 4.17959e-06
-3.28803e-06 4.17959e-06 0.000984839
0.00219741 0.000650029 1.4373e-05
0.000650029 0.00089543 6.35606e-06
1.4373e-05 6.35606e-06 0.000462638
0.000424484 0.00034504 4.81837e-06
0.00034504 7.5264e-05 1.24592e-06
4.81837e-06 1.24592e-06 -0.00028341
0.000731033 0.000138514 -6.50721e-06
0.000138514 0.000335107 8.89982e-06
-6.50721e-06 8.89982e-06 5.7372e-05
0.000802405 0.00015733 1.06428e-05
0.00015733 0.000291236 1.05447e-05
1.06428e-05 1.05447e-05 9.70087e-06
0.000596663 0.000396121 -5.68588e-06
0.000396121 0.000227944 -1.53048e-06
-5.68588e-06 -1.53048e-06 -0.000208613
-0.000430614 0.000496655 1.1915e-05
0.000496655 -0.000744013 -1.21317e-05
1.1915e-05 -1.21317e-05 -0.00106117
0.00243381 0.000793818 -1.02107e-05
0.000793818 0.000896594 2.56674e-05
-1.02107e-05 2.56674e-05 0.000678109
0.00141177 0.000844156 2.66969e-05
0.000844156 2.13476e-05 1.08398e-05
2.66969e-05 1.08398e-05 -0.000124026
0.00138886 0.000609518 -7.2097e-06
0.000609518 0.000507914 -3.56318e-06
-7.2097e-06 -3.56318e-06 0.000275468
0.00198685 0.000333665 -8.7533e-06
0.000333665 0.00109881 3.54548e-05
-8.7533e-06 3.54548e-05 0.000795887
0.0137276 0.00239388 -0.000117089
0.00239388 0.00180125 6.53674e-05
-0.000117089 6.53674e-05 0.000525471
0.00207854 -0.00187283 -0.00053308
-0.00187283 0.00363967 -0.000197068
-0.00053308 -0.000197068 0.000665105
-0.000279165 -0.00327252 0.000705642
-0.00327252 0.00590479 0.000195626
0.000705642 0.000195626 0.000456971
0.00638404 -0.0028559 0.000283694
-0.0028559 0.00288876 0.00032049
0.000283694 0.00032049 -0.000407676
0.0139595 0.00443725 -0.000106616
0.00443725 0.00464498 -4.7688e-05
-0.000106616 -4.7688e-05 0.000711114
-0.00302283 0.00021826 -5.3446e-05
0.00021826 -0.00025202 -5.87371e-05
-5.3446e-05 -5.87371e-05 -0.000615893
0.00222893 0.00179772 -4.96017e-05
0.00179772 0.000573627 -1.96876e-05
-4.96017e-05 -1.96876e-05 0.00127566
0.017272 0.00423284 1.73974e-05
0.00423284 0.00401245 3.78496e-05
1.73974e-05 3.78496e-05 0.00165603
0.0063652 0.00339272 -7.08847e-05
0.00339272 -8.25517e-05 -0.00010044
-7.08847e-05 -0.00010044 0.000259495
0.00159826 0.00114709 1.07315e-05
0.00114709 0.000101193 -5.6675e-06
1.07315e-05 -5.6675e-06 -0.000138581
0.00158138 0.0008923 9.33818e-06
0.0008923 0.000426794 -3.55739e-06
9.33818e-06 -3.55739e-06 0.000126821
0.00206018 0.000607736 -2.37422e-05
0.000607736 0.000970163 1.85191e-06
-2.37422e-05 1.85191e-06 0.000793282
0.00270197 0.00154115 -6.64894e-05
0.00154115 0.000776809 -2.53875e-05
-6.64894e-05 -2.53875e-05 2.79983e-05
0.0013744 0.00171805 6.85779e-05
0.00171805 -0.000802231 3.54479e-05
6.85779e-05 3.54479e-05 -0.00117695
0.00216848 -0.000316542 -0.000117082
-0.000316542 -0.00482217 5.527e-05
-0.000117082 5.527e-05 -0.00505751
0.000854371 -0.00157097 9.67341e-06
-0.00157097 0.00205914 -4.22275e-07
9.67341e-06 -4.22275e-07 0.0012424
-0.0112378 -0.000244876 0.000296894
-0.000244876 0.00581876 -2.40073e-05
0.000296894 -2.40073e-05 0.000305613
0.000341307 -0.00168096 -5.59725e-05
-0.00168096 -0.000594828 1.64483e-05
-5.59725e-05 1.64483e-05 -0.00135554
0.00526802 -0.00295763 2.67643e-05
-0.00295763 0.000334336 4.40907e-05
2.67643e-05 4.40907e-05 0.000525013
0.00219489 -5.36392e-05 0.000849334
-5.36392e-05 0.00381866 -0.000198401
0.000849334 -0.000198401 0.00195335
0.0137922 -0.00227726 -0.000266117
-0.00227726 0.00158199 0.000139242
-0.000266117 0.000139242 0.000459372
0.00171742 -0.00132116 -3.05624e-05
-0.00132116 -0.00012036 -2.16587e-07
-3.05624e-05 -2.16587e-07 -0.000396938
0.0113358 -9.15491e-05 -0.000187404
-9.15491e-05 -0.00075715 6.17632e-05
-0.000187404 6.17632e-05 -0.00162441
0.00708059 -0.00196052 0.000101662
-0.00196052 -0.000234755 1.27127e-05
0.000101662 1.27127e-05 0.0004255
0.00363532 -0.00114051 6.16847e-05
-0.00114051 0.000437327 -4.27606e-05
6.16847e-05 -4.27606e-05 0.000219695
0.00273702 -0.000750046 -1.81107e-05
-0.000750046 -0.00177666 1.13337e-05
-1.81107e-05 1.13337e-05 -0.000707967
-0.00584541 -1.43314e-05 1.13024e-05
-1.43314e-05 -0.00384381 8.58779e-06
1.13024e-05 8.58779e-06 -0.00380121
0.00156692 -0.000707314 -1.64697e-05
-0.000707314 -0.000188349 1.81104e-06
-1.64697e-05 1.81104e-06 -0.000208577
0.00353425 -0.000734716 3.51692e-05
-0.000734716 0.000658968 -1.3691e-05
3.51692e-05 -1.3691e-05 0.000712382
0.00112803 -0.000768711 -9.85075e-06
-0.000768711 -0.000216146 7.15545e-06
-9.85075e-06 7.15545e-06 -0.000550855
0.00215525 -0.000753656 -3.60048e-06
-0.000753656 2.63726e-05 3.11326e-06
-3.60048e-06 3.11326e-06 -0.000171582
0.00237039 -0.000611456 5.57651e-06
-0.000611456 -3.88131e-06 -1.44458e-06
5.57651e-06 -1.44458e-06 -3.81079e-05
0.00225497 -0.000738475 -4.03168e-06
-0.000738475 0.00025772 1.09135e-05
-4.03168e-06 1.09135e-05 -3.52445e-05
0.00209687 -0.000545037 3.85479e-07
-0.000545037 2.73385e-05 1.46926e-06
3.85479e-07 1.46926e-06 -0.000100296
0.00223678 -0.000536119 -5.87507e-07
-0.000536119 8.89341e-05 3.07069e-07
-5.87507e-07 3.07069e-07 1.67683e-05
0.00193178 -0.000505715 3.6603e-06
-0.000505715 6.27593e-05 6.61939e-06
3.6603e-06 6.61939e-06 -0.000134243
0.00202186 -0.000479911 -5.44286e-08
-0.000479911 7.17766e-05 1.32255e-06
-5.44286e-08 1.32255e-06 -6.64415e-05
0.00216633 -0.000513213 -2.48196e-06
-0.000513213 0.000150963 1.50858e-06
-2.48196e-06 1.50858e-06 1.99097e-05
0.00201484 -0.000457271 -4.18104e-06
-0.000457271 0.000154409 2.60418e-06
-4.18104e-06 2.60418e-06 2.50706e-06
0.00214565 -0.000459206 -1.35998e-06
-0.000459206 0.0002765 -1.28436e-06
-1.35998e-06 -1.28436e-06 0.00011598
0.00208715 -0.000449826 3.85412e-06
-0.000449826 0.00019707 6.09425e-06
3.85412e-06 6.09425e-06 3.0993e-05
0.00203699 -0.000454668 6.03135e-07
-0.000454668 0.000214019 -6.7705e-07
6.03135e-07 -6.7705e-07 2.8762e-05
0.00193186 -0.000470693 -3.24596e-06
-0.000470693 0.000152755 -3.04779e-06
-3.24596e-06 -3.04779e-06 -5.33125e-05
0.00202057 -0.00052464 -4.96986e-06
-0.00052464 0.000299904 -3.75102e-06
-4.96986e-06 -3.75102e-06 2.65096e-05
0.00205138 -0.000552376 -3.9829e-07
-0.000552376 0.000247364 -4.34059e-08
-3.9829e-07 -4.34059e-08 -2.01328e-05
0.00214242 -0.000549924 8.45088e-06
-0.000549924 0.000288756 4.13683e-06
8.45088e-06 4.13683e-06 3.03643e-05
0.00151853 -0.000479635 -9.94883e-06
-0.000479635 0.000208452 2.09658e-06
-9.94883e-06 2.09658e-06 -0.000104911
0.00180372 -0.000595012 -1.68204e-06
-0.000595012 0.000277249 -1.92876e-07
-1.68204e-06 -1.92876e-07 -6.38454e-05
0.0016941 -0.000631525 6.19204e-06
-0.000631525 0.000117332 1.84443e-06
6.19204e-06 1.84443e-06 -0.000230247
0.000733569 -0.000236675 -1.06811e-05
-0.000236675 -1.24323e-05 6.86655e-06
-1.06811e-05 6.86655e-06 -0.000227211
0.00129559 -0.000433175 1.19838e-06
-0.000433175 0.000211509 3.46935e-07
1.19838e-06 3.46935e-07 -9.6786e-05
0.00180365 -0.000618281 3.27817e-06
-0.000618281 0.000442163 1.97846e-06
3.27817e-06 1.97846e-06 6.47258e-05
0.000458681 -0.000180104 -2.24262e-05
-0.000180104 -8.077e-05 1.8722e-05
-2.24262e-05 1.8722e-05 -0.00019509
0.00064729 -0.00021998 -5.98472e-07
-0.00021998 -7.0605e-07 2.85249e-07
-5.98472e-07 2.85249e-07 -0.000215243
0.000888523 -0.000327264 5.55274e-06
-0.000327264 3.71265e-05 -1.30117e-06
5.55274e-06 -1.30117e-06 -0.000230072
0.00497443 0.000182215 -0.000134658
0.000182215 0.00284541 9.20993e-06
-0.000134658 9.20993e-06 0.00282601
0.000504197 -0.000136377 -2.1643e-06
-0.000136377 -3.50737e-05 -7.94342e-07
-2.1643e-06 -7.94342e-07 -0.000132932
0.0011868 -0.000234313 5.52596e-06
-0.000234313 0.00041368 -1.5269e-06
5.52596e-06 -1.5269e-06 0.000170005
0.00438774 0.000176357 2.14981e-05
0.000176357 0.00247735 7.97957e-07
2.14981e-05 7.97957e-07 0.00246012
0.000753572 -7.97118e-05 1.76784e-05
-7.97118e-05 0.000137649 -1.4235e-05
1.76784e-05 -1.4235e-05 5.74488e-05
0.00387986 0.000137169 0.000108231
0.000137169 0.0021394 -6.3305e-06
0.000108231 -6.3305e-06 0.00213468
0.00193295 0.000525175 2.23434e-06
0.000525175 0.000746085 -3.58934e-06
2.23434e-06 -3.58934e-06 0.000391863
0.000818689 0.000255937 -3.2515e-07
0.000255937 0.000114184 -3.12004e-06
-3.2515e-07 -3.12004e-06 -8.95343e-05
0.000230951 0.000150757 4.55652e-06
0.000150757 -0.000183742 3.88246e-06
4.55652e-06 3.88246e-06 -0.000385933
-0.000806719 2.86178e-05 -2.28267e-06
2.86178e-05 -0.000791878 -1.77375e-07
-2.28267e-06 -1.77375e-07 -0.000982236
0.000367545 0.000103842 -3.80011e-07
0.000103842 -3.91833e-05 2.3692e-06
-3.80011e-07 2.3692e-06 -0.000246312
0.000924839 0.000103366 4.44647e-07
0.000103366 0.000271925 -9.11966e-06
4.44647e-07 -9.11966e-06 0.000100829
0.000296587 5.62504e-05 -3.10746e-06
5.62504e-05 -7.07696e-05 4.67714e-06
-3.10746e-06 4.67714e-06 -0.000262858
0.000567689 7.79859e-05 1.3068e-07
7.79859e-05 5.60969e-05 7.69753e-08
1.3068e-07 7.69753e-08 -8.13235e-05
0.000587849 3.09272e-05 -6.18048e-06
3.09272e-05 4.789e-05 -1.46883e-05
-6.18048e-06 -1.46883e-05 -8.53439e-06
0.00319302 -0.000109463 -8.22461e-05
-0.000109463 0.00169813 -6.046e-06
-8.22461e-05 -6.046e-06 0.00170094
0.000438495 1.06147e-05 1.34085e-06
1.06147e-05 -3.76571e-05 -3.68912e-07
1.34085e-06 -3.68912e-07 -8.38525e-05
0.000522857 4.11228e-05 -3.72866e-06
4.11228e-05 4.00262e-05 6.11204e-06
-3.72866e-06 6.11204e-06 -8.05998e-05
0.00287141 -0.000106054 -7.99212e-06
-0.000106054 0.00148866 7.09006e-07
-7.99212e-06 7.09006e-07 0.00149168
0.000335613 -4.94447e-05 -5.93256e-06
-4.94447e-05 -0.000100042 8.79905e-06
-5.93256e-06 8.79905e-06 -0.000140019
0.00269314 -8.77326e-05 3.69187e-05
-8.77326e-05 0.00136838 4.86714e-06
3.69187e-05 4.86714e-06 0.00137505
0.0146905 0.000577107 0.000463113
0.000577107 0.00204495 0.000113143
0.000463113 0.000113143 0.00165217
-0.00138412 -0.00270249 -0.000472757
-0.00270249 -0.00254305 -7.94106e-05
-0.000472757 -7.94106e-05 -0.00452411
-0.00932966 0.00140567 -0.000196003
0.00140567 0.0039949 -0.000122353
-0.000196003 -0.000122353 -0.00269366
0.000133394 2.31477e-05 1.78303e-05
2.31477e-05 -0.000144658 -5.50835e-06
1.78303e-05 -5.50835e-06 -0.000447596
0.00158099 0.000415999 -9.71826e-06
0.000415999 0.000671858 -4.42014e-07
-9.71826e-06 -4.42014e-07 0.000374135
0.00223803 0.000548411 -1.00244e-05
0.000548411 0.00113279 -2.3727e-06
-1.00244e-05 -2.3727e-06 0.000727439
0.00153251 0.000572242 1.05962e-06
0.000572242 0.000495303 -6.34622e-07
1.05962e-06 -6.34622e-07 8.43226e-05
0.00141144 0.000611883 1.13672e-05
0.000611883 0.000243649 1.81864e-05
1.13672e-05 1.81864e-05 -0.000150574
-0.000783759 0.000387335 2.40185e-05
0.000387335 -0.000925202 4.83037e-06
2.40185e-05 4.83037e-06 -0.00124616
-0.000374914 0.000277612 -1.07022e-05
0.000277612 -0.000260384 1.19694e-05
-1.07022e-05 1.19694e-05 -0.000734596
-0.00022674 0.000510761 1.11489e-05
0.000510761 -0.000637302 -6.13693e-07
1.11489e-05 -6.13693e-07 -0.000961535
0.00219944 0.000757179 4.75505e-06
0.000757179 0.00081643 7.06623e-06
4.75505e-06 7.06623e-06 0.000551374
-0.000639939 0.000496007 5.02281e-06
0.000496007 -0.000997337 -3.4314e-06
5.02281e-06 -3.4314e-06 -0.00122826
0.00346969 0.000976819 2.05174e-06
0.000976819 0.00112357 1.51322e-05
2.05174e-06 1.51322e-05 0.000952043
0.00131967 0.000842667 1.95718e-05
0.000842667 -7.93528e-06 6.48435e-06
1.95718e-05 6.48435e-06 -0.000285614
0.000599119 0.000743674 2.98414e-06
0.000743674 -0.000456786 1.27291e-07
2.98414e-06 1.27291e-07 -0.000532825
0.000616855 0.000495279 4.0185e-06
0.000495279 6.41173e-05 -4.81915e-05
4.0185e-06 -4.81915e-05 -0.000142645
0.00525316 0.00164724 1.89996e-05
0.00164724 -0.00125387 2.4872e-05
1.89996e-05 2.4872e-05 8.30126e-05
0.013621 0.00274517 0.000266758
0.00274517 0.00109515 0.000142204
0.000266758 0.000142204 -0.000490995
0.0112024 -0.00396965 0.00048086
-0.00396965 0.00533706 -3.98999e-05
0.00048086 -3.98999e-05 0.00236354
0.00559686 0.00449466 0.000520664
0.00449466 -0.000932447 0.00030412
0.000520664 0.00030412 -0.00504446
0.000176402 0.00120971 -5.77795e-05
0.00120971 0.000132098 -2.28204e-06
-5.77795e-05 -2.28204e-06 0.000749502
0.00397626 0.00242847 -0.000111604
0.00242847 -0.000516122 -5.33331e-05
-0.000111604 -5.33331e-05 0.000141485
0.00591481 0.00206624 7.51947e-05
0.00206624 0.00115962 3.02647e-05
7.51947e-05 3.02647e-05 0.000902517
0.00416822 0.00149714 1.87778e-05
0.00149714 0.00124902 8.0533e-06
1.87778e-05 8.0533e-06 0.000941677
-0.000167352 0.000658585 -2.73151e-05
0.000658585 -0.000474894 1.11711e-05
-2.73151e-05 1.11711e-05 -0.000715384
0.00651009 0.00232988 -0.0001762
0.00232988 0.00158209 -1.77819e-05
-0.0001762 -1.77819e-05 0.00106019
0.00300833 -0.000484862 1.67965e-05
-0.000484862 -0.000423341 1.13106e-05
1.67965e-05 1.13106e-05 0.000139667
0.0113234 -0.000537039 -4.27831e-05
-0.000537039 0.00135397 -6.80866e-06
-4.27831e-05 -6.80866e-06 0.00123742
-0.012469 -0.00252463 0.000722387
-0.00252463 -0.00541884 3.27805e-06
0.000722387 3.27805e-06 -0.00614598
0.000580132 -0.00112199 -0.000104778
-0.00112199 -0.00059359 3.05709e-05
-0.000104778 3.05709e-05 -0.000842205
0.00889796 -0.00244767 8.99357e-06
-0.00244767 7.08205e-05 9.21835e-05
8.99357e-06 9.21835e-05 0.00102739
0.00102728 -0.000281534 -0.000268892
-0.000281534 -0.00457366 3.37963e-05
-0.000268892 3.37963e-05 -0.00635391
0.00264312 -0.000963123 3.11674e-05
-0.000963123 -0.000139409 1.1501e-06
3.11674e-05 1.1501e-06 -6.7057e-05
0.00494862 -0.000669994 -4.46154e-05
-0.000669994 -0.000447412 -3.37032e-06
-4.46154e-05 -3.37032e-06 0.000274069
0.00561192 -0.000835708 4.0805e-05
-0.000835708 0.00124627 -3.17602e-05
4.0805e-05 -3.17602e-05 0.00156531
0.00552301 -0.000419979 0.000102782
-0.000419979 0.00136426 2.88892e-06
0.000102782 2.88892e-06 0.00150587
-0.00337568 -0.000321346 7.53923e-06
-0.000321346 -0.00299826 9.94192e-06
7.53923e-06 9.94192e-06 -0.00274344
0.00202204 -0.000630833 -6.13971e-06
-0.000630833 -0.000224583 1.2845e-06
-6.13971e-06 1.2845e-06 -6.91133e-05
0.00231199 -0.000480857 2.44855e-05
-0.000480857 -0.000209568 -5.58312e-06
2.44855e-05 -5.58312e-06 4.89465e-05
0.00170455 -0.000714665 -5.3086e-07
-0.000714665 -0.000212437 6.75692e-06
-5.3086e-07 6.75692e-06 -0.000409122
0.00231082 -0.000607791 1.44918e-06
-0.000607791 -3.13651e-05 1.39815e-06
1.44918e-06 1.39815e-06 -6.74745e-05
0.00233689 -0.000530436 2.06543e-06
-0.000530436 1.58469e-05 -6.82401e-07
2.06543e-06 -6.82401e-07 2.06141e-05
0.00211721 -0.000545975 2.01887e-06
-0.000545975 3.68658e-05 5.43889e-06
2.01887e-06 5.43889e-06 -8.84054e-05
0.00218146 -0.000526992 3.68321e-07
-0.000526992 6.92255e-05 4.22325e-07
3.68321e-07 4.22325e-07 -4.61347e-06
0.00217409 -0.000471356 -2.28147e-06
-0.000471356 5.35956e-05 1.38582e-07
-2.28147e-06 1.38582e-07 -1.08176e-05
0.0020256 -0.000481763 3.66618e-06
-0.000481763 7.00177e-05 1.83856e-06
3.66618e-06 1.83856e-06 -6.66348e-05
0.0021051 -0.000505344 -1.56287e-07
-0.000505344 0.000135129 8.1211e-08
-1.56287e-07 8.1211e-08 4.7623e-06
0.00202367 -0.000456506 -1.24403e-07
-0.000456506 0.000123373 2.97453e-07
-1.24403e-07 2.97453e-07 -9.70027e-06
0.00201657 -0.000463771 -2.04503e-07
-0.000463771 0.00014791 2.36346e-06
-2.04503e-07 2.36346e-06 -3.15018e-06
0.00208132 -0.000449952 -1.85037e-06
-0.000449952 0.000231155 3.27827e-07
-1.85037e-06 3.27827e-07 7.42779e-05
0.00213422 -0.000455184 -1.45227e-06
-0.000455184 0.000270988 -1.13808e-06
-1.45227e-06 -1.13808e-06 9.60998e-05
0.00202186 -0.000453057 4.91553e-06
-0.000453057 0.000203427 3.01179e-06
4.91553e-06 3.01179e-06 1.86099e-05
0.00198412 -0.000475015 -2.05566e-07
-0.000475015 0.0001851 -2.06356e-07
-2.05566e-07 -2.06356e-07 -2.21594e-05
0.00201819 -0.000466758 -1.36706e-06
-0.000466758 0.000258587 -2.70972e-06
-1.36706e-06 -2.70972e-06 3.15361e-05
0.00167809 -0.000450037 -8.79045e-06
-0.000450037 0.000202382 -2.47964e-07
-8.79045e-06 -2.47964e-07 -7.36456e-05
0.00195226 -0.000524384 -7.89056e-07
-0.000524384 0.000257221 -1.03102e-06
-7.89056e-07 -1.03102e-06 -2.13785e-05
0.00211425 -0.000560508 5.56394e-06
-0.000560508 0.000288993 2.46309e-06
5.56394e-06 2.46309e-06 1.86497e-05
0.000887647 -0.00026037 -1.39168e-05
-0.00026037 -9.66036e-06 7.14671e-06
-1.39168e-05 7.14671e-06 -0.000227232
0.00156045 -0.000477991 -1.93586e-07
-0.000477991 0.000240811 6.56959e-07
-1.93586e-07 6.56959e-07 -7.01993e-05
0.00172242 -0.000584159 3.53998e-06
-0.000584159 0.000230755 1.71624e-06
3.53998e-06 1.71624e-06 -0.000110003
0.00030699 -0.000183475 -1.9831e-05
-0.000183475 -0.000192265 1.90805e-05
-1.9831e-05 1.90805e-05 -0.000315428
0.000802181 -0.000246013 7.12969e-07
-0.000246013 2.71146e-05 2.76357e-07
7.12969e-07 2.76357e-07 -0.000191477
0.00112282 -0.00041913 1.051e-05
-0.00041913 0.000103704 -1.96511e-06
1.051e-05 -1.96511e-06 -0.000202318
0.00603124 0.00011178 -0.000207763
0.00011178 0.00347343 1.27194e-05
-0.000207763 1.27194e-05 0.00346917
0.000396376 -0.000184665 -7.87684e-07
-0.000184665 -0.000118681 2.8303e-08
-7.87684e-07 2.8303e-08 -0.000233849
0.000632488 -0.000223004 9.58463e-06
-0.000223004 -3.91419e-06 -5.62555e-06
9.58463e-06 -5.62555e-06 -0.000222046
0.00539807 0.000127482 -1.26438e-06
0.000127482 0.00309612 -1.1716e-06
-1.26438e-06 -1.1716e-06 0.00308769
0.000426547 -0.000136924 1.87285e-05
-0.000136924 -7.76965e-05 -1.68939e-05
1.87285e-05 -1.68939e-05 -0.000181329
0.00471662 0.000113913 0.000168393
0.000113913 0.0026713 -1.42726e-05
0.000168393 -1.42726e-05 0.00266763
0.00141252 0.00053579 -4.157e-06
0.00053579 0.000288406 2.2818e-06
-4.157e-06 2.2818e-06 -7.25326e-05
0.00170779 0.000497378 -1.05485e-06
0.000497378 0.000593832 -1.54039e-06
-1.05485e-06 -1.54039e-06 0.000251237
0.00071939 0.000288644 -1.61489e-06
0.000288644 -8.11659e-06 -3.22238e-06
-1.61489e-06 -3.22238e-06 -0.000263879
0.000783083 0.000268881 -7.95516e-06
0.000268881 0.000125139 -3.85649e-06
-7.95516e-06 -3.85649e-06 -9.35868e-05
4.70252e-05 0.000146047 2.05175e-06
0.000146047 -0.000292182 -4.7174e-07
2.05175e-06 -4.7174e-07 -0.000498793
0.00119714 0.000260273 -1.97022e-06
0.000260273 0.000454725 -5.45608e-06
-1.97022e-06 -5.45608e-06 0.000230769
-8.20596e-05 5.5939e-05 -1.47957e-06
5.5939e-05 -0.000334432 3.02626e-06
-1.47957e-06 3.02626e-06 -0.000529786
0.000709793 0.00011525 4.71557e-07
0.00011525 0.000149245 -1.70909e-07
4.71557e-07 -1.70909e-07 -2.53779e-05
0.000691623 6.02463e-05 -1.25323e-05
6.02463e-05 0.000105535 -1.65927e-05
-1.25323e-05 -1.65927e-05 3.4797e-05
0.000553597 5.18651e-05 -2.74277e-06
5.18651e-05 5.83153e-05 9.54101e-06
-2.74277e-06 9.54101e-06 -8.16224e-05
0.00051762 3.77946e-05 2.36657e-07
3.77946e-05 9.04494e-06 -2.66885e-07
2.36657e-07 -2.66885e-07 -4.68655e-05
0.00371804 -0.000126282 -0.000107435
-0.000126282 0.00203978 -7.90143e-06
-0.000107435 -7.90143e-06 0.00203731
0.00318586 -0.000125545 -9.71159e-06
-0.000125545 0.00169639 8.75813e-07
-9.71159e-06 8.75813e-07 0.00169465
0.000334278 3.5674e-05 5.07602e-06
3.5674e-05 -0.000101194 1.13338e-05
5.07602e-06 1.13338e-05 -0.00014602
0.00281752 -0.00010578 4.51233e-05
-0.00010578 0.00145481 4.77285e-06
4.51233e-05 4.77285e-06 0.00145757
0.00402503 0.00015515 8.80239e-05
0.00015515 -0.00116217 2.63839e-05
8.80239e-05 2.63839e-05 0.000213625
0.00496701 -0.000923037 0.000163734
-0.000923037 -0.00417948 7.68177e-05
0.000163734 7.68177e-05 -0.00513429
0.0121844 -0.0029033 -0.000211894
-0.0029033 0.0047818 -9.46805e-05
-0.000211894 -9.46805e-05 0.00375552
0.00137783 0.000593883 8.80812e-06
0.000593883 3.33351e-05 8.77123e-06
8.80812e-06 8.77123e-06 -0.000301949
0.00440959 0.000782072 -1.09127e-05
0.000782072 0.00239578 1.99803e-06
-1.09127e-05 1.99803e-06 0.00195068
0.000792671 0.000482941 -6.53556e-06
0.000482941 5.47806e-05 -5.73382e-06
-6.53556e-06 -5.73382e-06 -0.000332302
0.00142333 0.00064667 2.13557e-06
0.00064667 0.000393883 -1.02206e-06
2.13557e-06 -1.02206e-06 1.50802e-05
0.00157781 0.00062931 -1.62255e-06
0.00062931 0.000366033 3.84383e-06
-1.62255e-06 3.84383e-06 -3.79104e-05
0.00167903 0.000724355 2.35592e-05
0.000724355 0.000359269 1.38053e-05
2.35592e-05 1.38053e-05 5.84279e-06
0.0023657 0.000785722 -3.54074e-05
0.000785722 0.000913567 -2.78757e-07
-3.54074e-05 -2.78757e-07 0.000513181
0.000741794 0.000612443 2.04237e-05
0.000612443 2.06553e-05 -3.33932e-05
2.04237e-05 -3.33932e-05 -0.000249598
0.00173381 0.000785901 1.3444e-06
0.000785901 0.000352351 -2.41921e-06
1.3444e-06 -2.41921e-06 6.07823e-05
0.00197817 0.000834603 8.40396e-06
0.000834603 0.000210814 -1.55395e-08
8.40396e-06 -1.55395e-08 0.000168295
0.00200686 0.000854853 1.3991e-05
0.000854853 0.000220116 -2.70156e-06
1.3991e-05 -2.70156e-06 -7.32922e-05
0.00174882 0.000744928 2.29336e-05
0.000744928 0.000173511 1.84908e-05
2.29336e-05 1.84908e-05 -1.52231e-05
0.000842539 0.000793889 -5.55476e-06
0.000793889 -0.000262785 -5.49877e-06
-5.55476e-06 -5.49877e-06 -0.00052324
0.000540855 0.000728257 -1.30848e-05
0.000728257 -0.000480149 -2.5349e-05
-1.30848e-05 -2.5349e-05 -0.000540193
0.00107677 0.000726926 5.00391e-05
0.000726926 -0.00111215 3.57045e-05
5.00391e-05 3.57045e-05 -0.000801983
0.00611065 0.00170311 -9.00877e-05
0.00170311 -0.00110022 -2.6771e-05
-9.00877e-05 -2.6771e-05 0.000213623
0.00411375 0.0018094 0.00053272
0.0018094 -0.00420592 0.000103607
0.00053272 0.000103607 -0.00596891
0.00173086 0.00187817 -0.000152346
0.00187817 -0.000936663 -5.90221e-05
-0.000152346 -5.90221e-05 -0.000298299
0.00444283 0.0016828 -3.02598e-05
0.0016828 0.000797427 -9.01669e-06
-3.02598e-05 -9.01669e-06 0.000621523
0.0048966 0.00159099 -0.000142036
0.00159099 0.00153945 -3.49402e-05
-0.000142036 -3.49402e-05 0.00121354
0.00233799 -0.00024909 -6.23901e-05
-0.00024909 -0.000700303 -2.1616e-05
-6.23901e-05 -2.1616e-05 -0.000371481
-0.000380433 -0.000272456 7.85451e-05
-0.000272456 -0.0010376 1.68052e-05
7.85451e-05 1.68052e-05 -0.000270713
0.00291182 0.000830208 0.000201908
0.000830208 -0.00492943 -1.45618e-05
0.000201908 -1.45618e-05 -0.00512965
0.000308056 -0.000730436 -4.65547e-05
-0.000730436 -0.00132741 7.16231e-05
-4.65547e-05 7.16231e-05 -0.00107088
0.00658897 -0.000745219 -0.000156196
-0.000745219 0.000508514 4.43693e-05
-0.000156196 4.43693e-05 0.000766962
0.00250705 -0.000612673 -1.71645e-05
-0.000612673 -0.000414144 1.17836e-05
-1.71645e-05 1.17836e-05 -3.59718e-05
0.0042858 -0.000431658 -6.71378e-06
-0.000431658 0.00062449 -3.15157e-06
-6.71378e-06 -3.15157e-06 0.000743896
0.00266236 -0.000356706 5.98295e-05
-0.000356706 -0.000112183 -7.15314e-06
5.98295e-05 -7.15314e-06 0.000226036
0.0036604 -0.000105816 4.4759e-05
-0.000105816 0.00108755 1.17057e-08
4.4759e-05 1.17057e-08 0.00108667
0.0005453 -0.000514415 -2.45695e-05
-0.000514415 -0.0010542 1.20958e-05
-2.45695e-05 1.20958e-05 -0.000808048
0.00213401 -0.000496033 -2.2987e-06
-0.000496033 -0.000342317 1.91719e-06
-2.2987e-06 1.91719e-06 -8.80302e-05
0.00239006 -0.000426509 5.26179e-06
-0.000426509 -0.000172508 -1.35634e-06
5.26179e-06 -1.35634e-06 3.54649e-05
0.00223845 -0.000598345 -2.51798e-06
-0.000598345 -6.0964e-05 3.91181e-06
-2.51798e-06 3.91181e-06 -9.55931e-05
0.00232151 -0.000520825 6.73555e-08
-0.000520825 2.23001e-05 -2.87226e-07
6.73555e-08 -2.87226e-07 3.0462e-05
0.00224889 -0.000415007 -4.78253e-07
-0.000415007 -9.01037e-06 -5.11022e-07
-4.78253e-07 -5.11022e-07 -6.04087e-07
0.00211916 -0.000516176 -2.96445e-08
-0.000516176 4.66075e-05 1.07841e-06
-2.96445e-08 1.07841e-06 -2.74541e-05
0.00216844 -0.000477254 -9.0582e-07
-0.000477254 6.03276e-05 1.11933e-07
-9.0582e-07 1.11933e-07 -5.47786e-06
0.00208399 -0.000407829 -1.63152e-06
-0.000407829 7.95214e-05 9.94614e-07
-1.63152e-06 9.94614e-07 -5.80239e-06
0.00203742 -0.000496957 8.50517e-07
-0.000496957 0.000115271 -8.51369e-07
8.50517e-07 -8.51369e-07 -1.39282e-05
0.00200177 -0.000456084 1.02779e-06
-0.000456084 0.000106379 -5.94898e-07
1.02779e-06 -5.94898e-07 -2.72365e-05
0.00200165 -0.000423276 -3.68243e-07
-0.000423276 0.000139551 -7.66584e-07
-3.68243e-07 -7.66584e-07 -7.76138e-06
0.00201716 -0.000440745 -1.53682e-06
-0.000440745 0.00018635 2.24823e-06
-1.53682e-06 2.24823e-06 3.30924e-05
0.00212986 -0.000452752 -1.84704e-06
-0.000452752 0.000261791 7.0194e-07
-1.84704e-06 7.0194e-07 9.06518e-05
0.00212616 -0.000444422 -8.94908e-07
-0.000444422 0.00028783 -2.06253e-06
-8.94908e-07 -2.06253e-06 9.15278e-05
0.00203595 -0.000479694 3.07473e-06
-0.000479694 0.000216822 2.83725e-06
3.07473e-06 2.83725e-06 8.26635e-06
0.00203649 -0.000469958 4.1739e-07
-0.000469958 0.000270219 -4.57515e-07
4.1739e-07 -4.57515e-07 4.32427e-05
0.00178652 -0.000404598 -6.45514e-06
-0.000404598 0.000225308 2.66038e-07
-6.45514e-06 2.66038e-07 -1.67364e-05
0.000997148 -0.000265772 -1.55218e-05
-0.000265772 -7.88087e-06 7.23226e-06
-1.55218e-05 7.23226e-06 -0.000222177
0.00165373 -0.000445609 -9.9697e-07
-0.000445609 0.000195395 -3.57524e-07
-9.9697e-07 -3.57524e-07 -8.19563e-05
0.00188525 -0.000524357 3.18774e-06
-0.000524357 0.000214933 1.3105e-06
3.18774e-06 1.3105e-06 -6.89393e-05
0.000409479 -0.000229794 -2.2676e-05
-0.000229794 -0.000137818 1.88243e-05
-2.2676e-05 1.88243e-05 -0.000277044
0.000846596 -0.000262342 8.05925e-07
-0.000262342 -4.24177e-05 -7.16314e-08
8.05925e-07 -7.16314e-08 -0.000262135
0.00157984 -0.000475219 9.01557e-06
-0.000475219 0.000257474 -7.80577e-07
9.01557e-06 -7.80577e-07 -5.11577e-05
0.00666521 6.61963e-05 -0.000251753
6.61963e-05 0.00384636 1.69683e-05
-0.000251753 1.69683e-05 0.00384869
0.000467735 -0.000235728 -1.24314e-06
-0.000235728 -8.61906e-05 6.7082e-07
-1.24314e-06 6.7082e-07 -0.000219531
0.000756114 -0.00025208 1.25194e-05
-0.00025208 -4.32861e-06 -6.69743e-06
1.25194e-05 -6.69743e-06 -0.000226901
0.00622955 9.38145e-05 -5.30894e-06
9.38145e-05 0.00359988 -3.86727e-07
-5.30894e-06 -3.86727e-07 0.00359485
0.000554611 -0.000222212 2.52929e-05
-0.000222212 -2.03968e-05 -1.91284e-05
2.52929e-05 -1.91284e-05 -0.000139133
0.00570002 0.000134086 0.000200664
0.000134086 0.00330169 -2.28641e-05
0.000200664 -2.28641e-05 0.00328452
0.00153699 0.000548373 1.86258e-07
0.000548373 0.000192296 4.94393e-06
1.86258e-07 4.94393e-06 -0.000144566
0.0016855 0.000571361 -2.31657e-06
0.000571361 0.000448593 1.59554e-07
-2.31657e-06 1.59554e-07 7.70885e-05
0.00120783 0.00040172 -7.38608e-06
0.00040172 0.000180546 -6.65805e-07
-7.38608e-06 -6.65805e-07 -0.000109715
0.00174203 0.000500146 2.78279e-07
0.000500146 0.000597759 9.6794e-07
2.78279e-07 9.6794e-07 0.000260117
0.00095995 0.000300409 -3.42747e-06
0.000300409 0.000145169 -2.14386e-06
-3.42747e-06 -2.14386e-06 -0.000109324
0.00127069 0.000248503 -8.03658e-06
0.000248503 0.00043369 -2.09632e-06
-8.03658e-06 -2.09632e-06 0.000208469
-0.000261736 0.000106069 -3.7778e-06
0.000106069 -0.000499356 -2.2166e-06
-3.7778e-06 -2.2166e-06 -0.000699202
0.000784687 0.000150237 -8.27786e-07
0.000150237 0.000182891 -7.2512e-07
-8.27786e-07 -7.2512e-07 -2.55391e-05
0.000575828 0.000103786 -2.01282e-05
0.000103786 1.61305e-05 -1.74908e-05
-2.01282e-05 -1.74908e-05 -6.88047e-05
0.000370809 8.08255e-05 -4.44544e-08
8.08255e-05 -6.85827e-05 9.17017e-06
-4.44544e-08 9.17017e-06 -0.000231025
0.000417376 5.44804e-05 -5.85108e-07
5.44804e-05 -5.96349e-05 -3.80764e-07
-5.85108e-07 -3.80764e-07 -0.000126787
0.00429556 -0.000147795 -0.000128648
-0.000147795 0.00241628 -1.07088e-05
-0.000128648 -1.07088e-05 0.00240571
0.000269955 4.13155e-05 6.70505e-06
4.13155e-05 -0.00013983 1.434e-05
6.70505e-06 1.434e-05 -0.000195165
0.00362199 -0.00014528 -9.94882e-06
-0.00014528 0.00198307 1.00788e-06
-9.94882e-06 1.00788e-06 0.00197558
0.0030793 -0.000129989 5.36725e-05
-0.000129989 0.00163008 4.9272e-06
5.36725e-05 4.9272e-06 0.00162661
0.000399332 0.000138365 -1.03972e-06
0.000138365 -0.00181614 1.04812e-05
-1.03972e-06 1.04812e-05 -0.00116966
0.00513767 3.05011e-05 6.60421e-05
3.05011e-05 -0.000544958 1.66063e-05
6.60421e-05 1.66063e-05 0.000698405
0.0138469 0.000817469 -2.94764e-05
0.000817469 0.00233875 9.66768e-06
-2.94764e-05 9.66768e-06 0.00200951
0.00188871 0.000714606 1.59082e-06
0.000714606 0.000312545 5.06114e-06
1.59082e-06 5.06114e-06 -1.91664e-05
0.00214506 0.000698003 2.6897e-07
0.000698003 0.000302901 3.574e-06
2.6897e-07 3.574e-06 7.07368e-07
0.0014909 0.000609542 -2.88552e-07
0.000609542 0.000114347 -3.52306e-06
-2.88552e-07 -3.52306e-06 -0.000220701
0.00282393 0.000815295 -9.94212e-06
0.000815295 0.00122037 4.38571e-06
-9.94212e-06 4.38571e-06 0.00080845
0.00186852 0.000660297 -6.92387e-06
0.000660297 0.000564452 -9.7731e-06
-6.92387e-06 -9.7731e-06 0.000147038
0.00195726 0.000768699 7.4455e-06
0.000768699 0.000483027 3.0736e-06
7.4455e-06 3.0736e-06 0.000131735
0.00185581 0.000778421 -1.75253e-06
0.000778421 8.74892e-05 -3.80064e-06
-1.75253e-06 -3.80064e-06 -0.000203991
0.00261858 0.000903522 -1.86932e-05
0.000903522 0.000812381 5.75572e-06
-1.86932e-05 5.75572e-06 0.000500907
0.0011218 0.000747957 -7.37911e-06
0.000747957 -0.000341389 1.04107e-05
-7.37911e-06 1.04107e-05 -0.000276667
0.00270306 0.000928343 1.56454e-07
0.000928343 0.000622008 3.68651e-06
1.56454e-07 3.68651e-06 0.000312814
0.00268961 0.000804548 -4.37707e-06
0.000804548 0.000433013 2.9197e-06
-4.37707e-06 2.9197e-06 0.000200807
0.00123519 0.000393453 3.58823e-05
0.000393453 -0.000296964 1.75134e-05
3.58823e-05 1.75134e-05 -0.000255152
0.000492211 0.000630212 9.34992e-06
0.000630212 -0.000481931 -3.23052e-06
9.34992e-06 -3.23052e-06 -0.0006574
0.0010325 0.000812459 -3.3361e-05
0.000812459 -0.000162981 -5.91455e-06
-3.3361e-05 -5.91455e-06 -0.000429236
0.00289014 0.000866809 3.80783e-06
0.000866809 -0.000140302 7.72697e-06
3.80783e-06 7.72697e-06 4.5712e-05
0.00679766 0.00129488 -2.0591e-05
0.00129488 -0.000727696 -3.9638e-05
-2.0591e-05 -3.9638e-05 0.000228124
0.00411127 0.00140469 -3.94836e-05
0.00140469 0.00101305 -5.19181e-05
-3.94836e-05 -5.19181e-05 0.000909199
0.00151443 -7.07698e-05 3.18222e-05
-7.07698e-05 -0.000345408 2.54603e-06
3.18222e-05 2.54603e-06 -0.000198569
0.00264362 -0.000228218 -5.32016e-05
-0.000228218 -0.000441637 3.32463e-06
-5.32016e-05 3.32463e-06 -0.00012067
0.0033943 0.000346324 1.98735e-05
0.000346324 -0.000393031 -1.28397e-05
1.98735e-05 -1.28397e-05 0.000135284
0.00088872 -0.000515527 -6.53547e-05
-0.000515527 -0.00124273 4.93091e-05
-6.53547e-05 4.93091e-05 -0.000856522
0.00284961 -0.000486549 -9.85584e-05
-0.000486549 -0.000203227 -3.59249e-06
-9.85584e-05 -3.59249e-06 -0.000116439
0.00261743 -0.000360525 8.35857e-06
-0.000360525 -4.59935e-05 -3.59411e-06
8.35857e-06 -3.59411e-06 0.000281955
0.00249611 -0.000101158 -1.45228e-05
-0.000101158 0.000322894 6.24746e-07
-1.45228e-05 6.24746e-07 0.000341561
0.00238002 -0.000239339 1.38283e-05
-0.000239339 -4.42866e-05 -1.70412e-07
1.38283e-05 -1.70412e-07 8.08801e-05
0.00232904 6.71149e-07 1.01624e-05
6.71149e-07 -3.36846e-05 2.1375e-06
1.01624e-05 2.1375e-06 1.50392e-05
0.00198194 -0.00051741 -1.7129e-05
-0.00051741 -0.000471211 4.9747e-06
-1.7129e-05 4.9747e-06 -0.000219873
0.00240548 -0.000439753 -2.65658e-06
-0.000439753 -0.00015675 6.19675e-07
-2.65658e-06 6.19675e-07 1.54523e-05
0.00232364 -0.000306345 8.9368e-07
-0.000306345 -8.09827e-05 -1.21775e-06
8.9368e-07 -1.21775e-06 3.14149e-06
0.0023019 -0.00051227 -3.83524e-06
-0.00051227 2.35081e-05 1.14046e-06
-3.83524e-06 1.14046e-06 3.42256e-05
0.0022512 -0.000411932 -1.1059e-07
-0.000411932 5.19716e-06 -8.24081e-08
-1.1059e-07 -8.24081e-08 8.88018e-06
0.00215196 -0.000343861 -7.03298e-07
-0.000343861 1.64691e-05 3.34734e-07
-7.03298e-07 3.34734e-07 -5.90252e-06
0.00216624 -0.000483512 -2.54839e-07
-0.000483512 6.86995e-05 -6.78106e-07
-2.54839e-07 -6.78106e-07 1.19797e-06
0.00207963 -0.000406672 5.24805e-07
-0.000406672 7.30318e-05 -1.33674e-07
5.24805e-07 -1.33674e-07 -1.21208e-05
0.00206284 -0.000374043 -1.86675e-06
-0.000374043 0.000117991 7.03586e-07
-1.86675e-06 7.03586e-07 6.83575e-06
0.00198344 -0.000455802 2.17448e-06
-0.000455802 9.16919e-05 -1.35401e-06
2.17448e-06 -1.35401e-06 -4.24655e-05
0.00198767 -0.000422367 5.31773e-07
-0.000422367 0.000127116 -6.08923e-07
5.31773e-07 -6.08923e-07 -2.05158e-05
0.00198398 -0.000397521 -7.01393e-07
-0.000397521 0.000157933 -1.47728e-06
-7.01393e-07 -1.47728e-06 -9.82116e-06
0.0021212 -0.000450082 -1.03712e-06
-0.000450082 0.000249682 2.9456e-06
-1.03712e-06 2.9456e-06 8.23247e-05
0.00209225 -0.000442884 -5.82934e-07
-0.000442884 0.000268148 -1.93857e-07
-5.82934e-07 -1.93857e-07 7.28798e-05
0.00174958 -0.000371692 -4.61898e-06
-0.000371692 0.000159774 1.81012e-07
-4.61898e-06 1.81012e-07 -5.91109e-05
0.00205355 -0.000473049 2.96237e-06
-0.000473049 0.000280983 2.13125e-06
2.96237e-06 2.13125e-06 5.41016e-05
0.00181849 -0.000408919 -6.98345e-07
-0.000408919 0.000245179 6.55081e-09
-6.98345e-07 6.55081e-09 3.8551e-06
0.00104112 -0.000246161 -1.61833e-05
-0.000246161 -1.69011e-05 6.87349e-06
-1.61833e-05 6.87349e-06 -0.000220174
0.00030208 -0.000196111 -1.94977e-05
-0.000196111 -0.000223426 1.72432e-05
-1.94977e-05 1.72432e-05 -0.000355545
0.00101949 -0.000268839 5.59537e-07
-0.000268839 9.86751e-07 6.03744e-08
5.59537e-07 6.03744e-08 -0.000213942
0.00163482 -0.000441747 6.23309e-06
-0.000441747 0.000191434 -7.77349e-07
6.23309e-06 -7.77349e-07 -8.72989e-05
0.00698986 -1.55844e-05 -0.00028645
-1.55844e-05 0.00402445 2.06097e-05
-0.00028645 2.06097e-05 0.00403562
0.000375254 -0.000222838 -1.28359e-06
-0.000222838 -0.000167134 1.17684e-06
-1.28359e-06 1.17684e-06 -0.000301063
0.000938113 -0.000271472 1.3593e-05
-0.000271472 7.16388e-06 -6.40691e-06
1.3593e-05 -6.40691e-06 -0.000215344
0.00683984 3.80564e-05 -1.27303e-06
3.80564e-05 0.00395322 4.8803e-07
-1.27303e-06 4.8803e-07 0.00395648
0.000474194 -0.00023742 2.4618e-05
-0.00023742 -8.7609e-05 -1.95904e-05
2.4618e-05 -1.95904e-05 -0.000220883
0.00654197 6.2518e-05 0.000253657
6.2518e-05 0.00378669 -2.25518e-05
0.000253657 -2.25518e-05 0.0037854
0.00179237 0.000607617 4.9397e-08
0.000607617 0.000203109 5.52308e-06
4.9397e-08 5.52308e-06 -0.000109031
0.0015842 0.000559407 8.5122e-08
0.000559407 0.000224168 8.31578e-07
8.5122e-08 8.31578e-07 -0.000113242
0.00144848 0.000451926 -7.84114e-06
0.000451926 0.000230882 2.85843e-07
-7.84114e-06 2.85843e-07 -6.76923e-05
0.00154427 0.000560494 4.42186e-07
0.000560494 0.000354393 -1.28781e-06
4.42186e-07 -1.28781e-06 -1.69535e-05
0.00124113 0.000398319 -1.66121e-06
0.000398319 0.000208865 2.41912e-09
-1.66121e-06 2.41912e-09 -7.88123e-05
0.000964623 0.000235936 -1.1282e-05
0.000235936 0.000158428 -4.52941e-06
-1.1282e-05 -4.52941e-06 -5.25659e-05
0.00122456 0.000316906 3.68352e-07
0.000316906 0.000316895 -1.31499e-06
3.68352e-07 -1.31499e-06 6.1883e-05
0.000616064 0.000204438 5.85741e-07
0.000204438 2.96878e-05 1.70086e-06
5.85741e-07 1.70086e-06 -0.000191551
0.000448893 0.000176201 -2.6518e-05
0.000176201 -7.96756e-05 -1.81428e-05
-2.6518e-05 -1.81428e-05 -0.000182141
0.00012455 9.38368e-05 3.11508e-07
9.38368e-05 -0.000217184 4.10479e-06
3.11508e-07 4.10479e-06 -0.000427773
0.000557213 8.97324e-05 -1.38148e-06
8.97324e-05 8.52315e-06 -3.7295e-07
-1.38148e-06 -3.7295e-07 -7.38373e-05
0.00522725 -0.000162488 -0.000170616
-0.000162488 0.00301373 -1.52082e-05
-0.000170616 -1.52082e-05 0.00299557
0.000424883 5.29303e-05 1.08603e-05
5.29303e-05 -5.09704e-05 1.69707e-05
1.08603e-05 1.69707e-05 -0.000116658
0.00417044 -0.000169459 -9.15091e-06
-0.000169459 0.00234297 1.07452e-06
-9.15091e-06 1.07452e-06 0.00232724
0.00349956 -0.000155307 7.23274e-05
-0.000155307 0.00190832 5.71117e-06
7.23274e-05 5.71117e-06 0.00189756
0.00133345 0.00015542 2.87222e-05
0.00015542 -0.000387576 1.89974e-05
2.87222e-05 1.89974e-05 -0.000176208
0.00269235 0.000182223 -1.565e-05
0.000182223 -0.000865713 -2.66522e-06
-1.565e-05 -2.66522e-06 -0.000169658
0.00406737 0.00026466 0.000209769
0.00026466 -0.00162214 6.21375e-05
0.000209769 6.21375e-05 0.000116618
0.00264567 0.0007583 -7.48295e-06
0.0007583 0.000557903 -7.40119e-08
-7.48295e-06 -7.40119e-08 0.000266776
0.00172372 0.000718235 -6.24255e-06
0.000718235 0.000197491 -4.5675e-06
-6.24255e-06 -4.5675e-06 -0.000129559
0.00214611 0.000565399 1.04221e-06
0.000565399 0.000172276 4.46901e-06
1.04221e-06 4.46901e-06 -5.02552e-05
0.00212304 0.000686091 1.32436e-06
0.000686091 0.000290949 4.19007e-07
1.32436e-06 4.19007e-07 -7.99046e-06
0.00153589 0.000617937 6.10477e-07
0.000617937 0.000152288 -1.11356e-05
6.10477e-07 -1.11356e-05 -0.000180944
0.00198292 0.000603432 -2.3683e-06
0.000603432 -7.09893e-06 8.5792e-07
-2.3683e-06 8.5792e-07 -0.000209593
0.00272805 0.000871567 -9.41208e-06
0.000871567 0.000897728 -3.28685e-06
-9.41208e-06 -3.28685e-06 0.000534551
0.00237034 0.000813244 1.24392e-07
0.000813244 0.000396256 -1.66862e-09
1.24392e-07 -1.66862e-09 9.30132e-05
0.0020592 0.000419165 -1.19094e-05
0.000419165 -0.000129618 -2.55809e-07
-1.19094e-05 -2.55809e-07 -0.000145776
0.00343836 0.00101686 -4.28342e-06
0.00101686 0.00102955 6.05321e-06
-4.28342e-06 6.05321e-06 0.000707617
0.00244899 0.000786136 3.29632e-07
0.000786136 0.000296729 -2.8087e-07
3.29632e-07 -2.8087e-07 6.38864e-05
0.000676569 0.000380605 6.35368e-07
0.000380605 -0.000591455 1.73526e-06
6.35368e-07 1.73526e-06 -0.000545222
-0.00109541 0.000488022 -2.40789e-05
0.000488022 -0.00130618 -8.81103e-06
-2.40789e-05 -8.81103e-06 -0.00145628
0.00383684 0.000984531 -0.000120376
0.000984531 0.000331325 -3.92352e-05
-0.000120376 -3.92352e-05 0.000413838
0.00210479 8.98987e-05 -8.66667e-07
8.98987e-05 -0.000196634 -3.97498e-07
-8.66667e-07 -3.97498e-07 -0.00010678
0.00261969 -7.82433e-05 9.06309e-06
-7.82433e-05 0.000413981 -5.2971e-07
9.06309e-06 -5.2971e-07 0.000515067
0.00277905 -0.000240866 -9.00292e-05
-0.000240866 -0.000310719 7.27784e-06
-9.00292e-05 7.27784e-06 1.12555e-05
0.00215024 -0.000353812 -6.96807e-05
-0.000353812 -0.000234707 6.44922e-06
-6.96807e-05 6.44922e-06 8.12471e-05
0.00135929 -0.00010895 -1.37595e-05
-0.00010895 -0.000419069 1.82699e-06
-1.37595e-05 1.82699e-06 -0.000381887
0.00238414 -0.000241833 1.23349e-06
-0.000241833 -5.78743e-05 -1.69875e-06
1.23349e-06 -1.69875e-06 8.95707e-05
0.00237589 2.37069e-06 -3.13838e-06
2.37069e-06 -3.41286e-05 1.42741e-06
-3.13838e-06 1.42741e-06 2.08005e-05
0.00236608 -7.63118e-05 9.94831e-07
-7.63118e-05 -6.07826e-05 -5.15214e-07
9.94831e-07 -5.15214e-07 2.33651e-05
0.00242416 -0.000449805 -6.77354e-06
-0.000449805 -0.000132728 9.37706e-07
-6.77354e-06 9.37706e-07 4.09142e-06
0.00228449 -0.000295591 3.68649e-07
-0.000295591 -8.60157e-05 -2.51626e-07
3.68649e-07 -2.51626e-07 -1.07826e-05
0.00220132 -0.000227931 4.70868e-07
-0.000227931 -2.21614e-05 -3.25213e-07
4.70868e-07 -3.25213e-07 1.6237e-05
0.00225651 -0.000409129 -2.7026e-07
-0.000409129 2.18077e-05 3.109e-07
-2.7026e-07 3.109e-07 2.06659e-05
0.00215226 -0.000341074 1.10821e-07
-0.000341074 2.11343e-05 1.77355e-07
1.10821e-07 1.77355e-07 -2.46069e-06
0.00207101 -0.000293518 -2.8086e-06
-0.000293518 6.02784e-05 7.38042e-07
-2.8086e-06 7.38042e-07 2.77858e-06
0.00207519 -0.000405483 2.12537e-06
-0.000405483 6.62276e-05 -1.08208e-06
2.12537e-06 -1.08208e-06 -1.87459e-05
0.00203037 -0.000371083 6.7536e-07
-0.000371083 9.5334e-05 -1.88986e-07
6.7536e-07 -1.88986e-07 -1.58649e-05
0.00199847 -0.000339428 -1.09457e-06
-0.000339428 0.000127971 -9.81109e-07
-1.09457e-06 -9.81109e-07 -6.50155e-06
0.00197268 -0.000421589 1.31193e-06
-0.000421589 0.000113795 -3.70513e-07
1.31193e-06 -3.70513e-07 -3.42019e-05
0.0020333 -0.000400329 -3.16428e-07
-0.000400329 0.000190299 -7.21055e-08
-3.16428e-07 -7.21055e-08 2.20511e-05
0.00181585 -0.000337001 -2.8086e-06
-0.000337001 0.000159016 -1.16015e-07
-2.8086e-06 -1.16015e-07 -3.60214e-05
0.00205769 -0.00044119 4.97818e-07
-0.00044119 0.000247956 1.75169e-06
4.97818e-07 1.75169e-06 5.37843e-05
0.00179362 -0.000374377 -5.54903e-07
-0.000374377 0.000187629 8.81148e-08
-5.54903e-07 8.81148e-08 -3.11272e-05
0.00107039 -0.000222139 -1.5144e-05
-0.000222139 -1.96818e-05 6.147e-06
-1.5144e-05 6.147e-06 -0.000211982
0.00186661 -0.000414323 5.37883e-06
-0.000414323 0.000275215 -4.13486e-08
5.37883e-06 -4.13486e-08 3.44871e-05
0.00107896 -0.000248052 1.86774e-07
-0.000248052 3.53754e-06 7.61756e-08
1.86774e-07 7.61756e-08 -0.000199444
0.00273366 -0.000178251 -4.83646e-05
-0.000178251 0.00127638 1.1751e-05
-4.83646e-05 1.1751e-05 0.00117378
0.00220521 -9.9908e-05 -0.000255568
-9.9908e-05 0.00102854 3.43414e-05
-0.000255568 3.43414e-05 0.00100925
0.00161117 -0.0002055 -1.31752e-05
-0.0002055 0.000587671 -1.58699e-08
-1.31752e-05 -1.58699e-08 0.000465752
0.000988928 -0.000268131 1.51924e-05
-0.000268131 -2.16799e-05 -6.31409e-06
1.51924e-05 -6.31409e-06 -0.000236899
0.00704929 -3.3935e-05 -7.62112e-06
-3.3935e-05 0.00406859 1.12206e-06
-7.62112e-06 1.12206e-06 0.00407648
0.000399738 -0.000250667 2.50922e-05
-0.000250667 -0.000151303 -1.85983e-05
2.50922e-05 -1.85983e-05 -0.000288082
0.00695479 1.5164e-05 0.000280494
1.5164e-05 0.00402953 -2.66604e-05
0.000280494 -2.66604e-05 0.00403024
0.0021316 0.000435279 7.32897e-07
0.000435279 0.000155911 8.26204e-07
7.32897e-07 8.26204e-07 -1.07192e-05
0.00210308 0.00056907 3.34688e-06
0.00056907 0.000287404 5.28614e-06
3.34688e-06 5.28614e-06 3.07193e-05
0.00208525 0.000631667 2.02888e-07
0.000631667 0.000377069 2.05894e-07
2.02888e-07 2.05894e-07 6.42471e-05
0.00167773 0.000485289 -7.42257e-06
0.000485289 0.000260624 1.41077e-06
-7.42257e-06 1.41077e-06 -3.06069e-05
0.00168429 0.000577282 2.74912e-06
0.000577282 0.000286451 -3.29556e-06
2.74912e-06 -3.29556e-06 -5.33664e-05
0.00145007 0.000455711 -1.03271e-07
0.000455711 0.000223294 5.18686e-07
-1.03271e-07 5.18686e-07 -7.75909e-05
0.000857033 0.000257387 -1.33582e-05
0.000257387 3.01894e-06 -5.49496e-06
-1.33582e-05 -5.49496e-06 -0.000207941
0.00126594 0.000394262 7.79325e-06
0.000394262 0.00023226 2.43076e-06
7.79325e-06 2.43076e-06 -5.28937e-05
0.000662398 0.000214056 1.23481e-06
0.000214056 -3.22935e-05 -2.49209e-08
1.23481e-06 -2.49209e-08 -0.000237428
0.000563631 0.000250784 -2.85637e-05
0.000250784 -2.25821e-05 -1.92009e-05
-2.85637e-05 -1.92009e-05 -0.000144958
0.000200096 0.000165781 3.63793e-06
0.000165781 -0.000239759 2.99726e-06
3.63793e-06 2.99726e-06 -0.000451898
0.000530232 0.000160753 7.45578e-07
0.000160753 -3.37166e-05 -8.05984e-07
7.45578e-07 -8.05984e-07 -0.000131899
0.00611137 -0.000142691 -0.000215892
-0.000142691 0.00356172 -2.18242e-05
-0.000215892 -2.18242e-05 0.00354038
0.000335359 8.07233e-05 1.65472e-05
8.07233e-05 -0.000125992 1.72883e-05
1.65472e-05 1.72883e-05 -0.000202874
0.00479331 -0.000185664 -8.58643e-06
-0.000185664 0.0027426 3.52387e-07
-8.58643e-06 3.52387e-07 0.00272022
0.00402056 -0.00018389 9.30815e-05
-0.00018389 0.00225236 7.62323e-06
9.30815e-05 7.62323e-06 0.00223275
0.00221813 0.000215526 -5.16849e-06
0.000215526 -0.000164218 -9.14711e-07
-5.16849e-06 -9.14711e-07 -5.30845e-05
0.00210381 0.00010671 2.27393e-05
0.00010671 -5.852e-05 -2.97625e-06
2.27393e-05 -2.97625e-06 0.000180718
0.00575589 0.000278627 -0.000112573
0.000278627 0.000540799 -2.04035e-06
-0.000112573 -2.04035e-06 0.00126392
0.00216417 0.00051854 -2.88875e-06
0.00051854 0.000134868 1.25766e-06
-2.88875e-06 1.25766e-06 -4.99368e-05
0.00219975 0.000705315 -3.46266e-06
0.000705315 0.000330205 -2.30466e-07
-3.46266e-06 -2.30466e-07 4.77241e-05
0.00170214 0.000736199 -6.68006e-06
0.000736199 0.000165209 -1.03599e-05
-6.68006e-06 -1.03599e-05 -0.00015948
0.00227153 0.000560314 3.02872e-06
0.000560314 0.000266332 1.49465e-06
3.02872e-06 1.49465e-06 4.63883e-05
0.00211238 0.000675489 2.72767e-07
0.000675489 0.000286738 -4.613e-06
2.72767e-07 -4.613e-06 -9.30796e-06
0.00239345 0.000414594 -4.00328e-07
0.000414594 3.8171e-05 2.3594e-07
-4.00328e-07 2.3594e-07 1.40269e-05
0.00207312 0.000616084 -6.6169e-07
0.000616084 6.29476e-05 3.31223e-07
-6.6169e-07 3.31223e-07 -0.000139955
0.00281507 0.000840401 -5.1425e-06
0.000840401 0.000669701 -1.6067e-06
-5.1425e-06 -1.6067e-06 0.000354241
0.00203027 0.000409877 -6.8828e-08
0.000409877 -0.000128418 -4.2075e-07
-6.8828e-08 -4.2075e-07 -0.000143264
0.00219889 0.000763309 1.21881e-05
0.000763309 0.000144451 2.76431e-06
1.21881e-05 2.76431e-06 -8.84941e-05
8.88741e-05 0.000344672 -3.88349e-05
0.000344672 -0.000916198 -1.8861e-05
-3.88349e-05 -1.8861e-05 -0.000860781
0.0023607 8.69978e-05 1.07771e-06
8.69978e-05 -2.22101e-05 3.30511e-07
1.07771e-06 3.30511e-07 4.41763e-05
0.00228278 9.98948e-05 -1.98955e-06
9.98948e-05 -6.78322e-05 2.62616e-07
-1.98955e-06 2.62616e-07 1.41858e-05
0.00358349 -8.1559e-05 -4.73657e-05
-8.1559e-05 0.00108193 2.04324e-06
-4.73657e-05 2.04324e-06 0.00114446
0.00238098 -0.000240667 -2.1972e-05
-0.000240667 -8.0674e-05 1.9797e-06
-2.1972e-05 1.9797e-06 8.79808e-05
0.00242722 7.80585e-06 -6.5156e-06
7.80585e-06 -3.73977e-05 -4.27613e-06
-6.5156e-06 -4.27613e-06 2.33091e-05
0.00233549 -8.40445e-05 -3.52818e-07
-8.40445e-05 -9.55474e-05 2.8299e-08
-3.52818e-07 2.8299e-08 -4.11023e-06
0.00208848 -6.96505e-05 3.57547e-07
-6.96505e-05 -2.81649e-05 9.70881e-08
3.57547e-07 9.70881e-08 -8.21709e-07
0.00223898 -0.000283826 -7.21544e-07
-0.000283826 -9.3957e-05 5.09003e-07
-7.21544e-07 5.09003e-07 -2.7445e-05
0.00215734 -0.000232498 -1.9272e-07
-0.000232498 -4.19845e-05 1.87312e-08
-1.9272e-07 1.87312e-08 -9.76261e-06
0.0020442 -0.00019565 -2.16261e-06
-0.00019565 1.91146e-05 1.72217e-07
-2.16261e-06 1.72217e-07 -3.36892e-06
0.00215189 -0.00033829 9.21258e-07
-0.00033829 2.53004e-05 2.86652e-08
9.21258e-07 2.86652e-08 5.0961e-07
0.00207863 -0.000293909 3.36248e-07
-0.000293909 6.10297e-05 -1.09127e-08
3.36248e-07 -1.09127e-08 3.23283e-06
0.00206989 -0.000277295 -2.15629e-06
-0.000277295 0.000129928 -2.85415e-07
-2.15629e-06 -2.85415e-07 2.84392e-05
0.0019994 -0.000368012 2.64839e-06
-0.000368012 7.37991e-05 -9.00199e-07
2.64839e-06 -9.00199e-07 -3.73857e-05
0.00202136 -0.000341418 -2.87699e-07
-0.000341418 0.000139133 -9.28779e-08
-2.87699e-07 -9.28779e-08 4.09849e-06
0.00183626 -0.000289533 -2.10188e-06
-0.000289533 0.000136827 -4.03612e-07
-2.10188e-06 -4.03612e-07 -3.33771e-05
0.0020821 -0.000403137 9.73223e-07
-0.000403137 0.000222381 1.04191e-06
9.73223e-07 1.04191e-06 5.36307e-05
0.00184163 -0.000339016 -3.87524e-07
-0.000339016 0.00017466 1.02237e-07
-3.87524e-07 1.02237e-07 -2.02811e-05
0.0010765 -0.000197956 -1.40787e-05
-0.000197956 -3.48263e-05 4.9772e-06
-1.40787e-05 4.9772e-06 -0.000217707
0.00182739 -0.000376427 3.53972e-06
-0.000376427 0.000209033 -1.05548e-07
3.53972e-06 -1.05548e-07 -9.55113e-06
0.00109763 -0.000222316 3.68034e-08
-0.000222316 -8.13119e-06 1.92531e-07
3.68034e-08 1.92531e-07 -0.000199505
0.00274671 -0.000173538 -5.67189e-05
-0.000173538 0.00127546 1.14543e-05
-5.67189e-05 1.14543e-05 0.00118132
0.00108686 -0.000248 1.57933e-05
-0.000248 5.7327e-06 -6.41759e-06
1.57933e-05 -6.41759e-06 -0.000196721
0.00287416 -0.000216996 4.85463e-05
-0.000216996 0.00136456 -7.5594e-06
4.85463e-05 -7.5594e-06 0.00126975
0.00221679 -0.000135393 -0.000253886
-0.000135393 0.00104251 3.91303e-05
-0.000253886 3.91303e-05 0.00102104
0.00452021 -0.000111481 -0.000250142
-0.000111481 0.00249153 2.54627e-05
-0.000250142 2.54627e-05 0.00248514
0.0029731 -0.000277065 0.000160033
-0.000277065 0.00144139 -2.54864e-05
0.000160033 -2.54864e-05 0.00134577
0.00710516 -4.84429e-05 0.000294486
-4.84429e-05 0.00411183 -3.10547e-05
0.000294486 -3.10547e-05 0.0041156
0.00230775 0.000430989 -1.53801e-06
0.000430989 0.000255531 -3.94378e-07
-1.53801e-06 -3.94378e-07 0.000111361
0.00189585 0.000438984 2.2707e-06
0.000438984 0.000115688 1.64194e-06
2.2707e-06 1.64194e-06 -8.24653e-05
0.0021299 0.000426007 3.21019e-07
0.000426007 0.000162269 -1.5763e-06
3.21019e-07 -1.5763e-06 2.47025e-06
0.00182853 0.000466374 -6.062e-06
0.000466374 0.000241672 1.67665e-06
-6.062e-06 1.67665e-06 -1.99272e-05
0.00217383 0.000575747 6.38771e-07
0.000575747 0.000316923 2.55688e-07
6.38771e-07 2.55688e-07 5.93364e-05
0.00235623 0.000654802 2.81526e-07
0.000654802 0.000537859 -4.70482e-06
2.81526e-07 -4.70482e-06 0.000224424
0.00164801 0.000486874 1.9083e-07
0.000486874 0.000235684 6.03929e-07
1.9083e-07 6.03929e-07 -5.78919e-05
0.000950646 0.000281146 -1.67974e-05
0.000281146 -3.25225e-05 -5.67393e-06
-1.67974e-05 -5.67393e-06 -0.000247469
0.00144707 0.000458719 9.16655e-06
0.000458719 0.000213668 1.26069e-06
9.16655e-06 1.26069e-06 -8.93853e-05
0.000790418 0.000248533 -7.78586e-07
0.000248533 -3.47912e-05 -7.6685e-08
-7.78586e-07 -7.6685e-08 -0.000241955
0.000426453 0.000251083 -2.5616e-05
0.000251083 -0.000117242 -1.96571e-05
-2.5616e-05 -1.96571e-05 -0.000253105
0.000304014 0.000189129 8.77326e-06
0.000189129 -0.000253092 2.2366e-06
8.77326e-06 2.2366e-06 -0.000452472
0.000327627 0.000205847 3.06437e-06
0.000205847 -0.000169209 3.71721e-07
3.06437e-06 3.71721e-07 -0.000286297
0.00678218 -6.10649e-05 -0.00025779
-6.10649e-05 0.00394938 -2.67509e-05
-0.00025779 -2.67509e-05 0.00393817
0.000377313 0.000121949 2.20184e-05
0.000121949 -0.000126174 1.69873e-05
2.20184e-05 1.69873e-05 -0.000219725
0.00578483 -0.000164349 3.1376e-06
-0.000164349 0.00335229 -1.93484e-06
3.1376e-06 -1.93484e-06 0.00333282
0.00463269 -0.000218527 0.000112217
-0.000218527 0.00265371 1.02144e-05
0.000112217 1.02144e-05 0.00262249
0.00237412 0.00025147 1.19503e-07
0.00025147 -2.44423e-05 5.43967e-07
1.19503e-07 5.43967e-07 3.80704e-05
0.00215801 0.000222334 1.6841e-06
0.000222334 -0.000180885 -1.68502e-08
1.6841e-06 -1.68502e-08 -7.11221e-05
0.0026315 6.6042e-05 -7.89487e-05
6.6042e-05 0.000145671 -9.2946e-06
-7.89487e-05 -9.2946e-06 0.000414241
0.00212772 0.000368662 5.73993e-07
0.000368662 7.45054e-06 1.68553e-07
5.73993e-07 1.68553e-07 -6.36188e-05
0.00215143 0.000513864 -9.02684e-07
0.000513864 0.000150921 3.51909e-07
-9.02684e-07 3.51909e-07 -3.17474e-05
0.00170449 0.000646182 5.45919e-06
0.000646182 7.42592e-05 -2.47671e-06
5.45919e-06 -2.47671e-06 -0.000198296
0.00239528 0.000554853 -8.44397e-07
0.000554853 0.000359812 -2.84812e-06
-8.44397e-07 -2.84812e-06 0.000142591
0.00234141 0.000398857 -8.75411e-07
0.000398857 2.33861e-05 3.51807e-08
-8.75411e-07 3.51807e-08 5.30756e-07
0.00217243 0.000630114 -2.41532e-06
0.000630114 0.000137618 -5.80927e-08
-2.41532e-06 -5.80927e-08 -6.60947e-05
0.00192919 0.000396893 1.15498e-05
0.000396893 -0.000137814 5.33306e-09
1.15498e-05 5.33306e-09 -0.000151623
0.00216284 6.78186e-05 1.96118e-06
6.78186e-05 -9.72567e-06 3.76427e-07
1.96118e-06 3.76427e-07 1.86145e-05
0.00227834 8.16973e-05 7.5399e-08
8.16973e-05 -6.09165e-05 1.32383e-08
7.5399e-08 1.32383e-08 4.15264e-06
0.00245322 0.000115793 -9.11221e-06
0.000115793 6.03574e-05 -8.20078e-07
-9.11221e-06 -8.20078e-07 0.000133609
0.00202288 -1.22359e-05 -3.15533e-06
-1.22359e-05 1.44377e-05 3.60937e-07
-3.15533e-06 3.60937e-07 1.52502e-05
0.00229597 -9.79253e-05 -4.49487e-07
-9.79253e-05 -0.000135309 -6.39727e-07
-4.49487e-07 -6.39727e-07 -3.61166e-05
0.00210598 -7.26925e-05 -7.24485e-07
-7.26925e-05 -2.18295e-05 2.82825e-07
-7.24485e-07 2.82825e-07 5.7356e-06
0.00196748 -0.000107349 -3.58163e-06
-0.000107349 -1.70549e-05 4.04006e-07
-3.58163e-06 4.04006e-07 -3.17501e-05
0.00211145 -0.000236843 7.88474e-08
-0.000236843 -6.29056e-05 2.83409e-07
7.88474e-08 2.83409e-07 -3.71865e-05
0.00204825 -0.000194579 1.10072e-06
-0.000194579 2.05818e-05 -3.13443e-07
1.10072e-06 -3.13443e-07 -1.50514e-06
0.0020828 -0.000197939 -4.79811e-07
-0.000197939 0.000112869 -8.02703e-08
-4.79811e-07 -8.02703e-08 4.02476e-05
0.0020898 -0.000293928 3.07153e-06
-0.000293928 6.41291e-05 -7.19961e-07
3.07153e-06 -7.19961e-07 6.11641e-06
0.00201912 -0.000272847 -2.29123e-07
-0.000272847 9.78306e-05 -2.7251e-07
-2.29123e-07 -2.7251e-07 -3.17494e-06
0.00181012 -0.000228944 -1.43749e-06
-0.000228944 9.72538e-05 -2.9673e-07
-1.43749e-06 -2.9673e-07 -4.88942e-05
0.00204296 -0.000343169 1.86563e-06
-0.000343169 0.000150066 4.85274e-07
1.86563e-06 4.85274e-07 1.45177e-05
0.00184732 -0.000289447 -3.37725e-07
-0.000289447 0.000144247 -6.50699e-08
-3.37725e-07 -6.50699e-08 -2.55472e-05
0.0010769 -0.000170687 -1.32061e-05
-0.000170687 -5.09889e-05 3.79957e-06
-1.32061e-05 3.79957e-06 -0.000223291
0.00186502 -0.000340743 1.93165e-06
-0.000340743 0.000188947 2.33004e-07
1.93165e-06 2.33004e-07 -5.84167e-06
0.00111943 -0.000198016 -1.89563e-07
-0.000198016 -1.28886e-05 2.52478e-07
-1.89563e-07 2.52478e-07 -0.000194506
0.00270396 -0.000167159 -6.38482e-05
-0.000167159 0.00124902 1.1028e-05
-6.38482e-05 1.1028e-05 0.00115846
0.00113597 -0.000223291 1.48202e-05
-0.000223291 9.55422e-06 -5.76251e-06
1.48202e-05 -5.76251e-06 -0.000180907
0.00283072 -0.000196279 4.4341e-05
-0.000196279 0.00132821 -5.95226e-06
4.4341e-05 -5.95226e-06 0.00124123
0.00223586 -0.000115311 -0.000247743
-0.000115311 0.00104595 3.42449e-05
-0.000247743 3.42449e-05 0.00102704
0.00299449 -0.000225409 0.000153692
-0.000225409 0.00143467 -2.65405e-05
0.000153692 -2.65405e-05 0.00134958
0.00186144 -7.26347e-05 -0.000103394
-7.26347e-05 0.000822055 1.49922e-05
-0.000103394 1.49922e-05 0.000787871
0.00664675 1.75533e-05 8.92968e-05
1.75533e-05 0.00380542 -4.22439e-06
8.92968e-05 -4.22439e-06 0.00378612
0.00208403 0.000366139 -3.86918e-07
0.000366139 7.92187e-05 -6.62574e-08
-3.86918e-07 -6.62574e-08 -3.15602e-05
0.00217871 0.000408465 -7.52711e-07
0.000408465 0.000232742 -4.0399e-07
-7.52711e-07 -4.0399e-07 6.8745e-05
0.00225344 0.000430746 -3.75346e-06
0.000430746 0.000211528 -1.48019e-07
-3.75346e-06 -1.48019e-07 6.55166e-05
0.00189268 0.000404856 -2.72564e-06
0.000404856 0.000214426 4.08836e-07
-2.72564e-06 4.08836e-07 -1.029e-05
0.00188923 0.000445761 -8.65887e-07
0.000445761 9.28889e-05 -2.18612e-06
-8.65887e-07 -2.18612e-06 -0.000102099
0.00211815 0.000416401 -4.71144e-06
0.000416401 0.000162289 -4.48459e-06
-4.71144e-06 -4.48459e-06 9.37662e-06
0.00111125 0.000280422 -1.96131e-05
0.000280422 6.69602e-06 -6.04719e-06
-1.96131e-05 -6.04719e-06 -0.000201915
0.00174795 0.000459855 1.00048e-06
0.000459855 0.00019055 3.92584e-07
1.00048e-06 3.92584e-07 -7.07668e-05
0.00225195 0.000582537 1.8175e-06
0.000582537 0.000349929 -4.11916e-06
1.8175e-06 -4.11916e-06 9.14925e-05
0.00160105 0.000486783 8.69917e-06
0.000486783 0.000200357 -3.08745e-08
8.69917e-06 -3.08745e-08 -9.51981e-05
0.000959417 0.000276621 -1.18272e-06
0.000276621 -1.66142e-05 -2.94977e-08
-1.18272e-06 -2.94977e-08 -0.000229547
0.000342042 0.000246542 -2.53642e-05
0.000246542 -0.000182855 -1.79339e-05
-2.53642e-05 -1.79339e-05 -0.000319322
0.000740651 0.000239655 1.31198e-05
0.000239655 -6.26492e-05 6.10303e-06
1.31198e-05 6.10303e-06 -0.000265823
0.000392755 0.000241478 2.08506e-06
0.000241478 -0.000132553 8.5327e-07
2.08506e-06 8.5327e-07 -0.000268792
0.00710233 2.93825e-05 -0.000282429
2.93825e-05 0.00413243 -3.37206e-05
-0.000282429 -3.37206e-05 0.00412397
0.00039908 0.000187983 2.44748e-05
0.000187983 -0.000129874 1.94402e-05
2.44748e-05 1.94402e-05 -0.000244267
0.00655725 -0.000101316 4.08195e-06
-0.000101316 0.00380638 -8.4766e-07
4.08195e-06 -8.4766e-07 0.00379639
0.00533298 -0.000197998 0.000150757
-0.000197998 0.00307642 1.01539e-05
0.000150757 1.01539e-05 0.00305105
0.00212982 0.000200433 -2.87905e-07
0.000200433 -1.28297e-05 -2.75493e-07
-2.87905e-07 -2.75493e-07 -1.81515e-06
0.00233678 0.000254511 -7.20417e-08
0.000254511 -5.40822e-05 5.50431e-07
-7.20417e-08 5.50431e-07 1.06396e-05
0.00216074 0.000227655 3.27103e-06
0.000227655 -0.000180125 -6.87076e-08
3.27103e-06 -6.87076e-08 -7.06554e-05
0.0021746 0.000366108 -3.43069e-07
0.000366108 4.1366e-05 8.37345e-08
-3.43069e-07 8.37345e-08 -2.65234e-05
0.00213006 0.00050805 3.08142e-07
0.00050805 0.000164407 -6.52328e-07
3.08142e-07 -6.52328e-07 -1.58993e-05
0.00231256 0.000384988 1.82256e-06
0.000384988 1.60734e-05 -2.21654e-07
1.82256e-06 -2.21654e-07 -5.69317e-06
0.00203427 6.29285e-05 -1.1235e-06
6.29285e-05 -6.26221e-06 2.58306e-07
-1.1235e-06 2.58306e-07 -3.48845e-06
0.00214632 6.26059e-05 3.08122e-07
6.26059e-05 -1.74808e-05 -1.13243e-07
3.08122e-07 -1.13243e-07 9.96851e-06
0.00220568 7.63947e-05 -1.17218e-06
7.63947e-05 -9.45129e-05 -2.59286e-07
-1.17218e-06 -2.59286e-07 -3.01648e-05
0.00200807 -1.08675e-05 -9.1199e-07
-1.08675e-05 2.41675e-06 4.68388e-08
-9.1199e-07 4.68388e-08 2.77362e-06
0.00200622 -3.70536e-05 -6.42432e-06
-3.70536e-05 4.61189e-05 5.34924e-07
-6.42432e-06 5.34924e-07 2.66403e-05
0.00212527 -7.54727e-05 -1.31925e-07
-7.54727e-05 -1.48189e-05 1.97072e-07
-1.31925e-07 1.97072e-07 1.3229e-05
0.00199929 -0.000107319 -1.45947e-06
-0.000107319 8.94541e-06 2.05336e-07
-1.45947e-06 2.05336e-07 -8.53467e-06
0.00195746 -0.000122532 -5.42916e-06
-0.000122532 2.47001e-05 7.45027e-07
-5.42916e-06 7.45027e-07 -2.8196e-05
0.00205156 -0.000193909 4.31874e-06
-0.000193909 2.19326e-05 -8.23595e-07
4.31874e-06 -8.23595e-07 1.41369e-07
0.00201551 -0.000195841 2.90809e-06
-0.000195841 7.20131e-05 -7.14238e-07
2.90809e-06 -7.14238e-07 -5.29864e-07
0.00184174 -0.000167714 1.66503e-06
-0.000167714 9.93106e-05 -9.83343e-07
1.66503e-06 -9.83343e-07 -2.68375e-05
0.00195279 -0.000269489 2.40763e-06
-0.000269489 5.46902e-05 -3.97133e-07
2.40763e-06 -3.97133e-07 -4.61594e-05
0.00185046 -0.000231557 -1.57095e-07
-0.000231557 0.000119673 -3.70183e-08
-1.57095e-07 -3.70183e-08 -2.64791e-05
0.00109631 -0.000137574 -1.25466e-05
-0.000137574 -5.08461e-05 2.68719e-06
-1.25466e-05 2.68719e-06 -0.000210385
0.00186384 -0.000289866 1.06396e-06
-0.000289866 0.000153966 2.5435e-07
1.06396e-06 2.5435e-07 -1.54869e-05
0.00112899 -0.000169975 -3.32341e-07
-0.000169975 -2.09522e-05 2.65835e-07
-3.32341e-07 2.65835e-07 -0.000191929
0.00264374 -0.000169221 -6.61923e-05
-0.000169221 0.00121272 9.64344e-06
-6.61923e-05 9.64344e-06 0.00112463
0.00115476 -0.000197745 1.37502e-05
-0.000197745 4.29558e-06 -4.56155e-06
1.37502e-05 -4.56155e-06 -0.000176018
0.0027768 -0.00016861 4.2505e-05
-0.00016861 0.00128918 -4.56244e-06
4.2505e-05 -4.56244e-06 0.00120746
0.00224271 -9.60912e-05 -0.000245485
-9.60912e-05 0.00104371 2.87058e-05
-0.000245485 2.87058e-05 0.00102637
0.00292223 -0.000189463 0.000150292
-0.000189463 0.00137777 -2.26344e-05
0.000150292 -2.26344e-05 0.0013015
0.00186447 -7.60081e-05 -9.36734e-05
-7.60081e-05 0.000818507 1.20216e-05
-9.36734e-05 1.20216e-05 0.000786865
0.00157362 -7.01254e-05 5.97336e-05
-7.01254e-05 0.000652979 -9.25716e-06
5.97336e-05 -9.25716e-06 0.00060254
0.00209549 0.000239856 -1.70046e-06
0.000239856 4.39854e-05 -3.99946e-07
-1.70046e-06 -3.99946e-07 -2.71337e-06
0.00211142 0.000334475 -2.26331e-06
0.000334475 0.000158372 5.42274e-07
-2.26331e-06 5.42274e-07 2.96667e-05
0.00211352 0.000370509 -3.71326e-07
0.000370509 7.80334e-05 -4.87764e-08
-3.71326e-07 -4.87764e-08 -2.52014e-05
0.00199475 0.000369584 1.5315e-07
0.000369584 0.000223918 7.74923e-07
1.5315e-07 7.74923e-07 3.16085e-05
0.00212153 0.000401784 -1.07767e-06
0.000401784 0.000205283 -5.55271e-07
-1.07767e-06 -5.55271e-07 4.0872e-05
0.00220866 0.000431434 8.67786e-07
0.000431434 0.000173347 2.61157e-08
8.67786e-07 2.61157e-08 2.52875e-05
0.00119036 0.000250932 -1.80324e-05
0.000250932 2.10796e-05 -5.75885e-06
-1.80324e-05 -5.75885e-06 -0.000172888
0.00183574 0.00040643 2.3044e-06
0.00040643 0.000171282 -7.59762e-08
2.3044e-06 -7.59762e-08 -4.9651e-05
0.00189455 0.000453234 -2.23263e-06
0.000453234 7.81566e-05 -4.37825e-06
-2.23263e-06 -4.37825e-06 -0.000113764
0.000314976 0.000187124 -2.26986e-05
0.000187124 -0.000224238 -1.49766e-05
-2.26986e-05 -1.49766e-05 -0.000348164
0.00106737 0.000274944 -8.24299e-07
0.000274944 -1.79983e-05 1.65256e-08
-8.24299e-07 1.65256e-08 -0.000225549
0.00169795 0.000456371 8.0677e-06
0.000456371 0.000157306 -9.76082e-07
8.0677e-06 -9.76082e-07 -0.000104305
0.000924433 0.000270153 1.71012e-05
0.000270153 -2.85946e-05 6.6569e-06
1.71012e-05 6.6569e-06 -0.000239679
0.000364511 0.000230012 5.0948e-07
0.000230012 -0.000166652 1.07472e-06
5.0948e-07 1.07472e-06 -0.000304406
0.0071799 0.000129808 -0.000293735
0.000129808 0.00416241 -3.79339e-05
-0.000293735 -3.79339e-05 0.0041569
0.000309474 0.00022301 2.21711e-05
0.00022301 -0.000181972 1.86206e-05
2.21711e-05 1.86206e-05 -0.000315895
0.0069635 -1.35765e-06 7.21894e-06
-1.35765e-06 0.00403338 4.0124e-08
7.21894e-06 4.0124e-08 0.00403244
0.0063297 -0.000132995 0.000210963
-0.000132995 0.0036623 1.22998e-05
0.000210963 1.22998e-05 0.00365203
0.00205338 0.00012682 -3.64699e-06
0.00012682 2.35075e-05 -8.78773e-07
-3.64699e-06 -8.78773e-07 1.80336e-05
0.0021372 0.000204749 7.87477e-07
0.000204749 -1.0081e-05 3.33502e-07
7.87477e-07 3.33502e-07 -9.55324e-07
0.00228888 0.000257955 -4.16115e-07
0.000257955 -8.6379e-05 -8.00775e-07
-4.16115e-07 -8.00775e-07 -2.00054e-05
0.00221804 0.000362315 2.40834e-06
0.000362315 7.29921e-05 1.37304e-07
2.40834e-06 1.37304e-07 8.55981e-06
0.00197291 1.73292e-05 -6.21715e-06
1.73292e-05 4.51261e-05 2.53259e-07
-6.21715e-06 2.53259e-07 1.38301e-05
0.00201824 5.3403e-05 -1.49722e-08
5.3403e-05 -1.4745e-05 5.39611e-08
-1.49722e-08 5.39611e-08 -1.26228e-05
0.0021292 5.72713e-05 -1.16354e-06
5.72713e-05 -2.48558e-05 -2.11155e-07
-1.16354e-06 -2.11155e-07 1.08278e-06
0.00199185 -8.44365e-06 5.48744e-07
-8.44365e-06 -1.01266e-05 -5.73534e-07
5.48744e-07 -5.73534e-07 -1.04752e-05
0.0020029 -3.12575e-05 -6.9406e-07
-3.12575e-05 4.08722e-05 -1.81616e-07
-6.9406e-07 -1.81616e-07 2.251e-05
0.00187998 -5.19817e-05 -4.1685e-06
-5.19817e-05 -9.32347e-06 2.17041e-07
-4.1685e-06 2.17041e-07 -6.54944e-05
0.00203093 -0.000107457 3.73819e-06
-0.000107457 3.48204e-05 -2.65383e-07
3.73819e-06 -2.65383e-07 1.42059e-05
0.00197077 -0.000123138 -2.14056e-06
-0.000123138 4.19499e-05 4.97358e-07
-2.14056e-06 4.97358e-07 -1.7794e-05
0.00188207 -0.000109419 -9.74723e-07
-0.000109419 0.000108039 -3.66531e-07
-9.74723e-07 -3.66531e-07 4.32982e-06
0.00196316 -0.000192874 6.51423e-06
-0.000192874 4.06994e-05 -1.33581e-06
6.51423e-06 -1.33581e-06 -3.14861e-05
0.00186906 -0.000166832 2.03926e-06
-0.000166832 0.000112164 -5.52281e-07
2.03926e-06 -5.52281e-07 -1.34322e-05
0.00110491 -0.000101927 -1.22506e-05
-0.000101927 -4.9059e-05 1.77831e-06
-1.22506e-05 1.77831e-06 -0.000196592
0.00190883 -0.000232328 1.01748e-06
-0.000232328 0.000155356 1.90028e-07
1.01748e-06 1.90028e-07 9.71242e-06
0.00111477 -0.000136843 -1.90164e-07
-0.000136843 -3.84803e-05 2.07915e-07
-1.90164e-07 2.07915e-07 -0.00019724
0.000414804 -8.97343e-05 -1.98821e-05
-8.97343e-05 -0.000198031 5.88236e-06
-1.98821e-05 5.88236e-06 -0.00029367
0.00117046 -0.000168689 1.31311e-05
-0.000168689 3.042e-06 -3.37903e-06
1.31311e-05 -3.37903e-06 -0.00016655
0.00158032 -0.000110696 6.26964e-05
-0.000110696 0.000533511 -4.75761e-06
6.26964e-05 -4.75761e-06 0.000449075
0.00655981 -0.00016299 -0.000326024
-0.00016299 0.0037572 2.41297e-05
-0.000326024 2.41297e-05 0.00377474
0.00287046 -0.00015255 0.000147485
-0.00015255 0.00133706 -1.78458e-05
0.000147485 -1.78458e-05 0.00126656
0.00186614 -7.49053e-05 -8.4925e-05
-7.49053e-05 0.000818728 7.81409e-06
-8.4925e-05 7.81409e-06 0.000787152
0.00149855 -9.636e-05 7.18706e-05
-9.636e-05 0.000610573 -1.10383e-05
7.18706e-05 -1.10383e-05 0.000558914
0.0020333 0.000170489 -3.92481e-06
0.000170489 4.51041e-05 -9.21646e-07
-3.92481e-06 -9.21646e-07 5.56086e-06
0.00215047 0.000258287 -1.33608e-06
0.000258287 0.000166478 7.06696e-07
-1.33608e-06 7.06696e-07 7.25594e-05
0.00208002 0.000233072 1.5251e-07
0.000233072 4.2426e-05 1.51322e-07
1.5251e-07 1.51322e-07 -8.90012e-06
0.00195531 0.00029547 1.57415e-08
0.00029547 0.000180491 1.37883e-06
1.57415e-08 1.37883e-06 2.21957e-05
0.00203483 0.000328973 1.11087e-06
0.000328973 0.00011368 1.63689e-07
1.11087e-06 1.63689e-07 -1.47829e-05
0.00214036 0.000375247 7.56711e-07
0.000375247 7.49604e-05 3.41263e-07
7.56711e-07 3.41263e-07 -2.09123e-05
0.00117103 0.00021978 -1.53514e-05
0.00021978 -1.17859e-05 -3.99263e-06
-1.53514e-05 -3.99263e-06 -0.000189471
0.00198969 0.000366549 2.28698e-06
0.000366549 0.000220134 6.42183e-07
2.28698e-06 6.42183e-07 2.89623e-05
0.00204698 0.00039387 -9.59899e-07
0.00039387 0.000167504 -1.72482e-06
-9.59899e-07 -1.72482e-06 2.81939e-06
0.000312668 0.000133525 -1.94777e-05
0.000133525 -0.000247136 -1.14999e-05
-1.94777e-05 -1.14999e-05 -0.000357265
0.00110471 0.000247216 3.52143e-07
0.000247216 -3.15698e-05 4.14949e-07
3.52143e-07 4.14949e-07 -0.000223984
0.00176324 0.000406522 6.86452e-06
0.000406522 0.000118268 -1.21912e-06
6.86452e-06 -1.21912e-06 -9.85836e-05
0.00698251 0.000205916 -0.000300726
0.000205916 0.0040261 -3.75199e-05
-0.000300726 -3.75199e-05 0.0040258
0.000293915 0.000180053 3.12279e-07
0.000180053 -0.000236981 8.12504e-07
3.12279e-07 8.12504e-07 -0.000361683
0.00105007 0.000269927 2.04002e-05
0.000269927 -2.34069e-05 6.88514e-06
2.04002e-05 6.88514e-06 -0.000229568
0.000303323 0.000211718 2.11886e-05
0.000211718 -0.00020031 1.76636e-05
2.11886e-05 1.76636e-05 -0.000338944
0.00706381 0.000120807 1.02256e-05
0.000120807 0.00408436 1.15144e-06
1.02256e-05 1.15144e-06 0.00408566
0.00683833 -3.54709e-05 0.000263202
-3.54709e-05 0.00394627 1.76834e-05
0.000263202 1.76834e-05 0.00395014
0.00194149 6.99832e-05 -8.11844e-06
6.99832e-05 2.22995e-05 -3.93264e-07
-8.11844e-06 -3.93264e-07 -1.23439e-05
0.00204286 0.000123519 1.42403e-07
0.000123519 1.69042e-05 7.0668e-09
1.42403e-07 7.0668e-09 1.07532e-05
0.00214744 0.000209208 7.81722e-07
0.000209208 -5.77811e-06 3.52365e-07
7.81722e-07 3.52365e-07 1.82579e-06
0.00192675 6.22992e-06 -4.92102e-06
6.22992e-06 3.75716e-05 -3.28495e-07
-4.92102e-06 -3.28495e-07 -2.41755e-05
0.00195832 2.23262e-05 2.66378e-07
2.23262e-05 3.31995e-05 7.44717e-08
2.66378e-07 7.44717e-08 4.57758e-06
0.00200401 4.28351e-05 4.46965e-07
4.28351e-05 -2.23385e-05 -2.70006e-07
4.46965e-07 -2.70006e-07 -2.07937e-05
0.00200286 -2.62057e-05 4.01277e-06
-2.62057e-05 3.72429e-05 -3.61249e-07
4.01277e-06 -3.61249e-07 2.05268e-05
0.00193234 -5.05595e-05 -1.50856e-06
-5.05595e-05 2.69532e-05 2.81877e-07
-1.50856e-06 2.81877e-07 -2.79322e-05
0.00185551 -5.07672e-05 1.06675e-06
-5.07672e-05 0.000103974 -5.95582e-07
1.06675e-06 -5.95582e-07 2.67223e-06
0.00200086 -0.000123792 6.49794e-07
-0.000123792 7.07075e-05 1.2268e-07
6.49794e-07 1.2268e-07 4.69013e-06
0.00187673 -0.000110793 4.88459e-07
-0.000110793 0.000109611 2.64094e-08
4.88459e-07 2.64094e-08 -9.15304e-07
0.00110258 -6.12265e-05 -1.26137e-05
-6.12265e-05 -5.30062e-05 8.62628e-07
-1.26137e-05 8.62628e-07 -0.000185372
0.00187279 -0.000167587 2.57011e-06
-0.000167587 0.000109531 -2.03562e-07
2.57011e-06 -2.03562e-07 -1.60048e-05
0.00110523 -9.78337e-05 -6.74939e-08
-9.78337e-05 -4.77865e-05 5.53729e-08
-6.74939e-08 5.53729e-08 -0.000194377
0.000422327 -2.38122e-05 -1.84626e-05
-2.38122e-05 -0.000196062 3.42876e-06
-1.84626e-05 3.42876e-06 -0.000285239
0.00115894 -0.000135767 1.24634e-05
-0.000135767 -1.18578e-05 -2.35251e-06
1.24634e-05 -2.35251e-06 -0.000169608
0.000418817 -7.44637e-05 -1.21553e-07
-7.44637e-05 -0.00019411 4.666e-07
-1.21553e-07 4.666e-07 -0.000290335
0.00647757 -5.41188e-05 -0.000315171
-5.41188e-05 0.00370041 1.49264e-05
-0.000315171 1.49264e-05 0.00372288
0.000462365 -7.65616e-05 1.45758e-05
-7.65616e-05 -0.000169812 -7.78658e-06
1.45758e-05 -7.78658e-06 -0.000271315
0.00411898 -0.000106315 0.000139668
-0.000106315 0.00223344 -7.24739e-06
0.000139668 -7.24739e-06 0.00221733
0.00144565 -8.90613e-05 7.7414e-05
-8.90613e-05 0.000577357 -1.07305e-05
7.7414e-05 -1.07305e-05 0.000526469
0.00203987 0.0001313 -7.96193e-06
0.0001313 8.18913e-05 -8.98076e-07
-7.96193e-06 -8.98076e-07 3.78409e-05
0.00209062 0.000190086 -1.96373e-06
0.000190086 0.000137316 8.10656e-07
-1.96373e-06 8.10656e-07 5.73891e-05
0.00201305 0.000164785 -5.9451e-07
0.000164785 3.32041e-05 -1.11613e-07
-5.9451e-07 -1.11613e-07 -5.6181e-06
0.00186358 0.00022523 -7.72157e-09
0.00022523 0.000115516 1.02538e-06
-7.72157e-09 1.02538e-06 -2.77078e-05
0.00209323 0.000255415 2.63649e-07
0.000255415 0.000126487 9.85601e-08
2.63649e-07 9.85601e-08 3.05069e-05
0.0020596 0.000226015 2.9675e-06
0.000226015 3.7692e-05 7.1042e-07
2.9675e-06 7.1042e-07 -1.8203e-05
0.00117007 0.000180089 -1.41446e-05
0.000180089 -1.62881e-05 -2.81844e-06
-1.41446e-05 -2.81844e-06 -0.000180064
0.0019085 0.000291907 1.81958e-06
0.000291907 0.000157514 6.91147e-07
1.81958e-06 6.91147e-07 -6.44907e-06
0.00196264 0.000323553 8.74578e-07
0.000323553 7.17378e-05 -6.43488e-07
8.74578e-07 -6.43488e-07 -5.63706e-05
0.000351375 9.52045e-05 -1.83797e-05
9.52045e-05 -0.000238485 -8.33242e-06
-1.83797e-05 -8.33242e-06 -0.000339548
0.0011317 0.000216364 -9.71278e-07
0.000216364 -3.44816e-05 2.86424e-07
-9.71278e-07 2.86424e-07 -0.000211576
0.00198392 0.000363729 4.6355e-06
0.000363729 0.000215864 4.92429e-07
4.6355e-06 4.92429e-07 2.57489e-05
0.00681121 0.000262219 -0.000316852
0.000262219 0.00392055 -3.61519e-05
-0.000316852 -3.61519e-05 0.00392202
0.000345214 0.000132447 -2.50488e-08
0.000132447 -0.000229923 4.17256e-07
-2.50488e-08 4.17256e-07 -0.000340471
0.00103065 0.000245245 1.7463e-05
0.000245245 -7.84367e-05 5.66502e-06
1.7463e-05 5.66502e-06 -0.00026962
0.00701563 0.000224234 1.36062e-05
0.000224234 0.00405373 3.68084e-06
1.36062e-05 3.68084e-06 0.00405145
0.000362626 0.000175317 2.01768e-05
0.000175317 -0.000196593 1.46747e-05
2.01768e-05 1.46747e-05 -0.000322451
0.00697592 8.32247e-05 0.000290152
8.32247e-05 0.00401555 2.56571e-05
0.000290152 2.56571e-05 0.00402488
0.00189136 5.2456e-05 -5.40902e-06
5.2456e-05 8.66333e-06 -2.79926e-07
-5.40902e-06 -2.79926e-07 -5.43733e-05
0.00197089 7.52058e-05 -8.47594e-07
7.52058e-05 4.86589e-05 -1.98099e-07
-8.47594e-07 -1.98099e-07 1.3235e-05
0.00203075 0.000120454 3.11956e-06
0.000120454 1.00016e-05 5.35245e-07
3.11956e-06 5.35245e-07 3.0761e-06
0.00186074 -5.45124e-06 1.65528e-06
-5.45124e-06 0.000113215 -5.64038e-07
1.65528e-06 -5.64038e-07 1.36555e-05
0.00193842 7.16093e-06 -1.96886e-06
7.16093e-06 4.40127e-05 2.67439e-07
-1.96886e-06 2.67439e-07 -1.51032e-05
0.00194118 2.85514e-05 7.05874e-06
2.85514e-05 1.96151e-05 -2.271e-08
7.05874e-06 -2.271e-08 -6.44274e-06
0.00197566 -4.91336e-05 9.00407e-07
-4.91336e-05 5.76764e-05 3.79396e-07
9.00407e-07 3.79396e-07 3.60022e-06
0.00188675 -5.02399e-05 2.68715e-06
-5.02399e-05 0.00012399 -1.35722e-07
2.68715e-06 -1.35722e-07 2.36651e-05
0.00107768 -2.56336e-05 -1.21615e-05
-2.56336e-05 -6.12586e-05 1.52667e-07
-1.21615e-05 1.52667e-07 -0.000187112
0.00186264 -0.000112244 9.13719e-08
-0.000112244 0.000105126 4.29659e-07
9.13719e-08 4.29659e-07 -1.24983e-05
0.00109113 -6.09889e-05 -1.5558e-07
-6.09889e-05 -5.8322e-05 -4.93579e-08
-1.5558e-07 -4.93579e-08 -0.000193301
0.000426235 -8.58062e-06 -1.86817e-05
-8.58062e-06 -0.000193519 2.14766e-06
-1.86817e-05 2.14766e-06 -0.000279191
0.0011051 -9.50213e-05 1.15688e-05
-9.50213e-05 -4.59431e-05 -1.69446e-06
1.15688e-05 -1.69446e-06 -0.000191758
0.000400344 -3.61119e-05 8.54773e-07
-3.61119e-05 -0.000209557 -2.85373e-07
8.54773e-07 -2.85373e-07 -0.00029805
0.00628602 -0.000149033 -0.000316925
-0.000149033 0.00359736 1.62012e-05
-0.000316925 1.62012e-05 0.00361393
0.000383388 -5.78785e-05 1.78273e-05
-5.78785e-05 -0.000215899 -4.43153e-06
1.78273e-05 -4.43153e-06 -0.000311552
0.00641348 -9.03395e-05 7.52477e-06
-9.03395e-05 0.0036638 9.65371e-10
7.52477e-06 9.65371e-10 0.00368559
0.00180248 -3.53052e-05 0.000246165
-3.53052e-05 0.000769776 -1.62395e-05
0.000246165 -1.62395e-05 0.000759724
0.00198236 0.000126247 -4.71981e-06
0.000126247 6.35901e-05 -2.54442e-07
-4.71981e-06 -2.54442e-07 -1.07512e-05
0.00199862 0.000132453 -2.09155e-06
0.000132453 4.76161e-05 -2.8649e-07
-2.09155e-06 -2.8649e-07 7.91435e-06
0.00184876 0.000161173 9.11307e-07
0.000161173 9.99039e-05 1.00247e-06
9.11307e-07 1.00247e-06 -2.51529e-05
0.00204119 0.000188821 8.86105e-07
0.000188821 0.000100131 9.36887e-08
8.86105e-07 9.36887e-08 1.99099e-05
0.00199309 0.000158954 4.79517e-06
0.000158954 2.07674e-05 6.0444e-07
4.79517e-06 6.0444e-07 -1.717e-05
0.00115803 0.000134415 -1.26831e-05
0.000134415 -1.58512e-05 -2.0601e-06
-1.26831e-05 -2.0601e-06 -0.000170624
0.00186381 0.000223863 1.7304e-07
0.000223863 0.000120004 6.4165e-08
1.7304e-07 6.4165e-08 -2.30994e-05
0.00203982 0.000252572 2.33268e-06
0.000252572 8.92795e-05 -6.04733e-07
2.33268e-06 -6.04733e-07 -8.8133e-06
0.000377114 6.97428e-05 -1.80131e-05
6.97428e-05 -0.000228022 -5.89786e-06
-1.80131e-05 -5.89786e-06 -0.000324363
0.00113058 0.000178837 -7.85357e-07
0.000178837 -3.85653e-05 3.15402e-07
-7.85357e-07 3.15402e-07 -0.000205131
0.00186691 0.00028842 2.58675e-06
0.00028842 0.000138348 3.6616e-07
2.58675e-06 3.6616e-07 -3.12715e-05
0.00667109 0.000276582 -0.000333467
0.000276582 0.0038432 -3.3644e-05
-0.000333467 -3.3644e-05 0.00384418
0.000368275 9.72943e-05 1.50429e-07
9.72943e-05 -0.000229652 2.17757e-07
1.50429e-07 2.17757e-07 -0.000331307
0.00106876 0.000211701 1.18098e-05
0.000211701 -7.21879e-05 4.23894e-06
1.18098e-05 4.23894e-06 -0.000248558
0.0068209 0.000286026 1.11853e-05
0.000286026 0.00393896 4.84249e-06
1.11853e-05 4.84249e-06 0.00393467
0.000365961 0.000129945 1.86906e-05
0.000129945 -0.000219947 1.1775e-05
1.86906e-05 1.1775e-05 -0.000330582
0.00697533 0.000225535 0.000318148
0.000225535 0.00402067 3.5789e-05
0.000318148 3.5789e-05 0.00402467
0.00183379 4.75667e-05 3.1369e-06
4.75667e-05 9.83017e-05 -1.48719e-07
3.1369e-06 -1.48719e-07 -4.18781e-06
0.00194111 5.30029e-05 -3.37303e-06
5.30029e-05 4.71226e-05 -9.33467e-08
-3.37303e-06 -9.33467e-08 -1.69382e-05
0.00199853 7.98519e-05 7.21153e-06
7.98519e-05 7.37707e-05 3.76489e-07
7.21153e-06 3.76489e-07 3.76691e-05
0.00106184 -1.00225e-05 -1.25582e-05
-1.00225e-05 -6.30521e-05 -1.67707e-07
-1.25582e-05 -1.67707e-07 -0.00018723
0.00187339 -7.82553e-07 3.07345e-06
-7.82553e-07 0.000122005 -1.07253e-07
3.07345e-06 -1.07253e-07 2.27573e-05
0.00193451 7.57027e-06 7.8382e-07
7.57027e-06 4.01348e-05 5.72165e-07
7.8382e-07 5.72165e-07 -1.64466e-05
0.00192439 -5.02353e-05 4.01362e-06
-5.02353e-05 0.000148332 2.45068e-07
4.01362e-06 2.45068e-07 4.90748e-05
0.00106799 -2.69296e-05 -2.78133e-08
-2.69296e-05 -6.96134e-05 -3.56881e-08
-2.78133e-08 -3.56881e-08 -0.000195727
0.000429344 -3.2372e-05 -1.92013e-05
-3.2372e-05 -0.000190241 9.0256e-07
-1.92013e-05 9.0256e-07 -0.000272548
0.00105304 -5.96977e-05 1.17555e-05
-5.96977e-05 -8.0121e-05 -1.2632e-06
1.17555e-05 -1.2632e-06 -0.000217751
0.000404661 2.84878e-06 3.85561e-07
2.84878e-06 -0.00020783 7.2034e-08
3.85561e-07 7.2034e-08 -0.000292355
0.00620154 -0.000119904 -0.000317212
-0.000119904 0.00354372 1.203e-05
-0.000317212 1.203e-05 0.00356326
0.000413975 -4.35986e-05 1.86271e-05
-4.35986e-05 -0.000198498 -3.14224e-06
1.86271e-05 -3.14224e-06 -0.000288136
0.00627694 -4.37792e-05 -3.09262e-06
-4.37792e-05 0.00357956 2.75104e-06
-3.09262e-06 2.75104e-06 0.00360359
0.00637103 -0.000104509 0.000315446
-0.000104509 0.00363865 -1.4395e-05
0.000315446 -1.4395e-05 0.00366055
0.00180426 0.000100898 9.12059e-07
0.000100898 7.44352e-05 4.67077e-07
9.12059e-07 4.67077e-07 -3.90596e-05
0.00197184 0.000124371 -3.49002e-06
0.000124371 4.95971e-05 -7.13416e-07
-3.49002e-06 -7.13416e-07 -1.91501e-05
0.00196196 0.000134205 5.90522e-06
0.000134205 1.67731e-05 5.52624e-07
5.90522e-06 5.52624e-07 -1.88166e-05
0.00114941 8.86375e-05 -1.21293e-05
8.86375e-05 -1.60576e-05 -1.40275e-06
-1.21293e-05 -1.40275e-06 -0.000158593
0.00185066 0.000159688 2.54325e-07
0.000159688 0.000104711 -1.18739e-07
2.54325e-07 -1.18739e-07 -2.03621e-05
0.00199017 0.000187462 2.24555e-06
0.000187462 6.2053e-05 -9.84639e-07
2.24555e-06 -9.84639e-07 -1.84924e-05
0.000400395 4.72023e-05 -1.73546e-05
4.72023e-05 -0.000212707 -4.16727e-06
-1.73546e-05 -4.16727e-06 -0.000305049
0.00112493 0.000136007 3.25e-07
0.000136007 -3.70199e-05 2.80145e-07
3.25e-07 2.80145e-07 -0.000193043
0.00186146 0.000222409 6.50712e-07
0.000222409 0.000122495 -8.65892e-07
6.50712e-07 -8.65892e-07 -2.04998e-05
0.00648952 0.00023237 -0.000341171
0.00023237 0.00373019 -2.75605e-05
-0.000341171 -2.75605e-05 0.00373828
0.000408244 7.58325e-05 5.71373e-07
7.58325e-05 -0.000208614 2.08166e-07
5.71373e-07 2.08166e-07 -0.000306189
0.00109511 0.000177685 1.203e-05
0.000177685 -5.88294e-05 3.57524e-06
1.203e-05 3.57524e-06 -0.000228101
0.00671184 0.000292452 5.72394e-06
0.000292452 0.00387401 3.41532e-06
5.72394e-06 3.41532e-06 0.00387267
0.000421001 0.000103062 1.80444e-05
0.000103062 -0.000197654 9.06978e-06
1.80444e-05 9.06978e-06 -0.000300559
0.00690043 0.000320596 0.000333153
0.000320596 0.0039958 4.23695e-05
0.000333153 4.23695e-05 0.0039876
0.00106397 2.53429e-05 -1.24277e-05
2.53429e-05 -5.58325e-05 -6.43157e-07
-1.24277e-05 -6.43157e-07 -0.000186505
0.0018334 4.49114e-05 3.33284e-06
4.49114e-05 9.60587e-05 3.60691e-08
3.33284e-06 3.60691e-08 -3.67195e-06
0.00197663 5.36209e-05 -7.13836e-07
5.36209e-05 7.57742e-05 4.27271e-07
-7.13836e-07 4.27271e-07 1.04837e-05
0.000467239 3.2076e-05 -1.97524e-05
3.2076e-05 -0.000174728 -8.56325e-07
-1.97524e-05 -8.56325e-07 -0.000248814
0.00103813 -4.39375e-06 -1.90269e-07
-4.39375e-06 -8.01177e-05 3.41335e-08
-1.90269e-07 3.41335e-08 -0.00020434
0.00189898 5.27493e-06 4.38182e-06
5.27493e-06 0.000139349 2.14791e-07
4.38182e-06 2.14791e-07 4.05758e-05
0.00105737 -2.77879e-05 1.21527e-05
-2.77879e-05 -7.87701e-05 -5.06817e-07
1.21527e-05 -5.06817e-07 -0.000205121
0.000426455 -5.7341e-06 4.2791e-07
-5.7341e-06 -0.000192198 3.79786e-07
4.2791e-07 3.79786e-07 -0.000274513
0.00610965 1.5579e-05 -0.000319887
1.5579e-05 0.00347922 1.47052e-06
-0.000319887 1.47052e-06 0.00350578
0.00038492 1.44533e-05 1.81585e-05
1.44533e-05 -0.000221756 -1.13018e-06
1.81585e-05 -1.13018e-06 -0.000304881
0.00616483 -0.000117687 -7.81605e-06
-0.000117687 0.00352248 1.98082e-06
-7.81605e-06 1.98082e-06 0.00354158
0.00620955 -2.57241e-05 0.000302774
-2.57241e-05 0.00353789 -7.55205e-06
0.000302774 -7.55205e-06 0.00356205
0.00111513 5.23375e-05 -1.22923e-05
5.23375e-05 -2.95934e-05 -1.2066e-06
-1.22923e-05 -1.2066e-06 -0.000163982
0.00183585 9.79477e-05 -3.53441e-07
9.79477e-05 9.35498e-05 -3.54422e-07
-3.53441e-07 -3.54422e-07 -1.54431e-05
0.00195494 0.000121945 -1.67559e-06
0.000121945 3.12972e-05 -1.14397e-06
-1.67559e-06 -1.14397e-06 -3.17657e-05
0.00269274 6.39379e-05 -0.000147676
6.39379e-05 0.00122152 -5.33825e-06
-0.000147676 -5.33825e-06 0.00116869
0.00110136 9.00619e-05 3.33667e-07
9.00619e-05 -4.65742e-05 1.25465e-07
3.33667e-07 1.25465e-07 -0.000190036
0.00185624 0.000158233 5.36309e-07
0.000158233 0.000111936 -1.11805e-06
5.36309e-07 -1.11805e-06 -1.31541e-05
0.00632688 0.000169207 -0.000338883
0.000169207 0.00362334 -1.96936e-05
-0.000338883 -1.96936e-05 0.0036403
0.000436524 6.67641e-05 9.51495e-07
6.67641e-05 -0.000187983 4.54205e-07
9.51495e-07 4.54205e-07 -0.000282447
0.00110589 0.000137961 1.26966e-05
0.000137961 -4.95212e-05 2.48066e-06
1.26966e-05 2.48066e-06 -0.000206755
0.00659106 0.000248523 1.07132e-06
0.000248523 0.00379456 1.59868e-06
1.07132e-06 1.59868e-06 0.00380129
0.000435161 8.40251e-05 1.81765e-05
8.40251e-05 -0.000190408 7.00703e-06
1.81765e-05 7.00703e-06 -0.000289865
0.00676485 0.000327534 0.000341641
0.000327534 0.00392021 4.19456e-05
0.000341641 4.19456e-05 0.00391183
0.000544497 1.20266e-05 -1.57192e-05
1.20266e-05 -0.000116142 -2.03062e-06
-1.57192e-05 -2.03062e-06 -0.000199567
0.00104022 2.48095e-05 2.07236e-07
2.48095e-05 -7.51627e-05 2.15081e-07
2.07236e-07 2.15081e-07 -0.000203616
0.00184574 4.11701e-05 4.00675e-06
4.11701e-05 0.00010219 -3.45155e-08
4.00675e-06 -3.45155e-08 5.39695e-06
0.00594835 -0.000101872 -0.000302435
-0.000101872 0.00339719 3.8778e-06
-0.000302435 3.8778e-06 0.0034127
0.000423563 9.58483e-06 -5.84302e-07
9.58483e-06 -0.000197541 -9.63543e-08
-5.84302e-07 -9.63543e-08 -0.000274288
0.00103556 -2.25444e-08 1.21026e-05
-2.25444e-08 -8.4139e-05 1.09356e-08
1.21026e-05 1.09356e-08 -0.000208334
0.000382344 2.08925e-05 1.84364e-05
2.08925e-05 -0.000221194 3.51287e-07
1.84364e-05 3.51287e-07 -0.000302325
0.00605045 -1.99692e-05 1.99621e-06
-1.99692e-05 0.00344858 -1.60934e-06
1.99621e-06 -1.60934e-06 0.0034705
0.00615441 -3.98031e-05 0.00030865
-3.98031e-05 0.00350403 -5.25174e-06
0.00030865 -5.25174e-06 0.00352919
0.00277792 1.67285e-05 -0.000141846
1.67285e-05 0.00127376 -3.05971e-06
-0.000141846 -3.05971e-06 0.00122457
0.00108886 5.54576e-05 7.96238e-08
5.54576e-05 -4.74263e-05 -2.4091e-08
7.96238e-08 -2.4091e-08 -0.000182528
0.00186841 9.52476e-05 9.5456e-07
9.52476e-05 0.000113587 -7.95144e-07
9.5456e-07 -7.95144e-07 9.09158e-06
0.005813 -3.38432e-05 -0.000132556
-3.38432e-05 0.00331549 2.91475e-07
-0.000132556 2.91475e-07 0.00330416
0.000441234 5.87938e-05 1.45701e-07
5.87938e-05 -0.00018334 2.46449e-07
1.45701e-07 2.46449e-07 -0.000271929
0.00106821 9.21039e-05 1.21236e-05
9.21039e-05 -6.8436e-05 1.59636e-06
1.21236e-05 1.59636e-06 -0.000212778
0.00640911 0.000145324 -1.04278e-05
0.000145324 0.00366889 -1.77369e-06
-1.04278e-05 -1.77369e-06 0.00368714
0.000455437 8.94517e-05 1.96534e-05
8.94517e-05 -0.000175273 5.88037e-06
1.96534e-05 5.88037e-06 -0.000270853
0.00664925 0.000272311 0.00034844
0.000272311 0.00383704 3.56064e-05
0.00034844 3.56064e-05 0.00384108
0.00180088 -5.36923e-05 -0.000240428
-5.36923e-05 0.000771453 1.31516e-06
-0.000240428 1.31516e-06 0.0007709
0.00159951 3.15419e-05 -6.08985e-05
3.15419e-05 0.000535863 9.98065e-08
-6.08985e-05 9.98065e-08 0.000474841
0.00101171 2.68989e-05 1.26624e-05
2.68989e-05 -9.69417e-05 7.27729e-07
1.26624e-05 7.27729e-07 -0.00022325
0.00602744 -4.85398e-05 6.8761e-06
-4.85398e-05 0.00343976 2.62892e-06
6.8761e-06 2.62892e-06 0.0034608
0.000439951 -1.16134e-05 1.90674e-05
-1.16134e-05 -0.00018082 8.61823e-07
1.90674e-05 8.61823e-07 -0.000261524
0.00609111 -8.31228e-05 0.00032115
-8.31228e-05 0.00347764 -4.93685e-06
0.00032115 -4.93685e-06 0.00349925
0.00136198 2.25197e-05 -6.23647e-05
2.25197e-05 0.000524959 -1.13577e-06
-6.23647e-05 -1.13577e-06 0.000486222
0.00159098 1.91572e-05 -6.17537e-05
1.91572e-05 0.000533015 -1.40913e-06
-6.17537e-05 -1.40913e-06 0.000467465
0.00105376 5.71002e-05 1.22075e-05
5.71002e-05 -7.05813e-05 1.1549e-06
1.22075e-05 1.1549e-06 -0.000206414
0.00383746 6.88846e-05 0.000119906
6.88846e-05 0.00206125 3.59819e-06
0.000119906 3.59819e-06 0.00205377
0.000453742 6.92006e-05 1.99199e-05
6.92006e-05 -0.000175607 4.48274e-06
1.99199e-05 4.48274e-06 -0.000264152
0.0065017 0.000133267 0.000332348
0.000133267 0.00371839 2.13584e-05
0.000332348 2.13584e-05 0.00374049
0.00598186 -1.98609e-05 -8.86178e-06
-1.98609e-05 0.00341461 -3.19783e-06
-8.86178e-06 -3.19783e-06 0.00343436
0.000434925 5.05644e-05 2.06904e-05
5.05644e-05 -0.000195263 2.57117e-06
2.06904e-05 2.57117e-06 -0.00026898
0.0059391 3.69009e-05 0.00030921
3.69009e-05 0.00338029 2.31429e-07
0.00030921 2.31429e-07 0.00340504
0.00371309 3.25409e-05 0.000131619
3.25409e-05 0.00198876 5.16499e-06
0.000131619 5.16499e-06 0.00198338
0.000464779 9.24815e-06 1.90564e-05
9.24815e-06 -0.000168087 2.73125e-06
1.90564e-05 2.73125e-06 -0.000250651
0.00626755 2.04775e-06 0.00031833
2.04775e-06 0.00357436 9.49364e-06
0.00031833 9.49364e-06 0.00359824
0.00603507 -0.000118182 0.000307374
-0.000118182 0.00345182 -4.24754e-06
0.000307374 -4.24754e-06 0.00346721
0.00606175 9.77743e-06 0.000310346
9.77743e-06 0.00344706 5.49227e-06
0.000310346 5.49227e-06 0.00347396
