# vtk DataFile Version 2.0
Wound Healing Simulation
ASCII
DATASET UNSTRUCTURED_GRID
POINTS 3012 float
69.9759 18.75 4
67.2507 60.3285 4
69.976 18.75 2
73.0099 25.446 4
71.1327 20.9142 4
68.6801 16.6661 4
67.821 19.9261 3.97252
67.2507 60.3286 2
71.1327 54.0858 4
68.6801 58.3339 4
65.6939 62.2254 4
65.3078 58.9988 3.97119
74.6784 42.3946 4
73.7221 47.2057 4
69.9759 18.75 0
73.0099 25.446 2
68.6801 16.6661 2
71.1327 20.9142 2
67.8215 19.9299 2
74.6792 32.6053 4
73.7222 27.7943 4
72.1454 23.1494 4
70.611 26.2217 3.97263
68.8815 21.9577 3.97277
67.2507 14.6715 4
66.6322 17.9732 3.97129
65.7396 21.0455 3.96171
67.2507 60.3285 0
71.1327 54.0858 2
68.6801 58.3339 2
65.694 62.2255 2
65.3093 58.994 2
72.1454 51.8506 4
69.9759 56.25 4
68.8318 53.1144 3.97261
64.0165 64.0165 4
66.6059 57.1329 3.97239
63.8802 60.7617 3.96756
63.4701 57.7555 3.96064
60.3285 67.2507 4
74.6792 42.3947 2
73.7222 47.2057 2
74.9194 39.9526 4
74.2788 44.8158 4
72.1657 42.086 3.97433
73.0099 49.554 4
71.2462 46.5985 3.97272
73.0099 25.446 0
71.1327 20.9142 0
68.6801 16.6661 0
67.821 19.9261 0.0274799
74.6792 32.6053 2
73.7222 27.7943 2
67.2508 14.6715 2
72.1455 23.1494 2
70.6103 26.2228 2
66.6332 17.9775 2
68.8815 21.9605 2
65.7388 21.0466 2
74.9197 35.0474 4
74.2794 30.1841 4
72.1825 32.945 3.97454
71.2755 28.4328 3.97281
69.8119 24.0596 3.97278
68.3163 26.9626 3.96423
66.7099 22.9507 3.96261
65.694 12.7746 4
65.3189 16.1063 3.97012
64.656 19.2174 3.96045
63.7129 22.1038 3.96454
71.1327 54.0858 0
65.6939 62.2254 0
68.6801 58.3339 0
65.3078 58.9988 0.028808
72.1455 51.8506 2
69.9759 56.25 2
68.832 53.1111 2
64.0165 64.0165 2
66.6071 57.128 2
63.8812 60.7565 2
63.461 57.7536 2
62.2254 65.694 4
58.8903 65.4114 3.97896
69.7649 50.9902 3.97257
67.7789 55.1679 3.97277
66.5866 52.1925 3.9628
62.3312 62.4234 3.97302
64.6073 56.0138 3.96153
62.189 59.3857 3.96001
61.6853 56.6175 3.96042
58.3339 68.6801 4
60.3285 67.2508 2
73.7221 47.2057 0
74.6784 42.3946 0
74.9197 39.9526 2
74.2794 44.8159 2
72.1647 42.0852 2
73.0099 49.554 2
71.2454 46.5972 2
75 37.5 4
72.403 39.8028 3.97529
71.7797 44.3532 3.97384
69.7911 41.7881 3.96614
70.5716 48.8144 3.97255
68.8817 46.0079 3.96552
74.6792 32.6053 0
73.7222 27.7943 0
67.2507 14.6715 0
72.1454 23.1494 0
70.611 26.2217 0.0273699
68.8815 21.9577 0.0272309
66.6322 17.9732 0.0287127
65.7396 21.0455 0.0382861
74.9197 35.0474 2
74.2794 30.1841 2
72.1813 32.9449 2
71.2745 28.4334 2
65.694 12.7745 2
65.3197 16.1111 2
69.8115 24.0614 2
68.3201 26.9632 2
64.6501 19.219 2
66.7116 22.9517 2
63.7126 22.1044 2
72.4109 35.2255 3.97537
71.8014 30.678 3.974
69.8304 33.2738 3.96576
68.9448 29.0469 3.96462
67.5675 24.9265 3.9634
66.012 27.685 3.97183
64.0165 10.9835 4
64.5739 23.8943 3.96696
63.8837 14.3323 3.96629
63.4737 17.4691 3.95835
62.7379 20.394 3.96206
61.7928 23.0622 3.97064
60.6798 11.1032 3.9741
57.6038 11.4853 3.96421
72.1454 51.8506 0
69.9759 56.25 0
68.8318 53.1144 0.0273891
64.0165 64.0165 0
63.8802 60.7617 0.032438
66.6059 57.1329 0.027606
63.4701 57.7555 0.0393645
62.2255 65.694 2
58.8929 65.4061 2
69.7647 50.9879 2
67.7797 55.1637 2
66.5878 52.1913 2
62.333 62.4167 2
64.602 56.0121 2
62.1843 59.3855 2
61.6826 56.6178 2
60.6647 63.9725 3.97636
57.0209 66.7318 3.98095
57.5488 63.6626 3.97112
67.4498 50.1624 3.96369
65.6417 54.1559 3.96205
64.3294 51.3209 3.96763
60.7652 60.9116 3.96617
62.6557 55.0033 3.96343
60.5508 58.0965 3.9568
60.1007 55.6814 3.96586
56.25 69.9759 4
58.3339 68.6801 2
60.3285 67.2507 0
58.9173 9.66025 3.97639
62.2254 9.30607 4
73.0099 49.554 0
74.2788 44.8158 0
71.2462 46.5985 0.0272792
72.1657 42.086 0.0256727
74.9194 39.9526 0
75 37.5 2
72.4025 39.8024 2
71.7792 44.3521 2
69.7931 41.7877 2
70.5711 48.8128 2
68.8861 46.0074 2
72.4865 37.513 3.97509
70.0328 39.6577 3.96632
69.4128 43.9038 3.96591
67.4395 41.4821 3.97588
68.2204 48.0964 3.96484
66.5217 45.4022 3.97476
74.9197 35.0474 0
74.2794 30.1841 0
72.1825 32.945 0.0254594
71.2755 28.4328 0.0271908
65.694 12.7746 0
65.3189 16.1063 0.0298814
69.8119 24.0596 0.0272173
68.3163 26.9626 0.0357728
66.7099 22.9507 0.0373936
64.656 19.2174 0.0395489
63.7129 22.1038 0.035462
72.4105 35.2251 2
71.8008 30.6784 2
69.8318 33.2742 2
68.9494 29.0473 2
64.0165 10.9835 2
63.8848 14.3381 2
63.4697 17.469 2
67.5704 24.9273 2
66.0099 27.6863 2
62.7402 20.3937 2
64.5726 23.8953 2
61.7905 23.0629 2
60.6822 11.1084 2
57.603 11.4774 2
70.0505 35.3958 3.96621
69.4525 31.1565 3.96486
67.511 33.6107 3.97521
66.6065 29.6628 3.97414
65.3357 25.7581 3.96928
63.8027 28.3496 3.97557
62.3362 12.6603 3.97138
62.539 24.7493 3.97346
62.1819 15.8079 3.95947
61.6542 18.7631 3.9593
60.9329 21.4676 3.96681
60.0135 23.8938 3.97382
59.237 12.8192 3.96263
55.8664 10.2707 3.97342
56.3898 13.1884 3.96518
69.7649 50.9902 0.0274267
62.2254 65.694 0
58.8903 65.4114 0.0210435
67.7789 55.1679 0.0272294
66.5866 52.1925 0.0371963
62.3312 62.4234 0.0269798
62.189 59.3857 0.039989
64.6073 56.0138 0.0384749
61.6853 56.6175 0.0395784
60.6676 63.9684 2
57.0242 66.7276 2
57.5504 63.6684 2
67.4518 50.1614 2
65.6401 54.1543 2
64.3272 51.32 2
60.7613 60.9124 2
62.6557 55.0037 2
60.544 58.0964 2
60.1002 55.6818 2
55.0669 67.93 3.98447
59.2116 62.3279 3.96583
55.7938 64.8757 3.97167
56.3154 62.0327 3.97847
65.1136 49.349 3.96977
63.5124 53.2258 3.9653
62.0763 50.5388 3.97234
59.2762 59.5014 3.95682
60.7992 54.1996 3.96894
59.0621 56.8987 3.96041
58.9373 55.0498 3.96954
48.0987 68.57 3.98071
50.9448 69.9306 3.98747
54.0858 71.1327 4
56.25 69.976 2
58.3339 68.6801 0
57.054 8.33994 3.97658
60.3285 7.74928 4
58.9198 9.66601 2
62.2255 9.30602 2
70.5716 48.8144 0.0274501
71.7797 44.3532 0.0261632
68.8817 46.0079 0.0344761
69.7911 41.7881 0.033862
72.403 39.8028 0.0247112
75 37.5 0
72.4855 37.5126 2
70.0339 39.6575 2
69.4148 43.9032 2
67.4361 41.4813 2
68.2223 48.0954 2
66.5182 45.4009 2
70.1212 37.5237 3.96643
67.6874 39.5066 3.97569
67.051 43.4437 3.97553
65.2235 41.1813 3.97675
65.8586 47.3686 3.97241
64.2838 44.778 3.9758
72.4109 35.2255 0.0246323
71.8014 30.678 0.0259984
69.8304 33.2738 0.034243
68.9448 29.0469 0.0353755
64.0165 10.9835 0
63.8837 14.3323 0.0337079
63.4737 17.4691 0.0416452
67.5675 24.9265 0.0366005
66.012 27.685 0.02817
64.5739 23.8943 0.0330358
62.7379 20.394 0.0379393
61.7928 23.0622 0.0293625
60.6798 11.1032 0.0258999
57.6038 11.4853 0.035792
70.0508 35.3959 2
69.4553 31.1568 2
67.5087 33.6114 2
66.6047 29.6639 2
62.3382 12.6666 2
62.1787 15.8075 2
61.6584 18.7622 2
65.3338 25.7592 2
63.8006 28.3502 2
60.931 21.4679 2
62.5372 24.75 2
60.0128 23.8941 2
59.2355 12.817 2
56.3891 13.1843 2
55.8666 10.278 2
67.7316 35.5587 3.97533
67.1152 31.6518 3.97497
65.3843 33.9616 3.9768
64.3178 30.2689 3.97553
63.2076 26.5184 3.97521
61.7783 28.9046 3.97529
60.7646 14.254 3.96279
60.6028 25.5003 3.97506
60.5079 17.1998 3.95629
59.9396 19.9522 3.96223
59.2589 22.4341 3.9698
58.4735 24.5296 3.9742
54.0298 9.16876 3.96889
57.882 14.3972 3.9573
54.7756 12.0802 3.96878
55.2743 14.7491 3.95622
67.4498 50.1624 0.0363145
57.0209 66.7318 0.0190527
60.6647 63.9725 0.0236425
57.5488 63.6626 0.0288813
65.6417 54.1559 0.0379523
64.3294 51.3209 0.0323712
60.7652 60.9116 0.0338289
60.5508 58.0965 0.0431978
62.6557 55.0033 0.0365664
60.1007 55.6814 0.0341395
55.0706 67.9266 2
59.2099 62.3316 2
55.796 64.875 2
56.3139 62.0339 2
65.111 49.3479 2
63.511 53.2254 2
62.0749 50.5383 2
59.2894 59.5094 2
60.7993 54.1999 2
59.0711 56.9016 2
58.9457 55.0518 2
53.0386 68.9977 3.98496
53.9599 65.9996 3.97203
57.8544 60.817 3.96171
54.6612 63.1397 3.96527
55.1841 60.5482 3.97575
62.8156 48.5558 3.97459
61.4157 52.4615 3.97067
59.7624 49.8561 3.97308
57.8605 58.1645 3.95729
58.9656 53.8026 3.97173
57.7721 55.6567 3.96284
50.1044 67.8474 3.97804
47.4572 66.5645 3.97571
46.053 69.1511 3.98309
48.1008 68.5699 2
48.7989 70.7218 3.9887
50.9479 69.9286 2
51.8506 72.1454 4
54.0858 71.1327 2
56.25 69.9759 0
55.0988 7.14391 3.98206
58.3339 6.31992 4
57.0577 8.34641 2
60.3286 7.74926 2
58.9173 9.66025 0.0236091
62.2254 9.30607 0
68.2204 48.0964 0.0351565
69.4128 43.9038 0.0340947
66.5217 45.4022 0.0252353
67.4395 41.4821 0.0241151
70.0328 39.6577 0.033681
72.4865 37.513 0.0249058
70.1218 37.5237 2
67.6841 39.5061 2
67.0486 43.4427 2
65.2214 41.1805 2
65.8561 47.3674 2
64.2816 44.7773 2
67.791 37.5249 3.97548
65.4662 39.3576 3.97687
64.8287 42.9752 3.97654
63.2941 40.8881 3.97669
63.583 46.6242 3.97516
62.2926 44.125 3.97585
70.0505 35.3958 0.0337859
69.4525 31.1565 0.0351376
67.511 33.6107 0.0247902
66.6065 29.6628 0.0258584
62.3362 12.6603 0.0286222
62.1819 15.8079 0.0405273
61.6542 18.7631 0.0406998
65.3357 25.7581 0.0307238
63.8027 28.3496 0.0244321
62.539 24.7493 0.0265364
60.9329 21.4676 0.033189
60.0135 23.8938 0.0261825
59.237 12.8192 0.0373719
56.3898 13.1884 0.0348198
55.8664 10.2707 0.0265811
67.7286 35.559 2
67.1137 31.6527 2
65.3819 33.9624 2
64.316 30.2698 2
60.7616 14.2536 2
60.5004 17.2014 2
59.9351 19.9528 2
63.2062 26.5191 2
61.7778 28.9047 2
59.2621 22.4334 2
60.602 25.5006 2
58.4713 24.5317 2
57.8849 14.3954 2
55.2699 14.7391 2
54.0332 9.16376 2
54.7693 12.087 2
65.5663 35.6861 3.97679
64.8487 32.2073 3.97626
63.8715 34.2914 3.97654
62.0966 30.7359 3.97568
61.185 27.219 3.97509
60.269 29.2917 3.97578
59.2467 15.7369 3.95566
58.7779 26.0047 3.97546
58.9039 18.485 3.95901
58.3544 21.0379 3.96412
57.7966 23.3088 3.97057
57.416 24.9007 3.9757
52.1072 8.16561 3.97063
53.0399 11.0877 3.96531
56.6159 15.8431 3.95576
53.792 13.7714 3.97637
54.2926 16.128 3.95631
55.0669 67.93 0.015527
65.1136 49.349 0.0302282
55.7938 64.8757 0.0283278
59.2116 62.3279 0.0341714
56.3154 62.0327 0.0215328
63.5124 53.2258 0.0346987
62.0763 50.5388 0.0276646
59.2762 59.5014 0.0431785
59.0621 56.8987 0.039593
60.7992 54.1996 0.0310594
58.9373 55.0498 0.0304642
53.0422 68.9956 2
53.962 65.9976 2
57.8561 60.8197 2
54.66 63.1408 2
55.1825 60.5488 2
62.8142 48.5551 2
61.4153 52.4614 2
59.7633 49.8558 2
57.8665 58.168 2
58.9709 53.8036 2
57.7696 55.6556 2
52.0642 66.9865 3.97522
52.9373 64.1754 3.97289
56.5744 59.4122 3.95655
53.639 61.5279 3.97051
54.1992 59.2319 3.96313
60.4426 47.725 3.97425
59.2627 51.9473 3.97218
57.4007 49.4052 3.97467
56.5494 56.8557 3.96138
56.6535 53.9312 3.96711
50.1066 67.8455 2
49.3283 65.8937 3.97542
47.4594 66.5593 2
46.8826 64.6966 3.97698
45.5551 67.0829 3.97857
43.971 69.5836 3.98421
46.0555 69.1511 2
46.6059 71.3664 3.99015
48.0987 68.57 0.019293
48.8019 70.721 2
49.554 73.0099 4
50.9448 69.9306 0.0125284
51.8506 72.1455 2
54.0858 71.1327 0
53.0617 6.07429 3.98665
55.1031 7.14599 2
56.25 5.02411 4
58.3339 6.3199 2
57.054 8.33994 0.0234163
60.3285 7.74928 0
65.8586 47.3686 0.0275894
67.051 43.4437 0.0244745
64.2838 44.778 0.0241978
65.2235 41.1813 0.0232516
67.6874 39.5066 0.0243091
70.1212 37.5237 0.0335721
67.7883 37.5249 2
65.4641 39.3573 2
64.8262 42.9741 2
63.2938 40.8874 2
63.5812 46.6233 2
62.292 44.1248 2
65.5766 37.5054 3.97679
63.4455 39.2496 3.97657
62.8402 42.4892 3.9763
61.8661 40.6493 3.9766
61.4289 45.7939 3.97542
60.8204 43.58 3.97615
67.7316 35.5587 0.0246702
67.1152 31.6518 0.0250331
65.3843 33.9616 0.0232039
64.3178 30.2689 0.0244727
60.7646 14.254 0.0372091
60.5079 17.1998 0.0437111
59.9396 19.9522 0.0377653
63.2076 26.5184 0.0247869
61.7783 28.9046 0.0247102
60.6028 25.5003 0.0249387
59.2589 22.4341 0.0301967
58.4735 24.5296 0.0257988
57.882 14.3972 0.0427001
55.2743 14.7491 0.0437795
54.0298 9.16876 0.0311064
54.7756 12.0802 0.0312182
65.564 35.6864 2
64.8466 32.2083 2
63.8716 34.2919 2
62.0964 30.7362 2
59.2606 15.7322 2
58.9026 18.4839 2
58.3531 21.0384 2
61.1841 27.2193 2
60.2699 29.2919 2
57.7935 23.3114 2
58.7757 26.0054 2
57.4154 24.9036 2
56.5846 15.8475 2
54.2905 16.1138 2
53.7785 13.7666 2
52.1096 8.16851 2
53.0431 11.0814 2
63.6567 35.6586 3.97643
62.4259 33.1162 3.97615
59.9757 30.7508 3.9756
58.9484 28.1002 3.97534
57.7941 17.1003 3.95659
57.1064 25.9799 3.9755
57.3846 19.6561 3.95907
56.8824 22.0705 3.96433
56.6127 24.2002 3.97264
50.1081 7.29524 3.98005
51.2192 10.1697 3.96958
52.1385 12.9007 3.96618
55.4024 17.1103 3.95602
52.9234 15.3714 3.95873
53.6346 17.1292 3.95662
53.0386 68.9977 0.0150395
53.9599 65.9996 0.0279667
62.8156 48.5558 0.0254075
54.6612 63.1397 0.034733
57.8544 60.817 0.0382931
55.1841 60.5482 0.0242472
61.4157 52.4615 0.0293335
59.7624 49.8561 0.0269224
57.8605 58.1645 0.0427059
57.7721 55.6567 0.0371576
58.9656 53.8026 0.0282654
52.0665 66.9853 2
52.9372 64.1759 2
56.5727 59.4129 2
53.6373 61.5275 2
54.1946 59.2337 2
60.4425 47.7244 2
59.2653 51.9474 2
57.402 49.4049 2
56.5462 56.8593 2
56.6517 53.9301 2
51.1566 65.1021 3.97296
52.0139 62.4681 3.96837
55.3473 58.1433 3.96094
52.7569 60.0189 3.96414
53.5428 58.3639 3.96175
57.5474 46.6345 3.97522
57.0091 51.5828 3.9719
55.5337 49.3065 3.97388
55.1771 55.6312 3.96198
54.8265 53.1682 3.96221
50.1044 67.8474 0.0219585
49.3293 65.8988 2
48.6035 64.0868 3.97859
47.4572 66.5645 0.024292
45.5565 67.0855 2
46.8831 64.6985 2
46.3656 63.0016 3.98227
45.1255 65.1723 3.97913
43.6296 67.4565 3.98044
41.8588 69.8705 3.9841
43.9725 69.5836 2
44.3736 71.8611 3.99054
46.053 69.1511 0.0169093
46.6081 71.366 2
47.2057 73.7222 4
48.7989 70.7218 0.0112981
49.554 73.0099 2
51.8506 72.1454 0
50.9529 5.13444 3.98896
53.0647 6.07606 2
54.0858 3.86728 4
55.0988 7.14391 0.017941
56.25 5.02406 2
58.3339 6.31992 0
63.583 46.6242 0.0248374
64.8287 42.9752 0.0234598
62.2926 44.125 0.0241542
63.2941 40.8881 0.0233124
65.4662 39.3576 0.0231274
67.791 37.5249 0.0245208
65.5746 37.5055 2
63.4455 39.2495 2
62.8406 42.4884 2
61.8664 40.6487 2
61.4283 45.7934 2
60.8207 43.5798 2
63.5101 37.461 3.97651
61.5691 39.3276 3.97684
60.5656 41.8755 3.97675
59.5503 44.6219 3.97556
65.5663 35.6861 0.0232147
64.8487 32.2073 0.023738
63.8715 34.2914 0.0234638
62.0966 30.7359 0.0243154
59.2467 15.7369 0.0443417
58.9039 18.485 0.0409945
58.3544 21.0379 0.0358788
61.185 27.219 0.0249083
60.269 29.2917 0.0242182
58.7779 26.0047 0.024536
57.7966 23.3088 0.0294292
57.416 24.9007 0.0242977
56.6159 15.8431 0.0442409
54.2926 16.128 0.0436853
53.792 13.7714 0.0236287
52.1072 8.16561 0.029373
53.0399 11.0877 0.0346864
63.6569 35.6588 2
62.427 33.1171 2
59.9768 30.7512 2
57.8006 17.0962 2
57.3942 19.6525 2
56.8819 22.0732 2
58.9491 28.0994 2
56.6209 24.2021 2
57.1066 25.9784 2
50.1115 7.29236 2
55.3994 17.113 2
53.6381 17.12 2
52.9133 15.3757 2
52.1482 12.8958 2
51.2208 10.167 2
61.6118 35.3976 3.97654
59.5876 32.8497 3.97591
57.8544 30.2612 3.97528
56.5636 27.6318 3.97575
56.4218 18.3133 3.95775
55.6214 25.3913 3.97476
55.9539 20.7414 3.95771
55.5416 23.1382 3.96523
48.0548 6.53497 3.98308
49.3163 9.35901 3.97421
50.4081 12.0731 3.96752
51.3193 14.6182 3.96588
54.2352 18.0926 3.96025
52.259 17.2026 3.95426
52.0642 66.9865 0.0247802
52.9373 64.1754 0.0271111
60.4426 47.725 0.025754
53.639 61.5279 0.0294942
56.5744 59.4122 0.0434469
54.1992 59.2319 0.0368748
59.2627 51.9473 0.027817
57.4007 49.4052 0.0253262
56.5494 56.8557 0.0386248
56.6535 53.9312 0.0328934
51.1568 65.0995 2
52.0132 62.4714 2
55.3436 58.1433 2
52.7559 60.0211 2
53.5397 58.3667 2
57.5474 46.6335 2
57.0079 51.5818 2
55.5327 49.3057 2
55.1764 55.6317 2
54.825 53.1679 2
50.3244 63.3437 3.9739
51.1826 60.8386 3.97297
54.045 57.1402 3.96588
52.1639 58.5018 3.96592
55.7364 43.9766 3.9757
54.6435 47.6198 3.97532
54.3686 51.1345 3.96551
53.6254 54.3571 3.96439
49.3283 65.8937 0.0245833
48.6022 64.0907 2
47.9358 62.4341 3.98735
45.5551 67.0829 0.0214307
46.8826 64.6966 0.023023
43.6304 67.4566 2
46.3657 63.0067 2
45.1274 65.1679 2
45.9607 61.5293 3.99371
44.7562 63.4055 3.9757
43.3546 65.487 3.97802
41.6626 67.6746 3.97943
39.7013 70.0171 3.98357
41.86 69.8712 2
42.1086 72.205 3.99092
43.971 69.5836 0.0157907
44.3754 71.8605 2
44.8159 74.2794 4
46.6059 71.3664 0.00985465
47.2057 73.7222 2
49.554 73.0099 0
48.7843 4.32455 3.98967
50.9551 5.13425 2
51.8506 2.85458 4
53.0617 6.07429 0.0133531
54.0858 3.86728 2
56.25 5.02411 0
61.4289 45.7939 0.0245816
62.8402 42.4892 0.0237022
60.8204 43.58 0.0238519
61.8661 40.6493 0.0234048
63.4455 39.2496 0.0234254
65.5766 37.5054 0.0232082
63.5105 37.4611 2
61.5691 39.3273 2
60.5667 41.8751 2
59.5512 44.6216 2
61.3923 37.4485 3.97673
59.4995 39.7987 3.97681
58.1531 42.7894 3.97582
63.6567 35.6586 0.0235715
62.4259 33.1162 0.0238511
59.9757 30.7508 0.0243952
57.7941 17.1003 0.0434106
57.3846 19.6561 0.0409263
56.8824 22.0705 0.0356743
58.9484 28.1002 0.0246557
57.1064 25.9799 0.0244968
56.6127 24.2002 0.0273609
55.4024 17.1103 0.0439837
53.6346 17.1292 0.043383
52.9234 15.3714 0.0412701
50.1081 7.29524 0.0199522
52.1385 12.9007 0.0338234
51.2192 10.1697 0.0304174
61.6125 35.3982 2
59.5872 32.8497 2
57.8562 30.2611 2
56.4212 18.312 2
55.9788 20.7355 2
55.5492 23.1415 2
56.5657 27.6321 2
55.6269 25.3945 2
48.0556 6.53621 2
49.3169 9.35832 2
54.2402 18.0957 2
52.2477 17.201 2
51.3211 14.6153 2
50.4123 12.0754 2
59.1258 35.1733 3.9766
57.1087 32.4146 3.97527
55.679 29.5819 3.97542
54.6497 26.9241 3.97479
55.0812 19.377 3.96223
54.3122 24.3582 3.97181
54.5322 21.8224 3.96144
45.9615 5.88878 3.98527
43.3734 7.48303 3.98128
47.3515 8.63945 3.97635
48.5817 11.3479 3.97016
49.6658 13.8316 3.96747
50.5389 16.2745 3.95597
52.9293 18.8751 3.96355
51.1746 18.2849 3.95693
51.1566 65.1021 0.0270419
52.0139 62.4681 0.031627
57.5474 46.6345 0.0247756
52.7569 60.0189 0.0358627
55.3473 58.1433 0.0390555
53.5428 58.3639 0.038247
57.0091 51.5828 0.0281023
55.5337 49.3065 0.0261171
55.1771 55.6312 0.038023
54.8265 53.1682 0.0377863
50.3228 63.3429 2
51.1818 60.8406 2
54.0411 57.1413 2
52.1568 58.5034 2
55.7385 43.9781 2
54.6429 47.6195 2
54.3643 51.1331 2
53.6192 54.3575 2
49.5496 61.7003 3.9745
54.4274 41.5891 3.97373
50.4574 59.2183 3.96461
51.923 56.3345 3.96431
53.1009 45.2559 3.9733
52.4649 49.0316 3.97014
52.1117 52.6229 3.95924
48.6035 64.0868 0.0214135
47.9359 62.4328 2
47.2887 60.9596 3.99158
43.6296 67.4565 0.0195608
45.1255 65.1723 0.0208689
46.3656 63.0016 0.0177271
41.6638 67.6744 2
43.3579 65.4876 2
45.9609 61.5353 2
44.7565 63.4039 2
45.7251 60.5746 3.99553
44.4645 61.7752 3.97916
43.1397 63.6865 3.97835
41.5458 65.625 3.97381
39.6324 67.7528 3.97864
37.5259 70.0415 3.98338
39.7021 70.0173 2
39.8162 72.4021 3.99124
41.8588 69.8705 0.0158962
42.1099 72.2054 2
42.3947 74.6792 4
44.3736 71.8611 0.00946163
44.8159 74.2794 2
47.2057 73.7222 0
43.851 5.36398 3.98559
46.5706 3.6493 3.99055
48.7852 4.32547 2
49.554 1.99015 4
50.9529 5.13444 0.0110434
51.8506 2.85453 2
54.0858 3.86728 0
59.5503 44.6219 0.0244388
60.5656 41.8755 0.0232522
61.5691 39.3276 0.0231552
63.5101 37.461 0.0234941
61.3918 37.4487 2
59.4994 39.7967 2
58.154 42.7894 2
58.9814 37.5671 3.97721
57.0651 40.5684 3.97748
53.8278 39.6198 3.97565
61.6118 35.3976 0.0234579
59.5876 32.8497 0.0240947
57.8544 30.2612 0.0247197
56.4218 18.3133 0.0422549
55.9539 20.7414 0.0422927
55.5416 23.1382 0.0347703
56.5636 27.6318 0.02425
55.6214 25.3913 0.0252434
54.2352 18.0926 0.0397499
52.259 17.2026 0.0457355
51.3193 14.6182 0.0341231
48.0548 6.53497 0.0169166
49.3163 9.35901 0.0257903
50.4081 12.0731 0.0324756
59.1263 35.1747 2
45.962 5.88836 2
43.3731 7.4823 2
57.1081 32.4165 2
55.6796 29.5802 2
55.0691 19.3818 2
54.5691 21.8187 2
54.3117 24.3636 2
54.6519 26.924 2
47.3513 8.63851 2
48.5847 11.3432 2
52.9244 18.8379 2
51.1698 18.2829 2
50.5473 16.2767 2
49.6656 13.8408 2
56.419 34.8406 3.97714
54.7061 31.7268 3.97463
53.5733 28.7078 3.97637
53.0298 25.8426 3.97399
53.6666 20.3634 3.96371
53.0561 23.0146 3.96342
41.3992 7.0844 3.98287
45.3584 8.00444 3.98539
42.8651 9.43161 3.97083
46.6572 10.688 3.97683
47.7048 13.1619 3.9684
48.8516 15.4963 3.97134
49.8817 17.8708 3.96511
51.4449 19.5776 3.98664
50.3244 63.3437 0.026103
51.1826 60.8386 0.0270343
55.7364 43.9766 0.0243026
54.6435 47.6198 0.0246801
52.1639 58.5018 0.0340818
54.045 57.1402 0.0341154
54.3686 51.1345 0.0344878
53.6254 54.3571 0.0356112
49.5495 61.6971 2
54.4272 41.5869 2
50.4548 59.2252 2
51.9291 56.3387 2
53.0953 45.2517 2
52.4618 49.0292 2
52.1147 52.623 2
48.7742 60.15 3.99318
51.1089 42.4533 3.98343
49.6125 57.5073 3.96402
50.2035 54.2453 3.95985
50.7643 46.9332 3.97577
50.5128 50.6847 3.95273
46.8374 43.4311 3.96424
47.9358 62.4341 0.0126522
47.2909 60.9616 2
46.561 59.7436 3.99346
41.6626 67.6746 0.0205682
43.3546 65.487 0.0219781
44.7562 63.4055 0.0242978
45.9607 61.5293 0.00628593
39.6337 67.7536 2
41.5478 65.6231 2
45.7246 60.5807 2
43.1388 63.685 2
44.4634 61.7779 2
44.583 60.2278 3.99319
42.9352 62.0327 3.97621
41.5952 63.7918 3.97853
39.6465 65.5918 3.97473
37.5635 67.7343 3.97714
31.6987 65.1092 3.97353
33.3934 67.4728 3.97769
35.3343 69.9527 3.98378
37.5258 70.0435 2
37.5093 72.4562 3.99177
39.7013 70.0171 0.0164271
39.8172 72.4021 2
39.9526 74.9197 4
42.1086 72.205 0.00907786
42.3947 74.6792 2
44.8159 74.2794 0
41.7359 4.97141 3.98771
43.8513 5.36313 2
44.3264 3.11187 3.99182
46.5715 3.64945 2
47.2057 1.27793 4
48.7843 4.32455 0.0103279
49.554 1.99013 2
51.8506 2.85458 0
58.1531 42.7894 0.0241825
59.4995 39.7987 0.0231937
61.3923 37.4485 0.0232722
58.9788 37.5684 2
57.07 40.5673 2
53.8315 39.6231 2
55.7767 37.8771 3.97738
48.131 41.1629 3.9676
51.6788 39.2315 3.97986
39.4423 6.80893 3.98162
59.1258 35.1733 0.0234049
57.1087 32.4146 0.0247312
55.679 29.5819 0.0245762
55.0812 19.377 0.0377738
54.5322 21.8224 0.0385584
54.3122 24.3582 0.0281883
54.6497 26.9241 0.0252127
52.9293 18.8751 0.0364453
51.1746 18.2849 0.0430731
50.5389 16.2745 0.0440341
45.9615 5.88878 0.0147269
49.6658 13.8316 0.0325349
47.3515 8.63945 0.0236531
48.5817 11.3479 0.0298414
43.3734 7.48303 0.0187175
56.4222 34.8422 2
41.3996 7.08603 2
45.3577 8.00412 2
42.864 9.43346 2
54.7091 31.7295 2
53.5711 28.7085 2
53.6679 20.37 2
53.0384 23.0178 2
53.0319 25.8415 2
46.6576 10.6832 2
47.7086 13.1618 2
51.451 19.5759 2
49.8792 17.8669 2
48.8555 15.5271 2
53.6392 34.0601 3.97522
52.3689 30.7973 3.97497
51.697 27.573 3.9749
51.5349 24.4637 3.97387
52.0484 21.3289 3.98337
41.0121 9.05666 3.97715
44.7261 10.0081 3.98265
42.453 10.9182 4.00449
45.9675 12.7602 3.96555
47.6215 14.689 3.96633
47.9996 17.0956 3.96879
49.6735 19.9795 3.98635
49.5496 61.7003 0.0254979
50.4574 59.2183 0.0353851
54.4274 41.5891 0.0262669
53.1009 45.2559 0.0267022
52.4649 49.0316 0.0298649
51.923 56.3345 0.0356867
52.1117 52.6229 0.0407609
48.7728 60.1443 2
51.124 42.4727 2
49.6119 57.5059 2
50.2059 54.2474 2
50.766 46.9326 2
50.5175 50.6843 2
46.8461 43.4758 2
47.8794 58.6472 3.99044
48.8389 44.9757 3.98174
48.3398 55.7807 3.95385
48.632 52.3877 3.98095
48.8383 48.7514 3.96906
44.5326 39.7113 3.82748
45.0677 42.3589 3.8731
45.3862 45.3897 3.98202
42.4085 40.9542 3.6087
41.336 41.5923 3.40648
47.2887 60.9596 0.00842117
46.5572 59.7511 2
45.3977 58.7363 3.99544
39.6324 67.7528 0.021364
41.5458 65.625 0.0261918
43.1397 63.6865 0.0216502
44.4645 61.7752 0.0208423
45.7251 60.5746 0.00446981
41.5967 63.7864 2
37.5643 67.7371 2
39.6492 65.5925 2
44.5842 60.2312 2
42.9334 62.0355 2
41.7414 62.4431 3.97811
42.4486 59.9273 3.98821
39.8911 63.5273 3.97753
37.6412 65.4883 3.9739
35.4639 67.6445 3.97692
33.5762 65.3205 3.97417
31.9632 63.264 3.9795
29.8881 64.6961 3.97929
31.6975 65.1087 2
31.3791 67.183 3.97818
33.3927 67.4744 2
33.1582 69.746 3.98373
35.3334 69.9541 2
35.1964 72.3712 3.99195
37.5259 70.0415 0.0166154
37.5097 72.4568 2
37.5 75 4
39.8162 72.4021 0.00876354
39.9526 74.9197 2
42.3947 74.6792 0
39.6242 4.719 3.98832
41.7361 4.97176 2
42.063 2.71885 3.99236
43.851 5.36398 0.0144139
44.3268 3.11147 2
44.8158 0.721173 4
46.5706 3.6493 0.009447
47.2057 1.27779 2
49.554 1.99015 0
57.0651 40.5684 0.0225182
58.9814 37.5671 0.0227853
53.8278 39.6198 0.0243462
48.1592 41.1783 2
55.7737 37.8734 2
51.68 39.2191 2
52.5568 36.6189 3.97716
46.0611 40.2464 3.88603
49.047 38.4901 3.97557
37.5162 6.67781 3.98472
39.4433 6.8091 2
39.2096 8.70319 3.98002
35.9424 8.50021 3.98163
56.419 34.8406 0.0228647
54.7061 31.7268 0.0253696
53.5733 28.7078 0.0236263
53.6666 20.3634 0.0362873
53.0561 23.0146 0.03658
53.0298 25.8426 0.0260053
51.4449 19.5776 0.0133616
49.8817 17.8708 0.0348917
48.8516 15.4963 0.0286624
45.3584 8.00444 0.0146052
47.7048 13.1619 0.0315961
46.6572 10.688 0.0231661
41.3992 7.0844 0.0171276
42.8651 9.43161 0.0291702
53.6344 34.0537 2
41.0122 9.06075 2
44.7238 10.0077 2
42.455 10.9263 2
52.3637 30.7944 2
51.7067 27.5724 2
52.0501 21.3338 2
51.5199 24.4657 2
45.9721 12.7578 2
47.6159 14.6644 2
49.6894 19.9965 2
47.9964 17.0988 2
51.0839 33.0246 3.9779
50.196 29.545 3.97647
50.0056 26.0663 3.97058
49.6074 22.5688 3.98168
40.5572 11.6156 3.98492
43.8244 11.9231 3.96472
45.7443 15.5672 3.99005
47.3835 19.5919 3.98053
44.9422 37.488 3.83224
48.7742 60.15 0.00682376
49.6125 57.5073 0.0359842
51.1089 42.4533 0.0165674
50.7643 46.9332 0.0242301
50.5128 50.6847 0.047268
50.2035 54.2453 0.0401538
46.8374 43.4311 0.0357555
47.8746 58.6515 2
48.8536 44.9886 2
48.3375 55.7827 2
48.633 52.3927 2
48.8434 48.7541 2
44.6558 39.7368 2
45.1001 42.3817 2
45.3957 45.4107 2
42.4747 41.0145 2
41.3802 41.6181 2
46.6861 57.25 3.98777
43.0722 39.3518 3.59962
41.7213 40.5694 3.39114
47.072 46.9866 3.98572
46.8331 54.0699 3.96097
46.976 50.5235 3.97641
44.0146 47.0204 3.98762
43.7283 41.7217 3.82993
43.9078 44.1402 3.86017
41.586 42.2527 3.66207
40.4372 41.8741 3.34584
46.561 59.7436 0.00654171
45.3944 58.7361 2
43.8052 57.6006 3.98472
37.5635 67.7343 0.0228551
39.6465 65.5918 0.025266
41.5952 63.7918 0.0214743
42.9352 62.0327 0.0237875
44.583 60.2278 0.00681012
35.4638 67.6467 2
41.7391 62.4473 2
39.8909 63.529 2
37.6429 65.4922 2
42.45 59.9292 2
40.6116 61.5852 3.9848
40.4151 58.1043 3.98947
37.8357 63.1832 3.97261
35.5726 65.4117 3.97559
33.5757 65.3198 2
31.9658 63.264 2
33.6307 63.3124 3.97928
30.3856 62.8237 3.98171
32.1352 61.967 3.98855
26.8951 61.4227 3.98574
28.0722 64.1218 3.98202
29.8878 64.6944 2
29.4095 66.7461 3.97776
31.6987 65.1092 0.026465
31.3783 67.1839 2
31.0163 69.4113 3.98333
33.3934 67.4728 0.0223106
33.1569 69.7472 2
32.8946 72.1455 3.99116
35.3343 69.9527 0.0162198
35.1959 72.3719 2
35.0474 74.9194 4
37.5093 72.4562 0.00823253
37.5 75 2
39.9526 74.9197 0
35.6207 6.72988 3.98289
37.5241 4.61826 3.98901
39.6244 4.7187 2
39.7896 2.47533 3.99259
41.7359 4.97141 0.0122868
42.0631 2.71889 2
42.3946 0.32156 4
44.3264 3.11187 0.00818467
44.8159 0.72056 2
47.2057 1.27793 0
48.131 41.1629 0.0324011
55.7767 37.8771 0.0226154
51.6788 39.2315 0.0201415
46.0905 40.2503 2
49.0553 38.4627 2
52.5833 36.6263 2
49.8638 35.5478 3.97768
46.69 37.7225 3.87309
44.5591 35.2326 3.82996
42.4586 33.9773 3.60915
41.3752 33.3377 3.40658
37.4577 8.53819 3.98386
37.5174 6.67814 2
39.4423 6.80893 0.0183849
39.2111 8.70406 2
38.9713 10.1389 3.99019
35.8979 9.78355 3.98094
34.1525 8.8326 3.97938
35.9438 8.49959 2
53.6392 34.0601 0.0247848
52.3689 30.7973 0.0250322
51.697 27.573 0.0251
52.0484 21.3289 0.0166269
51.5349 24.4637 0.0261313
49.6735 19.9795 0.013653
47.9996 17.0956 0.0312103
47.6215 14.689 0.0336669
44.7261 10.0081 0.0173458
45.9675 12.7602 0.0344476
41.0121 9.05666 0.0228524
42.453 10.9182 -0.00448963
51.0982 33.0116 2
40.5636 11.6259 2
43.8269 11.9182 2
50.209 29.5458 2
50.0085 26.0797 2
49.5914 22.5339 2
45.7281 15.4963 2
47.3935 19.6276 2
48.6772 31.5965 3.98246
48.3401 27.8402 3.97445
48.8151 24.6917 3.97917
46.9689 22.3854 3.99305
38.2972 12.762 3.97818
42.0694 14.3818 3.98424
44.7099 18.6854 3.98267
43.4397 37.4748 3.61495
45.048 37.4771 2
47.8794 58.6472 0.00955637
48.3398 55.7807 0.046145
48.8389 44.9757 0.0182555
48.8383 48.7514 0.0309389
48.632 52.3877 0.0190503
44.5326 39.7113 0.172521
45.0677 42.3589 0.126901
45.3862 45.3897 0.0179817
42.4085 40.9542 0.391299
41.336 41.5923 0.593519
46.6837 57.2545 2
43.1605 39.3743 2
41.7396 40.5817 2
47.0797 46.9883 2
46.8286 54.0731 2
46.9775 50.5356 2
44.0586 47.0286 2
43.7991 41.7724 2
43.9648 44.1745 2
41.6423 42.3372 2
40.4853 41.8953 2
45.2067 55.8077 4.00119
42.0553 39.1161 3.40059
40.3165 40.4764 3.47819
45.3642 48.6319 4.00269
45.0823 52.3121 3.99089
42.8153 47.9993 3.98966
42.6749 45.645 3.8655
42.7413 43.4666 3.81892
40.6527 43.185 3.62182
39.1377 42.1455 3.42347
45.3977 58.7363 0.00455847
43.8003 57.6152 2
42.0263 56.1588 3.99149
35.4639 67.6445 0.0230799
37.6412 65.4883 0.0260951
39.8911 63.5273 0.0224681
41.7414 62.4431 0.0218915
42.4486 59.9273 0.0117859
35.5737 65.4154 2
40.6106 61.5844 2
37.8366 63.1826 2
40.4123 58.1119 2
38.902 56.2994 3.99607
38.2411 60.2684 3.9848
35.6068 63.1787 3.97274
33.5762 65.3205 0.0258292
31.9632 63.264 0.0204958
33.6334 63.3149 2
30.3875 62.8236 2
32.1382 61.9668 2
28.6952 62.1588 3.97908
33.3537 61.4753 3.98338
31.0891 61.1911 3.99189
27.6234 59.5202 3.98053
23.8674 58.9799 3.9849
25.072 60.7831 3.97861
26.8957 61.4248 2
26.2447 63.4479 3.97442
28.0717 64.1175 2
27.4681 66.1627 3.9765
29.8881 64.6961 0.0207114
29.4084 66.7453 2
28.9092 68.9364 3.98252
31.3791 67.183 0.0218225
31.0145 69.4115 2
30.6178 71.777 3.99046
33.1582 69.746 0.0162741
32.8934 72.1459 2
32.6054 74.6784 4
35.1964 72.3712 0.00805129
35.0474 74.9197 2
37.5 75 0
33.7238 6.98642 3.98141
35.4363 4.68821 3.98836
35.622 6.72967 2
37.5155 2.38793 3.99277
37.5243 4.61786 2
39.6242 4.719 0.0116809
39.7895 2.4751 2
39.9526 0.0806499 4
42.063 2.71885 0.00763556
42.3947 0.320817 2
44.8158 0.721173 0
43.1006 35.592 3.60708
41.7536 34.3542 3.37466
46.0611 40.2464 0.113974
49.047 38.4901 0.0244342
52.5568 36.6189 0.0228443
46.6944 37.7104 2
49.8851 35.5759 2
44.6645 35.2178 2
42.5152 33.9162 2
41.4022 33.3131 2
46.9417 34.4258 3.93193
43.7842 33.2185 3.82318
41.6378 32.6813 3.66225
40.4612 33.0655 3.34524
37.3085 10.6363 3.98121
37.4595 8.53956 2
37.5162 6.67781 0.015278
39.2096 8.70319 0.0199805
38.9772 10.1415 2
34.7557 10.395 3.97675
35.9032 9.78107 2
32.3805 9.3815 3.97448
34.1528 8.83078 2
35.9424 8.50021 0.0183688
51.0839 33.0246 0.0220986
50.196 29.545 0.0235255
50.0056 26.0663 0.0294158
49.6074 22.5688 0.0183169
47.3835 19.5919 0.019468
45.7443 15.5672 0.00995365
43.8244 11.9231 0.0352772
40.5572 11.6156 0.0150828
48.6962 31.5806 2
38.3001 12.7613 2
42.0777 14.3871 2
48.3378 27.8376 2
48.8155 24.6975 2
46.9593 22.3765 2
44.7213 18.7496 2
46.6399 29.8538 3.98005
46.503 25.3992 3.97915
44.153 21.6917 3.98341
36.5875 12.9776 3.97689
38.6676 14.8938 3.97784
41.6907 18.0105 3.98327
42.2277 37.4485 3.42984
43.5179 37.4761 2
44.9422 37.488 0.16776
46.6861 57.25 0.012227
46.8331 54.0699 0.0390319
47.072 46.9866 0.0142769
46.976 50.5235 0.0235855
43.0722 39.3518 0.400381
43.7283 41.7217 0.170074
43.9078 44.1402 0.139834
44.0146 47.0204 0.0123768
41.586 42.2527 0.337925
41.7213 40.5694 0.608863
40.4372 41.8741 0.654158
45.205 55.8119 2
42.0719 39.124 2
40.3848 40.4677 2
45.3651 48.6547 2
45.0775 52.3151 2
42.8586 48.0221 2
42.7464 45.7094 2
42.7859 43.4998 2
40.7149 43.269 2
39.1189 42.1749 2
43.5266 54.2448 4.0034
40.3966 38.9652 3.50726
39.0347 40.566 3.45638
43.1403 50.1011 4.0029
41.4899 47.1325 3.91611
41.4096 44.7341 3.81694
39.3672 43.8373 3.59869
37.5117 42.288 3.48353
43.8052 57.6006 0.0152766
42.0326 56.1454 2
40.3315 54.7186 3.99527
35.5726 65.4117 0.024412
37.8357 63.1832 0.0273944
40.6116 61.5852 0.0152027
40.4151 58.1043 0.0105263
35.609 63.1749 2
38.2372 60.2663 2
38.9026 56.2786 2
37.976 54.9799 3.99535
36.923 57.5113 3.99277
35.3652 60.8722 3.98522
33.6307 63.3124 0.0207197
30.3856 62.8237 0.0182942
32.1352 61.967 0.0114475
33.3567 61.4746 2
28.6954 62.1664 2
31.092 61.1928 2
29.4422 60.2465 3.98345
32.3707 59.6555 3.99609
28.1073 58.3113 4.01851
27.6247 59.5195 2
25.4582 58.5063 3.97811
22.8682 58.1324 3.97231
23.447 60.2483 3.97538
23.8682 58.9808 2
25.0732 60.7839 2
24.4541 62.72 3.9744
26.8951 61.4227 0.0142622
26.2447 63.4469 2
25.5549 65.4722 3.97409
28.0722 64.1218 0.0179798
27.4674 66.1652 2
26.8399 68.323 3.98039
29.4095 66.7461 0.0222434
28.9074 68.9357 2
28.3733 71.2624 3.9894
31.0163 69.4113 0.0166741
30.616 71.7767 2
30.1842 74.2788 4
32.8946 72.1455 0.0088422
32.6053 74.6792 2
35.0474 74.9194 0
31.7884 7.42735 3.97895
33.3488 4.92814 3.98698
33.7247 6.98526 2
35.2461 2.46373 3.9928
35.4362 4.68817 2
35.6207 6.72988 0.0171093
37.5 0 4
37.515 2.38773 2
37.5241 4.61826 0.0109879
39.7896 2.47533 0.00740645
39.9526 0.0802889 2
42.3946 0.32156 0
42.0516 35.7781 3.36574
43.1988 35.5683 2
40.3706 34.4386 3.48477
41.7615 34.3367 2
46.69 37.7225 0.126914
49.8638 35.5478 0.022321
44.5591 35.2326 0.170038
42.4586 33.9773 0.390851
41.3752 33.3377 0.593419
46.9778 34.4333 2
43.8435 33.1635 2
41.6881 32.6003 2
40.5008 33.0451 2
45.0969 31.8821 3.88605
42.794 31.4673 3.80978
40.6981 31.7502 3.62357
39.144 32.8081 3.42089
35.6969 11.795 3.97455
37.3165 10.6378 2
37.4577 8.53819 0.0161398
38.9713 10.1389 0.00980821
33.1027 11.2369 3.9728
34.7588 10.3894 2
35.8979 9.78355 0.0190587
30.4874 10.0346 3.9755
32.3807 9.38137 2
34.1525 8.8326 0.0206247
48.6772 31.5965 0.0175415
48.3401 27.8402 0.0255452
48.8151 24.6917 0.0208309
46.9689 22.3854 0.0069484
44.7099 18.6854 0.017326
42.0694 14.3818 0.0157557
38.2972 12.762 0.0218235
36.5853 12.9634 2
46.6293 29.7928 2
38.6708 14.8739 2
41.6878 18.0092 2
46.5079 25.3848 2
44.1376 21.6806 2
44.6969 27.9984 3.99542
43.4246 24.3368 4.01931
41.2444 21.0362 3.99533
35.7724 14.8155 3.98595
38.6384 17.7465 3.98798
40.4514 37.4148 3.53258
42.2495 37.4542 2
43.4397 37.4748 0.385053
45.2067 55.8077 -0.00119339
45.0823 52.3121 0.00910553
45.3642 48.6319 -0.00268905
42.0553 39.1161 0.599409
42.7413 43.4666 0.181076
42.6749 45.645 0.134496
42.8153 47.9993 0.010339
40.6527 43.185 0.378184
40.3165 40.4764 0.521811
39.1377 42.1455 0.576534
43.522 54.2399 2
40.4312 38.9683 2
39.0225 40.5685 2
43.1308 50.1235 2
41.4832 47.1608 2
41.4343 44.7757 2
37.5059 42.3125 2
39.3848 43.9171 2
41.6781 52.6939 4.00096
39.0458 39.024 3.44961
37.5088 40.6109 3.51325
35.8865 42.1601 3.41918
40.6849 49.2413 3.99098
39.6293 45.4155 3.78146
37.5075 44.1254 3.64515
42.0263 56.1588 0.00850708
40.3327 54.7268 2
38.6998 53.4654 3.99686
35.6068 63.1787 0.0272625
38.2411 60.2684 0.0152021
38.902 56.2994 0.00392981
35.365 60.8564 2
36.9241 57.5176 2
37.9663 54.9711 2
36.3219 55.0762 3.99752
34.4952 58.4348 3.9945
33.3537 61.4753 0.0166182
28.6952 62.1588 0.0209174
31.0891 61.1911 0.00810605
32.3705 59.6615 2
29.4437 60.2504 2
30.3674 57.7474 3.99157
28.1089 58.3102 2
27.1025 56.7456 3.96783
27.6234 59.5202 0.0194702
25.4596 58.5075 2
24.0266 56.6837 3.96023
21.5254 57.2625 3.95736
22.0537 59.5248 3.97542
22.868 58.1343 2
22.7644 61.9416 3.97323
23.4482 60.2488 2
23.8674 58.9799 0.0150985
25.072 60.7831 0.0213867
24.4543 62.7201 2
23.6914 64.6834 3.97175
26.2447 63.4479 0.0255788
25.5542 65.4747 2
24.8125 67.5835 3.97784
27.4681 66.1627 0.0235016
26.8378 68.3241 2
26.1687 70.603 3.98858
28.9092 68.9364 0.0174761
28.3711 71.2618 2
27.7943 73.7221 4
30.6178 71.777 0.00953856
30.1841 74.2794 2
32.6054 74.6784 0
29.8116 8.00521 3.97669
31.2541 5.33575 3.98556
31.7891 7.42644 2
32.9822 2.70193 3.99219
33.3484 4.92761 2
33.7238 6.98642 0.018591
35.0474 0.080333 4
35.2453 2.46384 2
35.4363 4.68821 0.0116401
37.5 0 2
37.5155 2.38793 0.00723007
39.9526 0.0806499 0
40.4919 35.9086 3.52783
42.0779 35.7774 2
43.1006 35.592 0.392921
28.5491 10.7101 3.97648
39.0414 34.395 3.44654
40.3852 34.4368 2
41.7536 34.3542 0.625345
46.9417 34.4258 0.0680687
43.7842 33.2185 0.176816
41.6378 32.6813 0.337754
40.4612 33.0655 0.654761
45.1285 31.8656 2
42.84 31.4265 2
40.7536 31.668 2
39.1357 32.7744 2
43.5616 30.1512 3.86966
41.4362 30.1947 3.81835
39.3832 31.1057 3.60091
37.5269 32.681 3.48116
34.1024 12.9599 3.9768
35.7 11.7848 2
37.3085 10.6363 0.0187911
31.1937 12.0089 3.97652
33.1062 11.2351 2
34.7557 10.395 0.0232493
30.4853 10.0299 2
32.3805 9.3815 0.0255161
46.6399 29.8538 0.0199501
46.503 25.3992 0.0208515
36.5875 12.9776 0.023109
44.153 21.6917 0.0165902
41.6907 18.0105 0.0167322
38.6676 14.8938 0.0221628
35.7713 14.8253 2
44.694 28.0013 2
38.6437 17.7342 2
41.2294 21.0136 2
43.4188 24.3146 2
33.6273 15.918 3.99073
42.565 26.807 3.97379
40.7563 23.6777 3.9944
38.3667 20.547 3.9925
35.8367 17.6284 3.98465
39.0657 37.4803 3.44826
40.4728 37.4226 2
42.2277 37.4485 0.570164
43.5266 54.2448 -0.00339542
43.1403 50.1011 -0.0029006
40.3966 38.9652 0.492745
41.4096 44.7341 0.183065
41.4899 47.1325 0.0838881
39.3672 43.8373 0.401308
39.0347 40.566 0.543617
37.5117 42.288 0.516466
41.6669 52.6868 2
39.0289 39.0157 2
37.5013 40.6111 2
40.6655 49.2473 2
35.9006 42.1873 2
39.6625 45.4861 2
37.5031 44.2082 2
39.691 51.4523 3.99924
37.5134 39.0213 3.50233
36.0011 40.5859 3.45602
34.5841 41.8996 3.34665
35.6497 43.8539 3.59791
38.6175 48.0788 3.92428
37.5154 45.7096 3.81536
40.3315 54.7186 0.00472605
38.6974 53.4819 2
36.7696 52.8261 3.99746
35.3652 60.8722 0.0147785
36.923 57.5113 0.00722697
37.976 54.9799 0.00464773
34.4943 58.447 2
36.3247 55.0669 2
33.304 55.2727 3.99453
32.3707 59.6555 0.0039071
29.4422 60.2465 0.0165457
30.369 57.7439 2
28.9131 55.2513 3.99539
28.1073 58.3113 -0.018508
27.1047 56.7442 2
25.5921 55.0117 3.9542
22.1327 55.1762 3.95955
25.4582 58.5063 0.0218916
24.0274 56.6861 2
20.412 56.8916 3.96226
20.7354 58.6726 3.95993
21.5266 57.2643 2
21.202 61.0776 3.97013
22.0537 59.5256 2
22.8682 58.1324 0.0276947
21.9098 63.7898 3.97178
22.7651 61.9435 2
23.447 60.2483 0.0246197
24.4541 62.72 0.0256039
23.691 64.6846 2
22.8407 66.7249 3.97508
25.5549 65.4722 0.0259077
24.8102 67.5827 2
24.0132 69.8043 3.98787
26.8399 68.323 0.019608
26.1657 70.6025 2
25.446 73.0099 4
28.3733 71.2624 0.0105979
27.7943 73.7222 2
30.1842 74.2788 0
27.8219 8.66609 3.97709
29.1564 5.88343 3.98292
29.8111 8.00137 2
30.7278 3.09909 3.99161
31.2536 5.3346 2
31.7884 7.42735 0.0210542
32.6053 0.320823 4
32.981 2.70191 2
33.3488 4.92814 0.0130154
35.0474 0.0802903 2
35.2461 2.46373 0.00719649
37.5 0 0
38.9899 35.9412 3.46127
40.4718 35.9046 2
42.0516 35.7781 0.634256
28.5466 10.7063 2
26.6313 11.4093 3.97528
29.2352 12.6601 3.97968
37.5319 34.3626 3.5137
39.0661 34.4073 2
40.3706 34.4386 0.515226
45.0969 31.8821 0.113947
42.794 31.4673 0.190225
40.6981 31.7502 0.376434
39.144 32.8081 0.579109
43.5889 30.1216 2
41.4758 30.1501 2
39.3972 31.0264 2
37.5334 32.6527 2
41.8491 28.8675 3.8553
39.6359 29.5144 3.80232
37.5223 30.8344 3.64683
35.8991 32.8166 3.42637
31.9374 14.5063 3.98326
34.105 12.9655 2
35.6969 11.795 0.0254506
31.1951 11.9988 2
33.1027 11.2369 0.0272042
30.4874 10.0346 0.024501
44.6969 27.9984 0.00457809
43.4246 24.3368 -0.019308
35.7724 14.8155 0.0140481
41.2444 21.0362 0.00466727
38.6384 17.7465 0.0120243
33.6134 15.9084 2
35.8382 17.582 2
42.6388 26.7766 2
38.3505 20.5801 2
40.7404 23.6782 2
33.5643 17.4608 3.99102
40.202 26.1714 3.96551
38.0162 23.4312 3.99706
35.5277 20.339 3.99613
37.5281 37.4738 3.51983
39.0376 37.4706 2
40.4514 37.4148 0.467419
41.6781 52.6939 -0.00095593
40.6849 49.2413 0.00902002
39.0458 39.024 0.550389
39.6293 45.4155 0.218541
37.5075 44.1254 0.354847
37.5088 40.6109 0.486747
35.8865 42.1601 0.580821
39.6738 51.4461 2
37.5085 39.0221 2
35.992 40.5684 2
38.638 48.1431 2
34.5426 41.9203 2
35.6328 43.9305 2
37.5043 45.7697 2
37.679 50.4109 3.98977
36.0346 39.0388 3.464
34.6911 40.5113 3.48707
33.6734 41.6238 3.40927
34.3756 43.2111 3.61528
35.3362 45.4683 3.80725
36.9251 47.6975 3.88348
38.6998 53.4654 0.00313962
36.7762 52.7733 2
34.5065 52.1456 4.00186
34.4952 58.4348 0.00550286
36.3219 55.0762 0.00247521
33.3051 55.2815 2
30.7689 53.2182 3.99881
30.3674 57.7474 0.00843171
28.9136 55.2484 2
27.2542 53.2765 3.95522
27.1025 56.7456 0.0321718
25.5948 55.0148 2
24.0154 53.2756 3.95363
21.0096 52.9965 3.95909
20.2369 55.6666 3.96101
22.1316 55.1771 2
24.0266 56.6837 0.0397698
19.5725 57.7714 3.96134
20.407 56.8949 2
19.7404 60.1169 3.96946
20.7278 58.6768 2
21.5254 57.2625 0.0426413
20.228 62.7854 3.97104
21.2044 61.0798 2
22.0537 59.5248 0.0245784
20.9434 65.7495 3.97243
21.9098 63.7936 2
22.7644 61.9416 0.0267746
23.6914 64.6834 0.0282533
22.8391 66.7238 2
21.916 68.8713 3.98651
24.8125 67.5835 0.0221611
24.0097 69.8025 2
23.1494 72.1454 4
26.1687 70.603 0.0114193
25.446 73.0099 2
27.7943 73.7221 0
25.8622 9.3968 3.97532
27.0713 6.5486 3.98116
27.8201 8.66297 2
28.4903 3.64507 3.99045
29.1552 5.88156 2
29.8116 8.00521 0.0233063
30.1841 0.720592 4
30.7258 3.09894 2
31.2541 5.33575 0.014442
32.6053 0.320817 2
32.9822 2.70193 0.00780997
35.0474 0.080333 0
37.5204 35.9325 3.49282
38.9696 35.9164 2
40.4919 35.9086 0.472167
24.7911 12.0881 3.97231
23.7815 14.4502 3.97967
28.5491 10.7101 0.0235192
26.6269 11.4041 2
29.2364 12.6574 2
27.303 13.407 3.97314
29.807 14.2167 3.99011
35.9966 34.3945 3.46231
37.5454 34.3588 2
39.0414 34.395 0.553462
37.5269 32.681 0.518839
43.5616 30.1512 0.130344
41.4362 30.1947 0.181648
39.3832 31.1057 0.399092
41.8819 28.7921 2
39.6633 29.4479 2
37.5251 30.7565 2
35.9153 32.7882 2
39.8161 28.1407 3.85562
37.4949 29.2387 3.80422
35.6703 31.1278 3.60068
34.5887 33.0848 3.35024
30.968 16.8625 3.99709
31.9314 14.4926 2
34.1024 12.9599 0.023202
31.1937 12.0089 0.0234823
42.565 26.807 0.0262086
40.7563 23.6777 0.00559572
33.6273 15.918 0.00926683
35.8367 17.6284 0.0153517
38.3667 20.547 0.00750076
33.5466 17.4764 2
35.5214 20.3674 2
40.2439 26.1379 2
38.0224 23.4227 2
32.9496 19.9318 3.99732
37.7161 25.8154 3.96121
35.3312 23.0907 4.00842
36.0049 37.4699 3.45288
37.5108 37.4732 2
39.0657 37.4803 0.551739
39.691 51.4523 0.000760741
38.6175 48.0788 0.0757219
37.5134 39.0213 0.497667
37.5154 45.7096 0.184636
35.6497 43.8539 0.402089
36.0011 40.5859 0.543981
34.5841 41.8996 0.653346
37.6532 50.4502 2
36.072 39.0253 2
34.6364 40.5203 2
36.9278 47.7613 2
33.6301 41.6518 2
34.3119 43.2882 2
35.3089 45.5272 2
35.5737 49.619 3.98134
34.5846 39.0251 3.52287
33.292 40.6095 3.37937
33.4235 42.2817 3.66503
33.648 44.7481 3.80706
34.6127 46.8675 3.85833
36.7696 52.8261 0.00254118
34.4866 52.1745 2
32.3389 50.9678 3.99946
33.304 55.2727 0.00546759
30.7715 53.2118 2
28.8794 51.3496 3.9874
28.9131 55.2513 0.00460647
27.256 53.2758 2
25.6238 51.5058 3.95351
25.5921 55.0117 0.0457984
24.0177 53.2797 2
22.5957 51.5523 3.95562
19.9121 51.3767 3.96381
19.3797 54.1083 3.96154
21.0143 52.9951 2
18.6861 56.5806 3.96205
20.2349 55.6688 2
22.1327 55.1762 0.0404523
18.4307 59.0205 3.95853
19.5716 57.7736 2
20.412 56.8916 0.0377429
18.6383 61.6919 3.9758
19.7417 60.1205 2
20.7354 58.6726 0.0400693
19.136 64.6449 3.97204
20.2288 62.7888 2
21.202 61.0776 0.0298709
19.8903 67.8073 3.98361
20.9417 65.7488 2
21.9098 63.7898 0.0282152
22.8407 66.7249 0.0249153
21.9118 68.8691 2
20.9142 71.1327 4
24.0132 69.8043 0.0121269
23.1494 72.1455 2
25.446 73.0099 0
23.113 12.8614 3.97736
23.9757 10.1827 3.97435
25.025 7.3201 3.97858
25.8591 9.39437 2
26.2823 4.32953 3.9893
27.069 6.5475 2
27.8219 8.66609 0.0229145
27.7943 1.27781 4
28.4873 3.6455 2
29.1564 5.88343 0.0170836
30.1841 0.720551 2
30.7278 3.09909 0.00838785
32.6053 0.320823 0
35.9921 35.9248 3.45346
37.5543 35.9436 2
38.9899 35.9412 0.538735
24.783 12.1172 2
23.7813 14.4547 2
22.5232 15.1386 3.97945
25.3778 13.9965 3.97389
24.083 15.7056 3.99348
26.6313 11.4093 0.0247163
29.2352 12.6601 0.020319
27.3115 13.3936 2
29.8004 14.2167 2
28.4086 15.9812 3.9921
34.7121 34.4754 3.4786
36.0097 34.3931 2
37.5319 34.3626 0.486297
35.8991 32.8166 0.57363
37.5223 30.8344 0.353171
41.8491 28.8675 0.144702
39.6359 29.5144 0.197684
39.8657 28.0844 2
37.4977 29.1858 2
35.6531 31.0457 2
34.5433 33.0655 2
37.6256 27.8665 3.85801
35.3978 29.537 3.80147
34.3682 31.7727 3.6214
33.6815 33.363 3.40779
30.2913 19.5524 3.9792
30.9454 16.8618 2
31.9374 14.5063 0.0167375
40.202 26.1714 0.0344856
38.0162 23.4312 0.00293848
33.5643 17.4608 0.00897528
35.5277 20.339 0.00387255
32.9591 19.9546 2
35.2956 23.0745 2
37.7129 25.7996 2
32.5571 22.6789 4.0019
35.2017 25.6976 3.98432
34.5631 37.5045 3.54435
36.0009 37.4885 2
37.5281 37.4738 0.480172
37.679 50.4109 0.0102291
36.9251 47.6975 0.116521
36.0346 39.0388 0.535998
35.3362 45.4683 0.192746
34.3756 43.2111 0.384725
34.6911 40.5113 0.512928
33.6734 41.6238 0.590734
35.5541 49.6296 2
34.5657 39.0302 2
33.2764 40.6197 2
34.5503 46.9388 2
33.3699 42.3656 2
33.6034 44.7967 2
33.5269 48.748 3.97226
32.9733 39.1716 3.37145
32.5817 40.9857 3.60868
32.2639 43.4974 3.8153
32.8673 45.8718 3.85527
34.5065 52.1456 -0.00185943
32.3551 50.9623 2
30.4634 49.4873 4.00533
30.7689 53.2182 0.00118685
28.8875 51.3659 2
27.1795 49.7186 3.97433
27.2542 53.2765 0.0447819
25.6259 51.5051 2
24.0751 49.9045 3.96764
24.0154 53.2756 0.0463708
22.6016 51.5493 2
21.2689 50.0293 3.96709
18.6581 50.0917 3.97262
18.4262 52.5685 3.96594
19.9042 51.3773 2
17.8205 55.1674 3.96262
19.3783 54.1087 2
21.0096 52.9965 0.0409092
17.2915 57.7638 3.95936
18.6867 56.5815 2
20.2369 55.6666 0.0389862
17.1558 60.4861 3.9602
18.4302 59.0225 2
19.5725 57.7714 0.0386584
17.4194 63.4212 3.96769
18.6398 61.6941 2
19.7404 60.1169 0.0305383
17.946 66.6151 3.98101
19.1344 64.6437 2
20.228 62.7854 0.0289642
18.75 69.9759 4
19.8862 67.803 2
20.9434 65.7495 0.0275718
21.916 68.8713 0.0134941
20.9142 71.1327 2
23.1494 72.1454 0
21.6129 13.6951 3.97035
22.1985 11.0634 3.96985
23.1125 12.8586 2
23.042 8.18758 3.97559
23.9746 10.1916 2
24.1203 5.1442 3.98898
25.0213 7.31932 2
25.8622 9.3968 0.0246768
25.446 1.99014 4
26.2784 4.33059 2
27.0713 6.5486 0.0188399
27.7943 1.27778 2
28.4903 3.64507 0.00954549
30.1841 0.720592 0
34.6396 35.9688 3.50918
36.0138 35.9372 2
37.5204 35.9325 0.507182
21.3661 15.9395 3.96256
24.7911 12.0881 0.027689
23.7815 14.4502 0.0203307
25.3781 13.9709 2
22.5211 15.1271 2
24.0888 15.7133 2
23.3438 16.3465 3.96375
25.4423 16.1821 3.98816
27.303 13.407 0.0268593
29.807 14.2167 0.00988753
28.4007 16.0042 2
27.528 18.9751 3.97864
33.2985 34.3841 3.39513
34.6442 34.4841 2
35.9966 34.3945 0.53769
34.5887 33.0848 0.649763
35.6703 31.1278 0.399324
37.4949 29.2387 0.195785
39.8161 28.1407 0.144383
37.5927 27.8309 2
33.6444 33.3385 2
35.3858 29.4695 2
34.3177 31.6934 2
35.2774 27.959 3.87209
33.6294 30.2218 3.81114
33.4218 32.6995 3.66466
29.878 22.1669 4.00874
30.2943 19.5495 2
30.968 16.8625 0.00291408
37.7161 25.8154 0.0387906
35.3312 23.0907 -0.00842483
32.9496 19.9318 0.00267968
32.5446 22.6479 2
35.2176 25.6877 2
32.1802 25.9774 4.00951
32.7946 37.4976 3.42413
34.5626 37.4961 2
36.0049 37.4699 0.547117
35.5737 49.619 0.0186563
34.6127 46.8675 0.141674
34.5846 39.0251 0.477125
33.648 44.7481 0.19294
33.4235 42.2817 0.334973
33.292 40.6095 0.620629
33.5251 48.7388 2
32.9741 39.1801 2
32.525 41.0449 2
32.856 45.9286 2
32.2186 43.5307 2
31.8335 47.5741 3.98792
31.9397 39.3753 3.60796
31.2618 41.7547 3.82519
31.3762 44.5151 3.86188
32.3389 50.9678 0.000536183
30.4682 49.5185 2
28.6989 47.9018 3.97505
28.8794 51.3496 0.0125955
27.1778 49.722 2
25.5317 48.1554 3.97262
25.6238 51.5058 0.0464918
24.0797 49.9011 2
22.585 48.4664 3.97155
22.5957 51.5523 0.0443757
21.2702 50.0273 2
19.8047 48.8252 3.97505
17.5243 49.114 3.97618
17.3449 51.1997 3.9716
18.6596 50.0904 2
16.8429 53.6893 3.96676
18.4218 52.5689 2
19.9121 51.3767 0.036187
16.2449 56.3441 3.96156
17.8191 55.1681 2
19.3797 54.1083 0.0384646
15.8063 59.1449 3.95762
17.2874 57.7661 2
18.6861 56.5806 0.0379489
15.7933 62.0935 3.97085
17.1586 60.4876 2
18.4307 59.0205 0.041469
16.093 65.2942 3.97635
17.4182 63.4263 2
18.6383 61.6919 0.0242024
16.6661 68.6801 4
17.9424 66.6106 2
19.136 64.6449 0.0279565
18.75 69.9759 2
19.8903 67.8073 0.0163853
20.9142 71.1327 0
20.2518 14.69 3.97174
21.6131 13.6965 2
20.5444 12.067 3.97273
21.1457 9.16142 3.97401
22.1944 11.0746 2
23.113 12.8614 0.0226423
22.0198 6.08292 3.98747
23.0392 8.19018 2
23.9757 10.1827 0.0256537
23.1494 2.85457 4
24.1152 5.14609 2
25.025 7.3201 0.0214241
25.446 1.99012 2
26.2823 4.32953 0.0106997
27.7943 1.27781 0
32.9577 35.8346 3.40164
34.5976 35.9688 2
35.9921 35.9248 0.546539
21.3704 15.9326 2
20.4053 17.0711 3.96222
22.1798 16.7426 3.95868
25.3778 13.9965 0.02611
22.5232 15.1386 0.0205509
24.083 15.7056 0.00652329
25.4453 16.1802 2
23.3519 16.3433 2
24.3104 18.6336 3.98164
27.3218 21.7686 3.99306
28.4086 15.9812 0.00790341
27.5234 18.9953 2
32.6087 33.993 3.60586
33.2825 34.3726 2
34.7121 34.4754 0.521402
33.6815 33.363 0.592206
34.3682 31.7727 0.378596
35.3978 29.537 0.198529
37.6256 27.8665 0.141991
35.2684 27.9122 2
33.362 32.6193 2
33.5866 30.1729 2
33.0996 28.5939 3.88016
32.2609 31.478 3.80897
29.3309 24.6374 4.01496
29.8524 22.1714 2
30.2913 19.5524 0.0207993
35.2017 25.6976 0.0156767
32.5571 22.6789 -0.00189578
32.1705 25.9451 2
30.4098 27.6539 3.97935
31.5868 37.4837 3.60983
32.7898 37.4979 2
34.5631 37.5045 0.455652
33.5269 48.748 0.0277438
32.8673 45.8718 0.144732
32.9733 39.1716 0.628547
32.2639 43.4974 0.184703
32.5817 40.9857 0.391325
31.7764 47.6033 2
31.8462 39.3906 2
31.1983 41.8084 2
31.3177 44.5621 2
30.1494 46.1894 3.98509
30.4758 39.7452 3.83282
29.9495 42.8397 3.88026
30.4634 49.4873 -0.00532501
28.6981 47.9085 2
26.9856 46.3214 3.97842
27.1795 49.7186 0.025674
25.5336 48.152 2
23.8693 46.7282 3.97441
24.0751 49.9045 0.0323587
22.5847 48.466 2
20.8549 47.327 3.97578
21.2689 50.0293 0.0329085
19.8033 48.8241 2
18.3973 47.9404 3.9765
16.7636 48.4792 3.97627
17.5234 49.1138 2
16.3954 49.9796 3.97497
15.8341 52.2456 3.97156
17.3464 51.1987 2
18.6581 50.0917 0.0273835
15.1981 54.8395 3.96452
16.843 53.689 2
18.4262 52.5685 0.0340621
14.5848 57.6634 3.958
16.2442 56.3448 2
17.8205 55.1674 0.0373847
14.2765 60.6593 3.9639
15.8059 59.1465 2
17.2915 57.7638 0.040635
14.3378 63.8537 3.97502
15.7954 62.0955 2
17.1558 60.4861 0.0398023
14.6715 67.2507 4
16.0897 65.2894 2
17.4194 63.4212 0.0323091
16.6661 68.6801 2
17.946 66.6151 0.0189904
18.75 69.9759 0
18.9879 15.8746 3.96179
20.255 14.6831 2
18.9992 13.1882 3.96983
21.6129 13.6951 0.0296451
20.5408 12.0675 2
19.3484 10.2589 3.97187
19.9946 7.14824 3.98512
21.1423 9.16233 2
22.1985 11.0634 0.0301542
20.9142 3.86727 4
22.014 6.08641 2
23.042 8.18758 0.0244114
23.1494 2.85451 2
24.1203 5.1442 0.0110244
25.446 1.99014 0
31.9618 35.6052 3.59881
32.9536 35.8264 2
34.6396 35.9688 0.490817
21.3661 15.9395 0.0374368
22.1866 16.7359 2
20.4137 17.0705 2
19.4655 18.5609 3.95859
21.8898 18.0146 3.98342
25.4423 16.1821 0.0118373
23.3438 16.3465 0.0362503
24.3037 18.6555 2
22.5628 20.095 3.97297
24.9098 21.6148 3.98917
26.9625 23.9292 3.98358
27.3179 21.6796 2
27.528 18.9751 0.0213608
31.3025 33.2304 3.82473
32.5521 33.9399 2
33.2985 34.3841 0.604871
33.4218 32.6995 0.335345
33.6294 30.2218 0.188862
35.2774 27.959 0.127915
33.0595 28.5555 2
32.2042 31.4263 2
31.0582 29.9632 3.90116
28.6906 26.8247 4.00485
29.3192 24.6459 2
29.878 22.1669 -0.00873999
32.1802 25.9774 -0.00950585
30.3993 27.6304 2
30.077 37.4729 3.83196
31.4989 37.4818 2
32.7946 37.4976 0.575872
31.8335 47.5741 0.0120839
31.3762 44.5151 0.138125
31.9397 39.3753 0.392037
31.2618 41.7547 0.174806
30.1537 46.1961 2
30.3777 39.7534 2
29.9184 42.8684 2
28.4868 44.523 3.9653
28.222 40.4364 3.92344
28.6989 47.9018 0.0249472
26.9857 46.3212 2
25.2043 44.8401 3.97978
25.5317 48.1554 0.0273753
23.8671 46.7269 2
21.9169 45.632 3.97737
22.585 48.4664 0.0284501
20.8547 47.3258 2
19.1625 46.5015 3.97589
19.8047 48.8252 0.0249516
18.3973 47.9399 2
17.0228 47.5089 3.97561
16.7648 48.4792 2
15.7554 48.8317 3.97553
17.5243 49.114 0.0238174
16.3969 49.9788 2
14.9398 50.8283 3.97444
14.1572 53.3078 3.96879
15.8354 52.2449 2
17.3449 51.1997 0.0283952
13.4449 56.084 3.96094
15.1977 54.8396 2
16.8429 53.6893 0.0332363
12.8701 59.1007 3.95837
14.5837 57.6645 2
16.2449 56.3441 0.0384388
12.6836 62.2945 3.97002
14.2793 60.6604 2
15.8063 59.1449 0.0423753
12.7746 65.6939 4
14.3349 63.848 2
15.7933 62.0935 0.0291479
14.6714 67.2507 2
16.093 65.2942 0.023651
16.6661 68.6801 0
17.8149 17.2738 3.96029
18.9889 15.8693 2
17.538 14.4449 3.96938
20.2518 14.69 0.028261
18.9987 13.1866 2
17.6499 11.4997 3.97218
20.5444 12.067 0.0272663
19.3447 10.2661 2
18.0544 8.34161 3.98273
18.75 5.0241 4
19.9884 7.15334 2
21.1457 9.16142 0.0259913
20.9142 3.86727 2
22.0198 6.08292 0.0125273
23.1494 2.85457 0
30.4869 35.2528 3.82836
31.8689 35.5832 2
32.9577 35.8346 0.598363
22.1798 16.7426 0.0413195
20.4053 17.0711 0.0377752
21.8948 18.0128 2
19.4574 18.5554 2
18.3527 20.127 3.96319
21.1343 19.5698 3.9721
24.3104 18.6336 0.0183607
22.5576 20.0949 2
24.9236 21.5895 2
22.7962 21.9574 3.9785
25.2684 23.2987 3.98141
26.3094 26.2051 3.98026
26.9663 23.9225 2
27.3218 21.7686 0.00693671
29.7115 32.5931 3.88013
31.2214 33.1862 2
32.6087 33.993 0.394137
32.2609 31.478 0.191031
33.0996 28.5939 0.119843
31.0369 29.9451 2
28.1117 29.4308 4.01052
28.6731 26.8353 2
29.3309 24.6374 -0.0149623
30.4098 27.6539 0.0206472
28.4176 37.3921 3.86912
29.9921 37.4829 2
31.5868 37.4837 0.390168
30.1494 46.1894 0.0149071
29.9495 42.8397 0.119744
30.4758 39.7452 0.167182
28.4865 44.5786 2
28.1827 40.443 2
26.6142 42.9726 3.97978
25.5255 39.4227 3.9769
26.9856 46.3214 0.0215807
25.1941 44.8431 2
23.1391 43.6659 3.97512
23.8693 46.7282 0.0255936
21.9139 45.6328 2
19.9747 44.7424 3.97525
20.8549 47.327 0.0242168
19.162 46.5022 2
17.3985 46.013 3.9756
18.3973 47.9404 0.0234963
17.0233 47.509 2
15.5338 47.4971 3.97527
16.7636 48.4792 0.0237304
15.7572 48.8311 2
14.2562 49.3964 3.97518
16.3954 49.9796 0.0250276
14.9409 50.8275 2
13.2248 51.7585 3.97185
12.3395 54.4496 3.96342
14.1581 53.3074 2
15.8341 52.2456 0.0284429
11.5897 57.4314 3.95961
13.4439 56.0844 2
15.1981 54.8395 0.0354821
11.1398 60.6208 3.96784
12.8735 59.1002 2
14.5848 57.6634 0.041995
10.9835 64.0165 4
12.6818 62.2885 2
14.2765 60.6593 0.0361037
12.7745 65.694 2
14.3378 63.8537 0.0249829
14.6715 67.2507 0
16.6473 18.7868 3.96104
17.8096 17.2679 2
16.1564 15.8511 3.95696
18.9879 15.8746 0.038206
17.5386 14.4401 2
16.0313 12.8575 3.9663
18.9992 13.1882 0.0301748
17.6453 11.5046 2
16.2058 9.66701 3.97799
19.3484 10.2589 0.0281323
18.0492 8.34843 2
16.6661 6.31991 4
18.75 5.02404 2
19.9946 7.14824 0.0148795
20.9142 3.86727 0
28.8878 34.8848 3.88825
30.3779 35.2128 2
31.9618 35.6052 0.401188
17.0997 21.561 3.96957
21.8898 18.0146 0.0165791
19.4655 18.5609 0.0414084
21.1231 19.5642 2
18.3495 20.1237 2
20.222 21.8064 3.97349
22.5628 20.095 0.0270333
24.9098 21.6148 0.0108267
22.7989 21.9561 2
25.2492 23.3554 2
23.6191 24.8634 3.97156
25.6778 28.7985 3.98439
26.2986 26.2125 2
26.9625 23.9292 0.0164188
27.5769 31.9494 3.97955
29.6678 32.5699 2
31.3025 33.2304 0.175273
31.0582 29.9632 0.0988421
28.1258 29.3958 2
28.6906 26.8247 -0.00484526
26.2336 36.8735 3.96653
28.388 37.3907 2
30.077 37.4729 0.168037
28.4868 44.523 0.0347
28.222 40.4364 0.0765598
26.5907 43.0001 2
25.4896 39.4225 2
24.3784 41.6735 3.97818
23.2227 38.5142 3.97606
25.2043 44.8401 0.0202197
23.1376 43.6685 2
20.8711 42.7047 3.97489
21.9169 45.632 0.0226272
19.976 44.743 2
17.8205 44.203 3.97514
19.1625 46.5015 0.0241074
17.3987 46.0136 2
15.504 45.9316 3.97532
17.0228 47.5089 0.0243889
15.5345 47.4971 2
13.7902 47.8683 3.97522
15.7554 48.8317 0.0244673
14.2576 49.3957 2
12.4606 50.145 3.97404
14.9398 50.8283 0.025561
13.2259 51.7578 2
11.3313 52.7676 3.96572
10.3963 55.6854 3.9612
12.3395 54.4494 2
14.1572 53.3078 0.0312131
9.70569 58.8456 3.97055
11.5945 57.4301 2
13.4449 56.084 0.0390646
9.30605 62.2254 4
11.1384 60.615 2
12.8701 59.1007 0.0416302
10.9835 64.0165 2
12.6836 62.2945 0.0299789
12.7746 65.6939 0
15.4572 20.3268 3.96477
16.6566 18.7859 2
14.8686 17.3852 3.95827
17.8149 17.2738 0.0397068
16.1556 15.8467 2
14.4922 14.3312 3.96775
17.538 14.4449 0.0306236
16.032 12.8519 2
14.4495 11.1204 3.97559
17.6499 11.4997 0.0278196
16.2014 9.67492 2
14.6715 7.74927 4
18.0544 8.34161 0.0172748
16.6661 6.31988 2
18.75 5.0241 0
26.8434 34.4058 3.97217
28.8648 34.8927 2
30.4869 35.2528 0.171644
18.3881 22.543 3.97485
16.0044 23.1014 3.97259
17.0998 21.5591 2
21.1343 19.5698 0.0278987
18.3527 20.127 0.0368112
20.2183 21.8038 2
20.3753 24.6561 3.97203
22.7962 21.9574 0.0214977
25.2684 23.2987 0.0185909
23.6113 24.8593 2
23.0427 28.1526 3.97116
25.1437 31.475 3.98313
25.6855 28.767 2
26.3094 26.2051 0.0197384
27.5442 31.9148 2
29.7115 32.5931 0.119867
28.1117 29.4308 -0.0105229
23.9729 36.3334 3.97815
26.2047 36.8641 2
28.4176 37.3921 0.13088
26.6142 42.9726 0.0202244
25.5255 39.4227 0.0230996
24.3525 41.6753 2
23.2203 38.5123 2
22.0192 40.5418 3.97528
21.328 37.7902 3.97793
23.1391 43.6659 0.0248847
20.8725 42.704 2
18.3031 41.9728 3.97572
19.9747 44.7424 0.0247477
17.8209 44.2033 2
15.5534 44.0635 3.97534
17.3985 46.013 0.0244
15.5038 45.9319 2
13.4898 46.1723 3.97516
15.5338 47.4971 0.0247336
13.7911 47.8679 2
11.8508 48.4489 3.9754
14.2562 49.3964 0.0248242
12.4622 50.144 2
10.4644 51.0172 3.96791
13.2248 51.7585 0.028149
11.3321 52.7668 2
9.30286 53.868 3.96229
8.38977 56.9807 3.97171
10.398 55.6841 2
12.3395 54.4496 0.0365778
7.74927 60.3285 4
9.70459 58.8407 2
11.5897 57.4314 0.0403882
9.306 62.2255 2
11.1398 60.6208 0.0321569
10.9835 64.0165 0
14.2917 21.8848 3.96895
15.4571 20.3244 2
13.6134 18.9846 3.96124
16.6473 18.7868 0.0389572
14.8682 17.3825 2
13.043 15.9154 3.96354
16.1564 15.8511 0.043043
14.4981 14.3285 2
12.7872 12.6937 3.97284
16.0313 12.8575 0.0336979
14.4457 11.128 2
12.7746 9.30605 4
16.2058 9.66701 0.0220065
14.6715 7.74924 2
16.6661 6.31991 0
24.5164 33.9136 3.98122
26.8199 34.3996 2
28.8878 34.8848 0.111755
18.2707 24.2811 3.97296
18.3951 22.5432 2
14.8223 24.6204 3.97411
16.0042 23.0995 2
17.0997 21.561 0.0304311
19.9394 27.4774 3.97332
20.222 21.8064 0.0265052
20.3753 24.6543 2
22.4307 30.9157 3.9739
23.6191 24.8634 0.0284359
23.0406 28.1549 2
25.0995 31.4946 2
25.6778 28.7985 0.0156096
27.5769 31.9494 0.0204466
21.4303 35.975 3.97732
23.964 36.3317 2
26.2336 36.8735 0.0334735
24.3784 41.6735 0.0218193
23.2227 38.5142 0.0239386
22.0233 40.5414 2
21.332 37.7918 2
19.0767 38.9663 3.97714
20.8711 42.7047 0.0251088
18.303 41.9729 2
15.5346 41.8313 3.97592
17.8205 44.203 0.0248647
15.5525 44.0638 2
13.2512 44.2918 3.97549
15.504 45.9316 0.0246823
13.49 46.1723 2
11.3645 46.6424 3.97537
13.7902 47.8683 0.0247777
11.8528 48.4479 2
9.73661 49.1828 3.97025
12.4606 50.145 0.0259556
10.4658 51.0162 2
8.32958 51.985 3.96317
11.3313 52.7676 0.0342779
9.30213 53.8667 2
7.19859 55.0331 3.97265
6.31991 58.3339 4
8.38855 56.9762 2
10.3963 55.6854 0.0387986
7.74924 60.3285 2
9.70569 58.8456 0.0294531
9.30605 62.2254 0
13.6727 25.5052 3.97601
13.1868 23.405 3.97297
14.2921 21.8831 2
12.4342 20.6312 3.96391
15.4572 20.3268 0.0352258
13.611 18.9819 2
11.6888 17.5895 3.96006
14.8686 17.3852 0.0417259
13.0507 15.913 2
11.2257 14.3811 3.96612
14.4922 14.3312 0.0322538
12.7857 12.7022 2
10.9835 10.9835 4
14.4495 11.1204 0.0244075
12.7745 9.306 2
14.6715 7.74927 0
21.7958 33.5531 3.97644
24.5185 33.894 2
26.8434 34.4058 0.0278278
16.5866 26.6069 3.97419
18.2744 24.2809 2
18.3881 22.543 0.0251486
14.8198 24.6198 2
16.0044 23.1014 0.0274117
19.3417 30.3873 3.97462
19.9427 27.4779 2
20.3753 24.6561 0.0279746
22.4517 30.914 2
23.0427 28.1526 0.0288398
25.1437 31.475 0.0168724
18.6577 36.014 3.97787
21.4312 35.9762 2
23.9729 36.3334 0.021845
22.0192 40.5418 0.0247162
21.328 37.7902 0.0220674
19.0773 38.9651 2
15.018 39.1472 3.97692
18.3031 41.9728 0.0242801
15.5339 41.8309 2
12.9393 42.2103 3.97601
15.5534 44.0635 0.0246564
13.2508 44.2917 2
10.9483 44.7291 3.97568
13.4898 46.1723 0.0248414
11.3668 46.6417 2
9.11395 47.2707 3.97273
11.8508 48.4489 0.0246037
9.73863 49.1817 2
7.48754 50.0219 3.96388
10.4644 51.0172 0.0320937
8.32777 51.9838 2
6.13902 53.0088 3.97271
9.30286 53.868 0.0377148
7.19792 55.0291 2
5.0241 56.25 4
6.31988 58.3339 2
8.38977 56.9807 0.0282895
7.74927 60.3285 0
13.9691 26.958 3.97492
12.2936 24.8985 3.97513
13.6712 25.5044 2
11.3575 22.31 3.96688
13.1891 23.4042 2
14.2917 21.8848 0.0310475
12.432 20.6292 2
10.4611 19.3467 3.96137
13.6134 18.9846 0.0387637
11.7039 17.5907 2
9.76628 16.1628 3.97001
13.043 15.9154 0.036464
11.2258 14.3868 2
9.30607 12.7746 4
12.7872 12.6937 0.0271631
10.9835 10.9835 2
12.7746 9.30605 0
18.8283 33.2214 3.9757
21.7924 33.5557 2
24.5164 33.9136 0.0187779
16.2166 29.8011 3.97518
16.5866 26.6067 2
18.2707 24.2811 0.0270383
14.8223 24.6204 0.0258927
19.3364 30.3874 2
19.9394 27.4774 0.0266786
22.4307 30.9157 0.0261027
15.6621 36.0481 3.97733
18.6574 36.0149 2
21.4303 35.975 0.0226819
13.1696 37.8273 3.97705
19.0767 38.9663 0.0228562
15.0178 39.1472 2
12.4286 40.1058 3.97652
15.5346 41.8313 0.0240839
12.9385 42.21 2
10.5426 42.7276 3.97614
13.2512 44.2918 0.0245104
10.9501 44.7286 2
8.57747 45.2828 3.97459
11.3645 46.6424 0.0246316
9.11605 47.2697 2
6.76518 47.9907 3.96463
9.73661 49.1828 0.0297489
7.48507 50.0209 2
5.21525 50.9121 3.97267
8.32958 51.985 0.0368294
6.13881 53.0057 2
3.86727 54.0858 4
7.19859 55.0331 0.0273512
5.02404 56.25 2
6.31991 58.3339 0
13.4456 29.1475 3.97451
11.7395 26.5881 3.97492
13.9685 26.958 2
10.4062 24.0317 3.96976
12.2963 24.8979 2
13.6727 25.5052 0.0239948
9.32095 21.162 3.96281
11.3577 22.3092 2
13.1868 23.405 0.0270337
12.4342 20.6312 0.036091
10.47 19.3478 2
8.42216 18.0312 3.9717
11.6888 17.5895 0.0399367
9.76523 16.1671 2
7.74928 14.6715 4
11.2257 14.3811 0.0338816
9.30602 12.7745 2
10.9835 10.9835 0
15.1911 32.944 3.97623
18.8288 33.222 2
21.7958 33.5531 0.0235582
16.2153 29.8002 2
16.5866 26.6069 0.0258094
19.3417 30.3873 0.0253795
13.4792 36.2268 3.97669
15.662 36.0482 2
18.6577 36.014 0.0221347
13.1686 37.8273 2
11.7418 38.3017 3.9767
15.018 39.1472 0.0230759
12.4278 40.1058 2
10.1116 40.7258 3.97655
12.9393 42.2103 0.0239884
10.5446 42.7271 2
8.11686 43.2426 3.97531
10.9483 44.7291 0.0243192
8.5804 45.2817 2
6.16194 45.8985 3.9648
9.11395 47.2707 0.027271
6.7626 47.9899 2
4.42623 48.7522 3.97241
7.48754 50.0219 0.036116
5.21541 50.9099 2
2.85457 51.8506 4
6.13902 53.0088 0.0272875
3.86727 54.0858 2
5.0241 56.25 0
12.5679 31.3313 3.97574
11.1463 28.4986 3.97492
13.4448 29.1469 2
9.61555 25.8525 3.97207
11.7411 26.5881 2
13.9691 26.958 0.0250808
8.29407 23.0406 3.96406
10.4085 24.0319 2
12.2936 24.8985 0.0248707
7.20445 19.9787 3.97283
9.32616 21.1634 2
11.3575 22.31 0.0331188
10.4611 19.3467 0.0386297
8.42145 18.0356 2
6.31992 16.6661 4
9.76628 16.1628 0.0299933
7.74926 14.6714 2
9.30607 12.7746 0
12.604 34.3381 3.97665
15.1908 32.945 2
18.8283 33.2214 0.0243001
16.2166 29.8011 0.0248225
11.2686 36.6235 3.97658
13.4785 36.2268 2
15.6621 36.0481 0.0226678
13.1696 37.8273 0.0229468
11.7412 38.3015 2
9.68403 38.8134 3.9768
12.4286 40.1058 0.023479
10.1131 40.7253 2
7.71773 41.195 3.97545
10.5426 42.7276 0.0238615
8.11915 43.2416 2
5.66598 43.7635 3.96497
8.57747 45.2828 0.025409
6.15829 45.898 2
3.77142 46.5372 3.9725
6.76518 47.9907 0.0353722
4.42679 48.7506 2
1.99014 49.554 4
5.21525 50.9121 0.0273299
2.85451 51.8506 2
3.86727 54.0858 0
11.3528 32.9716 3.97642
10.4442 30.4425 3.97557
12.567 31.332 2
8.90884 27.7755 3.97363
11.1476 28.4987 2
13.4456 29.1475 0.0254941
7.40439 24.9945 3.96464
9.61824 25.853 2
11.7395 26.5881 0.0250838
6.12112 22.0008 3.97338
8.29481 23.0415 2
10.4062 24.0317 0.0302398
5.02411 18.75 4
7.20397 19.9823 2
9.32095 21.162 0.0371941
8.42216 18.0312 0.0283047
6.3199 16.6661 2
7.74928 14.6715 0
10.8451 35.0251 3.97633
12.6027 34.3382 2
15.1911 32.944 0.0237685
9.33343 36.9899 3.97669
11.268 36.6236 2
13.4792 36.2268 0.0233137
11.7418 38.3017 0.0233038
9.68558 38.8131 2
7.38435 39.1756 3.97529
10.1116 40.7258 0.0234528
7.72106 41.1942 2
5.27548 41.611 3.96541
8.11686 43.2426 0.024692
5.66346 43.7631 2
3.24877 44.2817 3.97343
6.16194 45.8985 0.0351985
3.77224 46.5361 2
1.27781 47.2057 4
4.42623 48.7522 0.0275943
1.99012 49.554 2
2.85457 51.8506 0
10.4687 33.9152 3.97604
9.70675 32.1964 3.97611
11.3528 32.9721 2
8.23705 29.7279 3.97412
10.4459 30.4435 2
12.5679 31.3313 0.0242633
6.63413 27.0168 3.96472
8.91211 27.7762 2
11.1463 28.4986 0.0250796
5.17594 24.0934 3.97312
7.40242 24.9951 2
9.61555 25.8525 0.027926
3.86728 20.9142 4
6.12105 22.0033 2
8.29407 23.0406 0.0359389
5.02406 18.75 2
7.20445 19.9787 0.0271719
6.31992 16.6661 0
9.1419 35.2967 3.97647
10.845 35.0252 2
12.604 34.3381 0.0233519
7.15518 37.2075 3.97481
9.33538 36.9898 2
11.2686 36.6235 0.0234184
9.68403 38.8134 0.0231984
7.38718 39.1753 2
4.99828 39.4662 3.9659
7.71773 41.195 0.0245482
5.27373 41.6108 2
2.859 42.0018 3.97394
5.66598 43.7635 0.0350289
3.24942 44.281 2
0.720592 44.8159 4
3.77142 46.5372 0.0274993
1.27778 47.2057 2
1.99014 49.554 0
9.17854 33.7255 3.97646
10.4694 33.9155 2
7.6625 31.6322 3.97432
9.70932 32.1973 2
11.3528 32.9716 0.0235832
5.96945 29.0756 3.96473
8.23983 29.7287 2
10.4442 30.4425 0.024432
4.36298 26.2465 3.97283
6.63056 27.0172 2
8.90884 27.7755 0.0263711
2.85458 23.1494 4
5.17626 24.0951 2
7.40439 24.9945 0.0353586
3.86728 20.9142 2
6.12112 22.0008 0.0266228
5.02411 18.75 0
7.10127 35.3145 3.97451
9.14457 35.2968 2
10.8451 35.0251 0.0236676
4.8454 37.3402 3.96619
7.15824 37.2074 2
9.33343 36.9899 0.023315
7.38435 39.1756 0.0247072
4.997 39.4661 2
2.60687 39.7135 3.97435
5.27548 41.611 0.034595
2.85993 42.0016 2
0.320823 42.3947 4
3.24877 44.2817 0.0265673
0.720551 44.8159 2
1.27781 47.2057 0
7.26517 33.476 3.97437
9.18127 33.7258 2
10.4687 33.9152 0.0239563
5.43002 31.1378 3.9653
7.66422 31.6327 2
9.70675 32.1964 0.0238919
3.68411 28.4433 3.97308
5.96505 29.0759 2
8.23705 29.7279 0.0258847
1.99015 25.446 4
4.36358 26.2477 2
6.63413 27.0168 0.0352802
2.85453 23.1494 2
5.17594 24.0934 0.026876
3.86728 20.9142 0
4.85903 35.2533 3.96626
7.10326 35.3146 2
9.1419 35.2967 0.0235308
2.49833 37.4283 3.97528
4.84531 37.3405 2
7.15518 37.2075 0.0251937
4.99828 39.4662 0.0341023
2.60794 39.7139 2
0.080333 39.9526 4
2.859 42.0018 0.0260589
0.320817 42.3947 2
0.720592 44.8159 0
5.05296 33.1931 3.9659
7.26682 33.4763 2
9.17854 33.7255 0.0235407
3.14806 30.6665 3.97376
5.42628 31.138 2
7.6625 31.6322 0.0256783
1.27793 27.7943 4
3.685 28.4441 2
5.96945 29.0756 0.0352745
1.99013 25.446 2
4.36298 26.2465 0.0271667
2.85458 23.1494 0
2.55033 35.1592 3.97519
4.86 35.2536 2
7.10127 35.3145 0.0254916
0 37.5 4
2.49875 37.429 2
4.8454 37.3402 0.0338059
2.60687 39.7135 0.0256485
0.0802903 39.9526 2
0.320823 42.3947 0
2.76803 32.9062 3.97494
5.05297 33.1933 2
7.26517 33.476 0.0256267
0.721173 30.1842 4
3.14909 30.6671 2
5.43002 31.1378 0.0346991
1.27779 27.7943 2
3.68411 28.4433 0.0269199
1.99015 25.446 0
0.0806499 35.0474 4
2.55124 35.1596 2
4.85903 35.2533 0.0337409
0 37.5 2
2.49833 37.4283 0.0247168
0.080333 39.9526 0
0.32156 32.6054 4
2.76859 32.9066 2
5.05296 33.1931 0.0341016
0.72056 30.1841 2
3.14806 30.6665 0.0262427
1.27793 27.7943 0
0.0802889 35.0474 2
2.55033 35.1592 0.0248137
0 37.5 0
0.320817 32.6053 2
2.76803 32.9062 0.025065
0.721173 30.1842 0
0.0806499 35.0474 0
0.32156 32.6054 0
CELLS 1910 17190
8 18 6 25 56 2 0 5 16
8 57 23 6 18 17 4 0 2
8 78 36 9 29 31 11 1 7
8 31 11 1 7 79 37 10 30
8 110 57 18 50 48 17 2 14
8 50 18 56 111 14 2 16 49
8 116 62 22 55 52 20 3 15
8 56 25 67 118 16 5 24 53
8 119 63 23 57 54 21 4 17
8 55 22 63 119 15 3 21 54
8 58 26 68 121 18 6 25 56
8 122 65 26 58 57 23 6 18
8 73 31 7 27 142 79 30 71
8 143 78 29 72 73 31 7 27
8 83 147 76 34 32 74 28 8
8 84 148 78 36 33 75 29 9
8 76 34 8 28 148 84 33 75
8 37 79 150 86 10 30 77 35
8 151 87 36 78 80 38 11 31
8 80 38 11 31 152 88 37 79
8 175 100 42 94 96 44 12 40
8 44 96 176 101 12 40 95 43
8 101 176 98 46 43 95 41 13
8 46 98 178 103 13 41 97 45
8 178 103 45 97 147 83 32 74
8 189 116 55 109 106 52 15 47
8 111 56 118 191 49 16 53 107
8 192 119 57 110 108 54 17 48
8 109 55 119 192 47 15 54 108
8 194 122 58 112 110 57 18 50
8 112 58 121 195 50 18 56 111
8 115 61 19 51 197 124 59 113
8 115 61 125 198 51 19 60 114
8 198 125 62 116 114 60 20 52
8 200 127 64 120 116 62 22 55
8 118 67 132 202 53 24 66 117
8 121 68 133 203 56 25 67 118
8 120 64 128 204 55 22 63 119
8 204 128 65 122 119 63 23 57
8 206 134 68 121 123 69 26 58
8 123 69 26 58 207 131 65 122
8 226 147 74 138 140 76 28 70
8 229 148 75 139 143 78 29 72
8 140 76 28 70 229 148 75 139
8 142 79 30 71 231 150 77 141
8 144 80 31 73 232 152 79 142
8 233 151 78 143 144 80 31 73
8 150 86 35 77 235 154 81 145
8 235 154 81 145 146 82 39 91
8 146 82 39 91 236 155 90 165
8 238 157 83 147 149 85 34 76
8 239 158 84 148 151 87 36 78
8 149 85 34 76 239 158 84 148
8 152 88 37 79 241 160 86 150
8 242 161 87 151 153 89 38 80
8 153 89 38 80 243 162 88 152
8 171 98 41 92 265 178 97 169
8 265 178 97 169 226 147 74 138
8 172 96 40 93 266 176 95 170
8 266 176 95 170 171 98 41 92
8 269 175 94 173 172 96 40 93
8 271 180 99 174 175 100 42 94
8 197 124 59 113 271 180 99 174
8 272 181 100 175 177 102 44 96
8 273 182 101 176 179 104 46 98
8 177 102 44 96 273 182 101 176
8 179 104 46 98 275 184 103 178
8 275 184 103 178 238 157 83 147
8 188 115 51 105 283 197 113 186
8 188 115 198 284 105 51 114 187
8 284 198 116 189 187 114 52 106
8 286 200 120 193 189 116 55 109
8 191 118 202 288 107 53 117 190
8 195 121 203 289 111 56 118 191
8 193 120 204 290 109 55 119 192
8 290 204 122 194 192 119 57 110
8 196 123 58 112 292 207 122 194
8 293 206 121 195 196 123 58 112
8 199 126 61 115 297 211 124 197
8 298 212 127 200 198 125 62 116
8 199 126 212 298 115 61 125 198
8 205 129 64 120 300 214 127 200
8 301 217 130 201 202 132 66 117
8 209 136 168 264 301 217 130 201
8 302 219 132 202 203 133 67 118
8 303 220 133 203 206 134 68 121
8 205 129 215 304 120 64 128 204
8 304 215 131 207 204 128 65 122
8 306 221 134 206 208 135 69 123
8 208 135 69 123 307 218 131 207
8 210 137 167 263 309 223 136 209
8 328 238 147 226 230 149 76 140
8 228 146 91 166 329 236 165 260
8 231 150 77 141 330 235 145 227
8 330 235 145 227 228 146 91 166
8 332 239 148 229 233 151 78 143
8 230 149 76 140 332 239 148 229
8 232 152 79 142 334 241 150 231
8 234 153 80 144 335 243 152 232
8 336 242 151 233 234 153 80 144
8 236 155 90 165 338 245 164 259
8 241 160 86 150 339 246 154 235
8 339 246 154 235 237 156 82 146
8 237 156 82 146 340 247 155 236
8 342 249 157 238 240 159 85 149
8 343 250 158 239 242 161 87 151
8 240 159 85 149 343 250 158 239
8 243 162 88 152 345 252 160 241
8 244 163 253 346 153 89 161 242
8 244 163 89 153 347 254 162 243
8 311 224 261 371 210 137 167 263
8 263 167 262 372 209 136 168 264
8 267 179 98 171 375 275 178 265
8 375 275 178 265 328 238 147 226
8 376 273 176 266 267 179 98 171
8 268 177 96 172 376 273 176 266
8 379 272 175 269 268 177 96 172
8 380 271 174 270 269 175 94 173
8 283 197 113 186 380 271 174 270
8 381 277 180 271 272 181 100 175
8 297 211 124 197 381 277 180 271
8 382 278 181 272 274 183 102 177
8 274 183 102 177 383 279 182 273
8 383 279 182 273 276 185 104 179
8 385 281 184 275 342 249 157 238
8 276 185 104 179 385 281 184 275
8 285 199 115 188 393 297 197 283
8 394 298 200 286 284 198 116 189
8 285 199 298 394 188 115 198 284
8 291 205 120 193 396 300 200 286
8 397 301 201 287 288 202 117 190
8 295 209 264 374 397 301 201 287
8 398 302 202 288 289 203 118 191
8 399 303 203 289 293 206 121 195
8 291 205 304 400 193 120 204 290
8 400 304 207 292 290 204 122 194
8 294 208 123 196 402 307 207 292
8 403 306 206 293 294 208 123 196
8 296 210 263 373 405 309 209 295
8 408 312 213 299 297 211 126 199
8 299 213 313 409 199 126 212 298
8 409 313 214 300 298 212 127 200
8 305 216 129 205 411 315 214 300
8 412 318 217 301 302 219 132 202
8 309 223 136 209 412 318 217 301
8 413 320 219 302 303 220 133 203
8 306 221 321 414 206 134 220 303
8 307 218 131 207 415 316 215 304
8 305 216 316 415 205 129 215 304
8 417 322 221 306 308 222 135 208
8 308 222 135 208 418 319 218 307
8 310 225 137 210 420 325 223 309
8 423 326 224 311 310 225 137 210
8 329 236 165 260 441 338 259 368
8 442 342 238 328 333 240 149 230
8 331 237 146 228 443 340 236 329
8 334 241 150 231 444 339 235 330
8 444 339 235 330 331 237 146 228
8 446 343 239 332 336 242 151 233
8 333 240 149 230 446 343 239 332
8 335 243 152 232 448 345 241 334
8 337 244 153 234 449 347 243 335
8 337 244 346 450 234 153 242 336
8 338 245 164 259 452 349 258 367
8 340 247 155 236 453 350 245 338
8 345 252 160 241 454 351 246 339
8 454 351 246 339 341 248 156 237
8 341 248 156 237 455 352 247 340
8 240 159 251 344 342 249 354 457
8 242 161 253 346 343 250 355 458
8 343 250 355 458 240 159 251 344
8 347 254 162 243 460 357 252 345
8 348 255 358 461 244 163 253 346
8 348 255 163 244 462 359 254 347
8 473 360 257 365 363 256 364 482
8 452 349 258 367 365 257 366 485
8 422 324 369 488 311 224 261 371
8 371 261 370 490 263 167 262 372
8 407 311 371 491 296 210 263 373
8 373 263 372 492 295 209 264 374
8 493 385 275 375 442 342 238 328
8 377 276 179 267 493 385 275 375
8 378 274 177 268 494 383 273 376
8 494 383 273 376 377 276 179 267
8 497 382 272 379 378 274 177 268
8 498 381 271 380 379 272 175 269
8 393 297 197 283 498 381 271 380
8 499 387 277 381 382 278 181 272
8 408 312 211 297 499 387 277 381
8 500 388 278 382 384 280 183 274
8 501 389 279 383 386 282 185 276
8 384 280 183 274 501 389 279 383
8 386 282 185 276 503 391 281 385
8 503 391 281 385 457 354 249 342
8 511 408 299 395 393 297 199 285
8 395 299 409 512 285 199 298 394
8 512 409 300 396 394 298 200 286
8 401 305 205 291 514 411 300 396
8 515 412 301 397 398 302 202 288
8 405 309 209 295 515 412 301 397
8 516 413 302 398 399 303 203 289
8 403 306 414 517 293 206 303 399
8 402 307 207 292 518 415 304 400
8 401 305 415 518 291 205 304 400
8 404 308 208 294 520 418 307 402
8 521 417 306 403 404 308 208 294
8 406 310 210 296 523 420 309 405
8 526 423 311 407 406 310 210 296
8 410 314 213 299 527 424 312 408
8 528 425 315 411 409 313 214 300
8 410 314 425 528 299 213 313 409
8 416 317 216 305 530 427 315 411
8 531 430 318 412 413 320 219 302
8 420 325 223 309 531 430 318 412
8 532 432 320 413 414 321 220 303
8 417 322 433 533 306 221 321 414
8 418 319 218 307 534 428 316 415
8 416 317 428 534 305 216 316 415
8 419 323 434 536 308 222 322 417
8 419 323 222 308 537 431 319 418
8 421 327 225 310 539 438 325 420
8 421 327 439 541 310 225 326 423
8 543 437 324 422 423 326 224 311
8 441 338 259 368 559 452 367 486
8 443 340 236 329 560 453 338 441
8 333 240 344 447 442 342 457 561
8 445 341 237 331 562 455 340 443
8 448 345 241 334 563 454 339 444
8 563 454 339 444 445 341 237 331
8 336 242 346 450 446 343 458 565
8 446 343 458 565 333 240 344 447
8 449 347 243 335 567 460 345 448
8 451 348 244 337 568 462 347 449
8 451 348 461 569 337 244 346 450
8 570 463 349 452 473 360 257 365
8 453 350 245 338 570 463 349 452
8 455 352 247 340 571 464 350 453
8 460 357 252 345 572 465 351 454
8 572 465 351 454 456 353 248 341
8 456 353 248 341 573 466 352 455
8 344 251 356 459 457 354 468 575
8 458 355 469 576 344 251 356 459
8 346 253 358 461 458 355 469 576
8 462 359 254 347 578 471 357 460
8 348 255 359 462 461 358 472 579
8 591 474 360 473 475 361 256 363
8 475 361 256 363 594 477 362 479
8 363 256 364 482 479 362 480 603
8 590 473 365 484 481 363 482 605
8 482 364 257 365 606 483 366 485
8 559 452 367 486 484 365 485 607
8 542 436 487 609 422 324 369 488
8 525 422 488 611 407 311 371 491
8 488 369 489 612 371 261 370 490
8 491 371 490 613 373 263 372 492
8 495 386 276 377 614 503 385 493
8 614 503 385 493 561 457 342 442
8 615 501 383 494 495 386 276 377
8 496 384 274 378 615 501 383 494
8 618 500 382 497 496 384 274 378
8 619 499 381 498 497 382 272 379
8 511 408 297 393 619 499 381 498
8 620 505 387 499 500 388 278 382
8 527 424 312 408 620 505 387 499
8 502 390 506 621 384 280 388 500
8 622 507 389 501 504 392 282 386
8 502 390 280 384 622 507 389 501
8 504 392 282 386 624 509 391 503
8 624 509 391 503 575 468 354 457
8 513 410 299 395 630 527 408 511
8 631 528 411 514 512 409 300 396
8 513 410 528 631 395 299 409 512
8 519 416 305 401 633 530 411 514
8 634 531 412 515 516 413 302 398
8 523 420 309 405 634 531 412 515
8 635 532 413 516 517 414 303 399
8 521 417 533 636 403 306 414 517
8 520 418 307 402 637 534 415 518
8 519 416 534 637 401 305 415 518
8 522 419 308 404 639 537 418 520
8 522 419 536 640 404 308 417 521
8 524 421 310 406 642 539 420 523
8 524 421 541 644 406 310 423 526
8 646 543 422 525 526 423 311 407
8 529 426 314 410 647 544 424 527
8 528 425 545 648 411 315 427 530
8 529 426 545 648 410 314 425 528
8 535 429 317 416 649 546 427 530
8 650 548 430 531 532 432 320 413
8 539 438 325 420 650 548 430 531
8 533 433 550 651 414 321 432 532
8 536 434 551 652 417 322 433 533
8 537 431 319 418 653 547 428 534
8 535 429 547 653 416 317 428 534
8 538 435 552 654 419 323 434 536
8 538 435 323 419 655 549 431 537
8 540 440 327 421 657 556 438 539
8 540 440 557 659 421 327 439 541
8 541 439 555 660 423 326 437 543
8 661 554 436 542 543 437 324 422
8 676 570 452 559 590 473 365 484
8 560 453 338 441 676 570 452 559
8 562 455 340 443 677 571 453 560
8 447 344 459 566 561 457 575 678
8 564 456 341 445 679 573 455 562
8 567 460 345 448 680 572 454 563
8 680 572 454 563 564 456 341 445
8 565 458 576 682 447 344 459 566
8 450 346 461 569 565 458 576 682
8 568 462 347 449 684 578 460 567
8 451 348 462 568 569 461 579 685
8 686 580 463 570 591 474 360 473
8 571 464 350 453 686 580 463 570
8 573 466 352 455 687 581 464 571
8 572 465 582 688 460 357 471 578
8 574 467 582 688 456 353 465 572
8 574 467 353 456 689 583 466 573
8 459 356 470 577 575 468 585 691
8 576 469 586 692 459 356 470 577
8 461 358 472 579 576 469 586 692
8 462 359 471 578 579 472 588 694
8 704 591 473 590 593 475 363 481
8 595 476 592 705 475 361 474 591
8 593 475 363 481 707 594 479 602
8 594 477 362 479 709 598 478 600
8 595 476 361 475 711 597 477 594
8 479 362 480 603 600 478 601 720
8 481 363 482 605 602 479 603 722
8 603 480 364 482 723 604 483 606
8 605 482 365 484 724 606 485 607
8 656 553 608 726 542 436 487 609
8 645 542 609 728 525 422 488 611
8 609 487 610 729 488 369 489 612
8 611 488 612 730 491 371 490 613
8 616 504 386 495 731 624 503 614
8 731 624 503 614 678 575 457 561
8 732 622 501 615 616 504 386 495
8 617 502 384 496 732 622 501 615
8 617 502 621 735 496 384 500 618
8 736 620 499 619 618 500 382 497
8 630 527 408 511 736 620 499 619
8 621 506 626 737 500 388 505 620
8 647 544 424 527 737 626 505 620
8 623 508 627 738 502 390 506 621
8 623 508 390 502 739 628 507 622
8 625 510 628 739 504 392 507 622
8 740 629 509 624 691 585 468 575
8 625 510 392 504 740 629 509 624
8 632 529 410 513 744 647 527 630
8 631 528 648 745 514 411 530 633
8 632 529 648 745 513 410 528 631
8 638 535 416 519 746 649 530 633
8 747 650 531 634 635 532 413 516
8 642 539 420 523 747 650 531 634
8 636 533 651 748 517 414 532 635
8 640 536 652 749 521 417 533 636
8 639 537 418 520 750 653 534 637
8 638 535 653 750 519 416 534 637
8 641 538 419 522 751 655 537 639
8 641 538 654 752 522 419 536 640
8 643 540 421 524 753 657 539 642
8 643 540 659 755 524 421 541 644
8 644 541 660 757 526 423 543 646
8 758 661 542 645 646 543 422 525
8 529 426 544 647 648 545 662 759
8 530 427 545 648 649 546 663 760
8 535 429 546 649 653 547 664 761
8 762 666 548 650 651 550 432 532
8 657 556 438 539 762 666 548 650
8 652 551 668 763 533 433 550 651
8 654 552 669 764 536 434 551 652
8 655 549 431 537 765 665 547 653
8 538 435 549 655 654 552 667 766
8 661 554 671 768 542 436 553 656
8 658 558 440 540 769 674 556 657
8 658 558 675 770 540 440 557 659
8 659 557 673 771 541 439 555 660
8 660 555 672 772 543 437 554 661
8 788 686 570 676 704 591 473 590
8 677 571 453 560 788 686 570 676
8 679 573 455 562 789 687 571 677
8 566 459 577 683 678 575 691 790
8 681 574 456 564 791 689 573 679
8 680 572 688 792 567 460 578 684
8 681 574 688 792 564 456 572 680
8 682 576 692 794 566 459 577 683
8 569 461 579 685 682 576 692 794
8 568 462 578 684 685 579 694 796
8 687 581 464 571 798 696 580 686
8 798 696 580 686 705 592 474 591
8 689 583 466 573 799 697 581 687
8 688 582 698 800 578 471 588 694
8 690 584 698 800 574 467 582 688
8 690 584 467 574 801 699 583 689
8 693 587 701 803 577 470 585 691
8 693 587 470 577 804 702 586 692
8 695 589 702 804 579 472 586 692
8 695 589 472 579 805 703 588 694
8 708 595 705 813 593 475 591 704
8 710 596 706 814 595 476 592 705
8 707 594 479 602 816 709 600 719
8 708 595 475 593 817 711 594 707
8 709 598 478 600 819 715 599 717
8 711 597 477 594 820 714 598 709
8 710 596 476 595 822 713 597 711
8 600 478 601 720 717 599 718 832
8 602 479 603 722 719 600 720 834
8 720 601 480 603 835 721 604 723
8 722 603 482 605 836 723 606 724
8 767 670 725 839 656 553 608 726
8 756 656 726 841 645 542 609 728
8 726 608 727 842 609 487 610 729
8 728 609 729 843 611 488 612 730
8 844 740 624 731 790 691 575 678
8 733 625 504 616 844 740 624 731
8 734 623 502 617 845 739 622 732
8 733 625 739 845 616 504 622 732
8 734 623 738 846 617 502 621 735
8 735 621 737 847 618 500 620 736
8 744 647 527 630 847 737 620 736
8 621 506 627 738 737 626 741 848
8 647 544 626 737 759 662 741 848
8 623 508 628 739 738 627 742 849
8 740 629 585 691 850 743 700 802
8 625 510 629 740 739 628 743 850
8 632 529 647 744 745 648 759 854
8 633 530 648 745 746 649 760 855
8 638 535 649 746 750 653 761 856
8 857 762 650 747 748 651 532 635
8 753 657 539 642 857 762 650 747
8 749 652 763 858 636 533 651 748
8 752 654 764 859 640 536 652 749
8 751 655 537 639 860 765 653 750
8 641 538 655 751 752 654 766 861
8 754 658 540 643 862 769 657 753
8 754 658 770 863 643 540 659 755
8 755 659 771 864 644 541 660 757
8 758 661 768 866 645 542 656 756
8 757 660 772 867 646 543 661 758
8 759 662 773 868 648 545 663 760
8 649 546 663 760 761 664 774 871
8 765 665 547 653 872 775 664 761
8 873 777 666 762 763 668 550 651
8 769 674 556 657 873 777 666 762
8 764 669 779 874 652 551 668 763
8 654 552 667 766 764 669 778 875
8 655 549 665 765 766 667 776 876
8 768 671 782 877 656 553 670 767
8 772 672 783 878 661 554 671 768
8 658 558 674 769 770 675 786 879
8 659 557 675 770 771 673 785 881
8 882 784 672 772 771 673 555 660
8 789 687 571 677 897 798 686 788
8 897 798 686 788 813 705 591 704
8 791 689 573 679 898 799 687 789
8 795 693 803 900 683 577 691 790
8 793 690 574 681 901 801 689 791
8 792 688 800 902 684 578 694 796
8 793 690 800 902 681 574 688 792
8 795 693 577 683 903 804 692 794
8 797 695 804 903 685 579 692 794
8 797 695 579 685 904 805 694 796
8 905 806 697 799 798 696 581 687
8 814 706 806 905 705 592 696 798
8 689 583 697 799 801 699 808 907
8 800 698 809 908 694 588 703 805
8 690 584 699 801 800 698 809 908
8 803 701 810 909 691 585 700 802
8 693 587 702 804 803 701 811 910
8 695 589 703 805 804 702 812 911
8 818 710 814 919 708 595 705 813
8 821 712 815 920 710 596 706 814
8 816 709 600 719 922 819 717 831
8 817 711 594 707 923 820 709 816
8 818 710 595 708 924 822 711 817
8 819 715 599 717 926 827 716 829
8 820 714 598 709 927 826 715 819
8 929 825 713 822 820 714 597 711
8 821 712 596 710 930 824 713 822
8 717 599 718 832 829 716 830 942
8 719 600 720 834 831 717 832 944
8 832 718 601 720 945 833 721 835
8 834 720 603 722 946 835 723 836
8 869 780 838 950 767 670 725 839
8 865 767 839 952 756 656 726 841
8 839 725 840 953 726 608 727 842
8 841 726 842 954 728 609 729 843
8 844 740 691 790 955 850 802 899
8 733 625 740 844 845 739 850 955
8 734 623 739 845 846 738 849 956
8 735 621 738 846 847 737 848 957
8 744 647 737 847 854 759 848 957
8 738 627 742 849 848 741 851 958
8 848 741 851 958 759 662 773 868
8 850 743 700 802 959 852 807 906
8 849 742 628 739 959 852 743 850
8 854 759 868 965 745 648 760 855
8 746 649 760 855 856 761 871 966
8 860 765 653 750 967 872 761 856
8 968 873 762 857 858 763 651 748
8 862 769 657 753 968 873 762 857
8 859 764 874 969 749 652 763 858
8 752 654 766 861 859 764 875 970
8 751 655 765 860 861 766 876 971
8 754 658 769 862 863 770 879 972
8 755 659 770 863 864 771 881 974
8 976 882 772 867 864 771 660 757
8 866 768 877 977 756 656 767 865
8 867 772 878 978 758 661 768 866
8 760 663 773 868 871 774 883 980
8 870 781 837 948 982 890 780 869
8 982 890 780 869 877 782 670 767
8 761 664 774 871 872 775 884 984
8 876 776 665 765 985 885 775 872
8 873 777 668 763 986 887 779 874
8 769 674 777 873 879 786 887 986
8 764 669 778 875 874 779 888 987
8 766 667 776 876 875 778 886 988
8 878 783 892 989 768 671 782 877
8 878 783 672 772 990 893 784 882
8 880 787 675 770 991 896 786 879
8 880 787 895 992 770 675 785 881
8 881 785 894 993 771 673 784 882
8 1006 905 799 898 897 798 687 789
8 919 814 905 1006 813 705 798 897
8 791 689 799 898 901 801 907 1007
8 900 803 909 1009 790 691 802 899
8 795 693 804 903 900 803 910 1010
8 902 800 908 1011 796 694 805 904
8 793 690 801 901 902 800 908 1011
8 797 695 805 904 903 804 911 1012
8 799 697 806 905 907 808 912 1013
8 920 815 912 1013 814 706 806 905
8 802 700 810 909 906 807 913 1014
8 801 699 808 907 908 809 914 1015
8 805 703 809 908 911 812 915 1016
8 803 701 811 910 909 810 916 1017
8 911 812 917 1018 804 702 811 910
8 925 821 920 1030 818 710 814 919
8 928 823 921 1031 821 712 815 920
8 922 819 717 831 1033 926 829 941
8 923 820 709 816 1034 927 819 922
8 1035 929 822 924 923 820 711 817
8 925 821 710 818 1036 930 822 924
8 1038 933 825 929 927 826 714 820
8 926 827 716 829 1039 935 828 939
8 927 826 715 819 1040 934 827 926
8 928 823 712 821 1041 931 824 930
8 1042 932 824 930 929 825 713 822
8 829 716 830 942 939 828 940 1058
8 831 717 832 944 941 829 942 1060
8 942 830 718 832 1061 943 833 945
8 944 832 720 834 1062 945 835 946
8 981 889 947 1064 870 781 837 948
8 948 837 949 1067 869 780 838 950
8 975 869 950 1069 865 767 839 952
8 950 838 951 1070 839 725 840 953
8 952 839 953 1071 841 726 842 954
8 955 850 802 899 1072 959 906 1008
8 956 849 739 845 1072 959 850 955
8 846 738 849 956 957 848 958 1073
8 957 848 958 1073 854 759 868 965
8 849 742 852 959 958 851 961 1076
8 960 853 961 1076 906 807 852 959
8 958 851 961 1076 868 773 883 980
8 960 853 807 906 1077 963 913 1014
8 855 760 868 965 966 871 980 1085
8 856 761 871 966 967 872 984 1086
8 971 876 765 860 1087 985 872 967
8 968 873 763 858 1088 986 874 969
8 862 769 873 968 972 879 986 1088
8 859 764 875 970 969 874 987 1089
8 861 766 876 971 970 875 988 1090
8 973 880 770 863 1091 991 879 972
8 973 880 992 1092 863 770 881 974
8 974 881 993 1093 864 771 882 976
8 979 870 948 1066 1094 982 869 975
8 1094 982 869 975 977 877 767 865
8 978 878 772 867 1095 990 882 976
8 978 878 989 1096 866 768 877 977
8 871 774 883 980 984 884 994 1099
8 983 891 999 1100 870 781 889 981
8 1101 1000 890 982 989 892 782 877
8 983 891 781 870 1101 1000 890 982
8 872 775 884 984 985 885 995 1103
8 876 776 885 985 988 886 996 1104
8 986 887 779 874 1105 998 888 987
8 879 786 887 986 991 896 998 1105
8 875 778 886 988 987 888 997 1106
8 990 893 1002 1107 878 783 892 989
8 1108 1003 893 990 993 894 784 882
8 880 787 896 991 992 895 1005 1109
8 993 894 785 881 1110 1004 895 992
8 898 799 905 1006 1007 907 1013 1120
8 1030 920 1013 1120 919 814 905 1006
8 901 801 907 1007 1011 908 1015 1121
8 899 802 909 1009 1008 906 1014 1122
8 900 803 910 1010 1009 909 1017 1123
8 1012 911 1018 1124 903 804 910 1010
8 904 805 908 1011 1012 911 1016 1125
8 1013 912 1020 1127 907 808 914 1015
8 1031 921 1020 1127 920 815 912 1013
8 1019 918 962 1075 1128 1021 913 1014
8 1128 1021 913 1014 1017 916 810 909
8 1015 914 1022 1129 908 809 915 1016
8 1016 915 1023 1130 911 812 917 1018
8 1018 917 1024 1131 910 811 916 1017
8 1037 928 1031 1148 925 821 920 1030
8 928 823 931 1041 1031 921 1032 1149
8 1033 926 829 941 1151 1039 939 1057
8 1034 927 819 922 1152 1040 926 1033
8 1153 1038 929 1035 1034 927 820 923
8 1154 1042 930 1036 1035 929 822 924
8 1037 928 821 925 1155 1041 930 1036
8 1039 935 828 939 1156 1047 938 1055
8 1157 1043 932 1042 1038 933 825 929
8 1038 933 826 927 1158 1045 934 1040
8 1040 934 827 926 1159 1046 935 1039
8 930 824 932 1042 1041 931 1044 1160
8 1051 936 1048 1165 1175 1052 937 1053
8 1156 1047 938 1055 1053 937 1054 1178
8 939 828 940 1058 1055 938 1056 1181
8 941 829 942 1060 1057 939 1058 1183
8 942 830 943 1061 1058 940 1059 1184
8 1060 942 832 944 1185 1061 945 1062
8 1082 964 1063 1188 981 889 947 1064
8 1097 981 1064 1190 979 870 948 1066
8 1064 947 1065 1191 948 837 949 1067
8 1066 948 1067 1193 975 869 950 1069
8 1067 949 1068 1194 950 838 951 1070
8 1069 950 1070 1195 952 839 953 1071
8 956 849 959 1072 1073 958 1076 1197
8 1074 960 1076 1197 1008 906 959 1072
8 1073 958 1076 1197 965 868 980 1085
8 1074 960 906 1008 1198 1077 1014 1122
8 1133 1026 1079 1199 1019 918 962 1075
8 1077 963 913 1014 1200 1080 962 1075
8 960 853 963 1077 1076 961 1078 1201
8 980 883 961 1076 1099 994 1078 1201
8 1210 1083 964 1082 1100 999 889 981
8 966 871 980 1085 1086 984 1099 1215
8 967 872 984 1086 1087 985 1103 1216
8 971 876 985 1087 1090 988 1104 1217
8 1088 986 874 969 1218 1105 987 1089
8 972 879 986 1088 1091 991 1105 1218
8 970 875 988 1090 1089 987 1106 1219
8 973 880 991 1091 1092 992 1109 1220
8 1093 993 881 974 1221 1110 992 1092
8 1222 1108 990 1095 1093 993 882 976
8 1223 1101 982 1094 1096 989 877 977
8 1098 983 870 979 1223 1101 982 1094
8 1095 990 1107 1224 978 878 989 1096
8 1098 983 1100 1225 979 870 981 1097
8 984 884 994 1099 1103 995 1111 1227
8 1102 1001 1115 1228 983 891 999 1100
8 1101 1000 892 989 1229 1116 1002 1107
8 1102 1001 891 983 1229 1116 1000 1101
8 985 885 995 1103 1104 996 1112 1230
8 988 886 996 1104 1106 997 1113 1231
8 1105 998 888 987 1232 1114 997 1106
8 991 896 998 1105 1109 1005 1114 1232
8 1108 1003 1117 1233 990 893 1002 1107
8 1108 1003 894 993 1233 1117 1004 1110
8 992 895 1005 1109 1110 1004 1118 1234
8 1120 1013 1127 1244 1007 907 1015 1121
8 1148 1031 1127 1244 1030 920 1013 1120
8 1121 1015 1129 1245 1011 908 1016 1125
8 1126 1019 1075 1196 1246 1128 1014 1122
8 1246 1128 1014 1122 1123 1017 909 1009
8 1124 1018 1131 1247 1010 910 1017 1123
8 1125 1016 1130 1248 1012 911 1018 1124
8 1127 1020 1137 1254 1015 914 1022 1129
8 1031 921 1032 1149 1127 1020 1137 1254
8 1134 1027 918 1019 1257 1140 1021 1128
8 1257 1140 1021 1128 1131 1024 916 1017
8 1129 1022 1141 1258 1016 915 1023 1130
8 1130 1023 1142 1259 1018 917 1024 1131
8 1261 1144 1025 1132 1133 1026 1079 1199
8 1255 1138 1025 1132 1135 1028 1144 1261
8 1133 1026 918 1019 1262 1145 1027 1134
8 1136 1029 1139 1256 1263 1146 1028 1135
8 1037 928 1041 1155 1148 1031 1149 1275
8 1041 931 1044 1160 1149 1032 1150 1276
8 1151 1039 939 1057 1278 1156 1055 1180
8 1152 1040 926 1033 1279 1159 1039 1151
8 1153 1038 927 1034 1280 1158 1040 1152
8 1281 1157 1042 1154 1153 1038 929 1035
8 1036 930 1042 1154 1155 1041 1160 1282
8 1283 1164 1046 1159 1156 1047 935 1039
8 1165 1048 1164 1283 1053 937 1047 1156
8 1157 1043 933 1038 1284 1161 1045 1158
8 1157 1043 1161 1284 1042 932 1044 1160
8 1040 934 1046 1159 1158 1045 1163 1285
8 1166 1049 1167 1292 1051 936 1048 1165
8 1166 1049 936 1051 1293 1168 1050 1172
8 1051 936 1052 1175 1172 1050 1173 1306
8 1174 1051 1165 1290 1308 1175 1053 1177
8 1053 937 1054 1178 1175 1052 1176 1309
8 1278 1156 1055 1180 1177 1053 1178 1311
8 1055 938 1056 1181 1178 1054 1179 1312
8 1057 939 1058 1183 1180 1055 1181 1314
8 1058 940 1059 1184 1181 1056 1182 1315
8 1060 942 1061 1185 1183 1058 1184 1316
8 1208 1081 1187 1321 1082 964 1063 1188
8 1209 1082 1188 1322 1097 981 1064 1190
8 1188 1063 1189 1323 1064 947 1065 1191
8 1190 1064 1191 1325 1066 948 1067 1193
8 1191 1065 1192 1326 1067 949 1068 1194
8 1067 1193 1069 950 1194 1327 1195 1070
8 1250 1133 1199 1330 1126 1019 1075 1196
8 1198 1077 1014 1122 1331 1200 1075 1196
8 1074 960 1077 1198 1197 1076 1201 1332
8 1085 980 1076 1197 1215 1099 1201 1332
8 1199 1079 1203 1333 1075 962 1080 1200
8 1132 1025 1119 1243 1199 1079 1203 1333
8 1201 1078 963 1077 1334 1202 1080 1200
8 1099 994 1078 1201 1227 1111 1202 1334
8 1343 1207 1081 1208 1210 1083 964 1082
8 1214 1084 1186 1319 1343 1207 1081 1208
8 1345 1210 1082 1209 1225 1100 981 1097
8 1346 1211 1083 1210 1228 1115 999 1100
8 1086 984 1099 1215 1216 1103 1227 1352
8 1087 985 1103 1216 1217 1104 1230 1353
8 1090 988 1104 1217 1219 1106 1231 1354
8 1218 1105 987 1089 1355 1232 1106 1219
8 1091 991 1105 1218 1220 1109 1232 1355
8 1092 992 1109 1220 1221 1110 1234 1356
8 1222 1108 1233 1357 1095 990 1107 1224
8 1222 1108 993 1093 1357 1233 1110 1221
8 1223 1101 989 1096 1358 1229 1107 1224
8 1226 1102 983 1098 1358 1229 1101 1223
8 1226 1102 1228 1359 1098 983 1100 1225
8 1103 995 1111 1227 1230 1112 1235 1360
8 1107 1002 1117 1233 1229 1116 1240 1362
8 1102 1001 1116 1229 1228 1115 1240 1362
8 1104 996 1112 1230 1231 1113 1236 1363
8 1364 1237 1114 1232 1231 1113 997 1106
8 1109 1005 1114 1232 1234 1118 1238 1365
8 1110 1004 1118 1234 1233 1117 1241 1366
8 1242 1374 1255 1138 1119 1243 1132 1025
8 1244 1127 1254 1376 1121 1015 1129 1245
8 1148 1031 1149 1275 1244 1127 1254 1376
8 1245 1129 1258 1377 1125 1016 1130 1248
8 1251 1134 1019 1126 1378 1257 1128 1246
8 1378 1257 1128 1246 1247 1131 1017 1123
8 1248 1130 1259 1379 1124 1018 1131 1247
8 1261 1381 1250 1133 1132 1249 1330 1199
8 1255 1380 1252 1135 1132 1249 1381 1261
8 1250 1133 1019 1126 1382 1262 1134 1251
8 1253 1136 1256 1385 1384 1263 1135 1252
8 1254 1137 1265 1387 1129 1022 1141 1258
8 1149 1032 1150 1276 1254 1137 1265 1387
8 1028 1135 1255 1138 1139 1256 1388 1266
8 1136 1029 1147 1264 1256 1139 1267 1389
8 1390 1268 1140 1257 1259 1142 1024 1131
8 1260 1143 1027 1134 1390 1268 1140 1257
8 1258 1141 1269 1391 1130 1023 1142 1259
8 1262 1145 1027 1134 1393 1271 1143 1260
8 1261 1144 1026 1133 1394 1272 1145 1262
8 1135 1028 1144 1261 1263 1146 1272 1394
8 1136 1029 1146 1263 1264 1147 1273 1395
8 1155 1041 1160 1282 1275 1149 1276 1405
8 1276 1150 1044 1160 1406 1277 1162 1286
8 1408 1283 1159 1279 1278 1156 1039 1151
8 1290 1165 1283 1408 1177 1053 1156 1278
8 1152 1040 1159 1279 1280 1158 1285 1409
8 1281 1157 1038 1153 1410 1284 1158 1280
8 1281 1157 1284 1410 1154 1042 1160 1282
8 1159 1046 1164 1283 1285 1163 1289 1412
8 1292 1167 1289 1412 1165 1048 1164 1283
8 1158 1045 1163 1285 1284 1161 1288 1413
8 1284 1161 1288 1413 1160 1044 1162 1286
8 1291 1166 1292 1418 1174 1051 1165 1290
8 1291 1166 1051 1174 1419 1293 1172 1305
8 1294 1169 1296 1421 1166 1049 1167 1292
8 1293 1168 1050 1172 1422 1295 1171 1303
8 1294 1169 1049 1166 1423 1297 1168 1293
8 1422 1295 1171 1303 1301 1170 1302 1435
8 1172 1050 1173 1306 1303 1171 1304 1438
8 1174 1051 1175 1308 1305 1172 1306 1440
8 1175 1052 1176 1309 1306 1173 1307 1441
8 1177 1053 1178 1311 1308 1175 1309 1443
8 1178 1054 1179 1312 1309 1176 1310 1444
8 1180 1055 1181 1314 1311 1178 1312 1446
8 1056 1181 1312 1179 1182 1315 1447 1313
8 1183 1058 1184 1316 1314 1181 1315 1448
8 1319 1186 1084 1214 1451 1317 1213 1350
8 1319 1186 1318 1453 1208 1081 1187 1321
8 1321 1187 1320 1456 1188 1063 1189 1323
8 1344 1208 1321 1457 1209 1082 1188 1322
8 1322 1188 1323 1458 1190 1064 1191 1325
8 1323 1189 1324 1459 1191 1065 1192 1326
8 1191 1325 1193 1067 1326 1460 1327 1194
8 1242 1374 1243 1119 1328 1462 1335 1204
8 1330 1199 1333 1465 1196 1075 1200 1331
8 1132 1249 1330 1199 1243 1375 1465 1333
8 1332 1201 1077 1198 1466 1334 1200 1331
8 1215 1099 1201 1332 1352 1227 1334 1466
8 1119 1243 1333 1203 1204 1335 1470 1338
8 1333 1203 1338 1470 1200 1080 1202 1334
8 1227 1111 1202 1334 1360 1235 1338 1470
8 1328 1462 1335 1204 1205 1336 1471 1339
8 1337 1206 1340 1472 1464 1329 1205 1336
8 1346 1211 1342 1479 1210 1083 1207 1343
8 1346 1211 1115 1228 1479 1342 1239 1361
8 1348 1212 1084 1214 1479 1342 1207 1343
8 1480 1343 1208 1344 1345 1210 1082 1209
8 1351 1214 1319 1454 1480 1343 1208 1344
8 1481 1346 1210 1345 1359 1228 1100 1225
8 1348 1212 1347 1483 1214 1084 1213 1350
8 1216 1103 1227 1352 1353 1230 1360 1488
8 1217 1104 1230 1353 1354 1231 1363 1489
8 1490 1364 1232 1355 1354 1231 1106 1219
8 1220 1109 1232 1355 1356 1234 1365 1491
8 1221 1110 1234 1356 1357 1233 1366 1492
8 1224 1107 1233 1357 1358 1229 1362 1493
8 1226 1102 1229 1358 1359 1228 1362 1493
8 1230 1112 1235 1360 1363 1236 1367 1496
8 1361 1239 1115 1228 1497 1371 1240 1362
8 1366 1241 1372 1498 1233 1117 1240 1362
8 1364 1237 1113 1231 1499 1368 1236 1363
8 1364 1237 1368 1499 1232 1114 1238 1365
8 1234 1118 1238 1365 1366 1241 1369 1500
8 1507 1373 1242 1374 1388 1266 1138 1255
8 1508 1374 1243 1375 1380 1255 1132 1249
8 1376 1254 1387 1509 1245 1129 1258 1377
8 1275 1149 1276 1405 1376 1254 1387 1509
8 1377 1258 1391 1510 1248 1130 1259 1379
8 1511 1390 1257 1378 1379 1259 1131 1247
8 1383 1260 1134 1251 1511 1390 1257 1378
8 1252 1135 1256 1385 1380 1255 1388 1512
8 1261 1381 1513 1394 1133 1250 1382 1262
8 1135 1252 1384 1263 1261 1381 1513 1394
8 1382 1262 1134 1251 1514 1393 1260 1383
8 1253 1136 1263 1384 1386 1264 1395 1516
8 1253 1136 1264 1386 1385 1256 1389 1517
8 1387 1265 1397 1519 1258 1141 1269 1391
8 1276 1150 1277 1406 1387 1265 1397 1519
8 1256 1139 1267 1389 1388 1266 1398 1520
8 1264 1147 1274 1396 1389 1267 1399 1521
8 1392 1270 1143 1260 1522 1400 1268 1390
8 1390 1268 1142 1259 1522 1400 1269 1391
8 1392 1270 1401 1523 1260 1143 1271 1393
8 1272 1394 1524 1402 1145 1262 1393 1271
8 1395 1273 1146 1263 1524 1402 1272 1394
8 1273 1395 1264 1147 1403 1526 1396 1274
8 1405 1276 1160 1282 1534 1406 1286 1411
8 1414 1287 1407 1535 1286 1162 1277 1406
8 1279 1159 1283 1408 1409 1285 1412 1537
8 1418 1292 1412 1537 1290 1165 1283 1408
8 1280 1158 1285 1409 1410 1284 1413 1538
8 1410 1284 1413 1538 1282 1160 1286 1411
8 1285 1163 1289 1412 1413 1288 1417 1540
8 1421 1296 1417 1540 1292 1167 1289 1412
8 1414 1287 1162 1286 1541 1416 1288 1413
8 1420 1294 1421 1545 1291 1166 1292 1418
8 1419 1293 1172 1305 1546 1422 1303 1437
8 1420 1294 1166 1291 1547 1423 1293 1419
8 1294 1169 1297 1423 1421 1296 1425 1548
8 1423 1297 1168 1293 1549 1424 1295 1422
8 1301 1170 1298 1427 1422 1295 1424 1549
8 1432 1300 1428 1554 1301 1170 1298 1427
8 1431 1299 1428 1554 1560 1430 1300 1432
8 1563 1433 1300 1432 1435 1302 1170 1301
8 1546 1422 1303 1437 1434 1301 1435 1565
8 1303 1171 1304 1438 1435 1302 1436 1566
8 1305 1172 1306 1440 1437 1303 1438 1568
8 1306 1173 1307 1441 1438 1304 1439 1569
8 1308 1175 1309 1443 1440 1306 1441 1571
8 1309 1176 1310 1444 1441 1307 1442 1572
8 1311 1178 1312 1446 1443 1309 1444 1574
8 1179 1312 1444 1310 1313 1447 1575 1445
8 1314 1181 1315 1448 1446 1312 1447 1576
8 1350 1213 1349 1486 1451 1317 1449 1579
8 1451 1317 1450 1581 1319 1186 1318 1453
8 1454 1319 1214 1351 1582 1451 1350 1487
8 1453 1318 1452 1584 1321 1187 1320 1456
8 1454 1319 1453 1585 1344 1208 1321 1457
8 1456 1320 1455 1586 1323 1189 1324 1459
8 1457 1321 1456 1587 1322 1188 1323 1458
8 1458 1323 1459 1588 1325 1191 1326 1460
8 1205 1336 1464 1329 1328 1462 1590 1461
8 1507 1373 1461 1590 1374 1242 1328 1462
8 1508 1374 1462 1591 1375 1243 1335 1467
8 1337 1206 1329 1464 1473 1341 1463 1594
8 1375 1243 1335 1467 1465 1333 1470 1596
8 1465 1333 1470 1596 1331 1200 1334 1466
8 1352 1227 1334 1466 1488 1360 1470 1596
8 1591 1462 1336 1468 1467 1335 1471 1597
8 1469 1337 1472 1598 1595 1464 1336 1468
8 1471 1339 1474 1600 1335 1204 1338 1470
8 1600 1474 1367 1496 1470 1338 1235 1360
8 1336 1205 1340 1472 1471 1339 1475 1601
8 1337 1206 1341 1473 1472 1340 1476 1602
8 1495 1370 1478 1609 1361 1239 1342 1479
8 1348 1212 1342 1479 1483 1347 1478 1609
8 1481 1346 1479 1610 1345 1210 1343 1480
8 1481 1346 1228 1359 1610 1479 1361 1494
8 1484 1348 1214 1351 1610 1479 1343 1480
8 1483 1347 1482 1612 1350 1213 1349 1486
8 1484 1348 1483 1613 1351 1214 1350 1487
8 1353 1230 1360 1488 1489 1363 1496 1616
8 1490 1364 1231 1354 1617 1499 1363 1489
8 1490 1364 1499 1617 1355 1232 1365 1491
8 1356 1234 1365 1491 1492 1366 1500 1619
8 1492 1366 1498 1620 1357 1233 1362 1493
8 1494 1361 1228 1359 1621 1497 1362 1493
8 1495 1370 1239 1361 1622 1504 1371 1497
8 1363 1236 1367 1496 1499 1368 1501 1623
8 1497 1371 1240 1362 1624 1505 1372 1498
8 1625 1503 1372 1498 1500 1369 1241 1366
8 1365 1238 1368 1499 1500 1369 1502 1626
8 1520 1398 1506 1633 1388 1266 1373 1507
8 1634 1507 1374 1508 1512 1388 1255 1380
8 1509 1387 1519 1635 1377 1258 1391 1510
8 1405 1276 1406 1534 1509 1387 1519 1635
8 1515 1392 1260 1383 1636 1522 1390 1511
8 1511 1390 1259 1379 1636 1522 1391 1510
8 1385 1256 1389 1517 1512 1388 1520 1637
8 1513 1394 1262 1382 1638 1524 1393 1514
8 1395 1516 1638 1524 1263 1384 1513 1394
8 1515 1392 1523 1639 1383 1260 1393 1514
8 1516 1395 1526 1640 1386 1264 1396 1518
8 1386 1264 1396 1518 1517 1389 1521 1641
8 1519 1397 1527 1643 1391 1269 1400 1522
8 1535 1407 1527 1643 1406 1277 1397 1519
8 1389 1267 1399 1521 1520 1398 1528 1644
8 1645 1529 1399 1521 1525 1404 1274 1396
8 1392 1270 1400 1522 1523 1401 1531 1646
8 1524 1402 1271 1393 1648 1532 1401 1523
8 1403 1526 1648 1532 1273 1395 1524 1402
8 1525 1404 1274 1396 1649 1533 1403 1526
8 1539 1414 1535 1657 1411 1286 1406 1534
8 1542 1415 1536 1658 1414 1287 1407 1535
8 1409 1285 1412 1537 1538 1413 1540 1660
8 1545 1421 1540 1660 1418 1292 1412 1537
8 1539 1414 1286 1411 1661 1541 1413 1538
8 1540 1417 1544 1663 1413 1288 1416 1541
8 1421 1296 1425 1548 1540 1417 1544 1663
8 1542 1415 1287 1414 1664 1543 1416 1541
8 1420 1294 1423 1547 1545 1421 1548 1666
8 1547 1423 1293 1419 1667 1549 1422 1546
8 1434 1301 1427 1553 1546 1422 1549 1667
8 1423 1297 1424 1549 1548 1425 1550 1668
8 1551 1426 1550 1668 1427 1298 1424 1549
8 1551 1426 1298 1427 1671 1552 1428 1554
8 1562 1432 1554 1674 1434 1301 1427 1553
8 1431 1299 1429 1558 1554 1428 1555 1675
8 1431 1299 1430 1560 1558 1429 1557 1680
8 1560 1430 1300 1432 1683 1559 1433 1563
8 1561 1431 1554 1674 1684 1560 1432 1562
8 1685 1563 1432 1562 1565 1435 1301 1434
8 1435 1302 1436 1566 1563 1433 1564 1686
8 1437 1303 1438 1568 1565 1435 1566 1688
8 1438 1304 1439 1569 1566 1436 1567 1689
8 1440 1306 1441 1571 1568 1438 1569 1691
8 1441 1307 1442 1572 1569 1439 1570 1692
8 1443 1309 1444 1574 1571 1441 1572 1694
8 1310 1444 1572 1442 1445 1575 1695 1573
8 1446 1312 1447 1576 1574 1444 1575 1696
8 1486 1349 1485 1614 1579 1449 1577 1699
8 1451 1317 1449 1579 1581 1450 1578 1701
8 1487 1350 1486 1615 1582 1451 1579 1702
8 1581 1450 1580 1704 1453 1318 1452 1584
8 1582 1451 1581 1705 1454 1319 1453 1585
8 1584 1452 1583 1706 1456 1320 1455 1586
8 1585 1453 1584 1707 1457 1321 1456 1587
8 1587 1456 1586 1708 1458 1323 1459 1588
8 1633 1506 1589 1710 1507 1373 1461 1590
8 1464 1329 1461 1590 1594 1463 1589 1710
8 1468 1336 1462 1591 1595 1464 1590 1711
8 1634 1507 1590 1711 1508 1374 1462 1591
8 1473 1341 1463 1594 1603 1477 1593 1716
8 1469 1337 1464 1595 1599 1473 1594 1717
8 1471 1597 1467 1335 1600 1718 1596 1470
8 1718 1600 1496 1616 1596 1470 1360 1488
8 1336 1468 1597 1471 1472 1598 1719 1601
8 1469 1337 1473 1599 1598 1472 1602 1720
8 1722 1604 1501 1623 1600 1474 1367 1496
8 1475 1601 1471 1339 1604 1722 1600 1474
8 1602 1476 1605 1723 1472 1340 1475 1601
8 1476 1602 1724 1606 1341 1473 1603 1477
8 1483 1347 1478 1609 1612 1482 1608 1731
8 1495 1370 1504 1622 1609 1478 1608 1731
8 1618 1495 1609 1732 1494 1361 1479 1610
8 1484 1348 1479 1610 1613 1483 1609 1732
8 1486 1349 1482 1612 1614 1485 1611 1733
8 1613 1483 1612 1734 1487 1350 1486 1615
8 1489 1363 1496 1616 1617 1499 1623 1736
8 1491 1365 1499 1617 1619 1500 1626 1737
8 1618 1495 1361 1494 1738 1622 1497 1621
8 1739 1625 1498 1620 1619 1500 1366 1492
8 1621 1497 1362 1493 1740 1624 1498 1620
8 1742 1631 1504 1622 1624 1505 1371 1497
8 1743 1628 1502 1626 1623 1501 1368 1499
8 1744 1630 1505 1624 1625 1503 1372 1498
8 1745 1629 1503 1625 1626 1502 1369 1500
8 1520 1398 1528 1644 1633 1506 1632 1751
8 1637 1520 1633 1752 1512 1388 1507 1634
8 1635 1519 1643 1753 1510 1391 1522 1636
8 1657 1535 1643 1753 1534 1406 1519 1635
8 1515 1392 1522 1636 1639 1523 1646 1754
8 1517 1389 1521 1641 1637 1520 1644 1755
8 1524 1638 1756 1648 1393 1514 1639 1523
8 1640 1526 1395 1516 1756 1648 1524 1638
8 1642 1525 1396 1518 1757 1649 1526 1640
8 1758 1645 1521 1641 1642 1525 1396 1518
8 1646 1531 1400 1522 1760 1650 1527 1643
8 1535 1407 1536 1658 1643 1527 1650 1760
8 1521 1399 1529 1645 1644 1528 1651 1761
8 1647 1530 1652 1762 1525 1404 1529 1645
8 1401 1523 1648 1532 1531 1646 1763 1655
8 1525 1404 1533 1649 1647 1530 1654 1765
8 1533 1649 1766 1656 1403 1526 1648 1532
8 1662 1542 1658 1774 1539 1414 1535 1657
8 1542 1415 1543 1664 1658 1536 1659 1775
8 1660 1540 1663 1777 1538 1413 1541 1661
8 1545 1421 1548 1666 1660 1540 1663 1777
8 1662 1542 1414 1539 1778 1664 1541 1661
8 1664 1543 1416 1541 1779 1665 1544 1663
8 1548 1425 1550 1668 1663 1544 1665 1779
8 1547 1423 1549 1667 1666 1548 1668 1781
8 1670 1551 1668 1781 1553 1427 1549 1667
8 1551 1426 1552 1671 1668 1550 1669 1782
8 1670 1551 1427 1553 1784 1671 1554 1674
8 1675 1555 1672 1785 1554 1428 1552 1671
8 1678 1556 1673 1789 1558 1429 1555 1675
8 1561 1431 1558 1681 1674 1554 1675 1790
8 1794 1677 1556 1678 1680 1557 1429 1558
8 1560 1430 1559 1683 1680 1557 1679 1797
8 1561 1431 1560 1684 1681 1558 1680 1798
8 1563 1433 1564 1686 1683 1559 1682 1800
8 1684 1560 1432 1562 1801 1683 1563 1685
8 1565 1435 1566 1688 1685 1563 1686 1802
8 1566 1436 1567 1689 1686 1564 1687 1803
8 1568 1438 1569 1691 1688 1566 1689 1805
8 1569 1439 1570 1692 1689 1567 1690 1806
8 1571 1441 1572 1694 1691 1569 1692 1808
8 1442 1572 1692 1570 1573 1695 1809 1693
8 1574 1444 1575 1696 1694 1572 1695 1810
8 1614 1485 1592 1712 1699 1577 1697 1813
8 1579 1449 1577 1699 1701 1578 1698 1815
8 1615 1486 1614 1735 1702 1579 1699 1816
8 1701 1578 1700 1818 1581 1450 1580 1704
8 1582 1451 1579 1702 1705 1581 1701 1819
8 1704 1580 1703 1820 1584 1452 1583 1706
8 1705 1581 1704 1821 1585 1453 1584 1707
8 1707 1584 1706 1822 1587 1456 1586 1708
8 1710 1589 1506 1633 1824 1709 1632 1751
8 1594 1463 1589 1710 1716 1593 1709 1824
8 1752 1633 1710 1825 1634 1507 1590 1711
8 1595 1464 1590 1711 1717 1594 1710 1825
8 1830 1714 1592 1712 1733 1611 1485 1614
8 1603 1477 1593 1716 1725 1607 1715 1834
8 1599 1473 1594 1717 1721 1603 1716 1835
8 1837 1722 1623 1736 1718 1600 1496 1616
8 1719 1601 1722 1837 1597 1471 1600 1718
8 1602 1720 1598 1472 1723 1838 1719 1601
8 1720 1602 1473 1599 1839 1724 1603 1721
8 1723 1605 1726 1840 1601 1475 1604 1722
8 1840 1726 1628 1743 1722 1604 1501 1623
8 1724 1606 1727 1841 1602 1476 1605 1723
8 1725 1607 1728 1842 1603 1477 1606 1724
8 1612 1482 1608 1731 1733 1611 1730 1849
8 1741 1627 1730 1849 1622 1504 1608 1731
8 1613 1483 1609 1732 1734 1612 1731 1850
8 1618 1495 1622 1738 1732 1609 1731 1850
8 1615 1486 1612 1734 1735 1614 1733 1851
8 1852 1743 1626 1737 1736 1623 1499 1617
8 1853 1745 1625 1739 1737 1626 1500 1619
8 1855 1742 1622 1738 1740 1624 1497 1621
8 1856 1744 1624 1740 1739 1625 1498 1620
8 1741 1627 1504 1622 1857 1746 1631 1742
8 1742 1631 1505 1624 1858 1749 1630 1744
8 1859 1747 1629 1745 1743 1628 1502 1626
8 1860 1748 1630 1744 1745 1629 1503 1625
8 1644 1528 1651 1761 1751 1632 1750 1865
8 1637 1520 1644 1755 1752 1633 1751 1866
8 1754 1646 1522 1636 1867 1760 1643 1753
8 1657 1535 1658 1774 1753 1643 1760 1867
8 1639 1523 1646 1754 1756 1648 1763 1868
8 1641 1521 1645 1758 1755 1644 1761 1869
8 1757 1649 1526 1640 1870 1766 1648 1756
8 1642 1525 1649 1757 1759 1647 1765 1871
8 1759 1647 1762 1872 1642 1525 1645 1758
8 1760 1650 1767 1874 1646 1531 1655 1763
8 1658 1536 1659 1775 1760 1650 1767 1874
8 1762 1652 1768 1875 1645 1529 1651 1761
8 1764 1653 1769 1876 1647 1530 1652 1762
8 1656 1766 1877 1773 1532 1648 1763 1655
8 1771 1879 1765 1654 1653 1764 1647 1530
8 1533 1649 1765 1654 1656 1766 1880 1772
8 1662 1542 1664 1778 1774 1658 1775 1887
8 1664 1543 1665 1779 1775 1659 1776 1888
8 1778 1664 1541 1661 1890 1779 1663 1777
8 1666 1548 1668 1781 1777 1663 1779 1890
8 1782 1669 1780 1891 1668 1550 1665 1779
8 1670 1551 1671 1784 1781 1668 1782 1893
8 1671 1552 1672 1785 1782 1669 1783 1894
8 1790 1675 1785 1896 1674 1554 1671 1784
8 1675 1555 1673 1789 1785 1672 1786 1897
8 1792 1676 1788 1903 1678 1556 1673 1789
8 1795 1678 1789 1904 1681 1558 1675 1790
8 1792 1676 1556 1678 1906 1791 1677 1794
8 1680 1557 1679 1797 1794 1677 1793 1909
8 1910 1794 1678 1795 1798 1680 1558 1681
8 1683 1559 1682 1800 1797 1679 1796 1912
8 1684 1560 1683 1801 1798 1680 1797 1913
8 1686 1564 1687 1803 1800 1682 1799 1915
8 1685 1563 1686 1802 1801 1683 1800 1916
8 1688 1566 1689 1805 1802 1686 1803 1917
8 1689 1567 1690 1806 1803 1687 1804 1918
8 1691 1569 1692 1808 1805 1689 1806 1920
8 1692 1570 1693 1809 1806 1690 1807 1921
8 1694 1572 1695 1810 1808 1692 1809 1922
8 1829 1713 1811 1926 1712 1592 1697 1813
8 1813 1697 1812 1928 1699 1577 1698 1815
8 1735 1614 1712 1828 1816 1699 1813 1929
8 1815 1698 1814 1931 1701 1578 1700 1818
8 1702 1579 1699 1816 1819 1701 1815 1932
8 1818 1700 1817 1933 1704 1580 1703 1820
8 1819 1701 1818 1934 1705 1581 1704 1821
8 1821 1704 1820 1935 1707 1584 1706 1822
8 1824 1709 1632 1751 1937 1823 1750 1865
8 1716 1593 1709 1824 1834 1715 1823 1937
8 1825 1710 1633 1752 1938 1824 1751 1866
8 1717 1594 1710 1825 1835 1716 1824 1938
8 1945 1830 1712 1828 1851 1733 1614 1735
8 1830 1714 1831 1946 1712 1592 1713 1829
8 1947 1832 1714 1830 1849 1730 1611 1733
8 1843 1729 1607 1725 1950 1833 1715 1834
8 1721 1603 1716 1835 1836 1725 1834 1951
8 1836 1725 1842 1953 1721 1603 1724 1839
8 1723 1838 1719 1601 1840 1954 1837 1722
8 1954 1840 1743 1852 1837 1722 1623 1736
8 1724 1839 1720 1602 1841 1955 1838 1723
8 1841 1727 1844 1956 1723 1605 1726 1840
8 1956 1844 1747 1859 1840 1726 1628 1743
8 1728 1842 1724 1606 1845 1957 1841 1727
8 1725 1607 1729 1843 1842 1728 1846 1958
8 1741 1627 1746 1857 1849 1730 1848 1965
8 1734 1612 1731 1850 1851 1733 1849 1966
8 1854 1741 1849 1966 1738 1622 1731 1850
8 1967 1859 1745 1853 1852 1743 1626 1737
8 1968 1860 1744 1856 1853 1745 1625 1739
8 1854 1741 1622 1738 1969 1857 1742 1855
8 1855 1742 1624 1740 1970 1858 1744 1856
8 1857 1746 1631 1742 1971 1861 1749 1858
8 1858 1749 1630 1744 1972 1863 1748 1860
8 1859 1747 1862 1973 1745 1629 1748 1860
8 1875 1768 1864 1977 1761 1651 1750 1865
8 1755 1644 1761 1869 1866 1751 1865 1978
8 1867 1760 1874 1979 1754 1646 1763 1868
8 1774 1658 1775 1887 1867 1760 1874 1979
8 1870 1766 1648 1756 1980 1877 1763 1868
8 1872 1762 1875 1981 1758 1645 1761 1869
8 1757 1649 1766 1870 1871 1765 1880 1982
8 1983 1879 1764 1873 1871 1765 1647 1759
8 1873 1764 1876 1984 1759 1647 1762 1872
8 1877 1773 1655 1763 1986 1881 1767 1874
8 1775 1659 1776 1888 1874 1767 1881 1986
8 1876 1769 1882 1987 1762 1652 1768 1875
8 1878 1770 1883 1988 1764 1653 1769 1876
8 1880 1772 1656 1766 1989 1886 1773 1877
8 1878 1770 1653 1764 1990 1884 1771 1879
8 1765 1654 1772 1880 1879 1771 1885 1991
8 1778 1664 1779 1890 1887 1775 1888 1997
8 1998 1889 1776 1888 1891 1780 1665 1779
8 1893 1782 1891 2000 1781 1668 1779 1890
8 1894 1783 1892 2001 1782 1669 1780 1891
8 1784 1671 1785 1896 1893 1782 1894 2003
8 1897 1786 1895 2004 1785 1672 1783 1894
8 1790 1675 1789 1904 1896 1785 1897 2006
8 1901 1787 1898 2007 1789 1673 1786 1897
8 1903 1788 1900 2013 1789 1673 1787 1901
8 1792 1676 1791 1906 1903 1788 1902 2016
8 1907 1792 1903 2017 1795 1678 1789 1904
8 1906 1791 1677 1794 2019 1905 1793 1909
8 1907 1792 1678 1795 2020 1906 1794 1910
8 1797 1679 1796 1912 1909 1793 1908 2022
8 1798 1680 1797 1913 1910 1794 1909 2023
8 1800 1682 1799 1915 1912 1796 1911 2025
8 1801 1683 1800 1916 1913 1797 1912 2026
8 1803 1687 1804 1918 1915 1799 1914 2028
8 1802 1686 1803 1917 1916 1800 1915 2029
8 1805 1689 1806 1920 1917 1803 1918 2030
8 1806 1690 1807 1921 1918 1804 1919 2031
8 1808 1692 1809 1922 1920 1806 1921 2032
8 1939 1826 1924 2037 1829 1713 1811 1926
8 1926 1811 1925 2039 1813 1697 1812 1928
8 1944 1829 1926 2040 1828 1712 1813 1929
8 1928 1812 1927 2042 1815 1698 1814 1931
8 1929 1813 1928 2043 1816 1699 1815 1932
8 1931 1814 1930 2044 1818 1700 1817 1933
8 1932 1815 1931 2045 1819 1701 1818 1934
8 1934 1818 1933 2046 1821 1704 1820 1935
8 2048 1936 1823 1937 1977 1864 1750 1865
8 1950 1833 1715 1834 2048 1936 1823 1937
8 1938 1824 1751 1866 2049 1937 1865 1978
8 1835 1716 1824 1938 1951 1834 1937 2049
8 1939 1826 1713 1829 2053 1942 1831 1946
8 1940 1827 1923 2035 2053 1942 1826 1939
8 1945 1830 1946 2058 1828 1712 1829 1944
8 2059 1947 1830 1945 1966 1849 1733 1851
8 1947 1832 1730 1849 2060 1948 1848 1965
8 1947 1832 1948 2060 1830 1714 1831 1946
8 1959 1847 1729 1843 2063 1949 1833 1950
8 1952 1843 1725 1836 2064 1950 1834 1951
8 1836 1725 1843 1952 1953 1842 1958 2066
8 1953 1842 1957 2067 1839 1724 1841 1955
8 1841 1955 1838 1723 1956 2068 1954 1840
8 2068 1956 1859 1967 1954 1840 1743 1852
8 1956 1844 1960 2069 1859 1747 1862 1973
8 1845 1957 1841 1727 1960 2069 1956 1844
8 1728 1842 1957 1845 1846 1958 2071 1961
8 1962 2072 1959 1847 1846 1958 1843 1729
8 1971 1861 1964 2077 1857 1746 1848 1965
8 1854 1741 1857 1969 1966 1849 1965 2078
8 1967 1859 1973 2079 1853 1745 1860 1968
8 1970 1858 1744 1856 2080 1972 1860 1968
8 1969 1857 1742 1855 2081 1971 1858 1970
8 1971 1861 1749 1858 2082 1974 1863 1972
8 1973 1862 1975 2083 1860 1748 1863 1972
8 1987 1882 1976 2086 1875 1768 1864 1977
8 1981 1875 1977 2087 1869 1761 1865 1978
8 1980 1877 1763 1868 2088 1986 1874 1979
8 1887 1775 1888 1997 1979 1874 1986 2088
8 1880 1982 2089 1989 1766 1870 1980 1877
8 1984 1876 1987 2090 1872 1762 1875 1981
8 1765 1871 1983 1879 1880 1982 2091 1991
8 1985 1878 1764 1873 2092 1990 1879 1983
8 1985 1878 1988 2093 1873 1764 1876 1984
8 2094 1992 1881 1986 1998 1889 1776 1888
8 1986 1881 1992 2094 1877 1773 1886 1989
8 1988 1883 1993 2095 1876 1769 1882 1987
8 1878 1770 1884 1990 1988 1883 1994 2096
8 1991 1885 1772 1880 2097 1996 1886 1989
8 1879 1771 1885 1991 1990 1884 1995 2098
8 2103 1998 1888 1997 2000 1891 1779 1890
8 2104 1999 1889 1998 2001 1892 1780 1891
8 2003 1894 2001 2106 1893 1782 1891 2000
8 2004 1895 2002 2107 1894 1783 1892 2001
8 2006 1897 2004 2109 1896 1785 1894 2003
8 2007 1898 2005 2110 1897 1786 1895 2004
8 2014 1901 2007 2112 1904 1789 1897 2006
8 2011 1899 2008 2113 1901 1787 1898 2007
8 2119 2010 1899 2011 2013 1900 1787 1901
8 2016 1902 2012 2122 1903 1788 1900 2013
8 2017 1903 2013 2123 1904 1789 1901 2014
8 1906 1791 1905 2019 2016 1902 2015 2125
8 1907 1792 1906 2020 2017 1903 2016 2126
8 1909 1793 1908 2022 2019 1905 2018 2128
8 2020 1906 1794 1910 2129 2019 1909 2023
8 1912 1796 1911 2025 2022 1908 2021 2131
8 1913 1797 1912 2026 2023 1909 2022 2132
8 1915 1799 1914 2028 2025 1911 2024 2134
8 1916 1800 1915 2029 2026 1912 2025 2135
8 1918 1804 1919 2031 2028 1914 2027 2136
8 1917 1803 1918 2030 2029 1915 2028 2137
8 1920 1806 1921 2032 2030 1918 2031 2138
8 1940 1827 1941 2054 2035 1923 2033 2140
8 2035 1923 2034 2143 1939 1826 1924 2037
8 2037 1924 2036 2146 1926 1811 1925 2039
8 2051 1939 2037 2147 1944 1829 1926 2040
8 2039 1925 2038 2149 1928 1812 1927 2042
8 2040 1926 2039 2150 1929 1813 1928 2043
8 2042 1927 2041 2151 1931 1814 1930 2044
8 2043 1928 2042 2152 1932 1815 1931 2045
8 2045 1931 2044 2153 1934 1818 1933 2046
8 2155 2047 1936 2048 2086 1976 1864 1977
8 2063 1949 1833 1950 2155 2047 1936 2048
8 2156 2048 1937 2049 2087 1977 1865 1978
8 2064 1950 1834 1951 2156 2048 1937 2049
8 2051 1939 1829 1944 2160 2053 1946 2058
8 2052 1940 2035 2144 2160 2053 1939 2051
8 2053 1942 1831 1946 2163 2057 1948 2060
8 2055 1943 1827 1940 2163 2057 1942 2053
8 2055 1943 2056 2164 1940 1827 1941 2054
8 2059 1947 1849 1966 2167 2060 1965 2078
8 2059 1947 2060 2167 1945 1830 1946 2058
8 2077 1964 2061 2168 1965 1848 1948 2060
8 2070 1963 1847 1959 2170 2062 1949 2063
8 2065 1959 1843 1952 2171 2063 1950 2064
8 2173 2072 1958 2066 2065 1959 1843 1952
8 1953 1842 1958 2066 2067 1957 2071 2174
8 2068 1956 2069 2175 1967 1859 1973 2079
8 2067 1957 2069 2175 1955 1841 1956 2068
8 1845 1957 2069 1960 1961 2071 2176 2073
8 2069 1960 2073 2176 1973 1862 1975 2083
8 2070 1963 2075 2177 1959 1847 1962 2072
8 1846 1958 2071 1961 1962 2072 2178 2074
8 2077 1964 1861 1971 2182 2076 1974 2082
8 2081 1971 2077 2183 1969 1857 1965 2078
8 2079 1973 2083 2184 1968 1860 1972 2080
8 2081 1971 1858 1970 2185 2082 1972 2080
8 2083 1975 2084 2186 1972 1863 1974 2082
8 2086 1976 1882 1987 2189 2085 1993 2095
8 2090 1987 2086 2190 1981 1875 1977 2087
8 2191 2094 1986 2088 2103 1998 1888 1997
8 2088 1986 2094 2191 1980 1877 1989 2089
8 1991 2091 2192 2097 1880 1982 2089 1989
8 2093 1988 2095 2193 1984 1876 1987 2090
8 1879 1983 2092 1990 1991 2091 2194 2098
8 1985 1878 1990 2092 2093 1988 2096 2195
8 2097 1996 1886 1989 2196 2099 1992 2094
8 2196 2099 1992 2094 2104 1999 1889 1998
8 1994 2096 1988 1883 2100 2197 2095 1993
8 2096 1994 1884 1990 2198 2101 1995 2098
8 1995 2098 2199 2102 1885 1991 2097 1996
8 2203 2104 1998 2103 2106 2001 1891 2000
8 2107 2002 2105 2204 2001 1892 1999 2104
8 2109 2004 2107 2206 2003 1894 2001 2106
8 2110 2005 2108 2207 2004 1895 2002 2107
8 2112 2007 2110 2209 2006 1897 2004 2109
8 2113 2008 2111 2210 2007 1898 2005 2110
8 2120 2011 2113 2212 2014 1901 2007 2112
8 2117 2009 2114 2213 2011 1899 2008 2113
8 2219 2116 2009 2117 2119 2010 1899 2011
8 2222 2118 2010 2119 2122 2012 1900 2013
8 2223 2119 2011 2120 2123 2013 1901 2014
8 2016 1902 2015 2125 2122 2012 2121 2225
8 2126 2016 2122 2226 2017 1903 2013 2123
8 2019 1905 2018 2128 2125 2015 2124 2228
8 2020 1906 2019 2129 2126 2016 2125 2229
8 2022 1908 2021 2131 2128 2018 2127 2231
8 2023 1909 2022 2132 2129 2019 2128 2232
8 2025 1911 2024 2134 2131 2021 2130 2234
8 2026 1912 2025 2135 2132 2022 2131 2235
8 1914 2028 2134 2024 2027 2136 2236 2133
8 2029 1915 2028 2137 2135 2025 2134 2237
8 2030 1918 2031 2138 2137 2028 2136 2238
8 2157 2050 2139 2240 2054 1941 2033 2140
8 2052 1940 2054 2161 2144 2035 2140 2242
8 2140 2033 2141 2243 2035 1923 2034 2143
8 2143 2034 2142 2246 2037 1924 2036 2146
8 2144 2035 2143 2247 2051 1939 2037 2147
8 2146 2036 2145 2249 2039 1925 2038 2149
8 2147 2037 2146 2250 2040 1926 2039 2150
8 2149 2038 2148 2251 2042 1927 2041 2151
8 2150 2039 2149 2252 2043 1928 2042 2152
8 2152 2042 2151 2253 2045 1931 2044 2153
8 2255 2154 2047 2155 2189 2085 1976 2086
8 2170 2062 1949 2063 2255 2154 2047 2155
8 2256 2155 2048 2156 2190 2086 1977 2087
8 2171 2063 1950 2064 2256 2155 2048 2156
8 2258 2159 2050 2157 2164 2056 1941 2054
8 2160 2053 1946 2058 2262 2163 2060 2167
8 2162 2055 1940 2052 2262 2163 2053 2160
8 2162 2055 2164 2263 2052 1940 2054 2161
8 2163 2057 1948 2060 2264 2165 2061 2168
8 2055 1943 2057 2163 2164 2056 2165 2264
8 2182 2076 2166 2268 2077 1964 2061 2168
8 2183 2077 2168 2269 2078 1965 2060 2167
8 2070 1963 2062 2170 2177 2075 2169 2271
8 2172 2070 1959 2065 2272 2170 2063 2171
8 2172 2070 2177 2273 2065 1959 2072 2173
8 2066 1958 2072 2173 2174 2071 2178 2274
8 2067 1957 2071 2174 2175 2069 2176 2275
8 2175 2069 2176 2275 2079 1973 2083 2184
8 2071 1961 2074 2178 2176 2073 2179 2276
8 2176 2073 2179 2276 2083 1975 2084 2186
8 2072 1962 2075 2177 2178 2074 2180 2277
8 2182 2076 1974 2082 2280 2181 2084 2186
8 2183 2077 1971 2081 2281 2182 2082 2185
8 2184 2083 2186 2282 2080 1972 2082 2185
8 2189 2085 1993 2095 2285 2188 2100 2197
8 2190 2086 1987 2090 2286 2189 2095 2193
8 2192 2097 1989 2089 2287 2196 2094 2191
8 2287 2196 2094 2191 2203 2104 1998 2103
8 2194 2098 1991 2091 2288 2199 2097 2192
8 2195 2096 2197 2289 2093 1988 2095 2193
8 2096 2195 2290 2198 1990 2092 2194 2098
8 2097 1996 2099 2196 2199 2102 2200 2291
8 2196 2099 1999 2104 2291 2200 2105 2204
8 2100 2197 2292 2201 1994 2096 2198 2101
8 1995 2098 2198 2101 2102 2199 2293 2202
8 2206 2107 2204 2296 2106 2001 2104 2203
8 2207 2108 2205 2297 2107 2002 2105 2204
8 2209 2110 2207 2299 2109 2004 2107 2206
8 2210 2111 2208 2300 2110 2005 2108 2207
8 2212 2113 2210 2302 2112 2007 2110 2209
8 2213 2114 2211 2303 2113 2008 2111 2210
8 2220 2117 2213 2305 2120 2011 2113 2212
8 2216 2115 2214 2306 2117 2009 2114 2213
8 2216 2115 2009 2117 2311 2217 2116 2219
8 2219 2116 2010 2119 2314 2218 2118 2222
8 2315 2219 2117 2220 2223 2119 2011 2120
8 2122 2012 2121 2225 2222 2118 2221 2317
8 2318 2222 2119 2223 2226 2122 2013 2123
8 2125 2015 2124 2228 2225 2121 2224 2320
8 2126 2016 2125 2229 2226 2122 2225 2321
8 2128 2018 2127 2231 2228 2124 2227 2323
8 2129 2019 2128 2232 2229 2125 2228 2324
8 2131 2021 2130 2234 2231 2127 2230 2326
8 2132 2022 2131 2235 2232 2128 2231 2327
8 2134 2024 2133 2236 2234 2130 2233 2328
8 2135 2025 2134 2237 2235 2131 2234 2329
8 2137 2028 2136 2238 2237 2134 2236 2330
8 2157 2050 2158 2259 2240 2139 2239 2332
8 2257 2157 2240 2334 2161 2054 2140 2242
8 2240 2139 2241 2335 2140 2033 2141 2243
8 2242 2140 2243 2337 2144 2035 2143 2247
8 2243 2141 2244 2338 2143 2034 2142 2246
8 2246 2142 2245 2341 2146 2036 2145 2249
8 2247 2143 2246 2342 2147 2037 2146 2250
8 2249 2145 2248 2343 2149 2038 2148 2251
8 2250 2146 2249 2344 2150 2039 2149 2252
8 2252 2149 2251 2345 2152 2042 2151 2253
8 2169 2271 2347 2254 2062 2170 2255 2154
8 2189 2085 2188 2285 2255 2154 2254 2347
8 2348 2255 2155 2256 2286 2189 2086 2190
8 2272 2170 2063 2171 2348 2255 2155 2256
8 2349 2258 2157 2257 2263 2164 2054 2161
8 2258 2159 2261 2351 2157 2050 2158 2259
8 2258 2159 2056 2164 2351 2261 2165 2264
8 2262 2163 2060 2167 2355 2264 2168 2269
8 2162 2055 2163 2262 2263 2164 2264 2355
8 2357 2266 2165 2264 2268 2166 2061 2168
8 2268 2166 2076 2182 2361 2267 2181 2280
8 2281 2182 2268 2362 2183 2077 2168 2269
8 2271 2169 2270 2364 2177 2075 2180 2277
8 2172 2070 2170 2272 2273 2177 2271 2365
8 2072 2173 2274 2178 2177 2273 2366 2277
8 2071 2174 2275 2176 2178 2274 2367 2276
8 2275 2176 2276 2367 2184 2083 2186 2282
8 2283 2187 2084 2186 2368 2278 2179 2276
8 2178 2074 2180 2277 2276 2179 2278 2368
8 2283 2187 2279 2370 2186 2084 2181 2280
8 2281 2182 2082 2185 2371 2280 2186 2282
8 2188 2285 2374 2284 2100 2197 2292 2201
8 2286 2189 2095 2193 2375 2285 2197 2289
8 2192 2097 2196 2287 2288 2199 2291 2376
8 2287 2196 2104 2203 2376 2291 2204 2296
8 2194 2098 2199 2288 2290 2198 2293 2377
8 2289 2197 2096 2195 2378 2292 2198 2290
8 2291 2200 2105 2204 2379 2294 2205 2297
8 2199 2102 2200 2291 2293 2202 2294 2379
8 2198 2101 2202 2293 2292 2201 2295 2380
8 2299 2207 2297 2383 2206 2107 2204 2296
8 2300 2208 2298 2384 2207 2108 2205 2297
8 2302 2210 2300 2386 2209 2110 2207 2299
8 2303 2211 2301 2387 2210 2111 2208 2300
8 2305 2213 2303 2389 2212 2113 2210 2302
8 2306 2214 2304 2390 2213 2114 2211 2303
8 2310 2216 2306 2392 2220 2117 2213 2305
8 2308 2215 2307 2393 2216 2115 2214 2306
8 2308 2215 2115 2216 2396 2309 2217 2311
8 2310 2216 2117 2220 2398 2311 2219 2315
8 2311 2217 2116 2219 2399 2312 2218 2314
8 2314 2218 2118 2222 2402 2313 2221 2317
8 2315 2219 2119 2223 2403 2314 2222 2318
8 2225 2121 2224 2320 2317 2221 2316 2405
8 2226 2122 2225 2321 2318 2222 2317 2406
8 2228 2124 2227 2323 2320 2224 2319 2408
8 2229 2125 2228 2324 2321 2225 2320 2409
8 2231 2127 2230 2326 2323 2227 2322 2411
8 2232 2128 2231 2327 2324 2228 2323 2412
8 2234 2130 2233 2328 2326 2230 2325 2413
8 2235 2131 2234 2329 2327 2231 2326 2414
8 2237 2134 2236 2330 2329 2234 2328 2415
8 2259 2158 2260 2352 2332 2239 2331 2417
8 2257 2157 2259 2350 2334 2240 2332 2419
8 2240 2139 2239 2332 2335 2241 2333 2420
8 2334 2240 2335 2422 2242 2140 2243 2337
8 2335 2241 2336 2423 2243 2141 2244 2338
8 2337 2243 2338 2425 2247 2143 2246 2342
8 2338 2244 2339 2426 2246 2142 2245 2341
8 2341 2245 2340 2428 2249 2145 2248 2343
8 2342 2246 2341 2429 2250 2146 2249 2344
8 2344 2249 2343 2430 2252 2149 2251 2345
8 2188 2285 2347 2254 2284 2374 2432 2346
8 2347 2254 2346 2432 2271 2169 2270 2364
8 2365 2271 2170 2272 2433 2347 2255 2348
8 2286 2189 2285 2375 2348 2255 2347 2433
8 2349 2258 2351 2435 2257 2157 2259 2350
8 2349 2258 2164 2263 2435 2351 2264 2355
8 2259 2158 2261 2351 2352 2260 2354 2437
8 2356 2265 2354 2437 2264 2165 2261 2351
8 2441 2357 2264 2355 2362 2268 2168 2269
8 2356 2265 2165 2264 2442 2358 2266 2357
8 2443 2359 2266 2357 2361 2267 2166 2268
8 2370 2279 2360 2446 2280 2181 2267 2361
8 2362 2268 2182 2281 2447 2361 2280 2371
8 2180 2277 2368 2278 2270 2364 2449 2363
8 2271 2365 2273 2177 2364 2450 2366 2277
8 2372 2283 2186 2282 2451 2368 2276 2367
8 2178 2274 2367 2276 2277 2366 2451 2368
8 2283 2187 2278 2368 2370 2279 2369 2452
8 2372 2283 2370 2453 2282 2186 2280 2371
8 2284 2374 2455 2373 2201 2292 2380 2295
8 2375 2285 2197 2289 2456 2374 2292 2378
8 2376 2291 2204 2296 2457 2379 2297 2383
8 2288 2199 2291 2376 2377 2293 2379 2457
8 2198 2290 2378 2292 2293 2377 2458 2380
8 2293 2202 2294 2379 2380 2295 2381 2459
8 2384 2298 2381 2459 2297 2205 2294 2379
8 2386 2300 2384 2463 2299 2207 2297 2383
8 2387 2301 2385 2464 2300 2208 2298 2384
8 2389 2303 2387 2466 2302 2210 2300 2386
8 2390 2304 2388 2467 2303 2211 2301 2387
8 2392 2306 2390 2469 2305 2213 2303 2389
8 2393 2307 2391 2470 2306 2214 2304 2390
8 2395 2308 2393 2472 2310 2216 2306 2392
8 2308 2215 2309 2396 2393 2307 2394 2473
8 2395 2308 2216 2310 2475 2396 2311 2398
8 2396 2309 2217 2311 2476 2397 2312 2399
8 2398 2311 2219 2315 2478 2399 2314 2403
8 2399 2312 2218 2314 2479 2400 2313 2402
8 2317 2221 2316 2405 2402 2313 2401 2482
8 2403 2314 2222 2318 2483 2402 2317 2406
8 2320 2224 2319 2408 2405 2316 2404 2485
8 2321 2225 2320 2409 2406 2317 2405 2486
8 2323 2227 2322 2411 2408 2319 2407 2488
8 2324 2228 2323 2412 2409 2320 2408 2489
8 2326 2230 2325 2413 2411 2322 2410 2490
8 2327 2231 2326 2414 2412 2323 2411 2491
8 2329 2234 2328 2415 2414 2326 2413 2492
8 2417 2331 2260 2352 2494 2416 2353 2438
8 2350 2259 2352 2436 2419 2332 2417 2496
8 2332 2239 2331 2417 2420 2333 2418 2497
8 2334 2240 2332 2419 2422 2335 2420 2499
8 2420 2333 2421 2500 2335 2241 2336 2423
8 2422 2335 2423 2502 2337 2243 2338 2425
8 2423 2336 2424 2503 2338 2244 2339 2426
8 2425 2338 2426 2505 2342 2246 2341 2429
8 2426 2339 2427 2506 2341 2245 2340 2428
8 2429 2341 2428 2507 2344 2249 2343 2430
8 2432 2346 2284 2374 2509 2431 2373 2455
8 2432 2346 2431 2509 2364 2270 2363 2449
8 2375 2285 2374 2456 2433 2347 2432 2510
8 2347 2433 2365 2271 2432 2510 2450 2364
8 2350 2259 2351 2435 2436 2352 2437 2514
8 2440 2356 2437 2514 2355 2264 2351 2435
8 2352 2260 2354 2437 2438 2353 2439 2516
8 2356 2265 2358 2442 2437 2354 2439 2516
8 2440 2356 2264 2355 2518 2442 2357 2441
8 2519 2443 2357 2441 2447 2361 2268 2362
8 2443 2359 2444 2520 2357 2266 2358 2442
8 2443 2359 2267 2361 2520 2444 2360 2446
8 2446 2360 2279 2370 2523 2445 2369 2452
8 2453 2370 2446 2524 2371 2280 2361 2447
8 2449 2363 2448 2525 2368 2278 2369 2452
8 2366 2277 2364 2450 2451 2368 2449 2526
8 2372 2283 2368 2451 2453 2370 2452 2527
8 2455 2373 2295 2380 2529 2454 2382 2460
8 2456 2374 2292 2378 2530 2455 2380 2458
8 2377 2293 2379 2457 2458 2380 2459 2531
8 2463 2384 2459 2531 2383 2297 2379 2457
8 2533 2461 2382 2460 2459 2381 2295 2380
8 2464 2385 2461 2533 2384 2298 2381 2459
8 2466 2387 2464 2537 2386 2300 2384 2463
8 2467 2388 2465 2538 2387 2301 2385 2464
8 2469 2390 2467 2540 2389 2303 2387 2466
8 2470 2391 2468 2541 2390 2304 2388 2467
8 2472 2393 2470 2543 2392 2306 2390 2469
8 2393 2307 2394 2473 2470 2391 2471 2544
8 2395 2308 2396 2475 2472 2393 2473 2546
8 2396 2309 2397 2476 2473 2394 2474 2547
8 2475 2396 2311 2398 2549 2476 2399 2478
8 2476 2397 2312 2399 2550 2477 2400 2479
8 2478 2399 2314 2403 2552 2479 2402 2483
8 2479 2400 2313 2402 2553 2480 2401 2482
8 2405 2316 2404 2485 2482 2401 2481 2556
8 2406 2317 2405 2486 2483 2402 2482 2557
8 2408 2319 2407 2488 2485 2404 2484 2559
8 2409 2320 2408 2489 2486 2405 2485 2560
8 2411 2322 2410 2490 2488 2407 2487 2561
8 2412 2323 2411 2491 2489 2408 2488 2562
8 2414 2326 2413 2492 2491 2411 2490 2563
8 2513 2434 2493 2565 2438 2353 2416 2494
8 2496 2417 2352 2436 2567 2494 2438 2515
8 2494 2416 2495 2568 2417 2331 2418 2497
8 2419 2332 2417 2496 2499 2420 2497 2570
8 2497 2418 2498 2571 2420 2333 2421 2500
8 2499 2420 2500 2573 2422 2335 2423 2502
8 2500 2421 2501 2574 2423 2336 2424 2503
8 2502 2423 2503 2576 2425 2338 2426 2505
8 2503 2424 2504 2577 2426 2339 2427 2506
8 2505 2426 2506 2578 2429 2341 2428 2507
8 2509 2431 2373 2455 2580 2508 2454 2529
8 2509 2431 2508 2580 2449 2363 2448 2525
8 2432 2510 2581 2509 2374 2456 2530 2455
8 2432 2510 2450 2364 2509 2581 2526 2449
8 2583 2511 2434 2513 2516 2439 2353 2438
8 2436 2352 2437 2514 2515 2438 2516 2588
8 2440 2356 2442 2518 2514 2437 2516 2588
8 2442 2358 2444 2520 2516 2439 2517 2589
8 2519 2443 2520 2591 2441 2357 2442 2518
8 2519 2443 2361 2447 2591 2520 2446 2524
8 2446 2360 2445 2523 2520 2444 2521 2592
8 2525 2448 2522 2593 2452 2369 2445 2523
8 2524 2446 2370 2453 2594 2523 2452 2527
8 2526 2449 2525 2595 2451 2368 2452 2527
8 2534 2462 2528 2597 2460 2382 2454 2529
8 2530 2455 2380 2458 2598 2529 2460 2532
8 2599 2533 2460 2532 2531 2459 2380 2458
8 2537 2464 2533 2599 2463 2384 2459 2531
8 2534 2462 2382 2460 2601 2535 2461 2533
8 2538 2465 2535 2601 2464 2385 2461 2533
8 2540 2467 2538 2604 2466 2387 2464 2537
8 2541 2468 2539 2605 2467 2388 2465 2538
8 2543 2470 2541 2607 2469 2390 2467 2540
8 2470 2391 2471 2544 2541 2468 2542 2608
8 2472 2393 2473 2546 2543 2470 2544 2610
8 2473 2394 2474 2547 2544 2471 2545 2611
8 2475 2396 2476 2549 2546 2473 2547 2613
8 2476 2397 2477 2550 2547 2474 2548 2614
8 2549 2476 2399 2478 2616 2550 2479 2552
8 2479 2400 2480 2553 2550 2477 2551 2617
8 2552 2479 2402 2483 2619 2553 2482 2557
8 2482 2401 2481 2556 2553 2480 2554 2620
8 2485 2404 2484 2559 2556 2481 2555 2623
8 2486 2405 2485 2560 2557 2482 2556 2624
8 2488 2407 2487 2561 2559 2484 2558 2625
8 2489 2408 2488 2562 2560 2485 2559 2626
8 2491 2411 2490 2563 2562 2488 2561 2627
8 2513 2434 2512 2585 2565 2493 2564 2630
8 2586 2513 2565 2632 2515 2438 2494 2567
8 2565 2493 2566 2633 2494 2416 2495 2568
8 2567 2494 2568 2635 2496 2417 2497 2570
8 2568 2495 2569 2636 2497 2418 2498 2571
8 2570 2497 2571 2638 2499 2420 2500 2573
8 2571 2498 2572 2639 2500 2421 2501 2574
8 2573 2500 2574 2641 2502 2423 2503 2576
8 2574 2501 2575 2642 2503 2424 2504 2577
8 2576 2503 2577 2643 2505 2426 2506 2578
8 2597 2528 2579 2645 2529 2454 2508 2580
8 2580 2508 2579 2645 2525 2448 2522 2593
8 2581 2509 2455 2530 2646 2580 2529 2598
8 2581 2509 2580 2646 2526 2449 2525 2595
8 2583 2511 2582 2648 2513 2434 2512 2585
8 2583 2511 2439 2516 2648 2582 2517 2589
8 2649 2583 2513 2586 2588 2516 2438 2515
8 2589 2517 2444 2520 2653 2587 2521 2592
8 2518 2442 2520 2591 2588 2516 2589 2654
8 2593 2522 2590 2655 2523 2445 2521 2592
8 2524 2446 2523 2594 2591 2520 2592 2656
8 2595 2525 2593 2657 2527 2452 2523 2594
8 2602 2536 2596 2659 2534 2462 2528 2597
8 2600 2534 2597 2660 2532 2460 2529 2598
8 2600 2534 2460 2532 2661 2601 2533 2599
8 2604 2538 2601 2661 2537 2464 2533 2599
8 2602 2536 2462 2534 2663 2603 2535 2601
8 2601 2535 2465 2538 2663 2603 2539 2605
8 2607 2541 2605 2665 2540 2467 2538 2604
8 2608 2542 2606 2666 2541 2468 2539 2605
8 2543 2470 2544 2610 2607 2541 2608 2668
8 2544 2471 2545 2611 2608 2542 2609 2669
8 2546 2473 2547 2613 2610 2544 2611 2671
8 2547 2474 2548 2614 2611 2545 2612 2672
8 2549 2476 2550 2616 2613 2547 2614 2674
8 2550 2477 2551 2617 2614 2548 2615 2675
8 2552 2479 2553 2619 2616 2550 2617 2677
8 2553 2480 2554 2620 2617 2551 2618 2678
8 2557 2482 2556 2624 2619 2553 2620 2680
8 2556 2481 2555 2623 2620 2554 2621 2681
8 2559 2484 2558 2625 2623 2555 2622 2683
8 2560 2485 2559 2626 2624 2556 2623 2684
8 2562 2488 2561 2627 2626 2559 2625 2685
8 2690 2629 2564 2630 2650 2584 2512 2585
8 2586 2513 2585 2651 2632 2565 2630 2691
8 2630 2564 2631 2692 2565 2493 2566 2633
8 2632 2565 2633 2694 2567 2494 2568 2635
8 2633 2566 2634 2695 2568 2495 2569 2636
8 2635 2568 2636 2697 2570 2497 2571 2638
8 2636 2569 2637 2698 2571 2498 2572 2639
8 2638 2571 2639 2700 2573 2500 2574 2641
8 2639 2572 2640 2701 2574 2501 2575 2642
8 2641 2574 2642 2702 2576 2503 2577 2643
8 2597 2528 2596 2659 2645 2579 2644 2704
8 2645 2579 2644 2704 2593 2522 2590 2655
8 2660 2597 2645 2705 2598 2529 2580 2646
8 2646 2580 2645 2705 2595 2525 2593 2657
8 2650 2584 2512 2585 2707 2647 2582 2648
8 2648 2582 2517 2589 2707 2647 2587 2653
8 2649 2583 2648 2708 2586 2513 2585 2651
8 2649 2583 2516 2588 2708 2648 2589 2654
8 2655 2590 2652 2710 2592 2521 2587 2653
8 2654 2589 2520 2591 2711 2653 2592 2656
8 2657 2593 2655 2712 2594 2523 2592 2656
8 2602 2536 2603 2663 2659 2596 2658 2714
8 2662 2602 2659 2715 2600 2534 2597 2660
8 2662 2602 2534 2600 2717 2663 2601 2661
8 2661 2601 2538 2604 2717 2663 2605 2665
8 2666 2606 2664 2718 2605 2539 2603 2663
8 2668 2608 2666 2720 2607 2541 2605 2665
8 2608 2542 2609 2669 2666 2606 2667 2721
8 2610 2544 2611 2671 2668 2608 2669 2723
8 2611 2545 2612 2672 2669 2609 2670 2724
8 2613 2547 2614 2674 2671 2611 2672 2726
8 2614 2548 2615 2675 2672 2612 2673 2727
8 2616 2550 2617 2677 2674 2614 2675 2729
8 2617 2551 2618 2678 2675 2615 2676 2730
8 2619 2553 2620 2680 2677 2617 2678 2732
8 2620 2554 2621 2681 2678 2618 2679 2733
8 2624 2556 2623 2684 2680 2620 2681 2735
8 2681 2621 2555 2623 2736 2682 2622 2683
8 2626 2559 2625 2685 2684 2623 2683 2737
8 2688 2628 2584 2650 2740 2686 2647 2707
8 2688 2628 2687 2742 2650 2584 2629 2690
8 2690 2629 2689 2745 2630 2564 2631 2692
8 2746 2690 2630 2691 2709 2650 2585 2651
8 2691 2630 2692 2747 2632 2565 2633 2694
8 2692 2631 2693 2748 2633 2566 2634 2695
8 2694 2633 2695 2750 2635 2568 2636 2697
8 2695 2634 2696 2751 2636 2569 2637 2698
8 2697 2636 2698 2753 2638 2571 2639 2700
8 2698 2637 2699 2754 2639 2572 2640 2701
8 2700 2639 2701 2755 2641 2574 2642 2702
8 2659 2596 2658 2714 2704 2644 2703 2757
8 2704 2644 2703 2757 2655 2590 2652 2710
8 2660 2597 2659 2715 2705 2645 2704 2758
8 2705 2645 2704 2758 2657 2593 2655 2712
8 2759 2706 2647 2707 2710 2652 2587 2653
8 2709 2650 2585 2651 2760 2707 2648 2708
8 2708 2648 2589 2654 2760 2707 2653 2711
8 2712 2655 2710 2761 2656 2592 2653 2711
8 2763 2713 2658 2714 2718 2664 2603 2663
8 2662 2602 2663 2717 2715 2659 2714 2764
8 2720 2666 2718 2767 2665 2605 2663 2717
8 2768 2719 2664 2718 2721 2667 2606 2666
8 2668 2608 2669 2723 2720 2666 2721 2770
8 2669 2609 2670 2724 2721 2667 2722 2771
8 2671 2611 2672 2726 2723 2669 2724 2773
8 2672 2612 2673 2727 2724 2670 2725 2774
8 2674 2614 2675 2729 2726 2672 2727 2776
8 2675 2615 2676 2730 2727 2673 2728 2777
8 2677 2617 2678 2732 2729 2675 2730 2779
8 2678 2618 2679 2733 2730 2676 2731 2780
8 2680 2620 2681 2735 2732 2678 2733 2782
8 2733 2679 2621 2681 2783 2734 2682 2736
8 2735 2681 2623 2684 2784 2736 2683 2737
8 2740 2686 2647 2707 2787 2738 2706 2759
8 2688 2628 2686 2740 2742 2687 2739 2789
8 2743 2688 2650 2709 2790 2740 2707 2760
8 2742 2687 2741 2792 2690 2629 2689 2745
8 2743 2688 2742 2793 2709 2650 2690 2746
8 2745 2689 2744 2795 2692 2631 2693 2748
8 2746 2690 2745 2796 2691 2630 2692 2747
8 2747 2692 2748 2797 2694 2633 2695 2750
8 2748 2693 2749 2798 2695 2634 2696 2751
8 2750 2695 2751 2800 2697 2636 2698 2753
8 2751 2696 2752 2801 2698 2637 2699 2754
8 2753 2698 2754 2802 2700 2639 2701 2755
8 2763 2713 2756 2804 2714 2658 2703 2757
8 2759 2706 2652 2710 2804 2756 2703 2757
8 2715 2659 2714 2764 2758 2704 2757 2805
8 2758 2704 2757 2805 2712 2655 2710 2761
8 2806 2759 2707 2760 2761 2710 2653 2711
8 2765 2716 2762 2808 2718 2664 2713 2763
8 2809 2763 2714 2764 2767 2718 2663 2717
8 2765 2716 2664 2718 2811 2766 2719 2768
8 2813 2768 2718 2767 2770 2721 2666 2720
8 2814 2769 2719 2768 2771 2722 2667 2721
8 2723 2669 2724 2773 2770 2721 2771 2816
8 2724 2670 2725 2774 2771 2722 2772 2817
8 2726 2672 2727 2776 2773 2724 2774 2819
8 2727 2673 2728 2777 2774 2725 2775 2820
8 2729 2675 2730 2779 2776 2727 2777 2822
8 2730 2676 2731 2780 2777 2728 2778 2823
8 2732 2678 2733 2782 2779 2730 2780 2825
8 2780 2731 2679 2733 2826 2781 2734 2783
8 2782 2733 2681 2735 2827 2783 2736 2784
8 2830 2785 2738 2787 2804 2756 2706 2759
8 2789 2739 2686 2740 2832 2786 2738 2787
8 2790 2740 2707 2760 2833 2787 2759 2806
8 2742 2687 2739 2789 2792 2741 2788 2835
8 2743 2688 2740 2790 2793 2742 2789 2836
8 2792 2741 2791 2838 2745 2689 2744 2795
8 2793 2742 2792 2839 2746 2690 2745 2796
8 2795 2744 2794 2841 2748 2693 2749 2798
8 2796 2745 2795 2842 2747 2692 2748 2797
8 2797 2748 2798 2843 2750 2695 2751 2800
8 2798 2749 2799 2844 2751 2696 2752 2801
8 2800 2751 2801 2845 2753 2698 2754 2802
8 2808 2762 2803 2847 2763 2713 2756 2804
8 2809 2763 2804 2848 2764 2714 2757 2805
8 2806 2759 2710 2761 2848 2804 2757 2805
8 2765 2716 2766 2811 2808 2762 2807 2850
8 2810 2765 2808 2851 2767 2718 2763 2809
8 2810 2765 2718 2767 2852 2811 2768 2813
8 2811 2766 2719 2768 2853 2812 2769 2814
8 2855 2814 2768 2813 2816 2771 2721 2770
8 2856 2815 2769 2814 2817 2772 2722 2771
8 2773 2724 2774 2819 2816 2771 2817 2858
8 2774 2725 2775 2820 2817 2772 2818 2859
8 2776 2727 2777 2822 2819 2774 2820 2861
8 2777 2728 2778 2823 2820 2775 2821 2862
8 2779 2730 2780 2825 2822 2777 2823 2864
8 2823 2778 2731 2780 2865 2824 2781 2826
8 2825 2780 2733 2782 2866 2826 2783 2827
8 2869 2828 2785 2830 2847 2803 2756 2804
8 2871 2829 2786 2832 2830 2785 2738 2787
8 2872 2830 2787 2833 2848 2804 2759 2806
8 2789 2739 2786 2832 2835 2788 2831 2874
8 2836 2789 2740 2790 2875 2832 2787 2833
8 2792 2741 2788 2835 2838 2791 2834 2877
8 2793 2742 2789 2836 2839 2792 2835 2878
8 2838 2791 2837 2880 2795 2744 2794 2841
8 2839 2792 2838 2881 2796 2745 2795 2842
8 2841 2794 2840 2882 2798 2749 2799 2844
8 2842 2795 2841 2883 2797 2748 2798 2843
8 2843 2798 2844 2884 2800 2751 2801 2845
8 2886 2846 2803 2847 2850 2807 2762 2808
8 2851 2808 2847 2887 2809 2763 2804 2848
8 2850 2807 2766 2811 2889 2849 2812 2853
8 2810 2765 2811 2852 2851 2808 2850 2890
8 2852 2811 2768 2813 2891 2853 2814 2855
8 2853 2812 2769 2814 2892 2854 2815 2856
8 2894 2856 2814 2855 2858 2817 2771 2816
8 2817 2772 2818 2859 2856 2815 2857 2895
8 2819 2774 2820 2861 2858 2817 2859 2897
8 2820 2775 2821 2862 2859 2818 2860 2898
8 2822 2777 2823 2864 2861 2820 2862 2900
8 2823 2778 2824 2865 2862 2821 2863 2901
8 2864 2823 2780 2825 2902 2865 2826 2866
8 2904 2867 2828 2869 2886 2846 2803 2847
8 2869 2828 2868 2906 2830 2785 2829 2871
8 2907 2869 2830 2872 2887 2847 2804 2848
8 2871 2829 2870 2909 2832 2786 2831 2874
8 2910 2871 2832 2875 2872 2830 2787 2833
8 2835 2788 2831 2874 2877 2834 2873 2912
8 2836 2789 2832 2875 2878 2835 2874 2913
8 2877 2834 2876 2915 2838 2791 2837 2880
8 2839 2792 2835 2878 2881 2838 2877 2916
8 2880 2837 2879 2917 2841 2794 2840 2882
8 2881 2838 2880 2918 2842 2795 2841 2883
8 2883 2841 2882 2919 2843 2798 2844 2884
8 2921 2885 2846 2886 2889 2849 2807 2850
8 2922 2886 2847 2887 2890 2850 2808 2851
8 2889 2849 2812 2853 2924 2888 2854 2892
8 2890 2850 2811 2852 2925 2889 2853 2891
8 2891 2853 2814 2855 2926 2892 2856 2894
8 2892 2854 2815 2856 2927 2893 2857 2895
8 2858 2817 2859 2897 2894 2856 2895 2929
8 2859 2818 2860 2898 2895 2857 2896 2930
8 2861 2820 2862 2900 2897 2859 2898 2932
8 2862 2821 2863 2901 2898 2860 2899 2933
8 2864 2823 2865 2902 2900 2862 2901 2934
8 2904 2867 2846 2886 2936 2903 2885 2921
8 2904 2867 2903 2936 2869 2828 2868 2906
8 2937 2904 2869 2907 2922 2886 2847 2887
8 2906 2868 2905 2939 2871 2829 2870 2909
8 2907 2869 2906 2940 2872 2830 2871 2910
8 2909 2870 2908 2942 2874 2831 2873 2912
8 2910 2871 2909 2943 2875 2832 2874 2913
8 2912 2873 2911 2945 2877 2834 2876 2915
8 2878 2835 2874 2913 2916 2877 2912 2946
8 2915 2876 2914 2947 2880 2837 2879 2917
8 2916 2877 2915 2948 2881 2838 2880 2918
8 2918 2880 2917 2949 2883 2841 2882 2919
8 2921 2885 2849 2889 2951 2920 2888 2924
8 2952 2921 2886 2922 2925 2889 2850 2890
8 2924 2888 2854 2892 2954 2923 2893 2927
8 2925 2889 2853 2891 2955 2924 2892 2926
8 2926 2892 2856 2894 2956 2927 2895 2929
8 2895 2857 2896 2930 2927 2893 2928 2957
8 2897 2859 2898 2932 2929 2895 2930 2959
8 2898 2860 2899 2933 2930 2896 2931 2960
8 2900 2862 2901 2934 2932 2898 2933 2961
8 2936 2903 2885 2921 2963 2935 2920 2951
8 2936 2903 2935 2963 2906 2868 2905 2939
8 2937 2904 2886 2922 2964 2936 2921 2952
8 2937 2904 2936 2964 2907 2869 2906 2940
8 2939 2905 2938 2966 2909 2870 2908 2942
8 2940 2906 2939 2967 2910 2871 2909 2943
8 2942 2908 2941 2969 2912 2873 2911 2945
8 2943 2909 2942 2970 2913 2874 2912 2946
8 2945 2911 2944 2971 2915 2876 2914 2947
8 2946 2912 2945 2972 2916 2877 2915 2948
8 2948 2915 2947 2973 2918 2880 2917 2949
8 2951 2920 2888 2924 2975 2950 2923 2954
8 2952 2921 2889 2925 2976 2951 2924 2955
8 2927 2893 2928 2957 2954 2923 2953 2978
8 2955 2924 2892 2926 2979 2954 2927 2956
8 2929 2895 2930 2959 2956 2927 2957 2980
8 2930 2896 2931 2960 2957 2928 2958 2981
8 2932 2898 2933 2961 2959 2930 2960 2982
8 2951 2920 2950 2975 2963 2935 2962 2984
8 2963 2935 2962 2984 2939 2905 2938 2966
8 2964 2936 2921 2952 2985 2963 2951 2976
8 2964 2936 2963 2985 2940 2906 2939 2967
8 2966 2938 2965 2987 2942 2908 2941 2969
8 2967 2939 2966 2988 2943 2909 2942 2970
8 2969 2941 2968 2989 2945 2911 2944 2971
8 2970 2942 2969 2990 2946 2912 2945 2972
8 2972 2945 2971 2991 2948 2915 2947 2973
8 2954 2923 2953 2978 2975 2950 2974 2993
8 2976 2951 2924 2955 2994 2975 2954 2979
8 2957 2928 2958 2981 2978 2953 2977 2995
8 2956 2927 2957 2980 2979 2954 2978 2996
8 2959 2930 2960 2982 2980 2957 2981 2997
8 2984 2962 2983 2999 2966 2938 2965 2987
8 2975 2950 2974 2993 2984 2962 2983 2999
8 2976 2951 2975 2994 2985 2963 2984 3000
8 2985 2963 2984 3000 2967 2939 2966 2988
8 2987 2965 2986 3001 2969 2941 2968 2989
8 2988 2966 2987 3002 2970 2942 2969 2990
8 2990 2969 2989 3003 2972 2945 2971 2991
8 2978 2953 2977 2995 2993 2974 2992 3004
8 2979 2954 2978 2996 2994 2975 2993 3005
8 2980 2957 2981 2997 2996 2978 2995 3006
8 2974 2993 2999 2983 2992 3004 3007 2998
8 2983 2999 2987 2965 2998 3007 3001 2986
8 3000 2984 2999 3008 2988 2966 2987 3002
8 2994 2975 2993 3005 3000 2984 2999 3008
8 3002 2987 3001 3009 2990 2969 2989 3003
8 2996 2978 2995 3006 3005 2993 3004 3010
8 3005 2993 3004 3010 3008 2999 3007 3011
8 3008 2999 3007 3011 3002 2987 3001 3009

CELL_TYPES 1910
12
12
12
12
12
12
12
12
12
12
12
12
12
12
12
12
12
12
12
12
12
12
12
12
12
12
12
12
12
12
12
12
12
12
12
12
12
12
12
12
12
12
12
12
12
12
12
12
12
12
12
12
12
12
12
12
12
12
12
12
12
12
12
12
12
12
12
12
12
12
12
12
12
12
12
12
12
12
12
12
12
12
12
12
12
12
12
12
12
12
12
12
12
12
12
12
12
12
12
12
12
12
12
12
12
12
12
12
12
12
12
12
12
12
12
12
12
12
12
12
12
12
12
12
12
12
12
12
12
12
12
12
12
12
12
12
12
12
12
12
12
12
12
12
12
12
12
12
12
12
12
12
12
12
12
12
12
12
12
12
12
12
12
12
12
12
12
12
12
12
12
12
12
12
12
12
12
12
12
12
12
12
12
12
12
12
12
12
12
12
12
12
12
12
12
12
12
12
12
12
12
12
12
12
12
12
12
12
12
12
12
12
12
12
12
12
12
12
12
12
12
12
12
12
12
12
12
12
12
12
12
12
12
12
12
12
12
12
12
12
12
12
12
12
12
12
12
12
12
12
12
12
12
12
12
12
12
12
12
12
12
12
12
12
12
12
12
12
12
12
12
12
12
12
12
12
12
12
12
12
12
12
12
12
12
12
12
12
12
12
12
12
12
12
12
12
12
12
12
12
12
12
12
12
12
12
12
12
12
12
12
12
12
12
12
12
12
12
12
12
12
12
12
12
12
12
12
12
12
12
12
12
12
12
12
12
12
12
12
12
12
12
12
12
12
12
12
12
12
12
12
12
12
12
12
12
12
12
12
12
12
12
12
12
12
12
12
12
12
12
12
12
12
12
12
12
12
12
12
12
12
12
12
12
12
12
12
12
12
12
12
12
12
12
12
12
12
12
12
12
12
12
12
12
12
12
12
12
12
12
12
12
12
12
12
12
12
12
12
12
12
12
12
12
12
12
12
12
12
12
12
12
12
12
12
12
12
12
12
12
12
12
12
12
12
12
12
12
12
12
12
12
12
12
12
12
12
12
12
12
12
12
12
12
12
12
12
12
12
12
12
12
12
12
12
12
12
12
12
12
12
12
12
12
12
12
12
12
12
12
12
12
12
12
12
12
12
12
12
12
12
12
12
12
12
12
12
12
12
12
12
12
12
12
12
12
12
12
12
12
12
12
12
12
12
12
12
12
12
12
12
12
12
12
12
12
12
12
12
12
12
12
12
12
12
12
12
12
12
12
12
12
12
12
12
12
12
12
12
12
12
12
12
12
12
12
12
12
12
12
12
12
12
12
12
12
12
12
12
12
12
12
12
12
12
12
12
12
12
12
12
12
12
12
12
12
12
12
12
12
12
12
12
12
12
12
12
12
12
12
12
12
12
12
12
12
12
12
12
12
12
12
12
12
12
12
12
12
12
12
12
12
12
12
12
12
12
12
12
12
12
12
12
12
12
12
12
12
12
12
12
12
12
12
12
12
12
12
12
12
12
12
12
12
12
12
12
12
12
12
12
12
12
12
12
12
12
12
12
12
12
12
12
12
12
12
12
12
12
12
12
12
12
12
12
12
12
12
12
12
12
12
12
12
12
12
12
12
12
12
12
12
12
12
12
12
12
12
12
12
12
12
12
12
12
12
12
12
12
12
12
12
12
12
12
12
12
12
12
12
12
12
12
12
12
12
12
12
12
12
12
12
12
12
12
12
12
12
12
12
12
12
12
12
12
12
12
12
12
12
12
12
12
12
12
12
12
12
12
12
12
12
12
12
12
12
12
12
12
12
12
12
12
12
12
12
12
12
12
12
12
12
12
12
12
12
12
12
12
12
12
12
12
12
12
12
12
12
12
12
12
12
12
12
12
12
12
12
12
12
12
12
12
12
12
12
12
12
12
12
12
12
12
12
12
12
12
12
12
12
12
12
12
12
12
12
12
12
12
12
12
12
12
12
12
12
12
12
12
12
12
12
12
12
12
12
12
12
12
12
12
12
12
12
12
12
12
12
12
12
12
12
12
12
12
12
12
12
12
12
12
12
12
12
12
12
12
12
12
12
12
12
12
12
12
12
12
12
12
12
12
12
12
12
12
12
12
12
12
12
12
12
12
12
12
12
12
12
12
12
12
12
12
12
12
12
12
12
12
12
12
12
12
12
12
12
12
12
12
12
12
12
12
12
12
12
12
12
12
12
12
12
12
12
12
12
12
12
12
12
12
12
12
12
12
12
12
12
12
12
12
12
12
12
12
12
12
12
12
12
12
12
12
12
12
12
12
12
12
12
12
12
12
12
12
12
12
12
12
12
12
12
12
12
12
12
12
12
12
12
12
12
12
12
12
12
12
12
12
12
12
12
12
12
12
12
12
12
12
12
12
12
12
12
12
12
12
12
12
12
12
12
12
12
12
12
12
12
12
12
12
12
12
12
12
12
12
12
12
12
12
12
12
12
12
12
12
12
12
12
12
12
12
12
12
12
12
12
12
12
12
12
12
12
12
12
12
12
12
12
12
12
12
12
12
12
12
12
12
12
12
12
12
12
12
12
12
12
12
12
12
12
12
12
12
12
12
12
12
12
12
12
12
12
12
12
12
12
12
12
12
12
12
12
12
12
12
12
12
12
12
12
12
12
12
12
12
12
12
12
12
12
12
12
12
12
12
12
12
12
12
12
12
12
12
12
12
12
12
12
12
12
12
12
12
12
12
12
12
12
12
12
12
12
12
12
12
12
12
12
12
12
12
12
12
12
12
12
12
12
12
12
12
12
12
12
12
12
12
12
12
12
12
12
12
12
12
12
12
12
12
12
12
12
12
12
12
12
12
12
12
12
12
12
12
12
12
12
12
12
12
12
12
12
12
12
12
12
12
12
12
12
12
12
12
12
12
12
12
12
12
12
12
12
12
12
12
12
12
12
12
12
12
12
12
12
12
12
12
12
12
12
12
12
12
12
12
12
12
12
12
12
12
12
12
12
12
12
12
12
12
12
12
12
12
12
12
12
12
12
12
12
12
12
12
12
12
12
12
12
12
12
12
12
12
12
12
12
12
12
12
12
12
12
12
12
12
12
12
12
12
12
12
12
12
12
12
12
12
12
12
12
12
12
12
12
12
12
12
12
12
12
12
12
12
12
12
12
12
12
12
12
12
12
12
12
12
12
12
12
12
12
12
12
12
12
12
12
12
12
12
12
12
12
12
12
12
12
12
12
12
12
12
12
12
12
12
12
12
12
12
12
12
12
12
12
12
12
12
12
12
12
12
12
12
12
12
12
12
12
12
12
12
12
12
12
12
12
12
12
12
12
12
12
12
12
12
12
12
12
12
12
12
12
12
12
12
12
12
12
12
12
12
12
12
12
12
12
12
12
12
12
12
12
12
12
12
12
12
12
12
12
12
12
12
12
12
12
12
12
12
12
12
12
12
12
12
12
12
12
12
12
12
12
12
12
12
12
12
12
12
12
12
12
12
12
12
12
12
12
12
12
12
12
12
12
12
12
12
12
12
12
12
12
12
12
12
12
12
12
12
12
12
12
12
12
12
12
12
12
12
12
12
12
12
12
12
12
12
12
12
12
12
12
12
12
12
12
12
12
12
12
12
12
12
12
12
12
12
12
12
12
12
12
12
12
12
12
12
12
12
12
12
12
12
12
12
12
12
12
12
12
12
12
12
12
12
12
12
12
12
12
12
12
12
12
12
12
12
12
12
12
12
12
12
12
12
12
12
12
12
12
12
12
12
12
12
12
12
12
12
12
12
12
12
12
12
12
12
12
12
12
12
12
12
12
12
12
12
12
12
12
12
12
12
12
12
12
12
12
12
12
12
12
12
12
12
12
12
12
12
12
12
12
12
12
12
12
12
12
12
12
12
12
12
12
12
12
12
12
12
12
12
12
12
12
12
12
12
12
12
12
12
12
12
12
12
12
12
12
12
12
12
12
12
12
12
12
12
12
12
12
12
12
12
12
12
12
12
12
12
12
12
12
12
12
12
12
12
12
12
12
12
12
12
12
12
12
12
12
12
12
12
12
12
12
12
12
12
12
12
12
12
12
12
12
12
12
12
12
12
12
12
12
12
12
12
12
12
12
12
12
12
12
12
12
12
12
12
12
12
12
12
12
12
12
12
12
12
12
12
12
12
12
12
12
12
12
12
12
12
12
12
12
12
12
12
12
12
12
12
12
12
12
12
12
12
12
12
12
12
12
12
12
12
12
12
12
12
12
12
12
12
12
12
12
12
12
12
12
12
12
12
12
12
12
12
12
12
12
12
12
12
12
12
12
12
12
12
12
12
12
12
12
12
12
12
12
12
12

POINT_DATA 3012
SCALARS Jp_lamdaP float 4
LOOKUP_TABLE default
0.999489 1 1 0.999489
1 1 1 1
0.999504 1 1 0.999504
0.99943 1 1 0.99943
0.999491 1 1 0.999491
0.99946 1 1 0.99946
1.00875 1.01034 1 0.998431
1 1 1 1
1 1 1 1
1 1 1 1
0.999544 1 1 0.999544
1.00468 1.00624 1 0.998454
0.999467 1 1 0.999467
0.999453 1 1 0.999453
0.99951 1 1 0.99951
0.999466 1 1 0.999466
0.99947 1 1 0.99947
0.999516 1 1 0.999516
1.00873 1.01032 1 0.998429
1 1 1 1
0.999418 1 1 0.999418
0.999464 1 1 0.999464
1.00323 1.0049 1 0.99833
1.00774 1.00934 1 0.99842
0.999448 1 1 0.999448
1.00819 1.00978 1 0.998421
1.03405 1.03731 1 0.996859
1 1 1 1
0.999743 1 1 0.999743
0.999755 1 1 0.999755
1 1 1 1
1.00327 1.00481 1 0.998464
0.999476 1 1 0.999476
0.999506 1 1 0.999506
1.00921 1.01059 1 0.998632
1 1 1 1
1.00827 1.00959 1 0.998698
1.0004 1.00187 1 0.998532
1.02212 1.02541 1 0.996786
1 1 1 1
1 1 1 1
0.999729 1 1 0.999729
1 1 1 1
0.999472 1 1 0.999472
0.998926 1.00067 1 0.998257
1 1 1 1
1.00214 1.0036 1 0.998543
0.999497 1 1 0.999497
0.999534 1 1 0.999534
0.999472 1 1 0.999472
1.00874 1.01033 1 0.998432
0.999714 1 1 0.999714
0.99945 1 1 0.99945
0.999462 1 1 0.999462
0.999497 1 1 0.999497
1.00296 1.00465 1 0.998322
1.00822 1.00981 1 0.998422
1.00757 1.00917 1 0.998417
1.03435 1.03762 1 0.996849
1 1 1 1
0.999433 1 1 0.999433
0.999018 1.0004 1 0.998622
1.00118 1.00287 1 0.998313
1.00591 1.00755 1 0.998377
1.03527 1.03872 1 0.996673
1.03485 1.03822 1 0.996758
0.99949 1 1 0.99949
1.00209 1.00361 1 0.998486
1.03248 1.03568 1 0.99691
1.05438 1.05862 1 0.995996
1 1 1 1
1 1 1 1
1 1 1 1
1.00222 1.00376 1 0.998472
1 1 1 1
1 1 1 1
1.00909 1.01074 1 0.998363
0.999822 1 1 0.999822
1.00713 1.0087 1 0.99845
1.0002 1.0014 1.00009 0.998718
1.02335 1.02665 1 0.996781
1 1 1 1
1.00215 1 1.00266 0.999494
1.00737 1.00911 1 0.998276
1.0092 1.01083 1 0.99839
1.04067 1.0444 1 0.996421
0.999701 1.00001 1.00062 0.999071
1.03045 1.03386 1 0.9967
1.01676 1.01981 1.00006 0.996953
1.04172 1.04589 1 0.996018
1 1 1 1
1 1 1 1
1 1 1 1
1 1 1 1
1 1 1 1
0.999736 1 1 0.999736
0.999406 1.00098 1 0.998427
0.999727 1 1 0.999727
1.00294 1.00454 1 0.998405
1 1 1 1
0.998496 1.0002 1 0.998297
1.00027 1.00172 1 0.998555
1.02986 1.03362 1 0.996369
1.00513 1.00657 1 0.998573
1.0374 1.04119 1 0.996358
0.999492 1 1 0.999492
0.999479 1 1 0.999479
0.999471 1 1 0.999471
0.999525 1 1 0.999525
1.0027 1.00439 1 0.998317
1.00742 1.00901 1 0.998418
1.00813 1.00972 1 0.998426
1.03479 1.03807 1 0.996839
1 1 1 1
0.999463 1 1 0.999463
0.998702 1.00037 1 0.998337
1.00085 1.00255 1 0.998303
0.999749 1 1 0.999749
1.00321 1.00463 1 0.998582
1.00566 1.0073 1 0.998372
1.03521 1.03868 1 0.996653
1.0318 1.03501 1 0.996899
1.03555 1.0389 1 0.996775
1.05413 1.05836 1 0.996006
0.998522 1.0002 1 0.998321
0.999842 1.00151 1 0.99833
1.02693 1.03035 1 0.996682
1.03168 1.03516 1 0.996643
1.03652 1.03996 1 0.996691
1.06838 1.07256 1 0.996106
1 1 1 1
1.05828 1.06249 1 0.996035
0.999687 1.00061 1.00046 0.998621
1.02265 1.02591 1 0.996821
1.0509 1.05517 1 0.995955
1.05833 1.06253 1 0.996045
1.00192 1 1.00284 0.999086
1.00674 1 1.00899 0.997765
1 1 1 1
1 1 1 1
1.00917 1.01082 1 0.998368
1 1 1 1
0.999753 1.00076 1.00037 0.998625
1.00625 1.00781 1 0.998457
1.02386 1.02717 1 0.996777
1 1 1 1
1.00227 1 1.00276 0.999519
1.00808 1.00966 1 0.998439
1.00913 1.0106 1 0.99854
1.03978 1.04352 1 0.996419
1.00007 1.00004 1.00109 0.998938
1.03056 1.03397 1 0.996701
1.01468 1.01769 1.00009 0.996949
1.04239 1.04655 1 0.996021
1.00149 1 1.00227 0.99922
1.00244 1 1.00275 0.999697
1.00623 1.00068 1.00741 0.998144
1.04215 1.04597 1 0.996348
1.03733 1.04091 1 0.996557
1.06264 1.06698 1 0.995929
1.00964 1.01131 1.00107 0.997285
1.0493 1.05343 1 0.996075
1.0304 1.03388 1.00057 0.996068
1.04889 1.05316 1 0.995948
1 1 1 1
1 1 1 1
1 1 1 1
1.00222 1 1.00294 0.999285
1 1 1 1
1 1 1 1
1 1 1 1
1.00354 1.00528 1 0.998272
0.99951 1.00122 1 0.998296
1 1 1 1
1 1 1 1
0.998612 1.00032 1 0.998297
1.00061 1.00219 1 0.99842
1.03007 1.03383 1 0.996369
1.00559 1.00733 1 0.998273
1.03662 1.04041 1 0.996356
0.998364 1.00006 1 0.998301
1.0275 1.03127 1 0.996351
1.03304 1.0368 1 0.996378
1.07083 1.07575 0.999224 0.996203
1.04071 1.04453 1 0.996335
1.07357 1.0781 0.999657 0.99614
1 1 1 1
0.999493 1 1 0.999493
0.998293 1.00027 1 0.998018
1.00055 1.00226 1 0.998293
1 1 1 1
1.00462 1.00594 1 0.998682
1.00541 1.00705 1 0.99837
1.03512 1.03862 1 0.996633
1.03638 1.03972 1 0.996791
1.03096 1.03418 1 0.996887
1.05369 1.0579 1 0.996016
0.998423 1.0001 1 0.998319
0.999608 1.00129 1 0.99832
1.02715 1.03072 1 0.996536
1.03207 1.03554 1 0.996648
1 1 1 1
1.00063 1.00168 1.00023 0.998724
1.02329 1.02645 1 0.996923
1.03696 1.04041 1 0.996683
1.06857 1.07281 0.99992 0.996122
1.05105 1.05532 1 0.995954
1.05832 1.0625 1 0.996065
1.0579 1.06209 1 0.996055
1.00162 1 1.00255 0.999072
1.00594 1.00033 1.00786 0.997764
1.02622 1.02996 1 0.996373
1.02789 1.03132 1 0.996672
1.06878 1.0734 0.999481 0.996208
1.06799 1.07345 0.998754 0.99616
1.06338 1.06763 0.999873 0.996141
1.06692 1.07397 0.997064 0.996365
1.00047 1 1.00162 0.998853
1.06068 1.06493 0.999796 0.996217
1.01329 1.0162 1.00011 0.997028
1.04546 1.04971 1 0.995953
1.05693 1.06131 1 0.995872
1.05725 1.06132 0.999795 0.996366
1.00426 1.00167 1.00514 0.99745
1.00684 1 1.00872 0.99813
1.00611 1.00331 1.00579 0.997015
1.00847 1.01017 1 0.998312
1 1 1 1
1.00209 1 1.00255 0.999544
1.00875 1.01034 1 0.998427
1.03905 1.04279 1 0.996417
1.00026 1 1.00133 0.998934
1.01383 1.01689 1.00004 0.996946
1.0305 1.03391 1 0.996702
1.04397 1.04814 1 0.996024
1.00162 1 1.00237 0.999244
1.00195 1 1.00223 0.999715
1.00635 1.0002 1.00802 0.998144
1.0411 1.04492 1 0.996343
1.03651 1.04009 1 0.996558
1.06287 1.06722 1 0.995923
1.00722 1.00918 1.00078 0.997289
1.04993 1.05407 1 0.996072
1.03459 1.03819 1.00047 0.996057
1.05023 1.05449 1 0.99596
1.00156 1 1.00174 0.999818
1.0056 1.00382 1.00411 0.997679
1.00738 1 1.0088 0.998597
1.00885 1.00481 1.00656 0.997471
1.06726 1.07158 1 0.995961
1.0566 1.06086 1 0.995987
1.06392 1.06819 0.999989 0.99602
1.02023 1.02339 1.00049 0.99642
1.05091 1.055 1 0.996121
1.04612 1.04886 1.00158 0.995815
1.06063 1.06493 1 0.995962
1.00015 1 1.00072 0.999431
0.99993 1 1 0.99993
1 1 1 1
1 1 1 1
1 1 1 1
1.00253 1 1.00305 0.999482
1 1 1 1
1.00249 1 1.00323 0.999266
1 1 1 1
1.00646 1.0082 1 0.998274
1.00106 1.00278 1 0.998287
1.03628 1.04007 1 0.996355
1.03042 1.03418 1 0.99637
0.998781 1.00048 1 0.998299
1 1 1 1
0.998407 1.00011 1 0.998301
1.02784 1.0316 1 0.996352
1.03315 1.03691 1 0.996378
1.07041 1.07527 0.999279 0.996202
1.04007 1.0439 1 0.996331
1.07326 1.0777 0.999735 0.996138
1.02628 1.03003 1 0.996353
1.06942 1.07418 0.999385 0.996184
1.07249 1.07735 0.999286 0.996193
1.06851 1.07818 0.994444 0.996567
1.0722 1.07653 0.999925 0.996051
1.06946 1.07904 0.994653 0.996447
0.998421 1.0001 1 0.998317
0.999369 1.00106 1 0.998309
1.02743 1.03115 1 0.996392
1.03244 1.03591 1 0.996652
1 1 1 1
1.00132 1.00245 1.00004 0.998831
1.02366 1.02671 1 0.997025
1.03738 1.04084 1 0.996675
1.06874 1.07307 0.999827 0.996138
1.05819 1.06234 1 0.996096
1.05164 1.05592 1 0.995953
1.05763 1.06181 1 0.996064
1.00147 1 1.00241 0.99906
1.00631 1.00098 1.00758 0.997764
1.02627 1.03 1 0.996373
1.02844 1.03188 1 0.996666
1.06818 1.07317 0.99911 0.996238
1.06931 1.07422 0.999289 0.996141
1.00012 1.00005 1.00122 0.998843
1.0144 1.01725 1.00017 0.997028
1.0456 1.04982 1 0.995973
1.06324 1.06746 0.99993 0.996113
1.06606 1.07364 0.996504 0.99642
1.05629 1.06067 1 0.995871
1.06088 1.06518 0.999747 0.996221
1.05734 1.06143 0.99979 0.996356
1.0053 1.00294 1.00492 0.997449
1.00726 1.00388 1.00637 0.997012
1.00804 1.00005 1.00987 0.998131
1.06815 1.07273 0.999537 0.996192
1.06916 1.07447 0.998818 0.996234
1.06901 1.07741 0.995701 0.996492
1.06758 1.07722 0.994596 0.996444
1.0622 1.06808 0.998122 0.996362
1.05793 1.0709 0.991126 0.996727
1.0044 1.0064 1.00077 0.997248
1.05739 1.06462 0.996645 0.996546
1.03312 1.03708 1 0.996182
1.04882 1.05342 1 0.995639
1.05298 1.05726 1 0.995949
1.0498 1.05562 0.997842 0.996642
1.00935 1 1.01093 0.998434
1.0069 1.00894 1.0012 0.996792
1.0094 1.00097 1.01118 0.997277
1.00792 1.00796 1.00332 0.996656
1.04013 1.04395 1 0.996339
1.00153 1 1.0018 0.999733
1.00191 1 1.00265 0.999268
1.00761 1.0001 1.00938 0.998143
1.03581 1.03939 1 0.99656
1.06299 1.06735 1 0.995916
1.00354 1.00573 1.00054 0.997293
1.03609 1.03986 1.00033 0.996047
1.05071 1.05486 1 0.996068
1.04991 1.05415 1 0.995972
1.0009 1 1.00107 0.999832
1.00511 1.00249 1.00494 0.997686
1.00777 1.00007 1.00912 0.998603
1.00807 1.00364 1.00697 0.997468
1.06725 1.07159 1 0.995954
1.05685 1.06111 1 0.995983
1.06338 1.06764 0.999993 0.996017
1.0179 1.02109 1.00045 0.996424
1.05039 1.0545 1 0.996103
1.04304 1.04563 1.00173 0.995801
1.05997 1.06416 1 0.996057
0.99989 1 1 0.99989
1.00507 1 1.00613 0.998942
1.00985 1.01094 1.00195 0.996983
1.01144 1.00211 1.01148 0.99785
1.00723 1.00685 1.00316 0.997227
1.06761 1.07257 0.999235 0.99614
1.0571 1.06131 1 0.996029
1.05765 1.06273 0.999006 0.996208
1.02114 1.02317 1.00199 0.99603
1.05181 1.05585 1 0.99618
1.03596 1.03957 1.00086 0.995674
1.00002 1 1.00068 0.999334
1.00149 1 1.00276 0.998742
0.999515 1 1 0.999515
0.999645 1 1.00021 0.999433
0.999956 1 1 0.999956
0.999936 1 1 0.999936
1 1 1 1
1 1 1 1
1 1 1 1
1.00152 1 1.00183 0.999692
1 1 1 1
1.00256 1 1.0031 0.999464
1 1 1 1
1.00216 1 1.00291 0.999248
1 1 1 1
1.03921 1.04304 1 0.996326
1.03299 1.03675 1 0.996377
1.07259 1.07696 0.999806 0.996135
1.06986 1.07465 0.999336 0.996201
1.02812 1.03189 1 0.996352
0.998417 1.00012 1 0.9983
1.02648 1.03023 1 0.996353
1.06899 1.07371 0.999414 0.996184
1.07199 1.07678 0.999357 0.996191
1.06812 1.0784 0.99386 0.996584
1.07129 1.07559 0.999957 0.996046
1.06987 1.07937 0.994736 0.996446
1.06828 1.07297 0.999459 0.996173
1.06781 1.07772 0.994193 0.996592
1.06921 1.07923 0.99416 0.996531
1.06295 1.0756 0.991414 0.996796
1.06775 1.07532 0.996635 0.99631
1.06252 1.07888 0.98802 0.996785
1.02622 1.02995 1 0.996373
1.029 1.03245 1 0.996659
1.06761 1.07295 0.99875 0.996267
1.07062 1.07499 0.999813 0.996121
0.999821 1.00015 1.00084 0.998833
1.01646 1.01934 1.00015 0.997029
1.04675 1.05096 1 0.995994
1.06308 1.06725 1 0.996085
1.06522 1.07333 0.995961 0.996474
1.06111 1.06546 0.999698 0.996225
1.05539 1.05976 1 0.995869
1.05739 1.06149 0.999794 0.996344
1.00637 1.00445 1.00448 0.997447
1.00641 1.00313 1.00629 0.997009
1.0082 1 1.01008 0.998132
1.06792 1.07252 0.999522 0.996188
1.06868 1.07424 0.998588 0.996232
1.06849 1.07755 0.995032 0.99654
1.0676 1.07668 0.995134 0.996417
1.00764 1.00941 1.001 0.997247
1.03249 1.03645 1 0.996182
1.04801 1.05254 1.00003 0.995665
1.06281 1.06826 0.998579 0.996314
1.05734 1.07115 0.990299 0.996775
1.05398 1.05831 1 0.995909
1.05756 1.06475 0.996683 0.996547
1.05088 1.05648 0.998008 0.99668
1.00765 1.0093 1.00158 0.996791
1.00703 1.00677 1.00366 0.996607
1.00805 1 1.00964 0.998434
1.00851 1.0006 1.01061 0.99732
1.06831 1.07718 0.995204 0.996542
1.07056 1.0798 0.994949 0.996469
1.058 1.07132 0.990824 0.996712
1.05616 1.07311 0.987365 0.996804
1.05693 1.06832 0.992616 0.996699
1.05727 1.07416 0.987298 0.996945
1.01607 1.01965 1 0.99649
1.04897 1.06114 0.991593 0.996914
1.03466 1.03903 1 0.995788
1.04455 1.04909 1.00018 0.995498
1.05183 1.05608 1 0.99597
1.05408 1.06005 0.997644 0.996707
1.00474 1 1.00603 0.998718
1.01272 1.00124 1.01396 0.997538
1.01175 1.01539 1.00001 0.996408
1.00857 1.00475 1.00686 0.996968
1.0099 1.00684 1.00661 0.996444
1.00033 1 1.00049 0.999846
1.0672 1.07155 1 0.995947
1.00776 1.00017 1.009 0.998608
1.00461 1.00128 1.00564 0.997692
1.007 1.00236 1.00718 0.997464
1.05706 1.06133 1 0.99598
1.06288 1.06713 1 0.996015
1.01869 1.02183 1.00051 0.996429
1.04279 1.04518 1.00193 0.995788
1.05 1.05412 1 0.996085
1.06014 1.06423 1 0.996151
0.999898 1 1 0.999898
1.00517 1 1.00623 0.998953
1.00762 1.00923 1.00142 0.996992
1.0124 1.00198 1.01259 0.997844
1.00717 1.0064 1.00361 0.997167
1.06752 1.07242 0.999297 0.996135
1.05677 1.06098 1 0.996028
1.05727 1.0624 0.998965 0.996197
1.02222 1.02411 1.00213 0.996028
1.05528 1.05934 1 0.99616
1.03618 1.03964 1.00096 0.995711
1.00128 1 1.00209 0.999187
1.0086 1.00001 1.01037 0.998232
1.00395 1.00688 1.0005 0.996589
1.01489 1.00656 1.01082 0.997489
1.01076 1.0117 1.00203 0.997039
1.0628 1.07186 0.995155 0.996379
1.05224 1.05629 1 0.996161
1.05243 1.05925 0.99713 0.996428
1.00587 1.00619 1.00379 0.995909
1.03295 1.0374 1 0.995711
1.00029 1 1.00096 0.999336
0.999912 1 1.00127 0.998642
1.00179 1 1.00308 0.998717
1.00135 1 1.00288 0.998475
1.0007 1 1.00189 0.998816
0.999567 1 1 0.999567
0.999595 1 1.00008 0.999518
0.999977 1 1 0.999977
0.999676 1 1.00024 0.999435
0.999962 1 1 0.999962
1 1 1 1
0.999943 1 1 0.999943
1 1 1 1
1 1 1 1
1.00018 1 1.00031 0.999871
1.00233 1 1.00266 0.999673
1 1 1 1
1 1 1 1
1.00325 1 1.00381 0.999447
1 1 1 1
1.07055 1.0748 1 0.996041
1.07179 1.07651 0.999424 0.996189
1.07037 1.07979 0.994814 0.996446
1.06782 1.07872 0.993269 0.996602
1.06853 1.07322 0.999443 0.996185
1.02667 1.03043 1 0.996353
1.06801 1.07267 0.999474 0.996174
1.06782 1.07756 0.994356 0.996586
1.06961 1.07969 0.994107 0.996532
1.06223 1.0755 0.990802 0.996825
1.06874 1.07627 0.996689 0.996304
1.06276 1.07902 0.988077 0.996807
1.06809 1.07753 0.994656 0.996561
1.06061 1.07466 0.990122 0.996777
1.06366 1.07752 0.990242 0.996858
1.0635 1.08103 0.986806 0.996944
1.06241 1.07685 0.989938 0.996617
1.06517 1.08428 0.985327 0.997006
1.06768 1.07229 0.999507 0.996184
1.06819 1.07398 0.998374 0.996231
1.06789 1.07765 0.994335 0.996587
1.06758 1.07609 0.995681 0.996391
1.00968 1.01116 1.00129 0.997246
1.02945 1.0334 1 0.996182
1.04659 1.05093 1.00018 0.99569
1.06347 1.0685 0.999021 0.996266
1.0568 1.07139 0.989534 0.996822
1.05781 1.06497 0.996713 0.996547
1.05496 1.05933 1 0.99587
1.05178 1.05719 0.998159 0.996718
1.00994 1.01084 1.00232 0.996792
1.00754 1.00745 1.00354 0.996559
1.00755 1 1.00913 0.998433
1.00765 1.0002 1.01012 0.997363
1.06845 1.07732 0.995209 0.996541
1.07016 1.07938 0.99499 0.996452
1.058 1.07147 0.990659 0.996743
1.05713 1.07317 0.988231 0.996787
1.017 1.02016 1.00042 0.996484
1.0332 1.03751 1.00003 0.995821
1.0443 1.04863 1.00039 0.995486
1.05781 1.06842 0.993398 0.996649
1.05565 1.07313 0.986671 0.997001
1.04971 1.05398 1 0.995955
1.05016 1.06244 0.991504 0.996914
1.05385 1.05982 0.997587 0.996777
1.01073 1.0142 1.00017 0.996412
1.00724 1.00699 1.00384 0.996429
1.00765 1.00323 1.00747 0.996964
1.00532 1 1.00664 0.99869
1.01216 1.00054 1.01407 0.997578
1.05946 1.07362 0.99002 0.996759
1.05971 1.07549 0.988517 0.996775
1.05566 1.07822 0.982033 0.996985
1.05063 1.0692 0.985586 0.997004
1.01868 1.02263 1 0.996134
1.05377 1.06672 0.990745 0.997086
1.02078 1.02504 1.00029 0.995563
1.03707 1.0414 1.00051 0.995338
1.04759 1.05203 0.999804 0.995972
1.00119 1 1.00217 0.999032
1.01083 1 1.01288 0.99797
1.00751 1.00012 1.01017 0.997251
1.00817 1.01137 1.00057 0.996276
1.00924 1.00514 1.00756 0.996537
1.00936 1.00705 1.00604 0.996271
0.999907 1 1 0.999907
1.00499 1 1.00603 0.998963
1.06739 1.07223 0.999357 0.99613
1.01386 1.0018 1.01424 0.997838
1.00416 1.00635 1.00082 0.997001
1.00721 1.0062 1.0039 0.997108
1.0563 1.06052 1 0.996026
1.05704 1.06223 0.998926 0.996186
1.02174 1.02347 1.00229 0.996026
1.03521 1.03883 1.00077 0.995748
1.05898 1.06308 1 0.996141
1.00072 1 1.00153 0.999192
1.00947 1 1.01125 0.998235
1.00684 1.00984 1.00047 0.996555
1.01503 1.0057 1.01182 0.997487
1.01101 1.01224 1.00176 0.997022
1.06151 1.07053 0.995181 0.996374
1.05425 1.05833 1 0.996147
1.05436 1.06092 0.99735 0.996451
1.0079 1.0088 1.00324 0.995879
1.03104 1.03546 1.00006 0.995678
1.00315 1 1.00462 0.998534
1.01291 1.00058 1.01455 0.9978
1.00484 1.00634 1.00211 0.99641
1.01751 1.01246 1.00784 0.997171
1.02353 1.02569 1.00107 0.996833
1.05282 1.07006 0.986983 0.99687
1.05551 1.05976 0.999979 0.996017
1.05803 1.06432 0.997683 0.996397
1.00975 1.0096 1.00433 0.995834
1.01518 1.01979 1 0.99547
0.999853 1 1.00052 0.999338
0.999634 1 1.00098 0.998654
0.998763 1 1.00031 0.998449
1.00055 1 1.00186 0.998693
1.0001 1 1.00129 0.998814
1.00231 1 1.00386 0.998457
1.00001 1 1.00155 0.998466
1.00297 1 1.00457 0.9984
0.999249 1 1.00038 0.998874
0.999563 1 1 0.999563
0.999567 1 1 0.999567
0.999991 1 1 0.999991
0.999521 1 1 0.999521
0.999981 1 1 0.999981
1 1 1 1
0.999969 1 1 0.999969
1 1 1 1
1 1 1 1
0.999962 1 1 0.999962
1.00049 1 1.00064 0.999846
1 1 1 1
1.00258 1 1.00292 0.999654
1 1 1 1
1 1 1 1
1.06972 1.07721 0.996741 0.996299
1.0698 1.07994 0.99406 0.996532
1.06296 1.07916 0.988125 0.996829
1.06148 1.07535 0.990211 0.996854
1.06786 1.07741 0.994535 0.996581
1.06779 1.07244 0.999489 0.996175
1.06827 1.07748 0.994888 0.996543
1.06116 1.07468 0.990616 0.99677
1.06298 1.07682 0.990275 0.996844
1.06193 1.08027 0.986027 0.996954
1.06225 1.07653 0.990085 0.996619
1.06247 1.08248 0.984424 0.997042
1.06171 1.07484 0.991004 0.99675
1.06308 1.08218 0.985358 0.996945
1.06431 1.084 0.984758 0.997032
1.05707 1.08099 0.98076 0.997055
1.06862 1.07749 0.995215 0.996541
1.06982 1.07901 0.995028 0.996434
1.05807 1.07166 0.990519 0.996773
1.05813 1.07331 0.98905 0.99677
1.01893 1.02204 1.00048 0.996478
1.03216 1.03646 1 0.995855
1.04408 1.04821 1.00058 0.995474
1.05848 1.06836 0.994132 0.996598
1.05397 1.07211 0.985981 0.997056
1.05117 1.06352 0.991451 0.996914
1.04808 1.05236 1 0.99594
1.05471 1.06025 0.997919 0.996845
1.00535 1.00833 1.00063 0.996416
1.00636 1.00716 1.0028 0.996413
1.00841 1.00276 1.00871 0.99696
1.0053 1 1.00664 0.998664
1.01154 1.0001 1.01385 0.997619
1.05945 1.07356 0.990069 0.99676
1.06037 1.07614 0.988536 0.996771
1.0561 1.07753 0.983082 0.996978
1.01855 1.0225 1 0.996133
1.02068 1.02493 1.00026 0.995598
1.03589 1.03996 1.00076 0.995327
1.05091 1.0691 0.985953 0.996991
1.05063 1.05523 0.999539 0.996096
1.05007 1.06331 0.990468 0.997052
1.00157 1 1.00248 0.999085
1.0074 1.00883 1.00232 0.996272
1.00937 1.00536 1.00763 0.996377
1.01266 1.00703 1.0091 0.996532
1.01039 1.00228 1.01085 0.997273
1.01132 1 1.01341 0.997937
1.06191 1.08028 0.986116 0.996831
1.0601 1.0849 0.980154 0.996927
1.04913 1.07621 0.977717 0.99706
1.04467 1.07044 0.978666 0.997198
1.0113 1.01512 1.00027 0.995967
1.04585 1.05383 0.995769 0.996643
1.0094 1.01259 1.00165 0.995208
1.02447 1.02834 1.00104 0.995197
0.999578 1 1.00013 0.999445
1.0057 1 1.0073 0.998408
1.00984 1.00045 1.01181 0.997608
1.01138 1.00292 1.01174 0.996735
1.00672 1.00513 1.00541 0.996192
1.01478 1.0059 1.0128 0.996085
1.00062 1 1.00142 0.999197
1.01012 1 1.0119 0.998239
1.06031 1.0693 0.995206 0.99637
1.01465 1.00463 1.01252 0.997484
1.00975 1.013 1.00027 0.996521
1.01028 1.01177 1.00152 0.997006
1.05635 1.06045 1 0.996134
1.05606 1.06241 0.997546 0.996473
1.01052 1.01197 1.00273 0.99585
1.02895 1.03318 1.00027 0.995645
1.00338 1 1.00484 0.998538
1.01303 1.0003 1.01498 0.997774
1.00526 1.00687 1.002 0.996415
1.01695 1.01277 1.00698 0.997176
1.02613 1.02885 1.00048 0.996885
1.05527 1.07233 0.987128 0.996917
1.05514 1.05933 0.999994 0.996057
1.05915 1.06501 0.998011 0.996478
1.01084 1.01047 1.00458 0.995799
1.01474 1.01942 1.00003 0.995382
1.00372 1 1.00549 0.998241
1.0123 1.00193 1.01296 0.997422
1.0153 1.01515 1.00378 0.996379
1.0218 1.02316 1.00195 0.996721
1.05378 1.09218 0.967593 0.99716
1.05401 1.06653 0.991311 0.99692
1.0398 1.04439 0.999986 0.995616
1.01807 1.01842 1.00426 0.995426
1.00026 1 1.0016 0.998667
0.999096 1 1.00065 0.99845
0.999018 1 1.00047 0.998549
1.00061 1 1.0018 0.998812
1.00392 1 1.00548 0.99844
0.999305 1 1.00044 0.99887
0.999836 1 1.00135 0.998491
1.00377 1 1.00537 0.998409
0.998656 1 1 0.998656
1.0033 1 1.00502 0.998288
1.00198 1 1.00362 0.998366
0.998847 1 1 0.998847
0.99952 1 1 0.99952
0.99956 1 1 0.99956
0.999996 1 1 0.999996
0.999567 1 1 0.999567
0.999992 1 1 0.999992
1 1 1 1
0.999986 1 1 0.999986
1 1 1 1
1 1 1 1
0.999991 1 1 0.999991
0.999945 1 1 0.999945
1 1 1 1
1.00112 1 1.0013 0.999821
1 1 1 1
1 1 1 1
1.062 1.07612 0.990229 0.996622
1.06242 1.07622 0.990314 0.99683
1.05985 1.08073 0.983551 0.997078
1.06034 1.07956 0.985194 0.996964
1.06171 1.07475 0.991081 0.996763
1.06844 1.07743 0.99511 0.996525
1.06141 1.07468 0.990868 0.996751
1.06283 1.08176 0.985515 0.996936
1.06283 1.0831 0.98421 0.997028
1.05759 1.08137 0.980892 0.997066
1.06406 1.08208 0.986414 0.996891
1.0632 1.08855 0.979565 0.997092
1.06486 1.0927 0.977319 0.997132
1.05942 1.07349 0.990098 0.996762
1.06093 1.07669 0.98856 0.996767
1.05665 1.07683 0.984245 0.99697
1.02126 1.02523 1 0.996132
1.02016 1.02445 1.00018 0.995632
1.03453 1.03852 1.00085 0.995315
1.05128 1.06913 0.986279 0.996977
1.04575 1.05994 0.989572 0.997018
1.0529 1.05788 0.999067 0.996221
1.00747 1.00764 1.00357 0.996267
1.00396 1.0022 1.00529 0.996485
1.01403 1.00818 1.00931 0.996526
1.00173 1 1.0026 0.99914
1.01121 1.00369 1.01023 0.997295
1.01213 1 1.01426 0.997903
1.06257 1.08068 0.986363 0.99684
1.05928 1.08472 0.979561 0.996931
1.04955 1.07613 0.97818 0.997052
1.0096 1.0136 1.00009 0.995959
1.00904 1.0124 1.0014 0.995283
1.02476 1.02867 1.0009 0.9953
1.04533 1.07032 0.979396 0.997199
1.04106 1.05007 0.994788 0.99662
0.999608 1 1.00009 0.999522
1.00544 1 1.00704 0.998404
1.00352 1.00374 1.00357 0.996229
1.01725 1.00507 1.01591 0.996265
1.01169 1.00422 1.01069 0.996788
1.00954 1.00046 1.01154 0.997561
1.06159 1.0875 0.979109 0.997011
1.04989 1.0885 0.967415 0.997015
1.04543 1.07625 0.974052 0.997242
1.03311 1.05495 0.982049 0.997191
1.0021 1.00504 1.00133 0.995755
1.02528 1.02878 1.0009 0.995703
1.00937 1.01173 1.00264 0.99504
0.999739 1 1 0.999739
0.999156 1 1 0.999156
1.00054 1 1.00173 0.998818
1.00495 1 1.0071 0.997867
1.00998 1 1.01283 0.997187
1.01994 1.00431 1.01917 0.996461
1.0039 1.00192 1.00555 0.996447
1.04135 1.00288 1.04182 0.996676
1.00287 1 1.00434 0.998542
1.01353 1 1.01582 0.997747
1.05795 1.07474 0.987377 0.996964
1.0183 1.01479 1.0063 0.997181
1.00562 1.00706 1.00215 0.996421
1.02816 1.03128 1.00004 0.996936
1.05477 1.0589 1 0.996097
1.06027 1.06571 0.998331 0.996559
1.01146 1.01089 1.00482 0.995765
1.0141 1.0189 1 0.995293
1.00409 1 1.00591 0.998192
1.0108 1.00095 1.01247 0.997409
1.01935 1.01881 1.00415 0.996393
1.02112 1.02279 1.00161 0.996762
1.0552 1.09468 0.966665 0.997179
1.0574 1.06908 0.992182 0.996865
1.03744 1.04203 0.99992 0.995674
1.02001 1.0209 1.00377 0.995376
1.00433 1 1.00627 0.998071
1.06443 1.1019 0.968722 0.997188
1.00685 1.00204 1.0078 0.997025
1.01957 1.02077 1.00268 0.99616
1.03714 1.07693 0.965649 0.997308
1.03271 1.03827 0.99888 0.99576
1.01393 1.01559 1.00323 0.995149
0.999674 1 1.00122 0.998451
0.998377 0.999402 1.00043 0.99854
0.998924 0.998949 1.00125 0.998724
0.99911 1 1.00024 0.998867
1.0038 1 1.00539 0.998417
0.999869 1 1.00135 0.998517
0.998844 1 1 0.998844
1.00217 1 1.0038 0.998373
0.998895 1 1.0002 0.998691
1.00242 1 1.00413 0.998297
0.998815 1 1 0.998815
0.999515 1 1.00101 0.998504
1.00367 1 1.00554 0.998138
0.999105 1 1.00085 0.998258
0.998751 1 1 0.998751
0.999471 1 1 0.999471
0.999515 1 1 0.999515
0.999998 1 1 0.999998
0.999558 1 1 0.999558
0.999997 1 1 0.999997
1 1 1 1
0.999994 1 1 0.999994
1 1 1 1
1 1 1 1
0.999778 1 1 0.999778
0.999999 1 1 0.999999
0.999985 1 1 0.999985
1 1 1 1
0.999927 1 1 0.999927
1 1 1 1
1 1 1 1
1.05813 1.08174 0.98105 0.997077
1.06138 1.08221 0.983674 0.997025
1.06264 1.08136 0.985717 0.996926
1.06109 1.07447 0.990762 0.996751
1.06388 1.08229 0.986037 0.99691
1.06324 1.08822 0.979904 0.997084
1.06164 1.08959 0.977147 0.997137
1.06285 1.08882 0.979009 0.997076
1.07575 1.1055 0.975843 0.997175
1.08308 1.11435 0.974439 0.997437
1.06338 1.08118 0.98665 0.996849
1.05831 1.08454 0.978809 0.996934
1.05003 1.07603 0.978735 0.997044
1.008 1.01204 1.00006 0.995952
1.00997 1.0134 1.00126 0.995362
1.02699 1.03093 1.00078 0.995402
1.04621 1.06995 0.980558 0.997201
1.03642 1.04597 0.994256 0.996596
1.00491 1.00369 1.00497 0.996266
1.02247 1.00532 1.02068 0.996441
1.01375 1.00542 1.01148 0.99684
0.999611 1 1.00001 0.9996
1.00527 1 1.00688 0.998401
1.00927 1.00012 1.01166 0.997514
1.06116 1.08778 0.978442 0.99702
0.999733 1 1 0.999733
0.999112 1 1 0.999112
1.05141 1.08758 0.969637 0.997018
1.04359 1.07453 0.973913 0.997212
1.00314 1.0054 1.00192 0.995837
1.00901 1.01067 1.00332 0.995054
1.02414 1.02878 0.999802 0.995688
1.0322 1.05481 0.981348 0.997162
1.00083 1 1.00192 0.998909
1.00526 1 1.00742 0.997856
1.0042 1.00196 1.00593 0.996331
1.03535 1.00292 1.03568 0.996773
1.01725 1.00283 1.01796 0.996479
1.00933 1.00004 1.01212 0.997205
1.07236 1.10656 0.971889 0.997121
1.0326 1.08667 0.952967 0.997142
1.02985 1.06488 0.969644 0.997388
1.01623 1.03377 0.986113 0.996876
1.00532 1.0028 1.00649 0.99606
1.00973 1.00908 1.0055 0.995168
0.999055 1 1 0.999055
0.999211 1 1.00008 0.999134
0.998994 1.00021 1 0.998788
1.00051 1 1.00238 0.998138
1.01016 1 1.01262 0.997566
1.00823 1.00036 1.01105 0.99685
1.06188 1.00028 1.06523 0.996572
0.994493 1.00049 0.996648 0.997345
1.00473 1 1.0066 0.998144
1.00879 1 1.01142 0.997396
1.05602 1.09624 0.966014 0.997198
1.06037 1.07126 0.993009 0.99681
1.02077 1.02277 1.00124 0.996803
1.0245 1.02368 1.00441 0.996406
1.03544 1.03996 0.999916 0.995732
1.02275 1.02412 1.00335 0.995326
1.00445 0.999999 1.00641 0.998047
1.06712 1.10569 0.967764 0.997258
1.00712 1.00121 1.00885 0.997082
1.01686 1.01811 1.00269 0.996095
1.03777 1.07673 0.966444 0.997284
1.03065 1.03639 0.9986 0.995855
1.01512 1.01652 1.00348 0.995162
1.00877 0.99922 1.01177 0.997809
1.00883 1.0595 0.954405 0.997669
1.00476 1.00186 1.00612 0.996784
1.00598 1.00661 1.00379 0.995595
1.01715 1.03705 0.983946 0.996813
1.003 1.00538 1.00221 0.995423
0.954732 1.00273 0.955448 0.99653
0.997546 0.998398 1.00062 0.998532
0.998894 0.997562 1.00261 0.998728
1.00116 0.999305 1.00319 0.998668
0.99884 1 1 0.99884
1.00324 1 1.00487 0.998381
1.00125 1 1.00295 0.998306
0.99899 1 1.00026 0.998728
0.998751 1 1 0.998751
0.999249 1 1.00099 0.99826
0.998781 1 1 0.998781
1.00356 1 1.00543 0.998139
0.999274 1 1.0008 0.998472
1.00001 1 1.00124 0.99877
0.999395 1 1.00143 0.99797
1.00363 1 1.00554 0.998101
0.99847 1 1.00034 0.998126
0.998579 1 1 0.998579
1.00062 1 1.0023 0.998324
0.998954 1 1.00041 0.998545
0.999451 1 1 0.999451
0.999467 1 1 0.999467
0.999999 1 1 0.999999
0.99951 1 1 0.99951
0.999998 1 1 0.999998
1 1 1 1
0.999997 1 1 0.999997
1 1 1 1
1 1 1 1
0.999824 1 1 0.999824
0.999781 1 1 0.999781
1 1 1 1
0.999997 1 1 0.999997
1 1 1 1
0.999979 1 1 0.999979
1 1 1 1
1 1 1 1
1.05855 1.08667 0.97691 0.997142
1.06319 1.08791 0.980145 0.997075
1.06358 1.0824 0.985631 0.996929
1.06262 1.08868 0.978923 0.997074
1.07239 1.10211 0.975796 0.997169
1.08223 1.11332 0.974653 0.997351
1.08068 1.11626 0.970809 0.997241
0.956418 1.01605 0.94662 0.994386
1.03101 1.06872 0.966509 0.998148
0.999244 1 1 0.999244
1.06078 1.08805 0.977834 0.99703
1.05294 1.08693 0.971626 0.99702
1.04142 1.07303 0.973285 0.997182
1.00017 1.00345 1.00082 0.995915
1.00746 1.0084 1.00402 0.995066
1.022 1.0274 0.999067 0.995674
1.03117 1.0548 0.98041 0.997133
0.998799 1.00199 1.0006 0.996222
1.02889 1.00306 1.02897 0.996877
1.01398 1.00124 1.01628 0.996497
0.999728 1 1 0.999728
1.00967 1 1.01248 0.997223
1.00104 1 1.00205 0.998999
1.00551 1 1.00768 0.997843
0.999204 1 1.00014 0.999068
1.06957 1.10701 0.968964 0.997127
0.999111 1 1 0.999111
0.999527 1 1.00039 0.999136
0.998862 1.00057 0.999538 0.99875
1.03662 1.08719 0.95622 0.99714
1.02878 1.06391 0.969562 0.997339
1.00169 1.00217 1.00344 0.996095
1.01436 1.01373 1.00533 0.995313
1.01503 1.03177 0.986877 0.996857
1.00021 1 1.00201 0.998204
1.00932 1 1.01183 0.997514
1.00554 1.00031 1.00809 0.997168
1.05097 1.00088 1.05365 0.996581
1.00804 1.00061 1.01055 0.996906
1.04454 1.09687 0.954929 0.997234
1.00878 1.07221 0.943389 0.997304
1.02115 1.04428 0.980776 0.997018
0.996374 1.01536 0.984623 0.99663
1.00166 1 1.00474 0.996929
0.998632 1 1 0.998632
0.999515 1.00038 1.00063 0.998515
1.00117 1 1.00264 0.998534
1.01182 1 1.01392 0.997923
1.01145 1 1.014 0.997489
1.04427 0.999932 1.04743 0.997055
1.02941 1.00181 1.03027 0.997366
1.00444 1 1.00643 0.998021
1.00657 1 1.00946 0.997139
1.06879 1.10964 0.965768 0.997327
1.03893 1.07731 0.967027 0.997258
1.02879 1.03484 0.998198 0.995949
1.01279 1.01411 1.00268 0.99603
1.01574 1.017 1.0036 0.995177
1.00915 0.999665 1.01163 0.997881
1.01064 1.06081 0.954883 0.997721
1.00176 1.00137 1.00361 0.996791
1.00454 1.00487 1.0041 0.995594
1.01476 1.03575 0.982737 0.996947
1.00382 1.00569 1.00273 0.99542
0.955677 1.00211 0.958138 0.995334
1.00872 0.998443 1.01256 0.997762
0.990363 1.02625 0.967294 0.997664
1.00102 1.00137 1.00312 0.996539
1.00439 1.00204 1.00637 0.996004
0.992387 1.00707 0.988675 0.996711
0.894182 0.97317 0.947868 0.969369
0.879937 0.959821 0.931673 0.984006
0.955413 0.979134 0.978858 0.996849
0.674359 0.810391 0.89119 0.933741
0.584361 0.751556 0.852456 0.912111
0.99891 0.99658 1.00361 0.998733
1.00185 0.997608 1.00554 0.998721
1.00336 0.999905 1.00476 0.998703
0.99875 1 1 0.99875
0.999172 1 1.00091 0.998263
1.00277 1 1.00464 0.99814
0.999232 1 1.00079 0.998439
0.998747 1 1 0.998747
1.00436 1 1.00629 0.998083
0.998618 1 1 0.998618
0.998451 1 1.00031 0.998145
0.999535 1 1.00083 0.998706
1.0001 1 1.00207 0.998037
1.00518 1 1.00713 0.998062
1.00628 0.999788 1.00821 0.998302
1.00463 1 1.0066 0.998045
0.998968 1 1.00095 0.998022
0.998564 1 1.00002 0.998547
0.99926 1 1.00111 0.99815
1.00038 1 1.00215 0.998237
1.00061 1 1.00221 0.998402
1.00045 1 1.00216 0.998287
0.998927 1 1.00025 0.998675
0.999102 1 1.00056 0.998542
0.999445 1 1 0.999445
0.999451 1 1 0.999451
1 1 1 1
0.999464 1 1 0.999464
1 1 1 1
1 1 1 1
0.999999 1 1 0.999999
1 1 1 1
1 1 1 1
0.999877 1 1 0.999877
0.999821 1 1 0.999821
1 1 1 1
0.999783 1 1 0.999783
1 1 1 1
1 1 1 1
0.999996 1 1 0.999996
1 1 1 1
1 1 1 1
1.06909 1.09878 0.975749 0.997163
1.06236 1.08846 0.97889 0.997072
1.0815 1.11197 0.975265 0.997267
0.957997 1.01579 0.948344 0.994476
1.07853 1.11419 0.970673 0.997239
1.03895 1.07132 0.971714 0.998016
1.05736 1.08872 0.973747 0.997371
0.910132 0.974886 0.949541 0.983188
0.982486 1.0207 0.967042 0.99537
0.999287 1 1 0.999287
0.999238 1 1 0.999238
0.998739 1 1 0.998739
0.998868 1 1 0.998868
1.06703 1.10685 0.966791 0.997134
1.0406 1.08695 0.960111 0.997137
1.02821 1.06293 0.969964 0.997289
1.00047 1.00129 1.00306 0.99613
1.01889 1.01891 1.00455 0.99546
1.01368 1.02964 0.987624 0.996838
1.01748 1 1.02056 0.996986
1.04108 1.00138 1.0432 0.996589
1.00777 1.00037 1.01046 0.996961
0.99995 1 1.00081 0.999139
1.00736 1.00007 1.00985 0.997464
0.999919 1 1.00165 0.998269
0.999168 1 1 0.999168
0.999122 1.00099 0.99942 0.998711
1.04333 1.09698 0.953722 0.997249
0.998652 1 1 0.998652
0.9992 1.0006 1 0.998601
1.00085 0.999592 1.0025 0.998767
1.01605 1.07579 0.947031 0.997292
1.02175 1.0442 0.981423 0.997018
1.0001 1.00084 1.00235 0.996913
0.998907 1.01442 0.987957 0.996706
1.01018 1 1.01239 0.997821
1.01141 1 1.01411 0.99733
1.03502 1.00243 1.03526 0.997345
1.04375 1.00115 1.04575 0.996943
0.997156 1.05852 0.944452 0.997432
0.99765 1.04678 0.955641 0.997302
1.00943 1.01841 0.994494 0.99667
0.975153 1.00124 0.976113 0.99778
1.00495 1 1.00647 0.998481
1.00488 1 1.00678 0.998115
1.01907 0.999516 1.02145 0.998154
1.0639 1.00091 1.06575 0.997356
0.877081 0.968658 0.938578 0.964715
1.01034 1 1.01241 0.997955
1.00005 1.00091 1.00235 0.996796
1.01202 1.06199 0.955067 0.997778
1.01229 1.03406 0.981818 0.997081
1.0046 1.00592 1.0033 0.995414
1.00368 1.00361 1.0045 0.995592
0.956372 1.00282 0.959349 0.994097
1.00712 0.998216 1.01113 0.997819
0.989338 1.02689 0.965711 0.99764
1.00093 1.00148 1.00292 0.996552
1.00501 1.00307 1.00594 0.996016
0.995542 1.00819 0.990733 0.996693
0.886356 0.976929 0.940418 0.964772
0.874897 0.955239 0.933824 0.980798
0.959078 0.979711 0.981981 0.996902
0.667818 0.803807 0.888184 0.935412
0.572488 0.744996 0.847637 0.906572
1.00302 0.998359 1.00676 0.997919
0.700411 0.822312 0.907335 0.938747
0.618741 0.764237 0.887366 0.912385
0.986445 1.00553 0.98322 0.997763
1.00907 1.00151 1.01032 0.997255
1.01439 1.00578 1.0114 0.997189
0.946485 0.967514 0.980895 0.99732
0.857286 0.947393 0.935421 0.96736
0.840025 0.924261 0.928688 0.978651
0.655628 0.793666 0.87814 0.94071
0.636372 0.812836 0.862557 0.907653
1.00217 0.995878 1.00756 0.998773
1.0022 0.998354 1.00519 0.998676
1.01315 0.999978 1.01435 0.998837
0.998656 1 1 0.998656
0.998236 1 1.00007 0.998164
1.00489 1 1.00684 0.998066
1.00119 1 1.0031 0.998103
0.998642 1 1 0.998642
0.998583 1 1.00004 0.998548
1.00581 1 1.00779 0.998034
1.00487 1 1.00685 0.998037
0.998512 1 1.00044 0.998069
1.00717 0.999665 1.00918 0.998347
1.00753 1 1.00931 0.998238
1.02313 0.999698 1.02498 0.998496
1.00271 1 1.0048 0.99792
0.998946 1 1.00084 0.998107
0.998815 1 1.00067 0.998144
1.00071 1 1.00245 0.99827
1.00034 1 1.00231 0.99803
0.999798 1 1.00146 0.998341
1.00491 1 1.00651 0.998411
1.00916 1 1.01106 0.998128
1.00128 1 1.0029 0.998379
1.00015 1 1.00174 0.998405
0.999484 1 1.00078 0.998707
1.00021 1 1.00196 0.99825
0.998934 1 1.00029 0.998642
0.999422 1 1 0.999422
0.999231 1 1.00069 0.998539
0.999447 1 1 0.999447
0.999997 1 1 0.999997
0.999452 1 1 0.999452
1 1 1 1
1 1 1 1
1 1 1 1
1 1 1 1
1 1 1 1
0.999228 1 1 0.999228
0.999893 1 1 0.999893
0.999873 1 1 0.999873
1 1 1 1
0.999818 1 1 0.999818
1 1 1 1
1 1 1 1
1 1 1 1
1 1 1 1
1 1 1 1
0.960567 1.01536 0.951206 0.994569
1.07733 1.11294 0.970686 0.997237
1.0482 1.0749 0.977229 0.997881
0.89924 0.971203 0.940561 0.984415
0.982228 1.02075 0.966521 0.995591
1.05728 1.09201 0.9708 0.997326
0.991284 1.03385 0.962597 0.996088
0.915968 0.975191 0.952566 0.986043
0.891543 0.976416 0.944224 0.967013
0.676504 0.809014 0.888707 0.940927
0.541581 0.703362 0.845165 0.911052
0.998821 1 1 0.998821
0.999284 1 1 0.999284
0.999231 1 1 0.999231
0.998749 1 1 0.998749
0.998955 1 1.00039 0.998569
0.998515 1 1 0.998515
0.99871 1 1.00003 0.998685
0.99882 1 1 0.99882
1.0431 1.09854 0.952139 0.997262
1.02354 1.08033 0.950024 0.99728
1.02161 1.04426 0.981237 0.997017
0.999848 1.00189 1.00107 0.9969
1.00157 1.01377 0.991155 0.996782
1.04353 1.00281 1.04341 0.997321
1.04416 1.00276 1.04459 0.996833
1.01122 1.0001 1.01399 0.997171
0.9984 1.00077 0.99894 0.998687
1.01059 1 1.0129 0.997715
0.998675 1 1 0.998675
0.999537 0.999403 1.00113 0.999002
0.995357 1.05933 0.941991 0.997471
1.00403 0.999821 1.00576 0.998466
1.00686 1 1.00865 0.998233
0.995187 1.04463 0.955275 0.997275
1.00704 1.01945 0.990967 0.99683
0.978812 1.00139 0.979768 0.997637
1.03004 1.00062 1.03164 0.997833
1.05809 1.00222 1.0585 0.997401
0.969165 1.03102 0.942536 0.997311
0.993183 1.01539 0.980792 0.997289
0.973783 1.00192 0.974468 0.997387
0.976214 0.999118 0.97905 0.997985
1.00809 1 1.01017 0.997937
1.01919 1 1.02115 0.998079
1.05436 0.999817 1.05696 0.99772
0.715604 0.831496 0.914142 0.941455
0.892509 0.976381 0.941886 0.970499
1.00496 0.998493 1.00862 0.997878
1.00065 1.00132 1.00278 0.996567
0.989874 1.02769 0.965499 0.997617
0.998317 1.00959 0.992129 0.996677
1.00605 1.00432 1.00571 0.996033
0.887917 0.973634 0.942762 0.96733
0.879046 0.965131 0.928055 0.981413
0.960246 0.978732 0.984106 0.996958
0.679692 0.805468 0.896223 0.941559
0.561224 0.739303 0.84269 0.900837
1.00314 0.999128 1.0061 0.997924
0.708891 0.83229 0.906384 0.939707
0.59741 0.744778 0.882573 0.908856
0.985981 1.00666 0.981665 0.99775
1.00905 1.00211 1.00969 0.997262
1.01222 1.00388 1.01101 0.997336
0.94073 0.961671 0.980616 0.997561
0.869013 0.961115 0.938038 0.963897
0.836821 0.919848 0.927097 0.981277
0.664206 0.793717 0.891624 0.938545
0.638697 0.822166 0.857001 0.906471
1.00531 0.999372 1.00741 0.998535
0.641403 0.776677 0.905491 0.912025
0.70799 0.853705 0.901747 0.919674
0.983906 0.99058 0.994621 0.998635
1.01566 1.00246 1.01464 0.998549
0.952512 0.95481 1.00073 0.996863
0.854371 0.911715 0.95345 0.982856
0.8097 0.902984 0.932346 0.961761
0.676144 0.788668 0.912336 0.939703
0.700829 0.880188 0.873222 0.911825
1.00229 0.998199 1.00545 0.99865
1.0104 1 1.01163 0.998787
1.01063 0.998986 1.01259 0.999074
0.998548 1 1 0.998548
0.998181 1 1.00006 0.998117
1.00587 1 1.00786 0.998029
1.00697 1 1.00898 0.998006
1.00748 0.999448 1.00966 0.998391
0.998728 1 1.00063 0.998104
1.00622 1 1.00805 0.998187
1.00261 1 1.0047 0.997923
1.02124 0.998669 1.02408 0.99856
1.03999 0.996896 1.04417 0.999094
1.01361 1 1.0154 0.99824
1.00116 1 1.00328 0.997881
0.998531 1 1.00039 0.998138
1.00096 1 1.00267 0.998301
1.00087 1 1.00286 0.99802
1.00065 1 1.00233 0.998323
1.00289 1 1.00437 0.998529
1.00541 1 1.00714 0.998283
1.00848 1 1.01023 0.998264
1.00421 0.998575 1.00708 0.998572
0.999558 1 1.00133 0.998228
1.00014 1.00172 1.00093 0.997492
1.00718 1 1.00921 0.997991
1.00767 1 1.00956 0.99813
1.00834 1 1.01015 0.998211
1.00277 1 1.0044 0.998379
0.999679 1 1.00101 0.998672
1.00031 1 1.00191 0.998407
0.999525 1 1.00081 0.998713
0.999389 1 1 0.999389
0.998975 1 1.00037 0.998608
0.999425 1 1 0.999425
0.999985 1 1 0.999985
0.999449 1 1 0.999449
0.999994 1 1 0.999994
1 1 1 1
0.999999 1 1 0.999999
1 1 1 1
1 1 1 1
0.99922 1 1 0.99922
0.999859 1 1 0.999859
0.99923 1 1 0.99923
1 1 1 1
0.999894 1 1 0.999894
0.999869 1 1 0.999869
1 1 1 1
1 1 1 1
1 1 1 1
1 1 1 1
1 1 1 1
0.69966 0.823537 0.909078 0.934551
0.603646 0.756697 0.87683 0.909799
0.898509 0.970912 0.939497 0.985024
0.982761 1.0206 0.966957 0.995827
1.0543 1.0935 0.966773 0.997283
0.903358 0.957984 0.955037 0.987373
0.990374 1.03317 0.962139 0.996302
0.90298 0.986776 0.945673 0.96765
0.666289 0.808623 0.880833 0.935455
0.55067 0.721962 0.842331 0.905511
0.926168 0.994565 0.940003 0.990666
0.880014 0.96226 0.944796 0.967964
0.660775 0.798839 0.879977 0.939991
0.63259 0.81152 0.858575 0.907915
1.00084 1 1.00249 0.998355
0.998863 1 1 0.998863
0.999282 1 1 0.999282
0.99876 1 1 0.99876
0.998949 1 1.00028 0.998665
0.999355 1 1.00113 0.998224
0.998523 1 1.00003 0.998492
0.998542 1 1.00027 0.998277
0.998645 1 1.00001 0.998636
0.998773 1 1 0.998773
0.99154 1.05899 0.938644 0.997508
0.992115 1.04188 0.954859 0.997251
1.0062 1.02082 0.988647 0.996992
0.981562 1.00177 0.982287 0.997493
1.04884 1.00359 1.04776 0.997446
1.04144 1.00141 1.04257 0.997516
1.00747 1 1.00914 0.998351
1.00323 0.999511 1.00528 0.998449
0.968839 1.03163 0.941562 0.997424
1.01002 1 1.01216 0.997884
1.01885 1 1.02086 0.998036
0.986025 1.01265 0.976417 0.997228
0.97198 1.00183 0.972644 0.997494
0.976835 1.00017 0.978692 0.997933
1.04741 0.999711 1.05018 0.997657
0.961313 1.0029 0.960915 0.997522
0.962965 0.997648 0.966929 0.998248
1.01234 0.99748 1.01676 0.998168
1.01014 1 1.01236 0.997804
1.01668 1 1.01894 0.997782
1.0294 1 1.03162 0.997844
0.670346 0.791211 0.917201 0.923723
0.716866 0.829836 0.917044 0.94201
0.881433 0.974332 0.937575 0.964886
1.00236 0.998486 1.00596 0.997926
1.00884 1.00238 1.00921 0.997266
0.987488 1.00793 0.981937 0.997738
1.01047 1.00243 1.01056 0.997478
0.711767 0.82756 0.91221 0.942852
0.865791 0.957663 0.937093 0.964757
0.83504 0.916555 0.930833 0.978762
0.94063 0.958465 0.983571 0.997785
0.662004 0.79962 0.886773 0.933607
0.592625 0.741076 0.878141 0.910653
0.641166 0.822004 0.855751 0.911485
1.00504 0.999088 1.00746 0.998502
0.643712 0.776725 0.904491 0.916263
0.722753 0.868452 0.905288 0.9193
0.982598 0.988172 0.995613 0.99874
1.01549 1.00165 1.01534 0.9985
0.949694 0.952964 0.999014 0.997552
0.843791 0.916719 0.939024 0.980216
0.842486 0.919494 0.948208 0.966296
0.685974 0.801569 0.915767 0.934505
0.694098 0.872657 0.868687 0.915617
1.00777 0.997646 1.01073 0.999431
0.74678 0.875685 0.919371 0.927585
0.722016 0.873606 0.895066 0.923371
0.977539 0.960589 1.01794 0.999715
0.88841 0.914621 0.983073 0.988067
0.839381 0.893443 0.974169 0.964402
0.762544 0.871345 0.939683 0.931308
0.743249 0.920646 0.880542 0.916836
1.0088 1 1.01007 0.998736
1.01277 0.998526 1.01522 0.999059
1.02717 0.990681 1.0375 0.999354
0.998927 1 1.00083 0.998101
1.00259 1 1.00468 0.997926
1.00421 1 1.00609 0.998135
1.01989 0.99798 1.02336 0.998624
1.00181 1 1.00394 0.997882
1.01292 0.999918 1.0148 0.99823
1.04476 0.997474 1.04827 0.999173
1.04274 0.990226 1.05361 0.999446
1.04345 0.998744 1.04574 0.999068
1.00781 1 1.00969 0.998139
1.00101 1 1.003 0.998008
1.00097 1 1.00267 0.998305
1.00076 1 1.00212 0.998644
1.0078 1 1.00953 0.998286
1.00376 1 1.00549 0.998281
1.00652 0.999154 1.00878 0.998602
1.00318 0.999367 1.00547 0.998355
1.01376 0.997292 1.01757 0.998962
0.996719 1.00105 0.997278 0.998393
1.00009 1.00059 1.00127 0.998233
0.998613 1.00017 1.00069 0.997749
1.00472 1.00675 1.00153 0.996463
1.00432 1.0012 1.00531 0.997821
0.999451 1.0009 1.00073 0.99782
1.00728 1 1.00931 0.99799
1.01402 1 1.01604 0.998013
1.00556 1 1.00744 0.998132
1.00756 1 1.00937 0.99821
1.0006 1 1.00207 0.99853
1.00301 1 1.00464 0.998379
0.999333 1 1.00067 0.998669
0.99955 1 1.00021 0.999343
0.999211 1 1.00049 0.998718
0.999392 1 1 0.99939
0.999965 1 1 0.999965
0.999428 1 1 0.999428
0.999979 1 1 0.999979
1 1 1 1
0.999992 1 1 0.999992
1 1 1 1
1 1 1 1
0.998915 1 1 0.998915
0.999795 1 1 0.999795
0.999134 1 1 0.999134
1 1 1 1
0.999864 1 1 0.999864
0.999232 1 1 0.999232
1 1 1 1
1 1 1 1
0.999894 1 1 0.999894
1 1 1 1
1 1 1 1
1 1 1 1
0.629565 0.770349 0.893077 0.915091
0.706937 0.830192 0.907601 0.938226
0.716319 0.86693 0.899436 0.918654
0.600544 0.755772 0.874803 0.908331
0.902214 0.965302 0.949208 0.984656
0.991026 1.03313 0.962585 0.996529
0.904047 0.985401 0.94783 0.967937
0.682971 0.811805 0.894113 0.940931
0.561802 0.743718 0.839442 0.89988
0.929347 0.989129 0.949391 0.989646
0.866201 0.958115 0.940116 0.961656
0.673373 0.805364 0.891508 0.937862
0.623671 0.80534 0.856172 0.904513
0.891059 0.965525 0.9358 0.986188
0.816915 0.900028 0.944639 0.960848
0.7123 0.837289 0.913411 0.931368
0.695621 0.875481 0.874038 0.909066
1.00318 1 1.00522 0.997974
1.00002 1 1.00162 0.998409
0.998905 1 1 0.998905
0.998762 1 1 0.998762
0.998554 1 1.00074 0.997813
0.998647 1 1.00036 0.998282
0.99847 1 1 0.99847
0.998253 1 1 0.998253
0.998455 1 1.00014 0.998318
0.998587 1 1 0.998587
0.969528 1.03279 0.941063 0.997535
0.980926 1.01029 0.97369 0.997172
0.968074 1.00129 0.969154 0.9976
0.978145 1.00143 0.978824 0.997884
1.03892 1 1.04143 0.997591
1.01836 1 1.02041 0.997995
1.01125 1 1.01345 0.997831
1.00969 1 1.01197 0.997748
0.960898 1.00315 0.9602 0.997588
1.01452 1 1.0168 0.99775
1.02945 1 1.0317 0.99782
0.96237 0.998565 0.965441 0.998251
1.00678 0.999436 1.00924 0.998124
0.945139 0.974989 0.971468 0.997855
0.965358 0.972522 0.993393 0.999235
1.04416 0.997773 1.04819 0.998377
1.00592 1 1.0081 0.997833
1.0266 1 1.02865 0.998005
0.760382 0.88715 0.919282 0.932365
0.66698 0.789629 0.915743 0.922393
0.708767 0.826367 0.915304 0.937055
1.00418 0.998897 1.00683 0.998472
1.0157 1.00048 1.01679 0.998449
0.978004 0.985545 0.993491 0.998849
0.640346 0.774234 0.902194 0.916732
0.821006 0.904749 0.943956 0.961317
0.848908 0.913772 0.946255 0.981781
0.938905 0.946906 0.993275 0.998263
0.697308 0.814848 0.910245 0.940133
0.731447 0.875844 0.908598 0.919147
0.695441 0.872127 0.870517 0.916017
1.0061 0.997788 1.00896 0.999376
0.746417 0.876505 0.916215 0.929458
0.720486 0.87137 0.895252 0.923587
0.979197 0.96468 1.01554 0.99952
0.902088 0.927274 0.984711 0.987943
0.809423 0.887822 0.950255 0.959422
0.739419 0.9177 0.878873 0.916778
0.780066 0.877206 0.952268 0.933836
0.997974 0.968666 1.03055 0.999711
0.73405 0.865544 0.90765 0.934368
0.758304 0.907019 0.902039 0.926834
0.69325 0.873754 0.872551 0.909306
0.941834 0.932321 1.01339 0.996853
0.889736 0.921002 1.00011 0.965944
0.835336 0.930207 0.958105 0.937278
1.01535 0.997997 1.01836 0.999043
1.02821 0.993134 1.03607 0.99927
1.03377 0.982065 1.0531 0.999566
1.00212 1 1.00425 0.997882
1.01089 0.999739 1.01296 0.998219
1.0493 0.997318 1.05291 0.999251
1.00814 1 1.01001 0.998145
1.04349 0.998592 1.04592 0.999079
1.04759 0.990283 1.05849 0.999421
1.03765 0.985286 1.05369 0.999489
1.02793 0.997332 1.03165 0.999058
1.00682 1 1.00852 0.998312
1.00315 1 1.00488 0.99828
1.00918 0.999645 1.01092 0.998633
1.01318 0.998059 1.01624 0.998933
1.00328 0.999629 1.0053 0.998364
1.00318 0.999496 1.00486 0.998827
0.997161 0.999916 0.998532 0.998711
1.00395 1.00002 1.00671 0.997236
1.00049 1.00119 1.00105 0.998247
0.999847 1.00166 1.00055 0.997635
1.00111 1.00297 1.00204 0.996112
1.01695 1.01977 1.00129 0.995948
1.00549 1.00534 1.00276 0.997396
1.00258 1.00468 1.00138 0.996529
1.01223 1 1.01451 0.997755
1.00559 1.00195 1.00582 0.997838
0.998784 1.00013 1.00052 0.998145
1.00764 1 1.00967 0.99799
1.01295 1 1.01493 0.998046
1.00603 1 1.00769 0.998347
1.00734 1 1.00914 0.99821
1.0009 1 1.00237 0.99853
0.999654 1 1.00041 0.99924
0.999373 1 1.00071 0.998665
0.99955 1 1.00021 0.999339
0.999949 1 1 0.999949
0.999514 1 1.00012 0.999391
0.99996 1 1 0.99996
1 1 1 1
0.999974 1 1 0.999974
1 1 1 1
1 1 1 1
0.998612 1 1 0.998612
0.999551 1 1 0.999551
0.998913 1 1 0.998913
1 1 1 1
0.999735 1 1 0.999735
0.999049 1 1 0.999049
1 1 1 1
1 1 1 1
0.99987 1 1 0.99987
1 1 1 1
1 1 1 1
1 1 1 1
0.751007 0.888456 0.91111 0.927763
0.635849 0.771368 0.896598 0.919379
0.697593 0.823985 0.903154 0.937392
0.998143 1 1 0.998143
0.726149 0.870266 0.900361 0.926739
0.715578 0.86663 0.898989 0.918478
0.611854 0.769331 0.871493 0.91258
0.939221 0.993074 0.956847 0.988425
0.85971 0.946235 0.939366 0.967204
0.676498 0.820719 0.883789 0.932661
0.614039 0.787336 0.859388 0.907499
0.888653 0.961168 0.94067 0.982868
0.837339 0.912746 0.949866 0.965804
0.704029 0.820376 0.920623 0.932171
0.694429 0.873121 0.873706 0.910307
0.833121 0.908501 0.936721 0.978978
0.816307 0.882706 0.960872 0.962436
0.791193 0.884526 0.956957 0.934716
0.743299 0.918228 0.882947 0.916808
1.00146 1 1.00366 0.997807
1.00416 1 1.00624 0.997934
0.999529 1 1.00107 0.998464
0.998259 1 1.00029 0.997967
0.998755 1 1.00086 0.997892
0.998417 1 1.00008 0.99834
0.998285 1 1.00003 0.998255
0.998445 1 1.00009 0.998359
0.960841 1.0038 0.959469 0.997636
0.963049 1.00097 0.963791 0.998263
1.00934 1 1.01168 0.997691
1.00074 1.00107 1.00159 0.99808
1.03046 1 1.03274 0.997796
1.01426 1 1.01658 0.997719
1.00766 1 1.00985 0.997833
0.946466 0.973211 0.974464 0.998004
1.02391 1 1.02595 0.998012
1.03301 0.998885 1.03579 0.998422
0.966393 0.976567 0.990292 0.999283
1.00817 1 1.01012 0.998066
0.931954 0.948074 0.985512 0.997448
0.997681 0.974026 1.02482 0.999476
1.06207 0.996617 1.06724 0.998536
1.0344 0.998552 1.03776 0.998211
0.739397 0.86534 0.910726 0.938217
0.760068 0.887333 0.919239 0.931832
0.664898 0.787292 0.916952 0.921027
1.00343 0.998004 1.00612 0.999322
0.982286 0.968186 1.01525 0.999327
0.749232 0.880352 0.913879 0.931261
0.831006 0.881346 0.97661 0.965465
0.890859 0.925866 0.977719 0.984117
0.771872 0.869668 0.952303 0.932002
0.721303 0.872189 0.895267 0.92375
0.738064 0.916926 0.87806 0.916719
1.00426 0.978044 1.02715 0.999669
0.735524 0.867316 0.907624 0.934359
0.760516 0.90549 0.904004 0.929083
0.955266 0.941416 1.01565 0.999078
0.692291 0.871592 0.872409 0.910448
0.857697 0.899619 0.990414 0.962629
0.834716 0.927582 0.960563 0.936828
0.9954 0.964632 1.03221 0.999693
0.768097 0.896801 0.912997 0.938103
0.724657 0.866739 0.901684 0.927234
0.630003 0.809752 0.856767 0.908087
0.787976 0.882614 0.955785 0.934076
0.934622 0.935795 1.0062 0.992591
0.896165 0.91992 1.01706 0.957837
1.02739 0.996021 1.03234 0.999188
1.03233 0.979311 1.05463 0.999534
1.01947 0.963619 1.05841 0.999582
1.00968 1 1.01155 0.998151
1.04691 0.998018 1.04995 0.999091
1.05571 0.991237 1.06569 0.999396
1.02379 0.997743 1.02708 0.999045
1.03582 0.987502 1.04947 0.999488
1.00733 0.985171 1.02327 0.999235
1.01312 0.998871 1.01538 0.998903
1.00335 0.999646 1.00534 0.998374
1.00639 0.999605 1.008 0.998804
1.01343 0.998155 1.01727 0.998068
0.997982 0.998954 1 0.999028
1.0004 1.00014 1.0028 0.997462
1.00592 1.00188 1.00851 0.995556
1.00563 1.00771 1.00267 0.995278
1.00109 1.00325 1.00033 0.997514
1.0014 1.00368 1.00185 0.995892
1.01927 1.02281 1.00053 0.996011
1.01407 1.01481 1.00261 0.996669
1.0155 1.01824 1.00125 0.996059
1.00883 1.00167 1.00962 0.99755
1.00816 1.00746 1.00335 0.997358
0.999795 1.00193 1.00128 0.996598
1.01276 1 1.01466 0.998125
1.01141 1 1.01366 0.997785
1.00689 1.00269 1.00635 0.997854
1.01175 1 1.0137 0.998078
1.00598 1 1.00764 0.998348
1.00058 1 1.00152 0.999058
1.00118 1 1.00265 0.99853
0.999807 1 1.00057 0.999235
0.999932 1 1 0.999932
0.999419 1 1.00008 0.999336
0.999945 1 1 0.999945
1 1 1 1
0.999955 1 1 0.999955
1 1 1 1
1 1 1 1
0.998522 1 1 0.998522
0.999353 1 1 0.999353
0.998669 1 1 0.998669
0.999998 1 1 0.999998
0.999529 1 1 0.999529
0.99891 1 1 0.99891
1 1 1 1
1 1 1 1
0.999674 1 1 0.999674
1 1 1 1
1 1 1 1
1 1 1 1
0.741157 0.869429 0.910058 0.936715
0.752514 0.88713 0.914282 0.927785
0.636935 0.770223 0.89934 0.919506
0.998225 1 1.00004 0.998184
1.00031 1 1.00223 0.998085
0.998123 1 1 0.998123
0.76045 0.909647 0.902381 0.926421
0.723607 0.870484 0.896788 0.926942
0.713513 0.866304 0.896873 0.918334
0.895556 0.969021 0.938277 0.984982
0.804558 0.897909 0.932619 0.960772
0.705968 0.809107 0.928618 0.939598
0.700137 0.879994 0.876212 0.908017
0.837182 0.914807 0.93191 0.98201
0.833367 0.892262 0.970553 0.962332
0.777793 0.871619 0.953914 0.935466
0.739979 0.917348 0.880001 0.916647
0.851322 0.908626 0.956666 0.979373
0.863395 0.904017 0.990948 0.963789
0.835533 0.927216 0.961003 0.937687
0.705269 0.883361 0.875431 0.912
0.998912 1 1.00091 0.998003
1.0017 1 1.00395 0.997763
1.00369 1 1.00581 0.997893
0.998123 1 1.00017 0.997952
0.998552 1 1.00058 0.997973
0.998256 1 1 0.998256
0.943154 0.966833 0.977311 0.998156
0.965941 0.976664 0.989706 0.999308
1.00832 1 1.01051 0.997834
1.02495 0.999964 1.02656 0.998466
1.02234 1 1.02437 0.998019
1.00931 0.999838 1.01141 0.998083
1.02605 0.995091 1.03292 0.998249
0.937908 0.946984 0.992851 0.997548
1.05681 0.994514 1.06405 0.998678
1.00095 0.967462 1.03533 0.999299
1.01598 0.993037 1.02472 0.998418
0.964263 0.948032 1.02006 0.997123
1.01309 0.969584 1.04569 0.999213
1.03343 0.973225 1.06314 0.998792
0.783696 0.905856 0.920145 0.940226
0.743348 0.867304 0.913114 0.938633
0.759104 0.887489 0.918431 0.931305
1.01099 0.987078 1.02461 0.999627
0.944414 0.939619 1.00772 0.997398
0.736027 0.867669 0.907883 0.93435
0.855107 0.886816 0.997283 0.96687
0.830333 0.929488 0.957621 0.932856
0.761866 0.905096 0.903822 0.931324
0.700158 0.879043 0.876906 0.908307
0.990493 0.960445 1.03154 0.999754
0.767303 0.894242 0.913822 0.938966
0.727248 0.872285 0.898942 0.927454
0.930102 0.931925 1.00994 0.98822
0.620997 0.802172 0.855533 0.904868
0.776041 0.870822 0.953656 0.934466
0.897714 0.922002 1.00944 0.964555
1.00688 0.952105 1.05936 0.998275
0.742003 0.867528 0.912815 0.937
0.727365 0.874452 0.904861 0.919252
0.543234 0.702216 0.848387 0.911847
0.700357 0.826658 0.909882 0.931127
0.868946 0.903378 0.998792 0.963049
0.904143 0.922462 0.99528 0.984789
1.02809 0.977679 1.05209 0.999501
1.02722 0.974834 1.05418 0.999582
1.00999 0.976303 1.03505 0.999474
1.01739 0.998234 1.02018 0.999032
1.03184 0.989667 1.04315 0.999487
1.01087 0.981132 1.03101 0.999319
1.00705 0.995608 1.01274 0.998764
1.00985 0.99991 1.01117 0.998778
1.01063 0.999144 1.01373 0.9978
1.02332 1.00088 1.02654 0.995988
0.996567 0.999907 0.998965 0.997692
1.0071 1.00172 1.0098 0.995616
1.0066 1.0027 1.00924 0.994695
1.00943 1.01267 1.00191 0.9949
1.01153 1.01485 1.00108 0.995656
1.00561 1.00751 1.0029 0.99522
1.00148 1.00425 1.00157 0.995673
1.01574 1.01835 1.0011 0.996344
1.02066 1.02417 1.00048 0.996104
1.0076 1.00594 1.00464 0.997031
1.01628 1.01681 1.00274 0.996753
1.01535 1.01806 1.00117 0.99617
1.01333 1.00044 1.01511 0.997808
1.00995 1.00299 1.00941 0.997542
1.01099 1.00984 1.00383 0.997318
1.00507 1 1.00623 0.998844
1.01133 1 1.01323 0.998123
1.01094 1.00014 1.01302 0.997814
1.0057 1 1.00736 0.99835
1.00106 1 1.00201 0.999055
0.999887 1 1 0.999887
0.999798 1 1.00057 0.999229
0.999925 1 1 0.999925
1 1 1 1
0.999942 1 1 0.999942
1 1 1 1
1 1 1 1
0.998457 1 1 0.998457
0.99931 1 1 0.99931
0.998552 1 1 0.998552
0.999986 1 1 0.999986
0.999401 1 1 0.999401
0.998727 1 1 0.998727
1 1 1 1
0.999999 1 1 0.999999
0.999508 1 1 0.999508
1 1 1 1
1 1 1 1
1 1 1 1
0.765885 0.895387 0.912209 0.937689
0.745869 0.87056 0.91465 0.936717
0.75481 0.885902 0.91828 0.927848
1.01154 1 1.01361 0.997952
1.00406 1 1.00618 0.997892
0.998226 1 1 0.998226
1.00072 1 1.00266 0.998065
0.998136 1 1 0.998136
1.00188 1 1.0038 0.998092
0.998175 0.999966 1 0.998209
0.726694 0.87977 0.89462 0.923302
0.763812 0.908228 0.905552 0.928705
0.725984 0.868578 0.901505 0.92715
0.738312 0.917212 0.87829 0.9165
0.838899 0.917887 0.933226 0.97934
0.835252 0.888741 0.97696 0.961978
0.78648 0.886245 0.94549 0.938592
0.835669 0.909268 0.939417 0.978327
0.865216 0.898472 1.00466 0.958523
0.832934 0.925468 0.959969 0.937545
0.696448 0.875387 0.868768 0.915767
0.885371 0.922187 0.9782 0.981474
0.879987 0.908034 1.01124 0.95834
0.766565 0.874353 0.940865 0.931826
0.639119 0.817183 0.86176 0.907561
1.0307 0.99943 1.03297 0.998377
1.00046 0.999953 1.00248 0.998033
1.00257 1 1.00486 0.99772
0.997938 1 1 0.997938
0.948274 0.94991 1.0006 0.997677
1.00259 0.964465 1.04045 0.999116
1.00911 0.999548 1.01149 0.998101
1.01921 0.994416 1.02669 0.998287
1.045 0.988101 1.05883 0.998821
1.01726 0.997206 1.02172 0.99842
1.03819 0.973189 1.06809 0.998779
0.96423 0.947625 1.02219 0.995435
1.01273 0.961209 1.05426 0.999373
1.01198 0.978188 1.03568 0.998906
0.950308 0.924177 1.03384 0.994615
0.998447 0.948007 1.05397 0.999272
0.742388 0.865174 0.914303 0.938507
0.78061 0.902979 0.917651 0.942061
0.748443 0.869459 0.916694 0.939042
0.985447 0.954048 1.03311 0.999805
0.935884 0.935695 1.00721 0.993043
0.764874 0.891104 0.913285 0.939843
0.903102 0.927993 1.01507 0.958728
0.778788 0.880312 0.943447 0.937703
0.73225 0.874598 0.902541 0.927649
0.612762 0.784266 0.86069 0.907782
1.00719 0.953812 1.05753 0.998514
0.745864 0.8727 0.912116 0.937011
0.72032 0.867724 0.903206 0.919089
0.906159 0.922723 0.994457 0.987523
0.553073 0.722637 0.844412 0.906376
0.693228 0.810771 0.917817 0.931583
0.864906 0.900326 1.0017 0.959026
0.992045 0.956088 1.04151 0.996256
0.754503 0.892628 0.910758 0.928084
0.602794 0.753114 0.878935 0.91065
0.662181 0.79982 0.880033 0.940773
0.810769 0.867935 0.969192 0.963829
0.859423 0.89745 0.976948 0.980223
1.03569 0.980167 1.05708 0.99959
1.01293 0.973005 1.04158 0.999482
0.979648 0.97246 1.00815 0.999246
1.01507 0.976986 1.0396 0.999402
1.00406 0.986234 1.01922 0.998874
1.00513 1.0008 1.00672 0.997628
1.00724 1.00003 1.00971 0.997532
1.02225 1.00092 1.02558 0.99583
1.01086 1.0014 1.01462 0.99491
1.00858 1.00186 1.01108 0.995675
1.00726 1.00253 1.01017 0.994601
1.00211 1.00319 1.00448 0.994471
1.0373 1.04233 1 0.995173
1.02097 1.02507 1.00077 0.99524
1.00978 1.01281 1.00218 0.994842
1.01275 1.01673 1.00013 0.995962
1.00968 1.01327 1.00074 0.99572
1.00562 1.00724 1.00325 0.995161
1.01343 1.01594 1.00112 0.996412
1.01515 1.01781 1.00108 0.996314
1.02145 1.02491 1.00043 0.996197
1.0073 1.00182 1.00811 0.997377
1.00851 1.00676 1.00463 0.997126
1.01752 1.01782 1.00288 0.996839
1.01011 1 1.0116 0.998523
1.01242 1.0007 1.01392 0.997815
1.01089 1.00441 1.00894 0.997533
1.00012 1 1.00031 0.999809
1.00529 1 1.00646 0.998839
1.01013 1 1.01203 0.998122
1.00167 1 1.00262 0.999051
0.999875 1 1 0.999875
1 1 1 1
0.999917 1 1 0.999917
1 1 1 1
1 1 1 1
1.01006 1 1.01213 0.997959
1.00377 1 1.00553 0.998255
0.999136 1 1 0.999136
0.999052 1 1.0006 0.998452
0.99996 1 1 0.99996
0.999313 1 1 0.999313
0.998581 1 1 0.998581
1 1 1 1
0.99999 1 1 0.99999
0.999449 1 1 0.999449
1 1 1 1
1 1 1 1
1 1 1 1
0.736624 0.86734 0.908933 0.934382
0.76221 0.891646 0.910777 0.938576
0.746272 0.873944 0.911608 0.936712
1.01341 1 1.01548 0.997961
1.00663 1.00044 1.0083 0.997911
1.00048 1.00027 1.00243 0.99779
1.01358 1 1.0157 0.997917
1.00881 1.00118 1.00975 0.997895
1.00272 1 1.00468 0.998046
0.998231 1 1.00008 0.998149
1.00166 0.999997 1.00357 0.998096
0.99831 1 1.00007 0.998238
1.01836 1 1.0201 0.998288
0.709848 0.857516 0.90031 0.919456
0.725151 0.875736 0.896574 0.923568
0.764216 0.907933 0.904115 0.930976
0.696603 0.875481 0.868491 0.916165
0.831363 0.927346 0.960556 0.933311
0.831517 0.904254 0.941453 0.976747
0.870045 0.900248 1.00334 0.963233
0.874395 0.922494 0.969406 0.977775
0.88528 0.919452 0.999336 0.963473
0.783009 0.876854 0.955121 0.934935
0.641505 0.826303 0.856629 0.906291
0.891494 0.912553 0.996396 0.980457
0.871809 0.896099 1.00901 0.964206
0.684533 0.794249 0.917433 0.939428
0.585369 0.7521 0.853864 0.911518
1.02753 0.999698 1.02893 0.998937
1.03072 0.999127 1.03329 0.998388
1.00313 1 1.00508 0.998064
0.963753 0.946708 1.0245 0.993661
1.01385 0.955214 1.06189 0.99953
1.0183 0.999459 1.02046 0.998422
1.0455 0.972315 1.07659 0.998767
1.01564 0.982704 1.03464 0.998912
1.00482 0.956446 1.05134 0.999271
0.951301 0.928783 1.02983 0.994572
1.0115 0.98655 1.02596 0.999345
0.963312 0.948632 1.02 0.995561
0.7627 0.889061 0.920598 0.931863
0.749598 0.870457 0.917184 0.938911
0.776577 0.899714 0.914421 0.943918
1.00921 0.962797 1.04956 0.998709
0.901513 0.92118 0.995817 0.982761
0.752604 0.878384 0.914401 0.937012
0.868193 0.90333 1.0006 0.960531
0.693019 0.797541 0.925575 0.938816
0.710779 0.862156 0.897094 0.91899
0.562386 0.742918 0.840362 0.900797
0.989605 0.955204 1.0396 0.996551
0.75351 0.887254 0.915079 0.928075
0.601311 0.754301 0.876779 0.90921
0.872223 0.910533 0.975583 0.9819
0.673526 0.805864 0.8906 0.938448
0.810773 0.880275 0.958697 0.960726
0.942323 0.941453 1.00646 0.994503
0.631534 0.77137 0.894073 0.915715
0.678406 0.810023 0.889418 0.941644
0.815287 0.901214 0.941404 0.960963
0.835166 0.89913 0.945094 0.982823
1.01383 0.971547 1.04405 0.999492
0.983136 0.967803 1.01664 0.999218
0.992 0.988129 1.00552 0.998408
1.00125 0.97532 1.02763 0.998979
1.00353 0.999717 1.0061 0.997723
0.997797 1.00293 0.998324 0.996555
1.02151 1.00083 1.0251 0.995669
1.00975 1.00177 1.01312 0.994908
1.00002 1.00335 1.00137 0.995309
1.00739 1.00219 1.01074 0.994508
1.00228 1.0041 1.0037 0.99451
1.03329 1.0381 0.999943 0.995425
1.0639 1.06896 0.999342 0.99592
1.0489 1.05387 1.00002 0.995273
1.03754 1.04254 1 0.995205
1.02671 1.03132 1 0.995535
1.01983 1.02366 1.00107 0.995182
1.01087 1.0137 1.00244 0.994783
1.01978 1.02378 1 0.99609
1.01129 1.01529 1.00002 0.996034
1.00762 1.01157 1.00032 0.995783
1.00503 1.0061 1.00208 0.996858
1.01031 1.01258 1.0013 0.996465
1.01536 1.01803 1.0011 0.996285
1.01092 1.00024 1.01267 0.998036
1.00929 1.00303 1.00889 0.997377
1.00947 1.00745 1.0048 0.99722
1.00185 1 1.00216 0.999698
1.00957 1 1.01107 0.998518
1.01187 1.00095 1.01312 0.997823
0.999963 1 1 0.999963
1.00064 1 1.00084 0.999794
1.00558 1 1.00676 0.998834
0.999919 1 1.00006 0.999863
1 1 1 1
1 1 1 1
1.00781 1.00139 1.00864 0.997791
1.00918 1 1.01115 0.998057
1.01154 1 1.01364 0.997933
1.00058 1 1.00164 0.998944
1.00306 1 1.00482 0.998251
0.999922 1 1 0.999922
0.999252 1 1.00011 0.999141
0.999018 1 1.00057 0.998447
1 1 1 1
0.999969 1 1 0.999969
0.999315 1 1 0.999315
1 1 1 1
0.999995 1 1 0.999995
1 1 1 1
0.746128 0.878456 0.911429 0.931903
0.740532 0.870766 0.910156 0.934386
0.763141 0.887068 0.915735 0.93946
1.00049 1.00234 1.00044 0.997707
1.01115 1 1.01321 0.997969
1.00417 1 1.00625 0.997934
1.00797 1 1.01011 0.997882
1.0011 1.00084 1.00244 0.99782
1.00441 1 1.00635 0.998074
1.01377 1.00092 1.01556 0.997321
1.01807 0.999697 1.02033 0.998086
1.00182 1 1.00373 0.9981
0.998267 1 1 0.998267
1.01984 0.999874 1.02173 0.998271
1.03625 1.00147 1.03629 0.998489
0.618772 0.76414 0.887952 0.911945
0.723564 0.871387 0.903453 0.919096
0.725779 0.87468 0.898235 0.923773
0.643186 0.825774 0.854774 0.911222
0.776943 0.873004 0.953253 0.933609
0.882614 0.910898 1.01097 0.958431
0.875874 0.918407 0.974641 0.978502
0.891567 0.914174 0.992528 0.982612
0.574647 0.747219 0.848796 0.906044
0.861623 0.89829 0.999283 0.959869
0.693571 0.806981 0.920122 0.934076
0.890132 0.921316 0.981431 0.984432
0.839544 0.890723 0.975844 0.965874
0.661781 0.79775 0.883109 0.939363
0.992186 1.00093 0.991733 0.999526
1.0282 1.00024 1.02904 0.998944
1.0303 0.999738 1.03222 0.998396
0.954043 0.933228 1.02785 0.994604
1.0123 0.966019 1.04867 0.999273
1.0201 0.989463 1.03207 0.998919
1.00955 0.985328 1.02526 0.999344
0.959383 0.947613 1.01688 0.995612
0.984768 0.980017 1.00773 0.997139
0.66884 0.789513 0.921074 0.919747
0.758917 0.887425 0.915708 0.933911
0.752122 0.873903 0.91628 0.939283
0.990769 0.955176 1.04066 0.996736
0.865124 0.908538 0.968893 0.982787
0.750906 0.881779 0.917504 0.928149
0.825682 0.877841 0.978627 0.961124
0.679002 0.823599 0.883231 0.933427
0.615063 0.769563 0.875056 0.913354
0.940501 0.934735 1.01167 0.994559
0.637955 0.772231 0.898036 0.919919
0.668661 0.809104 0.882753 0.936186
0.830701 0.901902 0.94089 0.978919
0.838535 0.917288 0.94642 0.965899
0.935308 0.952375 0.984586 0.997454
0.698282 0.820517 0.910251 0.934936
0.882161 0.964987 0.944459 0.967929
0.833242 0.913776 0.931797 0.97861
0.986251 0.964296 1.02359 0.999196
0.982151 0.987967 0.995612 0.998494
0.994194 1.00053 0.996259 0.997398
1.00195 0.999024 1.00512 0.997818
0.999455 1.00296 0.999991 0.996518
1.0014 1.00623 0.998763 0.996434
1.009 1.00249 1.01164 0.994905
0.999833 1.00287 1.00167 0.995311
1.03278 1.0408 0.995907 0.996376
1.00249 1.00478 1.00319 0.994549
1.03173 1.03669 0.999781 0.995434
1.06276 1.07036 0.996314 0.996576
1.06122 1.06801 0.996957 0.996679
1.06527 1.06984 0.99989 0.995833
1.06499 1.0701 0.999256 0.99597
1.05195 1.0567 1 0.995504
1.04689 1.05179 1 0.995345
1.0364 1.04135 1 0.995238
1.03787 1.04223 1 0.995819
1.0276 1.03204 1.00014 0.995557
1.01855 1.02203 1.00148 0.995123
1.01601 1.01967 1 0.996411
1.01754 1.02153 1 0.996088
1.00954 1.01349 1 0.996106
1.00483 1.00171 1.00557 0.997558
1.0075 1.00832 1.00234 0.99685
1.00682 1.00888 1.00145 0.996519
1.00319 1 1.00373 0.999463
1.0095 1.00086 1.01062 0.998033
1.01062 1.00437 1.00887 0.997376
1 1 1 1
1.00245 1 1.00281 0.999646
1.00851 1 1.01001 0.998513
1 1 1 1
1.00109 1 1.00132 0.999773
1 1 1 1
1.00262 1.00319 1.00185 0.997585
1.00645 1.00078 1.00792 0.997762
1.01018 1 1.01231 0.997892
1.00485 1 1.0061 0.99875
1.0107 1 1.01267 0.998054
1.01552 1 1.01765 0.997908
0.999864 1 1 0.999864
1.0001 1 1.00116 0.998949
1.0038 1 1.00556 0.998246
1 1 1 1
0.999933 1 1 0.999933
0.999165 1 1.00002 0.999146
1 1 1 1
0.999977 1 1 0.999977
1 1 1 1
0.641181 0.776551 0.904436 0.91292
0.750129 0.882653 0.911898 0.931965
0.744665 0.874794 0.911008 0.9344
1.00376 1.00133 1.00476 0.997677
1.00966 1.00517 1.00721 0.997274
1.01384 1.00172 1.01464 0.997508
1.00784 1 1.01001 0.997848
1.00313 1.00274 1.00255 0.99785
1.00533 1 1.0071 0.998246
1.01743 0.999948 1.01951 0.998012
1.0146 1.0017 1.01546 0.997457
1.01882 1.00233 1.01899 0.997512
0.980177 1.00171 0.979512 0.998965
1.01877 0.999996 1.02056 0.998254
1.03112 1.00046 1.03224 0.998461
0.675218 0.808475 0.895317 0.932826
0.597649 0.74472 0.883379 0.90846
0.732385 0.879064 0.906618 0.918956
0.564847 0.742863 0.844487 0.900387
0.704932 0.817614 0.917549 0.939658
0.848657 0.8908 0.99089 0.961449
0.893421 0.91559 0.996022 0.979684
0.877096 0.912897 0.978628 0.981764
0.668723 0.795701 0.896432 0.937515
0.818784 0.882401 0.965207 0.961353
0.855774 0.916089 0.949743 0.983593
0.810573 0.91084 0.925434 0.961622
0.997504 1 0.998472 0.999031
0.992404 1.00048 0.992452 0.999474
1.02915 0.999771 1.03047 0.998949
0.951732 0.943003 1.01364 0.995674
1.00627 0.982741 1.02462 0.999344
0.986517 0.982497 1.00702 0.997094
0.97007 0.987568 0.986242 0.995985
0.718265 0.833696 0.91534 0.941227
0.66475 0.786669 0.91858 0.919918
0.761327 0.889738 0.914297 0.935884
0.943293 0.941153 1.00755 0.994764
0.833349 0.8987 0.946877 0.979306
0.639076 0.771925 0.899905 0.919985
0.804392 0.900552 0.929217 0.961262
0.685429 0.812946 0.895346 0.941694
0.937238 0.956237 0.984022 0.996046
0.708816 0.830337 0.909462 0.938631
0.868672 0.960059 0.940555 0.961997
0.833191 0.91433 0.928527 0.981403
0.947027 0.978048 0.970982 0.997219
0.895214 0.97708 0.947328 0.967156
0.888395 0.964464 0.935522 0.984615
0.972451 0.986704 0.986976 0.99856
0.988531 1.00047 0.990681 0.997366
0.98415 1.00904 0.978083 0.997184
1.00042 1.00294 1.00101 0.996484
1.00081 1.00618 0.998232 0.996425
1.02561 1.04711 0.982297 0.997122
0.999401 1.00224 1.00186 0.995314
1.03038 1.03965 0.994715 0.996352
1.04758 1.06998 0.981817 0.997192
1.03111 1.0362 0.999644 0.995442
1.06118 1.06973 0.995424 0.996566
1.05276 1.06888 0.987696 0.997189
1.05546 1.06647 0.992588 0.997072
1.06203 1.06924 0.996482 0.996756
1.06048 1.06503 0.999196 0.996528
1.06612 1.07051 1 0.995894
1.06548 1.07 0.999917 0.99586
1.06696 1.07214 0.999145 0.99602
1.05482 1.05937 1 0.995712
1.05361 1.05834 1 0.99553
1.04514 1.04995 1 0.995418
1.0363 1.04035 1 0.996102
1.03794 1.0423 1 0.995818
1.02854 1.03293 1.00017 0.995579
1.00346 1.00579 1.0005 0.997188
1.01709 1.02076 1 0.996411
1.01598 1.01997 1 0.996085
1.00253 1 1.00338 0.999154
1.00605 1.00289 1.00561 0.997555
1.01022 1.01038 1.003 0.996843
1 1 1 1
1.00346 1 1.00402 0.999438
1.00884 1.00126 1.00955 0.998029
0.999971 1 1 0.999971
1.00328 1 1.00365 0.999633
1 1 1 1
1.0016 1.00422 1 0.997392
1.00205 1.00156 1.00289 0.9976
1.00553 1.00003 1.00779 0.997728
1.00375 1 1.00603 0.997732
1.01019 1.00002 1.0123 0.997895
1.00846 1 1.00993 0.998543
1.00052 1 1.00075 0.999779
1.00377 1 1.00502 0.99875
1.01031 1 1.01228 0.998052
1 1 1 1
0.99988 1 1 0.99988
0.999686 1 1.00073 0.998954
1 1 1 1
0.999945 1 1 0.999945
1 1 1 1
0.70027 0.822718 0.907019 0.938423
0.643266 0.776371 0.906085 0.914433
0.751371 0.88459 0.911343 0.932032
1.00656 1.00043 1.0085 0.997647
1.01719 1.00101 1.01893 0.997291
1.00685 1.00416 1.00536 0.997337
1.00728 1.00884 1.00214 0.996326
1.01726 1.0028 1.01699 0.997469
1.01546 1 1.01755 0.997944
1.01271 1.00125 1.01388 0.997593
1.0196 1.00196 1.02003 0.997626
0.999906 1.00536 0.997307 0.997257
0.971977 1.00101 0.972491 0.998464
0.971207 1.00035 0.973131 0.997673
0.984094 1.00134 0.983768 0.99899
1.02678 1.00099 1.02737 0.998435
0.861163 0.950071 0.93881 0.965499
0.666827 0.801748 0.889779 0.934745
0.59199 0.740048 0.878866 0.91019
0.668225 0.804475 0.890677 0.932588
0.826344 0.890955 0.963451 0.962665
0.883319 0.910663 0.985275 0.98447
0.854483 0.913928 0.94865 0.985565
0.847189 0.922699 0.949432 0.967067
0.876449 0.956937 0.930168 0.984651
0.992333 1.00132 0.992795 0.998218
0.997466 0.999985 0.998473 0.999006
0.992109 1.00009 0.992589 0.999424
0.989778 0.986589 1.00615 0.997104
0.977301 0.9901 0.990578 0.996462
0.879208 0.966433 0.943028 0.964707
0.719967 0.832183 0.918467 0.941955
0.659318 0.781638 0.916713 0.920144
0.939988 0.962777 0.981684 0.994546
0.841163 0.925861 0.928145 0.978854
0.701625 0.825568 0.906217 0.937822
0.862682 0.948711 0.940129 0.967229
0.955127 0.979078 0.978161 0.997318
0.904926 0.986791 0.947825 0.967519
0.885815 0.961104 0.938795 0.981752
0.956718 1.00273 0.957327 0.996644
0.922729 0.990749 0.941359 0.989362
0.987089 1.00223 0.987493 0.997363
0.98021 1.00891 0.974345 0.997139
0.991075 1.04154 0.953939 0.997493
1.00027 1.00576 0.998123 0.996415
1.02823 1.04855 0.983484 0.997089
1.04221 1.07625 0.970805 0.997495
1.02779 1.03841 0.993416 0.996329
1.04769 1.07009 0.981847 0.997166
1.04011 1.06862 0.97583 0.997424
1.0587 1.06827 0.994465 0.996556
1.05238 1.06849 0.987722 0.997166
1.05067 1.07043 0.984229 0.997268
1.05401 1.06602 0.991579 0.997129
1.05521 1.06482 0.994069 0.996882
1.06243 1.07007 0.996012 0.996833
1.06053 1.06498 0.999301 0.99652
1.06119 1.06526 0.999883 0.996293
1.06334 1.06774 1 0.995871
1.06591 1.07032 1 0.995882
1.06559 1.07003 0.999968 0.995887
1.05156 1.05586 1 0.995934
1.05568 1.06023 1 0.99571
1.05552 1.06023 1 0.995557
1.01358 1.01673 1 0.996898
1.03481 1.03886 1 0.996104
1.03754 1.0419 1 0.995816
1.00043 1 1.00163 0.998804
1.00668 1.00876 1.00075 0.99719
1.01797 1.02164 1 0.996411
1 1 1 1
1.00204 1 1.00292 0.999128
1.00718 1.00442 1.00521 0.997552
1 1 1 1
1.00345 1 1.00404 0.999412
1 1 1 1
1.01592 1.01883 1.00069 0.996458
1.00283 1.0053 1.00016 0.997378
1.00166 1.00196 1.00226 0.997443
1.00222 1 1.00461 0.997615
1.00511 1.00009 1.00735 0.997689
1.00878 1.0003 1.01023 0.998258
1.01237 1 1.01451 0.997897
1.00924 1 1.01072 0.99854
1.00285 1 1.00319 0.999658
1 1 1 1
1.00029 1 1.0005 0.999794
1.00346 1 1.00472 0.998751
1 1 1 1
0.999894 1 1 0.999894
1 1 1 1
0.896376 0.975931 0.947634 0.969237
0.70897 0.83209 0.906912 0.93949
0.641938 0.775999 0.906925 0.912137
1.02023 1.00043 1.02278 0.997074
1.00424 1.0035 1.00335 0.997402
1.01433 1.00272 1.01425 0.997364
1.00792 1.00949 1.00202 0.996427
1.02663 1.03054 1.00016 0.996046
1.00207 1.0053 0.999814 0.996979
1.0221 1.00196 1.02242 0.997736
1.00119 1.00642 0.99773 0.997068
0.979316 1.00246 0.978429 0.998447
0.996384 1.0035 0.995578 0.997319
0.972819 1.00345 0.971767 0.997641
0.992856 1.00155 0.994114 0.997185
0.972124 1.00082 0.973496 0.997775
0.987727 1.00009 0.988611 0.999016
0.889978 0.968543 0.933302 0.984551
0.870806 0.960552 0.939428 0.965022
0.679343 0.802341 0.900133 0.94064
0.825419 0.913338 0.940403 0.961011
0.866831 0.916347 0.95879 0.986623
0.878672 0.947575 0.93778 0.988809
0.967674 1.00377 0.967127 0.996811
0.9898 1.00042 0.991236 0.998129
0.99692 0.999507 0.998428 0.998982
0.979325 0.991059 0.991212 0.996922
0.914431 0.973146 0.953832 0.985147
0.892422 0.973287 0.94488 0.970404
0.710161 0.82787 0.915558 0.936935
0.952969 0.974395 0.980535 0.997425
0.889802 0.9665 0.936083 0.983506
0.904638 0.985326 0.948751 0.967705
0.951568 1.00046 0.954238 0.996744
0.925545 0.98757 0.948151 0.988445
0.955378 1.02535 0.934626 0.996927
0.971048 1.02129 0.955155 0.995442
0.974345 1.00872 0.968749 0.997085
0.987741 1.03881 0.953227 0.997491
1.00807 1.075 0.940124 0.997462
1.03144 1.05063 0.984628 0.997056
1.04134 1.0757 0.970512 0.997472
1.04531 1.076 0.97404 0.997374
1.04835 1.07053 0.982084 0.997139
1.04121 1.06836 0.97713 0.997404
1.0552 1.0777 0.981842 0.997228
1.05236 1.06839 0.987819 0.997144
1.0492 1.06818 0.984923 0.997261
1.05472 1.07065 0.988095 0.996991
1.05282 1.06581 0.990593 0.997186
1.05496 1.06473 0.993878 0.996928
1.06023 1.06629 0.997758 0.996547
1.06069 1.06505 0.999387 0.996512
1.0616 1.06567 0.999896 0.996282
1.06325 1.06739 1 0.996123
1.05683 1.06115 1 0.995932
1.06358 1.06801 1 0.995854
1.06562 1.07004 1 0.995869
1.02802 1.03144 1 0.996691
1.05021 1.05449 1 0.995941
1.0566 1.06116 1 0.995707
0.999953 1.00116 1.00027 0.998522
1.01541 1.01856 1.00001 0.996897
1.03351 1.03755 1 0.996106
1 1 1 1
1.00019 1.00022 1.00119 0.998785
1.00983 1.01165 1.00101 0.997191
1 1 1 1
1.00169 1 1.00259 0.999104
1 1 1 1
1.03163 1.03568 1 0.99609
1.01753 1.02075 1.00035 0.996491
1.01354 1.01611 1.00066 0.996817
1.00401 1.00629 1.00038 0.997364
1.00196 1.00238 1.0022 0.997382
1.00687 1.00357 1.00542 0.997882
1.00395 1 1.00632 0.99765
1.00891 1.00022 1.01045 0.99826
1.00411 1 1.00461 0.999493
1.00923 1 1.01071 0.998539
1.00197 1 1.0023 0.999669
1 1 1 1
1 1 1 1
0.999933 1 1.00012 0.999809
1 1 1 1
0.90654 0.968959 0.949253 0.985597
0.884948 0.973075 0.94341 0.963987
0.709242 0.82511 0.911957 0.942558
1.04808 1.05223 1.00007 0.995988
1.01098 1.002 1.01173 0.997262
1.00898 1.01067 1.00181 0.996529
1.00258 1.00563 0.999969 0.99699
1.02508 1.02873 1.00042 0.996027
1.01123 1.0146 0.999711 0.99697
1.0018 1.00616 0.998782 0.99688
0.983544 1.00276 0.982378 0.998429
0.994362 1.004 0.993053 0.997332
0.966217 1.00246 0.966272 0.997489
1.01475 1.01847 0.99974 0.996608
0.989935 1.00741 0.985351 0.997261
0.991763 1.00216 0.992436 0.997163
0.974359 1.00134 0.97513 0.997876
0.960501 1.00596 0.957336 0.997361
0.881833 0.962872 0.93166 0.983015
0.867597 0.962033 0.934666 0.964875
0.876872 0.940666 0.94504 0.986395
0.97054 1.00451 0.968306 0.997809
0.989853 1.00017 0.991639 0.998029
0.97219 1.00844 0.969321 0.994565
0.902272 0.956752 0.955908 0.986557
0.880147 0.97173 0.938744 0.964855
0.951534 0.998246 0.956228 0.99684
0.933472 0.989703 0.955305 0.987312
0.958879 1.02717 0.936238 0.997092
0.976407 1.02182 0.959596 0.995788
0.990922 1.05092 0.945505 0.99726
1.05555 1.08989 0.971263 0.997147
0.983871 1.03543 0.952596 0.997488
1.01435 1.07657 0.944624 0.997443
1.03707 1.09113 0.9531 0.997225
1.03996 1.07473 0.970125 0.997449
1.04164 1.07377 0.972633 0.997371
1.05594 1.086 0.975142 0.99711
1.04198 1.06787 0.978308 0.997384
1.05281 1.0759 0.981241 0.997242
1.05835 1.07641 0.986238 0.99694
1.04762 1.06585 0.985605 0.997255
1.05506 1.07098 0.988112 0.996989
1.06001 1.07051 0.993487 0.996675
1.0546 1.06453 0.993675 0.996974
1.06065 1.06668 0.99775 0.996594
1.06546 1.06965 0.999816 0.996264
1.06202 1.06607 0.999927 0.996271
1.06306 1.06721 1 0.996115
1.05877 1.06301 1 0.996012
1.036 1.03954 1 0.996592
1.05676 1.06108 1 0.995933
1.06381 1.06826 1 0.995837
1.00455 1.00618 1 0.998386
1.02726 1.03067 1 0.996691
1.04904 1.05331 1 0.995947
1 1 1 1
1.00122 1.00262 1.0001 0.998507
1.01724 1.02041 1 0.996897
1 1 1 1
0.999841 1.00044 1.00064 0.998766
1 1 1 1
1.04697 1.05131 1 0.995877
1.03258 1.03664 1 0.996083
1.03138 1.03512 1 0.996389
1.01933 1.02279 1.0001 0.996523
1.0155 1.01819 1.00056 0.996798
1.01079 1.01074 1.00254 0.997515
1.00166 1.00239 1.00196 0.99732
1.00604 1.00194 1.00622 0.997886
1.00237 1 1.00309 0.999283
1.00915 1 1.01091 0.99826
1.00343 1 1.00392 0.999507
1 1 1 1
1.0013 1 1.00162 0.99968
1 1 1 1
1 1 1 1
0.966136 1.01057 0.959 0.996908
0.900269 0.967802 0.946759 0.982531
0.884505 0.968368 0.942045 0.96959
1.04053 1.04413 1.00001 0.996535
1.05823 1.06299 0.999315 0.996204
1.04627 1.0503 1.00009 0.996076
1.0035 1.00652 1 0.997
1.02322 1.02657 1.00073 0.996006
1.01393 1.01817 0.998872 0.996959
1.03791 1.04766 0.994126 0.99654
0.993764 1.00531 0.991141 0.997346
0.96259 1.00189 0.963341 0.997337
1.01618 1.02125 0.998299 0.996733
1.0255 1.04748 0.982457 0.996496
0.992335 1.02857 0.967268 0.997423
0.996876 1.01005 0.989725 0.997199
0.993034 1.0027 0.993203 0.997139
0.96301 1.00744 0.95811 0.997689
0.888022 0.9671 0.935614 0.981422
0.970723 1.00412 0.967858 0.998843
1.03509 1.06828 0.971153 0.997713
0.969731 1.00687 0.968226 0.994717
0.905105 0.965515 0.952543 0.984137
0.961791 1.02945 0.936853 0.997247
0.980809 1.02211 0.963301 0.996153
0.985249 1.05125 0.939622 0.997443
1.05272 1.08923 0.969219 0.997172
1.0506 1.10161 0.956406 0.997163
1.09329 1.12676 0.972912 0.997316
1.02067 1.0791 0.948297 0.997425
1.0434 1.09374 0.95663 0.997225
1.05805 1.09562 0.968593 0.997026
1.03804 1.07166 0.971182 0.997367
1.05587 1.08527 0.975729 0.997111
1.05806 1.08157 0.981299 0.996909
1.05047 1.07414 0.980653 0.997256
1.05915 1.07718 0.986287 0.996937
1.06101 1.07472 0.99052 0.996687
1.05543 1.07134 0.988126 0.996986
1.06074 1.07124 0.993505 0.996673
1.06829 1.07345 0.998853 0.996336
1.06105 1.06706 0.997722 0.99664
1.06506 1.06925 0.999801 0.996278
1.06286 1.06708 1 0.996046
1.06287 1.06703 1 0.996106
1.0586 1.06283 1 0.996019
1.03679 1.04038 1 0.996554
1.00923 1.01088 1 0.998364
1.03537 1.03891 1 0.996593
1.05667 1.06098 1 0.995934
1 1 1 1
1.00583 1.00746 1 0.998374
1.02619 1.0296 1 0.99669
1 1 1 1
1.0023 1.00381 1 0.998492
1 1 1 1
1.05699 1.06129 1 0.995956
1.04644 1.05076 1 0.995884
1.04521 1.04927 1 0.996127
1.03262 1.03669 1 0.996075
1.03195 1.03568 1 0.996392
1.01721 1.01965 1.00041 0.997195
1.01706 1.01988 1.00046 0.996779
1.00824 1.00799 1.00274 0.997517
1.00044 1 1.00145 0.998989
1.0058 1.00065 1.00728 0.99789
1.00281 1 1.00352 0.999302
1 1 1 1
1.00291 1 1.00339 0.99952
1 1 1 1
1 1 1 1
0.998511 1.0504 0.9527 0.997801
0.963318 1.0094 0.95833 0.995848
0.902479 0.969802 0.946376 0.983311
1.05249 1.05935 0.997068 0.996441
1.04111 1.04458 0.999924 0.996752
1.06968 1.07696 0.996875 0.996352
1.05824 1.06358 0.998795 0.996185
1.04445 1.04838 1.00008 0.996165
1.06115 1.0799 0.986251 0.996343
1.01654 1.02177 0.997929 0.996948
1.03715 1.04631 0.994749 0.996477
1.04829 1.08649 0.968085 0.996649
1.0141 1.02377 0.993677 0.996858
1.0267 1.04823 0.98298 0.996414
0.992447 1.03269 0.963473 0.997465
1.00084 1.01079 0.993 0.997134
0.965865 1.00867 0.9595 0.997977
1.08078 1.11763 0.969597 0.99735
1.04073 1.07 0.974846 0.997739
0.968548 1.00559 0.968132 0.994871
0.980488 1.0511 0.935045 0.997625
1.05009 1.08863 0.967312 0.997198
1.04498 1.0991 0.953438 0.997186
1.09853 1.13115 0.973782 0.99731
1.07614 1.11061 0.971684 0.997197
1.04948 1.0959 0.960303 0.997225
1.05899 1.09473 0.970226 0.997036
1.05841 1.08572 0.97782 0.99695
1.05584 1.08451 0.976379 0.997111
1.05853 1.08166 0.981671 0.996889
1.0606 1.07669 0.988343 0.996678
1.05996 1.07795 0.986343 0.996933
1.06136 1.07508 0.990524 0.996682
1.07014 1.07776 0.996528 0.996386
1.06144 1.07193 0.993523 0.99667
1.06804 1.07321 0.998842 0.996338
1.06819 1.07241 1 0.996064
1.0647 1.06889 0.999789 0.996291
1.06244 1.06665 1 0.996053
1.03744 1.04107 1 0.996507
1.05838 1.06261 1 0.996026
1.03742 1.04101 1 0.996554
1.01056 1.0119 1 0.998676
0.999448 1 1 0.999448
1.00974 1.01127 1 0.998494
1.03476 1.0383 1 0.996593
1 1 1 1
1.00745 1.00911 1 0.998362
1 1 1 1
1.07268 1.07963 0.997089 0.996465
1.06377 1.06803 0.999834 0.996182
1.05771 1.06204 0.999946 0.995976
1.05094 1.05511 1 0.996047
1.04669 1.05101 1 0.995891
1.04534 1.04942 1 0.99612
1.02093 1.02409 1 0.996913
1.033 1.03674 1 0.996395
1.01473 1.01699 1.00059 0.997195
1.00026 1.00148 1.00012 0.998652
1.00541 1.00507 1.00282 0.997519
1.00089 1.00002 1.00186 0.999008
1 1 1 1
1.00293 1 1.00362 0.99932
1 1 1 1
1 1 1 1
1.06815 1.1119 0.96346 0.997092
1.00683 1.06028 0.951666 0.997819
0.960501 1.00962 0.956315 0.994809
1.06398 1.07793 0.990635 0.996393
1.04817 1.05531 0.996735 0.996486
1.04159 1.04491 0.999858 0.996966
1.0682 1.07496 0.997333 0.996366
1.05838 1.06416 0.998397 0.996166
1.06714 1.09961 0.973753 0.996628
1.05682 1.07605 0.985779 0.996301
1.03672 1.04515 0.995506 0.996414
1.04453 1.0825 0.968163 0.996648
1.03199 1.05195 0.984639 0.996332
0.996219 1.0417 0.958716 0.997516
1.0731 1.10244 0.976014 0.997303
1.08243 1.11937 0.969527 0.997388
1.04554 1.07194 0.977559 0.997765
1.04004 1.09723 0.950533 0.997206
1.10408 1.13569 0.9748 0.997305
1.07706 1.11236 0.970989 0.997201
1.06511 1.08683 0.982892 0.997068
1.05982 1.09379 0.971813 0.997046
1.05901 1.0856 0.978507 0.996935
1.06163 1.07798 0.988076 0.996724
1.05904 1.08181 0.982024 0.996869
1.06116 1.07723 0.988366 0.996677
1.07039 1.08059 0.994128 0.996413
1.06175 1.07547 0.99053 0.996678
1.06969 1.07734 0.996509 0.996385
1.07156 1.07579 1 0.996073
1.0678 1.07298 0.998828 0.996339
1.06814 1.07236 1 0.996069
1.0386 1.04232 1 0.996435
1.062 1.0662 1 0.99606
1.03877 1.04241 1 0.996508
1.00957 1.01089 1 0.998694
1.03816 1.04174 1 0.996554
1.0103 1.01165 1 0.998669
0.999478 1 1 0.999478
0.999737 1 1 0.999737
1.01028 1.01166 1 0.998637
1 1 1 1
1.06447 1.0769 0.991941 0.996481
1.06717 1.07194 0.99926 0.99628
1.07073 1.07821 0.996454 0.996595
1.05992 1.06412 1 0.996061
1.06594 1.07018 0.999868 0.996172
1.05824 1.06269 0.999812 0.995996
1.05135 1.05553 1 0.996037
1.03062 1.03402 1 0.996715
1.04572 1.0498 1 0.996113
1.02258 1.02574 1 0.996914
1.00523 1.0068 1 0.998441
1.01265 1.01497 1.00052 0.997196
1.00037 1.00115 1.00054 0.998673
1 1 1 1
1.00142 1 1.00239 0.999028
1 1 1 1
1 1 1 1
1.06603 1.09791 0.973899 0.996979
1.06079 1.10368 0.963939 0.997092
1.01317 1.06676 0.951834 0.997831
1.06428 1.08646 0.982969 0.996558
1.06127 1.07535 0.990489 0.996389
1.04378 1.05121 0.996386 0.996533
1.06642 1.07284 0.997628 0.99638
1.06588 1.09769 0.974331 0.996603
1.05187 1.07149 0.985372 0.99626
1.03546 1.07251 0.968701 0.996648
1.06859 1.08919 0.983907 0.997133
1.07177 1.10071 0.976382 0.997261
1.08369 1.12063 0.969533 0.997426
1.06398 1.08052 0.987677 0.996973
1.07777 1.11401 0.970184 0.997205
1.06482 1.08666 0.982802 0.997053
1.06341 1.07835 0.989269 0.996836
1.05964 1.08544 0.979252 0.996919
1.06178 1.07815 0.988048 0.996727
1.07044 1.08097 0.993795 0.99644
1.06168 1.07773 0.988391 0.996676
1.06995 1.08012 0.994151 0.996413
1.07259 1.07709 0.999724 0.996091
1.06915 1.07681 0.996492 0.996384
1.07236 1.07661 0.999976 0.996076
1.03796 1.04175 1 0.996368
1.06804 1.07225 1 0.996074
1.03988 1.0436 1 0.996438
1.00782 1.00916 1 0.998668
1.04014 1.04378 1 0.996509
1.00907 1.0104 1 0.99868
0.99948 1 1 0.99948
1.00999 1.01134 1 0.998666
0.999492 1 1 0.999492
1 1 1 1
1.06243 1.07718 0.989872 0.99639
1.0683 1.07558 0.996933 0.996287
1.06625 1.07827 0.992349 0.996479
1.06741 1.07156 1 0.996129
1.06803 1.07337 0.998684 0.99633
1.06896 1.07692 0.995864 0.996725
1.04075 1.04431 1 0.99659
1.06 1.0642 1 0.99605
1.06826 1.07238 1 0.996161
1.05179 1.05598 1 0.996026
1.03138 1.03478 1 0.996715
1.01041 1.01205 1 0.99838
1.02315 1.02632 1 0.996915
1.00338 1.00493 1 0.998457
1 1 1 1
1.00022 1.0006 1.00093 0.998693
1 1 1 1
1 1 1 1
1.06451 1.08566 0.98361 0.996863
1.06658 1.09898 0.97348 0.996957
1.05663 1.09923 0.964044 0.997093
1.064 1.08614 0.982987 0.996575
1.05839 1.07259 0.990345 0.996386
1.06615 1.09741 0.974845 0.996579
1.06604 1.08206 0.988189 0.996971
1.06855 1.08909 0.983963 0.997128
1.07041 1.09898 0.976718 0.997219
1.0643 1.08056 0.987922 0.996994
1.06227 1.07516 0.991189 0.996795
1.0645 1.08648 0.982678 0.997039
1.06384 1.07832 0.989735 0.996798
1.06985 1.08 0.994049 0.996532
1.06196 1.07837 0.988021 0.996729
1.07017 1.08069 0.993794 0.996443
1.07234 1.07717 0.999405 0.996106
1.0696 1.07975 0.994168 0.996412
1.07351 1.07807 0.999674 0.996092
1.03536 1.03917 1 0.996333
1.07329 1.07755 0.999963 0.99608
1.03858 1.04236 1 0.996371
1.00539 1.00679 1 0.998613
1.04121 1.04493 1 0.99644
1.00711 1.00847 1 0.998647
0.999454 1 1 0.999454
1.00856 1.00991 1 0.99867
0.999506 1 1 0.999506
0.9995 1 1 0.9995
1.06417 1.07883 0.989726 0.996655
1.06943 1.0784 0.995431 0.99624
1.06216 1.07809 0.988763 0.996416
1.07181 1.07632 0.99967 0.99614
1.0681 1.07508 0.997232 0.996272
1.06794 1.07956 0.992732 0.996477
1.04276 1.04641 1 0.996511
1.06721 1.07151 0.999857 0.996126
1.06883 1.07479 0.998063 0.99638
1.01134 1.01298 1 0.998387
1.03985 1.04341 1 0.99659
1.06016 1.06438 1 0.996038
1.03224 1.03564 1 0.996715
1.00901 1.01064 1 0.998391
1 1 1 1
1.00198 1.00351 1 0.998474
1 1 1 1
1 1 1 1
1.06343 1.0792 0.988498 0.996861
1.06489 1.08586 0.983784 0.996853
1.0663 1.09914 0.973106 0.996936
1.06386 1.08591 0.983045 0.996592
1.06341 1.07412 0.993255 0.996753
1.06604 1.08218 0.988069 0.996982
1.0686 1.08902 0.984076 0.997122
1.06465 1.0806 0.988188 0.997014
1.06246 1.07561 0.990941 0.996805
1.07074 1.07944 0.995411 0.996513
1.06429 1.07829 0.990227 0.996759
1.07067 1.08015 0.994726 0.996479
1.0708 1.07626 0.998737 0.996183
1.06992 1.08044 0.993795 0.996445
1.07236 1.07728 0.999326 0.996108
1.03251 1.03633 1 0.99631
1.07421 1.07884 0.999614 0.996094
1.03534 1.03915 1 0.996334
1.00273 1.00445 1 0.998287
1.0391 1.04288 1 0.996374
1.00452 1.00607 1 0.998463
1 1 1 1
1.00638 1.00776 1 0.998629
0.999486 1 1 0.999486
0.999524 1 1 0.999524
1.06347 1.07543 0.992102 0.996754
1.06972 1.07918 0.994838 0.996378
1.06455 1.07834 0.990533 0.996647
1.07213 1.0772 0.999218 0.996075
1.06895 1.07805 0.995303 0.996242
1.06194 1.07904 0.987658 0.996442
1.04075 1.04451 1 0.996393
1.07148 1.07608 0.999582 0.996141
1.06795 1.07459 0.99756 0.996258
1.00888 1.01049 1 0.998403
1.04135 1.04503 1 0.996485
1.06677 1.07119 0.999751 0.996124
1 1 1 1
1.01151 1.01313 1 0.998397
1.03889 1.04244 1 0.99659
1.00753 1.00914 1 0.998403
1 1 1 1
1 1 1 1
1.0621 1.07241 0.993614 0.996759
1.06396 1.07935 0.988839 0.996867
1.06514 1.08599 0.983908 0.996843
1.07134 1.07879 0.996638 0.996453
1.06275 1.07391 0.992816 0.996764
1.06603 1.08231 0.987931 0.996993
1.0626 1.07606 0.99065 0.996815
1.07056 1.07935 0.995326 0.996514
1.06989 1.07511 0.998937 0.996206
1.0714 1.08023 0.99539 0.996425
1.071 1.07616 0.999045 0.996152
1.03024 1.03408 1 0.996287
1.07244 1.07744 0.999248 0.99611
1.03261 1.03643 1 0.996311
1.00114 1.00288 1 0.998268
1.03553 1.03934 1 0.996336
1.00226 1.00399 1 0.998286
1 1 1 1
1.00366 1.00538 1 0.998288
0.999717 1 1 0.999717
0.999514 1 1 0.999514
1.06053 1.07087 0.99361 0.996718
1.07106 1.07866 0.996487 0.99646
1.06309 1.07486 0.992265 0.996762
1.07184 1.07636 0.999732 0.996068
1.07056 1.07983 0.995027 0.996365
1.06486 1.07777 0.991348 0.996639
1.03626 1.04008 1 0.996326
1.07184 1.0765 0.999607 0.996066
1.06851 1.07773 0.995186 0.996243
1.00568 1.00731 1 0.99838
1.04004 1.04381 1 0.996383
1.0711 1.07583 0.999463 0.996142
1 1 1 1
1.00978 1.01138 1 0.998412
1.04021 1.04391 1 0.996457
1 1 1 1
1.01171 1.01332 1 0.998408
1 1 1 1
1.07111 1.0782 0.996915 0.996491
1.06164 1.072 0.993571 0.996745
1.06445 1.07943 0.989214 0.996874
1.06909 1.0741 0.999136 0.996201
1.07079 1.07858 0.996294 0.996472
1.06208 1.0737 0.992381 0.996775
1.07041 1.07927 0.995267 0.996514
1.0695 1.07477 0.998882 0.996207
1.02815 1.03198 1 0.996294
1.07124 1.07612 0.999348 0.996121
1.03067 1.03451 1 0.996288
0.999929 1.00169 1 0.998243
1.03262 1.03644 1 0.996312
1.00074 1.00247 1 0.998266
1 1 1 1
1.00171 1.00343 1 0.998283
1 1 1 1
0.999486 1 1 0.999486
1.0715 1.07844 0.997093 0.996466
1.05982 1.07086 0.992928 0.996735
1.07092 1.07528 0.999816 0.996124
1.07141 1.07905 0.996446 0.996459
1.06274 1.07434 0.992406 0.99677
1.03292 1.03672 1 0.996332
1.07155 1.07598 0.999823 0.996065
1.07146 1.08055 0.995217 0.996351
1.00294 1.00462 1 0.998325
1.03622 1.04003 1 0.996331
1.07149 1.07575 0.999981 0.996058
1 1 1 1
1.00658 1.00821 1 0.998385
1.03937 1.04316 1 0.996372
1 1 1 1
1.01062 1.01222 1 0.99842
1 1 1 1
1.06918 1.07394 0.999339 0.99622
1.07109 1.07804 0.997064 0.99648
1.06117 1.07159 0.993526 0.996731
1.02671 1.03051 1 0.996314
1.0688 1.07384 0.999108 0.996202
1.0702 1.07834 0.995949 0.996492
1.06911 1.07444 0.998829 0.996207
1.02854 1.03237 1 0.996291
0.999019 1.00078 1 0.998238
1.03109 1.03494 1 0.996288
0.999623 1.00138 1 0.998241
1 1 1 1
1.00036 1.0021 1 0.998265
1 1 1 1
1 1 1 1
1.07075 1.07497 0.999923 0.996156
1.07092 1.0783 0.996624 0.996516
1.05916 1.07091 0.992249 0.996753
1.03036 1.03413 1 0.99635
1.07092 1.07522 0.99988 0.996121
1.07168 1.07937 0.996403 0.996458
1.00071 1.00243 1 0.998285
1.03256 1.03637 1 0.99633
1.07116 1.07548 0.99992 0.996061
1 1 1 1
1.00366 1.00534 1 0.998328
1.0362 1.04001 1 0.996337
1 1 1 1
1.00744 1.00907 1 0.998391
1 1 1 1
1.02682 1.03059 1 0.996341
1.06886 1.0737 0.999279 0.996211
1.07109 1.07791 0.997196 0.996469
0.998516 1.00024 1 0.998272
1.02697 1.03077 1 0.996311
1.06852 1.07359 0.999076 0.996202
1.02899 1.03282 1 0.996288
0.998814 1.00058 1 0.998239
1 1 1 1
0.999321 1.00108 1 0.998239
1 1 1 1
1 1 1 1
1.02787 1.03163 1 0.996357
1.07003 1.07449 0.999666 0.996186
1.07033 1.07814 0.996174 0.996565
0.999298 1.00072 1 0.998583
1.02994 1.03371 1 0.996349
1.07092 1.07515 0.999951 0.996118
1 1 1 1
1.00133 1.00305 1 0.998286
1.03234 1.03614 1 0.996327
1 1 1 1
1.00435 1.00603 1 0.998332
1 1 1 1
0.998272 1.00002 1 0.998255
1.02703 1.0308 1 0.996336
1.06858 1.07348 0.999236 0.996203
1 1 1 1
0.998377 1.00011 1 0.998271
1.02717 1.03098 1 0.996307
0.998557 1.00032 1 0.998238
1 1 1 1
1 1 1 1
0.998616 1.00006 1 0.99856
1.02823 1.03199 1 0.996358
1.06943 1.07415 0.999384 0.996217
1 1 1 1
0.999563 1.00129 1 0.99828
1.02973 1.0335 1 0.996348
1 1 1 1
1.00189 1.00361 1 0.998287
1 1 1 1
0.999474 1 1 0.999474
0.998429 1 1 0.998426
1.02718 1.03096 1 0.996331
1 1 1 1
0.998288 1.00002 1 0.998272
1 1 1 1
0.999482 1 1 0.999482
0.998651 1.00022 1 0.998428
1.02833 1.03209 1 0.996358
0.999734 1 1 0.999734
1.00001 1.00173 1 0.998283
1 1 1 1
1 1 1 1
0.99832 1.00003 1 0.998294
1 1 1 1
0.999741 1 1 0.999741
0.998811 1.00052 1 0.998297
1 1 1 1
1 1 1 1
1 1 1 1

VECTORS lamdaE float
1.00227 0.999981 0.992752
1.00183 1.00079 0.996323
1.00173 1.00018 0.993142
1.00214 1.00013 0.99272
1.0023 0.999919 0.992767
1.00226 1.00021 0.992563
1.00329 1.00068 0.989811
1.00192 1.00082 0.996232
1.00156 1.00006 0.996997
1.0011 1.00089 0.997009
1.00162 1.00124 0.992087
1.00335 1.00141 0.987742
1.00161 0.999965 0.993448
1.00133 1.00006 0.993649
1.00124 1.00039 0.993505
1.00175 1.00011 0.993142
1.00164 1.00057 0.992924
1.00184 0.999973 0.993171
1.00354 1.00057 0.989606
1.00166 1.00002 0.996578
1.00204 1.00016 0.992787
1.00224 1.00001 0.992751
1.00328 1.00026 0.990283
1.00336 1.00039 0.990018
1.00221 1.00051 0.99229
1.00323 1.00119 0.989377
1.0053 1.00135 0.985316
1.00199 1.00082 0.996127
1.00183 0.99994 0.995008
1.00148 1.00056 0.994967
1.00194 1.00108 0.996085
1.00329 1.00153 0.987728
1.00205 0.999767 0.992986
1.00196 0.999983 0.993023
1.00368 1.00026 0.99025
1.00047 1.00188 0.997106
1.00353 1.0009 0.989941
1.00338 1.00215 0.987035
1.00518 1.00226 0.983979
1.0006 1.00041 0.997353
1.00165 0.999982 0.996578
1.0016 1.00002 0.995059
1.00156 0.999962 0.996648
1.00115 1.00006 0.993868
1.00332 0.999896 0.989522
1.00151 0.999965 0.996962
1.00367 1.00017 0.990399
1.00138 1.00005 0.993563
1.00141 1.00002 0.993562
1.00108 1.00094 0.993266
1.00376 1.00046 0.989415
1.00144 1.00004 0.995195
1.00164 1.00019 0.993212
1.00166 1.00093 0.99259
1.00183 0.999982 0.993161
1.00348 1.00021 0.99006
1.00351 1.00103 0.989175
1.00357 1.00032 0.989806
1.00531 1.00132 0.985406
1.00154 0.999998 0.996633
1.00188 1.0001 0.993051
1.00305 0.999958 0.991355
1.00322 1.00021 0.990416
1.00334 1.00027 0.990165
1.00524 0.999968 0.986854
1.00532 1.00033 0.986261
1.00226 1.00076 0.991809
1.00314 1.00214 0.988533
1.00532 1.00206 0.984512
1.0053 0.999606 0.986337
1.00219 0.99994 0.996427
1.00178 1.00103 0.996311
1.0019 1.0005 0.996372
1.00324 1.00162 0.987718
1.00212 0.999873 0.996395
1.00208 1.00009 0.996448
1.00353 1.00022 0.988706
1.00076 1.00143 0.995009
1.00332 1.00085 0.988388
1.00319 1.00237 0.988265
1.00525 1.00213 0.983971
1.00095 1.00076 0.996948
1.00102 1.00271 0.990527
1.00364 1.00016 0.98867
1.00362 1.00027 0.988581
1.00534 1.00036 0.985744
1.00247 1.00303 0.989927
1.00534 1.00141 0.984612
1.00432 1.00338 0.984076
1.00537 1.00159 0.984173
1.00036 0.999827 0.997721
1.00044 1.00022 0.997505
1.00196 0.999978 0.996401
1.00171 0.999981 0.996548
1.0016 0.999969 0.996639
1.00146 0.999994 0.995213
1.00335 0.999893 0.990258
1.00175 0.999969 0.994994
1.00354 1.00019 0.989689
1.00156 0.999974 0.996664
1.00316 0.999759 0.989847
1.00356 1.00006 0.990674
1.00532 0.998686 0.987579
1.00364 1.00017 0.990377
1.00527 0.999147 0.987206
1.00161 0.999961 0.99347
1.00123 1.00021 0.993642
1.0011 1.00133 0.992876
1.00143 0.999945 0.993568
1.00367 1.0002 0.989838
1.00378 1.00027 0.989603
1.00376 1.00089 0.988984
1.00532 1.00128 0.985492
1.0016 0.999976 0.996649
1.00149 1.00009 0.993468
1.00327 0.999869 0.990176
1.00342 1.00018 0.990193
1.00202 1.00131 0.99387
1.00346 1.00192 0.988747
1.00354 1.00023 0.989947
1.00524 0.999709 0.987146
1.00532 1.00205 0.984629
1.00532 1.00057 0.986093
1.0053 0.999611 0.986362
1.00314 0.999802 0.989843
1.00314 1.00001 0.990691
1.00527 0.998468 0.988462
1.00523 0.999166 0.987795
1.00531 0.999776 0.986922
1.00533 0.997129 0.989165
1.0012 1.00135 0.996597
1.00532 0.998568 0.98732
1.00294 1.00311 0.986603
1.0053 1.00283 0.983075
1.00529 1.0007 0.985327
1.00527 0.996821 0.988937
1.00161 1.00341 0.988696
1.00299 1.00435 0.985742
1.00218 0.999884 0.9964
1.00209 1.00015 0.996432
1.00354 1.0002 0.988687
1.00106 1.00107 0.996822
1.00262 1.00268 0.987439
1.00337 1.00077 0.988383
1.00533 1.00202 0.983954
1.00077 1.0008 0.997112
1.00101 1.00281 0.990541
1.00367 1.00021 0.989472
1.00366 1.00034 0.98934
1.00533 1.00038 0.985709
1.00187 1.00318 0.988461
1.00534 1.00142 0.984583
1.00461 1.00303 0.984041
1.00534 1.00142 0.984421
1.00141 1.00294 0.989584
1.00069 1.0024 0.991437
1.0026 1.00358 0.987335
1.00531 0.999889 0.986306
1.00535 1.00086 0.985186
1.0053 0.998199 0.987841
1.00351 1.00368 0.985039
1.00532 0.999937 0.986065
1.00529 1.00292 0.983206
1.00535 0.999562 0.985942
1.00022 0.999251 0.998096
1.00024 0.999739 0.997877
1.00034 1.00015 0.997652
1.00135 1.00315 0.989493
1.00071 1.00112 0.996981
1.00209 0.999919 0.996385
1.00181 0.999985 0.996459
1.00335 1.00024 0.989024
1.00319 0.999902 0.989616
1.00159 0.999966 0.996623
1.00154 0.999965 0.996662
1.00314 0.999776 0.989842
1.00344 1.00004 0.98996
1.00531 0.998695 0.987588
1.00347 1.00024 0.988847
1.00525 0.999158 0.987191
1.00311 0.999739 0.989923
1.00531 0.998593 0.987689
1.00532 0.998861 0.987421
1.00528 0.995393 0.991182
1.00525 0.999493 0.986835
1.00524 0.995836 0.990618
1.00155 0.999972 0.996654
1.00106 1.00016 0.993884
1.00329 0.999839 0.989162
1.00361 1.00015 0.989968
1.00113 1.00203 0.996502
1.00378 1.00145 0.988971
1.00374 1.0002 0.989731
1.00524 0.999439 0.987438
1.00532 1.00079 0.985922
1.00531 1.002 0.98475
1.00529 0.999619 0.986386
1.00313 0.99979 0.989846
1.00331 1.00004 0.990471
1.00529 0.998394 0.988255
1.00523 0.999423 0.987465
1.00141 1.00137 0.996422
1.00305 1.00286 0.987747
1.00513 1.00312 0.983474
1.0053 0.999852 0.986877
1.00533 0.996697 0.989563
1.00529 1.00059 0.98541
1.00532 0.99878 0.987216
1.00527 0.996881 0.988931
1.00168 1.00328 0.988687
1.00306 1.00424 0.985668
1.00528 0.998711 0.987631
1.00528 0.99879 0.988126
1.00533 0.996103 0.990243
1.00531 0.996052 0.990357
1.00534 0.997654 0.988295
1.00532 0.995244 0.990886
1.00219 1.00337 0.987587
1.00527 0.995715 0.990121
1.00487 1.00378 0.983164
1.00531 1.0018 0.983961
1.0053 0.998608 0.987286
1.00525 0.99559 0.99034
1.00366 1.00433 0.984426
1.00283 1.00374 0.987062
1.00417 1.00399 0.984507
1.00351 1.00022 0.988748
1.00052 1.00063 0.997278
1.00088 1.00282 0.99056
1.00349 1.00033 0.988611
1.00532 1.00039 0.985675
1.00185 1.00324 0.988349
1.00484 1.00277 0.984013
1.00534 1.00143 0.984551
1.00533 1.00122 0.98467
1.00128 1.00305 0.989616
1.00054 1.0025 0.991425
1.00247 1.00369 0.987331
1.0053 0.999914 0.986273
1.00534 1.00089 0.985152
1.00531 0.998184 0.987829
1.00377 1.00342 0.985004
1.00532 1.00006 0.985951
1.00535 1.00289 0.983118
1.00535 0.999193 0.986231
1.00046 1.00184 0.992293
1.00314 1.00411 0.986112
1.00202 1.00398 0.987737
1.00306 1.00135 0.987802
1.00533 0.997267 0.988852
1.00531 0.999167 0.986789
1.00531 0.995823 0.989939
1.00494 1.00368 0.982957
1.0053 0.99748 0.988408
1.00532 1.00139 0.984644
1.00543 0.997884 0.98751
1.0002 1.00364 0.991088
1.00027 1.00076 0.993733
1.00019 0.998615 0.998348
1.00015 0.999125 0.998198
1.00013 0.999632 0.998021
1.00102 1.00301 0.990263
1.00057 1.0008 0.9972
1.00143 1.00311 0.989417
1.0009 1.00122 0.996851
1.00344 1.00027 0.988841
1.00329 1.00004 0.989314
1.00523 0.999169 0.987182
1.00529 0.998708 0.987598
1.00314 0.999798 0.989844
1.00159 0.999952 0.996658
1.00313 0.999738 0.989927
1.0053 0.998604 0.987698
1.00529 0.998879 0.987428
1.00529 0.995352 0.991183
1.00526 0.99951 0.986804
1.00528 0.995788 0.990617
1.00529 0.998605 0.987709
1.00532 0.995361 0.99119
1.00524 0.995535 0.991037
1.00513 0.994977 0.991702
1.00533 0.996417 0.989824
1.00527 0.994918 0.991342
1.00314 0.999784 0.989857
1.00351 1.00001 0.990251
1.00531 0.998298 0.988055
1.00524 0.999669 0.987134
1.00164 1.00147 0.99621
1.00345 1.00273 0.988621
1.00494 1.00323 0.983864
1.0053 0.999916 0.986832
1.00533 0.996265 0.989959
1.00531 0.998992 0.987113
1.0053 1.0005 0.985493
1.00528 0.99694 0.988924
1.00177 1.0032 0.988678
1.003 1.00393 0.985599
1.00528 0.998422 0.987949
1.00529 0.998762 0.988121
1.00532 0.996097 0.990282
1.00531 0.996336 0.989974
1.00226 1.00339 0.987572
1.00458 1.00377 0.983193
1.00534 1.00198 0.983758
1.00534 0.997857 0.988182
1.00532 0.995085 0.990961
1.00529 0.998374 0.987558
1.00527 0.995764 0.990091
1.00525 0.995571 0.990212
1.00364 1.00438 0.98439
1.00377 1.00374 0.984497
1.00223 1.004 0.987101
1.00534 0.995998 0.990374
1.00531 0.996259 0.990105
1.00516 0.994958 0.991642
1.0053 0.994926 0.991244
1.00528 0.995108 0.990724
1.0053 0.994912 0.990971
1.0042 1.00397 0.98377
1.00526 0.994965 0.990764
1.00536 1.00341 0.982408
1.00532 1 0.985569
1.00525 0.997047 0.988839
1.00527 0.995373 0.990413
1.00167 1.00508 0.987138
1.00499 1.00444 0.982649
1.00275 1.00208 0.987137
1.00512 1.00397 0.982958
1.0053 0.999937 0.986241
1.00047 1.00262 0.99141
1.00111 1.00332 0.989654
1.00196 1.00395 0.987321
1.00533 1.0009 0.985118
1.00532 0.998169 0.987818
1.00402 1.00299 0.984972
1.00537 1.00284 0.983024
1.00532 1.00019 0.98584
1.00534 0.998842 0.98652
1.00035 1.00196 0.992303
1.00287 1.00383 0.986234
1.00184 1.00412 0.987646
1.0034 1.0013 0.98787
1.00532 0.997243 0.988852
1.00532 0.999149 0.986775
1.0053 0.99581 0.98996
1.00512 1.00371 0.98288
1.0053 0.997727 0.98813
1.0053 1.00123 0.984629
1.00543 0.99772 0.987766
1.00041 1.00129 0.99302
1.00157 1.00496 0.987876
1.0034 1.00389 0.985189
1.00358 1.00225 0.987536
1.00359 1.00067 0.988406
1.00527 0.995159 0.99067
1.00532 0.996629 0.989043
1.00534 0.995109 0.99034
1.00518 1.00312 0.98312
1.00537 0.996293 0.989275
1.00524 0.999631 0.986133
1.00053 1.0041 0.98999
1.00018 1.00506 0.989755
1.0001 1.00279 0.991994
1.00012 1.00359 0.99109
1.00018 1.00006 0.995303
1.00025 1.00062 0.994246
1.00034 0.99798 0.996773
1.00017 0.998553 0.998409
1.00012 0.999008 0.998271
1.00023 1.00281 0.991557
1.00024 1.0005 0.99761
1.00102 1.00297 0.990239
1.0006 1.00092 0.997126
1.00143 1.00307 0.989344
1.00106 1.00124 0.996718
1.00526 0.999528 0.986771
1.00526 0.998893 0.987431
1.00531 0.995767 0.990618
1.00531 0.995309 0.991185
1.00529 0.998615 0.987706
1.00312 0.999729 0.989927
1.00528 0.998613 0.987712
1.00532 0.995332 0.991191
1.00527 0.99549 0.991037
1.00513 0.994974 0.991683
1.00531 0.996395 0.989833
1.00526 0.994916 0.99136
1.00534 0.995389 0.991129
1.00513 0.994963 0.991707
1.00519 0.994966 0.991582
1.00522 0.994953 0.991482
1.00529 0.994885 0.991075
1.00526 0.994937 0.991091
1.00529 0.998124 0.988264
1.0053 0.998752 0.988117
1.00531 0.996099 0.990321
1.0053 0.996624 0.989592
1.00235 1.00337 0.987564
1.00433 1.00412 0.983234
1.00537 1.00215 0.98356
1.00534 0.998058 0.98807
1.00532 0.994921 0.991036
1.00527 0.995813 0.990061
1.00528 0.998113 0.987829
1.00525 0.995542 0.990083
1.00355 1.00462 0.984354
1.00382 1.0038 0.984485
1.002 1.00436 0.987138
1.00533 0.995725 0.990714
1.0053 0.996272 0.990107
1.00516 0.994956 0.991641
1.00529 0.994928 0.991231
1.00404 1.00423 0.983823
1.00535 1.00345 0.982486
1.00534 1.0002 0.985287
1.00528 0.995304 0.990562
1.0053 0.994913 0.99093
1.00524 0.996923 0.988832
1.00527 0.994955 0.990737
1.00527 0.995311 0.99044
1.00453 1.00444 0.982665
1.00503 1.00411 0.982731
1.00193 1.00469 0.98721
1.00304 1.0026 0.987221
1.00516 0.994958 0.991732
1.0052 0.994944 0.99139
1.00521 0.994948 0.991501
1.00528 0.994913 0.991017
1.00528 0.994878 0.990861
1.00534 0.994905 0.990759
1.00525 1.00436 0.981862
1.00531 0.99486 0.990635
1.00528 1.002 0.983682
1.00531 0.999089 0.986358
1.00522 0.996421 0.98929
1.00531 0.995141 0.990407
1.00154 1.00492 0.987507
1.00347 1.00349 0.986175
1.00518 1.00448 0.981679
1.00351 1.00089 0.987123
1.00489 1.00444 0.982121
1.00023 1.00206 0.992318
1.0053 0.997219 0.988853
1.00201 1.004 0.987556
1.00264 1.00376 0.986362
1.00357 1.00104 0.987938
1.00532 0.999131 0.986762
1.00529 0.995793 0.989981
1.00526 1.00334 0.982805
1.00529 1.00114 0.984611
1.0053 0.997956 0.987852
1.00543 0.997567 0.988021
1.00035 1.00126 0.993059
1.00128 1.00502 0.987893
1.00372 1.00339 0.985278
1.00314 1.00218 0.987471
1.00394 1.00038 0.987566
1.00529 0.995161 0.990693
1.00531 0.996598 0.989066
1.00533 0.995112 0.990356
1.00517 1.00329 0.98306
1.00538 0.996421 0.989069
1.00523 0.99967 0.986405
1.00108 1.00457 0.988838
1.00245 1.00517 0.987297
1.00366 1.00367 0.984503
1.00388 1.00103 0.987684
1.00484 1.00237 0.985573
1.00534 0.994845 0.990742
1.00532 0.995515 0.989846
1.00525 0.994949 0.990447
1.00491 1.0016 0.984604
1.00523 0.998142 0.987389
1.00046 1.00425 0.989982
1.0004 1.00491 0.989278
0.9997 1.00502 0.989817
1.00045 1.00447 0.990419
1.00021 1.00449 0.990596
0.999999 1.00242 0.992516
0.999964 1.00299 0.992012
1.0001 0.999604 0.995812
1.00002 1.00375 0.991093
1.00018 0.999958 0.995386
1.00028 0.99751 0.997198
1.00023 1.00053 0.994746
1.00021 0.998076 0.997705
1.00015 0.998402 0.998472
0.999866 1.00167 0.99326
1.00044 1.00251 0.991604
0.999955 0.999559 0.998198
1.00045 1.00041 0.997421
1.00115 1.00276 0.990217
1.0007 1.00102 0.997043
1.0053 0.996361 0.989843
1.00531 0.99543 0.991036
1.00525 0.994914 0.991378
1.00513 0.994972 0.991664
1.00532 0.995303 0.991193
1.00528 0.998619 0.987715
1.00533 0.995381 0.991128
1.00514 0.994966 0.991709
1.00518 0.994966 0.991584
1.00522 0.994949 0.991452
1.0053 0.994882 0.991105
1.00526 0.994934 0.9911
1.00515 0.994958 0.99171
1.00523 0.994952 0.991541
1.00524 0.994948 0.991303
1.00528 0.994928 0.99138
1.00529 0.994877 0.990985
1.00531 0.994937 0.990984
1.00532 0.995457 0.991055
1.00529 0.996286 0.990109
1.00517 0.994954 0.99164
1.00529 0.99493 0.991218
1.00383 1.00438 0.983875
1.00533 1.00346 0.982555
1.00536 1.00035 0.985009
1.00528 0.995503 0.990399
1.0053 0.994913 0.990889
1.00528 0.994945 0.99071
1.00523 0.996804 0.988825
1.00527 0.995247 0.990469
1.00429 1.00478 0.982683
1.00447 1.0046 0.982505
1.00197 1.00426 0.98728
1.00305 1.00205 0.987292
1.00516 0.994958 0.99173
1.0052 0.994943 0.991437
1.0052 0.994947 0.991478
1.00528 0.994913 0.991018
1.00514 1.00446 0.981916
1.00528 1.00216 0.983521
1.0053 0.999099 0.986331
1.00529 0.994878 0.990891
1.00534 0.994898 0.990748
1.00524 0.996334 0.989301
1.00531 0.994862 0.990625
1.00528 0.995095 0.990537
1.00514 1.00458 0.981761
1.00497 1.00496 0.982006
1.00382 1.0015 0.987213
1.00125 1.00485 0.987742
1.00282 1.00354 0.986058
1.00523 0.994948 0.991474
1.00526 0.994924 0.991279
1.00533 0.99488 0.99077
1.00533 0.994885 0.990665
1.00521 1.00385 0.982262
1.00531 0.994842 0.990553
1.0052 1.00125 0.983979
1.00526 0.998529 0.986905
1.00529 0.995737 0.9895
1.00015 1.00441 0.989928
1.00208 1.00509 0.986583
1.00402 1.00397 0.98603
1.00505 1.00461 0.982036
1.00449 1.00244 0.984731
1.00479 1.00495 0.982325
1.0003 1.00126 0.993096
1.001 1.0051 0.987911
1.0053 0.995167 0.990716
1.00247 1.00222 0.987404
1.00433 1.00341 0.98537
1.00443 1.0003 0.986734
1.0053 0.996569 0.989089
1.00533 0.995116 0.990371
1.00516 1.00336 0.983011
1.00521 0.999722 0.98668
1.0054 0.996536 0.988862
1.00093 1.00469 0.988829
1.00159 1.00517 0.987293
1.00415 1.00392 0.9838
1.00386 1.00064 0.98781
1.00463 1.00198 0.985334
1.00533 0.994843 0.990761
1.00534 0.995549 0.989827
1.00529 0.994959 0.99037
1.00501 1.00151 0.984785
1.0052 0.998286 0.987291
1.0014 1.00509 0.988284
1.00114 1.00461 0.987653
1.00452 1.00296 0.98444
1.00305 1.00192 0.98593
1.00526 1.00187 0.985192
1.00534 0.994814 0.990627
1.00534 0.996032 0.98908
1.00537 0.995205 0.989702
1.00506 1.00033 0.985935
1.0051 0.998973 0.98691
1.00037 1.00431 0.989976
1.00059 1.00503 0.989152
0.999465 1.00397 0.991331
0.99955 1.005 0.989869
0.999828 1.00462 0.990575
0.999576 1.00474 0.990645
0.999993 1.00284 0.99207
0.999457 1.00504 0.990602
0.999848 1.00417 0.991119
1.00002 1.00231 0.992582
1.00001 1.00234 0.992513
1.00003 0.999388 0.996089
0.99991 1.00287 0.992025
1.00012 0.999516 0.995867
1.00021 0.997295 0.997524
1.00021 0.999819 0.995473
1.00024 0.997592 0.997173
1.00005 0.998153 0.998662
0.999848 1.00053 0.994475
0.99997 1.00165 0.993207
0.999828 0.998761 0.998638
1.00065 1.00234 0.99165
1.00015 0.999811 0.997975
1.00054 1.00067 0.997275
1.0053 0.99488 0.991136
1.00517 0.994966 0.991586
1.00526 0.994932 0.991109
1.00521 0.994944 0.991421
1.00515 0.994969 0.991711
1.00532 0.995376 0.991127
1.00516 0.994957 0.991734
1.00523 0.994955 0.991542
1.00523 0.99495 0.991324
1.00527 0.994925 0.991357
1.0053 0.994876 0.990985
1.0053 0.994933 0.990966
1.00524 0.994953 0.991502
1.00529 0.99493 0.991421
1.00529 0.994915 0.991241
1.00535 0.994891 0.9907
1.00517 0.994957 0.991729
1.0052 0.994941 0.991483
1.0052 0.994946 0.991454
1.00528 0.994914 0.991019
1.00499 1.00439 0.981971
1.00529 1.00235 0.98336
1.00528 0.999152 0.986304
1.0053 0.99488 0.990922
1.00533 0.994891 0.990738
1.0053 0.994865 0.990615
1.00525 0.996262 0.989309
1.00527 0.995069 0.990667
1.00508 1.00468 0.981837
1.00468 1.00483 0.981892
1.00433 1.00223 0.987291
1.00111 1.00463 0.987996
1.00252 1.00431 0.985955
1.00523 0.994947 0.991469
1.00526 0.994926 0.991287
1.00533 0.994885 0.990785
1.00519 1.00396 0.982294
1.00519 1.00148 0.983905
1.00527 0.998392 0.986913
1.00533 0.994886 0.99068
1.00529 0.995679 0.989699
1.00531 0.994846 0.990559
1.00002 1.00401 0.990206
1.00489 1.00456 0.982082
1.00455 1.00496 0.982096
1.00445 1.00282 0.984629
1.00399 1.00304 0.986034
1.00185 1.00509 0.98664
1.00528 0.99493 0.991368
1.00532 0.994895 0.991037
1.00535 0.994876 0.990613
1.00532 0.994831 0.990545
1.00502 1.00356 0.982952
1.00528 0.994952 0.990389
1.00509 1.00113 0.984615
1.00526 0.997694 0.987327
0.999929 1.00279 0.991689
1.00081 1.00511 0.988831
1.00297 1.00482 0.986458
1.00316 1.0034 0.985556
1.00449 1.00396 0.984073
1.00485 1.00501 0.981964
1.00077 1.00483 0.988819
1.00091 1.00517 0.987291
1.00532 0.99484 0.99078
1.00388 1.0002 0.987927
1.00472 1.00421 0.983086
1.00402 1.00239 0.985093
1.00536 0.995582 0.989808
1.00532 0.994959 0.990293
1.00505 1.00148 0.984965
1.00519 0.998431 0.987193
1.00104 1.00502 0.988312
1.00172 1.00459 0.987392
1.0044 1.00317 0.984309
1.00378 1.00287 0.985769
1.00517 1.00211 0.984829
1.00535 0.994814 0.990618
1.00536 0.995875 0.989343
1.00537 0.995276 0.989839
1.00507 1.00023 0.985894
1.00504 0.999317 0.986639
0.999494 1.00491 0.989192
1.00007 1.00445 0.98806
1.00492 1.00113 0.985636
1.00457 1.00153 0.985735
1.00541 0.994817 0.990394
1.0054 0.994834 0.990294
1.00525 0.997789 0.987446
1.00515 0.999683 0.985999
1.00093 1.00492 0.989026
0.999604 1.00446 0.991043
0.998189 1.00419 0.993996
0.999515 1.00484 0.990561
0.998631 1.00506 0.990869
0.999874 1.00416 0.991072
0.999538 1.00327 0.99249
0.999513 1.00509 0.990635
0.99949 1.00045 0.995317
0.999432 1.00474 0.991107
0.999415 1.00494 0.99045
1.00005 1.00405 0.990911
0.999975 1.00245 0.99246
0.999976 1.00233 0.992564
0.999944 0.999348 0.99622
0.999979 1.00238 0.992514
1.00005 0.999343 0.996106
1.00012 0.997279 0.997637
1.00012 0.999438 0.995923
1.00018 0.99734 0.997503
1.00017 0.997692 0.997136
1.00002 0.999688 0.995085
0.999885 1.00066 0.994398
0.999812 0.998116 0.998839
1.00001 1.00174 0.993153
0.999897 0.99887 0.998506
1.00036 0.999756 0.997722
1.00531 0.994874 0.990984
1.00523 0.994952 0.991344
1.00528 0.994929 0.990947
1.00526 0.994923 0.991334
1.00522 0.994959 0.991543
1.00516 0.994957 0.991757
1.00524 0.994951 0.991519
1.00528 0.994929 0.991412
1.00529 0.994919 0.991202
1.00534 0.994889 0.990729
1.00529 0.994932 0.991425
1.00528 0.994898 0.991365
1.00534 0.9949 0.99092
1.00522 0.994946 0.991463
1.00526 0.994929 0.991296
1.00534 0.994891 0.990799
1.00518 1.00396 0.982335
1.0052 1.00173 0.98383
1.00528 0.998245 0.986921
1.00533 0.994886 0.990694
1.00531 0.994849 0.990565
1.00528 0.995602 0.989899
1.00481 1.00454 0.982126
1.00494 1.00504 0.981885
1.00466 1.00379 0.984545
1.00015 1.00388 0.990483
1.00384 1.0027 0.986023
1.00159 1.00505 0.986681
1.00529 0.994932 0.991381
1.00533 0.994886 0.990996
1.00535 0.994878 0.990618
1.00507 1.00342 0.982919
1.00503 1.00107 0.984694
1.00528 0.997477 0.987652
1.00532 0.994831 0.990517
1.00528 0.994967 0.990345
0.999902 1.00298 0.991878
1.00069 1.0051 0.988809
1.00438 1.00332 0.983841
1.00464 1.00483 0.982512
1.00385 1.00355 0.985237
1.00256 1.0049 0.986405
1.0053 0.994894 0.991312
1.00538 0.99486 0.990655
1.00536 0.99484 0.990504
1.00527 0.99483 0.990326
1.00421 1.00233 0.984754
1.00525 0.995657 0.989535
1.00491 1.00026 0.9858
1.00013 1.0019 0.992849
1.00019 1.00313 0.99173
0.999508 1.00476 0.990564
1.00148 1.00509 0.987566
1.00221 1.00485 0.986532
1.00416 1.00467 0.983843
1.00318 1.00315 0.986257
1.00381 1.00341 0.986627
1.00074 1.0051 0.988343
1.00248 1.00454 0.987132
1.00536 0.994813 0.990608
1.0045 1.00239 0.985613
1.00437 1.00335 0.98418
1.00531 1.0023 0.984475
1.00537 0.995713 0.989606
1.00537 0.995345 0.989975
1.00507 1.00011 0.985851
1.00496 0.999633 0.986369
1.00037 1.0047 0.988892
1.00142 1.00473 0.987583
1.00494 1.00118 0.985392
1.00475 1.00176 0.985621
1.00541 0.994814 0.990393
1.00543 0.994837 0.990274
1.00518 0.997666 0.987591
1.00513 0.999868 0.986052
0.998553 1.00487 0.991443
1.00547 0.994843 0.990527
1.00285 1.00394 0.987483
1.00495 1.00052 0.985828
1.00537 0.994735 0.990714
1.00504 0.997092 0.987392
1.00505 1.00067 0.985725
0.999509 1.00465 0.990756
0.998355 1.00349 0.994046
0.997085 1.00294 0.996596
0.999796 1.00401 0.991025
0.999455 1.0051 0.990666
0.998001 1.00461 0.992925
1.00005 1.00391 0.990896
0.999506 1.00494 0.990524
0.998157 1.00177 0.995741
0.999651 1.00463 0.990981
0.998928 0.999994 0.997693
0.998021 1.00351 0.993999
0.999412 1.00514 0.990701
1.00044 1.00477 0.989422
1.00028 1.00394 0.990518
0.999992 1.00248 0.992418
0.999929 1.00254 0.99244
0.999826 0.999442 0.996349
0.99991 1.00246 0.992547
0.999955 0.999376 0.996229
0.999991 0.997448 0.997735
1.00006 0.999289 0.996128
1.00012 0.997337 0.997632
1.00018 0.997393 0.997478
1.00009 1.00147 0.993327
0.999996 0.999257 0.995529
0.999979 0.999807 0.995052
0.999888 0.997847 0.998935
0.999926 1.00062 0.994324
0.999851 0.998327 0.998797
1.00003 0.999058 0.998355
1.00532 0.994888 0.990757
1.00529 0.994922 0.991162
1.00528 0.994928 0.991404
1.00524 0.994951 0.991537
1.00529 0.994932 0.99142
1.00528 0.994896 0.991365
1.00534 0.994897 0.990862
1.00529 0.9949 0.991386
1.00536 0.99485 0.991282
1.0056 0.994841 0.991134
1.00529 0.994933 0.991394
1.00534 0.994884 0.990955
1.00535 0.994884 0.990625
1.0051 1.00328 0.982891
1.0049 1.00112 0.984791
1.0053 0.997248 0.987967
1.00533 0.994827 0.990487
1.00527 0.995001 0.990301
1.00406 1.00385 0.983605
1.00427 1.00473 0.983021
1.00377 1.00288 0.984917
0.999959 1.00288 0.99207
1.00035 1.00511 0.988786
1.0024 1.00494 0.986354
1.0053 0.994892 0.991291
1.00016 1.00179 0.992831
1.0001 1.00306 0.99158
1.00539 0.994863 0.990662
1.00536 0.994843 0.990518
1.00447 1.00259 0.984731
1.00497 0.999847 0.986169
1.00523 0.995615 0.989476
1.00527 0.994839 0.990267
0.999831 1.00454 0.99071
1.00148 1.00509 0.987507
1.00307 1.00373 0.985956
1.00439 1.00277 0.985176
1.00392 1.00472 0.983648
1.00223 1.00416 0.986549
1.00538 0.994799 0.991122
1.0054 0.99496 0.990384
1.00534 0.994832 0.990459
1.00522 0.995125 0.990018
1.00326 1.00162 0.987499
1.00502 0.998042 0.988391
1.0003 1.00274 0.991535
0.999762 1.00339 0.99177
1.00177 1.00208 0.990797
1.00075 1.00451 0.988982
1.00199 1.00511 0.986876
1.00222 1.00257 0.987692
1.00228 1.00352 0.986088
1.00134 0.99984 0.992964
1.00071 1.00473 0.988597
1.00289 1.0051 0.987094
1.00541 0.994809 0.990393
1.00546 0.994839 0.990255
1.00486 1.00233 0.9855
1.00494 1.00127 0.985144
1.00513 0.997544 0.987737
1.00513 1.00005 0.986109
0.999181 1.00455 0.991347
1.00547 0.994831 0.990748
1.0019 1.00402 0.988261
1.00488 1.00068 0.98572
1.00537 0.99475 0.990769
1.00512 0.99725 0.987581
1.00501 1.00041 0.985684
0.998429 1.00513 0.993227
1.00502 0.994742 0.990488
1.00202 1.0034 0.988278
1.00442 1.00205 0.984579
1.00515 0.995639 0.990259
1.00351 1.00087 0.986776
0.999131 0.99474 0.983565
0.998445 1.00322 0.994078
0.997421 1.00236 0.9966
0.997112 1.00181 0.997641
1.00001 1.0039 0.990877
0.999372 1.005 0.990602
1.00023 1.00438 0.990857
0.997476 1.00199 0.996182
1.00022 1.00399 0.990523
1.00021 1.00477 0.989687
0.998377 0.999458 0.998123
0.999322 1.00515 0.990668
0.998555 1.00369 0.993507
0.997032 1.00272 0.997188
0.999732 1.0044 0.991125
0.999755 1.00507 0.990565
1.00076 1.00432 0.98951
1.00027 1.00412 0.990093
1.00034 1.00499 0.989898
1.00005 1.00433 0.990159
0.999921 1.00251 0.992451
0.999948 1.00253 0.992404
0.999704 0.999433 0.995847
0.999936 1.00248 0.992421
0.999805 0.99946 0.996031
0.999978 0.997476 0.999074
0.999963 0.999399 0.99624
1.00001 0.997418 0.997728
1.00012 0.997384 0.997621
0.999985 1.00106 0.993826
1.00012 1.00138 0.993358
1.00007 0.998777 0.995983
1.00001 0.999293 0.995843
0.999893 0.997548 0.999043
0.999918 1.00002 0.995017
0.999875 0.997863 0.998915
0.999894 0.998348 0.998737
1.00533 0.994897 0.990803
1.00529 0.994895 0.991366
1.0053 0.994932 0.991414
1.00529 0.994896 0.991388
1.00534 0.994854 0.991232
1.00563 0.994858 0.990983
1.00544 0.994808 0.991329
1.00096 0.994766 0.980353
1.00521 0.994919 0.990817
1.00017 1.00233 0.992306
1.0053 0.994885 0.99127
1.00539 0.994857 0.990669
1.00535 0.994848 0.990531
1.00458 1.00224 0.984691
1.00501 0.999489 0.986525
1.00524 0.995487 0.989403
1.00528 0.994854 0.990208
1.00351 1.00327 0.985725
1.00475 1.00316 0.983805
1.00417 1.00457 0.983432
1.00015 1.00183 0.992814
1.00289 1.00406 0.986551
1 1.00441 0.990842
1.00139 1.00509 0.987455
0.99991 1.00307 0.991437
1.00539 0.994827 0.99111
1.00028 1.00261 0.991773
0.999887 1.00333 0.99184
1.00094 1.0025 0.991176
1.0054 0.994894 0.990388
1.0053 0.994837 0.990419
1.0027 1.00224 0.987609
1.00487 0.997528 0.988662
1.00524 0.99501 0.989998
1.0007 1.00449 0.989046
1.00215 1.00494 0.986985
1.00229 1.00015 0.991615
1.00299 1.00456 0.985726
1.00327 1.0026 0.987576
1.00544 0.994785 0.990892
1.00535 0.994834 0.990528
1.00526 0.994875 0.990124
1.00485 0.997273 0.990269
1.00185 0.999542 0.991477
1.00009 1.00261 0.991825
1.00189 1.00228 0.989657
1.00041 1.00222 0.991435
1.00152 1.00449 0.988787
1.00153 1.0033 0.989267
1.00088 1.00249 0.989796
1.00144 0.998788 0.993995
1.00057 1.00388 0.991194
1.00078 1.00423 0.98906
1.00547 0.994848 0.99096
1.00539 0.994762 0.990811
1.0052 0.997384 0.98777
1.0048 1.00086 0.985613
1.00499 1.00015 0.985653
0.998421 1.00482 0.994115
1.00464 0.994766 0.99069
1.00197 1.00346 0.988243
1.00463 1.00208 0.984503
1.00498 0.995573 0.990556
1.00392 1.00076 0.986861
0.998939 0.994739 0.981867
0.997581 1.00487 0.994137
1.00377 0.994762 0.990657
1.00238 1.00331 0.986378
1.00312 1.00014 0.988112
1.00344 0.997478 0.990862
0.999973 0.994883 0.93836
0.994915 0.994742 0.960487
0.996173 0.997354 0.986995
0.996529 0.994757 0.848215
0.994701 0.995119 0.807801
0.998063 1.00192 0.996619
0.99711 1.00222 0.997738
0.996171 1.00352 0.997746
1.00022 1.004 0.990531
1.0001 1.00472 0.989949
0.999406 1.00515 0.990634
0.998962 1.00393 0.992982
0.998049 0.99949 0.998541
0.999551 1.00506 0.990735
1.00036 1.00406 0.990158
1.00065 1.00452 0.989456
0.997547 1.00193 0.996922
0.999235 1.00464 0.991571
0.999863 1.00431 0.991827
0.997504 1.00426 0.994468
0.999437 1.0048 0.991283
1.00056 1.00463 0.989037
1.0002 1.00427 0.990127
0.999984 1.00478 0.989971
0.999942 1.00383 0.991579
0.999515 1.00503 0.990894
1.00005 1.00498 0.990006
1.00009 1.00436 0.990388
1.00008 1.00434 0.990156
0.999877 1.00263 0.992433
0.999917 1.00255 0.992461
0.999675 0.999449 0.99591
0.999899 1.00264 0.992388
0.99969 0.999474 0.99585
0.999936 0.99746 0.999111
0.999779 0.999493 0.995718
0.999933 0.99748 0.998448
1.00004 0.997397 0.997717
0.99988 1.00079 0.994229
0.999997 1.00107 0.993833
1.00009 0.998458 0.996309
1.00016 1.00127 0.993388
1.00006 0.998758 0.996292
0.999936 0.997151 0.999144
1.00004 0.999394 0.995422
0.999908 0.997688 0.998993
0.999881 0.998013 0.998897
1.00534 0.994859 0.991182
1.00528 0.994891 0.99139
1.00569 0.994855 0.990837
1.0001 0.994775 0.980435
1.00545 0.994819 0.991272
1.00521 0.994796 0.990813
1.00548 0.994658 0.99133
0.995677 0.994884 0.961916
1.00292 0.994816 0.979869
1.00025 1.00187 0.992678
1.00026 1.00227 0.992277
0.999711 1.00349 0.991719
0.999923 1.00283 0.992101
1.0054 0.994844 0.991099
1.00541 0.994861 0.990393
1.00526 0.994832 0.99038
1.00375 1.00235 0.987713
1.00496 0.996262 0.988971
1.00523 0.994918 0.989995
1.00237 0.999449 0.990185
1.00383 1.00475 0.985378
1.00297 1.00203 0.987485
0.999957 1.0032 0.991908
1.00209 1.00418 0.987118
1.00075 1.00462 0.989108
1.00025 1.00253 0.992005
1.00033 1.0027 0.991569
1.00547 0.994745 0.990876
1.00015 1.00308 0.991512
1.00173 1.00209 0.990087
0.998018 1.00267 0.99448
1.00536 0.994864 0.990482
1.00526 0.994871 0.99012
1.00314 0.998136 0.991567
1.00464 0.996815 0.990165
1.0017 1.00482 0.988162
1.00125 1.00314 0.988451
1.00117 0.999052 0.994029
1.00217 1.00267 0.989318
1.0041 0.996254 0.9905
1.00524 0.994871 0.990692
1.00474 0.996637 0.989841
1.00347 0.996188 0.993309
0.997407 1.00485 0.994076
1.00243 1.00316 0.987822
0.998769 1.00321 0.993916
0.99851 1.00364 0.993488
1.00001 0.995119 0.923383
0.99786 1.00462 0.995048
1.0016 1.00359 0.988191
1.00417 0.99474 0.990929
1.00475 0.995551 0.990845
1.00422 1.00065 0.986916
1.0047 1.00227 0.984409
0.998874 0.99475 0.979946
0.997775 1.00456 0.994325
1.00337 0.994775 0.990527
1.00246 1.00403 0.986306
1.00367 1.00005 0.988286
1.00366 0.997971 0.990632
0.999653 0.994871 0.924057
0.995427 0.994792 0.957288
0.996255 0.997046 0.987452
0.997003 0.994747 0.852735
0.994757 0.995018 0.80191
0.99799 1.00458 0.993186
0.998869 0.994818 0.857628
0.994764 0.994876 0.798133
1.0009 0.997227 0.993015
1.00132 1.00141 0.99081
1.00126 1.00017 0.992996
0.994875 0.996576 0.990916
0.997408 0.994729 0.93806
0.994893 0.994802 0.953495
0.994745 0.994768 0.87435
0.994757 0.994835 0.784859
0.996841 1.00234 0.997836
0.99629 1.00347 0.997636
0.995812 1.00518 0.99697
1.00051 1.00392 0.990219
1.00055 1.00463 0.989401
0.99898 1.0051 0.990905
0.998903 1.00487 0.992015
0.997967 1.0011 0.996675
1.00033 1.00412 0.99011
0.999518 1.00459 0.991605
0.999316 1.00492 0.990964
1.00077 1.00463 0.989168
0.99756 1.00396 0.994747
0.998515 1.00395 0.993848
0.996046 1.00504 0.995846
0.999561 1.00504 0.990218
1.00052 1.00465 0.989535
1.00023 1.00474 0.989935
0.999621 1.00348 0.992027
0.999419 1.00466 0.991443
0.999879 1.0029 0.992342
0.998475 1.00249 0.994421
0.99807 1.00481 0.992583
0.998899 1.00507 0.9912
0.999507 1.00501 0.990901
0.999821 1.00474 0.990266
0.999819 1.00496 0.990116
1.00018 1.00433 0.990301
0.999937 1.00273 0.992275
1.00016 1.00432 0.990151
0.999909 1.00256 0.992451
0.999884 0.999427 0.996332
0.999884 1.00258 0.992469
0.99974 0.99941 0.996164
0.999906 0.997407 0.997946
0.999676 0.999468 0.99585
0.999927 0.997475 0.999121
0.999923 0.997524 0.997818
1.00028 1.00209 0.992441
0.999874 1.00067 0.994393
0.999902 1.00082 0.994223
1.00003 0.998366 0.996468
0.999981 1.00114 0.993841
1.00009 0.998444 0.996304
0.999977 0.996967 0.999197
1.00006 0.998822 0.996524
0.999931 0.997329 0.998499
0.999913 0.997681 0.997655
0.999534 0.994788 0.980483
1.00546 0.994813 0.991213
1.00514 0.994835 0.990808
0.996278 0.994804 0.96219
1.00308 0.99482 0.980238
1.00548 0.994772 0.991338
1.00361 0.994758 0.985892
0.998331 0.994765 0.963087
0.999444 0.994856 0.937888
0.996781 0.994776 0.875481
0.994703 0.994848 0.806744
0.999563 1.0029 0.992381
1.00024 1.00189 0.992664
1.00038 1.00216 0.992241
0.999852 1.00309 0.992059
0.998441 1.00481 0.992936
1.00028 1.00308 0.991458
1.00013 1.00388 0.991023
1.00013 1.00269 0.992025
1.00547 0.994793 0.990853
1.00535 0.994874 0.990442
1.00528 0.994871 0.990116
1.00315 0.998494 0.991668
1.00438 0.997048 0.990042
1.001 0.999074 0.994061
1.00362 1.00261 0.988843
1.00278 1.00344 0.98763
1.00151 1.00198 0.990501
1.00176 1.00495 0.987487
1.00023 1.00352 0.991208
0.99642 1.00343 0.997319
1.00422 0.995446 0.990831
0.99757 1.00474 0.993978
1.00158 1.00313 0.989731
1.00501 0.994819 0.990659
1.0043 0.997085 0.990105
1.003 0.996286 0.993212
0.999928 1.00323 0.992241
0.999636 1.00234 0.99363
1.0031 0.99597 0.989479
1.0032 0.998683 0.990903
1.00377 0.99746 0.991638
1.00108 0.997384 0.99525
0.998891 1.00484 0.992082
0.997997 1.00496 0.992964
0.998126 1.0042 0.994149
0.999816 0.995376 0.858086
1.00041 0.994883 0.938927
0.99852 1.00414 0.994523
1.00266 1.00452 0.986257
1.00302 0.994777 0.990381
1.00397 0.998506 0.990421
1.00412 0.999805 0.988502
1 0.994837 0.936238
0.995858 0.994786 0.956796
0.996318 0.997083 0.988053
0.996335 0.994788 0.872547
0.994809 0.994854 0.795615
0.998311 1.00464 0.993148
0.999845 0.994874 0.855172
0.994717 0.994849 0.791705
1.00091 0.997549 0.992854
1.00131 1.00151 0.990833
1.00121 1.00014 0.993471
0.994894 0.997939 0.991782
0.996991 0.99472 0.931207
0.994879 0.994798 0.953666
0.994768 0.994794 0.874031
0.99479 0.994924 0.78272
0.99698 1.00506 0.995543
0.994755 0.994793 0.785176
0.994745 0.994758 0.785756
0.996714 1.00161 0.997306
0.99933 1.00176 0.996605
0.994893 0.999042 0.988104
0.994929 0.994822 0.957394
0.994849 0.994711 0.926697
0.994798 0.994865 0.876949
0.994871 0.99488 0.795312
0.996555 1.00329 0.997531
0.996585 1.00506 0.996597
0.995731 1.0045 0.997374
1.00044 1.00399 0.990092
1.00086 1.00468 0.989301
0.999459 1.00507 0.990644
0.999018 1.00489 0.991385
0.997397 1.00372 0.995026
1.00055 1.00469 0.989497
0.99861 1.00385 0.993364
0.999944 1.00501 0.990216
0.995876 1.00483 0.996093
0.995287 1.00524 0.997701
0.997908 1.00471 0.99381
1.00024 1.00491 0.990476
1.00055 1.00437 0.989901
0.999434 1.00313 0.992466
0.999421 1.00443 0.991419
1.00004 1.00264 0.992254
0.998107 1.00286 0.994706
0.998225 1.00435 0.992531
0.997342 1.00507 0.993768
0.998037 1.00186 0.996285
0.999732 1.00204 0.993533
1.00383 0.999429 0.990599
0.998441 1.00471 0.991818
0.998495 1.00468 0.992599
0.99917 1.0051 0.990094
0.999153 1.00507 0.991259
1.00005 1.00497 0.989809
0.999411 1.00504 0.990907
0.999934 1.00469 0.990348
0.999893 1.00306 0.991841
1.00026 1.00435 0.990215
0.999933 1.00271 0.992285
1.00002 0.999451 0.996076
0.999896 1.00257 0.992471
0.999868 0.999418 0.995966
1.00003 0.997324 0.997768
0.999735 0.999412 0.995873
0.999958 0.99737 0.999135
0.999923 0.997451 0.999132
1.00036 1.00257 0.992133
0.999921 1.00088 0.99417
1.00024 1.00211 0.992456
1.00002 0.998292 0.996537
0.999901 1.00064 0.994383
0.999914 1.00082 0.994215
1.00004 0.998352 0.996458
0.999994 0.996887 0.999223
1.00007 0.998487 0.996827
0.999983 0.996993 0.998626
0.999952 0.997275 0.997962
0.999388 0.995035 0.842077
0.994752 0.994836 0.784046
0.996087 0.994815 0.962811
1.00282 0.994766 0.980767
1.00554 0.994738 0.991353
0.998949 0.994856 0.961148
1.00335 0.994666 0.986516
0.999872 0.994866 0.933381
0.996326 0.994737 0.85385
0.994741 0.994911 0.801206
0.997742 0.994741 0.970844
0.996661 0.994776 0.939151
0.994901 0.99475 0.875162
0.994795 0.99508 0.795132
0.999768 1.00384 0.991941
0.999793 1.00265 0.99246
1.0002 1.00198 0.992657
0.999926 1.00275 0.992407
0.998108 1.0042 0.993829
1.00031 1.00425 0.990185
0.999762 1.00374 0.991614
1.00071 1.00403 0.989635
1.00013 1.00384 0.990893
0.999709 1.0033 0.99194
1.00413 0.994776 0.991143
1.00489 0.994825 0.990621
1.00354 0.997523 0.990372
1.00233 0.995988 0.993113
1.00017 1.00226 0.993754
0.999806 1.00351 0.990614
1.00037 1.003 0.991836
0.997659 1.0046 0.993831
1.00222 0.995486 0.990067
0.998838 1.00501 0.991864
0.997718 1.00492 0.99324
1.00298 0.998568 0.990781
1.00331 0.997512 0.991648
1.00074 0.997428 0.995679
0.998271 1.00412 0.994132
0.999611 0.995486 0.98871
1.00056 0.999753 0.994985
0.996969 1.00251 0.996823
0.998579 1.0045 0.991656
0.997224 1.0052 0.993116
0.997334 1.00487 0.994682
0.994729 0.994803 0.806325
0.999815 0.994882 0.864617
1.00011 0.995076 0.923665
0.998591 1.0049 0.993087
1.00157 1.00178 0.990809
1.0009 0.997548 0.992683
1.00104 0.999898 0.99395
0.999845 0.995126 0.870263
0.996695 0.994766 0.924471
0.994892 0.994758 0.953569
0.994919 0.998763 0.992458
0.994773 0.994738 0.858023
0.994681 0.994826 0.798293
0.994825 0.995064 0.798914
0.997084 1.00478 0.995218
0.994743 0.994807 0.794605
0.994766 0.994764 0.785102
0.996764 1.00003 0.997988
0.998849 1.00169 0.996525
0.994907 0.997642 0.989913
0.994979 0.994806 0.955402
0.99485 0.994727 0.938343
0.994761 0.995119 0.856955
0.99515 0.994884 0.805084
0.996247 1.00416 0.999013
0.994756 0.9948 0.793606
0.994813 0.994825 0.785364
0.994844 1.00239 0.999927
0.994956 0.996713 0.965391
0.99478 0.994809 0.9351
0.994906 0.994931 0.852488
0.995796 0.994897 0.821095
0.99723 1.00445 0.996203
0.996182 1.00451 0.997591
0.995349 1.00411 0.998771
1.00036 1.00476 0.989456
1.00014 1.005 0.990215
0.998687 1.00369 0.992878
0.995907 1.00455 0.996339
0.999678 1.00493 0.990485
0.997698 1.0048 0.99381
0.995138 1.00516 0.997882
0.994772 1.00496 0.998708
0.995424 1.00504 0.997621
0.998366 1.00509 0.993291
0.999559 1.00449 0.991387
1.00011 1.00232 0.992171
0.997635 1.00326 0.994983
0.997502 1.00495 0.993835
0.998984 1.00405 0.992486
0.997336 1.0027 0.996301
0.997632 1.00388 0.995029
0.995412 1.00515 0.997735
1.00108 0.998783 0.995263
0.999275 1.00145 0.994425
1.00208 0.999991 0.99136
1.00477 0.99976 0.988036
1.00284 1.00133 0.990018
1.00289 0.99904 0.991487
0.999166 1.00447 0.991601
0.999415 1.00513 0.98955
0.999054 1.00453 0.992617
0.99985 1.00509 0.990125
1.00049 1.00508 0.988839
0.999637 1.005 0.991312
1.00007 1.00506 0.989813
0.999993 1.00372 0.991042
1.00002 1.00471 0.990431
0.999984 1.00312 0.991845
1.00016 0.999593 0.995752
1.00002 1.00258 0.992296
1.00001 0.999486 0.995669
1.00012 0.997407 0.997577
0.99987 0.999394 0.995667
1.00002 0.997325 0.998451
0.999973 0.997338 0.999114
1.00032 1.00347 0.990879
1.00005 1.00113 0.993757
1.00024 1.00264 0.991924
1.00004 0.998347 0.996458
0.999931 1.00081 0.994186
1.00025 1.00199 0.992472
1.00002 0.996829 0.999236
1.00002 0.998299 0.996536
0.999901 1.00068 0.994376
1.00006 0.998338 0.996448
0.999997 0.996904 0.999217
0.999974 0.996984 0.99919
0.994719 0.994774 0.783769
0.99938 0.994859 0.855591
0.994774 0.994776 0.784654
0.994762 0.994821 0.785042
0.998475 0.994869 0.96058
1.00291 0.994719 0.987138
0.999588 0.99481 0.928049
0.996883 0.994779 0.875226
0.994781 0.994845 0.795636
0.998167 0.9948 0.969698
0.996783 0.994742 0.924489
0.994765 0.994753 0.87376
0.994748 0.994913 0.787563
0.99491 0.994778 0.961825
0.994934 0.994693 0.925083
0.99482 0.995971 0.849923
0.994837 0.994885 0.798532
1.00058 1.00462 0.990393
0.999175 1.0039 0.992098
0.999936 1.00251 0.992534
0.99748 1.00366 0.994725
1.00093 1.0037 0.989549
1.00011 1.00432 0.990392
0.999203 1.00403 0.991775
1.0012 1.00348 0.989783
1.00079 1.00432 0.98961
1.00024 1.00361 0.990765
1.00202 0.994798 0.99061
1.00266 0.998383 0.990684
1.00328 0.997385 0.991657
1.00021 0.997414 0.996114
0.999485 1.00428 0.994095
0.997975 1.00485 0.993518
0.998822 1.0051 0.991656
0.999604 1.00415 0.991434
0.999367 0.99649 0.989398
0.998246 1.00513 0.992739
0.99823 1.00456 0.994635
1.00033 0.999575 0.995161
0.998231 1.00129 0.996722
0.996004 1.00093 0.988542
0.996651 1.00119 0.999901
0.994904 1.00515 0.997421
0.997456 1.00457 0.994307
0.996337 1.00518 0.995477
0.994778 0.994792 0.800304
0.994727 0.994773 0.801515
0.999825 0.995352 0.844971
0.997356 1.00497 0.994949
0.998721 1.00118 0.996453
0.996986 0.99951 0.998667
0.994718 0.994792 0.791806
0.994785 0.994716 0.925913
0.99494 0.9948 0.955241
0.99491 0.995949 0.992171
0.994779 0.994958 0.876853
0.994791 0.99477 0.785448
0.995631 0.994875 0.807003
0.996335 1.00397 0.999233
0.994768 0.994808 0.795722
0.994799 0.994824 0.786596
0.994936 1.00242 0.998869
0.994905 0.995826 0.967215
0.994828 0.994796 0.922585
0.995512 0.994896 0.815942
0.995272 0.997573 0.861515
0.994822 1.00511 1.00051
0.994783 0.994833 0.782509
0.994867 0.994842 0.800406
0.994843 0.994881 0.798205
0.9948 0.999392 0.988348
0.99487 0.995361 0.938756
0.997526 0.994886 0.873674
0.996594 1.00511 0.997826
0.995502 1.00483 0.998547
0.995244 1.00523 0.998905
0.999446 1.00492 0.990498
0.997645 1.00495 0.993811
0.994842 1.00527 0.998068
0.997776 1.00511 0.993335
0.995521 1.00509 0.997633
0.99478 1.00528 0.998604
0.994845 1.00516 0.998848
0.995446 1.00509 0.997704
0.997317 1.0049 0.993929
0.999592 1.00381 0.992437
0.996875 1.0034 0.996316
0.995456 1.00488 0.997663
0.997212 1.00411 0.995013
0.998282 1.00095 0.997385
0.998205 0.998738 0.999106
1.00186 1.00035 0.990405
0.998909 1.00085 0.99525
1.0024 0.999917 0.990997
1.00445 1.00137 0.986366
1.0048 1.00241 0.984712
1.0046 0.999438 0.988508
1.00388 0.999949 0.98801
1.00186 1.00353 0.988616
1.00183 1.00172 0.990295
1.00183 0.998716 0.992345
0.999878 1.00423 0.991383
0.999958 1.00513 0.989377
1.00074 1.00513 0.988013
1.00043 1.0051 0.99016
1.00074 1.00503 0.988819
1.00035 1.00423 0.989992
1.00022 1.00497 0.989812
1.00013 1.00363 0.991023
1.00019 0.999956 0.99536
1.00001 1.00316 0.991846
1.00014 0.999656 0.995301
1.00023 0.997498 0.997326
1.00001 0.99951 0.995339
1.00011 0.997378 0.998316
1.00006 0.997322 0.999043
1.0007 1.00356 0.989967
1.00011 1.00161 0.99277
1.00043 1.00335 0.990888
1.00011 0.998495 0.996214
1.00006 1.00111 0.993569
1.00021 1.00265 0.991713
1.00004 0.996846 0.999213
1.00005 0.998319 0.996473
0.999984 1.00067 0.9942
1.00001 0.996861 0.999233
1.00001 0.998309 0.996536
0.999999 0.996899 0.999211
0.994814 0.994808 0.790754
0.994728 0.994817 0.798661
0.999371 0.994826 0.854283
1.0009 1.00339 0.990117
0.994785 0.994801 0.790667
0.994773 0.994783 0.784571
0.994798 0.994823 0.7998
0.998381 0.994815 0.969264
0.996621 0.994753 0.938959
0.994909 0.994833 0.856626
0.994713 0.994854 0.798824
0.995731 0.994781 0.959442
0.99486 0.994749 0.937407
0.994719 0.99495 0.85343
0.994856 0.994892 0.800788
0.994849 0.994787 0.953975
0.994769 0.994811 0.933411
0.996244 0.997022 0.864899
0.995535 0.994901 0.821289
0.999141 1.00413 0.991944
0.999795 1.00461 0.990578
0.999346 1.00354 0.99226
1.00124 1.00231 0.990617
1.00092 1.00404 0.989597
1.00001 1.00461 0.990596
1.00132 1.00349 0.989703
1.00085 1.00435 0.989589
0.99837 0.997319 0.989912
0.999615 0.999369 0.995249
0.999483 1.00428 0.9912
0.999656 1 0.996629
0.998703 1.00411 0.994592
0.998964 1.00512 0.99234
0.997771 1.00442 0.993822
0.995559 1.00016 0.98883
0.997186 1.00509 0.995271
0.996169 1.00364 0.997626
0.995889 1.00102 0.999975
0.996712 1.00464 0.995578
0.994798 1.00156 0.986092
0.995259 1.00311 0.998661
0.995729 1.00482 0.997709
0.996664 1.00547 0.996043
0.994758 0.994811 0.786597
0.994774 0.994797 0.796943
0.994721 0.994745 0.796499
0.996273 1.00405 0.999431
0.994942 1.00168 0.997768
0.994783 0.994817 0.797638
0.994743 0.994851 0.936784
0.994943 0.995788 0.964194
0.995423 0.996191 0.859915
0.99479 0.994824 0.787571
0.994891 0.994906 0.810711
0.994963 1.0051 1.00038
0.994784 0.994831 0.782842
0.994874 0.994855 0.799535
0.994837 1.00006 0.99209
0.994861 0.994887 0.800617
0.994838 0.996767 0.931217
0.996504 0.997424 0.87545
0.995246 1.00394 0.997231
0.99484 0.994843 0.794218
0.994798 0.994816 0.79257
0.994804 0.994985 0.794599
0.996296 0.997154 0.86475
0.994896 1.00108 0.971302
0.995038 0.996523 0.923976
0.995948 1.00513 0.998337
0.995273 1.00521 0.998954
0.994802 1.00528 0.998109
0.99715 1.00512 0.993376
0.995037 1.00499 0.997648
0.994794 1.00533 0.998542
0.995221 1.00471 0.997678
0.994849 1.00507 0.998853
0.997427 1.00213 0.998937
0.995349 1.00464 0.997582
0.996592 1.0044 0.995038
0.997623 1.00138 0.997854
0.99795 1.00054 0.995173
0.995463 0.998848 1.0026
1.00145 1.00003 0.991712
1.00435 1.00435 0.982698
1.00428 1.00311 0.98437
1.00277 0.999805 0.990549
1.00424 1.00165 0.985917
1.00507 1.00224 0.984124
1.00513 1.00152 0.985359
1.00434 1.00229 0.984946
1.00409 1.00043 0.988069
1.0039 0.999964 0.988367
1.00321 1.00009 0.988009
1.00086 1.00511 0.987792
1.0014 1.00385 0.988718
1.00077 1.00209 0.99057
1.00058 1.00513 0.989206
1.0011 1.00512 0.988042
1.00059 1.0048 0.988903
1.00097 1.00507 0.988799
1.0005 1.00412 0.989982
1.0002 1.0004 0.994082
1.00033 1.00367 0.991013
1.00023 1 0.9945
1.00012 0.997638 0.998795
1.00014 0.99976 0.994931
1.00019 0.997459 0.998141
1.00014 0.997362 0.998948
1.00065 1.00375 0.989921
1.00032 1.00229 0.991839
1.00063 1.00367 0.990164
1.00019 0.998776 0.995827
1.00022 1.00162 0.992657
1.00047 1.00335 0.990891
1.00007 0.99691 0.999155
1.00012 0.998445 0.996234
1.00006 1.00109 0.993381
1.00004 0.996836 0.999222
1.00005 0.998291 0.996488
1.00001 0.996874 0.99923
0.994781 0.994822 0.791915
0.994807 0.994807 0.79115
0.99472 0.99483 0.797852
1.00104 1.00333 0.990077
1.00023 1.00468 0.98942
1.00175 1.0015 0.99128
0.994867 0.994857 0.799286
0.994795 0.994803 0.791786
0.99478 0.994773 0.784654
0.996558 0.994768 0.959597
0.994835 0.994717 0.925256
0.994745 0.995664 0.875391
0.994849 0.994867 0.794994
0.994905 0.994788 0.955075
0.994808 0.99501 0.929152
0.996123 0.997073 0.862629
0.995335 0.994906 0.816001
0.99489 0.994863 0.95355
0.994876 0.995327 0.933394
0.997194 0.994899 0.873516
0.994858 0.994882 0.796972
0.998638 1.00289 0.993758
0.999664 1.00377 0.991752
0.999739 1.00456 0.990763
1.00121 1.0024 0.99054
1.00056 1.0045 0.98964
1.00139 1.00355 0.989623
0.995401 1.00031 0.989465
0.995674 1.00117 1.00016
0.998745 1.00342 0.993356
0.997865 1.0026 0.997701
0.997994 1.00478 0.995072
0.99648 1.00412 0.995984
0.996086 1.00526 0.995962
0.994785 1.00283 0.986017
0.995366 1.0052 0.997966
0.99489 1.00371 0.997886
0.99571 1.00483 0.997781
0.99501 1.00029 0.984331
0.995121 1.00514 0.994606
0.994808 1.00314 0.999119
0.994867 0.994848 0.786322
0.994767 0.994821 0.785642
0.994771 0.994797 0.793622
0.994998 1.00507 1.00022
0.994857 1.00026 0.987665
0.994783 0.994829 0.783186
0.994807 0.996567 0.93093
0.996211 0.994877 0.860665
0.994883 0.994851 0.798633
0.994858 0.994864 0.794926
0.995049 1.00364 0.997747
0.994825 0.994843 0.793553
0.994814 0.994805 0.793815
0.994927 1.00118 0.968464
0.99477 0.994919 0.787306
0.995907 0.997422 0.862271
0.99485 0.996355 0.937954
0.995 1.00515 0.98849
0.99478 0.994827 0.793321
0.994777 0.994794 0.785926
0.994755 0.994887 0.807258
0.994809 0.995416 0.848511
0.994857 0.996184 0.934524
0.994841 1.00134 0.962442
0.995086 1.00519 0.998943
0.994901 1.00526 0.998054
0.995193 1.00514 0.997605
0.995613 1.00444 0.997654
0.994877 1.00518 0.99881
0.995949 1.00386 0.998828
0.998411 1.00057 0.99873
0.996894 1.0019 0.998295
1.00054 1.00029 0.994132
1.00192 1.00495 0.986726
1.00085 0.999708 0.993458
1.00423 1.00421 0.983591
1.00422 1.00368 0.983123
1.00504 1.00065 0.985297
1.00504 1.00162 0.984702
1.00428 1.00303 0.98435
1.00421 1.00199 0.985477
1.00505 1.00236 0.984209
1.0051 1.00206 0.984281
1.00511 1.0008 0.98596
1.00466 1.00166 0.98549
1.00374 1.00216 0.985189
1.00191 1.00336 0.988207
1.00352 1.00114 0.987928
1.00317 1.00058 0.988204
1.00082 1.00518 0.988092
1.00134 1.00511 0.987784
1.00075 1.00409 0.988821
1.00151 1.00511 0.988074
1.0009 1.00464 0.988923
1.00016 1.00118 0.993359
1.00079 1.00392 0.989966
1.00024 1.00043 0.994053
1.0002 0.997841 0.998709
1.00027 0.999978 0.994494
1.00022 0.997654 0.997971
1.00019 0.997479 0.998844
1.00133 1.00357 0.989424
1.00055 1.00266 0.99138
1.00089 1.00351 0.989901
1.00025 0.999153 0.995327
1.00033 1.00229 0.991923
1.00056 1.00371 0.990364
1.0001 0.997028 0.999067
1.0002 0.998692 0.995853
1.00029 1.00162 0.992545
1.00007 0.996887 0.999173
1.00013 0.998399 0.996254
1.00004 0.996859 0.999231
0.994829 0.994844 0.792372
0.994783 0.994837 0.79229
0.994808 0.994808 0.791482
0.999845 1.00527 0.989346
1.00204 1.00219 0.991334
1.00086 1.00332 0.990042
1.00038 1.00458 0.989296
1.00062 1.00182 0.991742
1.0004 1.00282 0.991177
0.998874 1.00147 0.99448
0.994827 0.994832 0.787206
0.994867 0.994858 0.798415
0.994797 0.994831 0.792888
0.994888 0.994913 0.810658
0.995425 0.994788 0.953976
0.994803 0.995917 0.923412
0.995989 0.994938 0.875813
0.994889 0.995194 0.952869
0.994853 0.998215 0.91965
0.99646 0.997312 0.874663
0.99509 0.994883 0.80653
0.994968 0.995769 0.956953
0.99486 0.998218 0.921681
0.994914 0.994912 0.852874
0.994765 0.994889 0.78645
0.996219 1.00459 0.996203
0.998383 1.00328 0.994329
0.999472 1.00425 0.991557
1.00108 1.00291 0.99047
0.994793 1.00209 0.985809
0.994682 1.00396 0.997093
0.996354 1.00445 0.996394
0.996678 1.00524 0.995885
0.994999 1.00525 0.998384
0.99522 1.00501 0.997672
0.995829 1.00359 0.99923
0.995218 1.00086 0.981241
0.995348 1.00516 0.994708
0.995911 1.0031 0.999334
0.995486 1.00195 0.977285
0.994717 1.00317 0.999422
0.99476 0.99483 0.7886
0.99485 0.994847 0.790839
0.994777 0.994838 0.784666
0.994859 1.00374 0.998254
0.994887 1.00117 0.972147
0.99481 0.994847 0.792913
0.994887 0.997297 0.925179
0.99591 0.994908 0.875689
0.994807 0.994834 0.794869
0.994732 0.994866 0.798268
0.99494 1.00512 0.989524
0.99479 0.994837 0.793746
0.994765 0.994798 0.785902
0.994832 1.00061 0.962551
0.994785 0.994871 0.801815
0.994768 0.995288 0.851858
0.994872 0.996502 0.921486
0.994865 1.00406 0.98361
0.994829 0.994815 0.791116
0.994735 0.994842 0.785113
0.994712 0.994729 0.875365
0.994791 0.994882 0.933705
0.994814 0.999865 0.957334
0.994948 1.00525 0.998512
0.995239 1.00474 0.997655
0.99608 1.00339 0.997503
0.995055 1.0048 0.998723
0.996598 1.00306 0.998994
1.00075 1.00065 0.994447
1.00301 0.99999 0.993107
1.00279 1.0049 0.985805
1.0044 1.00206 0.984742
1.00388 1.00403 0.984485
1.00446 1.0036 0.983088
1.00478 1.00154 0.984843
1.00525 0.998104 0.987259
1.00511 1.0002 0.98599
1.00499 1.00082 0.985329
1.00508 1.00169 0.984784
1.00503 1.0015 0.984686
1.00427 1.003 0.984327
1.0051 1.00283 0.983603
1.00505 1.00242 0.984236
1.00512 1.00195 0.984444
1.00383 1.00149 0.987766
1.00423 1.00147 0.986395
1.00433 1.00168 0.985625
1.00149 1.00471 0.98747
1.00212 1.00324 0.988208
1.003 1.00206 0.98779
1.00034 1.00172 0.99251
1.00108 1.00509 0.988134
1.0017 1.00511 0.987776
1.00106 1.00452 0.988942
1.00019 1.00118 0.993339
1.00017 0.998191 0.998567
1.00024 1.00049 0.994026
1.0002 0.997846 0.998675
1.00022 0.997609 0.998751
1.00079 1.00479 0.989726
1.0013 1.00512 0.988687
1.00083 1.00312 0.990465
1.00102 1.00399 0.989418
1.00025 0.999618 0.994857
1.00052 1.00272 0.991375
1.00099 1.00354 0.989883
1.00012 0.997305 0.998947
1.00025 0.999135 0.995351
1.00039 1.0023 0.992004
1.0001 0.997023 0.999094
1.00021 0.998658 0.995883
1.00007 0.996864 0.999193
0.994792 0.994848 0.784304
0.994824 0.994836 0.79174
0.994788 0.994829 0.792657
1.00032 1.00527 0.989142
1.00057 1.00161 0.991694
1.00206 1.00145 0.98838
0.998626 1.00363 0.991503
1.00198 0.999703 0.992149
1.0008 1.00451 0.989166
0.999931 1.00256 0.99221
1.00028 1.00373 0.991193
0.99943 1.001 0.995101
0.999027 1.00359 0.994535
0.994759 0.994766 0.787145
0.994806 0.994836 0.788565
0.994868 0.994845 0.797533
0.995353 0.994871 0.808347
0.995975 0.994893 0.860444
0.994871 0.994907 0.951839
0.99485 0.995921 0.932386
0.995188 0.996236 0.952703
0.994882 0.997108 0.934188
0.995136 0.997772 0.862231
0.994785 0.9949 0.78437
0.994933 0.998332 0.955068
0.994818 0.996297 0.934033
0.994793 0.994879 0.877527
0.99472 0.995039 0.809666
0.998556 1.00017 0.996689
0.995951 1.00477 0.996558
0.99852 1.00285 0.994917
0.995192 1.00259 0.977757
0.995022 1.00515 0.99437
0.995005 1.00513 0.997514
0.994729 1.00442 0.999369
0.995449 1.00347 0.999195
0.994734 1.00205 0.999888
0.994822 1.00193 0.97764
0.996068 1.00138 1.00142
0.994898 1.00049 0.984562
0.994797 0.994816 0.800506
0.994785 0.99484 0.787563
0.994833 0.994839 0.795506
0.994973 1.00513 0.989852
0.994855 0.999924 0.960366
0.994808 0.994842 0.794176
0.994856 0.996198 0.933735
0.994777 0.99518 0.872834
0.994769 0.994774 0.786195
0.994819 0.994855 0.796317
0.995167 1.00474 0.984319
0.994816 0.994815 0.791302
0.994758 0.994836 0.78602
0.994897 0.99854 0.958435
0.994734 0.994752 0.873665
0.994801 0.995496 0.926745
0.995128 1.00256 0.981525
0.994718 0.994791 0.784434
0.996715 0.994763 0.875732
0.99478 0.994721 0.924833
0.994839 0.994864 0.958483
0.995431 1.00515 0.997748
0.995512 1.00409 0.997413
0.99776 1.00068 0.997838
0.994844 1.00514 0.99928
0.99953 1.00125 0.995305
1.00437 0.996063 0.991598
1.00372 1.00499 0.984856
1.00432 1.00206 0.984611
1.00479 0.998661 0.987349
1.00477 1.00363 0.983049
1.00477 1.00137 0.984903
1.00505 0.997875 0.987885
1.00533 0.995597 0.989531
1.00528 0.997746 0.987324
1.00526 0.998005 0.987298
1.00519 1.00017 0.986055
1.0051 1.00025 0.985933
1.00489 1.00092 0.985361
1.00519 1.00259 0.983723
1.00507 1.0016 0.984703
1.00498 1.00135 0.984671
1.00504 1.00227 0.985024
1.00466 1.00314 0.984009
1.00506 1.00252 0.984262
1.00219 1.00374 0.987222
1.0033 1.00164 0.987686
1.00362 1.00194 0.986824
1.00055 1.00272 0.992389
1.0016 1.00476 0.98756
1.00231 1.00314 0.988209
1.00024 0.998863 0.995893
1.00041 1.00187 0.992937
1.00131 1.00497 0.988178
1.00027 1.00124 0.993312
1.0002 0.998331 0.998493
1.00022 0.997908 0.998637
1.0016 1.00302 0.988922
1.00164 1.00517 0.988038
0.999758 1.00488 0.989628
1.00081 1.00419 0.989468
1.00088 1.00484 0.98865
1.00016 1.00016 0.994436
1.00067 1.00338 0.990469
1.00077 1.0044 0.989406
1.0001 0.997608 0.998851
1.00025 0.999563 0.994884
1.00049 1.00274 0.991371
1.0001 0.997256 0.998984
1.00025 0.999063 0.995373
1.0001 0.996973 0.999121
0.994775 0.99482 0.800266
0.994797 0.994845 0.784706
0.99481 0.994853 0.791047
1.0033 1.00253 0.986068
1.0003 1.00506 0.988943
1.00023 1.00202 0.992131
1.00016 1.00461 0.990964
1.00322 1.00135 0.988455
1.00151 1.00009 0.993809
1.00399 1.00137 0.987303
0.996503 1.00444 0.994619
0.99944 1.0041 0.991208
0.999348 0.999546 0.995723
0.997575 1.00339 0.994503
0.998429 1.00241 0.994778
0.994775 0.994857 0.799291
0.994779 0.994774 0.786523
0.994797 0.99484 0.78964
0.994823 0.995839 0.800252
0.995281 0.996373 0.860674
0.994876 0.998168 0.921779
0.995786 0.995047 0.952127
0.995216 0.997947 0.955652
0.994747 0.995571 0.803614
0.994845 0.996688 0.925421
0.994736 0.99592 0.857669
0.994885 0.99646 0.9609
0.994772 0.994829 0.936063
0.994756 0.995029 0.875929
0.999906 0.995083 1.00116
0.998867 1.00073 0.996526
0.995451 1.00519 0.996888
0.994929 1.00169 0.977709
0.995809 1.00052 1.00029
0.995833 1.00293 0.999121
0.996649 0.999982 1.00179
0.994911 0.999531 0.984668
0.995753 0.998903 0.992481
0.994718 0.994796 0.8012
0.994789 0.994814 0.800909
0.994804 0.994839 0.786345
0.994952 1.00448 0.984474
0.994863 0.999813 0.957528
0.994797 0.99482 0.791755
0.994833 0.995396 0.921263
0.994713 0.994731 0.856882
0.994811 0.994847 0.800338
0.994926 1.00491 0.981198
0.994729 0.99483 0.799031
0.99641 0.994735 0.85395
0.99489 0.995264 0.953924
0.994832 0.994741 0.937301
0.994913 1.00057 0.990017
0.999486 0.995051 0.841763
0.996662 0.994777 0.939296
0.994907 0.994782 0.952397
0.99481 1.00521 0.997289
0.997224 1.00168 0.99759
1.00059 0.998878 0.993862
0.99858 1.00146 0.996161
1.004 0.996491 0.991312
1.00491 0.996142 0.99017
1.00421 1.00197 0.984483
1.00479 0.998624 0.987242
1.00509 0.996012 0.98939
1.00472 1.00106 0.98497
1.00497 0.997824 0.987834
1.00536 0.994946 0.990122
1.00529 0.994876 0.990851
1.00532 0.995719 0.989469
1.00534 0.995557 0.989574
1.00536 0.99768 0.987351
1.00528 0.997712 0.987509
1.00527 0.997915 0.987335
1.0053 1.00095 0.984913
1.00519 1.00006 0.985972
1.00509 1.00029 0.985873
1.0053 1.00326 0.98297
1.00518 1.00262 0.983752
1.00507 1.00148 0.98462
1.00307 1.00308 0.986726
1.0043 1.00281 0.984976
1.00402 1.00352 0.984418
1.00103 1.00321 0.989949
1.00251 1.00357 0.987197
1.00283 1.00198 0.987595
0.999896 1.00003 0.997973
1.00071 1.00261 0.991064
1.00186 1.00474 0.987648
1.00024 0.998815 0.998236
1.00048 1.00189 0.992345
1.00024 0.998356 0.998406
1.00446 1.00142 0.987284
1.00235 1.00239 0.988604
1.00197 1.00433 0.987814
1.00113 1.00483 0.98867
1.0012 1.00516 0.98803
1.00013 1.00484 0.989529
1.00005 1.00107 0.993802
1.00073 1.00431 0.989474
1.00089 1.00436 0.988606
1.00008 0.997867 0.998748
1.00015 1.00016 0.99445
1.00047 1.00371 0.990469
1.00009 0.997566 0.998876
1.00025 0.999548 0.994906
1.00009 0.997206 0.999021
0.994746 0.994786 0.787175
0.99479 0.994819 0.800615
0.994804 0.99484 0.785171
1.00336 1.00309 0.985947
1.00466 1.00373 0.985371
1.00221 1.00415 0.986858
0.999971 1.00459 0.99042
1.00424 1.00096 0.988547
0.999144 0.999344 0.995364
0.998202 1.00323 0.994206
1.00211 1.00208 0.98883
1.00131 0.999985 0.992514
0.99871 1 0.996395
0.998164 1.00362 0.994443
0.999403 1.00291 0.994214
0.996705 0.994799 0.848558
0.99474 0.994844 0.793126
0.994794 0.994781 0.786827
0.994793 0.99486 0.797096
0.994778 0.995026 0.8775
0.994851 0.995664 0.921489
0.99485 0.997226 0.954549
0.994884 0.996992 0.958239
0.995002 0.994809 0.874264
0.99482 0.995233 0.923254
0.994864 0.997386 0.962169
0.995282 0.994704 0.926092
0.999083 0.995441 1.00444
0.999758 0.995102 1.00116
0.998596 1.00041 0.996516
0.994844 0.999252 0.984927
0.996522 0.999438 1.00216
0.996061 0.998991 0.99208
0.995582 0.996294 0.990052
0.999814 0.995999 0.856371
0.994719 0.994775 0.797842
0.994789 0.994821 0.801023
0.994838 1.00454 0.981713
0.994901 0.99487 0.952017
0.994722 0.994839 0.798025
0.994856 0.994711 0.925812
0.996721 0.994766 0.875416
0.994975 0.998432 0.986416
0.999435 0.99486 0.855647
0.996765 0.994735 0.924777
0.994889 0.994805 0.953372
0.995878 0.998487 0.986489
0.999488 0.994847 0.938057
0.994941 0.994801 0.960212
0.996382 1.00168 0.997366
0.999774 0.999488 0.993825
1.00321 0.998656 0.991333
1.00319 0.997507 0.991045
1.00475 0.99612 0.990078
1.00516 0.995301 0.990316
1.00485 0.998609 0.987138
1.00501 0.996355 0.989302
1.00534 0.99479 0.990223
1.00494 0.997818 0.987779
1.00536 0.994974 0.990072
1.00528 0.99482 0.990735
1.00532 0.994845 0.990814
1.00529 0.994873 0.990887
1.00527 0.995011 0.990863
1.00532 0.996173 0.989416
1.00532 0.995755 0.989623
1.00535 0.995508 0.989619
1.00539 0.99874 0.986696
1.00535 0.997748 0.987273
1.00528 0.997662 0.987694
1.00541 1.00245 0.983324
1.00532 1.00099 0.984926
1.0052 0.999982 0.98589
1.00431 1.00307 0.984881
1.00517 1.00315 0.983091
1.00515 1.00266 0.983783
1.00138 1.00343 0.989003
1.00303 1.00314 0.986624
1.00377 1.00283 0.984937
1.00023 1.00047 0.997521
1.00117 1.00303 0.989965
1.00272 1.00345 0.987163
1.00012 1.00001 0.996554
1.00093 1.00244 0.991114
1.00028 0.999068 0.998072
1.00509 1.00281 0.984428
1.00356 1.00191 0.987119
1.00282 1.00249 0.987549
1.00255 1.00268 0.988289
1.00182 1.00449 0.98785
1.00119 1.00514 0.988178
1.00024 1.00163 0.992943
1.00086 1.00489 0.988645
1.00035 1.00516 0.988029
1.00007 0.998328 0.998538
1.00004 1.00087 0.993825
1.00075 1.00428 0.989482
1.00005 0.997877 0.998782
1.00013 1.00007 0.994486
1.00008 0.997514 0.998903
0.998893 0.99481 0.856895
0.994739 0.99479 0.7933
0.994797 0.994817 0.80109
1.00342 1.00316 0.985837
1.00299 1.00397 0.985652
1.00428 1.00387 0.98499
1.00465 1.00316 0.984424
1.00149 1.00202 0.990585
0.999701 1.00325 0.993827
1.00213 1.00224 0.990339
1.00131 1.00056 0.992717
1.00471 0.995397 0.991448
1.00187 0.998079 0.994668
1.00149 0.998023 0.99544
1.0003 0.998766 0.995992
1.00006 1.00178 0.993631
0.997422 0.994783 0.93591
0.997344 0.994779 0.852806
0.9947 0.994825 0.799402
0.994831 0.994822 0.85914
0.994773 0.994791 0.934395
0.994923 0.996454 0.960158
0.994856 0.996662 0.96391
0.99503 0.994752 0.938899
0.995746 0.994768 0.961937
0.997926 0.996425 1.00264
0.997966 0.996079 1.00454
0.999929 0.995975 1.00104
0.996138 0.998383 0.991816
0.99675 0.996566 0.99066
1.00011 0.995306 0.922844
0.999819 0.994896 0.863327
0.994717 0.994753 0.794575
0.995114 0.998106 0.982402
0.994898 0.994795 0.952967
0.999469 0.994831 0.854555
0.996647 0.994746 0.939037
0.995774 0.997935 0.986758
0.999824 0.994861 0.933317
0.995495 0.994804 0.957977
0.99985 0.995346 0.985125
0.997607 0.994793 0.969511
0.999336 0.999373 0.99379
1.00239 0.997447 0.991345
1.00509 0.994787 0.991206
1.00489 0.995723 0.989976
1.00514 0.995198 0.990261
1.0053 0.994779 0.990537
1.00481 0.996634 0.989213
1.00534 0.994801 0.990185
1.00532 0.99482 0.990474
1.00536 0.995006 0.990021
1.00527 0.994831 0.990728
1.00533 0.994858 0.99062
1.00531 0.994843 0.99082
1.00534 0.99486 0.990792
1.00528 0.994873 0.990922
1.00527 0.995008 0.990871
1.00523 0.995383 0.99052
1.00532 0.997306 0.988473
1.00532 0.996195 0.989415
1.00532 0.995794 0.989777
1.00539 1.0011 0.984538
1.00542 0.998867 0.986481
1.00534 0.997808 0.987195
1.00513 1.00295 0.983443
1.00542 1.00244 0.983393
1.00533 1.00103 0.984938
1.00204 1.00344 0.98783
1.00386 1.00339 0.984917
1.00482 1.00335 0.983211
1.00062 1.00111 0.997058
1.0015 1.00333 0.98898
1.00297 1.0032 0.986532
1.00045 1.00064 0.997336
1.00124 1.00286 0.989986
1.00038 1.00001 0.997617
1.00515 1.00376 0.98361
1.00498 1.00225 0.984506
1.00337 1.00347 0.98595
1.00286 1.00203 0.986939
1.0024 1.00302 0.987515
1.00177 1.00437 0.987458
1.00142 1.00413 0.987878
1.00105 1.00516 0.988124
1.00054 1.00235 0.991838
1.00009 0.99894 0.99824
1.00007 1.00181 0.992951
1.00055 1.00509 0.988621
1.00003 0.998272 0.998617
1.00005 1.0009 0.993815
1.00002 0.997837 0.998811
0.999973 0.994865 0.93822
0.999847 0.994868 0.854623
0.994721 0.99477 0.78703
1.00296 1.00499 0.984431
1.00381 1.00367 0.984603
1.0028 1.00193 0.989283
1.00409 1.00322 0.984554
1.0052 0.999677 0.986118
1.00356 0.997959 0.989726
1.00107 1.00104 0.992893
1.00463 0.995442 0.990971
1.00184 0.997693 0.994741
1.00399 0.99706 0.990787
1.00226 0.998372 0.993274
1.00169 0.998933 0.994198
1.00108 0.998296 0.995517
1.00083 0.999042 0.995604
0.995154 0.994775 0.960636
0.997362 0.994756 0.930994
0.99642 0.994821 0.871889
0.994808 0.994671 0.925656
0.994872 0.996585 0.9643
0.995675 0.995574 0.967621
0.998992 0.994795 0.990852
0.999259 0.995894 1.00154
0.997463 0.996568 1.00465
0.99844 0.998235 0.991355
0.998191 0.994761 0.96199
1.00032 0.994886 0.938318
0.999824 0.995971 0.843558
0.995489 0.99783 0.987215
0.996071 0.994802 0.957955
0.99941 0.994822 0.928048
0.999153 0.996663 0.985689
0.997702 0.994803 0.968457
1.00264 0.99677 0.987603
1.00327 0.994668 0.985056
1.00148 0.99735 0.991344
1.00457 0.994866 0.991271
1.00526 0.994786 0.990719
1.00501 0.995248 0.990208
1.00529 0.994778 0.99049
1.00537 0.99487 0.990442
1.00534 0.994803 0.990146
1.00532 0.994824 0.990472
1.00535 0.994871 0.990519
1.00526 0.994838 0.990721
1.00533 0.994856 0.990644
1.00537 0.994852 0.990674
1.00529 0.99484 0.990827
1.00534 0.994847 0.990785
1.00529 0.995055 0.99085
1.00527 0.995007 0.990879
1.00523 0.995363 0.99054
1.00528 0.996542 0.989417
1.00532 0.999629 0.986215
1.00533 0.997532 0.988146
1.00533 0.996217 0.989415
1.00535 1.00222 0.983672
1.0054 1.00117 0.984565
1.00545 0.998999 0.986266
1.00295 1.00275 0.987121
1.0048 1.00322 0.983462
1.00541 1.00244 0.983464
1.00111 1.00141 0.996621
1.00217 1.00335 0.987735
1.00343 1.00372 0.984955
1.0008 1.00118 0.996903
1.00161 1.00322 0.988961
1.00063 1.00078 0.997166
1.00526 1.00136 0.984728
1.00499 1.00334 0.983556
1.00436 1.0039 0.983755
1.00478 1.00209 0.984588
1.00366 1.00319 0.985621
1.00303 1.00313 0.986393
1.00224 1.00408 0.987489
1.00196 1.00437 0.987452
1.00096 1.00287 0.990474
1.00084 1.00513 0.988082
1.00033 1.0025 0.991841
1.00013 0.999837 0.997813
1.00004 0.998854 0.998355
0.999929 1.00187 0.992971
0.999999 0.998215 0.998686
0.995796 0.994965 0.963982
0.999638 0.994902 0.922503
0.999848 0.995309 0.869622
1.00529 0.997465 0.987871
1.00447 1.00193 0.988008
1.00362 1.00329 0.984681
1.00417 0.998124 0.989884
1.0052 0.999818 0.986149
1.00515 0.996372 0.989517
1.00483 0.996424 0.990489
1.00146 0.997795 0.994829
1.00453 0.996329 0.9908
1.00186 0.998583 0.993419
1.00372 0.997892 0.990203
1.00318 0.994811 0.994522
1.00147 0.998329 0.994369
1.00083 0.998927 0.995598
0.998446 0.99472 0.989508
0.995598 0.994766 0.959146
0.997202 0.994763 0.924506
0.995393 0.995783 0.968764
0.998805 0.994813 0.993473
0.999574 0.995578 1.0004
1.00268 0.99524 0.978725
0.998696 0.994869 0.960375
1.00025 0.995082 0.922904
0.998135 0.997314 0.98623
0.997673 0.994785 0.96801
1.00183 0.995756 0.988228
1.00285 0.994671 0.985559
1.00358 0.996787 0.99015
1.00548 0.994659 0.990772
1.00409 0.994798 0.99134
1.00527 0.99481 0.990702
1.0054 0.994878 0.990416
1.00529 0.994786 0.990443
1.00536 0.994862 0.990451
1.00538 0.99488 0.99049
1.00532 0.994833 0.990471
1.00534 0.994874 0.990524
1.00534 0.994904 0.990699
1.00533 0.994856 0.990669
1.00536 0.994853 0.990671
1.00531 0.994869 0.990905
1.00533 0.994836 0.990779
1.00528 0.99499 0.990858
1.00527 0.995525 0.990533
1.00524 0.995341 0.990561
1.00528 0.996361 0.989576
1.00532 0.99899 0.98707
1.00534 1.00141 0.984528
1.00532 0.99988 0.98596
1.00533 0.997751 0.98782
1.00335 1.00149 0.98758
1.00527 1.00234 0.983688
1.00541 1.00124 0.984592
1.00175 1.00138 0.996177
1.00303 1.00252 0.987089
1.00456 1.00338 0.983478
1.00133 1.00149 0.996408
1.00235 1.00325 0.987638
1.00097 1.00129 0.996717
1.00531 0.99928 0.986262
1.00525 1.00135 0.984689
1.00535 1.00253 0.983416
1.00475 1.00296 0.983509
1.00484 1.00374 0.983356
1.00346 1.00342 0.985569
1.00437 1.00257 0.985291
1.00298 1.00339 0.986442
1.0013 1.00325 0.989342
1.00193 1.00445 0.987409
1.00084 1.00306 0.990506
1.00031 1.00087 0.997346
1.00014 1.00265 0.991846
1.00004 0.999651 0.997983
0.999979 0.99875 0.998455
0.99948 0.995253 0.985664
0.996438 0.994867 0.959301
1.0001 0.994836 0.937916
1.00538 0.995804 0.98944
1.00533 0.995568 0.989711
1.0053 0.99716 0.988121
1.00478 0.997956 0.990036
1.00519 0.999923 0.986187
1.00517 0.996253 0.98962
1.00536 0.994989 0.989866
1.00481 0.995729 0.990822
1.00179 0.998296 0.993589
1.0037 0.998035 0.990808
1.00517 0.994833 0.991001
1.00363 0.994749 0.993206
1.00268 0.994893 0.994281
1.00172 0.997394 0.994545
0.999 0.994667 0.989443
0.996202 0.994788 0.958064
0.999003 0.994802 0.996239
1.00482 0.995279 0.990049
1.00292 0.995147 0.978863
0.998529 0.994895 0.960138
1.0016 0.994783 0.988766
1.00248 0.994666 0.98608
1.00376 0.995811 0.990543
1.00546 0.994654 0.990865
1.00548 0.994743 0.990868
1.00552 0.994765 0.991197
1.00528 0.994827 0.990682
1.00541 0.994868 0.990425
1.00537 0.994854 0.990753
1.00535 0.994851 0.990459
1.00538 0.994877 0.990518
1.00532 0.994891 0.990793
1.00534 0.994875 0.99053
1.00534 0.994905 0.990697
1.00531 0.994914 0.990927
1.00536 0.994854 0.990668
1.00531 0.994869 0.990895
1.0053 0.995035 0.990949
1.00528 0.994926 0.990866
1.00527 0.995501 0.990475
1.00533 0.998114 0.987925
1.00528 0.996183 0.989734
1.00531 0.998857 0.987215
1.00531 1.00088 0.985197
1.00346 1.0008 0.988196
1.00535 1.0014 0.984551
1.00532 1.00014 0.985704
1.0021 1.0009 0.996158
1.00336 1.00155 0.987609
1.00506 1.00256 0.9837
1.00186 1.00132 0.996133
1.0031 1.00245 0.987056
1.00154 1.0016 0.99623
1.00535 0.997014 0.988387
1.0053 0.999096 0.986532
1.00542 1.00121 0.984676
1.00523 1.00135 0.984642
1.00537 1.00263 0.983319
1.00415 1.00316 0.984651
1.00527 1.00364 0.982956
1.00367 1.00306 0.985582
1.00191 1.00358 0.988095
1.00319 1.00344 0.986507
1.00124 1.00337 0.98936
1.0006 1.00143 0.996953
1.00062 1.00319 0.990535
1.00015 1.00061 0.997517
0.999999 0.999471 0.998136
1.0039 0.995339 0.992016
0.999247 0.995288 0.983231
0.996373 0.994866 0.959932
1.00535 0.99512 0.990137
1.00536 0.995526 0.989631
1.00535 0.994911 0.990624
1.00533 0.99573 0.989662
1.0053 0.996884 0.988362
1.00543 0.994828 0.990311
1.0052 0.996355 0.989713
1.00533 0.995238 0.989855
1.00537 0.994744 0.990707
1.00373 0.997451 0.991406
1.00518 0.994825 0.990651
1.00311 0.994657 0.99346
1.00186 0.994972 0.994061
0.999378 0.994614 0.98911
1.00554 0.994766 0.991255
1.00498 0.995183 0.990052
1.00284 0.995149 0.97912
1.00379 0.994798 0.990922
1.00545 0.994665 0.990959
1.00545 0.99475 0.990838
1.00555 0.994782 0.99132
1.00538 0.994839 0.991296
1.00542 0.99486 0.990436
1.00537 0.99486 0.990755
1.00532 0.994888 0.991055
1.00539 0.994874 0.990547
1.00532 0.994893 0.990793
1.00528 0.994927 0.991069
1.00535 0.994906 0.990695
1.0053 0.994914 0.99093
1.00531 0.994907 0.991177
1.00531 0.994869 0.990886
1.0053 0.995045 0.990911
1.00532 0.997168 0.988952
1.00528 0.995475 0.990417
1.00532 0.998138 0.987932
1.00531 1.00039 0.985731
1.00531 0.998721 0.98736
1.00532 1.00085 0.985225
1.00339 1.00057 0.990367
1.0024 0.999985 0.992663
1.00345 1.00084 0.989118
1.00535 1.00138 0.984574
1.00202 1.00085 0.99623
1.00335 1.00141 0.98764
1.00186 1.00135 0.996134
1.0053 0.994948 0.990912
1.00531 0.995762 0.989927
1.00534 0.99696 0.988616
1.00531 0.999853 0.986058
1.0053 0.998873 0.986802
1.00538 1.00123 0.984605
1.00496 1.00237 0.984042
1.00538 1.00269 0.983223
1.00445 1.00272 0.984595
1.00288 1.003 0.986966
1.00391 1.00267 0.985598
1.00181 1.00362 0.988098
1.00121 1.00193 0.996345
1.0012 1.00353 0.989391
1.00046 1.00133 0.997104
0.999994 1.00039 0.997702
1.00546 0.994809 0.991077
1.0037 0.995088 0.991547
0.999315 0.995087 0.980864
1.00533 0.994862 0.990657
1.00535 0.995157 0.990072
1.00535 0.995255 0.989836
1.00534 0.994977 0.990611
1.00533 0.995846 0.989613
1.00538 0.99484 0.990733
1.0054 0.994819 0.990278
1.0053 0.995377 0.989848
1.00532 0.994741 0.990757
1.00518 0.994968 0.9903
1.00284 0.994552 0.993691
1.00531 0.994852 0.991387
1.0055 0.994767 0.991277
1.0052 0.995045 0.990049
1.00542 0.994752 0.990798
1.00558 0.994788 0.991441
1.00539 0.994847 0.991264
1.00531 0.994903 0.99134
1.00537 0.994867 0.990757
1.00532 0.994892 0.991014
1.00525 0.99493 0.991253
1.00533 0.994896 0.990794
1.00528 0.994927 0.991069
1.00525 0.994934 0.991343
1.0053 0.994915 0.990932
1.00531 0.994907 0.991147
1.00531 0.996355 0.989907
1.0053 0.995053 0.990872
1.00534 0.997197 0.988947
1.0053 0.999994 0.986224
1.00532 0.998161 0.987941
1.00532 1.00037 0.985765
1.00344 1.0004 0.990481
1.00533 1.00082 0.985253
1.00363 1.00044 0.990214
1.00244 0.999676 0.992828
1.00206 1.00032 0.994603
1.00364 1.00086 0.989839
1.00199 1.00076 0.99629
1.0053 0.99488 0.990934
1.00528 0.995575 0.990378
1.0053 0.994939 0.990951
1.00528 0.998578 0.987428
1.00532 0.995748 0.99002
1.00534 0.996961 0.988845
1.00531 0.999815 0.986026
1.00533 1.00137 0.984583
1.00535 1.00127 0.984534
1.00514 1.00219 0.984048
1.00328 1.00182 0.987337
1.00467 1.00257 0.984548
1.00269 1.00313 0.987045
1.00168 1.00181 0.99605
1.00169 1.00356 0.98811
1.00096 1.00167 0.996608
1.00023 1.0012 0.997239
1.00534 0.994877 0.991029
1.0054 0.994817 0.991142
1.00323 0.995005 0.991095
1.00531 0.994889 0.990881
1.00534 0.994855 0.990612
1.00535 0.99517 0.990008
1.00532 0.995089 0.990596
1.0054 0.994848 0.99071
1.00536 0.994813 0.990244
1.00529 0.994743 0.990802
1.00531 0.994899 0.991379
1.00532 0.994855 0.991341
1.00548 0.994777 0.991296
1.00529 0.994921 0.991414
1.00541 0.994854 0.991233
1.00531 0.994903 0.991333
1.00526 0.994936 0.991385
1.00532 0.994894 0.990974
1.00526 0.994931 0.991256
1.00518 0.994963 0.991534
1.00528 0.994928 0.991068
1.00527 0.994933 0.99133
1.00532 0.995808 0.990597
1.00531 0.994908 0.991117
1.00532 0.996389 0.989899
1.00526 0.999679 0.986646
1.00535 0.99723 0.988941
1.0053 0.999975 0.98626
1.0034 1.00037 0.990529
1.00533 1.00035 0.985798
1.00365 1.00029 0.990302
1.00246 0.999682 0.992791
1.00386 1.00029 0.990067
1.00193 0.99984 0.993201
1.00134 1.0007 0.99694
1.00527 0.994919 0.991004
1.00531 0.995039 0.990822
1.0053 0.994889 0.990953
1.00531 0.99803 0.988027
1.00529 0.995336 0.990536
1.00529 0.994937 0.990993
1.00535 1.00051 0.985481
1.00528 0.998531 0.987414
1.00532 0.995683 0.990114
1.00531 0.999775 0.985996
1.00533 1.00138 0.984557
1.00324 1.00105 0.988255
1.00535 1.00195 0.984043
1.00319 1.00195 0.987342
1.00175 1.00124 0.99625
1.00254 1.00321 0.987096
1.00159 1.00173 0.996113
1.00079 1.00159 0.996829
1.0053 0.994914 0.991187
1.00536 0.994872 0.990959
1.00533 0.994819 0.991213
1.0053 0.99489 0.990896
1.00534 0.994848 0.990568
1.00541 0.994853 0.990688
1.00529 0.994927 0.991404
1.0053 0.994903 0.991392
1.00532 0.99486 0.991296
1.00529 0.994919 0.991424
1.00524 0.994944 0.99154
1.00531 0.994903 0.991327
1.00525 0.994939 0.991414
1.00516 0.994967 0.991608
1.00527 0.994931 0.991259
1.00519 0.994963 0.991533
1.00532 0.995485 0.990958
1.00528 0.994934 0.991317
1.00529 0.995833 0.990598
1.00525 0.999411 0.986932
1.00533 0.996408 0.989891
1.00526 0.999663 0.986677
1.00332 1.00039 0.990573
1.00529 0.999956 0.986297
1.0036 1.00029 0.990341
1.00236 0.99983 0.99276
1.00385 1.0002 0.99013
1.002 0.999741 0.993188
1.00144 1.00003 0.99356
1.00525 0.994935 0.991213
1.00531 0.994933 0.991126
1.00527 0.994915 0.990984
1.00531 0.996826 0.989265
1.00532 0.995107 0.990801
1.0053 0.994896 0.99097
1.00531 1 0.986134
1.00531 0.997582 0.988419
1.0053 0.995106 0.990693
1.00336 1.00042 0.988737
1.00533 1.00055 0.985447
1.00529 0.99849 0.987399
1.00535 1.00139 0.984529
1.00328 1.00102 0.988224
1.0018 1.00077 0.996418
1.00314 1.00218 0.987361
1.00182 1.00133 0.996158
1.00148 1.00163 0.996285
1.00527 0.994938 0.991376
1.0053 0.994912 0.99115
1.00538 0.994866 0.990889
1.0053 0.994894 0.990912
1.00525 0.994947 0.991519
1.00529 0.994926 0.991409
1.0053 0.994905 0.991406
1.00529 0.994918 0.991434
1.00524 0.99494 0.991538
1.00517 0.994956 0.991644
1.00525 0.994943 0.991445
1.00516 0.994969 0.991623
1.0053 0.995443 0.991096
1.0052 0.994963 0.991531
1.00529 0.995548 0.990957
1.00529 0.999164 0.987138
1.00525 0.995881 0.9906
1.00527 0.999391 0.98694
1.00335 1.00037 0.988883
1.00525 0.999648 0.986709
1.00352 1.00035 0.989514
1.00203 0.999935 0.996377
1.0038 1.00021 0.990154
1.00194 0.999829 0.993159
1.00155 0.999792 0.993569
1.00525 0.99495 0.991347
1.00527 0.994941 0.991298
1.00525 0.994938 0.991239
1.00527 0.99598 0.990415
1.0053 0.994959 0.991081
1.00528 0.99491 0.990963
1.00524 0.999151 0.987179
1.0053 0.996873 0.989261
1.00533 0.995168 0.990781
1.00344 1.00011 0.988942
1.0053 0.999741 0.986375
1.0053 0.99712 0.98881
1.00193 1.00028 0.9965
1.0034 1.00036 0.988711
1.00531 1.00059 0.985411
1.0033 1.00097 0.988196
1.00183 1.00078 0.99637
1.00183 1.00136 0.996049
1.00526 0.994954 0.991417
1.00528 0.994938 0.991364
1.0053 0.994911 0.991112
1.00522 0.994954 0.99162
1.00524 0.994948 0.9915
1.0053 0.994925 0.991415
1.00524 0.994937 0.991536
1.00518 0.994956 0.991638
1.00533 0.996083 0.990398
1.00516 0.99497 0.991639
1.0053 0.995769 0.990725
1.00531 0.998368 0.98807
1.00525 0.995601 0.990956
1.00531 0.999141 0.987132
1.00331 1.00018 0.989151
1.00529 0.999374 0.986951
1.00339 1.00034 0.988885
1.00195 1.00001 0.996382
1.00358 1.00033 0.988626
1.00185 0.999977 0.994829
1.00153 0.999814 0.993557
1.00524 0.994956 0.991425
1.00524 0.994961 0.991452
1.00524 0.994951 0.991353
1.00526 0.995955 0.990519
1.00526 0.994944 0.991328
1.00525 0.99494 0.991266
1.00523 0.998891 0.987516
1.00528 0.996241 0.990049
1.0053 0.994977 0.991036
1.00346 1.0001 0.988944
1.00524 0.999091 0.987224
1.0053 0.996927 0.989257
1.00202 0.999969 0.996493
1.00346 1.00009 0.988926
1.00529 0.999476 0.986618
1.00196 1.00031 0.996473
1.00344 1.00031 0.988686
1.00184 1.00085 0.996329
1.00527 0.994962 0.991473
1.00525 0.994953 0.991429
1.00528 0.994938 0.991352
1.00535 0.996127 0.99032
1.00523 0.994953 0.991586
1.00524 0.994948 0.991481
1.00518 0.994955 0.991633
1.00532 0.996058 0.990403
1.00527 0.998261 0.988234
1.0053 0.99609 0.990354
1.00532 0.998641 0.987689
1.00325 1 0.989421
1.00534 0.999116 0.987125
1.0033 1.00019 0.989155
1.00182 1.00002 0.996427
1.00341 1.00031 0.988882
1.0019 1.00003 0.99639
1.00195 0.999974 0.992935
1.00525 0.994967 0.99142
1.00524 0.994952 0.991367
1.00529 0.99587 0.990601
1.00525 0.99496 0.991452
1.00524 0.994952 0.991359
1.00524 0.999322 0.986981
1.00528 0.995878 0.990518
1.00525 0.994948 0.991358
1.00344 1.00018 0.988928
1.00522 0.999167 0.987195
1.00529 0.996516 0.989684
1.00203 0.9999 0.996429
1.00346 1.00012 0.988939
1.00524 0.999031 0.987272
1.00204 1 0.9965
1.00348 1.00008 0.988908
1.00201 1.00033 0.996442
1.00534 0.996231 0.990202
1.00527 0.994963 0.991482
1.00525 0.994952 0.991441
1.00521 0.99832 0.988263
1.00534 0.996123 0.990326
1.00523 0.994954 0.991552
1.00531 0.996039 0.990408
1.00529 0.998214 0.988213
1.00317 0.999891 0.989668
1.00533 0.99892 0.987308
1.00325 1 0.989428
1.00174 1.00001 0.996503
1.00331 1.0002 0.989162
1.00178 1.00005 0.996462
1.00186 1.00005 0.996412
1.00533 0.995829 0.990649
1.00526 0.994971 0.991437
1.00524 0.994949 0.991309
1.00525 0.999165 0.987169
1.0053 0.995814 0.990606
1.00525 0.994958 0.991452
1.00337 1.0002 0.989054
1.00523 0.999349 0.986985
1.0053 0.9958 0.990516
1.00196 0.999951 0.996387
1.00342 1.00021 0.98893
1.00521 0.999438 0.986874
1.00205 0.999913 0.996455
1.00345 1.00015 0.988932
1.00209 1.00001 0.996498
1.00516 0.998918 0.987587
1.00533 0.995973 0.990518
1.00528 0.994968 0.991491
1.00309 0.999852 0.989874
1.00523 0.998267 0.988257
1.00533 0.996108 0.990331
1.00531 0.998158 0.988194
1.00319 0.999863 0.989674
1.00167 1 0.996547
1.00324 1.00001 0.989435
1.00171 1.00002 0.996514
1.00172 1.00007 0.996488
1.00522 0.999009 0.987411
1.00532 0.995797 0.990701
1.00526 0.994964 0.991454
1.00342 1.00009 0.990771
1.00523 0.99918 0.987181
1.0053 0.995754 0.990612
1.00184 1.00001 0.996412
1.00335 1.00022 0.989057
1.00522 0.999377 0.986991
1.002 0.999946 0.996402
1.00341 1.00024 0.988931
1.00208 0.999915 0.996478
1.0032 0.999827 0.989781
1.00516 0.998664 0.987895
1.00534 0.995723 0.990834
1.00156 0.999989 0.996621
1.0031 0.999817 0.989869
1.00526 0.998226 0.98825
1.0032 0.999835 0.989675
1.00163 0.999993 0.996572
1.00168 1.00004 0.996531
1.00342 0.999949 0.990982
1.00519 0.999034 0.987423
1.00532 0.995779 0.990753
1.0012 1.00004 0.997106
1.00326 1.00011 0.989321
1.00521 0.999192 0.987197
1.00188 1 0.996407
1.00333 1.00025 0.989058
1.00203 0.999937 0.996419
1.00153 0.99994 0.993625
1.00322 0.999855 0.990497
1.00516 0.998395 0.9882
1.00158 0.99998 0.996635
1.00313 0.999785 0.989872
1.00165 0.999983 0.996594
1.00098 1.00001 0.994123
1.00328 0.99994 0.990301
1.00516 0.999066 0.98743
1.00144 1.00002 0.995207
1.00322 1.00012 0.989347
1.00192 0.999988 0.996406
1.00155 0.999977 0.996639
1.00306 0.999864 0.989888
1.00154 0.99997 0.996639
1.0013 0.999978 0.99538
1.00313 0.999957 0.989686
1.00178 1.00002 0.996455
1.00156 0.999987 0.996634
1.00163 0.999997 0.996552

TENSORS stress float
0.0025441 -0.000181603 0.000298249
-0.000181603 0.00131058 -5.46132e-05
0.000298249 -5.46132e-05 0.00128252
0.00785374 0.000145928 0.000362831
0.000145928 0.00473411 4.54941e-05
0.000362831 4.54941e-05 0.00474846
0.00216317 -0.000111961 0.000119543
-0.000111961 0.00105963 -2.09341e-05
0.000119543 -2.09341e-05 0.00101744
0.00240038 -0.00010105 0.000281221
-0.00010105 0.00119762 -3.10548e-05
0.000281221 -3.10548e-05 0.00118104
0.00255416 -0.000158991 0.000291172
-0.000158991 0.00130686 -4.78082e-05
0.000291172 -4.78082e-05 0.00128287
0.002596 -0.00018952 0.000311529
-0.00018952 0.00134447 -5.71736e-05
0.000311529 -5.71736e-05 0.00131624
0.00208128 -0.000205085 5.99125e-05
-0.000205085 0.00086403 -1.53404e-05
5.99125e-05 -1.53404e-05 0.000722244
0.00797947 0.000137779 -1.0881e-05
0.000137779 0.00480443 -3.11695e-06
-1.0881e-05 -3.11695e-06 0.00482294
0.00713417 0.000267873 0.000179367
0.000267873 0.00428431 2.01918e-05
0.000179367 2.01918e-05 0.00425157
0.00732761 6.51098e-05 0.000117879
6.51098e-05 0.00437161 7.83368e-06
0.000117879 7.83368e-06 0.00435129
0.00190564 0.00025774 0.000332541
0.00025774 0.00091564 5.03754e-05
0.000332541 5.03754e-05 0.000895166
0.000243993 0.000282097 2.59493e-05
0.000282097 -0.00025434 2.24555e-05
2.59493e-05 2.24555e-05 -0.000432384
0.0019621 -3.08338e-05 0.000274884
-3.08338e-05 0.000911444 5.27133e-06
0.000274884 5.27133e-06 0.000916442
0.00172126 6.66714e-06 7.72383e-05
6.66714e-06 0.000781803 3.1917e-06
7.72383e-05 3.1917e-06 0.000730003
0.00186566 -0.000110545 -7.27151e-05
-0.000110545 0.00088137 1.34226e-05
-7.27151e-05 1.34226e-05 0.000816344
0.00205703 -9.91924e-05 9.03859e-05
-9.91924e-05 0.000995714 -6.03461e-06
9.03859e-05 -6.03461e-06 0.000957291
0.0022201 -0.00010355 0.000131323
-0.00010355 0.00109994 -2.35624e-05
0.000131323 -2.35624e-05 0.00105445
0.00215071 -0.000115096 0.000107076
-0.000115096 0.00104909 -1.57398e-05
0.000107076 -1.57398e-05 0.00100911
0.00220361 -0.000241951 -4.61334e-05
-0.000241951 0.000943632 7.75587e-06
-4.61334e-05 7.75587e-06 0.000811455
0.00665765 -0.000167898 0.000364142
-0.000167898 0.00398298 -1.82591e-05
0.000364142 -1.82591e-05 0.00400854
0.00229614 -7.64098e-05 0.0002774
-7.64098e-05 0.00113022 -2.32323e-05
0.0002774 -2.32323e-05 0.00111723
0.00249637 -0.000129856 0.000285638
-0.000129856 0.00126273 -3.94696e-05
0.000285638 -3.94696e-05 0.001243
0.00200915 -0.000163996 7.55894e-05
-0.000163996 0.000846543 -1.23045e-05
7.55894e-05 -1.23045e-05 0.000735665
0.00208698 -0.000200531 6.76075e-05
-0.000200531 0.000867083 -1.51352e-05
6.76075e-05 -1.51352e-05 0.00073803
0.00251074 -0.00017239 0.000318901
-0.00017239 0.00128358 -5.4553e-05
0.000318901 -5.4553e-05 0.0012585
0.00211502 -0.000210895 5.59327e-05
-0.000210895 0.00089943 -1.58494e-05
5.59327e-05 -1.58494e-05 0.000739969
0.00212926 -0.000430248 1.80862e-05
-0.000430248 0.000593148 -6.41076e-06
1.80862e-05 -6.41076e-06 0.000321441
0.0080048 0.000135167 -0.000389111
0.000135167 0.00480844 -3.82292e-05
-0.000389111 -3.82292e-05 0.00483449
0.00470862 0.000195586 -0.000164002
0.000195586 0.00270655 -2.01475e-05
-0.000164002 -2.01475e-05 0.00268196
0.00477051 0.000129888 -0.0001707
0.000129888 0.00274741 -2.0207e-05
-0.0001707 -2.0207e-05 0.00272547
0.00820235 7.50277e-05 -1.3111e-06
7.50277e-05 0.00494904 -1.60466e-06
-1.3111e-06 -1.60466e-06 0.00496788
0.000254157 0.000266661 -1.42002e-06
0.000266661 -0.000241953 -1.2913e-06
-1.42002e-06 -1.2913e-06 -0.000418451
0.00206678 7.85067e-05 0.000284277
7.85067e-05 0.000978163 2.89945e-05
0.000284277 2.89945e-05 0.000968234
0.00222848 0.00017209 0.00029741
0.00017209 0.00111375 4.55418e-05
0.00029741 4.55418e-05 0.00109032
0.00297572 0.000255159 0.000174297
0.000255159 0.00143634 2.73066e-05
0.000174297 2.73066e-05 0.00133527
0.00742398 -0.0002282 4.95293e-05
-0.0002282 0.00450607 3.63706e-06
4.95293e-05 3.63706e-06 0.00446114
0.00309362 0.00034993 0.000187181
0.00034993 0.0015656 3.53112e-05
0.000187181 3.53112e-05 0.00143775
0.000363248 0.000272934 2.59618e-05
0.000272934 -0.000170131 3.18395e-05
2.59618e-05 3.18395e-05 -0.000352685
0.00118545 0.000418785 2.6946e-05
0.000418785 0.000113653 7.1329e-06
2.6946e-05 7.1329e-06 -0.000201862
0.00583922 -0.000111496 0.000220723
-0.000111496 0.00353876 2.84744e-05
0.000220723 2.84744e-05 0.00352925
0.00659936 9.02222e-05 3.25864e-06
9.02222e-05 0.0039291 -2.1441e-06
3.25864e-06 -2.1441e-06 0.00396391
0.00434268 0.000103357 -0.000137897
0.000103357 0.00246921 -6.6844e-06
-0.000137897 -6.6844e-06 0.00245897
0.00645875 5.7273e-05 0.00035325
5.7273e-05 0.00384111 5.08668e-06
0.00035325 5.08668e-06 0.00387713
0.00161286 9.25522e-05 7.90537e-05
9.25522e-05 0.000716372 6.08231e-06
7.90537e-05 6.08231e-06 0.000668996
0.00043953 1.43458e-05 1.31702e-05
1.43458e-05 -0.000176915 2.53626e-06
1.31702e-05 2.53626e-06 -0.000272976
0.00677629 0.000248725 0.000203644
0.000248725 0.00407676 2.07513e-05
0.000203644 2.07513e-05 0.0040506
0.00294934 9.30214e-05 0.000160935
9.30214e-05 0.00142052 1.19635e-05
0.000160935 1.19635e-05 0.00135622
0.00169561 -0.000100186 -9.21877e-05
-0.000100186 0.000782938 1.25329e-05
-9.21877e-05 1.25329e-05 0.000722031
0.00175424 -0.00013202 -8.55826e-05
-0.00013202 0.000820858 1.58894e-05
-8.55826e-05 1.58894e-05 0.000753353
0.00195938 -7.29126e-05 -6.09004e-05
-7.29126e-05 0.000933232 1.10427e-05
-6.09004e-05 1.10427e-05 0.000869081
0.00228613 -0.00024435 -0.000159717
-0.00024435 0.00098678 3.07906e-05
-0.000159717 3.07906e-05 0.000868631
0.00418963 -3.83448e-05 -0.000140969
-3.83448e-05 0.00238048 -9.85134e-07
-0.000140969 -9.85134e-07 0.0023707
0.00201544 -7.92593e-05 9.45873e-05
-7.92593e-05 0.000965325 -4.84268e-06
9.45873e-05 -4.84268e-06 0.00093153
0.00231804 -7.81302e-05 0.000135877
-7.81302e-05 0.0011588 -2.20393e-05
0.000135877 -2.20393e-05 0.00111111
0.00210384 -0.000107011 9.67985e-05
-0.000107011 0.00102131 -1.01204e-05
9.67985e-05 -1.01204e-05 0.000982497
0.00209426 -0.00014153 -3.75045e-05
-0.00014153 0.000887836 3.23272e-06
-3.75045e-05 3.23272e-06 0.00079139
0.00222279 -0.000257547 -5.34037e-05
-0.000257547 0.000968358 9.06604e-06
-5.34037e-05 9.06604e-06 0.000820602
0.00217661 -0.000215526 -4.09552e-05
-0.000215526 0.000923365 5.72435e-06
-4.09552e-05 5.72435e-06 0.000804572
0.00224519 -0.000439588 -1.03673e-05
-0.000439588 0.000666899 2.73777e-06
-1.03673e-05 2.73777e-06 0.00039549
0.00645241 -1.41398e-05 0.000350084
-1.41398e-05 0.00383441 -4.44984e-06
0.000350084 -4.44984e-06 0.00387162
0.00222024 -5.02272e-05 0.000271983
-5.02272e-05 0.00108437 -1.61655e-05
0.000271983 -1.61655e-05 0.00107654
0.00251757 -2.44066e-05 5.9523e-05
-2.44066e-05 0.00118215 -8.65599e-07
5.9523e-05 -8.65599e-07 0.00110716
0.00197498 -0.000131762 6.86541e-05
-0.000131762 0.000829279 -8.27483e-06
6.86541e-05 -8.27483e-06 0.000729318
0.0020465 -0.000182682 7.30667e-05
-0.000182682 0.000851416 -1.41608e-05
7.30667e-05 -1.41608e-05 0.000732369
0.00201479 -0.000267968 3.04946e-06
-0.000267968 0.000439795 -1.79282e-06
3.04946e-06 -1.79282e-06 0.000255202
0.00204296 -0.000381463 1.36511e-05
-0.000381463 0.000490665 -4.07387e-06
1.36511e-05 -4.07387e-06 0.000256388
0.00230546 -0.000134742 0.000306968
-0.000134742 0.00114284 -4.77533e-05
0.000306968 -4.77533e-05 0.00111596
0.0020909 -0.000170523 4.82148e-05
-0.000170523 0.000918511 -1.36789e-05
4.82148e-05 -1.36789e-05 0.000752496
0.00209603 -0.00048247 2.25782e-05
-0.00048247 0.000609418 -6.59935e-06
2.25782e-05 -6.59935e-06 0.000297096
0.00202685 -0.00057581 4.19007e-06
-0.00057581 0.000274997 1.7684e-06
4.19007e-06 1.7684e-06 -3.88172e-05
0.00759038 0.000322447 -0.000404189
0.000322447 0.00457319 -5.06302e-05
-0.000404189 -5.06302e-05 0.0045823
0.00807289 3.57653e-05 -0.000345336
3.57653e-05 0.00486958 -3.08371e-05
-0.000345336 -3.08371e-05 0.00488898
0.00768598 0.000198146 -0.000377847
0.000198146 0.00460987 -4.16421e-05
-0.000377847 -4.16421e-05 0.00463209
0.000263735 0.000252645 -2.56233e-05
0.000252645 -0.000229462 -2.15461e-05
-2.56233e-05 -2.15461e-05 -0.000406228
0.00729204 0.000270612 -2.01687e-06
0.000270612 0.00437541 -2.67492e-06
-2.01687e-06 -2.67492e-06 0.00439184
0.00761428 0.000286722 -8.41901e-06
0.000286722 0.0045781 -3.75898e-06
-8.41901e-06 -3.75898e-06 0.00459002
0.000352413 0.000166977 3.49607e-07
0.000166977 -0.000260669 -3.07723e-07
3.49607e-07 -3.07723e-07 -0.000400821
0.00438936 -3.30405e-05 -0.000150103
-3.30405e-05 0.00254493 -9.61065e-06
-0.000150103 -9.61065e-06 0.00251431
0.000292941 0.000245744 1.54556e-06
0.000245744 -0.000241349 -4.25779e-07
1.54556e-06 -4.25779e-07 -0.000408689
0.00201631 0.000292812 7.58454e-05
0.000292812 0.00090168 4.35918e-06
7.58454e-05 4.35918e-06 0.000750674
0.00113369 0.000420438 1.47313e-06
0.000420438 6.91948e-05 3.31372e-07
1.47313e-06 3.31372e-07 -0.000247527
0.00660598 -7.76821e-05 0.000270561
-7.76821e-05 0.00401049 3.35657e-05
0.000270561 3.35657e-05 0.00400671
0.000545754 0.000146415 2.76326e-05
0.000146415 1.06116e-06 1.60909e-05
2.76326e-05 1.60909e-05 -9.58171e-05
0.000447413 0.000130515 1.39331e-05
0.000130515 -0.000209651 1.20882e-05
1.39331e-05 1.20882e-05 -0.000338334
0.000453979 0.000199364 1.84185e-05
0.000199364 -0.00018342 2.04009e-05
1.84185e-05 2.04009e-05 -0.000334552
0.00146741 0.000360736 1.36123e-05
0.000360736 6.24427e-05 5.26821e-06
1.36123e-05 5.26821e-06 -0.000181173
0.00365993 0.000324957 0.000185145
0.000324957 0.00197871 3.08089e-05
0.000185145 3.08089e-05 0.00186759
0.00134849 0.000428123 2.51188e-05
0.000428123 0.000122363 7.88828e-06
2.51188e-05 7.88828e-06 -0.000176829
0.000757271 0.00037246 2.11539e-05
0.00037246 -5.24994e-05 6.44489e-06
2.11539e-05 6.44489e-06 -0.000367063
0.00174979 0.000650621 9.94752e-06
0.000650621 0.000286469 -4.07093e-06
9.94752e-06 -4.07093e-06 -0.000125958
0.00497857 -0.000150657 0.000152014
-0.000150657 0.00297144 1.57387e-05
0.000152014 1.57387e-05 0.00295892
0.00542093 -0.000160724 1.47482e-05
-0.000160724 0.00326405 2.37202e-06
1.47482e-05 2.37202e-06 0.00324786
0.00707552 7.99863e-05 -0.000372785
7.99863e-05 0.0042181 -2.06976e-05
-0.000372785 -2.06976e-05 0.00425104
0.00670154 8.20462e-05 -0.00036491
8.20462e-05 0.00399012 -1.27296e-05
-0.00036491 -1.27296e-05 0.00402623
0.00655001 8.38662e-05 -7.08197e-08
8.38662e-05 0.00390409 -4.43212e-06
-7.08197e-08 -4.43212e-06 0.00393754
0.00419893 4.43528e-05 -0.000149048
4.43528e-05 0.00237626 -8.57258e-06
-0.000149048 -8.57258e-06 0.00237203
0.00156117 4.3339e-05 7.07523e-05
4.3339e-05 0.000546714 2.21114e-06
7.07523e-05 2.21114e-06 0.00047161
0.00452137 0.000165873 -0.000141127
0.000165873 0.00259068 -8.94097e-06
-0.000141127 -8.94097e-06 0.00257161
0.00164269 0.000107076 7.19495e-05
0.000107076 0.000580336 3.93636e-06
7.19495e-05 3.93636e-06 0.000490667
0.00650015 0.000110802 0.000356733
0.000110802 0.00388009 7.4396e-06
0.000356733 7.4396e-06 0.00390924
0.000312686 1.03216e-05 1.68658e-05
1.03216e-05 -0.000251542 1.41203e-06
1.68658e-05 1.41203e-06 -0.000343313
0.00290929 5.1096e-05 0.000159074
5.1096e-05 0.00140497 8.12705e-06
0.000159074 8.12705e-06 0.00134865
0.00122484 8.57398e-05 5.89626e-06
8.57398e-05 -7.07607e-05 1.0247e-06
5.89626e-06 1.0247e-06 -0.000206113
0.00286472 0.000146395 0.000165798
0.000146395 0.001359 1.56037e-05
0.000165798 1.56037e-05 0.00128446
0.00135095 0.000179242 3.26035e-06
0.000179242 -3.68283e-05 1.64825e-06
3.26035e-06 1.64825e-06 -0.000197406
0.00198849 3.79837e-05 -0.000274964
3.79837e-05 0.000924099 4.26086e-06
-0.000274964 4.26086e-06 0.000932281
0.00169019 -3.0036e-05 -7.89391e-05
-3.0036e-05 0.000768616 4.32761e-06
-7.89391e-05 4.32761e-06 0.000715288
0.00203031 -3.71166e-05 -5.43422e-05
-3.71166e-05 0.000970851 9.64304e-06
-5.43422e-05 9.64304e-06 0.000905434
0.00169131 -0.000117925 -9.32635e-05
-0.000117925 0.000781425 1.52347e-05
-9.32635e-05 1.52347e-05 0.000717732
0.00220646 -0.000118738 -0.000146006
-0.000118738 0.000947049 1.49241e-05
-0.000146006 1.49241e-05 0.000865114
0.0022829 -0.000201233 -0.000153757
-0.000201233 0.000978158 2.57897e-05
-0.000153757 2.57897e-05 0.000875122
0.00232369 -0.000281304 -0.000168393
-0.000281304 0.00103268 3.34961e-05
-0.000168393 3.34961e-05 0.000896228
0.002362 -0.000450049 -3.54789e-05
-0.000450049 0.000741481 1.09984e-05
-3.54789e-05 1.09984e-05 0.00047007
0.0065595 -0.000122099 2.46136e-06
-0.000122099 0.0039182 -2.1211e-06
2.46136e-06 -2.1211e-06 0.00394661
0.00190548 1.65015e-05 0.000101334
1.65015e-05 0.00088416 -5.68579e-06
0.000101334 -5.68579e-06 0.000861968
0.00120179 -1.86459e-05 -7.41168e-05
-1.86459e-05 0.000321268 2.88591e-06
-7.41168e-05 2.88591e-06 0.000246348
0.00204836 -9.54353e-05 -4.02338e-05
-9.54353e-05 0.000866761 3.76506e-06
-4.02338e-05 3.76506e-06 0.000779668
0.00552591 -0.000112308 0.000318018
-0.000112308 0.00322361 -3.00441e-05
0.000318018 -3.00441e-05 0.0032188
0.00277218 -0.000258658 -5.10349e-05
-0.000258658 0.00135287 5.94351e-06
-5.10349e-05 5.94351e-06 0.0012029
0.00213496 -0.000178497 -3.78201e-05
-0.000178497 0.000900681 4.17667e-06
-3.78201e-05 4.17667e-06 0.000794286
0.00206879 -0.00026844 -8.93226e-06
-0.00026844 0.000471894 1.92324e-06
-8.93226e-06 1.92324e-06 0.000293194
0.00226783 -0.000500413 -9.13168e-06
-0.000500413 0.000730889 2.69136e-06
-9.13168e-06 2.69136e-06 0.000416396
0.00214306 -0.000386969 -1.0242e-05
-0.000386969 0.000557495 2.91029e-06
-1.0242e-05 2.91029e-06 0.00032011
0.00205366 -0.000577882 9.35542e-07
-0.000577882 0.000295083 -1.68527e-07
9.35542e-07 -1.68527e-07 -1.87305e-05
0.000324303 5.67414e-06 1.77138e-05
5.67414e-06 -0.00024749 1.29038e-07
1.77138e-05 1.29038e-07 -0.000335936
0.00186719 -2.04422e-05 6.04436e-05
-2.04422e-05 0.000752382 -2.82793e-06
6.04436e-05 -2.82793e-06 0.000669139
0.0020272 -9.58454e-05 4.49597e-06
-9.58454e-05 0.000472994 2.87031e-07
4.49597e-06 2.87031e-07 0.000354585
0.0020848 -0.000214903 1.81785e-06
-0.000214903 0.000500728 -5.97499e-07
1.81785e-06 -5.97499e-07 0.000347446
0.00210474 -0.000329152 8.46004e-06
-0.000329152 0.00049771 -2.23764e-06
8.46004e-06 -2.23764e-06 0.000295999
0.00220073 -0.000384039 -5.50753e-07
-0.000384039 0.000219768 5.82075e-08
-5.50753e-07 5.82075e-08 4.41244e-05
0.00759214 1.89444e-05 0.000293997
1.89444e-05 0.00458828 -2.72953e-05
0.000293997 -2.72953e-05 0.00459603
0.001944 -0.000524185 3.60982e-06
-0.000524185 0.000156853 1.3465e-06
3.60982e-06 1.3465e-06 -0.000112168
0.000174026 -0.000230152 2.06479e-05
-0.000230152 -0.000313587 -2.65496e-05
2.06479e-05 -2.65496e-05 -0.000480675
0.00109299 -0.000437921 2.29393e-05
-0.000437921 4.82261e-05 -6.93588e-06
2.29393e-05 -6.93588e-06 -0.000293688
0.00218581 -0.000645078 4.5943e-06
-0.000645078 0.000446739 2.36445e-06
4.5943e-06 2.36445e-06 7.74883e-05
0.00211357 -0.000641899 2.79968e-06
-0.000641899 0.000231961 4.53622e-06
2.79968e-06 4.53622e-06 -5.53507e-05
0.000388447 -0.00019016 2.3572e-05
-0.00019016 -0.000118633 -2.23543e-05
2.3572e-05 -2.23543e-05 -0.000258056
0.000950791 -0.000189198 -8.13507e-07
-0.000189198 0.000282401 -5.0023e-06
-8.13507e-07 -5.0023e-06 1.08781e-06
0.00743975 0.000298577 -0.000406249
0.000298577 0.00447584 -4.59501e-05
-0.000406249 -4.59501e-05 0.00448914
0.00769172 0.000281712 -0.000396454
0.000281712 0.00462619 -4.86868e-05
-0.000396454 -4.86868e-05 0.0046419
0.000321541 0.00016633 -1.74232e-05
0.00016633 -0.00028152 -1.49252e-05
-1.74232e-05 -1.49252e-05 -0.0004227
0.00715944 -5.22242e-05 -0.000275355
-5.22242e-05 0.00432585 -2.36434e-05
-0.000275355 -2.36434e-05 0.00433374
-8.13179e-05 0.000217253 -1.96896e-05
0.000217253 -0.000442774 -2.53955e-05
-1.96896e-05 -2.53955e-05 -0.000604776
0.000282018 0.000233582 -2.1394e-05
0.000233582 -0.00024732 -2.11384e-05
-2.1394e-05 -2.11384e-05 -0.000414567
0.00113561 0.000421877 -2.94441e-05
0.000421877 6.24632e-05 -8.46105e-06
-2.94441e-05 -8.46105e-06 -0.000254499
0.00647614 -8.05664e-05 -1.21865e-05
-8.05664e-05 0.00392104 1.67342e-06
-1.21865e-05 1.67342e-06 0.00392002
0.000673887 0.000122564 5.63324e-07
0.000122564 8.5891e-05 4.38106e-07
5.63324e-07 4.38106e-07 -9.14709e-06
0.00172808 0.000178907 7.51608e-05
0.000178907 0.000619172 7.20596e-06
7.51608e-05 7.20596e-06 0.000508108
0.00173351 0.000252983 7.90594e-05
0.000252983 0.000651211 8.99908e-06
7.90594e-05 8.99908e-06 0.000516492
0.00142097 0.000357865 -1.61462e-07
0.000357865 3.8892e-05 -3.47626e-07
-1.61462e-07 -3.47626e-07 -0.000205725
0.000335273 0.000221352 -1.48383e-06
0.000221352 -0.000156951 -6.08214e-08
-1.48383e-06 -6.08214e-08 -0.000301418
0.00129832 0.000424652 7.83164e-07
0.000424652 8.897e-05 9.51891e-08
7.83164e-07 9.51891e-08 -0.000210616
0.000849558 0.000365107 2.58476e-06
0.000365107 6.65762e-06 -1.41067e-06
2.58476e-06 -1.41067e-06 -0.000301616
0.00182045 0.000664752 -1.9693e-06
0.000664752 0.00032488 -2.84163e-07
-1.9693e-06 -2.84163e-07 -8.80506e-05
0.000488835 0.00018614 2.08393e-05
0.00018614 -4.64787e-05 2.0557e-05
2.08393e-05 2.0557e-05 -0.00016999
0.000614803 8.28008e-05 1.67585e-05
8.28008e-05 7.70738e-05 1.53675e-05
1.67585e-05 1.53675e-05 -1.06522e-05
0.00110357 0.000332708 2.01049e-06
0.000332708 0.000412122 1.93598e-06
2.01049e-06 1.93598e-06 0.000153731
0.00145604 0.000305281 9.50784e-06
0.000305281 2.06599e-05 3.53438e-06
9.50784e-06 3.53438e-06 -0.000192081
0.00142962 0.000402433 1.91984e-05
0.000402433 9.19984e-05 6.85566e-06
1.91984e-05 6.85566e-06 -0.000181219
0.00216809 0.000554518 4.9487e-06
0.000554518 0.000274959 -9.33567e-07
4.9487e-06 -9.33567e-07 4.64255e-06
0.000428897 0.000285862 1.05067e-05
0.000285862 -0.000148797 7.18819e-06
1.05067e-05 7.18819e-06 -0.000434033
0.00218999 0.000680911 4.69325e-06
0.000680911 0.000453491 -3.25077e-06
4.69325e-06 -3.25077e-06 8.32468e-05
0.00178043 0.000687856 5.68272e-06
0.000687856 0.000472158 -6.40133e-06
5.68272e-06 -6.40133e-06 1.59529e-06
0.00178803 0.000704913 -8.79381e-06
0.000704913 0.000204157 -8.23944e-06
-8.79381e-06 -8.23944e-06 -0.000197317
0.00436559 -0.000145263 0.000110001
-0.000145263 0.00255879 8.92584e-06
0.000110001 8.92584e-06 0.00254895
0.00480712 -0.000183459 1.83533e-05
-0.000183459 0.00286292 -9.19269e-07
1.83533e-05 -9.19269e-07 0.00284221
0.00529228 -0.000210131 -0.00013168
-0.000210131 0.00318518 -1.16155e-05
-0.00013168 -1.16155e-05 0.00315777
0.000488666 -0.000190603 2.45275e-05
-0.000190603 -3.68578e-05 -1.97343e-05
2.45275e-05 -1.97343e-05 -0.000157402
0.00662687 7.36634e-05 0.000241232
7.36634e-05 0.00400726 -2.54186e-05
0.000241232 -2.54186e-05 0.00400466
0.00726819 0.000242473 -0.000399083
0.000242473 0.00435877 -3.71256e-05
-0.000399083 -3.71256e-05 0.00438022
0.00681831 0.000111001 -0.000367736
0.000111001 0.00406135 -1.7936e-05
-0.000367736 -1.7936e-05 0.00409507
0.000301934 0.000109909 -1.64655e-05
0.000109909 -0.000284029 -7.30568e-06
-1.64655e-05 -7.30568e-06 -0.000395093
0.000273981 4.64059e-05 -1.67426e-05
4.64059e-05 -0.000279576 -3.49834e-06
-1.67426e-05 -3.49834e-06 -0.000376629
0.00649111 -2.71373e-06 -0.00035115
-2.71373e-06 0.00385769 -3.60497e-06
-0.00035115 -3.60497e-06 0.00389489
0.00643394 -2.81978e-06 1.34832e-07
-2.81978e-06 0.00382238 -1.31491e-06
1.34832e-07 -1.31491e-06 0.00385995
0.0002832 1.37889e-06 -2.25868e-07
1.37889e-06 -0.000273472 1.83295e-07
-2.25868e-07 1.83295e-07 -0.000363582
0.00157092 4.95747e-05 7.15236e-05
4.95747e-05 0.000542556 3.52324e-06
7.15236e-05 3.52324e-06 0.000463556
0.00121522 8.93611e-05 3.64532e-08
8.93611e-05 -7.64832e-05 -4.87536e-08
3.64532e-08 -4.87536e-08 -0.00021272
0.000359895 0.000105851 -7.97532e-07
0.000105851 -0.000255611 -3.40789e-07
-7.97532e-07 -3.40789e-07 -0.00037553
0.00130542 0.000180119 -2.02032e-07
0.000180119 -5.77752e-05 -2.2475e-08
-2.02032e-07 -2.2475e-08 -0.000219829
0.000273096 -3.37313e-05 1.76015e-05
-3.37313e-05 -0.00028046 -2.60153e-07
1.76015e-05 -2.60153e-07 -0.000367597
0.00116961 3.84753e-05 6.93949e-06
3.84753e-05 -8.89047e-05 5.96095e-07
6.93949e-06 5.96095e-07 -0.000218041
0.00129194 0.000135507 4.15357e-06
0.000135507 -4.78214e-05 1.42022e-06
4.15357e-06 1.42022e-06 -0.000193983
0.0021271 0.000142018 1.98453e-06
0.000142018 9.57234e-05 1.01318e-06
1.98453e-06 1.01318e-06 2.06897e-05
0.00138432 0.000238166 5.51537e-06
0.000238166 -3.02267e-05 2.31984e-06
5.51537e-06 2.31984e-06 -0.000213406
0.00212832 0.000306542 2.44143e-06
0.000306542 0.000100633 3.86218e-07
2.44143e-06 3.86218e-07 -2.28385e-05
0.00646345 -8.37892e-05 -0.000355137
-8.37892e-05 0.00385061 5.24531e-06
-0.000355137 5.24531e-06 0.00388291
0.00157716 -0.000168137 -7.87501e-05
-0.000168137 0.000718582 1.0191e-05
-7.87501e-05 1.0191e-05 0.000657654
-0.000235684 -1.01251e-05 -9.2808e-06
-1.01251e-05 -0.000600049 9.62436e-07
-9.2808e-06 9.62436e-07 -0.000704391
0.00215505 -8.53522e-05 -0.000143515
-8.53522e-05 0.000927603 1.05302e-05
-0.000143515 1.05302e-05 0.000852686
0.00835642 0.000183044 -7.26113e-05
0.000183044 0.00504433 3.4935e-06
-7.26113e-05 3.4935e-06 0.00500364
0.00311032 -0.000322076 -0.000171799
-0.000322076 0.00157731 3.37407e-05
-0.000171799 3.37407e-05 0.00143728
0.00224858 -0.00015862 -0.000149102
-0.00015862 0.000959656 2.00641e-05
-0.000149102 2.00641e-05 0.000868503
0.00210514 -0.000268021 -2.33378e-05
-0.000268021 0.000492237 4.54567e-06
-2.33378e-05 4.54567e-06 0.000319589
0.00221824 -0.000390963 -3.0668e-05
-0.000390963 0.000606679 9.58806e-06
-3.0668e-05 9.58806e-06 0.000366548
0.00237227 -0.000511354 -3.96903e-05
-0.000511354 0.000808258 1.17896e-05
-3.96903e-05 1.17896e-05 0.000493324
0.00206543 -0.000577907 -2.6688e-06
-0.000577907 0.000307068 -2.02585e-06
-2.6688e-06 -2.02585e-06 -6.28395e-06
0.00027668 1.45261e-06 5.84617e-08
1.45261e-06 -0.000276288 3.90791e-07
5.84617e-08 3.90791e-07 -0.000365577
0.00199298 -0.000101429 -3.87616e-05
-0.000101429 0.000843188 6.95695e-07
-3.87616e-05 6.95695e-07 0.000761618
0.00169103 -9.21717e-05 -1.3781e-05
-9.21717e-05 0.000252795 8.53681e-07
-1.3781e-05 8.53681e-07 0.00013082
0.00199715 -0.000209966 -1.24123e-05
-0.000209966 0.000436975 2.09842e-06
-1.24123e-05 2.09842e-06 0.0002792
0.00786077 1.23667e-05 4.44947e-06
1.23667e-05 0.00475952 -2.27074e-09
4.44947e-06 -2.27074e-09 0.00476699
0.00170404 -0.000237455 1.00134e-05
-0.000237455 0.000688088 -1.99696e-07
1.00134e-05 -1.99696e-07 0.000515654
0.00167658 -0.00046702 -5.34649e-07
-0.00046702 0.000428158 -1.41113e-06
-5.34649e-07 -1.41113e-06 9.11145e-05
0.00215516 -0.000335506 -1.02784e-05
-0.000335506 0.000528362 2.85005e-06
-1.02784e-05 2.85005e-06 0.000324767
0.00218291 -0.000389157 1.76049e-06
-0.000389157 0.000196943 -1.07219e-06
1.76049e-06 -1.07219e-06 2.79932e-05
0.00214366 -0.000642064 1.81329e-06
-0.000642064 0.00041735 2.45992e-08
1.81329e-06 2.45992e-08 4.99319e-05
0.00206132 -0.000526984 1.80062e-07
-0.000526984 0.000240097 -1.13858e-07
1.80062e-07 -1.13858e-07 -3.02268e-05
0.00217338 -0.000646308 8.09674e-07
-0.000646308 0.000275869 2.80143e-07
8.09674e-07 2.80143e-07 -1.2693e-05
0.000386231 -0.000211933 1.91698e-06
-0.000211933 -0.000129536 2.87632e-07
1.91698e-06 2.87632e-07 -0.000266511
0.000874416 -0.000248736 -7.6626e-07
-0.000248736 0.000232408 3.25076e-07
-7.6626e-07 3.25076e-07 -5.25674e-05
0.00116641 -4.57037e-05 8.44482e-06
-4.57037e-05 -7.6888e-05 3.30687e-08
8.44482e-06 3.30687e-08 -0.000207272
0.00209003 -0.000152344 1.55942e-06
-0.000152344 0.000513631 -6.23481e-08
1.55942e-06 -6.23481e-08 0.000381371
0.00194439 -0.000155397 1.60397e-06
-0.000155397 -1.00813e-05 -6.08121e-07
1.60397e-06 -6.08121e-07 -0.00010495
0.00223134 -0.000318421 -8.73916e-07
-0.000318421 0.00019936 1.08795e-06
-8.73916e-07 1.08795e-06 7.81556e-05
0.00194073 -0.000460943 -1.51265e-06
-0.000460943 9.22622e-05 1.07669e-06
-1.51265e-06 1.07669e-06 -0.000128063
0.00235384 -0.000436709 4.85946e-06
-0.000436709 0.000223723 -1.30563e-06
4.85946e-06 -1.30563e-06 9.65698e-05
0.000173199 -0.000216681 2.06082e-05
-0.000216681 -0.000284865 -2.57036e-05
2.06082e-05 -2.57036e-05 -0.000441692
0.00213673 -0.000583503 1.44159e-06
-0.000583503 0.000194653 2.79615e-06
1.44159e-06 2.79615e-06 -3.61851e-05
0.00136606 -0.000392971 1.67825e-05
-0.000392971 0.00032724 -8.11675e-06
1.67825e-05 -8.11675e-06 4.68226e-06
0.00182112 -0.000709465 1.33228e-05
-0.000709465 0.000297749 2.65068e-06
1.33228e-05 2.65068e-06 -0.000148645
0.00243873 -0.000723166 2.42775e-06
-0.000723166 0.000507962 3.92969e-06
2.42775e-06 3.92969e-06 0.000148316
0.00240368 -0.000682072 -1.1445e-06
-0.000682072 0.000391717 4.88984e-06
-1.1445e-06 4.88984e-06 0.000126906
0.000756946 -0.000249068 4.51662e-06
-0.000249068 0.000134445 -1.11789e-06
4.51662e-06 -1.11789e-06 -0.000168316
0.00152539 -0.000254394 6.87867e-06
-0.000254394 0.000640235 -5.17661e-06
6.87867e-06 -5.17661e-06 0.000397137
0.00165908 -0.000394672 8.02233e-09
-0.000394672 0.000754415 -1.8049e-07
8.02233e-09 -1.8049e-07 0.000384245
0.000336717 0.000139288 -1.62708e-05
0.000139288 -0.000278467 -1.15976e-05
-1.62708e-05 -1.15976e-05 -0.000410176
0.00589 -0.000115271 -0.000208085
-0.000115271 0.00354509 -1.68963e-05
-0.000208085 -1.68963e-05 0.0035416
0.000401161 0.000106528 -1.98498e-05
0.000106528 -8.51251e-05 -1.54313e-05
-1.98498e-05 -1.54313e-05 -0.000175074
0.000278534 0.000198312 -1.90311e-05
0.000198312 -0.000287283 -1.84033e-05
-1.90311e-05 -1.84033e-05 -0.000440118
0.00137177 0.000355459 -1.51849e-05
0.000355459 1.2352e-05 -5.81425e-06
-1.51849e-05 -5.81425e-06 -0.000233402
0.000224481 0.000216292 -2.30882e-05
0.000216292 -0.000238596 -2.44505e-05
-2.30882e-05 -2.44505e-05 -0.000379694
0.000974358 0.000370577 -1.97578e-05
0.000370577 8.37441e-05 -1.08614e-05
-1.97578e-05 -1.08614e-05 -0.000222355
0.00126144 0.000421714 -2.62666e-05
0.000421714 6.54626e-05 -8.21157e-06
-2.62666e-05 -8.21157e-06 -0.000234518
0.00191389 0.000686067 -1.11424e-05
0.000686067 0.000370197 3.80537e-06
-1.11424e-05 3.80537e-06 -4.56637e-05
0.000405304 0.000187915 -4.79684e-06
0.000187915 -0.000105068 1.6345e-06
-4.79684e-06 1.6345e-06 -0.000220671
0.000375287 5.65878e-05 9.96908e-07
5.65878e-05 -6.84421e-05 5.43419e-07
9.96908e-07 5.43419e-07 -0.000154189
0.000944365 0.000258822 6.41294e-07
0.000258822 0.000268411 9.96795e-07
6.41294e-07 9.96795e-07 4.2727e-05
0.00143172 0.000304046 -2.51662e-07
0.000304046 1.35967e-05 -3.66117e-07
-2.51662e-07 -3.66117e-07 -0.000200295
0.00139061 0.000398056 1.72255e-07
0.000398056 7.2739e-05 -3.19979e-07
1.72255e-07 -3.19979e-07 -0.000200649
0.00215581 0.000553463 -5.03391e-07
0.000553463 0.000264759 -2.12135e-07
-5.03391e-07 -2.12135e-07 -5.35123e-06
0.000590635 0.000278935 -5.17025e-07
0.000278935 -4.94895e-05 7.25306e-07
-5.17025e-07 7.25306e-07 -0.000324307
0.00219673 0.000676578 -1.09515e-06
0.000676578 0.000458697 -4.70805e-07
-1.09515e-06 -4.70805e-07 8.82941e-05
0.00181165 0.000704287 -9.37116e-07
0.000704287 0.000459894 -2.27536e-06
-9.37116e-07 -2.27536e-06 -1.77672e-05
0.00174852 0.000713081 -1.39917e-06
0.000713081 0.00015493 3.13141e-06
-1.39917e-06 3.13141e-06 -0.000244349
0.000449691 3.36456e-05 7.24962e-06
3.36456e-05 -8.59587e-06 1.43479e-05
7.24962e-06 1.43479e-05 -8.46076e-05
0.00149826 0.000310566 5.9393e-06
0.000310566 0.000622617 1.85225e-06
5.9393e-06 1.85225e-06 0.000350148
0.000823929 0.000168343 4.66059e-06
0.000168343 0.000221627 9.2966e-07
4.66059e-06 9.2966e-07 6.33499e-06
-0.000285679 0.00010784 -4.53303e-06
0.00010784 -0.000477781 4.39584e-06
-4.53303e-06 4.39584e-06 -0.000763142
0.00224958 0.00048644 2.58847e-06
0.00048644 0.000261662 -2.0015e-06
2.58847e-06 -2.0015e-06 4.31298e-05
0.00213859 0.00061826 4.94881e-06
0.00061826 0.000335723 -1.5554e-06
4.94881e-06 -1.5554e-06 1.19703e-05
0.00224573 0.000616339 1.34069e-06
0.000616339 0.000243004 -1.49645e-06
1.34069e-06 -1.49645e-06 -7.7068e-06
0.00135511 0.00055857 -4.08364e-06
0.00055857 0.000301725 -5.05749e-06
-4.08364e-06 -5.05749e-06 -0.000126971
0.00253171 0.000781488 -6.30608e-06
0.000781488 0.00058022 -4.32277e-06
-6.30608e-06 -4.32277e-06 0.000219504
0.00225504 0.00085646 -1.41729e-05
0.00085646 0.000627304 -1.48264e-05
-1.41729e-05 -1.48264e-05 0.000102095
0.00212052 0.000751245 -5.32218e-06
0.000751245 0.000274949 -4.5558e-06
-5.32218e-06 -4.5558e-06 -0.000100192
0.000720063 9.47581e-05 2.28924e-07
9.47581e-05 0.000212507 6.76021e-06
2.28924e-07 6.76021e-06 9.71597e-05
0.000520542 1.95696e-05 3.49178e-06
1.95696e-05 3.72376e-05 1.1679e-05
3.49178e-06 1.1679e-05 -1.13603e-05
0.00374822 -0.000130031 7.55953e-05
-0.000130031 0.00214692 6.6284e-06
7.55953e-05 6.6284e-06 0.00214068
0.00417723 -0.000173413 1.41241e-05
-0.000173413 0.00244424 -1.42509e-06
1.41241e-05 -1.42509e-06 0.00242614
0.0046021 -0.000223498 -8.08381e-05
-0.000223498 0.00274376 -9.47393e-06
-8.08381e-05 -9.47393e-06 0.00271032
0.000585122 -0.000212332 3.16469e-05
-0.000212332 3.94461e-05 -1.91731e-05
3.16469e-05 -1.91731e-05 -6.63263e-05
0.00615353 0.000108524 0.000207996
0.000108524 0.0037196 -2.36467e-05
0.000207996 -2.36467e-05 0.00371082
0.000533775 -0.000203143 2.96655e-06
-0.000203143 -1.75634e-05 8.47131e-07
2.96655e-06 8.47131e-07 -0.000140194
0.00703408 5.09226e-05 5.87829e-06
5.09226e-05 0.00426229 1.08914e-07
5.87829e-06 1.08914e-07 0.00426227
0.000333529 0.000130642 -1.67928e-05
0.000130642 -0.000272882 -9.47196e-06
-1.67928e-05 -9.47196e-06 -0.000396071
0.000286434 4.07313e-05 -1.52437e-05
4.07313e-05 -0.000284577 -4.33506e-06
-1.52437e-05 -4.33506e-06 -0.000385731
0.00127512 0.000181051 -3.97066e-06
0.000181051 -7.31653e-05 -1.67404e-06
-3.97066e-06 -1.67404e-06 -0.000236616
0.00120853 9.24134e-05 -5.96017e-06
9.24134e-05 -8.15766e-05 -1.015e-06
-5.96017e-06 -1.015e-06 -0.000218572
0.000328999 -6.58539e-06 -1.73169e-05
-6.58539e-06 -0.000247302 -1.35091e-06
-1.73169e-05 -1.35091e-06 -0.000335918
0.00652957 -0.000105546 -0.000362403
-0.000105546 0.00389724 6.6514e-06
-0.000362403 6.6514e-06 0.00392826
0.000321977 -3.73152e-06 1.64021e-08
-3.73152e-06 -0.000250183 -6.87818e-07
1.64021e-08 -6.87818e-07 -0.00033711
0.00117307 4.36224e-05 1.63173e-08
4.36224e-05 -8.75777e-05 3.78376e-08
1.63173e-08 3.78376e-08 -0.000217129
0.00126614 0.000135732 -1.27163e-07
0.000135732 -6.36563e-05 7.13786e-09
-1.27163e-07 7.13786e-09 -0.000210705
0.00209858 0.000139913 -5.33573e-08
0.000139913 7.87765e-05 2.39189e-07
-5.33573e-08 2.39189e-07 3.56505e-06
0.00138492 0.000239326 -3.90051e-07
0.000239326 -2.32025e-05 -1.34514e-07
-3.90051e-07 -1.34514e-07 -0.000207839
0.00212685 0.000305539 -5.83347e-07
0.000305539 0.00010321 3.09413e-07
-5.83347e-07 3.09413e-07 -2.0588e-05
0.00114027 -5.7813e-06 7.88337e-06
-5.7813e-06 -9.66651e-05 1.92103e-07
7.88337e-06 1.92103e-07 -0.000224698
0.00212757 6.62445e-05 2.60092e-06
6.62445e-05 0.000102401 7.81245e-07
2.60092e-06 7.81245e-07 3.3787e-05
0.0020942 0.000222608 1.4775e-06
0.000222608 7.35373e-05 8.09635e-07
1.4775e-06 8.09635e-07 -1.91677e-05
0.00220509 0.000160893 6.22307e-06
0.000160893 5.7436e-05 1.70325e-06
6.22307e-06 1.70325e-06 3.56048e-05
0.002238 0.00039852 3.5519e-06
0.00039852 0.000196085 -6.06549e-07
3.5519e-06 -6.06549e-07 2.9159e-05
0.00226255 0.000334149 5.64148e-06
0.000334149 9.28585e-05 1.06731e-06
5.64148e-06 1.06731e-06 2.70582e-05
0.000321607 -5.62407e-06 -1.68259e-05
-5.62407e-06 -0.00024434 9.32194e-08
-1.68259e-05 9.32194e-08 -0.000335838
0.00209932 -5.69725e-05 -0.000141633
-5.69725e-05 0.000899991 6.97959e-06
-0.000141633 6.97959e-06 0.000832132
0.00132803 -8.78783e-05 -1.66338e-05
-8.78783e-05 1.41344e-05 1.22693e-06
-1.66338e-05 1.22693e-06 -0.000111783
0.00190315 -0.000205537 -2.07141e-05
-0.000205537 0.00036839 3.59809e-06
-2.07141e-05 3.59809e-06 0.000206068
0.00823794 -1.72916e-05 -0.000347972
-1.72916e-05 0.00499306 3.84393e-05
-0.000347972 3.84393e-05 0.00500285
0.00370228 -0.000342636 -0.000198848
-0.000342636 0.00197092 3.2726e-05
-0.000198848 3.2726e-05 0.00183516
0.00190467 -0.000496138 -3.24313e-05
-0.000496138 0.000600414 9.31296e-06
-3.24313e-05 9.31296e-06 0.000261003
0.00218909 -0.000340767 -2.84209e-05
-0.000340767 0.000547664 7.47402e-06
-2.84209e-05 7.47402e-06 0.000342427
0.00217388 -0.000394623 -1.19852e-06
-0.000394623 0.000179871 -1.56831e-06
-1.19852e-06 -1.56831e-06 1.77361e-05
0.00217826 -0.000529725 -1.6862e-06
-0.000529725 0.00032459 -8.22916e-07
-1.6862e-06 -8.22916e-07 5.29501e-05
0.00215916 -0.00064466 -3.35307e-06
-0.00064466 0.000422641 -3.0135e-06
-3.35307e-06 -3.0135e-06 5.59693e-05
0.0022442 -0.000652381 -1.501e-06
-0.000652381 0.00032508 -3.72688e-06
-1.501e-06 -3.72688e-06 3.48733e-05
0.000480148 -0.000226473 -2.34823e-05
-0.000226473 -7.16873e-05 2.27032e-05
-2.34823e-05 2.27032e-05 -0.00021175
0.000193625 -0.000214963 -1.93469e-06
-0.000214963 -0.00018368 3.49861e-06
-1.93469e-06 3.49861e-06 -0.000478092
0.00122802 -4.19087e-05 4.60172e-07
-4.19087e-05 -3.7935e-05 -4.29294e-08
4.60172e-07 -4.29294e-08 -0.000162359
0.00205968 -0.000152195 -1.18514e-05
-0.000152195 0.000489357 1.47539e-06
-1.18514e-05 1.47539e-06 0.000357438
0.00198062 -0.000152102 2.25264e-06
-0.000152102 1.19906e-05 -3.28092e-07
2.25264e-06 -3.28092e-07 -7.78843e-05
0.00206692 -0.00031309 -1.89996e-06
-0.00031309 8.92169e-05 7.90769e-07
-1.89996e-06 7.90769e-07 -4.35133e-05
0.000358153 -0.000242144 7.304e-07
-0.000242144 -0.000163284 6.01145e-07
7.304e-07 6.01145e-07 -0.000323589
0.000721975 -0.000370748 -3.4833e-06
-0.000370748 -6.97178e-05 -1.62055e-07
-3.4833e-06 -1.62055e-07 -0.000397602
0.00187047 -0.00071283 7.86692e-07
-0.00071283 0.000330073 5.84699e-07
7.86692e-07 5.84699e-07 -0.000119734
0.00205157 -0.000464478 -2.0121e-06
-0.000464478 0.000172709 5.35543e-07
-2.0121e-06 5.35543e-07 -5.0707e-05
0.00227913 -0.000436223 1.35636e-06
-0.000436223 0.00016318 -6.49991e-07
1.35636e-06 -6.49991e-07 4.33557e-05
0.0024935 -0.000729991 3.06444e-07
-0.000729991 0.00054208 -1.14884e-06
3.06444e-07 -1.14884e-06 0.000185306
0.0021688 -0.000586348 3.97655e-07
-0.000586348 0.000213362 3.72321e-07
3.97655e-07 3.72321e-07 -1.82998e-05
0.00224089 -0.000675105 3.15814e-07
-0.000675105 0.000279026 9.47598e-07
3.15814e-07 9.47598e-07 1.25665e-05
0.000713917 -0.000253524 2.43339e-07
-0.000253524 0.000107335 -8.9917e-07
2.43339e-07 -8.9917e-07 -0.000198052
0.000323452 -0.000235261 -4.74275e-07
-0.000235261 -0.000138143 -1.40199e-06
-4.74275e-07 -1.40199e-06 -0.000473861
0.000510957 -0.000215404 4.84724e-06
-0.000215404 4.40041e-05 1.88531e-06
4.84724e-06 1.88531e-06 -0.000219765
0.00192692 -7.5245e-05 2.81755e-06
-7.5245e-05 -1.90922e-05 -2.75278e-07
2.81755e-06 -2.75278e-07 -0.000103573
0.00205268 -0.000230304 -1.19772e-06
-0.000230304 5.46057e-05 -4.43245e-07
-1.19772e-06 -4.43245e-07 -4.9085e-05
0.00213655 -0.000156689 7.42957e-06
-0.000156689 2.41355e-05 -1.29461e-06
7.42957e-06 -1.29461e-06 -1.00668e-05
0.00227883 -0.00035601 3.49933e-06
-0.00035601 0.000108746 -9.91073e-07
3.49933e-06 -9.91073e-07 3.74107e-05
0.00207334 -0.000520863 2.37847e-07
-0.000520863 9.03377e-05 1.42318e-06
2.37847e-07 1.42318e-06 -8.38128e-05
0.00231495 -0.000457173 2.20544e-06
-0.000457173 0.000118521 -4.87742e-07
2.20544e-06 -4.87742e-07 4.77319e-05
0.000687866 -0.000285028 1.02103e-05
-0.000285028 1.37617e-05 -5.5487e-06
1.02103e-05 -5.5487e-06 -0.000278863
0.00222249 -0.000629952 4.58578e-07
-0.000629952 0.000183637 1.18608e-06
4.58578e-07 1.18608e-06 -1.61276e-05
0.00170276 -0.000713762 7.20494e-06
-0.000713762 0.000389729 4.54628e-08
7.20494e-06 4.54628e-08 -0.000104323
0.00219915 -0.000843618 1.22197e-05
-0.000843618 0.000430299 5.64204e-06
1.22197e-05 5.64204e-06 -4.07942e-05
0.00254313 -0.000747535 3.09498e-06
-0.000747535 0.000548962 5.16291e-06
3.09498e-06 5.16291e-06 0.000212921
0.00247682 -0.000720628 -1.67655e-07
-0.000720628 0.00042232 1.42726e-06
-1.67655e-07 1.42726e-06 0.000168142
0.000669708 -0.000162557 -1.65276e-06
-0.000162557 0.000210126 -5.63452e-06
-1.65276e-06 -5.63452e-06 -6.59596e-05
0.00190185 -0.00046181 -3.32282e-06
-0.00046181 0.000756482 -1.94748e-06
-3.32282e-06 -1.94748e-06 0.00038318
-0.00100495 -8.39298e-05 6.93292e-06
-8.39298e-05 -0.000872798 -8.30961e-07
6.93292e-06 -8.30961e-07 -0.00119157
0.00194033 -0.000554984 1.10842e-05
-0.000554984 0.000876922 4.26204e-06
1.10842e-05 4.26204e-06 0.000428431
0.00140596 0.000302983 -1.11518e-05
0.000302983 5.08801e-06 -4.18115e-06
-1.11518e-05 -4.18115e-06 -0.000209972
0.000350735 3.59189e-05 -7.17038e-06
3.59189e-05 -7.72233e-05 -1.66789e-05
-7.17038e-06 -1.66789e-05 -0.000162945
0.000407873 0.000145759 -2.36859e-05
0.000145759 -9.13467e-05 -1.78426e-05
-2.36859e-05 -1.78426e-05 -0.000206416
6.70353e-05 0.000183152 -6.37412e-06
0.000183152 -0.000273185 2.34712e-06
-6.37412e-06 2.34712e-06 -0.000499213
0.00133823 0.000393438 -2.03782e-05
0.000393438 4.37436e-05 -7.40818e-06
-2.03782e-05 -7.40818e-06 -0.000229927
0.0021427 0.00055204 -4.9095e-06
0.00055204 0.000254675 9.67878e-07
-4.9095e-06 9.67878e-07 -1.51126e-05
0.000479331 0.000239053 -1.03125e-05
0.000239053 -0.000125272 -4.30415e-06
-1.03125e-05 -4.30415e-06 -0.000380088
0.00167824 0.000689994 -9.06957e-06
0.000689994 0.000357333 2.07317e-06
-9.06957e-06 2.07317e-06 -0.000116805
0.00221488 0.000673087 -4.3643e-06
0.000673087 0.000470717 2.8967e-06
-4.3643e-06 2.8967e-06 0.000100051
0.00169072 0.000713241 9.03667e-06
0.000713241 0.000106254 1.33466e-05
9.03667e-06 1.33466e-05 -0.00028792
0.000381723 1.67311e-05 -3.59183e-06
1.67311e-05 -4.66439e-05 7.703e-07
-3.59183e-06 7.703e-07 -0.00012069
0.000601919 0.000237985 -8.7196e-08
0.000237985 7.42268e-05 -1.35196e-06
-8.7196e-08 -1.35196e-06 -0.000197446
0.000449652 0.000142031 3.20597e-06
0.000142031 -1.13422e-05 -1.58253e-06
3.20597e-06 -1.58253e-06 -0.000228102
0.000537023 0.00019142 -2.59285e-06
0.00019142 4.39353e-05 4.14848e-06
-2.59285e-06 4.14848e-06 -0.000255218
0.00218482 0.000481368 -1.87337e-06
0.000481368 0.000218012 -1.39494e-06
-1.87337e-06 -1.39494e-06 2.92882e-07
0.00211279 0.000616891 -7.10463e-07
0.000616891 0.000317682 -3.18048e-07
-7.10463e-07 -3.18048e-07 -6.23782e-06
0.00223528 0.000613209 2.4409e-08
0.000613209 0.000241815 1.23914e-07
2.4409e-08 1.23914e-07 -7.74245e-06
0.00167116 0.000582872 2.72947e-06
0.000582872 0.000521455 -9.82026e-08
2.72947e-06 -9.82026e-08 8.89659e-05
0.00244158 0.000765728 1.34166e-06
0.000765728 0.000533939 9.24941e-07
1.34166e-06 9.24941e-07 0.000172792
0.00198495 0.000815244 -1.11841e-06
0.000815244 0.000469435 -2.06913e-06
-1.11841e-06 -2.06913e-06 -4.50721e-05
0.00220036 0.00073794 -6.93514e-06
0.00073794 0.000338626 2.93292e-06
-6.93514e-06 2.93292e-06 -2.28951e-05
0.00057266 1.90187e-05 5.62667e-06
1.90187e-05 6.57393e-05 1.3012e-05
5.62667e-06 1.3012e-05 9.08481e-06
0.00127456 0.000114978 -1.01925e-08
0.000114978 0.000553054 9.69142e-06
-1.01925e-08 9.69142e-06 0.000351928
0.000724726 0.000389292 -7.39026e-06
0.000389292 8.84185e-05 -6.37086e-07
-7.39026e-06 -6.37086e-07 -0.000255431
0.0018008 0.000203885 4.23952e-06
0.000203885 0.000862751 -4.31785e-06
4.23952e-06 -4.31785e-06 0.000557477
0.00103683 0.000140597 -2.49883e-06
0.000140597 0.000231526 1.17131e-05
-2.49883e-06 1.17131e-05 -2.12195e-05
0.00216656 0.000525948 8.94917e-07
0.000525948 0.000118377 -2.00833e-06
8.94917e-07 -2.00833e-06 -7.03279e-05
0.00226945 0.000702085 -1.29229e-06
0.000702085 0.00033389 -2.63998e-06
-1.29229e-06 -2.63998e-06 2.27908e-05
0.00221752 0.000666744 -3.46291e-06
0.000666744 0.000203639 -9.31202e-07
-3.46291e-06 -9.31202e-07 -4.62631e-05
0.00181812 0.000821045 -4.21594e-06
0.000821045 0.000595068 -9.05578e-06
-4.21594e-06 -9.05578e-06 2.39706e-05
0.00261887 0.000828059 -6.90161e-06
0.000828059 0.000566502 -4.05923e-06
-6.90161e-06 -4.05923e-06 0.000209796
0.00189082 0.000858776 3.76791e-06
0.000858776 0.000324794 -7.93078e-06
3.76791e-06 -7.93078e-06 -0.000171332
0.000588355 9.27102e-05 -3.6181e-07
9.27102e-05 0.0001167 7.87535e-06
-3.6181e-07 7.87535e-06 -1.17158e-05
0.000808772 0.000140099 -4.30478e-06
0.000140099 0.000352711 4.25399e-06
-4.30478e-06 4.25399e-06 0.000152612
0.000568716 7.34253e-05 -5.51355e-07
7.34253e-05 0.000107735 5.94937e-06
-5.51355e-07 5.94937e-06 1.22888e-05
0.000457198 2.9899e-05 -1.21246e-06
2.9899e-05 3.88321e-05 2.0558e-07
-1.21246e-06 2.0558e-07 -7.03133e-05
0.00154697 -1.08387e-05 2.22916e-06
-1.08387e-05 0.000704087 6.53469e-06
2.22916e-06 6.53469e-06 0.000668214
0.000978817 3.80265e-06 -2.1099e-07
3.80265e-06 0.000335794 -7.75992e-08
-2.1099e-07 -7.75992e-08 0.000290342
0.000947204 -3.19655e-05 5.9412e-05
-3.19655e-05 0.000311966 1.32585e-05
5.9412e-05 1.32585e-05 0.000305619
0.0037084 -0.000141095 1.23062e-05
-0.000141095 0.00212408 -1.16375e-06
1.23062e-05 -1.16375e-06 0.00211481
0.00403974 -0.000179275 -7.01395e-05
-0.000179275 0.00235713 -7.22104e-06
-7.01395e-05 -7.22104e-06 0.00233721
0.000284417 -0.00012391 1.77133e-05
-0.00012391 -0.000105624 -1.59127e-05
1.77133e-05 -1.59127e-05 -0.000195842
0.00553814 0.000169653 0.000143748
0.000169653 0.00334743 -1.83666e-05
0.000143748 -1.83666e-05 0.00332273
0.0004955 -0.000177587 2.24834e-06
-0.000177587 -5.34637e-06 1.12053e-06
2.24834e-06 1.12053e-06 -0.000120003
0.00628504 0.000101954 7.95216e-07
0.000101954 0.00381102 1.06157e-06
7.95216e-07 1.06157e-06 0.00379957
0.000403209 -0.00020741 -2.56513e-05
-0.00020741 -0.000101863 2.11371e-05
-2.56513e-05 2.11371e-05 -0.000226368
0.00726663 4.7841e-05 -0.000288432
4.7841e-05 0.00441245 3.42356e-05
-0.000288432 3.42356e-05 0.00441208
0.00137503 0.000239495 -7.24813e-06
0.000239495 -2.12038e-05 -2.60745e-06
-7.24813e-06 -2.60745e-06 -0.000207103
0.00122459 0.000136926 -4.41235e-06
0.000136926 -8.68606e-05 -1.28083e-06
-4.41235e-06 -1.28083e-06 -0.000235072
0.00216498 0.000302465 -2.75808e-06
0.000302465 0.000133662 6.51095e-07
-2.75808e-06 6.51095e-07 1.0403e-05
0.00206767 0.00013782 -2.2756e-06
0.00013782 6.12846e-05 -5.22154e-07
-2.2756e-06 -5.22154e-07 -1.41235e-05
0.00117853 4.86932e-05 -6.92034e-06
4.86932e-05 -8.42945e-05 -5.52165e-07
-6.92034e-06 -5.52165e-07 -0.00021425
0.00029094 2.84633e-05 -1.75981e-05
2.84633e-05 -0.000272982 -1.29238e-06
-1.75981e-05 -1.29238e-06 -0.000358036
0.00114519 -1.4617e-06 -4.10641e-08
-1.4617e-06 -9.35619e-05 4.28814e-08
-4.10641e-08 4.28814e-08 -0.000221606
0.00208615 6.52443e-05 5.75765e-08
6.52443e-05 7.73779e-05 1.41022e-07
5.75765e-08 1.41022e-07 8.53519e-06
0.0021264 0.000221617 -1.34031e-07
0.000221617 9.66929e-05 1.67124e-07
-1.34031e-07 1.67124e-07 4.13632e-06
0.00218346 0.000155675 -4.14443e-07
0.000155675 3.32644e-05 3.64943e-08
-4.14443e-07 3.64943e-08 1.78128e-05
0.00217508 0.000392354 -8.66123e-07
0.000392354 0.000161104 -1.12599e-07
-8.66123e-07 -1.12599e-07 -5.00682e-06
0.00225985 0.000335033 8.1142e-08
0.000335033 8.92652e-05 1.05959e-07
8.1142e-08 1.05959e-07 2.28014e-05
0.00210546 -6.35462e-06 2.52118e-06
-6.35462e-06 9.45166e-05 3.30852e-07
2.52118e-06 3.30852e-07 2.6526e-05
0.00211017 7.20499e-05 4.87374e-06
7.20499e-05 -9.52437e-06 9.01199e-07
4.87374e-06 9.01199e-07 -1.84093e-05
0.00224691 0.000238929 6.37347e-06
0.000238929 8.05863e-05 1.70017e-06
6.37347e-06 1.70017e-06 4.60406e-05
0.00217308 0.000138534 4.39208e-06
0.000138534 4.9228e-06 1.58429e-06
4.39208e-06 1.58429e-06 1.5669e-05
0.0022132 0.000439138 3.31547e-06
0.000439138 9.19137e-05 4.75969e-07
3.31547e-06 4.75969e-07 -2.96561e-05
0.00226159 0.000345239 2.1008e-06
0.000345239 -1.21746e-05 3.91709e-07
2.1008e-06 3.91709e-07 -1.70147e-05
0.00127824 -3.85558e-05 -9.27133e-06
-3.85558e-05 -5.94085e-06 1.91314e-07
-9.27133e-06 1.91314e-07 -0.000124455
0.00205059 -0.000152263 -2.45038e-05
-0.000152263 0.000479523 2.79033e-06
-2.45038e-05 2.79033e-06 0.000347928
0.00203562 -0.000147478 1.35968e-06
-0.000147478 4.50876e-05 -1.64489e-07
1.35968e-06 -1.64489e-07 -3.95027e-05
0.00189421 -0.000306754 7.47112e-07
-0.000306754 -2.63481e-05 7.11521e-07
7.47112e-07 7.11521e-07 -0.000170381
0.000517622 -0.000282006 -2.77374e-05
-0.000282006 -5.86565e-05 2.66246e-05
-2.77374e-05 2.66246e-05 -0.000222452
0.000731808 -0.000378264 -1.58001e-05
-0.000378264 -7.20768e-05 5.60099e-06
-1.58001e-05 5.60099e-06 -0.000403939
0.00189091 -0.000718974 -5.56354e-06
-0.000718974 0.000336201 -1.3817e-06
-5.56354e-06 -1.3817e-06 -0.000118886
0.00215645 -0.000467227 -2.42072e-06
-0.000467227 0.000249464 -3.09457e-07
-2.42072e-06 -3.09457e-07 2.30443e-05
0.00219358 -0.000434837 -9.91551e-07
-0.000434837 9.51523e-05 -7.41343e-09
-9.91551e-07 -7.41343e-09 -1.73176e-05
0.00219923 -0.00058922 -1.77247e-06
-0.00058922 0.000230737 -1.68041e-06
-1.77247e-06 -1.68041e-06 -1.80029e-06
0.00249003 -0.000730422 -1.54359e-06
-0.000730422 0.000540724 -7.58866e-06
-1.54359e-06 -7.58866e-06 0.000188342
0.00204223 -0.000663193 1.86236e-06
-0.000663193 0.00014475 -2.45996e-06
1.86236e-06 -2.45996e-06 -0.000122008
0.000774033 -0.000291138 -8.59758e-06
-0.000291138 0.000151309 2.59644e-06
-8.59758e-06 2.59644e-06 -0.000162187
0.000504506 -0.000228598 -1.56007e-06
-0.000228598 -3.35558e-05 2.18531e-06
-1.56007e-06 2.18531e-06 -0.000353279
0.000579316 -0.000279436 5.94313e-07
-0.000279436 9.57449e-05 7.08157e-06
5.94313e-07 7.08157e-06 -0.000174225
0.00200236 -7.17834e-05 2.83933e-06
-7.17834e-05 3.10476e-05 -1.88656e-07
2.83933e-06 -1.88656e-07 -4.705e-05
0.00204391 -0.000237388 6.87174e-07
-0.000237388 5.33327e-05 -2.28607e-07
6.87174e-07 -2.28607e-07 -5.00588e-05
0.00217331 -0.000153514 1.11998e-06
-0.000153514 3.7903e-05 -9.80671e-08
1.11998e-06 -9.80671e-08 1.14219e-05
0.002213 -0.000344803 -1.30911e-06
-0.000344803 7.34803e-05 2.08598e-07
-1.30911e-06 2.08598e-07 -1.16163e-06
0.000809444 -0.000317178 6.43412e-07
-0.000317178 8.86847e-05 -3.49586e-08
6.43412e-07 -3.49586e-08 -0.000218541
0.00181949 -0.000735368 -1.53848e-07
-0.000735368 0.000469569 -1.28191e-06
-1.53848e-07 -1.28191e-06 -3.04381e-05
0.00210918 -0.00083084 8.1501e-07
-0.00083084 0.000381813 1.46964e-06
8.1501e-07 1.46964e-06 -9.18138e-05
0.00209064 -0.000516445 -5.50643e-07
-0.000516445 0.000110269 6.04946e-07
-5.50643e-07 6.04946e-07 -7.07139e-05
0.002285 -0.000459415 1.74767e-07
-0.000459415 8.52543e-05 7.32612e-10
1.74767e-07 7.32612e-10 2.16822e-05
0.00237081 -0.000738108 -8.64576e-07
-0.000738108 0.000424462 4.37699e-07
-8.64576e-07 4.37699e-07 8.88449e-05
0.0021921 -0.00062637 -6.50213e-07
-0.00062637 0.000161634 8.10815e-07
-6.50213e-07 8.10815e-07 -3.7646e-05
0.00237959 -0.000706131 1.19391e-06
-0.000706131 0.000355607 -6.11355e-07
1.19391e-06 -6.11355e-07 0.000105992
0.00079711 -0.000394537 -3.44738e-06
-0.000394537 9.21583e-05 1.33505e-07
-3.44738e-06 1.33505e-07 -0.000288929
0.00161292 -0.000493471 -1.81208e-06
-0.000493471 0.000664688 1.70477e-06
-1.81208e-06 1.70477e-06 0.000231989
0.000857796 -0.000205929 -2.87643e-06
-0.000205929 0.000300006 -2.48089e-06
-2.87643e-06 -2.48089e-06 4.13142e-05
0.000585903 -0.000170953 6.1412e-07
-0.000170953 9.69541e-05 1.63974e-06
6.1412e-07 1.63974e-06 -0.000199798
0.00219683 -8.47885e-05 6.74119e-06
-8.47885e-05 6.45329e-05 -8.24596e-07
6.74119e-06 -8.24596e-07 4.46373e-05
0.00205886 -0.000244202 4.35366e-06
-0.000244202 -6.28778e-05 -1.66236e-06
4.35366e-06 -1.66236e-06 -0.000108556
0.00215743 -0.00014361 4.66016e-06
-0.00014361 2.48624e-05 -1.42e-06
4.66016e-06 -1.42e-06 3.99165e-05
0.0022531 -0.000367727 -5.02155e-07
-0.000367727 1.12328e-05 -4.08198e-07
-5.02155e-07 -4.08198e-07 5.12869e-06
0.00223189 -0.000556773 -5.97042e-07
-0.000556773 0.000107171 5.61128e-07
-5.97042e-07 5.61128e-07 -1.77129e-05
0.00233087 -0.000490069 1.26929e-06
-0.000490069 4.04852e-05 -3.53959e-07
1.26929e-06 -3.53959e-07 -2.15097e-06
0.00154114 -0.00061723 -1.48031e-06
-0.00061723 0.000473346 8.167e-08
-1.48031e-06 8.167e-08 2.4921e-06
0.00228529 -0.000679653 -1.35777e-06
-0.000679653 0.000159456 8.04616e-07
-1.35777e-06 8.04616e-07 -5.80437e-06
0.0019437 -0.000899793 1.23533e-06
-0.000899793 0.000467398 8.2595e-06
1.23533e-06 8.2595e-06 -9.6359e-05
0.00240313 -0.000889904 7.65396e-06
-0.000889904 0.000518685 4.89647e-06
7.65396e-06 4.89647e-06 4.77841e-05
0.0023767 -0.000746285 -1.39942e-06
-0.000746285 0.000410555 4.47489e-06
-1.39942e-06 4.47489e-06 8.32688e-05
0.00230217 -0.000756761 -4.37026e-06
-0.000756761 0.000241178 -1.28607e-06
-4.37026e-06 -1.28607e-06 -1.96203e-05
0.00062798 -0.000208053 3.59665e-07
-0.000208053 0.000157458 -9.29387e-06
3.59665e-07 -9.29387e-06 -6.4776e-05
0.00134275 -0.000277411 -9.96314e-07
-0.000277411 0.000637942 4.71732e-06
-9.96314e-07 4.71732e-06 0.000267761
0.00135794 -0.000609091 2.55474e-05
-0.000609091 0.000401987 2.89211e-06
2.55474e-05 2.89211e-06 -8.47777e-05
-0.00068493 -0.000144735 1.92484e-05
-0.000144735 -0.000781906 -7.36477e-06
1.92484e-05 -7.36477e-06 -0.00107398
0.00110099 -0.000522289 1.5229e-06
-0.000522289 0.000355602 1.56705e-05
1.5229e-06 1.56705e-05 -0.000156676
0.000256942 5.62626e-06 -6.29239e-06
5.62626e-06 -0.000124069 -1.40471e-05
-6.29239e-06 -1.40471e-05 -0.000194058
0.00211738 0.000475902 -5.15886e-06
0.000475902 0.000173086 -2.64333e-07
-5.15886e-06 -2.64333e-07 -4.37389e-05
0.00049458 5.53857e-05 1.93417e-06
5.53857e-05 3.28446e-05 -4.40504e-06
1.93417e-06 -4.40504e-06 -0.000195682
0.000129809 0.000244225 -7.51881e-06
0.000244225 -0.000271185 2.06293e-06
-7.51881e-06 2.06293e-06 -0.000505811
0.000631221 0.000246652 -1.02374e-06
0.000246652 0.000118916 9.19972e-06
-1.02374e-06 9.19972e-06 -0.000194954
0.00208834 0.000615593 -4.76736e-06
0.000615593 0.000300862 1.50049e-06
-4.76736e-06 1.50049e-06 -2.32499e-05
0.00221823 0.0006096 -2.71731e-07
0.0006096 0.000236196 1.93134e-06
-2.71731e-07 1.93134e-06 -1.21502e-05
0.00130751 0.000590203 4.51535e-06
0.000590203 0.000310356 1.47149e-06
4.51535e-06 1.47149e-06 -0.000140575
0.00186936 0.000805497 7.36172e-06
0.000805497 0.000395868 1.02738e-05
7.36172e-06 1.02738e-05 -0.000118991
0.00233624 0.000747477 4.56751e-06
0.000747477 0.000476417 6.14897e-06
4.56751e-06 6.14897e-06 0.000115681
0.00232027 0.000735454 1.2489e-05
0.000735454 0.000424169 1.68723e-05
1.2489e-05 1.68723e-05 7.20932e-05
0.000448979 2.41284e-05 -2.67848e-07
2.41284e-05 -1.04384e-05 4.5707e-08
-2.67848e-07 4.5707e-08 -6.64423e-05
0.000700121 9.5996e-05 -2.06429e-06
9.5996e-05 0.000196653 -6.57462e-08
-2.06429e-06 -6.57462e-08 -6.05514e-06
0.000860645 0.000419963 5.1652e-06
0.000419963 0.000195622 -1.09698e-07
5.1652e-06 -1.09698e-07 -0.000154373
0.000520142 0.000123862 5.61637e-07
0.000123862 5.47005e-05 -4.30644e-06
5.61637e-07 -4.30644e-06 -0.000248791
0.000271111 0.00011671 5.69558e-07
0.00011671 -0.000256548 3.81855e-06
5.69558e-07 3.81855e-06 -0.00051981
0.00224415 0.000532003 -1.72354e-06
0.000532003 0.000172055 -1.41495e-06
-1.72354e-06 -1.41495e-06 -1.79029e-05
0.00223224 0.000697103 2.65842e-07
0.000697103 0.000314095 2.17501e-08
2.65842e-07 2.17501e-08 4.66082e-06
0.00223019 0.000669514 1.45033e-06
0.000669514 0.00021676 3.12418e-07
1.45033e-06 3.12418e-07 -3.39283e-05
0.0019286 0.00083529 1.32962e-06
0.00083529 0.000681683 -2.24569e-06
1.32962e-06 -2.24569e-06 0.000101398
0.00252915 0.000818644 3.40312e-06
0.000818644 0.000488626 3.29752e-07
3.40312e-06 3.29752e-07 0.000131318
0.00229616 0.000899813 -4.53964e-06
0.000899813 0.000600172 4.70317e-07
-4.53964e-06 4.70317e-07 9.97199e-05
0.0009054 0.000130882 1.38736e-06
0.000130882 0.000302189 8.22562e-06
1.38736e-06 8.22562e-06 0.000152929
0.00292564 0.000442689 -6.13147e-07
0.000442689 0.00168428 3.31192e-06
-6.13147e-07 3.31192e-06 0.00136336
0.000316155 0.0004721 -1.84902e-06
0.0004721 -0.00016737 1.28252e-06
-1.84902e-06 1.28252e-06 -0.000585957
0.00120236 0.000168443 5.44681e-06
0.000168443 0.000315715 2.7064e-07
5.44681e-06 2.7064e-07 6.11504e-05
0.0028699 0.000609158 -1.42265e-06
0.000609158 0.00130774 -2.31241e-06
-1.42265e-06 -2.31241e-06 0.000921104
0.00226352 0.000566682 -3.07879e-06
0.000566682 0.000109183 -1.28326e-06
-3.07879e-06 -1.28326e-06 -4.6815e-05
0.00223295 0.000758337 -5.03057e-06
0.000758337 0.000280071 -1.43391e-06
-5.03057e-06 -1.43391e-06 -3.59232e-05
0.00223193 0.000733813 2.52529e-07
0.000733813 0.000182412 -1.70693e-07
2.52529e-07 -1.70693e-07 -7.06628e-05
0.00135164 0.000849282 6.98239e-06
0.000849282 0.000370387 -8.07492e-06
6.98239e-06 -8.07492e-06 -0.000224528
0.00202462 0.000885287 1.23666e-05
0.000885287 0.00030519 -3.65785e-06
1.23666e-05 -3.65785e-06 -0.000145734
0.000615612 8.15128e-05 -5.17206e-07
8.15128e-05 0.000135985 2.38472e-07
-5.17206e-07 2.38472e-07 7.15366e-06
0.000449527 0.000195119 3.98596e-07
0.000195119 6.1338e-05 -6.19289e-07
3.98596e-07 -6.19289e-07 -0.000111069
-0.00025972 9.49064e-05 4.11761e-07
9.49064e-05 -0.000350206 -2.50672e-06
4.11761e-07 -2.50672e-06 -0.000531345
0.00159231 0.000267799 -4.55685e-06
0.000267799 0.000876429 -3.64121e-06
-4.55685e-06 -3.64121e-06 0.000648956
0.0012666 0.000207945 -2.01306e-06
0.000207945 0.000640178 3.02991e-06
-2.01306e-06 3.02991e-06 0.000456273
0.00054479 8.59226e-05 1.09248e-06
8.59226e-05 9.98085e-05 4.63569e-06
1.09248e-06 4.63569e-06 8.25135e-06
0.000557728 3.24791e-05 -1.18907e-06
3.24791e-05 0.000106796 -1.02949e-07
-1.18907e-06 -1.02949e-07 1.02185e-05
0.00141427 3.2405e-06 1.9843e-06
3.2405e-06 0.000618717 5.17765e-06
1.9843e-06 5.17765e-06 0.000590032
0.000491422 5.32346e-05 1.63105e-06
5.32346e-05 5.54557e-05 -6.98134e-06
1.63105e-06 -6.98134e-06 -4.87973e-05
0.00150739 -9.52899e-06 -1.27112e-05
-9.52899e-06 0.000678214 -1.98335e-06
-1.27112e-05 -1.98335e-06 0.000645727
0.000741592 -2.31064e-05 4.74441e-05
-2.31064e-05 0.000175366 1.13202e-05
4.74441e-05 1.13202e-05 0.000174878
0.00153256 1.66782e-06 -2.5313e-05
1.66782e-06 0.000697341 -8.7547e-06
-2.5313e-05 -8.7547e-06 0.00065792
0.00210877 -7.53831e-05 5.34514e-05
-7.53831e-05 0.00107352 1.29986e-06
5.34514e-05 1.29986e-06 0.00106783
0.00352149 -0.000140668 -5.59099e-05
-0.000140668 0.00200291 -6.65422e-06
-5.59099e-05 -6.65422e-06 0.00199325
0.000210876 3.50854e-05 -1.20139e-06
3.50854e-05 -0.000132785 -1.11672e-05
-1.20139e-06 -1.11672e-05 -0.000197974
0.00039029 -0.000112858 -3.03971e-06
-0.000112858 -4.08452e-05 4.22875e-07
-3.03971e-06 4.22875e-07 -0.000136895
0.00435457 0.000213185 3.09873e-05
0.000213185 0.00257946 -1.04552e-05
3.09873e-05 -1.04552e-05 0.00254345
0.00560984 0.000125246 -1.02227e-05
0.000125246 0.00338895 -3.46223e-07
-1.02227e-05 -3.46223e-07 0.00337293
0.000489181 -0.000178512 -2.3639e-05
-0.000178512 -1.3328e-05 1.97406e-05
-2.3639e-05 1.97406e-05 -0.00013338
0.00652643 0.000100588 -0.000236485
0.000100588 0.00397597 3.37025e-05
-0.000236485 3.37025e-05 0.00396097
0.00210725 0.000386561 -3.08375e-06
0.000386561 0.000121334 1.11649e-06
-3.08375e-06 1.11649e-06 -4.41417e-05
0.00212971 0.00022268 -2.07695e-06
0.00022268 9.95955e-05 -3.53875e-07
-2.07695e-06 -3.53875e-07 6.46624e-06
0.00225725 0.000336885 -5.3595e-06
0.000336885 8.56483e-05 -8.46915e-07
-5.3595e-06 -8.46915e-07 1.83334e-05
0.00216357 0.000150428 -5.51795e-06
0.000150428 9.38388e-06 -1.32834e-06
-5.51795e-06 -1.32834e-06 3.41031e-07
0.0020424 6.52696e-05 -2.83368e-06
6.52696e-05 5.10453e-05 -5.55211e-07
-2.83368e-06 -5.55211e-07 -1.80625e-05
0.0011583 3.27828e-06 -7.59555e-06
3.27828e-06 -8.52753e-05 -2.33845e-07
-7.59555e-06 -2.33845e-07 -0.000213235
0.0020789 -4.2542e-06 1.1754e-07
-4.2542e-06 7.9091e-05 1.19976e-07
1.1754e-07 1.19976e-07 1.0825e-05
0.00212925 6.40928e-05 -6.12399e-07
6.40928e-05 6.41876e-06 -1.02288e-07
-6.12399e-07 -1.02288e-07 -3.67647e-06
0.00222931 0.000236853 -1.36931e-07
0.000236853 6.33527e-05 1.51755e-07
-1.36931e-07 1.51755e-07 2.9875e-05
0.00213601 0.000139158 -6.75858e-08
0.000139158 -2.77935e-05 5.66051e-08
-6.75858e-08 5.66051e-08 -1.11616e-05
0.00228 0.000446952 2.09635e-07
0.000446952 0.00013043 1.78319e-07
2.09635e-07 1.78319e-07 7.17154e-06
0.00224914 0.00033568 6.40112e-08
0.00033568 -2.22939e-05 1.36854e-07
6.40112e-08 1.36854e-07 -2.48188e-05
0.0021162 -9.76403e-06 5.29316e-06
-9.76403e-06 4.87798e-07 -5.68837e-08
5.29316e-06 -5.68837e-08 -1.06743e-05
0.00218367 5.87512e-05 4.00817e-06
5.87512e-05 1.3056e-05 3.86493e-07
4.00817e-06 3.86493e-07 4.35209e-05
0.00217319 0.000212284 1.02887e-06
0.000212284 -3.41623e-05 7.49479e-07
1.02887e-06 7.49479e-07 -2.60194e-05
0.00227693 0.000145792 8.35921e-07
0.000145792 -2.34279e-05 1.25101e-06
8.35921e-07 1.25101e-06 2.97345e-05
0.00228052 0.000453351 8.53979e-07
0.000453351 3.6694e-05 3.20517e-07
8.53979e-07 3.20517e-07 -2.1071e-05
0.0023845 0.000333226 6.20666e-07
0.000333226 -2.10286e-05 5.41479e-07
6.20666e-07 5.41479e-07 3.64301e-06
0.00208886 -6.86133e-05 -4.768e-07
-6.86133e-05 8.91452e-05 -9.63929e-08
-4.768e-07 -9.63929e-08 1.74515e-05
0.00204989 -0.000243355 2.35274e-06
-0.000243355 5.98819e-05 -1.77175e-07
2.35274e-06 -1.77175e-07 -4.2977e-05
0.00220696 -0.000150895 -3.62286e-06
-0.000150895 5.05877e-05 9.31994e-07
-3.62286e-06 9.31994e-07 3.18748e-05
0.00215394 -0.000334422 -4.94251e-06
-0.000334422 4.37682e-05 1.49162e-06
-4.94251e-06 1.49162e-06 -3.44288e-05
0.00059209 -0.000323501 -9.97691e-06
-0.000323501 -3.92125e-05 6.82691e-06
-9.97691e-06 6.82691e-06 -0.000356708
0.00186709 -0.000738941 -8.82806e-06
-0.000738941 0.000521389 -1.25068e-06
-8.82806e-06 -1.25068e-06 2.18972e-05
0.00195363 -0.000809008 -2.50516e-06
-0.000809008 0.000296906 -4.32315e-06
-2.50516e-06 -4.32315e-06 -0.000177327
0.00211228 -0.000512764 -2.59194e-06
-0.000512764 0.00013259 -2.25481e-07
-2.59194e-06 -2.25481e-07 -5.52565e-05
0.00225246 -0.000461346 -3.13059e-07
-0.000461346 5.10363e-05 -3.63403e-08
-3.13059e-07 -3.63403e-08 -5.81027e-06
0.00217111 -0.000623418 -4.85664e-07
-0.000623418 0.000145144 -3.22587e-07
-4.85664e-07 -3.22587e-07 -5.36496e-05
0.0022302 -0.00073652 3.97283e-07
-0.00073652 0.000318657 -6.08667e-06
3.97283e-07 -6.08667e-06 -1.9272e-05
0.00231107 -0.00070038 3.37144e-06
-0.00070038 0.000305719 -2.33963e-06
3.37144e-06 -2.33963e-06 5.79397e-05
0.000742771 -0.000397706 3.19904e-06
-0.000397706 5.59722e-05 -2.30311e-06
3.19904e-06 -2.30311e-06 -0.000335358
0.000665731 -0.000388149 -1.602e-05
-0.000388149 4.0327e-05 -2.16581e-06
-1.602e-05 -2.16581e-06 -0.000370518
0.000443999 -0.000207993 -6.95069e-06
-0.000207993 1.97793e-05 4.61427e-06
-6.95069e-06 4.61427e-06 -0.000228759
-6.74712e-05 -0.000211958 -4.31891e-06
-0.000211958 -0.000360938 1.00217e-06
-4.31891e-06 1.00217e-06 -0.000631237
0.00220173 -8.51562e-05 -1.34063e-07
-8.51562e-05 6.67628e-05 2.90775e-08
-1.34063e-07 2.90775e-08 4.67436e-05
0.0021251 -0.000248929 2.10592e-06
-0.000248929 -1.29295e-05 -5.2907e-07
2.10592e-06 -5.2907e-07 -5.96325e-05
0.0021104 -0.000142156 2.92925e-07
-0.000142156 -1.17553e-05 -1.28543e-07
2.92925e-07 -1.28543e-07 5.41809e-06
0.00223537 -0.00036551 -4.50327e-07
-0.00036551 9.07671e-06 2.93456e-07
-4.50327e-07 2.93456e-07 -4.72497e-06
0.00155024 -0.000589137 -2.89939e-06
-0.000589137 0.000455822 1.09487e-07
-2.89939e-06 1.09487e-07 1.65178e-06
0.00190359 -0.000895558 3.24931e-06
-0.000895558 0.000452138 -3.33315e-08
3.24931e-06 -3.33315e-08 -0.000113791
0.00234942 -0.000901529 -3.05001e-07
-0.000901529 0.0004817 6.71221e-07
-3.05001e-07 6.71221e-07 1.43259e-06
0.00226306 -0.000555462 -1.14676e-06
-0.000555462 0.000137666 2.36132e-07
-1.14676e-06 2.36132e-07 5.74286e-06
0.00230853 -0.000489026 8.83965e-07
-0.000489026 2.67191e-05 -4.11e-07
8.83965e-07 -4.11e-07 -9.45311e-06
0.00234907 -0.000749242 -1.17017e-06
-0.000749242 0.000400644 9.15286e-07
-1.17017e-06 9.15286e-07 7.16225e-05
0.00227103 -0.00068389 -1.05208e-06
-0.00068389 0.000140084 8.68573e-07
-1.05208e-06 8.68573e-07 -2.57046e-05
0.00232623 -0.000757038 5.82156e-06
-0.000757038 0.000254752 -4.55895e-06
5.82156e-06 -4.55895e-06 -1.65231e-06
0.00151356 -0.000644674 2.68333e-07
-0.000644674 0.00051648 -1.87629e-06
2.68333e-07 -1.87629e-06 1.44188e-05
0.00193713 -0.000635122 7.02829e-07
-0.000635122 0.000872706 2.30867e-06
7.02829e-07 2.30867e-06 0.000358115
0.00104169 -0.000277028 -4.51901e-07
-0.000277028 0.000349612 -5.63594e-06
-4.51901e-07 -5.63594e-06 2.69413e-05
0.000176387 -0.00011805 -2.56896e-06
-0.00011805 -0.000119102 1.48513e-06
-2.56896e-06 1.48513e-06 -0.000344525
-0.000272498 -0.000191934 -1.85012e-06
-0.000191934 -0.000410043 9.80294e-07
-1.85012e-06 9.80294e-07 -0.000752919
0.00210724 -8.69743e-05 2.51121e-06
-8.69743e-05 -3.48996e-05 -7.93376e-07
2.51121e-06 -7.93376e-07 -5.75974e-06
0.00217747 -0.00021642 8.34806e-07
-0.00021642 -3.46622e-05 -1.42584e-06
8.34806e-07 -1.42584e-06 -1.13121e-05
0.00235026 -0.000442089 -1.35894e-06
-0.000442089 -4.1582e-05 -8.40614e-07
-1.35894e-06 -8.40614e-07 -1.6983e-05
0.00232084 -0.000586241 9.50322e-08
-0.000586241 5.60874e-05 6.7328e-07
9.50322e-08 6.7328e-07 -7.44852e-06
0.00169466 -0.00081601 9.3754e-06
-0.00081601 0.000527651 3.98063e-06
9.3754e-06 3.98063e-06 -4.40524e-05
0.00252988 -0.000819962 -4.91712e-06
-0.000819962 0.000198585 -4.76534e-07
-4.91712e-06 -4.76534e-07 -2.61044e-06
0.00144583 -0.000929414 -1.26525e-05
-0.000929414 0.000172999 1.01314e-05
-1.26525e-05 1.01314e-05 -0.000416974
0.00258833 -0.000969403 -1.6912e-06
-0.000969403 0.000601601 4.41461e-06
-1.6912e-06 4.41461e-06 0.000108516
0.00202962 -0.000722615 -1.07587e-05
-0.000722615 0.000175349 -4.27299e-07
-1.07587e-05 -4.27299e-07 -0.000135747
8.00869e-05 -7.44503e-05 -5.90563e-07
-7.44503e-05 -0.000172845 -8.32322e-06
-5.90563e-07 -8.32322e-06 -0.000329925
0.000846623 -0.000330135 -4.4442e-06
-0.000330135 0.000409101 -6.78694e-07
-4.4442e-06 -6.78694e-07 4.72425e-05
0.00326501 -0.000266789 -7.66065e-06
-0.000266789 0.00180904 2.72463e-06
-7.66065e-06 2.72463e-06 0.00146693
0.00200882 -0.000775465 1.67515e-07
-0.000775465 0.000820333 8.25083e-06
1.67515e-07 8.25083e-06 0.000265417
0.000779824 -0.000371525 1.39931e-05
-0.000371525 0.000130906 -9.15542e-07
1.39931e-05 -9.15542e-07 -0.000268327
0.00214815 -0.000730224 -1.96663e-06
-0.000730224 0.000987595 1.80513e-05
-1.96663e-06 1.80513e-05 0.000422741
0.000379064 2.48776e-05 -4.952e-06
2.48776e-05 -5.28875e-05 -1.28636e-05
-4.952e-06 -1.28636e-05 -0.000108774
0.000169857 7.95802e-05 -1.16316e-06
7.95802e-05 -0.000134019 -8.9021e-06
-1.16316e-06 -8.9021e-06 -0.00033533
0.00232745 0.000538468 -4.27948e-06
0.000538468 0.000229797 -9.3446e-07
-4.27948e-06 -9.3446e-07 3.85094e-05
-0.00117175 1.30923e-05 -2.27406e-06
1.30923e-05 -0.000996568 3.52128e-07
-2.27406e-06 3.52128e-07 -0.00130784
0.00246031 0.000515613 1.14444e-05
0.000515613 0.0012059 -4.56739e-06
1.14444e-05 -4.56739e-06 0.000857841
0.000184058 0.000154258 -7.66948e-06
0.000154258 -0.000318294 -2.51401e-06
-7.66948e-06 -2.51401e-06 -0.000608446
0.00219264 0.000691397 2.00307e-06
0.000691397 0.000293932 2.63477e-06
2.00307e-06 2.63477e-06 -1.36058e-05
0.00224521 0.000672691 3.27678e-06
0.000672691 0.000230205 8.38755e-07
3.27678e-06 8.38755e-07 -2.13487e-05
0.00191606 0.000829192 7.7789e-06
0.000829192 0.00069117 6.90193e-06
7.7789e-06 6.90193e-06 0.000108523
0.00266736 0.000929203 -2.59951e-06
0.000929203 0.000856347 8.01479e-06
-2.59951e-06 8.01479e-06 0.000357597
0.00242875 0.000810488 5.40263e-06
0.000810488 0.000400953 4.63693e-06
5.40263e-06 4.63693e-06 4.23709e-05
0.000709916 0.000121682 9.45516e-07
0.000121682 0.000178948 9.3241e-08
9.45516e-07 9.3241e-08 3.35655e-05
0.000845506 0.000239391 -1.79465e-06
0.000239391 0.000348482 6.86265e-07
-1.79465e-06 6.86265e-07 5.21211e-05
0.000883438 0.000553957 6.97156e-07
0.000553957 0.000176446 8.87878e-07
6.97156e-07 8.87878e-07 -0.000275803
0.000761637 0.000108843 -7.57425e-07
0.000108843 4.44448e-05 -6.13368e-07
-7.57425e-07 -6.13368e-07 -0.000211008
0.00149152 0.000409672 2.72243e-06
0.000409672 0.000372656 -5.43367e-06
2.72243e-06 -5.43367e-06 3.45512e-05
0.00225836 0.000567297 -2.21886e-06
0.000567297 0.000119351 -1.11097e-06
-2.21886e-06 -1.11097e-06 -3.79849e-05
0.0023116 0.000767232 2.5708e-06
0.000767232 0.00031629 5.94782e-07
2.5708e-06 5.94782e-07 -1.59318e-06
0.00225765 0.000738071 1.24314e-06
0.000738071 0.000181905 2.72077e-07
1.24314e-06 2.72077e-07 -7.37496e-05
0.00178392 0.000923486 2.2871e-06
0.000923486 0.000604801 1.11667e-06
2.2871e-06 1.11667e-06 -2.58448e-06
0.00203104 0.000892171 -2.07407e-06
0.000892171 0.000340422 -2.66791e-06
-2.07407e-06 -2.66791e-06 -0.000119096
0.00165825 0.000313599 3.3488e-06
0.000313599 0.000853469 2.87319e-06
3.3488e-06 2.87319e-06 0.000621062
-0.000455774 0.000126493 1.73452e-06
0.000126493 -0.000464233 -8.56396e-07
1.73452e-06 -8.56396e-07 -0.000788415
0.00158568 0.000725618 1.60154e-06
0.000725618 0.000613104 -6.46438e-06
1.60154e-06 -6.46438e-06 9.23822e-05
-0.00169384 0.000216846 6.00182e-06
0.000216846 -0.00161371 3.26227e-07
6.00182e-06 3.26227e-07 -0.00189448
0.0029807 0.000762001 2.82867e-06
0.000762001 0.0012465 -6.01191e-06
2.82867e-06 -6.01191e-06 0.000808102
0.00246139 0.000663998 -2.6556e-06
0.000663998 0.000118735 -4.07632e-08
-2.6556e-06 -4.07632e-08 1.39322e-05
0.00232869 0.000820435 8.76022e-06
0.000820435 0.000280014 -2.89706e-06
8.76022e-06 -2.89706e-06 -7.54203e-05
0.00228936 0.000758805 7.13409e-06
0.000758805 0.000127258 1.02169e-06
7.13409e-06 1.02169e-06 -0.000146366
0.00202841 0.000976726 1.55614e-05
0.000976726 0.000680096 3.61889e-07
1.55614e-05 3.61889e-07 8.00391e-05
0.00236126 0.00105128 7.99016e-06
0.00105128 0.000583317 3.93817e-09
7.99016e-06 3.93817e-09 4.98852e-05
0.000492466 6.70252e-05 1.62121e-06
6.70252e-05 5.31756e-05 -8.35942e-06
1.62121e-06 -8.35942e-06 -7.02004e-05
0.000905249 0.000161352 6.03821e-07
0.000161352 0.000357929 -1.57837e-06
6.03821e-07 -1.57837e-06 0.000180997
-0.00011319 0.000105102 -3.22022e-06
0.000105102 -0.000299212 -1.00049e-05
-3.22022e-06 -1.00049e-05 -0.000430805
-0.000564943 -1.52826e-05 4.62212e-06
-1.52826e-05 -0.000571559 -1.87745e-06
4.62212e-06 -1.87745e-06 -0.00072799
0.000547848 0.000100617 -1.38453e-06
0.000100617 0.000157896 3.19564e-07
-1.38453e-06 3.19564e-07 -2.66593e-06
0.000249443 0.000109486 2.2134e-06
0.000109486 -1.49895e-05 -4.22912e-07
2.2134e-06 -4.22912e-07 -0.000199708
0.0005445 0.000186378 -1.39537e-06
0.000186378 0.000161317 -1.1925e-05
-1.39537e-06 -1.1925e-05 -8.48464e-06
0.000348465 2.7412e-05 -5.49342e-06
2.7412e-05 6.75873e-05 1.32167e-06
-5.49342e-06 1.32167e-06 -0.000130021
0.000735005 0.000125367 -9.54986e-07
0.000125367 0.000254865 1.84913e-06
-9.54986e-07 1.84913e-06 0.00011804
0.000513626 8.90198e-05 2.29032e-06
8.90198e-05 7.99043e-05 4.36676e-06
2.29032e-06 4.36676e-06 -1.15775e-05
0.000450293 3.38636e-05 -2.86553e-06
3.38636e-05 3.2628e-05 1.16496e-07
-2.86553e-06 1.16496e-07 -5.51806e-05
0.00135393 6.90838e-06 2.37536e-06
6.90838e-06 0.000580218 4.60968e-06
2.37536e-06 4.60968e-06 0.000555614
0.000274526 -7.93687e-05 6.1469e-06
-7.93687e-05 -6.70872e-05 -5.1565e-06
6.1469e-06 -5.1565e-06 -0.000166853
0.00141446 5.09139e-07 -1.10609e-05
5.09139e-07 0.000616941 -1.82233e-06
-1.10609e-05 -1.82233e-06 0.000591042
0.00072817 -1.72019e-05 3.87945e-05
-1.72019e-05 0.000165568 1.03464e-05
3.87945e-05 1.03464e-05 0.000168533
0.0014808 -2.77633e-06 -1.85312e-05
-2.77633e-06 0.000658625 -9.64132e-06
-1.85312e-05 -9.64132e-06 0.000628896
0.000747398 -3.44056e-05 1.83234e-05
-3.44056e-05 0.000178919 4.127e-06
1.83234e-05 4.127e-06 0.000173785
0.00320825 -0.000139133 3.16026e-06
-0.000139133 0.00179222 -4.43905e-06
3.16026e-06 -4.43905e-06 0.00178199
0.000250236 7.72875e-05 -5.17475e-06
7.72875e-05 -9.27355e-05 -8.49297e-06
-5.17475e-06 -8.49297e-06 -0.000151113
0.000354241 -2.93841e-05 -4.0481e-06
-2.93841e-05 -4.5447e-05 6.62748e-07
-4.0481e-06 6.62748e-07 -0.000114114
0.0035361 0.00020293 -2.5323e-05
0.00020293 0.00204408 -1.13914e-05
-2.5323e-05 -1.13914e-05 0.00201664
0.000714109 -0.000144283 -1.78409e-05
-0.000144283 0.000161323 1.48975e-05
-1.78409e-05 1.48975e-05 6.17491e-05
0.00483544 0.000161949 -4.56762e-05
0.000161949 0.00288591 -6.55244e-08
-4.56762e-05 -6.55244e-08 0.00286301
0.00597879 0.000138774 -0.000191718
0.000138774 0.00364238 3.19672e-05
-0.000191718 3.19672e-05 0.00361831
0.00233931 0.000454235 -4.3726e-06
0.000454235 0.000163983 -6.25288e-07
-4.3726e-06 -6.25288e-07 3.91533e-05
0.00221571 0.000233946 -6.02716e-06
0.000233946 4.99267e-05 -1.21822e-06
-6.02716e-06 -1.21822e-06 1.76792e-05
0.0022397 0.00032621 -2.49355e-07
0.00032621 -3.0314e-05 -2.9327e-07
-2.49355e-07 -2.9327e-07 -3.05344e-05
0.00209862 0.000140128 -1.1904e-06
0.000140128 -6.01968e-05 -1.07136e-06
-1.1904e-06 -1.07136e-06 -3.79146e-05
0.00214668 5.71961e-05 -5.97773e-06
5.71961e-05 2.13945e-05 -4.64842e-07
-5.97773e-06 -4.64842e-07 9.91231e-06
0.00205116 -2.74825e-06 -2.48529e-06
-2.74825e-06 6.22875e-05 -1.10095e-07
-2.48529e-06 -1.10095e-07 -6.21016e-06
0.00215752 -1.14889e-05 1.11694e-07
-1.14889e-05 3.27122e-05 -2.42225e-08
1.11694e-07 -2.42225e-08 1.93233e-05
0.00216647 6.12112e-05 8.32511e-07
6.12112e-05 6.68765e-06 1.39975e-08
8.32511e-07 1.39975e-08 3.23986e-05
0.00219819 0.000213288 -3.73316e-07
0.000213288 -1.09691e-05 -2.01731e-08
-3.73316e-07 -2.01731e-08 -3.38347e-06
0.00223278 0.000145646 6.12623e-07
0.000145646 -5.76058e-05 9.59983e-08
6.12623e-07 9.59983e-08 3.47987e-06
0.00229799 0.000453278 -4.88612e-07
0.000453278 5.30397e-05 9.65036e-08
-4.88612e-07 9.65036e-08 -6.06531e-06
0.0023536 0.000335662 2.17451e-06
0.000335662 -3.97716e-05 6.48021e-07
2.17451e-06 6.48021e-07 -7.38529e-06
0.00210717 -1.56244e-05 2.4478e-06
-1.56244e-05 -3.13279e-05 -1.76603e-07
2.4478e-06 -1.76603e-07 -8.04915e-06
0.00225612 7.22069e-05 9.67051e-07
7.22069e-05 -5.44128e-05 4.50176e-07
9.67051e-07 4.50176e-07 2.02465e-05
0.00233726 0.000219086 -1.96368e-06
0.000219086 -4.11365e-05 6.94916e-07
-1.96368e-06 6.94916e-07 1.96775e-05
0.00247087 0.000482252 -1.93152e-06
0.000482252 3.92907e-06 3.51139e-08
-1.93152e-06 3.51139e-08 2.53086e-05
0.00220811 -8.55981e-05 -6.9632e-06
-8.55981e-05 6.96955e-05 9.1837e-07
-6.9632e-06 9.1837e-07 4.95326e-05
0.00218097 -0.000254225 -3.4226e-06
-0.000254225 3.05779e-05 1.05754e-06
-3.4226e-06 1.05754e-06 -1.72602e-05
0.00206599 -0.000141375 -2.59587e-06
-0.000141375 -4.6459e-05 1.06294e-06
-2.59587e-06 1.06294e-06 -2.7526e-05
0.00222107 -0.000363762 -3.03014e-06
-0.000363762 7.5887e-06 9.30373e-07
-3.03014e-06 9.30373e-07 -1.36159e-05
0.00117798 -0.000555116 3.07379e-06
-0.000555116 0.000210609 -2.10189e-06
3.07379e-06 -2.10189e-06 -0.00023729
0.00190262 -0.000893979 3.19907e-06
-0.000893979 0.000459072 -7.38633e-06
3.19907e-06 -7.38633e-06 -0.000108491
0.00234648 -0.000920524 -4.05816e-06
-0.000920524 0.0004754 -5.12462e-06
-4.05816e-06 -5.12462e-06 -1.65637e-05
0.00229659 -0.000553937 -3.11826e-06
-0.000553937 0.000170312 6.12256e-07
-3.11826e-06 6.12256e-07 3.18589e-05
0.00228597 -0.000488405 2.36899e-06
-0.000488405 1.25015e-05 -2.20999e-07
2.36899e-06 -2.20999e-07 -1.67341e-05
0.00225216 -0.000686012 -1.20784e-06
-0.000686012 0.000119859 6.83012e-07
-1.20784e-06 6.83012e-07 -4.62411e-05
0.00230858 -0.000742671 -2.13831e-07
-0.000742671 0.000382892 -3.06622e-06
-2.13831e-07 -3.06622e-06 5.58198e-05
0.00238767 -0.000757493 8.98457e-06
-0.000757493 0.000293788 -2.54998e-06
8.98457e-06 -2.54998e-06 3.88566e-05
0.00157277 -0.000645821 -2.75879e-05
-0.000645821 0.000601176 -2.85059e-06
-2.75879e-05 -2.85059e-06 9.50453e-05
0.000892412 -0.000519417 2.06326e-06
-0.000519417 0.000190728 -1.54777e-05
2.06326e-06 -1.54777e-05 -0.000293161
0.00342559 -0.000396262 -9.59602e-06
-0.000396262 0.00182209 -3.83652e-06
-9.59602e-06 -3.83652e-06 0.00150983
-0.000112485 -6.37833e-05 3.77033e-06
-6.37833e-05 -0.000301767 6.02027e-06
3.77033e-06 6.02027e-06 -0.000524364
-5.61509e-05 -0.000122601 6.54947e-06
-0.000122601 -0.000253951 -6.5664e-06
6.54947e-06 -6.5664e-06 -0.000593774
0.00209021 -9.42881e-05 2.20434e-08
-9.42881e-05 -4.58273e-05 -1.11105e-07
2.20434e-08 -1.11105e-07 -1.77707e-05
0.00220127 -0.000217922 1.6759e-06
-0.000217922 -2.24036e-05 -2.95817e-08
1.6759e-06 -2.95817e-08 -9.44946e-08
0.00234245 -0.000435401 -8.73005e-07
-0.000435401 -2.85472e-05 3.05096e-07
-8.73005e-07 3.05096e-07 -1.24867e-05
0.0018967 -0.000818748 -1.76496e-06
-0.000818748 0.000652047 -1.86301e-07
-1.76496e-06 -1.86301e-07 8.65469e-05
0.00160663 -0.00093025 6.19257e-06
-0.00093025 0.00027405 -1.07015e-06
6.19257e-06 -1.07015e-06 -0.000312272
0.00242781 -0.00097054 -1.58179e-06
-0.00097054 0.000503358 1.89897e-07
-1.58179e-06 1.89897e-07 3.8033e-06
0.0023267 -0.000580766 4.41661e-07
-0.000580766 6.48521e-05 -4.06399e-07
4.41661e-07 -4.06399e-07 -3.55808e-07
0.0022493 -0.000767151 3.27841e-06
-0.000767151 0.000279252 -4.3878e-06
3.27841e-06 -4.3878e-06 -3.70835e-05
0.00249405 -0.000801857 -1.05979e-06
-0.000801857 0.00020941 -5.7641e-07
-1.05979e-06 -5.7641e-07 1.4917e-05
-0.00041149 7.24993e-06 -1.85623e-06
7.24993e-06 -0.000509282 -5.0029e-07
-1.85623e-06 -5.0029e-07 -0.000647077
0.00155491 -0.000701011 6.31069e-07
-0.000701011 0.000563248 -7.11471e-07
6.31069e-07 -7.11471e-07 1.6424e-05
0.00128496 -0.000629624 -4.54148e-06
-0.000629624 0.000465663 -1.06617e-06
-4.54148e-06 -1.06617e-06 -0.000107934
0.00105052 -0.000353618 -3.05232e-06
-0.000353618 0.000296024 4.28433e-06
-3.05232e-06 4.28433e-06 -0.000115457
0.00181501 -0.000459371 1.00823e-06
-0.000459371 0.000919291 -2.61156e-07
1.00823e-06 -2.61156e-07 0.000543421
0.000408195 -0.000177829 -5.95168e-07
-0.000177829 0.00011256 7.97934e-07
-5.95168e-07 7.97934e-07 -0.000235136
0.00220766 -0.000118796 -2.24019e-07
-0.000118796 -6.72662e-05 -1.09984e-06
-2.24019e-07 -1.09984e-06 -5.10232e-06
0.00237902 -0.000292385 -3.49772e-07
-0.000292385 -8.04624e-05 -1.46624e-06
-3.49772e-07 -1.46624e-06 5.65819e-06
0.00243154 -0.000541739 -1.33018e-06
-0.000541739 -2.75975e-05 -7.93193e-08
-1.33018e-06 -7.93193e-08 4.44289e-06
0.002461 -0.000704034 -1.78328e-06
-0.000704034 3.61083e-05 4.84231e-07
-1.78328e-06 4.84231e-07 -1.73346e-06
0.00211131 -0.000930931 -5.93927e-06
-0.000930931 0.000777727 5.94632e-06
-5.93927e-06 5.94632e-06 0.000170718
0.00250098 -0.000922781 -5.7183e-06
-0.000922781 0.000293909 -3.59962e-06
-5.7183e-06 -3.59962e-06 -1.1301e-05
0.00222109 -0.00110263 -5.61362e-05
-0.00110263 0.000637798 1.09524e-05
-5.61362e-05 1.09524e-05 -1.23235e-05
0.00220562 -0.000991844 -2.86321e-05
-0.000991844 0.000390387 4.88182e-06
-2.86321e-05 4.88182e-06 -0.00011736
-0.00028792 4.2951e-05 -5.06818e-06
4.2951e-05 -0.000435558 -5.59406e-06
-5.06818e-06 -5.59406e-06 -0.000535878
0.00109007 -5.19187e-05 -2.05534e-06
-5.19187e-05 0.000550014 -1.63724e-06
-2.05534e-06 -1.63724e-06 0.000285924
0.00245833 -0.000472927 -1.12373e-05
-0.000472927 0.00144673 -7.11282e-07
-1.12373e-05 -7.11282e-07 0.00105093
-0.000246903 -0.000278481 -4.73017e-06
-0.000278481 -0.0004165 -7.84813e-06
-4.73017e-06 -7.84813e-06 -0.00078477
0.00283473 -0.000894421 -7.03505e-06
-0.000894421 0.00133696 1.95279e-05
-7.03505e-06 1.95279e-05 0.000746011
0.00184945 -0.000699251 7.09331e-06
-0.000699251 0.000833852 1.74434e-05
7.09331e-06 1.74434e-05 0.000198019
0.000543933 9.95631e-05 5.69298e-07
9.95631e-05 7.67806e-05 -8.77839e-06
5.69298e-07 -8.77839e-06 -6.7648e-05
-0.000817445 9.19145e-05 5.95362e-07
9.19145e-05 -0.000719684 -1.65057e-06
5.95362e-07 -1.65057e-06 -0.000996296
0.00225367 0.000568358 -1.4304e-06
0.000568358 0.000128919 -9.2831e-07
-1.4304e-06 -9.2831e-07 -2.98807e-05
0.00031244 6.98361e-05 -5.13934e-06
6.98361e-05 -0.000226436 4.07343e-06
-5.13934e-06 4.07343e-06 -0.000485075
0.0016563 0.000660604 7.33802e-06
0.000660604 0.000656112 -3.523e-06
7.33802e-06 -3.523e-06 0.000164482
0.000230358 0.000204688 -7.7316e-06
0.000204688 -0.000425713 -4.82764e-06
-7.7316e-06 -4.82764e-06 -0.000699992
0.00239215 0.000776443 5.25751e-06
0.000776443 0.000353058 1.53196e-06
5.25751e-06 1.53196e-06 3.32037e-05
0.002264 0.000739822 -3.1693e-06
0.000739822 0.000170527 -1.49825e-08
-3.1693e-06 -1.49825e-08 -8.69125e-05
0.00211828 0.000983212 -3.93316e-06
0.000983212 0.000781087 6.02875e-06
-3.93316e-06 6.02875e-06 0.000163901
0.00207904 0.000902669 -7.4736e-06
0.000902669 0.000406549 2.50019e-06
-7.4736e-06 2.50019e-06 -6.34578e-05
0.000737313 0.000224924 -6.98789e-07
0.000224924 0.0002565 -5.38013e-07
-6.98789e-07 -5.38013e-07 3.57136e-05
0.000569875 0.000238145 2.02839e-06
0.000238145 0.000178284 -1.79862e-06
2.02839e-06 -1.79862e-06 -0.000159079
0.00135977 0.000683853 -2.91591e-06
0.000683853 0.000477804 -6.44738e-07
-2.91591e-06 -6.44738e-07 -3.13573e-05
0.00123143 0.000313718 -2.59327e-06
0.000313718 0.000218169 1.8672e-06
-2.59327e-06 1.8672e-06 -5.98304e-05
0.00260232 0.000687994 -4.52927e-08
0.000687994 0.000993673 -2.57978e-07
-4.52927e-08 -2.57978e-07 0.00057609
0.00248734 0.000671522 -2.41852e-06
0.000671522 0.00011613 -5.80017e-07
-2.41852e-06 -5.80017e-07 8.60619e-06
0.00248249 0.000813953 2.95244e-06
0.000813953 0.000382859 -7.87103e-07
2.95244e-06 -7.87103e-07 3.87861e-05
0.00256779 0.00078701 6.35014e-07
0.00078701 0.000301703 2.55678e-06
6.35014e-07 2.55678e-06 2.10058e-05
0.00191484 0.000973666 4.88164e-06
0.000973666 0.000605971 1.17085e-06
4.88164e-06 1.17085e-06 1.08931e-06
0.00231559 0.00108979 -4.88916e-06
0.00108979 0.000560021 9.57341e-07
-4.88916e-06 9.57341e-07 1.19734e-06
-0.00177704 3.04704e-05 -8.44847e-06
3.04704e-05 -0.00132162 1.97763e-06
-8.44847e-06 1.97763e-06 -0.00152315
-0.00269418 0.000174955 -2.106e-06
0.000174955 -0.00175631 -2.95439e-06
-2.106e-06 -2.95439e-06 -0.00214553
0.00191433 0.000802373 8.06141e-06
0.000802373 0.00071513 -4.21682e-06
8.06141e-06 -4.21682e-06 0.000185814
0.00156701 0.000471269 4.96356e-06
0.000471269 0.000335278 -4.34327e-06
4.96356e-06 -4.34327e-06 8.03333e-06
0.00265218 0.000639147 1.67234e-07
0.000639147 -0.000115388 5.06089e-07
1.67234e-07 5.06089e-07 -2.35338e-05
0.00265256 0.000809578 6.99235e-06
0.000809578 0.000230765 1.39349e-06
6.99235e-06 1.39349e-06 3.23906e-05
0.00258238 0.000991741 9.78065e-06
0.000991741 0.000448435 -3.93075e-06
9.78065e-06 -3.93075e-06 -1.36556e-05
0.00195405 0.00108829 6.60363e-06
0.00108829 0.000456615 -2.56294e-07
6.60363e-06 -2.56294e-07 -0.000180033
0.00133181 0.000211446 2.07088e-06
0.000211446 0.000664304 2.36484e-06
2.07088e-06 2.36484e-06 0.000456622
0.000487023 0.000204974 -3.98759e-06
0.000204974 0.000119671 -1.14888e-07
-3.98759e-06 -1.14888e-07 -4.13546e-05
0.00101916 0.000145916 -9.81374e-06
0.000145916 0.000472609 -6.44379e-06
-9.81374e-06 -6.44379e-06 0.000356987
0.000134899 4.64724e-05 1.99849e-06
4.64724e-05 -0.000131787 -3.39111e-06
1.99849e-06 -3.39111e-06 -0.000272638
-0.0011937 5.81542e-05 5.5681e-07
5.81542e-05 -0.000904089 2.00353e-06
5.5681e-07 2.00353e-06 -0.00109219
0.000708799 7.68141e-05 -1.02361e-06
7.68141e-05 0.000239909 -1.69311e-08
-1.02361e-06 -1.69311e-08 0.000101115
0.000683556 0.000215323 2.44358e-06
0.000215323 0.000290513 1.77226e-06
2.44358e-06 1.77226e-06 0.000110623
0.000585829 9.94996e-05 1.00312e-06
9.94996e-05 0.000244785 1.87545e-06
1.00312e-06 1.87545e-06 2.63971e-05
0.000609012 0.000153203 5.4396e-07
0.000153203 0.000137795 -1.18786e-05
5.4396e-07 -1.18786e-05 5.09055e-05
0.000586484 6.91562e-05 -8.63862e-07
6.91562e-05 0.000236494 -8.09218e-06
-8.63862e-07 -8.09218e-06 2.31223e-05
-0.000113361 6.79554e-05 -1.32014e-06
6.79554e-05 -0.000246121 2.64199e-06
-1.32014e-06 2.64199e-06 -0.000428887
0.000726331 0.000136708 2.0832e-06
0.000136708 0.000247539 3.92573e-06
2.0832e-06 3.92573e-06 0.00010692
0.000446946 9.31519e-05 2.63261e-06
9.31519e-05 4.33523e-05 4.17637e-06
2.63261e-06 4.17637e-06 -5.32886e-05
0.000428973 2.09952e-05 -1.7607e-06
2.09952e-05 2.16687e-05 -4.35844e-07
-1.7607e-06 -4.35844e-07 -6.68794e-05
0.00127598 1.36344e-05 2.61191e-07
1.36344e-05 0.000535182 3.65968e-06
2.61191e-07 3.65968e-06 0.000510768
0.000429843 -4.54607e-05 2.08544e-06
-4.54607e-05 1.58819e-05 -4.15792e-06
2.08544e-06 -4.15792e-06 -6.89047e-05
0.0013426 8.45593e-07 -9.80693e-06
8.45593e-07 0.000573691 -1.81458e-06
-9.80693e-06 -1.81458e-06 0.000549903
0.000654392 -7.47598e-06 3.53903e-05
-7.47598e-06 0.000120382 1.03816e-05
3.53903e-05 1.03816e-05 0.000124392
0.0013726 -2.96824e-05 -1.18638e-05
-2.96824e-05 0.000591405 -8.45552e-06
-1.18638e-05 -8.45552e-06 0.000566319
0.00071804 -2.41679e-05 1.52756e-05
-2.41679e-05 0.000157876 3.84109e-06
1.52756e-05 3.84109e-06 0.000157948
0.000680327 -3.82609e-05 2.43807e-06
-3.82609e-05 0.000137003 -4.37075e-06
2.43807e-06 -4.37075e-06 0.000129565
0.000321639 4.52948e-05 -2.29046e-06
4.52948e-05 -7.67301e-05 -6.86205e-06
-2.29046e-06 -6.86205e-06 -0.00011417
0.000428813 5.68321e-05 -1.49596e-06
5.68321e-05 7.08125e-06 9.58514e-08
-1.49596e-06 9.58514e-08 -4.46481e-05
0.00285411 0.000149094 -1.19384e-05
0.000149094 0.00158392 -8.48439e-06
-1.19384e-05 -8.48439e-06 0.00157157
0.000488108 -3.63911e-05 -1.21412e-05
-3.63911e-05 4.05833e-05 1.27701e-05
-1.21412e-05 1.27701e-05 -3.26933e-05
0.0036687 0.00016494 -2.57096e-05
0.00016494 0.00211622 -2.08384e-06
-2.57096e-05 -2.08384e-06 0.00209632
0.00488055 7.65231e-05 -0.000174983
7.65231e-05 0.00290445 2.44847e-05
-0.000174983 2.44847e-05 0.00290147
0.00231427 0.000452845 -6.20264e-07
0.000452845 6.94508e-05 4.41127e-08
-6.20264e-07 4.41127e-08 9.13062e-06
0.00222081 0.00021441 -2.35184e-06
0.00021441 9.74499e-06 -1.35199e-06
-2.35184e-06 -1.35199e-06 1.67856e-05
0.00231851 0.000337297 1.9842e-06
0.000337297 -6.14113e-05 1.02607e-06
1.9842e-06 1.02607e-06 -2.12584e-05
0.00219521 0.000145777 7.19528e-07
0.000145777 -8.77686e-05 -9.39976e-07
7.19528e-07 -9.39976e-07 -1.83002e-05
0.00214872 6.35947e-05 -3.1628e-06
6.35947e-05 -4.89909e-07 -5.40617e-07
-3.1628e-06 -5.40617e-07 2.07463e-05
0.00219819 -1.45551e-05 -7.23203e-06
-1.45551e-05 6.41281e-05 2.66455e-07
-7.23203e-06 2.66455e-07 4.86626e-05
0.00212194 -1.46803e-05 5.03367e-07
-1.46803e-05 -2.02594e-05 2.28309e-08
5.03367e-07 2.28309e-08 4.20143e-06
0.00222868 7.59363e-05 6.49592e-07
7.59363e-05 -6.80852e-05 6.0837e-08
6.49592e-07 6.0837e-08 4.85657e-06
0.00231995 0.000224875 9.92403e-07
0.000224875 -5.46551e-05 2.51412e-07
9.92403e-07 2.51412e-07 9.49527e-06
0.00244253 0.000467658 4.62832e-07
0.000467658 -1.89064e-05 1.9749e-07
4.62832e-07 1.9749e-07 6.83885e-06
0.00219803 -1.68637e-05 -1.38154e-07
-1.68637e-05 -7.92433e-05 -3.5982e-07
-1.38154e-07 -3.5982e-07 -1.23547e-05
0.0023709 0.000124987 -2.2831e-06
0.000124987 -9.74057e-05 1.46311e-06
-2.2831e-06 1.46311e-06 2.7116e-05
0.00258607 0.00033837 -2.50313e-06
0.00033837 -4.3598e-05 1.65987e-07
-2.50313e-06 1.65987e-07 5.23916e-05
0.00206923 -0.000101549 -1.95213e-06
-0.000101549 -5.96312e-05 7.5381e-07
-1.95213e-06 7.5381e-07 -3.24208e-05
0.00222286 -0.000218754 -1.82551e-06
-0.000218754 -1.08111e-05 9.27831e-07
-1.82551e-06 9.27831e-07 1.05968e-05
0.00233081 -0.000428198 1.55556e-07
-0.000428198 -1.70751e-05 5.86057e-07
1.55556e-07 5.86057e-07 -1.03998e-05
0.00197737 -0.000822203 -9.6316e-06
-0.000822203 0.000674919 -4.96187e-06
-9.6316e-06 -4.96187e-06 0.000112847
0.00181026 -0.000931069 1.52603e-05
-0.000931069 0.000403832 -9.38884e-06
1.52603e-05 -9.38884e-06 -0.000177164
0.00227197 -0.000970609 3.27459e-06
-0.000970609 0.000411525 -3.14772e-06
3.27459e-06 -3.14772e-06 -9.27097e-05
0.002335 -0.000576529 -1.80859e-07
-0.000576529 7.36696e-05 -5.83172e-08
-1.80859e-07 -5.83172e-08 6.8078e-06
0.00244879 -0.000784067 4.41021e-06
-0.000784067 0.00020836 -1.41683e-07
4.41021e-06 -1.41683e-07 2.5759e-05
0.00242814 -0.000809907 1.01388e-05
-0.000809907 0.000358673 -7.02087e-06
1.01388e-05 -7.02087e-06 3.87384e-05
0.00137328 -0.000665953 -6.31677e-06
-0.000665953 0.000464388 -8.01309e-06
-6.31677e-06 -8.01309e-06 -7.98567e-05
0.00216465 -0.000765002 1.4088e-07
-0.000765002 0.0009968 -2.4135e-05
1.4088e-07 -2.4135e-05 0.000410231
0.00280588 -0.000525082 -1.37279e-05
-0.000525082 0.00147261 1.6451e-05
-1.37279e-05 1.6451e-05 0.000993766
8.8077e-05 2.18541e-05 6.0264e-06
2.18541e-05 -0.000186216 4.46997e-06
6.0264e-06 4.46997e-06 -0.000324224
0.000965488 -0.0004388 7.49677e-06
-0.0004388 0.000354194 -9.03124e-06
7.49677e-06 -9.03124e-06 -9.99822e-06
-0.000212448 -6.17635e-05 8.67145e-06
-6.17635e-05 -0.000297663 -2.47273e-07
8.67145e-06 -2.47273e-07 -0.000634869
0.00222422 -0.000113755 -2.84399e-07
-0.000113755 -5.57564e-05 8.21953e-08
-2.84399e-07 8.21953e-08 4.66996e-06
0.00235586 -0.000303476 4.72774e-07
-0.000303476 -0.000101823 1.04139e-07
4.72774e-07 1.04139e-07 -1.26359e-05
0.00243092 -0.00053202 -5.93318e-07
-0.00053202 -2.36491e-05 1.19753e-07
-5.93318e-07 1.19753e-07 6.93008e-06
0.0020228 -0.000922657 -1.54094e-06
-0.000922657 0.0007155 1.0815e-06
-1.54094e-06 1.0815e-06 0.000112462
0.00202852 -0.00106519 9.48654e-06
-0.00106519 0.000534814 -1.78803e-06
9.48654e-06 -1.78803e-06 -0.000100585
0.00238581 -0.00099148 -1.5936e-06
-0.00099148 0.000497569 -2.38956e-06
-1.5936e-06 -2.38956e-06 4.12465e-06
0.00246299 -0.000715656 5.57379e-07
-0.000715656 3.98695e-05 -1.41189e-07
5.57379e-07 -1.41189e-07 -9.6491e-06
0.00242766 -0.000894088 2.28758e-06
-0.000894088 0.000271555 -1.58672e-06
2.28758e-06 -1.58672e-06 -1.70056e-05
0.000204148 6.79286e-05 -2.64846e-06
6.79286e-05 -0.000113998 -2.31241e-06
-2.64846e-06 -2.31241e-06 -0.000214178
0.000773346 -8.08079e-05 -1.68518e-06
-8.08079e-05 0.000326775 8.12054e-07
-1.68518e-06 8.12054e-07 7.94969e-05
0.00126734 -0.000699512 -3.17257e-06
-0.000699512 0.000386391 9.73241e-07
-3.17257e-06 9.73241e-07 -0.000147326
0.00172335 -0.000643605 -7.25878e-06
-0.000643605 0.000789166 1.8922e-06
-7.25878e-06 1.8922e-06 0.000166069
0.00124624 -0.000231557 1.12687e-06
-0.000231557 0.000482773 -5.6109e-06
1.12687e-06 -5.6109e-06 0.000113678
0.00151012 -0.000376076 -2.49859e-06
-0.000376076 0.000833358 2.166e-06
-2.49859e-06 2.166e-06 0.000451406
0.00233405 -0.000148103 -1.53371e-06
-0.000148103 -0.000116609 -1.937e-06
-1.53371e-06 -1.937e-06 8.85354e-06
0.00254352 -0.000448118 -1.52288e-06
-0.000448118 -0.000148595 -1.64769e-06
-1.52288e-06 -1.64769e-06 1.31364e-05
0.00250213 -0.000670798 1.14405e-06
-0.000670798 -4.9411e-05 4.52149e-07
1.14405e-06 4.52149e-07 -2.05622e-05
0.00262884 -0.000908461 1.27637e-06
-0.000908461 0.000176969 -4.60392e-07
1.27637e-06 -4.60392e-07 1.92711e-05
0.00105854 -0.000821432 -7.83535e-06
-0.000821432 0.000169125 -2.1038e-06
-7.83535e-06 -2.1038e-06 -0.000397046
0.00259348 -0.00109051 -5.01428e-07
-0.00109051 0.000530503 2.64638e-07
-5.01428e-07 2.64638e-07 5.69453e-05
0.00240961 -0.00121996 -6.53278e-05
-0.00121996 0.000681243 7.39585e-06
-6.53278e-05 7.39585e-06 -5.80373e-07
0.000564215 4.88128e-05 -5.00822e-07
4.88128e-05 9.70272e-05 -3.19589e-06
-5.00822e-07 -3.19589e-06 2.05173e-05
0.000829817 -0.000173208 4.30887e-06
-0.000173208 0.000348584 -6.43187e-06
4.30887e-06 -6.43187e-06 0.000200382
3.19988e-07 7.4584e-05 -7.04829e-06
7.4584e-05 -0.000192232 -2.90174e-06
-7.04829e-06 -2.90174e-06 -0.00035075
0.000879999 -0.0001138 -6.83226e-06
-0.0001138 0.000414533 1.16847e-06
-6.83226e-06 1.16847e-06 0.000109758
0.000882083 -0.000205081 -8.85044e-06
-0.000205081 0.000345986 -1.37401e-05
-8.85044e-06 -1.37401e-05 1.73425e-05
0.00158832 -0.000370821 -5.5098e-06
-0.000370821 0.00085091 -3.5984e-06
-5.5098e-06 -3.5984e-06 0.000327936
0.00122463 -0.000762447 -1.62791e-05
-0.000762447 0.000351608 4.12713e-05
-1.62791e-05 4.12713e-05 -0.000189849
0.00373178 -0.000896086 -2.47951e-05
-0.000896086 0.00207616 2.20375e-05
-2.47951e-05 2.20375e-05 0.00128189
0.0001796 0.000103736 1.876e-06
0.000103736 -0.000126165 -8.05116e-07
1.876e-06 -8.05116e-07 -0.000319489
0.0019704 0.000397987 8.20867e-07
0.000397987 0.00104178 2.16036e-06
8.20867e-07 2.16036e-06 0.000692993
0.00251709 0.000680487 -6.97123e-07
0.000680487 0.000115243 -1.10025e-06
-6.97123e-07 -1.10025e-06 3.81795e-06
0.00209502 0.00024885 -1.50926e-06
0.00024885 0.000714631 -1.32352e-06
-1.50926e-06 -1.32352e-06 0.000441542
0.00132265 0.000667372 5.16956e-07
0.000667372 0.000458741 2.55432e-07
5.16956e-07 2.55432e-07 -4.68538e-05
0.00273971 0.000681966 -1.75167e-06
0.000681966 0.001063 8.20817e-06
-1.75167e-06 8.20817e-06 0.000647934
0.00262886 0.000805083 -4.68778e-06
0.000805083 0.000481743 -1.68538e-07
-4.68778e-06 -1.68538e-07 0.000150124
0.00285088 0.000816347 -5.77568e-06
0.000816347 0.000479056 6.35178e-06
-5.77568e-06 6.35178e-06 0.000191083
0.00175337 0.000965915 -4.40384e-06
0.000965915 0.000500703 2.38779e-06
-4.40384e-06 2.38779e-06 -0.000106959
0.00215076 0.00111739 -1.48374e-05
0.00111739 0.000465253 -8.62634e-07
-1.48374e-05 -8.62634e-07 -0.000116106
-0.00045872 0.000108647 2.17229e-06
0.000108647 -0.000450522 1.69903e-06
2.17229e-06 1.69903e-06 -0.000698466
0.000299983 0.000395527 5.79448e-06
0.000395527 0.000138672 -1.92159e-06
5.79448e-06 -1.92159e-06 -0.000276766
0.00175098 0.00080219 1.93726e-07
0.00080219 0.000578155 -4.01392e-07
1.93726e-07 -4.01392e-07 3.92496e-05
0.00211673 0.000544284 -6.10302e-06
0.000544284 0.00073092 4.377e-08
-6.10302e-06 4.377e-08 0.000375325
0.00260973 0.000614595 1.29171e-07
0.000614595 -0.000177099 -1.04971e-06
1.29171e-07 -1.04971e-06 -6.21201e-05
0.00276263 0.000823434 3.18397e-06
0.000823434 0.000290599 -6.0904e-07
3.18397e-06 -6.0904e-07 7.83147e-05
0.00237521 0.000947815 -3.48147e-06
0.000947815 0.000364799 -2.10974e-08
-3.48147e-06 -2.10974e-08 -8.12889e-05
0.00228982 0.0011148 2.09174e-06
0.0011148 0.000639665 5.42232e-07
2.09174e-06 5.42232e-07 7.75479e-06
-0.000866727 2.21378e-05 -5.04898e-06
2.21378e-05 -0.000682255 -1.83326e-06
-5.04898e-06 -1.83326e-06 -0.000878644
0.00253599 0.0004309 -1.74869e-06
0.0004309 -0.000243461 -1.22558e-06
-1.74869e-06 -1.22558e-06 -9.94202e-05
0.00271635 0.000683802 -7.81815e-06
0.000683802 0.00161293 8.80071e-06
-7.81815e-06 8.80071e-06 0.00112424
0.00175499 0.000766726 3.22679e-07
0.000766726 0.000487821 -3.37507e-06
3.22679e-07 -3.37507e-06 -6.71844e-06
0.00271667 0.000801636 -1.58031e-05
0.000801636 3.4259e-05 -9.33377e-06
-1.58031e-05 -9.33377e-06 5.75735e-05
0.00131818 0.000865468 6.75133e-06
0.000865468 -0.000353798 -9.9623e-06
6.75133e-06 -9.9623e-06 -0.000761443
0.00313521 0.00124817 4.43412e-06
0.00124817 0.00106852 4.45312e-06
4.43412e-06 4.45312e-06 0.000406287
0.000103383 0.000139908 1.0893e-06
0.000139908 -0.000103086 3.8664e-06
1.0893e-06 3.8664e-06 -0.000274805
0.000437555 0.000145043 -2.10278e-06
0.000145043 0.000117126 -6.38449e-07
-2.10278e-06 -6.38449e-07 -3.73511e-06
0.000252968 9.86171e-05 -3.92849e-06
9.86171e-05 3.21472e-05 -5.42692e-06
-3.92849e-06 -5.42692e-06 -5.67426e-05
0.000239504 4.69357e-06 2.19174e-06
4.69357e-06 -6.94994e-05 -3.47602e-06
2.19174e-06 -3.47602e-06 -0.000200406
0.000518618 0.000114321 3.38477e-06
0.000114321 0.000196188 -3.74675e-06
3.38477e-06 -3.74675e-06 -1.70402e-05
-0.000409241 0.000175933 -5.60368e-06
0.000175933 -0.000352565 1.40811e-05
-5.60368e-06 1.40811e-05 -0.00052236
0.000503879 3.08995e-05 -1.67804e-06
3.08995e-05 0.000105565 -1.27101e-07
-1.67804e-06 -1.27101e-07 -3.50701e-05
0.000198573 8.97883e-06 -3.01905e-07
8.97883e-06 -2.59378e-05 -5.89666e-07
-3.01905e-07 -5.89666e-07 -0.000223755
-3.25846e-05 9.49595e-05 -6.10589e-06
9.49595e-05 -0.000229782 3.23845e-06
-6.10589e-06 3.23845e-06 -0.00030394
0.000758085 0.000163353 2.03556e-06
0.000163353 0.000360894 -1.79923e-06
2.03556e-06 -1.79923e-06 0.000136093
0.00204044 0.000220142 -1.43738e-06
0.000220142 0.00104248 -1.10182e-05
-1.43738e-06 -1.10182e-05 0.000979815
-0.000368304 2.73808e-05 1.3605e-05
2.73808e-05 -0.000418716 -1.42035e-05
1.3605e-05 -1.42035e-05 -0.000522079
0.000522298 0.000130742 -4.81462e-07
0.000130742 0.00021735 1.82779e-06
-4.81462e-07 1.82779e-06 -1.19823e-05
0.000550969 6.89654e-05 -2.22752e-07
6.89654e-05 0.000172919 2.8305e-06
-2.22752e-07 2.8305e-06 -2.90927e-05
0.00054127 2.57917e-05 1.72797e-06
2.57917e-05 0.000113057 3.13896e-06
1.72797e-06 3.13896e-06 -2.7475e-05
0.000475632 -7.46051e-05 -1.6629e-06
-7.46051e-05 5.29848e-05 3.10902e-06
-1.6629e-06 3.10902e-06 -4.03566e-05
0.000454467 1.6406e-05 6.248e-07
1.6406e-05 3.34848e-05 -4.77855e-07
6.248e-07 -4.77855e-07 -5.40159e-05
0.00132492 2.81172e-05 3.69552e-06
2.81172e-05 0.000571589 3.87707e-06
3.69552e-06 3.87707e-06 0.000547278
0.00045108 1.57208e-05 1.4067e-06
1.57208e-05 2.08419e-05 -3.99979e-06
1.4067e-06 -3.99979e-06 -5.786e-05
0.00134838 1.98051e-05 -1.01969e-05
1.98051e-05 0.000583771 -2.00321e-06
-1.01969e-05 -2.00321e-06 0.000558896
0.00075226 -1.4493e-06 3.11939e-05
-1.4493e-06 0.000188975 9.70345e-06
3.11939e-05 9.70345e-06 0.000192097
0.00132233 -1.57781e-05 -1.03066e-05
-1.57781e-05 0.000559584 -8.03413e-06
-1.03066e-05 -8.03413e-06 0.000537291
0.00074854 -1.48594e-05 1.27797e-05
-1.48594e-05 0.000178419 3.84395e-06
1.27797e-05 3.84395e-06 0.000179992
0.000776085 -2.9704e-05 1.90299e-06
-2.9704e-05 0.000192337 -3.50049e-06
1.90299e-06 -3.50049e-06 0.000190833
0.000534203 -1.72787e-05 -3.62598e-08
-1.72787e-05 6.57206e-05 -3.80841e-06
-3.62598e-08 -3.80841e-06 2.41687e-06
0.000280792 3.12117e-05 -9.95973e-07
3.12117e-05 -0.000110089 -6.04801e-06
-9.95973e-07 -6.04801e-06 -0.00013901
0.000348719 4.19103e-05 1.15188e-06
4.19103e-05 -5.72985e-05 4.92872e-07
1.15188e-06 4.92872e-07 -9.58416e-05
0.00278229 0.000119487 3.06218e-07
0.000119487 0.00152363 -6.68804e-06
3.06218e-07 -6.68804e-06 0.00151958
0.000353018 2.89851e-05 1.22405e-06
2.89851e-05 -5.55151e-05 9.86049e-06
1.22405e-06 9.86049e-06 -0.000101888
0.0031905 0.000166885 -6.6924e-06
0.000166885 0.00180639 -8.34991e-07
-6.6924e-06 -8.34991e-07 0.00179014
0.00403923 0.000115683 -7.66085e-05
0.000115683 0.0023439 9.98895e-06
-7.66085e-05 9.98895e-06 0.00233465
0.00241611 0.000453756 2.12688e-06
0.000453756 -4.02091e-05 3.36168e-07
2.12688e-06 3.36168e-07 -1.0625e-05
0.00230152 0.000231484 1.17012e-06
0.000231484 -6.89784e-05 -6.94851e-07
1.17012e-06 -6.94851e-07 -1.75648e-06
0.00219687 7.99e-05 -2.2438e-07
7.99e-05 -8.43453e-05 -7.36543e-07
-2.2438e-07 -7.36543e-07 -1.34846e-05
0.00213992 -1.34119e-05 -3.39085e-06
-1.34119e-05 -6.2471e-06 1.07289e-07
-3.39085e-06 1.07289e-07 1.91313e-05
0.00221197 -1.1956e-05 -3.95491e-07
-1.1956e-05 -7.46141e-05 1.56401e-07
-3.95491e-07 1.56401e-07 -4.13569e-06
0.00233539 0.000119594 8.13789e-07
0.000119594 -0.000114389 4.8057e-07
8.13789e-07 4.8057e-07 7.94458e-06
0.00248993 0.000350371 -6.84778e-07
0.000350371 -8.79668e-05 -4.23639e-07
-6.84778e-07 -4.23639e-07 8.1969e-06
0.0023084 -1.49582e-05 4.59873e-07
-1.49582e-05 -0.0001433 -6.23455e-07
4.59873e-07 -6.23455e-07 -5.48294e-06
0.00265604 0.000165392 -3.25619e-06
0.000165392 -9.14666e-05 1.75571e-06
-3.25619e-06 1.75571e-06 6.49958e-05
0.00243425 0.000146179 -5.21073e-07
0.000146179 -0.000229279 5.01343e-06
-5.21073e-07 5.01343e-06 -7.81935e-05
0.00224748 -0.000108728 -2.84321e-07
-0.000108728 -4.008e-05 9.89777e-07
-2.84321e-07 9.89777e-07 1.81771e-05
0.00234958 -0.000315266 -7.99993e-07
-0.000315266 -0.000112986 9.22113e-07
-7.99993e-07 9.22113e-07 -2.00127e-05
0.00242626 -0.000520479 1.75549e-06
-0.000520479 -2.01443e-05 2.25539e-07
1.75549e-06 2.25539e-07 8.51064e-06
0.00189047 -0.000908744 -1.01454e-06
-0.000908744 0.000627103 -2.79066e-06
-1.01454e-06 -2.79066e-06 2.83672e-05
0.00184086 -0.00103826 3.74937e-05
-0.00103826 0.000421205 -6.91503e-06
3.74937e-05 -6.91503e-06 -0.000204932
0.00251081 -0.000990029 1.59457e-05
-0.000990029 0.000560109 -4.98412e-06
1.59457e-05 -4.98412e-06 7.9845e-05
0.00244088 -0.000722412 3.33713e-06
-0.000722412 3.38773e-05 -9.60322e-07
3.33713e-06 -9.60322e-07 -2.92161e-05
0.00236733 -0.000863832 8.54493e-06
-0.000863832 0.000264516 -1.81803e-07
8.54493e-06 -1.81803e-07 -1.022e-05
0.000794856 -0.00063332 -1.43178e-06
-0.00063332 0.000121526 -2.51707e-05
-1.43178e-06 -2.51707e-05 -0.000423903
0.0012137 -0.000538554 6.6228e-06
-0.000538554 0.000534926 -2.06046e-05
6.6228e-06 -2.06046e-05 -8.43738e-05
-0.000383312 -0.000177546 2.02157e-06
-0.000177546 -0.000595646 6.69021e-06
2.02157e-06 6.69021e-06 -0.000950916
0.000471586 1.35374e-05 6.75906e-07
1.35374e-05 5.55033e-05 4.10576e-06
6.75906e-07 4.10576e-06 -4.06121e-05
-6.14036e-05 -1.3555e-05 6.67562e-06
-1.3555e-05 -0.000223704 1.59883e-06
6.67562e-06 1.59883e-06 -0.000452397
0.00112827 -0.000320494 2.28e-06
-0.000320494 0.000582073 5.82084e-06
2.28e-06 5.82084e-06 0.000206155
0.00233173 -0.000151736 2.9956e-07
-0.000151736 -0.000129961 1.63333e-07
2.9956e-07 1.63333e-07 5.73561e-07
0.000435565 -1.81735e-06 1.82243e-06
-1.81735e-06 1.17217e-05 4.21953e-07
1.82243e-06 4.21953e-07 -6.40902e-05
0.000338832 -8.70072e-05 -4.20133e-06
-8.70072e-05 -1.24534e-05 -1.26215e-06
-4.20133e-06 -1.26215e-06 -0.000133266
0.00251765 -0.000435424 -3.4852e-07
-0.000435424 -0.000136758 -2.02071e-07
-3.4852e-07 -2.02071e-07 7.60097e-06
0.00248143 -0.000654102 -1.93155e-06
-0.000654102 -4.36364e-05 2.70667e-07
-1.93155e-06 2.70667e-07 -9.52376e-06
0.00206875 -0.000982908 1.65076e-06
-0.000982908 0.000759531 2.40617e-06
1.65076e-06 2.40617e-06 0.000143317
0.00248835 -0.00123392 1.13459e-05
-0.00123392 0.000730089 -1.58685e-06
1.13459e-05 -1.58685e-06 4.56741e-05
0.00241368 -0.00106516 1.81387e-06
-0.00106516 0.000416902 -3.01756e-06
1.81387e-06 -3.01756e-06 -4.06431e-05
0.00254524 -0.000904979 2.35791e-06
-0.000904979 0.00012499 -1.10736e-06
2.35791e-06 -1.10736e-06 -2.65023e-05
0.000642258 -1.35082e-07 -1.68461e-06
-1.35082e-07 0.000235224 -9.965e-07
-1.68461e-06 -9.965e-07 6.23144e-05
0.000777195 -0.000127061 3.87609e-07
-0.000127061 0.00035079 1.99346e-06
3.87609e-07 1.99346e-06 4.47932e-05
0.00134037 -0.000741309 1.04406e-05
-0.000741309 0.000463761 1.21226e-05
1.04406e-05 1.21226e-05 -7.48324e-05
0.00216811 -0.000705466 2.83257e-05
-0.000705466 0.0011392 -1.6642e-05
2.83257e-05 -1.6642e-05 0.000407227
0.0007178 -0.000266649 -2.94262e-06
-0.000266649 0.000298888 3.45557e-08
-2.94262e-06 3.45557e-08 -0.000200644
-8.82549e-05 -0.00025647 3.31924e-06
-0.00025647 -0.000260316 -3.45367e-06
3.31924e-06 -3.45367e-06 -0.000593773
0.00235266 -0.000172744 -1.65369e-06
-0.000172744 -0.00034015 2.47639e-06
-1.65369e-06 2.47639e-06 -0.000142345
0.00259228 -0.000574081 -1.29858e-06
-0.000574081 -0.000240838 6.97309e-07
-1.29858e-06 6.97309e-07 1.7104e-05
0.00292121 -0.000945025 -5.01448e-06
-0.000945025 0.000151043 3.80646e-07
-5.01448e-06 3.80646e-07 0.000110802
0.00278226 -0.0011542 7.26041e-06
-0.0011542 0.000377614 -1.67579e-06
7.26041e-06 -1.67579e-06 6.15737e-05
0.00125198 -0.00094889 -5.92034e-07
-0.00094889 0.000350696 -7.93296e-06
-5.92034e-07 -7.93296e-06 -0.000273171
0.00368021 -0.00149854 -9.62094e-06
-0.00149854 0.00125072 4.94806e-06
-9.62094e-06 4.94806e-06 0.000531242
0.000280493 6.72581e-05 -3.79234e-06
6.72581e-05 -5.87029e-05 -9.11787e-06
-3.79234e-06 -9.11787e-06 -0.000179011
0.000315091 -5.88121e-05 7.15749e-06
-5.88121e-05 -2.76664e-05 -3.48853e-06
7.15749e-06 -3.48853e-06 -0.000140046
0.00180717 -0.000243923 -8.82201e-06
-0.000243923 0.000903165 1.25903e-05
-8.82201e-06 1.25903e-05 0.000735113
0.000313737 3.1356e-05 -4.45951e-06
3.1356e-05 9.08847e-06 1.97292e-06
-4.45951e-06 1.97292e-06 -0.000208857
0.00116588 -0.000248243 -1.18399e-05
-0.000248243 0.000590707 7.43961e-06
-1.18399e-05 7.43961e-06 0.000241964
-0.00081396 -0.000116525 1.07688e-07
-0.000116525 -0.000777408 -2.61019e-05
1.07688e-07 -2.61019e-05 -0.00105431
-0.00122925 -0.000312353 -1.40476e-05
-0.000312353 -0.000467238 6.32213e-06
-1.40476e-05 6.32213e-06 -0.00144722
0.000962407 -0.000929596 -6.02869e-05
-0.000929596 0.000101616 3.31535e-05
-6.02869e-05 3.31535e-05 -0.000312347
-7.32587e-05 0.000264162 5.5001e-08
0.000264162 -0.000141968 -1.07757e-06
5.5001e-08 -1.07757e-06 -0.000447989
0.00372582 0.000600452 -1.57367e-05
0.000600452 0.00224923 -6.22529e-06
-1.57367e-05 -6.22529e-06 0.00184874
0.00255743 0.000586713 -2.90459e-06
0.000586713 -0.00023696 -9.57247e-09
-2.90459e-06 -9.57247e-09 -0.000100561
0.002858 0.000834606 -6.08211e-06
0.000834606 0.000344658 -1.57426e-06
-6.08211e-06 -1.57426e-06 0.000119315
0.00300059 0.000601909 -6.82819e-06
0.000601909 0.00130424 2.85674e-06
-6.82819e-06 2.85674e-06 0.000945214
0.00155124 0.00079937 -1.0713e-05
0.00079937 0.000416709 4.0438e-08
-1.0713e-05 4.0438e-08 -0.000131185
0.00220948 0.000907724 -6.28974e-06
0.000907724 0.000304559 2.21618e-06
-6.28974e-06 2.21618e-06 -0.000126824
0.00263244 0.00113726 -1.10133e-05
0.00113726 0.000826065 -1.49427e-06
-1.10133e-05 -1.49427e-06 0.000199791
2.11731e-06 0.000203327 2.58195e-06
0.000203327 -7.17564e-05 -8.64351e-08
2.58195e-06 -8.64351e-08 -0.000333613
0.00256907 0.000417665 -1.33614e-06
0.000417665 -0.000223194 -2.49757e-06
-1.33614e-06 -2.49757e-06 -6.53698e-05
0.00157282 0.000498055 3.62904e-06
0.000498055 0.000910566 7.6913e-06
3.62904e-06 7.6913e-06 0.000489648
0.00157772 0.000727857 3.71175e-06
0.000727857 0.000419622 1.93611e-06
3.71175e-06 1.93611e-06 -6.65154e-05
0.00283891 0.000778532 6.02269e-07
0.000778532 0.000148005 -4.71986e-07
6.02269e-07 -4.71986e-07 0.000163236
0.00200433 0.00095437 -2.5117e-06
0.00095437 4.40917e-05 -6.05264e-06
-2.5117e-06 -6.05264e-06 -0.000379342
0.00263997 0.00115569 -1.94849e-06
0.00115569 0.000802151 -5.85395e-07
-1.94849e-06 -5.85395e-07 0.00016512
0.0017751 0.000425666 -6.45518e-06
0.000425666 0.00114678 -3.04983e-06
-6.45518e-06 -3.04983e-06 0.000799055
0.00412944 0.00075646 -0.000104296
0.00075646 0.000624666 -3.81038e-05
-0.000104296 -3.81038e-05 0.000913914
0.00132958 0.000617603 -1.06571e-05
0.000617603 0.000671251 9.43057e-06
-1.06571e-05 9.43057e-06 0.000198013
0.0012886 0.00079027 -7.37494e-06
0.00079027 0.000217914 -1.01422e-05
-7.37494e-06 -1.01422e-05 -0.000334286
0.00339457 0.0011074 -4.32019e-05
0.0011074 0.000669166 -2.3955e-05
-4.32019e-05 -2.3955e-05 0.000389227
0.00103617 0.000945114 -3.14389e-05
0.000945114 -0.000114631 -2.74816e-06
-3.14389e-05 -2.74816e-06 -0.000672141
0.0015152 0.00148354 1.08071e-05
0.00148354 -0.00223173 -6.55652e-05
1.08071e-05 -6.55652e-05 -0.00116167
0.000270103 0.000179286 8.46958e-06
0.000179286 4.96233e-05 7.28111e-06
8.46958e-06 7.28111e-06 -8.67159e-05
0.000198588 0.000132089 2.44589e-06
0.000132089 3.06967e-05 7.56796e-07
2.44589e-06 7.56796e-07 -7.86561e-05
0.000110899 0.000104249 2.13903e-06
0.000104249 -4.6359e-05 -7.59343e-06
2.13903e-06 -7.59343e-06 -0.000144781
0.00035332 -6.66896e-05 2.3523e-06
-6.66896e-05 1.3314e-05 -4.52291e-06
2.3523e-06 -4.52291e-06 -0.000129282
7.51046e-05 -8.85214e-06 4.84516e-07
-8.85214e-06 -0.000104464 -2.73791e-06
4.84516e-07 -2.73791e-06 -0.000302099
0.00159332 0.000284185 -3.05321e-07
0.000284185 0.000893574 5.17513e-07
-3.05321e-07 5.17513e-07 0.000659265
-0.0007264 6.05305e-05 -8.03745e-06
6.05305e-05 -0.000638383 2.35942e-05
-8.03745e-06 2.35942e-05 -0.000706299
0.000475473 -1.4201e-05 -2.45491e-07
-1.4201e-05 8.79873e-05 -2.826e-07
-2.45491e-07 -2.826e-07 -6.17717e-05
0.000396843 9.0794e-05 3.27945e-07
9.0794e-05 4.24819e-05 -3.72024e-07
3.27945e-07 -3.72024e-07 -0.000131252
0.00054029 0.000144584 5.25152e-06
0.000144584 0.000110895 3.24836e-06
5.25152e-06 3.24836e-06 6.35665e-05
0.000298196 8.8812e-05 1.20989e-06
8.8812e-05 4.50477e-05 6.36417e-07
1.20989e-06 6.36417e-07 -0.000163581
0.000478402 9.40157e-05 1.24328e-07
9.40157e-05 0.000104964 -1.89384e-06
1.24328e-07 -1.89384e-06 -1.0766e-05
0.000640517 0.000139585 -8.28852e-07
0.000139585 0.000247854 -1.69308e-05
-8.28852e-07 -1.69308e-05 0.000163767
0.000889989 0.000174538 -3.75819e-06
0.000174538 0.000355045 -7.97512e-06
-3.75819e-06 -7.97512e-06 0.000189582
0.00107483 0.000156073 6.0322e-07
0.000156073 0.00051874 2.97362e-06
6.0322e-07 2.97362e-06 0.000311175
0.000781437 0.000127691 -2.60465e-06
0.000127691 0.000302225 -8.83789e-07
-2.60465e-06 -8.83789e-07 0.000107236
0.00018234 -2.09639e-05 -2.08045e-06
-2.09639e-05 -0.000128737 8.55532e-07
-2.08045e-06 8.55532e-07 -0.000268151
0.00131346 -0.000132313 1.77819e-06
-0.000132313 0.000727327 -2.47616e-06
1.77819e-06 -2.47616e-06 0.000483822
7.71789e-05 -5.44234e-05 -5.44235e-07
-5.44234e-05 -0.000184907 3.34978e-06
-5.44235e-07 3.34978e-06 -0.000328986
0.000394795 3.94173e-06 -1.93576e-06
3.94173e-06 8.90294e-06 3.17189e-06
-1.93576e-06 3.17189e-06 -8.80425e-05
0.000418969 4.52811e-05 2.42489e-06
4.52811e-05 2.19793e-05 -8.33724e-08
2.42489e-06 -8.33724e-08 -7.4025e-05
0.000322789 2.05597e-05 -1.98694e-06
2.05597e-05 -6.86084e-05 5.06314e-06
-1.98694e-06 5.06314e-06 -9.79225e-05
0.000348173 -5.4243e-07 -1.177e-06
-5.4243e-07 -2.26576e-05 -4.23952e-06
-1.177e-06 -4.23952e-06 -0.000118005
0.000850847 1.75857e-05 -4.43725e-06
1.75857e-05 0.000268109 -1.52551e-06
-4.43725e-06 -1.52551e-06 0.000241476
0.00266199 3.84846e-06 2.8673e-05
3.84846e-06 0.00142331 6.06845e-06
2.8673e-05 6.06845e-06 0.00143541
0.00141069 5.07456e-05 -1.70244e-05
5.07456e-05 0.000627075 -8.12825e-06
-1.70244e-05 -8.12825e-06 0.000600954
0.000765724 -5.69365e-06 1.21659e-05
-5.69365e-06 0.000193804 3.80582e-06
1.21659e-05 3.80582e-06 0.000195788
0.000835158 -1.92751e-05 1.60339e-06
-1.92751e-05 0.000230923 -3.3378e-06
1.60339e-06 -3.3378e-06 0.000231479
0.000408554 9.77599e-06 -2.5678e-06
9.77599e-06 -4.28951e-06 -4.89528e-06
-2.5678e-06 -4.89528e-06 -6.66997e-05
0.000517805 -4.14331e-05 5.49367e-07
-4.14331e-05 6.39747e-05 -2.11833e-07
5.49367e-07 -2.11833e-07 -4.60071e-06
0.000411969 2.45841e-05 -4.71371e-07
2.45841e-05 -3.50104e-05 -4.87472e-06
-4.71371e-07 -4.87472e-06 -5.61633e-05
0.000796709 4.83235e-05 1.49809e-07
4.83235e-05 0.00022549 1.78629e-07
1.49809e-07 1.78629e-07 0.000197093
0.00251923 9.03517e-05 1.04925e-06
9.03517e-05 0.00134444 -5.84411e-06
1.04925e-06 -5.84411e-06 0.00134752
0.000461854 6.04036e-05 5.42373e-06
6.04036e-05 2.55711e-05 8.09795e-06
5.42373e-06 8.09795e-06 -1.84432e-05
0.00274559 0.000124174 -2.19593e-06
0.000124174 0.00150246 -1.91988e-07
-2.19593e-06 -1.91988e-07 0.0014972
0.0032412 0.000139932 -3.48119e-06
0.000139932 0.00182803 7.95699e-06
-3.48119e-06 7.95699e-06 0.00181693
0.00239016 0.000361095 1.82079e-06
0.000361095 -0.000137278 1.08248e-07
1.82079e-06 1.08248e-07 -3.99552e-05
0.00232403 0.000115602 2.11011e-06
0.000115602 -0.000114875 -1.82394e-06
2.11011e-06 -1.82394e-06 5.63252e-06
0.00221822 -7.47277e-06 -9.2269e-07
-7.47277e-06 -7.51037e-05 5.66881e-08
-9.2269e-07 5.66881e-08 -6.88078e-07
0.00231134 -6.13102e-06 -2.4017e-08
-6.13102e-06 -0.000140047 -1.30253e-07
-2.4017e-08 -1.30253e-07 -1.37226e-06
0.00258723 0.000175211 1.81267e-06
0.000175211 -0.000114334 -4.2306e-07
1.81267e-06 -4.2306e-07 3.88677e-05
0.00251782 0.000127946 3.41113e-06
0.000127946 -0.000194675 -2.44334e-06
3.41113e-06 -2.44334e-06 -4.73196e-05
0.00273226 2.45874e-05 -5.45443e-06
2.45874e-05 -0.000141102 3.25151e-06
-5.45443e-06 3.25151e-06 7.05344e-05
0.00550742 0.00151183 7.63512e-05
0.00151183 -0.00106069 1.43007e-05
7.63512e-05 1.43007e-05 0.000365417
0.00290235 0.000126988 -3.8183e-05
0.000126988 0.000156487 1.96906e-05
-3.8183e-05 1.96906e-05 0.000466449
0.00046555 0.000122382 -4.38162e-06
0.000122382 7.37504e-05 -4.59516e-06
-4.38162e-06 -4.59516e-06 -4.13801e-05
0.00233168 -0.00015448 1.30931e-06
-0.00015448 -0.000140548 1.06731e-06
1.30931e-06 1.06731e-06 -5.45404e-06
0.00247626 -0.000424466 1.65604e-06
-0.000424466 -0.000140449 2.30023e-06
1.65604e-06 2.30023e-06 -1.0992e-05
0.00246659 -0.000640385 1.62482e-06
-0.000640385 -4.03199e-05 -3.28796e-07
1.62482e-06 -3.28796e-07 2.59932e-06
0.00175742 -0.000967403 -6.19195e-06
-0.000967403 0.000577215 7.45316e-06
-6.19195e-06 7.45316e-06 -3.62732e-05
0.00259376 -0.0012208 3.83331e-05
-0.0012208 0.000809472 2.01144e-06
3.83331e-05 2.01144e-06 0.000137947
0.00215559 -0.00102625 -1.31493e-06
-0.00102625 0.000269693 -1.85923e-06
-1.31493e-06 -1.85923e-06 -0.000170731
0.00252707 -0.000909318 2.70267e-06
-0.000909318 0.000109176 -1.88203e-06
2.70267e-06 -1.88203e-06 -3.75909e-05
0.00159447 -0.000737025 3.07192e-05
-0.000737025 0.000525918 -5.49909e-05
3.07192e-05 -5.49909e-05 5.3377e-05
0.00158053 -0.000651726 1.93022e-05
-0.000651726 0.000750273 -5.60665e-05
1.93022e-05 -5.60665e-05 5.88286e-05
0.000835611 -0.000253559 1.45314e-05
-0.000253559 0.000325914 7.31286e-06
1.45314e-05 7.31286e-06 -0.000138764
0.000444365 5.77838e-06 3.32742e-06
5.77838e-06 2.08089e-05 4.18956e-06
3.32742e-06 4.18956e-06 -5.73175e-05
0.0014116 -0.000324811 1.46147e-06
-0.000324811 0.000694911 1.59264e-05
1.46147e-06 1.59264e-05 0.000336954
0.00101672 -5.13453e-05 6.53118e-06
-5.13453e-05 0.00050225 9.00053e-07
6.53118e-06 9.00053e-07 0.000313161
0.00049641 -0.000125719 4.68058e-06
-0.000125719 0.00015028 -4.95507e-07
4.68058e-06 -4.95507e-07 -0.000142153
-0.000284465 -1.8212e-05 -5.04472e-06
-1.8212e-05 -0.000431358 4.23396e-06
-5.04472e-06 4.23396e-06 -0.000539372
0.00248616 -0.000199797 -9.43709e-07
-0.000199797 -0.000272697 -7.18562e-07
-9.43709e-07 -7.18562e-07 -5.69838e-05
0.000385792 5.49422e-05 7.7234e-07
5.49422e-05 2.45163e-05 -2.72431e-06
7.7234e-07 -2.72431e-06 -0.00010213
0.000605508 -9.13016e-05 3.13482e-06
-9.13016e-05 0.000196436 1.65087e-06
3.13482e-06 1.65087e-06 5.79774e-05
0.00103327 -0.000136496 7.50636e-06
-0.000136496 0.000395891 -7.21904e-07
7.50636e-06 -7.21904e-07 0.00025542
0.00256053 -0.000588424 2.24217e-06
-0.000588424 -0.000254047 -6.69642e-07
2.24217e-06 -6.69642e-07 -2.68467e-05
0.00276977 -0.000923273 -4.0743e-07
-0.000923273 7.35845e-05 -2.83473e-07
-4.0743e-07 -2.83473e-07 4.24664e-05
0.000747852 -0.000788385 7.4917e-06
-0.000788385 2.50357e-05 -5.7737e-07
7.4917e-06 -5.7737e-07 -0.000498348
0.00282258 -0.00137472 1.64513e-05
-0.00137472 0.000776471 1.12927e-06
1.64513e-05 1.12927e-06 9.42764e-05
0.00266658 -0.00115136 4.548e-08
-0.00115136 0.000321411 1.27518e-06
4.548e-08 1.27518e-06 -4.09422e-06
0.000247842 -2.16968e-05 -5.4252e-07
-2.16968e-05 -4.09491e-05 -4.00226e-07
-5.4252e-07 -4.00226e-07 -0.000248213
0.00146389 -0.000254575 3.08661e-06
-0.000254575 0.000796817 3.26043e-06
3.08661e-06 3.26043e-06 0.000430552
0.00212964 -0.00110999 -1.08407e-06
-0.00110999 0.000778996 4.8669e-06
-1.08407e-06 4.8669e-06 0.000206602
0.00162184 -0.000416665 -7.12237e-07
-0.000416665 0.000962333 8.64691e-06
-7.12237e-07 8.64691e-06 0.000239939
0.0016094 -0.000267328 6.80038e-06
-0.000267328 0.000780846 1.05368e-05
6.80038e-06 1.05368e-05 0.000459796
0.00289038 -0.000406898 -1.42068e-05
-0.000406898 -9.68933e-05 9.44904e-06
-1.42068e-05 9.44904e-06 0.00016721
0.00233053 -0.000671649 -1.60811e-05
-0.000671649 -0.000376275 6.6015e-06
-1.60811e-05 6.6015e-06 -6.34385e-05
0.00270758 -0.00110227 -1.37733e-05
-0.00110227 0.00019497 -3.37072e-06
-1.37733e-05 -3.37072e-06 -3.52516e-05
0.00468503 -0.00156934 3.20395e-07
-0.00156934 0.00165724 5.84661e-06
3.20395e-07 5.84661e-06 0.00112679
0.000169467 -0.000925359 -1.46826e-05
-0.000925359 -0.000416923 1.46669e-05
-1.46826e-05 1.46669e-05 -0.000948127
4.39535e-05 -2.22708e-05 -1.25832e-06
-2.22708e-05 -0.000200556 -1.33681e-06
-1.25832e-06 -1.33681e-06 -0.000328102
0.000725952 -4.70184e-07 -3.30414e-06
-4.70184e-07 0.000156389 1.17284e-05
-3.30414e-06 1.17284e-05 4.91317e-06
-0.000243654 -0.000189305 -1.15857e-05
-0.000189305 -0.000375754 -4.78837e-06
-1.15857e-05 -4.78837e-06 -0.000534319
0.00193651 -0.000338913 -4.48404e-05
-0.000338913 0.0010354 3.42659e-05
-4.48404e-05 3.42659e-05 0.00072812
0.000855021 -0.00018705 -5.12915e-06
-0.00018705 0.000368521 2.52917e-05
-5.12915e-06 2.52917e-05 6.02205e-05
-0.00150749 -6.89464e-05 7.54389e-06
-6.89464e-05 -0.000594031 4.2713e-06
7.54389e-06 4.2713e-06 -0.00134954
0.0014631 -0.00118213 -8.89725e-06
-0.00118213 0.000718108 -7.20703e-06
-8.89725e-06 -7.20703e-06 -6.54206e-05
0.00218179 0.000508261 3.46173e-06
0.000508261 0.00130649 -2.4676e-06
3.46173e-06 -2.4676e-06 0.000992341
0.000211348 0.00029434 -2.55873e-06
0.00029434 9.93249e-05 -3.89606e-07
-2.55873e-06 -3.89606e-07 -0.000251976
0.00260764 0.000398657 1.4097e-05
0.000398657 -0.000202012 5.7915e-06
1.4097e-05 5.7915e-06 -2.45059e-05
0.00296141 0.00075761 1.58278e-05
0.00075761 0.000252098 9.79886e-06
1.58278e-05 9.79886e-06 0.000265175
0.00263393 0.00103634 5.95893e-06
0.00103634 0.000408886 3.49427e-06
5.95893e-06 3.49427e-06 -2.74991e-05
0.00141998 0.000689692 -2.57285e-06
0.000689692 0.000376092 2.29863e-06
-2.57285e-06 2.29863e-06 -0.000101799
0.00217609 0.00107204 2.02957e-06
0.00107204 0.000554849 3.92339e-06
2.02957e-06 3.92339e-06 -5.8871e-05
0.00258789 0.000475967 -3.33926e-07
0.000475967 0.00159997 1.43567e-06
-3.33926e-07 1.43567e-06 0.0012939
0.00309114 0.000599119 1.26349e-05
0.000599119 5.61168e-05 5.81739e-06
1.26349e-05 5.81739e-06 0.000414101
0.00119458 0.000534295 -6.74907e-06
0.000534295 0.000549706 4.83677e-06
-6.74907e-06 4.83677e-06 0.000135026
0.00180129 0.000873067 2.52242e-06
0.000873067 0.000558351 -2.32198e-06
2.52242e-06 -2.32198e-06 -2.89812e-05
0.00299289 0.00104813 -1.90575e-06
0.00104813 0.000480875 -3.96087e-06
-1.90575e-06 -3.96087e-06 0.000239308
0.00219944 0.00111047 -6.79966e-06
0.00111047 0.000524025 7.46587e-06
-6.79966e-06 7.46587e-06 -7.46258e-05
0.00311204 0.00182912 5.89289e-05
0.00182912 -0.00170992 1.30493e-05
5.89289e-05 1.30493e-05 -0.000814056
0.000574285 0.000357733 8.96827e-07
0.000357733 0.000465485 8.82709e-07
8.96827e-07 8.82709e-07 9.09554e-05
0.00449775 0.0012479 -0.000123938
0.0012479 0.000890154 -5.24301e-05
-0.000123938 -5.24301e-05 0.000913095
-2.02267e-05 0.000481126 -2.14945e-05
0.000481126 -0.000406593 6.50866e-06
-2.14945e-05 6.50866e-06 -0.000829509
0.000276088 0.000757242 -6.77216e-06
0.000757242 -0.000366865 -2.06976e-05
-6.77216e-06 -2.06976e-05 -0.0009011
0.00176399 0.00119862 -4.89606e-05
0.00119862 1.70822e-05 -2.25239e-05
-4.89606e-05 -2.25239e-05 -0.000391855
0.0158135 0.000875927 -0.000779732
0.000875927 0.00107951 -0.000103937
-0.000779732 -0.000103937 0.0014967
0.0024908 0.00269514 -0.000117556
0.00269514 -0.00419379 -0.000110621
-0.000117556 -0.000110621 -0.00110558
0.00123646 0.00218664 2.10062e-05
0.00218664 -0.000939739 -5.32331e-06
2.10062e-05 -5.32331e-06 -0.00105601
0.00431228 -0.0046386 0.0028321
-0.0046386 0.00267836 0.000254833
0.0028321 0.000254833 -0.00321733
0.0309752 -0.0144688 -8.25345e-05
-0.0144688 0.0170139 4.89047e-05
-8.25345e-05 4.89047e-05 0.00794496
0.00112567 0.000207444 6.79504e-06
0.000207444 0.000621944 1.07556e-05
6.79504e-06 1.07556e-05 0.000492638
0.000859839 0.000147066 -2.39879e-06
0.000147066 0.000463414 -4.7028e-07
-2.39879e-06 -4.7028e-07 0.000339892
0.000247839 0.000176541 1.08891e-05
0.000176541 0.00010425 -3.8471e-06
1.08891e-05 -3.8471e-06 -5.07919e-05
0.000507266 -6.09707e-05 1.0437e-06
-6.09707e-05 0.000119953 -2.36261e-06
1.0437e-06 -2.36261e-06 -3.69061e-05
0.000448044 7.36598e-05 1.65841e-06
7.36598e-05 8.66336e-05 -3.42257e-06
1.65841e-06 -3.42257e-06 -8.82183e-05
0.000448182 -8.00473e-06 -2.73281e-09
-8.00473e-06 0.000132985 -7.3225e-07
-2.73281e-09 -7.3225e-07 -6.95357e-05
0.00104887 0.00012607 2.2466e-06
0.00012607 0.000449871 1.45589e-05
2.2466e-06 1.45589e-05 0.000326756
0.000408641 0.000126332 3.33589e-06
0.000126332 3.35368e-05 1.45221e-05
3.33589e-06 1.45221e-05 -6.24152e-06
0.000792622 0.000175284 -1.5424e-06
0.000175284 0.000387474 1.9738e-07
-1.5424e-06 1.9738e-07 0.000152338
0.000391333 -2.05399e-05 3.05892e-07
-2.05399e-05 1.72246e-05 1.01685e-06
3.05892e-07 1.01685e-06 -0.000130516
0.000721441 7.00834e-05 -1.12872e-06
7.00834e-05 0.000264504 3.05804e-07
-1.12872e-06 3.05804e-07 7.20669e-05
0.000359865 0.000122571 -3.28109e-06
0.000122571 4.62411e-05 -4.03288e-06
-3.28109e-06 -4.03288e-06 -2.84529e-05
0.000690704 0.000139392 -1.06826e-06
0.000139392 0.000243761 1.11564e-07
-1.06826e-06 1.11564e-07 8.24625e-05
0.00206113 0.000272008 -1.53274e-06
0.000272008 0.00116428 -2.41006e-06
-1.53274e-06 -2.41006e-06 0.000934969
-1.16921e-05 8.58187e-05 1.00036e-07
8.58187e-05 -5.72305e-05 -1.1505e-05
1.00036e-07 -1.1505e-05 -0.000258014
0.000938553 0.000108346 2.70815e-06
0.000108346 0.000457466 -1.76025e-06
2.70815e-06 -1.76025e-06 0.000247165
8.95121e-05 1.84569e-05 -1.09284e-06
1.84569e-05 -0.000176429 -2.26416e-06
-1.09284e-06 -2.26416e-06 -0.000352928
0.000271713 -7.30539e-05 -4.21016e-07
-7.30539e-05 -5.71196e-05 9.63642e-08
-4.21016e-07 9.63642e-08 -0.00020421
0.00030324 -2.60767e-05 -4.59428e-08
-2.60767e-05 -1.15832e-05 -3.88885e-06
-4.59428e-08 -3.88885e-06 -0.000183249
0.0011859 -6.14862e-05 2.82609e-06
-6.14862e-05 0.000563127 -7.59583e-06
2.82609e-06 -7.59583e-06 0.000389207
0.000879715 -7.57859e-05 -1.64715e-06
-7.57859e-05 0.000428121 -6.48045e-07
-1.64715e-06 -6.48045e-07 0.000225902
0.000790621 -0.000100974 2.11882e-06
-0.000100974 0.000342731 -4.37404e-07
2.11882e-06 -4.37404e-07 0.000138949
0.00052521 -0.000130725 -1.57914e-06
-0.000130725 0.000126232 3.87411e-06
-1.57914e-06 3.87411e-06 -2.92344e-05
0.000142193 -2.99387e-05 -4.1446e-10
-2.99387e-05 -0.000134392 1.17051e-06
-4.1446e-10 1.17051e-06 -0.000285114
0.000458704 -7.14456e-05 -1.06917e-06
-7.14456e-05 4.01482e-05 4.02248e-06
-1.06917e-06 4.02248e-06 -5.03754e-05
0.000463233 -4.72003e-05 2.16596e-06
-4.72003e-05 5.09365e-05 1.48369e-07
2.16596e-06 1.48369e-07 -4.47795e-05
0.000360344 4.09119e-08 4.39143e-06
4.09119e-08 -3.92087e-05 7.00038e-06
4.39143e-06 7.00038e-06 -7.07434e-05
0.00045833 6.57512e-05 -1.59381e-06
6.57512e-05 3.8785e-05 -3.53703e-06
-1.59381e-06 -3.53703e-06 -5.14663e-05
0.000353977 3.02914e-05 5.62211e-07
3.02914e-05 -4.79037e-05 1.34516e-07
5.62211e-07 1.34516e-07 -7.74128e-05
0.00259456 1.16517e-05 1.46903e-05
1.16517e-05 0.00138117 5.70861e-06
1.46903e-05 5.70861e-06 0.00139255
0.000384667 6.32051e-05 -5.1587e-06
6.32051e-05 -2.64233e-05 -8.33195e-06
-5.1587e-06 -8.33195e-06 -5.99929e-05
0.0016836 -9.10145e-07 -9.13701e-06
-9.10145e-07 0.000790087 1.28364e-07
-9.13701e-06 1.28364e-07 0.000796496
0.000804248 -8.82576e-06 1.12249e-06
-8.82576e-06 0.000213618 -2.55629e-06
1.12249e-06 -2.55629e-06 0.000215278
0.000373263 2.1965e-05 -1.53981e-06
2.1965e-05 -3.76761e-05 -3.74417e-06
-1.53981e-06 -3.74417e-06 -8.70152e-05
0.000461877 -4.10599e-05 9.26019e-07
-4.10599e-05 3.17326e-05 1.0114e-07
9.26019e-07 1.0114e-07 -3.21181e-05
0.000468402 6.43238e-06 1.33348e-06
6.43238e-06 -4.33431e-06 -4.45441e-06
1.33348e-06 -4.45441e-06 -1.9572e-05
0.000476209 -5.53173e-05 -3.18106e-07
-5.53173e-05 3.99913e-05 2.22054e-06
-3.18106e-07 2.22054e-06 -3.04462e-05
0.000800424 2.82713e-05 3.45456e-07
2.82713e-05 0.000216966 -8.62966e-07
3.45456e-07 -8.62966e-07 0.00019801
0.00218513 6.39343e-05 5.01551e-07
6.39343e-05 0.00111954 -5.39283e-06
5.01551e-07 -5.39283e-06 0.00112918
0.000427612 3.21494e-05 9.01609e-07
3.21494e-05 -1.7261e-05 6.31417e-06
9.01609e-07 6.31417e-06 -4.74663e-05
0.00267804 0.000100541 -2.28288e-06
0.000100541 0.00145208 1.59661e-06
-2.28288e-06 1.59661e-06 0.00145269
0.00295035 0.00013798 2.1891e-05
0.00013798 0.00164036 9.66152e-06
2.1891e-05 9.66152e-06 0.0016322
0.00252024 0.000187414 2.01603e-06
0.000187414 -0.000135009 -2.86052e-06
2.01603e-06 -2.86052e-06 1.45986e-05
0.00227896 -4.27467e-07 -1.66801e-07
-4.27467e-07 -0.000161594 5.19162e-08
-1.66801e-07 5.19162e-08 -2.15445e-05
0.00265971 9.97215e-05 1.07201e-05
9.97215e-05 -0.000106646 3.39699e-06
1.07201e-05 3.39699e-06 3.02728e-05
0.0028054 0.00116195 0.000133399
0.00116195 -0.00244018 3.88981e-05
0.000133399 3.88981e-05 -0.000943453
0.00266512 -1.17176e-05 -3.88761e-06
-1.17176e-05 -0.00016441 -1.94769e-06
-3.88761e-06 -1.94769e-06 4.33476e-05
0.00273197 0.000105022 -4.76852e-06
0.000105022 5.58197e-05 -3.50445e-06
-4.76852e-06 -3.50445e-06 0.00031094
0.00267089 -5.16832e-05 -4.4411e-05
-5.16832e-05 7.45746e-05 -7.73089e-06
-4.4411e-05 -7.73089e-06 0.000243726
0.00327906 0.000810888 -0.000119863
0.000810888 -0.00268904 -3.18903e-05
-0.000119863 -3.18903e-05 -0.000758197
0.00278962 0.000351089 0.000154959
0.000351089 -0.00139843 7.98351e-05
0.000154959 7.98351e-05 -0.000543493
0.000524608 9.37679e-05 -3.07563e-07
9.37679e-05 0.000113891 -3.56204e-06
-3.07563e-07 -3.56204e-06 1.0651e-06
0.000561919 -9.12741e-06 -5.70181e-07
-9.12741e-06 0.000146662 -2.27299e-07
-5.70181e-07 -2.27299e-07 2.23269e-05
0.000300198 -0.000106983 -7.13232e-06
-0.000106983 -2.5255e-05 1.03625e-07
-7.13232e-06 1.03625e-07 -0.000154413
0.000346165 -6.94012e-05 -4.18937e-06
-6.94012e-05 2.70498e-05 1.16966e-07
-4.18937e-06 1.16966e-07 -0.000110601
0.00260545 -0.000221153 3.77308e-07
-0.000221153 -0.000205908 -1.72948e-06
3.77308e-07 -1.72948e-06 2.10223e-05
0.00257214 -0.000597176 8.88218e-07
-0.000597176 -0.000220692 9.33155e-07
8.88218e-07 9.33155e-07 -3.35383e-05
0.00258137 -0.000898951 4.64991e-07
-0.000898951 -2.50585e-05 -7.54156e-07
4.64991e-07 -7.54156e-07 -4.89112e-05
0.00407132 -0.00121039 2.61333e-05
-0.00121039 0.00191481 1.91204e-06
2.61333e-05 1.91204e-06 0.001301
0.00165863 -0.00126773 -6.48167e-06
-0.00126773 8.16743e-05 1.12973e-06
-6.48167e-06 1.12973e-06 -0.000568614
0.00251591 -0.00114608 -5.32664e-08
-0.00114608 0.00024659 -4.73118e-06
-5.32664e-08 -4.73118e-06 -8.60005e-05
-0.000667843 -0.000754345 3.45492e-06
-0.000754345 -0.000743572 -2.18042e-05
3.45492e-06 -2.18042e-05 -0.00139544
0.00371095 -0.000565445 1.77203e-05
-0.000565445 0.0019598 -1.49615e-05
1.77203e-05 -1.49615e-05 0.00143784
-9.36824e-06 -0.000165619 3.54718e-06
-0.000165619 -0.00023543 1.32305e-05
3.54718e-06 1.32305e-05 -0.000550893
0.000685611 -8.68689e-05 3.37891e-06
-8.68689e-05 0.000245237 2.1505e-06
3.37891e-06 2.1505e-06 0.000104401
0.000385593 -0.000140616 -7.54012e-06
-0.000140616 0.00013786 -9.169e-06
-7.54012e-06 -9.169e-06 -0.000235793
0.000653811 -6.68542e-05 3.68135e-06
-6.68542e-05 0.000220118 7.78543e-07
3.68135e-06 7.78543e-07 1.25832e-05
0.000521248 -3.7654e-06 1.08608e-06
-3.7654e-06 0.000130563 5.56692e-06
1.08608e-06 5.56692e-06 -4.89354e-06
0.000458828 -7.55463e-05 -9.82192e-06
-7.55463e-05 1.72006e-05 1.01852e-05
-9.82192e-06 1.01852e-05 -0.000103418
0.00275764 -0.000380885 2.88236e-06
-0.000380885 -0.000174453 1.37522e-06
2.88236e-06 1.37522e-06 0.000113349
0.000406921 -4.18041e-05 -2.65729e-07
-4.18041e-05 5.14016e-05 3.68731e-06
-2.65729e-07 3.68731e-06 -9.29918e-05
0.000729967 -8.52787e-05 8.00077e-06
-8.52787e-05 0.000170507 -2.38475e-06
8.00077e-06 -2.38475e-06 1.73908e-05
-0.000907379 -7.71468e-05 1.25499e-05
-7.71468e-05 -0.000731647 -1.45452e-06
1.25499e-05 -1.45452e-06 -0.000843019
0.00236246 -0.00069924 5.43639e-07
-0.00069924 -0.000368194 -7.89192e-07
5.43639e-07 -7.89192e-07 -9.31311e-05
0.00266224 -0.00110248 2.37393e-06
-0.00110248 0.000162311 -1.47947e-06
2.37393e-06 -1.47947e-06 -6.72395e-05
0.00193465 -0.00123597 -1.5043e-05
-0.00123597 0.000555935 1.60943e-06
-1.5043e-05 1.60943e-06 -4.98067e-05
0.00336743 -0.00144205 -4.88406e-06
-0.00144205 0.000911901 -1.31431e-07
-4.88406e-06 -1.31431e-07 0.000405443
0.00189351 -0.000240333 1.45051e-05
-0.000240333 0.0010485 -8.1124e-06
1.45051e-05 -8.1124e-06 0.000718152
-0.00121548 -4.60131e-05 9.51996e-06
-4.60131e-05 -0.000915259 6.45368e-06
9.51996e-06 6.45368e-06 -0.00125415
0.00102043 -0.00122104 -4.61856e-07
-0.00122104 0.000600785 -9.52096e-07
-4.61856e-07 -9.52096e-07 -0.000276333
0.0019095 -0.00055184 -1.16341e-05
-0.00055184 0.00105718 -2.84327e-06
-1.16341e-05 -2.84327e-06 0.000468243
0.00396621 -0.000576678 -5.99797e-05
-0.000576678 0.0005654 1.94738e-05
-5.99797e-05 1.94738e-05 0.000895066
0.00273551 -0.000917561 -3.87637e-05
-0.000917561 6.07636e-05 1.65391e-05
-3.87637e-05 1.65391e-05 0.000155663
0.00301042 -0.00127103 -6.99664e-06
-0.00127103 0.000651089 -1.78452e-05
-6.99664e-06 -1.78452e-05 0.000190682
0.00274164 -0.00141904 1.50557e-05
-0.00141904 0.000783249 3.60234e-05
1.50557e-05 3.60234e-05 0.000324539
0.000181083 -0.000181743 -7.21694e-06
-0.000181743 8.19849e-05 -1.49496e-05
-7.21694e-06 -1.49496e-05 -0.000122117
0.000767934 -0.000270695 -1.83789e-05
-0.000270695 0.000285916 -5.50854e-06
-1.83789e-05 -5.50854e-06 -2.27814e-05
0.000615622 -0.000303496 -1.68333e-05
-0.000303496 0.000490747 8.04315e-05
-1.68333e-05 8.04315e-05 8.8477e-05
-0.000308682 -0.0010089 5.08978e-06
-0.0010089 0.000512795 -4.06589e-05
5.08978e-06 -4.06589e-05 -0.000648205
0.00550293 -0.000490956 6.61215e-05
-0.000490956 -0.0064047 1.27024e-05
6.61215e-05 1.27024e-05 -0.0067512
0.00222881 0.000361907 1.35822e-05
0.000361907 0.00138586 -5.94079e-06
1.35822e-05 -5.94079e-06 0.00108537
0.000329214 0.00039165 1.43651e-06
0.00039165 1.05794e-05 -2.76966e-06
1.43651e-06 -2.76966e-06 -0.000361907
0.00182368 0.000467923 6.18039e-05
0.000467923 -0.000700942 2.68699e-05
6.18039e-05 2.68699e-05 -0.000257193
0.00250962 0.000981084 2.74111e-05
0.000981084 0.000249981 1.25754e-05
2.74111e-05 1.25754e-05 4.90644e-05
0.00299558 0.00121973 1.38695e-05
0.00121973 0.000966819 1.45781e-05
1.38695e-05 1.45781e-05 0.000339217
0.00212554 0.000929634 1.72866e-05
0.000929634 0.000778733 1.17514e-05
1.72866e-05 1.17514e-05 0.000162929
0.00493589 0.0022535 9.92151e-05
0.0022535 -0.00115009 4.09194e-05
9.92151e-05 4.09194e-05 -0.000470331
0.000869477 0.00033553 3.46134e-06
0.00033553 0.000598652 -5.24903e-06
3.46134e-06 -5.24903e-06 0.000264103
0.00301572 0.00106984 -5.69376e-06
0.00106984 5.42891e-05 4.2583e-06
-5.69376e-06 4.2583e-06 0.000187967
0.00106059 0.000627934 -8.13788e-06
0.000627934 0.000292246 7.26522e-06
-8.13788e-06 7.26522e-06 -0.000180925
0.00189479 0.00100469 1.74687e-06
0.00100469 0.00055348 -9.37808e-06
1.74687e-06 -9.37808e-06 -3.73768e-05
0.00281454 0.00128042 -1.54105e-05
0.00128042 0.000610779 -5.22643e-07
-1.54105e-05 -5.22643e-07 0.000160744
0.00528112 -0.000269588 -0.000221837
-0.000269588 -0.00670643 -0.00015827
-0.000221837 -0.00015827 -0.00683486
0.00672661 0.00299662 -0.000195953
0.00299662 -0.00158786 -8.57573e-05
-0.000195953 -8.57573e-05 0.000835238
0.00149923 0.00212598 -9.26894e-06
0.00212598 -0.000752002 5.03484e-07
-9.26894e-06 5.03484e-07 -0.000964615
0.00729125 -0.00384155 0.00085957
-0.00384155 0.00511574 0.000274954
0.00085957 0.000274954 0.000706751
0.0255469 -0.0158479 -0.000616761
-0.0158479 0.0157376 -0.000561921
-0.000616761 -0.000561921 0.00634019
-2.45098e-05 0.00027648 -7.75503e-06
0.00027648 -0.000133639 -2.58407e-06
-7.75503e-06 -2.58407e-06 -0.000419617
0.00235553 -6.56858e-05 0.00148738
-6.56858e-05 0.00475136 7.37658e-05
0.00148738 7.37658e-05 0.00235026
0.00848936 -0.00701359 -2.50825e-05
-0.00701359 0.0101275 -0.000204019
-2.50825e-05 -0.000204019 0.000767907
0.00350081 0.00175353 -8.70113e-05
0.00175353 0.000568477 -3.00083e-05
-8.70113e-05 -3.00083e-05 0.000224584
0.000829221 0.000601887 -3.55558e-05
0.000601887 8.21953e-05 -7.07987e-06
-3.55558e-05 -7.07987e-06 -0.000341463
0.00151109 0.00101489 -5.25049e-05
0.00101489 0.000355062 -4.05048e-05
-5.25049e-05 -4.05048e-05 -0.000165282
7.7632e-05 0.00201522 0.000146817
0.00201522 -0.00101043 0.000128338
0.000146817 0.000128338 -0.00131957
0.0154077 0.00430067 0.000180786
0.00430067 6.53053e-05 -2.903e-06
0.000180786 -2.903e-06 0.0011796
0.0067999 0.00460123 -0.00012027
0.00460123 -0.000635175 -0.000112095
-0.00012027 -0.000112095 0.00119754
0.0229373 -0.00881546 0.00136198
-0.00881546 0.00963469 0.000399831
0.00136198 0.000399831 0.00182051
0.0181016 -0.00328611 -0.000350125
-0.00328611 0.00829966 0.000758931
-0.000350125 0.000758931 0.00403987
0.000522435 0.000123858 1.91764e-06
0.000123858 0.000295336 7.79417e-06
1.91764e-06 7.79417e-06 0.000158008
0.000312587 0.000198784 3.33577e-06
0.000198784 0.00018092 4.02509e-07
3.33577e-06 4.02509e-07 1.08555e-05
0.000249693 0.000206227 5.95354e-06
0.000206227 0.000210514 -6.14292e-06
5.95354e-06 -6.14292e-06 -6.32353e-05
0.000602661 2.49324e-08 2.2907e-06
2.49324e-08 0.00018253 1.43968e-06
2.2907e-06 1.43968e-06 1.44811e-05
0.000588855 9.51441e-05 1.54231e-06
9.51441e-05 0.00016494 -6.63641e-07
1.54231e-06 -6.63641e-07 -1.5869e-05
-0.000238835 3.27891e-05 1.64437e-07
3.27891e-05 -0.00030636 2.87714e-06
1.64437e-07 2.87714e-06 -0.000504997
0.00086969 0.000145032 -3.94756e-06
0.000145032 0.000382227 6.68399e-06
-3.94756e-06 6.68399e-06 0.000212946
-0.000168714 9.05239e-05 -5.04314e-06
9.05239e-05 -0.000307828 8.34333e-06
-5.04314e-06 8.34333e-06 -0.000369667
0.000317301 -9.24946e-06 -4.93938e-07
-9.24946e-06 -2.20666e-05 6.66043e-07
-4.93938e-07 6.66043e-07 -0.000175537
0.0013514 0.000176561 3.0749e-06
0.000176561 0.000691112 1.27348e-06
3.0749e-06 1.27348e-06 0.000477851
0.000364126 6.65908e-05 -7.41965e-07
6.65908e-05 9.64849e-05 -1.04936e-06
-7.41965e-07 -1.04936e-06 -0.000120357
0.000759573 5.36034e-05 1.63359e-06
5.36034e-05 0.000300648 1.39105e-07
1.63359e-06 1.39105e-07 9.28996e-05
0.000111585 9.13245e-05 -9.29115e-07
9.13245e-05 1.54211e-05 -3.82261e-06
-9.29115e-07 -3.82261e-06 -0.000187765
0.0012406 0.00014381 -9.38777e-07
0.00014381 0.000650603 -7.26938e-06
-9.38777e-07 -7.26938e-06 0.000457713
-0.000616423 3.31556e-05 -6.86783e-07
3.31556e-05 -0.000210953 -5.14457e-06
-6.86783e-07 -5.14457e-06 -0.000563159
4.16207e-05 -3.82954e-05 -2.38084e-07
-3.82954e-05 -0.000140894 2.26437e-07
-2.38084e-07 2.26437e-07 -0.000343619
0.000712734 -7.6765e-05 -3.92552e-06
-7.6765e-05 0.000276174 -2.25335e-06
-3.92552e-06 -2.25335e-06 7.38407e-05
0.000770263 -6.53433e-05 -4.2506e-07
-6.53433e-05 0.000318959 -1.9404e-06
-4.2506e-07 -1.9404e-06 0.000123119
0.000561846 -6.68699e-05 -4.46547e-06
-6.68699e-05 0.000154009 1.87535e-06
-4.46547e-06 1.87535e-06 1.53735e-07
0.000900931 1.10596e-05 -8.16854e-06
1.10596e-05 0.000455743 -6.22918e-06
-8.16854e-06 -6.22918e-06 0.000248097
0.000797241 -0.000144391 5.7206e-06
-0.000144391 0.000271885 -1.05158e-05
5.7206e-06 -1.05158e-05 0.000138591
-0.000176324 -3.96381e-05 -4.06755e-06
-3.96381e-05 -0.00026015 -5.20641e-06
-4.06755e-06 -5.20641e-06 -0.000410234
-0.000434164 -2.08037e-05 1.56509e-06
-2.08037e-05 -0.000336066 -7.10119e-06
1.56509e-06 -7.10119e-06 -0.000587455
-3.8852e-05 -6.4078e-05 9.3012e-07
-6.4078e-05 -0.000198829 7.12236e-07
9.3012e-07 7.12236e-07 -0.000361631
0.00085602 -0.000157741 -1.18195e-06
-0.000157741 0.00039462 9.49937e-07
-1.18195e-06 9.49937e-07 0.000204555
0.000291042 -8.31076e-05 -8.20592e-08
-8.31076e-05 -3.84341e-05 2.72522e-06
-8.20592e-08 2.72522e-06 -0.000182466
0.00040606 -0.000112403 3.28505e-06
-0.000112403 5.27976e-05 -8.94909e-07
3.28505e-06 -8.94909e-07 -0.00011629
0.000565508 -0.000137484 9.58725e-08
-0.000137484 0.000151474 3.12015e-07
9.58725e-08 3.12015e-07 -7.03463e-06
0.000506456 -7.03713e-05 -1.08439e-06
-7.03713e-05 7.03406e-05 5.09523e-06
-1.08439e-06 5.09523e-06 -2.27347e-05
0.000286052 8.67938e-08 8.88636e-08
8.67938e-08 -2.03312e-05 -5.98526e-07
8.88636e-08 -5.98526e-07 -0.00018686
0.00044917 1.8044e-06 2.69737e-06
1.8044e-06 4.40752e-05 1.35549e-07
2.69737e-06 1.35549e-07 -5.28784e-05
0.00140318 -4.11763e-05 -1.46232e-05
-4.11763e-05 0.000623293 7.52192e-06
-1.46232e-05 7.52192e-06 0.000598396
0.00043883 8.52087e-05 -2.87268e-06
8.52087e-05 3.56517e-05 -3.25022e-06
-2.87268e-06 -3.25022e-06 -5.95112e-05
0.000811665 -2.81512e-05 -5.7716e-06
-2.81512e-05 0.000251056 7.51167e-07
-5.7716e-06 7.51167e-07 0.00022184
0.000821498 4.52416e-08 -8.45364e-06
4.52416e-08 0.000235522 4.86132e-06
-8.45364e-06 4.86132e-06 0.000239074
0.000309582 -4.04823e-05 5.52051e-06
-4.04823e-05 -7.62653e-05 -5.53046e-06
5.52051e-06 -5.53046e-06 -0.000105373
0.00260979 3.91955e-06 1.27865e-05
3.91955e-06 0.00139136 3.40079e-08
1.27865e-05 3.40079e-08 0.00140258
0.000842855 6.5819e-06 -1.42981e-05
6.5819e-06 0.00024989 -5.68282e-06
-1.42981e-05 -5.68282e-06 0.000251799
0.000553218 8.17781e-05 1.74695e-06
8.17781e-05 0.000144121 -1.54744e-06
1.74695e-06 -1.54744e-06 2.03866e-05
0.000402654 6.42208e-05 -3.14284e-06
6.42208e-05 -2.04934e-06 -4.05931e-06
-3.14284e-06 -4.05931e-06 -5.95915e-05
0.000440312 1.77212e-06 1.4967e-06
1.77212e-06 2.04261e-05 2.19036e-07
1.4967e-06 2.19036e-07 -3.86191e-05
0.000428821 9.71623e-06 9.61865e-07
9.71623e-06 -2.84815e-05 -4.10612e-06
9.61865e-07 -4.10612e-06 -4.18441e-05
0.00053446 -7.89029e-05 -1.43791e-06
-7.89029e-05 9.16727e-05 4.46833e-06
-1.43791e-06 4.46833e-06 2.00224e-05
0.000447365 9.4536e-06 3.68471e-07
9.4536e-06 -1.81638e-05 -7.71049e-07
3.68471e-07 -7.71049e-07 -3.34326e-05
0.00208887 4.39631e-05 5.80501e-09
4.39631e-05 0.00105181 -5.24062e-06
5.80501e-09 -5.24062e-06 0.00106508
0.0012164 4.40132e-05 1.86046e-06
4.40132e-05 0.000488547 3.16272e-06
1.86046e-06 3.16272e-06 0.000469313
0.00152492 5.36116e-05 -1.10161e-06
5.36116e-05 0.000693356 1.69752e-06
-1.10161e-06 1.69752e-06 0.000697716
0.000791997 5.65164e-05 5.96583e-06
5.65164e-05 0.000226693 1.15464e-05
5.96583e-06 1.15464e-05 0.000220683
0.000849696 0.000856041 9.9692e-05
0.000856041 -0.00335263 2.78819e-05
9.9692e-05 2.78819e-05 -0.00183695
0.00253616 -4.21183e-05 9.56692e-06
-4.21183e-05 -0.000239312 -2.02722e-07
9.56692e-06 -2.02722e-07 -3.23222e-05
0.00253254 8.33588e-05 5.14928e-05
8.33588e-05 -2.37999e-05 -1.37037e-05
5.14928e-05 -1.37037e-05 0.000159415
0.00435567 0.000801604 -9.68531e-05
0.000801604 -0.00266313 -4.91898e-05
-9.68531e-05 -4.91898e-05 6.64947e-05
0.00338491 0.000121804 9.18459e-05
0.000121804 -0.00097689 -5.89263e-06
9.18459e-05 -5.89263e-06 -7.91815e-05
0.00278049 -7.41694e-05 -9.05611e-06
-7.41694e-05 0.000105398 -2.70401e-06
-9.05611e-06 -2.70401e-06 0.000282594
0.00492404 -0.000670905 -7.54221e-05
-0.000670905 0.0003 -3.79715e-05
-7.54221e-05 -3.79715e-05 0.0010065
0.00492331 -0.000841449 2.27979e-05
-0.000841449 -0.00143949 -7.38299e-07
2.27979e-05 -7.38299e-07 0.000555934
0.0205421 -0.00119151 0.000102802
-0.00119151 0.00227654 -8.89478e-05
0.000102802 -8.89478e-05 0.0022602
0.0208727 0.00952441 0.00230452
0.00952441 0.00875253 -0.000404068
0.00230452 -0.000404068 0.00231685
0.0322103 0.0112867 0.000188208
0.0112867 0.020982 9.20942e-05
0.000188208 9.20942e-05 0.0129462
2.311e-05 -0.000112825 1.11353e-06
-0.000112825 -0.000178186 -2.82728e-06
1.11353e-06 -2.82728e-06 -0.000308022
0.000513183 -1.14707e-05 2.30938e-06
-1.14707e-05 0.000108168 5.29981e-08
2.30938e-06 5.29981e-08 -5.53312e-06
0.000603179 -9.88562e-05 -9.62735e-07
-9.88562e-05 0.000181312 6.61761e-06
-9.62735e-07 6.61761e-06 4.95636e-05
0.000527919 -5.23258e-05 2.38653e-06
-5.23258e-05 0.000113239 -1.09735e-07
2.38653e-06 -1.09735e-07 -1.09e-05
0.000985609 0.00015501 -7.946e-06
0.00015501 0.000501677 -4.84738e-06
-7.946e-06 -4.84738e-06 0.000344388
0.000629097 0.000157522 -2.35159e-06
0.000157522 0.000196656 3.62648e-06
-2.35159e-06 3.62648e-06 4.71479e-05
0.000824866 2.64075e-05 1.54904e-06
2.64075e-05 0.000341744 -2.49555e-07
1.54904e-06 -2.49555e-07 0.000177851
0.000511842 -2.35237e-05 -1.54329e-06
-2.35237e-05 0.00011868 1.09078e-06
-1.54329e-06 1.09078e-06 -1.69049e-05
0.002694 -0.000373307 1.48767e-05
-0.000373307 -0.000219665 -1.14524e-05
1.48767e-05 -1.14524e-05 9.04168e-05
0.00238425 -0.000735218 1.50178e-05
-0.000735218 -0.000383142 -5.98282e-06
1.50178e-05 -5.98282e-06 -0.000140621
0.00271193 -0.00110735 6.12097e-06
-0.00110735 0.000181336 4.44428e-06
6.12097e-06 4.44428e-06 -4.24922e-05
0.00267586 -0.00133026 9.81411e-06
-0.00133026 0.000907063 -1.85543e-06
9.81411e-06 -1.85543e-06 0.000312607
0.00278822 -0.00136972 -2.81636e-05
-0.00136972 0.000618022 -1.71197e-06
-2.81636e-05 -1.71197e-06 9.70655e-05
0.000525113 -0.00123606 2.24031e-05
-0.00123606 0.000353944 1.11189e-05
2.24031e-05 1.11189e-05 -0.000593801
0.00514828 -0.000944624 9.30473e-06
-0.000944624 0.00277739 5.30762e-06
9.30473e-06 5.30762e-06 0.00224528
0.00179148 -0.000444058 2.24962e-05
-0.000444058 0.00104803 -5.50319e-05
2.24962e-05 -5.50319e-05 0.000588807
0.000653352 -0.000114967 -3.53845e-06
-0.000114967 0.000105978 7.46581e-06
-3.53845e-06 7.46581e-06 -2.48443e-05
0.00123173 -0.00011344 1.71805e-05
-0.00011344 0.000601192 -2.18697e-05
1.71805e-05 -2.18697e-05 0.000287192
0.000814517 -7.32515e-05 5.07415e-06
-7.32515e-05 0.000317952 6.90096e-06
5.07415e-06 6.90096e-06 0.000163046
0.000526566 8.12665e-06 8.64675e-06
8.12665e-06 0.00019323 1.66734e-06
8.64675e-06 1.66734e-06 0.000134918
0.00267145 -0.000504526 1.16864e-06
-0.000504526 -0.000218545 4.20721e-06
1.16864e-06 4.20721e-06 0.00020903
0.00027382 -0.000102804 -6.38506e-06
-0.000102804 0.00010458 9.97746e-07
-6.38506e-06 9.97746e-07 -7.97576e-05
0.00141436 -0.000281 -6.07147e-06
-0.000281 0.000698993 6.05374e-06
-6.07147e-06 6.05374e-06 0.000430603
0.00188353 -0.00085062 8.5289e-06
-0.00085062 -0.000432694 -5.19602e-06
8.5289e-06 -5.19602e-06 -0.000280917
0.00251786 -0.00117265 2.18915e-06
-0.00117265 0.000393192 6.15622e-06
2.18915e-06 6.15622e-06 -4.18683e-08
0.00148971 -0.00124149 -2.70579e-06
-0.00124149 3.27454e-05 -1.64609e-05
-2.70579e-06 -1.64609e-05 -0.000369367
0.00128213 -0.000427233 -2.31401e-06
-0.000427233 0.000817578 -3.34466e-05
-2.31401e-06 -3.34466e-05 0.000299657
0.00107074 -0.000840294 1.53455e-05
-0.000840294 0.00113431 1.85627e-06
1.53455e-05 1.85627e-06 0.000157156
0.00639048 -0.00122279 -5.70711e-05
-0.00122279 0.00161786 3.70549e-05
-5.70711e-05 3.70549e-05 0.00194938
0.00322458 -0.00123934 -4.56684e-05
-0.00123934 0.000740715 1.70711e-05
-4.56684e-05 1.70711e-05 0.000439703
0.00284356 -0.00143681 4.101e-06
-0.00143681 0.000694448 1.83944e-05
4.101e-06 1.83944e-05 0.000256859
0.000297441 -0.000816314 -1.43239e-05
-0.000816314 -0.000283374 2.6774e-05
-1.43239e-05 2.6774e-05 -0.000453912
0.000797605 -0.000218945 3.17792e-07
-0.000218945 0.000505422 1.06069e-06
3.17792e-07 1.06069e-06 0.000196076
-2.19055e-05 -0.000192886 3.76731e-06
-0.000192886 8.53396e-05 8.18788e-06
3.76731e-06 8.18788e-06 -0.000302279
0.000548194 -0.000357604 -1.69356e-05
-0.000357604 0.000817888 -1.57422e-05
-1.69356e-05 -1.57422e-05 4.2241e-06
-0.007997 -0.00068074 0.000991032
-0.00068074 -0.00283475 -4.5326e-05
0.000991032 -4.5326e-05 -0.0052299
0.0127008 -0.000549408 7.98416e-05
-0.000549408 -0.000820063 5.54821e-05
7.98416e-05 5.54821e-05 0.000405508
0.00241321 0.000425746 8.99043e-06
0.000425746 0.0014521 -9.70392e-06
8.99043e-06 -9.70392e-06 0.00116418
0.00212994 0.00077049 2.68658e-06
0.00077049 0.000986998 6.92726e-06
2.68658e-06 6.92726e-06 0.000463719
0.00157061 0.000858005 0.000111534
0.000858005 -0.000729602 5.82746e-05
0.000111534 5.82746e-05 -0.000512065
0.00418274 0.00141325 3.61783e-05
0.00141325 0.00136958 1.88127e-05
3.61783e-05 1.88127e-05 0.000865824
0.00308345 0.00119185 2.70232e-05
0.00119185 0.00121407 5.65656e-06
2.70232e-05 5.65656e-06 0.000581742
0.0188174 0.00090954 0.000107566
0.00090954 0.00170441 -0.000145983
0.000107566 -0.000145983 0.00205806
0.00872268 0.00367082 -0.000302582
0.00367082 -0.00225643 -3.06614e-05
-0.000302582 -3.06614e-05 0.000810272
0.00230125 0.00216558 -4.3229e-06
0.00216558 -0.00022307 -3.96737e-05
-4.3229e-06 -3.96737e-05 -0.000574426
0.0178782 -0.00739672 -0.000981502
-0.00739672 0.00827555 0.00011328
-0.000981502 0.00011328 0.0023837
0.0181255 -0.0175959 -0.0033477
-0.0175959 0.0146104 -0.00185255
-0.0033477 -0.00185255 0.00478677
0.000617276 0.000379957 7.28615e-06
0.000379957 0.000329949 -3.88202e-06
7.28615e-06 -3.88202e-06 -3.44704e-06
0.00104693 -0.0045577 0.000918077
-0.0045577 -0.00123681 8.81739e-05
0.000918077 8.81739e-05 -0.00567519
0.00181241 -0.00552118 -0.000938085
-0.00552118 0.0107445 -0.000148377
-0.000938085 -0.000148377 0.00202851
0.00393824 0.00169069 -2.05346e-05
0.00169069 0.00074538 3.26863e-06
-2.05346e-05 3.26863e-06 0.000456126
0.000837596 0.000659298 -1.2133e-05
0.000659298 0.00015442 8.60355e-06
-1.2133e-05 8.60355e-06 -0.000315738
0.00204665 0.00118095 2.98761e-06
0.00118095 0.000638751 9.36945e-07
2.98761e-06 9.36945e-07 5.61733e-05
0.00221311 0.00205196 8.15425e-05
0.00205196 0.000449447 5.53108e-05
8.15425e-05 5.53108e-05 0.000134229
0.0144919 0.0046672 -0.000197834
0.0046672 -0.0014671 -0.000132732
-0.000197834 -0.000132732 -0.00154976
0.00284859 0.00420628 -1.35705e-05
0.00420628 -0.00160396 -5.06859e-05
-1.35705e-05 -5.06859e-05 0.000337549
0.0249878 -0.00751199 0.000844622
-0.00751199 0.0115239 -6.97637e-05
0.000844622 -6.97637e-05 0.00382743
0.0249287 -0.00607684 -9.77864e-05
-0.00607684 0.00840453 0.000940387
-9.77864e-05 0.000940387 0.00235582
0.000824455 0.000423769 -1.19545e-05
0.000423769 0.000380829 -1.75363e-05
-1.19545e-05 -1.75363e-05 7.92091e-05
-0.00719357 0.00105612 -1.32124e-05
0.00105612 0.00595523 -0.000163332
-1.32124e-05 -0.000163332 -0.00290841
0.00752115 0.00201943 -0.000670321
0.00201943 0.00604694 -0.000625317
-0.000670321 -0.000625317 0.000495259
0.0029499 0.00130847 -5.31857e-05
0.00130847 0.000701838 -2.76696e-05
-5.31857e-05 -2.76696e-05 0.000543225
0.00292683 0.00124446 -9.23468e-05
0.00124446 0.00130971 -3.65732e-05
-9.23468e-05 -3.65732e-05 0.00073774
0.00256607 0.00160808 -0.000112392
0.00160808 0.00152517 -4.15678e-05
-0.000112392 -4.15678e-05 0.000644654
-0.00274175 0.00304982 5.25305e-05
0.00304982 -0.00088273 -2.93518e-05
5.25305e-05 -2.93518e-05 -0.000915273
0.00581058 0.00696432 0.000860493
0.00696432 -0.00194166 9.32365e-05
0.000860493 9.32365e-05 -0.00275982
0.0269845 -0.00945083 -0.000287348
-0.00945083 0.0153219 0.00100548
-0.000287348 0.00100548 0.00659825
0.00945802 0.000572023 -0.00020153
0.000572023 -0.00168672 -0.000223081
-0.00020153 -0.000223081 -0.00177847
0.00052109 0.000245612 -3.71218e-06
0.000245612 0.000343126 1.45836e-06
-3.71218e-06 1.45836e-06 0.000145618
0.00152085 0.00036998 4.03619e-06
0.00036998 0.000954503 6.82518e-07
4.03619e-06 6.82518e-07 0.000665231
-0.000604258 0.000157541 -4.89034e-06
0.000157541 -0.000286109 3.33139e-06
-4.89034e-06 3.33139e-06 -0.000543222
0.000370655 6.46258e-05 2.67824e-06
6.46258e-05 1.20663e-05 2.07999e-06
2.67824e-06 2.07999e-06 -0.000143718
0.00120857 0.000100737 5.23565e-07
0.000100737 0.000612451 7.18536e-07
5.23565e-07 7.18536e-07 0.000391212
0.000459303 2.86286e-05 -1.71627e-06
2.86286e-05 0.000161778 2.94369e-06
-1.71627e-06 2.94369e-06 -6.75678e-05
0.000246821 0.000110407 8.20005e-06
0.000110407 2.41973e-05 9.74171e-06
8.20005e-06 9.74171e-06 -0.000205289
-0.000253621 5.79055e-05 -4.82961e-06
5.79055e-05 -0.000205563 6.11088e-06
-4.82961e-06 6.11088e-06 -0.000403951
0.000788346 4.06142e-05 1.25837e-07
4.06142e-05 0.000330045 -7.92939e-07
1.25837e-07 -7.92939e-07 0.000123195
0.000605585 8.77092e-05 1.86214e-08
8.77092e-05 0.000243408 1.40289e-07
1.86214e-08 1.40289e-07 5.64396e-05
0.00088304 -4.16432e-05 -1.01629e-06
-4.16432e-05 0.000425667 2.4652e-06
-1.01629e-06 2.4652e-06 0.000195983
-0.00100171 4.0953e-05 -6.43057e-07
4.0953e-05 -0.000427995 1.29935e-06
-6.43057e-07 1.29935e-06 -0.000782325
0.000293197 2.99927e-05 3.05485e-06
2.99927e-05 0.000496951 9.89641e-06
3.05485e-06 9.89641e-06 3.80591e-05
0.000759181 -2.80187e-05 1.83745e-06
-2.80187e-05 0.000484003 -6.66312e-06
1.83745e-06 -6.66312e-06 0.000209853
0.00177518 -3.76711e-05 -3.85102e-06
-3.76711e-05 0.00105333 3.01694e-06
-3.85102e-06 3.01694e-06 0.00078767
0.000911678 -0.000105865 -6.58793e-07
-0.000105865 0.000412939 -7.55702e-07
-6.58793e-07 -7.55702e-07 0.000208713
0.000241602 -0.000114045 1.92521e-06
-0.000114045 -5.90701e-05 1.06321e-05
1.92521e-06 1.06321e-05 -0.000200726
0.00054701 -0.0001087 6.13908e-07
-0.0001087 0.000203045 1.75523e-09
6.13908e-07 1.75523e-09 9.78743e-06
0.000691024 -0.000141869 -2.13109e-06
-0.000141869 0.000195846 -1.78701e-06
-2.13109e-06 -1.78701e-06 5.80304e-05
-0.00011444 -7.13763e-05 -4.15537e-07
-7.13763e-05 -0.000211109 6.13557e-06
-4.15537e-07 6.13557e-06 -0.000349574
-0.000812215 -4.41713e-05 1.72454e-06
-4.41713e-05 -0.000624281 -1.0091e-05
1.72454e-06 -1.0091e-05 -0.00082064
-0.000114416 -6.10237e-05 -8.28586e-06
-6.10237e-05 -8.83539e-05 -1.37353e-06
-8.28586e-06 -1.37353e-06 -0.000322169
0.000434707 -0.000137419 2.20169e-06
-0.000137419 0.000144309 -1.04633e-05
2.20169e-06 -1.04633e-05 4.2896e-06
0.00104246 -0.000154171 2.61917e-05
-0.000154171 0.000385993 -1.84215e-05
2.61917e-05 -1.84215e-05 0.000267898
0.00337629 -0.000583015 -1.15076e-06
-0.000583015 0.00176498 1.87254e-06
-1.15076e-06 1.87254e-06 0.00147264
-0.000786674 -0.000121545 -2.16148e-06
-0.000121545 -0.000613699 -2.69842e-06
-2.16148e-06 -2.69842e-06 -0.000838895
0.000438053 -5.07757e-05 2.284e-06
-5.07757e-05 0.000190269 1.24228e-07
2.284e-06 1.24228e-07 -4.96259e-05
-0.000991468 -5.84608e-08 6.14586e-06
-5.84608e-08 -0.000749952 -1.35466e-06
6.14586e-06 -1.35466e-06 -0.000997347
0.000651697 -0.000199357 -1.82571e-06
-0.000199357 0.000263577 -7.76968e-07
-1.82571e-06 -7.76968e-07 6.85324e-05
0.000500032 -5.55591e-05 2.79174e-06
-5.55591e-05 9.88105e-05 -9.67376e-07
2.79174e-06 -9.67376e-07 -6.08229e-05
0.000695042 -0.000183325 1.19477e-06
-0.000183325 0.000268898 -1.39829e-06
1.19477e-06 -1.39829e-06 9.30901e-05
0.000583604 -0.000101568 -7.25218e-07
-0.000101568 0.000170464 2.39644e-07
-7.25218e-07 2.39644e-07 1.10319e-05
0.000258568 3.33266e-05 1.89673e-06
3.33266e-05 -8.73057e-05 4.95493e-06
1.89673e-06 4.95493e-06 -0.000185154
0.000653416 -0.000139958 5.91655e-08
-0.000139958 0.000200656 -2.20494e-06
5.91655e-08 -2.20494e-06 4.31377e-05
0.000492451 -5.66912e-05 -6.57989e-07
-5.66912e-05 5.56315e-05 2.41113e-07
-6.57989e-07 2.41113e-07 -3.36312e-05
0.00138085 3.01393e-05 -8.77731e-06
3.01393e-05 0.000600983 8.00506e-06
-8.77731e-06 8.00506e-06 0.000576075
0.000462237 -7.97475e-05 6.89885e-07
-7.97475e-05 4.63784e-05 -3.46159e-06
6.89885e-07 -3.46159e-06 -4.6367e-05
0.000837014 -3.01413e-05 -1.10627e-05
-3.01413e-05 0.000259638 9.40417e-07
-1.10627e-05 9.40417e-07 0.000230956
0.00074268 1.01266e-05 1.88519e-06
1.01266e-05 0.000174044 2.28814e-06
1.88519e-06 2.28814e-06 0.000176554
0.000401598 -3.89875e-05 4.04287e-06
-3.89875e-05 -2.12525e-05 -5.10648e-06
4.04287e-06 -5.10648e-06 -4.91943e-05
0.00254921 6.42625e-06 6.88971e-06
6.42625e-06 0.00135021 -1.18995e-08
6.88971e-06 -1.18995e-08 0.00136243
0.00258169 -3.64989e-06 9.60627e-06
-3.64989e-06 0.00137274 -5.14553e-06
9.60627e-06 -5.14553e-06 0.00138414
0.00101827 7.93692e-05 -1.50494e-06
7.93692e-05 0.00044123 -1.89283e-06
-1.50494e-06 -1.89283e-06 0.000312163
0.000493783 7.51034e-05 -2.21186e-06
7.51034e-05 6.22383e-05 -4.45526e-06
-2.21186e-06 -4.45526e-06 -2.74836e-06
0.0005071 -2.14845e-05 -8.31652e-07
-2.14845e-05 0.000112575 9.24229e-07
-8.31652e-07 9.24229e-07 -9.34409e-06
0.000408348 1.17867e-05 9.95428e-07
1.17867e-05 -4.18815e-05 -4.20018e-06
9.95428e-07 -4.20018e-06 -5.43032e-05
0.000406473 -9.42794e-06 1.97268e-06
-9.42794e-06 -2.96825e-06 -2.58676e-07
1.97268e-06 -2.58676e-07 -5.90096e-05
0.000452628 -6.99323e-05 -2.24781e-06
-6.99323e-05 3.29978e-05 4.4033e-06
-2.24781e-06 4.4033e-06 -2.92783e-05
0.000426892 4.51839e-06 -6.61797e-07
4.51839e-06 -3.04702e-05 1.02669e-08
-6.61797e-07 1.02669e-08 -4.37026e-05
0.00205191 2.86634e-05 -5.29479e-06
2.86634e-05 0.00102519 -5.22986e-06
-5.29479e-06 -5.22986e-06 0.00104038
0.00118545 1.98123e-05 -1.01757e-06
1.98123e-05 0.00046191 3.08194e-06
-1.01757e-06 3.08194e-06 0.000449541
0.00134311 3.38697e-05 -3.92288e-06
3.38697e-05 0.000566805 3.69109e-08
-3.92288e-06 3.69109e-08 0.000576396
0.000742841 3.98784e-05 -1.87856e-06
3.98784e-05 0.000184712 8.99138e-06
-1.87856e-06 8.99138e-06 0.000186457
-0.00598039 0.00289204 0.00104291
0.00289204 -0.00150324 -0.000120231
0.00104291 -0.000120231 -0.00666848
0.00304092 0.00254794 0.00229301
0.00254794 0.0104342 -0.000361135
0.00229301 -0.000361135 0.00363772
0.0021003 0.000925111 -0.0001459
0.000925111 -0.00357548 -5.10322e-05
-0.0001459 -5.10322e-05 -0.000547805
0.00295041 -6.33551e-05 3.23157e-05
-6.33551e-05 -0.00121737 -3.85513e-05
3.23157e-05 -3.85513e-05 -0.000206711
0.00286231 -8.78571e-05 5.32164e-05
-8.78571e-05 0.000108767 1.36739e-05
5.32164e-05 1.36739e-05 0.000301668
-0.000625534 -0.00017023 -0.000138455
-0.00017023 -0.00270683 -3.98139e-05
-0.000138455 -3.98139e-05 -0.00056489
0.00443333 -0.000686323 3.66082e-06
-0.000686323 2.42539e-05 2.75802e-06
3.66082e-06 2.75802e-06 0.000632466
0.0127389 -0.000527467 0.000311878
-0.000527467 -0.00288065 -0.000128489
0.000311878 -0.000128489 -0.00276868
0.00682519 0.00636516 -1.17362e-05
0.00636516 0.00249987 -9.75066e-05
-1.17362e-05 -9.75066e-05 -0.00277019
0.0272091 0.0139999 -0.000860329
0.0139999 0.0181975 0.00031732
-0.000860329 0.00031732 0.00950013
0.00233224 -0.00150586 -7.91018e-06
-0.00150586 -0.00364893 -4.11463e-05
-7.91018e-06 -4.11463e-05 -0.00106525
0.0158718 -0.00433709 0.000325468
-0.00433709 -0.000236674 -7.78947e-05
0.000325468 -7.78947e-05 -0.000645868
0.0252547 0.00848632 0.00058952
0.00848632 0.00993208 -0.000492444
0.00058952 -0.000492444 0.00189353
0.0296256 0.00612324 -0.000387297
0.00612324 0.0116558 0.000384018
-0.000387297 0.000384018 0.00626298
0.00125894 0.000188686 -7.60498e-06
0.000188686 0.000694745 -1.30683e-06
-7.60498e-06 -1.30683e-06 0.000473702
0.000326961 3.49958e-05 1.09691e-06
3.49958e-05 -8.78709e-06 -6.67667e-07
1.09691e-06 -6.67667e-07 -0.000127488
0.000530751 -0.000108947 3.70845e-06
-0.000108947 0.000131795 3.90322e-06
3.70845e-06 3.90322e-06 1.11221e-05
0.000706421 -1.6107e-05 6.84663e-06
-1.6107e-05 0.000238118 2.0778e-06
6.84663e-06 2.0778e-06 0.000109468
0.000619009 7.62201e-05 4.05937e-06
7.62201e-05 0.000251335 7.8125e-08
4.05937e-06 7.8125e-08 0.000123629
0.000600185 8.41545e-05 -1.93668e-06
8.41545e-05 0.000204442 4.6173e-06
-1.93668e-06 4.6173e-06 1.03248e-05
0.00061076 8.38528e-05 -1.16106e-06
8.38528e-05 0.00020784 2.78849e-06
-1.16106e-06 2.78849e-06 5.43395e-05
0.000435269 0.000112148 2.93424e-06
0.000112148 4.32608e-05 2.9872e-06
2.93424e-06 2.9872e-06 -0.000122145
0.000573002 2.70032e-06 1.56046e-06
2.70032e-06 0.000177416 -1.26719e-06
1.56046e-06 -1.26719e-06 1.4568e-05
0.000326331 -3.27123e-05 3.1728e-06
-3.27123e-05 -1.16355e-05 3.93653e-07
3.1728e-06 3.93653e-07 -0.000132772
0.00106477 -0.000405827 4.50692e-05
-0.000405827 -0.00123358 -1.92528e-05
4.50692e-05 -1.92528e-05 -0.000656139
0.00132169 -0.000793664 2.57646e-05
-0.000793664 -0.000727205 -1.16693e-05
2.57646e-05 -1.16693e-05 -0.000540826
0.00114146 -0.000971013 1.13451e-05
-0.000971013 -0.000366463 5.4468e-06
1.13451e-05 5.4468e-06 -0.000656175
-0.000947409 -0.000881369 -1.43462e-05
-0.000881369 -0.0013135 -1.33811e-05
-1.43462e-05 -1.33811e-05 -0.00163705
0.00268376 -0.000808818 1.82806e-06
-0.000808818 0.00189883 4.90617e-05
1.82806e-06 4.90617e-05 0.00107863
-0.00085486 -0.000729213 -7.48275e-06
-0.000729213 -0.000412669 -1.87284e-05
-7.48275e-06 -1.87284e-05 -0.00114223
0.00134591 -0.000322904 1.46416e-05
-0.000322904 0.000688146 -5.22568e-06
1.46416e-05 -5.22568e-06 0.000458304
6.44088e-05 -4.47309e-05 5.0144e-06
-4.47309e-05 -5.83446e-05 6.60722e-06
5.0144e-06 6.60722e-06 -0.000221328
0.00287623 -0.000894116 1.41427e-05
-0.000894116 -0.000430076 -1.10652e-05
1.41427e-05 -1.10652e-05 0.00012533
0.000615598 -0.000132555 3.88e-07
-0.000132555 0.000378337 2.14742e-06
3.88e-07 2.14742e-06 6.82476e-05
-0.000346566 -0.000266892 -8.39e-06
-0.000266892 -0.000110166 -2.09212e-06
-8.39e-06 -2.09212e-06 -0.000495922
0.00199689 -0.00106512 1.99916e-05
-0.00106512 4.68308e-05 -1.2731e-06
1.99916e-05 -1.2731e-06 -0.000121393
0.00186349 -0.00127864 -1.55215e-06
-0.00127864 0.000110714 -4.74612e-06
-1.55215e-06 -4.74612e-06 -0.000210001
-3.50897e-05 -0.000844698 1.49609e-05
-0.000844698 -0.000416739 -1.653e-05
1.49609e-05 -1.653e-05 -0.000682789
0.000909117 -0.000525583 2.16408e-05
-0.000525583 0.00100138 -2.60824e-05
2.16408e-05 -2.60824e-05 0.000233961
0.00184677 -0.00143289 -4.30695e-05
-0.00143289 -0.000545048 4.63232e-05
-4.30695e-05 4.63232e-05 -0.000572046
0.00230665 -0.00118807 -4.71291e-05
-0.00118807 0.000493853 2.7089e-05
-4.71291e-05 2.7089e-05 0.00035021
-0.000980506 -0.000559335 -4.30797e-05
-0.000559335 -0.000431686 2.97806e-05
-4.30797e-05 2.97806e-05 -0.00085311
-0.00104102 -8.98448e-05 -9.26657e-06
-8.98448e-05 -0.000711139 6.51953e-06
-9.26657e-06 6.51953e-06 -0.00098643
-0.00125839 1.04267e-05 -3.40197e-06
1.04267e-05 -0.000681713 1.58463e-05
-3.40197e-06 1.58463e-05 -0.00104581
0.000738732 -9.45033e-05 1.99509e-06
-9.45033e-05 0.000581785 -2.89745e-06
1.99509e-06 -2.89745e-06 0.000183637
-0.00281035 0.00155343 -0.000666455
0.00155343 0.00834392 2.31822e-05
-0.000666455 2.31822e-05 0.00146071
-0.000185915 -0.00233182 -2.20532e-05
-0.00233182 0.00405702 -4.14902e-05
-2.20532e-05 -4.14902e-05 0.00181262
0.00574933 0.000744564 -0.000165543
0.000744564 -0.00691737 -4.63628e-05
-0.000165543 -4.63628e-05 -0.00696425
0.00146696 0.000496301 1.97729e-05
0.000496301 0.000918231 -7.92962e-06
1.97729e-05 -7.92962e-06 0.000541346
0.00180937 0.000854222 2.23069e-05
0.000854222 0.00077595 2.85427e-05
2.23069e-05 2.85427e-05 0.000225868
0.00387597 0.00152944 9.54972e-05
0.00152944 0.00066711 4.24788e-05
9.54972e-05 4.24788e-05 0.00045713
0.00185374 0.00123486 2.83036e-05
0.00123486 0.000567744 3.0439e-05
2.83036e-05 3.0439e-05 -5.80338e-05
0.0159688 -0.0054223 0.000359327
-0.0054223 0.00792819 0.000108072
0.000359327 0.000108072 0.00323891
0.00348573 0.00324341 -0.000594148
0.00324341 -0.00738345 -0.000142707
-0.000594148 -0.000142707 -0.00758731
0.0063181 0.00441633 4.16545e-05
0.00441633 0.000490487 2.23334e-05
4.16545e-05 2.23334e-05 0.00173399
0.00342446 0.00194938 9.87846e-05
0.00194938 0.00140765 1.32586e-05
9.87846e-05 1.32586e-05 0.0010842
0.0158054 -0.00430162 -0.00077483
-0.00430162 0.00690855 -0.000246016
-0.00077483 -0.000246016 0.000133264
0.00336565 -0.00698798 -0.00141398
-0.00698798 0.0117749 -0.000273888
-0.00141398 -0.000273888 0.00314201
0.0360813 -0.00901109 0.00130934
-0.00901109 0.0123727 0.00049666
0.00130934 0.00049666 0.00529657
0.000177305 0.000377752 1.15881e-05
0.000377752 4.22691e-05 -6.02402e-06
1.15881e-05 -6.02402e-06 -0.000275631
-0.00216095 -3.34426e-05 -0.000178275
-3.34426e-05 0.00837102 -2.07948e-05
-0.000178275 -2.07948e-05 0.000474122
0.00800247 0.00257702 -0.000264314
0.00257702 0.00452767 -0.000207035
-0.000264314 -0.000207035 -0.00185227
0.00197131 0.00131813 1.24495e-05
0.00131813 0.000328575 4.14643e-06
1.24495e-05 4.14643e-06 8.10483e-05
0.0010845 0.00098109 1.57413e-05
0.00098109 0.000423687 8.24021e-06
1.57413e-05 8.24021e-06 -0.000133883
0.00126956 0.00162189 -0.000122123
0.00162189 0.000766109 -9.12731e-05
-0.000122123 -9.12731e-05 6.19294e-05
0.00328789 0.00484204 8.20396e-05
0.00484204 0.000603293 5.51042e-05
8.20396e-05 5.51042e-05 0.000855438
0.0129754 0.00761798 -2.54688e-05
0.00761798 0.000484476 -4.4225e-06
-2.54688e-05 -4.4225e-06 -0.00138934
0.011543 -0.00523189 0.000128934
-0.00523189 0.00907515 -0.000154712
0.000128934 -0.000154712 0.000267778
0.0186775 -0.00215655 -5.69813e-05
-0.00215655 0.00301751 -6.24377e-05
-5.69813e-05 -6.24377e-05 0.00301716
0.00144296 0.000849461 -2.06866e-05
0.000849461 0.000757651 -1.02289e-05
-2.06866e-05 -1.02289e-05 0.000292392
0.00147244 0.000503618 -0.000564736
0.000503618 0.00346688 -0.000156557
-0.000564736 -0.000156557 -0.00328849
0.002402 0.00160143 -0.000184017
0.00160143 0.000504345 -0.000207395
-0.000184017 -0.000207395 -0.00194693
-0.000985442 0.000539538 -6.77065e-06
0.000539538 -0.000184986 -2.99945e-05
-6.77065e-06 -2.99945e-05 -0.000597586
-0.0019347 0.00120636 -0.000180824
0.00120636 0.000826812 4.88161e-06
-0.000180824 4.88161e-06 7.03192e-06
0.00930075 0.00736701 0.000261868
0.00736701 0.0037565 -2.16931e-06
0.000261868 -2.16931e-06 -0.00143596
0.00628773 -0.00683652 -1.89646e-05
-0.00683652 0.00216114 0.000239723
-1.89646e-05 0.000239723 -0.0051224
0.0157947 -0.000515949 8.4249e-05
-0.000515949 -0.000883037 -0.000346403
8.4249e-05 -0.000346403 0.000589591
0.0017437 0.00037554 6.37843e-06
0.00037554 0.00104039 2.49437e-05
6.37843e-06 2.49437e-05 0.000781286
0.000927116 0.000318964 -8.50163e-06
0.000318964 0.000658276 -6.32526e-06
-8.50163e-06 -6.32526e-06 0.000356113
-0.000610513 0.000169829 2.35439e-06
0.000169829 -6.83493e-05 -5.93698e-07
2.35439e-06 -5.93698e-07 -0.000505713
0.00041288 8.19905e-05 4.85065e-07
8.19905e-05 5.95224e-05 2.78431e-09
4.85065e-07 2.78431e-09 -0.000125165
0.00132691 -2.81862e-05 -3.54756e-06
-2.81862e-05 0.000729322 6.02405e-06
-3.54756e-06 6.02405e-06 0.000483568
-0.000134999 8.45535e-05 2.66015e-06
8.45535e-05 -0.000233181 7.3606e-06
2.66015e-06 7.3606e-06 -0.00041554
-0.00100531 9.90107e-05 1.5428e-07
9.90107e-05 -0.000424731 1.48828e-06
1.5428e-07 1.48828e-06 -0.000783054
0.000533456 -3.73158e-05 2.1676e-06
-3.73158e-05 0.000198212 5.90345e-07
2.1676e-06 5.90345e-07 -1.79542e-05
0.000386381 8.1268e-05 5.88683e-07
8.1268e-05 0.00024378 -2.29499e-06
5.88683e-07 -2.29499e-06 -2.34168e-05
4.47798e-05 3.61523e-05 1.01672e-06
3.61523e-05 0.000415193 1.94186e-06
1.01672e-06 1.94186e-06 -9.62754e-05
-0.000836922 2.87743e-05 6.70301e-07
2.87743e-05 2.5105e-05 1.06213e-05
6.70301e-07 1.06213e-05 -0.000552421
0.000538278 -3.73271e-06 1.28221e-06
-3.73271e-06 0.000654819 -3.60848e-06
1.28221e-06 -3.60848e-06 0.000185911
0.00167483 2.22339e-05 -4.36947e-06
2.22339e-05 0.00106183 2.79396e-06
-4.36947e-06 2.79396e-06 0.000795093
0.000904032 -0.000184611 4.55592e-06
-0.000184611 0.000439725 3.96082e-06
4.55592e-06 3.96082e-06 0.00023729
0.00026344 -0.000102273 -1.18165e-06
-0.000102273 -8.47862e-05 6.40478e-06
-1.18165e-06 6.40478e-06 -0.000219968
-0.000259059 -6.70368e-05 1.03872e-05
-6.70368e-05 -0.000308226 1.35535e-05
1.03872e-05 1.35535e-05 -0.000420133
0.000191837 -2.84391e-05 1.17767e-06
-2.84391e-05 9.28875e-05 1.31158e-06
1.17767e-06 1.31158e-06 -0.000130482
0.000520954 -4.86477e-05 7.12794e-07
-4.86477e-05 0.000177908 1.09812e-06
7.12794e-07 1.09812e-06 -4.58869e-06
2.47763e-05 -8.40685e-05 -3.97437e-06
-8.40685e-05 -7.42342e-05 1.41055e-07
-3.97437e-06 1.41055e-07 -0.000225967
0.000700834 -0.000119409 -2.42113e-06
-0.000119409 0.000317066 -9.24242e-06
-2.42113e-06 -9.24242e-06 0.000172257
0.000957773 -0.000115742 6.92822e-06
-0.000115742 0.000690037 -1.23261e-05
6.92822e-06 -1.23261e-05 0.000461699
0.00224725 -0.000410274 6.57017e-06
-0.000410274 0.00107865 3.00277e-06
6.57017e-06 3.00277e-06 0.000945586
0.000442148 -0.000153817 -2.30558e-05
-0.000153817 2.54627e-05 2.42246e-07
-2.30558e-05 2.42246e-07 -9.27381e-05
0.000962017 -0.00036914 1.02993e-05
-0.00036914 0.00026938 4.21752e-06
1.02993e-05 4.21752e-06 4.29217e-05
0.0027739 -0.000821459 -3.90677e-06
-0.000821459 0.00133846 1.89167e-05
-3.90677e-06 1.89167e-05 0.000871845
0.00255764 -0.000340275 1.22717e-05
-0.000340275 0.00127688 -8.11303e-06
1.22717e-05 -8.11303e-06 0.00105019
0.0016868 -0.000411396 -6.49137e-07
-0.000411396 0.000728771 -6.61369e-06
-6.49137e-07 -6.61369e-06 0.000495105
0.000309256 -0.000144498 -7.27627e-07
-0.000144498 5.29681e-05 -1.59776e-07
-7.27627e-07 -1.59776e-07 -0.00017833
-0.00115824 -8.71226e-05 1.38138e-06
-8.71226e-05 -0.000817908 -3.86534e-06
1.38138e-06 -3.86534e-06 -0.00112825
0.00158896 -6.65361e-05 1.7602e-06
-6.65361e-05 0.000893297 4.50007e-06
1.7602e-06 4.50007e-06 0.000663628
0.000717072 -0.000205109 2.19848e-06
-0.000205109 0.00030961 -1.43538e-06
2.19848e-06 -1.43538e-06 6.01979e-05
0.000319253 -7.89514e-05 3.17462e-06
-7.89514e-05 -4.35697e-05 -1.77973e-06
3.17462e-06 -1.77973e-06 -0.00021299
0.00178054 -0.000334626 -5.74028e-06
-0.000334626 0.00100208 3.1304e-07
-5.74028e-06 3.1304e-07 0.000778565
0.000688805 -0.000154331 -4.09418e-07
-0.000154331 0.000231648 -6.19651e-08
-4.09418e-07 -6.19651e-08 6.45139e-05
0.000305374 -1.32091e-05 1.70497e-06
-1.32091e-05 -6.67308e-05 5.24161e-06
1.70497e-06 5.24161e-06 -0.000170942
0.000920227 -0.000167066 -1.12978e-06
-0.000167066 0.000398319 -7.26197e-07
-1.12978e-06 -7.26197e-07 0.000231921
0.000570771 -7.73671e-05 -5.20431e-07
-7.73671e-05 0.000113597 -1.04445e-07
-5.20431e-07 -1.04445e-07 1.35393e-05
0.00144684 3.16427e-06 -1.44645e-05
3.16427e-06 0.000640345 8.81997e-06
-1.44645e-05 8.81997e-06 0.000611604
0.000499442 -8.10861e-05 6.97476e-07
-8.10861e-05 7.02811e-05 -4.87002e-06
6.97476e-07 -4.87002e-06 -2.64851e-05
0.000829899 -1.83576e-05 -1.30199e-05
-1.83576e-05 0.00024663 8.6366e-07
-1.30199e-05 8.6366e-07 0.000217658
0.000798777 1.89475e-05 2.15204e-06
1.89475e-05 0.000207936 3.1292e-06
2.15204e-06 3.1292e-06 0.000207995
0.000392007 -5.04171e-05 3.58539e-06
-5.04171e-05 -3.02966e-05 -5.68491e-06
3.58539e-06 -5.68491e-06 -6.11934e-05
0.00167198 1.57471e-05 1.5519e-05
1.57471e-05 0.000778851 -1.60819e-06
1.5519e-05 -1.60819e-06 0.000786623
0.00250524 3.44219e-06 1.99519e-05
3.44219e-06 0.001321 -5.37038e-06
1.99519e-05 -5.37038e-06 0.00133361
0.000460159 8.0628e-05 3.39431e-07
8.0628e-05 5.12168e-05 -2.69185e-06
3.39431e-07 -2.69185e-06 -7.54056e-05
0.000552226 7.73933e-05 -1.4569e-06
7.73933e-05 9.60982e-05 -4.26864e-06
-1.4569e-06 -4.26864e-06 2.60209e-05
0.000536256 1.70009e-05 5.25772e-07
1.70009e-05 0.000120313 6.92913e-07
5.25772e-07 6.92913e-07 -2.43344e-06
0.000418625 1.03345e-05 2.09724e-06
1.03345e-05 -3.53727e-05 -4.66732e-06
2.09724e-06 -4.66732e-06 -4.86499e-05
0.000443557 6.52996e-05 -6.08013e-08
6.52996e-05 2.37421e-05 -2.43814e-07
-6.08013e-08 -2.43814e-07 -3.71836e-05
0.000405364 -0.000118602 -2.45423e-06
-0.000118602 2.92325e-05 3.60134e-06
-2.45423e-06 3.60134e-06 -8.1964e-05
0.00203831 1.3957e-05 -1.02159e-05
1.3957e-05 0.00101425 -5.21174e-06
-1.02159e-05 -5.21174e-06 0.00103075
0.000408441 8.47412e-06 -3.24691e-07
8.47412e-06 -4.17923e-05 1.6165e-08
-3.24691e-07 1.6165e-08 -5.4129e-05
0.000471074 4.23534e-06 -3.54839e-07
4.23534e-06 2.86669e-05 3.83683e-06
-3.54839e-07 3.83683e-06 -2.14729e-05
0.000425607 1.21756e-06 -2.07235e-06
1.21756e-06 -3.22091e-05 4.34379e-06
-2.07235e-06 4.34379e-06 -4.54064e-05
0.00207203 2.97842e-05 -5.90757e-06
2.97842e-05 0.0010384 -1.61567e-07
-5.90757e-06 -1.61567e-07 0.00105335
0.00209685 4.55101e-05 -2.03359e-07
4.55101e-05 0.00105745 5.35822e-06
-2.03359e-07 5.35822e-06 0.00107042
-0.00275966 -0.00211875 -0.000351756
-0.00211875 0.00877419 7.36409e-05
-0.000351756 7.36409e-05 0.00350387
0.00527529 0.00313711 -0.000447906
0.00313711 0.00278139 0.000143362
-0.000447906 0.000143362 -0.00171148
0.00308824 -0.00126441 -0.000660253
-0.00126441 0.00146142 0.000314581
-0.000660253 0.000314581 -0.00374135
0.00557531 0.00335184 0.00160394
0.00335184 0.0101739 -0.000284507
0.00160394 -0.000284507 0.00281618
0.00507428 0.00103036 -2.88326e-05
0.00103036 -0.000702318 -1.17793e-05
-2.88326e-05 -1.17793e-05 0.000924555
0.00354921 -0.000747859 0.000111891
-0.000747859 -0.000448091 2.08551e-05
0.000111891 2.08551e-05 6.98336e-05
0.0023951 -0.000575953 0.000459996
-0.000575953 -0.00763131 -3.92275e-05
0.000459996 -3.92275e-05 -0.00764882
0.0259229 0.00591917 -0.00174597
0.00591917 0.0123051 1.33271e-06
-0.00174597 1.33271e-06 0.00629412
0.0196822 0.0169645 -0.00327028
0.0169645 0.0140582 0.00190053
-0.00327028 0.00190053 0.00461015
0.0054648 -0.00120905 6.4001e-05
-0.00120905 -0.00147164 3.47799e-06
6.4001e-05 3.47799e-06 0.000331884
0.00786798 -0.0042393 0.000245139
-0.0042393 -0.00493117 -0.000211702
0.000245139 -0.000211702 -0.00578117
0.0261462 0.00830691 -0.000462964
0.00830691 0.010599 -0.000177702
-0.000462964 -0.000177702 0.00258411
0.0215292 0.0056624 0.000238453
0.0056624 0.00836131 0.000513383
0.000238453 0.000513383 0.00304534
0.00198501 -0.00279024 -0.00010944
-0.00279024 -0.00437731 5.78806e-05
-0.00010944 5.78806e-05 -0.0016792
0.00592687 -0.00682726 0.000766057
-0.00682726 -0.00156649 -0.000285113
0.000766057 -0.000285113 -0.00390853
0.0158551 0.00403061 -0.000201088
0.00403061 0.00620698 -0.00112572
-0.000201088 -0.00112572 -0.001851
0.0103859 -0.000473966 -0.000422401
-0.000473966 -0.000318462 4.97144e-05
-0.000422401 4.97144e-05 -0.000974364
0.00213396 -4.60203e-05 -1.76897e-06
-4.60203e-05 0.0012804 1.46655e-05
-1.76897e-06 1.46655e-05 0.000978823
0.000183766 6.79317e-05 -1.4934e-06
6.79317e-05 -4.46837e-05 -2.22137e-06
-1.4934e-06 -2.22137e-06 -0.000206611
0.000560471 0.000119705 4.83176e-06
0.000119705 0.000133236 2.24474e-06
4.83176e-06 2.24474e-06 1.75713e-05
-0.000319663 -6.66914e-05 3.98314e-06
-6.66914e-05 -0.000403333 5.33406e-07
3.98314e-06 5.33406e-07 -0.0004663
0.000382257 0.000158933 -6.00117e-08
0.000158933 3.10206e-05 8.85612e-06
-6.00117e-08 8.85612e-06 -0.000168983
0.000523411 8.53773e-05 -1.37977e-07
8.53773e-05 0.000153744 9.80304e-07
-1.37977e-07 9.80304e-07 -2.92514e-05
-2.59956e-05 8.60378e-06 3.39664e-06
8.60378e-06 -0.000209737 6.58579e-07
3.39664e-06 6.58579e-07 -0.000345013
0.000945517 0.000199106 5.2069e-06
0.000199106 0.000422275 1.04313e-05
5.2069e-06 1.04313e-05 0.0002162
0.000963449 0.000181284 1.04116e-07
0.000181284 0.000443778 -5.08361e-07
1.04116e-07 -5.08361e-07 0.00023583
0.000312137 1.7421e-05 -1.62864e-06
1.7421e-05 -2.79095e-06 -2.92348e-06
-1.62864e-06 -2.92348e-06 -0.000161417
0.000815032 -0.000739783 0.000110791
-0.000739783 -0.00160803 -6.51238e-05
0.000110791 -6.51238e-05 -0.000962658
0.000457357 -0.000887076 7.25149e-06
-0.000887076 -0.000846389 -1.27198e-05
7.25149e-06 -1.27198e-05 -0.000884646
0.00174758 -0.00125214 6.82378e-06
-0.00125214 1.98325e-05 9.82254e-06
6.82378e-06 9.82254e-06 -0.000227079
-0.000912737 -0.000856508 5.51849e-06
-0.000856508 -0.000917541 -1.27193e-05
5.51849e-06 -1.27193e-05 -0.00123907
0.00436965 -0.000700024 -5.57662e-05
-0.000700024 0.00283136 7.34452e-05
-5.57662e-05 7.34452e-05 0.00228118
0.000593959 -0.000287608 -5.23024e-07
-0.000287608 0.000479488 -3.01966e-06
-5.23024e-07 -3.01966e-06 8.13354e-05
0.000414037 7.0854e-05 2.56154e-06
7.0854e-05 0.00022609 -1.13888e-05
2.56154e-06 -1.13888e-05 -7.31069e-05
0.000632261 -1.66484e-06 -5.8386e-06
-1.66484e-06 0.000333833 5.88075e-06
-5.8386e-06 5.88075e-06 2.95316e-05
0.00292942 -0.0014414 -2.71919e-05
-0.0014414 -5.04437e-07 1.89189e-06
-2.71919e-05 1.89189e-06 0.000137498
0.000608097 -4.69791e-05 1.58294e-06
-4.69791e-05 0.000416351 3.22909e-06
1.58294e-06 3.22909e-06 7.80621e-05
0.00244777 -0.000461622 9.47703e-06
-0.000461622 0.0015978 -5.16533e-06
9.47703e-06 -5.16533e-06 0.00118263
0.00178933 -0.00113792 2.0463e-05
-0.00113792 0.000198425 -5.35643e-06
2.0463e-05 -5.35643e-06 4.33806e-05
0.000387683 -0.000719269 -3.26524e-05
-0.000719269 0.000274365 1.07412e-05
-3.26524e-05 1.07412e-05 -0.000116096
0.00286466 -0.00242968 5.92169e-05
-0.00242968 0.000454079 -2.93416e-05
5.92169e-05 -2.93416e-05 -3.99102e-05
0.0016152 -0.000841264 -2.09295e-05
-0.000841264 0.000826268 3.19453e-05
-2.09295e-05 3.19453e-05 0.00058033
-0.0017929 -0.000177458 6.60365e-06
-0.000177458 -0.000664028 3.83455e-06
6.60365e-06 3.83455e-06 -0.00123164
0.000189047 9.41602e-05 2.17426e-07
9.41602e-05 6.86149e-05 4.27284e-06
2.17426e-07 4.27284e-06 -0.000139216
-9.16192e-05 -0.000165863 -1.63391e-06
-0.000165863 9.38255e-05 2.05742e-05
-1.63391e-06 2.05742e-05 -0.000292135
0.00195142 0.000331545 -0.000122988
0.000331545 0.00242863 -4.27251e-05
-0.000122988 -4.27251e-05 -0.00277311
-0.00786585 0.000391567 -0.000671197
0.000391567 0.0076314 -1.63357e-05
-0.000671197 -1.63357e-05 0.00142628
-0.0135353 -0.00403475 -0.00124641
-0.00403475 -0.00370539 2.96025e-06
-0.00124641 2.96025e-06 -0.00691929
0.000689322 0.000480127 2.13144e-05
0.000480127 0.000444072 -5.52349e-07
2.13144e-05 -5.52349e-07 6.07985e-05
-0.00028842 0.000804094 2.40319e-06
0.000804094 -0.000250741 1.0274e-05
2.40319e-06 1.0274e-05 -0.000798388
0.00306143 0.00156834 6.1988e-05
0.00156834 0.000931592 5.15449e-05
6.1988e-05 5.15449e-05 0.000586559
-0.00335949 0.00230185 0.000174989
0.00230185 0.00943016 7.4862e-05
0.000174989 7.4862e-05 0.00348488
0.00540595 0.00677577 -0.000652248
0.00677577 -0.00209379 -0.000221478
-0.000652248 -0.000221478 -0.00410325
-1.82961e-05 0.00320436 0.000517295
0.00320436 -0.000631285 0.000217633
0.000517295 0.000217633 -0.000303402
8.30878e-05 0.00145683 -1.10407e-05
0.00145683 0.000117238 -4.13569e-05
-1.10407e-05 -4.13569e-05 -0.000201573
0.0319009 -0.00487513 4.59046e-05
-0.00487513 0.0127163 -0.00055114
4.59046e-05 -0.00055114 0.00560686
0.00864265 0.00328255 0.00101031
0.00328255 0.00418915 0.000337109
0.00101031 0.000337109 -0.00286087
0.0140807 -0.00118023 0.000163207
-0.00118023 0.00288071 6.3839e-05
0.000163207 6.3839e-05 0.00385518
0.00164971 0.000855212 1.1515e-05
0.000855212 0.000942984 -8.2183e-07
1.1515e-05 -8.2183e-07 0.000484287
0.00397455 0.00138132 -7.1892e-05
0.00138132 0.00450979 -4.39733e-06
-7.1892e-05 -4.39733e-06 -0.00087644
0.00252042 0.00126225 0.000131129
0.00126225 0.000869016 -1.57727e-05
0.000131129 -1.57727e-05 -0.00143051
1.69557e-05 0.000885031 -1.03138e-05
0.000885031 0.00024264 -6.55293e-06
-1.03138e-05 -6.55293e-06 -0.000286918
-0.000896269 0.00216429 -0.000145787
0.00216429 0.000378444 -8.87332e-05
-0.000145787 -8.87332e-05 -0.00101139
0.00242026 0.00753102 0.000406994
0.00753102 0.00150788 0.000132472
0.000406994 0.000132472 -0.00314686
0.0127347 -0.000509649 1.61473e-05
-0.000509649 -0.00289105 -0.000230881
1.61473e-05 -0.000230881 -0.00104497
0.00962309 -0.0031127 -0.000134485
-0.0031127 0.00546079 -0.000235341
-0.000134485 -0.000235341 -0.00168639
0.00125437 0.000739994 -6.53793e-06
0.000739994 0.00108778 -1.17461e-05
-6.53793e-06 -1.17461e-05 0.000517974
-0.00417962 0.000814166 5.42428e-05
0.000814166 0.00118066 7.14026e-05
5.42428e-05 7.14026e-05 -0.000894624
0.00759592 -0.000982452 0.000277501
-0.000982452 0.000261681 -0.000115262
0.000277501 -0.000115262 -0.00164903
0.0101869 -0.000295083 0.000380526
-0.000295083 -0.000389068 -1.0497e-05
0.000380526 -1.0497e-05 -0.000790874
-0.00302827 0.000395471 6.41877e-05
0.000395471 0.000272838 -1.47296e-05
6.41877e-05 -1.47296e-05 -0.000838728
0.00851113 0.00429532 0.000424938
0.00429532 0.00572647 0.000196629
0.000424938 0.000196629 -0.00125296
0.0068384 -0.000624667 -3.58636e-05
-0.000624667 0.0032767 0.000397951
-3.58636e-05 0.000397951 -0.00135213
0.00324172 0.000572297 2.64207e-05
0.000572297 0.00209322 1.19899e-05
2.64207e-05 1.19899e-05 0.00173084
0.000357623 0.000318222 -8.65053e-06
0.000318222 0.000521461 -2.24772e-06
-8.65053e-06 -2.24772e-06 3.12091e-05
0.000450065 0.000327715 -8.33476e-07
0.000327715 0.000722732 -1.58794e-05
-8.33476e-07 -1.58794e-05 5.50699e-05
-1.74852e-05 9.1885e-05 2.91144e-06
9.1885e-05 -0.000150801 -3.37477e-06
2.91144e-06 -3.37477e-06 -0.000363256
0.000482106 0.000129893 -7.51266e-07
0.000129893 0.000293415 8.34099e-07
-7.51266e-07 8.34099e-07 4.10552e-05
-0.000172152 2.93645e-05 7.10049e-07
2.93645e-05 0.000344305 -7.7262e-06
7.10049e-07 -7.7262e-06 -0.000206867
0.000381264 2.31421e-05 -3.63169e-08
2.31421e-05 0.000217506 -6.15983e-07
-3.63169e-08 -6.15983e-07 -2.17569e-05
0.000805623 -7.87807e-05 3.02951e-07
-7.87807e-05 0.000850081 -2.86514e-06
3.02951e-07 -2.86514e-06 0.000364286
-0.000127733 2.98924e-05 4.17725e-06
2.98924e-05 0.000461708 1.2286e-06
4.17725e-06 1.2286e-06 -0.000117564
3.45457e-05 -7.95793e-05 -1.92515e-06
-7.95793e-05 0.00050403 1.68e-05
-1.92515e-06 1.68e-05 1.49722e-06
0.000896256 -7.50353e-05 1.44428e-06
-7.50353e-05 0.000800912 -1.44703e-05
1.44428e-06 -1.44703e-05 0.000437754
-0.000172972 -3.31755e-05 6.42582e-06
-3.31755e-05 -0.000173983 6.79994e-06
6.42582e-06 6.79994e-06 -0.000366388
0.00159613 -8.20452e-05 2.90268e-07
-8.20452e-05 0.000819717 6.77151e-06
2.90268e-07 6.77151e-06 0.00064838
-1.14421e-05 -6.55929e-05 -7.80022e-06
-6.55929e-05 -6.1397e-05 1.02763e-05
-7.80022e-06 1.02763e-05 -0.000230529
0.00058736 -8.91912e-05 8.31816e-07
-8.91912e-05 0.000446345 5.48119e-07
8.31816e-07 5.48119e-07 0.000229386
-3.33181e-05 -5.55159e-05 -2.61096e-06
-5.55159e-05 -0.000121689 -1.97564e-06
-2.61096e-06 -1.97564e-06 -0.00026641
0.00131284 -0.000337498 1.66051e-06
-0.000337498 0.000666771 1.33284e-06
1.66051e-06 1.33284e-06 0.00050331
0.000530753 -0.000244769 -2.29133e-05
-0.000244769 0.000127026 6.8118e-08
-2.29133e-05 6.8118e-08 5.42969e-05
-0.000544652 -0.000343016 1.66006e-05
-0.000343016 -0.000470124 2.07846e-05
1.66006e-05 2.07846e-05 -0.000834293
-9.70097e-05 -0.000140355 1.37442e-06
-0.000140355 -0.000288206 2.84273e-06
1.37442e-06 2.84273e-06 -0.000405005
0.00114736 -0.000389363 -5.82826e-06
-0.000389363 0.000373118 9.53019e-06
-5.82826e-06 9.53019e-06 0.000137112
0.00224373 -0.000778875 -6.3899e-06
-0.000778875 0.000984239 1.05248e-05
-6.3899e-06 1.05248e-05 0.00049063
0.0020984 -0.000829396 -2.32285e-06
-0.000829396 0.000806487 -2.56134e-06
-2.32285e-06 -2.56134e-06 0.000262505
0.0020623 -0.00052985 6.44436e-06
-0.00052985 0.000930807 9.24692e-07
6.44436e-06 9.24692e-07 0.000604475
0.000753472 -0.00053517 1.14093e-05
-0.00053517 8.55976e-05 -3.38033e-06
1.14093e-05 -3.38033e-06 -0.000299682
0.0011577 -0.000239249 3.46294e-06
-0.000239249 0.000554644 -5.31145e-06
3.46294e-06 -5.31145e-06 0.00022201
0.00105745 -0.000253946 -7.66756e-06
-0.000253946 0.000390495 1.83795e-06
-7.66756e-06 1.83795e-06 0.000151001
-0.000219867 -0.000221995 2.01026e-05
-0.000221995 -0.000453784 -1.33418e-05
2.01026e-05 -1.33418e-05 -0.000624931
0.00137965 -0.000165496 -5.22646e-06
-0.000165496 0.000703922 4.49588e-06
-5.22646e-06 4.49588e-06 0.000464786
-8.65937e-05 -0.00014697 5.30686e-07
-0.00014697 -0.000163214 9.77344e-07
5.30686e-07 9.77344e-07 -0.000469577
-0.000234629 -4.32083e-05 2.21187e-06
-4.32083e-05 -0.000358238 -1.85253e-06
2.21187e-06 -1.85253e-06 -0.000593468
0.0022047 -0.000433329 -4.51794e-06
-0.000433329 0.00124153 7.9463e-07
-4.51794e-06 7.9463e-07 0.00097901
0.000802715 -0.000185785 -3.78054e-07
-0.000185785 0.000287163 -6.26222e-08
-3.78054e-07 -6.26222e-08 9.44024e-05
0.000362388 -1.81526e-05 4.89685e-06
-1.81526e-05 -2.00739e-05 6.68622e-06
4.89685e-06 6.68622e-06 -0.000151711
0.000888075 -0.000226337 -1.46523e-06
-0.000226337 0.00037813 2.55264e-07
-1.46523e-06 2.55264e-07 0.000194441
0.000444132 -1.05668e-05 -2.34711e-06
-1.05668e-05 4.07461e-05 -4.49566e-07
-2.34711e-06 -4.49566e-07 -7.75065e-05
0.00149747 -1.62017e-05 -2.2479e-05
-1.62017e-05 0.000672437 6.97626e-06
-2.2479e-05 6.97626e-06 0.000640035
0.000668089 -9.31039e-05 3.2239e-07
-9.31039e-05 0.00018523 -5.27044e-06
3.2239e-07 -5.27044e-06 7.88975e-05
0.000850109 -2.04438e-05 -1.22384e-05
-2.04438e-05 0.000254198 6.1273e-07
-1.22384e-05 6.1273e-07 0.000222607
0.000825809 2.92689e-05 1.57747e-06
2.92689e-05 0.000222857 3.64152e-06
1.57747e-06 3.64152e-06 0.000219567
0.000416815 -4.56403e-05 3.61913e-06
-4.56403e-05 -2.10696e-05 -6.81179e-06
3.61913e-06 -6.81179e-06 -5.40992e-05
0.00176739 2.778e-05 1.88018e-05
2.778e-05 0.000837959 -1.35654e-06
1.88018e-05 -1.35654e-06 0.00084415
0.00257186 1.63012e-05 2.52155e-05
1.63012e-05 0.00136094 -5.74157e-06
2.52155e-05 -5.74157e-06 0.00137339
0.000151329 3.54382e-05 4.21702e-07
3.54382e-05 -0.000133902 2.9051e-06
4.21702e-07 2.9051e-06 -0.000290431
-8.67683e-06 2.67193e-05 -2.32077e-07
2.67193e-05 -0.00027512 -6.03818e-06
-2.32077e-07 -6.03818e-06 -0.000353943
0.000542976 8.20275e-05 -3.21265e-07
8.20275e-05 0.000117674 5.86144e-07
-3.21265e-07 5.86144e-07 -1.9395e-05
0.000428695 1.44464e-05 1.62013e-06
1.44464e-05 -2.95796e-05 -5.05434e-06
1.62013e-06 -5.05434e-06 -4.59375e-05
0.0002892 8.76408e-06 1.70524e-06
8.76408e-06 -8.49002e-05 4.46105e-08
1.70524e-06 4.46105e-08 -0.000150638
0.000173954 -0.000101776 4.58515e-07
-0.000101776 -0.000117707 2.63531e-06
4.58515e-07 2.63531e-06 -0.000239763
0.00208516 -4.5879e-07 -1.44445e-05
-4.5879e-07 0.00104358 -5.33774e-06
-1.44445e-05 -5.33774e-06 0.00106018
0.000411821 8.07179e-06 2.41539e-07
8.07179e-06 -4.03677e-05 -7.88321e-08
2.41539e-07 -7.88321e-08 -5.33197e-05
0.000386139 -1.01718e-05 -3.26927e-06
-1.01718e-05 -2.1092e-05 4.07264e-06
-3.26927e-06 4.07264e-06 -7.75955e-05
0.00207325 1.52035e-05 -5.06345e-06
1.52035e-05 0.0010374 -2.11704e-08
-5.06345e-06 -2.11704e-08 0.00105354
0.000410902 5.75817e-06 -1.81568e-06
5.75817e-06 -4.00011e-05 4.13984e-06
-1.81568e-06 4.13984e-06 -5.23495e-05
0.00206173 3.08182e-05 5.49717e-06
3.08182e-05 0.00103178 5.4776e-06
5.49717e-06 5.4776e-06 0.00104657
-0.000903329 -0.00162382 -0.000360279
-0.00162382 -0.000174466 0.000155074
-0.000360279 0.000155074 -0.00459236
0.00433668 0.00200716 -0.000253999
0.00200716 0.0110463 6.55432e-05
-0.000253999 6.55432e-05 0.00433982
0.00541072 0.00095848 -0.00154749
0.00095848 0.00525693 0.000338995
-0.00154749 0.000338995 0.00263928
0.000610438 0.000133035 8.64328e-06
0.000133035 0.000184012 9.31806e-06
8.64328e-06 9.31806e-06 2.85736e-06
0.00655827 -0.00147423 -0.000219342
-0.00147423 0.00426234 0.000339669
-0.000219342 0.000339669 0.00126685
0.00465782 -0.00168036 -0.000333028
-0.00168036 0.0023517 3.95678e-05
-0.000333028 3.95678e-05 -0.00292724
0.0198634 0.00791206 0.000255689
0.00791206 0.0121886 -0.000535016
0.000255689 -0.000535016 0.00387113
0.00775291 -0.00185087 0.000165622
-0.00185087 -0.000454274 -2.18549e-05
0.000165622 -2.18549e-05 0.000859739
0.0153162 -0.00398874 0.000391423
-0.00398874 -7.54743e-05 -0.000252254
0.000391423 -0.000252254 0.000467343
0.0183666 0.00640736 -0.00103922
0.00640736 0.00539391 0.000418497
-0.00103922 0.000418497 -0.00221643
0.0164931 0.00491533 0.000269774
0.00491533 0.00981112 0.000296705
0.000269774 0.000296705 0.00549286
0.00779792 -0.00358715 -9.62725e-05
-0.00358715 -0.000880584 -6.55562e-06
-9.62725e-05 -6.55562e-06 0.000694627
0.0126037 -0.00714391 2.28912e-07
-0.00714391 0.000775624 -4.84956e-05
2.28912e-07 -4.84956e-05 -0.00136682
0.0116757 0.00273531 0.000135484
0.00273531 0.00750033 -0.000468122
0.000135484 -0.000468122 0.000127453
0.0157941 0.00138284 -1.34569e-05
0.00138284 0.00190078 7.2562e-05
-1.34569e-05 7.2562e-05 6.79704e-05
0.00395495 -0.00392292 -4.25223e-05
-0.00392292 0.000573594 6.52354e-05
-4.25223e-05 6.52354e-05 0.00141686
0.0111533 -0.00702922 0.000303192
-0.00702922 0.00480821 -0.000182501
0.000303192 -0.000182501 0.00088926
0.00855697 -2.10448e-05 1.77289e-05
-2.10448e-05 0.00637474 -0.000518925
1.77289e-05 -0.000518925 0.0013599
0.0153355 -0.000388418 -0.000229278
-0.000388418 -0.000307934 0.000324529
-0.000229278 0.000324529 0.000635654
0.000216821 0.000166026 9.73085e-06
0.000166026 1.88124e-05 1.4655e-05
9.73085e-06 1.4655e-05 -0.000197672
0.000481749 -0.000101331 4.01501e-07
-0.000101331 0.0002103 -5.94498e-07
4.01501e-07 -5.94498e-07 -5.16427e-05
0.000290103 5.52402e-05 6.89854e-06
5.52402e-05 1.48816e-05 4.88083e-07
6.89854e-06 4.88083e-07 -0.000138112
0.000653391 0.000197425 3.95988e-06
0.000197425 0.000148695 2.03252e-05
3.95988e-06 2.03252e-05 -9.7357e-06
0.000917202 0.000259418 -3.48355e-07
0.000259418 0.000409481 -1.12857e-06
-3.48355e-07 -1.12857e-06 0.000184967
0.00101471 0.000142158 9.1906e-07
0.000142158 0.000491376 -2.13545e-06
9.1906e-07 -2.13545e-06 0.000299029
0.00113011 0.000217744 -2.00975e-06
0.000217744 0.000542223 -3.06093e-07
-2.00975e-06 -3.06093e-07 0.000331049
0.00111206 0.0002452 3.67944e-06
0.0002452 0.000557679 2.39872e-06
3.67944e-06 2.39872e-06 0.000336047
0.00132026 -0.0011608 0.000144945
-0.0011608 -0.000955263 -9.32154e-05
0.000144945 -9.32154e-05 -0.000524909
-0.000332731 -0.000900815 -2.70924e-05
-0.000900815 -0.00102482 -1.50881e-05
-2.70924e-05 -1.50881e-05 -0.00106171
0.000181582 -0.000127974 4.90592e-06
-0.000127974 4.41573e-05 -2.59527e-05
4.90592e-06 -2.59527e-05 -0.000249895
0.00203065 -0.000883954 3.69527e-05
-0.000883954 0.00118431 -2.27863e-05
3.69527e-05 -2.27863e-05 0.000782904
0.00302316 -0.000663852 -2.51545e-05
-0.000663852 0.00186479 1.57251e-05
-2.51545e-05 1.57251e-05 0.00145717
0.00178193 -0.000193786 1.40477e-05
-0.000193786 0.00114014 -2.42147e-05
1.40477e-05 -2.42147e-05 0.000775362
3.14207e-05 8.07737e-05 2.32211e-06
8.07737e-05 -3.29465e-05 1.04494e-05
2.32211e-06 1.04494e-05 -0.000263125
0.000674871 -0.00200701 -1.64381e-05
-0.00200701 -0.00053646 -5.18442e-06
-1.64381e-05 -5.18442e-06 -0.000889267
0.00149686 -0.000116894 -2.91564e-06
-0.000116894 0.00107518 -1.75267e-06
-2.91564e-06 -1.75267e-06 0.000677232
-0.000403931 -0.000276515 -1.25375e-05
-0.000276515 4.29246e-05 9.83697e-06
-1.25375e-05 9.83697e-06 -0.00047126
-0.000746755 -0.00061294 3.23893e-05
-0.00061294 -0.000608458 -4.24606e-06
3.23893e-05 -4.24606e-06 -0.000654288
0.0003515 9.11553e-05 7.43801e-06
9.11553e-05 0.000194669 3.17156e-06
7.43801e-06 3.17156e-06 -2.46688e-06
-5.21325e-05 -0.00201853 -0.000113241
-0.00201853 0.000243949 -2.19174e-05
-0.000113241 -2.19174e-05 -0.000518993
-0.000632085 -0.000583944 -2.64923e-05
-0.000583944 -5.88047e-05 1.83616e-05
-2.64923e-05 1.83616e-05 -0.000536097
0.000434236 0.000157197 1.74714e-06
0.000157197 0.000652325 -6.31378e-06
1.74714e-06 -6.31378e-06 0.000104213
0.0017592 0.000281878 -1.71607e-06
0.000281878 0.00141628 1.22289e-05
-1.71607e-06 1.22289e-05 0.000909495
-0.00061488 7.74727e-05 0.000261607
7.74727e-05 0.0036056 6.59771e-05
0.000261607 6.59771e-05 0.00127422
-3.95585e-05 5.75609e-05 0.000219034
5.75609e-05 0.00134977 -3.56253e-05
0.000219034 -3.56253e-05 -0.00409686
-0.0144494 -0.000571733 -0.000553663
-0.000571733 0.00681337 2.76504e-05
-0.000553663 2.76504e-05 0.000943493
0.00174261 0.000827656 2.18329e-05
0.000827656 0.00108212 4.22606e-07
2.18329e-05 4.22606e-07 0.00064201
-0.000531527 0.00111474 1.91099e-05
0.00111474 -5.26189e-05 1.36672e-05
1.91099e-05 1.36672e-05 -0.00073905
0.00598852 0.00187505 0.000594095
0.00187505 0.00486467 0.000148043
0.000594095 0.000148043 0.000668073
0.00659552 0.0055021 0.000263143
0.0055021 0.0033678 0.000227511
0.000263143 0.000227511 -0.000622467
0.00240485 0.00357376 -0.00016134
0.00357376 0.00165759 -0.000162965
-0.00016134 -0.000162965 -7.98349e-05
0.00538571 -0.00216524 -0.000173494
-0.00216524 0.0057354 -0.000543021
-0.000173494 -0.000543021 0.000372942
0.0036058 0.000729558 0.000140456
0.000729558 0.0012231 0.000155697
0.000140456 0.000155697 -0.00104794
0.00997386 -0.00031329 -4.74944e-05
-0.00031329 -0.00506849 -0.000275983
-4.74944e-05 -0.000275983 -0.00291905
0.000869934 0.000806246 4.19376e-06
0.000806246 0.000796044 -1.31613e-06
4.19376e-06 -1.31613e-06 0.000185157
-0.00311441 0.000450119 1.24498e-06
0.000450119 0.0014291 8.6641e-06
1.24498e-06 8.6641e-06 -0.000836519
0.00628202 -0.000463772 0.000202161
-0.000463772 0.000189165 1.24544e-05
0.000202161 1.24544e-05 -0.0014858
-0.00189017 0.000862806 -2.20339e-05
0.000862806 7.88381e-05 -1.3163e-05
-2.20339e-05 -1.3163e-05 -0.000984186
0.0161964 0.00169891 1.49979e-05
0.00169891 0.00182697 -7.80545e-05
1.49979e-05 -7.80545e-05 2.76689e-05
0.00436043 0.00287445 0.000345594
0.00287445 0.00547925 0.000213268
0.000345594 0.000213268 -0.00114437
0.0126473 0.000637005 -0.000204359
0.000637005 0.00479502 8.04429e-06
-0.000204359 8.04429e-06 -8.5549e-06
0.0011523 0.000845486 -7.3569e-06
0.000845486 0.00111862 -2.42982e-05
-7.3569e-06 -2.42982e-05 0.000324021
0.00304919 -3.2508e-05 1.879e-05
-3.2508e-05 0.00173981 2.29204e-05
1.879e-05 2.29204e-05 -2.91852e-06
0.00402503 -0.00252329 0.000248549
-0.00252329 0.00401066 -0.000285943
0.000248549 -0.000285943 0.00147254
0.0303772 0.00706051 0.000434765
0.00706051 0.0117046 -0.000369786
0.000434765 -0.000369786 0.00590723
0.00982905 -0.000411946 -0.000140232
-0.000411946 0.0071737 0.000605932
-0.000140232 0.000605932 0.00205856
-0.00174288 0.000833681 -0.000150721
0.000833681 0.000740907 -0.00012805
-0.000150721 -0.00012805 -0.000375018
0.00243008 0.00102719 0.000239581
0.00102719 0.00618869 2.14202e-05
0.000239581 2.14202e-05 -0.00348024
0.00151424 0.000519731 1.37466e-05
0.000519731 0.00115949 1.17431e-05
1.37466e-05 1.17431e-05 0.000638076
0.000793763 0.00036123 8.86185e-06
0.00036123 0.000963416 8.50587e-06
8.86185e-06 8.50587e-06 0.000335014
0.000453736 -0.000106189 -6.131e-06
-0.000106189 0.00109802 1.87516e-05
-6.131e-06 1.87516e-05 0.000497266
-0.001033 -1.13969e-05 4.32136e-06
-1.13969e-05 -0.000683625 -3.72957e-06
4.32136e-06 -3.72957e-06 -0.000914753
-0.000579722 -2.96776e-06 2.09185e-06
-2.96776e-06 7.25605e-05 2.33821e-06
2.09185e-06 2.33821e-06 -0.000471559
0.00011848 3.38288e-05 -7.78703e-06
3.38288e-05 0.000646856 -1.06309e-05
-7.78703e-06 -1.06309e-05 3.95513e-05
-0.0002617 -3.86447e-06 -6.5827e-07
-3.86447e-06 5.20231e-05 3.3675e-07
-6.5827e-07 3.3675e-07 -0.000279526
-0.000147015 -7.38493e-05 3.06037e-06
-7.38493e-05 0.000388389 2.66777e-06
3.06037e-06 2.66777e-06 -0.000117914
0.00232605 -0.000547726 1.28709e-05
-0.000547726 0.00152188 -1.35235e-05
1.28709e-05 -1.35235e-05 0.00115029
-0.000109618 -4.73771e-05 -1.3355e-06
-4.73771e-05 1.10239e-05 9.76305e-06
-1.3355e-06 9.76305e-06 -0.000200852
-0.00108236 6.88803e-06 1.89284e-06
6.88803e-06 -0.000747311 5.28492e-06
1.89284e-06 5.28492e-06 -0.000892126
0.00101341 -0.000356924 -2.3646e-06
-0.000356924 0.000503297 6.19059e-06
-2.3646e-06 6.19059e-06 0.000288683
-0.00430541 7.82025e-05 2.89e-05
7.82025e-05 -0.00244967 2.26846e-05
2.89e-05 2.26846e-05 -0.00282921
-0.00112981 -9.46693e-05 2.77921e-05
-9.46693e-05 -0.000809057 -3.27743e-06
2.77921e-05 -3.27743e-06 -0.000829361
-2.43747e-05 -0.000399627 -9.11206e-06
-0.000399627 -0.000218123 -4.62952e-06
-9.11206e-06 -4.62952e-06 -0.000540218
0.00165076 -0.000793972 7.02483e-07
-0.000793972 0.000601123 -2.62475e-06
7.02483e-07 -2.62475e-06 -4.0456e-05
0.00192951 -0.000942693 -1.02107e-05
-0.000942693 0.000639805 1.1949e-06
-1.02107e-05 1.1949e-06 2.7553e-05
0.00129742 -0.000405607 2.76293e-06
-0.000405607 0.000445222 -4.17538e-06
2.76293e-06 -4.17538e-06 0.00020285
0.00151417 -0.000685481 1.11397e-06
-0.000685481 0.000528971 1.14182e-06
1.11397e-06 1.14182e-06 5.23485e-05
0.00174616 -0.000838859 5.61728e-06
-0.000838859 0.000515709 -6.93946e-06
5.61728e-06 -6.93946e-06 -3.09396e-05
0.00212462 -0.000674748 3.57436e-06
-0.000674748 0.000918754 2.74072e-06
3.57436e-06 2.74072e-06 0.000461101
0.00107627 -0.000688868 2.21893e-06
-0.000688868 0.000179855 -5.52574e-06
2.21893e-06 -5.52574e-06 -0.000321907
0.00130504 -0.000271219 1.96268e-06
-0.000271219 0.000479077 -4.75491e-06
1.96268e-06 -4.75491e-06 0.000195626
0.000954925 -0.000433531 -2.23993e-06
-0.000433531 0.000239673 1.25514e-06
-2.23993e-06 1.25514e-06 -8.48654e-05
-0.000763035 -0.00031238 -1.41598e-06
-0.00031238 -0.000843265 -7.88023e-06
-1.41598e-06 -7.88023e-06 -0.0011633
-0.000292945 -9.71383e-05 1.23659e-06
-9.71383e-05 -0.0003449 -5.05141e-06
1.23659e-06 -5.05141e-06 -0.000652696
0.000618973 -0.000229056 -2.10684e-07
-0.000229056 0.00024994 -2.90077e-07
-2.10684e-07 -2.90077e-07 -8.8233e-05
-0.000611018 -0.000161181 5.45043e-06
-0.000161181 -0.000593917 1.57457e-06
5.45043e-06 1.57457e-06 -0.000848349
0.00118613 -0.00021439 -2.23111e-06
-0.00021439 0.000608722 3.13843e-06
-2.23111e-06 3.13843e-06 0.000313418
0.000695425 -0.000174339 5.51375e-07
-0.000174339 0.000235084 4.67655e-07
5.51375e-07 4.67655e-07 -1.02475e-05
0.000223314 -4.54948e-05 2.34362e-06
-4.54948e-05 -0.000130155 7.74249e-06
2.34362e-06 7.74249e-06 -0.000273308
0.00138803 -0.000283976 -2.95588e-06
-0.000283976 0.000683504 1.73731e-06
-2.95588e-06 1.73731e-06 0.000467175
0.000552569 -4.87388e-05 -1.38992e-06
-4.87388e-05 8.20805e-05 -1.28923e-07
-1.38992e-06 -1.28923e-07 -4.15638e-05
0.000314947 4.4121e-05 3.41242e-06
4.4121e-05 -8.2788e-05 9.97188e-06
3.41242e-06 9.97188e-06 -0.000133448
0.000987902 -0.000112947 -5.53997e-07
-0.000112947 0.000381154 -5.10921e-06
-5.53997e-07 -5.10921e-06 0.000263749
0.000426952 -2.46211e-05 -1.75051e-06
-2.46211e-05 -2.24232e-05 3.92809e-08
-1.75051e-06 3.92809e-08 -6.27807e-05
0.00283663 9.67551e-05 1.66341e-07
9.67551e-05 0.00153543 3.27391e-06
1.66341e-07 3.27391e-06 0.00153594
0.000487943 -4.11803e-05 3.30768e-06
-4.11803e-05 1.93436e-05 -7.72537e-06
3.30768e-06 -7.72537e-06 -1.72549e-05
0.00180896 4.13979e-05 2.24265e-05
4.13979e-05 0.000864488 -1.10747e-06
2.24265e-05 -1.10747e-06 0.000868229
0.0026765 3.20224e-05 3.24345e-05
3.20224e-05 0.00142676 -6.1341e-06
3.24345e-05 -6.1341e-06 0.00143834
0.000246135 4.35608e-05 3.19012e-06
4.35608e-05 -8.93921e-05 3.37401e-06
3.19012e-06 3.37401e-06 -0.000236235
0.00011401 1.61562e-05 1.71543e-06
1.61562e-05 -0.000194823 -4.12591e-06
1.71543e-06 -4.12591e-06 -0.000290708
0.000430324 5.5854e-05 -3.4269e-07
5.5854e-05 4.79311e-05 -8.86799e-07
-3.4269e-07 -8.86799e-07 -0.000105546
0.000462709 1.38389e-05 2.04789e-06
1.38389e-05 -8.07952e-06 -5.72702e-06
2.04789e-06 -5.72702e-06 -2.91581e-05
9.26523e-05 2.7067e-05 -9.10525e-07
2.7067e-05 -0.000209011 -2.18253e-06
-9.10525e-07 -2.18253e-06 -0.000291544
0.000615369 8.37763e-05 1.44722e-06
8.37763e-05 0.000184324 3.52747e-06
1.44722e-06 3.52747e-06 3.41002e-05
0.0021714 -1.47794e-05 -2.00337e-05
-1.47794e-05 0.00109873 -5.38244e-06
-2.00337e-05 -5.38244e-06 0.00111464
0.000426301 1.00757e-05 -1.11838e-06
1.00757e-05 -3.24523e-05 -1.63724e-07
-1.11838e-06 -1.63724e-07 -4.80537e-05
-9.00653e-06 1.83947e-05 2.14695e-06
1.83947e-05 -0.000274276 4.10395e-06
2.14695e-06 4.10395e-06 -0.000344137
0.00207996 2.6624e-07 -4.08612e-06
2.6624e-07 0.00104023 7.3348e-08
-4.08612e-06 7.3348e-08 0.00105687
0.000400902 7.75371e-06 -2.10678e-06
7.75371e-06 -4.77281e-05 4.34755e-06
-2.10678e-06 4.34755e-06 -6.02929e-05
0.00208182 1.62721e-05 1.06998e-05
1.62721e-05 0.00104329 5.43333e-06
1.06998e-05 5.43333e-06 0.00105916
0.000881701 -0.000125376 0.000253094
-0.000125376 0.00431757 0.000144538
0.000253094 0.000144538 0.00246487
-0.000625296 -0.000618192 -7.6245e-05
-0.000618192 0.000529748 2.88108e-06
-7.6245e-05 2.88108e-06 -0.00463311
0.00115828 0.00202745 -0.000293774
0.00202745 0.010421 -0.000102631
-0.000293774 -0.000102631 0.00329178
0.00080861 0.000159447 1.15574e-06
0.000159447 0.000288174 7.03973e-08
1.15574e-06 7.03973e-08 0.000117829
-7.20825e-05 9.85185e-05 7.27039e-06
9.85185e-05 -0.000257121 5.20672e-06
7.27039e-06 5.20672e-06 -0.000438506
0.00156237 0.000267394 1.39385e-05
0.000267394 0.000763649 1.63554e-05
1.39385e-05 1.63554e-05 0.000587679
0.0086597 -0.00101915 -0.000284167
-0.00101915 0.000207429 0.000164392
-0.000284167 0.000164392 -0.00202649
0.00702024 -0.00229307 0.000161423
-0.00229307 0.00384595 3.56885e-05
0.000161423 3.56885e-05 0.00175232
0.00471427 -0.00339744 0.000342594
-0.00339744 0.00203983 -0.000349785
0.000342594 -0.000349785 -0.00306791
0.00926594 -0.00422067 -2.09762e-05
-0.00422067 -0.000918866 -4.70714e-05
-2.09762e-05 -4.70714e-05 0.000867315
0.00439587 -0.00665689 -0.000860552
-0.00665689 -0.00212298 3.59076e-05
-0.000860552 3.59076e-05 -0.00315477
0.0300281 0.00617529 0.00059645
0.00617529 0.0148841 0.000296308
0.00059645 0.000296308 0.00594732
0.00852431 -0.00099894 0.000444058
-0.00099894 -0.00155823 -0.000323598
0.000444058 -0.000323598 -0.00316285
0.00244803 -0.00394781 -4.77881e-06
-0.00394781 -0.00101955 1.55963e-05
-4.77881e-06 1.55963e-05 0.000507556
0.00574068 -0.00699671 -0.000268445
-0.00699671 0.00254522 5.6304e-06
-0.000268445 5.6304e-06 -0.0026261
0.00599922 0.00450313 -0.000123877
0.00450313 0.00706481 -0.000397841
-0.000123877 -0.000397841 0.000396351
0.0128505 -0.000324025 -0.000142764
-0.000324025 -0.00259643 0.000177686
-0.000142764 0.000177686 -0.00104219
-0.00121195 -0.00278828 -0.00017217
-0.00278828 0.000413847 9.37136e-05
-0.00017217 9.37136e-05 -0.000197153
0.0082855 -0.00376704 -0.000467518
-0.00376704 0.00589339 0.000265866
-0.000467518 0.000265866 -0.000252739
0.0051639 -0.000189958 5.1373e-05
-0.000189958 0.00333521 -0.00036403
5.1373e-05 -0.00036403 -0.001504
0.00984811 0.000421425 8.27043e-05
0.000421425 -0.00143062 0.000164195
8.27043e-05 0.000164195 -0.00188123
-0.000167195 9.07569e-05 9.79574e-06
9.07569e-05 -0.00025981 2.21393e-05
9.79574e-06 2.21393e-05 -0.000401675
0.000670557 2.15485e-05 7.66758e-07
2.15485e-05 0.000297628 -1.37163e-06
7.66758e-07 -1.37163e-06 7.02283e-05
0.000588893 -0.000219385 1.08584e-05
-0.000219385 0.000226663 -9.37436e-06
1.08584e-05 -9.37436e-06 -1.04329e-05
0.000584614 0.000181912 -1.90551e-06
0.000181912 0.000117814 2.34671e-06
-1.90551e-06 2.34671e-06 -4.67828e-05
0.000809992 0.00020615 4.06153e-06
0.00020615 0.000348014 -8.31949e-06
4.06153e-06 -8.31949e-06 0.000131008
0.00126455 0.000250587 -4.78074e-06
0.000250587 0.000629919 -6.94782e-06
-4.78074e-06 -6.94782e-06 0.000414708
0.00123198 -0.00183651 7.75082e-05
-0.00183651 -1.00867e-05 -2.46905e-05
7.75082e-05 -2.46905e-05 -0.000323494
-0.000724593 -0.000502278 6.28687e-06
-0.000502278 -0.000657854 -2.63789e-05
6.28687e-06 -2.63789e-05 -0.000635306
0.000254223 0.000194818 -4.43727e-06
0.000194818 0.00011821 -2.28033e-05
-4.43727e-06 -2.28033e-05 -0.000148844
0.00268361 -0.000588868 7.87367e-05
-0.000588868 0.00172522 -3.97082e-05
7.87367e-05 -3.97082e-05 0.0012723
0.00274065 -0.00016358 9.70438e-06
-0.00016358 0.00177952 -1.74218e-05
9.70438e-06 -1.74218e-05 0.00141712
-0.000428507 9.06678e-05 8.95943e-06
9.06678e-05 -0.000248779 1.15537e-06
8.95943e-06 1.15537e-06 -0.000464314
-8.07398e-05 4.35436e-05 3.14948e-06
4.35436e-05 0.000264018 6.09872e-06
3.14948e-06 6.09872e-06 -0.000191124
0.0021798 -0.00207432 -6.69124e-05
-0.00207432 0.00129496 1.99452e-06
-6.69124e-05 1.99452e-06 0.000444736
0.00024928 -5.27304e-05 -6.69641e-06
-5.27304e-05 0.000651268 -3.7432e-07
-6.69641e-06 -3.7432e-07 2.2289e-05
0.000131416 -0.00044407 -1.2545e-05
-0.00044407 0.000573454 1.80095e-07
-1.2545e-05 1.80095e-07 -5.70771e-05
0.000940858 0.000235134 1.03894e-05
0.000235134 0.00082011 -1.71536e-05
1.03894e-05 -1.71536e-05 0.000464198
-0.00343391 -0.000286438 -0.000107494
-0.000286438 -0.000446195 -7.25087e-08
-0.000107494 -7.25087e-08 -0.00152075
2.94009e-05 -0.000213393 -8.84002e-06
-0.000213393 0.00096675 -1.25681e-05
-8.84002e-06 -1.25681e-05 0.000219614
-0.00287441 -8.62494e-05 -2.49882e-05
-8.62494e-05 -0.000858117 -4.53488e-07
-2.49882e-05 -4.53488e-07 -0.0015548
0.000777015 0.000528914 -6.59877e-06
0.000528914 -0.000247929 -8.85577e-07
-6.59877e-06 -8.85577e-07 -0.00349708
-0.00193374 0.000692722 0.000154751
0.000692722 0.00332962 1.13586e-06
0.000154751 1.13586e-06 0.000963055
-0.00147038 -2.62662e-05 0.000459843
-2.62662e-05 0.000501263 4.85627e-05
0.000459843 4.85627e-05 -0.00486302
0.000115481 0.000813456 1.26475e-05
0.000813456 0.000307553 2.16912e-05
1.26475e-05 2.16912e-05 -0.000342356
0.000387449 0.00132413 -1.86903e-05
0.00132413 0.000815142 -3.20525e-05
-1.86903e-05 -3.20525e-05 -0.000202755
-0.00259815 0.000433885 -0.000165952
0.000433885 0.00173147 -5.46454e-05
-0.000165952 -5.46454e-05 -0.000666551
-0.00453255 0.000961393 0.000188286
0.000961393 0.00376553 0.000238006
0.000188286 0.000238006 -0.00252595
0.00299129 0.000684823 -0.000179051
0.000684823 -0.00145809 -0.000512099
-0.000179051 -0.000512099 -0.00740844
0.00568498 3.45704e-05 0.000117479
3.45704e-05 -0.000102406 4.19341e-05
0.000117479 4.19341e-05 -0.00114376
0.00771096 -0.000724764 -0.000427554
-0.000724764 -0.00169626 0.000302285
-0.000427554 0.000302285 -0.00329205
0.000396164 0.000635339 -5.49463e-06
0.000635339 0.0007819 -1.44786e-07
-5.49463e-06 -1.44786e-07 8.24824e-05
0.00175374 0.000299374 5.75552e-05
0.000299374 0.00167009 2.83333e-05
5.75552e-05 2.83333e-05 -2.16247e-05
0.00593323 -0.00166401 -0.000150337
-0.00166401 0.00366883 -2.04861e-05
-0.000150337 -2.04861e-05 0.0016768
-0.000122719 0.000967296 -0.000150113
0.000967296 0.00233017 -1.96441e-05
-0.000150113 -1.96441e-05 0.000242789
0.0212164 0.00671905 -0.000230361
0.00671905 0.00865362 -0.000507448
-0.000230361 -0.000507448 0.00305439
0.0079589 0.00396404 0.000102144
0.00396404 0.0074829 0.000429829
0.000102144 0.000429829 0.000148934
0.0062851 0.00166689 8.63672e-05
0.00166689 0.00719818 -5.15596e-06
8.63672e-05 -5.15596e-06 -0.00049917
-1.38557e-05 6.29593e-05 2.27504e-05
6.29593e-05 0.00153068 -1.59322e-05
2.27504e-05 -1.59322e-05 3.84215e-05
0.000503347 -5.29852e-05 -0.000242199
-5.29852e-05 0.00501892 -2.91879e-06
-0.000242199 -2.91879e-06 0.00288746
0.00082594 -0.000929895 0.000872903
-0.000929895 0.000540585 -0.00028203
0.000872903 -0.00028203 -0.00521793
0.0307781 0.0121904 -0.000117289
0.0121904 0.0213266 -8.27785e-05
-0.000117289 -8.27785e-05 0.0127
0.0146498 0.0051385 0.000318275
0.0051385 0.00636948 0.0011199
0.000318275 0.0011199 -0.00171527
0.0123746 -0.00541065 0.000528167
-0.00541065 0.00734541 -0.000343536
0.000528167 -0.000343536 -0.000212627
0.00131947 -0.000797978 -7.92808e-05
-0.000797978 0.00343629 5.16437e-05
-7.92808e-05 5.16437e-05 0.00203009
0.000517867 0.000273663 -6.83701e-06
0.000273663 0.000839752 2.28022e-06
-6.83701e-06 2.28022e-06 0.000268631
-0.000160629 -0.00010859 3.51159e-06
-0.00010859 0.000595197 -6.24388e-06
3.51159e-06 -6.24388e-06 -7.72064e-05
0.000696103 -0.000622151 5.64088e-05
-0.000622151 0.000811562 -1.79132e-05
5.64088e-05 -1.79132e-05 6.41895e-05
0.000255327 -8.48809e-05 -3.42521e-06
-8.48809e-05 0.000308076 1.36738e-05
-3.42521e-06 1.36738e-05 3.57943e-05
2.46153e-05 -0.00010795 -2.40174e-06
-0.00010795 0.000421513 -2.08823e-05
-2.40174e-06 -2.08823e-05 -4.24995e-05
0.000853086 -0.000367398 -4.99096e-06
-0.000367398 0.000798166 4.75289e-07
-4.99096e-06 4.75289e-07 0.000419062
0.00122049 -0.000842464 3.07177e-05
-0.000842464 0.00063822 -1.76028e-05
3.07177e-05 -1.76028e-05 0.000154524
0.000663857 -0.000395686 4.51786e-06
-0.000395686 0.000328577 1.62705e-06
4.51786e-06 1.62705e-06 3.07156e-05
0.00117697 -0.000694812 1.97068e-05
-0.000694812 0.000555629 -5.31851e-06
1.97068e-05 -5.31851e-06 6.1241e-05
0.00143334 -0.00084058 1.63869e-05
-0.00084058 0.000643792 -3.4129e-06
1.63869e-05 -3.4129e-06 -0.000174844
0.000634075 -0.000437951 -1.03048e-05
-0.000437951 0.00013878 -3.79782e-06
-1.03048e-05 -3.79782e-06 -0.000130672
0.00245054 -0.000902202 -3.13538e-06
-0.000902202 0.00103519 -5.50331e-07
-3.13538e-06 -5.50331e-07 0.00039261
0.00162646 -0.00101185 -1.53995e-05
-0.00101185 0.00040206 -1.26558e-06
-1.53995e-05 -1.26558e-06 -0.000339656
0.0025575 -0.00122233 -1.31174e-05
-0.00122233 0.000733881 -3.47636e-07
-1.31174e-05 -3.47636e-07 6.64354e-05
0.00213952 -0.0010674 -4.0695e-06
-0.0010674 0.000682398 -1.30232e-06
-4.0695e-06 -1.30232e-06 5.03485e-05
0.00181836 -0.000924841 -5.9515e-06
-0.000924841 0.000569472 3.81159e-07
-5.9515e-06 3.81159e-07 -3.94473e-05
0.00132467 -0.000668679 -1.08252e-06
-0.000668679 0.000388651 -6.00226e-06
-1.08252e-06 -6.00226e-06 -8.86141e-05
0.00179411 -0.0008138 7.83582e-06
-0.0008138 0.000606487 -7.14726e-06
7.83582e-06 -7.14726e-06 6.93764e-05
0.00177155 -0.000855519 9.17171e-06
-0.000855519 0.000532875 -1.4549e-06
9.17171e-06 -1.4549e-06 -1.73732e-05
0.00152356 -0.000390647 1.57043e-06
-0.000390647 0.000537036 1.44327e-07
1.57043e-06 1.44327e-07 0.000208314
0.00139598 -0.000600722 6.12394e-06
-0.000600722 0.000445064 -4.11968e-06
6.12394e-06 -4.11968e-06 4.12044e-06
-0.000341586 -0.000499417 -1.57855e-05
-0.000499417 -0.000700739 -1.59533e-06
-1.57855e-05 -1.59533e-06 -0.00114866
0.000340982 -0.000128443 -5.37027e-07
-0.000128443 -8.78725e-06 -6.28171e-06
-5.37027e-07 -6.28171e-06 -0.000305716
0.000760617 -0.000299614 1.09553e-07
-0.000299614 0.000163979 -1.16671e-06
1.09553e-07 -1.16671e-06 -0.000134026
-0.000123799 -0.0003398 -9.52161e-06
-0.0003398 -0.000439966 -4.22473e-07
-9.52161e-06 -4.22473e-07 -0.000761602
0.000134823 -9.56759e-05 -5.03825e-07
-9.56759e-05 -0.000156815 7.10211e-06
-5.03825e-07 7.10211e-06 -0.000355975
0.000869056 -0.000179954 2.13138e-07
-0.000179954 0.000378135 2.71622e-07
2.13138e-07 2.71622e-07 7.45562e-05
-0.000471678 -0.000273977 -2.81143e-06
-0.000273977 -0.000420953 4.90082e-06
-2.81143e-06 4.90082e-06 -0.000751373
0.00168797 -0.000258751 -1.43114e-06
-0.000258751 0.000871748 2.36053e-06
-1.43114e-06 2.36053e-06 0.000617132
0.000744967 -0.000114153 -1.97273e-07
-0.000114153 0.000203429 9.70583e-09
-1.97273e-07 9.70583e-09 5.24748e-05
0.000329579 1.12465e-05 3.33948e-06
1.12465e-05 -6.86664e-05 1.33513e-05
3.33948e-06 1.33513e-05 -0.000130435
0.000923552 -0.000105317 -3.1235e-07
-0.000105317 0.000319612 -6.67693e-06
-3.1235e-07 -6.67693e-06 0.000190058
0.000434481 -7.236e-06 -4.93262e-06
-7.236e-06 -1.22494e-05 -4.42934e-07
-4.93262e-06 -4.42934e-07 -6.11307e-05
0.00316443 0.000101116 -4.8271e-05
0.000101116 0.00175505 6.0039e-06
-4.8271e-05 6.0039e-06 0.00175589
0.000488847 -3.53683e-05 2.92267e-06
-3.53683e-05 1.448e-05 -8.85858e-06
2.92267e-06 -8.85858e-06 -2.57226e-05
0.00193173 6.22344e-05 2.75884e-05
6.22344e-05 0.000947309 -6.0619e-07
2.75884e-05 -6.0619e-07 0.000946484
0.00282934 5.20674e-05 3.99596e-05
5.20674e-05 0.00152627 -6.02905e-06
3.99596e-05 -6.02905e-06 0.00153568
0.000869744 0.00013833 4.8638e-06
0.00013833 0.000319428 -3.95064e-06
4.8638e-06 -3.95064e-06 0.000144947
0.000508741 7.00309e-05 3.70551e-06
7.00309e-05 6.1834e-05 -3.42792e-06
3.70551e-06 -3.42792e-06 -4.51267e-05
0.000413513 6.74552e-05 -2.8669e-07
6.74552e-05 3.67736e-05 -8.02451e-07
-2.8669e-07 -8.02451e-07 -0.000125892
0.000444463 2.11902e-05 8.3378e-07
2.11902e-05 -1.6743e-05 -7.20712e-06
8.3378e-07 -7.20712e-06 -4.52486e-05
0.000247796 4.97461e-05 -2.49759e-06
4.97461e-05 -0.00010616 -2.39932e-06
-2.49759e-06 -2.39932e-06 -0.000202183
0.000606936 0.000105596 -1.23343e-06
0.000105596 0.000167588 -3.29868e-06
-1.23343e-06 -3.29868e-06 1.45062e-05
0.00228581 -3.1434e-05 -2.32324e-05
-3.1434e-05 0.00117345 -5.64432e-06
-2.32324e-05 -5.64432e-06 0.00118751
0.000411888 1.54665e-06 9.98613e-07
1.54665e-06 -4.13336e-05 -2.53805e-07
9.98613e-07 -2.53805e-07 -6.17061e-05
8.64339e-05 2.3549e-05 -1.42304e-06
2.3549e-05 -0.000212352 1.56882e-06
-1.42304e-06 1.56882e-06 -0.000297766
0.00215967 -1.44091e-05 -6.06835e-06
-1.44091e-05 0.00109114 1.27643e-07
-6.06835e-06 1.27643e-07 0.00110721
0.000415355 2.97488e-06 -3.87438e-06
2.97488e-06 -4.04553e-05 4.75628e-06
-3.87438e-06 4.75628e-06 -5.53827e-05
0.00212552 1.7149e-06 1.55486e-05
1.7149e-06 0.00107007 5.36072e-06
1.55486e-05 5.36072e-06 0.00108648
0.00248039 -0.000370812 -0.000143834
-0.000370812 0.00145625 2.08428e-05
-0.000143834 2.08428e-05 -0.000335938
-0.00163818 -8.29571e-05 0.000137193
-8.29571e-05 0.00381269 -5.40454e-06
0.000137193 -5.40454e-06 0.00135798
-0.000737733 -0.000391747 0.000166347
-0.000391747 0.00133718 -0.000261582
0.000166347 -0.000261582 -0.00464616
-0.000227506 1.15074e-06 2.89992e-06
1.15074e-06 -0.000274086 -3.24492e-06
2.89992e-06 -3.24492e-06 -0.000551358
0.00348172 0.000324305 8.3692e-06
0.000324305 0.00198144 1.00688e-05
8.3692e-06 1.00688e-05 0.00175264
0.000313706 0.000153901 -3.7086e-06
0.000153901 -2.35838e-05 -9.26533e-06
-3.7086e-06 -9.26533e-06 -0.000192972
-3.80348e-05 6.92125e-05 9.43268e-07
6.92125e-05 -0.000248968 -2.42435e-06
9.43268e-07 -2.42435e-06 -0.00043137
7.41195e-05 9.45372e-05 -5.62807e-08
9.45372e-05 -0.000218187 -2.06086e-06
-5.62807e-08 -2.06086e-06 -0.000344788
0.000192234 9.65815e-05 5.28377e-06
9.65815e-05 -9.87942e-05 8.03294e-06
5.28377e-06 8.03294e-06 -0.000269881
-0.000616727 2.85905e-05 1.60035e-05
2.85905e-05 -0.000610466 5.78393e-06
1.60035e-05 5.78393e-06 -0.000698765
0.00394477 0.00184016 0.000289192
0.00184016 6.11442e-05 0.000256246
0.000289192 0.000256246 -0.0020889
0.00711716 -0.000482929 -0.000107063
-0.000482929 0.00032522 4.61139e-05
-0.000107063 4.61139e-05 -0.00195441
0.00519903 -0.00101296 0.000435096
-0.00101296 0.00430645 -0.000134561
0.000435096 -0.000134561 0.00170548
0.0103732 -3.45923e-05 -2.00139e-05
-3.45923e-05 -0.0049572 0.000200585
-2.00139e-05 0.000200585 -0.0028689
0.00717337 -0.00517059 -0.000170851
-0.00517059 0.000982685 3.39004e-05
-0.000170851 3.39004e-05 0.00175598
0.000769892 -0.00601271 -0.000455434
-0.00601271 0.00205316 0.000164855
-0.000455434 0.000164855 -0.00457865
0.0229144 0.00485869 0.000256372
0.00485869 0.00915562 -0.000255318
0.000256372 -0.000255318 0.00268181
0.00240507 -0.00401156 -7.69562e-05
-0.00401156 0.00045118 4.46725e-05
-7.69562e-05 4.46725e-05 0.000856793
-0.00048188 -0.0015266 -9.91168e-05
-0.0015266 0.00548508 6.20775e-05
-9.91168e-05 6.20775e-05 -0.0029765
0.0136237 0.000281021 0.000322451
0.000281021 0.00518236 -4.43523e-05
0.000322451 -4.43523e-05 0.000248511
0.0187685 -0.00197791 -8.3218e-05
-0.00197791 0.00278337 -4.56724e-06
-8.3218e-05 -4.56724e-06 0.00299205
-0.0054112 -0.00055799 -0.000256182
-0.00055799 -0.000920989 0.00023255
-0.000256182 0.00023255 -0.00156447
0.00174568 0.00158462 -0.000268095
0.00158462 0.00595101 -0.000181391
-0.000268095 -0.000181391 -0.00254989
0.00614628 -0.00653013 -2.69731e-05
-0.00653013 0.00205284 -0.000265486
-2.69731e-05 -0.000265486 -0.00522307
0.0187558 -0.00299722 0.00035261
-0.00299722 0.00798354 -0.000761808
0.00035261 -0.000761808 0.00403406
-0.000122605 1.55108e-05 2.76872e-05
1.55108e-05 0.000120136 -3.78659e-06
2.76872e-05 -3.78659e-06 -0.000272665
0.000627375 0.000196569 -7.38456e-07
0.000196569 0.00027356 -3.56982e-06
-7.38456e-07 -3.56982e-06 0.000110886
0.000637937 -2.20146e-05 1.24896e-06
-2.20146e-05 0.00029763 -5.71879e-06
1.24896e-06 -5.71879e-06 5.14401e-05
0.00090332 0.000189913 -2.1005e-06
0.000189913 0.000350096 -1.39425e-05
-2.1005e-06 -1.39425e-05 0.00016775
0.00104252 -0.00169685 0.000113108
-0.00169685 0.000688832 2.48626e-05
0.000113108 2.48626e-05 -0.000135294
0.000753795 -0.000443206 1.74008e-06
-0.000443206 0.00105076 -1.81183e-05
1.74008e-06 -1.81183e-05 0.000292894
0.000357888 9.46421e-05 -2.94034e-05
9.46421e-05 0.000233555 -1.63754e-05
-2.94034e-05 -1.63754e-05 3.01371e-05
0.00123613 -0.000109845 4.10959e-06
-0.000109845 0.000941129 -3.29654e-05
4.10959e-06 -3.29654e-05 0.000590219
2.25623e-05 -5.02553e-05 -1.10472e-05
-5.02553e-05 0.000539464 6.01093e-06
-1.10472e-05 6.01093e-06 -5.79611e-06
-7.25482e-06 0.000109103 1.72469e-06
0.000109103 0.00017049 4.57092e-06
1.72469e-06 4.57092e-06 -0.000146352
0.000759506 -8.91993e-05 1.23739e-06
-8.91993e-05 0.00105812 1.51341e-06
1.23739e-06 1.51341e-06 0.000477332
0.000307559 -0.00103147 1.88343e-05
-0.00103147 0.00135336 -1.07713e-05
1.88343e-05 -1.07713e-05 -0.000237124
0.000783001 -0.000157178 5.25465e-08
-0.000157178 0.00146769 -1.52537e-05
5.25465e-08 -1.52537e-05 0.000772636
0.000625812 0.000142124 1.87235e-06
0.000142124 0.000636772 -9.21641e-06
1.87235e-06 -9.21641e-06 0.000300491
-0.00082162 0.000289779 -0.000209936
0.000289779 0.00262919 -1.48897e-05
-0.000209936 -1.48897e-05 0.0003135
0.000756706 0.000434937 4.22932e-06
0.000434937 0.00129128 2.52392e-06
4.22932e-06 2.52392e-06 0.000633705
-0.00323658 -7.18407e-05 -9.41602e-05
-7.18407e-05 0.00343602 -8.7112e-05
-9.41602e-05 -8.7112e-05 0.00122525
0.00198109 0.000191128 3.26116e-05
0.000191128 0.000812389 1.72248e-05
3.26116e-05 1.72248e-05 -0.00119012
-0.0041846 0.00110525 -8.75392e-05
0.00110525 0.00270169 -9.69701e-05
-8.75392e-05 -9.69701e-05 -3.06562e-05
0.000181629 0.00047353 -1.86597e-05
0.00047353 0.000801554 2.29832e-06
-1.86597e-05 2.29832e-06 0.000201795
-0.00119107 0.00116005 0.000242831
0.00116005 0.00100192 0.000118617
0.000242831 0.000118617 -0.000182189
0.00107615 7.37267e-05 0.000100463
7.37267e-05 0.00180918 -1.12858e-05
0.000100463 -1.12858e-05 0.000372749
0.00675119 -0.0023658 0.000373256
-0.0023658 0.00675503 -0.000220237
0.000373256 -0.000220237 -0.00270052
0.0243266 0.00444014 -0.000305151
0.00444014 0.0094062 0.000243069
-0.000305151 0.000243069 0.00261995
0.003167 -0.000927689 -0.00039645
-0.000927689 0.00288813 8.83357e-05
-0.00039645 8.83357e-05 0.00053926
0.0156135 0.00558507 -0.000255334
0.00558507 0.0103052 -0.000301102
-0.000255334 -0.000301102 0.00543165
0.000562148 0.000233879 -4.78834e-05
0.000233879 0.00165484 4.85388e-06
-4.78834e-05 4.85388e-06 0.000227182
-0.000386069 -0.000507256 -0.000135413
-0.000507256 0.00376335 2.13482e-06
-0.000135413 2.13482e-06 0.00192724
0.00245427 -0.00209358 0.000311197
-0.00209358 0.00205495 -6.20573e-05
0.000311197 -6.20573e-05 -0.00356746
-0.00385462 6.88797e-06 7.59882e-05
6.88797e-06 0.000278074 4.10101e-05
7.59882e-05 4.10101e-05 -0.000559694
0.0261284 0.0146619 0.000925394
0.0146619 0.0183843 -0.000305122
0.000925394 -0.000305122 0.0091533
0.0121649 0.0034224 -0.000166152
0.0034224 0.00802935 0.000466398
-0.000166152 0.000466398 0.000470506
-0.00187478 -0.00179705 0.000277288
-0.00179705 0.00396865 -0.000198719
0.000277288 -0.000198719 -0.00483557
-0.0024435 -0.000646006 -4.37938e-05
-0.000646006 0.000299889 -3.60877e-05
-4.37938e-05 -3.60877e-05 -0.00121089
0.00133351 -0.00128151 0.000422065
-0.00128151 6.62756e-05 -0.000108946
0.000422065 -0.000108946 -0.0044293
0.00262126 0.00291318 -0.00217006
0.00291318 0.0111496 0.000366084
-0.00217006 0.000366084 0.00412969
0.0246025 0.00919153 -0.000693586
0.00919153 0.00983039 0.000465248
-0.000693586 0.000465248 0.00169123
0.00653851 -0.00518186 -0.000265815
-0.00518186 0.00377528 0.000125033
-0.000265815 0.000125033 0.000179905
0.00375741 -0.00269651 7.28311e-05
-0.00269651 0.00429903 2.68646e-05
7.28311e-05 2.68646e-05 0.00268556
5.40352e-05 -9.66581e-05 5.71238e-06
-9.66581e-05 0.000650693 -1.9354e-05
5.71238e-06 -1.9354e-05 -7.75641e-05
0.000141648 -0.000515714 7.00139e-06
-0.000515714 0.000597025 -2.69301e-06
7.00139e-06 -2.69301e-06 -0.000195099
0.000701736 -0.00120733 -5.42107e-06
-0.00120733 0.000570792 8.89346e-06
-5.42107e-06 8.89346e-06 -9.56941e-05
-0.000218136 -0.000206089 -4.92415e-06
-0.000206089 0.000303258 1.06401e-05
-4.92415e-06 1.06401e-05 -9.1365e-05
0.000458147 -0.000606505 -2.77922e-06
-0.000606505 0.000376613 5.51457e-06
-2.77922e-06 5.51457e-06 -5.14208e-05
0.00251159 -0.00110354 3.8394e-05
-0.00110354 0.00102922 -3.59802e-05
3.8394e-05 -3.59802e-05 0.000487339
0.0062868 -0.00142427 -1.47157e-05
-0.00142427 0.0033407 1.94797e-06
-1.47157e-05 1.94797e-06 0.00274194
0.00270157 -0.00103492 1.16178e-05
-0.00103492 0.00126229 -3.93841e-06
1.16178e-05 -3.93841e-06 0.000446711
0.0025578 -0.00127967 5.50057e-06
-0.00127967 0.000796631 -1.93774e-05
5.50057e-06 -1.93774e-05 -1.84695e-05
0.00258032 -0.000913959 -1.40248e-05
-0.000913959 0.00107748 -7.81718e-06
-1.40248e-05 -7.81718e-06 0.000455767
0.00219139 -0.00110124 5.28875e-07
-0.00110124 0.000698021 -1.8026e-06
5.28875e-07 -1.8026e-06 -6.46412e-05
0.00286656 -0.00131466 -8.22982e-06
-0.00131466 0.000904728 -9.65346e-06
-8.22982e-06 -9.65346e-06 0.000168045
0.00252154 -0.000967374 -8.31254e-07
-0.000967374 0.000479977 -6.96776e-06
-8.31254e-07 -6.96776e-06 7.78174e-06
0.00298556 -0.00125044 -1.05399e-05
-0.00125044 0.000944909 -1.23313e-06
-1.05399e-05 -1.23313e-06 0.000301504
0.00278714 -0.00125073 -4.27727e-06
-0.00125073 0.000858608 -4.33477e-07
-4.27727e-06 -4.33477e-07 0.000182118
0.00221612 -0.0010627 7.13565e-06
-0.0010627 0.000745077 -6.50843e-06
7.13565e-06 -6.50843e-06 0.000128316
0.00184888 -0.00100614 3.60072e-06
-0.00100614 0.000524373 -1.24152e-06
3.60072e-06 -1.24152e-06 -8.28385e-05
0.0017666 -0.000911839 6.45599e-06
-0.000911839 0.000530199 -1.75267e-06
6.45599e-06 -1.75267e-06 -7.6061e-05
0.00152799 -0.000680869 9.70026e-06
-0.000680869 0.000495942 1.77873e-06
9.70026e-06 1.77873e-06 3.78101e-06
0.00192021 -0.000830032 -1.42729e-06
-0.000830032 0.000696228 -2.09388e-06
-1.42729e-06 -2.09388e-06 0.00015432
0.00188599 -0.000883257 3.37286e-06
-0.000883257 0.000608827 6.84165e-06
3.37286e-06 6.84165e-06 5.20616e-05
0.00176103 -0.000250809 -7.73799e-07
-0.000250809 0.000762042 -5.13619e-06
-7.73799e-07 -5.13619e-06 0.000495081
0.000931663 -0.000324105 -3.98537e-06
-0.000324105 0.000197969 2.74623e-06
-3.98537e-06 2.74623e-06 -0.000119246
0.000791852 -0.000534069 -7.8455e-06
-0.000534069 5.05466e-05 -6.87678e-06
-7.8455e-06 -6.87678e-06 -0.000373667
0.00019612 -9.87175e-05 -1.51795e-07
-9.87175e-05 -0.000111192 3.2147e-06
-1.51795e-07 3.2147e-06 -0.000368343
0.000696848 -0.000229922 -5.27151e-09
-0.000229922 0.000222572 1.58042e-06
-5.27151e-09 1.58042e-06 -8.34788e-05
0.000621514 -0.000282889 4.29247e-07
-0.000282889 0.000127835 1.44552e-06
4.29247e-07 1.44552e-06 -0.000199907
0.000314994 -5.45235e-05 -1.08656e-05
-5.45235e-05 -0.000101658 1.90097e-05
-1.08656e-05 1.90097e-05 -0.000165908
0.00071054 -0.000112196 1.84046e-08
-0.000112196 0.000196018 4.93118e-07
1.84046e-08 4.93118e-07 5.16421e-07
0.00176198 -0.000295545 -1.24276e-06
-0.000295545 0.000928692 4.19753e-06
-1.24276e-06 4.19753e-06 0.000629371
0.000960842 -0.000127067 2.47175e-07
-0.000127067 0.000337783 -7.04082e-06
2.47175e-07 -7.04082e-06 0.000183637
0.000381301 -1.37227e-05 -7.87188e-07
-1.37227e-05 -4.60842e-05 -6.17557e-07
-7.87188e-07 -6.17557e-07 -0.000103049
0.00340418 0.000133712 -5.01656e-05
0.000133712 0.00192194 6.24791e-06
-5.01656e-05 6.24791e-06 0.00191483
0.000490601 -2.96014e-05 3.69809e-06
-2.96014e-05 1.69734e-05 -1.06521e-05
3.69809e-06 -1.06521e-05 -2.85785e-05
0.00313843 0.000101691 6.80602e-06
0.000101691 0.00173791 8.09538e-07
6.80602e-06 8.09538e-07 0.00173878
0.00295025 7.49475e-05 4.53429e-05
7.49475e-05 0.00160784 -5.79242e-06
4.53429e-05 -5.79242e-06 0.00161415
0.00185442 0.000100705 7.49828e-06
0.000100705 0.00111965 -8.80081e-06
7.49828e-06 -8.80081e-06 0.000782901
0.00198827 0.000214883 8.92111e-06
0.000214883 0.00117256 -1.37261e-05
8.92111e-06 -1.37261e-05 0.000881136
0.000532513 5.83005e-05 5.6826e-06
5.83005e-05 6.85028e-05 -6.56688e-06
5.6826e-06 -6.56688e-06 -5.1074e-05
0.000725057 0.000153436 -1.14223e-07
0.000153436 0.000252974 1.00649e-06
-1.14223e-07 1.00649e-06 6.70295e-05
0.000426047 -1.304e-05 4.91384e-06
-1.304e-05 -2.59004e-05 -8.65437e-06
4.91384e-06 -8.65437e-06 -6.01239e-05
0.000523734 7.32917e-05 6.82255e-08
7.32917e-05 7.28054e-05 -3.53726e-07
6.82255e-08 -3.53726e-07 -3.43444e-05
0.000676292 7.3745e-05 -5.89066e-06
7.3745e-05 0.000195196 -4.08826e-06
-5.89066e-06 -4.08826e-06 3.74372e-05
0.00254243 -4.98817e-05 -3.06213e-05
-4.98817e-05 0.00134291 -6.01788e-06
-3.06213e-05 -6.01788e-06 0.00135375
0.000434244 6.52933e-06 -1.53747e-06
6.52933e-06 -2.33176e-05 -2.22521e-07
-1.53747e-06 -2.22521e-07 -5.09181e-05
0.000516266 7.56216e-05 -4.79741e-06
7.56216e-05 7.0447e-05 1.12674e-06
-4.79741e-06 1.12674e-06 -2.71248e-05
0.00230431 -3.18323e-05 -5.43172e-06
-3.18323e-05 0.0011855 3.06257e-07
-5.43172e-06 3.06257e-07 0.00119955
0.000430994 6.67759e-06 -3.39514e-06
6.67759e-06 -3.00199e-05 5.29721e-06
-3.39514e-06 5.29721e-06 -4.97424e-05
0.0021586 -1.43465e-05 1.85121e-05
-1.43465e-05 0.0010902 5.28757e-06
1.85121e-05 5.28757e-06 0.00110629
-0.00257801 0.000826615 -2.76022e-05
0.000826615 0.00201309 -0.00012132
-2.76022e-05 -0.00012132 -0.000217999
0.00341563 -0.000331553 -2.53372e-05
-0.000331553 0.00221055 -5.06825e-05
-2.53372e-05 -5.06825e-05 0.000656465
0.000187753 -0.000401342 4.01636e-05
-0.000401342 0.00367492 -6.42066e-05
4.01636e-05 -6.42066e-05 0.00164864
0.00056317 6.35386e-05 2.72007e-06
6.35386e-05 0.000317764 -7.49579e-06
2.72007e-06 -7.49579e-06 -3.81899e-05
-0.000365 0.000170495 6.76888e-06
0.000170495 -0.000436799 -4.70424e-06
6.76888e-06 -4.70424e-06 -0.000652822
-0.00180259 3.97143e-05 1.80214e-05
3.97143e-05 -0.00146369 -1.30618e-05
1.80214e-05 -1.30618e-05 -0.0016479
-0.0024512 -1.54692e-05 -6.46931e-06
-1.54692e-05 -0.00158845 2.20005e-05
-6.46931e-06 2.20005e-05 -0.00190915
0.00111735 0.0002899 2.86123e-06
0.0002899 0.000467017 3.51498e-08
2.86123e-06 3.51498e-08 0.000190683
0.000659683 5.3292e-05 -6.07005e-06
5.3292e-05 0.00019863 -1.06632e-06
-6.07005e-06 -1.06632e-06 -6.54065e-06
0.000208198 0.000125553 -9.11446e-06
0.000125553 -9.70309e-05 -1.36716e-05
-9.11446e-06 -1.36716e-05 -0.000227224
0.0012521 6.58182e-06 6.07952e-06
6.58182e-06 0.000564187 1.66432e-06
6.07952e-06 1.66432e-06 0.000401404
0.000922995 0.00019409 -2.19331e-06
0.00019409 0.000396945 -5.58481e-06
-2.19331e-06 -5.58481e-06 0.000279011
0.00282903 0.000220494 -3.71298e-06
0.000220494 0.00179695 -1.67629e-05
-3.71298e-06 -1.67629e-05 0.00147502
0.00849063 0.00224381 0.000706659
0.00224381 0.00574615 0.00060976
0.000706659 0.00060976 0.000475719
0.0037245 0.00145755 2.61926e-05
0.00145755 0.00101469 8.50757e-05
2.61926e-05 8.50757e-05 -0.00141574
0.00685526 -0.000326011 0.00014219
-0.000326011 1.47216e-06 -8.41694e-06
0.00014219 -8.41694e-06 -0.00146308
0.0147801 -0.00090991 -0.00030311
-0.00090991 0.0022627 -0.000141189
-0.00030311 -0.000141189 0.00384326
0.00120372 0.000869925 0.000134787
0.000869925 -0.00162648 0.000452416
0.000134787 0.000452416 -0.00763959
0.00291126 -0.00414276 -6.11204e-05
-0.00414276 0.00126092 -1.45291e-05
-6.11204e-05 -1.45291e-05 0.00128094
0.00424334 -0.00210673 -0.000322844
-0.00210673 0.00558659 9.60078e-05
-0.000322844 9.60078e-05 -0.000888046
3.59565e-05 -0.00165992 -0.000122814
-0.00165992 0.00121009 0.000142201
-0.000122814 0.000142201 0.00037868
0.0114407 -0.000256256 -0.000314412
-0.000256256 0.00847061 -3.98974e-07
-0.000314412 -3.98974e-07 0.000822925
0.00923242 -0.00306165 0.000143992
-0.00306165 0.0055644 0.000255669
0.000143992 0.000255669 -0.00131079
0.0252859 -0.00576049 9.57017e-05
-0.00576049 0.00809867 -0.000934855
9.57017e-05 -0.000934855 0.0023235
0.000203338 0.000396821 -0.000168276
0.000396821 0.00310708 0.00010868
-0.000168276 0.00010868 0.00123859
0.00624859 0.0023815 -0.00028458
0.0023815 0.00661503 -8.68935e-05
-0.00028458 -8.68935e-05 -8.29741e-05
0.0267229 -0.00963123 0.000350672
-0.00963123 0.0149916 -0.00101321
0.000350672 -0.00101321 0.0061203
0.0314688 -0.0139806 9.87875e-05
-0.0139806 0.0171221 -7.8543e-05
9.87875e-05 -7.8543e-05 0.00824459
-0.000273189 0.000316801 2.81806e-05
0.000316801 -5.20144e-05 1.22223e-05
2.81806e-05 1.22223e-05 -0.000513885
-5.69605e-05 7.43332e-05 1.06682e-05
7.43332e-05 0.000224547 1.29332e-06
1.06682e-05 1.29332e-06 -0.0002095
0.00116611 0.000208959 -2.66492e-05
0.000208959 0.000622846 -1.56176e-05
-2.66492e-05 -1.56176e-05 0.000450597
0.00458036 -0.00168771 0.000139634
-0.00168771 0.00323941 -1.75076e-05
0.000139634 -1.75076e-05 0.00122548
-0.000964367 -0.000196617 0.000103393
-0.000196617 0.000740903 8.38783e-06
0.000103393 8.38783e-06 -5.49036e-05
-0.000462458 8.34832e-05 -1.1641e-05
8.34832e-05 -0.000131849 3.28637e-06
-1.1641e-05 3.28637e-06 -0.000433942
-0.000478008 -0.000218832 1.68287e-05
-0.000218832 0.000441762 -1.12217e-05
1.68287e-05 -1.12217e-05 -0.000263747
-0.000256392 0.000137076 -5.85173e-06
0.000137076 0.000118364 7.70489e-07
-5.85173e-06 7.70489e-07 -0.000223609
-0.000332097 0.000334052 2.31271e-05
0.000334052 0.000511704 6.63464e-06
2.31271e-05 6.63464e-06 -0.000187064
-0.00237498 0.000105179 0.000171986
0.000105179 0.00148366 -6.41197e-05
0.000171986 -6.41197e-05 -0.000734239
0.00158867 0.000858138 4.16664e-05
0.000858138 0.000885064 4.53135e-05
4.16664e-05 4.53135e-05 0.00038749
0.00147089 0.00112561 -0.000125692
0.00112561 0.00192235 -0.000119932
-0.000125692 -0.000119932 6.05056e-05
0.000375848 -0.000173731 0.000289541
-0.000173731 0.00178816 0.000108989
0.000289541 0.000108989 -0.00365615
-0.00311236 0.000508318 -0.000167178
0.000508318 0.00321242 3.80174e-07
-0.000167178 3.80174e-07 0.000460773
0.00427142 -0.000432933 -0.000100401
-0.000432933 0.0023784 6.85716e-07
-0.000100401 6.85716e-07 0.00158226
0.000430586 0.00061697 6.88737e-05
0.00061697 0.00126432 2.13266e-05
6.88737e-05 2.13266e-05 -0.000233606
0.000720497 0.000312878 -0.00011273
0.000312878 0.00313697 0.000110108
-0.00011273 0.000110108 0.00117023
-0.00105665 -0.000259552 -2.14867e-05
-0.000259552 0.00292464 -5.66619e-05
-2.14867e-05 -5.66619e-05 0.000726053
0.0150073 -0.00578613 0.000361745
-0.00578613 0.00934904 -0.00022243
0.000361745 -0.00022243 0.00118977
0.0276121 0.00745546 -0.000596544
0.00745546 0.0148151 -0.000304846
-0.000596544 -0.000304846 0.0057196
0.00627681 -0.00263945 -0.000503584
-0.00263945 0.00349918 0.000343318
-0.000503584 0.000343318 -0.0013105
0.0187968 0.0175398 0.00323883
0.0175398 0.0141838 -0.00189777
0.00323883 -0.00189777 0.00450074
0.00033562 -0.000762417 4.57226e-05
-0.000762417 0.00160626 -1.24195e-05
4.57226e-05 -1.24195e-05 3.92911e-05
-0.000105535 -0.000852798 8.25672e-05
-0.000852798 0.000985729 7.40461e-06
8.25672e-05 7.40461e-06 -0.00424189
0.00525938 0.00355245 -0.00163295
0.00355245 0.0105353 0.000268491
-0.00163295 0.000268491 0.00305201
0.000206994 -0.00149629 4.92213e-05
-0.00149629 0.00194882 2.73437e-05
4.92213e-05 2.73437e-05 0.000697958
0.0262327 0.00902328 0.000480826
0.00902328 0.0106337 0.000169517
0.000480826 0.000169517 0.00258837
0.00667949 -0.00780654 0.000377311
-0.00780654 0.00294017 -9.73232e-05
0.000377311 -9.73232e-05 -0.00161198
7.88034e-05 -0.002045 2.60733e-07
-0.002045 0.000653217 4.69779e-05
2.60733e-07 4.69779e-05 -0.000731083
-0.00275013 -0.00191306 0.000212131
-0.00191306 0.00877774 -0.000117522
0.000212131 -0.000117522 0.00350284
0.0207192 0.00971727 -0.00226598
0.00971727 0.00883242 0.000460182
-0.00226598 0.000460182 0.00229719
0.00558255 -0.00643686 -0.000695921
-0.00643686 -0.00203038 0.00024702
-0.000695921 0.00024702 -0.00387416
-0.00116901 -0.00259529 0.000197645
-0.00259529 -0.000398613 -0.000152747
0.000197645 -0.000152747 0.000534705
0.00133618 -0.000710009 -0.000124704
-0.000710009 0.0011084 4.42007e-05
-0.000124704 4.42007e-05 0.000354206
0.000303827 -0.0009562 -1.68511e-05
-0.0009562 0.000423834 1.21864e-05
-1.68511e-05 1.21864e-05 -0.000241803
0.00123363 -0.00111043 1.76046e-05
-0.00111043 0.000455738 -3.53321e-05
1.76046e-05 -3.53321e-05 -0.000103309
-0.000729095 -0.000344626 7.38325e-06
-0.000344626 -0.000103773 2.18951e-06
7.38325e-06 2.18951e-06 -0.000487075
0.00096744 -0.000894173 5.29155e-06
-0.000894173 0.000243098 -1.76089e-07
5.29155e-06 -1.76089e-07 -0.000262774
0.0031359 -0.00139584 8.67994e-06
-0.00139584 0.000886325 -1.87684e-05
8.67994e-06 -1.87684e-05 0.000340858
0.00429434 -0.00128491 -3.68808e-05
-0.00128491 0.00205275 5.62168e-06
-3.68808e-05 5.62168e-06 0.00123066
0.00210382 -0.00118776 -4.74746e-06
-0.00118776 0.000541072 -3.72309e-07
-4.74746e-06 -3.72309e-07 -0.000246587
0.00273318 -0.00138816 2.02458e-06
-0.00138816 0.000610788 -8.02661e-06
2.02458e-06 -8.02661e-06 -3.62607e-05
0.00309815 -0.0012358 6.2166e-06
-0.0012358 0.00118794 4.53521e-06
6.2166e-06 4.53521e-06 0.000399132
0.00265012 -0.00127523 3.12556e-06
-0.00127523 0.000776246 -3.63579e-06
3.12556e-06 -3.63579e-06 6.15268e-05
0.00278841 -0.0010388 -3.51336e-06
-0.0010388 0.000577866 -6.65859e-06
-3.51336e-06 -6.65859e-06 0.000104824
0.00203878 -0.00063147 -5.49765e-07
-0.00063147 3.41543e-05 -2.57991e-06
-5.49765e-07 -2.57991e-06 -0.000225955
0.00210609 -0.000935449 2.48976e-06
-0.000935449 0.000175426 -3.97865e-06
2.48976e-06 -3.97865e-06 -0.000290714
0.00246331 -0.000972738 3.70336e-06
-0.000972738 0.000430546 -2.32981e-06
3.70336e-06 -2.32981e-06 -4.29356e-05
0.00283517 -0.00111742 -4.28454e-06
-0.00111742 0.000916497 -2.69225e-06
-4.28454e-06 -2.69225e-06 0.000333643
0.00294558 -0.00124272 -4.04448e-06
-0.00124272 0.000928696 -3.12814e-07
-4.04448e-06 -3.12814e-07 0.000281957
0.0027101 -0.001241 1.00202e-05
-0.001241 0.000807804 -3.02383e-06
1.00202e-05 -3.02383e-06 0.000130071
0.00191828 -0.000923895 7.29251e-06
-0.000923895 0.000616932 -7.1035e-06
7.29251e-06 -7.1035e-06 3.48539e-05
0.00192002 -0.00102093 1.95225e-06
-0.00102093 0.000578415 -7.82564e-07
1.95225e-06 -7.82564e-07 -2.6825e-05
0.00144061 -0.000933917 4.20835e-06
-0.000933917 0.000294117 3.08125e-06
4.20835e-06 3.08125e-06 -0.000286001
0.0021457 -0.000435415 3.35269e-06
-0.000435415 0.000938369 7.4593e-06
3.35269e-06 7.4593e-06 0.000600157
0.00144632 -0.000653765 8.29502e-07
-0.000653765 0.000479188 2.04334e-06
8.29502e-07 2.04334e-06 1.52027e-06
0.00213246 -0.000851088 -6.08253e-06
-0.000851088 0.00084023 7.22211e-06
-6.08253e-06 7.22211e-06 0.000293534
0.000186282 -0.000179353 -5.14102e-06
-0.000179353 -0.000195627 -2.52947e-06
-5.14102e-06 -2.52947e-06 -0.000442963
0.000601711 -0.000258424 -4.1142e-06
-0.000258424 5.22173e-05 -4.05484e-06
-4.1142e-06 -4.05484e-06 -0.000228592
0.000729162 -0.000285069 -2.62603e-06
-0.000285069 9.77702e-05 -4.95284e-07
-2.62603e-06 -4.95284e-07 -0.000214359
0.00206525 -3.29095e-05 -6.45054e-05
-3.29095e-05 0.00103605 1.29385e-05
-6.45054e-05 1.29385e-05 0.000959928
0.000699407 -0.00020839 2.36931e-06
-0.00020839 0.00017696 8.01536e-07
2.36931e-06 8.01536e-07 -6.47825e-05
0.00104308 -0.000316513 3.98831e-06
-0.000316513 0.000443268 5.74554e-06
3.98831e-06 5.74554e-06 0.000129773
0.000710941 5.03513e-06 -7.64415e-05
5.03513e-06 0.000167799 8.56625e-06
-7.64415e-05 8.56625e-06 0.000154343
0.00130764 -3.74759e-05 -2.39727e-05
-3.74759e-05 0.000542997 -6.67943e-07
-2.39727e-05 -6.67943e-07 0.000479755
0.0011521 -0.000144045 2.18227e-06
-0.000144045 0.000463357 -5.9389e-06
2.18227e-06 -5.9389e-06 0.000271569
0.000608423 -3.37516e-05 5.84176e-06
-3.37516e-05 9.15998e-05 -1.29843e-05
5.84176e-06 -1.29843e-05 3.64188e-05
0.00357746 0.000133745 1.26315e-05
0.000133745 0.00203435 1.0462e-06
1.26315e-05 1.0462e-06 0.00202772
0.00321024 0.00010089 5.1945e-05
0.00010089 0.00178394 -5.96974e-06
5.1945e-05 -5.96974e-06 0.00178527
0.00014019 0.000159497 5.84595e-06
0.000159497 -0.000124699 6.34732e-06
5.84595e-06 6.34732e-06 -0.000394626
0.00196457 0.000211708 6.21224e-06
0.000211708 0.00116578 -1.4277e-05
6.21224e-06 -1.4277e-05 0.000823556
-0.000602194 5.70805e-05 4.12679e-06
5.70805e-05 -0.000464302 2.86981e-08
4.12679e-06 2.86981e-08 -0.000774015
0.000635283 9.69012e-05 1.33259e-06
9.69012e-05 0.000143816 -1.06581e-05
1.33259e-06 -1.06581e-05 -3.17799e-06
0.000557299 0.000140882 2.24423e-06
0.000140882 0.000189749 -3.16957e-07
2.24423e-06 -3.16957e-07 -5.4016e-05
0.000395053 1.41686e-05 -1.37237e-06
1.41686e-05 -3.51963e-05 -1.18932e-05
-1.37237e-06 -1.18932e-05 -7.88636e-05
0.000542851 7.29159e-05 3.26213e-08
7.29159e-05 8.64028e-05 -2.68108e-07
3.26213e-08 -2.68108e-07 -3.74696e-05
0.000713222 8.27305e-05 -5.78043e-06
8.27305e-05 0.000269144 2.46513e-06
-5.78043e-06 2.46513e-06 7.41176e-05
0.00281623 -7.01738e-05 -4.02425e-05
-7.01738e-05 0.00152587 -5.9807e-06
-4.02425e-05 -5.9807e-06 0.0015333
0.00039469 8.32314e-06 -4.47231e-07
8.32314e-06 -4.34527e-05 3.39171e-09
-4.47231e-07 3.39171e-09 -7.84357e-05
0.000464322 7.60312e-05 -2.57782e-06
7.60312e-05 3.60389e-05 3.96316e-06
-2.57782e-06 3.96316e-06 -7.13383e-05
0.00249839 -5.1256e-05 -7.46155e-06
-5.1256e-05 0.00131441 4.90881e-07
-7.46155e-06 4.90881e-07 0.00132513
0.000357919 -1.71901e-05 -7.58069e-06
-1.71901e-05 -7.25152e-05 6.66033e-06
-7.58069e-06 6.66033e-06 -9.92758e-05
0.00226751 -3.02575e-05 2.37026e-05
-3.02575e-05 0.00116146 5.43743e-06
2.37026e-05 5.43743e-06 0.00117601
0.00696209 0.00134566 0.00056981
0.00134566 0.00517712 0.000141678
0.00056981 0.000141678 0.00167619
-0.00234256 0.000706307 -1.62698e-05
0.000706307 0.00173999 -1.37348e-05
-1.62698e-05 -1.37348e-05 -0.000814711
0.000504859 0.000849031 -8.36632e-06
0.000849031 0.00233385 -1.99642e-05
-8.36632e-06 -1.99642e-05 0.000234869
-0.00041853 0.000244371 -9.28144e-06
0.000244371 -0.000587791 1.13462e-05
-9.28144e-06 1.13462e-05 -0.000857132
-5.44192e-05 7.34801e-05 -1.04516e-05
7.34801e-05 -0.000158679 2.31263e-05
-1.04516e-05 2.31263e-05 -0.000453856
7.9519e-05 0.000119633 -1.22263e-05
0.000119633 -0.000159218 -1.32764e-05
-1.22263e-05 -1.32764e-05 -0.000351675
0.00195679 0.000163993 9.12666e-06
0.000163993 0.00107627 2.88428e-07
9.12666e-06 2.88428e-07 0.000838107
0.00103806 0.000242376 -7.25844e-07
0.000242376 0.000306965 -9.77625e-06
-7.25844e-07 -9.77625e-06 0.000100172
0.00285273 0.000453938 -2.04292e-05
0.000453938 0.00156209 -8.02865e-06
-2.04292e-05 -8.02865e-06 0.00133158
0.00146386 0.000349757 2.55881e-06
0.000349757 0.000602779 -1.63903e-05
2.55881e-06 -1.63903e-05 0.000245783
-0.00201804 0.000186437 -1.04428e-05
0.000186437 -0.00105727 3.40222e-06
-1.04428e-05 3.40222e-06 -0.0014648
-0.000184075 4.73262e-05 -3.56457e-06
4.73262e-05 -0.000294984 -1.16859e-05
-3.56457e-06 -1.16859e-05 -0.000472502
-0.000468498 5.93683e-05 -1.13209e-05
5.93683e-05 -0.000563807 -1.17086e-05
-1.13209e-05 -1.17086e-05 -0.000622755
-0.00103822 3.21778e-05 -5.40213e-06
3.21778e-05 -0.00059434 2.27781e-06
-5.40213e-06 2.27781e-06 -0.000919032
-5.92503e-05 0.000321198 -3.35628e-06
0.000321198 0.000138959 9.20951e-06
-3.35628e-06 9.20951e-06 -0.000429798
0.00869581 -0.00701368 -7.02873e-05
-0.00701368 0.0101919 0.000211227
-7.02873e-05 0.000211227 0.000774706
0.00895845 0.00281663 0.000260377
0.00281663 0.00428349 0.000203173
0.000260377 0.000203173 -0.00173348
0.0043398 0.000816686 2.87644e-05
0.000816686 0.00179635 -7.73495e-05
2.87644e-05 -7.73495e-05 -0.000964085
0.0366799 -0.00869584 -0.00126776
-0.00869584 0.0121891 -0.000486833
-0.00126776 -0.000486833 0.00540467
0.00605234 -0.0014562 0.000351221
-0.0014562 0.00519914 0.000617533
0.000351221 0.000617533 0.000190045
0.00189375 -0.00132329 -0.000251053
-0.00132329 0.00593631 0.000163679
-0.000251053 0.000163679 -0.00257998
-0.000145745 -0.00189881 7.71411e-05
-0.00189881 0.00186295 6.23465e-05
7.71411e-05 6.23465e-05 0.000282104
-0.00151939 -5.81162e-05 0.000203791
-5.81162e-05 0.00171181 4.72273e-05
0.000203791 4.72273e-05 0.000410071
0.026898 -0.0156473 0.000556417
-0.0156473 0.0159406 0.000550912
0.000556417 0.000550912 0.00651519
0.00397697 0.00244213 -0.000195828
0.00244213 0.00575743 -0.000126678
-0.000195828 -0.000126678 -0.00183198
0.0123405 -0.00505719 -0.00016943
-0.00505719 0.00914538 0.000174947
-0.00016943 0.000174947 0.000106204
-0.0003445 0.00107942 -1.69646e-06
0.00107942 0.00157071 2.17473e-05
-1.69646e-06 2.17473e-05 0.000580068
0.00668876 0.00584259 -0.000206393
0.00584259 0.0029106 -1.64995e-06
-0.000206393 -1.64995e-06 -0.00134816
0.0247159 -0.008626 -0.00112711
-0.008626 0.00996931 -0.000417222
-0.00112711 -0.000417222 0.00159902
0.00112134 0.000829801 1.82099e-05
0.000829801 0.000318702 1.53064e-05
1.82099e-05 1.53064e-05 8.29096e-05
0.00104378 0.000390022 9.21341e-06
0.000390022 0.000755754 5.63297e-06
9.21341e-06 5.63297e-06 0.00027386
-0.000237365 5.37414e-05 -3.09453e-05
5.37414e-05 0.000107508 1.32469e-06
-3.09453e-05 1.32469e-06 -0.000319367
-0.00261236 -0.000237871 -0.000149989
-0.000237871 0.0011241 -3.95742e-05
-0.000149989 -3.95742e-05 -0.000973851
0.000831434 0.000355365 -2.75262e-05
0.000355365 0.000732425 -1.46393e-05
-2.75262e-05 -1.46393e-05 0.000147864
-0.000290516 0.000208891 -6.62837e-06
0.000208891 0.000109825 3.02411e-06
-6.62837e-06 3.02411e-06 -0.000296254
0.00131015 0.000843902 1.04814e-05
0.000843902 0.000711919 1.51664e-06
1.04814e-05 1.51664e-06 0.00020949
-0.000138656 0.00092466 4.79076e-06
0.00092466 0.00116224 -4.79119e-05
4.79076e-06 -4.79119e-05 -0.000461028
0.00210827 0.00229307 0.000107569
0.00229307 0.000848467 2.19527e-05
0.000107569 2.19527e-05 -0.000486892
-0.00689312 0.00123388 0.000559703
0.00123388 0.00638524 -3.34691e-05
0.000559703 -3.34691e-05 -0.00273627
0.00207944 -0.000629874 -2.71294e-05
-0.000629874 0.00250016 9.58762e-05
-2.71294e-05 9.58762e-05 -0.00119051
-0.00317227 4.72353e-05 -3.59862e-05
4.72353e-05 0.00244807 0.00010212
-3.59862e-05 0.00010212 -9.53276e-05
-0.00109174 -0.000474098 -6.04674e-05
-0.000474098 0.000889062 9.67186e-06
-6.04674e-05 9.67186e-06 -0.000713549
-0.00180026 -0.00100027 -5.67082e-05
-0.00100027 0.000287254 4.47232e-05
-5.67082e-05 4.47232e-05 0.000137595
-0.00141208 -0.00102682 -0.0002785
-0.00102682 0.00146187 0.000188265
-0.0002785 0.000188265 -0.00423365
-0.00183695 -0.00584235 0.000285174
-0.00584235 0.0024118 -0.000163481
0.000285174 -0.000163481 -0.00473879
0.0185867 0.00718178 0.000937264
0.00718178 0.00519235 -0.000452735
0.000937264 -0.000452735 -0.00246123
0.0188889 0.00778986 -0.000440987
0.00778986 0.0123385 0.000516031
-0.000440987 0.000516031 0.00351108
0.000692481 -0.00145239 -4.27596e-05
-0.00145239 0.00161716 9.86194e-06
-4.27596e-05 9.86194e-06 0.00030043
0.00461903 0.00176926 0.000300486
0.00176926 0.0110118 -6.32443e-05
0.000300486 -6.32443e-05 0.00414322
0.00669073 0.00667456 2.77145e-05
0.00667456 0.00282017 0.000108491
2.77145e-05 0.000108491 -0.00273909
0.00227533 -0.0043517 7.70726e-05
-0.0043517 0.000893874 -5.99304e-05
7.70726e-05 -5.99304e-05 0.00101805
0.0131858 -0.00704163 -3.7654e-06
-0.00704163 0.000235805 1.3691e-05
-3.7654e-06 1.3691e-05 -0.00129272
0.00355963 -0.00261157 2.44634e-05
-0.00261157 0.00163046 2.19841e-05
2.44634e-05 2.19841e-05 0.000918644
-0.00555256 0.00261519 -0.00111566
0.00261519 -0.000543566 0.000173439
-0.00111566 0.000173439 -0.00584074
0.0160537 -0.00447572 -0.000291228
-0.00447572 -0.000100167 8.09226e-05
-0.000291228 8.09226e-05 -0.000481463
0.00445945 -0.00413841 0.000144577
-0.00413841 -8.73583e-05 -9.37791e-05
0.000144577 -9.37791e-05 0.00124021
3.866e-06 -0.000721513 6.81341e-06
-0.000721513 0.000390125 -4.81212e-06
6.81341e-06 -4.81212e-06 -0.000288302
0.00239517 -0.00144245 2.73063e-05
-0.00144245 0.000888538 -1.06599e-05
2.73063e-05 -1.06599e-05 0.000376727
0.00223172 -0.00123538 1.18784e-05
-0.00123538 0.000423766 -1.78387e-05
1.18784e-05 -1.78387e-05 -1.6752e-05
-0.000254295 -0.000732725 -6.49876e-06
-0.000732725 -0.000389477 2.1954e-05
-6.49876e-06 2.1954e-05 -0.000865754
0.00215937 -0.00128998 -7.5218e-06
-0.00128998 0.000373876 1.74253e-08
-7.5218e-06 1.74253e-08 -0.00017647
0.00337619 -0.00142906 6.29557e-06
-0.00142906 0.000802419 -4.17123e-06
6.29557e-06 -4.17123e-06 0.000276795
0.00147246 -0.0010685 -1.08248e-05
-0.0010685 0.000180008 9.25575e-06
-1.08248e-05 9.25575e-06 -0.000578827
0.00255699 -0.0013609 -3.07664e-07
-0.0013609 0.000517881 3.43322e-06
-3.07664e-07 3.43322e-06 -0.000128756
0.00248083 -0.0010393 -1.47659e-06
-0.0010393 0.000228178 -2.45241e-06
-1.47659e-06 -2.45241e-06 -0.000146254
0.00209765 -0.00119229 9.80423e-06
-0.00119229 0.000463355 3.30997e-06
9.80423e-06 3.30997e-06 -0.000221508
0.00237565 -0.000974155 -1.86454e-06
-0.000974155 0.000354405 2.18669e-06
-1.86454e-06 2.18669e-06 -9.98021e-05
0.00231582 -0.000692054 3.74147e-07
-0.000692054 0.00010318 -1.23816e-06
3.74147e-07 -1.23816e-06 -0.000119259
0.00227551 -0.000627487 -2.38217e-06
-0.000627487 0.000182498 4.75373e-07
-2.38217e-06 4.75373e-07 -1.04182e-05
0.0019208 -0.000637529 -3.12823e-06
-0.000637529 -8.02614e-06 -1.96105e-06
-3.12823e-06 -1.96105e-06 -0.000285151
0.00204317 -0.000626503 1.38191e-06
-0.000626503 2.90102e-05 2.99434e-06
1.38191e-06 2.99434e-06 -0.000226522
0.00194247 -0.000810986 -3.28806e-06
-0.000810986 0.000145965 -4.81369e-06
-3.28806e-06 -4.81369e-06 -0.000268059
0.00227314 -0.000944438 2.88567e-06
-0.000944438 0.000302922 5.00719e-07
2.88567e-06 5.00719e-07 -0.000160246
0.0024265 -0.000973643 1.47781e-06
-0.000973643 0.000403554 4.38391e-06
1.47781e-06 4.38391e-06 -6.90146e-05
0.00217936 -0.000968741 7.3512e-07
-0.000968741 0.000553399 -5.39589e-06
7.3512e-07 -5.39589e-06 -1.23587e-06
0.00257786 -0.00109433 1.87401e-06
-0.00109433 0.000751712 -8.80919e-07
1.87401e-06 -8.80919e-07 0.000170125
0.00293646 -0.00123673 3.14136e-06
-0.00123673 0.00093216 -4.52672e-07
3.14136e-06 -4.52672e-07 0.000281934
0.0017126 -0.000646614 -5.33309e-06
-0.000646614 0.000549718 1.81873e-06
-5.33309e-06 1.81873e-06 9.60404e-05
0.00197417 -0.000915027 8.25054e-07
-0.000915027 0.000659075 6.05643e-07
8.25054e-07 6.05643e-07 8.44277e-05
0.0015771 -0.000971974 9.59683e-07
-0.000971974 0.000385974 4.14658e-06
9.59683e-07 4.14658e-06 -0.000205958
0.000754276 -0.000254911 -4.56395e-06
-0.000254911 0.000135594 -2.3065e-06
-4.56395e-06 -2.3065e-06 -0.000121263
0.00110403 -0.000394828 4.57646e-06
-0.000394828 0.000281931 6.6795e-08
4.57646e-06 6.6795e-08 -5.32544e-05
0.000959851 -0.000590137 -5.63011e-06
-0.000590137 0.0002137 5.49154e-06
-5.63011e-06 5.49154e-06 -0.000243083
0.000470671 -0.000132885 -2.04146e-05
-0.000132885 -4.5946e-05 1.65656e-05
-2.04146e-05 1.65656e-05 -0.000150437
0.000668233 -0.000215835 -1.21097e-06
-0.000215835 0.000136161 1.35558e-06
-1.21097e-06 1.35558e-06 -0.000133289
-0.00017371 -0.000293668 -4.85423e-06
-0.000293668 -0.000414713 -1.6097e-06
-4.85423e-06 -1.6097e-06 -0.00070992
0.00456862 0.000308455 2.54369e-05
0.000308455 0.00274845 1.04358e-05
2.54369e-05 1.04358e-05 0.00268485
0.000423375 -9.17389e-05 3.11631e-07
-9.17389e-05 -4.30634e-05 -4.98027e-07
3.11631e-07 -4.98027e-07 -0.000136563
0.00145409 -0.000228043 1.95709e-06
-0.000228043 0.000649609 -2.43126e-06
1.95709e-06 -2.43126e-06 0.000411937
0.00399416 0.000148443 1.10229e-05
0.000148443 0.00231308 7.69151e-07
1.10229e-05 7.69151e-07 0.00230251
0.000668831 -5.75098e-05 9.97084e-06
-5.75098e-05 0.000125554 -1.50016e-05
9.97084e-06 -1.50016e-05 5.23614e-05
0.00357662 0.000113542 7.81448e-05
0.000113542 0.00202907 -7.23733e-06
7.81448e-05 -7.23733e-06 0.00202761
0.00243697 0.000458499 3.32874e-06
0.000458499 0.00122249 3.49833e-06
3.32874e-06 3.49833e-06 0.000926027
0.000544747 0.000226493 5.77279e-07
0.000226493 0.000136647 -1.79258e-07
5.77279e-07 -1.79258e-07 -0.000154323
0.00129589 0.000506161 -4.01975e-06
0.000506161 0.000673697 -4.63212e-06
-4.01975e-06 -4.63212e-06 0.000332539
0.00120851 0.000170797 -1.57516e-07
0.000170797 0.000513283 -1.14677e-05
-1.57516e-07 -1.14677e-05 0.000326762
0.000885982 0.000159627 -9.18235e-08
0.000159627 0.000483188 6.26004e-07
-9.18235e-08 6.26004e-07 0.00013471
6.2563e-05 0.000131451 -1.89261e-06
0.000131451 -6.57558e-06 6.30713e-06
-1.89261e-06 6.30713e-06 -0.000355998
0.000549636 5.4883e-06 -2.33057e-06
5.4883e-06 7.30954e-05 -1.46641e-05
-2.33057e-06 -1.46641e-05 1.74336e-05
0.000632132 7.5202e-05 2.37961e-07
7.5202e-05 0.000147461 3.06744e-07
2.37961e-07 3.06744e-07 1.17907e-06
-0.00017497 8.07651e-05 -5.08353e-06
8.07651e-05 -0.000303878 1.47712e-05
-5.08353e-06 1.47712e-05 -0.000535634
0.00298804 -8.71961e-05 -5.16417e-05
-8.71961e-05 0.00164404 -6.61023e-06
-5.16417e-05 -6.61023e-06 0.00164868
0.000389118 -2.85165e-05 2.03204e-06
-2.85165e-05 -3.61755e-05 -4.11334e-07
2.03204e-06 -4.11334e-07 -8.04544e-05
0.000557948 6.55205e-05 -4.35766e-06
6.55205e-05 0.000106644 6.62501e-06
-4.35766e-06 6.62501e-06 -1.93866e-05
0.00275749 -7.17115e-05 -8.65412e-06
-7.17115e-05 0.00148816 6.75049e-07
-8.65412e-06 6.75049e-07 0.00149493
0.000401592 1.71461e-05 -1.45412e-06
1.71461e-05 -3.99999e-05 8.31361e-06
-1.45412e-06 8.31361e-06 -7.38422e-05
0.00245878 -5.12311e-05 2.47056e-05
-5.12311e-05 0.00128864 5.68316e-06
2.47056e-05 5.68316e-06 0.00129953
-0.00672755 0.00069236 -0.000352913
0.00069236 0.00560349 7.34327e-05
-0.000352913 7.34327e-05 -0.00280369
0.00662122 0.00114526 5.58022e-05
0.00114526 0.00445672 7.98237e-07
5.58022e-05 7.98237e-07 0.00111135
-0.00147058 0.000709572 0.000167581
0.000709572 0.0017543 8.37707e-05
0.000167581 8.37707e-05 -0.00101053
0.000301675 0.00026974 -8.24945e-06
0.00026974 -9.15812e-05 1.04184e-05
-8.24945e-06 1.04184e-05 -0.000418192
0.00408042 0.00101819 2.29706e-05
0.00101819 0.00224365 2.53706e-05
2.29706e-05 2.53706e-05 0.00169845
0.000176925 0.000260187 -1.56881e-05
0.000260187 0.000111874 7.35851e-06
-1.56881e-05 7.35851e-06 -0.000386939
0.000652413 0.000141331 -8.81837e-06
0.000141331 0.000266785 -1.70105e-05
-8.81837e-06 -1.70105e-05 2.24233e-05
0.00309441 0.000439208 -2.68634e-06
0.000439208 0.00157781 -6.86934e-06
-2.68634e-06 -6.86934e-06 0.00134232
-0.00186033 2.16755e-05 -7.53621e-06
2.16755e-05 -0.00138082 1.652e-05
-7.53621e-06 1.652e-05 -0.00151007
-0.000151181 0.000277672 -5.33935e-07
0.000277672 -6.52547e-05 6.68154e-06
-5.33935e-07 6.68154e-06 -0.000400281
-0.000111335 0.000139785 -6.03052e-06
0.000139785 -0.000260455 -5.24186e-06
-6.03052e-06 -5.24186e-06 -0.000610669
0.00074052 0.000789026 -8.13422e-06
0.000789026 0.000330517 -2.17023e-05
-8.13422e-06 -2.17023e-05 -0.000249613
-0.000939043 0.000664531 -3.05561e-05
0.000664531 -0.000884243 7.04307e-05
-3.05561e-05 7.04307e-05 -0.00110926
0.000645002 7.09194e-05 -1.3385e-05
7.09194e-05 0.000375178 1.39128e-05
-1.3385e-05 1.39128e-05 9.99265e-05
0.00222156 0.000565021 1.32988e-05
0.000565021 0.00142147 -3.84937e-06
1.32988e-05 -3.84937e-06 0.000914187
0.00452625 -0.00455992 -0.00283128
-0.00455992 0.00323724 -0.000214009
-0.00283128 -0.000214009 -0.00335838
0.00252222 -0.00548833 0.000921609
-0.00548833 0.0108283 0.000142284
0.000921609 0.000142284 0.00201549
0.00958186 0.00345641 -0.00102283
0.00345641 0.00382382 -0.00032618
-0.00102283 -0.00032618 -0.00281155
0.0193899 -0.0173048 0.00322319
-0.0173048 0.0146456 0.00181316
0.00322319 0.00181316 0.00465136
0.0310106 -0.00491606 -0.00012655
-0.00491606 0.0127196 0.00052265
-0.00012655 0.00052265 0.00546597
-0.00278432 0.00153975 -0.000117615
0.00153975 0.00366528 -0.000219117
-0.000117615 -0.000219117 -0.00307292
-0.00169502 0.000210412 -0.000201803
0.000210412 0.00243516 -1.80309e-05
-0.000201803 -1.80309e-05 0.000297159
0.000350384 0.00116013 7.74678e-05
0.00116013 0.00213816 6.01125e-05
7.74678e-05 6.01125e-05 0.00125142
0.0258862 -0.00728628 -0.000918107
-0.00728628 0.0117733 8.04651e-05
-0.000918107 8.04651e-05 0.00371041
-0.0012191 0.0054304 -0.000271015
0.0054304 0.00101512 -4.06513e-05
-0.000271015 -4.06513e-05 -0.0038864
0.00334872 0.00347998 8.09229e-05
0.00347998 0.00134265 -8.36437e-05
8.09229e-05 -8.36437e-05 0.00199302
0.00825455 0.00929506 -0.000877714
0.00929506 -0.0014334 -9.76677e-05
-0.000877714 -9.76677e-05 -0.00327678
0.00420702 0.00173675 3.75963e-05
0.00173675 0.00175027 -9.60019e-06
3.75963e-05 -9.60019e-06 0.00121422
0.00090619 0.000769834 -4.64774e-06
0.000769834 0.000163153 -4.00963e-06
-4.64774e-06 -4.00963e-06 -3.60503e-05
-0.000121092 0.000273259 -3.04129e-05
0.000273259 4.59974e-05 -8.2428e-06
-3.04129e-05 -8.2428e-06 -0.000420555
-0.000937662 0.00083624 -0.000149113
0.00083624 0.000857939 -7.99603e-05
-0.000149113 -7.99603e-05 -0.000555781
0.000497754 0.000807271 -6.31459e-05
0.000807271 0.000197261 -4.97052e-05
-6.31459e-05 -4.97052e-05 -0.000264432
0.00266723 0.00238173 3.8073e-06
0.00238173 0.000989872 -1.35441e-05
3.8073e-06 -1.35441e-05 -0.000296663
-0.0016679 0.00229601 0.000121382
0.00229601 -0.00222086 6.95849e-05
0.000121382 6.95849e-05 -0.00275189
-0.00703267 -0.000779255 -0.000998736
-0.000779255 -0.0024248 7.0588e-05
-0.000998736 7.0588e-05 -0.00523963
-0.0105204 0.000504218 0.000709187
0.000504218 0.00688551 1.04787e-05
0.000709187 1.04787e-05 -0.0007578
0.00251103 0.000152966 -0.000215118
0.000152966 0.00235862 3.75293e-05
-0.000215118 3.75293e-05 -2.83178e-05
0.000981043 -0.00154545 -6.58753e-05
-0.00154545 0.001238 -6.05349e-05
-6.58753e-05 -6.05349e-05 -4.60051e-05
-0.00109238 -0.00308049 0.000218739
-0.00308049 -7.02016e-05 6.10274e-06
0.000218739 6.10274e-06 -2.6731e-05
0.00206695 0.00195826 0.000351952
0.00195826 0.0104915 0.000104871
0.000351952 0.000104871 0.00334542
0.00604454 -0.00680791 0.000881781
-0.00680791 -0.0020657 -6.73282e-05
0.000881781 -6.73282e-05 -0.00267721
0.0251076 0.00613892 0.00166723
0.00613892 0.0122211 -3.72444e-05
0.00166723 -3.72444e-05 0.00612752
0.00222026 -0.0028941 -2.49336e-05
-0.0028941 0.000679757 1.96558e-06
-2.49336e-05 1.96558e-06 -0.000304464
0.00535625 0.00320458 0.000457073
0.00320458 0.00292477 -0.000136849
0.000457073 -0.000136849 -0.00184417
0.00790771 -0.00411263 -0.000245023
-0.00411263 -0.00489676 0.000212698
-0.000245023 0.000212698 -0.00570248
0.00245214 -0.00378337 -1.20407e-05
-0.00378337 -0.00139156 3.41632e-05
-1.20407e-05 3.41632e-05 0.000636982
0.00290995 -0.00230147 6.57792e-05
-0.00230147 0.000186455 -7.7983e-06
6.57792e-05 -7.7983e-06 -3.66593e-05
0.019868 -0.00128918 -0.000131844
-0.00128918 0.00243605 0.000108611
-0.000131844 0.000108611 0.0022161
0.00276761 -0.00280142 0.000135241
-0.00280142 -0.0042898 -0.000119433
0.000135241 -0.000119433 -0.00146798
0.00121505 -0.00139833 -6.12948e-05
-0.00139833 0.000172349 5.18854e-05
-6.12948e-05 5.18854e-05 -0.000186027
0.000580126 -0.000993601 -1.99752e-05
-0.000993601 -0.000457883 1.49556e-06
-1.99752e-05 1.49556e-06 -0.000731824
0.00568485 -0.00149165 5.13244e-05
-0.00149165 0.00192157 -2.3557e-05
5.13244e-05 -2.3557e-05 0.00160543
0.000674931 -0.00110131 -1.69474e-05
-0.00110131 -0.000380871 1.6054e-05
-1.69474e-05 1.6054e-05 -0.000910859
0.00264004 -0.00132811 -1.56585e-07
-0.00132811 0.00042998 -5.8252e-07
-1.56585e-07 -5.8252e-07 -6.89982e-05
0.00308844 -0.0010929 3.49091e-06
-0.0010929 0.000379798 -1.65601e-06
3.49091e-06 -1.65601e-06 0.000157285
0.00259628 -0.00135852 8.37965e-06
-0.00135852 0.000535734 8.52034e-06
8.37965e-06 8.52034e-06 -0.00011449
0.00265692 -0.00104998 -3.50328e-06
-0.00104998 0.000322119 1.19126e-06
-3.50328e-06 1.19126e-06 -4.80257e-05
0.00244241 -0.00073199 1.12504e-06
-0.00073199 9.39602e-06 -2.09374e-07
1.12504e-06 -2.09374e-07 -7.58713e-05
0.00215459 -0.000940301 8.7708e-06
-0.000940301 0.000227291 6.11758e-06
8.7708e-06 6.11758e-06 -0.000216356
0.00225715 -0.00068005 6.89271e-09
-0.00068005 6.59601e-05 2.35023e-06
6.89271e-09 2.35023e-06 -0.000145798
0.00239213 -0.000698828 -7.59911e-07
-0.000698828 9.75539e-05 1.95698e-06
-7.59911e-07 1.95698e-06 -2.26851e-05
0.00232516 -0.000671592 -3.41731e-06
-0.000671592 0.000150457 9.69313e-07
-3.41731e-06 9.69313e-07 -6.54828e-06
0.00229943 -0.000630981 -3.42804e-06
-0.000630981 0.000185338 2.50552e-06
-3.42804e-06 2.50552e-06 -1.98976e-06
0.0022988 -0.000617098 -9.80628e-07
-0.000617098 0.00027174 -1.99286e-06
-9.80628e-07 -1.99286e-06 5.47649e-05
0.00231817 -0.000686098 -6.66035e-06
-0.000686098 0.000283104 -2.95298e-06
-6.66035e-06 -2.95298e-06 -1.22272e-05
0.00215764 -0.000654835 1.0698e-06
-0.000654835 0.000150107 1.46105e-06
1.0698e-06 1.46105e-06 -0.000127696
0.0020317 -0.000624034 1.65422e-06
-0.000624034 5.45233e-06 8.13549e-06
1.65422e-06 8.13549e-06 -0.000246413
0.00222177 -0.000815759 -5.42827e-06
-0.000815759 0.000380124 -5.72887e-06
-5.42827e-06 -5.72887e-06 -4.60537e-05
0.00190998 -0.000820109 -6.34476e-07
-0.000820109 0.000108609 1.57912e-07
-6.34476e-07 1.57912e-07 -0.00031105
0.00243248 -0.000955831 6.63673e-06
-0.000955831 0.000420987 4.44587e-06
6.63673e-06 4.44587e-06 -4.02558e-05
0.00179827 -0.000780834 -6.13676e-06
-0.000780834 0.000386459 -1.04128e-06
-6.13676e-06 -1.04128e-06 -0.000111446
0.00230519 -0.000985873 -5.05137e-07
-0.000985873 0.000622982 6.92303e-07
-5.05137e-07 6.92303e-07 6.42448e-05
0.00240673 -0.00108271 5.03128e-06
-0.00108271 0.000636649 2.44922e-06
5.03128e-06 2.44922e-06 5.36402e-05
0.00127145 -0.000340534 -1.10022e-05
-0.000340534 0.000379338 9.44493e-06
-1.10022e-05 9.44493e-06 9.71732e-05
0.00142887 -0.000621721 1.38679e-06
-0.000621721 0.000359436 1.12547e-06
1.38679e-06 1.12547e-06 -8.81641e-05
0.002012 -0.000908173 -3.05251e-06
-0.000908173 0.000684905 6.43343e-06
-3.05251e-06 6.43343e-06 0.000116099
0.000317188 -0.000195718 -3.0538e-05
-0.000195718 -0.000173854 1.78398e-05
-3.0538e-05 1.78398e-05 -0.000298102
0.000603487 -0.000241382 -1.71359e-06
-0.000241382 5.40616e-05 -1.02134e-06
-1.71359e-06 -1.02134e-06 -0.000216106
-0.000173971 -0.000358327 1.92072e-06
-0.000358327 -0.00052657 -1.96688e-06
1.92072e-06 -1.96688e-06 -0.000863919
0.00533875 0.00021285 -0.00012309
0.00021285 0.00321653 1.21816e-05
-0.00012309 1.21816e-05 0.00318512
0.00057147 -0.000161113 2.21936e-06
-0.000161113 1.01855e-05 3.27276e-08
2.21936e-06 3.27276e-08 -9.79759e-05
0.000996112 -0.000290011 4.05258e-06
-0.000290011 0.000338752 -9.65231e-07
4.05258e-06 -9.65231e-07 6.31412e-05
0.00303914 0.000154277 7.41892e-05
0.000154277 0.00172179 1.4432e-06
7.41892e-05 1.4432e-06 0.00168162
0.00077084 -9.89834e-05 1.64173e-05
-9.89834e-05 0.000172754 -1.66684e-05
1.64173e-05 -1.66684e-05 7.44323e-05
0.00420581 0.000136691 0.000103859
0.000136691 0.00244911 -9.81786e-06
0.000103859 -9.81786e-06 0.00244109
0.00221096 0.000506256 4.33946e-08
0.000506256 0.00096351 5.2768e-06
4.33946e-08 5.2768e-06 0.000623311
0.000749538 0.000257606 -4.74938e-06
0.000257606 0.000125674 6.82605e-07
-4.74938e-06 6.82605e-07 -0.000117181
0.000347841 0.000252939 1.13798e-06
0.000252939 -3.4532e-05 3.74888e-07
1.13798e-06 3.74888e-07 -0.000319083
0.000979395 0.000252911 -6.73088e-07
0.000252911 0.000400165 -2.41325e-06
-6.73088e-07 -2.41325e-06 0.000121711
0.00119202 0.000161009 -3.10272e-07
0.000161009 0.00060054 9.27486e-08
-3.10272e-07 9.27486e-08 0.000278602
0.00114897 0.000164129 -1.31724e-06
0.000164129 0.000496316 -1.27405e-05
-1.31724e-06 -1.27405e-05 0.000262773
0.000583414 7.62175e-05 -1.14986e-05
7.62175e-05 8.62636e-05 -1.77984e-05
-1.14986e-05 -1.77984e-05 1.66392e-05
0.000614302 0.000127206 -5.56329e-07
0.000127206 0.00014921 2.45821e-07
-5.56329e-07 2.45821e-07 -3.89883e-05
-0.00110927 3.62698e-06 -9.23474e-06
3.62698e-06 -0.000844051 1.63189e-05
-9.23474e-06 1.63189e-05 -0.00114328
0.0033358 -9.86639e-05 -7.68737e-05
-9.86639e-05 0.00187909 -8.48269e-06
-7.68737e-05 -8.48269e-06 0.00188153
0.000279542 3.6142e-05 1.44648e-06
3.6142e-05 -9.93578e-05 -3.55581e-07
1.44648e-06 -3.55581e-07 -0.000154303
0.000624089 0.000100598 -3.39753e-06
0.000100598 0.000145944 1.04174e-05
-3.39753e-06 1.04174e-05 -1.09238e-06
0.00298656 -9.27102e-05 -9.38114e-06
-9.27102e-05 0.00164481 8.61365e-07
-9.38114e-06 8.61365e-07 0.00164745
0.000258437 -8.71112e-06 -7.48675e-07
-8.71112e-06 -0.000116809 1.0567e-05
-7.48675e-07 1.0567e-05 -0.000161351
0.00269474 -7.22217e-05 3.07338e-05
-7.22217e-05 0.00144732 6.15958e-06
3.07338e-05 6.15958e-06 0.00145374
0.00263167 -0.000739495 -0.00162746
-0.000739495 0.00446742 -7.47615e-05
-0.00162746 -7.47615e-05 0.00181491
-0.00422753 -0.000513207 -2.25194e-05
-0.000513207 0.00710163 -4.12605e-05
-2.25194e-05 -4.12605e-05 -0.00174125
0.0067577 0.000643749 -0.000512849
0.000643749 0.00419042 -0.000136737
-0.000512849 -0.000136737 0.00101522
0.000403104 0.000168743 4.97708e-06
0.000168743 -5.32448e-05 3.43011e-06
4.97708e-06 3.43011e-06 -0.000359137
0.000218335 0.000184142 9.23489e-06
0.000184142 -4.42157e-05 3.16059e-06
9.23489e-06 3.16059e-06 -0.000472896
0.00270895 0.000811897 -6.04851e-06
0.000811897 0.00139352 4.73932e-07
-6.04851e-06 4.73932e-07 0.000881376
0.00244668 0.00102381 2.58606e-05
0.00102381 0.00107297 1.45903e-05
2.58606e-05 1.45903e-05 0.000428844
0.00107164 0.000727448 4.01563e-06
0.000727448 0.000619928 1.39901e-05
4.01563e-06 1.39901e-05 6.41974e-05
0.00300083 0.000410186 -3.15367e-06
0.000410186 0.00182378 3.99076e-06
-3.15367e-06 3.99076e-06 0.00152299
0.00227024 0.000375582 1.71612e-05
0.000375582 0.00127638 8.3213e-06
1.71612e-05 8.3213e-06 0.000924919
0.00177458 0.000802739 -3.57561e-06
0.000802739 0.00097126 2.68482e-06
-3.57561e-06 2.68482e-06 0.000403651
0.00155947 0.00113105 9.58349e-06
0.00113105 0.000395534 -4.78501e-06
9.58349e-06 -4.78501e-06 -0.000128618
0.00265978 0.00120619 -3.28625e-06
0.00120619 0.00101458 3.54129e-05
-3.28625e-06 3.54129e-05 0.000679396
0.00202816 0.00136012 3.74244e-05
0.00136012 0.000322194 5.77905e-06
3.74244e-05 5.77905e-06 3.35568e-05
0.0010943 0.000885136 1.36618e-05
0.000885136 0.000309882 2.60785e-06
1.36618e-05 2.60785e-06 -3.97797e-05
0.00163225 0.000716656 2.81088e-06
0.000716656 0.00102033 1.43244e-05
2.81088e-06 1.43244e-05 0.000425773
0.0168663 0.00472655 -0.000153313
0.00472655 0.00129177 6.09743e-05
-0.000153313 6.09743e-05 0.000948376
0.00843542 -0.00383733 -0.000859337
-0.00383733 0.00571443 -0.000261995
-0.000859337 -0.000261995 0.000919692
0.0039759 -0.00704384 0.00150375
-0.00704384 0.0119717 0.00026388
0.00150375 0.00026388 0.00315746
0.0173372 -0.00384693 0.000688263
-0.00384693 0.00712112 0.000224823
0.000688263 0.000224823 -6.73807e-05
0.0116557 0.00768258 -0.000188957
0.00768258 0.00443765 -6.93506e-05
-0.000188957 -6.93506e-05 7.51445e-05
-0.00221988 0.000798046 -1.27917e-05
0.000798046 0.00124873 -2.33778e-06
-1.27917e-05 -2.33778e-06 0.000242978
0.00177997 0.00299304 -0.000104601
0.00299304 0.000574291 -4.72857e-05
-0.000104601 -4.72857e-05 0.0015856
0.012403 0.00788349 1.57424e-05
0.00788349 0.000297032 4.70148e-05
1.57424e-05 4.70148e-05 -0.00205438
0.00749026 0.005643 -0.000184954
0.005643 -0.000739293 -0.00014489
-0.000184954 -0.00014489 0.000475707
0.00153488 0.00164318 1.43678e-05
0.00164318 6.11664e-05 -1.23879e-05
1.43678e-05 -1.23879e-05 -0.000346804
0.00156707 0.00128298 1.50314e-05
0.00128298 0.000441731 -1.85461e-06
1.50314e-05 -1.85461e-06 3.39233e-05
0.00239907 0.000868899 -4.20725e-05
0.000868899 0.00116947 -2.01716e-05
-4.20725e-05 -2.01716e-05 0.000957277
0.00191408 0.00235888 -9.02361e-05
0.00235888 0.000420635 -4.16721e-05
-9.02361e-05 -4.16721e-05 -0.000803665
0.00180954 0.00274575 0.000117982
0.00274575 -0.000643635 6.19724e-05
0.000117982 6.19724e-05 -0.00141247
0.00557061 -0.000385608 -0.000132578
-0.000385608 -0.00575236 3.0537e-05
-0.000132578 3.0537e-05 -0.00633954
-5.84001e-05 -0.00256099 8.5251e-06
-0.00256099 0.00379926 6.83248e-05
8.5251e-06 6.83248e-05 0.00118132
-0.0144397 -0.00044049 0.000653188
-0.00044049 0.00793431 -7.31212e-06
0.000653188 -7.31212e-06 0.00188441
0.00261044 -0.0035485 -0.000111828
-0.0035485 0.000431088 4.92853e-05
-0.000111828 4.92853e-05 -0.000850691
0.00662554 -0.00516111 1.83047e-05
-0.00516111 -0.000301984 7.6912e-05
1.83047e-05 7.6912e-05 0.00113654
0.00571678 0.000999672 0.00167871
0.000999672 0.00555091 -0.000375166
0.00167871 -0.000375166 0.00261863
0.0152881 -0.00412747 -0.000428444
-0.00412747 -0.000104503 0.000257665
-0.000428444 0.000257665 0.000419478
0.00213184 -0.002257 -3.13131e-05
-0.002257 -0.000204147 9.63452e-06
-3.13131e-05 9.63452e-06 -0.000554179
0.0127335 -0.00048144 -0.000320447
-0.00048144 -0.00269362 0.0001068
-0.000320447 0.0001068 -0.00277736
0.00733609 -0.00326217 0.000103255
-0.00326217 -0.00147935 9.69205e-06
0.000103255 9.69205e-06 0.000501767
0.00358725 -0.00182277 5.9813e-05
-0.00182277 -0.000277841 -4.80599e-05
5.9813e-05 -4.80599e-05 -0.000152656
0.00282973 -0.00128543 5.61617e-05
-0.00128543 -0.00346901 -9.93112e-06
5.61617e-05 -9.93112e-06 -0.000813164
-0.000987778 -0.000823354 -1.37108e-05
-0.000823354 -0.0013363 2.52816e-05
-1.37108e-05 2.52816e-05 -0.00148141
0.00133454 -0.00102418 -2.07264e-05
-0.00102418 -0.000512862 4.20897e-06
-2.07264e-05 4.20897e-06 -0.00053895
0.00373644 -0.00101905 4.28e-05
-0.00101905 0.000543161 -1.61421e-05
4.28e-05 -1.61421e-05 0.000639257
0.0023317 -0.00129348 -1.34457e-05
-0.00129348 0.000263947 7.79307e-06
-1.34457e-05 7.79307e-06 -0.000224137
0.00274427 -0.00107022 -4.57037e-06
-0.00107022 0.000181894 1.79461e-06
-4.57037e-06 1.79461e-06 -4.1994e-05
0.0027893 -0.0008311 6.75388e-06
-0.0008311 1.73534e-05 -4.7823e-07
6.75388e-06 -4.7823e-07 2.58755e-05
0.00235575 -0.000994952 -6.72991e-06
-0.000994952 0.00017077 7.35016e-06
-6.72991e-06 7.35016e-06 -0.000178491
0.00237893 -0.000727397 5.20658e-08
-0.000727397 -3.15173e-05 1.45751e-06
5.20658e-08 1.45751e-06 -0.000116128
0.00255104 -0.000728108 1.78446e-07
-0.000728108 4.09208e-05 6.04341e-08
1.78446e-07 6.04341e-08 2.42091e-05
0.00220487 -0.000663985 1.71507e-06
-0.000663985 3.90328e-05 5.01083e-06
1.71507e-06 5.01083e-06 -0.000159908
0.00235825 -0.000691119 -3.96877e-08
-0.000691119 8.48076e-05 7.59837e-07
-3.96877e-08 7.59837e-07 -3.4339e-05
0.00251307 -0.000715997 -1.43359e-06
-0.000715997 0.000116653 9.45066e-07
-1.43359e-06 9.45066e-07 2.51547e-05
0.00230506 -0.000676895 -4.99393e-06
-0.000676895 0.000129351 7.96789e-07
-4.99393e-06 7.96789e-07 -1.99532e-05
0.00230219 -0.000641461 -1.18006e-06
-0.000641461 0.000185117 5.67565e-08
-1.18006e-06 5.67565e-08 1.72493e-05
0.0023293 -0.000634677 2.16466e-07
-0.000634677 0.000195747 3.63899e-06
2.16466e-07 3.63899e-06 1.37618e-05
0.00232318 -0.000615562 9.05807e-07
-0.000615562 0.000287073 -4.95462e-07
9.05807e-07 -4.95462e-07 6.99312e-05
0.00221921 -0.00062481 -2.95645e-06
-0.00062481 0.000243263 -1.11022e-06
-2.95645e-06 -1.11022e-06 3.49298e-06
0.0023378 -0.00068193 -2.95382e-06
-0.00068193 0.000367445 -6.07393e-06
-2.95382e-06 -6.07393e-06 5.21499e-05
0.0023724 -0.000694522 -5.86165e-07
-0.000694522 0.000319985 1.94513e-07
-5.86165e-07 1.94513e-07 2.18004e-05
0.00239778 -0.000670757 7.53368e-06
-0.000670757 0.000314071 4.73012e-06
7.53368e-06 4.73012e-06 3.59049e-05
0.00192337 -0.00074131 -7.32341e-06
-0.00074131 0.000286888 -2.42047e-06
-7.32341e-06 -2.42047e-06 -0.000153115
0.00215308 -0.000814861 -1.72709e-06
-0.000814861 0.000326643 -9.95221e-07
-1.72709e-06 -9.95221e-07 -0.000104537
0.00185263 -0.000825903 4.17954e-06
-0.000825903 5.42369e-05 4.34995e-06
4.17954e-06 4.34995e-06 -0.000370167
0.00123114 -0.000412299 -1.72897e-05
-0.000412299 0.000214051 9.60819e-06
-1.72897e-05 9.60819e-06 -0.000108858
0.0018858 -0.00078468 3.14818e-07
-0.00078468 0.000453421 1.30163e-06
3.14818e-07 1.30163e-06 -4.29989e-05
0.00242817 -0.001 -4.23522e-08
-0.001 0.000694299 5.94291e-06
-4.23522e-08 5.94291e-06 0.000132797
0.000244697 -0.000223514 -1.7352e-05
-0.000223514 -0.000216731 2.43458e-05
-1.7352e-05 2.43458e-05 -0.000379648
0.000711648 -0.000322373 2.35861e-06
-0.000322373 2.6377e-05 -1.62736e-07
2.35861e-06 -1.62736e-07 -0.000263303
0.00103494 -0.000580129 5.39234e-06
-0.000580129 0.000105448 6.06639e-07
5.39234e-06 6.06639e-07 -0.000330681
0.00651981 0.000107238 -0.000219209
0.000107238 0.00393759 1.56438e-05
-0.000219209 1.56438e-05 0.00393333
0.000437656 -0.000219093 -9.23558e-06
-0.000219093 -9.31734e-05 -1.29928e-06
-9.23558e-06 -1.29928e-06 -0.000224195
0.000416157 -0.000271297 4.53568e-06
-0.000271297 -4.3398e-05 -4.74023e-06
4.53568e-06 -4.74023e-06 -0.000332436
0.00581107 0.000159774 1.06252e-05
0.000159774 0.00351056 -2.17869e-06
1.06252e-05 -2.17869e-06 0.00349301
0.000554173 -0.000191087 3.19933e-05
-0.000191087 -1.56377e-06 -1.6262e-05
3.19933e-05 -1.6262e-05 -0.000115663
0.00513913 0.000140591 0.000165112
0.000140591 0.00306935 -1.49143e-05
0.000165112 -1.49143e-05 0.00305877
0.00314332 0.000983175 3.2858e-06
0.000983175 0.00149969 8.87571e-06
3.2858e-06 8.87571e-06 0.000903606
0.00121081 0.000472096 -2.71661e-06
0.000472096 0.000341252 6.78935e-07
-2.71661e-06 6.78935e-07 -1.75373e-05
0.000965498 0.000287961 9.01658e-06
0.000287961 0.000245377 -2.30116e-06
9.01658e-06 -2.30116e-06 -1.80972e-05
-0.00105237 9.99892e-05 -1.56595e-06
9.99892e-05 -0.000998168 -8.28224e-06
-1.56595e-06 -8.28224e-06 -0.00123099
0.00010523 0.00025294 4.47715e-06
0.00025294 -0.000231601 -2.99369e-07
4.47715e-06 -2.99369e-07 -0.000478835
0.000453879 0.000318222 -7.89535e-06
0.000318222 -1.81905e-05 -6.88145e-06
-7.89535e-06 -6.88145e-06 -0.000251107
-0.000253486 8.37137e-05 -5.14398e-06
8.37137e-05 -0.000318564 3.40567e-06
-5.14398e-06 3.40567e-06 -0.000644846
0.000742699 0.000176717 1.15879e-06
0.000176717 0.00024404 6.43141e-07
1.15879e-06 6.43141e-07 5.16541e-06
0.000765138 0.000113646 -1.83785e-05
0.000113646 0.000192388 -2.01585e-05
-1.83785e-05 -2.01585e-05 9.97145e-05
0.00381509 -0.000113197 -0.000103019
-0.000113197 0.00220254 -1.22672e-05
-0.000103019 -1.22672e-05 0.0022007
0.000448095 4.53228e-05 3.10416e-06
4.53228e-05 1.1126e-05 -3.79644e-07
3.10416e-06 -3.79644e-07 -5.9516e-05
0.000135844 6.43749e-05 -3.70963e-06
6.43749e-05 -0.000136448 1.3178e-05
-3.70963e-06 1.3178e-05 -0.000330137
0.00327357 -0.000116654 -1.20656e-05
-0.000116654 0.00184147 1.20992e-06
-1.20656e-05 1.20992e-06 0.00183859
0.000297987 -6.99981e-05 -1.10554e-05
-6.99981e-05 -7.35998e-05 1.46514e-05
-1.10554e-05 1.46514e-05 -0.000135892
0.00290799 -9.32683e-05 3.95558e-05
-9.32683e-05 0.00159446 6.47995e-06
3.95558e-05 6.47995e-06 0.00159639
0.0161846 0.000901852 0.000700169
0.000901852 0.000784404 0.000160658
0.000700169 0.000160658 0.00134438
0.00172617 -0.00495925 -0.000955832
-0.00495925 -0.000863313 -8.73329e-05
-0.000955832 -8.73329e-05 -0.00568034
-0.00794974 0.00160067 -0.000289238
0.00160067 0.00674041 -0.000117041
-0.000289238 -0.000117041 -0.00174031
-0.000171099 9.01597e-05 1.36305e-05
9.01597e-05 -0.000285783 -3.11668e-05
1.36305e-05 -3.11668e-05 -0.000751775
0.000605931 0.000557654 -6.74453e-06
0.000557654 9.25859e-05 -6.52263e-06
-6.74453e-06 -6.52263e-06 -0.000388192
0.00246766 0.000859474 -1.28944e-05
0.000859474 0.00136797 -5.61112e-06
-1.28944e-05 -5.61112e-06 0.000781183
0.00122397 0.000854896 5.28465e-07
0.000854896 0.000333367 -4.92637e-07
5.28465e-07 -4.92637e-07 -0.000268207
0.00185533 0.000960495 2.08542e-05
0.000960495 0.000429102 2.45586e-05
2.08542e-05 2.45586e-05 -0.000124046
-0.000300874 0.000791759 3.52928e-05
0.000791759 -0.000655584 1.12988e-05
3.52928e-05 1.12988e-05 -0.00113851
0.00194696 0.000732436 -1.21781e-05
0.000732436 0.00109522 1.4967e-06
-1.21781e-05 1.4967e-06 0.000551942
0.000753495 0.00100185 8.95909e-06
0.00100185 -9.23338e-05 4.54388e-06
8.95909e-06 4.54388e-06 -0.000580794
0.00209092 0.00110126 2.74806e-05
0.00110126 0.000744088 3.37095e-06
2.74806e-05 3.37095e-06 0.000358058
0.00166225 0.00102921 9.16726e-06
0.00102921 0.000334261 6.79738e-07
9.16726e-06 6.79738e-07 -0.000117654
0.00210809 0.00121931 9.48126e-06
0.00121931 0.000365718 5.46549e-06
9.48126e-06 5.46549e-06 0.000125674
0.0024654 0.0014058 2.43793e-05
0.0014058 0.000577536 1.07529e-05
2.43793e-05 1.07529e-05 8.47648e-05
0.00123293 0.00125028 1.18364e-05
0.00125028 -0.000101497 -1.98959e-06
1.18364e-05 -1.98959e-06 -0.000336512
0.00239573 0.000949243 -3.09222e-05
0.000949243 0.00105742 -8.58757e-05
-3.09222e-05 -8.58757e-05 0.000693222
0.00390769 0.0027166 3.27267e-05
0.0027166 -0.00375577 5.43926e-05
3.27267e-05 5.43926e-05 -0.00068271
0.0134944 0.00549028 0.000403724
0.00549028 -0.00150047 0.000238815
0.000403724 0.000238815 -0.00216218
0.0166763 -0.00729345 0.00104124
-0.00729345 0.00831197 -0.000130218
0.00104124 -0.000130218 0.00189305
0.0066991 0.00888664 0.000973509
0.00888664 -0.00172422 0.000450836
0.000973509 0.000450836 -0.00505261
-0.000940883 0.00204032 -3.68787e-05
0.00204032 3.8728e-05 2.72007e-05
-3.68787e-05 2.72007e-05 0.000666843
0.00353896 0.00343202 -9.27314e-05
0.00343202 -0.00134324 -6.46736e-05
-9.27314e-05 -6.46736e-05 0.000454752
0.00703507 0.00311096 5.17687e-05
0.00311096 0.00102763 3.18803e-05
5.17687e-05 3.18803e-05 0.000844412
0.00590139 0.00239651 2.49014e-05
0.00239651 0.00203839 1.24945e-05
2.49014e-05 1.24945e-05 0.00143577
0.00083529 0.00113793 -4.22625e-05
0.00113793 2.97145e-05 5.692e-06
-4.22625e-05 5.692e-06 -0.000309916
0.00939843 0.0038525 -0.000218469
0.0038525 0.00289608 -7.76485e-06
-0.000218469 -7.76485e-06 0.00174958
0.00517065 -0.00103934 -4.969e-06
-0.00103934 -0.00165834 3.50774e-05
-4.969e-06 3.50774e-05 0.000314788
0.012196 -0.000605763 -6.87751e-05
-0.000605763 -0.000670431 -4.67732e-05
-6.87751e-05 -4.67732e-05 0.000265779
-0.0125555 -0.00432172 0.00129469
-0.00432172 -0.00321886 -2.09558e-05
0.00129469 -2.09558e-05 -0.00687648
0.00159007 -0.00202116 -0.000146625
-0.00202116 -0.000358973 4.57539e-05
-0.000146625 4.57539e-05 -0.000597642
0.00814598 -0.00385062 -7.65115e-05
-0.00385062 -0.00181244 0.000124917
-7.65115e-05 0.000124917 0.000417636
0.00236689 -0.00046403 -0.000448803
-0.00046403 -0.00744539 1.8737e-05
-0.000448803 1.8737e-05 -0.00761521
0.00360486 -0.00165696 4.46449e-05
-0.00165696 -0.000258158 -9.96879e-08
4.46449e-05 -9.96879e-08 0.000174738
0.00517041 -0.00132202 -8.25325e-05
-0.00132202 -0.00188346 -1.99917e-06
-8.25325e-05 -1.99917e-06 0.000122364
0.00728754 -0.00133011 6.98603e-05
-0.00133011 0.00171471 -4.61397e-05
6.98603e-05 -4.61397e-05 0.00226483
0.00641972 -0.000818879 0.000141459
-0.000818879 0.000746656 3.86101e-06
0.000141459 3.86101e-06 0.00168541
-0.00157934 -0.000726974 1.07308e-05
-0.000726974 -0.00224299 1.26304e-05
1.07308e-05 1.26304e-05 -0.00197937
0.00225598 -0.000881109 -9.10043e-06
-0.000881109 -0.000325281 3.55038e-06
-9.10043e-06 3.55038e-06 -8.75998e-05
0.00251732 -0.000656424 2.70477e-05
-0.000656424 -0.000377225 -8.38289e-06
2.70477e-05 -8.38289e-06 -9.76037e-06
0.00231471 -0.00104078 -5.32246e-06
-0.00104078 -5.77557e-05 2.79194e-06
-5.32246e-06 2.79194e-06 -0.000283217
0.00272333 -0.00082283 9.50773e-07
-0.00082283 -1.36664e-05 1.42468e-06
9.50773e-07 1.42468e-06 -2.52776e-06
0.00271365 -0.000707002 6.49219e-07
-0.000707002 -7.76205e-06 -7.25651e-07
6.49219e-07 -7.25651e-07 2.11589e-05
0.00231754 -0.000726398 1.03508e-06
-0.000726398 -7.44951e-05 3.4393e-06
1.03508e-06 3.4393e-06 -0.000161027
0.00251496 -0.00072437 1.35086e-07
-0.00072437 3.2568e-05 4.35262e-07
1.35086e-07 4.35262e-07 6.3396e-06
0.00247737 -0.000622886 -1.51195e-06
-0.000622886 6.39994e-06 -6.55371e-07
-1.51195e-06 -6.55371e-07 -2.56369e-05
0.00232469 -0.000685664 1.02994e-06
-0.000685664 6.87733e-05 4.87108e-07
1.02994e-06 4.87108e-07 -5.02564e-05
0.0025079 -0.000713179 -1.47661e-07
-0.000713179 0.000141731 -1.01763e-07
-1.47661e-07 -1.01763e-07 4.39583e-05
0.00239255 -0.000619913 8.08624e-07
-0.000619913 0.000120418 1.17638e-07
8.08624e-07 1.17638e-07 2.00864e-05
0.00228222 -0.000682351 -2.75139e-06
-0.000682351 0.000104839 -2.74413e-08
-2.75139e-06 -2.74413e-08 -3.69391e-05
0.00224898 -0.000638663 -1.57597e-06
-0.000638663 0.000147248 4.87123e-08
-1.57597e-06 4.87123e-08 -1.68036e-05
0.00236376 -0.000614255 -2.54642e-06
-0.000614255 0.000282767 6.27652e-07
-2.54642e-06 6.27652e-07 8.4394e-05
0.00234141 -0.000612075 3.3235e-06
-0.000612075 0.000298284 1.27902e-06
3.3235e-06 1.27902e-06 8.17776e-05
0.0022471 -0.000622657 -2.07742e-07
-0.000622657 0.000257436 1.07777e-07
-2.07742e-07 1.07777e-07 1.89623e-05
0.00228823 -0.000625185 -9.27736e-07
-0.000625185 0.000309973 -2.26614e-06
-9.27736e-07 -2.26614e-06 4.5908e-05
0.00203867 -0.000623309 -5.55632e-06
-0.000623309 0.000280232 -3.40537e-06
-5.55632e-06 -3.40537e-06 -6.11152e-05
0.00222763 -0.000679207 -4.16289e-07
-0.000679207 0.000292716 -1.68828e-06
-4.16289e-07 -1.68828e-06 -2.99224e-05
0.00242486 -0.000703526 4.73764e-06
-0.000703526 0.000356228 3.66682e-06
4.73764e-06 3.66682e-06 5.48911e-05
0.00125567 -0.000468277 -2.28278e-05
-0.000468277 8.92907e-05 7.13678e-06
-2.28278e-05 7.13678e-06 -0.000248553
0.00206711 -0.000748536 -1.35089e-06
-0.000748536 0.000390986 4.34969e-07
-1.35089e-06 4.34969e-07 -4.83169e-05
0.0020981 -0.000815672 3.76461e-07
-0.000815672 0.000281536 4.24287e-06
3.76461e-07 4.24287e-06 -0.000155101
0.000392302 -0.0002498 -2.07908e-05
-0.0002498 -0.000161826 2.48613e-05
-2.07908e-05 2.48613e-05 -0.000333404
0.000868439 -0.000396503 4.63368e-06
-0.000396503 -1.49761e-05 5.45054e-07
4.63368e-06 5.45054e-07 -0.000341191
0.0019834 -0.000790044 6.99461e-06
-0.000790044 0.000525904 2.83512e-06
6.99461e-06 2.83512e-06 3.04607e-05
0.00749433 1.12665e-05 -0.000295194
1.12665e-05 0.00452827 2.36048e-05
-0.000295194 2.36048e-05 0.00453776
0.000283906 -0.000243208 -6.97169e-07
-0.000243208 -0.000193412 4.40596e-08
-6.97169e-07 4.40596e-08 -0.000358697
0.000259693 -0.000308412 7.28274e-06
-0.000308412 -0.000261257 -6.7218e-06
7.28274e-06 -6.7218e-06 -0.000557627
0.00682289 7.13392e-05 -1.11804e-05
7.13392e-05 0.00413623 -2.38497e-06
-1.11804e-05 -2.38497e-06 0.00413205
0.000530412 -0.000231959 2.39378e-05
-0.000231959 -3.42038e-05 -2.12029e-05
2.39378e-05 -2.12029e-05 -0.000168207
0.00619075 0.00014611 0.000210724
0.00014611 0.00377493 -2.89136e-05
0.000210724 -2.89136e-05 0.00375127
0.00212792 0.00090181 -9.01255e-06
0.00090181 0.000629636 1.1213e-05
-9.01255e-06 1.1213e-05 8.9395e-05
0.00205087 0.00083785 -1.46055e-06
0.00083785 0.000783753 -4.40466e-07
-1.46055e-06 -4.40466e-07 0.000233926
0.00122017 0.000560211 -4.28625e-06
0.000560211 0.00031631 4.80543e-06
-4.28625e-06 4.80543e-06 -0.00010636
0.000580537 0.00045658 1.67554e-06
0.00045658 -3.2815e-05 -3.70097e-06
1.67554e-06 -3.70097e-06 -0.000408376
0.000776854 0.000279427 -2.54886e-06
0.000279427 0.000122308 -2.69763e-06
-2.54886e-06 -2.69763e-06 -0.000149878
0.000178252 0.000218715 -4.33138e-06
0.000218715 -0.000221196 -2.73771e-06
-4.33138e-06 -2.73771e-06 -0.000486444
0.0012225 0.000169975 -3.86309e-07
0.000169975 0.0004726 -1.82315e-06
-3.86309e-07 -1.82315e-06 0.000240988
0.000869364 0.000189165 2.07671e-06
0.000189165 0.000289868 -1.18259e-06
2.07671e-06 -1.18259e-06 2.83029e-05
0.00058629 0.000160064 -2.74912e-05
0.000160064 4.08641e-05 -2.04515e-05
-2.74912e-05 -2.04515e-05 -6.8803e-05
0.000124701 0.000132672 -1.20957e-06
0.000132672 -0.000126157 1.43627e-05
-1.20957e-06 1.43627e-05 -0.00037621
0.000477849 0.000109093 -8.26976e-07
0.000109093 1.51825e-05 -3.88624e-07
-8.26976e-07 -3.88624e-07 -7.41023e-05
0.0045921 -0.000136864 -0.000137012
-0.000136864 0.00272423 -1.76444e-05
-0.000137012 -1.76444e-05 0.00271276
0.00375612 -0.000139543 -1.4001e-05
-0.000139543 0.00216933 1.39626e-06
-1.4001e-05 1.39626e-06 0.00216028
0.000239324 8.67416e-05 1.21611e-05
8.67416e-05 -0.000121893 1.77027e-05
1.21611e-05 1.77027e-05 -0.000187954
0.00321378 -0.000120522 4.73535e-05
-0.000120522 0.00180347 7.20312e-06
4.73535e-05 7.20312e-06 0.00179909
0.00224696 0.000465373 0.000121815
0.000465373 -0.00257294 3.24584e-05
0.000121815 3.24584e-05 -0.00028004
0.00576706 -0.000586703 0.000267838
-0.000586703 -0.00603661 0.000152005
0.000267838 0.000152005 -0.00661908
0.0165173 -0.00556759 -0.000331561
-0.00556759 0.00864093 -0.000134332
-0.000331561 -0.000134332 0.00375203
0.00181137 0.00084844 1.05772e-05
0.00084844 0.000170641 1.22256e-05
1.05772e-05 1.22256e-05 -0.000264048
0.00499722 0.00111804 -1.60028e-05
0.00111804 0.0027544 -1.2109e-05
-1.60028e-05 -1.2109e-05 0.00215733
0.000220548 0.000711982 -1.14418e-05
0.000711982 -0.00027095 -1.54736e-05
-1.14418e-05 -1.54736e-05 -0.000834559
0.00181492 0.00106745 4.68637e-07
0.00106745 0.000616326 -1.97737e-07
4.68637e-07 -1.97737e-07 5.71028e-05
0.00208198 0.000989847 -2.10691e-07
0.000989847 0.000593077 4.91939e-06
-2.10691e-07 4.91939e-06 2.67107e-05
0.00229012 0.00110649 3.01358e-05
0.00110649 0.000637388 1.83278e-05
3.01358e-05 1.83278e-05 0.00012439
0.00206572 0.00113777 -3.81657e-05
0.00113777 0.000701544 -9.36452e-07
-3.81657e-05 -9.36452e-07 0.000154106
0.00129468 0.00094919 3.39444e-06
0.00094919 0.000348877 -3.50221e-05
3.39444e-06 -3.50221e-05 -3.87188e-05
0.00205935 0.00119147 8.54429e-07
0.00119147 0.000499965 -1.20716e-06
8.54429e-07 -1.20716e-06 3.09244e-05
0.00139609 0.00113791 1.58388e-05
0.00113791 -4.61815e-05 -3.30775e-05
1.58388e-05 -3.30775e-05 -0.000200344
0.0021304 0.00115075 2.68541e-05
0.00115075 0.000318123 -2.56105e-06
2.68541e-05 -2.56105e-06 -0.000172155
0.00226802 0.00101257 3.60143e-05
0.00101257 0.000360102 3.86741e-05
3.60143e-05 3.86741e-05 0.000150288
0.00116866 0.00119122 -1.04596e-05
0.00119122 -0.000104563 -8.91114e-06
-1.04596e-05 -8.91114e-06 -0.000492981
0.00152688 0.00123508 -3.88014e-05
0.00123508 0.000118604 -1.21124e-05
-3.88014e-05 -1.21124e-05 -0.000118383
0.00267872 0.00129196 4.61116e-05
0.00129196 -0.00123795 4.24172e-05
4.61116e-05 4.24172e-05 -0.000258616
0.00629607 0.00296873 -0.000117953
0.00296873 -0.0025267 -4.46924e-05
-0.000117953 -4.46924e-05 0.000364406
0.00474911 0.00395453 0.000816846
0.00395453 -0.00715229 0.000236173
0.000816846 0.000236173 -0.00759279
0.00353161 0.00307328 -0.000297132
0.00307328 -0.000205797 -0.000132869
-0.000297132 -0.000132869 0.00104834
0.00566442 0.00257805 -3.35677e-05
0.00257805 0.000820067 -9.65846e-06
-3.35677e-05 -9.65846e-06 0.000769984
0.0071668 0.00263933 -0.000211036
0.00263933 0.0025317 -5.62513e-05
-0.000211036 -5.62513e-05 0.00187232
0.00334291 -0.000240242 -4.82434e-05
-0.000240242 -0.000880021 -2.43647e-05
-4.82434e-05 -2.43647e-05 -0.000193645
-0.000123864 -0.000688321 0.000138605
-0.000688321 -0.00235889 3.57904e-05
0.000138605 3.57904e-05 -0.000389997
0.0069407 0.000272124 0.00031476
0.000272124 -0.00609684 -1.18891e-05
0.00031476 -1.18891e-05 -0.0063059
0.00172384 -0.00135125 -7.64668e-05
-0.00135125 -0.00115784 9.46831e-05
-7.64668e-05 9.46831e-05 -0.00051771
0.00664761 -0.0013869 -0.000222245
-0.0013869 -0.00125155 6.13723e-05
-0.000222245 6.13723e-05 0.000317113
0.00330797 -0.00102425 -3.08071e-05
-0.00102425 -0.000627039 1.21441e-05
-3.08071e-05 1.21441e-05 0.000148675
0.00461321 -0.000745556 -2.60366e-05
-0.000745556 -0.000106121 3.96584e-08
-2.60366e-05 3.96584e-08 0.000649446
0.00462893 -0.000545531 9.96415e-05
-0.000545531 0.000848306 -1.78225e-05
9.96415e-05 -1.78225e-05 0.00121774
0.00279623 -0.000113606 4.64084e-05
-0.000113606 6.81887e-05 1.37818e-06
4.64084e-05 1.37818e-06 0.000243664
0.000618181 -0.000699801 -1.94193e-05
-0.000699801 -0.00121715 1.19213e-05
-1.94193e-05 1.19213e-05 -0.000848711
0.00256028 -0.00068747 -3.10674e-06
-0.00068747 -0.000330627 6.62664e-07
-3.10674e-06 6.62664e-07 -1.18584e-05
0.00265713 -0.000525678 3.15867e-06
-0.000525678 -0.000259842 -1.49304e-06
3.15867e-06 -1.49304e-06 1.47173e-05
0.0026418 -0.000808766 -3.74063e-06
-0.000808766 -4.70906e-05 2.60909e-06
-3.74063e-06 2.60909e-06 -3.14742e-05
0.00270598 -0.000682479 -1.49733e-07
-0.000682479 1.9788e-05 -5.35396e-07
-1.49733e-07 -5.35396e-07 6.063e-05
0.00251439 -0.000513723 -1.5031e-06
-0.000513723 -9.30674e-05 -6.31016e-07
-1.5031e-06 -6.31016e-07 -2.5276e-05
0.00247934 -0.000718509 -1.04119e-06
-0.000718509 2.75773e-05 4.54161e-07
-1.04119e-06 4.54161e-07 -7.07385e-06
0.00247641 -0.000625709 -6.43356e-07
-0.000625709 2.00557e-05 -1.04478e-08
-6.43356e-07 -1.04478e-08 -9.46284e-06
0.00237019 -0.000519503 -7.99083e-08
-0.000519503 3.99804e-05 -3.89053e-07
-7.99083e-08 -3.89053e-07 -5.27552e-06
0.00250276 -0.000709179 -4.30121e-07
-0.000709179 0.000167993 -7.02805e-07
-4.30121e-07 -7.02805e-07 6.4223e-05
0.0023901 -0.000620983 1.03547e-06
-0.000620983 0.000116671 -7.38955e-08
1.03547e-06 -7.38955e-08 1.59823e-05
0.00229146 -0.000554214 -1.25429e-06
-0.000554214 0.000146233 5.23702e-07
-1.25429e-06 5.23702e-07 1.47292e-05
0.00219956 -0.000636484 -1.723e-06
-0.000636484 0.000112287 2.92769e-07
-1.723e-06 2.92769e-07 -4.80095e-05
0.00227627 -0.000608604 -1.19446e-06
-0.000608604 0.000218328 5.37317e-07
-1.19446e-06 5.37317e-07 2.27269e-05
0.00236896 -0.000595306 -1.51043e-06
-0.000595306 0.000314106 -1.62419e-06
-1.51043e-06 -1.62419e-06 9.26403e-05
0.0022779 -0.000620988 2.91666e-06
-0.000620988 0.000273241 1.97641e-06
2.91666e-06 1.97641e-06 3.57599e-05
0.00227121 -0.000624817 -2.32972e-07
-0.000624817 0.000297645 9.75854e-08
-2.32972e-07 9.75854e-08 3.61262e-05
0.00216439 -0.000566757 -4.34047e-06
-0.000566757 0.000325065 -1.4107e-06
-4.34047e-06 -1.4107e-06 3.43541e-05
0.00133355 -0.000430867 -1.99468e-05
-0.000430867 4.72179e-05 6.94716e-06
-1.99468e-05 6.94716e-06 -0.000253368
0.00201664 -0.000621743 -4.23448e-07
-0.000621743 0.000270219 -1.25283e-06
-4.23448e-07 -1.25283e-06 -7.58801e-05
0.00212042 -0.00067699 1.34795e-06
-0.00067699 0.000219485 2.76637e-06
1.34795e-06 2.76637e-06 -0.000110639
0.000163234 -0.000257664 -2.16855e-05
-0.000257664 -0.000317766 2.14437e-05
-2.16855e-05 2.14437e-05 -0.00049811
0.00126458 -0.000464538 1.16087e-06
-0.000464538 0.000102356 -9.40657e-08
1.16087e-06 -9.40657e-08 -0.000233556
0.00221286 -0.000756685 5.15042e-06
-0.000756685 0.000495277 2.99761e-06
5.15042e-06 2.99761e-06 5.63522e-05
0.00831722 -3.91525e-05 -0.000344295
-3.91525e-05 0.00502183 3.03159e-05
-0.000344295 3.03159e-05 0.00503647
0.000191621 -0.00028229 3.14654e-07
-0.00028229 -0.000276537 2.20831e-06
3.14654e-07 2.20831e-06 -0.000460273
0.000591796 -0.000390006 1.73638e-05
-0.000390006 -0.000193375 -5.64472e-06
1.73638e-05 -5.64472e-06 -0.000523897
0.00781808 -6.90879e-06 -9.29279e-06
-6.90879e-06 0.00473583 7.74098e-07
-9.29279e-06 7.74098e-07 0.00474406
0.000446066 -0.000286 2.2787e-05
-0.000286 -8.95824e-05 -2.63547e-05
2.2787e-05 -2.63547e-05 -0.000260742
0.00711192 6.03129e-05 0.000282045
6.03129e-05 0.00432963 -3.53149e-05
0.000282045 -3.53149e-05 0.00432324
0.00183198 0.000786845 -3.88997e-06
0.000786845 0.000249957 1.09932e-05
-3.88997e-06 1.09932e-05 -0.000191802
0.002031 0.000888007 -1.87654e-06
0.000888007 0.000566807 1.00849e-06
-1.87654e-06 1.00849e-06 2.99344e-05
0.00162834 0.000692881 -7.77658e-06
0.000692881 0.000363143 6.68784e-06
-7.77658e-06 6.68784e-06 -0.0001011
0.000821001 0.000677871 -4.72472e-06
0.000677871 -2.43007e-05 -7.18116e-06
-4.72472e-06 -7.18116e-06 -0.000525444
0.00159226 0.000561497 -3.60413e-06
0.000561497 0.000501611 -1.87406e-06
-3.60413e-06 -1.87406e-06 8.67597e-05
0.000570386 0.000293019 -1.27085e-05
0.000293019 -3.33565e-05 -2.1798e-06
-1.27085e-05 -2.1798e-06 -0.000318468
0.00117326 0.000274706 -1.4156e-06
0.000274706 0.000326679 -7.04341e-06
-1.4156e-06 -7.04341e-06 5.77345e-05
0.000509976 0.000249859 3.11812e-06
0.000249859 -3.88869e-05 -8.79013e-07
3.11812e-06 -8.79013e-07 -0.00027919
0.000368896 0.000206737 -3.19801e-05
0.000206737 -0.000137536 -2.06059e-05
-3.19801e-05 -2.06059e-05 -0.000251902
0.000850803 0.000190767 2.04231e-06
0.000190767 0.000261243 8.13775e-06
2.04231e-06 8.13775e-06 8.17431e-06
0.000610863 0.000150193 -8.49559e-07
0.000150193 6.31743e-05 -6.2356e-07
-8.49559e-07 -6.2356e-07 -4.18744e-05
0.00584673 -0.000175402 -0.000183413
-0.000175402 0.00355827 -2.34832e-05
-0.000183413 -2.34832e-05 0.00353228
0.000242224 0.000107673 1.74078e-05
0.000107673 -0.000128607 2.0407e-05
1.74078e-05 2.0407e-05 -0.000214595
0.00435248 -0.000169719 -1.48515e-05
-0.000169719 0.0025783 1.74964e-06
-1.48515e-05 1.74964e-06 0.00255804
0.00360381 -0.000152482 6.06909e-05
-0.000152482 0.00207217 8.81954e-06
6.06909e-05 8.81954e-06 0.00205879
0.000940236 0.000395834 1.28662e-05
0.000395834 -0.00231197 1.36273e-05
1.28662e-05 1.36273e-05 -0.00106267
0.00513143 0.000343232 7.41198e-05
0.000343232 -0.00163212 3.22627e-05
7.41198e-05 3.22627e-05 0.000657035
0.0170782 0.000869219 3.28034e-05
0.000869219 0.00108946 9.62657e-05
3.28034e-05 9.62657e-05 0.00197958
0.00232577 0.000984455 3.64409e-06
0.000984455 0.000422788 7.01289e-06
3.64409e-06 7.01289e-06 -1.39402e-05
0.00233311 0.000889545 1.20125e-06
0.000889545 0.000278278 6.48472e-06
1.20125e-06 6.48472e-06 -8.83887e-05
0.00179724 0.000849691 -7.04085e-07
0.000849691 0.000169109 -4.69483e-06
-7.04085e-07 -4.69483e-06 -0.000261525
0.00343432 0.00127835 -1.87976e-05
0.00127835 0.00157958 -1.92652e-06
-1.87976e-05 -1.92652e-06 0.000966932
0.00225259 0.00100844 -1.31696e-05
0.00100844 0.000724474 -1.3383e-05
-1.31696e-05 -1.3383e-05 0.000148333
0.00230179 0.00114577 6.76228e-06
0.00114577 0.000592966 3.03823e-06
6.76228e-06 3.03823e-06 7.83524e-05
0.00252289 0.00111139 -4.91644e-06
0.00111139 0.000280805 -3.7831e-07
-4.91644e-06 -3.7831e-07 -0.000107355
0.00197709 0.00125 -1.21258e-05
0.00125 0.00037647 -3.03825e-06
-1.21258e-05 -3.03825e-06 -9.57327e-05
0.000761611 0.0010939 -3.46283e-05
0.0010939 -0.000419867 9.14558e-05
-3.46283e-05 9.14558e-05 -0.00053964
0.00300058 0.00128054 7.72899e-07
0.00128054 0.000789957 -4.05442e-06
7.72899e-07 -4.05442e-06 0.000271467
0.00308001 0.00107949 -1.91714e-06
0.00107949 0.000464666 1.35239e-05
-1.91714e-06 1.35239e-05 0.000226112
0.00198001 0.000515986 6.04078e-05
0.000515986 -2.74511e-05 1.08482e-05
6.04078e-05 1.08482e-05 0.000142345
0.000397953 0.000815314 6.92838e-06
0.000815314 -0.000614285 -1.04213e-05
6.92838e-06 -1.04213e-05 -0.000798605
0.000728473 0.00111336 -4.5286e-05
0.00111336 -0.000327979 -6.32842e-06
-4.5286e-05 -6.32842e-06 -0.000695323
0.00390354 0.00142903 2.72636e-05
0.00142903 -0.000547052 1.33764e-05
2.72636e-05 1.33764e-05 0.000290651
0.00970627 0.00294149 -7.75567e-05
0.00294149 -0.00066253 -5.71741e-05
-7.75567e-05 -5.71741e-05 0.00157297
0.0055686 0.0021839 -7.67775e-05
0.0021839 0.00127984 -8.99861e-05
-7.67775e-05 -8.99861e-05 0.00132044
0.0031776 -6.39009e-05 6.77817e-05
-6.39009e-05 0.000258941 8.123e-06
6.77817e-05 8.123e-06 0.0005619
0.00356812 -0.000264834 -9.70545e-05
-0.000264834 -0.000821787 8.8978e-06
-9.70545e-05 8.8978e-06 7.09839e-05
0.00555703 0.000542696 -8.25419e-06
0.000542696 -0.000131917 -1.78872e-05
-8.25419e-06 -1.78872e-05 0.0012707
0.000794082 -0.000878743 -9.43548e-05
-0.000878743 -0.00212552 7.13897e-05
-9.43548e-05 7.13897e-05 -0.00122484
0.00290242 -0.000747467 -0.000108253
-0.000747467 -0.00091525 8.08231e-06
-0.000108253 8.08231e-06 -0.000323352
0.00321871 -0.000491415 8.37871e-07
-0.000491415 -5.43488e-05 -4.58789e-06
8.37871e-07 -4.58789e-06 0.000467255
0.00242804 -0.000108708 -1.46695e-05
-0.000108708 -0.000175303 -1.26232e-06
-1.46695e-05 -1.26232e-06 3.23876e-05
0.0026176 -0.000305773 9.15178e-06
-0.000305773 -0.000267893 1.68267e-07
9.15178e-06 1.68267e-07 1.21472e-05
0.00236515 7.49527e-05 3.9823e-06
7.49527e-05 -0.000410473 2.46718e-07
3.9823e-06 2.46718e-07 -0.000218924
0.00263596 -0.000726506 -2.05949e-05
-0.000726506 -0.000282529 6.0669e-06
-2.05949e-05 6.0669e-06 -6.07862e-06
0.00271192 -0.000552932 -2.89339e-06
-0.000552932 -0.000236699 6.95825e-07
-2.89339e-06 6.95825e-07 -2.19228e-06
0.00258404 -0.000375314 -9.37141e-07
-0.000375314 -0.000167449 -5.40444e-07
-9.37141e-07 -5.40444e-07 6.44821e-06
0.00270063 -0.000658922 -3.40626e-06
-0.000658922 4.39877e-05 8.92085e-07
-3.40626e-06 8.92085e-07 9.78759e-05
0.00253363 -0.000515622 2.92813e-07
-0.000515622 -6.95997e-05 -2.01463e-07
2.92813e-07 -2.01463e-07 -8.30906e-06
0.00240092 -0.00041924 4.86893e-07
-0.00041924 -4.40834e-05 -3.46576e-07
4.86893e-07 -3.46576e-07 -7.29857e-06
0.00247513 -0.000628962 -9.58394e-07
-0.000628962 3.22756e-05 2.92389e-07
-9.58394e-07 2.92389e-07 5.23978e-06
0.0023836 -0.000518733 3.76268e-07
-0.000518733 4.29216e-05 -9.33113e-08
3.76268e-07 -9.33113e-08 -2.25899e-06
0.00228857 -0.000462755 -1.51455e-06
-0.000462755 7.37709e-05 3.69559e-07
-1.51455e-06 3.69559e-07 4.69639e-06
0.00238862 -0.000622434 1.833e-06
-0.000622434 0.000113191 -3.34702e-07
1.833e-06 -3.34702e-07 1.20952e-05
0.00227353 -0.000553942 6.90061e-07
-0.000553942 0.000128912 -2.49617e-07
6.90061e-07 -2.49617e-07 -2.60746e-06
0.00226721 -0.000523799 -2.56319e-06
-0.000523799 0.000194999 -1.9813e-07
-2.56319e-06 -1.9813e-07 1.90627e-05
0.00219053 -0.000603269 2.87971e-07
-0.000603269 0.000154735 1.77915e-07
2.87971e-07 1.77915e-07 -3.79909e-05
0.00227074 -0.000590013 -1.54306e-08
-0.000590013 0.000249087 -2.52481e-07
-1.54306e-08 -2.52481e-07 2.76501e-05
0.00212019 -0.000527317 -3.55322e-06
-0.000527317 0.000236069 -1.15709e-06
-3.55322e-06 -1.15709e-06 -1.80074e-05
0.0022557 -0.000624508 9.84571e-07
-0.000624508 0.000286639 3.27848e-06
9.84571e-07 3.27848e-06 2.76574e-05
0.00217664 -0.000570481 -6.96813e-07
-0.000570481 0.000333354 -7.46307e-08
-6.96813e-07 -7.46307e-08 4.38381e-05
0.00136369 -0.00037408 -1.55558e-05
-0.00037408 3.98941e-05 6.33574e-06
-1.55558e-05 6.33574e-06 -0.000221874
0.000320065 -0.000245914 -1.92556e-05
-0.000245914 -0.000249948 2.0385e-05
-1.92556e-05 2.0385e-05 -0.000421275
0.00136455 -0.000430911 5.27536e-08
-0.000430911 7.16762e-05 1.2224e-07
5.27536e-08 1.2224e-07 -0.000227551
0.00199401 -0.000619908 4.10994e-06
-0.000619908 0.000260319 9.28632e-07
4.10994e-06 9.28632e-07 -9.04548e-05
0.00843028 -0.000134271 -0.000391342
-0.000134271 0.00507198 3.60486e-05
-0.000391342 3.60486e-05 0.00509635
0.000317395 -0.000269924 -1.3219e-06
-0.000269924 -0.000230433 1.12658e-06
-1.3219e-06 1.12658e-06 -0.000408724
0.00109778 -0.000447358 2.09795e-05
-0.000447358 1.17264e-05 -6.37191e-06
2.09795e-05 -6.37191e-06 -0.000320721
0.00843126 -8.05866e-05 3.09469e-07
-8.05866e-05 0.00509329 1.51737e-06
3.09469e-07 1.51737e-06 0.00511081
0.000217826 -0.000295224 2.63181e-05
-0.000295224 -0.000263439 -2.44273e-05
2.63181e-05 -2.44273e-05 -0.000448822
0.00822502 -5.28011e-05 0.00035699
-5.28011e-05 0.00498662 -3.7726e-05
0.00035699 -3.7726e-05 0.0049988
0.00208092 0.000812826 1.52108e-06
0.000812826 0.000240422 1.06426e-05
1.52108e-06 1.06426e-05 -0.000145699
0.00193498 0.000804944 1.08719e-06
0.000804944 0.000323767 6.3225e-08
1.08719e-06 6.3225e-08 -0.000119517
0.00209246 0.000742886 -4.80944e-06
0.000742886 0.000490389 7.62428e-06
-4.80944e-06 7.62428e-06 5.11913e-05
0.00191787 0.000868002 5.97228e-06
0.000868002 0.000503867 -8.38068e-06
5.97228e-06 -8.38068e-06 -2.77334e-05
0.00167786 0.000697195 -3.56026e-07
0.000697195 0.000394351 1.21949e-06
-3.56026e-07 1.21949e-06 -7.24778e-05
0.000844225 0.000354415 -2.09311e-05
0.000354415 -8.44732e-07 -2.68209e-06
-2.09311e-05 -2.68209e-06 -0.000300721
0.00191703 0.00055668 -5.77745e-07
0.00055668 0.000664506 -3.34482e-06
-5.77745e-07 -3.34482e-06 0.000258158
0.000570075 0.000256162 1.05679e-06
0.000256162 -4.72755e-05 -3.6709e-08
1.05679e-06 -3.6709e-08 -0.000315059
0.000546334 0.000269288 -3.31119e-05
0.000269288 -3.87743e-05 -2.50349e-05
-3.31119e-05 -2.50349e-05 -0.000180838
0.00116664 0.000184925 2.73847e-06
0.000184925 0.000381794 2.9129e-06
2.73847e-06 2.9129e-06 0.000140647
0.000408423 0.000193405 2.8913e-06
0.000193405 -0.00010901 -1.17976e-06
2.8913e-06 -1.17976e-06 -0.00022259
0.00676813 -0.000173545 -0.00022575
-0.000173545 0.00414924 -2.9275e-05
-0.00022575 -2.9275e-05 0.00411905
0.000315889 0.000146283 2.39322e-05
0.000146283 -0.000116526 2.17908e-05
2.39322e-05 2.17908e-05 -0.000219239
0.0053239 -0.000194691 -1.17839e-05
-0.000194691 0.00322006 7.19814e-07
-1.17839e-05 7.19814e-07 0.00319027
0.00422726 -0.000190393 8.47547e-05
-0.000190393 0.00249995 1.24581e-05
8.47547e-05 1.24581e-05 0.00247469
0.00176518 0.000309624 4.79815e-05
0.000309624 -0.000427599 1.74987e-05
4.79815e-05 1.74987e-05 -2.61013e-05
0.0022103 0.000469827 -1.47406e-05
0.000469827 -0.00197177 -5.86344e-06
-1.47406e-05 -5.86344e-06 -0.000671739
0.00524942 0.000844581 0.000275501
0.000844581 -0.00180291 0.00010011
0.000275501 0.00010011 0.000841171
0.0027111 0.000948635 -8.99326e-06
0.000948635 0.000434055 3.40372e-07
-8.99326e-06 3.40372e-07 9.04989e-05
0.00223734 0.000996722 -8.81134e-06
0.000996722 0.000352049 -5.28222e-06
-8.81134e-06 -5.28222e-06 -8.35454e-05
0.00244254 0.000717716 3.31889e-06
0.000717716 0.000227688 4.5731e-06
3.31889e-06 4.5731e-06 -1.48544e-05
0.00245779 0.000891121 1.46959e-06
0.000891121 0.000360322 4.50313e-07
1.46959e-06 4.50313e-07 -1.41539e-06
0.00179421 0.000850411 -2.76442e-06
0.000850411 0.000177017 -1.5499e-05
-2.76442e-06 -1.5499e-05 -0.000249418
0.00275684 0.000854129 -6.5627e-06
0.000854129 0.000197811 1.29539e-06
-6.5627e-06 1.29539e-06 1.10419e-05
0.00267716 0.00123103 -1.01527e-05
0.00123103 0.000763843 -8.06522e-06
-1.01527e-05 -8.06522e-06 0.000232741
0.00277585 0.00110059 -1.1029e-06
0.00110059 0.000455934 -9.28417e-07
-1.1029e-06 -9.28417e-07 6.73642e-05
0.00231657 0.000527664 -1.60096e-05
0.000527664 -0.000267175 7.66712e-07
-1.60096e-05 7.66712e-07 -0.000158518
0.00300634 0.00132865 -1.27522e-05
0.00132865 0.00072366 1.75044e-05
-1.27522e-05 1.75044e-05 0.000249625
0.00270754 0.00103787 8.48932e-07
0.00103787 0.0002571 -2.23508e-06
8.48932e-07 -2.23508e-06 2.06861e-05
0.000538881 0.000485589 -1.34319e-05
0.000485589 -0.000943324 9.56515e-07
-1.34319e-05 9.56515e-07 -0.00068299
-0.0023936 0.00053759 -2.78303e-05
0.00053759 -0.00209516 -1.55637e-05
-2.78303e-05 -1.55637e-05 -0.00221975
0.00432512 0.00153853 -0.000165574
0.00153853 -0.000315126 -6.12556e-05
-0.000165574 -6.12556e-05 0.000404803
0.00266797 0.000183286 8.77601e-07
0.000183286 -0.000162987 -1.91064e-06
8.77601e-07 -1.91064e-06 3.68798e-05
0.00304664 -4.06845e-05 -1.98574e-06
-4.06845e-05 0.000246384 2.93676e-07
-1.98574e-06 2.93676e-07 0.000468791
0.00333267 -0.000330249 -0.00012809
-0.000330249 -0.001003 -6.99791e-06
-0.00012809 -6.99791e-06 5.7988e-05
0.00142782 -0.000415806 -8.81656e-05
-0.000415806 -0.00118664 1.77429e-05
-8.81656e-05 1.77429e-05 -0.00050836
0.00213968 -0.000116396 -1.65162e-05
-0.000116396 -0.000358411 -6.47588e-07
-1.65162e-05 -6.47588e-07 -0.000128088
0.00254632 -0.000313632 4.3909e-06
-0.000313632 -0.000330974 -7.34786e-07
4.3909e-06 -7.34786e-07 -1.30717e-05
0.00267847 8.76164e-05 -3.20005e-06
8.76164e-05 -0.000205255 -4.95668e-07
-3.20005e-06 -4.95668e-07 -2.82239e-05
0.00260152 -6.66693e-05 -2.38879e-06
-6.66693e-05 -0.00018921 -6.98639e-07
-2.38879e-06 -6.98639e-07 1.38292e-05
0.00274032 -0.000575091 -3.0206e-06
-0.000575091 -0.000222386 9.67346e-07
-3.0206e-06 9.67346e-07 -2.75535e-05
0.00252315 -0.000360087 3.08374e-07
-0.000360087 -0.000186034 -3.46861e-07
3.08374e-07 -3.46861e-07 -2.31022e-05
0.00243826 -0.000270357 9.78443e-07
-0.000270357 -7.77597e-05 -2.87424e-07
9.78443e-07 -2.87424e-07 3.39248e-05
0.00255183 -0.000517826 1.22992e-07
-0.000517826 -4.54902e-05 7.52941e-07
1.22992e-07 7.52941e-07 8.51489e-06
0.00240533 -0.000417563 2.44646e-07
-0.000417563 -3.78287e-05 8.05866e-08
2.44646e-07 8.05866e-08 -4.06493e-06
0.0022704 -0.000353005 -9.27964e-07
-0.000353005 1.21953e-05 8.31586e-08
-9.27964e-07 8.31586e-08 4.25289e-07
0.00239814 -0.000517791 9.01414e-07
-0.000517791 4.65995e-05 2.54633e-07
9.01414e-07 2.54633e-07 1.47694e-06
0.00228888 -0.000463904 3.64498e-07
-0.000463904 7.0703e-05 5.42674e-08
3.64498e-07 5.42674e-08 1.432e-06
0.00230651 -0.000438881 -4.13564e-06
-0.000438881 0.000157126 9.63759e-07
-4.13564e-06 9.63759e-07 3.91328e-05
0.00225678 -0.000553787 2.24207e-06
-0.000553787 0.000112596 -9.11587e-07
2.24207e-06 -9.11587e-07 -1.89783e-05
0.00222074 -0.000519255 2.699e-07
-0.000519255 0.000164171 -5.86352e-07
2.699e-07 -5.86352e-07 -1.12836e-05
0.00210998 -0.000461928 -2.38588e-06
-0.000461928 0.000170705 -1.1673e-06
-2.38588e-06 -1.1673e-06 -3.779e-05
0.00216989 -0.000584528 1.2412e-06
-0.000584528 0.000181894 8.24552e-07
1.2412e-06 8.24552e-07 -3.94491e-05
0.00214733 -0.000528544 -7.10735e-07
-0.000528544 0.000258324 1.28028e-07
-7.10735e-07 1.28028e-07 4.20313e-06
0.00133938 -0.000326654 -1.20374e-05
-0.000326654 1.08735e-06 5.18808e-06
-1.20374e-05 5.18808e-06 -0.000231687
0.00218139 -0.000573352 3.34878e-06
-0.000573352 0.000336718 1.56281e-06
3.34878e-06 1.56281e-06 4.86116e-05
0.00138705 -0.000376128 7.20062e-08
-0.000376128 4.95013e-05 1.83179e-07
7.20062e-08 1.83179e-07 -0.000211569
0.00294928 -0.000248984 -5.82958e-05
-0.000248984 0.00142342 1.49628e-05
-5.82958e-05 1.49628e-05 0.00128904
0.00274256 -0.000140006 -0.000308023
-0.000140006 0.00141239 4.71707e-05
-0.000308023 4.71707e-05 0.00139474
0.00168986 -0.000267276 -1.74637e-05
-0.000267276 0.000627915 3.23195e-07
-1.74637e-05 3.23195e-07 0.000468224
0.00139354 -0.000430872 1.84988e-05
-0.000430872 9.46878e-05 -6.60306e-06
1.84988e-05 -6.60306e-06 -0.000203196
0.00827813 -0.000137272 -1.06159e-05
-0.000137272 0.00498539 2.73688e-06
-1.06159e-05 2.73688e-06 0.00500319
0.000159839 -0.000289846 2.34463e-05
-0.000289846 -0.000330347 -2.21443e-05
2.34463e-05 -2.21443e-05 -0.000513556
0.00849912 -9.0375e-05 0.000366135
-9.0375e-05 0.00514246 -4.02296e-05
0.000366135 -4.02296e-05 0.0051546
0.00227565 0.000555135 8.20996e-07
0.000555135 0.000135915 1.47661e-06
8.20996e-07 1.47661e-06 -3.51169e-05
0.00228474 0.000720719 3.7228e-06
0.000720719 0.00028567 7.55719e-06
3.7228e-06 7.55719e-06 -1.36681e-05
0.00233455 0.000830647 5.37272e-07
0.000830647 0.000400184 4.43401e-08
5.37272e-07 4.43401e-08 1.6495e-05
0.00213343 0.000711893 -2.74517e-06
0.000711893 0.0004046 7.36287e-06
-2.74517e-06 7.36287e-06 1.72888e-05
0.00201252 0.000825121 6.32219e-06
0.000825121 0.000372344 -9.60431e-06
6.32219e-06 -9.60431e-06 -7.3653e-05
0.0019338 0.000727822 4.97428e-07
0.000727822 0.000382837 6.71721e-07
4.97428e-07 6.71721e-07 -5.45471e-05
0.000961652 0.000422857 -3.21409e-05
0.000422857 -2.03675e-05 -4.14893e-06
-3.21409e-05 -4.14893e-06 -0.000341387
0.00166795 0.000698406 8.28535e-06
0.000698406 0.000379754 -5.5118e-06
8.28535e-06 -5.5118e-06 -8.92371e-05
0.00078161 0.000353769 -2.01142e-06
0.000353769 -2.53225e-05 8.71092e-08
-2.01142e-06 8.71092e-08 -0.000323036
0.000386242 0.000317996 -3.197e-05
0.000317996 -0.000151662 -2.37338e-05
-3.197e-05 -2.37338e-05 -0.000327124
0.000600604 0.00023414 1.04314e-05
0.00023414 -2.8872e-05 -1.74817e-06
1.04314e-05 -1.74817e-06 -0.000283842
0.000360407 0.000234786 5.33015e-06
0.000234786 -0.000155483 -1.69482e-06
5.33015e-06 -1.69482e-06 -0.000295144
0.00808074 -5.0994e-05 -0.000317717
-5.0994e-05 0.0049273 -3.54408e-05
-0.000317717 -3.54408e-05 0.0049221
0.000569059 0.000170629 2.90191e-05
0.000170629 1.57875e-06 2.09315e-05
2.90191e-05 2.09315e-05 -0.000111171
0.00652812 -0.000168722 8.06577e-06
-0.000168722 0.00397846 -3.28424e-06
8.06577e-06 -3.28424e-06 0.00395552
0.00491339 -0.000232094 0.000108561
-0.000232094 0.00297389 1.76221e-05
0.000108561 1.76221e-05 0.00293145
0.00252402 0.000246382 -6.49415e-06
0.000246382 -0.000292658 5.6231e-07
-6.49415e-06 5.6231e-07 -4.66868e-05
0.00173778 0.000251249 1.2211e-05
0.000251249 -0.00071082 -3.15007e-06
1.2211e-05 -3.15007e-06 -0.000188908
0.00393279 0.000581481 -0.000153323
0.000581481 -0.00137268 -1.01559e-05
-0.000153323 -1.01559e-05 -8.43256e-06
0.00250051 0.000666508 -2.95851e-06
0.000666508 0.000158466 1.2865e-06
-2.95851e-06 1.2865e-06 4.45442e-06
0.00258084 0.000923771 -4.0183e-06
0.000923771 0.000395203 -6.3011e-07
-4.0183e-06 -6.3011e-07 5.98391e-05
0.00218616 0.00101019 -5.4855e-06
0.00101019 0.000304241 -9.93205e-06
-5.4855e-06 -9.93205e-06 -0.000129349
0.00242602 0.000699837 1.58092e-06
0.000699837 0.00023581 1.44826e-06
1.58092e-06 1.44826e-06 -4.14353e-06
0.0025224 0.000887521 -1.46098e-06
0.000887521 0.000403365 -7.66884e-06
-1.46098e-06 -7.66884e-06 4.66457e-05
0.00269581 0.000527118 2.80294e-06
0.000527118 -3.34456e-05 4.44852e-07
2.80294e-06 4.44852e-07 3.73454e-05
0.00266229 0.000847757 -1.73614e-06
0.000847757 0.000157901 1.9702e-07
-1.73614e-06 1.9702e-07 -2.4214e-05
0.00289511 0.00108004 9.30848e-08
0.00108004 0.000548708 -3.83815e-06
9.30848e-08 -3.83815e-06 0.000161776
0.00223021 0.000495967 1.09305e-07
0.000495967 -0.000267607 2.37987e-07
1.09305e-07 2.37987e-07 -0.000151203
0.00253413 0.0010021 1.33355e-05
0.0010021 0.000156937 -3.07523e-06
1.33355e-05 -3.07523e-06 -7.90159e-05
-0.000358548 0.000444004 -4.47514e-05
0.000444004 -0.00153934 -1.32433e-05
-4.47514e-05 -1.32433e-05 -0.00118369
0.00253931 0.000106782 -3.13309e-07
0.000106782 -0.00013036 -4.76821e-07
-3.13309e-07 -4.76821e-07 3.21985e-05
0.00254771 0.000178398 -5.38929e-07
0.000178398 -0.000251116 8.82668e-07
-5.38929e-07 8.82668e-07 -4.54075e-05
0.00302707 -2.20106e-05 -6.20521e-05
-2.20106e-05 0.00028662 -5.53625e-06
-6.20521e-05 -5.53625e-06 0.000442179
0.00242764 -0.000320434 -2.2721e-05
-0.000320434 -0.000432748 2.02873e-06
-2.2721e-05 2.02873e-06 -7.43894e-05
0.00295135 0.000105708 3.59352e-06
0.000105708 -3.12941e-05 2.98009e-06
3.59352e-06 2.98009e-06 0.000131999
0.00260664 -7.52807e-05 -8.99878e-07
-7.52807e-05 -0.000197826 -7.0587e-07
-8.99878e-07 -7.0587e-07 8.13751e-06
0.00229407 -7.8098e-05 5.33488e-07
-7.8098e-05 -0.0001009 2.84146e-08
5.33488e-07 2.84146e-08 -3.52347e-06
0.00246085 -0.000344123 1.18929e-06
-0.000344123 -0.000205372 -1.81067e-07
1.18929e-06 -1.81067e-07 -5.26011e-05
0.0023926 -0.000278014 -1.93856e-08
-0.000278014 -0.000101947 -1.67414e-08
-1.93856e-08 -1.67414e-08 1.46241e-06
0.00220403 -0.000231609 4.56533e-07
-0.000231609 -4.25688e-05 -3.17155e-07
4.56533e-07 -3.17155e-07 -1.9286e-05
0.00240721 -0.000415777 -6.1313e-07
-0.000415777 -3.36156e-05 7.70407e-07
-6.1313e-07 7.70407e-07 -2.6302e-06
0.00227572 -0.000352831 7.70133e-08
-0.000352831 1.20003e-05 5.39145e-08
7.70133e-08 5.39145e-08 1.19188e-07
0.00229081 -0.000342315 -5.15857e-06
-0.000342315 9.09827e-05 7.141e-07
-5.15857e-06 7.141e-07 2.82155e-05
0.00228941 -0.000465094 2.18984e-06
-0.000465094 6.74534e-05 -3.03761e-07
2.18984e-06 -3.03761e-07 -2.01045e-06
0.00226462 -0.000435045 5.23398e-07
-0.000435045 0.000130939 -9.10324e-08
5.23398e-07 -9.10324e-08 1.35043e-05
0.00211058 -0.0003777 -1.8591e-06
-0.0003777 0.000130133 -9.83825e-07
-1.8591e-06 -9.83825e-07 -3.15934e-05
0.00217227 -0.000514512 2.71785e-06
-0.000514512 0.000131918 -7.97095e-07
2.71785e-06 -7.97095e-07 -4.29948e-05
0.00217829 -0.000466631 -7.47869e-07
-0.000466631 0.00021758 8.96507e-08
-7.47869e-07 8.96507e-08 8.38835e-06
0.00136248 -0.000280593 -9.22848e-06
-0.000280593 -5.22493e-06 3.87415e-06
-9.22848e-06 3.87415e-06 -0.000212853
0.00217443 -0.000529733 2.82167e-06
-0.000529733 0.000280708 1.01084e-06
2.82167e-06 1.01084e-06 2.65548e-05
0.00138836 -0.000331297 -1.29959e-07
-0.000331297 2.23263e-05 2.36601e-07
-1.29959e-07 2.36601e-07 -0.000210154
0.00292445 -0.000231199 -6.55376e-05
-0.000231199 0.00140587 1.43876e-05
-6.55376e-05 1.43876e-05 0.00128411
0.00140899 -0.000378854 1.43232e-05
-0.000378854 5.74515e-05 -5.95754e-06
1.43232e-05 -5.95754e-06 -0.000203177
0.00307191 -0.000282945 5.60135e-05
-0.000282945 0.00150554 -9.62656e-06
5.60135e-05 -9.62656e-06 0.00138138
0.00262477 -0.000165956 -0.000299976
-0.000165956 0.00134629 5.10576e-05
-0.000299976 5.10576e-05 0.00132549
0.00523642 -0.000175966 -0.000294269
-0.000175966 0.00303777 3.61069e-05
-0.000294269 3.61069e-05 0.00303651
0.00317722 -0.000346893 0.000186643
-0.000346893 0.00159344 -3.3187e-05
0.000186643 -3.3187e-05 0.00146518
0.00815655 -0.000150486 0.000366929
-0.000150486 0.00491666 -4.41455e-05
0.000366929 -4.41455e-05 0.00493099
0.00234864 0.00053168 -8.56213e-07
0.00053168 0.000125149 -2.24837e-07
-8.56213e-07 -2.24837e-07 1.5521e-05
0.00221679 0.000574978 -7.1711e-07
0.000574978 0.000211899 2.67354e-06
-7.1711e-07 2.67354e-06 -6.11948e-06
0.0022721 0.000546038 4.97087e-07
0.000546038 0.000140449 -3.87078e-07
4.97087e-07 -3.87078e-07 -1.97673e-05
0.00215466 0.000629244 -2.62121e-06
0.000629244 0.000317758 5.75779e-06
-2.62121e-06 5.75779e-06 1.31007e-06
0.00241798 0.000734671 -2.61933e-08
0.000734671 0.000357317 -1.03029e-07
-2.61933e-08 -1.03029e-07 5.70127e-05
0.00266816 0.00085684 -1.08203e-06
0.00085684 0.000612935 -9.37826e-06
-1.08203e-06 -9.37826e-06 0.000230206
0.00206125 0.000707817 1.05405e-06
0.000707817 0.000353076 4.4615e-07
1.05405e-06 4.4615e-07 -3.45193e-05
0.00137376 0.000467953 -3.1445e-05
0.000467953 0.000125036 -5.483e-06
-3.1445e-05 -5.483e-06 -0.000190393
0.00184163 0.000719837 7.45434e-06
0.000719837 0.000318994 -6.40904e-06
7.45434e-06 -6.40904e-06 -0.000118304
0.00112024 0.000439317 -3.48478e-06
0.000439317 6.2822e-05 -6.48864e-08
-3.48478e-06 -6.48864e-08 -0.000260173
0.000165021 0.000293351 -2.79283e-05
0.000293351 -0.00031299 -2.12906e-05
-2.79283e-05 -2.12906e-05 -0.000496536
0.000963889 0.000358219 2.16821e-05
0.000358219 0.00010218 5.01169e-06
2.16821e-05 5.01169e-06 -0.000192407
0.000243397 0.000268079 2.15169e-06
0.000268079 -0.000246283 2.21838e-06
2.15169e-06 2.21838e-06 -0.000414006
0.00862036 4.63569e-05 -0.000352968
4.63569e-05 0.00523435 -4.09159e-05
-0.000352968 -4.09159e-05 0.00523652
-2.35195e-05 0.000195256 2.6869e-05
0.000195256 -0.000404859 2.31263e-05
2.6869e-05 2.31263e-05 -0.000536371
0.00751154 -9.43758e-05 7.35307e-06
-9.43758e-05 0.00456408 -2.50186e-06
7.35307e-06 -2.50186e-06 0.00455676
0.0060127 -0.000192176 0.00016952
-0.000192176 0.00364796 1.62851e-05
0.00016952 1.62851e-05 0.00362149
0.00258242 0.000301032 1.73252e-06
0.000301032 -0.000108144 -4.61458e-08
1.73252e-06 -4.61458e-08 3.27482e-05
0.00242513 0.000248587 2.25471e-06
0.000248587 -0.000285704 -9.82148e-07
2.25471e-06 -9.82148e-07 -4.29713e-05
0.00130481 0.000195979 -6.81026e-05
0.000195979 -0.0012322 -6.18482e-06
-6.81026e-05 -6.18482e-06 -0.000579515
0.00242491 0.00046624 3.00875e-06
0.00046624 -1.36085e-05 9.08142e-07
3.00875e-06 9.08142e-07 -1.18569e-05
0.00243699 0.000659378 -7.9284e-07
0.000659378 0.000134245 1.25609e-07
-7.9284e-07 1.25609e-07 -1.68873e-05
0.00240627 0.000893954 6.64798e-06
0.000893954 0.000329476 -3.06092e-06
6.64798e-06 -3.06092e-06 3.80381e-06
0.00246558 0.000687877 -1.42946e-06
0.000687877 0.000279598 -3.3786e-06
-1.42946e-06 -3.3786e-06 4.2071e-05
0.0026553 0.000509952 -2.20674e-06
0.000509952 -4.1226e-05 -5.93352e-08
-2.20674e-06 -5.93352e-08 2.88265e-05
0.00254493 0.000837055 2.47697e-06
0.000837055 0.000111276 -1.07406e-06
2.47697e-06 -1.07406e-06 -6.56214e-05
0.00212737 0.000475798 1.38823e-05
0.000475798 -0.000230144 -2.30203e-06
1.38823e-05 -2.30203e-06 -0.000114121
0.0023468 8.10039e-05 1.95107e-06
8.10039e-05 -7.46799e-05 9.74761e-08
1.95107e-06 9.74761e-08 1.34776e-05
0.00247704 0.000105432 2.11417e-07
0.000105432 -0.000156968 3.99263e-08
2.11417e-07 3.99263e-08 1.38705e-06
0.0024491 0.000178651 -8.83538e-06
0.000178651 -0.000317438 -4.46209e-07
-8.83538e-06 -4.46209e-07 -0.000108785
0.00219065 -1.42644e-05 -3.59615e-07
-1.42644e-05 -6.4685e-05 1.69221e-07
-3.59615e-07 1.69221e-07 -8.3427e-06
0.00262349 -8.89458e-05 3.46201e-06
-8.89458e-05 -0.000198571 5.23162e-08
3.46201e-06 5.23162e-08 1.08273e-05
0.00230499 -8.21353e-05 -3.84251e-07
-8.21353e-05 -9.48993e-05 3.28198e-07
-3.84251e-07 3.28198e-07 1.71446e-06
0.00214853 -0.000122236 -6.47055e-07
-0.000122236 -6.17048e-05 1.47995e-07
-6.47055e-07 1.47995e-07 -2.9641e-05
0.00234653 -0.000285652 -7.65327e-07
-0.000285652 -0.000125854 4.45987e-07
-7.65327e-07 4.45987e-07 -3.12572e-05
0.00221563 -0.00022836 7.94765e-07
-0.00022836 -3.55664e-05 -3.84484e-07
7.94765e-07 -3.84484e-07 -1.15651e-05
0.00225438 -0.000237032 -3.95034e-06
-0.000237032 5.48304e-05 3.41946e-07
-3.95034e-06 3.41946e-07 2.314e-05
0.00228451 -0.000352355 1.26464e-06
-0.000352355 1.40562e-05 -1.12292e-07
1.26464e-06 -1.12292e-07 2.10143e-06
0.00230312 -0.000341191 2.84745e-07
-0.000341191 0.00010275 -7.03603e-08
2.84745e-07 -7.03603e-08 3.98233e-05
0.00216007 -0.000300104 -1.7073e-06
-0.000300104 0.000137404 -3.25939e-07
-1.7073e-06 -3.25939e-07 1.48732e-05
0.00221765 -0.000430786 4.3386e-06
-0.000430786 0.000101997 -9.29286e-07
4.3386e-06 -9.29286e-07 -1.47978e-05
0.00215862 -0.00038139 -7.2053e-07
-0.00038139 0.00015697 -7.09471e-08
-7.2053e-07 -7.09471e-08 -5.17067e-06
0.00133555 -0.000230095 -6.48993e-06
-0.000230095 -2.91358e-05 2.64529e-06
-6.48993e-06 2.64529e-06 -0.00021425
0.00224954 -0.000471345 2.50208e-06
-0.000471345 0.000267043 7.54097e-07
2.50208e-06 7.54097e-07 5.71746e-05
0.00138973 -0.000282369 -2.66718e-07
-0.000282369 1.23487e-06 2.45167e-07
-2.66718e-07 2.45167e-07 -0.000205415
0.00281908 -0.000208347 -7.09277e-05
-0.000208347 0.0013456 1.34596e-05
-7.09277e-05 1.34596e-05 0.0012332
0.00143166 -0.000335832 1.09701e-05
-0.000335832 3.95958e-05 -4.82124e-06
1.09701e-05 -4.82124e-06 -0.000192558
0.0030006 -0.00024834 5.13721e-05
-0.00024834 0.00145529 -7.46961e-06
5.13721e-05 -7.46961e-06 0.0013444
0.00260923 -0.000140213 -0.000292307
-0.000140213 0.00132822 4.41337e-05
-0.000292307 4.41337e-05 0.00131032
0.00317625 -0.000286851 0.000175831
-0.000286851 0.00156753 -3.30376e-05
0.000175831 -3.30376e-05 0.00145729
0.00221623 -0.000101882 -0.000116563
-0.000101882 0.00108285 1.8657e-05
-0.000116563 1.8657e-05 0.00104595
0.00752795 -8.74565e-05 0.000128714
-8.74565e-05 0.00449568 -8.78004e-06
0.000128714 -8.78004e-06 0.00447573
0.00232903 0.000449387 2.38004e-07
0.000449387 7.61277e-05 6.23324e-07
2.38004e-07 6.23324e-07 1.57807e-05
0.00220686 0.000503391 -3.50082e-06
0.000503391 0.000110724 -5.6878e-07
-3.50082e-06 -5.6878e-07 -4.375e-05
0.00237356 0.000532056 -2.97516e-06
0.000532056 0.000139958 -2.50376e-08
-2.97516e-06 -2.50376e-08 2.67473e-05
0.00210986 0.000532924 -2.7301e-06
0.000532924 0.000214585 2.21838e-06
-2.7301e-06 2.21838e-06 -4.29789e-05
0.00217555 0.000583385 -1.23571e-06
0.000583385 0.000161788 -2.32348e-06
-1.23571e-06 -2.32348e-06 -5.02002e-05
0.00227283 0.000535668 -3.93155e-06
0.000535668 0.000148861 -3.11955e-06
-3.93155e-06 -3.11955e-06 -5.27195e-07
0.00146211 0.000419492 -2.39102e-05
0.000419492 7.29786e-05 -5.09409e-06
-2.39102e-05 -5.09409e-06 -0.000200361
0.00208836 0.000624017 1.4555e-06
0.000624017 0.00027186 2.93552e-07
1.4555e-06 2.93552e-07 -4.38208e-05
0.00246883 0.000740461 2.91606e-06
0.000740461 0.000375632 -7.39548e-06
2.91606e-06 -7.39548e-06 7.55951e-05
0.00195629 0.000700672 4.01599e-06
0.000700672 0.000280339 -6.55738e-06
4.01599e-06 -6.55738e-06 -0.000107011
0.00133403 0.000467522 -9.32549e-07
0.000467522 9.50099e-05 1.91525e-08
-9.32549e-07 1.91525e-08 -0.000221813
0.000291441 0.000287596 -2.51369e-05
0.000287596 -0.00025305 -1.96216e-05
-2.51369e-05 -1.96216e-05 -0.000431356
0.00126235 0.000450456 3.36368e-05
0.000450456 0.000140841 7.14325e-06
3.36368e-05 7.14325e-06 -0.000181922
0.000147675 0.000281578 1.10329e-06
0.000281578 -0.000314774 1.40439e-06
1.10329e-06 1.40439e-06 -0.000496892
0.00825514 0.000136451 -0.000353026
0.000136451 0.0049921 -4.69479e-05
-0.000353026 -4.69479e-05 0.00499417
7.38257e-05 0.000224762 2.29479e-05
0.000224762 -0.00035301 2.44546e-05
2.29479e-05 2.44546e-05 -0.000515909
0.00839168 4.96097e-06 6.05417e-06
4.96097e-06 0.00508397 5.21317e-07
6.05417e-06 5.21317e-07 0.00509004
0.00730714 -0.000128348 0.000242752
-0.000128348 0.00443237 1.7214e-05
0.000242752 1.7214e-05 0.00442487
0.00234894 0.000244421 1.06349e-06
0.000244421 -5.5511e-05 -3.84306e-07
1.06349e-06 -3.84306e-07 6.12442e-06
0.00253526 0.000307046 -9.6596e-07
0.000307046 -0.000156531 5.17064e-07
-9.6596e-07 5.17064e-07 -1.06075e-05
0.00232584 0.000243495 1.44363e-06
0.000243495 -0.00031846 -2.56394e-07
1.44363e-06 -2.56394e-07 -7.2798e-05
0.00241845 0.000461027 5.21439e-07
0.000461027 -1.63963e-05 5.75027e-07
5.21439e-07 5.75027e-07 -1.20497e-05
0.00238981 0.000653574 3.64399e-07
0.000653574 0.000121721 -1.58154e-06
3.64399e-07 -1.58154e-06 -2.68909e-05
0.00260336 0.000493912 1.57152e-06
0.000493912 -6.99825e-05 -4.01132e-07
1.57152e-06 -4.01132e-07 7.65308e-07
0.00223857 7.64404e-05 1.32281e-06
7.64404e-05 -4.19212e-05 9.03823e-08
1.32281e-06 9.03823e-08 5.53369e-06
0.00233427 8.0106e-05 3.28422e-07
8.0106e-05 -7.85222e-05 -2.14454e-07
3.28422e-07 -2.14454e-07 9.75597e-06
0.00241073 0.000103996 -1.26515e-07
0.000103996 -0.000186657 3.10406e-07
-1.26515e-07 3.10406e-07 -3.19346e-05
0.0022005 -1.13898e-05 -6.35731e-07
-1.13898e-05 -5.64997e-05 6.34439e-08
-6.35731e-07 6.34439e-08 -2.17508e-06
0.00217576 -3.45876e-05 -2.61318e-06
-3.45876e-05 1.1854e-05 3.66179e-07
-2.61318e-06 3.66179e-07 3.35828e-05
0.00231551 -8.57989e-05 -8.4855e-07
-8.57989e-05 -8.95726e-05 2.29154e-07
-8.4855e-07 2.29154e-07 6.55953e-06
0.00217445 -0.000123195 -1.24658e-06
-0.000123195 -3.67184e-05 2.37642e-07
-1.24658e-06 2.37642e-07 -9.23732e-06
0.00214784 -0.000147812 -5.27478e-06
-0.000147812 -8.39922e-06 8.87644e-07
-5.27478e-06 8.87644e-07 -2.52034e-05
0.00222314 -0.000225406 1.38792e-06
-0.000225406 -3.10625e-05 -4.86827e-07
1.38792e-06 -4.86827e-07 -6.4003e-06
0.00226461 -0.000238208 1.67114e-06
-0.000238208 6.55769e-05 -4.5268e-07
1.67114e-06 -4.5268e-07 3.33512e-05
0.00213263 -0.000225603 -5.40201e-07
-0.000225603 9.50486e-05 1.65283e-07
-5.40201e-07 1.65283e-07 -5.83087e-08
0.00231587 -0.000341274 5.23735e-06
-0.000341274 0.000115287 -8.24581e-07
5.23735e-06 -8.24581e-07 5.19489e-05
0.00212536 -0.00029993 -5.37086e-07
-0.00029993 0.000105691 -2.15114e-07
-5.37086e-07 -2.15114e-07 -1.67737e-05
0.00126615 -0.000181971 -4.41572e-06
-0.000181971 -6.70227e-05 1.94678e-06
-4.41572e-06 1.94678e-06 -0.0002344
0.0021983 -0.000384917 2.33513e-06
-0.000384917 0.000176689 2.76875e-07
2.33513e-06 2.76875e-07 1.40907e-05
0.00134682 -0.000228914 -3.81253e-07
-0.000228914 -2.84581e-05 6.24154e-08
-3.81253e-07 6.24154e-08 -0.000212162
0.00270378 -0.000194 -7.21381e-05
-0.000194 0.00128293 1.15228e-05
-7.21381e-05 1.15228e-05 0.0011783
0.00141709 -0.000284245 8.02843e-06
-0.000284245 7.24386e-06 -3.44075e-06
8.02843e-06 -3.44075e-06 -0.000198405
0.00290157 -0.000205772 4.84666e-05
-0.000205772 0.00139381 -5.77907e-06
4.84666e-05 -5.77907e-06 0.00129415
0.00253536 -0.000113713 -0.000285332
-0.000113713 0.00127746 3.64969e-05
-0.000285332 3.64969e-05 0.00126143
0.00308108 -0.000237685 0.000170805
-0.000237685 0.00149802 -2.77636e-05
0.000170805 -2.77636e-05 0.0014021
0.00218708 -9.81197e-05 -0.000106178
-9.81197e-05 0.00106209 1.45783e-05
-0.000106178 1.45783e-05 0.00102705
0.00186024 -9.64747e-05 7.68084e-05
-9.64747e-05 0.000869263 -1.31516e-05
7.68084e-05 -1.31516e-05 0.000809599
0.00224101 0.000280473 2.03152e-07
0.000280473 -9.26365e-06 -5.9514e-07
2.03152e-07 -5.9514e-07 -1.47962e-05
0.00231041 0.000415825 -4.17463e-06
0.000415825 0.000132075 -2.3116e-07
-4.17463e-06 -2.3116e-07 3.04409e-05
0.00232503 0.000450442 -3.28213e-07
0.000450442 5.41429e-05 -1.01542e-07
-3.28213e-07 -1.01542e-07 4.15491e-06
0.00214064 0.000475553 -9.48759e-07
0.000475553 0.000151247 1.0641e-06
-9.48759e-07 1.0641e-06 -5.23679e-05
0.00227046 0.000505641 -1.32173e-06
0.000505641 0.000162733 -5.42454e-07
-1.32173e-06 -5.42454e-07 4.7944e-06
0.00238804 0.000533132 1.03517e-06
0.000533132 0.000147692 -4.01624e-08
1.03517e-06 -4.01624e-08 3.07982e-05
0.00145263 0.00035245 -1.72791e-05
0.00035245 3.37019e-05 -4.5203e-06
-1.72791e-05 -4.5203e-06 -0.000200081
0.00207221 0.00053693 8.09331e-07
0.00053693 0.000179524 -1.01159e-06
8.09331e-07 -1.01159e-06 -7.1263e-05
0.00216995 0.000595972 -1.88538e-06
0.000595972 0.000134212 -5.64827e-06
-1.88538e-06 -5.64827e-06 -7.23552e-05
0.000344793 0.00022743 -2.21087e-05
0.00022743 -0.000249047 -1.64398e-05
-2.21087e-05 -1.64398e-05 -0.000406193
0.00142402 0.000413142 -2.04003e-07
0.000413142 5.60844e-05 2.02907e-07
-2.04003e-07 2.02907e-07 -0.000216724
0.00204559 0.000620835 4.60491e-06
0.000620835 0.000241221 -5.4393e-06
4.60491e-06 -5.4393e-06 -7.40348e-05
0.00132656 0.000470928 3.30875e-05
0.000470928 8.48316e-05 6.09991e-06
3.30875e-05 6.09991e-06 -0.000234329
0.00028994 0.000271668 1.36099e-08
0.000271668 -0.000251035 9.13999e-07
1.36099e-08 9.13999e-07 -0.000428593
0.00793098 0.000231196 -0.00035467
0.000231196 0.0047804 -5.13209e-05
-0.00035467 -5.13209e-05 0.00478111
0.00039513 0.000273342 2.63678e-05
0.000273342 -0.00015501 1.92374e-05
2.63678e-05 1.92374e-05 -0.000335195
0.00841406 0.000113182 1.0269e-05
0.000113182 0.00507962 1.69258e-06
1.0269e-05 1.69258e-06 0.00509032
0.0082155 -3.49923e-05 0.000307692
-3.49923e-05 0.00496579 2.35749e-05
0.000307692 2.35749e-05 0.00497219
0.00225677 0.000148063 1.41926e-07
0.000148063 -7.96917e-06 -4.43105e-07
1.41926e-07 -4.43105e-07 2.85414e-05
0.00232111 0.000248965 7.01899e-07
0.000248965 -7.88577e-05 4.57741e-07
7.01899e-07 4.57741e-07 -1.94728e-05
0.00251361 0.000314406 -9.48863e-08
0.000314406 -0.000179923 4.26401e-07
-9.48863e-08 4.26401e-07 -3.10058e-05
0.00242409 0.000454788 -1.56067e-06
0.000454788 -1.08794e-05 -1.69017e-06
-1.56067e-06 -1.69017e-06 -4.1575e-06
0.00214461 3.26728e-05 -2.65192e-06
3.26728e-05 1.80954e-05 3.19972e-07
-2.65192e-06 3.19972e-07 1.98953e-05
0.00223886 6.74571e-05 -6.1363e-09
6.74571e-05 -4.28594e-05 -4.68935e-08
-6.1363e-09 -4.68935e-08 6.62576e-06
0.00232178 7.89171e-05 -1.31983e-06
7.89171e-05 -8.20653e-05 8.1211e-08
-1.31983e-06 8.1211e-08 5.80951e-06
0.00221071 -7.9655e-06 -2.52014e-06
-7.9655e-06 -4.76175e-05 -2.83336e-07
-2.52014e-06 -2.83336e-07 4.4856e-06
0.00217678 -2.86479e-05 -6.70957e-07
-2.86479e-05 6.09416e-06 -1.7253e-07
-6.70957e-07 -1.7253e-07 3.04445e-05
0.00209007 -6.16233e-05 -4.78804e-06
-6.16233e-05 -2.70976e-05 6.76492e-07
-4.78804e-06 6.76492e-07 -4.84618e-05
0.00220159 -0.000124234 1.07706e-06
-0.000124234 -1.06502e-05 6.19669e-08
1.07706e-06 6.19669e-08 1.19933e-05
0.00216344 -0.000149186 -1.81762e-06
-0.000149186 9.67572e-06 3.43859e-07
-1.81762e-06 3.43859e-07 -1.4458e-05
0.00220026 -0.000150904 -1.64742e-06
-0.000150904 0.00012817 4.44793e-07
-1.64742e-06 4.44793e-07 5.5789e-05
0.00228075 -0.000238528 7.24291e-06
-0.000238528 7.88819e-05 -1.25208e-06
7.24291e-06 -1.25208e-06 4.63367e-05
0.00214302 -0.000223268 9.00496e-07
-0.000223268 0.000101593 -3.03886e-07
9.00496e-07 -3.03886e-07 7.52463e-06
0.00125559 -0.000136336 -4.67866e-06
-0.000136336 -6.3928e-05 1.2446e-06
-4.67866e-06 1.2446e-06 -0.00021683
0.00211713 -0.0002987 1.77985e-06
-0.0002987 9.29463e-05 -4.43338e-07
1.77985e-06 -4.43338e-07 -2.8948e-05
0.00128507 -0.000180844 -1.49354e-07
-0.000180844 -5.57675e-05 6.64561e-08
-1.49354e-07 6.64561e-08 -0.000221978
0.000291065 -0.000100752 -1.73239e-05
-0.000100752 -0.000284154 6.78277e-06
-1.73239e-05 6.78277e-06 -0.000396439
0.00135037 -0.00022728 5.16936e-06
-0.00022728 -3.21765e-05 -2.53309e-06
5.16936e-06 -2.53309e-06 -0.000214401
0.00158485 -0.000133447 7.1928e-05
-0.000133447 0.000546167 -6.00139e-06
7.1928e-05 -6.00139e-06 0.000446886
0.00712659 -0.000186574 -0.000379186
-0.000186574 0.00426024 3.08783e-05
-0.000379186 3.08783e-05 0.00428648
0.00299235 -0.000186918 0.000165433
-0.000186918 0.00144178 -2.16571e-05
0.000165433 -2.16571e-05 0.00135718
0.00213502 -8.95386e-05 -9.61118e-05
-8.95386e-05 0.0010318 9.3712e-06
-9.61118e-05 9.3712e-06 0.000996988
0.00176715 -0.00011202 8.82453e-05
-0.00011202 0.000816647 -1.47844e-05
8.82453e-05 -1.47844e-05 0.000755975
0.00218643 0.000184429 -1.08225e-06
0.000184429 8.2322e-06 -1.17376e-06
-1.08225e-06 -1.17376e-06 3.69276e-06
0.00230934 0.000321352 -3.00544e-06
0.000321352 0.000105297 -6.73317e-07
-3.00544e-06 -6.73317e-07 4.10638e-05
0.00224909 0.000272814 -3.90255e-07
0.000272814 8.92304e-06 -3.23068e-08
-3.90255e-07 -3.23068e-08 -2.47093e-06
0.0022787 0.000385033 -1.24931e-06
0.000385033 0.000213968 7.30651e-07
-1.24931e-06 7.30651e-07 6.83085e-05
0.00227419 0.000413389 4.58727e-07
0.000413389 0.000108578 -5.04064e-08
4.58727e-07 -5.04064e-08 7.83905e-06
0.00232529 0.000451675 -1.06592e-06
0.000451675 3.4888e-05 -9.76757e-07
-1.06592e-06 -9.76757e-07 -4.90545e-06
0.00150295 0.000304205 -1.1142e-05
0.000304205 5.85558e-05 -2.10369e-06
-1.1142e-05 -2.10369e-06 -0.000138867
0.00217737 0.000472914 6.41096e-07
0.000472914 0.000179365 -1.20842e-07
6.41096e-07 -1.20842e-07 -2.23209e-05
0.00231627 0.000505601 2.17914e-06
0.000505601 0.000203674 -1.35629e-06
2.17914e-06 -1.35629e-06 4.25812e-05
0.000342797 0.000163737 -1.8824e-05
0.000163737 -0.000263596 -1.2606e-05
-1.8824e-05 -1.2606e-05 -0.000399433
0.00139998 0.000347466 4.12158e-07
0.000347466 5.95216e-06 5.27042e-07
4.12158e-07 5.27042e-07 -0.000223206
0.00199989 0.000536594 4.61552e-06
0.000536594 0.000122788 -5.07007e-06
4.61552e-06 -5.07007e-06 -0.000120443
0.0076244 0.000290244 -0.000358099
0.000290244 0.00458038 -5.01434e-05
-0.000358099 -5.01434e-05 0.00458275
0.000307248 0.000222799 1.45212e-07
0.000222799 -0.000276351 7.39925e-07
1.45212e-07 7.39925e-07 -0.000434614
0.00135827 0.000404833 2.55252e-05
0.000404833 2.1466e-05 5.56131e-06
2.55252e-05 5.56131e-06 -0.000250529
0.000230046 0.000255729 2.27895e-05
0.000255729 -0.000286127 1.94587e-05
2.27895e-05 1.94587e-05 -0.000462675
0.0079505 0.000226319 1.10104e-05
0.000226319 0.00478851 2.61303e-06
1.10104e-05 2.61303e-06 0.00479522
0.0083178 8.5563e-05 0.000365399
8.5563e-05 0.00500404 3.20118e-05
0.000365399 3.20118e-05 0.00502219
0.00212466 9.21901e-05 -3.95595e-06
9.21901e-05 1.08839e-05 -1.20042e-07
-3.95595e-06 -1.20042e-07 4.89081e-06
0.00224389 0.000142758 -7.99864e-08
0.000142758 -1.56277e-05 7.30098e-09
-7.99864e-08 7.30098e-09 1.85132e-05
0.00228338 0.000252908 -7.9698e-07
0.000252908 -0.000109133 3.4355e-07
-7.9698e-07 3.4355e-07 -5.1223e-05
0.00211074 1.26744e-05 -6.52775e-06
1.26744e-05 4.56458e-06 3.40176e-07
-6.52775e-06 3.40176e-07 -2.74611e-05
0.00211892 3.83927e-05 7.87623e-07
3.83927e-05 -3.26526e-06 1.27517e-08
7.87623e-07 1.27517e-08 2.3666e-06
0.00223823 5.74896e-05 -1.77781e-06
5.74896e-05 -4.4899e-05 -2.53867e-08
-1.77781e-06 -2.53867e-08 6.85833e-06
0.00217798 -2.29096e-05 1.112e-06
-2.29096e-05 -1.18773e-07 -3.19087e-07
1.112e-06 -3.19087e-07 2.72629e-05
0.00208938 -6.04734e-05 -7.4241e-07
-6.04734e-05 -2.77535e-05 2.5282e-08
-7.4241e-07 2.5282e-08 -4.83018e-05
0.00208114 -7.18976e-05 -1.09345e-06
-7.18976e-05 6.32026e-05 3.17477e-07
-1.09345e-06 3.17477e-07 -1.48892e-05
0.0021776 -0.000150737 4.27616e-06
-0.000150737 2.73336e-05 -7.06028e-07
4.27616e-06 -7.06028e-07 -3.98151e-06
0.00211258 -0.00015198 8.89725e-07
-0.00015198 7.58263e-05 -6.33955e-08
8.89725e-07 -6.33955e-08 -6.5428e-06
0.00145846 -8.63076e-05 -5.74881e-06
-8.63076e-05 7.94847e-05 2.3579e-07
-5.74881e-06 2.3579e-07 -4.82639e-05
0.00213251 -0.000222239 2.37323e-06
-0.000222239 9.45139e-05 -9.03618e-07
2.37323e-06 -9.03618e-07 1.00466e-06
0.00126176 -0.000132556 -3.31518e-08
-0.000132556 -6.27055e-05 1.26393e-07
-3.31518e-08 1.26393e-07 -0.000214451
0.000285031 -3.12325e-05 -1.6109e-05
-3.12325e-05 -0.000287127 3.51732e-06
-1.6109e-05 3.51732e-06 -0.000389443
0.00131849 -0.00017895 3.74769e-06
-0.00017895 -3.7478e-05 -1.80328e-06
3.74769e-06 -1.80328e-06 -0.000202273
0.000316815 -8.55103e-05 -5.08384e-07
-8.55103e-05 -0.000265446 5.70794e-07
-5.08384e-07 5.70794e-07 -0.000377426
0.00706063 -7.73097e-05 -0.000369261
-7.73097e-05 0.00421028 1.97176e-05
-0.000369261 1.97176e-05 0.004243
0.000407382 -9.31985e-05 1.26567e-05
-9.31985e-05 -0.000215623 -9.12284e-06
1.26567e-05 -9.12284e-06 -0.000335327
0.00453921 -0.000122478 0.000158196
-0.000122478 0.0025934 -9.22532e-06
0.000158196 -9.22532e-06 0.00257788
0.00171688 -9.82125e-05 9.28667e-05
-9.82125e-05 0.00078614 -1.37822e-05
9.28667e-05 -1.37822e-05 0.000727627
0.00216653 0.000152103 -5.9897e-06
0.000152103 5.1002e-05 -8.86998e-07
-5.9897e-06 -8.86998e-07 3.74677e-05
0.00227625 0.000231084 -4.89463e-06
0.000231084 0.000102984 -1.05462e-06
-4.89463e-06 -1.05462e-06 4.74607e-05
0.00217737 0.000177894 -6.54452e-07
0.000177894 7.85954e-06 -1.97121e-07
-6.54452e-07 -1.97121e-07 3.18449e-06
0.00222737 0.000305758 -6.87709e-07
0.000305758 0.00017315 1.30849e-07
-6.87709e-07 1.30849e-07 4.85612e-05
0.002319 0.000318797 -6.9069e-08
0.000318797 0.000109153 -2.29127e-07
-6.9069e-08 -2.29127e-07 4.4301e-05
0.0022517 0.000265292 1.38653e-06
0.000265292 2.40004e-05 7.68656e-07
1.38653e-06 7.68656e-07 6.66452e-06
0.00145484 0.000237292 -5.82266e-06
0.000237292 4.58987e-05 -1.17551e-06
-5.82266e-06 -1.17551e-06 -0.000124695
0.00213212 0.000375323 2.07778e-06
0.000375323 0.000125193 4.18196e-07
2.07778e-06 4.18196e-07 -2.91173e-05
0.00222549 0.000410555 3.70715e-06
0.000410555 7.58356e-05 -3.20798e-07
3.70715e-06 -3.20798e-07 -2.39793e-05
0.000329414 0.000116699 -1.6844e-05
0.000116699 -0.000271612 -9.38881e-06
-1.6844e-05 -9.38881e-06 -0.000394008
0.0014583 0.000295842 9.76106e-07
0.000295842 3.56335e-05 1.03598e-06
9.76106e-07 1.03598e-06 -0.000159108
0.00222459 0.000471504 2.82429e-06
0.000471504 0.000214527 -1.40071e-06
2.82429e-06 -1.40071e-06 1.47178e-05
0.00735173 0.000322774 -0.000370678
0.000322774 0.0044158 -4.74383e-05
-0.000370678 -4.74383e-05 0.00441863
0.000338725 0.00016668 4.45309e-07
0.00016668 -0.000271171 3.98703e-07
4.45309e-07 3.98703e-07 -0.000408968
0.00135141 0.00034452 1.77821e-05
0.00034452 -2.1095e-05 4.00287e-06
1.77821e-05 4.00287e-06 -0.000246202
0.00770464 0.000311869 1.20959e-05
0.000311869 0.00464211 4.96614e-06
1.20959e-05 4.96614e-06 0.00464144
0.000298406 0.000218813 1.97644e-05
0.000218813 -0.000285935 1.67649e-05
1.97644e-05 1.67649e-05 -0.00044538
0.00802063 0.000199398 0.000372195
0.000199398 0.00481707 4.07624e-05
0.000372195 4.07624e-05 0.00483377
0.00208938 7.3293e-05 -6.47906e-06
7.3293e-05 -1.17841e-05 1.27012e-08
-6.47906e-06 1.27012e-08 -4.97727e-05
0.00211649 9.8999e-05 -1.05578e-06
9.8999e-05 1.06256e-05 -2.43063e-07
-1.05578e-06 -2.43063e-07 4.34749e-06
0.00222976 0.000137897 7.34703e-08
0.000137897 -2.29941e-05 5.03068e-07
7.34703e-08 5.03068e-07 8.3783e-06
0.00203665 -7.14341e-06 -1.29746e-06
-7.14341e-06 4.24786e-05 5.67726e-08
-1.29746e-06 5.67726e-08 -3.61545e-05
0.00208642 1.39173e-05 -8.13949e-07
1.39173e-05 -1.54074e-05 -1.72e-08
-8.13949e-07 -1.72e-08 -4.43542e-05
0.00209392 4.4882e-05 2.7178e-06
4.4882e-05 -2.40625e-05 -4.56376e-10
2.7178e-06 -4.56376e-10 -1.46604e-05
0.00208704 -5.94311e-05 3.07591e-06
-5.94311e-05 -2.92918e-05 -5.54892e-07
3.07591e-06 -5.54892e-07 -4.92652e-05
0.0020256 -7.10673e-05 -6.0309e-07
-7.10673e-05 2.66806e-05 2.17473e-07
-6.0309e-07 2.17473e-07 -5.07899e-05
0.00140874 -3.65988e-05 -6.60327e-06
-3.65988e-05 6.41427e-05 -3.83214e-07
-6.60327e-06 -3.83214e-07 -5.61318e-05
0.00201772 -0.000152726 2.71504e-07
-0.000152726 1.82166e-05 -4.44741e-07
2.71504e-07 -4.44741e-07 -7.40938e-05
0.00133311 -8.59999e-05 3.06417e-06
-8.59999e-05 -8.22221e-06 -3.65826e-07
3.06417e-06 -3.65826e-07 -0.000142414
0.000279266 -1.22459e-05 -1.66956e-05
-1.22459e-05 -0.000285313 1.92776e-06
-1.66956e-05 1.92776e-06 -0.00038241
0.00126294 -0.000130295 4.11823e-06
-0.000130295 -6.33971e-05 -1.04661e-06
4.11823e-06 -1.04661e-06 -0.00021424
0.000291131 -4.31607e-05 5.00933e-07
-4.31607e-05 -0.000281321 -3.50222e-07
5.00933e-07 -3.50222e-07 -0.000383008
0.0068389 -0.000171239 -0.000369452
-0.000171239 0.00408811 2.1406e-05
-0.000369452 2.1406e-05 0.00411349
0.000319495 -6.95069e-05 1.59708e-05
-6.95069e-05 -0.000262385 -5.19716e-06
1.59708e-05 -5.19716e-06 -0.000373145
0.00698067 -0.000113804 7.14249e-06
-0.000113804 0.00416389 1.65773e-07
7.14249e-06 1.65773e-07 0.00419535
0.00203936 -4.782e-05 0.000282313
-4.782e-05 0.000961175 -2.12691e-05
0.000282313 -2.12691e-05 0.00095336
0.00209162 0.000156098 -7.19463e-06
0.000156098 -1.2172e-05 -8.58485e-07
-7.19463e-06 -8.58485e-07 -6.20069e-05
0.0021194 0.000153428 -1.40469e-06
0.000153428 8.04264e-06 -1.35288e-07
-1.40469e-06 -1.35288e-07 5.66617e-07
0.00221293 0.000227274 1.22009e-06
0.000227274 0.00015395 2.01099e-07
1.22009e-06 2.01099e-07 4.96758e-05
0.0022859 0.000230601 8.30231e-07
0.000230601 0.000105446 -1.41947e-08
8.30231e-07 -1.41947e-08 5.06346e-05
0.00217555 0.000171365 1.79475e-06
0.000171365 1.17371e-05 5.07161e-07
1.79475e-06 5.07161e-07 7.10271e-06
0.00125224 0.000172749 -2.59526e-06
0.000172749 -7.1092e-05 -9.95977e-07
-2.59526e-06 -9.95977e-07 -0.000234729
0.0021606 0.000302183 3.15404e-07
0.000302183 0.000128604 -3.84072e-09
3.15404e-07 -3.84072e-09 3.72557e-06
0.00233485 0.000316332 4.56611e-06
0.000316332 0.000116918 1.0645e-06
4.56611e-06 1.0645e-06 5.14115e-05
0.00032788 8.47145e-05 -1.60493e-05
8.47145e-05 -0.00026517 -6.87683e-06
-1.60493e-05 -6.87683e-06 -0.000379674
0.00136122 0.000232562 2.6069e-06
0.000232562 -1.11109e-05 9.0254e-07
2.6069e-06 9.0254e-07 -0.000187156
0.00201253 0.000367059 1.42449e-06
0.000367059 5.58866e-05 -7.51782e-08
1.42449e-06 -7.51782e-08 -0.000107144
0.00716048 0.000314122 -0.000384561
0.000314122 0.0043053 -4.29724e-05
-0.000384561 -4.29724e-05 0.00431013
0.000345577 0.000123137 6.38652e-07
0.000123137 -0.000264751 2.27534e-07
6.38652e-07 2.27534e-07 -0.000389239
0.00141406 0.000287318 1.00295e-05
0.000287318 1.27046e-05 3.52837e-06
1.00295e-05 3.52837e-06 -0.000179184
0.00745182 0.00034994 8.78856e-06
0.00034994 0.00449201 5.47526e-06
8.78856e-06 5.47526e-06 0.00448915
0.000342429 0.000168887 1.74642e-05
0.000168887 -0.000273842 1.32012e-05
1.74642e-05 1.32012e-05 -0.000413437
0.00779057 0.000322409 0.000384921
0.000322409 0.00469185 5.14944e-05
0.000384921 5.14944e-05 0.00469555
0.002011 6.93412e-05 -6.77555e-08
6.93412e-05 2.99486e-05 -1.2064e-07
-6.77555e-08 -1.2064e-07 -5.49349e-05
0.00209835 7.41528e-05 -2.7494e-06
7.41528e-05 -4.93141e-07 -1.51133e-07
-2.7494e-06 -1.51133e-07 -3.99687e-05
0.00210945 0.000105517 4.28755e-06
0.000105517 1.10704e-05 1.79734e-07
4.28755e-06 1.79734e-07 4.55432e-06
0.00134644 -1.01028e-05 -8.65606e-06
-1.01028e-05 4.0075e-05 -5.82674e-07
-8.65606e-06 -5.82674e-07 -7.90513e-05
0.00202001 -3.96321e-06 -1.25064e-07
-3.96321e-06 3.35723e-05 1.22817e-07
-1.25064e-07 1.22817e-07 -4.47477e-05
0.00206327 1.45592e-05 3.36192e-06
1.45592e-05 -3.42118e-05 -1.52516e-07
3.36192e-06 -1.52516e-07 -6.00744e-05
0.00198007 -7.06704e-05 -2.59355e-07
-7.06704e-05 -2.54063e-06 1.43902e-07
-2.59355e-07 1.43902e-07 -7.94181e-05
0.00135925 -3.89063e-05 2.48171e-06
-3.89063e-05 2.46474e-05 -1.09191e-07
2.48171e-06 -1.09191e-07 -9.58359e-05
0.000281151 -3.3782e-05 -1.74099e-05
-3.3782e-05 -0.00027863 7.19624e-07
-1.74099e-05 7.19624e-07 -0.00037144
0.00121297 -8.51892e-05 7.78872e-06
-8.51892e-05 -9.23466e-05 -8.86761e-07
7.78872e-06 -8.86761e-07 -0.000232939
0.000289979 -1.09153e-06 6.11902e-08
-1.09153e-06 -0.000278937 6.37507e-08
6.11902e-08 6.37507e-08 -0.000374474
0.00672644 -0.000138771 -0.000368345
-0.000138771 0.00401502 1.62449e-05
-0.000368345 1.62449e-05 0.00404413
0.000332302 -5.10876e-05 1.71548e-05
-5.10876e-05 -0.000251091 -3.44745e-06
1.71548e-05 -3.44745e-06 -0.000353577
0.0068283 -6.69944e-05 -2.84286e-06
-6.69944e-05 0.00406714 3.49215e-06
-2.84286e-06 3.49215e-06 0.00410131
0.00694754 -0.000127758 0.000368113
-0.000127758 0.00414515 -1.93591e-05
0.000368113 -1.93591e-05 0.00417625
0.00214253 0.000146089 1.02995e-06
0.000146089 0.000110289 2.1482e-08
1.02995e-06 2.1482e-08 1.95404e-05
0.00216343 0.000156076 -2.00243e-06
0.000156076 3.13063e-05 -1.96238e-07
-2.00243e-06 -1.96238e-07 -1.28172e-05
0.00206787 0.000154881 3.69339e-06
0.000154881 -3.81431e-05 7.42544e-07
3.69339e-06 7.42544e-07 -3.95931e-05
0.00122504 0.000117819 -4.20578e-06
0.000117819 -7.38352e-05 -3.46488e-07
-4.20578e-06 -3.46488e-07 -0.000222496
0.00216451 0.00022484 8.08825e-08
0.00022484 0.000120393 -1.53674e-07
8.08825e-08 -1.53674e-07 1.58044e-05
0.0022963 0.000229869 4.83816e-06
0.000229869 0.000109018 7.64059e-07
4.83816e-06 7.64059e-07 5.49962e-05
0.000323257 5.72969e-05 -1.55245e-05
5.72969e-05 -0.000258241 -4.7877e-06
-1.55245e-05 -4.7877e-06 -0.000365856
0.00127178 0.00017507 1.63186e-07
0.00017507 -5.06384e-05 3.02045e-07
1.63186e-07 3.02045e-07 -0.000215401
0.0020993 0.000298598 1.06664e-06
0.000298598 8.83936e-05 -3.25316e-07
1.06664e-06 -3.25316e-07 -3.67808e-05
0.00698986 0.000256665 -0.000391272
0.000256665 0.00419364 -3.46573e-05
-0.000391272 -3.46573e-05 0.00420899
0.00033524 9.28042e-05 8.79869e-07
9.28042e-05 -0.000262067 2.38939e-07
8.79869e-07 2.38939e-07 -0.000378793
0.00125485 0.000226708 4.80603e-06
0.000226708 -7.75064e-05 2.75762e-06
4.80603e-06 2.75762e-06 -0.000258772
0.00726178 0.00033359 4.61906e-06
0.00033359 0.00437498 3.52849e-06
4.61906e-06 3.52849e-06 0.00437747
0.000363192 0.000131243 1.61988e-05
0.000131243 -0.000255693 1.0314e-05
1.61988e-05 1.0314e-05 -0.000382885
0.00757262 0.000390401 0.000395072
0.000390401 0.00458203 5.7255e-05
0.000395072 5.7255e-05 0.00457305
0.00111667 3.69274e-05 -1.03831e-05
3.69274e-05 -0.000107352 -5.63514e-07
-1.03831e-05 -5.63514e-07 -0.000240049
0.00209377 6.65613e-05 -1.68332e-07
6.65613e-05 8.48915e-05 4.7466e-08
-1.68332e-07 4.7466e-08 6.32255e-06
0.00211489 7.54698e-05 3.46129e-06
7.54698e-05 1.56464e-05 -8.77492e-08
3.46129e-06 -8.77492e-08 -2.519e-05
0.000326864 3.2549e-05 -1.81399e-05
3.2549e-05 -0.000252508 -1.36247e-06
-1.81399e-05 -1.36247e-06 -0.000336605
0.00131504 -5.84258e-06 2.16174e-06
-5.84258e-06 1.4131e-05 3.37322e-09
2.16174e-06 3.37322e-09 -0.000104909
0.00198775 6.39386e-07 1.03846e-06
6.39386e-07 1.33957e-05 1.85385e-07
1.03846e-06 1.85385e-07 -6.46285e-05
0.00130247 -4.07128e-05 1.05971e-05
-4.07128e-05 -2.08517e-05 -2.78202e-07
1.05971e-05 -2.78202e-07 -0.000141517
0.000301427 -6.68893e-06 2.43549e-07
-6.68893e-06 -0.000265324 4.42469e-07
2.43549e-07 4.42469e-07 -0.000357858
0.0066266 1.4849e-06 -0.000370381
1.4849e-06 0.00394144 3.38085e-06
-0.000370381 3.38085e-06 0.00397946
0.000293952 1.02466e-05 1.67671e-05
1.02466e-05 -0.000277273 -9.14319e-07
1.67671e-05 -9.14319e-07 -0.000371141
0.00668946 -0.000136266 -7.68123e-06
-0.000136266 0.00399337 2.30527e-06
-7.68123e-06 2.30527e-06 0.00402197
0.00675592 -4.97204e-05 0.000354122
-4.97204e-05 0.00402093 -1.1069e-05
0.000354122 -1.1069e-05 0.00405539
0.00118493 7.5714e-05 -8.3795e-06
7.5714e-05 -7.59934e-05 -4.51756e-07
-8.3795e-06 -4.51756e-07 -0.000214088
0.00217124 0.000141954 -4.94428e-07
0.000141954 0.000129918 -2.39624e-07
-4.94428e-07 -2.39624e-07 4.31598e-05
0.00221831 0.000155618 1.77507e-06
0.000155618 6.2916e-05 1.39367e-07
1.77507e-06 1.39367e-07 2.43199e-05
0.00274915 7.3862e-05 -0.000164338
7.3862e-05 0.00131359 -6.48111e-06
-0.000164338 -6.48111e-06 0.00125664
0.00121629 0.000119153 1.1889e-07
0.000119153 -7.33632e-05 1.24238e-07
1.1889e-07 1.24238e-07 -0.00022283
0.0020862 0.000221612 1.25645e-07
0.000221612 6.64269e-05 -3.59962e-07
1.25645e-07 -3.59962e-07 -3.8631e-05
0.00683789 0.000187321 -0.000389082
0.000187321 0.0040893 -2.4901e-05
-0.000389082 -2.4901e-05 0.00411549
0.000329871 7.71632e-05 1.17747e-06
7.71632e-05 -0.000253629 5.20275e-07
1.17747e-06 5.20275e-07 -0.000363884
0.0012823 0.000176828 2.94399e-06
0.000176828 -3.74065e-05 1.41983e-06
2.94399e-06 1.41983e-06 -0.000203326
0.00710227 0.000273971 1.28103e-06
0.000273971 0.00426667 1.73234e-06
1.28103e-06 1.73234e-06 0.00428041
0.000348228 0.000103085 1.59129e-05
0.000103085 -0.000254217 8.07928e-06
1.59129e-05 8.07928e-06 -0.000373758
0.00735721 0.000369516 0.000398897
0.000369516 0.00444982 5.38729e-05
0.000398897 5.38729e-05 0.00444559
0.000424278 1.49246e-05 -1.37914e-05
1.49246e-05 -0.000177771 -2.14466e-06
-1.37914e-05 -2.14466e-06 -0.000270925
0.0012199 3.67387e-05 -1.12322e-07
3.67387e-05 -4.37171e-05 3.45319e-08
-1.12322e-07 3.45319e-08 -0.000171137
0.00219293 6.25418e-05 1.35277e-06
6.25418e-05 0.000151 -7.40671e-08
1.35277e-06 -7.40671e-08 7.8689e-05
0.00644557 -0.000106343 -0.000352851
-0.000106343 0.00384497 5.79043e-06
-0.000352851 5.79043e-06 0.0038718
0.000289217 1.08056e-05 -7.09926e-07
1.08056e-05 -0.000272676 -1.96449e-07
-7.09926e-07 -1.96449e-07 -0.000359238
0.00132092 -2.68803e-06 1.23301e-05
-2.68803e-06 1.28881e-05 3.53867e-07
1.23301e-05 3.53867e-07 -0.000105906
0.000274103 1.98397e-05 1.70614e-05
1.98397e-05 -0.000283866 7.65517e-07
1.70614e-05 7.65517e-07 -0.000374923
0.00655983 -3.34657e-05 1.96878e-06
-3.34657e-05 0.00390587 -1.94406e-06
1.96878e-06 -1.94406e-06 0.00393865
0.00667219 -6.11391e-05 0.000359186
-6.11391e-05 0.00396885 -8.21684e-06
0.000359186 -8.21684e-06 0.00400424
0.00284539 2.43565e-05 -0.000158708
2.43565e-05 0.00137701 -3.27911e-06
-0.000158708 -3.27911e-06 0.00132548
0.0011756 7.81641e-05 -5.96317e-08
7.81641e-05 -8.36428e-05 -7.97841e-08
-5.96317e-08 -7.97841e-08 -0.000222593
0.00222243 0.000138529 8.38131e-07
0.000138529 0.000164832 -3.24862e-07
8.38131e-07 -3.24862e-07 8.22544e-05
0.00637933 -1.68499e-05 -0.000166343
-1.68499e-05 0.00380743 -4.6603e-07
-0.000166343 -4.6603e-07 0.00379802
0.000311839 6.44913e-05 7.31184e-07
6.44913e-05 -0.000257183 2.51746e-07
7.31184e-07 2.51746e-07 -0.000358929
0.00123003 0.000121828 4.44456e-06
0.000121828 -6.02166e-05 4.29525e-07
4.44456e-06 4.29525e-07 -0.000210475
0.00691746 0.000164595 -9.42567e-06
0.000164595 0.00413366 -1.86389e-06
-9.42567e-06 -1.86389e-06 0.00416109
0.000332014 9.95551e-05 1.71234e-05
9.95551e-05 -0.000252989 6.58285e-06
1.71234e-05 6.58285e-06 -0.000365013
0.0071926 0.000297012 0.000401843
0.000297012 0.00432944 4.43403e-05
0.000401843 4.43403e-05 0.00434131
0.00197708 -5.3119e-05 -0.000273455
-5.3119e-05 0.000926521 1.80926e-06
-0.000273455 1.80926e-06 0.000930986
0.00153036 3.58514e-05 -6.95093e-05
3.58514e-05 0.000529024 -1.80376e-07
-6.95093e-05 -1.80376e-07 0.000462062
0.00127319 3.89912e-05 1.11597e-05
3.89912e-05 -1.19711e-05 4.68531e-07
1.11597e-05 4.68531e-07 -0.000134353
0.00651609 -5.18464e-05 7.02757e-06
-5.18464e-05 0.00388324 3.36e-06
7.02757e-06 3.36e-06 0.00391623
0.000312771 -9.05835e-06 1.76924e-05
-9.05835e-06 -0.000251387 1.26307e-06
1.76924e-05 1.26307e-06 -0.000341677
0.00660903 -9.49175e-05 0.000371561
-9.49175e-05 0.00394276 -7.07017e-06
0.000371561 -7.07017e-06 0.0039749
0.00150574 2.78917e-05 -7.71708e-05
2.78917e-05 0.000653862 -1.40173e-06
-7.71708e-05 -1.40173e-06 0.000609963
0.00153086 2.56464e-05 -7.03617e-05
2.56464e-05 0.00053087 -1.94272e-06
-7.03617e-05 -1.94272e-06 0.00045832
0.00116942 7.8932e-05 8.34751e-06
7.8932e-05 -8.6801e-05 2.12138e-07
8.34751e-06 2.12138e-07 -0.000226492
0.00417573 8.02017e-05 0.000137692
8.02017e-05 0.00236495 4.84029e-06
0.000137692 4.84029e-06 0.00235947
0.000290887 7.54243e-05 1.76028e-05
7.54243e-05 -0.000271767 4.67117e-06
1.76028e-05 4.67117e-06 -0.000373766
0.00701071 0.000152329 0.000383881
0.000152329 0.00418444 2.70451e-05
0.000383881 2.70451e-05 0.00421579
0.00643877 -1.70588e-05 -8.26703e-06
-1.70588e-05 0.00383871 -3.8096e-06
-8.26703e-06 -3.8096e-06 0.00386977
0.000294494 5.38477e-05 1.93048e-05
5.38477e-05 -0.000270845 2.64883e-06
1.93048e-05 2.64883e-06 -0.000354533
0.00641793 3.19422e-05 0.000357796
3.19422e-05 0.00381566 3.09627e-07
0.000357796 3.09627e-07 0.00385224
0.00403836 4.01281e-05 0.000148961
4.01281e-05 0.002282 6.60542e-06
0.000148961 6.60542e-06 0.00227973
0.000302648 1.42285e-05 1.728e-05
1.42285e-05 -0.000258239 2.34542e-06
1.728e-05 2.34542e-06 -0.000352078
0.00677114 1.95239e-05 0.000369149
1.95239e-05 0.00403101 1.26509e-05
0.000369149 1.26509e-05 0.00406569
0.00647785 -0.000109679 0.000356422
-0.000109679 0.00386667 -4.50365e-06
0.000356422 -4.50365e-06 0.00389394
0.00653237 2.32904e-05 0.000360178
2.32904e-05 0.00388009 7.68981e-06
0.000360178 7.68981e-06 0.00391776
