# vtk DataFile Version 2.0
Wound Healing Simulation
ASCII
DATASET UNSTRUCTURED_GRID
POINTS 3012 float
69.9759 18.75 4
67.2507 60.3285 4
69.976 18.75 2
73.0099 25.446 4
71.1327 20.9142 4
68.6801 16.6661 4
67.8254 19.9261 3.98229
67.2507 60.3286 2
71.1327 54.0858 4
68.6801 58.3339 4
65.6939 62.2254 4
65.3118 59.001 3.9812
74.6784 42.3946 4
73.7221 47.2057 4
69.9759 18.75 0
73.0099 25.446 2
68.6801 16.6661 2
71.1327 20.9142 2
67.8259 19.9291 2
74.6792 32.6053 4
73.7222 27.7943 4
72.1454 23.1494 4
70.614 26.2209 3.98176
68.8856 21.958 3.98265
67.2507 14.6715 4
66.6367 17.9722 3.98121
65.796 21.0259 3.97254
67.2507 60.3285 0
71.1327 54.0858 2
68.6801 58.3339 2
65.694 62.2255 2
65.313 58.9975 2
72.1454 51.8506 4
69.9759 56.25 4
68.8362 53.1129 3.98169
64.0165 64.0165 4
66.6105 57.1335 3.98171
63.8854 60.7658 3.98293
63.4988 57.7693 3.97267
60.3285 67.2507 4
74.6792 42.3947 2
73.7222 47.2057 2
74.9194 39.9526 4
74.2788 44.8158 4
72.1681 42.0855 3.98084
73.0099 49.554 4
71.2491 46.598 3.98078
73.0099 25.446 0
71.1327 20.9142 0
68.6801 16.6661 0
67.8254 19.9261 0.0177096
74.6792 32.6053 2
73.7222 27.7943 2
67.2508 14.6715 2
72.1455 23.1494 2
70.614 26.2213 2
66.6375 17.9758 2
68.8858 21.96 2
65.7954 21.0265 2
74.9197 35.0474 4
74.2794 30.1841 4
72.1847 32.9432 3.98131
71.278 28.4313 3.98117
69.8154 24.0595 3.9824
68.3458 26.9517 3.97107
66.7615 22.9336 3.97185
65.694 12.7746 4
65.3231 16.1039 3.98115
64.7121 19.1965 3.97306
63.8836 22.0382 3.96842
71.1327 54.0858 0
65.6939 62.2254 0
68.6801 58.3339 0
65.3118 59.001 0.0188049
72.1455 51.8506 2
69.9759 56.25 2
68.8364 53.1111 2
64.0165 64.0165 2
66.6113 57.1301 2
63.887 60.7628 2
63.4982 57.7693 2
62.2254 65.694 4
58.8946 65.4142 3.99074
69.7688 50.9888 3.9815
67.7835 55.1671 3.9817
66.6483 52.2084 3.97087
62.336 62.4275 3.98634
64.6595 56.0302 3.97288
62.2013 59.4014 3.97341
61.8185 56.6755 3.96844
58.3339 68.6801 4
60.3285 67.2508 2
73.7221 47.2057 0
74.6784 42.3946 0
74.9197 39.9526 2
74.2794 44.8159 2
72.1677 42.0855 2
73.0099 49.554 2
71.249 46.5978 2
75 37.5 4
72.4054 39.8021 3.98138
71.7824 44.3528 3.98093
69.803 41.7891 3.9705
70.5749 48.8134 3.98106
68.9112 46.0141 3.97026
74.6792 32.6053 0
73.7222 27.7943 0
67.2507 14.6715 0
72.1454 23.1494 0
70.614 26.2209 0.0182396
68.8856 21.958 0.0173482
66.6367 17.9722 0.0187936
65.796 21.0259 0.0274594
74.9197 35.0474 2
74.2794 30.1841 2
72.1843 32.9435 2
71.278 28.4317 2
65.694 12.7745 2
65.3244 16.1075 2
69.8155 24.0606 2
68.3458 26.9521 2
64.7115 19.1971 2
66.7611 22.9342 2
63.883 22.0384 2
72.4132 35.2241 3.9814
71.8038 30.6762 3.98134
69.8392 33.2683 3.97108
68.9651 29.0383 3.97086
67.6103 24.9123 3.97137
66.1917 27.6358 3.96795
64.0165 10.9835 4
64.7535 23.832 3.96835
63.8898 14.3274 3.98399
63.5111 17.4503 3.97275
62.9026 20.3247 3.96823
62.0805 22.9501 3.96727
60.6838 11.0981 3.98735
57.6118 11.4503 3.97937
72.1454 51.8506 0
69.9759 56.25 0
68.8362 53.1129 0.0183091
64.0165 64.0165 0
63.8854 60.7658 0.0170704
66.6105 57.1335 0.0182919
63.4988 57.7693 0.0273257
62.2255 65.694 2
58.8957 65.4136 2
69.7688 50.9879 2
67.7839 55.1643 2
66.6478 52.2077 2
62.3377 62.4255 2
64.659 56.0299 2
62.2008 59.402 2
61.8179 56.6759 2
60.6686 63.9769 3.98855
57.0256 66.7348 3.99165
57.5577 63.6905 3.98194
67.5063 50.1759 3.9703
65.7007 54.1723 3.97157
64.5344 51.3825 3.9672
60.7723 60.9357 3.97741
62.8162 55.0636 3.96825
60.6538 58.1519 3.96711
60.3204 55.775 3.96834
56.25 69.9759 4
58.3339 68.6801 2
60.3285 67.2507 0
58.9211 9.65633 3.98857
62.2254 9.30607 4
73.0099 49.554 0
74.2788 44.8158 0
71.2491 46.598 0.0192181
72.1681 42.0855 0.0191614
74.9194 39.9526 0
75 37.5 2
72.4053 39.8023 2
71.7823 44.3526 2
69.8026 41.7889 2
70.5749 48.8132 2
68.9111 46.0137 2
72.4887 37.512 3.98112
70.0404 39.657 3.97076
69.4293 43.9069 3.97038
67.5948 41.4965 3.96813
68.2648 48.1064 3.97019
66.7066 45.4381 3.96758
74.9197 35.0474 0
74.2794 30.1841 0
72.1847 32.9432 0.0186856
71.278 28.4313 0.0188328
65.694 12.7746 0
65.3231 16.1039 0.0188513
69.8154 24.0595 0.0175958
68.3458 26.9517 0.0289279
66.7615 22.9336 0.0281484
64.7121 19.1965 0.0269443
63.8836 22.0382 0.0315783
72.4131 35.2242 2
71.8038 30.6766 2
69.8388 33.2686 2
68.9651 29.0387 2
64.0165 10.9835 2
63.8916 14.3304 2
63.5106 17.4506 2
67.61 24.9128 2
66.1916 27.636 2
62.9019 20.3249 2
64.753 23.8323 2
62.0797 22.9503 2
60.6856 11.1 2
57.6124 11.4492 2
70.0571 35.3917 3.97093
69.4661 31.1495 3.97084
67.6532 33.5912 3.96844
66.7693 29.6237 3.96794
65.5211 25.7008 3.96816
64.1199 28.2615 3.9693
62.3415 12.6553 3.98615
62.8407 24.6438 3.96803
62.1977 15.7882 3.97519
61.807 18.6919 3.96701
61.2072 21.3497 3.96598
60.3907 23.7411 3.96856
59.2457 12.7821 3.97791
55.8741 10.2358 3.98186
56.404 13.1211 3.97505
69.7688 50.9888 0.0185043
62.2254 65.694 0
58.8946 65.4142 0.00926381
67.7835 55.1671 0.0183036
66.6483 52.2084 0.0291308
62.336 62.4275 0.0136563
62.2013 59.4014 0.0265869
64.6595 56.0302 0.0271245
61.8185 56.6755 0.0315587
60.6701 63.9757 2
57.0263 66.7345 2
57.5578 63.6919 2
67.5061 50.1753 2
65.7001 54.1717 2
64.5339 51.3824 2
60.7723 60.9369 2
62.8156 55.0637 2
60.6534 58.1526 2
60.32 55.7751 2
55.0713 67.9317 3.99211
59.2186 62.3641 3.97885
55.8047 64.9093 3.98533
56.3255 62.0859 3.97692
65.3286 49.4059 3.96713
63.7022 53.289 3.9675
62.4186 50.6425 3.96707
59.3307 59.5518 3.97217
61.0696 54.3001 3.96763
59.2804 56.997 3.96463
59.2315 55.1694 3.96694
48.1026 68.578 3.98778
50.9491 69.9313 3.99233
54.0858 71.1327 4
56.25 69.976 2
58.3339 68.6801 0
57.0586 8.33619 3.9897
60.3285 7.74928 4
58.9228 9.65748 2
62.2255 9.30602 2
70.5749 48.8134 0.0189359
71.7824 44.3528 0.0190749
68.9112 46.0141 0.0297416
69.803 41.7891 0.0295045
72.4054 39.8021 0.0186159
75 37.5 0
72.4884 37.5121 2
70.0404 39.6569 2
69.4292 43.9066 2
67.5945 41.4963 2
68.2647 48.1059 2
66.7064 45.4379 2
70.1285 37.5212 3.97092
67.8325 39.5116 3.96843
67.2202 43.4685 3.96776
65.5179 41.2055 3.97074
66.0656 47.4159 3.96739
64.6158 44.8411 3.96947
72.4132 35.2241 0.0185955
71.8038 30.6762 0.0186579
69.8392 33.2683 0.0289248
68.9651 29.0383 0.0291366
64.0165 10.9835 0
63.8898 14.3274 0.016007
63.5111 17.4503 0.0272502
67.6103 24.9123 0.028627
66.1917 27.6358 0.0320467
64.7535 23.832 0.0316503
62.9026 20.3247 0.031773
62.0805 22.9501 0.0327337
60.6838 11.0981 0.0126498
57.6118 11.4503 0.0206274
70.0571 35.392 2
69.4661 31.1498 2
67.6529 33.5914 2
66.7694 29.6239 2
62.3433 12.6578 2
62.1974 15.7879 2
61.8066 18.6918 2
65.5208 25.701 2
64.1192 28.2617 2
61.2065 21.3497 2
62.8402 24.644 2
60.3906 23.7415 2
59.2461 12.7816 2
56.4043 13.1198 2
55.8746 10.2346 2
67.8685 35.5475 3.96852
67.2628 31.623 3.9682
65.6692 33.9293 3.97099
64.6328 30.1971 3.96966
63.5171 26.4205 3.9688
62.1978 28.7893 3.97276
60.7748 14.2265 3.97774
61.0031 25.351 3.97022
60.6076 17.1359 3.97009
60.2079 19.8275 3.96531
59.6251 22.2739 3.96586
58.9217 24.34 3.97072
54.0375 9.13769 3.98346
57.9087 14.3393 3.97635
54.786 12.0182 3.9769
55.3098 14.659 3.97441
67.5063 50.1759 0.0297048
57.0256 66.7348 0.00834642
60.6686 63.9769 0.0114545
57.5577 63.6905 0.0180608
65.7007 54.1723 0.0284268
64.5344 51.3825 0.0328008
60.7723 60.9357 0.0225899
60.6538 58.1519 0.0328891
62.8162 55.0636 0.0317456
60.3204 55.775 0.0316562
55.0719 67.9316 2
59.2187 62.3654 2
55.8046 64.9103 2
56.3254 62.0874 2
65.3283 49.4057 2
63.7015 53.2889 2
62.4189 50.6425 2
59.3304 59.5533 2
61.0692 54.3001 2
59.2801 56.9968 2
59.2313 55.1691 2
53.0433 68.9995 3.99221
53.9671 66.0123 3.98677
57.8788 60.8653 3.97609
54.6835 63.205 3.9811
55.2091 60.6076 3.97612
63.1637 48.6516 3.96786
61.7272 52.5662 3.96683
60.2165 50.0007 3.96878
58.0115 58.2519 3.96877
59.3134 53.9328 3.96721
58.1086 55.794 3.96516
50.1093 67.8561 3.98759
47.4632 66.5792 3.9846
46.0562 69.1571 3.98789
48.1025 68.5785 2
48.8032 70.7226 3.99243
50.9495 69.9314 2
51.8506 72.1454 4
54.0858 71.1327 2
56.25 69.9759 0
55.1033 7.14062 3.99083
58.3339 6.31992 4
57.0599 8.33673 2
60.3286 7.74926 2
58.9211 9.65633 0.0114303
62.2254 9.30607 0
68.2648 48.1064 0.0298076
69.4293 43.9069 0.0296152
66.7066 45.4381 0.032424
67.5948 41.4965 0.0318715
70.0404 39.657 0.0292392
72.4887 37.512 0.0188832
70.1282 37.5213 2
67.8325 39.5115 2
67.2204 43.4683 2
65.5171 41.2054 2
66.0655 47.4157 2
64.615 44.8408 2
67.9288 37.5216 3.96853
65.7522 39.3676 3.97109
65.1401 43.0195 3.97019
63.673 40.9222 3.97409
63.9287 46.708 3.96863
62.7305 44.2037 3.97327
70.0571 35.3917 0.0290678
69.4661 31.1495 0.029165
67.6532 33.5912 0.0315611
66.7693 29.6237 0.0320619
62.3415 12.6553 0.0138504
62.1977 15.7882 0.0248132
61.807 18.6919 0.0329909
65.5211 25.7008 0.0318371
64.1199 28.2615 0.0307017
62.8407 24.6438 0.0319658
61.2072 21.3497 0.0340158
60.3907 23.7411 0.0314403
59.2457 12.7821 0.0220892
56.404 13.1211 0.024953
55.8741 10.2358 0.0181419
67.8685 35.5476 2
67.2627 31.6231 2
65.6688 33.9294 2
64.6323 30.1973 2
60.7747 14.2262 2
60.6072 17.135 2
60.2079 19.8274 2
63.5167 26.4207 2
62.1966 28.7896 2
59.627 22.2741 2
61.0027 25.3514 2
58.9208 24.3408 2
57.9084 14.3385 2
55.3098 14.6588 2
54.0378 9.13656 2
54.7863 12.0164 2
65.843 35.6674 3.97091
65.152 32.1581 3.97026
64.2227 34.2526 3.97448
62.5141 30.6461 3.97345
61.5961 27.0853 3.97124
60.7612 29.1556 3.97637
59.3082 15.6756 3.9747
59.2558 25.8168 3.97382
59.1119 18.3694 3.96695
58.7144 20.8704 3.96375
58.2273 23.1139 3.96626
57.894 24.6891 3.97272
52.1122 8.15508 3.98509
53.0579 11.0222 3.97932
56.6727 15.7535 3.97581
53.8077 13.692 3.97574
54.3709 16.0148 3.97583
55.0713 67.9317 0.00789138
65.3286 49.4059 0.0328746
55.8047 64.9093 0.0146691
59.2186 62.3641 0.0211524
56.3255 62.0859 0.0230794
63.7022 53.289 0.0324989
62.4186 50.6425 0.032931
59.3307 59.5518 0.0278318
59.2804 56.997 0.0353697
61.0696 54.3001 0.0323716
59.2315 55.1694 0.0330601
53.0437 68.9995 2
53.967 66.0131 2
57.8784 60.8666 2
54.6833 63.206 2
55.209 60.6091 2
63.1634 48.6515 2
61.7283 52.5663 2
60.216 50.0003 2
58.011 58.2535 2
59.3142 53.9325 2
58.1077 55.7935 2
52.0705 66.9991 3.98733
52.9535 64.2169 3.98326
56.6443 59.4811 3.97449
53.6799 61.6179 3.97795
54.2553 59.3094 3.97477
60.9163 47.8621 3.9694
59.667 52.0871 3.96788
57.9348 49.5903 3.97031
56.7644 56.9684 3.96725
57.0895 54.1011 3.96579
50.1092 67.8566 2
49.3371 65.9196 3.98445
47.4631 66.5797 2
46.8926 64.7331 3.98293
45.5582 67.0962 3.98473
43.9732 69.5893 3.988
46.0562 69.1576 2
46.6097 71.367 3.99242
48.1026 68.578 0.0122239
48.8035 70.7228 2
49.554 73.0099 4
50.9491 69.9313 0.00767104
51.8506 72.1455 2
54.0858 71.1327 0
53.0647 6.07207 3.99147
55.1042 7.14072 2
56.25 5.02411 4
58.3339 6.3199 2
57.0586 8.33619 0.010301
60.3285 7.74928 0
66.0656 47.4159 0.0326129
67.2202 43.4685 0.032242
64.6158 44.8411 0.0305325
65.5179 41.2055 0.0292641
67.8325 39.5116 0.0315731
70.1285 37.5212 0.0290766
67.9286 37.5216 2
65.7515 39.3676 2
65.1395 43.0193 2
63.6719 40.922 2
63.9279 46.7077 2
62.729 44.2033 2
65.8559 37.5008 3.97089
63.8164 39.262 3.9737
63.2426 42.5397 3.97363
62.3148 40.688 3.97728
61.8908 45.9036 3.97133
61.3384 43.6668 3.97682
67.8685 35.5475 0.0314778
67.2628 31.623 0.0317975
65.6692 33.9293 0.0290143
64.6328 30.1971 0.0303386
60.7748 14.2265 0.0222643
60.6076 17.1359 0.0299099
60.2079 19.8275 0.0346916
63.5171 26.4205 0.0311993
62.1978 28.7893 0.0272359
61.0031 25.351 0.0297837
59.6251 22.2739 0.0341366
58.9217 24.34 0.0292799
57.9087 14.3393 0.0236533
55.3098 14.659 0.0255896
54.0375 9.13769 0.0165391
54.786 12.0182 0.0230998
65.8422 35.6674 2
65.1519 32.1582 2
64.2222 34.2527 2
62.5128 30.6464 2
59.3076 15.6751 2
59.1119 18.3686 2
58.7156 20.8706 2
61.5954 27.0857 2
60.7604 29.156 2
58.2269 23.1147 2
59.2551 25.8175 2
57.8934 24.6901 2
56.6723 15.7527 2
54.3704 16.0148 2
53.8077 13.6895 2
52.1124 8.15417 2
53.0579 11.0208 2
64.018 35.6331 3.97383
62.8409 33.0529 3.97437
60.5042 30.6267 3.97647
59.4746 27.9301 3.97487
57.9328 16.9944 3.97237
57.6509 25.7521 3.9753
57.6939 19.4946 3.9639
57.3207 21.8641 3.96281
57.1029 23.9752 3.96805
50.1126 7.28583 3.98692
51.2327 10.1285 3.98118
52.171 12.805 3.9774
55.5298 16.9869 3.97492
52.9742 15.2812 3.97362
53.7499 16.9994 3.97924
53.0433 68.9995 0.00778668
53.9671 66.0123 0.0132276
63.1637 48.6516 0.0321437
54.6835 63.205 0.0188969
57.8788 60.8653 0.0239148
55.2091 60.6076 0.0238838
61.7272 52.5662 0.0331733
60.2165 50.0007 0.031225
58.0115 58.2519 0.031235
58.1086 55.794 0.0348403
59.3134 53.9328 0.0327939
52.0704 66.9996 2
52.9532 64.2177 2
56.6439 59.482 2
53.6797 61.6188 2
54.2552 59.3109 2
60.9151 47.8616 2
59.6677 52.0869 2
57.9319 49.5893 2
56.7632 56.9729 2
57.0879 54.1005 2
51.1682 65.1265 3.98445
52.0458 62.5354 3.98056
55.4731 58.2389 3.97505
52.8309 60.1267 3.97739
53.6317 58.4594 3.97902
58.1836 46.8206 3.97382
57.5018 51.7624 3.96746
56.13 49.5223 3.97062
55.4487 55.7683 3.96289
55.3085 53.356 3.96384
50.1093 67.8561 0.0124059
49.337 65.9201 2
48.6183 64.1199 3.98318
47.4632 66.5792 0.015395
45.5582 67.0968 2
46.8925 64.7336 2
46.3823 63.0489 3.98243
45.1328 65.1941 3.98298
43.6314 67.4668 3.9848
41.8604 69.8767 3.98787
43.9731 69.5898 2
44.377 71.8619 3.99236
46.0562 69.1571 0.0121125
46.61 71.3673 2
47.2057 73.7222 4
48.8032 70.7226 0.0075682
49.554 73.0099 2
51.8506 72.1454 0
50.9547 5.13227 3.99209
53.0653 6.07201 2
54.0858 3.86728 4
55.1033 7.14062 0.00916715
56.25 5.02406 2
58.3339 6.31992 0
63.9287 46.708 0.0313671
65.1401 43.0195 0.0298108
62.7305 44.2037 0.0267278
63.673 40.9222 0.0259083
65.7522 39.3676 0.0289059
67.9288 37.5216 0.031465
65.8551 37.5008 2
63.8153 39.2619 2
63.2414 42.5394 2
62.3132 40.6877 2
61.8893 45.9031 2
61.337 43.6663 2
63.879 37.455 3.97349
62.0361 39.3489 3.97696
61.0856 41.9431 3.97667
60.1357 44.7494 3.9757
65.843 35.6674 0.029087
65.152 32.1581 0.0297388
64.2227 34.2526 0.0255161
62.5141 30.6461 0.0265464
59.3082 15.6756 0.0253009
59.1119 18.3694 0.0330527
58.7144 20.8704 0.0362467
61.5961 27.0853 0.0287607
60.7612 29.1556 0.0236284
59.2558 25.8168 0.0261808
58.2273 23.1139 0.0337389
57.894 24.6891 0.0272763
56.6727 15.7535 0.0241923
54.3709 16.0148 0.0241706
53.8077 13.692 0.0242582
52.1122 8.15508 0.0149053
53.0579 11.0222 0.0206819
64.0172 35.6331 2
62.8399 33.0532 2
60.503 30.6271 2
57.9321 16.994 2
57.6942 19.4934 2
57.3217 21.8647 2
59.4735 27.9307 2
57.1019 23.9763 2
57.6503 25.7531 2
50.1127 7.28476 2
55.5293 16.9864 2
53.7493 16.999 2
52.9741 15.2807 2
52.1711 12.804 2
51.2328 10.1274 2
62.0717 35.3632 3.97597
60.1475 32.7585 3.97665
58.483 30.0993 3.97694
57.1695 27.4111 3.9762
56.6233 18.172 3.97167
56.1916 25.1352 3.97267
56.3234 20.5448 3.96183
56.0306 22.9008 3.96272
48.0567 6.52796 3.9884
49.325 9.3341 3.98262
50.4327 12.0005 3.97875
51.3745 14.5091 3.97437
54.4018 17.9387 3.97612
52.3532 17.0608 3.97176
52.0705 66.9991 0.0126679
52.9535 64.2169 0.0167381
60.9163 47.8621 0.0305972
53.6799 61.6179 0.0220543
56.6443 59.4811 0.0255062
54.2553 59.3094 0.0252316
59.667 52.0871 0.032119
57.9348 49.5903 0.029686
56.7644 56.9684 0.0327456
57.0895 54.1011 0.0342055
51.168 65.127 2
52.0454 62.5361 2
55.4726 58.2399 2
52.8308 60.1293 2
53.6313 58.4602 2
58.1821 46.8198 2
57.501 51.7618 2
56.1269 49.5214 2
55.4486 55.7688 2
55.3102 53.3564 2
50.3464 63.3786 3.98288
51.2425 60.9297 3.97777
54.2051 57.2551 3.97508
52.3055 58.6192 3.97587
56.5205 44.1456 3.9778
55.3399 47.858 3.97213
54.9884 51.3593 3.9665
53.9646 54.5154 3.96337
49.3371 65.9196 0.0155485
48.6182 64.1204 2
47.9622 62.4704 3.98193
45.5582 67.0962 0.0152733
46.8926 64.7331 0.0170685
43.6314 67.4674 2
46.3823 63.0494 2
45.1327 65.1947 2
45.9878 61.5801 3.98277
44.7676 63.4491 3.98166
43.3569 65.5033 3.98279
41.6636 67.6855 3.98462
39.7022 70.0236 3.98809
41.8604 69.8771 2
42.1113 72.2068 3.99232
43.9732 69.5893 0.0120034
44.3773 71.8622 2
44.8159 74.2794 4
46.6097 71.367 0.00758037
47.2057 73.7222 2
49.554 73.0099 0
48.7853 4.32291 3.9926
50.9551 5.1319 2
51.8506 2.85458 4
53.0647 6.07207 0.00853285
54.0858 3.86728 2
56.25 5.02411 0
61.8908 45.9036 0.0286741
63.2426 42.5397 0.0263698
61.3384 43.6668 0.0231768
62.3148 40.688 0.0227236
63.8164 39.262 0.0262953
65.8559 37.5008 0.029113
63.8778 37.455 2
62.0344 39.3489 2
61.084 41.9427 2
60.1343 44.7488 2
61.8757 37.4436 3.97722
60.0824 39.8317 3.97744
58.8164 42.8914 3.97744
64.018 35.6331 0.0261694
62.8409 33.0529 0.0256268
60.5042 30.6267 0.0235263
57.9328 16.9944 0.0276269
57.6939 19.4946 0.0360973
57.3207 21.8641 0.0371885
59.4746 27.9301 0.0251298
57.6509 25.7521 0.0246988
57.1029 23.9752 0.0319475
55.5298 16.9869 0.0250756
53.7499 16.9994 0.0207574
52.9742 15.2812 0.026376
50.1126 7.28583 0.0130821
52.171 12.805 0.022605
51.2327 10.1285 0.0188154
62.0707 35.3634 2
60.1452 32.7588 2
58.4822 30.1 2
56.6226 18.1715 2
56.3241 20.5423 2
56.0322 22.9017 2
57.1704 27.4119 2
56.1925 25.1364 2
48.0567 6.52693 2
49.3251 9.33292 2
54.4015 17.9384 2
52.3524 17.0606 2
51.3741 14.5074 2
50.4329 11.9995 2
59.7276 35.129 3.97715
57.8005 32.2967 3.97723
56.3897 29.3741 3.97739
55.2978 26.6412 3.97628
55.3199 19.2078 3.97053
54.8286 24.0973 3.96458
54.9478 21.5918 3.95894
45.9628 5.88268 3.989
43.3743 7.47382 3.98598
47.3556 8.62574 3.98438
48.6001 11.2989 3.98
49.7113 13.7522 3.97818
50.6279 16.1528 3.97738
53.1071 18.6848 3.97173
51.2877 18.0762 3.97972
51.1682 65.1265 0.0155529
52.0458 62.5354 0.019436
58.1836 46.8206 0.0261792
52.8309 60.1267 0.0226068
55.4731 58.2389 0.0249502
53.6317 58.4594 0.020978
57.5018 51.7624 0.0325404
56.13 49.5223 0.0293802
55.4487 55.7683 0.0371112
55.3085 53.356 0.0361578
50.3461 63.3787 2
51.2421 60.93 2
54.2047 57.2562 2
52.3049 58.6199 2
56.5195 44.1447 2
55.3391 47.8571 2
54.9892 51.3591 2
53.9651 54.5166 2
49.5918 61.7411 3.98149
55.3608 41.6725 3.97612
50.5617 59.3198 3.9746
52.165 56.4735 3.9695
53.9671 45.514 3.97512
53.1952 49.2898 3.9704
52.6021 52.8203 3.96432
48.6183 64.1199 0.0168156
47.9622 62.4707 2
47.3285 61.0031 3.98345
43.6314 67.4668 0.0152018
45.1328 65.1941 0.0170219
46.3823 63.0489 0.0175728
41.6636 67.6857 2
43.3568 65.5041 2
45.988 61.5807 2
44.7676 63.4498 2
45.7655 60.6236 3.98129
44.484 61.8285 3.98142
43.1468 63.7211 3.98119
41.5464 65.641 3.98208
39.6328 67.765 3.98429
37.526 70.0485 3.98778
39.7022 70.0242 2
39.8179 72.4038 3.99217
41.8604 69.8767 0.0121284
42.1115 72.2071 2
42.3947 74.6792 4
44.377 71.8619 0.00764277
44.8159 74.2794 2
47.2057 73.7222 0
43.8521 5.35947 3.98904
46.5713 3.64732 3.99279
48.7855 4.3225 2
49.554 1.99015 4
50.9547 5.13227 0.00790832
51.8506 2.85453 2
54.0858 3.86728 0
60.1357 44.7494 0.0243023
61.0856 41.9431 0.0233319
62.0361 39.3489 0.0230396
63.879 37.455 0.0265116
61.8741 37.4438 2
60.0813 39.8314 2
58.8153 42.8908 2
59.5834 37.5647 3.97762
57.7756 40.6331 3.97776
54.7982 39.6853 3.97608
62.0717 35.3632 0.0240259
60.1475 32.7585 0.0233478
58.483 30.0993 0.0230622
56.6233 18.172 0.0283302
56.3234 20.5448 0.0381684
56.0306 22.9008 0.0372809
57.1695 27.4111 0.0238001
56.1916 25.1352 0.0273286
54.4018 17.9387 0.0238839
52.3532 17.0608 0.0282389
51.3745 14.5091 0.0256328
48.0567 6.52796 0.0116038
49.325 9.3341 0.0173816
50.4327 12.0005 0.0212481
59.7263 35.1293 2
45.9626 5.8821 2
43.3741 7.47331 2
57.7997 32.2975 2
56.3894 29.3749 2
55.3193 19.2077 2
54.9505 21.5914 2
54.8276 24.0987 2
55.2935 26.6428 2
47.3557 8.62406 2
48.6002 11.2977 2
53.107 18.6841 2
51.2874 18.0775 2
50.6276 16.1527 2
49.7109 13.7513 2
57.1644 34.7741 3.97746
55.5263 31.5531 3.97769
54.315 28.4576 3.97817
53.6498 25.5479 3.97411
53.9375 20.1625 3.97151
53.5063 22.7527 3.95617
41.3994 7.07933 3.9864
45.3605 7.99543 3.98633
42.8663 9.41712 3.98316
46.667 10.6569 3.98165
47.7439 13.1092 3.9802
48.9276 15.4139 3.97583
49.9952 17.7197 3.97592
51.6257 19.3535 3.97827
50.3464 63.3786 0.0171191
51.2425 60.9297 0.0222311
56.5205 44.1456 0.0222042
55.3399 47.858 0.0278657
52.3055 58.6192 0.0241292
54.2051 57.2551 0.024918
54.9884 51.3593 0.0334961
53.9646 54.5154 0.0366346
49.5913 61.7408 2
55.3609 41.6725 2
50.5613 59.3206 2
52.1645 56.4744 2
53.9722 45.5132 2
53.1989 49.2899 2
52.6031 52.8198 2
48.8463 60.1976 3.97938
52.2237 42.5894 3.98141
49.7778 57.6112 3.97425
50.5489 54.405 3.96599
51.6175 47.2228 3.97614
51.11 50.9118 3.96116
47.8741 43.7316 3.99013
47.9622 62.4704 0.0180669
47.3288 61.0034 2
46.6167 59.7885 3.98259
41.6636 67.6855 0.0153756
43.3569 65.5033 0.0172098
44.7676 63.4491 0.0183402
45.9878 61.5801 0.0172252
39.633 67.7657 2
41.5462 65.6408 2
45.7655 60.6244 2
43.1468 63.7218 2
44.4841 61.8291 2
44.6224 60.2851 3.98245
42.951 62.0761 3.97972
41.6002 63.8144 3.98131
39.6478 65.6084 3.98116
37.5635 67.7468 3.98384
31.6969 65.1273 3.98197
33.3924 67.4844 3.98352
35.3336 69.9585 3.98782
37.526 70.0492 2
37.5095 72.4583 3.99205
39.7022 70.0236 0.0119133
39.8181 72.4042 2
39.9526 74.9197 4
42.1113 72.2068 0.00768148
42.3947 74.6792 2
44.8159 74.2794 0
41.7366 4.96868 3.98928
43.852 5.35891 2
44.3265 3.11039 3.99313
46.5714 3.64702 2
47.2057 1.27793 4
48.7853 4.32291 0.00740042
49.554 1.99013 2
51.8506 2.85458 0
58.8164 42.8914 0.0225555
60.0824 39.8317 0.0225601
61.8757 37.4436 0.0227806
59.5821 37.5649 2
57.776 40.6329 2
54.7991 39.6851 2
56.5651 37.8839 3.97756
49.2571 41.3001 3.99043
52.8198 39.3005 3.98438
39.4429 6.80315 3.98628
59.7276 35.129 0.0228535
57.8005 32.2967 0.022773
56.3897 29.3741 0.0226088
55.3199 19.2078 0.0294732
54.9478 21.5918 0.0410575
54.8286 24.0973 0.0354212
55.2978 26.6412 0.0237223
53.1071 18.6848 0.0282724
51.2877 18.0762 0.020283
50.6279 16.1528 0.0226154
45.9628 5.88268 0.0109994
49.7113 13.7522 0.0218232
47.3556 8.62574 0.0156218
48.6001 11.2989 0.0200005
43.3743 7.47382 0.0140191
57.1625 34.7734 2
41.3994 7.07861 2
45.3602 7.9949 2
42.866 9.4167 2
55.5285 31.5534 2
54.3136 28.459 2
53.9374 20.1631 2
53.5064 22.75 2
53.6473 25.5495 2
46.6671 10.6543 2
47.7438 13.1076 2
51.6259 19.3542 2
49.9943 17.7186 2
48.9268 15.4136 2
54.5944 33.9729 3.97629
53.2692 30.5452 3.97766
52.4136 27.2644 3.97503
52.0458 24.1545 3.97671
52.3457 21.0895 3.97649
41.014 9.05033 3.98323
44.7252 9.99593 3.98415
42.4688 10.9042 3.98462
46.0045 12.7355 3.97845
47.6778 14.5937 3.9747
48.1025 16.999 3.9748
49.8021 19.6837 3.97708
49.5918 61.7411 0.0185143
50.5617 59.3198 0.0254032
55.3608 41.6725 0.0238809
53.9671 45.514 0.0248752
53.1952 49.2898 0.0296037
52.165 56.4735 0.0305018
52.6021 52.8203 0.0356826
48.846 60.1961 2
52.2321 42.5913 2
49.7771 57.6118 2
50.5488 54.4063 2
51.6214 47.2235 2
51.1114 50.9109 2
47.8825 43.7514 2
47.9804 58.7323 3.97917
49.8257 45.2282 3.98069
48.5722 55.9033 3.97668
49.0606 52.5663 3.97359
49.5289 49.0077 3.97094
45.659 39.8532 3.88408
46.1087 42.6085 3.92041
46.2586 45.7718 3.9877
43.4774 41.1157 3.80034
41.865 41.9956 3.66727
47.3285 61.0031 0.01655
46.6165 59.7893 2
45.4642 58.7848 3.98182
39.6328 67.765 0.015713
41.5464 65.641 0.0179165
43.1468 63.7211 0.018808
44.484 61.8285 0.0185789
45.7655 60.6236 0.018709
41.6002 63.8144 2
37.5636 67.7475 2
39.6477 65.609 2
44.6224 60.2857 2
42.9511 62.0766 2
41.7539 62.4873 3.98035
42.4801 59.9737 3.98199
39.8939 63.5478 3.97983
37.6423 65.507 3.98167
35.4636 67.656 3.98369
33.5753 65.3397 3.98118
31.9589 63.2972 3.98161
29.8829 64.7191 3.98305
31.6969 65.128 2
31.3769 67.1946 3.98404
33.3924 67.4851 2
33.1567 69.7521 3.98762
35.3336 69.9593 2
35.1948 72.3727 3.99199
37.526 70.0485 0.0122243
37.5096 72.4588 2
37.5 75 4
39.8179 72.4038 0.00783205
39.9526 74.9197 2
42.3947 74.6792 0
39.6243 4.71609 3.98955
41.7366 4.96801 2
42.0628 2.71792 3.99329
43.8521 5.35947 0.0109588
44.3266 3.11002 2
44.8158 0.721173 4
46.5713 3.64732 0.00720817
47.2057 1.27779 2
49.554 1.99015 0
57.7756 40.6331 0.0222385
59.5834 37.5647 0.0223817
54.7982 39.6853 0.0239206
49.2754 41.3051 2
56.5637 37.8838 2
52.8212 39.2934 2
53.664 36.629 3.97717
47.1819 40.3698 3.92857
50.1961 38.5114 3.99268
37.5168 6.6745 3.98627
39.4429 6.80224 2
39.2115 8.69352 3.98392
35.9426 8.49408 3.98386
57.1644 34.7741 0.022545
55.5263 31.5531 0.0223106
54.315 28.4576 0.0218253
53.9375 20.1625 0.028487
53.5063 22.7527 0.0438291
53.6498 25.5479 0.0258875
51.6257 19.3535 0.0217322
49.9952 17.7197 0.0240804
48.9276 15.4139 0.0241732
45.3605 7.99543 0.0136712
47.7439 13.1092 0.0198046
46.667 10.6569 0.0183461
41.3994 7.07933 0.013598
42.8663 9.41712 0.0168446
54.5908 33.9745 2
41.0139 9.04985 2
44.7246 9.99561 2
42.4684 10.9042 2
53.2663 30.5442 2
52.4195 27.2661 2
52.3468 21.0899 2
52.0468 24.1555 2
46.0043 12.7317 2
47.6773 14.5918 2
49.8023 19.6842 2
48.1013 16.9976 2
52.1498 32.887 3.98046
51.0812 29.2242 3.97565
50.6412 25.7946 3.9721
49.897 22.2676 3.98064
40.5698 11.6099 3.98069
43.8586 11.9178 3.98003
45.7974 15.4304 3.98148
47.4931 19.297 3.97747
46.0182 37.4825 3.88866
48.8463 60.1976 0.020621
49.7778 57.6112 0.0257462
52.2237 42.5894 0.0185949
51.6175 47.2228 0.0238623
51.11 50.9118 0.0388391
50.5489 54.405 0.0340143
47.8741 43.7316 0.00987439
47.9795 58.7326 2
49.8363 45.236 2
48.5708 55.9049 2
49.0602 52.5697 2
49.5318 49.0075 2
45.6923 39.8588 2
46.1315 42.6286 2
46.2595 45.7716 2
43.5018 41.1401 2
41.8789 42.0094 2
46.8269 57.3346 3.98251
44.226 39.3994 3.80119
42.2167 40.8625 3.71711
47.8772 47.1972 3.97715
47.1282 54.2202 3.97371
47.492 50.7191 3.96975
44.63 47.3649 3.97794
44.7645 41.9301 3.87235
44.729 44.5056 3.93716
42.3517 42.6246 3.80957
40.7854 42.3288 3.70197
46.6167 59.7885 0.0174123
45.4642 58.7854 2
43.8698 57.7066 3.9842
37.5635 67.7468 0.0161567
39.6478 65.6084 0.0188433
41.6002 63.8144 0.0186921
42.951 62.0761 0.0202818
44.6224 60.2851 0.0175469
35.4637 67.6571 2
41.754 62.4875 2
39.8938 63.5481 2
37.6424 65.5076 2
42.4802 59.9741 2
40.6238 61.6434 3.98095
40.4422 58.2009 3.98097
37.837 63.209 3.97989
35.5729 65.4285 3.98109
33.5754 65.3401 2
31.9587 63.2979 2
33.6284 63.3357 3.98045
30.3779 62.8568 3.98211
32.123 62.0023 3.98279
26.8689 61.4986 3.98063
28.0618 64.1472 3.98264
29.883 64.7197 2
29.4063 66.7588 3.98453
31.6969 65.1273 0.018027
31.377 67.1953 2
31.0141 69.4172 3.98762
33.3924 67.4844 0.0164794
33.1567 69.7528 2
32.8918 72.147 3.99211
35.3336 69.9585 0.0121784
35.1948 72.3731 2
35.0474 74.9194 4
37.5095 72.4583 0.00794641
37.5 75 2
39.9526 74.9197 0
35.6214 6.72567 3.98576
37.5237 4.61567 3.98961
39.6242 4.71528 2
39.7892 2.47441 3.99328
41.7366 4.96868 0.0107212
42.0628 2.71751 2
42.3946 0.32156 4
44.3265 3.11039 0.00686625
44.8159 0.72056 2
47.2057 1.27793 0
49.2571 41.3001 0.00957237
56.5651 37.8839 0.0224444
52.8198 39.3005 0.015623
47.2004 40.3821 2
50.2076 38.506 2
53.6717 36.6319 2
50.9848 35.5706 3.97729
47.8428 37.7481 3.94038
45.658 35.1331 3.88436
43.484 33.8692 3.79517
41.8717 32.9986 3.66358
37.4585 8.53546 3.98443
37.5167 6.67348 2
39.4429 6.80315 0.0137184
39.2115 8.69248 2
38.9768 10.1281 3.98345
35.8993 9.77534 3.98237
34.1513 8.8238 3.98328
35.9422 8.49291 2
54.5944 33.9729 0.0237146
53.2692 30.5452 0.0223374
52.4136 27.2644 0.0249654
52.3457 21.0895 0.023508
52.0458 24.1545 0.0232905
49.8021 19.6837 0.0229195
48.1025 16.999 0.0251971
47.6778 14.5937 0.0252993
44.7252 9.99593 0.0158496
46.0045 12.7355 0.0215547
41.014 9.05033 0.0167657
42.4688 10.9042 0.0153798
52.1551 32.8869 2
40.5699 11.6103 2
43.8575 11.918 2
51.0952 29.225 2
50.6456 25.7963 2
49.8965 22.2658 2
45.7963 15.4251 2
47.4926 19.3027 2
49.6906 31.458 3.98437
49.09 27.5667 3.97369
49.3028 24.4809 3.98272
47.1616 22.0432 3.97496
38.303 12.7397 3.97879
42.1014 14.3077 3.97843
44.7935 18.491 3.97659
44.5482 37.4903 3.80794
46.07 37.4907 2
47.9804 58.7323 0.0208279
48.5722 55.9033 0.0233156
49.8257 45.2282 0.0193112
49.5289 49.0077 0.0290605
49.0606 52.5663 0.0264134
45.659 39.8532 0.115917
46.1087 42.6085 0.0795917
46.2586 45.7718 0.0123036
43.4774 41.1157 0.199662
41.865 41.9956 0.332726
46.8254 57.3347 2
44.2537 39.4185 2
42.207 40.8684 2
47.8778 47.1998 2
47.1261 54.2243 2
47.4932 50.7228 2
44.6372 47.3422 2
44.7879 41.9474 2
44.7446 44.5226 2
42.3952 42.6526 2
40.7892 42.3263 2
45.3785 55.925 3.9895
42.5364 39.2673 3.7287
40.6765 40.7687 3.8068
45.9563 48.8841 3.98553
45.4756 52.5089 3.97926
43.3172 48.3812 4.00037
43.2658 46.0506 3.91945
43.4614 43.7135 3.87039
40.963 43.7573 3.80094
39.2671 42.6527 3.72141
45.4642 58.7848 0.0181777
43.8698 57.7072 2
42.0981 56.3263 3.98644
35.4636 67.656 0.0163087
37.6423 65.507 0.0183259
39.8939 63.5478 0.0201733
41.7539 62.4873 0.0196465
42.4801 59.9737 0.0180117
35.5731 65.4299 2
40.6238 61.6437 2
37.8368 63.2093 2
40.4423 58.2014 2
38.9214 56.4922 3.98857
38.2507 60.3256 3.97968
35.6067 63.2011 3.97845
33.5753 65.3397 0.0188163
31.9589 63.2972 0.0183902
33.6284 63.3364 2
30.3779 62.8572 2
32.1231 62.003 2
28.6808 62.2017 3.98167
33.3456 61.5131 3.98185
31.0668 61.2197 3.98135
27.5707 59.5932 3.98098
23.7958 59.0802 3.97976
25.0351 60.8715 3.98049
26.8692 61.4992 2
26.2286 63.4785 3.98215
28.062 64.1476 2
27.4628 66.1829 3.9847
29.8829 64.7191 0.016946
29.4063 66.7593 2
28.9064 68.9432 3.98755
31.3769 67.1946 0.0159586
31.0141 69.4179 2
30.6141 71.7779 3.99207
33.1567 69.7521 0.0123789
32.8916 72.1474 2
32.6054 74.6784 4
35.1948 72.3727 0.00801182
35.0474 74.9197 2
37.5 75 0
33.7241 6.98052 3.98532
35.4354 4.68592 3.98943
35.6212 6.7248 2
37.5146 2.38698 3.99326
37.5236 4.61495 2
39.6243 4.71609 0.0104515
39.7891 2.47394 2
39.9526 0.0806499 4
42.0628 2.71792 0.00671373
42.3947 0.320817 2
44.8158 0.721173 0
44.241 35.5804 3.79598
42.2266 34.1225 3.71391
47.1819 40.3698 0.0714343
50.1961 38.5114 0.00732292
53.664 36.629 0.0228337
47.8513 37.751 2
50.9977 35.5693 2
45.6864 35.1157 2
43.5107 33.8445 2
41.8856 32.9849 2
48.0137 34.3056 3.96765
44.767 33.0482 3.86506
42.3609 32.3709 3.8059
40.7929 32.6701 3.69946
37.3113 10.6327 3.98155
37.4584 8.53395 2
37.5168 6.6745 0.0137313
39.2115 8.69352 0.016077
38.9772 10.1269 2
34.7546 10.382 3.98111
35.8991 9.77396 2
32.3782 9.37129 3.98192
34.1508 8.82289 2
35.9426 8.49408 0.0161409
52.1498 32.887 0.0195385
51.0812 29.2242 0.0243485
50.6412 25.7946 0.0278953
49.897 22.2676 0.0193637
47.4931 19.297 0.0225312
45.7974 15.4304 0.0185205
43.8586 11.9178 0.0199739
40.5698 11.6099 0.0193084
49.7018 31.4547 2
38.3025 12.7377 2
42.1012 14.3099 2
49.0964 27.5665 2
49.3055 24.4768 2
47.1573 22.0405 2
44.7932 18.503 2
47.5277 29.5626 3.98576
46.9949 25.23 3.98459
44.2719 21.4227 3.97543
36.5831 12.9374 3.9776
38.6826 14.8146 3.97709
41.7468 17.8614 3.97838
42.6549 37.4842 3.74074
44.5695 37.4905 2
46.0182 37.4825 0.111338
46.8269 57.3346 0.0174889
47.1282 54.2202 0.0262863
47.8772 47.1972 0.0228506
47.492 50.7191 0.0302533
44.226 39.3994 0.198808
44.7645 41.9301 0.127652
44.729 44.5056 0.0628403
44.63 47.3649 0.0220604
42.3517 42.6246 0.190433
42.2167 40.8625 0.282885
40.7854 42.3288 0.298034
45.3767 55.9238 2
42.5266 39.2653 2
40.6645 40.7543 2
45.9563 48.8899 2
45.4745 52.5149 2
43.3207 48.4005 2
43.2958 46.0773 2
43.489 43.7413 2
40.9924 43.793 2
39.2602 42.6435 2
43.7117 54.43 3.99641
40.7729 39.1562 3.83602
39.1308 40.8381 3.82644
43.6022 50.439 4.00379
41.89 47.5944 3.95482
41.8131 45.1353 3.88142
39.3389 44.4569 3.80791
37.5022 42.751 3.74409
43.8698 57.7066 0.0157974
42.098 56.3269 2
40.4091 54.9261 3.98348
35.5729 65.4285 0.0189131
37.837 63.209 0.0201076
40.6238 61.6434 0.0190458
40.4422 58.2009 0.0190323
35.6067 63.2023 2
38.2509 60.3257 2
38.9216 56.4919 2
37.9987 55.2417 3.99442
36.9342 57.6224 3.98254
35.3633 60.9086 3.97898
33.6284 63.3357 0.0195458
30.3779 62.8568 0.0178944
32.123 62.0023 0.0172051
33.3458 61.5139 2
28.681 62.2019 2
31.0672 61.2202 2
29.4042 60.2885 3.98021
32.359 59.7451 3.98563
28.0291 58.3738 3.98807
27.5712 59.5939 2
25.3835 58.5932 3.97826
22.7635 58.2352 3.97101
23.402 60.3498 3.97902
23.796 59.0812 2
25.0353 60.8725 2
24.4316 62.7706 3.98209
26.8689 61.4986 0.0193739
26.2289 63.4793 2
25.547 65.4926 3.9841
28.0618 64.1472 0.0173634
27.4629 66.1834 2
26.8359 68.3315 3.98757
29.4063 66.7588 0.0154749
28.9064 68.9435 2
28.3691 71.2632 3.99217
31.0141 69.4172 0.0123787
30.6138 71.7783 2
30.1842 74.2788 4
32.8918 72.147 0.00789375
32.6053 74.6792 2
35.0474 74.9194 0
31.7886 7.42077 3.98444
33.3477 4.92525 3.98901
33.7239 6.97968 2
35.2448 2.46304 3.99321
35.4353 4.68532 2
35.6214 6.72567 0.0142418
37.5 0 4
37.5145 2.38659 2
37.5237 4.61567 0.0103858
39.7892 2.47441 0.00672054
39.9526 0.0802889 2
42.3946 0.32156 0
42.5385 35.7084 3.73284
44.2651 35.5628 2
40.6849 34.2259 3.8059
42.2149 34.1189 2
47.8428 37.7481 0.059625
50.9848 35.5706 0.0227071
45.658 35.1331 0.115641
43.484 33.8692 0.204825
41.8717 32.9986 0.336415
48.0304 34.2921 2
44.792 33.0317 2
42.4007 32.3422 2
40.7973 32.6713 2
46.0387 31.5991 3.94197
43.4533 31.2836 3.87354
40.9649 31.2377 3.80151
39.2732 32.3552 3.72073
35.6933 11.7794 3.97954
37.3116 10.6305 2
37.4585 8.53546 0.015571
38.9768 10.1281 0.016549
33.0988 11.2203 3.97914
34.7544 10.3807 2
35.8993 9.77534 0.0176258
30.483 10.0205 3.98115
32.3777 9.37076 2
34.1513 8.8238 0.0167228
49.6906 31.458 0.0156336
49.09 27.5667 0.0263139
49.3028 24.4809 0.0172817
47.1616 22.0432 0.02504
44.7935 18.491 0.0234127
42.1014 14.3077 0.0215725
38.303 12.7397 0.0212067
36.5828 12.9355 2
47.5355 29.5437 2
38.6817 14.8121 2
41.7456 17.8681 2
47.0002 25.2263 2
44.2691 21.4034 2
45.3674 27.6858 4.00029
43.7376 24.1471 4.00578
41.3303 20.796 3.97966
35.7733 14.7668 3.9771
38.6821 17.6077 3.97854
40.8228 37.4771 3.84565
42.6493 37.4854 2
44.5482 37.4903 0.192062
45.3785 55.925 0.0104975
45.4756 52.5089 0.0207366
45.9563 48.8841 0.0144718
42.5364 39.2673 0.271295
43.4614 43.7135 0.129609
43.2658 46.0506 0.080549
43.3172 48.3812 -0.000374121
40.963 43.7573 0.199056
40.6765 40.7687 0.193201
39.2671 42.6527 0.278589
43.7088 54.4287 2
40.7548 39.1464 2
39.1256 40.8238 2
43.6012 50.4555 2
41.8833 47.6154 2
41.8345 45.1617 2
37.502 42.7454 2
39.3558 44.4829 2
41.8572 52.9882 3.99315
39.1458 39.1639 3.85318
37.4996 40.8814 3.84258
35.7392 42.6582 3.72185
40.8652 49.6481 3.99925
39.8062 46.0044 3.8611
37.5004 44.6817 3.79645
42.0981 56.3263 0.0135585
40.4085 54.9264 2
38.7251 53.8277 3.9937
35.6067 63.2011 0.0215494
38.2507 60.3256 0.0203157
38.9214 56.4922 0.0114341
35.3635 60.9093 2
36.9349 57.6224 2
37.9987 55.2395 2
36.323 55.3379 3.99383
34.4895 58.516 3.98544
33.3456 61.5131 0.0181482
28.6808 62.2017 0.0183273
31.0668 61.2197 0.0186515
32.3595 59.7459 2
29.4047 60.2885 2
30.3064 57.8186 3.98392
28.0294 58.3747 2
26.9599 56.8254 3.97659
27.5707 59.5932 0.0190217
25.3837 58.5945 2
23.8541 56.7937 3.9662
21.3444 57.3879 3.97012
21.9969 59.6203 3.9775
22.7636 58.2369 2
22.7361 62.0209 3.98022
23.4022 60.3508 2
23.7958 59.0802 0.020236
25.0351 60.8715 0.0195114
24.4319 62.7715 2
23.681 64.7103 3.98375
26.2286 63.4785 0.0178467
25.547 65.4933 2
24.808 67.5928 3.98738
27.4628 66.1829 0.0153007
26.8359 68.3322 2
26.1642 70.6039 3.99222
28.9064 68.9432 0.0124544
28.3688 71.2633 2
27.7943 73.7221 4
30.6141 71.7779 0.00793326
30.1841 74.2794 2
32.6054 74.6784 0
29.8112 7.99482 3.98355
31.253 5.33242 3.98821
31.7883 7.42 2
32.9805 2.70129 3.99291
33.3474 4.92458 2
33.7241 6.98052 0.0146765
35.0474 0.080333 4
35.2446 2.46273 2
35.4354 4.68592 0.0105741
37.5 0 2
37.5146 2.38698 0.00674393
39.9526 0.0806499 0
40.775 35.8168 3.83636
42.5274 35.7107 2
44.241 35.5804 0.204025
28.5438 10.6964 3.98025
39.1356 34.1685 3.82561
40.671 34.2398 2
42.2266 34.1225 0.286086
48.0137 34.3056 0.0323475
44.767 33.0482 0.134936
42.3609 32.3709 0.194096
40.7929 32.6701 0.300537
46.065 31.5869 2
43.4794 31.2566 2
40.9959 31.2054 2
39.2672 32.3646 2
44.2673 29.7935 3.93265
41.8139 29.8616 3.88081
39.3475 30.5466 3.80684
37.5101 32.2644 3.74336
34.0938 12.9399 3.97767
35.6934 11.7774 2
37.3113 10.6327 0.018453
31.187 11.9901 3.97918
33.0988 11.2197 2
34.7546 10.382 0.0188871
30.4824 10.019 2
32.3782 9.37129 0.018081
47.5277 29.5626 0.0142433
46.9949 25.23 0.0154146
36.5831 12.9374 0.0223998
44.2719 21.4227 0.0245744
41.7468 17.8614 0.0216208
38.6826 14.8146 0.0229064
35.7733 14.7681 2
45.3727 27.6858 2
38.6805 17.6123 2
41.3271 20.7815 2
43.7397 24.1333 2
33.6099 15.8869 3.9766
42.9431 26.5326 3.99689
40.8816 23.3602 4.01029
38.4151 20.3897 3.97888
35.851 17.5226 3.97864
39.1573 37.4864 3.87221
40.8042 37.477 2
42.6549 37.4842 0.259263
43.7117 54.43 0.0035925
43.6022 50.439 -0.00378618
40.7729 39.1562 0.163977
41.8131 45.1353 0.118576
41.89 47.5944 0.0451822
39.3389 44.4569 0.192087
39.1308 40.8381 0.173562
37.5022 42.751 0.255906
41.8549 52.9859 2
39.1348 39.1539 2
37.4995 40.86 2
40.8748 49.6637 2
35.7426 42.6488 2
39.8293 46.0373 2
37.4963 44.7047 2
39.7997 51.8655 4.00122
37.4978 39.1799 3.87427
35.8674 40.8526 3.82532
34.2181 42.3345 3.7002
35.6593 44.4695 3.80486
38.6727 48.6513 3.97081
37.5082 46.307 3.87173
40.4091 54.9261 0.016517
38.7247 53.8212 2
36.7389 53.1579 3.99999
35.3633 60.9086 0.0210217
36.9342 57.6224 0.017461
37.9987 55.2417 0.00558315
34.4903 58.5169 2
36.3241 55.3432 2
33.2425 55.5013 3.99535
32.359 59.7451 0.0143728
29.4042 60.2885 0.0197947
30.3072 57.8189 2
28.7169 55.3139 3.97849
28.0291 58.3738 0.0119285
26.9596 56.8264 2
25.3393 55.1328 3.97365
21.8321 55.3346 3.96552
25.3835 58.5932 0.0217443
23.8539 56.7959 2
20.2306 57.0165 3.97451
20.6503 58.772 3.97432
21.3442 57.3897 2
21.1673 61.1693 3.97845
21.9971 59.6213 2
22.7635 58.2352 0.0289944
21.8946 63.8376 3.98269
22.7363 62.022 2
23.402 60.3498 0.0209825
24.4316 62.7706 0.0179088
23.6811 64.711 2
22.8363 66.736 3.98688
25.547 65.4926 0.0159033
24.8081 67.5936 2
24.0084 69.805 3.99231
26.8359 68.3315 0.0124341
26.1639 70.6042 2
25.446 73.0099 4
28.3691 71.2632 0.0078309
27.7943 73.7222 2
30.1842 74.2788 0
27.8211 8.65475 3.98307
29.1551 5.87844 3.98735
29.8107 7.99351 2
30.7257 3.09845 3.9926
31.2527 5.33175 2
31.7886 7.42077 0.015555
32.6053 0.320823 4
32.9802 2.70093 2
33.3477 4.92525 0.0109874
35.0474 0.0802903 2
35.2448 2.46304 0.00679207
37.5 0 0
39.1518 35.8193 3.85223
40.7568 35.8262 2
42.5385 35.7084 0.267161
28.5433 10.6957 2
26.6224 11.3925 3.98027
29.226 12.6472 3.97968
37.5025 34.1356 3.84164
39.1284 34.1837 2
40.6849 34.2259 0.194096
46.0387 31.5991 0.0580277
43.4533 31.2836 0.126459
40.9649 31.2377 0.198487
39.2732 32.3552 0.279269
44.2761 29.7806 2
41.8312 29.8434 2
39.3648 30.5145 2
37.5106 32.2694 2
42.2793 28.4465 3.91006
39.8294 28.9904 3.88076
37.5147 30.3287 3.79707
35.7496 32.3544 3.72087
31.916 14.4888 3.97764
34.0944 12.9393 2
35.6933 11.7794 0.0204622
31.1868 11.9882 2
33.0988 11.2203 0.0208645
30.483 10.0205 0.0188514
45.3674 27.6858 -0.000293824
43.7376 24.1471 -0.00577923
35.7733 14.7668 0.0228951
41.3303 20.796 0.0203423
38.6821 17.6077 0.0214624
33.6087 15.8852 2
35.8487 17.5225 2
42.9524 26.5317 2
38.4153 20.388 2
40.8793 23.3455 2
33.5537 17.3977 3.97808
40.341 25.7087 3.99558
38.0684 22.9902 3.99759
35.5827 20.1046 3.98036
37.4974 37.4972 3.89434
39.1444 37.4863 2
40.8228 37.4771 0.154352
41.8572 52.9882 0.00685373
40.8652 49.6481 0.00075249
39.1458 39.1639 0.146821
39.8062 46.0044 0.138899
37.5004 44.6817 0.203549
37.4996 40.8814 0.157418
35.7392 42.6582 0.278151
39.7996 51.8674 2
37.4983 39.1673 2
35.8749 40.8376 2
38.683 48.6879 2
34.213 42.333 2
35.6431 44.4986 2
37.5063 46.3391 2
37.6503 50.9392 4.00647
35.8511 39.182 3.85314
34.3246 40.7854 3.80624
33.1323 42.0031 3.66649
34.0311 43.7555 3.80069
35.1717 45.9953 3.87293
36.8888 48.2849 3.93908
38.7251 53.8277 0.00629547
36.7379 53.1657 2
34.3858 52.4527 3.99737
34.4895 58.516 0.014559
36.323 55.3379 0.00616706
33.2428 55.503 2
30.5485 53.3495 3.97681
30.3064 57.8186 0.0160767
28.7164 55.3165 2
26.926 53.427 3.97192
26.9599 56.8254 0.0234095
25.3389 55.1361 2
23.6222 53.4677 3.96068
20.5193 53.2042 3.96173
19.9505 55.8183 3.96802
21.831 55.3362 2
23.8541 56.7937 0.0337991
19.4457 57.8781 3.97312
20.2301 57.0179 2
19.7088 60.1975 3.97707
20.6503 58.773 2
21.3444 57.3879 0.0298772
20.2074 62.8577 3.98047
21.1676 61.1704 2
21.9969 59.6203 0.0224968
20.9377 65.7646 3.98624
21.8947 63.8385 2
22.7361 62.0209 0.019784
23.681 64.7103 0.0162544
22.8364 66.7367 2
21.9109 68.8719 3.99206
24.808 67.5928 0.0126239
24.008 69.8052 2
23.1494 72.1454 4
26.1642 70.6039 0.00777597
25.446 73.0099 2
27.7943 73.7221 0
25.8603 9.38355 3.9823
27.0699 6.54263 3.98642
27.8206 8.65401 2
28.4878 3.64448 3.99219
29.1547 5.87753 2
29.8112 7.99482 0.0164494
30.1841 0.720592 4
30.7253 3.09812 2
31.253 5.33242 0.0117895
32.6053 0.320817 2
32.9805 2.70129 0.007094
35.0474 0.080333 0
37.4994 35.8217 3.87379
39.1405 35.8289 2
40.775 35.8168 0.163639
24.7772 12.0765 3.98051
23.7526 14.3648 3.9795
28.5438 10.6964 0.0197516
26.622 11.392 2
29.2258 12.6463 2
27.2923 13.3805 3.97983
29.7819 14.2089 3.97945
35.8736 34.165 3.82497
37.5027 34.1557 2
39.1356 34.1685 0.174395
37.5101 32.2644 0.256637
44.2673 29.7935 0.0673463
41.8139 29.8616 0.119191
39.3475 30.5466 0.193165
42.3061 28.4192 2
39.8406 28.9556 2
37.5173 30.3084 2
35.7539 32.3649 2
40.0182 27.6244 3.909
37.5182 28.6978 3.87556
35.677 30.5551 3.80934
34.2328 32.6768 3.70028
30.9284 16.8505 3.97727
31.9159 14.4857 2
34.0938 12.9399 0.022331
31.187 11.9901 0.0208195
42.9431 26.5326 0.00311249
40.8816 23.3602 -0.0102926
33.6099 15.8869 0.0233973
35.851 17.5226 0.0213554
38.4151 20.3897 0.0211247
33.5509 17.4052 2
35.5852 20.1093 2
40.3452 25.6931 2
38.061 22.9729 2
32.866 19.8066 3.983
37.7895 25.2991 4.00364
35.195 22.7246 3.99197
35.8399 37.5024 3.87242
37.497 37.4971 2
39.1573 37.4864 0.127788
39.7997 51.8655 -0.00122274
38.6727 48.6513 0.0291892
37.4978 39.1799 0.125729
37.5082 46.307 0.128271
35.6593 44.4695 0.19514
35.8674 40.8526 0.174677
34.2181 42.3345 0.299796
37.6403 50.9588 2
35.864 39.1715 2
34.3368 40.7719 2
36.8814 48.3193 2
33.1171 42.0177 2
34.0042 43.7878 2
35.1566 46.0248 2
35.5048 50.0904 3.99501
34.2327 39.1784 3.83803
32.7726 40.8763 3.71543
32.6466 42.6324 3.80834
33.1912 45.1339 3.87871
34.3161 47.3672 3.91481
36.7389 53.1579 1.30171e-05
34.3822 52.4599 2
32.0574 51.1586 4.00209
33.2425 55.5013 0.0046527
30.5479 53.3552 2
28.4805 51.5655 3.97793
28.7169 55.3139 0.0215149
26.9253 53.4297 2
25.1447 51.7224 3.95942
25.3393 55.1328 0.0263523
23.6214 53.4698 2
22.0416 51.7813 3.95644
19.2806 51.6144 3.96364
18.9529 54.2931 3.96197
20.5186 53.2036 2
18.4593 56.71 3.9711
19.9497 55.8195 2
21.8321 55.3346 0.0344789
18.373 59.1 3.97241
19.4454 57.8791 2
20.2306 57.0165 0.0254897
18.6197 61.7617 3.9759
19.7091 60.1992 2
20.6503 58.772 0.0256755
19.1267 64.6749 3.98485
20.2075 62.8588 2
21.1673 61.1693 0.0215475
19.8851 67.8085 3.99193
20.9378 65.7655 2
21.8946 63.8376 0.0173081
22.8363 66.736 0.0131157
21.9105 68.872 2
20.9142 71.1327 4
24.0084 69.805 0.00769294
23.1494 72.1455 2
25.446 73.0099 0
23.0967 12.792 3.98008
23.9728 10.1711 3.98179
25.0236 7.31325 3.98556
25.8598 9.38302 2
26.2795 4.32873 3.99174
27.0694 6.54206 2
27.8211 8.65475 0.0169339
27.7943 1.27781 4
28.4873 3.64414 2
29.1551 5.87844 0.0126493
30.1841 0.720551 2
30.7257 3.09845 0.00739547
32.6053 0.320823 0
35.85 35.8262 3.85261
37.4988 35.8347 2
39.1518 35.8193 0.147767
24.777 12.0761 2
23.7529 14.3647 2
22.4818 15.0421 3.97929
25.3585 13.9133 3.97924
24.0274 15.6285 3.97937
26.6224 11.3925 0.0197337
29.226 12.6472 0.0203162
27.2923 13.3802 2
29.7813 14.2076 2
28.3592 15.9848 3.97912
34.332 34.2328 3.80444
35.8799 34.1806 2
37.5025 34.1356 0.158359
35.7496 32.3544 0.279129
37.5147 30.3287 0.202926
42.2793 28.4465 0.0899363
39.8294 28.9904 0.119237
40.0301 27.6009 2
37.5149 28.6723 2
35.6581 30.522 2
34.2242 32.6786 2
37.5953 27.3331 3.92369
35.1898 29.0038 3.88016
34.049 31.2542 3.80117
33.154 33.0071 3.66628
30.2129 19.3585 3.98204
30.9276 16.8467 2
31.916 14.4888 0.0223623
40.341 25.7087 0.00442122
38.0684 22.9902 0.00240513
33.5537 17.3977 0.0219232
35.5827 20.1046 0.0196448
32.8665 19.8148 2
35.192 22.7168 2
37.7808 25.2796 2
32.3135 22.4652 3.99604
35.0093 25.2709 4.00239
34.1774 37.5075 3.84666
35.8526 37.5027 2
37.4974 37.4972 0.105661
37.6503 50.9392 -0.00647339
36.8888 48.2849 0.0609192
35.8511 39.182 0.146857
35.1717 45.9953 0.127075
34.0311 43.7555 0.19931
34.3246 40.7854 0.193756
33.1323 42.0031 0.333512
35.4974 50.1049 2
34.2568 39.1688 2
32.7811 40.8824 2
34.3003 47.406 2
32.6091 42.6591 2
33.1742 45.1582 2
33.3115 49.0848 3.9908
32.456 39.2883 3.73436
31.5074 41.1275 3.79913
31.5436 43.7185 3.87267
32.3468 46.2978 3.91292
34.3858 52.4527 0.00262974
32.0558 51.1673 2
29.9432 49.6783 3.98758
30.5485 53.3495 0.0231948
28.4792 51.564 2
26.5953 49.9519 3.97041
26.926 53.427 0.0280826
25.1435 51.7207 2
23.4383 50.1611 3.96525
23.6222 53.4677 0.0393164
22.0409 51.7802 2
20.5623 50.2889 3.96541
18.0783 50.3095 3.96799
17.896 52.7739 3.96369
19.2793 51.6139 2
17.4553 55.3274 3.96434
18.9503 54.2933 2
20.5193 53.2042 0.0382749
17.1424 57.8618 3.97046
18.4587 56.7107 2
19.9505 55.8183 0.0319777
17.1385 60.5403 3.97491
18.373 59.1011 2
19.4457 57.8781 0.0268835
17.4077 63.4657 3.98143
18.6198 61.763 2
19.7088 60.1975 0.0229335
17.9415 66.6172 3.99169
19.1266 64.676 2
20.2074 62.8577 0.0195323
18.75 69.9759 4
19.8845 67.8085 2
20.9377 65.7646 0.0137592
21.9109 68.8719 0.0079439
20.9142 71.1327 2
23.1494 72.1454 0
21.588 13.613 3.97963
22.1909 11.0311 3.98108
23.0969 12.792 2
23.0414 8.1793 3.98488
23.9725 10.1705 2
24.1172 5.14357 3.99132
25.0231 7.31267 2
25.8603 9.38355 0.0177045
25.446 1.99014 4
26.2789 4.32863 2
27.0699 6.54263 0.0135759
27.7943 1.27778 2
28.4878 3.64448 0.00780817
30.1841 0.720592 0
34.227 35.8326 3.83439
35.8608 35.8361 2
37.4994 35.8217 0.126214
21.308 15.8385 3.98018
24.7772 12.0765 0.0194936
23.7526 14.3648 0.0205023
25.3587 13.913 2
22.4823 15.0421 2
24.0276 15.6289 2
23.2677 16.2608 3.97745
25.3832 16.0976 3.97927
27.2923 13.3805 0.0201701
29.7819 14.2089 0.0205471
28.3583 15.9854 2
27.4448 18.8121 3.98074
32.7897 34.1345 3.71398
34.348 34.2467 2
35.8736 34.165 0.175031
34.2328 32.6768 0.299719
35.677 30.5551 0.190663
37.5182 28.6978 0.12444
40.0182 27.6244 0.0910012
37.5979 27.3018 2
33.1382 32.9949 2
35.1854 28.9684 2
34.0114 31.2141 2
35.0871 27.4627 3.92354
33.2016 29.8778 3.87464
32.6648 32.3717 3.79579
29.5944 21.9546 3.99525
30.2138 19.3659 2
30.9284 16.8505 0.0227289
37.7895 25.2991 -0.00364113
35.195 22.7246 0.00803399
32.866 19.8066 0.0170026
32.3127 22.4611 2
35.0262 25.2619 2
31.7736 25.6861 4.00801
32.3316 37.509 3.74352
34.2003 37.5088 2
35.8399 37.5024 0.12758
35.5048 50.0904 0.00498932
34.3161 47.3672 0.0851877
34.2327 39.1784 0.161969
33.1912 45.1339 0.121289
32.6466 42.6324 0.191656
32.7726 40.8763 0.284571
33.3077 49.0786 2
32.4702 39.2859 2
31.4837 41.1495 2
32.313 46.3256 2
31.5146 43.7463 2
31.2578 47.92 3.98861
30.7581 39.4156 3.79827
30.2288 41.9476 3.86552
30.5683 44.8915 3.93358
32.0574 51.1586 -0.00208958
29.941 49.6774 2
28.002 48.1389 3.96643
28.4805 51.5655 0.0220727
26.5943 49.9506 2
24.7776 48.43 3.97283
25.1447 51.7224 0.040583
23.4378 50.1589 2
21.7958 48.7545 3.96933
22.0416 51.7813 0.0435601
20.5609 50.288 2
19.1488 49.0669 3.97198
16.9816 49.3123 3.97235
16.8393 51.39 3.96659
18.0795 50.3085 2
16.4173 53.858 3.96448
17.8934 52.7737 2
19.2806 51.6144 0.0363602
15.9883 56.4637 3.96664
17.4545 55.3276 2
18.9529 54.2931 0.0380337
15.754 59.2016 3.97191
17.1423 57.863 2
18.4593 56.71 0.0289013
15.7896 62.1333 3.97692
17.1387 60.542 2
18.373 59.1 0.0275922
16.0887 65.2998 3.99046
17.4075 63.4671 2
18.6197 61.7617 0.0241022
16.6661 68.6801 4
17.9407 66.617 2
19.1267 64.6749 0.0151503
18.75 69.9759 2
19.8851 67.8085 0.00807218
20.9142 71.1327 0
20.2208 14.6028 3.97857
21.5882 13.613 2
20.5302 12.0016 3.98038
21.1441 9.1495 3.98436
22.1908 11.0309 2
23.0967 12.792 0.0199205
22.0162 6.08272 3.99091
23.0409 8.17867 2
23.9728 10.1711 0.0182085
23.1494 2.85457 4
24.1163 5.14357 2
25.0236 7.31325 0.0144404
25.446 1.99012 2
26.2795 4.32873 0.00826204
27.7943 1.27781 0
32.457 35.7262 3.72632
34.2457 35.8461 2
35.85 35.8262 0.147386
21.3086 15.8382 2
20.307 16.971 3.98162
22.1009 16.6452 3.97772
25.3585 13.9133 0.0207638
22.4818 15.0421 0.0207054
24.0274 15.6285 0.0206337
25.3831 16.098 2
23.268 16.2613 2
24.2095 18.4661 3.97474
27.0341 21.4768 3.99114
28.3592 15.9848 0.0208823
27.4467 18.8122 2
31.5321 33.8896 3.79825
32.8012 34.1295 2
34.332 34.2328 0.195565
33.154 33.0071 0.33372
34.049 31.2542 0.198828
35.1898 29.0038 0.119843
37.5953 27.3331 0.0763136
35.0688 27.4221 2
32.5989 32.3443 2
33.1862 29.8563 2
32.6338 28.1749 3.93473
31.5501 31.2981 3.87431
28.8781 24.4342 3.98055
29.5903 21.9634 2
30.2129 19.3585 0.017957
35.0093 25.2709 -0.00238812
32.3135 22.4652 0.0039553
31.7748 25.6672 2
29.7585 27.3529 3.96576
30.4327 37.5008 3.80678
32.3451 37.5062 2
34.1774 37.5075 0.153338
33.3115 49.0848 0.00919533
32.3468 46.2978 0.0870762
32.456 39.2883 0.265639
31.5436 43.7185 0.12733
31.5074 41.1275 0.200873
31.256 47.9232 2
30.727 39.4342 2
30.2045 41.964 2
30.5578 44.9082 2
29.351 46.5227 4.00142
29.326 39.8534 3.88448
28.9398 43.1187 3.93427
29.9432 49.6783 0.0124158
28.0004 48.1351 2
26.1175 46.6101 3.97664
26.5953 49.9519 0.0295928
24.7775 48.428 2
22.9825 47.0341 3.97351
23.4383 50.1611 0.0347476
21.7954 48.7532 2
20.1244 47.5878 3.97686
20.5623 50.2889 0.0345873
19.1503 49.0658 2
17.7746 48.1569 3.97597
16.222 48.6662 3.97545
16.983 49.3115 2
15.9162 50.154 3.96982
15.4187 52.4028 3.96631
16.8393 51.3895 2
18.0783 50.3095 0.0320101
14.8819 54.968 3.96591
16.4168 53.858 2
17.896 52.7739 0.036305
14.4662 57.7299 3.96873
15.9881 56.4641 2
17.4553 55.3274 0.0356559
14.2682 60.6871 3.97583
15.7542 59.203 2
17.1424 57.8618 0.0295418
14.3337 63.8584 3.98749
15.7894 62.1346 2
17.1385 60.5403 0.0250938
14.6715 67.2507 4
16.0876 65.2992 2
17.4077 63.4657 0.0185744
16.6661 68.6801 2
17.9415 66.6172 0.0083115
18.75 69.9759 0
18.9354 15.7892 3.97925
20.2212 14.6027 2
18.9803 13.1131 3.97926
21.588 13.613 0.0203669
20.5304 12.0015 2
19.3433 10.2378 3.98377
19.9908 7.14739 3.99065
21.1439 9.14916 2
22.1909 11.0311 0.0189161
20.9142 3.86727 4
22.0152 6.08289 2
23.0414 8.1793 0.0151248
23.1494 2.85451 2
24.1172 5.14357 0.00868108
25.446 1.99014 0
30.7764 35.6054 3.80156
32.4699 35.7267 2
34.227 35.8326 0.165605
21.308 15.8385 0.0198224
22.1015 16.6453 2
20.3078 16.9703 2
19.2539 18.4195 3.97594
21.7869 17.8622 3.97987
25.3832 16.0976 0.0207283
23.2677 16.2608 0.0225456
24.2107 18.4666 2
22.2964 19.9103 3.97113
24.6163 21.3463 3.98939
26.4869 23.743 3.97001
27.0339 21.4755 2
27.4448 18.8121 0.0192579
30.2589 33.0706 3.87722
31.513 33.8548 2
32.7897 34.1345 0.286017
32.6648 32.3717 0.204207
33.2016 29.8778 0.125361
35.0871 27.4627 0.0764627
32.6075 28.1551 2
31.5171 31.2659 2
30.262 29.6045 3.95176
28.0026 26.5718 3.98399
28.8735 24.4487 2
29.5944 21.9546 0.00474949
31.7736 25.6861 -0.00801144
29.7559 27.323 2
28.9612 37.5129 3.88915
30.4192 37.5015 2
32.3316 37.509 0.256483
31.2578 47.92 0.0113947
30.5683 44.8915 0.0664171
30.7581 39.4156 0.201731
30.2288 41.9476 0.13448
29.3507 46.5352 2
29.2984 39.8715 2
28.9122 43.1413 2
27.5149 44.8201 3.97697
27.0983 40.5879 3.95722
28.002 48.1389 0.0335728
26.114 46.6127 2
24.2246 45.1586 3.97586
24.7776 48.43 0.0271688
22.9825 47.0328 2
21.0981 45.8569 3.97843
21.7958 48.7545 0.0306685
20.1246 47.5867 2
18.4534 46.7118 3.97813
19.1488 49.0669 0.0280245
17.7759 48.156 2
16.4255 47.6956 3.97662
16.223 48.6655 2
15.2609 49.0005 3.97297
16.9816 49.3123 0.0276527
15.9175 50.1534 2
14.5332 50.9728 3.96803
13.8463 53.4264 3.96621
15.4196 52.4025 2
16.8393 51.39 0.0334079
13.263 56.1597 3.96731
14.8821 54.9679 2
16.4173 53.858 0.0355174
12.852 59.1203 3.97369
14.4665 57.7306 2
15.9883 56.4637 0.0333636
12.6796 62.3006 3.985
14.2682 60.6879 2
15.754 59.2016 0.0280882
12.7746 65.6939 4
14.3322 63.8572 2
15.7896 62.1333 0.0230766
14.6714 67.2507 2
16.0887 65.2998 0.00953529
16.6661 68.6801 0
17.6731 17.1658 3.97435
18.9358 15.7889 2
17.5122 14.3779 3.97836
20.2208 14.6028 0.0214254
18.9806 13.1128 2
17.6389 11.4571 3.98267
20.5302 12.0016 0.0196172
19.3432 10.2375 2
18.051 8.3402 3.99045
18.75 5.0241 4
19.9897 7.14796 2
21.1441 9.1495 0.015642
20.9142 3.86727 2
22.0162 6.08272 0.00908627
23.1494 2.85457 0
29.3451 35.1453 3.88681
30.7398 35.5816 2
32.457 35.7262 0.273677
22.1009 16.6452 0.0222815
20.307 16.971 0.0183757
21.7878 17.862 2
19.2546 18.4184 2
18.0027 19.9542 3.96983
20.8918 19.3928 3.9761
24.2095 18.4661 0.0252629
22.2968 19.91 2
24.6163 21.3467 2
22.3942 21.74 3.97716
24.7562 23.1871 3.97505
25.5881 25.9714 3.97465
26.4884 23.7425 2
27.0341 21.4768 0.00885577
28.6389 32.3797 3.93528
30.2308 33.0524 2
31.5321 33.8896 0.201751
31.5501 31.2981 0.125686
32.6338 28.1749 0.0652663
30.2573 29.6037 2
27.204 29.1574 4.00512
27.9969 26.5834 2
28.8781 24.4342 0.0194454
29.7585 27.3529 0.0342376
27.2143 37.3661 3.93798
28.9168 37.5059 2
30.4327 37.5008 0.193222
29.351 46.5227 -0.00141691
28.9398 43.1187 0.0657333
29.326 39.8534 0.115524
27.5093 44.8428 2
27.0809 40.5996 2
25.5359 43.133 3.98753
24.3524 39.4492 3.97688
26.1175 46.6101 0.0233598
24.2183 45.1585 2
22.1131 43.9087 3.97836
22.9825 47.0341 0.0264884
21.0968 45.8559 2
19.1484 44.9422 3.97813
20.1244 47.5878 0.0231427
18.4543 46.7108 2
16.7387 46.1937 3.97724
17.7746 48.1569 0.0240297
16.4265 47.6951 2
15.0045 47.6555 3.97462
16.222 48.6662 0.0245515
15.2621 49 2
13.8326 49.5349 3.96992
15.9162 50.154 0.0301792
14.5342 50.9725 2
12.916 51.8669 3.96715
12.1493 54.5217 3.96801
13.8461 53.4263 2
15.4187 52.4028 0.033689
11.5379 57.4531 3.97207
13.2634 56.1598 2
14.8819 54.968 0.0340888
11.1345 60.6263 3.9827
12.8523 59.1205 2
14.4662 57.7299 0.0312742
10.9835 64.0165 4
12.678 62.2985 2
14.2682 60.6871 0.0241694
12.7745 65.694 2
14.3337 63.8584 0.0125084
14.6715 67.2507 0
16.4126 18.6646 3.96759
17.6733 17.165 2
16.1043 15.7878 3.97699
18.9354 15.7892 0.0207478
17.5126 14.3773 2
16.0207 12.8112 3.98081
18.9803 13.1131 0.0207368
17.639 11.4567 2
16.2022 9.66321 3.9901
19.3433 10.2378 0.0162278
18.0498 8.3411 2
16.6661 6.31991 4
18.75 5.02404 2
19.9908 7.14739 0.00935129
20.9142 3.86727 0
27.7417 34.7912 3.93079
29.3166 35.1236 2
30.7764 35.6054 0.198437
16.718 21.391 3.96178
21.7869 17.8622 0.0201319
19.2539 18.4195 0.0240641
20.8923 19.3921 2
18.0034 19.953 2
19.7619 21.5908 3.97344
22.2964 19.9103 0.0288674
24.6163 21.3463 0.0106123
22.3942 21.74 2
24.7565 23.1869 2
22.9383 24.6219 3.97192
24.7449 28.5513 3.97775
25.5864 25.9703 2
26.4869 23.743 0.0299922
26.4849 31.7374 3.98506
28.6105 32.3572 2
30.2589 33.0706 0.122777
30.262 29.6045 0.0482354
27.2255 29.1434 2
28.0026 26.5718 0.016009
25.043 36.8605 3.98492
27.1932 37.3589 2
28.9612 37.5129 0.110855
27.5149 44.8201 0.0230324
27.0983 40.5879 0.0427761
25.5204 43.1434 2
24.3366 39.4473 2
23.2482 41.8101 3.9798
22.0707 38.518 3.97786
24.2246 45.1586 0.0241413
22.111 43.9092 2
19.9607 42.8717 3.9772
21.0981 45.8569 0.0215694
19.1481 44.942 2
17.1033 44.3601 3.97697
18.4534 46.7118 0.0218667
16.74 46.1932 2
14.9441 46.0762 3.97507
16.4255 47.6956 0.0233779
15.0056 47.655 2
13.3472 47.998 3.97131
15.2609 49.0005 0.0270339
13.8336 49.5346 2
12.1357 50.2465 3.96781
14.5332 50.9728 0.0319687
12.9164 51.8668 2
11.1444 52.8328 3.96808
10.3284 55.7078 3.97252
12.1498 54.5216 2
13.8463 53.4264 0.0337883
9.7014 58.8484 3.98072
11.5382 57.453 2
13.263 56.1597 0.0326946
9.30605 62.2254 4
11.1329 60.6236 2
12.852 59.1203 0.0263074
10.9835 64.0165 2
12.6796 62.3006 0.0149952
12.7746 65.6939 0
15.1624 20.198 3.96733
16.4129 18.6639 2
14.7538 17.3131 3.97097
17.6731 17.1658 0.0256456
16.1047 15.7867 2
14.4837 14.2942 3.97897
17.5122 14.3779 0.0216368
16.0208 12.8105 2
14.445 11.1144 3.98927
17.6389 11.4571 0.0173304
16.201 9.66439 2
14.6715 7.74927 4
18.051 8.3402 0.0095492
16.6661 6.31988 2
18.75 5.0241 0
25.6996 34.2791 3.99155
27.7201 34.7944 2
29.3451 35.1453 0.11319
17.9064 22.3414 3.97057
15.557 22.9315 3.96724
16.7187 21.3907 2
20.8918 19.3928 0.0239005
18.0027 19.9542 0.0301653
19.7623 21.5902 2
19.7609 24.402 3.96973
22.3942 21.74 0.0228426
24.7562 23.1871 0.0249535
22.938 24.6219 2
22.1133 27.8518 3.97224
24.0418 31.2205 3.97621
24.7597 28.5517 2
25.5881 25.9714 0.0253534
26.4699 31.7151 2
28.6389 32.3797 0.064716
27.204 29.1574 -0.00511632
22.7949 36.2869 3.98203
25.0224 36.8563 2
27.2143 37.3661 0.0620236
25.5359 43.133 0.0124739
24.3524 39.4492 0.0231174
23.2389 41.8081 2
22.0629 38.5158 2
20.9799 40.639 3.97603
20.3784 37.8017 3.97717
22.1131 43.9087 0.0216413
19.9593 42.8719 2
17.558 42.0801 3.97704
19.1484 44.9422 0.0218714
17.1045 44.3598 2
14.9717 44.1873 3.97578
16.7387 46.1937 0.0227643
14.9451 46.0758 2
13.0325 46.2855 3.97206
15.0045 47.6555 0.0253771
13.348 47.9977 2
11.5102 48.544 3.96828
13.8326 49.5349 0.03008
12.1362 50.2463 2
10.2699 51.0778 3.96801
12.916 51.8669 0.0328505
11.145 52.8327 2
9.23702 53.8877 3.97214
8.38482 56.9815 3.9811
10.3288 55.7073 2
12.1493 54.5217 0.0319927
7.74927 60.3285 4
9.70022 58.8451 2
11.5379 57.4531 0.0279322
9.306 62.2255 2
11.1345 60.6263 0.0172963
10.9835 64.0165 0
13.9765 21.7612 3.96622
15.1632 20.1977 2
13.4585 18.9119 3.96759
16.4126 18.6646 0.0324077
14.7543 17.3119 2
13.0304 15.8885 3.97623
16.1043 15.7878 0.0230072
14.4837 14.2931 2
12.7826 12.6881 3.98763
16.0207 12.8112 0.0191924
14.4437 11.1159 2
12.7746 9.30605 4
16.2022 9.66321 0.00989514
14.6715 7.74924 2
16.6661 6.31991 0
23.3763 33.8215 3.98333
25.6784 34.27 2
27.7417 34.7912 0.0692128
17.7016 24.0605 3.97091
17.9068 22.3412 2
14.3699 24.4636 3.96966
15.5577 22.9313 2
16.718 21.391 0.0382198
19.2042 27.2283 3.97133
19.7619 21.5908 0.0265628
19.7594 24.4017 2
21.4234 30.6923 3.97457
22.9383 24.6219 0.0280758
22.1224 27.8529 2
24.0257 31.218 2
24.7449 28.5513 0.0222506
26.4849 31.7374 0.0149398
20.5007 35.947 3.9773
22.7917 36.2806 2
25.043 36.8605 0.0150845
23.2482 41.8101 0.0201992
22.0707 38.518 0.0221441
20.9857 40.6389 2
20.3827 37.8013 2
18.2988 39.007 3.97746
19.9607 42.8717 0.022803
17.5596 42.0795 2
14.9522 41.908 3.97682
17.1033 44.3601 0.0230273
14.9731 44.1868 2
12.7889 44.3829 3.97261
14.9441 46.0762 0.0249294
13.0333 46.2853 2
11.0161 46.7282 3.96871
13.3472 47.998 0.0286873
11.5107 48.5438 2
9.53291 49.2383 3.96771
12.1357 50.2465 0.0321915
10.2703 51.0775 2
8.26989 52.0015 3.97175
11.1444 52.8328 0.0319248
9.23747 53.8871 2
7.19372 55.0323 3.98202
6.31991 58.3339 4
8.38396 56.9782 2
10.3284 55.7078 0.0274752
7.74924 60.3285 2
9.7014 58.8484 0.0192839
9.30605 62.2254 0
13.2712 25.3726 3.97179
12.8523 23.2891 3.96692
13.9769 21.7609 2
12.2448 20.5582 3.96819
15.1624 20.198 0.0326717
13.4594 18.9114 2
11.6625 17.5707 3.97293
14.7538 17.3131 0.0290315
13.0307 15.8875 2
11.2204 14.3736 3.98482
14.4837 14.2942 0.021034
12.7811 12.6898 2
10.9835 10.9835 4
14.445 11.1144 0.0107288
12.7745 9.306 2
14.6715 7.74927 0
20.8573 33.4225 3.97574
23.381 33.8318 2
25.6996 34.2791 0.00844764
16.019 26.4198 3.97176
17.7017 24.0603 2
17.9064 22.3414 0.0294253
14.3699 24.4637 2
15.557 22.9315 0.0327558
18.5736 30.1968 3.97482
19.2044 27.2285 2
19.7609 24.402 0.0302724
21.4292 30.6932 2
22.1133 27.8518 0.0277553
24.0418 31.2205 0.0237915
17.9112 35.9803 3.97805
20.4985 35.9487 2
22.7949 36.2869 0.0179726
20.9799 40.639 0.023968
20.3784 37.8017 0.0228253
18.2998 39.007 2
14.4592 39.1728 3.97755
17.558 42.0801 0.0229628
14.9539 41.9077 2
12.4918 42.2696 3.97261
14.9717 44.1873 0.0242219
12.7897 44.3826 2
10.6009 44.7973 3.96922
13.0325 46.2855 0.0279363
11.0165 46.728 2
8.91506 47.3178 3.96747
11.5102 48.544 0.031722
9.53312 49.2381 2
7.43682 50.035 3.97118
10.2699 51.0778 0.0319934
8.27024 52.0008 2
6.13437 53.0074 3.9824
9.23702 53.8877 0.0278586
7.19319 55.0295 2
5.0241 56.25 4
6.31988 58.3339 2
8.38482 56.9815 0.018904
7.74927 60.3285 0
13.5344 26.8263 3.9712
11.9581 24.7942 3.96865
13.2707 25.3726 2
11.1467 22.2393 3.96812
12.8523 23.289 2
13.9765 21.7612 0.0337812
12.2458 20.558 2
10.3937 19.3243 3.97212
13.4585 18.9119 0.0324059
11.6632 17.5704 2
9.76179 16.158 3.9816
13.0304 15.8885 0.0237733
11.2188 14.3761 2
9.30607 12.7746 4
12.7826 12.6881 0.0123691
10.9835 10.9835 2
12.7746 9.30605 0
18.0846 33.1317 3.97711
20.8624 33.4225 2
23.3763 33.8215 0.0166657
15.639 29.6547 3.97384
16.019 26.42 2
17.7016 24.0605 0.0290902
14.3699 24.4636 0.0303404
18.5713 30.1968 2
19.2042 27.2283 0.0286682
21.4234 30.6923 0.0254252
15.0784 36.0261 3.97784
17.9141 35.9804 2
20.5007 35.947 0.0227035
12.7104 37.8295 3.97721
18.2988 39.007 0.0225351
14.4602 39.1727 2
12.004 40.1365 3.9735
14.9522 41.908 0.0231786
12.4924 42.2695 2
10.2097 42.7736 3.96948
12.7889 44.3829 0.0273868
10.6012 44.7972 2
8.39294 45.3198 3.96727
11.0161 46.7282 0.0312933
8.91515 47.3176 2
6.72812 48.0003 3.97072
9.53291 49.2383 0.0322873
7.437 50.0345 2
5.21121 50.9108 3.98214
8.26989 52.0015 0.028253
6.1341 53.0055 2
3.86727 54.0858 4
7.19372 55.0323 0.0179832
5.02404 56.25 2
6.31991 58.3339 0
13.0074 29.0445 3.97084
11.3988 26.494 3.96878
13.5338 26.8263 2
10.2046 23.9705 3.96824
11.9587 24.7943 2
13.2712 25.3726 0.0282095
9.24579 21.1409 3.97204
11.1476 22.2393 2
12.8523 23.2891 0.033077
12.2448 20.5582 0.0318087
10.3947 19.3244 2
8.41781 18.0294 3.98068
11.6625 17.5707 0.0270747
9.76055 16.1614 2
7.74928 14.6715 4
11.2204 14.3736 0.0151837
9.30602 12.7745 2
10.9835 10.9835 0
14.6372 32.875 3.97599
18.0845 33.1322 2
20.8573 33.4225 0.0242591
15.6394 29.655 2
16.019 26.4198 0.0282443
18.5736 30.1968 0.0251764
13.0078 36.2124 3.97567
15.0799 36.0266 2
17.9112 35.9803 0.0219509
12.7112 37.8295 2
11.3455 38.3089 3.9744
14.4592 39.1728 0.0224484
12.0053 40.1364 2
9.79777 40.7515 3.97019
12.4918 42.2696 0.0273943
10.2104 42.7733 2
7.94189 43.2689 3.9675
10.6009 44.7973 0.0307834
8.39303 45.3196 2
6.13439 45.9054 3.97021
8.91506 47.3178 0.0325333
6.72819 47.9999 2
4.42277 48.7515 3.9815
7.43682 50.035 0.0288177
5.21109 50.9098 2
2.85457 51.8506 4
6.13437 53.0074 0.0176022
3.86727 54.0858 2
5.0241 56.25 0
12.1541 31.2659 3.9721
10.8204 28.4216 3.96891
13.0082 29.0447 2
9.41907 25.7998 3.96814
11.3988 26.4941 2
13.5344 26.8263 0.028801
8.23249 23.0244 3.97174
10.2052 23.9705 2
11.9581 24.7942 0.0313486
7.1998 19.9792 3.9814
9.24668 21.1413 2
11.1467 22.2393 0.0318752
10.3937 19.3243 0.0278796
8.41714 18.033 2
6.31992 16.6661 4
9.76179 16.158 0.0184044
7.74926 14.6714 2
9.30607 12.7746 0
12.1807 34.3004 3.97562
14.6377 32.8753 2
18.0846 33.1317 0.0228869
15.639 29.6547 0.0261613
10.9064 36.6124 3.97358
13.0083 36.2125 2
15.0784 36.0261 0.0221591
12.7104 37.8295 0.0227865
11.3464 38.3088 2
9.38836 38.8222 3.97049
12.004 40.1365 0.0265019
9.7983 40.7513 2
7.55294 41.2107 3.9679
10.2097 42.7736 0.0305218
7.94178 43.2687 2
5.64627 43.7683 3.97015
8.39294 45.3198 0.0327261
6.13448 45.905 2
3.76841 46.5371 3.98091
6.72812 48.0003 0.0292814
4.4228 48.7511 2
1.99014 49.554 4
5.21121 50.9108 0.0178578
2.85451 51.8506 2
3.86727 54.0858 0
10.9886 32.9251 3.97387
10.1396 30.388 3.96935
12.155 31.2661 2
8.72736 27.7332 3.96768
10.8208 28.4217 2
13.0074 29.0445 0.0291616
7.35795 24.983 3.97124
9.41934 25.7999 2
11.3988 26.494 0.03122
6.11667 22.0024 3.98224
8.23311 23.0248 2
10.2046 23.9705 0.0317597
5.02411 18.75 4
7.19951 19.982 2
9.24579 21.1409 0.0279605
8.41781 18.0294 0.0193171
6.3199 16.6661 2
7.74928 14.6715 0
10.5093 35.0031 3.9732
12.1815 34.3004 2
14.6372 32.875 0.0240086
9.05416 36.9852 3.97089
10.9078 36.6124 2
13.0078 36.2124 0.024329
11.3455 38.3089 0.0256036
9.38924 38.8221 2
7.2335 39.182 3.96811
9.79777 40.7515 0.0298133
7.55315 41.2106 2
5.26146 41.614 3.96998
7.94189 43.2689 0.0325004
5.6463 43.768 2
3.24614 44.2819 3.98085
6.13439 45.9054 0.0297888
3.76855 46.5368 2
1.27781 47.2057 4
4.42277 48.7515 0.018501
1.99012 49.554 2
2.85457 51.8506 0
10.1449 33.8853 3.97367
9.42438 32.1587 3.97009
10.9893 32.9252 2
8.07635 29.6966 3.96776
10.14 30.3881 2
12.1541 31.2659 0.0278959
6.6018 27.0089 3.97062
8.72734 27.7332 2
10.8204 28.4216 0.0310856
5.17206 24.0951 3.98222
7.35825 24.9833 2
9.41907 25.7998 0.0318643
3.86728 20.9142 4
6.11658 22.0042 2
8.23249 23.0244 0.0282599
5.02406 18.75 2
7.1998 19.9792 0.0186005
6.31992 16.6661 0
8.87651 35.281 3.97117
10.5101 35.0031 2
12.1807 34.3004 0.024384
7.01655 37.2062 3.9681
9.0547 36.9851 2
10.9064 36.6124 0.0264168
9.38836 38.8222 0.0295142
7.23383 39.1819 2
4.98922 39.4673 3.97001
7.55294 41.2107 0.0321013
5.26177 41.6137 2
2.85662 42.0022 3.98075
5.64627 43.7683 0.0298458
3.2462 44.2818 2
0.720592 44.8159 4
3.76841 46.5371 0.0190909
1.27778 47.2057 2
1.99014 49.554 0
8.91465 33.7004 3.97098
10.1457 33.8854 2
7.51339 31.61 3.96801
9.42493 32.1587 2
10.9886 32.9251 0.0261302
5.94678 29.0698 3.97061
8.07613 29.6967 2
10.1396 30.388 0.0306545
4.35982 26.2475 3.98154
6.60188 27.0091 2
8.72736 27.7332 0.03232
2.85458 23.1494 4
5.17206 24.0958 2
7.35795 24.983 0.0287589
3.86728 20.9142 2
6.11667 22.0024 0.0177577
5.02411 18.75 0
6.9664 35.3065 3.96831
8.87729 35.281 2
10.5093 35.0031 0.0267951
4.83924 37.3398 3.97052
7.01664 37.2061 2
9.05416 36.9852 0.029111
7.2335 39.182 0.0318889
4.98954 39.4672 2
2.60472 39.7139 3.98053
5.26146 41.614 0.0300204
2.85689 42.0023 2
0.320823 42.3947 4
3.24614 44.2819 0.0191549
0.720551 44.8159 2
1.27781 47.2057 0
7.12644 33.4614 3.96826
8.91511 33.7005 2
10.1449 33.8853 0.026327
5.41756 31.1337 3.97074
7.51333 31.61 2
9.42438 32.1587 0.0299085
3.68151 28.4434 3.98113
5.9468 29.07 2
8.07635 29.6966 0.0322373
1.99015 25.446 4
4.35987 26.2477 2
6.6018 27.0089 0.0293768
2.85453 23.1494 2
5.17206 24.0951 0.0177766
3.86728 20.9142 0
4.85331 35.2515 3.97097
6.96677 35.3065 2
8.87651 35.281 0.0288264
2.4961 37.4285 3.98119
4.83927 37.3398 2
7.01655 37.2062 0.0318993
4.98922 39.4673 0.029993
2.60506 39.7142 2
0.080333 39.9526 4
2.85662 42.0022 0.0192488
0.320817 42.3947 2
0.720592 44.8159 0
5.04676 33.1902 3.97098
7.12658 33.4615 2
8.91465 33.7004 0.0290234
3.14578 30.6661 3.98092
5.41762 31.134 2
7.51339 31.61 0.0319877
1.27793 27.7943 4
3.68162 28.4435 2
5.94678 29.0698 0.0293898
1.99013 25.446 2
4.35982 26.2475 0.0184623
2.85458 23.1494 0
2.54814 35.159 3.98127
4.85368 35.2518 2
6.9664 35.3065 0.0316863
0 37.5 4
2.49615 37.4289 2
4.83924 37.3398 0.0294751
2.60472 39.7139 0.0194679
0.0802903 39.9526 2
0.320823 42.3947 0
2.76577 32.9057 3.98133
5.04686 33.1905 2
7.12644 33.4614 0.0317359
0.721173 30.1842 4
3.14595 30.6665 2
5.41756 31.1337 0.0292615
1.27779 27.7943 2
3.68151 28.4434 0.0188659
1.99015 25.446 0
0.0806499 35.0474 4
2.54854 35.1594 2
4.85331 35.2515 0.0290319
0 37.5 2
2.4961 37.4285 0.0188149
0.080333 39.9526 0
0.32156 32.6054 4
2.76586 32.9062 2
5.04676 33.1902 0.0290185
0.72056 30.1841 2
3.14578 30.6661 0.0190795
1.27793 27.7943 0
0.0802889 35.0474 2
2.54814 35.159 0.0187289
0 37.5 0
0.320817 32.6053 2
2.76577 32.9057 0.0186711
0.721173 30.1842 0
0.0806499 35.0474 0
0.32156 32.6054 0
CELLS 1910 17190
8 18 6 25 56 2 0 5 16
8 57 23 6 18 17 4 0 2
8 78 36 9 29 31 11 1 7
8 31 11 1 7 79 37 10 30
8 110 57 18 50 48 17 2 14
8 50 18 56 111 14 2 16 49
8 116 62 22 55 52 20 3 15
8 56 25 67 118 16 5 24 53
8 119 63 23 57 54 21 4 17
8 55 22 63 119 15 3 21 54
8 58 26 68 121 18 6 25 56
8 122 65 26 58 57 23 6 18
8 73 31 7 27 142 79 30 71
8 143 78 29 72 73 31 7 27
8 83 147 76 34 32 74 28 8
8 84 148 78 36 33 75 29 9
8 76 34 8 28 148 84 33 75
8 37 79 150 86 10 30 77 35
8 151 87 36 78 80 38 11 31
8 80 38 11 31 152 88 37 79
8 175 100 42 94 96 44 12 40
8 44 96 176 101 12 40 95 43
8 101 176 98 46 43 95 41 13
8 46 98 178 103 13 41 97 45
8 178 103 45 97 147 83 32 74
8 189 116 55 109 106 52 15 47
8 111 56 118 191 49 16 53 107
8 192 119 57 110 108 54 17 48
8 109 55 119 192 47 15 54 108
8 194 122 58 112 110 57 18 50
8 112 58 121 195 50 18 56 111
8 115 61 19 51 197 124 59 113
8 115 61 125 198 51 19 60 114
8 198 125 62 116 114 60 20 52
8 200 127 64 120 116 62 22 55
8 118 67 132 202 53 24 66 117
8 121 68 133 203 56 25 67 118
8 120 64 128 204 55 22 63 119
8 204 128 65 122 119 63 23 57
8 206 134 68 121 123 69 26 58
8 123 69 26 58 207 131 65 122
8 226 147 74 138 140 76 28 70
8 229 148 75 139 143 78 29 72
8 140 76 28 70 229 148 75 139
8 142 79 30 71 231 150 77 141
8 144 80 31 73 232 152 79 142
8 233 151 78 143 144 80 31 73
8 150 86 35 77 235 154 81 145
8 235 154 81 145 146 82 39 91
8 146 82 39 91 236 155 90 165
8 238 157 83 147 149 85 34 76
8 239 158 84 148 151 87 36 78
8 149 85 34 76 239 158 84 148
8 152 88 37 79 241 160 86 150
8 242 161 87 151 153 89 38 80
8 153 89 38 80 243 162 88 152
8 171 98 41 92 265 178 97 169
8 265 178 97 169 226 147 74 138
8 172 96 40 93 266 176 95 170
8 266 176 95 170 171 98 41 92
8 269 175 94 173 172 96 40 93
8 271 180 99 174 175 100 42 94
8 197 124 59 113 271 180 99 174
8 272 181 100 175 177 102 44 96
8 273 182 101 176 179 104 46 98
8 177 102 44 96 273 182 101 176
8 179 104 46 98 275 184 103 178
8 275 184 103 178 238 157 83 147
8 188 115 51 105 283 197 113 186
8 188 115 198 284 105 51 114 187
8 284 198 116 189 187 114 52 106
8 286 200 120 193 189 116 55 109
8 191 118 202 288 107 53 117 190
8 195 121 203 289 111 56 118 191
8 193 120 204 290 109 55 119 192
8 290 204 122 194 192 119 57 110
8 196 123 58 112 292 207 122 194
8 293 206 121 195 196 123 58 112
8 199 126 61 115 297 211 124 197
8 298 212 127 200 198 125 62 116
8 199 126 212 298 115 61 125 198
8 205 129 64 120 300 214 127 200
8 301 217 130 201 202 132 66 117
8 209 136 168 264 301 217 130 201
8 302 219 132 202 203 133 67 118
8 303 220 133 203 206 134 68 121
8 205 129 215 304 120 64 128 204
8 304 215 131 207 204 128 65 122
8 306 221 134 206 208 135 69 123
8 208 135 69 123 307 218 131 207
8 210 137 167 263 309 223 136 209
8 328 238 147 226 230 149 76 140
8 228 146 91 166 329 236 165 260
8 231 150 77 141 330 235 145 227
8 330 235 145 227 228 146 91 166
8 332 239 148 229 233 151 78 143
8 230 149 76 140 332 239 148 229
8 232 152 79 142 334 241 150 231
8 234 153 80 144 335 243 152 232
8 336 242 151 233 234 153 80 144
8 236 155 90 165 338 245 164 259
8 241 160 86 150 339 246 154 235
8 339 246 154 235 237 156 82 146
8 237 156 82 146 340 247 155 236
8 342 249 157 238 240 159 85 149
8 343 250 158 239 242 161 87 151
8 240 159 85 149 343 250 158 239
8 243 162 88 152 345 252 160 241
8 244 163 253 346 153 89 161 242
8 244 163 89 153 347 254 162 243
8 311 224 261 371 210 137 167 263
8 263 167 262 372 209 136 168 264
8 267 179 98 171 375 275 178 265
8 375 275 178 265 328 238 147 226
8 376 273 176 266 267 179 98 171
8 268 177 96 172 376 273 176 266
8 379 272 175 269 268 177 96 172
8 380 271 174 270 269 175 94 173
8 283 197 113 186 380 271 174 270
8 381 277 180 271 272 181 100 175
8 297 211 124 197 381 277 180 271
8 382 278 181 272 274 183 102 177
8 274 183 102 177 383 279 182 273
8 383 279 182 273 276 185 104 179
8 385 281 184 275 342 249 157 238
8 276 185 104 179 385 281 184 275
8 285 199 115 188 393 297 197 283
8 394 298 200 286 284 198 116 189
8 285 199 298 394 188 115 198 284
8 291 205 120 193 396 300 200 286
8 397 301 201 287 288 202 117 190
8 295 209 264 374 397 301 201 287
8 398 302 202 288 289 203 118 191
8 399 303 203 289 293 206 121 195
8 291 205 304 400 193 120 204 290
8 400 304 207 292 290 204 122 194
8 294 208 123 196 402 307 207 292
8 403 306 206 293 294 208 123 196
8 296 210 263 373 405 309 209 295
8 408 312 213 299 297 211 126 199
8 299 213 313 409 199 126 212 298
8 409 313 214 300 298 212 127 200
8 305 216 129 205 411 315 214 300
8 412 318 217 301 302 219 132 202
8 309 223 136 209 412 318 217 301
8 413 320 219 302 303 220 133 203
8 306 221 321 414 206 134 220 303
8 307 218 131 207 415 316 215 304
8 305 216 316 415 205 129 215 304
8 417 322 221 306 308 222 135 208
8 308 222 135 208 418 319 218 307
8 310 225 137 210 420 325 223 309
8 423 326 224 311 310 225 137 210
8 329 236 165 260 441 338 259 368
8 442 342 238 328 333 240 149 230
8 331 237 146 228 443 340 236 329
8 334 241 150 231 444 339 235 330
8 444 339 235 330 331 237 146 228
8 446 343 239 332 336 242 151 233
8 333 240 149 230 446 343 239 332
8 335 243 152 232 448 345 241 334
8 337 244 153 234 449 347 243 335
8 337 244 346 450 234 153 242 336
8 338 245 164 259 452 349 258 367
8 340 247 155 236 453 350 245 338
8 345 252 160 241 454 351 246 339
8 454 351 246 339 341 248 156 237
8 341 248 156 237 455 352 247 340
8 240 159 251 344 342 249 354 457
8 242 161 253 346 343 250 355 458
8 343 250 355 458 240 159 251 344
8 347 254 162 243 460 357 252 345
8 348 255 358 461 244 163 253 346
8 348 255 163 244 462 359 254 347
8 473 360 257 365 363 256 364 482
8 452 349 258 367 365 257 366 485
8 422 324 369 488 311 224 261 371
8 371 261 370 490 263 167 262 372
8 407 311 371 491 296 210 263 373
8 373 263 372 492 295 209 264 374
8 493 385 275 375 442 342 238 328
8 377 276 179 267 493 385 275 375
8 378 274 177 268 494 383 273 376
8 494 383 273 376 377 276 179 267
8 497 382 272 379 378 274 177 268
8 498 381 271 380 379 272 175 269
8 393 297 197 283 498 381 271 380
8 499 387 277 381 382 278 181 272
8 408 312 211 297 499 387 277 381
8 500 388 278 382 384 280 183 274
8 501 389 279 383 386 282 185 276
8 384 280 183 274 501 389 279 383
8 386 282 185 276 503 391 281 385
8 503 391 281 385 457 354 249 342
8 511 408 299 395 393 297 199 285
8 395 299 409 512 285 199 298 394
8 512 409 300 396 394 298 200 286
8 401 305 205 291 514 411 300 396
8 515 412 301 397 398 302 202 288
8 405 309 209 295 515 412 301 397
8 516 413 302 398 399 303 203 289
8 403 306 414 517 293 206 303 399
8 402 307 207 292 518 415 304 400
8 401 305 415 518 291 205 304 400
8 404 308 208 294 520 418 307 402
8 521 417 306 403 404 308 208 294
8 406 310 210 296 523 420 309 405
8 526 423 311 407 406 310 210 296
8 410 314 213 299 527 424 312 408
8 528 425 315 411 409 313 214 300
8 410 314 425 528 299 213 313 409
8 416 317 216 305 530 427 315 411
8 531 430 318 412 413 320 219 302
8 420 325 223 309 531 430 318 412
8 532 432 320 413 414 321 220 303
8 417 322 433 533 306 221 321 414
8 418 319 218 307 534 428 316 415
8 416 317 428 534 305 216 316 415
8 419 323 434 536 308 222 322 417
8 419 323 222 308 537 431 319 418
8 421 327 225 310 539 438 325 420
8 421 327 439 541 310 225 326 423
8 543 437 324 422 423 326 224 311
8 441 338 259 368 559 452 367 486
8 443 340 236 329 560 453 338 441
8 333 240 344 447 442 342 457 561
8 445 341 237 331 562 455 340 443
8 448 345 241 334 563 454 339 444
8 563 454 339 444 445 341 237 331
8 336 242 346 450 446 343 458 565
8 446 343 458 565 333 240 344 447
8 449 347 243 335 567 460 345 448
8 451 348 244 337 568 462 347 449
8 451 348 461 569 337 244 346 450
8 570 463 349 452 473 360 257 365
8 453 350 245 338 570 463 349 452
8 455 352 247 340 571 464 350 453
8 460 357 252 345 572 465 351 454
8 572 465 351 454 456 353 248 341
8 456 353 248 341 573 466 352 455
8 344 251 356 459 457 354 468 575
8 458 355 469 576 344 251 356 459
8 346 253 358 461 458 355 469 576
8 462 359 254 347 578 471 357 460
8 348 255 359 462 461 358 472 579
8 591 474 360 473 475 361 256 363
8 475 361 256 363 594 477 362 479
8 363 256 364 482 479 362 480 603
8 590 473 365 484 481 363 482 605
8 482 364 257 365 606 483 366 485
8 559 452 367 486 484 365 485 607
8 542 436 487 609 422 324 369 488
8 525 422 488 611 407 311 371 491
8 488 369 489 612 371 261 370 490
8 491 371 490 613 373 263 372 492
8 495 386 276 377 614 503 385 493
8 614 503 385 493 561 457 342 442
8 615 501 383 494 495 386 276 377
8 496 384 274 378 615 501 383 494
8 618 500 382 497 496 384 274 378
8 619 499 381 498 497 382 272 379
8 511 408 297 393 619 499 381 498
8 620 505 387 499 500 388 278 382
8 527 424 312 408 620 505 387 499
8 502 390 506 621 384 280 388 500
8 622 507 389 501 504 392 282 386
8 502 390 280 384 622 507 389 501
8 504 392 282 386 624 509 391 503
8 624 509 391 503 575 468 354 457
8 513 410 299 395 630 527 408 511
8 631 528 411 514 512 409 300 396
8 513 410 528 631 395 299 409 512
8 519 416 305 401 633 530 411 514
8 634 531 412 515 516 413 302 398
8 523 420 309 405 634 531 412 515
8 635 532 413 516 517 414 303 399
8 521 417 533 636 403 306 414 517
8 520 418 307 402 637 534 415 518
8 519 416 534 637 401 305 415 518
8 522 419 308 404 639 537 418 520
8 522 419 536 640 404 308 417 521
8 524 421 310 406 642 539 420 523
8 524 421 541 644 406 310 423 526
8 646 543 422 525 526 423 311 407
8 529 426 314 410 647 544 424 527
8 528 425 545 648 411 315 427 530
8 529 426 545 648 410 314 425 528
8 535 429 317 416 649 546 427 530
8 650 548 430 531 532 432 320 413
8 539 438 325 420 650 548 430 531
8 533 433 550 651 414 321 432 532
8 536 434 551 652 417 322 433 533
8 537 431 319 418 653 547 428 534
8 535 429 547 653 416 317 428 534
8 538 435 552 654 419 323 434 536
8 538 435 323 419 655 549 431 537
8 540 440 327 421 657 556 438 539
8 540 440 557 659 421 327 439 541
8 541 439 555 660 423 326 437 543
8 661 554 436 542 543 437 324 422
8 676 570 452 559 590 473 365 484
8 560 453 338 441 676 570 452 559
8 562 455 340 443 677 571 453 560
8 447 344 459 566 561 457 575 678
8 564 456 341 445 679 573 455 562
8 567 460 345 448 680 572 454 563
8 680 572 454 563 564 456 341 445
8 565 458 576 682 447 344 459 566
8 450 346 461 569 565 458 576 682
8 568 462 347 449 684 578 460 567
8 451 348 462 568 569 461 579 685
8 686 580 463 570 591 474 360 473
8 571 464 350 453 686 580 463 570
8 573 466 352 455 687 581 464 571
8 572 465 582 688 460 357 471 578
8 574 467 582 688 456 353 465 572
8 574 467 353 456 689 583 466 573
8 459 356 470 577 575 468 585 691
8 576 469 586 692 459 356 470 577
8 461 358 472 579 576 469 586 692
8 462 359 471 578 579 472 588 694
8 704 591 473 590 593 475 363 481
8 595 476 592 705 475 361 474 591
8 593 475 363 481 707 594 479 602
8 594 477 362 479 709 598 478 600
8 595 476 361 475 711 597 477 594
8 479 362 480 603 600 478 601 720
8 481 363 482 605 602 479 603 722
8 603 480 364 482 723 604 483 606
8 605 482 365 484 724 606 485 607
8 656 553 608 726 542 436 487 609
8 645 542 609 728 525 422 488 611
8 609 487 610 729 488 369 489 612
8 611 488 612 730 491 371 490 613
8 616 504 386 495 731 624 503 614
8 731 624 503 614 678 575 457 561
8 732 622 501 615 616 504 386 495
8 617 502 384 496 732 622 501 615
8 617 502 621 735 496 384 500 618
8 736 620 499 619 618 500 382 497
8 630 527 408 511 736 620 499 619
8 621 506 626 737 500 388 505 620
8 647 544 424 527 737 626 505 620
8 623 508 627 738 502 390 506 621
8 623 508 390 502 739 628 507 622
8 625 510 628 739 504 392 507 622
8 740 629 509 624 691 585 468 575
8 625 510 392 504 740 629 509 624
8 632 529 410 513 744 647 527 630
8 631 528 648 745 514 411 530 633
8 632 529 648 745 513 410 528 631
8 638 535 416 519 746 649 530 633
8 747 650 531 634 635 532 413 516
8 642 539 420 523 747 650 531 634
8 636 533 651 748 517 414 532 635
8 640 536 652 749 521 417 533 636
8 639 537 418 520 750 653 534 637
8 638 535 653 750 519 416 534 637
8 641 538 419 522 751 655 537 639
8 641 538 654 752 522 419 536 640
8 643 540 421 524 753 657 539 642
8 643 540 659 755 524 421 541 644
8 644 541 660 757 526 423 543 646
8 758 661 542 645 646 543 422 525
8 529 426 544 647 648 545 662 759
8 530 427 545 648 649 546 663 760
8 535 429 546 649 653 547 664 761
8 762 666 548 650 651 550 432 532
8 657 556 438 539 762 666 548 650
8 652 551 668 763 533 433 550 651
8 654 552 669 764 536 434 551 652
8 655 549 431 537 765 665 547 653
8 538 435 549 655 654 552 667 766
8 661 554 671 768 542 436 553 656
8 658 558 440 540 769 674 556 657
8 658 558 675 770 540 440 557 659
8 659 557 673 771 541 439 555 660
8 660 555 672 772 543 437 554 661
8 788 686 570 676 704 591 473 590
8 677 571 453 560 788 686 570 676
8 679 573 455 562 789 687 571 677
8 566 459 577 683 678 575 691 790
8 681 574 456 564 791 689 573 679
8 680 572 688 792 567 460 578 684
8 681 574 688 792 564 456 572 680
8 682 576 692 794 566 459 577 683
8 569 461 579 685 682 576 692 794
8 568 462 578 684 685 579 694 796
8 687 581 464 571 798 696 580 686
8 798 696 580 686 705 592 474 591
8 689 583 466 573 799 697 581 687
8 688 582 698 800 578 471 588 694
8 690 584 698 800 574 467 582 688
8 690 584 467 574 801 699 583 689
8 693 587 701 803 577 470 585 691
8 693 587 470 577 804 702 586 692
8 695 589 702 804 579 472 586 692
8 695 589 472 579 805 703 588 694
8 708 595 705 813 593 475 591 704
8 710 596 706 814 595 476 592 705
8 707 594 479 602 816 709 600 719
8 708 595 475 593 817 711 594 707
8 709 598 478 600 819 715 599 717
8 711 597 477 594 820 714 598 709
8 710 596 476 595 822 713 597 711
8 600 478 601 720 717 599 718 832
8 602 479 603 722 719 600 720 834
8 720 601 480 603 835 721 604 723
8 722 603 482 605 836 723 606 724
8 767 670 725 839 656 553 608 726
8 756 656 726 841 645 542 609 728
8 726 608 727 842 609 487 610 729
8 728 609 729 843 611 488 612 730
8 844 740 624 731 790 691 575 678
8 733 625 504 616 844 740 624 731
8 734 623 502 617 845 739 622 732
8 733 625 739 845 616 504 622 732
8 734 623 738 846 617 502 621 735
8 735 621 737 847 618 500 620 736
8 744 647 527 630 847 737 620 736
8 621 506 627 738 737 626 741 848
8 647 544 626 737 759 662 741 848
8 623 508 628 739 738 627 742 849
8 740 629 585 691 850 743 700 802
8 625 510 629 740 739 628 743 850
8 632 529 647 744 745 648 759 854
8 633 530 648 745 746 649 760 855
8 638 535 649 746 750 653 761 856
8 857 762 650 747 748 651 532 635
8 753 657 539 642 857 762 650 747
8 749 652 763 858 636 533 651 748
8 752 654 764 859 640 536 652 749
8 751 655 537 639 860 765 653 750
8 641 538 655 751 752 654 766 861
8 754 658 540 643 862 769 657 753
8 754 658 770 863 643 540 659 755
8 755 659 771 864 644 541 660 757
8 758 661 768 866 645 542 656 756
8 757 660 772 867 646 543 661 758
8 759 662 773 868 648 545 663 760
8 649 546 663 760 761 664 774 871
8 765 665 547 653 872 775 664 761
8 873 777 666 762 763 668 550 651
8 769 674 556 657 873 777 666 762
8 764 669 779 874 652 551 668 763
8 654 552 667 766 764 669 778 875
8 655 549 665 765 766 667 776 876
8 768 671 782 877 656 553 670 767
8 772 672 783 878 661 554 671 768
8 658 558 674 769 770 675 786 879
8 659 557 675 770 771 673 785 881
8 882 784 672 772 771 673 555 660
8 789 687 571 677 897 798 686 788
8 897 798 686 788 813 705 591 704
8 791 689 573 679 898 799 687 789
8 795 693 803 900 683 577 691 790
8 793 690 574 681 901 801 689 791
8 792 688 800 902 684 578 694 796
8 793 690 800 902 681 574 688 792
8 795 693 577 683 903 804 692 794
8 797 695 804 903 685 579 692 794
8 797 695 579 685 904 805 694 796
8 905 806 697 799 798 696 581 687
8 814 706 806 905 705 592 696 798
8 689 583 697 799 801 699 808 907
8 800 698 809 908 694 588 703 805
8 690 584 699 801 800 698 809 908
8 803 701 810 909 691 585 700 802
8 693 587 702 804 803 701 811 910
8 695 589 703 805 804 702 812 911
8 818 710 814 919 708 595 705 813
8 821 712 815 920 710 596 706 814
8 816 709 600 719 922 819 717 831
8 817 711 594 707 923 820 709 816
8 818 710 595 708 924 822 711 817
8 819 715 599 717 926 827 716 829
8 820 714 598 709 927 826 715 819
8 929 825 713 822 820 714 597 711
8 821 712 596 710 930 824 713 822
8 717 599 718 832 829 716 830 942
8 719 600 720 834 831 717 832 944
8 832 718 601 720 945 833 721 835
8 834 720 603 722 946 835 723 836
8 869 780 838 950 767 670 725 839
8 865 767 839 952 756 656 726 841
8 839 725 840 953 726 608 727 842
8 841 726 842 954 728 609 729 843
8 844 740 691 790 955 850 802 899
8 733 625 740 844 845 739 850 955
8 734 623 739 845 846 738 849 956
8 735 621 738 846 847 737 848 957
8 744 647 737 847 854 759 848 957
8 738 627 742 849 848 741 851 958
8 848 741 851 958 759 662 773 868
8 850 743 700 802 959 852 807 906
8 849 742 628 739 959 852 743 850
8 854 759 868 965 745 648 760 855
8 746 649 760 855 856 761 871 966
8 860 765 653 750 967 872 761 856
8 968 873 762 857 858 763 651 748
8 862 769 657 753 968 873 762 857
8 859 764 874 969 749 652 763 858
8 752 654 766 861 859 764 875 970
8 751 655 765 860 861 766 876 971
8 754 658 769 862 863 770 879 972
8 755 659 770 863 864 771 881 974
8 976 882 772 867 864 771 660 757
8 866 768 877 977 756 656 767 865
8 867 772 878 978 758 661 768 866
8 760 663 773 868 871 774 883 980
8 870 781 837 948 982 890 780 869
8 982 890 780 869 877 782 670 767
8 761 664 774 871 872 775 884 984
8 876 776 665 765 985 885 775 872
8 873 777 668 763 986 887 779 874
8 769 674 777 873 879 786 887 986
8 764 669 778 875 874 779 888 987
8 766 667 776 876 875 778 886 988
8 878 783 892 989 768 671 782 877
8 878 783 672 772 990 893 784 882
8 880 787 675 770 991 896 786 879
8 880 787 895 992 770 675 785 881
8 881 785 894 993 771 673 784 882
8 1006 905 799 898 897 798 687 789
8 919 814 905 1006 813 705 798 897
8 791 689 799 898 901 801 907 1007
8 900 803 909 1009 790 691 802 899
8 795 693 804 903 900 803 910 1010
8 902 800 908 1011 796 694 805 904
8 793 690 801 901 902 800 908 1011
8 797 695 805 904 903 804 911 1012
8 799 697 806 905 907 808 912 1013
8 920 815 912 1013 814 706 806 905
8 802 700 810 909 906 807 913 1014
8 801 699 808 907 908 809 914 1015
8 805 703 809 908 911 812 915 1016
8 803 701 811 910 909 810 916 1017
8 911 812 917 1018 804 702 811 910
8 925 821 920 1030 818 710 814 919
8 928 823 921 1031 821 712 815 920
8 922 819 717 831 1033 926 829 941
8 923 820 709 816 1034 927 819 922
8 1035 929 822 924 923 820 711 817
8 925 821 710 818 1036 930 822 924
8 1038 933 825 929 927 826 714 820
8 926 827 716 829 1039 935 828 939
8 927 826 715 819 1040 934 827 926
8 928 823 712 821 1041 931 824 930
8 1042 932 824 930 929 825 713 822
8 829 716 830 942 939 828 940 1058
8 831 717 832 944 941 829 942 1060
8 942 830 718 832 1061 943 833 945
8 944 832 720 834 1062 945 835 946
8 981 889 947 1064 870 781 837 948
8 948 837 949 1067 869 780 838 950
8 975 869 950 1069 865 767 839 952
8 950 838 951 1070 839 725 840 953
8 952 839 953 1071 841 726 842 954
8 955 850 802 899 1072 959 906 1008
8 956 849 739 845 1072 959 850 955
8 846 738 849 956 957 848 958 1073
8 957 848 958 1073 854 759 868 965
8 849 742 852 959 958 851 961 1076
8 960 853 961 1076 906 807 852 959
8 958 851 961 1076 868 773 883 980
8 960 853 807 906 1077 963 913 1014
8 855 760 868 965 966 871 980 1085
8 856 761 871 966 967 872 984 1086
8 971 876 765 860 1087 985 872 967
8 968 873 763 858 1088 986 874 969
8 862 769 873 968 972 879 986 1088
8 859 764 875 970 969 874 987 1089
8 861 766 876 971 970 875 988 1090
8 973 880 770 863 1091 991 879 972
8 973 880 992 1092 863 770 881 974
8 974 881 993 1093 864 771 882 976
8 979 870 948 1066 1094 982 869 975
8 1094 982 869 975 977 877 767 865
8 978 878 772 867 1095 990 882 976
8 978 878 989 1096 866 768 877 977
8 871 774 883 980 984 884 994 1099
8 983 891 999 1100 870 781 889 981
8 1101 1000 890 982 989 892 782 877
8 983 891 781 870 1101 1000 890 982
8 872 775 884 984 985 885 995 1103
8 876 776 885 985 988 886 996 1104
8 986 887 779 874 1105 998 888 987
8 879 786 887 986 991 896 998 1105
8 875 778 886 988 987 888 997 1106
8 990 893 1002 1107 878 783 892 989
8 1108 1003 893 990 993 894 784 882
8 880 787 896 991 992 895 1005 1109
8 993 894 785 881 1110 1004 895 992
8 898 799 905 1006 1007 907 1013 1120
8 1030 920 1013 1120 919 814 905 1006
8 901 801 907 1007 1011 908 1015 1121
8 899 802 909 1009 1008 906 1014 1122
8 900 803 910 1010 1009 909 1017 1123
8 1012 911 1018 1124 903 804 910 1010
8 904 805 908 1011 1012 911 1016 1125
8 1013 912 1020 1127 907 808 914 1015
8 1031 921 1020 1127 920 815 912 1013
8 1019 918 962 1075 1128 1021 913 1014
8 1128 1021 913 1014 1017 916 810 909
8 1015 914 1022 1129 908 809 915 1016
8 1016 915 1023 1130 911 812 917 1018
8 1018 917 1024 1131 910 811 916 1017
8 1037 928 1031 1148 925 821 920 1030
8 928 823 931 1041 1031 921 1032 1149
8 1033 926 829 941 1151 1039 939 1057
8 1034 927 819 922 1152 1040 926 1033
8 1153 1038 929 1035 1034 927 820 923
8 1154 1042 930 1036 1035 929 822 924
8 1037 928 821 925 1155 1041 930 1036
8 1039 935 828 939 1156 1047 938 1055
8 1157 1043 932 1042 1038 933 825 929
8 1038 933 826 927 1158 1045 934 1040
8 1040 934 827 926 1159 1046 935 1039
8 930 824 932 1042 1041 931 1044 1160
8 1051 936 1048 1165 1175 1052 937 1053
8 1156 1047 938 1055 1053 937 1054 1178
8 939 828 940 1058 1055 938 1056 1181
8 941 829 942 1060 1057 939 1058 1183
8 942 830 943 1061 1058 940 1059 1184
8 1060 942 832 944 1185 1061 945 1062
8 1082 964 1063 1188 981 889 947 1064
8 1097 981 1064 1190 979 870 948 1066
8 1064 947 1065 1191 948 837 949 1067
8 1066 948 1067 1193 975 869 950 1069
8 1067 949 1068 1194 950 838 951 1070
8 1069 950 1070 1195 952 839 953 1071
8 956 849 959 1072 1073 958 1076 1197
8 1074 960 1076 1197 1008 906 959 1072
8 1073 958 1076 1197 965 868 980 1085
8 1074 960 906 1008 1198 1077 1014 1122
8 1133 1026 1079 1199 1019 918 962 1075
8 1077 963 913 1014 1200 1080 962 1075
8 960 853 963 1077 1076 961 1078 1201
8 980 883 961 1076 1099 994 1078 1201
8 1210 1083 964 1082 1100 999 889 981
8 966 871 980 1085 1086 984 1099 1215
8 967 872 984 1086 1087 985 1103 1216
8 971 876 985 1087 1090 988 1104 1217
8 1088 986 874 969 1218 1105 987 1089
8 972 879 986 1088 1091 991 1105 1218
8 970 875 988 1090 1089 987 1106 1219
8 973 880 991 1091 1092 992 1109 1220
8 1093 993 881 974 1221 1110 992 1092
8 1222 1108 990 1095 1093 993 882 976
8 1223 1101 982 1094 1096 989 877 977
8 1098 983 870 979 1223 1101 982 1094
8 1095 990 1107 1224 978 878 989 1096
8 1098 983 1100 1225 979 870 981 1097
8 984 884 994 1099 1103 995 1111 1227
8 1102 1001 1115 1228 983 891 999 1100
8 1101 1000 892 989 1229 1116 1002 1107
8 1102 1001 891 983 1229 1116 1000 1101
8 985 885 995 1103 1104 996 1112 1230
8 988 886 996 1104 1106 997 1113 1231
8 1105 998 888 987 1232 1114 997 1106
8 991 896 998 1105 1109 1005 1114 1232
8 1108 1003 1117 1233 990 893 1002 1107
8 1108 1003 894 993 1233 1117 1004 1110
8 992 895 1005 1109 1110 1004 1118 1234
8 1120 1013 1127 1244 1007 907 1015 1121
8 1148 1031 1127 1244 1030 920 1013 1120
8 1121 1015 1129 1245 1011 908 1016 1125
8 1126 1019 1075 1196 1246 1128 1014 1122
8 1246 1128 1014 1122 1123 1017 909 1009
8 1124 1018 1131 1247 1010 910 1017 1123
8 1125 1016 1130 1248 1012 911 1018 1124
8 1127 1020 1137 1254 1015 914 1022 1129
8 1031 921 1032 1149 1127 1020 1137 1254
8 1134 1027 918 1019 1257 1140 1021 1128
8 1257 1140 1021 1128 1131 1024 916 1017
8 1129 1022 1141 1258 1016 915 1023 1130
8 1130 1023 1142 1259 1018 917 1024 1131
8 1261 1144 1025 1132 1133 1026 1079 1199
8 1255 1138 1025 1132 1135 1028 1144 1261
8 1133 1026 918 1019 1262 1145 1027 1134
8 1136 1029 1139 1256 1263 1146 1028 1135
8 1037 928 1041 1155 1148 1031 1149 1275
8 1041 931 1044 1160 1149 1032 1150 1276
8 1151 1039 939 1057 1278 1156 1055 1180
8 1152 1040 926 1033 1279 1159 1039 1151
8 1153 1038 927 1034 1280 1158 1040 1152
8 1281 1157 1042 1154 1153 1038 929 1035
8 1036 930 1042 1154 1155 1041 1160 1282
8 1283 1164 1046 1159 1156 1047 935 1039
8 1165 1048 1164 1283 1053 937 1047 1156
8 1157 1043 933 1038 1284 1161 1045 1158
8 1157 1043 1161 1284 1042 932 1044 1160
8 1040 934 1046 1159 1158 1045 1163 1285
8 1166 1049 1167 1292 1051 936 1048 1165
8 1166 1049 936 1051 1293 1168 1050 1172
8 1051 936 1052 1175 1172 1050 1173 1306
8 1174 1051 1165 1290 1308 1175 1053 1177
8 1053 937 1054 1178 1175 1052 1176 1309
8 1278 1156 1055 1180 1177 1053 1178 1311
8 1055 938 1056 1181 1178 1054 1179 1312
8 1057 939 1058 1183 1180 1055 1181 1314
8 1058 940 1059 1184 1181 1056 1182 1315
8 1060 942 1061 1185 1183 1058 1184 1316
8 1208 1081 1187 1321 1082 964 1063 1188
8 1209 1082 1188 1322 1097 981 1064 1190
8 1188 1063 1189 1323 1064 947 1065 1191
8 1190 1064 1191 1325 1066 948 1067 1193
8 1191 1065 1192 1326 1067 949 1068 1194
8 1067 1193 1069 950 1194 1327 1195 1070
8 1250 1133 1199 1330 1126 1019 1075 1196
8 1198 1077 1014 1122 1331 1200 1075 1196
8 1074 960 1077 1198 1197 1076 1201 1332
8 1085 980 1076 1197 1215 1099 1201 1332
8 1199 1079 1203 1333 1075 962 1080 1200
8 1132 1025 1119 1243 1199 1079 1203 1333
8 1201 1078 963 1077 1334 1202 1080 1200
8 1099 994 1078 1201 1227 1111 1202 1334
8 1343 1207 1081 1208 1210 1083 964 1082
8 1214 1084 1186 1319 1343 1207 1081 1208
8 1345 1210 1082 1209 1225 1100 981 1097
8 1346 1211 1083 1210 1228 1115 999 1100
8 1086 984 1099 1215 1216 1103 1227 1352
8 1087 985 1103 1216 1217 1104 1230 1353
8 1090 988 1104 1217 1219 1106 1231 1354
8 1218 1105 987 1089 1355 1232 1106 1219
8 1091 991 1105 1218 1220 1109 1232 1355
8 1092 992 1109 1220 1221 1110 1234 1356
8 1222 1108 1233 1357 1095 990 1107 1224
8 1222 1108 993 1093 1357 1233 1110 1221
8 1223 1101 989 1096 1358 1229 1107 1224
8 1226 1102 983 1098 1358 1229 1101 1223
8 1226 1102 1228 1359 1098 983 1100 1225
8 1103 995 1111 1227 1230 1112 1235 1360
8 1107 1002 1117 1233 1229 1116 1240 1362
8 1102 1001 1116 1229 1228 1115 1240 1362
8 1104 996 1112 1230 1231 1113 1236 1363
8 1364 1237 1114 1232 1231 1113 997 1106
8 1109 1005 1114 1232 1234 1118 1238 1365
8 1110 1004 1118 1234 1233 1117 1241 1366
8 1242 1374 1255 1138 1119 1243 1132 1025
8 1244 1127 1254 1376 1121 1015 1129 1245
8 1148 1031 1149 1275 1244 1127 1254 1376
8 1245 1129 1258 1377 1125 1016 1130 1248
8 1251 1134 1019 1126 1378 1257 1128 1246
8 1378 1257 1128 1246 1247 1131 1017 1123
8 1248 1130 1259 1379 1124 1018 1131 1247
8 1261 1381 1250 1133 1132 1249 1330 1199
8 1255 1380 1252 1135 1132 1249 1381 1261
8 1250 1133 1019 1126 1382 1262 1134 1251
8 1253 1136 1256 1385 1384 1263 1135 1252
8 1254 1137 1265 1387 1129 1022 1141 1258
8 1149 1032 1150 1276 1254 1137 1265 1387
8 1028 1135 1255 1138 1139 1256 1388 1266
8 1136 1029 1147 1264 1256 1139 1267 1389
8 1390 1268 1140 1257 1259 1142 1024 1131
8 1260 1143 1027 1134 1390 1268 1140 1257
8 1258 1141 1269 1391 1130 1023 1142 1259
8 1262 1145 1027 1134 1393 1271 1143 1260
8 1261 1144 1026 1133 1394 1272 1145 1262
8 1135 1028 1144 1261 1263 1146 1272 1394
8 1136 1029 1146 1263 1264 1147 1273 1395
8 1155 1041 1160 1282 1275 1149 1276 1405
8 1276 1150 1044 1160 1406 1277 1162 1286
8 1408 1283 1159 1279 1278 1156 1039 1151
8 1290 1165 1283 1408 1177 1053 1156 1278
8 1152 1040 1159 1279 1280 1158 1285 1409
8 1281 1157 1038 1153 1410 1284 1158 1280
8 1281 1157 1284 1410 1154 1042 1160 1282
8 1159 1046 1164 1283 1285 1163 1289 1412
8 1292 1167 1289 1412 1165 1048 1164 1283
8 1158 1045 1163 1285 1284 1161 1288 1413
8 1284 1161 1288 1413 1160 1044 1162 1286
8 1291 1166 1292 1418 1174 1051 1165 1290
8 1291 1166 1051 1174 1419 1293 1172 1305
8 1294 1169 1296 1421 1166 1049 1167 1292
8 1293 1168 1050 1172 1422 1295 1171 1303
8 1294 1169 1049 1166 1423 1297 1168 1293
8 1422 1295 1171 1303 1301 1170 1302 1435
8 1172 1050 1173 1306 1303 1171 1304 1438
8 1174 1051 1175 1308 1305 1172 1306 1440
8 1175 1052 1176 1309 1306 1173 1307 1441
8 1177 1053 1178 1311 1308 1175 1309 1443
8 1178 1054 1179 1312 1309 1176 1310 1444
8 1180 1055 1181 1314 1311 1178 1312 1446
8 1056 1181 1312 1179 1182 1315 1447 1313
8 1183 1058 1184 1316 1314 1181 1315 1448
8 1319 1186 1084 1214 1451 1317 1213 1350
8 1319 1186 1318 1453 1208 1081 1187 1321
8 1321 1187 1320 1456 1188 1063 1189 1323
8 1344 1208 1321 1457 1209 1082 1188 1322
8 1322 1188 1323 1458 1190 1064 1191 1325
8 1323 1189 1324 1459 1191 1065 1192 1326
8 1191 1325 1193 1067 1326 1460 1327 1194
8 1242 1374 1243 1119 1328 1462 1335 1204
8 1330 1199 1333 1465 1196 1075 1200 1331
8 1132 1249 1330 1199 1243 1375 1465 1333
8 1332 1201 1077 1198 1466 1334 1200 1331
8 1215 1099 1201 1332 1352 1227 1334 1466
8 1119 1243 1333 1203 1204 1335 1470 1338
8 1333 1203 1338 1470 1200 1080 1202 1334
8 1227 1111 1202 1334 1360 1235 1338 1470
8 1328 1462 1335 1204 1205 1336 1471 1339
8 1337 1206 1340 1472 1464 1329 1205 1336
8 1346 1211 1342 1479 1210 1083 1207 1343
8 1346 1211 1115 1228 1479 1342 1239 1361
8 1348 1212 1084 1214 1479 1342 1207 1343
8 1480 1343 1208 1344 1345 1210 1082 1209
8 1351 1214 1319 1454 1480 1343 1208 1344
8 1481 1346 1210 1345 1359 1228 1100 1225
8 1348 1212 1347 1483 1214 1084 1213 1350
8 1216 1103 1227 1352 1353 1230 1360 1488
8 1217 1104 1230 1353 1354 1231 1363 1489
8 1490 1364 1232 1355 1354 1231 1106 1219
8 1220 1109 1232 1355 1356 1234 1365 1491
8 1221 1110 1234 1356 1357 1233 1366 1492
8 1224 1107 1233 1357 1358 1229 1362 1493
8 1226 1102 1229 1358 1359 1228 1362 1493
8 1230 1112 1235 1360 1363 1236 1367 1496
8 1361 1239 1115 1228 1497 1371 1240 1362
8 1366 1241 1372 1498 1233 1117 1240 1362
8 1364 1237 1113 1231 1499 1368 1236 1363
8 1364 1237 1368 1499 1232 1114 1238 1365
8 1234 1118 1238 1365 1366 1241 1369 1500
8 1507 1373 1242 1374 1388 1266 1138 1255
8 1508 1374 1243 1375 1380 1255 1132 1249
8 1376 1254 1387 1509 1245 1129 1258 1377
8 1275 1149 1276 1405 1376 1254 1387 1509
8 1377 1258 1391 1510 1248 1130 1259 1379
8 1511 1390 1257 1378 1379 1259 1131 1247
8 1383 1260 1134 1251 1511 1390 1257 1378
8 1252 1135 1256 1385 1380 1255 1388 1512
8 1261 1381 1513 1394 1133 1250 1382 1262
8 1135 1252 1384 1263 1261 1381 1513 1394
8 1382 1262 1134 1251 1514 1393 1260 1383
8 1253 1136 1263 1384 1386 1264 1395 1516
8 1253 1136 1264 1386 1385 1256 1389 1517
8 1387 1265 1397 1519 1258 1141 1269 1391
8 1276 1150 1277 1406 1387 1265 1397 1519
8 1256 1139 1267 1389 1388 1266 1398 1520
8 1264 1147 1274 1396 1389 1267 1399 1521
8 1392 1270 1143 1260 1522 1400 1268 1390
8 1390 1268 1142 1259 1522 1400 1269 1391
8 1392 1270 1401 1523 1260 1143 1271 1393
8 1272 1394 1524 1402 1145 1262 1393 1271
8 1395 1273 1146 1263 1524 1402 1272 1394
8 1273 1395 1264 1147 1403 1526 1396 1274
8 1405 1276 1160 1282 1534 1406 1286 1411
8 1414 1287 1407 1535 1286 1162 1277 1406
8 1279 1159 1283 1408 1409 1285 1412 1537
8 1418 1292 1412 1537 1290 1165 1283 1408
8 1280 1158 1285 1409 1410 1284 1413 1538
8 1410 1284 1413 1538 1282 1160 1286 1411
8 1285 1163 1289 1412 1413 1288 1417 1540
8 1421 1296 1417 1540 1292 1167 1289 1412
8 1414 1287 1162 1286 1541 1416 1288 1413
8 1420 1294 1421 1545 1291 1166 1292 1418
8 1419 1293 1172 1305 1546 1422 1303 1437
8 1420 1294 1166 1291 1547 1423 1293 1419
8 1294 1169 1297 1423 1421 1296 1425 1548
8 1423 1297 1168 1293 1549 1424 1295 1422
8 1301 1170 1298 1427 1422 1295 1424 1549
8 1432 1300 1428 1554 1301 1170 1298 1427
8 1431 1299 1428 1554 1560 1430 1300 1432
8 1563 1433 1300 1432 1435 1302 1170 1301
8 1546 1422 1303 1437 1434 1301 1435 1565
8 1303 1171 1304 1438 1435 1302 1436 1566
8 1305 1172 1306 1440 1437 1303 1438 1568
8 1306 1173 1307 1441 1438 1304 1439 1569
8 1308 1175 1309 1443 1440 1306 1441 1571
8 1309 1176 1310 1444 1441 1307 1442 1572
8 1311 1178 1312 1446 1443 1309 1444 1574
8 1179 1312 1444 1310 1313 1447 1575 1445
8 1314 1181 1315 1448 1446 1312 1447 1576
8 1350 1213 1349 1486 1451 1317 1449 1579
8 1451 1317 1450 1581 1319 1186 1318 1453
8 1454 1319 1214 1351 1582 1451 1350 1487
8 1453 1318 1452 1584 1321 1187 1320 1456
8 1454 1319 1453 1585 1344 1208 1321 1457
8 1456 1320 1455 1586 1323 1189 1324 1459
8 1457 1321 1456 1587 1322 1188 1323 1458
8 1458 1323 1459 1588 1325 1191 1326 1460
8 1205 1336 1464 1329 1328 1462 1590 1461
8 1507 1373 1461 1590 1374 1242 1328 1462
8 1508 1374 1462 1591 1375 1243 1335 1467
8 1337 1206 1329 1464 1473 1341 1463 1594
8 1375 1243 1335 1467 1465 1333 1470 1596
8 1465 1333 1470 1596 1331 1200 1334 1466
8 1352 1227 1334 1466 1488 1360 1470 1596
8 1591 1462 1336 1468 1467 1335 1471 1597
8 1469 1337 1472 1598 1595 1464 1336 1468
8 1471 1339 1474 1600 1335 1204 1338 1470
8 1600 1474 1367 1496 1470 1338 1235 1360
8 1336 1205 1340 1472 1471 1339 1475 1601
8 1337 1206 1341 1473 1472 1340 1476 1602
8 1495 1370 1478 1609 1361 1239 1342 1479
8 1348 1212 1342 1479 1483 1347 1478 1609
8 1481 1346 1479 1610 1345 1210 1343 1480
8 1481 1346 1228 1359 1610 1479 1361 1494
8 1484 1348 1214 1351 1610 1479 1343 1480
8 1483 1347 1482 1612 1350 1213 1349 1486
8 1484 1348 1483 1613 1351 1214 1350 1487
8 1353 1230 1360 1488 1489 1363 1496 1616
8 1490 1364 1231 1354 1617 1499 1363 1489
8 1490 1364 1499 1617 1355 1232 1365 1491
8 1356 1234 1365 1491 1492 1366 1500 1619
8 1492 1366 1498 1620 1357 1233 1362 1493
8 1494 1361 1228 1359 1621 1497 1362 1493
8 1495 1370 1239 1361 1622 1504 1371 1497
8 1363 1236 1367 1496 1499 1368 1501 1623
8 1497 1371 1240 1362 1624 1505 1372 1498
8 1625 1503 1372 1498 1500 1369 1241 1366
8 1365 1238 1368 1499 1500 1369 1502 1626
8 1520 1398 1506 1633 1388 1266 1373 1507
8 1634 1507 1374 1508 1512 1388 1255 1380
8 1509 1387 1519 1635 1377 1258 1391 1510
8 1405 1276 1406 1534 1509 1387 1519 1635
8 1515 1392 1260 1383 1636 1522 1390 1511
8 1511 1390 1259 1379 1636 1522 1391 1510
8 1385 1256 1389 1517 1512 1388 1520 1637
8 1513 1394 1262 1382 1638 1524 1393 1514
8 1395 1516 1638 1524 1263 1384 1513 1394
8 1515 1392 1523 1639 1383 1260 1393 1514
8 1516 1395 1526 1640 1386 1264 1396 1518
8 1386 1264 1396 1518 1517 1389 1521 1641
8 1519 1397 1527 1643 1391 1269 1400 1522
8 1535 1407 1527 1643 1406 1277 1397 1519
8 1389 1267 1399 1521 1520 1398 1528 1644
8 1645 1529 1399 1521 1525 1404 1274 1396
8 1392 1270 1400 1522 1523 1401 1531 1646
8 1524 1402 1271 1393 1648 1532 1401 1523
8 1403 1526 1648 1532 1273 1395 1524 1402
8 1525 1404 1274 1396 1649 1533 1403 1526
8 1539 1414 1535 1657 1411 1286 1406 1534
8 1542 1415 1536 1658 1414 1287 1407 1535
8 1409 1285 1412 1537 1538 1413 1540 1660
8 1545 1421 1540 1660 1418 1292 1412 1537
8 1539 1414 1286 1411 1661 1541 1413 1538
8 1540 1417 1544 1663 1413 1288 1416 1541
8 1421 1296 1425 1548 1540 1417 1544 1663
8 1542 1415 1287 1414 1664 1543 1416 1541
8 1420 1294 1423 1547 1545 1421 1548 1666
8 1547 1423 1293 1419 1667 1549 1422 1546
8 1434 1301 1427 1553 1546 1422 1549 1667
8 1423 1297 1424 1549 1548 1425 1550 1668
8 1551 1426 1550 1668 1427 1298 1424 1549
8 1551 1426 1298 1427 1671 1552 1428 1554
8 1562 1432 1554 1674 1434 1301 1427 1553
8 1431 1299 1429 1558 1554 1428 1555 1675
8 1431 1299 1430 1560 1558 1429 1557 1680
8 1560 1430 1300 1432 1683 1559 1433 1563
8 1561 1431 1554 1674 1684 1560 1432 1562
8 1685 1563 1432 1562 1565 1435 1301 1434
8 1435 1302 1436 1566 1563 1433 1564 1686
8 1437 1303 1438 1568 1565 1435 1566 1688
8 1438 1304 1439 1569 1566 1436 1567 1689
8 1440 1306 1441 1571 1568 1438 1569 1691
8 1441 1307 1442 1572 1569 1439 1570 1692
8 1443 1309 1444 1574 1571 1441 1572 1694
8 1310 1444 1572 1442 1445 1575 1695 1573
8 1446 1312 1447 1576 1574 1444 1575 1696
8 1486 1349 1485 1614 1579 1449 1577 1699
8 1451 1317 1449 1579 1581 1450 1578 1701
8 1487 1350 1486 1615 1582 1451 1579 1702
8 1581 1450 1580 1704 1453 1318 1452 1584
8 1582 1451 1581 1705 1454 1319 1453 1585
8 1584 1452 1583 1706 1456 1320 1455 1586
8 1585 1453 1584 1707 1457 1321 1456 1587
8 1587 1456 1586 1708 1458 1323 1459 1588
8 1633 1506 1589 1710 1507 1373 1461 1590
8 1464 1329 1461 1590 1594 1463 1589 1710
8 1468 1336 1462 1591 1595 1464 1590 1711
8 1634 1507 1590 1711 1508 1374 1462 1591
8 1473 1341 1463 1594 1603 1477 1593 1716
8 1469 1337 1464 1595 1599 1473 1594 1717
8 1471 1597 1467 1335 1600 1718 1596 1470
8 1718 1600 1496 1616 1596 1470 1360 1488
8 1336 1468 1597 1471 1472 1598 1719 1601
8 1469 1337 1473 1599 1598 1472 1602 1720
8 1722 1604 1501 1623 1600 1474 1367 1496
8 1475 1601 1471 1339 1604 1722 1600 1474
8 1602 1476 1605 1723 1472 1340 1475 1601
8 1476 1602 1724 1606 1341 1473 1603 1477
8 1483 1347 1478 1609 1612 1482 1608 1731
8 1495 1370 1504 1622 1609 1478 1608 1731
8 1618 1495 1609 1732 1494 1361 1479 1610
8 1484 1348 1479 1610 1613 1483 1609 1732
8 1486 1349 1482 1612 1614 1485 1611 1733
8 1613 1483 1612 1734 1487 1350 1486 1615
8 1489 1363 1496 1616 1617 1499 1623 1736
8 1491 1365 1499 1617 1619 1500 1626 1737
8 1618 1495 1361 1494 1738 1622 1497 1621
8 1739 1625 1498 1620 1619 1500 1366 1492
8 1621 1497 1362 1493 1740 1624 1498 1620
8 1742 1631 1504 1622 1624 1505 1371 1497
8 1743 1628 1502 1626 1623 1501 1368 1499
8 1744 1630 1505 1624 1625 1503 1372 1498
8 1745 1629 1503 1625 1626 1502 1369 1500
8 1520 1398 1528 1644 1633 1506 1632 1751
8 1637 1520 1633 1752 1512 1388 1507 1634
8 1635 1519 1643 1753 1510 1391 1522 1636
8 1657 1535 1643 1753 1534 1406 1519 1635
8 1515 1392 1522 1636 1639 1523 1646 1754
8 1517 1389 1521 1641 1637 1520 1644 1755
8 1524 1638 1756 1648 1393 1514 1639 1523
8 1640 1526 1395 1516 1756 1648 1524 1638
8 1642 1525 1396 1518 1757 1649 1526 1640
8 1758 1645 1521 1641 1642 1525 1396 1518
8 1646 1531 1400 1522 1760 1650 1527 1643
8 1535 1407 1536 1658 1643 1527 1650 1760
8 1521 1399 1529 1645 1644 1528 1651 1761
8 1647 1530 1652 1762 1525 1404 1529 1645
8 1401 1523 1648 1532 1531 1646 1763 1655
8 1525 1404 1533 1649 1647 1530 1654 1765
8 1533 1649 1766 1656 1403 1526 1648 1532
8 1662 1542 1658 1774 1539 1414 1535 1657
8 1542 1415 1543 1664 1658 1536 1659 1775
8 1660 1540 1663 1777 1538 1413 1541 1661
8 1545 1421 1548 1666 1660 1540 1663 1777
8 1662 1542 1414 1539 1778 1664 1541 1661
8 1664 1543 1416 1541 1779 1665 1544 1663
8 1548 1425 1550 1668 1663 1544 1665 1779
8 1547 1423 1549 1667 1666 1548 1668 1781
8 1670 1551 1668 1781 1553 1427 1549 1667
8 1551 1426 1552 1671 1668 1550 1669 1782
8 1670 1551 1427 1553 1784 1671 1554 1674
8 1675 1555 1672 1785 1554 1428 1552 1671
8 1678 1556 1673 1789 1558 1429 1555 1675
8 1561 1431 1558 1681 1674 1554 1675 1790
8 1794 1677 1556 1678 1680 1557 1429 1558
8 1560 1430 1559 1683 1680 1557 1679 1797
8 1561 1431 1560 1684 1681 1558 1680 1798
8 1563 1433 1564 1686 1683 1559 1682 1800
8 1684 1560 1432 1562 1801 1683 1563 1685
8 1565 1435 1566 1688 1685 1563 1686 1802
8 1566 1436 1567 1689 1686 1564 1687 1803
8 1568 1438 1569 1691 1688 1566 1689 1805
8 1569 1439 1570 1692 1689 1567 1690 1806
8 1571 1441 1572 1694 1691 1569 1692 1808
8 1442 1572 1692 1570 1573 1695 1809 1693
8 1574 1444 1575 1696 1694 1572 1695 1810
8 1614 1485 1592 1712 1699 1577 1697 1813
8 1579 1449 1577 1699 1701 1578 1698 1815
8 1615 1486 1614 1735 1702 1579 1699 1816
8 1701 1578 1700 1818 1581 1450 1580 1704
8 1582 1451 1579 1702 1705 1581 1701 1819
8 1704 1580 1703 1820 1584 1452 1583 1706
8 1705 1581 1704 1821 1585 1453 1584 1707
8 1707 1584 1706 1822 1587 1456 1586 1708
8 1710 1589 1506 1633 1824 1709 1632 1751
8 1594 1463 1589 1710 1716 1593 1709 1824
8 1752 1633 1710 1825 1634 1507 1590 1711
8 1595 1464 1590 1711 1717 1594 1710 1825
8 1830 1714 1592 1712 1733 1611 1485 1614
8 1603 1477 1593 1716 1725 1607 1715 1834
8 1599 1473 1594 1717 1721 1603 1716 1835
8 1837 1722 1623 1736 1718 1600 1496 1616
8 1719 1601 1722 1837 1597 1471 1600 1718
8 1602 1720 1598 1472 1723 1838 1719 1601
8 1720 1602 1473 1599 1839 1724 1603 1721
8 1723 1605 1726 1840 1601 1475 1604 1722
8 1840 1726 1628 1743 1722 1604 1501 1623
8 1724 1606 1727 1841 1602 1476 1605 1723
8 1725 1607 1728 1842 1603 1477 1606 1724
8 1612 1482 1608 1731 1733 1611 1730 1849
8 1741 1627 1730 1849 1622 1504 1608 1731
8 1613 1483 1609 1732 1734 1612 1731 1850
8 1618 1495 1622 1738 1732 1609 1731 1850
8 1615 1486 1612 1734 1735 1614 1733 1851
8 1852 1743 1626 1737 1736 1623 1499 1617
8 1853 1745 1625 1739 1737 1626 1500 1619
8 1855 1742 1622 1738 1740 1624 1497 1621
8 1856 1744 1624 1740 1739 1625 1498 1620
8 1741 1627 1504 1622 1857 1746 1631 1742
8 1742 1631 1505 1624 1858 1749 1630 1744
8 1859 1747 1629 1745 1743 1628 1502 1626
8 1860 1748 1630 1744 1745 1629 1503 1625
8 1644 1528 1651 1761 1751 1632 1750 1865
8 1637 1520 1644 1755 1752 1633 1751 1866
8 1754 1646 1522 1636 1867 1760 1643 1753
8 1657 1535 1658 1774 1753 1643 1760 1867
8 1639 1523 1646 1754 1756 1648 1763 1868
8 1641 1521 1645 1758 1755 1644 1761 1869
8 1757 1649 1526 1640 1870 1766 1648 1756
8 1642 1525 1649 1757 1759 1647 1765 1871
8 1759 1647 1762 1872 1642 1525 1645 1758
8 1760 1650 1767 1874 1646 1531 1655 1763
8 1658 1536 1659 1775 1760 1650 1767 1874
8 1762 1652 1768 1875 1645 1529 1651 1761
8 1764 1653 1769 1876 1647 1530 1652 1762
8 1656 1766 1877 1773 1532 1648 1763 1655
8 1771 1879 1765 1654 1653 1764 1647 1530
8 1533 1649 1765 1654 1656 1766 1880 1772
8 1662 1542 1664 1778 1774 1658 1775 1887
8 1664 1543 1665 1779 1775 1659 1776 1888
8 1778 1664 1541 1661 1890 1779 1663 1777
8 1666 1548 1668 1781 1777 1663 1779 1890
8 1782 1669 1780 1891 1668 1550 1665 1779
8 1670 1551 1671 1784 1781 1668 1782 1893
8 1671 1552 1672 1785 1782 1669 1783 1894
8 1790 1675 1785 1896 1674 1554 1671 1784
8 1675 1555 1673 1789 1785 1672 1786 1897
8 1792 1676 1788 1903 1678 1556 1673 1789
8 1795 1678 1789 1904 1681 1558 1675 1790
8 1792 1676 1556 1678 1906 1791 1677 1794
8 1680 1557 1679 1797 1794 1677 1793 1909
8 1910 1794 1678 1795 1798 1680 1558 1681
8 1683 1559 1682 1800 1797 1679 1796 1912
8 1684 1560 1683 1801 1798 1680 1797 1913
8 1686 1564 1687 1803 1800 1682 1799 1915
8 1685 1563 1686 1802 1801 1683 1800 1916
8 1688 1566 1689 1805 1802 1686 1803 1917
8 1689 1567 1690 1806 1803 1687 1804 1918
8 1691 1569 1692 1808 1805 1689 1806 1920
8 1692 1570 1693 1809 1806 1690 1807 1921
8 1694 1572 1695 1810 1808 1692 1809 1922
8 1829 1713 1811 1926 1712 1592 1697 1813
8 1813 1697 1812 1928 1699 1577 1698 1815
8 1735 1614 1712 1828 1816 1699 1813 1929
8 1815 1698 1814 1931 1701 1578 1700 1818
8 1702 1579 1699 1816 1819 1701 1815 1932
8 1818 1700 1817 1933 1704 1580 1703 1820
8 1819 1701 1818 1934 1705 1581 1704 1821
8 1821 1704 1820 1935 1707 1584 1706 1822
8 1824 1709 1632 1751 1937 1823 1750 1865
8 1716 1593 1709 1824 1834 1715 1823 1937
8 1825 1710 1633 1752 1938 1824 1751 1866
8 1717 1594 1710 1825 1835 1716 1824 1938
8 1945 1830 1712 1828 1851 1733 1614 1735
8 1830 1714 1831 1946 1712 1592 1713 1829
8 1947 1832 1714 1830 1849 1730 1611 1733
8 1843 1729 1607 1725 1950 1833 1715 1834
8 1721 1603 1716 1835 1836 1725 1834 1951
8 1836 1725 1842 1953 1721 1603 1724 1839
8 1723 1838 1719 1601 1840 1954 1837 1722
8 1954 1840 1743 1852 1837 1722 1623 1736
8 1724 1839 1720 1602 1841 1955 1838 1723
8 1841 1727 1844 1956 1723 1605 1726 1840
8 1956 1844 1747 1859 1840 1726 1628 1743
8 1728 1842 1724 1606 1845 1957 1841 1727
8 1725 1607 1729 1843 1842 1728 1846 1958
8 1741 1627 1746 1857 1849 1730 1848 1965
8 1734 1612 1731 1850 1851 1733 1849 1966
8 1854 1741 1849 1966 1738 1622 1731 1850
8 1967 1859 1745 1853 1852 1743 1626 1737
8 1968 1860 1744 1856 1853 1745 1625 1739
8 1854 1741 1622 1738 1969 1857 1742 1855
8 1855 1742 1624 1740 1970 1858 1744 1856
8 1857 1746 1631 1742 1971 1861 1749 1858
8 1858 1749 1630 1744 1972 1863 1748 1860
8 1859 1747 1862 1973 1745 1629 1748 1860
8 1875 1768 1864 1977 1761 1651 1750 1865
8 1755 1644 1761 1869 1866 1751 1865 1978
8 1867 1760 1874 1979 1754 1646 1763 1868
8 1774 1658 1775 1887 1867 1760 1874 1979
8 1870 1766 1648 1756 1980 1877 1763 1868
8 1872 1762 1875 1981 1758 1645 1761 1869
8 1757 1649 1766 1870 1871 1765 1880 1982
8 1983 1879 1764 1873 1871 1765 1647 1759
8 1873 1764 1876 1984 1759 1647 1762 1872
8 1877 1773 1655 1763 1986 1881 1767 1874
8 1775 1659 1776 1888 1874 1767 1881 1986
8 1876 1769 1882 1987 1762 1652 1768 1875
8 1878 1770 1883 1988 1764 1653 1769 1876
8 1880 1772 1656 1766 1989 1886 1773 1877
8 1878 1770 1653 1764 1990 1884 1771 1879
8 1765 1654 1772 1880 1879 1771 1885 1991
8 1778 1664 1779 1890 1887 1775 1888 1997
8 1998 1889 1776 1888 1891 1780 1665 1779
8 1893 1782 1891 2000 1781 1668 1779 1890
8 1894 1783 1892 2001 1782 1669 1780 1891
8 1784 1671 1785 1896 1893 1782 1894 2003
8 1897 1786 1895 2004 1785 1672 1783 1894
8 1790 1675 1789 1904 1896 1785 1897 2006
8 1901 1787 1898 2007 1789 1673 1786 1897
8 1903 1788 1900 2013 1789 1673 1787 1901
8 1792 1676 1791 1906 1903 1788 1902 2016
8 1907 1792 1903 2017 1795 1678 1789 1904
8 1906 1791 1677 1794 2019 1905 1793 1909
8 1907 1792 1678 1795 2020 1906 1794 1910
8 1797 1679 1796 1912 1909 1793 1908 2022
8 1798 1680 1797 1913 1910 1794 1909 2023
8 1800 1682 1799 1915 1912 1796 1911 2025
8 1801 1683 1800 1916 1913 1797 1912 2026
8 1803 1687 1804 1918 1915 1799 1914 2028
8 1802 1686 1803 1917 1916 1800 1915 2029
8 1805 1689 1806 1920 1917 1803 1918 2030
8 1806 1690 1807 1921 1918 1804 1919 2031
8 1808 1692 1809 1922 1920 1806 1921 2032
8 1939 1826 1924 2037 1829 1713 1811 1926
8 1926 1811 1925 2039 1813 1697 1812 1928
8 1944 1829 1926 2040 1828 1712 1813 1929
8 1928 1812 1927 2042 1815 1698 1814 1931
8 1929 1813 1928 2043 1816 1699 1815 1932
8 1931 1814 1930 2044 1818 1700 1817 1933
8 1932 1815 1931 2045 1819 1701 1818 1934
8 1934 1818 1933 2046 1821 1704 1820 1935
8 2048 1936 1823 1937 1977 1864 1750 1865
8 1950 1833 1715 1834 2048 1936 1823 1937
8 1938 1824 1751 1866 2049 1937 1865 1978
8 1835 1716 1824 1938 1951 1834 1937 2049
8 1939 1826 1713 1829 2053 1942 1831 1946
8 1940 1827 1923 2035 2053 1942 1826 1939
8 1945 1830 1946 2058 1828 1712 1829 1944
8 2059 1947 1830 1945 1966 1849 1733 1851
8 1947 1832 1730 1849 2060 1948 1848 1965
8 1947 1832 1948 2060 1830 1714 1831 1946
8 1959 1847 1729 1843 2063 1949 1833 1950
8 1952 1843 1725 1836 2064 1950 1834 1951
8 1836 1725 1843 1952 1953 1842 1958 2066
8 1953 1842 1957 2067 1839 1724 1841 1955
8 1841 1955 1838 1723 1956 2068 1954 1840
8 2068 1956 1859 1967 1954 1840 1743 1852
8 1956 1844 1960 2069 1859 1747 1862 1973
8 1845 1957 1841 1727 1960 2069 1956 1844
8 1728 1842 1957 1845 1846 1958 2071 1961
8 1962 2072 1959 1847 1846 1958 1843 1729
8 1971 1861 1964 2077 1857 1746 1848 1965
8 1854 1741 1857 1969 1966 1849 1965 2078
8 1967 1859 1973 2079 1853 1745 1860 1968
8 1970 1858 1744 1856 2080 1972 1860 1968
8 1969 1857 1742 1855 2081 1971 1858 1970
8 1971 1861 1749 1858 2082 1974 1863 1972
8 1973 1862 1975 2083 1860 1748 1863 1972
8 1987 1882 1976 2086 1875 1768 1864 1977
8 1981 1875 1977 2087 1869 1761 1865 1978
8 1980 1877 1763 1868 2088 1986 1874 1979
8 1887 1775 1888 1997 1979 1874 1986 2088
8 1880 1982 2089 1989 1766 1870 1980 1877
8 1984 1876 1987 2090 1872 1762 1875 1981
8 1765 1871 1983 1879 1880 1982 2091 1991
8 1985 1878 1764 1873 2092 1990 1879 1983
8 1985 1878 1988 2093 1873 1764 1876 1984
8 2094 1992 1881 1986 1998 1889 1776 1888
8 1986 1881 1992 2094 1877 1773 1886 1989
8 1988 1883 1993 2095 1876 1769 1882 1987
8 1878 1770 1884 1990 1988 1883 1994 2096
8 1991 1885 1772 1880 2097 1996 1886 1989
8 1879 1771 1885 1991 1990 1884 1995 2098
8 2103 1998 1888 1997 2000 1891 1779 1890
8 2104 1999 1889 1998 2001 1892 1780 1891
8 2003 1894 2001 2106 1893 1782 1891 2000
8 2004 1895 2002 2107 1894 1783 1892 2001
8 2006 1897 2004 2109 1896 1785 1894 2003
8 2007 1898 2005 2110 1897 1786 1895 2004
8 2014 1901 2007 2112 1904 1789 1897 2006
8 2011 1899 2008 2113 1901 1787 1898 2007
8 2119 2010 1899 2011 2013 1900 1787 1901
8 2016 1902 2012 2122 1903 1788 1900 2013
8 2017 1903 2013 2123 1904 1789 1901 2014
8 1906 1791 1905 2019 2016 1902 2015 2125
8 1907 1792 1906 2020 2017 1903 2016 2126
8 1909 1793 1908 2022 2019 1905 2018 2128
8 2020 1906 1794 1910 2129 2019 1909 2023
8 1912 1796 1911 2025 2022 1908 2021 2131
8 1913 1797 1912 2026 2023 1909 2022 2132
8 1915 1799 1914 2028 2025 1911 2024 2134
8 1916 1800 1915 2029 2026 1912 2025 2135
8 1918 1804 1919 2031 2028 1914 2027 2136
8 1917 1803 1918 2030 2029 1915 2028 2137
8 1920 1806 1921 2032 2030 1918 2031 2138
8 1940 1827 1941 2054 2035 1923 2033 2140
8 2035 1923 2034 2143 1939 1826 1924 2037
8 2037 1924 2036 2146 1926 1811 1925 2039
8 2051 1939 2037 2147 1944 1829 1926 2040
8 2039 1925 2038 2149 1928 1812 1927 2042
8 2040 1926 2039 2150 1929 1813 1928 2043
8 2042 1927 2041 2151 1931 1814 1930 2044
8 2043 1928 2042 2152 1932 1815 1931 2045
8 2045 1931 2044 2153 1934 1818 1933 2046
8 2155 2047 1936 2048 2086 1976 1864 1977
8 2063 1949 1833 1950 2155 2047 1936 2048
8 2156 2048 1937 2049 2087 1977 1865 1978
8 2064 1950 1834 1951 2156 2048 1937 2049
8 2051 1939 1829 1944 2160 2053 1946 2058
8 2052 1940 2035 2144 2160 2053 1939 2051
8 2053 1942 1831 1946 2163 2057 1948 2060
8 2055 1943 1827 1940 2163 2057 1942 2053
8 2055 1943 2056 2164 1940 1827 1941 2054
8 2059 1947 1849 1966 2167 2060 1965 2078
8 2059 1947 2060 2167 1945 1830 1946 2058
8 2077 1964 2061 2168 1965 1848 1948 2060
8 2070 1963 1847 1959 2170 2062 1949 2063
8 2065 1959 1843 1952 2171 2063 1950 2064
8 2173 2072 1958 2066 2065 1959 1843 1952
8 1953 1842 1958 2066 2067 1957 2071 2174
8 2068 1956 2069 2175 1967 1859 1973 2079
8 2067 1957 2069 2175 1955 1841 1956 2068
8 1845 1957 2069 1960 1961 2071 2176 2073
8 2069 1960 2073 2176 1973 1862 1975 2083
8 2070 1963 2075 2177 1959 1847 1962 2072
8 1846 1958 2071 1961 1962 2072 2178 2074
8 2077 1964 1861 1971 2182 2076 1974 2082
8 2081 1971 2077 2183 1969 1857 1965 2078
8 2079 1973 2083 2184 1968 1860 1972 2080
8 2081 1971 1858 1970 2185 2082 1972 2080
8 2083 1975 2084 2186 1972 1863 1974 2082
8 2086 1976 1882 1987 2189 2085 1993 2095
8 2090 1987 2086 2190 1981 1875 1977 2087
8 2191 2094 1986 2088 2103 1998 1888 1997
8 2088 1986 2094 2191 1980 1877 1989 2089
8 1991 2091 2192 2097 1880 1982 2089 1989
8 2093 1988 2095 2193 1984 1876 1987 2090
8 1879 1983 2092 1990 1991 2091 2194 2098
8 1985 1878 1990 2092 2093 1988 2096 2195
8 2097 1996 1886 1989 2196 2099 1992 2094
8 2196 2099 1992 2094 2104 1999 1889 1998
8 1994 2096 1988 1883 2100 2197 2095 1993
8 2096 1994 1884 1990 2198 2101 1995 2098
8 1995 2098 2199 2102 1885 1991 2097 1996
8 2203 2104 1998 2103 2106 2001 1891 2000
8 2107 2002 2105 2204 2001 1892 1999 2104
8 2109 2004 2107 2206 2003 1894 2001 2106
8 2110 2005 2108 2207 2004 1895 2002 2107
8 2112 2007 2110 2209 2006 1897 2004 2109
8 2113 2008 2111 2210 2007 1898 2005 2110
8 2120 2011 2113 2212 2014 1901 2007 2112
8 2117 2009 2114 2213 2011 1899 2008 2113
8 2219 2116 2009 2117 2119 2010 1899 2011
8 2222 2118 2010 2119 2122 2012 1900 2013
8 2223 2119 2011 2120 2123 2013 1901 2014
8 2016 1902 2015 2125 2122 2012 2121 2225
8 2126 2016 2122 2226 2017 1903 2013 2123
8 2019 1905 2018 2128 2125 2015 2124 2228
8 2020 1906 2019 2129 2126 2016 2125 2229
8 2022 1908 2021 2131 2128 2018 2127 2231
8 2023 1909 2022 2132 2129 2019 2128 2232
8 2025 1911 2024 2134 2131 2021 2130 2234
8 2026 1912 2025 2135 2132 2022 2131 2235
8 1914 2028 2134 2024 2027 2136 2236 2133
8 2029 1915 2028 2137 2135 2025 2134 2237
8 2030 1918 2031 2138 2137 2028 2136 2238
8 2157 2050 2139 2240 2054 1941 2033 2140
8 2052 1940 2054 2161 2144 2035 2140 2242
8 2140 2033 2141 2243 2035 1923 2034 2143
8 2143 2034 2142 2246 2037 1924 2036 2146
8 2144 2035 2143 2247 2051 1939 2037 2147
8 2146 2036 2145 2249 2039 1925 2038 2149
8 2147 2037 2146 2250 2040 1926 2039 2150
8 2149 2038 2148 2251 2042 1927 2041 2151
8 2150 2039 2149 2252 2043 1928 2042 2152
8 2152 2042 2151 2253 2045 1931 2044 2153
8 2255 2154 2047 2155 2189 2085 1976 2086
8 2170 2062 1949 2063 2255 2154 2047 2155
8 2256 2155 2048 2156 2190 2086 1977 2087
8 2171 2063 1950 2064 2256 2155 2048 2156
8 2258 2159 2050 2157 2164 2056 1941 2054
8 2160 2053 1946 2058 2262 2163 2060 2167
8 2162 2055 1940 2052 2262 2163 2053 2160
8 2162 2055 2164 2263 2052 1940 2054 2161
8 2163 2057 1948 2060 2264 2165 2061 2168
8 2055 1943 2057 2163 2164 2056 2165 2264
8 2182 2076 2166 2268 2077 1964 2061 2168
8 2183 2077 2168 2269 2078 1965 2060 2167
8 2070 1963 2062 2170 2177 2075 2169 2271
8 2172 2070 1959 2065 2272 2170 2063 2171
8 2172 2070 2177 2273 2065 1959 2072 2173
8 2066 1958 2072 2173 2174 2071 2178 2274
8 2067 1957 2071 2174 2175 2069 2176 2275
8 2175 2069 2176 2275 2079 1973 2083 2184
8 2071 1961 2074 2178 2176 2073 2179 2276
8 2176 2073 2179 2276 2083 1975 2084 2186
8 2072 1962 2075 2177 2178 2074 2180 2277
8 2182 2076 1974 2082 2280 2181 2084 2186
8 2183 2077 1971 2081 2281 2182 2082 2185
8 2184 2083 2186 2282 2080 1972 2082 2185
8 2189 2085 1993 2095 2285 2188 2100 2197
8 2190 2086 1987 2090 2286 2189 2095 2193
8 2192 2097 1989 2089 2287 2196 2094 2191
8 2287 2196 2094 2191 2203 2104 1998 2103
8 2194 2098 1991 2091 2288 2199 2097 2192
8 2195 2096 2197 2289 2093 1988 2095 2193
8 2096 2195 2290 2198 1990 2092 2194 2098
8 2097 1996 2099 2196 2199 2102 2200 2291
8 2196 2099 1999 2104 2291 2200 2105 2204
8 2100 2197 2292 2201 1994 2096 2198 2101
8 1995 2098 2198 2101 2102 2199 2293 2202
8 2206 2107 2204 2296 2106 2001 2104 2203
8 2207 2108 2205 2297 2107 2002 2105 2204
8 2209 2110 2207 2299 2109 2004 2107 2206
8 2210 2111 2208 2300 2110 2005 2108 2207
8 2212 2113 2210 2302 2112 2007 2110 2209
8 2213 2114 2211 2303 2113 2008 2111 2210
8 2220 2117 2213 2305 2120 2011 2113 2212
8 2216 2115 2214 2306 2117 2009 2114 2213
8 2216 2115 2009 2117 2311 2217 2116 2219
8 2219 2116 2010 2119 2314 2218 2118 2222
8 2315 2219 2117 2220 2223 2119 2011 2120
8 2122 2012 2121 2225 2222 2118 2221 2317
8 2318 2222 2119 2223 2226 2122 2013 2123
8 2125 2015 2124 2228 2225 2121 2224 2320
8 2126 2016 2125 2229 2226 2122 2225 2321
8 2128 2018 2127 2231 2228 2124 2227 2323
8 2129 2019 2128 2232 2229 2125 2228 2324
8 2131 2021 2130 2234 2231 2127 2230 2326
8 2132 2022 2131 2235 2232 2128 2231 2327
8 2134 2024 2133 2236 2234 2130 2233 2328
8 2135 2025 2134 2237 2235 2131 2234 2329
8 2137 2028 2136 2238 2237 2134 2236 2330
8 2157 2050 2158 2259 2240 2139 2239 2332
8 2257 2157 2240 2334 2161 2054 2140 2242
8 2240 2139 2241 2335 2140 2033 2141 2243
8 2242 2140 2243 2337 2144 2035 2143 2247
8 2243 2141 2244 2338 2143 2034 2142 2246
8 2246 2142 2245 2341 2146 2036 2145 2249
8 2247 2143 2246 2342 2147 2037 2146 2250
8 2249 2145 2248 2343 2149 2038 2148 2251
8 2250 2146 2249 2344 2150 2039 2149 2252
8 2252 2149 2251 2345 2152 2042 2151 2253
8 2169 2271 2347 2254 2062 2170 2255 2154
8 2189 2085 2188 2285 2255 2154 2254 2347
8 2348 2255 2155 2256 2286 2189 2086 2190
8 2272 2170 2063 2171 2348 2255 2155 2256
8 2349 2258 2157 2257 2263 2164 2054 2161
8 2258 2159 2261 2351 2157 2050 2158 2259
8 2258 2159 2056 2164 2351 2261 2165 2264
8 2262 2163 2060 2167 2355 2264 2168 2269
8 2162 2055 2163 2262 2263 2164 2264 2355
8 2357 2266 2165 2264 2268 2166 2061 2168
8 2268 2166 2076 2182 2361 2267 2181 2280
8 2281 2182 2268 2362 2183 2077 2168 2269
8 2271 2169 2270 2364 2177 2075 2180 2277
8 2172 2070 2170 2272 2273 2177 2271 2365
8 2072 2173 2274 2178 2177 2273 2366 2277
8 2071 2174 2275 2176 2178 2274 2367 2276
8 2275 2176 2276 2367 2184 2083 2186 2282
8 2283 2187 2084 2186 2368 2278 2179 2276
8 2178 2074 2180 2277 2276 2179 2278 2368
8 2283 2187 2279 2370 2186 2084 2181 2280
8 2281 2182 2082 2185 2371 2280 2186 2282
8 2188 2285 2374 2284 2100 2197 2292 2201
8 2286 2189 2095 2193 2375 2285 2197 2289
8 2192 2097 2196 2287 2288 2199 2291 2376
8 2287 2196 2104 2203 2376 2291 2204 2296
8 2194 2098 2199 2288 2290 2198 2293 2377
8 2289 2197 2096 2195 2378 2292 2198 2290
8 2291 2200 2105 2204 2379 2294 2205 2297
8 2199 2102 2200 2291 2293 2202 2294 2379
8 2198 2101 2202 2293 2292 2201 2295 2380
8 2299 2207 2297 2383 2206 2107 2204 2296
8 2300 2208 2298 2384 2207 2108 2205 2297
8 2302 2210 2300 2386 2209 2110 2207 2299
8 2303 2211 2301 2387 2210 2111 2208 2300
8 2305 2213 2303 2389 2212 2113 2210 2302
8 2306 2214 2304 2390 2213 2114 2211 2303
8 2310 2216 2306 2392 2220 2117 2213 2305
8 2308 2215 2307 2393 2216 2115 2214 2306
8 2308 2215 2115 2216 2396 2309 2217 2311
8 2310 2216 2117 2220 2398 2311 2219 2315
8 2311 2217 2116 2219 2399 2312 2218 2314
8 2314 2218 2118 2222 2402 2313 2221 2317
8 2315 2219 2119 2223 2403 2314 2222 2318
8 2225 2121 2224 2320 2317 2221 2316 2405
8 2226 2122 2225 2321 2318 2222 2317 2406
8 2228 2124 2227 2323 2320 2224 2319 2408
8 2229 2125 2228 2324 2321 2225 2320 2409
8 2231 2127 2230 2326 2323 2227 2322 2411
8 2232 2128 2231 2327 2324 2228 2323 2412
8 2234 2130 2233 2328 2326 2230 2325 2413
8 2235 2131 2234 2329 2327 2231 2326 2414
8 2237 2134 2236 2330 2329 2234 2328 2415
8 2259 2158 2260 2352 2332 2239 2331 2417
8 2257 2157 2259 2350 2334 2240 2332 2419
8 2240 2139 2239 2332 2335 2241 2333 2420
8 2334 2240 2335 2422 2242 2140 2243 2337
8 2335 2241 2336 2423 2243 2141 2244 2338
8 2337 2243 2338 2425 2247 2143 2246 2342
8 2338 2244 2339 2426 2246 2142 2245 2341
8 2341 2245 2340 2428 2249 2145 2248 2343
8 2342 2246 2341 2429 2250 2146 2249 2344
8 2344 2249 2343 2430 2252 2149 2251 2345
8 2188 2285 2347 2254 2284 2374 2432 2346
8 2347 2254 2346 2432 2271 2169 2270 2364
8 2365 2271 2170 2272 2433 2347 2255 2348
8 2286 2189 2285 2375 2348 2255 2347 2433
8 2349 2258 2351 2435 2257 2157 2259 2350
8 2349 2258 2164 2263 2435 2351 2264 2355
8 2259 2158 2261 2351 2352 2260 2354 2437
8 2356 2265 2354 2437 2264 2165 2261 2351
8 2441 2357 2264 2355 2362 2268 2168 2269
8 2356 2265 2165 2264 2442 2358 2266 2357
8 2443 2359 2266 2357 2361 2267 2166 2268
8 2370 2279 2360 2446 2280 2181 2267 2361
8 2362 2268 2182 2281 2447 2361 2280 2371
8 2180 2277 2368 2278 2270 2364 2449 2363
8 2271 2365 2273 2177 2364 2450 2366 2277
8 2372 2283 2186 2282 2451 2368 2276 2367
8 2178 2274 2367 2276 2277 2366 2451 2368
8 2283 2187 2278 2368 2370 2279 2369 2452
8 2372 2283 2370 2453 2282 2186 2280 2371
8 2284 2374 2455 2373 2201 2292 2380 2295
8 2375 2285 2197 2289 2456 2374 2292 2378
8 2376 2291 2204 2296 2457 2379 2297 2383
8 2288 2199 2291 2376 2377 2293 2379 2457
8 2198 2290 2378 2292 2293 2377 2458 2380
8 2293 2202 2294 2379 2380 2295 2381 2459
8 2384 2298 2381 2459 2297 2205 2294 2379
8 2386 2300 2384 2463 2299 2207 2297 2383
8 2387 2301 2385 2464 2300 2208 2298 2384
8 2389 2303 2387 2466 2302 2210 2300 2386
8 2390 2304 2388 2467 2303 2211 2301 2387
8 2392 2306 2390 2469 2305 2213 2303 2389
8 2393 2307 2391 2470 2306 2214 2304 2390
8 2395 2308 2393 2472 2310 2216 2306 2392
8 2308 2215 2309 2396 2393 2307 2394 2473
8 2395 2308 2216 2310 2475 2396 2311 2398
8 2396 2309 2217 2311 2476 2397 2312 2399
8 2398 2311 2219 2315 2478 2399 2314 2403
8 2399 2312 2218 2314 2479 2400 2313 2402
8 2317 2221 2316 2405 2402 2313 2401 2482
8 2403 2314 2222 2318 2483 2402 2317 2406
8 2320 2224 2319 2408 2405 2316 2404 2485
8 2321 2225 2320 2409 2406 2317 2405 2486
8 2323 2227 2322 2411 2408 2319 2407 2488
8 2324 2228 2323 2412 2409 2320 2408 2489
8 2326 2230 2325 2413 2411 2322 2410 2490
8 2327 2231 2326 2414 2412 2323 2411 2491
8 2329 2234 2328 2415 2414 2326 2413 2492
8 2417 2331 2260 2352 2494 2416 2353 2438
8 2350 2259 2352 2436 2419 2332 2417 2496
8 2332 2239 2331 2417 2420 2333 2418 2497
8 2334 2240 2332 2419 2422 2335 2420 2499
8 2420 2333 2421 2500 2335 2241 2336 2423
8 2422 2335 2423 2502 2337 2243 2338 2425
8 2423 2336 2424 2503 2338 2244 2339 2426
8 2425 2338 2426 2505 2342 2246 2341 2429
8 2426 2339 2427 2506 2341 2245 2340 2428
8 2429 2341 2428 2507 2344 2249 2343 2430
8 2432 2346 2284 2374 2509 2431 2373 2455
8 2432 2346 2431 2509 2364 2270 2363 2449
8 2375 2285 2374 2456 2433 2347 2432 2510
8 2347 2433 2365 2271 2432 2510 2450 2364
8 2350 2259 2351 2435 2436 2352 2437 2514
8 2440 2356 2437 2514 2355 2264 2351 2435
8 2352 2260 2354 2437 2438 2353 2439 2516
8 2356 2265 2358 2442 2437 2354 2439 2516
8 2440 2356 2264 2355 2518 2442 2357 2441
8 2519 2443 2357 2441 2447 2361 2268 2362
8 2443 2359 2444 2520 2357 2266 2358 2442
8 2443 2359 2267 2361 2520 2444 2360 2446
8 2446 2360 2279 2370 2523 2445 2369 2452
8 2453 2370 2446 2524 2371 2280 2361 2447
8 2449 2363 2448 2525 2368 2278 2369 2452
8 2366 2277 2364 2450 2451 2368 2449 2526
8 2372 2283 2368 2451 2453 2370 2452 2527
8 2455 2373 2295 2380 2529 2454 2382 2460
8 2456 2374 2292 2378 2530 2455 2380 2458
8 2377 2293 2379 2457 2458 2380 2459 2531
8 2463 2384 2459 2531 2383 2297 2379 2457
8 2533 2461 2382 2460 2459 2381 2295 2380
8 2464 2385 2461 2533 2384 2298 2381 2459
8 2466 2387 2464 2537 2386 2300 2384 2463
8 2467 2388 2465 2538 2387 2301 2385 2464
8 2469 2390 2467 2540 2389 2303 2387 2466
8 2470 2391 2468 2541 2390 2304 2388 2467
8 2472 2393 2470 2543 2392 2306 2390 2469
8 2393 2307 2394 2473 2470 2391 2471 2544
8 2395 2308 2396 2475 2472 2393 2473 2546
8 2396 2309 2397 2476 2473 2394 2474 2547
8 2475 2396 2311 2398 2549 2476 2399 2478
8 2476 2397 2312 2399 2550 2477 2400 2479
8 2478 2399 2314 2403 2552 2479 2402 2483
8 2479 2400 2313 2402 2553 2480 2401 2482
8 2405 2316 2404 2485 2482 2401 2481 2556
8 2406 2317 2405 2486 2483 2402 2482 2557
8 2408 2319 2407 2488 2485 2404 2484 2559
8 2409 2320 2408 2489 2486 2405 2485 2560
8 2411 2322 2410 2490 2488 2407 2487 2561
8 2412 2323 2411 2491 2489 2408 2488 2562
8 2414 2326 2413 2492 2491 2411 2490 2563
8 2513 2434 2493 2565 2438 2353 2416 2494
8 2496 2417 2352 2436 2567 2494 2438 2515
8 2494 2416 2495 2568 2417 2331 2418 2497
8 2419 2332 2417 2496 2499 2420 2497 2570
8 2497 2418 2498 2571 2420 2333 2421 2500
8 2499 2420 2500 2573 2422 2335 2423 2502
8 2500 2421 2501 2574 2423 2336 2424 2503
8 2502 2423 2503 2576 2425 2338 2426 2505
8 2503 2424 2504 2577 2426 2339 2427 2506
8 2505 2426 2506 2578 2429 2341 2428 2507
8 2509 2431 2373 2455 2580 2508 2454 2529
8 2509 2431 2508 2580 2449 2363 2448 2525
8 2432 2510 2581 2509 2374 2456 2530 2455
8 2432 2510 2450 2364 2509 2581 2526 2449
8 2583 2511 2434 2513 2516 2439 2353 2438
8 2436 2352 2437 2514 2515 2438 2516 2588
8 2440 2356 2442 2518 2514 2437 2516 2588
8 2442 2358 2444 2520 2516 2439 2517 2589
8 2519 2443 2520 2591 2441 2357 2442 2518
8 2519 2443 2361 2447 2591 2520 2446 2524
8 2446 2360 2445 2523 2520 2444 2521 2592
8 2525 2448 2522 2593 2452 2369 2445 2523
8 2524 2446 2370 2453 2594 2523 2452 2527
8 2526 2449 2525 2595 2451 2368 2452 2527
8 2534 2462 2528 2597 2460 2382 2454 2529
8 2530 2455 2380 2458 2598 2529 2460 2532
8 2599 2533 2460 2532 2531 2459 2380 2458
8 2537 2464 2533 2599 2463 2384 2459 2531
8 2534 2462 2382 2460 2601 2535 2461 2533
8 2538 2465 2535 2601 2464 2385 2461 2533
8 2540 2467 2538 2604 2466 2387 2464 2537
8 2541 2468 2539 2605 2467 2388 2465 2538
8 2543 2470 2541 2607 2469 2390 2467 2540
8 2470 2391 2471 2544 2541 2468 2542 2608
8 2472 2393 2473 2546 2543 2470 2544 2610
8 2473 2394 2474 2547 2544 2471 2545 2611
8 2475 2396 2476 2549 2546 2473 2547 2613
8 2476 2397 2477 2550 2547 2474 2548 2614
8 2549 2476 2399 2478 2616 2550 2479 2552
8 2479 2400 2480 2553 2550 2477 2551 2617
8 2552 2479 2402 2483 2619 2553 2482 2557
8 2482 2401 2481 2556 2553 2480 2554 2620
8 2485 2404 2484 2559 2556 2481 2555 2623
8 2486 2405 2485 2560 2557 2482 2556 2624
8 2488 2407 2487 2561 2559 2484 2558 2625
8 2489 2408 2488 2562 2560 2485 2559 2626
8 2491 2411 2490 2563 2562 2488 2561 2627
8 2513 2434 2512 2585 2565 2493 2564 2630
8 2586 2513 2565 2632 2515 2438 2494 2567
8 2565 2493 2566 2633 2494 2416 2495 2568
8 2567 2494 2568 2635 2496 2417 2497 2570
8 2568 2495 2569 2636 2497 2418 2498 2571
8 2570 2497 2571 2638 2499 2420 2500 2573
8 2571 2498 2572 2639 2500 2421 2501 2574
8 2573 2500 2574 2641 2502 2423 2503 2576
8 2574 2501 2575 2642 2503 2424 2504 2577
8 2576 2503 2577 2643 2505 2426 2506 2578
8 2597 2528 2579 2645 2529 2454 2508 2580
8 2580 2508 2579 2645 2525 2448 2522 2593
8 2581 2509 2455 2530 2646 2580 2529 2598
8 2581 2509 2580 2646 2526 2449 2525 2595
8 2583 2511 2582 2648 2513 2434 2512 2585
8 2583 2511 2439 2516 2648 2582 2517 2589
8 2649 2583 2513 2586 2588 2516 2438 2515
8 2589 2517 2444 2520 2653 2587 2521 2592
8 2518 2442 2520 2591 2588 2516 2589 2654
8 2593 2522 2590 2655 2523 2445 2521 2592
8 2524 2446 2523 2594 2591 2520 2592 2656
8 2595 2525 2593 2657 2527 2452 2523 2594
8 2602 2536 2596 2659 2534 2462 2528 2597
8 2600 2534 2597 2660 2532 2460 2529 2598
8 2600 2534 2460 2532 2661 2601 2533 2599
8 2604 2538 2601 2661 2537 2464 2533 2599
8 2602 2536 2462 2534 2663 2603 2535 2601
8 2601 2535 2465 2538 2663 2603 2539 2605
8 2607 2541 2605 2665 2540 2467 2538 2604
8 2608 2542 2606 2666 2541 2468 2539 2605
8 2543 2470 2544 2610 2607 2541 2608 2668
8 2544 2471 2545 2611 2608 2542 2609 2669
8 2546 2473 2547 2613 2610 2544 2611 2671
8 2547 2474 2548 2614 2611 2545 2612 2672
8 2549 2476 2550 2616 2613 2547 2614 2674
8 2550 2477 2551 2617 2614 2548 2615 2675
8 2552 2479 2553 2619 2616 2550 2617 2677
8 2553 2480 2554 2620 2617 2551 2618 2678
8 2557 2482 2556 2624 2619 2553 2620 2680
8 2556 2481 2555 2623 2620 2554 2621 2681
8 2559 2484 2558 2625 2623 2555 2622 2683
8 2560 2485 2559 2626 2624 2556 2623 2684
8 2562 2488 2561 2627 2626 2559 2625 2685
8 2690 2629 2564 2630 2650 2584 2512 2585
8 2586 2513 2585 2651 2632 2565 2630 2691
8 2630 2564 2631 2692 2565 2493 2566 2633
8 2632 2565 2633 2694 2567 2494 2568 2635
8 2633 2566 2634 2695 2568 2495 2569 2636
8 2635 2568 2636 2697 2570 2497 2571 2638
8 2636 2569 2637 2698 2571 2498 2572 2639
8 2638 2571 2639 2700 2573 2500 2574 2641
8 2639 2572 2640 2701 2574 2501 2575 2642
8 2641 2574 2642 2702 2576 2503 2577 2643
8 2597 2528 2596 2659 2645 2579 2644 2704
8 2645 2579 2644 2704 2593 2522 2590 2655
8 2660 2597 2645 2705 2598 2529 2580 2646
8 2646 2580 2645 2705 2595 2525 2593 2657
8 2650 2584 2512 2585 2707 2647 2582 2648
8 2648 2582 2517 2589 2707 2647 2587 2653
8 2649 2583 2648 2708 2586 2513 2585 2651
8 2649 2583 2516 2588 2708 2648 2589 2654
8 2655 2590 2652 2710 2592 2521 2587 2653
8 2654 2589 2520 2591 2711 2653 2592 2656
8 2657 2593 2655 2712 2594 2523 2592 2656
8 2602 2536 2603 2663 2659 2596 2658 2714
8 2662 2602 2659 2715 2600 2534 2597 2660
8 2662 2602 2534 2600 2717 2663 2601 2661
8 2661 2601 2538 2604 2717 2663 2605 2665
8 2666 2606 2664 2718 2605 2539 2603 2663
8 2668 2608 2666 2720 2607 2541 2605 2665
8 2608 2542 2609 2669 2666 2606 2667 2721
8 2610 2544 2611 2671 2668 2608 2669 2723
8 2611 2545 2612 2672 2669 2609 2670 2724
8 2613 2547 2614 2674 2671 2611 2672 2726
8 2614 2548 2615 2675 2672 2612 2673 2727
8 2616 2550 2617 2677 2674 2614 2675 2729
8 2617 2551 2618 2678 2675 2615 2676 2730
8 2619 2553 2620 2680 2677 2617 2678 2732
8 2620 2554 2621 2681 2678 2618 2679 2733
8 2624 2556 2623 2684 2680 2620 2681 2735
8 2681 2621 2555 2623 2736 2682 2622 2683
8 2626 2559 2625 2685 2684 2623 2683 2737
8 2688 2628 2584 2650 2740 2686 2647 2707
8 2688 2628 2687 2742 2650 2584 2629 2690
8 2690 2629 2689 2745 2630 2564 2631 2692
8 2746 2690 2630 2691 2709 2650 2585 2651
8 2691 2630 2692 2747 2632 2565 2633 2694
8 2692 2631 2693 2748 2633 2566 2634 2695
8 2694 2633 2695 2750 2635 2568 2636 2697
8 2695 2634 2696 2751 2636 2569 2637 2698
8 2697 2636 2698 2753 2638 2571 2639 2700
8 2698 2637 2699 2754 2639 2572 2640 2701
8 2700 2639 2701 2755 2641 2574 2642 2702
8 2659 2596 2658 2714 2704 2644 2703 2757
8 2704 2644 2703 2757 2655 2590 2652 2710
8 2660 2597 2659 2715 2705 2645 2704 2758
8 2705 2645 2704 2758 2657 2593 2655 2712
8 2759 2706 2647 2707 2710 2652 2587 2653
8 2709 2650 2585 2651 2760 2707 2648 2708
8 2708 2648 2589 2654 2760 2707 2653 2711
8 2712 2655 2710 2761 2656 2592 2653 2711
8 2763 2713 2658 2714 2718 2664 2603 2663
8 2662 2602 2663 2717 2715 2659 2714 2764
8 2720 2666 2718 2767 2665 2605 2663 2717
8 2768 2719 2664 2718 2721 2667 2606 2666
8 2668 2608 2669 2723 2720 2666 2721 2770
8 2669 2609 2670 2724 2721 2667 2722 2771
8 2671 2611 2672 2726 2723 2669 2724 2773
8 2672 2612 2673 2727 2724 2670 2725 2774
8 2674 2614 2675 2729 2726 2672 2727 2776
8 2675 2615 2676 2730 2727 2673 2728 2777
8 2677 2617 2678 2732 2729 2675 2730 2779
8 2678 2618 2679 2733 2730 2676 2731 2780
8 2680 2620 2681 2735 2732 2678 2733 2782
8 2733 2679 2621 2681 2783 2734 2682 2736
8 2735 2681 2623 2684 2784 2736 2683 2737
8 2740 2686 2647 2707 2787 2738 2706 2759
8 2688 2628 2686 2740 2742 2687 2739 2789
8 2743 2688 2650 2709 2790 2740 2707 2760
8 2742 2687 2741 2792 2690 2629 2689 2745
8 2743 2688 2742 2793 2709 2650 2690 2746
8 2745 2689 2744 2795 2692 2631 2693 2748
8 2746 2690 2745 2796 2691 2630 2692 2747
8 2747 2692 2748 2797 2694 2633 2695 2750
8 2748 2693 2749 2798 2695 2634 2696 2751
8 2750 2695 2751 2800 2697 2636 2698 2753
8 2751 2696 2752 2801 2698 2637 2699 2754
8 2753 2698 2754 2802 2700 2639 2701 2755
8 2763 2713 2756 2804 2714 2658 2703 2757
8 2759 2706 2652 2710 2804 2756 2703 2757
8 2715 2659 2714 2764 2758 2704 2757 2805
8 2758 2704 2757 2805 2712 2655 2710 2761
8 2806 2759 2707 2760 2761 2710 2653 2711
8 2765 2716 2762 2808 2718 2664 2713 2763
8 2809 2763 2714 2764 2767 2718 2663 2717
8 2765 2716 2664 2718 2811 2766 2719 2768
8 2813 2768 2718 2767 2770 2721 2666 2720
8 2814 2769 2719 2768 2771 2722 2667 2721
8 2723 2669 2724 2773 2770 2721 2771 2816
8 2724 2670 2725 2774 2771 2722 2772 2817
8 2726 2672 2727 2776 2773 2724 2774 2819
8 2727 2673 2728 2777 2774 2725 2775 2820
8 2729 2675 2730 2779 2776 2727 2777 2822
8 2730 2676 2731 2780 2777 2728 2778 2823
8 2732 2678 2733 2782 2779 2730 2780 2825
8 2780 2731 2679 2733 2826 2781 2734 2783
8 2782 2733 2681 2735 2827 2783 2736 2784
8 2830 2785 2738 2787 2804 2756 2706 2759
8 2789 2739 2686 2740 2832 2786 2738 2787
8 2790 2740 2707 2760 2833 2787 2759 2806
8 2742 2687 2739 2789 2792 2741 2788 2835
8 2743 2688 2740 2790 2793 2742 2789 2836
8 2792 2741 2791 2838 2745 2689 2744 2795
8 2793 2742 2792 2839 2746 2690 2745 2796
8 2795 2744 2794 2841 2748 2693 2749 2798
8 2796 2745 2795 2842 2747 2692 2748 2797
8 2797 2748 2798 2843 2750 2695 2751 2800
8 2798 2749 2799 2844 2751 2696 2752 2801
8 2800 2751 2801 2845 2753 2698 2754 2802
8 2808 2762 2803 2847 2763 2713 2756 2804
8 2809 2763 2804 2848 2764 2714 2757 2805
8 2806 2759 2710 2761 2848 2804 2757 2805
8 2765 2716 2766 2811 2808 2762 2807 2850
8 2810 2765 2808 2851 2767 2718 2763 2809
8 2810 2765 2718 2767 2852 2811 2768 2813
8 2811 2766 2719 2768 2853 2812 2769 2814
8 2855 2814 2768 2813 2816 2771 2721 2770
8 2856 2815 2769 2814 2817 2772 2722 2771
8 2773 2724 2774 2819 2816 2771 2817 2858
8 2774 2725 2775 2820 2817 2772 2818 2859
8 2776 2727 2777 2822 2819 2774 2820 2861
8 2777 2728 2778 2823 2820 2775 2821 2862
8 2779 2730 2780 2825 2822 2777 2823 2864
8 2823 2778 2731 2780 2865 2824 2781 2826
8 2825 2780 2733 2782 2866 2826 2783 2827
8 2869 2828 2785 2830 2847 2803 2756 2804
8 2871 2829 2786 2832 2830 2785 2738 2787
8 2872 2830 2787 2833 2848 2804 2759 2806
8 2789 2739 2786 2832 2835 2788 2831 2874
8 2836 2789 2740 2790 2875 2832 2787 2833
8 2792 2741 2788 2835 2838 2791 2834 2877
8 2793 2742 2789 2836 2839 2792 2835 2878
8 2838 2791 2837 2880 2795 2744 2794 2841
8 2839 2792 2838 2881 2796 2745 2795 2842
8 2841 2794 2840 2882 2798 2749 2799 2844
8 2842 2795 2841 2883 2797 2748 2798 2843
8 2843 2798 2844 2884 2800 2751 2801 2845
8 2886 2846 2803 2847 2850 2807 2762 2808
8 2851 2808 2847 2887 2809 2763 2804 2848
8 2850 2807 2766 2811 2889 2849 2812 2853
8 2810 2765 2811 2852 2851 2808 2850 2890
8 2852 2811 2768 2813 2891 2853 2814 2855
8 2853 2812 2769 2814 2892 2854 2815 2856
8 2894 2856 2814 2855 2858 2817 2771 2816
8 2817 2772 2818 2859 2856 2815 2857 2895
8 2819 2774 2820 2861 2858 2817 2859 2897
8 2820 2775 2821 2862 2859 2818 2860 2898
8 2822 2777 2823 2864 2861 2820 2862 2900
8 2823 2778 2824 2865 2862 2821 2863 2901
8 2864 2823 2780 2825 2902 2865 2826 2866
8 2904 2867 2828 2869 2886 2846 2803 2847
8 2869 2828 2868 2906 2830 2785 2829 2871
8 2907 2869 2830 2872 2887 2847 2804 2848
8 2871 2829 2870 2909 2832 2786 2831 2874
8 2910 2871 2832 2875 2872 2830 2787 2833
8 2835 2788 2831 2874 2877 2834 2873 2912
8 2836 2789 2832 2875 2878 2835 2874 2913
8 2877 2834 2876 2915 2838 2791 2837 2880
8 2839 2792 2835 2878 2881 2838 2877 2916
8 2880 2837 2879 2917 2841 2794 2840 2882
8 2881 2838 2880 2918 2842 2795 2841 2883
8 2883 2841 2882 2919 2843 2798 2844 2884
8 2921 2885 2846 2886 2889 2849 2807 2850
8 2922 2886 2847 2887 2890 2850 2808 2851
8 2889 2849 2812 2853 2924 2888 2854 2892
8 2890 2850 2811 2852 2925 2889 2853 2891
8 2891 2853 2814 2855 2926 2892 2856 2894
8 2892 2854 2815 2856 2927 2893 2857 2895
8 2858 2817 2859 2897 2894 2856 2895 2929
8 2859 2818 2860 2898 2895 2857 2896 2930
8 2861 2820 2862 2900 2897 2859 2898 2932
8 2862 2821 2863 2901 2898 2860 2899 2933
8 2864 2823 2865 2902 2900 2862 2901 2934
8 2904 2867 2846 2886 2936 2903 2885 2921
8 2904 2867 2903 2936 2869 2828 2868 2906
8 2937 2904 2869 2907 2922 2886 2847 2887
8 2906 2868 2905 2939 2871 2829 2870 2909
8 2907 2869 2906 2940 2872 2830 2871 2910
8 2909 2870 2908 2942 2874 2831 2873 2912
8 2910 2871 2909 2943 2875 2832 2874 2913
8 2912 2873 2911 2945 2877 2834 2876 2915
8 2878 2835 2874 2913 2916 2877 2912 2946
8 2915 2876 2914 2947 2880 2837 2879 2917
8 2916 2877 2915 2948 2881 2838 2880 2918
8 2918 2880 2917 2949 2883 2841 2882 2919
8 2921 2885 2849 2889 2951 2920 2888 2924
8 2952 2921 2886 2922 2925 2889 2850 2890
8 2924 2888 2854 2892 2954 2923 2893 2927
8 2925 2889 2853 2891 2955 2924 2892 2926
8 2926 2892 2856 2894 2956 2927 2895 2929
8 2895 2857 2896 2930 2927 2893 2928 2957
8 2897 2859 2898 2932 2929 2895 2930 2959
8 2898 2860 2899 2933 2930 2896 2931 2960
8 2900 2862 2901 2934 2932 2898 2933 2961
8 2936 2903 2885 2921 2963 2935 2920 2951
8 2936 2903 2935 2963 2906 2868 2905 2939
8 2937 2904 2886 2922 2964 2936 2921 2952
8 2937 2904 2936 2964 2907 2869 2906 2940
8 2939 2905 2938 2966 2909 2870 2908 2942
8 2940 2906 2939 2967 2910 2871 2909 2943
8 2942 2908 2941 2969 2912 2873 2911 2945
8 2943 2909 2942 2970 2913 2874 2912 2946
8 2945 2911 2944 2971 2915 2876 2914 2947
8 2946 2912 2945 2972 2916 2877 2915 2948
8 2948 2915 2947 2973 2918 2880 2917 2949
8 2951 2920 2888 2924 2975 2950 2923 2954
8 2952 2921 2889 2925 2976 2951 2924 2955
8 2927 2893 2928 2957 2954 2923 2953 2978
8 2955 2924 2892 2926 2979 2954 2927 2956
8 2929 2895 2930 2959 2956 2927 2957 2980
8 2930 2896 2931 2960 2957 2928 2958 2981
8 2932 2898 2933 2961 2959 2930 2960 2982
8 2951 2920 2950 2975 2963 2935 2962 2984
8 2963 2935 2962 2984 2939 2905 2938 2966
8 2964 2936 2921 2952 2985 2963 2951 2976
8 2964 2936 2963 2985 2940 2906 2939 2967
8 2966 2938 2965 2987 2942 2908 2941 2969
8 2967 2939 2966 2988 2943 2909 2942 2970
8 2969 2941 2968 2989 2945 2911 2944 2971
8 2970 2942 2969 2990 2946 2912 2945 2972
8 2972 2945 2971 2991 2948 2915 2947 2973
8 2954 2923 2953 2978 2975 2950 2974 2993
8 2976 2951 2924 2955 2994 2975 2954 2979
8 2957 2928 2958 2981 2978 2953 2977 2995
8 2956 2927 2957 2980 2979 2954 2978 2996
8 2959 2930 2960 2982 2980 2957 2981 2997
8 2984 2962 2983 2999 2966 2938 2965 2987
8 2975 2950 2974 2993 2984 2962 2983 2999
8 2976 2951 2975 2994 2985 2963 2984 3000
8 2985 2963 2984 3000 2967 2939 2966 2988
8 2987 2965 2986 3001 2969 2941 2968 2989
8 2988 2966 2987 3002 2970 2942 2969 2990
8 2990 2969 2989 3003 2972 2945 2971 2991
8 2978 2953 2977 2995 2993 2974 2992 3004
8 2979 2954 2978 2996 2994 2975 2993 3005
8 2980 2957 2981 2997 2996 2978 2995 3006
8 2974 2993 2999 2983 2992 3004 3007 2998
8 2983 2999 2987 2965 2998 3007 3001 2986
8 3000 2984 2999 3008 2988 2966 2987 3002
8 2994 2975 2993 3005 3000 2984 2999 3008
8 3002 2987 3001 3009 2990 2969 2989 3003
8 2996 2978 2995 3006 3005 2993 3004 3010
8 3005 2993 3004 3010 3008 2999 3007 3011
8 3008 2999 3007 3011 3002 2987 3001 3009

CELL_TYPES 1910
12
12
12
12
12
12
12
12
12
12
12
12
12
12
12
12
12
12
12
12
12
12
12
12
12
12
12
12
12
12
12
12
12
12
12
12
12
12
12
12
12
12
12
12
12
12
12
12
12
12
12
12
12
12
12
12
12
12
12
12
12
12
12
12
12
12
12
12
12
12
12
12
12
12
12
12
12
12
12
12
12
12
12
12
12
12
12
12
12
12
12
12
12
12
12
12
12
12
12
12
12
12
12
12
12
12
12
12
12
12
12
12
12
12
12
12
12
12
12
12
12
12
12
12
12
12
12
12
12
12
12
12
12
12
12
12
12
12
12
12
12
12
12
12
12
12
12
12
12
12
12
12
12
12
12
12
12
12
12
12
12
12
12
12
12
12
12
12
12
12
12
12
12
12
12
12
12
12
12
12
12
12
12
12
12
12
12
12
12
12
12
12
12
12
12
12
12
12
12
12
12
12
12
12
12
12
12
12
12
12
12
12
12
12
12
12
12
12
12
12
12
12
12
12
12
12
12
12
12
12
12
12
12
12
12
12
12
12
12
12
12
12
12
12
12
12
12
12
12
12
12
12
12
12
12
12
12
12
12
12
12
12
12
12
12
12
12
12
12
12
12
12
12
12
12
12
12
12
12
12
12
12
12
12
12
12
12
12
12
12
12
12
12
12
12
12
12
12
12
12
12
12
12
12
12
12
12
12
12
12
12
12
12
12
12
12
12
12
12
12
12
12
12
12
12
12
12
12
12
12
12
12
12
12
12
12
12
12
12
12
12
12
12
12
12
12
12
12
12
12
12
12
12
12
12
12
12
12
12
12
12
12
12
12
12
12
12
12
12
12
12
12
12
12
12
12
12
12
12
12
12
12
12
12
12
12
12
12
12
12
12
12
12
12
12
12
12
12
12
12
12
12
12
12
12
12
12
12
12
12
12
12
12
12
12
12
12
12
12
12
12
12
12
12
12
12
12
12
12
12
12
12
12
12
12
12
12
12
12
12
12
12
12
12
12
12
12
12
12
12
12
12
12
12
12
12
12
12
12
12
12
12
12
12
12
12
12
12
12
12
12
12
12
12
12
12
12
12
12
12
12
12
12
12
12
12
12
12
12
12
12
12
12
12
12
12
12
12
12
12
12
12
12
12
12
12
12
12
12
12
12
12
12
12
12
12
12
12
12
12
12
12
12
12
12
12
12
12
12
12
12
12
12
12
12
12
12
12
12
12
12
12
12
12
12
12
12
12
12
12
12
12
12
12
12
12
12
12
12
12
12
12
12
12
12
12
12
12
12
12
12
12
12
12
12
12
12
12
12
12
12
12
12
12
12
12
12
12
12
12
12
12
12
12
12
12
12
12
12
12
12
12
12
12
12
12
12
12
12
12
12
12
12
12
12
12
12
12
12
12
12
12
12
12
12
12
12
12
12
12
12
12
12
12
12
12
12
12
12
12
12
12
12
12
12
12
12
12
12
12
12
12
12
12
12
12
12
12
12
12
12
12
12
12
12
12
12
12
12
12
12
12
12
12
12
12
12
12
12
12
12
12
12
12
12
12
12
12
12
12
12
12
12
12
12
12
12
12
12
12
12
12
12
12
12
12
12
12
12
12
12
12
12
12
12
12
12
12
12
12
12
12
12
12
12
12
12
12
12
12
12
12
12
12
12
12
12
12
12
12
12
12
12
12
12
12
12
12
12
12
12
12
12
12
12
12
12
12
12
12
12
12
12
12
12
12
12
12
12
12
12
12
12
12
12
12
12
12
12
12
12
12
12
12
12
12
12
12
12
12
12
12
12
12
12
12
12
12
12
12
12
12
12
12
12
12
12
12
12
12
12
12
12
12
12
12
12
12
12
12
12
12
12
12
12
12
12
12
12
12
12
12
12
12
12
12
12
12
12
12
12
12
12
12
12
12
12
12
12
12
12
12
12
12
12
12
12
12
12
12
12
12
12
12
12
12
12
12
12
12
12
12
12
12
12
12
12
12
12
12
12
12
12
12
12
12
12
12
12
12
12
12
12
12
12
12
12
12
12
12
12
12
12
12
12
12
12
12
12
12
12
12
12
12
12
12
12
12
12
12
12
12
12
12
12
12
12
12
12
12
12
12
12
12
12
12
12
12
12
12
12
12
12
12
12
12
12
12
12
12
12
12
12
12
12
12
12
12
12
12
12
12
12
12
12
12
12
12
12
12
12
12
12
12
12
12
12
12
12
12
12
12
12
12
12
12
12
12
12
12
12
12
12
12
12
12
12
12
12
12
12
12
12
12
12
12
12
12
12
12
12
12
12
12
12
12
12
12
12
12
12
12
12
12
12
12
12
12
12
12
12
12
12
12
12
12
12
12
12
12
12
12
12
12
12
12
12
12
12
12
12
12
12
12
12
12
12
12
12
12
12
12
12
12
12
12
12
12
12
12
12
12
12
12
12
12
12
12
12
12
12
12
12
12
12
12
12
12
12
12
12
12
12
12
12
12
12
12
12
12
12
12
12
12
12
12
12
12
12
12
12
12
12
12
12
12
12
12
12
12
12
12
12
12
12
12
12
12
12
12
12
12
12
12
12
12
12
12
12
12
12
12
12
12
12
12
12
12
12
12
12
12
12
12
12
12
12
12
12
12
12
12
12
12
12
12
12
12
12
12
12
12
12
12
12
12
12
12
12
12
12
12
12
12
12
12
12
12
12
12
12
12
12
12
12
12
12
12
12
12
12
12
12
12
12
12
12
12
12
12
12
12
12
12
12
12
12
12
12
12
12
12
12
12
12
12
12
12
12
12
12
12
12
12
12
12
12
12
12
12
12
12
12
12
12
12
12
12
12
12
12
12
12
12
12
12
12
12
12
12
12
12
12
12
12
12
12
12
12
12
12
12
12
12
12
12
12
12
12
12
12
12
12
12
12
12
12
12
12
12
12
12
12
12
12
12
12
12
12
12
12
12
12
12
12
12
12
12
12
12
12
12
12
12
12
12
12
12
12
12
12
12
12
12
12
12
12
12
12
12
12
12
12
12
12
12
12
12
12
12
12
12
12
12
12
12
12
12
12
12
12
12
12
12
12
12
12
12
12
12
12
12
12
12
12
12
12
12
12
12
12
12
12
12
12
12
12
12
12
12
12
12
12
12
12
12
12
12
12
12
12
12
12
12
12
12
12
12
12
12
12
12
12
12
12
12
12
12
12
12
12
12
12
12
12
12
12
12
12
12
12
12
12
12
12
12
12
12
12
12
12
12
12
12
12
12
12
12
12
12
12
12
12
12
12
12
12
12
12
12
12
12
12
12
12
12
12
12
12
12
12
12
12
12
12
12
12
12
12
12
12
12
12
12
12
12
12
12
12
12
12
12
12
12
12
12
12
12
12
12
12
12
12
12
12
12
12
12
12
12
12
12
12
12
12
12
12
12
12
12
12
12
12
12
12
12
12
12
12
12
12
12
12
12
12
12
12
12
12
12
12
12
12
12
12
12
12
12
12
12
12
12
12
12
12
12
12
12
12
12
12
12
12
12
12
12
12
12
12
12
12
12
12
12
12
12
12
12
12
12
12
12
12
12
12
12
12
12
12
12
12
12
12
12
12
12
12
12
12
12
12
12
12
12
12
12
12
12
12
12
12
12
12
12
12
12
12
12
12
12
12
12
12
12
12
12
12
12
12
12
12
12
12
12
12
12
12
12
12
12
12
12
12
12
12
12
12
12
12
12
12
12
12
12
12
12
12
12
12
12
12
12
12
12
12
12
12
12
12
12
12
12
12
12
12
12
12
12
12
12
12
12
12
12
12
12
12
12
12
12
12
12
12
12
12
12
12
12
12
12
12
12
12
12
12
12
12
12
12
12
12
12
12
12
12
12
12
12
12
12
12
12
12
12
12
12
12
12
12
12
12
12
12
12
12
12
12
12
12
12
12
12
12
12
12
12
12
12
12
12
12
12
12
12
12
12
12
12
12
12
12
12
12
12
12
12
12
12
12
12
12
12
12
12
12
12
12
12
12
12
12
12
12
12
12
12
12
12
12
12
12
12
12
12
12
12
12
12
12
12
12
12
12
12
12
12
12
12
12
12
12
12
12
12
12
12
12
12
12
12
12
12
12
12
12
12
12
12
12
12
12
12
12
12
12
12
12
12
12
12
12
12
12
12
12
12
12
12
12
12
12
12
12
12
12
12
12
12
12
12
12
12
12
12
12
12
12
12
12
12
12
12
12
12
12
12
12
12
12
12
12
12
12
12
12
12
12
12
12
12
12
12
12
12
12
12
12
12
12
12
12
12
12
12
12
12
12
12
12
12
12
12
12
12
12
12
12
12
12
12

POINT_DATA 3012
SCALARS Jp_lamdaP float 4
LOOKUP_TABLE default
0.999909 1 1 0.999909
1 1 1 1
0.999912 1 1 0.999912
0.999874 1 1 0.999874
0.999907 1 1 0.999907
0.999909 1 1 0.999909
0.999491 1 1 0.999491
1 1 1 1
1 1 1 1
1 1 1 1
0.999975 1 1 0.999975
0.999662 1 1 0.999662
0.999833 1 1 0.999833
0.999865 1 1 0.999865
0.999912 1 1 0.999912
0.999885 1 1 0.999885
0.999913 1 1 0.999913
0.999913 1 1 0.999913
0.999494 1 1 0.999494
1 1 1 1
0.999857 1 1 0.999857
0.999893 1 1 0.999893
0.999368 1 1 0.999368
0.999459 1 1 0.999459
0.999933 1 1 0.999933
0.999531 1 1 0.999531
0.998822 1 1 0.998822
1 1 1 1
0.999944 1 1 0.999944
0.999957 1 1 0.999957
1 1 1 1
0.99967 1 1 0.99967
0.999884 1 1 0.999884
0.999905 1 1 0.999905
0.999556 1 1 0.999556
1 1 1 1
0.999646 1 1 0.999646
0.999748 1 1 0.999748
0.998899 1 1 0.998899
1 1 1 1
1 1 1 1
0.99993 1 1 0.99993
1 1 1 1
0.999854 1 1 0.999854
0.999303 1 1 0.999303
1 1 1 1
0.99947 1 1 0.99947
0.999895 1 1 0.999895
0.999916 1 1 0.999916
0.999916 1 1 0.999916
0.999499 1 1 0.999499
0.999915 1 1 0.999915
0.999869 1 1 0.999869
0.999941 1 1 0.999941
0.999902 1 1 0.999902
0.999369 1 1 0.999369
0.999535 1 1 0.999535
0.999462 1 1 0.999462
0.998807 1 1 0.998807
1 1 1 1
0.999843 1 1 0.999843
0.999431 1 1 0.999431
0.999336 1 1 0.999336
0.999413 1 1 0.999413
0.998532 1 1 0.998532
0.998667 1 1 0.998667
0.999973 1 1 0.999973
0.999645 1 1 0.999645
0.99893 1 1 0.99893
0.999435 1.00125 1 0.998187
1 1 1 1
1 1 1 1
1 1 1 1
0.999678 1 1 0.999678
1 1 1 1
1 1 1 1
0.999504 1 1 0.999504
0.999997 1 1 0.999997
0.999611 1 1 0.999611
0.99978 1 1 0.99978
0.998897 1 1 0.998897
1 1 1 1
0.999982 1 1 0.999982
0.999451 1 1 0.999451
0.999542 1 1 0.999542
0.998496 1 1 0.998496
0.99987 1 1 0.99987
0.998798 1 1 0.998798
0.999023 1 1 0.999023
0.998437 1 1 0.998437
1 1 1 1
1 1 1 1
1 1 1 1
1 1 1 1
1 1 1 1
0.999923 1 1 0.999923
0.999364 1 1 0.999364
0.999935 1 1 0.999935
0.99944 1 1 0.99944
1 1 1 1
0.99928 1 1 0.99928
0.99944 1 1 0.99944
0.998189 1.00001 1 0.998183
0.999502 1 1 0.999502
0.998379 1.0001 1 0.998282
0.999848 1 1 0.999848
0.999879 1 1 0.999879
0.999949 1 1 0.999949
0.99991 1 1 0.99991
0.999371 1 1 0.999371
0.999466 1 1 0.999466
0.99954 1 1 0.99954
0.998793 1 1 0.998793
1 1 1 1
0.999855 1 1 0.999855
0.999305 1 1 0.999305
0.999335 1 1 0.999335
0.999987 1 1 0.999987
0.999689 1 1 0.999689
0.999416 1 1 0.999416
0.998495 1 1 0.998495
0.998911 1 1 0.998911
0.998693 1 1 0.998693
0.99971 1.00152 1 0.99819
0.999301 1 1 0.999301
0.99931 1 1 0.99931
0.998318 1 1 0.998318
0.998422 1 1 0.998422
0.998552 1 1 0.998552
1.00301 1.00507 1 0.997957
1 1 1 1
1.0004 1.0023 1 0.998111
0.999836 1 1 0.999836
0.998994 1 1 0.998994
0.998955 1.00069 1 0.998263
1.00482 1.00689 1 0.99795
0.999938 1 1 0.999938
0.999405 1 1 0.999405
1 1 1 1
1 1 1 1
0.999511 1 1 0.999511
1 1 1 1
0.99979 1 1 0.99979
0.999616 1 1 0.999616
0.998894 1 1 0.998894
1 1 1 1
0.999989 1 1 0.999989
0.999492 1 1 0.999492
0.99958 1 1 0.99958
0.998498 1 1 0.998498
0.999889 1 1 0.999889
0.9988 1 1 0.9988
0.999023 1 1 0.999023
0.998423 1 1 0.998423
0.999941 1 1 0.999941
0.999999 1 1 0.999999
0.999548 1 1 0.999548
0.998391 1 1 0.998386
0.998651 1 1 0.998651
1.00228 1.00429 1 0.99799
0.999193 1 1 0.999193
0.998867 1.00054 1 0.998323
0.999055 1 1.00052 0.998533
0.998431 1.00015 1 0.998278
1 1 1 1
1 1 1 1
1 1 1 1
0.999966 1 1 0.999966
1 1 1 1
1 1 1 1
1 1 1 1
0.999407 1 1 0.999407
0.999325 1 1 0.999325
1 1 1 1
1 1 1 1
0.999282 1 1 0.999282
0.999409 1 1 0.999409
0.998216 1.00003 1 0.998183
0.999434 1 1 0.999434
0.998359 1.00008 1 0.998282
0.999271 1 1 0.999271
0.998128 1 1 0.998128
0.998308 1.00007 1 0.998242
1.006 1.00827 1 0.997739
0.998357 1.00004 1 0.998321
1.00533 1.00751 1 0.997831
1 1 1 1
0.999866 1 1 0.999866
0.999171 1 1 0.999171
0.999336 1 1 0.999336
1 1 1 1
0.999733 1 1 0.999733
0.999419 1 1 0.999419
0.998459 1 1 0.998459
0.998718 1 1 0.998718
0.998892 1 1 0.998892
0.999997 1.00181 1 0.998193
0.999298 1 1 0.999298
0.999309 1 1 0.999309
0.998241 1 1 0.998241
0.998448 1 1 0.998448
1 1 1 1
0.999824 1 1 0.999824
0.999031 1 1 0.999031
0.998552 1 1 0.998552
1.00303 1.00513 1 0.997919
0.999076 1.00082 1 0.998255
1.00075 1.00261 1 0.998136
1.00451 1.00657 1 0.997955
0.999929 1 1 0.999929
0.999406 1 1 0.999406
0.998146 1 1 0.998146
0.998376 1 1 0.998376
1.00446 1.00664 1 0.997833
1.00345 1.00562 1 0.997835
1.00141 1.00337 1 0.998051
1.01144 1.01367 1 0.997803
0.999897 1 1 0.999897
1.00631 1.00842 1 0.997911
0.999129 1 1 0.999129
0.998758 1.00035 1 0.99841
1.0037 1.0057 1 0.998014
1.00945 1.01156 1 0.997917
0.999289 1 1 0.999289
0.999553 1 1 0.999553
0.999055 1 1.00012 0.998931
0.999468 1 1 0.999468
1 1 1 1
0.999995 1 1 0.999995
0.999566 1 1 0.999566
0.998501 1 1 0.998501
0.999902 1 1 0.999902
0.999023 1 1 0.999023
0.998803 1 1 0.998803
0.998409 1 1 0.998409
0.999955 1 1 0.999955
0.999999 1 1 0.999999
0.99955 1 1 0.99955
0.99839 1 1 0.998386
0.998656 1 1 0.998656
1.00168 1.0037 1 0.997988
0.999195 1 1 0.999195
0.998697 1.00036 1 0.998334
0.998876 1 1.00035 0.998529
0.99857 1.00031 1 0.998266
1 1 1 1
0.999362 1 1 0.999362
0.999725 1 1 0.999725
0.999088 1 1.00001 0.999077
1.00387 1.00599 1 0.997896
1.00044 1.00228 1 0.998163
1.00836 1.01061 1 0.997782
0.999163 1 1.00044 0.998726
1.00081 1.00267 1 0.998154
0.999943 1.00012 1.00158 0.998247
1.00112 1.00299 1 0.998139
0.999913 1 1 0.999913
1 1 1 1
1 1 1 1
1 1 1 1
1 1 1 1
0.999985 1 1 0.999985
1 1 1 1
0.999958 1 1 0.999958
1 1 1 1
0.999435 1 1 0.999435
0.999372 1 1 0.999372
0.998357 1.00007 1 0.998282
0.998249 1.00007 1 0.998183
0.999284 1 1 0.999284
1 1 1 1
0.99927 1 1 0.99927
0.998131 1 1 0.998128
0.998332 1.00009 1 0.998242
1.00594 1.00822 1 0.997738
0.998353 1.00003 1 0.998321
1.00534 1.00753 1 0.99783
0.998117 1 1 0.998117
1.00578 1.00811 1 0.997688
1.0058 1.00802 1 0.997792
1.0182 1.02055 1 0.997698
1.00496 1.00712 1 0.997857
1.0162 1.01849 1 0.997749
0.999295 1 1 0.999295
0.999308 1 1 0.999308
0.998165 1 1 0.998165
0.998474 1 1 0.998474
1 1 1 1
0.999813 1 1 0.999813
0.999069 1 1 0.999069
0.998552 1 1 0.998552
1.00306 1.00519 1 0.997881
1.00108 1.00292 1 0.998161
0.999183 1.00094 1 0.998246
1.00425 1.0063 1 0.99796
0.999921 1 1 0.999921
0.999406 1 1 0.999406
0.998123 1 1 0.998123
0.998374 1 1 0.998374
1.00466 1.00685 1 0.997824
1.00366 1.0058 1 0.997873
0.999887 1 1 0.999887
0.999126 1 1 0.999126
0.998765 1.00032 1 0.998443
1.00164 1.00359 1 0.998051
1.01176 1.01399 1 0.997804
1.00325 1.00528 1 0.997981
1.00638 1.00848 1 0.997913
1.00975 1.01185 1 0.997917
0.999292 1 1 0.999292
0.999215 1 1.00028 0.998931
0.99955 1 1 0.99955
1.00504 1.00729 1 0.997773
1.00475 1.00691 1 0.997856
1.01601 1.01836 1 0.997695
1.01367 1.01597 1 0.997738
1.00851 1.01067 1 0.997865
1.01641 1.01856 1 0.997885
0.999222 1 1 0.999222
1.01159 1.0137 1 0.997918
0.998692 1 1 0.998692
0.999226 1.00117 1 0.998055
1.00729 1.00947 1 0.997839
1.01176 1.01376 1 0.998023
0.999672 1 1 0.999672
0.998913 1 1 0.998913
0.999253 1 1.00025 0.999003
0.999076 1 1.0003 0.998773
0.998389 1 1 0.998387
1 1 1 1
0.999968 1 1 0.999968
0.999552 1 1 0.999552
0.998661 1 1 0.998661
1.00107 1.00309 1 0.997987
0.999196 1 1 0.999196
0.998686 1 1.00016 0.998526
0.998465 1.00012 1 0.998344
0.998694 1.00044 1 0.998253
1 1 1 1
0.999362 1 1 0.999362
0.99973 1 1 0.99973
0.99909 1 1.00002 0.999074
1.00342 1.00554 1 0.997893
0.999833 1.00167 1 0.998165
1.00842 1.01066 1 0.99778
0.999072 1 1.00034 0.99873
1.0002 1.00203 1 0.998168
1.00025 1.00029 1.00173 0.998235
1.00071 1.00251 1 0.998208
1 1 1 1
0.999831 1 1 0.999831
0.998916 1 1 0.998916
0.999288 1 1.00003 0.999255
0.999195 1 1.00038 0.99882
1.01123 1.01352 1 0.997735
1.00457 1.00663 1 0.997953
1.01086 1.01313 1 0.997761
1.00038 1 1.00199 0.998393
1.00207 1.00401 1 0.998074
1.00095 1.00212 1.00086 0.997973
0.999899 1 1 0.999899
0.999585 1 1 0.999585
0.999921 1 1 0.999921
0.999915 1 1 0.999915
1 1 1 1
1 1 1 1
1 1 1 1
1 1 1 1
1 1 1 1
0.999996 1 1 0.999996
1 1 1 1
0.99998 1 1 0.99998
1 1 1 1
0.999951 1 1 0.999951
1 1 1 1
0.998344 1.00002 1 0.99832
0.998338 1.0001 1 0.998242
1.00532 1.0075 1 0.997829
1.00585 1.00813 1 0.997737
0.998134 1.00001 1 0.998128
0.999269 1 1 0.999269
0.998117 1 1 0.998117
1.00586 1.00819 1 0.997688
1.00562 1.00785 1 0.997791
1.0184 1.02074 1 0.997703
1.00472 1.00688 1 0.997855
1.01566 1.01795 1 0.997749
1.00557 1.00791 1 0.997676
1.01864 1.02102 1 0.997669
1.0177 1.02002 1 0.997725
1.02315 1.02542 1 0.997792
1.01342 1.01571 1 0.997748
1.01869 1.02083 1 0.997906
0.9981 1 1 0.9981
0.998372 1 1 0.998372
1.00483 1.00703 1 0.997815
1.00387 1.00597 1 0.997912
0.999877 1 1 0.999877
0.999123 1 1 0.999123
0.998781 1.00031 1 0.998475
1.00187 1.00383 1 0.998052
1.01208 1.01431 1 0.997805
1.00645 1.00855 1 0.997916
1.00275 1.00481 1 0.997948
1.01001 1.01212 1 0.997917
0.999294 1 1 0.999294
0.999346 1 1.00042 0.998931
0.999547 1 1 0.999547
1.0052 1.00748 1 0.997739
1.00471 1.00687 1 0.997854
1.01582 1.01816 1 0.997697
1.01408 1.01638 1 0.997744
0.999222 1 1 0.999222
0.998686 1 1 0.998686
0.999468 1.00133 1.00003 0.998103
1.00871 1.01086 1 0.997871
1.01568 1.01781 1 0.99791
1.00735 1.00956 1 0.997811
1.01157 1.01368 1 0.997921
1.01114 1.01312 1 0.998041
0.998916 1 1 0.998916
0.999101 1 1.00035 0.998755
0.999668 1 1 0.999668
0.999333 1 1.00031 0.999023
1.01655 1.01895 1 0.997647
1.01634 1.01865 1 0.99773
1.02144 1.02377 1 0.997723
1.01785 1.02003 1 0.997868
1.01409 1.0162 1 0.997929
1.01653 1.01855 1 0.998019
0.998861 1 1 0.998861
1.0121 1.01402 1 0.998107
0.998379 1 1 0.998379
1.00218 1.00419 1.00018 0.997826
1.00981 1.01207 1 0.997761
1.01111 1.01307 1 0.998067
0.999745 1 1 0.999745
0.999164 1 1.00002 0.999148
0.998759 1 1 0.998759
0.999675 1 1.00088 0.998798
0.998916 1 1.0002 0.998717
1 1 1 1
1.00292 1.00504 1 0.99789
0.999736 1 1 0.999736
0.999362 1 1 0.999362
0.999071 1 1 0.999071
0.999329 1.00116 1 0.998167
1.00848 1.01073 1 0.997779
0.99899 1 1.00026 0.998733
1.00064 1.00049 1.00193 0.998224
0.999727 1.00155 1 0.998183
1.00038 1.00211 1 0.998277
1 1 1 1
0.999836 1 1 0.999836
0.998917 1 1 0.998917
0.999262 1 1.00001 0.999256
0.999306 1 1.00051 0.9988
1.01148 1.01378 1 0.997731
1.00429 1.00635 1 0.997953
1.01082 1.01309 1 0.997753
1.00052 1 1.00213 0.998397
1.00317 1.00509 1 0.99809
1.00094 1.00199 1.00096 0.997993
0.999877 1 1 0.999877
0.999411 1 1 0.999411
0.999099 1 1.00048 0.998623
0.999389 1 1.00042 0.998965
0.999435 1 1.00076 0.998673
1.01342 1.01569 1 0.99777
1.00659 1.00871 1 0.997894
1.01061 1.01272 1 0.99791
1.00194 1 1.00379 0.998152
1.00192 1.00408 1 0.997846
0.999903 1 1 0.999903
0.999522 1 1 0.999522
0.999566 1 1 0.999566
0.999379 1 1 0.999379
0.999592 1 1 0.999592
0.999924 1 1 0.999924
0.999923 1 1 0.999923
1 1 1 1
0.999917 1 1 0.999917
1 1 1 1
1 1 1 1
1 1 1 1
1 1 1 1
1 1 1 1
1 1 1 1
0.999994 1 1 0.999994
1 1 1 1
1 1 1 1
0.999975 1 1 0.999975
1 1 1 1
1.0045 1.00666 1 0.997853
1.00549 1.00772 1 0.997791
1.01514 1.01743 1 0.997748
1.0186 1.02094 1 0.997708
1.00595 1.00828 1 0.997688
0.998116 1 1 0.998116
1.00563 1.00797 1 0.997676
1.01858 1.02097 1 0.997662
1.01754 1.01986 1 0.997726
1.02275 1.02501 0.999983 0.997811
1.01367 1.01596 1 0.997744
1.01893 1.02106 1 0.997917
1.01744 1.01985 1 0.997637
1.02198 1.02429 1 0.997744
1.02106 1.02323 1 0.997878
1.02183 1.02429 0.999701 0.9979
1.01659 1.01878 1 0.997857
1.01992 1.02191 1 0.998052
1.00539 1.0077 1 0.997705
1.00467 1.00683 1 0.997853
1.01566 1.018 1 0.997698
1.01451 1.0168 1 0.997749
0.999223 1 1 0.999223
0.99868 1 1 0.99868
0.999784 1.00145 1.00018 0.998151
1.00891 1.01106 1 0.997876
1.01495 1.01705 1 0.997934
1.01154 1.01364 1 0.997923
1.00742 1.00966 1 0.997783
1.01049 1.01245 1 0.99806
0.998919 1 1 0.998919
0.999065 1 1.00033 0.998738
0.999664 1 1 0.999664
0.99929 1 1.00025 0.999044
1.01649 1.01889 1 0.997648
1.01616 1.01848 1 0.997721
1.02142 1.02374 1 0.997734
1.01721 1.0194 1 0.997857
0.998857 1 1 0.998857
0.998456 1 1.00003 0.998421
1.00243 1.00423 1.00039 0.99782
1.0138 1.01593 1 0.997909
1.01672 1.01869 1 0.998061
1.00952 1.01179 1 0.99775
1.0119 1.01382 1 0.998109
1.01199 1.01392 1 0.998103
0.998758 1 1 0.998758
0.998772 1 1.00006 0.998717
0.999935 1 1.00114 0.998794
0.999715 1 1 0.999715
0.999166 1 1 0.999166
1.02191 1.02424 1 0.997718
1.02114 1.02342 1 0.997778
1.01769 1.01974 0.999969 0.998021
1.01436 1.01629 1 0.998102
0.998675 1 1 0.998675
1.01372 1.01551 1 0.998234
0.998474 1 1.00029 0.998187
1.00558 1.0075 1.00051 0.997593
1.01019 1.0125 1 0.99772
0.999751 1 1 0.999751
0.999328 1 1 0.999328
0.999307 1 1.00036 0.998949
0.998721 1 1 0.998721
1.00067 1 1.00203 0.998639
0.998663 1 1 0.998663
1 1 1 1
0.999842 1 1 0.999842
1.01179 1.01409 1 0.997726
0.999256 1 1 0.999256
0.998918 1 1 0.998918
0.999486 1 1.00071 0.998779
1.00383 1.00589 1 0.997953
1.01068 1.01296 1 0.997745
1.00069 1 1.00229 0.998401
1.00058 1.0018 1.00077 0.998013
1.00412 1.00602 1 0.998106
0.999881 1 1 0.999881
0.999413 1 1 0.999413
0.999043 1 1.00041 0.998629
0.999548 1 1.00059 0.998963
0.99969 1 1.00103 0.998662
1.01358 1.01585 1 0.997765
1.00704 1.00918 1 0.997886
1.01049 1.01258 1 0.997932
1.00137 1 1.00324 0.998131
1.00166 1.00379 1.00006 0.997816
0.999505 1 1 0.999505
0.999173 1 1.00009 0.999085
1.00045 1 1.002 0.998455
1.00022 1 1.00152 0.998709
0.999531 1 1.00097 0.998559
1.01632 1.01824 1 0.998109
1.00673 1.00894 1 0.997812
1.00881 1.01087 1 0.997958
1.00309 1.00079 1.00433 0.99798
0.999939 1.00233 1 0.99761
0.999906 1 1 0.999906
0.999537 1 1 0.999537
0.999291 1 1 0.999291
0.999547 1 1 0.999547
0.999592 1 1 0.999592
0.999352 1 1 0.999352
0.999214 1 1 0.999214
0.999334 1 1 0.999334
0.999596 1 1 0.999596
0.999921 1 1 0.999921
0.999924 1 1 0.999924
1 1 1 1
0.999924 1 1 0.999924
1 1 1 1
1 1 1 1
1 1 1 1
1 1 1 1
1 1 1 1
1 1 1 1
0.999999 1 1 0.999999
1 1 1 1
0.999991 1 1 0.999991
1 1 1 1
1 1 1 1
1.01388 1.01618 1 0.99774
1.01737 1.01969 1 0.997726
1.01915 1.02127 1 0.997929
1.02234 1.02462 0.999942 0.99783
1.0185 1.02089 1 0.997655
1.00567 1.00801 1 0.997677
1.01755 1.01998 1 0.997627
1.0221 1.02442 0.999994 0.997738
1.02106 1.02325 1 0.997859
1.02145 1.02386 0.999728 0.997911
1.01602 1.0182 1 0.997857
1.01947 1.02143 1 0.998083
1.02095 1.0233 1 0.997706
1.02265 1.02533 0.999506 0.99788
1.02189 1.0241 0.999828 0.998017
1.01806 1.01995 1 0.998153
1.0164 1.01879 1 0.997649
1.01596 1.01829 1 0.997711
1.02137 1.02368 1 0.997746
1.01659 1.01878 1 0.997846
0.998853 1 1 0.998853
0.998463 1 1 0.998463
1.00273 1.00434 1.00058 0.997814
1.01347 1.01562 1 0.997889
1.01691 1.01884 1 0.998104
1.0118 1.01371 1 0.998111
1.00923 1.01152 1 0.997739
1.01278 1.01466 1 0.99814
0.998757 1 1 0.998757
0.998717 1 1 0.998717
1.00045 1 1.00166 0.998789
0.999685 1 1 0.999685
0.999185 1 1 0.999185
1.02175 1.02408 1 0.997721
1.02131 1.02358 1 0.997783
1.0176 1.01971 0.999923 0.998015
0.998669 1 1 0.998669
0.998737 1.00026 1.00026 0.998225
1.00531 1.00698 1.00076 0.997583
1.01478 1.01672 1 0.998091
1.01 1.01225 1 0.997779
1.01293 1.01473 1 0.99822
0.999759 1 1 0.999759
0.998716 1 1 0.998716
0.998705 1 1 0.998705
1.00058 1 1.00196 0.998628
0.999265 1 1.00031 0.998958
0.999304 1 1 0.999304
1.02217 1.02453 0.999909 0.997783
1.02157 1.02511 0.998611 0.997929
1.01672 1.01912 0.999534 0.998109
1.01858 1.0205 0.999852 0.998263
0.998557 1 1 0.998557
1.01104 1.01309 1 0.997977
1.00007 1.00062 1.00165 0.997808
1.00458 1.00609 1.00104 0.997456
0.999824 1 1 0.999824
0.999428 1 1 0.999428
0.99908 1 1 0.99908
1.00086 1 1.00216 0.998705
0.998642 1 1 0.998642
0.999161 1 1.00061 0.998549
0.999885 1 1 0.999885
0.999415 1 1 0.999415
1.01383 1.01611 1 0.99776
0.999549 1 1.00059 0.998961
0.998906 1 1.00027 0.998636
0.99995 1 1.0013 0.998651
1.00761 1.00975 1 0.997878
1.01053 1.0126 1 0.997955
1.00084 1 1.00273 0.998109
1.00151 1.00347 1.00027 0.997785
0.999507 1 1 0.999507
0.999095 1 1 0.999095
1.00045 1 1.00198 0.998473
1.00054 1 1.00183 0.998712
0.999077 1 1.00048 0.998602
1.01631 1.01821 1 0.998132
1.00639 1.0086 1 0.997813
1.00961 1.0116 1 0.998032
1.00306 1.00053 1.00458 0.997955
1.00051 1.00292 1.00003 0.997571
0.999231 1 1 0.999231
0.998976 1 1.00017 0.998807
1.0021 1 1.00378 0.99832
0.99986 1 1.0014 0.998462
1.02058 1.02454 0.99783 0.998293
1.01397 1.01591 0.999872 0.998221
1.00474 1.00713 1 0.997632
1.00296 1.00109 1.00426 0.997616
0.999553 1 1 0.999553
0.999303 1 1 0.999303
0.999158 1 1 0.999158
0.999592 1 1 0.999592
0.999324 1 1 0.999324
0.999596 1 1 0.999596
0.999195 1 1 0.999195
0.999345 1 1 0.999345
0.999088 1 1 0.999088
0.999179 1 1 0.999179
0.999328 1 1 0.999328
0.999587 1 1 0.999587
0.999916 1 1 0.999916
0.99992 1 1 0.99992
1 1 1 1
0.999924 1 1 0.999924
1 1 1 1
1 1 1 1
1 1 1 1
1 1 1 1
1 1 1 1
1 1 1 1
1 1 1 1
1 1 1 1
0.999999 1 1 0.999999
1 1 1 1
1 1 1 1
1.01545 1.01763 1 0.997858
1.02104 1.02325 1 0.99784
1.01901 1.02094 1 0.998114
1.02104 1.0234 0.999779 0.997922
1.02221 1.02454 1 0.997731
1.01769 1.02013 1 0.997617
1.02092 1.02326 1 0.997712
1.02154 1.02422 0.999503 0.997872
1.02171 1.02403 0.999716 0.998019
1.01943 1.02132 1 0.998152
1.02229 1.02489 0.999639 0.997825
1.02425 1.02887 0.997452 0.998049
1.02377 1.02645 0.999232 0.998158
1.0216 1.02393 1 0.997724
1.02146 1.02373 1 0.997788
1.01749 1.01963 0.999888 0.998009
0.998664 1 1 0.998664
0.998952 1.00051 1.00018 0.998263
1.00485 1.00644 1.00085 0.997574
1.01514 1.01709 1 0.998081
1.01227 1.01409 1 0.998206
1.01014 1.01233 1 0.997838
0.998712 1 1 0.998712
0.998748 1 1 0.998748
1.00037 1 1.00175 0.998617
0.999767 1 1 0.999767
0.999153 1 1.00019 0.998967
0.999281 1 1 0.999281
1.02286 1.0252 0.999928 0.997788
1.02215 1.0252 0.999085 0.997934
1.01679 1.0191 0.999633 0.998099
0.998547 1 1 0.998547
1.00012 1.00083 1.0014 0.997886
1.00431 1.00594 1.0009 0.997481
1.01851 1.02045 0.999819 0.998275
1.01157 1.01363 1 0.997967
0.999855 1 1 0.999855
0.999428 1 1 0.999428
0.998654 1 1 0.998654
0.999532 1 1.00093 0.998601
1.00085 1 1.00213 0.998714
0.99906 1 1 0.99906
1.025 1.02891 0.998235 0.997965
1.01725 1.02349 0.995827 0.998065
1.01792 1.02115 0.998541 0.998294
1.0157 1.01745 0.999972 0.998307
0.999251 1 1.00088 0.998368
1.00379 1.00487 1.0014 0.99753
1.00141 1.00115 1.00264 0.997622
0.999927 1 1 0.999927
0.999621 1 1 0.999621
0.999462 1 1 0.999462
0.999137 1 1 0.999137
0.999348 1 1.00051 0.998843
1.00001 1 1.00143 0.998584
0.998676 1 1 0.998676
1.00741 1 1.00871 0.998711
0.999508 1 1 0.999508
0.999105 1 1 0.999105
1.01619 1.01807 1 0.998156
1.00093 1 1.00222 0.998716
1.00064 1 1.00215 0.99849
0.998681 1 1.00004 0.998645
1.00593 1.00814 1 0.997814
1.01039 1.01231 1 0.998106
1.00309 1.00036 1.00482 0.997931
1.00111 1.00359 1 0.997531
0.999217 1 1 0.999217
0.999294 1 1.00048 0.998817
1.00249 1 1.00415 0.99834
0.999612 1 1.00113 0.998485
1.02134 1.02517 0.997968 0.9983
1.0134 1.01528 0.999949 0.998194
1.00562 1.00797 1 0.99767
1.00249 1.00114 1.00377 0.997581
0.999049 1 1 0.999049
1.01993 1.02551 0.996272 0.998283
1.00008 1 1.00149 0.998595
1.00079 1 1.00268 0.998115
1.0186 1.02156 0.998707 0.998391
1.00622 1.0085 1 0.997738
1.00413 1.00345 1.00323 0.997452
0.999315 1 1 0.999315
0.999156 1 1 0.999156
0.999034 1 1 0.999034
0.999595 1 1 0.999595
0.999355 1 1 0.999355
0.999176 1 1 0.999176
0.999586 1 1 0.999586
0.99933 1 1 0.99933
0.999071 1 1 0.999071
0.9992 1 1 0.9992
0.998988 1 1 0.998988
0.999057 1 1 0.999057
0.999188 1 1 0.999188
0.999323 1 1 0.999323
0.999567 1 1 0.999567
0.999909 1 1 0.999909
0.999915 1 1 0.999915
1 1 1 1
0.999919 1 1 0.999919
1 1 1 1
1 1 1 1
1 1 1 1
1 1 1 1
1 1 1 1
0.999951 1 1 0.999951
1 1 1 1
1 1 1 1
1 1 1 1
1 1 1 1
1 1 1 1
1 1 1 1
1.02082 1.02271 1 0.99815
1.02159 1.024 0.999623 0.998021
1.02045 1.02315 0.999495 0.997865
1.02087 1.02321 1 0.997718
1.02228 1.02489 0.99961 0.997841
1.02481 1.02923 0.997666 0.998037
1.02376 1.02662 0.999041 0.998172
1.02445 1.03019 0.9964 0.99802
1.02718 1.03245 0.996714 0.998169
1.01245 1.02315 0.991159 0.998369
1.02355 1.02587 0.999947 0.997793
1.02273 1.02535 0.9995 0.99794
1.01684 1.01909 0.999698 0.998089
0.998594 1 1.00006 0.998538
1.00027 1.00105 1.00126 0.997965
1.0038 1.00554 1.00078 0.997505
1.01857 1.02053 0.999789 0.998286
1.01159 1.01366 1 0.997957
0.998666 1 1 0.998666
0.999977 1 1.00133 0.998652
1.00101 1 1.00229 0.998724
0.999887 1 1 0.999887
0.999428 1 1 0.999428
0.99904 1 1 0.99904
1.02425 1.02848 0.997895 0.997979
0.999923 1 1 0.999923
0.999603 1 1 0.999603
1.01738 1.02287 0.996563 0.998064
1.01869 1.02188 0.998616 0.998262
0.999271 1 1.00084 0.998432
1.00196 1.00108 1.0033 0.997591
1.00398 1.00562 1.00084 0.997535
1.01486 1.0166 0.999991 0.998293
0.999514 1 1 0.999514
0.999134 1 1 0.999134
0.998624 1 1 0.998624
1.00436 1 1.00557 0.9988
1.00031 1 1.00175 0.998569
0.999372 1 1.00052 0.998852
1.02591 1.03151 0.99643 0.998134
1.01119 1.02166 0.991541 0.998201
1.01628 1.02034 0.997534 0.998486
1.005 1.00714 0.999845 0.99803
1.00075 1 1.00234 0.99841
1.00398 1.00108 1.00547 0.997436
0.999622 1 1 0.999622
0.999572 1 1 0.999572
0.999376 1 1 0.999376
0.999145 1 1 0.999145
0.998962 1 1 0.998962
0.999405 1 1.00077 0.998638
1.01234 1 1.01384 0.998519
1.00001 1 1.00118 0.998831
0.999204 1 1 0.999204
0.999346 1 1.00052 0.998827
1.02217 1.02583 0.998119 0.998306
1.01295 1.01481 1 0.998167
0.999357 1 1.00085 0.998508
1.00276 1 1.00441 0.99836
1.00664 1.00891 1.00004 0.997709
1.00199 1.0011 1.00335 0.997546
0.999043 1 1 0.999043
1.02053 1.02699 0.995395 0.998308
0.999999 1 1.00139 0.998609
1.00077 1 1.00269 0.998089
1.0179 1.02093 0.998661 0.998366
1.00686 1.00911 1 0.997776
1.00377 1.00283 1.00348 0.997463
0.999781 1 1.00098 0.998804
1.01655 1.02555 0.992625 0.998591
0.999889 1 1.00148 0.998414
1.00219 1.00056 1.00379 0.997847
1.00887 1.01374 0.997124 0.99807
1.0017 1.00194 1.00221 0.997546
1.00486 1.00811 0.998091 0.99868
0.999154 1 1 0.999154
0.999049 1 1.00002 0.999032
0.998918 1 1 0.998918
0.999585 1 1 0.999585
0.999331 1 1 0.999331
0.999221 1 1 0.999221
0.999053 1 1 0.999053
0.999566 1 1 0.999566
0.999314 1 1 0.999314
0.998974 1 1 0.998974
0.999187 1 1 0.999187
0.999073 1 1 0.999073
0.998965 1 1 0.998965
0.999074 1 1 0.999074
0.999184 1 1 0.999184
0.999267 1 1 0.999267
0.99951 1 1 0.99951
0.999359 1 1 0.999359
0.999509 1 1 0.999509
0.999904 1 1 0.999904
0.999908 1 1 0.999908
1 1 1 1
0.999914 1 1 0.999914
1 1 1 1
1 1 1 1
1 1 1 1
1 1 1 1
1 1 1 1
0.999965 1 1 0.999965
0.999948 1 1 0.999948
1 1 1 1
1 1 1 1
1 1 1 1
1 1 1 1
1 1 1 1
1 1 1 1
1.02374 1.02679 0.998844 0.998185
1.02536 1.0296 0.997851 0.998025
1.02227 1.0249 0.999578 0.997857
1.02425 1.02994 0.996458 0.998018
1.02578 1.0309 0.996863 0.998166
1.01295 1.02304 0.991772 0.998355
1.02266 1.03161 0.993075 0.998236
1.00356 1.01596 0.98972 0.998057
1.01231 1.02463 0.989195 0.998762
0.999692 1 1 0.999692
1.02351 1.02804 0.997599 0.997993
1.01774 1.02229 0.997473 0.998063
1.01931 1.0225 0.998645 0.998231
0.999316 1 1.00082 0.998497
1.00278 1.00121 1.00402 0.99756
1.00455 1.00657 1.00045 0.997539
1.014 1.01574 1 0.99828
0.998573 1 1 0.998573
1.00131 1 1.00242 0.99889
1.00048 1 1.00193 0.998554
0.999919 1 1 0.999919
0.999395 1 1.00053 0.998861
0.999565 1 1 0.999565
0.999132 1 1 0.999132
0.999585 1 1 0.999585
1.02507 1.03215 0.994997 0.998141
0.999647 1 1 0.999647
0.99957 1 1 0.99957
0.999339 1 1 0.999339
1.01178 1.02148 0.992293 0.998204
1.01588 1.01983 0.997692 0.998439
1.00007 1 1.00164 0.998429
1.00369 1.00069 1.00555 0.997459
1.00447 1.00638 1.00007 0.99803
0.999172 1 1 0.999172
0.99899 1 1.00005 0.998942
1.00204 1 1.00327 0.998771
1.01003 1 1.01149 0.998555
0.99926 1 1.0006 0.99866
1.01579 1.0256 0.992209 0.998219
1.01116 1.02426 0.988866 0.998321
1.00967 1.01305 0.998437 0.998222
1.00476 1.00372 1.00317 0.997879
1.00326 1 1.00484 0.998427
0.999331 1 1 0.999331
0.999233 1 1 0.999233
0.99913 1 1 0.99913
0.998962 1 1 0.998962
0.999133 1 1.00034 0.998789
1.00884 1 1.0103 0.998553
1.01177 1 1.01332 0.998474
0.999037 1 1 0.999037
0.999993 1 1.00137 0.998623
1.02073 1.02838 0.99422 0.998333
1.01703 1.02019 0.998558 0.99834
1.00728 1.00949 1 0.997815
1.00074 1 1.00268 0.998063
1.00319 1.00212 1.0036 0.997475
0.999709 1 1.00087 0.998837
1.01564 1.02529 0.991981 0.9986
0.999639 1 1.0012 0.998438
1.0022 1.00027 1.00408 0.997857
1.0101 1.01431 0.997705 0.998138
1.00218 1.00196 1.00269 0.997533
1.00469 1.00834 0.998088 0.998294
0.999831 1 1.00115 0.998681
1.00504 1.01645 0.990176 0.998584
1.00034 1 1.00194 0.998399
1.0042 1.00004 1.00636 0.997816
1.00359 1.00472 1.00104 0.997837
0.955909 0.978411 0.988515 0.988352
0.980156 0.988228 0.997306 0.994511
0.981208 0.999921 0.982494 0.99877
0.875286 0.913065 0.971435 0.986812
0.843706 0.914924 0.936049 0.985162
0.999041 1 1.00001 0.99903
0.998937 1 1.00001 0.998932
0.998942 1 1 0.998942
0.999565 1 1 0.999565
0.999304 1 1 0.999304
0.999187 1 1 0.999187
0.999089 1 1 0.999089
0.998959 1 1 0.998959
0.999165 1 1 0.999165
0.999531 1 1 0.999531
0.99928 1 1 0.99928
0.998969 1 1 0.998969
0.999074 1 1 0.999074
0.999082 1 1 0.999082
0.999027 1 1 0.999027
0.999114 1 1 0.999114
0.999239 1 1 0.999239
0.999502 1 1 0.999502
0.999301 1 1 0.999301
0.999201 1 1 0.999201
0.999335 1 1 0.999335
0.999332 1 1 0.999332
0.999559 1 1 0.999559
0.999507 1 1 0.999507
0.9999 1 1 0.9999
0.999903 1 1 0.999903
1 1 1 1
0.999908 1 1 0.999908
1 1 1 1
1 1 1 1
1 1 1 1
1 1 1 1
1 1 1 1
0.999972 1 1 0.999972
0.999962 1 1 0.999962
1 1 1 1
0.999945 1 1 0.999945
1 1 1 1
1 1 1 1
1 1 1 1
1 1 1 1
1 1 1 1
1.02442 1.02937 0.997025 0.998163
1.02401 1.02963 0.996524 0.998016
1.01351 1.02281 0.992556 0.99834
1.00397 1.01572 0.990316 0.998094
1.02138 1.03034 0.99306 0.998234
1.01636 1.0264 0.991512 0.998693
1.02274 1.02909 0.995561 0.998264
0.966567 0.984914 0.98757 0.993724
1.00959 1.01935 0.991982 0.998427
0.999701 1 1 0.999701
0.999691 1 1 0.999691
0.999413 1 1 0.999413
0.999441 1 1 0.999441
1.02398 1.03264 0.993452 0.998149
1.01197 1.02095 0.992983 0.998208
1.01564 1.01932 0.997996 0.998391
0.999218 1 1.00077 0.998447
1.00309 1.00026 1.00536 0.997481
1.004 1.00585 1.00013 0.99803
1.00395 1 1.00524 0.99871
1.00782 1 1.00924 0.998591
0.999086 1 1.0004 0.998682
0.999569 1 1 0.999569
0.998959 1 1.00004 0.998922
0.999199 1 1 0.999199
0.999672 1 1 0.999672
0.999303 1 1 0.999303
1.0139 1.02441 0.991491 0.998234
0.999371 1 1 0.999371
0.999259 1 1 0.999259
0.999146 1 1 0.999146
1.01327 1.02591 0.989335 0.998329
1.0085 1.01222 0.998103 0.998218
1.00311 1 1.0047 0.998419
1.00474 1.00409 1.00277 0.99788
0.999015 1 1.00005 0.998962
0.998895 1 1.00011 0.998781
1.01217 1 1.01372 0.998474
1.0099 1 1.01138 0.99853
1.01056 1.02644 0.986232 0.998273
1.00174 1.01974 0.984017 0.998305
1.00522 1.0068 1.00049 0.997934
1.00138 1.00021 1.00278 0.998393
0.999052 1 1 0.999052
0.999117 1 1.0001 0.999012
1.00183 1 1.00307 0.998761
1.02152 1 1.02323 0.998328
0.942038 0.97279 0.980337 0.987811
0.999733 1 1.00086 0.998869
0.999542 1 1.00108 0.998462
1.01452 1.02485 0.991305 0.998608
1.01132 1.01479 0.998364 0.998206
1.00293 1.00212 1.0033 0.99752
1.00233 1 1.00447 0.997867
1.00377 1.00829 0.997609 0.9979
0.999814 1 1.00111 0.998706
1.00422 1.01641 0.989415 0.99857
0.999845 1 1.00144 0.99841
1.00395 1.00003 1.00611 0.997817
1.00366 1.00576 1.00006 0.99786
0.954096 0.979292 0.986 0.988104
0.974978 0.98623 0.995601 0.992959
0.983265 0.998132 0.98628 0.998808
0.878182 0.912719 0.975206 0.986622
0.828 0.903011 0.931919 0.983919
0.999489 1 1.00067 0.998824
0.895417 0.928421 0.977406 0.986746
0.881376 0.919393 0.97214 0.986123
0.982722 1.0064 0.977943 0.998494
1.00494 1 1.00646 0.998484
1.01042 1.00222 1.01019 0.99801
0.980782 0.993906 0.98784 0.998943
0.955568 0.972357 0.994957 0.987714
0.963204 0.970525 1.00008 0.992376
0.856603 0.913267 0.950372 0.986934
0.885088 0.946581 0.947377 0.986975
0.998979 1 1.00003 0.998945
0.998935 1 1 0.998935
0.999127 1 1 0.999127
0.999551 1 1 0.999551
0.999293 1 1 0.999293
0.999146 1 1 0.999146
0.999075 1 1 0.999075
0.998972 1 1 0.998972
0.999502 1 1 0.999502
0.999079 1 1 0.999079
0.999132 1 1 0.999132
0.999261 1 1 0.999261
0.999024 1 1 0.999024
0.999037 1 1 0.999037
0.999241 1 1.0002 0.999044
0.999101 1 1 0.999101
0.999273 1 1 0.999273
0.999299 1 1 0.999299
0.999187 1 1 0.999187
0.999149 1 1 0.999149
0.99918 1 1 0.99918
0.999123 1 1 0.999123
0.999061 1 1 0.999061
0.999316 1 1 0.999316
0.999335 1 1 0.999335
0.999565 1 1 0.999565
0.999305 1 1 0.999305
0.999542 1 1 0.999542
0.999898 1 1 0.999898
0.999506 1 1 0.999506
0.9999 1 1 0.9999
1 1 1 1
0.999903 1 1 0.999903
1 1 1 1
1 1 1 1
1 1 1 1
1 1 1 1
1 1 1 1
0.999686 1 1 0.999686
0.999972 1 1 0.999972
0.99997 1 1 0.99997
1 1 1 1
0.99996 1 1 0.99996
1 1 1 1
1 1 1 1
1 1 1 1
1 1 1 1
1 1 1 1
1.00506 1.01579 0.991286 0.998134
1.02046 1.02927 0.993201 0.998232
1.02011 1.02842 0.993285 0.998623
0.966311 0.982242 0.989186 0.994535
1.00994 1.01907 0.992526 0.998502
1.02451 1.03155 0.994932 0.998234
1.0167 1.02349 0.995102 0.998262
0.972374 0.984606 0.992489 0.995051
0.955883 0.977334 0.990857 0.987076
0.855617 0.904626 0.959386 0.985865
0.827141 0.892077 0.941476 0.984845
0.999401 1 1 0.999401
0.999701 1 1 0.999701
0.999691 1 1 0.999691
0.999401 1 1 0.999401
0.999222 1 1 0.999222
0.999259 1 1 0.999259
0.999403 1 1 0.999403
0.999422 1 1 0.999422
1.01247 1.02363 0.990829 0.998248
1.01578 1.02824 0.989526 0.998337
1.00729 1.01135 0.997765 0.998215
1.00329 1 1.00488 0.998411
1.00484 1.00424 1.00272 0.99788
1.01235 1 1.01389 0.998475
1.01101 1 1.01253 0.998508
0.998772 1 1 0.998772
0.999285 1 1 0.999285
0.998963 1 1 0.998963
0.99941 1 1 0.99941
0.999162 1 1 0.999162
1.01132 1.02661 0.986824 0.998254
0.999075 1 1 0.999075
0.999023 1 1 0.999023
1.00297 1.01898 0.985982 0.998285
1.00455 1.00674 0.999796 0.998033
1.00324 1.00051 1.0044 0.998338
1.00315 1 1.00442 0.998731
1.01898 1 1.02068 0.998335
1.0102 1.02397 0.988298 0.998237
0.98478 1.00601 0.980543 0.998318
0.998921 1.00035 1.00028 0.998294
1.00732 1 1.00892 0.998416
0.998924 1 1 0.998924
1.00091 1 1.0021 0.998816
1.0168 1 1.0183 0.998523
0.88375 0.931516 0.961092 0.98713
0.9518 0.975064 0.987074 0.988924
0.99961 1 1.00088 0.998731
0.999486 1 1.00107 0.998421
1.00462 1.01686 0.989382 0.998557
1.00381 1.00699 0.998957 0.997883
1.00352 1 1.00571 0.997818
0.953378 0.976749 0.988858 0.98707
0.977229 0.989411 0.993994 0.993656
0.985609 0.996916 0.989803 0.998843
0.872218 0.91345 0.967864 0.986566
0.81358 0.890404 0.929839 0.982665
0.999228 1 1.0004 0.998826
0.888474 0.931225 0.966525 0.987136
0.877806 0.914734 0.97363 0.98562
0.984832 1.00718 0.979299 0.998484
1.00448 1 1.00598 0.998504
1.00952 1.00113 1.01028 0.998112
0.972936 0.989762 0.983978 0.999006
0.959731 0.978012 0.994391 0.986844
0.965776 0.974393 0.997263 0.993877
0.858529 0.907862 0.959314 0.985767
0.884692 0.9475 0.946543 0.986445
1.00107 1 1.00206 0.999011
0.904057 0.925563 0.989092 0.987537
0.960285 0.972681 0.99614 0.99108
0.989117 1.00071 0.989486 0.998917
1.01178 1.00101 1.01187 0.998902
0.990745 0.983882 1.00772 0.999263
0.952289 0.965073 0.991745 0.994967
0.950322 0.961117 1.00204 0.986755
0.877217 0.927171 0.95956 0.985996
0.913246 0.965859 0.956132 0.988909
0.998929 1 1 0.998929
0.999106 1 1 0.999106
0.99972 1 1.00042 0.999299
0.999502 1 1 0.999502
0.999283 1 1 0.999283
0.99915 1 1 0.99915
0.999076 1 1 0.999076
0.999021 1 1 0.999021
0.999272 1 1 0.999272
0.999046 1 1 0.999046
0.9991 1 1 0.9991
0.999307 1 1.00024 0.999062
1.00147 1 1.00224 0.999229
0.99911 1 1.00009 0.999023
0.9991 1 1 0.9991
0.999297 1 1 0.999297
0.999172 1 1 0.999172
0.999149 1 1 0.999149
0.999178 1 1 0.999178
0.999125 1 1 0.999125
0.999139 1 1 0.999139
0.999094 1 1 0.999094
0.999104 1 1 0.999104
0.998909 1 1 0.998909
0.999455 1 1.00082 0.998639
0.998951 1 1 0.998951
0.999058 1 1 0.999058
0.999268 1 1 0.999268
0.999314 1 1 0.999314
0.999559 1 1 0.999559
0.999335 1 1 0.999335
0.999565 1 1 0.999565
0.999899 1 1 0.999899
0.999525 1 1 0.999525
0.999898 1 1 0.999898
1 1 1 1
0.9999 1 1 0.9999
1 1 1 1
1 1 1 1
1 1 1 1
1 1 1 1
1 1 1 1
0.999705 1 1 0.999705
0.999965 1 1 0.999965
0.999686 1 1 0.999686
1 1 1 1
0.999972 1 1 0.999972
0.999969 1 1 0.999969
1 1 1 1
1 1 1 1
1 1 1 1
1 1 1 1
1 1 1 1
0.884393 0.921952 0.971942 0.986954
0.886521 0.921029 0.975509 0.986699
0.968212 0.984535 0.988324 0.995039
1.01144 1.01871 0.994277 0.998577
1.02619 1.03362 0.994602 0.998204
0.968069 0.979815 0.99172 0.996261
1.01664 1.0232 0.99528 0.998299
0.95885 0.980175 0.989778 0.988347
0.869853 0.910643 0.968196 0.986585
0.817744 0.889905 0.934257 0.983574
0.99111 0.99922 0.994569 0.9973
0.955601 0.972409 0.994523 0.988127
0.848919 0.907727 0.947869 0.986649
0.882662 0.940588 0.951834 0.985902
0.999152 1 1 0.999152
0.999419 1 1 0.999419
0.9997 1 1 0.9997
0.999389 1 1 0.999389
0.999246 1 1 0.999246
0.999179 1 1 0.999179
0.999259 1 1 0.999259
0.999293 1 1 0.999293
0.999381 1 1 0.999381
0.999404 1 1 0.999404
1.01167 1.02638 0.987415 0.998236
1.00327 1.01737 0.987858 0.998267
1.00394 1.00683 0.998995 0.998133
1.00479 1.0008 1.00571 0.998283
1.01596 1 1.01765 0.998342
1.00448 1 1.00579 0.9987
0.999035 1 1 0.999035
0.999097 1 1 0.999097
1.00917 1.02417 0.987094 0.998237
0.998914 1 1 0.998914
1.00087 1 1.00208 0.998791
0.985915 1.00501 0.982719 0.99825
0.999146 1.00026 1.00047 0.998414
1.0077 1.00002 1.00937 0.998324
1.01458 1 1.01611 0.9985
1.00048 1.00599 0.996003 0.998521
0.989132 1 0.990241 0.998881
1.01309 1 1.01461 0.998494
0.99913 1 1.00023 0.998899
0.999582 1 1.00082 0.99876
1.00871 1 1.01012 0.998609
0.908872 0.930734 0.987279 0.989093
0.89167 0.931062 0.970547 0.986754
0.947405 0.976408 0.982276 0.987804
0.998827 1 1 0.998827
1.00406 1 1.00554 0.998524
0.987515 1.0077 0.981472 0.998474
1.00871 1 1.01051 0.998214
0.883429 0.92733 0.965574 0.986624
0.958425 0.975718 0.993716 0.988488
0.962408 0.97508 0.994519 0.992444
0.969303 0.986308 0.983673 0.999071
0.860439 0.908541 0.960249 0.986261
0.87961 0.918669 0.971575 0.985496
0.877917 0.943717 0.943149 0.98635
1.00166 1 1.00265 0.999016
0.905131 0.92871 0.986536 0.987912
0.963564 0.97531 0.996902 0.991027
0.991303 1.00038 0.991941 0.998975
1.0112 1.00019 1.01213 0.998886
0.989545 0.984222 1.00636 0.999059
0.953312 0.96567 0.993935 0.993227
0.952022 0.965995 0.998244 0.987268
0.884026 0.935092 0.957985 0.986852
0.904558 0.958471 0.954435 0.988807
1.00235 0.999757 1.00312 0.999479
0.962486 0.975204 0.993824 0.993092
0.954786 0.966962 0.99363 0.993739
1.00682 0.993806 1.01338 0.999715
0.970502 0.9695 1.00405 0.996995
0.958075 0.962942 1.0084 0.986656
0.918726 0.952595 0.977092 0.987057
0.920757 0.977213 0.953327 0.988357
0.999086 1 1 0.999086
0.999654 1 1.00036 0.999299
1.00568 1 1.00625 0.999439
0.999271 1 1 0.999271
0.9991 1 1 0.9991
0.999055 1 1 0.999055
0.999362 1 1.00028 0.999081
0.999099 1 1 0.999099
0.999052 1 1.00003 0.999021
1.00333 1 1.00407 0.999262
1.00696 0.998591 1.00894 0.999446
1.00225 1 1.00309 0.999166
0.99904 1 1 0.99904
0.999148 1 1 0.999148
0.999176 1 1 0.999176
0.999128 1 1 0.999128
0.999098 1 1 0.999098
0.999138 1 1 0.999138
0.999109 1 1 0.999109
0.999044 1 1 0.999044
0.99917 1 1 0.99917
0.998924 1 1 0.998924
0.998929 1 1 0.998929
0.999421 1 1.00069 0.998727
0.999821 1 1.0015 0.998326
0.998922 1 1.00004 0.998878
0.999406 1 1.00069 0.998712
0.99898 1 1 0.99898
0.999156 1 1 0.999156
0.999056 1 1 0.999056
0.999266 1 1 0.999266
0.999531 1 1 0.999531
0.999312 1 1 0.999312
0.999558 1 1 0.999558
0.999897 1 1 0.999897
0.999565 1 1 0.999565
0.999898 1 1 0.999898
1 1 1 1
0.999899 1 1 0.999899
1 1 1 1
1 1 1 1
1 1 1 1
1 1 1 1
1 1 1 1
0.999605 1 1 0.999605
0.999956 1 1 0.999956
0.999662 1 1 0.999662
1 1 1 1
0.999967 1 1 0.999967
0.999686 1 1 0.999686
1 1 1 1
1 1 1 1
0.999972 1 1 0.999972
1 1 1 1
1 1 1 1
1 1 1 1
0.909798 0.930261 0.989206 0.988675
0.886793 0.926344 0.970362 0.986542
0.96231 0.977108 0.993889 0.990911
0.877445 0.914184 0.973279 0.986163
0.965104 0.980929 0.989251 0.994557
1.01544 1.02304 0.994222 0.998335
0.961071 0.980714 0.990275 0.989594
0.870875 0.914182 0.966082 0.986072
0.810654 0.889525 0.927756 0.982299
0.987467 0.997521 0.993236 0.996663
0.956814 0.973695 0.995727 0.986879
0.857598 0.913454 0.952682 0.985483
0.879973 0.940448 0.949601 0.985357
0.976231 0.988202 0.991816 0.996039
0.963178 0.967736 1.00894 0.986472
0.883766 0.937038 0.956064 0.986491
0.910671 0.966906 0.953419 0.987856
0.999016 1 1 0.999016
0.999178 1 1 0.999178
0.999436 1 1 0.999436
0.99927 1 1 0.99927
0.99904 1 1 0.99904
0.999197 1 1 0.999197
0.999259 1 1 0.999259
0.999268 1 1 0.999268
0.999317 1 1 0.999317
0.999359 1 1 0.999359
1.0083 1.02496 0.985488 0.998237
0.988248 1.00458 0.985534 0.998182
0.999316 1 1.00079 0.998532
1.0092 1.00033 1.01065 0.998234
1.01285 1 1.0144 0.998477
1.00064 1 1.00188 0.998765
0.998904 1 1 0.998904
0.99899 1 1.00009 0.998899
0.995526 1.00619 0.990856 0.998536
0.999348 1 1.00058 0.998771
1.00905 1 1.01046 0.998603
0.987832 1.00002 0.988994 0.998807
1.0121 1.00016 1.01347 0.998478
0.970049 0.993495 0.977373 0.999005
1.00573 0.999596 1.00686 0.999277
1.01149 1 1.01282 0.998691
0.998975 1 1.00019 0.998786
1.00596 1 1.00736 0.998609
0.961428 0.971141 0.995846 0.994129
0.911976 0.930617 0.990636 0.989234
0.885962 0.927931 0.96704 0.987314
1.00223 1 1.00322 0.99902
1.01052 0.999361 1.01231 0.998868
0.991547 1 0.99251 0.999029
0.914401 0.933871 0.990502 0.98854
0.960769 0.965776 1.00845 0.986481
0.95624 0.967012 0.994384 0.994445
0.981284 0.982213 1.00023 0.998829
0.885217 0.934213 0.961002 0.986006
0.966467 0.977474 0.997743 0.990976
0.902018 0.956838 0.953305 0.988883
1.0022 0.999541 1.0032 0.999462
0.961412 0.973568 0.993813 0.993661
0.958035 0.969872 0.994008 0.99375
1.00783 0.995143 1.01318 0.999571
0.971699 0.970627 1.00456 0.996557
0.953947 0.96364 1.00402 0.985976
0.922685 0.979577 0.952373 0.989027
0.910581 0.948132 0.973384 0.986656
1.00409 0.995837 1.00858 0.999711
0.950444 0.966292 0.986616 0.996941
0.965352 0.980119 0.990615 0.994265
0.912963 0.968185 0.954529 0.987883
0.99376 0.979956 1.01493 0.999172
0.972153 0.970783 1.01439 0.987211
0.909172 0.937039 0.983012 0.987027
0.999567 1 1.00027 0.9993
1.00469 1 1.0053 0.999392
1.01023 0.998783 1.0119 0.999566
0.999098 1 1 0.999098
0.999018 1 1 0.999018
1.00569 1 1.0064 0.999295
0.999048 1 1 0.999048
1.00236 1 1.0032 0.999169
1.00886 0.998929 1.01052 0.999421
1.00359 0.999267 1.00484 0.999489
1.00175 1 1.00259 0.999164
0.999103 1 1 0.999103
0.999136 1 1 0.999136
0.999114 1 1 0.999114
0.99916 1 1 0.99916
0.999053 1 1 0.999053
0.999441 1 1.00032 0.99912
0.999009 1 1 0.999009
1.0011 1 1.00259 0.998517
0.998949 1 1 0.998949
0.999266 1 1.00056 0.998703
0.999185 1 1.00101 0.998174
0.999549 1 1.00127 0.998276
0.999794 1 1.00107 0.99873
0.999668 1 1.00133 0.998344
0.999061 1 1 0.999061
0.998936 1 1.00008 0.998853
0.999303 1 1.00052 0.998786
0.999008 1 1 0.999008
0.999182 1 1 0.999182
0.999477 1 1 0.999477
0.999265 1 1 0.999265
0.99953 1 1 0.99953
0.999889 1 1 0.999889
0.999557 1 1 0.999557
0.999895 1 1 0.999895
1 1 1 1
0.999898 1 1 0.999898
1 1 1 1
1 1 1 1
1 1 1 1
1 1 1 1
1 1 1 1
0.999477 1 1 0.999477
0.999876 1 1 0.999876
0.999603 1 1 0.999603
1 1 1 1
0.99993 1 1 0.99993
0.999619 1 1 0.999619
1 1 1 1
1 1 1 1
0.99997 1 1 0.99997
1 1 1 1
1 1 1 1
1 1 1 1
0.959468 0.971909 0.993486 0.993672
0.899323 0.928181 0.980289 0.988391
0.888048 0.923909 0.974485 0.986352
0.999193 1 1 0.999193
0.951959 0.96515 0.991971 0.994316
0.96578 0.977757 0.996852 0.99087
0.872065 0.914483 0.967131 0.986025
0.98767 0.997988 0.99372 0.995916
0.96075 0.97459 0.997847 0.987926
0.863843 0.923131 0.949091 0.98597
0.872449 0.935063 0.946985 0.985271
0.977893 0.989545 0.994055 0.994135
0.950603 0.961828 1.00105 0.987296
0.891883 0.939461 0.96256 0.986283
0.908673 0.964591 0.953896 0.987559
0.963126 0.974075 0.996015 0.992716
0.962051 0.959777 1.01704 0.985579
0.911269 0.95074 0.971761 0.986337
0.91852 0.974996 0.953179 0.988351
0.998912 1 1.00003 0.998887
0.999031 1 1.00003 0.999001
0.999203 1 1 0.999203
0.999037 1 1 0.999037
0.99907 1 1 0.99907
0.999214 1 1 0.999214
0.999275 1 1 0.999275
0.999341 1 1 0.999341
0.990095 1.00576 0.985857 0.998549
0.985871 1 0.987121 0.998733
0.998899 1 1 0.998899
1.01044 1.00003 1.01196 0.998461
1.00932 1 1.01073 0.998598
0.999454 1 1.00067 0.998782
0.999053 1 1.00026 0.998794
0.975127 0.995447 0.980545 0.999023
1.00616 1 1.00754 0.998634
1.00986 1 1.01118 0.998693
0.999812 0.999631 1.00088 0.999302
0.999594 1 1.00077 0.998825
0.967475 0.987115 0.980723 0.999369
1.01073 0.997732 1.01358 0.999454
1.01304 1 1.0143 0.998762
1.00141 1 1.00266 0.998754
0.961311 0.968336 0.995304 0.99743
0.961163 0.970456 0.996185 0.994217
0.916136 0.930869 0.994737 0.989379
1.00191 0.999306 1.00315 0.999448
1.01 0.996529 1.0141 0.999429
0.961148 0.972324 0.994245 0.994228
0.964927 0.96317 1.01495 0.987067
0.967519 0.967966 1.0051 0.994464
0.914657 0.95092 0.975637 0.985885
0.959969 0.971668 0.994161 0.993762
0.925537 0.983307 0.951052 0.989693
1.00492 0.996746 1.00852 0.999677
0.950413 0.965827 0.987047 0.996955
0.963438 0.978137 0.989918 0.995004
1.00249 0.986763 1.01607 0.999873
0.910291 0.966255 0.95394 0.987569
0.964275 0.965183 1.01239 0.986833
0.919399 0.951205 0.980208 0.98608
1.00821 0.994021 1.0145 0.999771
0.961775 0.977931 0.985895 0.997549
0.952805 0.966461 0.991476 0.994345
0.883171 0.943 0.949889 0.985961
0.911437 0.952912 0.969961 0.986096
0.978498 0.974635 1.00519 0.998782
0.973745 0.963342 1.02581 0.985364
1.00318 1 1.00384 0.999345
1.00935 0.998137 1.01169 0.999548
1.0031 0.988278 1.01543 0.999582
0.999056 1 1 0.999056
1.00193 1 1.00276 0.999172
1.01028 0.999732 1.01116 0.999396
1.00034 1 1.00118 0.999156
1.0034 0.999228 1.00469 0.999488
1.00641 0.998447 1.00869 0.999286
0.99915 1 1 0.99915
0.999062 1 1 0.999062
1.00008 1 1.00099 0.999091
1.00653 1 1.00787 0.998672
0.999094 1 1 0.999094
1.00058 1 1.00198 0.998596
1.00219 1 1.00413 0.998068
1.00008 1.0004 1.00188 0.997808
0.999083 1 1.0004 0.99868
0.999208 1 1.00109 0.998115
0.998893 1 1.00053 0.998369
1.00069 1 1.00212 0.998572
0.999547 1 1.00123 0.998324
0.999611 1 1.00066 0.99895
0.999721 1 1.001 0.998724
0.999579 1 1.00122 0.998361
0.999386 1 1 0.999386
0.999054 1 1 0.999054
0.998996 1 1.00017 0.998828
0.999208 1 1 0.999208
0.999475 1 1 0.999475
0.99987 1 1 0.99987
0.999529 1 1 0.999529
0.999886 1 1 0.999886
1 1 1 1
0.999894 1 1 0.999894
1 1 1 1
1 1 1 1
1 1 1 1
1 1 1 1
1 1 1 1
0.999426 1 1 0.999426
0.999822 1 1 0.999822
0.999502 1 1 0.999502
1 1 1 1
0.999872 1 1 0.999872
0.999602 1 1 0.999602
1 1 1 1
1 1 1 1
0.999904 1 1 0.999904
1 1 1 1
1 1 1 1
1 1 1 1
0.951666 0.965412 0.988772 0.996955
0.959938 0.972414 0.993455 0.993674
0.899376 0.929278 0.979119 0.988462
0.999206 1 1 0.999206
0.999167 1 1 0.999167
0.999069 1 1 0.999069
0.96341 0.978963 0.989816 0.994238
0.953769 0.96523 0.993752 0.994338
0.969319 0.97843 0.999858 0.990829
0.984053 0.990188 0.99823 0.995567
0.951325 0.962697 1.0017 0.986509
0.883404 0.930582 0.962733 0.98605
0.914029 0.968838 0.955421 0.987447
0.962676 0.97189 0.996134 0.994364
0.956948 0.95951 1.01091 0.986566
0.90568 0.940514 0.975175 0.987477
0.92035 0.977945 0.951561 0.989013
0.950291 0.96281 0.993509 0.993446
0.974655 0.968521 1.01977 0.986822
0.909675 0.935567 0.984984 0.987148
0.912203 0.96483 0.956126 0.98884
0.998879 1 1 0.998879
0.998978 1 1.00009 0.998884
0.999037 1 1.00005 0.998985
0.999033 1 1 0.999033
0.9991 1 1 0.9991
0.999281 1 1 0.999281
0.981786 0.99809 0.984612 0.999038
0.994712 0.999671 0.995712 0.999324
0.998973 1 1.00017 0.998802
1.00912 1 1.01044 0.998695
1.00671 1 1.00806 0.998659
0.999502 1 1.0007 0.998803
1.00137 1 1.00261 0.998764
0.979475 0.990912 0.989072 0.999379
1.01339 1 1.01456 0.998849
1.00618 0.993641 1.01314 0.99948
0.999555 1 1.00068 0.998876
0.994886 0.980805 1.01475 0.999612
0.995479 0.989588 1.00642 0.999536
1.0101 1 1.01113 0.998976
0.976281 0.981522 0.996489 0.998165
0.96028 0.967826 0.994553 0.997637
0.960976 0.96965 0.996734 0.994302
1.00636 0.998084 1.00865 0.999643
0.998 0.989061 1.00952 0.999518
0.950569 0.965542 0.987487 0.996968
0.966874 0.961804 1.01541 0.990013
0.920496 0.948318 0.983178 0.98727
0.962744 0.976292 0.990338 0.995743
0.915385 0.969811 0.955846 0.987481
1.00715 0.99415 1.01329 0.999788
0.961208 0.977909 0.985145 0.997742
0.954948 0.966643 0.993498 0.994366
0.977358 0.971125 1.01009 0.996364
0.879257 0.941469 0.947714 0.985445
0.903818 0.944016 0.969792 0.987241
0.983832 0.969561 1.02841 0.986683
1.00423 0.978204 1.02686 0.999749
0.952453 0.966126 0.988818 0.996995
0.963177 0.97838 0.993406 0.990997
0.825696 0.891306 0.940476 0.985022
0.886021 0.93931 0.956153 0.986524
0.97437 0.969742 1.0184 0.986615
0.953006 0.965502 0.99188 0.995138
1.00897 0.997427 1.01205 0.99953
1.00755 0.992426 1.01566 0.999586
1.01867 0.997514 1.02169 0.999529
0.999149 1 1 0.999149
1.00349 0.998951 1.00505 0.999487
1.00721 0.998996 1.00888 0.999344
1.01732 1 1.01843 0.998912
1.00066 1 1.0016 0.999062
1.00682 1 1.00824 0.998587
1.01446 1 1.01654 0.997954
1.00012 1 1.00145 0.998675
1.00305 1 1.00502 0.998039
1.00398 1.00072 1.00575 0.997528
1.00139 1.00206 1.00191 0.997431
0.999171 1 1.00108 0.998096
1.00013 1.00047 1.00189 0.997779
0.99928 1 1.00123 0.998056
0.999628 1 1.0011 0.998532
0.998926 1 1.00048 0.998447
1.0006 1 1.00186 0.998746
1.00072 1 1.00212 0.998604
0.999511 1 1.00114 0.998371
0.999238 1 1 0.999238
0.99952 1 1.00057 0.998952
0.999621 1 1.0009 0.998718
0.999827 1 1 0.999827
0.999384 1 1 0.999384
0.999046 1 1 0.999046
0.999473 1 1 0.999473
0.999865 1 1 0.999865
1 1 1 1
0.999884 1 1 0.999884
1 1 1 1
1 1 1 1
1 1 1 1
1 1 1 1
1 1 1 1
0.999423 1 1 0.999423
0.999837 1 1 0.999837
0.999442 1 1 0.999442
1 1 1 1
0.999851 1 1 0.999851
0.999526 1 1 0.999526
1 1 1 1
1 1 1 1
0.999868 1 1 0.999868
1 1 1 1
1 1 1 1
1 1 1 1
0.960755 0.977308 0.985495 0.997531
0.950874 0.965799 0.987538 0.99697
0.959412 0.97285 0.992456 0.993683
0.999149 1 1 0.999149
0.999043 1 1 0.999043
0.999219 1 1 0.999219
0.999165 1 1 0.999165
0.999052 1 1 0.999052
0.999064 1 1 0.999064
0.998969 1 1 0.998969
0.953785 0.966698 0.992913 0.993684
0.961786 0.976558 0.989841 0.994981
0.954485 0.96522 0.994487 0.99436
0.923395 0.982009 0.950122 0.989674
0.952033 0.962744 0.995969 0.992877
0.962041 0.962056 1.01247 0.987669
0.910413 0.939778 0.982211 0.986298
0.947651 0.962475 0.991749 0.992789
0.963977 0.961957 1.01615 0.986177
0.921696 0.952488 0.980946 0.986468
0.903991 0.95809 0.954281 0.988739
0.946698 0.962227 0.989374 0.994427
0.967573 0.96609 1.01591 0.985853
0.920885 0.954429 0.977408 0.987156
0.882861 0.945115 0.946614 0.986813
0.998969 1 1.00002 0.998947
0.998899 1 1.00002 0.998879
0.998964 1 1.00008 0.998882
0.99903 1 1 0.99903
0.988836 0.993972 0.99544 0.99939
1.00102 0.990248 1.01138 0.999505
0.998785 1 1 0.998782
1.00109 1 1.00232 0.998773
1.0122 1 1.01328 0.998935
0.99922 1 1.00035 0.998871
1.01092 1 1.01197 0.998962
0.990919 0.979115 1.01299 0.999078
0.997302 0.990534 1.0072 0.99964
1.00441 0.999933 1.00543 0.99905
0.995334 0.97631 1.02049 0.999013
1.01061 0.995222 1.01616 0.999315
0.961494 0.968659 0.99513 0.99746
0.972283 0.979662 0.994106 0.998352
0.959522 0.967436 0.993963 0.997843
1.00521 0.993332 1.01216 0.999805
0.979406 0.971764 1.00903 0.998847
0.960256 0.977635 0.984255 0.997936
0.97365 0.965391 1.02326 0.985629
0.908381 0.942051 0.977921 0.986029
0.955844 0.966799 0.994248 0.994388
0.872311 0.935384 0.946427 0.985359
1.00869 0.980468 1.029 0.999791
0.951316 0.966275 0.987471 0.997011
0.966343 0.979089 0.995992 0.990954
0.95642 0.966714 0.992175 0.997154
0.818119 0.890031 0.934377 0.98376
0.889925 0.938995 0.960978 0.986227
0.972472 0.965418 1.02096 0.986624
0.999292 0.981442 1.01893 0.999273
0.959615 0.972678 0.992759 0.993766
0.8874 0.921962 0.975311 0.986877
0.851237 0.908258 0.949709 0.986849
0.958737 0.958263 1.0138 0.986881
0.940598 0.961315 0.984864 0.993486
1.01119 0.996158 1.0155 0.99959
1.0188 0.995806 1.02358 0.999522
1.01347 1 1.01411 0.99937
1.0079 0.999508 1.009 0.999402
1.0169 0.999405 1.01854 0.998978
1.01049 1.00044 1.01183 0.998234
1.00729 1 1.0088 0.998501
1.01355 1 1.01568 0.997906
1.00777 1.00017 1.01015 0.997476
1.00386 1 1.00587 0.998011
1.00386 1.00037 1.00603 0.997477
1.00334 1.00205 1.004 0.997287
1.00267 1.00523 1 0.997446
1.00217 1.0038 1.00077 0.997614
1.00191 1.00236 1.00218 0.99738
0.998437 1 1.00013 0.998311
0.998884 1 1.00074 0.998142
1.00022 1.00058 1.0019 0.99775
0.999676 1 1.00112 0.998562
0.999607 1 1.00108 0.998525
0.998951 1 1.00043 0.998526
0.999524 1 1.00049 0.999031
1.00042 1 1.00165 0.998778
1.00073 1 1.0021 0.998635
0.999723 1 1 0.999723
0.999259 1 1.00002 0.999238
0.999415 1 1.00046 0.998954
1 1 1 1
0.999821 1 1 0.999821
0.999383 1 1 0.999383
0.999861 1 1 0.999861
1 1 1 1
1 1 1 1
1 1 1 1
1 1 1 1
1 1 1 1
0.999144 1 1 0.999144
0.999381 1 1 0.999381
0.9998 1 1 0.9998
0.999422 1 1 0.999422
1 1 1 1
0.99984 1 1 0.99984
0.999459 1 1 0.999459
1 1 1 1
1 1 1 1
0.999879 1 1 0.999879
1 1 1 1
1 1 1 1
1 1 1 1
0.950246 0.966456 0.986247 0.996939
0.960512 0.977492 0.984867 0.997727
0.949954 0.966207 0.986151 0.996985
0.999158 1 1 0.999158
0.999029 1 1 0.999029
0.998964 1 1 0.998964
0.999031 1 1 0.999031
0.998946 1 1 0.998946
0.999164 1 1 0.999164
0.999035 1 1 0.999035
0.999064 1 1 0.999064
0.998967 1 1 0.998967
0.999012 1 1 0.999012
0.95899 0.971497 0.996129 0.990962
0.956691 0.969326 0.993221 0.993702
0.961058 0.974305 0.990641 0.995722
0.901517 0.956817 0.952852 0.988826
0.920372 0.946633 0.984643 0.987423
0.940583 0.958327 0.989442 0.991957
0.971977 0.969221 1.01642 0.986644
0.948411 0.963707 0.991489 0.992576
0.978872 0.974293 1.01839 0.98656
0.911988 0.948864 0.973852 0.986944
0.883811 0.946792 0.946493 0.986251
0.967654 0.97137 1.00247 0.993719
0.967879 0.967292 1.01381 0.986978
0.875082 0.926892 0.957644 0.985861
0.844257 0.914908 0.937017 0.984804
1.0001 1 1.00082 0.999276
0.999681 1 1.00073 0.998949
0.999284 1 1.00041 0.998878
0.988302 0.977364 1.01267 0.998538
0.998844 0.990458 1.00872 0.999748
0.999407 1 1.00054 0.998866
1.01232 1 1.01338 0.998948
1.00492 0.999964 1.00591 0.999057
1.01121 0.996572 1.0154 0.999306
0.992848 0.974006 1.02031 0.99905
1.01017 0.999765 1.01106 0.999351
0.99744 0.9837 1.01515 0.998832
0.963146 0.972759 0.996035 0.994059
0.960302 0.967945 0.994426 0.997665
0.967906 0.977644 0.991488 0.99854
1.01382 0.983207 1.03131 0.999829
0.956869 0.968691 0.993417 0.994341
0.950247 0.96644 0.986178 0.997026
0.970758 0.969142 1.01714 0.984788
0.884583 0.931326 0.963269 0.986028
0.969922 0.979753 0.999044 0.990913
0.812847 0.890594 0.928967 0.982492
0.997679 0.97966 1.01904 0.999365
0.961169 0.973723 0.993298 0.993767
0.878339 0.915125 0.973091 0.986343
0.942615 0.963667 0.983586 0.994477
0.859889 0.914144 0.954329 0.985666
0.94898 0.956501 1.00635 0.98588
0.976444 0.981495 0.996237 0.998611
0.910117 0.930707 0.988909 0.988844
0.858396 0.905902 0.960957 0.986057
0.962361 0.968395 1.00731 0.98656
0.946677 0.961892 0.989369 0.994758
1.01859 0.994573 1.02464 0.999515
1.01495 0.999215 1.01641 0.999347
0.993641 1.00055 0.994269 0.998824
1.01616 0.998732 1.01843 0.999043
1.01103 1.00062 1.0121 0.998322
1.00236 1.00177 1.00272 0.997887
1.01241 1 1.01458 0.997858
1.00652 1.00031 1.00874 0.997489
0.999405 1.00147 1.00037 0.997576
1.00361 1 1.0062 0.997426
1.00355 1.00299 1.00327 0.997304
1.00494 1.00737 1 0.99759
1.0093 1.0116 1 0.997724
1.00537 1.00789 1.00002 0.997483
1.0025 1.00505 1 0.99746
0.999919 1.00203 1 0.997892
1.00111 1.00247 1.00107 0.997569
1.00239 1.00263 1.00244 0.997329
0.998462 1 1 0.998462
0.998392 1 1.00002 0.998368
0.998506 1 1.00032 0.998189
0.999354 1 1.00053 0.998829
0.999795 1 1.00122 0.998581
0.999612 1 1.0011 0.998518
0.99953 1 1 0.99953
0.999531 1 1.0005 0.999032
1.00028 1 1.00147 0.998809
1 1 1 1
0.999718 1 1 0.999718
0.999303 1 1.00006 0.999239
1 1 1 1
1 1 1 1
0.999816 1 1 0.999816
1 1 1 1
1 1 1 1
1 1 1 1
0.999065 1 1 0.999065
0.999329 1 1 0.999329
0.999132 1 1 0.999132
0.999771 1 1 0.999771
0.999381 1 1 0.999381
1 1 1 1
0.999803 1 1 0.999803
0.99942 1 1 0.99942
1 1 1 1
1 1 1 1
0.999844 1 1 0.999844
1 1 1 1
1 1 1 1
1 1 1 1
0.961563 0.975058 0.991822 0.994292
0.950078 0.965855 0.98667 0.996955
0.96021 0.97751 0.984346 0.997924
0.99896 1 1 0.99896
0.999168 1 1 0.999168
0.999015 1 1 0.999015
0.999044 1 1 0.999044
0.998979 1 1 0.998979
0.998944 1 1 0.998944
0.998864 1 1 0.998864
0.998962 1 1.00004 0.998923
0.999064 1 1 0.999064
0.998965 1 1 0.998965
0.999048 1 1.00004 0.999004
0.999207 1 1.00011 0.999098
0.88 0.918478 0.9718 0.985909
0.96189 0.974045 0.996581 0.990908
0.958308 0.970483 0.993695 0.99372
0.878808 0.944087 0.943932 0.986146
0.919187 0.955323 0.975433 0.986406
0.967552 0.9652 1.01677 0.985903
0.950841 0.963032 0.993863 0.993438
0.967574 0.969762 1.00247 0.995289
0.829125 0.903632 0.932845 0.9836
0.967197 0.965174 1.01659 0.98574
0.881399 0.934641 0.955826 0.986617
0.958798 0.969306 0.993473 0.995658
0.958823 0.959553 1.01184 0.987543
0.855845 0.913323 0.950006 0.986381
1.00002 1 1.00041 0.999618
0.999831 1 1.00055 0.999277
1.00021 1 1.00126 0.998951
0.992499 0.974183 1.01974 0.999078
1.01288 0.998967 1.01464 0.999296
1.00531 1 1.00625 0.999064
1.00977 0.999966 1.01046 0.99935
0.997232 0.984972 1.01358 0.998878
1.00263 0.994138 1.00939 0.999168
0.90927 0.931635 0.987922 0.987926
0.962277 0.972044 0.995099 0.994828
0.959191 0.967196 0.993842 0.997869
0.996734 0.977874 1.01984 0.999454
0.941059 0.965547 0.979344 0.995194
0.96128 0.974637 0.992475 0.993774
0.95696 0.95831 1.01113 0.987597
0.868737 0.92605 0.951268 0.986168
0.871803 0.914845 0.96628 0.986207
0.976419 0.981958 0.995687 0.998666
0.899361 0.928465 0.979865 0.988557
0.872728 0.911594 0.970175 0.986796
0.946991 0.960551 0.992976 0.992857
0.95106 0.964636 0.99858 0.987328
0.966179 0.988345 0.97836 0.999195
0.885126 0.922972 0.971518 0.98711
0.9581 0.974598 0.995123 0.987889
0.960268 0.974376 0.992815 0.992654
1.01708 0.998229 1.01958 0.999324
0.989842 1.00028 0.990637 0.998914
0.982443 1.00236 0.981634 0.998471
1.01202 1.00088 1.01274 0.998409
1.00319 1.00219 1.00313 0.997878
1.00067 1.0032 0.999428 0.998054
1.00555 1.00049 1.00757 0.997503
0.99952 1.00108 1.00085 0.99759
1.00834 1.01034 1 0.99802
1.00385 1.00395 1.00259 0.997322
1.00477 1.0072 1 0.997596
1.01211 1.01408 1 0.998054
1.01498 1.01697 1 0.998046
1.00974 1.0121 1 0.997673
1.00907 1.01135 1 0.997746
1.00407 1.00639 1 0.997699
1.00481 1.00731 1 0.997522
1.00231 1.00484 1 0.997474
0.99857 1.00034 1 0.998229
1.00046 1.00241 1.00014 0.997908
1.00021 1.00121 1.00148 0.997523
0.99868 1 1 0.99868
0.998457 1 1 0.998457
0.998424 1 1 0.998424
0.999304 1 1 0.999304
0.999276 1 1.00044 0.998832
0.999888 1 1.00129 0.998599
0.999992 1 1 0.999992
0.999527 1 1 0.999527
0.999471 1 1.00044 0.999033
1 1 1 1
0.999999 1 1 0.999999
0.999712 1 1 0.999712
1 1 1 1
1 1 1 1
1 1 1 1
0.999037 1 1 0.999037
0.999067 1 1 0.999067
0.999258 1 1 0.999258
0.999741 1 1 0.999741
0.999329 1 1 0.999329
0.99912 1 1 0.99912
0.999999 1 1 0.999999
0.999774 1 1 0.999774
0.99938 1 1 0.99938
1 1 1 1
1 1 1 1
0.999806 1 1 0.999806
1 1 1 1
1 1 1 1
1 1 1 1
0.902847 0.924874 0.988431 0.987609
0.961292 0.973808 0.992803 0.994304
0.95027 0.965638 0.987076 0.99697
0.998947 1 1 0.998947
0.998896 1 1 0.998896
0.998874 1 1 0.998874
0.999058 1 1 0.999058
0.998993 1 1 0.998993
0.998941 1 1 0.998941
0.998945 1 1.00002 0.998921
0.998885 1 1.00002 0.998864
0.998844 1 1.00006 0.998783
0.999118 1 1 0.999118
0.998996 1 1 0.998996
0.99909 1 1 0.99909
0.870088 0.90957 0.969696 0.986487
0.875489 0.913002 0.973133 0.985386
0.965508 0.977246 0.997103 0.990859
0.813599 0.890012 0.930531 0.982389
0.882335 0.932 0.960317 0.985832
0.970809 0.968682 1.01432 0.988049
0.967663 0.966738 1.00752 0.993488
0.956788 0.966809 0.995567 0.994041
0.856065 0.906781 0.95805 0.985408
0.951142 0.956938 1.00663 0.987392
0.956116 0.968518 0.992604 0.994551
0.950871 0.967068 0.996317 0.986886
1.00728 1 1.00819 0.999096
0.999835 1 1.00027 0.999569
0.999339 1 1.00006 0.999279
0.993998 0.983201 1.01207 0.998922
1.00924 1 1.00989 0.99935
1.00302 0.994833 1.00918 0.999064
0.995025 0.998477 0.998169 0.998371
0.883244 0.932482 0.959483 0.987196
0.91291 0.931731 0.991067 0.988631
0.962458 0.971658 0.994918 0.995591
0.97492 0.982651 0.993377 0.998747
0.9469 0.960497 0.992069 0.993725
0.899809 0.929644 0.979045 0.988623
0.949737 0.961858 1.00078 0.986629
0.87517 0.917176 0.967493 0.986261
0.969764 0.989227 0.981516 0.998787
0.888461 0.927563 0.970776 0.986679
0.959916 0.976341 0.996289 0.986838
0.964758 0.974213 0.996026 0.994246
0.983159 0.996456 0.987641 0.999002
0.957538 0.979558 0.990439 0.986957
0.973581 0.987694 0.990391 0.995275
0.985962 1 0.986946 0.999003
0.983398 1.00298 0.982002 0.99845
0.98408 1.00584 0.979979 0.998354
1.00362 1.00253 1.00322 0.99787
1.00007 1.00338 0.998648 0.998049
1.01049 1.01486 0.997227 0.998458
0.999499 1.00062 1.00127 0.997605
1.00816 1.01016 1 0.998013
1.01692 1.0186 0.999937 0.998415
1.00449 1.0069 1 0.997601
1.0116 1.01358 1 0.998054
1.01603 1.01772 1 0.998339
1.01368 1.01546 1 0.998239
1.01482 1.01677 1 0.998084
1.01413 1.0162 1 0.997959
1.0097 1.01196 1 0.997761
1.01043 1.01278 1 0.997677
1.00886 1.01112 1 0.997769
1.00002 1.00206 1 0.997957
1.00466 1.00695 1 0.997734
1.00424 1.00669 1 0.997561
0.998507 1 1 0.998507
0.998922 1.0007 1 0.998223
1.00084 1.00275 1.00017 0.997924
0.999135 1 1 0.999135
0.99868 1 1 0.99868
0.998452 1 1 0.998452
0.99995 1 1 0.99995
0.999304 1 1 0.999304
0.999244 1 1.00041 0.998834
1 1 1 1
0.999982 1 1 0.999982
0.999523 1 1 0.999523
1 1 1 1
0.999998 1 1 0.999998
1 1 1 1
0.998967 1 1 0.998967
0.999026 1 1 0.999026
0.999181 1 1 0.999181
0.999068 1 1 0.999068
0.999258 1 1 0.999258
0.999687 1 1 0.999687
0.999997 1 1 0.999997
0.999743 1 1 0.999743
0.99933 1 1 0.99933
1 1 1 1
0.999999 1 1 0.999999
0.999776 1 1 0.999776
1 1 1 1
1 1 1 1
1 1 1 1
0.893141 0.92683 0.9766 0.986742
0.903913 0.927944 0.986637 0.987296
0.96056 0.972147 0.993731 0.994315
0.998934 1 1 0.998934
0.998849 1 1 0.998849
0.998926 1 1 0.998926
0.998726 1 1 0.998726
0.998807 1 1 0.998807
0.998918 1 1 0.998918
0.998882 1 1.00002 0.998864
0.998823 1 1.00002 0.998804
0.998683 1 1 0.998683
0.998945 1 1 0.998945
0.998856 1.00034 1.00026 0.998264
0.99943 1 1.00027 0.999162
0.999083 1 1 0.999083
0.955025 0.976672 0.991185 0.986531
0.873886 0.90946 0.974167 0.986366
0.877077 0.916034 0.971783 0.985274
0.855347 0.907167 0.956418 0.985841
0.955685 0.959057 1.01101 0.985636
0.95944 0.966308 0.997093 0.995787
0.957363 0.968975 0.99239 0.995594
0.954753 0.96827 0.998158 0.98786
0.973881 0.99018 0.988886 0.994593
1.00154 1.00132 1.00193 0.998297
1.00573 1 1.00666 0.999076
0.999519 1 1 0.999519
1.00355 0.996564 1.00804 0.998974
0.998232 1.00059 0.999376 0.998266
0.94379 0.974576 0.98037 0.987801
0.891234 0.932129 0.968851 0.986868
0.917155 0.932176 0.994483 0.989345
0.972915 0.989937 0.984416 0.998364
0.958829 0.968619 0.997135 0.992737
0.889494 0.9258 0.973971 0.986461
0.959275 0.973773 0.997307 0.987771
0.981856 0.996375 0.986408 0.999006
0.959715 0.981694 0.989341 0.988143
0.97503 0.988514 0.992672 0.993641
1.00026 1.00533 0.996467 0.998485
0.985604 0.996657 0.992133 0.996752
0.984355 1.00371 0.982257 0.998431
0.986111 1.00545 0.982431 0.998307
1.00465 1.0228 0.983788 0.998438
0.999738 1.00358 0.998123 0.998044
1.0096 1.01406 0.997149 0.998448
1.01692 1.02306 0.995389 0.998604
1.00803 1.01004 1 0.998006
1.01682 1.01873 0.999723 0.9984
1.01781 1.0198 0.999548 0.9985
1.01122 1.0132 1 0.998053
1.01631 1.01802 1 0.998324
1.0139 1.01558 1 0.998345
1.01435 1.0161 1 0.998276
1.01338 1.0153 1 0.998105
1.01467 1.01658 1 0.998121
1.01389 1.01597 1 0.997953
1.01138 1.01352 1 0.997889
1.00439 1.00652 1 0.997886
1.00945 1.01172 1 0.997753
1.01109 1.01344 1 0.997681
0.998617 1.00031 1 0.998311
1.00039 1.00242 1 0.997979
1.00527 1.00751 1 0.997769
0.998995 1 1 0.998995
0.998502 1 1 0.998502
0.999282 1.00107 1 0.998216
0.999867 1 1 0.999867
0.999136 1 1 0.999136
0.998679 1 1 0.998679
1 1 1 1
0.999933 1 1 0.999933
0.999304 1 1 0.999304
1 1 1 1
0.999973 1 1 0.999973
1 1 1 1
0.998744 1 1 0.998744
0.998967 1 1 0.998967
0.999061 1 1 0.999061
0.999015 1 1 0.999015
0.999161 1 1 0.999161
0.999583 1 1 0.999583
0.999258 1 1 0.999258
0.999689 1 1 0.999689
0.999994 1 1 0.999994
1 1 1 1
0.999998 1 1 0.999998
0.999745 1 1 0.999745
1 1 1 1
0.999999 1 1 0.999999
1 1 1 1
0.959393 0.980614 0.989952 0.988291
0.88586 0.928876 0.966064 0.987192
0.913112 0.933366 0.990947 0.987237
0.998824 1 1 0.998824
0.998955 1 1 0.998955
0.998817 1 1 0.998817
0.998737 1 1 0.998737
0.99862 1.00014 1.00002 0.998461
0.998736 1 1 0.998736
0.998825 1 1 0.998825
0.99861 1 1 0.99861
0.99917 1 1.00026 0.998909
0.998515 1 1 0.998515
1.00052 1.00213 1 0.998393
0.998538 1.00129 0.999422 0.997829
0.999219 1.00081 1.00006 0.998357
0.999728 1 1.00052 0.999207
0.971852 0.989107 0.987727 0.994764
0.956895 0.976983 0.991951 0.987387
0.868399 0.910256 0.967333 0.986235
0.966409 0.974429 1.00522 0.986616
0.955299 0.968488 0.989947 0.996399
0.978397 0.991601 0.990179 0.99647
0.993914 1.00393 0.991608 0.998405
0.999191 1.00067 1.00015 0.998368
1.00468 1 1.00563 0.999057
0.997681 1.00112 0.998415 0.998146
0.972285 0.984001 0.993356 0.994702
0.95297 0.976326 0.987044 0.98889
0.884285 0.928343 0.964696 0.9874
0.982461 0.997946 0.985462 0.999008
0.981123 0.990783 0.995368 0.994858
0.962204 0.98232 0.990064 0.989352
0.994176 1.00467 0.991042 0.998494
0.983634 0.995252 0.992145 0.996151
1.00337 1.02228 0.983227 0.998243
1.00645 1.01467 0.993844 0.998048
0.987795 1.00485 0.984738 0.998258
1.00513 1.02252 0.984538 0.99843
1.00849 1.02706 0.983434 0.998458
1.00883 1.01351 0.996942 0.998437
1.01661 1.0227 0.995447 0.998591
1.01367 1.01978 0.995568 0.998437
1.01665 1.01882 0.999485 0.998385
1.01743 1.01962 0.999359 0.998485
1.01543 1.01761 0.999563 0.998292
1.01656 1.01828 0.999994 0.99831
1.01361 1.01529 0.999997 0.998345
1.01355 1.01547 1 0.998117
1.015 1.01672 1 0.998314
1.01314 1.01503 1 0.998134
1.01209 1.01417 1 0.997946
1.01369 1.01578 1 0.997947
1.01133 1.01347 1 0.997881
1.00621 1.00828 1 0.997946
0.99918 1.00103 1 0.998156
1.00418 1.00629 1 0.997905
1.00923 1.01151 1 0.997745
0.998834 1 1 0.998834
0.99876 1.00045 1 0.998311
1.00078 1.00278 1 0.998001
0.99976 1 1 0.99976
0.998993 1 1 0.998993
0.9985 1 1 0.998498
1 1 1 1
0.999852 1 1 0.999852
0.999137 1 1 0.999137
1 1 1 1
0.999916 1 1 0.999916
1 1 1 1
0.999485 1.00098 1 0.998504
0.998755 1 1 0.998755
0.998902 1 1 0.998902
0.998966 1 1 0.998966
0.999045 1 1 0.999045
0.999438 1 1 0.999438
0.999142 1 1 0.999142
0.999585 1 1 0.999585
0.999986 1 1 0.999986
0.999691 1 1 0.999691
0.999995 1 1 0.999995
1 1 1 1
1 1 1 1
0.999998 1 1 0.999998
1 1 1 1
0.971567 0.986122 0.990149 0.995042
0.954961 0.980023 0.98669 0.987573
0.880705 0.925514 0.964476 0.986633
1.00243 1.00422 1.00007 0.998158
0.998828 1 1 0.998828
0.998748 1 1 0.998748
0.998717 1 1 0.998717
0.998892 1.00032 1.00012 0.99845
0.999367 1.00071 1 0.998659
0.998538 1 1 0.998538
0.999409 1 1.00054 0.998874
0.998559 1 1 0.998559
0.999876 1.0015 1 0.998374
1.00118 1.00332 1 0.997858
1.00325 1.0058 0.999725 0.997737
0.999605 1.00195 0.999867 0.997787
0.999785 1.00134 1 0.998451
0.998006 1.0062 0.992989 0.998858
0.971878 0.989731 0.987893 0.993996
0.960146 0.977903 0.993288 0.988476
0.973589 0.987926 0.990393 0.995047
0.998158 1.00594 0.99358 0.998674
0.999499 1.0002 1.00086 0.99844
1.00112 1.00668 0.996298 0.998167
0.970168 0.980052 0.994022 0.995868
0.948005 0.976415 0.982814 0.987881
0.987388 1.003 0.985913 0.998501
0.98519 0.995925 0.993758 0.995434
1.00424 1.02308 0.983298 0.998263
1.00551 1.01294 0.994486 0.998163
1.01024 1.02771 0.984741 0.998227
1.01673 1.02137 0.997298 0.998154
1.00582 1.02221 0.985526 0.998421
1.01077 1.02813 0.984632 0.998461
1.00669 1.02008 0.988546 0.998305
1.01622 1.02218 0.995581 0.998579
1.01461 1.02028 0.995999 0.998435
1.01527 1.01905 0.998108 0.998178
1.01714 1.01948 0.999231 0.998471
1.0155 1.01757 0.999667 0.998307
1.01495 1.01696 1 0.998022
1.01334 1.01502 1 0.998344
1.01313 1.01504 1 0.998117
1.01404 1.01615 1 0.997918
1.0129 1.01477 1 0.998163
1.01214 1.01421 1 0.997962
1.00741 1.00952 1 0.99791
1.01125 1.0134 1 0.997874
1.00618 1.00827 1 0.997927
1.00056 1.00243 1 0.998133
0.998707 1 1 0.998707
0.999386 1.00121 1 0.998181
1.00395 1.00604 1 0.997925
0.999649 1 1 0.999649
0.998833 1 1 0.998833
0.998924 1.00061 1 0.998311
1 1 1 1
0.999749 1 1 0.999749
0.998991 1 1 0.998991
1 1 1 1
0.999837 1 1 0.999837
1 1 1 1
1.00083 1.00261 1 0.998218
0.999057 1.00055 1 0.998509
0.99871 1 1 0.99871
0.998774 1 1.00001 0.998767
0.998909 1 1 0.998909
0.999287 1 1 0.999287
0.999028 1 1 0.999028
0.999437 1 1 0.999437
0.99996 1 1 0.99996
0.999586 1 1 0.999586
0.999989 1 1 0.999989
1 1 1 1
0.999996 1 1 0.999996
1 1 1 1
1 1 1 1
1.00301 1.01047 0.993777 0.998841
0.968436 0.985452 0.98913 0.993533
0.957143 0.976108 0.991949 0.98853
1.00417 1.00586 1.00001 0.998307
1.00646 1.00856 1 0.997924
1.00234 1.00402 1.00013 0.998194
0.998699 1 1 0.998699
0.999201 1.00052 1.00024 0.998438
0.999827 1.00122 1 0.998607
1.00529 1.00733 1 0.997978
0.998604 1 1 0.998604
0.999122 1.00077 1 0.998354
1.00147 1.00357 1 0.99791
1.00807 1.01053 1 0.997573
1.01184 1.01647 0.99739 0.998056
1.00302 1.00574 0.999576 0.997718
1.00036 1.00262 0.999999 0.997745
1.00135 1.00864 0.993815 0.99895
0.972301 0.989476 0.989493 0.993076
0.999218 1.00733 0.992992 0.998949
1.0135 1.01893 0.996007 0.998659
0.999854 1.00539 0.996247 0.998239
0.969104 0.982714 0.991796 0.994309
1.00529 1.02395 0.983464 0.998283
1.00396 1.01146 0.994291 0.99828
1.00893 1.02758 0.983546 0.998279
1.01901 1.0236 0.997341 0.998165
1.01392 1.02418 0.991793 0.998177
1.02615 1.03099 0.997014 0.99828
1.01285 1.02951 0.985333 0.998465
1.00705 1.01964 0.989324 0.998309
1.01775 1.02431 0.995503 0.998089
1.01547 1.02076 0.996378 0.998432
1.01551 1.01876 0.998628 0.998176
1.01797 1.02013 0.999926 0.997961
1.01549 1.01747 0.999733 0.998322
1.01485 1.01686 1 0.998021
1.01686 1.01907 1 0.997836
1.01267 1.01458 1 0.998118
1.01395 1.01607 1 0.997919
1.00901 1.01118 1 0.99785
1.01219 1.01424 1 0.997977
1.00738 1.00949 1 0.997913
1.00095 1.00288 1 0.998077
1.00616 1.00827 1 0.997908
1.00052 1.0024 1 0.998122
0.998632 1 1 0.998632
0.99957 1 1 0.99957
0.998707 1 1 0.998707
0.999577 1.00137 1 0.998205
1 1 1 1
0.999638 1 1 0.999638
0.998832 1 1 0.998832
1 1 1 1
0.999736 1 1 0.999736
1 1 1 1
1.00061 1.00264 1 0.997969
1.00054 1.00235 1 0.998192
0.998654 1.0002 1 0.998455
0.998634 1.00012 1 0.998514
0.998715 1 1 0.998715
0.999127 1 1 0.999127
0.998917 1 1 0.998917
0.999287 1 1 0.999287
0.999906 1 1 0.999906
0.999437 1 1 0.999437
0.999969 1 1 0.999969
1 1 1 1
0.999992 1 1 0.999992
1 1 1 1
1 1 1 1
1.01243 1.01979 0.994306 0.998467
1.00021 1.00951 0.992213 0.998571
0.966342 0.985318 0.98632 0.994344
1.01036 1.01243 1 0.997948
1.00266 1.0042 1 0.998468
1.01409 1.01634 1 0.997792
1.00626 1.00836 1 0.997909
1.00223 1.00383 1.00018 0.998232
1.0161 1.01852 1 0.997622
1.0003 1.00175 1 0.998556
1.00522 1.00731 1 0.997922
1.02094 1.02338 0.999867 0.997743
1.00163 1.00368 1 0.997962
1.00868 1.01117 1 0.997545
1.01156 1.0155 0.998049 0.998067
1.00239 1.00499 0.999718 0.997697
1.00382 1.01051 0.994333 0.999045
1.02456 1.0288 0.997514 0.998359
1.01321 1.01873 0.99591 0.99866
0.999053 1.00409 0.996669 0.998308
1.00776 1.02714 0.982765 0.998332
1.02006 1.02484 0.99716 0.998177
1.01353 1.02446 0.991129 0.998191
1.02654 1.0321 0.99632 0.998285
1.02638 1.03255 0.995833 0.998179
1.00739 1.01907 0.990209 0.998313
1.01774 1.02393 0.995851 0.998096
1.02132 1.02525 0.998207 0.997957
1.01576 1.0185 0.999133 0.998175
1.01765 1.01979 0.999956 0.997945
1.01921 1.02149 1 0.997761
1.01482 1.01683 1 0.99802
1.0167 1.01891 1 0.997834
1.01168 1.01395 1 0.997765
1.01389 1.01601 1 0.997919
1.00918 1.01135 1 0.997851
1.00154 1.00356 1 0.997989
1.00735 1.00946 1 0.997917
1.0011 1.00302 1 0.998079
0.998559 1 1 0.998559
1.00046 1.00235 1 0.998111
0.998631 1 1 0.998631
0.999598 1 1 0.999598
0.999892 1 1 0.999892
0.99959 1 1 0.99959
0.998707 1 1 0.998707
1 1 1 1
0.999627 1 1 0.999627
1 1 1 1
1.01882 1.02103 1 0.997835
1.00612 1.00824 1 0.9979
1.00052 1.00257 1 0.997951
0.999762 1.0015 1 0.998264
1.00021 1.00205 1 0.998166
0.998566 1.00011 1 0.998459
0.998952 1 1 0.998952
0.998719 1 1 0.998719
0.99913 1 1 0.99913
0.999815 1 1 0.999815
0.999287 1 1 0.999287
0.999922 1 1 0.999922
1 1 1 1
0.999978 1 1 0.999978
1 1 1 1
1 1 1 1
1.02556 1.02831 0.999207 0.998118
1.01607 1.02294 0.994718 0.998551
0.99911 1.00962 0.991277 0.998301
1.01846 1.02082 1 0.997688
1.00925 1.01125 1 0.998023
1.00109 1.00247 1 0.998627
1.0143 1.01652 1 0.997814
1.00606 1.00818 1 0.997894
1.02376 1.02609 1 0.997725
1.01476 1.01722 1 0.997585
1.00526 1.00741 1 0.997866
1.02058 1.02293 0.99997 0.997737
1.01035 1.01286 1 0.997517
1.01349 1.01676 0.9987 0.998081
1.03012 1.03353 0.99843 0.998265
1.02621 1.02995 0.997996 0.998365
1.01408 1.01869 0.996801 0.998662
1.01396 1.02557 0.990455 0.998205
1.02751 1.0335 0.99591 0.998291
1.02636 1.03323 0.99515 0.998194
1.02638 1.02943 0.999021 0.998011
1.01766 1.02346 0.996217 0.998103
1.02174 1.02505 0.998821 0.99795
1.02134 1.02364 1 0.997752
1.01731 1.01942 1 0.997929
1.0194 1.02169 1 0.997761
1.0148 1.01715 1 0.997691
1.01652 1.01873 1 0.997833
1.01178 1.01405 1 0.997765
1.00245 1.00457 1 0.997892
1.00933 1.0115 1 0.997852
1.00179 1.00381 1 0.997989
0.998465 1 1 0.998465
1.00125 1.00317 1 0.998081
0.998557 1 1 0.998557
0.999593 1 1 0.999593
0.998629 1 1 0.998629
0.999594 1 1 0.999594
0.999897 1 1 0.999897
0.999947 1 1 0.999947
0.999611 1 1 0.999611
1 1 1 1
1.02044 1.0228 1 0.997693
1.00975 1.01186 1 0.997914
1.01869 1.02081 1 0.997929
1.00088 1.00275 1 0.998133
1.00683 1.00896 1 0.997894
1.00045 1.00252 1 0.997934
0.999303 1.00104 1 0.998263
0.998784 1 1 0.998784
0.998499 1.00004 1 0.998463
0.998955 1 1 0.998955
0.999699 1 1 0.999699
0.999133 1 1 0.999133
0.999832 1 1 0.999832
1 1 1 1
0.999938 1 1 0.999938
1 1 1 1
1 1 1 1
1.02753 1.02972 0.999878 0.997997
1.02536 1.02818 0.999143 0.998115
1.01733 1.0246 0.994263 0.998631
1.02397 1.02635 1 0.997681
1.01789 1.02025 1 0.997691
1.00824 1.01016 1 0.998099
1.01442 1.01662 1 0.997836
1.02369 1.02604 1 0.997708
1.0133 1.01579 1 0.997549
1.01848 1.02079 1 0.997731
1.02924 1.0317 0.999546 0.998072
1.02965 1.0331 0.998438 0.998228
1.0282 1.03172 0.998219 0.998371
1.0249 1.02743 0.999627 0.99791
1.02625 1.03386 0.994424 0.998208
1.02601 1.02937 0.998733 0.998003
1.02299 1.02522 1 0.997821
1.02217 1.02488 0.999416 0.997942
1.02161 1.02391 1 0.997755
1.01733 1.01973 1 0.997652
1.01957 1.02185 1 0.997761
1.01454 1.01689 1 0.997692
1.0038 1.00601 1 0.997809
1.01188 1.01415 1 0.997765
1.00282 1.00494 1 0.997892
0.998369 1 1 0.998369
1.00205 1.00407 1 0.99799
0.998464 1 1 0.998464
0.999573 1 1 0.999573
0.998555 1 1 0.998555
0.999587 1 1 0.999587
0.9999 1 1 0.9999
0.999591 1 1 0.999591
0.999899 1 1 0.999899
1 1 1 1
1.02102 1.02348 1 0.997595
1.0124 1.0147 1 0.99774
1.02092 1.02326 1 0.997716
1.00107 1.00298 1 0.9981
1.00959 1.0117 1 0.997914
1.01864 1.02066 1 0.998022
0.99863 1 1 0.99863
1.00067 1.00255 1 0.998129
1.00765 1.00978 1 0.997888
0.998834 1.00057 1 0.998262
0.998785 1 1 0.998785
0.999596 1 1 0.999596
0.998957 1 1 0.998957
0.999712 1 1 0.999712
1 1 1 1
0.999849 1 1 0.999849
1 1 1 1
1 1 1 1
1.02704 1.02926 0.999976 0.997867
1.02771 1.02994 0.999854 0.997982
1.02583 1.02855 0.999248 0.998112
1.02336 1.02574 1 0.997686
1.01732 1.01967 1 0.997694
1.02362 1.02599 1 0.997692
1.02509 1.02724 1 0.99791
1.02912 1.03162 0.999516 0.998064
1.02864 1.03209 0.998463 0.99819
1.02538 1.02769 0.999822 0.997923
1.02211 1.02439 1 0.997781
1.02565 1.02929 0.99846 0.997995
1.02286 1.02512 1 0.997796
1.01865 1.02102 1 0.997678
1.02185 1.02415 1 0.997757
1.01701 1.0194 1 0.997655
1.00555 1.00782 1 0.997742
1.01434 1.01669 1 0.997693
1.00435 1.00656 1 0.997809
0.998301 1.00001 1 0.998293
1.0032 1.00532 1 0.997892
0.998368 1 1 0.998368
0.999534 1 1 0.999534
0.998462 1 1 0.998462
0.999564 1 1 0.999564
0.99989 1 1 0.99989
0.999582 1 1 0.999582
0.999906 1 1 0.999906
0.999899 1 1 0.999899
1.02271 1.02502 1 0.997749
1.01519 1.01763 1 0.997605
1.0213 1.02375 1 0.997604
1.00281 1.00488 1 0.997939
1.0122 1.01449 1 0.997747
1.02131 1.02362 1 0.99774
0.998514 1 1 0.998514
1.00106 1.00301 1 0.998057
1.00934 1.01145 1 0.997914
0.999531 1 1 0.999531
0.998633 1 1 0.998633
1.00042 1.0023 1 0.998125
0.998787 1 1 0.998787
0.999606 1 1 0.999606
1 1 1 1
0.999725 1 1 0.999725
1 1 1 1
1 1 1 1
1.02344 1.02566 1 0.997829
1.02645 1.02869 0.999952 0.997866
1.02818 1.03047 0.999808 0.997966
1.02278 1.02515 1 0.997691
1.02277 1.02508 1 0.997747
1.02556 1.02781 0.99989 0.997919
1.02892 1.03149 0.999447 0.998056
1.02581 1.02793 0.999996 0.997937
1.02196 1.02422 1 0.997789
1.01739 1.01974 1 0.99769
1.02282 1.02511 1 0.997771
1.0184 1.02078 1 0.997669
1.00686 1.00918 1 0.997703
1.01668 1.01907 1 0.997658
1.00599 1.00827 1 0.997744
0.998241 1.00002 1 0.998223
1.00487 1.00708 1 0.997809
0.998301 1.00001 1 0.998292
0.999429 1 1 0.999429
0.998367 1 1 0.998367
0.999498 1 1 0.999498
1 1 1 1
0.999556 1 1 0.999556
0.999898 1 1 0.999898
0.999908 1 1 0.999908
1.02141 1.02367 1 0.997792
1.01645 1.01884 1 0.997658
1.02237 1.02468 1 0.997747
1.00525 1.00751 1 0.997758
1.0153 1.01772 1 0.997626
1.02168 1.02413 1 0.997612
0.998331 1 1 0.998331
1.00284 1.00491 1 0.997938
1.01206 1.01434 1 0.997754
0.999499 1 1 0.999499
0.998476 1 1 0.998476
1.00108 1.00308 1 0.998013
1 1 1 1
0.999541 1 1 0.999541
0.998635 1 1 0.998635
0.999617 1 1 0.999617
1 1 1 1
1 1 1 1
1.02208 1.02438 1 0.997755
1.02384 1.02606 1 0.997838
1.02584 1.02809 0.999943 0.997865
1.01839 1.0208 1 0.997641
1.02193 1.02424 1 0.997751
1.02605 1.02838 0.9998 0.997927
1.02181 1.02406 1 0.997797
1.01748 1.01984 1 0.997691
1.00688 1.00915 1 0.997746
1.0181 1.02049 1 0.99766
1.00697 1.00925 1 0.997734
0.998143 1.00005 1 0.998093
1.00645 1.00872 1 0.997745
0.998249 1.00003 1 0.998224
0.999378 1 1 0.999378
0.998304 1.00001 1 0.998291
0.999426 1 1 0.999426
1 1 1 1
0.999456 1 1 0.999456
0.99994 1 1 0.99994
0.999905 1 1 0.999905
1.01929 1.02158 1 0.997763
1.01675 1.01909 1 0.997699
1.02129 1.02355 1 0.997793
1.00616 1.00842 1 0.997763
1.01686 1.01925 1 0.997653
1.02202 1.02433 1 0.997745
0.998289 1.00006 1 0.998225
1.00516 1.00737 1 0.997801
1.01537 1.01777 1 0.997648
0.999471 1 1 0.999471
0.998317 1 1 0.998317
1.00285 1.00493 1 0.997937
1 1 1 1
0.999507 1 1 0.999507
0.998437 1 1 0.998437
1 1 1 1
0.999551 1 1 0.999551
1 1 1 1
1.01859 1.02097 1 0.997677
1.02161 1.02391 1 0.99775
1.02428 1.02649 1 0.997847
1.00615 1.00844 1 0.997729
1.01839 1.02079 1 0.997654
1.02115 1.02345 1 0.997756
1.0176 1.01995 1 0.997691
1.0069 1.00918 1 0.997746
0.998148 1.0001 1 0.99805
1.00709 1.00935 1 0.997766
0.998172 1.00005 1 0.998127
0.999312 1 1 0.999312
0.998253 1.00003 1 0.998224
0.999375 1 1 0.999375
1 1 1 1
0.999424 1 1 0.999424
1 1 1 1
0.999892 1 1 0.999892
1.01673 1.01905 1 0.997719
1.01958 1.02186 1 0.99777
1.00565 1.0079 1 0.997769
1.01662 1.01896 1 0.997699
1.02118 1.02344 1 0.997795
0.998323 1.00008 1 0.998241
1.00608 1.00834 1 0.99776
1.01726 1.01966 1 0.997648
0.999431 1 1 0.999431
0.998308 1.00006 1 0.998252
1.00506 1.00723 1 0.997845
1 1 1 1
0.999477 1 1 0.999477
0.998303 1 1 0.998303
1 1 1 1
0.999516 1 1 0.999516
1 1 1 1
1.00576 1.00802 1 0.997765
1.01849 1.02087 1 0.997674
1.02105 1.02336 1 0.997744
0.998051 1 1 0.998047
1.00619 1.00848 1 0.997729
1.01834 1.02073 1 0.997666
1.00693 1.0092 1 0.997746
0.998147 1.00009 1 0.998053
0.99926 1 1 0.99926
0.998203 1.00004 1 0.998161
0.999308 1 1 0.999308
1 1 1 1
0.999371 1 1 0.999371
1 1 1 1
1 1 1 1
1.0053 1.00755 1 0.997763
1.01635 1.01867 1 0.997724
1.01986 1.02213 1 0.997777
0.998242 1.00003 1 0.998216
1.0059 1.00815 1 0.997767
1.01646 1.0188 1 0.997698
0.999386 1 1 0.999386
0.998334 1.00009 1 0.998239
1.00602 1.00828 1 0.997757
1 1 1 1
0.999435 1 1 0.999435
0.99833 1.00005 1 0.998279
1 1 1 1
0.999483 1 1 0.999483
1 1 1 1
0.998131 1 1 0.998131
1.00576 1.00805 1 0.99773
1.01843 1.02081 1 0.99767
0.999253 1 1 0.999253
0.998053 1.00001 1 0.998046
1.00623 1.00852 1 0.997729
0.998147 1.00009 1 0.998056
0.999259 1 1 0.999259
1 1 1 1
0.999305 1 1 0.999305
1 1 1 1
1 1 1 1
0.998177 1 1 0.998177
1.00537 1.00764 1 0.997756
1.01601 1.01832 1 0.99773
0.999435 1 1 0.999435
0.998274 1.00006 1 0.998214
1.00615 1.00841 1 0.997765
1 1 1 1
0.999388 1 1 0.999388
0.998335 1.0001 1 0.998238
1 1 1 1
0.999438 1 1 0.999438
1 1 1 1
0.999254 1 1 0.999254
0.998102 1 1 0.998102
1.00576 1.00808 1 0.997695
1 1 1 1
0.999252 1 1 0.999252
0.998056 1.00001 1 0.998045
0.999258 1 1 0.999258
1 1 1 1
1 1 1 1
0.999387 1 1 0.999387
0.998192 1.00001 1 0.998178
1.00543 1.0077 1 0.997749
1 1 1 1
0.999347 1 1 0.999347
0.998302 1.00009 1 0.998212
1 1 1 1
0.999389 1 1 0.999389
1 1 1 1
0.999809 1 1 0.999809
0.999319 1 1 0.999319
0.998073 1 1 0.998073
1 1 1 1
0.999253 1 1 0.999253
1 1 1 1
0.999827 1 1 0.999827
0.99935 1 1 0.99935
0.998214 1.00004 1 0.998178
0.999918 1 1 0.999918
0.999345 1 1 0.999345
1 1 1 1
1 1 1 1
0.999273 1 1 0.999273
1 1 1 1
0.99991 1 1 0.99991
0.999306 1 1 0.999306
1 1 1 1
1 1 1 1
1 1 1 1

VECTORS lamdaE float
1.00001 1.00015 0.995322
0.999909 1.00034 0.997782
0.999742 1.00034 0.995479
1.00031 0.999928 0.995113
1.00011 0.999969 0.995369
1.00002 1.00028 0.995134
1.00123 1.00048 0.992582
0.999906 1.00022 0.99781
0.999822 1.00023 0.99803
0.999479 1.00067 0.99806
0.99989 1.00012 0.995575
1.00101 1.00124 0.991685
1.00022 1.00001 0.995054
0.999953 0.99998 0.995324
0.999499 1.00055 0.99561
1.0001 0.999906 0.995322
0.999731 1.00057 0.995272
0.999879 1.00004 0.995544
1.00139 1.00032 0.992516
1.0002 1 0.99767
1.00034 0.999984 0.99498
1.00023 0.999888 0.995282
1.00162 0.999991 0.992398
1.00141 1.00013 0.992615
0.999993 1.00019 0.995159
1.00105 1.00098 0.992394
1.00377 1.00033 0.988419
0.999863 1.00015 0.997868
0.999958 1.00011 0.996629
0.999692 1.00051 0.996636
0.999844 0.999899 0.997983
1.00092 1.00136 0.991693
1.00023 0.999848 0.995164
0.999956 1.00037 0.995232
1.00171 1.00018 0.992811
0.999486 0.999284 0.998542
1.00137 1.00083 0.99279
1.00066 1.00145 0.992097
1.0028 1.00203 0.987759
0.999574 0.998338 0.99885
1.00024 1.00001 0.997629
1.0001 1 0.996481
1.00019 0.999998 0.997652
0.999916 1.00004 0.995352
1.00181 1.00004 0.991465
1 0.99996 0.997946
1.00192 1.00011 0.992534
0.999885 0.999845 0.995531
0.999659 1.00011 0.995706
0.999449 1.0009 0.995396
1.00153 1.00014 0.992464
1.00009 1.00001 0.996502
1.00012 0.999983 0.995197
0.999718 1.0005 0.995303
1.00002 0.999876 0.995474
1.00171 0.999955 0.992315
1.00123 1.00079 0.992324
1.00153 1.00004 0.992547
1.00377 1.00035 0.988407
1.00017 1 0.997674
1.00031 1.00001 0.995009
1.00163 1 0.992997
1.00167 1.00002 0.992285
1.00155 0.999972 0.992539
1.00409 0.999954 0.988164
1.00392 1.00002 0.98818
0.999802 0.999614 0.995856
1.00052 1.00161 0.992519
1.00358 1.00082 0.988276
1.00483 1.00007 0.98609
1.00012 1.00014 0.997755
0.999749 0.999666 0.998165
0.9999 1.00035 0.997768
1.00083 1.00145 0.991698
1.00025 0.999979 0.997713
1.00001 1.00032 0.99777
1.0016 1.00013 0.991654
0.999584 0.999365 0.997423
1.00117 1.00092 0.991642
1.00053 1.0015 0.992831
1.00284 1.00197 0.987744
0.999679 0.998765 0.998587
0.999681 1.00006 0.995238
1.00181 0.999981 0.991507
1.0015 1.00042 0.991649
1.00407 1.0002 0.98729
1.00019 1.00116 0.99431
1.00341 1.00103 0.98766
1.00176 1.00342 0.98827
1.0039 1.00187 0.98583
0.999536 0.997965 0.999043
0.999514 0.998263 0.998935
1.00027 0.999986 0.997651
1.00025 1.00001 0.997629
1.00022 1 0.997649
1.00009 1.00001 0.996494
1.00184 1.00003 0.99209
1.00012 0.999967 0.996517
1.00186 1.00012 0.991964
1.00021 0.999995 0.997658
1.00172 0.999962 0.991652
1.00191 1.00011 0.992573
1.00425 0.999733 0.98747
1.00188 1.00002 0.992657
1.00428 0.999938 0.987237
1.00018 1.00001 0.995139
0.999895 0.999976 0.995419
0.999415 1.00086 0.995461
0.999817 0.999842 0.995663
1.0018 0.999957 0.992232
1.00164 0.999952 0.992486
1.0014 1.00057 0.992261
1.00376 1.00037 0.988396
1.0002 0.999998 0.997664
1.00008 1.00001 0.995226
1.00174 0.999978 0.991957
1.00175 1.00001 0.992191
0.999682 0.99984 0.996965
1.00076 1.00152 0.992644
1.00164 0.999922 0.992465
1.00411 0.999929 0.988059
1.00353 1.00087 0.988302
1.00392 1.00009 0.988256
1.00481 1.00008 0.986113
1.0017 0.999984 0.991692
1.00164 1 0.992333
1.00414 0.999682 0.988128
1.00415 0.999857 0.987943
1.00403 0.999883 0.98809
1.00507 0.999572 0.986458
0.999631 0.999243 0.998442
1.00492 0.999811 0.986192
1.00006 1.00177 0.992672
1.0027 1.00207 0.987842
1.00473 1.00049 0.985916
1.00517 0.999852 0.985682
0.999836 1.00096 0.993935
1.00019 1.00369 0.990661
1.00022 1.00001 0.99773
0.999968 1.0003 0.997772
1.00161 1.00011 0.991654
0.999641 0.999094 0.998497
1.0003 1.00172 0.992322
1.00112 1.00096 0.991651
1.00287 1.00192 0.987728
0.9996 0.998691 0.998687
0.999678 0.999971 0.995283
1.00181 1.00001 0.992132
1.00149 1.00044 0.992247
1.00407 1.00021 0.987289
1.00001 1.00122 0.993473
1.00342 1.001 0.987668
1.00176 1.00338 0.988262
1.00397 1.00182 0.985798
0.999805 1.00069 0.994406
0.999726 0.999388 0.995827
1.00025 1.00266 0.991663
1.00421 1.00007 0.987201
1.00379 1.00053 0.987478
1.005 1.00007 0.985814
1.001 1.00369 0.989387
1.00449 1.00074 0.985871
1.00283 1.00364 0.986009
1.00472 1.00118 0.985383
0.999573 0.997687 0.999122
0.99951 0.997912 0.999074
0.999467 0.998178 0.998998
0.999789 1.00053 0.99447
0.999605 0.998901 0.998609
1.00027 0.999974 0.997685
1.00025 1 0.997631
1.00178 1.00013 0.99139
1.00176 1.00003 0.991518
1.0002 1 0.997649
1.00018 0.999999 0.997659
1.00171 0.999971 0.991646
1.00184 1.0001 0.991991
1.00425 0.999731 0.987468
1.00178 1.00004 0.991456
1.00427 0.999938 0.987233
1.00169 0.999959 0.991696
1.0042 0.999665 0.987627
1.00427 0.999831 0.98733
1.00515 0.99912 0.986552
1.00426 1.00001 0.987188
1.00515 0.999488 0.986177
1.00019 0.999996 0.997658
0.999858 1.00002 0.995443
1.00175 0.99997 0.991012
1.00184 1 0.992095
0.999396 1.00001 0.998301
1.00107 1.00133 0.992764
1.00174 0.999895 0.992393
1.00412 0.999888 0.987954
1.00392 1.00016 0.988332
1.00349 1.00093 0.988326
1.0048 1.0001 0.986135
1.00169 0.999971 0.991693
1.00174 1 0.99223
1.00415 0.999665 0.98782
1.00417 0.999895 0.987999
0.999663 0.999323 0.99837
1.00028 1.00159 0.993163
1.00264 1.00222 0.98812
1.00404 0.999914 0.988072
1.00507 0.999458 0.986428
1.00473 1.00052 0.985825
1.00492 0.999864 0.986303
1.00517 0.999846 0.985709
0.999857 1.00098 0.99393
1.00027 1.00355 0.990675
1.00416 0.99966 0.987704
1.00415 0.999785 0.988008
1.00508 0.999201 0.986808
1.0051 0.999239 0.986488
1.00501 0.999591 0.986497
1.00523 0.998702 0.986854
0.999914 1.00136 0.993356
1.00519 0.999343 0.986176
1.00143 1.00343 0.988691
1.00412 1.00164 0.985631
1.00515 1.00053 0.985313
1.00517 0.999221 0.986432
1.00055 1.00363 0.990149
1.00011 1.00302 0.991462
1.00074 1.00462 0.988981
1.00173 0.999992 0.99157
0.999529 0.998598 0.998792
0.999676 0.999876 0.995327
1.00136 1.00049 0.991694
1.00407 1.00022 0.987287
0.999925 1.0013 0.993404
1.00173 1.00335 0.988255
1.00343 1.00099 0.987678
1.00403 1.00176 0.985766
0.999779 1.00063 0.994429
0.999738 0.999292 0.995863
1.00013 1.00281 0.991675
1.0042 1.00009 0.987194
1.00379 1.00052 0.987482
1.005 1.00006 0.985798
1.00091 1.00374 0.989412
1.00453 1.00078 0.985872
1.00288 1.00371 0.985982
1.00466 1.00104 0.98534
0.999841 0.998869 0.996128
1.00055 1.00324 0.990541
1.00008 1.00183 0.992787
1.00037 1.00423 0.989957
1.00508 0.999852 0.985898
1.00481 1.00037 0.985815
1.00517 0.999686 0.985887
1.00175 1.00447 0.987279
1.00494 1.00039 0.985559
1.00381 1.00301 0.985137
1.00511 1.00059 0.985215
1.00027 1.00023 0.994042
1.00003 0.998336 0.996307
0.999652 0.997448 0.999154
0.999571 0.997644 0.999132
0.999495 0.997859 0.999098
0.999793 0.999995 0.995013
0.999584 0.998559 0.99876
0.999804 1.00057 0.994447
0.999644 0.998951 0.998552
1.00178 1.00007 0.991449
1.00179 1.00009 0.991416
1.00426 0.999939 0.98723
1.00425 0.99973 0.987466
1.00173 0.999979 0.991643
1.00021 1 0.997653
1.0017 0.999961 0.991696
1.00419 0.99967 0.987626
1.00427 0.999837 0.987327
1.00514 0.999127 0.98655
1.00425 1.00002 0.98718
1.00515 0.999489 0.986167
1.00416 0.999658 0.987707
1.00511 0.999014 0.986728
1.00516 0.999292 0.986347
1.00525 0.997909 0.987631
1.00513 0.999663 0.986028
1.00523 0.998511 0.987039
1.0017 0.999959 0.991695
1.00184 0.999985 0.992127
1.00416 0.999634 0.987514
1.00419 0.99993 0.988056
0.999708 0.999413 0.998288
1.0005 1.00152 0.993555
1.00266 1.00233 0.988397
1.00404 0.999933 0.988054
1.00507 0.999342 0.986399
1.00492 0.999919 0.986414
1.00471 1.00054 0.985734
1.00516 0.999837 0.985737
0.999885 1.00099 0.993925
1.00035 1.00344 0.990688
1.00416 0.999615 0.987643
1.00417 0.999767 0.987993
1.00508 0.999103 0.986905
1.0051 0.999355 0.986493
0.999981 1.00135 0.993345
1.00155 1.00336 0.988671
1.00414 1.00167 0.985634
1.00501 0.999652 0.986464
1.00523 0.998552 0.98702
1.00513 1.00051 0.985272
1.00519 0.999335 0.986196
1.00517 0.99919 0.986428
1.00059 1.00354 0.990161
1.00062 1.00451 0.989046
1.00015 1.00302 0.991449
1.00508 0.999106 0.986885
1.00509 0.999164 0.986817
1.00521 0.998006 0.987602
1.00525 0.998334 0.987154
1.0052 0.998781 0.986726
1.00518 0.997315 0.988246
1.00083 1.00356 0.989658
1.00517 0.998358 0.987128
1.00273 1.00328 0.986656
1.00489 1.00134 0.984619
1.00515 1.00034 0.985381
1.00511 0.998409 0.987303
1.00014 1.00223 0.992235
1.00117 1.00374 0.988968
1.00023 1.00481 0.98944
1.00127 1.00396 0.988795
1.00419 1.00011 0.987186
0.999747 0.999207 0.995899
0.999749 1.0006 0.994453
1.00004 1.00293 0.991687
1.0038 1.00051 0.987485
1.00501 1.00006 0.985782
1.00082 1.0038 0.989437
1.00295 1.00382 0.985953
1.00458 1.00083 0.985872
1.00461 1.00091 0.985297
0.999846 0.998825 0.996143
1.00051 1.00332 0.990546
1.00005 1.00181 0.99282
1.00026 1.00438 0.989937
1.00508 0.999854 0.985883
1.00483 1.00036 0.985802
1.00517 0.999693 0.985873
1.00168 1.00455 0.98731
1.00498 1.00043 0.985575
1.00375 1.00294 0.985122
1.00508 1.00056 0.985178
0.999953 0.998533 0.99625
1.00015 1.00097 0.993526
1.001 1.00429 0.988819
1.00009 1.00354 0.991135
1.00053 1.0046 0.989409
1.0052 0.999303 0.986244
1.0051 1.00001 0.985654
1.00513 0.998971 0.986618
1.00231 1.00457 0.986281
1.00511 1.00016 0.985534
1.00419 1.00193 0.984932
1.00026 1.0003 0.993975
1.00023 1.00157 0.992803
1.00025 1.00022 0.994091
1.00026 1.00023 0.994042
1.00007 0.998158 0.996904
1.00002 0.998325 0.99659
0.999805 0.997255 0.998066
0.99966 0.997404 0.999158
0.999572 0.997593 0.999143
0.999827 0.999472 0.99549
0.999591 0.998198 0.998908
0.999799 1.00005 0.994987
0.999624 0.99862 0.998707
0.999822 1.00061 0.994423
0.999679 0.999008 0.998493
1.00424 1.00003 0.987171
1.00427 0.999842 0.987323
1.00515 0.999502 0.986157
1.00514 0.999134 0.986547
1.00419 0.999675 0.987625
1.00169 0.999963 0.991695
1.00416 0.999656 0.987707
1.0051 0.999018 0.98673
1.00516 0.999306 0.98634
1.00524 0.9978 0.987754
1.00513 0.999668 0.986017
1.00523 0.998529 0.987025
1.00508 0.998987 0.986797
1.00522 0.997618 0.987998
1.00525 0.998132 0.987382
1.00524 0.996603 0.988914
1.00521 0.998928 0.986646
1.00517 0.997013 0.988495
1.00416 0.999573 0.987583
1.0042 0.99976 0.987978
1.00508 0.999015 0.987001
1.0051 0.99947 0.986498
1.00006 1.00132 0.993332
1.00158 1.00334 0.988651
1.00417 1.0017 0.985637
1.00501 0.999712 0.986431
1.00523 0.9984 0.987185
1.00518 0.999326 0.986217
1.00512 1.00052 0.98523
1.00517 0.999162 0.986424
1.00064 1.00344 0.990173
1.00059 1.0044 0.989112
1.00018 1.00299 0.991437
1.00508 0.999063 0.98683
1.0051 0.999161 0.986808
1.0052 0.99781 0.987814
1.00524 0.998397 0.987113
1.0009 1.00353 0.989634
1.00281 1.00321 0.986645
1.00476 1.00143 0.984684
1.0052 0.998932 0.986605
1.00518 0.997122 0.988468
1.00515 1.00036 0.985283
1.00517 0.998363 0.987146
1.00511 0.998309 0.987427
1.00123 1.00373 0.988962
1.00122 1.00398 0.988793
1.00016 1.00223 0.99222
1.00018 1.00466 0.989562
1.00521 0.997817 0.987824
1.00523 0.998101 0.987577
1.00516 0.996725 0.988845
1.00519 0.996453 0.989033
1.00516 0.997619 0.987937
1.00514 0.996287 0.989382
1.00175 1.00348 0.98821
1.0051 0.997033 0.98843
1.00338 1.00317 0.985374
1.0051 1.00147 0.984257
1.00512 0.999984 0.985578
1.00508 0.998029 0.987666
1.00013 1.00164 0.992833
1.00014 1.00409 0.990307
1.00168 1.00321 0.988596
1.00044 1.00496 0.989038
1.00155 1.00332 0.989038
0.999848 0.998793 0.996158
1.00509 0.999857 0.985869
1.00002 1.00177 0.992852
1.00043 1.00345 0.990551
1.00016 1.00452 0.989916
1.00486 1.00035 0.985788
1.00518 0.9997 0.98586
1.0017 1.00451 0.98734
1.00371 1.00286 0.985108
1.00501 1.00048 0.985592
1.00505 1.00053 0.985141
0.999956 0.99852 0.996257
1.00014 1.00096 0.993541
1.001 1.00424 0.98884
0.999994 1.00365 0.991131
1.00043 1.0046 0.98933
1.0052 0.99931 0.98623
1.00511 1.00001 0.985634
1.00514 0.998948 0.986585
1.00224 1.0046 0.986282
1.00514 1.00016 0.98551
1.00437 1.00182 0.984935
1.00024 1.0005 0.993841
1.00014 1.00244 0.992125
1.00132 1.00433 0.98816
1.00008 1.00464 0.990183
1.00093 1.00409 0.989318
1.00515 0.998385 0.98719
1.00512 0.999523 0.986029
1.00511 0.998307 0.986992
1.0026 1.00384 0.986166
1.00494 1.00085 0.984917
1.00026 1.00031 0.993971
1.00024 1.00155 0.992712
1.00019 1.00161 0.992758
1.00019 1.00232 0.992268
1.0002 1.0016 0.992837
1.00021 1.00026 0.994109
1.00025 1.00022 0.994091
1.0001 0.998072 0.996915
1.00026 1.00024 0.994041
1.00007 0.998169 0.996905
0.999904 0.997028 0.998094
1.00001 0.998323 0.996867
0.999773 0.997215 0.998622
0.99967 0.997357 0.999163
0.999881 0.998998 0.995875
0.999823 0.999525 0.995468
0.999614 0.997873 0.99902
0.999618 0.998272 0.998855
0.999805 1.00011 0.99496
0.999663 0.99867 0.998651
1.00513 0.999672 0.986006
1.00516 0.999308 0.986332
1.00523 0.99854 0.987011
1.00524 0.997691 0.987876
1.0051 0.99902 0.986732
1.00416 0.999655 0.987707
1.00508 0.998986 0.986799
1.00522 0.997624 0.988007
1.00525 0.998142 0.98738
1.00524 0.996378 0.989125
1.00522 0.998929 0.986624
1.00518 0.996895 0.988622
1.00521 0.997656 0.988008
1.00521 0.996361 0.989162
1.00521 0.996417 0.989131
1.00521 0.995484 0.990065
1.00517 0.997668 0.987872
1.00516 0.995919 0.989579
1.00509 0.999017 0.986776
1.0051 0.999167 0.986799
1.0052 0.997608 0.988027
1.00524 0.998458 0.987073
1.00098 1.0035 0.989611
1.0029 1.00314 0.986635
1.00465 1.00143 0.98475
1.0052 0.999085 0.986484
1.00518 0.996927 0.98869
1.00517 0.998368 0.987163
1.00515 1.00038 0.985185
1.00511 0.998209 0.98755
1.00119 1.00377 0.988956
1.00104 1.00407 0.988791
1.00019 1.00224 0.992205
1.00014 1.00459 0.989685
1.00521 0.997823 0.987816
1.00522 0.998176 0.987461
1.00517 0.996601 0.989016
1.0052 0.996557 0.988908
1.00171 1.00365 0.988167
1.00338 1.00311 0.985478
1.00511 1.00144 0.984222
1.00517 0.997791 0.987732
1.00513 0.996034 0.989554
1.00512 1.00001 0.985548
1.00511 0.997056 0.988434
1.00508 0.997799 0.987799
1.00176 1.00319 0.988567
1.00151 1.00322 0.989111
1.00043 1.00501 0.989
1.00014 1.00163 0.992766
1.00009 1.00399 0.990426
1.00516 0.996379 0.989302
1.00519 0.996237 0.989334
1.00515 0.995422 0.990091
1.00512 0.996175 0.989251
1.00209 1.00382 0.987321
1.00513 0.996626 0.989011
1.00381 1.0029 0.984626
1.00511 1.00155 0.984051
1.00508 0.999563 0.985844
1.00008 1.00105 0.993321
1.00011 1.00331 0.991308
1.00035 1.00452 0.989759
1.002 1.00283 0.988557
1.00069 1.00478 0.988611
1.00185 1.00237 0.988901
0.999957 0.998513 0.996263
1.00012 1.00094 0.993556
1.0052 0.999318 0.986216
0.999894 1.00375 0.991128
1.0009 1.00429 0.98886
1.00032 1.00462 0.989252
1.00513 1.00001 0.985614
1.00513 0.998925 0.986553
1.00214 1.00463 0.986284
1.00451 1.00176 0.984938
1.00516 1.00015 0.985487
1.00023 1.0005 0.993845
1.00008 1.00248 0.992145
1.00133 1.00437 0.988125
0.999955 1.0047 0.990158
1.00082 1.00399 0.989379
1.00515 0.998396 0.987166
1.00513 0.999523 0.985998
1.00511 0.998346 0.987046
1.00268 1.0037 0.986023
1.00493 1.00098 0.984899
1.00022 1.00182 0.992624
0.999837 1.00389 0.990999
1.00187 1.00344 0.988055
1.00009 1.00494 0.989667
1.00138 1.00304 0.989256
1.00511 0.996958 0.988389
1.00511 0.99957 0.985955
1.00509 0.998239 0.986998
1.00375 1.00272 0.98562
1.00503 1.00084 0.984821
1.00026 1.00031 0.993968
1.00024 1.00157 0.992739
1.00006 1.00236 0.992196
1.00016 1.00163 0.992713
1.00018 1.00163 0.992835
1.00011 1.00237 0.992207
1.00003 1.00281 0.991989
1.0001 1.00245 0.992064
1.00015 1.00169 0.992836
1.00016 1.00036 0.99411
1.00021 1.00027 0.994109
1.00013 0.998048 0.996904
1.00024 1.00021 0.994092
1.00011 0.998093 0.996913
0.999974 0.996907 0.998094
1.00008 0.998176 0.996908
0.999892 0.997002 0.998101
0.999737 0.997164 0.999189
0.999936 0.998594 0.996199
0.999873 0.999056 0.99585
0.999657 0.997587 0.999101
0.999817 0.999589 0.995446
0.999632 0.997938 0.998987
0.999651 0.998331 0.998803
1.00522 0.998931 0.986602
1.00525 0.998156 0.987378
1.00518 0.996774 0.988748
1.00523 0.996162 0.989337
1.00522 0.997628 0.988016
1.00508 0.998987 0.986801
1.00521 0.997731 0.987916
1.00522 0.996511 0.98905
1.0052 0.99649 0.989051
1.00522 0.995245 0.99024
1.00517 0.997702 0.987861
1.00516 0.995696 0.989764
1.00518 0.996597 0.989089
1.00523 0.995015 0.990473
1.00516 0.99527 0.990249
1.00514 0.995987 0.989528
1.00521 0.997828 0.987807
1.00522 0.998248 0.987344
1.00517 0.996485 0.989187
1.0052 0.99666 0.988782
1.00175 1.00372 0.988124
1.00338 1.00307 0.985581
1.00511 1.00146 0.984186
1.00517 0.997964 0.987528
1.00513 0.99579 0.989725
1.00512 0.997079 0.988438
1.00512 1.00005 0.985519
1.00509 0.997572 0.987931
1.00184 1.00322 0.988539
1.00155 1.00297 0.989183
1.00041 1.00504 0.98896
1.00015 1.00161 0.9927
1.00007 1.00389 0.990544
1.00516 0.996431 0.989299
1.0052 0.996282 0.989288
1.00515 0.995536 0.989969
1.00212 1.00384 0.987291
1.00394 1.00287 0.984727
1.0051 1.00154 0.984006
1.00512 0.996201 0.989241
1.00507 0.999367 0.986137
1.00511 0.996585 0.988858
1.00009 1.00096 0.993415
1.0021 1.0027 0.988512
1.00167 1.00225 0.989422
1.00081 1.00485 0.98855
1.00035 1.00456 0.989775
1.0001 1.00329 0.991248
1.00519 0.995523 0.989898
1.0052 0.995285 0.990218
1.00513 0.995149 0.990156
1.00517 0.995526 0.989861
1.00262 1.00342 0.986764
1.00511 0.99761 0.987764
1.00467 1.00274 0.983403
1.00502 1.00183 0.983749
1.00014 1.00027 0.994024
1.00009 1.00255 0.992099
1.00024 1.00394 0.990547
1.00052 1.00503 0.98887
1.00228 1.00217 0.988385
1.00178 1.00348 0.988162
1.00022 1.00049 0.993848
1.00003 1.0025 0.992165
1.00515 0.998405 0.987141
0.999829 1.00474 0.990135
1.00135 1.00438 0.98809
1.00061 1.00388 0.989441
1.00514 0.999523 0.985967
1.00511 0.998395 0.987098
1.0028 1.0036 0.985879
1.00494 1.0011 0.984881
1.00019 1.00181 0.992636
0.999902 1.00389 0.990991
1.00192 1.0035 0.98805
0.99996 1.00502 0.989665
1.0012 1.00282 0.989679
1.00511 0.996947 0.988587
1.0051 0.999562 0.986023
1.0051 0.998303 0.987009
1.00364 1.00285 0.98542
1.00504 1.00087 0.984712
0.999937 1.00267 0.992022
0.999765 1.00488 0.990004
1.00262 1.00254 0.987726
1.00046 1.00406 0.988956
1.00512 0.995522 0.989772
1.00492 0.997584 0.988291
1.00503 0.99975 0.985725
1.00407 1.0015 0.984972
1.00026 1.00157 0.992767
1.00008 1.00237 0.992217
0.999847 1.00304 0.992104
1.00014 1.00168 0.992832
1.00004 1.00242 0.992147
1.00014 1.0017 0.992829
0.999976 1.00279 0.991994
1.00011 1.00244 0.992101
0.999906 1.00291 0.992042
1.00008 1.0029 0.991739
1.00013 1.00254 0.991918
1.00013 1.00179 0.992758
1.00011 1.00045 0.994093
1.00016 1.00034 0.994109
1.00013 0.998056 0.996885
1.00021 1.00025 0.99411
1.00013 0.998075 0.996901
1.00003 0.996825 0.998083
1.00011 0.998113 0.996912
0.999967 0.996872 0.998101
0.999879 0.996981 0.998103
1.00002 0.998213 0.996442
0.999942 0.998621 0.996174
0.999723 0.997269 0.999168
0.999863 0.999117 0.995823
0.999665 0.997639 0.999078
0.999654 0.997997 0.998943
1.00517 0.997735 0.987851
1.00519 0.996564 0.988972
1.00516 0.995475 0.989948
1.00522 0.994994 0.990415
1.00523 0.996664 0.988938
1.00522 0.997809 0.987825
1.00518 0.996585 0.989126
1.00521 0.99516 0.990363
1.00517 0.995281 0.990201
1.00514 0.995923 0.989613
1.0052 0.995369 0.990189
1.00515 0.994979 0.990618
1.00515 0.995109 0.990284
1.00516 0.996482 0.989296
1.00521 0.996327 0.989243
1.00515 0.995652 0.989848
1.00214 1.00386 0.987261
1.00411 1.00283 0.984827
1.00509 1.00155 0.983961
1.00513 0.996221 0.989232
1.0051 0.99654 0.988704
1.00506 0.999169 0.986431
1.00221 1.00258 0.988466
1.00145 1.00216 0.989944
1.00097 1.00494 0.98849
1.0001 1.00088 0.99351
1.00029 1.00455 0.98979
1.00011 1.00326 0.991187
1.00518 0.995596 0.989952
1.0052 0.995205 0.990275
1.00513 0.995188 0.990201
1.00262 1.00348 0.986734
1.00451 1.00266 0.983707
1.00494 1.00168 0.984074
1.00516 0.995582 0.989796
1.00512 0.997545 0.987713
1.00013 1.00024 0.994172
1.00009 1.00256 0.992096
1.00205 1.00215 0.988586
1.00166 1.00354 0.988629
1.00046 1.00494 0.989086
1.00022 1.00397 0.990479
1.00517 0.99499 0.990586
1.00514 0.994926 0.990484
1.00512 0.995115 0.990289
1.00513 0.995622 0.989568
1.00294 1.0027 0.98616
1.0048 1.00057 0.985253
1.00499 1.00312 0.982862
1.0002 0.999847 0.994556
1.0002 1.00101 0.993438
1.0001 1.00171 0.992753
1.00003 1.00353 0.991196
1.00008 1.00465 0.98987
1.00018 1.00486 0.989162
1.00253 1.00115 0.988543
1.00175 1.00346 0.989304
1.00016 1.00183 0.992648
0.999961 1.00391 0.990982
1.00511 0.99694 0.988785
1.00002 1.00503 0.989661
1.00194 1.00362 0.988047
1.00098 1.00266 0.9901
1.00509 0.999535 0.986092
1.00511 0.998359 0.987021
1.00354 1.00295 0.985224
1.00505 1.00088 0.984604
0.999955 1.00276 0.99194
0.999846 1.00473 0.990058
1.00252 1.00259 0.987825
1.0008 1.00413 0.989041
1.00513 0.995407 0.989936
1.005 0.997581 0.988092
1.00503 0.999718 0.985758
1.0044 1.00166 0.984823
0.999796 1.00347 0.991522
1.00512 0.995068 0.990263
1.00051 1.005 0.989313
1.00258 1.00295 0.987226
1.00496 0.996042 0.989873
1.00483 0.998727 0.986386
1.00477 1.00117 0.984942
1.00008 1.00241 0.992238
0.999833 1.003 0.992081
0.999559 1.00346 0.992208
1.00015 1.00168 0.992823
1.00011 1.00243 0.992139
0.999869 1.00282 0.992
1.00014 1.00177 0.992746
1.00011 1.00254 0.991939
0.999807 1.00298 0.992047
1.00012 1.00283 0.991775
1.00001 1.00273 0.992166
0.999978 1.00297 0.991844
1.00017 1.00305 0.991455
1.00025 1.00257 0.991729
1.00016 1.00189 0.992612
1.00007 1.00056 0.994039
1.0001 1.00046 0.99409
1.00014 0.998101 0.996842
1.00016 1.00035 0.994107
1.00013 0.998088 0.996881
1.00006 0.996767 0.998071
1.00013 0.998103 0.996898
1.00002 0.996789 0.998089
0.999962 0.996841 0.998105
1.00019 0.999785 0.994647
1.00008 0.997967 0.996589
1.00002 0.998235 0.996426
0.999812 0.996987 0.999213
0.999945 0.998657 0.996149
0.999725 0.997346 0.999149
0.999678 0.997702 0.999055
1.00514 0.99586 0.989698
1.00518 0.995286 0.990153
1.0052 0.995307 0.990253
1.00519 0.996568 0.989162
1.00518 0.99528 0.990333
1.00515 0.99496 0.990638
1.00514 0.995147 0.990267
1.00515 0.99494 0.990669
1.00515 0.994944 0.990562
1.00491 0.995042 0.99097
1.00518 0.99567 0.990007
1.0052 0.995119 0.990332
1.00513 0.995232 0.990247
1.00263 1.00353 0.986705
1.00435 1.00261 0.984013
1.00489 1.00152 0.9844
1.00515 0.995645 0.989732
1.00512 0.997487 0.987663
1.00183 1.00219 0.988788
1.00159 1.00359 0.989092
1.0003 1.00489 0.989302
1.00012 1.00019 0.994321
1.00012 1.00254 0.992093
1.0002 1.00404 0.99041
1.00518 0.994969 0.99055
1.00018 0.999867 0.994551
1.00017 1.00104 0.993372
1.00513 0.994928 0.990498
1.00512 0.995116 0.990281
1.0027 1.00291 0.986581
1.00497 1.00293 0.983036
1.00486 1.00043 0.985172
1.00512 0.995774 0.989464
1.00011 1.00169 0.992933
1.00007 1.00349 0.991175
1.00276 1.00155 0.988297
1.00116 1.00346 0.989696
1.00025 1.00476 0.98934
1.00004 1.00469 0.989959
1.00518 0.994948 0.99042
1.0051 0.994874 0.990577
1.00511 0.995056 0.990064
1.00478 0.996518 0.989099
1.00273 1.00243 0.987159
1.00449 1.00314 0.983751
1.00012 1.00111 0.993295
1.00017 1.00113 0.993341
1.00027 1.00175 0.992696
1.0001 1.00291 0.991525
0.99995 1.00423 0.990753
1.00065 1.00443 0.989301
0.999647 1.00502 0.989683
1.00194 1.00093 0.989844
0.999977 1.00281 0.991859
0.999967 1.00466 0.990114
1.00514 0.995283 0.9901
1.00506 0.99761 0.987895
1.0011 1.0042 0.989125
1.00242 1.00259 0.98792
1.00504 0.999692 0.985789
1.00472 1.00183 0.984673
0.999842 1.00349 0.99148
1.00513 0.994956 0.990402
1.00029 1.00493 0.98942
1.00259 1.00282 0.987115
1.00499 0.995945 0.989811
1.00476 0.998808 0.986634
1.00479 1.00131 0.984986
0.99988 1.0045 0.990714
1.00451 0.994941 0.991987
1.00161 1.00402 0.988888
1.00322 1.00291 0.986585
1.00485 0.996646 0.989141
1.00411 1.00068 0.985963
0.999336 0.996895 0.991437
0.999786 1.003 0.992058
0.999448 1.00354 0.9922
0.999729 1.00354 0.992025
1.00013 1.00178 0.992734
1.0001 1.00257 0.991959
1.00017 1.00277 0.991811
0.999743 1.00298 0.992051
1.00015 1.00188 0.992611
1.00023 1.00262 0.991717
0.999965 1.00283 0.992042
1.00014 1.0031 0.991457
1.00005 1.0029 0.991814
1.00005 1.00264 0.992111
1.00026 1.0032 0.99116
1.0002 1.00311 0.991356
1.00035 1.00268 0.991464
1.00019 1.00197 0.992355
1.00027 1.00249 0.991943
1.00019 1.00206 0.99224
1.00007 1.0006 0.993989
1.00007 1.00056 0.994037
1.00015 0.998188 0.996232
1.00011 1.00045 0.994087
1.00015 0.998143 0.996556
1.00003 0.996727 0.999172
1.00013 0.998123 0.996878
1.00006 0.996731 0.998076
1.00002 0.996755 0.998091
1.00015 0.999751 0.994729
1.00019 0.999758 0.994654
1.0001 0.997829 0.996699
1.00007 0.997973 0.996841
0.999888 0.996785 0.999246
1.00003 0.998253 0.99641
0.999804 0.997054 0.999201
0.999728 0.997407 0.99913
1.00513 0.995185 0.990251
1.00515 0.994947 0.990658
1.00517 0.995191 0.990476
1.00516 0.994939 0.990666
1.00514 0.994947 0.990555
1.00493 0.995173 0.990625
1.00517 0.994967 0.990491
1.00098 0.994853 0.98816
1.00413 0.994919 0.993481
1.00005 1.00116 0.993507
1.00518 0.994948 0.990514
1.00513 0.994934 0.990512
1.00512 0.995113 0.990272
1.00246 1.00307 0.987
1.00484 1.00282 0.983209
1.00497 1.0003 0.985094
1.00511 0.995953 0.989357
1.00309 1.0017 0.988052
1.00054 1.00345 0.990093
1.00037 1.00465 0.989521
1.00016 0.999907 0.994547
1.00002 1.0047 0.990049
1.0001 1.00167 0.993112
1.00011 1.00346 0.991155
1.00015 1.00103 0.993307
1.00518 0.994944 0.990425
1.00012 1.00109 0.993392
1.00015 1.00117 0.993337
1.00027 1.00175 0.992614
1.00509 0.994888 0.99056
1.00511 0.995121 0.990024
1.00289 1.00239 0.987199
1.00435 1.00268 0.984257
1.00469 0.99691 0.989015
1.00004 1.00294 0.991648
1.00002 1.00421 0.990571
1.00183 1.00163 0.989675
1.00002 1.00482 0.989727
1.00055 1.00433 0.989371
1.00514 0.995022 0.990551
1.00512 0.994875 0.990494
1.00503 0.996026 0.989313
1.00453 0.998425 0.988534
1.00174 1.0027 0.989047
1.00012 1.00207 0.992334
1.0003 1.00194 0.992151
1.00011 1.00262 0.991839
0.999896 1.00422 0.991048
0.999989 1.00441 0.990243
1.00008 1.00454 0.989671
1.00034 1.00362 0.990263
0.999929 1.00349 0.991436
1.00001 1.00482 0.989525
1.00516 0.994913 0.990538
1.00503 0.995812 0.989747
1.00473 0.998866 0.986881
1.00262 1.00267 0.987007
1.0048 1.00143 0.985031
0.999898 1.00445 0.990833
1.00442 0.994942 0.992104
1.00124 1.00392 0.989033
1.00299 1.00297 0.986591
1.0048 0.996407 0.989479
1.00424 1.00072 0.985935
0.999353 0.996757 0.98941
1.00003 1.00438 0.990608
1.00328 0.99659 0.992125
1.00117 1.00347 0.98932
1.00268 1.00199 0.987424
1.00398 0.997643 0.988482
1.00032 0.995544 0.954281
0.99693 0.995002 0.973458
0.997037 1.00259 0.990435
0.99978 0.9969 0.905422
0.994734 0.997679 0.883301
0.99936 1.00359 0.992193
0.999448 1.00377 0.992081
0.999796 1.00294 0.99231
1.00015 1.00188 0.992609
1.00027 1.00255 0.991705
1.00013 1.00312 0.991459
1.00013 1.00284 0.991784
0.999916 1.00296 0.991918
1.00024 1.00305 0.991313
1.00019 1.00194 0.992427
1.00034 1.00267 0.991482
1.00007 1.00263 0.992031
1.00019 1.00323 0.991248
1.00025 1.00324 0.991243
0.999948 1.00294 0.991748
1.00034 1.00313 0.991119
1.00035 1.00267 0.991417
1.00021 1.00205 0.992226
1.00034 1.00271 0.991524
1.00024 1.00269 0.991717
1.00012 1.00248 0.992055
1.00026 1.00252 0.991877
1.00023 1.00181 0.992563
1.0002 1.00207 0.992228
1.00011 1.00057 0.993955
1.00007 1.00061 0.993987
1.00014 0.998256 0.996207
1.00006 1.00058 0.994034
1.00015 0.9982 0.99623
1.00004 0.996733 0.999164
1.00015 0.998183 0.996269
1.00006 0.996729 0.998608
1.00006 0.996695 0.99808
1.0001 0.999762 0.994807
1.00015 0.999741 0.99473
1.00012 0.997732 0.996775
1.00019 0.999731 0.994659
1.0001 0.997793 0.996954
0.999942 0.996618 0.999275
1.00008 0.998012 0.996559
0.999876 0.996869 0.99923
0.999798 0.997112 0.99919
1.00513 0.994949 0.990549
1.00516 0.994939 0.990662
1.00494 0.995227 0.99028
1.00083 0.994977 0.988265
1.00516 0.994964 0.990483
1.00403 0.995408 0.993002
1.00489 0.996393 0.991229
0.997204 0.99508 0.972169
1.00084 0.99653 0.989546
1.00007 1.0012 0.993445
1.0001 1.0011 0.993501
1.00002 1.00214 0.992573
1.00008 1.00211 0.992536
1.00518 0.994936 0.990431
1.00508 0.994894 0.990543
1.00512 0.995158 0.989982
1.00329 1.00213 0.987242
1.00419 1.00202 0.984758
1.00461 0.997333 0.988926
1.00158 1.00247 0.989508
1.00044 1.00462 0.989769
1.00044 1.00422 0.98944
1.00012 1.00124 0.993332
1.00005 1.00422 0.990388
1.00007 1.00294 0.991773
1.00012 1.00108 0.99349
1.00022 1.00178 0.992529
1.00515 0.994992 0.990541
1.00011 1.00212 0.992444
1.00027 1.00197 0.992314
0.999961 1.00252 0.992184
1.00512 0.994883 0.990409
1.00494 0.995868 0.98935
1.00217 1.00207 0.988958
1.00419 0.998309 0.988921
0.999971 1.00407 0.990949
1.00015 1.00458 0.989802
1.00036 1.00391 0.990239
1.00051 1.0044 0.989601
1.0047 0.99494 0.991379
1.0051 0.995705 0.98999
1.00503 0.996473 0.989198
1.00229 0.999742 0.991078
0.999987 1.00324 0.991464
1.00011 1.00319 0.991262
0.999446 1.00456 0.991084
0.999644 1.00509 0.990095
1.00002 0.994897 0.947919
0.999881 1.00441 0.990951
1.00079 1.00389 0.989177
1.00436 0.994917 0.992217
1.00473 0.996256 0.989818
1.00432 1.00071 0.985903
1.0027 1.00305 0.986594
0.999526 0.996522 0.987326
0.999898 1.00458 0.990695
1.00348 0.996324 0.992143
1.00107 1.00354 0.989357
1.00299 1.00166 0.98739
1.00424 0.997825 0.988534
1.00143 0.995805 0.946327
0.99675 0.995235 0.969261
0.996926 1.00232 0.990188
0.999785 0.997474 0.908616
0.994722 0.997625 0.873655
0.999801 1.00367 0.991656
0.999879 0.995223 0.914571
0.995337 0.996958 0.884827
1.00196 1.00036 0.990817
1.00055 1.00336 0.990308
1.00226 1.00053 0.988838
0.996731 1.00356 0.989985
1.00027 0.997214 0.951635
0.994947 0.996645 0.967151
0.998248 0.998802 0.912412
0.994787 0.998923 0.88103
0.999233 1.00396 0.992137
0.999685 1.00315 0.992242
0.99959 1.00239 0.993573
1.0002 1.00191 0.992498
1.00034 1.0027 0.991501
1.00015 1.00313 0.991272
1.00013 1.00325 0.991336
1.0001 1.00261 0.991951
1.00022 1.00202 0.992237
1.00018 1.0033 0.991201
1.00033 1.00312 0.991134
1.00038 1.00263 0.991476
0.999947 1.0029 0.991834
1.00014 1.00332 0.991417
0.999613 1.00315 0.991939
1.00043 1.00307 0.990973
1.00043 1.00275 0.99133
1.00038 1.00268 0.991504
1.00023 1.00269 0.99174
1.00045 1.00276 0.99132
1.00008 1.00285 0.991794
1.00003 1.00259 0.991865
0.999735 1.00375 0.991403
0.999974 1.00275 0.992039
1.00014 1.00249 0.99205
1.00017 1.00175 0.992721
1.00025 1.00253 0.991812
1.00024 1.00182 0.992498
1.00018 1.00049 0.993944
1.00021 1.00208 0.992217
1.00011 1.00058 0.993957
1.00012 0.998244 0.996795
1.00007 1.00062 0.993984
1.00013 0.998236 0.9965
1.00009 0.99676 0.998005
1.00015 0.998213 0.996228
1.00004 0.996743 0.999162
1.00009 0.996735 0.998043
1.0001 1.00131 0.993284
1.00006 0.999816 0.994816
1.0001 0.999749 0.99481
1.00013 0.997698 0.996796
1.00016 0.99973 0.994732
1.00013 0.997701 0.996775
0.999985 0.996514 0.999288
1.00008 0.9978 0.997187
0.999957 0.996693 0.998765
0.999919 0.996923 0.998198
1.0005 0.995318 0.988396
1.00515 0.99496 0.990476
1.00391 0.996161 0.992521
0.996759 0.995076 0.97357
1.00067 0.996405 0.989804
1.00495 0.99584 0.991025
1.00328 0.997071 0.989172
0.996896 0.996894 0.976112
1.00008 0.995608 0.952116
0.999344 0.998313 0.915695
0.994664 0.997723 0.88204
0.999957 1.00217 0.992501
1.00008 1.00119 0.993444
1.00015 1.00104 0.993495
1.00002 1.00215 0.992542
0.999917 1.003 0.991923
1.00017 1.00268 0.991858
1.00007 1.00248 0.992234
1.00002 1.00223 0.992464
1.00517 0.994928 0.990529
1.00513 0.994898 0.99032
1.00493 0.99564 0.989388
1.00237 1.0017 0.988872
1.00387 0.998283 0.989311
1.0004 1.00424 0.990213
1.00087 1.00429 0.989532
1.00036 1.00471 0.989364
1.00019 1.00198 0.992478
0.999975 1.00407 0.99085
1.00012 1.00218 0.992557
0.999918 1.00238 0.992528
1.00471 0.994911 0.991456
0.999974 1.00326 0.991541
1.00009 1.00326 0.991418
1.00504 0.995426 0.98992
1.00469 0.99608 0.989521
1.00227 0.999721 0.990823
0.999703 1.00477 0.990613
0.999993 1.00476 0.990171
1.0034 0.99636 0.991894
1.00468 0.996082 0.99061
1.00425 0.995407 0.991215
1.00135 1.0005 0.991297
1.00001 1.00412 0.990561
0.999651 1.00436 0.990897
0.999663 1.00515 0.990428
0.999912 0.994839 0.915778
1.00051 0.99502 0.956678
0.99982 1.00475 0.990783
1.00099 1.00351 0.989396
1.00359 0.995919 0.992164
1.00448 0.998062 0.988586
1.00334 1.00138 0.987362
1.00054 0.995107 0.952685
0.997157 0.995648 0.968522
0.996764 1.00235 0.989911
0.999108 0.997318 0.917298
0.994709 0.997658 0.863786
0.999747 1.00366 0.991671
0.999882 0.995848 0.913525
0.995312 0.997048 0.879965
1.00193 1.00036 0.990872
1.00055 1.00323 0.990367
1.00235 1.00063 0.98931
0.997079 1.00333 0.990609
1.00141 0.997012 0.945655
0.994919 0.996094 0.971026
0.998542 0.999443 0.91289
0.994904 0.998709 0.878845
0.999335 1.00325 0.993192
0.995439 0.996805 0.884626
0.995084 0.998542 0.899012
0.999633 1.00186 0.992957
0.999562 1.00339 0.992301
0.996156 1.0028 0.991104
0.994827 0.999033 0.970369
0.998372 0.999228 0.943618
0.995146 0.999865 0.918554
0.994806 0.995662 0.888117
0.999689 1.00324 0.992174
0.999704 1.00211 0.993525
0.998809 1.00264 0.99389
1.00023 1.002 0.992248
1.00038 1.0026 0.991534
1.00032 1.00309 0.991149
1.00015 1.00338 0.991158
0.999905 1.0029 0.991921
1.00042 1.00276 0.991324
1.00015 1.00324 0.991358
1.00044 1.00305 0.990987
0.999413 1.00339 0.992063
0.997772 1.00435 0.993754
1.00018 1.0034 0.991171
1.00062 1.00314 0.99068
1.0004 1.00266 0.991485
1.00026 1.00264 0.991764
1.00043 1.00279 0.991299
1.0001 1.00285 0.991771
1.00007 1.00255 0.991965
0.999856 1.00335 0.991623
1.00007 1.00291 0.991587
0.999948 1.00269 0.992034
1.00021 1.00287 0.991542
0.999874 1.00495 0.989586
0.999547 1.00414 0.991143
0.999785 1.00374 0.991395
0.999857 1.0031 0.991883
0.999999 1.00275 0.992032
1.00009 1.00182 0.992755
1.00014 1.00253 0.992046
1.00018 1.00174 0.992727
1.00023 1.00035 0.993959
1.00025 1.00183 0.992432
1.00018 1.00047 0.993951
1.00013 0.998234 0.996796
1.00011 1.00058 0.993959
1.00014 0.998219 0.996508
1.00006 0.996744 0.998024
1.00015 0.998212 0.996211
1.00003 0.996766 0.999156
1.00004 0.996752 0.999159
1.00013 1.00144 0.993315
1.00006 0.999911 0.994725
1.0001 1.00131 0.993289
1.00014 0.997694 0.996785
1.00006 0.999809 0.994819
1.0001 0.999746 0.994812
1.00013 0.997688 0.996793
1.00001 0.996457 0.999289
1.00011 0.997681 0.997254
1 0.996529 0.998799
0.999985 0.996691 0.998282
0.99984 0.996054 0.907414
0.994869 0.997005 0.883927
0.997931 0.994859 0.973871
1.00056 0.99572 0.990081
1.005 0.9951 0.990821
0.996489 0.995871 0.977371
1.00345 0.996295 0.989498
1.00115 0.995974 0.951345
0.999804 0.997597 0.907052
0.994684 0.997574 0.872289
0.998642 0.995078 0.980988
1 0.997856 0.952176
0.998319 0.999044 0.911296
0.994772 0.997647 0.880697
1.00003 1.00317 0.991535
0.999964 1.00217 0.992575
1.00012 1.00114 0.993445
1.00003 1.00212 0.992511
0.999895 1.00289 0.992055
1.00017 1.00318 0.991393
1.00013 1.0027 0.991875
1.0002 1.00277 0.991628
1.00009 1.00244 0.992149
0.999963 1.00234 0.992395
1.0047 0.994927 0.991537
1.00511 0.995184 0.989866
1.00421 0.995803 0.98985
1.00214 0.999841 0.990567
1.00034 1.00446 0.990246
0.999928 1.00495 0.990141
1.00007 1.00321 0.991575
0.999911 1.0033 0.991617
1.00344 0.995758 0.992119
0.999967 1.00429 0.990466
0.999631 1.00445 0.990778
1.00482 0.995842 0.990275
1.00386 0.99541 0.99163
1.00181 1.00045 0.990761
0.999894 1.00514 0.990275
1.00062 0.997627 0.992693
1.00241 0.995785 0.994704
1.00009 1.00271 0.991221
0.999737 1.00471 0.990281
0.999757 1.00482 0.99019
0.99949 1.00512 0.990531
0.994765 0.996653 0.899604
0.999897 0.994866 0.918813
1.00003 0.994912 0.947918
0.999559 1.00384 0.991687
1.00057 1.00306 0.990424
1.00195 1 0.990933
1.00249 1.00081 0.989776
0.999852 0.995485 0.919779
1.00016 0.997001 0.945781
0.994904 0.995537 0.967276
0.997407 1.0022 0.991185
0.99838 0.999067 0.903521
0.995297 0.99703 0.881494
0.994901 0.998464 0.884521
0.999042 1.00324 0.993199
0.995374 0.995813 0.890481
0.995235 0.998735 0.898553
0.999938 1.00172 0.992887
0.999321 1.00353 0.992295
0.995975 1.00013 0.994022
0.994858 0.998276 0.969254
0.99744 0.999141 0.952397
0.997295 0.999887 0.908859
0.994793 0.995769 0.893806
0.997813 1.00378 0.995278
0.995115 0.996675 0.90982
0.994748 0.995656 0.909022
0.995923 1.00221 0.999259
0.994791 0.999924 0.976986
0.995223 0.99998 0.952854
0.994809 0.999928 0.906531
0.994869 0.994786 0.891553
0.999797 1.00184 0.993476
0.998969 1.00268 0.994075
0.997302 1.00416 0.995229
1.00041 1.0028 0.991319
1.00046 1.00303 0.991002
1.00018 1.00312 0.991298
0.999223 1.00362 0.992192
1.00055 1.00322 0.990661
1.00014 1.00347 0.99115
0.997816 1.00426 0.994171
0.99592 1.00521 0.996488
0.998336 1.00442 0.993439
1.00036 1.00342 0.990879
1.00044 1.00281 0.991276
1.00011 1.00286 0.991748
1.00008 1.00255 0.992062
1.00008 1.00287 0.991656
0.999879 1.00335 0.991629
0.999953 1.00274 0.992066
1.00007 1.00298 0.991784
0.999262 1.00262 0.993128
1.00115 1.00061 0.991821
1.00026 1.00274 0.991651
1.00012 1.0039 0.990416
1.00137 1.0049 0.987532
0.99982 1.00475 0.990644
0.99974 1.00493 0.989978
0.99965 1.0041 0.991206
0.999712 1.00347 0.991571
0.999838 1.00373 0.991387
0.999927 1.00304 0.991883
1.00004 1.00207 0.99261
1.00006 1.00272 0.992026
1.00012 1.00181 0.992751
1.00024 1.00035 0.993954
1.0002 1.00172 0.992732
1.00023 1.00038 0.993963
1.00012 0.998221 0.996812
1.00018 1.00046 0.993958
1.00014 0.998214 0.996514
1.00002 0.996828 0.998021
1.00016 0.998194 0.996219
1.00004 0.996764 0.99859
1.00003 0.996764 0.999159
1.00015 1.00176 0.992779
1.0001 1.00002 0.994571
1.0001 1.00149 0.993147
1.00014 0.997733 0.99673
1.00006 0.999904 0.994727
1.00007 1.00136 0.993292
1.00003 0.996434 0.999286
1.00013 0.997691 0.996786
1.00006 0.999791 0.994822
1.00013 0.997678 0.996791
1.00001 0.996469 0.999289
0.999984 0.996519 0.999287
0.994716 0.995035 0.892126
0.999862 0.995638 0.912682
0.995124 0.998857 0.898795
0.995052 0.997161 0.881265
0.996601 0.995363 0.974703
1.0035 0.996214 0.989851
1.0003 0.996549 0.949985
0.999795 0.997233 0.916474
0.994714 0.997662 0.862405
0.99846 0.995699 0.980027
1.00127 0.997648 0.942389
0.998487 0.999345 0.912043
0.994796 0.998305 0.875577
0.995573 0.99627 0.975485
0.997829 0.998918 0.944377
0.99578 0.999822 0.904332
0.994834 0.995471 0.882624
1.00001 1.00394 0.990864
0.999993 1.00314 0.991648
0.999934 1.00222 0.992647
0.999862 1.00279 0.992187
1.00034 1.00344 0.990689
1.00015 1.00309 0.991487
1.00007 1.00273 0.99189
1.00035 1.00282 0.991459
1.00023 1.00275 0.991719
1.00012 1.00242 0.992063
1.00359 0.995489 0.992327
1.00477 0.995536 0.989945
1.0038 0.995309 0.992036
1.0021 1.00024 0.990239
1.00004 1.00512 0.990124
0.999715 1.00456 0.99066
0.999911 1.00445 0.990372
0.99994 1.0047 0.990172
1.00084 0.997499 0.993014
0.999879 1.00486 0.990151
0.999729 1.00512 0.990503
1.00265 0.995798 0.994189
1.00057 1.00261 0.991072
0.99857 0.997089 0.994266
0.998451 0.998239 0.999892
0.998778 1.00445 0.991878
0.999953 1.00492 0.989855
0.999437 1.00507 0.990609
0.994802 0.996511 0.915377
0.994756 0.996674 0.897543
0.999884 0.994847 0.910175
0.998761 1.00324 0.993208
0.999138 1.00359 0.99227
1.00024 1.00163 0.992833
0.995382 0.994972 0.891373
0.997748 0.998942 0.944627
0.99486 0.997419 0.969586
0.996117 0.998819 0.997159
0.995744 0.999902 0.918632
0.995542 0.998954 0.898116
0.994835 0.995666 0.894047
0.99768 1.00373 0.995505
0.995225 0.995803 0.912683
0.994738 0.995554 0.909064
0.996157 1.00246 0.998359
0.994826 0.999665 0.978389
0.996139 0.99994 0.944714
0.994869 0.994831 0.892245
0.994857 0.999956 0.913146
0.995732 1.00507 0.997886
0.994646 0.994705 0.928591
0.994791 0.994865 0.912555
0.994823 0.995724 0.882913
0.995021 1.00054 0.993648
0.995045 0.999865 0.955973
0.994937 0.999993 0.911854
0.999189 1.00273 0.994259
0.997746 1.00425 0.994532
0.995513 1.00515 0.998044
1.00053 1.00323 0.990642
1.00007 1.00351 0.991127
0.997815 1.00416 0.994576
1.00026 1.00334 0.990942
0.998363 1.00428 0.993457
0.996032 1.00471 0.996889
0.995662 1.0051 0.997756
0.998555 1.00356 0.993439
1.00008 1.00284 0.991725
0.999898 1.00335 0.991634
0.999981 1.00276 0.992099
0.999423 1.00281 0.992995
1.00003 1.00289 0.991773
0.999849 1.00226 0.992801
1.00047 1.00109 0.992645
1.00104 1.00251 0.98998
1.00033 1.00258 0.991763
1.00051 1.00382 0.990189
1.00184 1.00366 0.987341
1.00186 1.00424 0.987046
1.00013 1.00493 0.989708
1.00111 1.00485 0.987645
0.999881 1.00407 0.990969
0.999741 1.00483 0.990573
0.999593 1.00494 0.990369
0.999754 1.00407 0.99127
0.999767 1.00338 0.991664
1.00001 1.00233 0.992381
0.999987 1.00297 0.991883
1.00007 1.00204 0.992612
1.00021 1.0005 0.993861
1.00015 1.0018 0.992746
1.00025 1.00035 0.993951
1.00008 0.998238 0.996837
1.00024 1.00037 0.993967
1.00013 0.998202 0.996533
0.999966 0.996913 0.998043
1.00016 0.998168 0.99623
1 0.996836 0.99859
1 0.996805 0.999161
1.00025 1.00197 0.992209
1.00014 1.00026 0.994039
1.00016 1.00176 0.992778
1.00015 0.997832 0.996608
1.0001 1.00003 0.994438
1.00009 1.00149 0.99298
1.00003 0.996477 0.99927
1.00014 0.997731 0.996735
1.00006 0.999893 0.994729
1.00003 0.996443 0.999287
1.00013 0.997688 0.996787
1.00001 0.996472 0.99929
0.994801 0.994847 0.912221
0.994728 0.995704 0.89661
0.999849 0.996047 0.913772
1.00045 1.00292 0.991078
0.994779 0.996799 0.913545
0.995146 0.99817 0.898494
0.995213 0.996833 0.88522
0.998575 0.996241 0.978658
0.999555 0.998178 0.951765
0.998334 0.998736 0.902121
0.994784 0.998732 0.878569
0.996437 0.996179 0.971531
0.997493 0.998815 0.952205
0.997169 0.999905 0.908146
0.994815 0.996195 0.884561
0.994871 0.997317 0.967709
0.995391 0.999959 0.95149
0.994882 0.99997 0.913129
0.994877 0.994822 0.891414
1.00021 1.00425 0.990138
1.00002 1.00398 0.990751
0.999994 1.0031 0.991761
1.00031 1.00355 0.990661
1.00031 1.00347 0.990819
1.00014 1.00302 0.991582
1.00037 1.00279 0.991493
1.00024 1.00273 0.99181
1.0009 0.997225 0.993298
1.0028 0.995842 0.993647
1.00004 1.00462 0.990062
1.00129 1.0025 0.99091
0.999991 1.00513 0.990474
0.999936 1.00487 0.99011
0.99995 1.00493 0.989925
0.998144 0.997566 0.994824
0.999645 1.00506 0.990569
0.999416 1.00406 0.991937
0.998521 0.997831 0.999907
0.999946 1.00494 0.989906
0.996673 0.998383 0.994817
0.996114 0.999854 1.00234
0.99869 1.0053 0.991774
0.9998 1.00497 0.990528
0.994641 0.994828 0.93335
0.994794 0.996679 0.915603
0.994745 0.996755 0.89548
0.997505 1.00371 0.995757
0.99611 1.00233 0.997439
0.995221 0.994851 0.915489
0.995311 0.999983 0.953205
0.994835 0.999022 0.97531
0.994855 0.999943 0.912402
0.994699 0.99566 0.909097
0.994856 0.995137 0.892923
0.996043 1.00477 0.997583
0.994643 0.994714 0.928479
0.994777 0.994948 0.916622
0.99489 1.00135 0.99699
0.994806 0.996436 0.88475
0.994941 0.999258 0.95101
0.995041 0.999999 0.916447
0.995089 1.00435 0.998802
0.994688 0.994702 0.932954
0.994759 0.99703 0.913681
0.994756 0.997993 0.88091
0.995912 0.999971 0.912425
0.99492 0.998893 0.98515
0.995344 1.00073 0.943446
0.998239 1.00429 0.993833
0.995654 1.00514 0.997701
0.994923 1.00507 0.999983
1.00016 1.0033 0.991007
0.998368 1.00428 0.993476
0.996168 1.00394 0.997289
0.998723 1.0037 0.993352
0.99584 1.00418 0.99773
0.997681 1.00349 0.995922
0.999617 1.00296 0.992861
0.999929 1.00287 0.991764
0.999953 1.00234 0.992918
0.9996 1.00389 0.991028
0.999756 1.00153 0.99346
1.00085 1.00236 0.990401
1.00203 1.00318 0.98786
1.00406 1.00227 0.985103
1.00091 1.00373 0.989958
1.00221 1.00382 0.986734
1.00278 1.00327 0.987153
1.00058 1.0047 0.988566
1.00184 1.00416 0.98727
0.999819 1.00466 0.990291
1.00017 1.00496 0.989666
1.00086 1.00479 0.98776
0.999995 1.00283 0.991901
0.999837 1.00405 0.990997
0.999668 1.0049 0.990502
0.999825 1.0033 0.991755
1.00005 1.00231 0.992377
1.00017 1.00076 0.993664
1.00011 1.00201 0.992614
1.00021 1.00051 0.993857
1.00004 0.998367 0.996267
1.00026 1.00037 0.993948
1.00011 0.998232 0.996278
0.99984 0.996997 0.999178
1.00014 0.99818 0.99625
0.999946 0.996919 0.9986
0.999963 0.996869 0.999163
1.00028 1.00218 0.991925
1.00021 1.00054 0.993628
1.00024 1.002 0.992298
1.00016 0.997985 0.996436
1.00016 1.00027 0.993989
1.00016 1.00178 0.992776
1.00002 0.996569 0.999239
1.00015 0.997824 0.996617
1.0001 1.00004 0.994306
1.00004 0.996462 0.999275
1.00014 0.997727 0.99674
1.00003 0.996451 0.999288
0.994671 0.994734 0.929169
0.994801 0.995721 0.912036
0.994726 0.996475 0.89685
1.0004 1.00294 0.99116
1.00039 1.00297 0.991027
1.00044 1.00333 0.990784
0.994764 0.994756 0.912214
0.994736 0.996072 0.913577
0.995226 0.998066 0.898189
0.996162 0.995705 0.973892
0.998458 0.999359 0.94321
0.995269 0.999918 0.91835
0.994822 0.996823 0.881074
0.994916 0.997175 0.970821
0.996239 0.999976 0.948575
0.994831 0.999963 0.913567
0.994867 0.994845 0.891992
0.994869 0.997568 0.966624
0.995206 0.99997 0.952863
0.994941 1 0.91233
0.994819 0.996131 0.887859
1.00035 1.0041 0.990018
1.00019 1.00425 0.990107
1.00008 1.004 0.990638
1.00037 1.00347 0.990638
1.00025 1.00348 0.990951
1.0004 1.00278 0.991528
0.997693 0.997996 0.995369
0.99825 0.997672 0.999945
0.999987 1.00488 0.989996
1 1.00325 0.992001
0.999773 1.00505 0.990531
1.00003 1.00484 0.989804
0.999461 1.00497 0.990612
0.996357 0.998022 0.995152
0.998714 1.00481 0.99243
0.995984 1.00063 1.0016
0.999804 1.00456 0.990621
0.995323 0.997663 0.995324
0.996449 1.00221 0.998258
0.998642 1.00523 0.992588
0.994653 0.994801 0.938378
0.994647 0.994826 0.934745
0.99479 0.996808 0.915814
0.99634 1.0046 0.997259
0.995018 1.00128 0.994208
0.994671 0.994725 0.928367
0.994867 0.999173 0.953808
0.994935 0.99997 0.907409
0.994774 0.99469 0.920688
0.994812 0.996968 0.881345
0.995212 1.0041 0.999189
0.994693 0.99473 0.934553
0.994724 0.996286 0.913723
0.994945 0.999161 0.981322
0.994776 0.998562 0.875918
0.99482 0.999961 0.912819
0.995069 1.00052 0.952809
0.995008 1.00429 0.996836
0.994666 0.99474 0.929546
0.995101 0.999119 0.89907
0.99465 0.997802 0.882751
0.996068 0.99919 0.904273
0.995966 0.999978 0.95158
0.995309 1.00027 0.974896
0.995933 1.00517 0.997382
0.995187 1.00382 0.999906
0.996519 1.00345 0.998598
0.998843 1.00382 0.993265
0.996007 1.00354 0.99771
0.996796 1.0039 0.996409
0.999707 1.00279 0.993065
1.00007 1.0025 0.993035
1.00062 1.00361 0.990619
1.00145 1.00462 0.987553
1.00064 1.00226 0.990834
1.00227 1.00334 0.987389
1.00389 1.00382 0.984203
1.00503 1.00172 0.983951
1.00359 1.00214 0.985772
1.00405 1.00248 0.98495
1.00256 1.00397 0.986127
1.00227 1.00343 0.987821
1.00248 1.00303 0.987541
1.00014 1.00488 0.989163
1.00072 1.00469 0.98872
1.00184 1.00408 0.987498
0.999906 1.004 0.990848
0.99995 1.00463 0.990305
1.00019 1.00499 0.989622
1.00013 1.00115 0.993337
1.00006 1.00279 0.99189
0.999797 1.00402 0.991025
1.00009 1.00229 0.992373
1.00018 1.00077 0.993661
0.999953 0.998588 0.996193
1.00022 1.00051 0.993854
1.00004 0.998366 0.996262
0.999773 0.997159 0.999169
1.00011 0.998222 0.996275
0.999872 0.997026 0.998611
0.999908 0.996962 0.999167
1.00034 1.00235 0.991831
1.00029 1.00076 0.993478
1.00031 1.00217 0.99198
1.00017 0.998169 0.996234
1.00022 1.00054 0.993709
1.00026 1.00201 0.992388
1 0.996704 0.9992
1.00016 0.997969 0.996449
1.00017 1.00028 0.99394
1.00003 0.996548 0.999249
1.00015 0.997821 0.996626
1.00004 0.996456 0.999281
0.994671 0.994707 0.932677
0.994663 0.994724 0.929057
0.994809 0.996474 0.911958
1.00028 1.00321 0.990968
1.00029 1.00361 0.99072
1.00035 1.00296 0.991244
1.00037 1.00304 0.991021
1.00035 1.00341 0.990749
1.00029 1.00346 0.990802
1.00047 1.0035 0.990477
0.994734 0.995423 0.908484
0.99477 0.994892 0.916337
0.994694 0.995543 0.913615
0.994837 0.995033 0.892577
0.994874 0.99706 0.968119
0.995224 0.999965 0.946308
0.994871 0.999918 0.918986
0.994861 0.997978 0.96594
0.99492 0.999998 0.945325
0.994997 1 0.917273
0.99479 0.995811 0.893622
0.995366 0.996564 0.969899
0.994936 1.00037 0.944924
0.994792 0.999909 0.907198
0.994783 0.998949 0.880415
0.999786 1.0047 0.990467
1.00029 1.00416 0.990037
1.0002 1.00435 0.990076
1.00045 1.00338 0.990616
0.996234 0.997785 0.995534
0.99586 1.00154 1.00085
1.00003 1.0049 0.989703
0.999432 1.00502 0.990697
0.999027 1.00469 0.993086
0.999735 1.00468 0.990582
0.998424 1.00523 0.992592
0.995222 0.998879 0.992579
0.995836 1.0034 0.998636
0.997915 1.00501 0.993263
0.995184 0.998615 0.991174
0.997469 1.00437 0.996885
0.994655 0.994821 0.933424
0.994649 0.994753 0.941234
0.99464 0.994808 0.936136
0.995067 1.00383 0.999535
0.994938 0.997941 0.985875
0.99468 0.99474 0.936178
0.996399 1.00073 0.944045
0.994854 0.999927 0.918085
0.994689 0.995784 0.913765
0.994766 0.998907 0.878932
0.994971 1.00279 0.997482
0.994664 0.994725 0.929449
0.995217 0.998411 0.898748
0.994922 1.00062 0.97605
0.994675 0.997657 0.873177
0.997241 0.999896 0.907801
0.994913 0.999989 0.944683
0.995469 1.00466 0.991283
0.994924 0.994849 0.912819
0.994993 0.997035 0.884568
0.998694 0.998118 0.912085
0.995302 0.999962 0.951591
0.994888 1.00001 0.968938
0.995412 1.00286 1
0.995756 1.00413 0.99856
0.997872 1.00137 0.996953
0.995974 1.00429 0.996896
0.998546 1.00303 0.993616
1.00294 1.00045 0.989837
1.00166 1.00324 0.990208
1.00182 1.00453 0.987428
1.00286 1.00427 0.984801
1.00255 1.00351 0.986918
1.00415 1.00382 0.98378
1.00447 1.00378 0.982896
1.00504 1.00108 0.984572
1.00511 1.0017 0.984126
1.00498 1.00186 0.983887
1.00316 1.00222 0.986372
1.00366 1.00213 0.985998
1.00401 1.00272 0.984798
1.00168 1.00424 0.987735
1.00213 1.00338 0.987802
1.00217 1.0028 0.987926
1.0001 1.00492 0.989541
1.00018 1.0049 0.989357
1.00088 1.00467 0.988876
1.00003 1.00199 0.992627
1.00004 1.00385 0.99086
1.00007 1.0046 0.990318
0.999863 0.998824 0.996097
1.00015 1.00116 0.993321
1.00012 1.00274 0.991879
1.00019 1.00076 0.993657
0.999952 0.998602 0.996184
0.999681 0.997367 0.999154
1.00005 0.998359 0.996257
0.999764 0.997197 0.999166
0.999838 0.997058 0.999171
1.00029 1.00332 0.990942
1.00041 1.00252 0.991586
1.00033 1.00103 0.993128
1.00035 1.00236 0.991818
1.00015 0.998414 0.996015
1.00028 1.00077 0.993477
1.00028 1.00222 0.992035
0.999973 0.996871 0.999153
1.00016 0.998167 0.996248
1.00022 1.00054 0.99379
1.00001 0.996672 0.999212
1.00016 0.997959 0.996462
1.00003 0.996522 0.999259
0.994665 0.994704 0.928253
0.994682 0.994722 0.934301
0.994654 0.994761 0.928929
1.00035 1.00316 0.990994
1.0002 1.00368 0.990693
1.00011 1.00384 0.990595
1.00015 1.00365 0.990686
1.00031 1.00403 0.990384
1.00035 1.00309 0.991015
1.00029 1.0035 0.990713
1.00032 1.00343 0.990798
1.0004 1.00361 0.990554
1.00013 1.004 0.990725
0.995114 0.998552 0.898158
0.994746 0.995737 0.908557
0.994794 0.994743 0.92045
0.994811 0.995573 0.893854
0.994939 0.999974 0.907822
0.994881 0.998695 0.964516
0.994919 1.0001 0.952597
0.994892 0.996968 0.966714
0.995 1.00011 0.953028
0.994844 0.999959 0.914279
0.99493 0.998695 0.878081
0.995015 0.995046 0.971619
0.994928 1.00011 0.95339
0.995673 0.999876 0.917567
0.994742 0.997684 0.881384
0.998772 1.00378 0.992827
0.999847 1.00477 0.990411
1.00027 1.0042 0.990056
0.995032 0.99985 0.989744
0.99548 1.00413 0.999
0.999741 1.00464 0.990541
0.997839 1.00523 0.992597
0.998106 1.00479 0.993293
0.996714 1.00395 0.9969
0.994926 0.998886 0.991352
0.996201 1.00232 0.998118
0.995984 1.00014 0.991464
0.995049 0.996204 0.914914
0.994659 0.994833 0.934795
0.994661 0.994711 0.944094
0.994992 1.00109 0.997846
0.994894 1.00111 0.972288
0.994661 0.994765 0.929332
0.996389 0.999991 0.950186
0.995193 0.999904 0.917925
0.995432 0.997996 0.898438
0.99471 0.997759 0.863464
0.995275 1.0049 0.991713
0.994849 0.995445 0.912655
0.995165 0.997072 0.881944
0.994895 0.999998 0.969953
0.998515 0.999256 0.912634
0.996163 0.999959 0.947376
0.995482 1.00338 0.988664
0.994808 0.994866 0.892846
0.999484 0.997962 0.916648
0.997781 0.998708 0.944222
0.994863 0.997445 0.971663
0.99517 1.00481 0.998505
0.997842 1.0016 0.996848
1.00256 1.00009 0.991982
0.997458 1.00327 0.99409
1.00192 1.00074 0.990177
1.00398 0.999165 0.988171
1.00215 1.0044 0.987301
1.00295 1.0041 0.984882
1.00441 1.0016 0.984939
1.0044 1.00379 0.983359
1.00445 1.00346 0.982969
1.00491 1.00075 0.984993
1.00513 0.999382 0.986016
1.00513 1.00114 0.984309
1.00498 1.00102 0.984642
1.00482 1.00166 0.98459
1.00508 1.00168 0.984067
1.00493 1.002 0.983825
1.00272 1.00335 0.986626
1.00313 1.00225 0.986612
1.00368 1.00217 0.986226
1.00103 1.0044 0.988478
1.00149 1.00424 0.987863
1.00199 1.00335 0.98778
0.999936 1.00345 0.991293
1.00023 1.00481 0.989556
1.00024 1.00493 0.989549
0.999767 0.999248 0.996419
1.00008 1.002 0.992591
1.00016 1.00369 0.990873
0.999602 0.997616 0.997957
0.999859 0.998888 0.996355
1.00016 1.00117 0.993304
0.99995 0.99862 0.996176
0.999675 0.997414 0.999147
0.999755 0.997229 0.999162
1.0002 1.00366 0.990704
1.0004 1.0028 0.991329
1.00024 1.0034 0.990909
1.00035 1.0013 0.992832
1.00035 1.00259 0.991578
1.00012 0.998683 0.995805
1.00032 1.00104 0.993129
1.00038 1.00234 0.991806
0.999932 0.997082 0.999102
1.00015 0.9984 0.996029
1.00027 1.00078 0.993477
0.999977 0.996844 0.999167
1.00016 0.99816 0.996261
1.00001 0.996645 0.999224
0.995606 0.994835 0.915955
0.994658 0.994708 0.928158
0.99467 0.99471 0.935942
1.00043 1.0032 0.990786
1.00034 1.0032 0.99102
1.00013 1.00376 0.990666
1.00023 1.00368 0.990713
1.00025 1.00377 0.990638
1.00021 1.00396 0.990488
1.0003 1.00428 0.989957
0.999883 1.00437 0.990278
1.00039 1.00334 0.990794
1.00019 1.00371 0.99063
1.00001 1.00404 0.990687
0.999445 1.00444 0.991935
0.995294 0.997383 0.883781
0.99552 0.998715 0.897689
0.994729 0.99597 0.908616
0.995192 0.998392 0.883827
0.994845 0.999947 0.914022
0.994939 1.00036 0.944928
0.995405 0.997066 0.964661
0.995037 0.995176 0.973269
0.99472 0.997722 0.872131
0.994905 0.999977 0.948989
0.997189 0.999881 0.908034
0.994879 0.99628 0.973904
0.995515 0.99997 0.953434
0.999323 0.99818 0.908771
0.998932 1.00196 0.994932
0.998979 1.0038 0.992773
0.999768 1.00483 0.990356
0.994833 0.999296 0.991585
0.996096 1.00352 0.996911
0.998191 1.00465 0.993322
0.997461 1.00214 0.997927
0.995506 1.00007 0.991564
0.997003 0.999363 0.99395
0.99477 0.998037 0.893487
0.994931 0.995616 0.918832
0.994656 0.994823 0.936166
0.994957 1.00511 0.992043
0.994877 0.999905 0.970223
0.994793 0.996149 0.912574
0.995212 0.999994 0.945599
0.998608 0.997915 0.903037
0.995271 0.996913 0.886037
0.995806 1.0036 0.98863
0.994801 0.995544 0.897365
0.999817 0.99691 0.908238
0.994897 0.997669 0.967706
0.997509 0.998798 0.951924
0.997547 1.00042 0.992152
0.999839 0.995816 0.908148
1.00003 0.998045 0.951866
0.994868 0.996274 0.967292
0.997844 1.00182 0.996841
1.0019 0.999148 0.992448
1.0037 0.999536 0.989527
1.00087 1.00105 0.990521
1.00345 0.999762 0.988143
1.00458 0.998291 0.987802
1.00302 1.00394 0.984962
1.00425 1.00159 0.984911
1.00499 0.998252 0.987075
1.00442 1.00315 0.983041
1.00489 1.00056 0.985028
1.00508 0.99773 0.987622
1.00514 0.997749 0.987616
1.00516 0.999804 0.985545
1.00511 0.999265 0.986118
1.00511 1.00093 0.984549
1.0051 1.00108 0.98442
1.00493 1.00097 0.984711
1.00414 1.00189 0.985489
1.00465 1.00163 0.984723
1.00503 1.00159 0.984006
1.00218 1.00359 0.987351
1.00278 1.00327 0.986612
1.00312 1.00223 0.986851
1.00042 1.00405 0.989909
1.00109 1.00442 0.988467
1.00129 1.00422 0.987991
0.999691 1.00002 0.995141
1.00009 1.00329 0.991287
1.00039 1.00469 0.989571
0.999506 0.99785 0.999109
0.999749 0.999346 0.995793
1.00013 1.00199 0.992556
0.999601 0.997619 0.999124
0.99984 0.998938 0.996054
0.999671 0.997468 0.999139
1.00053 1.00338 0.990542
1.00025 1.00364 0.990683
1.0004 1.00311 0.991012
1.00031 1.00161 0.992583
1.00035 1.00284 0.991326
1.00023 1.00341 0.990876
1.00007 0.998942 0.995625
1.00033 1.00131 0.992834
1.00032 1.00264 0.991571
0.999883 0.997298 0.999052
1.00012 0.998661 0.995817
1.00032 1.00105 0.99313
0.999936 0.997039 0.999117
1.00015 0.998389 0.996043
0.999981 0.996801 0.999182
0.9954 0.996446 0.885005
0.995379 0.994843 0.91581
0.994676 0.994713 0.928063
1.00026 1.00341 0.99077
1.00102 1.00289 0.990649
1.00029 1.00361 0.990526
1.00026 1.00373 0.990739
1.00039 1.00368 0.990681
1.00003 1.00398 0.990592
1.00006 1.0043 0.990263
1.00024 1.00428 0.990053
1.00021 1.00464 0.989781
0.999836 1.00116 0.99349
1.00016 1.00389 0.99065
0.999524 1.00412 0.991663
0.999813 0.997394 0.904125
0.995237 0.997394 0.878833
0.995734 0.998931 0.897261
0.994707 0.997839 0.862697
0.996804 0.99886 0.917422
0.994881 0.999981 0.94759
0.995152 0.995067 0.970946
0.994961 0.9964 0.972452
0.998516 0.999345 0.911433
0.996168 0.999969 0.945958
0.994894 0.997858 0.973363
0.998746 0.998816 0.944233
1.00206 0.9982 0.993404
0.999054 1.00193 0.994714
0.999178 1.00387 0.992732
0.99502 1.00021 0.991623
0.998492 1.00197 0.997724
0.99763 0.99954 0.993329
0.999527 0.998962 0.990271
0.999915 0.994838 0.915546
0.99489 0.997134 0.894231
0.994783 0.994865 0.922665
0.99602 1.00388 0.988751
0.994882 0.9977 0.965783
0.994769 0.996079 0.897554
0.998821 0.99853 0.943202
0.999806 0.997431 0.91751
0.997339 0.999846 0.990119
0.999866 0.995482 0.913494
1.00137 0.997447 0.942529
0.994899 0.996081 0.970743
0.998799 0.996465 0.992311
1.00005 0.996121 0.95216
0.99638 0.996065 0.973139
1.00134 0.998017 0.992868
1.00352 0.998545 0.989481
1.00489 0.997427 0.989219
1.00286 1.00031 0.988119
1.00432 0.998474 0.987804
1.0048 0.996856 0.988766
1.00414 1.00161 0.984886
1.00489 0.998465 0.987003
1.00509 0.995983 0.989148
1.00488 1.0004 0.985062
1.00507 0.997706 0.987622
1.00512 0.996142 0.989231
1.00511 0.996816 0.988811
1.00515 0.997579 0.987819
1.00516 0.998493 0.987031
1.00515 1.00015 0.985431
1.00517 0.999846 0.985577
1.0051 0.99915 0.98622
1.00501 1.00076 0.985016
1.00511 1.00094 0.984592
1.00509 1.001 0.984531
1.00339 1.00259 0.986214
1.00412 1.00196 0.985479
1.00449 1.00168 0.984857
1.0012 1.00363 0.988955
1.00224 1.00357 0.987332
1.00285 1.00322 0.986598
0.999834 1.00086 0.994034
1.00053 1.00389 0.989919
1.0012 1.00439 0.988456
0.999539 0.998136 0.998975
0.999705 1.00012 0.995089
1.00022 1.00319 0.991281
0.999543 0.997875 0.998482
0.999735 0.999435 0.995763
0.99961 0.997676 0.999112
1.00074 1.00295 0.990602
1.00034 1.00349 0.990589
1.00033 1.00346 0.990683
1.00033 1.00363 0.990663
1.00032 1.00318 0.99101
1.00027 1.00196 0.992303
1 0.999206 0.995484
1.00031 1.0016 0.992588
1.00028 1.00291 0.991324
0.999826 0.997501 0.999006
1.00007 0.998925 0.995634
1.00032 1.00132 0.992836
0.999886 0.997258 0.999067
1.00012 0.998643 0.995829
0.999941 0.997005 0.999133
0.999849 0.995246 0.914475
0.995445 0.996631 0.887127
0.995237 0.99485 0.915656
1.00012 1.00362 0.990753
1.00021 1.00387 0.990404
1.00073 1.00291 0.990879
1.00189 1.00312 0.988744
1.00038 1.00388 0.990374
1.0002 1.0043 0.990248
1.00021 1.00424 0.990148
1.00009 1.00449 0.990045
1.00054 1.00344 0.989303
1.00088 1.0002 0.993004
1.00422 0.998095 0.989097
0.999877 1.00106 0.993678
0.999779 1.00365 0.991387
0.999093 0.997624 0.951524
0.999783 0.997824 0.908132
0.99529 0.99704 0.88041
0.999164 0.999567 0.901205
0.995854 0.999956 0.950897
0.994891 0.996335 0.973924
0.994873 0.997858 0.975342
0.997434 0.998639 0.953639
0.99595 0.998265 0.974524
1.00314 0.996165 0.992894
1.00139 0.99883 0.993523
0.999194 1.00197 0.994486
0.9984 0.999494 0.992778
1.00051 0.99917 0.988906
1.00001 0.994892 0.947935
0.999898 0.994868 0.918961
0.995002 0.996423 0.895073
0.996977 0.999604 0.988019
0.994922 0.995985 0.967571
0.999854 0.995811 0.914481
1.00015 0.998269 0.951269
0.998115 0.997744 0.992672
1.00128 0.996165 0.950986
0.996628 0.995566 0.969931
1.0014 0.996319 0.99114
0.999222 0.995826 0.978546
1.00335 0.997685 0.989486
1.00482 0.996674 0.989163
1.00496 0.995915 0.990125
1.00408 0.998669 0.987805
1.0047 0.996946 0.988701
1.00513 0.995269 0.989922
1.00476 0.998662 0.986934
1.00509 0.996067 0.989118
1.00509 0.995041 0.990215
1.00508 0.997687 0.987623
1.00513 0.996139 0.989191
1.00512 0.995827 0.989789
1.00511 0.996587 0.988957
1.00513 0.997479 0.988165
1.00515 0.997404 0.988022
1.00517 0.998513 0.987007
1.00519 0.999276 0.986248
1.00513 1.00029 0.98533
1.00515 1.00019 0.985402
1.00517 0.999889 0.98561
1.00443 1.00109 0.985737
1.00495 1.00083 0.985032
1.0051 1.00096 0.984637
1.00206 1.00292 0.98813
1.0034 1.00257 0.986212
1.0041 1.00203 0.985469
1.00016 1.00132 0.99297
1.00127 1.00357 0.988943
1.00223 1.0036 0.987313
0.999634 0.998618 0.998718
0.999889 1.00087 0.994007
1.00068 1.00371 0.989929
0.999593 0.998233 0.998897
0.999725 1.00022 0.995037
0.999594 0.997908 0.999032
1.0018 1.00341 0.988184
1.00079 1.00282 0.990588
1.00043 1.00348 0.990357
1.00018 1.00355 0.990635
1.00028 1.00352 0.990649
1.00026 1.00239 0.991879
1.00026 1.00323 0.991009
1.00026 1.00195 0.992311
0.999921 0.999496 0.995347
0.999759 0.997706 0.99897
1 0.999181 0.995493
1.0003 1.00159 0.992593
0.99983 0.997478 0.99902
1.00007 0.998913 0.995643
0.999891 0.997215 0.999082
1.00034 0.995228 0.955051
0.999862 0.995469 0.913519
0.995398 0.997138 0.884083
1.00014 1.00414 0.990283
1.00049 1.00285 0.991109
1.00051 1.00378 0.990378
1.00175 1.00307 0.988829
1.00333 1.0027 0.986397
1.00082 1.00344 0.989428
0.99994 1.00438 0.990308
1.00118 1.00351 0.988664
1.00065 1.00054 0.992968
1.00258 1.00036 0.98909
1.00453 0.99713 0.990295
1.00438 0.996818 0.98992
1.00373 0.997932 0.9898
0.999568 1.00132 0.99387
0.996036 0.996336 0.974052
1.0002 0.997139 0.949241
0.998354 0.997753 0.917179
0.998038 0.999324 0.944146
0.994862 0.998186 0.976375
0.996118 0.998181 0.979004
0.999951 0.998179 0.992244
1.00337 0.995871 0.992884
1.00101 0.99934 0.993643
1.00216 0.999422 0.987482
0.9967 0.997494 0.974689
1.00034 0.995208 0.956684
0.999885 0.994844 0.910174
0.997527 0.998805 0.992909
0.996707 0.99486 0.972147
1.00028 0.996666 0.949544
1.00112 0.996483 0.991263
0.998728 0.995716 0.97778
1.00379 0.995816 0.991171
1.00303 0.998027 0.988058
1.00473 0.995982 0.989082
1.00487 0.995753 0.990114
1.00514 0.994872 0.990526
1.00461 0.997043 0.988637
1.00513 0.995231 0.989877
1.00508 0.994961 0.990477
1.00509 0.996138 0.989086
1.00509 0.995178 0.990182
1.00513 0.995285 0.990259
1.00514 0.996132 0.989152
1.00513 0.995791 0.989692
1.00512 0.996544 0.988971
1.00512 0.99637 0.9891
1.00513 0.997335 0.988325
1.00518 0.998645 0.986959
1.00517 0.998534 0.986983
1.00519 0.999341 0.986218
1.00519 0.999793 0.985882
1.0048 1.00027 0.985769
1.00513 1.00033 0.985337
1.00515 1.00023 0.985372
1.00312 1.0016 0.987639
1.00444 1.00114 0.985742
1.00488 1.0009 0.985049
1.00047 1.00164 0.992093
1.00209 1.00293 0.988127
1.00342 1.00255 0.98621
0.999792 0.999141 0.998383
1.00024 1.00129 0.992959
1.00135 1.0035 0.988929
0.999719 0.998736 0.998594
0.999936 1.0009 0.99398
0.999663 0.998319 0.998798
1.00312 1.00301 0.98618
1.0019 1.00351 0.988178
1.00119 1.00371 0.988862
1.00077 1.00276 0.990573
1.00051 1.00345 0.990266
1.00044 1.00274 0.99127
1.00022 1.00358 0.990615
1.00024 1.00241 0.991884
0.999841 0.999871 0.995114
1.00024 1.00195 0.992318
0.999924 0.999457 0.995359
0.999693 0.997918 0.998931
0.999765 0.99768 0.998981
1.00001 0.999158 0.995501
0.999831 0.997441 0.999034
0.996622 0.995431 0.975678
1.00057 0.995361 0.946695
0.999841 0.995155 0.919785
1.00478 1.00144 0.984794
1.00064 1.00368 0.99038
1.00162 1.00304 0.988915
1.00113 1.00344 0.989194
1.00323 1.00265 0.986406
1.0028 1.00113 0.98815
1.00179 1.00357 0.988028
1.00039 1.00081 0.992938
1.00298 1.00022 0.989083
1.00451 0.996849 0.989963
1.00482 0.997069 0.988486
1.00422 0.995786 0.991427
1.00428 0.996487 0.989783
1.00316 0.997687 0.990503
1.00006 0.997197 0.993156
0.995915 0.996295 0.972388
0.999789 0.996635 0.947594
0.996092 0.997571 0.977145
1.00017 0.997155 0.994319
1.00304 0.995551 0.992857
1.00094 0.997146 0.987841
0.996527 0.996197 0.976387
1.00003 0.994912 0.948004
1.00052 0.997012 0.99144
0.998537 0.99622 0.976562
1.00346 0.995541 0.991467
1.00295 0.997602 0.988419
1.00458 0.994956 0.991226
1.00447 0.997405 0.990741
1.0048 0.995567 0.990104
1.00514 0.994882 0.990404
1.00514 0.994887 0.990428
1.00512 0.995199 0.989833
1.00507 0.994959 0.990466
1.00514 0.99507 0.990367
1.00509 0.99531 0.990149
1.00512 0.995277 0.990212
1.00512 0.996044 0.989466
1.00513 0.995756 0.989595
1.00512 0.996559 0.988968
1.00518 0.997887 0.987637
1.00513 0.997188 0.988485
1.00518 0.99852 0.98712
1.00521 0.99947 0.986097
1.00519 0.999406 0.986189
1.00518 0.999803 0.985827
1.00488 1.00007 0.986023
1.00368 1.00057 0.98766
1.0048 1.00034 0.985804
1.00512 1.00038 0.985344
1.00098 1.00135 0.991537
1.00306 1.00165 0.987646
1.00445 1.00118 0.985747
0.999889 0.999628 0.998089
1.00065 1.00146 0.992073
1.0021 1.00292 0.988124
0.999858 0.999233 0.998273
1.00034 1.00122 0.992946
0.999802 0.99883 0.998471
1.00452 1.00131 0.985268
1.00314 1.00304 0.986213
1.0023 1.0036 0.987188
1.00199 1.0036 0.988172
1.00124 1.00367 0.9889
1.00071 1.00323 0.990354
1.00061 1.0034 0.990174
1.00031 1.00289 0.991267
0.999807 1.00036 0.994685
1.00019 1.00245 0.991888
0.999843 0.999817 0.995134
0.999642 0.998174 0.998859
0.999926 0.999421 0.995371
0.999695 0.997887 0.998945
0.999769 0.99766 0.998992
1.00088 0.99556 0.991672
0.996856 0.995083 0.972035
1.00003 0.9951 0.955793
1.0039 1.00078 0.986198
1.00511 0.999703 0.985936
1.00469 1.00122 0.984902
1.00141 1.00344 0.988958
1.00311 1.0026 0.986408
1.00318 1.00106 0.987948
1.00508 0.997737 0.987782
1.00338 1.00007 0.989071
1.0045 0.996582 0.989621
1.00484 0.997098 0.988724
1.005 0.996175 0.989254
1.00428 0.995424 0.991437
1.00409 0.995935 0.991216
1.00443 0.996272 0.989639
1.00018 0.997376 0.993297
0.995889 0.996458 0.970462
1.0005 0.996767 0.996456
1.00413 0.995673 0.99213
1.00067 0.997549 0.988006
0.996553 0.995605 0.974035
1.00349 0.994904 0.991731
1.0029 0.997706 0.988807
1.00463 0.995083 0.991488
1.00455 0.996666 0.990664
1.00516 0.994932 0.990371
1.00522 0.995054 0.990537
1.00515 0.994905 0.990281
1.00514 0.994899 0.990416
1.00514 0.994983 0.990378
1.00507 0.994959 0.990456
1.00514 0.995045 0.990341
1.00516 0.995576 0.98991
1.00511 0.995277 0.990165
1.00513 0.996056 0.98946
1.00518 0.997403 0.988135
1.00512 0.996575 0.988966
1.00518 0.997901 0.987646
1.00523 0.999154 0.986358
1.00518 0.998393 0.987282
1.0052 0.999419 0.986156
1.00496 0.999911 0.98604
1.00518 0.999814 0.985771
1.00487 1.00006 0.986004
1.00383 1.00024 0.987712
1.00129 1.00079 0.991491
1.00364 1.00061 0.987656
1.00481 1.00041 0.985839
0.999967 1.00006 0.997844
1.00104 1.00128 0.991531
1.00299 1.00174 0.987652
0.999948 0.999746 0.997988
1.00076 1.00136 0.992059
0.999923 0.999339 0.998165
1.00504 1.00048 0.98535
1.00462 1.00125 0.985152
1.00364 1.00222 0.986019
1.00316 1.00307 0.986244
1.00225 1.00366 0.987191
1.00127 1.00349 0.989097
1.00128 1.00364 0.988938
1.00058 1.00335 0.990379
0.999941 1.00092 0.993939
1.00022 1.00302 0.991267
0.999799 1.00031 0.994705
0.999624 0.998534 0.998713
0.999846 0.999767 0.995153
0.999635 0.998128 0.998888
0.999699 0.997861 0.998958
1.00418 0.994908 0.992366
1.00098 0.995375 0.990143
0.996679 0.994885 0.972028
1.00512 0.998461 0.987091
1.00426 1.00037 0.986238
1.00515 0.998463 0.987137
1.00512 0.999689 0.985963
1.00462 1.00099 0.985018
1.00512 0.996961 0.988323
1.00355 1.00097 0.987752
1.00507 0.997889 0.987645
1.00514 0.995588 0.989601
1.00486 0.997118 0.988966
1.00497 0.996241 0.989163
1.00426 0.995551 0.991545
1.00376 0.995961 0.990993
1.00023 0.997501 0.993384
1.00516 0.994914 0.990365
1.00415 0.996198 0.992163
1.00045 0.997562 0.988149
1.00465 0.995206 0.991751
1.00458 0.995808 0.990595
1.00516 0.994911 0.990414
1.00521 0.994966 0.990456
1.0052 0.994932 0.990516
1.00513 0.994909 0.990406
1.00513 0.994968 0.9904
1.00518 0.995167 0.990282
1.00513 0.995017 0.990315
1.00516 0.995577 0.989854
1.00518 0.997077 0.988446
1.00515 0.996068 0.989454
1.00518 0.997422 0.988138
1.00524 0.998846 0.986664
1.00518 0.997914 0.987655
1.00522 0.999149 0.986377
1.00502 0.999812 0.986041
1.0052 0.999368 0.986214
1.00496 0.999919 0.986055
1.00395 1.00013 0.987618
1.00487 1.00005 0.985984
1.00383 1.00025 0.987704
1.00135 1.0004 0.99306
1.00019 1.00003 0.995103
1.00134 1.00073 0.992166
1.00361 1.00065 0.987652
1.00002 1.00013 0.997781
1.00116 1.00112 0.991525
1.00001 0.999849 0.997884
1.0052 0.998397 0.987161
1.00516 0.999537 0.986045
1.00507 1.00038 0.985424
1.00461 1.00068 0.985879
1.00473 1.00121 0.985038
1.00368 1.00225 0.985995
1.00227 1.00272 0.988004
1.0022 1.00373 0.987195
1.00119 1.00354 0.989121
1.00029 1.00146 0.992845
1.00045 1.00348 0.990402
0.999868 1.00094 0.99396
0.999643 0.999048 0.998452
0.999793 1.00026 0.994725
0.999599 0.998451 0.998774
0.999633 0.998084 0.998913
1.00514 0.995093 0.990134
1.00448 0.994905 0.992435
1.00133 0.994891 0.988646
1.00513 0.997363 0.987993
1.00512 0.998511 0.986949
1.00463 0.999975 0.986269
1.00514 0.998577 0.98707
1.00512 0.999688 0.98599
1.00514 0.995884 0.989691
1.0051 0.996974 0.988241
1.00506 0.998048 0.98751
1.00512 0.995591 0.989609
1.00498 0.996335 0.989072
1.00429 0.995779 0.99168
1.0052 0.994934 0.990572
1.00516 0.99492 0.990507
1.00421 0.996753 0.992201
1.00517 0.994891 0.990451
1.0052 0.994942 0.990375
1.0052 0.99493 0.990473
1.0052 0.995065 0.990537
1.00513 0.994953 0.990422
1.00517 0.995159 0.990242
1.0052 0.996856 0.988667
1.00516 0.995578 0.989799
1.00519 0.997086 0.988453
1.00525 0.998577 0.986934
1.00518 0.997442 0.988141
1.00524 0.998844 0.986677
1.00509 0.999727 0.986039
1.00522 0.999144 0.986397
1.00502 0.999811 0.986055
1.00405 1.0001 0.987486
1.00496 0.999926 0.986069
1.00396 1.00012 0.987617
1.00147 1.00011 0.993176
1.00383 1.00026 0.987695
1.0015 1.00032 0.993
1.00014 1 0.99527
1.00001 1.00025 0.996434
1.0015 1.00066 0.992722
1.00003 1.00023 0.997738
1.00518 0.997823 0.987802
1.00522 0.999147 0.98631
1.00521 0.998199 0.987311
1.0049 0.999977 0.986093
1.00517 0.999611 0.985969
1.0051 1.00027 0.985497
1.00463 1.00063 0.985875
1.00328 1.00128 0.987582
1.00373 1.00228 0.98597
1.00229 1.00267 0.987993
1.00072 1.00163 0.991837
1.00109 1.0036 0.989146
1.00011 1.00159 0.992877
0.999716 0.999763 0.998085
0.999787 1.00097 0.993979
0.999597 0.998938 0.998559
0.999587 0.998375 0.998824
1.00518 0.995119 0.990199
1.00516 0.99511 0.99012
1.00467 0.994888 0.99247
1.00516 0.996579 0.988976
1.00512 0.99741 0.987977
1.00513 0.998558 0.986803
1.00513 0.99869 0.987005
1.00515 0.995865 0.989572
1.00509 0.99699 0.988159
1.00512 0.995587 0.989617
1.00519 0.995089 0.990512
1.0052 0.994937 0.990555
1.00517 0.994925 0.99065
1.00514 0.995576 0.990043
1.0052 0.994929 0.99043
1.0052 0.995135 0.990402
1.0052 0.996569 0.989147
1.00516 0.995148 0.990203
1.00521 0.996838 0.988671
1.00523 0.998374 0.987175
1.00519 0.997099 0.988461
1.00525 0.99858 0.986937
1.00513 0.999608 0.986088
1.00523 0.998842 0.98669
1.00508 0.999722 0.986053
1.00413 1.00008 0.98734
1.00502 0.99981 0.98607
1.00405 1.00008 0.987491
1.00156 1.00003 0.993118
1.00396 1.0001 0.987615
1.00159 1.00006 0.993087
1.00018 0.999906 0.995312
1.00164 1.00022 0.992948
0.999885 1.00015 0.995423
0.999631 1.00052 0.998003
1.00518 0.997719 0.987789
1.0052 0.998739 0.986847
1.00518 0.997862 0.987672
1.00499 0.999713 0.986425
1.00522 0.999002 0.986419
1.00521 0.998006 0.987461
1.0038 1.00034 0.987614
1.0049 0.999934 0.986076
1.00518 0.999684 0.985894
1.00465 1.00058 0.985873
1.00332 1.00124 0.987576
1.00113 1.00122 0.991454
1.00231 1.00263 0.987983
1.0006 1.00175 0.991856
0.999797 1.00043 0.997796
0.999976 1.0017 0.992905
0.999636 0.999615 0.998231
0.999563 0.998804 0.998652
1.00518 0.995726 0.98972
1.00518 0.995093 0.990217
1.00516 0.995131 0.990104
1.00516 0.996485 0.989039
1.00512 0.997454 0.98796
1.00514 0.995849 0.989453
1.00515 0.99565 0.990082
1.00519 0.995065 0.990518
1.00519 0.994941 0.990538
1.00515 0.995456 0.990209
1.00513 0.996743 0.988984
1.00519 0.995202 0.990267
1.00521 0.996716 0.988911
1.0052 0.998055 0.987616
1.00523 0.996815 0.988674
1.00524 0.998358 0.987174
1.00514 0.999453 0.986233
1.00524 0.998573 0.98694
1.00513 0.999603 0.986098
1.00422 1.00003 0.987235
1.00508 0.999716 0.986068
1.00414 1.00007 0.987347
1.00163 1.0001 0.992923
1.00406 1.00006 0.987495
1.00167 0.999994 0.993007
1.00026 0.999892 0.995224
1.0017 1.00002 0.993007
0.999959 0.999959 0.99549
0.999646 1.00033 0.99556
1.00517 0.997023 0.988612
1.00521 0.998653 0.986882
1.00518 0.997544 0.987956
1.00506 0.999416 0.986548
1.0052 0.998818 0.986752
1.00518 0.9979 0.987541
1.004 0.99995 0.987678
1.005 0.999613 0.986344
1.00522 0.998857 0.986529
1.00134 1.00065 0.991612
1.00381 1.00032 0.987624
1.00491 0.999894 0.986058
1.00336 1.00121 0.98757
1.00106 1.00131 0.991457
0.999826 1.00072 0.997723
1.00047 1.00186 0.991882
0.99973 1.00027 0.997894
0.999571 0.999434 0.998366
1.00515 0.995891 0.989679
1.00517 0.995761 0.989699
1.00518 0.995066 0.990235
1.00516 0.996396 0.989102
1.00512 0.996909 0.988852
1.00515 0.99564 0.990127
1.00519 0.995042 0.990524
1.00516 0.99535 0.990375
1.00513 0.996632 0.989057
1.00519 0.998053 0.987692
1.00521 0.996866 0.988674
1.0052 0.998219 0.987422
1.00513 0.999168 0.986569
1.00524 0.998353 0.987172
1.00514 0.999451 0.98624
1.00426 0.99995 0.987223
1.00512 0.999604 0.986108
1.00422 1.00003 0.987241
1.00174 1.00015 0.991439
1.00414 1.00006 0.987355
1.00174 1.00007 0.992174
1.00021 0.99994 0.99773
1.00178 0.99997 0.992899
1.00005 0.999881 0.995415
0.999746 1.00001 0.99565
1.00516 0.996757 0.988965
1.0052 0.998346 0.987293
1.00517 0.997104 0.988567
1.00513 0.999248 0.98639
1.0052 0.998644 0.986909
1.00518 0.997367 0.988124
1.00412 0.999716 0.987451
1.00506 0.999423 0.986558
1.0052 0.998895 0.986657
1.00148 1.00015 0.991835
1.004 0.999906 0.987585
1.005 0.999505 0.986262
0.999877 1.0006 0.997778
1.00132 1.00066 0.991615
1.00382 1.00031 0.987634
1.00099 1.00137 0.991463
0.999822 1.0006 0.997732
0.999636 1.00013 0.998015
1.00513 0.996835 0.988888
1.00514 0.995954 0.989669
1.00517 0.995799 0.989678
1.0052 0.998068 0.987573
1.00512 0.996818 0.988917
1.00515 0.995627 0.990174
1.00513 0.996513 0.989131
1.00519 0.998035 0.987693
1.00513 0.9991 0.986817
1.0052 0.998383 0.987227
1.00512 0.999285 0.986536
1.00428 0.999782 0.987174
1.00513 0.999442 0.986248
1.00426 0.999947 0.987228
1.00177 1.00013 0.991393
1.00422 1.00003 0.987247
1.00174 1.00014 0.991436
1.00023 0.999976 0.997686
1.00177 1.00005 0.991512
1.00012 0.999932 0.996536
0.999849 0.999847 0.995602
1.00514 0.997109 0.988603
1.0052 0.998195 0.987403
1.00515 0.996747 0.988988
1.00514 0.999292 0.986352
1.0052 0.998398 0.987207
1.00517 0.997189 0.988522
1.00424 0.999637 0.987325
1.00513 0.999343 0.986411
1.0052 0.998636 0.986935
1.00163 0.999896 0.991833
1.00411 0.999718 0.987434
1.00506 0.99943 0.986568
1.00001 1.0003 0.997815
1.00149 1.00013 0.991841
1.004 0.999863 0.98749
0.999888 1.00055 0.997749
1.0013 1.00066 0.991616
0.999771 1.00054 0.997764
1.00519 0.997931 0.987762
1.00513 0.996884 0.988812
1.00514 0.996012 0.989659
1.00511 0.999 0.986945
1.0052 0.997993 0.987669
1.00513 0.996733 0.988982
1.00518 0.998018 0.987694
1.00513 0.999104 0.986815
1.00427 0.999689 0.987285
1.00512 0.999405 0.986502
1.00428 0.999828 0.98722
1.0018 1.00006 0.991403
1.00426 0.999942 0.987234
1.00177 1.00013 0.991394
1.00024 1.00001 0.997636
1.00174 1.00014 0.991432
1.00023 0.999987 0.997663
1.0002 0.999887 0.995163
1.0052 0.998151 0.987456
1.00514 0.996946 0.988721
1.00514 0.999196 0.986473
1.0052 0.998204 0.987395
1.00514 0.996733 0.989011
1.00428 0.999698 0.987455
1.00514 0.999297 0.986346
1.0052 0.998448 0.98712
1.00175 0.999857 0.991666
1.00424 0.999684 0.987381
1.00513 0.999442 0.986431
1.00017 1.00005 0.997767
1.00163 0.999889 0.991839
1.00412 0.999713 0.987417
0.999983 1.00031 0.997803
1.00149 1.00012 0.991845
0.999888 1.00053 0.997725
1.00506 0.998988 0.987028
1.00518 0.997992 0.987692
1.00514 0.996935 0.988736
1.0042 0.999648 0.98745
1.00511 0.999012 0.986946
1.00519 0.997915 0.987765
1.00513 0.999111 0.986813
1.00428 0.99968 0.987266
1.00179 1.00002 0.991463
1.00427 0.999873 0.987266
1.00179 1.00007 0.991405
1.00026 1.00001 0.997615
1.00177 1.00013 0.991396
1.00024 1.00001 0.997632
1.00024 0.999996 0.997645
1.0051 0.99915 0.986593
1.00519 0.997972 0.987646
1.00515 0.996784 0.988838
1.00425 0.999684 0.98753
1.00513 0.999204 0.986465
1.0052 0.998212 0.987388
1.00179 0.99994 0.991534
1.00426 0.999704 0.98745
1.00514 0.999303 0.986341
1.00026 0.999944 0.997686
1.00175 0.999872 0.99167
1.00424 0.999723 0.987438
1.00012 1.00009 0.997789
1.00163 0.999897 0.991846
0.999986 1.0003 0.997784
1.00414 0.999708 0.987698
1.00506 0.998954 0.986969
1.00518 0.99805 0.987623
1.00175 0.999972 0.991607
1.00422 0.999628 0.987425
1.00511 0.999022 0.986946
1.00429 0.999666 0.987248
1.00179 1.00001 0.991469
1.00028 1.00001 0.997593
1.00178 1.00008 0.991406
1.00026 1.00002 0.997602
1.00023 1.00002 0.997627
1.00419 0.999683 0.987641
1.0051 0.999044 0.986696
1.00519 0.997796 0.987836
1.00185 1.00001 0.992731
1.00424 0.999683 0.987529
1.00512 0.999214 0.986458
1.00028 0.999949 0.99763
1.00179 0.999959 0.991535
1.00425 0.999711 0.987444
1.00024 0.999976 0.997717
1.00174 0.999898 0.991675
1.00009 1.0001 0.997805
1.00176 0.999972 0.991626
1.00415 0.999664 0.987618
1.00506 0.998918 0.986909
1.00023 0.999999 0.997621
1.00174 0.99997 0.99161
1.00424 0.999612 0.9874
1.00179 0.999997 0.991472
1.00026 1.00001 0.997598
1.00027 1.00002 0.997595
1.00186 0.999987 0.992761
1.00418 0.999679 0.987641
1.00509 0.998937 0.986798
0.999936 0.999987 0.997955
1.00177 1.00001 0.991528
1.00424 0.999679 0.987528
1.00027 0.99996 0.997656
1.00179 0.999979 0.991536
1.00021 0.999996 0.997747
1.00019 0.999996 0.995154
1.00178 0.99997 0.992238
1.00415 0.999622 0.987538
1.00024 0.999998 0.997629
1.00173 0.999969 0.991618
1.00028 1 0.997599
0.99986 1 0.995469
1.00179 0.999986 0.99219
1.00418 0.999677 0.987642
1.00008 0.999987 0.996521
1.00177 1.00001 0.991538
1.00026 0.999972 0.99768
1.0002 0.999993 0.997647
1.00169 0.999971 0.991697
1.0002 0.999996 0.997638
1.00003 0.999993 0.996566
1.00173 0.999988 0.991639
1.00025 0.999975 0.997644
1.0002 0.999989 0.997659
1.00021 0.999985 0.997647

TENSORS stress float
0.00166961 -8.62795e-05 0.000167651
-8.62795e-05 0.000634591 -2.20933e-05
0.000167651 -2.20933e-05 0.000613683
0.00524149 -0.000128561 0.000156516
-0.000128561 0.00276097 1.70208e-05
0.000156516 1.70208e-05 0.00273542
0.00148073 -1.52112e-05 7.92197e-05
-1.52112e-05 0.00053272 -8.38565e-06
7.92197e-05 -8.38565e-06 0.000502443
0.00180397 -5.25687e-05 0.000168434
-5.25687e-05 0.000689046 -1.42038e-05
0.000168434 -1.42038e-05 0.000670921
0.00173321 -7.78717e-05 0.000164313
-7.78717e-05 0.000663786 -2.0074e-05
0.000164313 -2.0074e-05 0.000644028
0.00161485 -8.21876e-05 0.000172651
-8.21876e-05 0.000598882 -2.17051e-05
0.000172651 -2.17051e-05 0.000579521
0.00144895 -5.78666e-05 2.44712e-05
-5.78666e-05 0.000435668 -8.87995e-06
2.44712e-05 -8.87995e-06 0.000356701
0.0051105 -0.000119986 -9.96401e-08
-0.000119986 0.00266723 -1.80024e-07
-9.96401e-08 -1.80024e-07 0.00265186
0.0052662 3.33584e-05 6.87818e-05
3.33584e-05 0.00272029 3.7069e-06
6.87818e-05 3.7069e-06 0.00270737
0.00503404 -0.000242007 6.67075e-06
-0.000242007 0.00264073 3.70078e-06
6.67075e-06 3.70078e-06 0.00259995
0.00168396 6.18964e-05 0.000162189
6.18964e-05 0.000640901 1.46041e-05
0.000162189 1.46041e-05 0.000630528
0.000669944 0.000168535 2.10412e-05
0.000168535 -3.95431e-06 1.31825e-05
2.10412e-05 1.31825e-05 -9.01743e-05
0.00162972 -3.13055e-05 0.000180016
-3.13055e-05 0.00058153 2.18333e-06
0.000180016 2.18333e-06 0.000570776
0.0012728 -1.59151e-05 2.88403e-05
-1.59151e-05 0.000393917 1.07579e-06
2.88403e-05 1.07579e-06 0.000357957
0.00136073 -1.9727e-06 -2.48261e-05
-1.9727e-06 0.000462947 4.79726e-06
-2.48261e-05 4.79726e-06 0.0004287
0.00153208 -5.56037e-05 6.09796e-05
-5.56037e-05 0.000542223 -3.47042e-06
6.09796e-05 -3.47042e-06 0.000515251
0.00148983 3.89272e-06 8.62008e-05
3.89272e-06 0.000544093 -7.82127e-06
8.62008e-05 -7.82127e-06 0.000509106
0.00149898 -3.33392e-05 7.06244e-05
-3.33392e-05 0.000531037 -7.69199e-06
7.06244e-05 -7.69199e-06 0.000505374
0.00151591 -0.000100806 -2.96589e-05
-0.000100806 0.000464072 2.73901e-06
-2.96589e-05 2.73901e-06 0.000393859
0.00535502 -0.000107213 0.000209316
-0.000107213 0.0027788 -5.76626e-06
0.000209316 -5.76626e-06 0.00278024
0.00178963 -3.58003e-05 0.000171712
-3.58003e-05 0.000677329 -1.0666e-05
0.000171712 -1.0666e-05 0.000659721
0.00179482 -6.72875e-05 0.000165703
-6.72875e-05 0.000690084 -1.73722e-05
0.000165703 -1.73722e-05 0.000671607
0.00148868 -9.5364e-05 4.49706e-05
-9.5364e-05 0.000426214 -6.79481e-06
4.49706e-05 -6.79481e-06 0.000355003
0.00146983 -7.48551e-05 3.33525e-05
-7.48551e-05 0.000428283 -8.01095e-06
3.33525e-05 -8.01095e-06 0.000356609
0.00144763 -5.24377e-05 0.000160116
-5.24377e-05 0.000495568 -1.81412e-05
0.000160116 -1.81412e-05 0.000479347
0.00144333 -4.27689e-05 1.74702e-05
-4.27689e-05 0.000451672 -9.7817e-06
1.74702e-05 -9.7817e-06 0.000363615
0.00200423 -0.000206546 1.29072e-05
-0.000206546 0.000616401 -5.54476e-06
1.29072e-05 -5.54476e-06 0.000482707
0.00497496 -0.000153411 -0.000142189
-0.000153411 0.00259022 -9.30453e-06
-0.000142189 -9.30453e-06 0.00257287
0.00338831 5.10679e-05 -9.72242e-05
5.10679e-05 0.00163072 -7.20365e-06
-9.72242e-05 -7.20365e-06 0.00161247
0.00327835 -6.38212e-05 -9.08097e-05
-6.38212e-05 0.00159455 -3.54021e-06
-9.08097e-05 -3.54021e-06 0.00156701
0.0047173 -0.000161459 1.00832e-05
-0.000161459 0.00244661 -1.05014e-06
1.00832e-05 -1.05014e-06 0.00242732
0.000611585 0.000158151 -2.19217e-06
0.000158151 -3.81517e-05 -5.23954e-07
-2.19217e-06 -5.23954e-07 -0.0001213
0.00155984 5.13369e-05 0.000171985
5.13369e-05 0.000551988 1.27324e-05
0.000171985 1.27324e-05 0.000534732
0.00173237 0.000117713 0.000173837
0.000117713 0.000671913 1.86118e-05
0.000173837 1.86118e-05 0.00065138
0.00258099 0.000163978 0.000106199
0.000163978 0.00106814 1.30693e-05
0.000106199 1.30693e-05 0.00100634
0.00370568 -0.000224139 6.02494e-06
-0.000224139 0.00186743 3.23009e-06
6.02494e-06 3.23009e-06 0.0018357
0.00262588 0.000195217 0.000104612
0.000195217 0.00112012 1.45305e-05
0.000104612 1.45305e-05 0.0010545
0.000659032 0.00012659 2.3275e-05
0.00012659 -3.28846e-06 1.64791e-05
2.3275e-05 1.64791e-05 -7.89105e-05
0.000919173 0.000168109 9.39549e-06
0.000168109 5.91332e-05 4.59753e-06
9.39549e-06 4.59753e-06 -9.23602e-05
0.00299483 -0.000103695 8.71621e-05
-0.000103695 0.00142396 3.245e-06
8.71621e-05 3.245e-06 0.00142719
0.00541296 6.03396e-05 3.79652e-06
6.03396e-05 0.00280208 -1.21073e-06
3.79652e-06 -1.21073e-06 0.00280881
0.00338514 4.93423e-05 -7.99382e-05
4.93423e-05 0.00162117 -2.76905e-06
-7.99382e-05 -2.76905e-06 0.00160619
0.00531433 5.75603e-05 0.000206023
5.75603e-05 0.00274776 2.0098e-06
0.000206023 2.0098e-06 0.00275414
0.00130037 5.6174e-05 3.19306e-05
5.6174e-05 0.000407762 1.74442e-06
3.19306e-05 1.74442e-06 0.000374969
0.000693033 6.68448e-06 1.61454e-05
6.68448e-06 -6.65176e-05 1.54533e-06
1.61454e-05 1.54533e-06 -0.000136577
0.00519273 0.000176975 0.00010114
0.000176975 0.00269673 8.50839e-06
0.00010114 8.50839e-06 0.00267556
0.00265768 4.99926e-05 0.000105146
4.99926e-05 0.00107922 6.02198e-06
0.000105146 6.02198e-06 0.00102873
0.00119534 -7.39825e-05 -4.27878e-05
-7.39825e-05 0.000361259 5.43954e-06
-4.27878e-05 5.43954e-06 0.000323034
0.00127276 -4.95393e-05 -3.65317e-05
-4.95393e-05 0.000407901 5.42338e-06
-3.65317e-05 5.42338e-06 0.000374295
0.00144569 5.43721e-05 -1.31733e-05
5.43721e-05 0.000521932 5.36934e-06
-1.31733e-05 5.36934e-06 0.000480424
0.00153898 -0.000113959 -9.07657e-05
-0.000113959 0.00047043 1.37509e-05
-9.07657e-05 1.37509e-05 0.000406366
0.00338556 1.45755e-05 -8.51266e-05
1.45755e-05 0.00162819 -1.59252e-06
-8.51266e-05 -1.59252e-06 0.00161044
0.00153162 -4.08959e-05 6.82179e-05
-4.08959e-05 0.00053721 -2.90246e-06
6.82179e-05 -2.90246e-06 0.000511266
0.00139432 2.57651e-05 8.5955e-05
2.57651e-05 0.000490896 -5.80178e-06
8.5955e-05 -5.80178e-06 0.000455893
0.00152365 -4.61579e-05 6.45253e-05
-4.61579e-05 0.000537585 -5.72342e-06
6.45253e-05 -5.72342e-06 0.000512934
0.00153895 -8.14635e-05 -2.38971e-05
-8.14635e-05 0.00044959 9.36535e-07
-2.38971e-05 9.36535e-07 0.000384292
0.0015145 -9.04249e-05 -3.45988e-05
-9.04249e-05 0.000476712 2.69217e-06
-3.45988e-05 2.69217e-06 0.000400833
0.00152841 -0.000101514 -2.50352e-05
-0.000101514 0.000459026 2.0197e-06
-2.50352e-05 2.0197e-06 0.000392234
0.00200345 -0.000204961 -6.32357e-06
-0.000204961 0.000614317 1.69478e-06
-6.32357e-06 1.69478e-06 0.000480872
0.00528189 4.66099e-05 0.000199671
4.66099e-05 0.00272922 -9.42446e-08
0.000199671 -9.42446e-08 0.00273594
0.00177299 -1.83703e-05 0.000172814
-1.83703e-05 0.00066893 -7.25041e-06
0.000172814 -7.25041e-06 0.000652568
0.00239029 2.78789e-05 2.96693e-05
2.78789e-05 0.000940177 -9.76397e-07
2.96693e-05 -9.76397e-07 0.000881585
0.00149535 -7.6895e-05 3.86888e-05
-7.6895e-05 0.000421472 -4.70518e-06
3.86888e-05 -4.70518e-06 0.00035276
0.00148428 -8.68082e-05 4.0486e-05
-8.68082e-05 0.000426139 -7.37823e-06
4.0486e-05 -7.37823e-06 0.000356439
0.001939 -0.000126497 1.11219e-05
-0.000126497 0.000528209 -2.71346e-06
1.11219e-05 -2.71346e-06 0.000410425
0.00161623 -0.000164262 1.47187e-05
-0.000164262 0.000368162 -5.18165e-06
1.47187e-05 -5.18165e-06 0.000240189
0.00111704 -4.76757e-06 0.000119928
-4.76757e-06 0.000308103 -1.2918e-05
0.000119928 -1.2918e-05 0.000295154
0.00114898 4.41911e-06 9.13357e-06
4.41911e-06 0.000309011 -9.95874e-06
9.13357e-06 -9.95874e-06 0.00022314
0.00198685 -0.000223638 1.22437e-05
-0.000223638 0.000630303 -5.63948e-06
1.22437e-05 -5.63948e-06 0.000487287
0.00122894 -0.000191149 7.88551e-06
-0.000191149 7.30355e-05 -2.33001e-06
7.88551e-06 -2.33001e-06 -9.01913e-05
0.00548182 0.000111092 -0.000209084
0.000111092 0.00284538 -1.58247e-05
-0.000209084 -1.58247e-05 0.00284727
0.00439335 -0.000180934 -0.000113062
-0.000180934 0.00226094 -6.9384e-06
-0.000113062 -6.9384e-06 0.00224068
0.00522939 -7.75766e-05 -0.000170518
-7.75766e-05 0.00271959 -1.08594e-05
-0.000170518 -1.08594e-05 0.00271374
0.000531937 0.00015598 -2.16871e-05
0.00015598 -8.24287e-05 -1.34911e-05
-2.16871e-05 -1.34911e-05 -0.000164438
0.00552654 0.00014134 -2.91859e-06
0.00014134 0.00286957 -1.71749e-06
-2.91859e-06 -1.71749e-06 0.00287054
0.00549669 3.9066e-05 -8.52871e-06
3.9066e-05 0.00286127 -7.88728e-07
-8.52871e-06 -7.88728e-07 0.00286023
0.000554053 0.000116907 -2.8337e-07
0.000116907 -0.000112187 -2.28483e-07
-2.8337e-07 -2.28483e-07 -0.000193088
0.00245983 -0.00011737 -5.01861e-05
-0.00011737 0.00112302 -9.1941e-07
-5.01861e-05 -9.1941e-07 0.00110126
0.0005507 0.000167137 -7.68891e-07
0.000167137 -8.35367e-05 -2.96124e-07
-7.68891e-07 -2.96124e-07 -0.000168846
0.00143804 0.000100633 3.31432e-05
0.000100633 0.000462748 5.55765e-07
3.31432e-05 5.55765e-07 0.000396908
0.000903506 0.000163878 3.32119e-07
0.000163878 4.75377e-05 -3.62606e-07
3.32119e-07 -3.62606e-07 -0.000103138
0.00350982 -0.000106788 0.000111705
-0.000106788 0.00172422 5.14112e-06
0.000111705 5.14112e-06 0.00172529
0.000612889 -4.83245e-05 1.89028e-06
-4.83245e-05 2.31489e-05 7.39264e-06
1.89028e-06 7.39264e-06 -1.52416e-05
0.000671135 8.65319e-05 1.71402e-05
8.65319e-05 -6.46451e-05 8.22537e-06
1.71402e-05 8.22537e-06 -0.000141716
0.000703654 0.000138971 2.18417e-05
0.000138971 -1.25745e-05 1.38187e-05
2.18417e-05 1.38187e-05 -9.78991e-05
0.00099594 0.00013647 1.29425e-05
0.00013647 -6.37425e-06 5.10694e-06
1.29425e-05 5.10694e-06 -0.000143118
0.00222941 3.35044e-05 6.93306e-05
3.35044e-05 0.000940918 8.94629e-06
6.93306e-05 8.94629e-06 0.000894712
0.000949985 0.000163705 1.08663e-05
0.000163705 2.91912e-05 5.67178e-06
1.08663e-05 5.67178e-06 -0.000115719
0.000943132 0.000168883 8.27125e-06
0.000168883 0.000143984 5.22156e-06
8.27125e-06 5.22156e-06 -1.0246e-05
0.00091421 0.000198977 4.40189e-06
0.000198977 -7.22583e-06 7.68274e-07
4.40189e-06 7.68274e-07 -0.000192342
0.00263033 -0.000116696 4.66423e-05
-0.000116696 0.0012102 2.34076e-06
4.66423e-05 2.34076e-06 0.00121032
0.00285321 -0.000129241 9.40855e-06
-0.000129241 0.00134618 -4.37844e-07
9.40855e-06 -4.37844e-07 0.00134282
0.00549925 1.26347e-05 -0.000204017
1.26347e-05 0.00284803 -8.21198e-06
-0.000204017 -8.21198e-06 0.00285331
0.00545302 5.13176e-05 -0.000210826
5.13176e-05 0.00282332 -4.66359e-06
-0.000210826 -4.66359e-06 0.00283069
0.00537668 8.0277e-05 -1.702e-07
8.0277e-05 0.00279 -2.22341e-06
-1.702e-07 -2.22341e-06 0.00279226
0.00337154 6.8646e-06 -9.45864e-05
6.8646e-06 0.00161126 -3.30061e-06
-9.45864e-05 -3.30061e-06 0.00159897
0.00165986 2.87882e-05 4.49511e-05
2.87882e-05 0.000498261 7.47076e-07
4.49511e-05 7.47076e-07 0.000439064
0.00343953 9.47564e-05 -8.11578e-05
9.47564e-05 0.00165535 -3.93563e-06
-8.11578e-05 -3.93563e-06 0.00163758
0.00168658 6.84019e-05 4.36632e-05
6.84019e-05 0.000517524 1.54585e-06
4.36632e-05 1.54585e-06 0.000454529
0.00534752 0.000141188 0.000209357
0.000141188 0.00278328 4.86803e-06
0.000209357 4.86803e-06 0.00277929
0.000623 8.29657e-06 1.79796e-05
8.29657e-06 -0.00010353 3.59574e-07
1.79796e-05 3.59574e-07 -0.000171942
0.00268361 1.88478e-05 0.000105872
1.88478e-05 0.00109237 3.96098e-06
0.000105872 3.96098e-06 0.00104392
0.0010492 3.19089e-05 1.23353e-05
3.19089e-05 -1.22853e-05 1.0175e-06
1.23353e-05 1.0175e-06 -0.000130229
0.0025759 9.21999e-05 0.000106244
9.21999e-05 0.00104037 7.55531e-06
0.000106244 7.55531e-06 0.000986839
0.0010636 7.57728e-05 1.2015e-05
7.57728e-05 2.80393e-06 2.49496e-06
1.2015e-05 2.49496e-06 -0.000122091
0.00164334 3.82986e-05 -0.000178205
3.82986e-05 0.00059201 1.41846e-06
-0.000178205 1.41846e-06 0.000581608
0.00125305 5.28644e-06 -2.94141e-05
5.28644e-06 0.000385142 1.61217e-06
-2.94141e-05 1.61217e-06 0.000350353
0.00136081 0.000115313 -6.1035e-07
0.000115313 0.000498589 7.20267e-06
-6.1035e-07 7.20267e-06 0.000443695
0.00121449 -6.72558e-05 -4.35788e-05
-6.72558e-05 0.000371992 5.82184e-06
-4.35788e-05 5.82184e-06 0.000336632
0.00165237 -6.11161e-05 -9.08131e-05
-6.11161e-05 0.000508202 7.52796e-06
-9.08131e-05 7.52796e-06 0.000449778
0.00159016 -9.80157e-05 -8.95449e-05
-9.80157e-05 0.000489042 1.21639e-05
-8.95449e-05 1.21639e-05 0.000428024
0.00152194 -0.000118978 -9.25534e-05
-0.000118978 0.00047121 1.41738e-05
-9.25534e-05 1.41738e-05 0.000403182
0.00200102 -0.000203539 -2.44605e-05
-0.000203539 0.000611953 8.46541e-06
-2.44605e-05 8.46541e-06 0.000478746
0.00535182 -8.29848e-05 2.04057e-06
-8.29848e-05 0.0027763 -1.34587e-06
2.04057e-06 -1.34587e-06 0.00277825
0.00149441 4.44607e-05 7.69663e-05
4.44607e-05 0.000514913 -2.47039e-06
7.69663e-05 -2.47039e-06 0.000490842
0.00112916 5.41423e-07 -4.743e-05
5.41423e-07 0.00019474 8.12544e-07
-4.743e-05 8.12544e-07 0.000134403
0.00155851 -4.61709e-05 -2.81223e-05
-4.61709e-05 0.000453544 1.35081e-06
-2.81223e-05 1.35081e-06 0.000390053
0.00274485 5.34468e-05 0.000124214
5.34468e-05 0.00127859 -2.07888e-06
0.000124214 -2.07888e-06 0.00126751
0.00183615 -5.70492e-05 -3.05197e-05
-5.70492e-05 0.000692482 -3.13388e-07
-3.05197e-05 -3.13388e-07 0.00061611
0.00154012 -9.36192e-05 -2.31218e-05
-9.36192e-05 0.000456167 1.37828e-06
-2.31218e-05 1.37828e-06 0.00039082
0.00180181 -0.00011882 -8.23885e-06
-0.00011882 0.000447117 1.42221e-06
-8.23885e-06 1.42221e-06 0.000328641
0.00197839 -0.00022328 -5.15619e-06
-0.00022328 0.000626513 1.64343e-06
-5.15619e-06 1.64343e-06 0.00048347
0.00182893 -0.000172995 -3.68322e-06
-0.000172995 0.000491563 8.83267e-07
-3.68322e-06 8.83267e-07 0.000364158
0.00123939 -0.000191704 2.84966e-07
-0.000191704 7.76881e-05 -9.7044e-08
2.84966e-07 -9.7044e-08 -8.53645e-05
0.000660949 1.21338e-05 1.83779e-05
1.21338e-05 -8.28969e-05 -1.24445e-06
1.83779e-05 -1.24445e-06 -0.000148564
0.00146469 1.66379e-05 3.0038e-05
1.66379e-05 0.000399421 -2.46657e-06
3.0038e-05 -2.46657e-06 0.000334425
0.00162123 -2.88172e-05 1.26593e-05
-2.88172e-05 0.000326454 -1.10687e-06
1.26593e-05 -1.10687e-06 0.000217501
0.00163526 -9.33548e-05 1.24315e-05
-9.33548e-05 0.000343589 -2.2441e-06
1.24315e-05 -2.2441e-06 0.00022669
0.00158808 -0.000138484 1.37566e-05
-0.000138484 0.000334605 -3.98556e-06
1.37566e-05 -3.98556e-06 0.000211626
0.0017171 -0.000143439 2.51222e-06
-0.000143439 0.000281058 -7.62571e-07
2.51222e-06 -7.62571e-07 0.000139902
0.003877 0.000149949 0.00010352
0.000149949 0.00194984 -4.17307e-06
0.00010352 -4.17307e-06 0.0019392
0.00127299 -0.000174938 6.69537e-06
-0.000174938 7.24853e-05 -1.97889e-06
6.69537e-06 -1.97889e-06 -8.30239e-05
0.000388351 -5.28618e-05 1.09396e-05
-5.28618e-05 -0.000136031 -1.18522e-05
1.09396e-05 -1.18522e-05 -0.000198868
0.00083096 -0.000162197 8.17183e-06
-0.000162197 1.44342e-05 -6.55907e-06
8.17183e-06 -6.55907e-06 -0.00013589
0.00131835 -0.000217759 9.13378e-06
-0.000217759 0.000151825 -2.19334e-06
9.13378e-06 -2.19334e-06 -2.32158e-05
0.00145216 -0.000234369 4.22207e-06
-0.000234369 0.000119177 3.65169e-07
4.22207e-06 3.65169e-07 -5.75314e-05
0.000448551 -2.40866e-07 5.73418e-06
-2.40866e-07 -8.43411e-05 -9.58185e-06
5.73418e-06 -9.58185e-06 -0.000133389
0.000638111 -1.99156e-05 1.12372e-06
-1.99156e-05 2.46638e-05 -4.28453e-06
1.12372e-06 -4.28453e-06 -7.73748e-05
0.00553046 0.000154273 -0.000220894
0.000154273 0.00287534 -1.66839e-05
-0.000220894 -1.66839e-05 0.00287481
0.00535727 2.10813e-05 -0.000190017
2.10813e-05 0.00277913 -1.32257e-05
-0.000190017 -1.32257e-05 0.00278093
0.000545922 0.00010896 -1.76298e-05
0.00010896 -0.000118229 -9.60592e-06
-1.76298e-05 -9.60592e-06 -0.000198963
0.00376091 -0.00015393 -9.82409e-05
-0.00015393 0.00188273 -3.90618e-06
-9.82409e-05 -3.90618e-06 0.0018724
0.000442015 8.75548e-05 -1.43551e-05
8.75548e-05 -0.000117486 -1.26521e-05
-1.43551e-05 -1.26521e-05 -0.000184898
0.000504698 0.000152218 -1.98223e-05
0.000152218 -0.000105486 -1.26358e-05
-1.98223e-05 -1.26358e-05 -0.000192443
0.000897789 0.000161316 -1.01318e-05
0.000161316 4.17191e-05 -5.59873e-06
-1.01318e-05 -5.59873e-06 -0.000108375
0.00334247 -0.000124651 6.34173e-06
-0.000124651 0.00163178 -3.42897e-07
6.34173e-06 -3.42897e-07 0.00162933
0.000534519 -5.84302e-05 2.14107e-07
-5.84302e-05 -1.91495e-05 3.90985e-07
2.14107e-07 3.90985e-07 -5.8359e-05
0.00164011 0.000110899 4.34475e-05
0.000110899 0.000503258 2.57786e-06
4.34475e-05 2.57786e-06 0.000435237
0.00156936 0.000156193 4.14562e-05
0.000156193 0.000495185 2.25427e-06
4.14562e-05 2.25427e-06 0.000419765
0.0010074 0.000139167 1.80371e-07
0.000139167 1.60328e-06 -1.60673e-07
1.80371e-07 -1.60673e-07 -0.000135911
0.000620181 3.23199e-05 -6.4662e-07
3.23199e-05 4.24177e-06 1.50946e-07
-6.4662e-07 1.50946e-07 -5.10519e-05
0.000948865 0.00016377 4.65507e-07
0.00016377 2.89929e-05 2.91859e-07
4.65507e-07 2.91859e-07 -0.000115898
0.000850014 0.000154215 4.79216e-07
0.000154215 8.75022e-05 -8.16293e-07
4.79216e-07 -8.16293e-07 -6.41905e-05
0.000993988 0.000206742 -2.78151e-07
0.000206742 3.59745e-05 3.81865e-07
-2.78151e-07 3.81865e-07 -0.000150632
0.000649048 -4.33435e-06 7.50417e-06
-4.33435e-06 3.43561e-05 8.75727e-06
7.50417e-06 8.75727e-06 -1.17201e-05
0.000601164 -6.66189e-05 -8.73686e-07
-6.66189e-05 1.44653e-05 6.14474e-06
-8.73686e-07 6.14474e-06 -1.76714e-05
0.0007262 4.01282e-05 3.07286e-06
4.01282e-05 8.55749e-05 4.18847e-06
3.07286e-06 4.18847e-06 -1.18062e-05
0.0010323 0.000116311 1.2612e-05
0.000116311 -9.36974e-07 4.1416e-06
1.2612e-05 4.1416e-06 -0.000133541
0.000975195 0.000154318 1.23992e-05
0.000154318 9.82337e-06 5.64623e-06
1.23992e-05 5.64623e-06 -0.000131296
0.00133549 0.000187672 6.56217e-06
0.000187672 9.05445e-05 1.71372e-06
6.56217e-06 1.71372e-06 -7.43557e-05
0.000914508 0.000146171 6.3117e-06
0.000146171 0.000173974 6.09191e-06
6.3117e-06 6.09191e-06 3.32948e-05
0.000947104 0.000191928 4.91228e-06
0.000191928 -4.76808e-05 2.04001e-06
4.91228e-06 2.04001e-06 -0.00022147
0.000887488 0.000197292 4.55111e-06
0.000197292 6.01705e-05 7.76188e-07
4.55111e-06 7.76188e-07 -0.00013923
0.00159735 0.000269261 2.64381e-07
0.000269261 0.000329951 -3.43608e-07
2.64381e-07 -3.43608e-07 0.000130787
0.00243702 -0.000105413 3.37564e-05
-0.000105413 0.00109074 2.88121e-06
3.37564e-05 2.88121e-06 0.00109358
0.00253115 -0.000117906 3.89114e-06
-0.000117906 0.00115325 -3.72386e-07
3.89114e-06 -3.72386e-07 0.00115263
0.00269793 -0.000133358 -4.18458e-05
-0.000133358 0.00125791 -2.42466e-06
-4.18458e-05 -2.42466e-06 0.00125291
0.000458546 1.39117e-05 4.08748e-06
1.39117e-05 -7.50754e-05 -8.15013e-06
4.08748e-06 -8.15013e-06 -0.000118242
0.00355158 0.000135211 8.96628e-05
0.000135211 0.00175483 -3.60055e-06
8.96628e-05 -3.60055e-06 0.00174836
0.0055378 0.000157685 -0.000224053
0.000157685 0.00288097 -1.51954e-05
-0.000224053 -1.51954e-05 0.00287993
0.00543825 5.03535e-05 -0.000206675
5.03535e-05 0.00281309 -6.5988e-06
-0.000206675 -6.5988e-06 0.00282015
0.000649327 7.90537e-05 -1.89031e-05
7.90537e-05 -8.55694e-05 -4.43364e-06
-1.89031e-05 -4.43364e-06 -0.000158515
0.000633657 3.50483e-05 -1.87249e-05
3.50483e-05 -9.62351e-05 -2.0888e-06
-1.87249e-05 -2.0888e-06 -0.000167195
0.00533053 -2.32566e-05 -0.000201589
-2.32566e-05 0.00275432 -9.99056e-07
-0.000201589 -9.99056e-07 0.00276225
0.00530028 1.76523e-05 -6.37436e-07
1.76523e-05 0.00273823 -1.44922e-07
-6.37436e-07 -1.44922e-07 0.00274565
0.000611946 8.64688e-08 -1.06457e-07
8.64688e-08 -0.000111532 -8.90932e-08
-1.06457e-07 -8.90932e-08 -0.000178802
0.00164406 2.75274e-05 4.46093e-05
2.75274e-05 0.000488734 1.36202e-06
4.46093e-05 1.36202e-06 0.000429144
0.00103838 3.58033e-05 5.39093e-08
3.58033e-05 -1.81216e-05 -1.84207e-07
5.39093e-08 -1.84207e-07 -0.000136376
0.000622357 6.84132e-05 -3.77818e-07
6.84132e-05 -9.66597e-05 -2.51795e-07
-3.77818e-07 -2.51795e-07 -0.000171567
0.00103558 7.76222e-05 -7.93183e-08
7.76222e-05 -1.23452e-05 -1.57512e-07
-7.93183e-08 -1.57512e-07 -0.000137728
0.000604736 -2.38492e-05 1.83674e-05
-2.38492e-05 -0.000116837 -7.21397e-07
1.83674e-05 -7.21397e-07 -0.000182186
0.00104122 1.39784e-05 1.20973e-05
1.39784e-05 -1.58773e-05 3.70107e-07
1.20973e-05 3.70107e-07 -0.000131608
0.00104245 5.42327e-05 1.21655e-05
5.42327e-05 -1.37189e-05 1.83198e-06
1.21655e-05 1.83198e-06 -0.00013497
0.00141332 5.21188e-05 3.20198e-06
5.21188e-05 5.72087e-05 3.26587e-08
3.20198e-06 3.26587e-08 -7.15859e-05
0.00105631 9.53601e-05 1.21696e-05
9.53601e-05 4.12851e-06 3.24788e-06
1.21696e-05 3.24788e-06 -0.000124457
0.00141246 0.00010842 3.36832e-06
0.00010842 7.35839e-05 4.73494e-07
3.36832e-06 4.73494e-07 -6.70454e-05
0.0053008 -4.45777e-05 -0.000207696
-4.45777e-05 0.00274101 1.35598e-07
-0.000207696 1.35598e-07 0.00274683
0.00125476 -0.000116733 -3.1244e-05
-0.000116733 0.000391641 3.26112e-06
-3.1244e-05 3.26112e-06 0.000354973
-0.000233532 -1.19156e-06 -1.31699e-05
-1.19156e-06 -0.000598314 2.14109e-06
-1.31699e-05 2.14109e-06 -0.000675652
0.00164169 -4.19711e-05 -9.17324e-05
-4.19711e-05 0.00049747 5.49126e-06
-9.17324e-05 5.49126e-06 0.000439319
0.00418352 0.00027761 -1.13881e-07
0.00027761 0.00216983 4.46402e-06
-1.13881e-07 4.46402e-06 0.00212134
0.0025279 -0.000147817 -9.0507e-05
-0.000147817 0.00107676 1.39134e-05
-9.0507e-05 1.39134e-05 0.00101082
0.00163484 -8.04077e-05 -8.9926e-05
-8.04077e-05 0.000504543 9.87359e-06
-8.9926e-05 9.87359e-06 0.000445552
0.00163688 -0.000110323 -2.55706e-05
-0.000110323 0.000349661 4.96124e-06
-2.55706e-05 4.96124e-06 0.000230682
0.00202871 -0.000181066 -2.3171e-05
-0.000181066 0.000607616 7.08202e-06
-2.3171e-05 7.08202e-06 0.000480964
0.00201655 -0.00022585 -2.21762e-05
-0.00022585 0.000650149 8.32885e-06
-2.21762e-05 8.32885e-06 0.000506657
0.00126371 -0.000193238 -6.74259e-06
-0.000193238 9.01546e-05 1.99398e-06
-6.74259e-06 1.99398e-06 -7.28516e-05
0.000606759 8.16873e-06 -4.8805e-08
8.16873e-06 -0.000112626 -2.88438e-08
-4.8805e-08 -2.88438e-08 -0.00017913
0.00157218 -5.8132e-05 -2.79535e-05
-5.8132e-05 0.000460464 3.15326e-07
-2.79535e-05 3.15326e-07 0.00039854
0.00118517 -2.46615e-05 -6.28324e-06
-2.46615e-05 7.31408e-05 2.96277e-07
-6.28324e-06 2.96277e-07 -3.99671e-05
0.0018273 -9.53944e-05 -4.63898e-06
-9.53944e-05 0.000453175 6.83572e-07
-4.63898e-06 6.83572e-07 0.000337782
0.00397345 0.000140936 -4.41152e-06
0.000140936 0.0020043 -6.38514e-07
-4.41152e-06 -6.38514e-07 0.00199519
0.00142468 -5.24515e-05 -8.48902e-07
-5.24515e-05 0.000471671 3.52799e-07
-8.48902e-07 3.52799e-07 0.000400867
0.00131942 -0.000189136 6.61683e-07
-0.000189136 0.000304549 -1.37177e-06
6.61683e-07 -1.37177e-06 0.000154416
0.00161455 -0.000138046 -4.98541e-06
-0.000138046 0.00034962 1.07053e-06
-4.98541e-06 1.07053e-06 0.000226674
0.00151514 -0.00013724 -2.53103e-06
-0.00013724 0.000161857 5.44702e-07
-2.53103e-06 5.44702e-07 2.05832e-05
0.00122308 -0.000211698 3.02239e-07
-0.000211698 9.50102e-05 -9.93314e-09
3.02239e-07 -9.93314e-09 -8.07125e-05
0.00150537 -0.000185352 3.12967e-07
-0.000185352 0.00020525 -1.56279e-07
3.12967e-07 -1.56279e-07 5.04742e-05
0.001463 -0.000233927 5.64929e-07
-0.000233927 0.000129098 -4.63167e-09
5.64929e-07 -4.63167e-09 -4.69832e-05
0.000520312 -5.79453e-06 -7.11764e-07
-5.79453e-06 -4.4637e-05 1.38851e-07
-7.11764e-07 1.38851e-07 -9.39995e-05
0.000660231 -3.71162e-05 -5.44983e-07
-3.71162e-05 3.62208e-05 -4.90303e-08
-5.44983e-07 -4.90303e-08 -6.75373e-05
0.00102863 -1.18877e-05 1.19383e-05
-1.18877e-05 -2.04064e-05 -9.70424e-07
1.19383e-05 -9.70424e-07 -0.000135037
0.00164251 -5.58546e-05 1.20981e-05
-5.58546e-05 0.000341305 -1.55004e-06
1.20981e-05 -1.55004e-06 0.000229377
0.00168625 -4.28882e-05 2.07469e-06
-4.28882e-05 0.000233047 -1.23787e-07
2.07469e-06 -1.23787e-07 0.000109102
0.00137524 -0.000107359 4.09857e-06
-0.000107359 6.66627e-05 -4.71004e-07
4.09857e-06 -4.71004e-07 -6.89343e-05
0.00163876 -0.000172691 4.4589e-06
-0.000172691 0.00026014 -1.03471e-06
4.4589e-06 -1.03471e-06 0.000113237
0.00168309 -0.000167873 -5.25168e-07
-0.000167873 0.000155052 5.08293e-07
-5.25168e-07 5.08293e-07 1.78033e-05
0.000398194 -2.82677e-05 8.59354e-06
-2.82677e-05 -0.000120341 -1.06943e-05
8.59354e-06 -1.06943e-05 -0.000175365
0.00151012 -0.000216649 2.39093e-06
-0.000216649 0.000121713 4.12184e-07
2.39093e-06 4.12184e-07 -3.99086e-05
0.000657015 -0.000131422 4.48466e-06
-0.000131422 -7.28893e-06 -5.92564e-06
4.48466e-06 -5.92564e-06 -0.0001508
0.00090451 -0.000205978 7.81051e-06
-0.000205978 -2.72972e-05 -4.58609e-06
7.81051e-06 -4.58609e-06 -0.000216132
0.00178728 -0.000280031 3.45092e-06
-0.000280031 0.000350432 -4.40424e-08
3.45092e-06 -4.40424e-08 0.000154704
0.00179702 -0.000270397 -1.034e-06
-0.000270397 0.000258648 3.0218e-06
-1.034e-06 3.0218e-06 8.89376e-05
0.000731426 -7.67272e-05 2.89592e-06
-7.67272e-05 7.61339e-05 -4.16339e-06
2.89592e-06 -4.16339e-06 -4.29193e-05
0.000580987 -9.95886e-06 8.23123e-07
-9.95886e-06 -3.81727e-06 -3.46761e-06
8.23123e-07 -3.46761e-06 -9.43457e-05
0.00101989 -0.000129542 3.07664e-07
-0.000129542 0.000257238 -4.01092e-07
3.07664e-07 -4.01092e-07 0.000103484
0.000584858 8.82638e-05 -1.71066e-05
8.82638e-05 -0.000110073 -7.40311e-06
-1.71066e-05 -7.40311e-06 -0.000187504
0.00317462 -0.000146822 -6.59552e-05
-0.000146822 0.00153872 -2.20825e-06
-6.59552e-05 -2.20825e-06 0.00153072
0.000449379 -7.06774e-05 2.33941e-06
-7.06774e-05 -6.31304e-05 -7.17817e-06
2.33941e-06 -7.17817e-06 -0.000104624
0.00051008 0.000133318 -1.85031e-05
0.000133318 -0.000118539 -1.16936e-05
-1.85031e-05 -1.16936e-05 -0.000203146
0.00101085 0.000141651 -1.34281e-05
0.000141651 5.02026e-06 -5.43532e-06
-1.34281e-05 -5.43532e-06 -0.000133254
0.000399542 2.39994e-05 -9.10585e-06
2.39994e-05 -0.000120834 -1.05382e-05
-9.10585e-06 -1.05382e-05 -0.000174806
0.000721981 0.000138049 -6.24357e-06
0.000138049 1.1614e-05 -6.69521e-06
-6.24357e-06 -6.69521e-06 -0.00013733
0.00095185 0.000164022 -1.0649e-05
0.000164022 3.13917e-05 -5.20182e-06
-1.0649e-05 -5.20182e-06 -0.000113522
0.00102803 0.000210678 -6.81976e-06
0.000210678 5.28793e-05 -1.07697e-06
-6.81976e-06 -1.07697e-06 -0.00013459
0.000536309 -1.51846e-05 1.52068e-06
-1.51846e-05 -2.91133e-05 3.83787e-07
1.52068e-06 3.83787e-07 -7.44355e-05
0.000542363 -7.19796e-05 -4.49033e-07
-7.19796e-05 -1.80823e-05 2.86946e-07
-4.49033e-07 2.86946e-07 -5.10988e-05
0.000638333 4.13615e-07 6.22787e-07
4.13615e-07 2.92605e-05 3.23891e-07
6.22787e-07 3.23891e-07 -6.04775e-05
0.00102515 0.000118283 5.78862e-08
0.000118283 -3.84958e-06 -2.59949e-07
5.78862e-08 -2.59949e-07 -0.000137185
0.000985788 0.00015634 4.08161e-07
0.00015634 1.70002e-05 -1.94585e-07
4.08161e-07 -1.94585e-07 -0.000124617
0.00131583 0.000185744 1.84418e-07
0.000185744 8.35245e-05 1.88901e-08
1.84418e-07 1.88901e-08 -8.12859e-05
0.00079273 0.000129435 -3.77266e-07
0.000129435 0.000105195 3.45518e-07
-3.77266e-07 3.45518e-07 -3.29435e-05
0.00112598 0.000204285 -2.23967e-07
0.000204285 5.72654e-05 -7.01062e-08
-2.23967e-07 -7.01062e-08 -0.000118132
0.00109439 0.000213457 1.21927e-06
0.000213457 0.00018055 -1.53791e-06
1.21927e-06 -1.53791e-06 -2.06606e-05
0.00118201 0.000239897 -7.36544e-07
0.000239897 8.6742e-05 6.22252e-07
-7.36544e-07 6.22252e-07 -0.000108653
0.000583977 -6.57602e-05 -8.17375e-07
-6.57602e-05 -6.0973e-06 5.09569e-06
-8.17375e-07 5.09569e-06 -3.25781e-05
0.000741649 8.90727e-05 4.52352e-06
8.90727e-05 8.45428e-05 4.04611e-06
4.52352e-06 4.04611e-06 -3.13182e-05
0.000689296 -1.74126e-05 7.55952e-07
-1.74126e-05 5.40088e-05 3.75433e-06
7.55952e-07 3.75433e-06 -1.58332e-05
0.00087081 9.30386e-05 1.07823e-06
9.30386e-05 0.000189432 8.27776e-07
1.07823e-06 8.27776e-07 4.8927e-05
0.00137082 0.000162877 5.58037e-06
0.000162877 8.01586e-05 9.68486e-07
5.58037e-06 9.68486e-07 -7.61876e-05
0.0012317 0.000201871 6.98657e-06
0.000201871 7.2007e-05 2.24208e-06
6.98657e-06 2.24208e-06 -9.94951e-05
0.00159013 0.000241707 1.43591e-06
0.000241707 0.000154611 2.90764e-08
1.43591e-06 2.90764e-08 -1.94973e-05
0.00103343 0.000181422 2.69187e-06
0.000181422 0.000214416 4.20486e-06
2.69187e-06 4.20486e-06 3.00782e-05
0.00139035 0.000250147 8.49353e-07
0.000250147 0.000149871 4.96091e-07
8.49353e-07 4.96091e-07 -3.74286e-05
0.00147542 0.000266532 2.68377e-06
0.000266532 0.00034397 -1.75003e-06
2.68377e-06 -1.75003e-06 0.0001141
0.00171345 0.00028032 8.17288e-07
0.00028032 0.000325689 1.46952e-07
8.17288e-07 1.46952e-07 0.000127139
0.000655346 -5.54215e-06 2.02691e-06
-5.54215e-06 1.33569e-05 2.17436e-06
2.02691e-06 2.17436e-06 -3.27715e-05
0.000577953 -4.47656e-05 7.08292e-07
-4.47656e-05 -3.19982e-05 4.36615e-06
7.08292e-07 4.36615e-06 -4.9556e-05
0.00234061 -9.1872e-05 2.88364e-05
-9.1872e-05 0.00102579 3.30494e-06
2.88364e-05 3.30494e-06 0.00103203
0.00238323 -0.000103346 2.75993e-06
-0.000103346 0.00105875 -2.73681e-07
2.75993e-06 -2.73681e-07 0.001062
0.0024502 -0.00011556 -3.57488e-05
-0.00011556 0.00110602 -2.67145e-06
-3.57488e-05 -2.67145e-06 0.00110582
0.000481759 2.01658e-05 3.12018e-06
2.01658e-05 -6.37934e-05 -6.81865e-06
3.12018e-06 -6.81865e-06 -9.98874e-05
0.00321501 0.000124787 7.29428e-05
0.000124787 0.00155446 -3.23015e-06
7.29428e-05 -3.23015e-06 0.00155075
0.000537964 1.18513e-05 -3.04362e-07
1.18513e-05 -3.05942e-05 1.54272e-07
-3.04362e-07 1.54272e-07 -7.40337e-05
0.00364356 0.000126071 -3.28094e-06
0.000126071 0.00180595 -4.51294e-07
-3.28094e-06 -4.51294e-07 0.0018016
0.000643699 9.07106e-05 -1.86521e-05
9.07106e-05 -8.28307e-05 -5.84903e-06
-1.86521e-05 -5.84903e-06 -0.000158938
0.000644859 3.15331e-05 -1.80919e-05
3.15331e-05 -9.18921e-05 -3.1102e-06
-1.80919e-05 -3.1102e-06 -0.000162755
0.00102001 7.90898e-05 -1.18235e-05
7.90898e-05 -2.07619e-05 -2.79157e-06
-1.18235e-05 -2.79157e-06 -0.000146523
0.00102436 3.78184e-05 -1.23408e-05
3.78184e-05 -2.59527e-05 -1.36819e-06
-1.23408e-05 -1.36819e-06 -0.000144404
0.000659225 -5.49994e-06 -1.87065e-05
-5.49994e-06 -8.76859e-05 -6.61998e-07
-1.87065e-05 -6.61998e-07 -0.000153064
0.00535668 -9.57971e-05 -0.000214888
-9.57971e-05 0.002779 3.1096e-06
-0.000214888 3.1096e-06 0.00278181
0.000642068 -5.10906e-07 1.27757e-07
-5.10906e-07 -9.62817e-05 -3.7328e-07
1.27757e-07 -3.7328e-07 -0.000161366
0.0010354 1.85927e-05 -4.27012e-08
1.85927e-05 -1.8786e-05 -7.18558e-08
-4.27012e-08 -7.18558e-08 -0.000134671
0.00104074 5.57823e-05 -4.42755e-08
5.57823e-05 -1.44415e-05 -1.39156e-07
-4.42755e-08 -1.39156e-07 -0.000135964
0.00140868 5.13798e-05 -4.61758e-08
5.13798e-05 5.49617e-05 -4.42237e-09
-4.61758e-08 -4.42237e-09 -7.39344e-05
0.00103467 9.75491e-05 -7.56381e-08
9.75491e-05 -7.18374e-06 -1.95159e-07
-7.56381e-08 -1.95159e-07 -0.000136515
0.00140503 0.000109978 -3.95127e-09
0.000109978 6.93359e-05 -3.92862e-08
-3.95127e-09 -3.92862e-08 -7.18018e-05
0.00103909 -1.72839e-07 1.20072e-05
-1.72839e-07 -1.50151e-05 -2.88756e-07
1.20072e-05 -2.88756e-07 -0.000129784
0.00141021 2.94121e-05 3.14004e-06
2.94121e-05 5.68958e-05 5.16936e-08
3.14004e-06 5.16936e-08 -6.84929e-05
0.00141283 8.1438e-05 3.2101e-06
8.1438e-05 6.28772e-05 1.98971e-07
3.2101e-06 1.98971e-07 -7.14782e-05
0.00171725 7.52474e-05 -1.1831e-06
7.52474e-05 9.65855e-05 -4.3993e-07
-1.1831e-06 -4.3993e-07 -1.53382e-05
0.00140847 0.000137184 4.00808e-06
0.000137184 8.19278e-05 6.87296e-07
4.00808e-06 6.87296e-07 -6.61696e-05
0.00168583 0.000144931 -6.67888e-07
0.000144931 0.000110108 -9.8683e-07
-6.67888e-07 -9.8683e-07 -2.02103e-05
0.000625511 3.48223e-06 -1.77982e-05
3.48223e-06 -0.000100608 9.93394e-07
-1.77982e-05 9.93394e-07 -0.00016832
0.00164002 -2.06101e-05 -9.18565e-05
-2.06101e-05 0.000494522 3.56012e-06
-9.18565e-05 3.56012e-06 0.000438075
0.000732884 -1.93241e-05 -1.37523e-05
-1.93241e-05 -0.000189413 1.68052e-06
-1.37523e-05 1.68052e-06 -0.000306801
0.00201095 -9.6257e-05 -2.26154e-05
-9.6257e-05 0.000557564 3.49738e-06
-2.26154e-05 3.49738e-06 0.000443844
0.00410243 0.000121793 -0.000127653
0.000121793 0.00207533 6.37181e-06
-0.000127653 6.37181e-06 0.00206953
0.00246253 -8.54248e-05 -7.82606e-05
-8.54248e-05 0.00106622 1.06714e-05
-7.82606e-05 1.06714e-05 0.00100786
0.00194539 -0.0002295 -1.75394e-05
-0.0002295 0.000671429 7.19481e-06
-1.75394e-05 7.19481e-06 0.000519587
0.00162245 -0.000136571 -2.33171e-05
-0.000136571 0.000353576 5.80781e-06
-2.33171e-05 5.80781e-06 0.00023092
0.00131116 -0.000130863 -6.32229e-06
-0.000130863 4.13905e-05 1.35779e-06
-6.32229e-06 1.35779e-06 -9.9975e-05
0.00174159 -0.000196092 -7.44893e-06
-0.000196092 0.00034029 2.00866e-06
-7.44893e-06 2.00866e-06 0.000186206
0.00108961 -0.000202889 -7.5175e-06
-0.000202889 1.6179e-05 2.03908e-06
-7.5175e-06 2.03908e-06 -0.000159832
0.00146922 -0.000233343 -2.79823e-06
-0.000233343 0.000135826 -4.69929e-07
-2.79823e-06 -4.69929e-07 -3.96284e-05
0.000607324 -1.49127e-05 -7.95887e-06
-1.49127e-05 4.68709e-06 9.48594e-06
-7.95887e-06 9.48594e-06 -4.56018e-05
0.000713393 -5.5562e-05 -2.51831e-06
-5.5562e-05 6.79904e-05 3.41864e-06
-2.51831e-06 3.41864e-06 -3.87737e-05
0.000881697 -7.46638e-06 -3.6616e-07
-7.46638e-06 -0.000105281 -1.1222e-07
-3.6616e-07 -1.1222e-07 -0.000220891
0.00164888 -5.68443e-05 -5.21252e-06
-5.68443e-05 0.00034369 5.37138e-07
-5.21252e-06 5.37138e-07 0.000231826
0.00169928 -3.93022e-05 -2.31434e-06
-3.93022e-05 0.000236992 2.9383e-07
-2.31434e-06 2.9383e-07 0.000114853
0.00154389 -0.000110386 1.31465e-07
-0.000110386 0.000164178 1.8552e-08
1.31465e-07 1.8552e-08 2.86762e-05
0.000540933 -3.9515e-05 5.69747e-09
-3.9515e-05 -4.04871e-05 2.96788e-07
5.69747e-09 2.96788e-07 -9.68156e-05
0.000855666 -0.000154104 -4.79641e-07
-0.000154104 0.000105008 -9.76256e-09
-4.79641e-07 -9.76256e-09 -4.18996e-05
0.000998659 -0.000212986 1.58354e-06
-0.000212986 2.7455e-05 -1.2712e-06
1.58354e-06 -1.2712e-06 -0.000161919
0.00168302 -0.000172338 -2.22886e-06
-0.000172338 0.00028438 5.68427e-07
-2.22886e-06 5.68427e-07 0.000137206
0.00171708 -0.000169579 1.6141e-07
-0.000169579 0.000169465 1.08124e-07
1.6141e-07 1.08124e-07 3.49268e-05
0.00168378 -0.000274848 -2.03025e-06
-0.000274848 0.000292663 1.73498e-07
-2.03025e-06 1.73498e-07 9.64478e-05
0.00151506 -0.000216686 4.02439e-07
-0.000216686 0.000124536 -8.15447e-08
4.02439e-07 -8.15447e-08 -3.67422e-05
0.00176207 -0.000270294 6.22219e-07
-0.000270294 0.00023416 5.42363e-07
6.22219e-07 5.42363e-07 6.41848e-05
0.000723609 -8.74876e-05 -1.69609e-07
-8.74876e-05 7.19042e-05 -1.9226e-07
-1.69609e-07 -1.9226e-07 -4.85991e-05
0.000614438 -7.9616e-05 -7.39966e-07
-7.9616e-05 1.2276e-05 -7.30216e-07
-7.39966e-07 -7.30216e-07 -0.000130403
0.000665813 -2.07553e-05 1.55777e-07
-2.07553e-05 4.37344e-05 2.2206e-07
1.55777e-07 2.2206e-07 -4.74666e-05
0.00168029 -1.5948e-05 1.68834e-06
-1.5948e-05 0.000221318 -1.49706e-07
1.68834e-06 -1.49706e-07 9.9176e-05
0.00169616 -7.20782e-05 1.87691e-06
-7.20782e-05 0.000236767 2.26235e-07
1.87691e-06 2.26235e-07 0.000110992
0.00165117 -5.67213e-05 -1.38619e-06
-5.67213e-05 8.22723e-05 8.74747e-07
-1.38619e-06 8.74747e-07 -2.89911e-05
0.00165094 -0.00013804 -1.89826e-06
-0.00013804 0.000103196 1.05507e-06
-1.89826e-06 1.05507e-06 -2.37897e-05
0.00153148 -0.000196318 8.23644e-07
-0.000196318 0.000100281 1.26601e-06
8.23644e-07 1.26601e-06 -4.61199e-05
0.00175366 -0.000191444 -1.99376e-06
-0.000191444 0.000123636 1.37472e-06
-1.99376e-06 1.37472e-06 8.12635e-06
0.000671563 -0.000110639 3.769e-06
-0.000110639 3.60502e-05 -4.09096e-06
3.769e-06 -4.09096e-06 -9.57989e-05
0.00163126 -0.000250927 -1.50712e-06
-0.000250927 0.000119125 1.91181e-06
-1.50712e-06 1.91181e-06 -3.21021e-05
0.00098239 -0.000203216 2.24594e-06
-0.000203216 0.000126288 -4.59833e-06
2.24594e-06 -4.59833e-06 -6.05419e-05
0.00122855 -0.000262928 5.99871e-06
-0.000262928 9.87699e-05 -2.51915e-06
5.99871e-06 -2.51915e-06 -0.000115179
0.00182274 -0.000306014 1.34604e-06
-0.000306014 0.000318766 2.88395e-06
1.34604e-06 2.88395e-06 0.000116866
0.00191681 -0.000297579 -3.01758e-06
-0.000297579 0.00028276 3.88054e-06
-3.01758e-06 3.88054e-06 0.000123713
0.000611489 -1.32657e-05 9.89521e-07
-1.32657e-05 1.13256e-05 -3.04529e-06
9.89521e-07 -3.04529e-06 -6.77299e-05
0.000809052 -0.000130223 1.6442e-06
-0.000130223 0.000104169 6.57462e-07
1.6442e-06 6.57462e-07 -4.26992e-05
0.000601187 -6.18267e-05 1.45497e-07
-6.18267e-05 2.7346e-05 -8.87669e-07
1.45497e-07 -8.87669e-07 -0.000111404
0.00118823 -0.000189761 -1.396e-06
-0.000189761 0.000337277 1.74372e-06
-1.396e-06 1.74372e-06 0.000170408
0.00101521 0.000120399 -1.31151e-05
0.000120399 -8.44409e-06 -4.60036e-06
-1.31151e-05 -4.60036e-06 -0.000142517
0.000491359 -7.13026e-05 6.44061e-07
-7.13026e-05 -4.86722e-05 -5.45918e-06
6.44061e-07 -5.45918e-06 -8.09782e-05
0.000430381 -3.26734e-05 -1.64172e-06
-3.26734e-05 -8.61284e-05 -8.86012e-06
-1.64172e-06 -8.86012e-06 -0.000131949
0.000598836 -3.22558e-05 8.7577e-07
-3.22558e-05 1.01621e-05 -4.28702e-06
8.7577e-07 -4.28702e-06 -7.87768e-05
0.000999771 0.000158907 -1.22363e-05
0.000158907 2.60659e-05 -6.164e-06
-1.22363e-05 -6.164e-06 -0.000116146
0.00130073 0.000184028 -6.24966e-06
0.000184028 7.91173e-05 -1.68401e-06
-6.24966e-06 -1.68401e-06 -8.56114e-05
0.000661926 0.000109407 -4.1161e-06
0.000109407 3.06168e-05 -4.36963e-06
-4.1161e-06 -4.36963e-06 -0.000104426
0.00137955 0.00023594 -5.31869e-06
0.00023594 0.00034639 -4.77143e-06
-5.31869e-06 -4.77143e-06 0.00014243
0.00132044 0.000217544 -5.80551e-06
0.000217544 0.000171708 -2.07195e-06
-5.80551e-06 -2.07195e-06 -5.39126e-06
0.000805031 0.000213333 -3.75653e-06
0.000213333 -0.000134062 1.98098e-06
-3.75653e-06 1.98098e-06 -0.000326132
0.000556579 -6.18331e-05 -1.52014e-07
-6.18331e-05 -2.40776e-05 9.95381e-08
-1.52014e-07 9.95381e-08 -4.93935e-05
0.000739786 7.7839e-05 3.2551e-07
7.7839e-05 8.90146e-05 -2.15542e-07
3.2551e-07 -2.15542e-07 -2.85426e-05
0.000622119 -3.30726e-05 -6.48663e-07
-3.30726e-05 1.83024e-05 6.81622e-07
-6.48663e-07 6.81622e-07 -5.19775e-05
0.000775827 5.99416e-05 9.94635e-07
5.99416e-05 0.000130969 -6.32615e-07
9.94635e-07 -6.32615e-07 -4.06004e-06
0.00136362 0.000162005 4.46823e-07
0.000162005 7.93616e-05 -1.56843e-07
4.46823e-07 -1.56843e-07 -7.7089e-05
0.00126621 0.000204002 2.36535e-07
0.000204002 9.58744e-05 -1.64831e-09
2.36535e-07 -1.64831e-09 -7.59807e-05
0.00159233 0.000242135 2.44796e-07
0.000242135 0.000155008 1.78147e-07
2.44796e-07 1.78147e-07 -1.94165e-05
0.00100286 0.000180358 8.59026e-07
0.000180358 0.000200805 7.13744e-07
8.59026e-07 7.13744e-07 1.75606e-05
0.00157678 0.00026123 -8.25429e-07
0.00026123 0.00026289 -3.8564e-07
-8.25429e-07 -3.8564e-07 7.47015e-05
0.00118686 0.000244156 4.07873e-07
0.000244156 0.000178588 -2.5207e-06
4.07873e-07 -2.5207e-06 -5.09518e-05
0.00151319 0.000265512 -2.29832e-06
0.000265512 0.000215545 1.84702e-07
-2.29832e-06 1.84702e-07 1.92941e-05
0.000570989 -5.36228e-05 5.61165e-07
-5.36228e-05 -2.70902e-05 4.4969e-06
5.61165e-07 4.4969e-06 -4.79108e-05
0.000684605 -2.09373e-05 1.2946e-06
-2.09373e-05 4.36271e-05 2.72883e-06
1.2946e-06 2.72883e-06 -1.33138e-05
0.000980577 0.000138026 2.07483e-06
0.000138026 0.000219506 2.09266e-06
2.07483e-06 2.09266e-06 6.37878e-05
0.000814618 5.61739e-05 -4.85572e-07
5.61739e-05 0.000162453 2.47097e-06
-4.85572e-07 2.47097e-06 4.42094e-05
0.0010582 0.000134703 9.48193e-08
0.000134703 0.000300013 -5.91934e-07
9.48193e-08 -5.91934e-07 0.000138619
0.00164601 0.000211342 1.26725e-06
0.000211342 0.000144854 -1.15246e-06
1.26725e-06 -1.15246e-06 -1.364e-05
0.001485 0.000257597 1.28882e-06
0.000257597 0.000147396 8.79691e-07
1.28882e-06 8.79691e-07 -3.74329e-05
0.00175429 0.000280538 1.95368e-07
0.000280538 0.000199681 -4.14417e-07
1.95368e-07 -4.14417e-07 3.00859e-05
0.00133243 0.00024004 2.97007e-06
0.00024004 0.000368117 4.84953e-06
2.97007e-06 4.84953e-06 0.000142782
0.00172139 0.000302954 2.32812e-06
0.000302954 0.000294227 5.30898e-07
2.32812e-06 5.30898e-07 9.70144e-05
0.000805557 0.000224803 2.93388e-06
0.000224803 -0.000118062 -1.98588e-06
2.93388e-06 -1.98588e-06 -0.00033797
0.000651047 -9.48096e-06 2.38023e-06
-9.48096e-06 1.24444e-05 2.178e-06
2.38023e-06 2.178e-06 -3.5151e-05
0.000700834 3.64754e-05 2.50426e-07
3.64754e-05 6.68271e-05 1.01529e-06
2.50426e-07 1.01529e-06 -1.06241e-05
0.000670733 4.21328e-06 1.75486e-06
4.21328e-06 2.29267e-05 2.14312e-06
1.75486e-06 2.14312e-06 -2.26822e-05
0.000648707 -2.25587e-05 -4.57587e-07
-2.25587e-05 1.13702e-05 1.60325e-08
-4.57587e-07 1.60325e-08 -3.57687e-05
0.00125962 -5.14237e-05 1.04365e-06
-5.14237e-05 0.000362847 2.56757e-06
1.04365e-06 2.56757e-06 0.000350953
0.0009352 -5.1502e-05 6.55205e-07
-5.1502e-05 0.000177895 -7.23105e-08
6.55205e-07 -7.23105e-08 0.000162101
0.000907305 -4.74771e-05 2.39755e-05
-4.74771e-05 0.00017229 7.13691e-06
2.39755e-05 7.13691e-06 0.000175523
0.00230326 -8.98457e-05 2.79835e-06
-8.98457e-05 0.00100291 -2.43199e-07
2.79835e-06 -2.43199e-07 0.0010096
0.00232506 -0.000100618 -3.23178e-05
-0.000100618 0.00102395 -3.05338e-06
-3.23178e-05 -3.05338e-06 0.00102779
0.000501776 4.03417e-05 -2.67081e-07
4.03417e-05 -5.34035e-05 -5.85204e-06
-2.67081e-07 -5.85204e-06 -8.50133e-05
0.00292288 0.000121508 4.9216e-05
0.000121508 0.00137912 -3.07587e-06
4.9216e-05 -3.07587e-06 0.00137656
0.00054763 1.90777e-05 -2.69324e-07
1.90777e-05 -2.60997e-05 2.02121e-07
-2.69324e-07 2.02121e-07 -6.25979e-05
0.00333169 0.000116869 -4.12732e-06
0.000116869 0.00162009 -3.57551e-07
-4.12732e-06 -3.57551e-07 0.00161839
0.000606245 9.07811e-06 -4.75468e-06
9.07811e-06 7.32144e-06 8.35108e-06
-4.75468e-06 8.35108e-06 -3.6471e-05
0.00373411 0.000115322 -0.000111024
0.000115322 0.00185603 5.08183e-06
-0.000111024 5.08183e-06 0.00185391
0.00101999 9.98453e-05 -1.23367e-05
9.98453e-05 -1.48172e-05 -3.57449e-06
-1.23367e-05 -3.57449e-06 -0.000144819
0.00102895 5.95311e-05 -1.20523e-05
5.95311e-05 -2.03694e-05 -2.08957e-06
-1.20523e-05 -2.08957e-06 -0.000142373
0.00140702 0.000108311 -3.91863e-06
0.000108311 7.04053e-05 -6.0713e-07
-3.91863e-06 -6.0713e-07 -7.08565e-05
0.00140625 5.08483e-05 -3.45012e-06
5.08483e-05 5.41726e-05 -3.34435e-09
-3.45012e-06 -3.34435e-09 -7.48235e-05
0.001033 2.20378e-05 -1.22304e-05
2.20378e-05 -1.98079e-05 -5.62636e-07
-1.22304e-05 -5.62636e-07 -0.000135851
0.000610703 2.35345e-05 -1.83187e-05
2.35345e-05 -0.000113628 -2.45106e-08
-1.83187e-05 -2.45106e-08 -0.00017885
0.00103415 2.13264e-06 1.68168e-08
2.13264e-06 -1.78557e-05 -9.20193e-08
1.68168e-08 -9.20193e-08 -0.000132665
0.00140413 3.12077e-05 -7.73848e-08
3.12077e-05 5.30505e-05 6.2684e-08
-7.73848e-08 6.2684e-08 -7.24625e-05
0.00141137 7.89002e-05 3.005e-08
7.89002e-05 6.30902e-05 -6.86196e-08
3.005e-08 -6.86196e-08 -7.12361e-05
0.00174345 7.55364e-05 -4.70316e-08
7.55364e-05 0.000108027 2.7041e-07
-4.70316e-08 2.7041e-07 -1.8225e-06
0.00139557 0.000136537 -1.82182e-07
0.000136537 7.63058e-05 -5.63938e-08
-1.82182e-07 -5.63938e-08 -7.19701e-05
0.00169022 0.000143078 -2.38185e-07
0.000143078 0.000117019 7.33578e-08
-2.38185e-07 7.33578e-08 -1.32789e-05
0.00140007 7.116e-06 3.31762e-06
7.116e-06 5.37108e-05 -3.84283e-08
3.31762e-06 -3.84283e-08 -7.03976e-05
0.00173148 4.36321e-05 -1.90027e-06
4.36321e-05 0.000101668 1.78426e-07
-1.90027e-06 1.78426e-07 -2.58536e-06
0.0017063 0.00011599 -1.14403e-06
0.00011599 9.83026e-05 -8.14696e-07
-1.14403e-06 -8.14696e-07 -2.18926e-05
0.00182865 8.09156e-05 -9.97077e-07
8.09156e-05 9.52173e-05 1.23075e-07
-9.97077e-07 1.23075e-07 5.85494e-06
0.0016757 0.000173181 -1.90095e-07
0.000173181 0.000135006 -1.13365e-06
-1.90095e-07 -1.13365e-06 -7.45879e-06
0.00171123 0.000166428 -2.5844e-06
0.000166428 6.51771e-05 -1.16428e-06
-2.5844e-06 -1.16428e-06 -4.07305e-05
0.0007305 -4.51992e-06 -1.18433e-05
-4.51992e-06 -0.00019236 6.53561e-07
-1.18433e-05 6.53561e-07 -0.000309009
0.00168018 -5.92989e-05 -2.23227e-05
-5.92989e-05 0.000360404 2.5509e-06
-2.23227e-05 2.5509e-06 0.000248584
0.00171874 -3.30333e-05 -6.61032e-06
-3.30333e-05 0.000244773 3.99959e-07
-6.61032e-06 3.99959e-07 0.000124615
0.00171063 -0.000113632 -4.90994e-06
-0.000113632 0.000260676 8.73555e-07
-4.90994e-06 8.73555e-07 0.000125248
0.000701661 -5.24949e-05 -1.11766e-05
-5.24949e-05 5.11143e-05 1.11957e-05
-1.11766e-05 1.11957e-05 -7.8682e-06
0.000877205 -0.000164821 -7.10148e-06
-0.000164821 0.000118083 6.59635e-06
-7.10148e-06 6.59635e-06 -3.07667e-05
0.00111202 -0.000221558 -4.80789e-06
-0.000221558 9.33329e-05 1.59523e-06
-4.80789e-06 1.59523e-06 -9.68494e-05
0.00172618 -0.000171843 -8.13827e-06
-0.000171843 0.000307961 2.16809e-06
-8.13827e-06 2.16809e-06 0.000160542
0.00174813 -0.000171055 -5.72374e-08
-0.000171055 0.00018219 -7.32813e-07
-5.72374e-08 -7.32813e-07 5.03975e-05
0.00152212 -0.000216856 -1.90886e-06
-0.000216856 0.000128417 -4.87001e-07
-1.90886e-06 -4.87001e-07 -3.25261e-05
0.00159998 -0.000270463 -5.43503e-06
-0.000270463 0.000247059 -6.75561e-08
-5.43503e-06 -6.75561e-08 5.02707e-05
0.00172992 -0.000269828 2.69794e-06
-0.000269828 0.000211428 -2.55764e-06
2.69794e-06 -2.55764e-06 4.13134e-05
0.000728337 -9.48034e-05 -3.94994e-06
-9.48034e-05 7.18294e-05 3.75621e-06
-3.94994e-06 3.75621e-06 -4.83341e-05
0.000485548 -6.9978e-05 -1.68729e-06
-6.9978e-05 -6.0929e-05 -7.17501e-07
-1.68729e-06 -7.17501e-07 -0.000203289
0.00070365 -2.8214e-05 -1.17446e-06
-2.8214e-05 6.46374e-05 3.61999e-06
-1.17446e-06 3.61999e-06 -2.7551e-05
0.00154834 -1.3851e-05 -2.3713e-06
-1.3851e-05 0.000143355 1.34837e-07
-2.3713e-06 1.34837e-07 2.02157e-05
0.00170686 -7.92401e-05 -2.40343e-06
-7.92401e-05 0.000242822 4.08133e-07
-2.40343e-06 4.08133e-07 0.000116443
0.00167088 -5.32137e-05 6.64383e-07
-5.32137e-05 9.29687e-05 4.83068e-07
6.64383e-07 4.83068e-07 -1.44003e-05
0.00167108 -0.000135367 -1.35125e-06
-0.000135367 0.000112644 3.59609e-07
-1.35125e-06 3.59609e-07 -1.46767e-05
0.000755678 -0.000127044 4.11935e-07
-0.000127044 8.45894e-05 2.96202e-07
4.11935e-07 2.96202e-07 -4.96594e-05
0.00108152 -0.00021217 -1.21436e-06
-0.00021217 0.000178487 1.86594e-08
-1.21436e-06 1.86594e-08 -9.11458e-06
0.00110028 -0.000248686 1.66875e-06
-0.000248686 2.98272e-05 -7.97783e-07
1.66875e-06 -7.97783e-07 -0.000181296
0.00156625 -0.000197415 -5.04581e-07
-0.000197415 0.000121553 4.20241e-07
-5.04581e-07 4.20241e-07 -2.70945e-05
0.00179369 -0.000192175 1.44022e-06
-0.000192175 0.000149675 1.81329e-07
1.44022e-06 1.81329e-07 3.82295e-05
0.00173269 -0.000305086 -7.26993e-07
-0.000305086 0.000264966 6.15299e-07
-7.26993e-07 6.15299e-07 6.05399e-05
0.00166276 -0.000251378 1.2765e-07
-0.000251378 0.000137617 2.8775e-07
1.2765e-07 2.8775e-07 -1.32405e-05
0.00196086 -0.000297818 1.55042e-06
-0.000297818 0.00030947 -4.25396e-07
1.55042e-06 -4.25396e-07 0.000153008
0.000956714 -0.000152723 3.04151e-07
-0.000152723 0.000193764 4.52316e-07
3.04151e-07 4.52316e-07 4.1729e-05
0.00108138 -0.000187686 -2.69227e-07
-0.000187686 0.000281201 1.43517e-07
-2.69227e-07 1.43517e-07 0.00011207
0.000651742 -1.97446e-05 1.076e-07
-1.97446e-05 3.42193e-05 1.9051e-07
1.076e-07 1.9051e-07 -4.55879e-05
0.000447145 -2.76681e-05 -2.37571e-07
-2.76681e-05 -7.01408e-05 -5.76731e-07
-2.37571e-07 -5.76731e-07 -0.000200625
0.00169366 -3.17611e-05 -1.35405e-06
-3.17611e-05 0.000100591 -3.50068e-08
-1.35405e-06 -3.50068e-08 -6.46547e-06
0.00183767 -9.20313e-05 -7.21494e-07
-9.20313e-05 0.000189783 1.17442e-06
-7.21494e-07 1.17442e-06 7.52489e-05
0.00162956 -6.56226e-05 6.29846e-07
-6.56226e-05 1.8445e-06 3.50163e-08
6.29846e-07 3.50163e-08 -8.88986e-05
0.00175524 -0.000163598 -3.72118e-06
-0.000163598 8.75238e-05 9.6351e-07
-3.72118e-06 9.6351e-07 -8.77564e-06
0.00170453 -0.000222868 -3.33873e-06
-0.000222868 0.00012589 2.80135e-06
-3.33873e-06 2.80135e-06 -3.17364e-06
0.00189294 -0.000193004 1.53121e-06
-0.000193004 0.000181338 -2.06391e-07
1.53121e-06 -2.06391e-07 8.68707e-05
0.000875808 -0.000177536 1.24934e-06
-0.000177536 0.000124345 -1.94699e-06
1.24934e-06 -1.94699e-06 -4.12354e-05
0.00161498 -0.000267099 -4.11421e-06
-0.000267099 7.3218e-05 2.95584e-06
-4.11421e-06 2.95584e-06 -5.66854e-05
0.000826578 -0.00021804 1.71894e-06
-0.00021804 -9.61756e-06 -5.17164e-06
1.71894e-06 -5.17164e-06 -0.000219471
0.00167569 -0.000328741 3.62038e-06
-0.000328741 0.000308786 -6.93098e-08
3.62038e-06 -6.93098e-08 7.27621e-05
0.00168997 -0.000317979 5.91576e-07
-0.000317979 0.000197039 5.38399e-06
5.91576e-07 5.38399e-06 -5.76079e-06
0.00192449 -0.000289916 2.64987e-08
-0.000289916 0.000272131 1.32743e-06
2.64987e-08 1.32743e-06 0.000121888
0.000591872 -2.05064e-05 1.31389e-06
-2.05064e-05 -1.67786e-06 -2.89724e-06
1.31389e-06 -2.89724e-06 -7.19062e-05
0.000546158 -2.54735e-05 -5.59036e-07
-2.54735e-05 -2.10564e-06 -1.6745e-06
-5.59036e-07 -1.6745e-06 -0.000125776
0.000863808 -0.000186343 -2.33051e-07
-0.000186343 0.000124677 1.36857e-06
-2.33051e-07 1.36857e-06 -4.09867e-05
0.000818315 -0.000132195 1.07404e-06
-0.000132195 0.000161568 1.2179e-06
1.07404e-06 1.2179e-06 -1.25598e-06
0.00134354 -0.000229396 -2.30537e-06
-0.000229396 0.000421955 3.50289e-06
-2.30537e-06 3.50289e-06 0.000249916
0.000536643 -5.78829e-05 -8.64365e-07
-5.78829e-05 -3.74425e-05 -4.59835e-06
-8.64365e-07 -4.59835e-06 -6.17248e-05
0.0013549 0.000160997 -4.74345e-06
0.000160997 7.81141e-05 -1.29382e-06
-4.74345e-06 -1.29382e-06 -7.84301e-05
0.000541258 -4.92065e-05 -1.78758e-07
-4.92065e-05 -2.42871e-05 -3.01905e-06
-1.78758e-07 -3.01905e-06 -9.58086e-05
0.00073423 5.57325e-05 -1.60007e-06
5.57325e-05 8.25785e-05 -4.13061e-06
-1.60007e-06 -4.13061e-06 -3.02008e-05
0.000686428 2.64465e-05 1.54081e-06
2.64465e-05 7.4713e-05 -1.91133e-06
1.54081e-06 -1.91133e-06 -5.41199e-05
0.00129473 0.000206089 -6.58378e-06
0.000206089 0.00011563 -2.2119e-06
-6.58378e-06 -2.2119e-06 -5.66551e-05
0.00160032 0.000242944 -2.18578e-07
0.000242944 0.000158668 4.80148e-07
-2.18578e-07 4.80148e-07 -1.61114e-05
0.00104207 0.000189769 -2.04234e-06
0.000189769 0.000227724 -3.30584e-06
-2.04234e-06 -3.30584e-06 4.28982e-05
0.000945711 0.000226708 -2.43567e-06
0.000226708 3.92789e-05 -2.50524e-06
-2.43567e-06 -2.50524e-06 -0.000190562
0.00173278 0.000270616 -3.38231e-06
0.000270616 0.000357779 -1.43274e-06
-3.38231e-06 -1.43274e-06 0.000168819
0.00133315 0.000252633 -5.97889e-06
0.000252633 0.000116499 4.16179e-07
-5.97889e-06 4.16179e-07 -7.77397e-05
0.000569898 -5.13036e-05 5.26125e-08
-5.13036e-05 -2.88944e-05 2.06608e-09
5.26125e-08 2.06608e-09 -4.91821e-05
0.00063932 -2.93562e-05 -6.22875e-07
-2.93562e-05 1.93527e-05 2.92542e-07
-6.22875e-07 2.92542e-07 -3.80152e-05
0.000924798 0.000134235 2.12207e-07
0.000134235 0.000186651 6.28363e-07
2.12207e-07 6.28363e-07 3.23064e-05
0.000721273 5.78612e-06 -4.50218e-07
5.78612e-06 0.000102635 3.9757e-07
-4.50218e-07 3.9757e-07 -8.75926e-06
0.000674405 9.38094e-05 7.42823e-07
9.38094e-05 7.00032e-05 -4.73316e-07
7.42823e-07 -4.73316e-07 -8.4066e-05
0.00164167 0.000212464 1.86632e-07
0.000212464 0.000139909 -5.92485e-07
1.86632e-07 -5.92485e-07 -1.91193e-05
0.00149098 0.000257261 6.79376e-07
0.000257261 0.000151982 4.62981e-07
6.79376e-07 4.62981e-07 -3.29103e-05
0.00168329 0.0002782 1.63727e-06
0.0002782 0.000158949 2.3876e-07
1.63727e-06 2.3876e-07 -1.11694e-05
0.00116834 0.000225813 9.89297e-07
0.000225813 0.000281009 1.57807e-06
9.89297e-07 1.57807e-06 5.49598e-05
0.00175498 0.000306358 3.26239e-07
0.000306358 0.000305204 6.50273e-08
3.26239e-07 6.50273e-08 0.000107382
0.00112404 0.000249828 -2.09204e-06
0.000249828 5.9757e-05 -7.69369e-08
-2.09204e-06 -7.69369e-08 -0.000162445
0.000685051 -1.59083e-05 2.21255e-06
-1.59083e-05 3.5959e-05 2.31341e-06
2.21255e-06 2.31341e-06 -1.46251e-05
0.000779645 3.56658e-05 5.9295e-07
3.56658e-05 0.000124064 2.32464e-06
5.9295e-07 2.32464e-06 3.05768e-05
0.000980498 0.000194831 -1.55589e-06
0.000194831 0.000213271 -1.19586e-08
-1.55589e-06 -1.19586e-08 3.09315e-05
0.00107395 5.31529e-05 1.54912e-07
5.31529e-05 0.000309938 1.02694e-06
1.54912e-07 1.02694e-06 0.000174077
0.00126804 0.000116236 -4.29743e-06
0.000116236 0.000381627 -4.713e-06
-4.29743e-06 -4.713e-06 0.000226387
0.00170186 0.000224609 -2.72289e-06
0.000224609 0.000135567 -2.65895e-06
-2.72289e-06 -2.65895e-06 -8.65569e-06
0.00169016 0.000312114 1.78569e-06
0.000312114 0.000212295 2.22387e-07
1.78569e-06 2.22387e-07 2.17613e-05
0.00151408 0.000298027 3.11468e-06
0.000298027 2.98178e-05 -1.05351e-06
3.11468e-06 -1.05351e-06 -0.000137171
0.000983574 0.000224324 -4.34872e-08
0.000224324 0.000144167 2.58676e-06
-4.34872e-08 2.58676e-06 -9.70377e-05
0.00145115 0.000303471 6.11413e-06
0.000303471 0.000153887 -3.19456e-07
6.11413e-06 -3.19456e-07 -6.27681e-05
0.000653255 -1.78906e-05 -1.78801e-07
-1.78906e-05 1.42192e-05 9.50589e-09
-1.78801e-07 9.50589e-09 -3.35944e-05
0.000568477 1.42553e-05 1.48752e-06
1.42553e-05 -1.96852e-05 1.44382e-06
1.48752e-06 1.44382e-06 -9.32101e-05
0.000584438 7.42407e-07 -5.83033e-07
7.42407e-07 -5.57816e-06 -7.71808e-08
-5.83033e-07 -7.71808e-08 -7.95547e-05
0.000924816 7.4002e-05 5.96649e-07
7.4002e-05 0.00020587 -2.48721e-07
5.96649e-07 -2.48721e-07 0.000114049
0.000704813 5.63418e-05 1.79577e-06
5.63418e-05 6.90958e-05 1.25523e-06
1.79577e-06 1.25523e-06 -6.91964e-06
0.000653481 1.66273e-05 1.73776e-06
1.66273e-05 1.60747e-05 2.19181e-06
1.73776e-06 2.19181e-06 -3.01231e-05
0.000651897 -1.62992e-05 -6.44648e-07
-1.62992e-05 1.36179e-05 2.45925e-08
-6.44648e-07 2.45925e-08 -3.27953e-05
0.0012563 -3.99002e-05 7.71072e-07
-3.99002e-05 0.000356026 2.46824e-06
7.71072e-07 2.46824e-06 0.000345971
0.000649774 -3.02979e-05 -9.04853e-07
-3.02979e-05 1.2452e-05 -2.20587e-06
-9.04853e-07 -2.20587e-06 -3.48079e-05
0.00129274 -4.82272e-05 -5.11535e-06
-4.82272e-05 0.000381811 -1.35135e-06
-5.11535e-06 -1.35135e-06 0.0003704
0.000875049 -3.81812e-05 2.24967e-05
-3.81812e-05 0.000144809 7.31333e-06
2.24967e-05 7.31333e-06 0.000150851
0.00130465 -5.593e-05 -9.55688e-06
-5.593e-05 0.00039535 -3.74178e-06
-9.55688e-06 -3.74178e-06 0.000381743
0.00156154 -6.20746e-05 2.04703e-05
-6.20746e-05 0.000557792 1.9315e-06
2.04703e-05 1.9315e-06 0.000564242
0.00226838 -8.77708e-05 -2.85891e-05
-8.77708e-05 0.000981359 -3.52296e-06
-2.85891e-05 -3.52296e-06 0.000988528
0.000510543 5.53709e-05 -8.04364e-07
5.53709e-05 -5.23543e-05 -4.92273e-06
-8.04364e-07 -4.92273e-06 -7.96445e-05
0.000537732 3.19849e-05 1.63632e-07
3.19849e-05 -3.41636e-05 2.23291e-07
1.63632e-07 2.23291e-07 -6.50347e-05
0.00267092 0.000107226 3.71921e-05
0.000107226 0.00122573 -3.36804e-06
3.71921e-05 -3.36804e-06 0.00122684
0.00302459 0.000110047 -5.95308e-06
0.000110047 0.00143653 -3.24358e-07
-5.95308e-06 -3.24358e-07 0.00143684
0.000615734 1.76211e-05 -3.70218e-06
1.76211e-05 1.28025e-05 7.08378e-06
-3.70218e-06 7.08378e-06 -2.41262e-05
0.0034255 0.000106257 -9.69885e-05
0.000106257 0.00167216 4.46051e-06
-9.69885e-05 4.46051e-06 0.00167289
0.00138631 0.000136212 -4.54322e-06
0.000136212 7.24704e-05 -8.32674e-07
-4.54322e-06 -8.32674e-07 -7.60145e-05
0.00140012 7.927e-05 -3.5921e-06
7.927e-05 5.77023e-05 -3.32157e-07
-3.5921e-06 -3.32157e-07 -7.69478e-05
0.00168784 0.000142245 1.54341e-07
0.000142245 0.000120052 1.10766e-06
1.54341e-07 1.10766e-06 -1.03669e-05
0.00177064 7.58439e-05 1.00102e-06
7.58439e-05 0.000119936 7.11711e-07
1.00102e-06 7.11711e-07 1.21739e-05
0.00139451 3.43767e-05 -3.15282e-06
3.43767e-05 4.71412e-05 1.03714e-07
-3.15282e-06 1.03714e-07 -7.85583e-05
0.00103797 6.76263e-06 -1.19447e-05
6.76263e-06 -1.58821e-05 4.57735e-10
-1.19447e-05 4.57735e-10 -0.000130664
0.00139788 1.05371e-05 6.98149e-08
1.05371e-05 5.22335e-05 7.21072e-09
6.98149e-08 7.21072e-09 -7.19783e-05
0.00173718 3.37461e-05 -1.13618e-06
3.37461e-05 0.000106193 -2.10156e-08
-1.13618e-06 -2.10156e-08 2.28642e-06
0.00171961 0.000114803 -1.47019e-07
0.000114803 0.000107042 6.00713e-08
-1.47019e-07 6.00713e-08 -1.29768e-05
0.00180043 7.99381e-05 1.62919e-06
7.99381e-05 7.79446e-05 9.38153e-07
1.62919e-06 9.38153e-07 -7.30196e-06
0.00166196 0.00017394 -2.62748e-07
0.00017394 0.000124503 -8.31751e-08
-2.62748e-07 -8.31751e-08 -1.85466e-05
0.00173197 0.000163948 -3.63486e-07
0.000163948 7.42374e-05 9.84845e-07
-3.63486e-07 9.84845e-07 -2.89348e-05
0.00171882 3.71858e-07 -1.26053e-06
3.71858e-07 0.000108216 4.73148e-08
-1.26053e-06 4.73148e-08 4.72765e-06
0.00168204 4.03262e-05 4.47415e-08
4.03262e-05 2.37885e-05 6.12413e-07
4.47415e-08 6.12413e-07 -5.96119e-05
0.00186341 0.000128364 -3.55302e-06
0.000128364 0.00012455 -9.35235e-07
-3.55302e-06 -9.35235e-07 3.46643e-05
0.00189991 8.60043e-05 2.46935e-06
8.60043e-05 0.000120957 1.74825e-07
2.46935e-06 1.74825e-07 5.48186e-05
0.00167381 0.000178053 -1.44806e-06
0.000178053 7.95255e-05 -2.69632e-06
-1.44806e-06 -2.69632e-06 -4.07243e-05
0.00183544 0.000174665 2.24026e-06
0.000174665 9.55023e-05 1.70579e-07
2.24026e-06 1.70579e-07 9.76247e-06
0.00141226 -1.2179e-05 -5.17404e-06
-1.2179e-05 6.27402e-05 2.41026e-07
-5.17404e-06 2.41026e-07 -6.14052e-05
0.00172534 -8.33433e-05 -6.80229e-06
-8.33433e-05 0.000253292 6.55715e-07
-6.80229e-06 6.55715e-07 0.000126521
0.00168016 -5.09258e-05 1.68742e-06
-5.09258e-05 9.74779e-05 -7.63011e-07
1.68742e-06 -7.63011e-07 -6.0987e-06
0.00168541 -0.00013302 -4.24435e-07
-0.00013302 0.000118712 -2.07396e-07
-4.24435e-07 -2.07396e-07 -9.00171e-06
0.000889737 -0.000149083 -4.93714e-06
-0.000149083 0.000162398 5.57753e-06
-4.93714e-06 5.57753e-06 2.5015e-05
0.00121866 -0.000224013 -4.18322e-06
-0.000224013 0.000253064 4.11213e-06
-4.18322e-06 4.11213e-06 6.42007e-05
0.000896412 -0.000228255 -2.718e-06
-0.000228255 -8.45006e-05 4.3545e-07
-2.718e-06 4.3545e-07 -0.000292289
0.00160368 -0.000198636 -1.56334e-06
-0.000198636 0.000144288 1.24276e-07
-1.56334e-06 1.24276e-07 -6.6248e-06
0.00182816 -0.000192525 3.43135e-06
-0.000192525 0.000172668 -1.86609e-06
3.43135e-06 -1.86609e-06 6.53292e-05
0.00169383 -0.000251788 2.13138e-06
-0.000251788 0.000156108 -1.36643e-06
2.13138e-06 -1.36643e-06 5.62193e-06
0.00162845 -0.000304568 -8.6846e-07
-0.000304568 0.000202677 -1.56225e-06
-8.6846e-07 -1.56225e-06 -4.51397e-06
0.00200153 -0.000297569 4.75526e-06
-0.000297569 0.000334745 -6.33708e-06
4.75526e-06 -6.33708e-06 0.000180968
0.000900073 -0.000152439 -9.77198e-07
-0.000152439 0.000162618 5.98826e-07
-9.77198e-07 5.98826e-07 1.0575e-05
0.000715821 -0.000138753 -4.78188e-07
-0.000138753 6.17414e-05 -1.06196e-06
-4.78188e-07 -1.06196e-06 -9.62174e-05
0.000715971 -2.47473e-05 -1.45911e-06
-2.47473e-05 6.99936e-05 3.22144e-06
-1.45911e-06 3.22144e-06 -1.01151e-05
0.000413366 -5.37367e-06 4.83577e-07
-5.37367e-06 -9.25114e-05 -6.35394e-07
4.83577e-07 -6.35394e-07 -0.000218021
0.00169062 -3.15632e-05 -2.0476e-08
-3.15632e-05 9.93526e-05 3.94274e-08
-2.0476e-08 3.94274e-08 -7.82738e-06
0.00176446 -9.12947e-05 -3.56131e-09
-9.12947e-05 0.000148116 -2.28317e-07
-3.56131e-09 -2.28317e-07 3.16694e-05
0.00170104 -6.56512e-05 1.66728e-06
-6.56512e-05 4.32274e-05 -4.13733e-07
1.66728e-06 -4.13733e-07 -4.45403e-05
0.00170903 -0.00016034 -1.44028e-06
-0.00016034 6.86796e-05 6.10097e-07
-1.44028e-06 6.10097e-07 -2.96212e-05
0.000969363 -0.000177141 -4.53122e-07
-0.000177141 0.000177785 1.00923e-06
-4.53122e-07 1.00923e-06 1.24733e-05
0.000896528 -0.000221124 1.42648e-06
-0.000221124 3.00512e-05 -2.15454e-06
1.42648e-06 -2.15454e-06 -0.000177898
0.00161185 -0.000324302 -8.0334e-08
-0.000324302 0.000269665 5.84001e-07
-8.0334e-08 5.84001e-07 3.2059e-05
0.00165265 -0.000219967 -1.47819e-06
-0.000219967 0.0001007 7.08524e-07
-1.47819e-06 7.08524e-07 -3.16946e-05
0.00177263 -0.000190983 2.11465e-06
-0.000190983 0.000107553 -1.09985e-06
2.11465e-06 -1.09985e-06 1.67255e-05
0.00168974 -0.00031932 -8.1433e-07
-0.00031932 0.000198753 9.50831e-07
-8.1433e-07 9.50831e-07 -5.07521e-06
0.00167135 -0.000269706 -4.006e-07
-0.000269706 0.000105895 1.0306e-06
-4.006e-07 1.0306e-06 -2.42911e-05
0.00181352 -0.000284242 3.1354e-06
-0.000284242 0.000197973 -4.80321e-06
3.1354e-06 -4.80321e-06 5.17487e-05
0.00100163 -0.000198839 3.86515e-07
-0.000198839 0.000202908 1.19635e-06
3.86515e-07 1.19635e-06 3.49841e-05
0.00119533 -0.000209574 2.45267e-06
-0.000209574 0.000328349 9.95979e-07
2.45267e-06 9.95979e-07 0.000163824
0.000817208 -0.000102317 -2.71296e-07
-0.000102317 0.000156807 -8.4171e-09
-2.71296e-07 -8.4171e-09 -4.67383e-06
0.000501501 1.44116e-07 -1.05082e-06
1.44116e-07 -5.438e-05 2.68495e-07
-1.05082e-06 2.68495e-07 -0.000126033
0.000460121 4.6035e-06 -2.82838e-07
4.6035e-06 -5.47099e-05 -7.17615e-07
-2.82838e-07 -7.17615e-07 -0.000173605
0.00176925 -4.26052e-05 2.60933e-07
-4.26052e-05 7.8821e-05 -6.23476e-07
2.60933e-07 -6.23476e-07 -3.36352e-06
0.00180887 -9.39761e-05 1.06439e-06
-9.39761e-05 9.4087e-05 4.11153e-07
1.06439e-06 4.11153e-07 1.06014e-05
0.00181731 -0.000187654 -3.38623e-07
-0.000187654 9.86985e-05 -8.86027e-07
-3.38623e-07 -8.86027e-07 1.98941e-05
0.00157638 -0.000218961 -7.17714e-07
-0.000218961 1.45738e-05 6.17916e-07
-7.17714e-07 6.17916e-07 -8.77409e-05
0.00104427 -0.000212084 -1.40624e-06
-0.000212084 0.00020896 -2.64443e-06
-1.40624e-06 -2.64443e-06 2.09719e-05
0.00218521 -0.000318679 -2.54966e-06
-0.000318679 0.000346813 1.25616e-06
-2.54966e-06 1.25616e-06 0.00022081
0.000656346 -0.000226423 1.65563e-06
-0.000226423 -0.000144637 -5.58824e-06
1.65563e-06 -5.58824e-06 -0.000370905
0.00173604 -0.000365356 3.43836e-06
-0.000365356 0.000292773 1.6184e-06
3.43836e-06 1.6184e-06 3.95532e-05
0.00156428 -0.000312144 1.87208e-06
-0.000312144 9.25418e-05 4.08655e-06
1.87208e-06 4.08655e-06 -0.000103866
0.00030777 1.4306e-05 6.57189e-07
1.4306e-05 -0.000167442 -3.45909e-06
6.57189e-07 -3.45909e-06 -0.000230794
0.000769308 -2.87209e-05 7.64643e-07
-2.87209e-05 0.000132503 -1.08722e-06
7.64643e-07 -1.08722e-06 2.11226e-05
0.000976915 -6.29674e-05 -8.35911e-07
-6.29674e-05 0.000243161 -3.6165e-08
-8.35911e-07 -3.6165e-08 0.000103109
0.0011165 -0.000216025 -4.28683e-06
-0.000216025 0.00025439 1.33733e-06
-4.28683e-06 1.33733e-06 8.43373e-05
0.000600182 -0.000118889 2.89204e-06
-0.000118889 2.26533e-05 2.78798e-06
2.89204e-06 2.78798e-06 -0.000153369
0.000550773 -0.000173065 -4.36819e-09
-0.000173065 -7.77276e-05 6.48085e-07
-4.36819e-09 6.48085e-07 -0.000236411
0.000570915 -4.98143e-05 -1.08237e-06
-4.98143e-05 -2.90104e-05 -4.38755e-06
-1.08237e-06 -4.38755e-06 -4.89727e-05
0.000594233 -3.23497e-05 -1.87108e-06
-3.23497e-05 -5.88875e-06 -2.26913e-06
-1.87108e-06 -2.26913e-06 -6.31664e-05
0.0016377 0.000213722 -9.38152e-07
0.000213722 0.000134688 -2.45063e-08
-9.38152e-07 -2.45063e-08 -2.49062e-05
0.000605371 -6.35692e-05 1.48725e-06
-6.35692e-05 3.37056e-05 -2.2618e-06
1.48725e-06 -2.2618e-06 -7.32237e-05
0.000769997 0.000120098 -1.00716e-06
0.000120098 9.66698e-05 -2.74049e-07
-1.00716e-06 -2.74049e-07 -5.36921e-05
0.000318945 5.62002e-05 1.43431e-06
5.62002e-05 -0.000142791 6.09135e-07
1.43431e-06 6.09135e-07 -0.00029024
0.0015182 0.000258063 -8.40946e-07
0.000258063 0.000169744 -1.95908e-07
-8.40946e-07 -1.95908e-07 -1.52736e-05
0.00160696 0.000275219 5.60146e-07
0.000275219 0.000116085 4.73963e-07
5.60146e-07 4.73963e-07 -5.44459e-05
0.000927496 0.00020465 3.59338e-07
0.00020465 0.000150818 -1.66092e-06
3.59338e-07 -1.66092e-06 -7.55319e-05
0.00141651 0.000272198 -1.84848e-06
0.000272198 0.000222043 -4.89147e-07
-1.84848e-06 -4.89147e-07 -2.31116e-07
0.00175945 0.000307736 -3.85554e-06
0.000307736 0.000300629 -8.07074e-07
-3.85554e-06 -8.07074e-07 0.000102423
0.000651426 -1.67733e-05 -2.64619e-07
-1.67733e-05 1.71151e-05 9.64757e-08
-2.64619e-07 9.64757e-08 -3.34883e-05
0.000708666 -1.39732e-05 -9.51459e-07
-1.39732e-05 8.15603e-05 3.61888e-07
-9.51459e-07 3.61888e-07 -8.74075e-06
0.00100909 0.000197407 -6.84925e-07
0.000197407 0.000231843 6.02539e-08
-6.84925e-07 6.02539e-08 4.8635e-05
0.000788471 1.48881e-05 2.45061e-07
1.48881e-05 0.000141125 -1.43646e-07
2.45061e-07 -1.43646e-07 1.13386e-05
0.000922983 0.000127872 7.34456e-07
0.000127872 0.000197667 5.44847e-07
7.34456e-07 5.44847e-07 3.55433e-05
0.00169011 0.000226864 -1.79144e-06
0.000226864 0.000128231 -1.30284e-06
-1.79144e-06 -1.30284e-06 -1.71634e-05
0.00165796 0.000309186 1.34651e-06
0.000309186 0.000190469 3.35517e-07
1.34651e-06 3.35517e-07 1.31961e-08
0.00165354 0.000302718 5.05264e-07
0.000302718 0.000110627 2.33585e-07
5.05264e-07 2.33585e-07 -5.54654e-05
0.000793257 0.000212475 7.89141e-08
0.000212475 2.71461e-05 3.08464e-06
7.89141e-08 3.08464e-06 -0.000211158
0.00158936 0.000315102 -1.60666e-06
0.000315102 0.000239851 -6.33845e-07
-1.60666e-06 -6.33845e-07 1.94931e-05
0.000775256 2.73952e-05 8.88315e-07
2.73952e-05 0.000109788 1.68005e-06
8.88315e-07 1.68005e-06 2.93358e-05
0.000501986 -1.479e-05 -1.2862e-06
-1.479e-05 -3.2105e-05 2.78675e-06
-1.2862e-06 2.78675e-06 -0.000138871
0.00103663 0.000211327 -2.97007e-06
0.000211327 0.000214003 -1.00497e-06
-2.97007e-06 -1.00497e-06 1.82639e-05
0.00079301 8.36228e-05 -3.44075e-06
8.36228e-05 0.000162986 -2.90735e-06
-3.44075e-06 -2.90735e-06 1.57112e-06
0.000845799 0.000186618 -9.07388e-07
0.000186618 0.00012663 -2.13633e-06
-9.07388e-07 -2.13633e-06 -4.20873e-05
0.00157026 0.000241038 2.07935e-07
0.000241038 -1.31385e-05 -2.44171e-06
2.07935e-07 -2.44171e-06 -0.000134384
0.00186336 0.000351191 2.99045e-06
0.000351191 0.000282738 -1.85049e-06
2.99045e-06 -1.85049e-06 8.11615e-05
0.00150944 0.00031015 3.08588e-06
0.00031015 1.62294e-05 2.58113e-07
3.08588e-06 2.58113e-07 -0.000151861
0.00172974 0.000302464 4.0415e-06
0.000302464 0.000491542 7.23461e-06
4.0415e-06 7.23461e-06 0.000234027
0.0017001 0.00034476 -4.74152e-07
0.00034476 0.000287106 -9.97206e-07
-4.74152e-07 -9.97206e-07 5.78484e-05
0.000639466 -2.66112e-05 -1.38411e-06
-2.66112e-05 7.87483e-06 -2.27445e-06
-1.38411e-06 -2.27445e-06 -4.08497e-05
0.000641449 1.83819e-05 8.12275e-07
1.83819e-05 2.47039e-05 3.66948e-07
8.12275e-07 3.66948e-07 -4.95504e-05
0.000564178 -7.03163e-06 -1.96952e-07
-7.03163e-06 -1.45344e-05 8.77408e-07
-1.96952e-07 8.77408e-07 -9.77993e-05
0.000484214 -3.35278e-05 -7.32389e-07
-3.35278e-05 -6.55363e-05 -1.1776e-06
-7.32389e-07 -1.1776e-06 -0.000138375
0.000686469 2.57778e-05 -1.93973e-07
2.57778e-05 5.71576e-05 3.51606e-08
-1.93973e-07 3.51606e-08 -1.7397e-05
0.000711077 3.26281e-05 -1.84989e-07
3.26281e-05 7.22378e-05 -3.56969e-07
-1.84989e-07 -3.56969e-07 -1.20689e-05
0.000835906 6.15199e-05 -8.42212e-07
6.15199e-05 0.000154096 -1.09286e-06
-8.42212e-07 -1.09286e-06 5.9856e-05
0.000576484 -2.02836e-05 6.75832e-07
-2.02836e-05 5.0158e-06 4.92296e-07
6.75832e-07 4.92296e-07 -8.77539e-05
0.000708633 4.56126e-05 8.25151e-07
4.56126e-05 6.67177e-05 1.30744e-06
8.25151e-07 1.30744e-06 -4.83452e-06
0.000657454 2.31924e-05 1.71512e-06
2.31924e-05 2.22279e-05 2.22004e-06
1.71512e-06 2.22004e-06 -2.48591e-05
0.000654517 -4.96839e-06 -8.64072e-07
-4.96839e-06 1.69967e-05 1.6124e-08
-8.64072e-07 1.6124e-08 -2.93567e-05
0.00126153 -2.84534e-05 8.35712e-07
-2.84534e-05 0.000356241 2.40644e-06
8.35712e-07 2.40644e-06 0.000347165
0.000634539 -3.81222e-05 -4.29359e-07
-3.81222e-05 5.27174e-06 -2.1659e-06
-4.29359e-07 -2.1659e-06 -4.20346e-05
0.00129605 -3.69452e-05 -4.39279e-06
-3.69452e-05 0.000379108 -1.41608e-06
-4.39279e-06 -1.41608e-06 0.000369293
0.000882468 -3.14007e-05 1.87502e-05
-3.14007e-05 0.0001434 7.63205e-06
1.87502e-05 7.63205e-06 0.000150753
0.00132459 -4.5942e-05 -8.29863e-06
-4.5942e-05 0.000400039 -5.31158e-06
-8.29863e-06 -5.31158e-06 0.000388851
0.000822877 -3.9149e-05 7.0035e-06
-3.9149e-05 0.000113963 2.85325e-06
7.0035e-06 2.85325e-06 0.000119498
0.00220002 -8.24046e-05 -5.19833e-06
-8.24046e-05 0.00093347 -1.84199e-06
-5.19833e-06 -1.84199e-06 0.000941971
0.000542817 4.26006e-05 -7.40351e-08
4.26006e-05 -4.44335e-05 -3.98998e-06
-7.40351e-08 -3.98998e-06 -6.43863e-05
0.000538681 4.74986e-05 -1.27872e-07
4.74986e-05 -3.69656e-05 9.49837e-08
-1.27872e-07 9.49837e-08 -6.37416e-05
0.00248107 9.33034e-05 2.81054e-05
9.33034e-05 0.001108 -3.6484e-06
2.81054e-05 -3.6484e-06 0.00111269
0.000585828 2.32703e-05 -3.02925e-06
2.32703e-05 -7.62378e-06 5.91151e-06
-3.02925e-06 5.91151e-06 -3.78316e-05
0.00276522 0.00010783 -6.17161e-06
0.00010783 0.00128048 -4.01528e-07
-6.17161e-06 -4.01528e-07 0.00128158
0.00312008 9.98667e-05 -8.00336e-05
9.98667e-05 0.00149012 3.80164e-06
-8.00336e-05 3.80164e-06 0.00149285
0.00164717 0.000174535 -1.32731e-06
0.000174535 0.00011372 7.50495e-07
-1.32731e-06 7.50495e-07 -2.98927e-05
0.00173606 0.000112725 1.26492e-06
0.000112725 0.000117503 1.02265e-06
1.26492e-06 1.02265e-06 -2.22491e-06
0.00175125 0.000161519 2.24179e-06
0.000161519 8.24101e-05 2.34631e-06
2.24179e-06 2.34631e-06 -1.80185e-05
0.00178422 7.9081e-05 2.98495e-06
7.9081e-05 6.73842e-05 7.45847e-07
2.98495e-06 7.45847e-07 -1.35681e-05
0.00173941 2.62992e-05 -6.23655e-07
2.62992e-05 0.000108969 1.55266e-07
-6.23655e-07 1.55266e-07 5.35586e-06
0.00139552 1.32759e-05 -3.01326e-06
1.32759e-05 5.07119e-05 7.94272e-08
-3.01326e-06 7.94272e-08 -7.35434e-05
0.00170333 2.68341e-06 -1.03156e-06
2.68341e-06 9.8917e-05 -2.88642e-08
-1.03156e-06 -2.88642e-08 -6.22614e-06
0.00175042 3.72326e-05 1.16415e-06
3.72326e-05 6.56756e-05 -1.27579e-08
1.16415e-06 -1.27579e-08 -1.96305e-05
0.00183122 0.000126693 -1.41893e-06
0.000126693 0.000106595 -4.58366e-07
-1.41893e-06 -4.58366e-07 1.53859e-05
0.00182775 8.429e-05 2.36662e-06
8.429e-05 7.79728e-05 5.12829e-07
2.36662e-06 5.12829e-07 1.5152e-05
0.00169106 0.000176806 -7.3314e-07
0.000176806 9.6204e-05 -2.44762e-07
-7.3314e-07 -2.44762e-07 -2.40395e-05
0.00179874 0.000176475 3.45581e-06
0.000176475 7.29888e-05 1.32511e-06
3.45581e-06 1.32511e-06 -9.38158e-06
0.00174151 -6.51413e-06 -1.02422e-06
-6.51413e-06 7.91093e-05 -1.30978e-07
-1.02422e-06 -1.30978e-07 -5.78025e-06
0.00176125 4.0671e-05 2.82168e-06
4.0671e-05 3.41224e-05 2.48117e-07
2.82168e-06 2.48117e-07 -2.10545e-05
0.00184096 0.000128542 1.89113e-06
0.000128542 7.58177e-05 -1.55739e-07
1.89113e-06 -1.55739e-07 8.8396e-06
0.00186336 0.000215407 4.88425e-07
0.000215407 0.000122031 -1.29509e-06
4.88425e-07 -1.29509e-06 2.98965e-05
0.00168627 -3.13459e-05 6.29686e-07
-3.13459e-05 9.77332e-05 1.42103e-07
6.29686e-07 1.42103e-07 -9.56649e-06
0.0016879 -9.24026e-05 1.37112e-06
-9.24026e-05 0.000104702 -1.14082e-06
1.37112e-06 -1.14082e-06 -1.37867e-05
0.0017858 -6.60532e-05 3.50866e-06
-6.60532e-05 9.27097e-05 -9.48036e-07
3.50866e-06 -9.48036e-07 7.87936e-06
0.00166479 -0.000156892 -1.51894e-08
-0.000156892 5.04076e-05 -1.12279e-07
-1.51894e-08 -1.12279e-07 -4.98275e-05
0.00111998 -0.000190055 -1.41375e-06
-0.000190055 0.000265863 3.72611e-06
-1.41375e-06 3.72611e-06 9.74721e-05
0.000963218 -0.000224555 -1.51103e-07
-0.000224555 6.84744e-05 1.63584e-06
-1.51103e-07 1.63584e-06 -0.000137244
0.00158133 -0.000322035 -3.58338e-06
-0.000322035 0.000251385 1.14298e-06
-3.58338e-06 1.14298e-06 1.16316e-05
0.00160055 -0.00021714 3.15916e-07
-0.00021714 7.57081e-05 -6.0209e-07
3.15916e-07 -6.0209e-07 -6.00279e-05
0.00166552 -0.000189615 3.64276e-06
-0.000189615 4.15046e-05 -2.37543e-06
3.64276e-06 -2.37543e-06 -4.57989e-05
0.00172698 -0.000272369 3.11459e-06
-0.000272369 0.000137465 -7.91951e-07
3.11459e-06 -7.91951e-07 6.97594e-06
0.00170156 -0.000321361 -1.77849e-06
-0.000321361 0.000206845 -2.94015e-06
-1.77849e-06 -2.94015e-06 1.93946e-06
0.00170369 -0.000278687 2.18124e-06
-0.000278687 0.000125568 -1.07805e-05
2.18124e-06 -1.07805e-05 -1.67062e-05
0.00120478 -0.000217049 1.7616e-06
-0.000217049 0.000320516 9.20873e-07
1.7616e-06 9.20873e-07 0.000149103
0.00104548 -0.000196454 2.22575e-06
-0.000196454 0.000232877 -2.86644e-06
2.22575e-06 -2.86644e-06 7.36174e-05
0.000733406 -8.16765e-05 8.49147e-07
-8.16765e-05 0.000104386 -1.30875e-06
8.49147e-07 -1.30875e-06 -5.62973e-05
0.000395454 1.30656e-05 -1.42684e-06
1.30656e-05 -0.000115402 2.7503e-06
-1.42684e-06 2.7503e-06 -0.000188958
0.000428581 3.13152e-05 1.00348e-06
3.13152e-05 -7.47194e-05 2.91008e-07
1.00348e-06 2.91008e-07 -0.000190389
0.00183513 -4.68682e-05 2.78567e-07
-4.68682e-05 0.000119534 -1.32334e-07
2.78567e-07 -1.32334e-07 3.70226e-05
0.00182921 -9.80248e-05 1.05443e-06
-9.80248e-05 0.000103843 -6.2259e-07
1.05443e-06 -6.2259e-07 1.91939e-05
0.00179224 -0.000182872 -1.93177e-06
-0.000182872 8.7783e-05 1.64999e-07
-1.93177e-06 1.64999e-07 7.51304e-06
0.00110282 -0.00021575 -5.60402e-07
-0.00021575 0.000240258 9.78884e-07
-5.60402e-07 9.78884e-07 5.17951e-05
0.00111638 -0.000260742 1.45665e-06
-0.000260742 0.000113351 -2.7948e-06
1.45665e-06 -2.7948e-06 -0.000114357
0.00165501 -0.000362314 -3.00037e-07
-0.000362314 0.000250536 7.65292e-07
-3.00037e-07 7.65292e-07 -5.94196e-06
0.0016069 -0.00021997 3.58221e-07
-0.00021997 2.79091e-05 -2.75246e-07
3.58221e-07 -2.75246e-07 -7.47862e-05
0.00165325 -0.000313762 7.97261e-07
-0.000313762 0.000145629 -2.44009e-06
7.97261e-07 -2.44009e-06 -4.48565e-05
0.00184537 -0.000298849 -4.92671e-07
-0.000298849 0.000163365 -1.09694e-06
-4.92671e-07 -1.09694e-06 3.74286e-05
0.000339984 2.77106e-05 -1.0835e-08
2.77106e-05 -0.000151981 -8.27369e-07
-1.0835e-08 -8.27369e-07 -0.000212514
0.00114445 -0.000217114 -1.94503e-07
-0.000217114 0.000263092 1.00021e-06
-1.94503e-07 1.00021e-06 9.37426e-05
0.000660907 -0.000179589 -3.64536e-07
-0.000179589 -4.58669e-06 3.74293e-07
-3.64536e-07 3.74293e-07 -0.000157881
0.000936122 -0.000146544 -5.78189e-07
-0.000146544 0.000219572 2.6031e-07
-5.78189e-07 2.6031e-07 3.68966e-05
0.00103378 -6.47281e-05 -7.5605e-09
-6.47281e-05 0.000276686 -3.27749e-07
-7.5605e-09 -3.27749e-07 0.000136806
0.000643406 4.5979e-06 -3.7064e-07
4.5979e-06 5.36698e-05 4.01461e-07
-3.7064e-07 4.01461e-07 -5.50366e-05
0.00155305 -5.10247e-05 7.96771e-08
-5.10247e-05 -7.10152e-05 1.30828e-07
7.96771e-08 1.30828e-07 -0.000140895
0.00198695 -0.000138224 1.76267e-06
-0.000138224 0.000130163 -2.16881e-07
1.76267e-06 -2.16881e-07 7.23285e-05
0.00156796 -0.000209826 1.13991e-06
-0.000209826 -5.56749e-05 -6.04462e-07
1.13991e-06 -6.04462e-07 -0.00013215
0.00198762 -0.000277084 -7.17331e-07
-0.000277084 0.000165872 -1.19825e-06
-7.17331e-07 -1.19825e-06 6.86921e-05
0.00112808 -0.000233277 -3.11643e-06
-0.000233277 0.00022084 -2.73287e-06
-3.11643e-06 -2.73287e-06 2.31259e-05
0.00183669 -0.000333482 2.12367e-06
-0.000333482 0.000179206 4.37511e-06
2.12367e-06 4.37511e-06 2.11537e-05
0.00122217 -0.000312352 -1.57836e-07
-0.000312352 0.000115636 -1.9156e-06
-1.57836e-07 -1.9156e-06 -0.000156259
0.00168768 -0.000378592 -2.31922e-07
-0.000378592 0.000257598 3.35693e-06
-2.31922e-07 3.35693e-06 -1.10002e-05
0.000329623 4.70527e-05 -1.40363e-06
4.70527e-05 -0.00016258 -2.49193e-06
-1.40363e-06 -2.49193e-06 -0.000214428
0.000761849 -4.21042e-06 3.7219e-07
-4.21042e-06 0.000119675 -9.91556e-07
3.7219e-07 -9.91556e-07 2.4395e-05
0.000966778 -9.09939e-05 -1.02844e-06
-9.09939e-05 0.000243745 1.23961e-06
-1.02844e-06 1.23961e-06 0.00011584
0.000897924 -2.06489e-05 -1.82912e-06
-2.06489e-05 0.000200952 1.31931e-06
-1.82912e-06 1.31931e-06 3.12052e-05
0.000701708 -0.000196968 -1.96833e-06
-0.000196968 -1.67653e-05 -1.42083e-06
-1.96833e-06 -1.42083e-06 -0.000184527
0.000950714 -0.000203891 -5.25607e-06
-0.000203891 0.000173471 1.71248e-06
-5.25607e-06 1.71248e-06 -9.50931e-06
0.000623824 -2.50031e-05 -2.08543e-06
-2.50031e-05 1.85572e-06 -2.19006e-06
-2.08543e-06 -2.19006e-06 -4.8876e-05
0.000625018 -5.16762e-05 1.39049e-07
-5.16762e-05 3.03352e-05 -1.57127e-06
1.39049e-07 -1.57127e-06 -5.61696e-05
0.00168077 0.000229463 -1.80275e-06
0.000229463 0.000121459 -1.27782e-07
-1.80275e-06 -1.27782e-07 -2.51665e-05
0.000490713 -2.0853e-05 6.80877e-07
-2.0853e-05 -3.51599e-05 -1.16355e-06
6.80877e-07 -1.16355e-06 -0.000158262
0.00101421 0.000197785 1.12851e-06
0.000197785 0.000235919 -1.00979e-06
1.12851e-06 -1.00979e-06 5.28433e-05
0.00027968 6.79887e-05 2.23263e-06
6.79887e-05 -0.000181392 1.18883e-06
2.23263e-06 1.18883e-06 -0.000331258
0.00164397 0.000307665 -3.70407e-07
0.000307665 0.000177917 2.6586e-07
-3.70407e-07 2.6586e-07 -1.26285e-05
0.00181675 0.000308994 -2.08186e-06
0.000308994 0.000202977 1.19926e-06
-2.08186e-06 1.19926e-06 3.75345e-05
0.000752941 0.000212571 -1.62514e-06
0.000212571 -3.05855e-06 8.19079e-07
-1.62514e-06 8.19079e-07 -0.000240042
0.00173872 0.000326938 -2.59372e-06
0.000326938 0.000333011 1.0087e-06
-2.59372e-06 1.0087e-06 0.000108015
0.000702266 3.80404e-06 -7.81913e-07
3.80404e-06 6.48641e-05 1.81027e-07
-7.81913e-07 1.81027e-07 -1.28079e-05
0.000654779 6.97093e-06 4.73243e-07
6.97093e-06 5.57111e-05 1.21413e-06
4.73243e-07 1.21413e-06 -5.2202e-05
0.00123011 0.000228149 -6.59211e-07
0.000228149 0.000335882 -2.71071e-06
-6.59211e-07 -2.71071e-06 0.000135041
0.000570957 1.54348e-05 -7.04844e-07
1.54348e-05 1.32843e-05 -2.66023e-07
-7.04844e-07 -2.66023e-07 -0.000130447
0.00066069 0.000153565 -1.64223e-06
0.000153565 1.29398e-05 -7.31941e-07
-1.64223e-06 -7.31941e-07 -0.000137882
0.00184918 0.000251951 -2.60069e-06
0.000251951 0.000146487 -1.3299e-06
-2.60069e-06 -1.3299e-06 2.732e-05
0.00193099 0.000351795 1.46073e-06
0.000351795 0.000324097 -2.37124e-07
1.46073e-06 -2.37124e-07 0.000124251
0.0016714 0.000327252 1.5334e-06
0.000327252 0.00010088 1.95897e-06
1.5334e-06 1.95897e-06 -6.94084e-05
0.00135273 0.000274056 3.16073e-06
0.000274056 0.000285854 4.31196e-06
3.16073e-06 4.31196e-06 2.39232e-05
0.00159907 0.000341161 -3.0325e-06
0.000341161 0.000227199 5.10202e-07
-3.0325e-06 5.10202e-07 -4.63053e-06
0.000443552 -2.50696e-05 -5.66784e-07
-2.50696e-05 -7.40406e-05 2.32523e-06
-5.66784e-07 2.32523e-06 -0.000163491
0.00032521 7.16811e-05 1.73204e-08
7.16811e-05 -0.000108878 1.09142e-06
1.73204e-08 1.09142e-06 -0.000247044
0.00125055 0.000238127 1.84482e-06
0.000238127 0.000308066 3.34598e-06
1.84482e-06 3.34598e-06 9.13443e-05
-0.000500894 5.54772e-05 3.0725e-06
5.54772e-05 -0.00062397 -2.15253e-07
3.0725e-06 -2.15253e-07 -0.000783722
0.00188168 0.000262753 -2.821e-06
0.000262753 2.79725e-05 -9.59439e-07
-2.821e-06 -9.59439e-07 -4.52931e-05
0.00212357 0.000311708 4.6612e-07
0.000311708 0.000298728 -1.02768e-07
4.6612e-07 -1.02768e-07 0.000162245
0.00178738 0.000380595 -1.73074e-06
0.000380595 0.000232153 -3.34165e-06
-1.73074e-06 -3.34165e-06 1.59487e-05
0.000103957 0.000196833 -5.02909e-07
0.000196833 -0.000494435 1.68172e-06
-5.02909e-07 1.68172e-06 -0.000755079
0.000701207 4.41143e-05 -8.91879e-07
4.41143e-05 6.44844e-05 -5.95612e-07
-8.91879e-07 -5.95612e-07 -1.26974e-05
0.000644115 2.32476e-05 -8.0129e-08
2.32476e-05 3.74158e-05 4.38914e-07
-8.0129e-08 4.38914e-07 -4.94789e-05
0.000890507 1.04368e-05 -1.32856e-06
1.04368e-05 0.000181369 -9.87563e-07
-1.32856e-06 -9.87563e-07 9.50815e-05
0.00067251 -7.16653e-06 -1.39219e-06
-7.16653e-06 4.22646e-05 -1.15444e-06
-1.39219e-06 -1.15444e-06 -2.71237e-05
0.000501324 -1.44803e-05 -1.68008e-07
-1.44803e-05 -4.72719e-05 -8.14232e-07
-1.68008e-07 -8.14232e-07 -0.000131868
0.000692831 1.62327e-05 2.35749e-08
1.62327e-05 5.93535e-05 -3.50724e-09
2.35749e-08 -3.50724e-09 -1.32424e-05
0.000676082 6.08338e-05 -5.37537e-07
6.08338e-05 7.03879e-05 -3.54048e-07
-5.37537e-07 -3.54048e-07 -2.80048e-05
0.000647569 1.12697e-05 6.26596e-07
1.12697e-05 4.87753e-05 3.96418e-07
6.26596e-07 3.96418e-07 -4.53348e-05
0.000760495 3.15996e-05 7.68607e-07
3.15996e-05 0.00010811 -3.32564e-07
7.68607e-07 -3.32564e-07 1.65366e-05
0.000731938 -2.90024e-05 1.04143e-06
-2.90024e-05 9.72876e-05 -6.00642e-07
1.04143e-06 -6.00642e-07 -3.35119e-06
0.000567751 3.53326e-05 5.59754e-07
3.53326e-05 -7.48645e-07 1.25812e-06
5.59754e-07 1.25812e-06 -9.54911e-05
0.00068025 5.78132e-05 1.0869e-06
5.78132e-05 5.47208e-05 1.66486e-06
1.0869e-06 1.66486e-06 -2.00849e-05
0.000619162 3.3386e-05 1.23007e-06
3.3386e-05 5.23362e-06 2.05914e-06
1.23007e-06 2.05914e-06 -4.37374e-05
0.000632922 -4.24923e-06 -7.49572e-07
-4.24923e-06 8.73993e-06 1.57715e-08
-7.49572e-07 1.57715e-08 -3.88826e-05
0.00127006 -1.76632e-05 6.55104e-07
-1.76632e-05 0.00035995 2.34641e-06
6.55104e-07 2.34641e-06 0.00035125
0.000633418 -3.46836e-05 -1.7553e-07
-3.46836e-05 6.00227e-06 -2.20338e-06
-1.7553e-07 -2.20338e-06 -4.11414e-05
0.00130261 -2.57481e-05 -3.66433e-06
-2.57481e-05 0.000380434 -1.48291e-06
-3.66433e-06 -1.48291e-06 0.000371412
0.000885882 -2.39368e-05 1.56706e-05
-2.39368e-05 0.000141093 7.93825e-06
1.56706e-05 7.93825e-06 0.000149361
0.00133231 -3.47734e-05 -6.88795e-06
-3.47734e-05 0.000400302 -5.32709e-06
-6.88795e-06 -5.32709e-06 0.00039052
0.000829681 -3.17996e-05 5.66676e-06
-3.17996e-05 0.00011184 2.96158e-06
5.66676e-06 2.96158e-06 0.000118998
0.000766654 -3.82576e-05 -1.51699e-06
-3.82576e-05 8.06988e-05 -2.05567e-06
-1.51699e-06 -2.05567e-06 8.62563e-05
0.000562892 3.54581e-05 3.96795e-07
3.54581e-05 -4.29504e-05 -3.50006e-06
3.96795e-07 -3.50006e-06 -5.75037e-05
0.000558501 4.68988e-05 -5.57533e-08
4.68988e-05 -3.41901e-05 1.13627e-07
-5.57533e-08 1.13627e-07 -5.50615e-05
0.00228523 7.78481e-05 2.24101e-05
7.78481e-05 0.000985442 -3.81535e-06
2.24101e-05 -3.81535e-06 0.00099422
0.000565728 3.87202e-05 -1.92496e-06
3.87202e-05 -2.25452e-05 5.14207e-06
-1.92496e-06 5.14207e-06 -4.84733e-05
0.00254633 9.45684e-05 -5.30589e-06
9.45684e-05 0.00114636 -3.58308e-07
-5.30589e-06 -3.58308e-07 0.00115077
0.00284315 9.61524e-05 -5.99714e-05
9.61524e-05 0.00132422 3.36244e-06
-5.99714e-05 3.36244e-06 0.00132815
0.00170576 0.000175543 7.16609e-07
0.000175543 0.000111472 2.27104e-06
7.16609e-07 2.27104e-06 -8.77704e-06
0.00179972 0.000124877 1.14203e-07
0.000124877 8.9224e-05 4.80364e-07
1.14203e-07 4.80364e-07 -3.29913e-06
0.00176576 0.000178278 3.71156e-06
0.000178278 5.26973e-05 1.99083e-06
3.71156e-06 1.99083e-06 -2.63145e-05
0.00173154 8.23966e-05 2.04041e-06
8.23966e-05 2.14591e-05 8.76854e-07
2.04041e-06 8.76854e-07 -3.82496e-05
0.00182289 3.49122e-05 2.84286e-06
3.49122e-05 0.000110238 -1.07209e-07
2.84286e-06 -1.07209e-07 2.28815e-05
0.00169492 1.4938e-06 -6.90568e-07
1.4938e-06 9.33676e-05 -1.16749e-08
-6.90568e-07 -1.16749e-08 -1.33573e-05
0.00180002 -2.91151e-06 -2.41975e-07
-2.91151e-06 0.000113357 -2.75368e-08
-2.41975e-07 -2.75368e-08 2.90738e-05
0.00176061 4.06502e-05 1.8481e-06
4.06502e-05 4.5648e-05 -1.13821e-07
1.8481e-06 -1.13821e-07 -1.17479e-05
0.00182479 0.00013254 4.06528e-07
0.00013254 6.39239e-05 -4.88233e-07
4.06528e-07 -4.88233e-07 -3.20265e-06
0.00191085 0.000212611 1.89753e-07
0.000212611 0.000137053 2.13077e-07
1.89753e-07 2.13077e-07 4.70196e-05
0.00168715 -7.72383e-06 -9.95708e-07
-7.72383e-06 1.09428e-05 -2.48338e-07
-9.95708e-07 -2.48338e-07 -5.02757e-05
0.00192072 8.69585e-05 3.07997e-06
8.69585e-05 6.4162e-05 2.13413e-07
3.07997e-06 2.13413e-07 2.78684e-05
0.0018616 0.000193409 1.92781e-06
0.000193409 3.49632e-05 -3.2752e-07
1.92781e-06 -3.2752e-07 -3.27162e-05
0.00189963 -5.10407e-05 1.75513e-06
-5.10407e-05 0.000159281 4.09021e-07
1.75513e-06 4.09021e-07 7.64538e-05
0.00184446 -0.000101824 6.10916e-07
-0.000101824 0.000110885 -7.33686e-07
6.10916e-07 -7.33686e-07 2.50763e-05
0.00176444 -0.00017755 -1.32887e-06
-0.00017755 7.6151e-05 2.5985e-07
-1.32887e-06 2.5985e-07 -5.6084e-06
0.0011708 -0.00022023 9.36283e-08
-0.00022023 0.000276845 4.48896e-06
9.36283e-08 4.48896e-06 8.7798e-05
0.00162749 -0.000299069 -1.75879e-06
-0.000299069 0.000399503 1.49161e-06
-1.75879e-06 1.49161e-06 0.000170322
0.00157291 -0.000360126 -3.29622e-06
-0.000360126 0.000207236 -7.90526e-08
-3.29622e-06 -7.90526e-08 -5.15329e-05
0.00163393 -0.000220826 4.18042e-07
-0.000220826 3.93869e-05 -5.65317e-07
4.18042e-07 -5.65317e-07 -6.36251e-05
0.00151176 -0.000281539 -3.1414e-07
-0.000281539 -1.94964e-05 -3.04423e-06
-3.1414e-07 -3.04423e-06 -0.000145825
0.00172299 -0.000314996 -2.23666e-06
-0.000314996 0.000185653 -8.22641e-06
-2.23666e-06 -8.22641e-06 9.55553e-07
0.00117085 -0.00021824 2.46918e-06
-0.00021824 0.000271344 1.78709e-06
2.46918e-06 1.78709e-06 0.000102589
0.000695148 -0.000179009 -6.81734e-06
-0.000179009 2.53961e-05 4.36083e-09
-6.81734e-06 4.36083e-09 -0.000121484
0.00138318 -0.000179225 3.22254e-07
-0.000179225 0.000487751 2.71359e-07
3.22254e-07 2.71359e-07 0.000293138
0.000388364 1.83425e-05 8.30451e-08
1.83425e-05 -0.000124105 1.07997e-06
8.30451e-08 1.07997e-06 -0.000183821
0.000909423 -6.44735e-05 1.13916e-06
-6.44735e-05 0.000201058 1.89506e-07
1.13916e-06 1.89506e-07 6.59523e-05
0.000522231 3.44416e-05 1.72467e-06
3.44416e-05 -2.31165e-05 1.62903e-06
1.72467e-06 1.62903e-06 -0.000128871
0.00171508 -5.19982e-05 -6.94967e-07
-5.19982e-05 2.07858e-05 1.18392e-07
-6.94967e-07 1.18392e-07 -4.88091e-05
0.00195238 -0.000142139 1.61291e-07
-0.000142139 0.000112726 -7.98366e-08
1.61291e-07 -7.98366e-08 5.14012e-05
0.00168412 -0.000212054 -1.71479e-07
-0.000212054 1.25573e-05 4.81942e-07
-1.71479e-07 4.81942e-07 -6.42867e-05
0.00118192 -0.000235213 -3.52513e-07
-0.000235213 0.000248621 1.53034e-06
-3.52513e-07 1.53034e-06 5.09243e-05
0.00110044 -0.000298075 -1.30323e-06
-0.000298075 4.928e-05 -1.03872e-07
-1.30323e-06 -1.03872e-07 -0.000213238
0.00167837 -0.000374625 -3.33408e-06
-0.000374625 0.00025527 5.58865e-08
-3.33408e-06 5.58865e-08 -6.14599e-06
0.00194884 -0.000281071 9.89795e-07
-0.000281071 0.000146187 -5.63628e-07
9.89795e-07 -5.63628e-07 4.70314e-05
0.00169212 -0.000327843 1.11619e-06
-0.000327843 8.96045e-05 -2.23571e-06
1.11619e-06 -2.23571e-06 -6.84445e-05
0.00048599 3.69877e-05 -6.8027e-08
3.69877e-05 -7.37631e-05 -8.69616e-07
-6.8027e-08 -8.69616e-07 -0.00012215
0.000770545 -8.43362e-06 -5.30763e-07
-8.43362e-06 0.000123988 3.0917e-07
-5.30763e-07 3.0917e-07 2.9141e-05
0.00035776 -0.000165684 -2.90009e-06
-0.000165684 -0.000211203 2.76195e-06
-2.90009e-06 2.76195e-06 -0.000371396
0.00138111 -0.00022599 1.69285e-07
-0.00022599 0.000433791 -2.78859e-07
1.69285e-07 -2.78859e-07 0.000252112
0.000930522 -5.57515e-05 -1.59823e-07
-5.57515e-05 0.000226516 -3.64312e-07
-1.59823e-07 -3.64312e-07 5.69712e-05
0.000857483 -6.6387e-05 -4.25681e-07
-6.6387e-05 0.000180342 1.31781e-06
-4.25681e-07 1.31781e-06 5.20964e-05
0.00190642 -7.66944e-05 2.88706e-06
-7.66944e-05 6.32452e-05 1.20676e-07
2.88706e-06 1.20676e-07 1.99577e-05
0.00191525 -0.00020046 8.2027e-07
-0.00020046 4.56928e-05 -1.11665e-06
8.2027e-07 -1.11665e-06 1.15062e-05
0.00185044 -0.000234691 8.40024e-07
-0.000234691 6.53128e-05 -9.91632e-07
8.40024e-07 -9.91632e-07 -2.72854e-06
0.0019612 -0.000372328 5.78941e-06
-0.000372328 0.000124288 -1.36477e-06
5.78941e-06 -1.36477e-06 5.7925e-08
0.000188378 -0.000177435 -3.89247e-06
-0.000177435 -0.000351517 -3.81094e-06
-3.89247e-06 -3.81094e-06 -0.000559251
0.00165074 -0.00037903 -8.52879e-07
-0.00037903 0.000206332 1.13649e-05
-8.52879e-07 1.13649e-05 -3.82378e-05
0.00206404 -0.000414663 1.19955e-06
-0.000414663 0.00056364 -3.46069e-06
1.19955e-06 -3.46069e-06 0.00025591
0.000650449 3.74917e-05 3.52555e-07
3.74917e-05 1.46545e-05 -1.55545e-06
3.52555e-07 -1.55545e-06 -2.64783e-05
0.000704183 -9.54165e-05 2.36505e-06
-9.54165e-05 8.12958e-05 -1.88778e-06
2.36505e-06 -1.88778e-06 3.66326e-06
0.000482914 3.41949e-05 -1.22401e-06
3.41949e-05 -4.72719e-05 -1.47071e-06
-1.22401e-06 -1.47071e-06 -0.000131823
0.000739468 -4.0168e-05 -8.11378e-08
-4.0168e-05 0.000122759 1.58181e-06
-8.11378e-08 1.58181e-06 3.10573e-06
0.000634617 -1.45748e-05 1.21463e-06
-1.45748e-05 4.47017e-05 -1.31708e-06
1.21463e-06 -1.31708e-06 -8.88409e-05
0.000188451 -0.000101047 5.93188e-07
-0.000101047 -0.000189475 7.34937e-07
5.93188e-07 7.34937e-07 -0.000356347
0.000128361 -0.000159566 -1.14691e-06
-0.000159566 -0.000382054 -2.35863e-06
-1.14691e-06 -2.35863e-06 -0.000533779
0.00250702 -0.000324657 -9.26542e-06
-0.000324657 0.00113863 2.23519e-06
-9.26542e-06 2.23519e-06 0.000884964
0.000662213 -1.62012e-05 -1.09724e-06
-1.62012e-05 3.67864e-05 -9.41593e-07
-1.09724e-06 -9.41593e-07 -3.64693e-05
0.000821792 1.23698e-05 3.58233e-07
1.23698e-05 0.00015567 -1.01556e-06
3.58233e-07 -1.01556e-06 4.40191e-05
0.00212937 0.000262062 -1.27609e-06
0.000262062 0.000308354 9.61135e-08
-1.27609e-06 9.61135e-08 0.000191419
0.000745085 5.03981e-05 -8.96763e-07
5.03981e-05 0.000122623 1.54393e-06
-8.96763e-07 1.54393e-06 -3.04833e-05
0.00143383 0.00024675 1.10698e-06
0.00024675 0.000465598 -2.85619e-06
1.10698e-06 -2.85619e-06 0.000257439
0.000445863 0.000118904 3.76059e-08
0.000118904 -0.000114667 1.02939e-06
3.76059e-08 1.02939e-06 -0.000248562
0.00195825 0.000348693 -2.25839e-06
0.000348693 0.000343943 3.47732e-07
-2.25839e-06 3.47732e-07 0.000146503
0.00182083 0.000343253 -2.12248e-06
0.000343253 0.000178385 3.82849e-06
-2.12248e-06 3.82849e-06 6.19345e-06
0.000955101 0.00024574 -4.8559e-07
0.00024574 6.64592e-05 -6.1765e-07
-4.8559e-07 -6.1765e-07 -0.000199668
0.00150067 0.000338341 -2.45776e-06
0.000338341 0.000166419 2.71302e-06
-2.45776e-06 2.71302e-06 -6.75486e-05
0.000486596 -1.42609e-06 -1.15062e-07
-1.42609e-06 -4.14162e-05 1.04282e-06
-1.15062e-07 1.04282e-06 -0.000137273
0.000393457 8.11502e-05 -5.79319e-07
8.11502e-05 -6.89995e-05 -1.94996e-06
-5.79319e-07 -1.94996e-06 -0.000209994
0.00121991 0.000237426 2.34171e-06
0.000237426 0.000301919 -2.15203e-06
2.34171e-06 -2.15203e-06 8.04785e-05
0.000613478 0.000137286 -1.21529e-06
0.000137286 1.289e-05 -2.7845e-06
-1.21529e-06 -2.7845e-06 -0.000154369
0.0019763 0.000260182 9.03804e-07
0.000260182 7.83521e-05 -1.10173e-06
9.03804e-07 -1.10173e-06 7.44593e-06
0.00202759 0.000313721 2.93978e-06
0.000313721 0.000248542 7.75718e-07
2.93978e-06 7.75718e-07 0.000107535
0.00178976 0.000374222 -1.24309e-06
0.000374222 0.000227529 -2.867e-09
-1.24309e-06 -2.867e-09 1.40694e-05
0.00102437 0.000276759 5.24113e-07
0.000276759 8.96316e-06 1.1263e-06
5.24113e-07 1.1263e-06 -0.000255537
0.000548781 2.40069e-05 -5.59618e-07
2.40069e-05 -1.30387e-05 2.45299e-06
-5.59618e-07 2.45299e-06 -0.000108647
0.00194897 0.000206583 -2.13589e-06
0.000206583 4.08985e-05 1.03551e-06
-2.13589e-06 1.03551e-06 3.91601e-08
0.00148579 0.000228745 5.8868e-07
0.000228745 0.00056728 3.1544e-06
5.8868e-07 3.1544e-06 0.000379004
0.00113395 0.000239628 2.95967e-06
0.000239628 0.000226834 4.34333e-06
2.95967e-06 4.34333e-06 3.28781e-06
0.00234917 0.00030832 -1.55927e-05
0.00030832 0.000330488 -3.21723e-06
-1.55927e-05 -3.21723e-06 0.000239576
0.00110209 0.000345406 -2.81561e-06
0.000345406 -0.000223837 -6.15991e-06
-2.81561e-06 -6.15991e-06 -0.000419186
0.00175128 0.000366 -2.42121e-06
0.000366 0.00033877 4.07792e-07
-2.42121e-06 4.07792e-07 7.31991e-05
0.00072518 3.59734e-05 -1.33743e-06
3.59734e-05 8.47811e-05 -3.4451e-07
-1.33743e-06 -3.4451e-07 -1.67321e-06
0.000750356 2.70872e-05 -8.6488e-07
2.70872e-05 0.000104238 -3.46611e-07
-8.6488e-07 -3.46611e-07 1.57118e-05
0.00091249 1.3474e-05 -8.22539e-07
1.3474e-05 0.000209347 4.15075e-07
-8.22539e-07 4.15075e-07 0.00011965
0.000659282 -1.14212e-05 -1.98859e-07
-1.14212e-05 4.17947e-05 -1.66101e-06
-1.98859e-07 -1.66101e-06 -3.22427e-05
0.000694312 3.33003e-05 6.17258e-07
3.33003e-05 7.74606e-05 -8.25529e-09
6.17258e-07 -8.25529e-09 -1.71464e-05
0.000448636 1.43845e-06 -7.13813e-07
1.43845e-06 -5.16883e-05 3.90211e-07
-7.13813e-07 3.90211e-07 -0.000153019
0.000667464 -1.71052e-06 -4.25376e-07
-1.71052e-06 5.28615e-05 -2.94787e-08
-4.25376e-07 -2.94787e-08 -2.59713e-05
0.000552439 -2.47975e-05 -6.51107e-07
-2.47975e-05 -2.79728e-06 3.74955e-07
-6.51107e-07 3.74955e-07 -0.000101147
0.000606339 -1.50229e-05 6.28197e-07
-1.50229e-05 2.22809e-05 -1.51758e-07
6.28197e-07 -1.51758e-07 -6.83788e-05
0.000794786 2.70776e-05 3.85791e-07
2.70776e-05 0.000143474 1.46846e-08
3.85791e-07 1.46846e-08 3.59401e-05
0.000954694 1.95442e-05 2.9215e-07
1.95442e-05 0.00020498 -1.14009e-06
2.9215e-07 -1.14009e-06 0.000119906
0.000740822 -3.67551e-05 1.23201e-06
-3.67551e-05 9.47882e-05 -7.89054e-07
1.23201e-06 -7.89054e-07 3.78391e-07
0.000779184 2.45697e-05 2.27609e-07
2.45697e-05 0.000130964 3.03703e-07
2.27609e-07 3.03703e-07 2.06656e-05
0.00066156 2.82965e-05 1.90997e-06
2.82965e-05 6.18211e-05 1.422e-06
1.90997e-06 1.422e-06 -4.37814e-05
0.000690816 1.7692e-05 1.29541e-06
1.7692e-05 6.02518e-05 1.73903e-06
1.29541e-06 1.73903e-06 -1.67565e-05
0.000615881 -1.83084e-05 -1.74359e-07
-1.83084e-05 3.37267e-06 1.88942e-06
-1.74359e-07 1.88942e-06 -4.51324e-05
0.000629128 -9.27328e-06 -2.81443e-07
-9.27328e-06 9.28596e-06 4.42299e-08
-2.81443e-07 4.42299e-08 -3.84844e-05
0.00127582 -7.32872e-06 5.42098e-07
-7.32872e-06 0.000363341 2.23623e-06
5.42098e-07 2.23623e-06 0.00035432
0.000642237 -2.54445e-05 5.52126e-07
-2.54445e-05 1.35336e-05 -2.33573e-06
5.52126e-07 -2.33573e-06 -3.36232e-05
0.00130721 -1.52121e-05 -2.74853e-06
-1.52121e-05 0.000382271 -1.54221e-06
-2.74853e-06 -1.54221e-06 0.00037347
0.000879377 -1.6362e-05 1.17075e-05
-1.6362e-05 0.000134287 8.13659e-06
1.17075e-05 8.13659e-06 0.000143131
0.00134389 -2.39323e-05 -4.9296e-06
-2.39323e-05 0.000404873 -5.43393e-06
-4.9296e-06 -5.43393e-06 0.000395712
0.000838715 -2.4278e-05 3.81371e-06
-2.4278e-05 0.00011253 3.07101e-06
3.81371e-06 3.07101e-06 0.000120731
0.000781488 -3.07681e-05 -1.03859e-06
-3.07681e-05 8.27208e-05 -2.03193e-06
-1.03859e-06 -2.03193e-06 9.00688e-05
0.000677261 1.0886e-05 8.48292e-07
1.0886e-05 2.68296e-05 -1.7753e-06
8.48292e-07 -1.7753e-06 -1.10175e-05
0.000578132 2.79032e-05 4.68954e-07
2.79032e-05 -4.12681e-05 -3.55123e-06
4.68954e-07 -3.55123e-06 -5.21973e-05
0.000583762 3.63669e-05 2.23871e-08
3.63669e-05 -3.04835e-05 9.00529e-08
2.23871e-08 9.00529e-08 -4.53459e-05
0.00217007 6.33664e-05 1.91041e-05
6.33664e-05 0.000909472 -4.02183e-06
1.91041e-05 -4.02183e-06 0.000921887
0.000582811 5.1405e-05 1.46813e-06
5.1405e-05 -1.86336e-05 4.59341e-06
1.46813e-06 4.59341e-06 -4.06703e-05
0.00237583 8.06941e-05 -3.62123e-06
8.06941e-05 0.00103921 -2.55277e-07
-3.62123e-06 -2.55277e-07 0.00104723
0.0026378 9.57165e-05 -3.53479e-05
9.57165e-05 0.00119978 3.56566e-06
-3.53479e-05 3.56566e-06 0.00120398
0.00195721 0.000209767 2.66584e-07
0.000209767 0.000151445 2.21053e-06
2.66584e-07 2.21053e-06 6.35167e-05
0.00180399 0.000136533 -8.46264e-07
0.000136533 4.91471e-05 -2.07616e-08
-8.46264e-07 -2.07616e-08 -1.8265e-05
0.00176633 4.30387e-05 7.37848e-07
4.30387e-05 6.04505e-05 -2.74179e-07
7.37848e-07 -2.74179e-07 9.18747e-07
0.00185312 8.40476e-07 1.1876e-06
8.40476e-07 0.000144396 -2.21872e-07
1.1876e-06 -2.21872e-07 6.07246e-05
0.00173809 -3.00762e-06 -1.28665e-06
-3.00762e-06 3.9765e-05 -3.09273e-08
-1.28665e-06 -3.09273e-08 -1.87996e-05
0.00190328 8.17277e-05 2.65132e-07
8.17277e-05 5.45548e-05 -9.52832e-09
2.65132e-07 -9.52832e-09 1.7041e-05
0.00187174 0.000196819 -7.1245e-07
0.000196819 3.88387e-05 -2.89021e-07
-7.1245e-07 -2.89021e-07 -2.78311e-05
0.00188856 2.31624e-06 3.06928e-06
2.31624e-06 3.27209e-05 -1.72473e-10
3.06928e-06 -1.72473e-10 8.62735e-06
0.00196283 0.000120622 2.05389e-06
0.000120622 3.48381e-05 1.79082e-07
2.05389e-06 1.79082e-07 2.774e-06
0.00188773 6.53962e-05 -4.26236e-06
6.53962e-05 4.41976e-05 2.33454e-06
-4.26236e-06 2.33454e-06 6.78322e-05
0.00188429 -5.30566e-05 -1.71666e-06
-5.30566e-05 0.000116614 -1.41852e-07
-1.71666e-06 -1.41852e-07 4.73129e-05
0.00191887 -0.000147094 -2.7945e-06
-0.000147094 9.41432e-05 6.3035e-07
-2.7945e-06 6.3035e-07 2.97425e-05
0.001808 -0.000214691 -2.42906e-06
-0.000214691 8.45776e-05 1.07055e-06
-2.42906e-06 1.07055e-06 7.51819e-06
0.0012559 -0.000239308 -1.9638e-07
-0.000239308 0.00028729 6.17918e-06
-1.9638e-07 6.17918e-06 8.8967e-05
0.00102674 -0.000288282 -4.05789e-07
-0.000288282 1.13223e-05 5.34331e-06
-4.05789e-07 5.34331e-06 -0.000243731
0.00179038 -0.000378526 -5.20357e-06
-0.000378526 0.0003223 -3.50701e-06
-5.20357e-06 -3.50701e-06 6.75855e-05
0.00191064 -0.000282836 2.42067e-06
-0.000282836 0.000127512 -3.84052e-07
2.42067e-06 -3.84052e-07 2.67681e-05
0.001542 -0.000317532 -3.27764e-06
-0.000317532 3.70176e-06 -6.10216e-06
-3.27764e-06 -6.10216e-06 -0.000153349
0.000140225 -0.000144968 -3.0071e-06
-0.000144968 -0.000331371 5.58174e-06
-3.0071e-06 5.58174e-06 -0.00048596
0.00194308 -0.0002626 1.11763e-05
-0.0002626 0.000772105 -3.16174e-06
1.11763e-05 -3.16174e-06 0.000588274
0.000733244 -1.93025e-05 -7.93504e-08
-1.93025e-05 0.000102533 -2.81848e-07
-7.93504e-08 -2.81848e-07 -5.28946e-05
0.000608993 1.50915e-05 -2.60159e-07
1.50915e-05 -3.76767e-06 7.73993e-07
-2.60159e-07 7.73993e-07 -4.90856e-05
0.000813483 1.87426e-05 2.33275e-07
1.87426e-05 0.000146475 1.30631e-06
2.33275e-07 1.30631e-06 5.22477e-05
0.0008095 -3.59305e-05 4.92371e-07
-3.59305e-05 0.000152497 1.89882e-06
4.92371e-07 1.89882e-06 2.37314e-05
0.0018653 -7.74694e-05 2.13941e-07
-7.74694e-05 3.68735e-05 5.6741e-08
2.13941e-07 5.6741e-08 -3.77818e-06
0.000630163 1.40432e-05 1.04885e-06
1.40432e-05 3.05727e-06 9.94478e-08
1.04885e-06 9.94478e-08 -3.78398e-05
0.000575616 -2.8585e-05 -1.56154e-06
-2.8585e-05 -8.5329e-06 -4.15084e-08
-1.56154e-06 -4.15084e-08 -7.65692e-05
0.00190302 -0.000193118 -3.1112e-07
-0.000193118 5.41649e-05 2.49931e-07
-3.1112e-07 2.49931e-07 1.42571e-05
0.00181257 -0.000235211 -1.62549e-06
-0.000235211 4.17151e-05 4.95299e-07
-1.62549e-06 4.95299e-07 -2.73871e-05
0.000457351 -0.000197839 1.4735e-06
-0.000197839 -0.000186027 3.38547e-06
1.4735e-06 3.38547e-06 -0.000391123
0.00197235 -0.000406135 -1.17938e-06
-0.000406135 0.000514298 5.56848e-07
-1.17938e-06 5.56848e-07 0.000204662
0.00149551 -0.000368493 2.38996e-06
-0.000368493 0.000102251 -1.62223e-06
2.38996e-06 -1.62223e-06 -0.000135861
0.00200858 -0.0003727 2.42409e-06
-0.0003727 0.000163784 -1.015e-06
2.42409e-06 -1.015e-06 3.71223e-05
0.000743065 -1.72528e-05 9.80108e-07
-1.72528e-05 0.000106844 -1.01713e-06
9.80108e-07 -1.01713e-06 2.2805e-05
0.000759589 -2.64343e-05 2.09033e-07
-2.64343e-05 0.00013479 1.13982e-06
2.09033e-07 1.13982e-06 1.34629e-05
0.000931972 -0.000208006 -2.74458e-06
-0.000208006 8.02738e-05 -5.52706e-07
-2.74458e-06 -5.52706e-07 -8.10656e-05
0.00151441 -0.00024382 1.21171e-05
-0.00024382 0.000560015 -3.27891e-06
1.21171e-05 -3.27891e-06 0.000349326
0.000494258 -8.07756e-05 -2.27265e-06
-8.07756e-05 -2.49713e-05 2.2387e-08
-2.27265e-06 2.2387e-08 -0.000187307
0.000718599 -1.43241e-05 3.33973e-07
-1.43241e-05 0.000101489 -4.87948e-07
3.33973e-07 -4.87948e-07 -3.47796e-05
0.00190131 -8.54029e-05 2.85246e-06
-8.54029e-05 -4.84103e-06 -4.77541e-07
2.85246e-06 -4.77541e-07 -3.34388e-05
0.0018314 -0.000209722 9.10974e-07
-0.000209722 -2.09522e-05 -7.04869e-07
9.10974e-07 -7.04869e-07 -1.40564e-05
0.00199392 -0.000339901 -1.28844e-06
-0.000339901 6.78454e-05 -1.96894e-06
-1.28844e-06 -1.96894e-06 -1.33599e-05
0.0016242 -0.000415925 2.60965e-06
-0.000415925 4.87682e-05 1.25018e-06
2.60965e-06 1.25018e-06 -0.000107315
0.000632683 -0.000175972 -8.84625e-06
-0.000175972 -7.92938e-05 -7.54867e-06
-8.84625e-06 -7.54867e-06 -0.000282352
0.00236207 -0.000474689 -7.37028e-06
-0.000474689 0.000704192 5.78407e-06
-7.37028e-06 5.78407e-06 0.000375727
0.000441295 5.73642e-05 -1.13999e-06
5.73642e-05 -7.8071e-05 -2.49582e-06
-1.13999e-06 -2.49582e-06 -0.000150553
0.000692575 -5.74026e-05 2.72374e-06
-5.74026e-05 6.29425e-05 -1.08914e-06
2.72374e-06 -1.08914e-06 -8.32287e-06
0.000927069 -7.68024e-05 1.61435e-06
-7.68024e-05 0.000211487 4.80382e-07
1.61435e-06 4.80382e-07 0.000117992
0.000475558 1.96883e-05 -1.09067e-06
1.96883e-05 -3.3468e-05 1.82868e-06
-1.09067e-06 1.82868e-06 -0.000149178
0.000942642 -5.36429e-05 -6.79737e-07
-5.36429e-05 0.00022952 7.0725e-07
-6.79737e-07 7.0725e-07 0.000109225
0.00101033 -4.63734e-05 2.64525e-06
-4.63734e-05 0.000235982 3.49219e-07
2.64525e-06 3.49219e-07 8.78735e-05
-0.000258353 -8.77887e-05 6.33267e-06
-8.77887e-05 -0.000328162 4.68066e-07
6.33267e-06 4.68066e-07 -0.000605858
0.000257579 -0.000214255 -1.64327e-05
-0.000214255 -0.000291004 1.76054e-06
-1.64327e-05 1.76054e-06 -0.000451096
0.000498641 3.24135e-05 -1.3425e-07
3.24135e-05 -3.04655e-05 -8.79215e-07
-1.3425e-07 -8.79215e-07 -0.000130593
0.00068465 0.000106314 -3.64573e-06
0.000106314 9.92785e-05 -3.20494e-06
-3.64573e-06 -3.20494e-06 -4.4969e-05
0.00204492 0.000257769 -2.05552e-06
0.000257769 0.000113293 -9.33856e-07
-2.05552e-06 -9.33856e-07 4.4576e-05
0.00195429 0.000317158 -3.28849e-07
0.000317158 0.000210858 2.06635e-06
-3.28849e-07 2.06635e-06 6.50957e-05
0.00165537 0.000194234 -6.27005e-06
0.000194234 0.000599336 -2.20018e-06
-6.27005e-06 -2.20018e-06 0.000431032
0.0010881 0.000226977 -2.19977e-06
0.000226977 0.000236369 -8.7227e-06
-2.19977e-06 -8.7227e-06 1.24755e-05
0.00182123 0.000370492 8.67329e-07
0.000370492 0.000238506 1.59195e-06
8.67329e-07 1.59195e-06 2.70726e-05
0.0019484 0.000355305 7.10262e-07
0.000355305 0.000517384 -8.46743e-08
7.10262e-07 -8.46743e-08 0.000248216
0.000630994 4.69593e-05 7.34634e-07
4.69593e-05 4.54301e-05 -8.54529e-07
7.34634e-07 -8.54529e-07 -5.89247e-05
0.00194234 0.000198618 1.9122e-08
0.000198618 2.27126e-05 -1.7046e-07
1.9122e-08 -1.7046e-07 -9.1492e-06
0.000963631 0.000165923 8.60254e-07
0.000165923 0.000262576 1.73106e-06
8.60254e-07 1.73106e-06 8.73558e-05
0.000794191 0.000211854 1.53629e-06
0.000211854 3.53287e-05 -8.00729e-08
1.53629e-06 -8.00729e-08 -0.000187692
0.00219453 0.00030192 2.66163e-06
0.00030192 0.000246494 4.8557e-07
2.66163e-06 4.8557e-07 0.00015562
0.00141114 0.000364762 -7.99063e-07
0.000364762 -5.36294e-05 -2.62008e-06
-7.99063e-07 -2.62008e-06 -0.000248135
0.00206893 0.000392432 -1.46539e-07
0.000392432 0.000530842 2.74221e-07
-1.46539e-07 2.74221e-07 0.000261849
0.00113547 0.000113483 -2.65262e-06
0.000113483 0.000356388 3.02107e-06
-2.65262e-06 3.02107e-06 0.000216657
0.00237607 0.000215938 -3.61702e-05
0.000215938 0.00031666 -7.76439e-06
-3.61702e-05 -7.76439e-06 0.000318562
0.00244062 0.000351637 -4.39376e-06
0.000351637 0.00106056 4.77486e-07
-4.39376e-06 4.77486e-07 0.000850343
0.00212129 0.000355013 -6.91003e-06
0.000355013 0.000711514 1.28649e-06
-6.91003e-06 1.28649e-06 0.000463574
0.00200993 0.000414844 -1.55791e-05
0.000414844 0.000160176 -1.23378e-05
-1.55791e-05 -1.23378e-05 3.21072e-05
0.00121202 0.000355201 -1.13595e-05
0.000355201 -1.48025e-05 -1.53396e-06
-1.13595e-05 -1.53396e-06 -0.000260087
0.000751452 0.00027571 2.4482e-05
0.00027571 -0.000515606 -1.39226e-05
2.4482e-05 -1.39226e-05 -0.000729671
0.000585939 4.1026e-05 5.63115e-07
4.1026e-05 1.65575e-05 -3.61961e-07
5.63115e-07 -3.61961e-07 -7.53073e-05
0.000714436 2.11932e-05 -3.07255e-08
2.11932e-05 0.000103923 7.76143e-07
-3.07255e-08 7.76143e-07 1.21388e-05
0.0012136 4.28991e-05 5.50436e-08
4.28991e-05 0.000376036 -8.56507e-07
5.50436e-08 -8.56507e-07 0.000281652
0.000649114 -5.69088e-05 -5.92551e-08
-5.69088e-05 4.7663e-05 -2.11192e-06
-5.92551e-08 -2.11192e-06 -3.46207e-05
0.000599578 -4.37116e-05 -1.20416e-06
-4.37116e-05 2.107e-05 -5.54636e-08
-1.20416e-06 -5.54636e-08 -7.43003e-05
0.000893532 0.00010819 -3.04903e-07
0.00010819 0.000201714 4.61956e-07
-3.04903e-07 4.61956e-07 9.26197e-05
0.000442326 -2.72058e-05 -9.17628e-07
-2.72058e-05 -6.55776e-05 1.73461e-06
-9.17628e-07 1.73461e-06 -0.000158764
0.000663678 -2.34454e-05 -4.22033e-08
-2.34454e-05 5.48989e-05 -2.6086e-08
-4.22033e-08 -2.6086e-08 -2.86821e-05
0.000655699 3.29313e-05 -7.92059e-08
3.29313e-05 4.61332e-05 -3.34834e-07
-7.92059e-08 -3.34834e-07 -5.09012e-05
0.000805476 1.41707e-05 -5.71657e-07
1.41707e-05 0.000121505 -9.06789e-08
-5.71657e-07 -9.06789e-08 3.44763e-05
0.000771506 1.01996e-05 3.39776e-07
1.01996e-05 0.000116274 -4.2168e-08
3.39776e-07 -4.2168e-08 1.35529e-05
0.000802033 -1.52651e-05 -5.33084e-08
-1.52651e-05 0.000128735 -1.71552e-07
-5.33084e-08 -1.71552e-07 3.27669e-05
0.000857205 1.25805e-05 -6.1592e-07
1.25805e-05 0.000146014 -2.04361e-06
-6.1592e-07 -2.04361e-06 6.06933e-05
0.000827178 2.44476e-05 -8.95399e-07
2.44476e-05 0.00013697 -1.56288e-06
-8.95399e-07 -1.56288e-06 3.20646e-05
0.000815838 5.99875e-05 4.98163e-07
5.99875e-05 0.000133276 5.66121e-07
4.98163e-07 5.66121e-07 3.32422e-05
0.000698614 3.69219e-05 2.68248e-07
3.69219e-05 8.24409e-05 1.21865e-06
2.68248e-07 1.21865e-06 -2.86986e-05
0.000531138 -1.78806e-05 -1.6656e-07
-1.78806e-05 -3.56543e-05 1.95894e-06
-1.6656e-07 1.95894e-06 -0.000115194
0.000889725 -1.9665e-05 1.24772e-07
-1.9665e-05 0.00021008 -8.49595e-07
1.24772e-07 -8.49595e-07 9.70971e-05
0.000476034 -5.41575e-06 -5.73254e-07
-5.41575e-06 -6.26424e-05 2.04157e-06
-5.73254e-07 2.04157e-06 -0.00014666
0.000592131 8.31476e-06 -8.95464e-07
8.31476e-06 -7.93313e-06 1.84426e-06
-8.95464e-07 1.84426e-06 -5.84013e-05
0.000607668 1.68362e-05 8.55182e-07
1.68362e-05 1.29561e-07 -1.9775e-09
8.55182e-07 -1.9775e-09 -4.92895e-05
0.000579798 2.48459e-06 1.9892e-07
2.48459e-06 -4.45265e-05 3.68699e-06
1.9892e-07 3.68699e-06 -5.82484e-05
0.000618098 -2.65121e-06 -1.09115e-06
-2.65121e-06 4.00047e-06 -2.13254e-06
-1.09115e-06 -2.13254e-06 -4.46132e-05
0.000954665 -4.52241e-06 -1.83466e-06
-4.52241e-06 0.000175323 -1.62276e-06
-1.83466e-06 -1.62276e-06 0.000164127
0.00230678 -1.2484e-05 7.52316e-06
-1.2484e-05 0.000971139 5.08164e-06
7.52316e-06 5.08164e-06 0.000987884
0.00135003 -1.36534e-05 -2.8753e-06
-1.36534e-05 0.000407924 -5.3808e-06
-2.8753e-06 -5.3808e-06 0.000398878
0.000838427 -1.63578e-05 2.02018e-06
-1.63578e-05 0.000109099 3.14216e-06
2.02018e-06 3.14216e-06 0.000118043
0.000794775 -2.28986e-05 -4.83261e-07
-2.28986e-05 8.56252e-05 -2.0554e-06
-4.83261e-07 -2.0554e-06 9.41127e-05
0.00064028 8.30618e-06 -3.47332e-07
8.30618e-06 7.81064e-06 -1.76042e-06
-3.47332e-07 -1.76042e-06 -2.95119e-05
0.000656542 -1.90647e-06 7.94248e-07
-1.90647e-06 1.58097e-05 -8.46926e-08
7.94248e-07 -8.46926e-08 -2.27757e-05
0.000603934 2.1217e-05 3.88354e-07
2.1217e-05 -2.99751e-05 -3.49745e-06
3.88354e-07 -3.49745e-06 -3.85679e-05
0.000910728 3.33401e-05 -3.98909e-07
3.33401e-05 0.00015491 5.21579e-08
-3.98909e-07 5.21579e-08 0.000145436
0.00212099 5.04824e-05 1.51572e-05
5.04824e-05 0.000873773 -4.21042e-06
1.51572e-05 -4.21042e-06 0.000888845
0.000592112 3.79671e-05 1.27943e-07
3.79671e-05 -2.50276e-05 3.80659e-06
1.27943e-07 3.80659e-06 -4.03028e-05
0.00223057 6.59085e-05 -2.8097e-06
6.59085e-05 0.000945994 -1.69597e-07
-2.8097e-06 -1.69597e-07 0.000957705
0.00244504 8.29386e-05 -2.45471e-05
8.29386e-05 0.00108031 3.92348e-06
-2.45471e-05 3.92348e-06 0.0010877
0.00188965 0.000200333 -3.69336e-06
0.000200333 4.68222e-05 -1.07722e-06
-3.69336e-06 -1.07722e-06 -1.88114e-05
0.00189634 7.71363e-05 -1.96556e-06
7.71363e-05 5.09513e-05 -2.00131e-07
-1.96556e-06 -2.00131e-07 1.24178e-05
0.00178624 -6.50912e-07 -2.42088e-06
-6.50912e-07 6.6975e-05 -2.9149e-07
-2.42088e-06 -2.9149e-07 1.10769e-05
0.00187669 3.28362e-06 8.02556e-08
3.28362e-06 2.94388e-05 -1.79644e-07
8.02556e-08 -1.79644e-07 4.90636e-06
0.00192389 0.000118731 2.24458e-07
0.000118731 2.72583e-05 -7.95527e-08
2.24458e-07 -7.95527e-08 -6.40058e-06
0.00180055 5.91515e-05 3.27894e-06
5.91515e-05 -1.46881e-05 1.41251e-07
3.27894e-06 1.41251e-07 4.90973e-07
0.00191338 1.23694e-05 6.6548e-07
1.23694e-05 -1.31301e-05 -1.3233e-07
6.6548e-07 -1.3233e-07 -7.27105e-06
0.00265582 0.000252536 2.8463e-05
0.000252536 -0.000145948 7.81739e-07
2.8463e-05 7.81739e-07 -0.000138148
0.00201589 3.07989e-05 -2.77409e-05
3.07989e-05 0.000252987 7.57687e-06
-2.77409e-05 7.57687e-06 0.000303917
0.000645755 7.24891e-05 -7.98974e-07
7.24891e-05 4.11409e-05 -8.15329e-07
-7.98974e-07 -8.15329e-07 -2.65488e-05
0.00181786 -7.7993e-05 -2.70825e-06
-7.7993e-05 7.83814e-06 -1.22971e-07
-2.70825e-06 -1.22971e-07 -3.05766e-05
0.00189044 -0.000185661 -1.20536e-06
-0.000185661 6.38958e-05 1.04314e-06
-1.20536e-06 1.04314e-06 1.68806e-05
0.00177461 -0.000236917 4.03118e-07
-0.000236917 1.82011e-05 1.56179e-06
4.03118e-07 1.56179e-06 -5.16866e-05
0.000646533 -0.000210662 2.49416e-06
-0.000210662 -6.7859e-05 8.03436e-06
2.49416e-06 8.03436e-06 -0.000268658
0.0016867 -0.000380108 1.2391e-06
-0.000380108 0.000361837 6.71759e-06
1.2391e-06 6.71759e-06 5.12415e-05
0.0015022 -0.000373744 -5.26493e-07
-0.000373744 8.32695e-05 -8.86183e-06
-5.26493e-07 -8.86183e-06 -0.000151995
0.00209866 -0.000377683 -5.2369e-06
-0.000377683 0.000225359 -2.97294e-06
-5.2369e-06 -2.97294e-06 9.5447e-05
0.00166617 -0.000254415 1.04884e-05
-0.000254415 0.000495929 -2.20729e-06
1.04884e-05 -2.20729e-06 0.000325883
0.000452222 -0.000159818 9.13112e-06
-0.000159818 -5.59868e-05 -4.51783e-06
9.13112e-06 -4.51783e-06 -0.000224429
0.000908728 -9.36882e-05 5.7992e-07
-9.36882e-05 0.000208587 -1.25734e-06
5.7992e-07 -1.25734e-06 4.60375e-05
0.00063163 2.71603e-06 -1.03717e-06
2.71603e-06 3.47149e-06 1.75368e-06
-1.03717e-06 1.75368e-06 -3.66326e-05
0.000800608 -1.68354e-05 1.34315e-06
-1.68354e-05 0.000157837 -3.24503e-07
1.34315e-06 -3.24503e-07 1.75915e-05
0.00094948 -4.34417e-05 1.22005e-06
-4.34417e-05 0.000232239 -1.48869e-07
1.22005e-06 -1.48869e-07 0.000147593
0.000795101 -2.00735e-05 1.57969e-07
-2.00735e-05 0.000152735 -8.80447e-08
1.57969e-07 -8.80447e-08 3.14603e-05
0.000442994 -2.09736e-05 -1.6938e-06
-2.09736e-05 -9.13868e-05 1.3114e-06
-1.6938e-06 1.3114e-06 -0.00015641
0.00193018 -9.67101e-05 -2.16438e-07
-9.67101e-05 -8.22971e-06 1.50932e-07
-2.16438e-07 1.50932e-07 -2.47436e-05
0.000544162 3.62267e-05 5.53338e-08
3.62267e-05 -1.51616e-05 -1.11532e-06
5.53338e-08 -1.11532e-06 -8.8307e-05
0.000682618 -5.35093e-05 4.83757e-07
-5.35093e-05 6.3396e-05 3.69983e-07
4.83757e-07 3.69983e-07 -1.14038e-05
0.000791633 -4.42213e-05 -2.97462e-07
-4.42213e-05 0.000134809 7.79643e-07
-2.97462e-07 7.79643e-07 3.89718e-05
0.00184229 -0.000214099 1.1081e-06
-0.000214099 -1.07204e-05 -2.90513e-07
1.1081e-06 -2.90513e-07 -1.16246e-05
0.00200874 -0.00033813 -9.14991e-07
-0.00033813 8.92009e-05 -4.04717e-07
-9.14991e-07 -4.04717e-07 5.07799e-06
0.00109081 -0.000232417 4.02858e-06
-0.000232417 0.000167881 1.48303e-07
4.02858e-06 1.48303e-07 -3.49632e-05
0.00194725 -0.000437428 4.72513e-06
-0.000437428 0.000492756 2.68577e-07
4.72513e-06 2.68577e-07 0.000172338
0.00182129 -0.000428273 -1.69533e-07
-0.000428273 0.000170699 1.83039e-06
-1.69533e-07 1.83039e-06 7.7934e-06
0.000548643 -8.15287e-06 -3.4506e-07
-8.15287e-06 1.14415e-05 -1.47293e-07
-3.4506e-07 -1.47293e-07 -0.000102505
0.000830337 -6.49783e-05 -1.54342e-06
-6.49783e-05 0.000170626 4.02297e-07
-1.54342e-06 4.02297e-07 4.20827e-05
0.000706923 -0.000250619 -4.3196e-06
-0.000250619 -2.00586e-05 9.90146e-07
-4.3196e-06 9.90146e-07 -0.000205992
0.000525951 -9.43605e-05 -2.81687e-07
-9.43605e-05 6.70005e-05 -1.2954e-06
-2.81687e-07 -1.2954e-06 -0.000174708
0.000707123 -6.32425e-05 2.26252e-08
-6.32425e-05 6.39664e-05 -3.38526e-07
2.26252e-08 -3.38526e-07 -8.08487e-05
0.00220797 -0.000194263 -2.3242e-06
-0.000194263 0.000136411 -1.37235e-06
-2.3242e-06 -1.37235e-06 0.000133087
0.00174993 -0.0002293 -7.46006e-06
-0.0002293 -0.000102798 1.659e-06
-7.46006e-06 1.659e-06 -7.91623e-05
0.00243399 -0.000470358 -5.25413e-06
-0.000470358 0.000347186 -1.17408e-06
-5.25413e-06 -1.17408e-06 0.000211119
0.00276924 -0.000532341 -2.09346e-05
-0.000532341 0.00079817 2.44364e-06
-2.09346e-05 2.44364e-06 0.000572682
0.0011892 -0.000264626 -1.07752e-05
-0.000264626 0.000259412 -4.12418e-06
-1.07752e-05 -4.12418e-06 2.83865e-05
0.000474708 1.32883e-05 1.3736e-06
1.32883e-05 -5.09442e-05 -1.58468e-06
1.3736e-06 -1.58468e-06 -0.000143828
0.000490652 4.75541e-05 6.61829e-07
4.75541e-05 -4.74256e-05 2.25347e-08
6.61829e-07 2.25347e-08 -0.000146198
0.00055961 5.28289e-06 6.64172e-07
5.28289e-06 2.42181e-06 -1.07473e-06
6.64172e-07 -1.07473e-06 -0.000103785
0.00122067 -0.000134615 -9.86954e-07
-0.000134615 0.000410349 3.10709e-06
-9.86954e-07 3.10709e-06 0.000280791
0.000596348 -5.26711e-05 1.66043e-07
-5.26711e-05 1.40638e-05 3.42806e-06
1.66043e-07 3.42806e-06 -0.000108142
0.000142696 -6.20613e-05 2.30676e-06
-6.20613e-05 -0.000133156 1.63347e-06
2.30676e-06 1.63347e-06 -0.000381771
0.000523939 -0.000284986 3.34395e-06
-0.000284986 6.86567e-05 -2.33458e-06
3.34395e-06 -2.33458e-06 -0.00023293
0.000778359 7.84048e-05 1.18914e-06
7.84048e-05 0.000143187 -4.27721e-06
1.18914e-06 -4.27721e-06 2.75257e-05
0.000195955 7.55952e-05 2.29022e-07
7.55952e-05 -0.000187575 -1.3501e-06
2.29022e-07 -1.3501e-06 -0.000344636
0.00209167 0.00019251 7.23635e-06
0.00019251 9.35008e-05 3.87925e-07
7.23635e-06 3.87925e-07 7.1391e-05
0.0020176 0.000294393 1.13919e-05
0.000294393 0.000150453 2.64326e-06
1.13919e-05 2.64326e-06 6.05743e-05
0.0017903 0.000387769 8.09182e-06
0.000387769 0.000153866 3.18797e-06
8.09182e-06 3.18797e-06 -3.97628e-05
0.00048532 0.000187673 9.11127e-07
0.000187673 -0.000140517 -1.79218e-06
9.11127e-07 -1.79218e-06 -0.000362683
0.00233894 0.000415687 3.04233e-06
0.000415687 0.000694864 1.42078e-06
3.04233e-06 1.42078e-06 0.000424251
0.00126745 9.51748e-05 -1.80687e-07
9.51748e-05 0.000421368 5.53009e-07
-1.80687e-07 5.53009e-07 0.000291575
0.0021505 0.000186255 -2.50256e-06
0.000186255 0.000208476 2.45616e-07
-2.50256e-06 2.45616e-07 0.000218968
0.00151422 0.000250925 -1.6607e-06
0.000250925 0.000528071 -9.47801e-08
-1.6607e-06 -9.47801e-08 0.000338426
0.00153794 0.000305176 -6.15713e-07
0.000305176 0.000406084 1.33103e-06
-6.15713e-07 1.33103e-06 0.000155351
0.00200565 0.000400438 -1.45725e-06
0.000400438 0.000163751 -2.8519e-06
-1.45725e-06 -2.8519e-06 4.21315e-05
0.00158212 0.000390037 -2.19242e-06
0.000390037 0.000190316 3.49271e-06
-2.19242e-06 3.49271e-06 -6.37321e-05
0.00170688 0.000346904 2.97744e-05
0.000346904 -0.000259345 1.90796e-06
2.97744e-05 1.90796e-06 -0.000559359
0.00118063 0.000163531 -3.48935e-06
0.000163531 0.000389183 -4.84001e-07
-3.48935e-06 -4.84001e-07 0.000237921
0.00225343 0.000308259 -4.14146e-05
0.000308259 0.000319835 -2.19482e-05
-4.14146e-05 -2.19482e-05 0.000317937
0.00122348 0.000245685 -4.70259e-06
0.000245685 0.000316265 -3.83126e-07
-4.70259e-06 -3.83126e-07 0.000129594
0.000985216 0.000290742 -3.30312e-06
0.000290742 2.41794e-05 -3.23496e-06
-3.30312e-06 -3.23496e-06 -0.00023131
0.000239076 0.000374239 -1.29283e-05
0.000374239 -0.000660526 -7.87359e-06
-1.29283e-05 -7.87359e-06 -0.000857352
0.00954833 0.000316967 -0.000158992
0.000316967 0.00221841 -3.78019e-05
-0.000158992 -3.78019e-05 0.00129757
0.00507154 0.000656798 0.000127939
0.000656798 0.000630398 -1.43796e-05
0.000127939 -1.43796e-05 0.000172949
0.00157851 0.000495019 2.11961e-05
0.000495019 6.19321e-05 1.29373e-05
2.11961e-05 1.29373e-05 -0.000137678
-0.00482146 -0.000601633 0.00028433
-0.000601633 -0.00140395 9.59821e-06
0.00028433 9.59821e-06 -0.00244337
0.00682845 -0.00184582 -1.37482e-05
-0.00184582 0.00126039 8.91296e-06
-1.37482e-05 8.91296e-06 0.00278768
0.00054895 3.05862e-05 2.24039e-06
3.05862e-05 1.51731e-05 4.99088e-07
2.24039e-06 4.99088e-07 -7.79439e-05
0.000890767 2.29826e-05 6.91547e-07
2.29826e-05 0.000203876 -7.10043e-07
6.91547e-07 -7.10043e-07 0.00011013
0.000911975 7.00409e-05 -2.05504e-06
7.00409e-05 0.000209861 -1.88055e-06
-2.05504e-06 -1.88055e-06 0.000112736
0.000648059 -5.89419e-05 3.23477e-08
-5.89419e-05 5.27656e-05 -1.71567e-06
3.23477e-08 -1.71567e-06 -3.52643e-05
0.000635602 5.59207e-05 -1.16467e-06
5.59207e-05 3.74905e-05 -1.32832e-06
-1.16467e-06 -1.32832e-06 -6.29304e-05
0.000777899 -3.32725e-05 1.78879e-07
-3.32725e-05 0.000121437 -4.43592e-07
1.78879e-07 -4.43592e-07 1.8173e-05
0.000861659 8.37342e-06 -1.25046e-06
8.37342e-06 0.000160844 1.68683e-06
-1.25046e-06 1.68683e-06 6.39176e-05
0.000691889 5.06066e-06 -5.01327e-07
5.06066e-06 5.89018e-05 7.34389e-07
-5.01327e-07 7.34389e-07 -2.99911e-05
0.000756039 6.87878e-05 -1.28949e-06
6.87878e-05 0.00010966 -4.24244e-07
-1.28949e-06 -4.24244e-07 8.32877e-07
0.000594142 -7.81263e-06 -4.26711e-08
-7.81263e-06 6.67355e-06 7.01639e-07
-4.26711e-08 7.01639e-07 -7.54488e-05
0.000693663 2.1024e-05 8.92987e-08
2.1024e-05 7.67506e-05 3.36534e-08
8.92987e-08 3.36534e-08 -3.201e-05
0.000781557 1.46628e-05 6.30579e-07
1.46628e-05 0.000101181 4.05597e-07
6.30579e-07 4.05597e-07 1.51593e-05
0.00082664 3.05317e-05 -4.81718e-07
3.05317e-05 0.000135778 -1.77975e-07
-4.81718e-07 -1.77975e-07 3.44526e-05
0.000977206 7.25261e-05 -8.45045e-07
7.25261e-05 0.000223176 -7.33957e-07
-8.45045e-07 -7.33957e-07 0.00012051
0.000488595 3.35812e-05 2.8641e-07
3.35812e-05 -5.60187e-05 -2.1229e-06
2.8641e-07 -2.1229e-06 -0.000148071
0.000851991 6.88282e-05 1.52135e-06
6.88282e-05 0.000150369 8.48264e-07
1.52135e-06 8.48264e-07 4.57781e-05
0.000618835 -1.62863e-05 9.91878e-07
-1.62863e-05 2.05177e-05 2.95024e-07
9.91878e-07 2.95024e-07 -8.14089e-05
0.000508603 -4.78302e-05 -1.14676e-06
-4.78302e-05 -4.25349e-05 1.67231e-06
-1.14676e-06 1.67231e-06 -0.000128177
0.000801442 6.00421e-06 -8.19269e-07
6.00421e-06 0.000138184 -4.70085e-08
-8.19269e-07 -4.70085e-08 3.11249e-05
0.000805598 4.24975e-05 -6.01225e-08
4.24975e-05 0.000139712 -1.99422e-06
-6.01225e-08 -1.99422e-06 3.54692e-05
0.000675522 -1.20469e-05 -9.54152e-07
-1.20469e-05 7.43717e-05 -6.75718e-08
-9.54152e-07 -6.75718e-08 -2.68817e-05
0.000808756 -1.28686e-05 1.0561e-06
-1.28686e-05 0.000147608 -5.42017e-07
1.0561e-06 -5.42017e-07 4.37246e-05
0.000688233 -7.25997e-05 -2.07708e-06
-7.25997e-05 6.12345e-05 1.23702e-06
-2.07708e-06 1.23702e-06 -2.00701e-05
0.000514327 -3.99769e-06 1.27438e-07
-3.99769e-06 -3.77142e-05 7.42613e-07
1.27438e-07 7.42613e-07 -0.000123976
0.00062465 -7.44626e-06 -1.16404e-06
-7.44626e-06 6.11229e-06 2.07824e-06
-1.16404e-06 2.07824e-06 -4.30411e-05
0.00061493 -1.19465e-05 7.29347e-07
-1.19465e-05 4.33476e-06 -2.55119e-08
7.29347e-07 -2.55119e-08 -4.56398e-05
0.000608889 6.90705e-06 -3.6725e-07
6.90705e-06 -2.61151e-05 5.32941e-06
-3.6725e-07 5.32941e-06 -4.0562e-05
0.000611911 8.72318e-06 -5.23145e-07
8.72318e-06 1.68466e-06 -1.95001e-06
-5.23145e-07 -1.95001e-06 -4.69919e-05
0.000589158 2.3456e-06 3.25459e-07
2.3456e-06 -3.88627e-05 -1.55657e-08
3.25459e-07 -1.55657e-08 -5.26714e-05
0.00231856 -1.43293e-06 -3.89374e-07
-1.43293e-06 0.000977574 5.17242e-06
-3.89374e-07 5.17242e-06 0.000994215
0.000624363 -2.73676e-06 -5.10543e-07
-2.73676e-06 -1.86181e-05 -5.43185e-06
-5.10543e-07 -5.43185e-06 -3.20507e-05
0.00157548 -9.42812e-06 -1.31398e-07
-9.42812e-06 0.000540605 7.7816e-08
-1.31398e-07 7.7816e-08 0.00055342
0.000794636 -1.46247e-05 -5.18352e-09
-1.46247e-05 8.22235e-05 -2.05047e-06
-5.18352e-09 -2.05047e-06 9.15079e-05
0.000639488 -4.24757e-06 6.47979e-07
-4.24757e-06 8.89842e-06 -1.61911e-06
6.47979e-07 -1.61911e-06 -2.71563e-05
0.000649561 -1.12651e-05 4.47699e-07
-1.12651e-05 1.29361e-05 -1.61623e-08
4.47699e-07 -1.61623e-08 -2.45424e-05
0.000616189 1.42093e-05 3.13619e-07
1.42093e-05 -2.54405e-05 -3.32831e-06
3.13619e-07 -3.32831e-06 -3.23686e-05
0.000634513 -1.42692e-05 -1.64358e-06
-1.42692e-05 2.69996e-06 1.70718e-06
-1.64358e-06 1.70718e-06 -3.5766e-05
0.000895025 2.46086e-05 -8.62774e-08
2.46086e-05 0.000141123 -7.17463e-07
-8.62774e-08 -7.17463e-07 0.000134419
0.00206081 3.73904e-05 1.16299e-05
3.73904e-05 0.00083336 -4.35008e-06
1.16299e-05 -4.35008e-06 0.000850634
0.000591355 2.94666e-05 -4.47503e-07
2.94666e-05 -3.24381e-05 3.53488e-06
-4.47503e-07 3.53488e-06 -4.40011e-05
0.00218716 5.21179e-05 -7.35949e-06
5.21179e-05 0.000914657 1.14122e-06
-7.35949e-06 1.14122e-06 0.000929054
0.0022834 6.81935e-05 -1.88967e-05
6.81935e-05 0.000977913 4.05503e-06
-1.88967e-05 4.05503e-06 0.000988999
0.00188044 0.00011691 -2.60733e-06
0.00011691 1.73071e-05 -6.50877e-07
-2.60733e-06 -6.50877e-07 -1.80714e-05
0.00186191 3.72771e-06 -2.53298e-06
3.72771e-06 2.48034e-05 -2.76025e-07
-2.53298e-06 -2.76025e-07 -2.04916e-07
0.00158239 4.99743e-05 1.20367e-05
4.99743e-05 -0.000149124 2.52542e-07
1.20367e-05 2.52542e-07 -0.000141875
0.0022135 0.000181468 3.06575e-05
0.000181468 -0.000286396 7.46224e-06
3.06575e-05 7.46224e-06 -0.00027582
0.00188768 1.17409e-06 -2.96847e-06
1.17409e-06 -2.16545e-05 -5.85429e-07
-2.96847e-06 -5.85429e-07 -1.55662e-05
0.00180788 4.1448e-05 4.2174e-06
4.1448e-05 0.000143964 -1.87489e-06
4.2174e-06 -1.87489e-06 0.000177789
0.00303621 -6.0391e-06 -2.58428e-05
-6.0391e-06 0.000828767 2.61245e-06
-2.58428e-05 2.61245e-06 0.000807883
0.00240467 -5.1308e-05 0.00010146
-5.1308e-05 -0.000776393 -2.09368e-05
0.00010146 -2.09368e-05 -0.000777536
0.00257133 4.19783e-05 9.76998e-06
4.19783e-05 0.000121556 1.15363e-05
9.76998e-06 1.15363e-05 0.000182366
0.000667048 6.48257e-05 -9.57826e-08
6.48257e-05 5.66918e-05 -9.6379e-07
-9.57826e-08 -9.6379e-07 -1.41117e-05
0.000684115 -7.80482e-06 6.9677e-07
-7.80482e-06 6.84327e-05 -1.60989e-07
6.9677e-07 -1.60989e-07 -3.9328e-06
0.000656104 -8.3896e-05 5.17118e-08
-8.3896e-05 5.36568e-05 -5.93151e-09
5.17118e-08 -5.93151e-09 -3.23161e-05
0.000695801 -3.49353e-05 -9.40631e-07
-3.49353e-05 9.36335e-05 5.81115e-07
-9.40631e-07 5.81115e-07 -4.48751e-06
0.00195082 -0.00010625 -4.86063e-06
-0.00010625 -1.65164e-05 2.52401e-07
-4.86063e-06 2.52401e-07 -1.98067e-05
0.00183026 -0.00021508 -8.10053e-07
-0.00021508 -1.00551e-05 9.18083e-07
-8.10053e-07 9.18083e-07 -1.8074e-05
0.00197567 -0.000332357 -4.84333e-06
-0.000332357 8.46007e-05 1.34295e-06
-4.84333e-06 1.34295e-06 -2.72537e-06
0.0018649 -0.000323716 5.01188e-06
-0.000323716 0.000588599 5.97532e-06
5.01188e-06 5.97532e-06 0.000381355
0.00120245 -0.000375546 8.85815e-06
-0.000375546 9.65572e-05 -4.76219e-06
8.85815e-06 -4.76219e-06 -0.000212375
0.00208296 -0.000445859 4.99885e-06
-0.000445859 0.000326661 -3.91197e-06
4.99885e-06 -3.91197e-06 0.00015708
0.00100619 -0.00026413 -4.7002e-06
-0.00026413 0.000166393 1.38147e-06
-4.7002e-06 1.38147e-06 -3.9519e-05
0.00144195 -0.000104655 -2.64616e-07
-0.000104655 0.00053616 -3.39681e-07
-2.64616e-07 -3.39681e-07 0.000329257
0.00034099 -7.56481e-05 -1.19598e-06
-7.56481e-05 -0.00014582 2.03581e-07
-1.19598e-06 2.03581e-07 -0.000285525
0.000703582 -3.16641e-05 -5.91816e-07
-3.16641e-05 7.25543e-05 1.4025e-06
-5.91816e-07 1.4025e-06 3.30748e-07
0.000666681 -7.73036e-05 -1.95362e-07
-7.73036e-05 8.40182e-05 -1.14233e-06
-1.95362e-07 -1.14233e-06 -5.2767e-05
0.000806626 -7.06013e-06 -9.91633e-08
-7.06013e-06 0.000160722 -4.55718e-07
-9.91633e-08 -4.55718e-07 4.77521e-05
0.00068068 7.63927e-06 1.91273e-07
7.63927e-06 6.96533e-05 5.32419e-07
1.91273e-07 5.32419e-07 -5.66224e-06
0.000595186 1.51645e-05 -2.16329e-06
1.51645e-05 2.29907e-05 2.7607e-06
-2.16329e-06 2.7607e-06 -7.42219e-05
0.00218288 -0.000175525 1.1344e-06
-0.000175525 0.000136571 6.87492e-07
1.1344e-06 6.87492e-07 0.000142008
0.000679491 -5.72455e-06 1.02181e-06
-5.72455e-06 7.60953e-05 -4.53725e-07
1.02181e-06 -4.53725e-07 -2.02506e-05
0.000691102 1.00111e-05 1.70946e-06
1.00111e-05 7.69815e-05 -2.48463e-07
1.70946e-06 -2.48463e-07 -2.42535e-05
0.00051746 5.62798e-05 -8.03422e-08
5.62798e-05 -1.52921e-05 1.53531e-06
-8.03422e-08 1.53531e-06 -0.000116926
0.00176412 -0.000232402 -1.3302e-06
-0.000232402 -0.000115436 -1.35927e-06
-1.3302e-06 -1.35927e-06 -9.70974e-05
0.0019489 -0.000434508 1.52872e-06
-0.000434508 9.5501e-05 -2.40499e-07
1.52872e-06 -2.40499e-07 -3.13807e-05
0.0013261 -0.000310617 -9.70574e-07
-0.000310617 0.000320392 -1.71417e-06
-9.70574e-07 -1.71417e-06 8.40208e-05
0.00221846 -0.000493477 -5.01315e-06
-0.000493477 0.000505074 2.04391e-06
-5.01315e-06 2.04391e-06 0.000284607
0.00104696 -6.16472e-05 -8.38363e-07
-6.16472e-05 0.000295389 5.54305e-07
-8.38363e-07 5.54305e-07 0.000172152
0.000635824 -7.36116e-05 -3.35957e-07
-7.36116e-05 3.62588e-05 9.93013e-07
-3.35957e-07 9.93013e-07 -9.51664e-05
0.000972846 -0.000320887 2.27439e-06
-0.000320887 0.000322202 -4.87136e-07
2.27439e-06 -4.87136e-07 1.2934e-05
0.00103371 -0.00014502 3.09669e-07
-0.00014502 0.000341555 2.02723e-07
3.09669e-07 2.02723e-07 9.8361e-05
0.00223103 -0.00019191 -1.79838e-05
-0.00019191 0.000108422 8.77663e-08
-1.79838e-05 8.77663e-08 0.00016845
0.00234456 -0.000363383 -1.9274e-05
-0.000363383 0.000198043 5.49244e-06
-1.9274e-05 5.49244e-06 0.000206914
0.00283198 -0.000577106 -1.15775e-05
-0.000577106 0.000645759 -4.80149e-06
-1.15775e-05 -4.80149e-06 0.000451843
0.00187965 -0.000446796 -2.66594e-06
-0.000446796 0.000511781 3.69386e-06
-2.66594e-06 3.69386e-06 0.000296233
0.000593907 6.58188e-06 -7.83376e-07
6.58188e-06 3.93349e-05 -2.4401e-06
-7.83376e-07 -2.4401e-06 -7.94496e-05
0.000574688 -7.21388e-05 5.6244e-07
-7.21388e-05 2.46133e-05 -3.65225e-06
5.6244e-07 -3.65225e-06 -0.000100173
0.000575778 -9.36394e-05 -1.00766e-06
-9.36394e-05 7.61339e-05 3.95177e-06
-1.00766e-06 3.95177e-06 -7.82018e-05
0.000424051 -0.000122089 1.69663e-06
-0.000122089 0.000158837 -6.35241e-06
1.69663e-06 -6.35241e-06 -0.000222372
0.000715301 -0.000315636 2.9525e-05
-0.000315636 -0.00261229 -5.31447e-06
2.9525e-05 -5.31447e-06 -0.00306323
0.00134493 8.66451e-05 6.99417e-07
8.66451e-05 0.000459184 -3.54192e-06
6.99417e-07 -3.54192e-06 0.000337251
0.00045515 0.000144824 2.63239e-06
0.000144824 -7.40927e-05 2.14785e-07
2.63239e-06 2.14785e-07 -0.000244817
0.00193685 0.00016428 3.95399e-05
0.00016428 0.000107116 6.16683e-06
3.95399e-05 6.16683e-06 0.000122714
0.0020922 0.000390879 1.40906e-05
0.000390879 0.000217414 6.39586e-06
1.40906e-05 6.39586e-06 0.000100368
0.00175785 0.000409506 5.18711e-06
0.000409506 0.000294005 6.42467e-06
5.18711e-06 6.42467e-06 3.09283e-05
0.00086037 0.000246683 4.5359e-06
0.000246683 4.71841e-05 2.41736e-06
4.5359e-06 2.41736e-06 -0.000206072
0.00286089 0.000430193 5.47956e-05
0.000430193 0.000133521 1.87422e-05
5.47956e-05 1.87422e-05 -0.000277501
0.00126269 0.000145003 1.92271e-06
0.000145003 0.000437999 -2.00977e-07
1.92271e-06 -2.00977e-07 0.000290611
0.00239203 0.00031249 -1.03682e-05
0.00031249 0.00037968 -1.12106e-06
-1.03682e-05 -1.12106e-06 0.000390713
0.00106229 0.000231923 1.08942e-06
0.000231923 0.000240515 7.60132e-08
1.08942e-06 7.60132e-08 5.54055e-05
0.00124403 0.000325783 1.30784e-06
0.000325783 0.000177311 -8.52758e-07
1.30784e-06 -8.52758e-07 -8.52625e-05
0.00133857 0.000457304 -5.20529e-06
0.000457304 -0.000104475 -1.31118e-06
-5.20529e-06 -1.31118e-06 -0.000300059
0.00318831 -0.000216531 -9.52651e-05
-0.000216531 -0.00134011 -3.07558e-05
-9.52651e-05 -3.07558e-05 -0.00230201
0.00517482 0.000537775 -1.30122e-05
0.000537775 0.000452712 -3.01551e-05
-1.30122e-05 -3.01551e-05 -0.000115432
0.000298488 0.000355663 -4.63009e-06
0.000355663 -0.000501149 8.21094e-06
-4.63009e-06 8.21094e-06 -0.000726258
-0.00113026 -0.000444264 0.000131786
-0.000444264 0.000901111 5.23808e-05
0.000131786 5.23808e-05 -0.000312872
1.29871e-05 -0.00182944 -8.29086e-05
-0.00182944 -0.00116135 -0.000101094
-8.29086e-05 -0.000101094 0.000560575
0.00108942 0.000168674 -4.1697e-06
0.000168674 0.000327615 -3.02034e-06
-4.1697e-06 -3.02034e-06 0.000194015
0.000396759 0.000349265 0.000128723
0.000349265 0.00139338 -2.20279e-05
0.000128723 -2.20279e-05 0.00039523
0.00117888 -0.000601079 -8.30618e-05
-0.000601079 0.00202393 -0.000141732
-8.30618e-05 -0.000141732 0.000754414
0.0026695 0.000455013 -2.67365e-05
0.000455013 0.000578384 -1.09152e-05
-2.67365e-05 -1.09152e-05 0.000598142
0.00102052 0.000159774 -1.10277e-05
0.000159774 0.000209248 -1.77531e-06
-1.10277e-05 -1.77531e-06 2.15629e-05
-3.97407e-05 0.000379516 -1.66069e-05
0.000379516 -0.000530937 -1.4037e-05
-1.66069e-05 -1.4037e-05 -0.000809014
0.00015983 0.000406005 3.03424e-05
0.000406005 -0.000603676 6.20309e-05
3.03424e-05 6.20309e-05 -0.000724537
0.0108665 0.000547899 -2.63643e-05
0.000547899 0.003462 -3.0017e-05
-2.63643e-05 -3.0017e-05 0.00198419
0.0032367 0.000869359 1.04829e-05
0.000869359 0.00069471 1.02743e-05
1.04829e-05 1.02743e-05 -0.000443506
0.00217492 -0.00160113 0.000200649
-0.00160113 -0.000301783 0.000153711
0.000200649 0.000153711 2.25328e-05
0.00418118 -0.000901781 -1.3384e-06
-0.000901781 -0.00109018 0.000202004
-1.3384e-06 0.000202004 0.000254414
0.000681556 1.02208e-05 1.07808e-06
1.02208e-05 9.50296e-05 -7.2828e-07
1.07808e-06 -7.2828e-07 1.13274e-06
0.000819224 7.00111e-05 1.37627e-06
7.00111e-05 0.000161579 8.24883e-07
1.37627e-06 8.24883e-07 6.31496e-05
0.00140256 0.000126927 -2.41913e-06
0.000126927 0.000509463 -2.72554e-06
-2.41913e-06 -2.72554e-06 0.00042047
0.000655111 4.3722e-06 5.30753e-07
4.3722e-06 5.79179e-05 -5.12603e-07
5.30753e-07 -5.12603e-07 -3.3428e-05
0.000752108 3.10687e-05 -1.96767e-08
3.10687e-05 0.000109087 -1.34064e-06
-1.96767e-08 -1.34064e-06 1.85837e-06
0.000572322 -1.13145e-05 -1.0889e-06
-1.13145e-05 -8.78721e-06 -4.28739e-07
-1.0889e-06 -4.28739e-07 -0.000107835
0.000809485 3.73422e-05 -5.99599e-07
3.73422e-05 0.000125832 6.47981e-07
-5.99599e-07 6.47981e-07 2.75983e-05
0.000714187 1.6029e-05 -5.90308e-08
1.6029e-05 6.018e-05 9.54605e-07
-5.90308e-08 9.54605e-07 -2.64567e-05
0.000500493 -8.70595e-07 3.11437e-07
-8.70595e-07 -4.40448e-05 7.4159e-07
3.11437e-07 7.4159e-07 -0.000131887
0.000836578 2.81141e-05 1.63315e-07
2.81141e-05 0.000143105 2.95497e-07
1.63315e-07 2.95497e-07 4.11596e-05
0.000826418 2.57178e-05 1.03261e-07
2.57178e-05 0.000137113 3.00217e-07
1.03261e-07 3.00217e-07 3.22435e-05
0.000714165 1.89982e-05 5.74179e-07
1.89982e-05 8.96971e-05 -3.51182e-07
5.74179e-07 -3.51182e-07 -2.08312e-05
0.000546732 3.68936e-05 -2.05433e-07
3.68936e-05 -2.17496e-05 -2.01495e-07
-2.05433e-07 -2.01495e-07 -0.000113123
0.00106516 4.03354e-05 -1.35578e-07
4.03354e-05 0.000271467 -1.20899e-06
-1.35578e-07 -1.20899e-06 0.000175503
0.000186335 4.08442e-05 -1.38105e-06
4.08442e-05 -0.0002058 -3.56214e-06
-1.38105e-06 -3.56214e-06 -0.000302298
0.00077656 -7.21326e-05 -1.23479e-07
-7.21326e-05 0.000108575 4.68289e-07
-1.23479e-07 4.68289e-07 -1.26557e-06
0.000795615 -5.54449e-05 -9.30236e-07
-5.54449e-05 0.000140683 -7.82934e-07
-9.30236e-07 -7.82934e-07 2.4918e-05
0.000817846 -2.23485e-05 -5.43412e-07
-2.23485e-05 0.00015327 -3.56387e-07
-5.43412e-07 -3.56387e-07 4.15276e-05
0.000826839 1.73743e-05 -5.08668e-07
1.73743e-05 0.00014409 -2.89068e-07
-5.08668e-07 -2.89068e-07 4.52254e-05
0.000867212 9.29965e-06 -1.81043e-06
9.29965e-06 0.000185601 -2.14498e-06
-1.81043e-06 -2.14498e-06 6.43746e-05
0.000743473 2.53414e-05 6.48092e-07
2.53414e-05 0.000103605 -8.15379e-07
6.48092e-07 -8.15379e-07 3.98868e-06
0.000329929 -9.01889e-06 3.2522e-07
-9.01889e-06 -0.000153563 -1.66779e-06
3.2522e-07 -1.66779e-06 -0.000240352
0.000631165 1.76801e-05 8.19807e-07
1.76801e-05 3.82107e-05 2.68812e-07
8.19807e-07 2.68812e-07 -5.94917e-05
0.000674846 -3.17062e-05 -4.89499e-08
-3.17062e-05 5.65343e-05 3.27453e-07
-4.89499e-08 3.27453e-07 -3.03628e-05
0.00072337 -3.0549e-05 -2.27905e-07
-3.0549e-05 9.68942e-05 -1.78867e-08
-2.27905e-07 -1.78867e-08 -1.69056e-06
0.000684194 -3.81828e-05 -1.69224e-06
-3.81828e-05 4.9646e-05 9.88669e-07
-1.69224e-06 9.88669e-07 -2.25177e-05
0.000723435 -2.2786e-05 1.43233e-06
-2.2786e-05 8.13253e-05 -4.20767e-07
1.43233e-06 -4.20767e-07 -1.27439e-05
0.000638977 -6.7118e-05 -1.22092e-08
-6.7118e-05 3.06347e-05 1.62526e-07
-1.22092e-08 1.62526e-07 -5.07325e-05
0.000655645 -5.91024e-06 -1.68951e-06
-5.91024e-06 1.99981e-05 2.22873e-06
-1.68951e-06 2.22873e-06 -2.87277e-05
0.000529978 -4.27084e-06 1.06379e-06
-4.27084e-06 -2.1256e-05 -5.675e-07
1.06379e-06 -5.675e-07 -0.00011254
0.000624452 5.58279e-06 9.0962e-07
5.58279e-06 8.11056e-06 -2.10854e-08
9.0962e-07 -2.10854e-08 -4.23157e-05
0.00137267 1.58913e-05 -2.7047e-06
1.58913e-05 0.000423226 5.24639e-06
-2.7047e-06 5.24639e-06 0.000412694
0.000618424 2.54901e-05 -2.62192e-07
2.54901e-05 6.32127e-06 -1.89688e-06
-2.62192e-07 -1.89688e-06 -4.35784e-05
0.000979208 8.14537e-06 -1.57822e-06
8.14537e-06 0.000191352 8.05509e-07
-1.57822e-06 8.05509e-07 0.000179073
0.000850264 3.72126e-06 -3.7548e-06
3.72126e-06 0.00011508 5.01278e-06
-3.7548e-06 5.01278e-06 0.00012362
0.00059953 2.07331e-06 9.70348e-08
2.07331e-06 -3.25844e-05 -3.67972e-06
9.70348e-08 -3.67972e-06 -4.64903e-05
0.00232678 2.12589e-07 4.0722e-06
2.12589e-07 0.000982486 -5.52678e-09
4.0722e-06 -5.52678e-09 0.000999059
0.000865485 -3.41168e-06 -3.9304e-06
-3.41168e-06 0.000123809 -5.07865e-06
-3.9304e-06 -5.07865e-06 0.000132824
0.000671419 6.63883e-05 1.55817e-06
6.63883e-05 6.62215e-05 -3.20879e-07
1.55817e-06 -3.20879e-07 -1.18923e-05
0.000633255 1.77013e-05 -9.10383e-07
1.77013e-05 8.70606e-06 -1.84658e-06
-9.10383e-07 -1.84658e-06 -2.84296e-05
0.00063151 -5.17817e-06 8.24839e-07
-5.17817e-06 5.47778e-06 1.08709e-08
8.24839e-07 1.08709e-08 -3.14885e-05
0.000618698 8.13137e-06 1.51097e-07
8.13137e-06 -2.51793e-05 -3.27647e-06
1.51097e-07 -3.27647e-06 -3.14774e-05
0.000654004 -2.47984e-05 -1.59012e-06
-2.47984e-05 1.63776e-05 1.74717e-06
-1.59012e-06 1.74717e-06 -2.19619e-05
0.000593269 1.41181e-05 1.24493e-08
1.41181e-05 -3.9409e-05 -7.57773e-07
1.24493e-08 -7.57773e-07 -4.6101e-05
0.00203865 2.4909e-05 7.79661e-06
2.4909e-05 0.000816598 -4.51537e-06
7.79661e-06 -4.51537e-06 0.00083526
0.00120077 3.04873e-05 -7.83527e-07
3.04873e-05 0.000321577 1.98688e-06
-7.83527e-07 1.98688e-06 0.000316151
0.00148636 3.21344e-05 1.81162e-07
3.21344e-05 0.000496011 1.43122e-06
1.81162e-07 1.43122e-06 0.000509333
0.0009168 3.54666e-05 -1.46554e-05
3.54666e-05 0.000166642 7.21103e-06
-1.46554e-05 7.21103e-06 0.000174129
0.00168881 0.000109021 6.04129e-05
0.000109021 -0.000479825 1.50567e-05
6.04129e-05 1.50567e-05 -0.000466676
0.00186875 -9.67707e-06 2.01797e-06
-9.67707e-06 -2.65754e-05 3.18302e-07
2.01797e-06 3.18302e-07 -2.18632e-05
0.0019452 5.40135e-05 3.25269e-05
5.40135e-05 0.000239667 -7.27313e-06
3.25269e-05 -7.27313e-06 0.000260007
0.00115391 8.24731e-05 -8.77301e-06
8.24731e-05 -0.00101343 -7.19186e-06
-8.77301e-06 -7.19186e-06 -0.00101453
0.00184196 3.64502e-05 1.6042e-05
3.64502e-05 -0.000186943 1.10323e-06
1.6042e-05 1.10323e-06 -0.000141325
0.00233956 -1.34697e-05 -3.83262e-07
-1.34697e-05 0.000365828 -1.67422e-06
-3.83262e-07 -1.67422e-06 0.000348979
0.00334563 -6.00977e-05 -5.89651e-05
-6.00977e-05 0.000765719 4.2396e-06
-5.89651e-05 4.2396e-06 0.000749521
0.0032135 -7.33888e-05 0.000112667
-7.33888e-05 0.000494599 -5.1372e-06
0.000112667 -5.1372e-06 0.000306152
0.00912726 -0.000353775 7.98516e-06
-0.000353775 0.0022164 2.52558e-05
7.98516e-06 2.52558e-05 0.000878334
0.00789372 0.00146126 0.000281032
0.00146126 0.00382987 -0.000124283
0.000281032 -0.000124283 0.00384906
0.00410755 0.00153322 -1.43919e-06
0.00153322 0.00286398 1.57783e-05
-1.43919e-06 1.57783e-05 0.00360742
0.000425838 -7.71227e-05 2.40628e-06
-7.71227e-05 -7.26491e-05 -3.69778e-07
2.40628e-06 -3.69778e-07 -0.00016202
0.000682686 -9.88825e-06 1.27953e-06
-9.88825e-06 6.77585e-05 -1.49585e-07
1.27953e-06 -1.49585e-07 -4.70109e-06
0.000709736 -7.28666e-05 -1.56869e-06
-7.28666e-05 8.83257e-05 1.44122e-06
-1.56869e-06 1.44122e-06 1.13663e-05
0.000637603 -3.23668e-05 -3.65102e-07
-3.23668e-05 4.50124e-05 2.34938e-07
-3.65102e-07 2.34938e-07 -4.29038e-05
0.0007197 7.07481e-05 -8.88558e-08
7.07481e-05 0.000109892 1.17215e-06
-8.88558e-08 1.17215e-06 3.05316e-06
0.000796857 0.000120572 1.39316e-06
0.000120572 0.00014543 1.90334e-06
1.39316e-06 1.90334e-06 3.80354e-05
0.000775906 -6.95875e-06 1.94372e-06
-6.95875e-06 0.000135076 -1.75852e-06
1.94372e-06 -1.75852e-06 3.68636e-05
0.000618947 -2.88487e-05 -6.99857e-07
-2.88487e-05 4.1317e-05 6.93267e-07
-6.99857e-07 6.93267e-07 -5.11085e-05
0.00211481 -0.000160294 4.03095e-06
-0.000160294 0.000108195 1.45842e-06
4.03095e-06 1.45842e-06 0.000122196
0.00181664 -0.000241769 5.43236e-06
-0.000241769 -0.000116934 -1.85511e-06
5.43236e-06 -1.85511e-06 -0.000102511
0.00162825 -0.000409223 2.37361e-06
-0.000409223 -7.2339e-05 3.02683e-06
2.37361e-06 3.02683e-06 -0.000191313
0.00122473 -0.000326666 7.8189e-06
-0.000326666 0.000254068 4.02376e-06
7.8189e-06 4.02376e-06 1.33795e-05
0.00186157 -0.000469406 4.94789e-06
-0.000469406 0.000320523 -3.70743e-07
4.94789e-06 -3.70743e-07 0.000103439
0.00150507 -0.000363036 5.64286e-07
-0.000363036 0.000620826 7.37281e-07
5.64286e-07 7.37281e-07 0.000303621
0.00176125 -0.000218048 -6.45588e-07
-0.000218048 0.000733413 -1.15935e-06
-6.45588e-07 -1.15935e-06 0.000490315
0.000737868 -0.000108866 8.83955e-07
-0.000108866 9.64643e-05 -7.33446e-07
8.83955e-07 -7.33446e-07 -4.77085e-05
0.000726709 -2.28755e-05 -1.15741e-07
-2.28755e-05 0.000103241 2.30263e-06
-1.15741e-07 2.30263e-06 2.93188e-06
0.000923706 -2.58984e-05 -1.22112e-07
-2.58984e-05 0.000212628 -4.79902e-06
-1.22112e-07 -4.79902e-06 9.59626e-05
0.00094457 -1.81505e-05 1.11838e-06
-1.81505e-05 0.000232718 7.59502e-07
1.11838e-06 7.59502e-07 0.00013587
0.000702203 0.000117695 2.54164e-06
0.000117695 9.91623e-05 3.22988e-06
2.54164e-06 3.22988e-06 -1.64622e-06
0.00183858 -0.000186054 -3.44925e-07
-0.000186054 -6.50783e-05 7.7761e-07
-3.44925e-07 7.7761e-07 -1.17914e-05
0.00070397 2.2614e-05 -1.50284e-06
2.2614e-05 0.000104558 2.62314e-07
-1.50284e-06 2.62314e-07 -1.35272e-05
0.000828747 -7.4367e-05 -1.45185e-06
-7.4367e-05 0.000166318 7.80897e-07
-1.45185e-06 7.80897e-07 4.80288e-05
0.00172217 -0.000344167 1.20116e-06
-0.000344167 -0.000132966 -1.60142e-06
1.20116e-06 -1.60142e-06 -0.000128602
0.00161272 -0.000483611 2.55918e-07
-0.000483611 9.47547e-06 1.82115e-06
2.55918e-07 1.82115e-06 -0.000159928
0.0014671 -0.000412799 -1.74948e-07
-0.000412799 0.000290927 -1.60662e-06
-1.74948e-07 -1.60662e-06 6.13995e-05
0.00088851 -0.000118704 5.25062e-07
-0.000118704 0.000250521 -2.87004e-06
5.25062e-07 -2.87004e-06 7.90635e-05
0.00100867 -0.000170294 -3.40008e-07
-0.000170294 0.0004516 3.73359e-07
-3.40008e-07 3.73359e-07 9.78167e-05
0.00322079 -0.000298197 -2.59466e-05
-0.000298197 0.000705429 4.77078e-06
-2.59466e-05 4.77078e-06 0.000693328
0.00272631 -0.000485659 -2.99036e-05
-0.000485659 0.00049065 5.23721e-06
-2.99036e-05 5.23721e-06 0.000491125
0.00151957 -0.000519624 -8.70151e-06
-0.000519624 6.79081e-05 2.15744e-06
-8.70151e-06 2.15744e-06 -0.000103436
0.000368696 -0.000292565 -5.65522e-06
-0.000292565 -0.00016165 1.71611e-05
-5.65522e-06 1.71611e-05 -0.000400066
0.000659494 -0.00012101 1.79382e-06
-0.00012101 7.74817e-05 -1.19065e-07
1.79382e-06 -1.19065e-07 -5.4755e-05
0.000542448 -8.89404e-05 2.28611e-06
-8.89404e-05 3.68094e-05 -3.71533e-06
2.28611e-06 -3.71533e-06 -0.000107456
0.00105733 -6.22346e-05 3.62118e-07
-6.22346e-05 0.000468498 -5.91949e-06
3.62118e-07 -5.91949e-06 0.000166485
-0.00455484 -5.50579e-05 0.000244537
-5.50579e-05 -0.00291976 1.64657e-06
0.000244537 1.64657e-06 -0.0021665
0.00967138 -0.000122462 -9.09971e-06
-0.000122462 0.00286916 -2.15671e-07
-9.09971e-06 -2.15671e-07 0.00219926
0.00145011 0.000125733 3.77702e-06
0.000125733 0.000539327 -1.51627e-06
3.77702e-06 -1.51627e-06 0.000399598
0.000827405 0.000211607 2.99709e-06
0.000211607 0.00012088 -2.04449e-06
2.99709e-06 -2.04449e-06 -6.16762e-05
0.00204278 0.000286162 3.31696e-05
0.000286162 0.000175958 2.08811e-05
3.31696e-05 2.08811e-05 0.000205509
0.00245291 0.000540359 9.62346e-06
0.000540359 0.000462819 7.51224e-06
9.62346e-06 7.51224e-06 0.000270109
0.00170168 0.000377309 7.75451e-06
0.000377309 0.000436038 1.53293e-06
7.75451e-06 1.53293e-06 0.000166616
0.00969036 0.000453159 4.21571e-05
0.000453159 0.00245651 8.95988e-06
4.21571e-05 8.95988e-06 0.00135926
0.00732884 0.000812757 -0.000143551
0.000812757 0.0011748 -3.01672e-05
-0.000143551 -3.01672e-05 0.000690665
-0.000721721 0.000221832 6.11916e-07
0.000221832 -0.000907084 -1.81466e-05
6.11916e-07 -1.81466e-05 -0.00117442
0.00710289 -0.00118331 -6.02757e-05
-0.00118331 0.00346691 2.56576e-05
-6.02757e-05 2.56576e-05 0.00294921
-0.00744649 -0.00185602 -0.000466459
-0.00185602 -0.00362657 -0.000356802
-0.000466459 -0.000356802 -0.00187504
0.000934603 0.000161948 -3.34941e-07
0.000161948 0.000250029 -1.73001e-06
-3.34941e-07 -1.73001e-06 0.000115712
-0.0024028 -0.000545714 0.00010262
-0.000545714 -0.00192706 1.14459e-05
0.00010262 1.14459e-05 -0.0021043
-0.00222618 -0.00045652 -0.000118057
-0.00045652 0.000986153 -5.82375e-05
-0.000118057 -5.82375e-05 -0.000591349
0.00272739 0.000423161 -6.59474e-06
0.000423161 0.000599168 -9.75993e-07
-6.59474e-06 -9.75993e-07 0.000630524
0.000855116 0.000188758 -2.02796e-06
0.000188758 0.000146645 9.07249e-07
-2.02796e-06 9.07249e-07 -5.5161e-05
0.000857215 0.000390725 3.28563e-06
0.000390725 -3.85503e-05 1.74191e-06
3.28563e-06 1.74191e-06 -0.000308893
0.0010721 0.000345743 1.3004e-05
0.000345743 -1.0685e-05 1.22193e-05
1.3004e-05 1.22193e-05 -3.61568e-05
0.00782253 0.000409889 -4.44938e-05
0.000409889 0.00134592 -2.5177e-05
-4.44938e-05 -2.5177e-05 -0.000382552
0.00634687 0.00117047 -5.12882e-05
0.00117047 0.00165271 -2.05013e-05
-5.12882e-05 -2.05013e-05 0.000872574
0.00896735 -0.00139479 0.000101072
-0.00139479 0.00420633 -4.35758e-05
0.000101072 -4.35758e-05 0.00414205
0.00346049 -0.00108997 0.000119158
-0.00108997 -0.00165637 0.000249909
0.000119158 0.000249909 -0.000309848
0.00146126 0.000145381 -1.32262e-05
0.000145381 0.000568838 -6.7053e-06
-1.32262e-05 -6.7053e-06 0.000451394
-0.00485422 0.000173423 -7.93642e-05
0.000173423 0.000640004 -4.51818e-05
-7.93642e-05 -4.51818e-05 -0.00154954
0.00275966 0.00021911 -0.00013073
0.00021911 0.00124426 -0.000184578
-0.00013073 -0.000184578 -0.000919868
0.000809305 0.00035244 -1.55696e-05
0.00035244 -0.000143566 4.46193e-06
-1.55696e-05 4.46193e-06 -0.00015044
0.00114796 0.000386365 -4.10757e-05
0.000386365 0.000379784 -1.40844e-05
-4.10757e-05 -1.40844e-05 0.000138774
0.00239098 0.000316778 -6.69735e-05
0.000316778 0.00116637 -6.4285e-06
-6.69735e-05 -6.4285e-06 0.000827386
0.0028278 0.00089222 -4.75658e-05
0.00089222 0.000318514 -1.53727e-05
-4.75658e-05 -1.53727e-05 -2.56638e-06
0.00115203 0.000563561 0.000132225
0.000563561 -1.24932e-05 9.87077e-05
0.000132225 9.87077e-05 -0.00250247
0.00935592 -0.00154014 4.36475e-05
-0.00154014 0.00302659 0.00021393
4.36475e-05 0.00021393 0.00266285
0.00353023 -0.000698002 -2.68676e-05
-0.000698002 -0.00205311 -3.01807e-05
-2.68676e-05 -3.01807e-05 -0.000792735
0.000866545 8.72875e-05 3.00544e-06
8.72875e-05 0.000194664 3.13838e-06
3.00544e-06 3.13838e-06 9.03545e-05
0.0012159 0.000114934 4.87175e-06
0.000114934 0.000393988 2.6331e-06
4.87175e-06 2.6331e-06 0.000306657
0.000168604 4.85035e-05 2.2137e-06
4.85035e-05 -0.000168976 -3.22896e-06
2.2137e-06 -3.22896e-06 -0.000249148
0.000503702 4.44685e-05 1.13254e-06
4.44685e-05 -4.31658e-05 -1.6672e-07
1.13254e-06 -1.6672e-07 -0.000130429
0.000758306 4.77681e-05 -6.5764e-07
4.77681e-05 0.000121225 -1.26367e-06
-6.5764e-07 -1.26367e-06 7.82828e-06
0.000778797 -6.27847e-06 -3.32688e-07
-6.27847e-06 0.000109626 6.19456e-07
-3.32688e-07 6.19456e-07 5.29539e-06
0.000783551 -1.20822e-06 1.52276e-06
-1.20822e-06 0.000117946 -1.00326e-07
1.52276e-06 -1.00326e-07 1.31828e-05
0.000570793 3.01634e-05 1.99945e-07
3.01634e-05 -6.58756e-06 2.52538e-06
1.99945e-07 2.52538e-06 -9.64211e-05
0.000791172 4.13825e-05 -2.17956e-09
4.13825e-05 0.000138753 -7.51103e-07
-2.17956e-09 -7.51103e-07 2.26951e-05
0.000885097 3.38853e-05 -9.39838e-08
3.38853e-05 0.00016632 2.45521e-07
-9.39838e-08 2.45521e-07 6.99265e-05
0.000802197 -3.2693e-05 -2.94818e-07
-3.2693e-05 0.000125736 4.73783e-07
-2.94818e-07 4.73783e-07 1.42089e-05
0.000197121 3.46612e-05 4.95031e-08
3.46612e-05 -0.000189427 3.89911e-07
4.95031e-08 3.89911e-07 -0.000284888
-0.000265034 2.01062e-05 -2.56932e-06
2.01062e-05 -0.000344035 -2.31149e-06
-2.56932e-06 -2.31149e-06 -0.000448815
0.000922694 -3.28768e-06 -2.39765e-06
-3.28768e-06 0.000197863 -2.61018e-06
-2.39765e-06 -2.61018e-06 9.18783e-05
0.000933233 8.4651e-06 -4.8837e-07
8.4651e-06 0.000220528 -1.11967e-06
-4.8837e-07 -1.11967e-06 8.85983e-05
0.000820449 -5.20892e-05 2.76102e-08
-5.20892e-05 0.000158199 -7.32475e-07
2.76102e-08 -7.32475e-07 4.33402e-05
0.000879188 -1.97341e-05 -2.75208e-07
-1.97341e-05 0.000168595 1.00681e-06
-2.75208e-07 1.00681e-06 7.26616e-05
0.000844468 -4.34562e-05 2.51817e-07
-4.34562e-05 0.000162669 -5.4707e-07
2.51817e-07 -5.4707e-07 4.78306e-05
0.000773951 1.95995e-05 -2.61767e-07
1.95995e-05 0.00011805 -1.08833e-07
-2.61767e-07 -1.08833e-07 1.9445e-05
0.000532649 -3.55876e-05 2.83083e-09
-3.55876e-05 -3.43187e-05 6.83387e-07
2.83083e-09 6.83387e-07 -0.000122327
0.000655343 2.63696e-05 7.63308e-07
2.63696e-05 5.24087e-05 6.72809e-07
7.63308e-07 6.72809e-07 -4.38821e-05
0.000485502 -1.1005e-05 -8.45597e-07
-1.1005e-05 -3.78949e-05 -3.12348e-06
-8.45597e-07 -3.12348e-06 -0.000144973
0.000531371 -2.6628e-05 1.45265e-06
-2.6628e-05 -3.19676e-05 -8.39981e-07
1.45265e-06 -8.39981e-07 -0.000118592
0.000802144 -1.38427e-05 3.18851e-06
-1.38427e-05 0.000106578 -4.26323e-06
3.18851e-06 -4.26323e-06 1.17323e-05
0.000151843 -4.0894e-05 8.78776e-07
-4.0894e-05 -0.000224378 5.62749e-07
8.78776e-07 5.62749e-07 -0.000369717
0.000330357 1.93939e-05 -4.18708e-07
1.93939e-05 -0.000123485 -8.03515e-07
-4.18708e-07 -8.03515e-07 -0.000228262
0.000729494 1.08304e-05 2.61101e-07
1.08304e-05 9.36776e-05 3.89613e-07
2.61101e-07 3.89613e-07 -5.37106e-06
0.000661148 2.89827e-06 -1.29689e-07
2.89827e-06 4.96279e-05 4.96044e-07
-1.29689e-07 4.96044e-07 -3.76084e-05
0.000729212 -1.55383e-05 -9.25292e-08
-1.55383e-05 9.89966e-05 -3.0048e-08
-9.25292e-08 -3.0048e-08 4.12843e-06
0.000621923 7.36987e-06 -6.33262e-07
7.36987e-06 2.0094e-05 8.61377e-07
-6.33262e-07 8.61377e-07 -5.38081e-05
0.000771267 -1.26921e-05 3.09795e-07
-1.26921e-05 0.000122711 -9.52371e-08
3.09795e-07 -9.52371e-08 2.53127e-05
0.000695204 -3.55852e-05 -3.49795e-07
-3.55852e-05 6.28341e-05 6.69721e-08
-3.49795e-07 6.69721e-08 -1.38466e-05
0.000608082 4.08413e-05 -7.16313e-07
4.08413e-05 -7.57636e-06 2.16987e-06
-7.16313e-07 2.16987e-06 -5.76368e-05
0.000587001 -5.84286e-05 1.43142e-06
-5.84286e-05 -4.1082e-06 -9.07996e-07
1.43142e-06 -9.07996e-07 -8.38731e-05
0.000632652 7.97348e-06 -2.54317e-07
7.97348e-06 7.00885e-06 -2.49865e-08
-2.54317e-07 -2.49865e-08 -4.18314e-05
0.00137134 2.50881e-05 -4.68644e-06
2.50881e-05 0.000422738 5.32396e-06
-4.68644e-06 5.32396e-06 0.000411879
0.000623802 -1.2619e-05 7.84522e-07
-1.2619e-05 6.77074e-06 -1.92271e-06
7.84522e-07 -1.92271e-06 -4.29788e-05
0.000971698 1.47788e-05 -2.51776e-06
1.47788e-05 0.000187066 7.5159e-07
-2.51776e-06 7.5159e-07 0.000174754
0.000789062 1.4576e-05 -2.77142e-07
1.4576e-05 7.92315e-05 1.97509e-06
-2.77142e-07 1.97509e-06 8.77434e-05
0.000583856 5.92304e-06 4.78996e-07
5.92304e-06 -4.17729e-05 -3.70558e-06
4.78996e-07 -3.70558e-06 -5.58602e-05
0.00233765 1.30356e-05 3.7323e-06
1.30356e-05 0.000989432 4.43439e-08
3.7323e-06 4.43439e-08 0.00100571
0.00233446 1.88781e-06 -4.52152e-07
1.88781e-06 0.000987068 -5.1913e-06
-4.52152e-07 -5.1913e-06 0.00100353
0.000997532 7.09632e-05 -1.29093e-06
7.09632e-05 0.000250315 -1.23556e-06
-1.29093e-06 -1.23556e-06 0.000175277
0.000641844 2.76897e-05 -1.0049e-06
2.76897e-05 1.54596e-05 -2.078e-06
-1.0049e-06 -2.078e-06 -2.38568e-05
0.000666818 -5.48346e-06 6.91248e-07
-5.48346e-06 6.18429e-05 8.64943e-07
6.91248e-07 8.64943e-07 -1.49704e-05
0.000620323 2.54075e-06 4.738e-08
2.54075e-06 -2.49324e-05 -3.40249e-06
4.738e-08 -3.40249e-06 -3.11719e-05
0.000632701 -7.72825e-06 2.35801e-07
-7.72825e-06 8.39745e-06 -3.09727e-08
2.35801e-07 -3.09727e-08 -2.87826e-05
0.000641118 -2.4141e-05 -1.36695e-06
-2.4141e-05 1.14328e-05 1.55902e-06
-1.36695e-06 1.55902e-06 -2.59461e-05
0.000606446 7.9864e-06 -1.87206e-07
7.9864e-06 -3.24392e-05 -2.3142e-08
-1.87206e-07 -2.3142e-08 -3.86772e-05
0.0020343 1.27832e-05 3.39824e-06
1.27832e-05 0.00081158 -4.66451e-06
3.39824e-06 -4.66451e-06 0.000830989
0.00118551 2.02295e-05 -6.86569e-07
2.02295e-05 0.000309338 1.98399e-06
-6.86569e-07 1.98399e-06 0.000305835
0.00142162 2.14509e-05 1.27215e-06
2.14509e-05 0.000452966 4.27554e-08
1.27215e-06 4.27554e-08 0.000468245
0.000871214 2.54463e-05 -1.34216e-05
2.54463e-05 0.000133558 7.10461e-06
-1.34216e-05 7.10461e-06 0.000144081
-0.00771224 0.000292451 0.000181226
0.000292451 -0.00343513 1.16158e-06
0.000181226 1.16158e-06 -0.00414302
-0.00195952 0.000104727 0.000198781
0.000104727 0.00136135 1.33017e-05
0.000198781 1.33017e-05 0.000102909
0.00395978 0.000208807 -0.000199297
0.000208807 0.000266538 -5.42951e-06
-0.000199297 -5.42951e-06 0.000360447
0.000489664 3.38498e-05 3.34951e-05
3.38498e-05 -0.000846434 -7.06685e-06
3.34951e-05 -7.06685e-06 -0.000849253
0.00138368 -2.24537e-05 1.8469e-05
-2.24537e-05 -0.000251806 -5.89744e-07
1.8469e-05 -5.89744e-07 -0.000265878
0.000522001 4.87444e-05 3.55764e-06
4.87444e-05 -0.000704103 -4.96987e-06
3.55764e-06 -4.96987e-06 -0.000706536
0.00248387 -9.64983e-05 2.8791e-07
-9.64983e-05 0.000239701 3.45655e-06
2.8791e-07 3.45655e-06 0.000205562
0.00831156 0.000133547 3.90129e-05
0.000133547 0.00148788 -2.91774e-05
3.90129e-05 -2.91774e-05 0.000477741
-0.00342556 0.000841208 -3.18169e-05
0.000841208 -0.000969442 -8.60081e-06
-3.18169e-05 -8.60081e-06 -0.00190216
-0.00164234 0.00164325 -9.47229e-05
0.00164325 -0.00036578 4.43009e-05
-9.47229e-05 4.43009e-05 0.000967551
0.00147356 -0.000203011 5.55225e-05
-0.000203011 -0.000671793 4.46743e-06
5.55225e-05 4.46743e-06 -0.000853403
0.0113653 -0.000173577 7.43701e-05
-0.000173577 0.00336394 -2.94365e-05
7.43701e-05 -2.94365e-05 0.00195671
0.00199836 0.00157003 0.000114783
0.00157003 -0.000126356 -0.000211156
0.000114783 -0.000211156 0.000413597
0.00552747 0.00117994 -0.000147824
0.00117994 0.000405942 0.000100771
-0.000147824 0.000100771 0.000775883
0.000713359 7.07736e-05 -1.17304e-06
7.07736e-05 0.000114562 2.32713e-07
-1.17304e-06 2.32713e-07 -6.19293e-06
0.000559148 1.25216e-05 -2.40009e-07
1.25216e-05 1.28087e-06 -7.26792e-07
-2.40009e-07 -7.26792e-07 -8.52581e-05
0.000694148 -8.18585e-05 -1.15476e-06
-8.18585e-05 7.87622e-05 1.08187e-06
-1.15476e-06 1.08187e-06 2.63924e-06
0.000574658 -1.95933e-06 1.34739e-07
-1.95933e-06 1.40585e-05 3.8838e-07
1.34739e-07 3.8838e-07 -7.811e-05
0.000697139 6.47866e-05 9.18991e-07
6.47866e-05 0.000101648 1.47687e-06
9.18991e-07 1.47687e-06 -5.70184e-06
0.000861944 7.50829e-05 -3.39711e-09
7.50829e-05 0.000193055 1.06817e-07
-3.39711e-09 1.06817e-07 7.23334e-05
0.000762001 8.64247e-05 1.66039e-06
8.64247e-05 0.000131392 1.7433e-06
1.66039e-06 1.7433e-06 2.13738e-05
0.000688992 6.79771e-06 1.85799e-06
6.79771e-06 7.48038e-05 -3.37038e-07
1.85799e-06 -3.37038e-07 -2.98105e-05
0.000670583 -1.66941e-05 6.40331e-07
-1.66941e-05 7.59785e-05 -9.9605e-07
6.40331e-07 -9.9605e-07 -2.56862e-05
0.000544655 -8.77895e-06 -6.87839e-07
-8.77895e-06 -9.69799e-06 6.1627e-07
-6.87839e-07 6.1627e-07 -9.66467e-05
0.0014918 -0.000174789 1.51064e-05
-0.000174789 -0.000210032 -9.51227e-07
1.51064e-05 -9.51227e-07 -0.000162742
0.00152879 -0.000341058 1.84936e-05
-0.000341058 -0.000223787 -4.32558e-06
1.84936e-05 -4.32558e-06 -0.000233876
0.000188109 -0.000373205 1.42053e-05
-0.000373205 -0.000739629 2.46182e-06
1.42053e-05 2.46182e-06 -0.000880631
0.000918262 -0.000370946 2.24589e-06
-0.000370946 5.29167e-06 -2.95284e-07
2.24589e-06 -2.95284e-07 -0.000231773
0.00163261 -0.00020572 1.57047e-07
-0.00020572 0.000764653 8.24204e-06
1.57047e-07 8.24204e-06 0.000440587
0.00107649 -0.000161033 6.82636e-07
-0.000161033 0.000361889 1.1907e-07
6.82636e-07 1.1907e-07 0.000168965
0.00094092 -7.11399e-05 -7.5243e-07
-7.11399e-05 0.000220027 1.5751e-07
-7.5243e-07 1.5751e-07 0.000111666
0.000712693 3.316e-05 -1.52023e-06
3.316e-05 0.000110901 1.9452e-06
-1.52023e-06 1.9452e-06 -4.73894e-06
0.00174653 -0.000223694 2.03705e-06
-0.000223694 -5.47572e-05 -1.80543e-06
2.03705e-06 -1.80543e-06 -4.20751e-05
0.00065424 -5.37876e-05 -2.84621e-07
-5.37876e-05 7.79896e-05 -2.3461e-07
-2.84621e-07 -2.3461e-07 -5.62115e-05
0.000453913 -7.30403e-05 8.14628e-07
-7.30403e-05 -1.02437e-05 -1.36929e-06
8.14628e-07 -1.36929e-06 -0.00015819
0.00211426 -0.000455856 4.83559e-06
-0.000455856 0.000175608 -6.02181e-07
4.83559e-06 -6.02181e-07 0.000165569
0.00110295 -0.000485186 8.89622e-07
-0.000485186 -0.000145019 3.78111e-06
8.89622e-07 3.78111e-06 -0.000306086
0.000897965 -0.000365536 9.50455e-06
-0.000365536 0.000124753 -3.92156e-06
9.50455e-06 -3.92156e-06 -0.000136068
0.00144857 -0.000112038 -4.95409e-07
-0.000112038 0.00066195 -3.28464e-06
-4.95409e-07 -3.28464e-06 0.000377516
0.00118619 -0.00030913 -1.98943e-05
-0.00030913 -5.30047e-06 1.42672e-06
-1.98943e-05 1.42672e-06 -0.000252112
0.0011719 -0.000361989 -3.11624e-05
-0.000361989 -2.14009e-05 9.90754e-06
-3.11624e-05 9.90754e-06 -6.48901e-05
-0.000133604 -0.000212712 -2.10871e-05
-0.000212712 -0.000262127 3.83053e-05
-2.10871e-05 3.83053e-05 -0.000552682
0.000395219 2.86861e-05 2.51552e-07
2.86861e-05 -6.86208e-05 1.4715e-06
2.51552e-07 1.4715e-06 -0.000200717
0.000477677 -0.000105518 2.38696e-06
-0.000105518 -4.96469e-06 -1.15362e-06
2.38696e-06 -1.15362e-06 -0.000153095
0.000726086 -7.75267e-05 2.35024e-06
-7.75267e-05 0.000202547 -6.378e-06
2.35024e-06 -6.378e-06 -9.90126e-06
0.000334748 0.000169373 -0.000132012
0.000169373 0.00311953 1.75317e-06
-0.000132012 1.75317e-06 0.0016873
0.00195356 -0.000322153 1.81869e-05
-0.000322153 0.00145077 1.92259e-05
1.81869e-05 1.92259e-05 0.00133763
0.000496851 0.000601467 -6.16563e-05
0.000601467 -0.00283095 1.7296e-05
-6.16563e-05 1.7296e-05 -0.00342124
0.000714059 0.000146743 4.74063e-06
0.000146743 0.000137441 9.99901e-07
4.74063e-06 9.99901e-07 5.17311e-06
0.000677038 0.000216858 4.99996e-06
0.000216858 7.39859e-05 5.57106e-06
4.99996e-06 5.57106e-06 -0.00014041
0.00238547 0.000377579 1.93246e-05
0.000377579 0.00039075 1.12696e-05
1.93246e-05 1.12696e-05 0.000439621
0.00201514 0.000413151 1.68442e-05
0.000413151 0.000585583 1.25444e-05
1.68442e-05 1.25444e-05 0.00032006
0.00635978 -0.000643767 5.3757e-05
-0.000643767 0.0024442 3.32801e-05
5.3757e-05 3.32801e-05 0.0026011
0.00215262 -3.62866e-05 -0.000123508
-3.62866e-05 -0.00148718 -1.0437e-05
-0.000123508 -1.0437e-05 -0.0030622
0.00297826 0.00105651 -8.28541e-05
0.00105651 -0.000335317 -1.85414e-05
-8.28541e-05 -1.85414e-05 -0.00106248
0.000483776 0.000206333 2.60602e-05
0.000206333 -0.000152419 -2.11954e-05
2.60602e-05 -2.11954e-05 -0.000140815
-0.00363758 -0.000727663 -7.23467e-05
-0.000727663 -0.00111659 -0.000101186
-7.23467e-05 -0.000101186 -0.00145479
-0.000367009 -0.000688635 -6.24568e-05
-0.000688635 0.00108593 6.27016e-06
-6.24568e-05 6.27016e-06 -0.000507489
0.00810762 -0.00145141 0.000171495
-0.00145141 0.000773398 0.000135585
0.000171495 0.000135585 0.00218643
0.00065475 0.000108838 5.13802e-06
0.000108838 0.000129552 -2.5013e-06
5.13802e-06 -2.5013e-06 5.35916e-06
-0.00165948 4.33214e-06 -6.84935e-05
4.33214e-06 0.00163855 -2.11813e-05
-6.84935e-05 -2.11813e-05 -0.000218901
0.00314597 0.000247496 -1.44629e-05
0.000247496 0.00138656 -5.67133e-05
-1.44629e-05 -5.67133e-05 -0.000843655
0.00120333 0.000346772 -7.31788e-06
0.000346772 0.000107772 4.14248e-06
-7.31788e-06 4.14248e-06 5.37227e-05
0.000630715 0.000249605 -3.56207e-07
0.000249605 0.000127024 2.06931e-06
-3.56207e-07 2.06931e-06 -0.000108684
-0.000274528 0.000231139 2.95104e-05
0.000231139 -0.000301387 -3.35438e-05
2.95104e-05 -3.35438e-05 -0.000545377
0.00549124 0.00127487 -8.37939e-06
0.00127487 0.00180208 3.75502e-06
-8.37939e-06 3.75502e-06 0.00112364
0.010393 0.000568168 5.21828e-05
0.000568168 0.00369147 1.97751e-05
5.21828e-05 1.97751e-05 0.00181743
0.00307556 -0.000987381 1.68806e-05
-0.000987381 -0.000719052 -3.24905e-05
1.68806e-05 -3.24905e-05 -0.000948661
0.00824488 -0.000954229 8.9057e-06
-0.000954229 0.00103235 -2.7553e-05
8.9057e-06 -2.7553e-05 0.00222739
0.00116577 0.000201354 -1.33665e-05
0.000201354 0.000473043 -8.87773e-06
-1.33665e-05 -8.87773e-06 0.000350189
0.00251603 2.66503e-05 -9.28237e-05
2.66503e-05 0.000815671 -3.4058e-05
-9.28237e-05 -3.4058e-05 -0.000612312
0.000188966 7.41599e-05 -2.4495e-05
7.41599e-05 0.000246446 -8.38296e-05
-2.4495e-05 -8.38296e-05 -0.00124359
-0.000994514 4.65477e-05 -1.57284e-05
4.65477e-05 -0.000486731 -1.79178e-05
-1.57284e-05 -1.79178e-05 -0.000637922
0.00189837 0.000362904 -3.27656e-05
0.000362904 0.000777824 4.33191e-05
-3.27656e-05 4.33191e-05 0.000110655
0.00944987 0.000884539 3.40353e-05
0.000884539 0.00389133 -1.14083e-06
3.40353e-05 -1.14083e-06 0.00110247
-0.00683581 -0.001468 -3.86394e-05
-0.001468 -0.00390888 0.000101617
-3.86394e-05 0.000101617 -0.00570833
0.00659973 0.000341877 7.73062e-06
0.000341877 -0.000786278 -0.000140301
7.73062e-06 -0.000140301 0.000820607
0.000990696 9.44648e-05 2.39236e-06
9.44648e-05 0.000252301 6.32315e-06
2.39236e-06 6.32315e-06 0.000169978
0.000913416 0.000107938 -4.03699e-06
0.000107938 0.000266432 -9.36228e-07
-4.03699e-06 -9.36228e-07 0.000178041
0.000257395 6.31613e-05 -3.38609e-06
6.31613e-05 2.23101e-05 -2.38924e-07
-3.38609e-06 -2.38924e-07 -0.00010467
0.000798365 7.81078e-05 -2.21016e-06
7.81078e-05 0.000133265 -8.857e-07
-2.21016e-06 -8.857e-07 2.37553e-05
0.000854116 -3.06831e-05 -6.5003e-07
-3.06831e-05 0.000165495 4.86271e-07
-6.5003e-07 4.86271e-07 4.73935e-05
0.000687232 3.61256e-05 5.32086e-07
3.61256e-05 5.14436e-05 1.28619e-06
5.32086e-07 1.28619e-06 -4.61786e-05
0.000225857 2.96445e-05 1.43165e-06
2.96445e-05 -0.000161977 1.87927e-06
1.43165e-06 1.87927e-06 -0.000256903
0.00084262 -1.69259e-06 9.64491e-07
-1.69259e-06 0.00015202 1.2136e-07
9.64491e-07 1.2136e-07 3.20505e-05
0.000873767 1.80056e-05 7.9987e-08
1.80056e-05 0.000174479 -7.38009e-07
7.9987e-08 -7.38009e-07 6.67532e-05
0.000330271 -5.46622e-07 -4.4336e-07
-5.46622e-07 8.87676e-06 2.13415e-06
-4.4336e-07 2.13415e-06 -0.000105385
8.23622e-06 1.83666e-05 -5.78439e-06
1.83666e-05 -1.3089e-05 -1.14085e-06
-5.78439e-06 -1.14085e-06 -0.000156403
0.00087204 -1.19506e-05 -2.19987e-06
-1.19506e-05 0.000282544 -7.06012e-06
-2.19987e-06 -7.06012e-06 0.000172818
0.000962793 4.26606e-05 -1.17693e-06
4.26606e-05 0.000234515 -3.13736e-06
-1.17693e-06 -3.13736e-06 0.000112963
0.000864038 -9.27031e-05 1.46789e-06
-9.27031e-05 0.000163063 8.38167e-07
1.46789e-06 8.38167e-07 5.47458e-05
0.000772105 2.16121e-05 -4.14785e-07
2.16121e-05 0.000113908 -1.14649e-07
-4.14785e-07 -1.14649e-07 1.6729e-05
0.000698417 -4.30838e-05 -1.98971e-06
-4.30838e-05 6.27779e-05 2.4145e-06
-1.98971e-06 2.4145e-06 -2.48201e-05
0.000565969 -2.3063e-05 1.25692e-06
-2.3063e-05 -1.55405e-06 1.02905e-06
1.25692e-06 1.02905e-06 -0.00010167
0.000732664 2.26423e-05 3.14914e-07
2.26423e-05 9.78933e-05 1.28807e-07
3.14914e-07 1.28807e-07 5.54718e-08
0.000655071 -9.61759e-06 -7.17638e-07
-9.61759e-06 3.96091e-05 4.28759e-08
-7.17638e-07 4.28759e-08 -4.6626e-05
0.00091703 -3.01388e-06 -2.35652e-07
-3.01388e-06 0.000183993 -2.13589e-06
-2.35652e-07 -2.13589e-06 9.32821e-05
0.000202663 -3.00464e-05 2.75952e-06
-3.00464e-05 -0.000184883 -3.75267e-06
2.75952e-06 -3.75267e-06 -0.00026155
0.000381108 -8.635e-05 1.36448e-06
-8.635e-05 -0.00018208 -9.82604e-07
1.36448e-06 -9.82604e-07 -0.000277042
0.000889396 -3.98676e-05 -2.06234e-06
-3.98676e-05 0.000162505 -3.50695e-07
-2.06234e-06 -3.50695e-07 6.30761e-05
0.000470141 -8.05065e-05 4.06266e-06
-8.05065e-05 -5.34976e-05 2.2014e-06
4.06266e-06 2.2014e-06 -0.000188537
0.00112658 -0.000214782 -7.30551e-07
-0.000214782 0.000291675 6.28104e-06
-7.30551e-07 6.28104e-06 8.36886e-05
0.00123752 -9.30762e-05 1.64315e-06
-9.30762e-05 0.000404262 -1.37052e-06
1.64315e-06 -1.37052e-06 0.000278145
0.000333062 -6.27959e-05 -1.83406e-06
-6.27959e-05 -0.000107628 -4.06362e-06
-1.83406e-06 -4.06362e-06 -0.000251774
0.000642547 6.17401e-06 -3.08219e-07
6.17401e-06 4.95052e-05 -2.42145e-07
-3.08219e-07 -2.42145e-07 -5.33858e-05
0.00038184 8.55735e-06 4.65381e-07
8.55735e-06 -0.000101657 1.15611e-07
4.65381e-07 1.15611e-07 -0.000196587
0.000847178 -9.06059e-07 -2.09249e-07
-9.06059e-07 0.000160576 6.86806e-07
-2.09249e-07 6.86806e-07 5.99525e-05
0.000749849 -2.43181e-05 -5.73826e-07
-2.43181e-05 0.000109291 5.38319e-07
-5.73826e-07 5.38319e-07 1.43635e-05
0.000650908 -6.5091e-06 -7.0074e-07
-6.5091e-06 3.36323e-05 9.04923e-07
-7.0074e-07 9.04923e-07 -3.89425e-05
0.000824871 -4.32156e-05 2.53756e-07
-4.32156e-05 0.000165299 -5.10581e-07
2.53756e-07 -5.10581e-07 6.1288e-05
0.000696512 -4.01877e-05 -5.17007e-07
-4.01877e-05 6.47605e-05 -3.13711e-09
-5.17007e-07 -3.13711e-09 -1.11736e-05
0.000626169 3.21006e-05 -1.76244e-06
3.21006e-05 1.48795e-06 1.8256e-06
-1.76244e-06 1.8256e-06 -4.80282e-05
0.00073113 -7.01481e-05 1.61055e-06
-7.01481e-05 8.67721e-05 -1.05535e-06
1.61055e-06 -1.05535e-06 7.63384e-06
0.00066565 -9.66709e-07 -2.77677e-07
-9.66709e-07 2.21133e-05 2.1453e-08
-2.77677e-07 2.1453e-08 -2.57967e-05
0.00136132 3.4495e-05 -7.02846e-06
3.4495e-05 0.000418055 5.28005e-06
-7.02846e-06 5.28005e-06 0.000406831
0.000643626 -2.05448e-05 1.83569e-06
-2.05448e-05 1.39133e-05 -1.98205e-06
1.83569e-06 -1.98205e-06 -3.53439e-05
0.000974607 2.27838e-05 -3.40013e-06
2.27838e-05 0.000189267 7.12535e-07
-3.40013e-06 7.12535e-07 0.000176654
0.000795029 2.28184e-05 -6.45775e-07
2.28184e-05 8.63912e-05 2.01275e-06
-6.45775e-07 2.01275e-06 9.38312e-05
0.000576716 1.19758e-05 4.62115e-07
1.19758e-05 -4.59049e-05 -3.77579e-06
4.62115e-07 -3.77579e-06 -6.00202e-05
0.00155612 2.21009e-05 5.38235e-06
2.21009e-05 0.000530909 -1.47566e-06
5.38235e-06 -1.47566e-06 0.00054306
0.00232905 1.53965e-05 4.07506e-06
1.53965e-05 0.000984663 -5.08375e-06
4.07506e-06 -5.08375e-06 0.00100091
0.000737668 8.6079e-07 9.80782e-07
8.6079e-07 9.09349e-05 -1.39832e-06
9.80782e-07 -1.39832e-06 1.36638e-05
0.000667631 2.22864e-05 -5.81708e-07
2.22864e-05 2.87107e-05 -2.12622e-06
-5.81708e-07 -2.12622e-06 -1.22229e-05
0.000730743 -2.28362e-06 9.7955e-07
-2.28362e-06 9.30082e-05 2.19818e-07
9.7955e-07 2.19818e-07 1.81027e-05
0.000613088 -3.48264e-06 1.04357e-07
-3.48264e-06 -2.89971e-05 -3.54728e-06
1.04357e-07 -3.54728e-06 -3.59223e-05
0.000633824 1.77979e-05 5.17489e-08
1.77979e-05 1.00044e-05 -1.25132e-08
5.17489e-08 -1.25132e-08 -2.87194e-05
0.000671854 -7.95891e-05 -3.25894e-06
-7.95891e-05 5.96307e-05 1.81302e-06
-3.25894e-06 1.81302e-06 -1.30351e-05
0.00204085 6.90803e-07 -1.21907e-06
6.90803e-07 0.000814152 -4.74187e-06
-1.21907e-06 -4.74187e-06 0.000833841
0.000609687 2.36254e-06 -1.61746e-07
2.36254e-06 -3.09416e-05 -7.96117e-09
-1.61746e-07 -7.96117e-09 -3.71534e-05
0.000619328 -1.71055e-05 -1.24367e-06
-1.71055e-05 4.45062e-08 1.72039e-06
-1.24367e-06 1.72039e-06 -3.68332e-05
0.000594356 7.86442e-06 -3.48741e-07
7.86442e-06 -3.95926e-05 3.33566e-06
-3.48741e-07 3.33566e-06 -4.57845e-05
0.00204869 1.41391e-05 -3.5715e-06
1.41391e-05 0.000820201 -4.26794e-08
-3.5715e-06 -4.26794e-08 0.000839519
0.00204126 2.55823e-05 -1.01261e-05
2.55823e-05 0.000818212 4.3903e-06
-1.01261e-05 4.3903e-06 0.000836942
-0.00352867 -0.000240984 -3.86885e-05
-0.000240984 0.00103287 1.40416e-05
-3.86885e-05 1.40416e-05 -0.000813282
-0.00102587 0.000415269 -5.89978e-05
0.000415269 -0.000480434 1.40824e-05
-5.89978e-05 1.40824e-05 -0.00092782
0.00350413 -0.000273565 -0.000190188
-0.000273565 0.00105463 0.000145323
-0.000190188 0.000145323 -0.000926488
-0.00279464 0.000142225 0.000271653
0.000142225 0.00142347 -0.0001198
0.000271653 -0.0001198 0.000246215
0.000928436 0.00020146 -5.0615e-05
0.00020146 -0.00083504 1.12477e-05
-5.0615e-05 1.12477e-05 -0.000937977
0.00230414 -0.000144435 9.74707e-05
-0.000144435 8.22823e-05 -9.90931e-06
9.74707e-05 -9.90931e-06 6.25755e-05
0.00157907 -0.000407805 -5.60817e-05
-0.000407805 -0.00164273 -5.42504e-05
-5.60817e-05 -5.42504e-05 -0.0028697
0.00891003 0.000870959 -7.98408e-05
0.000870959 0.00437747 -1.87695e-05
-7.98408e-05 -1.87695e-05 0.00391733
-0.00755512 0.00181789 -0.000459974
0.00181789 -0.00378941 0.000358489
-0.000459974 0.000358489 -0.00187813
0.00253568 -7.30939e-05 -9.43472e-06
-7.30939e-05 -0.000219341 -4.83505e-06
-9.43472e-06 -4.83505e-06 -0.000386639
0.0043369 -0.00030137 3.94156e-05
-0.00030137 -4.60104e-05 -5.16218e-05
3.94156e-05 -5.16218e-05 -0.00205152
0.00951354 0.00162387 -5.93831e-05
0.00162387 0.00301754 -6.68403e-05
-5.93831e-05 -6.68403e-05 0.00362648
0.00274223 0.00112332 -5.9324e-05
0.00112332 -0.00134395 0.0001398
-5.9324e-05 0.0001398 -0.000861566
0.00253349 -0.00057866 -5.91663e-05
-0.00057866 -0.000579568 1.72138e-05
-5.91663e-05 1.72138e-05 -0.000775442
0.00264634 -0.000711741 0.000169633
-0.000711741 0.000270504 -0.00011692
0.000169633 -0.00011692 -0.0028168
-0.00502406 0.000785411 -5.62898e-05
0.000785411 -0.00442063 -0.000270656
-5.62898e-05 -0.000270656 -0.00441401
0.00266112 0.000694347 -5.43204e-05
0.000694347 -0.0029027 -1.53794e-06
-5.43204e-05 -1.53794e-06 -0.00173272
0.000822105 -1.44858e-05 7.20419e-07
-1.44858e-05 0.000179475 7.30778e-07
7.20419e-07 7.30778e-07 4.7922e-05
0.000718998 5.91476e-05 -1.80337e-06
5.91476e-05 0.000113426 -9.39532e-07
-1.80337e-06 -9.39532e-07 -1.66569e-06
0.000669836 5.58759e-05 3.85383e-08
5.58759e-05 6.27802e-05 -9.74886e-07
3.85383e-08 -9.74886e-07 -2.0221e-05
0.000648305 6.64917e-05 2.64397e-06
6.64917e-05 7.59665e-05 1.58315e-06
2.64397e-06 1.58315e-06 -2.99782e-05
0.000679543 3.78242e-05 4.61652e-08
3.78242e-05 8.36148e-05 4.55724e-07
4.61652e-08 4.55724e-07 -4.99953e-05
0.000822973 7.52654e-05 1.54062e-07
7.52654e-05 0.000171501 1.07326e-06
1.54062e-07 1.07326e-06 5.21276e-05
0.000670617 2.07087e-05 -9.4135e-07
2.07087e-05 7.58661e-05 1.56228e-06
-9.4135e-07 1.56228e-06 -3.03648e-05
0.00089099 0.000114484 3.62783e-07
0.000114484 0.000213198 5.66674e-07
3.62783e-07 5.66674e-07 8.84996e-05
0.000842474 6.57479e-05 -1.64914e-07
6.57479e-05 0.000183215 4.80079e-07
-1.64914e-07 4.80079e-07 6.68478e-05
0.00057306 -5.10683e-06 -2.10568e-06
-5.10683e-06 2.11951e-05 -4.20051e-08
-2.10568e-06 -4.20051e-08 -8.3526e-05
0.00103082 -0.000203748 3.45991e-05
-0.000203748 -0.000409989 -1.53718e-05
3.45991e-05 -1.53718e-05 -0.000379837
0.000884446 -0.000393569 2.96529e-05
-0.000393569 -0.000462949 -5.03133e-06
2.96529e-05 -5.03133e-06 -0.000481016
0.00150975 -0.000519961 1.64648e-05
-0.000519961 7.29351e-05 -2.04948e-06
1.64648e-05 -2.04948e-06 -8.95539e-05
0.000809597 -0.000384188 8.35306e-06
-0.000384188 6.45614e-05 -1.54771e-05
8.35306e-06 -1.54771e-05 -0.000225342
0.00161601 -0.000139843 -1.30729e-06
-0.000139843 0.000722432 1.2173e-05
-1.30729e-06 1.2173e-05 0.000460809
0.000670738 -8.70605e-05 -1.14793e-06
-8.70605e-05 0.000120536 4.00524e-06
-1.14793e-06 4.00524e-06 -3.51305e-05
0.000599043 6.91339e-05 -4.80534e-07
6.91339e-05 5.18499e-05 -1.32798e-06
-4.80534e-07 -1.32798e-06 -8.5469e-05
0.000760565 -5.13353e-05 -5.10996e-07
-5.13353e-05 0.000146349 1.65098e-06
-5.10996e-07 1.65098e-06 4.29133e-06
0.001501 -0.000288359 -1.58913e-06
-0.000288359 0.000114353 -3.46083e-07
-1.58913e-06 -3.46083e-07 -4.21113e-05
0.000795384 -9.29895e-06 1.89246e-07
-9.29895e-06 0.000175049 6.05685e-07
1.89246e-07 6.05685e-07 2.51488e-05
0.001326 -0.000117976 -3.97597e-08
-0.000117976 0.000550299 1.52375e-07
-3.97597e-08 1.52375e-07 0.000326989
0.00120776 -0.000370943 -1.57318e-06
-0.000370943 -2.8696e-05 -1.19084e-06
-1.57318e-06 -1.19084e-06 -6.8346e-05
0.000859985 -0.000253144 -1.4997e-05
-0.000253144 0.000257902 4.95185e-06
-1.4997e-05 4.95185e-06 -1.84724e-05
0.000175924 -0.000399357 -1.42457e-05
-0.000399357 -0.000621194 -2.15511e-05
-1.42457e-05 -2.15511e-05 -0.000597238
0.000933184 -0.000188674 -1.99921e-05
-0.000188674 0.000280329 2.34135e-05
-1.99921e-05 2.34135e-05 0.000184287
-0.000207257 -4.65912e-05 -3.59693e-06
-4.65912e-05 -0.000266962 2.74115e-05
-3.59693e-06 2.74115e-05 -0.000501125
0.000661381 4.14325e-06 -4.67422e-08
4.14325e-06 7.15839e-05 -1.09584e-06
-4.67422e-08 -1.09584e-06 -6.45766e-05
0.000606608 2.77409e-05 1.49335e-06
2.77409e-05 0.00013721 -4.79764e-06
1.49335e-06 -4.79764e-06 -6.57151e-05
0.00169884 -4.34916e-05 -1.5149e-05
-4.34916e-05 0.000873109 -5.3186e-06
-1.5149e-05 -5.3186e-06 -0.00044336
-0.00198713 6.31289e-05 -0.000104398
6.31289e-05 0.00223279 -5.02227e-06
-0.000104398 -5.02227e-06 0.000495669
-0.00895233 -0.000432996 -0.000275655
-0.000432996 -0.00467846 4.92103e-06
-0.000275655 4.92103e-06 -0.00456765
-0.000102043 8.40005e-05 5.40265e-06
8.40005e-05 -0.00027646 -2.3146e-06
5.40265e-06 -2.3146e-06 -0.000412456
0.000153456 0.000133292 2.27859e-06
0.000133292 -0.000115113 4.83428e-06
2.27859e-06 4.83428e-06 -0.000343595
0.00173324 0.000335868 1.63985e-05
0.000335868 0.000388745 4.05482e-06
1.63985e-05 4.05482e-06 0.000331822
-0.00341953 0.000294417 -2.47051e-05
0.000294417 0.00091121 1.01628e-05
-2.47051e-05 1.01628e-05 -0.00110132
0.0017644 0.000541819 -7.61696e-05
0.000541819 0.000171068 -7.12499e-05
-7.61696e-05 -7.12499e-05 -0.00285482
0.00293071 0.000958432 0.000118136
0.000958432 0.000362228 2.38433e-05
0.000118136 2.38433e-05 -0.00015285
0.0004546 0.00028916 7.35533e-06
0.00028916 -3.43191e-05 -2.12139e-05
7.35533e-06 -2.12139e-05 -8.46973e-05
0.0114892 -0.00116171 1.52317e-05
-0.00116171 0.00340011 -8.6507e-05
1.52317e-05 -8.6507e-05 0.00322956
0.00369888 0.000270231 0.000114796
0.000270231 0.00166704 6.93614e-05
0.000114796 6.93614e-05 -0.000628118
0.00825397 -0.000844017 4.46024e-05
-0.000844017 0.00124654 6.67012e-06
4.46024e-05 6.67012e-06 0.00251949
0.00106114 0.000187609 3.41384e-06
0.000187609 0.000453893 -1.5585e-06
3.41384e-06 -1.5585e-06 0.000326676
0.00292955 3.31763e-05 6.50504e-06
3.31763e-05 0.0012458 -5.30556e-06
6.50504e-06 -5.30556e-06 9.62397e-07
0.000640296 9.992e-05 1.09235e-05
9.992e-05 0.00019915 1.29179e-05
1.09235e-05 1.29179e-05 -0.00131444
-0.000229749 0.000175485 -7.68143e-06
0.000175485 -0.000138252 -1.36699e-06
-7.68143e-06 -1.36699e-06 -0.000325411
0.0024948 0.000550061 -6.65434e-05
0.000550061 0.000906337 -3.66816e-05
-6.65434e-05 -3.66816e-05 0.000189911
0.00251352 0.00131756 6.25144e-05
0.00131756 0.000734006 4.97844e-05
6.25144e-05 4.97844e-05 -0.00229597
0.00510965 0.000139529 -9.67428e-06
0.000139529 -0.00219856 -9.45268e-05
-9.67428e-06 -9.45268e-05 -0.000175074
0.00168191 -0.000901969 -2.60476e-05
-0.000901969 0.000148187 -3.14014e-05
-2.60476e-05 -3.14014e-05 -0.00113561
0.000828135 0.000132137 -7.47396e-06
0.000132137 0.000510916 -1.08619e-05
-7.47396e-06 -1.08619e-05 0.000367647
0.000796468 -5.89046e-05 -6.09262e-06
-5.89046e-05 0.000114748 -1.70551e-05
-6.09262e-06 -1.70551e-05 4.85913e-06
0.00252786 -1.57738e-07 2.14784e-05
-1.57738e-07 0.000331343 -7.16658e-05
2.14784e-05 -7.16658e-05 -0.000788609
0.00284787 0.000733081 6.11853e-05
0.000733081 -0.00277011 1.75538e-06
6.11853e-05 1.75538e-06 -0.00171032
-0.000808215 7.68952e-05 -4.40128e-06
7.68952e-05 -0.000118392 -1.81491e-05
-4.40128e-06 -1.81491e-05 -0.000573727
0.0100952 0.000999459 0.000113163
0.000999459 0.00481058 4.63795e-05
0.000113163 4.63795e-05 0.00145193
-0.00909599 -0.000296211 6.33595e-05
-0.000296211 -0.000917526 0.000155703
6.33595e-05 0.000155703 -0.00262941
0.0018288 0.000188314 1.54215e-05
0.000188314 0.000801314 6.94736e-06
1.54215e-05 6.94736e-06 0.000701976
0.000567679 0.000104814 -3.7823e-06
0.000104814 0.000181573 -2.37587e-08
-3.7823e-06 -2.37587e-08 4.66121e-05
0.00037019 8.06016e-05 -6.0687e-06
8.06016e-05 0.000266659 -1.43023e-07
-6.0687e-06 -1.43023e-07 0.000107206
0.000793528 0.000128187 1.00037e-06
0.000128187 0.000132611 1.11839e-06
1.00037e-06 1.11839e-06 7.16818e-06
0.00072579 5.1555e-05 8.20682e-07
5.1555e-05 8.54352e-05 1.23579e-06
8.20682e-07 1.23579e-06 -1.82084e-05
0.000775218 -1.09393e-08 5.67138e-06
-1.09393e-08 0.000279774 5.88374e-06
5.67138e-06 5.88374e-06 0.000153195
0.000698484 4.19156e-05 -1.95235e-07
4.19156e-05 7.50356e-05 -2.27911e-07
-1.95235e-07 -2.27911e-07 -3.88106e-05
0.000753676 -2.57475e-05 -6.47875e-07
-2.57475e-05 0.00021891 -1.40624e-06
-6.47875e-07 -1.40624e-06 0.000105279
0.000200898 2.12944e-05 7.74046e-06
2.12944e-05 9.26414e-05 3.13581e-06
7.74046e-06 3.13581e-06 -5.51931e-05
0.00107654 1.73432e-05 -1.09831e-05
1.73432e-05 0.000548648 -1.04454e-05
-1.09831e-05 -1.04454e-05 0.000464674
0.000163085 -3.32249e-05 -2.81071e-06
-3.32249e-05 -0.000140497 -7.32607e-06
-2.81071e-06 -7.32607e-06 -0.000244427
0.00061884 -3.30028e-05 1.40461e-06
-3.30028e-05 1.76775e-05 3.22822e-06
1.40461e-06 3.22822e-06 -7.44417e-05
0.000789111 2.29277e-05 -3.54797e-07
2.29277e-05 0.000131082 1.2118e-08
-3.54797e-07 1.2118e-08 3.20016e-05
0.000821769 -6.78489e-08 -4.46985e-06
-6.78489e-08 0.000135524 2.93332e-06
-4.46985e-06 2.93332e-06 4.93112e-05
0.000717625 -3.37779e-05 2.23167e-06
-3.37779e-05 0.000105492 2.57953e-07
2.23167e-06 2.57953e-07 2.71173e-05
0.000677095 5.37183e-06 -3.163e-07
5.37183e-06 4.99049e-05 1.78576e-07
-3.163e-07 1.78576e-07 -4.241e-05
0.000741452 -7.80068e-05 2.65649e-06
-7.80068e-05 0.000107561 -2.26177e-07
2.65649e-06 -2.26177e-07 1.38149e-05
0.000492989 -7.28656e-05 -1.89513e-06
-7.28656e-05 -8.6652e-05 -1.06259e-06
-1.89513e-06 -1.06259e-06 -0.000170644
0.000223342 -0.000148833 6.84813e-06
-0.000148833 -0.000215203 -3.71612e-07
6.84813e-06 -3.71612e-07 -0.000383072
0.00102296 -6.53618e-05 -8.2314e-07
-6.53618e-05 0.000243912 9.20305e-07
-8.2314e-07 9.20305e-07 0.000139748
0.00106719 -0.000136081 -5.26824e-07
-0.000136081 0.00027864 2.2262e-06
-5.26824e-07 2.2262e-06 0.000133734
0.000367631 -0.000174044 -1.34545e-06
-0.000174044 -0.000183565 3.954e-06
-1.34545e-06 3.954e-06 -0.000382735
0.000766025 -0.000189538 -5.25178e-06
-0.000189538 4.95764e-05 -6.27837e-09
-5.25178e-06 -6.27837e-09 -0.000155927
0.000961314 -0.000160368 -1.87061e-06
-0.000160368 0.000263034 3.41416e-06
-1.87061e-06 3.41416e-06 9.74407e-05
0.000543242 -0.000158097 1.31145e-06
-0.000158097 -4.02866e-05 1.32391e-07
1.31145e-06 1.32391e-07 -0.00023694
0.000841478 -5.40355e-05 8.17714e-07
-5.40355e-05 0.000163871 2.01591e-07
8.17714e-07 2.01591e-07 5.37478e-05
0.00103383 -8.80438e-05 -1.26505e-06
-8.80438e-05 0.000295405 -6.43673e-07
-1.26505e-06 -6.43673e-07 0.000164787
0.000528166 -8.51115e-05 1.4518e-06
-8.51115e-05 1.70183e-05 -8.09086e-06
1.4518e-06 -8.09086e-06 -0.000125268
0.000963053 -6.98458e-06 -7.51296e-07
-6.98458e-06 0.000226977 -3.30704e-07
-7.51296e-07 -3.30704e-07 0.000126087
0.000529179 1.36164e-06 2.56096e-07
1.36164e-06 -1.48852e-05 -5.88641e-08
2.56096e-07 -5.88641e-08 -0.000111432
0.000644276 6.04482e-06 -3.65653e-07
6.04482e-06 3.21209e-05 6.96576e-07
-3.65653e-07 6.96576e-07 -4.47862e-05
0.000801967 -4.0522e-05 2.13518e-08
-4.0522e-05 0.00014769 2.19802e-07
2.13518e-08 2.19802e-07 4.54386e-05
0.000695594 -2.30811e-05 -2.35746e-07
-2.30811e-05 6.5959e-05 2.22526e-08
-2.35746e-07 2.22526e-08 -1.17957e-05
0.000628089 3.18167e-05 -8.53259e-07
3.18167e-05 6.79468e-06 1.8256e-06
-8.53259e-07 1.8256e-06 -4.53193e-05
0.000744638 -5.67585e-05 7.45377e-07
-5.67585e-05 9.84736e-05 -1.11544e-06
7.45377e-07 -1.11544e-06 1.79458e-05
0.000646884 2.33834e-05 -7.51729e-07
2.33834e-05 1.34878e-05 -3.94609e-08
-7.51729e-07 -3.94609e-08 -3.63465e-05
0.00132911 4.5769e-05 -8.06851e-06
4.5769e-05 0.000402989 3.54332e-06
-8.06851e-06 3.54332e-06 0.000390847
0.000671353 -1.34287e-05 2.10777e-06
-1.34287e-05 2.58118e-05 -2.02366e-06
2.10777e-06 -2.02366e-06 -2.25033e-05
0.000957038 3.14985e-05 -4.29334e-06
3.14985e-05 0.000180547 6.29709e-07
-4.29334e-06 6.29709e-07 0.000167546
0.000809833 3.10163e-05 -1.20653e-06
3.10163e-05 9.93783e-05 2.05158e-06
-1.20653e-06 2.05158e-06 0.000105752
0.000561461 1.86396e-05 7.58598e-07
1.86396e-05 -5.45992e-05 -3.92389e-06
7.58598e-07 -3.92389e-06 -6.88249e-05
0.00155908 3.29051e-05 7.28558e-06
3.29051e-05 0.000536157 -1.35036e-06
7.28558e-06 -1.35036e-06 0.000547286
0.00232933 2.91059e-05 7.97563e-06
2.91059e-05 0.000987123 -4.95417e-06
7.97563e-06 -4.95417e-06 0.00100271
0.00046784 2.97488e-06 4.56897e-07
2.97488e-06 -5.63724e-05 -1.51744e-06
4.56897e-07 -1.51744e-06 -0.000150412
0.000372953 -1.52071e-07 -1.82576e-07
-1.52071e-07 -0.000143511 -3.17463e-06
-1.82576e-07 -3.17463e-06 -0.000191566
0.000767947 1.21723e-05 9.41571e-08
1.21723e-05 0.00011381 9.26393e-08
9.41571e-08 9.26393e-08 3.28234e-05
0.000608102 -9.44926e-06 1.07496e-07
-9.44926e-06 -3.12689e-05 -3.72936e-06
1.07496e-07 -3.72936e-06 -3.99111e-05
0.000492343 5.38138e-06 9.13148e-07
5.38138e-06 -7.3828e-05 -4.74015e-08
9.13148e-07 -4.74015e-08 -0.000116013
0.00046158 -7.27041e-05 -8.58297e-07
-7.27041e-05 -6.22212e-05 1.47311e-06
-8.58297e-07 1.47311e-06 -0.000139897
0.00208653 -1.17575e-05 -5.58765e-06
-1.17575e-05 0.000841193 -4.79582e-06
-5.58765e-06 -4.79582e-06 0.00086039
0.000611392 -3.46502e-06 -1.2129e-07
-3.46502e-06 -2.99145e-05 -3.17021e-08
-1.2129e-07 -3.17021e-08 -3.67998e-05
0.000616968 -6.05076e-06 -1.22535e-06
-6.05076e-06 -2.92795e-07 1.94757e-06
-1.22535e-06 1.94757e-06 -3.85538e-05
0.00205286 1.9727e-06 -3.62143e-06
1.9727e-06 0.000821289 6.92592e-09
-3.62143e-06 6.92592e-09 0.000840929
0.000598055 2.25323e-06 -1.91947e-07
2.25323e-06 -3.7533e-05 3.37537e-06
-1.91947e-07 3.37537e-06 -4.37157e-05
0.00204912 1.54464e-05 -3.22106e-06
1.54464e-05 0.000820593 4.57137e-06
-3.22106e-06 4.57137e-06 0.000839853
0.000608731 -0.000126776 -7.97928e-05
-0.000126776 -0.000163374 2.6673e-05
-7.97928e-05 2.6673e-05 -0.00146985
0.00150585 0.000144455 -2.0153e-05
0.000144455 0.0029041 -1.03704e-05
-2.0153e-05 -1.03704e-05 0.00177287
0.00130392 -0.000320783 -0.000204374
-0.000320783 0.00187075 -5.05045e-06
-0.000204374 -5.05045e-06 0.00105045
0.000753185 6.89094e-05 7.69403e-07
6.89094e-05 0.000114546 2.49742e-07
7.69403e-07 2.49742e-07 -6.16561e-06
0.00364358 -0.000200337 -2.8159e-05
-0.000200337 0.00213726 8.56157e-05
-2.8159e-05 8.56157e-05 0.00109172
0.00333481 -0.000313442 -6.71072e-05
-0.000313442 0.00109425 7.61938e-06
-6.71072e-05 7.61938e-06 -0.0011279
0.00169664 0.000562077 0.000136265
0.000562077 0.00269268 -0.000135997
0.000136265 -0.000135997 0.00193718
0.00400325 -0.000201106 1.70011e-05
-0.000201106 0.000329233 -3.07758e-05
1.70011e-05 -3.07758e-05 7.44711e-05
0.0107542 -0.000211004 9.53003e-05
-0.000211004 0.00314656 -5.10264e-05
9.53003e-05 -5.10264e-05 0.00147181
-0.00298197 0.00122727 -0.000103874
0.00122727 -0.00374184 0.000122096
-0.000103874 0.000122096 -0.00292086
0.00486133 0.00124458 2.30039e-05
0.00124458 -3.55349e-05 4.23492e-05
2.30039e-05 4.23492e-05 0.000401017
0.00476198 -0.000708212 -8.3403e-05
-0.000708212 0.000335075 -7.78919e-08
-8.3403e-05 -7.78919e-08 -0.000201887
0.00982455 -0.000543523 5.42014e-05
-0.000543523 0.00376783 -1.42685e-05
5.42014e-05 -1.42685e-05 0.00169277
0.00586303 0.00084482 5.23463e-05
0.00084482 0.00034814 -9.61709e-05
5.23463e-05 -9.61709e-05 0.000156328
0.00476619 0.000646413 -1.33158e-05
0.000646413 -0.00156978 1.06341e-05
-1.33158e-05 1.06341e-05 -0.000522151
0.00458349 -0.00118377 7.2352e-06
-0.00118377 0.000661657 -3.36401e-06
7.2352e-06 -3.36401e-06 -0.000279987
0.0107597 -0.0010698 7.19239e-05
-0.0010698 0.00523016 -4.19246e-05
7.19239e-05 -4.19246e-05 0.00165908
0.00284563 -0.000170723 5.8427e-05
-0.000170723 4.27985e-05 -0.000148961
5.8427e-05 -0.000148961 -0.000230116
0.00639588 0.000273709 -2.72906e-05
0.000273709 -0.000766377 7.48893e-05
-2.72906e-05 7.48893e-05 0.000839841
0.000734412 -3.17262e-05 -2.32377e-09
-3.17262e-05 0.000118779 4.28961e-07
-2.32377e-09 4.28961e-07 -2.20705e-05
0.00074124 -4.32483e-05 2.75812e-07
-4.32483e-05 0.00013561 9.73876e-08
2.75812e-07 9.73876e-08 1.98068e-07
0.000824195 8.53493e-05 -1.03291e-06
8.53493e-05 0.000179968 -7.39561e-07
-1.03291e-06 -7.39561e-07 6.29246e-05
0.000734882 3.10567e-05 1.19461e-07
3.10567e-05 9.42286e-05 5.97757e-07
1.19461e-07 5.97757e-07 -2.45282e-05
0.000830078 8.29611e-05 -7.3458e-07
8.29611e-05 0.000175611 6.84251e-07
-7.3458e-07 6.84251e-07 4.17597e-05
0.000842771 6.19114e-05 2.2096e-08
6.19114e-05 0.00018187 1.77726e-06
2.2096e-08 1.77726e-06 6.48366e-05
0.00096534 0.000107159 -8.06688e-07
0.000107159 0.000253737 -8.9147e-09
-8.06688e-07 -8.9147e-09 0.00013052
0.000969906 0.000112362 7.83442e-07
0.000112362 0.00026624 2.40515e-06
7.83442e-07 2.40515e-06 0.00014509
0.00102886 -0.000222021 5.10604e-05
-0.000222021 -0.000202993 -1.75328e-05
5.10604e-05 -1.75328e-05 -0.000247933
0.00100027 -0.000357496 7.78416e-06
-0.000357496 -0.000167365 -1.60422e-05
7.78416e-06 -1.60422e-05 -0.000195819
0.000726911 -0.000148416 -1.31679e-06
-0.000148416 0.000133146 9.52165e-08
-1.31679e-06 9.52165e-08 -1.67601e-05
0.00245401 -0.000334114 1.20364e-05
-0.000334114 0.00111355 -2.52425e-05
1.20364e-05 -2.52425e-05 0.000849106
0.00200412 -0.000156636 -2.80173e-06
-0.000156636 0.000932133 6.95479e-06
-2.80173e-06 6.95479e-06 0.000704686
0.000916635 -5.84046e-05 -1.89089e-06
-5.84046e-05 0.000235511 -1.90489e-06
-1.89089e-06 -1.90489e-06 8.87e-05
0.000767939 1.20641e-05 3.89037e-07
1.20641e-05 0.000144255 5.17771e-07
3.89037e-07 5.17771e-07 1.71403e-06
0.000279864 -0.000413277 -1.019e-05
-0.000413277 -0.000602839 -6.40383e-07
-1.019e-05 -6.40383e-07 -0.000579296
0.00111793 4.33812e-05 7.71033e-08
4.33812e-05 0.000432261 2.00959e-06
7.71033e-08 2.00959e-06 0.000221209
0.00104855 -0.000138051 -8.28151e-06
-0.000138051 0.000404269 1.72868e-06
-8.28151e-06 1.72868e-06 0.000177874
0.000420896 -0.000154053 4.37355e-06
-0.000154053 -3.49159e-05 3.96566e-06
4.37355e-06 3.96566e-06 -8.47675e-05
0.000746882 3.66721e-05 1.53973e-06
3.66721e-05 0.000109369 -1.20478e-06
1.53973e-06 -1.20478e-06 -1.89067e-05
0.00137696 -0.000346752 1.48677e-05
-0.000346752 3.19228e-05 -3.30831e-05
1.48677e-05 -3.30831e-05 0.00020747
0.000196393 -0.000114436 -6.58434e-06
-0.000114436 9.54454e-05 2.91285e-05
-6.58434e-06 2.91285e-05 -6.853e-06
0.000608132 2.1867e-06 -1.11074e-06
2.1867e-06 0.000238332 1.02796e-05
-1.11074e-06 1.02796e-05 -1.85211e-05
0.00137364 0.000183482 1.64148e-06
0.000183482 0.000536173 -2.91936e-06
1.64148e-06 -2.91936e-06 0.000364036
0.000871217 -3.50745e-05 -9.80701e-06
-3.50745e-05 0.000602813 -6.68326e-06
-9.80701e-06 -6.68326e-06 5.62836e-05
0.00138422 -5.50094e-05 6.67417e-05
-5.50094e-05 0.000751292 -5.69051e-06
6.67417e-05 -5.69051e-06 -0.000584513
-0.00432322 -5.84389e-05 -0.000118042
-5.84389e-05 0.00140193 6.10893e-06
-0.000118042 6.10893e-06 -0.000694615
0.000890477 0.00016001 1.29362e-05
0.00016001 0.000406806 6.84064e-07
1.29362e-05 6.84064e-07 0.00027392
-0.000880817 0.000231165 1.12332e-05
0.000231165 -0.000512133 1.18116e-05
1.12332e-05 1.18116e-05 -0.000755736
0.00315851 2.0658e-05 7.762e-05
2.0658e-05 0.00156268 5.91108e-07
7.762e-05 5.91108e-07 0.000472241
0.00777909 0.000508848 0.000128433
0.000508848 0.00351091 6.93009e-05
0.000128433 6.93009e-05 0.000369612
0.00299129 0.000673366 -9.08103e-05
0.000673366 0.00126845 -8.16109e-05
-9.08103e-05 -8.16109e-05 0.000254574
0.00391467 -0.000552052 -2.32938e-06
-0.000552052 0.00101051 -0.00016133
-2.32938e-06 -0.00016133 -0.000203784
0.0010807 0.00012088 3.92007e-05
0.00012088 0.000209234 0.000111008
3.92007e-05 0.000111008 -0.00130666
0.00393437 -1.06117e-05 -2.0894e-06
-1.06117e-05 -0.00361934 -9.08126e-05
-2.0894e-06 -9.08126e-05 -0.00108389
0.000680223 0.000149788 9.24614e-07
0.000149788 0.000420912 -1.5364e-06
9.24614e-07 -1.5364e-06 0.000262785
0.000779915 -5.85852e-05 6.7139e-07
-5.85852e-05 0.000137962 -5.57799e-06
6.7139e-07 -5.57799e-06 1.22223e-05
0.00271448 1.96879e-05 3.42968e-05
1.96879e-05 0.000585463 1.06293e-05
3.42968e-05 1.06293e-05 -0.000259988
-0.000940635 0.000120527 -8.69323e-06
0.000120527 -0.000364155 -5.23211e-06
-8.69323e-06 -5.23211e-06 -0.000732587
0.00505315 0.000744196 1.05168e-05
0.000744196 -0.00152805 -1.06156e-05
1.05168e-05 -1.06156e-05 -0.000497898
0.00522893 0.00086631 0.000100083
0.00086631 0.00282936 4.54264e-05
0.000100083 4.54264e-05 -0.000650427
0.00320654 0.000244876 -5.60229e-05
0.000244876 0.0021952 6.84664e-06
-5.60229e-05 6.84664e-06 0.00118167
0.000339266 0.000162837 -1.46662e-05
0.000162837 0.000283755 -1.56592e-05
-1.46662e-05 -1.56592e-05 5.73387e-05
0.00175771 4.62666e-05 1.70691e-06
4.62666e-05 -4.62637e-05 -1.81472e-05
1.70691e-06 -1.81472e-05 -9.48813e-06
0.00367034 -0.000160224 2.99358e-05
-0.000160224 0.00207812 -8.50714e-05
2.99358e-05 -8.50714e-05 0.00107205
0.00592037 0.0012778 0.000143525
0.0012778 0.000220554 -0.000100784
0.000143525 -0.000100784 0.000785914
0.00599269 -0.00013172 -7.76502e-05
-0.00013172 0.00110638 0.000140418
-7.76502e-05 0.000140418 0.00105053
0.000912836 0.000188509 -1.58399e-05
0.000188509 -2.59193e-05 -4.95874e-05
-1.58399e-05 -4.95874e-05 -5.73702e-05
-0.000538656 0.00081883 0.000114823
0.00081883 0.00236472 3.65456e-05
0.000114823 3.65456e-05 -0.00287513
0.000935458 0.000150204 2.60454e-06
0.000150204 0.00036571 6.24203e-06
2.60454e-06 6.24203e-06 0.000227507
0.000339245 8.73392e-05 4.12775e-06
8.73392e-05 0.000247844 1.92516e-06
4.12775e-06 1.92516e-06 8.58335e-05
0.00124528 3.9662e-05 -2.79918e-05
3.9662e-05 0.000816206 -1.82503e-05
-2.79918e-05 -1.82503e-05 0.000709095
0.000464089 -1.93638e-05 9.98623e-07
-1.93638e-05 -7.24882e-05 3.42172e-06
9.98623e-07 3.42172e-06 -0.000175135
0.000791105 -3.60873e-05 2.1747e-06
-3.60873e-05 0.000240307 4.35506e-06
2.1747e-06 4.35506e-06 0.000128069
4.69714e-05 -2.71143e-06 1.33169e-06
-2.71143e-06 -6.76974e-06 4.19213e-06
1.33169e-06 4.19213e-06 -0.000155567
0.000686527 -5.94974e-05 7.60533e-07
-5.94974e-05 0.000145539 -5.39622e-07
7.60533e-07 -5.39622e-07 5.05735e-05
0.00012887 -9.6978e-06 2.63549e-06
-9.6978e-06 3.50962e-06 3.48244e-07
2.63549e-06 3.48244e-07 -8.50364e-05
0.00117047 -0.000176835 8.26019e-06
-0.000176835 0.000582827 -7.97162e-06
8.26019e-06 -7.97162e-06 0.000414773
0.00124837 -4.9282e-05 -1.89608e-06
-4.9282e-05 0.000405784 3.91981e-06
-1.89608e-06 3.91981e-06 0.000324363
0.000345876 2.12662e-05 -8.09086e-07
2.12662e-05 -0.000135095 1.44509e-06
-8.09086e-07 1.44509e-06 -0.000228117
0.00135906 -0.000125827 1.09671e-06
-0.000125827 0.000451288 2.00448e-06
1.09671e-06 2.00448e-06 0.000348605
-9.64672e-05 -0.000135827 4.68959e-06
-0.000135827 -0.000274214 1.25791e-06
4.68959e-06 1.25791e-06 -0.000492212
0.000426992 -5.20549e-05 -4.46775e-06
-5.20549e-05 -9.24625e-05 9.67131e-07
-4.46775e-06 9.67131e-07 -0.00016497
0.000112374 -0.000134843 1.77934e-06
-0.000134843 -0.000280282 -1.19201e-06
1.77934e-06 -1.19201e-06 -0.000434713
0.00102352 -0.000248962 9.67622e-06
-0.000248962 0.000184034 -1.29411e-06
9.67622e-06 -1.29411e-06 -4.52892e-05
0.00126753 -0.000285104 -3.48001e-06
-0.000285104 0.000177851 4.32312e-06
-3.48001e-06 4.32312e-06 -6.46935e-05
0.00165722 -0.000192096 -2.63248e-06
-0.000192096 0.000607434 2.48181e-07
-2.63248e-06 2.48181e-07 0.000452348
0.000723523 -0.000205982 -6.43455e-07
-0.000205982 1.40684e-06 1.5113e-07
-6.43455e-07 1.5113e-07 -0.000211046
0.00194761 -0.000305036 2.10191e-06
-0.000305036 0.000697456 -1.21119e-06
2.10191e-06 -1.21119e-06 0.000487748
0.000166581 -0.000108411 -2.26229e-06
-0.000108411 -0.000220548 8.43185e-07
-2.26229e-06 8.43185e-07 -0.000403067
0.000911582 -0.00019954 -3.16639e-07
-0.00019954 0.000138121 4.30411e-07
-3.16639e-07 4.30411e-07 -6.51786e-05
0.000573255 -4.99812e-05 6.68143e-08
-4.99812e-05 2.14322e-05 -1.24219e-07
6.68143e-08 -1.24219e-07 -0.000106907
0.00103651 -0.000174833 -3.50006e-06
-0.000174833 0.000307786 2.33618e-06
-3.50006e-06 2.33618e-06 0.000139253
-6.04863e-05 -9.98209e-05 -2.13552e-06
-9.98209e-05 -0.00038352 -2.65887e-06
-2.13552e-06 -2.65887e-06 -0.000569552
0.000643501 2.87455e-05 6.07152e-07
2.87455e-05 4.1986e-05 1.05841e-06
6.07152e-07 1.05841e-06 -4.83944e-05
0.000733615 -3.96261e-05 8.76944e-07
-3.96261e-05 0.000106799 -1.18365e-07
8.76944e-07 -1.18365e-07 -5.04862e-06
0.000839287 -8.32592e-05 2.5931e-06
-8.32592e-05 0.000191695 -2.79438e-06
2.5931e-06 -2.79438e-06 5.61954e-05
0.000695435 -8.403e-06 3.03961e-07
-8.403e-06 8.27968e-05 -2.22644e-07
3.03961e-07 -2.22644e-07 -1.5416e-05
0.000707485 -8.61015e-06 -5.9203e-07
-8.61015e-06 7.52998e-05 -1.34906e-07
-5.9203e-07 -1.34906e-07 -7.25785e-06
0.000624856 3.59518e-05 -1.00688e-06
3.59518e-05 8.39279e-06 2.02277e-06
-1.00688e-06 2.02277e-06 -4.69297e-05
0.000754075 -3.73778e-05 6.7101e-07
-3.73778e-05 0.000105411 -8.26115e-07
6.7101e-07 -8.26115e-07 2.30055e-05
0.000646088 2.78135e-05 -5.8031e-07
2.78135e-05 1.59511e-05 -7.69374e-08
-5.8031e-07 -7.69374e-08 -3.56296e-05
0.000586171 4.31445e-05 -1.08016e-06
4.31445e-05 -2.78584e-05 3.94668e-06
-1.08016e-06 3.94668e-06 -4.56988e-05
0.000694738 -3.82251e-06 2.05431e-06
-3.82251e-06 3.82545e-05 -1.92476e-06
2.05431e-06 -1.92476e-06 -9.98014e-06
0.000587811 3.49105e-05 1.44151e-07
3.49105e-05 -3.35704e-05 1.04549e-08
1.44151e-07 1.04549e-08 -4.93264e-05
0.00221176 6.96577e-05 -4.21264e-06
6.96577e-05 0.000931329 1.83234e-06
-4.21264e-06 1.83234e-06 0.000942479
0.000560833 2.6934e-05 8.84176e-07
2.6934e-05 -5.28048e-05 -3.98052e-06
8.84176e-07 -3.98052e-06 -6.76156e-05
0.00155204 4.33394e-05 8.74491e-06
4.33394e-05 0.000536703 -1.16797e-06
8.74491e-06 -1.16797e-06 0.000546611
0.00232225 4.21895e-05 1.23246e-05
4.21895e-05 0.000986601 -4.72556e-06
1.23246e-05 -4.72556e-06 0.00100117
0.000447753 -2.31679e-06 2.41178e-07
-2.31679e-06 -7.92463e-05 -1.85343e-06
2.41178e-07 -1.85343e-06 -0.000170678
0.000362098 -2.82562e-06 -4.0091e-08
-2.82562e-06 -0.000150975 -2.97163e-06
-4.0091e-08 -2.97163e-06 -0.000204909
0.000614212 1.32701e-05 -4.36952e-07
1.32701e-05 2.77734e-05 -9.32131e-07
-4.36952e-07 -9.32131e-07 -6.40322e-05
0.000605296 -1.5599e-05 1.16239e-07
-1.5599e-05 -3.12898e-05 -3.92384e-06
1.16239e-07 -3.92384e-06 -4.25128e-05
0.000344867 -7.83113e-07 -3.33133e-07
-7.83113e-07 -0.000159918 -1.06216e-06
-3.33133e-07 -1.06216e-06 -0.00020874
0.000781721 2.22042e-05 -1.39255e-07
2.22042e-05 0.00012981 1.67417e-06
-1.39255e-07 1.67417e-06 4.3684e-05
0.00215246 -2.44219e-05 -9.98896e-06
-2.44219e-05 0.000881302 -4.77656e-06
-9.98896e-06 -4.77656e-06 0.000899358
0.000604401 -9.49867e-06 -1.70611e-07
-9.49867e-06 -3.34047e-05 -4.62018e-08
-1.70611e-07 -4.62018e-08 -4.19398e-05
0.000324629 1.3372e-07 5.57935e-07
1.3372e-07 -0.000170976 2.07871e-06
5.57935e-07 2.07871e-06 -0.00021505
0.00207685 -1.04119e-05 -3.46465e-06
-1.04119e-05 0.00083529 4.27901e-08
-3.46465e-06 4.27901e-08 0.000854655
0.000606071 -3.45496e-06 -1.19721e-07
-3.45496e-06 -3.29398e-05 3.4961e-06
-1.19721e-07 3.4961e-06 -3.97646e-05
0.00206501 3.27432e-06 1.26997e-06
3.27432e-06 0.000828508 4.68923e-06
1.26997e-06 4.68923e-06 0.000848057
0.00101619 4.76982e-06 7.64868e-07
4.76982e-06 0.000461512 1.29551e-05
7.64868e-07 1.29551e-05 0.000214349
0.00116289 -9.73883e-05 6.94001e-06
-9.73883e-05 0.000174638 -7.54948e-06
6.94001e-06 -7.54948e-06 -0.0011311
0.00183188 7.43022e-05 2.63298e-05
7.43022e-05 0.00305325 -3.36556e-05
2.63298e-05 -3.36556e-05 0.00208283
0.000777442 7.55788e-05 -1.80175e-07
7.55788e-05 0.000122427 3.23636e-07
-1.80175e-07 3.23636e-07 8.25589e-06
0.000615708 4.77705e-05 6.98009e-07
4.77705e-05 1.27967e-05 7.33012e-09
6.98009e-07 7.33012e-09 -9.29258e-05
0.000933522 0.00010525 9.84031e-07
0.00010525 0.00021087 1.85902e-06
9.84031e-07 1.85902e-06 8.9077e-05
0.00239201 -5.34073e-05 8.66304e-06
-5.34073e-05 0.000221287 0.000139379
8.66304e-06 0.000139379 -0.000831427
0.00319373 -0.000167853 -3.03321e-07
-0.000167853 0.00201034 2.92624e-07
-3.03321e-07 2.92624e-07 0.000870909
0.00351076 -0.000352018 5.30658e-05
-0.000352018 0.00133844 -0.000106456
5.30658e-05 -0.000106456 -0.00110896
0.00537538 -0.000795708 -6.6601e-05
-0.000795708 0.000852333 2.3045e-07
-6.6601e-05 2.3045e-07 0.000278481
0.00221999 -0.000649912 -9.9548e-05
-0.000649912 0.000229765 7.25555e-05
-9.9548e-05 7.25555e-05 -0.00230696
0.00963743 0.00119143 8.60459e-05
0.00119143 0.00318589 4.84107e-05
8.60459e-05 4.84107e-05 0.00276097
0.00229284 0.000212847 3.90348e-05
0.000212847 -0.00302738 -6.95238e-05
3.90348e-05 -6.95238e-05 -0.00198987
0.00529088 -0.00121863 -1.64214e-05
-0.00121863 0.00128536 3.48962e-06
-1.64214e-05 3.48962e-06 0.000532632
0.00667087 -0.000906151 -5.34565e-06
-0.000906151 0.00303948 1.7627e-05
-5.34565e-06 1.7627e-05 -8.28306e-05
-0.00254275 0.000741942 -2.26181e-05
0.000741942 -0.000315482 -9.45239e-05
-2.26181e-05 -9.45239e-05 -0.0018019
0.00501404 4.08647e-05 -1.36587e-05
4.08647e-05 -0.00224627 3.81943e-05
-1.36587e-05 3.81943e-05 -0.000165606
0.00224232 -0.000806409 -4.09398e-05
-0.000806409 0.000319475 -1.81965e-05
-4.09398e-05 -1.81965e-05 -0.000337224
0.0110937 -0.00117254 -3.46807e-05
-0.00117254 0.00505491 4.48941e-05
-3.46807e-05 4.48941e-05 0.00137432
-0.00923027 -9.2487e-05 4.62128e-05
-9.2487e-05 -0.000758758 -0.000174818
4.62128e-05 -0.000174818 -0.00269095
0.00354989 -0.000701013 1.6299e-05
-0.000701013 -0.00191784 -2.71988e-05
1.6299e-05 -2.71988e-05 -0.000662891
0.000742672 3.97159e-05 -4.86019e-07
3.97159e-05 9.93353e-05 3.55533e-06
-4.86019e-07 3.55533e-06 -3.15117e-05
0.000647858 5.69854e-06 1.91143e-07
5.69854e-06 6.80604e-05 -5.00577e-07
1.91143e-07 -5.00577e-07 -7.26869e-05
0.000764157 -6.37069e-05 5.70672e-07
-6.37069e-05 0.000149428 -4.35015e-07
5.70672e-07 -4.35015e-07 1.01035e-05
0.000745832 5.33977e-05 -5.21029e-07
5.33977e-05 0.000101207 -6.90079e-07
-5.21029e-07 -6.90079e-07 -2.02429e-05
0.000880386 0.000118437 1.0301e-06
0.000118437 0.000206617 7.93365e-07
1.0301e-06 7.93365e-07 7.54202e-05
0.0010479 0.000119436 -1.17191e-06
0.000119436 0.00030411 2.25301e-07
-1.17191e-06 2.25301e-07 0.000179117
0.000286097 -0.000414679 1.9417e-05
-0.000414679 -0.000614345 7.72303e-06
1.9417e-05 7.72303e-06 -0.000628568
-0.000634182 -0.000104249 1.87279e-05
-0.000104249 -0.000625786 -2.15486e-05
1.87279e-05 -2.15486e-05 -0.000636702
0.000887598 5.9822e-05 -1.1098e-06
5.9822e-05 0.00022151 -1.02177e-06
-1.1098e-06 -1.02177e-06 7.35722e-05
0.00156835 -0.000185879 2.62788e-05
-0.000185879 0.000651156 -3.25854e-05
2.62788e-05 -3.25854e-05 0.000433927
0.00140949 1.98216e-05 -2.25559e-06
1.98216e-05 0.000591491 7.76506e-07
-2.25559e-06 7.76506e-07 0.000378765
0.000668843 2.34707e-05 -1.78121e-07
2.34707e-05 6.63194e-05 1.01217e-06
-1.78121e-07 1.01217e-06 -6.69473e-05
0.000596545 9.52643e-05 3.62455e-07
9.52643e-05 8.70846e-05 -2.64213e-07
3.62455e-07 -2.64213e-07 -7.08667e-05
0.000256474 -0.000360713 -3.1668e-06
-0.000360713 -0.000532577 -2.96073e-06
-3.1668e-06 -2.96073e-06 -0.000513692
0.000771193 -1.98924e-05 3.07306e-06
-1.98924e-05 0.000316262 -1.34697e-06
3.07306e-06 -1.34697e-06 8.16305e-05
0.0006037 -7.30052e-05 2.09317e-05
-7.30052e-05 0.000340585 -5.20671e-07
2.09317e-05 -5.20671e-07 0.000227974
0.000883405 6.85819e-05 2.95684e-06
6.85819e-05 0.00020052 -6.8796e-06
2.95684e-06 -6.8796e-06 7.55541e-05
-0.00256219 0.000143816 -7.1966e-05
0.000143816 -0.00112036 -1.28862e-05
-7.1966e-05 -1.28862e-05 -0.00150106
-5.73974e-06 8.99039e-06 8.32249e-06
8.99039e-06 3.93356e-06 3.37245e-05
8.32249e-06 3.37245e-05 -0.000112973
0.00131988 3.6532e-06 3.36436e-06
3.6532e-06 0.000611592 1.90873e-06
3.36436e-06 1.90873e-06 0.000421165
0.000979137 -3.09658e-05 -6.99537e-08
-3.09658e-05 -4.67667e-05 6.37171e-07
-6.99537e-08 6.37171e-07 -0.000532335
0.000697503 -2.79395e-05 -1.54635e-05
-2.79395e-05 0.000465067 -8.24341e-06
-1.54635e-05 -8.24341e-06 -2.03927e-06
0.0010128 -3.61503e-05 0.000152422
-3.61503e-05 0.000615015 -6.17082e-06
0.000152422 -6.17082e-06 -0.00074992
0.000627911 0.000172031 1.21785e-05
0.000172031 0.00036957 1.30223e-05
1.21785e-05 1.30223e-05 0.000201538
0.00157273 0.000399084 8.96392e-06
0.000399084 0.000487669 -1.28365e-05
8.96392e-06 -1.28365e-05 0.000243799
0.00081683 -5.86406e-05 6.79908e-06
-5.86406e-05 0.00017824 4.97996e-06
6.79908e-06 4.97996e-06 3.52404e-05
-0.00223041 0.000473443 3.79565e-05
0.000473443 8.47744e-05 4.65561e-05
3.79565e-05 4.65561e-05 -0.00344725
-0.0105087 0.000322442 -6.65554e-05
0.000322442 -0.00370493 -0.000191557
-6.65554e-05 -0.000191557 -0.00560947
0.002639 3.12801e-05 3.57506e-05
3.12801e-05 0.000784457 5.90123e-05
3.57506e-05 5.90123e-05 0.000122674
0.00241788 0.000338383 -4.58931e-05
0.000338383 -0.00295766 6.83743e-05
-4.58931e-05 6.83743e-05 -0.00197411
0.000495004 0.000153947 6.76166e-06
0.000153947 0.00036231 -2.13472e-06
6.76166e-06 -2.13472e-06 0.000164797
0.00159574 -4.70248e-06 1.07172e-05
-4.70248e-06 -0.000154361 -1.79772e-05
1.07172e-05 -1.79772e-05 -5.59025e-05
0.00324628 -0.000120969 -6.20122e-07
-0.000120969 0.00196478 -5.388e-07
-6.20122e-07 -5.388e-07 0.000848394
0.00136603 0.000210203 -2.66635e-05
0.000210203 0.000382913 -3.33827e-06
-2.66635e-05 -3.33827e-06 -9.09359e-05
0.00292904 0.0011756 5.56095e-05
0.0011756 -0.00149012 -0.000138173
5.56095e-05 -0.000138173 -0.000813332
-0.00234611 0.000702323 1.95065e-05
0.000702323 -0.00100587 9.30593e-05
1.95065e-05 9.30593e-05 -0.00203007
0.00673047 5.9849e-06 6.23053e-05
5.9849e-06 0.0050516 -2.43049e-05
6.23053e-05 -2.43049e-05 0.000151349
0.00183827 -3.76021e-05 4.09872e-05
-3.76021e-05 0.0013668 -1.92866e-05
4.09872e-05 -1.92866e-05 0.000994408
0.00110915 3.58097e-05 -6.95434e-06
3.58097e-05 0.000469771 -1.23379e-05
-6.95434e-06 -1.23379e-05 0.000226912
0.00349302 -0.000227033 0.000191881
-0.000227033 0.000962865 -0.000147234
0.000191881 -0.000147234 -0.000963419
0.00420658 0.00159088 -1.284e-06
0.00159088 0.00284828 -1.5938e-05
-1.284e-06 -1.5938e-05 0.00367031
-0.00468351 0.000780469 4.13036e-05
0.000780469 -0.00448711 0.000261694
4.13036e-05 0.000261694 -0.00445519
0.0125415 -0.00107556 0.000105907
-0.00107556 0.00517587 -9.83665e-05
0.000105907 -9.83665e-05 0.00159502
0.00389957 -0.000394333 -8.09535e-05
-0.000394333 0.00131189 8.8663e-05
-8.09535e-05 8.8663e-05 0.00114185
0.000808865 0.000116724 6.07346e-06
0.000116724 0.000509305 5.42492e-06
6.07346e-06 5.42492e-06 0.000340881
-9.7409e-05 7.80454e-06 -1.21848e-05
7.80454e-06 6.35479e-05 2.00658e-06
-1.21848e-05 2.00658e-06 -7.69583e-05
0.00128151 -0.00025183 1.49698e-05
-0.00025183 0.000824789 -1.2493e-05
1.49698e-05 -1.2493e-05 0.000563622
0.00105535 -7.29033e-05 1.27978e-06
-7.29033e-05 0.000346217 2.8344e-06
1.27978e-06 2.8344e-06 0.000258327
-0.000410023 -2.92436e-05 4.98896e-06
-2.92436e-05 -0.000302951 1.15474e-05
4.98896e-06 1.15474e-05 -0.000399781
0.000152117 -0.000156769 -1.21855e-06
-0.000156769 4.29307e-05 -3.78348e-07
-1.21855e-06 -3.78348e-07 -0.00011658
0.00134712 -0.000272853 2.45512e-05
-0.000272853 0.000612794 -1.53638e-05
2.45512e-05 -1.53638e-05 0.000331783
0.00212675 -0.000177461 -4.71515e-06
-0.000177461 0.000881048 4.09919e-06
-4.71515e-06 4.09919e-06 0.000768591
0.00176543 -0.000305441 1.998e-06
-0.000305441 0.000704618 -4.64762e-08
1.998e-06 -4.64762e-08 0.000473866
0.00123785 -0.000290645 8.89038e-06
-0.000290645 0.000436627 2.02095e-06
8.89038e-06 2.02095e-06 6.2342e-05
7.82045e-05 -0.000116304 -1.86718e-06
-0.000116304 -0.000303622 1.14173e-07
-1.86718e-06 1.14173e-07 -0.000442271
0.00131464 -0.000272707 -2.0669e-07
-0.000272707 0.000317127 1.36088e-06
-2.0669e-07 1.36088e-06 7.57587e-05
0.00210958 -0.00039604 9.45506e-07
-0.00039604 0.000666739 2.53171e-06
9.45506e-07 2.53171e-06 0.000346158
0.00175669 -0.000377586 -2.69824e-06
-0.000377586 0.000345065 2.58056e-06
-2.69824e-06 2.58056e-06 7.17244e-05
0.000618778 -0.000216507 3.48729e-07
-0.000216507 -0.000153842 6.12164e-06
3.48729e-07 6.12164e-06 -0.000368947
0.00133069 -0.000292941 -3.15301e-06
-0.000292941 0.000214765 1.87117e-06
-3.15301e-06 1.87117e-06 -3.24605e-05
0.00103359 -0.000234079 -6.96306e-06
-0.000234079 0.000159202 2.39781e-06
-6.96306e-06 2.39781e-06 -6.58361e-05
0.00173541 -0.000277071 4.91062e-06
-0.000277071 0.000608801 -2.07013e-06
4.91062e-06 -2.07013e-06 0.000407564
0.00133179 -0.000248296 2.69799e-06
-0.000248296 0.000346928 -2.77686e-06
2.69799e-06 -2.77686e-06 0.000152669
9.52202e-05 -5.12373e-05 1.44556e-06
-5.12373e-05 -0.000257206 3.87227e-07
1.44556e-06 3.87227e-07 -0.000415089
0.000756128 -0.000163835 1.61609e-06
-0.000163835 0.000123182 -8.12214e-07
1.61609e-06 -8.12214e-07 -6.54001e-05
0.00109298 -0.000212727 5.90507e-06
-0.000212727 0.000247416 -4.42221e-06
5.90507e-06 -4.42221e-06 4.60865e-05
0.000613751 3.16258e-05 1.4813e-06
3.16258e-05 3.34583e-05 1.72409e-06
1.4813e-06 1.72409e-06 -7.47402e-05
0.000881363 -8.05684e-05 -3.97918e-07
-8.05684e-05 0.000205227 3.94617e-07
-3.97918e-07 3.94617e-07 6.8991e-05
0.00107205 -0.000186211 -6.5467e-07
-0.000186211 0.000330161 -6.07066e-07
-6.5467e-07 -6.07066e-07 0.000159192
0.00060738 2.85512e-05 -1.14371e-06
2.85512e-05 1.76491e-06 2.18085e-06
-1.14371e-06 2.18085e-06 -5.85303e-05
0.00072307 -2.52659e-06 -6.9756e-07
-2.52659e-06 8.57587e-05 -2.76515e-07
-6.9756e-07 -2.76515e-07 -5.32821e-06
0.000629319 -2.37911e-05 3.10661e-08
-2.37911e-05 5.22512e-05 -4.06424e-07
3.10661e-08 -4.06424e-07 -6.1733e-05
0.000765717 -2.78668e-05 5.20336e-07
-2.78668e-05 0.000111381 -1.09994e-06
5.20336e-07 -1.09994e-06 2.60442e-05
0.000656444 1.55845e-05 -2.76422e-07
1.55845e-05 2.40629e-05 -1.06317e-07
-2.76422e-07 -1.06317e-07 -2.99337e-05
0.000568678 5.16974e-05 -7.51983e-07
5.16974e-05 -2.8824e-05 4.28275e-06
-7.51983e-07 4.28275e-06 -5.01181e-05
0.000672653 5.55665e-06 1.91197e-06
5.55665e-06 2.85131e-05 -1.84626e-06
1.91197e-06 -1.84626e-06 -2.15246e-05
0.000588185 4.45235e-05 -5.93205e-08
4.45235e-05 -2.65016e-05 -2.10333e-08
-5.93205e-08 -2.10333e-08 -4.45336e-05
0.00225735 7.63727e-05 -2.37773e-05
7.63727e-05 0.000965723 3.79359e-06
-2.37773e-05 3.79359e-06 0.000975495
0.000575919 3.56708e-05 9.53878e-07
3.56708e-05 -4.04806e-05 -3.92588e-06
9.53878e-07 -3.92588e-06 -5.62796e-05
0.00153115 5.39429e-05 1.046e-05
5.39429e-05 0.000530864 -1.02118e-06
1.046e-05 -1.02118e-06 0.000539124
0.00231799 5.5206e-05 1.62225e-05
5.5206e-05 0.000989191 -4.39589e-06
1.62225e-05 -4.39589e-06 0.00100233
0.000707317 5.66149e-05 -1.78501e-07
5.66149e-05 7.36359e-05 -9.61507e-07
-1.78501e-07 -9.61507e-07 -2.1691e-05
0.000649279 1.63259e-05 -5.73075e-07
1.63259e-05 1.46311e-05 -2.37636e-06
-5.73075e-07 -2.37636e-06 -4.14252e-05
0.000586333 3.45193e-05 -1.09615e-06
3.45193e-05 1.06819e-05 -9.38888e-07
-1.09615e-06 -9.38888e-07 -8.6741e-05
0.000592251 -2.21814e-05 2.8946e-07
-2.21814e-05 -3.63575e-05 -4.24471e-06
2.8946e-07 -4.24471e-06 -5.07808e-05
0.000479678 9.8998e-06 -1.18362e-06
9.8998e-06 -8.24327e-05 -1.07678e-06
-1.18362e-06 -1.07678e-06 -0.00013515
0.000797788 3.47353e-05 1.3696e-07
3.47353e-05 0.000134775 1.07254e-08
1.3696e-07 1.07254e-08 4.37235e-05
0.00224009 -3.75406e-05 -1.46545e-05
-3.75406e-05 0.000935293 -4.7052e-06
-1.46545e-05 -4.7052e-06 0.00095165
0.000598276 -1.54303e-05 -2.24093e-07
-1.54303e-05 -3.55669e-05 -5.3418e-08
-2.24093e-07 -5.3418e-08 -4.66043e-05
0.000301766 -1.28575e-06 -5.91396e-07
-1.28575e-06 -0.000185116 1.16069e-06
-5.91396e-07 1.16069e-06 -0.0002346
0.00214436 -2.31693e-05 -3.62618e-06
-2.31693e-05 0.000876177 8.64041e-08
-3.62618e-06 8.64041e-08 0.000894474
0.000603646 -9.61099e-06 -1.8512e-07
-9.61099e-06 -3.37676e-05 3.63395e-06
-1.8512e-07 3.63395e-06 -4.22236e-05
0.00208133 -9.05252e-06 5.85684e-06
-9.05252e-06 0.000837764 4.73079e-06
5.85684e-06 4.73079e-06 0.000857188
0.00167379 -3.7174e-05 -6.23058e-06
-3.7174e-05 -8.23461e-05 1.93872e-05
-6.23058e-06 1.93872e-05 -2.44391e-05
0.00107265 -9.9561e-06 2.78343e-07
-9.9561e-06 0.000404065 -2.09085e-06
2.78343e-07 -2.09085e-06 0.000230589
0.00171468 -8.96403e-05 9.6485e-05
-8.96403e-05 0.000453134 -2.16109e-05
9.6485e-05 -2.16109e-05 -0.000780412
0.000599628 8.78531e-06 2.74423e-07
8.78531e-06 -5.38925e-06 -4.92116e-07
2.74423e-07 -4.92116e-07 -0.000103228
0.000872352 3.43295e-05 -5.37652e-07
3.43295e-05 0.000159524 -3.89225e-07
-5.37652e-07 -3.89225e-07 5.03926e-05
0.000812831 7.90496e-05 6.73893e-07
7.90496e-05 0.000140268 3.3078e-07
6.73893e-07 3.3078e-07 3.0323e-05
0.000638436 3.26337e-05 2.0954e-07
3.26337e-05 1.98366e-05 1.61054e-07
2.0954e-07 1.61054e-07 -8.11888e-05
0.000755219 5.23937e-05 5.78975e-08
5.23937e-05 0.000105276 3.67655e-07
5.78975e-08 3.67655e-07 -1.27586e-05
0.000741179 4.21709e-05 1.24912e-07
4.21709e-05 8.87272e-05 -4.53709e-08
1.24912e-07 -4.53709e-08 -2.12965e-05
0.000801374 0.000153294 1.53681e-06
0.000153294 0.000150094 2.44709e-06
1.53681e-06 2.44709e-06 1.15067e-05
-1.74876e-05 2.29494e-05 4.42038e-05
2.29494e-05 9.05236e-05 0.000136301
4.42038e-05 0.000136301 -0.00137379
0.00255312 -4.57811e-05 -8.37607e-06
-4.57811e-05 0.000591158 4.68502e-05
-8.37607e-06 4.68502e-05 -0.000260834
0.00288087 -0.000133033 1.75784e-05
-0.000133033 0.00190047 -6.52104e-05
1.75784e-05 -6.52104e-05 0.000745895
0.00372198 -0.000131841 -2.25467e-05
-0.000131841 -0.00373018 4.12811e-05
-2.25467e-05 4.12811e-05 -0.00113658
0.00334711 -0.00102429 -6.3858e-05
-0.00102429 0.00114701 5.74132e-05
-6.3858e-05 5.74132e-05 0.000168092
-0.00181316 -0.00110713 9.01044e-06
-0.00110713 -0.000493856 7.05112e-05
9.01044e-06 7.05112e-05 -0.00408721
0.00754172 0.00139643 6.4872e-05
0.00139643 0.00421758 -3.45686e-05
6.4872e-05 -3.45686e-05 0.00242038
0.00384248 -0.000955314 -2.17734e-05
-0.000955314 0.00102854 4.75068e-06
-2.17734e-05 4.75068e-06 0.000337825
-4.83066e-05 -0.000435668 3.16528e-05
-0.000435668 0.00113165 1.59762e-05
3.16528e-05 1.59762e-05 -0.00288813
0.0043826 2.34764e-07 -5.54894e-06
2.34764e-07 0.00237529 -6.98973e-06
-5.54894e-06 -6.98973e-06 0.00135749
0.00805137 -0.000965625 -2.91964e-05
-0.000965625 0.000987919 -3.51986e-05
-2.91964e-05 -3.51986e-05 0.00219933
-2.15e-05 1.84605e-05 -0.000120143
1.84605e-05 -0.000970673 6.30077e-05
-0.000120143 6.30077e-05 -0.000830634
0.000758293 0.000985198 -2.16889e-05
0.000985198 0.00140883 -9.58071e-05
-2.16889e-05 -9.58071e-05 -0.00257264
-0.00688967 -0.00146501 5.2203e-05
-0.00146501 -0.00406122 -0.000113275
5.2203e-05 -0.000113275 -0.00582816
0.00387402 -0.00090444 1.81934e-05
-0.00090444 -0.00116022 -0.000200675
1.81934e-05 -0.000200675 0.000259455
0.000787395 1.27352e-05 8.10804e-08
1.27352e-05 0.000131048 4.79649e-09
8.10804e-08 4.79649e-09 1.93234e-05
0.000678853 4.09754e-05 3.85221e-07
4.09754e-05 6.81804e-05 -3.04336e-07
3.85221e-07 -3.04336e-07 -6.39564e-05
0.000770077 1.43448e-05 1.93636e-07
1.43448e-05 0.00014993 -1.53076e-06
1.93636e-07 -1.53076e-06 1.33147e-06
0.000780159 4.46553e-05 -4.997e-07
4.46553e-05 0.000129572 -2.42007e-06
-4.997e-07 -2.42007e-06 -1.07652e-07
-2.69554e-05 -0.000370349 -7.4971e-07
-0.000370349 -0.000714465 2.42911e-05
-7.4971e-07 2.42911e-05 -0.000776812
0.00128466 -5.64195e-05 -1.07054e-05
-5.64195e-05 0.000733399 -2.76667e-05
-1.07054e-05 -2.76667e-05 0.000629092
0.000605314 2.28558e-05 -1.70831e-06
2.28558e-05 1.46492e-05 -1.74978e-06
-1.70831e-06 -1.74978e-06 -0.000107786
0.000707111 0.000104353 -1.37056e-06
0.000104353 0.000157849 2.12e-06
-1.37056e-06 2.12e-06 -1.17027e-06
0.00226079 -5.59237e-05 1.04266e-05
-5.59237e-05 0.00114142 -2.40957e-05
1.04266e-05 -2.40957e-05 0.000934027
0.000829826 5.24237e-05 5.05156e-09
5.24237e-05 0.000168361 2.03203e-06
5.05156e-09 2.03203e-06 4.71808e-05
0.000766824 7.36481e-05 -1.97108e-06
7.36481e-05 0.000315283 -2.12187e-06
-1.97108e-06 -2.12187e-06 0.00010998
-0.000186799 3.09078e-05 3.52925e-05
3.09078e-05 1.70471e-05 -1.4639e-05
3.52925e-05 -1.4639e-05 -0.000459959
0.000527716 -1.8561e-06 3.23579e-05
-1.8561e-06 0.000312744 1.66478e-08
3.23579e-05 1.66478e-08 0.000223907
0.000315096 0.000120343 -3.27224e-07
0.000120343 1.90595e-05 -4.41332e-06
-3.27224e-07 -4.41332e-06 -0.000125947
0.000169915 -8.53645e-05 -2.5752e-05
-8.53645e-05 0.000650047 -4.04065e-05
-2.5752e-05 -4.04065e-05 -0.000471459
0.00349188 0.000100553 1.76663e-05
0.000100553 0.00187331 2.10964e-05
1.76663e-05 2.10964e-05 0.00169367
0.000896511 -1.55497e-05 6.39984e-06
-1.55497e-05 0.000585987 7.26744e-06
6.39984e-06 7.26744e-06 5.2458e-05
0.00135926 -3.40054e-05 1.11067e-07
-3.40054e-05 0.000180088 3.0573e-07
1.11067e-07 3.0573e-07 -0.000125395
0.000507615 -2.86056e-05 -1.9566e-06
-2.86056e-05 0.000321566 -1.24563e-05
-1.9566e-06 -1.24563e-05 -7.4634e-05
-0.000219256 8.74074e-05 4.67664e-08
8.74074e-05 1.35662e-05 6.55723e-06
4.67664e-08 6.55723e-06 -0.000157377
-0.000462589 0.000244524 3.33163e-05
0.000244524 -0.000671822 3.87518e-05
3.33163e-05 3.87518e-05 -0.000826117
0.00141647 -2.85826e-05 1.43711e-05
-2.85826e-05 -0.000267265 -2.77914e-06
1.43711e-05 -2.77914e-06 -9.69951e-05
0.00384086 -0.00087125 0.000123085
-0.00087125 0.00362839 -0.000125449
0.000123085 -0.000125449 -0.00113716
0.00743172 0.00145105 -6.02903e-05
0.00145105 0.00363351 3.70066e-05
-6.02903e-05 3.70066e-05 0.00208685
0.00298533 -8.75139e-05 -2.13134e-05
-8.75139e-05 0.00186777 6.52531e-05
-2.13134e-05 6.52531e-05 0.000734251
0.0048716 0.00125956 -2.38143e-05
0.00125956 -6.54883e-05 -3.83564e-05
-2.38143e-05 -3.83564e-05 0.000431052
-0.000134514 0.000123449 -7.44732e-06
0.000123449 0.000357541 6.98878e-06
-7.44732e-06 6.98878e-06 -9.90025e-05
0.00113894 1.93468e-05 -6.25127e-07
1.93468e-05 0.000412632 2.18161e-06
-6.25127e-07 2.18161e-06 0.000250474
0.00341967 -0.000276871 6.61747e-05
-0.000276871 0.0010204 -7.77572e-06
6.61747e-05 -7.77572e-06 -0.00111393
0.000301349 -0.000142992 2.44845e-06
-0.000142992 -0.000603848 2.41985e-05
2.44845e-06 2.41985e-05 -0.000536514
-0.00150454 0.0017017 0.0001004
0.0017017 -0.000323593 -4.37051e-05
0.0001004 -4.37051e-05 0.00101516
0.00617297 0.000849536 -4.72957e-05
0.000849536 0.000268555 9.63574e-05
-4.72957e-05 9.63574e-05 0.000246137
-0.00249026 -0.000774181 6.72605e-05
-0.000774181 0.000204791 -6.14104e-05
6.72605e-05 -6.14104e-05 -0.00444
0.00106421 -9.17667e-05 4.388e-05
-9.17667e-05 0.000572202 -1.1669e-05
4.388e-05 -1.1669e-05 0.00034178
0.000826678 -0.000110005 6.51794e-05
-0.000110005 -0.00014198 -2.69725e-05
6.51794e-05 -2.69725e-05 -0.00136334
-0.00178512 0.000152959 -0.000199143
0.000152959 0.0013506 -1.43649e-05
-0.000199143 -1.43649e-05 0.000134456
0.00235693 0.00154771 -0.00012944
0.00154771 3.94857e-05 0.00020698
-0.00012944 0.00020698 0.000457148
0.00788301 -0.000590326 1.82735e-05
-0.000590326 0.00359291 -1.61533e-05
1.82735e-05 -1.61533e-05 0.000467071
0.00336308 -0.000409192 -6.17909e-05
-0.000409192 0.000903613 5.4719e-05
-6.17909e-05 5.4719e-05 0.000603953
-0.000895271 3.8227e-05 2.43636e-05
3.8227e-05 -0.000388259 1.3931e-05
2.43636e-05 1.3931e-05 -0.000550435
9.58783e-05 -0.000165801 -1.09484e-05
-0.000165801 0.000213009 1.3824e-06
-1.09484e-05 1.3824e-06 -5.07241e-05
0.000275407 -0.000229818 2.06596e-05
-0.000229818 1.84787e-05 -5.59777e-06
2.06596e-05 -5.59777e-06 -0.00013591
-0.000743571 -0.000130288 -4.0486e-06
-0.000130288 -0.000431744 6.60944e-06
-4.0486e-06 6.60944e-06 -0.0005789
-0.000656492 -0.000145425 1.34965e-06
-0.000145425 -0.000435765 -4.20315e-06
1.34965e-06 -4.20315e-06 -0.000719538
0.00295618 -0.000499786 2.66852e-05
-0.000499786 0.00112227 -4.46716e-06
2.66852e-05 -4.46716e-06 0.000841775
0.00353283 -0.000477578 -7.29629e-06
-0.000477578 0.00162547 2.85716e-06
-7.29629e-06 2.85716e-06 0.00138145
0.00201908 -0.000356343 4.08067e-06
-0.000356343 0.000806559 1.03464e-06
4.08067e-06 1.03464e-06 0.000453844
0.00115414 -0.000342115 7.73984e-06
-0.000342115 0.000161813 -4.59917e-06
7.73984e-06 -4.59917e-06 -0.000198376
0.00172859 -0.000308343 -6.26972e-06
-0.000308343 0.000516283 1.35166e-06
-6.26972e-06 1.35166e-06 0.000262619
0.00223016 -0.000412318 1.70947e-06
-0.000412318 0.00070225 2.18648e-07
1.70947e-06 2.18648e-07 0.000378491
0.00197381 -0.000409874 1.11919e-06
-0.000409874 0.00048862 -5.1917e-06
1.11919e-06 -5.1917e-06 0.000165639
0.00181629 -0.000368046 -4.27105e-07
-0.000368046 0.000312197 -2.95376e-06
-4.27105e-07 -2.95376e-06 7.4017e-05
0.00205717 -0.000394112 -3.87716e-06
-0.000394112 0.000514306 4.09824e-06
-3.87716e-06 4.09824e-06 0.000253054
0.00174069 -0.000378358 -1.04763e-06
-0.000378358 0.000337773 -4.11485e-07
-1.04763e-06 -4.11485e-07 5.93079e-05
0.000365491 -0.000180973 5.07734e-06
-0.000180973 -0.000280025 1.28691e-06
5.07734e-06 1.28691e-06 -0.0004706
0.00109578 -0.000252796 1.98493e-06
-0.000252796 0.000115532 -5.15352e-08
1.98493e-06 -5.15352e-08 -9.71835e-05
0.00138064 -0.000299265 -8.01855e-07
-0.000299265 0.000245077 -2.80494e-06
-8.01855e-07 -2.80494e-06 -6.60783e-06
0.00119298 -0.000216545 2.49766e-06
-0.000216545 0.000323127 7.74198e-07
2.49766e-06 7.74198e-07 0.000126976
0.00128243 -0.000234953 -2.042e-06
-0.000234953 0.000344209 -1.6832e-06
-2.042e-06 -1.6832e-06 0.000149278
0.000704701 -0.000190562 4.68629e-06
-0.000190562 -9.81718e-06 -4.42745e-06
4.68629e-06 -4.42745e-06 -0.000188535
0.000579241 -4.52289e-05 2.23289e-06
-4.52289e-05 2.21309e-05 1.50644e-06
2.23289e-06 1.50644e-06 -0.000118975
0.00052522 -8.72456e-05 -2.97717e-07
-8.72456e-05 8.55082e-07 9.24263e-07
-2.97717e-07 9.24263e-07 -0.000161873
0.00135842 -0.000220574 2.881e-06
-0.000220574 0.000474022 -3.16933e-06
2.881e-06 -3.16933e-06 0.000279271
0.000553984 4.13881e-05 -5.63676e-08
4.13881e-05 -1.77536e-05 2.91424e-06
-5.63676e-08 2.91424e-06 -9.18519e-05
0.000740288 -1.44447e-05 -3.62222e-07
-1.44447e-05 0.000110918 -5.51097e-07
-3.62222e-07 -5.51097e-07 -4.18926e-06
0.00116857 -0.000109601 1.29131e-07
-0.000109601 0.00037579 -5.11339e-07
1.29131e-07 -5.11339e-07 0.000232906
0.000527269 6.05338e-05 -1.23804e-06
6.05338e-05 -4.21333e-05 6.07971e-06
-1.23804e-06 6.07971e-06 -6.75632e-05
0.000645448 2.54672e-05 -2.74731e-07
2.54672e-05 2.24242e-05 -2.7985e-07
-2.74731e-07 -2.7985e-07 -3.7834e-05
0.000793963 -2.39331e-05 -2.76985e-07
-2.39331e-05 0.000128368 -1.49081e-06
-2.76985e-07 -1.49081e-06 3.41247e-05
0.000666192 1.38754e-05 1.52168e-06
1.38754e-05 2.8866e-05 -2.07617e-06
1.52168e-06 -2.07617e-06 -2.49969e-05
0.000572353 5.39453e-05 2.61971e-08
5.39453e-05 -2.56745e-05 -1.54888e-08
2.61971e-08 -1.54888e-08 -4.74782e-05
0.00229901 8.97526e-05 -2.6364e-05
8.97526e-05 0.000998801 3.4343e-06
-2.6364e-05 3.4343e-06 0.00100549
0.000586304 4.6112e-05 4.97211e-07
4.6112e-05 -2.74374e-05 -4.0927e-06
4.97211e-07 -4.0927e-06 -4.56915e-05
0.0022844 7.86296e-05 2.44445e-06
7.86296e-05 0.000982516 2.01984e-07
2.44445e-06 2.01984e-07 0.00099182
0.00228235 6.73474e-05 1.9626e-05
6.73474e-05 0.000974523 -3.988e-06
1.9626e-05 -3.988e-06 0.00098601
0.000724005 4.36034e-05 -1.29535e-07
4.36034e-05 9.08423e-05 -6.46108e-07
-1.29535e-07 -6.46108e-07 -2.34487e-05
0.000773681 7.40412e-05 -1.58798e-07
7.40412e-05 0.000121903 -1.31927e-06
-1.58798e-07 -1.31927e-06 1.51011e-05
0.000657717 8.13718e-06 -6.95382e-07
8.13718e-06 1.87416e-05 -2.53806e-06
-6.95382e-07 -2.53806e-06 -4.19778e-05
0.000726091 6.75264e-05 -1.02068e-07
6.75264e-05 8.42846e-05 2.32517e-08
-1.02068e-07 2.32517e-08 -1.12185e-05
0.000580574 -2.90377e-05 1.65803e-07
-2.90377e-05 -3.84706e-05 -4.68188e-06
1.65803e-07 -4.68188e-06 -5.67822e-05
0.000649858 1.6118e-05 -1.07918e-07
1.6118e-05 1.5422e-05 -8.02934e-08
-1.07918e-07 -8.02934e-08 -4.06056e-05
0.000674606 3.71605e-05 -1.25951e-06
3.71605e-05 5.17223e-05 5.10117e-07
-1.25951e-06 5.10117e-07 -3.75839e-05
0.00233681 -5.10745e-05 -1.92388e-05
-5.10745e-05 0.000995756 -4.62207e-06
-1.92388e-05 -4.62207e-06 0.00100992
0.000593522 -2.1945e-05 -2.13652e-07
-2.1945e-05 -3.54769e-05 -5.54205e-08
-2.13652e-07 -5.54205e-08 -4.97835e-05
0.000606508 1.95765e-05 -7.60511e-07
1.95765e-05 -8.61947e-06 1.18314e-06
-7.60511e-07 1.18314e-06 -6.01342e-05
0.00222164 -3.6237e-05 -3.75848e-06
-3.6237e-05 0.000923967 1.32632e-07
-3.75848e-06 1.32632e-07 0.000940652
0.000597839 -1.52996e-05 -2.30556e-07
-1.52996e-05 -3.59431e-05 3.78102e-06
-2.30556e-07 3.78102e-06 -4.6824e-05
0.00212862 -2.18608e-05 1.0019e-05
-2.18608e-05 0.000866536 4.69789e-06
1.0019e-05 4.69789e-06 0.000885084
0.000877866 -7.71976e-05 5.8909e-06
-7.71976e-05 0.000106421 1.76372e-05
5.8909e-06 1.76372e-05 1.31275e-05
0.00156742 -5.78617e-05 -1.22068e-05
-5.78617e-05 -0.000170085 1.82762e-05
-1.22068e-05 1.82762e-05 -6.05456e-05
0.0011524 -2.16044e-05 4.97679e-06
-2.16044e-05 0.000350797 -9.54115e-06
4.97679e-06 -9.54115e-06 0.000258723
0.000737828 4.39671e-05 -1.67206e-07
4.39671e-05 8.99392e-05 1.69652e-09
-1.67206e-07 1.69652e-09 -1.92706e-05
0.000709265 2.14389e-05 4.75707e-07
2.14389e-05 6.55432e-05 7.86744e-09
4.75707e-07 7.86744e-09 -4.1533e-05
0.000561878 2.40667e-05 -1.8973e-06
2.40667e-05 -1.97904e-05 -2.07669e-06
-1.8973e-06 -2.07669e-06 -0.000126901
0.000505497 -1.56129e-06 -1.73182e-07
-1.56129e-06 -5.04053e-05 -7.51424e-07
-1.73182e-07 -7.51424e-07 -0.000156694
0.00106207 0.000110452 -7.16913e-07
0.000110452 0.00028683 -1.08498e-06
-7.16913e-07 -1.08498e-06 0.000158872
0.000671945 1.42901e-05 -6.35682e-07
1.42901e-05 3.45568e-05 2.83019e-07
-6.35682e-07 2.83019e-07 -6.30566e-05
0.000680855 3.86989e-05 -3.17053e-07
3.86989e-05 5.38071e-05 -1.47978e-06
-3.17053e-07 -1.47978e-06 -5.76845e-05
0.000770659 4.96504e-05 -9.75397e-08
4.96504e-05 0.000108139 -9.77882e-08
-9.75397e-08 -9.77882e-08 -4.43124e-06
0.000908649 8.27684e-05 5.01128e-07
8.27684e-05 0.000193035 3.71939e-07
5.01128e-07 3.71939e-07 7.01058e-05
0.00101064 5.60999e-05 1.12679e-07
5.60999e-05 0.000264353 -3.78373e-07
1.12679e-07 -3.78373e-07 0.000143078
0.00241938 0.000137239 0.000126062
0.000137239 0.00118001 0.000182476
0.000126062 0.000182476 -0.00102105
0.000662261 6.6281e-05 1.01188e-05
6.6281e-05 0.000200086 4.95085e-05
1.01188e-05 4.95085e-05 -0.00127542
0.00253163 -3.03845e-05 -1.35881e-05
-3.03845e-05 0.000883042 -9.93307e-06
-1.35881e-05 -9.93307e-06 0.000194154
0.00804156 -0.000852169 -6.94571e-05
-0.000852169 0.00109061 -7.9444e-05
-6.94571e-05 -7.9444e-05 0.00238412
-0.0107058 0.000608711 -4.04733e-05
0.000608711 -0.00355918 0.000208538
-4.04733e-05 0.000208538 -0.00560918
0.00550301 -0.000977482 -0.000109816
-0.000977482 0.00201172 5.43235e-05
-0.000109816 5.43235e-05 0.00133033
0.0100763 -0.000676778 -5.27974e-05
-0.000676778 0.00420871 -1.71101e-05
-5.27974e-05 -1.71101e-05 0.000966293
0.00238374 -0.000112122 -1.33727e-05
-0.000112122 0.000338388 5.33112e-05
-1.33727e-05 5.33112e-05 1.48481e-05
0.0112523 -0.000140547 1.78935e-05
-0.000140547 0.005454 -1.61385e-05
1.78935e-05 -1.61385e-05 0.00156088
0.00184119 -0.000881093 4.83503e-05
-0.000881093 0.000158171 5.20995e-05
4.83503e-05 5.20995e-05 -0.00101249
0.00312725 -0.00107209 -0.00010915
-0.00107209 -0.00173439 -0.000240513
-0.00010915 -0.000240513 -0.000381748
0.00342116 0.000143929 -9.68372e-05
0.000143929 0.000704266 2.49043e-05
-9.68372e-05 2.49043e-05 0.000208487
0.009251 0.000707735 -1.23914e-05
0.000707735 0.00421743 1.9913e-05
-1.23914e-05 1.9913e-05 0.00113189
0.0102679 -0.00167169 -2.28159e-05
-0.00167169 0.00326593 -0.000192499
-2.28159e-05 -0.000192499 0.00318506
0.00606496 -0.00169083 5.49925e-05
-0.00169083 0.0010621 4.10945e-06
5.49925e-05 4.10945e-06 0.00253754
0.000191124 5.13539e-05 2.50601e-07
5.13539e-05 -0.000141045 -2.4495e-06
2.50601e-07 -2.4495e-06 -0.000246978
0.000966392 9.86486e-06 3.10744e-07
9.86486e-06 0.000244055 1.97713e-06
3.10744e-07 1.97713e-06 0.000120838
0.000694315 4.48643e-05 -1.43904e-07
4.48643e-05 7.92286e-05 -2.68527e-06
-1.43904e-07 -2.68527e-06 -5.46127e-05
0.00118991 -9.86127e-06 -3.90568e-05
-9.86127e-06 0.000684454 1.87833e-05
-3.90568e-05 1.87833e-05 8.29986e-05
0.00101079 -4.24892e-05 -7.17118e-05
-4.24892e-05 0.000608414 -2.99067e-05
-7.17118e-05 -2.99067e-05 0.000535738
0.000716832 -1.07798e-06 -1.66031e-06
-1.07798e-06 0.00010458 3.72072e-06
-1.66031e-06 3.72072e-06 -1.83824e-05
-0.000778956 6.56135e-05 -2.18084e-06
6.56135e-05 -0.000529998 -4.46815e-06
-2.18084e-06 -4.46815e-06 -0.000755947
0.000573366 7.70492e-05 1.49297e-07
7.70492e-05 0.000170105 -2.97688e-06
1.49297e-07 -2.97688e-06 1.34568e-05
0.000616184 8.5011e-05 -3.85309e-06
8.5011e-05 0.000336208 3.85812e-06
-3.85309e-06 3.85812e-06 0.000133265
-0.000308217 -2.91896e-05 0.000109257
-2.91896e-05 0.00061782 -3.90815e-05
0.000109257 -3.90815e-05 -0.000519515
-0.00240537 -4.25708e-06 -2.19997e-05
-4.25708e-06 -0.00132981 1.17225e-05
-2.19997e-05 1.17225e-05 -0.00148816
0.00223868 0.000244497 -2.43753e-05
0.000244497 0.00130243 -3.84363e-05
-2.43753e-05 -3.84363e-05 0.000561607
0.00187768 6.76391e-07 6.76329e-05
6.76391e-07 0.000855152 9.60105e-06
6.76329e-05 9.60105e-06 -0.00050976
0.000711391 -1.82668e-05 1.61786e-05
-1.82668e-05 0.000458318 8.94866e-06
1.61786e-05 8.94866e-06 1.50044e-06
0.00177389 -4.73517e-05 -5.42217e-07
-4.73517e-05 0.000422869 -2.0025e-07
-5.42217e-07 -2.0025e-07 0.000291966
-0.00270813 0.000158977 5.32987e-05
0.000158977 -0.000967188 7.95161e-06
5.32987e-05 7.95161e-06 -0.00155607
0.00341498 0.000101851 -1.91161e-05
0.000101851 0.00108613 -4.75406e-06
-1.91161e-05 -4.75406e-06 0.000603427
0.0012011 -1.92328e-06 1.01916e-06
-1.92328e-06 0.000373177 8.12531e-06
1.01916e-06 8.12531e-06 0.000287701
0.0156398 -0.00116937 0.000113471
-0.00116937 0.00687487 -2.17709e-05
0.000113471 -2.17709e-05 0.00319698
0.00925873 0.00124044 -6.88689e-05
0.00124044 0.00296812 -3.90012e-05
-6.88689e-05 -3.90012e-05 0.00246277
0.00357664 -0.000315096 -5.76952e-05
-0.000315096 0.00124876 0.000109294
-5.76952e-05 0.000109294 -0.00112264
-0.00728923 0.0018922 0.000468875
0.0018922 -0.00366081 -0.000357808
0.000468875 -0.000357808 -0.00182994
0.000895292 -0.000108027 -6.3272e-07
-0.000108027 0.000630031 -1.90902e-06
-6.3272e-07 -1.90902e-06 0.000330872
0.00119992 -9.07067e-05 -7.2615e-06
-9.07067e-05 8.58617e-05 7.53586e-06
-7.2615e-06 7.53586e-06 -0.00119225
-0.0026787 0.000205855 -0.000272171
0.000205855 0.00137041 0.000120817
-0.000272171 0.000120817 0.00023232
0.00189663 -0.000301823 -2.52207e-05
-0.000301823 0.000217226 3.35082e-05
-2.52207e-05 3.35082e-05 -6.1978e-05
0.00974157 0.00170413 6.21567e-05
0.00170413 0.00311408 6.26789e-05
6.21567e-05 6.26789e-05 0.00361023
0.00747926 -0.00111522 7.12555e-05
-0.00111522 0.00312775 -4.72446e-05
7.12555e-05 -4.72446e-05 0.000255868
0.00118338 -0.000240824 1.20015e-05
-0.000240824 0.000276535 2.45501e-05
1.20015e-05 2.45501e-05 0.000350214
-0.00346709 -0.000220644 2.63849e-05
-0.000220644 0.00100656 -1.46092e-05
2.63849e-05 -1.46092e-05 -0.000779132
0.00806799 0.00153593 -0.000283169
0.00153593 0.0038937 0.000131668
-0.000283169 0.000131668 0.00384181
0.00238711 -0.000593578 -0.000158399
-0.000593578 -0.000112099 0.00010974
-0.000158399 0.00010974 -0.00303937
0.00228807 -0.00081259 7.26077e-05
-0.00081259 0.000323692 -2.68693e-05
7.26077e-05 -2.68693e-05 4.78123e-07
-0.000682395 -0.000127123 -2.35191e-05
-0.000127123 -0.000208631 1.27213e-05
-2.35191e-05 1.27213e-05 -0.000460116
0.000414453 -0.000233645 -2.80681e-06
-0.000233645 0.000126949 4.05088e-06
-2.80681e-06 4.05088e-06 -9.10997e-05
0.00395597 -0.000548238 3.09368e-05
-0.000548238 0.00155652 3.58625e-06
3.09368e-05 3.58625e-06 0.00145364
-0.00255226 -3.56285e-05 -5.87642e-06
-3.56285e-05 -0.00142606 8.80162e-06
-5.87642e-06 8.80162e-06 -0.0017102
0.000754576 -0.000300756 2.9492e-06
-0.000300756 6.73884e-06 6.11999e-07
2.9492e-06 6.11999e-07 -0.000280235
0.0020788 -0.000487065 4.86538e-06
-0.000487065 0.000406844 -1.5657e-07
4.86538e-06 -1.5657e-07 0.00017396
0.00262539 -0.000403906 -9.82391e-06
-0.000403906 0.00108252 2.44737e-06
-9.82391e-06 2.44737e-06 0.000753835
0.00128203 -0.000347226 -2.2717e-06
-0.000347226 0.000207462 -3.16532e-06
-2.2717e-06 -3.16532e-06 -0.000131674
0.00208119 -0.000469615 4.69764e-06
-0.000469615 0.00041255 -4.16078e-06
4.69764e-06 -4.16078e-06 0.000151012
0.00230507 -0.000423843 -3.87878e-06
-0.000423843 0.000714274 -1.93725e-06
-3.87878e-06 -1.93725e-06 0.000387717
0.00154586 -0.000374999 -9.02944e-08
-0.000374999 0.000230277 -3.03631e-06
-9.02944e-08 -3.03631e-06 -7.954e-05
0.00190986 -0.000391879 -2.57189e-07
-0.000391879 0.0002984 -6.2567e-06
-2.57189e-07 -6.2567e-06 6.73307e-05
0.00168647 -0.000311496 -1.79704e-06
-0.000311496 0.000155687 -3.20034e-06
-1.79704e-06 -3.20034e-06 -3.37035e-05
0.00162745 -0.000356158 2.11304e-06
-0.000356158 0.00020555 -1.26347e-06
2.11304e-06 -1.26347e-06 -3.64714e-05
0.00168902 -0.000358275 1.70464e-06
-0.000358275 0.000243014 -1.69369e-06
1.70464e-06 -1.69369e-06 7.29965e-06
0.00163365 -0.000314819 -1.64321e-06
-0.000314819 0.000321618 4.26855e-06
-1.64321e-06 4.26855e-06 9.28745e-05
0.00186824 -0.000379061 -1.83884e-06
-0.000379061 0.000419259 2.26815e-07
-1.83884e-06 2.26815e-07 0.000155734
0.00174773 -0.000381562 4.13821e-07
-0.000381562 0.00034361 -3.03474e-06
4.13821e-07 -3.03474e-06 5.98188e-05
0.001105 -0.000226636 3.08725e-06
-0.000226636 0.000195583 2.24369e-07
3.08725e-06 2.24369e-07 -9.96324e-07
0.000658426 -0.00020267 -4.74754e-07
-0.00020267 -0.000107715 -1.23752e-06
-4.74754e-07 -1.23752e-06 -0.000296945
0.0015526 -0.000287996 5.77577e-06
-0.000287996 0.000374912 -5.31794e-06
5.77577e-06 -5.31794e-06 0.000164994
0.000737393 -0.00014564 -1.70323e-07
-0.00014564 7.96882e-05 -3.52775e-07
-1.70323e-07 -3.52775e-07 -8.68653e-05
0.0008829 -0.000183715 1.817e-07
-0.000183715 0.000146647 -1.45911e-07
1.817e-07 -1.45911e-07 -4.31237e-05
0.000827677 -0.000192548 -2.1115e-06
-0.000192548 7.85219e-05 -4.72015e-07
-2.1115e-06 -4.72015e-07 -0.00011015
0.000529774 4.08453e-05 1.12038e-06
4.08453e-05 -2.25109e-05 4.39395e-06
1.12038e-06 4.39395e-06 -0.000118099
0.000781627 -6.90207e-05 9.7085e-07
-6.90207e-05 0.000145369 6.09707e-07
9.7085e-07 6.09707e-07 -4.19989e-06
0.000993854 -0.000128569 -2.09058e-06
-0.000128569 0.000281912 9.62469e-07
-2.09058e-06 9.62469e-07 0.000113329
0.00134615 0.000100376 -1.35084e-05
0.000100376 0.000455942 4.19519e-06
-1.35084e-05 4.19519e-06 0.000424893
0.000648593 1.87434e-05 -5.10804e-07
1.87434e-05 3.27123e-05 -6.34704e-07
-5.10804e-07 -6.34704e-07 -4.09555e-05
0.000853979 -5.11291e-05 -1.57953e-06
-5.11291e-05 0.000180967 -1.8155e-06
-1.57953e-06 -1.8155e-06 5.9078e-05
0.000748643 4.74914e-05 -2.68561e-05
4.74914e-05 9.49874e-05 3.46434e-06
-2.68561e-05 3.46434e-06 9.45352e-05
0.000981568 7.78029e-05 -8.01975e-06
7.78029e-05 0.000227516 8.61655e-08
-8.01975e-06 8.61655e-08 0.000201978
0.000681369 2.14098e-05 8.08741e-07
2.14098e-05 4.1646e-05 -2.5857e-06
8.08741e-07 -2.5857e-06 -1.85227e-05
0.000579458 5.77943e-05 -2.05891e-07
5.77943e-05 -1.98712e-05 -4.49075e-06
-2.05891e-07 -4.49075e-06 -4.25585e-05
0.00234217 9.19124e-05 2.80309e-06
9.19124e-05 0.00102498 2.48778e-07
2.80309e-06 2.48778e-07 0.00103119
0.00230317 8.0412e-05 2.28842e-05
8.0412e-05 0.000994514 -3.68614e-06
2.28842e-05 -3.68614e-06 0.00100343
0.000682875 3.9517e-05 1.06282e-07
3.9517e-05 5.5286e-05 -4.8544e-07
1.06282e-07 -4.8544e-07 -5.3954e-05
0.000791329 5.95059e-05 -4.8727e-08
5.95059e-05 0.000129177 -1.67305e-06
-4.8727e-08 -1.67305e-06 2.04014e-05
0.000675823 2.99997e-05 5.2926e-08
2.99997e-05 5.09868e-05 6.48169e-08
5.2926e-08 6.48169e-08 -5.4709e-05
0.000661285 -3.14533e-06 -9.06136e-07
-3.14533e-06 2.17636e-05 -2.71145e-06
-9.06136e-07 -2.71145e-06 -4.32111e-05
0.000735094 4.8695e-05 6.50246e-07
4.8695e-05 8.82639e-05 2.41488e-08
6.50246e-07 2.41488e-08 -9.9434e-06
0.000570162 -3.23378e-05 -4.40534e-07
-3.23378e-05 -3.91599e-05 -5.0434e-06
-4.40534e-07 -5.0434e-06 -6.12386e-05
0.000645003 1.15027e-05 -1.02101e-07
1.15027e-05 1.26543e-05 -7.602e-08
-1.02101e-07 -7.602e-08 -4.85035e-05
0.00075162 6.00911e-05 1.34477e-07
6.00911e-05 0.000113521 1.5776e-06
1.34477e-07 1.5776e-06 7.82503e-06
0.00246287 -6.48929e-05 -2.51348e-05
-6.48929e-05 0.00107459 -4.44621e-06
-2.51348e-05 -4.44621e-06 0.00108613
0.000576765 -2.84043e-05 -3.65912e-07
-2.84043e-05 -4.0977e-05 -3.77149e-08
-3.65912e-07 -3.77149e-08 -5.90713e-05
0.000637652 1.72019e-05 5.07452e-07
1.72019e-05 8.89122e-06 2.50538e-06
5.07452e-07 2.50538e-06 -4.71311e-05
0.00232806 -5.00227e-05 -3.70813e-06
-5.00227e-05 0.000990088 1.84918e-07
-3.70813e-06 1.84918e-07 0.00100454
0.000586544 -2.17173e-05 -2.57128e-07
-2.17173e-05 -3.94195e-05 4.09864e-06
-2.57128e-07 4.09864e-06 -5.35989e-05
0.0022113 -3.49549e-05 1.44086e-05
-3.49549e-05 0.00091737 4.65e-06
1.44086e-05 4.65e-06 0.000934325
0.00364975 1.17846e-05 7.70577e-05
1.17846e-05 0.00140255 2.75419e-05
7.70577e-05 2.75419e-05 0.000462903
0.000843841 -7.4486e-05 -3.93398e-07
-7.4486e-05 0.000129864 5.78865e-06
-3.93398e-07 5.78865e-06 2.14016e-05
0.00141942 -6.8482e-05 -1.37796e-05
-6.8482e-05 -0.000267499 1.81909e-06
-1.37796e-05 1.81909e-06 -0.000108904
0.000741785 9.86234e-05 -3.25528e-06
9.86234e-05 8.68846e-05 6.95226e-08
-3.25528e-06 6.95226e-08 -3.11581e-05
0.000816837 4.68612e-05 -3.38301e-08
4.68612e-05 0.000132054 4.56896e-07
-3.38301e-08 4.56896e-07 2.58377e-05
0.000593048 1.45516e-05 2.69553e-07
1.45516e-05 -1.58095e-06 6.51323e-07
2.69553e-07 6.51323e-07 -0.000106883
0.000802864 1.96969e-05 -8.03083e-08
1.96969e-05 0.000116546 -8.79146e-08
-8.03083e-08 -8.79146e-08 1.15102e-05
0.000900551 6.20395e-05 -4.09275e-07
6.20395e-05 0.000179081 -7.8028e-08
-4.09275e-07 -7.8028e-08 6.63907e-05
0.000841109 8.61097e-05 5.46354e-07
8.61097e-05 0.000156952 7.77003e-07
5.46354e-07 7.77003e-07 3.49415e-05
0.000800865 7.29681e-05 -1.83114e-06
7.29681e-05 0.000125815 -3.42054e-06
-1.83114e-06 -3.42054e-06 -2.14827e-06
0.000294551 1.17368e-05 -1.90094e-07
1.17368e-05 -0.000159758 -1.0752e-06
-1.90094e-07 -1.0752e-06 -0.000273636
0.000821228 0.00010314 -6.46232e-07
0.00010314 0.000145257 1.00619e-08
-6.46232e-07 1.00619e-08 2.53764e-05
0.000629915 5.60466e-06 3.57584e-07
5.60466e-06 1.53741e-05 -1.59531e-06
3.57584e-07 -1.59531e-06 -8.94969e-05
0.000732081 5.11902e-05 -4.22516e-07
5.11902e-05 0.00010143 3.18995e-07
-4.22516e-07 3.18995e-07 -1.57481e-05
0.00167732 0.000124554 5.69926e-06
0.000124554 0.00068487 5.43303e-06
5.69926e-06 5.43303e-06 0.000565959
0.000991558 -0.000641029 7.36713e-05
-0.000641029 0.00201362 0.000149933
7.36713e-05 0.000149933 0.000741634
0.00309672 0.000189662 1.64652e-05
0.000189662 0.00146 5.59462e-05
1.64652e-05 5.59462e-05 -0.000779702
0.00111792 8.60792e-05 -1.50136e-05
8.60792e-05 0.000327355 -3.81608e-05
-1.50136e-05 -3.81608e-05 -0.00116698
0.00806862 -0.00140779 -0.000190852
-0.00140779 0.000880815 -0.000145766
-0.000190852 -0.000145766 0.00221882
0.00495319 -0.00044664 3.78178e-05
-0.00044664 0.000916174 0.000184065
3.78178e-05 0.000184065 -3.95061e-05
0.000580348 -0.000618575 -9.81572e-05
-0.000618575 0.00133108 9.70814e-05
-9.81572e-05 9.70814e-05 -0.00272269
0.00195771 -0.000224967 -3.44111e-05
-0.000224967 0.00040689 7.76815e-05
-3.44111e-05 7.76815e-05 -0.000131261
0.00322905 -0.000125546 1.59698e-05
-0.000125546 0.000668993 4.8254e-05
1.59698e-05 4.8254e-05 0.000361983
-0.000388329 -0.00173305 7.34157e-05
-0.00173305 -0.00127156 9.04236e-05
7.34157e-05 9.04236e-05 0.000395081
0.00517814 0.000697927 5.40587e-06
0.000697927 0.00328582 -1.20221e-05
5.40587e-06 -1.20221e-05 -0.000519109
0.00213096 -0.000921557 -2.75769e-05
-0.000921557 -0.00121324 3.64248e-05
-2.75769e-05 3.64248e-05 -0.00124855
0.00118488 0.000325725 1.29293e-06
0.000325725 -0.00024139 3.34124e-05
1.29293e-06 3.34124e-05 -0.000319817
0.00805064 0.000514102 -2.91783e-05
0.000514102 0.0039474 1.9712e-06
-2.91783e-05 1.9712e-06 0.00104774
0.00179682 -0.0014839 -0.000108595
-0.0014839 -0.000556425 -0.000133347
-0.000108595 -0.000133347 -0.000184614
0.000770546 0.00025782 4.46313e-06
0.00025782 0.000138963 -9.76853e-06
4.46313e-06 -9.76853e-06 2.04865e-05
0.000702583 7.67665e-05 4.12002e-06
7.67665e-05 0.000144048 -5.09187e-07
4.12002e-06 -5.09187e-07 3.91295e-05
0.000765148 3.31785e-05 -5.2624e-07
3.31785e-05 0.000134596 -7.54893e-07
-5.2624e-07 -7.54893e-07 6.36688e-06
0.000245869 -1.99176e-05 -0.000155697
-1.99176e-05 0.000934921 -4.44186e-05
-0.000155697 -4.44186e-05 -0.000169753
-0.00190137 9.85191e-05 7.67831e-06
9.85191e-05 -0.0010402 -1.28127e-05
7.67831e-06 -1.28127e-05 -0.00125569
0.000641737 0.000116068 -2.55261e-07
0.000116068 0.00021183 6.89978e-07
-2.55261e-07 6.89978e-07 4.62708e-05
0.000579135 0.000255886 9.25704e-06
0.000255886 0.000221273 3.49954e-06
9.25704e-06 3.49954e-06 5.27873e-05
0.000652579 0.000221212 -3.80954e-06
0.000221212 0.000395159 -3.06074e-05
-3.80954e-06 -3.06074e-05 -0.000229974
-0.00015018 0.000394158 2.28067e-05
0.000394158 -0.000492497 4.58861e-07
2.28067e-05 4.58861e-07 -0.000762525
-0.00033236 0.000172838 0.000123642
0.000172838 0.0026725 1.22408e-05
0.000123642 1.22408e-05 0.000857471
0.00193057 -2.59812e-05 -4.5138e-06
-2.59812e-05 0.000897698 1.54575e-05
-4.5138e-06 1.54575e-05 -0.000198605
0.000495915 -2.2662e-05 2.98616e-06
-2.2662e-05 0.000324552 1.22669e-05
2.98616e-06 1.22669e-05 -6.18259e-05
0.000224113 -7.79677e-05 -3.09855e-05
-7.79677e-05 0.000393682 7.64975e-06
-3.09855e-05 7.64975e-06 7.76692e-05
0.000650052 -0.000124129 -4.44812e-05
-0.000124129 -0.000936199 4.01062e-06
-4.44812e-05 4.01062e-06 -0.000755098
0.00170265 -8.39203e-05 -7.93209e-05
-8.39203e-05 0.000315213 2.25976e-05
-7.93209e-05 2.25976e-05 -0.000905167
-0.0014132 -0.00109903 4.82318e-05
-0.00109903 -0.000249234 -7.57142e-05
4.82318e-05 -7.57142e-05 -0.0037731
-0.00253238 0.00125834 0.000111576
0.00125834 -0.00369102 -0.000123209
0.000111576 -0.000123209 -0.00301728
0.00185853 0.000632244 -0.000137614
0.000632244 0.00266894 0.000136833
-0.000137614 0.000136833 0.00200946
0.00209535 -0.000129224 -1.09281e-05
-0.000129224 0.000564771 3.85665e-07
-1.09281e-05 3.85665e-07 0.000778838
0.00158589 0.000158417 1.99285e-05
0.000158417 0.00288549 9.0357e-06
1.99285e-05 9.0357e-06 0.00182092
-0.003679 0.000910745 2.97171e-05
0.000910745 -0.00103143 1.0179e-05
2.97171e-05 1.0179e-05 -0.00209445
0.0037494 -0.000939907 2.06555e-05
-0.000939907 0.00131142 -4.83741e-06
2.06555e-05 -4.83741e-06 0.00055284
0.0101474 -0.000449153 9.52776e-06
-0.000449153 0.00352092 -8.97436e-06
9.52776e-06 -8.97436e-06 0.00165361
0.00229927 -0.000489131 -3.5796e-06
-0.000489131 0.000581126 2.3305e-05
-3.5796e-06 2.3305e-05 0.000658229
-0.00760333 0.000349511 -0.000178711
0.000349511 -0.0035617 1.11528e-06
-0.000178711 1.11528e-06 -0.00422158
0.0112513 -0.00019814 -6.76027e-05
-0.00019814 0.00337642 2.31059e-05
-6.76027e-05 2.31059e-05 0.00188543
0.00414273 -0.00106402 4.83327e-06
-0.00106402 0.000222142 -1.18709e-05
4.83327e-06 -1.18709e-05 -0.000419074
0.000796053 -0.000244689 -2.27037e-05
-0.000244689 0.0003652 1.51951e-05
-2.27037e-05 1.51951e-05 8.27208e-05
0.00175232 -0.000402413 -3.14579e-06
-0.000402413 0.000313674 1.2433e-06
-3.14579e-06 1.2433e-06 0.000291693
0.00283335 -0.000455916 1.29807e-05
-0.000455916 0.000697247 -3.04916e-06
1.29807e-05 -3.04916e-06 0.000669949
-0.00152247 -9.63993e-05 -3.79337e-06
-9.63993e-05 -0.0011472 2.0404e-07
-3.79337e-06 2.0404e-07 -0.00144438
0.00136182 -0.000420496 -4.0231e-06
-0.000420496 6.33437e-05 -1.67984e-06
-4.0231e-06 -1.67984e-06 -0.000176766
0.00219031 -0.000500347 2.66771e-06
-0.000500347 0.000335625 -4.86005e-07
2.66771e-06 -4.86005e-07 0.000142006
0.00138362 -0.000351667 -1.08431e-05
-0.000351667 0.000243277 -2.63104e-06
-1.08431e-05 -2.63104e-06 -7.76262e-05
0.00156381 -0.000423217 1.18606e-07
-0.000423217 0.000147778 3.34766e-07
1.18606e-07 3.34766e-07 -0.000114433
0.00186191 -0.000399961 -1.35761e-06
-0.000399961 0.000156937 -4.97569e-06
-1.35761e-06 -4.97569e-06 -2.84132e-05
0.00110952 -0.000340381 -4.25313e-06
-0.000340381 -3.15144e-05 -9.40632e-08
-4.25313e-06 -9.40632e-08 -0.000328719
0.00162159 -0.000366832 -4.1723e-07
-0.000366832 0.000136281 4.25977e-07
-4.1723e-07 4.25977e-07 -9.00643e-05
0.00174987 -0.00031539 -1.60815e-06
-0.00031539 0.000109507 -5.41428e-06
-1.60815e-06 -5.41428e-06 -4.53944e-05
0.0015969 -0.000250474 -3.48375e-06
-0.000250474 4.33815e-05 -3.40505e-06
-3.48375e-06 -3.40505e-06 -9.77976e-05
0.00150538 -0.000292954 -1.63241e-06
-0.000292954 7.96186e-05 -2.30697e-06
-1.63241e-06 -2.30697e-06 -0.000116775
0.0015845 -0.000297731 7.91218e-07
-0.000297731 0.000101754 1.27395e-06
7.91218e-07 1.27395e-06 -8.31634e-05
0.0013625 -0.000301476 -3.0969e-06
-0.000301476 9.06992e-05 9.20249e-08
-3.0969e-06 9.20249e-08 -0.000132466
0.0015822 -0.000348483 1.85914e-06
-0.000348483 0.000187715 -1.84201e-07
1.85914e-06 -1.84201e-07 -5.04104e-05
0.00156504 -0.000348568 1.35868e-06
-0.000348568 0.000175641 1.28482e-06
1.35868e-06 1.28482e-06 -5.75064e-05
0.00121274 -0.000249252 -3.79583e-08
-0.000249252 0.000152904 2.96294e-06
-3.79583e-08 2.96294e-06 -5.14122e-05
0.00132495 -0.000291632 2.39884e-06
-0.000291632 0.000148299 -1.01246e-06
2.39884e-06 -1.01246e-06 -7.72722e-05
0.00149933 -0.000348717 -1.42039e-06
-0.000348717 0.000221019 -2.54225e-06
-1.42039e-06 -2.54225e-06 -4.30324e-05
0.000988963 -0.000191835 -1.04934e-06
-0.000191835 0.000160615 1.69296e-06
-1.04934e-06 1.69296e-06 -1.76236e-05
0.00113895 -0.000227948 3.87289e-07
-0.000227948 0.000208994 -6.18992e-07
3.87289e-07 -6.18992e-07 1.32356e-05
0.000937182 -0.00022284 -5.56914e-07
-0.00022284 5.5444e-05 -5.09882e-06
-5.56914e-07 -5.09882e-06 -0.000132646
0.000668839 -5.83206e-05 -9.64701e-07
-5.83206e-05 4.33019e-05 4.68354e-06
-9.64701e-07 4.68354e-06 -7.76911e-05
0.000926934 -0.000147799 1.77727e-07
-0.000147799 0.000188599 5.39911e-08
1.77727e-07 5.39911e-08 2.01309e-05
0.000526565 -0.000146781 -2.78239e-06
-0.000146781 -5.7297e-05 4.62541e-07
-2.78239e-06 4.62541e-07 -0.000239809
0.000427638 6.27758e-05 1.91756e-06
6.27758e-05 -7.88766e-05 7.20588e-06
1.91756e-06 7.20588e-06 -0.000120868
0.000691627 -2.72396e-05 -3.36828e-07
-2.72396e-05 6.99183e-05 -4.02104e-07
-3.36828e-07 -4.02104e-07 -3.01804e-05
0.00104755 -0.000101507 6.89611e-07
-0.000101507 0.000304015 -1.27247e-06
6.89611e-07 -1.27247e-06 0.00014628
0.00248594 0.000127487 -7.91328e-06
0.000127487 0.00112611 1.54393e-06
-7.91328e-06 1.54393e-06 0.00112278
0.000550931 6.78443e-05 -3.22772e-07
6.78443e-05 -1.49938e-05 -2.46738e-07
-3.22772e-07 -2.46738e-07 -4.78101e-05
0.000729413 -1.875e-06 1.67872e-06
-1.875e-06 7.72345e-05 -3.89401e-06
1.67872e-06 -3.89401e-06 2.69877e-06
0.00241576 0.000103628 2.97736e-06
0.000103628 0.00107577 2.56037e-07
2.97736e-06 2.56037e-07 0.00107915
0.000576061 6.56405e-05 -1.00787e-06
6.56405e-05 -9.96376e-06 -5.05337e-06
-1.00787e-06 -5.05337e-06 -3.73574e-05
0.00239962 9.41374e-05 2.78723e-05
9.41374e-05 0.00105948 -3.24546e-06
2.78723e-05 -3.24546e-06 0.00106519
0.000895695 0.000103468 -2.64054e-07
0.000103468 0.00017667 9.81489e-07
-2.64054e-07 9.81489e-07 5.51177e-05
0.000763712 5.2313e-05 -1.34938e-07
5.2313e-05 0.000103964 -2.51752e-07
-1.34938e-07 -2.51752e-07 -8.08153e-06
0.000799506 4.11524e-05 -4.81828e-08
4.11524e-05 0.000139188 -2.09349e-06
-4.81828e-08 -2.09349e-06 2.13363e-05
0.000667999 -7.30087e-06 -1.11857e-06
-7.30087e-06 2.92733e-05 -3.14271e-06
-1.11857e-06 -3.14271e-06 -4.03006e-05
0.000727953 3.04848e-05 4.18729e-07
3.04848e-05 8.74912e-05 1.29515e-07
4.18729e-07 1.29515e-07 -1.67099e-05
0.000635186 4.06467e-05 7.21254e-07
4.06467e-05 3.34693e-05 9.32272e-07
7.21254e-07 9.32272e-07 -7.64496e-05
0.000569052 -3.88798e-05 -6.49079e-07
-3.88798e-05 -3.36905e-05 -5.44358e-06
-6.49079e-07 -5.44358e-06 -5.96551e-05
0.00064659 3.36515e-06 -3.48024e-08
3.36515e-06 1.49125e-05 -6.60019e-08
-3.48024e-08 -6.60019e-08 -5.0664e-05
0.000721215 4.67381e-05 1.03259e-06
4.67381e-05 7.65804e-05 1.35897e-06
1.03259e-06 1.35897e-06 -1.83878e-05
0.00257753 -7.82691e-05 -3.18688e-05
-7.82691e-05 0.00114754 -4.15842e-06
-3.18688e-05 -4.15842e-06 0.00115639
0.000562374 -3.37235e-05 -4.66085e-07
-3.37235e-05 -4.37981e-05 -3.48419e-08
-4.66085e-07 -3.48419e-08 -6.58359e-05
0.000645363 1.41918e-05 8.01686e-07
1.41918e-05 1.36372e-05 2.68252e-06
8.01686e-07 2.68252e-06 -4.76709e-05
0.0024328 -6.37779e-05 -4.18133e-06
-6.37779e-05 0.00105634 2.42564e-07
-4.18133e-06 2.42564e-07 0.00106823
0.000575298 -2.77253e-05 -3.20798e-07
-2.77253e-05 -4.20049e-05 4.54286e-06
-3.20798e-07 4.54286e-06 -5.98944e-05
0.00229676 -4.85043e-05 1.87447e-05
-4.85043e-05 0.000971161 4.54339e-06
1.87447e-05 4.54339e-06 0.000986024
-0.00488816 9.3178e-05 -8.54007e-06
9.3178e-05 0.00059106 4.72672e-05
-8.54007e-06 4.72672e-05 -0.00151672
0.00335634 -3.37511e-05 4.24554e-07
-3.37511e-05 0.00141748 1.06963e-05
4.24554e-07 1.06963e-05 0.000424819
0.000874028 -7.53489e-05 -5.46696e-06
-7.53489e-05 0.000160885 -5.04226e-06
-5.46696e-06 -5.04226e-06 3.75054e-05
0.000593605 6.15007e-05 -5.09363e-07
6.15007e-05 -1.86375e-06 2.89912e-07
-5.09363e-07 2.89912e-07 -0.000112916
0.00165605 0.000239785 -5.52545e-07
0.000239785 0.000622421 1.40931e-06
-5.52545e-07 1.40931e-06 0.000471666
0.000619108 6.22987e-05 -2.65485e-06
6.22987e-05 1.57306e-05 -2.10138e-07
-2.65485e-06 -2.10138e-07 -0.000102808
0.000998173 2.02539e-05 -2.59108e-08
2.02539e-05 0.000225686 -1.29218e-07
-2.59108e-08 -1.29218e-07 0.000122703
0.00120356 0.000102484 1.66576e-06
0.000102484 0.000354175 5.36131e-07
1.66576e-06 5.36131e-07 0.000238039
0.000566267 3.27723e-05 -9.14174e-07
3.27723e-05 -1.22748e-05 3.09071e-06
-9.14174e-07 3.09071e-06 -0.000120845
0.000618741 4.96032e-05 -1.14668e-06
4.96032e-05 3.43688e-05 5.4027e-07
-1.14668e-06 5.4027e-07 -8.98197e-05
0.000776624 5.89782e-05 -3.94572e-07
5.89782e-05 0.000110142 -1.97411e-07
-3.94572e-07 -1.97411e-07 -1.3576e-05
0.00086036 0.000106778 -2.32817e-07
0.000106778 0.000180422 -2.86953e-06
-2.32817e-07 -2.86953e-06 3.00052e-05
0.000447041 0.00016036 2.36819e-06
0.00016036 -0.000107076 -6.04666e-06
2.36819e-06 -6.04666e-06 -0.000207981
0.000837493 7.351e-05 -4.85042e-07
7.351e-05 0.000166284 -6.14643e-07
-4.85042e-07 -6.14643e-07 4.14914e-05
0.000989489 0.000110802 4.2744e-07
0.000110802 0.000290293 2.42691e-06
4.2744e-07 2.42691e-06 0.000168142
-0.00532958 -0.000725569 -0.000301216
-0.000725569 -0.00149836 1.44785e-05
-0.000301216 1.44785e-05 -0.00247001
-0.00255037 -0.000501821 0.000123817
-0.000501821 0.000965624 5.99814e-05
0.000123817 5.99814e-05 -0.000601325
0.00367937 0.000213028 -0.000110575
0.000213028 0.00162863 -6.91714e-05
-0.000110575 -6.91714e-05 -0.000657654
-0.00768696 -0.00178951 0.00037464
-0.00178951 -0.00358531 0.00031252
0.00037464 0.00031252 -0.00187457
0.0113307 -0.0011704 -7.44218e-05
-0.0011704 0.00346463 9.2787e-05
-7.44218e-05 9.2787e-05 0.00339023
-0.000757116 0.000870991 2.28633e-06
0.000870991 0.000100906 -5.08167e-05
2.28633e-06 -5.08167e-05 -0.00362574
0.00298403 -3.64387e-05 -0.000148456
-3.64387e-05 0.000900275 4.87716e-05
-0.000148456 4.87716e-05 9.07224e-05
0.00277458 0.000336497 -1.12103e-05
0.000336497 0.000727385 1.87619e-05
-1.12103e-05 1.87619e-05 0.00046236
0.00817919 -0.00130645 -0.000130748
-0.00130645 0.00397347 4.80762e-05
-0.000130748 4.80762e-05 0.00401229
0.000195124 0.00074854 -5.71353e-06
0.00074854 0.000490717 -1.93433e-05
-5.71353e-06 -1.93433e-05 -0.00247178
0.00131601 0.000581367 -6.17947e-05
0.000581367 0.000186744 -6.86032e-05
-6.17947e-05 -6.86032e-05 -0.00020127
0.00402788 0.00119166 -0.000143528
0.00119166 0.000407959 -8.82447e-05
-0.000143528 -8.82447e-05 -0.00175354
0.00209156 0.000544184 1.60982e-05
0.000544184 0.000522281 -2.17259e-05
1.60982e-05 -2.17259e-05 0.000313496
0.000785705 0.000244297 -4.63342e-06
0.000244297 0.000141575 1.065e-06
-4.63342e-06 1.065e-06 2.7753e-05
0.00128866 8.38822e-05 -2.11831e-06
8.38822e-05 0.00046812 9.44741e-07
-2.11831e-06 9.44741e-07 0.000368278
-0.000769941 0.000177487 -3.97054e-05
0.000177487 -0.000314516 -3.94687e-05
-3.97054e-05 -3.94687e-05 -0.000835775
0.00289406 0.000377122 -1.6334e-05
0.000377122 0.00143267 -1.1201e-05
-1.6334e-05 -1.1201e-05 0.00125324
0.00115374 0.000504199 1.39514e-05
0.000504199 0.000111841 -3.87582e-06
1.39514e-05 -3.87582e-06 -0.000168096
0.0032354 0.000821158 8.80271e-05
0.000821158 0.000536921 2.75864e-05
8.80271e-05 2.75864e-05 0.000460822
-0.00438314 -4.85101e-05 -0.000263025
-4.85101e-05 -0.00312284 -2.49467e-08
-0.000263025 -2.49467e-08 -0.00223817
-0.00219731 0.000102671 0.000103345
0.000102671 0.00197537 1.73722e-06
0.000103345 1.73722e-06 1.82849e-05
0.00183387 -5.14447e-05 -6.01026e-05
-5.14447e-05 0.00086287 2.21965e-05
-6.01026e-05 2.21965e-05 -1.416e-05
0.0032347 -0.000259011 -6.043e-05
-0.000259011 0.00107611 -3.42993e-05
-6.043e-05 -3.42993e-05 0.00125816
0.00198846 -0.000841426 -4.06071e-05
-0.000841426 0.000175773 6.10273e-06
-4.06071e-05 6.10273e-06 -0.000409244
0.00182288 0.000106767 -1.74934e-05
0.000106767 0.00295439 3.32725e-05
-1.74934e-05 3.32725e-05 0.00199741
0.00210441 -0.000623399 0.000128934
-0.000623399 0.000132323 -0.000105315
0.000128934 -0.000105315 -0.00226422
0.00970226 0.000907387 6.73333e-05
0.000907387 0.00467207 1.25575e-05
6.73333e-05 1.25575e-05 0.00410698
0.00256844 -0.000631601 -1.83651e-05
-0.000631601 0.000567418 6.60948e-06
-1.83651e-05 6.60948e-06 0.000506085
-0.000972879 0.000470822 4.85891e-05
0.000470822 -0.000518452 -1.42434e-05
4.85891e-05 -1.42434e-05 -0.000979514
0.00397748 -0.000205088 -4.00357e-05
-0.000205088 -0.000267909 4.97154e-05
-4.00357e-05 4.97154e-05 -0.00230813
0.00586956 -0.00111772 -3.10358e-05
-0.00111772 0.00134983 1.32995e-05
-3.10358e-05 1.32995e-05 0.000690247
0.000306568 -0.000363111 3.41222e-05
-0.000363111 -0.000496568 -8.16913e-06
3.41222e-05 -8.16913e-06 -0.000713196
0.00934306 -0.000360172 2.10438e-05
-0.000360172 0.00226043 -3.06053e-05
2.10438e-05 -3.06053e-05 0.000947533
0.00410678 -0.000554133 5.56404e-05
-0.000554133 -6.98585e-06 -3.31561e-05
5.56404e-05 -3.31561e-05 -0.000137451
-0.000450605 -0.00026108 -1.88917e-05
-0.00026108 -0.000932085 6.09582e-06
-1.88917e-05 6.09582e-06 -0.00087002
0.000725866 -0.000333861 -7.17632e-06
-0.000333861 -0.000440622 -1.02371e-06
-7.17632e-06 -1.02371e-06 -0.000424449
0.00303147 -0.000478249 2.22597e-05
-0.000478249 0.000643367 -1.62394e-05
2.22597e-05 -1.62394e-05 0.000625186
0.000399051 -0.000332904 -1.00115e-05
-0.000332904 -0.000408116 -3.80219e-06
-1.00115e-05 -3.80219e-06 -0.000649388
0.00169556 -0.000456889 -9.31752e-08
-0.000456889 8.63124e-05 -2.19048e-07
-9.31752e-08 -2.19048e-07 -9.66455e-05
0.00211008 -0.000415536 -4.02284e-06
-0.000415536 0.000172171 -1.33374e-06
-4.02284e-06 -1.33374e-06 4.84945e-05
0.00123612 -0.000391517 -2.23371e-06
-0.000391517 -1.78205e-05 2.84553e-06
-2.23371e-06 2.84553e-06 -0.000281264
0.00179638 -0.000392807 -2.50742e-06
-0.000392807 0.000124728 2.06872e-07
-2.50742e-06 2.06872e-07 -6.15622e-05
0.00179413 -0.000312908 -2.06977e-06
-0.000312908 3.31759e-05 -1.60874e-06
-2.06977e-06 -1.60874e-06 -8.35816e-05
0.00138223 -0.000345047 3.39033e-06
-0.000345047 1.94301e-06 4.31491e-06
3.39033e-06 4.31491e-06 -0.000220051
0.00169128 -0.000306786 1.19123e-08
-0.000306786 8.2883e-05 6.8277e-07
1.19123e-08 6.8277e-07 -7.00835e-05
0.00180146 -0.000258367 -2.66606e-06
-0.000258367 0.000100962 -2.17035e-06
-2.66606e-06 -2.17035e-06 -6.70205e-06
0.00184551 -0.000234286 -1.89607e-06
-0.000234286 0.000187065 -9.87136e-07
-1.89607e-06 -9.87136e-07 7.38592e-05
0.0016458 -0.000250678 -2.42128e-06
-0.000250678 7.09295e-05 2.89004e-06
-2.42128e-06 2.89004e-06 -6.59195e-05
0.00172135 -0.000258414 -9.96528e-07
-0.000258414 0.000151139 -5.45401e-06
-9.96528e-07 -5.45401e-06 -3.58924e-06
0.00163571 -0.000290857 -3.61555e-06
-0.000290857 0.000181401 -1.68072e-06
-3.61555e-06 -1.68072e-06 -1.60166e-05
0.00161353 -0.000298472 1.17866e-06
-0.000298472 0.000138728 5.01588e-07
1.17866e-06 5.01588e-07 -5.7737e-05
0.00149216 -0.00028437 1.80123e-06
-0.00028437 5.28293e-05 5.76404e-06
1.80123e-06 5.76404e-06 -0.000127616
0.00130443 -0.00026034 -6.33879e-06
-0.00026034 0.000116775 1.87742e-06
-6.33879e-06 1.87742e-06 -8.65941e-05
0.00143888 -0.000307412 -2.83746e-08
-0.000307412 0.000132006 -4.49098e-08
-2.83746e-08 -4.49098e-08 -9.11731e-05
0.00158868 -0.000345397 2.70801e-06
-0.000345397 0.000198231 7.25493e-07
2.70801e-06 7.25493e-07 -3.66793e-05
0.00112119 -0.000216312 -2.6803e-06
-0.000216312 0.000159647 3.02173e-06
-2.6803e-06 3.02173e-06 -2.97279e-05
0.00124534 -0.000251158 6.56377e-07
-0.000251158 0.000169153 8.25297e-07
6.56377e-07 8.25297e-07 -3.56097e-05
0.0011662 -0.00028072 2.79023e-06
-0.00028072 6.16573e-05 -4.44824e-06
2.79023e-06 -4.44824e-06 -0.000161991
0.000720804 -0.000120598 -4.60809e-06
-0.000120598 4.20545e-05 3.99883e-06
-4.60809e-06 3.99883e-06 -9.74528e-05
0.00108008 -0.000200665 6.11936e-07
-0.000200665 0.000211333 -4.49356e-07
6.11936e-07 -4.49356e-07 3.16133e-05
0.00123041 -0.000234231 -1.71504e-07
-0.000234231 0.000256229 -2.39476e-06
-1.71504e-07 -2.39476e-06 6.03577e-05
0.000429602 1.48544e-05 -2.18319e-06
1.48544e-05 -9.39362e-05 9.32787e-06
-2.18319e-06 9.32787e-06 -0.000142898
0.000748134 -8.47937e-05 1.57646e-07
-8.47937e-05 9.29397e-05 4.862e-07
1.57646e-07 4.862e-07 -3.41787e-05
0.00115201 -0.00015957 3.59499e-07
-0.00015957 0.000319164 -5.31269e-07
3.59499e-07 -5.31269e-07 0.000146304
0.00279087 0.000134954 -4.30888e-05
0.000134954 0.00130772 2.28549e-06
-4.30888e-05 2.28549e-06 0.00130298
0.00054533 4.85626e-05 -4.00032e-07
4.85626e-05 -1.61663e-05 -6.05034e-07
-4.00032e-07 -6.05034e-07 -5.64536e-05
0.000856242 -7.37211e-05 3.13676e-06
-7.37211e-05 0.00016598 -4.57621e-06
3.13676e-06 -4.57621e-06 6.10484e-05
0.00172113 9.37898e-05 1.94688e-05
9.37898e-05 0.000673904 5.70806e-08
1.94688e-05 5.70806e-08 0.000670479
0.000605182 6.27808e-05 -1.39809e-07
6.27808e-05 1.54409e-05 -5.98184e-06
-1.39809e-07 -5.98184e-06 -1.6752e-05
0.0025024 0.000106302 3.50977e-05
0.000106302 0.00112677 -2.65638e-06
3.50977e-05 -2.65638e-06 0.00112975
0.000927071 0.00011429 2.02019e-06
0.00011429 0.000180653 1.00665e-06
2.02019e-06 1.00665e-06 5.95845e-05
0.000637774 5.6823e-05 -2.77916e-07
5.6823e-05 2.05306e-05 5.36522e-07
-2.77916e-07 5.36522e-07 -9.03419e-05
0.00069718 2.44633e-05 -2.80079e-07
2.44633e-05 6.31562e-05 -1.42504e-06
-2.80079e-07 -1.42504e-06 -4.82876e-05
0.000894992 7.3752e-05 5.1765e-07
7.3752e-05 0.000182399 5.43324e-07
5.1765e-07 5.43324e-07 6.64944e-05
0.000722126 1.90599e-05 1.8854e-07
1.90599e-05 7.8104e-05 4.90964e-08
1.8854e-07 4.90964e-08 -2.70671e-05
0.000671019 -6.53008e-06 -1.2896e-06
-6.53008e-06 3.45468e-05 -3.60977e-06
-1.2896e-06 -3.60977e-06 -4.06531e-05
0.000570879 -4.18353e-05 -9.7915e-07
-4.18353e-05 -2.58464e-05 -5.96947e-06
-9.7915e-07 -5.96947e-06 -5.51176e-05
0.000643138 -5.03976e-06 2.20735e-07
-5.03976e-06 1.60097e-05 -7.96914e-08
2.20735e-07 -7.96914e-08 -5.3941e-05
0.000656166 1.77047e-06 5.43637e-09
1.77047e-06 3.01833e-05 1.47132e-06
5.43637e-09 1.47132e-06 -6.19206e-05
0.00265964 -9.08064e-05 -3.89801e-05
-9.08064e-05 0.00120202 -3.76452e-06
-3.89801e-05 -3.76452e-06 0.00120835
0.000551228 -3.44846e-05 -3.28565e-07
-3.44846e-05 -4.46246e-05 -1.16659e-08
-3.28565e-07 -1.16659e-08 -6.99939e-05
0.000635166 9.79766e-06 1.4297e-06
9.79766e-06 1.02642e-05 2.84524e-06
1.4297e-06 2.84524e-06 -5.61614e-05
0.00255003 -7.74802e-05 -4.33853e-06
-7.74802e-05 0.00113089 2.82039e-07
-4.33853e-06 2.82039e-07 0.00113996
0.000555547 -3.35113e-05 -5.89797e-08
-3.35113e-05 -4.80364e-05 4.98394e-06
-5.89797e-08 4.98394e-06 -6.98926e-05
0.00241785 -6.27994e-05 2.31594e-05
-6.27994e-05 0.00104693 4.4277e-06
2.31594e-05 4.4277e-06 0.00105909
0.000376741 0.000304192 -0.000147236
0.000304192 0.00138151 4.96882e-05
-0.000147236 4.96882e-05 0.000420499
-0.00199842 -6.68043e-05 7.87877e-06
-6.68043e-05 0.0014535 1.32351e-05
7.87877e-06 1.32351e-05 -0.000594777
0.00310113 -6.47882e-05 -6.1738e-05
-6.47882e-05 0.00149067 -3.73987e-06
-6.1738e-05 -3.73987e-06 0.000451636
0.000502438 2.97353e-05 1.93733e-06
2.97353e-05 -5.65929e-05 -1.20559e-06
1.93733e-06 -1.20559e-06 -0.000162036
0.000604006 4.03212e-05 1.88359e-06
4.03212e-05 4.74649e-06 2.87837e-07
1.88359e-06 2.87837e-07 -0.00011136
0.00124836 0.000198427 -1.20752e-06
0.000198427 0.000394623 6.82746e-07
-1.20752e-06 6.82746e-07 0.000252671
0.00158392 0.000266964 2.00686e-06
0.000266964 0.000529579 -8.4485e-07
2.00686e-06 -8.4485e-07 0.000348866
0.00105024 0.000156719 -6.29371e-06
0.000156719 0.000292049 -2.37952e-06
-6.29371e-06 -2.37952e-06 0.000143759
0.000958699 0.000101202 1.2423e-06
0.000101202 0.000231324 2.72976e-06
1.2423e-06 2.72976e-06 0.000102207
0.000793659 6.89696e-05 3.15588e-06
6.89696e-05 0.000121698 2.1253e-06
3.15588e-06 2.1253e-06 -9.43229e-07
0.00068676 0.000121218 -3.40203e-06
0.000121218 8.58036e-05 -3.17209e-06
-3.40203e-06 -3.17209e-06 -5.87667e-05
-0.000678905 7.71123e-05 -8.15767e-07
7.71123e-05 -0.000733134 -3.24887e-07
-8.15767e-07 -3.24887e-07 -0.000882491
0.00117175 0.000243384 1.64953e-06
0.000243384 0.000243693 -3.50367e-06
1.64953e-06 -3.50367e-06 0.000128745
0.00221661 0.000485835 3.54174e-06
0.000485835 0.000522547 -1.23605e-05
3.54174e-06 -1.23605e-05 0.00032794
0.000589914 0.000181293 -5.2441e-06
0.000181293 -9.77338e-06 -2.60887e-07
-5.2441e-06 -2.60887e-07 -0.000115416
0.000566031 6.14823e-05 1.20525e-06
6.14823e-05 1.53395e-05 -1.37351e-06
1.20525e-06 -1.37351e-06 -9.62098e-05
0.0109155 0.000623261 -7.09e-05
0.000623261 0.00296357 3.66369e-05
-7.09e-05 3.66369e-05 0.00161036
-0.000737274 -0.00057578 -0.000148073
-0.00057578 0.00129765 -4.43901e-05
-0.000148073 -4.43901e-05 0.000163834
-0.000850981 -0.000768878 7.16032e-05
-0.000768878 0.00109016 -2.20089e-05
7.16032e-05 -2.20089e-05 -0.000542472
-0.0025037 -0.000664102 -8.7698e-06
-0.000664102 -0.000863452 0.000113715
-8.7698e-06 0.000113715 -0.000915575
0.0107263 0.000665097 4.17626e-06
0.000665097 0.00501579 -5.82984e-06
4.17626e-06 -5.82984e-06 0.00193017
0.000869573 0.00031934 -5.20415e-05
0.00031934 -0.000279356 -1.9628e-05
-5.20415e-05 -1.9628e-05 -0.000390943
0.00145533 0.000604797 -2.06196e-05
0.000604797 0.000199132 -1.08509e-05
-2.06196e-05 -1.08509e-05 -9.78539e-05
0.00937235 0.000623709 3.22255e-05
0.000623709 0.00315025 1.97706e-05
3.22255e-05 1.97706e-05 0.00132455
0.00547132 0.00120752 -3.1213e-05
0.00120752 0.000928435 -3.92061e-05
-3.1213e-05 -3.92061e-05 0.000453398
0.00186992 0.000589003 7.4686e-07
0.000589003 0.000229737 -4.50585e-06
7.4686e-07 -4.50585e-06 6.64059e-05
0.000995514 0.000408292 5.60696e-06
0.000408292 7.0745e-05 -1.88449e-06
5.60696e-06 -1.88449e-06 -0.000128971
0.000922221 0.000231437 -1.65793e-05
0.000231437 0.000227399 1.47915e-05
-1.65793e-05 1.47915e-05 0.000119019
0.00264108 0.000653469 -3.97164e-05
0.000653469 0.000746501 -1.35167e-05
-3.97164e-05 -1.35167e-05 0.000478
0.0022918 0.000748762 -2.88396e-06
0.000748762 6.52818e-06 1.7072e-05
-2.88396e-06 1.7072e-05 -9.95562e-05
0.000606186 -0.000303111 -2.99853e-05
-0.000303111 -0.00278776 4.07946e-06
-2.99853e-05 4.07946e-06 -0.00320202
0.00238019 -0.000339051 -1.17649e-06
-0.000339051 0.00135153 -1.83521e-05
-1.17649e-06 -1.83521e-05 0.00138954
-0.00406315 1.60876e-05 0.000128869
1.60876e-05 0.00136788 -1.00665e-05
0.000128869 -1.00665e-05 -0.000737863
0.00231694 -0.000685203 -3.47257e-05
-0.000685203 0.000368056 5.00748e-06
-3.47257e-05 5.00748e-06 0.000228369
0.00339645 -0.000995624 3.45566e-05
-0.000995624 0.000723087 -1.2537e-05
3.45566e-05 -1.2537e-05 -0.000228018
0.0012297 -0.000268076 0.000179025
-0.000268076 0.00165807 6.20815e-06
0.000179025 6.20815e-06 0.000923316
0.011562 -0.000234201 -0.000111074
-0.000234201 0.00376658 5.96762e-05
-0.000111074 5.96762e-05 0.00213624
0.00071911 -0.000398286 -2.31928e-05
-0.000398286 -0.000358852 -2.71446e-06
-2.31928e-05 -2.71446e-06 -0.000489344
0.00810589 6.72944e-05 -3.74699e-05
6.72944e-05 0.00136665 2.60492e-05
-3.74699e-05 2.60492e-05 0.000377921
0.00444472 -0.000622621 6.70098e-05
-0.000622621 1.78208e-05 1.69368e-06
6.70098e-05 1.69368e-06 -0.000450473
0.00247355 -0.000395967 3.68825e-05
-0.000395967 0.000518388 -1.07557e-05
3.68825e-05 -1.07557e-05 0.000214274
0.00333297 -0.000211792 -8.41691e-05
-0.000211792 0.000177291 -2.28184e-06
-8.41691e-05 -2.28184e-06 5.83747e-05
-0.00101891 -0.000236196 -1.48714e-05
-0.000236196 -0.00139376 3.92166e-06
-1.48714e-05 3.92166e-06 -0.00133811
0.00154469 -0.000400613 5.13848e-07
-0.000400613 -0.000137084 -7.74161e-07
5.13848e-07 -7.74161e-07 -0.000145943
0.00224884 -0.00033272 1.20324e-05
-0.00033272 0.000125713 -8.57817e-06
1.20324e-05 -8.57817e-06 0.000150638
0.00129964 -0.000423562 -1.56443e-06
-0.000423562 -0.00011104 2.74098e-06
-1.56443e-06 2.74098e-06 -0.000286876
0.00180191 -0.000386907 -2.18061e-06
-0.000386907 2.63966e-05 -5.80788e-08
-2.18061e-06 -5.80788e-08 -9.47553e-05
0.00206722 -0.000299867 -3.39653e-07
-0.000299867 8.50102e-05 1.07315e-06
-3.39653e-07 1.07315e-06 3.14603e-05
0.00163711 -0.000378084 -2.28303e-06
-0.000378084 4.29956e-05 4.77153e-06
-2.28303e-06 4.77153e-06 -0.000143285
0.00184197 -0.000313651 5.16414e-07
-0.000313651 6.11882e-05 1.51568e-06
5.16414e-07 1.51568e-06 -5.48955e-05
0.00172691 -0.00026362 -7.34044e-07
-0.00026362 -3.73877e-06 9.80156e-07
-7.34044e-07 9.80156e-07 -8.66541e-05
0.00164916 -0.000299927 3.73271e-06
-0.000299927 6.41582e-05 5.46461e-06
3.73271e-06 5.46461e-06 -8.71528e-05
0.00174936 -0.000258076 -2.29493e-07
-0.000258076 6.99948e-05 1.15559e-06
-2.29493e-07 1.15559e-06 -3.86154e-05
0.00204869 -0.000255923 -6.9935e-08
-0.000255923 0.000263711 -2.88845e-07
-6.9935e-08 -2.88845e-07 0.00016715
0.00175868 -0.000232269 -3.75396e-06
-0.000232269 0.000128009 3.54686e-06
-3.75396e-06 3.54686e-06 1.80904e-05
0.00181226 -0.00024253 2.08655e-06
-0.00024253 0.000191336 -3.35915e-06
2.08655e-06 -3.35915e-06 6.33596e-05
0.00168869 -0.000251095 1.91306e-06
-0.000251095 9.50174e-05 7.64367e-06
1.91306e-06 7.64367e-06 -3.75943e-05
0.00172597 -0.000260514 4.5839e-07
-0.000260514 0.000154388 -8.00348e-07
4.5839e-07 -8.00348e-07 -1.14672e-06
0.00165431 -0.000251752 -1.58895e-06
-0.000251752 0.000156743 -3.00706e-06
-1.58895e-06 -3.00706e-06 -1.16788e-05
0.00146096 -0.000253853 -5.52746e-06
-0.000253853 0.000144238 1.84634e-07
-5.52746e-06 1.84634e-07 -4.63923e-05
0.00166653 -0.000294222 3.7379e-07
-0.000294222 0.000201489 -5.04872e-07
3.7379e-07 -5.04872e-07 2.73865e-06
0.00172186 -0.000304199 2.88123e-06
-0.000304199 0.000198551 2.98656e-06
2.88123e-06 2.98656e-06 1.94061e-06
0.00109384 -0.000214864 -6.15745e-06
-0.000214864 5.78259e-05 2.94365e-06
-6.15745e-06 2.94365e-06 -0.000126371
0.0012693 -0.000256719 -1.51756e-06
-0.000256719 9.78662e-05 6.70911e-07
-1.51756e-06 6.70911e-07 -0.000105125
0.00150991 -0.000312973 3.61222e-06
-0.000312973 0.000170572 -6.72242e-07
3.61222e-06 -6.72242e-07 -5.26812e-05
0.000786041 -0.000144093 -5.89569e-06
-0.000144093 2.81021e-05 5.58562e-06
-5.89569e-06 5.58562e-06 -0.000120069
0.00112755 -0.000216564 7.84341e-07
-0.000216564 0.000160791 2.77647e-07
7.84341e-07 2.77647e-07 -2.81933e-05
0.00127833 -0.000253339 2.96892e-06
-0.000253339 0.000185473 -1.84743e-06
2.96892e-06 -1.84743e-06 -1.98005e-05
0.000431692 -5.00133e-05 -1.05726e-05
-5.00133e-05 -0.000115937 1.08236e-05
-1.05726e-05 1.08236e-05 -0.00017386
0.00079037 -0.000135912 -4.13319e-07
-0.000135912 8.14247e-05 8.22497e-08
-4.13319e-07 8.22497e-08 -6.02531e-05
0.00106501 -0.000196944 1.32729e-06
-0.000196944 0.00020054 -1.88051e-06
1.32729e-06 -1.88051e-06 2.18855e-05
0.00337087 0.000157124 -6.28555e-05
0.000157124 0.00164832 2.25419e-06
-6.28555e-05 2.25419e-06 0.00163809
0.0005599 -4.34976e-06 7.71411e-07
-4.34976e-06 -2.29621e-05 -3.5887e-07
7.71411e-07 -3.5887e-07 -7.21458e-05
0.000867528 -0.000132827 4.5395e-06
-0.000132827 0.00016261 -3.86742e-06
4.5395e-06 -3.86742e-06 3.03934e-05
0.00296184 0.00013305 6.40382e-06
0.00013305 0.00140505 4.10861e-07
6.40382e-06 4.10861e-07 0.0014012
0.000671258 3.12294e-05 3.74629e-06
3.12294e-05 5.17778e-05 -7.6682e-06
3.74629e-06 -7.6682e-06 1.27697e-05
0.00268484 0.000116224 4.87096e-05
0.000116224 0.00123808 -2.20116e-06
4.87096e-05 -2.20116e-06 0.00123891
0.000911137 0.000188632 3.10022e-06
0.000188632 0.000140143 -3.1079e-06
3.10022e-06 -3.1079e-06 -3.0061e-05
0.000823064 0.000138631 1.03954e-06
0.000138631 0.000129272 -1.15939e-07
1.03954e-06 -1.15939e-07 1.23407e-06
0.000503085 3.53003e-05 -5.05241e-07
3.53003e-05 -5.58914e-05 -6.16534e-07
-5.05241e-07 -6.16534e-07 -0.000172264
0.000364927 2.03437e-05 4.1007e-07
2.03437e-05 -0.000138242 4.10825e-08
4.1007e-07 4.10825e-08 -0.000242998
0.000588122 4.2181e-06 -2.32909e-07
4.2181e-06 -3.284e-06 4.68574e-07
-2.32909e-07 4.68574e-07 -0.000111591
0.000659765 -3.12589e-06 -1.44378e-06
-3.12589e-06 3.01013e-05 -3.73758e-06
-1.44378e-06 -3.73758e-06 -5.31012e-05
0.000642927 1.1182e-07 2.1822e-07
1.1182e-07 2.48294e-05 1.70381e-06
2.1822e-07 1.70381e-06 -7.37498e-05
0.000631952 -1.18373e-05 3.24931e-07
-1.18373e-05 1.34578e-05 -1.85373e-07
3.24931e-07 -1.85373e-07 -6.18808e-05
0.000573649 -4.58079e-05 -1.17722e-06
-4.58079e-05 -1.65607e-05 -6.58274e-06
-1.17722e-06 -6.58274e-06 -4.94186e-05
0.00273158 -0.000103233 -4.55944e-05
-0.000103233 0.0012514 -3.26503e-06
-4.55944e-05 -3.26503e-06 0.00125511
0.000546001 -3.99645e-05 8.22403e-08
-3.99645e-05 -4.06933e-05 -3.31864e-09
8.22403e-08 -3.31864e-09 -6.95647e-05
0.000609443 -3.72471e-06 1.65646e-06
-3.72471e-06 -2.32913e-06 3.15668e-06
1.65646e-06 3.15668e-06 -7.25799e-05
0.00265597 -9.06661e-05 -4.34159e-06
-9.06661e-05 0.00119948 3.28811e-07
-4.34159e-06 3.28811e-07 0.00120576
0.000538083 -3.60122e-05 5.54644e-07
-3.60122e-05 -5.18736e-05 5.41878e-06
5.54644e-07 5.41878e-06 -7.73339e-05
0.0025212 -7.65045e-05 2.88079e-05
-7.65045e-05 0.00111331 4.23648e-06
2.88079e-05 4.23648e-06 0.00112265
0.0105918 0.000450614 0.000168139
0.000450614 0.00261752 6.8582e-05
0.000168139 6.8582e-05 0.00166353
-0.00266991 -0.000643322 -0.000101304
-0.000643322 -0.00196158 -1.15804e-05
-0.000101304 -1.15804e-05 -0.00213264
-0.00409963 0.000224111 -4.64687e-05
0.000224111 0.000497154 -3.4342e-05
-4.64687e-05 -3.4342e-05 -0.00193632
0.000652481 1.37621e-05 5.96756e-06
1.37621e-05 2.71566e-05 5.30415e-07
5.96756e-06 5.30415e-07 -8.49416e-05
0.000862498 0.000168798 -1.84374e-06
0.000168798 0.000178482 1.25981e-06
-1.84374e-06 1.25981e-06 4.44925e-05
0.00126016 0.000178523 -3.29491e-07
0.000178523 0.000407845 -3.55468e-07
-3.29491e-07 -3.55468e-07 0.000257766
0.00125305 0.000236197 -3.01947e-06
0.000236197 0.000343398 2.47397e-07
-3.01947e-06 2.47397e-07 0.000168913
0.00155823 0.000293315 1.9122e-05
0.000293315 0.000411312 -2.2923e-07
1.9122e-05 -2.2923e-07 0.000201354
0.000233927 0.000154066 -2.02082e-06
0.000154066 -0.000209853 -2.40145e-06
-2.02082e-06 -2.40145e-06 -0.000369641
0.000504098 0.00012208 -2.01709e-06
0.00012208 -7.69112e-06 -2.44347e-06
-2.01709e-06 -2.44347e-06 -0.000150171
0.000197732 0.000161106 6.28616e-07
0.000161106 -0.000251072 1.43436e-06
6.28616e-07 1.43436e-06 -0.000422318
0.000988734 0.000231905 -1.6147e-07
0.000231905 0.00015425 6.30659e-07
-1.6147e-07 6.30659e-07 3.52985e-05
0.00040217 0.000235457 4.3827e-06
0.000235457 -0.000283128 3.38853e-07
4.3827e-06 3.38853e-07 -0.000444195
0.00333393 0.000533755 -3.21142e-06
0.000533755 0.00112491 -4.65734e-06
-3.21142e-06 -4.65734e-06 0.000949952
0.00207516 0.000500585 -5.49308e-06
0.000500585 0.000345889 2.76538e-06
-5.49308e-06 2.76538e-06 0.00017263
0.00157719 0.000431861 3.55695e-06
0.000431861 0.000196571 -3.41201e-06
3.55695e-06 -3.41201e-06 1.8806e-05
0.000358452 0.000181944 -1.83023e-06
0.000181944 -0.000125476 4.84815e-06
-1.83023e-06 4.84815e-06 -0.000232964
0.00523152 0.000512156 -2.20728e-05
0.000512156 0.000377567 1.05561e-05
-2.20728e-05 1.05561e-05 0.00045459
0.00838838 0.000440941 6.77947e-05
0.000440941 0.00170996 3.97097e-05
6.77947e-05 3.97097e-05 0.000263004
0.00543005 -0.00110977 7.06426e-05
-0.00110977 0.00306244 -6.05521e-05
7.06426e-05 -6.05521e-05 0.00251819
0.00408499 0.00105046 0.000298778
0.00105046 0.000262317 0.000124367
0.000298778 0.000124367 -0.00269809
0.00155808 0.000559077 -1.81626e-05
0.000559077 0.000186525 1.18668e-05
-1.81626e-05 1.18668e-05 0.000203942
0.00332332 0.000937469 -7.48531e-05
0.000937469 -3.49921e-06 -2.42156e-05
-7.48531e-05 -2.42156e-05 -0.000244006
0.00349641 0.000764974 4.04765e-05
0.000764974 0.000581024 2.12289e-05
4.04765e-05 2.12289e-05 0.000572495
0.00290109 0.000669967 5.3854e-06
0.000669967 0.000682114 8.04107e-06
5.3854e-06 8.04107e-06 0.000523872
0.000692561 0.000357816 -8.45787e-06
0.000357816 -3.32193e-05 1.75274e-05
-8.45787e-06 1.75274e-05 -0.000221607
0.00363679 0.000859525 -0.000114673
0.000859525 0.000650444 -2.98264e-05
-0.000114673 -2.98264e-05 0.000461559
0.00292266 -0.000205774 -8.21082e-05
-0.000205774 0.000407081 8.58465e-06
-8.21082e-05 8.58465e-06 0.000108459
0.00995344 -0.000241764 -1.97932e-07
-0.000241764 0.00287906 -5.96044e-07
-1.97932e-07 -5.96044e-07 0.0022116
-0.00861126 -0.000463238 0.000287173
-0.000463238 -0.00481028 -8.27614e-06
0.000287173 -8.27614e-06 -0.00451415
0.000964683 -0.000428911 -4.0258e-05
-0.000428911 -0.000351457 8.91037e-06
-4.0258e-05 8.91037e-06 -0.000413322
0.00623107 -0.000775058 0.00011742
-0.000775058 0.000920437 1.85487e-05
0.00011742 1.85487e-05 0.00048753
0.00128329 -0.000393318 2.41754e-05
-0.000393318 -0.0019557 5.73381e-05
2.41754e-05 5.73381e-05 -0.00318081
0.00146408 -0.000315401 2.04565e-05
-0.000315401 -7.08264e-05 5.46489e-08
2.04565e-05 5.46489e-08 -0.00023526
0.00251431 -9.49978e-05 -3.59834e-06
-9.49978e-05 -0.00035081 6.35041e-06
-3.59834e-06 6.35041e-06 -0.000505046
0.00404864 -0.000331791 1.82712e-05
-0.000331791 0.00100204 -8.09421e-06
1.82712e-05 -8.09421e-06 0.0010398
0.00346388 -8.15883e-05 7.17346e-05
-8.15883e-05 0.000804554 7.63584e-07
7.17346e-05 7.63584e-07 0.000773088
2.40744e-05 -0.000326594 -7.40165e-06
-0.000326594 -0.000934968 7.41184e-06
-7.40165e-06 7.41184e-06 -0.000930231
0.00175394 -0.000316138 -2.7735e-07
-0.000316138 -0.000139508 5.13577e-07
-2.7735e-07 5.13577e-07 -0.000112538
0.00176751 -0.00020739 1.22526e-05
-0.00020739 -0.000164026 -1.73145e-06
1.22526e-05 -1.73145e-06 -8.48329e-05
0.00156523 -0.000364496 1.4441e-06
-0.000364496 -8.74674e-05 1.12976e-06
1.4441e-06 1.12976e-06 -0.000205879
0.00193746 -0.000295088 2.13379e-06
-0.000295088 1.86543e-05 1.06665e-06
2.13379e-06 1.06665e-06 -3.56724e-05
0.00184738 -0.000231314 1.36825e-06
-0.000231314 3.19153e-05 1.48225e-06
1.36825e-06 1.48225e-06 -2.20455e-06
0.00186756 -0.000312899 5.89352e-06
-0.000312899 7.60251e-05 3.92658e-06
5.89352e-06 3.92658e-06 -3.89552e-05
0.00184143 -0.000266734 8.73224e-07
-0.000266734 6.70707e-05 4.84888e-07
8.73224e-07 4.84888e-07 -1.56107e-05
0.00196987 -0.000235746 -1.24011e-06
-0.000235746 0.000183309 1.0251e-06
-1.24011e-06 1.0251e-06 0.000104772
0.00169205 -0.000257142 3.27098e-06
-0.000257142 3.63852e-05 4.08446e-06
3.27098e-06 4.08446e-06 -7.29685e-05
0.00184438 -0.000247984 1.12399e-07
-0.000247984 0.00015206 6.52926e-07
1.12399e-07 6.52926e-07 5.47896e-05
0.00167148 -0.000233451 3.81508e-06
-0.000233451 8.58502e-05 -1.90577e-06
3.81508e-06 -1.90577e-06 -2.49314e-05
0.00168747 -0.00023104 -2.59505e-06
-0.00023104 7.83278e-05 7.70699e-06
-2.59505e-06 7.70699e-06 -2.84312e-05
0.00184495 -0.000241314 -2.09077e-06
-0.000241314 0.000208864 9.63652e-08
-2.09077e-06 9.63652e-08 8.43633e-05
0.00174367 -0.000230964 7.36461e-07
-0.000230964 0.000189461 -1.95025e-06
7.36461e-07 -1.95025e-06 4.08557e-05
0.00173094 -0.000262175 2.05852e-06
-0.000262175 0.000157629 3.50786e-06
2.05852e-06 3.50786e-06 1.39828e-06
0.00169836 -0.000254052 7.09731e-07
-0.000254052 0.000183452 -6.71473e-07
7.09731e-07 -6.71473e-07 1.41047e-05
0.00167975 -0.00023472 -2.85924e-06
-0.00023472 0.000236171 -9.35041e-07
-2.85924e-06 -9.35041e-07 6.50973e-05
0.00095698 -0.0001897 -8.92555e-06
-0.0001897 -7.09391e-05 2.06619e-06
-8.92555e-06 2.06619e-06 -0.000242914
0.00151498 -0.000258501 -1.01547e-06
-0.000258501 0.000178799 -2.02848e-07
-1.01547e-06 -2.02848e-07 -1.26757e-05
0.00168801 -0.000296534 3.74178e-06
-0.000296534 0.000215811 6.56786e-07
3.74178e-06 6.56786e-07 1.5961e-05
0.000967183 -0.000167303 -9.14103e-06
-0.000167303 6.42162e-05 6.0211e-06
-9.14103e-06 6.0211e-06 -8.58517e-05
0.00117846 -0.000219662 1.75259e-07
-0.000219662 0.000105401 5.94438e-07
1.75259e-07 5.94438e-07 -7.91136e-05
0.00119409 -0.000249321 2.60453e-06
-0.000249321 5.58118e-05 -7.09678e-07
2.60453e-06 -7.09678e-07 -0.000146111
0.000439983 -8.50783e-05 -1.47929e-05
-8.50783e-05 -0.000129361 1.20608e-05
-1.47929e-05 1.20608e-05 -0.000197615
0.000866826 -0.000154948 4.20992e-07
-0.000154948 7.53156e-05 1.91532e-07
4.20992e-07 1.91532e-07 -7.46843e-05
0.00113694 -0.00021704 4.54467e-06
-0.00021704 0.000164177 -2.4402e-06
4.54467e-06 -2.4402e-06 -2.45264e-05
0.00406143 0.000164891 -0.00010013
0.000164891 0.00205034 3.5375e-06
-0.00010013 3.5375e-06 0.00203772
0.000583009 -5.77491e-05 6.36489e-07
-5.77491e-05 -3.02577e-05 -2.66142e-07
6.36489e-07 -2.66142e-07 -9.04032e-05
0.000890711 -0.000151668 5.85668e-06
-0.000151668 0.000137468 -4.85462e-06
5.85668e-06 -4.85462e-06 -6.09221e-06
0.00358337 0.000135237 7.00469e-06
0.000135237 0.00176658 3.20368e-07
7.00469e-06 3.20368e-07 0.00176172
0.000693144 -1.40611e-05 8.41844e-06
-1.40611e-05 5.06044e-05 -9.15278e-06
8.41844e-06 -9.15278e-06 1.02492e-06
0.00312625 0.000110503 8.48868e-05
0.000110503 0.00149566 -3.05887e-06
8.48868e-05 -3.05887e-06 0.00149747
0.00103715 0.000223751 -2.44771e-06
0.000223751 0.000122758 -3.91868e-06
-2.44771e-06 -3.91868e-06 -7.48619e-05
0.00129287 0.000221424 2.29748e-07
0.000221424 0.000366406 -8.70612e-08
2.29748e-07 -8.70612e-08 0.00019005
0.000711316 0.000127328 -5.53595e-07
0.000127328 4.31781e-05 -5.01914e-06
-5.53595e-07 -5.01914e-06 -0.000106206
0.000673352 0.000150362 -9.74397e-07
0.000150362 5.24838e-05 3.10074e-07
-9.74397e-07 3.10074e-07 -8.12297e-05
0.000545637 5.13309e-05 -1.29434e-07
5.13309e-05 -3.07296e-05 -3.5948e-07
-1.29434e-07 -3.5948e-07 -0.00015152
0.000755704 6.27221e-05 -2.4591e-06
6.27221e-05 9.57818e-05 -3.58918e-06
-2.4591e-06 -3.58918e-06 -8.91475e-06
0.000483535 -1.19819e-05 4.04328e-07
-1.19819e-05 -6.68967e-05 1.45278e-06
4.04328e-07 1.45278e-06 -0.000172172
0.00064346 -5.18644e-06 2.60167e-07
-5.18644e-06 2.33197e-05 -2.64727e-07
2.60167e-07 -2.64727e-07 -6.07752e-05
0.000576678 -4.29839e-05 -1.67052e-06
-4.29839e-05 -9.1681e-06 -7.27578e-06
-1.67052e-06 -7.27578e-06 -4.59225e-05
0.000596834 -1.50126e-05 1.28961e-06
-1.50126e-05 -5.9235e-06 3.52668e-06
1.28961e-06 3.52668e-06 -8.11106e-05
0.000540789 -4.38679e-05 2.34982e-07
-4.38679e-05 -3.61784e-05 -4.39011e-08
2.34982e-07 -4.39011e-08 -6.85519e-05
0.00281064 -0.000114683 -5.3303e-05
-0.000114683 0.00130507 -2.67078e-06
-5.3303e-05 -2.67078e-06 0.00130624
0.00272467 -0.000103133 -3.30762e-06
-0.000103133 0.00124687 3.25794e-07
-3.30762e-06 3.25794e-07 0.00125046
0.000527628 -3.4181e-05 1.92711e-06
-3.4181e-05 -5.24639e-05 5.88438e-06
1.92711e-06 5.88438e-06 -8.05269e-05
0.00262543 -8.98813e-05 3.52146e-05
-8.98813e-05 0.00118115 3.92878e-06
3.52146e-05 3.92878e-06 0.00118753
0.00300731 -4.07468e-06 6.55001e-06
-4.07468e-06 -0.00026142 1.72242e-05
6.55001e-06 1.72242e-05 -0.000223548
0.00243849 -0.000529874 5.00212e-05
-0.000529874 -0.00175854 2.33846e-05
5.00212e-05 2.33846e-05 -0.00283246
0.00627808 -0.000725683 -5.13808e-05
-0.000725683 0.00240561 -5.90259e-05
-5.13808e-05 -5.90259e-05 0.00266387
0.00142027 0.000293883 8.53511e-06
0.000293883 0.000185576 5.20216e-06
8.53511e-06 5.20216e-06 -3.41299e-05
0.00146068 0.000205137 2.66235e-06
0.000205137 0.000520109 1.42929e-06
2.66235e-06 1.42929e-06 0.000366673
0.000982043 0.000211206 -4.2963e-06
0.000211206 0.000192501 2.81936e-06
-4.2963e-06 2.81936e-06 2.30498e-05
0.000722707 0.000201214 1.15845e-06
0.000201214 6.22446e-05 1.89299e-06
1.15845e-06 1.89299e-06 -0.000108509
0.00123731 0.000268287 -5.07426e-07
0.000268287 0.000230703 -3.46828e-06
-5.07426e-07 -3.46828e-06 2.27099e-05
0.000667769 0.000244726 2.61662e-06
0.000244726 -0.000134054 6.92715e-07
2.61662e-06 6.92715e-07 -0.000308582
0.00102526 0.000241633 -2.43014e-06
0.000241633 0.000204408 -2.00217e-06
-2.43014e-06 -2.00217e-06 1.16145e-05
0.000663711 0.000218266 2.33664e-06
0.000218266 -1.3377e-05 4.45445e-06
2.33664e-06 4.45445e-06 -0.000135645
0.00126545 0.000310684 2.28494e-06
0.000310684 0.000190198 -4.38077e-07
2.28494e-06 -4.38077e-07 1.88931e-05
0.00232538 0.000454804 2.83111e-06
0.000454804 0.000576529 6.75232e-06
2.83111e-06 6.75232e-06 0.000411571
0.00166415 0.000433452 -2.80907e-08
0.000433452 0.000116911 -6.11904e-07
-2.80907e-08 -6.11904e-07 -6.32174e-05
0.00157268 0.000400853 3.25796e-06
0.000400853 7.88328e-05 8.63617e-06
3.25796e-06 8.63617e-06 -4.10257e-05
0.00115017 0.000433209 -2.24988e-06
0.000433209 -0.000145969 -3.02468e-06
-2.24988e-06 -3.02468e-06 -0.000313054
0.000565819 0.000344113 2.27694e-07
0.000344113 -0.000324112 3.1866e-06
2.27694e-07 3.1866e-06 -0.00047944
0.00113485 0.000297078 2.1746e-05
0.000297078 -0.000279425 2.44093e-05
2.1746e-05 2.44093e-05 -0.000255011
0.00510272 0.00063569 -4.22632e-05
0.00063569 0.000152239 -9.70485e-06
-4.22632e-05 -9.70485e-06 0.000131422
0.00203308 0.000231997 0.000224604
0.000231997 -0.00152734 2.37718e-05
0.000224604 2.37718e-05 -0.00307493
0.000802672 0.000715263 2.90524e-06
0.000715263 -0.00104376 -1.41357e-05
2.90524e-06 -1.41357e-05 -0.00131954
0.00230173 0.00060947 -2.51752e-05
0.00060947 0.000236561 -2.09861e-06
-2.51752e-05 -2.09861e-06 0.000201288
0.00201171 0.000580121 -5.08961e-05
0.000580121 0.000253402 -2.05486e-05
-5.08961e-05 -2.05486e-05 9.49705e-05
0.00235957 -0.000170053 5.87264e-06
-0.000170053 0.000144912 6.35233e-07
5.87264e-06 6.35233e-07 9.88968e-05
0.00119261 -2.11256e-05 -1.63627e-06
-2.11256e-05 -0.000257332 4.85695e-06
-1.63627e-06 4.85695e-06 -0.000448344
0.000838544 0.000599837 8.28259e-05
0.000599837 -0.00268076 -2.62699e-05
8.28259e-05 -2.62699e-05 -0.00329931
0.000174038 -0.000210612 -1.21479e-05
-0.000210612 -0.000767616 2.63429e-05
-1.21479e-05 2.63429e-05 -0.000789082
0.00306263 -9.43978e-05 -2.43365e-05
-9.43978e-05 -0.00019217 3.38015e-05
-2.43365e-05 3.38015e-05 -0.000506099
0.00204775 -0.000232919 -1.15597e-05
-0.000232919 -1.5475e-05 4.1868e-06
-1.15597e-05 4.1868e-06 4.55711e-05
0.0028403 -0.000114538 -5.5861e-06
-0.000114538 0.000445939 -2.86437e-06
-5.5861e-06 -2.86437e-06 0.000398614
0.00157987 -0.000134161 2.73975e-05
-0.000134161 -0.000260522 -5.32225e-07
2.73975e-05 -5.32225e-07 -0.00017711
0.00296414 -6.3573e-05 2.34078e-05
-6.3573e-05 0.000815897 2.10773e-06
2.34078e-05 2.10773e-06 0.000774246
0.00126438 -0.000299095 -1.39853e-05
-0.000299095 -0.000398547 7.15353e-06
-1.39853e-05 7.15353e-06 -0.000372274
0.00174665 -0.000217345 1.02569e-06
-0.000217345 -0.000190892 2.10136e-06
1.02569e-06 2.10136e-06 -0.000123617
0.00191143 -0.000221291 1.91254e-06
-0.000221291 -1.92862e-05 4.33403e-07
1.91254e-06 4.33403e-07 1.2785e-05
0.00178173 -0.000288483 2.42109e-06
-0.000288483 -5.90018e-05 1.70606e-06
2.42109e-06 1.70606e-06 -0.000114531
0.00183943 -0.000240713 4.46089e-07
-0.000240713 2.342e-05 8.57271e-08
4.46089e-07 8.57271e-08 -1.64275e-05
0.00189837 -0.000224057 -2.94583e-07
-0.000224057 9.97535e-05 9.17606e-07
-2.94583e-07 9.17606e-07 4.03341e-05
0.00194692 -0.000270289 1.14135e-06
-0.000270289 0.000133042 1.0089e-06
1.14135e-06 1.0089e-06 4.99418e-05
0.00186611 -0.00023915 -6.79445e-07
-0.00023915 0.000126321 5.31889e-08
-6.79445e-07 5.31889e-08 4.50907e-05
0.00168663 -0.000211242 1.33792e-06
-0.000211242 6.92322e-05 1.08963e-07
1.33792e-06 1.08963e-07 -2.75081e-05
0.00163911 -0.000239891 -9.66059e-07
-0.000239891 3.98496e-05 1.93608e-06
-9.66059e-07 1.93608e-06 -5.81863e-05
0.00169203 -0.000234379 5.62368e-07
-0.000234379 0.000100321 -7.40119e-07
5.62368e-07 -7.40119e-07 -1.06693e-05
0.00167701 -0.000219226 2.05869e-06
-0.000219226 0.000117406 -1.90058e-06
2.05869e-06 -1.90058e-06 -1.61274e-05
0.00187371 -0.00023979 -4.94177e-06
-0.00023979 0.00022408 5.0658e-06
-4.94177e-06 5.0658e-06 0.000103104
0.0017987 -0.000232144 -1.03753e-06
-0.000232144 0.000218565 1.60984e-07
-1.03753e-06 1.60984e-07 7.29414e-05
0.00157538 -0.000204638 -2.02092e-06
-0.000204638 0.000152386 -5.12955e-07
-2.02092e-06 -5.12955e-07 -7.02545e-06
0.00174226 -0.000256633 2.83554e-06
-0.000256633 0.000210195 1.37929e-06
2.83554e-06 1.37929e-06 3.98465e-05
0.00161192 -0.000232057 1.00592e-06
-0.000232057 0.000196763 -6.10515e-07
1.00592e-06 -6.10515e-07 2.48032e-05
0.00127035 -0.000185639 -7.29556e-06
-0.000185639 8.24035e-05 2.15157e-06
-7.29556e-06 2.15157e-06 -7.96103e-05
0.000986794 -0.000162999 -1.1362e-05
-0.000162999 2.99679e-05 5.27597e-06
-1.1362e-05 5.27597e-06 -0.00011206
0.0011287 -0.000200784 -2.23148e-06
-0.000200784 2.85979e-05 4.08153e-07
-2.23148e-06 4.08153e-07 -0.000144314
0.00157692 -0.000264147 3.69966e-06
-0.000264147 0.000218236 -5.7009e-07
3.69966e-06 -5.7009e-07 2.56796e-05
0.000540348 -0.000157704 -2.0207e-05
-0.000157704 -8.75387e-05 1.3086e-05
-2.0207e-05 1.3086e-05 -0.000170013
0.000903516 -0.000164676 7.00408e-07
-0.000164676 2.98326e-05 5.37161e-07
7.00408e-07 5.37161e-07 -0.000120168
0.00129025 -0.000226798 7.02324e-06
-0.000226798 0.000168032 -1.80141e-06
7.02324e-06 -1.80141e-06 -1.7098e-05
0.0045949 0.000184223 -0.000118298
0.000184223 0.00236948 6.3386e-06
-0.000118298 6.3386e-06 0.00234919
0.000599269 -0.000121689 1.04764e-07
-0.000121689 -3.54938e-05 -1.01856e-08
1.04764e-07 -1.01856e-08 -0.000110824
0.000882061 -0.000162284 7.64923e-06
-0.000162284 8.47339e-05 -5.64428e-06
7.64923e-06 -5.64428e-06 -6.67077e-05
0.00420763 0.000142946 6.38799e-06
0.000142946 0.00213124 7.10316e-07
6.38799e-06 7.10316e-07 0.00212228
0.000727793 -7.65922e-05 1.3678e-05
-7.65922e-05 5.21451e-05 -1.12347e-05
1.3678e-05 -1.12347e-05 -1.12148e-05
0.00376196 0.000108931 0.000115844
0.000108931 0.00186461 -5.47645e-06
0.000115844 -5.47645e-06 0.00186444
0.00108134 0.00024177 -5.22234e-06
0.00024177 2.77733e-05 -1.55322e-06
-5.22234e-06 -1.55322e-06 -0.000173443
0.00117226 0.000234292 -5.32806e-07
0.000234292 0.000206647 -7.46925e-08
-5.32806e-07 -7.46925e-08 7.48312e-06
0.0010786 0.000197905 -2.16262e-06
0.000197905 0.000204118 -2.77747e-06
-2.16262e-06 -2.77747e-06 2.44005e-05
0.00165688 0.000252569 -2.09712e-06
0.000252569 0.000582029 2.05924e-06
-2.09712e-06 2.05924e-06 0.000399828
0.0008357 0.000138071 -1.10976e-06
0.000138071 0.000115114 -1.92665e-06
-1.10976e-06 -1.92665e-06 -3.48038e-05
0.00087355 0.000108344 -3.66561e-06
0.000108344 0.000158653 -4.25392e-06
-3.66561e-06 -4.25392e-06 3.58426e-05
0.000599835 7.11378e-05 1.33837e-09
7.11378e-05 -1.46357e-06 3.08144e-07
1.33837e-09 3.08144e-07 -0.000125382
0.000660218 1.93827e-05 -5.90505e-07
1.93827e-05 3.41092e-05 -1.1406e-07
-5.90505e-07 -1.1406e-07 -6.26306e-05
0.000583677 -2.87398e-05 -3.70801e-06
-2.87398e-05 -4.26562e-06 -7.95337e-06
-3.70801e-06 -7.95337e-06 -4.62847e-05
0.000581981 -2.03612e-05 1.13141e-06
-2.03612e-05 -1.10839e-05 3.81677e-06
1.13141e-06 3.81677e-06 -9.4217e-05
0.000527371 -4.66047e-05 3.92867e-07
-4.66047e-05 -3.6625e-05 -1.55897e-07
3.92867e-07 -1.55897e-07 -7.36062e-05
0.00294685 -0.000123783 -6.51222e-05
-0.000123783 0.00139129 -2.14663e-06
-6.51222e-05 -2.14663e-06 0.00139027
0.000510907 -4.19672e-05 1.79079e-06
-4.19672e-05 -5.40862e-05 6.41456e-06
1.79079e-06 6.41456e-06 -8.59412e-05
0.00279277 -0.0001155 -2.53479e-06
-0.0001155 0.00129436 3.01621e-07
-2.53479e-06 3.01621e-07 0.00129513
0.00272134 -0.000102725 4.24687e-05
-0.000102725 0.00124451 3.52118e-06
4.24687e-05 3.52118e-06 0.00124806
0.000299395 4.1327e-05 1.32794e-05
4.1327e-05 -0.000832602 7.48047e-06
1.32794e-05 7.48047e-06 -0.000806142
0.00424929 1.84547e-05 4.64205e-05
1.84547e-05 0.000245892 4.75834e-06
4.64205e-05 4.75834e-06 0.000131436
0.00977665 0.000539636 -8.22669e-05
0.000539636 0.00283082 -3.69657e-05
-8.22669e-05 -3.69657e-05 0.00169856
0.000331815 0.000203738 1.63473e-06
0.000203738 -0.000447532 2.27203e-06
1.63473e-06 2.27203e-06 -0.000631748
0.00170682 0.000318142 1.93187e-06
0.000318142 0.000240918 3.11143e-06
1.93187e-06 3.11143e-06 4.63845e-05
0.00107566 0.000271902 -3.11395e-06
0.000271902 -1.24652e-05 5.48325e-07
-3.11395e-06 5.48325e-07 -0.000228266
0.00114841 0.000242383 -3.31109e-07
0.000242383 0.000297924 1.73551e-06
-3.31109e-07 1.73551e-06 0.000117327
0.000846769 0.000236324 -1.47885e-06
0.000236324 9.52761e-06 -9.54212e-08
-1.47885e-06 -9.54212e-08 -0.00019541
0.00131554 0.00030424 7.45842e-06
0.00030424 0.000212753 1.2028e-06
7.45842e-06 1.2028e-06 2.7197e-05
0.0021378 0.000434254 -6.22572e-06
0.000434254 0.000376502 -3.18643e-06
-6.22572e-06 -3.18643e-06 0.000190483
0.00214098 0.000387004 -3.00886e-06
0.000387004 0.000670012 1.38139e-06
-3.00886e-06 1.38139e-06 0.000488273
0.00134278 0.000378516 1.04376e-05
0.000378516 3.85293e-05 1.88703e-05
1.04376e-05 1.88703e-05 -0.000117015
0.00209938 0.000460784 -2.54141e-06
0.000460784 0.000357835 6.96637e-07
-2.54141e-06 6.96637e-07 0.000177589
0.00200038 0.000416251 -1.32869e-05
0.000416251 0.000205381 1.44147e-06
-1.32869e-05 1.44147e-06 5.27353e-05
0.000708248 0.00019714 1.28673e-05
0.00019714 -0.000463225 6.05383e-06
1.28673e-05 6.05383e-06 -0.000510905
0.00116108 0.000369686 9.21759e-06
0.000369686 -0.000130097 1.83831e-07
9.21759e-06 1.83831e-07 -0.000249418
0.0011109 0.000424457 -6.61791e-06
0.000424457 -0.000175642 -6.89105e-06
-6.61791e-06 -6.89105e-06 -0.000342743
0.00157521 0.000301309 2.81797e-06
0.000301309 -5.737e-05 5.09365e-06
2.81797e-06 5.09365e-06 -5.73971e-05
0.00512294 0.000413703 3.01263e-05
0.000413703 0.000119371 -1.49046e-05
3.01263e-05 -1.49046e-05 -7.11273e-05
0.00243636 0.000538959 1.16685e-05
0.000538959 0.000545105 -2.31229e-05
1.16685e-05 -2.31229e-05 0.000509539
0.0014671 -3.99363e-05 2.37527e-05
-3.99363e-05 3.18634e-06 8.83724e-07
2.37527e-05 8.83724e-07 -1.26471e-05
0.00212059 -0.000103824 -2.13103e-05
-0.000103824 6.90615e-05 -7.77799e-07
-2.13103e-05 -7.77799e-07 2.16718e-05
0.00129209 0.00015798 2.5924e-05
0.00015798 -0.00067936 -6.84436e-06
2.5924e-05 -6.84436e-06 -0.000922209
0.000443061 -0.000174405 -2.7356e-05
-0.000174405 -0.000835463 2.11053e-05
-2.7356e-05 2.11053e-05 -0.000763421
0.00307167 -0.000167974 -8.91427e-05
-0.000167974 0.000528874 -5.23237e-07
-8.91427e-05 -5.23237e-07 0.000498751
0.00188145 -0.000164479 2.2285e-06
-0.000164479 -6.7483e-05 -1.98068e-06
2.2285e-06 -1.98068e-06 1.28405e-05
0.00228242 -6.52074e-05 -8.27573e-06
-6.52074e-05 0.00037845 1.96622e-07
-8.27573e-06 1.96622e-07 0.000337436
0.00196722 -0.000169731 2.40759e-06
-0.000169731 2.40543e-06 1.36352e-06
2.40759e-06 1.36352e-06 9.1944e-06
0.00218848 -2.85023e-05 4.45002e-06
-2.85023e-05 0.000179333 6.35407e-07
4.45002e-06 6.35407e-07 0.000151112
0.00175674 -0.000229621 -5.82657e-06
-0.000229621 -0.000207683 2.40584e-06
-5.82657e-06 2.40584e-06 -0.000148501
0.00191917 -0.000216692 -1.83999e-06
-0.000216692 -6.9901e-06 -6.47106e-08
-1.83999e-06 -6.47106e-08 1.87532e-05
0.00194947 -0.000181511 -1.97978e-06
-0.000181511 4.34144e-05 4.3678e-07
-1.97978e-06 4.3678e-07 1.41954e-05
0.00185783 -0.000250116 -1.78864e-06
-0.000250116 2.92403e-05 -8.63927e-07
-1.78864e-06 -8.63927e-07 -1.57295e-05
0.00180256 -0.000219022 1.10387e-07
-0.000219022 5.27152e-05 -2.54402e-07
1.10387e-07 -2.54402e-07 -1.11816e-05
0.0018536 -0.000193534 4.3841e-08
-0.000193534 0.000109401 1.68234e-07
4.3841e-08 1.68234e-07 2.72001e-05
0.00177477 -0.000242641 -2.36555e-06
-0.000242641 7.66913e-05 -5.55361e-07
-2.36555e-06 -5.55361e-07 -6.89225e-06
0.00172714 -0.000212492 3.13512e-07
-0.000212492 9.10811e-05 -7.9904e-08
3.13512e-07 -7.9904e-08 -5.73835e-06
0.00172019 -0.000197985 1.91753e-06
-0.000197985 0.000104363 -8.19015e-07
1.91753e-06 -8.19015e-07 -1.56054e-05
0.00171178 -0.000235256 -2.2314e-06
-0.000235256 0.000114539 3.76875e-07
-2.2314e-06 3.76875e-07 3.35027e-06
0.0017046 -0.000219626 -6.36697e-08
-0.000219626 0.000134202 -3.6054e-07
-6.36697e-08 -3.6054e-07 8.10994e-07
0.00156252 -0.000189503 -9.50503e-07
-0.000189503 0.000120904 -4.71826e-07
-9.50503e-07 -4.71826e-07 -3.03411e-05
0.00184999 -0.000233223 -1.62354e-06
-0.000233223 0.000245496 3.14319e-06
-1.62354e-06 3.14319e-06 0.000102856
0.00157761 -0.000205298 -5.50871e-07
-0.000205298 0.00015343 -1.34042e-07
-5.50871e-07 -1.34042e-07 -5.12476e-06
0.00127043 -0.000165604 -6.62318e-06
-0.000165604 6.51895e-05 1.93296e-06
-6.62318e-06 1.93296e-06 -9.04235e-05
0.00154799 -0.000229626 4.80023e-06
-0.000229626 0.000159414 -2.81302e-07
4.80023e-06 -2.81302e-07 -1.34537e-05
0.00121104 -0.000183083 -6.81628e-08
-0.000183083 4.80482e-05 -3.02841e-08
-6.81628e-08 -3.02841e-08 -0.000114216
0.000998069 -0.000146576 -1.20863e-05
-0.000146576 1.68733e-05 5.65283e-06
-1.20863e-05 5.65283e-06 -0.000117829
0.00047372 -0.000155169 -1.97302e-05
-0.000155169 -0.000137588 1.24446e-05
-1.97302e-05 1.24446e-05 -0.000223599
0.000952831 -0.000160145 1.40545e-07
-0.000160145 1.16715e-05 -9.03712e-08
1.40545e-07 -9.03712e-08 -0.000130162
0.00128853 -0.000210974 5.38852e-06
-0.000210974 0.000121517 -1.64327e-06
5.38852e-06 -1.64327e-06 -5.22227e-05
0.0050871 0.000159796 -0.000139692
0.000159796 0.00264734 7.837e-06
-0.000139692 7.837e-06 0.0026301
0.000587637 -0.00014844 -1.92964e-06
-0.00014844 -6.30767e-05 5.04066e-07
-1.92964e-06 5.04066e-07 -0.000145411
0.000853474 -0.000164059 9.65928e-06
-0.000164059 4.45804e-06 -4.90571e-06
9.65928e-06 -4.90571e-06 -0.000145814
0.00477837 0.000162248 1.13484e-05
0.000162248 0.00247164 1.34512e-06
1.13484e-05 1.34512e-06 0.00245427
0.000743858 -0.000126399 1.85976e-05
-0.000126399 4.22791e-05 -1.26541e-05
1.85976e-05 -1.26541e-05 -3.37583e-05
0.00437699 0.000120496 0.000136261
0.000120496 0.00222398 -7.29537e-06
0.000136261 -7.29537e-06 0.00221842
0.00149541 0.000267378 -4.78062e-06
0.000267378 0.000211914 1.33949e-06
-4.78062e-06 1.33949e-06 1.55262e-05
0.00110276 0.000243253 -2.79703e-07
0.000243253 3.59045e-05 1.25975e-06
-2.79703e-07 1.25975e-06 -0.000166729
0.00100051 0.000201996 -5.81141e-06
0.000201996 6.10468e-05 -1.32783e-06
-5.81141e-06 -1.32783e-06 -0.000124242
0.00130492 0.000244831 -6.76094e-07
0.000244831 0.000288983 2.0023e-06
-6.76094e-07 2.0023e-06 8.83108e-05
0.00102581 0.000192456 -1.40728e-06
0.000192456 0.000176549 1.33998e-07
-1.40728e-06 1.33998e-07 -2.61012e-06
0.000929612 0.000150308 -5.56433e-06
0.000150308 0.000165137 -5.26394e-06
-5.56433e-06 -5.26394e-06 2.20487e-05
0.000925973 0.000145417 -1.90322e-07
0.000145417 0.000167367 3.7145e-07
-1.90322e-07 3.7145e-07 1.73839e-05
0.00074052 8.40631e-05 -2.95396e-07
8.40631e-05 8.39148e-05 -1.91962e-07
-2.95396e-07 -1.91962e-07 -3.5932e-05
0.000674104 1.53505e-05 -8.31439e-06
1.53505e-05 4.1287e-05 -9.49024e-06
-8.31439e-06 -9.49024e-06 -1.0516e-05
0.000603415 -1.10389e-05 1.02367e-06
-1.10389e-05 1.09855e-06 3.73671e-06
1.02367e-06 3.73671e-06 -9.26381e-05
0.00051816 -3.69322e-05 -6.35182e-08
-3.69322e-05 -4.00055e-05 -2.49258e-07
-6.35182e-08 -2.49258e-07 -8.23327e-05
0.00321348 -0.000127098 -8.51409e-05
-0.000127098 0.00155198 -2.21796e-06
-8.51409e-05 -2.21796e-06 0.00154963
0.000488037 -4.77431e-05 1.46407e-06
-4.77431e-05 -5.9071e-05 7.04047e-06
1.46407e-06 7.04047e-06 -9.58936e-05
0.00290416 -0.000127805 -2.40169e-06
-0.000127805 0.0013669 2.96169e-07
-2.40169e-06 2.96169e-07 0.00136463
0.00278172 -0.000115209 4.8379e-05
-0.000115209 0.00128753 3.01612e-06
4.8379e-05 3.01612e-06 0.00128821
0.000727839 4.97979e-05 1.35576e-05
4.97979e-05 -0.000456025 -5.00234e-06
1.35576e-05 -5.00234e-06 -0.000445522
0.00192294 6.10204e-06 -6.89839e-06
6.10204e-06 -0.00013475 3.38244e-08
-6.89839e-06 3.38244e-08 -0.000104643
0.00422027 1.25687e-05 0.000127277
1.25687e-05 -1.08832e-05 2.23989e-05
0.000127277 2.23989e-05 0.000167258
0.00189841 0.000362759 -1.8241e-06
0.000362759 0.00026145 1.43373e-06
-1.8241e-06 1.43373e-06 8.06002e-05
0.000801134 0.000259675 1.2319e-06
0.000259675 -0.000187276 -1.48753e-06
1.2319e-06 -1.48753e-06 -0.000377373
0.00191557 0.000318208 -4.68552e-07
0.000318208 0.000253184 3.48705e-06
-4.68552e-07 3.48705e-06 8.34878e-05
0.00173072 0.000319329 1.21757e-06
0.000319329 0.0002559 5.2169e-07
1.21757e-06 5.2169e-07 6.14334e-05
0.000777442 0.000255373 -1.94515e-07
0.000255373 -0.000185839 2.43424e-06
-1.94515e-07 2.43424e-06 -0.000398559
0.00186051 0.000346503 -4.41287e-06
0.000346503 0.000117199 1.54454e-06
-4.41287e-06 1.54454e-06 -3.58838e-05
0.00193298 0.000361495 -2.54779e-06
0.000361495 0.000543528 -4.26129e-07
-2.54779e-06 -4.26129e-07 0.000347227
0.00211479 0.000427739 -2.99094e-08
0.000427739 0.000369542 -1.12787e-06
-2.99094e-08 -1.12787e-06 0.000182417
0.00180495 0.000244065 -9.77814e-06
0.000244065 1.39773e-05 -1.60941e-07
-9.77814e-06 -1.60941e-07 -8.59976e-05
0.0025134 0.000487684 5.05477e-06
0.000487684 0.000588038 3.76062e-06
5.05477e-06 3.76062e-06 0.00040768
0.00194852 0.000414838 -1.41216e-06
0.000414838 0.000171153 3.12944e-07
-1.41216e-06 3.12944e-07 1.66752e-05
0.00089466 0.000211336 2.71628e-06
0.000211336 -0.000329134 2.50542e-06
2.71628e-06 2.50542e-06 -0.000385802
-4.41691e-05 0.00029188 1.10273e-06
0.00029188 -0.000748982 -3.63554e-06
1.10273e-06 -3.63554e-06 -0.000864202
0.0016496 0.000300957 -4.01416e-05
0.000300957 -3.242e-05 -1.83623e-05
-4.01416e-05 -1.83623e-05 -4.63805e-05
0.0017796 3.30626e-05 1.62708e-06
3.30626e-05 -5.20707e-05 -7.26277e-07
1.62708e-06 -7.26277e-07 -8.63935e-05
0.00208529 -2.65759e-05 4.79184e-07
-2.65759e-05 0.000371151 2.9102e-06
4.79184e-07 2.9102e-06 0.00035971
0.00140788 -1.40474e-05 -5.97884e-05
-1.40474e-05 -0.000242941 -8.77266e-06
-5.97884e-05 -8.77266e-06 -0.000343898
0.0021707 -0.000192575 -2.81518e-05
-0.000192575 0.000116264 6.88541e-07
-2.81518e-05 6.88541e-07 0.000190842
0.00127419 -7.07725e-05 -7.82263e-06
-7.07725e-05 -0.000241365 -5.26584e-07
-7.82263e-06 -5.26584e-07 -0.000279579
0.00190563 -0.000162362 3.29598e-07
-0.000162362 -2.97457e-05 -4.05923e-07
3.29598e-07 -4.05923e-07 -1.74741e-05
0.00201352 -2.88742e-05 -3.46663e-06
-2.88742e-05 5.69049e-05 6.9382e-07
-3.46663e-06 6.9382e-07 3.44958e-05
0.00202648 -6.01307e-05 -5.69707e-06
-6.01307e-05 5.72257e-05 -4.88871e-07
-5.69707e-06 -4.88871e-07 3.65627e-05
0.00192179 -0.000211294 -3.58909e-06
-0.000211294 5.32399e-06 -7.63441e-07
-3.58909e-06 -7.63441e-07 2.3881e-05
0.00191127 -0.000173951 4.98867e-07
-0.000173951 3.20343e-05 -1.48883e-07
4.98867e-07 -1.48883e-07 6.72662e-07
0.00197084 -0.000140759 -4.39682e-07
-0.000140759 0.000100758 -3.01894e-07
-4.39682e-07 -3.01894e-07 4.8261e-05
0.00170826 -0.000214492 -3.75242e-07
-0.000214492 5.99337e-06 -1.03017e-06
-3.75242e-07 -1.03017e-06 -6.23565e-05
0.00177565 -0.000190144 -1.92101e-08
-0.000190144 6.74741e-05 -7.24587e-08
-1.92101e-08 -7.24587e-08 -1.56565e-05
0.00175053 -0.000161667 1.42727e-06
-0.000161667 8.3287e-05 -4.21642e-07
1.42727e-06 -4.21642e-07 -2.41682e-05
0.00177418 -0.00021392 -6.5604e-07
-0.00021392 0.000115992 -1.8756e-07
-6.5604e-07 -1.8756e-07 1.91004e-05
0.00174676 -0.000197761 3.64311e-08
-0.000197761 0.0001211 -1.24105e-07
3.64311e-08 -1.24105e-07 1.2576e-06
0.00162589 -0.000170984 2.58167e-09
-0.000170984 0.000122777 -4.79778e-07
2.58167e-09 -4.79778e-07 -1.90062e-05
0.00173254 -0.000220114 -1.69873e-06
-0.000220114 0.000151038 1.05681e-06
-1.69873e-06 1.05681e-06 1.77754e-05
0.0015777 -0.000189844 -2.07681e-07
-0.000189844 0.000128629 -1.95966e-08
-2.07681e-07 -1.95966e-08 -2.22924e-05
0.00131155 -0.000149246 -5.52586e-06
-0.000149246 7.26503e-05 1.65536e-06
-5.52586e-06 1.65536e-06 -7.86449e-05
0.00158028 -0.000205892 1.63825e-06
-0.000205892 0.000154614 5.17998e-07
1.63825e-06 5.17998e-07 -3.06489e-06
0.00130279 -0.000166944 -2.0803e-07
-0.000166944 8.27396e-05 4.71232e-08
-2.0803e-07 4.71232e-08 -7.27291e-05
0.00102852 -0.000130799 -1.28101e-05
-0.000130799 1.99501e-05 5.24231e-06
-1.28101e-05 5.24231e-06 -0.000110937
0.0011551 -0.000180772 6.60654e-06
-0.000180772 1.56928e-05 -1.83271e-06
6.60654e-06 -1.83271e-06 -0.000146849
0.00100107 -0.000145383 2.26378e-07
-0.000145383 1.80929e-05 3.67334e-08
2.26378e-07 3.67334e-08 -0.000116364
0.0023469 -9.23581e-05 -2.41121e-05
-9.23581e-05 0.000950814 7.72331e-06
-2.41121e-05 7.72331e-06 0.000878097
0.0016239 -3.6383e-05 -0.000163593
-3.6383e-05 0.000590495 1.67785e-05
-0.000163593 1.67785e-05 0.000572296
0.00150952 -0.00013036 -3.31122e-06
-0.00013036 0.000464374 -2.41936e-07
-3.31122e-06 -2.41936e-07 0.000382869
0.000932273 -0.000158357 1.10022e-05
-0.000158357 1.06801e-06 -5.26977e-06
1.10022e-05 -5.26977e-06 -0.00014072
0.00522668 0.000125585 2.5742e-07
0.000125585 0.00272507 -1.7536e-07
2.5742e-07 -1.7536e-07 0.00271053
0.000656348 -0.000167168 2.0849e-05
-0.000167168 -2.28401e-05 -1.28039e-05
2.0849e-05 -1.28039e-05 -0.000108967
0.00494184 0.000122482 0.000155676
0.000122482 0.00255962 -1.0803e-05
0.000155676 -1.0803e-05 0.00254692
0.00188902 0.00025701 1.00846e-06
0.00025701 0.000206072 7.7753e-07
1.00846e-06 7.7753e-07 5.50224e-05
0.00157823 0.000266075 4.02393e-07
0.000266075 0.00017567 2.68076e-06
4.02393e-07 2.68076e-06 -4.15221e-06
0.00154449 0.000275298 -4.71922e-07
0.000275298 0.000237171 -3.91191e-07
-4.71922e-07 -3.91191e-07 4.05369e-05
0.00119862 0.000215992 -7.08128e-06
0.000215992 8.80848e-05 -1.44642e-06
-7.08128e-06 -1.44642e-06 -9.00123e-05
0.00115557 0.000247214 3.85032e-06
0.000247214 6.30467e-05 6.47587e-07
3.85032e-06 6.47587e-07 -0.000141418
0.00112256 0.000211428 -7.83162e-07
0.000211428 0.000132961 7.80859e-07
-7.83162e-07 7.80859e-07 -5.41386e-05
0.000882159 0.000162491 -8.15915e-06
0.000162491 7.13778e-05 -4.688e-06
-8.15915e-06 -4.688e-06 -8.02738e-05
0.000998929 0.000188947 1.38962e-06
0.000188947 0.000164118 4.20883e-06
1.38962e-06 4.20883e-06 -1.47917e-05
0.000804917 0.000135093 -1.57882e-07
0.000135093 9.44047e-05 -5.23805e-08
-1.57882e-07 -5.23805e-08 -4.60931e-05
0.000785343 8.85876e-05 -1.39428e-05
8.85876e-05 9.23553e-05 -1.18427e-05
-1.39428e-05 -1.18427e-05 2.41498e-05
0.000636557 6.01442e-05 1.77453e-06
6.01442e-05 2.17772e-05 3.22656e-06
1.77453e-06 3.22656e-06 -9.25915e-05
0.000535203 3.25627e-06 -7.12548e-07
3.25627e-06 -3.65252e-05 -4.3882e-07
-7.12548e-07 -4.3882e-07 -8.65773e-05
0.00363687 -0.000122631 -0.000111723
-0.000122631 0.00180313 -4.04772e-06
-0.000111723 -4.04772e-06 0.00179911
0.000444976 -4.51601e-05 1.29651e-06
-4.51601e-05 -7.9147e-05 7.93003e-06
1.29651e-06 7.93003e-06 -0.000122322
0.00311563 -0.000139892 -3.26127e-06
-0.000139892 0.00149715 3.31641e-07
-3.26127e-06 3.31641e-07 0.00149156
0.00286989 -0.000128368 5.4192e-05
-0.000128368 0.00134683 2.42302e-06
5.4192e-05 2.42302e-06 0.00134428
0.00178345 0.000134893 -3.09625e-06
0.000134893 -4.56012e-05 -2.85938e-07
-3.09625e-06 -2.85938e-07 -0.000107189
0.00192257 4.17611e-05 1.36503e-05
4.17611e-05 0.000171424 2.29612e-06
1.36503e-05 2.29612e-06 0.000173438
0.00385968 -2.04671e-05 -8.3199e-05
-2.04671e-05 0.000710202 -1.37009e-05
-8.3199e-05 -1.37009e-05 0.000742613
0.00172161 0.000299371 -3.13518e-06
0.000299371 5.67288e-05 1.16384e-06
-3.13518e-06 1.16384e-06 -9.10762e-05
0.00172706 0.000347163 -1.06486e-06
0.000347163 0.000181803 -1.44533e-07
-1.06486e-06 -1.44533e-07 1.55385e-06
0.00131734 0.00031883 -1.76576e-05
0.00031883 0.000100359 -7.04795e-06
-1.76576e-05 -7.04795e-06 -9.58873e-05
0.0019315 0.000308401 2.40769e-06
0.000308401 0.000266876 7.94542e-07
2.40769e-06 7.94542e-07 9.88868e-05
0.00176759 0.00032095 -1.01928e-06
0.00032095 0.00027944 -2.54797e-06
-1.01928e-06 -2.54797e-06 8.49698e-05
0.00216255 0.000241279 -6.00021e-07
0.000241279 0.000231904 1.25237e-06
-6.00021e-07 1.25237e-06 0.000133567
0.00171804 0.000340532 -1.51592e-06
0.000340532 4.71015e-05 8.29796e-07
-1.51592e-06 8.29796e-07 -0.000107279
0.00210369 0.000422238 1.65423e-06
0.000422238 0.000368263 -1.84992e-07
1.65423e-06 -1.84992e-07 0.00017985
0.00179529 0.000247318 -9.43622e-07
0.000247318 1.39582e-05 1.90107e-07
-9.43622e-07 1.90107e-07 -8.75096e-05
0.00205926 0.000424135 1.8564e-05
0.000424135 0.000214356 1.54078e-06
1.8564e-05 1.54078e-06 5.70548e-05
0.00142187 0.000232192 -1.96142e-05
0.000232192 -2.54065e-05 -3.66778e-06
-1.96142e-05 -3.66778e-06 -9.05689e-05
0.00198469 4.44386e-05 -5.59755e-06
4.44386e-05 6.26904e-05 -1.99652e-07
-5.59755e-06 -1.99652e-07 2.1977e-05
0.00187358 4.46424e-05 -2.43349e-06
4.46424e-05 5.60733e-06 3.01322e-07
-2.43349e-06 3.01322e-07 -3.14393e-05
0.00285228 -1.22809e-05 -3.964e-05
-1.22809e-05 0.000830954 -4.46491e-06
-3.964e-05 -4.46491e-06 0.00081359
0.00185138 -0.000153903 -7.77352e-06
-0.000153903 -6.40548e-05 -1.83196e-06
-7.77352e-06 -1.83196e-06 -4.63348e-05
0.00192667 -2.88682e-05 4.29296e-06
-2.88682e-05 -1.37673e-05 -3.44923e-07
4.29296e-06 -3.44923e-07 -3.28706e-05
0.00199833 -6.4911e-05 -1.38962e-07
-6.4911e-05 2.6078e-05 1.11754e-07
-1.38962e-07 1.11754e-07 1.10007e-05
0.00195771 -4.48043e-05 -2.0133e-06
-4.48043e-05 0.000103304 -1.90687e-07
-2.0133e-06 -1.90687e-07 5.41056e-05
0.00186718 -0.000165509 2.6276e-06
-0.000165509 1.8551e-05 -8.71752e-07
2.6276e-06 -8.71752e-07 -1.50824e-05
0.00185133 -0.00013981 6.56969e-07
-0.00013981 4.12627e-05 -8.43119e-08
6.56969e-07 -8.43119e-08 -1.75078e-05
0.00181999 -0.000114369 3.50254e-06
-0.000114369 9.58925e-05 -1.22496e-06
3.50254e-06 -1.22496e-06 -1.11111e-06
0.00169273 -0.000186649 2.65535e-07
-0.000186649 2.30953e-05 -1.87211e-08
2.65535e-07 -1.87211e-08 -6.10925e-05
0.00178854 -0.000162644 -1.26822e-08
-0.000162644 0.000103784 -1.51562e-07
-1.26822e-08 -1.51562e-07 -3.60947e-06
0.00169567 -0.000144753 3.54704e-07
-0.000144753 0.000121844 -4.42306e-07
3.54704e-07 -4.42306e-07 -1.02435e-05
0.00177376 -0.000197447 -1.40081e-06
-0.000197447 0.000138258 5.18648e-07
-1.40081e-06 5.18648e-07 1.85614e-05
0.00163112 -0.00017071 -2.50213e-07
-0.00017071 0.000125423 2.62756e-08
-2.50213e-07 2.62756e-08 -1.61014e-05
0.00135317 -0.000129695 -4.74851e-06
-0.000129695 7.78205e-05 1.2937e-06
-4.74851e-06 1.2937e-06 -6.93503e-05
0.0015917 -0.000190141 5.84391e-07
-0.000190141 0.000135842 4.12969e-07
5.84391e-07 4.12969e-07 -1.47543e-05
0.00133213 -0.000149926 -1.25613e-07
-0.000149926 8.2333e-05 9.06988e-08
-1.25613e-07 9.06988e-08 -6.87331e-05
0.00103215 -0.000114879 -1.26837e-05
-0.000114879 1.14954e-05 4.57087e-06
-1.26837e-05 4.57087e-06 -0.00011756
0.00133609 -0.000168382 6.02276e-06
-0.000168382 0.000100784 -1.75689e-06
6.02276e-06 -1.75689e-06 -5.45533e-05
0.00101915 -0.000128449 2.20006e-07
-0.000128449 1.3695e-05 7.91563e-08
2.20006e-07 7.91563e-08 -0.000116635
0.00239917 -0.000102115 -3.15073e-05
-0.000102115 0.000967161 6.90392e-06
-3.15073e-05 6.90392e-06 0.000901714
0.000994201 -0.000143798 1.21029e-05
-0.000143798 1.38114e-05 -5.43278e-06
1.21029e-05 -5.43278e-06 -0.000120395
0.00251212 -0.00013945 3.50862e-05
-0.00013945 0.00104003 -4.11074e-06
3.50862e-05 -4.11074e-06 0.000973748
0.00170491 -7.67371e-05 -0.000168138
-7.67371e-05 0.000645102 2.0738e-05
-0.000168138 2.0738e-05 0.000625916
0.0034457 3.75664e-06 -0.000166473
3.75664e-06 0.00167672 8.65139e-06
-0.000166473 8.65139e-06 0.00166042
0.00260687 -0.000188473 0.000104097
-0.000188473 0.00109821 -1.3546e-05
0.000104097 -1.3546e-05 0.00103417
0.00534767 0.000128644 0.000158174
0.000128644 0.00281304 -1.60624e-05
0.000158174 -1.60624e-05 0.00278853
0.00199891 0.000256503 -1.51907e-06
0.000256503 0.000234061 -4.29439e-07
-1.51907e-06 -4.29439e-07 9.51836e-05
0.00155836 0.000224764 2.68175e-06
0.000224764 0.000116533 1.1212e-06
2.68175e-06 1.1212e-06 -4.43037e-05
0.0018531 0.000257385 3.29425e-07
0.000257385 0.000181957 -9.69179e-07
3.29425e-07 -9.69179e-07 3.435e-05
0.00133537 0.00021085 -6.68443e-06
0.00021085 0.000120872 -1.1748e-06
-6.68443e-06 -1.1748e-06 -4.69574e-05
0.0016026 0.000265078 5.82519e-07
0.000265078 0.0001848 3.66655e-07
5.82519e-07 3.66655e-07 4.3781e-06
0.00158663 0.000282819 3.28807e-06
0.000282819 0.000258399 -5.25347e-07
3.28807e-06 -5.25347e-07 6.15691e-05
0.00118808 0.000214967 -2.68323e-08
0.000214967 8.44574e-05 5.41162e-08
-2.68323e-08 5.41162e-08 -9.3343e-05
0.00087918 0.000160493 -1.04612e-05
0.000160493 -4.4841e-06 -4.63505e-06
-1.04612e-05 -4.63505e-06 -0.00015192
0.00124507 0.000221008 4.96703e-06
0.000221008 0.00020487 3.11572e-06
4.96703e-06 3.11572e-06 1.59215e-05
0.000854687 0.0001559 -7.69325e-07
0.0001559 5.35871e-05 5.3736e-07
-7.69325e-07 5.3736e-07 -9.69603e-05
0.000721199 0.000149069 -1.98357e-05
0.000149069 3.53757e-05 -1.26498e-05
-1.98357e-05 -1.26498e-05 -4.65753e-05
0.000661914 0.000117265 3.13548e-06
0.000117265 1.34476e-05 4.43542e-06
3.13548e-06 4.43542e-06 -0.000124213
0.000565082 6.36108e-05 -4.09612e-07
6.36108e-05 -3.0693e-05 -2.44783e-07
-4.09612e-07 -2.44783e-07 -9.50869e-05
0.0043384 -0.000113353 -0.000143075
-0.000113353 0.00221881 -8.51051e-06
-0.000143075 -8.51051e-06 0.00220933
0.000391089 -2.12509e-05 3.16014e-06
-2.12509e-05 -0.000113469 9.05969e-06
3.16014e-06 9.05969e-06 -0.000163948
0.0035096 -0.000150829 -5.73015e-06
-0.000150829 0.00173395 4.15386e-07
-5.73015e-06 4.15386e-07 0.00172451
0.00304647 -0.000143599 6.15277e-05
-0.000143599 0.00145738 1.90108e-06
6.15277e-05 1.90108e-06 0.00145077
0.00185085 0.000140937 -1.96891e-06
0.000140937 3.37927e-06 7.97079e-07
-1.96891e-06 7.97079e-07 -6.52669e-05
0.00183327 0.000133307 6.79555e-07
0.000133307 -1.63428e-05 -3.10447e-07
6.79555e-07 -3.10447e-07 -7.72818e-05
0.00272159 3.55337e-05 -5.36322e-05
3.55337e-05 0.000593031 -5.85844e-06
-5.36322e-05 -5.85844e-06 0.000597177
0.00199175 0.000214229 1.49528e-06
0.000214229 0.000160777 1.26505e-06
1.49528e-06 1.26505e-06 5.21922e-05
0.00171519 0.000294071 -6.16266e-07
0.000294071 6.53432e-05 1.84517e-07
-6.16266e-07 1.84517e-07 -8.17885e-05
0.00155749 0.000332162 -8.3413e-07
0.000332162 0.000101568 -3.48184e-06
-8.3413e-07 -3.48184e-06 -7.82176e-05
0.00194335 0.000297941 -3.32183e-07
0.000297941 0.000278585 -2.52888e-06
-3.32183e-07 -2.52888e-06 0.000112445
0.00197261 0.000231504 -9.40608e-07
0.000231504 0.000122137 -2.69412e-07
-9.40608e-07 -2.69412e-07 2.31135e-05
0.00159342 0.000335031 1.32275e-06
0.000335031 -1.2803e-05 -3.36838e-07
1.32275e-06 -3.36838e-07 -0.000168421
0.00180738 0.000247133 1.17188e-05
0.000247133 4.00736e-05 -3.59468e-07
1.17188e-05 -3.59468e-07 -6.16238e-05
0.00191324 3.55542e-05 -7.72542e-07
3.55542e-05 6.65332e-05 6.08481e-07
-7.72542e-07 6.08481e-07 1.26149e-05
0.00194292 4.39616e-05 4.00163e-07
4.39616e-05 4.29811e-05 -1.80258e-08
4.00163e-07 -1.80258e-08 1.47877e-06
0.0019856 5.57196e-05 -5.70015e-06
5.57196e-05 6.76593e-05 -9.26691e-07
-5.70015e-06 -9.26691e-07 3.0167e-05
0.00165385 -1.48627e-05 -1.53145e-06
-1.48627e-05 -2.7871e-05 4.15235e-08
-1.53145e-06 4.15235e-08 -9.14167e-05
0.00197376 -7.32601e-05 5.43437e-06
-7.32601e-05 -3.48406e-06 -9.07075e-08
5.43437e-06 -9.07075e-08 -1.27e-05
0.00187871 -4.67459e-05 -1.17415e-06
-4.67459e-05 5.31271e-05 6.56996e-07
-1.17415e-06 6.56996e-07 3.99573e-06
0.00200763 -5.72415e-05 2.62154e-07
-5.72415e-05 0.000203229 -1.22197e-06
2.62154e-07 -1.22197e-06 0.000118676
0.00172865 -0.000138826 1.99994e-06
-0.000138826 -2.07388e-05 -2.08761e-07
1.99994e-06 -2.08761e-07 -8.55892e-05
0.00184034 -0.000114818 2.1834e-06
-0.000114818 0.000104751 -6.09179e-07
2.1834e-06 -6.09179e-07 7.95299e-06
0.00174125 -0.000104268 1.3379e-06
-0.000104268 0.000116901 -1.02183e-06
1.3379e-06 -1.02183e-06 -5.85625e-06
0.00183359 -0.00016323 -1.37144e-06
-0.00016323 0.000128455 1.57802e-07
-1.37144e-06 1.57802e-07 2.12065e-05
0.00169499 -0.000143026 -1.45408e-07
-0.000143026 0.000123755 -5.1982e-08
-1.45408e-07 -5.1982e-08 -8.03081e-06
0.0013932 -0.000105395 -4.09199e-06
-0.000105395 7.81235e-05 9.51784e-07
-4.09199e-06 9.51784e-07 -6.40473e-05
0.00163628 -0.000170363 2.14646e-08
-0.000170363 0.000128047 4.36067e-07
2.14646e-08 4.36067e-07 -1.32048e-05
0.00135749 -0.000129662 -1.44746e-07
-0.000129662 7.73175e-05 8.01984e-08
-1.44746e-07 8.01984e-08 -6.96026e-05
0.00103489 -9.74582e-05 -1.23463e-05
-9.74582e-05 3.05618e-06 3.78207e-06
-1.23463e-05 3.78207e-06 -0.00012472
0.0013527 -0.000150561 5.18332e-06
-0.000150561 9.19451e-05 -1.43561e-06
5.18332e-06 -1.43561e-06 -5.888e-05
0.00103091 -0.000112336 9.85681e-08
-0.000112336 9.68869e-06 1.78091e-07
9.85681e-08 1.78091e-07 -0.000118653
0.00244403 -0.000114535 -3.90802e-05
-0.000114535 0.000985389 6.52128e-06
-3.90802e-05 6.52128e-06 0.000922307
0.00100461 -0.000125907 1.26517e-05
-0.000125907 4.37929e-06 -5.09157e-06
1.26517e-05 -5.09157e-06 -0.000125351
0.00250797 -0.00013557 3.1785e-05
-0.00013557 0.00102774 -3.53714e-06
3.1785e-05 -3.53714e-06 0.000966276
0.00174863 -6.71641e-05 -0.000164287
-6.71641e-05 0.000666633 1.86903e-05
-0.000164287 1.86903e-05 0.000648019
0.00265111 -0.000159436 0.000103947
-0.000159436 0.00111663 -1.56127e-05
0.000103947 -1.56127e-05 0.00105478
0.0014993 -1.16487e-05 -7.73428e-05
-1.16487e-05 0.000533838 7.8665e-06
-7.73428e-05 7.8665e-06 0.000505117
0.0051392 0.000219291 1.52136e-05
0.000219291 0.0026867 -2.93593e-06
1.52136e-05 -2.93593e-06 0.00265123
0.0017999 0.000204693 1.30211e-06
0.000204693 0.000103818 7.18387e-07
1.30211e-06 7.18387e-07 -2.52396e-05
0.00178417 0.000223111 -9.32304e-08
0.000223111 0.0002028 -5.05193e-07
-9.32304e-08 -5.05193e-07 5.31106e-05
0.00187073 0.000251438 -3.00923e-06
0.000251438 0.000157743 4.15309e-08
-3.00923e-06 4.15309e-08 1.72556e-05
0.00170164 0.000205206 -4.06754e-06
0.000205206 0.000310361 -7.545e-07
-4.06754e-06 -7.545e-07 0.000154124
0.00153846 0.000228913 8.45905e-07
0.000228913 0.000100988 -1.0068e-06
8.45905e-07 -1.0068e-06 -5.88582e-05
0.0018214 0.000258032 -2.12088e-06
0.000258032 0.0001601 -2.92042e-06
-2.12088e-06 -2.92042e-06 1.59494e-05
0.000937409 0.000155442 -1.21076e-05
0.000155442 -1.48995e-05 -4.83747e-06
-1.21076e-05 -4.83747e-06 -0.000154466
0.00125077 0.000205212 1.00749e-07
0.000205212 7.25603e-05 1.73736e-07
1.00749e-07 1.73736e-07 -9.46686e-05
0.00162713 0.00026447 2.68338e-06
0.00026447 0.000193052 -1.20689e-06
2.68338e-06 -1.20689e-06 1.19061e-05
0.00115864 0.000212617 6.81591e-06
0.000212617 7.01674e-05 1.26771e-06
6.81591e-06 1.26771e-06 -0.000107174
0.000913489 0.000162268 -6.4398e-07
0.000162268 1.43161e-05 1.58659e-07
-6.4398e-07 1.58659e-07 -0.00013324
0.000618105 0.000186687 -2.30121e-05
0.000186687 -4.10289e-05 -1.24532e-05
-2.30121e-05 -1.24532e-05 -0.000129723
0.000820649 0.000149849 6.72022e-06
0.000149849 3.23459e-05 5.87622e-06
6.72022e-06 5.87622e-06 -0.000117125
0.000596514 0.000139354 2.7713e-07
0.000139354 -3.0784e-05 3.67148e-07
2.7713e-07 3.67148e-07 -0.000112059
0.00510316 -0.00011405 -0.000158625
-0.00011405 0.00268059 -1.4941e-05
-0.000158625 -1.4941e-05 0.00265706
0.00039979 4.92431e-05 9.25663e-06
4.92431e-05 -0.000123608 1.0903e-05
9.25663e-06 1.0903e-05 -0.000184398
0.00412332 -0.000163909 -1.05434e-05
-0.000163909 0.00210221 8.75393e-07
-1.05434e-05 8.75393e-07 0.00208571
0.00336298 -0.000162242 7.31201e-05
-0.000162242 0.00165025 1.6978e-06
7.31201e-05 1.6978e-06 0.00163818
0.00179333 0.000114628 4.89527e-07
0.000114628 1.08087e-05 1.68547e-06
4.89527e-07 1.68547e-06 -6.69819e-05
0.0018253 0.000142587 8.73156e-08
0.000142587 -1.33694e-05 2.25379e-07
8.73156e-08 2.25379e-07 -8.19454e-05
0.00185313 0.000137339 4.00752e-06
0.000137339 -8.75443e-06 3.99067e-07
4.00752e-06 3.99067e-07 -7.10203e-05
0.00194973 0.000210313 7.39978e-07
0.000210313 0.000140136 -1.02026e-07
7.39978e-07 -1.02026e-07 3.35501e-05
0.00169899 0.000288196 -3.37262e-07
0.000288196 6.88433e-05 -1.31419e-06
-3.37262e-07 -1.31419e-06 -7.75692e-05
0.00175967 0.000221151 1.21137e-06
0.000221151 1.09771e-07 -1.24011e-06
1.21137e-06 -1.24011e-06 -9.96643e-05
0.0018979 3.53633e-05 3.67458e-07
3.53633e-05 0.000114731 4.11593e-07
3.67458e-07 4.11593e-07 4.71873e-05
0.00188748 3.56708e-05 7.98887e-07
3.56708e-05 5.27571e-05 -2.59644e-07
7.98887e-07 -2.59644e-07 -8.07096e-07
0.00189278 4.41067e-05 4.994e-06
4.41067e-05 2.30971e-05 4.0448e-07
4.994e-06 4.0448e-07 -1.93502e-05
0.00174575 -2.12365e-05 -2.09145e-06
-2.12365e-05 2.54863e-05 1.07466e-07
-2.09145e-06 1.07466e-07 -3.70063e-05
0.0017065 -3.10908e-05 1.04052e-06
-3.10908e-05 5.05976e-05 -8.67289e-07
1.04052e-06 -8.67289e-07 -3.63986e-05
0.00179683 -4.861e-05 6.73583e-07
-4.861e-05 1.43727e-06 1.044e-06
6.73583e-07 1.044e-06 -4.77713e-05
0.00187828 -5.70086e-05 -1.03305e-06
-5.70086e-05 0.000129261 4.4865e-07
-1.03305e-06 4.4865e-07 4.07012e-05
0.00178131 -5.73728e-05 3.03268e-07
-5.73728e-05 0.000132341 -6.60778e-07
3.03268e-07 -6.60778e-07 2.04831e-05
0.00184978 -0.000115535 1.06584e-06
-0.000115535 0.00010778 2.42759e-08
1.06584e-06 2.42759e-08 1.11076e-05
0.00172404 -0.000105368 1.04537e-06
-0.000105368 0.000109822 -5.1862e-07
1.04537e-06 -5.1862e-07 -1.30538e-05
0.00142589 -7.23855e-05 -3.78628e-06
-7.23855e-05 7.29555e-05 2.33406e-07
-3.78628e-06 2.33406e-07 -6.32505e-05
0.00168304 -0.000142744 -3.80994e-07
-0.000142744 0.000118882 2.69345e-07
-3.80994e-07 2.69345e-07 -1.28212e-05
0.00138744 -0.000104892 -2.36129e-08
-0.000104892 7.05749e-05 1.47951e-07
-2.36129e-08 1.47951e-07 -7.1435e-05
0.00102849 -7.58805e-05 -1.20718e-05
-7.58805e-05 -1.12299e-05 3.08373e-06
-1.20718e-05 3.08373e-06 -0.000136921
0.00136223 -0.000129582 4.28016e-06
-0.000129582 7.70182e-05 -1.10508e-06
4.28016e-06 -1.10508e-06 -6.96402e-05
0.00103504 -9.47244e-05 -4.40298e-08
-9.47244e-05 2.36612e-06 1.56643e-07
-4.40298e-08 1.56643e-07 -0.000124751
0.00243531 -0.000130374 -4.28817e-05
-0.000130374 0.000976529 5.98223e-06
-4.28817e-05 5.98223e-06 0.000911845
0.00102757 -0.000109771 1.26021e-05
-0.000109771 6.56337e-06 -4.29394e-06
1.26021e-05 -4.29394e-06 -0.000121042
0.00251102 -0.000125083 3.06714e-05
-0.000125083 0.00102139 -2.70342e-06
3.06714e-05 -2.70342e-06 0.000961695
0.00179002 -5.79941e-05 -0.000164538
-5.79941e-05 0.000684551 1.61338e-05
-0.000164538 1.61338e-05 0.000666239
0.00261573 -0.000138506 0.000102888
-0.000138506 0.00108607 -1.37168e-05
0.000102888 -1.37168e-05 0.00102909
0.00150541 -2.59516e-05 -7.02436e-05
-2.59516e-05 0.000529991 7.19047e-06
-7.02436e-05 7.19047e-06 0.000504727
0.00135293 9.17372e-07 2.66021e-05
9.17372e-07 0.000450975 -4.56595e-06
2.66021e-05 -4.56595e-06 0.000417227
0.00191486 0.000120766 6.2879e-07
0.000120766 0.00014554 2.07401e-06
6.2879e-07 2.07401e-06 4.57701e-05
0.00172221 0.000185918 -9.20718e-07
0.000185918 0.000132356 3.48471e-07
-9.20718e-07 3.48471e-07 -9.26303e-06
0.00181637 0.000205329 -7.51032e-07
0.000205329 0.000107187 -8.11384e-08
-7.51032e-07 -8.11384e-08 -1.89423e-05
0.00168496 0.00018376 -3.71987e-06
0.00018376 0.000263322 -7.93623e-07
-3.71987e-06 -7.93623e-07 0.000114907
0.00173609 0.000218873 8.0766e-07
0.000218873 0.000179154 1.63563e-07
8.0766e-07 1.63563e-07 2.85574e-05
0.00173837 0.000246308 3.77863e-07
0.000246308 7.98393e-05 -1.3235e-07
3.77863e-07 -1.3235e-07 -6.23146e-05
0.00102061 0.000144508 -1.29201e-05
0.000144508 1.07444e-05 -4.69244e-06
-1.29201e-05 -4.69244e-06 -0.000122341
0.00146548 0.000197027 3.27809e-06
0.000197027 0.000170752 7.92531e-07
3.27809e-06 7.92531e-07 1.36913e-05
0.00152006 0.000233133 1.03312e-06
0.000233133 8.66809e-05 -1.87968e-06
1.03312e-06 -1.87968e-06 -7.2158e-05
0.000561444 0.000168107 -2.2131e-05
0.000168107 -8.70927e-05 -1.11166e-05
-2.2131e-05 -1.11166e-05 -0.000172761
0.000972123 0.000157865 -5.39063e-07
0.000157865 5.22161e-06 -6.4174e-09
-5.39063e-07 -6.4174e-09 -0.000134549
0.00118272 0.000200599 7.5741e-06
0.000200599 3.40437e-05 1.85381e-06
7.5741e-06 1.85381e-06 -0.000132696
0.000960561 0.000165109 1.05044e-05
0.000165109 4.04759e-05 5.21946e-06
1.05044e-05 5.21946e-06 -0.000107385
0.000576536 0.000173271 1.68489e-06
0.000173271 -6.31916e-05 5.07626e-07
1.68489e-06 5.07626e-07 -0.000151441
0.00550254 -6.8787e-05 -0.000166326
-6.8787e-05 0.00290897 -1.85644e-05
-0.000166326 -1.85644e-05 0.00288399
0.000456346 0.000129022 1.61987e-05
0.000129022 -0.000111781 1.25602e-05
1.61987e-05 1.25602e-05 -0.000188679
0.00484241 -0.000141034 -7.25266e-06
-0.000141034 0.00252089 3.25829e-07
-7.25266e-06 3.25829e-07 0.00250259
0.00388661 -0.000185769 9.09777e-05
-0.000185769 0.00196752 2.81801e-06
9.09777e-05 2.81801e-06 0.0019475
0.00174859 8.3024e-05 -2.06882e-07
8.3024e-05 3.2206e-05 7.23146e-07
-2.06882e-07 7.23146e-07 -4.43304e-05
0.00180031 0.000113907 8.76802e-07
0.000113907 2.06803e-05 6.58774e-07
8.76802e-07 6.58774e-07 -5.72862e-05
0.00181411 0.000144314 2.51893e-06
0.000144314 -2.45265e-05 -5.47914e-08
2.51893e-06 -5.47914e-08 -9.27732e-05
0.00191039 0.000206104 1.41728e-07
0.000206104 0.000120658 -1.06447e-06
1.41728e-07 -1.06447e-06 1.61498e-05
0.00173112 -6.31703e-06 2.33943e-06
-6.31703e-06 6.29399e-05 4.88508e-09
2.33943e-06 4.88508e-09 -2.68369e-05
0.00194297 2.93949e-05 3.32868e-07
2.93949e-05 0.00013736 -2.11682e-07
3.32868e-07 -2.11682e-07 7.16235e-05
0.00185661 3.52984e-05 2.36504e-06
3.52984e-05 3.63527e-05 2.51159e-07
2.36504e-06 2.51159e-07 -1.64722e-05
0.00185696 -2.54129e-05 -4.08245e-06
-2.54129e-05 9.01897e-05 -2.83598e-07
-4.08245e-06 -2.83598e-07 2.89208e-05
0.00166113 -2.28209e-05 -1.90741e-06
-2.28209e-05 2.34499e-05 -3.8872e-07
-1.90741e-06 -3.8872e-07 -6.18243e-05
0.0017875 -2.42084e-05 2.30482e-06
-2.42084e-05 0.000153617 -5.12371e-07
2.30482e-06 -5.12371e-07 4.46218e-05
0.00175664 -5.67858e-05 -2.24757e-06
-5.67858e-05 5.90423e-05 1.5538e-06
-2.24757e-06 1.5538e-06 -3.35324e-05
0.00173039 -5.84202e-05 3.52242e-08
-5.84202e-05 0.000106312 3.1317e-07
3.52242e-08 3.1317e-07 -8.92408e-06
0.00146706 -3.97199e-05 -3.58499e-06
-3.97199e-05 7.98906e-05 1.54218e-07
-3.58499e-06 1.54218e-07 -4.8462e-05
0.00172005 -0.000105134 8.55897e-07
-0.000105134 0.000110202 -4.94631e-08
8.55897e-07 -4.94631e-08 -1.25831e-05
0.00141572 -7.05868e-05 1.48976e-07
-7.05868e-05 6.36605e-05 -1.26701e-07
1.48976e-07 -1.26701e-07 -7.22578e-05
0.00102263 -5.06633e-05 -1.21067e-05
-5.06633e-05 -2.27634e-05 2.2029e-06
-1.21067e-05 2.2029e-06 -0.000145896
0.0013824 -0.000102384 3.80419e-06
-0.000102384 6.34648e-05 -6.53735e-07
3.80419e-06 -6.53735e-07 -7.81572e-05
0.00103157 -7.48303e-05 -1.18232e-10
-7.48303e-05 -9.65046e-06 2.43025e-07
-1.18232e-10 2.43025e-07 -0.00013507
0.000623132 -7.20343e-05 -1.87557e-05
-7.20343e-05 -9.8659e-05 4.55096e-06
-1.87557e-05 4.55096e-06 -0.000170038
0.00104303 -9.23153e-05 1.22061e-05
-9.23153e-05 5.9707e-06 -3.5114e-06
1.22061e-05 -3.5114e-06 -0.000120474
0.00157497 -8.22246e-05 4.18453e-05
-8.22246e-05 0.000464718 -2.64413e-06
4.18453e-05 -2.64413e-06 0.0004013
0.00537973 -0.000111777 -0.000206064
-0.000111777 0.00278424 1.23552e-05
-0.000206064 1.23552e-05 0.0027873
0.00259908 -0.000113444 0.000102449
-0.000113444 0.00106545 -1.1166e-05
0.000102449 -1.1166e-05 0.00101136
0.00152143 -4.03437e-05 -6.33523e-05
-4.03437e-05 0.000534444 5.19264e-06
-6.33523e-05 5.19264e-06 0.000509611
0.00127219 -4.52229e-05 3.7448e-05
-4.52229e-05 0.000402301 -5.14402e-06
3.7448e-05 -5.14402e-06 0.00036941
0.00191231 8.67633e-05 1.15409e-06
8.67633e-05 0.000160787 1.47737e-06
1.15409e-06 1.47737e-06 7.10389e-05
0.00181024 0.00012658 6.60046e-07
0.00012658 0.000165775 1.56342e-06
6.60046e-07 1.56342e-06 4.14647e-05
0.00194444 0.000118138 4.1903e-07
0.000118138 0.000169203 2.29276e-08
4.1903e-07 2.29276e-08 6.8619e-05
0.00140848 0.000144639 -4.36406e-06
0.000144639 6.6654e-05 -6.17931e-07
-4.36406e-06 -6.17931e-07 -7.73793e-05
0.00174141 0.000183819 2.41164e-07
0.000183819 0.00014293 3.80035e-09
2.41164e-07 3.80035e-09 2.38929e-06
0.00183167 0.000206273 -7.99648e-07
0.000206273 0.000109008 -7.24404e-07
-7.99648e-07 -7.24404e-07 -1.42604e-05
0.000672822 0.000107617 -1.46456e-05
0.000107617 -0.000208725 -4.54259e-06
-1.46456e-05 -4.54259e-06 -0.00033823
0.00170399 0.000185542 2.06077e-06
0.000185542 0.00027475 5.82934e-07
2.06077e-06 5.82934e-07 0.000126234
0.0016888 0.000214648 1.04131e-06
0.000214648 0.000155861 -1.19955e-07
1.04131e-06 -1.19955e-07 4.33804e-06
0.000542537 0.000126064 -1.91586e-05
0.000126064 -0.000112357 -8.97082e-06
-1.91586e-05 -8.97082e-06 -0.000191977
0.000817567 0.000134875 4.58369e-07
0.000134875 -0.000107322 2.3125e-07
4.58369e-07 2.3125e-07 -0.000241119
0.0012207 0.000188311 9.17133e-06
0.000188311 2.58128e-05 1.97836e-06
9.17133e-06 1.97836e-06 -0.000131992
0.00556133 1.70397e-05 -0.000179197
1.70397e-05 0.00291492 -1.74542e-05
-0.000179197 -1.74542e-05 0.00290438
0.000542203 0.000154847 1.40166e-06
0.000154847 -9.67304e-05 5.3732e-07
1.40166e-06 5.3732e-07 -0.000183466
0.00099349 0.000159653 1.22708e-05
0.000159653 1.782e-05 4.94144e-06
1.22708e-05 4.94144e-06 -0.000122122
0.000490501 0.000159612 1.98434e-05
0.000159612 -0.000108865 1.26218e-05
1.98434e-05 1.26218e-05 -0.000197802
0.00533315 -7.62169e-05 7.23316e-06
-7.62169e-05 0.00279952 -1.17874e-06
7.23316e-06 -1.17874e-06 0.0027825
0.00456395 -0.000204141 0.00011097
-0.000204141 0.00237491 6.40248e-06
0.00011097 6.40248e-06 0.00234575
0.00179653 5.48171e-05 -9.69681e-07
5.48171e-05 9.28088e-05 -6.22925e-07
-9.69681e-07 -6.22925e-07 2.62967e-06
0.00181065 8.28263e-05 -2.88839e-08
8.28263e-05 6.59927e-05 4.58079e-07
-2.88839e-08 4.58079e-07 -1.08387e-05
0.0018126 0.000113325 9.21358e-07
0.000113325 3.40514e-05 -2.31149e-07
9.21358e-07 -2.31149e-07 -4.42463e-05
0.00166196 1.91074e-06 2.21672e-06
1.91074e-06 7.11249e-05 -4.74615e-07
2.21672e-06 -4.74615e-07 -3.99243e-05
0.00170524 -4.47554e-06 4.72699e-07
-4.47554e-06 5.23008e-05 1.41128e-07
4.72699e-07 1.41128e-07 -3.60659e-05
0.0019863 2.22247e-05 -8.35508e-07
2.22247e-05 0.000159076 -2.5711e-08
-8.35508e-07 -2.5711e-08 9.49153e-05
0.00160439 -1.57762e-05 -3.2341e-06
-1.57762e-05 -1.05023e-05 9.8647e-07
-3.2341e-06 9.8647e-07 -9.40574e-05
0.00175964 -1.91669e-05 1.09299e-06
-1.91669e-05 0.000136373 -2.87008e-07
1.09299e-06 -2.87008e-07 2.75189e-05
0.00172943 -1.5104e-05 -1.38877e-06
-1.5104e-05 0.000229621 -1.95054e-07
-1.38877e-06 -1.95054e-07 0.00010664
0.00167877 -5.95855e-05 -7.47396e-07
-5.95855e-05 8.03738e-05 8.78673e-07
-7.47396e-07 8.78673e-07 -3.82428e-05
0.00157246 -3.98794e-05 -1.01674e-08
-3.98794e-05 0.000141121 6.98288e-08
-1.01674e-08 6.98288e-08 1.2337e-05
0.000762534 -2.36725e-05 -1.37737e-05
-2.36725e-05 -0.000178974 1.59063e-06
-1.37737e-05 1.59063e-06 -0.000301666
0.00140739 -7.09354e-05 3.83499e-06
-7.09354e-05 5.54748e-05 -5.17027e-07
3.83499e-06 -5.17027e-07 -8.03765e-05
0.00102579 -4.76698e-05 -3.59287e-08
-4.76698e-05 -2.15712e-05 1.16311e-07
-3.59287e-08 1.16311e-07 -0.000144305
0.000627824 -2.03334e-05 -1.80139e-05
-2.03334e-05 -0.000100938 2.94568e-06
-1.80139e-05 2.94568e-06 -0.000171737
0.00104399 -7.29837e-05 1.21338e-05
-7.29837e-05 -3.02182e-06 -2.59753e-06
1.21338e-05 -2.59753e-06 -0.000128028
0.000630469 -5.65726e-05 -1.6767e-07
-5.65726e-05 -9.30041e-05 3.51564e-07
-1.6767e-07 3.51564e-07 -0.000165507
0.00542289 -6.31921e-06 -0.000197583
-6.31921e-06 0.00280547 7.63023e-06
-0.000197583 7.63023e-06 0.00281052
0.000663195 -6.31858e-05 1.61778e-05
-6.31858e-05 -7.0962e-05 -6.41893e-06
1.61778e-05 -6.41893e-06 -0.000144531
0.00341285 -7.38658e-05 9.43146e-05
-7.38658e-05 0.00163857 -2.99883e-06
9.43146e-05 -2.99883e-06 0.00162208
0.0012156 -6.69319e-05 4.31821e-05
-6.69319e-05 0.000371212 -5.69874e-06
4.31821e-05 -5.69874e-06 0.000335335
0.00181717 8.16874e-05 -5.90019e-08
8.16874e-05 0.00012768 1.45113e-07
-5.90019e-08 1.45113e-07 3.18269e-05
0.00166567 7.44892e-05 2.08542e-06
7.44892e-05 8.18745e-05 1.95215e-06
2.08542e-06 1.95215e-06 -3.42578e-05
0.0019122 8.40027e-05 -2.38173e-07
8.40027e-05 0.000161556 -3.51416e-07
-2.38173e-07 -3.51416e-07 7.23255e-05
0.00141322 0.000102404 -3.19121e-06
0.000102404 5.6417e-05 -1.70868e-07
-3.19121e-06 -1.70868e-07 -8.11381e-05
0.00176654 0.000125049 5.29769e-07
0.000125049 0.000137228 1.55845e-07
5.29769e-07 1.55845e-07 1.16206e-05
0.00198192 0.000115411 -1.13716e-06
0.000115411 0.000197588 -1.95867e-06
-1.13716e-06 -1.95867e-06 9.62119e-05
0.000723749 8.77007e-05 -1.43347e-05
8.77007e-05 -0.000194476 -3.49598e-06
-1.43347e-05 -3.49598e-06 -0.000321157
0.00157566 0.000148996 -5.60615e-07
0.000148996 0.000165944 6.8793e-08
-5.60615e-07 6.8793e-08 2.2261e-05
0.00176017 0.000181617 8.46326e-07
0.000181617 0.000153523 -4.70979e-07
8.46326e-07 -4.70979e-07 1.40787e-05
0.000557635 8.99758e-05 -1.76617e-05
8.99758e-05 -0.000121113 -6.82959e-06
-1.76617e-05 -6.82959e-06 -0.00019546
0.000645324 0.000107006 -2.77257e-06
0.000107006 -0.000224076 -5.58611e-07
-2.77257e-06 -5.58611e-07 -0.000354039
0.00172265 0.000187495 7.97238e-06
0.000187495 0.000286061 1.98659e-06
7.97238e-06 1.98659e-06 0.000137404
0.00551174 9.86492e-05 -0.000197063
9.86492e-05 0.00286688 -1.62692e-05
-0.000197063 -1.62692e-05 0.00286622
0.000539285 0.000119296 5.56296e-07
0.000119296 -0.000114291 3.42288e-07
5.56296e-07 3.42288e-07 -0.00019441
0.000617918 0.000125669 1.26968e-05
0.000125669 -0.000223522 4.60996e-06
1.26968e-05 4.60996e-06 -0.000358089
0.00547392 3.04482e-05 1.23243e-05
3.04482e-05 0.00286329 5.10754e-07
1.23243e-05 5.10754e-07 0.00285455
0.000506195 0.000141242 1.88546e-05
0.000141242 -0.000115941 1.10256e-05
1.88546e-05 1.10256e-05 -0.000203638
0.0051696 -0.000111249 0.000153274
-0.000111249 0.00269718 8.88017e-06
0.000153274 8.88017e-06 0.00268472
0.00177363 3.86568e-05 3.93783e-07
3.86568e-05 0.000127921 -5.06578e-07
3.93783e-07 -5.06578e-07 1.93777e-05
0.00175931 5.26854e-05 -1.13549e-06
5.26854e-05 7.65579e-05 2.73754e-07
-1.13549e-06 2.73754e-07 -1.47519e-05
0.00186748 8.21822e-05 6.03897e-09
8.21822e-05 9.65278e-05 -5.0217e-08
6.03897e-09 -5.0217e-08 1.94481e-05
0.00171398 -3.65927e-06 -6.97148e-07
-3.65927e-06 0.000226361 -3.39761e-07
-6.97148e-07 -3.39761e-07 0.000105286
0.00169305 1.12164e-10 3.33925e-07
1.12164e-10 8.85951e-05 5.46335e-08
3.33925e-07 5.46335e-08 -2.07982e-05
0.00168791 -1.08309e-06 5.7728e-07
-1.08309e-06 4.6282e-05 -1.1225e-09
5.7728e-07 -1.1225e-09 -4.0657e-05
0.00173203 -1.43977e-05 -3.04019e-07
-1.43977e-05 0.000119317 4.68714e-07
-3.04019e-07 4.68714e-07 1.05765e-05
0.00173297 -1.47808e-05 2.46796e-06
-1.47808e-05 0.000231406 -2.21839e-07
2.46796e-06 -2.21839e-07 0.000108409
0.000778624 -8.57393e-06 -1.3172e-05
-8.57393e-06 -0.000172148 7.46356e-07
-1.3172e-05 7.46356e-07 -0.000292929
0.00167674 -4.01226e-05 4.25244e-06
-4.01226e-05 0.000201706 -1.86612e-07
4.25244e-06 -1.86612e-07 7.24801e-05
0.000891414 -2.27474e-05 -2.43829e-06
-2.27474e-05 -0.000104443 2.55303e-07
-2.43829e-06 2.55303e-07 -0.000226117
0.000630982 -5.7542e-06 -1.82442e-05
-5.7542e-06 -0.000104011 1.9696e-06
-1.82442e-05 1.9696e-06 -0.000173871
0.0010298 -4.58027e-05 1.17669e-05
-4.58027e-05 -1.9726e-05 -1.95001e-06
1.17669e-05 -1.95001e-06 -0.000142173
0.000614377 -2.77094e-05 6.65726e-07
-2.77094e-05 -0.000110072 -2.94994e-08
6.65726e-07 -2.94994e-08 -0.000179881
0.00541423 -0.000102672 -0.000208082
-0.000102672 0.00280659 7.56614e-06
-0.000208082 7.56614e-06 0.002809
0.000614221 -4.08437e-05 1.72577e-05
-4.08437e-05 -0.000103007 -3.52355e-06
1.72577e-05 -3.52355e-06 -0.000175141
0.00541374 -4.17508e-05 7.9623e-06
-4.17508e-05 0.00280092 1.87552e-08
7.9623e-06 1.87552e-08 0.00280604
0.00154624 -1.55256e-05 0.000171452
-1.55256e-05 0.000541172 -8.8491e-06
0.000171452 -8.8491e-06 0.000526823
0.00166053 5.82457e-05 1.75047e-06
5.82457e-05 7.96436e-05 3.89513e-07
1.75047e-06 3.89513e-07 -3.41185e-05
0.00179256 8.59309e-05 -2.72583e-06
8.59309e-05 0.000105886 -3.89459e-07
-2.72583e-06 -3.89459e-07 1.19956e-05
0.00142332 6.14426e-05 -2.53205e-06
6.14426e-05 6.2629e-05 1.37523e-07
-2.53205e-06 1.37523e-07 -6.78774e-05
0.00167045 7.33835e-05 5.51373e-07
7.33835e-05 8.55696e-05 5.85828e-08
5.51373e-07 5.85828e-08 -3.06034e-05
0.00190554 8.13528e-05 -1.68231e-06
8.13528e-05 0.000158291 -2.55336e-06
-1.68231e-06 -2.55336e-06 6.95704e-05
0.0010672 7.07224e-05 -1.21601e-05
7.07224e-05 -2.39995e-06 -2.22292e-06
-1.21601e-05 -2.22292e-06 -0.000123429
0.00141644 0.000102412 3.68443e-08
0.000102412 5.88915e-05 1.04302e-07
3.68443e-08 1.04302e-07 -7.87955e-05
0.00171896 0.000123441 -2.21507e-07
0.000123441 0.000106476 -9.84563e-07
-2.21507e-07 -9.84563e-07 -2.04386e-05
0.00057929 6.32565e-05 -1.71717e-05
6.32565e-05 -0.000123098 -4.90148e-06
-1.71717e-05 -4.90148e-06 -0.000194786
0.000853761 9.34444e-05 -3.22475e-06
9.34444e-05 -0.000118177 -3.79078e-07
-3.22475e-06 -3.79078e-07 -0.000244494
0.00174576 0.000153334 4.97061e-06
0.000153334 0.000267047 1.20933e-06
4.97061e-06 1.20933e-06 0.00012372
0.00549719 0.000150721 -0.000216583
0.000150721 0.00285512 -1.57634e-05
-0.000216583 -1.57634e-05 0.00285528
0.000567852 8.81376e-05 6.51082e-08
8.81376e-05 -0.000115597 1.14505e-07
6.51082e-08 1.14505e-07 -0.000190056
0.000617657 0.000106502 8.89096e-06
0.000106502 -0.000239777 3.30672e-06
8.89096e-06 3.30672e-06 -0.000370162
0.00545091 0.00011784 1.04101e-05
0.00011784 0.00283914 2.18254e-06
1.04101e-05 2.18254e-06 0.00283519
0.000540675 0.000111157 1.76454e-05
0.000111157 -0.000114124 8.85909e-06
1.76454e-05 8.85909e-06 -0.000194302
0.0054117 2.61593e-05 0.000186594
2.61593e-05 0.00281551 1.3285e-05
0.000186594 1.3285e-05 0.00281483
0.00170619 2.6715e-05 -6.2216e-07
2.6715e-05 0.000226894 -2.20281e-07
-6.2216e-07 -2.20281e-07 0.000106723
0.00174089 3.42924e-05 -9.42944e-07
3.42924e-05 0.00011201 1.44537e-07
-9.42944e-07 1.44537e-07 2.43305e-06
0.00172428 5.03294e-05 -1.53085e-06
5.03294e-05 6.22222e-05 3.4987e-07
-1.53085e-06 3.4987e-07 -3.01771e-05
0.000766279 -8.78999e-06 -1.36868e-05
-8.78999e-06 -0.000174702 -2.88137e-07
-1.36868e-05 -2.88137e-07 -0.000293671
0.0017335 2.5641e-06 2.79808e-06
2.5641e-06 0.000237671 -1.33029e-07
2.79808e-06 -1.33029e-07 0.0001166
0.0017202 -1.99854e-06 -5.30288e-07
-1.99854e-06 0.000103999 4.03552e-07
-5.30288e-07 4.03552e-07 -3.73041e-06
0.00174103 -1.48043e-05 6.13512e-06
-1.48043e-05 0.000235822 -1.23058e-07
6.13512e-06 -1.23058e-07 0.000112807
0.000766884 -8.45668e-06 -1.86616e-06
-8.45668e-06 -0.000179533 1.62515e-07
-1.86616e-06 1.62515e-07 -0.00030048
0.000635808 -2.47611e-05 -1.84711e-05
-2.47611e-05 -0.000103315 7.7949e-07
-1.84711e-05 7.7949e-07 -0.000172068
0.00100822 -2.10596e-05 9.68342e-06
-2.10596e-05 -3.68108e-05 -1.26981e-06
9.68342e-06 -1.26981e-06 -0.000157467
0.000615368 4.27802e-06 2.236e-07
4.27802e-06 -0.000113252 5.45758e-08
2.236e-07 5.45758e-08 -0.000182739
0.00545859 -8.08182e-05 -0.000215518
-8.08182e-05 0.0028301 5.19575e-06
-0.000215518 5.19575e-06 0.00283436
0.000619483 -2.75097e-05 1.7987e-05
-2.75097e-05 -0.000106057 -2.37157e-06
1.7987e-05 -2.37157e-06 -0.000176635
0.00544579 4.07429e-06 -3.01225e-06
4.07429e-06 0.00281723 1.24269e-06
-3.01225e-06 1.24269e-06 0.00282416
0.00543113 -6.20996e-05 0.000208296
-6.20996e-05 0.00280902 -6.84988e-06
0.000208296 -6.84988e-06 0.00281552
0.0014169 3.96531e-05 -2.65047e-06
3.96531e-05 6.43596e-05 -5.42922e-08
-2.65047e-06 -5.42922e-08 -6.29792e-05
0.00169344 6.11317e-05 -8.16401e-07
6.11317e-05 9.76313e-05 -9.64678e-07
-8.16401e-07 -9.64678e-07 -1.29748e-05
0.00176881 9.04302e-05 -4.11926e-06
9.04302e-05 8.46866e-05 -4.37636e-07
-4.11926e-06 -4.37636e-07 -7.25531e-06
0.00106384 3.92835e-05 -1.20286e-05
3.92835e-05 -5.40688e-06 -1.54921e-06
-1.20286e-05 -1.54921e-06 -0.000122609
0.00141285 6.17265e-05 1.63057e-07
6.17265e-05 5.49749e-05 4.477e-08
1.63057e-07 4.477e-08 -7.58751e-05
0.00167328 7.21814e-05 -1.14431e-06
7.21814e-05 8.84575e-05 -1.73422e-06
-1.14431e-06 -1.73422e-06 -2.77524e-05
0.000604829 3.82559e-05 -1.68137e-05
3.82559e-05 -0.000115287 -3.61818e-06
-1.68137e-05 -3.61818e-06 -0.000185458
0.00103508 7.18013e-05 2.09545e-07
7.18013e-05 -2.01032e-05 2.18388e-07
2.09545e-07 2.18388e-07 -0.000141583
0.00142079 0.000102466 3.76045e-06
0.000102466 6.1808e-05 4.66559e-07
3.76045e-06 4.66559e-07 -7.60181e-05
0.00547017 0.000153383 -0.000228843
0.000153383 0.00284089 -1.3819e-05
-0.000228843 -1.3819e-05 0.00284077
0.000601239 6.50218e-05 2.84192e-07
6.50218e-05 -0.000110262 1.97884e-07
2.84192e-07 1.97884e-07 -0.000182225
0.000982896 9.92073e-05 8.97709e-06
9.92073e-05 -4.25649e-05 2.86313e-06
8.97709e-06 2.86313e-06 -0.000168473
0.00545876 0.000164114 5.76535e-06
0.000164114 0.00283984 2.27991e-06
5.76535e-06 2.27991e-06 0.00283715
0.000580588 8.70335e-05 1.69701e-05
8.70335e-05 -0.000108253 6.98868e-06
1.69701e-05 6.98868e-06 -0.000182812
0.00542204 0.000138573 0.000204053
0.000138573 0.00282057 1.73283e-05
0.000204053 1.73283e-05 0.0028184
0.00105679 1.22135e-05 -1.26315e-05
1.22135e-05 -3.82069e-06 -9.10914e-07
-1.26315e-05 -9.10914e-07 -0.000119004
0.00156376 2.19202e-05 3.14671e-06
2.19202e-05 0.000144887 1.09542e-07
3.14671e-06 1.09542e-07 2.36202e-05
0.00170544 2.90526e-05 -2.03632e-06
2.90526e-05 9.40788e-05 2.78818e-07
-2.03632e-06 2.78818e-07 -1.65459e-05
0.000663999 2.79577e-05 -1.89863e-05
2.79577e-05 -9.31577e-05 -4.71644e-07
-1.89863e-05 -4.71644e-07 -0.000155297
0.000754399 -3.4209e-06 -2.14409e-06
-3.4209e-06 -0.000182926 5.32596e-08
-2.14409e-06 5.32596e-08 -0.000302101
0.00175174 8.7947e-06 6.33587e-06
8.7947e-06 0.000248182 1.8829e-07
6.33587e-06 1.8829e-07 0.000127109
0.000750497 -7.94077e-06 9.43957e-06
-7.94077e-06 -0.000189655 -4.17058e-07
9.43957e-06 -4.17058e-07 -0.000310754
0.000627315 -3.35512e-06 2.16328e-07
-3.35512e-06 -0.000108371 3.25418e-07
2.16328e-07 3.25418e-07 -0.000177019
0.0054675 4.64695e-05 -0.000222312
4.64695e-05 0.00283143 -7.70518e-07
-0.000222312 -7.70518e-07 0.00283852
0.000597469 1.41972e-05 1.76e-05
1.41972e-05 -0.000124134 -1.24164e-06
1.76e-05 -1.24164e-06 -0.000193051
0.00545413 -8.02682e-05 -7.86768e-06
-8.02682e-05 0.00282783 1.40531e-06
-7.86768e-06 1.40531e-06 0.00283175
0.0054243 2.49702e-05 0.000200185
2.49702e-05 0.00280527 -2.98356e-06
0.000200185 -2.98356e-06 0.00281167
0.00105857 2.08643e-05 -1.24972e-05
2.08643e-05 -5.5307e-06 -1.23994e-06
-1.24972e-05 -1.23994e-06 -0.000120792
0.00139899 3.91998e-05 -7.56013e-08
3.91998e-05 5.18317e-05 -8.41508e-08
-7.56013e-08 -8.41508e-08 -7.39287e-05
0.00173088 6.38523e-05 -3.19037e-06
6.38523e-05 0.000118089 -1.62061e-06
-3.19037e-06 -1.62061e-06 1.0647e-05
0.00260097 4.30444e-05 -0.000108655
4.30444e-05 0.00104678 -3.24455e-06
-0.000108655 -3.24455e-06 0.000999238
0.00104169 4.12149e-05 2.25927e-07
4.12149e-05 -1.80142e-05 2.00727e-07
2.25927e-07 2.00727e-07 -0.000135502
0.00139966 6.19165e-05 3.39112e-06
6.19165e-05 4.57779e-05 6.45301e-08
3.39112e-06 6.45301e-08 -8.54361e-05
0.0054274 0.00012856 -0.000231926
0.00012856 0.00281609 -1.05353e-05
-0.000231926 -1.05353e-05 0.00281757
0.000637512 5.27616e-05 7.20888e-07
5.27616e-05 -9.47508e-05 2.76928e-07
7.20888e-07 2.76928e-07 -0.000166176
0.00100987 7.30829e-05 1.20668e-05
7.30829e-05 -3.39015e-05 2.62472e-06
1.20668e-05 2.62472e-06 -0.000155812
0.00549054 0.000165561 1.47482e-06
0.000165561 0.00285565 1.65163e-06
1.47482e-06 1.65163e-06 0.0028543
0.000632449 6.87308e-05 1.74034e-05
6.87308e-05 -9.12105e-05 5.65071e-06
1.74034e-05 5.65071e-06 -0.00016389
0.0054255 0.000187354 0.000215086
0.000187354 0.0028269 1.87975e-05
0.000215086 1.87975e-05 0.00282117
0.000702265 8.50805e-06 -1.64072e-05
8.50805e-06 -5.95532e-05 -1.84441e-06
-1.64072e-05 -1.84441e-06 -0.000128179
0.000894879 9.90833e-06 6.32312e-07
9.90833e-06 -9.7525e-05 1.64892e-07
6.32312e-07 1.64892e-07 -0.000214046
0.00141906 1.68997e-05 6.14806e-06
1.68997e-05 6.1538e-05 2.61008e-07
6.14806e-06 2.61008e-07 -6.07947e-05
0.00536255 -9.28561e-05 -0.0002069
-9.28561e-05 0.00278623 1.87444e-07
-0.0002069 1.87444e-07 0.00278391
0.000623361 7.77119e-06 -3.87034e-07
7.77119e-06 -0.000111602 2.29069e-07
-3.87034e-07 2.29069e-07 -0.000176451
0.000750292 1.65575e-06 9.36846e-06
1.65575e-06 -0.000186704 2.52913e-07
9.36846e-06 2.52913e-07 -0.000306069
0.000594375 2.01928e-05 1.78903e-05
2.01928e-05 -0.000127605 1.44979e-07
1.78903e-05 1.44979e-07 -0.000195867
0.00543378 1.09644e-05 2.68166e-06
1.09644e-05 0.0028156 -5.65275e-07
2.68166e-06 -5.65275e-07 0.00281978
0.00547364 8.95906e-06 0.000211175
8.95906e-06 0.00283064 -1.17351e-06
0.000211175 -1.17351e-06 0.00283871
0.00264354 4.21293e-06 -0.000105677
4.21293e-06 0.00106934 -2.06906e-06
-0.000105677 -2.06906e-06 0.00102294
0.0010537 2.34288e-05 7.04604e-08
2.34288e-05 -8.41269e-06 5.71804e-08
7.04604e-08 5.71804e-08 -0.000123829
0.00137965 3.89462e-05 3.2774e-06
3.89462e-05 3.85262e-05 -1.22132e-07
3.2774e-06 -1.22132e-07 -8.56486e-05
0.00507264 -6.35156e-05 -6.21233e-05
-6.35156e-05 0.00262031 2.52682e-07
-6.21233e-05 2.52682e-07 0.00260565
0.000649694 4.43012e-05 -9.39201e-09
4.43012e-05 -8.93807e-05 2.6029e-07
-9.39201e-09 2.6029e-07 -0.000159048
0.0010348 4.36577e-05 1.19422e-05
4.36577e-05 -2.2193e-05 1.98059e-06
1.19422e-05 1.98059e-06 -0.000139912
0.00547171 9.59728e-05 -1.11486e-05
9.59728e-05 0.00283726 -8.77303e-07
-1.11486e-05 -8.77303e-07 0.00284079
0.00066829 7.31989e-05 1.8936e-05
7.31989e-05 -7.61618e-05 4.65896e-06
1.8936e-05 4.65896e-06 -0.000148231
0.00548556 0.000189361 0.00022612
0.000189361 0.00285999 1.78671e-05
0.00022612 1.78671e-05 0.00285513
0.00167184 -4.56538e-05 -0.00017981
-4.56538e-05 0.000608727 5.3691e-07
-0.00017981 5.3691e-07 0.000597356
0.00164424 2.30064e-05 -4.359e-05
2.30064e-05 0.000484204 1.63869e-07
-4.359e-05 1.63869e-07 0.000430512
0.000735804 9.92981e-06 1.22915e-05
9.92981e-06 -0.00018953 9.46958e-07
1.22915e-05 9.46958e-07 -0.000307425
0.00539407 -3.84323e-05 8.11082e-06
-3.84323e-05 0.00279974 8.02624e-07
8.11082e-06 8.02624e-07 0.00280135
0.00062757 -1.12908e-05 1.83012e-05
-1.12908e-05 -0.00010488 1.00774e-06
1.83012e-05 1.00774e-06 -0.000172164
0.00546275 -5.8728e-05 0.000226438
-5.8728e-05 0.00283278 -1.39058e-06
0.000226438 -1.39058e-06 0.00283773
0.0012703 -1.35357e-06 -3.01989e-05
-1.35357e-06 0.00039699 -6.38764e-07
-3.01989e-05 -6.38764e-07 0.000363109
0.00163908 1.12547e-05 -4.40962e-05
1.12547e-05 0.000484885 -4.63322e-07
-4.40962e-05 -4.63322e-07 0.000428355
0.00103719 2.45286e-05 1.21456e-05
2.45286e-05 -1.77224e-05 1.38019e-06
1.21456e-05 1.38019e-06 -0.000133322
0.00335709 4.26351e-05 8.29465e-05
4.26351e-05 0.00160409 1.81936e-06
8.29465e-05 1.81936e-06 0.00159126
0.000660729 5.29451e-05 1.89746e-05
5.29451e-05 -8.26452e-05 3.70277e-06
1.89746e-05 3.70277e-06 -0.000152579
0.00550881 8.8558e-05 0.00021654
8.8558e-05 0.00285465 1.10936e-05
0.00021654 1.10936e-05 0.00286056
0.00531198 -2.42474e-05 -8.84395e-06
-2.42474e-05 0.00275524 -1.44518e-06
-8.84395e-06 -1.44518e-06 0.0027561
0.000633951 3.89559e-05 1.94926e-05
3.89559e-05 -0.000105622 1.83238e-06
1.94926e-05 1.83238e-06 -0.000167452
0.00531344 5.37917e-05 0.000211055
5.37917e-05 0.0027504 -1.92061e-07
0.000211055 -1.92061e-07 0.00275449
0.00330675 2.65507e-05 9.66685e-05
2.65507e-05 0.00157986 2.59732e-06
9.66685e-05 2.59732e-06 0.0015667
0.000670145 4.75039e-06 1.84253e-05
4.75039e-06 -7.81814e-05 2.49098e-06
1.84253e-05 2.49098e-06 -0.000145319
0.00543177 -3.33666e-05 0.000208668
-3.33666e-05 0.00281287 5.09164e-06
0.000208668 5.09164e-06 0.0028175
0.00533003 -0.00013042 0.000206101
-0.00013042 0.00277204 -2.32508e-06
0.000206101 -2.32508e-06 0.00276788
0.00533571 -1.77505e-05 0.000205895
-1.77505e-05 0.00275477 2.50553e-06
0.000205895 2.50553e-06 0.00276268
