# vtk DataFile Version 2.0
Wound Healing Simulation
ASCII
DATASET UNSTRUCTURED_GRID
POINTS 3012 float
69.9759 18.75 4
67.2507 60.3285 4
69.976 18.75 2
73.0099 25.446 4
71.1327 20.9142 4
68.6801 16.6661 4
67.8246 19.9262 3.98041
67.2507 60.3286 2
71.1327 54.0858 4
68.6801 58.3339 4
65.6939 62.2254 4
65.3111 59.0006 3.97943
74.6784 42.3946 4
73.7221 47.2057 4
69.9759 18.75 0
73.0099 25.446 2
68.6801 16.6661 2
71.1327 20.9142 2
67.8252 19.9296 2
74.6792 32.6053 4
73.7222 27.7943 4
72.1454 23.1494 4
70.6134 26.2209 3.97995
68.8848 21.958 3.9808
67.2507 14.6715 4
66.636 17.9725 3.97939
65.7939 21.027 3.96969
67.2507 60.3285 0
71.1327 54.0858 2
68.6801 58.3339 2
65.694 62.2255 2
65.3124 58.9967 2
72.1454 51.8506 4
69.9759 56.25 4
68.8355 53.113 3.98
64.0165 64.0165 4
66.6098 57.1334 3.97998
63.8842 60.7649 3.97959
63.4972 57.7681 3.97088
60.3285 67.2507 4
74.6792 42.3947 2
73.7222 47.2057 2
74.9194 39.9526 4
74.2788 44.8158 4
72.1677 42.0855 3.97969
73.0099 49.554 4
71.2486 46.5979 3.97925
73.0099 25.446 0
71.1327 20.9142 0
68.6801 16.6661 0
67.8246 19.9262 0.0195913
74.6792 32.6053 2
73.7222 27.7943 2
67.2508 14.6715 2
72.1455 23.1494 2
70.6133 26.2215 2
66.637 17.9767 2
68.8851 21.9602 2
65.7933 21.0281 2
74.9197 35.0474 4
74.2794 30.1841 4
72.1843 32.9434 3.97994
71.2775 28.4314 3.97953
69.8147 24.0595 3.98056
68.3441 26.9523 3.96894
66.7595 22.9345 3.96931
65.694 12.7746 4
65.3223 16.1045 3.97895
64.7101 19.1979 3.96998
63.8766 22.0411 3.96621
71.1327 54.0858 0
65.6939 62.2254 0
68.6801 58.3339 0
65.3111 59.0006 0.0205721
72.1455 51.8506 2
69.9759 56.25 2
68.8357 53.111 2
64.0165 64.0165 2
66.6107 57.1296 2
63.8859 60.7614 2
63.4966 57.7678 2
62.2254 65.694 4
58.8938 65.4138 3.98921
69.7681 50.9888 3.97971
67.7827 55.1671 3.97988
66.6465 52.2078 3.96858
62.3349 62.4268 3.98348
64.6576 56.0292 3.96993
62.1988 59.3976 3.96928
61.8162 56.6734 3.96607
58.3339 68.6801 4
60.3285 67.2508 2
73.7221 47.2057 0
74.6784 42.3946 0
74.9197 39.9526 2
74.2794 44.8159 2
72.1672 42.0854 2
73.0099 49.554 2
71.2484 46.5977 2
75 37.5 4
72.405 39.8022 3.98033
71.7819 44.3528 3.97966
69.8019 41.7895 3.96917
70.5743 48.8134 3.97934
68.9096 46.0141 3.96872
74.6792 32.6053 0
73.7222 27.7943 0
67.2507 14.6715 0
72.1454 23.1494 0
70.6134 26.2209 0.0200522
68.8848 21.958 0.0191987
66.636 17.9725 0.020611
65.7939 21.027 0.0303064
74.9197 35.0474 2
74.2794 30.1841 2
72.1838 32.9438 2
71.2774 28.4319 2
65.694 12.7745 2
65.3238 16.109 2
69.8148 24.0607 2
68.344 26.953 2
64.7094 19.1988 2
66.7591 22.9354 2
63.8762 22.0416 2
72.4128 35.2242 3.98038
71.8033 30.6763 3.97996
69.8378 33.2688 3.96932
68.9635 29.0389 3.96898
67.6084 24.913 3.96904
66.1755 27.6394 3.96699
64.0165 10.9835 4
64.7422 23.8353 3.96654
63.8885 14.3287 3.98034
63.5093 17.4523 3.97073
62.8985 20.3274 3.96573
62.0461 22.9607 3.96689
60.6829 11.0989 3.985
57.611 11.4537 3.97666
72.1454 51.8506 0
69.9759 56.25 0
68.8355 53.113 0.0200028
64.0165 64.0165 0
63.8842 60.7649 0.0204141
66.6098 57.1334 0.0200229
63.4972 57.7681 0.0291249
62.2255 65.694 2
58.8953 65.4129 2
69.768 50.9878 2
67.7832 55.164 2
66.646 52.207 2
62.3369 62.424 2
64.657 56.0286 2
62.1982 59.3979 2
61.8156 56.6733 2
60.6676 63.9762 3.98616
57.025 66.7346 3.99065
57.5564 63.6877 3.97884
67.5045 50.1755 3.96832
65.6987 54.1716 3.96904
64.5199 51.3788 3.96579
60.7702 60.9317 3.97284
62.8131 55.0616 3.96597
60.649 58.1473 3.96411
60.3165 55.7717 3.9649
56.25 69.9759 4
58.3339 68.6801 2
60.3285 67.2507 0
58.9204 9.65693 3.98702
62.2254 9.30607 4
73.0099 49.554 0
74.2788 44.8158 0
71.2486 46.5979 0.0207495
72.1677 42.0855 0.0203136
74.9194 39.9526 0
75 37.5 2
72.4049 39.8023 2
71.7818 44.3524 2
69.8013 41.7892 2
70.5742 48.8131 2
68.9096 46.0135 2
72.4883 37.5121 3.97992
70.0393 39.6574 3.96929
69.428 43.9071 3.96901
67.5787 41.4952 3.96839
68.2631 48.1061 3.9684
66.6843 45.4348 3.96756
74.9197 35.0474 0
74.2794 30.1841 0
72.1843 32.9434 0.0200645
71.2775 28.4314 0.0204664
65.694 12.7746 0
65.3223 16.1045 0.0210502
69.8147 24.0595 0.0194385
68.3441 26.9523 0.0310563
66.7595 22.9345 0.030685
64.7101 19.1979 0.0300157
63.8766 22.0411 0.0337942
72.4128 35.2243 2
71.8033 30.6769 2
69.8373 33.2693 2
68.9635 29.0394 2
64.0165 10.9835 2
63.8906 14.3327 2
63.5087 17.4532 2
67.6082 24.9138 2
66.1756 27.6398 2
62.8979 20.3279 2
64.7418 23.8358 2
62.0455 22.9612 2
60.6854 11.1017 2
57.6121 11.4521 2
70.056 35.3922 3.96943
69.4648 31.15 3.96909
67.6401 33.5932 3.96809
66.7526 29.627 3.96733
65.506 25.7044 3.96669
64.071 28.271 3.97014
62.3405 12.6562 3.98329
62.7999 24.6544 3.96813
62.195 15.7933 3.97086
61.8046 18.695 3.9661
61.1784 21.3602 3.96523
60.3325 23.758 3.96925
59.244 12.7867 3.9737
55.8735 10.239 3.97892
56.4026 13.132 3.97324
69.7681 50.9888 0.0202876
62.2254 65.694 0
58.8938 65.4138 0.0107934
67.7827 55.1671 0.0201212
66.6465 52.2078 0.0314153
62.3349 62.4268 0.0165159
62.1988 59.3976 0.0307247
64.6576 56.0292 0.0300722
61.8162 56.6734 0.0339325
60.6695 63.9746 2
57.026 66.7342 2
57.5564 63.6895 2
67.5042 50.1747 2
65.698 54.1707 2
64.5198 51.3785 2
60.7699 60.9323 2
62.8124 55.0614 2
60.6486 58.1474 2
60.3162 55.7714 2
55.0709 67.9315 3.99165
59.2167 62.3599 3.97405
55.8039 64.9071 3.98303
56.3237 62.0776 3.97485
65.308 49.4016 3.96622
63.6957 53.2865 3.96557
62.3757 50.6327 3.96725
59.3266 59.5448 3.96775
61.0546 54.2945 3.9659
59.2708 56.9933 3.96361
59.2208 55.1641 3.96528
48.1015 68.5772 3.98706
50.9487 69.9312 3.99176
54.0858 71.1327 4
56.25 69.976 2
58.3339 68.6801 0
57.0579 8.33674 3.98821
60.3285 7.74928 4
58.9228 9.65856 2
62.2255 9.30602 2
70.5743 48.8134 0.0206552
71.7819 44.3528 0.0203415
68.9096 46.0141 0.0312762
69.8019 41.7895 0.0308322
72.405 39.8022 0.0196702
75 37.5 0
72.4878 37.5122 2
70.0392 39.6573 2
69.4279 43.9066 2
67.5787 41.495 2
68.263 48.1054 2
66.6838 45.4344 2
70.1272 37.5217 3.96931
67.819 39.5113 3.96846
67.2004 43.4662 3.96795
65.4726 41.2021 3.97266
66.042 47.4118 3.96693
64.5608 44.8334 3.97078
72.4128 35.2242 0.0196211
71.8033 30.6763 0.0200409
69.8378 33.2688 0.0306824
68.9635 29.0389 0.0310237
64.0165 10.9835 0
63.8885 14.3287 0.0196648
63.5093 17.4523 0.0292709
67.6084 24.913 0.0309565
66.1755 27.6394 0.0330146
64.7422 23.8353 0.0334589
62.8985 20.3274 0.0342676
62.0461 22.9607 0.0331073
60.6829 11.0989 0.0150046
57.611 11.4537 0.023339
70.0559 35.3925 2
69.4647 31.1505 2
67.6402 33.5934 2
66.7527 29.6274 2
62.3428 12.6599 2
62.1945 15.7934 2
61.8039 18.6954 2
65.5058 25.7049 2
64.0697 28.2715 2
61.1773 21.3607 2
62.7993 24.6549 2
60.3322 23.7587 2
59.2452 12.7864 2
56.4032 13.1301 2
55.8742 10.2377 2
67.8578 35.5488 3.96844
67.2476 31.6257 3.96775
65.6259 33.9336 3.97262
64.5854 30.2052 3.97106
63.4728 26.4307 3.96921
62.1251 28.803 3.9743
60.7726 14.231 3.97302
60.9389 25.3673 3.97131
60.6024 17.1425 3.9657
60.1904 19.8367 3.96354
59.5737 22.2909 3.96608
58.8479 24.3613 3.97184
54.0369 9.13998 3.98092
57.9061 14.3484 3.97351
54.7845 12.023 3.97429
55.3065 14.6718 3.97154
67.5045 50.1755 0.0316813
57.025 66.7346 0.00934978
60.6676 63.9762 0.0138445
57.5564 63.6877 0.0211636
65.6987 54.1716 0.0309558
64.5199 51.3788 0.0342052
60.7702 60.9317 0.0271577
60.649 58.1473 0.0358948
62.8131 55.0616 0.0340299
60.3165 55.7717 0.0351013
55.0716 67.9314 2
59.217 62.3612 2
55.8037 64.9082 2
56.3231 62.0799 2
65.3078 49.4012 2
63.6956 53.2863 2
62.3755 50.6323 2
59.3259 59.546 2
61.0551 54.2943 2
59.2713 56.9931 2
59.2216 55.1637 2
53.0429 68.9992 3.99166
53.9662 66.0113 3.98482
57.876 60.8571 3.97358
54.6822 63.2015 3.97748
55.2056 60.5965 3.9735
63.1152 48.6418 3.96848
61.6953 52.5575 3.96649
60.1519 49.9867 3.96915
58.0035 58.2442 3.96502
59.2802 53.9236 3.96697
58.0819 55.787 3.96108
50.1083 67.8556 3.98673
47.4623 66.5773 3.9834
46.0552 69.1562 3.98727
48.1015 68.5779 2
48.8027 70.7224 3.99187
50.9492 69.9311 2
51.8506 72.1454 4
54.0858 71.1327 2
56.25 69.9759 0
55.1027 7.14108 3.99003
58.3339 6.31992 4
57.0597 8.33762 2
60.3286 7.74926 2
58.9204 9.65693 0.0129808
62.2254 9.30607 0
68.2631 48.1061 0.0315991
69.428 43.9071 0.0309937
66.6843 45.4348 0.032436
67.5787 41.4952 0.0316119
70.0393 39.6574 0.0307111
72.4883 37.5121 0.0200813
70.1268 37.5217 2
67.8188 39.5112 2
67.2011 43.4659 2
65.4714 41.2018 2
66.0422 47.4114 2
64.5594 44.833 2
67.9179 37.5222 3.96848
65.7098 39.3662 3.97285
65.0912 43.014 3.97214
63.6109 40.9167 3.97722
63.8749 46.6989 3.96951
62.6541 44.1928 3.97491
70.056 35.3922 0.0305702
69.4648 31.15 0.0309134
67.6401 33.5932 0.0319116
66.7526 29.627 0.0326662
62.3405 12.6562 0.0167136
62.195 15.7933 0.0291361
61.8046 18.695 0.0339001
65.506 25.7044 0.0333137
64.071 28.271 0.0298587
62.7999 24.6544 0.0318654
61.1784 21.3602 0.0347743
60.3325 23.758 0.030746
59.244 12.7867 0.0263025
56.4026 13.132 0.0267597
55.8735 10.239 0.0210801
67.8574 35.5489 2
67.2481 31.626 2
65.6247 33.9338 2
64.5842 30.2056 2
60.7727 14.232 2
60.602 17.1425 2
60.1916 19.8368 2
63.4719 26.4312 2
62.1228 28.8037 2
59.5751 22.2915 2
60.9382 25.368 2
58.847 24.3625 2
57.9063 14.3473 2
55.307 14.6711 2
54.0375 9.13841 2
54.7851 12.0208 2
65.8018 35.6699 3.97281
65.1053 32.1645 3.97158
64.165 34.2587 3.97705
62.4417 30.6582 3.97537
61.5304 27.1003 3.97257
60.6775 29.1733 3.9773
59.304 15.6837 3.96943
59.1746 25.8381 3.97468
59.1037 18.3774 3.96429
58.672 20.8868 3.963
58.1571 23.1364 3.96677
57.8161 24.7136 3.97384
52.1118 8.15623 3.98369
53.0565 11.0266 3.97626
56.6679 15.7652 3.97195
53.8051 13.7027 3.97407
54.3648 16.0282 3.97308
55.0709 67.9315 0.00835356
65.308 49.4016 0.0337767
55.8039 64.9071 0.0169712
59.2167 62.3599 0.0259477
56.3237 62.0776 0.0251502
63.6957 53.2865 0.0344344
62.3757 50.6327 0.032754
59.3266 59.5448 0.0322537
59.2708 56.9933 0.0363855
61.0546 54.2945 0.0341019
59.2208 55.1641 0.0347225
53.0434 68.9993 2
53.9662 66.0121 2
57.8752 60.8586 2
54.6816 63.2022 2
55.2052 60.5984 2
63.1144 48.6414 2
61.6962 52.5574 2
60.1517 49.9861 2
58.0028 58.2455 2
59.2824 53.9233 2
58.0799 55.7859 2
52.0695 66.9984 3.98637
52.9525 64.214 3.98143
56.6389 59.4721 3.97254
53.677 61.6113 3.9762
54.2489 59.2983 3.97423
60.8403 47.8475 3.9701
59.6144 52.0747 3.96788
57.8596 49.5734 3.97088
56.7497 56.9631 3.96688
57.0486 54.0899 3.96477
50.1081 67.8559 2
49.3364 65.9181 3.98339
47.4624 66.5779 2
46.8916 64.7303 3.98174
45.5574 67.0941 3.98345
43.9725 69.5882 3.98751
46.0552 69.1567 2
46.6092 71.3669 3.99192
48.1015 68.5772 0.0129363
48.8032 70.7226 2
49.554 73.0099 4
50.9487 69.9312 0.00823699
51.8506 72.1455 2
54.0858 71.1327 0
53.0645 6.07218 3.99128
55.1042 7.14121 2
56.25 5.02411 4
58.3339 6.3199 2
57.0579 8.33674 0.0117902
60.3285 7.74928 0
66.042 47.4118 0.033065
67.2004 43.4662 0.0320535
64.5608 44.8334 0.0292232
65.4726 41.2021 0.0273406
67.819 39.5113 0.0315398
70.1272 37.5217 0.0306924
67.918 37.5222 2
65.7084 39.366 2
65.0897 43.0136 2
63.6083 40.9162 2
63.8736 46.6983 2
62.6516 44.1921 2
65.8159 37.5013 3.97284
63.7611 39.2597 3.97732
63.1737 42.5314 3.97624
62.238 40.679 3.97707
61.8132 45.8905 3.97248
61.2475 43.6528 3.97719
67.8578 35.5488 0.0315605
67.2476 31.6257 0.0322464
65.6259 33.9336 0.0273827
64.5854 30.2052 0.0289403
60.7726 14.231 0.0269753
60.6024 17.1425 0.034295
60.1904 19.8367 0.0364604
63.4728 26.4307 0.0307864
62.1251 28.803 0.0257032
60.9389 25.3673 0.0286864
59.5737 22.2909 0.0339235
58.8479 24.3613 0.0281573
57.9061 14.3484 0.026491
55.3065 14.6718 0.0284617
54.0369 9.13998 0.0190844
54.7845 12.023 0.02571
65.8004 35.67 2
65.104 32.1648 2
64.1635 34.259 2
62.4401 30.6588 2
59.3032 15.6842 2
59.1039 18.3774 2
58.6769 20.8869 2
61.529 27.101 2
60.6762 29.1741 2
58.1554 23.1378 2
59.1739 25.8392 2
57.8159 24.7151 2
56.6679 15.7637 2
54.3653 16.0291 2
53.8051 13.6973 2
52.1121 8.1551 2
53.057 11.025 2
63.9627 35.6372 3.97662
62.7732 33.0627 3.97617
60.4108 30.6456 3.97655
59.3907 27.951 3.97571
57.9256 17.0063 3.96594
57.565 25.778 3.97637
57.675 19.5063 3.96079
57.2582 21.8868 3.96317
57.018 24.0027 3.96792
50.1123 7.28685 3.98646
51.232 10.1312 3.9791
52.1685 12.8113 3.97659
55.5215 17.0003 3.97064
52.9703 15.2956 3.97118
53.7417 17.0144 3.97808
53.0429 68.9992 0.00833836
53.9662 66.0113 0.0151824
63.1152 48.6418 0.0315203
54.6822 63.2015 0.0225167
57.876 60.8571 0.0264219
55.2056 60.5965 0.0264997
61.6953 52.5575 0.0335118
60.1519 49.9867 0.0308533
58.0035 58.2442 0.0349796
58.0819 55.787 0.0389192
59.2802 53.9236 0.0330298
52.0695 66.9991 2
52.9522 64.2148 2
56.6383 59.4733 2
53.6763 61.6114 2
54.2486 59.3004 2
60.839 47.8467 2
59.6146 52.0741 2
57.857 49.5721 2
56.7482 56.9673 2
57.0466 54.0887 2
51.1675 65.1248 3.98325
52.0439 62.5315 3.97803
55.4634 58.2299 3.97455
52.8256 60.1129 3.97738
53.6226 58.4485 3.97889
58.0826 46.8013 3.97427
57.4388 51.7472 3.96741
56.0443 49.5029 3.97065
55.4274 55.762 3.96315
55.2582 53.3439 3.96291
50.1083 67.8556 0.0132674
49.3363 65.9183 2
48.6175 64.1178 3.98226
47.4623 66.5773 0.0165971
45.5575 67.0946 2
46.8917 64.7308 2
46.3811 63.0455 3.98213
45.1319 65.1906 3.98142
43.6307 67.4646 3.98368
41.86 69.8753 3.98723
43.9723 69.5887 2
44.3765 71.8617 3.99191
46.0552 69.1562 0.0127301
46.6096 71.3671 2
47.2057 73.7222 4
48.8027 70.7224 0.00812513
49.554 73.0099 2
51.8506 72.1454 0
50.9546 5.13262 3.99192
53.0654 6.07221 2
54.0858 3.86728 4
55.1027 7.14108 0.00997375
56.25 5.02406 2
58.3339 6.31992 0
63.8749 46.6989 0.0304945
65.0912 43.014 0.0278605
62.6541 44.1928 0.0250883
63.6109 40.9167 0.0227775
65.7098 39.3662 0.0271504
67.9179 37.5222 0.0315243
65.8145 37.5013 2
63.7584 39.2594 2
63.1717 42.5308 2
62.2356 40.6784 2
61.811 45.8897 2
61.2454 43.6519 2
63.8235 37.4561 3.97695
61.9562 39.3426 3.97715
60.9951 41.9306 3.977
60.0381 44.7332 3.97678
65.8018 35.6699 0.0271885
65.1053 32.1645 0.0284214
64.165 34.2587 0.0229463
62.4417 30.6582 0.0246344
59.304 15.6837 0.0305674
59.1037 18.3774 0.0357104
58.672 20.8868 0.0370028
61.5304 27.1003 0.0274319
60.6775 29.1733 0.0227017
59.1746 25.8381 0.0253207
58.1571 23.1364 0.0332342
57.8161 24.7136 0.0261584
56.6679 15.7652 0.0280494
54.3648 16.0282 0.0269166
53.8051 13.7027 0.0259339
52.1118 8.15623 0.0163128
53.0565 11.0266 0.0237422
63.9605 35.6374 2
62.7714 33.0632 2
60.4092 30.6465 2
57.9246 17.0067 2
57.6783 19.5053 2
57.2613 21.8875 2
59.3897 27.9519 2
57.0175 24.0046 2
57.5643 25.7796 2
50.1126 7.28516 2
55.522 16.9997 2
53.7417 17.0137 2
52.9705 15.2936 2
52.1692 12.8115 2
51.2325 10.1298 2
61.9934 35.3727 3.97715
60.0471 32.7768 3.97701
58.3799 30.1245 3.97692
57.0684 27.4397 3.97696
56.6118 18.1849 3.96677
56.0987 25.167 3.97391
56.2892 20.5636 3.95996
55.957 22.9287 3.96232
48.0567 6.52831 3.98849
49.3246 9.33599 3.98141
50.4313 12.0051 3.97614
51.371 14.5191 3.97206
54.3902 17.9533 3.97263
52.3457 17.0781 3.96822
52.0695 66.9984 0.0136263
52.9525 64.214 0.0185692
60.8403 47.8475 0.0299006
53.677 61.6113 0.0238023
56.6389 59.4721 0.0274569
54.2489 59.2983 0.025765
59.6144 52.0747 0.0321188
57.8596 49.5734 0.0291182
56.7497 56.9631 0.0331205
57.0486 54.0899 0.0352284
51.1674 65.1254 2
52.0434 62.5322 2
55.4629 58.2313 2
52.8252 60.1164 2
53.6221 58.4498 2
58.0814 46.8002 2
57.4375 51.7461 2
56.0416 49.5019 2
55.4267 55.7626 2
55.2607 53.3442 2
50.3454 63.3761 3.98198
51.2387 60.9233 3.97655
54.1915 57.246 3.97507
52.2965 58.6067 3.97563
56.3904 44.1213 3.97747
55.2394 47.8366 3.97405
54.9137 51.342 3.9657
53.9347 54.5081 3.96425
49.3364 65.9181 0.0166072
48.6173 64.1178 2
47.9608 62.468 3.98171
45.5574 67.0941 0.0165549
46.8916 64.7303 0.0182626
43.6307 67.4651 2
46.3812 63.0459 2
45.1319 65.1912 2
45.9862 61.5766 3.98417
44.7665 63.4443 3.98012
43.3562 65.4997 3.98118
41.663 67.6829 3.98345
39.7021 70.0218 3.9873
41.8598 69.8759 2
42.1108 72.2064 3.992
43.9725 69.5882 0.0124946
44.3768 71.8619 2
44.8159 74.2794 4
46.6092 71.3669 0.00807795
47.2057 73.7222 2
49.554 73.0099 0
48.7853 4.32309 3.99257
50.9552 5.13206 2
51.8506 2.85458 4
53.0645 6.07218 0.00871931
54.0858 3.86728 2
56.25 5.02411 0
61.8132 45.8905 0.0275154
63.1737 42.5314 0.023763
61.2475 43.6528 0.0228146
62.238 40.679 0.022932
63.7611 39.2597 0.0226803
65.8159 37.5013 0.0271607
63.8208 37.4561 2
61.9542 39.3426 2
60.9933 41.9299 2
60.0372 44.7323 2
61.7921 37.4432 3.97734
59.9808 39.8255 3.97719
58.7016 42.8734 3.97687
63.9627 35.6372 0.0233827
62.7732 33.0627 0.0238282
60.4108 30.6456 0.0234548
57.9256 17.0063 0.0340644
57.675 19.5063 0.039214
57.2582 21.8868 0.036833
59.3907 27.951 0.0242921
57.565 25.778 0.0236252
57.018 24.0027 0.032084
55.5215 17.0003 0.0293585
53.7417 17.0144 0.0219152
52.9703 15.2956 0.0288242
50.1123 7.28685 0.0135435
52.1685 12.8113 0.0234127
51.232 10.1312 0.0209031
61.9915 35.3731 2
60.0453 32.777 2
58.3792 30.1253 2
56.6108 18.1856 2
56.293 20.5611 2
55.96 22.9304 2
57.0686 27.4412 2
56.0992 25.169 2
48.0567 6.52706 2
49.325 9.33402 2
54.3908 17.953 2
52.3457 17.0771 2
51.3706 14.5141 2
50.4321 12.0033 2
59.6223 35.1361 3.9771
57.6813 32.3156 3.97645
56.2765 29.4055 3.97753
55.1845 26.6804 3.9773
55.3017 19.2234 3.96068
54.7432 24.1327 3.96389
54.8991 21.6178 3.95969
45.9628 5.88311 3.98893
43.3742 7.47451 3.98588
47.3556 8.6262 3.98416
48.5992 11.3019 3.97812
49.708 13.7575 3.97598
50.6214 16.1639 3.97526
53.0931 18.7025 3.96696
51.2786 18.1018 3.97752
51.1675 65.1248 0.0167537
52.0439 62.5315 0.021965
58.0826 46.8013 0.0257274
52.8256 60.1129 0.0226156
55.4634 58.2299 0.0254497
53.6226 58.4485 0.0211096
57.4388 51.7472 0.0325889
56.0443 49.5029 0.0293458
55.4274 55.762 0.0368494
55.2582 53.3439 0.0370873
50.345 63.3762 2
51.238 60.9234 2
54.1912 57.2476 2
52.2959 58.6078 2
56.3896 44.1203 2
55.2388 47.8358 2
54.9158 51.3419 2
53.9354 54.5097 2
49.5897 61.7384 3.98025
55.2118 41.6669 3.97568
50.5546 59.3101 3.97334
52.1487 56.4639 3.97064
53.8329 45.4898 3.97486
53.1047 49.2675 3.96953
52.5513 52.8087 3.96163
48.6175 64.1178 0.0177421
47.9606 62.4675 2
47.326 61.0009 3.9854
43.6307 67.4646 0.016318
45.1319 65.1906 0.0185836
46.3811 63.0455 0.0178717
41.6632 67.6831 2
43.3561 65.5006 2
45.9863 61.577 2
44.7666 63.445 2
45.7622 60.6208 3.98355
44.4826 61.8227 3.9808
43.1459 63.7159 3.97942
41.5458 65.6368 3.98004
39.6325 67.7618 3.98304
37.5261 70.0465 3.98668
39.7019 70.0223 2
39.8176 72.4032 3.99178
41.86 69.8753 0.0127669
42.1111 72.2067 2
42.3947 74.6792 4
44.3765 71.8617 0.00809494
44.8159 74.2794 2
47.2057 73.7222 0
43.852 5.36006 3.98889
46.5713 3.64753 3.9927
48.7856 4.32259 2
49.554 1.99015 4
50.9546 5.13262 0.00807584
51.8506 2.85453 2
54.0858 3.86728 0
60.0381 44.7332 0.0232189
60.9951 41.9306 0.0230021
61.9562 39.3426 0.0228521
63.8235 37.4561 0.0230507
61.7904 37.4432 2
59.9802 39.8256 2
58.7008 42.8723 2
59.4817 37.5653 3.97748
57.6555 40.6244 3.97737
54.6315 39.6837 3.9752
61.9934 35.3727 0.0228535
60.0471 32.7768 0.0229889
58.3799 30.1245 0.0230841
56.6118 18.1849 0.0332254
56.2892 20.5636 0.0400399
55.957 22.9287 0.0376792
57.0684 27.4397 0.0230412
56.0987 25.167 0.0260919
54.3902 17.9533 0.0273709
52.3457 17.0781 0.0317751
51.371 14.5191 0.0279436
48.0567 6.52831 0.0115115
49.3246 9.33599 0.0185891
50.4313 12.0051 0.023856
59.6221 35.1358 2
45.9626 5.8824 2
43.3741 7.47365 2
57.6812 32.3161 2
56.2754 29.4066 2
55.3007 19.2243 2
54.907 21.618 2
54.7426 24.1348 2
55.1819 26.6828 2
47.3558 8.62403 2
48.5998 11.2996 2
53.0942 18.7015 2
51.2797 18.1024 2
50.6222 16.1639 2
49.7081 13.7559 2
57.04 34.7807 3.97738
55.3937 31.5746 3.97683
54.1953 28.4939 3.97756
53.5488 25.5925 3.97599
53.9108 20.1836 3.95968
53.4459 22.7869 3.95491
41.3994 7.08039 3.98598
45.3605 7.99578 3.98657
42.8663 9.41786 3.98261
46.6669 10.6577 3.9813
47.7412 13.1132 3.97801
48.9217 15.4212 3.97275
49.9847 17.728 3.97432
51.6106 19.3801 3.97538
50.3454 63.3761 0.0180206
51.2387 60.9233 0.0234526
56.3904 44.1213 0.0225327
55.2394 47.8366 0.0259528
52.2965 58.6067 0.0243734
54.1915 57.246 0.0249255
54.9137 51.342 0.0342998
53.9347 54.5081 0.0357477
49.5891 61.7382 2
55.2087 41.6653 2
50.5541 59.3114 2
52.1484 56.4655 2
53.8344 45.4896 2
53.1132 49.2679 2
52.5515 52.8081 2
48.8414 60.1941 3.97822
52.0482 42.5577 3.98125
49.7642 57.6033 3.96937
50.5153 54.3991 3.96155
51.5029 47.1978 3.97569
51.0402 50.8949 3.95617
47.7133 43.6938 3.98794
47.9608 62.468 0.0182935
47.326 61.0004 2
46.6117 59.7882 3.98615
41.663 67.6829 0.0165479
43.3562 65.4997 0.0188179
44.7665 63.4443 0.0198787
45.9862 61.5766 0.015835
39.6328 67.7625 2
41.5456 65.6366 2
45.7621 60.6213 2
43.146 63.7167 2
44.4827 61.8234 2
44.6189 60.28 3.98465
42.9497 62.0691 3.97692
41.5997 63.8083 3.97929
39.6473 65.6032 3.97886
37.5634 67.7431 3.98208
31.6974 65.1228 3.98026
33.3925 67.4814 3.98188
35.3339 69.9568 3.98695
37.5259 70.0475 2
37.5095 72.4578 3.99189
39.7021 70.0218 0.012695
39.8178 72.4036 2
39.9526 74.9197 4
42.1108 72.2064 0.00800441
42.3947 74.6792 2
44.8159 74.2794 0
41.7365 4.96919 3.98907
43.852 5.35917 2
44.3265 3.1107 3.99303
46.5714 3.64718 2
47.2057 1.27793 4
48.7853 4.32309 0.00742626
49.554 1.99013 2
51.8506 2.85458 0
58.7016 42.8734 0.0231317
59.9808 39.8255 0.0228136
61.7921 37.4432 0.0226593
59.4819 37.5658 2
57.655 40.6247 2
54.6295 39.6858 2
56.4275 37.8849 3.97714
49.079 41.2643 3.98534
52.643 39.307 3.98363
39.4429 6.80424 3.98597
59.6223 35.1361 0.0228993
57.6813 32.3156 0.0235479
56.2765 29.4055 0.0224699
55.3017 19.2234 0.0393176
54.8991 21.6178 0.0403139
54.7432 24.1327 0.0361143
55.1845 26.6804 0.0226975
53.0931 18.7025 0.0330431
51.2786 18.1018 0.0224828
50.6214 16.1639 0.0247447
45.9628 5.88311 0.0110691
49.708 13.7575 0.0240232
47.3556 8.6262 0.0158351
48.5992 11.3019 0.0218779
43.3742 7.47451 0.0141243
57.0397 34.7802 2
41.3994 7.07913 2
45.3602 7.99512 2
42.8661 9.41716 2
55.3964 31.5728 2
54.1956 28.4947 2
53.9121 20.186 2
53.4453 22.785 2
53.5474 25.5942 2
46.6671 10.6542 2
47.7417 13.1097 2
51.6126 19.3809 2
49.9847 17.7259 2
48.9214 15.4219 2
54.4359 33.9784 3.97584
53.1342 30.5828 3.97752
52.2877 27.3118 3.97565
51.9741 24.2007 3.97741
52.311 21.1197 3.97277
41.0138 9.052 3.98224
44.7256 9.99584 3.98473
42.468 10.9042 3.98675
46.0026 12.7363 3.97702
47.6725 14.5982 3.97268
48.0918 17.0048 3.97229
49.7928 19.7281 3.97164
49.5897 61.7384 0.0197495
50.5546 59.3101 0.0266551
55.2118 41.6669 0.0243246
53.8329 45.4898 0.0251446
53.1047 49.2675 0.0304676
52.1487 56.4639 0.0293639
52.5513 52.8087 0.0383654
48.8408 60.1925 2
52.0631 42.5623 2
49.7635 57.604 2
50.5152 54.4007 2
51.5067 47.1976 2
51.041 50.8935 2
47.7234 43.7178 2
47.9708 58.7269 3.97873
49.6701 45.2022 3.97888
48.5496 55.8965 3.97522
49.0159 52.5588 3.97754
49.4448 48.9849 3.97365
45.4789 39.8346 3.87988
45.9463 42.5621 3.90973
46.1246 45.7248 3.98329
43.2882 41.0839 3.7631
41.7932 41.9652 3.59545
47.326 61.0009 0.0145961
46.6111 59.7877 2
45.4573 58.7833 3.98356
39.6325 67.7618 0.0169644
41.5458 65.6368 0.0199592
43.1459 63.7159 0.0205846
44.4826 61.8227 0.0191994
45.7622 60.6208 0.0164459
41.5997 63.8084 2
37.5636 67.744 2
39.6471 65.6039 2
44.619 60.2807 2
42.9499 62.0698 2
41.7528 62.4796 3.9782
42.4772 59.9638 3.9802
39.8939 63.5402 3.97688
37.6421 65.5012 3.97975
35.4637 67.6528 3.98214
33.5756 65.3347 3.97917
31.9592 63.2908 3.97981
29.8837 64.7146 3.9815
31.6973 65.1234 2
31.3772 67.1917 3.98255
33.3926 67.4822 2
33.1572 69.7507 3.98686
35.3337 69.9576 2
35.1951 72.3722 3.99176
37.5261 70.0465 0.0133159
37.5095 72.4583 2
37.5 75 4
39.8176 72.4032 0.00822222
39.9526 74.9197 2
42.3947 74.6792 0
39.6242 4.71679 3.98945
41.7365 4.96825 2
42.0629 2.71815 3.99328
43.852 5.36006 0.0111088
44.3266 3.11014 2
44.8158 0.721173 4
46.5713 3.64753 0.00730132
47.2057 1.27779 2
49.554 1.99015 0
57.6555 40.6244 0.0226255
59.4817 37.5653 0.0225204
54.6315 39.6837 0.0248026
49.1023 41.2792 2
56.4285 37.8849 2
52.6421 39.2905 2
53.4892 36.6308 3.97737
47.0035 40.3587 3.91541
50.0205 38.5231 3.99003
37.5169 6.67546 3.98587
39.4429 6.8028 2
39.2112 8.69498 3.98329
35.9427 8.49512 3.98399
57.04 34.7807 0.0226171
55.3937 31.5746 0.0231744
54.1953 28.4939 0.0224367
53.9108 20.1836 0.0403233
53.4459 22.7869 0.0450934
53.5488 25.5925 0.0240119
51.6106 19.3801 0.0246203
49.9847 17.728 0.0256764
48.9217 15.4212 0.0272533
45.3605 7.99578 0.0134274
47.7412 13.1132 0.0219927
46.6669 10.6577 0.0187001
41.3994 7.08039 0.0140156
42.8663 9.41786 0.0173858
54.4329 33.9809 2
41.0139 9.05083 2
44.7248 9.99543 2
42.4678 10.9043 2
53.1312 30.5828 2
52.2964 27.3124 2
52.3149 21.1208 2
51.9753 24.2045 2
46.0026 12.7307 2
47.6724 14.5946 2
49.7952 19.7281 2
48.0908 17.003 2
51.9746 32.8908 3.9805
50.9299 29.2721 3.97574
50.5462 25.8323 3.97309
49.8643 22.32 3.98354
40.5686 11.6118 3.98087
43.8572 11.9158 3.9801
45.7916 15.4365 3.98215
47.4846 19.3397 3.97719
45.8766 37.4832 3.87529
48.8414 60.1941 0.021779
49.7642 57.6033 0.0306296
52.0482 42.5577 0.0187462
51.5029 47.1978 0.0243096
51.0402 50.8949 0.0438252
50.5153 54.3991 0.0384506
47.7133 43.6938 0.0120573
47.97 58.7286 2
49.6828 45.2123 2
48.5476 55.8991 2
49.0148 52.5631 2
49.4486 48.9819 2
45.5267 39.8475 2
45.9716 42.592 2
46.1317 45.7333 2
43.3139 41.1132 2
41.8143 41.9836 2
46.8128 57.3289 3.98033
44.0392 39.3742 3.7615
42.1457 40.842 3.64579
47.7616 47.202 3.97947
47.0973 54.2108 3.97033
47.434 50.7112 3.97009
44.5374 47.3289 3.97666
44.5954 41.9028 3.85766
44.6016 44.4604 3.92559
42.207 42.5739 3.77771
40.7353 42.2836 3.63182
46.6117 59.7882 0.0138486
45.4574 58.7833 2
43.8618 57.6966 3.98095
37.5634 67.7431 0.0179221
39.6473 65.6032 0.0211404
41.5997 63.8083 0.0207111
42.9497 62.0691 0.0230784
44.6189 60.28 0.0153493
35.4639 67.6537 2
41.7529 62.4801 2
39.8936 63.5407 2
37.6421 65.5021 2
42.4776 59.9642 2
40.6231 61.6333 3.98018
40.4393 58.1832 3.9796
37.8369 63.2011 3.97771
35.573 65.4237 3.9795
33.5756 65.3353 2
31.959 63.2914 2
33.6286 63.3286 3.97813
30.3787 62.8505 3.98083
32.1239 61.9947 3.98392
26.8715 61.4914 3.97823
28.0627 64.1431 3.98107
29.8835 64.7152 2
29.4068 66.7559 3.98327
31.6974 65.1228 0.0197378
31.3774 67.1924 2
31.0148 69.4158 3.98677
33.3925 67.4814 0.0181162
33.1571 69.7514 2
32.8923 72.1466 3.99185
35.3339 69.9568 0.0130549
35.1949 72.3726 2
35.0474 74.9194 4
37.5095 72.4578 0.00810613
37.5 75 2
39.9526 74.9197 0
35.6215 6.72658 3.98549
37.5237 4.61624 3.98957
39.6242 4.71554 2
39.7893 2.47472 3.99325
41.7365 4.96919 0.0109253
42.0629 2.7176 2
42.3946 0.32156 4
44.3265 3.1107 0.00696701
44.8159 0.72056 2
47.2057 1.27793 0
49.079 41.2643 0.0146602
56.4275 37.8849 0.0228598
52.643 39.307 0.0163659
47.0257 40.3573 2
50.0266 38.5115 2
53.4947 36.638 2
50.8092 35.5794 3.97584
47.6725 37.7567 3.93142
45.4821 35.1508 3.87646
43.2948 33.9015 3.75755
41.7936 33.0307 3.59135
37.4584 8.53671 3.9842
37.5168 6.67425 2
39.4429 6.80424 0.0140282
39.2115 8.6933 2
38.9763 10.1297 3.98363
35.899 9.77698 3.98123
34.1518 8.82598 3.98267
35.9424 8.49358 2
54.4359 33.9784 0.0241596
53.1342 30.5828 0.0224753
52.2877 27.3118 0.0243451
52.311 21.1197 0.0272307
51.9741 24.2007 0.0225865
49.7928 19.7281 0.0283568
48.0918 17.0048 0.0277148
47.6725 14.5982 0.0273166
44.7256 9.99584 0.0152746
46.0026 12.7363 0.0229837
41.0138 9.052 0.0177578
42.468 10.9042 0.0132507
51.9814 32.8904 2
40.5695 11.6118 2
43.856 11.9164 2
50.9488 29.272 2
50.5511 25.8345 2
49.8659 22.3173 2
45.79 15.4229 2
47.4864 19.344 2
49.5226 31.4925 3.98709
48.9671 27.6024 3.97525
49.2314 24.5075 3.97726
47.1444 22.0855 3.98406
38.3022 12.7419 3.97781
42.099 14.3067 3.97912
44.7872 18.5245 3.97753
44.3967 37.4908 3.77106
45.9495 37.4904 2
47.9708 58.7269 0.021267
48.5496 55.8965 0.0247814
49.6701 45.2022 0.0211155
49.4448 48.9849 0.0263476
49.0159 52.5588 0.0224597
45.4789 39.8346 0.120122
45.9463 42.5621 0.0902735
46.1246 45.7248 0.016714
43.2882 41.0839 0.236897
41.7932 41.9652 0.404546
46.8111 57.3304 2
44.0763 39.3959 2
42.1397 40.8527 2
47.7668 47.2035 2
47.0953 54.2151 2
47.4368 50.7153 2
44.5504 47.3074 2
44.6218 41.9281 2
44.628 44.4796 2
42.2554 42.607 2
40.7507 42.2838 2
45.3593 55.9164 3.98947
42.4713 39.2618 3.65744
40.617 40.7276 3.75352
45.8809 48.8656 3.99148
45.4315 52.4968 3.9832
43.2466 48.3332 3.99769
43.1771 45.9925 3.90737
43.3406 43.6815 3.85503
40.8716 43.6784 3.7581
39.242 42.568 3.64498
45.4573 58.7833 0.0164393
43.8615 57.6979 2
42.0894 56.3017 3.98362
35.4637 67.6528 0.0178584
37.6421 65.5012 0.0202461
39.8939 63.5402 0.0231159
41.7528 62.4796 0.0217975
42.4772 59.9638 0.0198
35.573 65.4248 2
40.6233 61.634 2
37.8365 63.2018 2
40.4394 58.1848 2
38.9174 56.4762 3.99087
38.2508 60.3153 3.9788
35.6067 63.1945 3.97656
33.5756 65.3347 0.0208274
31.9592 63.2908 0.0201864
33.6284 63.3294 2
30.3786 62.851 2
32.1244 61.9955 2
28.6822 62.1961 3.98063
33.3456 61.504 3.97962
31.0695 61.2121 3.98005
27.5764 59.5847 3.98084
23.8026 59.0719 3.97884
25.0381 60.8644 3.97885
26.8718 61.4918 2
26.23 63.4734 3.98001
28.0627 64.1432 2
27.4635 66.1802 3.98347
29.8837 64.7146 0.0184958
29.4069 66.7564 2
28.9072 68.9419 3.98656
31.3772 67.1917 0.0174472
31.0147 69.4164 2
30.6148 71.7776 3.99159
33.1572 69.7507 0.0131429
32.892 72.147 2
32.6054 74.6784 4
35.1951 72.3722 0.0082361
35.0474 74.9197 2
37.5 75 0
33.7244 6.98204 3.98472
35.4356 4.68652 3.98943
35.6214 6.72557 2
37.5149 2.3872 3.99327
37.5237 4.61537 2
39.6242 4.71679 0.0105462
39.7892 2.47404 2
39.9526 0.0806499 4
42.0629 2.71815 0.00671611
42.3947 0.320817 2
44.8158 0.721173 0
44.0501 35.605 3.75971
42.1482 34.1466 3.64013
47.0035 40.3587 0.0845911
50.0205 38.5231 0.00996532
53.4892 36.6308 0.0226255
47.6713 37.7541 2
50.8219 35.5743 2
45.5206 35.1256 2
43.3262 33.8702 2
41.8154 33.0109 2
47.8414 34.3058 3.95879
44.5975 33.0673 3.85159
42.2106 32.4209 3.77012
40.7374 32.7162 3.62867
37.3108 10.6342 3.98101
37.4584 8.53502 2
37.5169 6.67546 0.0141341
39.2112 8.69498 0.0167063
38.9775 10.1283 2
34.7548 10.385 3.98134
35.8995 9.77421 2
32.3788 9.37364 3.9802
34.1509 8.82378 2
35.9427 8.49512 0.0160062
51.9746 32.8908 0.0195032
50.9299 29.2721 0.024263
50.5462 25.8323 0.0269085
49.8643 22.32 0.0164632
47.4846 19.3397 0.0228053
45.7916 15.4365 0.0178527
43.8572 11.9158 0.0199014
40.5686 11.6118 0.0191331
49.5378 31.4894 2
38.3023 12.7404 2
42.0998 14.3103 2
48.9754 27.6044 2
49.2358 24.5062 2
47.1409 22.0783 2
44.7877 18.545 2
47.3645 29.6005 3.98394
46.9193 25.2526 3.9787
44.2618 21.4598 3.97854
36.5833 12.9418 3.97583
38.683 14.8242 3.97577
41.7449 17.8845 3.97859
42.5932 37.4836 3.67561
44.433 37.49 2
45.8766 37.4832 0.124711
46.8128 57.3289 0.0196654
47.0973 54.2108 0.029675
47.7616 47.202 0.0205273
47.434 50.7112 0.0299136
44.0392 39.3742 0.238503
44.5954 41.9028 0.142343
44.6016 44.4604 0.0744133
44.5374 47.3289 0.0233391
42.207 42.5739 0.222294
42.1457 40.842 0.354207
40.7353 42.2836 0.368176
45.3576 55.9159 2
42.4627 39.2622 2
40.6178 40.712 2
45.8832 48.8737 2
45.4304 52.5035 2
43.2524 48.3508 2
43.2178 46.0236 2
43.3785 43.708 2
40.905 43.7232 2
39.239 42.5687 2
43.6894 54.4085 3.99799
40.7157 39.1342 3.7683
39.1098 40.7956 3.74575
43.5515 50.3981 4.00451
41.8517 47.534 3.94417
41.7563 45.0892 3.87056
39.3354 44.3511 3.75781
37.5063 42.6634 3.67042
43.8618 57.6966 0.019047
42.0892 56.3031 2
40.4012 54.8833 3.98183
35.573 65.4237 0.020503
37.8369 63.2011 0.0222853
40.6231 61.6333 0.0198215
40.4393 58.1832 0.0204022
35.6064 63.195 2
38.2511 60.3161 2
38.9174 56.4764 2
37.9931 55.2035 3.99164
36.9336 57.6126 3.98491
35.3637 60.9002 3.97649
33.6286 63.3286 0.0218732
30.3787 62.8505 0.0191692
32.1239 61.9947 0.0160849
33.3463 61.5048 2
28.6824 62.196 2
31.0701 61.2129 2
29.408 60.2817 3.97838
32.3616 59.7333 3.98857
28.0384 58.3663 3.99132
27.5776 59.5852 2
25.3916 58.5862 3.97743
22.7727 58.2257 3.96882
23.4061 60.3408 3.97935
23.8035 59.0728 2
25.0387 60.865 2
24.4335 62.7648 3.98006
26.8715 61.4914 0.0217686
26.2301 63.4741 2
25.5479 65.4893 3.98231
28.0627 64.1431 0.0189279
27.4635 66.1806 2
26.8368 68.3303 3.98657
29.4068 66.7559 0.0167337
28.9071 68.942 2
28.3697 71.2629 3.99156
31.0148 69.4158 0.0132333
30.6143 71.7779 2
30.1842 74.2788 4
32.8923 72.1466 0.00815296
32.6053 74.6792 2
35.0474 74.9194 0
31.7889 7.42218 3.98342
33.3481 4.9261 3.98883
33.7241 6.98042 2
35.2452 2.46324 3.99316
35.4354 4.68591 2
35.6215 6.72658 0.0145129
37.5 0 4
37.5146 2.38674 2
37.5237 4.61624 0.0104315
39.7893 2.47472 0.00674757
39.9526 0.0802889 2
42.3946 0.32156 0
42.4588 35.7106 3.6553
44.0889 35.5826 2
40.6224 34.2677 3.75217
42.139 34.1357 2
47.6725 37.7567 0.0685795
50.8092 35.5794 0.0241561
45.4821 35.1508 0.12354
43.2948 33.9015 0.242451
41.7936 33.0307 0.408651
47.8589 34.3052 2
44.6261 33.0485 2
42.264 32.3842 2
40.7538 32.7152 2
45.8754 31.6506 3.93009
43.3375 31.3163 3.85565
40.8724 31.3218 3.75986
39.2419 32.4425 3.64352
35.6936 11.7822 3.9794
37.3125 10.6318 2
37.4584 8.53671 0.0157997
38.9763 10.1297 0.0163713
33.0997 11.2242 3.97665
34.7543 10.3812 2
35.899 9.77698 0.0187731
30.4839 10.0236 3.97986
32.3779 9.3727 2
34.1518 8.82598 0.0173259
49.5226 31.4925 0.0129056
48.9671 27.6024 0.0247527
49.2314 24.5075 0.0227429
47.1444 22.0855 0.0159377
44.7872 18.5245 0.0224712
42.099 14.3067 0.0208814
38.3022 12.7419 0.0221929
36.5822 12.9349 2
47.3794 29.5739 2
38.6816 14.8147 2
41.7423 17.8803 2
46.9269 25.2522 2
44.2572 21.4456 2
45.2536 27.7285 4.00293
43.6918 24.1746 4.01035
41.3221 20.8502 3.98001
35.7738 14.7769 3.97731
38.6818 17.6271 3.97858
40.7669 37.4769 3.77971
42.5917 37.4862 2
44.3967 37.4908 0.228937
45.3593 55.9164 0.0105314
45.4315 52.4968 0.0168049
45.8809 48.8656 0.00851513
42.4713 39.2618 0.342565
43.3406 43.6815 0.144974
43.1771 45.9925 0.0926302
43.2466 48.3332 0.00230537
40.8716 43.6784 0.241904
40.617 40.7276 0.246479
39.242 42.568 0.355021
43.6865 54.4081 2
40.7021 39.1294 2
39.1118 40.7785 2
43.551 50.415 2
41.8425 47.5566 2
41.7794 45.1238 2
37.5035 42.668 2
39.3515 44.3929 2
41.8409 52.9414 3.99512
39.127 39.147 3.76633
37.5066 40.8453 3.76129
35.773 42.5759 3.64634
40.8541 49.5884 3.99684
39.7923 45.9168 3.84706
37.5044 44.5827 3.75904
42.0894 56.3017 0.0163803
40.3975 54.895 2
38.7202 53.7604 3.99639
35.6067 63.1945 0.0234363
38.2508 60.3153 0.0212027
38.9174 56.4762 0.00912747
35.364 60.8997 2
36.9343 57.6134 2
37.992 55.1932 2
36.3237 55.2802 3.99841
34.49 58.5056 3.98614
33.3456 61.504 0.0203834
28.6822 62.1961 0.0193719
31.0695 61.2121 0.0199457
32.3624 59.7347 2
29.409 60.2814 2
30.3157 57.8098 3.98432
28.0397 58.3665 2
26.9751 56.8197 3.97529
27.5764 59.5847 0.0191598
25.3929 58.5871 2
23.8696 56.7864 3.96189
21.356 57.3772 3.96722
22.0025 59.6101 3.97691
22.7734 58.2274 2
22.7385 62.015 3.97795
23.4067 60.3415 2
23.8026 59.0719 0.0211605
25.0381 60.8644 0.0211494
24.4337 62.7656 2
23.6822 64.7066 3.98162
26.23 63.4734 0.0199937
25.5479 65.4903 2
24.809 67.5914 3.98614
27.4635 66.1802 0.0165304
26.8367 68.3309 2
26.1649 70.6037 3.99158
28.9072 68.9419 0.0134355
28.3693 71.263 2
27.7943 73.7221 4
30.6148 71.7776 0.00841037
30.1841 74.2794 2
32.6054 74.6784 0
29.8116 7.99695 3.98232
31.2535 5.3331 3.98789
31.7885 7.42101 2
32.981 2.70153 3.99286
33.3477 4.92497 2
33.7244 6.98204 0.0152829
35.0474 0.080333 4
35.2448 2.46296 2
35.4356 4.68652 0.0105696
37.5 0 2
37.5149 2.3872 0.00672766
39.9526 0.0806499 0
40.7223 35.8345 3.76572
42.452 35.7137 2
44.0501 35.605 0.240289
28.5445 10.6989 3.97874
39.1048 34.2133 3.74519
40.6165 34.2832 2
42.1482 34.1466 0.359871
47.8414 34.3058 0.0412098
44.5975 33.0673 0.148414
42.2106 32.4209 0.22988
40.7374 32.7162 0.371333
45.9052 31.6314 2
43.3735 31.2843 2
40.9096 31.275 2
39.2444 32.4426 2
44.1537 29.8472 3.92445
41.7509 29.9087 3.86961
39.3399 30.6536 3.75683
37.5095 32.3559 3.67022
34.0948 12.9459 3.97552
35.6929 11.7756 2
37.3108 10.6342 0.0189945
31.1882 11.9944 3.97786
33.0996 11.223 2
34.7548 10.385 0.0186583
30.4824 10.0208 2
32.3788 9.37364 0.0197974
47.3645 29.6005 0.0160584
46.9193 25.2526 0.0212986
36.5833 12.9418 0.0241679
44.2618 21.4598 0.0214564
41.7449 17.8845 0.0214108
38.683 14.8242 0.0242349
35.7747 14.7827 2
45.2589 27.7275 2
38.6791 17.6288 2
41.317 20.8442 2
43.6954 24.1664 2
33.6113 15.8948 3.9772
42.8735 26.5805 3.99199
40.8546 23.4212 4.00558
38.4114 20.405 3.98525
35.8524 17.5307 3.97976
39.132 37.4894 3.78972
40.7541 37.4777 2
42.5932 37.4836 0.32439
43.6894 54.4085 0.00201393
43.5515 50.3981 -0.00450846
40.7157 39.1342 0.231702
41.7563 45.0892 0.129437
41.8517 47.534 0.0558267
39.3354 44.3511 0.242185
39.1098 40.7956 0.254249
37.5063 42.6634 0.329577
41.8373 52.939 2
39.1181 39.1343 2
37.5056 40.8241 2
40.855 49.6044 2
35.7695 42.5761 2
39.8114 45.9586 2
37.4971 44.619 2
39.7812 51.7998 4.001
37.5028 39.1567 3.79478
35.906 40.8085 3.74652
34.2757 42.2965 3.6297
35.6737 44.3629 3.75411
38.6676 48.5619 3.95845
37.5174 46.2078 3.86541
40.4012 54.8833 0.0181738
38.72 53.753 2
36.7463 53.0955 3.99831
35.3637 60.9002 0.0235137
36.9336 57.6126 0.0150935
37.9931 55.2035 0.0083628
34.4904 58.5047 2
36.3236 55.2822 2
33.2484 55.4681 3.99331
32.3616 59.7333 0.0114341
29.408 60.2817 0.0216205
30.3173 57.8095 2
28.7378 55.3066 3.97961
28.0384 58.3663 0.00867576
26.9761 56.8202 2
25.3635 55.1246 3.96724
21.851 55.3256 3.96383
25.3916 58.5862 0.0225665
23.87 56.789 2
20.2427 57.0064 3.97007
20.6576 58.761 3.97115
21.3563 57.3787 2
21.1711 61.1605 3.97689
22.0031 59.611 2
22.7727 58.2257 0.0311789
21.8962 63.8335 3.98028
22.7389 62.0157 2
23.4061 60.3408 0.0206541
24.4335 62.7648 0.019941
23.6823 64.7073 2
22.8374 66.7345 3.9851
25.5479 65.4893 0.0176872
24.8089 67.5923 2
24.0091 69.8048 3.99164
26.8368 68.3303 0.0134285
26.1643 70.6039 2
25.446 73.0099 4
28.3697 71.2629 0.00843874
27.7943 73.7222 2
30.1842 74.2788 0
27.8215 8.65654 3.982
29.1557 5.87946 3.98667
29.8108 7.99472 2
30.7263 3.09855 3.99257
31.2531 5.3321 2
31.7889 7.42218 0.0165763
32.6053 0.320823 4
32.9805 2.70099 2
33.3481 4.9261 0.0111732
35.0474 0.0802903 2
35.2452 2.46324 0.00683837
37.5 0 0
39.1244 35.844 3.76768
40.7052 35.8394 2
42.4588 35.7106 0.344702
28.5432 10.6978 2
26.6229 11.3951 3.97866
29.2273 12.6501 3.97892
37.5022 34.176 3.75997
39.1074 34.232 2
40.6224 34.2677 0.247828
45.8754 31.6506 0.0699059
43.3375 31.3163 0.144353
40.8724 31.3218 0.240144
39.2419 32.4425 0.356483
44.1601 29.8353 2
41.7709 29.8787 2
39.3502 30.6115 2
37.5113 32.3507 2
42.2019 28.5156 3.89464
39.7913 29.0786 3.8677
37.511 30.4318 3.75796
35.7779 32.4436 3.64487
31.9182 14.4945 3.97759
34.0953 12.9464 2
35.6936 11.7822 0.0206026
31.1871 11.9903 2
33.0997 11.2242 0.0233511
30.4839 10.0236 0.0201357
45.2536 27.7285 -0.00292599
43.6918 24.1746 -0.0103504
35.7738 14.7769 0.0226879
41.3221 20.8502 0.0199932
38.6818 17.6271 0.0214209
33.6096 15.8898 2
35.8488 17.5335 2
42.8823 26.5819 2
38.408 20.4053 2
40.8457 23.406 2
33.5559 17.4048 3.97876
40.3108 25.7925 3.97883
38.065 23.0884 3.99917
35.5834 20.1174 3.98335
37.5013 37.4996 3.81302
39.1236 37.488 2
40.7669 37.4769 0.220285
41.8409 52.9414 0.00487921
40.8541 49.5884 0.00315765
39.127 39.147 0.23367
39.7923 45.9168 0.152938
37.5044 44.5827 0.240959
37.5066 40.8453 0.238707
35.773 42.5759 0.353662
39.7803 51.8031 2
37.5036 39.144 2
35.903 40.7929 2
38.6795 48.6053 2
34.2616 42.2972 2
35.6553 44.4061 2
37.5187 46.2506 2
37.6608 50.856 4.00075
35.8843 39.1644 3.76749
34.3964 40.7495 3.7528
33.2153 41.9784 3.59428
34.1281 43.681 3.75851
35.1947 45.916 3.86057
36.9182 48.1818 3.92669
38.7202 53.7604 0.00360817
36.7431 53.0977 2
34.405 52.4071 3.99672
34.49 58.5056 0.0138619
36.3237 55.2802 0.00158502
33.2493 55.4724 2
30.5713 53.3325 3.98626
30.3157 57.8098 0.015677
28.7386 55.3076 2
26.9619 53.4195 3.97184
26.9751 56.8197 0.0247064
25.3639 55.1287 2
23.6621 53.4537 3.95848
20.5737 53.1873 3.96144
19.9674 55.808 3.96479
21.8496 55.3272 2
23.8696 56.7864 0.0381115
19.4546 57.8678 3.97018
20.2423 57.0078 2
19.7129 60.1868 3.975
20.6578 58.7614 2
21.356 57.3772 0.0327756
20.2095 62.8531 3.97714
21.1717 61.1624 2
22.0025 59.6101 0.0230928
20.9388 65.7629 3.98387
21.8963 63.8343 2
22.7385 62.015 0.0220518
23.6822 64.7066 0.0183849
22.8373 66.735 2
21.9116 68.8719 3.99129
24.809 67.5914 0.0138617
24.0083 69.805 2
23.1494 72.1454 4
26.1649 70.6037 0.00841603
25.446 73.0099 2
27.7943 73.7221 0
25.8606 9.3855 3.98098
27.0705 6.5435 3.98558
27.8204 8.65554 2
28.4886 3.64458 3.99199
29.1551 5.87803 2
29.8116 7.99695 0.0176776
30.1841 0.720592 4
30.7256 3.09814 2
31.2535 5.3331 0.0121092
32.6053 0.320817 2
32.981 2.70153 0.00714185
35.0474 0.080333 0
37.502 35.8489 3.79365
39.1123 35.8532 2
40.7223 35.8345 0.234284
24.778 12.0811 3.97832
23.7542 14.3711 3.97632
28.5445 10.6989 0.0212588
26.6219 11.3949 2
29.2263 12.649 2
27.2937 13.3835 3.97819
29.7844 14.2122 3.97858
35.9005 34.2135 3.74479
37.5043 34.1968 2
39.1048 34.2133 0.254813
37.5095 32.3559 0.329784
44.1537 29.8472 0.0755482
41.7509 29.9087 0.130391
39.3399 30.6536 0.243172
42.2231 28.4832 2
39.8042 29.0391 2
37.5145 30.3929 2
35.7772 32.4429 2
39.9705 27.7184 3.90163
37.4982 28.7989 3.86475
35.6794 30.666 3.76029
34.2854 32.7228 3.6293
30.9319 16.8558 3.97845
31.9171 14.4876 2
34.0948 12.9459 0.0244826
31.1882 11.9944 0.0221444
42.8735 26.5805 0.00801274
40.8546 23.4212 -0.00557871
33.6113 15.8948 0.0227951
35.8524 17.5307 0.0202407
38.4114 20.405 0.0147529
33.5511 17.4166 2
35.5833 20.1206 2
40.3245 25.7781 2
38.0521 23.077 2
32.8708 19.8086 3.99091
37.7643 25.3952 3.99139
35.1947 22.799 3.99488
35.8709 37.5037 3.7909
37.5009 37.4998 2
39.132 37.4894 0.210279
39.7812 51.7998 -0.000995407
38.6676 48.5619 0.041548
37.5028 39.1567 0.205222
37.5174 46.2078 0.134589
35.6737 44.3629 0.245887
35.906 40.8085 0.253481
34.2757 42.2965 0.370304
37.6487 50.878 2
35.8963 39.1527 2
34.3966 40.7357 2
36.8951 48.2262 2
33.1932 41.9961 2
34.1004 43.7248 2
35.1791 45.9511 2
35.5175 50.0257 3.99042
34.2974 39.1652 3.76782
32.859 40.8607 3.64257
32.7977 42.5897 3.77264
33.2588 45.0939 3.86638
34.3603 47.2887 3.90143
36.7463 53.0955 0.00168568
34.3983 52.4137 2
32.0944 51.1474 4.01331
33.2484 55.4681 0.00669037
30.5716 53.3359 2
28.5276 51.5542 3.98539
28.7378 55.3066 0.0203905
26.9617 53.423 2
25.202 51.7052 3.9553
25.3635 55.1246 0.0327608
23.6614 53.4566 2
22.1097 51.7603 3.95397
19.3622 51.5913 3.96204
18.9863 54.279 3.96264
20.5732 53.1866 2
18.4711 56.7013 3.9672
19.9662 55.8095 2
21.851 55.3256 0.0361671
18.3787 59.0902 3.96895
19.4544 57.8688 2
20.2427 57.0064 0.0299259
18.6224 61.7538 3.97422
19.7137 60.188 2
20.6576 58.761 0.028845
19.1279 64.6721 3.98235
20.2096 62.8542 2
21.1711 61.1605 0.0231147
19.8859 67.8085 3.99113
20.9386 65.7636 2
21.8962 63.8335 0.019716
22.8374 66.7345 0.0149027
21.9108 68.8716 2
20.9142 71.1327 4
24.0091 69.8048 0.00835597
23.1494 72.1455 2
25.446 73.0099 0
23.0975 12.797 3.97764
23.9732 10.1741 3.97988
25.0241 7.31425 3.98451
25.8597 9.38492 2
26.2804 4.32867 3.99145
27.0697 6.54276 2
27.8215 8.65654 0.0179958
27.7943 1.27781 4
28.4876 3.64418 2
29.1557 5.87946 0.0133342
30.1841 0.720551 2
30.7263 3.09855 0.00742591
32.6053 0.320823 0
35.8741 35.8465 3.76437
37.5033 35.8623 2
39.1244 35.844 0.232322
24.777 12.0796 2
23.7546 14.3719 2
22.4839 15.0492 3.97859
25.3601 13.9196 3.97629
24.0323 15.6347 3.97981
26.6229 11.3951 0.0213384
29.2273 12.6501 0.0210825
27.2936 13.3836 2
29.7823 14.2105 2
28.3632 15.9873 3.97818
34.3972 34.2766 3.75167
35.8973 34.2306 2
37.5022 34.176 0.240035
35.7779 32.4436 0.355134
37.511 30.4318 0.242042
42.2019 28.5156 0.105361
39.7913 29.0786 0.132305
39.9873 27.6868 2
37.4992 28.7581 2
35.6634 30.619 2
34.2673 32.7246 2
37.5734 27.4357 3.91192
35.2053 29.0952 3.86654
34.1366 31.3364 3.75851
33.2291 33.042 3.59326
30.2181 19.3762 3.98093
30.9295 16.8484 2
31.9182 14.4945 0.0224118
40.3108 25.7925 0.0211713
38.065 23.0884 0.000828147
33.5559 17.4048 0.0212436
35.5834 20.1174 0.016648
32.868 19.821 2
35.1875 22.7871 2
37.772 25.3819 2
32.3242 22.5134 3.99626
35.0254 25.3503 4.00055
34.2398 37.5127 3.78071
35.8794 37.5048 2
37.5013 37.4996 0.186985
37.6608 50.856 -0.000752789
36.9182 48.1818 0.0733147
35.8843 39.1644 0.232512
35.1947 45.916 0.139426
34.1281 43.681 0.24149
34.3964 40.7495 0.2472
33.2153 41.9784 0.405722
35.5047 50.0312 2
34.3137 39.1599 2
32.8636 40.8689 2
34.3541 47.3301 2
32.7591 42.6225 2
33.2411 45.1254 2
33.3405 49.0402 3.98106
32.5388 39.2901 3.65785
31.7079 41.1017 3.76047
31.6627 43.6909 3.85719
32.4364 46.2372 3.90079
34.405 52.4071 0.00327721
32.096 51.1573 2
30.0127 49.6894 3.99403
30.5713 53.3325 0.0137353
28.5263 51.5517 2
26.6704 49.9314 3.97018
26.9619 53.4195 0.0281643
25.2007 51.7035 2
23.5227 50.1307 3.96366
23.6621 53.4537 0.041522
22.1089 51.7585 2
20.6576 50.2609 3.96469
18.1709 50.2854 3.96792
17.9587 52.7553 3.96401
19.3606 51.5906 2
17.4805 55.3162 3.96252
18.9827 54.2792 2
20.5737 53.1873 0.0385626
17.1495 57.8533 3.96587
18.4705 56.7016 2
19.9674 55.808 0.0352125
17.1411 60.5307 3.97175
18.3788 59.0915 2
19.4546 57.8678 0.029817
17.4092 63.463 3.97787
18.6228 61.7544 2
19.7129 60.1868 0.0250002
17.9424 66.617 3.99006
19.1276 64.6729 2
20.2095 62.8531 0.0228595
18.75 69.9759 4
19.8849 67.8082 2
20.9388 65.7629 0.0161322
21.9116 68.8719 0.00870607
20.9142 71.1327 2
23.1494 72.1454 0
21.5892 13.6193 3.97728
22.1912 11.0346 3.97873
23.0974 12.7977 2
23.0418 8.18077 3.98349
23.9722 10.1728 2
24.118 5.14349 3.99089
25.0232 7.31354 2
25.8606 9.3855 0.0190233
25.446 1.99014 4
26.2792 4.3287 2
27.0705 6.5435 0.0144178
27.7943 1.27778 2
28.4886 3.64458 0.00800807
30.1841 0.720592 0
34.2937 35.8589 3.76812
35.8842 35.8589 2
37.502 35.8489 0.206348
21.3122 15.8469 3.98128
24.778 12.0811 0.0216832
23.7542 14.3711 0.0236836
25.36 13.9173 2
22.4847 15.0494 2
24.0326 15.6368 2
23.2743 16.2653 3.9752
25.3884 16.1054 3.97927
27.2937 13.3835 0.0218053
29.7844 14.2122 0.021418
28.3606 15.9912 2
27.4499 18.8285 3.9792
32.8638 34.1619 3.64393
34.4002 34.2928 2
35.9005 34.2135 0.255207
34.2854 32.7228 0.370705
35.6794 30.666 0.23971
37.4982 28.7989 0.135246
39.9705 27.7184 0.0983664
37.5755 27.3988 2
33.2063 33.0247 2
35.1981 29.0484 2
34.0994 31.2863 2
35.1022 27.5473 3.91064
33.2531 29.9213 3.86482
32.8117 32.4242 3.75885
29.6163 21.9765 3.99598
30.2165 19.3879 2
30.9319 16.8558 0.0215492
37.7643 25.3952 0.00860726
35.1947 22.799 0.00512024
32.8708 19.8086 0.00909208
32.3236 22.5041 2
35.0489 25.3383 2
31.8212 25.7433 4.00749
32.3993 37.5137 3.67825
34.2577 37.5119 2
35.8709 37.5037 0.209095
35.5175 50.0257 0.00958082
34.3603 47.2887 0.0985734
34.2974 39.1652 0.232182
33.2588 45.0939 0.133622
32.7977 42.5897 0.227364
32.859 40.8607 0.357429
33.3297 49.0401 2
32.553 39.2894 2
31.6734 41.1292 2
32.4036 46.2707 2
31.6294 43.7194 2
31.3384 47.8807 3.98403
30.9577 39.3982 3.76128
30.4043 41.9372 3.85416
30.6947 44.8444 3.92161
32.0944 51.1474 -0.0133083
30.0124 49.7023 2
28.1025 48.117 3.95913
28.5276 51.5542 0.0146101
26.6692 49.9297 2
24.883 48.3978 3.9722
25.202 51.7052 0.0447002
23.5222 50.1287 2
21.9072 48.7211 3.96991
22.1097 51.7603 0.0460272
20.6554 50.2598 2
19.2484 49.04 3.97202
17.0637 49.2915 3.97327
16.9104 51.371 3.96701
18.1732 50.2841 2
16.4606 53.8438 3.96451
17.9567 52.7551 2
19.3622 51.5913 0.0379581
15.9953 56.4581 3.96464
17.4774 55.3169 2
18.9863 54.279 0.0373569
15.7578 59.1939 3.9683
17.1497 57.854 2
18.4711 56.7013 0.0328046
15.7909 62.1282 3.97282
17.1415 60.5324 2
18.3787 59.0902 0.0310518
16.0896 65.2993 3.98889
17.4088 63.4644 2
18.6224 61.7538 0.0257787
16.6661 68.6801 4
17.9412 66.6163 2
19.1279 64.6721 0.0176458
18.75 69.9759 2
19.8859 67.8085 0.00886969
20.9142 71.1327 0
20.223 14.6112 3.976
21.5893 13.6194 2
20.5309 12.0063 3.97793
21.1446 9.15123 3.98261
22.1907 11.0347 2
23.0975 12.797 0.0223598
22.0171 6.08268 3.99029
23.0408 8.17974 2
23.9732 10.1741 0.020123
23.1494 2.85457 4
24.1166 5.14365 2
25.0241 7.31425 0.0154897
25.446 1.99012 2
26.2804 4.32867 0.00854714
27.7943 1.27781 0
32.5285 35.7353 3.65621
34.3106 35.8646 2
35.8741 35.8465 0.235627
21.3131 15.8462 2
20.3144 16.9793 3.97964
22.1065 16.6523 3.9719
25.3601 13.9196 0.0237147
22.4839 15.0492 0.0214145
24.0323 15.6347 0.0201945
25.3879 16.104 2
23.2748 16.2658 2
24.2162 18.4874 3.97329
27.0575 21.4992 3.99257
28.3632 15.9873 0.0218159
27.4501 18.827 2
31.7229 33.9299 3.75706
32.8715 34.1502 2
34.3972 34.2766 0.248333
33.2291 33.042 0.406744
34.1366 31.3364 0.241491
35.2053 29.0952 0.133459
37.5734 27.4357 0.0880827
35.104 27.5054 2
32.7422 32.3916 2
33.2381 29.901 2
32.6908 28.2504 3.9214
31.662 31.3373 3.85697
28.9317 24.4611 3.98291
29.6106 21.9872 2
30.2181 19.3762 0.0190695
35.0254 25.3503 -0.00054645
32.3242 22.5134 0.00374136
31.8214 25.7207 2
29.8407 27.3945 3.97629
30.5929 37.5118 3.7695
32.4114 37.5125 2
34.2398 37.5127 0.219293
33.3405 49.0402 0.0189432
32.4364 46.2372 0.0992105
32.5388 39.2901 0.342147
31.6627 43.6909 0.142807
31.7079 41.1017 0.239533
31.3353 47.8855 2
30.9118 39.4211 2
30.3764 41.9535 2
30.6696 44.8691 2
29.4766 46.489 3.99956
29.5111 39.854 3.87836
29.1076 43.0797 3.92211
30.0127 49.6894 0.00597437
28.0992 48.1124 2
26.2456 46.5767 3.97646
26.6704 49.9314 0.0298231
24.8824 48.3955 2
23.1152 46.9965 3.97493
23.5227 50.1307 0.0363366
21.9053 48.7201 2
20.2254 47.5584 3.97711
20.6576 50.2609 0.0353052
19.2501 49.0385 2
17.8688 48.1332 3.97647
16.3014 48.6471 3.97618
17.0651 49.2905 2
15.9905 50.1359 3.97071
15.47 52.3881 3.96649
16.9115 51.3702 2
18.1709 50.2854 0.0320804
14.9037 54.9592 3.96413
16.4611 53.8435 2
17.9587 52.7553 0.0359935
14.4702 57.7254 3.96626
15.9958 56.4582 2
17.4805 55.3162 0.0374763
14.2703 60.6824 3.97179
15.7583 59.1949 2
17.1495 57.8533 0.0341332
14.3349 63.8578 3.98499
15.7908 62.1299 2
17.1411 60.5307 0.0282494
14.6715 67.2507 4
16.0878 65.2983 2
17.4092 63.463 0.0221274
16.6661 68.6801 2
17.9424 66.617 0.00994113
18.75 69.9759 0
18.939 15.7979 3.97721
20.2235 14.6109 2
18.9815 13.1191 3.97612
21.5892 13.6193 0.022721
20.5307 12.0063 2
19.3439 10.2402 3.98161
19.9916 7.14739 3.98968
21.1439 9.15114 2
22.1912 11.0346 0.0212702
20.9142 3.86727 4
22.0153 6.08303 2
23.0418 8.18077 0.0165114
23.1494 2.85451 2
24.118 5.14349 0.00910939
25.446 1.99014 0
30.9768 35.6338 3.76098
32.5394 35.737 2
34.2937 35.8589 0.23188
21.3122 15.8469 0.0187203
22.1071 16.6526 2
20.3149 16.9777 2
19.2669 18.4292 3.97128
21.7942 17.8752 3.98033
25.3884 16.1054 0.0207268
23.2743 16.2653 0.0247972
24.2154 18.4894 2
22.3163 19.9281 3.96756
24.6393 21.3783 3.98784
26.5405 23.7675 3.97278
27.0563 21.494 2
27.4499 18.8285 0.0207971
30.4374 33.1001 3.86714
31.6963 33.8908 2
32.8638 34.1619 0.356073
32.8117 32.4242 0.241147
33.2531 29.9213 0.13518
35.1022 27.5473 0.0893557
32.6483 28.2211 2
31.6221 31.301 2
30.3792 29.6593 3.94256
28.0907 26.6055 3.98998
28.9251 24.4765 2
29.6163 21.9765 0.00402393
31.8212 25.7433 -0.00748979
29.8342 27.3667 2
29.1099 37.519 3.87607
30.5626 37.5122 2
32.3993 37.5137 0.321749
31.3384 47.8807 0.0159694
30.6947 44.8444 0.0783916
30.9577 39.3982 0.238716
30.4043 41.9372 0.14584
29.4757 46.502 2
29.4743 39.8734 2
29.0782 43.1102 2
27.6789 44.7967 3.9719
27.2817 40.5937 3.94832
28.1025 48.117 0.0408693
26.2411 46.5779 2
24.3801 45.1171 3.97609
24.883 48.3978 0.027796
23.1141 46.9964 2
21.2121 45.8249 3.97805
21.9072 48.7211 0.0300852
20.2242 47.557 2
18.5583 46.6848 3.97792
19.2484 49.04 0.0279798
17.87 48.1321 2
16.5133 47.6753 3.97713
16.3028 48.6463 2
15.3352 48.9838 3.9742
17.0637 49.2915 0.0267322
15.9923 50.1351 2
14.5899 50.9584 3.96883
13.8773 53.4166 3.96555
15.471 52.3876 2
16.9104 51.371 0.0329902
13.2658 56.1573 3.96607
14.9031 54.9593 2
16.4606 53.8438 0.0354927
12.8541 59.1168 3.97031
14.4712 57.7254 2
15.9953 56.4581 0.0353556
12.6807 62.2998 3.98191
14.2705 60.6829 2
15.7578 59.1939 0.0317017
12.7746 65.6939 4
14.3329 63.8556 2
15.7909 62.1282 0.0271791
14.6714 67.2507 2
16.0896 65.2993 0.0111131
16.6661 68.6801 0
17.6808 17.1755 3.97052
18.9395 15.7971 2
17.5143 14.3846 3.97538
20.223 14.6112 0.0239964
18.9816 13.1189 2
17.6397 11.4602 3.97997
20.5309 12.0063 0.0220681
19.3433 10.2401 2
18.0517 8.34049 3.98914
18.75 5.0241 4
19.9898 7.1485 2
21.1446 9.15123 0.0173857
20.9142 3.86727 2
22.0171 6.08268 0.00971353
23.1494 2.85457 0
29.5291 35.175 3.88035
30.9242 35.61 2
32.5285 35.7353 0.343786
22.1065 16.6523 0.0281014
20.3144 16.9793 0.0203593
21.7948 17.8734 2
19.267 18.4277 2
18.0288 19.9684 3.95956
20.9099 19.4057 3.97152
24.2162 18.4874 0.026712
22.3154 19.9279 2
24.6383 21.38 2
22.426 21.7612 3.97793
24.8086 23.2089 3.9742
25.6804 26.0001 3.97792
26.5418 23.7641 2
27.0575 21.4992 0.0074334
28.8161 32.4311 3.92584
30.3992 33.0766 2
31.7229 33.9299 0.242941
31.662 31.3373 0.143027
32.6908 28.2504 0.0786046
30.3705 29.6603 2
27.3357 29.1945 4.00709
28.0802 26.6171 2
28.9317 24.4611 0.0170852
29.8407 27.3945 0.0237056
27.3917 37.3682 3.92842
29.0493 37.5077 2
30.5929 37.5118 0.230496
29.4766 46.489 0.000437197
29.1076 43.0797 0.0778924
29.5111 39.854 0.121636
27.6685 44.8238 2
27.2615 40.5961 2
25.7098 43.1036 3.98829
24.5383 39.4537 3.97499
26.2456 46.5767 0.0235361
24.3711 45.1179 2
22.2666 43.8741 3.97767
23.1152 46.9965 0.0250719
21.2093 45.8245 2
19.2698 44.9178 3.97747
20.2254 47.5584 0.0228867
18.5586 46.6836 2
16.8401 46.1715 3.97704
17.8688 48.1332 0.0235258
16.5147 47.6745 2
15.0848 47.6388 3.97559
16.3014 48.6471 0.0238227
15.3371 48.983 2
13.8935 49.5213 3.97107
15.9905 50.1359 0.0292879
14.5908 50.9579 2
12.9502 51.8574 3.96696
12.1552 54.5192 3.96573
13.8773 53.4164 2
15.47 52.3881 0.0335134
11.5397 57.4515 3.96995
13.2663 56.1574 2
14.9037 54.9592 0.0358689
11.1355 60.6254 3.97973
12.8549 59.1163 2
14.4702 57.7254 0.0337425
10.9835 64.0165 4
12.6788 62.2967 2
14.2703 60.6824 0.0282125
12.7745 65.694 2
14.3349 63.8578 0.0150104
14.6715 67.2507 0
16.425 18.672 3.96425
17.6809 17.1745 2
16.108 15.7955 3.97237
18.939 15.7979 0.0227941
17.5144 14.3839 2
16.0218 12.815 3.97759
18.9815 13.1191 0.0238826
17.6393 11.4602 2
16.2028 9.66372 3.98852
19.3439 10.2402 0.0183923
18.0498 8.34198 2
16.6661 6.31991 4
18.75 5.02404 2
19.9916 7.14739 0.0103152
20.9142 3.86727 0
27.9251 34.8128 3.91873
29.4894 35.156 2
30.9768 35.6338 0.23902
16.7406 21.4039 3.96528
21.7942 17.8752 0.0196701
19.2669 18.4292 0.0287182
20.9097 19.4039 2
18.029 19.9676 2
19.799 21.609 3.96848
22.3163 19.9281 0.0324394
24.6393 21.3783 0.0121616
22.4255 21.7614 2
24.8081 23.2081 2
23.0202 24.6505 3.97326
24.8775 28.5843 3.97888
25.6759 25.9971 2
26.5405 23.7675 0.0272178
26.6652 31.7812 3.98102
28.7876 32.4082 2
30.4374 33.1001 0.13286
30.3792 29.6593 0.0574443
27.3561 29.1756 2
28.0907 26.6055 0.0100206
25.222 36.8594 3.98001
27.3799 37.3611 2
29.1099 37.519 0.123934
27.6789 44.7967 0.0280985
27.2817 40.5937 0.0516809
25.692 43.1176 2
24.5207 39.4544 2
23.432 41.8143 3.98026
22.2551 38.5225 3.97775
24.3801 45.1171 0.0239106
22.2657 43.8745 2
20.1047 42.8535 3.97663
21.2121 45.8249 0.0219513
19.2703 44.9179 2
17.2178 44.339 3.97678
18.5583 46.6848 0.0220815
16.8419 46.1707 2
15.0289 46.0595 3.97597
16.5133 47.6753 0.0228685
15.0863 47.6382 2
13.4141 47.985 3.97285
15.3352 48.9838 0.0258032
13.8947 49.5207 2
12.1751 50.2372 3.96817
14.5899 50.9584 0.0311683
12.9505 51.8571 2
11.1533 52.8301 3.96612
10.3304 55.7067 3.96969
12.1557 54.519 2
13.8773 53.4166 0.0344542
9.70213 58.8478 3.97875
11.5402 57.4512 2
13.2658 56.1573 0.0339315
9.30605 62.2254 4
11.1339 60.6219 2
12.8541 59.1168 0.0296919
10.9835 64.0165 2
12.6807 62.2998 0.0180893
12.7746 65.6939 0
15.1754 20.2047 3.96399
16.4252 18.6718 2
14.7601 17.3214 3.96596
17.6808 17.1755 0.0294836
16.1083 15.7944 2
14.4855 14.299 3.97466
17.5143 14.3846 0.0246173
16.0214 12.8147 2
14.4456 11.1152 3.98744
17.6397 11.4602 0.0200258
16.2009 9.66568 2
14.6715 7.74927 4
18.0517 8.34049 0.0108554
16.6661 6.31988 2
18.75 5.0241 0
25.8851 34.3051 3.98767
27.9024 34.8213 2
29.5291 35.175 0.119648
17.9518 22.356 3.97102
15.6135 22.9471 3.96803
16.7408 21.404 2
20.9099 19.4057 0.0284831
18.0288 19.9684 0.0404445
19.7992 21.6085 2
19.8536 24.431 3.97081
22.426 21.7612 0.0220662
24.8086 23.2089 0.0258031
23.018 24.6503 2
22.2445 27.8872 3.97331
24.2224 31.2591 3.97671
24.8901 28.5847 2
25.6804 26.0001 0.0220813
26.6473 31.7484 2
28.8161 32.4311 0.0741633
27.3357 29.1945 -0.0070917
22.9756 36.2888 3.98252
25.2076 36.8638 2
27.3917 37.3682 0.0715825
25.7098 43.1036 0.0117125
24.5383 39.4537 0.0250054
23.4203 41.8138 2
22.2466 38.5205 2
21.1479 40.6349 3.97547
20.5363 37.8036 3.97697
22.2666 43.8741 0.0223299
20.1032 42.8548 2
17.6803 42.066 3.97637
19.2698 44.9178 0.0225264
17.2193 44.3391 2
15.0655 44.1698 3.97624
16.8401 46.1715 0.0229552
15.0301 46.059 2
13.1052 46.2733 3.97407
15.0848 47.6388 0.0244066
13.4153 47.9844 2
11.5553 48.5351 3.96923
13.8935 49.5213 0.0289272
12.1758 50.2368 2
10.2813 51.075 3.9664
12.9502 51.8574 0.0330444
11.1539 52.8298 2
9.23903 53.8869 3.96958
8.38554 56.9812 3.97935
10.331 55.706 2
12.1552 54.5192 0.0342669
7.74927 60.3285 4
9.70087 58.8441 2
11.5397 57.4515 0.0300504
9.306 62.2255 2
11.1355 60.6254 0.0202737
10.9835 64.0165 0
14.0032 21.771 3.96491
15.1756 20.2047 2
13.4621 18.9157 3.96623
16.425 18.672 0.0357491
14.7607 17.321 2
13.0331 15.8961 3.97159
16.108 15.7955 0.027634
14.4849 14.2984 2
12.7834 12.6892 3.98523
16.0218 12.815 0.0224081
14.4437 11.1176 2
12.7746 9.30605 4
16.2028 9.66372 0.0114778
14.6715 7.74924 2
16.6661 6.31991 0
23.5626 33.8446 3.98382
25.8602 34.2973 2
27.9251 34.8128 0.0812712
17.7904 24.0829 3.9698
17.9534 22.3563 2
14.4473 24.4812 3.96976
15.6146 22.9474 2
16.7406 21.4039 0.0347196
19.3135 27.2592 3.97211
19.799 21.609 0.0315175
19.85 24.4309 2
21.586 30.7304 3.97551
23.0202 24.6505 0.0267407
22.2522 27.8889 2
24.2012 31.259 2
24.8775 28.5843 0.0211209
26.6652 31.7812 0.0189842
20.6578 35.9551 3.97669
22.9759 36.2882 2
25.222 36.8594 0.0199874
23.432 41.8143 0.0197436
22.2551 38.5225 0.0222517
21.1539 40.6348 2
20.5352 37.8021 2
18.4256 39.0039 3.97721
20.1047 42.8535 0.0233673
17.6808 42.0661 2
15.0493 41.8918 3.97679
17.2178 44.339 0.023221
15.0668 44.1693 2
12.8677 44.3723 3.97495
15.0289 46.0595 0.0240272
13.1068 46.2729 2
11.0668 46.7201 3.97006
13.4141 47.985 0.0271457
11.5561 48.5348 2
9.54719 49.2353 3.96651
12.1751 50.2372 0.031825
10.2818 51.0746 2
8.27185 52.0009 3.96932
11.1533 52.8301 0.0338826
9.23958 53.8861 2
7.19448 55.0322 3.98029
6.31991 58.3339 4
8.38463 56.9775 2
10.3304 55.7067 0.0303058
7.74924 60.3285 2
9.70213 58.8478 0.0212504
9.30605 62.2254 0
13.3367 25.3872 3.97275
12.8946 23.3006 3.96713
14.0023 21.7708 2
12.2484 20.5607 3.96632
15.1754 20.2047 0.0360111
13.4634 18.9157 2
11.6643 17.5747 3.97068
14.7601 17.3214 0.0340354
13.0338 15.895 2
11.2217 14.3754 3.9806
14.4855 14.299 0.0253449
12.7812 12.6919 2
10.9835 10.9835 4
14.4456 11.1152 0.0125599
12.7745 9.306 2
14.6715 7.74927 0
21.021 33.4518 3.97586
23.5624 33.8428 2
25.8851 34.3051 0.0123339
16.1128 26.4416 3.97215
17.7907 24.0831 2
17.9518 22.356 0.0289808
14.4474 24.4816 2
15.6135 22.9471 0.0319727
18.699 30.2283 3.9748
19.3111 27.2595 2
19.8536 24.431 0.0291859
21.5904 30.7309 2
22.2445 27.8872 0.0266913
24.2224 31.2591 0.0232924
18.0377 35.9865 3.97797
20.659 35.956 2
22.9756 36.2888 0.0174809
21.1479 40.6349 0.0245328
20.5363 37.8036 0.0230342
18.4237 39.0037 2
14.5562 39.1695 3.97747
17.6803 42.066 0.0236315
15.0504 41.8915 2
12.5619 42.2626 3.97608
15.0655 44.1698 0.0237562
12.8691 44.3719 2
10.6536 44.7907 3.97103
13.1052 46.2733 0.0259318
11.0678 46.7198 2
8.93205 47.3148 3.96665
11.5553 48.5351 0.0307687
9.54735 49.235 2
7.43869 50.0346 3.96893
10.2813 51.075 0.0336039
8.27224 52.0001 2
6.13512 53.0074 3.98065
9.23903 53.8869 0.0304244
7.19393 55.0292 2
5.0241 56.25 4
6.31988 58.3339 2
8.38554 56.9812 0.020645
7.74927 60.3285 0
13.6035 26.8414 3.9722
12.0048 24.8053 3.96902
13.336 25.3875 2
11.1592 22.2435 3.96598
12.895 23.3009 2
14.0032 21.771 0.0350889
12.2494 20.5608 2
10.3954 19.3262 3.96985
13.4621 18.9157 0.0337735
11.6654 17.5748 2
9.7627 16.1592 3.97883
13.0331 15.8961 0.028415
11.2197 14.3793 2
9.30607 12.7746 4
12.7834 12.6892 0.0147749
10.9835 10.9835 2
12.7746 9.30605 0
18.2102 33.1592 3.97699
21.0217 33.4536 2
23.5626 33.8446 0.016177
15.737 29.6757 3.97484
16.1124 26.4422 2
17.7904 24.0829 0.030205
14.4473 24.4812 0.0302421
18.698 30.2289 2
19.3135 27.2592 0.0278886
21.586 30.7304 0.0244859
15.176 36.0358 3.97767
18.038 35.9863 2
20.6578 35.9551 0.0233127
12.791 37.8312 3.97773
18.4256 39.0039 0.0227877
14.5568 39.1693 2
12.065 40.1338 3.97693
15.0493 41.8918 0.0232089
12.5631 42.2622 2
10.2596 42.7689 3.97119
12.8677 44.3723 0.0250516
10.6545 44.7905 2
8.411 45.3172 3.96702
11.0668 46.7201 0.0299401
8.93179 47.3145 2
6.72984 47.9999 3.96865
9.54719 49.2353 0.0334925
7.43893 50.0339 2
5.21192 50.9109 3.98036
8.27185 52.0009 0.0306822
6.13485 53.0055 2
3.86727 54.0858 4
7.19448 55.0322 0.0197111
5.02404 56.25 2
6.31991 58.3339 0
13.0805 29.0586 3.97194
11.4492 26.5047 3.96946
13.6031 26.8417 2
10.2202 23.975 3.96671
12.0061 24.8057 2
13.3367 25.3872 0.027248
9.24762 21.1423 3.9694
11.1596 22.2436 2
12.8946 23.3006 0.0328727
12.2484 20.5607 0.0336775
10.3966 19.3266 2
8.41836 18.0301 3.97895
11.6643 17.5747 0.0293242
9.76125 16.1638 2
7.74928 14.6715 4
11.2217 14.3754 0.0194036
9.30602 12.7745 2
10.9835 10.9835 0
14.7301 32.8929 3.97694
18.2084 33.1589 2
21.021 33.4518 0.024144
15.7384 29.6764 2
16.1128 26.4416 0.0278465
18.699 30.2283 0.0252002
13.0837 36.2194 3.97725
15.176 36.0357 2
18.0377 35.9865 0.0220309
12.7929 37.8308 2
11.4087 38.3092 3.97696
14.5562 39.1695 0.0225343
12.0674 40.1334 2
9.84403 40.7488 3.97163
12.5619 42.2626 0.023925
10.2612 42.7686 2
7.96108 43.2668 3.96743
10.6536 44.7907 0.0289699
8.41132 45.3169 2
6.13587 45.9051 3.96853
8.93205 47.3148 0.0333497
6.73004 47.9993 2
4.4234 48.7515 3.97975
7.43869 50.0346 0.03107
5.21183 50.9098 2
2.85457 51.8506 4
6.13512 53.0074 0.0193454
3.86727 54.0858 2
5.0241 56.25 0
12.2242 31.2775 3.97307
10.8711 28.4312 3.96974
13.0818 29.0591 2
9.43791 25.8044 3.96706
11.4499 26.505 2
13.6035 26.8414 0.0278005
8.23434 23.0256 3.96932
10.2206 23.9753 2
12.0048 24.8053 0.0309849
7.20044 19.9796 3.97973
9.2487 21.1429 2
11.1592 22.2435 0.0340157
10.3954 19.3262 0.0301482
8.41752 18.0345 2
6.31992 16.6661 4
9.7627 16.1592 0.0211718
7.74926 14.6714 2
9.30607 12.7746 0
12.2503 34.3105 3.97712
14.7313 32.8937 2
18.2102 33.1592 0.0230051
15.737 29.6757 0.0251583
10.959 36.6156 3.97654
13.0851 36.2194 2
15.176 36.0358 0.0223329
12.791 37.8312 0.02227
11.4113 38.309 2
9.43076 38.8216 3.97218
12.065 40.1338 0.0230721
9.84525 40.7485 2
7.57204 41.2094 3.96791
10.2596 42.7689 0.0288103
7.96042 43.2666 2
5.64762 43.7681 3.9686
8.411 45.3172 0.0329791
6.13603 45.9046 2
3.76895 46.5371 3.97936
6.72984 47.9999 0.0313486
4.42351 48.7509 2
1.99014 49.554 4
5.21192 50.9109 0.0196368
2.85451 51.8506 2
3.86727 54.0858 0
11.0483 32.9332 3.97496
10.1871 30.3959 3.97028
12.2259 31.278 2
8.74978 27.7378 3.96717
10.872 28.4315 2
13.0805 29.0586 0.0280608
7.35973 24.9839 3.96907
9.43798 25.8047 2
11.4492 26.5047 0.0305407
6.11737 22.0026 3.98052
8.23502 23.0262 2
10.2202 23.975 0.033294
5.02411 18.75 4
7.20007 19.983 2
9.24762 21.1423 0.0306042
8.41836 18.0301 0.0210453
6.3199 16.6661 2
7.74928 14.6715 0
10.559 35.0079 3.97588
12.2526 34.311 2
14.7301 32.8929 0.0230614
9.0932 36.9863 3.97284
10.9611 36.6156 2
13.0837 36.2194 0.0227538
11.4087 38.3092 0.023044
9.43217 38.8214 2
7.24916 39.1815 3.9683
9.84403 40.7488 0.0283666
7.57215 41.2092 2
5.26259 41.6139 3.96866
7.96108 43.2668 0.0325737
5.64773 43.7677 2
3.24662 44.2818 3.97945
6.13587 45.9051 0.0314721
3.76915 46.5367 2
1.27781 47.2057 4
4.4234 48.7515 0.020247
1.99012 49.554 2
2.85457 51.8506 0
10.1961 33.8911 3.97587
9.46882 32.1645 3.97118
11.0503 32.9336 2
8.09689 29.7004 3.96753
10.1884 30.3962 2
12.2242 31.2775 0.0269276
6.60324 27.0095 3.96892
8.74937 27.738 2
10.8711 28.4312 0.0302566
5.17274 24.0952 3.98045
7.36009 24.9844 2
9.43791 25.8044 0.0329433
3.86728 20.9142 4
6.11724 22.0046 2
8.23434 23.0256 0.030679
5.02406 18.75 2
7.20044 19.9796 0.020266
6.31992 16.6661 0
8.91404 35.2837 3.973
10.5605 35.0081 2
12.2503 34.3105 0.0228839
7.02837 37.2065 3.96827
9.09442 36.9862 2
10.959 36.6156 0.0234566
9.43076 38.8216 0.0278214
7.24963 39.1814 2
4.99017 39.4674 3.96882
7.57204 41.2094 0.0320932
5.26306 41.6136 2
2.85699 42.0021 3.97955
5.64762 43.7681 0.0313983
3.24669 44.2816 2
0.720592 44.8159 4
3.76895 46.5371 0.0206417
1.27778 47.2057 2
1.99014 49.554 0
8.95511 33.7045 3.97247
10.1977 33.8913 2
7.53131 31.6128 3.9679
9.47028 32.1648 2
11.0483 32.9332 0.0250428
5.94815 29.0703 3.96901
8.09634 29.7006 2
10.1871 30.3959 0.0297168
4.36038 26.2476 3.97998
6.6034 27.0099 2
8.74978 27.7378 0.0328314
2.85458 23.1494 4
5.17275 24.0961 2
7.35973 24.9839 0.0309265
3.86728 20.9142 2
6.11737 22.0026 0.0194771
5.02411 18.75 0
6.9766 35.3076 3.96823
8.91527 35.2837 2
10.559 35.0079 0.0241222
4.84029 37.3399 3.96919
7.02895 37.2064 2
9.0932 36.9863 0.0271589
7.24916 39.1815 0.0316994
4.99063 39.4672 2
2.60502 39.7137 3.97954
5.26259 41.6139 0.0313449
2.85736 42.002 2
0.320823 42.3947 4
3.24662 44.2818 0.0205515
0.720551 44.8159 2
1.27781 47.2057 0
7.14042 33.4634 3.96814
8.95606 33.7047 2
10.1961 33.8911 0.0241284
5.41871 31.134 3.96931
7.53117 31.613 2
9.46882 32.1645 0.0288225
3.68199 28.4435 3.97964
5.9483 29.0707 2
8.09689 29.7004 0.0324746
1.99015 25.446 4
4.36047 26.2479 2
6.60324 27.0095 0.0310776
2.85453 23.1494 2
5.17274 24.0952 0.0195542
3.86728 20.9142 0
4.85461 35.2517 3.96926
6.97664 35.3076 2
8.91404 35.2837 0.0270044
2.49646 37.4284 3.98023
4.84032 37.34 2
7.02837 37.2065 0.0317286
4.99017 39.4674 0.0311838
2.60547 39.7141 2
0.080333 39.9526 4
2.85699 42.0021 0.0204458
0.320817 42.3947 2
0.720592 44.8159 0
5.04798 33.1905 3.96935
7.14037 33.4635 2
8.95511 33.7045 0.0275325
3.14618 30.6662 3.97972
5.41886 31.1344 2
7.53131 31.6128 0.0320951
1.27793 27.7943 4
3.68221 28.4437 2
5.94815 29.0703 0.0309911
1.99013 25.446 2
4.36038 26.2476 0.0200224
2.85458 23.1494 0
2.54856 35.159 3.98
4.85518 35.252 2
6.9766 35.3076 0.0317704
0 37.5 4
2.49649 37.4288 2
4.84029 37.3399 0.0308131
2.60502 39.7137 0.0204601
0.0802903 39.9526 2
0.320823 42.3947 0
2.76618 32.9057 3.98018
5.04815 33.1908 2
7.14042 33.4634 0.0318636
0.721173 30.1842 4
3.14642 30.6666 2
5.41871 31.134 0.0306904
1.27779 27.7943 2
3.68199 28.4435 0.020358
1.99015 25.446 0
0.0806499 35.0474 4
2.5491 35.1594 2
4.85461 35.2517 0.030744
0 37.5 2
2.49646 37.4284 0.0197749
0.080333 39.9526 0
0.32156 32.6054 4
2.76629 32.9063 2
5.04798 33.1905 0.0306521
0.72056 30.1841 2
3.14618 30.6662 0.0202807
1.27793 27.7943 0
0.0802889 35.0474 2
2.54856 35.159 0.0199962
0 37.5 0
0.320817 32.6053 2
2.76618 32.9057 0.0198236
0.721173 30.1842 0
0.0806499 35.0474 0
0.32156 32.6054 0
CELLS 1910 17190
8 18 6 25 56 2 0 5 16
8 57 23 6 18 17 4 0 2
8 78 36 9 29 31 11 1 7
8 31 11 1 7 79 37 10 30
8 110 57 18 50 48 17 2 14
8 50 18 56 111 14 2 16 49
8 116 62 22 55 52 20 3 15
8 56 25 67 118 16 5 24 53
8 119 63 23 57 54 21 4 17
8 55 22 63 119 15 3 21 54
8 58 26 68 121 18 6 25 56
8 122 65 26 58 57 23 6 18
8 73 31 7 27 142 79 30 71
8 143 78 29 72 73 31 7 27
8 83 147 76 34 32 74 28 8
8 84 148 78 36 33 75 29 9
8 76 34 8 28 148 84 33 75
8 37 79 150 86 10 30 77 35
8 151 87 36 78 80 38 11 31
8 80 38 11 31 152 88 37 79
8 175 100 42 94 96 44 12 40
8 44 96 176 101 12 40 95 43
8 101 176 98 46 43 95 41 13
8 46 98 178 103 13 41 97 45
8 178 103 45 97 147 83 32 74
8 189 116 55 109 106 52 15 47
8 111 56 118 191 49 16 53 107
8 192 119 57 110 108 54 17 48
8 109 55 119 192 47 15 54 108
8 194 122 58 112 110 57 18 50
8 112 58 121 195 50 18 56 111
8 115 61 19 51 197 124 59 113
8 115 61 125 198 51 19 60 114
8 198 125 62 116 114 60 20 52
8 200 127 64 120 116 62 22 55
8 118 67 132 202 53 24 66 117
8 121 68 133 203 56 25 67 118
8 120 64 128 204 55 22 63 119
8 204 128 65 122 119 63 23 57
8 206 134 68 121 123 69 26 58
8 123 69 26 58 207 131 65 122
8 226 147 74 138 140 76 28 70
8 229 148 75 139 143 78 29 72
8 140 76 28 70 229 148 75 139
8 142 79 30 71 231 150 77 141
8 144 80 31 73 232 152 79 142
8 233 151 78 143 144 80 31 73
8 150 86 35 77 235 154 81 145
8 235 154 81 145 146 82 39 91
8 146 82 39 91 236 155 90 165
8 238 157 83 147 149 85 34 76
8 239 158 84 148 151 87 36 78
8 149 85 34 76 239 158 84 148
8 152 88 37 79 241 160 86 150
8 242 161 87 151 153 89 38 80
8 153 89 38 80 243 162 88 152
8 171 98 41 92 265 178 97 169
8 265 178 97 169 226 147 74 138
8 172 96 40 93 266 176 95 170
8 266 176 95 170 171 98 41 92
8 269 175 94 173 172 96 40 93
8 271 180 99 174 175 100 42 94
8 197 124 59 113 271 180 99 174
8 272 181 100 175 177 102 44 96
8 273 182 101 176 179 104 46 98
8 177 102 44 96 273 182 101 176
8 179 104 46 98 275 184 103 178
8 275 184 103 178 238 157 83 147
8 188 115 51 105 283 197 113 186
8 188 115 198 284 105 51 114 187
8 284 198 116 189 187 114 52 106
8 286 200 120 193 189 116 55 109
8 191 118 202 288 107 53 117 190
8 195 121 203 289 111 56 118 191
8 193 120 204 290 109 55 119 192
8 290 204 122 194 192 119 57 110
8 196 123 58 112 292 207 122 194
8 293 206 121 195 196 123 58 112
8 199 126 61 115 297 211 124 197
8 298 212 127 200 198 125 62 116
8 199 126 212 298 115 61 125 198
8 205 129 64 120 300 214 127 200
8 301 217 130 201 202 132 66 117
8 209 136 168 264 301 217 130 201
8 302 219 132 202 203 133 67 118
8 303 220 133 203 206 134 68 121
8 205 129 215 304 120 64 128 204
8 304 215 131 207 204 128 65 122
8 306 221 134 206 208 135 69 123
8 208 135 69 123 307 218 131 207
8 210 137 167 263 309 223 136 209
8 328 238 147 226 230 149 76 140
8 228 146 91 166 329 236 165 260
8 231 150 77 141 330 235 145 227
8 330 235 145 227 228 146 91 166
8 332 239 148 229 233 151 78 143
8 230 149 76 140 332 239 148 229
8 232 152 79 142 334 241 150 231
8 234 153 80 144 335 243 152 232
8 336 242 151 233 234 153 80 144
8 236 155 90 165 338 245 164 259
8 241 160 86 150 339 246 154 235
8 339 246 154 235 237 156 82 146
8 237 156 82 146 340 247 155 236
8 342 249 157 238 240 159 85 149
8 343 250 158 239 242 161 87 151
8 240 159 85 149 343 250 158 239
8 243 162 88 152 345 252 160 241
8 244 163 253 346 153 89 161 242
8 244 163 89 153 347 254 162 243
8 311 224 261 371 210 137 167 263
8 263 167 262 372 209 136 168 264
8 267 179 98 171 375 275 178 265
8 375 275 178 265 328 238 147 226
8 376 273 176 266 267 179 98 171
8 268 177 96 172 376 273 176 266
8 379 272 175 269 268 177 96 172
8 380 271 174 270 269 175 94 173
8 283 197 113 186 380 271 174 270
8 381 277 180 271 272 181 100 175
8 297 211 124 197 381 277 180 271
8 382 278 181 272 274 183 102 177
8 274 183 102 177 383 279 182 273
8 383 279 182 273 276 185 104 179
8 385 281 184 275 342 249 157 238
8 276 185 104 179 385 281 184 275
8 285 199 115 188 393 297 197 283
8 394 298 200 286 284 198 116 189
8 285 199 298 394 188 115 198 284
8 291 205 120 193 396 300 200 286
8 397 301 201 287 288 202 117 190
8 295 209 264 374 397 301 201 287
8 398 302 202 288 289 203 118 191
8 399 303 203 289 293 206 121 195
8 291 205 304 400 193 120 204 290
8 400 304 207 292 290 204 122 194
8 294 208 123 196 402 307 207 292
8 403 306 206 293 294 208 123 196
8 296 210 263 373 405 309 209 295
8 408 312 213 299 297 211 126 199
8 299 213 313 409 199 126 212 298
8 409 313 214 300 298 212 127 200
8 305 216 129 205 411 315 214 300
8 412 318 217 301 302 219 132 202
8 309 223 136 209 412 318 217 301
8 413 320 219 302 303 220 133 203
8 306 221 321 414 206 134 220 303
8 307 218 131 207 415 316 215 304
8 305 216 316 415 205 129 215 304
8 417 322 221 306 308 222 135 208
8 308 222 135 208 418 319 218 307
8 310 225 137 210 420 325 223 309
8 423 326 224 311 310 225 137 210
8 329 236 165 260 441 338 259 368
8 442 342 238 328 333 240 149 230
8 331 237 146 228 443 340 236 329
8 334 241 150 231 444 339 235 330
8 444 339 235 330 331 237 146 228
8 446 343 239 332 336 242 151 233
8 333 240 149 230 446 343 239 332
8 335 243 152 232 448 345 241 334
8 337 244 153 234 449 347 243 335
8 337 244 346 450 234 153 242 336
8 338 245 164 259 452 349 258 367
8 340 247 155 236 453 350 245 338
8 345 252 160 241 454 351 246 339
8 454 351 246 339 341 248 156 237
8 341 248 156 237 455 352 247 340
8 240 159 251 344 342 249 354 457
8 242 161 253 346 343 250 355 458
8 343 250 355 458 240 159 251 344
8 347 254 162 243 460 357 252 345
8 348 255 358 461 244 163 253 346
8 348 255 163 244 462 359 254 347
8 473 360 257 365 363 256 364 482
8 452 349 258 367 365 257 366 485
8 422 324 369 488 311 224 261 371
8 371 261 370 490 263 167 262 372
8 407 311 371 491 296 210 263 373
8 373 263 372 492 295 209 264 374
8 493 385 275 375 442 342 238 328
8 377 276 179 267 493 385 275 375
8 378 274 177 268 494 383 273 376
8 494 383 273 376 377 276 179 267
8 497 382 272 379 378 274 177 268
8 498 381 271 380 379 272 175 269
8 393 297 197 283 498 381 271 380
8 499 387 277 381 382 278 181 272
8 408 312 211 297 499 387 277 381
8 500 388 278 382 384 280 183 274
8 501 389 279 383 386 282 185 276
8 384 280 183 274 501 389 279 383
8 386 282 185 276 503 391 281 385
8 503 391 281 385 457 354 249 342
8 511 408 299 395 393 297 199 285
8 395 299 409 512 285 199 298 394
8 512 409 300 396 394 298 200 286
8 401 305 205 291 514 411 300 396
8 515 412 301 397 398 302 202 288
8 405 309 209 295 515 412 301 397
8 516 413 302 398 399 303 203 289
8 403 306 414 517 293 206 303 399
8 402 307 207 292 518 415 304 400
8 401 305 415 518 291 205 304 400
8 404 308 208 294 520 418 307 402
8 521 417 306 403 404 308 208 294
8 406 310 210 296 523 420 309 405
8 526 423 311 407 406 310 210 296
8 410 314 213 299 527 424 312 408
8 528 425 315 411 409 313 214 300
8 410 314 425 528 299 213 313 409
8 416 317 216 305 530 427 315 411
8 531 430 318 412 413 320 219 302
8 420 325 223 309 531 430 318 412
8 532 432 320 413 414 321 220 303
8 417 322 433 533 306 221 321 414
8 418 319 218 307 534 428 316 415
8 416 317 428 534 305 216 316 415
8 419 323 434 536 308 222 322 417
8 419 323 222 308 537 431 319 418
8 421 327 225 310 539 438 325 420
8 421 327 439 541 310 225 326 423
8 543 437 324 422 423 326 224 311
8 441 338 259 368 559 452 367 486
8 443 340 236 329 560 453 338 441
8 333 240 344 447 442 342 457 561
8 445 341 237 331 562 455 340 443
8 448 345 241 334 563 454 339 444
8 563 454 339 444 445 341 237 331
8 336 242 346 450 446 343 458 565
8 446 343 458 565 333 240 344 447
8 449 347 243 335 567 460 345 448
8 451 348 244 337 568 462 347 449
8 451 348 461 569 337 244 346 450
8 570 463 349 452 473 360 257 365
8 453 350 245 338 570 463 349 452
8 455 352 247 340 571 464 350 453
8 460 357 252 345 572 465 351 454
8 572 465 351 454 456 353 248 341
8 456 353 248 341 573 466 352 455
8 344 251 356 459 457 354 468 575
8 458 355 469 576 344 251 356 459
8 346 253 358 461 458 355 469 576
8 462 359 254 347 578 471 357 460
8 348 255 359 462 461 358 472 579
8 591 474 360 473 475 361 256 363
8 475 361 256 363 594 477 362 479
8 363 256 364 482 479 362 480 603
8 590 473 365 484 481 363 482 605
8 482 364 257 365 606 483 366 485
8 559 452 367 486 484 365 485 607
8 542 436 487 609 422 324 369 488
8 525 422 488 611 407 311 371 491
8 488 369 489 612 371 261 370 490
8 491 371 490 613 373 263 372 492
8 495 386 276 377 614 503 385 493
8 614 503 385 493 561 457 342 442
8 615 501 383 494 495 386 276 377
8 496 384 274 378 615 501 383 494
8 618 500 382 497 496 384 274 378
8 619 499 381 498 497 382 272 379
8 511 408 297 393 619 499 381 498
8 620 505 387 499 500 388 278 382
8 527 424 312 408 620 505 387 499
8 502 390 506 621 384 280 388 500
8 622 507 389 501 504 392 282 386
8 502 390 280 384 622 507 389 501
8 504 392 282 386 624 509 391 503
8 624 509 391 503 575 468 354 457
8 513 410 299 395 630 527 408 511
8 631 528 411 514 512 409 300 396
8 513 410 528 631 395 299 409 512
8 519 416 305 401 633 530 411 514
8 634 531 412 515 516 413 302 398
8 523 420 309 405 634 531 412 515
8 635 532 413 516 517 414 303 399
8 521 417 533 636 403 306 414 517
8 520 418 307 402 637 534 415 518
8 519 416 534 637 401 305 415 518
8 522 419 308 404 639 537 418 520
8 522 419 536 640 404 308 417 521
8 524 421 310 406 642 539 420 523
8 524 421 541 644 406 310 423 526
8 646 543 422 525 526 423 311 407
8 529 426 314 410 647 544 424 527
8 528 425 545 648 411 315 427 530
8 529 426 545 648 410 314 425 528
8 535 429 317 416 649 546 427 530
8 650 548 430 531 532 432 320 413
8 539 438 325 420 650 548 430 531
8 533 433 550 651 414 321 432 532
8 536 434 551 652 417 322 433 533
8 537 431 319 418 653 547 428 534
8 535 429 547 653 416 317 428 534
8 538 435 552 654 419 323 434 536
8 538 435 323 419 655 549 431 537
8 540 440 327 421 657 556 438 539
8 540 440 557 659 421 327 439 541
8 541 439 555 660 423 326 437 543
8 661 554 436 542 543 437 324 422
8 676 570 452 559 590 473 365 484
8 560 453 338 441 676 570 452 559
8 562 455 340 443 677 571 453 560
8 447 344 459 566 561 457 575 678
8 564 456 341 445 679 573 455 562
8 567 460 345 448 680 572 454 563
8 680 572 454 563 564 456 341 445
8 565 458 576 682 447 344 459 566
8 450 346 461 569 565 458 576 682
8 568 462 347 449 684 578 460 567
8 451 348 462 568 569 461 579 685
8 686 580 463 570 591 474 360 473
8 571 464 350 453 686 580 463 570
8 573 466 352 455 687 581 464 571
8 572 465 582 688 460 357 471 578
8 574 467 582 688 456 353 465 572
8 574 467 353 456 689 583 466 573
8 459 356 470 577 575 468 585 691
8 576 469 586 692 459 356 470 577
8 461 358 472 579 576 469 586 692
8 462 359 471 578 579 472 588 694
8 704 591 473 590 593 475 363 481
8 595 476 592 705 475 361 474 591
8 593 475 363 481 707 594 479 602
8 594 477 362 479 709 598 478 600
8 595 476 361 475 711 597 477 594
8 479 362 480 603 600 478 601 720
8 481 363 482 605 602 479 603 722
8 603 480 364 482 723 604 483 606
8 605 482 365 484 724 606 485 607
8 656 553 608 726 542 436 487 609
8 645 542 609 728 525 422 488 611
8 609 487 610 729 488 369 489 612
8 611 488 612 730 491 371 490 613
8 616 504 386 495 731 624 503 614
8 731 624 503 614 678 575 457 561
8 732 622 501 615 616 504 386 495
8 617 502 384 496 732 622 501 615
8 617 502 621 735 496 384 500 618
8 736 620 499 619 618 500 382 497
8 630 527 408 511 736 620 499 619
8 621 506 626 737 500 388 505 620
8 647 544 424 527 737 626 505 620
8 623 508 627 738 502 390 506 621
8 623 508 390 502 739 628 507 622
8 625 510 628 739 504 392 507 622
8 740 629 509 624 691 585 468 575
8 625 510 392 504 740 629 509 624
8 632 529 410 513 744 647 527 630
8 631 528 648 745 514 411 530 633
8 632 529 648 745 513 410 528 631
8 638 535 416 519 746 649 530 633
8 747 650 531 634 635 532 413 516
8 642 539 420 523 747 650 531 634
8 636 533 651 748 517 414 532 635
8 640 536 652 749 521 417 533 636
8 639 537 418 520 750 653 534 637
8 638 535 653 750 519 416 534 637
8 641 538 419 522 751 655 537 639
8 641 538 654 752 522 419 536 640
8 643 540 421 524 753 657 539 642
8 643 540 659 755 524 421 541 644
8 644 541 660 757 526 423 543 646
8 758 661 542 645 646 543 422 525
8 529 426 544 647 648 545 662 759
8 530 427 545 648 649 546 663 760
8 535 429 546 649 653 547 664 761
8 762 666 548 650 651 550 432 532
8 657 556 438 539 762 666 548 650
8 652 551 668 763 533 433 550 651
8 654 552 669 764 536 434 551 652
8 655 549 431 537 765 665 547 653
8 538 435 549 655 654 552 667 766
8 661 554 671 768 542 436 553 656
8 658 558 440 540 769 674 556 657
8 658 558 675 770 540 440 557 659
8 659 557 673 771 541 439 555 660
8 660 555 672 772 543 437 554 661
8 788 686 570 676 704 591 473 590
8 677 571 453 560 788 686 570 676
8 679 573 455 562 789 687 571 677
8 566 459 577 683 678 575 691 790
8 681 574 456 564 791 689 573 679
8 680 572 688 792 567 460 578 684
8 681 574 688 792 564 456 572 680
8 682 576 692 794 566 459 577 683
8 569 461 579 685 682 576 692 794
8 568 462 578 684 685 579 694 796
8 687 581 464 571 798 696 580 686
8 798 696 580 686 705 592 474 591
8 689 583 466 573 799 697 581 687
8 688 582 698 800 578 471 588 694
8 690 584 698 800 574 467 582 688
8 690 584 467 574 801 699 583 689
8 693 587 701 803 577 470 585 691
8 693 587 470 577 804 702 586 692
8 695 589 702 804 579 472 586 692
8 695 589 472 579 805 703 588 694
8 708 595 705 813 593 475 591 704
8 710 596 706 814 595 476 592 705
8 707 594 479 602 816 709 600 719
8 708 595 475 593 817 711 594 707
8 709 598 478 600 819 715 599 717
8 711 597 477 594 820 714 598 709
8 710 596 476 595 822 713 597 711
8 600 478 601 720 717 599 718 832
8 602 479 603 722 719 600 720 834
8 720 601 480 603 835 721 604 723
8 722 603 482 605 836 723 606 724
8 767 670 725 839 656 553 608 726
8 756 656 726 841 645 542 609 728
8 726 608 727 842 609 487 610 729
8 728 609 729 843 611 488 612 730
8 844 740 624 731 790 691 575 678
8 733 625 504 616 844 740 624 731
8 734 623 502 617 845 739 622 732
8 733 625 739 845 616 504 622 732
8 734 623 738 846 617 502 621 735
8 735 621 737 847 618 500 620 736
8 744 647 527 630 847 737 620 736
8 621 506 627 738 737 626 741 848
8 647 544 626 737 759 662 741 848
8 623 508 628 739 738 627 742 849
8 740 629 585 691 850 743 700 802
8 625 510 629 740 739 628 743 850
8 632 529 647 744 745 648 759 854
8 633 530 648 745 746 649 760 855
8 638 535 649 746 750 653 761 856
8 857 762 650 747 748 651 532 635
8 753 657 539 642 857 762 650 747
8 749 652 763 858 636 533 651 748
8 752 654 764 859 640 536 652 749
8 751 655 537 639 860 765 653 750
8 641 538 655 751 752 654 766 861
8 754 658 540 643 862 769 657 753
8 754 658 770 863 643 540 659 755
8 755 659 771 864 644 541 660 757
8 758 661 768 866 645 542 656 756
8 757 660 772 867 646 543 661 758
8 759 662 773 868 648 545 663 760
8 649 546 663 760 761 664 774 871
8 765 665 547 653 872 775 664 761
8 873 777 666 762 763 668 550 651
8 769 674 556 657 873 777 666 762
8 764 669 779 874 652 551 668 763
8 654 552 667 766 764 669 778 875
8 655 549 665 765 766 667 776 876
8 768 671 782 877 656 553 670 767
8 772 672 783 878 661 554 671 768
8 658 558 674 769 770 675 786 879
8 659 557 675 770 771 673 785 881
8 882 784 672 772 771 673 555 660
8 789 687 571 677 897 798 686 788
8 897 798 686 788 813 705 591 704
8 791 689 573 679 898 799 687 789
8 795 693 803 900 683 577 691 790
8 793 690 574 681 901 801 689 791
8 792 688 800 902 684 578 694 796
8 793 690 800 902 681 574 688 792
8 795 693 577 683 903 804 692 794
8 797 695 804 903 685 579 692 794
8 797 695 579 685 904 805 694 796
8 905 806 697 799 798 696 581 687
8 814 706 806 905 705 592 696 798
8 689 583 697 799 801 699 808 907
8 800 698 809 908 694 588 703 805
8 690 584 699 801 800 698 809 908
8 803 701 810 909 691 585 700 802
8 693 587 702 804 803 701 811 910
8 695 589 703 805 804 702 812 911
8 818 710 814 919 708 595 705 813
8 821 712 815 920 710 596 706 814
8 816 709 600 719 922 819 717 831
8 817 711 594 707 923 820 709 816
8 818 710 595 708 924 822 711 817
8 819 715 599 717 926 827 716 829
8 820 714 598 709 927 826 715 819
8 929 825 713 822 820 714 597 711
8 821 712 596 710 930 824 713 822
8 717 599 718 832 829 716 830 942
8 719 600 720 834 831 717 832 944
8 832 718 601 720 945 833 721 835
8 834 720 603 722 946 835 723 836
8 869 780 838 950 767 670 725 839
8 865 767 839 952 756 656 726 841
8 839 725 840 953 726 608 727 842
8 841 726 842 954 728 609 729 843
8 844 740 691 790 955 850 802 899
8 733 625 740 844 845 739 850 955
8 734 623 739 845 846 738 849 956
8 735 621 738 846 847 737 848 957
8 744 647 737 847 854 759 848 957
8 738 627 742 849 848 741 851 958
8 848 741 851 958 759 662 773 868
8 850 743 700 802 959 852 807 906
8 849 742 628 739 959 852 743 850
8 854 759 868 965 745 648 760 855
8 746 649 760 855 856 761 871 966
8 860 765 653 750 967 872 761 856
8 968 873 762 857 858 763 651 748
8 862 769 657 753 968 873 762 857
8 859 764 874 969 749 652 763 858
8 752 654 766 861 859 764 875 970
8 751 655 765 860 861 766 876 971
8 754 658 769 862 863 770 879 972
8 755 659 770 863 864 771 881 974
8 976 882 772 867 864 771 660 757
8 866 768 877 977 756 656 767 865
8 867 772 878 978 758 661 768 866
8 760 663 773 868 871 774 883 980
8 870 781 837 948 982 890 780 869
8 982 890 780 869 877 782 670 767
8 761 664 774 871 872 775 884 984
8 876 776 665 765 985 885 775 872
8 873 777 668 763 986 887 779 874
8 769 674 777 873 879 786 887 986
8 764 669 778 875 874 779 888 987
8 766 667 776 876 875 778 886 988
8 878 783 892 989 768 671 782 877
8 878 783 672 772 990 893 784 882
8 880 787 675 770 991 896 786 879
8 880 787 895 992 770 675 785 881
8 881 785 894 993 771 673 784 882
8 1006 905 799 898 897 798 687 789
8 919 814 905 1006 813 705 798 897
8 791 689 799 898 901 801 907 1007
8 900 803 909 1009 790 691 802 899
8 795 693 804 903 900 803 910 1010
8 902 800 908 1011 796 694 805 904
8 793 690 801 901 902 800 908 1011
8 797 695 805 904 903 804 911 1012
8 799 697 806 905 907 808 912 1013
8 920 815 912 1013 814 706 806 905
8 802 700 810 909 906 807 913 1014
8 801 699 808 907 908 809 914 1015
8 805 703 809 908 911 812 915 1016
8 803 701 811 910 909 810 916 1017
8 911 812 917 1018 804 702 811 910
8 925 821 920 1030 818 710 814 919
8 928 823 921 1031 821 712 815 920
8 922 819 717 831 1033 926 829 941
8 923 820 709 816 1034 927 819 922
8 1035 929 822 924 923 820 711 817
8 925 821 710 818 1036 930 822 924
8 1038 933 825 929 927 826 714 820
8 926 827 716 829 1039 935 828 939
8 927 826 715 819 1040 934 827 926
8 928 823 712 821 1041 931 824 930
8 1042 932 824 930 929 825 713 822
8 829 716 830 942 939 828 940 1058
8 831 717 832 944 941 829 942 1060
8 942 830 718 832 1061 943 833 945
8 944 832 720 834 1062 945 835 946
8 981 889 947 1064 870 781 837 948
8 948 837 949 1067 869 780 838 950
8 975 869 950 1069 865 767 839 952
8 950 838 951 1070 839 725 840 953
8 952 839 953 1071 841 726 842 954
8 955 850 802 899 1072 959 906 1008
8 956 849 739 845 1072 959 850 955
8 846 738 849 956 957 848 958 1073
8 957 848 958 1073 854 759 868 965
8 849 742 852 959 958 851 961 1076
8 960 853 961 1076 906 807 852 959
8 958 851 961 1076 868 773 883 980
8 960 853 807 906 1077 963 913 1014
8 855 760 868 965 966 871 980 1085
8 856 761 871 966 967 872 984 1086
8 971 876 765 860 1087 985 872 967
8 968 873 763 858 1088 986 874 969
8 862 769 873 968 972 879 986 1088
8 859 764 875 970 969 874 987 1089
8 861 766 876 971 970 875 988 1090
8 973 880 770 863 1091 991 879 972
8 973 880 992 1092 863 770 881 974
8 974 881 993 1093 864 771 882 976
8 979 870 948 1066 1094 982 869 975
8 1094 982 869 975 977 877 767 865
8 978 878 772 867 1095 990 882 976
8 978 878 989 1096 866 768 877 977
8 871 774 883 980 984 884 994 1099
8 983 891 999 1100 870 781 889 981
8 1101 1000 890 982 989 892 782 877
8 983 891 781 870 1101 1000 890 982
8 872 775 884 984 985 885 995 1103
8 876 776 885 985 988 886 996 1104
8 986 887 779 874 1105 998 888 987
8 879 786 887 986 991 896 998 1105
8 875 778 886 988 987 888 997 1106
8 990 893 1002 1107 878 783 892 989
8 1108 1003 893 990 993 894 784 882
8 880 787 896 991 992 895 1005 1109
8 993 894 785 881 1110 1004 895 992
8 898 799 905 1006 1007 907 1013 1120
8 1030 920 1013 1120 919 814 905 1006
8 901 801 907 1007 1011 908 1015 1121
8 899 802 909 1009 1008 906 1014 1122
8 900 803 910 1010 1009 909 1017 1123
8 1012 911 1018 1124 903 804 910 1010
8 904 805 908 1011 1012 911 1016 1125
8 1013 912 1020 1127 907 808 914 1015
8 1031 921 1020 1127 920 815 912 1013
8 1019 918 962 1075 1128 1021 913 1014
8 1128 1021 913 1014 1017 916 810 909
8 1015 914 1022 1129 908 809 915 1016
8 1016 915 1023 1130 911 812 917 1018
8 1018 917 1024 1131 910 811 916 1017
8 1037 928 1031 1148 925 821 920 1030
8 928 823 931 1041 1031 921 1032 1149
8 1033 926 829 941 1151 1039 939 1057
8 1034 927 819 922 1152 1040 926 1033
8 1153 1038 929 1035 1034 927 820 923
8 1154 1042 930 1036 1035 929 822 924
8 1037 928 821 925 1155 1041 930 1036
8 1039 935 828 939 1156 1047 938 1055
8 1157 1043 932 1042 1038 933 825 929
8 1038 933 826 927 1158 1045 934 1040
8 1040 934 827 926 1159 1046 935 1039
8 930 824 932 1042 1041 931 1044 1160
8 1051 936 1048 1165 1175 1052 937 1053
8 1156 1047 938 1055 1053 937 1054 1178
8 939 828 940 1058 1055 938 1056 1181
8 941 829 942 1060 1057 939 1058 1183
8 942 830 943 1061 1058 940 1059 1184
8 1060 942 832 944 1185 1061 945 1062
8 1082 964 1063 1188 981 889 947 1064
8 1097 981 1064 1190 979 870 948 1066
8 1064 947 1065 1191 948 837 949 1067
8 1066 948 1067 1193 975 869 950 1069
8 1067 949 1068 1194 950 838 951 1070
8 1069 950 1070 1195 952 839 953 1071
8 956 849 959 1072 1073 958 1076 1197
8 1074 960 1076 1197 1008 906 959 1072
8 1073 958 1076 1197 965 868 980 1085
8 1074 960 906 1008 1198 1077 1014 1122
8 1133 1026 1079 1199 1019 918 962 1075
8 1077 963 913 1014 1200 1080 962 1075
8 960 853 963 1077 1076 961 1078 1201
8 980 883 961 1076 1099 994 1078 1201
8 1210 1083 964 1082 1100 999 889 981
8 966 871 980 1085 1086 984 1099 1215
8 967 872 984 1086 1087 985 1103 1216
8 971 876 985 1087 1090 988 1104 1217
8 1088 986 874 969 1218 1105 987 1089
8 972 879 986 1088 1091 991 1105 1218
8 970 875 988 1090 1089 987 1106 1219
8 973 880 991 1091 1092 992 1109 1220
8 1093 993 881 974 1221 1110 992 1092
8 1222 1108 990 1095 1093 993 882 976
8 1223 1101 982 1094 1096 989 877 977
8 1098 983 870 979 1223 1101 982 1094
8 1095 990 1107 1224 978 878 989 1096
8 1098 983 1100 1225 979 870 981 1097
8 984 884 994 1099 1103 995 1111 1227
8 1102 1001 1115 1228 983 891 999 1100
8 1101 1000 892 989 1229 1116 1002 1107
8 1102 1001 891 983 1229 1116 1000 1101
8 985 885 995 1103 1104 996 1112 1230
8 988 886 996 1104 1106 997 1113 1231
8 1105 998 888 987 1232 1114 997 1106
8 991 896 998 1105 1109 1005 1114 1232
8 1108 1003 1117 1233 990 893 1002 1107
8 1108 1003 894 993 1233 1117 1004 1110
8 992 895 1005 1109 1110 1004 1118 1234
8 1120 1013 1127 1244 1007 907 1015 1121
8 1148 1031 1127 1244 1030 920 1013 1120
8 1121 1015 1129 1245 1011 908 1016 1125
8 1126 1019 1075 1196 1246 1128 1014 1122
8 1246 1128 1014 1122 1123 1017 909 1009
8 1124 1018 1131 1247 1010 910 1017 1123
8 1125 1016 1130 1248 1012 911 1018 1124
8 1127 1020 1137 1254 1015 914 1022 1129
8 1031 921 1032 1149 1127 1020 1137 1254
8 1134 1027 918 1019 1257 1140 1021 1128
8 1257 1140 1021 1128 1131 1024 916 1017
8 1129 1022 1141 1258 1016 915 1023 1130
8 1130 1023 1142 1259 1018 917 1024 1131
8 1261 1144 1025 1132 1133 1026 1079 1199
8 1255 1138 1025 1132 1135 1028 1144 1261
8 1133 1026 918 1019 1262 1145 1027 1134
8 1136 1029 1139 1256 1263 1146 1028 1135
8 1037 928 1041 1155 1148 1031 1149 1275
8 1041 931 1044 1160 1149 1032 1150 1276
8 1151 1039 939 1057 1278 1156 1055 1180
8 1152 1040 926 1033 1279 1159 1039 1151
8 1153 1038 927 1034 1280 1158 1040 1152
8 1281 1157 1042 1154 1153 1038 929 1035
8 1036 930 1042 1154 1155 1041 1160 1282
8 1283 1164 1046 1159 1156 1047 935 1039
8 1165 1048 1164 1283 1053 937 1047 1156
8 1157 1043 933 1038 1284 1161 1045 1158
8 1157 1043 1161 1284 1042 932 1044 1160
8 1040 934 1046 1159 1158 1045 1163 1285
8 1166 1049 1167 1292 1051 936 1048 1165
8 1166 1049 936 1051 1293 1168 1050 1172
8 1051 936 1052 1175 1172 1050 1173 1306
8 1174 1051 1165 1290 1308 1175 1053 1177
8 1053 937 1054 1178 1175 1052 1176 1309
8 1278 1156 1055 1180 1177 1053 1178 1311
8 1055 938 1056 1181 1178 1054 1179 1312
8 1057 939 1058 1183 1180 1055 1181 1314
8 1058 940 1059 1184 1181 1056 1182 1315
8 1060 942 1061 1185 1183 1058 1184 1316
8 1208 1081 1187 1321 1082 964 1063 1188
8 1209 1082 1188 1322 1097 981 1064 1190
8 1188 1063 1189 1323 1064 947 1065 1191
8 1190 1064 1191 1325 1066 948 1067 1193
8 1191 1065 1192 1326 1067 949 1068 1194
8 1067 1193 1069 950 1194 1327 1195 1070
8 1250 1133 1199 1330 1126 1019 1075 1196
8 1198 1077 1014 1122 1331 1200 1075 1196
8 1074 960 1077 1198 1197 1076 1201 1332
8 1085 980 1076 1197 1215 1099 1201 1332
8 1199 1079 1203 1333 1075 962 1080 1200
8 1132 1025 1119 1243 1199 1079 1203 1333
8 1201 1078 963 1077 1334 1202 1080 1200
8 1099 994 1078 1201 1227 1111 1202 1334
8 1343 1207 1081 1208 1210 1083 964 1082
8 1214 1084 1186 1319 1343 1207 1081 1208
8 1345 1210 1082 1209 1225 1100 981 1097
8 1346 1211 1083 1210 1228 1115 999 1100
8 1086 984 1099 1215 1216 1103 1227 1352
8 1087 985 1103 1216 1217 1104 1230 1353
8 1090 988 1104 1217 1219 1106 1231 1354
8 1218 1105 987 1089 1355 1232 1106 1219
8 1091 991 1105 1218 1220 1109 1232 1355
8 1092 992 1109 1220 1221 1110 1234 1356
8 1222 1108 1233 1357 1095 990 1107 1224
8 1222 1108 993 1093 1357 1233 1110 1221
8 1223 1101 989 1096 1358 1229 1107 1224
8 1226 1102 983 1098 1358 1229 1101 1223
8 1226 1102 1228 1359 1098 983 1100 1225
8 1103 995 1111 1227 1230 1112 1235 1360
8 1107 1002 1117 1233 1229 1116 1240 1362
8 1102 1001 1116 1229 1228 1115 1240 1362
8 1104 996 1112 1230 1231 1113 1236 1363
8 1364 1237 1114 1232 1231 1113 997 1106
8 1109 1005 1114 1232 1234 1118 1238 1365
8 1110 1004 1118 1234 1233 1117 1241 1366
8 1242 1374 1255 1138 1119 1243 1132 1025
8 1244 1127 1254 1376 1121 1015 1129 1245
8 1148 1031 1149 1275 1244 1127 1254 1376
8 1245 1129 1258 1377 1125 1016 1130 1248
8 1251 1134 1019 1126 1378 1257 1128 1246
8 1378 1257 1128 1246 1247 1131 1017 1123
8 1248 1130 1259 1379 1124 1018 1131 1247
8 1261 1381 1250 1133 1132 1249 1330 1199
8 1255 1380 1252 1135 1132 1249 1381 1261
8 1250 1133 1019 1126 1382 1262 1134 1251
8 1253 1136 1256 1385 1384 1263 1135 1252
8 1254 1137 1265 1387 1129 1022 1141 1258
8 1149 1032 1150 1276 1254 1137 1265 1387
8 1028 1135 1255 1138 1139 1256 1388 1266
8 1136 1029 1147 1264 1256 1139 1267 1389
8 1390 1268 1140 1257 1259 1142 1024 1131
8 1260 1143 1027 1134 1390 1268 1140 1257
8 1258 1141 1269 1391 1130 1023 1142 1259
8 1262 1145 1027 1134 1393 1271 1143 1260
8 1261 1144 1026 1133 1394 1272 1145 1262
8 1135 1028 1144 1261 1263 1146 1272 1394
8 1136 1029 1146 1263 1264 1147 1273 1395
8 1155 1041 1160 1282 1275 1149 1276 1405
8 1276 1150 1044 1160 1406 1277 1162 1286
8 1408 1283 1159 1279 1278 1156 1039 1151
8 1290 1165 1283 1408 1177 1053 1156 1278
8 1152 1040 1159 1279 1280 1158 1285 1409
8 1281 1157 1038 1153 1410 1284 1158 1280
8 1281 1157 1284 1410 1154 1042 1160 1282
8 1159 1046 1164 1283 1285 1163 1289 1412
8 1292 1167 1289 1412 1165 1048 1164 1283
8 1158 1045 1163 1285 1284 1161 1288 1413
8 1284 1161 1288 1413 1160 1044 1162 1286
8 1291 1166 1292 1418 1174 1051 1165 1290
8 1291 1166 1051 1174 1419 1293 1172 1305
8 1294 1169 1296 1421 1166 1049 1167 1292
8 1293 1168 1050 1172 1422 1295 1171 1303
8 1294 1169 1049 1166 1423 1297 1168 1293
8 1422 1295 1171 1303 1301 1170 1302 1435
8 1172 1050 1173 1306 1303 1171 1304 1438
8 1174 1051 1175 1308 1305 1172 1306 1440
8 1175 1052 1176 1309 1306 1173 1307 1441
8 1177 1053 1178 1311 1308 1175 1309 1443
8 1178 1054 1179 1312 1309 1176 1310 1444
8 1180 1055 1181 1314 1311 1178 1312 1446
8 1056 1181 1312 1179 1182 1315 1447 1313
8 1183 1058 1184 1316 1314 1181 1315 1448
8 1319 1186 1084 1214 1451 1317 1213 1350
8 1319 1186 1318 1453 1208 1081 1187 1321
8 1321 1187 1320 1456 1188 1063 1189 1323
8 1344 1208 1321 1457 1209 1082 1188 1322
8 1322 1188 1323 1458 1190 1064 1191 1325
8 1323 1189 1324 1459 1191 1065 1192 1326
8 1191 1325 1193 1067 1326 1460 1327 1194
8 1242 1374 1243 1119 1328 1462 1335 1204
8 1330 1199 1333 1465 1196 1075 1200 1331
8 1132 1249 1330 1199 1243 1375 1465 1333
8 1332 1201 1077 1198 1466 1334 1200 1331
8 1215 1099 1201 1332 1352 1227 1334 1466
8 1119 1243 1333 1203 1204 1335 1470 1338
8 1333 1203 1338 1470 1200 1080 1202 1334
8 1227 1111 1202 1334 1360 1235 1338 1470
8 1328 1462 1335 1204 1205 1336 1471 1339
8 1337 1206 1340 1472 1464 1329 1205 1336
8 1346 1211 1342 1479 1210 1083 1207 1343
8 1346 1211 1115 1228 1479 1342 1239 1361
8 1348 1212 1084 1214 1479 1342 1207 1343
8 1480 1343 1208 1344 1345 1210 1082 1209
8 1351 1214 1319 1454 1480 1343 1208 1344
8 1481 1346 1210 1345 1359 1228 1100 1225
8 1348 1212 1347 1483 1214 1084 1213 1350
8 1216 1103 1227 1352 1353 1230 1360 1488
8 1217 1104 1230 1353 1354 1231 1363 1489
8 1490 1364 1232 1355 1354 1231 1106 1219
8 1220 1109 1232 1355 1356 1234 1365 1491
8 1221 1110 1234 1356 1357 1233 1366 1492
8 1224 1107 1233 1357 1358 1229 1362 1493
8 1226 1102 1229 1358 1359 1228 1362 1493
8 1230 1112 1235 1360 1363 1236 1367 1496
8 1361 1239 1115 1228 1497 1371 1240 1362
8 1366 1241 1372 1498 1233 1117 1240 1362
8 1364 1237 1113 1231 1499 1368 1236 1363
8 1364 1237 1368 1499 1232 1114 1238 1365
8 1234 1118 1238 1365 1366 1241 1369 1500
8 1507 1373 1242 1374 1388 1266 1138 1255
8 1508 1374 1243 1375 1380 1255 1132 1249
8 1376 1254 1387 1509 1245 1129 1258 1377
8 1275 1149 1276 1405 1376 1254 1387 1509
8 1377 1258 1391 1510 1248 1130 1259 1379
8 1511 1390 1257 1378 1379 1259 1131 1247
8 1383 1260 1134 1251 1511 1390 1257 1378
8 1252 1135 1256 1385 1380 1255 1388 1512
8 1261 1381 1513 1394 1133 1250 1382 1262
8 1135 1252 1384 1263 1261 1381 1513 1394
8 1382 1262 1134 1251 1514 1393 1260 1383
8 1253 1136 1263 1384 1386 1264 1395 1516
8 1253 1136 1264 1386 1385 1256 1389 1517
8 1387 1265 1397 1519 1258 1141 1269 1391
8 1276 1150 1277 1406 1387 1265 1397 1519
8 1256 1139 1267 1389 1388 1266 1398 1520
8 1264 1147 1274 1396 1389 1267 1399 1521
8 1392 1270 1143 1260 1522 1400 1268 1390
8 1390 1268 1142 1259 1522 1400 1269 1391
8 1392 1270 1401 1523 1260 1143 1271 1393
8 1272 1394 1524 1402 1145 1262 1393 1271
8 1395 1273 1146 1263 1524 1402 1272 1394
8 1273 1395 1264 1147 1403 1526 1396 1274
8 1405 1276 1160 1282 1534 1406 1286 1411
8 1414 1287 1407 1535 1286 1162 1277 1406
8 1279 1159 1283 1408 1409 1285 1412 1537
8 1418 1292 1412 1537 1290 1165 1283 1408
8 1280 1158 1285 1409 1410 1284 1413 1538
8 1410 1284 1413 1538 1282 1160 1286 1411
8 1285 1163 1289 1412 1413 1288 1417 1540
8 1421 1296 1417 1540 1292 1167 1289 1412
8 1414 1287 1162 1286 1541 1416 1288 1413
8 1420 1294 1421 1545 1291 1166 1292 1418
8 1419 1293 1172 1305 1546 1422 1303 1437
8 1420 1294 1166 1291 1547 1423 1293 1419
8 1294 1169 1297 1423 1421 1296 1425 1548
8 1423 1297 1168 1293 1549 1424 1295 1422
8 1301 1170 1298 1427 1422 1295 1424 1549
8 1432 1300 1428 1554 1301 1170 1298 1427
8 1431 1299 1428 1554 1560 1430 1300 1432
8 1563 1433 1300 1432 1435 1302 1170 1301
8 1546 1422 1303 1437 1434 1301 1435 1565
8 1303 1171 1304 1438 1435 1302 1436 1566
8 1305 1172 1306 1440 1437 1303 1438 1568
8 1306 1173 1307 1441 1438 1304 1439 1569
8 1308 1175 1309 1443 1440 1306 1441 1571
8 1309 1176 1310 1444 1441 1307 1442 1572
8 1311 1178 1312 1446 1443 1309 1444 1574
8 1179 1312 1444 1310 1313 1447 1575 1445
8 1314 1181 1315 1448 1446 1312 1447 1576
8 1350 1213 1349 1486 1451 1317 1449 1579
8 1451 1317 1450 1581 1319 1186 1318 1453
8 1454 1319 1214 1351 1582 1451 1350 1487
8 1453 1318 1452 1584 1321 1187 1320 1456
8 1454 1319 1453 1585 1344 1208 1321 1457
8 1456 1320 1455 1586 1323 1189 1324 1459
8 1457 1321 1456 1587 1322 1188 1323 1458
8 1458 1323 1459 1588 1325 1191 1326 1460
8 1205 1336 1464 1329 1328 1462 1590 1461
8 1507 1373 1461 1590 1374 1242 1328 1462
8 1508 1374 1462 1591 1375 1243 1335 1467
8 1337 1206 1329 1464 1473 1341 1463 1594
8 1375 1243 1335 1467 1465 1333 1470 1596
8 1465 1333 1470 1596 1331 1200 1334 1466
8 1352 1227 1334 1466 1488 1360 1470 1596
8 1591 1462 1336 1468 1467 1335 1471 1597
8 1469 1337 1472 1598 1595 1464 1336 1468
8 1471 1339 1474 1600 1335 1204 1338 1470
8 1600 1474 1367 1496 1470 1338 1235 1360
8 1336 1205 1340 1472 1471 1339 1475 1601
8 1337 1206 1341 1473 1472 1340 1476 1602
8 1495 1370 1478 1609 1361 1239 1342 1479
8 1348 1212 1342 1479 1483 1347 1478 1609
8 1481 1346 1479 1610 1345 1210 1343 1480
8 1481 1346 1228 1359 1610 1479 1361 1494
8 1484 1348 1214 1351 1610 1479 1343 1480
8 1483 1347 1482 1612 1350 1213 1349 1486
8 1484 1348 1483 1613 1351 1214 1350 1487
8 1353 1230 1360 1488 1489 1363 1496 1616
8 1490 1364 1231 1354 1617 1499 1363 1489
8 1490 1364 1499 1617 1355 1232 1365 1491
8 1356 1234 1365 1491 1492 1366 1500 1619
8 1492 1366 1498 1620 1357 1233 1362 1493
8 1494 1361 1228 1359 1621 1497 1362 1493
8 1495 1370 1239 1361 1622 1504 1371 1497
8 1363 1236 1367 1496 1499 1368 1501 1623
8 1497 1371 1240 1362 1624 1505 1372 1498
8 1625 1503 1372 1498 1500 1369 1241 1366
8 1365 1238 1368 1499 1500 1369 1502 1626
8 1520 1398 1506 1633 1388 1266 1373 1507
8 1634 1507 1374 1508 1512 1388 1255 1380
8 1509 1387 1519 1635 1377 1258 1391 1510
8 1405 1276 1406 1534 1509 1387 1519 1635
8 1515 1392 1260 1383 1636 1522 1390 1511
8 1511 1390 1259 1379 1636 1522 1391 1510
8 1385 1256 1389 1517 1512 1388 1520 1637
8 1513 1394 1262 1382 1638 1524 1393 1514
8 1395 1516 1638 1524 1263 1384 1513 1394
8 1515 1392 1523 1639 1383 1260 1393 1514
8 1516 1395 1526 1640 1386 1264 1396 1518
8 1386 1264 1396 1518 1517 1389 1521 1641
8 1519 1397 1527 1643 1391 1269 1400 1522
8 1535 1407 1527 1643 1406 1277 1397 1519
8 1389 1267 1399 1521 1520 1398 1528 1644
8 1645 1529 1399 1521 1525 1404 1274 1396
8 1392 1270 1400 1522 1523 1401 1531 1646
8 1524 1402 1271 1393 1648 1532 1401 1523
8 1403 1526 1648 1532 1273 1395 1524 1402
8 1525 1404 1274 1396 1649 1533 1403 1526
8 1539 1414 1535 1657 1411 1286 1406 1534
8 1542 1415 1536 1658 1414 1287 1407 1535
8 1409 1285 1412 1537 1538 1413 1540 1660
8 1545 1421 1540 1660 1418 1292 1412 1537
8 1539 1414 1286 1411 1661 1541 1413 1538
8 1540 1417 1544 1663 1413 1288 1416 1541
8 1421 1296 1425 1548 1540 1417 1544 1663
8 1542 1415 1287 1414 1664 1543 1416 1541
8 1420 1294 1423 1547 1545 1421 1548 1666
8 1547 1423 1293 1419 1667 1549 1422 1546
8 1434 1301 1427 1553 1546 1422 1549 1667
8 1423 1297 1424 1549 1548 1425 1550 1668
8 1551 1426 1550 1668 1427 1298 1424 1549
8 1551 1426 1298 1427 1671 1552 1428 1554
8 1562 1432 1554 1674 1434 1301 1427 1553
8 1431 1299 1429 1558 1554 1428 1555 1675
8 1431 1299 1430 1560 1558 1429 1557 1680
8 1560 1430 1300 1432 1683 1559 1433 1563
8 1561 1431 1554 1674 1684 1560 1432 1562
8 1685 1563 1432 1562 1565 1435 1301 1434
8 1435 1302 1436 1566 1563 1433 1564 1686
8 1437 1303 1438 1568 1565 1435 1566 1688
8 1438 1304 1439 1569 1566 1436 1567 1689
8 1440 1306 1441 1571 1568 1438 1569 1691
8 1441 1307 1442 1572 1569 1439 1570 1692
8 1443 1309 1444 1574 1571 1441 1572 1694
8 1310 1444 1572 1442 1445 1575 1695 1573
8 1446 1312 1447 1576 1574 1444 1575 1696
8 1486 1349 1485 1614 1579 1449 1577 1699
8 1451 1317 1449 1579 1581 1450 1578 1701
8 1487 1350 1486 1615 1582 1451 1579 1702
8 1581 1450 1580 1704 1453 1318 1452 1584
8 1582 1451 1581 1705 1454 1319 1453 1585
8 1584 1452 1583 1706 1456 1320 1455 1586
8 1585 1453 1584 1707 1457 1321 1456 1587
8 1587 1456 1586 1708 1458 1323 1459 1588
8 1633 1506 1589 1710 1507 1373 1461 1590
8 1464 1329 1461 1590 1594 1463 1589 1710
8 1468 1336 1462 1591 1595 1464 1590 1711
8 1634 1507 1590 1711 1508 1374 1462 1591
8 1473 1341 1463 1594 1603 1477 1593 1716
8 1469 1337 1464 1595 1599 1473 1594 1717
8 1471 1597 1467 1335 1600 1718 1596 1470
8 1718 1600 1496 1616 1596 1470 1360 1488
8 1336 1468 1597 1471 1472 1598 1719 1601
8 1469 1337 1473 1599 1598 1472 1602 1720
8 1722 1604 1501 1623 1600 1474 1367 1496
8 1475 1601 1471 1339 1604 1722 1600 1474
8 1602 1476 1605 1723 1472 1340 1475 1601
8 1476 1602 1724 1606 1341 1473 1603 1477
8 1483 1347 1478 1609 1612 1482 1608 1731
8 1495 1370 1504 1622 1609 1478 1608 1731
8 1618 1495 1609 1732 1494 1361 1479 1610
8 1484 1348 1479 1610 1613 1483 1609 1732
8 1486 1349 1482 1612 1614 1485 1611 1733
8 1613 1483 1612 1734 1487 1350 1486 1615
8 1489 1363 1496 1616 1617 1499 1623 1736
8 1491 1365 1499 1617 1619 1500 1626 1737
8 1618 1495 1361 1494 1738 1622 1497 1621
8 1739 1625 1498 1620 1619 1500 1366 1492
8 1621 1497 1362 1493 1740 1624 1498 1620
8 1742 1631 1504 1622 1624 1505 1371 1497
8 1743 1628 1502 1626 1623 1501 1368 1499
8 1744 1630 1505 1624 1625 1503 1372 1498
8 1745 1629 1503 1625 1626 1502 1369 1500
8 1520 1398 1528 1644 1633 1506 1632 1751
8 1637 1520 1633 1752 1512 1388 1507 1634
8 1635 1519 1643 1753 1510 1391 1522 1636
8 1657 1535 1643 1753 1534 1406 1519 1635
8 1515 1392 1522 1636 1639 1523 1646 1754
8 1517 1389 1521 1641 1637 1520 1644 1755
8 1524 1638 1756 1648 1393 1514 1639 1523
8 1640 1526 1395 1516 1756 1648 1524 1638
8 1642 1525 1396 1518 1757 1649 1526 1640
8 1758 1645 1521 1641 1642 1525 1396 1518
8 1646 1531 1400 1522 1760 1650 1527 1643
8 1535 1407 1536 1658 1643 1527 1650 1760
8 1521 1399 1529 1645 1644 1528 1651 1761
8 1647 1530 1652 1762 1525 1404 1529 1645
8 1401 1523 1648 1532 1531 1646 1763 1655
8 1525 1404 1533 1649 1647 1530 1654 1765
8 1533 1649 1766 1656 1403 1526 1648 1532
8 1662 1542 1658 1774 1539 1414 1535 1657
8 1542 1415 1543 1664 1658 1536 1659 1775
8 1660 1540 1663 1777 1538 1413 1541 1661
8 1545 1421 1548 1666 1660 1540 1663 1777
8 1662 1542 1414 1539 1778 1664 1541 1661
8 1664 1543 1416 1541 1779 1665 1544 1663
8 1548 1425 1550 1668 1663 1544 1665 1779
8 1547 1423 1549 1667 1666 1548 1668 1781
8 1670 1551 1668 1781 1553 1427 1549 1667
8 1551 1426 1552 1671 1668 1550 1669 1782
8 1670 1551 1427 1553 1784 1671 1554 1674
8 1675 1555 1672 1785 1554 1428 1552 1671
8 1678 1556 1673 1789 1558 1429 1555 1675
8 1561 1431 1558 1681 1674 1554 1675 1790
8 1794 1677 1556 1678 1680 1557 1429 1558
8 1560 1430 1559 1683 1680 1557 1679 1797
8 1561 1431 1560 1684 1681 1558 1680 1798
8 1563 1433 1564 1686 1683 1559 1682 1800
8 1684 1560 1432 1562 1801 1683 1563 1685
8 1565 1435 1566 1688 1685 1563 1686 1802
8 1566 1436 1567 1689 1686 1564 1687 1803
8 1568 1438 1569 1691 1688 1566 1689 1805
8 1569 1439 1570 1692 1689 1567 1690 1806
8 1571 1441 1572 1694 1691 1569 1692 1808
8 1442 1572 1692 1570 1573 1695 1809 1693
8 1574 1444 1575 1696 1694 1572 1695 1810
8 1614 1485 1592 1712 1699 1577 1697 1813
8 1579 1449 1577 1699 1701 1578 1698 1815
8 1615 1486 1614 1735 1702 1579 1699 1816
8 1701 1578 1700 1818 1581 1450 1580 1704
8 1582 1451 1579 1702 1705 1581 1701 1819
8 1704 1580 1703 1820 1584 1452 1583 1706
8 1705 1581 1704 1821 1585 1453 1584 1707
8 1707 1584 1706 1822 1587 1456 1586 1708
8 1710 1589 1506 1633 1824 1709 1632 1751
8 1594 1463 1589 1710 1716 1593 1709 1824
8 1752 1633 1710 1825 1634 1507 1590 1711
8 1595 1464 1590 1711 1717 1594 1710 1825
8 1830 1714 1592 1712 1733 1611 1485 1614
8 1603 1477 1593 1716 1725 1607 1715 1834
8 1599 1473 1594 1717 1721 1603 1716 1835
8 1837 1722 1623 1736 1718 1600 1496 1616
8 1719 1601 1722 1837 1597 1471 1600 1718
8 1602 1720 1598 1472 1723 1838 1719 1601
8 1720 1602 1473 1599 1839 1724 1603 1721
8 1723 1605 1726 1840 1601 1475 1604 1722
8 1840 1726 1628 1743 1722 1604 1501 1623
8 1724 1606 1727 1841 1602 1476 1605 1723
8 1725 1607 1728 1842 1603 1477 1606 1724
8 1612 1482 1608 1731 1733 1611 1730 1849
8 1741 1627 1730 1849 1622 1504 1608 1731
8 1613 1483 1609 1732 1734 1612 1731 1850
8 1618 1495 1622 1738 1732 1609 1731 1850
8 1615 1486 1612 1734 1735 1614 1733 1851
8 1852 1743 1626 1737 1736 1623 1499 1617
8 1853 1745 1625 1739 1737 1626 1500 1619
8 1855 1742 1622 1738 1740 1624 1497 1621
8 1856 1744 1624 1740 1739 1625 1498 1620
8 1741 1627 1504 1622 1857 1746 1631 1742
8 1742 1631 1505 1624 1858 1749 1630 1744
8 1859 1747 1629 1745 1743 1628 1502 1626
8 1860 1748 1630 1744 1745 1629 1503 1625
8 1644 1528 1651 1761 1751 1632 1750 1865
8 1637 1520 1644 1755 1752 1633 1751 1866
8 1754 1646 1522 1636 1867 1760 1643 1753
8 1657 1535 1658 1774 1753 1643 1760 1867
8 1639 1523 1646 1754 1756 1648 1763 1868
8 1641 1521 1645 1758 1755 1644 1761 1869
8 1757 1649 1526 1640 1870 1766 1648 1756
8 1642 1525 1649 1757 1759 1647 1765 1871
8 1759 1647 1762 1872 1642 1525 1645 1758
8 1760 1650 1767 1874 1646 1531 1655 1763
8 1658 1536 1659 1775 1760 1650 1767 1874
8 1762 1652 1768 1875 1645 1529 1651 1761
8 1764 1653 1769 1876 1647 1530 1652 1762
8 1656 1766 1877 1773 1532 1648 1763 1655
8 1771 1879 1765 1654 1653 1764 1647 1530
8 1533 1649 1765 1654 1656 1766 1880 1772
8 1662 1542 1664 1778 1774 1658 1775 1887
8 1664 1543 1665 1779 1775 1659 1776 1888
8 1778 1664 1541 1661 1890 1779 1663 1777
8 1666 1548 1668 1781 1777 1663 1779 1890
8 1782 1669 1780 1891 1668 1550 1665 1779
8 1670 1551 1671 1784 1781 1668 1782 1893
8 1671 1552 1672 1785 1782 1669 1783 1894
8 1790 1675 1785 1896 1674 1554 1671 1784
8 1675 1555 1673 1789 1785 1672 1786 1897
8 1792 1676 1788 1903 1678 1556 1673 1789
8 1795 1678 1789 1904 1681 1558 1675 1790
8 1792 1676 1556 1678 1906 1791 1677 1794
8 1680 1557 1679 1797 1794 1677 1793 1909
8 1910 1794 1678 1795 1798 1680 1558 1681
8 1683 1559 1682 1800 1797 1679 1796 1912
8 1684 1560 1683 1801 1798 1680 1797 1913
8 1686 1564 1687 1803 1800 1682 1799 1915
8 1685 1563 1686 1802 1801 1683 1800 1916
8 1688 1566 1689 1805 1802 1686 1803 1917
8 1689 1567 1690 1806 1803 1687 1804 1918
8 1691 1569 1692 1808 1805 1689 1806 1920
8 1692 1570 1693 1809 1806 1690 1807 1921
8 1694 1572 1695 1810 1808 1692 1809 1922
8 1829 1713 1811 1926 1712 1592 1697 1813
8 1813 1697 1812 1928 1699 1577 1698 1815
8 1735 1614 1712 1828 1816 1699 1813 1929
8 1815 1698 1814 1931 1701 1578 1700 1818
8 1702 1579 1699 1816 1819 1701 1815 1932
8 1818 1700 1817 1933 1704 1580 1703 1820
8 1819 1701 1818 1934 1705 1581 1704 1821
8 1821 1704 1820 1935 1707 1584 1706 1822
8 1824 1709 1632 1751 1937 1823 1750 1865
8 1716 1593 1709 1824 1834 1715 1823 1937
8 1825 1710 1633 1752 1938 1824 1751 1866
8 1717 1594 1710 1825 1835 1716 1824 1938
8 1945 1830 1712 1828 1851 1733 1614 1735
8 1830 1714 1831 1946 1712 1592 1713 1829
8 1947 1832 1714 1830 1849 1730 1611 1733
8 1843 1729 1607 1725 1950 1833 1715 1834
8 1721 1603 1716 1835 1836 1725 1834 1951
8 1836 1725 1842 1953 1721 1603 1724 1839
8 1723 1838 1719 1601 1840 1954 1837 1722
8 1954 1840 1743 1852 1837 1722 1623 1736
8 1724 1839 1720 1602 1841 1955 1838 1723
8 1841 1727 1844 1956 1723 1605 1726 1840
8 1956 1844 1747 1859 1840 1726 1628 1743
8 1728 1842 1724 1606 1845 1957 1841 1727
8 1725 1607 1729 1843 1842 1728 1846 1958
8 1741 1627 1746 1857 1849 1730 1848 1965
8 1734 1612 1731 1850 1851 1733 1849 1966
8 1854 1741 1849 1966 1738 1622 1731 1850
8 1967 1859 1745 1853 1852 1743 1626 1737
8 1968 1860 1744 1856 1853 1745 1625 1739
8 1854 1741 1622 1738 1969 1857 1742 1855
8 1855 1742 1624 1740 1970 1858 1744 1856
8 1857 1746 1631 1742 1971 1861 1749 1858
8 1858 1749 1630 1744 1972 1863 1748 1860
8 1859 1747 1862 1973 1745 1629 1748 1860
8 1875 1768 1864 1977 1761 1651 1750 1865
8 1755 1644 1761 1869 1866 1751 1865 1978
8 1867 1760 1874 1979 1754 1646 1763 1868
8 1774 1658 1775 1887 1867 1760 1874 1979
8 1870 1766 1648 1756 1980 1877 1763 1868
8 1872 1762 1875 1981 1758 1645 1761 1869
8 1757 1649 1766 1870 1871 1765 1880 1982
8 1983 1879 1764 1873 1871 1765 1647 1759
8 1873 1764 1876 1984 1759 1647 1762 1872
8 1877 1773 1655 1763 1986 1881 1767 1874
8 1775 1659 1776 1888 1874 1767 1881 1986
8 1876 1769 1882 1987 1762 1652 1768 1875
8 1878 1770 1883 1988 1764 1653 1769 1876
8 1880 1772 1656 1766 1989 1886 1773 1877
8 1878 1770 1653 1764 1990 1884 1771 1879
8 1765 1654 1772 1880 1879 1771 1885 1991
8 1778 1664 1779 1890 1887 1775 1888 1997
8 1998 1889 1776 1888 1891 1780 1665 1779
8 1893 1782 1891 2000 1781 1668 1779 1890
8 1894 1783 1892 2001 1782 1669 1780 1891
8 1784 1671 1785 1896 1893 1782 1894 2003
8 1897 1786 1895 2004 1785 1672 1783 1894
8 1790 1675 1789 1904 1896 1785 1897 2006
8 1901 1787 1898 2007 1789 1673 1786 1897
8 1903 1788 1900 2013 1789 1673 1787 1901
8 1792 1676 1791 1906 1903 1788 1902 2016
8 1907 1792 1903 2017 1795 1678 1789 1904
8 1906 1791 1677 1794 2019 1905 1793 1909
8 1907 1792 1678 1795 2020 1906 1794 1910
8 1797 1679 1796 1912 1909 1793 1908 2022
8 1798 1680 1797 1913 1910 1794 1909 2023
8 1800 1682 1799 1915 1912 1796 1911 2025
8 1801 1683 1800 1916 1913 1797 1912 2026
8 1803 1687 1804 1918 1915 1799 1914 2028
8 1802 1686 1803 1917 1916 1800 1915 2029
8 1805 1689 1806 1920 1917 1803 1918 2030
8 1806 1690 1807 1921 1918 1804 1919 2031
8 1808 1692 1809 1922 1920 1806 1921 2032
8 1939 1826 1924 2037 1829 1713 1811 1926
8 1926 1811 1925 2039 1813 1697 1812 1928
8 1944 1829 1926 2040 1828 1712 1813 1929
8 1928 1812 1927 2042 1815 1698 1814 1931
8 1929 1813 1928 2043 1816 1699 1815 1932
8 1931 1814 1930 2044 1818 1700 1817 1933
8 1932 1815 1931 2045 1819 1701 1818 1934
8 1934 1818 1933 2046 1821 1704 1820 1935
8 2048 1936 1823 1937 1977 1864 1750 1865
8 1950 1833 1715 1834 2048 1936 1823 1937
8 1938 1824 1751 1866 2049 1937 1865 1978
8 1835 1716 1824 1938 1951 1834 1937 2049
8 1939 1826 1713 1829 2053 1942 1831 1946
8 1940 1827 1923 2035 2053 1942 1826 1939
8 1945 1830 1946 2058 1828 1712 1829 1944
8 2059 1947 1830 1945 1966 1849 1733 1851
8 1947 1832 1730 1849 2060 1948 1848 1965
8 1947 1832 1948 2060 1830 1714 1831 1946
8 1959 1847 1729 1843 2063 1949 1833 1950
8 1952 1843 1725 1836 2064 1950 1834 1951
8 1836 1725 1843 1952 1953 1842 1958 2066
8 1953 1842 1957 2067 1839 1724 1841 1955
8 1841 1955 1838 1723 1956 2068 1954 1840
8 2068 1956 1859 1967 1954 1840 1743 1852
8 1956 1844 1960 2069 1859 1747 1862 1973
8 1845 1957 1841 1727 1960 2069 1956 1844
8 1728 1842 1957 1845 1846 1958 2071 1961
8 1962 2072 1959 1847 1846 1958 1843 1729
8 1971 1861 1964 2077 1857 1746 1848 1965
8 1854 1741 1857 1969 1966 1849 1965 2078
8 1967 1859 1973 2079 1853 1745 1860 1968
8 1970 1858 1744 1856 2080 1972 1860 1968
8 1969 1857 1742 1855 2081 1971 1858 1970
8 1971 1861 1749 1858 2082 1974 1863 1972
8 1973 1862 1975 2083 1860 1748 1863 1972
8 1987 1882 1976 2086 1875 1768 1864 1977
8 1981 1875 1977 2087 1869 1761 1865 1978
8 1980 1877 1763 1868 2088 1986 1874 1979
8 1887 1775 1888 1997 1979 1874 1986 2088
8 1880 1982 2089 1989 1766 1870 1980 1877
8 1984 1876 1987 2090 1872 1762 1875 1981
8 1765 1871 1983 1879 1880 1982 2091 1991
8 1985 1878 1764 1873 2092 1990 1879 1983
8 1985 1878 1988 2093 1873 1764 1876 1984
8 2094 1992 1881 1986 1998 1889 1776 1888
8 1986 1881 1992 2094 1877 1773 1886 1989
8 1988 1883 1993 2095 1876 1769 1882 1987
8 1878 1770 1884 1990 1988 1883 1994 2096
8 1991 1885 1772 1880 2097 1996 1886 1989
8 1879 1771 1885 1991 1990 1884 1995 2098
8 2103 1998 1888 1997 2000 1891 1779 1890
8 2104 1999 1889 1998 2001 1892 1780 1891
8 2003 1894 2001 2106 1893 1782 1891 2000
8 2004 1895 2002 2107 1894 1783 1892 2001
8 2006 1897 2004 2109 1896 1785 1894 2003
8 2007 1898 2005 2110 1897 1786 1895 2004
8 2014 1901 2007 2112 1904 1789 1897 2006
8 2011 1899 2008 2113 1901 1787 1898 2007
8 2119 2010 1899 2011 2013 1900 1787 1901
8 2016 1902 2012 2122 1903 1788 1900 2013
8 2017 1903 2013 2123 1904 1789 1901 2014
8 1906 1791 1905 2019 2016 1902 2015 2125
8 1907 1792 1906 2020 2017 1903 2016 2126
8 1909 1793 1908 2022 2019 1905 2018 2128
8 2020 1906 1794 1910 2129 2019 1909 2023
8 1912 1796 1911 2025 2022 1908 2021 2131
8 1913 1797 1912 2026 2023 1909 2022 2132
8 1915 1799 1914 2028 2025 1911 2024 2134
8 1916 1800 1915 2029 2026 1912 2025 2135
8 1918 1804 1919 2031 2028 1914 2027 2136
8 1917 1803 1918 2030 2029 1915 2028 2137
8 1920 1806 1921 2032 2030 1918 2031 2138
8 1940 1827 1941 2054 2035 1923 2033 2140
8 2035 1923 2034 2143 1939 1826 1924 2037
8 2037 1924 2036 2146 1926 1811 1925 2039
8 2051 1939 2037 2147 1944 1829 1926 2040
8 2039 1925 2038 2149 1928 1812 1927 2042
8 2040 1926 2039 2150 1929 1813 1928 2043
8 2042 1927 2041 2151 1931 1814 1930 2044
8 2043 1928 2042 2152 1932 1815 1931 2045
8 2045 1931 2044 2153 1934 1818 1933 2046
8 2155 2047 1936 2048 2086 1976 1864 1977
8 2063 1949 1833 1950 2155 2047 1936 2048
8 2156 2048 1937 2049 2087 1977 1865 1978
8 2064 1950 1834 1951 2156 2048 1937 2049
8 2051 1939 1829 1944 2160 2053 1946 2058
8 2052 1940 2035 2144 2160 2053 1939 2051
8 2053 1942 1831 1946 2163 2057 1948 2060
8 2055 1943 1827 1940 2163 2057 1942 2053
8 2055 1943 2056 2164 1940 1827 1941 2054
8 2059 1947 1849 1966 2167 2060 1965 2078
8 2059 1947 2060 2167 1945 1830 1946 2058
8 2077 1964 2061 2168 1965 1848 1948 2060
8 2070 1963 1847 1959 2170 2062 1949 2063
8 2065 1959 1843 1952 2171 2063 1950 2064
8 2173 2072 1958 2066 2065 1959 1843 1952
8 1953 1842 1958 2066 2067 1957 2071 2174
8 2068 1956 2069 2175 1967 1859 1973 2079
8 2067 1957 2069 2175 1955 1841 1956 2068
8 1845 1957 2069 1960 1961 2071 2176 2073
8 2069 1960 2073 2176 1973 1862 1975 2083
8 2070 1963 2075 2177 1959 1847 1962 2072
8 1846 1958 2071 1961 1962 2072 2178 2074
8 2077 1964 1861 1971 2182 2076 1974 2082
8 2081 1971 2077 2183 1969 1857 1965 2078
8 2079 1973 2083 2184 1968 1860 1972 2080
8 2081 1971 1858 1970 2185 2082 1972 2080
8 2083 1975 2084 2186 1972 1863 1974 2082
8 2086 1976 1882 1987 2189 2085 1993 2095
8 2090 1987 2086 2190 1981 1875 1977 2087
8 2191 2094 1986 2088 2103 1998 1888 1997
8 2088 1986 2094 2191 1980 1877 1989 2089
8 1991 2091 2192 2097 1880 1982 2089 1989
8 2093 1988 2095 2193 1984 1876 1987 2090
8 1879 1983 2092 1990 1991 2091 2194 2098
8 1985 1878 1990 2092 2093 1988 2096 2195
8 2097 1996 1886 1989 2196 2099 1992 2094
8 2196 2099 1992 2094 2104 1999 1889 1998
8 1994 2096 1988 1883 2100 2197 2095 1993
8 2096 1994 1884 1990 2198 2101 1995 2098
8 1995 2098 2199 2102 1885 1991 2097 1996
8 2203 2104 1998 2103 2106 2001 1891 2000
8 2107 2002 2105 2204 2001 1892 1999 2104
8 2109 2004 2107 2206 2003 1894 2001 2106
8 2110 2005 2108 2207 2004 1895 2002 2107
8 2112 2007 2110 2209 2006 1897 2004 2109
8 2113 2008 2111 2210 2007 1898 2005 2110
8 2120 2011 2113 2212 2014 1901 2007 2112
8 2117 2009 2114 2213 2011 1899 2008 2113
8 2219 2116 2009 2117 2119 2010 1899 2011
8 2222 2118 2010 2119 2122 2012 1900 2013
8 2223 2119 2011 2120 2123 2013 1901 2014
8 2016 1902 2015 2125 2122 2012 2121 2225
8 2126 2016 2122 2226 2017 1903 2013 2123
8 2019 1905 2018 2128 2125 2015 2124 2228
8 2020 1906 2019 2129 2126 2016 2125 2229
8 2022 1908 2021 2131 2128 2018 2127 2231
8 2023 1909 2022 2132 2129 2019 2128 2232
8 2025 1911 2024 2134 2131 2021 2130 2234
8 2026 1912 2025 2135 2132 2022 2131 2235
8 1914 2028 2134 2024 2027 2136 2236 2133
8 2029 1915 2028 2137 2135 2025 2134 2237
8 2030 1918 2031 2138 2137 2028 2136 2238
8 2157 2050 2139 2240 2054 1941 2033 2140
8 2052 1940 2054 2161 2144 2035 2140 2242
8 2140 2033 2141 2243 2035 1923 2034 2143
8 2143 2034 2142 2246 2037 1924 2036 2146
8 2144 2035 2143 2247 2051 1939 2037 2147
8 2146 2036 2145 2249 2039 1925 2038 2149
8 2147 2037 2146 2250 2040 1926 2039 2150
8 2149 2038 2148 2251 2042 1927 2041 2151
8 2150 2039 2149 2252 2043 1928 2042 2152
8 2152 2042 2151 2253 2045 1931 2044 2153
8 2255 2154 2047 2155 2189 2085 1976 2086
8 2170 2062 1949 2063 2255 2154 2047 2155
8 2256 2155 2048 2156 2190 2086 1977 2087
8 2171 2063 1950 2064 2256 2155 2048 2156
8 2258 2159 2050 2157 2164 2056 1941 2054
8 2160 2053 1946 2058 2262 2163 2060 2167
8 2162 2055 1940 2052 2262 2163 2053 2160
8 2162 2055 2164 2263 2052 1940 2054 2161
8 2163 2057 1948 2060 2264 2165 2061 2168
8 2055 1943 2057 2163 2164 2056 2165 2264
8 2182 2076 2166 2268 2077 1964 2061 2168
8 2183 2077 2168 2269 2078 1965 2060 2167
8 2070 1963 2062 2170 2177 2075 2169 2271
8 2172 2070 1959 2065 2272 2170 2063 2171
8 2172 2070 2177 2273 2065 1959 2072 2173
8 2066 1958 2072 2173 2174 2071 2178 2274
8 2067 1957 2071 2174 2175 2069 2176 2275
8 2175 2069 2176 2275 2079 1973 2083 2184
8 2071 1961 2074 2178 2176 2073 2179 2276
8 2176 2073 2179 2276 2083 1975 2084 2186
8 2072 1962 2075 2177 2178 2074 2180 2277
8 2182 2076 1974 2082 2280 2181 2084 2186
8 2183 2077 1971 2081 2281 2182 2082 2185
8 2184 2083 2186 2282 2080 1972 2082 2185
8 2189 2085 1993 2095 2285 2188 2100 2197
8 2190 2086 1987 2090 2286 2189 2095 2193
8 2192 2097 1989 2089 2287 2196 2094 2191
8 2287 2196 2094 2191 2203 2104 1998 2103
8 2194 2098 1991 2091 2288 2199 2097 2192
8 2195 2096 2197 2289 2093 1988 2095 2193
8 2096 2195 2290 2198 1990 2092 2194 2098
8 2097 1996 2099 2196 2199 2102 2200 2291
8 2196 2099 1999 2104 2291 2200 2105 2204
8 2100 2197 2292 2201 1994 2096 2198 2101
8 1995 2098 2198 2101 2102 2199 2293 2202
8 2206 2107 2204 2296 2106 2001 2104 2203
8 2207 2108 2205 2297 2107 2002 2105 2204
8 2209 2110 2207 2299 2109 2004 2107 2206
8 2210 2111 2208 2300 2110 2005 2108 2207
8 2212 2113 2210 2302 2112 2007 2110 2209
8 2213 2114 2211 2303 2113 2008 2111 2210
8 2220 2117 2213 2305 2120 2011 2113 2212
8 2216 2115 2214 2306 2117 2009 2114 2213
8 2216 2115 2009 2117 2311 2217 2116 2219
8 2219 2116 2010 2119 2314 2218 2118 2222
8 2315 2219 2117 2220 2223 2119 2011 2120
8 2122 2012 2121 2225 2222 2118 2221 2317
8 2318 2222 2119 2223 2226 2122 2013 2123
8 2125 2015 2124 2228 2225 2121 2224 2320
8 2126 2016 2125 2229 2226 2122 2225 2321
8 2128 2018 2127 2231 2228 2124 2227 2323
8 2129 2019 2128 2232 2229 2125 2228 2324
8 2131 2021 2130 2234 2231 2127 2230 2326
8 2132 2022 2131 2235 2232 2128 2231 2327
8 2134 2024 2133 2236 2234 2130 2233 2328
8 2135 2025 2134 2237 2235 2131 2234 2329
8 2137 2028 2136 2238 2237 2134 2236 2330
8 2157 2050 2158 2259 2240 2139 2239 2332
8 2257 2157 2240 2334 2161 2054 2140 2242
8 2240 2139 2241 2335 2140 2033 2141 2243
8 2242 2140 2243 2337 2144 2035 2143 2247
8 2243 2141 2244 2338 2143 2034 2142 2246
8 2246 2142 2245 2341 2146 2036 2145 2249
8 2247 2143 2246 2342 2147 2037 2146 2250
8 2249 2145 2248 2343 2149 2038 2148 2251
8 2250 2146 2249 2344 2150 2039 2149 2252
8 2252 2149 2251 2345 2152 2042 2151 2253
8 2169 2271 2347 2254 2062 2170 2255 2154
8 2189 2085 2188 2285 2255 2154 2254 2347
8 2348 2255 2155 2256 2286 2189 2086 2190
8 2272 2170 2063 2171 2348 2255 2155 2256
8 2349 2258 2157 2257 2263 2164 2054 2161
8 2258 2159 2261 2351 2157 2050 2158 2259
8 2258 2159 2056 2164 2351 2261 2165 2264
8 2262 2163 2060 2167 2355 2264 2168 2269
8 2162 2055 2163 2262 2263 2164 2264 2355
8 2357 2266 2165 2264 2268 2166 2061 2168
8 2268 2166 2076 2182 2361 2267 2181 2280
8 2281 2182 2268 2362 2183 2077 2168 2269
8 2271 2169 2270 2364 2177 2075 2180 2277
8 2172 2070 2170 2272 2273 2177 2271 2365
8 2072 2173 2274 2178 2177 2273 2366 2277
8 2071 2174 2275 2176 2178 2274 2367 2276
8 2275 2176 2276 2367 2184 2083 2186 2282
8 2283 2187 2084 2186 2368 2278 2179 2276
8 2178 2074 2180 2277 2276 2179 2278 2368
8 2283 2187 2279 2370 2186 2084 2181 2280
8 2281 2182 2082 2185 2371 2280 2186 2282
8 2188 2285 2374 2284 2100 2197 2292 2201
8 2286 2189 2095 2193 2375 2285 2197 2289
8 2192 2097 2196 2287 2288 2199 2291 2376
8 2287 2196 2104 2203 2376 2291 2204 2296
8 2194 2098 2199 2288 2290 2198 2293 2377
8 2289 2197 2096 2195 2378 2292 2198 2290
8 2291 2200 2105 2204 2379 2294 2205 2297
8 2199 2102 2200 2291 2293 2202 2294 2379
8 2198 2101 2202 2293 2292 2201 2295 2380
8 2299 2207 2297 2383 2206 2107 2204 2296
8 2300 2208 2298 2384 2207 2108 2205 2297
8 2302 2210 2300 2386 2209 2110 2207 2299
8 2303 2211 2301 2387 2210 2111 2208 2300
8 2305 2213 2303 2389 2212 2113 2210 2302
8 2306 2214 2304 2390 2213 2114 2211 2303
8 2310 2216 2306 2392 2220 2117 2213 2305
8 2308 2215 2307 2393 2216 2115 2214 2306
8 2308 2215 2115 2216 2396 2309 2217 2311
8 2310 2216 2117 2220 2398 2311 2219 2315
8 2311 2217 2116 2219 2399 2312 2218 2314
8 2314 2218 2118 2222 2402 2313 2221 2317
8 2315 2219 2119 2223 2403 2314 2222 2318
8 2225 2121 2224 2320 2317 2221 2316 2405
8 2226 2122 2225 2321 2318 2222 2317 2406
8 2228 2124 2227 2323 2320 2224 2319 2408
8 2229 2125 2228 2324 2321 2225 2320 2409
8 2231 2127 2230 2326 2323 2227 2322 2411
8 2232 2128 2231 2327 2324 2228 2323 2412
8 2234 2130 2233 2328 2326 2230 2325 2413
8 2235 2131 2234 2329 2327 2231 2326 2414
8 2237 2134 2236 2330 2329 2234 2328 2415
8 2259 2158 2260 2352 2332 2239 2331 2417
8 2257 2157 2259 2350 2334 2240 2332 2419
8 2240 2139 2239 2332 2335 2241 2333 2420
8 2334 2240 2335 2422 2242 2140 2243 2337
8 2335 2241 2336 2423 2243 2141 2244 2338
8 2337 2243 2338 2425 2247 2143 2246 2342
8 2338 2244 2339 2426 2246 2142 2245 2341
8 2341 2245 2340 2428 2249 2145 2248 2343
8 2342 2246 2341 2429 2250 2146 2249 2344
8 2344 2249 2343 2430 2252 2149 2251 2345
8 2188 2285 2347 2254 2284 2374 2432 2346
8 2347 2254 2346 2432 2271 2169 2270 2364
8 2365 2271 2170 2272 2433 2347 2255 2348
8 2286 2189 2285 2375 2348 2255 2347 2433
8 2349 2258 2351 2435 2257 2157 2259 2350
8 2349 2258 2164 2263 2435 2351 2264 2355
8 2259 2158 2261 2351 2352 2260 2354 2437
8 2356 2265 2354 2437 2264 2165 2261 2351
8 2441 2357 2264 2355 2362 2268 2168 2269
8 2356 2265 2165 2264 2442 2358 2266 2357
8 2443 2359 2266 2357 2361 2267 2166 2268
8 2370 2279 2360 2446 2280 2181 2267 2361
8 2362 2268 2182 2281 2447 2361 2280 2371
8 2180 2277 2368 2278 2270 2364 2449 2363
8 2271 2365 2273 2177 2364 2450 2366 2277
8 2372 2283 2186 2282 2451 2368 2276 2367
8 2178 2274 2367 2276 2277 2366 2451 2368
8 2283 2187 2278 2368 2370 2279 2369 2452
8 2372 2283 2370 2453 2282 2186 2280 2371
8 2284 2374 2455 2373 2201 2292 2380 2295
8 2375 2285 2197 2289 2456 2374 2292 2378
8 2376 2291 2204 2296 2457 2379 2297 2383
8 2288 2199 2291 2376 2377 2293 2379 2457
8 2198 2290 2378 2292 2293 2377 2458 2380
8 2293 2202 2294 2379 2380 2295 2381 2459
8 2384 2298 2381 2459 2297 2205 2294 2379
8 2386 2300 2384 2463 2299 2207 2297 2383
8 2387 2301 2385 2464 2300 2208 2298 2384
8 2389 2303 2387 2466 2302 2210 2300 2386
8 2390 2304 2388 2467 2303 2211 2301 2387
8 2392 2306 2390 2469 2305 2213 2303 2389
8 2393 2307 2391 2470 2306 2214 2304 2390
8 2395 2308 2393 2472 2310 2216 2306 2392
8 2308 2215 2309 2396 2393 2307 2394 2473
8 2395 2308 2216 2310 2475 2396 2311 2398
8 2396 2309 2217 2311 2476 2397 2312 2399
8 2398 2311 2219 2315 2478 2399 2314 2403
8 2399 2312 2218 2314 2479 2400 2313 2402
8 2317 2221 2316 2405 2402 2313 2401 2482
8 2403 2314 2222 2318 2483 2402 2317 2406
8 2320 2224 2319 2408 2405 2316 2404 2485
8 2321 2225 2320 2409 2406 2317 2405 2486
8 2323 2227 2322 2411 2408 2319 2407 2488
8 2324 2228 2323 2412 2409 2320 2408 2489
8 2326 2230 2325 2413 2411 2322 2410 2490
8 2327 2231 2326 2414 2412 2323 2411 2491
8 2329 2234 2328 2415 2414 2326 2413 2492
8 2417 2331 2260 2352 2494 2416 2353 2438
8 2350 2259 2352 2436 2419 2332 2417 2496
8 2332 2239 2331 2417 2420 2333 2418 2497
8 2334 2240 2332 2419 2422 2335 2420 2499
8 2420 2333 2421 2500 2335 2241 2336 2423
8 2422 2335 2423 2502 2337 2243 2338 2425
8 2423 2336 2424 2503 2338 2244 2339 2426
8 2425 2338 2426 2505 2342 2246 2341 2429
8 2426 2339 2427 2506 2341 2245 2340 2428
8 2429 2341 2428 2507 2344 2249 2343 2430
8 2432 2346 2284 2374 2509 2431 2373 2455
8 2432 2346 2431 2509 2364 2270 2363 2449
8 2375 2285 2374 2456 2433 2347 2432 2510
8 2347 2433 2365 2271 2432 2510 2450 2364
8 2350 2259 2351 2435 2436 2352 2437 2514
8 2440 2356 2437 2514 2355 2264 2351 2435
8 2352 2260 2354 2437 2438 2353 2439 2516
8 2356 2265 2358 2442 2437 2354 2439 2516
8 2440 2356 2264 2355 2518 2442 2357 2441
8 2519 2443 2357 2441 2447 2361 2268 2362
8 2443 2359 2444 2520 2357 2266 2358 2442
8 2443 2359 2267 2361 2520 2444 2360 2446
8 2446 2360 2279 2370 2523 2445 2369 2452
8 2453 2370 2446 2524 2371 2280 2361 2447
8 2449 2363 2448 2525 2368 2278 2369 2452
8 2366 2277 2364 2450 2451 2368 2449 2526
8 2372 2283 2368 2451 2453 2370 2452 2527
8 2455 2373 2295 2380 2529 2454 2382 2460
8 2456 2374 2292 2378 2530 2455 2380 2458
8 2377 2293 2379 2457 2458 2380 2459 2531
8 2463 2384 2459 2531 2383 2297 2379 2457
8 2533 2461 2382 2460 2459 2381 2295 2380
8 2464 2385 2461 2533 2384 2298 2381 2459
8 2466 2387 2464 2537 2386 2300 2384 2463
8 2467 2388 2465 2538 2387 2301 2385 2464
8 2469 2390 2467 2540 2389 2303 2387 2466
8 2470 2391 2468 2541 2390 2304 2388 2467
8 2472 2393 2470 2543 2392 2306 2390 2469
8 2393 2307 2394 2473 2470 2391 2471 2544
8 2395 2308 2396 2475 2472 2393 2473 2546
8 2396 2309 2397 2476 2473 2394 2474 2547
8 2475 2396 2311 2398 2549 2476 2399 2478
8 2476 2397 2312 2399 2550 2477 2400 2479
8 2478 2399 2314 2403 2552 2479 2402 2483
8 2479 2400 2313 2402 2553 2480 2401 2482
8 2405 2316 2404 2485 2482 2401 2481 2556
8 2406 2317 2405 2486 2483 2402 2482 2557
8 2408 2319 2407 2488 2485 2404 2484 2559
8 2409 2320 2408 2489 2486 2405 2485 2560
8 2411 2322 2410 2490 2488 2407 2487 2561
8 2412 2323 2411 2491 2489 2408 2488 2562
8 2414 2326 2413 2492 2491 2411 2490 2563
8 2513 2434 2493 2565 2438 2353 2416 2494
8 2496 2417 2352 2436 2567 2494 2438 2515
8 2494 2416 2495 2568 2417 2331 2418 2497
8 2419 2332 2417 2496 2499 2420 2497 2570
8 2497 2418 2498 2571 2420 2333 2421 2500
8 2499 2420 2500 2573 2422 2335 2423 2502
8 2500 2421 2501 2574 2423 2336 2424 2503
8 2502 2423 2503 2576 2425 2338 2426 2505
8 2503 2424 2504 2577 2426 2339 2427 2506
8 2505 2426 2506 2578 2429 2341 2428 2507
8 2509 2431 2373 2455 2580 2508 2454 2529
8 2509 2431 2508 2580 2449 2363 2448 2525
8 2432 2510 2581 2509 2374 2456 2530 2455
8 2432 2510 2450 2364 2509 2581 2526 2449
8 2583 2511 2434 2513 2516 2439 2353 2438
8 2436 2352 2437 2514 2515 2438 2516 2588
8 2440 2356 2442 2518 2514 2437 2516 2588
8 2442 2358 2444 2520 2516 2439 2517 2589
8 2519 2443 2520 2591 2441 2357 2442 2518
8 2519 2443 2361 2447 2591 2520 2446 2524
8 2446 2360 2445 2523 2520 2444 2521 2592
8 2525 2448 2522 2593 2452 2369 2445 2523
8 2524 2446 2370 2453 2594 2523 2452 2527
8 2526 2449 2525 2595 2451 2368 2452 2527
8 2534 2462 2528 2597 2460 2382 2454 2529
8 2530 2455 2380 2458 2598 2529 2460 2532
8 2599 2533 2460 2532 2531 2459 2380 2458
8 2537 2464 2533 2599 2463 2384 2459 2531
8 2534 2462 2382 2460 2601 2535 2461 2533
8 2538 2465 2535 2601 2464 2385 2461 2533
8 2540 2467 2538 2604 2466 2387 2464 2537
8 2541 2468 2539 2605 2467 2388 2465 2538
8 2543 2470 2541 2607 2469 2390 2467 2540
8 2470 2391 2471 2544 2541 2468 2542 2608
8 2472 2393 2473 2546 2543 2470 2544 2610
8 2473 2394 2474 2547 2544 2471 2545 2611
8 2475 2396 2476 2549 2546 2473 2547 2613
8 2476 2397 2477 2550 2547 2474 2548 2614
8 2549 2476 2399 2478 2616 2550 2479 2552
8 2479 2400 2480 2553 2550 2477 2551 2617
8 2552 2479 2402 2483 2619 2553 2482 2557
8 2482 2401 2481 2556 2553 2480 2554 2620
8 2485 2404 2484 2559 2556 2481 2555 2623
8 2486 2405 2485 2560 2557 2482 2556 2624
8 2488 2407 2487 2561 2559 2484 2558 2625
8 2489 2408 2488 2562 2560 2485 2559 2626
8 2491 2411 2490 2563 2562 2488 2561 2627
8 2513 2434 2512 2585 2565 2493 2564 2630
8 2586 2513 2565 2632 2515 2438 2494 2567
8 2565 2493 2566 2633 2494 2416 2495 2568
8 2567 2494 2568 2635 2496 2417 2497 2570
8 2568 2495 2569 2636 2497 2418 2498 2571
8 2570 2497 2571 2638 2499 2420 2500 2573
8 2571 2498 2572 2639 2500 2421 2501 2574
8 2573 2500 2574 2641 2502 2423 2503 2576
8 2574 2501 2575 2642 2503 2424 2504 2577
8 2576 2503 2577 2643 2505 2426 2506 2578
8 2597 2528 2579 2645 2529 2454 2508 2580
8 2580 2508 2579 2645 2525 2448 2522 2593
8 2581 2509 2455 2530 2646 2580 2529 2598
8 2581 2509 2580 2646 2526 2449 2525 2595
8 2583 2511 2582 2648 2513 2434 2512 2585
8 2583 2511 2439 2516 2648 2582 2517 2589
8 2649 2583 2513 2586 2588 2516 2438 2515
8 2589 2517 2444 2520 2653 2587 2521 2592
8 2518 2442 2520 2591 2588 2516 2589 2654
8 2593 2522 2590 2655 2523 2445 2521 2592
8 2524 2446 2523 2594 2591 2520 2592 2656
8 2595 2525 2593 2657 2527 2452 2523 2594
8 2602 2536 2596 2659 2534 2462 2528 2597
8 2600 2534 2597 2660 2532 2460 2529 2598
8 2600 2534 2460 2532 2661 2601 2533 2599
8 2604 2538 2601 2661 2537 2464 2533 2599
8 2602 2536 2462 2534 2663 2603 2535 2601
8 2601 2535 2465 2538 2663 2603 2539 2605
8 2607 2541 2605 2665 2540 2467 2538 2604
8 2608 2542 2606 2666 2541 2468 2539 2605
8 2543 2470 2544 2610 2607 2541 2608 2668
8 2544 2471 2545 2611 2608 2542 2609 2669
8 2546 2473 2547 2613 2610 2544 2611 2671
8 2547 2474 2548 2614 2611 2545 2612 2672
8 2549 2476 2550 2616 2613 2547 2614 2674
8 2550 2477 2551 2617 2614 2548 2615 2675
8 2552 2479 2553 2619 2616 2550 2617 2677
8 2553 2480 2554 2620 2617 2551 2618 2678
8 2557 2482 2556 2624 2619 2553 2620 2680
8 2556 2481 2555 2623 2620 2554 2621 2681
8 2559 2484 2558 2625 2623 2555 2622 2683
8 2560 2485 2559 2626 2624 2556 2623 2684
8 2562 2488 2561 2627 2626 2559 2625 2685
8 2690 2629 2564 2630 2650 2584 2512 2585
8 2586 2513 2585 2651 2632 2565 2630 2691
8 2630 2564 2631 2692 2565 2493 2566 2633
8 2632 2565 2633 2694 2567 2494 2568 2635
8 2633 2566 2634 2695 2568 2495 2569 2636
8 2635 2568 2636 2697 2570 2497 2571 2638
8 2636 2569 2637 2698 2571 2498 2572 2639
8 2638 2571 2639 2700 2573 2500 2574 2641
8 2639 2572 2640 2701 2574 2501 2575 2642
8 2641 2574 2642 2702 2576 2503 2577 2643
8 2597 2528 2596 2659 2645 2579 2644 2704
8 2645 2579 2644 2704 2593 2522 2590 2655
8 2660 2597 2645 2705 2598 2529 2580 2646
8 2646 2580 2645 2705 2595 2525 2593 2657
8 2650 2584 2512 2585 2707 2647 2582 2648
8 2648 2582 2517 2589 2707 2647 2587 2653
8 2649 2583 2648 2708 2586 2513 2585 2651
8 2649 2583 2516 2588 2708 2648 2589 2654
8 2655 2590 2652 2710 2592 2521 2587 2653
8 2654 2589 2520 2591 2711 2653 2592 2656
8 2657 2593 2655 2712 2594 2523 2592 2656
8 2602 2536 2603 2663 2659 2596 2658 2714
8 2662 2602 2659 2715 2600 2534 2597 2660
8 2662 2602 2534 2600 2717 2663 2601 2661
8 2661 2601 2538 2604 2717 2663 2605 2665
8 2666 2606 2664 2718 2605 2539 2603 2663
8 2668 2608 2666 2720 2607 2541 2605 2665
8 2608 2542 2609 2669 2666 2606 2667 2721
8 2610 2544 2611 2671 2668 2608 2669 2723
8 2611 2545 2612 2672 2669 2609 2670 2724
8 2613 2547 2614 2674 2671 2611 2672 2726
8 2614 2548 2615 2675 2672 2612 2673 2727
8 2616 2550 2617 2677 2674 2614 2675 2729
8 2617 2551 2618 2678 2675 2615 2676 2730
8 2619 2553 2620 2680 2677 2617 2678 2732
8 2620 2554 2621 2681 2678 2618 2679 2733
8 2624 2556 2623 2684 2680 2620 2681 2735
8 2681 2621 2555 2623 2736 2682 2622 2683
8 2626 2559 2625 2685 2684 2623 2683 2737
8 2688 2628 2584 2650 2740 2686 2647 2707
8 2688 2628 2687 2742 2650 2584 2629 2690
8 2690 2629 2689 2745 2630 2564 2631 2692
8 2746 2690 2630 2691 2709 2650 2585 2651
8 2691 2630 2692 2747 2632 2565 2633 2694
8 2692 2631 2693 2748 2633 2566 2634 2695
8 2694 2633 2695 2750 2635 2568 2636 2697
8 2695 2634 2696 2751 2636 2569 2637 2698
8 2697 2636 2698 2753 2638 2571 2639 2700
8 2698 2637 2699 2754 2639 2572 2640 2701
8 2700 2639 2701 2755 2641 2574 2642 2702
8 2659 2596 2658 2714 2704 2644 2703 2757
8 2704 2644 2703 2757 2655 2590 2652 2710
8 2660 2597 2659 2715 2705 2645 2704 2758
8 2705 2645 2704 2758 2657 2593 2655 2712
8 2759 2706 2647 2707 2710 2652 2587 2653
8 2709 2650 2585 2651 2760 2707 2648 2708
8 2708 2648 2589 2654 2760 2707 2653 2711
8 2712 2655 2710 2761 2656 2592 2653 2711
8 2763 2713 2658 2714 2718 2664 2603 2663
8 2662 2602 2663 2717 2715 2659 2714 2764
8 2720 2666 2718 2767 2665 2605 2663 2717
8 2768 2719 2664 2718 2721 2667 2606 2666
8 2668 2608 2669 2723 2720 2666 2721 2770
8 2669 2609 2670 2724 2721 2667 2722 2771
8 2671 2611 2672 2726 2723 2669 2724 2773
8 2672 2612 2673 2727 2724 2670 2725 2774
8 2674 2614 2675 2729 2726 2672 2727 2776
8 2675 2615 2676 2730 2727 2673 2728 2777
8 2677 2617 2678 2732 2729 2675 2730 2779
8 2678 2618 2679 2733 2730 2676 2731 2780
8 2680 2620 2681 2735 2732 2678 2733 2782
8 2733 2679 2621 2681 2783 2734 2682 2736
8 2735 2681 2623 2684 2784 2736 2683 2737
8 2740 2686 2647 2707 2787 2738 2706 2759
8 2688 2628 2686 2740 2742 2687 2739 2789
8 2743 2688 2650 2709 2790 2740 2707 2760
8 2742 2687 2741 2792 2690 2629 2689 2745
8 2743 2688 2742 2793 2709 2650 2690 2746
8 2745 2689 2744 2795 2692 2631 2693 2748
8 2746 2690 2745 2796 2691 2630 2692 2747
8 2747 2692 2748 2797 2694 2633 2695 2750
8 2748 2693 2749 2798 2695 2634 2696 2751
8 2750 2695 2751 2800 2697 2636 2698 2753
8 2751 2696 2752 2801 2698 2637 2699 2754
8 2753 2698 2754 2802 2700 2639 2701 2755
8 2763 2713 2756 2804 2714 2658 2703 2757
8 2759 2706 2652 2710 2804 2756 2703 2757
8 2715 2659 2714 2764 2758 2704 2757 2805
8 2758 2704 2757 2805 2712 2655 2710 2761
8 2806 2759 2707 2760 2761 2710 2653 2711
8 2765 2716 2762 2808 2718 2664 2713 2763
8 2809 2763 2714 2764 2767 2718 2663 2717
8 2765 2716 2664 2718 2811 2766 2719 2768
8 2813 2768 2718 2767 2770 2721 2666 2720
8 2814 2769 2719 2768 2771 2722 2667 2721
8 2723 2669 2724 2773 2770 2721 2771 2816
8 2724 2670 2725 2774 2771 2722 2772 2817
8 2726 2672 2727 2776 2773 2724 2774 2819
8 2727 2673 2728 2777 2774 2725 2775 2820
8 2729 2675 2730 2779 2776 2727 2777 2822
8 2730 2676 2731 2780 2777 2728 2778 2823
8 2732 2678 2733 2782 2779 2730 2780 2825
8 2780 2731 2679 2733 2826 2781 2734 2783
8 2782 2733 2681 2735 2827 2783 2736 2784
8 2830 2785 2738 2787 2804 2756 2706 2759
8 2789 2739 2686 2740 2832 2786 2738 2787
8 2790 2740 2707 2760 2833 2787 2759 2806
8 2742 2687 2739 2789 2792 2741 2788 2835
8 2743 2688 2740 2790 2793 2742 2789 2836
8 2792 2741 2791 2838 2745 2689 2744 2795
8 2793 2742 2792 2839 2746 2690 2745 2796
8 2795 2744 2794 2841 2748 2693 2749 2798
8 2796 2745 2795 2842 2747 2692 2748 2797
8 2797 2748 2798 2843 2750 2695 2751 2800
8 2798 2749 2799 2844 2751 2696 2752 2801
8 2800 2751 2801 2845 2753 2698 2754 2802
8 2808 2762 2803 2847 2763 2713 2756 2804
8 2809 2763 2804 2848 2764 2714 2757 2805
8 2806 2759 2710 2761 2848 2804 2757 2805
8 2765 2716 2766 2811 2808 2762 2807 2850
8 2810 2765 2808 2851 2767 2718 2763 2809
8 2810 2765 2718 2767 2852 2811 2768 2813
8 2811 2766 2719 2768 2853 2812 2769 2814
8 2855 2814 2768 2813 2816 2771 2721 2770
8 2856 2815 2769 2814 2817 2772 2722 2771
8 2773 2724 2774 2819 2816 2771 2817 2858
8 2774 2725 2775 2820 2817 2772 2818 2859
8 2776 2727 2777 2822 2819 2774 2820 2861
8 2777 2728 2778 2823 2820 2775 2821 2862
8 2779 2730 2780 2825 2822 2777 2823 2864
8 2823 2778 2731 2780 2865 2824 2781 2826
8 2825 2780 2733 2782 2866 2826 2783 2827
8 2869 2828 2785 2830 2847 2803 2756 2804
8 2871 2829 2786 2832 2830 2785 2738 2787
8 2872 2830 2787 2833 2848 2804 2759 2806
8 2789 2739 2786 2832 2835 2788 2831 2874
8 2836 2789 2740 2790 2875 2832 2787 2833
8 2792 2741 2788 2835 2838 2791 2834 2877
8 2793 2742 2789 2836 2839 2792 2835 2878
8 2838 2791 2837 2880 2795 2744 2794 2841
8 2839 2792 2838 2881 2796 2745 2795 2842
8 2841 2794 2840 2882 2798 2749 2799 2844
8 2842 2795 2841 2883 2797 2748 2798 2843
8 2843 2798 2844 2884 2800 2751 2801 2845
8 2886 2846 2803 2847 2850 2807 2762 2808
8 2851 2808 2847 2887 2809 2763 2804 2848
8 2850 2807 2766 2811 2889 2849 2812 2853
8 2810 2765 2811 2852 2851 2808 2850 2890
8 2852 2811 2768 2813 2891 2853 2814 2855
8 2853 2812 2769 2814 2892 2854 2815 2856
8 2894 2856 2814 2855 2858 2817 2771 2816
8 2817 2772 2818 2859 2856 2815 2857 2895
8 2819 2774 2820 2861 2858 2817 2859 2897
8 2820 2775 2821 2862 2859 2818 2860 2898
8 2822 2777 2823 2864 2861 2820 2862 2900
8 2823 2778 2824 2865 2862 2821 2863 2901
8 2864 2823 2780 2825 2902 2865 2826 2866
8 2904 2867 2828 2869 2886 2846 2803 2847
8 2869 2828 2868 2906 2830 2785 2829 2871
8 2907 2869 2830 2872 2887 2847 2804 2848
8 2871 2829 2870 2909 2832 2786 2831 2874
8 2910 2871 2832 2875 2872 2830 2787 2833
8 2835 2788 2831 2874 2877 2834 2873 2912
8 2836 2789 2832 2875 2878 2835 2874 2913
8 2877 2834 2876 2915 2838 2791 2837 2880
8 2839 2792 2835 2878 2881 2838 2877 2916
8 2880 2837 2879 2917 2841 2794 2840 2882
8 2881 2838 2880 2918 2842 2795 2841 2883
8 2883 2841 2882 2919 2843 2798 2844 2884
8 2921 2885 2846 2886 2889 2849 2807 2850
8 2922 2886 2847 2887 2890 2850 2808 2851
8 2889 2849 2812 2853 2924 2888 2854 2892
8 2890 2850 2811 2852 2925 2889 2853 2891
8 2891 2853 2814 2855 2926 2892 2856 2894
8 2892 2854 2815 2856 2927 2893 2857 2895
8 2858 2817 2859 2897 2894 2856 2895 2929
8 2859 2818 2860 2898 2895 2857 2896 2930
8 2861 2820 2862 2900 2897 2859 2898 2932
8 2862 2821 2863 2901 2898 2860 2899 2933
8 2864 2823 2865 2902 2900 2862 2901 2934
8 2904 2867 2846 2886 2936 2903 2885 2921
8 2904 2867 2903 2936 2869 2828 2868 2906
8 2937 2904 2869 2907 2922 2886 2847 2887
8 2906 2868 2905 2939 2871 2829 2870 2909
8 2907 2869 2906 2940 2872 2830 2871 2910
8 2909 2870 2908 2942 2874 2831 2873 2912
8 2910 2871 2909 2943 2875 2832 2874 2913
8 2912 2873 2911 2945 2877 2834 2876 2915
8 2878 2835 2874 2913 2916 2877 2912 2946
8 2915 2876 2914 2947 2880 2837 2879 2917
8 2916 2877 2915 2948 2881 2838 2880 2918
8 2918 2880 2917 2949 2883 2841 2882 2919
8 2921 2885 2849 2889 2951 2920 2888 2924
8 2952 2921 2886 2922 2925 2889 2850 2890
8 2924 2888 2854 2892 2954 2923 2893 2927
8 2925 2889 2853 2891 2955 2924 2892 2926
8 2926 2892 2856 2894 2956 2927 2895 2929
8 2895 2857 2896 2930 2927 2893 2928 2957
8 2897 2859 2898 2932 2929 2895 2930 2959
8 2898 2860 2899 2933 2930 2896 2931 2960
8 2900 2862 2901 2934 2932 2898 2933 2961
8 2936 2903 2885 2921 2963 2935 2920 2951
8 2936 2903 2935 2963 2906 2868 2905 2939
8 2937 2904 2886 2922 2964 2936 2921 2952
8 2937 2904 2936 2964 2907 2869 2906 2940
8 2939 2905 2938 2966 2909 2870 2908 2942
8 2940 2906 2939 2967 2910 2871 2909 2943
8 2942 2908 2941 2969 2912 2873 2911 2945
8 2943 2909 2942 2970 2913 2874 2912 2946
8 2945 2911 2944 2971 2915 2876 2914 2947
8 2946 2912 2945 2972 2916 2877 2915 2948
8 2948 2915 2947 2973 2918 2880 2917 2949
8 2951 2920 2888 2924 2975 2950 2923 2954
8 2952 2921 2889 2925 2976 2951 2924 2955
8 2927 2893 2928 2957 2954 2923 2953 2978
8 2955 2924 2892 2926 2979 2954 2927 2956
8 2929 2895 2930 2959 2956 2927 2957 2980
8 2930 2896 2931 2960 2957 2928 2958 2981
8 2932 2898 2933 2961 2959 2930 2960 2982
8 2951 2920 2950 2975 2963 2935 2962 2984
8 2963 2935 2962 2984 2939 2905 2938 2966
8 2964 2936 2921 2952 2985 2963 2951 2976
8 2964 2936 2963 2985 2940 2906 2939 2967
8 2966 2938 2965 2987 2942 2908 2941 2969
8 2967 2939 2966 2988 2943 2909 2942 2970
8 2969 2941 2968 2989 2945 2911 2944 2971
8 2970 2942 2969 2990 2946 2912 2945 2972
8 2972 2945 2971 2991 2948 2915 2947 2973
8 2954 2923 2953 2978 2975 2950 2974 2993
8 2976 2951 2924 2955 2994 2975 2954 2979
8 2957 2928 2958 2981 2978 2953 2977 2995
8 2956 2927 2957 2980 2979 2954 2978 2996
8 2959 2930 2960 2982 2980 2957 2981 2997
8 2984 2962 2983 2999 2966 2938 2965 2987
8 2975 2950 2974 2993 2984 2962 2983 2999
8 2976 2951 2975 2994 2985 2963 2984 3000
8 2985 2963 2984 3000 2967 2939 2966 2988
8 2987 2965 2986 3001 2969 2941 2968 2989
8 2988 2966 2987 3002 2970 2942 2969 2990
8 2990 2969 2989 3003 2972 2945 2971 2991
8 2978 2953 2977 2995 2993 2974 2992 3004
8 2979 2954 2978 2996 2994 2975 2993 3005
8 2980 2957 2981 2997 2996 2978 2995 3006
8 2974 2993 2999 2983 2992 3004 3007 2998
8 2983 2999 2987 2965 2998 3007 3001 2986
8 3000 2984 2999 3008 2988 2966 2987 3002
8 2994 2975 2993 3005 3000 2984 2999 3008
8 3002 2987 3001 3009 2990 2969 2989 3003
8 2996 2978 2995 3006 3005 2993 3004 3010
8 3005 2993 3004 3010 3008 2999 3007 3011
8 3008 2999 3007 3011 3002 2987 3001 3009

CELL_TYPES 1910
12
12
12
12
12
12
12
12
12
12
12
12
12
12
12
12
12
12
12
12
12
12
12
12
12
12
12
12
12
12
12
12
12
12
12
12
12
12
12
12
12
12
12
12
12
12
12
12
12
12
12
12
12
12
12
12
12
12
12
12
12
12
12
12
12
12
12
12
12
12
12
12
12
12
12
12
12
12
12
12
12
12
12
12
12
12
12
12
12
12
12
12
12
12
12
12
12
12
12
12
12
12
12
12
12
12
12
12
12
12
12
12
12
12
12
12
12
12
12
12
12
12
12
12
12
12
12
12
12
12
12
12
12
12
12
12
12
12
12
12
12
12
12
12
12
12
12
12
12
12
12
12
12
12
12
12
12
12
12
12
12
12
12
12
12
12
12
12
12
12
12
12
12
12
12
12
12
12
12
12
12
12
12
12
12
12
12
12
12
12
12
12
12
12
12
12
12
12
12
12
12
12
12
12
12
12
12
12
12
12
12
12
12
12
12
12
12
12
12
12
12
12
12
12
12
12
12
12
12
12
12
12
12
12
12
12
12
12
12
12
12
12
12
12
12
12
12
12
12
12
12
12
12
12
12
12
12
12
12
12
12
12
12
12
12
12
12
12
12
12
12
12
12
12
12
12
12
12
12
12
12
12
12
12
12
12
12
12
12
12
12
12
12
12
12
12
12
12
12
12
12
12
12
12
12
12
12
12
12
12
12
12
12
12
12
12
12
12
12
12
12
12
12
12
12
12
12
12
12
12
12
12
12
12
12
12
12
12
12
12
12
12
12
12
12
12
12
12
12
12
12
12
12
12
12
12
12
12
12
12
12
12
12
12
12
12
12
12
12
12
12
12
12
12
12
12
12
12
12
12
12
12
12
12
12
12
12
12
12
12
12
12
12
12
12
12
12
12
12
12
12
12
12
12
12
12
12
12
12
12
12
12
12
12
12
12
12
12
12
12
12
12
12
12
12
12
12
12
12
12
12
12
12
12
12
12
12
12
12
12
12
12
12
12
12
12
12
12
12
12
12
12
12
12
12
12
12
12
12
12
12
12
12
12
12
12
12
12
12
12
12
12
12
12
12
12
12
12
12
12
12
12
12
12
12
12
12
12
12
12
12
12
12
12
12
12
12
12
12
12
12
12
12
12
12
12
12
12
12
12
12
12
12
12
12
12
12
12
12
12
12
12
12
12
12
12
12
12
12
12
12
12
12
12
12
12
12
12
12
12
12
12
12
12
12
12
12
12
12
12
12
12
12
12
12
12
12
12
12
12
12
12
12
12
12
12
12
12
12
12
12
12
12
12
12
12
12
12
12
12
12
12
12
12
12
12
12
12
12
12
12
12
12
12
12
12
12
12
12
12
12
12
12
12
12
12
12
12
12
12
12
12
12
12
12
12
12
12
12
12
12
12
12
12
12
12
12
12
12
12
12
12
12
12
12
12
12
12
12
12
12
12
12
12
12
12
12
12
12
12
12
12
12
12
12
12
12
12
12
12
12
12
12
12
12
12
12
12
12
12
12
12
12
12
12
12
12
12
12
12
12
12
12
12
12
12
12
12
12
12
12
12
12
12
12
12
12
12
12
12
12
12
12
12
12
12
12
12
12
12
12
12
12
12
12
12
12
12
12
12
12
12
12
12
12
12
12
12
12
12
12
12
12
12
12
12
12
12
12
12
12
12
12
12
12
12
12
12
12
12
12
12
12
12
12
12
12
12
12
12
12
12
12
12
12
12
12
12
12
12
12
12
12
12
12
12
12
12
12
12
12
12
12
12
12
12
12
12
12
12
12
12
12
12
12
12
12
12
12
12
12
12
12
12
12
12
12
12
12
12
12
12
12
12
12
12
12
12
12
12
12
12
12
12
12
12
12
12
12
12
12
12
12
12
12
12
12
12
12
12
12
12
12
12
12
12
12
12
12
12
12
12
12
12
12
12
12
12
12
12
12
12
12
12
12
12
12
12
12
12
12
12
12
12
12
12
12
12
12
12
12
12
12
12
12
12
12
12
12
12
12
12
12
12
12
12
12
12
12
12
12
12
12
12
12
12
12
12
12
12
12
12
12
12
12
12
12
12
12
12
12
12
12
12
12
12
12
12
12
12
12
12
12
12
12
12
12
12
12
12
12
12
12
12
12
12
12
12
12
12
12
12
12
12
12
12
12
12
12
12
12
12
12
12
12
12
12
12
12
12
12
12
12
12
12
12
12
12
12
12
12
12
12
12
12
12
12
12
12
12
12
12
12
12
12
12
12
12
12
12
12
12
12
12
12
12
12
12
12
12
12
12
12
12
12
12
12
12
12
12
12
12
12
12
12
12
12
12
12
12
12
12
12
12
12
12
12
12
12
12
12
12
12
12
12
12
12
12
12
12
12
12
12
12
12
12
12
12
12
12
12
12
12
12
12
12
12
12
12
12
12
12
12
12
12
12
12
12
12
12
12
12
12
12
12
12
12
12
12
12
12
12
12
12
12
12
12
12
12
12
12
12
12
12
12
12
12
12
12
12
12
12
12
12
12
12
12
12
12
12
12
12
12
12
12
12
12
12
12
12
12
12
12
12
12
12
12
12
12
12
12
12
12
12
12
12
12
12
12
12
12
12
12
12
12
12
12
12
12
12
12
12
12
12
12
12
12
12
12
12
12
12
12
12
12
12
12
12
12
12
12
12
12
12
12
12
12
12
12
12
12
12
12
12
12
12
12
12
12
12
12
12
12
12
12
12
12
12
12
12
12
12
12
12
12
12
12
12
12
12
12
12
12
12
12
12
12
12
12
12
12
12
12
12
12
12
12
12
12
12
12
12
12
12
12
12
12
12
12
12
12
12
12
12
12
12
12
12
12
12
12
12
12
12
12
12
12
12
12
12
12
12
12
12
12
12
12
12
12
12
12
12
12
12
12
12
12
12
12
12
12
12
12
12
12
12
12
12
12
12
12
12
12
12
12
12
12
12
12
12
12
12
12
12
12
12
12
12
12
12
12
12
12
12
12
12
12
12
12
12
12
12
12
12
12
12
12
12
12
12
12
12
12
12
12
12
12
12
12
12
12
12
12
12
12
12
12
12
12
12
12
12
12
12
12
12
12
12
12
12
12
12
12
12
12
12
12
12
12
12
12
12
12
12
12
12
12
12
12
12
12
12
12
12
12
12
12
12
12
12
12
12
12
12
12
12
12
12
12
12
12
12
12
12
12
12
12
12
12
12
12
12
12
12
12
12
12
12
12
12
12
12
12
12
12
12
12
12
12
12
12
12
12
12
12
12
12
12
12
12
12
12
12
12
12
12
12
12
12
12
12
12
12
12
12
12
12
12
12
12
12
12
12
12
12
12
12
12
12
12
12
12
12
12
12
12
12
12
12
12
12
12
12
12
12
12
12
12
12
12
12
12
12
12
12
12
12
12
12
12
12
12
12
12
12
12
12
12
12
12
12
12
12
12
12
12
12
12
12
12
12
12
12
12
12
12
12
12
12
12
12
12
12
12
12
12
12
12
12
12
12
12
12
12
12
12
12
12
12
12
12
12
12
12
12
12
12
12
12
12
12
12
12
12
12
12
12
12
12
12
12
12
12
12
12
12
12
12
12
12
12
12
12
12
12
12
12
12
12
12
12
12
12
12
12
12
12
12
12
12
12
12
12
12
12
12
12
12
12
12
12
12
12
12
12
12
12
12
12
12
12
12
12
12
12
12
12
12
12
12
12
12
12
12
12
12
12
12
12
12
12
12
12
12
12
12
12
12
12
12
12
12
12
12
12
12
12
12
12
12
12
12
12
12
12
12
12
12
12
12
12
12
12
12
12
12
12
12
12
12
12
12
12
12
12
12
12
12
12
12
12
12
12
12
12
12
12
12
12
12
12
12
12
12
12
12
12
12
12
12
12
12
12
12
12
12
12
12
12
12
12
12
12
12
12
12
12
12
12
12
12
12
12
12
12
12
12
12
12
12
12
12
12
12
12
12
12
12
12
12
12
12
12
12
12
12
12
12
12
12
12
12
12
12
12
12
12
12
12
12
12
12
12
12
12
12
12
12
12
12
12
12
12
12
12
12
12
12
12
12
12
12
12
12
12
12
12
12
12
12
12
12
12
12
12
12
12
12
12
12
12
12
12
12
12
12
12
12
12
12
12
12
12
12
12
12
12
12
12
12
12
12
12
12
12
12
12
12
12
12
12
12
12
12
12
12
12
12
12
12
12
12
12
12
12
12
12
12
12
12
12
12
12
12
12
12
12
12
12
12
12
12
12
12
12
12
12
12
12
12
12
12
12
12
12
12
12
12
12
12
12
12
12
12
12
12
12
12
12
12

POINT_DATA 3012
SCALARS Jp_lamdaP float 4
LOOKUP_TABLE default
0.999847 1 1 0.999847
1 1 1 1
0.999852 1 1 0.999852
0.999803 1 1 0.999803
0.999846 1 1 0.999846
0.999841 1 1 0.999841
0.9993 1 1 0.9993
1 1 1 1
1 1 1 1
1 1 1 1
0.99992 1 1 0.99992
0.999457 1 1 0.999457
0.999768 1 1 0.999768
0.999795 1 1 0.999795
0.999852 1 1 0.999852
0.999819 1 1 0.999819
0.999845 1 1 0.999845
0.999855 1 1 0.999855
0.999303 1 1 0.999303
1 1 1 1
0.999783 1 1 0.999783
0.999829 1 1 0.999829
0.99917 1 1 0.99917
0.999269 1 1 0.999269
0.99986 1 1 0.99986
0.999332 1 1 0.999332
0.999069 1.00063 1 0.998437
1 1 1 1
0.999912 1 1 0.999912
0.999926 1 1 0.999926
1 1 1 1
0.999465 1 1 0.999465
0.999819 1 1 0.999819
0.999842 1 1 0.999842
0.999388 1 1 0.999388
1 1 1 1
0.999477 1 1 0.999477
0.999555 1 1 0.999555
0.998476 1 1 0.998476
1 1 1 1
1 1 1 1
0.999896 1 1 0.999896
1 1 1 1
0.999788 1 1 0.999788
0.999099 1 1 0.999099
1 1 1 1
0.999294 1 1 0.999294
0.999833 1 1 0.999833
0.999861 1 1 0.999861
0.999847 1 1 0.999847
0.999308 1 1 0.999308
0.99988 1 1 0.99988
0.999799 1 1 0.999799
0.99987 1 1 0.99987
0.999842 1 1 0.999842
0.99917 1 1 0.99917
0.999336 1 1 0.999336
0.999272 1 1 0.999272
0.999297 1.00088 1 0.998422
1 1 1 1
0.999772 1 1 0.999772
0.999271 1 1 0.999271
0.999134 1 1 0.999134
0.999221 1 1 0.999221
1.00113 1.003 1 0.998139
0.99972 1.00145 1 0.998272
0.999917 1 1 0.999917
0.999447 1 1 0.999447
0.998666 1.00012 1 0.998541
1.00604 1.00838 1 0.997684
1 1 1 1
1 1 1 1
1 1 1 1
0.999473 1 1 0.999473
1 1 1 1
1 1 1 1
0.999303 1 1 0.999303
0.999981 1 1 0.999981
0.999411 1 1 0.999411
0.999612 1 1 0.999612
0.998473 1 1 0.998473
1 1 1 1
0.999943 1 1 0.999943
0.999242 1 1 0.999242
0.99934 1 1 0.99934
1.00087 1.00283 1 0.998054
0.999761 1 1 0.999761
0.998664 1.00029 1 0.998375
0.998612 1 1 0.998612
0.99848 1.00057 1 0.997912
1 1 1 1
1 1 1 1
1 1 1 1
1 1 1 1
1 1 1 1
0.99989 1 1 0.99989
0.99918 1 1 0.99918
0.999901 1 1 0.999901
0.999246 1 1 0.999246
1 1 1 1
0.999087 1 1 0.999087
0.999267 1 1 0.999267
1.00084 1.00308 1 0.997764
0.999329 1 1 0.999329
1.00224 1.0044 1 0.997848
0.999786 1 1 0.999786
0.999813 1 1 0.999813
0.999879 1 1 0.999879
0.999853 1 1 0.999853
0.999172 1 1 0.999172
0.999277 1 1 0.999277
0.999342 1 1 0.999342
0.999511 1.00111 1 0.998407
1 1 1 1
0.999788 1 1 0.999788
0.999112 1 1 0.999112
0.999133 1 1 0.999133
0.999958 1 1 0.999958
0.999502 1 1 0.999502
0.999223 1 1 0.999223
1.0011 1.00301 1 0.998099
0.998756 1.00023 1 0.998523
0.999918 1.00162 1 0.998301
1.00622 1.00855 1 0.997689
0.999109 1 1 0.999109
0.999113 1 1 0.999113
1.00046 1.00254 1 0.997933
1.00117 1.00315 1 0.998023
1.0008 1.00265 1 0.998155
1.0131 1.01565 1 0.997485
1 1 1 1
1.00818 1.01059 1 0.997616
0.999673 1 1 0.999673
0.998574 1 1 0.998574
1.00427 1.00653 1 0.997752
1.0166 1.0192 1 0.997445
0.999854 1 1 0.999854
0.999716 1 1.00058 0.999135
1 1 1 1
1 1 1 1
0.99931 1 1 0.99931
1 1 1 1
0.999609 1 1 0.999609
0.999416 1 1 0.999416
0.998469 1 1 0.998469
1 1 1 1
0.999958 1 1 0.999958
0.999303 1 1 0.999303
0.999397 1 1 0.999397
1.00044 1.00239 1 0.998056
0.999772 1 1 0.999772
0.998534 1.00016 1 0.998378
0.998611 1 1 0.998611
0.998434 1.00054 1 0.997896
0.999868 1 1 0.999868
0.999987 1 1 0.999987
0.999522 1 1.00019 0.999329
1.00192 1.00398 1 0.997942
0.999543 1.00133 1 0.998217
1.00947 1.01202 1 0.997479
0.998835 1 1 0.998835
1.00184 1.00404 1 0.997806
0.998889 1.00032 1.00057 0.998004
1.00187 1.00415 1 0.997732
1 1 1 1
1 1 1 1
1 1 1 1
0.999912 1 1 0.999912
1 1 1 1
1 1 1 1
1 1 1 1
0.999195 1 1 0.999195
0.999125 1 1 0.999125
1 1 1 1
1 1 1 1
0.999088 1 1 0.999088
0.999219 1 1 0.999219
1.00108 1.00332 1 0.997764
0.999223 1 1 0.999223
1.00229 1.00446 1 0.997848
0.99908 1 1 0.99908
1.0002 1.00249 1 0.997716
1.00161 1.00381 1 0.997816
1.01624 1.019 1 0.99729
1.00234 1.00447 1 0.997881
1.01672 1.01941 1 0.997357
1 1 1 1
0.999803 1 1 0.999803
0.99894 1 1 0.99894
0.999132 1 1 0.999132
1 1 1 1
0.999557 1 1 0.999557
0.999226 1 1 0.999226
1.00107 1.00302 1 0.998058
1.00012 1.00179 1 0.99833
0.998847 1.00034 1 0.998504
1.0064 1.00872 1 0.997693
0.999106 1 1 0.999106
0.999111 1 1 0.999111
1.00033 1.00249 1 0.997839
1.00119 1.00315 1 0.998051
1 1 1 1
0.999671 1 1 0.999671
0.998633 1.00001 1 0.998627
1.00076 1.00261 1 0.998154
1.01299 1.01558 1 0.997448
1.00421 1.00648 1 0.997741
1.00845 1.01083 1 0.997647
1.01614 1.01874 1 0.997452
0.999844 1 1 0.999844
0.999747 1 1.00061 0.999137
0.999882 1.00215 1 0.997737
1.00091 1.00293 1 0.997983
1.01418 1.01684 1 0.997387
1.01352 1.01619 1 0.997374
1.01044 1.0129 1 0.997579
1.02444 1.02714 1 0.997374
0.999775 1 1 0.999775
1.01847 1.02109 1 0.997438
0.998833 1 1.00009 0.998739
1.00032 1.00245 1 0.997878
1.01432 1.01688 1 0.997483
1.01959 1.02218 1 0.997467
0.999387 1 1.0004 0.998985
0.999404 1 1.00007 0.999329
1.00046 1 1.00189 0.998582
0.999262 1 1 0.999262
1 1 1 1
0.999973 1 1 0.999973
0.999368 1 1 0.999368
1.00001 1.00195 1 0.998058
0.999781 1 1 0.999781
0.99865 1 1.00004 0.99861
0.998424 1.00004 1 0.998381
0.998436 1.00056 1 0.99788
0.999887 1 1 0.999887
0.999991 1 1 0.999991
0.999632 1 1.0003 0.999332
1.00163 1.0037 1 0.997942
0.99919 1.00097 1 0.998221
1.00933 1.01188 1 0.997477
0.998858 1 1.00002 0.998838
1.00137 1.00356 1 0.997816
0.998902 1.00043 1.00047 0.997999
1.00202 1.00432 1 0.997717
0.999999 1 1 0.999999
0.999232 1 1.00016 0.999072
0.999766 1 1.00019 0.999578
0.99971 1 1.00094 0.998772
1.01283 1.01547 1 0.997396
1.006 1.00837 1 0.997647
1.01893 1.02169 1 0.997293
0.998734 1.00004 1.00044 0.998262
1.00714 1.00954 1 0.997626
1.00362 1.00436 1.00158 0.997686
1.00997 1.01241 1 0.997585
0.999851 1 1 0.999851
1 1 1 1
1 1 1 1
1 1 1 1
1 1 1 1
0.999954 1 1 0.999954
1 1 1 1
0.9999 1 1 0.9999
1 1 1 1
0.999224 1 1 0.999224
0.999164 1 1 0.999164
1.00242 1.00458 1 0.997848
1.00131 1.00355 1 0.997765
0.99909 1 1 0.99909
1 1 1 1
0.999079 1 1 0.999079
1.00036 1.00265 1 0.997716
1.00183 1.00403 1 0.997816
1.016 1.01877 1 0.997289
1.00229 1.00442 1 0.99788
1.01669 1.01939 1 0.997355
0.999816 1.00211 1 0.997708
1.01531 1.01811 1 0.997245
1.01683 1.01955 1 0.997331
1.02989 1.03265 1 0.99733
1.01574 1.01842 1 0.99737
1.02869 1.03143 1 0.99734
0.999103 1 1 0.999103
0.999109 1 1 0.999109
1.0002 1.00246 1 0.997745
1.00122 1.00315 1 0.99808
1 1 1 1
0.99967 1 1 0.99967
0.998698 1.00002 1 0.998679
1.00072 1.00258 1 0.998153
1.01288 1.01551 1 0.997411
1.0087 1.01105 1 0.997678
1.00411 1.0064 1 0.997729
1.01578 1.01837 1 0.997458
0.999834 1 1 0.999834
0.999784 1 1.00065 0.999138
0.999837 1.00213 1 0.997712
1.00088 1.0029 1 0.99798
1.0144 1.01706 1 0.997385
1.01366 1.0163 1 0.997409
0.999765 1 1 0.999765
0.998754 1 1.00002 0.998736
1.00091 1.003 1 0.997913
1.01068 1.01313 1 0.997575
1.02474 1.02743 1 0.997386
1.01364 1.01623 1 0.99745
1.01834 1.02095 1 0.997441
1.01996 1.02255 1 0.997467
0.999291 1 1.0003 0.998987
1.00042 1 1.00184 0.998584
0.99964 1 1.00031 0.999326
1.01434 1.01706 1 0.997333
1.01459 1.01722 1 0.997413
1.02826 1.03102 1 0.997316
1.02648 1.02922 1 0.997334
1.02047 1.02311 1 0.997427
1.02599 1.02852 1 0.997541
0.998889 1 1.00001 0.998882
1.02161 1.02416 1 0.997509
0.998649 1.00046 1 0.998192
1.00594 1.00849 1 0.997477
1.0172 1.01993 1 0.997326
1.01849 1.02091 1 0.997624
0.999497 1 1 0.999497
0.998713 1 1.00016 0.99855
1.00097 1 1.0023 0.998675
0.999594 1 1.00119 0.998407
1.00136 1.00343 1 0.997942
0.999996 1 1 0.999996
0.999906 1 1 0.999906
0.999627 1 1.00029 0.999334
0.998811 1.00059 1 0.998226
1.00917 1.01173 1 0.997474
0.998841 1 1 0.998841
0.998825 1.0005 1.00033 0.997995
1.00087 1.00305 1 0.997827
1.00199 1.0043 1 0.997702
0.999999 1 1 0.999999
0.999239 1 1.00017 0.999072
0.999661 1 1.00008 0.999585
0.999953 1 1.00119 0.998767
1.01267 1.01532 1 0.997392
1.00521 1.00758 1 0.997648
1.0189 1.02166 1 0.997291
0.998722 1.00001 1.00045 0.998267
1.00723 1.00962 1 0.99764
1.00346 1.00406 1.00173 0.997675
1.01005 1.01242 1 0.997652
1 1 1 1
0.999731 1 1 0.999731
0.998915 1 1.00037 0.998545
0.999685 1 1.00067 0.999014
0.999776 1 1.00129 0.99849
1.02225 1.02504 1 0.997273
1.01325 1.01585 1 0.99744
1.01831 1.02105 1 0.997316
1.00132 1.00143 1.00199 0.997897
1.01022 1.01269 1 0.99756
1.00704 1.0088 1.00086 0.997404
0.999833 1 1 0.999833
0.999452 1 1 0.999452
0.999863 1 1 0.999863
0.999853 1 1 0.999853
1 1 1 1
1 1 1 1
1 1 1 1
1 1 1 1
1 1 1 1
0.999984 1 1 0.999984
1 1 1 1
0.999944 1 1 0.999944
1 1 1 1
0.999889 1 1 0.999889
1 1 1 1
1.0022 1.00433 1 0.997879
1.002 1.00419 1 0.997815
1.01651 1.01921 1 0.997354
1.01575 1.01851 1 0.997287
1.00056 1.00285 1 0.997716
0.999078 1 1 0.999078
0.999927 1.00222 1 0.997708
1.01525 1.01805 1 0.997246
1.01649 1.01921 1 0.99733
1.03015 1.0329 1 0.997343
1.01534 1.01802 1 0.997367
1.02818 1.03093 1 0.997339
1.0148 1.01761 1 0.997236
1.02914 1.0319 1 0.997325
1.03013 1.03287 1 0.997341
1.0335 1.0363 0.999792 0.997501
1.02483 1.02759 1 0.997312
1.02923 1.03173 1 0.997576
0.999819 1.00214 1 0.997686
1.00084 1.00287 1 0.997977
1.01462 1.01728 1 0.997384
1.0138 1.0164 1 0.997445
0.999754 1 1 0.999754
0.998734 1 1 0.998734
1.00148 1.00354 1 0.997947
1.01093 1.01339 1 0.997572
1.02506 1.02774 1 0.997399
1.01821 1.02082 1 0.997445
1.01287 1.01549 1 0.997416
1.02029 1.02288 1 0.997467
0.999214 1 1.00022 0.99899
1.00037 1 1.00178 0.998586
0.999843 1 1.00052 0.999323
1.01447 1.01722 1 0.997298
1.0147 1.01733 1 0.997411
1.02786 1.03061 1 0.997332
1.02673 1.02947 1 0.997335
0.998928 1 1.00005 0.998881
0.999147 1.00096 1 0.998186
1.00536 1.00782 1.00003 0.997528
1.02064 1.02328 1 0.997424
1.02553 1.02802 1 0.997578
1.01724 1.02 1 0.997294
1.02163 1.02418 1 0.997513
1.01813 1.02053 1 0.997649
0.99882 1 1.00027 0.998552
0.999578 1 1.00119 0.998389
0.999492 1 1 0.999492
1.00092 1 1.00222 0.998701
1.02817 1.03097 1 0.997287
1.02865 1.03139 1 0.997347
1.03032 1.03304 0.999946 0.997423
1.02796 1.03071 0.999768 0.997567
1.02329 1.02579 1 0.997566
1.02448 1.02681 1 0.997732
0.998436 1 1 0.998436
1.01872 1.02099 1 0.997769
0.999165 1.00135 1 0.997816
1.0097 1.01231 1.00018 0.99724
1.01863 1.02142 1 0.997263
1.01736 1.01972 1 0.997686
0.999611 1 1 0.999611
0.999364 1 1.0005 0.998864
0.998366 1 1 0.998366
1.00114 1 1.00269 0.998452
0.999027 1 1.00067 0.998362
1 1 1 1
1.01245 1.0151 1 0.997388
0.999593 1 1 0.999593
0.999325 1 1.00025 0.999073
1.00027 1 1.00151 0.998762
1.0045 1.00687 1 0.997649
1.01894 1.02171 1 0.997289
0.998778 1 1.00051 0.998273
1.00363 1.00403 1.00193 0.997664
1.00743 1.0098 1 0.997654
1.01034 1.01265 1 0.997718
1 1 1 1
0.999738 1 1 0.999738
0.998924 1 1.00038 0.998547
0.999858 1 1.00084 0.999014
1.00015 1 1.00168 0.998468
1.0225 1.0253 1 0.997267
1.01356 1.01617 1 0.997439
1.01823 1.02098 1 0.997307
1.00099 1.00096 1.00213 0.997902
1.01268 1.01515 1 0.997569
1.00631 1.00794 1.00096 0.997423
0.9998 1 1 0.9998
0.999231 1 1 0.999231
0.99871 1 1.00048 0.998234
1.00091 1 1.00223 0.998677
0.999723 1 1.00137 0.998357
1.02219 1.0249 1 0.99736
1.01396 1.01659 1 0.997413
1.01624 1.0188 1 0.997486
1.00159 1.00014 1.00379 0.997671
1.00655 1.00929 1 0.997288
0.999836 1 1 0.999836
0.999385 1 1 0.999385
0.999431 1 1 0.999431
0.999218 1 1 0.999218
0.999461 1 1 0.999461
0.999868 1 1 0.999868
0.999865 1 1 0.999865
1 1 1 1
0.999856 1 1 0.999856
1 1 1 1
1 1 1 1
1 1 1 1
1 1 1 1
1 1 1 1
0.999998 1 1 0.999998
0.999976 1 1 0.999976
1 1 1 1
1 1 1 1
0.999933 1 1 0.999933
1 1 1 1
1.01502 1.0177 1 0.997364
1.0163 1.01902 1 0.997329
1.02779 1.03054 1 0.997337
1.03049 1.03322 1 0.997355
1.01513 1.01794 1 0.997246
0.999985 1.00228 1 0.997708
1.01465 1.01746 1 0.997236
1.02912 1.03188 1 0.997319
1.03011 1.03286 1 0.99734
1.03268 1.0357 0.999557 0.997529
1.02536 1.02813 1 0.997307
1.02932 1.0319 0.99991 0.997595
1.02824 1.03103 1 0.997293
1.03152 1.03499 0.999187 0.997466
1.03184 1.03448 0.999857 0.99759
1.03141 1.03539 0.998502 0.997653
1.02625 1.02884 1 0.997489
1.02932 1.03201 0.999617 0.997776
1.01455 1.01734 1 0.997262
1.01479 1.01742 1 0.997409
1.02743 1.03016 1 0.997348
1.02696 1.02971 1 0.997336
0.998915 1 1.00004 0.99888
0.999694 1.00152 1 0.998179
1.00498 1.00724 1.00018 0.997578
1.02081 1.02345 1 0.99742
1.02499 1.02744 1 0.997615
1.02167 1.02421 1 0.997516
1.01733 1.02013 1 0.997261
1.01767 1.02004 1 0.997675
0.998944 1 1.00039 0.998554
0.999534 1 1.00117 0.99837
0.999487 1 1 0.999487
1.00063 1 1.00191 0.998728
1.02801 1.03081 1 0.997288
1.02816 1.03091 1 0.997331
1.0302 1.03291 0.999925 0.997447
1.02786 1.03048 0.999903 0.997551
0.99843 1 1 0.99843
0.999425 1.00154 1.00003 0.997862
1.00989 1.0123 1.00039 0.997232
1.02297 1.0255 1 0.997534
1.02428 1.02658 0.999978 0.997785
1.01781 1.02061 1 0.997251
1.01908 1.02135 1 0.997771
1.0186 1.02092 1 0.997731
0.998364 1 1 0.998364
0.998702 1 1.00034 0.998367
1.00177 1 1.00333 0.998446
0.999577 1 1 0.999577
0.999328 1 1.00044 0.99889
1.03048 1.03421 0.998939 0.997449
1.0311 1.03402 0.999677 0.997499
1.02546 1.029 0.998787 0.997767
1.02159 1.02393 0.999906 0.997806
0.998231 1.00003 1 0.998202
1.0221 1.02422 1 0.997929
0.999335 1.00147 1.00029 0.997581
1.00987 1.01239 1.00051 0.997009
1.01674 1.01956 1 0.997235
0.999653 1 1 0.999653
0.999133 1 1.00003 0.999104
1.00004 1 1.0014 0.998641
0.998322 1 1 0.998322
1.00206 1 1.00379 0.998269
0.998299 1 1 0.998299
1 1 1 1
0.999745 1 1 0.999745
1.02277 1.02558 1 0.997262
1.00003 1 1.00102 0.999015
0.998861 1 1.00031 0.998549
1.00067 1 1.00223 0.998447
1.01371 1.01631 1 0.997438
1.01799 1.02075 1 0.997297
1.00059 1.0004 1.00229 0.997907
1.00508 1.00688 1.00077 0.997442
1.01493 1.01739 1 0.997579
0.999805 1 1 0.999805
0.999235 1 1 0.999235
0.998652 1 1.00041 0.998239
1.00136 1 1.00269 0.998673
0.999829 1 1.00148 0.99835
1.02211 1.02482 1 0.997354
1.01443 1.01707 1 0.997403
1.01606 1.01859 1 0.997511
1.0013 1.00042 1.00324 0.997639
1.00546 1.00817 1.00006 0.997258
0.999361 1 1 0.999361
1.00016 1 1.00131 0.998846
1.00019 1.00012 1.002 0.998078
1.00152 1 1.00312 0.998411
0.999237 1 1.001 0.998244
1.0227 1.02499 1 0.997765
1.01222 1.01494 1 0.997324
1.01295 1.01546 1 0.997536
1.00353 1.00173 1.00433 0.997473
1.00091 1.00385 1 0.997064
0.999839 1 1 0.999839
0.999402 1 1 0.999402
0.99913 1 1 0.99913
0.999409 1 1 0.999409
0.999461 1 1 0.999461
0.999187 1 1 0.999187
0.999043 1 1 0.999043
0.999158 1 1 0.999158
0.999465 1 1 0.999465
0.999865 1 1 0.999865
0.999868 1 1 0.999868
1 1 1 1
0.999866 1 1 0.999866
1 1 1 1
1 1 1 1
1 1 1 1
1 1 1 1
1 1 1 1
1 1 1 1
0.999995 1 1 0.999995
1 1 1 1
0.999968 1 1 0.999968
1 1 1 1
1 1 1 1
1.02584 1.02861 1 0.997301
1.02995 1.0327 1 0.99734
1.0294 1.03207 0.999805 0.997613
1.03179 1.03505 0.999291 0.997558
1.0291 1.03188 1 0.997312
1.01458 1.01739 1 0.997237
1.02852 1.03133 1 0.997276
1.03174 1.03504 0.99936 0.997458
1.0316 1.0342 0.999919 0.99757
1.03088 1.03514 0.998209 0.997667
1.02561 1.02819 1 0.997489
1.02849 1.03125 0.99951 0.997816
1.03108 1.03424 0.999507 0.997433
1.03138 1.037 0.99693 0.997645
1.03034 1.03466 0.998054 0.99777
1.02652 1.02915 0.999577 0.997869
1.02788 1.03068 1 0.997288
1.02768 1.03045 1 0.997315
1.03009 1.0328 0.999911 0.997471
1.0278 1.03034 1 0.997534
0.998424 1 1 0.998424
0.999395 1.00149 1 0.997907
1.01 1.01222 1.00058 0.997224
1.02259 1.02515 1 0.997503
1.02414 1.0264 0.999964 0.997837
1.01953 1.0218 1 0.997773
1.01709 1.01991 1 0.997238
1.01981 1.02209 1 0.997775
0.998361 1 1 0.998361
0.998371 1 1 0.998371
1.00297 1 1.00454 0.998439
0.999543 1 1 0.999543
0.999397 1 1.00048 0.998915
1.03098 1.03434 0.999297 0.997452
1.03126 1.03417 0.99968 0.9975
1.02536 1.02863 0.999066 0.997756
0.998516 1.00032 1 0.998195
1.00053 1.00265 1.00026 0.997625
1.00959 1.01185 1.00076 0.996998
1.02225 1.0246 0.999911 0.997795
1.01657 1.01931 1 0.997311
1.02049 1.02271 0.999921 0.997907
0.999666 1 1 0.999666
0.998396 1.00008 1 0.998314
0.998374 1 1 0.998374
1.00193 1 1.00368 0.998254
1.00001 1 1.00136 0.998652
0.999104 1 1.00003 0.999077
1.03102 1.03619 0.997469 0.997534
1.02891 1.03533 0.996104 0.99768
1.02202 1.0273 0.996997 0.997854
1.02633 1.02951 0.998906 0.997998
0.998796 1.00075 1 0.998047
1.01743 1.01988 1 0.997601
1.00228 1.00348 1.00165 0.99716
1.00608 1.0082 1.00104 0.996862
0.999771 1 1 0.999771
0.999258 1 1 0.999258
0.998867 1 1.00005 0.998813
1.00223 1 1.00388 0.99835
0.998219 1 1 0.998219
1.00048 1 1.00234 0.998144
0.999809 1 1 0.999809
0.999238 1 1 0.999238
1.0222 1.02492 1 0.997348
1.00144 1 1.00277 0.99867
0.998513 1 1.00027 0.998244
0.999823 1 1.00148 0.998344
1.01518 1.01784 1 0.997394
1.01609 1.0186 1 0.997536
1.00115 1.00082 1.00273 0.997607
1.00445 1.00698 1.00027 0.997229
0.999364 1 1 0.999364
0.999821 1 1.00097 0.998854
1.00014 1.00007 1.00198 0.998093
1.00174 1 1.00333 0.998416
0.998788 1 1.00048 0.998313
1.02309 1.02536 0.999979 0.997799
1.01159 1.0143 1 0.997329
1.01439 1.01682 1 0.99761
1.00298 1.00097 1.00458 0.997439
1.00159 1.00455 1.00003 0.997015
0.999057 1 1 0.999057
1.00084 1 1.00232 0.99852
1.00202 1.00032 1.00378 0.997927
0.999676 1 1.00155 0.998126
1.02575 1.03376 0.994228 0.998013
1.0178 1.0201 0.999872 0.997874
1.00683 1.00974 1 0.997126
1.00337 1.00204 1.00426 0.99708
0.999419 1 1 0.999419
0.999143 1 1 0.999143
0.999003 1 1 0.999003
0.99946 1 1 0.99946
0.999157 1 1 0.999157
0.999464 1 1 0.999464
0.999026 1 1 0.999026
0.999171 1 1 0.999171
0.998935 1 1 0.998935
0.99899 1 1 0.99899
0.999141 1 1 0.999141
0.999452 1 1 0.999452
0.999857 1 1 0.999857
0.999864 1 1 0.999864
1 1 1 1
0.999868 1 1 0.999868
1 1 1 1
1 1 1 1
1 1 1 1
1 1 1 1
1 1 1 1
1 1 1 1
1 1 1 1
1 1 1 1
0.999992 1 1 0.999992
1 1 1 1
1 1 1 1
1.02488 1.02746 1 0.997489
1.03144 1.03397 1 0.99755
1.0277 1.0305 0.999418 0.997857
1.03036 1.03488 0.997945 0.997681
1.03197 1.03507 0.999554 0.997449
1.02879 1.03162 1 0.997259
1.03071 1.03419 0.999196 0.997436
1.03079 1.03622 0.997117 0.997635
1.02995 1.03435 0.997968 0.99777
1.0281 1.03066 0.999646 0.997873
1.03097 1.03665 0.996933 0.997585
1.03096 1.03913 0.994309 0.997813
1.03119 1.03665 0.996818 0.997908
1.03146 1.03446 0.999646 0.997454
1.03142 1.0343 0.99971 0.997501
1.02526 1.0282 0.999395 0.997746
0.998933 1.00075 1 0.998188
1.00175 1.00391 1.00018 0.997668
1.009 1.0112 1.00085 0.996987
1.02286 1.02522 0.999909 0.997785
1.01896 1.02126 0.999863 0.997885
1.01664 1.0193 1 0.997386
0.998534 1.00023 1 0.998306
0.99845 1 1 0.99845
1.00168 1 1.00345 0.998239
0.99968 1 1 0.99968
0.9995 1 1.00084 0.998664
0.99905 1 1 0.99905
1.03179 1.03651 0.997902 0.997541
1.02926 1.03554 0.996237 0.997688
1.0223 1.02706 0.997511 0.997847
0.999201 1.00117 1 0.998036
1.00185 1.00321 1.0014 0.997246
1.00545 1.00766 1.0009 0.996904
1.02626 1.02917 0.999158 0.998007
1.01793 1.02047 0.999931 0.997589
0.99981 1 1 0.99981
0.999258 1 1 0.999258
0.99825 1 1 0.99825
1.00144 1 1.00322 0.998223
1.00215 1 1.00378 0.998371
0.998811 1 1.00002 0.99879
1.03032 1.03806 0.994806 0.997731
1.02165 1.03241 0.991733 0.997819
1.0225 1.02866 0.99596 0.998044
1.02006 1.02383 0.998279 0.998033
0.999794 1.00112 1.00088 0.997791
1.00524 1.00685 1.0014 0.997009
1.00312 1.00352 1.00264 0.996964
0.999903 1 1 0.999903
0.999537 1 1 0.999537
0.99934 1 1 0.99934
0.998911 1 1 0.998911
0.999671 1 1.00113 0.998538
1.00208 1 1.00384 0.998244
0.99828 1 1 0.99828
1.01441 1 1.01606 0.998376
0.999366 1 1 0.999366
0.999707 1 1.00085 0.998862
1.02337 1.02563 0.999958 0.997833
1.00228 1 1.00386 0.99842
1.00026 1 1.00215 0.998109
0.998417 1 1.00004 0.998382
1.01069 1.01339 1 0.997335
1.01563 1.01798 1 0.997684
1.00263 1.00042 1.00482 0.997405
1.00241 1.00546 1 0.996967
0.999038 1 1 0.999038
1.00107 1 1.00254 0.998534
1.0023 1.0002 1.00415 0.997953
0.999512 1 1.00136 0.998155
1.02715 1.0347 0.994671 0.998027
1.01761 1.01987 0.999949 0.997837
1.00787 1.01073 1 0.997165
1.00345 1.00265 1.00377 0.997037
0.999139 1 1.00029 0.99885
1.02438 1.03633 0.990426 0.998025
1.00105 1 1.00278 0.998274
1.00113 1.00078 1.00268 0.997685
1.02461 1.02829 0.9983 0.998115
1.00808 1.01085 1 0.997255
1.00474 1.00462 1.00323 0.996895
0.999156 1 1 0.999156
0.998999 1 1 0.998999
0.998903 1 1 0.998903
0.999463 1 1 0.999463
0.999184 1 1 0.999184
0.99901 1 1 0.99901
0.99945 1 1 0.99945
0.999144 1 1 0.999144
0.998921 1 1 0.998921
0.999012 1 1 0.999012
0.998862 1 1 0.998862
0.998888 1 1 0.998888
0.998975 1 1 0.998975
0.999125 1 1 0.999125
0.999422 1 1 0.999422
0.999846 1 1 0.999846
0.999856 1 1 0.999856
1 1 1 1
0.999863 1 1 0.999863
1 1 1 1
1 1 1 1
1 1 1 1
1 1 1 1
1 1 1 1
0.999931 1 1 0.999931
1 1 1 1
1 1 1 1
1 1 1 1
1 1 1 1
1 1 1 1
1 1 1 1
1.02974 1.03221 0.999727 0.997877
1.02952 1.034 0.997889 0.997769
1.03019 1.03545 0.997287 0.997626
1.03035 1.03414 0.99889 0.99744
1.03053 1.03655 0.996583 0.997605
1.03116 1.03907 0.994576 0.997802
1.03066 1.03639 0.996544 0.99792
1.0309 1.03975 0.99369 0.997787
1.03457 1.04374 0.993266 0.997926
1.01941 1.03458 0.987169 0.998145
1.03261 1.03687 0.998333 0.997548
1.02962 1.03583 0.996302 0.997696
1.02249 1.02683 0.997931 0.997839
0.999591 1.00151 1.00006 0.998025
1.00138 1.00279 1.00126 0.997332
1.00495 1.00724 1.00078 0.996946
1.02634 1.02899 0.999408 0.998016
1.01797 1.02061 0.999841 0.997576
0.99828 1 1 0.99828
1.00238 1 1.00408 0.998301
1.00259 1 1.00421 0.998391
0.99985 1 1 0.99985
0.999258 1 1 0.999258
0.998975 1 1.00021 0.998768
1.03019 1.0383 0.994431 0.997743
0.999899 1 1 0.999899
0.999515 1 1 0.999515
1.02128 1.03159 0.992173 0.997819
1.02293 1.02931 0.995779 0.998012
0.999355 1.00064 1.00084 0.997875
1.0034 1.00316 1.0033 0.996941
1.00579 1.00796 1.00084 0.99701
1.01894 1.02281 0.998203 0.998015
0.999401 1 1 0.999401
0.998907 1 1 0.998907
0.99821 1 1 0.99821
1.01052 1 1.01205 0.998487
1.00184 1 1.00361 0.998238
1.00004 1 1.00149 0.998552
1.03406 1.04311 0.993428 0.997886
1.01128 1.03 0.983831 0.997957
1.01907 1.02697 0.994074 0.998222
1.00518 1.00968 0.997796 0.997738
1.00053 1.0003 1.00234 0.997884
1.00411 1.00183 1.00547 0.996825
0.999526 1 1 0.999526
0.999484 1 1 0.999484
0.999254 1 1 0.999254
0.99895 1 1 0.99895
0.998863 1 1.00016 0.998708
1.00002 1 1.00173 0.9983
1.02106 1 1.02289 0.998211
1.00073 1 1.00222 0.998519
0.999019 1 1 0.999019
1.00096 1 1.00242 0.998548
1.02825 1.03524 0.995196 0.99804
1.01761 1.01985 1 0.9978
0.999285 1 1.0011 0.998185
1.00238 1 1.00441 0.997978
1.00918 1.01197 1.00004 0.997204
1.00336 1.00302 1.00335 0.996994
0.999187 1 1.00035 0.998842
1.02557 1.03827 0.98969 0.998057
1.00088 1 1.0026 0.998291
1.00075 1.00041 1.00269 0.997652
1.02335 1.02743 0.997929 0.998088
1.00834 1.01106 1 0.997309
1.00469 1.0043 1.00348 0.996909
1.00025 1 1.00169 0.998566
1.01739 1.03024 0.989095 0.998413
1.00045 1.00059 1.00179 0.998063
1.00241 1.00125 1.00379 0.997373
1.01166 1.01712 0.99687 0.997756
1.00236 1.00311 1.00221 0.997039
1.00238 1.00713 0.996869 0.998412
0.998995 1 1 0.998995
0.998988 1 1.00009 0.998901
0.998886 1 1.0001 0.998784
0.999448 1 1 0.999448
0.999147 1 1 0.999147
0.999034 1 1 0.999034
0.998907 1 1 0.998907
0.999422 1 1 0.999422
0.999115 1 1 0.999115
0.998842 1 1 0.998842
0.998974 1 1 0.998974
0.9989 1 1 0.9989
0.998825 1 1 0.998825
0.998846 1 1 0.998846
0.998963 1 1 0.998963
0.999052 1 1 0.999052
0.999349 1 1 0.999349
0.999177 1 1 0.999177
0.999341 1 1 0.999341
0.999839 1 1 0.999839
0.999845 1 1 0.999845
1 1 1 1
0.999854 1 1 0.999854
1 1 1 1
1 1 1 1
1 1 1 1
1 1 1 1
1 1 1 1
0.999948 1 1 0.999948
0.999928 1 1 0.999928
1 1 1 1
1 1 1 1
1 1 1 1
1 1 1 1
1 1 1 1
1 1 1 1
1.03019 1.03625 0.996211 0.997932
1.03135 1.03902 0.994814 0.997791
1.03009 1.03645 0.996232 0.997624
1.03077 1.03959 0.993717 0.997785
1.03294 1.04204 0.993328 0.997923
1.02006 1.03422 0.988183 0.998111
1.03322 1.04473 0.990974 0.997989
0.99278 1.01596 0.979639 0.997495
1.00907 1.02779 0.983109 0.998657
0.999608 1 1 0.999608
1.03 1.03847 0.994079 0.997756
1.02129 1.03085 0.99289 0.997819
1.02347 1.02993 0.99574 0.99798
0.998972 1.00019 1.00082 0.99796
1.00366 1.00274 1.00402 0.996918
1.00656 1.00913 1.00045 0.997011
1.01774 1.02164 0.998173 0.997998
0.99814 1 1 0.99814
1.00652 1 1.00794 0.9986
1.0014 1 1.00318 0.998234
0.999895 1 1 0.999895
1.00019 1 1.00163 0.998566
0.999463 1 1 0.999463
0.998903 1 1 0.998903
0.999493 1 1 0.999493
1.03273 1.04354 0.991728 0.997894
0.999556 1 1 0.999556
0.999483 1 1 0.999483
0.999214 1 1 0.999214
1.01264 1.02953 0.985605 0.997959
1.019 1.02697 0.99405 0.998175
0.999886 1.0002 1.00178 0.997904
1.00413 1.00171 1.00556 0.996879
1.0043 1.00826 0.99834 0.997733
0.998985 1 1 0.998985
0.99896 1 1.00028 0.998678
1.00383 1 1.0054 0.998445
1.01713 1 1.01891 0.998249
0.999796 1 1.00147 0.998327
1.02262 1.03627 0.988832 0.997976
1.01103 1.03237 0.981217 0.998076
1.0116 1.01738 0.996384 0.99793
1.00104 1.00397 0.999532 0.997547
1.00318 1 1.00512 0.998065
0.999183 1 1 0.999183
0.999083 1 1 0.999083
0.998966 1 1 0.998966
0.998983 1 1.00024 0.998742
0.999627 1 1.00112 0.998511
1.01523 1 1.01701 0.998246
1.01676 1 1.0186 0.998192
0.999231 1 1.0004 0.998833
1.00071 1 1.0024 0.998309
1.02642 1.04054 0.988314 0.998088
1.02196 1.02663 0.997384 0.998061
1.00808 1.01074 1 0.997362
1.00039 1.0001 1.00268 0.99762
1.00439 1.00388 1.0036 0.996923
1.00019 1 1.00159 0.998604
1.01524 1.02978 0.987436 0.998428
0.999702 1.00028 1.00133 0.998091
1.00212 1.00067 1.00408 0.997383
1.01258 1.01766 0.997156 0.997841
1.00224 1.00253 1.00269 0.997025
1.00122 1.00721 0.99619 0.997854
1.00023 1 1.0018 0.998434
1.00631 1.0184 0.989694 0.99841
1.00006 1.00005 1.00194 0.998074
1.00418 1.00043 1.00636 0.997409
0.999637 1.00578 0.996365 0.997514
0.950392 0.981473 0.983055 0.985024
0.967466 0.984991 0.989459 0.992672
0.983891 0.997306 0.988078 0.998453
0.840387 0.893151 0.960885 0.979226
0.793236 0.886567 0.917616 0.975057
0.998969 1 1.00007 0.998898
0.999119 1 1.00032 0.998803
0.998805 1 1 0.998805
0.999421 1 1 0.999421
0.999104 1 1 0.999104
0.998974 1 1 0.998974
0.998912 1 1 0.998912
0.998822 1 1 0.998822
0.998942 1 1 0.998942
0.999373 1 1 0.999373
0.999066 1 1 0.999066
0.998823 1 1 0.998823
0.998853 1 1 0.998853
0.99886 1 1 0.99886
0.998894 1 1.00005 0.998842
0.998881 1 1 0.998881
0.999023 1 1 0.999023
0.999333 1 1 0.999333
0.999091 1 1 0.999091
0.999011 1 1 0.999011
0.999161 1 1 0.999161
0.999146 1 1 0.999146
0.999412 1 1 0.999412
0.999339 1 1 0.999339
0.999834 1 1 0.999834
0.999838 1 1 0.999838
1 1 1 1
0.999845 1 1 0.999845
1 1 1 1
1 1 1 1
1 1 1 1
1 1 1 1
1 1 1 1
0.999957 1 1 0.999957
0.999945 1 1 0.999945
1 1 1 1
0.999925 1 1 0.999925
1 1 1 1
1 1 1 1
1 1 1 1
1 1 1 1
1 1 1 1
1.03122 1.04025 0.993389 0.99792
1.03065 1.03944 0.993747 0.997783
1.02092 1.03379 0.989446 0.998077
0.996023 1.01576 0.98298 0.997544
1.03114 1.04275 0.990866 0.997987
1.015 1.03006 0.986791 0.998567
1.02814 1.03529 0.99503 0.998054
0.956612 0.984366 0.979792 0.991848
1.00329 1.01935 0.986225 0.99799
0.999614 1 1 0.999614
0.999606 1 1 0.999606
0.999276 1 1 0.999276
0.999306 1 1 0.999306
1.0312 1.04384 0.989965 0.997902
1.01309 1.02857 0.986966 0.997961
1.01875 1.02685 0.993971 0.998128
0.998832 1.00014 1.00077 0.997925
1.00395 1.00167 1.00536 0.996932
1.00351 1.00719 0.998611 0.997728
1.00682 1 1.00847 0.998369
1.01323 1 1.01497 0.998287
0.999537 1 1.00118 0.998354
0.999482 1 1 0.999482
0.998941 1 1.00029 0.998649
0.99902 1 1 0.99902
0.999587 1 1 0.999587
0.999174 1 1 0.999174
1.02061 1.03565 0.987465 0.99799
0.999227 1 1 0.999227
0.999119 1 1 0.999119
0.999006 1 1 0.999006
1.01356 1.03445 0.981689 0.998079
1.01019 1.01648 0.995873 0.997928
1.00274 1 1.0047 0.998051
1.00163 1.00434 0.999732 0.99757
0.999028 1 1.00029 0.998734
0.999244 1 1.00077 0.998479
1.01808 1 1.01993 0.998188
1.01603 1 1.01784 0.998218
1.00757 1.03201 0.978206 0.998077
1.00404 1.02557 0.980925 0.998039
1.00482 1.00786 0.999344 0.997634
0.997106 1.00034 0.998564 0.998205
0.998865 1 1 0.998865
0.999171 1 1.00035 0.998816
1.00498 1 1.00644 0.998549
1.02924 1 1.03124 0.998061
0.929915 0.972287 0.971941 0.984031
1.00038 1 1.00174 0.998642
0.99921 1 1.00109 0.998117
1.01341 1.02911 0.986284 0.998443
1.01384 1.01851 0.997479 0.997926
1.00262 1.00232 1.0033 0.99701
1.0019 1.00005 1.00447 0.997393
1.00039 1.0071 0.99604 0.997285
1.00024 1 1.00178 0.998466
1.00665 1.01903 0.98944 0.998398
0.999547 1.00003 1.00144 0.998086
1.00382 1.00031 1.00611 0.997408
1.00125 1.00674 0.997007 0.997538
0.949222 0.984709 0.979435 0.984203
0.962705 0.982448 0.98904 0.990763
0.984523 0.995241 0.99074 0.998476
0.842703 0.891903 0.964828 0.97928
0.77736 0.875144 0.912981 0.972929
0.999579 1 1.00094 0.998636
0.866374 0.913767 0.967511 0.979973
0.836302 0.891973 0.96023 0.976419
0.985348 1.00713 0.980056 0.998286
1.00507 1.00029 1.00657 0.998227
1.01123 1.00334 1.01019 0.997697
0.977501 0.990599 0.988151 0.99861
0.946059 0.971597 0.989551 0.983998
0.947952 0.963111 0.994267 0.989935
0.818735 0.893223 0.93554 0.979762
0.849362 0.928079 0.9369 0.976821
0.999485 1 1.00066 0.998822
0.999122 1 1.00033 0.998794
0.999673 1 1.00065 0.999029
0.999398 1 1 0.999398
0.999081 1 1 0.999081
0.998921 1 1 0.998921
0.99886 1 1 0.99886
0.998822 1 1 0.998822
0.999334 1 1 0.999334
0.998854 1 1 0.998854
0.998899 1 1 0.998899
0.999048 1 1 0.999048
0.998979 1 1.00014 0.998843
0.998868 1 1.00004 0.998833
0.99948 1 1.00061 0.99887
0.998861 1 1 0.998861
0.999052 1 1 0.999052
0.999088 1 1 0.999088
0.999 1 1 0.999
0.998929 1 1 0.998929
0.998998 1 1 0.998998
0.998947 1 1 0.998947
0.998849 1 1 0.998849
0.99914 1 1 0.99914
0.999161 1 1 0.999161
0.999429 1 1 0.999429
0.999115 1 1 0.999115
0.999391 1 1 0.999391
0.999831 1 1 0.999831
0.999337 1 1 0.999337
0.999834 1 1 0.999834
1 1 1 1
0.999838 1 1 0.999838
1 1 1 1
1 1 1 1
1 1 1 1
1 1 1 1
1 1 1 1
0.999589 1 1 0.999589
0.999956 1 1 0.999956
0.999955 1 1 0.999955
1 1 1 1
0.999941 1 1 0.999941
1 1 1 1
1 1 1 1
1 1 1 1
1 1 1 1
1 1 1 1
0.99836 1.01579 0.985208 0.997596
1.0296 1.04084 0.991199 0.997985
1.01979 1.03247 0.989227 0.998476
0.951994 0.979289 0.979207 0.992771
1.00348 1.01907 0.986583 0.998091
1.03002 1.03828 0.994013 0.998016
1.01608 1.02436 0.994026 0.997878
0.963532 0.981707 0.987881 0.993527
0.950925 0.979576 0.987068 0.98347
0.822856 0.886319 0.94838 0.97893
0.774282 0.859238 0.924637 0.974574
0.999263 1 1 0.999263
0.999613 1 1 0.999613
0.999605 1 1 0.999605
0.999263 1 1 0.999263
0.999053 1 1 0.999053
0.999087 1 1 0.999087
0.999249 1 1 0.999249
0.999282 1 1 0.999282
1.01898 1.03544 0.986071 0.998004
1.01703 1.03747 0.982187 0.998082
1.00904 1.01567 0.995538 0.997926
1.00303 1.00008 1.00493 0.998039
1.00226 1.00441 1.00026 0.997594
1.01923 1 1.02108 0.998184
1.01737 1 1.01921 0.998189
0.999021 1 1.00057 0.998447
0.999154 1 1 0.999154
0.99902 1 1.00029 0.998726
0.999272 1 1 0.999272
0.999047 1 1 0.999047
1.00875 1.03224 0.979137 0.998064
0.998891 1 1 0.998891
0.999028 1 1.00019 0.998836
1.0049 1.02501 0.982322 0.998017
1.00305 1.00743 0.997905 0.997745
0.999091 1.00064 1.00032 0.998131
1.00716 1 1.00868 0.998491
1.02616 1 1.02814 0.998073
1.0056 1.0264 0.981636 0.998058
0.986309 1.00782 0.980542 0.998073
0.993709 1.00056 0.995055 0.998085
1.0044 1.00025 1.00591 0.998256
0.999053 1 1.00038 0.998674
1.00296 1 1.00437 0.9986
1.02488 1 1.02664 0.998288
0.854684 0.919041 0.948389 0.980584
0.943927 0.97672 0.98039 0.985756
0.999892 1 1.0014 0.998499
0.99917 1.00001 1.00107 0.998098
1.00747 1.01997 0.989334 0.998387
1.0026 1.00756 0.997509 0.997562
1.00332 1.00022 1.00571 0.997407
0.945622 0.977488 0.983521 0.983609
0.966223 0.987484 0.986939 0.991418
0.985948 0.993872 0.993522 0.998495
0.837298 0.893036 0.95687 0.979847
0.763868 0.863506 0.911251 0.970767
0.999298 1 1.00066 0.998636
0.859136 0.916597 0.956076 0.980373
0.830087 0.885494 0.961016 0.975455
0.987118 1.00794 0.98103 0.998279
1.0047 1.0003 1.00617 0.99825
1.00997 1.00178 1.01036 0.997831
0.969171 0.98533 0.984873 0.998708
0.951945 0.980039 0.988458 0.982676
0.950043 0.96708 0.990519 0.991786
0.822141 0.887728 0.946546 0.978419
0.8478 0.930199 0.933726 0.976107
1.00106 1 1.00216 0.998895
0.864164 0.901621 0.979924 0.978092
0.931083 0.958236 0.988391 0.983075
0.989337 0.999913 0.99063 0.998781
1.01261 1.00188 1.01196 0.998762
0.982891 0.976492 1.00772 0.998844
0.932264 0.951895 0.986444 0.992836
0.935369 0.954961 0.997081 0.982352
0.837068 0.901548 0.948529 0.978861
0.877896 0.952257 0.94133 0.979371
0.999302 1 1.00052 0.998784
0.999357 1 1.00035 0.999006
1.00238 1 1.00318 0.999206
0.999335 1 1 0.999335
0.999073 1 1 0.999073
0.998917 1 1 0.998917
0.998849 1 1 0.998849
0.999116 1 1.00027 0.998844
0.99905 1 1 0.99905
0.998869 1 1.00003 0.998836
0.998862 1 1 0.998862
1.00039 1 1.00149 0.998897
1.01049 0.999976 1.01136 0.999163
0.998974 1 1.00017 0.998804
0.998838 1 1 0.998838
0.999085 1 1 0.999085
0.998988 1 1 0.998988
0.998926 1 1 0.998926
0.998994 1 1 0.998994
0.998961 1 1 0.998961
0.998944 1 1 0.998944
0.998892 1 1 0.998892
0.998947 1 1 0.998947
0.998725 1 1.00001 0.998719
0.999257 1 1.00093 0.99833
0.998795 1 1.00007 0.998726
0.998846 1 1 0.998846
0.99908 1 1 0.99908
0.999138 1 1 0.999138
0.999424 1 1 0.999424
0.99916 1 1 0.99916
0.999429 1 1 0.999429
0.999832 1 1 0.999832
0.99937 1 1 0.99937
0.999832 1 1 0.999832
1 1 1 1
0.999834 1 1 0.999834
1 1 1 1
1 1 1 1
1 1 1 1
1 1 1 1
1 1 1 1
0.999608 1 1 0.999608
0.999946 1 1 0.999946
0.99959 1 1 0.99959
1 1 1 1
0.999957 1 1 0.999957
0.999953 1 1 0.999953
1 1 1 1
1 1 1 1
1 1 1 1
1 1 1 1
1 1 1 1
0.855688 0.907114 0.962905 0.979647
0.839211 0.893481 0.961427 0.976945
0.954513 0.98278 0.977815 0.993273
1.00564 1.01871 0.988959 0.998193
1.03256 1.04108 0.993828 0.997977
0.954828 0.972777 0.986653 0.994827
1.01559 1.02392 0.993905 0.997942
0.955601 0.985484 0.984665 0.984778
0.836459 0.89262 0.957085 0.979101
0.766069 0.859381 0.91672 0.972401
0.982315 0.998105 0.98794 0.996194
0.948436 0.973601 0.989526 0.984465
0.811785 0.887973 0.933512 0.979312
0.839698 0.919219 0.93645 0.975483
0.99896 1 1 0.99896
0.999284 1 1 0.999284
0.999613 1 1 0.999613
0.99925 1 1 0.99925
0.999087 1 1 0.999087
0.999189 1 1.00021 0.998977
0.999085 1 1 0.999085
0.999092 1 1 0.999092
0.999222 1 1 0.999222
0.999259 1 1 0.999259
1.0098 1.03197 0.980426 0.998052
1.00424 1.02328 0.983364 0.997997
1.00141 1.00724 0.996349 0.997856
1.0008 1.00097 1.00178 0.998057
1.02208 1 1.02404 0.998085
1.00945 1 1.01104 0.998433
0.998855 1 1 0.998855
0.998917 1 1 0.998917
1.00492 1.02672 0.980656 0.998074
0.99938 1 1.00072 0.998658
1.0029 1 1.00434 0.998569
0.986491 1.00641 0.98218 0.997994
0.993011 1.00042 0.994383 0.998203
1.00538 1.00079 1.00644 0.998156
1.02196 1 1.02374 0.998261
0.997506 1.00464 0.994515 0.99837
0.986412 1 0.987629 0.998767
1.01343 1.00043 1.01469 0.998335
1.00193 1 1.0033 0.998635
1.00143 1 1.00295 0.998494
1.01499 1 1.01664 0.998378
0.873045 0.909281 0.978679 0.981066
0.863517 0.918044 0.959479 0.98033
0.936228 0.976404 0.974387 0.984057
0.999014 1 1.00038 0.998637
1.00432 1.00025 1.00581 0.998273
0.989741 1.0086 0.983003 0.998273
1.00885 1.00023 1.01067 0.997964
0.852349 0.911197 0.954284 0.980229
0.952392 0.978338 0.988831 0.984475
0.943234 0.965596 0.986695 0.990014
0.965176 0.980928 0.985118 0.998806
0.822484 0.88813 0.946661 0.978265
0.832363 0.890199 0.95858 0.975433
0.837507 0.923096 0.929215 0.976394
1.00173 1 1.00283 0.9989
0.865076 0.905044 0.976385 0.978956
0.937042 0.963184 0.989705 0.982979
0.991577 1.00009 0.992613 0.998861
1.01216 1.00056 1.01288 0.998738
0.98037 0.975472 1.0062 0.998824
0.933159 0.954262 0.986817 0.990949
0.937755 0.959285 0.994004 0.983453
0.849556 0.914434 0.948895 0.979086
0.866614 0.942345 0.938746 0.979643
1.00356 0.999757 1.00435 0.999458
0.935193 0.96318 0.984457 0.986273
0.917733 0.951965 0.977034 0.986702
1.00273 0.989082 1.01409 0.999715
0.952422 0.955103 1.00174 0.995466
0.943076 0.954372 1.00558 0.982678
0.886109 0.933101 0.970045 0.978963
0.885081 0.965371 0.936608 0.978884
0.999145 1 1.00016 0.998984
1.00144 1 1.00224 0.999209
1.01375 1 1.01437 0.999392
0.999049 1 1 0.999049
0.998863 1 1 0.998863
0.998839 1 1 0.998839
1.00083 1 1.00191 0.998924
0.998836 1 1 0.998836
0.999044 1 1.00025 0.998799
1.01274 1 1.01354 0.999212
1.02166 0.997939 1.02434 0.999446
1.01026 1 1.01117 0.999092
0.998793 1 1 0.998793
0.998923 1 1 0.998923
0.99899 1 1 0.99899
0.998975 1 1 0.998975
0.998903 1 1 0.998903
0.998943 1 1 0.998943
0.998954 1 1 0.998954
0.998877 1 1.00001 0.998866
0.999528 1 1.00045 0.999083
0.998755 1 1 0.998755
0.998752 1 1.00001 0.998746
0.999157 1 1.00069 0.998463
0.99942 1 1.00153 0.997897
0.999189 1 1.00056 0.998633
0.999216 1 1.00079 0.998425
0.998786 1 1.00003 0.998757
0.999009 1 1.00006 0.99895
0.998843 1 1 0.998843
0.999078 1 1 0.999078
0.999384 1 1 0.999384
0.999136 1 1 0.999136
0.999422 1 1 0.999422
0.999829 1 1 0.999829
0.999429 1 1 0.999429
0.999832 1 1 0.999832
1 1 1 1
0.999832 1 1 0.999832
1 1 1 1
1 1 1 1
1 1 1 1
1 1 1 1
1 1 1 1
0.999472 1 1 0.999472
0.999929 1 1 0.999929
0.999556 1 1 0.999556
1 1 1 1
0.999949 1 1 0.999949
0.99959 1 1 0.99959
1 1 1 1
1 1 1 1
0.999958 1 1 0.999958
1 1 1 1
1 1 1 1
1 1 1 1
0.866393 0.90434 0.977748 0.979842
0.859642 0.913452 0.96069 0.979599
0.934753 0.964251 0.986341 0.982834
0.830831 0.88663 0.959991 0.976119
0.951953 0.976609 0.981737 0.992886
1.01324 1.02359 0.991862 0.998008
0.960213 0.985384 0.988278 0.986014
0.838436 0.895765 0.9559 0.979182
0.761569 0.862481 0.910113 0.970207
0.97875 0.995464 0.987673 0.995482
0.947013 0.973829 0.989789 0.982497
0.823698 0.895359 0.940608 0.978052
0.839315 0.921657 0.934466 0.974523
0.960839 0.983487 0.982469 0.994404
0.947098 0.960461 1.00411 0.982049
0.848541 0.917375 0.945392 0.978395
0.873101 0.952872 0.937173 0.977711
0.9994 1 1.00061 0.998786
0.998992 1 1 0.998992
0.999306 1 1 0.999306
0.999121 1 1 0.999121
0.998787 1 1 0.998784
0.999002 1 1 0.999001
0.999083 1 1 0.999083
0.99906 1 1 0.99906
0.999121 1 1 0.999121
0.999194 1 1 0.999194
1.00563 1.02787 0.980238 0.998091
0.988591 1.0059 0.984843 0.997916
0.992195 1.00021 0.993656 0.99832
1.00708 1.00133 1.00769 0.998058
1.01899 1 1.02079 0.998235
1.00251 1 1.00398 0.998537
0.999698 1 1.00106 0.998642
1.00123 1 1.0026 0.998626
0.993853 1.00549 0.990028 0.998383
1.00114 1 1.00265 0.9985
1.01469 1 1.01634 0.998372
0.985187 1.00025 0.986229 0.99869
1.01361 1.00094 1.01437 0.998309
0.966417 0.990239 0.977049 0.998869
1.0021 0.997511 1.00534 0.999259
1.02137 1 1.02285 0.998552
1.00042 1 1.00192 0.99851
1.00821 1 1.00984 0.998382
0.937121 0.960027 0.988073 0.987923
0.877125 0.909178 0.983352 0.981078
0.855542 0.913579 0.955256 0.980338
1.00238 1 1.00348 0.998905
1.01186 0.999369 1.0138 0.998714
0.991294 1 0.992349 0.998937
0.874254 0.910688 0.979849 0.979736
0.946654 0.958569 1.00556 0.982109
0.934993 0.954644 0.987074 0.99224
0.970224 0.971491 0.999918 0.998778
0.850345 0.913854 0.950537 0.978924
0.942199 0.967116 0.991196 0.98289
0.867306 0.943228 0.938528 0.979734
1.00317 0.999398 1.00435 0.999433
0.932502 0.961181 0.982821 0.987121
0.919802 0.95378 0.977364 0.986711
1.00419 0.991268 1.01348 0.999568
0.957738 0.959096 1.00353 0.99507
0.93164 0.951634 0.997522 0.981422
0.888164 0.96716 0.937321 0.979731
0.885807 0.932985 0.96986 0.978939
1.00444 0.993053 1.01176 0.999711
0.915286 0.948191 0.973088 0.991994
0.929171 0.965075 0.975014 0.987469
0.874913 0.953698 0.938239 0.977779
0.988074 0.974768 1.01488 0.998787
0.960822 0.964095 1.01341 0.983419
0.896196 0.93307 0.980765 0.979318
1.00115 1 1.00194 0.99921
1.01281 1 1.01349 0.999327
1.01627 0.996056 1.02073 0.999566
0.998834 1 1 0.998834
0.999155 1 1.00036 0.998794
1.0164 1 1.01716 0.99926
0.998804 1 1 0.998804
1.00978 1 1.01069 0.9991
1.02349 0.997874 1.02627 0.999421
1.01039 0.997168 1.01378 0.999489
1.00642 1 1.00734 0.999093
0.998914 1 1 0.998914
0.998942 1 1 0.998942
0.998962 1 1 0.998962
0.999354 1 1.00029 0.999065
0.998877 1 1 0.998874
0.999431 1 1.00042 0.999008
0.998894 1 1 0.998894
1.00081 1 1.00259 0.998227
0.998773 1 1 0.998773
0.99899 1 1.00057 0.998424
0.998734 1 1.00101 0.997723
0.999102 1 1.00129 0.997816
0.999964 1 1.00154 0.99843
0.999299 1 1.00138 0.99792
0.999395 1 1.00058 0.998819
0.999319 1 1.00072 0.998604
0.999165 1 1.00065 0.99852
0.998788 1 1 0.998788
0.999016 1 1.00003 0.998981
0.999313 1 1 0.999313
0.999077 1 1 0.999077
0.999383 1 1 0.999383
0.999813 1 1 0.999813
0.999421 1 1 0.999421
0.999827 1 1 0.999827
1 1 1 1
0.999831 1 1 0.999831
1 1 1 1
1 1 1 1
1 1 1 1
1 1 1 1
1 1 1 1
0.999311 1 1 0.999311
0.999817 1 1 0.999817
0.99947 1 1 0.99947
1 1 1 1
0.999896 1 1 0.999896
0.999503 1 1 0.999503
1 1 1 1
1 1 1 1
0.999952 1 1 0.999952
1 1 1 1
1 1 1 1
1 1 1 1
0.928537 0.958776 0.98118 0.987037
0.855949 0.902314 0.968078 0.979895
0.85941 0.910135 0.964098 0.97943
0.998962 1 1 0.998962
0.920063 0.949488 0.981069 0.987709
0.935962 0.964644 0.987285 0.982763
0.827706 0.88904 0.953637 0.976275
0.982015 0.996777 0.990525 0.994614
0.94831 0.972559 0.990752 0.984168
0.829953 0.906704 0.936058 0.977879
0.833303 0.914544 0.934886 0.97463
0.962345 0.983628 0.986099 0.992155
0.934008 0.954663 0.994842 0.983437
0.85907 0.921061 0.953299 0.978387
0.871386 0.948673 0.939647 0.977529
0.941162 0.961635 0.988288 0.990308
0.942102 0.949414 1.01102 0.98148
0.891776 0.939629 0.969695 0.978733
0.884995 0.963868 0.93799 0.97887
0.99944 1 1.00083 0.998614
0.999728 1 1.00097 0.998762
0.999024 1 1 0.999024
0.998783 1 1 0.998783
0.99893 1 1.00011 0.998824
0.999025 1 1 0.999025
0.999068 1 1 0.999068
0.99915 1 1 0.99915
0.987761 1.00555 0.983894 0.998393
0.982941 1.00014 0.984167 0.998613
1.00048 1 1.00187 0.998617
1.0141 1.0015 1.01432 0.998282
1.01548 1 1.01714 0.998365
1.00116 1 1.00265 0.998507
1.0007 1 1.00218 0.998519
0.971102 0.991975 0.980033 0.998903
1.0091 1 1.0107 0.998411
1.01809 1.00017 1.01939 0.998557
0.99713 0.99807 0.999764 0.999293
1.00029 1 1.00174 0.998555
0.961444 0.98141 0.980484 0.999155
1.00788 0.994923 1.01358 0.999454
1.03108 1 1.03249 0.998636
1.00204 1 1.00351 0.998534
0.927983 0.950778 0.982919 0.992986
0.936457 0.959203 0.988103 0.988041
0.88232 0.909246 0.989086 0.981094
1.00211 0.998952 1.00375 0.999411
1.00722 0.993747 1.01414 0.999425
0.93068 0.959928 0.981345 0.987962
0.950742 0.953465 1.01419 0.983194
0.952056 0.957458 1.00175 0.992618
0.890326 0.936954 0.971563 0.978048
0.920655 0.954432 0.977594 0.986719
0.892359 0.970111 0.938074 0.980576
1.00592 0.995237 1.01107 0.999672
0.91574 0.948257 0.9735 0.991996
0.926921 0.963185 0.973391 0.988657
0.996961 0.981412 1.01607 0.999781
0.87241 0.949502 0.939898 0.977562
0.948691 0.955508 1.01043 0.98262
0.906803 0.946387 0.979106 0.978621
1.00636 0.991071 1.01566 0.999771
0.929584 0.962397 0.972711 0.993003
0.920971 0.950592 0.980835 0.987771
0.83901 0.920025 0.934778 0.975572
0.891478 0.941166 0.96811 0.978407
0.970447 0.967548 1.00518 0.99783
0.963541 0.957891 1.02584 0.980562
1.01038 1 1.01113 0.999263
1.01556 0.995468 1.02066 0.999539
1.00383 0.984701 1.01985 0.999582
0.998815 1 1 0.998815
1.00878 1 1.00969 0.999107
1.02425 0.998545 1.02636 0.999396
1.0037 1 1.00462 0.999079
1.01067 0.997886 1.01333 0.999488
1.0075 0.997018 1.01127 0.999248
0.999047 1 1 0.999047
0.998882 1 1 0.998882
1.00024 1 1.00126 0.998979
1.00633 1 1.00787 0.998467
0.999032 1 1 0.999032
1.00031 1 1.00198 0.998334
1.00174 1 1.00413 0.997623
1.00079 1.00166 1.00188 0.997253
0.998788 1 1.0004 0.998384
0.998955 1.00024 1.00109 0.997621
0.998498 1.00007 1.00053 0.997907
1.00051 1 1.00232 0.998198
0.999125 1 1.00125 0.997874
1.00079 1 1.00212 0.998671
1.00003 1 1.00161 0.998422
0.999218 1 1.00128 0.997942
0.999191 1 1 0.999191
0.999451 1 1.00064 0.998815
0.999535 1 1.00096 0.998576
0.999012 1 1 0.999012
0.999311 1 1 0.999311
0.999778 1 1 0.999778
0.999382 1 1 0.999382
0.99981 1 1 0.99981
1 1 1 1
0.999826 1 1 0.999826
1 1 1 1
1 1 1 1
1 1 1 1
1 1 1 1
1 1 1 1
0.999244 1 1 0.999244
0.999738 1 1 0.999738
0.999341 1 1 0.999341
1 1 1 1
0.99981 1 1 0.99981
0.999469 1 1 0.999469
1 1 1 1
1 1 1 1
0.999863 1 1 0.999863
1 1 1 1
1 1 1 1
1 1 1 1
0.917556 0.948698 0.974901 0.992074
0.930286 0.959112 0.982695 0.987027
0.855945 0.903535 0.96666 0.980003
0.99898 1 1 0.99898
0.998928 1 1 0.998928
0.998824 1 1 0.998824
0.926077 0.964147 0.972769 0.987402
0.917708 0.948757 0.979291 0.987728
0.938134 0.965147 0.98913 0.982692
0.9686 0.98604 0.988441 0.9938
0.931838 0.954478 0.994142 0.982034
0.849165 0.908973 0.954323 0.978916
0.881462 0.955015 0.944549 0.977167
0.943817 0.962572 0.988147 0.992277
0.938579 0.948945 1.00687 0.982329
0.879372 0.923755 0.971494 0.979887
0.886865 0.966043 0.937063 0.979698
0.931543 0.952191 0.987259 0.990941
0.956528 0.959498 1.01434 0.982807
0.897363 0.93155 0.983457 0.979505
0.878685 0.951839 0.942678 0.979278
0.998602 1 1 0.998602
0.999714 1 1.00111 0.998606
0.99981 1 1.00107 0.998737
0.998778 1 1 0.998778
0.998864 1 1 0.998864
0.999076 1 1 0.999076
0.977972 0.994441 0.984493 0.998929
0.992778 0.998563 0.99488 0.999324
1.00089 1 1.00237 0.998527
1.01406 1.00032 1.0152 0.998563
1.00981 1 1.01139 0.99844
1.0001 1 1.00157 0.99853
1.00172 1 1.00317 0.99855
0.972565 0.984158 0.989014 0.999198
1.02689 1 1.02819 0.998742
1.00639 0.990362 1.01671 0.999479
1.00002 1 1.00135 0.998668
0.986871 0.973374 1.01454 0.999335
1.00116 0.987664 1.01415 0.999522
1.02209 1 1.02325 0.998864
0.94437 0.966363 0.982928 0.994214
0.927679 0.950992 0.982036 0.99333
0.936146 0.958289 0.988602 0.988155
1.00855 0.997744 1.0112 0.999633
0.991257 0.982732 1.00948 0.999205
0.916699 0.948788 0.973972 0.991998
0.94791 0.948897 1.01295 0.986188
0.905125 0.943382 0.979768 0.979259
0.925777 0.961625 0.972598 0.989845
0.882322 0.955466 0.944957 0.977237
1.00418 0.990286 1.01424 0.999788
0.930439 0.962705 0.972936 0.993369
0.919107 0.950048 0.979389 0.987791
0.969675 0.964559 1.01036 0.994998
0.838086 0.921704 0.932925 0.974654
0.876767 0.926135 0.966458 0.97955
0.971731 0.962448 1.02747 0.982649
1.00099 0.972274 1.03 0.999554
0.918303 0.949226 0.975078 0.992149
0.936241 0.965896 0.98609 0.98297
0.772413 0.85745 0.924083 0.974832
0.849458 0.918516 0.945216 0.978416
0.955643 0.95842 1.01493 0.982433
0.948356 0.959839 0.994669 0.993332
1.01509 0.994661 1.02103 0.999512
1.00718 0.989128 1.01867 0.999586
1.0167 0.994527 1.02278 0.999529
1.00101 1 1.00195 0.999066
1.01131 0.997931 1.01393 0.999487
1.00903 0.996853 1.0129 0.999325
1.0148 1 1.01601 0.998818
1.00117 1 1.00222 0.998951
1.00661 1 1.00827 0.998359
1.01493 1 1.01743 0.997539
0.999887 1 1.00145 0.998444
1.00311 1.00045 1.00509 0.99758
1.00482 1.00196 1.00596 0.996909
1.00328 1.00455 1.00191 0.996836
0.999042 1.0004 1.00108 0.997569
1.00072 1.00162 1.00189 0.997213
0.9992 1.00044 1.00124 0.997519
0.999198 1 1.0011 0.998102
0.99853 1.00005 1.00048 0.997999
1.00109 1 1.00269 0.998402
1.0006 1 1.00237 0.998238
0.999101 1 1.00117 0.997933
1.00014 1 1.00116 0.998983
1.0004 1 1.00173 0.998674
0.999978 1 1.00157 0.998414
0.999712 1 1 0.999712
0.999191 1 1 0.999188
0.99942 1 1.00061 0.998812
0.999309 1 1 0.999309
0.999773 1 1 0.999773
1 1 1 1
0.999807 1 1 0.999807
1 1 1 1
1 1 1 1
1 1 1 1
1 1 1 1
1 1 1 1
0.999232 1 1 0.999232
0.999743 1 1 0.999743
0.999263 1 1 0.999263
1 1 1 1
0.999771 1 1 0.999771
0.999371 1 1 0.999371
1 1 1 1
1 1 1 1
0.999803 1 1 0.999803
1 1 1 1
1 1 1 1
1 1 1 1
0.929118 0.961777 0.972897 0.992956
0.917817 0.949135 0.974725 0.992079
0.930193 0.959341 0.982359 0.987029
0.998899 1 1 0.998899
0.998779 1 1 0.998779
0.998998 1 1 0.998998
0.998925 1 1 0.998925
0.998806 1 1 0.998806
0.99881 1 1 0.99881
0.998711 1 1 0.998711
0.915104 0.951487 0.974834 0.986591
0.925748 0.962057 0.973356 0.988598
0.915002 0.947818 0.97735 0.98775
0.889249 0.968641 0.93627 0.980527
0.93278 0.952987 0.988157 0.990526
0.940891 0.94931 1.00795 0.983315
0.88401 0.926181 0.974858 0.979084
0.926657 0.95168 0.983334 0.990208
0.947498 0.951301 1.01468 0.981588
0.909082 0.94757 0.979849 0.979112
0.866053 0.941901 0.938661 0.979558
0.932492 0.953462 0.985737 0.992158
0.955067 0.957665 1.0164 0.981194
0.888654 0.935265 0.970388 0.979158
0.846957 0.926623 0.935959 0.976566
1.00055 1 1.00185 0.998707
0.998719 1 1.00012 0.998604
1.00015 1 1.00156 0.998597
0.998773 1 1 0.998773
0.980506 0.985789 0.995389 0.999248
1.00394 0.986662 1.01802 0.999503
0.99856 1 1.00005 0.998506
1.00146 1 1.00289 0.998566
1.02235 1 1.02353 0.998848
0.999477 1 1.00082 0.998661
1.02263 0.999619 1.02419 0.99885
0.982977 0.971852 1.01285 0.998614
1.00404 0.986655 1.018 0.999633
1.01039 0.998744 1.01271 0.998964
0.987857 0.970156 1.01982 0.998453
1.02028 0.992675 1.02853 0.999296
0.928572 0.950925 0.983351 0.993027
0.940135 0.964542 0.979962 0.994626
0.92712 0.951187 0.980905 0.993673
1.00094 0.988437 1.01284 0.999805
0.973266 0.966717 1.0088 0.997987
0.930352 0.962357 0.972834 0.993739
0.966364 0.961851 1.02422 0.98093
0.879911 0.926408 0.970478 0.978702
0.916702 0.949488 0.977382 0.987812
0.833139 0.914617 0.934498 0.974764
1.00594 0.975997 1.03105 0.999644
0.918105 0.949651 0.974425 0.992156
0.937278 0.965983 0.987168 0.982897
0.950553 0.959482 0.99514 0.995534
0.765954 0.858586 0.91716 0.972688
0.85628 0.919664 0.951745 0.978286
0.953314 0.953453 1.0182 0.981986
0.999991 0.978314 1.02337 0.998813
0.930052 0.959906 0.981462 0.9872
0.83974 0.89358 0.96166 0.977215
0.814822 0.889188 0.935465 0.979584
0.939586 0.946379 1.01019 0.982803
0.929188 0.951336 0.985484 0.991106
1.01055 0.993219 1.01786 0.99959
1.01735 0.99301 1.025 0.999522
1.00815 0.997261 1.01157 0.999357
1.01083 0.99694 1.01454 0.999402
1.0139 0.998159 1.0169 0.998895
1.00767 1.0008 1.00888 0.998005
1.0071 1 1.00886 0.998251
1.014 1 1.01656 0.997487
1.00896 1.00017 1.01193 0.996902
1.00455 1.00098 1.00604 0.997538
1.00498 1.00164 1.00653 0.996834
1.00306 1.00209 1.00437 0.996612
1.00595 1.00909 1 0.996883
1.00547 1.00769 1.00077 0.997038
1.00382 1.00487 1.00218 0.996784
0.998846 1.00091 1.00013 0.997808
0.9988 1.00043 1.00074 0.997625
1.00068 1.00162 1.0019 0.997173
0.999238 1 1.00112 0.998125
0.999254 1.00008 1.00108 0.998094
0.998516 1 1.00043 0.998091
1.00115 1 1.00245 0.998705
1.00101 1 1.00257 0.998446
1.0007 1 1.00242 0.998278
0.999565 1 1 0.999565
0.999873 1 1.00089 0.998984
1.00014 1 1.00147 0.998676
0.999999 1 1 0.999999
0.999706 1 1 0.999706
0.999245 1 1.00006 0.999186
0.999769 1 1 0.999769
1 1 1 1
1 1 1 1
1 1 1 1
1 1 1 1
1 1 1 1
0.998893 1 1 0.998893
0.999171 1 1 0.999171
0.999684 1 1 0.999684
0.99923 1 1 0.99923
0.999999 1 1 0.999999
0.999746 1 1 0.999746
0.999283 1 1 0.999283
1 1 1 1
1 1 1 1
0.999804 1 1 0.999804
1 1 1 1
1 1 1 1
1 1 1 1
0.914587 0.94822 0.97235 0.991957
0.929603 0.96217 0.972642 0.993328
0.918276 0.949683 0.974645 0.992083
0.99891 1 1 0.99891
0.998765 1 1 0.998765
0.998712 1 1 0.998712
0.998767 1 1 0.998767
0.999527 1 1.00085 0.998677
0.998922 1 1 0.998922
0.998787 1 1 0.998787
0.998811 1 1 0.998811
0.998712 1 1 0.998712
1.00008 1 1.00132 0.998758
0.929414 0.956871 0.988245 0.98286
0.918604 0.953436 0.976541 0.986611
0.926501 0.96088 0.974166 0.989792
0.865286 0.942696 0.936938 0.979664
0.906113 0.94192 0.982147 0.979472
0.91898 0.947479 0.980495 0.989216
0.95579 0.958932 1.0144 0.982576
0.933176 0.955731 0.986282 0.989981
0.96624 0.966671 1.01736 0.982497
0.888359 0.934101 0.971034 0.9794
0.84712 0.929521 0.933958 0.975795
0.953057 0.962112 0.999077 0.991503
0.956579 0.959003 1.01474 0.982986
0.83568 0.90153 0.947196 0.978633
0.795905 0.88785 0.919936 0.97446
1.00272 1 1.00359 0.999134
1.00209 1 1.00339 0.998705
0.999515 1 1.00091 0.998605
0.981798 0.971125 1.01314 0.997877
1.0069 0.984978 1.02252 0.999748
0.99981 1 1.00116 0.998653
1.02387 0.999402 1.02568 0.998836
1.01169 0.999466 1.01327 0.998972
1.02146 0.994784 1.02755 0.999286
0.984329 0.967179 1.01927 0.998486
1.01695 0.998486 1.01916 0.999345
0.99081 0.977477 1.01534 0.998326
0.939032 0.961918 0.988264 0.9878
0.928271 0.951085 0.982533 0.993365
0.935863 0.962799 0.976872 0.995036
1.01135 0.98035 1.03191 0.999725
0.950098 0.961055 0.996289 0.992282
0.918746 0.950037 0.974705 0.99216
0.95554 0.960443 1.01475 0.980437
0.848014 0.907701 0.954435 0.978845
0.938622 0.966077 0.988556 0.982828
0.763135 0.862786 0.911364 0.970524
0.999218 0.976954 1.02388 0.998937
0.931658 0.960341 0.98272 0.98719
0.831767 0.887562 0.959794 0.976394
0.931745 0.954716 0.983581 0.992231
0.825873 0.895941 0.942239 0.978302
0.927448 0.944351 1.0006 0.98151
0.973381 0.97569 0.999701 0.997932
0.866831 0.905281 0.976956 0.980112
0.824978 0.886969 0.94984 0.979228
0.946199 0.960835 1.00269 0.982123
0.924787 0.95 0.980635 0.992682
1.01711 0.991592 1.02623 0.999515
1.00983 0.995756 1.01482 0.999329
0.996963 1.001 0.997302 0.998656
1.01259 0.995961 1.01774 0.998972
1.0076 1.00093 1.00858 0.998101
1.00113 1.00198 1.00163 0.997522
1.01279 1 1.01539 0.997434
1.00735 1.00032 1.01015 0.996918
0.999548 1.00147 1.00107 0.997016
1.00484 1.00129 1.00681 0.99676
1.00325 1.00301 1.00361 0.996635
1.00649 1.00947 1 0.997047
1.01709 1.0199 1 0.997243
1.01075 1.01385 1.00002 0.996924
1.00549 1.00862 1 0.996901
1.00291 1.00561 1 0.997317
1.00374 1.00569 1.00107 0.996991
1.00439 1.00523 1.00244 0.996731
0.998349 1.00039 1 0.997963
0.998542 1.00065 1.00002 0.997874
0.998496 1.0005 1.00032 0.997682
0.999826 1 1.00139 0.99844
0.999436 1 1.00129 0.998152
0.999378 1.0002 1.0011 0.998085
0.999922 1 1.00063 0.999292
1.00089 1 1.00218 0.998707
1.0009 1 1.00241 0.998489
0.999993 1 1 0.999993
0.999634 1 1.00008 0.999557
0.999596 1 1.00061 0.998986
1 1 1 1
0.999998 1 1 0.999998
0.999699 1 1 0.999699
1 1 1 1
1 1 1 1
1 1 1 1
0.998818 1 1.00001 0.998807
0.999102 1 1 0.999102
0.998879 1 1 0.998879
0.999635 1 1 0.999635
0.999171 1 1 0.999171
0.999994 1 1 0.999994
0.999687 1 1 0.999687
0.999228 1 1 0.999228
1 1 1 1
1 1 1 1
0.99975 1 1 0.99975
1 1 1 1
1 1 1 1
1 1 1 1
0.933614 0.963609 0.980558 0.988082
0.914934 0.948157 0.972778 0.991964
0.929586 0.961813 0.972619 0.993702
0.998718 1 1 0.998718
0.998921 1 1 0.998921
0.998752 1 1 0.998752
0.99878 1 1 0.99878
0.998729 1 1 0.998729
0.999208 1 1.00052 0.998687
1.00093 1 1.00237 0.998563
1.00109 1 1.00244 0.998654
0.998811 1 1 0.998811
0.998713 1 1 0.998713
1.0002 1 1.00145 0.998749
1.00146 1 1.00255 0.998911
0.836876 0.893154 0.959966 0.976064
0.935715 0.962456 0.989268 0.982764
0.920169 0.953426 0.978197 0.98663
0.839333 0.924089 0.930534 0.976086
0.895029 0.941259 0.971474 0.978806
0.956446 0.958367 1.01707 0.981249
0.938339 0.956289 0.990398 0.990742
0.95204 0.959086 0.999385 0.993264
0.779757 0.87631 0.915075 0.9724
0.95144 0.954246 1.01599 0.981364
0.846905 0.913705 0.947002 0.978764
0.943262 0.957786 0.991059 0.993721
0.944144 0.951375 1.00887 0.983678
0.818907 0.893802 0.936045 0.978805
1.00052 1 1.00093 0.999582
1.00244 1 1.0033 0.999137
1.00325 1 1.00455 0.998704
0.980855 0.964369 1.0186 0.99852
1.02356 0.997943 1.02641 0.999274
1.01284 1 1.01387 0.998979
1.01656 0.999372 1.01787 0.999344
0.99105 0.979394 1.01355 0.998377
0.999434 0.991358 1.00932 0.998838
0.875158 0.910226 0.9818 0.979297
0.937047 0.960586 0.986383 0.988962
0.927476 0.951129 0.981312 0.993702
0.999437 0.975357 1.02567 0.999045
0.926669 0.953783 0.978419 0.993002
0.931358 0.960677 0.982061 0.98719
0.935923 0.944236 1.00819 0.983148
0.83371 0.908342 0.938324 0.978168
0.827839 0.889236 0.953302 0.976559
0.975303 0.976208 1.00108 0.997993
0.856531 0.902977 0.967767 0.980157
0.839202 0.893657 0.958783 0.979434
0.927432 0.950655 0.985027 0.990401
0.934845 0.957768 0.992495 0.983447
0.964636 0.985625 0.979765 0.998918
0.855364 0.907269 0.96214 0.979889
0.950696 0.976167 0.989516 0.984225
0.939508 0.963203 0.985057 0.990196
1.01243 0.994879 1.01836 0.999301
0.990743 1.00019 0.991789 0.998761
0.986608 1.00267 0.985804 0.998148
1.00803 1.00108 1.00876 0.998197
1.00285 1.00241 1.00294 0.997513
1.00044 1.00336 0.999428 0.997662
1.00609 1.0005 1.00867 0.996933
0.999594 1.00113 1.00144 0.997029
1.01225 1.01469 1 0.997597
1.00364 1.00395 1.00304 0.996657
1.006 1.00897 1 0.997054
1.01666 1.01904 1 0.997663
1.0223 1.02469 1 0.997662
1.01932 1.0222 1 0.997174
1.01649 1.01927 1 0.997272
1.01 1.0129 1 0.997137
1.00989 1.01296 1 0.996968
1.00488 1.00799 1 0.99692
1.00095 1.00327 1 0.997688
1.00284 1.00537 1.00014 0.997341
1.00212 1.00371 1.00148 0.996945
0.998223 1 1 0.998223
0.998924 1.00097 1 0.997957
0.998115 1.00018 1 0.99794
0.9997 1 1.00072 0.998983
0.999694 1 1.00125 0.998442
0.999622 1 1.00145 0.998179
0.999962 1 1 0.999962
0.99993 1 1.00064 0.999288
1.00049 1 1.00178 0.998709
1 1 1 1
0.999987 1 1 0.999987
0.999677 1 1.00013 0.99955
1 1 1 1
0.999997 1 1 0.999997
1 1 1 1
0.998767 1 1 0.998767
0.99886 1 1.00005 0.998805
0.999012 1 1 0.999012
0.999587 1 1 0.999587
0.999102 1 1 0.999102
0.998865 1 1 0.998865
0.999986 1 1 0.999986
0.999638 1 1 0.999638
0.99917 1 1 0.99917
1 1 1 1
0.999996 1 1 0.999996
0.99969 1 1 0.99969
1 1 1 1
1 1 1 1
1 1 1 1
0.862525 0.900433 0.979233 0.978215
0.931637 0.961376 0.98075 0.988087
0.91604 0.948831 0.973257 0.99197
0.998863 1 1.00016 0.998702
0.998893 1 1.00026 0.998633
1.00006 1 1.00145 0.998611
0.998794 1 1 0.998794
0.998746 1 1 0.998746
0.999373 1 1.00068 0.998696
1.00103 1 1.00238 0.998649
1.0008 1 1.00223 0.99857
1.00154 1 1.00307 0.998479
0.998205 1 0.999164 0.99904
0.999879 1 1.00114 0.998739
1.00081 1 1.00193 0.998888
0.835122 0.890058 0.958689 0.978709
0.829412 0.885222 0.960906 0.975073
0.941792 0.967422 0.990667 0.982679
0.764799 0.86298 0.913346 0.970312
0.847898 0.911583 0.950443 0.978636
0.950584 0.955777 1.01106 0.983689
0.953853 0.957657 1.00486 0.991213
0.941831 0.957311 0.991824 0.99194
0.820732 0.886652 0.946618 0.977852
0.933554 0.946704 1.00318 0.982984
0.936167 0.95931 0.983131 0.99262
0.932507 0.959251 0.989428 0.982507
1.00704 1 1.00802 0.999035
1.00015 1 1.00063 0.999519
1.0018 1 1.00266 0.999141
0.990234 0.979969 1.01207 0.998422
1.01585 1 1.01652 0.999344
0.999798 0.992202 1.00893 0.998739
0.990711 0.995504 0.997216 0.997964
0.854945 0.92035 0.947278 0.980636
0.87882 0.910378 0.984898 0.980138
0.935914 0.959398 0.985265 0.990113
0.975795 0.979006 0.998624 0.998094
0.926842 0.950349 0.983983 0.991139
0.8566 0.904205 0.966433 0.980256
0.931423 0.954522 0.993518 0.982166
0.84373 0.899807 0.957316 0.979487
0.968411 0.985979 0.983814 0.998342
0.860631 0.914329 0.960646 0.97983
0.950282 0.977107 0.989877 0.982492
0.946623 0.965601 0.988139 0.992114
0.977223 0.993355 0.98498 0.998762
0.953456 0.982033 0.987296 0.983392
0.959171 0.983642 0.981569 0.993432
0.984771 0.999167 0.986715 0.998862
0.986695 1.00356 0.98504 0.998125
0.983838 1.00689 0.979037 0.998029
1.00384 1.00278 1.00356 0.997504
0.999768 1.00347 0.998648 0.997657
1.01625 1.02131 0.996908 0.998132
0.999458 1.00071 1.00172 0.997042
1.01217 1.01464 0.999981 0.997586
1.02176 1.02419 0.99952 0.998107
1.00537 1.00833 1 0.997062
1.01604 1.01842 1 0.997662
1.02271 1.02472 1 0.998038
1.02017 1.0223 1 0.997921
1.02281 1.02516 1 0.997712
1.02216 1.02468 1 0.997547
1.01859 1.02139 1 0.997252
1.01985 1.02273 1 0.99718
1.01598 1.01873 1 0.997301
1.00673 1.00935 1 0.99741
1.01068 1.01355 1 0.997172
1.00905 1.01208 1 0.997011
0.998571 1.00057 1 0.997999
1.00164 1.00397 1 0.997681
1.00292 1.0054 1.00017 0.997364
0.998784 1 1.00002 0.998761
0.998248 1.00003 1 0.998222
0.999612 1.00166 1 0.997951
0.999868 1 1 0.999868
0.99954 1 1.00056 0.998984
0.999652 1 1.00121 0.998443
1 1 1 1
0.999944 1 1 0.999944
0.999898 1 1.00061 0.999284
1 1 1 1
0.999981 1 1 0.999981
1 1 1 1
0.998702 1 1 0.998702
0.998799 1 1.00004 0.998761
0.998913 1 1 0.998913
0.998869 1 1.00007 0.998804
0.999011 1 1 0.999011
0.999514 1 1 0.999514
0.999978 1 1 0.999978
0.999589 1 1 0.999589
0.999102 1 1 0.999102
1 1 1 1
0.999989 1 1 0.999989
0.99964 1 1 0.99964
1 1 1 1
0.999998 1 1 0.999998
1 1 1 1
0.862828 0.911024 0.9665 0.979924
0.865523 0.905083 0.977794 0.97801
0.930004 0.959638 0.980801 0.98809
0.998842 1 1.00016 0.998686
1.00021 1 1.00166 0.99856
0.998716 1 1.00004 0.998677
0.998309 1 1 0.998309
0.99989 1 1.00136 0.998533
1.00102 1 1.00238 0.998643
1.00034 1 1.00177 0.998576
1.0014 1 1.00289 0.998514
0.998348 1 1 0.998348
0.996785 1.0005 0.997451 0.998833
0.998576 1.00034 1.00026 0.997984
0.999275 1 1.00018 0.999092
1.00045 1 1.00159 0.998865
0.94527 0.975274 0.986202 0.982796
0.837815 0.888478 0.963284 0.97892
0.830148 0.88808 0.958679 0.975057
0.818592 0.887569 0.943437 0.977581
0.939412 0.95073 1.00671 0.981509
0.944883 0.955402 0.995104 0.993856
0.937459 0.958105 0.984502 0.993854
0.939313 0.960856 0.993342 0.984132
0.96124 0.98405 0.983833 0.992872
1.0003 1.00132 1.00075 0.998233
1.00567 1 1.00666 0.999013
0.999669 1 1.00021 0.999456
1.00068 0.99403 1.00804 0.998661
0.996403 0.999537 0.998965 0.997897
0.9319 0.973186 0.973112 0.984036
0.864265 0.919488 0.958675 0.980459
0.883626 0.910797 0.988965 0.980992
0.972011 0.987324 0.98672 0.99774
0.94226 0.961581 0.989492 0.990313
0.861582 0.911888 0.96448 0.97963
0.949031 0.973328 0.990902 0.98399
0.978279 0.993326 0.986043 0.998792
0.956823 0.98641 0.9852 0.984578
0.959846 0.983359 0.984439 0.991518
0.996489 1.00471 0.99359 0.998215
0.976867 0.995698 0.985562 0.99546
0.987128 1.00461 0.984463 0.998109
0.985275 1.00632 0.98107 0.99798
1.00518 1.02773 0.979841 0.998179
0.999346 1.00358 0.998123 0.997652
1.01579 1.02099 0.996786 0.998117
1.02344 1.03188 0.993471 0.998334
1.01215 1.01468 0.999932 0.997575
1.02146 1.02433 0.999107 0.99809
1.02044 1.02415 0.998126 0.998245
1.01557 1.01795 1 0.997662
1.02298 1.02508 0.999927 0.998021
1.02171 1.02368 1 0.998074
1.0208 1.02288 1 0.997967
1.02 1.0223 1 0.997755
1.02329 1.02558 1 0.997761
1.02207 1.02459 1 0.997539
1.02146 1.02409 1 0.99743
1.01378 1.01646 1 0.997361
1.01844 1.02126 1 0.997243
1.02034 1.02322 1 0.997187
1.00087 1.00309 1 0.997793
1.00642 1.00902 1 0.99743
1.01131 1.01414 1 0.997208
0.998585 1 1 0.998585
0.999173 1.00118 1 0.997995
1.00198 1.00432 1 0.997674
0.999723 1 1 0.999723
0.998761 1 1 0.998761
0.998311 1.00009 1 0.99822
1 1 1 1
0.999846 1 1 0.999846
0.999425 1 1.00044 0.998984
1 1 1 1
0.999926 1 1 0.999926
1 1 1 1
0.999004 1.00068 1 0.998323
0.9987 1 1 0.9987
0.998789 1 1.00001 0.998775
0.998863 1 1.00011 0.998754
0.998896 1 1 0.998892
0.999383 1 1 0.999383
0.999011 1 1 0.999011
0.999517 1 1 0.999517
0.999969 1 1 0.999969
1 1 1 1
0.99998 1 1 0.99998
0.999592 1 1 0.999592
1 1 1 1
0.999991 1 1 0.999991
1 1 1 1
0.952617 0.982701 0.984164 0.984984
0.855788 0.913478 0.955567 0.980408
0.876143 0.91116 0.98349 0.977712
1.00056 1 1.00206 0.998509
0.998721 1 1 0.998721
0.999822 1 1.00129 0.998539
0.998421 1.00009 1 0.998329
1.0021 1.00417 1.00002 0.997919
0.998393 1 1 0.998393
1.00139 1 1.00284 0.998549
0.998233 1 1 0.998233
0.997979 1.00024 0.998936 0.9988
0.998562 1.00038 1 0.998186
0.998775 1.0028 0.997825 0.998161
0.99803 1.00129 0.999152 0.997591
0.99826 1.00081 0.999337 0.998111
1.00054 1 1.0014 0.999144
0.959837 0.985715 0.980576 0.993036
0.948138 0.976693 0.987021 0.983528
0.833184 0.889356 0.956526 0.97942
0.951959 0.967425 1.00187 0.982173
0.937501 0.956975 0.984844 0.994727
0.965161 0.984692 0.98492 0.995171
0.993077 1.00377 0.991195 0.998139
0.998139 1.00067 0.999197 0.998273
1.00461 1 1.00563 0.99899
0.996516 1.00112 0.997583 0.997812
0.962631 0.980583 0.988545 0.993069
0.944677 0.977272 0.980647 0.985724
0.854855 0.914172 0.953779 0.980429
0.980386 0.994056 0.987414 0.998819
0.964113 0.985666 0.985115 0.992914
0.960788 0.986302 0.988196 0.985767
0.990192 1.00378 0.988216 0.99823
0.974359 0.993269 0.986084 0.994806
0.996001 1.02381 0.974781 0.998006
1.00542 1.01537 0.992597 0.997585
0.986345 1.00563 0.982858 0.997928
1.00469 1.02694 0.98013 0.998171
1.00877 1.03604 0.975411 0.998217
1.01554 1.02102 0.996525 0.998103
1.02316 1.03175 0.99334 0.998319
1.01594 1.02565 0.992326 0.998192
1.02112 1.02442 0.998708 0.998073
1.0198 1.02368 0.99797 0.99823
1.02213 1.02594 0.998238 0.998041
1.02321 1.02541 0.999843 0.998005
1.02095 1.02301 0.999917 0.99807
1.02027 1.02251 1 0.997809
1.02145 1.02348 1 0.998012
1.01999 1.02225 1 0.997792
1.0216 1.02413 1 0.997531
1.02204 1.02457 1 0.997532
1.02137 1.02401 1 0.997421
1.0173 1.0199 1 0.997455
1.00423 1.0066 1 0.997644
1.01341 1.01607 1 0.99738
1.01827 1.0211 1 0.997233
0.998433 1.00002 1 0.998409
1.00181 1.00403 1 0.997793
1.00636 1.00893 1 0.997451
0.999572 1 1 0.999572
0.998583 1 1 0.998583
0.999766 1.00178 1 0.99799
1 1 1 1
0.999708 1 1 0.999708
0.998761 1 1 0.998761
1 1 1 1
0.999823 1 1 0.999823
1 1 1 1
1.00133 1.00336 1 0.997978
0.998685 1.00035 1 0.998336
0.998519 1 1 0.998519
0.998699 1 1 0.998699
0.998752 1 1 0.998752
0.999198 1 1 0.999198
0.998871 1 1 0.998871
0.999385 1 1 0.999385
0.99995 1 1 0.99995
0.999519 1 1 0.999519
0.999972 1 1 0.999972
1 1 1 1
1 1 1 1
0.999983 1 1 0.999983
1 1 1 1
0.960999 0.984162 0.982907 0.993446
0.948523 0.983366 0.980539 0.983711
0.849264 0.908771 0.953392 0.980204
1.00824 1.0106 1.00007 0.997596
0.999589 1 1.00105 0.998545
0.998549 1.0002 1 0.998348
0.99836 1 1 0.99836
1.00178 1.00375 1.00012 0.997908
1.00037 1.00213 1 0.998244
0.998119 1 1 0.998119
0.999034 1.00001 1.00026 0.998768
0.998669 1.0006 0.999846 0.998225
0.997192 1.00184 0.997224 0.998129
1.00133 1.00381 1 0.99753
1.00282 1.00584 0.999436 0.997563
0.999079 1.00195 0.999585 0.997545
0.998056 1.00134 0.998482 0.998239
0.994108 1.00618 0.989343 0.998641
0.958685 0.986015 0.980015 0.992109
0.95186 0.978178 0.988336 0.984579
0.958736 0.98067 0.984008 0.993521
0.99696 1.00582 0.992651 0.99853
0.998995 1.0002 1.00049 0.998311
0.996407 1.00668 0.992149 0.997625
0.957311 0.973013 0.989449 0.994353
0.936425 0.976353 0.974566 0.984136
0.983467 1.00212 0.983113 0.99824
0.978444 0.994619 0.989693 0.993983
0.997675 1.02484 0.975395 0.998049
1.00435 1.01405 0.992685 0.997732
1.00486 1.03196 0.975667 0.998019
1.02465 1.03062 0.996288 0.99792
1.00403 1.0258 0.980584 0.998163
1.0114 1.03725 0.97682 0.998214
1.00898 1.03066 0.980878 0.998053
1.02252 1.03123 0.993237 0.998304
1.01622 1.02572 0.992541 0.998188
1.02113 1.02806 0.995323 0.99793
1.01918 1.02321 0.997847 0.998214
1.02195 1.02551 0.998472 0.998054
1.02271 1.02514 0.999891 0.997739
1.02019 1.02232 0.999853 0.998065
1.02044 1.02268 1 0.997809
1.02331 1.02583 1 0.997546
1.01993 1.02215 1 0.997829
1.02166 1.02417 1 0.997556
1.01914 1.02175 1 0.997438
1.02126 1.02391 1 0.997412
1.01712 1.01973 1 0.997434
1.00722 1.00961 1 0.99763
0.998646 1.00036 1 0.998284
1.00449 1.00683 1 0.997669
1.01299 1.01564 1 0.997398
0.999438 1 1 0.999438
0.998508 1.0001 1 0.998408
1.00268 1.0049 1 0.997794
1 1 1 1
0.999559 1 1 0.999559
0.998582 1 1 0.998582
1 1 1 1
0.999692 1 1 0.999692
1 1 1 1
1.00336 1.00571 1 0.997661
1.00079 1.00281 1 0.997983
0.999018 1.00078 1 0.998236
0.998356 1 1.00001 0.998349
0.998532 1 1.00001 0.998525
0.999145 1 1.00016 0.998988
0.998737 1 1.00001 0.998729
0.999198 1 1 0.999198
0.999907 1 1 0.999907
0.999386 1 1 0.999386
0.999956 1 1 0.999956
1 1 1 1
0.999975 1 1 0.999975
1 1 1 1
1 1 1 1
0.997063 1.01055 0.988043 0.998592
0.955199 0.982031 0.980872 0.991645
0.946372 0.975522 0.984602 0.98529
1.007 1.00918 1.00001 0.997824
1.01385 1.01645 1 0.997442
1.00696 1.00921 1.00013 0.997639
0.998326 1 1 0.998326
1.00139 1.00326 1.00024 0.997896
1.00117 1.00299 1 0.998189
1.00912 1.01156 1 0.997591
0.998696 1.00079 0.999648 0.998263
0.995531 1.00077 0.996664 0.998096
1.00214 1.00471 0.999848 0.997594
1.01134 1.01415 0.999946 0.997283
1.01022 1.01824 0.994234 0.997873
1.00314 1.00634 0.999282 0.997536
0.999821 1.00262 0.999706 0.997498
0.998361 1.00844 0.991219 0.998771
0.961579 0.98658 0.983475 0.991035
0.997277 1.007 0.991399 0.998931
1.0147 1.02392 0.992485 0.998493
0.99545 1.00539 0.992382 0.997713
0.957596 0.978245 0.986201 0.992589
0.99994 1.02613 0.976339 0.99809
1.00254 1.01301 0.991764 0.997886
1.00423 1.03211 0.974847 0.99809
1.02624 1.03267 0.995832 0.997928
1.02178 1.03621 0.988117 0.997926
1.03863 1.04585 0.995048 0.998039
1.01424 1.03908 0.977844 0.99821
1.01071 1.03042 0.982782 0.998057
1.02419 1.03485 0.991852 0.997836
1.01664 1.02588 0.992792 0.998185
1.02136 1.02761 0.995984 0.997928
1.02644 1.02994 0.998902 0.997698
1.02174 1.02506 0.998692 0.998067
1.02307 1.02544 0.999946 0.997737
1.02591 1.02848 1 0.997496
1.0206 1.02284 1 0.997809
1.02315 1.02566 1 0.997547
1.02149 1.02415 1 0.997398
1.02174 1.02422 1 0.99758
1.01893 1.02154 1 0.997445
1.00878 1.01123 1 0.997577
1.01696 1.0196 1 0.997413
1.00708 1.00948 1 0.997619
0.999247 1.00104 1 0.99821
0.999361 1 1 0.999361
0.99882 1.00054 1 0.998283
1.00479 1.00711 1 0.997694
1 1 1 1
0.999427 1 1 0.999427
0.998587 1.00018 1 0.998408
1 1 1 1
0.999546 1 1 0.999546
1 1 1 1
1.00687 1.00946 1 0.997443
1.00348 1.00586 1 0.997635
1.00093 1.00299 1 0.997942
1.00024 1.00226 1 0.997988
0.998815 1.00057 1 0.998241
0.998767 1 1.00001 0.998756
0.998531 1 1 0.998531
0.999158 1 1.00017 0.998989
0.999814 1 1 0.999814
0.999198 1 1 0.999198
0.99992 1 1 0.99992
1 1 1 1
0.999962 1 1 0.999962
1 1 1 1
1 1 1 1
1.00945 1.02376 0.98767 0.998331
0.994312 1.00952 0.986725 0.998187
0.953287 0.982926 0.977229 0.992445
1.01592 1.01844 1 0.997522
1.00724 1.00927 1 0.997988
1.02523 1.02793 1 0.997374
1.01421 1.01683 1 0.997428
1.00584 1.00799 1.00018 0.997683
1.02266 1.02546 1 0.997276
1.00202 1.00389 1 0.998135
1.00808 1.01057 1 0.997532
1.02764 1.03207 0.998245 0.997467
1.00284 1.00547 0.999722 0.997658
1.01249 1.01531 0.999974 0.997249
1.01001 1.0179 0.994345 0.997891
1.00293 1.006 0.999432 0.997506
1.00245 1.01031 0.993307 0.998902
1.03043 1.04093 0.991781 0.99811
1.01464 1.02393 0.992415 0.998498
0.995632 1.00409 0.993767 0.997795
1.00378 1.03178 0.974652 0.998161
1.02674 1.03392 0.995106 0.997937
1.02024 1.03639 0.98645 0.997942
1.0387 1.04681 0.994206 0.99804
1.03482 1.04482 0.992478 0.997937
1.01218 1.02994 0.984661 0.99806
1.02403 1.03439 0.992118 0.997844
1.02962 1.03625 0.99588 0.99771
1.02153 1.02716 0.996589 0.997925
1.02607 1.0293 0.999173 0.99768
1.02816 1.03079 1 0.997444
1.0235 1.02583 0.999996 0.997735
1.02567 1.02825 1 0.997494
1.02457 1.02731 1 0.997335
1.023 1.02552 1 0.997547
1.02145 1.02411 1 0.9974
1.0107 1.01324 1 0.997493
1.01872 1.02132 1 0.997452
1.00892 1.01137 1 0.99758
0.999852 1.00172 1 0.998134
1.00691 1.00933 1 0.997608
0.999423 1.00122 1 0.998208
0.999436 1 1 0.999436
0.999823 1 1 0.999823
0.999399 1 1 0.999399
0.998989 1.00071 1 0.998283
1 1 1 1
0.999416 1 1 0.999416
1 1 1 1
1.03171 1.03438 1 0.997423
1.01736 1.01999 1 0.997418
1.00784 1.01043 1 0.99743
1.00414 1.0064 1 0.997756
1.00355 1.00595 1 0.997609
1.00023 1.00228 1 0.997945
0.998543 1 1 0.998538
0.998632 1.00039 1 0.998247
0.998909 1 1.00015 0.99876
0.99966 1 1 0.99966
0.999131 1 1.00014 0.99899
0.999833 1 1 0.999833
1 1 1 1
0.999933 1 1 0.999933
1 1 1 1
1 1 1 1
1.03034 1.03951 0.993303 0.997863
1.01302 1.02723 0.987741 0.998413
0.991964 1.00962 0.984697 0.997784
1.02585 1.02861 1 0.997318
1.0154 1.01785 1 0.997589
1.00731 1.00918 1 0.998149
1.02471 1.02739 1 0.997393
1.01456 1.01719 1 0.997414
1.03371 1.03708 0.999309 0.997447
1.0202 1.02302 1 0.997236
1.00715 1.0097 1 0.997473
1.02706 1.03136 0.998364 0.997461
1.01467 1.01751 0.999998 0.997216
1.01193 1.02004 0.994125 0.997913
1.03643 1.04547 0.993312 0.998029
1.03231 1.04217 0.992401 0.998125
1.01507 1.02398 0.992783 0.998504
1.01954 1.03737 0.984829 0.997958
1.03958 1.04837 0.993568 0.99804
1.035 1.04565 0.991852 0.997949
1.03259 1.03964 0.995436 0.997779
1.02373 1.03381 0.992385 0.997852
1.02918 1.0355 0.99619 0.9977
1.03052 1.03334 0.999822 0.997453
1.02567 1.02863 0.999463 0.997661
1.02885 1.03149 1 0.997444
1.02764 1.03044 1 0.99728
1.02538 1.02796 1 0.997493
1.02468 1.02742 1 0.997336
1.0127 1.01534 1 0.997401
1.0214 1.02407 1 0.997402
1.01094 1.01348 1 0.997495
1.00038 1.00235 1 0.998034
1.00905 1.0115 1 0.997583
1.00001 1.00188 1 0.998132
0.999437 1 1 0.999437
0.999598 1.00139 1 0.998206
0.999432 1 1 0.999432
0.999834 1 1 0.999834
0.999914 1 1 0.999914
0.999439 1 1 0.999439
1 1 1 1
1.03012 1.03288 1 0.997321
1.02305 1.02567 1 0.997447
1.0314 1.03396 1 0.997526
1.00803 1.01042 1 0.997633
1.01891 1.02156 1 0.997409
1.0089 1.01151 1 0.997417
1.00323 1.00548 1 0.997754
0.999084 1.00073 1 0.998359
0.999541 1.0016 1 0.997949
0.99854 1 1 0.99854
0.999497 1 1 0.999497
0.999091 1 1.00033 0.998763
0.999679 1 1 0.999679
1 1 1 1
0.999852 1 1 0.999852
1 1 1 1
1 1 1 1
1.03515 1.04133 0.996313 0.997745
1.03004 1.03914 0.993365 0.997859
1.01495 1.02914 0.987707 0.998489
1.03332 1.03606 0.999983 0.997369
1.02467 1.02743 1 0.997321
1.01502 1.01741 1 0.997656
1.02405 1.02671 1 0.997412
1.03321 1.03661 0.999296 0.997425
1.01771 1.02058 1 0.997197
1.02483 1.02897 0.998516 0.997455
1.03448 1.04133 0.995574 0.99784
1.0358 1.04449 0.993678 0.99799
1.03412 1.04337 0.992979 0.998139
1.03298 1.03818 0.997312 0.997665
1.03499 1.04626 0.991246 0.997961
1.03235 1.03945 0.995394 0.997766
1.03205 1.0352 0.999411 0.997542
1.0288 1.0348 0.996501 0.99769
1.03161 1.0345 0.999757 0.997455
1.02877 1.0316 1 0.997256
1.02954 1.03218 1 0.997444
1.02735 1.03015 1 0.997282
1.01447 1.01719 1 0.997327
1.02475 1.02749 1 0.997336
1.01296 1.0156 1 0.997402
1.00086 1.00293 1 0.997934
1.01116 1.0137 1 0.997496
1.00054 1.00251 1 0.998033
0.999414 1 1 0.999414
1.00018 1.00205 1 0.99813
0.999429 1 1 0.999429
0.999838 1 1 0.999838
0.999429 1 1 0.999429
0.999837 1 1 0.999837
1 1 1 1
1.0306 1.03347 1 0.997223
1.0245 1.02727 1 0.997307
1.03085 1.0336 1 0.997336
1.0107 1.01311 1 0.997617
1.0234 1.02601 1 0.997455
1.03117 1.03362 1 0.997629
1.00021 1.00201 1 0.998204
1.00773 1.01013 1 0.997628
1.02057 1.02323 1 0.9974
1.00218 1.00444 1 0.997753
0.998805 1.00045 1 0.99836
0.999383 1 1 0.999383
0.998541 1 1 0.998541
0.99951 1 1 0.99951
1 1 1 1
0.999697 1 1 0.999697
1 1 1 1
1 1 1 1
1.03504 1.03885 0.998738 0.997599
1.0351 1.04171 0.995915 0.99773
1.03048 1.03958 0.993382 0.997855
1.03275 1.03547 0.999998 0.997378
1.02343 1.02618 1 0.997323
1.03265 1.03608 0.999279 0.997404
1.03335 1.03806 0.997781 0.99767
1.03474 1.04136 0.995793 0.997833
1.0352 1.04356 0.994017 0.997952
1.03355 1.03873 0.99733 0.997685
1.0329 1.03596 0.99956 0.997486
1.0321 1.03926 0.995344 0.997753
1.0324 1.03551 0.999493 0.997506
1.02852 1.03129 1 0.99731
1.03262 1.03557 0.999693 0.997458
1.02838 1.03121 1 0.997259
1.01579 1.01857 1 0.997271
1.02719 1.02999 1 0.997283
1.01484 1.01756 1 0.997328
1.00122 1.00337 1 0.997856
1.0133 1.01594 1 0.997403
1.00099 1.00306 1 0.997933
0.999367 1 1 0.999367
1.0007 1.00268 1 0.998032
0.999402 1 1 0.999402
0.999823 1 1 0.999823
0.999424 1 1 0.999424
0.999846 1 1 0.999846
0.999837 1 1 0.999837
1.03239 1.03506 1 0.997421
1.02666 1.02957 1 0.99718
1.03108 1.03393 1 0.99724
1.01327 1.01584 1 0.997473
1.02412 1.02688 1 0.997308
1.03154 1.03428 1 0.997352
1.00089 1.0028 1 0.99809
1.01075 1.01321 1 0.997572
1.02361 1.02622 1 0.997464
0.999328 1 1 0.999328
0.99986 1.00166 1 0.998207
1.00751 1.00991 1 0.997622
0.998541 1.00018 1 0.998362
0.999393 1 1 0.999393
1 1 1 1
0.999524 1 1 0.999524
1 1 1 1
1 1 1 1
1.0322 1.03568 0.999068 0.997569
1.03413 1.03826 0.998423 0.997596
1.03504 1.04206 0.995539 0.997715
1.03214 1.03485 1 0.997388
1.03249 1.03529 0.999841 0.997448
1.03414 1.03895 0.997685 0.997679
1.03495 1.04133 0.996043 0.997825
1.03415 1.0393 0.997332 0.997705
1.0322 1.03546 0.99935 0.997497
1.02849 1.03126 1 0.997319
1.03286 1.03594 0.99956 0.99747
1.02828 1.03107 1 0.997287
1.01658 1.01938 1 0.997255
1.02799 1.03081 1 0.997262
1.01599 1.01877 1 0.997273
1.00135 1.00357 1 0.997789
1.01505 1.01777 1 0.997329
1.00126 1.00341 1 0.997856
0.99922 1 1 0.99922
1.00108 1.00316 1 0.997933
0.999312 1 1 0.999312
1 1 1 1
0.999392 1 1 0.999392
0.999836 1 1 0.999836
0.999851 1 1 0.999851
1.03107 1.03367 1 0.997488
1.02773 1.03056 1 0.997257
1.03196 1.03463 1 0.997417
1.01572 1.01848 1 0.997293
1.02661 1.02949 1 0.997201
1.03165 1.03448 1 0.997258
1.00145 1.00356 1 0.9979
1.01339 1.01596 1 0.997472
1.02381 1.02657 1 0.99731
0.999307 1 1 0.999307
1.0007 1.00266 1 0.998047
1.01081 1.01331 1 0.997527
1 1 1 1
0.999339 1 1 0.999339
0.999475 1.00127 1 0.99821
0.999404 1 1 0.999404
1 1 1 1
1 1 1 1
1.0309 1.03354 0.999977 0.997461
1.03275 1.0362 0.999099 0.997576
1.0332 1.03766 0.998107 0.997592
1.02883 1.03166 1 0.997264
1.03152 1.03438 0.99977 0.997457
1.03486 1.03976 0.997589 0.997689
1.03151 1.03495 0.999164 0.997508
1.02851 1.03127 1 0.99732
1.01596 1.0187 1 0.997312
1.02794 1.03076 1 0.997264
1.01652 1.01929 1 0.997281
1.0014 1.00375 1 0.997661
1.01627 1.01905 1 0.997276
1.00142 1.00364 1 0.99779
0.999168 1 1 0.999168
1.00135 1.0035 1 0.997856
0.999217 1 1 0.999217
1 1 1 1
0.999248 1 1 0.999248
0.999905 1 1 0.999905
0.999847 1 1 0.999847
1.0287 1.03134 1 0.997445
1.02791 1.03069 1 0.997306
1.03091 1.0335 1 0.997492
1.01668 1.01943 1 0.997295
1.02829 1.03113 1 0.997247
1.03155 1.03423 1 0.997413
1.00208 1.00429 1 0.997795
1.01566 1.01838 1 0.997335
1.02651 1.02937 1 0.997223
0.999281 1 1 0.999281
1.00142 1.00354 1 0.997886
1.0135 1.01607 1 0.997471
1 1 1 1
0.999316 1 1 0.999316
1.00053 1.00253 1 0.998004
1 1 1 1
0.999349 1 1 0.999349
1 1 1 1
1.02936 1.03213 1 0.99731
1.03023 1.03292 0.999948 0.99745
1.03337 1.03679 0.999123 0.997584
1.01498 1.01773 1 0.997301
1.0289 1.0317 1 0.997282
1.03063 1.03357 0.999687 0.997466
1.02851 1.03128 1 0.997321
1.01602 1.01876 1 0.997311
1.00091 1.00329 1 0.997627
1.01648 1.01923 1 0.997308
1.0014 1.00371 1 0.997696
0.999105 1 1 0.999105
1.00145 1.00366 1 0.997791
0.999165 1 1 0.999165
1 1 1 1
0.999214 1 1 0.999214
1 1 1 1
0.999828 1 1 0.999828
1.02828 1.03103 1 0.997329
1.02856 1.03118 1 0.997461
1.01625 1.01899 1 0.99731
1.02807 1.03085 1 0.997305
1.03074 1.03333 1 0.997496
1.00194 1.00413 1 0.997819
1.01645 1.01921 1 0.997292
1.02883 1.03168 1 0.997237
0.999234 1 1 0.999234
1.00215 1.00434 1 0.997825
1.01558 1.01825 1 0.997377
1 1 1 1
0.999287 1 1 0.999287
1.00138 1.00352 1 0.997872
1 1 1 1
0.999325 1 1 0.999325
1 1 1 1
1.01494 1.01765 1 0.997337
1.02924 1.03202 1 0.997301
1.02948 1.0322 0.999926 0.997439
1.00007 1.00244 1 0.99763
1.01503 1.01777 1 0.997301
1.02894 1.03172 1 0.9973
1.01607 1.01881 1 0.997311
1.00091 1.00329 1 0.997629
0.999059 1 1 0.999059
1.00142 1.0037 1 0.997731
0.999102 1 1 0.999102
1 1 1 1
0.999162 1 1 0.999162
1 1 1 1
1 1 1 1
1.01559 1.01833 1 0.99731
1.02799 1.03072 1 0.997347
1.02841 1.03101 1 0.997477
1.0013 1.00351 1 0.997798
1.01618 1.01892 1 0.997307
1.02821 1.03099 1 0.997304
0.999184 1 1 0.999184
1.00207 1.00426 1 0.997817
1.01627 1.01903 1 0.997289
1 1 1 1
0.999238 1 1 0.999238
1.00223 1.00438 1 0.997854
1 1 1 1
0.999293 1 1 0.999293
1 1 1 1
0.999777 1.00206 1 0.997721
1.01485 1.0176 1 0.9973
1.02915 1.03194 1 0.997293
0.999059 1 1 0.999059
1.0001 1.00248 1 0.997629
1.01508 1.01782 1 0.997301
1.00091 1.00329 1 0.997631
0.999058 1 1 0.999058
1 1 1 1
0.999098 1 1 0.999098
1 1 1 1
1 1 1 1
1.00037 1.00261 1 0.997765
1.01532 1.01806 1 0.99731
1.02773 1.03045 1 0.997365
0.999271 1 1 0.999271
1.00153 1.00374 1 0.997796
1.01612 1.01886 1 0.997304
1 1 1 1
0.999186 1 1 0.999186
1.00218 1.00437 1 0.997815
1 1 1 1
0.999241 1 1 0.999241
1 1 1 1
0.999059 1 1 0.999059
0.999897 1.00221 1 0.99769
1.01477 1.01755 1 0.997264
1 1 1 1
0.999058 1 1 0.999058
1.00013 1.00251 1 0.997627
0.999057 1 1 0.999057
1 1 1 1
1 1 1 1
0.999224 1 1 0.999224
1.00066 1.0029 1 0.997765
1.01501 1.01775 1 0.99731
1 1 1 1
0.999146 1 1 0.999146
1.00176 1.00397 1 0.997795
1 1 1 1
0.999187 1 1 0.999187
1 1 1 1
0.999749 1 1 0.999749
0.999142 1 1 0.999142
1.00001 1.00235 1 0.997658
1 1 1 1
0.999059 1 1 0.999059
1 1 1 1
0.999766 1 1 0.999766
0.99917 1 1 0.99917
1.00096 1.0032 1 0.997765
0.999886 1 1 0.999886
0.999145 1 1 0.999145
1 1 1 1
1 1 1 1
0.999081 1 1 0.999081
1 1 1 1
0.99988 1 1 0.99988
0.999111 1 1 0.999111
1 1 1 1
1 1 1 1
1 1 1 1

VECTORS lamdaE float
1.00042 1.00013 0.994813
1.0002 1.00048 0.997508
1.00008 1.00034 0.995016
1.00067 0.999948 0.994625
1.00052 0.999948 0.994861
1.00038 1.00033 0.994641
1.0017 1.00047 0.991939
1.00023 1.00039 0.99751
1.00012 1.00021 0.997833
0.999698 1.00077 0.997864
1.00021 1.00041 0.994808
1.00151 1.00124 0.99089
1.00046 1 0.994764
1.00019 0.999996 0.994993
0.999765 1.00057 0.995193
1.00042 0.999927 0.994876
1 1.00066 0.994821
1.00023 1.00002 0.995081
1.00188 1.0003 0.99185
1.00047 1 0.997449
1.00068 1 0.994542
1.00062 0.999891 0.994779
1.00202 1.00001 0.99187
1.00187 1.00012 0.99201
1.00038 1.00034 0.994581
1.0015 1.00101 0.99174
1.00442 1.00028 0.987519
1.00023 1.00033 0.997527
1.00028 1.0001 0.996308
0.999955 1.00058 0.996314
1.00021 1.0002 0.997597
1.0014 1.00138 0.990891
1.00056 0.999844 0.994715
1.00029 1.00036 0.994779
1.00215 1.00015 0.992256
0.999686 0.999741 0.998243
1.00182 1.00085 0.992209
1.00118 1.0017 0.990961
1.0036 1.00163 0.986868
0.999769 0.99859 0.998619
1.00048 1 0.997433
1.00037 1.00001 0.996207
1.00043 0.999991 0.997458
1.00011 1.00004 0.995081
1.0021 1.00001 0.991102
1.00028 0.999965 0.997747
1.0023 1.00009 0.992094
1.00017 0.999866 0.995127
0.999965 1.00008 0.995286
0.99964 1.00103 0.994986
1.00205 1.00012 0.991774
1.00033 1.00003 0.996238
1.00041 1.00001 0.994799
0.999987 1.00073 0.994748
1.00037 0.999876 0.995014
1.00212 0.999978 0.991762
1.00171 1.00078 0.991657
1.00201 1.00002 0.991919
1.0044 1.00031 0.987521
1.00041 1 0.997471
1.0006 1.00003 0.994625
1.00192 1 0.992644
1.00202 1.00005 0.991831
1.00197 0.999986 0.991968
1.0045 0.999988 0.987591
1.00448 1 0.987454
1.00018 0.999957 0.995027
1.00101 1.00178 0.991725
1.00423 1.0007 0.987434
1.0052 1.00016 0.985554
1.00048 1.00012 0.997492
1.0001 1 0.997784
1.00021 1.00042 0.99751
1.00133 1.00148 0.990885
1.0006 0.999974 0.997448
1.00037 1.00032 0.997507
1.00203 1.0001 0.991024
0.999828 0.999775 0.996897
1.00159 1.00092 0.990993
1.00108 1.00178 0.991781
1.00366 1.00153 0.986857
0.999948 0.999094 0.998269
0.999818 1.00069 0.994446
1.00223 0.999984 0.990877
1.00197 1.00037 0.990979
1.00453 1.00021 0.986669
1.00064 1.00178 0.993234
1.00401 1.00094 0.986858
1.00269 1.00318 0.986915
1.00481 1.00134 0.985041
0.999663 0.998108 0.998898
0.999671 0.998493 0.998737
1.00058 0.999993 0.997404
1.00051 1 0.997428
1.00046 0.999994 0.997458
1.00032 1.00001 0.996259
1.00213 0.999994 0.991747
1.00043 0.999974 0.996205
1.00223 1.00011 0.991487
1.00045 0.999992 0.997468
1.002 0.99993 0.991301
1.00224 1.00008 0.992207
1.00452 0.999651 0.987283
1.00227 1.00001 0.992153
1.00459 0.999866 0.986966
1.00044 1.00001 0.994804
1.00014 1.00001 0.99506
0.999605 1.00115 0.994919
1.00011 0.999837 0.995245
1.00223 0.999979 0.991654
1.00214 0.999934 0.991835
1.00192 1.00051 0.991581
1.00439 1.00034 0.987524
1.00045 0.999995 0.997468
1.00033 1.00003 0.994882
1.00205 0.999977 0.991554
1.00212 1.00003 0.991713
1.00004 1.00029 0.996328
1.00129 1.0016 0.991867
1.00209 0.999933 0.99187
1.00452 0.999961 0.987535
1.00422 1.00073 0.98743
1.00448 1.00008 0.987504
1.00519 1.00016 0.985578
1.00199 0.999963 0.991317
1.00195 1.00002 0.991943
1.00445 0.999619 0.987887
1.0045 0.999859 0.987562
1.0045 0.999906 0.987493
1.00523 0.999527 0.986414
0.999836 0.999741 0.998107
1.00522 0.999886 0.985803
1.00053 1.00233 0.991309
1.00364 1.00146 0.986931
1.00516 1.00051 0.985334
1.00522 0.999692 0.985961
0.999938 1.00179 0.992928
1.00034 1.0047 0.989472
1.00058 1 0.997468
1.00032 1.00031 0.997509
1.00205 1.00008 0.991017
0.999923 0.999465 0.998163
1.0008 1.00207 0.991171
1.00155 1.00094 0.991006
1.00373 1.00142 0.986849
0.999835 0.999016 0.998402
0.999784 1.00061 0.994501
1.00224 1.00002 0.991549
1.00196 1.00039 0.991622
1.00452 1.00022 0.98666
1.00037 1.00187 0.992238
1.00403 1.00091 0.986863
1.00273 1.00312 0.986902
1.00483 1.00126 0.985015
1.00006 1.00139 0.993335
0.99979 0.999862 0.995308
1.0004 1.00391 0.990367
1.00459 1.00008 0.98671
1.00435 1.00046 0.986701
1.0052 1.00007 0.985654
1.00168 1.00429 0.987618
1.00493 1.00075 0.985318
1.00431 1.0025 0.984931
1.00511 1.0012 0.984692
0.999664 0.997761 0.999046
0.999624 0.998032 0.998961
0.999604 0.998369 0.998838
0.999852 1.00121 0.993683
0.999731 0.999319 0.998357
1.00062 0.999975 0.997422
1.00052 1 0.997408
1.00213 1.00012 0.990894
1.00204 0.999996 0.991165
1.00044 0.999997 0.997457
1.00042 0.999994 0.997465
1.00199 0.999938 0.991297
1.00217 1.00007 0.991597
1.00451 0.99965 0.987285
1.00217 1.00005 0.990875
1.00457 0.999864 0.986961
1.00197 0.999932 0.991338
1.00449 0.99959 0.987393
1.00455 0.999743 0.987133
1.00523 0.998701 0.987098
1.0046 0.999977 0.986813
1.00523 0.999163 0.986612
1.00043 0.999993 0.997463
1.00006 1.00005 0.99514
1.00207 0.999971 0.990574
1.00223 1.00002 0.991593
0.999576 1.00065 0.997945
1.00166 1.0013 0.992009
1.0022 0.999904 0.991775
1.00453 0.999917 0.98748
1.00447 1.00015 0.987554
1.0042 1.00079 0.987427
1.00517 1.00016 0.985601
1.00197 0.999949 0.991318
1.00207 1.00002 0.991821
1.00448 0.999601 0.987568
1.00452 0.999909 0.987577
0.999903 0.999826 0.998005
1.00077 1.00209 0.991971
1.00355 1.00171 0.987175
1.00451 0.999942 0.987466
1.00522 0.999369 0.986492
1.00511 1.00052 0.985343
1.00521 0.999929 0.985895
1.00522 0.999687 0.985988
1.00001 1.00178 0.992909
1.00044 1.0045 0.98949
1.00445 0.999616 0.987425
1.00448 0.999764 0.987722
1.00523 0.998925 0.987013
1.00522 0.999033 0.98678
1.00523 0.999552 0.98634
1.00523 0.998217 0.987552
1.00018 1.00219 0.992086
1.00521 0.999055 0.986628
1.00245 1.00327 0.987167
1.00495 1.00099 0.985025
1.00522 1.00047 0.985339
1.00517 0.998625 0.987214
1.0008 1.00481 0.988613
1.00026 1.00395 0.990367
1.00122 1.00472 0.98815
1.00214 1 0.990951
0.999717 0.998912 0.99854
0.999763 1.0005 0.994556
1.00183 1.00043 0.991031
1.00452 1.00022 0.986651
1.00027 1.00198 0.992154
1.00275 1.00306 0.986889
1.00404 1.00088 0.986867
1.00483 1.00117 0.984989
1 1.00136 0.993365
0.999799 0.999729 0.99535
1.00022 1.00401 0.990358
1.00458 1.0001 0.986696
1.00437 1.00046 0.986698
1.00521 1.00008 0.985635
1.00162 1.00435 0.987638
1.00498 1.00077 0.985298
1.00426 1.00245 0.984924
1.00513 1.00109 0.984675
0.999888 0.999175 0.99578
1.00101 1.00425 0.988843
1.00014 1.0028 0.991787
1.00071 1.00479 0.988969
1.00522 0.999763 0.985957
1.00513 1.00039 0.985423
1.0052 0.999342 0.986375
1.00299 1.00388 0.985945
1.00519 1.00038 0.985441
1.0048 1.00194 0.984449
1.00526 1.00087 0.984654
1.00028 1.00059 0.993728
1.00013 0.998476 0.996039
0.999725 0.997512 0.999098
0.999652 0.997717 0.999065
0.999597 0.997961 0.999007
0.99986 1.00054 0.994372
0.999682 0.998878 0.998562
0.99989 1.00126 0.993655
0.999811 0.99938 0.998269
1.00217 1.00008 0.990871
1.0021 1.00006 0.991009
1.00457 0.999864 0.986956
1.0045 0.999651 0.987286
1.00201 0.999949 0.991297
1.00046 0.999992 0.997461
1.00199 0.999933 0.991339
1.00448 0.999597 0.987394
1.00455 0.999748 0.987131
1.00522 0.99871 0.987096
1.00459 0.999986 0.9868
1.00523 0.999166 0.986598
1.00446 0.999595 0.987433
1.00523 0.998585 0.987215
1.00523 0.998905 0.986889
1.00522 0.996931 0.988928
1.00524 0.999448 0.986287
1.00521 0.997744 0.988077
1.00199 0.999938 0.991322
1.00219 0.999997 0.991698
1.0045 0.999569 0.987251
1.00454 0.999951 0.987592
0.999995 0.999936 0.997889
1.00102 1.00194 0.992492
1.00356 1.00189 0.987416
1.00452 0.999966 0.987439
1.00522 0.999206 0.98657
1.00521 0.999974 0.985986
1.00507 1.00053 0.985352
1.00522 0.99968 0.986016
1.00008 1.00176 0.992888
1.00053 1.00438 0.989506
1.00446 0.999546 0.987409
1.0045 0.999747 0.987705
1.00523 0.998783 0.987182
1.00522 0.999198 0.986672
1.00027 1.00215 0.992074
1.00253 1.00323 0.987173
1.00491 1.00104 0.98508
1.00523 0.999653 0.986252
1.00522 0.998 0.9878
1.00522 1.00043 0.985378
1.00522 0.999049 0.986646
1.00518 0.998572 0.987202
1.00089 1.00463 0.98861
1.00107 1.00464 0.988171
1.00031 1.00389 0.990369
1.00522 0.998774 0.987173
1.00523 0.998887 0.987091
1.00524 0.997157 0.988614
1.0052 0.997686 0.988109
1.00522 0.998304 0.987362
1.00517 0.996476 0.989267
1.00149 1.00438 0.987833
1.00518 0.99761 0.98801
1.00409 1.00241 0.985275
1.00519 1.00121 0.984446
1.00518 0.999873 0.985923
1.00513 0.997667 0.988156
1.0002 1.00316 0.991287
1.00173 1.00411 0.987647
1.00058 1.00506 0.988593
1.00208 1.0038 0.987747
1.00457 1.00011 0.986682
0.999809 0.999622 0.995391
0.999921 1.00136 0.993394
1.00008 1.00416 0.990351
1.00438 1.00044 0.986694
1.00522 1.00009 0.985617
1.00154 1.00442 0.98766
1.00425 1.00245 0.984915
1.00505 1.00079 0.985277
1.00514 1.00098 0.984656
0.999906 0.99909 0.995805
1.00088 1.00444 0.988857
1.00009 1.00281 0.991811
1.00057 1.0049 0.988934
1.00523 0.999773 0.985942
1.00516 1.00038 0.985401
1.0052 0.999341 0.986365
1.00294 1.00379 0.985972
1.0052 1.00044 0.985394
1.00489 1.00174 0.984459
1.00527 1.00088 0.984684
1.00004 0.998696 0.99597
1.00025 1.00163 0.992758
1.00164 1.00443 0.98769
1.00031 1.00455 0.990042
1.00133 1.00408 0.988647
1.0052 0.998827 0.986917
1.0052 0.999841 0.985841
1.00515 0.998452 0.987226
1.00383 1.00268 0.985454
1.00519 1 0.98577
1.00464 1.00183 0.984364
1.0003 1.00066 0.993617
1.00029 1.00198 0.992358
1.00021 1.00063 0.993817
1.00026 1.0006 0.993725
1.00015 0.998299 0.996686
1.00012 0.998458 0.996344
0.999884 0.99732 0.997925
0.999731 0.997475 0.9991
0.999646 0.997667 0.999081
0.999832 0.999914 0.995066
0.999673 0.998446 0.998767
0.999867 1.00061 0.99435
0.999743 0.99896 0.998493
0.999943 1.00127 0.993626
0.999878 0.999445 0.99818
1.00459 0.999992 0.986786
1.00454 0.999752 0.987128
1.00523 0.999183 0.986584
1.00522 0.998719 0.987094
1.00447 0.999604 0.987395
1.00197 0.999932 0.991337
1.00446 0.999594 0.987435
1.00523 0.998589 0.987215
1.00522 0.998921 0.986879
1.00521 0.996762 0.989082
1.00524 0.999458 0.986275
1.00521 0.997758 0.988058
1.00523 0.998568 0.987236
1.00524 0.99647 0.989376
1.0052 0.997237 0.988618
1.00514 0.99547 0.990407
1.00521 0.998308 0.987479
1.0052 0.996038 0.989551
1.00447 0.999479 0.987394
1.00452 0.999743 0.987687
1.00523 0.998656 0.98735
1.00522 0.999365 0.986565
1.00039 1.00211 0.992063
1.00247 1.00324 0.987182
1.00487 1.00111 0.985136
1.00523 0.999755 0.986163
1.00522 0.997783 0.988046
1.00522 0.999043 0.986665
1.00523 1.00039 0.985417
1.00518 0.99852 0.98719
1.001 1.00444 0.988604
1.00103 1.0046 0.988192
1.00035 1.00377 0.990373
1.00522 0.998709 0.987182
1.00523 0.998888 0.987083
1.00524 0.996899 0.988913
1.0052 0.997796 0.987999
1.00152 1.00434 0.987808
1.00412 1.00239 0.985279
1.00517 1.00129 0.984457
1.00522 0.998522 0.98715
1.00518 0.996263 0.989471
1.00518 0.999865 0.985853
1.00517 0.99763 0.988018
1.00514 0.997539 0.988278
1.00187 1.00406 0.98763
1.002 1.00384 0.987717
1.00024 1.00308 0.991279
1.00048 1.005 0.9887
1.00525 0.99677 0.989052
1.00521 0.997392 0.988487
1.00518 0.995606 0.990171
1.00518 0.99565 0.990004
1.00517 0.996802 0.988838
1.00517 0.995644 0.990105
1.00294 1.00336 0.986373
1.00514 0.996222 0.989244
1.00487 1.00216 0.984232
1.00516 1.00128 0.984413
1.00516 0.999347 0.986227
1.00516 0.997325 0.988438
1.00014 1.00227 0.992206
1.00023 1.00484 0.989413
1.00266 1.00332 0.98691
1.00085 1.00504 0.98831
1.00245 1.00306 0.987915
0.999918 0.999016 0.995829
1.00523 0.999781 0.985926
1.00004 1.00279 0.991836
1.00072 1.00465 0.988869
1.00044 1.00497 0.988898
1.00518 1.00038 0.98538
1.00519 0.999341 0.986355
1.00302 1.00354 0.986
1.00502 1.00157 0.984471
1.00521 1.00049 0.985349
1.00528 1.0009 0.984714
1.00005 0.998671 0.995984
1.00021 1.00165 0.992788
1.00165 1.00435 0.987706
1.00014 1.00451 0.990029
1.00114 1.00403 0.988671
1.0052 0.99882 0.986905
1.0052 0.999836 0.985824
1.00515 0.998424 0.987198
1.00387 1.00264 0.98548
1.00521 1.00003 0.985634
1.00493 1.00177 0.984342
1.00031 1.00095 0.993347
1.00023 1.00334 0.991273
1.00253 1.00305 0.987489
1.00046 1.00496 0.989452
1.00169 1.00287 0.989208
1.00516 0.997746 0.987947
1.00515 0.999137 0.98648
1.00514 0.997713 0.987591
1.00364 1.0019 0.986187
1.00497 1.00095 0.984816
1.00031 1.00065 0.993614
1.00029 1.00192 0.992316
1.00021 1.00207 0.992316
1.00033 1.00258 0.991843
1.00022 1.00208 0.99238
1.00013 1.0007 0.99386
1.0002 1.00062 0.993817
1.00015 0.998255 0.996717
1.00026 1.00062 0.993722
1.00015 0.998328 0.99669
0.999976 0.997099 0.997956
1.00011 0.998457 0.996644
0.999844 0.997282 0.99852
0.99974 0.997419 0.999104
0.999876 0.999227 0.995684
0.999832 0.999977 0.995037
0.999656 0.998004 0.998955
0.999712 0.998529 0.998689
0.999872 1.00069 0.994328
0.999809 0.999013 0.998416
1.00523 0.999466 0.986263
1.00522 0.998922 0.986869
1.00522 0.997766 0.988039
1.00521 0.996589 0.989235
1.00522 0.998593 0.987214
1.00446 0.999595 0.987435
1.00523 0.99857 0.987236
1.00525 0.996454 0.989385
1.0052 0.997243 0.988607
1.00515 0.99531 0.99054
1.00521 0.998301 0.987458
1.00519 0.99597 0.989658
1.00525 0.996462 0.98938
1.00516 0.995314 0.990557
1.00517 0.995373 0.990351
1.00515 0.994955 0.990865
1.00518 0.996917 0.98878
1.00518 0.995253 0.990311
1.00522 0.998639 0.987192
1.00523 0.998896 0.987075
1.00524 0.99663 0.989211
1.0052 0.997901 0.987889
1.00158 1.00432 0.987784
1.00417 1.00236 0.985283
1.00512 1.00131 0.984468
1.00522 0.998742 0.986938
1.00519 0.996056 0.989676
1.00517 0.997648 0.988027
1.00518 0.999867 0.985784
1.00514 0.997411 0.988401
1.00183 1.00411 0.987613
1.00175 1.00389 0.987686
1.0003 1.00304 0.99127
1.00039 1.00495 0.988807
1.00525 0.996778 0.989048
1.00521 0.997494 0.988353
1.00518 0.995403 0.990406
1.00519 0.995695 0.989941
1.00279 1.00369 0.986341
1.00473 1.00212 0.98429
1.00516 1.00126 0.984376
1.00516 0.997014 0.98863
1.00515 0.995419 0.990273
1.00515 0.999398 0.986198
1.00516 0.996242 0.989241
1.00515 0.997041 0.988607
1.00279 1.00318 0.986893
1.00237 1.00299 0.988008
1.00085 1.00505 0.988286
1.00015 1.00228 0.992141
1.00014 1.00475 0.98954
1.00518 0.995159 0.990745
1.00516 0.995398 0.990442
1.00519 0.995039 0.990494
1.00516 0.995556 0.989956
1.0038 1.00303 0.985392
1.00518 0.995783 0.989825
1.00509 1.00221 0.983592
1.00507 1.00121 0.984486
1.00512 0.999066 0.986397
1.00003 1.00142 0.993042
1.00006 1.00423 0.990487
1.00052 1.00504 0.989039
1.00316 1.00261 0.986923
1.00111 1.0048 0.987807
1.00273 1.00211 0.987756
1.00005 0.998655 0.995999
1.00017 1.00166 0.992817
1.0052 0.998813 0.986894
0.999954 1.0045 0.990017
1.00152 1.00444 0.987723
1.00096 1.00398 0.988695
1.00521 0.999832 0.985807
1.00514 0.998397 0.98717
1.00387 1.00259 0.985504
1.00516 1.00175 0.984317
1.00522 1.00005 0.985499
1.00029 1.00094 0.993356
1.00009 1.00339 0.991288
1.00256 1.00309 0.987399
1.00026 1.00499 0.989422
1.00159 1.00264 0.989341
1.00516 0.997742 0.987925
1.00515 0.999145 0.986452
1.00514 0.997752 0.987634
1.0038 1.00186 0.985995
1.00498 1.00103 0.984863
1.00026 1.00234 0.992109
0.99977 1.00453 0.990412
1.00316 1.00123 0.988164
1.00043 1.0044 0.989642
1.00229 1.00121 0.989487
1.00514 0.996354 0.989066
1.00513 0.999225 0.986312
1.00512 0.99763 0.987592
1.00413 1.00136 0.985956
1.00479 1.00084 0.98511
1.00031 1.00064 0.993611
1.00029 1.00194 0.99234
1.00011 1.00256 0.991958
1.00014 1.00213 0.992274
1.00017 1.00215 0.992373
1.00019 1.00269 0.991808
1.00012 1.00283 0.991855
1.0001 1.00297 0.991532
1.00012 1.00225 0.992387
1.00007 1.00084 0.993834
1.00013 1.0007 0.993859
1.00014 0.998275 0.996731
1.00019 1.00061 0.993818
1.00016 0.99828 0.996719
1.00003 0.99698 0.99797
1.00016 0.998342 0.996696
0.999965 0.99707 0.997963
0.999801 0.997238 0.999129
0.999928 0.998708 0.996127
0.999863 0.999317 0.995645
0.999676 0.997664 0.999077
0.999831 1.00006 0.995008
0.999688 0.998113 0.998896
0.999761 0.998602 0.998621
1.00522 0.998294 0.987436
1.0052 0.997254 0.988596
1.00518 0.995911 0.989765
1.00516 0.995162 0.990674
1.00525 0.996439 0.989394
1.00523 0.998571 0.987237
1.00525 0.996588 0.989247
1.00516 0.995343 0.990577
1.00518 0.995378 0.990383
1.00515 0.994952 0.990851
1.00518 0.996938 0.988775
1.00518 0.995141 0.990412
1.00517 0.995107 0.990822
1.00512 0.994975 0.990936
1.0052 0.994944 0.990686
1.00518 0.995467 0.990069
1.00525 0.996786 0.989044
1.00521 0.997592 0.988219
1.00518 0.995206 0.990639
1.0052 0.995752 0.989878
1.00277 1.00388 0.98631
1.00465 1.00209 0.984351
1.00516 1.00128 0.984339
1.00516 0.99722 0.988421
1.00514 0.995171 0.99044
1.00517 0.996263 0.989237
1.00513 0.999439 0.986169
1.00515 0.996762 0.988775
1.0029 1.00309 0.986877
1.00236 1.00268 0.988099
1.0008 1.00508 0.988261
1.00017 1.00224 0.992078
1.00012 1.00464 0.989668
1.00519 0.995135 0.990734
1.00516 0.995459 0.990353
1.00519 0.995083 0.99047
1.00365 1.00317 0.985383
1.00489 1.00224 0.983684
1.00506 1.00114 0.984476
1.00516 0.995579 0.989938
1.00514 0.99881 0.986725
1.00516 0.995773 0.98968
1.00006 1.00127 0.993177
1.00333 1.00236 0.986845
1.00246 1.00179 0.988497
1.00129 1.00494 0.987741
1.00053 1.00502 0.989141
1.00007 1.00419 0.990417
1.00516 0.994936 0.990886
1.00517 0.995028 0.99065
1.00517 0.994934 0.990492
1.00514 0.995095 0.990448
1.00438 1.00249 0.984979
1.0051 0.996956 0.988506
1.00499 1.00277 0.983002
1.00498 1.00142 0.984275
1.00013 1.00035 0.994001
1.00005 1.00307 0.991677
1.00028 1.00479 0.989699
1.001 1.00504 0.988124
1.00344 1.00223 0.986274
1.00243 1.00365 0.986968
1.00026 1.00092 0.993365
0.999976 1.0034 0.991303
1.00517 0.997737 0.987903
1.00004 1.00504 0.989393
1.00261 1.00311 0.987308
1.00128 1.00255 0.989478
1.00515 0.999152 0.986425
1.00513 0.997795 0.987675
1.00393 1.00185 0.985801
1.00505 1.0011 0.98491
1.0002 1.00237 0.992124
0.999866 1.00464 0.990297
1.0033 1.00124 0.988071
1.00021 1.00461 0.98968
1.00216 1.00092 0.989884
1.00515 0.996299 0.989246
1.00513 0.999188 0.986423
1.00512 0.997763 0.987564
1.00414 1.00154 0.98586
1.00486 1.00091 0.984955
0.999847 1.00313 0.991636
0.999745 1.00504 0.989676
1.00358 1.00024 0.988154
1.00123 1.00256 0.989189
1.0052 0.995214 0.990017
1.0051 0.996748 0.988995
1.00499 0.999754 0.985813
1.00442 1.00087 0.985373
1.00031 1.00192 0.992364
1.00014 1.00256 0.991964
0.999816 1.00301 0.992271
1.00011 1.00224 0.992366
1.00004 1.00279 0.991774
1.00009 1.00228 0.992378
1.00003 1.0028 0.991942
1.00014 1.00296 0.991559
0.999991 1.00235 0.992523
1.00006 1.00331 0.991386
1.00011 1.00324 0.991263
1.00009 1.00238 0.992291
1.00001 1.00099 0.993744
1.00006 1.00082 0.993831
1.00011 0.998324 0.996736
1.00012 1.00069 0.993859
1.00014 0.998307 0.99673
1.00006 0.99693 0.997974
1.00016 0.998308 0.996723
1.00002 0.996951 0.997976
0.999949 0.99705 0.997965
1.00003 0.998273 0.996409
0.999936 0.998752 0.996091
0.999731 0.997324 0.999157
0.999849 0.999408 0.995604
0.999692 0.997715 0.999045
0.999726 0.998197 0.998815
1.00518 0.996956 0.98877
1.00518 0.99537 0.990416
1.00518 0.995015 0.990513
1.00515 0.994947 0.990838
1.00515 0.995372 0.990597
1.00525 0.996718 0.989114
1.00517 0.995237 0.990681
1.00513 0.994975 0.990943
1.00519 0.994968 0.99067
1.00519 0.995377 0.99016
1.00513 0.994969 0.990978
1.00518 0.99494 0.990779
1.00521 0.994937 0.99054
1.00519 0.995112 0.990723
1.00516 0.995511 0.990264
1.00518 0.99513 0.990446
1.00349 1.0033 0.985373
1.00479 1.00226 0.98377
1.00509 1.00106 0.984465
1.00516 0.995614 0.98992
1.00514 0.995735 0.989535
1.00514 0.998544 0.987055
1.00346 1.00218 0.986764
1.00217 1.00166 0.989235
1.00154 1.00505 0.987677
1.00008 1.00116 0.993312
1.00037 1.00502 0.989242
1.00007 1.00417 0.990348
1.00516 0.994939 0.990907
1.00517 0.994972 0.990665
1.00517 0.994974 0.99051
1.00414 1.00272 0.984953
1.00489 1.00276 0.983002
1.00499 1.00121 0.984604
1.00515 0.995055 0.990399
1.00509 0.996917 0.988438
1.00012 1.00031 0.994169
1.00006 1.00305 0.991678
1.00316 1.00206 0.986716
1.00227 1.00371 0.987518
1.0009 1.00504 0.988351
1.00023 1.00483 0.989672
1.00516 0.994931 0.990842
1.00519 0.994922 0.990514
1.00514 0.994916 0.990584
1.00507 0.995058 0.990249
1.00465 1.00307 0.983085
1.00479 1.00031 0.985689
1.00488 1.00321 0.982907
1.00022 0.999859 0.99456
1.00024 1.00097 0.993469
1.00009 1.00176 0.992768
1.00004 1.00414 0.990566
1.00042 1.00493 0.988996
1.00073 1.00461 0.988313
1.00305 1.00188 0.986855
1.00232 1.00385 0.988212
1.00013 1.00243 0.992139
0.999963 1.00474 0.990181
1.00516 0.996236 0.989426
1.00026 1.00465 0.989715
1.00345 1.00128 0.98798
1.002 1.0007 0.990277
1.00512 0.999133 0.986535
1.00512 0.997877 0.987539
1.00412 1.00169 0.985768
1.00491 1.00095 0.984801
0.999895 1.00323 0.991513
0.99988 1.00504 0.989729
1.0037 1.00028 0.98822
1.00153 1.0027 0.989301
1.00519 0.995157 0.990126
1.0051 0.996752 0.988818
1.005 0.9997 0.985845
1.00471 1.0009 0.985207
0.999694 1.00386 0.991211
1.00525 0.994895 0.990299
1.00098 1.00471 0.98893
1.00366 1.00069 0.987625
1.00515 0.995672 0.990069
1.00508 0.998391 0.986121
1.00491 1.00146 0.984654
1.00014 1.00261 0.991971
0.999776 1.00297 0.992228
0.999466 1.00283 0.993077
1.00009 1.00226 0.992369
1.00015 1.00296 0.991586
0.999767 1.00295 0.992028
1.00007 1.00239 0.992277
1.00005 1.00327 0.991295
0.999732 1.0025 0.992636
1.00015 1.00321 0.99139
0.999968 1.00183 0.993361
0.99987 1.00295 0.99207
1.00012 1.00391 0.990694
1.00029 1.00336 0.990938
1.00009 1.00261 0.992058
0.999971 1.00118 0.993631
0.999996 1.00104 0.993736
1.00007 0.998441 0.996705
1.00005 1.00085 0.993828
1.00011 0.998371 0.996731
1.00005 0.996913 0.997986
1.00015 0.99834 0.996732
1.00006 0.996901 0.997978
1.00002 0.996924 0.997978
1.0002 0.999881 0.994597
1.00009 0.998028 0.996553
1.00003 0.998309 0.996391
0.999821 0.997035 0.999206
0.999938 0.998807 0.996054
0.999739 0.99741 0.999136
0.999714 0.997798 0.999014
1.00519 0.995288 0.990249
1.00517 0.994999 0.990653
1.00514 0.994975 0.99095
1.00516 0.995363 0.990541
1.00513 0.994965 0.990977
1.00518 0.994945 0.990795
1.00521 0.994937 0.9905
1.00517 0.994957 0.990842
1.00523 0.994935 0.990598
1.00528 0.994926 0.990934
1.00515 0.994943 0.990927
1.00517 0.994922 0.99068
1.00517 0.995002 0.990529
1.00383 1.00292 0.98493
1.00497 1.0028 0.98301
1.00495 1.00101 0.984931
1.00515 0.995015 0.990349
1.00509 0.996916 0.988371
1.00291 1.00196 0.987165
1.00219 1.00376 0.988068
1.00066 1.00506 0.988578
1.0001 1.00023 0.994336
1.00012 1.00301 0.991681
1.00022 1.00488 0.989643
1.00516 0.994932 0.99082
1.0002 0.999882 0.994554
1.00019 1.00103 0.99339
1.00518 0.994914 0.990531
1.00513 0.994913 0.990582
1.00443 1.00323 0.983399
1.00486 1.00305 0.983039
1.00483 1.00011 0.985619
1.00507 0.995213 0.990184
1.00008 1.00177 0.992954
1.00011 1.0041 0.990539
1.00334 1.00248 0.986466
1.00167 1.00376 0.988669
1.0008 1.00463 0.988517
1.00037 1.00499 0.989094
1.00522 0.994931 0.990556
1.00518 0.994831 0.990547
1.0051 0.994906 0.990288
1.0047 0.99577 0.989963
1.00398 1.00369 0.983764
1.00428 1.00357 0.983793
1.0001 1.00129 0.993177
1.0002 1.00103 0.993445
1.00046 1.00139 0.992819
1.0002 1.00292 0.991402
1.00007 1.00478 0.990015
1.00136 1.00433 0.988316
1 1.00496 0.988912
1.00238 1.00127 0.988428
0.999939 1.00333 0.991391
1.00009 1.00503 0.989785
1.00518 0.995106 0.990236
1.0051 0.996785 0.988641
1.00183 1.00283 0.989414
1.00383 1.00027 0.988284
1.00501 0.999672 0.985875
1.00503 1.00095 0.98504
0.999824 1.00384 0.991159
1.00525 0.9949 0.990427
1.00078 1.00465 0.988975
1.00385 1.00074 0.987274
1.00516 0.995531 0.990065
1.00508 0.998526 0.986401
1.00486 1.00143 0.984672
0.999923 1.00469 0.990524
1.00454 0.995013 0.991529
1.00238 1.00303 0.988322
1.00425 1.00154 0.98605
1.00485 0.996617 0.989332
1.00373 1.00138 0.985673
0.998515 0.997568 0.990038
0.999689 1.00299 0.992185
0.999265 1.00299 0.993055
0.999644 1.00283 0.993109
1.00003 1.00244 0.992262
1.00004 1.00331 0.991327
1.00031 1.00306 0.991395
0.999582 1.00251 0.992749
1.00007 1.00261 0.992061
1.00023 1.00343 0.990933
0.999924 1.00182 0.99327
1.0001 1.00393 0.990704
1.00001 1.00287 0.991948
0.999881 1.00226 0.992948
1.00031 1.00409 0.990283
1.00017 1.00412 0.990477
1.00038 1.00357 0.990583
1.00012 1.00276 0.991722
1.00024 1.00327 0.991301
1.00012 1.0028 0.991609
0.999971 1.00119 0.993599
0.999975 1.00117 0.993624
1.00005 0.998548 0.99609
1 1.00102 0.993727
1.00007 0.998492 0.996399
1.00002 0.996945 0.999134
1.00011 0.998414 0.996727
1.00006 0.996876 0.99799
1.00006 0.996873 0.997978
1.00014 0.999876 0.994662
1.00021 0.999824 0.994608
1.0001 0.997915 0.996662
1.00008 0.998034 0.996811
0.999893 0.996856 0.999237
1.00002 0.998345 0.996372
0.999811 0.997107 0.999194
0.999747 0.997452 0.999115
1.0052 0.994937 0.990459
1.00517 0.994948 0.99081
1.00514 0.99496 0.990976
1.00517 0.994957 0.990844
1.00523 0.994936 0.990602
1.00528 0.994927 0.990553
1.00528 0.99494 0.990556
1.00109 0.99486 0.985876
1.00447 0.994873 0.992999
1.00003 1.00132 0.993415
1.00517 0.994934 0.990798
1.00518 0.99491 0.990549
1.00513 0.994908 0.99058
1.00415 1.00329 0.983705
1.0049 1.00297 0.983171
1.00488 0.999971 0.985553
1.00507 0.995372 0.990116
1.00382 1.00261 0.986079
1.00096 1.00366 0.989131
1.00094 1.00466 0.988721
1.00017 0.999934 0.994549
1.00038 1.00503 0.989193
1.00005 1.00176 0.993138
1.00022 1.00403 0.990511
1.00018 1.001 0.99331
1.00522 0.994922 0.990557
1.00011 1.00125 0.993277
1.00017 1.00109 0.993441
1.00041 1.00141 0.992791
1.00518 0.994855 0.990525
1.00511 0.994899 0.99032
1.00415 1.00362 0.983801
1.00428 1.00282 0.9844
1.00463 0.996282 0.989851
1.00005 1.00301 0.991555
1.00021 1.00468 0.989843
1.00233 1.00223 0.988155
1.00051 1.00478 0.988936
1.00121 1.0042 0.988451
1.00522 0.995003 0.990632
1.00513 0.994802 0.990671
1.00507 0.9954 0.989873
1.00443 0.998175 0.9891
1.00205 1.00368 0.987561
1.00008 1.00225 0.992253
1.00046 1.00156 0.992321
1.00013 1.00218 0.992155
0.999937 1.0044 0.991008
1.00014 1.0047 0.98967
1.00034 1.00456 0.989091
1.0009 1.0031 0.989301
1.00003 1.00376 0.991104
1.00048 1.0046 0.989018
1.00526 0.994892 0.990548
1.00517 0.995417 0.990059
1.00507 0.998698 0.986681
1.00405 1.00074 0.986922
1.00482 1.00133 0.984693
1.00006 1.00454 0.990623
1.00452 0.995097 0.991641
1.00224 1.00298 0.988217
1.00413 1.00161 0.985881
1.00499 0.996037 0.989597
1.00395 1.00154 0.985686
0.99852 0.997757 0.98782
1.00022 1.00434 0.990284
1.00254 0.998388 0.991593
1.00224 1.00221 0.988559
1.0025 1.00166 0.987706
1.00358 0.997581 0.98963
1.00004 0.994975 0.951853
0.997004 0.994872 0.970577
0.99631 1.00149 0.989257
0.999795 0.996032 0.8905
0.9947 0.995539 0.862764
0.99909 1.00315 0.993034
0.999163 1.00313 0.993269
0.999564 1.00309 0.992834
1.00005 1.00262 0.992064
1.0003 1.00331 0.990927
1.00008 1.00397 0.990715
1.00015 1.00279 0.991824
0.999837 1.00181 0.99318
1.00021 1.00407 0.990437
1.00012 1.00274 0.991792
1.00037 1.00355 0.990607
0.999927 1.0021 0.992823
1.00019 1.00409 0.990449
1.00023 1.00433 0.990481
0.999647 1.00407 0.991128
1.00023 1.00419 0.990266
1.00035 1.00348 0.990646
1.00017 1.00273 0.991623
1.00033 1.00355 0.990768
1.00014 1.0035 0.991175
1.00008 1.00322 0.991454
1.00021 1.00331 0.991227
1.00021 1.00246 0.992
1.00015 1.0028 0.991598
1.00003 1.00112 0.993598
0.999981 1.00119 0.993598
1.00004 0.998608 0.996073
0.999964 1.0012 0.993619
1.00005 0.998565 0.996087
1.00001 0.996938 0.999137
1.00007 0.99855 0.996094
1.00004 0.996939 0.998547
1.00007 0.996841 0.997993
1.00006 0.999905 0.994759
1.00015 0.999866 0.994666
1.00011 0.997822 0.996753
1.00022 0.999778 0.994619
1.0001 0.997869 0.99692
0.999941 0.996688 0.999269
1.00008 0.998073 0.996528
0.999882 0.996931 0.999222
0.999808 0.997175 0.999182
1.00522 0.994936 0.990606
1.00517 0.994958 0.990846
1.00529 0.994929 0.990176
1.00083 0.994951 0.986004
1.00527 0.994937 0.990555
1.00434 0.995221 0.992593
1.00506 0.996208 0.991141
0.996539 0.994899 0.969688
1.00047 0.996843 0.987931
1.00005 1.00133 0.993385
1.00009 1.00127 0.993405
1.00002 1.00232 0.992429
0.999977 1.00223 0.992588
1.00522 0.994919 0.990558
1.00518 0.994876 0.990504
1.00512 0.994895 0.990351
1.00471 1.00345 0.983833
1.00416 1.00171 0.984999
1.00456 0.996804 0.989734
1.002 1.00349 0.987883
1.00117 1.00458 0.988959
1.00105 1.00398 0.988586
1.00012 1.0012 0.993437
1.00026 1.00465 0.98967
1.00006 1.00305 0.99171
1.00012 1.00125 0.993378
1.00029 1.00147 0.992758
1.00523 0.994974 0.990636
1.00013 1.00225 0.992325
1.00045 1.00156 0.992507
0.999836 1.00213 0.992724
1.00514 0.994812 0.990571
1.00495 0.995423 0.989893
1.00268 1.00292 0.987472
1.00407 0.997885 0.989552
1.00005 1.00416 0.990813
1.0003 1.00485 0.98921
1.00106 1.00381 0.98918
1.00104 1.00431 0.98893
1.00453 0.994976 0.991552
1.00507 0.995458 0.990439
1.00501 0.996035 0.989686
1.00204 0.99952 0.991695
0.999815 1.00329 0.991725
1.00026 1.00266 0.991561
0.999191 1.0047 0.991338
0.999496 1.00483 0.990088
0.999994 0.994917 0.942808
1.00013 1.00442 0.990723
1.00197 1.00309 0.98811
1.00449 0.994999 0.991759
1.00508 0.995593 0.98986
1.00409 1.00159 0.985688
1.00397 1.0018 0.985705
0.998616 0.997666 0.985535
1.00009 1.00451 0.990469
1.00259 0.997912 0.991627
1.00222 1.00229 0.988575
1.00308 1.0012 0.987669
1.00385 0.997607 0.989569
1.00102 0.995073 0.94141
0.996906 0.994898 0.966217
0.996388 1.00208 0.989098
0.999782 0.995439 0.894235
0.994731 0.995558 0.851577
0.999902 1.00388 0.991384
0.999816 0.994856 0.901214
0.994694 0.995383 0.861819
1.00141 1.00003 0.991363
1.00112 1.0021 0.990288
1.00186 1.00066 0.989992
0.996198 1.0024 0.989569
1.00074 0.9964 0.947798
0.994911 0.995663 0.963819
0.997433 0.998425 0.900954
0.994799 0.99566 0.856518
0.998824 1.00338 0.993427
0.999387 1.00318 0.992734
0.999447 1.00337 0.992911
1.00015 1.00268 0.991862
1.00038 1.00356 0.990632
0.999978 1.0043 0.990397
1.00007 1.00408 0.990616
1.00003 1.00192 0.992697
1.00017 1.00273 0.991629
1.00004 1.00447 0.990417
1.00024 1.00419 0.990243
1.00041 1.00341 0.990697
0.999638 1.00404 0.991226
0.999791 1.00462 0.990943
0.99884 1.0049 0.991541
1.00043 1.00385 0.990262
1.00039 1.00352 0.990686
1.00035 1.00354 0.99075
1.00009 1.00349 0.991255
1.0004 1.00366 0.99053
0.999979 1.00353 0.991338
0.999622 1.00348 0.991523
0.999705 1.00449 0.990722
0.999923 1.00352 0.991395
1.00013 1.00317 0.991454
1.00014 1.00237 0.992203
1.00019 1.00332 0.991153
1.00022 1.00247 0.991928
1.00011 1.00104 0.993563
1.00018 1.0028 0.991586
1.00001 1.00113 0.993602
1.00008 0.998543 0.996662
0.999967 1.00122 0.993598
1.00005 0.998569 0.996375
1.00005 0.996952 0.99795
1.00004 0.998577 0.996085
1.00001 0.996951 0.999137
1.00006 0.996947 0.997958
1.00009 1.00141 0.993215
1 0.999959 0.994795
1.00007 0.999891 0.994762
1.0001 0.997797 0.996787
1.00016 0.999837 0.994669
1.00012 0.997781 0.996756
0.99998 0.996588 0.999285
1.00009 0.997867 0.997153
0.999958 0.996779 0.998749
0.999926 0.996984 0.998178
1.00048 0.995221 0.986151
1.00525 0.994944 0.990555
1.00412 0.99596 0.99218
0.996665 0.994873 0.970813
1.00042 0.996531 0.98824
1.00509 0.995795 0.991005
1.00306 0.997331 0.988174
0.996495 0.996822 0.973665
1.00002 0.995307 0.948906
0.999486 0.997511 0.904441
0.994659 0.995808 0.860824
0.999927 1.00229 0.992484
1.00008 1.00131 0.99338
1.00016 1.00119 0.993395
1.00002 1.00232 0.99243
0.999736 1.00329 0.991934
1.00025 1.00242 0.991887
1.00003 1.00274 0.992178
0.999995 1.00229 0.992473
1.00524 0.994887 0.990636
1.00515 0.99482 0.99047
1.00484 0.995308 0.989915
1.00286 1.00248 0.98739
1.00376 0.997789 0.990011
1.00123 1.0045 0.989053
1.00167 1.00415 0.98877
1.0006 1.00501 0.988754
1.00033 1.00155 0.992695
1.00005 1.0042 0.990617
1.00019 1.00227 0.992399
0.999702 1.00206 0.99329
1.00457 0.994873 0.991701
0.999811 1.00333 0.991778
1.00022 1.0028 0.99174
1.00498 0.995253 0.990401
1.00482 0.995597 0.989829
1.00199 0.999491 0.99131
0.99965 1.00498 0.990712
1.00022 1.00452 0.990172
1.00329 0.995336 0.991943
1.00448 0.996675 0.990578
1.00468 0.995073 0.99106
1.00137 0.999298 0.992654
0.999941 1.00444 0.990429
0.999517 1.0042 0.991264
0.999444 1.00513 0.990943
0.999839 0.994845 0.902726
1.00043 0.994923 0.95322
1.00003 1.00459 0.990656
1.00224 1.00218 0.988597
1.00255 0.997528 0.991669
1.00422 0.997741 0.989512
1.00378 1.00073 0.987647
1.0001 0.994941 0.950399
0.99721 0.994947 0.965455
0.996469 1.00256 0.988891
0.999673 0.996329 0.905707
0.994764 0.995734 0.839969
0.999944 1.00371 0.991339
0.999846 0.995406 0.900105
0.994678 0.99546 0.856036
1.00144 1.00004 0.99142
1.00127 1.00195 0.990339
1.002 1.00042 0.990605
0.996345 1.00271 0.990204
1.00175 0.996398 0.940856
0.994919 0.995169 0.967597
0.998373 0.998824 0.900657
0.994796 0.995421 0.854956
0.999552 1.0035 0.992728
0.99469 0.99554 0.858848
0.994801 0.99531 0.873326
0.999107 1.0017 0.99401
0.999599 1.00258 0.993473
0.99558 1.00251 0.989839
0.994869 0.997582 0.967061
0.997686 0.998775 0.938014
0.994724 0.999787 0.906114
0.994843 0.994802 0.859198
0.999337 1.00321 0.992638
0.999613 1.00312 0.992743
0.998309 1.00421 0.993048
1.00018 1.00273 0.991635
1.00043 1.00337 0.990747
1.00027 1.00416 0.990219
0.999914 1.0046 0.990353
0.99952 1.00407 0.991324
1.00039 1.00352 0.990683
0.999837 1.00439 0.990783
1.00044 1.00381 0.990294
0.998573 1.00494 0.991779
0.996903 1.00522 0.994198
0.999933 1.00425 0.990836
1.0006 1.00399 0.989943
1.00037 1.00352 0.990731
1.00012 1.0034 0.991334
1.00039 1.00374 0.990482
1.00003 1.0035 0.991294
0.99957 1.00343 0.991895
0.999728 1.00413 0.991077
0.999741 1.00401 0.990995
0.999427 1.0034 0.992048
1.0003 1.00272 0.991568
1.00049 1.004 0.989334
0.999578 1.00464 0.990615
0.9998 1.00442 0.990725
0.999769 1.00406 0.991098
0.999958 1.00352 0.991385
1.00001 1.00252 0.992203
1.00012 1.00322 0.991454
1.00014 1.00236 0.992211
1.00018 1.00089 0.993547
1.00022 1.00248 0.991855
1.0001 1.00102 0.993575
1.00012 0.998517 0.996611
1.00001 1.00113 0.993606
1.00009 0.998515 0.996355
1.00006 0.996887 0.99795
1.00006 0.998541 0.99608
1.00001 0.996953 0.999134
1.00001 0.996947 0.999137
1.00012 1.00166 0.993183
0.999989 1.00009 0.994699
1.00009 1.00144 0.993222
1.00011 0.997803 0.99678
1.00001 0.999961 0.994797
1.00007 0.999898 0.994765
1.00011 0.997786 0.996784
1.00001 0.996528 0.999288
1.0001 0.997754 0.997233
0.999998 0.996598 0.998794
0.999979 0.996789 0.998261
0.999839 0.995383 0.891913
0.994668 0.995532 0.858623
0.998039 0.994873 0.970654
1.00048 0.995464 0.988572
1.00515 0.995047 0.990871
0.996158 0.995852 0.974564
1.00336 0.996259 0.988553
1.00118 0.995638 0.947408
0.999817 0.996259 0.892968
0.994709 0.995714 0.849663
0.998613 0.994888 0.978368
1.00001 0.997084 0.948381
0.998034 0.998692 0.898806
0.994801 0.995361 0.856897
1.00005 1.00329 0.99148
0.999916 1.00226 0.992572
1.00012 1.00126 0.993375
1 1.00231 0.992432
0.999735 1.0031 0.992126
1.00003 1.00357 0.991238
1.00018 1.00276 0.991789
1.00027 1.00319 0.991101
1.00006 1.00268 0.992071
0.999977 1.0024 0.99236
1.00462 0.994832 0.991846
1.00495 0.995031 0.990378
1.00445 0.995317 0.989969
1.00179 0.999595 0.990926
1.00073 1.00452 0.990259
0.9998 1.00513 0.990086
1.00021 1.00277 0.991923
0.999771 1.00341 0.991829
1.0032 0.995375 0.992227
0.999907 1.00463 0.990294
0.999427 1.00432 0.991176
1.00462 0.996091 0.990477
1.00455 0.995199 0.990792
1.0012 0.999316 0.992766
0.999624 1.00506 0.990911
1.00063 0.996824 0.992424
1.00284 0.996321 0.993754
1.00029 1.00125 0.992955
0.999337 1.00473 0.990182
0.999568 1.005 0.990202
0.999257 1.0051 0.991046
0.99475 0.995866 0.87619
0.999837 0.99487 0.906277
0.999983 0.9949 0.943167
0.9998 1.0037 0.991289
1.00138 1.00187 0.990384
1.00147 1.00004 0.991476
1.00215 1.00017 0.991213
0.999835 0.994896 0.908502
1 0.996259 0.940604
0.994891 0.994865 0.96402
0.996462 1.00217 0.990813
0.997552 0.998514 0.889249
0.994692 0.995427 0.858755
0.994773 0.995199 0.862295
0.999275 1.00337 0.992653
0.994695 0.995213 0.866006
0.994835 0.995438 0.872966
0.999013 1.00145 0.994165
0.999367 1.00234 0.99348
0.995549 0.999541 0.992619
0.99488 0.997304 0.966083
0.997424 0.999595 0.9482
0.99685 0.999914 0.893648
0.994813 0.994794 0.867088
0.997519 1.0035 0.99574
0.994819 0.995584 0.881984
0.994788 0.994771 0.875467
0.995566 1.00207 0.999699
0.994816 0.999387 0.97364
0.994898 0.999955 0.949018
0.994889 0.999132 0.889243
0.994878 0.994816 0.865957
0.999782 1.00276 0.992571
0.998594 1.00417 0.993343
0.996945 1.00496 0.99518
1.00034 1.00359 0.990679
1.00047 1.00377 0.990326
0.999925 1.00411 0.990623
0.998298 1.00509 0.992023
1.0005 1.00407 0.989934
0.999877 1.00432 0.990784
0.997038 1.00511 0.99465
0.995125 1.00528 0.997293
0.997586 1.00493 0.994245
1.00036 1.004 0.990307
1.00041 1.0038 0.990433
1.00006 1.00348 0.99125
0.999437 1.00344 0.992262
0.99978 1.0039 0.991116
0.999778 1.00409 0.991096
0.999442 1.00358 0.99211
0.999978 1.00349 0.991577
0.998079 1.00406 0.993638
1.00161 0.999581 0.992103
1.00032 1.00255 0.991705
1.00071 1.00312 0.990193
1.00242 1.00388 0.986801
1.00004 1.00463 0.990531
1.00031 1.00414 0.98974
0.999757 1.00455 0.990626
0.999616 1.00442 0.990794
0.999895 1.00435 0.990729
0.999887 1.00392 0.991101
0.999966 1.00292 0.991896
1.00008 1.00343 0.991374
1.00009 1.00247 0.992196
1.00021 1.0009 0.993503
1.00019 1.00231 0.992218
1.0002 1.00091 0.993553
1.00015 0.998495 0.996576
1.00011 1.001 0.993587
1.00013 0.998499 0.9963
1.00004 0.996968 0.997899
1.00011 0.998494 0.996056
1.00003 0.996915 0.998543
1.00001 0.996937 0.999134
1.00015 1.00214 0.992425
1.00005 1.00022 0.994502
1.00009 1.00168 0.993005
1.0001 0.99787 0.996714
0.999996 1.00008 0.994701
1.00006 1.00148 0.993226
1.00003 0.996509 0.999284
1.0001 0.997803 0.99678
1.00001 0.999956 0.994799
1.00011 0.997774 0.99678
1.00001 0.996549 0.999288
0.99998 0.996584 0.999285
0.994678 0.994822 0.8643
0.99986 0.995317 0.899378
0.994855 0.99564 0.871626
0.994692 0.995576 0.856283
0.995886 0.995633 0.972013
1.00343 0.996036 0.988967
1.00005 0.995986 0.94539
0.999818 0.996723 0.905068
0.994773 0.996181 0.838215
0.998232 0.995622 0.977597
1.00147 0.996955 0.936956
0.998249 0.999122 0.899426
0.994802 0.995713 0.851343
0.995525 0.995661 0.972143
0.997629 0.998666 0.938374
0.995401 0.999798 0.88843
0.994814 0.994806 0.854468
1.00012 1.00412 0.990806
1.00002 1.00314 0.991614
0.999904 1.00229 0.992659
0.999736 1.00295 0.992318
1.00041 1.00399 0.990049
0.99998 1.00348 0.991382
1.00002 1.00302 0.991693
1.00051 1.00307 0.991001
1.0003 1.00322 0.991184
1.00009 1.00259 0.991965
1.0032 0.994853 0.992499
1.0047 0.995445 0.990392
1.00465 0.995325 0.990523
1.00117 0.999045 0.992889
1.00005 1.00475 0.990879
0.999533 1.00445 0.991092
0.999821 1.00478 0.99016
0.999954 1.00489 0.989948
1.0005 0.996375 0.992724
0.999864 1.00492 0.990091
0.999564 1.00508 0.991031
1.00297 0.99594 0.993795
1.00096 1.00031 0.992795
0.998192 0.99703 0.993414
0.998151 0.999279 0.99957
0.998625 1.00352 0.992986
1.00001 1.0047 0.990074
0.999259 1.00499 0.991137
0.994837 0.995842 0.8864
0.994743 0.995746 0.873345
0.99982 0.994856 0.894888
0.999049 1.0032 0.992586
0.999146 1.00196 0.993474
0.999043 1.00138 0.99433
0.994675 0.994833 0.866074
0.997372 0.998602 0.939265
0.994853 0.997039 0.966302
0.995826 0.997817 0.995625
0.99498 0.999834 0.906738
0.99481 0.995571 0.872725
0.99481 0.994805 0.867372
0.997514 1.00332 0.996082
0.994796 0.995175 0.884756
0.994772 0.994772 0.875591
0.995679 1.00223 0.998679
0.994852 0.999065 0.975245
0.995948 0.999737 0.939057
0.994868 0.994815 0.865128
0.994873 0.999915 0.896783
0.995557 1.0049 0.99843
0.994728 0.994801 0.892166
0.994823 0.994782 0.878782
0.994819 0.994797 0.855154
0.995084 1.00004 0.992216
0.994951 0.99948 0.952426
0.995 0.999555 0.898523
0.998994 1.00415 0.993635
0.997534 1.00506 0.994309
0.995168 1.0051 0.9984
1.00047 1.00409 0.989926
0.99978 1.00436 0.990729
0.997005 1.00491 0.995088
1.00019 1.00409 0.990342
0.997655 1.00475 0.994271
0.995368 1.0053 0.997111
0.995133 1.00524 0.99829
0.997629 1.00459 0.994102
0.999792 1.00386 0.991241
0.999829 1.00406 0.991114
0.999494 1.00375 0.992178
0.99839 1.00413 0.993494
0.999832 1.00346 0.991547
0.999549 1.00265 0.993029
1.00069 1.00006 0.993287
1.00154 1.00164 0.989608
1.00035 1.00239 0.991845
1.00121 1.00308 0.989841
1.00317 1.00277 0.986346
1.00327 1.00293 0.986059
1.00058 1.00455 0.989417
1.00206 1.00378 0.986932
0.999893 1.00485 0.99025
0.999903 1.00468 0.990495
1.00008 1.00426 0.990146
0.999928 1.00445 0.990636
0.999688 1.0043 0.990867
0.999985 1.0033 0.991495
0.99999 1.0038 0.991103
1.00003 1.00286 0.991901
1.00019 1.00114 0.993296
1.00013 1.00245 0.99219
1.00022 1.0009 0.993497
1.00014 0.998497 0.996577
1.0002 1.00089 0.99356
1.00016 0.998475 0.996271
1.00002 0.997039 0.997892
1.00015 0.998454 0.996003
1.00002 0.996971 0.998512
1.00001 0.996944 0.999125
1.00033 1.00231 0.991784
1.0001 1.00054 0.993866
1.00019 1.00212 0.992423
1.00012 0.997963 0.996579
1.00004 1.00023 0.994358
1.0001 1.00167 0.992829
1.00003 0.996565 0.999265
1.0001 0.997856 0.99672
1 1.00005 0.994704
1.00002 0.996523 0.999286
1.00009 0.997805 0.99678
1 0.996544 0.999289
0.99483 0.994806 0.880615
0.994689 0.995235 0.871691
0.999847 0.995373 0.899892
1.00064 1.00314 0.990611
0.994745 0.994809 0.881769
0.994809 0.995457 0.871496
0.994731 0.995347 0.862829
0.998461 0.995944 0.976388
0.999671 0.997471 0.947349
0.997919 0.998488 0.887338
0.994764 0.995668 0.855104
0.996576 0.995184 0.96857
0.997425 0.999075 0.947568
0.996591 0.999904 0.892536
0.994813 0.994816 0.858099
0.994877 0.995508 0.964256
0.995223 0.999844 0.947114
0.994862 0.999981 0.897888
0.994881 0.994827 0.865655
1.00012 1.00462 0.990015
1.0001 1.00414 0.990611
1.00007 1.00301 0.991748
1.00045 1.00381 0.990221
1.00031 1.00406 0.990265
0.999996 1.00344 0.991524
1.00055 1.00308 0.991017
1.00031 1.00325 0.991264
1.00001 0.997048 0.992937
1.00317 0.995607 0.99379
1.00013 1.00503 0.989713
1.00147 0.999817 0.992627
0.999842 1.00509 0.991014
1.00002 1.00501 0.98998
0.999903 1.00474 0.990059
0.997403 0.997407 0.994072
0.999513 1.00478 0.991254
0.999226 1.00328 0.993063
0.998059 0.998872 0.999616
0.999995 1.00475 0.990326
0.995997 0.999613 0.992067
0.995034 1.00279 1.00101
0.997618 1.00509 0.993366
0.999576 1.00453 0.991402
0.994747 0.994771 0.897524
0.994846 0.995743 0.885909
0.994733 0.995687 0.870481
0.99747 1.00332 0.996448
0.99549 1.00195 0.99765
0.994816 0.994807 0.887427
0.99489 0.999975 0.949122
0.994865 0.998676 0.972475
0.994828 0.999957 0.896252
0.994799 0.994774 0.875664
0.994854 0.994817 0.864304
0.995849 1.00471 0.998064
0.99476 0.994803 0.891961
0.994817 0.994775 0.882234
0.994901 1.00078 0.995637
0.994814 0.994804 0.858563
0.994921 0.998728 0.946487
0.99498 0.999663 0.902749
0.994996 1.00409 0.99842
0.994771 0.994808 0.896117
0.994754 0.994802 0.882287
0.994774 0.995649 0.857268
0.995542 0.999983 0.897566
0.9949 1.00002 0.981076
0.994986 0.999846 0.939161
0.99825 1.00498 0.993441
0.995515 1.00509 0.99794
0.994914 1.00511 0.999442
1.00002 1.00413 0.990377
0.997683 1.00466 0.994301
0.99584 1.00529 0.996939
0.997824 1.00451 0.993996
0.995222 1.00472 0.998279
0.997574 1.00317 0.996622
0.998707 1.00414 0.993343
0.999589 1.00349 0.991517
0.99958 1.00281 0.993221
0.999207 1.00344 0.991634
0.999755 1.00053 0.994449
1.00145 1.00141 0.990232
1.00341 1.00266 0.985941
1.00468 1.00183 0.984539
1.00172 1.00304 0.989483
1.00353 1.00287 0.985577
1.00449 1.00183 0.985985
1.00163 1.0038 0.98768
1.00319 1.00291 0.986259
0.99996 1.00505 0.989667
1.00061 1.00456 0.98936
1.0017 1.00369 0.987065
0.999979 1.00386 0.990845
0.999749 1.00484 0.99036
0.99979 1.00471 0.990459
0.999771 1.0042 0.990939
1.00004 1.00325 0.991499
1.0002 1.0015 0.9929
1.0001 1.00282 0.991905
1.0002 1.00115 0.993287
1.0001 0.99864 0.995935
1.00024 1.00093 0.993491
1.00016 0.998496 0.99597
0.999906 0.997094 0.999111
1.00017 0.998463 0.995968
0.999997 0.997043 0.998496
0.999999 0.996996 0.999109
1.00035 1.00252 0.991497
1.00021 1.00088 0.993352
1.00029 1.00236 0.991894
1.00015 0.998124 0.996382
1.00013 1.00055 0.993804
1.00018 1.00213 0.992419
1.00004 0.99662 0.999235
1.00012 0.997947 0.996591
1.00005 1.00024 0.994215
1.00004 0.996538 0.999272
1.0001 0.99784 0.996725
1.00002 0.99654 0.999287
0.994765 0.994799 0.893935
0.994824 0.995287 0.880529
0.994687 0.995731 0.871885
1.00055 1.00318 0.990719
1.00051 1.00336 0.990468
1.00061 1.00345 0.990474
0.994845 0.994774 0.878222
0.994779 0.994796 0.881841
0.994762 0.995582 0.871363
0.996485 0.994869 0.970733
0.998135 0.998921 0.937061
0.9951 0.999923 0.905804
0.994842 0.994841 0.854001
0.994897 0.996053 0.96777
0.995829 0.999946 0.943584
0.994818 0.999762 0.896989
0.994873 0.99482 0.864708
0.994903 0.996275 0.963633
0.994882 0.999479 0.948985
0.995088 0.999831 0.898314
0.994848 0.994811 0.859145
1.00035 1.00407 0.990068
1.00022 1.00455 0.989863
1.00026 1.00404 0.990415
1.00054 1.00368 0.990191
1.00014 1.00414 0.990484
1.00056 1.0031 0.991032
0.996794 0.997631 0.994725
0.997617 0.99851 0.999701
1.00001 1.00449 0.990044
0.999815 1.00258 0.993137
0.999564 1.00471 0.991372
0.999888 1.00463 0.990268
0.999205 1.00458 0.991555
0.995681 0.999584 0.992266
0.997704 1.00514 0.994002
0.995285 1.00245 1.00011
0.999444 1.00394 0.991951
0.995427 0.99966 0.990894
0.995929 1.003 0.997343
0.997882 1.00512 0.994104
0.994755 0.994763 0.900903
0.994739 0.994771 0.898318
0.994849 0.995592 0.88541
0.995994 1.00461 0.997675
0.994863 1.00086 0.992362
0.994757 0.994807 0.891761
0.994853 0.999239 0.947772
0.99498 0.999547 0.890952
0.994808 0.994769 0.885671
0.994858 0.99492 0.854632
0.995122 1.00391 0.998912
0.994761 0.99481 0.89753
0.994778 0.994954 0.882367
0.99492 0.999646 0.977904
0.994789 0.995898 0.851836
0.994855 0.99998 0.896331
0.994924 0.999727 0.950087
0.995108 1.00487 0.994139
0.994761 0.994802 0.894241
0.99484 0.996078 0.872164
0.994646 0.996195 0.861552
0.995749 0.999037 0.888274
0.995622 0.999954 0.947474
0.994929 1.0005 0.971853
0.995979 1.00516 0.997489
0.995241 1.00427 0.999361
0.996956 1.003 0.997945
0.997974 1.00456 0.993892
0.995469 1.00423 0.998281
0.996496 1.00424 0.996876
0.999517 0.999733 0.996814
0.999639 1.00295 0.993411
1.00079 1.0028 0.991236
1.0021 1.0037 0.987419
1.00134 1.00121 0.990881
1.00343 1.00271 0.986008
1.00416 1.00395 0.983366
1.00485 1.0019 0.984077
1.00467 1.00153 0.984924
1.00467 1.00203 0.984361
1.00395 1.00293 0.984807
1.00386 1.00215 0.986551
1.00414 1.0017 0.986198
1.00086 1.00442 0.988303
1.00175 1.00385 0.987855
1.00314 1.00291 0.986461
0.999982 1.00468 0.989788
1.00015 1.00502 0.989648
1.0006 1.00461 0.989302
1.00019 1.00209 0.992375
1.0001 1.00383 0.990843
0.999619 1.00482 0.99047
1.0001 1.00318 0.991503
1.00022 1.00152 0.992893
1.00002 0.998889 0.995813
1.00022 1.00115 0.993278
1.0001 0.998647 0.995924
0.999857 0.997242 0.999097
1.00016 0.998496 0.995966
0.999943 0.997123 0.998497
0.999964 0.997073 0.999102
1.00037 1.00288 0.991318
1.0003 1.00111 0.993158
1.00039 1.0025 0.991565
1.00018 0.998318 0.996126
1.0002 1.00087 0.993437
1.0003 1.00237 0.992005
1.00004 0.996735 0.99919
1.00015 0.998095 0.996399
1.00015 1.00054 0.993741
1.00004 0.996615 0.999244
1.00012 0.997934 0.996603
1.00004 0.99654 0.999279
0.994773 0.994814 0.895755
0.994763 0.99481 0.893735
0.994815 0.995669 0.880552
1.00038 1.00392 0.990096
1.00072 1.004 0.989751
1.00047 1.00323 0.99083
1.00045 1.0035 0.990427
1.00043 1.00357 0.990468
1.00033 1.00388 0.99031
1.00042 1.00364 0.990415
0.994804 0.994761 0.874935
0.994832 0.99478 0.881732
0.994812 0.994765 0.881927
0.994865 0.99482 0.863803
0.994898 0.996001 0.964707
0.995092 0.999953 0.940207
0.994875 0.999397 0.905597
0.995003 0.99671 0.962673
0.994885 0.999783 0.939346
0.994964 0.9996 0.902981
0.994821 0.994796 0.867083
0.995542 0.996349 0.966535
0.994919 0.999897 0.939595
0.994927 0.999574 0.889801
0.994809 0.995939 0.855847
0.999471 1.00492 0.990943
1.0002 1.00429 0.990113
1.00028 1.00467 0.98971
1.00064 1.00362 0.990162
0.995429 0.999926 0.992626
0.99533 1.00324 0.999175
0.999809 1.00493 0.990212
0.99916 1.00454 0.991708
0.99808 1.00512 0.994629
0.999431 1.00406 0.991881
0.997657 1.00511 0.994098
0.995277 1.00123 0.988004
0.995253 1.00419 0.997846
0.997321 1.0046 0.995151
0.994824 0.999694 0.987846
0.996938 1.00408 0.997578
0.994739 0.994782 0.897647
0.994764 0.994762 0.903704
0.994738 0.994763 0.899108
0.994979 1.00371 0.999347
0.994936 0.998447 0.981811
0.994759 0.99481 0.898986
0.995758 0.999321 0.939846
0.994874 0.999672 0.904986
0.994801 0.99476 0.882456
0.994741 0.995828 0.855605
0.994905 1.004 0.994836
0.994763 0.994805 0.894059
0.994799 0.995682 0.872046
0.994944 1.00059 0.972516
0.994681 0.996035 0.850556
0.996635 0.999908 0.892079
0.994873 0.999872 0.93877
0.995533 1.00479 0.988649
0.994826 0.994813 0.881293
0.994659 0.995698 0.859468
0.998437 0.997543 0.899509
0.995006 0.999934 0.947159
0.994998 1.00001 0.965304
0.995237 1.00363 0.999519
0.996143 1.00377 0.997973
0.997051 1.00063 0.99922
0.995471 1.00515 0.99712
0.998229 1.00024 0.997099
1.00249 0.998959 0.992536
1.00239 1.00206 0.990838
1.00255 1.00348 0.987358
1.0031 1.00427 0.984387
1.0034 1.00277 0.986077
1.00445 1.00391 0.983033
1.00428 1.00445 0.982609
1.00496 1.00118 0.984727
1.00503 1.00131 0.984513
1.00479 1.00205 0.984054
1.00449 1.00136 0.985347
1.00463 1.00145 0.985096
1.00461 1.00228 0.984183
1.00296 1.00345 0.986418
1.00365 1.00208 0.986516
1.00376 1.00156 0.986409
1.00056 1.00496 0.988594
1.00088 1.00452 0.988531
1.00188 1.00387 0.988032
1.00009 1.00303 0.99148
1.00019 1.00465 0.98981
1.00031 1.00499 0.989629
0.999937 0.999197 0.995639
1.00023 1.00205 0.992357
1.00021 1.0038 0.990842
1.00024 1.00151 0.992886
1.00002 0.998921 0.995795
0.999781 0.997442 0.999076
1.00011 0.998648 0.995913
0.999851 0.997277 0.999092
0.999912 0.997147 0.999102
1.00034 1.00423 0.989988
1.0005 1.00315 0.990868
1.00034 1.0015 0.992716
1.0004 1.00284 0.991307
1.00018 0.998584 0.99585
1.00029 1.00113 0.993156
1.00034 1.00256 0.991631
1.00003 0.996883 0.99913
1.00017 0.998314 0.996144
1.0002 1.00088 0.99352
1.00004 0.996709 0.999204
1.00015 0.998076 0.996415
1.00004 0.996585 0.999254
0.994733 0.994796 0.891757
0.994762 0.994809 0.897211
0.994765 0.994822 0.893515
1.00044 1.00394 0.990119
1.00054 1.00403 0.989802
1.00028 1.00351 0.9903
1.00019 1.00433 0.989885
1.00063 1.0043 0.989942
1.00046 1.00359 0.990384
1.00037 1.00368 0.990462
1.0004 1.00383 0.990317
1.00046 1.00375 0.990458
1.00001 1.00457 0.990439
0.994806 0.995652 0.87271
0.994782 0.99477 0.875131
0.994815 0.994774 0.885212
0.994825 0.9948 0.867372
0.995069 0.999825 0.89091
0.995053 0.997836 0.961107
0.994897 0.999856 0.948778
0.995293 0.996332 0.963351
0.994918 0.999056 0.949513
0.994851 0.99995 0.898011
0.99481 0.995667 0.854033
0.994841 0.995475 0.968098
0.994899 0.999981 0.949337
0.995187 0.999844 0.904873
0.994719 0.995871 0.86032
0.998541 1.00396 0.993104
0.999578 1.00478 0.990874
1.0002 1.00429 0.990159
0.995162 1.00169 0.984922
0.995167 1.00445 0.998346
0.99935 1.00401 0.99181
0.996988 1.00518 0.994098
0.997369 1.0042 0.99516
0.996157 1.00368 0.997681
0.994933 0.999778 0.9877
0.995908 1.00203 0.998961
0.995941 0.999736 0.989893
0.994838 0.995524 0.885941
0.994739 0.994777 0.898412
0.994769 0.994766 0.90651
0.994952 1.00281 0.995156
0.99495 1.00069 0.969284
0.994766 0.994819 0.893848
0.995642 0.999965 0.946739
0.994899 0.999917 0.905177
0.994761 0.99586 0.871945
0.994746 0.996206 0.839258
0.995493 1.00472 0.989248
0.994817 0.995066 0.881211
0.994688 0.99578 0.857132
0.99495 0.999991 0.966287
0.998319 0.998868 0.900035
0.995849 0.999924 0.942469
0.994989 1.00477 0.986627
0.994678 0.994826 0.865245
0.999788 0.996952 0.905371
0.997483 0.998448 0.938443
0.994835 0.997388 0.96838
0.995517 1.00458 0.99799
0.996813 1.0009 0.999154
1.00037 1.00253 0.99357
0.996956 1.00087 0.997329
1.00134 0.999436 0.992846
1.00361 0.999365 0.988958
1.00296 1.00321 0.987293
1.00317 1.00418 0.984373
1.00427 1.0018 0.984721
1.00476 1.00393 0.982703
1.00432 1.00405 0.982712
1.00476 1.00107 0.985087
1.00515 0.999005 0.986369
1.0051 1.00054 0.984967
1.0049 1.00107 0.984813
1.00509 1.00148 0.984432
1.00504 1.00134 0.98449
1.00474 1.00217 0.984031
1.00432 1.00205 0.985335
1.00438 1.00138 0.985479
1.0046 1.00138 0.985269
1.00187 1.0041 0.987343
1.00275 1.00339 0.98659
1.00342 1.00205 0.986479
1.0001 1.0044 0.989944
1.00072 1.00497 0.988605
1.00093 1.00462 0.988758
0.999873 0.999785 0.995836
1.00019 1.00302 0.991457
1.00039 1.00464 0.989832
0.999716 0.997703 0.997721
0.999934 0.999306 0.995879
1.00026 1.00201 0.992339
1.00001 0.998954 0.995778
0.999778 0.997476 0.999066
0.999845 0.997293 0.999087
1.00022 1.00453 0.989939
1.00042 1.00371 0.990446
1.00028 1.00429 0.989948
1.00037 1.00188 0.992281
1.00039 1.00332 0.990862
1.00015 0.998904 0.995575
1.00034 1.00148 0.99272
1.00047 1.00276 0.991295
1.00001 0.997087 0.999066
1.00018 0.998564 0.995866
1.00028 1.00115 0.993155
1.00003 0.996871 0.999148
1.00016 0.9983 0.996161
1.00004 0.996691 0.999217
0.994814 0.994833 0.888237
0.99476 0.9948 0.89156
0.994759 0.994809 0.898695
1.00054 1.0031 0.990556
1.00036 1.00412 0.990143
1.00046 1.004 0.989852
1.00037 1.00438 0.989839
1.00062 1.00336 0.990344
1.00045 1.00408 0.990288
1.00111 1.00371 0.989232
0.999605 1.00479 0.990201
1.00046 1.00374 0.990325
1.00016 1.00382 0.990498
0.999865 1.00448 0.990421
0.999146 1.00507 0.991766
0.99471 0.995875 0.86079
0.994839 0.995717 0.872374
0.994792 0.994777 0.875279
0.994784 0.995473 0.86147
0.99483 0.999952 0.897804
0.995047 0.999623 0.939628
0.995096 0.996023 0.962471
0.994866 0.995558 0.969518
0.994745 0.996107 0.849524
0.994886 0.999493 0.943772
0.996725 0.99993 0.892586
0.994877 0.996122 0.970636
0.994987 0.999948 0.949692
0.998892 0.998513 0.895781
0.999086 1.0015 0.995298
0.998672 1.00404 0.993068
0.999475 1.00469 0.990805
0.994918 1.0001 0.987868
0.995508 1.00332 0.997777
0.997347 1.00385 0.99517
0.997005 1.00189 0.998832
0.995411 0.999519 0.990006
0.996939 0.998508 0.993282
0.99475 0.996197 0.870622
0.994833 0.995199 0.889019
0.994742 0.994767 0.89917
0.995369 1.00465 0.989564
0.994854 0.999979 0.966353
0.994807 0.995343 0.88124
0.994898 0.999955 0.939544
0.998296 0.997515 0.888157
0.994719 0.99564 0.863647
0.994925 1.00468 0.986647
0.994693 0.995076 0.872555
0.999816 0.995876 0.893959
0.994906 0.996968 0.964437
0.997429 0.998856 0.947605
0.995824 1.00312 0.990991
0.999827 0.995296 0.892523
1 0.99688 0.948616
0.994874 0.995193 0.96378
0.996499 1.00094 0.99919
0.999718 1.00163 0.993594
1.0027 1.00246 0.988866
1.00026 0.999923 0.993162
1.00301 1.00001 0.98889
1.00446 0.998558 0.987974
1.00322 1.0041 0.984359
1.00418 1.00187 0.984696
1.00498 0.997647 0.987467
1.00434 1.00362 0.982814
1.00467 1.00088 0.985132
1.00513 0.997269 0.988023
1.00513 0.997195 0.988323
1.00517 0.999247 0.986148
1.00515 0.998878 0.986514
1.00513 1.00063 0.984892
1.0051 1.00054 0.985055
1.00487 1.00097 0.9849
1.0051 1.00123 0.984758
1.00499 1.00142 0.98455
1.00503 1.00134 0.984466
1.00345 1.00266 0.986128
1.00428 1.00206 0.985324
1.00432 1.00138 0.985609
1.00082 1.00489 0.988391
1.00198 1.00414 0.987318
1.00253 1.00332 0.986763
0.999797 1.0007 0.994282
1.00038 1.00417 0.989946
1.00091 1.00498 0.988615
0.999631 0.998043 0.998947
0.999863 0.999891 0.995081
1.00029 1.00298 0.991435
0.999724 0.99769 0.999028
0.999908 0.999388 0.995539
0.999778 0.997527 0.999056
1.0008 1.00386 0.98967
1.00028 1.00448 0.989862
1.00044 1.00415 0.989992
1.00029 1.00243 0.991872
1.00038 1.00373 0.990439
1.00032 1.00422 0.989909
1.00013 0.99922 0.995298
1.00034 1.00192 0.992287
1.0003 1.00344 0.990857
0.999972 0.997309 0.998997
1.00016 0.998859 0.99559
1.00034 1.00148 0.992725
1.00001 0.997047 0.999085
1.00017 0.998546 0.995882
1.00003 0.996831 0.999167
0.994859 0.995422 0.859936
0.994817 0.994813 0.888199
0.99476 0.994806 0.891369
1.00038 1.00338 0.990496
1.00179 1.00309 0.989798
1.00061 1.00357 0.99011
1.00041 1.0045 0.989792
1.00095 1.0032 0.990386
1.00009 1.00372 0.990633
0.999876 1.00478 0.990094
1.00082 1.00391 0.989406
1.00056 1.00459 0.98935
0.999903 1.00074 0.993898
1.00011 1.00442 0.990402
0.999269 1.00487 0.991439
0.999803 0.997192 0.8883
0.994776 0.995868 0.854996
0.994835 0.995729 0.87218
0.994771 0.99649 0.838367
0.996385 0.999163 0.905156
0.994857 0.999889 0.941012
0.99502 0.995549 0.967189
0.994901 0.996049 0.969318
0.998315 0.999311 0.898334
0.995924 0.999862 0.939945
0.994891 0.997418 0.970915
0.998301 0.998673 0.938243
1.00171 0.997665 0.994926
0.998992 1.00171 0.99519
0.998789 1.00416 0.993044
0.994929 0.999322 0.990077
0.997878 1.00177 0.998686
0.997497 0.998672 0.992894
0.998665 0.997859 0.990845
0.999851 0.994857 0.902295
0.994738 0.99574 0.870179
0.994837 0.994829 0.892
0.994899 1.00481 0.986856
0.994869 0.996648 0.962459
0.99469 0.995281 0.872702
0.998535 0.998124 0.937513
0.999828 0.99607 0.906101
0.995534 1.00228 0.988531
0.999847 0.995198 0.900114
1.00141 0.996672 0.937606
0.994896 0.995259 0.967138
0.998138 0.997791 0.990331
1.00002 0.995401 0.949446
0.996134 0.995525 0.969724
0.999081 1.00069 0.993545
1.00249 1.00065 0.988858
1.00486 0.99844 0.988638
1.00236 1.00063 0.988829
1.00415 0.998744 0.987998
1.00493 0.996251 0.989282
1.0042 1.00191 0.984673
1.00494 0.997978 0.987383
1.00513 0.995572 0.989564
1.00462 1.00068 0.985175
1.00513 0.997287 0.987998
1.00514 0.995687 0.989721
1.00513 0.996268 0.989549
1.00514 0.997016 0.988541
1.00514 0.997849 0.987854
1.00518 0.999668 0.985948
1.00516 0.999316 0.986209
1.00515 0.998747 0.98666
1.00517 1.00085 0.984928
1.00514 1.00065 0.984865
1.0051 1.00053 0.985143
1.00455 1.00146 0.985433
1.00498 1.0013 0.984761
1.00486 1.00142 0.984669
1.00187 1.00409 0.987454
1.00348 1.00272 0.986115
1.00422 1.00207 0.985313
0.999992 1.00163 0.992957
1.00096 1.00472 0.988396
1.00216 1.00407 0.987294
0.999685 0.998371 0.998781
0.999833 1.00078 0.994228
1.00061 1.0041 0.98995
0.999675 0.998057 0.998221
0.999856 0.999977 0.995071
0.99974 0.997772 0.998986
1.0013 1.00295 0.989683
1.00047 1.00403 0.989822
1.00036 1.00459 0.989515
1.00039 1.00446 0.989785
1.00033 1.00426 0.989984
1.00028 1.00292 0.991403
1.00006 0.999624 0.995024
1.00029 1.0024 0.991876
1.0003 1.00382 0.990433
0.999925 0.997539 0.998922
1.00012 0.999211 0.99531
1.00031 1.00195 0.992292
0.999973 0.997266 0.999018
1.00017 0.998829 0.995604
1.00001 0.997028 0.999104
0.999816 0.994869 0.900711
0.99471 0.995367 0.863222
0.994832 0.994791 0.888123
1.00022 1.00378 0.990435
1.00062 1.00425 0.989408
1.00135 1.00309 0.990076
1.00297 1.00337 0.986462
1.00056 1.00417 0.989841
1.00005 1.00485 0.989989
1.00065 1.00416 0.989581
1.0003 1.00457 0.989603
1.00125 1.00314 0.988584
1.00151 0.999719 0.992724
1.00421 0.996571 0.990621
1.00025 1.00027 0.993958
0.999793 1.00408 0.991108
0.998674 0.997143 0.948095
0.99979 0.99737 0.893291
0.9947 0.99576 0.857537
0.998837 0.999593 0.885893
0.995362 0.999954 0.947124
0.994858 0.995938 0.970293
0.994878 0.997354 0.972581
0.997419 0.99885 0.949216
0.995861 0.997025 0.972074
1.00187 0.996003 0.995317
1.00103 0.998381 0.994984
0.998922 1.00202 0.995074
0.998242 0.998246 0.992606
0.999064 0.997684 0.99085
0.999979 0.994977 0.942867
0.999842 0.994886 0.90624
0.994716 0.995336 0.869847
0.994994 1.00193 0.986001
0.995001 0.99495 0.964067
0.999838 0.995337 0.900661
1.00033 0.996923 0.94742
0.997175 0.998885 0.990774
1.00106 0.99561 0.947472
0.996651 0.99504 0.966831
1.00138 0.99626 0.98959
0.999022 0.995336 0.976048
1.00235 0.998774 0.988941
1.00478 0.997172 0.988601
1.00499 0.995939 0.990276
1.00383 0.998942 0.98802
1.00473 0.996439 0.989202
1.00518 0.994954 0.99018
1.00482 0.998365 0.9873
1.00513 0.995659 0.98951
1.00511 0.994972 0.990429
1.00513 0.997299 0.987974
1.00514 0.995735 0.989674
1.00516 0.995307 0.990274
1.00513 0.996035 0.989673
1.00512 0.996747 0.989059
1.00516 0.996837 0.988761
1.00514 0.997858 0.987833
1.00518 0.99868 0.98698
1.00521 1.00019 0.98552
1.00518 0.999714 0.985928
1.00516 0.999383 0.986269
1.00501 1.00072 0.985308
1.00514 1.00087 0.984869
1.00516 1.00067 0.984836
1.00301 1.00255 0.986971
1.00448 1.00157 0.985437
1.00486 1.00137 0.984764
1.00048 1.00203 0.991755
1.00191 1.00403 0.987449
1.00337 1.00291 0.986102
0.999815 0.998984 0.998459
1.00008 1.00166 0.992932
1.00116 1.00448 0.9884
0.999757 0.998511 0.998682
0.999884 1.00089 0.994172
0.999748 0.998102 0.998852
1.00295 1.00304 0.986577
1.00141 1.00279 0.989638
1.00058 1.00436 0.989155
1.00018 1.00411 0.989974
1.00031 1.00461 0.989505
1.00032 1.00346 0.990778
1.00024 1.00434 0.989977
1.00025 1.00292 0.991412
0.999998 1.00003 0.99474
0.999856 0.997846 0.998846
1.00006 0.999585 0.995037
1.00029 1.00237 0.99188
0.999927 0.997522 0.998947
1.00011 0.999196 0.995322
0.999978 0.997222 0.999039
1.00003 0.995173 0.952069
0.999856 0.994878 0.899669
0.9947 0.995299 0.859427
1.00063 1.0048 0.988707
1.00101 1.00286 0.990357
1.0009 1.00393 0.989643
1.00288 1.00341 0.986682
1.0042 1.00253 0.984457
1.00149 1.00351 0.988067
1.00003 1.00455 0.989854
1.00203 1.00297 0.987781
1.00132 0.999674 0.992771
1.00314 0.999629 0.988966
1.00479 0.995797 0.990893
1.004 0.996272 0.991314
1.00374 0.996582 0.991102
1.00001 1.0003 0.994021
0.995992 0.995771 0.971233
0.999946 0.997032 0.944913
0.998135 0.997076 0.904945
0.997506 0.999356 0.938252
0.99486 0.997724 0.973084
0.995677 0.997321 0.977069
0.999564 0.997537 0.992213
1.00225 0.995694 0.995164
1.00058 0.998989 0.995044
1.00026 0.998276 0.99085
0.996491 0.997342 0.972099
1.00015 0.995014 0.953144
0.999826 0.994877 0.89473
0.996351 0.999505 0.991036
0.996825 0.99488 0.968652
1.00004 0.996348 0.945305
1.00082 0.99627 0.989688
0.998435 0.995684 0.975457
1.00362 0.995479 0.990581
1.00272 0.998205 0.986856
1.00466 0.996044 0.988529
1.00485 0.995721 0.990308
1.00518 0.994874 0.9906
1.0046 0.99662 0.989123
1.00518 0.994954 0.990137
1.00514 0.994946 0.990494
1.00513 0.99572 0.989456
1.0051 0.995051 0.990396
1.00517 0.995025 0.990483
1.00514 0.995788 0.989628
1.00514 0.99531 0.990212
1.00513 0.995783 0.989796
1.00512 0.995809 0.989794
1.00513 0.996601 0.989195
1.00516 0.997934 0.98788
1.00515 0.997867 0.987811
1.00518 0.998737 0.986954
1.0052 0.999587 0.986213
1.00517 1.00031 0.985434
1.00521 1.00025 0.985452
1.00518 0.999762 0.985908
1.00391 1.00115 0.986822
1.00498 1.00077 0.985319
1.00511 1.00089 0.984809
1.00094 1.00198 0.991003
1.00297 1.00262 0.986977
1.00445 1.00167 0.985441
1.00006 0.999555 0.998037
1.00059 1.00195 0.991744
1.00194 1.00393 0.987445
0.99994 0.9991 0.998298
1.00015 1.00167 0.992907
0.999857 0.99859 0.998556
1.00428 1.00243 0.98487
1.00318 1.00301 0.986603
1.00198 1.00403 0.98721
1.0014 1.00275 0.989593
1.00072 1.00427 0.989017
1.00068 1.00378 0.989892
1.00024 1.00464 0.989494
1.0003 1.00347 0.990781
0.999932 1.00051 0.994379
1.00022 1.00292 0.991421
0.999986 0.99999 0.994758
0.999782 0.998159 0.998766
0.999861 0.997789 0.998872
1.00006 0.999554 0.99505
0.999925 0.99747 0.99897
0.996837 0.994862 0.972773
1.00002 0.995498 0.941991
0.999839 0.995129 0.908013
1.00513 1.00082 0.984659
1.00126 1.0038 0.989444
1.0028 1.00347 0.986904
1.00194 1.00337 0.987861
1.00431 1.00273 0.984428
1.00387 1.00073 0.986938
1.00276 1.00294 0.98698
1.00109 0.999603 0.992825
1.00352 0.999501 0.988815
1.00481 0.995793 0.990351
1.00481 0.996239 0.989399
1.00413 0.995512 0.992113
1.0039 0.995891 0.991313
1.00326 0.996543 0.991583
0.999849 0.996934 0.991843
0.995793 0.995552 0.969508
0.999342 0.996269 0.942276
0.995218 0.99708 0.975748
0.999733 0.996694 0.994317
1.00208 0.995216 0.994997
1.00057 0.997548 0.98604
0.996403 0.99608 0.973403
0.999981 0.994891 0.942971
0.999934 0.996792 0.989859
0.998458 0.996012 0.974404
1.0031 0.995491 0.99093
1.00282 0.997592 0.987366
1.00439 0.994857 0.991132
1.00461 0.997493 0.990642
1.00472 0.995493 0.990336
1.00518 0.994879 0.99049
1.00522 0.994865 0.990401
1.00518 0.994954 0.990095
1.00513 0.994937 0.990487
1.0052 0.994933 0.990485
1.00509 0.99513 0.990362
1.00517 0.994992 0.990465
1.00517 0.995401 0.990183
1.00513 0.995299 0.99015
1.00515 0.995796 0.989781
1.00516 0.996997 0.988735
1.00513 0.996455 0.989331
1.00516 0.997788 0.988058
1.0052 0.99908 0.986726
1.00519 0.998793 0.986928
1.0052 0.999585 0.986204
1.00519 1.00014 0.985624
1.00428 1.00044 0.986864
1.00513 1.00039 0.985412
1.00521 1.00032 0.985384
1.00146 1.00139 0.990735
1.00385 1.00122 0.98682
1.00496 1.00082 0.985331
1.00021 0.999997 0.997715
1.00113 1.00174 0.990997
1.00293 1.00265 0.986983
1.00015 0.999647 0.997905
1.00073 1.00182 0.991738
1.00006 0.999218 0.998137
1.0051 1.00126 0.984526
1.00437 1.00235 0.984864
1.00372 1.00277 0.985668
1.00343 1.00296 0.986629
1.00209 1.00405 0.987157
1.00117 1.00427 0.988655
1.0009 1.00416 0.988878
1.00049 1.00402 0.989896
0.999928 1.00111 0.993795
1.00023 1.00352 0.990786
0.999915 1.00046 0.994403
0.999727 0.998525 0.998656
0.999974 0.999953 0.994776
0.999786 0.998104 0.998796
0.999867 0.997757 0.998896
1.00102 0.994874 0.989992
0.99667 0.994878 0.969439
0.999995 0.994914 0.95248
1.00501 0.999612 0.986193
1.00517 0.999209 0.986421
1.0051 1.00073 0.984831
1.00238 1.00315 0.98765
1.00442 1.00292 0.984396
1.00401 1.00056 0.98703
1.00502 0.997214 0.988112
1.00393 0.999347 0.988665
1.00477 0.995879 0.989802
1.00484 0.996401 0.989551
1.00501 0.995358 0.990111
1.00413 0.995432 0.991724
1.0038 0.995685 0.992035
1.00403 0.995578 0.991306
1.00016 0.996746 0.991971
0.99587 0.995454 0.96782
1.00006 0.996447 0.996506
1.00425 0.995496 0.99177
1.0005 0.997581 0.986233
0.996298 0.995769 0.971196
1.00293 0.994891 0.991253
1.00288 0.997372 0.987911
1.00446 0.994974 0.991531
1.00464 0.996723 0.990631
1.00526 0.994932 0.990447
1.00531 0.99497 0.990645
1.00519 0.994878 0.990382
1.00522 0.994888 0.990384
1.00521 0.99492 0.99042
1.00513 0.994932 0.99048
1.00519 0.994933 0.990486
1.00519 0.995099 0.990435
1.00516 0.994965 0.990448
1.00517 0.995384 0.990166
1.00516 0.996343 0.989377
1.00516 0.99581 0.989765
1.00515 0.997018 0.988734
1.00521 0.998562 0.987182
1.00516 0.99764 0.988237
1.0052 0.999022 0.986792
1.00521 0.999948 0.98579
1.0052 0.999584 0.986196
1.00519 1.00011 0.985659
1.00441 1.00018 0.986899
1.00174 1.00076 0.990838
1.00427 1.00048 0.986852
1.00509 1.00047 0.985388
1.0003 1.00028 0.997518
1.00151 1.00132 0.990735
1.00376 1.00134 0.98682
1.00027 1.00008 0.997625
1.00123 1.00162 0.990993
1.00023 0.999767 0.997782
1.00519 1.00019 0.985403
1.00511 1.00117 0.984597
1.00477 1.00118 0.985272
1.00444 1.00226 0.984859
1.00368 1.00277 0.985685
1.0021 1.0037 0.987532
1.00216 1.00411 0.987105
1.00093 1.00448 0.988676
1.00014 1.00189 0.992734
1.00033 1.00421 0.9899
0.999894 1.00107 0.993823
0.999732 0.99899 0.998458
0.999904 1.00041 0.994427
0.999716 0.998446 0.9987
0.999788 0.998045 0.998822
1.00411 0.994851 0.992483
1.001 0.994891 0.988193
0.996557 0.994881 0.968707
1.00512 0.998373 0.987461
1.00508 0.999188 0.986442
1.00523 0.997868 0.987662
1.00519 0.999175 0.98642
1.00507 1.00061 0.985005
1.00514 0.996283 0.988969
1.00419 1.0004 0.987122
1.005 0.997462 0.988105
1.00519 0.995003 0.99022
1.00488 0.996535 0.989706
1.00497 0.995459 0.989997
1.00416 0.995515 0.991863
1.00328 0.995828 0.991951
1.00045 0.996419 0.992001
1.00527 0.99491 0.990477
1.00419 0.996244 0.991855
1.00056 0.997252 0.986417
1.00449 0.995152 0.991921
1.00464 0.99602 0.990624
1.00525 0.994922 0.990488
1.00531 0.995008 0.990573
1.00524 0.994948 0.990641
1.00523 0.994909 0.990367
1.00521 0.994923 0.990436
1.00518 0.994938 0.990639
1.00519 0.994931 0.990487
1.00519 0.995078 0.990408
1.00516 0.995816 0.989886
1.00517 0.995369 0.990149
1.00516 0.996368 0.98937
1.00522 0.998054 0.987694
1.00515 0.997039 0.988732
1.00521 0.99857 0.987201
1.00522 0.999763 0.985978
1.0052 0.998964 0.986858
1.00521 0.999944 0.98581
1.00446 1.00011 0.986897
1.00518 1.00007 0.985693
1.00441 1.00019 0.986897
1.0018 1.00038 0.992513
1.00053 1.00008 0.994629
1.00178 1.00073 0.991552
1.00425 1.00052 0.986841
1.00033 1.00033 0.997482
1.00164 1.00114 0.990731
1.00031 1.00018 0.997544
1.00525 0.997772 0.987848
1.00523 0.99922 0.986417
1.00521 1.0002 0.985514
1.00498 1.00054 0.985494
1.00513 1.00109 0.984667
1.00483 1.00112 0.98525
1.0033 1.002 0.987011
1.00365 1.00272 0.985701
1.00208 1.00363 0.98753
1.00068 1.00217 0.991467
1.00075 1.00469 0.988695
1.00003 1.0019 0.992763
0.999859 0.999636 0.998063
0.999864 1.00102 0.993851
0.999683 0.998877 0.998541
0.999713 0.998375 0.998739
1.00526 0.994852 0.990465
1.00445 0.994848 0.992368
1.00116 0.994894 0.986444
1.00516 0.996848 0.988546
1.00512 0.9983 0.987306
1.00512 0.998784 0.986688
1.00522 0.99801 0.987625
1.0052 0.999139 0.986419
1.00524 0.995401 0.990064
1.00511 0.996289 0.98893
1.00497 0.997732 0.988095
1.00519 0.994967 0.990226
1.00498 0.995544 0.989883
1.00416 0.995625 0.992023
1.00523 0.994908 0.990735
1.00527 0.994912 0.990652
1.00412 0.996991 0.991946
1.00524 0.994913 0.990521
1.00532 0.994962 0.990505
1.00524 0.994946 0.990588
1.00515 0.994959 0.990889
1.00521 0.994928 0.990452
1.00518 0.994935 0.990604
1.00517 0.995423 0.990313
1.00519 0.995057 0.990381
1.00517 0.995834 0.989883
1.00522 0.997658 0.988112
1.00516 0.996395 0.989362
1.00522 0.998062 0.987706
1.00524 0.999566 0.986183
1.00521 0.998577 0.987219
1.00523 0.999753 0.985996
1.0045 1.00009 0.986857
1.00521 0.999939 0.985829
1.00447 1.0001 0.986902
1.00191 1.0001 0.992629
1.00442 1.0002 0.986894
1.00196 1.00028 0.992432
1.00052 0.999984 0.994801
1.00031 1.00034 0.996082
1.00195 1.00066 0.992132
1.00032 1.00041 0.997458
1.00518 0.997105 0.988641
1.00525 0.998832 0.986733
1.00524 0.997578 0.988045
1.00513 1.00008 0.985703
1.00524 0.9993 0.986371
1.00522 1.00022 0.985625
1.00504 1.0005 0.985461
1.00405 1.00085 0.986854
1.00488 1.00107 0.985229
1.00339 1.00186 0.986994
1.00124 1.0018 0.99076
1.00203 1.00361 0.987529
1.00049 1.00236 0.991478
1.00001 1.00038 0.997645
0.999873 1.00198 0.992789
0.999738 0.999523 0.998229
0.999661 0.998766 0.998611
1.00524 0.994895 0.990515
1.00524 0.994853 0.990449
1.00473 0.994859 0.992221
1.00519 0.995957 0.989626
1.00515 0.996934 0.988526
1.00513 0.998229 0.987156
1.0052 0.998154 0.98759
1.00522 0.995404 0.990007
1.00508 0.996305 0.988891
1.00518 0.994949 0.990234
1.00517 0.99492 0.990897
1.00523 0.99491 0.990726
1.00526 0.994918 0.990826
1.00514 0.994952 0.990953
1.00524 0.994943 0.990535
1.00515 0.994955 0.990868
1.00518 0.995265 0.990596
1.00518 0.99493 0.99057
1.00517 0.995447 0.990316
1.00521 0.997435 0.988383
1.00518 0.995856 0.98988
1.00522 0.997665 0.98812
1.00524 0.999349 0.986424
1.00522 0.99807 0.987717
1.00524 0.999554 0.986199
1.00453 1.00007 0.986834
1.00523 0.999744 0.986014
1.00451 1.00008 0.986868
1.00198 1.00005 0.992574
1.00448 1.00008 0.986906
1.00204 1.00004 0.99252
1.00057 0.999885 0.994835
1.00212 1.00018 0.992361
1.00021 1.00014 0.994998
0.999862 1.00064 0.997804
1.00516 0.997034 0.988652
1.00522 0.998259 0.98745
1.00519 0.997166 0.988498
1.00525 0.999741 0.986078
1.00526 0.998624 0.986919
1.00523 0.99739 0.98824
1.00439 1.00025 0.986858
1.00517 1.00007 0.985673
1.00525 0.999376 0.986325
1.00512 1.00047 0.985429
1.00407 1.00079 0.986862
1.00156 1.00123 0.990741
1.00345 1.0017 0.986979
1.00112 1.00195 0.990769
1.00006 1.00084 0.997463
1.00035 1.00247 0.991494
0.99991 1.00022 0.997798
0.999654 0.999338 0.998369
1.00516 0.995292 0.990446
1.00524 0.994894 0.990513
1.00524 0.994851 0.990434
1.00518 0.995867 0.989729
1.00513 0.997012 0.988507
1.00522 0.995399 0.989949
1.00519 0.994917 0.990929
1.00517 0.99493 0.990906
1.00523 0.994912 0.990718
1.00513 0.994951 0.990997
1.0052 0.995472 0.990383
1.00515 0.994951 0.990848
1.00517 0.995432 0.990424
1.00522 0.996993 0.988895
1.00516 0.995467 0.990318
1.00522 0.99741 0.988389
1.00523 0.999114 0.986674
1.00522 0.997662 0.988129
1.00524 0.999335 0.986433
1.00455 1 0.98687
1.00524 0.999541 0.986215
1.00453 1.00007 0.986847
1.00202 1.00012 0.992422
1.00452 1.00007 0.986878
1.00211 1 0.992446
1.00063 0.999888 0.994743
1.00217 0.999995 0.99242
1.0003 0.999936 0.995056
0.999912 1.00033 0.995179
1.00517 0.996393 0.989432
1.00521 0.998061 0.987657
1.00517 0.996849 0.988813
1.00525 0.99928 0.986559
1.00522 0.998356 0.987338
1.0052 0.997226 0.988354
1.00452 0.999929 0.986954
1.00525 0.999603 0.9861
1.00526 0.998417 0.987106
1.00174 1.00063 0.990989
1.00439 1.00023 0.986864
1.0052 1.00007 0.985643
1.00409 1.00073 0.98687
1.0015 1.00131 0.990749
1.00008 1.00091 0.997462
1.00101 1.00211 0.990779
1.00004 1.0007 0.997514
0.999777 1.00007 0.997967
1.00517 0.995092 0.99067
1.00516 0.995332 0.990386
1.00524 0.994894 0.990512
1.00517 0.995795 0.989831
1.00517 0.995518 0.990342
1.00517 0.994927 0.990945
1.00517 0.99494 0.990915
1.00513 0.99495 0.991041
1.0052 0.995462 0.990394
1.00525 0.997018 0.988838
1.00516 0.995597 0.990252
1.00523 0.997238 0.988597
1.00523 0.9987 0.987134
1.00522 0.997395 0.988394
1.00524 0.999109 0.986675
1.00455 0.999899 0.986969
1.00524 0.99933 0.986441
1.00455 0.999998 0.986879
1.00208 1.00018 0.990912
1.00454 1.00006 0.986859
1.00214 1.00008 0.991611
1.00054 0.999944 0.997469
1.00223 0.999973 0.99232
1.00038 0.999876 0.994975
1.00004 0.999981 0.99526
1.00519 0.99593 0.989895
1.00522 0.997696 0.988109
1.00517 0.996456 0.989394
1.00524 0.99901 0.986709
1.00521 0.99807 0.98764
1.00518 0.99666 0.988973
1.00456 0.999698 0.98694
1.00525 0.99928 0.986567
1.00521 0.99845 0.987226
1.00191 1.00011 0.991199
1.00451 0.999882 0.9869
1.00525 0.999457 0.986122
1.00018 1.00068 0.997528
1.00174 1.00062 0.990994
1.00439 1.0002 0.986871
1.00144 1.00136 0.990759
1.00009 1.00082 0.997452
0.999976 1.00062 0.997587
1.00516 0.995443 0.990419
1.00518 0.995139 0.99064
1.00516 0.995365 0.990325
1.00519 0.997144 0.988737
1.00518 0.995396 0.990457
1.00516 0.994936 0.99096
1.0052 0.99545 0.990406
1.00525 0.996992 0.988844
1.00522 0.998659 0.987352
1.00523 0.997485 0.988299
1.00523 0.998879 0.987
1.00453 0.999666 0.987104
1.00524 0.999095 0.986677
1.00455 0.999897 0.986973
1.00209 1.00014 0.990948
1.00455 0.999998 0.986888
1.00209 1.00016 0.990913
1.00053 0.999989 0.997436
1.00216 1.00007 0.990904
1.00044 0.999941 0.996202
1.00014 0.999843 0.995205
1.00519 0.99597 0.98981
1.00522 0.997517 0.988318
1.0052 0.995889 0.989958
1.00524 0.999054 0.986673
1.00523 0.997752 0.988029
1.00517 0.996521 0.989357
1.00459 0.999618 0.987015
1.00524 0.99915 0.986637
1.00521 0.998081 0.987623
1.00204 0.999874 0.991217
1.00455 0.999693 0.986947
1.00525 0.999281 0.986575
1.00035 1.00031 0.997556
1.00193 1.00008 0.991201
1.00451 0.999834 0.986845
1.00019 1.00064 0.997499
1.00175 1.0006 0.990998
1.00007 1.00078 0.997459
1.00519 0.997025 0.98891
1.00516 0.995566 0.990303
1.00519 0.995185 0.990611
1.00521 0.998548 0.987478
1.0052 0.997012 0.988855
1.00519 0.995283 0.990572
1.00525 0.996967 0.988849
1.00522 0.998659 0.987347
1.00449 0.999567 0.987269
1.00523 0.999061 0.986866
1.00453 0.999732 0.987094
1.00208 1.00005 0.99104
1.00455 0.999892 0.986978
1.00207 1.00014 0.990952
1.00051 1.00001 0.997406
1.00209 1.00015 0.990913
1.00053 1 0.997419
1.00052 0.9999 0.994724
1.00521 0.997412 0.988391
1.00517 0.995802 0.989978
1.00523 0.99892 0.986855
1.00522 0.997523 0.988303
1.0052 0.995849 0.990021
1.00457 0.999685 0.987155
1.00523 0.999063 0.986668
1.00523 0.997807 0.987949
1.00212 0.999859 0.991116
1.00457 0.99967 0.987038
1.00524 0.999294 0.986565
1.00051 1.00005 0.997512
1.00206 0.999867 0.991218
1.00455 0.999682 0.986953
1.00033 1.00033 0.997548
1.00194 1.00007 0.991202
1.00019 1.00062 0.997474
1.00522 0.998537 0.98745
1.00518 0.997108 0.988811
1.00516 0.995689 0.990186
1.00447 0.999521 0.987362
1.00521 0.998554 0.987475
1.0052 0.996874 0.988971
1.00522 0.998663 0.987342
1.00451 0.999558 0.987248
1.00204 1 0.991164
1.00454 0.999797 0.987083
1.00207 1.00006 0.991044
1.00052 1.00001 0.997406
1.00207 1.00014 0.990957
1.00051 1.00003 0.99741
1.00053 1.00001 0.997409
1.00523 0.9988 0.986991
1.00521 0.997173 0.988647
1.00516 0.995632 0.990146
1.00453 0.999666 0.987262
1.00523 0.998928 0.986844
1.00523 0.997528 0.988288
1.00212 0.999944 0.991061
1.00455 0.999691 0.987149
1.00523 0.999072 0.986663
1.00057 0.999952 0.997443
1.00212 0.999876 0.991116
1.00457 0.999717 0.987062
1.00047 1.00009 0.997531
1.00206 0.999878 0.991219
1.00033 1.00032 0.997531
1.00447 0.999636 0.987381
1.00522 0.998469 0.987453
1.00518 0.997188 0.988712
1.00201 0.999942 0.991294
1.00448 0.999502 0.987352
1.00521 0.998557 0.987472
1.00452 0.999545 0.987228
1.00204 0.999985 0.99117
1.0005 1.00001 0.997405
1.00205 1.00007 0.991047
1.00051 1.00002 0.997401
1.00049 1.00004 0.997411
1.00449 0.999647 0.987345
1.00522 0.998654 0.987143
1.00522 0.996937 0.988903
1.00216 0.999995 0.992362
1.00451 0.999667 0.987263
1.00522 0.998937 0.986833
1.00056 0.999958 0.997406
1.00212 0.999964 0.991061
1.00454 0.999697 0.987143
1.00056 0.999981 0.99747
1.00212 0.999901 0.991116
1.00045 1.0001 0.997545
1.00207 0.999943 0.991229
1.00447 0.999566 0.987374
1.00522 0.998399 0.987457
1.00045 0.999992 0.997442
1.002 0.999942 0.991292
1.00449 0.999486 0.987342
1.00203 0.999968 0.991172
1.00048 1.00001 0.997416
1.0005 1.00003 0.997402
1.00219 0.999973 0.992397
1.00448 0.999646 0.987345
1.00522 0.998505 0.987296
1.00014 0.999996 0.997806
1.00207 1 0.991124
1.0045 0.999664 0.987265
1.00056 0.99997 0.997424
1.00212 0.999986 0.99106
1.00054 1 0.997494
1.00044 0.999974 0.994847
1.00209 0.999942 0.991874
1.00446 0.999498 0.987365
1.00047 0.999993 0.997446
1.002 0.999944 0.991296
1.0005 1 0.997422
1.00005 0.999997 0.995226
1.0021 0.999965 0.991817
1.00447 0.999649 0.987345
1.00031 0.99999 0.996288
1.00207 1 0.991135
1.00056 0.99998 0.997444
1.00046 0.999984 0.997444
1.00199 0.999938 0.991316
1.00044 0.999993 0.997445
1.00026 0.999981 0.996341
1.00203 0.999962 0.991255
1.00052 0.999983 0.997426
1.00047 0.999983 0.997456
1.00046 0.999983 0.997445

TENSORS stress float
0.0018204 -0.000107346 0.000195893
-0.000107346 0.000753843 -2.8428e-05
0.000195893 -2.8428e-05 0.0007318
0.00567937 -7.18721e-05 0.000197729
-7.18721e-05 0.00309422 2.06635e-05
0.000197729 2.06635e-05 0.00308027
0.00156927 -3.85484e-05 8.85605e-05
-3.85484e-05 0.000608296 -1.12282e-05
8.85605e-05 -1.12282e-05 0.000576922
0.00191888 -6.30451e-05 0.000194559
-6.30451e-05 0.000788197 -1.74633e-05
0.000194559 -1.74633e-05 0.000771002
0.00187545 -9.58657e-05 0.000191939
-9.58657e-05 0.000777794 -2.54572e-05
0.000191939 -2.54572e-05 0.000757718
0.00175369 -0.000105443 0.000201529
-0.000105443 0.000713482 -2.85516e-05
0.000201529 -2.85516e-05 0.000692634
0.00154001 -8.52078e-05 3.27909e-05
-8.52078e-05 0.00050901 -1.04504e-05
3.27909e-05 -1.04504e-05 0.000420627
0.00561896 -7.85699e-05 -7.08242e-06
-7.85699e-05 0.00304744 6.92483e-08
-7.08242e-06 6.92483e-08 0.00303882
0.00558755 9.93336e-05 9.40495e-05
9.93336e-05 0.00299921 6.47583e-06
9.40495e-05 6.47583e-06 0.0029835
0.00538666 -0.000168957 3.01363e-05
-0.000168957 0.00290938 2.5576e-06
3.01363e-05 2.5576e-06 0.00287996
0.00171085 0.000115201 0.000199585
0.000115201 0.000682137 1.99983e-05
0.000199585 1.99983e-05 0.000674233
0.000612607 0.00020456 2.41716e-05
0.00020456 -2.98149e-05 1.52959e-05
2.41716e-05 1.52959e-05 -0.000129578
0.00166646 -3.38299e-05 0.000201567
-3.38299e-05 0.000632823 2.80119e-06
0.000201567 2.80119e-06 0.000626672
0.00130278 -7.69541e-06 4.10025e-05
-7.69541e-06 0.000437329 1.16737e-06
4.10025e-05 1.16737e-06 0.000398708
0.00138156 -3.25641e-05 -3.53292e-05
-3.25641e-05 0.000499053 6.27008e-06
-3.53292e-05 6.27008e-06 0.000460284
0.0016103 -6.65218e-05 6.71571e-05
-6.65218e-05 0.000617297 -3.8658e-06
6.71571e-05 -3.8658e-06 0.000588543
0.0015654 -2.22335e-05 9.58125e-05
-2.22335e-05 0.000613648 -1.11095e-05
9.58125e-05 -1.11095e-05 0.000578143
0.00158522 -5.29102e-05 7.88541e-05
-5.29102e-05 0.000606873 -9.47511e-06
7.88541e-05 -9.47511e-06 0.000579448
0.00160878 -0.000125618 -3.29741e-05
-0.000125618 0.000542796 3.68059e-06
-3.29741e-05 3.68059e-06 0.000462917
0.00559725 -0.000115548 0.000247113
-0.000115548 0.00301286 -8.03295e-06
0.000247113 -8.03295e-06 0.00301985
0.00188601 -4.42607e-05 0.000196232
-4.42607e-05 0.00076638 -1.30194e-05
0.000196232 -1.30194e-05 0.000750344
0.00192284 -8.12548e-05 0.00019267
-8.12548e-05 0.000796614 -2.17138e-05
0.00019267 -2.17138e-05 0.00077849
0.00156453 -0.000110745 5.41261e-05
-0.000110745 0.000498848 -8.25531e-06
5.41261e-05 -8.25531e-06 0.000419487
0.00155814 -9.89206e-05 4.20299e-05
-9.89206e-05 0.00050329 -9.67912e-06
4.20299e-05 -9.67912e-06 0.000422223
0.0016822 -7.7926e-05 0.000195421
-7.7926e-05 0.00066313 -2.48511e-05
0.000195421 -2.48511e-05 0.000645744
0.00152261 -7.47452e-05 2.55112e-05
-7.47452e-05 0.000518028 -1.13458e-05
2.55112e-05 -1.13458e-05 0.000420072
0.00199721 -0.000230231 1.45692e-05
-0.000230231 0.000635307 -6.54027e-06
1.45692e-05 -6.54027e-06 0.000482532
0.00557289 -9.27554e-05 -0.000195407
-9.27554e-05 0.00301096 -1.23346e-05
-0.000195407 -1.23346e-05 0.00300679
0.00360604 8.8408e-05 -0.00011285
8.8408e-05 0.00181685 -1.01231e-05
-0.00011285 -1.01231e-05 0.00179801
0.00348904 -1.80882e-05 -0.000107105
-1.80882e-05 0.00176759 -6.4183e-06
-0.000107105 -6.4183e-06 0.00174423
0.0054288 -0.000145155 -1.32173e-06
-0.000145155 0.00294874 6.96541e-07
-1.32173e-06 6.96541e-07 0.0029316
0.000567492 0.000190841 -2.2187e-06
0.000190841 -5.57153e-05 -7.03806e-07
-2.2187e-06 -7.03806e-07 -0.000153616
0.00162455 5.60614e-05 0.000198262
5.60614e-05 0.0006174 1.59001e-05
0.000198262 1.59001e-05 0.000601875
0.00176966 0.00013286 0.000201115
0.00013286 0.000729259 2.39887e-05
0.000201115 2.39887e-05 0.000706939
0.00264769 0.000180984 0.000122411
0.000180984 0.0011501 1.60299e-05
0.000122411 1.60299e-05 0.00108165
0.00435133 -0.000297745 -6.54658e-06
-0.000297745 0.00234378 5.808e-06
-6.54658e-06 5.808e-06 0.00229096
0.0027447 0.00023248 0.000123203
0.00023248 0.00123754 1.8688e-05
0.000123203 1.8688e-05 0.00116208
0.000565815 0.000167488 2.75899e-05
0.000167488 -5.24434e-05 1.93998e-05
2.75899e-05 1.93998e-05 -0.00014652
0.000871555 0.000186761 1.05932e-05
0.000186761 3.05666e-05 5.85917e-06
1.05932e-05 5.85917e-06 -0.000138767
0.00342479 -0.000104877 0.000115872
-0.000104877 0.00174125 5.51501e-06
0.000115872 5.51501e-06 0.00174487
0.00559608 7.06136e-05 3.60815e-06
7.06136e-05 0.00300302 -1.44239e-06
3.60815e-06 -1.44239e-06 0.00301518
0.00353881 6.65845e-05 -9.35761e-05
6.65845e-05 0.00177107 -3.55369e-06
-9.35761e-05 -3.55369e-06 0.00175758
0.00549221 6.02165e-05 0.000241748
6.02165e-05 0.00294347 2.98378e-06
0.000241748 2.98378e-06 0.00295568
0.0013012 7.56678e-05 4.42718e-05
7.56678e-05 0.000434462 2.51709e-06
4.42718e-05 2.51709e-06 0.000400503
0.000648611 9.42553e-06 1.6168e-05
9.42553e-06 -7.70159e-05 1.68521e-06
1.6168e-05 1.68521e-06 -0.000151671
0.00549464 0.000196603 0.000127427
0.000196603 0.00296738 1.13145e-05
0.000127427 1.13145e-05 0.00294458
0.00270955 6.07924e-05 0.000118911
6.07924e-05 0.00115376 7.07577e-06
0.000118911 7.07577e-06 0.00110098
0.00124139 -7.43221e-05 -5.48805e-05
-7.43221e-05 0.00041219 6.80633e-06
-5.48805e-05 6.80633e-06 0.000370521
0.00129187 -7.27711e-05 -4.74373e-05
-7.27711e-05 0.000445178 7.45528e-06
-4.74373e-05 7.45528e-06 0.000405209
0.00144998 1.77847e-05 -2.36512e-05
1.77847e-05 0.000546156 6.09729e-06
-2.36512e-05 6.09729e-06 0.000503502
0.00164009 -0.000134153 -0.000106033
-0.000134153 0.000554566 1.74899e-05
-0.000106033 1.74899e-05 0.000482198
0.00350896 5.8681e-06 -9.86836e-05
5.8681e-06 0.00175992 -1.9423e-06
-9.86836e-05 -1.9423e-06 0.00174433
0.00160046 -5.01977e-05 7.35786e-05
-5.01977e-05 0.000606267 -3.24712e-06
7.35786e-05 -3.24712e-06 0.000579942
0.00151698 2.15647e-06 9.85546e-05
2.15647e-06 0.000587514 -9.00203e-06
9.85546e-05 -9.00203e-06 0.000551021
0.00160461 -6.11053e-05 7.17076e-05
-6.11053e-05 0.000613246 -6.58259e-06
7.17076e-05 -6.58259e-06 0.000586382
0.00162138 -9.13988e-05 -2.64945e-05
-9.13988e-05 0.000525089 1.30777e-06
-2.64945e-05 1.30777e-06 0.000453601
0.00159211 -0.000119533 -3.83445e-05
-0.000119533 0.000546018 3.77517e-06
-3.83445e-05 3.77517e-06 0.000460285
0.00161623 -0.000121781 -2.80856e-05
-0.000121781 0.000536055 2.64241e-06
-2.80856e-05 2.64241e-06 0.000460485
0.00200609 -0.000229888 -7.51943e-06
-0.000229888 0.000637783 2.02438e-06
-7.51943e-06 2.02438e-06 0.000485177
0.00546638 3.51241e-05 0.000236297
3.51241e-05 0.00292723 -3.39805e-07
0.000236297 -3.39805e-07 0.00294031
0.00185111 -2.43979e-05 0.000195473
-2.43979e-05 0.000747999 -8.93371e-06
0.000195473 -8.93371e-06 0.00073386
0.00242363 1.37367e-05 3.85291e-05
1.37367e-05 0.0010006 -9.45905e-07
3.85291e-05 -9.45905e-07 0.000938966
0.00156297 -8.96206e-05 4.75809e-05
-8.96206e-05 0.000489453 -5.57385e-06
4.75809e-05 -5.57385e-06 0.000414827
0.00156219 -0.000106515 4.94758e-05
-0.000106515 0.000498677 -9.12093e-06
4.94758e-05 -9.12093e-06 0.000419652
0.00189946 -0.000144387 1.1602e-05
-0.000144387 0.000520003 -3.07145e-06
1.1602e-05 -3.07145e-06 0.000389264
0.00169 -0.000190618 1.60544e-05
-0.000190618 0.000425978 -5.77922e-06
1.60544e-05 -5.77922e-06 0.000281207
0.00126008 -3.66336e-05 0.000159766
-3.66336e-05 0.000411737 -1.79072e-05
0.000159766 -1.79072e-05 0.000398283
0.00137268 -3.08581e-05 1.64421e-05
-3.08581e-05 0.000451837 -1.1381e-05
1.64421e-05 -1.1381e-05 0.000354383
0.00198128 -0.000249117 1.36455e-05
-0.000249117 0.000654115 -7.26523e-06
1.36455e-05 -7.26523e-06 0.000491586
0.00130712 -0.000244788 7.60204e-06
-0.000244788 9.5505e-05 -2.32213e-06
7.60204e-06 -2.32213e-06 -9.44191e-05
0.00586799 0.000166309 -0.000252216
0.000166309 0.00316778 -2.23505e-05
-0.000252216 -2.23505e-05 0.00317093
0.00511691 -0.000168905 -0.000153224
-0.000168905 0.0027644 -1.02039e-05
-0.000153224 -1.02039e-05 0.00274724
0.00563677 -1.62149e-05 -0.000213134
-1.62149e-05 0.0030372 -1.50014e-05
-0.000213134 -1.50014e-05 0.00304071
0.000524013 0.000184749 -2.43589e-05
0.000184749 -7.7273e-05 -1.54499e-05
-2.43589e-05 -1.54499e-05 -0.000176397
0.00587173 0.00017711 -2.86658e-06
0.00017711 0.00316891 -1.95604e-06
-2.86658e-06 -1.95604e-06 0.00317227
0.0058873 0.000100532 -8.79491e-06
0.000100532 0.00318005 -1.55869e-06
-8.79491e-06 -1.55869e-06 0.00318335
0.000505163 0.000123179 -8.40274e-08
0.000123179 -0.000132441 -2.24447e-07
-8.40274e-08 -2.24447e-07 -0.000223473
0.00281928 -0.000135686 -6.30287e-05
-0.000135686 0.00139485 -2.89701e-06
-6.30287e-05 -2.89701e-06 0.00136314
0.000507645 0.000185222 -4.24191e-07
0.000185222 -9.42777e-05 -3.92185e-07
-4.24191e-07 -3.92185e-07 -0.000194156
0.00159767 0.000151003 4.10325e-05
0.000151003 0.000572174 1.2839e-06
4.10325e-05 1.2839e-06 0.000492875
0.000869722 0.000184399 -4.13825e-08
0.000184399 2.5686e-05 3.14735e-07
-4.13825e-08 3.14735e-07 -0.000142837
0.00410607 -0.00011228 0.000144498
-0.00011228 0.00214898 8.74271e-06
0.000144498 8.74271e-06 0.00214873
0.000659007 -1.8326e-05 5.61408e-06
-1.8326e-05 6.43466e-05 9.21132e-06
5.61408e-06 9.21132e-06 1.96086e-05
0.000617452 9.30598e-05 1.68372e-05
9.30598e-05 -8.57621e-05 8.90475e-06
1.68372e-05 8.90475e-06 -0.000171984
0.000658118 0.000148984 2.17733e-05
0.000148984 -2.82503e-05 1.54192e-05
2.17733e-05 1.54192e-05 -0.000125258
0.000993445 0.000158208 1.38424e-05
0.000158208 -5.09852e-06 5.47886e-06
1.38424e-05 5.47886e-06 -0.000158322
0.00258977 8.64824e-05 9.37579e-05
8.64824e-05 0.00118775 1.25203e-05
9.37579e-05 1.25203e-05 0.00113007
0.000920259 0.000181135 1.20014e-05
0.000181135 2.33051e-05 6.62587e-06
1.20014e-05 6.62587e-06 -0.000139556
0.000845636 0.000195581 1.04331e-05
0.000195581 8.00754e-05 5.22359e-06
1.04331e-05 5.22359e-06 -9.97542e-05
0.0011072 0.000240304 5.34397e-06
0.000240304 0.000101592 1.77582e-06
5.34397e-06 1.77582e-06 -0.000105905
0.00285933 -0.00012072 6.6824e-05
-0.00012072 0.00140139 2.4553e-06
6.6824e-05 2.4553e-06 0.00140136
0.00320864 -0.000139158 1.23907e-05
-0.000139158 0.00161783 -2.8328e-07
1.23907e-05 -2.8328e-07 0.00161271
0.00579513 3.00352e-05 -0.000244766
3.00352e-05 0.00311414 -1.05198e-05
-0.000244766 -1.05198e-05 0.00312502
0.00565744 6.087e-05 -0.00024746
6.087e-05 0.00303683 -6.39737e-06
-0.00024746 -6.39737e-06 0.00304986
0.00556794 8.41795e-05 -1.39459e-07
8.41795e-05 0.00299457 -2.85056e-06
-1.39459e-07 -2.85056e-06 0.00300281
0.00348733 1.66043e-05 -0.000107146
1.66043e-05 0.00173863 -4.52239e-06
-0.000107146 -4.52239e-06 0.00172879
0.00164756 3.37844e-05 5.09878e-05
3.37844e-05 0.000521866 1.07022e-06
5.09878e-05 1.07022e-06 0.000460007
0.00362871 0.000115275 -9.54535e-05
0.000115275 0.00182891 -4.91763e-06
-9.54535e-05 -4.91763e-06 0.00181048
0.00168589 7.95818e-05 5.04583e-05
7.95818e-05 0.000545492 2.05731e-06
5.04583e-05 2.05731e-06 0.00047787
0.00553947 0.000137726 0.000244585
0.000137726 0.00298755 6.1262e-06
0.000244585 6.1262e-06 0.00298976
0.000573065 1.05218e-05 1.86371e-05
1.05218e-05 -0.000118461 5.73908e-07
1.86371e-05 5.73908e-07 -0.000191201
0.00272565 2.76988e-05 0.000118791
2.76988e-05 0.00116271 4.73095e-06
0.000118791 4.73095e-06 0.00111323
0.00102478 3.84106e-05 1.24631e-05
3.84106e-05 -1.97193e-05 1.20558e-06
1.24631e-05 1.20558e-06 -0.000143503
0.00263202 0.000103119 0.000121428
0.000103119 0.00111504 9.08709e-06
0.000121428 9.08709e-06 0.00105799
0.00105072 9.091e-05 1.21828e-05
9.091e-05 -7.63806e-06 2.52032e-06
1.21828e-05 2.52032e-06 -0.000141436
0.00167872 4.25138e-05 -0.000200201
4.25138e-05 0.000641058 1.85293e-06
-0.000200201 1.85293e-06 0.000635326
0.00128106 -1.89251e-06 -4.1864e-05
-1.89251e-06 0.000427109 1.84011e-06
-4.1864e-05 1.84011e-06 0.000389224
0.00142904 6.02569e-05 -1.46041e-05
6.02569e-05 0.000543325 6.50469e-06
-1.46041e-05 6.50469e-06 0.000495916
0.00124665 -8.08353e-05 -5.55393e-05
-8.08353e-05 0.000417319 7.86364e-06
-5.55393e-05 7.86364e-06 0.000376348
0.00173802 -7.13305e-05 -0.000104224
-7.13305e-05 0.000586554 9.11129e-06
-0.000104224 9.11129e-06 0.000523338
0.0016901 -0.000114043 -0.000104073
-0.000114043 0.000572708 1.50736e-05
-0.000104073 1.50736e-05 0.00050498
0.00159883 -0.000141236 -0.000107896
-0.000141236 0.000541161 1.8371e-05
-0.000107896 1.8371e-05 0.000464152
0.00201715 -0.00022973 -2.81579e-05
-0.00022973 0.000642135 9.92272e-06
-2.81579e-05 9.92272e-06 0.000489776
0.00555684 -8.75048e-05 2.0438e-06
-8.75048e-05 0.00298883 -1.5309e-06
2.0438e-06 -1.5309e-06 0.00299652
0.00153423 4.29161e-05 8.18219e-05
4.29161e-05 0.000565042 -3.19559e-06
8.18219e-05 -3.19559e-06 0.000542486
0.00113343 -2.75718e-06 -5.41148e-05
-2.75718e-06 0.000218884 1.07428e-06
-5.41148e-05 1.07428e-06 0.000155476
0.00162245 -5.53946e-05 -3.03197e-05
-5.53946e-05 0.000520089 1.83874e-06
-3.03197e-05 1.83874e-06 0.000451643
0.00327576 3.53429e-05 0.000171265
3.53429e-05 0.00164496 -4.94211e-06
0.000171265 -4.94211e-06 0.00163255
0.00203326 -0.000102368 -3.39917e-05
-0.000102368 0.000828675 1.16292e-06
-3.39917e-05 1.16292e-06 0.00074366
0.00162393 -0.000109054 -2.58439e-05
-0.000109054 0.000532271 1.78138e-06
-2.58439e-05 1.78138e-06 0.000459261
0.00183509 -0.000139317 -9.02485e-06
-0.000139317 0.000479051 1.60174e-06
-9.02485e-06 1.60174e-06 0.000348215
0.00199921 -0.000251376 -6.34752e-06
-0.000251376 0.000663212 1.82278e-06
-6.34752e-06 1.82278e-06 0.000500062
0.00185856 -0.000197733 -4.95487e-06
-0.000197733 0.000525946 1.25055e-06
-4.95487e-06 1.25055e-06 0.000381623
0.00131243 -0.000244996 2.94773e-07
-0.000244996 9.81108e-05 -1.23627e-07
2.94773e-07 -1.23627e-07 -9.14707e-05
0.000610477 1.28002e-05 1.92192e-05
1.28002e-05 -9.89423e-05 -1.11682e-06
1.92192e-05 -1.11682e-06 -0.000168537
0.00149783 1.3227e-05 3.86754e-05
1.3227e-05 0.00044558 -2.60086e-06
3.86754e-05 -2.60086e-06 0.000377127
0.00166166 -3.62419e-05 1.26491e-05
-3.62419e-05 0.000364998 -1.01271e-06
1.26491e-05 -1.01271e-06 0.000250503
0.00167134 -0.000108956 1.24841e-05
-0.000108956 0.000375138 -2.37893e-06
1.24841e-05 -2.37893e-06 0.000248692
0.00166974 -0.000163137 1.46049e-05
-0.000163137 0.00039156 -4.33473e-06
1.46049e-05 -4.33473e-06 0.000254064
0.00173104 -0.000182163 1.4267e-06
-0.000182163 0.000248688 -6.56405e-07
1.4267e-06 -6.56405e-07 9.46508e-05
0.00453279 0.000174682 0.000128231
0.000174682 0.00242702 -8.24596e-06
0.000128231 -8.24596e-06 0.00240845
0.00134658 -0.000227625 6.22993e-06
-0.000227625 8.42998e-05 -1.88336e-06
6.22993e-06 -1.88336e-06 -9.45151e-05
0.00033396 -0.000107852 1.77047e-05
-0.000107852 -0.000176858 -1.51362e-05
1.77047e-05 -1.51362e-05 -0.000253517
0.000846061 -0.000187488 1.06414e-05
-0.000187488 1.37338e-05 -6.97206e-06
1.06414e-05 -6.97206e-06 -0.000154672
0.0013533 -0.000267054 8.54944e-06
-0.000267054 0.000161617 -3.42598e-06
8.54944e-06 -3.42598e-06 -4.13107e-05
0.00159878 -0.000317408 3.38031e-06
-0.000317408 0.000151814 6.2141e-07
3.38031e-06 6.2141e-07 -4.99674e-05
0.000359494 -4.19906e-05 9.90277e-06
-4.19906e-05 -0.000122895 -1.21348e-05
9.90277e-06 -1.21348e-05 -0.000182741
0.000668625 -4.83386e-05 9.46919e-07
-4.83386e-05 7.07719e-05 -4.22928e-06
9.46919e-07 -4.22928e-06 -5.69035e-05
0.00588786 0.000194338 -0.000263202
0.000194338 0.00318326 -2.26861e-05
-0.000263202 -2.26861e-05 0.00318425
0.00576252 8.24944e-05 -0.000232717
8.24944e-05 0.00310415 -1.89384e-05
-0.000232717 -1.89384e-05 0.00311061
0.000502227 0.000117125 -1.84492e-05
0.000117125 -0.000136053 -1.06485e-05
-1.84492e-05 -1.06485e-05 -0.000226974
0.00442517 -0.000180525 -0.000124613
-0.000180525 0.00235905 -7.34077e-06
-0.000124613 -7.34077e-06 0.00234199
0.000438303 0.000135856 -2.0851e-05
0.000135856 -0.000124034 -1.50948e-05
-2.0851e-05 -1.50948e-05 -0.000205392
0.000464325 0.000169461 -2.03962e-05
0.000169461 -0.00011624 -1.47664e-05
-2.03962e-05 -1.47664e-05 -0.000217561
0.000884994 0.000184717 -1.22218e-05
0.000184717 3.11942e-05 -5.5134e-06
-1.22218e-05 -5.5134e-06 -0.000136959
0.00389723 -0.000136516 9.41532e-06
-0.000136516 0.00203146 -6.09839e-07
9.41532e-06 -6.09839e-07 0.00202655
0.000529527 -2.97897e-05 4.0417e-07
-2.97897e-05 -8.19055e-06 5.57223e-07
4.0417e-07 5.57223e-07 -5.30506e-05
0.0016597 0.000123089 5.09667e-05
0.000123089 0.000541406 3.54212e-06
5.09667e-05 3.54212e-06 0.000466045
0.00161627 0.000175279 4.97998e-05
0.000175279 0.000549218 3.37642e-06
4.97998e-05 3.37642e-06 0.000463383
0.000971704 0.000158043 7.39621e-08
0.000158043 -1.35746e-05 -2.13132e-07
7.39621e-08 -2.13132e-07 -0.000167291
0.000595566 8.21479e-05 -4.0143e-07
8.21479e-05 -6.2344e-06 4.45412e-08
-4.0143e-07 4.45412e-08 -7.50158e-05
0.000925715 0.000181924 7.06984e-07
0.000181924 2.75397e-05 5.24572e-08
7.06984e-07 5.24572e-08 -0.000135408
0.0008488 0.000185638 5.67016e-07
0.000185638 7.80174e-05 -1.40975e-06
5.67016e-07 -1.40975e-06 -9.97985e-05
0.00100625 0.000234414 -6.27612e-07
0.000234414 3.90396e-05 1.57644e-07
-6.27612e-07 1.57644e-07 -0.000167992
0.000681927 3.62676e-05 1.27068e-05
3.62676e-05 6.42436e-05 1.12549e-05
1.27068e-05 1.12549e-05 6.97845e-06
0.000617009 -5.34491e-05 1.25701e-06
-5.34491e-05 4.53059e-05 7.18471e-06
1.25701e-06 7.18471e-06 8.25166e-06
0.000925577 8.93214e-05 3.27237e-06
8.93214e-05 0.000239882 4.77117e-06
3.27237e-06 4.77117e-06 0.000114238
0.00102025 0.000137755 1.32419e-05
0.000137755 -1.02251e-05 4.3619e-06
1.32419e-05 4.3619e-06 -0.000157163
0.000935002 0.000172752 1.36091e-05
0.000172752 -7.29437e-06 6.26069e-06
1.36091e-05 6.26069e-06 -0.000166173
0.00139902 0.000242819 5.5988e-06
0.000242819 0.000106865 1.39771e-06
5.5988e-06 1.39771e-06 -7.99884e-05
0.000838477 0.000191677 7.72008e-06
0.000191677 0.000142544 7.281e-06
7.72008e-06 7.281e-06 -3.38367e-05
0.00104794 0.000239806 5.28582e-06
0.000239806 1.18914e-05 1.87713e-06
5.28582e-06 1.87713e-06 -0.000188218
0.00131318 0.000268309 6.25625e-06
0.000268309 0.000278642 1.10489e-06
6.25625e-06 1.10489e-06 5.0219e-05
0.00140451 0.000292285 -7.70487e-07
0.000292285 0.000221226 -7.09919e-07
-7.70487e-07 -7.09919e-07 -3.52732e-06
0.00257203 -0.000122342 3.47068e-05
-0.000122342 0.00122547 2.97507e-06
3.47068e-05 2.97507e-06 0.00122459
0.00274301 -0.000137367 8.56138e-06
-0.000137367 0.00133545 -7.04449e-07
8.56138e-06 -7.04449e-07 0.00133046
0.00300558 -0.000157354 -4.9721e-05
-0.000157354 0.0015008 -2.50161e-06
-4.9721e-05 -2.50161e-06 0.00149013
0.000384092 -2.06545e-05 7.30646e-06
-2.06545e-05 -0.000101331 -9.84916e-06
7.30646e-06 -9.84916e-06 -0.000152837
0.00401519 0.000150296 0.000110914
0.000150296 0.00211033 -6.44994e-06
0.000110914 -6.44994e-06 0.00209899
0.00588127 0.000178919 -0.000265855
0.000178919 0.00317775 -1.97952e-05
-0.000265855 -1.97952e-05 0.00318087
0.00567209 6.89249e-05 -0.000245143
6.89249e-05 0.00304356 -8.88708e-06
-0.000245143 -8.88708e-06 0.00305582
0.000588302 9.04197e-05 -1.97022e-05
9.04197e-05 -0.000110067 -4.84791e-06
-1.97022e-05 -4.84791e-06 -0.000189219
0.000572049 4.05896e-05 -1.92835e-05
4.05896e-05 -0.000117683 -2.35721e-06
-1.92835e-05 -2.35721e-06 -0.000193193
0.00550476 -1.28696e-05 -0.000237119
-1.28696e-05 0.00294754 -1.56262e-06
-0.000237119 -1.56262e-06 0.0029615
0.00547712 1.69344e-05 -5.98715e-07
1.69344e-05 0.00293226 -5.14487e-07
-5.98715e-07 -5.14487e-07 0.00294594
0.000554677 8.42529e-07 -1.43274e-07
8.42529e-07 -0.000131771 -1.32584e-08
-1.43274e-07 -1.32584e-08 -0.000202808
0.00163291 3.26164e-05 5.09647e-05
3.26164e-05 0.000510844 1.85034e-06
5.09647e-05 1.85034e-06 0.000448307
0.00100011 4.20831e-05 -1.33786e-08
4.20831e-05 -3.50511e-05 -1.30234e-07
-1.33786e-08 -1.30234e-07 -0.000159285
0.000556258 7.57517e-05 -4.07091e-07
7.57517e-05 -0.00012496 -3.06901e-07
-4.07091e-07 -3.06901e-07 -0.00020812
0.00100975 9.22928e-05 -1.25792e-07
9.22928e-05 -3.12399e-05 -1.33576e-07
-1.25792e-07 -1.33576e-07 -0.000165669
0.000548109 -2.81093e-05 1.914e-05
-2.81093e-05 -0.000137706 -8.63348e-07
1.914e-05 -8.63348e-07 -0.000206399
0.00100146 1.64333e-05 1.22637e-05
1.64333e-05 -2.934e-05 5.54967e-07
1.22637e-05 5.54967e-07 -0.000150995
0.00102059 6.4571e-05 1.21724e-05
6.4571e-05 -2.46237e-05 1.90617e-06
1.21724e-05 1.90617e-06 -0.00015268
0.00150264 6.57815e-05 1.12911e-06
6.57815e-05 6.10021e-05 1.22383e-07
1.12911e-06 1.22383e-07 -6.54227e-05
0.00104882 0.000114647 1.25869e-05
0.000114647 -4.77198e-06 3.29488e-06
1.25869e-05 3.29488e-06 -0.000144976
0.00153377 0.000144433 2.20067e-06
0.000144433 8.76492e-05 1.45929e-07
2.20067e-06 1.45929e-07 -5.70053e-05
0.00548249 -4.76105e-05 -0.000243452
-4.76105e-05 0.00293886 8.6115e-07
-0.000243452 8.6115e-07 0.00295053
0.00125758 -0.000138191 -4.41335e-05
-0.000138191 0.000418731 4.64705e-06
-4.41335e-05 4.64705e-06 0.000380547
-0.000271097 -2.20534e-06 -1.2832e-05
-2.20534e-06 -0.000618508 2.12119e-06
-1.2832e-05 2.12119e-06 -0.000702009
0.0017153 -4.93152e-05 -0.000104265
-4.93152e-05 0.000570286 6.53636e-06
-0.000104265 6.53636e-06 0.000508499
0.00497163 0.000359431 1.49956e-05
0.000359431 0.0027425 7.84101e-06
1.49956e-05 7.84101e-06 0.00266924
0.00270098 -0.000189518 -0.000108781
-0.000189518 0.00121718 1.82817e-05
-0.000108781 1.82817e-05 0.00113915
0.00172642 -9.30187e-05 -0.000103918
-9.30187e-05 0.000584935 1.2068e-05
-0.000103918 1.2068e-05 0.000520295
0.00174401 -0.000133146 -2.78053e-05
-0.000133146 0.000421876 5.47371e-06
-2.78053e-05 5.47371e-06 0.000291175
0.00200994 -0.000203772 -2.65824e-05
-0.000203772 0.000615533 8.30753e-06
-2.65824e-05 8.30753e-06 0.000471956
0.00204827 -0.000255522 -2.55718e-05
-0.000255522 0.000691857 1.05322e-05
-2.55718e-05 1.05322e-05 0.00052775
0.00132145 -0.000245488 -6.27692e-06
-0.000245488 0.00010293 1.90845e-06
-6.27692e-06 1.90845e-06 -8.63619e-05
0.000550724 7.07011e-06 -5.76648e-08
7.07011e-06 -0.000132663 1.33231e-07
-5.76648e-08 1.33231e-07 -0.000203207
0.00162248 -6.89889e-05 -2.95561e-05
-6.89889e-05 0.000520328 3.27874e-07
-2.95561e-05 3.27874e-07 0.000454786
0.00124244 -3.1649e-05 -7.58538e-06
-3.1649e-05 0.000115128 4.08566e-07
-7.58538e-06 4.08566e-07 -3.81922e-06
0.00182534 -0.000110378 -5.82303e-06
-0.000110378 0.000465664 8.86789e-07
-5.82303e-06 8.86789e-07 0.000340329
0.00468031 0.000161312 -7.86329e-06
0.000161312 0.00251136 -1.15347e-06
-7.86329e-06 -1.15347e-06 0.00249511
0.00154425 -9.64032e-05 -1.89785e-06
-9.64032e-05 0.000560353 -1.83e-08
-1.89785e-06 -1.83e-08 0.000470801
0.00132967 -0.000216266 1.51662e-06
-0.000216266 0.000310404 -7.71455e-07
1.51662e-06 -7.71455e-07 0.000141096
0.00170271 -0.000163713 -6.0968e-06
-0.000163713 0.000411128 1.3833e-06
-6.0968e-06 1.3833e-06 0.000273477
0.00162536 -0.000180117 -2.23107e-06
-0.000180117 0.000183429 4.16703e-07
-2.23107e-06 4.16703e-07 3.05441e-05
0.00126479 -0.000262239 1.84281e-07
-0.000262239 0.0001112 -1.43317e-07
1.84281e-07 -1.43317e-07 -9.16934e-05
0.00152757 -0.000235525 3.86676e-07
-0.000235525 0.000191233 -1.31612e-07
3.86676e-07 -1.31612e-07 1.33809e-05
0.0016317 -0.00031788 6.62585e-07
-0.00031788 0.000176051 -1.19023e-08
6.62585e-07 -1.19023e-08 -2.50669e-05
0.000516016 -4.91556e-05 -1.08329e-06
-4.91556e-05 -3.39384e-05 1.68386e-07
-1.08329e-06 1.68386e-07 -9.46431e-05
0.00065554 -7.16157e-05 -6.40323e-08
-7.16157e-05 6.25148e-05 2.65421e-07
-6.40323e-08 2.65421e-07 -6.78756e-05
0.000986388 -1.52212e-05 1.2231e-05
-1.52212e-05 -3.31944e-05 -8.08804e-07
1.2231e-05 -8.08804e-07 -0.000154324
0.00169951 -6.77321e-05 1.18684e-05
-6.77321e-05 0.000387302 -1.6273e-06
1.18684e-05 -1.6273e-06 0.000268361
0.00168467 -5.90291e-05 3.61645e-07
-5.90291e-05 0.000189204 9.151e-08
3.61645e-07 9.151e-08 6.30789e-05
0.00152994 -0.000143223 2.39668e-06
-0.000143223 0.000110992 -1.44681e-07
2.39668e-06 -1.44681e-07 -3.03783e-05
0.001688 -0.000220066 3.2267e-06
-0.000220066 0.00025337 -7.89632e-07
3.2267e-06 -7.89632e-07 8.92384e-05
0.00179336 -0.000221221 -4.1521e-07
-0.000221221 0.000154414 4.76106e-07
-4.1521e-07 4.76106e-07 1.23458e-05
0.000352608 -8.10828e-05 1.51354e-05
-8.10828e-05 -0.00014421 -1.39153e-05
1.51354e-05 -1.39153e-05 -0.000212287
0.00166388 -0.000292198 1.46919e-06
-0.000292198 0.000152853 6.96447e-07
1.46919e-06 6.96447e-07 -2.65392e-05
0.000709378 -0.000170882 6.41376e-06
-0.000170882 1.25641e-05 -7.54363e-06
6.41376e-06 -7.54363e-06 -0.000161138
0.000984742 -0.000250475 9.79864e-06
-0.000250475 6.0049e-06 -3.49764e-06
9.79864e-06 -3.49764e-06 -0.000206037
0.00178856 -0.00035857 3.1287e-06
-0.00035857 0.000317271 -6.22986e-08
3.1287e-06 -6.22986e-08 8.92663e-05
0.00194946 -0.00035326 -1.65448e-06
-0.00035326 0.000307816 3.25243e-06
-1.65448e-06 3.25243e-06 0.000122103
0.000748317 -0.00012006 1.72872e-06
-0.00012006 0.000119961 -5.55527e-06
1.72872e-06 -5.55527e-06 -3.42154e-05
0.000655227 -3.51279e-05 6.3244e-07
-3.51279e-05 6.48054e-05 -3.80713e-06
6.3244e-07 -3.80713e-06 -4.57112e-05
0.00105663 -0.000176532 -4.13726e-07
-0.000176532 0.000320427 6.72706e-07
-4.13726e-07 6.72706e-07 0.000124654
0.000532198 9.62331e-05 -1.77909e-05
9.62331e-05 -0.000131583 -8.2244e-06
-1.77909e-05 -8.2244e-06 -0.000218417
0.00364884 -0.000164158 -8.82522e-05
-0.000164158 0.00188876 -3.52629e-06
-8.82522e-05 -3.52629e-06 0.00187687
0.000376754 -4.18851e-05 -3.51892e-07
-4.18851e-05 -9.34079e-05 -8.48251e-06
-3.51892e-07 -8.48251e-06 -0.000139445
0.000482372 0.000145376 -1.95389e-05
0.000145376 -0.000126313 -1.34027e-05
-1.95389e-05 -1.34027e-05 -0.000223238
0.000950828 0.000158096 -1.44034e-05
0.000158096 -2.1598e-05 -5.87249e-06
-1.44034e-05 -5.87249e-06 -0.00017582
0.000366304 7.53053e-05 -1.65682e-05
7.53053e-05 -0.000142195 -1.31031e-05
-1.65682e-05 -1.31031e-05 -0.00020778
0.000768187 0.000173061 -8.27291e-06
0.000173061 2.76154e-05 -7.42665e-06
-8.27291e-06 -7.42665e-06 -0.000148235
0.000937311 0.000183017 -1.1882e-05
0.000183017 3.53075e-05 -6.96221e-06
-1.1882e-05 -6.96221e-06 -0.000127769
0.000851917 0.000223978 -7.04377e-06
0.000223978 -5.51076e-05 -1.20559e-06
-7.04377e-06 -1.20559e-06 -0.000260982
0.000535632 2.56468e-05 2.29245e-06
2.56468e-05 -2.1023e-05 4.20723e-07
2.29245e-06 4.20723e-07 -7.61225e-05
0.000499122 -6.29448e-05 3.51585e-07
-6.29448e-05 -2.13685e-05 2.53422e-07
3.51585e-07 2.53422e-07 -5.98966e-05
0.000608955 3.47603e-05 5.04524e-07
3.47603e-05 3.98117e-05 6.11659e-07
5.04524e-07 6.11659e-07 -7.3084e-05
0.00099873 0.00013839 7.50661e-09
0.00013839 -1.97594e-05 -2.66556e-07
7.50661e-09 -2.66556e-07 -0.000167405
0.000951687 0.000174436 4.09835e-07
0.000174436 5.73985e-06 -2.19271e-07
4.09835e-07 -2.19271e-07 -0.000153599
0.00140553 0.000243247 1.58763e-07
0.000243247 0.000111121 -1.80984e-08
1.58763e-07 -1.80984e-08 -7.60968e-05
0.000797944 0.0001742 -5.21452e-07
0.0001742 0.000119585 6.74493e-08
-5.21452e-07 6.74493e-08 -5.44485e-05
0.00118313 0.000246845 3.54712e-07
0.000246845 9.49034e-05 2.6107e-09
3.54712e-07 2.6107e-09 -0.000105745
0.00111705 0.00025134 5.21022e-07
0.00025134 0.000162334 -1.47254e-06
5.21022e-07 -1.47254e-06 -6.33315e-05
0.00128594 0.000291174 -6.47523e-07
0.000291174 0.000145514 8.12287e-08
-6.47523e-07 8.12287e-08 -8.03651e-05
0.000544443 -6.78605e-05 -1.95838e-06
-6.78605e-05 -2.11156e-06 6.14861e-06
-1.95838e-06 6.14861e-06 -3.43174e-05
0.000785181 0.000130208 5.36322e-06
0.000130208 0.000134084 5.07628e-06
5.36322e-06 5.07628e-06 -1.63914e-05
0.000697423 9.85745e-06 1.81727e-06
9.85745e-06 8.75436e-05 4.17219e-06
1.81727e-06 4.17219e-06 9.49239e-07
0.00101901 0.000117943 1.55634e-06
0.000117943 0.000321436 -1.46823e-07
1.55634e-06 -1.46823e-07 0.000141652
0.00147705 0.000216834 4.22472e-06
0.000216834 0.000105972 3.95795e-07
4.22472e-06 3.95795e-07 -6.65715e-05
0.00127733 0.000253454 6.17014e-06
0.000253454 8.70469e-05 1.99168e-06
6.17014e-06 1.99168e-06 -0.000109895
0.0017634 0.000320014 1.28357e-06
0.000320014 0.000208543 -9.95724e-08
1.28357e-06 -9.95724e-08 1.54976e-05
0.00130372 0.000244017 3.94948e-06
0.000244017 0.000358949 3.67051e-06
3.94948e-06 3.67051e-06 0.000141485
0.00170373 0.000354337 -1.03615e-06
0.000354337 0.000320021 -6.27633e-07
-1.03615e-06 -6.27633e-07 9.50074e-05
0.00127382 0.000290747 1.25755e-06
0.000290747 0.000191979 -7.62637e-07
1.25755e-06 -7.62637e-07 -6.06021e-05
0.00148245 0.000325697 9.07212e-07
0.000325697 0.000168956 7.91278e-08
9.07212e-07 7.91278e-08 -6.35334e-05
0.000612328 1.12173e-05 2.49051e-06
1.12173e-05 1.87043e-05 2.44713e-06
2.49051e-06 2.44713e-06 -3.34465e-05
0.000527529 -4.33449e-05 7.57722e-07
-4.33449e-05 -3.90751e-05 4.78236e-06
7.57722e-07 4.78236e-06 -5.96881e-05
0.00243839 -0.000106146 2.86098e-05
-0.000106146 0.00113671 3.30951e-06
2.86098e-05 3.30951e-06 0.00113991
0.00250549 -0.000120148 3.67643e-06
-0.000120148 0.00118532 -3.93113e-07
3.67643e-06 -3.93113e-07 0.00118481
0.0026392 -0.000137058 -3.58953e-05
-0.000137058 0.00127389 -2.7694e-06
-3.58953e-05 -2.7694e-06 0.00126866
0.000434808 -9.83725e-06 5.64843e-06
-9.83725e-06 -7.19438e-05 -8.34608e-06
5.64843e-06 -8.34608e-06 -0.000114779
0.00354678 0.000132649 9.39459e-05
0.000132649 0.00182278 -4.98814e-06
9.39459e-05 -4.98814e-06 0.0018167
0.000519185 -2.31182e-05 -2.79522e-07
-2.31182e-05 -2.37228e-05 3.21453e-07
-2.79522e-07 3.21453e-07 -7.58212e-05
0.00417976 0.000137493 -6.35481e-06
0.000137493 0.00220418 -8.98114e-07
-6.35481e-06 -8.98114e-07 0.00219586
0.000582243 0.00010008 -1.92568e-05
0.00010008 -0.000107698 -6.48112e-06
-1.92568e-05 -6.48112e-06 -0.000192354
0.000591302 3.31466e-05 -1.84641e-05
3.31466e-05 -0.000110414 -3.28026e-06
-1.84641e-05 -3.28026e-06 -0.000186216
0.000986835 9.35412e-05 -1.20699e-05
9.35412e-05 -4.51707e-05 -2.7785e-06
-1.20699e-05 -2.7785e-06 -0.000180107
0.000974816 4.40706e-05 -1.23363e-05
4.40706e-05 -5.07819e-05 -1.43575e-06
-1.23363e-05 -1.43575e-06 -0.000175324
0.00060608 -6.76251e-06 -1.93449e-05
-6.76251e-06 -0.00010477 -7.45209e-07
-1.93449e-05 -7.45209e-07 -0.000173796
0.00555554 -9.46646e-05 -0.000250289
-9.46646e-05 0.00298786 3.85406e-06
-0.000250289 3.85406e-06 0.00299662
0.000593009 -6.53208e-07 1.3072e-07
-6.53208e-07 -0.000111583 -5.27658e-07
1.3072e-07 -5.27658e-07 -0.000180351
0.000990878 2.12869e-05 -4.459e-08
2.12869e-05 -3.60493e-05 -6.26866e-08
-4.459e-08 -6.26866e-08 -0.000157929
0.00101023 6.63361e-05 -9.26579e-08
6.63361e-05 -3.1789e-05 -1.02735e-07
-9.26579e-08 -1.02735e-07 -0.000160257
0.00149571 6.46855e-05 -6.02796e-08
6.46855e-05 5.88787e-05 1.06839e-07
-6.02796e-08 1.06839e-07 -6.76445e-05
0.00101411 0.000116147 -1.50748e-07
0.000116147 -2.37173e-05 -2.27437e-07
-1.50748e-07 -2.27437e-07 -0.000164798
0.00151619 0.000144719 -6.74084e-08
0.000144719 7.73839e-05 1.54717e-08
-6.74084e-08 1.54717e-08 -6.78153e-05
0.000985704 -8.98481e-07 1.22336e-05
-8.98481e-07 -3.42761e-05 -3.29983e-07
1.22336e-05 -3.29983e-07 -0.000155357
0.00148687 3.39464e-05 1.32797e-06
3.39464e-05 5.67647e-05 1.28894e-07
1.32797e-06 1.28894e-07 -6.5802e-05
0.00151178 0.000104111 1.27239e-06
0.000104111 6.7339e-05 1.48955e-08
1.27239e-06 1.48955e-08 -6.66538e-05
0.00182077 9.27301e-05 -2.0207e-06
9.27301e-05 0.000103246 -2.80403e-07
-2.0207e-06 -2.80403e-07 5.47435e-06
0.00152697 0.000184268 3.18718e-06
0.000184268 9.94378e-05 3.13243e-07
3.18718e-06 3.13243e-07 -5.86497e-05
0.00182096 0.000188269 -2.61898e-07
0.000188269 0.000126359 -1.42905e-06
-2.61898e-07 -1.42905e-06 1.44095e-07
0.000574922 5.23881e-07 -1.85182e-05
5.23881e-07 -0.000116092 1.12304e-06
-1.85182e-05 1.12304e-06 -0.000188417
0.00170438 -2.68244e-05 -0.000103682
-2.68244e-05 0.000563358 4.3042e-06
-0.000103682 4.3042e-06 0.000504282
0.000793955 -2.58136e-05 -1.4906e-05
-2.58136e-05 -0.000151628 1.72454e-06
-1.4906e-05 1.72454e-06 -0.000275264
0.00196191 -0.00011055 -2.47714e-05
-0.00011055 0.00054543 3.95179e-06
-2.47714e-05 3.95179e-06 0.00042139
0.00490832 0.0001342 -0.000163446
0.0001342 0.00263996 1.19638e-05
-0.000163446 1.19638e-05 0.00262859
0.00273943 -0.000145459 -0.000105318
-0.000145459 0.00126349 1.44195e-05
-0.000105318 1.44195e-05 0.00119357
0.00195632 -0.000261259 -2.05673e-05
-0.000261259 0.000688935 9.07225e-06
-2.05673e-05 9.07225e-06 0.000516071
0.00171594 -0.000162995 -2.62969e-05
-0.000162995 0.000418584 6.77149e-06
-2.62969e-05 6.77149e-06 0.000281091
0.00151596 -0.000177927 -5.3952e-06
-0.000177927 0.0001157 9.72223e-07
-5.3952e-06 9.72223e-07 -3.60201e-05
0.0017086 -0.000243506 -6.52995e-06
-0.000243506 0.000298454 1.99934e-06
-6.52995e-06 1.99934e-06 0.000121541
0.00118635 -0.000258575 -7.32433e-06
-0.000258575 6.65516e-05 2.30108e-06
-7.32433e-06 2.30108e-06 -0.00013651
0.00166386 -0.000318607 -1.79631e-06
-0.000318607 0.000198847 -7.34734e-07
-1.79631e-06 -7.34734e-07 -1.68089e-06
0.000641742 -5.91593e-05 -1.28643e-05
-5.91593e-05 3.89762e-05 1.24279e-05
-1.28643e-05 1.24279e-05 -2.37773e-05
0.000721473 -9.82473e-05 -1.33767e-06
-9.82473e-05 0.000104754 3.68358e-06
-1.33767e-06 3.68358e-06 -3.04041e-05
0.000882508 -1.03632e-05 -2.05546e-07
-1.03632e-05 -9.5753e-05 -9.64958e-09
-2.05546e-07 -9.64958e-09 -0.000217128
0.00170818 -6.88865e-05 -6.28887e-06
-6.88865e-05 0.00039121 6.70123e-07
-6.28887e-06 6.70123e-07 0.000272363
0.00172442 -5.53831e-05 -1.71594e-06
-5.53831e-05 0.000209459 2.53999e-07
-1.71594e-06 2.53999e-07 8.6499e-05
0.0015994 -0.000143899 -7.30262e-07
-0.000143899 0.000154048 2.77558e-07
-7.30262e-07 2.77558e-07 1.11421e-05
0.000509457 -9.15955e-05 1.45881e-07
-9.15955e-05 -5.19207e-05 3.88939e-07
1.45881e-07 3.88939e-07 -0.000123372
0.000848028 -0.00018698 -7.42986e-07
-0.00018698 9.26112e-05 -6.04924e-07
-7.42986e-07 -6.04924e-07 -8.26713e-05
0.00104709 -0.000255651 2.64809e-06
-0.000255651 4.30763e-05 -8.45689e-07
2.64809e-06 -8.45689e-07 -0.00016914
0.00170184 -0.000218601 -2.93258e-06
-0.000218601 0.000261235 7.61805e-07
-2.93258e-06 7.61805e-07 9.60015e-05
0.0018487 -0.000225638 9.62597e-07
-0.000225638 0.000181062 -2.49598e-07
9.62597e-07 -2.49598e-07 4.28102e-05
0.00180955 -0.000364986 -1.55965e-06
-0.000364986 0.000331955 2.35774e-07
-1.55965e-06 2.35774e-07 0.000102426
0.00168467 -0.000292897 5.17258e-07
-0.000292897 0.000166525 -2.03367e-08
5.17258e-07 -2.03367e-08 -1.25541e-05
0.00188557 -0.000351178 7.68378e-07
-0.000351178 0.000263 6.48108e-07
7.68378e-07 6.48108e-07 7.7209e-05
0.000730472 -0.000131677 -3.31296e-07
-0.000131677 0.000108005 -2.42446e-07
-3.31296e-07 -2.42446e-07 -4.7786e-05
0.000565757 -0.000112209 -4.64138e-07
-0.000112209 1.26461e-05 -5.85691e-07
-4.64138e-07 -5.85691e-07 -0.000166792
0.000677766 -4.90966e-05 -3.41477e-08
-4.90966e-05 7.74073e-05 7.45103e-08
-3.41477e-08 7.45103e-08 -3.52644e-05
0.00166725 -2.37157e-05 1.5014e-07
-2.37157e-05 0.000174258 4.66284e-08
1.5014e-07 4.66284e-08 5.20328e-05
0.00175402 -9.6659e-05 -9.0504e-08
-9.6659e-05 0.000229714 4.91287e-07
-9.0504e-08 4.91287e-07 0.000101358
0.00171889 -7.82985e-05 -1.79563e-06
-7.82985e-05 5.70995e-05 1.13278e-06
-1.79563e-06 1.13278e-06 -4.40909e-05
0.00178102 -0.000181524 -2.49215e-06
-0.000181524 0.000115581 1.279e-06
-2.49215e-06 1.279e-06 -8.6917e-06
0.00166119 -0.000264036 -1.53739e-07
-0.000264036 0.000114325 1.55318e-06
-1.53739e-07 1.55318e-06 -4.2524e-05
0.00187624 -0.000248655 -3.93113e-07
-0.000248655 0.000145068 8.28718e-07
-3.93113e-07 8.28718e-07 3.07027e-05
0.00075987 -0.000158168 3.96612e-06
-0.000158168 0.000102523 -6.28065e-06
3.96612e-06 -6.28065e-06 -6.66655e-05
0.00174826 -0.000319673 -1.71528e-06
-0.000319673 0.000135828 1.80169e-06
-1.71528e-06 1.80169e-06 -2.39386e-05
0.00103954 -0.000247666 4.56203e-06
-0.000247666 0.000131612 -5.47682e-06
4.56203e-06 -5.47682e-06 -8.56259e-05
0.00140395 -0.000357629 4.04348e-06
-0.000357629 0.000184515 -1.4227e-06
4.04348e-06 -1.4227e-06 -7.01803e-05
0.00191954 -0.000401068 1.40502e-06
-0.000401068 0.000337094 3.24233e-06
1.40502e-06 3.24233e-06 0.00010699
0.00203088 -0.0003737 -3.07358e-06
-0.0003737 0.000329047 3.56711e-06
-3.07358e-06 3.56711e-06 0.000157505
0.000632928 -3.3696e-05 5.9595e-07
-3.3696e-05 5.64185e-05 -3.80589e-06
5.9595e-07 -3.80589e-06 -4.11486e-05
0.000748613 -0.000169427 9.69902e-08
-0.000169427 9.02703e-05 -1.70715e-07
9.69902e-08 -1.70715e-07 -9.08476e-05
0.000520219 -9.68039e-05 -8.50561e-07
-9.68039e-05 1.79611e-05 1.33281e-06
-8.50561e-07 1.33281e-06 -0.000161892
0.00136106 -0.000239459 -3.24552e-06
-0.000239459 0.000462696 2.49472e-06
-3.24552e-06 2.49472e-06 0.000258023
0.00097337 0.000139173 -1.38496e-05
0.000139173 -3.17129e-05 -4.83168e-06
-1.38496e-05 -4.83168e-06 -0.000180088
0.000424662 -6.58034e-05 1.8439e-06
-6.58034e-05 -6.46898e-05 -6.95972e-06
1.8439e-06 -6.95972e-06 -0.000103323
0.000363253 6.40682e-06 -6.47614e-06
6.40682e-06 -0.000118358 -1.08868e-05
-6.47614e-06 -1.08868e-05 -0.000172603
0.000485086 -2.06331e-06 -1.88696e-07
-2.06331e-06 -3.17668e-05 -4.95124e-06
-1.88696e-07 -4.95124e-06 -0.00014162
0.000955356 0.00017558 -1.36573e-05
0.00017558 1.13992e-05 -6.78698e-06
-1.36573e-05 -6.78698e-06 -0.000148385
0.00141243 0.000243599 -5.42246e-06
0.000243599 0.000115732 -1.3905e-06
-5.42246e-06 -1.3905e-06 -7.18228e-05
0.00072864 0.000151994 -5.02524e-06
0.000151994 7.78675e-05 -5.27305e-06
-5.02524e-06 -5.27305e-06 -9.22131e-05
0.00104127 0.000244945 -6.08694e-06
0.000244945 0.000117766 -4.41836e-06
-6.08694e-06 -4.41836e-06 -0.00010644
0.00133783 0.000255472 -5.6715e-06
0.000255472 0.000189794 -2.35919e-06
-5.6715e-06 -2.35919e-06 -1.16469e-05
0.00114447 0.000287217 -3.54934e-06
0.000287217 5.78493e-05 -8.67666e-08
-3.54934e-06 -8.67666e-08 -0.000168609
0.000502674 -6.65687e-05 -3.4759e-07
-6.65687e-05 -2.8549e-05 2.40178e-07
-3.4759e-07 2.40178e-07 -5.99535e-05
0.00075959 0.000125077 3.19335e-07
0.000125077 0.000128552 -4.8467e-07
3.19335e-07 -4.8467e-07 -2.39145e-05
0.000619403 -1.01174e-05 -2.40032e-07
-1.01174e-05 4.36458e-05 6.25453e-07
-2.40032e-07 6.25453e-07 -4.18873e-05
0.000773273 9.67801e-05 1.23979e-06
9.67801e-05 0.000171896 -7.96356e-07
1.23979e-06 -7.96356e-07 -2.76053e-06
0.0014707 0.00021633 -1.07617e-07
0.00021633 0.000103066 -4.48925e-07
-1.07617e-07 -4.48925e-07 -6.97611e-05
0.00130929 0.000254542 3.0263e-07
0.000254542 0.000111071 2.71301e-09
3.0263e-07 2.71301e-09 -8.60708e-05
0.00173515 0.000318069 2.55319e-07
0.000318069 0.000191916 1.53451e-07
2.55319e-07 1.53451e-07 -1.09316e-06
0.00106091 0.000227329 1.43295e-06
0.000227329 0.00021694 2.28446e-07
1.43295e-06 2.28446e-07 2.10746e-06
0.00173271 0.000351309 -1.01297e-06
0.000351309 0.000338446 -1.30107e-07
-1.01297e-06 -1.30107e-07 0.000114157
0.00124724 0.000291292 2.4305e-09
0.000291292 0.000172107 -1.45609e-06
2.4305e-09 -1.45609e-06 -8.1514e-05
0.00155201 0.000330221 -3.64746e-06
0.000330221 0.00021081 7.77641e-07
-3.64746e-06 7.77641e-07 -2.09733e-05
0.000520447 -5.82169e-05 -6.80788e-07
-5.82169e-05 -3.16385e-05 5.28092e-06
-6.80788e-07 5.28092e-06 -5.71784e-05
0.000671722 -5.24697e-06 1.67513e-06
-5.24697e-06 6.3229e-05 3.62921e-06
1.67513e-06 3.62921e-06 -5.78216e-06
0.00105824 0.000198046 1.08757e-06
0.000198046 0.000287495 1.99274e-06
1.08757e-06 1.99274e-06 9.74608e-05
0.00116548 7.24163e-05 -7.76196e-07
7.24163e-05 0.000415935 2.45933e-06
-7.76196e-07 2.45933e-06 0.000262046
0.00114945 0.000185798 -6.33029e-07
0.000185798 0.000372112 -2.19678e-06
-6.33029e-07 -2.19678e-06 0.000177294
0.00180644 0.00028152 9.46082e-07
0.00028152 0.000185573 -1.52547e-06
9.46082e-07 -1.52547e-06 1.60162e-05
0.0016665 0.000346873 7.46778e-07
0.000346873 0.000219845 1.11798e-07
7.46778e-07 1.11798e-07 5.86173e-06
0.00184855 0.000354777 1.17741e-07
0.000354777 0.000222536 -1.73306e-07
1.17741e-07 -1.73306e-07 3.64115e-05
0.00117503 0.000283046 3.20757e-06
0.000283046 0.000228342 4.14214e-06
3.20757e-06 4.14214e-06 -2.16571e-05
0.00197367 0.000419835 8.02409e-07
0.000419835 0.000413243 -6.2176e-07
8.02409e-07 -6.2176e-07 0.000177528
0.000824035 0.000274862 4.78841e-06
0.000274862 -0.000141813 -1.39317e-06
4.78841e-06 -1.39317e-06 -0.000393923
0.000611096 5.97769e-06 2.77541e-06
5.97769e-06 1.81202e-05 2.4878e-06
2.77541e-06 2.4878e-06 -3.58954e-05
0.000677789 5.12697e-05 1.69277e-07
5.12697e-05 8.77957e-05 1.24473e-06
1.69277e-07 1.24473e-06 -1.83528e-06
0.000630432 2.14678e-05 2.28902e-06
2.14678e-05 3.36721e-05 2.46437e-06
2.28902e-06 2.46437e-06 -1.83802e-05
0.000596956 -1.35639e-05 -5.53554e-07
-1.35639e-05 1.17221e-05 -2.61002e-09
-5.53554e-07 -2.61002e-09 -4.14189e-05
0.00124329 -5.08765e-05 1.09434e-06
-5.08765e-05 0.000387183 2.75235e-06
1.09434e-06 2.75235e-06 0.000372576
0.000909688 -5.10839e-05 5.0231e-07
-5.10839e-05 0.000190933 -9.88431e-08
5.0231e-07 -9.88431e-08 0.000172241
0.000893995 -5.25778e-05 2.37552e-05
-5.25778e-05 0.000193368 7.5938e-06
2.37552e-05 7.5938e-06 0.000194215
0.00240462 -0.000103649 4.01062e-06
-0.000103649 0.00111538 -3.60299e-07
4.01062e-06 -3.60299e-07 0.00111911
0.00244049 -0.00011638 -3.32373e-05
-0.00011638 0.00114565 -3.02438e-06
-3.32373e-05 -3.02438e-06 0.00114598
0.000447787 1.34556e-05 1.70154e-06
1.34556e-05 -6.28115e-05 -6.71723e-06
1.70154e-06 -6.71723e-06 -9.79549e-05
0.00319233 0.000134778 6.2348e-05
0.000134778 0.00160401 -3.36742e-06
6.2348e-05 -3.36742e-06 0.00159815
0.000519994 -1.06905e-05 -4.91385e-07
-1.06905e-05 -2.1753e-05 2.1138e-07
-4.91385e-07 2.1138e-07 -6.52916e-05
0.00371955 0.000122692 -6.23038e-06
0.000122692 0.00192317 -5.923e-07
-6.23038e-06 -5.923e-07 0.00191945
0.000638241 -2.57059e-05 -8.08735e-06
-2.57059e-05 4.38196e-05 1.03981e-05
-8.08735e-06 1.03981e-05 -9.05417e-06
0.00431541 0.000122398 -0.000141211
0.000122398 0.00228034 9.12741e-06
-0.000141211 9.12741e-06 0.00227529
0.000984322 0.000117655 -1.28064e-05
0.000117655 -3.98298e-05 -3.69722e-06
-1.28064e-05 -3.69722e-06 -0.000181698
0.000985672 6.99655e-05 -1.21014e-05
6.99655e-05 -4.63989e-05 -2.09674e-06
-1.21014e-05 -2.09674e-06 -0.00017552
0.00151611 0.000141878 -3.04198e-06
0.000141878 7.8198e-05 -1.91046e-07
-3.04198e-06 -1.91046e-07 -6.70345e-05
0.00148864 6.37838e-05 -1.47018e-06
6.37838e-05 5.68747e-05 1.31649e-07
-1.47018e-06 1.31649e-07 -6.97583e-05
0.000985267 2.51734e-05 -1.23236e-05
2.51734e-05 -4.0264e-05 -7.24354e-07
-1.23236e-05 -7.24354e-07 -0.000162374
0.000557795 2.78164e-05 -1.91318e-05
2.78164e-05 -0.000132655 -1.88621e-07
-1.91318e-05 -1.88621e-07 -0.000201015
0.000984998 1.73515e-06 -3.25912e-09
1.73515e-06 -3.55226e-05 -1.54276e-07
-3.25912e-09 -1.54276e-07 -0.000156643
0.00148382 3.53132e-05 -6.82948e-08
3.53132e-05 5.57238e-05 5.04951e-08
-6.82948e-08 5.04951e-08 -6.69734e-05
0.00151212 0.000101576 -1.80178e-09
0.000101576 6.95164e-05 8.39971e-09
-1.80178e-09 8.39971e-09 -6.44631e-05
0.00180926 9.12658e-05 1.28966e-07
9.12658e-05 9.06829e-05 2.88666e-07
1.28966e-07 2.88666e-07 -4.20903e-06
0.00151245 0.000183163 -2.43858e-07
0.000183163 9.35879e-05 -7.75543e-08
-2.43858e-07 -7.75543e-08 -6.46838e-05
0.00181667 0.000185937 -3.5677e-07
0.000185937 0.000127914 8.75755e-10
-3.5677e-07 8.75755e-10 1.76524e-06
0.00147673 4.61289e-06 1.55024e-06
4.61289e-06 5.44575e-05 1.26901e-08
1.55024e-06 1.26901e-08 -6.71076e-05
0.0018178 4.673e-05 -3.45015e-06
4.673e-05 0.000103798 -8.43868e-08
-3.45015e-06 -8.43868e-08 1.76012e-05
0.00182735 0.000143801 -1.41157e-06
0.000143801 0.0001099 -9.09637e-07
-1.41157e-06 -9.09637e-07 3.67827e-07
0.00180714 9.22382e-05 4.05625e-06
9.22382e-05 3.57107e-05 4.94263e-07
4.05625e-06 4.94263e-07 -3.35199e-05
0.00183271 0.000235007 1.87612e-07
0.000235007 0.000169307 -1.26814e-06
1.87612e-07 -1.26814e-06 2.2963e-05
0.00177444 0.00020728 3.50927e-07
0.00020728 3.9153e-05 -1.19178e-06
3.50927e-07 -1.19178e-06 -6.04723e-05
0.000782668 -7.02407e-06 -1.217e-05
-7.02407e-06 -0.000155945 7.18816e-07
-1.217e-05 7.18816e-07 -0.000277624
0.00174008 -7.13459e-05 -2.43261e-05
-7.13459e-05 0.000408988 2.93317e-06
-2.43261e-05 2.93317e-06 0.000290182
0.00179005 -4.96412e-05 -4.83375e-06
-4.96412e-05 0.00024484 1.84757e-08
-4.83375e-06 1.84757e-08 0.000125301
0.00167176 -0.000144651 -3.91018e-06
-0.000144651 0.000198913 9.72062e-07
-3.91018e-06 9.72062e-07 5.44709e-05
0.000743035 -0.000109808 -1.80799e-05
-0.000109808 8.52885e-05 1.4653e-05
-1.80799e-05 1.4653e-05 1.00243e-05
0.000747365 -0.000189727 -8.93189e-06
-0.000189727 3.53486e-05 7.02277e-06
-8.93189e-06 7.02277e-06 -0.000140341
0.00109935 -0.000259539 -5.21392e-06
-0.000259539 7.47425e-05 2.73058e-06
-5.21392e-06 2.73058e-06 -0.000137435
0.00171649 -0.000217031 -7.78873e-06
-0.000217031 0.000269484 2.26046e-06
-7.78873e-06 2.26046e-06 0.000103178
0.00190462 -0.000229972 5.69349e-07
-0.000229972 0.000207813 -1.23289e-06
5.69349e-07 -1.23289e-06 7.34182e-05
0.00170443 -0.00029354 -9.14998e-07
-0.00029354 0.000179561 -6.13888e-07
-9.14998e-07 -6.13888e-07 7.97392e-07
0.00182419 -0.000370408 -4.43102e-06
-0.000370408 0.000343599 -6.71196e-07
-4.43102e-06 -6.71196e-07 0.000112802
0.00181949 -0.00034799 3.09995e-06
-0.00034799 0.000217307 -2.5411e-06
3.09995e-06 -2.5411e-06 3.17545e-05
0.000720904 -0.00013435 -3.4699e-06
-0.00013435 9.5197e-05 5.44674e-06
-3.4699e-06 5.44674e-06 -5.8992e-05
0.000442541 -9.67332e-05 -2.36446e-07
-9.67332e-05 -6.04946e-05 -1.20975e-06
-2.36446e-07 -1.20975e-06 -0.000238138
0.000620962 -5.85374e-05 -1.6157e-06
-5.85374e-05 4.35208e-05 3.36203e-06
-1.6157e-06 3.36203e-06 -7.13928e-05
0.00159139 -2.13134e-05 -1.91691e-06
-2.13134e-05 0.000127482 1.48486e-07
-1.91691e-06 1.48486e-07 5.24572e-06
0.00175444 -0.000104571 -2.88236e-06
-0.000104571 0.000228962 4.43808e-07
-2.88236e-06 4.43808e-07 9.96289e-05
0.00177735 -7.55334e-05 1.86952e-06
-7.55334e-05 9.25098e-05 5.28345e-07
1.86952e-06 5.28345e-07 -3.03162e-06
0.00177048 -0.000177423 -1.80007e-06
-0.000177423 0.000108451 5.83674e-07
-1.80007e-06 5.83674e-07 -1.71159e-05
0.000757404 -0.00017249 3.11198e-07
-0.00017249 0.000103284 -2.33697e-08
3.11198e-07 -2.33697e-08 -6.90908e-05
0.0011173 -0.000256035 -1.50929e-06
-0.000256035 0.000171849 -6.17836e-07
-1.50929e-06 -6.17836e-07 -4.65141e-05
0.00146523 -0.000358192 2.34781e-06
-0.000358192 0.000230395 -1.79412e-07
2.34781e-06 -1.79412e-07 -2.39457e-05
0.0016591 -0.000262457 -1.05176e-06
-0.000262457 0.000115633 6.55248e-07
-1.05176e-06 6.55248e-07 -4.47758e-05
0.00190182 -0.000250284 1.75397e-06
-0.000250284 0.00015897 -1.14581e-07
1.75397e-06 -1.14581e-07 4.86212e-05
0.00183668 -0.000402033 -6.25411e-07
-0.000402033 0.000283862 4.4206e-07
-6.25411e-07 4.4206e-07 5.09667e-05
0.00177794 -0.000320442 8.30954e-08
-0.000320442 0.000153374 3.63529e-07
8.30954e-08 3.63529e-07 -6.28374e-06
0.00205342 -0.000369748 1.939e-06
-0.000369748 0.000340049 -2.39736e-07
1.939e-06 -2.39736e-07 0.00017241
0.000994872 -0.000198475 4.72424e-07
-0.000198475 0.000239856 8.7931e-07
4.72424e-07 8.7931e-07 5.10785e-05
0.00115771 -0.000229845 -2.99147e-07
-0.000229845 0.00034799 3.3959e-07
-2.99147e-07 3.3959e-07 0.000141501
0.000626406 -3.97105e-05 -9.98085e-08
-3.97105e-05 5.07007e-05 1.42485e-07
-9.98085e-08 1.42485e-07 -4.74581e-05
0.000336218 -5.02002e-05 -1.58436e-07
-5.02002e-05 -0.000104021 -6.9517e-07
-1.58436e-07 -6.9517e-07 -0.000270619
0.00178941 -4.12785e-05 -2.36028e-06
-4.12785e-05 9.72473e-05 2.04407e-07
-2.36028e-06 2.04407e-07 5.27443e-06
0.00184718 -0.000124731 -4.31516e-07
-0.000124731 0.000135529 1.34734e-06
-4.31516e-07 1.34734e-06 2.66728e-05
0.00172003 -8.43545e-05 2.80867e-06
-8.43545e-05 1.27905e-05 -2.59102e-07
2.80867e-06 -2.59102e-07 -6.08536e-05
0.00183034 -0.000203768 -2.68398e-06
-0.000203768 7.30828e-05 6.36498e-07
-2.68398e-06 6.36498e-07 -1.63274e-05
0.001736 -0.000284342 -3.0223e-06
-0.000284342 9.57179e-05 2.38823e-06
-3.0223e-06 2.38823e-06 -3.71613e-05
0.00198242 -0.00025923 3.36695e-06
-0.00025923 0.000193115 -1.22946e-06
3.36695e-06 -1.22946e-06 9.5032e-05
0.000946444 -0.000224668 8.54368e-07
-0.000224668 0.000156833 -4.77791e-06
8.54368e-07 -4.77791e-06 -4.86784e-05
0.00167274 -0.000330513 -4.39584e-06
-0.000330513 7.20446e-05 2.04215e-06
-4.39584e-06 2.04215e-06 -6.52388e-05
0.00143764 -0.000340706 3.22386e-06
-0.000340706 0.000317145 -3.25313e-06
3.22386e-06 -3.25313e-06 5.84814e-05
0.00170533 -0.000435485 -1.68787e-06
-0.000435485 0.000305117 1.74235e-06
-1.68787e-06 1.74235e-06 2.45478e-05
0.00177442 -0.00040855 1.93661e-06
-0.00040855 0.00020176 4.96155e-06
1.93661e-06 4.96155e-06 -2.58272e-05
0.00210126 -0.000361651 1.77371e-07
-0.000361651 0.000355103 5.15675e-07
1.77371e-07 5.15675e-07 0.000194065
0.000518186 -4.01517e-05 8.25444e-07
-4.01517e-05 -1.21747e-05 -3.48861e-06
8.25444e-07 -3.48861e-06 -9.59682e-05
0.000474546 -5.02425e-05 -2.308e-06
-5.02425e-05 -8.05224e-06 -9.06023e-07
-2.308e-06 -9.06023e-07 -0.000158117
0.000927269 -0.000229732 -1.79974e-06
-0.000229732 0.000165486 3.93186e-07
-1.79974e-06 3.93186e-07 -3.94012e-05
0.000822235 -0.000161968 -2.51307e-07
-0.000161968 0.000204716 3.41997e-06
-2.51307e-07 3.41997e-06 1.81929e-06
0.00147751 -0.000282896 -5.39916e-06
-0.000282896 0.000520306 4.27308e-06
-5.39916e-06 4.27308e-06 0.000310751
0.000459556 -6.24258e-05 -3.19919e-07
-6.24258e-05 -5.66408e-05 -5.2823e-06
-3.19919e-07 -5.2823e-06 -8.65641e-05
0.00146268 0.000215575 -4.46343e-06
0.000215575 9.97088e-05 -1.24245e-06
-4.46343e-06 -1.24245e-06 -7.33666e-05
0.000502776 -2.75795e-05 -4.10277e-07
-2.75795e-05 -2.2569e-05 -3.70713e-06
-4.10277e-07 -3.70713e-06 -0.000107789
0.000691152 9.77639e-05 -1.66387e-06
9.77639e-05 8.43449e-05 -5.08941e-06
-1.66387e-06 -5.08941e-06 -6.1169e-05
0.000473434 7.49829e-05 1.15621e-06
7.49829e-05 -1.11359e-05 -1.62113e-07
1.15621e-06 -1.62113e-07 -0.000180135
0.00133275 0.000255225 -6.04996e-06
0.000255225 0.000129572 -2.05628e-06
-6.04996e-06 -2.05628e-06 -6.77718e-05
0.00170742 0.000316303 -1.74106e-08
0.000316303 0.000175037 5.83723e-07
-1.74106e-08 5.83723e-07 -1.79836e-05
0.000910121 0.000220448 -1.81473e-06
0.000220448 0.000129107 -4.16337e-06
-1.81473e-06 -4.16337e-06 -8.62362e-05
0.00138016 0.000308551 -2.88313e-06
0.000308551 0.000244424 -1.5741e-06
-2.88313e-06 -1.5741e-06 -1.35382e-05
0.00175775 0.000348074 -1.67529e-06
0.000348074 0.000353612 -9.60108e-08
-1.67529e-06 -9.60108e-08 0.00013008
0.00164949 0.000338748 -4.49584e-06
0.000338748 0.000268996 4.7054e-06
-4.49584e-06 4.7054e-06 3.69373e-05
0.000527078 -5.1287e-05 3.87277e-09
-5.1287e-05 -3.10302e-05 3.89254e-09
3.87277e-09 3.89254e-09 -5.47429e-05
0.000628238 -1.47223e-05 -6.56589e-07
-1.47223e-05 4.05908e-05 3.48692e-07
-6.56589e-07 3.48692e-07 -2.85543e-05
0.000982877 0.000193397 -1.60494e-07
0.000193397 0.000242752 1.02444e-06
-1.60494e-07 1.02444e-06 5.36186e-05
0.000670585 2.86272e-05 -3.95438e-07
2.86272e-05 0.000110562 -6.44757e-08
-3.95438e-07 -6.44757e-08 -3.17449e-05
0.000622378 0.000126827 7.11235e-07
0.000126827 4.77818e-05 -5.09887e-07
7.11235e-07 -5.09887e-07 -0.000133835
0.00178513 0.000281799 -3.99626e-07
0.000281799 0.000170126 -9.61991e-07
-3.99626e-07 -9.61991e-07 1.48623e-07
0.00164676 0.000346345 5.30242e-07
0.000346345 0.000205316 1.73489e-07
5.30242e-07 1.73489e-07 -8.97371e-06
0.0017689 0.000351044 1.75708e-06
0.000351044 0.000177337 2.37158e-07
1.75708e-06 2.37158e-07 -9.08119e-06
0.00125357 0.000289597 1.45154e-06
0.000289597 0.000283714 5.90446e-07
1.45154e-06 5.90446e-07 3.08553e-05
0.00185046 0.000408331 1.11591e-06
0.000408331 0.000322346 1.56574e-07
1.11591e-06 1.56574e-07 8.70645e-05
0.00144311 0.000329192 -1.51287e-06
0.000329192 0.000225195 2.9704e-07
-1.51287e-06 2.9704e-07 -3.42902e-05
0.00068153 -7.10879e-07 2.1293e-06
-7.10879e-07 6.21103e-05 2.71776e-06
2.1293e-06 2.71776e-06 3.36398e-06
0.000954063 7.02469e-05 6.3045e-07
7.02469e-05 0.000268642 2.79206e-06
6.3045e-07 2.79206e-06 0.000152347
0.0011432 0.000253684 -3.30546e-06
0.000253684 0.000291717 -9.75018e-07
-3.30546e-06 -9.75018e-07 8.47361e-05
0.00134312 9.90936e-05 -1.94346e-07
9.90936e-05 0.000517395 2.86685e-07
-1.94346e-07 2.86685e-07 0.000340084
0.00115094 0.000154543 -5.91388e-06
0.000154543 0.000314232 -6.67817e-06
-5.91388e-06 -6.67817e-06 0.000147333
0.00180651 0.000292316 -2.66101e-06
0.000292316 0.000151345 -2.5956e-06
-2.66101e-06 -2.5956e-06 -1.3246e-06
0.00183424 0.000402839 1.16695e-06
0.000402839 0.000261012 2.73733e-07
1.16695e-06 2.73733e-07 4.37086e-05
0.00157149 0.000373511 3.50603e-06
0.000373511 3.49468e-05 -5.84974e-07
3.50603e-06 -5.84974e-07 -0.000149594
0.000760592 0.00026145 -1.3994e-06
0.00026145 -7.92881e-06 2.59553e-06
-1.3994e-06 2.59553e-06 -0.000265186
0.00140891 0.000372882 6.54651e-06
0.000372882 0.000128143 -1.20922e-06
6.54651e-06 -1.20922e-06 -0.000124374
0.000615918 -1.46872e-06 -1.87913e-07
-1.46872e-06 2.00416e-05 2.92453e-08
-1.87913e-07 2.92453e-08 -3.35151e-05
0.000544505 2.79731e-05 1.51524e-06
2.79731e-05 -3.06522e-06 1.76573e-06
1.51524e-06 1.76573e-06 -8.69015e-05
0.000533115 1.94266e-05 -5.9538e-07
1.94266e-05 -6.46357e-06 -1.2235e-07
-5.9538e-07 -1.2235e-07 -8.95515e-05
0.000935157 0.000100365 3.43475e-07
0.000100365 0.000246254 -5.87696e-07
3.43475e-07 -5.87696e-07 0.000141434
0.000674608 7.70357e-05 2.0022e-06
7.70357e-05 8.7667e-05 1.62901e-06
2.0022e-06 1.62901e-06 -8.89248e-07
0.000603517 3.35981e-05 2.39104e-06
3.35981e-05 2.36061e-05 2.54424e-06
2.39104e-06 2.54424e-06 -2.96786e-05
0.000600956 -5.57311e-06 -6.2486e-07
-5.57311e-06 1.71787e-05 -1.34959e-08
-6.2486e-07 -1.34959e-08 -3.52308e-05
0.00124328 -3.78193e-05 9.34154e-07
-3.78193e-05 0.000384129 2.61489e-06
9.34154e-07 2.61489e-06 0.000371409
0.000606865 -1.13879e-05 -1.4843e-06
-1.13879e-05 1.57108e-05 -2.50226e-06
-1.4843e-06 -2.50226e-06 -3.59881e-05
0.0012971 -4.76392e-05 -5.54776e-06
-4.76392e-05 0.000419279 -1.41845e-06
-5.54776e-06 -1.41845e-06 0.000405177
0.000852574 -4.09057e-05 2.3813e-05
-4.09057e-05 0.000159997 7.71205e-06
2.3813e-05 7.71205e-06 0.000164175
0.00131636 -5.67916e-05 -9.72889e-06
-5.67916e-05 0.000436455 -3.95365e-06
-9.72889e-06 -3.95365e-06 0.000420072
0.00159004 -6.97229e-05 2.13258e-05
-6.97229e-05 0.000614347 1.88978e-06
2.13258e-05 1.88978e-06 0.00061848
0.00235108 -0.000100413 -2.92872e-05
-0.000100413 0.00108191 -3.59206e-06
-2.92872e-05 -3.59206e-06 0.00108633
0.000446373 6.72523e-05 -2.81477e-06
6.72523e-05 -5.80746e-05 -5.48268e-06
-2.81477e-06 -5.48268e-06 -9.15178e-05
0.000499792 1.46886e-05 4.22471e-07
1.46886e-05 -3.02157e-05 3.79693e-07
4.22471e-07 3.79693e-07 -6.71411e-05
0.00277704 0.00012671 3.25634e-05
0.00012671 0.00134983 -3.58615e-06
3.25634e-05 -3.58615e-06 0.0013461
0.00329993 0.000111152 -7.45699e-06
0.000111152 0.00166567 -4.83996e-07
-7.45699e-06 -4.83996e-07 0.0016655
0.000625581 -1.24748e-05 -6.47468e-06
-1.24748e-05 4.04432e-05 8.39779e-06
-6.47468e-06 8.39779e-06 -3.84352e-06
0.00385449 0.000106606 -0.000124425
0.000106606 0.00199937 7.5265e-06
-0.000124425 7.5265e-06 0.00199932
0.00149903 0.000182424 -3.82048e-06
0.000182424 8.76919e-05 -4.55037e-07
-3.82048e-06 -4.55037e-07 -7.08308e-05
0.00149562 0.000101847 -1.94521e-06
0.000101847 6.10284e-05 -1.7826e-08
-1.94521e-06 -1.7826e-08 -7.34003e-05
0.0018076 0.000184777 -4.94906e-07
0.000184777 0.000126034 1.39641e-06
-4.94906e-07 1.39641e-06 -2.44317e-07
0.00179477 8.98141e-05 1.04855e-06
8.98141e-05 7.55819e-05 7.04068e-07
1.04855e-06 7.04068e-07 -1.63947e-05
0.00147723 3.80564e-05 -1.43359e-06
3.80564e-05 5.31801e-05 -3.25227e-09
-1.43359e-06 -3.25227e-09 -6.96985e-05
0.000990312 6.35246e-06 -1.2106e-05
6.35246e-06 -3.30123e-05 -8.67687e-08
-1.2106e-05 -8.67687e-08 -0.000154098
0.00147307 8.21515e-06 7.03252e-08
8.21515e-06 5.41104e-05 3.08445e-08
7.03252e-08 3.08445e-08 -6.75489e-05
0.00181372 3.81584e-05 -2.08012e-06
3.81584e-05 0.000101406 -7.35151e-08
-2.08012e-06 -7.35151e-08 1.56475e-05
0.00182579 0.000142417 -3.2627e-07
0.000142417 0.000108532 2.56582e-07
-3.2627e-07 2.56582e-07 -8.92964e-07
0.00181398 9.039e-05 2.3833e-06
9.039e-05 3.81736e-05 6.28423e-07
2.3833e-06 6.28423e-07 -2.58465e-05
0.00180371 0.000235503 -2.84755e-07
0.000235503 0.000147248 -1.24715e-07
-2.84755e-07 -1.24715e-07 2.62216e-07
0.00179957 0.00020389 -3.93294e-07
0.00020389 5.29342e-05 7.74047e-07
-3.93294e-07 7.74047e-07 -4.33217e-05
0.0017852 1.19111e-06 -2.51633e-06
1.19111e-06 9.36881e-05 1.38964e-07
-2.51633e-06 1.38964e-07 8.47934e-06
0.00177738 4.17963e-05 4.44899e-06
4.17963e-05 2.65083e-05 2.46816e-07
4.44899e-06 2.46816e-07 -3.12111e-05
0.0018249 0.000148619 7.89093e-07
0.000148619 4.51739e-05 -4.10249e-07
7.89093e-07 -4.10249e-07 -3.07055e-05
0.00189107 9.62415e-05 6.19101e-06
9.62415e-05 6.06362e-05 7.76031e-07
6.19101e-06 7.76031e-07 1.26378e-05
0.00179079 0.0002347 1.27567e-07
0.0002347 9.56626e-05 -2.19048e-06
1.27567e-07 -2.19048e-06 -2.49221e-05
0.00187434 0.000211555 4.11243e-06
0.000211555 6.05259e-05 1.01474e-06
4.11243e-06 1.01474e-06 -2.00604e-05
0.0015028 -1.90902e-05 -3.39252e-06
-1.90902e-05 7.3574e-05 3.76712e-08
-3.39252e-06 3.76712e-08 -4.86917e-05
0.00176629 -0.000109889 -5.77997e-06
-0.000109889 0.000234823 6.62513e-07
-5.77997e-06 6.62513e-07 0.000104797
0.00181505 -7.38325e-05 3.28615e-06
-7.38325e-05 0.000115832 -1.32423e-06
3.28615e-06 -1.32423e-06 2.57924e-05
0.0017495 -0.000173601 -3.2722e-07
-0.000173601 9.5513e-05 -8.46616e-08
-3.2722e-07 -8.46616e-08 -3.1434e-05
0.000838176 -0.000196441 -5.84964e-06
-0.000196441 0.00015347 7.89318e-06
-5.84964e-06 7.89318e-06 -2.29332e-05
0.00120508 -0.000265481 -6.78913e-06
-0.000265481 0.000217499 3.82478e-06
-6.78913e-06 3.82478e-06 -2.18603e-06
0.00134719 -0.000342618 -2.01785e-07
-0.000342618 0.00016954 9.39716e-07
-2.01785e-07 9.39716e-07 -8.24397e-05
0.0016615 -0.000261107 -1.1071e-06
-0.000261107 0.000119603 1.67169e-07
-1.1071e-06 1.67169e-07 -4.43981e-05
0.00193144 -0.000251626 2.27018e-06
-0.000251626 0.000176135 -1.62665e-06
2.27018e-06 -1.62665e-06 6.98372e-05
0.00181114 -0.00032145 2.13746e-06
-0.00032145 0.000172952 -1.05886e-06
2.13746e-06 -1.05886e-06 1.33785e-05
0.00177045 -0.000405409 -6.23263e-07
-0.000405409 0.000239828 -1.96931e-06
-6.23263e-07 -1.96931e-06 3.56998e-06
0.00206366 -0.00036527 5.74908e-06
-0.00036527 0.000344913 -6.10563e-06
5.74908e-06 -6.10563e-06 0.000181182
0.000959256 -0.000199809 6.52116e-07
-0.000199809 0.000220805 2.03934e-06
6.52116e-07 2.03934e-06 3.04722e-05
0.000560944 -0.000160332 1.18984e-06
-0.000160332 -1.7779e-05 -6.14574e-07
1.18984e-06 -6.14574e-07 -0.000209424
0.000701981 -4.59417e-05 -1.25622e-06
-4.59417e-05 9.27727e-05 3.60606e-06
-1.25622e-06 3.60606e-06 -5.59196e-06
0.000203339 -1.97798e-05 1.21614e-06
-1.97798e-05 -0.000189732 -2.56238e-06
1.21614e-06 -2.56238e-06 -0.000346243
0.00179165 -4.13603e-05 1.46655e-08
-4.13603e-05 0.000100153 1.4327e-07
1.46655e-08 1.4327e-07 8.09122e-06
0.00179664 -0.000124166 8.00006e-07
-0.000124166 0.000108784 -3.62102e-07
8.00006e-07 -3.62102e-07 -2.31984e-06
0.00175389 -8.28245e-05 2.34387e-06
-8.28245e-05 3.25257e-05 -5.82599e-07
2.34387e-06 -5.82599e-07 -3.66031e-05
0.00180244 -0.000200476 -1.92313e-06
-0.000200476 6.19187e-05 6.61432e-07
-1.92313e-06 6.61432e-07 -2.95544e-05
0.00100277 -0.000222871 -1.37278e-06
-0.000222871 0.000193966 4.96475e-07
-1.37278e-06 4.96475e-07 -1.11484e-05
0.00109964 -0.000302722 2.11837e-06
-0.000302722 0.000116752 -1.72165e-06
2.11837e-06 -1.72165e-06 -0.000132636
0.0016302 -0.000434727 -7.98623e-08
-0.000434727 0.000259286 9.10684e-07
-7.98623e-08 9.10684e-07 -2.47921e-05
0.00171409 -0.000281613 -1.53536e-06
-0.000281613 8.92895e-05 7.84725e-07
-1.53536e-06 7.84725e-07 -4.72681e-05
0.00187507 -0.000256229 1.8685e-06
-0.000256229 0.000128465 -9.46355e-07
1.8685e-06 -9.46355e-07 3.42843e-05
0.00176748 -0.000411308 -5.07433e-07
-0.000411308 0.000204536 6.18627e-07
-5.07433e-07 6.18627e-07 -2.48501e-05
0.00173037 -0.000334276 -6.88096e-07
-0.000334276 0.000100541 1.04785e-06
-6.88096e-07 1.04785e-06 -3.73486e-05
0.00192754 -0.000349971 3.77465e-06
-0.000349971 0.000241289 -5.65409e-06
3.77465e-06 -5.65409e-06 8.62133e-05
0.00105968 -0.000243244 5.57984e-07
-0.000243244 0.000238263 1.61935e-06
5.57984e-07 1.61935e-06 3.15895e-05
0.00130984 -0.000260723 4.18028e-06
-0.000260723 0.000411994 1.56006e-06
4.18028e-06 1.56006e-06 0.000212077
0.000781712 -0.000128728 -1.3456e-07
-0.000128728 0.000177926 -3.08733e-07
-1.3456e-07 -3.08733e-07 -2.62082e-05
0.000454712 -1.31403e-05 -1.50603e-06
-1.31403e-05 -5.03129e-05 5.25138e-07
-1.50603e-06 5.25138e-07 -0.000135545
0.000314729 -1.33522e-05 -3.11517e-07
-1.33522e-05 -0.000108119 -4.48434e-07
-3.11517e-07 -4.48434e-07 -0.000250384
0.00188486 -5.29597e-05 2.64296e-06
-5.29597e-05 9.25648e-05 -7.58432e-07
2.64296e-06 -7.58432e-07 3.9699e-05
0.00188222 -0.000122054 3.69745e-06
-0.000122054 8.79035e-05 -1.26223e-07
3.69745e-06 -1.26223e-07 1.83549e-05
0.00187333 -0.000244101 1.84843e-06
-0.000244101 7.09683e-05 -1.8313e-06
1.84843e-06 -1.8313e-06 -3.78452e-06
0.00170707 -0.000282419 -3.47885e-08
-0.000282419 4.9196e-05 -4.67265e-07
-3.47885e-08 -4.67265e-07 -5.76583e-05
0.00137824 -0.000293923 -1.99522e-06
-0.000293923 0.000372912 -4.8588e-06
-1.99522e-06 -4.8588e-06 0.000138461
0.00222202 -0.000401387 -2.63588e-06
-0.000401387 0.000323092 -1.91054e-07
-2.63588e-06 -1.91054e-07 0.00018528
0.00142019 -0.000388986 2.75944e-06
-0.000388986 0.000277193 -4.91851e-06
2.75944e-06 -4.91851e-06 -1.24346e-05
0.00178338 -0.000487872 -6.70889e-07
-0.000487872 0.000311162 1.97741e-06
-6.70889e-07 1.97741e-06 1.15286e-05
0.00168109 -0.000396534 1.70491e-06
-0.000396534 0.000130483 3.76409e-06
1.70491e-06 3.76409e-06 -8.97536e-05
0.000212339 8.99247e-06 -3.62877e-08
8.99247e-06 -0.000194503 -3.55244e-06
-3.62877e-08 -3.55244e-06 -0.000265959
0.000706988 -4.97965e-05 4.14996e-07
-4.97965e-05 0.000140012 -7.71076e-07
4.14996e-07 -7.71076e-07 6.63833e-06
0.0010145 -8.13917e-05 -1.46237e-06
-8.13917e-05 0.000313513 1.10525e-06
-1.46237e-06 1.10525e-06 0.000140998
0.00128245 -0.000276587 -8.34383e-06
-0.000276587 0.000348731 7.06164e-08
-8.34383e-06 7.06164e-08 0.000137286
0.000438065 -0.000132863 2.79952e-06
-0.000132863 -4.20582e-05 5.77641e-06
2.79952e-06 5.77641e-06 -0.00025682
0.000655386 -0.000221743 -2.34967e-06
-0.000221743 -1.51728e-05 5.44056e-07
-2.34967e-06 5.44056e-07 -0.000206805
0.000534202 -4.93327e-05 -1.12528e-06
-4.93327e-05 -2.80816e-05 -4.75352e-06
-1.12528e-06 -4.75352e-06 -5.1216e-05
0.000577657 -1.89289e-05 -1.76422e-06
-1.89289e-05 1.30356e-05 -2.9932e-06
-1.76422e-06 -2.9932e-06 -5.60485e-05
0.00176233 0.00028205 -1.71416e-06
0.00028205 0.000153622 -4.05401e-07
-1.71416e-06 -4.05401e-07 -1.67881e-05
0.000164255 -4.67399e-05 1.19168e-06
-4.67399e-05 -0.000194933 -2.72446e-06
1.19168e-06 -2.72446e-06 -0.0003293
0.000777442 0.000176535 -9.68202e-07
0.000176535 0.000123146 1.31633e-07
-9.68202e-07 1.31633e-07 -6.20995e-05
0.00012039 7.0955e-05 1.77143e-06
7.0955e-05 -0.00026058 1.70711e-06
1.77143e-06 1.70711e-06 -0.000430577
0.00163157 0.000345764 3.50329e-07
0.000345764 0.000194736 2.84839e-07
3.50329e-07 2.84839e-07 -1.97852e-05
0.00168792 0.000346783 4.06996e-07
0.000346783 0.000132756 1.16608e-07
4.06996e-07 1.16608e-07 -5.38242e-05
0.00120315 0.000283139 1.43127e-06
0.000283139 0.000262979 -1.59467e-06
1.43127e-06 -1.59467e-06 9.39609e-06
0.00199986 0.000376078 -1.60604e-06
0.000376078 0.000554808 -1.15114e-06
-1.60604e-06 -1.15114e-06 0.000291072
0.0017193 0.000396161 -2.33645e-06
0.000396161 0.000228188 5.84412e-07
-2.33645e-06 5.84412e-07 -6.56178e-06
0.000610827 -6.69678e-07 -3.98202e-07
-6.69678e-07 2.10984e-05 3.22572e-07
-3.98202e-07 3.22572e-07 -3.74334e-05
0.000711582 9.61614e-06 -7.99852e-07
9.61614e-06 0.00012091 5.02108e-07
-7.99852e-07 5.02108e-07 1.12916e-05
0.00112918 0.000252684 -8.21379e-07
0.000252684 0.000285659 9.62269e-08
-8.21379e-07 9.62269e-08 7.7529e-05
0.000825448 5.05376e-05 3.57267e-07
5.05376e-05 0.000202859 4.29148e-08
3.57267e-07 4.29148e-08 3.51856e-05
0.00076938 0.000163122 2.07473e-06
0.000163122 0.00010524 1.31671e-06
2.07473e-06 1.31671e-06 -6.80309e-05
0.00177836 0.000293364 -2.0262e-06
0.000293364 0.0001369 -1.5619e-06
-2.0262e-06 -1.5619e-06 -1.68777e-05
0.00179131 0.000398993 1.64437e-06
0.000398993 0.000234238 3.88669e-07
1.64437e-06 3.88669e-07 1.72021e-05
0.00169134 0.00037651 4.11814e-07
0.00037651 0.000106269 -1.45422e-07
4.11814e-07 -1.45422e-07 -7.7052e-05
0.0008468 0.000277789 9.94035e-07
0.000277789 3.42672e-05 3.41741e-06
9.94035e-07 3.41741e-06 -0.000225607
0.00162601 0.00039154 -2.37308e-06
0.00039154 0.00026853 -1.30081e-06
-2.37308e-06 -1.30081e-06 1.2051e-05
0.000776273 3.88253e-05 6.05089e-07
3.88253e-05 0.000148903 2.22602e-06
6.05089e-07 2.22602e-06 5.37144e-05
0.000334893 -7.75153e-06 -1.55366e-06
-7.75153e-06 -8.88915e-05 2.05469e-06
-1.55366e-06 2.05469e-06 -0.000220903
0.00118032 0.000274485 -3.88538e-06
0.000274485 0.000269636 -2.24664e-06
-3.88538e-06 -2.24664e-06 6.10315e-05
0.000754968 0.000136011 -5.55608e-06
0.000136011 0.000176696 -5.06508e-06
-5.55608e-06 -5.06508e-06 -1.32765e-05
0.000716064 0.000219946 -1.27721e-06
0.000219946 3.50918e-05 -3.45966e-06
-1.27721e-06 -3.45966e-06 -0.000138897
0.00168567 0.000314032 -5.61752e-07
0.000314032 1.79947e-05 -2.08427e-06
-5.61752e-07 -2.08427e-06 -0.000112984
0.00193868 0.00043717 3.4539e-06
0.00043717 0.000305757 -1.82985e-06
3.4539e-06 -1.82985e-06 7.52214e-05
0.0015802 0.00039071 2.07364e-06
0.00039071 3.20579e-05 6.76482e-08
2.07364e-06 6.76482e-08 -0.000155095
0.00108638 0.000308862 1.42219e-06
0.000308862 0.000129924 7.96768e-06
1.42219e-06 7.96768e-06 -0.00014474
0.00138521 0.000398539 -1.01138e-06
0.000398539 0.000141977 -7.99935e-07
-1.01138e-06 -7.99935e-07 -0.000119024
0.000595764 -1.15218e-05 -1.79242e-06
-1.15218e-05 8.53468e-06 -2.59334e-06
-1.79242e-06 -2.59334e-06 -4.53238e-05
0.000602282 3.26453e-05 1.07074e-06
3.26453e-05 3.33157e-05 3.61364e-07
1.07074e-06 3.61364e-07 -5.11876e-05
0.000508144 1.38774e-05 5.3415e-10
1.38774e-05 -2.42596e-05 1.1232e-06
5.3415e-10 1.1232e-06 -0.000112718
0.000413358 -2.60732e-05 -7.76611e-07
-2.60732e-05 -7.72488e-05 -1.6235e-06
-7.76611e-07 -1.6235e-06 -0.000159834
0.000649796 4.05166e-05 -2.89545e-07
4.05166e-05 7.21597e-05 9.66179e-09
-2.89545e-07 9.66179e-09 -1.48386e-05
0.000681364 5.51243e-05 -4.28722e-07
5.51243e-05 8.34343e-05 -3.32108e-07
-4.28722e-07 -3.32108e-07 -1.07257e-05
0.000802263 8.75288e-05 -1.3434e-06
8.75288e-05 0.000165453 -2.16269e-06
-1.3434e-06 -2.16269e-06 6.27442e-05
0.00047113 -7.27074e-06 9.0031e-07
-7.27074e-06 -2.51002e-05 1.96862e-07
9.0031e-07 1.96862e-07 -0.000130888
0.000684065 6.59473e-05 1.03253e-06
6.59473e-05 8.97343e-05 1.78936e-06
1.03253e-06 1.78936e-06 5.98885e-06
0.00061708 4.07689e-05 2.59859e-06
4.07689e-05 3.66299e-05 2.56512e-06
2.59859e-06 2.56512e-06 -1.84478e-05
0.000601501 3.95419e-06 -1.38669e-06
3.95419e-06 2.21002e-05 -4.21842e-09
-1.38669e-06 -4.21842e-09 -3.09231e-05
0.00124991 -2.52938e-05 1.05145e-06
-2.52938e-05 0.000387567 2.5595e-06
1.05145e-06 2.5595e-06 0.000375749
0.000558581 -4.89584e-05 3.1391e-08
-4.89584e-05 -3.60468e-06 -2.5254e-06
3.1391e-08 -2.5254e-06 -5.84629e-05
0.00129694 -3.45801e-05 -4.8068e-06
-3.45801e-05 0.000416081 -1.47354e-06
-4.8068e-06 -1.47354e-06 0.000403694
0.000842538 -3.27855e-05 2.01747e-05
-3.27855e-05 0.000148981 8.08805e-06
2.01747e-05 8.08805e-06 0.000154748
0.00133987 -4.53581e-05 -8.68581e-06
-4.53581e-05 0.000444688 -5.61512e-06
-8.68581e-06 -5.61512e-06 0.000430811
0.000799705 -4.20029e-05 7.3003e-06
-4.20029e-05 0.000127539 3.02771e-06
7.3003e-06 3.02771e-06 0.000131085
0.00228471 -9.40021e-05 -4.33669e-06
-9.40021e-05 0.0010336 -2.03351e-06
-4.33669e-06 -2.03351e-06 0.00103944
0.000478962 4.70776e-05 -1.05035e-06
4.70776e-05 -5.38749e-05 -3.94705e-06
-1.05035e-06 -3.94705e-06 -7.61645e-05
0.000496193 4.01631e-05 -1.52671e-06
4.01631e-05 -3.4487e-05 -2.85282e-08
-1.52671e-06 -2.85282e-08 -6.46626e-05
0.00250919 0.000107352 2.42969e-05
0.000107352 0.001182 -3.70571e-06
2.42969e-05 -3.70571e-06 0.00118348
0.000578653 -2.48049e-06 -5.00069e-06
-2.48049e-06 1.30752e-05 7.05379e-06
-5.00069e-06 7.05379e-06 -2.2383e-05
0.00293144 0.000122791 -1.78674e-05
0.000122791 0.00144139 -7.86137e-07
-1.78674e-05 -7.86137e-07 0.00143888
0.00343035 9.76817e-05 -0.000103879
9.76817e-05 0.00174095 5.86518e-06
-0.000103879 5.86518e-06 0.00174389
0.00177525 0.000235869 -1.93653e-06
0.000235869 0.000125937 7.40955e-07
-1.93653e-06 7.40955e-07 -2.16601e-05
0.00182217 0.000139861 1.10905e-06
0.000139861 0.000106845 1.481e-06
1.10905e-06 1.481e-06 -2.31124e-06
0.00183691 0.00020099 2.60187e-07
0.00020099 7.38014e-05 2.14327e-06
2.60187e-07 2.14327e-06 -1.90208e-05
0.00183165 8.85892e-05 2.50684e-07
8.85892e-05 4.74182e-05 7.10442e-07
2.50684e-07 7.10442e-07 -1.11438e-05
0.00181157 3.18923e-05 -8.41188e-07
3.18923e-05 0.000100256 5.81651e-08
-8.41188e-07 5.81651e-08 1.48765e-05
0.0014747 1.11077e-05 -1.31839e-06
1.11077e-05 5.60844e-05 6.85222e-08
-1.31839e-06 6.85222e-08 -6.5593e-05
0.00177528 2.28961e-06 -2.01148e-06
2.28961e-06 8.69458e-05 -8.64437e-09
-2.01148e-06 -8.64437e-09 -7.3129e-07
0.00181617 4.05884e-05 2.3474e-06
4.05884e-05 5.40773e-05 1.24554e-07
2.3474e-06 1.24554e-07 -5.15337e-06
0.00188304 0.000148704 -1.20728e-06
0.000148704 8.28367e-05 -4.70397e-07
-1.20728e-06 -4.70397e-07 6.89738e-06
0.00187781 9.77258e-05 1.35951e-06
9.77258e-05 4.95751e-05 3.74715e-07
1.35951e-06 3.74715e-07 4.16758e-06
0.00179552 0.000232848 -8.65422e-07
0.000232848 0.000106391 -2.75551e-07
-8.65422e-07 -2.75551e-07 -1.39261e-05
0.00187249 0.000214492 3.42751e-06
0.000214492 6.03058e-05 1.43076e-06
3.42751e-06 1.43076e-06 -1.75222e-05
0.00180785 -6.87953e-06 2.82828e-06
-6.87953e-06 5.86348e-05 2.40013e-07
2.82828e-06 2.40013e-07 2.90578e-06
0.00185239 4.44268e-05 5.68375e-06
4.44268e-05 2.23015e-05 2.90195e-08
5.68375e-06 2.90195e-08 -7.76792e-06
0.00191565 0.000151594 4.55799e-06
0.000151594 5.54797e-05 1.20789e-06
4.55799e-06 1.20789e-06 4.63863e-06
0.00194087 0.000271417 4.05437e-07
0.000271417 0.000113268 -3.68494e-08
4.05437e-07 -3.68494e-08 1.91465e-05
0.00179779 -4.15049e-05 1.54338e-06
-4.15049e-05 0.000105146 9.99811e-08
1.54338e-06 9.99811e-08 1.30085e-05
0.00174342 -0.000124951 2.39903e-06
-0.000124951 8.04588e-05 -1.1951e-06
2.39903e-06 -1.1951e-06 -3.30415e-05
0.00179682 -8.13198e-05 2.88651e-06
-8.13198e-05 5.78916e-05 -1.6769e-06
2.88651e-06 -1.6769e-06 -6.79939e-06
0.00179896 -0.000197501 -2.06483e-06
-0.000197501 6.40364e-05 5.08465e-07
-2.06483e-06 5.08465e-07 -2.91739e-05
0.00119303 -0.000239145 -2.08528e-06
-0.000239145 0.000311331 4.83933e-06
-2.08528e-06 4.83933e-06 0.000102152
0.000904717 -0.000277939 -1.1384e-06
-0.000277939 1.40335e-06 1.91881e-06
-1.1384e-06 1.91881e-06 -0.000240333
0.00161932 -0.000440079 1.60516e-06
-0.000440079 0.00025272 -7.88726e-07
1.60516e-06 -7.88726e-07 -3.61083e-05
0.00168161 -0.0002786 -3.96709e-07
-0.0002786 7.69421e-05 -1.87368e-07
-3.96709e-07 -1.87368e-07 -6.32668e-05
0.00173514 -0.00025237 1.65683e-06
-0.00025237 4.39829e-05 -5.42417e-07
1.65683e-06 -5.42417e-07 -4.627e-05
0.00179791 -0.000338735 3.0392e-06
-0.000338735 0.000133884 7.27693e-08
3.0392e-06 7.27693e-08 -4.68379e-06
0.00175584 -0.000412603 -2.4758e-06
-0.000412603 0.000203423 -2.43138e-06
-2.4758e-06 -2.43138e-06 -2.72783e-05
0.00177586 -0.000339235 2.22147e-06
-0.000339235 0.000140872 -1.12218e-05
2.22147e-06 -1.12218e-05 -8.347e-06
0.00119636 -0.00025703 3.72863e-06
-0.00025703 0.000315083 2.31313e-06
3.72863e-06 2.31313e-06 0.000106271
0.000995185 -0.000228136 5.87142e-06
-0.000228136 0.000208625 -2.37621e-06
5.87142e-06 -2.37621e-06 2.20221e-05
0.000654871 -0.000104002 2.4005e-06
-0.000104002 0.000101859 -4.78673e-06
2.4005e-06 -4.78673e-06 -0.00010523
0.000366673 5.60653e-06 -8.0606e-07
5.60653e-06 -0.000102533 3.2376e-06
-8.0606e-07 3.2376e-06 -0.000189977
0.000279231 1.56289e-05 1.78411e-06
1.56289e-05 -0.000132058 -3.20288e-08
1.78411e-06 -3.20288e-08 -0.000270445
0.0018528 -5.83265e-05 -2.6865e-07
-5.83265e-05 7.41255e-05 -1.54048e-07
-2.6865e-07 -1.54048e-07 1.76781e-05
0.00184401 -0.000123274 1.42171e-06
-0.000123274 6.33497e-05 -6.71389e-07
1.42171e-06 -6.71389e-07 -8.14583e-06
0.00185833 -0.000237202 -1.89162e-06
-0.000237202 7.22322e-05 3.025e-07
-1.89162e-06 3.025e-07 -4.99168e-06
0.00118035 -0.000273493 -1.76107e-06
-0.000273493 0.00025486 -4.63619e-07
-1.76107e-06 -4.63619e-07 2.38132e-05
0.00103485 -0.000342665 9.65743e-07
-0.000342665 4.38119e-05 -1.75539e-06
9.65743e-07 -1.75539e-06 -0.000233419
0.00164515 -0.000479743 -3.7185e-07
-0.000479743 0.000233514 -2.66766e-08
-3.7185e-07 -2.66766e-08 -6.82951e-05
0.00171429 -0.00028273 5.95613e-07
-0.00028273 4.81943e-05 -2.75471e-07
5.95613e-07 -2.75471e-07 -5.91691e-05
0.0017993 -0.000402405 9.24767e-07
-0.000402405 0.000200401 -2.64834e-06
9.24767e-07 -2.64834e-06 -1.34036e-05
0.0019228 -0.000379132 -4.42816e-07
-0.000379132 0.000166351 -1.08801e-06
-4.42816e-07 -1.08801e-06 3.0101e-05
0.000271094 3.79806e-05 -5.69964e-07
3.79806e-05 -0.000165505 -8.98434e-07
-5.69964e-07 -8.98434e-07 -0.000232435
0.00123681 -0.000270667 -3.63668e-07
-0.000270667 0.000306685 9.44518e-07
-3.63668e-07 9.44518e-07 9.81895e-05
0.000575765 -0.000211151 7.57134e-07
-0.000211151 -5.64806e-05 1.02746e-06
7.57134e-07 1.02746e-06 -0.000235666
0.000991466 -0.000182179 -6.26441e-07
-0.000182179 0.000291651 5.57815e-07
-6.26441e-07 5.57815e-07 6.63482e-05
0.00114825 -8.61553e-05 5.60711e-07
-8.61553e-05 0.000393082 -1.63565e-06
5.60711e-07 -1.63565e-06 0.000221676
0.000580349 -4.30686e-06 -5.95277e-07
-4.30686e-06 5.61994e-05 5.79335e-07
-5.95277e-07 5.79335e-07 -7.33517e-05
0.00182636 -6.77024e-05 4.06966e-06
-6.77024e-05 1.51964e-05 -5.7446e-07
4.06966e-06 -5.7446e-07 -2.22212e-05
0.002 -0.000165014 2.61887e-06
-0.000165014 7.58866e-05 -1.50456e-07
2.61887e-06 -1.50456e-07 3.93004e-05
0.00179157 -0.000277218 2.23701e-06
-0.000277218 8.66176e-06 -1.95037e-06
2.23701e-06 -1.95037e-06 -5.62733e-05
0.00208055 -0.000353493 3.79824e-07
-0.000353493 0.000171959 -2.74942e-06
3.79824e-07 -2.74942e-06 7.07606e-05
0.00165091 -0.000344471 -4.85503e-06
-0.000344471 0.000487393 -4.83221e-06
-4.85503e-06 -4.83221e-06 0.00023754
0.00188936 -0.000425876 1.62456e-06
-0.000425876 0.000179655 3.55683e-06
1.62456e-06 3.55683e-06 1.49912e-06
0.00147571 -0.000451396 -3.96318e-06
-0.000451396 0.00026645 1.51452e-06
-3.96318e-06 1.51452e-06 -6.9549e-05
0.00174106 -0.000505137 -4.66641e-06
-0.000505137 0.000288992 2.38494e-06
-4.66641e-06 2.38494e-06 -2.63031e-05
0.000280466 5.52896e-05 -2.20883e-06
5.52896e-05 -0.000164316 -2.15117e-06
-2.20883e-06 -2.15117e-06 -0.000219935
0.000697069 1.99361e-06 -5.44837e-07
1.99361e-06 0.00012101 -4.64548e-07
-5.44837e-07 -4.64548e-07 1.22226e-05
0.000964351 -0.000111032 -2.24162e-06
-0.000111032 0.000288261 2.40868e-06
-2.24162e-06 2.40868e-06 0.000136029
0.000950694 -2.96825e-05 -2.29504e-06
-2.96825e-05 0.000265744 4.87628e-06
-2.29504e-06 4.87628e-06 5.92115e-05
0.00064533 -0.000244741 -4.95124e-06
-0.000244741 -6.60873e-05 -4.90821e-06
-4.95124e-06 -4.90821e-06 -0.000282104
0.000996891 -0.000247486 -8.17878e-06
-0.000247486 0.000231436 2.65387e-06
-8.17878e-06 2.65387e-06 4.52778e-07
0.000544568 -8.09107e-06 -2.3595e-06
-8.09107e-06 -1.79373e-05 -2.48907e-06
-2.3595e-06 -2.48907e-06 -7.58775e-05
0.000453293 -2.84017e-05 7.37395e-07
-2.84017e-05 -4.19353e-05 -2.07919e-06
7.37395e-07 -2.07919e-06 -0.00014187
0.00175453 0.000295077 -2.58649e-06
0.000295077 0.00012349 -7.20211e-07
-2.58649e-06 -7.20211e-07 -3.1506e-05
0.000323543 2.29682e-08 6.34582e-07
2.29682e-08 -0.000102765 -2.36659e-07
6.34582e-07 -2.36659e-07 -0.000258773
0.00113233 0.000253057 1.96604e-06
0.000253057 0.000290081 -2.11458e-07
1.96604e-06 -2.11458e-07 8.10898e-05
1.36531e-05 7.69679e-05 3.53929e-06
7.69679e-05 -0.000357224 3.659e-06
3.53929e-06 3.659e-06 -0.000507716
0.00175533 0.000396126 -6.7233e-08
0.000396126 0.000209244 1.07196e-07
-6.7233e-08 1.07196e-07 -7.7187e-06
0.00182313 0.000380741 -2.35613e-06
0.000380741 0.000181967 9.47234e-07
-2.35613e-06 9.47234e-07 -3.91972e-07
0.000908913 0.000290475 -1.07483e-06
0.000290475 6.561e-05 4.86433e-07
-1.07483e-06 4.86433e-07 -0.000196659
0.00194991 0.000419343 -2.6066e-06
0.000419343 0.000471307 6.70418e-07
-2.6066e-06 6.70418e-07 0.000208561
0.000687498 1.54502e-05 -9.67389e-07
1.54502e-05 9.22139e-05 2.2184e-07
-9.67389e-07 2.2184e-07 1.53438e-06
0.000567946 2.67942e-05 8.50526e-07
2.67942e-05 4.99731e-05 8.29814e-07
8.50526e-07 8.29814e-07 -8.52554e-05
0.00138461 0.000293805 -6.77405e-07
0.000293805 0.000401458 -2.56734e-06
-6.77405e-07 -2.56734e-06 0.000185542
0.000563538 4.74614e-05 -1.17322e-06
4.74614e-05 3.17098e-05 -3.28293e-07
-1.17322e-06 -3.28293e-07 -0.000130021
0.000551879 0.000186811 -1.451e-06
0.000186811 -7.48224e-05 -5.38286e-07
-1.451e-06 -5.38286e-07 -0.000228795
0.00189643 0.00032548 -2.92846e-06
0.00032548 0.000136826 -1.25974e-06
-2.92846e-06 -1.25974e-06 7.84908e-06
0.00202522 0.000438227 2.01702e-06
0.000438227 0.000360835 -3.44384e-07
2.01702e-06 -3.44384e-07 0.00013312
0.00175166 0.000409589 1.67169e-06
0.000409589 0.000120425 2.58531e-06
1.67169e-06 2.58531e-06 -7.0522e-05
0.00123196 0.000326437 3.92534e-06
0.000326437 0.000228056 4.49069e-06
3.92534e-06 4.49069e-06 -5.35235e-05
0.00148291 0.000415795 -3.38454e-06
0.000415795 0.000192692 4.79457e-07
-3.38454e-06 4.79457e-07 -7.57129e-05
0.000223915 -1.65241e-05 -1.32803e-06
-1.65241e-05 -0.00017317 3.05462e-06
-1.32803e-06 3.05462e-06 -0.000272588
-4.21603e-05 7.89441e-05 6.61128e-07
7.89441e-05 -0.000276274 1.23617e-07
6.61128e-07 1.23617e-07 -0.000449364
0.000863183 0.000251911 2.01094e-06
0.000251911 6.42667e-05 2.35069e-06
2.01094e-06 2.35069e-06 -0.000157757
-0.000448708 8.97075e-05 4.15034e-06
8.97075e-05 -0.000620792 -1.40123e-06
4.15034e-06 -1.40123e-06 -0.000785858
0.00200372 0.000333187 -5.89226e-07
0.000333187 1.40359e-05 1.11633e-07
-5.89226e-07 1.11633e-07 -4.19891e-05
0.00240364 0.000416233 8.75165e-07
0.000416233 0.000428263 -1.043e-06
8.75165e-07 -1.043e-06 0.00027627
0.00184558 0.000471032 -3.4257e-06
0.000471032 0.000270034 -4.01363e-06
-3.4257e-06 -4.01363e-06 1.59097e-05
0.000619747 0.000312923 -7.12988e-07
0.000312923 -0.000196176 1.95129e-06
-7.12988e-07 1.95129e-06 -0.000488477
0.000656482 6.47649e-05 -1.06339e-06
6.47649e-05 7.04609e-05 -9.91873e-07
-1.06339e-06 -9.91873e-07 -1.70927e-05
0.00061332 4.30494e-05 -2.15866e-07
4.30494e-05 4.75762e-05 2.04562e-07
-2.15866e-07 2.04562e-07 -4.734e-05
0.000928845 3.7691e-05 -2.62659e-06
3.7691e-05 0.000234301 -1.46864e-06
-2.62659e-06 -1.46864e-06 0.000146523
0.00063903 1.44938e-05 -1.53402e-06
1.44938e-05 5.36899e-05 -1.65485e-06
-1.53402e-06 -1.65485e-06 -2.44319e-05
0.000427232 3.08759e-06 -5.20298e-07
3.08759e-06 -6.53102e-05 -6.873e-07
-5.20298e-07 -6.873e-07 -0.000157956
0.000653555 3.11981e-05 -7.71509e-08
3.11981e-05 7.40089e-05 2.04842e-08
-7.71509e-08 2.04842e-08 -1.07603e-05
0.000663035 8.64805e-05 -8.23661e-07
8.64805e-05 9.34586e-05 -1.34497e-07
-8.23661e-07 -1.34497e-07 -1.27673e-05
0.000582071 2.67975e-05 8.7362e-07
2.67975e-05 4.41814e-05 3.40151e-07
8.7362e-07 3.40151e-07 -6.41517e-05
0.000766895 5.97263e-05 1.06322e-06
5.97263e-05 0.000133339 -1.43331e-06
1.06322e-06 -1.43331e-06 4.46283e-05
0.000672147 -1.26083e-05 2.34984e-06
-1.26083e-05 9.5797e-05 -2.07105e-06
2.34984e-06 -2.07105e-06 -1.5297e-05
0.00049758 5.18814e-05 9.13609e-07
5.18814e-05 -5.66201e-06 1.50979e-06
9.13609e-07 1.50979e-06 -0.000117228
0.000661406 7.79133e-05 1.54372e-06
7.79133e-05 8.27806e-05 2.24371e-06
1.54372e-06 2.24371e-06 -5.61178e-06
0.000557891 4.98219e-05 2.18764e-06
4.98219e-05 7.87802e-06 2.39381e-06
2.18764e-06 2.39381e-06 -5.06851e-05
0.000569293 -1.16182e-06 -1.26394e-06
-1.16182e-06 9.57611e-06 -3.51433e-08
-1.26394e-06 -3.51433e-08 -4.62464e-05
0.00124864 -1.294e-05 8.93182e-07
-1.294e-05 0.000388112 2.44133e-06
8.93182e-07 2.44133e-06 0.000376552
0.000563327 -4.57949e-05 6.83327e-08
-4.57949e-05 2.36289e-06 -2.50443e-06
6.83327e-08 -2.50443e-06 -5.23857e-05
0.00130244 -2.21687e-05 -4.09097e-06
-2.21687e-05 0.000419262 -1.55887e-06
-4.09097e-06 -1.55887e-06 0.000407566
0.000836856 -2.43529e-05 1.71302e-05
-2.43529e-05 0.000143062 8.38458e-06
1.71302e-05 8.38458e-06 0.000149742
0.00134602 -3.23594e-05 -7.38327e-06
-3.23594e-05 0.000445687 -5.644e-06
-7.38327e-06 -5.644e-06 0.000433327
0.000795743 -3.34437e-05 5.96429e-06
-3.34437e-05 0.000119938 3.13057e-06
5.96429e-06 3.13057e-06 0.000125344
0.000738332 -4.06926e-05 -1.12541e-06
-4.06926e-05 9.00732e-05 -2.2337e-06
-1.12541e-06 -2.2337e-06 9.36634e-05
0.000512127 3.74816e-05 1.8811e-07
3.74816e-05 -4.65308e-05 -3.31405e-06
1.8811e-07 -3.31405e-06 -6.21912e-05
0.000507109 5.62475e-05 2.14477e-08
5.62475e-05 -3.40452e-05 1.55228e-07
2.14477e-08 1.55228e-07 -5.85396e-05
0.00226723 8.83901e-05 1.93278e-05
8.83901e-05 0.00102836 -3.78082e-06
1.93278e-05 -3.78082e-06 0.00103492
0.000535996 3.40376e-05 -2.92783e-06
3.40376e-05 -1.04416e-05 5.92779e-06
-2.92783e-06 5.92779e-06 -4.09798e-05
0.00257652 0.000109538 -6.57454e-06
0.000109538 0.00122249 -5.27191e-07
-6.57454e-06 -5.27191e-07 0.00122348
0.00303224 9.04436e-05 -8.22544e-05
9.04436e-05 0.00149787 4.60024e-06
-8.22544e-05 4.60024e-06 0.00150296
0.0017921 0.000230511 -6.87268e-07
0.000230511 0.000113203 2.00181e-06
-6.87268e-07 2.00181e-06 -6.80484e-06
0.00193142 0.000148534 -2.59966e-06
0.000148534 0.000114102 4.48383e-07
-2.59966e-06 4.48383e-07 3.80208e-05
0.00185229 0.000216559 1.00961e-06
0.000216559 4.90813e-05 3.3307e-07
1.00961e-06 3.3307e-07 -2.60081e-05
0.00186919 9.95458e-05 -4.77618e-06
9.95458e-05 4.15493e-05 -6.88115e-07
-4.77618e-06 -6.88115e-07 -1.58635e-06
0.00185551 3.99161e-05 -1.05214e-07
3.99161e-05 8.2228e-05 -2.91404e-07
-1.05214e-07 -2.91404e-07 2.12618e-05
0.00177135 3.76213e-07 -5.19944e-07
3.76213e-07 8.37799e-05 1.1267e-07
-5.19944e-07 1.1267e-07 -6.32252e-06
0.00178815 -3.68433e-06 -3.81953e-07
-3.68433e-06 4.58541e-05 -7.87832e-08
-3.81953e-07 -7.87832e-08 -9.52313e-06
0.00187961 4.47567e-05 8.97523e-07
4.47567e-05 4.72277e-05 1.95473e-07
8.97523e-07 1.95473e-07 1.53452e-05
0.00191712 0.000156582 5.22018e-07
0.000156582 5.66489e-05 -8.34138e-08
5.22018e-07 -8.34138e-08 5.47703e-06
0.00195826 0.000267877 3.16807e-07
0.000267877 0.000109903 1.57543e-07
3.16807e-07 1.57543e-07 1.78709e-05
0.00183452 -8.53121e-06 3.72637e-06
-8.53121e-06 2.43265e-05 -1.79738e-07
3.72637e-06 -1.79738e-07 -4.56593e-06
0.00195232 9.06572e-05 2.96295e-06
9.06572e-05 1.6985e-05 -1.13307e-07
2.96295e-06 -1.13307e-07 7.17856e-06
0.00205677 0.00023344 3.27461e-06
0.00023344 7.77667e-05 1.13893e-06
3.27461e-06 1.13893e-06 2.47304e-05
0.00182267 -6.36403e-05 -1.28293e-06
-6.36403e-05 5.67553e-05 2.79764e-07
-1.28293e-06 2.79764e-07 -3.15781e-06
0.00179108 -0.000124303 -8.624e-07
-0.000124303 3.03133e-05 -6.62624e-07
-8.624e-07 -6.62624e-07 -4.33253e-05
0.0018416 -0.000230227 -2.86779e-06
-0.000230227 7.36871e-05 1.24955e-06
-2.86779e-06 1.24955e-06 -6.42684e-06
0.000950858 -0.000250341 -1.57382e-06
-0.000250341 0.000116972 4.14754e-06
-1.57382e-06 4.14754e-06 -0.000110172
0.000905204 -0.000321579 2.04624e-06
-0.000321579 -3.93926e-05 1.1319e-06
2.04624e-06 1.1319e-06 -0.000308595
0.00160912 -0.000482665 1.77499e-06
-0.000482665 0.000212553 -1.30566e-06
1.77499e-06 -1.30566e-06 -9.19661e-05
0.00173919 -0.000283632 -5.56665e-07
-0.000283632 5.78621e-05 5.04642e-07
-5.56665e-07 5.04642e-07 -5.00007e-05
0.00157847 -0.000356275 2.6274e-07
-0.000356275 -1.90485e-05 -2.02036e-06
2.6274e-07 -2.02036e-06 -0.000153995
0.00188898 -0.000407939 -2.44117e-06
-0.000407939 0.000251831 -7.82289e-06
-2.44117e-06 -7.82289e-06 4.41689e-05
0.0012198 -0.000268593 3.25846e-06
-0.000268593 0.000285494 5.18761e-06
3.25846e-06 5.18761e-06 7.82147e-05
0.000697264 -0.000218513 -7.77134e-06
-0.000218513 2.81151e-05 1.67383e-06
-7.77134e-06 1.67383e-06 -0.000143227
0.00171918 -0.000240077 1.51068e-06
-0.000240077 0.000737974 -1.62469e-06
1.51068e-06 -1.62469e-06 0.000493781
0.000346068 2.9798e-05 8.0943e-07
2.9798e-05 -0.000122144 6.24079e-07
8.0943e-07 6.24079e-07 -0.000187154
0.000885674 -9.19329e-05 2.17677e-06
-9.19329e-05 0.000230931 -9.62244e-07
2.17677e-06 -9.62244e-07 7.15525e-05
0.000425172 3.22228e-05 3.10292e-06
3.22228e-05 -4.40191e-05 1.61235e-06
3.10292e-06 1.61235e-06 -0.000169392
0.00184436 -6.77193e-05 -4.38013e-07
-6.77193e-05 2.80783e-05 1.81039e-07
-4.38013e-07 1.81039e-07 -1.29066e-05
0.00194593 -0.000171102 1.57867e-07
-0.000171102 4.14763e-05 -2.04229e-07
1.57867e-07 -2.04229e-07 3.34088e-06
0.00186117 -0.000278 -3.01645e-07
-0.000278 5.60251e-05 4.83299e-07
-3.01645e-07 4.83299e-07 -1.29962e-05
0.00131597 -0.000311788 -2.2145e-06
-0.000311788 0.000290944 6.90302e-07
-2.2145e-06 6.90302e-07 4.55654e-05
0.00118969 -0.000419464 3.3387e-07
-0.000419464 0.000100797 -1.22129e-06
3.3387e-07 -1.22129e-06 -0.000226088
0.00190979 -0.000512724 -3.90045e-06
-0.000512724 0.000386069 4.70693e-07
-3.90045e-06 4.70693e-07 7.83373e-05
0.00195548 -0.000352748 6.94867e-07
-0.000352748 0.000102837 -3.30983e-07
6.94867e-07 -3.30983e-07 -1.91603e-06
0.00170502 -0.00041569 1.23843e-06
-0.00041569 6.56863e-05 -3.04359e-06
1.23843e-06 -3.04359e-06 -0.00011151
0.000440005 4.85065e-05 -4.54417e-07
4.85065e-05 -7.17974e-05 -1.01647e-06
-4.54417e-07 -1.01647e-06 -0.00012326
0.000711873 -9.61735e-06 -6.37763e-07
-9.61735e-06 0.000127722 2.99846e-07
-6.37763e-07 2.99846e-07 1.98867e-05
0.000294518 -0.000209066 -4.1241e-06
-0.000209066 -0.000270175 6.40023e-06
-4.1241e-06 6.40023e-06 -0.000473052
0.00145335 -0.000271404 8.83318e-07
-0.000271404 0.000517295 -9.56618e-07
8.83318e-07 -9.56618e-07 0.000282983
0.00101221 -7.95162e-05 -1.34092e-07
-7.95162e-05 0.00031377 -1.51807e-06
-1.34092e-07 -1.51807e-06 0.000106381
0.00087161 -8.70872e-05 -7.37966e-07
-8.70872e-05 0.000234863 1.21226e-06
-7.37966e-07 1.21226e-06 8.2365e-05
0.00191443 -8.38937e-05 1.57288e-06
-8.38937e-05 1.18176e-05 2.93465e-07
1.57288e-06 2.93465e-07 -1.38091e-06
0.00201595 -0.000245224 5.25497e-07
-0.000245224 2.78732e-05 2.0754e-07
5.25497e-07 2.0754e-07 1.9023e-05
0.00197117 -0.000301475 1.35309e-06
-0.000301475 8.21833e-05 -2.21189e-06
1.35309e-06 -2.21189e-06 2.45084e-05
0.00194685 -0.000463966 4.33221e-06
-0.000463966 7.21485e-05 -2.64235e-06
4.33221e-06 -2.64235e-06 -5.65475e-05
0.000754146 -0.000311036 -5.11108e-06
-0.000311036 -7.32997e-05 -8.11795e-06
-5.11108e-06 -8.11795e-06 -0.000364845
0.00188521 -0.000517445 -2.53798e-06
-0.000517445 0.000329535 1.24343e-05
-2.53798e-06 1.24343e-05 3.97331e-05
0.00196565 -0.000534835 -4.56504e-06
-0.000534835 0.000520155 -5.02456e-07
-4.56504e-06 -5.02456e-07 0.000151983
0.000605037 4.92629e-05 1.42902e-07
4.92629e-05 1.80946e-05 -1.15439e-06
1.42902e-07 -1.15439e-06 -2.53945e-05
0.000675662 -0.000111221 3.03572e-06
-0.000111221 0.000100312 -1.552e-06
3.03572e-06 -1.552e-06 1.64085e-05
0.000446029 5.45513e-05 -2.65267e-06
5.45513e-05 -4.07426e-05 -8.98497e-07
-2.65267e-06 -8.98497e-07 -0.000129278
0.000638828 -4.81813e-05 -1.5453e-06
-4.81813e-05 0.00010245 3.16382e-06
-1.5453e-06 3.16382e-06 -3.56206e-05
0.000542904 -3.75829e-05 9.00397e-07
-3.75829e-05 1.17985e-05 1.2698e-07
9.00397e-07 1.2698e-07 -0.000146132
-0.000114758 -7.54163e-05 -1.08495e-06
-7.54163e-05 -0.000356081 2.14527e-06
-1.08495e-06 2.14527e-06 -0.000559045
-1.62458e-05 -0.000207141 -5.12313e-06
-0.000207141 -0.00044974 -7.56915e-06
-5.12313e-06 -7.56915e-06 -0.000650178
0.00287473 -0.000405932 -1.36424e-05
-0.000405932 0.00143322 3.29151e-06
-1.36424e-05 3.29151e-06 0.00108754
0.000634894 -3.9488e-06 -1.13384e-06
-3.9488e-06 5.49664e-05 -1.05645e-06
-1.13384e-06 -1.05645e-06 -2.96497e-05
0.000788574 5.18227e-05 4.94518e-07
5.18227e-05 0.000184722 -1.32761e-06
4.94518e-07 -1.32761e-06 4.34025e-05
0.00209125 0.000335647 -1.54865e-06
0.000335647 0.000247605 -6.52361e-07
-1.54865e-06 -6.52361e-07 0.000120885
0.000789412 8.58626e-05 -1.43224e-06
8.58626e-05 0.000179457 3.6893e-06
-1.43224e-06 3.6893e-06 5.28469e-06
0.00167893 0.000323382 2.70877e-06
0.000323382 0.000586878 -7.25397e-07
2.70877e-06 -7.25397e-07 0.000360168
0.000393042 0.000154374 -6.98395e-07
0.000154374 -0.000177601 2.4453e-06
-6.98395e-07 2.4453e-06 -0.000313265
0.0020774 0.000435227 -2.94423e-06
0.000435227 0.000399045 -1.63438e-07
-2.94423e-06 -1.63438e-07 0.00017504
0.0018917 0.00042629 -1.22804e-06
0.00042629 0.000192223 5.84098e-06
-1.22804e-06 5.84098e-06 -2.03091e-06
0.00129106 0.000338644 -9.17118e-07
0.000338644 0.000273495 -4.15416e-07
-9.17118e-07 -4.15416e-07 -1.46651e-05
0.00145536 0.00042265 -1.64808e-07
0.00042265 0.000168834 1.4215e-06
-1.64808e-07 1.4215e-06 -0.000104801
0.000316191 1.47465e-05 -1.47157e-07
1.47465e-05 -0.000111476 1.23415e-06
-1.47157e-07 1.23415e-06 -0.000218031
0.000365477 0.000113357 -6.19813e-07
0.000113357 -3.00166e-05 -2.25947e-06
-6.19813e-07 -2.25947e-06 -0.000210034
0.00133319 0.000301901 3.82776e-06
0.000301901 0.000347512 -1.85292e-06
3.82776e-06 -1.85292e-06 0.000114463
0.000704592 0.000180426 -2.43245e-06
0.000180426 6.07785e-05 -2.84511e-06
-2.43245e-06 -2.84511e-06 -0.00011514
0.00204843 0.000324008 9.49469e-07
0.000324008 3.81489e-05 -8.5758e-07
9.49469e-07 -8.5758e-07 -1.71982e-05
0.00214749 0.00040869 3.00989e-06
0.00040869 0.000287799 6.4053e-07
3.00989e-06 6.4053e-07 0.000131672
0.00182993 0.00046282 -7.61402e-07
0.00046282 0.000254403 3.45697e-07
-7.61402e-07 3.45697e-07 3.78833e-06
0.00120492 0.00037174 -1.4762e-07
0.00037174 0.000119662 7.25095e-07
-1.4762e-07 7.25095e-07 -0.000176337
0.000315621 3.84767e-05 -1.34921e-06
3.84767e-05 -0.000116892 2.98549e-06
-1.34921e-06 2.98549e-06 -0.000224437
0.00201894 0.000265521 9.88601e-07
0.000265521 -3.32365e-05 2.34922e-06
9.88601e-07 2.34922e-06 -3.41584e-05
0.00162305 0.000290507 2.08572e-06
0.000290507 0.000698684 3.98605e-06
2.08572e-06 3.98605e-06 0.000469932
0.0011691 0.000299828 6.19275e-06
0.000299828 0.000216284 3.4439e-06
6.19275e-06 3.4439e-06 -1.75582e-05
0.00248908 0.000405718 -1.7208e-05
0.000405718 0.000369735 -5.2731e-06
-1.7208e-05 -5.2731e-06 0.000262087
0.00101376 0.000431074 -6.54527e-06
0.000431074 -0.000304648 -8.18954e-06
-6.54527e-06 -8.18954e-06 -0.000537497
0.00208393 0.000484451 -6.74392e-07
0.000484451 0.000550866 2.35912e-06
-6.74392e-07 2.35912e-06 0.000234326
0.000687195 5.86731e-05 -1.42242e-06
5.86731e-05 9.13678e-05 -7.94595e-07
-1.42242e-06 -7.94595e-07 -3.04703e-06
0.000684934 5.2886e-05 -1.66288e-06
5.2886e-05 9.71843e-05 -5.82189e-07
-1.66288e-06 -5.82189e-07 5.70383e-06
0.000945508 4.22168e-05 -1.96753e-06
4.22168e-05 0.00025698 5.19742e-07
-1.96753e-06 5.19742e-07 0.000175143
0.000603745 -3.16754e-06 -2.79087e-09
-3.16754e-06 4.7203e-05 -2.34263e-06
-2.79087e-09 -2.34263e-06 -3.93456e-05
0.000661482 5.33259e-05 8.03038e-07
5.33259e-05 9.33108e-05 -3.79699e-08
8.03038e-07 -3.79699e-08 -1.62472e-05
0.000325321 2.8227e-05 -1.26464e-06
2.8227e-05 -9.4764e-05 1.76187e-06
-1.26464e-06 1.76187e-06 -0.000200401
0.000616466 5.9059e-06 -7.18457e-07
5.9059e-06 6.35999e-05 -2.47183e-09
-7.18457e-07 -2.47183e-09 -2.92591e-05
0.000439825 -1.77515e-05 -6.29715e-07
-1.77515e-05 -3.09351e-05 3.54757e-07
-6.29715e-07 3.54757e-07 -0.000146118
0.00048717 1.25004e-05 3.01425e-07
1.25004e-05 -2.59476e-05 3.94006e-07
3.01425e-07 3.94006e-07 -0.000110112
0.000756921 4.96941e-05 6.47122e-07
4.96941e-05 0.000158106 -4.3335e-07
6.47122e-07 -4.3335e-07 3.71703e-05
0.00118124 5.65675e-05 5.85587e-07
5.65675e-05 0.000366197 -1.03793e-06
5.85587e-07 -1.03793e-06 0.000292854
0.000678272 -1.20882e-05 3.04833e-06
-1.20882e-05 8.74582e-05 -2.73231e-06
3.04833e-06 -2.73231e-06 -6.82367e-06
0.000680796 5.1271e-05 2.90545e-07
5.1271e-05 0.000116938 6.70412e-07
2.90545e-07 6.70412e-07 -1.35309e-05
0.000639683 3.98961e-05 2.55313e-06
3.98961e-05 9.07815e-05 1.8945e-06
2.55313e-06 1.8945e-06 -3.65615e-05
0.000653807 2.28899e-05 1.76598e-06
2.28899e-05 7.95684e-05 2.29682e-06
1.76598e-06 2.29682e-06 -1.24433e-05
0.000564623 -3.32353e-05 -1.23047e-07
-3.32353e-05 1.09265e-05 2.25286e-06
-1.23047e-07 2.25286e-06 -4.72367e-05
0.000576476 -6.03598e-06 -3.47514e-07
-6.03598e-06 1.58713e-05 -1.84701e-08
-3.47514e-07 -1.84701e-08 -4.05196e-05
0.00128282 -1.9135e-06 1.00163e-06
-1.9135e-06 0.000411106 2.35413e-06
1.00163e-06 2.35413e-06 0.000398763
0.000583252 -2.47497e-05 6.19331e-07
-2.47497e-05 1.55651e-05 -2.63869e-06
6.19331e-07 -2.63869e-06 -3.85617e-05
0.00130958 -9.9391e-06 -3.14685e-06
-9.9391e-06 0.000425242 -1.59824e-06
-3.14685e-06 -1.59824e-06 0.000413518
0.000826578 -1.63107e-05 1.28495e-05
-1.63107e-05 0.000136167 8.44242e-06
1.28495e-05 8.44242e-06 0.000143313
0.00136004 -2.01141e-05 -5.35305e-06
-2.01141e-05 0.000454115 -5.78049e-06
-5.35305e-06 -5.78049e-06 0.000442276
0.000809028 -2.52249e-05 3.96764e-06
-2.52249e-05 0.000124787 3.24202e-06
3.96764e-06 3.24202e-06 0.000131219
0.000762484 -3.24469e-05 -7.50527e-07
-3.24469e-05 9.83876e-05 -2.22406e-06
-7.50527e-07 -2.22406e-06 0.000103955
0.000652167 1.03293e-05 1.29386e-06
1.03293e-05 4.18985e-05 -1.35475e-06
1.29386e-06 -1.35475e-06 1.94407e-06
0.000527107 2.86099e-05 3.98708e-07
2.86099e-05 -4.51939e-05 -3.39987e-06
3.98708e-07 -3.39987e-06 -5.69948e-05
0.000534125 3.86981e-05 2.06235e-07
3.86981e-05 -3.24537e-05 1.39653e-07
2.06235e-07 1.39653e-07 -4.86063e-05
0.00214376 7.1234e-05 1.77286e-05
7.1234e-05 0.000945117 -3.95208e-06
1.77286e-05 -3.95208e-06 0.000956039
0.00054064 6.01866e-05 3.51889e-06
6.01866e-05 -1.24053e-05 5.05906e-06
3.51889e-06 5.05906e-06 -3.84614e-05
0.00238263 9.26339e-05 -4.56159e-06
9.26339e-05 0.00109848 -3.69709e-07
-4.56159e-06 -3.69709e-07 0.001104
0.00271022 0.000113895 -2.75684e-05
0.000113895 0.00130298 3.98642e-06
-2.75684e-05 3.98642e-06 0.00130292
0.00197831 0.000264723 -6.88818e-07
0.000264723 0.00010798 7.81597e-07
-6.88818e-07 7.81597e-07 1.78783e-05
0.00192317 0.000161586 -3.66836e-06
0.000161586 6.10875e-05 -6.08742e-07
-3.66836e-06 -6.08742e-07 9.48966e-06
0.00190387 4.69919e-05 -4.64616e-06
4.69919e-05 7.02922e-05 -2.13854e-07
-4.64616e-06 -2.13854e-07 3.67891e-05
0.00175839 -5.426e-07 -1.83554e-06
-5.426e-07 2.70152e-05 -4.92874e-08
-1.83554e-06 -4.92874e-08 -2.80674e-05
0.00183861 -5.04384e-06 -8.56489e-07
-5.04384e-06 2.37308e-05 -4.37332e-08
-8.56489e-07 -4.37332e-08 -1.77088e-06
0.00193609 8.57289e-05 9.43869e-08
8.57289e-05 1.25603e-05 -1.92437e-08
9.43869e-08 -1.92437e-08 9.75111e-07
0.00199843 0.000235739 -6.35248e-07
0.000235739 4.23312e-05 -5.38403e-08
-6.35248e-07 -5.38403e-08 -9.07578e-06
0.00193259 -1.81949e-06 1.52147e-06
-1.81949e-06 5.16512e-06 -4.89003e-07
1.52147e-06 -4.89003e-07 4.74343e-06
0.00206081 0.000132567 2.91558e-06
0.000132567 1.09108e-05 -5.64038e-07
2.91558e-06 -5.64038e-07 5.71363e-06
0.00227346 8.54503e-05 -3.06374e-06
8.54503e-05 0.000183644 5.58244e-06
-3.06374e-06 5.58244e-06 0.000226051
0.00186322 -6.79866e-05 -4.66806e-06
-6.79866e-05 4.11124e-05 2.27297e-07
-4.66806e-06 2.27297e-07 -3.46447e-06
0.0019062 -0.000178417 -3.67733e-06
-0.000178417 1.39385e-05 6.23427e-07
-3.67733e-06 6.23427e-07 -2.53504e-05
0.00191703 -0.000278101 -3.16008e-06
-0.000278101 9.43672e-05 1.91274e-06
-3.16008e-06 1.91274e-06 2.20598e-05
0.000802741 -0.000260491 1.42936e-06
-0.000260491 -9.66572e-06 5.95329e-06
1.42936e-06 5.95329e-06 -0.000247191
0.00142588 -0.000438493 1.66944e-06
-0.000438493 0.000238797 -4.83416e-07
1.66944e-06 -4.83416e-07 -8.83104e-05
0.00196939 -0.000507195 -1.95077e-06
-0.000507195 0.000425065 -1.60213e-06
-1.95077e-06 -1.60213e-06 0.000126882
0.00181913 -0.000349554 1.69452e-06
-0.000349554 2.77832e-05 1.43953e-06
1.69452e-06 1.43953e-06 -7.99631e-05
0.00158787 -0.000405665 -3.98243e-06
-0.000405665 -3.40183e-06 -5.92372e-06
-3.98243e-06 -5.92372e-06 -0.00017897
0.00014611 -0.000191735 -5.85103e-07
-0.000191735 -0.000353906 1.27226e-05
-5.85103e-07 1.27226e-05 -0.000547153
0.00211699 -0.000317854 1.56605e-05
-0.000317854 0.000928365 -4.0917e-06
1.56605e-05 -4.0917e-06 0.000686498
0.000739793 -3.21481e-05 7.49902e-07
-3.21481e-05 0.000139994 -1.2103e-06
7.49902e-07 -1.2103e-06 -4.98201e-05
0.000529001 1.54438e-05 1.23445e-07
1.54438e-05 -2.01486e-05 4.15662e-07
1.23445e-07 4.15662e-07 -6.80698e-05
0.000795326 2.7942e-05 2.00656e-06
2.7942e-05 0.000173569 7.0535e-07
2.00656e-06 7.0535e-07 6.65096e-05
0.000856929 -5.69408e-05 7.46242e-07
-5.69408e-05 0.000227636 1.57966e-06
7.46242e-07 1.57966e-06 7.3101e-05
0.00193131 -8.67172e-05 2.70213e-07
-8.67172e-05 1.38202e-05 -6.63545e-08
2.70213e-07 -6.63545e-08 3.35077e-06
0.000578744 1.85504e-05 1.01401e-06
1.85504e-05 1.47182e-06 1.27638e-07
1.01401e-06 1.27638e-07 -4.10508e-05
0.000522386 -4.32419e-05 -1.7565e-06
-4.32419e-05 -1.06059e-05 -4.39888e-08
-1.7565e-06 -4.39888e-08 -8.21125e-05
0.00199236 -0.00023507 -1.3926e-07
-0.00023507 2.97148e-05 2.48487e-07
-1.3926e-07 2.48487e-07 1.80838e-05
0.00191538 -0.000298829 -1.36982e-06
-0.000298829 4.63727e-05 1.72322e-07
-1.36982e-06 1.72322e-07 -9.46493e-06
0.000855229 -0.000318737 -1.75505e-06
-0.000318737 -6.22599e-06 1.50984e-06
-1.75505e-06 1.50984e-06 -0.000293736
0.00186162 -0.000525598 4.55387e-07
-0.000525598 0.000466431 6.07357e-07
4.55387e-07 6.07357e-07 9.50475e-05
0.00159872 -0.000494939 3.41412e-06
-0.000494939 0.000150798 -1.67355e-06
3.41412e-06 -1.67355e-06 -0.000130964
0.00206842 -0.000468355 2.35641e-06
-0.000468355 0.000151996 -9.2675e-07
2.35641e-06 -9.2675e-07 2.13478e-05
0.000706229 -7.63119e-06 7.82345e-07
-7.63119e-06 0.00012146 -1.16912e-06
7.82345e-07 -1.16912e-06 3.15702e-05
0.000720945 -3.07289e-05 2.49289e-07
-3.07289e-05 0.000152146 1.36835e-06
2.49289e-07 1.36835e-06 1.11704e-05
0.00103486 -0.000279506 -3.77893e-06
-0.000279506 0.000164154 -1.87735e-06
-3.77893e-06 -1.87735e-06 -5.16373e-05
0.00170721 -0.000297461 1.51628e-05
-0.000297461 0.000737226 -3.21968e-06
1.51628e-05 -3.21968e-06 0.000446335
0.000424061 -8.19982e-05 -2.81929e-06
-8.19982e-05 -4.40612e-05 -4.70787e-07
-2.81929e-06 -4.70787e-07 -0.000243097
0.000651162 -3.30862e-05 6.33652e-07
-3.30862e-05 9.05065e-05 -7.18946e-07
6.33652e-07 -7.18946e-07 -7.51124e-05
0.00195074 -0.000101348 1.40469e-06
-0.000101348 -5.11816e-05 -1.14869e-06
1.40469e-06 -1.14869e-06 -5.52073e-05
0.00192304 -0.000279888 -3.0907e-07
-0.000279888 -8.09263e-05 4.81326e-07
-3.0907e-07 4.81326e-07 -1.92191e-05
0.00203931 -0.000412615 -4.58152e-06
-0.000412615 4.00805e-05 -1.69399e-06
-4.58152e-06 -1.69399e-06 -3.06713e-05
0.00155171 -0.000530692 5.57044e-07
-0.000530692 -2.31557e-05 -8.43615e-07
5.57044e-07 -8.43615e-07 -0.000189608
0.0008427 -0.000298758 -9.68427e-06
-0.000298758 1.71149e-05 -8.63798e-06
-9.68427e-06 -8.63798e-06 -0.000274572
0.00245086 -0.000623037 -9.76705e-06
-0.000623037 0.000767789 9.17523e-06
-9.76705e-06 9.17523e-06 0.000371495
0.000369245 5.19248e-05 -1.14566e-06
5.19248e-05 -9.20601e-05 -2.05394e-06
-1.14566e-06 -2.05394e-06 -0.000169495
0.000645763 -5.72546e-05 3.43873e-06
-5.72546e-05 6.37564e-05 -6.79614e-07
3.43873e-06 -6.79614e-07 -8.40795e-06
0.000936437 -9.58059e-05 1.40005e-06
-9.58059e-05 0.000248325 2.25799e-06
1.40005e-06 2.25799e-06 0.000149819
0.000453547 1.89817e-05 -2.04281e-06
1.89817e-05 -1.62976e-05 3.18098e-06
-2.04281e-06 3.18098e-06 -0.000143122
0.000901858 -7.3585e-05 -2.47674e-06
-7.3585e-05 0.000240834 3.62666e-06
-2.47674e-06 3.62666e-06 0.000100181
0.00111278 -5.28483e-05 1.76786e-06
-5.28483e-05 0.000316549 -2.68513e-08
1.76786e-06 -2.68513e-08 0.000137362
-0.000608596 -0.000109889 5.34433e-06
-0.000109889 -0.000464874 4.95107e-07
5.34433e-06 4.95107e-07 -0.000847814
-0.000174868 -0.000261944 -2.30726e-05
-0.000261944 -0.000528841 2.18002e-06
-2.30726e-05 2.18002e-06 -0.000744332
0.000384334 5.04156e-05 -1.97519e-07
5.04156e-05 -6.41635e-05 -9.31426e-07
-1.97519e-07 -9.31426e-07 -0.000177839
0.00097016 0.000159604 -5.67617e-06
0.000159604 0.000328063 -2.88381e-06
-5.67617e-06 -2.88381e-06 0.000142699
0.00208542 0.000315368 -4.20023e-06
0.000315368 6.08446e-05 -1.81215e-06
-4.20023e-06 -1.81215e-06 5.34444e-06
0.00193515 0.000403244 -3.45367e-07
0.000403244 0.00017142 1.66e-06
-3.45367e-07 1.66e-06 1.09206e-05
0.00182298 0.000244182 -7.7624e-06
0.000244182 0.000707249 -8.46419e-07
-7.7624e-06 -8.46419e-07 0.000530184
0.00175895 0.00034607 -4.40112e-06
0.00034607 0.000602937 -8.08474e-06
-4.40112e-06 -8.08474e-06 0.000361787
0.00184944 0.000458113 2.00883e-06
0.000458113 0.000257093 2.13872e-06
2.00883e-06 2.13872e-06 8.9265e-06
0.00190994 0.000439867 -3.52936e-07
0.000439867 0.000508087 -1.45925e-06
-3.52936e-07 -1.45925e-06 0.000206393
0.0005378 6.99213e-05 7.70244e-07
6.99213e-05 2.79192e-05 -1.00725e-06
7.70244e-07 -1.00725e-06 -9.23055e-05
0.00208212 0.000251136 -1.08291e-06
0.000251136 -1.62378e-06 -8.04648e-07
-1.08291e-06 -8.04648e-07 3.36838e-06
0.00108595 0.000210675 1.16877e-06
0.000210675 0.000367247 1.61391e-06
1.16877e-06 1.61391e-06 0.000158385
0.001195 0.000304443 1.1991e-06
0.000304443 0.000235296 -9.93128e-07
1.1991e-06 -9.93128e-07 -5.57152e-06
0.00228696 0.000397885 2.48815e-06
0.000397885 0.000258733 5.77159e-07
2.48815e-06 5.77159e-07 0.000154025
0.00162622 0.000472668 -1.33135e-06
0.000472668 3.61327e-05 -3.93378e-06
-1.33135e-06 -3.93378e-06 -0.000197926
0.00192971 0.000469261 -1.31901e-07
0.000469261 0.000473168 1.93999e-07
-1.31901e-07 1.93999e-07 0.000156999
0.00115531 0.00016465 -3.89386e-06
0.00016465 0.000418317 3.5038e-06
-3.89386e-06 3.5038e-06 0.000253403
0.00239021 0.000290459 -4.83386e-05
0.000290459 0.000234907 -1.29736e-05
-4.83386e-05 -1.29736e-05 0.00026062
0.00203086 0.000383662 -5.67373e-06
0.000383662 0.000842366 6.09486e-07
-5.67373e-06 6.09486e-07 0.000603968
0.00205138 0.000432717 -8.35898e-06
0.000432717 0.000638639 -2.79032e-07
-8.35898e-06 -2.79032e-07 0.000355377
0.00208345 0.000524507 -2.50011e-05
0.000524507 0.000185648 -1.30811e-05
-2.50011e-05 -1.30811e-05 2.05929e-05
0.000797355 0.000396135 -1.88636e-05
0.000396135 -0.000214903 -2.09026e-06
-1.88636e-05 -2.09026e-06 -0.000502509
0.00102057 0.000399534 3.55632e-05
0.000399534 -0.000468785 -2.19201e-05
3.55632e-05 -2.19201e-05 -0.000718056
0.000427845 6.71986e-05 1.06722e-06
6.71986e-05 -4.36615e-05 -7.08508e-07
1.06722e-06 -7.08508e-07 -0.00013984
0.000622731 4.99978e-05 -1.43446e-07
4.99978e-05 8.18897e-05 1.03645e-06
-1.43446e-07 1.03645e-06 -3.82417e-06
0.00146488 8.52399e-05 7.12582e-07
8.52399e-05 0.000559746 1.4731e-07
7.12582e-07 1.4731e-07 0.000471841
0.000569426 -6.18276e-05 2.06566e-07
-6.18276e-05 4.32139e-05 -2.87178e-06
2.06566e-07 -2.87178e-06 -5.36786e-05
0.000510632 -3.92111e-05 -1.37537e-06
-3.92111e-05 6.13761e-06 -1.67499e-07
-1.37537e-06 -1.67499e-07 -0.000105019
0.000925829 0.000136302 -2.83673e-07
0.000136302 0.0002595 8.83151e-07
-2.83673e-07 8.83151e-07 0.000133971
0.000283033 -2.19803e-06 -1.95075e-06
-2.19803e-06 -0.000136744 4.4972e-06
-1.95075e-06 4.4972e-06 -0.000221801
0.000614332 -2.27031e-05 -1.33598e-07
-2.27031e-05 6.86068e-05 -3.66801e-08
-1.33598e-07 -3.66801e-08 -3.09137e-05
0.000610623 4.64653e-05 -4.32119e-08
4.64653e-05 5.78075e-05 -4.87639e-07
-4.32119e-08 -4.87639e-07 -5.81247e-05
0.000926617 4.89521e-05 -1.36401e-06
4.89521e-05 0.0002169 6.71635e-07
-1.36401e-06 6.71635e-07 0.000142785
0.000705743 3.11733e-05 7.82064e-07
3.11733e-05 0.000117853 1.11515e-07
7.82064e-07 1.11515e-07 -3.29538e-06
0.000739422 1.18815e-05 -5.21361e-07
1.18815e-05 0.000120404 -5.11811e-07
-5.21361e-07 -5.11811e-07 2.32755e-05
0.000986496 4.95512e-05 7.27651e-07
4.95512e-05 0.000255937 -3.74416e-06
7.27651e-07 -3.74416e-06 0.000176722
0.000861444 5.8005e-05 -1.90835e-06
5.8005e-05 0.000194528 -2.19933e-06
-1.90835e-06 -2.19933e-06 6.99152e-05
0.000824197 8.29499e-05 9.04512e-07
8.29499e-05 0.000180135 5.3753e-07
9.04512e-07 5.3753e-07 5.97665e-05
0.000682657 4.49231e-05 5.56091e-07
4.49231e-05 0.000116461 1.52071e-06
5.56091e-07 1.52071e-06 -1.77995e-05
0.000468772 -2.38373e-05 -2.63148e-07
-2.38373e-05 -3.42943e-05 2.4625e-06
-2.63148e-07 2.4625e-06 -0.000129396
0.000903373 -3.32851e-05 2.69854e-07
-3.32851e-05 0.000269885 -7.62416e-07
2.69854e-07 -7.62416e-07 0.000134905
0.000374213 -1.89873e-05 -9.65807e-07
-1.89873e-05 -8.77219e-05 2.4833e-06
-9.65807e-07 2.4833e-06 -0.000186326
0.000533582 4.6098e-06 -1.41102e-06
4.6098e-06 -4.64895e-06 2.31652e-06
-1.41102e-06 2.31652e-06 -6.50601e-05
0.000553014 2.43418e-05 1.53963e-06
2.43418e-05 5.98949e-06 -2.01897e-08
1.53963e-06 -2.01897e-08 -5.3576e-05
0.000512635 8.72933e-06 7.21837e-07
8.72933e-06 -4.89443e-05 3.87665e-06
7.21837e-07 3.87665e-06 -6.62449e-05
0.000556696 6.87446e-07 -2.08012e-06
6.87446e-07 6.41814e-06 -2.48066e-06
-2.08012e-06 -2.48066e-06 -5.17554e-05
0.000929293 2.22998e-06 -2.15901e-06
2.22998e-06 0.000199643 -1.66096e-06
-2.15901e-06 -1.66096e-06 0.000184919
0.00242274 -1.3223e-05 8.73099e-06
-1.3223e-05 0.00109547 5.27221e-06
8.73099e-06 5.27221e-06 0.00111038
0.00136784 -7.91705e-06 -3.5711e-06
-7.91705e-06 0.000460798 -5.6796e-06
-3.5711e-06 -5.6796e-06 0.000448765
0.000803265 -1.65066e-05 2.2841e-06
-1.65066e-05 0.000120182 3.27461e-06
2.2841e-06 3.27461e-06 0.000127373
0.000778641 -2.3749e-05 -1.73187e-07
-2.3749e-05 0.00010474 -2.25097e-06
-1.73187e-07 -2.25097e-06 0.000111421
0.000587097 1.20502e-05 -6.95124e-07
1.20502e-05 5.87536e-06 -1.33296e-06
-6.95124e-07 -1.33296e-06 -3.34576e-05
0.000608352 -4.14952e-06 1.09853e-06
-4.14952e-06 1.70791e-05 -1.3473e-07
1.09853e-06 -1.3473e-07 -2.38384e-05
0.000558694 2.18737e-05 3.48637e-07
2.18737e-05 -2.9461e-05 -3.31725e-06
3.48637e-07 -3.31725e-06 -3.90534e-05
0.00086308 3.51405e-05 -3.52377e-07
3.51405e-05 0.000158227 5.02869e-08
-3.52377e-07 5.02869e-08 0.000147815
0.00211071 5.7025e-05 1.38535e-05
5.7025e-05 0.000918361 -4.17213e-06
1.38535e-05 -4.17213e-06 0.000932115
0.000545696 4.2364e-05 1.10091e-06
4.2364e-05 -2.37047e-05 3.76839e-06
1.10091e-06 3.76839e-06 -4.07912e-05
0.00220888 7.47488e-05 -2.88271e-06
7.47488e-05 0.000985526 -1.97817e-07
-2.88271e-06 -1.97817e-07 0.000995527
0.00243653 9.53209e-05 -1.93725e-05
9.53209e-05 0.00113131 4.05302e-06
-1.93725e-05 4.05302e-06 0.00113614
0.00194891 0.000238562 -4.09394e-06
0.000238562 1.06017e-05 -1.91649e-06
-4.09394e-06 -1.91649e-06 -3.8715e-05
0.00191898 8.15792e-05 -1.9338e-06
8.15792e-05 7.32191e-06 4.74142e-07
-1.9338e-06 4.74142e-07 -5.81166e-06
0.00184267 -3.13579e-06 -4.80466e-06
-3.13579e-06 2.30474e-05 9.56758e-08
-4.80466e-06 9.56758e-08 9.96923e-07
0.00192623 -3.62497e-07 1.45396e-07
-3.62497e-07 3.82483e-06 -1.79751e-07
1.45396e-07 -1.79751e-07 3.31751e-06
0.00204567 0.000133481 1.09326e-08
0.000133481 1.69378e-05 2.04357e-07
1.09326e-08 2.04357e-07 1.05996e-05
0.00196659 7.1662e-05 5.68546e-06
7.1662e-05 -1.10182e-05 -1.75155e-06
5.68546e-06 -1.75155e-06 2.56246e-05
0.0020507 4.13176e-06 -1.51233e-06
4.13176e-06 -1.78182e-05 -1.41958e-06
-1.51233e-06 -1.41958e-06 4.93265e-06
0.00311323 0.000371887 3.5541e-05
0.000371887 -0.00038776 5.36888e-06
3.5541e-05 5.36888e-06 -0.00010334
0.00230488 4.59611e-05 -3.01247e-05
4.59611e-05 0.000347454 1.75564e-05
-3.01247e-05 1.75564e-05 0.000440213
0.000573118 8.56742e-05 -8.74401e-07
8.56742e-05 3.38619e-05 -1.56579e-07
-8.74401e-07 -1.56579e-07 -4.09989e-05
0.00194572 -8.88386e-05 -1.61097e-06
-8.88386e-05 1.55137e-05 -2.63101e-07
-1.61097e-06 -2.63101e-07 7.62661e-06
0.00196281 -0.00022511 -4.25283e-07
-0.00022511 2.97142e-05 5.5286e-08
-4.25283e-07 5.5286e-08 1.30607e-05
0.00186984 -0.000298908 -7.84709e-07
-0.000298908 1.6893e-05 2.26213e-06
-7.84709e-07 2.26213e-06 -3.87257e-05
0.000639228 -0.000294874 -1.98395e-06
-0.000294874 -0.00012821 9.63496e-06
-1.98395e-06 9.63496e-06 -0.000405798
0.00200745 -0.000538622 4.50778e-06
-0.000538622 0.000554371 4.41403e-06
4.50778e-06 4.41403e-06 0.000178889
0.0014586 -0.000488464 1.3707e-06
-0.000488464 5.03096e-05 -8.62925e-06
1.3707e-06 -8.62925e-06 -0.000227334
0.0022099 -0.00047526 -2.41759e-06
-0.00047526 0.000243544 -1.24523e-06
-2.41759e-06 -1.24523e-06 0.000109871
0.00190005 -0.000339348 1.77264e-05
-0.000339348 0.000655786 -2.61673e-08
1.77264e-05 -2.61673e-08 0.000427774
0.000386714 -0.000176659 1.32978e-05
-0.000176659 -4.46414e-05 -5.04033e-06
1.32978e-05 -5.04033e-06 -0.000281799
0.00111544 -0.000115168 2.03821e-06
-0.000115168 0.000358955 -2.66518e-06
2.03821e-06 -2.66518e-06 0.00016207
0.000579504 5.33357e-06 -5.70664e-07
5.33357e-06 1.21112e-06 1.38433e-06
-5.70664e-07 1.38433e-06 -4.02719e-05
0.000869041 -2.01943e-05 2.13569e-06
-2.01943e-05 0.000232241 -1.76779e-06
2.13569e-06 -1.76779e-06 5.92756e-05
0.000887939 -3.5963e-05 2.40379e-06
-3.5963e-05 0.000238555 -6.91306e-07
2.40379e-06 -6.91306e-07 0.00014674
0.000852505 -2.90107e-05 1.50467e-06
-2.90107e-05 0.000227246 -1.30341e-06
1.50467e-06 -1.30341e-06 8.44976e-05
0.000360231 -2.94779e-05 -2.29409e-06
-2.94779e-05 -0.000114126 6.24768e-07
-2.29409e-06 6.24768e-07 -0.000182369
0.00197855 -0.000115622 -2.99313e-07
-0.000115622 -5.6874e-05 1.80381e-07
-2.99313e-07 1.80381e-07 -4.68111e-05
0.00047282 3.61818e-05 -4.68154e-08
3.61818e-05 -2.38554e-05 -1.4177e-06
-4.68154e-08 -1.4177e-06 -0.000104216
0.000631493 -5.41206e-05 1.027e-06
-5.41206e-05 6.4805e-05 4.94089e-07
1.027e-06 4.94089e-07 -1.26307e-05
0.00078533 -6.56672e-05 1.25529e-07
-6.56672e-05 0.000156 7.46467e-07
1.25529e-07 7.46467e-07 5.96826e-05
0.00195621 -0.000282804 1.28916e-06
-0.000282804 -4.69976e-05 -1.80877e-07
1.28916e-06 -1.80877e-07 -2.60636e-06
0.00207693 -0.000414923 2.20593e-08
-0.000414923 6.83624e-05 -5.43282e-07
2.20593e-08 -5.43282e-07 -3.03053e-06
0.00124885 -0.000345249 7.71066e-06
-0.000345249 0.000240067 -4.42181e-07
7.71066e-06 -4.42181e-07 -5.32522e-05
0.00216806 -0.00059697 6.69784e-06
-0.00059697 0.000617791 -6.0094e-08
6.69784e-06 -6.0094e-08 0.000233506
0.00195447 -0.000556519 -1.06556e-06
-0.000556519 0.000219881 1.56401e-06
-1.06556e-06 1.56401e-06 4.05489e-05
0.000440899 -1.37226e-05 -5.54822e-07
-1.37226e-05 -2.00432e-05 -2.29357e-07
-5.54822e-07 -2.29357e-07 -0.000143151
0.000849202 -8.47451e-05 -1.8175e-06
-8.47451e-05 0.000217372 6.00169e-07
-1.8175e-06 6.00169e-07 6.54332e-05
0.000672431 -0.000336658 -6.79083e-06
-0.000336658 -3.06958e-05 -6.05999e-07
-6.79083e-06 -6.05999e-07 -0.000290536
0.000531999 -0.000119626 -9.25209e-08
-0.000119626 0.000116786 -1.5949e-06
-9.25209e-08 -1.5949e-06 -0.000202117
0.000734126 -7.06483e-05 -5.98455e-08
-7.06483e-05 9.2292e-05 3.37828e-07
-5.98455e-08 3.37828e-07 -7.94043e-05
0.00238523 -0.000233763 -3.81115e-06
-0.000233763 0.000163781 -1.6453e-06
-3.81115e-06 -1.6453e-06 0.000179455
0.00178808 -0.000299155 -1.26237e-05
-0.000299155 -0.000173443 2.1203e-06
-1.26237e-05 2.1203e-06 -9.54468e-05
0.00241487 -0.000575083 -1.09751e-05
-0.000575083 0.000294645 -1.62339e-06
-1.09751e-05 -1.62339e-06 0.000149342
0.00291436 -0.000679145 -2.33449e-05
-0.000679145 0.000866613 9.6006e-07
-2.33449e-05 9.6006e-07 0.000620214
0.00116885 -0.0003802 -2.29208e-05
-0.0003802 0.000241664 -2.92572e-06
-2.29208e-05 -2.92572e-06 -5.97093e-05
0.000410655 -1.90707e-06 1.28757e-06
-1.90707e-06 -6.04347e-05 5.65451e-08
1.28757e-06 5.65451e-08 -0.000158
0.000465808 3.76399e-05 5.76656e-07
3.76399e-05 -4.29193e-05 1.51018e-06
5.76656e-07 1.51018e-06 -0.000142155
0.000303255 -6.69256e-06 -1.79616e-07
-6.69256e-06 -0.000123879 -8.61041e-07
-1.79616e-07 -8.61041e-07 -0.000229681
0.00142891 -0.000172633 -3.94991e-06
-0.000172633 0.000582296 6.88185e-06
-3.94991e-06 6.88185e-06 0.000435321
0.00049076 -6.15774e-05 -2.00903e-06
-6.15774e-05 -2.06684e-05 7.87917e-06
-2.00903e-06 7.87917e-06 -0.000163375
-0.000187143 -8.89306e-05 8.8965e-07
-8.89306e-05 -0.000214253 4.50913e-06
8.8965e-07 4.50913e-06 -0.000571616
-0.000133471 -0.000387714 9.74154e-07
-0.000387714 -0.000259356 5.55586e-07
9.74154e-07 5.55586e-07 -0.000675721
0.000845618 0.000114271 6.11864e-07
0.000114271 0.000224776 -4.61853e-06
6.11864e-07 -4.61853e-06 8.85186e-05
0.000290027 0.000102524 -2.19284e-06
0.000102524 -0.000118992 -1.47851e-06
-2.19284e-06 -1.47851e-06 -0.000302059
0.00213684 0.000233248 7.3735e-06
0.000233248 1.9373e-05 4.01207e-07
7.3735e-06 4.01207e-07 3.53417e-05
0.00212638 0.000391525 1.41612e-05
0.000391525 0.000172642 3.96022e-06
1.41612e-05 3.96022e-06 7.22208e-05
0.00228552 0.000516523 1.3865e-05
0.000516523 0.000406719 4.09397e-06
1.3865e-05 4.09397e-06 0.000171241
0.00118704 0.000306245 -8.52454e-07
0.000306245 0.000232017 -1.40372e-06
-8.52454e-07 -1.40372e-06 -1.49194e-05
0.00170336 0.000447485 1.20917e-06
0.000447485 0.000353143 1.65556e-06
1.20917e-06 1.65556e-06 3.95179e-05
0.00143633 0.000147632 1.53191e-08
0.000147632 0.000562497 1.58749e-07
1.53191e-08 1.58749e-07 0.000410904
0.00236752 0.000257524 -2.70462e-06
0.000257524 0.000253106 8.03293e-07
-2.70462e-06 8.03293e-07 0.00028522
0.00145554 0.000302182 -2.0815e-06
0.000302182 0.000492928 7.92902e-07
-2.0815e-06 7.92902e-07 0.000273506
0.00152935 0.000383415 6.37504e-07
0.000383415 0.000368032 2.55164e-06
6.37504e-07 2.55164e-06 7.89174e-05
0.00202924 0.000513913 -1.52909e-06
0.000513913 0.000145929 -2.73493e-06
-1.52909e-06 -2.73493e-06 -4.83609e-06
0.00165296 0.000477747 -3.57973e-06
0.000477747 0.00026409 5.32906e-06
-3.57973e-06 5.32906e-06 -3.89467e-05
0.00237247 0.000530604 4.78274e-05
0.000530604 -7.92958e-05 4.51809e-06
4.78274e-05 4.51809e-06 -0.000392746
0.00106638 0.000207325 -5.66881e-06
0.000207325 0.000365358 -1.90821e-07
-5.66881e-06 -1.90821e-07 0.000187413
0.00306305 0.000449427 -6.24149e-05
0.000449427 0.000761575 -2.78245e-05
-6.24149e-05 -2.78245e-05 0.000721558
0.0011191 0.000298729 -3.99521e-06
0.000298729 0.000212132 -1.90309e-06
-3.99521e-06 -1.90309e-06 -1.21705e-06
0.000342531 0.000293352 -8.96889e-07
0.000293352 -0.000308905 -5.82783e-06
-8.96889e-07 -5.82783e-06 -0.000587475
0.000492248 0.000473487 -2.12582e-05
0.000473487 -0.000528664 -4.4215e-06
-2.12582e-05 -4.4215e-06 -0.000718251
0.0112485 0.000413963 -0.000235073
0.000413963 0.00235084 -5.20619e-05
-0.000235073 -5.20619e-05 0.00146038
0.00607556 0.000949043 0.00011882
0.000949043 0.000718534 -3.8094e-05
0.00011882 -3.8094e-05 0.000563914
-4.08414e-05 0.000632478 1.05989e-05
0.000632478 -0.000841748 5.19766e-06
1.05989e-05 5.19766e-06 -0.00113398
-0.00395521 -0.000939275 0.000525226
-0.000939275 -0.000520089 7.97483e-05
0.000525226 7.97483e-05 -0.00218221
0.0104126 -0.00329783 -2.46632e-05
-0.00329783 0.00263293 2.38572e-05
-2.46632e-05 2.38572e-05 0.00363219
0.000375142 5.83261e-05 4.19143e-06
5.83261e-05 -5.17433e-05 6.1491e-07
4.19143e-06 6.1491e-07 -0.000139906
0.000887972 5.6344e-05 1.34521e-06
5.6344e-05 0.0002426 -9.0275e-07
1.34521e-06 -9.0275e-07 0.00015587
0.0012066 0.000128096 -1.58432e-06
0.000128096 0.000434682 -3.99398e-07
-1.58432e-06 -3.99398e-07 0.000327948
0.000584326 -6.16457e-05 -1.80578e-07
-6.16457e-05 5.9213e-05 -2.08681e-06
-1.80578e-07 -2.08681e-06 -4.5173e-05
0.000587076 6.00663e-05 -1.52513e-06
6.00663e-05 4.69772e-05 -1.87307e-06
-1.52513e-06 -1.87307e-06 -7.29414e-05
0.000717731 -2.42809e-05 -3.63691e-08
-2.42809e-05 0.000127251 -4.45867e-07
-3.63691e-08 -4.45867e-07 5.37213e-06
0.000797886 3.54601e-05 -2.29919e-06
3.54601e-05 0.000151242 3.59632e-06
-2.29919e-06 3.59632e-06 5.14616e-05
0.000542496 3.58333e-05 -1.64468e-06
3.58333e-05 -7.55722e-06 2.86215e-06
-1.64468e-06 2.86215e-06 -8.19872e-05
0.000793242 8.84548e-05 -1.8019e-06
8.84548e-05 0.00017797 -5.52139e-07
-1.8019e-06 -5.52139e-07 4.56415e-05
0.000527462 -1.02404e-05 1.92698e-08
-1.02404e-05 7.45463e-06 7.19386e-07
1.92698e-08 7.19386e-07 -9.07686e-05
0.000652137 2.04088e-05 2.90323e-07
2.04088e-05 9.39594e-05 2.02628e-07
2.90323e-07 2.02628e-07 -3.68589e-05
0.000683365 4.65614e-05 6.64091e-07
4.65614e-05 7.40975e-05 -6.34107e-07
6.64091e-07 -6.34107e-07 -5.86834e-06
0.00080822 6.09366e-05 -9.95874e-07
6.09366e-05 0.000163308 -3.11835e-07
-9.95874e-07 -3.11835e-07 4.35441e-05
0.00130001 0.000116247 -1.66649e-06
0.000116247 0.000464058 -1.45319e-06
-1.66649e-06 -1.45319e-06 0.000338613
0.000383328 5.69135e-05 1.41472e-07
5.69135e-05 -7.00633e-05 -2.93566e-06
1.41472e-07 -2.93566e-06 -0.000180226
0.000775463 8.63392e-05 1.9039e-06
8.63392e-05 0.000151994 5.39371e-07
1.9039e-06 5.39371e-07 2.67919e-05
0.000546602 -2.38827e-05 1.27945e-06
-2.38827e-05 1.68741e-05 7.04594e-08
1.27945e-06 7.04594e-08 -0.000104095
0.000415047 -5.55026e-05 -1.18209e-06
-5.55026e-05 -6.19416e-05 2.23928e-06
-1.18209e-06 2.23928e-06 -0.000162618
0.00077137 -8.60091e-06 -5.9692e-07
-8.60091e-06 0.000162421 9.03718e-08
-5.9692e-07 9.03718e-08 3.6633e-05
0.000849891 3.07922e-05 4.56029e-08
3.07922e-05 0.000213025 -3.57278e-06
4.56029e-08 -3.57278e-06 9.12389e-05
0.000649148 -2.85986e-05 -6.4087e-07
-2.85986e-05 0.000100819 1.695e-07
-6.4087e-07 1.695e-07 -1.79521e-05
0.000790255 -2.81349e-05 1.23858e-06
-2.81349e-05 0.000182042 -6.28336e-07
1.23858e-06 -6.28336e-07 5.94885e-05
0.0006645 -9.16835e-05 -2.47139e-06
-9.16835e-05 8.76483e-05 1.65625e-06
-2.47139e-06 1.65625e-06 -9.3889e-06
0.000423598 -1.40378e-05 1.61132e-07
-1.40378e-05 -5.61292e-05 8.97653e-07
1.61132e-07 8.97653e-07 -0.000156885
0.000571092 -2.58706e-05 -1.62645e-06
-2.58706e-05 9.98073e-06 2.61348e-06
-1.62645e-06 2.61348e-06 -4.72082e-05
0.000565505 -2.22538e-05 1.18083e-06
-2.22538e-05 1.26842e-05 1.9241e-08
1.18083e-06 1.9241e-08 -4.69809e-05
0.000559282 5.95224e-06 2.43563e-07
5.95224e-06 -2.02802e-05 5.68225e-06
2.43563e-07 5.68225e-06 -3.80834e-05
0.000564781 2.38695e-05 -1.10444e-06
2.38695e-05 1.00267e-05 -2.37724e-06
-1.10444e-06 -2.37724e-06 -4.75252e-05
0.000525833 6.4046e-06 4.42753e-07
6.4046e-06 -4.07691e-05 1.0248e-08
4.42753e-07 1.0248e-08 -5.81686e-05
0.00239823 -1.56188e-06 -8.28348e-07
-1.56188e-06 0.00108086 5.32663e-06
-8.28348e-07 5.32663e-06 0.00109581
0.000574486 6.01315e-06 -1.1553e-06
6.01315e-06 -1.33839e-05 -5.86541e-06
-1.1553e-06 -5.86541e-06 -3.0649e-05
0.00161684 -9.88537e-06 1.97506e-08
-9.88537e-06 0.000609749 9.19798e-08
1.97506e-08 9.19798e-08 0.000620554
0.000775166 -1.47205e-05 2.57629e-07
-1.47205e-05 0.000101252 -2.15265e-06
2.57629e-07 -2.15265e-06 0.00010879
0.00058564 -1.48328e-05 1.03989e-06
-1.48328e-05 7.75381e-06 -1.25439e-06
1.03989e-06 -1.25439e-06 -3.03999e-05
0.000612711 -2.3022e-05 3.88123e-07
-2.3022e-05 2.1908e-05 -5.18256e-08
3.88123e-07 -5.18256e-08 -1.83293e-05
0.000575836 1.40302e-05 5.26101e-07
1.40302e-05 -2.13843e-05 -3.05811e-06
5.26101e-07 -3.05811e-06 -2.9124e-05
0.000584307 -1.69525e-05 -1.40886e-06
-1.69525e-05 1.35503e-06 1.13965e-06
-1.40886e-06 1.13965e-06 -3.88789e-05
0.00084477 2.58396e-05 -5.48813e-08
2.58396e-05 0.00014296 -7.12147e-07
-5.48813e-08 -7.12147e-07 0.000135317
0.00203487 4.23655e-05 1.03503e-05
4.23655e-05 0.000867739 -4.28664e-06
1.03503e-05 -4.28664e-06 0.000884011
0.000543836 3.07339e-05 -4.07601e-07
3.07339e-05 -3.38746e-05 3.37513e-06
-4.07601e-07 3.37513e-06 -4.63428e-05
0.00216999 5.94118e-05 -7.08732e-06
5.94118e-05 0.000956254 1.11115e-06
-7.08732e-06 1.11115e-06 0.000969302
0.00228276 7.84943e-05 -1.5069e-05
7.84943e-05 0.00103116 4.1017e-06
-1.5069e-05 4.1017e-06 0.00104022
0.00202356 0.00013458 -2.6055e-06
0.00013458 1.94132e-05 -4.52177e-07
-2.6055e-06 -4.52177e-07 1.20076e-05
0.00192529 2.4697e-07 -1.34769e-06
2.4697e-07 5.62901e-06 2.4986e-07
-1.34769e-06 2.4986e-07 4.98507e-06
0.0016786 5.81559e-05 8.32645e-06
5.81559e-05 -0.000196654 9.074e-07
8.32645e-06 9.074e-07 -0.000165637
0.00227658 0.000268877 4.28077e-05
0.000268877 -0.000631516 9.41671e-06
4.28077e-05 9.41671e-06 -0.000446057
0.00201073 -1.11502e-05 -2.14104e-06
-1.11502e-05 -2.90036e-05 -7.88435e-07
-2.14104e-06 -7.88435e-07 -5.53204e-06
0.00193078 5.42908e-05 3.67791e-06
5.42908e-05 0.000132907 -3.75086e-06
3.67791e-06 -3.75086e-06 0.000204935
0.00291145 -1.94278e-05 -2.84748e-05
-1.94278e-05 0.000746612 4.41037e-06
-2.84748e-05 4.41037e-06 0.000727154
0.00192202 -1.46802e-05 4.21797e-05
-1.46802e-05 -0.00154931 -2.89009e-05
4.21797e-05 -2.89009e-05 -0.00126077
0.00250259 0.00010038 4.29454e-05
0.00010038 -0.000183259 2.52869e-05
4.29454e-05 2.52869e-05 1.37727e-05
0.000611945 7.17433e-05 1.41555e-07
7.17433e-05 6.03947e-05 -5.02425e-07
1.41555e-07 -5.02425e-07 -1.7569e-05
0.000635587 -8.28308e-06 5.69403e-07
-8.28308e-06 7.66288e-05 -1.98793e-07
5.69403e-07 -1.98793e-07 -3.42258e-06
0.000609521 -9.76931e-05 -1.05534e-06
-9.76931e-05 6.07761e-05 1.2366e-06
-1.05534e-06 1.2366e-06 -3.41918e-05
0.000581698 -4.35226e-05 -1.32161e-06
-4.35226e-05 6.66288e-05 1.04e-06
-1.32161e-06 1.04e-06 -3.86166e-05
0.00201911 -0.00012853 -3.31858e-06
-0.00012853 -5.43221e-05 4.77838e-07
-3.31858e-06 4.77838e-07 -2.96465e-05
0.00198042 -0.000280527 7.93149e-07
-0.000280527 -1.52374e-05 -4.64761e-07
7.93149e-07 -4.64761e-07 1.59475e-05
0.00210546 -0.000413762 -1.96857e-06
-0.000413762 9.20577e-05 2.03906e-06
-1.96857e-06 2.03906e-06 2.12976e-05
0.00258572 -0.00048995 1.17415e-05
-0.00048995 0.000988847 2.89298e-06
1.17415e-05 2.89298e-06 0.00068189
0.00101425 -0.000492938 1.20041e-05
-0.000492938 -1.48314e-05 -3.84689e-06
1.20041e-05 -3.84689e-06 -0.000380535
0.00233695 -0.000581198 7.59772e-06
-0.000581198 0.000448487 -3.28853e-06
7.59772e-06 -3.28853e-06 0.000258429
0.00125122 -0.000377136 -3.76794e-06
-0.000377136 0.000315355 3.09865e-06
-3.76794e-06 3.09865e-06 2.25977e-05
0.002028 -0.000158495 1.77812e-06
-0.000158495 0.000903938 -5.86392e-07
1.77812e-06 -5.86392e-07 0.000647198
0.000196912 -7.19198e-05 2.2013e-07
-7.19198e-05 -0.000230826 -1.23064e-06
2.2013e-07 -1.23064e-06 -0.000390735
0.000673121 -4.1779e-05 -1.13712e-07
-4.1779e-05 8.89538e-05 9.87677e-07
-1.13712e-07 9.87677e-07 1.27314e-05
0.000683427 -9.20197e-05 8.46857e-07
-9.20197e-05 0.000129874 -3.38922e-06
8.46857e-07 -3.38922e-06 -3.24024e-05
0.000749101 -7.17281e-06 1.06317e-06
-7.17281e-06 0.000165874 -1.18531e-06
1.06317e-06 -1.18531e-06 4.2703e-05
0.000635966 6.84387e-06 1.01771e-07
6.84387e-06 8.01493e-05 -2.82129e-07
1.01771e-07 -2.82129e-07 -3.21338e-06
0.000540175 -4.82545e-06 -3.6466e-06
-4.82545e-06 8.89575e-06 2.21126e-06
-3.6466e-06 2.21126e-06 -8.43349e-05
0.00234126 -0.00021702 1.33791e-06
-0.00021702 0.00014615 6.67741e-07
1.33791e-06 6.67741e-07 0.000175734
0.000636876 -1.52032e-05 1.09353e-06
-1.52032e-05 8.65663e-05 -1.86555e-07
1.09353e-06 -1.86555e-07 -1.89075e-05
0.000697387 7.73232e-07 2.78989e-06
7.73232e-07 0.000105511 -2.05079e-07
2.78989e-06 -2.05079e-07 1.79971e-06
0.000314879 2.61409e-05 2.42502e-07
2.61409e-05 -0.000116168 1.25724e-06
2.42502e-07 1.25724e-06 -0.000207621
0.00178496 -0.000303156 -7.57432e-07
-0.000303156 -0.000201583 -1.55483e-06
-7.57432e-07 -1.55483e-06 -0.000127767
0.0020903 -0.00054375 1.63659e-06
-0.00054375 0.000132655 -4.49804e-07
1.63659e-06 -4.49804e-07 -2.55803e-06
0.0017076 -0.000465809 -1.39825e-06
-0.000465809 0.000535483 4.66873e-07
-1.39825e-06 4.66873e-07 0.000222293
0.00214639 -0.000619302 -5.88907e-06
-0.000619302 0.000453612 1.96068e-06
-5.88907e-06 1.96068e-06 0.000212155
0.00109834 -8.36858e-05 -9.6869e-07
-8.36858e-05 0.000365401 4.67662e-07
-9.6869e-07 4.67662e-07 0.000227847
0.000432934 -7.05771e-05 5.01038e-07
-7.05771e-05 -5.7982e-05 9.44069e-07
5.01038e-07 9.44069e-07 -0.000207096
0.00113373 -0.000473768 4.11318e-06
-0.000473768 0.000457956 -1.71572e-06
4.11318e-06 -1.71572e-06 2.4825e-05
0.00116974 -0.000207973 1.20497e-08
-0.000207973 0.000473155 -4.50929e-07
1.20497e-08 -4.50929e-07 0.000157018
0.0024979 -0.000266693 -2.50241e-05
-0.000266693 0.000144237 -1.62886e-06
-2.50241e-05 -1.62886e-06 0.000274701
0.00233346 -0.000441258 -3.07274e-05
-0.000441258 0.000158016 6.64769e-06
-3.07274e-05 6.64769e-06 0.000177872
0.00281217 -0.000702931 -1.29367e-05
-0.000702931 0.000622178 -5.24497e-06
-1.29367e-05 -5.24497e-06 0.000398215
0.00165955 -0.000531181 -1.0742e-05
-0.000531181 0.000380362 2.58946e-06
-1.0742e-05 2.58946e-06 0.000153031
0.000514999 -1.52496e-05 -1.41973e-06
-1.52496e-05 3.0623e-05 -1.91641e-06
-1.41973e-06 -1.91641e-06 -9.16053e-05
0.000504278 -8.19791e-05 -1.03027e-06
-8.19791e-05 1.20288e-05 -4.67577e-06
-1.03027e-06 -4.67577e-06 -0.000120894
0.000408179 -0.000125023 -3.77528e-06
-0.000125023 6.20752e-05 1.30015e-05
-3.77528e-06 1.30015e-05 -0.000139432
-0.00045675 -0.000241711 -4.03062e-06
-0.000241711 -0.00020262 -6.50115e-06
-4.03062e-06 -6.50115e-06 -0.000727983
0.00113843 -0.000433578 2.74299e-05
-0.000433578 -0.00342574 -5.54232e-06
2.74299e-05 -5.54232e-06 -0.00362226
0.00158043 0.000137656 6.2413e-07
0.000137656 0.000635099 -4.09568e-06
6.2413e-07 -4.09568e-06 0.000492002
0.000749468 0.000217562 2.49234e-06
0.000217562 7.956e-05 1.97615e-06
2.49234e-06 1.97615e-06 -0.000125611
0.00209893 0.000227026 5.60444e-05
0.000227026 0.000119861 1.16042e-05
5.60444e-05 1.16042e-05 0.000156649
0.00201485 0.000502699 1.91508e-05
0.000502699 0.000130452 6.51492e-06
1.91508e-05 6.51492e-06 -8.40832e-06
0.00209307 0.000521888 8.28715e-06
0.000521888 0.000520758 8.61899e-06
8.28715e-06 8.61899e-06 0.000204885
0.00108207 0.000341141 6.16101e-06
0.000341141 0.000138977 4.55555e-06
6.16101e-06 4.55555e-06 -0.000157315
0.00348311 0.000645171 8.08805e-05
0.000645171 0.000212693 3.206e-05
8.08805e-05 3.206e-05 -0.000203691
0.00126893 0.000195782 4.00044e-06
0.000195782 0.000486531 7.57511e-07
4.00044e-06 7.57511e-07 0.000312011
0.00244738 0.000413065 -1.06064e-05
0.000413065 0.000399153 -7.74959e-07
-1.06064e-05 -7.74959e-07 0.000384788
0.00114225 0.000301855 1.95023e-06
0.000301855 0.000247553 6.64542e-07
1.95023e-06 6.64542e-07 3.16236e-05
0.00117325 0.000390582 2.12283e-06
0.000390582 0.000157195 -2.91076e-06
2.12283e-06 -2.91076e-06 -0.000136493
0.00127855 0.000534494 -5.50833e-06
0.000534494 -0.000121797 -1.33455e-06
-5.50833e-06 -1.33455e-06 -0.000319615
0.00270612 -0.000351198 -0.000132906
-0.000351198 -0.0028908 -3.99282e-05
-0.000132906 -3.99282e-05 -0.00389694
0.00623346 0.00081107 -2.87424e-05
0.00081107 0.000645223 -4.97395e-05
-2.87424e-05 -4.97395e-05 0.000262843
0.000619153 0.000567385 -8.36661e-06
0.000567385 -0.000375754 7.18333e-06
-8.36661e-06 7.18333e-06 -0.000715354
-0.00225504 -0.000726321 0.000225531
-0.000726321 0.00112166 9.67421e-05
0.000225531 9.67421e-05 -0.000726576
0.0023518 -0.00328413 -0.000167115
-0.00328413 3.16939e-05 -0.000175936
-0.000167115 -0.000175936 0.00118588
0.00124267 0.000223345 -7.07954e-06
0.000223345 0.000449598 -2.64818e-06
-7.07954e-06 -2.64818e-06 0.00028961
0.000682095 0.000473468 0.000269193
0.000473468 0.002262 -6.91623e-07
0.000269193 -6.91623e-07 0.000956987
0.00104528 -0.000991818 -0.000128293
-0.000991818 0.00291024 -0.000194313
-0.000128293 -0.000194313 0.000474691
0.00265516 0.00064161 -3.36791e-05
0.00064161 0.000489354 -9.47826e-06
-3.36791e-05 -9.47826e-06 0.000500173
0.000700947 0.000180836 -1.46286e-05
0.000180836 2.19064e-06 -4.39824e-06
-1.46286e-05 -4.39824e-06 -0.000196552
0.000440529 0.00043271 -2.64764e-05
0.00043271 -0.000235206 -1.80155e-05
-2.64764e-05 -1.80155e-05 -0.000526555
0.000134629 0.000597877 3.48621e-05
0.000597877 -0.000695005 7.35778e-05
3.48621e-05 7.35778e-05 -0.000871993
0.0135249 0.00102929 -1.07397e-05
0.00102929 0.00380171 -4.79239e-05
-1.07397e-05 -4.79239e-05 0.00233486
0.00265345 0.00114348 1.17324e-05
0.00114348 0.000371061 1.98151e-06
1.17324e-05 1.98151e-06 -0.000685312
0.00441255 -0.00291352 0.000431369
-0.00291352 0.000294335 0.0002881
0.000431369 0.0002881 0.000183517
0.00703468 -0.00150405 -4.23593e-05
-0.00150405 0.000119041 0.00029882
-4.23593e-05 0.00029882 0.000631407
0.000597409 4.03914e-05 2.57586e-06
4.03914e-05 9.01081e-05 -2.7272e-06
2.57586e-06 -2.7272e-06 2.16044e-06
0.000736341 0.000101599 3.87581e-06
0.000101599 0.000162195 9.02389e-07
3.87581e-06 9.02389e-07 5.59834e-05
0.00143154 0.000177426 -1.48817e-06
0.000177426 0.000584143 -2.79336e-06
-1.48817e-06 -2.79336e-06 0.000462793
0.000612141 5.2501e-06 8.32743e-07
5.2501e-06 7.61057e-05 -5.25071e-07
8.32743e-07 -5.25071e-07 -3.32759e-05
0.000721963 3.60389e-05 2.06516e-08
3.60389e-05 0.000133118 -1.85861e-06
2.06516e-08 -1.85861e-06 4.05712e-06
0.000486549 8.53967e-07 -1.84666e-06
8.53967e-07 -1.70225e-05 3.35895e-07
-1.84666e-06 3.35895e-07 -0.000135469
0.000738864 6.42392e-05 -2.35844e-06
6.42392e-05 0.000123493 1.25363e-06
-2.35844e-06 1.25363e-06 8.03079e-06
0.000491556 4.47454e-05 -2.06406e-06
4.47454e-05 -4.49273e-05 -2.31049e-07
-2.06406e-06 -2.31049e-07 -0.000125349
0.00042654 -5.22924e-06 2.32663e-07
-5.22924e-06 -5.01763e-05 7.86769e-07
2.32663e-07 7.86769e-07 -0.000153806
0.000926545 5.07623e-05 6.37114e-07
5.07623e-05 0.00024477 7.00314e-07
6.37114e-07 7.00314e-07 0.000122421
0.000771911 3.45115e-05 3.42787e-07
3.45115e-05 0.000150661 3.73383e-07
3.42787e-07 3.73383e-07 2.46307e-05
0.000681728 1.86476e-05 7.0471e-07
1.86476e-05 0.000113318 -3.13874e-07
7.0471e-07 -3.13874e-07 -1.85855e-05
0.000459854 6.06087e-05 -2.85166e-07
6.06087e-05 -2.2745e-05 -9.26344e-07
-2.85166e-07 -9.26344e-07 -0.000133502
0.00129321 7.73838e-05 -1.10432e-06
7.73838e-05 0.000467558 -3.10657e-06
-1.10432e-06 -3.10657e-06 0.000354042
0.000126639 4.95052e-05 -3.36875e-06
4.95052e-05 -0.000168619 -5.06339e-06
-3.36875e-06 -5.06339e-06 -0.000287097
0.000765471 -8.3853e-05 -1.63549e-07
-8.3853e-05 0.000145879 -9.04413e-08
-1.63549e-07 -9.04413e-08 1.58723e-05
0.000761601 -5.80254e-05 -5.49449e-07
-5.80254e-05 0.000168333 -2.16253e-07
-5.49449e-07 -2.16253e-07 3.22425e-05
0.000786174 -2.89315e-05 -3.96292e-07
-2.89315e-05 0.000182302 -3.57536e-07
-3.96292e-07 -3.57536e-07 4.87714e-05
0.000813015 -9.5292e-07 -1.47612e-06
-9.5292e-07 0.00018221 -2.04174e-07
-1.47612e-06 -2.04174e-07 6.82028e-05
0.000763721 2.33152e-05 -3.30405e-06
2.33152e-05 0.000174325 -2.28814e-06
-3.30405e-06 -2.28814e-06 3.04324e-05
0.000727291 2.39335e-06 1.46516e-06
2.39335e-06 0.00013374 -2.06469e-06
1.46516e-06 -2.06469e-06 2.10981e-05
1.43605e-05 -2.25038e-05 -3.70497e-07
-2.25038e-05 -0.000294057 -2.49029e-06
-3.70497e-07 -2.49029e-06 -0.000392613
0.000581245 -7.97682e-06 8.6258e-07
-7.97682e-06 3.42701e-05 6.61421e-08
8.6258e-07 6.61421e-08 -7.50969e-05
0.000638982 -5.49116e-05 3.09109e-07
-5.49116e-05 7.14425e-05 6.22303e-07
3.09109e-07 6.22303e-07 -3.03878e-05
0.000714507 -5.29433e-05 -2.29862e-07
-5.29433e-05 0.00013295 -3.22154e-08
-2.29862e-07 -3.22154e-08 1.6858e-05
0.000650752 -5.81453e-05 -2.07207e-06
-5.81453e-05 6.69886e-05 1.3375e-06
-2.07207e-06 1.3375e-06 -1.79357e-05
0.000660466 -4.19163e-05 1.44011e-06
-4.19163e-05 8.36327e-05 -5.95204e-07
1.44011e-06 -5.95204e-07 -2.6296e-05
0.000588671 -8.44175e-05 3.78974e-08
-8.44175e-05 3.98701e-05 2.30222e-07
3.78974e-08 2.30222e-07 -5.68228e-05
0.000614891 -2.45978e-05 -2.10439e-06
-2.45978e-05 3.18196e-05 2.84013e-06
-2.10439e-06 2.84013e-06 -2.52041e-05
0.000475721 -6.01021e-06 1.25149e-06
-6.01021e-06 -1.44773e-05 -8.39768e-07
1.25149e-06 -8.39768e-07 -0.000122811
0.000569229 2.45019e-06 1.40767e-06
2.45019e-06 1.36391e-05 -2.44879e-09
1.40767e-06 -2.44879e-09 -4.61599e-05
0.00139385 7.53272e-06 -3.44816e-06
7.53272e-06 0.000479205 5.59638e-06
-3.44816e-06 5.59638e-06 0.000465827
0.000561752 3.93793e-05 -7.95791e-07
3.93793e-05 1.07963e-05 -2.41937e-06
-7.95791e-07 -2.41937e-06 -4.87233e-05
0.000943344 1.59386e-06 -1.96971e-06
1.59386e-06 0.000210323 8.06121e-07
-1.96971e-06 8.06121e-07 0.000194913
0.000826979 3.01404e-06 -4.23567e-06
3.01404e-06 0.000136072 5.0873e-06
-4.23567e-06 5.0873e-06 0.000142806
0.000530716 -8.16814e-07 6.41017e-07
-8.16814e-07 -3.76415e-05 -3.917e-06
6.41017e-07 -3.917e-06 -5.50923e-05
0.00241465 1.82229e-07 4.77364e-06
1.82229e-07 0.00109083 -7.3899e-09
4.77364e-06 -7.3899e-09 0.00110571
0.000850999 -2.60763e-06 -4.35698e-06
-2.60763e-06 0.000149905 -5.20814e-06
-4.35698e-06 -5.20814e-06 0.000156746
0.000577553 6.36486e-05 2.05838e-06
6.36486e-05 4.59808e-05 2.22058e-07
2.05838e-06 2.22058e-07 -3.91275e-05
0.000560978 3.10276e-05 -1.42024e-06
3.10276e-05 -1.2468e-06 -1.7407e-06
-1.42024e-06 -1.7407e-06 -4.11276e-05
0.0005746 -6.28475e-06 1.06897e-06
-6.28475e-06 3.82194e-06 1.83652e-08
1.06897e-06 1.83652e-08 -3.60897e-05
0.000575671 8.2577e-06 4.58005e-07
8.2577e-06 -2.19275e-05 -3.01203e-06
4.58005e-07 -3.01203e-06 -2.8983e-05
0.000604529 -3.73125e-05 -1.78681e-06
-3.73125e-05 1.9024e-05 1.29025e-06
-1.78681e-06 1.29025e-06 -2.2869e-05
0.000544402 1.40432e-05 2.0885e-08
1.40432e-05 -4.08759e-05 -7.55515e-07
2.0885e-08 -7.55515e-07 -4.82965e-05
0.00201154 2.85482e-05 6.96326e-06
2.85482e-05 0.000850065 -4.44017e-06
6.96326e-06 -4.44017e-06 0.00086794
0.00114142 3.25099e-05 -6.16992e-07
3.25099e-05 0.000322619 1.78089e-06
-6.16992e-07 1.78089e-06 0.000316224
0.00147531 3.6541e-05 5.42404e-08
3.6541e-05 0.000530618 1.3951e-06
5.42404e-08 1.3951e-06 0.000542771
0.000883356 3.9752e-05 -1.27567e-05
3.9752e-05 0.000178889 7.17011e-06
-1.27567e-05 7.17011e-06 0.000185152
0.00152781 0.000181907 7.80228e-05
0.000181907 -0.000898176 1.63904e-05
7.80228e-05 1.63904e-05 -0.00073851
0.00197484 -2.4558e-05 2.20347e-06
-2.4558e-05 -3.36147e-05 1.73645e-06
2.20347e-06 1.73645e-06 -1.39121e-05
0.00188444 6.63408e-05 3.54315e-05
6.63408e-05 0.000120941 -1.26789e-05
3.54315e-05 -1.26789e-05 0.000184497
0.00160582 0.000154291 -2.21979e-05
0.000154291 -0.00128381 -1.41694e-05
-2.21979e-05 -1.41694e-05 -0.00079534
0.00189413 6.95184e-05 2.14836e-05
6.95184e-05 -0.000409781 -1.57869e-07
2.14836e-05 -1.57869e-07 -0.000232709
0.00237846 -2.28561e-05 1.03418e-06
-2.28561e-05 0.000375136 -3.45523e-06
1.03418e-06 -3.45523e-06 0.000362319
0.00363875 -0.000107807 -6.01538e-05
-0.000107807 0.000871584 9.32752e-07
-6.01538e-05 9.32752e-07 0.000843125
0.00306821 -7.62137e-05 7.24813e-05
-7.62137e-05 0.000319894 5.96578e-06
7.24813e-05 5.96578e-06 0.000304126
0.0106382 -0.000530481 1.54545e-05
-0.000530481 0.00239551 4.29352e-05
1.54545e-05 4.29352e-05 0.000825695
0.0108037 0.00233005 0.000534086
0.00233005 0.00477435 -0.000229773
0.000534086 -0.000229773 0.00437075
0.00672759 0.00255475 -2.97716e-05
0.00255475 0.00509687 1.91362e-05
-2.97716e-05 1.91362e-05 0.00508762
0.000412699 -9.22105e-05 1.70886e-06
-9.22105e-05 -4.72221e-05 -2.164e-07
1.70886e-06 -2.164e-07 -0.000144721
0.000631021 -1.18186e-05 1.34308e-06
-1.18186e-05 7.35591e-05 -1.69006e-07
1.34308e-06 -1.69006e-07 -6.27981e-06
0.000682611 -8.13788e-05 -1.66432e-06
-8.13788e-05 0.000111139 1.03279e-06
-1.66432e-06 1.03279e-06 2.51574e-05
0.000618681 -4.48338e-05 -1.51121e-07
-4.48338e-05 6.80471e-05 2.57228e-07
-1.51121e-07 2.57228e-07 -2.83073e-05
0.000608269 5.82012e-05 -1.60093e-06
5.82012e-05 8.50521e-05 1.9699e-06
-1.60093e-06 1.9699e-06 -2.85812e-05
0.000577593 0.00011796 1.39274e-06
0.00011796 4.23593e-05 4.30977e-06
1.39274e-06 4.30977e-06 -6.82603e-05
0.000879284 -1.57659e-05 2.98952e-06
-1.57659e-05 0.000243859 5.70518e-07
2.98952e-06 5.70518e-07 0.00013167
0.00055592 -2.86439e-05 -1.17108e-06
-2.86439e-05 3.89643e-05 1.02569e-06
-1.17108e-06 1.02569e-06 -6.08012e-05
0.00221073 -0.000202547 6.04877e-06
-0.000202547 7.23878e-05 2.26216e-06
6.04877e-06 2.26216e-06 0.000117001
0.00181931 -0.000316712 1.03246e-05
-0.000316712 -0.000218719 -2.43058e-06
1.03246e-05 -2.43058e-06 -0.000151308
0.00161181 -0.000502415 7.593e-06
-0.000502415 -0.000115513 2.8627e-06
7.593e-06 2.8627e-06 -0.000240596
0.00145913 -0.000463716 1.65817e-05
-0.000463716 0.000382695 8.50253e-08
1.65817e-05 8.50253e-08 6.58637e-05
0.00179583 -0.000596206 6.84385e-06
-0.000596206 0.000270386 2.66604e-06
6.84385e-06 2.66604e-06 3.08779e-05
0.0024444 -0.000561985 9.60688e-06
-0.000561985 0.00120144 -2.80634e-06
9.60688e-06 -2.80634e-06 0.000746775
0.00246399 -0.00032945 1.93307e-06
-0.00032945 0.00115091 -2.86552e-06
1.93307e-06 -2.86552e-06 0.000857067
0.000788414 -0.000138445 5.33285e-06
-0.000138445 0.000161492 -5.22019e-06
5.33285e-06 -5.22019e-06 -7.90674e-06
0.000655918 -2.76865e-05 4.68162e-07
-2.76865e-05 8.062e-05 2.27017e-06
4.68162e-07 2.27017e-06 -1.74857e-05
0.00086835 -5.02302e-05 2.53539e-06
-5.02302e-05 0.000211286 -8.24435e-06
2.53539e-06 -8.24435e-06 8.34858e-05
0.000914737 -2.44086e-05 1.76498e-06
-2.44086e-05 0.000255462 -2.41208e-07
1.76498e-06 -2.41208e-07 0.000147238
0.000705464 8.69149e-05 2.07106e-06
8.69149e-05 0.00011986 1.73868e-06
2.07106e-06 1.73868e-06 3.59296e-05
0.00203494 -0.000252067 -4.25676e-07
-0.000252067 -4.87313e-05 2.19987e-06
-4.25676e-07 2.19987e-06 6.4252e-05
0.000643739 7.44916e-06 -1.61161e-06
7.44916e-06 0.000108007 6.5831e-08
-1.61161e-06 6.5831e-08 -1.38681e-05
0.000858731 -9.64814e-05 -2.90801e-06
-9.64814e-05 0.000213539 1.90937e-06
-2.90801e-06 1.90937e-06 9.01184e-05
0.00173533 -0.00042128 2.30049e-06
-0.00042128 -0.000166329 -1.74702e-06
2.30049e-06 -1.74702e-06 -0.000146892
0.00164436 -0.000599797 3.08149e-07
-0.000599797 -1.25329e-06 -1.3474e-07
3.08149e-07 -1.3474e-07 -0.000189403
0.000976518 -0.000468585 -1.19975e-06
-0.000468585 8.15183e-06 -1.93594e-06
-1.19975e-06 -1.93594e-06 -0.000229484
0.00113413 -0.000177572 2.83121e-07
-0.000177572 0.000464326 -6.35017e-06
2.83121e-07 -6.35017e-06 0.000241838
0.00118237 -0.000313026 -1.98317e-06
-0.000313026 0.000666664 1.57998e-06
-1.98317e-06 1.57998e-06 0.000191029
0.00310894 -0.000382655 -3.61391e-05
-0.000382655 0.00048905 4.40145e-06
-3.61391e-05 4.40145e-06 0.00053766
0.00288826 -0.000611067 -3.87056e-05
-0.000611067 0.000598703 6.37425e-06
-3.87056e-05 6.37425e-06 0.000555175
0.00193836 -0.000677915 -1.35313e-05
-0.000677915 0.000244103 -5.59688e-07
-1.35313e-05 -5.59688e-07 5.03564e-05
0.000511905 -0.000335954 -1.64237e-05
-0.000335954 -8.65612e-05 1.63256e-05
-1.64237e-05 1.63256e-05 -0.000301058
0.000661236 -0.000139374 1.5781e-06
-0.000139374 0.000124804 2.21105e-06
1.5781e-06 2.21105e-06 -2.54101e-05
0.00042355 -0.000117766 2.98167e-06
-0.000117766 2.63507e-05 6.16425e-07
2.98167e-06 6.16425e-07 -0.00014674
0.00110704 -0.000128326 -9.92696e-07
-0.000128326 0.000626222 -3.84314e-06
-9.92696e-07 -3.84314e-06 0.000230979
-0.00537695 -0.000131246 0.000292756
-0.000131246 -0.00394999 1.04281e-06
0.000292756 1.04281e-06 -0.00276599
0.0103681 -0.000162566 1.891e-05
-0.000162566 0.00258545 6.47187e-07
1.891e-05 6.47187e-07 0.00205562
0.00151664 0.00017486 6.51405e-06
0.00017486 0.000618615 -4.17109e-06
6.51405e-06 -4.17109e-06 0.000456885
0.00101009 0.000289741 2.47434e-06
0.000289741 0.000189468 -1.64689e-06
2.47434e-06 -1.64689e-06 -2.59735e-05
0.00170696 0.000354646 4.87301e-05
0.000354646 -1.8564e-05 2.49599e-05
4.87301e-05 2.49599e-05 -7.05341e-06
0.00247501 0.000631447 1.66243e-05
0.000631447 0.000501354 5.49504e-06
1.66243e-05 5.49504e-06 0.000291534
0.00231601 0.000518529 1.15268e-05
0.000518529 0.000787192 1.23298e-06
1.15268e-05 1.23298e-06 0.000476788
0.0117193 0.000650229 5.6184e-05
0.000650229 0.00295354 2.76361e-05
5.6184e-05 2.76361e-05 0.00185921
0.00777085 0.00115347 -0.000173642
0.00115347 0.000832483 -1.57051e-05
-0.000173642 -1.57051e-05 0.000558612
0.00103146 0.000510629 5.29722e-06
0.000510629 -4.66986e-05 -1.90301e-05
5.29722e-06 -1.90301e-05 -0.000452003
0.0108595 -0.00184229 -0.00015172
-0.00184229 0.00488533 1.12549e-05
-0.00015172 1.12549e-05 0.00397335
-0.00670165 -0.00334216 -0.000903298
-0.00334216 -0.00268256 -0.00068303
-0.000903298 -0.00068303 -0.00167308
0.000996699 0.000211561 -7.23016e-07
0.000211561 0.000317148 -1.18262e-06
-7.23016e-07 -1.18262e-06 0.000155809
-0.00241244 -0.000981427 0.000178051
-0.000981427 -0.00235806 2.69145e-05
0.000178051 2.69145e-05 -0.0027759
-0.00324965 -0.000704892 -0.000208681
-0.000704892 0.00199616 -0.000103577
-0.000208681 -0.000103577 -0.000791713
0.00288142 0.000584837 -1.28522e-05
0.000584837 0.000621035 -1.17144e-06
-1.28522e-05 -1.17144e-06 0.00063436
0.000896293 0.000252096 -4.28921e-06
0.000252096 0.000143896 1.48895e-06
-4.28921e-06 1.48895e-06 -7.9703e-05
0.00125271 0.000519273 5.31616e-06
0.000519273 0.000205111 2.30903e-06
5.31616e-06 2.30903e-06 -9.89062e-05
0.00122774 0.000536839 2.15084e-05
0.000536839 3.03761e-05 1.75124e-05
2.15084e-05 1.75124e-05 -2.54798e-05
0.010104 0.000828778 -7.53541e-05
0.000828778 0.00141722 -3.57505e-05
-7.53541e-05 -3.57505e-05 -0.000465927
0.00591535 0.00164341 -6.66573e-05
0.00164341 0.00129368 -3.20634e-05
-6.66573e-05 -3.20634e-05 0.000582755
0.0120042 -0.00221086 0.000180811
-0.00221086 0.00520323 -4.74502e-05
0.000180811 -4.74502e-05 0.00469653
0.00663424 -0.00189093 0.000173077
-0.00189093 -0.000704571 0.00038581
0.000173077 0.00038581 -0.000121842
0.0016794 0.000210384 -1.67197e-05
0.000210384 0.000719196 -9.60828e-06
-1.67197e-05 -9.60828e-06 0.000575297
-0.00715012 0.000470568 -9.49578e-05
0.000470568 0.00134475 -6.75484e-05
-9.49578e-05 -6.75484e-05 -0.00210818
0.00345022 0.000406497 -0.000208948
0.000406497 0.00216941 -0.000267356
-0.000208948 -0.000267356 -0.00116937
0.00183894 0.000506705 -2.02769e-05
0.000506705 0.000322577 7.5017e-06
-2.02769e-05 7.5017e-06 0.000324008
0.0016268 0.000464644 -5.42114e-05
0.000464644 0.000625233 -1.9396e-05
-5.42114e-05 -1.9396e-05 0.000372594
0.00228144 0.000459823 -6.10335e-05
0.000459823 0.00129729 -5.88847e-06
-6.10335e-05 -5.88847e-06 0.000843972
0.00124803 0.0010799 -4.60727e-05
0.0010799 -6.02657e-05 -1.77295e-05
-4.60727e-05 -1.77295e-05 -0.00028634
0.000300295 0.00105919 0.000183329
0.00105919 -0.000671012 0.000124474
0.000183329 0.000124474 -0.00354279
0.0110472 -0.00262359 0.000134441
-0.00262359 0.00410588 0.00034572
0.000134441 0.00034572 0.00314817
0.00557193 -0.00103008 -6.19618e-05
-0.00103008 -0.00202353 -6.55425e-05
-6.19618e-05 -6.55425e-05 -0.000827165
0.000515887 0.000114926 2.83136e-06
0.000114926 4.54784e-05 2.07425e-07
2.83136e-06 2.07425e-07 -7.08578e-05
0.00124486 0.000160773 6.54365e-06
0.000160773 0.000463003 3.4804e-06
6.54365e-06 3.4804e-06 0.000345598
-0.000114805 5.72052e-05 3.36361e-06
5.72052e-05 -0.000261343 -8.90512e-06
3.36361e-06 -8.90512e-06 -0.000387551
0.00043955 4.69882e-05 1.43848e-06
4.69882e-05 -4.27879e-05 -5.60283e-07
1.43848e-06 -5.60283e-07 -0.000146159
0.00074402 5.20274e-05 -4.63326e-07
5.20274e-05 0.000156976 -1.25654e-06
-4.63326e-07 -1.25654e-06 2.12288e-05
0.000747711 -7.40092e-06 -7.52316e-07
-7.40092e-06 0.000135339 1.76147e-06
-7.52316e-07 1.76147e-06 9.15317e-06
0.000705907 5.56433e-06 3.62855e-06
5.56433e-06 0.000123788 9.5684e-07
3.62855e-06 9.5684e-07 -2.11739e-06
0.000336987 4.76556e-05 -3.20437e-07
4.76556e-05 -9.07039e-05 2.17779e-06
-3.20437e-07 2.17779e-06 -0.000200654
0.000760027 4.64414e-05 4.71133e-09
4.64414e-05 0.000167864 -8.30013e-07
4.71133e-09 -8.30013e-07 3.14457e-05
0.000835648 5.28946e-05 2.61011e-07
5.28946e-05 0.000192008 6.31126e-08
2.61011e-07 6.31126e-08 7.82325e-05
0.00077322 -4.17535e-05 -6.75658e-07
-4.17535e-05 0.000152897 7.63e-07
-6.75658e-07 7.63e-07 2.15789e-05
-0.00016451 3.09178e-05 6.36461e-07
3.09178e-05 -0.000322127 5.85439e-07
6.36461e-07 5.85439e-07 -0.000444762
-0.000599828 2.2436e-05 -8.35358e-07
2.2436e-05 -0.000396223 -1.63417e-06
-8.35358e-07 -1.63417e-06 -0.000597862
0.00094426 -3.16325e-06 -3.622e-06
-3.16325e-06 0.000266216 -5.44106e-06
-3.622e-06 -5.44106e-06 0.00014389
0.000924037 7.25231e-06 -3.19825e-07
7.25231e-06 0.00026652 9.63045e-08
-3.19825e-07 9.63045e-08 0.000111221
0.000788605 -5.77666e-05 -4.08658e-07
-5.77666e-05 0.000188736 -9.44263e-07
-4.08658e-07 -9.44263e-07 5.12827e-05
0.000865296 -4.69658e-05 2.42373e-07
-4.69658e-05 0.000206326 1.63277e-06
2.42373e-07 1.63277e-06 9.6498e-05
0.000814468 -5.24271e-05 3.7206e-07
-5.24271e-05 0.00019333 -7.03448e-07
3.7206e-07 -7.03448e-07 5.59845e-05
0.000759049 -8.71496e-06 -3.34546e-07
-8.71496e-06 0.000146492 1.36329e-08
-3.34546e-07 1.36329e-08 3.54327e-05
0.00034153 -5.27594e-05 5.89578e-07
-5.27594e-05 -9.06731e-05 1.6848e-06
5.89578e-07 1.6848e-06 -0.000189617
0.000597453 2.49988e-07 8.45416e-07
2.49988e-07 5.18332e-05 1.00326e-06
8.45416e-07 1.00326e-06 -5.57348e-05
0.000308401 -9.17393e-06 -3.36159e-06
-9.17393e-06 -9.24279e-05 -3.62628e-06
-3.36159e-06 -3.62628e-06 -0.000217486
0.000159114 -4.34436e-05 2.39699e-06
-4.34436e-05 -0.000196836 -1.3057e-06
2.39699e-06 -1.3057e-06 -0.000292365
0.000769272 -4.41236e-05 3.4448e-06
-4.41236e-05 0.000107248 -6.18699e-06
3.4448e-06 -6.18699e-06 1.00639e-05
-3.15615e-05 -4.8235e-05 -2.52857e-07
-4.8235e-05 -0.000350305 1.71416e-06
-2.52857e-07 1.71416e-06 -0.000501172
0.000329988 -8.32909e-07 -1.36081e-06
-8.32909e-07 -0.000106432 -7.69084e-07
-1.36081e-06 -7.69084e-07 -0.000221352
0.000728198 -1.63671e-05 2.28975e-07
-1.63671e-05 0.000119061 1.66699e-07
2.28975e-07 1.66699e-07 7.49521e-06
0.000625225 -1.89426e-05 2.58328e-07
-1.89426e-05 6.1912e-05 8.94083e-07
2.58328e-07 8.94083e-07 -3.99925e-05
0.000714677 -3.68821e-05 -1.96889e-07
-3.68821e-05 0.00013007 -6.62857e-08
-1.96889e-07 -6.62857e-08 1.82554e-05
0.000553895 -1.80619e-06 -4.85857e-07
-1.80619e-06 1.74199e-05 1.18431e-06
-4.85857e-07 1.18431e-06 -6.98532e-05
0.00076782 -3.31958e-05 -8.63254e-08
-3.31958e-05 0.000161928 -2.13583e-07
-8.63254e-08 -2.13583e-07 4.75899e-05
0.00065947 -5.11683e-05 -5.34224e-07
-5.11683e-05 8.14794e-05 1.15453e-07
-5.34224e-07 1.15453e-07 -9.41172e-06
0.000544564 4.07551e-05 -6.78693e-07
4.07551e-05 -1.1291e-05 2.66439e-06
-6.78693e-07 2.66439e-06 -6.95737e-05
0.000517708 -7.44858e-05 1.84264e-06
-7.44858e-05 -7.71017e-06 -1.27116e-06
1.84264e-06 -1.27116e-06 -0.000102257
0.000582921 -7.88859e-06 -4.13792e-07
-7.88859e-06 1.20261e-05 7.93882e-09
-4.13792e-07 7.93882e-09 -4.42626e-05
0.00139009 1.8958e-05 -5.03557e-06
1.8958e-05 0.00047503 5.79598e-06
-5.03557e-06 5.79598e-06 0.000461143
0.00057198 -3.08991e-05 1.15352e-06
-3.08991e-05 1.28252e-05 -2.39369e-06
1.15352e-06 -2.39369e-06 -4.53888e-05
0.000937534 6.64451e-06 -2.91578e-06
6.64451e-06 0.000204424 7.31929e-07
-2.91578e-06 7.31929e-07 0.000189168
0.000759943 1.46128e-05 7.66261e-08
1.46128e-05 9.29197e-05 2.05473e-06
7.66261e-08 2.05473e-06 9.98043e-05
0.000524242 -2.27179e-06 9.27278e-07
-2.27179e-06 -4.28867e-05 -3.92996e-06
9.27278e-07 -3.92996e-06 -6.00964e-05
0.00241573 1.38888e-05 4.64161e-06
1.38888e-05 0.0010916 6.114e-08
4.64161e-06 6.114e-08 0.00110636
0.00240681 1.93356e-06 -5.51908e-07
1.93356e-06 0.00108614 -5.27987e-06
-5.51908e-07 -5.27987e-06 0.00110101
0.000989494 7.21654e-05 -9.17484e-07
7.21654e-05 0.00028798 -4.8209e-07
-9.17484e-07 -4.8209e-07 0.000204073
0.000581242 4.06292e-05 -1.25575e-06
4.06292e-05 1.46213e-05 -2.0273e-06
-1.25575e-06 -2.0273e-06 -2.84821e-05
0.000622451 -1.0717e-05 5.61325e-07
-1.0717e-05 7.23836e-05 8.688e-07
5.61325e-07 8.688e-07 -1.22331e-05
0.000576827 3.53255e-06 4.22137e-07
3.53255e-06 -2.13894e-05 -3.2481e-06
4.22137e-07 -3.2481e-06 -2.84247e-05
0.00057351 -1.47518e-05 1.70017e-07
-1.47518e-05 6.7741e-06 -2.16292e-08
1.70017e-07 -2.16292e-08 -3.35215e-05
0.000601239 -3.75609e-05 -1.53104e-06
-3.75609e-05 2.10407e-05 1.16611e-06
-1.53104e-06 1.16611e-06 -1.9934e-05
0.000559079 7.78618e-06 -2.5458e-07
7.78618e-06 -3.19295e-05 -1.94675e-08
-2.5458e-07 -1.94675e-08 -3.89185e-05
0.00199772 1.55244e-05 2.41853e-06
1.55244e-05 0.000839332 -4.59303e-06
2.41853e-06 -4.59303e-06 0.000858115
0.00112883 2.1201e-05 -7.06858e-07
2.1201e-05 0.000312085 1.7581e-06
-7.06858e-07 1.7581e-06 0.000307826
0.00138076 2.419e-05 5.25729e-07
2.419e-05 0.000468752 -4.52434e-09
5.25729e-07 -4.52434e-09 0.000483287
0.00085568 2.88159e-05 -1.22288e-05
2.88159e-05 0.000156566 6.99002e-06
-1.22288e-05 6.99002e-06 0.000165864
-0.00883349 0.000543562 0.000249194
0.000543562 -0.00378453 -1.68785e-07
0.000249194 -1.68785e-07 -0.00498918
-0.00224068 -2.64362e-05 0.000357269
-2.64362e-05 0.00272582 -3.51666e-05
0.000357269 -3.51666e-05 0.000702042
0.00445798 0.000245652 -0.000226242
0.000245652 -1.39169e-05 -1.77303e-05
-0.000226242 -1.77303e-05 0.000603499
0.000476058 4.60271e-05 2.68027e-05
4.60271e-05 -0.00109585 -1.79964e-05
2.68027e-05 -1.79964e-05 -0.000990684
0.00147365 -3.1952e-05 1.78754e-05
-3.1952e-05 -0.000227159 1.1907e-06
1.78754e-05 1.1907e-06 -0.000237761
-0.000195998 5.1024e-05 -2.64454e-05
5.1024e-05 -0.000891752 -9.5292e-06
-2.64454e-05 -9.5292e-06 -0.000715228
0.00276839 -0.000148616 -3.19302e-06
-0.000148616 0.000280433 4.56765e-06
-3.19302e-06 4.56765e-06 0.000250626
0.00969786 0.00010045 7.02937e-05
0.00010045 0.00109317 -3.5791e-05
7.02937e-05 -3.5791e-05 3.72083e-05
-0.00287644 0.00143108 -1.67264e-05
0.00143108 -0.000610088 -2.19531e-05
-1.67264e-05 -2.19531e-05 -0.00222287
0.000103181 0.00280425 -0.000182697
0.00280425 0.00136467 9.93664e-05
-0.000182697 9.93664e-05 0.00193354
0.00193224 -0.000306822 6.7826e-05
-0.000306822 -0.000835831 -8.81433e-06
6.7826e-05 -8.81433e-06 -0.000743268
0.0132145 -0.000644785 0.000123373
-0.000644785 0.0031735 -3.19386e-05
0.000123373 -3.19386e-05 0.00161621
0.00499467 0.00271064 0.000179762
0.00271064 0.000747515 -0.000323383
0.000179762 -0.000323383 0.000842587
0.00858764 0.00195135 -0.000255101
0.00195135 0.00159217 0.000157393
-0.000255101 0.000157393 0.00123813
0.000739468 9.96986e-05 -2.42932e-06
9.96986e-05 0.000170402 1.68788e-06
-2.42932e-06 1.68788e-06 3.67985e-05
0.000467324 1.85925e-05 -1.20311e-07
1.85925e-05 -2.00821e-05 -7.69619e-07
-1.20311e-07 -7.69619e-07 -0.000112754
0.000657106 -9.0468e-05 -8.86957e-07
-9.0468e-05 9.47423e-05 8.63498e-07
-8.86957e-07 8.63498e-07 1.02858e-05
0.000550536 -8.12744e-06 1.20939e-06
-8.12744e-06 3.52709e-05 -6.57347e-07
1.20939e-06 -6.57347e-07 -6.53699e-05
0.000610548 5.68719e-05 1.04242e-06
5.68719e-05 9.20156e-05 1.36999e-06
1.04242e-06 1.36999e-06 -2.24941e-05
0.000746334 4.94431e-05 2.3879e-07
4.94431e-05 0.000175034 3.58493e-06
2.3879e-07 3.58493e-06 3.95991e-05
0.000744627 8.93152e-05 1.42549e-06
8.93152e-05 0.000155465 2.01475e-06
1.42549e-06 2.01475e-06 3.69473e-05
0.000592799 2.49457e-05 3.61775e-06
2.49457e-05 5.0723e-05 6.35577e-07
3.61775e-06 6.35577e-07 -6.77546e-05
0.000715518 -2.82563e-05 1.57006e-06
-2.82563e-05 0.000146245 -9.5734e-07
1.57006e-06 -9.5734e-07 3.18014e-05
0.000518176 -9.02961e-06 -6.48774e-08
-9.02961e-06 5.0521e-06 -6.06458e-07
-6.48774e-08 -6.06458e-07 -8.8654e-05
0.00170636 -0.00023476 2.21818e-05
-0.00023476 -0.000158032 3.02043e-07
2.21818e-05 3.02043e-07 -6.70121e-05
0.00130853 -0.000401855 2.89615e-05
-0.000401855 -0.000389474 -4.54654e-06
2.89615e-05 -4.54654e-06 -0.000370293
0.000200623 -0.000468154 1.67387e-05
-0.000468154 -0.000772622 3.25655e-06
1.67387e-05 3.25655e-06 -0.000915376
2.78644e-05 -0.000385304 8.42034e-06
-0.000385304 -0.000496272 -1.2626e-06
8.42034e-06 -1.2626e-06 -0.000732624
0.00273542 -0.000377436 5.26891e-06
-0.000377436 0.00148928 6.66922e-06
5.26891e-06 6.66922e-06 0.00106893
0.000856978 -0.000218917 4.83468e-06
-0.000218917 0.00030584 -2.52436e-06
4.83468e-06 -2.52436e-06 5.14247e-05
0.00106776 -0.000111021 1.92257e-07
-0.000111021 0.000324203 -6.30157e-07
1.92257e-07 -6.30157e-07 0.000212736
0.000723992 1.94957e-06 -1.78883e-06
1.94957e-06 0.000155081 1.68143e-06
-1.78883e-06 1.68143e-06 3.5449e-05
0.00216574 -0.000320158 7.21684e-06
-0.000320158 4.60846e-05 -4.05707e-06
7.21684e-06 -4.05707e-06 0.000113895
0.000650966 -6.77579e-05 -1.9957e-07
-6.77579e-05 0.000123424 -2.19026e-07
-1.9957e-07 -2.19026e-07 -3.19114e-05
0.000232913 -0.000100201 9.05313e-07
-0.000100201 -8.04306e-05 -2.10739e-06
9.05313e-07 -2.10739e-06 -0.000255604
0.00203952 -0.000553882 7.39645e-06
-0.000553882 0.000154405 -1.28298e-06
7.39645e-06 -1.28298e-06 0.000114273
0.00153711 -0.000652511 4.74966e-07
-0.000652511 -8.18521e-06 3.10248e-06
4.74966e-07 3.10248e-06 -0.000175323
0.000337273 -0.0003687 9.3172e-06
-0.0003687 -0.000175325 -5.04608e-06
9.3172e-06 -5.04608e-06 -0.000412596
0.0014609 -0.000192319 -1.1331e-06
-0.000192319 0.000801325 -5.26994e-06
-1.1331e-06 -5.26994e-06 0.000428038
0.00239366 -0.000514548 -3.80792e-05
-0.000514548 0.000567736 6.37086e-06
-3.80792e-05 6.37086e-06 0.000276898
0.00167295 -0.000521526 -4.5285e-05
-0.000521526 0.000224226 6.39566e-06
-4.5285e-05 6.39566e-06 0.000133456
0.000673457 -0.000295349 -3.75071e-05
-0.000295349 0.000197404 3.66768e-05
-3.75071e-05 3.66768e-05 -8.62581e-05
-0.000829788 -4.53723e-05 -2.62968e-07
-4.53723e-05 -0.000737307 3.30547e-06
-2.62968e-07 3.30547e-06 -0.000896621
0.000185237 -0.000113849 3.06935e-06
-0.000113849 -0.000111232 2.84661e-06
3.06935e-06 2.84661e-06 -0.000294931
0.00077309 -9.49242e-05 4.53296e-06
-9.49242e-05 0.000319243 1.17873e-06
4.53296e-06 1.17873e-06 4.99378e-05
-0.000301878 0.000409439 -0.000194433
0.000409439 0.00451978 6.49791e-06
-0.000194433 6.49791e-06 0.00221726
0.00150515 -0.000567221 1.37272e-05
-0.000567221 0.00143206 2.6315e-05
1.37272e-05 2.6315e-05 0.00140818
0.00129672 0.000835096 -6.37456e-05
0.000835096 -0.00342519 1.84125e-07
-6.37456e-05 1.84125e-07 -0.00380324
0.000515954 0.000170774 5.5867e-06
0.000170774 4.50521e-05 2.67935e-06
5.5867e-06 2.67935e-06 -0.000110424
0.00111899 0.000325496 7.8506e-06
0.000325496 0.000298214 1.22709e-05
7.8506e-06 1.22709e-05 5.11079e-05
0.00309497 0.000514001 3.46552e-05
0.000514001 0.000762486 1.25585e-05
3.46552e-05 1.25585e-05 0.000767023
0.00204354 0.000576562 1.8587e-05
0.000576562 0.000638077 1.44785e-05
1.8587e-05 1.44785e-05 0.000326585
0.00794004 -0.00112527 8.60335e-05
-0.00112527 0.00278942 4.40146e-05
8.60335e-05 4.40146e-05 0.00297142
0.00331221 0.000233196 -0.00018622
0.000233196 -0.00218267 -6.88154e-06
-0.00018622 -6.88154e-06 -0.00402761
0.00306815 0.00149101 -5.4305e-05
0.00149101 -0.000356987 -8.94576e-06
-5.4305e-05 -8.94576e-06 -0.000928189
0.000910855 0.000374306 2.87274e-05
0.000374306 8.85539e-05 -2.57858e-05
2.87274e-05 -2.57858e-05 8.41642e-05
-0.00311156 -0.00132567 -0.000161007
-0.00132567 -0.000571533 -0.000176159
-0.000161007 -0.000176159 -0.00137767
-0.000921731 -0.00116416 -0.000161653
-0.00116416 0.00206505 -3.76384e-05
-0.000161653 -3.76384e-05 -0.00076503
0.0113905 -0.00239818 0.000285597
-0.00239818 0.00183234 0.000199482
0.000285597 0.000199482 0.00251308
0.000637794 0.000149424 8.2142e-06
0.000149424 0.000132724 -2.63594e-06
8.2142e-06 -2.63594e-06 -1.61023e-05
-0.00260476 0.000161099 -0.000105064
0.000161099 0.00267117 -2.67779e-05
-0.000105064 -2.67779e-05 -0.000226175
0.00387948 0.000467332 -2.4097e-05
0.000467332 0.00210823 -9.66416e-05
-2.4097e-05 -9.66416e-05 -0.00137223
0.00130867 0.000471458 -3.59722e-06
0.000471458 9.3884e-05 4.90507e-06
-3.59722e-06 4.90507e-06 5.80316e-05
0.000566533 0.000326816 5.19754e-06
0.000326816 9.69939e-05 2.65781e-06
5.19754e-06 2.65781e-06 -0.000160684
-0.000427929 0.000362629 8.58611e-06
0.000362629 -0.000229415 -4.23879e-05
8.58611e-06 -4.23879e-05 -0.000559831
0.0049294 0.001703 -7.07694e-06
0.001703 0.00171732 7.80992e-06
-7.07694e-06 7.80992e-06 0.00117505
0.0131958 0.0012754 6.84346e-05
0.0012754 0.00440601 2.41344e-05
6.84346e-05 2.41344e-05 0.00232667
0.00501139 -0.00170292 3.5383e-05
-0.00170292 0.000232394 -5.30447e-05
3.5383e-05 -5.30447e-05 -0.00087232
0.0105771 -0.00143815 7.96462e-07
-0.00143815 0.00139677 -4.24372e-05
7.96462e-07 -4.24372e-05 0.00264679
0.000553231 0.000216794 -8.04393e-06
0.000216794 0.000133585 -1.25381e-05
-8.04393e-06 -1.25381e-05 -1.07491e-05
0.00297452 0.000125307 -0.00015249
0.000125307 0.00125821 -2.88094e-05
-0.00015249 -2.88094e-05 -0.000936137
7.70901e-05 0.000154548 -3.40492e-05
0.000154548 -8.48739e-06 -0.000107383
-3.40492e-05 -0.000107383 -0.00154336
-0.000931962 0.000105505 -9.20708e-06
0.000105505 -0.000420303 -1.77068e-05
-9.20708e-06 -1.77068e-05 -0.000593729
0.00107757 0.000371102 -5.44892e-05
0.000371102 0.00098064 3.79815e-05
-5.44892e-05 3.79815e-05 0.000252689
0.0103384 0.00175 4.75264e-05
0.00175 0.00399412 1.16355e-07
4.75264e-05 1.16355e-07 0.000739184
-0.00664979 -0.00247485 -3.75838e-05
-0.00247485 -0.00325354 0.000151892
-3.75838e-05 0.000151892 -0.00580466
0.00856178 0.000513862 2.82359e-05
0.000513862 -0.00112646 -0.000209548
2.82359e-05 -0.000209548 0.00109597
0.000914197 0.000125972 1.29739e-06
0.000125972 0.000248525 8.40774e-06
1.29739e-06 8.40774e-06 0.000140578
0.00100232 0.000151855 -6.18551e-06
0.000151855 0.000396703 -1.22625e-06
-6.18551e-06 -1.22625e-06 0.000262728
0.000356886 9.39326e-05 -1.43068e-06
9.39326e-05 0.000186404 -7.03797e-06
-1.43068e-06 -7.03797e-06 -2.59719e-05
0.000740507 7.9987e-05 -2.5377e-06
7.9987e-05 0.000145158 -1.59571e-06
-2.5377e-06 -1.59571e-06 1.6955e-05
0.00083828 -3.00592e-05 -9.9141e-07
-3.00592e-05 0.000202445 1.71857e-06
-9.9141e-07 1.71857e-06 6.37286e-05
0.000413555 3.59014e-05 1.64894e-06
3.59014e-05 -6.34563e-05 2.0534e-06
1.64894e-06 2.0534e-06 -0.000177865
-0.000297637 2.32892e-05 1.50044e-06
2.32892e-05 -0.000381426 4.42468e-06
1.50044e-06 4.42468e-06 -0.000506886
0.000795265 -8.54766e-06 1.12192e-06
-8.54766e-06 0.000170236 1.47317e-07
1.12192e-06 1.47317e-07 2.99072e-05
0.000811191 2.51761e-05 1.87261e-07
2.51761e-05 0.000192471 -1.18373e-06
1.87261e-07 -1.18373e-06 6.7657e-05
0.000250501 -4.85466e-06 1.40841e-06
-4.85466e-06 0.000102277 2.19388e-06
1.40841e-06 2.19388e-06 -0.0001014
-0.000904175 1.52964e-05 -1.53348e-06
1.52964e-05 -0.000333473 1.92475e-06
-1.53348e-06 1.92475e-06 -0.000639137
0.000846534 2.39452e-06 -2.42299e-06
2.39452e-06 0.000393022 -6.58824e-06
-2.42299e-06 -6.58824e-06 0.000216894
0.000868951 3.38434e-05 -1.81271e-06
3.38434e-05 0.000222101 -3.32742e-06
-1.81271e-06 -3.32742e-06 8.28482e-05
0.000887023 -0.000116499 1.38058e-06
-0.000116499 0.000224136 6.20796e-07
1.38058e-06 6.20796e-07 9.35801e-05
0.000729667 -9.22637e-06 -2.38511e-07
-9.22637e-06 0.000122884 -1.58254e-07
-2.38511e-07 -1.58254e-07 1.43468e-05
0.000552785 -6.21793e-05 -1.00116e-06
-6.21793e-05 4.30552e-05 4.11228e-06
-1.00116e-06 4.11228e-06 -5.34096e-05
0.000425799 -2.98591e-05 2.09947e-06
-2.98591e-05 -3.54158e-05 1.76861e-06
2.09947e-06 1.76861e-06 -0.000152204
0.000696787 -5.34789e-06 2.63097e-07
-5.34789e-06 0.000110718 -1.2879e-07
2.63097e-07 -1.2879e-07 1.34941e-06
0.000561553 -3.61459e-05 -4.28132e-07
-3.61459e-05 3.88358e-05 -3.35897e-07
-4.28132e-07 -3.35897e-07 -5.4893e-05
0.0010341 -3.69942e-05 -1.53519e-06
-3.69942e-05 0.000288188 -3.3113e-06
-1.53519e-06 -3.3113e-06 0.000189968
-2.94168e-05 -3.98352e-05 4.31959e-06
-3.98352e-05 -0.000231461 -4.92514e-06
4.31959e-06 -4.92514e-06 -0.00032084
0.000355942 -0.000113799 2.05236e-07
-0.000113799 -0.000196907 -9.25241e-08
2.05236e-07 -9.25241e-08 -0.000293074
0.000763184 -7.65843e-05 -3.25697e-06
-7.65843e-05 0.000111121 -4.41389e-07
-3.25697e-06 -4.41389e-07 8.4595e-06
0.00046137 -0.000109227 5.07652e-06
-0.000109227 -6.55365e-05 3.69936e-06
5.07652e-06 3.69936e-06 -0.00020947
0.0012139 -0.000263096 -2.13206e-06
-0.000263096 0.000329421 8.72985e-06
-2.13206e-06 8.72985e-06 9.57588e-05
0.00138959 -0.000137091 8.16651e-07
-0.000137091 0.000529445 -9.46755e-07
8.16651e-07 -9.46755e-07 0.000385528
0.000257816 -8.37967e-05 -2.47256e-06
-8.37967e-05 -0.000160426 -5.152e-06
-2.47256e-06 -5.152e-06 -0.000313704
0.000671513 -2.02433e-05 -1.5862e-07
-2.02433e-05 8.47636e-05 2.09364e-07
-1.5862e-07 2.09364e-07 -2.87702e-05
0.000328412 -8.86904e-06 -1.88642e-07
-8.86904e-06 -0.000102675 -1.14421e-08
-1.88642e-07 -1.14421e-08 -0.000213375
0.000866719 -3.10663e-05 -7.02462e-07
-3.10663e-05 0.000199457 7.69836e-07
-7.02462e-07 7.69836e-07 8.53695e-05
0.000725205 -4.72928e-05 -5.66524e-07
-4.72928e-05 0.000132664 6.62902e-07
-5.66524e-07 6.62902e-07 1.98715e-05
0.000592071 -2.72425e-05 -4.70249e-07
-2.72425e-05 3.37547e-05 1.26007e-06
-4.70249e-07 1.26007e-06 -5.26197e-05
0.000853359 -6.78645e-05 -4.51165e-07
-6.78645e-05 0.000226213 -1.09542e-06
-4.51165e-07 -1.09542e-06 0.000101982
0.000670053 -5.93418e-05 -6.15953e-07
-5.93418e-05 8.76802e-05 -4.04463e-08
-6.15953e-07 -4.04463e-08 -2.43995e-06
0.000570036 2.79691e-05 -2.01016e-06
2.79691e-05 2.52368e-06 2.13559e-06
-2.01016e-06 2.13559e-06 -5.61289e-05
0.000703174 -9.1028e-05 1.94346e-06
-9.1028e-05 0.000110573 -1.47172e-06
1.94346e-06 -1.47172e-06 1.66033e-05
0.00063125 -1.90505e-05 -2.58756e-07
-1.90505e-05 3.6274e-05 5.34828e-08
-2.58756e-07 5.34828e-08 -1.98293e-05
0.00138265 2.94909e-05 -7.85368e-06
2.94909e-05 0.000469746 5.82112e-06
-7.85368e-06 5.82112e-06 0.000455231
0.000599984 -3.77144e-05 2.09658e-06
-3.77144e-05 2.52618e-05 -2.45573e-06
2.09658e-06 -2.45573e-06 -3.30492e-05
0.000945313 1.61647e-05 -3.90882e-06
1.61647e-05 0.000207109 7.12401e-07
-3.90882e-06 7.12401e-07 0.000191291
0.000771809 2.34955e-05 -1.45524e-07
2.34955e-05 0.000102064 2.22956e-06
-1.45524e-07 2.22956e-06 0.000107476
0.00052733 3.88455e-06 5.39043e-07
3.88455e-06 -4.36245e-05 -4.04853e-06
5.39043e-07 -4.04853e-06 -6.07813e-05
0.00157581 2.34539e-05 6.11789e-06
2.34539e-05 0.000585737 -1.49848e-06
6.11789e-06 -1.49848e-06 0.000596364
0.00239248 1.62695e-05 4.62057e-06
1.62695e-05 0.00107762 -5.1941e-06
4.62057e-06 -5.1941e-06 0.00109241
0.000675701 1.55259e-05 1.54581e-06
1.55259e-05 8.95296e-05 -1.17391e-06
1.54581e-06 -1.17391e-06 1.99774e-06
0.00063321 3.68627e-05 -7.33752e-07
3.68627e-05 4.27755e-05 -1.83909e-06
-7.33752e-07 -1.83909e-06 -2.31407e-06
0.000679572 -3.55036e-06 1.22624e-06
-3.55036e-06 9.94889e-05 3.82768e-07
1.22624e-06 3.82768e-07 1.62329e-05
0.000563003 -1.7251e-06 5.80051e-07
-1.7251e-06 -2.85899e-05 -3.47622e-06
5.80051e-07 -3.47622e-06 -3.65507e-05
0.000575512 2.94697e-05 8.99602e-08
2.94697e-05 8.93962e-06 -3.44489e-08
8.99602e-08 -3.44489e-08 -3.28388e-05
0.000640952 -9.54515e-05 -3.5461e-06
-9.54515e-05 7.73524e-05 1.3128e-06
-3.5461e-06 1.3128e-06 -2.92413e-06
0.00201449 2.62408e-06 -2.39765e-06
2.62408e-06 0.000848014 -4.72473e-06
-2.39765e-06 -4.72473e-06 0.000867126
0.000557184 2.95787e-06 -1.81011e-07
2.95787e-06 -3.26604e-05 -1.09273e-09
-1.81011e-07 -1.09273e-09 -3.96981e-05
0.000577803 -1.99752e-05 -1.65639e-06
-1.99752e-05 7.57397e-06 1.57751e-06
-1.65639e-06 1.57751e-06 -3.16749e-05
0.000540266 7.38459e-06 -7.11718e-07
7.38459e-06 -4.3275e-05 3.09516e-06
-7.11718e-07 3.09516e-06 -5.02153e-05
0.00202426 1.70451e-05 -4.11238e-06
1.70451e-05 0.000855505 -5.42706e-08
-4.11238e-06 -5.42706e-08 0.000874124
0.00200506 2.94176e-05 -8.97844e-06
2.94176e-05 0.000846169 4.31748e-06
-8.97844e-06 4.31748e-06 0.000864155
-0.00508506 -0.000570516 -6.6247e-05
-0.000570516 0.00218754 2.52342e-05
-6.6247e-05 2.52342e-05 -0.00047261
-0.000151108 0.00061806 -0.000111523
0.00061806 -0.000259432 2.6266e-05
-0.000111523 2.6266e-05 -0.00100863
0.00327442 -0.000499974 -0.000330091
-0.000499974 0.00113946 0.000186269
-0.000330091 0.000186269 -0.00204438
-0.00309806 6.52363e-05 0.000478384
6.52363e-05 0.00277853 -0.000197179
0.000478384 -0.000197179 0.000703338
0.000421117 0.000309477 -1.53145e-05
0.000309477 -0.0012861 -1.29642e-08
-1.53145e-05 -1.29642e-08 -0.00112942
0.00250636 -0.000205806 0.000101574
-0.000205806 4.43432e-05 -7.74668e-06
0.000101574 -7.74668e-06 4.81321e-05
0.0011139 -0.000390412 1.85243e-05
-0.000390412 -0.00247662 -7.45195e-05
1.85243e-05 -7.45195e-05 -0.00414371
0.0120433 0.00139953 -0.000205897
0.00139953 0.00574571 -7.5173e-06
-0.000205897 -7.5173e-06 0.00476227
-0.00678247 0.00317948 -0.000843629
0.00317948 -0.00268346 0.000654404
-0.000843629 0.000654404 -0.00161583
0.00301534 -0.000180776 -9.21399e-07
-0.000180776 -0.000273659 -3.36891e-06
-9.21399e-07 -3.36891e-06 -0.000257692
0.00568649 -0.000692978 6.84062e-05
-0.000692978 -0.000323353 -6.55368e-05
6.84062e-05 -6.55368e-05 -0.00255702
0.0127966 0.00252004 -0.000118769
0.00252004 0.0038093 -9.22379e-05
-0.000118769 -9.22379e-05 0.00395378
0.00547155 0.00195058 -7.95866e-05
0.00195058 -0.000572234 0.000210796
-7.95866e-05 0.000210796 -0.00090792
0.0025299 -0.000821444 -7.82509e-05
-0.000821444 -0.00115457 2.20482e-05
-7.82509e-05 2.20482e-05 -0.000918651
0.003115 -0.00128823 0.000223813
-0.00128823 -2.61741e-05 -0.000150333
0.000223813 -0.000150333 -0.00351139
-0.00315829 0.00154975 -7.49193e-05
0.00154975 -0.00346255 -0.000398123
-7.49193e-05 -0.000398123 -0.00411227
0.00494211 0.000992263 -0.000103495
0.000992263 -0.00297704 6.34541e-06
-0.000103495 6.34541e-06 -0.00169877
0.00116064 -4.4933e-05 1.00253e-06
-4.4933e-05 0.000442746 5.84823e-06
1.00253e-06 5.84823e-06 0.000278992
0.000649012 8.4814e-05 -1.72468e-06
8.4814e-05 0.000106495 -1.44138e-06
-1.72468e-06 -1.44138e-06 -1.77191e-05
0.00061467 7.22179e-05 2.09249e-07
7.22179e-05 6.30388e-05 -1.51812e-06
2.09249e-07 -1.51812e-06 -2.53728e-05
0.000658403 6.16459e-05 4.0402e-06
6.16459e-05 0.000123822 6.29263e-07
4.0402e-06 6.29263e-07 1.003e-05
0.000623487 5.60188e-05 1.9787e-06
5.60188e-05 8.92321e-05 2.21422e-06
1.9787e-06 2.21422e-06 -6.44481e-05
0.000697662 5.86064e-05 -2.51722e-07
5.86064e-05 0.000143372 1.54474e-06
-2.51722e-07 1.54474e-06 1.37243e-05
0.000572336 3.43676e-05 7.6798e-07
3.43676e-05 5.46352e-05 -5.00836e-07
7.6798e-07 -5.00836e-07 -6.16129e-05
0.000876922 0.000135461 1.74777e-06
0.000135461 0.000244844 2.51326e-06
1.74777e-06 2.51326e-06 0.00010215
0.000841921 8.75397e-05 -1.14536e-07
8.75397e-05 0.000225491 3.47399e-07
-1.14536e-07 3.47399e-07 9.01555e-05
0.000490982 -1.30993e-05 -3.51087e-06
-1.30993e-05 8.62162e-06 -2.35999e-06
-3.51087e-06 -2.35999e-06 -0.000105527
0.000668547 -0.000242268 4.69374e-05
-0.000242268 -0.00073153 -1.80101e-05
4.69374e-05 -1.80101e-05 -0.000642613
0.000965198 -0.000496128 3.77613e-05
-0.000496128 -0.000417633 -4.72461e-06
3.77613e-05 -4.72461e-06 -0.000458525
0.00175864 -0.000678709 1.71926e-05
-0.000678709 9.2692e-05 5.79182e-06
1.71926e-05 5.79182e-06 -6.98407e-05
0.000184072 -0.000409718 1.06648e-05
-0.000409718 -0.00025853 -1.49018e-05
1.06648e-05 -1.49018e-05 -0.00053383
0.00214461 -0.000235765 -2.54188e-06
-0.000235765 0.00112647 1.66857e-05
-2.54188e-06 1.66857e-05 0.000800755
0.000585528 -0.000101452 -1.30473e-06
-0.000101452 0.000131534 9.36153e-07
-1.30473e-06 9.36153e-07 -5.01705e-05
0.000449951 8.12133e-05 -5.35989e-07
8.12133e-05 9.19209e-06 -4.79927e-06
-5.35989e-07 -4.79927e-06 -0.000149224
0.000647679 -6.89168e-05 -6.76268e-07
-6.89168e-05 0.000139631 3.93637e-06
-6.76268e-07 3.93637e-06 -4.04072e-05
0.00125809 -0.000393911 1.33778e-07
-0.000393911 -0.000114764 -1.81989e-06
1.33778e-07 -1.81989e-06 -0.000269669
0.000679594 -3.10588e-05 1.07607e-07
-3.10588e-05 0.000162204 1.86699e-06
1.07607e-07 1.86699e-06 -1.88289e-05
0.00154197 -0.000165379 -2.04233e-07
-0.000165379 0.000765665 -9.04661e-07
-2.04233e-07 -9.04661e-07 0.000489738
0.00169177 -0.000531129 1.2857e-06
-0.000531129 0.000196385 3.02054e-06
1.2857e-06 3.02054e-06 0.000121382
0.000872355 -0.000368055 -1.41975e-05
-0.000368055 0.000267814 4.80805e-06
-1.41975e-05 4.80805e-06 -1.75907e-05
0.00118776 -0.000681229 -2.25729e-06
-0.000681229 -0.000187621 -2.51586e-05
-2.25729e-06 -2.51586e-05 -0.000205971
0.00144379 -0.000305667 -1.60828e-05
-0.000305667 0.000577822 1.36078e-05
-1.60828e-05 1.36078e-05 0.000451703
-0.000571818 -5.27119e-05 4.7942e-07
-5.27119e-05 -0.000360625 1.7142e-05
4.7942e-07 1.7142e-05 -0.000688305
0.000716032 1.24972e-05 -8.37127e-07
1.24972e-05 0.000151313 -3.67886e-06
-8.37127e-07 -3.67886e-06 -9.5696e-06
0.000753819 3.97544e-05 3.59226e-06
3.97544e-05 0.000291283 1.26807e-06
3.59226e-06 1.26807e-06 5.54332e-05
0.00176343 -4.22856e-05 -2.23538e-05
-4.22856e-05 0.00140942 -9.37327e-06
-2.23538e-05 -9.37327e-06 -0.000739912
-0.00331933 0.00015309 -0.000158858
0.00015309 0.0036373 -6.16578e-06
-0.000158858 -6.16578e-06 0.000853435
-0.010565 -0.000841861 -0.000349104
-0.000841861 -0.00551917 -6.21701e-07
-0.000349104 -6.21701e-07 -0.00527703
-0.000310257 0.000107544 6.22399e-06
0.000107544 -0.000392393 -1.50199e-06
6.22399e-06 -1.50199e-06 -0.000553919
-0.000660261 0.000207512 6.28241e-07
0.000207512 -0.000535639 5.95416e-06
6.28241e-07 5.95416e-06 -0.000800467
0.00148302 0.000477876 2.53085e-05
0.000477876 0.000177442 8.71607e-06
2.53085e-05 8.71607e-06 0.000151457
-0.00426897 0.000687683 -1.44683e-05
0.000687683 0.00222737 2.4278e-05
-1.44683e-05 2.4278e-05 -0.000663726
0.00168282 0.00111356 -0.000109058
0.00111356 -6.363e-05 -0.000113673
-0.000109058 -0.000113673 -0.00363877
0.00285691 0.00125754 0.000209637
0.00125754 0.000572852 5.36629e-05
0.000209637 5.36629e-05 0.000214081
5.13058e-05 0.000394245 8.68867e-06
0.000394245 -0.000129939 -3.27626e-05
8.68867e-06 -3.27626e-05 -0.000207308
0.0142517 -0.00182378 -2.58693e-05
-0.00182378 0.00414328 -0.000150256
-2.58693e-05 -0.000150256 0.00348743
0.00427356 0.00052055 0.000193771
0.00052055 0.00212762 8.02235e-05
0.000193771 8.02235e-05 -0.0015254
0.0106664 -0.00126888 6.87995e-05
-0.00126888 0.0016209 2.07181e-05
6.87995e-05 2.07181e-05 0.00291603
0.000760699 0.000229935 2.30137e-06
0.000229935 0.000310236 -2.32479e-06
2.30137e-06 -2.32479e-06 0.000156887
0.00367902 0.000154025 1.09063e-05
0.000154025 0.0018019 4.72735e-06
1.09063e-05 4.72735e-06 6.42167e-05
0.00067703 0.000177092 2.2581e-05
0.000177092 5.46371e-05 1.02804e-05
2.2581e-05 1.02804e-05 -0.00152892
-0.000406237 0.000242296 -5.22182e-06
0.000242296 -0.000212876 -1.82927e-06
-5.22182e-06 -1.82927e-06 -0.000432208
0.00187551 0.000679572 -8.45469e-05
0.000679572 0.00108948 -4.04603e-05
-8.45469e-05 -4.04603e-05 0.000152645
0.00273134 0.00203598 9.71407e-05
0.00203598 0.00102033 6.47046e-05
9.71407e-05 6.47046e-05 -0.00241425
0.00655418 0.000188894 -1.18547e-05
0.000188894 -0.00276048 -0.000136005
-1.18547e-05 -0.000136005 -0.000217036
0.00264477 -0.00150211 -4.25073e-05
-0.00150211 0.000921892 -6.15434e-05
-4.25073e-05 -6.15434e-05 -0.0012647
0.000953174 0.000187361 -5.09464e-06
0.000187361 0.000625279 -1.31117e-05
-5.09464e-06 -1.31117e-05 0.000444792
-0.000149089 -3.61469e-05 -1.30241e-06
-3.61469e-05 -5.20408e-05 -4.3118e-06
-1.30241e-06 -4.3118e-06 1.35733e-05
0.00295729 2.77574e-05 3.96956e-05
2.77574e-05 0.000138467 -0.000101608
3.96956e-05 -0.000101608 -0.000948758
0.00505252 0.00103514 0.000111759
0.00103514 -0.0028332 -1.28889e-05
0.000111759 -1.28889e-05 -0.00169016
-0.000917812 0.000119389 2.05776e-06
0.000119389 -1.27037e-05 -2.03237e-05
2.05776e-06 -2.03237e-05 -0.000588089
0.0108325 0.00158205 0.00014859
0.00158205 0.00520082 5.14558e-05
0.00014859 5.14558e-05 0.00126471
-0.00813906 -0.000435312 7.68524e-05
-0.000435312 -0.00016371 0.000237711
7.68524e-05 0.000237711 -0.00240082
0.00243439 0.000274707 1.92564e-05
0.000274707 0.00124933 1.46138e-05
1.92564e-05 1.46138e-05 0.00109637
0.000775666 0.000153117 -5.24792e-06
0.000153117 0.000406316 -2.43396e-06
-5.24792e-06 -2.43396e-06 0.000181847
-0.00015826 7.08107e-05 -2.17326e-06
7.08107e-05 8.36419e-05 -5.97729e-07
-2.17326e-06 -5.97729e-07 -0.000166158
0.000716247 0.00014076 3.25796e-07
0.00014076 0.000135965 8.39796e-09
3.25796e-07 8.39796e-09 -1.14241e-05
0.000552411 6.44735e-05 1.1453e-06
6.44735e-05 3.581e-05 2.22219e-06
1.1453e-06 2.22219e-06 -8.51383e-05
0.000497143 5.97483e-06 7.137e-06
5.97483e-06 0.000275611 5.76102e-06
7.137e-06 5.76102e-06 4.90934e-05
0.000635289 4.51306e-05 -2.45253e-07
4.51306e-05 8.00211e-05 -4.16818e-07
-2.45253e-07 -4.16818e-07 -5.18311e-05
0.000777643 -1.5427e-05 -2.07077e-06
-1.5427e-05 0.000355508 -2.25714e-06
-2.07077e-06 -2.25714e-06 0.000176495
-0.000416957 3.61303e-05 4.04607e-06
3.61303e-05 -6.04662e-05 5.61602e-06
4.04607e-06 5.61602e-06 -0.000370166
0.000594769 -6.15197e-07 -5.87001e-06
-6.15197e-07 0.000396002 -5.57011e-06
-5.87001e-06 -5.57011e-06 0.000235337
0.000244857 -4.04125e-05 -2.66823e-06
-4.04125e-05 1.87795e-05 -7.35661e-06
-2.66823e-06 -7.35661e-06 -0.000133226
0.000593259 -5.59185e-05 3.01866e-06
-5.59185e-05 5.05683e-05 4.44757e-06
3.01866e-06 4.44757e-06 -5.67703e-05
0.000810729 -6.71004e-06 -1.01135e-06
-6.71004e-06 0.000177431 -2.29373e-07
-1.01135e-06 -2.29373e-07 6.67102e-05
0.00105633 -3.60508e-05 -8.33781e-06
-3.60508e-05 0.00032875 5.88381e-06
-8.33781e-06 5.88381e-06 0.000236023
0.000681513 -5.23456e-05 4.29609e-06
-5.23456e-05 0.000171245 -5.43531e-07
4.29609e-06 -5.43531e-07 8.25162e-05
0.000562889 -2.66808e-05 -1.24756e-06
-2.66808e-05 1.78731e-05 4.44675e-08
-1.24756e-06 4.44675e-08 -8.13774e-05
0.000809133 -0.000102087 2.32701e-06
-0.000102087 0.000195118 -2.05904e-07
2.32701e-06 -2.05904e-07 9.27424e-05
0.000379741 -9.76887e-05 -2.82311e-06
-9.76887e-05 -0.000143953 -9.35252e-07
-2.82311e-06 -9.35252e-07 -0.00022398
-0.000409242 -0.000161894 7.44346e-06
-0.000161894 -0.000578004 2.8576e-06
7.44346e-06 2.8576e-06 -0.000764567
0.000805618 -0.000108355 4.17534e-07
-0.000108355 0.000143685 8.54897e-07
4.17534e-07 8.54897e-07 3.52297e-05
0.00121052 -0.000189119 -7.9061e-07
-0.000189119 0.00036522 3.28017e-06
-7.9061e-07 3.28017e-06 0.000204016
0.00101585 -0.000280686 -4.93153e-06
-0.000280686 0.000170682 5.1462e-06
-4.93153e-06 5.1462e-06 -6.91813e-05
0.000967955 -0.000252364 -5.13482e-06
-0.000252364 0.000135057 4.13907e-07
-5.13482e-06 4.13907e-07 -9.966e-05
0.00104608 -0.000202059 -2.7732e-06
-0.000202059 0.000340899 5.82156e-06
-2.7732e-06 5.82156e-06 0.000150292
0.000326211 -0.000169176 2.57809e-06
-0.000169176 -0.000192175 -6.64754e-08
2.57809e-06 -6.64754e-08 -0.000405943
0.000895184 -8.62378e-05 9.86662e-07
-8.62378e-05 0.00023623 -8.18188e-07
9.86662e-07 -8.18188e-07 0.000102457
0.001056 -0.000127536 -1.70609e-06
-0.000127536 0.000344019 -3.95635e-07
-1.70609e-06 -3.95635e-07 0.000195251
0.000423474 -0.000108619 5.07578e-06
-0.000108619 -4.53834e-05 -1.22025e-05
5.07578e-06 -1.22025e-05 -0.000198135
0.000988536 -4.02368e-05 2.46252e-07
-4.02368e-05 0.000261734 -5.46506e-08
2.46252e-07 -5.46506e-08 0.000149675
0.00044097 -1.88731e-05 4.28091e-07
-1.88731e-05 -3.40403e-05 -1.74852e-07
4.28091e-07 -1.74852e-07 -0.000147182
0.000613875 -1.67102e-05 -2.80425e-07
-1.67102e-05 4.55438e-05 9.71508e-07
-2.80425e-07 9.71508e-07 -4.65349e-05
0.000795283 -6.632e-05 -3.41741e-07
-6.632e-05 0.000185062 -1.29217e-07
-3.41741e-07 -1.29217e-07 6.21724e-05
0.000668027 -4.19226e-05 -7.6987e-08
-4.19226e-05 8.7849e-05 4.23401e-08
-7.6987e-08 4.23401e-08 -5.99328e-06
0.000574232 2.73114e-05 -1.23628e-07
2.73114e-05 9.83319e-06 2.2823e-06
-1.23628e-07 2.2823e-06 -5.35587e-05
0.000732886 -7.48798e-05 4.5731e-07
-7.48798e-05 0.000133204 -1.58349e-06
4.5731e-07 -1.58349e-06 3.6646e-05
0.000595301 1.89961e-05 -1.11701e-06
1.89961e-05 1.8413e-05 -8.15002e-08
-1.11701e-06 -8.15002e-08 -4.12164e-05
0.00134415 4.36096e-05 -8.83133e-06
4.36096e-05 0.000449516 3.90083e-06
-8.83133e-06 3.90083e-06 0.000433867
0.000634016 -3.05285e-05 2.34096e-06
-3.05285e-05 3.95359e-05 -2.50158e-06
2.34096e-06 -2.50158e-06 -1.7736e-05
0.000930136 2.63669e-05 -4.89813e-06
2.63669e-05 0.000197475 6.25298e-07
-4.89813e-06 6.25298e-07 0.000181007
0.000800744 3.25967e-05 -7.9858e-07
3.25967e-05 0.00012215 2.32596e-06
-7.9858e-07 2.32596e-06 0.000126254
0.000515047 1.20317e-05 8.0918e-07
1.20317e-05 -5.34646e-05 -4.33559e-06
8.0918e-07 -4.33559e-06 -7.10179e-05
0.00159119 3.53986e-05 8.37213e-06
3.53986e-05 0.000596858 -1.3473e-06
8.37213e-06 -1.3473e-06 0.000606266
0.00238539 3.15338e-05 8.08843e-06
3.15338e-05 0.00107444 -5.17154e-06
8.08843e-06 -5.17154e-06 0.00108864
0.000420361 7.65967e-06 1.03027e-06
7.65967e-06 -5.23715e-05 -3.05182e-07
1.03027e-06 -3.05182e-07 -0.000159977
0.000294923 6.70191e-06 2.4523e-08
6.70191e-06 -0.000160308 -3.18934e-06
2.4523e-08 -3.18934e-06 -0.000213709
0.000717937 2.50355e-05 6.31545e-09
2.50355e-05 0.000121136 1.2483e-07
6.31545e-09 1.2483e-07 2.8646e-05
0.000558399 -5.91088e-06 4.74782e-07
-5.91088e-06 -3.12736e-05 -3.60871e-06
4.74782e-07 -3.60871e-06 -4.09446e-05
0.000425469 1.39774e-06 1.23907e-06
1.39774e-06 -8.35231e-05 -5.98406e-08
1.23907e-06 -5.98406e-08 -0.000128802
0.000417923 -8.51905e-05 -1.56417e-06
-8.51905e-05 -5.65518e-05 6.26329e-07
-1.56417e-06 6.26329e-07 -0.00014248
0.00208529 -1.07558e-05 -6.86052e-06
-1.07558e-05 0.000890674 -4.77019e-06
-6.86052e-06 -4.77019e-06 0.000909216
0.000557202 -1.88628e-06 -1.02077e-07
-1.88628e-06 -3.23371e-05 -4.7344e-08
-1.02077e-07 -4.7344e-08 -4.01792e-05
0.000551106 -1.81378e-05 -1.82535e-06
-1.81378e-05 -7.64506e-06 1.87095e-06
-1.82535e-06 1.87095e-06 -4.80861e-05
0.00202996 4.03254e-06 -4.01887e-06
4.03254e-06 0.000857528 1.5259e-08
-4.01887e-06 1.5259e-08 0.000876546
0.000539843 2.62099e-06 -6.07431e-07
2.62099e-06 -4.2546e-05 3.22859e-06
-6.07431e-07 3.22859e-06 -4.95968e-05
0.00201521 1.84321e-05 -1.98175e-06
1.84321e-05 0.000850159 4.51512e-06
-1.98175e-06 4.51512e-06 0.000868747
0.000286588 -0.000242581 -0.000119885
-0.000242581 -0.000244708 3.24397e-05
-0.000119885 3.24397e-05 -0.00197923
0.00132577 0.000203887 -3.8116e-05
0.000203887 0.00409078 -4.9902e-06
-3.8116e-05 -4.9902e-06 0.00229203
0.00106322 -0.000341856 -0.000346288
-0.000341856 0.00229654 2.46102e-05
-0.000346288 2.46102e-05 0.0011909
0.000751096 8.89039e-05 2.34489e-06
8.89039e-05 0.000146806 1.00447e-06
2.34489e-06 1.00447e-06 1.00499e-05
0.00350287 -0.000323564 -2.0544e-05
-0.000323564 0.00244301 0.000112645
-2.0544e-05 0.000112645 0.000959306
0.00370365 -0.000577793 -0.000134529
-0.000577793 0.00136364 9.18862e-06
-0.000134529 9.18862e-06 -0.00190995
0.00324967 0.000924021 0.000233812
0.000924021 0.00401804 -0.000186004
0.000233812 -0.000186004 0.00241836
0.00453562 -0.000319371 4.09063e-05
-0.000319371 0.00041405 -3.75881e-05
4.09063e-05 -3.75881e-05 0.00016286
0.0119937 -0.000694499 0.000142251
-0.000694499 0.00271427 -7.12578e-05
0.000142251 -7.12578e-05 0.00111097
-0.000622239 0.00212174 -0.000195928
0.00212174 -0.00325184 0.00019411
-0.000195928 0.00019411 -0.00291047
0.00653887 0.00206807 3.68632e-05
0.00206807 0.000727292 6.40466e-05
3.68632e-05 6.40466e-05 1.74881e-05
0.00517213 -0.000977012 -9.79722e-05
-0.000977012 0.000201965 -2.17169e-06
-9.79722e-05 -2.17169e-06 -3.99165e-05
0.0119931 -0.00121223 5.60836e-05
-0.00121223 0.00404472 -1.64713e-05
5.60836e-05 -1.64713e-05 0.00187284
0.0074902 0.00136159 8.76151e-05
0.00136159 0.000902321 -0.00015402
8.76151e-05 -0.00015402 5.38585e-05
0.0066903 0.000920896 3.30719e-06
0.000920896 -0.00150431 1.36627e-05
3.30719e-06 1.36627e-05 -0.00059626
0.0028289 -0.0013708 1.1897e-05
-0.0013708 -8.75619e-05 9.06865e-06
1.1897e-05 9.06865e-06 -0.000754639
0.0116848 -0.0018287 0.000106889
-0.0018287 0.00534025 -5.83226e-05
0.000106889 -5.83226e-05 0.00154885
0.0042578 -8.65474e-05 8.64911e-05
-8.65474e-05 0.000945392 -0.000231479
8.64911e-05 -0.000231479 7.75093e-05
0.00824835 0.000488213 -5.81761e-05
0.000488213 -0.0010425 0.000130808
-5.81761e-05 0.000130808 0.000992406
0.000771158 -2.21562e-05 2.15632e-06
-2.21562e-05 0.000196466 2.92777e-06
2.15632e-06 2.92777e-06 3.09764e-05
0.00086004 -7.32797e-05 -3.845e-07
-7.32797e-05 0.00026593 -3.56489e-08
-3.845e-07 -3.56489e-08 9.83462e-05
0.000780174 0.000107732 -2.21714e-07
0.000107732 0.000189804 -2.93645e-06
-2.21714e-07 -2.93645e-06 6.2767e-05
0.000718766 5.85317e-05 1.16836e-06
5.85317e-05 0.000116504 3.62202e-06
1.16836e-06 3.62202e-06 -1.72175e-05
0.000768199 0.000104414 -3.9316e-07
0.000104414 0.000185036 7.248e-07
-3.9316e-07 7.248e-07 3.06089e-05
0.000891577 6.35817e-05 -2.57077e-06
6.35817e-05 0.000258254 -1.00219e-06
-2.57077e-06 -1.00219e-06 0.000130393
0.000999519 0.000129208 -1.01967e-06
0.000129208 0.000316756 -6.99109e-08
-1.01967e-06 -6.99109e-08 0.000174034
0.000990951 0.00013773 7.03841e-07
0.00013773 0.00032682 2.11995e-06
7.03841e-07 2.11995e-06 0.000184641
0.000492833 -0.000292814 6.03355e-05
-0.000292814 -0.000585869 -2.38297e-05
6.03355e-05 -2.38297e-05 -0.000583377
0.00192425 -0.000556527 1.25948e-05
-0.000556527 0.000278345 -9.37052e-06
1.25948e-05 -9.37052e-06 0.000222978
0.000952277 -0.000190656 -8.48968e-07
-0.000190656 0.000329594 -5.67505e-06
-8.48968e-07 -5.67505e-06 0.000138034
0.00133977 -0.000441413 1.90464e-05
-0.000441413 0.000506022 -2.07033e-05
1.90464e-05 -2.07033e-05 0.000216818
0.00227429 -0.000242596 -6.15328e-06
-0.000242596 0.00118151 2.2716e-06
-6.15328e-06 2.2716e-06 0.00090201
0.00107059 -8.70565e-05 -1.82416e-06
-8.70565e-05 0.000382523 -8.54208e-06
-1.82416e-06 -8.54208e-06 0.000200994
0.000462206 -1.69703e-05 9.86586e-07
-1.69703e-05 7.80984e-06 3.19717e-06
9.86586e-07 3.19717e-06 -0.000155177
0.000269267 -0.000612174 -4.17062e-06
-0.000612174 -0.000699129 -1.01636e-06
-4.17062e-06 -1.01636e-06 -0.000670326
0.00128012 4.48395e-05 2.76215e-07
4.48395e-05 0.000601233 5.66971e-07
2.76215e-07 5.66971e-07 0.00035522
0.000877313 -0.00018651 -1.02338e-05
-0.00018651 0.000407091 2.96587e-06
-1.02338e-05 2.96587e-06 0.00010852
0.000520323 -0.000226428 1.58599e-05
-0.000226428 4.06481e-05 2.63031e-06
1.58599e-05 2.63031e-06 -3.83244e-05
0.00111772 8.20397e-05 1.70019e-06
8.20397e-05 0.000363131 -2.01619e-06
1.70019e-06 -2.01619e-06 0.000224331
0.00116313 -0.000541004 1.5592e-05
-0.000541004 -1.66478e-05 -3.86963e-05
1.5592e-05 -3.86963e-05 0.000103574
0.000141675 -0.000138698 8.49571e-06
-0.000138698 0.00010689 1.88592e-05
8.49571e-06 1.88592e-05 -3.26747e-05
-0.000416583 5.0092e-05 5.86953e-06
5.0092e-05 -0.000100764 7.1385e-06
5.86953e-06 7.1385e-06 -0.000533975
0.0013366 0.000204415 2.57553e-06
0.000204415 0.000574841 -3.67298e-06
2.57553e-06 -3.67298e-06 0.00039163
0.000120528 3.37215e-06 3.11141e-06
3.37215e-06 0.00076288 -8.0276e-06
3.11141e-06 -8.0276e-06 0.000126704
0.00118142 -4.25294e-05 9.19791e-05
-4.25294e-05 0.00110182 -1.43256e-05
9.19791e-05 -1.43256e-05 -0.00106486
-0.00645336 -8.1324e-05 -0.00016551
-8.1324e-05 0.00285777 8.96567e-06
-0.00016551 8.96567e-06 -0.000479165
0.00112722 0.000247059 1.46206e-05
0.000247059 0.00059204 4.74587e-06
1.46206e-05 4.74587e-06 0.000429016
-0.00146164 0.000303053 4.00611e-06
0.000303053 -0.000808523 9.73421e-06
4.00611e-06 9.73421e-06 -0.00110199
0.00437978 0.000148326 0.00011506
0.000148326 0.0022973 9.33169e-06
0.00011506 9.33169e-06 0.00100969
0.00761821 0.00118212 0.000174325
0.00118212 0.00341963 9.21135e-05
0.000174325 9.21135e-05 -0.000301235
0.0033913 0.00104091 -0.000108243
0.00104091 0.0017106 -8.77945e-05
-0.000108243 -8.77945e-05 0.000600175
0.00487378 -0.00102438 -3.96753e-05
-0.00102438 0.00185532 -0.000255825
-3.96753e-05 -0.000255825 -1.19515e-06
0.00119152 0.000198131 6.17625e-05
0.000198131 0.000146842 0.000134019
6.17625e-05 0.000134019 -0.00141835
0.0047283 -7.13606e-05 -2.07919e-05
-7.13606e-05 -0.00447564 -0.00014089
-2.07919e-05 -0.00014089 -0.00149986
0.000742361 0.00021152 -2.79027e-07
0.00021152 0.000505148 -2.63856e-06
-2.79027e-07 -2.63856e-06 0.000305163
-0.000132455 -4.20851e-05 6.99284e-07
-4.20851e-05 -4.71709e-05 -8.50787e-07
6.99284e-07 -8.50787e-07 -1.32411e-05
0.002995 5.89039e-05 4.64252e-05
5.89039e-05 0.000270894 1.92031e-05
4.64252e-05 1.92031e-05 -0.000368752
-0.00102062 0.000189941 -8.82954e-06
0.000189941 -0.000349452 -6.02223e-06
-8.82954e-06 -6.02223e-06 -0.000817693
0.00679534 0.0010143 -2.41311e-06
0.0010143 -0.00147953 -1.26913e-05
-2.41311e-06 -1.26913e-05 -0.000626314
0.00476655 0.00110778 0.000133561
0.00110778 0.00318927 7.04817e-05
0.000133561 7.04817e-05 -0.000980174
0.00387288 0.000501159 -8.8498e-05
0.000501159 0.0025637 6.48359e-06
-8.8498e-05 6.48359e-06 0.000948983
0.000251427 0.000216254 -1.27856e-05
0.000216254 0.000254096 -1.70167e-05
-1.27856e-05 -1.70167e-05 -3.57144e-05
0.00158757 8.26666e-05 1.21936e-05
8.26666e-05 -0.000293395 -1.64282e-05
1.21936e-05 -1.64282e-05 -4.13911e-05
0.00346644 -0.000271428 2.69263e-05
-0.000271428 0.00238576 -0.00011689
2.69263e-05 -0.00011689 0.00094177
0.00876513 0.00207596 0.000233994
0.00207596 0.00142766 -0.000154355
0.000233994 -0.000154355 0.00124774
0.00644681 -0.000144213 -9.72e-05
-0.000144213 0.00171508 0.000230988
-9.72e-05 0.000230988 0.000976499
0.000990551 0.000185142 3.15736e-06
0.000185142 0.000284316 -7.74563e-05
3.15736e-06 -7.74563e-05 9.48644e-05
-0.000457271 0.00117405 0.00013855
0.00117405 0.00295211 3.08761e-05
0.00013855 3.08761e-05 -0.00327095
0.00130901 0.000230172 3.7184e-06
0.000230172 0.000670041 1.91831e-05
3.7184e-06 1.91831e-05 0.000446601
0.000214497 0.000110736 2.55981e-06
0.000110736 0.000287287 1.06922e-06
2.55981e-06 1.06922e-06 3.47255e-05
0.00089707 -4.06733e-06 -8.8271e-06
-4.06733e-06 0.000723742 -1.05087e-05
-8.8271e-06 -1.05087e-05 0.000555715
0.000322444 -2.73004e-05 1.23069e-06
-2.73004e-05 -0.000119354 3.55609e-06
1.23069e-06 3.55609e-06 -0.000237499
0.000751323 -1.32772e-05 1.9193e-06
-1.32772e-05 0.000339435 4.59938e-06
1.9193e-06 4.59938e-06 0.000161839
0.00060776 -1.11188e-05 2.73219e-06
-1.11188e-05 0.000488927 -5.24838e-06
2.73219e-06 -5.24838e-06 0.000197991
0.000485855 -5.61124e-05 4.40115e-07
-5.61124e-05 0.00012852 -8.92068e-08
4.40115e-07 -8.92068e-08 -6.07042e-07
4.04664e-05 -1.59642e-05 6.75094e-07
-1.59642e-05 7.57606e-05 1.9621e-06
6.75094e-07 1.9621e-06 -9.2701e-05
0.00137438 -0.000235066 7.42083e-06
-0.000235066 0.000763479 -1.09067e-05
7.42083e-06 -1.09067e-05 0.000562308
0.00129285 -7.23742e-05 -1.88728e-06
-7.23742e-05 0.000516387 4.22955e-06
-1.88728e-06 4.22955e-06 0.000428183
-5.48215e-05 -9.81312e-06 -6.82798e-07
-9.81312e-06 -0.000336623 1.7103e-06
-6.82798e-07 1.7103e-06 -0.000435608
0.00145231 -0.000167123 1.78406e-06
-0.000167123 0.000560845 2.02789e-06
1.78406e-06 2.02789e-06 0.000444966
-0.000997346 -0.000118992 5.73265e-06
-0.000118992 -0.000752234 2.00832e-06
5.73265e-06 2.00832e-06 -0.000980942
0.000319367 -7.76335e-05 -4.05517e-06
-7.76335e-05 -0.000140685 5.83857e-07
-4.05517e-06 5.83857e-07 -0.000204449
-3.31163e-05 -0.000174976 3.05795e-06
-0.000174976 -0.000367806 -1.11292e-06
3.05795e-06 -1.11292e-06 -0.00053994
0.00113992 -0.000325793 9.52291e-06
-0.000325793 0.000212612 -4.57264e-06
9.52291e-06 -4.57264e-06 -6.86665e-05
0.00134202 -0.000362655 -4.23313e-06
-0.000362655 0.000219221 2.8389e-06
-4.23313e-06 2.8389e-06 -6.33094e-05
0.00195233 -0.000268648 -1.50542e-06
-0.000268648 0.000792453 1.8082e-07
-1.50542e-06 1.8082e-07 0.000613602
0.00103499 -0.000283056 6.91425e-08
-0.000283056 0.000155241 3.22148e-07
6.91425e-08 3.22148e-07 -9.52419e-05
0.00243022 -0.000407672 2.85611e-06
-0.000407672 0.000960508 -1.38301e-06
2.85611e-06 -1.38301e-06 0.000711063
0.000192607 -0.000142569 -1.99574e-06
-0.000142569 -0.00022752 3.11187e-06
-1.99574e-06 3.11187e-06 -0.00043427
0.00101786 -0.00025257 -4.79525e-07
-0.00025257 0.000172312 -3.4562e-07
-4.79525e-07 -3.4562e-07 -5.91383e-05
0.000514695 -7.76374e-05 8.98339e-08
-7.76374e-05 2.28131e-05 -1.63124e-06
8.98339e-08 -1.63124e-06 -0.000135176
0.00105894 -0.000216995 -4.28654e-06
-0.000216995 0.000352557 2.53103e-06
-4.28654e-06 2.53103e-06 0.000156553
-0.000546984 -7.70701e-05 -2.28136e-06
-7.70701e-05 -0.000703536 -4.40833e-06
-2.28136e-06 -4.40833e-06 -0.000898951
0.000486675 -4.79266e-07 8.83089e-07
-4.79266e-07 -2.24275e-05 1.34139e-06
8.83089e-07 1.34139e-06 -0.00012935
0.00065895 -6.85791e-05 4.7082e-07
-6.85791e-05 0.000105759 3.1162e-08
4.7082e-07 3.1162e-08 -2.86427e-05
0.000744665 -0.000119499 4.66154e-06
-0.000119499 0.000170941 -2.91498e-06
4.66154e-06 -2.91498e-06 1.64641e-05
0.000609875 -3.01345e-05 3.43798e-07
-3.01345e-05 6.78608e-05 -3.66482e-07
3.43798e-07 -3.66482e-07 -4.79014e-05
0.000685349 -2.84367e-05 -6.38286e-07
-2.84367e-05 9.8925e-05 -8.15237e-08
-6.38286e-07 -8.15237e-08 -1.91939e-06
0.000553745 3.13432e-05 -1.95089e-08
3.13432e-05 -1.75971e-06 2.9342e-06
-1.95089e-08 2.9342e-06 -7.033e-05
0.000769229 -5.49097e-05 3.49144e-07
-5.49097e-05 0.000156216 -1.05775e-06
3.49144e-07 -1.05775e-06 5.53908e-05
0.000597069 2.41648e-05 -1.00478e-06
2.41648e-05 2.18983e-05 -1.80067e-07
-1.00478e-06 -1.80067e-07 -4.09785e-05
0.000530024 4.03612e-05 -9.38003e-07
4.03612e-05 -3.53641e-05 4.52872e-06
-9.38003e-07 4.52872e-06 -5.74207e-05
0.000669332 -2.23194e-05 2.14163e-06
-2.23194e-05 5.81357e-05 -2.35292e-06
2.14163e-06 -2.35292e-06 7.96425e-07
0.000538545 3.01678e-05 1.80273e-07
3.01678e-05 -3.70363e-05 -1.8207e-09
1.80273e-07 -1.8207e-09 -5.653e-05
0.00231404 7.87341e-05 -3.79913e-06
7.87341e-05 0.00104171 2.01676e-06
-3.79913e-06 2.01676e-06 0.00105059
0.000516281 2.17048e-05 9.29882e-07
2.17048e-05 -5.23959e-05 -4.46381e-06
9.29882e-07 -4.46381e-06 -7.08992e-05
0.0016002 4.73522e-05 9.92576e-06
4.73522e-05 0.000605628 -1.14386e-06
9.92576e-06 -1.14386e-06 0.000613519
0.00240076 4.6367e-05 1.30664e-05
4.6367e-05 0.00108606 -5.01776e-06
1.30664e-05 -5.01776e-06 0.00109907
0.000366017 6.79678e-06 8.54593e-07
6.79678e-06 -9.97574e-05 -1.63528e-06
8.54593e-07 -1.63528e-06 -0.000202345
0.00031558 2.57865e-06 3.67518e-07
2.57865e-06 -0.000150422 -2.77592e-06
3.67518e-07 -2.77592e-06 -0.000211309
0.000550594 1.82132e-05 -4.50492e-07
1.82132e-05 2.46468e-05 -1.12653e-06
-4.50492e-07 -1.12653e-06 -7.98462e-05
0.000563161 -1.13053e-05 7.53075e-07
-1.13053e-05 -2.73681e-05 -3.88533e-06
7.53075e-07 -3.88533e-06 -3.97593e-05
0.000279679 5.49961e-06 -4.90684e-07
5.49961e-06 -0.000169957 -1.32791e-06
-4.90684e-07 -1.32791e-06 -0.000224394
0.000719289 3.44199e-05 -3.22833e-07
3.44199e-05 0.00013116 1.43858e-06
-3.22833e-07 1.43858e-06 3.29056e-05
0.00213102 -2.3956e-05 -1.17736e-05
-2.3956e-05 0.000918734 -4.69804e-06
-1.17736e-05 -4.69804e-06 0.000936438
0.000553426 -6.55268e-06 -2.61941e-07
-6.55268e-06 -3.44107e-05 -5.17152e-08
-2.61941e-07 -5.17152e-08 -4.38958e-05
0.000243031 5.40845e-06 7.49232e-07
5.40845e-06 -0.000191063 1.72367e-06
7.49232e-07 1.72367e-06 -0.000239129
0.00205767 -9.23204e-06 -3.71937e-06
-9.23204e-06 0.000873789 4.45098e-08
-3.71937e-06 4.45098e-08 0.000892598
0.000547763 -2.02741e-06 -5.9829e-07
-2.02741e-06 -3.81888e-05 3.42463e-06
-5.9829e-07 3.42463e-06 -4.58712e-05
0.00205016 5.51216e-06 2.69052e-06
5.51216e-06 0.000869905 4.6582e-06
2.69052e-06 4.6582e-06 0.000888755
0.00066275 -5.17563e-06 2.29797e-05
-5.17563e-06 0.000563076 5.96681e-06
2.29797e-05 5.96681e-06 0.000485593
0.000578682 -0.000166227 -5.41794e-06
-0.000166227 8.74848e-05 -1.38928e-05
-5.41794e-06 -1.38928e-05 -0.00182872
0.00130052 0.00010928 3.02211e-05
0.00010928 0.00405926 -2.68121e-05
3.02211e-05 -2.68121e-05 0.00245361
0.000740272 9.58553e-05 -1.18773e-07
9.58553e-05 0.000132965 3.66494e-07
-1.18773e-07 3.66494e-07 4.71097e-06
0.000535256 6.71268e-05 2.1153e-06
6.71268e-05 -5.32802e-06 -1.78366e-07
2.1153e-06 -1.78366e-07 -0.000125347
0.000964777 0.000137083 3.28605e-06
0.000137083 0.000267327 3.10109e-06
3.28605e-06 3.10109e-06 0.00012983
0.00304072 -5.82218e-05 1.45357e-06
-5.82218e-05 -2.24733e-05 0.000180019
1.45357e-06 0.000180019 -0.000877445
0.00349012 -0.000288217 2.19034e-05
-0.000288217 0.00240185 -6.10677e-06
2.19034e-05 -6.10677e-06 0.001133
0.00414842 -0.000646255 7.08571e-05
-0.000646255 0.00167444 -0.000135487
7.08571e-05 -0.000135487 -0.00178251
0.00647835 -0.00120598 -8.66008e-05
-0.00120598 0.000806896 -6.79911e-06
-8.66008e-05 -6.79911e-06 0.000622772
0.0021113 -0.00117587 -0.000154703
-0.00117587 -0.000305577 9.10048e-05
-0.000154703 9.10048e-05 -0.00299337
0.0133157 0.00192757 0.000119316
0.00192757 0.0047871 5.3349e-05
0.000119316 5.3349e-05 0.0036455
0.00351422 0.000256092 0.000100453
0.000256092 -0.00316679 -0.00011799
0.000100453 -0.00011799 -0.00257219
0.00536767 -0.00162641 -2.17364e-05
-0.00162641 0.00112558 6.46269e-06
-2.17364e-05 6.46269e-06 0.000599109
0.00659854 -0.00152649 -3.85301e-05
-0.00152649 0.00298723 2.34245e-05
-3.85301e-05 2.34245e-05 -0.000593729
-0.00321515 0.00155866 -4.35445e-05
0.00155866 0.000532057 -0.000158376
-4.35445e-05 -0.000158376 -0.00188062
0.00644805 0.000153202 -2.23769e-05
0.000153202 -0.00279611 6.61841e-05
-2.23769e-05 6.61841e-05 -0.000244097
0.00121935 -0.00090494 -4.53001e-05
-0.00090494 0.000118077 -1.19025e-05
-4.53001e-05 -1.19025e-05 -0.000359474
0.0115081 -0.00173787 -9.46613e-05
-0.00173787 0.00511557 7.28733e-05
-9.46613e-05 7.28733e-05 0.00114668
-0.0082534 -0.000107472 3.74105e-05
-0.000107472 7.9951e-05 -0.000224047
3.74105e-05 -0.000224047 -0.00245757
0.00525044 -0.00104867 5.03018e-05
-0.00104867 -0.00196911 -5.52972e-06
5.03018e-05 -5.52972e-06 -0.000911517
0.000627295 6.44561e-05 1.69474e-06
6.44561e-05 7.06558e-05 9.09298e-06
1.69474e-06 9.09298e-06 -7.12508e-05
0.00070634 -7.96251e-06 1.34967e-06
-7.96251e-06 0.000155356 -1.11437e-06
1.34967e-06 -1.11437e-06 -1.46484e-05
0.000845275 -9.26637e-05 2.57682e-07
-9.26637e-05 0.000242742 -3.6176e-06
2.57682e-07 -3.6176e-06 7.56539e-05
0.000713764 7.71194e-05 -9.86871e-07
7.71194e-05 0.000113862 -3.49073e-07
-9.86871e-07 -3.49073e-07 -2.29814e-05
0.000770255 0.000118788 5.04674e-07
0.000118788 0.000189487 -1.52208e-06
5.04674e-07 -1.52208e-06 4.1221e-05
0.00109762 0.00014108 -2.60089e-06
0.00014108 0.000379603 -1.40543e-06
-2.60089e-06 -1.40543e-06 0.000233951
-0.000272412 -0.000572897 1.9952e-05
-0.000572897 -0.00100588 9.80675e-06
1.9952e-05 9.80675e-06 -0.000997001
-0.00121726 -0.000154781 1.7071e-05
-0.000154781 -0.000944871 -1.41601e-05
1.7071e-05 -1.41601e-05 -0.000976958
0.00035868 3.54516e-05 -2.25837e-06
3.54516e-05 -4.86813e-05 -3.58386e-06
-2.25837e-06 -3.58386e-06 -0.000218298
0.001604 -0.000298292 4.04134e-05
-0.000298292 0.0007685 -2.91893e-05
4.04134e-05 -2.91893e-05 0.000486006
0.00150381 4.16641e-06 -4.72708e-06
4.16641e-06 0.000722192 -4.83228e-06
-4.72708e-06 -4.83228e-06 0.000480126
0.000565736 5.97365e-05 1.9241e-07
5.97365e-05 4.91279e-05 2.36629e-06
1.9241e-07 2.36629e-06 -9.43422e-05
0.000668324 0.000125698 4.75961e-07
0.000125698 0.000180619 -1.67682e-06
4.75961e-07 -1.67682e-06 1.50848e-05
0.000340654 -0.000574752 -1.06788e-06
-0.000574752 -0.000430045 -5.22619e-06
-1.06788e-06 -5.22619e-06 -0.00047347
0.000721996 -1.23564e-05 -1.34381e-06
-1.23564e-05 0.000474517 4.66651e-07
-1.34381e-06 4.66651e-07 0.000137043
2.41614e-06 -0.000124521 1.47937e-06
-0.000124521 9.43677e-05 -2.6921e-06
1.47937e-06 -2.6921e-06 -8.96393e-05
0.00091631 0.000104297 3.7033e-06
0.000104297 0.000276448 -9.65213e-06
3.7033e-06 -9.65213e-06 0.000149277
-0.00222689 -2.88732e-05 -5.0997e-05
-2.88732e-05 -0.000789615 -1.90513e-05
-5.0997e-05 -1.90513e-05 -0.00129051
-0.000355264 2.39653e-05 2.35011e-05
2.39653e-05 -9.79991e-05 2.05462e-05
2.35011e-05 2.05462e-05 -0.000274721
0.00121832 3.15743e-05 8.43799e-06
3.15743e-05 0.000703384 3.42162e-06
8.43799e-06 3.42162e-06 0.000439896
0.000708463 -4.57488e-06 -1.52045e-06
-4.57488e-06 -0.000273021 1.02032e-06
-1.52045e-06 1.02032e-06 -0.000736392
-0.00010237 4.77585e-06 -1.10416e-05
4.77585e-06 0.000506851 -1.37051e-05
-1.10416e-05 -1.37051e-05 -1.05746e-05
0.000465429 -4.21355e-05 0.000201525
-4.21355e-05 0.000768748 -7.54581e-06
0.000201525 -7.54581e-06 -0.00145609
0.000209257 0.000200351 5.53542e-06
0.000200351 0.000193938 1.72775e-05
5.53542e-06 1.72775e-05 -2.58294e-05
0.000912862 0.000467336 6.3724e-06
0.000467336 0.000204773 -1.15812e-05
6.3724e-06 -1.15812e-05 -0.000145677
-0.000119164 -4.62814e-05 1.19714e-05
-4.62814e-05 -7.95787e-05 1.40965e-06
1.19714e-05 1.40965e-06 -8.30056e-05
-0.00314333 0.000589008 4.36253e-05
0.000589008 0.000612039 8.55837e-05
4.36253e-05 8.55837e-05 -0.00351626
-0.00942656 0.000681778 -0.000104127
0.000681778 -0.00358192 -0.000282249
-0.000104127 -0.000282249 -0.00606425
0.00287011 7.22371e-05 4.19243e-05
7.22371e-05 0.000403039 7.36609e-05
4.19243e-05 7.36609e-05 0.000109538
0.00361291 0.000331316 -0.000103912
0.000331316 -0.00304992 0.000119034
-0.000103912 0.000119034 -0.00250753
0.000571066 0.000204132 6.04551e-06
0.000204132 0.000437434 -9.56291e-07
6.04551e-06 -9.56291e-07 0.000188852
0.00136693 1.30067e-05 1.67598e-05
1.30067e-05 -0.000416159 -2.7972e-05
1.67598e-05 -2.7972e-05 -0.000136999
0.00352841 -0.000215953 -2.12402e-05
-0.000215953 0.00239479 5.75148e-06
-2.12402e-05 5.75148e-06 0.0011381
0.000985245 0.000273477 -5.94216e-05
0.000273477 0.000666018 -4.93488e-06
-5.94216e-05 -4.93488e-06 -7.73379e-05
0.00540481 0.00201444 7.22959e-05
0.00201444 -0.000729933 -0.000205857
7.22959e-05 -0.000205857 -0.000882512
-0.00259834 0.00136656 4.22208e-05
0.00136656 4.40026e-05 0.000155082
4.22208e-05 0.000155082 -0.0019599
0.00721475 0.000147065 5.69436e-05
0.000147065 0.0059488 -2.61802e-05
5.69436e-05 -2.61802e-05 0.000298843
0.00147637 -5.85138e-05 5.45749e-05
-5.85138e-05 0.00137256 -2.07951e-05
5.45749e-05 -2.07951e-05 0.000823048
0.000728269 1.91259e-05 -2.38362e-05
1.91259e-05 0.0005646 -3.36358e-06
-2.38362e-05 -3.36358e-06 0.000484886
0.00329054 -0.000462562 0.000342387
-0.000462562 0.00106752 -0.000186244
0.000342387 -0.000186244 -0.00206273
0.00681979 0.00264835 2.22188e-06
0.00264835 0.00519776 -5.574e-06
2.22188e-06 -5.574e-06 0.00524532
-0.00281492 0.00152722 2.40792e-05
0.00152722 -0.00349459 0.000396762
2.40792e-05 0.000396762 -0.00408854
0.0131175 -0.00170322 0.000138587
-0.00170322 0.00549606 -0.000124754
0.000138587 -0.000124754 0.00142347
0.00307144 -0.000495657 -6.32153e-05
-0.000495657 0.00146673 6.67281e-05
-6.32153e-05 6.67281e-05 0.00103896
0.00104733 0.000176521 8.57331e-06
0.000176521 0.000748687 4.9173e-06
8.57331e-06 4.9173e-06 0.000496757
0.000240506 -1.93428e-06 -2.68133e-05
-1.93428e-06 0.00030189 1.01236e-06
-2.68133e-05 1.01236e-06 0.000122968
0.0014289 -0.00031223 2.29233e-05
-0.00031223 0.000928345 -8.4462e-06
2.29233e-05 -8.4462e-06 0.000600365
0.000790685 -7.89671e-05 1.27282e-06
-7.89671e-05 0.000281693 2.97992e-06
1.27282e-06 2.97992e-06 0.000172677
-3.36382e-05 -3.90057e-05 -3.24853e-07
-3.90057e-05 3.02978e-05 2.92359e-06
-3.24853e-07 2.92359e-06 -0.000146946
0.000506125 -0.000216796 -1.02258e-06
-0.000216796 0.000320643 -8.19323e-07
-1.02258e-06 -8.19323e-07 0.000123805
0.00158717 -0.000375317 2.61193e-05
-0.000375317 0.000741083 -1.90369e-05
2.61193e-05 -1.90369e-05 0.000510761
0.00215378 -0.000233796 -5.51867e-06
-0.000233796 0.000959953 4.09326e-06
-5.51867e-06 4.09326e-06 0.0008284
0.00186414 -0.000395898 5.67182e-06
-0.000395898 0.000781257 -8.82533e-07
5.67182e-06 -8.82533e-07 0.000526473
0.00144895 -0.000382953 1.28877e-05
-0.000382953 0.000558818 1.84391e-06
1.28877e-05 1.84391e-06 0.000136801
0.0003659 -0.000176959 -2.57e-06
-0.000176959 -0.000148203 -1.53768e-06
-2.57e-06 -1.53768e-06 -0.00030139
0.00145654 -0.000354687 -2.2575e-06
-0.000354687 0.000364962 1.19938e-06
-2.2575e-06 1.19938e-06 7.66627e-05
0.00180753 -0.000462466 -1.04027e-06
-0.000462466 0.000506018 1.9014e-06
-1.04027e-06 1.9014e-06 0.000128213
0.0016911 -0.000477784 -4.00183e-06
-0.000477784 0.000326831 3.03343e-06
-4.00183e-06 3.03343e-06 3.72391e-06
0.00122734 -0.000335988 -7.21267e-07
-0.000335988 0.000182466 3.78632e-06
-7.21267e-07 3.78632e-06 -7.78246e-05
0.00135287 -0.000366251 -2.69512e-06
-0.000366251 0.000225388 1.50726e-06
-2.69512e-06 1.50726e-06 -6.18817e-05
0.00114234 -0.000295021 -6.69348e-06
-0.000295021 0.000188229 2.00468e-06
-6.69348e-06 2.00468e-06 -7.42561e-05
0.00199394 -0.000355119 5.24905e-06
-0.000355119 0.000741763 -1.18087e-06
5.24905e-06 -1.18087e-06 0.00050411
0.00160652 -0.000326988 3.19962e-06
-0.000326988 0.000475919 -2.95993e-06
3.19962e-06 -2.95993e-06 0.000245131
-2.13147e-05 -7.18707e-05 1.22169e-06
-7.18707e-05 -0.000333943 1.02651e-06
1.22169e-06 1.02651e-06 -0.000516394
0.000816474 -0.000209047 2.15093e-06
-0.000209047 0.000151904 -1.40157e-06
2.15093e-06 -1.40157e-06 -6.50013e-05
0.00115636 -0.000261637 6.24341e-06
-0.000261637 0.000262535 -5.45898e-06
6.24341e-06 -5.45898e-06 3.30382e-05
0.000180422 -1.10724e-06 8.52928e-07
-1.10724e-06 -0.000193901 1.83755e-06
8.52928e-07 1.83755e-06 -0.000327993
0.000923771 -0.000120924 -5.64584e-07
-0.000120924 0.000272323 1.70479e-07
-5.64584e-07 1.70479e-07 0.000104243
0.00102718 -0.000225903 -1.02988e-06
-0.000225903 0.00033808 -1.53695e-06
-1.02988e-06 -1.53695e-06 0.000138571
0.000633696 1.18953e-05 -9.8837e-07
1.18953e-05 4.67591e-05 3.29639e-06
-9.8837e-07 3.29639e-06 -2.87562e-05
0.000752811 -3.92829e-05 -3.74049e-07
-3.92829e-05 0.000135051 -3.4948e-07
-3.74049e-07 -3.4948e-07 2.46119e-05
0.000453476 -5.06397e-05 4.17897e-07
-5.06397e-05 -6.93993e-06 4.76744e-07
4.17897e-07 4.76744e-07 -0.000141824
0.000751608 -4.77462e-05 3.85681e-07
-4.77462e-05 0.000142016 -1.32051e-06
3.85681e-07 -1.32051e-06 3.69183e-05
0.000628035 -4.14874e-06 -2.34676e-07
-4.14874e-06 3.74814e-05 -2.16617e-07
-2.34676e-07 -2.16617e-07 -2.88096e-05
0.000521699 4.93903e-05 -3.80106e-08
4.93903e-05 -3.14409e-05 5.24095e-06
-3.80106e-08 5.24095e-06 -5.75457e-05
0.000639356 -1.29303e-05 1.66058e-06
-1.29303e-05 4.20194e-05 -2.34461e-06
1.66058e-06 -2.34461e-06 -1.83397e-05
0.00054249 4.2957e-05 -3.62612e-07
4.2957e-05 -2.74463e-05 -6.30557e-08
-3.62612e-07 -6.30557e-08 -4.99684e-05
0.00238228 8.6748e-05 -2.58447e-05
8.6748e-05 0.00109027 3.97211e-06
-2.58447e-05 3.97211e-06 0.00109773
0.000536106 3.11625e-05 9.8366e-07
3.11625e-05 -3.83255e-05 -4.42425e-06
9.8366e-07 -4.42425e-06 -5.79488e-05
0.00158084 5.95857e-05 1.19287e-05
5.95857e-05 0.000599385 -9.66239e-07
1.19287e-05 -9.66239e-07 0.00060546
0.00241547 6.16621e-05 1.7133e-05
6.16621e-05 0.00109906 -4.68088e-06
1.7133e-05 -4.68088e-06 0.00111039
0.000697822 7.00033e-05 8.75276e-07
7.00033e-05 0.000105935 -8.77192e-07
8.75276e-07 -8.77192e-07 -4.56554e-06
0.000602732 2.92459e-05 4.03055e-09
2.92459e-05 1.96635e-05 -2.41171e-06
4.03055e-09 -2.41171e-06 -4.43143e-05
0.000541387 4.1739e-05 -1.18876e-06
4.1739e-05 1.76766e-05 -1.18839e-06
-1.18876e-06 -1.18839e-06 -9.32849e-05
0.000547487 -1.52354e-05 6.39206e-07
-1.52354e-05 -3.55051e-05 -4.40214e-06
6.39206e-07 -4.40214e-06 -5.13513e-05
0.000422379 2.10559e-05 -1.60126e-06
2.10559e-05 -8.59053e-05 -1.33147e-06
-1.60126e-06 -1.33147e-06 -0.000145669
0.000752361 4.761e-05 -5.26285e-07
4.761e-05 0.000145716 -1.03334e-06
-5.26285e-07 -1.03334e-06 4.21081e-05
0.00223009 -3.82376e-05 -1.65113e-05
-3.82376e-05 0.000979948 -4.66988e-06
-1.65113e-05 -4.66988e-06 0.000996001
0.000547781 -1.16005e-05 -1.7695e-07
-1.16005e-05 -3.69495e-05 -8.236e-08
-1.7695e-07 -8.236e-08 -4.90654e-05
0.000223905 4.32175e-06 -1.01181e-06
4.32175e-06 -0.000203702 6.88592e-07
-1.01181e-06 6.88592e-07 -0.000258962
0.00214203 -2.28502e-05 -4.27384e-06
-2.28502e-05 0.000925162 9.97703e-08
-4.27384e-06 9.97703e-08 0.000942968
0.000548204 -7.43867e-06 -7.96101e-07
-7.43867e-06 -3.76215e-05 3.46088e-06
-7.96101e-07 3.46088e-06 -4.69675e-05
0.00207661 -7.75102e-06 7.44123e-06
-7.75102e-06 0.000885049 4.71843e-06
7.44123e-06 4.71843e-06 0.000903846
0.00144999 -5.25935e-05 -1.66504e-05
-5.25935e-05 -0.000310684 1.97137e-05
-1.66504e-05 1.97137e-05 -8.08615e-05
0.000654505 -5.12889e-05 1.45928e-05
-5.12889e-05 0.000515704 -1.65913e-06
1.45928e-05 -1.65913e-06 0.000452676
0.000924313 -0.000155394 0.000117433
-0.000155394 0.000280046 -4.0639e-05
0.000117433 -4.0639e-05 -0.00162416
0.000503663 2.88178e-05 1.18587e-06
2.88178e-05 -3.69276e-05 -2.09682e-07
1.18587e-06 -2.09682e-07 -0.000150486
0.00101224 6.60509e-05 -4.80485e-07
6.60509e-05 0.000258862 1.1254e-06
-4.80485e-07 1.1254e-06 0.000130898
0.000787029 0.000106044 -6.52059e-07
0.000106044 0.000160227 -3.22549e-07
-6.52059e-07 -3.22549e-07 3.5889e-05
0.000557739 5.15898e-05 2.55962e-07
5.15898e-05 1.47042e-07 3.51446e-07
2.55962e-07 3.51446e-07 -0.00011381
0.000668718 6.80519e-05 1.44477e-07
6.80519e-05 8.59807e-05 3.06136e-07
1.44477e-07 3.06136e-07 -4.32487e-05
0.000634216 6.23385e-05 1.79156e-06
6.23385e-05 5.6237e-05 -1.26073e-06
1.79156e-06 -1.26073e-06 -6.59715e-05
0.00066049 0.000154659 4.77857e-06
0.000154659 0.000107929 3.837e-06
4.77857e-06 3.837e-06 -4.07143e-05
0.000123168 0.000112787 6.64809e-05
0.000112787 -0.000147125 0.00017725
6.64809e-05 0.00017725 -0.0015036
0.00284041 -3.91187e-05 -1.32982e-05
-3.91187e-05 0.000272235 5.28609e-05
-1.32982e-05 5.28609e-05 -0.00039989
0.00339761 -0.000213564 4.36507e-05
-0.000213564 0.00233743 -7.14344e-05
4.36507e-05 -7.14344e-05 0.00129409
0.00463935 -0.00012523 -7.68804e-06
-0.00012523 -0.00458839 7.38498e-05
-7.68804e-06 7.38498e-05 -0.00145509
0.00300715 -0.00132878 -9.24583e-05
-0.00132878 0.000909363 6.89502e-05
-9.24583e-05 6.89502e-05 0.000175491
-0.00191251 -0.00164147 -4.14236e-05
-0.00164147 -7.13285e-05 9.06487e-05
-4.14236e-05 9.06487e-05 -0.00425333
0.00977801 0.00215223 8.15542e-05
0.00215223 0.005062 -7.1011e-05
8.15542e-05 -7.1011e-05 0.00279321
0.00313724 -0.00119067 -2.94918e-05
-0.00119067 0.000756689 6.37867e-06
-2.94918e-05 6.37867e-06 0.00038394
-0.000771036 -0.000529762 2.36177e-05
-0.000529762 0.00180912 3.20776e-05
2.36177e-05 3.20776e-05 -0.00304258
0.00488301 0.00021309 3.80602e-05
0.00021309 0.00257733 -1.19751e-05
3.80602e-05 -1.19751e-05 0.000916383
0.010288 -0.00144499 -3.41608e-05
-0.00144499 0.00135223 -3.7374e-05
-3.41608e-05 -3.7374e-05 0.00260667
-0.00070164 -0.000123904 -0.000119205
-0.000123904 -0.000850436 8.14642e-05
-0.000119205 8.14642e-05 -0.000624082
0.000975771 0.00152651 -7.26662e-05
0.00152651 0.00232002 -8.2472e-05
-7.26662e-05 -8.2472e-05 -0.00259866
-0.00613718 -0.0023936 5.08241e-05
-0.0023936 -0.00323689 -0.000155571
5.08241e-05 -0.000155571 -0.00571776
0.00667121 -0.00148736 6.1537e-05
-0.00148736 5.84716e-05 -0.000303592
6.1537e-05 -0.000303592 0.000676173
0.000935239 2.74286e-05 6.34133e-06
2.74286e-05 0.000274505 4.63976e-07
6.34133e-06 4.63976e-07 0.000146451
0.000635146 8.26317e-05 -2.65918e-07
8.26317e-05 8.26655e-05 -1.21967e-06
-2.65918e-07 -1.21967e-06 -5.96604e-05
0.0008061 -1.22845e-05 1.00758e-07
-1.22845e-05 0.000228271 -3.03487e-06
1.00758e-07 -3.03487e-06 4.423e-05
0.000828825 6.79049e-05 -1.89412e-06
6.79049e-05 0.000196086 -5.22604e-06
-1.89412e-06 -5.22604e-06 4.71585e-05
0.000520884 -0.000478689 -5.6397e-06
-0.000478689 -0.000321748 3.57938e-05
-5.6397e-06 3.57938e-05 -0.000427585
0.000982969 -0.000109846 -1.95048e-05
-0.000109846 0.000717519 -1.97458e-05
-1.95048e-05 -1.97458e-05 0.000495154
0.000731874 4.91262e-05 -3.6089e-06
4.91262e-05 0.000126979 -5.35617e-06
-3.6089e-06 -5.35617e-06 3.48548e-06
0.00071047 0.000172738 -1.46999e-06
0.000172738 0.000217371 3.43346e-06
-1.46999e-06 3.43346e-06 4.68367e-05
0.00251315 -1.07169e-05 6.60032e-06
-1.07169e-05 0.00142075 -1.89985e-05
6.60032e-06 -1.89985e-05 0.00117742
0.000964442 7.81333e-05 3.50902e-06
7.81333e-05 0.000290533 3.67773e-06
3.50902e-06 3.67773e-06 0.00017402
0.000607377 0.00012357 -2.57526e-06
0.00012357 0.000381376 -1.08184e-06
-2.57526e-06 -1.08184e-06 9.01109e-05
0.000655376 -0.000108192 1.19515e-05
-0.000108192 0.000646891 -6.7118e-06
1.19515e-05 -6.7118e-06 2.52445e-05
0.000138719 1.49093e-05 2.31925e-05
1.49093e-05 0.000236692 -1.46322e-06
2.31925e-05 -1.46322e-06 5.22236e-05
0.000801453 0.000142813 5.12012e-07
0.000142813 0.000429876 -6.05908e-06
5.12012e-07 -6.05908e-06 0.000233029
-0.000374036 -4.0567e-05 -3.12556e-05
-4.0567e-05 0.000609962 -4.41531e-05
-3.12556e-05 -4.41531e-05 -0.000690243
0.00351031 0.000174689 2.34035e-05
0.000174689 0.00199858 2.24407e-05
2.34035e-05 2.24407e-05 0.00173183
0.00011573 1.86542e-05 -9.80309e-06
1.86542e-05 0.000789437 1.45089e-05
-9.80309e-06 1.45089e-05 0.000124416
0.00121386 -2.35519e-05 1.4376e-07
-2.35519e-05 -3.50702e-05 5.3959e-07
1.4376e-07 5.3959e-07 -0.000173032
-0.000275848 1.23592e-06 3.6421e-06
1.23592e-06 0.000249459 -2.12874e-05
3.6421e-06 -2.12874e-05 -0.000124027
1.62542e-05 0.000120785 -2.45676e-06
0.000120785 0.000192403 5.96238e-06
-2.45676e-06 5.96238e-06 -1.07911e-05
-0.00122181 0.00036707 6.74933e-05
0.00036707 -0.000820007 5.70123e-05
6.74933e-05 5.70123e-05 -0.0011475
0.0011963 -1.93238e-05 2.26638e-05
-1.93238e-05 -0.000483433 -6.55138e-06
2.26638e-05 -6.55138e-06 -0.000150833
0.00275004 -0.00132104 0.000132987
-0.00132104 0.00362871 -0.000129672
0.000132987 -0.000129672 -0.00228509
0.0103438 0.00211922 -8.79008e-05
0.00211922 0.00478598 6.69903e-05
-8.79008e-05 6.69903e-05 0.0028097
0.00342122 -0.000148236 -5.11006e-05
-0.000148236 0.00227666 7.73112e-05
-5.11006e-05 7.73112e-05 0.00124723
0.0063544 0.00208085 -2.48564e-05
0.00208085 0.000654479 -6.23903e-05
-2.48564e-05 -6.23903e-05 -9.56665e-06
7.69524e-05 0.000122011 -4.28604e-05
0.000122011 0.000582193 1.1278e-05
-4.28604e-05 1.1278e-05 -1.80289e-05
0.000765817 -7.73408e-06 -1.69782e-05
-7.73408e-06 0.000504956 2.02067e-06
-1.69782e-05 2.02067e-06 0.000479612
0.00364424 -0.000535311 0.000131951
-0.000535311 0.00128685 -1.11584e-05
0.000131951 -1.11584e-05 -0.00195061
-0.000343727 -0.000199046 1.4841e-05
-0.000199046 -0.000385854 2.59105e-05
1.4841e-05 2.59105e-05 -0.000531508
6.54668e-05 0.00287256 0.00018989
0.00287256 0.00146879 -9.41158e-05
0.00018989 -9.41158e-05 0.00202888
0.00756701 0.00132832 -8.13607e-05
0.00132832 0.000769121 0.000153464
-8.13607e-05 0.000153464 7.8939e-05
-0.00309052 -0.00080513 7.67217e-05
-0.00080513 0.000936684 -8.29911e-05
7.67217e-05 -8.29911e-05 -0.00452327
0.000486404 -0.000215812 4.19682e-05
-0.000215812 0.000521205 -1.02673e-05
4.19682e-05 -1.02673e-05 3.43129e-05
0.000448155 -0.000227625 0.000109954
-0.000227625 -0.000247354 -3.32484e-05
0.000109954 -3.32484e-05 -0.00197878
-0.00218678 3.96251e-05 -0.000348279
3.96251e-05 0.00275884 4.28929e-05
-0.000348279 4.28929e-05 0.000750721
0.00524964 0.00271041 -0.000272759
0.00271041 0.000774385 0.000337764
-0.000272759 0.000337764 0.000743602
0.00801382 -0.00117791 -2.93997e-05
-0.00117791 0.00360907 8.97975e-06
-2.93997e-05 8.97975e-06 0.000144258
0.00295443 -0.000663771 -5.77197e-05
-0.000663771 0.00124892 4.10919e-05
-5.77197e-05 4.10919e-05 0.000849044
-0.000658079 2.79897e-05 2.29887e-05
2.79897e-05 -0.000226263 8.52399e-06
2.29887e-05 8.52399e-06 -0.000420043
0.000352585 -0.000229615 -8.20402e-07
-0.000229615 0.000359751 5.521e-07
-8.20402e-07 5.521e-07 3.96996e-05
0.000985078 -0.000377546 1.60755e-05
-0.000377546 0.000411818 -3.27374e-06
1.60755e-05 -3.27374e-06 0.000263158
-0.000472668 -0.000189904 -6.57416e-06
-0.000189904 -0.000183777 7.1469e-06
-6.57416e-06 7.1469e-06 -0.000376366
-0.000694947 -0.000203867 -3.74215e-07
-0.000203867 -0.00046038 -3.4182e-06
-3.74215e-07 -3.4182e-06 -0.000690892
0.0031569 -0.000602471 3.39648e-05
-0.000602471 0.00127808 -3.09884e-06
3.39648e-05 -3.09884e-06 0.00100641
0.00464786 -0.000679314 -1.00449e-05
-0.000679314 0.00226558 3.75697e-06
-1.00449e-05 3.75697e-06 0.00198342
0.00238266 -0.000477919 7.44928e-06
-0.000477919 0.000998688 1.66075e-07
7.44928e-06 1.66075e-07 0.000599379
0.00124268 -0.000441864 8.65331e-06
-0.000441864 0.000223373 -6.9479e-06
8.65331e-06 -6.9479e-06 -0.000204777
0.00167549 -0.000374687 -8.46869e-06
-0.000374687 0.000460573 1.95724e-06
-8.46869e-06 1.95724e-06 0.00016708
0.00214708 -0.000505538 1.05915e-06
-0.000505538 0.00066293 4.86748e-07
1.05915e-06 4.86748e-07 0.000276123
0.00202799 -0.000522393 1.59492e-06
-0.000522393 0.000554279 -5.90695e-06
1.59492e-06 -5.90695e-06 0.000165653
0.00198749 -0.000487054 -1.74966e-06
-0.000487054 0.000407783 -3.1121e-06
-1.74966e-06 -3.1121e-06 0.000123047
0.00180446 -0.000482691 -1.25393e-06
-0.000482691 0.000372212 2.3528e-06
-1.25393e-06 2.3528e-06 7.00888e-05
0.00175338 -0.000488199 -1.04145e-06
-0.000488199 0.000362002 -1.20407e-07
-1.04145e-06 -1.20407e-07 3.241e-05
0.000974195 -0.000291213 6.43747e-06
-0.000291213 4.38112e-05 1.39686e-06
6.43747e-06 1.39686e-06 -0.000188973
0.00121982 -0.000327587 1.87038e-06
-0.000327587 0.00017634 5.9898e-08
1.87038e-06 5.9898e-08 -7.48323e-05
0.00133729 -0.000366283 1.11919e-06
-0.000366283 0.00021874 -1.6589e-06
1.11919e-06 -1.6589e-06 -7.287e-05
0.00131418 -0.000271546 3.27945e-06
-0.000271546 0.000380301 1.88235e-06
3.27945e-06 1.88235e-06 0.000150034
0.00133202 -0.000289752 -2.35817e-06
-0.000289752 0.000342963 -1.69649e-06
-2.35817e-06 -1.69649e-06 0.000116661
0.000696553 -0.000237749 6.48547e-06
-0.000237749 -5.91113e-05 -5.47101e-06
6.48547e-06 -5.47101e-06 -0.000269604
0.000352172 -9.88696e-05 1.91229e-06
-9.88696e-05 -8.28902e-05 7.36273e-07
1.91229e-06 7.36273e-07 -0.000264964
0.000483138 -0.000121549 -7.76725e-07
-0.000121549 -1.62958e-05 1.16966e-06
-7.76725e-07 1.16966e-06 -0.000208872
0.00144168 -0.000276092 3.54584e-06
-0.000276092 0.000531697 -5.37429e-06
3.54584e-06 -5.37429e-06 0.000304341
0.00046477 1.33191e-05 1.46758e-07
1.33191e-05 -4.87363e-05 3.95095e-06
1.46758e-07 3.95095e-06 -0.000137652
0.00069417 -4.26055e-05 -2.75615e-07
-4.26055e-05 0.000119638 -8.94508e-08
-2.75615e-07 -8.94508e-08 -2.50905e-05
0.00126448 -0.000165787 8.35243e-07
-0.000165787 0.000481359 -3.3779e-07
8.35243e-07 -3.3779e-07 0.000303607
0.000496265 4.99003e-05 -1.44327e-06
4.99003e-05 -3.86992e-05 7.54619e-06
-1.44327e-06 7.54619e-06 -6.8376e-05
0.000639784 7.06738e-06 -3.31349e-07
7.06738e-06 4.75927e-05 -2.59835e-07
-3.31349e-07 -2.59835e-07 -2.76149e-05
0.000969743 -6.46159e-05 -2.97451e-07
-6.46159e-05 0.000269533 -1.45454e-06
-2.97451e-07 -1.45454e-06 0.000151906
0.000664538 -5.12287e-06 1.29472e-06
-5.12287e-06 5.82611e-05 -2.86052e-06
1.29472e-06 -2.86052e-06 -8.13664e-06
0.000532978 5.03355e-05 4.31278e-07
5.03355e-05 -2.38987e-05 2.31298e-08
4.31278e-07 2.31298e-08 -5.04467e-05
0.0024495 0.000103752 -2.74823e-05
0.000103752 0.00113913 3.64359e-06
-2.74823e-05 3.64359e-06 0.00114278
0.000552653 4.68426e-05 -5.04114e-07
4.68426e-05 -2.07468e-05 -4.90165e-06
-5.04114e-07 -4.90165e-06 -4.39922e-05
0.00241162 8.99092e-05 2.87943e-06
8.99092e-05 0.00110878 2.79954e-07
2.87943e-06 2.79954e-07 0.00111561
0.00238993 7.60656e-05 2.0686e-05
7.60656e-05 0.00108924 -4.21605e-06
2.0686e-05 -4.21605e-06 0.00109868
0.000698039 6.53881e-05 1.04001e-08
6.53881e-05 0.000115077 -1.12326e-06
1.04001e-08 -1.12326e-06 -2.25254e-05
0.000768876 9.07928e-05 1.08238e-06
9.07928e-05 0.000158905 -1.30682e-06
1.08238e-06 -1.30682e-06 3.21349e-05
0.00062851 2.1183e-05 1.70149e-07
2.1183e-05 3.51822e-05 -2.78016e-06
1.70149e-07 -2.78016e-06 -3.51261e-05
0.000689828 8.27144e-05 -1.99919e-08
8.27144e-05 9.95298e-05 -6.25591e-08
-1.99919e-08 -6.25591e-08 -1.06102e-05
0.000537859 -1.72911e-05 -2.88596e-07
-1.72911e-05 -3.79414e-05 -5.09698e-06
-2.88596e-07 -5.09698e-06 -5.7869e-05
0.000609219 3.01931e-05 4.87342e-08
3.01931e-05 2.4141e-05 -9.71276e-08
4.87342e-08 -9.71276e-08 -3.98699e-05
0.000619263 4.4014e-05 -2.34628e-06
4.4014e-05 5.31886e-05 1.60755e-07
-2.34628e-06 1.60755e-07 -4.87262e-05
0.00233631 -5.27972e-05 -2.1667e-05
-5.27972e-05 0.00104646 -4.63689e-06
-2.1667e-05 -4.63689e-06 0.00106033
0.000546088 -1.68154e-05 -3.73516e-07
-1.68154e-05 -3.58626e-05 -7.21138e-08
-3.73516e-07 -7.21138e-08 -5.16479e-05
0.000537413 3.35676e-05 -1.63496e-06
3.35676e-05 -1.6549e-05 7.30059e-07
-1.63496e-06 7.30059e-07 -7.51649e-05
0.00221275 -3.69047e-05 -4.18971e-06
-3.69047e-05 0.000969196 1.65767e-07
-4.18971e-06 1.65767e-07 0.000985544
0.00054672 -1.15011e-05 -8.56206e-07
-1.15011e-05 -3.78663e-05 3.66074e-06
-8.56206e-07 3.66074e-06 -4.97394e-05
0.00211692 -2.15421e-05 1.15988e-05
-2.15421e-05 0.000909699 4.67116e-06
1.15988e-05 4.67116e-06 0.000927757
3.49697e-05 -6.68366e-05 -2.1614e-06
-6.68366e-05 -5.19725e-05 5.472e-06
-2.1614e-06 5.472e-06 6.38757e-05
0.00138847 -9.37701e-05 -1.71164e-05
-9.37701e-05 -0.000402021 2.73926e-05
-1.71164e-05 2.73926e-05 -0.000110788
0.000688682 -8.16349e-05 9.93364e-06
-8.16349e-05 0.000484551 -1.66804e-05
9.93364e-06 -1.66804e-05 0.000422073
0.000732035 6.68244e-05 -2.38845e-07
6.68244e-05 0.000122505 1.47977e-07
-2.38845e-07 1.47977e-07 -7.43488e-06
0.000695281 5.19487e-05 1.38967e-06
5.19487e-05 7.22254e-05 -3.74623e-07
1.38967e-06 -3.74623e-07 -5.1397e-05
-2.20537e-05 3.22172e-05 -4.1895e-06
3.22172e-05 -0.000350646 -4.66411e-06
-4.1895e-06 -4.66411e-06 -0.000463994
0.00034581 1.6262e-05 1.06262e-06
1.6262e-05 -0.000118453 1.89441e-06
1.06262e-06 1.89441e-06 -0.000240624
0.00153586 0.000180389 -6.79157e-07
0.000180389 0.000611635 -6.68113e-07
-6.79157e-07 -6.68113e-07 0.000451643
0.000650635 3.2264e-05 -1.98099e-06
3.2264e-05 4.82945e-05 3.01989e-07
-1.98099e-06 3.01989e-07 -6.20497e-05
0.000664845 5.77212e-05 -2.73794e-06
5.77212e-05 7.48295e-05 -3.34498e-06
-2.73794e-06 -3.34498e-06 -4.7482e-05
0.000760656 6.69024e-05 -8.42975e-08
6.69024e-05 0.000132459 -2.20871e-07
-8.42975e-08 -2.20871e-07 7.56067e-06
0.000994452 0.000108731 1.25638e-07
0.000108731 0.000283643 -1.59699e-07
1.25638e-07 -1.59699e-07 0.000148394
0.00103359 8.53611e-05 3.13032e-06
8.53611e-05 0.000334446 -1.92496e-06
3.13032e-06 -1.92496e-06 0.000188115
0.00325969 0.000294671 0.000196608
0.000294671 0.00224538 0.000264699
0.000196608 0.000264699 -0.00113452
0.000660429 0.000130339 9.80605e-06
0.000130339 8.56312e-06 6.96753e-05
9.80605e-06 6.96753e-05 -0.00151898
0.00267253 -4.69513e-05 -1.25864e-05
-4.69513e-05 0.000496993 -6.91267e-06
-1.25864e-05 -6.91267e-06 2.73605e-05
0.0105539 -0.00125801 -0.000108993
-0.00125801 0.00146364 -0.000113354
-0.000108993 -0.000113354 0.00293643
-0.00949344 0.00103308 -1.34614e-05
0.00103308 -0.00326216 0.000276629
-1.34614e-05 0.000276629 -0.0059993
0.0051421 -0.00133471 -0.000123458
-0.00133471 0.00193304 3.5738e-05
-0.000123458 3.5738e-05 0.00158337
0.0110167 -0.00108438 -7.9326e-05
-0.00108438 0.00495415 -2.77604e-06
-7.9326e-05 -2.77604e-06 0.00124301
0.00214689 -0.000305229 -2.69373e-05
-0.000305229 0.000532981 6.98429e-05
-2.69373e-05 6.98429e-05 0.000357164
0.0114764 -0.000138547 -2.06627e-05
-0.000138547 0.00598097 -1.22988e-05
-2.06627e-05 -1.22988e-05 0.00130659
0.00271845 -0.00148472 5.98937e-05
-0.00148472 0.00094697 8.15418e-05
5.98937e-05 8.15418e-05 -0.00117339
0.00611399 -0.00182685 -0.00015373
-0.00182685 -0.000775371 -0.000368532
-0.00015373 -0.000368532 -0.000214758
0.00280062 0.000118602 -0.000116888
0.000118602 0.000928772 5.6671e-05
-0.000116888 5.6671e-05 0.000356916
0.0102882 0.00123178 -5.85374e-05
0.00123178 0.00482906 1.47711e-05
-5.85374e-05 1.47711e-05 0.00106348
0.0117563 -0.00259219 -9.74207e-05
-0.00259219 0.0042112 -0.000322858
-9.74207e-05 -0.000322858 0.00355902
0.00939811 -0.00301406 8.03319e-05
-0.00301406 0.00242726 -3.1274e-06
8.03319e-05 -3.1274e-06 0.00329528
0.000186335 7.99379e-05 5.97058e-06
7.99379e-05 -8.00138e-05 -4.19988e-06
5.97058e-06 -4.19988e-06 -0.000225721
0.000880277 2.84285e-05 1.20999e-06
2.84285e-05 0.000261412 2.87399e-06
1.20999e-06 2.87399e-06 0.000111875
0.00070438 9.67936e-05 -3.28017e-06
9.67936e-05 0.000125826 -6.64385e-06
-3.28017e-06 -6.64385e-06 -2.00429e-05
0.00162549 -0.000234413 -2.47006e-05
-0.000234413 0.00103459 2.42237e-05
-2.47006e-05 2.42237e-05 0.000273403
0.000849288 -2.85975e-05 -5.84019e-05
-2.85975e-05 0.000661183 -2.24497e-05
-5.84019e-05 -2.24497e-05 0.000494331
0.00058195 6.91236e-06 -5.59831e-06
6.91236e-06 6.29821e-05 3.3527e-06
-5.59831e-06 3.3527e-06 -5.068e-05
-0.00106155 9.50482e-05 -9.07026e-06
9.50482e-05 -0.000521766 -4.27509e-06
-9.07026e-06 -4.27509e-06 -0.000857555
0.000378994 8.57279e-05 5.83387e-07
8.57279e-05 0.000172006 -2.07025e-06
5.83387e-07 -2.07025e-06 -2.95772e-05
0.000653453 0.00015522 1.42231e-06
0.00015522 0.000468666 2.77828e-06
1.42231e-06 2.77828e-06 0.000152907
-0.000575839 -6.79878e-05 0.000120769
-6.79878e-05 0.000711381 -3.91052e-05
0.000120769 -3.91052e-05 -0.000585509
-0.00208136 3.0853e-05 -2.01815e-05
3.0853e-05 -0.00108763 1.29486e-05
-2.01815e-05 1.29486e-05 -0.00132425
0.00256225 0.00035779 -6.15226e-05
0.00035779 0.00166173 -4.93826e-05
-6.15226e-05 -4.93826e-05 0.00078149
0.0019425 5.87847e-05 9.30286e-05
5.87847e-05 0.00127504 1.90601e-05
9.30286e-05 1.90601e-05 -0.000950353
-0.000110733 1.57224e-05 1.21878e-05
1.57224e-05 0.000538376 1.53623e-05
1.21878e-05 1.53623e-05 -1.48585e-05
0.00173196 -7.65936e-05 2.08498e-07
-7.65936e-05 0.000201184 -2.40749e-07
2.08498e-07 -2.40749e-07 0.000376876
-0.00172385 0.000308981 0.000106636
0.000308981 -0.000401028 7.07391e-06
0.000106636 7.07391e-06 -0.00111333
0.00285632 0.000164409 -3.37049e-05
0.000164409 0.00149849 2.03578e-05
-3.37049e-05 2.03578e-05 0.000696101
0.000720913 -5.12707e-05 -9.57008e-06
-5.12707e-05 0.00048038 1.28213e-05
-9.57008e-06 1.28213e-05 0.000426141
0.0160286 -0.00191651 0.000137411
-0.00191651 0.00706422 -4.32829e-05
0.000137411 -4.32829e-05 0.00276462
0.0120864 0.00199551 -6.73692e-05
0.00199551 0.00441558 -5.47633e-05
-6.73692e-05 -5.47633e-05 0.00319836
0.00428363 -0.000590569 -8.77929e-05
-0.000590569 0.00167709 0.000137575
-8.77929e-05 0.000137575 -0.00168415
-0.00677967 0.00324426 0.000877672
0.00324426 -0.00261243 -0.000670411
0.000877672 -0.000670411 -0.00162547
0.000681585 -0.000211989 1.26285e-05
-0.000211989 0.000728769 -4.12814e-06
1.26285e-05 -4.12814e-06 0.000155935
0.000687 -0.000173643 4.3957e-06
-0.000173643 1.56241e-05 1.33197e-05
4.3957e-06 1.33197e-05 -0.00187416
-0.00288931 0.00015401 -0.000481992
0.00015401 0.00275351 0.000197439
-0.000481992 0.000197439 0.00073919
0.00127073 -0.0003887 -2.24108e-05
-0.0003887 0.000409168 3.52813e-05
-2.24108e-05 3.52813e-05 5.40585e-05
0.0130497 0.00261073 0.000125483
0.00261073 0.0038881 8.41232e-05
0.000125483 8.41232e-05 0.00393457
0.0078669 -0.00183531 9.85468e-05
-0.00183531 0.00323072 -5.80899e-05
9.85468e-05 -5.80899e-05 6.76638e-05
0.00228754 -0.000525574 3.5752e-06
-0.000525574 0.00104901 2.34259e-05
3.5752e-06 2.34259e-05 0.000889862
-0.0048025 -0.000548945 4.72043e-05
-0.000548945 0.00216084 -2.95063e-05
4.72043e-05 -2.95063e-05 -0.00035921
0.0112057 0.00241013 -0.000543421
0.00241013 0.00495834 0.000253297
-0.000543421 0.000253297 0.00452288
0.00249156 -0.00117062 -0.000231548
-0.00117062 -0.000434646 0.000149073
-0.000231548 0.000149073 -0.00378003
0.00248736 -0.00105777 0.000110036
-0.00105777 0.000531621 -5.44187e-05
0.000110036 -5.44187e-05 0.00060249
-0.000260498 -0.00020013 -5.14106e-05
-0.00020013 1.32825e-05 1.49546e-05
-5.14106e-05 1.49546e-05 -0.000289616
0.000620527 -0.000325639 -7.51982e-06
-0.000325639 0.000281795 9.61793e-06
-7.51982e-06 9.61793e-06 6.46624e-05
0.00395374 -0.000649639 2.92033e-05
-0.000649639 0.00172256 1.92918e-06
2.92033e-05 1.92918e-06 0.00153906
-0.00283685 -5.66659e-05 -1.32296e-06
-5.66659e-05 -0.00157324 1.01042e-05
-1.32296e-06 1.01042e-05 -0.00180472
0.000837335 -0.000361517 4.44854e-06
-0.000361517 8.52359e-05 1.79013e-06
4.44854e-06 1.79013e-06 -0.000180574
0.00229317 -0.000594207 5.45234e-06
-0.000594207 0.000560237 1.06793e-06
5.45234e-06 1.06793e-06 0.00029776
0.00308903 -0.00054687 -1.58955e-05
-0.00054687 0.00131474 5.41582e-06
-1.58955e-05 5.41582e-06 0.000941803
0.00130647 -0.000436775 -2.37528e-06
-0.000436775 0.000229258 -3.97387e-06
-2.37528e-06 -3.97387e-06 -0.000176072
0.00174514 -0.000561852 5.12766e-06
-0.000561852 0.000242595 -6.8599e-06
5.12766e-06 -6.8599e-06 -7.74877e-05
0.00257668 -0.000555893 -3.42597e-06
-0.000555893 0.000872423 -6.53702e-07
-3.42597e-06 -6.53702e-07 0.000477567
0.00169009 -0.000494443 3.46588e-07
-0.000494443 0.000342124 -3.75414e-06
3.46588e-07 -3.75414e-06 -3.08072e-05
0.00212533 -0.000502311 8.08746e-07
-0.000502311 0.000427456 -6.98711e-06
8.08746e-07 -6.98711e-06 0.000152475
0.00167683 -0.000383308 -3.85853e-06
-0.000383308 0.00010904 -3.29048e-06
-3.85853e-06 -3.29048e-06 -0.000104084
0.00161052 -0.000465065 1.3511e-06
-0.000465065 0.000171598 -8.36707e-07
1.3511e-06 -8.36707e-07 -0.000107402
0.00180805 -0.000470351 1.99655e-06
-0.000470351 0.000308059 -2.55814e-06
1.99655e-06 -2.55814e-06 2.77306e-05
0.00171619 -0.000410459 5.04576e-08
-0.000410459 0.0003814 1.61948e-06
5.04576e-08 1.61948e-06 0.000109159
0.00181825 -0.000484826 -2.13865e-06
-0.000484826 0.000397344 1.39648e-07
-2.13865e-06 1.39648e-07 9.0359e-05
0.00178641 -0.000497246 1.4749e-06
-0.000497246 0.000379634 -3.63387e-06
1.4749e-06 -3.63387e-06 4.39566e-05
0.00134417 -0.00029638 3.12705e-06
-0.00029638 0.000297184 9.78083e-07
3.12705e-06 9.78083e-07 6.70533e-05
0.000891484 -0.000279649 6.75225e-07
-0.000279649 -3.77599e-07 -1.06393e-07
6.75225e-07 -1.06393e-07 -0.000227421
0.00125243 -0.000324208 3.97938e-06
-0.000324208 0.000192411 -2.94981e-06
3.97938e-06 -2.94981e-06 -4.98903e-05
0.000671459 -0.000201585 -3.01724e-07
-0.000201585 5.00614e-05 5.1497e-07
-3.01724e-07 5.1497e-07 -0.00015348
0.000933301 -0.000231438 6.54758e-08
-0.000231438 0.000155554 -1.97926e-07
6.54758e-08 -1.97926e-07 -6.5907e-05
0.000651007 -0.000222798 -3.0734e-06
-0.000222798 -6.65333e-05 -1.36774e-06
-3.0734e-06 -1.36774e-06 -0.000281439
0.00029368 1.10827e-05 -2.58732e-08
1.10827e-05 -0.000143771 5.20862e-06
-2.58732e-08 5.20862e-06 -0.000262236
0.000777112 -0.000119209 1.1899e-06
-0.000119209 0.00017733 4.85241e-07
1.1899e-06 4.85241e-07 -1.41272e-05
0.00107465 -0.000174887 -2.14212e-06
-0.000174887 0.000352915 1.40966e-07
-2.14212e-06 1.40966e-07 0.000149176
0.00146125 8.51833e-05 -1.86012e-05
8.51833e-05 0.000554398 5.03658e-06
-1.86012e-05 5.03658e-06 0.000519626
0.000676753 -1.58927e-05 4.90537e-08
-1.58927e-05 7.3578e-05 -5.95452e-07
4.90537e-08 -5.95452e-07 -1.69914e-05
0.00122982 -8.02662e-05 -1.78476e-06
-8.02662e-05 0.000446615 -1.83156e-06
-1.78476e-06 -1.83156e-06 0.000291057
0.000735575 4.95858e-05 -2.99449e-05
4.95858e-05 0.000111482 3.86431e-06
-2.99449e-05 3.86431e-06 0.000108392
0.000989378 6.55467e-05 -9.29129e-06
6.55467e-05 0.00026038 -1.73226e-07
-9.29129e-06 -1.73226e-07 0.00023088
0.000658711 6.23421e-07 9.77424e-07
6.23421e-07 5.56762e-05 -3.73832e-06
9.77424e-07 -3.73832e-06 -1.90998e-05
0.000542215 5.31112e-05 -1.84159e-07
5.31112e-05 -1.70586e-05 -5.57022e-06
-1.84159e-07 -5.57022e-06 -4.43531e-05
0.00247658 0.000105645 4.42655e-06
0.000105645 0.00115616 4.00874e-07
4.42655e-06 4.00874e-07 0.00115945
0.00241091 9.19035e-05 2.28361e-05
9.19035e-05 0.00110928 -3.98187e-06
2.28361e-05 -3.98187e-06 0.00111569
0.000787268 7.10098e-05 7.5153e-07
7.10098e-05 0.000152824 1.31169e-06
7.5153e-07 1.31169e-06 2.46552e-05
0.000789441 8.22193e-05 6.55133e-07
8.22193e-05 0.000172076 -2.10845e-06
6.55133e-07 -2.10845e-06 4.02794e-05
0.000590027 5.17712e-05 -4.05222e-07
5.17712e-05 3.16808e-05 5.11267e-07
-4.05222e-07 5.11267e-07 -9.2795e-05
0.000634995 1.04663e-05 -2.44725e-08
1.04663e-05 3.9146e-05 -3.14852e-06
-2.44725e-08 -3.14852e-06 -3.71626e-05
0.000724493 6.86036e-05 5.72261e-07
6.86036e-05 0.000120338 3.12646e-08
5.72261e-07 3.12646e-08 4.21889e-06
0.000536865 -1.8195e-05 -9.36653e-07
-1.8195e-05 -3.39032e-05 -5.67386e-06
-9.36653e-07 -5.67386e-06 -5.82435e-05
0.000602112 2.37089e-05 -2.93141e-08
2.37089e-05 2.05893e-05 -1.41349e-07
-2.93141e-08 -1.41349e-07 -5.01912e-05
0.000729403 6.85075e-05 -9.13744e-07
6.85075e-05 0.000139887 1.56531e-06
-9.13744e-07 1.56531e-06 1.71435e-05
0.00248724 -6.82804e-05 -2.83302e-05
-6.82804e-05 0.00114132 -4.50303e-06
-2.83302e-05 -4.50303e-06 0.00115242
0.000527908 -1.97393e-05 -5.47158e-07
-1.97393e-05 -4.37936e-05 -5.64212e-08
-5.47158e-07 -5.64212e-08 -6.36261e-05
0.000598109 3.31063e-05 2.31817e-07
3.31063e-05 1.83121e-05 2.55496e-06
2.31817e-07 2.55496e-06 -4.57094e-05
0.00234483 -5.21652e-05 -4.56196e-06
-5.21652e-05 0.00105135 2.47574e-07
-4.56196e-06 2.47574e-07 0.00106536
0.000528819 -1.78572e-05 -1.20714e-06
-1.78572e-05 -4.59069e-05 4.225e-06
-1.20714e-06 4.225e-06 -6.15726e-05
0.00221363 -3.55668e-05 1.65797e-05
-3.55668e-05 0.000969391 4.58006e-06
1.65797e-05 4.58006e-06 0.000985941
0.0050968 0.000132509 0.000123953
0.000132509 0.00214572 2.4228e-05
0.000123953 2.4228e-05 0.000905227
1.80219e-05 -6.51619e-05 -7.84101e-07
-6.51619e-05 -5.13924e-05 -9.80212e-07
-7.84101e-07 -9.80212e-07 3.18799e-05
0.0012782 -7.20812e-05 -1.89834e-05
-7.20812e-05 -0.000434221 4.09529e-06
-1.89834e-05 4.09529e-06 -9.77015e-05
0.000418166 0.00010462 -6.25658e-06
0.00010462 -7.7629e-05 -1.95304e-06
-6.25658e-06 -1.95304e-06 -0.000204738
0.000812759 6.70433e-05 -1.38625e-06
6.70433e-05 0.000166623 -6.44242e-08
-1.38625e-06 -6.44242e-08 4.20039e-05
0.000503502 4.21496e-05 4.34214e-07
4.21496e-05 -4.38339e-05 -1.92178e-07
4.34214e-07 -1.92178e-07 -0.000163178
0.000824999 4.44137e-05 1.68889e-07
4.44137e-05 0.000156983 -2.27514e-07
1.68889e-07 -2.27514e-07 3.46039e-05
0.00069012 8.28507e-05 -8.94636e-07
8.28507e-05 6.92012e-05 2.33576e-07
-8.94636e-07 2.33576e-07 -5.17381e-05
0.00124123 0.000150176 5.84012e-07
0.000150176 0.000432195 -1.00161e-06
5.84012e-07 -1.00161e-06 0.000286449
0.000866622 0.000115323 -1.02645e-06
0.000115323 0.0001823 -7.17365e-06
-1.02645e-06 -7.17365e-06 1.50665e-05
-1.90657e-05 2.77352e-05 8.88361e-07
2.77352e-05 -0.000282459 1.48928e-06
8.88361e-07 1.48928e-06 -0.000429973
0.000793391 0.000119911 -1.92409e-06
0.000119911 0.00016535 8.18647e-07
-1.92409e-06 8.18647e-07 3.02031e-05
0.000415864 2.61729e-05 -3.39936e-06
2.61729e-05 -8.37768e-05 -2.74283e-06
-3.39936e-06 -2.74283e-06 -0.000194534
0.000513905 6.04473e-05 -8.65306e-08
6.04473e-05 2.30019e-05 9.56566e-07
-8.65306e-08 9.56566e-07 -0.000117466
0.00152472 0.000175563 1.03326e-05
0.000175563 0.00067635 6.26941e-06
1.03326e-05 6.26941e-06 0.000514837
0.00103345 -0.00105122 0.000130071
-0.00105122 0.00281507 0.000212849
0.000130071 0.000212849 0.0003423
0.00383158 0.000389067 2.79457e-05
0.000389067 0.00215082 9.6646e-05
2.79457e-05 9.6646e-05 -0.00134538
0.00099025 0.000122672 -2.40046e-05
0.000122672 0.000253677 -4.51967e-05
-2.40046e-05 -4.51967e-05 -0.00143598
0.0109895 -0.00229283 -0.000303727
-0.00229283 0.00182678 -0.000213528
-0.000303727 -0.000213528 0.0023563
0.0058599 -0.000833085 8.51803e-05
-0.000833085 0.00165676 0.000276668
8.51803e-05 0.000276668 6.70774e-05
0.00101141 -0.00086029 -0.000105502
-0.00086029 0.00218692 8.91737e-05
-0.000105502 8.91737e-05 -0.002817
0.000952866 -0.000372974 1.0727e-05
-0.000372974 0.000246078 5.26015e-05
1.0727e-05 5.26015e-05 -0.000299926
0.0021699 -0.00010881 2.58669e-05
-0.00010881 0.000734073 5.22061e-05
2.58669e-05 5.22061e-05 0.000371642
0.00177998 -0.00309002 0.00015119
-0.00309002 -2.75465e-05 0.00016121
0.00015119 0.00016121 0.00096865
0.00446649 0.0010018 -1.94595e-05
0.0010018 0.0037137 -3.16283e-05
-1.94595e-05 -3.16283e-05 -0.000976345
0.00356715 -0.00156245 -4.86372e-05
-0.00156245 -0.000378201 5.93699e-05
-4.86372e-05 5.93699e-05 -0.00127745
0.000559227 0.000344376 -1.22529e-05
0.000344376 0.000122936 5.28571e-05
-1.22529e-05 5.28571e-05 -2.39691e-06
0.00828565 0.00129587 -4.53826e-05
0.00129587 0.00378603 -2.49033e-05
-4.53826e-05 -2.49033e-05 0.000489423
0.00490418 -0.00261144 -0.000304879
-0.00261144 0.000399217 -0.00025126
-0.000304879 -0.00025126 0.000268243
0.000874063 0.000348628 6.75103e-06
0.000348628 0.000205631 -1.22141e-05
6.75103e-06 -1.22141e-05 5.1739e-05
0.000622359 9.58889e-05 2.76526e-06
9.58889e-05 0.00016464 -2.87517e-07
2.76526e-06 -2.87517e-07 2.5081e-05
0.000378855 4.3448e-05 -4.29168e-06
4.3448e-05 -2.53171e-05 -2.29883e-06
-4.29168e-06 -2.29883e-06 -0.000184143
-0.000258223 -0.000101297 -0.000155965
-0.000101297 0.00103831 -4.38149e-05
-0.000155965 -4.38149e-05 -0.000209315
-0.00177409 0.000154403 1.67219e-06
0.000154403 -0.000882265 -1.64526e-05
1.67219e-06 -1.64526e-05 -0.00121902
-0.000197552 9.53453e-05 -6.28611e-06
9.53453e-05 -0.000145653 4.10057e-06
-6.28611e-06 4.10057e-06 -0.000374447
0.000543736 0.000337883 1.27584e-05
0.000337883 0.00027418 3.17176e-06
1.27584e-05 3.17176e-06 9.62095e-06
0.000652093 0.000284791 3.3538e-06
0.000284791 0.000588632 -3.44629e-05
3.3538e-06 -3.44629e-05 -0.000173185
-2.2993e-05 0.000575812 3.33871e-05
0.000575812 -0.000428142 7.5158e-06
3.33871e-05 7.5158e-06 -0.000824232
-0.00192432 0.000412217 0.00017737
0.000412217 0.00365916 3.92887e-06
0.00017737 3.92887e-06 0.000503187
0.00218652 -1.40711e-05 -5.48777e-06
-1.40711e-05 0.00141008 2.74019e-05
-5.48777e-06 2.74019e-05 -0.000322842
-0.000353651 -1.72323e-05 -6.46312e-07
-1.72323e-05 0.00025599 1.8475e-05
-6.46312e-07 1.8475e-05 -0.000145086
0.000110155 -0.000148416 -5.81049e-05
-0.000148416 0.000532813 5.72956e-06
-5.81049e-05 5.72956e-06 -4.71745e-05
-0.000578011 -0.000118788 -6.63201e-05
-0.000118788 -0.00100391 2.61186e-05
-6.63201e-05 2.61186e-05 -0.000743567
0.00106038 -0.000136845 -0.000102115
-0.000136845 0.0001698 4.07719e-05
-0.000102115 4.07719e-05 -0.00169209
-0.00242787 -0.00162525 8.90587e-05
-0.00162525 0.000126105 -0.000109491
8.90587e-05 -0.000109491 -0.00417294
-9.50474e-05 0.00215749 0.000247196
0.00215749 -0.00309502 -0.000214556
0.000247196 -0.000214556 -0.00290517
0.00322107 0.000992047 -0.000239734
0.000992047 0.00400138 0.000174402
-0.000239734 0.000174402 0.00246102
0.00142772 -0.000270817 -5.38885e-06
-0.000270817 0.000633361 -2.62519e-06
-5.38885e-06 -2.62519e-06 0.00054465
0.00144792 0.000213637 3.93763e-05
0.000213637 0.00402415 5.61853e-06
3.93763e-05 5.61853e-06 0.00229299
-0.00304273 0.00151048 2.46225e-05
0.00151048 -0.000644024 1.97477e-05
2.46225e-05 1.97477e-05 -0.00237204
0.00349517 -0.00124945 5.42072e-05
-0.00124945 0.0012371 -1.52516e-05
5.42072e-05 -1.52516e-05 0.00074528
0.012321 -0.00110396 1.86316e-05
-0.00110396 0.00375318 -1.24194e-05
1.86316e-05 -1.24194e-05 0.00183978
0.0032435 -0.000787491 -1.17603e-05
-0.000787491 0.00114233 2.23369e-05
-1.17603e-05 2.23369e-05 0.00110752
-0.00858464 0.000569364 -0.00024397
0.000569364 -0.00380915 1.18627e-05
-0.00024397 1.18627e-05 -0.00492496
0.0130977 -0.000665943 -0.000116284
-0.000665943 0.00315271 3.59896e-05
-0.000116284 3.59896e-05 0.00158548
0.00328828 -0.00140451 2.73612e-05
-0.00140451 -0.000185634 -2.965e-05
2.73612e-05 -2.965e-05 -0.000579929
-0.000110599 -0.00022737 -1.44852e-05
-0.00022737 -4.48098e-05 1.58733e-05
-1.44852e-05 1.58733e-05 -0.000331277
0.00153499 -0.000480677 -4.0156e-06
-0.000480677 0.000317857 8.35622e-07
-4.0156e-06 8.35622e-07 0.000260462
0.00373288 -0.000614528 1.29023e-05
-0.000614528 0.00128049 -3.73779e-06
1.29023e-05 -3.73779e-06 0.00114462
-0.00126914 -0.000145826 -5.91435e-06
-0.000145826 -0.000989888 3.12384e-06
-5.91435e-06 3.12384e-06 -0.00125564
0.00134848 -0.00049842 -5.72828e-06
-0.00049842 0.000101085 -2.58089e-06
-5.72828e-06 -2.58089e-06 -0.000172288
0.00237909 -0.000633674 3.79335e-06
-0.000633674 0.000446399 -1.37393e-06
3.79335e-06 -1.37393e-06 0.000205031
0.00133617 -0.000430669 -1.64487e-05
-0.000430669 0.000222482 -8.23768e-07
-1.64487e-05 -8.23768e-07 -0.000163299
0.00155398 -0.000533344 -7.87992e-08
-0.000533344 0.000149881 4.41425e-07
-7.87992e-08 4.41425e-07 -0.000172987
0.00157514 -0.000469188 1.67472e-06
-0.000469188 -2.69319e-05 -5.97057e-06
1.67472e-06 -5.97057e-06 -0.000237943
0.0012687 -0.000459894 -4.4271e-06
-0.000459894 8.50733e-05 -2.93586e-07
-4.4271e-06 -2.93586e-07 -0.000273078
0.00165602 -0.000456507 -4.83286e-07
-0.000456507 0.000170563 6.3305e-07
-4.83286e-07 6.3305e-07 -9.60158e-05
0.00176415 -0.000377066 -1.60744e-06
-0.000377066 9.90793e-05 -5.2234e-06
-1.60744e-06 -5.2234e-06 -7.27553e-05
0.00165655 -0.000301422 -4.79317e-06
-0.000301422 5.2342e-05 -2.78604e-06
-4.79317e-06 -2.78604e-06 -9.5966e-05
0.00153952 -0.000372706 -3.84475e-06
-0.000372706 4.90837e-05 -2.16287e-06
-3.84475e-06 -2.16287e-06 -0.000169219
0.00165126 -0.000373174 1.14479e-06
-0.000373174 0.000102143 1.7378e-06
1.14479e-06 1.7378e-06 -0.000105674
0.00144397 -0.000399138 -2.6493e-06
-0.000399138 0.000123014 -1.24417e-06
-2.6493e-06 -1.24417e-06 -0.000136353
0.00172194 -0.000468262 1.71015e-06
-0.000468262 0.000246191 -2.55774e-07
1.71015e-06 -2.55774e-07 -3.03928e-05
0.00169602 -0.00045895 1.80481e-06
-0.00045895 0.000246506 1.9161e-07
1.80481e-06 1.9161e-07 -2.99961e-05
0.00149744 -0.000336067 -1.99428e-06
-0.000336067 0.000303502 1.74788e-06
-1.99428e-06 1.74788e-06 6.15941e-05
0.00154225 -0.000396272 1.03928e-06
-0.000396272 0.000282477 -5.17152e-07
1.03928e-06 -5.17152e-07 1.27358e-05
0.00178272 -0.000481514 -2.4972e-06
-0.000481514 0.000393977 -1.47138e-06
-2.4972e-06 -1.47138e-06 8.25496e-05
0.000956588 -0.000228645 -1.84007e-06
-0.000228645 0.000119443 2.49382e-06
-1.84007e-06 2.49382e-06 -8.54224e-05
0.00122633 -0.000285311 1.47255e-06
-0.000285311 0.000221196 1.59698e-07
1.47255e-06 1.59698e-07 -6.74329e-06
0.000907898 -0.000276508 -3.36281e-07
-0.000276508 1.44511e-05 -3.6288e-06
-3.36281e-07 -3.6288e-06 -0.000208733
0.000621679 -0.00010586 -1.49395e-06
-0.00010586 3.81549e-05 4.99985e-06
-1.49395e-06 4.99985e-06 -0.000117691
0.00100786 -0.000209208 5.13365e-09
-0.000209208 0.000245601 6.51565e-08
5.13365e-09 6.51565e-08 4.01653e-05
0.000506992 -0.000188909 -3.72719e-06
-0.000188909 -9.62243e-05 -5.27038e-07
-3.72719e-06 -5.27038e-07 -0.000308381
0.000375706 3.13915e-05 -1.15446e-06
3.13915e-05 -9.83429e-05 8.62057e-06
-1.15446e-06 8.62057e-06 -0.000145905
0.000671181 -6.79833e-05 -5.55452e-07
-6.79833e-05 7.95329e-05 -4.27122e-07
-5.55452e-07 -4.27122e-07 -4.7336e-05
0.0013135 -0.00014193 1.04697e-06
-0.00014193 0.000501479 -2.04419e-06
1.04697e-06 -2.04419e-06 0.000301356
0.00276224 0.000153133 -5.82617e-06
0.000153133 0.00134632 2.18087e-06
-5.82617e-06 2.18087e-06 0.00133602
0.00051555 4.38464e-05 -2.79439e-07
4.38464e-05 -2.02487e-05 -1.56711e-07
-2.79439e-07 -1.56711e-07 -5.78525e-05
0.000838102 -4.12178e-05 2.62443e-06
-4.12178e-05 0.00016865 -4.76353e-06
2.62443e-06 -4.76353e-06 7.47695e-05
0.00259521 0.000119893 4.37328e-06
0.000119893 0.00123485 3.4897e-07
4.37328e-06 3.4897e-07 0.00123483
0.000562638 4.79041e-05 4.11326e-07
4.79041e-05 2.53001e-06 -6.20737e-06
4.11326e-07 -6.20737e-06 -2.85385e-05
0.00253714 0.000107893 2.98566e-05
0.000107893 0.00119326 -3.41666e-06
2.98566e-05 -3.41666e-06 0.00119612
0.000909624 0.00013433 1.48987e-06
0.00013433 0.000216482 2.52351e-06
1.48987e-06 2.52351e-06 7.24003e-05
0.000767593 8.03692e-05 1.45584e-07
8.03692e-05 0.00014401 1.9556e-07
1.45584e-07 1.9556e-07 1.14423e-05
0.000836475 7.23098e-05 4.66177e-07
7.23098e-05 0.000204487 -2.72465e-06
4.66177e-07 -2.72465e-06 6.13001e-05
0.000651423 1.02054e-05 -5.39327e-07
1.02054e-05 5.48859e-05 -3.99575e-06
-5.39327e-07 -3.99575e-06 -2.86887e-05
0.000713113 5.04369e-05 2.62358e-07
5.04369e-05 0.000117015 2.83764e-07
2.62358e-07 2.83764e-07 -7.51842e-06
0.000536807 6.83345e-05 6.86964e-07
6.83345e-05 7.4369e-06 1.45165e-06
6.86964e-07 1.45165e-06 -0.000123357
0.000544172 -1.7606e-05 -1.6688e-06
-1.7606e-05 -2.59768e-05 -6.32081e-06
-1.6688e-06 -6.32081e-06 -5.45305e-05
0.00061917 1.70169e-05 -2.61961e-08
1.70169e-05 3.3266e-05 -9.57608e-08
-2.61961e-08 -9.57608e-08 -4.42862e-05
0.00067712 6.48908e-05 -5.55848e-08
6.48908e-05 8.83482e-05 1.37726e-06
-5.55848e-08 1.37726e-06 -2.28389e-05
0.00262731 -8.32309e-05 -3.6436e-05
-8.32309e-05 0.00123089 -4.22812e-06
-3.6436e-05 -4.22812e-06 0.00123908
0.000511617 -2.02729e-05 3.22116e-07
-2.02729e-05 -4.93032e-05 -1.08756e-07
3.22116e-07 -1.08756e-07 -7.33772e-05
0.000606382 2.67685e-05 4.8102e-08
2.67685e-05 2.39353e-05 2.87476e-06
4.8102e-08 2.87476e-06 -4.7179e-05
0.00246048 -6.7356e-05 -5.00104e-06
-6.7356e-05 0.00112476 3.18373e-07
-5.00104e-06 3.18373e-07 0.00113612
0.0005192 -2.13291e-05 -1.01123e-06
-2.13291e-05 -4.8883e-05 4.92723e-06
-1.01123e-06 4.92723e-06 -6.86015e-05
0.00231107 -5.07248e-05 2.06827e-05
-5.07248e-05 0.00103071 4.49937e-06
2.06827e-05 4.49937e-06 0.00104509
-0.00653536 0.000367085 -1.33493e-05
0.000367085 0.00168381 4.91378e-05
-1.33493e-05 4.91378e-05 -0.00161257
0.00484368 5.12521e-05 -5.852e-06
5.12521e-05 0.00228943 2.53241e-06
-5.852e-06 2.53241e-06 0.00106796
5.53421e-05 -6.90428e-05 -8.27488e-06
-6.90428e-05 -8.58869e-05 -6.52045e-06
-8.27488e-06 -6.52045e-06 -4.2102e-05
0.000342733 7.20458e-05 -1.48877e-06
7.20458e-05 -0.000126792 1.51252e-06
-1.48877e-06 1.51252e-06 -0.000247933
0.00255815 0.000372093 7.91112e-07
0.000372093 0.00120418 4.40206e-06
7.91112e-07 4.40206e-06 0.00100233
0.000653018 7.67854e-05 -3.71001e-06
7.67854e-05 5.87463e-05 -2.3278e-07
-3.71001e-06 -2.3278e-07 -8.12028e-05
0.0010239 4.7728e-05 -1.39139e-06
4.7728e-05 0.00027016 -2.52765e-06
-1.39139e-06 -2.52765e-06 0.000149703
0.0013688 0.000142656 2.60178e-06
0.000142656 0.000467185 5.40616e-08
2.60178e-06 5.40616e-08 0.000339834
0.000291682 5.34778e-05 -3.29273e-06
5.34778e-05 -0.000147004 3.01165e-06
-3.29273e-06 3.01165e-06 -0.000266452
0.000506171 7.23598e-05 -1.16181e-06
7.23598e-05 3.09063e-05 1.40078e-06
-1.16181e-06 1.40078e-06 -0.000127453
0.00066706 9.06217e-05 -2.05137e-06
9.06217e-05 7.0134e-05 -2.40969e-06
-2.05137e-06 -2.40969e-06 -8.94666e-05
0.000997625 0.000173123 2.75578e-06
0.000173123 0.000308354 -5.04129e-06
2.75578e-06 -5.04129e-06 0.000103807
0.00063942 0.000261638 2.49478e-06
0.000261638 -3.31052e-06 -2.61738e-06
2.49478e-06 -2.61738e-06 -0.000118852
0.00102839 8.80801e-05 -3.30788e-06
8.80801e-05 0.000333553 4.64848e-07
-3.30788e-06 4.64848e-07 0.000182734
0.00103326 0.000149919 7.47535e-07
0.000149919 0.000391107 3.3299e-06
7.47535e-07 3.3299e-06 0.000229586
-0.00459925 -0.0010844 -0.000519614
-0.0010844 -0.000713431 -4.09111e-05
-0.000519614 -4.09111e-05 -0.00233483
-0.00332807 -0.000784532 0.000211438
-0.000784532 0.00200921 0.000103791
0.000211438 0.000103791 -0.00081103
0.00436329 0.000444946 -0.000184183
0.000444946 0.00211335 -7.85668e-05
-0.000184183 -7.85668e-05 -0.00154692
-0.00712873 -0.00317949 0.000746835
-0.00317949 -0.00250686 0.000586232
0.000746835 0.000586232 -0.00168863
0.0151965 -0.00178541 -4.34288e-05
-0.00178541 0.00468027 0.000167793
-4.34288e-05 0.000167793 0.00415825
-0.00168857 0.00115798 -6.214e-06
0.00115798 0.000540585 -9.14146e-05
-6.214e-06 -9.14146e-05 -0.00386881
0.00225847 2.38503e-06 -0.00013968
2.38503e-06 0.00116065 2.20705e-05
-0.00013968 2.20705e-05 0.00022159
0.00206325 0.000457423 7.34309e-06
0.000457423 0.000807505 2.75015e-05
7.34309e-06 2.75015e-05 0.000562967
0.0109082 -0.00199294 -0.000221472
-0.00199294 0.00502268 5.53587e-05
-0.000221472 5.53587e-05 0.00450994
-0.000312742 0.00130948 -2.24844e-05
0.00130948 0.000571179 -3.48802e-05
-2.24844e-05 -3.48802e-05 -0.00301813
0.00201799 0.000935512 -2.88517e-05
0.000935512 0.000399363 -6.00097e-05
-2.88517e-05 -6.00097e-05 0.000485285
0.00420927 0.00192788 -0.00020867
0.00192788 -2.6628e-05 -0.000119977
-0.00020867 -0.000119977 -0.00247129
0.00229003 0.000696459 1.85505e-05
0.000696459 0.000654242 -1.9406e-05
1.85505e-05 -1.9406e-05 0.00040164
0.000830456 0.000324404 -4.74276e-06
0.000324404 0.000184247 5.15489e-07
-4.74276e-06 5.15489e-07 4.01854e-05
0.00110041 0.000105446 -7.25861e-06
0.000105446 0.00043176 3.68591e-06
-7.25861e-06 3.68591e-06 0.000302986
-0.00112903 0.000219013 -4.67459e-05
0.000219013 -0.000429947 -5.01162e-05
-4.67459e-05 -5.01162e-05 -0.00109894
0.00247966 0.000517066 -2.50531e-05
0.000517066 0.00126106 -1.65488e-05
-2.50531e-05 -1.65488e-05 0.000993879
0.00135632 0.000704637 1.41624e-05
0.000704637 0.000219143 -4.25902e-06
1.41624e-05 -4.25902e-06 -0.000172546
0.00285841 0.00107779 0.000108946
0.00107779 0.000327305 3.33996e-05
0.000108946 3.33996e-05 0.000164244
-0.00499355 -0.000121247 -0.000311489
-0.000121247 -0.00407413 8.20525e-06
-0.000311489 8.20525e-06 -0.00282577
-0.00400555 0.0002288 0.000158614
0.0002288 0.00310775 3.07469e-06
0.000158614 3.07469e-06 -0.000153594
0.00236903 -6.24474e-05 -7.79716e-05
-6.24474e-05 0.00155257 3.0959e-05
-7.79716e-05 3.0959e-05 0.00024907
0.00189666 -0.000342476 -5.38496e-05
-0.000342476 0.000671416 -3.9769e-05
-5.38496e-05 -3.9769e-05 0.000581664
0.00119447 -0.00105993 -9.65917e-06
-0.00105993 -0.000148091 1.6726e-05
-9.65917e-06 1.6726e-05 -0.000447992
0.00138389 0.000170062 -1.83356e-05
0.000170062 0.0039111 3.05836e-05
-1.83356e-05 3.05836e-05 0.002329
0.00288195 -0.00118748 0.000208391
-0.00118748 -7.02878e-05 -0.000138082
0.000208391 -0.000138082 -0.00259441
0.0117884 0.00146677 0.000202563
0.00146677 0.00542302 -1.36323e-05
0.000202563 -1.36323e-05 0.00431177
0.00271391 -0.00091901 -2.47212e-05
-0.00091901 0.000706505 7.34227e-06
-2.47212e-05 7.34227e-06 0.000491908
-0.000154509 0.000649406 0.00010663
0.000649406 -0.000381192 -2.63081e-05
0.00010663 -2.63081e-05 -0.001095
0.00543384 -0.000612414 -6.96953e-05
-0.000612414 -0.000582451 6.48918e-05
-6.96953e-05 6.48918e-05 -0.00277665
0.00555179 -0.00154484 -3.56204e-05
-0.00154484 0.00097549 1.85865e-05
-3.56204e-05 1.85865e-05 0.000516937
0.00174265 -0.000658214 5.37036e-05
-0.000658214 0.000151237 -1.33003e-05
5.37036e-05 -1.33003e-05 -8.54791e-05
0.0109715 -0.000497474 1.95325e-06
-0.000497474 0.00258011 -2.41564e-05
1.95325e-06 -2.41564e-05 0.00100271
0.00346162 -0.000829724 8.27448e-05
-0.000829724 -0.000906832 -5.03132e-05
8.27448e-05 -5.03132e-05 -0.000634707
-0.000976831 -0.000289885 -2.32001e-05
-0.000289885 -0.00111102 1.38342e-05
-2.32001e-05 1.38342e-05 -0.00106052
0.000391239 -0.000371773 -1.34271e-05
-0.000371773 -0.000540873 -5.00131e-07
-1.34271e-05 -5.00131e-07 -0.000591838
0.00379526 -0.000639649 3.47664e-05
-0.000639649 0.00104933 -1.85602e-05
3.47664e-05 -1.85602e-05 0.000974736
0.000229692 -0.000383821 -1.42035e-05
-0.000383821 -0.000452624 -7.8263e-06
-1.42035e-05 -7.8263e-06 -0.000727052
0.00176295 -0.000571246 2.01223e-07
-0.000571246 0.000136495 -1.12761e-06
2.01223e-07 -1.12761e-06 -9.06125e-05
0.00228361 -0.000527957 -4.12353e-07
-0.000527957 0.000212787 -1.54999e-06
-4.12353e-07 -1.54999e-06 6.68688e-05
0.00163584 -0.000530133 -3.20022e-06
-0.000530133 0.000196912 4.89539e-06
-3.20022e-06 4.89539e-06 -0.000130248
0.00183545 -0.000489362 -1.9297e-06
-0.000489362 0.000112094 8.92096e-07
-1.9297e-06 8.92096e-07 -0.000104024
0.00187252 -0.000379226 6.33438e-07
-0.000379226 5.07829e-05 -9.32423e-07
6.33438e-07 -9.32423e-07 -7.70568e-05
0.00126 -0.000416196 3.41211e-06
-0.000416196 -4.65158e-05 4.66486e-06
3.41211e-06 4.66486e-06 -0.000305344
0.00174168 -0.000368602 -2.65249e-07
-0.000368602 9.35447e-05 1.09294e-06
-2.65249e-07 1.09294e-06 -7.64145e-05
0.00178019 -0.000313477 -3.46148e-06
-0.000313477 6.37335e-05 -1.03859e-06
-3.46148e-06 -1.03859e-06 -5.36877e-05
0.0020148 -0.000300046 -3.33344e-06
-0.000300046 0.000267262 -3.77536e-07
-3.33344e-06 -3.77536e-07 0.000147148
0.00173738 -0.000304216 -2.53455e-06
-0.000304216 9.37018e-05 3.18657e-06
-2.53455e-06 3.18657e-06 -5.00552e-05
0.00177866 -0.000320646 -1.89079e-06
-0.000320646 0.000156632 -5.40143e-06
-1.89079e-06 -5.40143e-06 -7.28831e-06
0.00170013 -0.000374641 -4.42516e-06
-0.000374641 0.000180078 -2.00898e-06
-4.42516e-06 -2.00898e-06 -4.14978e-05
0.00169376 -0.000384054 1.25932e-06
-0.000384054 0.000140314 4.90443e-07
1.25932e-06 4.90443e-07 -7.89541e-05
0.00162681 -0.00036321 4.40708e-06
-0.00036321 9.46734e-05 6.07512e-06
4.40708e-06 6.07512e-06 -0.000107825
0.00156404 -0.00035894 -6.72e-06
-0.00035894 0.000260586 1.20522e-06
-6.72e-06 1.20522e-06 1.7695e-05
0.00146148 -0.00040218 -5.81817e-07
-0.00040218 0.00012783 3.02531e-07
-5.81817e-07 3.02531e-07 -0.000132362
0.00181253 -0.000470404 3.12089e-06
-0.000470404 0.000308201 4.93018e-07
3.12089e-06 4.93018e-07 3.40407e-05
0.00112121 -0.000252262 -4.97161e-06
-0.000252262 0.000139631 3.15113e-06
-4.97161e-06 3.15113e-06 -6.99914e-05
0.00130934 -0.000320493 5.58016e-07
-0.000320493 0.000189272 3.96501e-07
5.58016e-07 3.96501e-07 -5.07219e-05
0.00140307 -0.000385907 2.30781e-06
-0.000385907 0.000201849 -1.66317e-06
2.30781e-06 -1.66317e-06 -6.55474e-05
0.000807763 -0.000165568 -5.81448e-06
-0.000165568 0.000105234 4.86283e-06
-5.81448e-06 4.86283e-06 -6.72091e-05
0.00110725 -0.000242572 8.72386e-07
-0.000242572 0.000209861 -1.01637e-07
8.72386e-07 -1.01637e-07 2.13563e-06
0.0010959 -0.000274114 8.80071e-07
-0.000274114 0.000137536 -1.54376e-06
8.80071e-07 -1.54376e-06 -8.85306e-05
0.000308908 -2.8083e-05 -7.21995e-06
-2.8083e-05 -0.000157008 1.17767e-05
-7.21995e-06 1.17767e-05 -0.000215497
0.000737272 -0.00011714 7.37362e-07
-0.00011714 0.000113987 7.27367e-07
7.37362e-07 7.27367e-07 -5.02339e-05
0.0013354 -0.000230558 3.91961e-07
-0.000230558 0.000437572 -1.32597e-06
3.91961e-07 -1.32597e-06 0.000226705
0.00313255 0.000158146 -5.31827e-05
0.000158146 0.00157207 2.498e-06
-5.31827e-05 2.498e-06 0.00156168
0.000510431 1.57307e-05 -1.59782e-07
1.57307e-05 -2.4097e-05 -7.16306e-07
-1.59782e-07 -7.16306e-07 -7.09436e-05
0.00116237 -0.000108755 1.85873e-06
-0.000108755 0.000375759 -5.58088e-06
1.85873e-06 -5.58088e-06 0.000238811
0.00185586 0.000105715 2.6111e-05
0.000105715 0.000795705 5.60279e-07
2.6111e-05 5.60279e-07 0.000787504
0.00061283 3.69188e-05 2.49703e-06
3.69188e-05 3.57134e-05 -7.41431e-06
2.49703e-06 -7.41431e-06 -1.20115e-06
0.00269621 0.000121165 4.16324e-05
0.000121165 0.00129545 -2.87003e-06
4.16324e-05 -2.87003e-06 0.00129526
0.000899973 0.000147139 4.35302e-06
0.000147139 0.000180633 7.00446e-07
4.35302e-06 7.00446e-07 3.78148e-05
0.00053603 7.94e-05 -1.24246e-07
7.94e-05 -1.09765e-05 -4.98663e-08
-1.24246e-07 -4.98663e-08 -0.000140083
0.000624213 6.29836e-05 -1.75486e-07
6.29836e-05 5.3156e-05 -1.40175e-06
-1.75486e-07 -1.40175e-06 -8.03604e-05
0.000887623 0.00010104 3.24657e-07
0.00010104 0.000218587 3.67181e-07
3.24657e-07 3.67181e-07 8.01383e-05
0.000705218 4.5721e-05 2.1442e-07
4.5721e-05 0.000105057 1.34133e-08
2.1442e-07 1.34133e-08 -2.12662e-05
0.000672381 1.59048e-05 -9.8361e-07
1.59048e-05 6.87479e-05 -4.83745e-06
-9.8361e-07 -4.83745e-06 -2.27889e-05
0.000559486 -1.84114e-05 -2.44157e-06
-1.84114e-05 -1.04471e-05 -7.26716e-06
-2.44157e-06 -7.26716e-06 -4.38465e-05
0.000607598 9.82864e-06 2.63984e-07
9.82864e-06 3.01901e-05 -7.84721e-08
2.63984e-07 -7.84721e-08 -5.40967e-05
0.000630221 2.4373e-05 -6.21796e-07
2.4373e-05 4.54297e-05 1.93576e-06
-6.21796e-07 1.93576e-06 -6.27634e-05
0.00273232 -9.68018e-05 -4.59471e-05
-9.68018e-05 0.00130048 -3.9315e-06
-4.59471e-05 -3.9315e-06 0.0013059
0.000512263 -1.65032e-05 2.86958e-08
-1.65032e-05 -4.38472e-05 -9.99082e-08
2.86958e-08 -9.99082e-08 -7.23392e-05
0.000584607 2.02655e-05 3.43772e-07
2.02655e-05 1.66964e-05 3.23799e-06
3.43772e-07 3.23799e-06 -6.24188e-05
0.00259828 -8.29223e-05 -5.34385e-06
-8.29223e-05 0.00121298 3.68804e-07
-5.34385e-06 3.68804e-07 0.00122125
0.000501089 -2.45933e-05 -9.07696e-08
-2.45933e-05 -5.51714e-05 5.56927e-06
-9.07696e-08 5.56927e-06 -7.93463e-05
0.0024646 -6.67406e-05 2.58953e-05
-6.67406e-05 0.00112681 4.44887e-06
2.58953e-05 4.44887e-06 0.00113828
-1.72428e-05 0.000312099 -0.000287402
0.000312099 0.00197527 1.64603e-05
-0.000287402 1.64603e-05 0.000688609
-0.00335092 3.7238e-05 2.172e-05
3.7238e-05 0.00224106 1.39375e-05
2.172e-05 1.39375e-05 -0.00109217
0.0045858 -2.03757e-05 -8.40366e-05
-2.03757e-05 0.00237976 -1.24865e-05
-8.40366e-05 -1.24865e-05 0.00118881
0.000432819 4.66728e-05 2.37966e-06
4.66728e-05 -7.57389e-05 -2.502e-06
2.37966e-06 -2.502e-06 -0.000191525
0.000662971 5.84579e-05 2.94079e-06
5.84579e-05 6.11539e-05 1.11998e-06
2.94079e-06 1.11998e-06 -8.60726e-05
0.00181884 0.000294234 -1.69221e-06
0.000294234 0.000771519 1.2342e-06
-1.69221e-06 1.2342e-06 0.000588988
0.00136184 0.000307679 3.6408e-06
0.000307679 0.000397276 -2.43502e-06
3.6408e-06 -2.43502e-06 0.000164592
0.00107111 0.000222877 -5.62075e-06
0.000222877 0.0003648 2.89759e-07
-5.62075e-06 2.89759e-07 0.000171219
0.000894108 0.000122722 6.72792e-11
0.000122722 0.000263492 2.81701e-06
6.72792e-11 2.81701e-06 9.68557e-05
0.000856141 0.000115426 5.10962e-06
0.000115426 0.000194261 3.65621e-06
5.10962e-06 3.65621e-06 3.56016e-05
0.000624632 0.000175765 -4.89983e-06
0.000175765 0.000103813 -3.35348e-06
-4.89983e-06 -3.35348e-06 -9.58695e-05
-0.000341672 0.000168081 1.38829e-06
0.000168081 -0.000544604 -5.13964e-07
1.38829e-06 -5.13964e-07 -0.000736143
0.0017385 0.000378758 4.4731e-06
0.000378758 0.000542824 -3.03407e-06
4.4731e-06 -3.03407e-06 0.000406432
0.00202435 0.00058897 8.07476e-06
0.00058897 0.00042088 -6.36591e-06
8.07476e-06 -6.36591e-06 0.000205913
0.000857692 0.000287424 -5.88008e-06
0.000287424 0.000136027 -7.76095e-07
-5.88008e-06 -7.76095e-07 6.81073e-06
0.000772894 0.000111708 -2.78689e-06
0.000111708 0.000185128 -2.17343e-06
-2.78689e-06 -2.17343e-06 3.76374e-05
0.0119661 0.00105546 -0.000101164
0.00105546 0.00277014 4.25012e-05
-0.000101164 4.25012e-05 0.00128144
-0.00010234 -0.000859763 -0.000240521
-0.000859763 0.00236335 -8.333e-05
-0.000240521 -8.333e-05 0.000668851
-0.00139401 -0.00127006 0.00015747
-0.00127006 0.00207199 1.19965e-05
0.00015747 1.19965e-05 -0.000785273
-0.000506522 -0.00112349 5.72514e-05
-0.00112349 0.000137451 0.000190037
5.72514e-05 0.000190037 -0.000424388
0.0114027 0.00155163 -8.12411e-06
0.00155163 0.00490548 2.31033e-06
-8.12411e-06 2.31033e-06 0.00152477
-0.000522549 0.0002827 -1.93758e-05
0.0002827 -0.000399336 -2.65222e-05
-1.93758e-05 -2.65222e-05 -0.000597163
0.00166221 0.000848923 -2.52695e-05
0.000848923 0.000347185 -1.20931e-05
-2.52695e-05 -1.20931e-05 0.000402206
0.0115242 0.00137485 2.45178e-05
0.00137485 0.00356522 2.44815e-05
2.45178e-05 2.44815e-05 0.00151865
0.00602886 0.00175393 -4.35546e-05
0.00175393 0.000910169 -5.87759e-05
-4.35546e-05 -5.87759e-05 0.000530594
0.00156571 0.000699368 5.69476e-06
0.000699368 0.000126736 -6.167e-06
5.69476e-06 -6.167e-06 -5.11737e-05
0.00115825 0.00053875 5.83447e-06
0.00053875 0.000179663 -4.06088e-07
5.83447e-06 -4.06088e-07 -5.46424e-05
0.000935114 0.000300921 -1.82852e-05
0.000300921 0.000263619 1.63834e-05
-1.82852e-05 1.63834e-05 0.000130104
0.00265729 0.000867736 -4.91148e-05
0.000867736 0.000775569 -1.95671e-05
-4.91148e-05 -1.95671e-05 0.000397549
0.00185763 0.000983713 3.15797e-06
0.000983713 -0.000306962 1.94603e-05
3.15797e-06 1.94603e-05 -0.000466411
0.0011247 -0.000378841 -4.422e-05
-0.000378841 -0.00336718 2.66692e-05
-4.422e-05 2.66692e-05 -0.00359889
0.00193099 -0.000614819 1.04559e-07
-0.000614819 0.0012754 -2.41361e-05
1.04559e-07 -2.41361e-05 0.00132936
-0.00631354 1.3385e-05 0.000181165
1.3385e-05 0.00264277 -5.03229e-06
0.000181165 -5.03229e-06 -0.000763823
0.00159544 -0.000927698 -2.72551e-05
-0.000927698 3.9436e-05 6.51391e-06
-2.72551e-05 6.51391e-06 -0.000287694
0.00323229 -0.00138782 3.77484e-05
-0.00138782 0.000408004 -9.05795e-07
3.77484e-05 -9.05795e-07 -0.000354101
0.00127291 -0.000303961 0.000328831
-0.000303961 0.00229535 -3.59694e-05
0.000328831 -3.59694e-05 0.00121778
0.0128667 -0.00075809 -0.000157931
-0.00075809 0.00326357 7.23297e-05
-0.000157931 7.23297e-05 0.00167506
0.00118766 -0.000641745 -3.16794e-05
-0.000641745 -0.000168528 -2.06946e-06
-3.16794e-05 -2.06946e-06 -0.000351656
0.00896592 5.06321e-05 -8.18881e-05
5.06321e-05 0.000799835 3.32164e-05
-8.18881e-05 3.32164e-05 -0.000283492
0.00497307 -0.00091495 8.3185e-05
-0.00091495 -0.000124919 6.86032e-06
8.3185e-05 6.86032e-06 -0.000263061
0.00370143 -0.000639392 5.9081e-05
-0.000639392 0.00101581 -1.6782e-05
5.9081e-05 -1.6782e-05 0.000678338
0.00312058 -0.00033628 -8.39011e-05
-0.00033628 -0.000328594 6.87701e-06
-8.39011e-05 6.87701e-06 -0.000196176
-0.00264987 -0.00016399 -1.39276e-05
-0.00016399 -0.00222711 5.04636e-06
-1.39276e-05 5.04636e-06 -0.00218942
0.00152172 -0.00049496 -1.53086e-06
-0.00049496 -0.000172757 -3.80637e-07
-1.53086e-06 -3.80637e-07 -0.000206511
0.0025438 -0.000446143 1.92849e-05
-0.000446143 0.00022874 -9.68561e-06
1.92849e-05 -9.68561e-06 0.000261091
0.00110487 -0.000509437 -3.12568e-06
-0.000509437 -0.000192686 3.81811e-06
-3.12568e-06 3.81811e-06 -0.000407679
0.00181689 -0.000483677 -2.13885e-06
-0.000483677 -1.34932e-05 5.82708e-07
-2.13885e-06 5.82708e-07 -0.000155324
0.00206862 -0.00038626 2.30416e-06
-0.00038626 1.74008e-05 5.73061e-07
2.30416e-06 5.73061e-07 -3.48133e-05
0.00195625 -0.000495132 -5.25368e-06
-0.000495132 0.000181302 6.98406e-06
-5.25368e-06 6.98406e-06 -3.79682e-05
0.00189784 -0.000379562 3.21714e-07
-0.000379562 6.5565e-05 1.74615e-06
3.21714e-07 1.74615e-06 -6.01247e-05
0.00189306 -0.000341913 -2.91765e-07
-0.000341913 7.12379e-05 2.04856e-06
-2.91765e-07 2.04856e-06 -1.70255e-05
0.00170926 -0.000360445 3.64706e-06
-0.000360445 8.12328e-05 5.76883e-06
3.64706e-06 5.76883e-06 -8.69768e-05
0.00177985 -0.000316457 -3.94595e-07
-0.000316457 6.18401e-05 1.47802e-06
-3.94595e-07 1.47802e-06 -5.67782e-05
0.00199354 -0.000323496 -1.38675e-06
-0.000323496 0.000195421 5.99787e-07
-1.38675e-06 5.99787e-07 8.78395e-05
0.00186834 -0.000294462 -4.07758e-06
-0.000294462 0.000172914 3.50068e-06
-4.07758e-06 3.50068e-06 5.62752e-05
0.00190316 -0.000304116 8.94822e-07
-0.000304116 0.000223289 -3.00425e-06
8.94822e-07 -3.00425e-06 9.03946e-05
0.0018201 -0.000307725 3.405e-06
-0.000307725 0.000136429 7.89079e-06
3.405e-06 7.89079e-06 -2.96727e-06
0.00178187 -0.000321472 3.28916e-07
-0.000321472 0.000157076 -8.29306e-07
3.28916e-07 -8.29306e-07 -7.29364e-06
0.00170517 -0.000322425 -1.79699e-06
-0.000322425 0.000141787 -3.42579e-06
-1.79699e-06 -3.42579e-06 -4.02328e-05
0.00163869 -0.000340759 -5.22171e-06
-0.000340759 0.000215387 -1.20466e-06
-5.22171e-06 -1.20466e-06 -4.62793e-06
0.00174389 -0.000378959 2.48142e-07
-0.000378959 0.000207196 -2.54376e-07
2.48142e-07 -2.54376e-07 -1.58442e-05
0.00184572 -0.000395155 5.05291e-06
-0.000395155 0.000230927 2.92669e-06
5.05291e-06 2.92669e-06 1.07317e-05
0.00117261 -0.000255453 -7.43764e-06
-0.000255453 0.00010324 2.75011e-06
-7.43764e-06 2.75011e-06 -0.000102157
0.00140746 -0.000343077 -9.97634e-07
-0.000343077 0.000171848 2.16382e-07
-9.97634e-07 2.16382e-07 -6.898e-05
0.00147631 -0.000404198 2.99731e-06
-0.000404198 0.000131468 9.10348e-07
2.99731e-06 9.10348e-07 -0.000129293
0.000823206 -0.000175389 -7.98294e-06
-0.000175389 4.15539e-05 6.35722e-06
-7.98294e-06 6.35722e-06 -0.000129505
0.00112486 -0.000253462 7.04655e-07
-0.000253462 0.000140372 3.24646e-07
7.04655e-07 3.24646e-07 -7.01016e-05
0.00110111 -0.000301436 3.47484e-06
-0.000301436 6.57877e-05 -1.24396e-06
3.47484e-06 -1.24396e-06 -0.000171365
0.000393286 -0.000102401 -1.77409e-05
-0.000102401 -0.000135788 1.3609e-05
-1.77409e-05 1.3609e-05 -0.000207199
0.000801087 -0.000177317 -4.31725e-07
-0.000177317 0.000101268 3.78826e-07
-4.31725e-07 3.78826e-07 -7.25673e-05
0.0010894 -0.000235641 2.60112e-06
-0.000235641 0.000200252 -1.75988e-06
2.60112e-06 -1.75988e-06 -5.75548e-06
0.00388927 0.000178411 -8.44733e-05
0.000178411 0.00202909 3.27063e-06
-8.44733e-05 3.27063e-06 0.00201383
0.000552524 -4.83504e-05 1.33892e-06
-4.83504e-05 -1.56775e-05 -3.59649e-07
1.33892e-06 -3.59649e-07 -7.63265e-05
0.000884142 -0.000168124 4.94818e-06
-0.000168124 0.000201378 -4.48671e-06
4.94818e-06 -4.48671e-06 3.14029e-05
0.00337452 0.000147717 1.01125e-05
0.000147717 0.00171319 3.28663e-07
1.01125e-05 3.28663e-07 0.0017063
0.000719183 -2.3407e-06 7.67925e-06
-2.3407e-06 9.50593e-05 -9.73002e-06
7.67925e-06 -9.73002e-06 4.79383e-05
0.00300091 0.000126991 6.69583e-05
0.000126991 0.00148226 -2.23864e-06
6.69583e-05 -2.23864e-06 0.00148125
0.00085657 0.000229745 4.43033e-06
0.000229745 9.22314e-05 -4.22827e-06
4.43033e-06 -4.22827e-06 -0.00011456
0.000860306 0.000171212 1.37253e-06
0.000171212 0.000166202 -2.85648e-07
1.37253e-06 -2.85648e-07 1.46572e-05
0.000324823 6.59327e-05 1.11182e-06
6.59327e-05 -0.000136675 -6.88777e-07
1.11182e-06 -6.88777e-07 -0.000275837
0.000133195 3.56501e-05 -6.72605e-07
3.56501e-05 -0.000248431 -1.44652e-06
-6.72605e-07 -1.44652e-06 -0.000368503
0.000496771 3.21692e-05 -2.88e-07
3.21692e-05 -2.67975e-05 7.69711e-07
-2.88e-07 7.69711e-07 -0.000156151
0.000679809 2.66386e-05 -1.39047e-06
2.66386e-05 7.07746e-05 -5.00817e-06
-1.39047e-06 -5.00817e-06 -3.07978e-05
0.000591669 2.19991e-05 -6.78768e-08
2.19991e-05 2.72199e-05 2.27401e-06
-6.78768e-08 2.27401e-06 -8.97959e-05
0.000603499 8.61676e-06 3.18689e-07
8.61676e-06 3.00296e-05 -2.40534e-07
3.18689e-07 -2.40534e-07 -6.15775e-05
0.000570814 -2.05651e-05 -3.1089e-06
-2.05651e-05 2.01617e-06 -8.2308e-06
-3.1089e-06 -8.2308e-06 -3.62948e-05
0.00289451 -0.000111787 -5.62078e-05
-0.000111787 0.00140648 -3.5114e-06
-5.62078e-05 -3.5114e-06 0.00140849
0.000504435 -1.89219e-05 2.95722e-07
-1.89219e-05 -4.27787e-05 -6.19627e-08
2.95722e-07 -6.19627e-08 -7.5946e-05
0.000570266 1.1232e-05 7.85794e-07
1.1232e-05 9.06636e-06 4.07997e-06
7.85794e-07 4.07997e-06 -7.56123e-05
0.00275034 -9.84972e-05 -5.8349e-06
-9.84972e-05 0.00131115 4.53625e-07
-5.8349e-06 4.53625e-07 0.00131607
0.000468618 -2.52306e-05 2.74927e-07
-2.52306e-05 -6.82305e-05 6.25278e-06
2.74927e-07 6.25278e-06 -9.70963e-05
0.00257661 -8.22919e-05 3.20515e-05
-8.22919e-05 0.00119923 4.29714e-06
3.20515e-05 4.29714e-06 0.00120768
0.0120618 0.000549239 0.000237354
0.000549239 0.0026482 6.74333e-05
0.000237354 6.74333e-05 0.00176595
-0.00327133 -0.00115265 -0.000172714
-0.00115265 -0.00264467 -2.64572e-05
-0.000172714 -2.64572e-05 -0.00308481
-0.00616721 0.000548676 -8.47353e-05
0.000548676 0.00122691 -4.93314e-05
-8.47353e-05 -4.93314e-05 -0.00269168
0.000499818 2.9032e-05 1.1143e-05
2.9032e-05 -4.23595e-05 1.71443e-06
1.1143e-05 1.71443e-06 -0.000195972
0.00099747 0.000212594 -5.29669e-06
0.000212594 0.000282721 1.22106e-06
-5.29669e-06 1.22106e-06 0.000121798
0.00133382 0.000242443 -1.11756e-06
0.000242443 0.000498073 -1.36861e-06
-1.11756e-06 -1.36861e-06 0.000302399
0.00147549 0.000315187 -4.16151e-06
0.000315187 0.000475684 1.1902e-06
-4.16151e-06 1.1902e-06 0.000243953
0.000710446 0.000284778 1.30586e-05
0.000284778 -0.00012744 2.77075e-06
1.30586e-05 2.77075e-06 -0.000378235
6.6027e-05 0.000193463 2.54125e-06
0.000193463 -0.000315002 -1.80268e-06
2.54125e-06 -1.80268e-06 -0.000514838
0.00025251 0.000156113 -4.25929e-06
0.000156113 -9.72962e-05 -2.66836e-06
-4.25929e-06 -2.66836e-06 -0.000292996
0.000332151 0.000242961 1.57584e-06
0.000242961 -0.000183378 1.82182e-06
1.57584e-06 1.82182e-06 -0.000398058
0.00125712 0.000351777 -5.22434e-07
0.000351777 0.000283579 1.13832e-06
-5.22434e-07 1.13832e-06 0.00013876
0.000642966 0.000351893 5.88191e-06
0.000351893 -0.000168821 2.30646e-06
5.88191e-06 2.30646e-06 -0.00036996
0.00291096 0.000629356 -8.76418e-07
0.000629356 0.000878418 -2.41505e-06
-8.76418e-07 -2.41505e-06 0.000686079
0.00204125 0.00061753 -7.98498e-07
0.00061753 0.000355503 6.43504e-06
-7.98498e-07 6.43504e-06 0.000154602
0.00136833 0.000528554 4.14338e-06
0.000528554 7.85323e-05 -4.00021e-06
4.14338e-06 -4.00021e-06 -0.000113273
0.000306954 0.000260537 -3.6618e-06
0.000260537 -0.000161447 1.10192e-06
-3.6618e-06 1.10192e-06 -0.000297016
0.00588875 0.000798358 -9.78275e-06
0.000798358 0.000239504 1.18238e-05
-9.78275e-06 1.18238e-05 0.000621121
0.0102087 0.000959211 0.000123495
0.000959211 0.00178927 6.01205e-05
0.000123495 6.01205e-05 0.000115912
0.00632459 -0.0017671 0.000140986
-0.0017671 0.00343914 -5.38288e-05
0.000140986 -5.38288e-05 0.00239844
0.00370714 0.00179997 0.000367029
0.00179997 -0.000210378 0.000188051
0.000367029 0.000188051 -0.0038546
0.000705642 0.000639248 -5.73659e-05
0.000639248 4.97333e-05 -7.0139e-06
-5.73659e-05 -7.0139e-06 0.00025055
0.00341502 0.0013252 -9.30944e-05
0.0013252 -0.000121415 -2.82496e-05
-9.30944e-05 -2.82496e-05 -0.000222743
0.00431758 0.00110429 4.65199e-05
0.00110429 0.000807995 1.93845e-05
4.65199e-05 1.93845e-05 0.000728863
0.00322464 0.000864378 1.08741e-05
0.000864378 0.000868433 4.7785e-06
1.08741e-05 4.7785e-06 0.000679936
0.000667993 0.000463713 -1.25933e-05
0.000463713 -2.71205e-05 1.73291e-05
-1.25933e-05 1.73291e-05 -0.000243642
0.00464372 0.00123382 -0.000136436
0.00123382 0.00101207 -2.33186e-05
-0.000136436 -2.33186e-05 0.000790659
0.00301036 -0.000250023 -5.04929e-05
-0.000250023 0.000373222 6.05136e-06
-5.04929e-05 6.05136e-06 0.000268721
0.0101982 -0.000323525 -1.42554e-05
-0.000323525 0.00239113 5.61053e-06
-1.42554e-05 5.61053e-06 0.00184474
-0.0100238 -0.00089223 0.000358551
-0.00089223 -0.00553234 -6.64411e-06
0.000358551 -6.64411e-06 -0.00519743
0.000109834 -0.000573503 -4.88366e-05
-0.000573503 -0.000809333 1.3561e-05
-4.88366e-05 1.3561e-05 -0.000926259
0.00733199 -0.00120348 0.000100499
-0.00120348 0.000907621 4.15422e-05
0.000100499 4.15422e-05 0.000903869
0.00163278 -0.000347007 -4.19313e-05
-0.000347007 -0.0022728 5.98676e-05
-4.19313e-05 5.98676e-05 -0.00393081
0.00166453 -0.000467769 1.57016e-05
-0.000467769 -0.000139216 1.62433e-06
1.57016e-05 1.62433e-06 -0.000279228
0.00319624 -0.000213291 -1.08021e-05
-0.000213291 -0.000322969 4.14391e-06
-1.08021e-05 4.14391e-06 -0.000277417
0.00439414 -0.000462522 2.70372e-05
-0.000462522 0.000997032 -1.26383e-05
2.70372e-05 -1.26383e-05 0.00110627
0.00374457 -0.000120774 7.16602e-05
-0.000120774 0.000863269 2.09852e-06
7.16602e-05 2.09852e-06 0.000817385
-0.000726558 -0.000360535 -6.93792e-06
-0.000360535 -0.00138591 7.09242e-06
-6.93792e-06 7.09242e-06 -0.00137226
0.0018074 -0.00040775 -5.36639e-07
-0.00040775 -0.000169842 4.40654e-07
-5.36639e-07 4.40654e-07 -0.000119962
0.00187787 -0.000291022 1.52667e-05
-0.000291022 -0.000212962 -3.55469e-06
1.52667e-05 -3.55469e-06 -7.92605e-05
0.00153883 -0.000455309 -5.47023e-07
-0.000455309 -0.000149315 3.04614e-06
-5.47023e-07 3.04614e-06 -0.000288371
0.00200819 -0.000385096 1.69069e-06
-0.000385096 -1.29874e-05 6.9719e-07
1.69069e-06 6.9719e-07 -6.58201e-05
0.00195135 -0.000320536 8.6812e-07
-0.000320536 2.95504e-05 7.7463e-07
8.6812e-07 7.7463e-07 6.39322e-06
0.00189128 -0.000377744 2.69831e-06
-0.000377744 6.13285e-05 3.84576e-06
2.69831e-06 3.84576e-06 -6.18922e-05
0.00189475 -0.000337676 7.04682e-07
-0.000337676 8.10007e-05 3.55939e-07
7.04682e-07 3.55939e-07 -6.06359e-06
0.0019637 -0.000305692 -2.77327e-06
-0.000305692 0.000127183 1.68689e-06
-2.77327e-06 1.68689e-06 4.63853e-05
0.00178538 -0.000319234 4.45955e-06
-0.000319234 6.34912e-05 3.36769e-06
4.45955e-06 3.36769e-06 -5.61531e-05
0.00184859 -0.000316733 2.1299e-07
-0.000316733 0.000120152 4.23669e-07
2.1299e-07 4.23669e-07 1.26099e-05
0.001726 -0.00029299 2.38684e-06
-0.00029299 8.45843e-05 -1.28901e-06
2.38684e-06 -1.28901e-06 -3.03258e-05
0.0017249 -0.000288998 -1.37127e-06
-0.000288998 8.06655e-05 6.57629e-06
-1.37127e-06 6.57629e-06 -3.25547e-05
0.00191021 -0.000300786 -2.23074e-06
-0.000300786 0.000223648 2.3071e-07
-2.23074e-06 2.3071e-07 9.4525e-05
0.00184925 -0.000299615 4.17197e-07
-0.000299615 0.00021148 -2.01097e-06
4.17197e-07 -2.01097e-06 5.56353e-05
0.00178389 -0.000321591 3.066e-06
-0.000321591 0.000156758 3.73638e-06
3.066e-06 3.73638e-06 -7.86603e-06
0.00175315 -0.000326462 4.90589e-07
-0.000326462 0.000171575 -5.75256e-07
4.90589e-07 -5.75256e-07 -1.1728e-05
0.00174891 -0.00030667 -2.02641e-06
-0.00030667 0.000232995 -1.69966e-06
-2.02641e-06 -1.69966e-06 4.12095e-05
0.00124699 -0.000253878 -9.12252e-06
-0.000253878 8.84493e-05 2.39351e-06
-9.12252e-06 2.39351e-06 -0.000109557
0.00163599 -0.000341495 -1.01767e-06
-0.000341495 0.000217626 -3.18827e-07
-1.01767e-06 -3.18827e-07 -3.92913e-06
0.00178259 -0.000382935 4.2038e-06
-0.000382935 0.000231946 1.15464e-06
4.2038e-06 1.15464e-06 7.46806e-06
0.00092353 -0.000187615 -1.10073e-05
-0.000187615 3.97544e-05 6.34049e-06
-1.10073e-05 6.34049e-06 -0.000127416
0.00118855 -0.000259115 -6.65544e-08
-0.000259115 0.000107278 1.24319e-07
-6.65544e-08 1.24319e-07 -9.91345e-05
0.00126076 -0.000328863 2.48349e-06
-0.000328863 8.7067e-05 -2.50236e-07
2.48349e-06 -2.50236e-07 -0.000152072
0.00043415 -0.00013033 -1.95045e-05
-0.00013033 -0.000134724 1.4657e-05
-1.95045e-05 1.4657e-05 -0.000216978
0.00083301 -0.000179377 5.55405e-07
-0.000179377 5.00121e-05 3.95028e-07
5.55405e-07 3.95028e-07 -0.000122106
0.00119707 -0.000261209 6.77544e-06
-0.000261209 0.000181288 -2.44289e-06
6.77544e-06 -2.44289e-06 -3.11282e-05
0.00472196 0.000192011 -0.00012572
0.000192011 0.00253072 6.88701e-06
-0.00012572 6.88701e-06 0.00251055
0.00055198 -0.000106033 -4.84341e-07
-0.000106033 -4.10565e-05 -3.04339e-07
-4.84341e-07 -3.04339e-07 -0.000117029
0.000748396 -0.000188999 7.16078e-06
-0.000188999 6.83625e-05 -5.5261e-06
7.16078e-06 -5.5261e-06 -0.000106183
0.0041382 0.000147804 1.07166e-05
0.000147804 0.00217099 5.8438e-07
1.07166e-05 5.8438e-07 0.00216286
0.000718817 -5.81235e-05 1.35264e-05
-5.81235e-05 8.00198e-05 -1.18814e-05
1.35264e-05 -1.18814e-05 1.76572e-05
0.00356019 0.000111599 0.000112709
0.000111599 0.00181685 -5.13311e-06
0.000112709 -5.13311e-06 0.00181864
0.00114319 0.000283217 -3.79898e-06
0.000283217 0.000157297 -4.01423e-06
-3.79898e-06 -4.01423e-06 -7.79446e-05
0.00143084 0.000282897 1.21542e-06
0.000282897 0.000439729 6.76792e-07
1.21542e-06 6.76792e-07 0.000223496
0.0006724 0.000167259 3.47472e-07
0.000167259 2.39956e-05 -5.95487e-06
3.47472e-07 -5.95487e-06 -0.000160065
0.000699732 0.000180491 -2.93129e-06
0.000180491 8.32078e-05 -4.34369e-07
-2.93129e-06 -4.34369e-07 -7.5613e-05
0.000364549 7.65716e-05 5.98286e-07
7.65716e-05 -0.000114793 -5.41299e-07
5.98286e-07 -5.41299e-07 -0.000258998
0.00077506 0.000108719 -2.50595e-06
0.000108719 0.000135418 -5.4708e-06
-2.50595e-06 -5.4708e-06 5.11067e-06
0.000343006 9.79138e-06 -2.2148e-08
9.79138e-06 -0.000123954 1.6927e-06
-2.2148e-08 1.6927e-06 -0.000247835
0.000628907 2.51714e-05 -2.22763e-08
2.51714e-05 4.26177e-05 -2.4101e-07
-2.22763e-08 -2.4101e-07 -5.91307e-05
0.000582497 -1.47651e-05 -4.22328e-06
-1.47651e-05 1.28888e-05 -9.247e-06
-4.22328e-06 -9.247e-06 -3.07128e-05
0.000545749 5.17413e-06 7.69169e-07
5.17413e-06 -3.7803e-06 4.78299e-06
7.69169e-07 4.78299e-06 -9.45829e-05
0.000505213 -1.80332e-05 2.86231e-07
-1.80332e-05 -3.64451e-05 -9.06101e-08
2.86231e-07 -9.06101e-08 -7.42787e-05
0.00304894 -0.000123988 -6.84183e-05
-0.000123988 0.00150808 -3.03149e-06
-6.84183e-05 -3.03149e-06 0.00150719
0.00286302 -0.000113039 -4.80702e-06
-0.000113039 0.00138708 4.66221e-07
-4.80702e-06 4.66221e-07 0.00138858
0.000468133 -9.75209e-06 3.2282e-06
-9.75209e-06 -6.48846e-05 7.22218e-06
3.2282e-06 7.22218e-06 -9.72476e-05
0.00270206 -9.78858e-05 3.936e-05
-9.78858e-05 0.00128176 4.02489e-06
3.936e-05 4.02489e-06 0.00128669
0.0037317 5.79923e-05 4.08342e-05
5.79923e-05 -0.000328504 1.38699e-05
4.08342e-05 1.38699e-05 1.26218e-05
0.00323914 -0.00061299 7.68664e-05
-0.00061299 -0.00251145 3.63805e-05
7.68664e-05 3.63805e-05 -0.00360839
0.00833246 -0.00120124 -0.000106538
-0.00120124 0.00311788 -6.33089e-05
-0.000106538 -6.33089e-05 0.00336946
0.00113648 0.000357826 6.69801e-06
0.000357826 -5.17243e-06 4.91152e-06
6.69801e-06 4.91152e-06 -0.000258906
0.0017814 0.000285008 2.6112e-07
0.000285008 0.000746524 1.97949e-06
2.6112e-07 1.97949e-06 0.000544018
0.00166319 0.000330844 -5.73611e-06
0.000330844 0.000598933 7.35638e-06
-5.73611e-06 7.35638e-06 0.000366186
0.000783002 0.000270276 1.73417e-06
0.000270276 9.45327e-05 2.47306e-06
1.73417e-06 2.47306e-06 -0.000122819
0.00122192 0.00033407 -1.46392e-06
0.00033407 0.000188455 -1.17187e-06
-1.46392e-06 -1.17187e-06 -7.47412e-05
0.00118146 0.000402921 9.24003e-06
0.000402921 0.000118643 7.0283e-06
9.24003e-06 7.0283e-06 -0.000120536
0.00107359 0.000323817 -9.27017e-06
0.000323817 0.000222732 -4.40451e-06
-9.27017e-06 -4.40451e-06 -1.69014e-05
0.00065861 0.000317744 2.99911e-06
0.000317744 -4.3339e-05 3.69305e-06
2.99911e-06 3.69305e-06 -0.000192265
0.00126664 0.000416406 2.1913e-06
0.000416406 0.000171266 -1.16725e-06
2.1913e-06 -1.16725e-06 -4.02206e-05
0.00212945 0.00055966 2.76693e-06
0.00055966 0.000441548 6.15858e-06
2.76693e-06 6.15858e-06 0.00026708
0.00172038 0.000557367 4.67174e-06
0.000557367 0.000144744 9.37451e-07
4.67174e-06 9.37451e-07 -6.67426e-05
0.00176006 0.000521992 8.31391e-06
0.000521992 0.000182874 7.35013e-06
8.31391e-06 7.35013e-06 3.7764e-05
0.00121439 0.000547535 -3.26773e-06
0.000547535 -8.5384e-05 -2.7192e-06
-3.26773e-06 -2.7192e-06 -0.000274276
0.000617499 0.000454816 -3.34658e-06
0.000454816 -0.000311483 -1.36132e-06
-3.34658e-06 -1.36132e-06 -0.000476503
0.00161466 0.00044441 3.40556e-05
0.00044441 -0.00028604 3.53848e-05
3.40556e-05 3.53848e-05 -0.000205569
0.00534662 0.00089441 -5.80326e-05
0.00089441 -0.000307925 -1.63359e-05
-5.80326e-05 -1.63359e-05 6.10411e-05
0.00242235 0.000602647 0.000322908
0.000602647 -0.00238829 4.54491e-05
0.000322908 4.54491e-05 -0.00424936
0.000252698 0.000959497 -3.35337e-05
0.000959497 -0.00140714 -2.63262e-05
-3.35337e-05 -2.63262e-05 -0.00141078
0.00297675 0.000888844 -2.74819e-05
0.000888844 0.000420106 -3.98485e-06
-2.74819e-05 -3.98485e-06 0.000334741
0.00278058 0.000816403 -7.37989e-05
0.000816403 0.000636116 -2.49821e-05
-7.37989e-05 -2.49821e-05 0.00044438
0.00238434 -0.000208077 -2.1871e-05
-0.000208077 -3.76218e-05 -1.09696e-05
-2.1871e-05 -1.09696e-05 4.40041e-06
0.000719129 -9.77189e-05 2.18582e-05
-9.77189e-05 -0.000279872 7.1326e-06
2.18582e-05 7.1326e-06 -0.000337559
0.00129857 0.000777946 0.000104826
0.000777946 -0.00348351 -1.93713e-05
0.000104826 -1.93713e-05 -0.00385429
-0.000417145 -0.000302749 -2.18815e-05
-0.000302749 -0.00128836 3.42568e-05
-2.18815e-05 3.42568e-05 -0.00122591
0.00413186 -0.000187835 -5.34881e-05
-0.000187835 0.000152126 3.92235e-05
-5.34881e-05 3.92235e-05 -0.00010329
0.00227826 -0.000337124 -1.79753e-05
-0.000337124 -9.26278e-05 6.68191e-06
-1.79753e-05 6.68191e-06 5.24631e-05
0.00330425 -0.000168321 -3.49615e-07
-0.000168321 0.000567394 -3.72297e-06
-3.49615e-07 -3.72297e-06 0.00052463
0.00162982 -0.00019201 3.45296e-05
-0.00019201 -0.000398561 -2.5665e-06
3.45296e-05 -2.5665e-06 -0.000219638
0.0033136 -4.87607e-05 2.77843e-05
-4.87607e-05 0.000996404 3.15075e-07
2.77843e-05 3.15075e-07 0.000956856
0.00108635 -0.000365163 -1.86922e-05
-0.000365163 -0.000546954 8.66432e-06
-1.86922e-05 8.66432e-06 -0.000484506
0.00184131 -0.000301601 2.16513e-07
-0.000301601 -0.00025071 2.14786e-06
2.16513e-07 2.14786e-06 -0.00012907
0.0020392 -0.000288813 2.35439e-06
-0.000288813 -7.42945e-05 -1.05499e-06
2.35439e-06 -1.05499e-06 1.05565e-05
0.0019271 -0.000380345 -6.26e-07
-0.000380345 -5.0354e-05 2.24096e-06
-6.26e-07 2.24096e-06 -0.000103587
0.00195374 -0.000324971 3.94736e-07
-0.000324971 3.11325e-05 1.52782e-08
3.94736e-07 1.52782e-08 3.99083e-06
0.0019765 -0.000284118 -1.93869e-06
-0.000284118 7.27707e-05 3.36886e-07
-1.93869e-06 3.36886e-07 2.49688e-05
0.0018973 -0.000333782 3.72197e-07
-0.000333782 9.18284e-05 1.92185e-07
3.72197e-07 1.92185e-07 5.55761e-06
0.00188273 -0.000308463 -6.11789e-07
-0.000308463 8.57128e-05 4.83873e-08
-6.11789e-07 4.83873e-08 1.46459e-06
0.0018317 -0.000272512 -3.94654e-07
-0.000272512 0.000108273 5.86112e-07
-3.94654e-07 5.86112e-07 8.71328e-06
0.00168529 -0.000308994 6.01498e-07
-0.000308994 3.44909e-05 5.48349e-07
6.01498e-07 5.48349e-07 -7.30042e-05
0.00175518 -0.000294846 8.77858e-07
-0.000294846 9.87401e-05 -7.12467e-07
8.77858e-07 -7.12467e-07 -1.66296e-05
0.0017806 -0.000282158 1.61094e-06
-0.000282158 0.000134162 -2.04885e-06
1.61094e-06 -2.04885e-06 -7.21833e-07
0.00191654 -0.000297249 -4.19802e-06
-0.000297249 0.000224061 4.73012e-06
-4.19802e-06 4.73012e-06 9.8744e-05
0.0019084 -0.0003007 -1.48071e-06
-0.0003007 0.000243055 4.09852e-07
-1.48071e-06 4.09852e-07 9.0811e-05
0.00175206 -0.000279305 -1.27056e-06
-0.000279305 0.000204286 -1.3201e-06
-1.27056e-06 -1.3201e-06 3.12051e-05
0.00180245 -0.000330941 2.70573e-06
-0.000330941 0.000202008 2.02443e-06
2.70573e-06 2.02443e-06 1.73196e-05
0.00173876 -0.000308274 8.35369e-07
-0.000308274 0.00022762 -5.99853e-07
8.35369e-07 -5.99853e-07 3.49117e-05
0.00135284 -0.000236909 -7.22147e-06
-0.000236909 0.000109754 1.72391e-06
-7.22147e-06 1.72391e-06 -7.61234e-05
0.000921954 -0.000177925 -1.22619e-05
-0.000177925 2.44989e-06 6.31608e-06
-1.22619e-05 6.31608e-06 -0.000156595
0.00122365 -0.000252038 -1.29428e-06
-0.000252038 7.62069e-05 2.90684e-07
-1.29428e-06 2.90684e-07 -0.000122159
0.0016365 -0.000342602 3.19749e-06
-0.000342602 0.000221686 -5.38459e-08
3.19749e-06 -5.38459e-08 -1.48858e-06
0.000511363 -0.000183518 -2.19765e-05
-0.000183518 -9.30468e-05 1.52905e-05
-2.19765e-05 1.52905e-05 -0.000192897
0.000867179 -0.000184405 5.23729e-07
-0.000184405 8.16703e-06 8.65084e-08
5.23729e-07 8.65084e-08 -0.000158852
0.00122547 -0.000264355 6.81384e-06
-0.000264355 0.000124252 -2.27104e-06
6.81384e-06 -2.27104e-06 -8.3391e-05
0.00530169 0.000171997 -0.000157442
0.000171997 0.00286743 9.38606e-06
-0.000157442 9.38606e-06 0.00284987
0.000553165 -0.000168609 -1.22527e-06
-0.000168609 -5.86673e-05 1.74375e-07
-1.22527e-06 1.74375e-07 -0.000149934
0.000786913 -0.000181907 9.40744e-06
-0.000181907 2.54275e-05 -6.05038e-06
9.40744e-06 -6.05038e-06 -0.000147773
0.00490649 0.000154583 8.54571e-06
0.000154583 0.00263065 1.06884e-06
8.54571e-06 1.06884e-06 0.00261763
0.000718388 -0.000126727 1.91108e-05
-0.000126727 5.68855e-05 -1.43489e-05
1.91108e-05 -1.43489e-05 -2.36457e-05
0.00438335 0.000113341 0.000148683
0.000113341 0.00230905 -9.31486e-06
0.000148683 -9.31486e-06 0.00230691
0.00122593 0.00031115 -3.427e-06
0.00031115 0.00011459 3.83176e-07
-3.427e-06 3.83176e-07 -0.000124759
0.00121661 0.000289627 -2.26778e-06
0.000289627 0.000203149 -7.9399e-07
-2.26778e-06 -7.9399e-07 -3.30406e-05
0.00115122 0.000243932 -4.88899e-06
0.000243932 0.000215704 -2.35923e-06
-4.88899e-06 -2.35923e-06 4.69706e-06
0.00203901 0.000338933 -2.38115e-06
0.000338933 0.000807413 3.36194e-06
-2.38115e-06 3.36194e-06 0.000581301
0.000898972 0.00018681 -1.40278e-06
0.00018681 0.000160094 -2.11704e-06
-1.40278e-06 -2.11704e-06 -2.79438e-05
0.000971685 0.000168294 -4.33846e-06
0.000168294 0.000246375 -6.22937e-06
-4.33846e-06 -6.22937e-06 8.61695e-05
0.000466675 9.17155e-05 -7.39558e-07
9.17155e-05 -5.77845e-05 1.47781e-07
-7.39558e-07 1.47781e-07 -0.00020693
0.000670027 5.6281e-05 -5.96903e-07
5.6281e-05 6.46879e-05 -3.19723e-07
-5.96903e-07 -3.19723e-07 -5.48597e-05
0.000605603 5.09925e-06 -7.03525e-06
5.09925e-06 2.51683e-05 -1.0464e-05
-7.03525e-06 -1.0464e-05 -2.5795e-05
0.000530833 4.60114e-06 8.38146e-07
4.60114e-06 -1.39914e-05 5.25899e-06
8.38146e-07 5.25899e-06 -0.000114431
0.000497879 -1.83414e-05 3.88587e-07
-1.83414e-05 -3.55602e-05 -1.70489e-07
3.88587e-07 -1.70489e-07 -7.90528e-05
0.00328176 -0.000132038 -8.59202e-05
-0.000132038 0.00165582 -2.88691e-06
-8.59202e-05 -2.88691e-06 0.00165283
0.000443869 -1.58011e-05 3.45129e-06
-1.58011e-05 -7.24695e-05 8.07647e-06
3.45129e-06 8.07647e-06 -0.000109832
0.00301926 -0.000128268 -3.99538e-06
-0.000128268 0.00149033 4.35357e-07
-3.99538e-06 4.35357e-07 0.00148807
0.00286541 -0.00011387 4.86915e-05
-0.00011387 0.00138808 3.70697e-06
4.86915e-05 3.70697e-06 0.00138926
0.000402111 6.28113e-05 1.63107e-05
6.28113e-05 -0.00105894 1.08993e-05
1.63107e-05 1.08993e-05 -0.000911868
0.00484144 4.29496e-05 5.45984e-05
4.29496e-05 0.000198514 1.37068e-06
5.45984e-05 1.37068e-06 0.000456874
0.0113235 0.000691961 -7.13974e-05
0.000691961 0.00300561 -1.72612e-05
-7.13974e-05 -1.72612e-05 0.00206054
0.0015478 0.000445464 3.56192e-06
0.000445464 0.00019546 2.8477e-06
3.56192e-06 2.8477e-06 -5.08508e-05
0.00179635 0.000450881 2.76565e-06
0.000450881 0.000257701 2.25658e-06
2.76565e-06 2.25658e-06 2.29019e-05
0.00121699 0.000371916 8.95219e-07
0.000371916 5.10768e-05 -2.12975e-06
8.95219e-07 -2.12975e-06 -0.00020406
0.00131631 0.000329126 -2.82611e-06
0.000329126 0.000394346 2.64649e-06
-2.82611e-06 2.64649e-06 0.000163431
0.00173356 0.000382178 -1.79716e-06
0.000382178 0.000504328 -1.38192e-06
-1.79716e-06 -1.38192e-06 0.00022913
0.00147826 0.000431555 7.12881e-06
0.000431555 0.000270148 1.13521e-06
7.12881e-06 1.13521e-06 2.89194e-05
0.00168663 0.000518134 -1.61843e-06
0.000518134 0.000102073 -1.49213e-06
-1.61843e-06 -1.49213e-06 -0.000118273
0.00193076 0.000484855 -7.75457e-06
0.000484855 0.000530897 3.75724e-07
-7.75457e-06 3.75724e-07 0.000308734
0.00129027 0.000486742 8.43472e-06
0.000486742 -2.60917e-05 1.52589e-05
8.43472e-06 1.52589e-05 -0.000183709
0.00220544 0.000596047 -2.50918e-06
0.000596047 0.00041243 1.02146e-06
-2.50918e-06 1.02146e-06 0.000197693
0.00195376 0.000519212 -9.28365e-06
0.000519212 0.000160164 2.93151e-07
-9.28365e-06 2.93151e-07 -1.36819e-05
0.000687894 0.000265314 1.71195e-05
0.000265314 -0.000509339 9.34807e-06
1.71195e-05 9.34807e-06 -0.000537592
0.000945067 0.000458595 1.0599e-05
0.000458595 -0.000233257 -1.61956e-07
1.0599e-05 -1.61956e-07 -0.000372526
0.00115346 0.000534298 -1.40652e-05
0.000534298 -0.000123401 -1.01237e-05
-1.40652e-05 -1.01237e-05 -0.00030857
0.00207499 0.000460776 4.06232e-06
0.000460776 -4.79667e-05 7.54114e-06
4.06232e-06 7.54114e-06 -2.25438e-05
0.00554747 0.0005933 2.35558e-05
0.0005933 -0.000118936 -2.28469e-05
2.35558e-05 -2.28469e-05 -0.000109077
0.00303931 0.000775207 3.34568e-06
0.000775207 0.000729235 -3.33521e-05
3.34568e-06 -3.33521e-05 0.000663418
0.00150665 -4.64953e-05 2.51184e-05
-4.64953e-05 -4.2506e-05 -2.30088e-06
2.51184e-05 -2.30088e-06 -3.10854e-05
0.00219188 -0.000137686 -2.9386e-05
-0.000137686 -8.14528e-05 3.95627e-07
-2.9386e-05 3.95627e-07 -5.52113e-05
0.00163823 0.000211527 2.46513e-05
0.000211527 -0.000549974 -7.63543e-06
2.46513e-05 -7.63543e-06 -0.000667095
0.000211759 -0.00023457 -3.40609e-05
-0.00023457 -0.00116847 2.67072e-05
-3.40609e-05 2.67072e-05 -0.00100741
0.00336021 -0.000244638 -9.71822e-05
-0.000244638 0.000512677 -1.33045e-06
-9.71822e-05 -1.33045e-06 0.000515903
0.00194631 -0.000221274 4.56416e-06
-0.000221274 -0.000161569 -3.13579e-06
4.56416e-06 -3.13579e-06 -1.3656e-06
0.00236721 -6.00653e-05 -8.35307e-06
-6.00653e-05 0.000396121 4.13506e-07
-8.35307e-06 4.13506e-07 0.000363044
0.00210794 -0.000194093 5.22299e-06
-0.000194093 5.98747e-06 8.2372e-07
5.22299e-06 8.2372e-07 3.63058e-05
0.00205159 -2.19255e-05 6.69556e-06
-2.19255e-05 2.23822e-05 7.63234e-07
6.69556e-06 7.63234e-07 1.10486e-05
0.00182687 -0.000316978 -8.82908e-06
-0.000316978 -0.000286261 3.41139e-06
-8.82908e-06 3.41139e-06 -0.000173961
0.0020635 -0.000288626 -1.90283e-06
-0.000288626 -4.82698e-05 1.48244e-07
-1.90283e-06 1.48244e-07 2.0512e-05
0.00203147 -0.000218533 -1.39799e-06
-0.000218533 6.21757e-06 -6.23758e-07
-1.39799e-06 -6.23758e-07 6.28513e-07
0.00196342 -0.000329812 -1.8497e-06
-0.000329812 3.59636e-05 -3.75796e-07
-1.8497e-06 -3.75796e-07 4.70409e-06
0.00195566 -0.000279546 8.41559e-08
-0.000279546 7.13363e-05 2.58871e-08
8.41559e-08 2.58871e-08 1.82494e-05
0.00194857 -0.000247674 -1.66186e-06
-0.000247674 0.000100632 4.5182e-07
-1.66186e-06 4.5182e-07 2.28675e-05
0.001809 -0.000311428 -7.38055e-07
-0.000311428 4.84099e-05 -1.39077e-06
-7.38055e-07 -1.39077e-06 -3.91644e-05
0.00179456 -0.000270555 4.99995e-07
-0.000270555 8.27192e-05 -1.70357e-07
4.99995e-07 -1.70357e-07 -1.72087e-05
0.00178668 -0.00025332 8.51876e-07
-0.00025332 9.76665e-05 -8.54452e-07
8.51876e-07 -8.54452e-07 -1.7653e-05
0.00178554 -0.0002968 -4.70193e-07
-0.0002968 0.000113518 -1.23357e-07
-4.70193e-07 -1.23357e-07 -2.31487e-06
0.00180097 -0.000282513 -1.03209e-08
-0.000282513 0.000147167 -3.65747e-07
-1.03209e-08 -3.65747e-07 1.22261e-05
0.00169709 -0.00025602 -2.29854e-07
-0.00025602 0.000138727 -1.15925e-06
-2.29854e-07 -1.15925e-06 -1.98161e-05
0.00196656 -0.000301803 -1.74231e-06
-0.000301803 0.00027374 3.62493e-06
-1.74231e-06 3.62493e-06 0.000125098
0.00176251 -0.000280357 -6.27193e-07
-0.000280357 0.000211299 -1.1739e-07
-6.27193e-07 -1.1739e-07 3.91778e-05
0.00135949 -0.000214857 -6.27416e-06
-0.000214857 8.71807e-05 1.50427e-06
-6.27416e-06 1.50427e-06 -8.85051e-05
0.0017308 -0.000309946 3.96594e-06
-0.000309946 0.000223485 6.32446e-07
3.96594e-06 6.32446e-07 2.98511e-05
0.00135317 -0.000238 -2.41152e-07
-0.000238 0.000110409 -3.40146e-08
-2.41152e-07 -3.40146e-08 -7.52875e-05
0.000936535 -0.000161527 -1.34293e-05
-0.000161527 -1.17441e-05 6.1244e-06
-1.34293e-05 6.1244e-06 -0.0001633
0.000439321 -0.000171177 -2.01806e-05
-0.000171177 -0.000146054 1.43908e-05
-2.01806e-05 1.43908e-05 -0.000246333
0.00093024 -0.000178144 2.38063e-07
-0.000178144 6.68096e-06 9.3434e-08
2.38063e-07 9.3434e-08 -0.000152586
0.00119313 -0.00024959 5.74999e-06
-0.00024959 5.96369e-05 -1.70009e-06
5.74999e-06 -1.70009e-06 -0.00013901
0.00567068 0.000100868 -0.000190292
0.000100868 0.00306362 1.04425e-05
-0.000190292 1.04425e-05 0.00305872
0.000536304 -0.000180099 -1.65404e-06
-0.000180099 -8.54807e-05 8.05067e-07
-1.65404e-06 8.05067e-07 -0.000181915
0.000819171 -0.000182334 1.09636e-05
-0.000182334 -1.74009e-05 -6.02585e-06
1.09636e-05 -6.02585e-06 -0.000184479
0.00544649 0.000142561 1.06493e-06
0.000142561 0.00294872 -6.28809e-08
1.06493e-06 -6.28809e-08 0.0029346
0.000646967 -0.000171451 2.23158e-05
-0.000171451 -5.83794e-06 -1.52196e-05
2.23158e-05 -1.52196e-05 -9.87873e-05
0.0051044 0.000132481 0.000169224
0.000132481 0.00274446 -1.23342e-05
0.000169224 -1.23342e-05 0.00273376
0.0014002 0.000357265 -2.38978e-06
0.000357265 0.000143968 1.90487e-06
-2.38978e-06 1.90487e-06 -8.93712e-05
0.00122184 0.000313003 9.84429e-08
0.000313003 0.000109702 4.73118e-07
9.84429e-08 4.73118e-07 -0.000129201
0.0010941 0.000248617 -7.17018e-06
0.000248617 8.25642e-05 -1.96519e-06
-7.17018e-06 -1.96519e-06 -0.000124688
0.00124426 0.000291825 -5.83465e-07
0.000291825 0.000221675 2.53273e-06
-5.83465e-07 2.53273e-06 -1.46151e-05
0.00106101 0.000234358 -1.97409e-06
0.000234358 0.000164641 1.00083e-06
-1.97409e-06 1.00083e-06 -4.44715e-05
0.000928651 0.000189254 -7.34061e-06
0.000189254 0.000167319 -4.93152e-06
-7.34061e-06 -4.93152e-06 -5.93377e-06
0.00106897 0.000201101 -1.07253e-06
0.000201101 0.000263443 1.1629e-06
-1.07253e-06 1.1629e-06 7.22556e-05
0.000711338 0.000133968 -9.14728e-08
0.000133968 9.59289e-05 -1.0791e-07
-9.14728e-08 -1.0791e-07 -5.95232e-05
0.000768349 6.61864e-05 -1.36018e-05
6.61864e-05 0.000113231 -1.29521e-05
-1.36018e-05 -1.29521e-05 4.62258e-05
0.000558542 2.08719e-05 1.11276e-06
2.08719e-05 -2.95783e-06 5.30747e-06
1.11276e-06 5.30747e-06 -0.000116878
0.000494188 -3.85124e-06 -2.60118e-07
-3.85124e-06 -3.81696e-05 -3.25926e-07
-2.60118e-07 -3.25926e-07 -8.86915e-05
0.00368619 -0.000133578 -0.000112268
-0.000133578 0.001904 -4.05297e-06
-0.000112268 -4.05297e-06 0.00189964
0.000426161 -1.89051e-05 3.66815e-06
-1.89051e-05 -7.71889e-05 8.92015e-06
3.66815e-06 8.92015e-06 -0.000120272
0.00320323 -0.000141686 -3.94815e-06
-0.000141686 0.00161005 4.16537e-07
-3.94815e-06 4.16537e-07 0.00160425
0.00297831 -0.00012907 5.70047e-05
-0.00012907 0.0014654 3.30958e-06
5.70047e-05 3.30958e-06 0.00146267
0.000565188 7.34466e-05 2.14783e-05
7.34466e-05 -0.000604114 5.37283e-06
2.14783e-05 5.37283e-06 -0.000533524
0.00208538 4.7601e-05 -8.78576e-06
4.7601e-05 -0.000365565 -1.71571e-06
-8.78576e-06 -1.71571e-06 -0.000195971
0.00423565 6.19651e-05 0.000150384
6.19651e-05 -0.000545615 4.08598e-05
0.000150384 4.08598e-05 0.000119195
0.00229719 0.000516709 -1.8623e-06
0.000516709 0.000463645 8.76663e-08
-1.8623e-06 8.76663e-08 0.000238136
0.00157353 0.000466305 -2.29022e-06
0.000466305 0.000195807 -3.42865e-06
-2.29022e-06 -3.42865e-06 -4.96871e-05
0.00196864 0.00040126 -1.65918e-07
0.00040126 0.000220111 3.29689e-06
-1.65918e-07 3.29689e-06 2.9194e-05
0.00178874 0.000445837 8.28046e-07
0.000445837 0.000250676 2.72652e-07
8.28046e-07 2.72652e-07 1.73595e-05
0.00127481 0.000384627 1.53349e-06
0.000384627 9.16796e-05 -6.89872e-06
1.53349e-06 -6.89872e-06 -0.00016468
0.00184926 0.000422886 -3.70982e-07
0.000422886 7.42203e-05 9.54249e-07
-3.70982e-07 9.54249e-07 -9.56059e-05
0.00189557 0.000472746 -4.06469e-06
0.000472746 0.000492813 -2.10134e-06
-4.06469e-06 -2.10134e-06 0.000246913
0.00194484 0.000530296 5.96514e-08
0.000530296 0.000264632 -1.41776e-07
5.96514e-08 -1.41776e-07 4.20306e-05
0.00182554 0.000308895 -4.8763e-06
0.000308895 -3.16807e-05 -6.07397e-07
-4.8763e-06 -6.07397e-07 -0.000125481
0.00270165 0.000636155 1.87706e-06
0.000636155 0.000683662 1.88364e-06
1.87706e-06 1.88364e-06 0.000465605
0.00194045 0.000522365 -1.75179e-06
0.000522365 0.000142384 4.66033e-08
-1.75179e-06 4.66033e-08 -3.49181e-05
0.000908198 0.000280583 5.23632e-06
0.000280583 -0.000352963 3.24331e-06
5.23632e-06 3.24331e-06 -0.000390716
-0.000435773 0.000355798 -6.17869e-06
0.000355798 -0.00094012 -3.5558e-06
-6.17869e-06 -3.5558e-06 -0.00106896
0.00215797 0.000477669 -6.11472e-05
0.000477669 -1.68951e-05 -2.95785e-05
-6.11472e-05 -2.95785e-05 -4.03103e-05
0.00189348 4.65383e-05 5.79711e-07
4.65383e-05 -8.68064e-05 -1.08842e-06
5.79711e-07 -1.08842e-06 -7.19502e-05
0.00221835 -4.12743e-05 1.41405e-06
-4.12743e-05 0.000403347 1.26938e-06
1.41405e-06 1.26938e-06 0.000414676
0.00175171 -8.24289e-05 -5.74423e-05
-8.24289e-05 -0.000212424 1.06187e-06
-5.74423e-05 1.06187e-06 -0.000286922
0.00229835 -0.000250468 -3.84275e-05
-0.000250468 9.39647e-05 3.36e-06
-3.84275e-05 3.36e-06 0.000229332
0.00145897 -7.87799e-05 -1.0268e-05
-7.87799e-05 -0.00017662 8.56448e-07
-1.0268e-05 8.56448e-07 -0.000202078
0.0020319 -0.000187889 -5.01525e-09
-0.000187889 -4.16775e-05 -8.13372e-07
-5.01525e-09 -8.13372e-07 1.36085e-06
0.00212097 -2.31074e-05 -1.63709e-06
-2.31074e-05 4.21911e-05 1.50625e-06
-1.63709e-06 1.50625e-06 3.71172e-05
0.00210916 -6.93185e-05 -1.61307e-06
-6.93185e-05 2.65918e-05 -2.51033e-07
-1.61307e-06 -2.51033e-07 3.3597e-05
0.00207567 -0.000286191 -4.24189e-06
-0.000286191 -2.55505e-05 7.55607e-07
-4.24189e-06 7.55607e-07 2.75322e-05
0.00200718 -0.0002102 4.10495e-07
-0.0002102 3.25824e-06 -2.05519e-07
4.10495e-07 -2.05519e-07 -3.65923e-06
0.00200574 -0.000172023 -1.74251e-06
-0.000172023 5.06478e-05 -1.93313e-07
-1.74251e-06 -1.93313e-07 1.61525e-05
0.0019335 -0.000275418 1.18158e-06
-0.000275418 6.85298e-05 -9.42173e-07
1.18158e-06 -9.42173e-07 1.05018e-05
0.00186197 -0.000242045 2.22955e-07
-0.000242045 5.72368e-05 2.37442e-08
2.22955e-07 2.37442e-08 -2.27315e-05
0.00179908 -0.000200153 5.69533e-08
-0.000200153 6.51923e-05 -3.86715e-07
5.69533e-08 -3.86715e-07 -2.9538e-05
0.00176096 -0.000268867 1.19107e-06
-0.000268867 5.84221e-05 -7.5594e-07
1.19107e-06 -7.5594e-07 -4.18557e-05
0.001819 -0.00025396 7.85911e-08
-0.00025396 0.000117746 -1.86038e-07
7.85911e-08 -1.86038e-07 2.33009e-06
0.00174631 -0.000227125 5.71309e-07
-0.000227125 0.00012686 -9.43201e-07
5.71309e-07 -9.43201e-07 -1.49013e-05
0.00181755 -0.000282731 -8.8449e-07
-0.000282731 0.000157835 1.1341e-06
-8.8449e-07 1.1341e-06 2.28359e-05
0.00172721 -0.00025698 -3.11169e-07
-0.00025698 0.000157498 -9.07914e-08
-3.11169e-07 -9.07914e-08 -7.92997e-07
0.00140817 -0.000195977 -4.61868e-06
-0.000195977 8.94762e-05 1.17046e-06
-4.61868e-06 1.17046e-06 -7.75393e-05
0.00177228 -0.0002813 7.95688e-07
-0.0002813 0.000217752 1.24256e-06
7.95688e-07 1.24256e-06 4.66235e-05
0.00138196 -0.000215951 -2.54048e-07
-0.000215951 9.96256e-05 6.11889e-08
-2.54048e-07 6.11889e-08 -7.57445e-05
0.000959777 -0.000145005 -1.38387e-05
-0.000145005 -1.36161e-05 5.6616e-06
-1.38387e-05 5.6616e-06 -0.00015997
0.00135282 -0.000239088 6.36031e-06
-0.000239088 0.000110634 -1.35252e-06
6.36031e-06 -1.35252e-06 -7.48873e-05
0.000958895 -0.000161841 1.46357e-07
-0.000161841 -4.07936e-07 6.15865e-08
1.46357e-07 6.15865e-08 -0.000151797
0.0024766 -0.000124341 -3.27864e-05
-0.000124341 0.00106211 8.99767e-06
-3.27864e-05 8.99767e-06 0.000980946
0.00175367 -5.5737e-05 -0.000191596
-5.5737e-05 0.0006979 2.17972e-05
-0.000191596 2.17972e-05 0.000680046
0.00154636 -0.000158205 -6.60945e-06
-0.000158205 0.000511865 -3.45507e-07
-6.60945e-06 -3.45507e-07 0.00041848
0.000940097 -0.000178518 1.24192e-05
-0.000178518 1.20235e-05 -5.96765e-06
1.24192e-05 -5.96765e-06 -0.000147522
0.00575476 8.43825e-05 -6.32235e-06
8.43825e-05 0.00312027 -3.92089e-07
-6.32235e-06 -3.92089e-07 0.00311211
0.000599028 -0.000202729 2.37307e-05
-0.000202729 -4.86106e-05 -1.49299e-05
2.37307e-05 -1.49299e-05 -0.000148183
0.00557731 0.000127935 0.000183985
0.000127935 0.00303365 -1.65292e-05
0.000183985 -1.65292e-05 0.00301585
0.00196213 0.000315612 6.52427e-07
0.000315612 0.000185197 3.25344e-07
6.52427e-07 3.25344e-07 2.53427e-05
0.00171931 0.000368634 1.5645e-06
0.000368634 0.000206529 3.13132e-06
1.5645e-06 3.13132e-06 -3.71981e-06
0.00164389 0.000381836 8.01471e-08
0.000381836 0.00027787 1.0631e-07
8.01471e-08 1.0631e-07 4.15945e-05
0.00115901 0.000261897 -6.42119e-06
0.000261897 6.12513e-05 -1.71446e-06
-6.42119e-06 -1.71446e-06 -0.000142184
0.00126087 0.000319049 5.03699e-06
0.000319049 0.000131139 1.18537e-06
5.03699e-06 1.18537e-06 -0.000108175
0.0011202 0.000247787 -1.20004e-07
0.000247787 0.000100242 1.35367e-07
-1.20004e-07 1.35367e-07 -0.000106152
0.000852058 0.000184549 -9.89867e-06
0.000184549 3.76459e-05 -5.16634e-06
-9.89867e-06 -5.16634e-06 -0.000131412
0.000951731 0.000223345 2.41038e-06
0.000223345 0.000100734 4.85852e-06
2.41038e-06 4.85852e-06 -0.00010605
0.000788745 0.000175789 -9.94454e-08
0.000175789 8.38233e-05 7.76204e-07
-9.94454e-08 7.76204e-07 -8.84203e-05
0.000731304 0.000149931 -2.0954e-05
0.000149931 7.04826e-05 -1.45741e-05
-2.0954e-05 -1.45741e-05 -1.64235e-05
0.000586226 9.90833e-05 1.54631e-06
9.90833e-05 1.7918e-05 4.98107e-06
1.54631e-06 4.98107e-06 -0.000129436
0.000525867 5.12749e-05 -1.57929e-06
5.12749e-05 -2.87816e-05 -6.92481e-07
-1.57929e-06 -6.92481e-07 -9.18613e-05
0.004379 -0.000127815 -0.000149875
-0.000127815 0.00232171 -8.2515e-06
-0.000149875 -8.2515e-06 0.00231417
0.000377637 -1.17853e-05 4.25727e-06
-1.17853e-05 -0.000103848 1.00509e-05
4.25727e-06 1.00509e-05 -0.00015435
0.00351764 -0.000153913 -5.29877e-06
-0.000153913 0.00180709 4.19747e-07
-5.29877e-06 4.19747e-07 0.00179762
0.00314657 -0.00014537 6.62532e-05
-0.00014537 0.00157637 2.75791e-06
6.62532e-05 2.75791e-06 0.00156934
0.0019681 0.000162091 5.02466e-07
0.000162091 -3.78966e-05 -9.45608e-07
5.02466e-07 -9.45608e-07 -4.81614e-05
0.00192105 5.4093e-05 1.80756e-05
5.4093e-05 0.000107095 -1.01386e-06
1.80756e-05 -1.01386e-06 0.000165492
0.00434015 5.87393e-05 -0.000101521
5.87393e-05 0.000592818 -1.48669e-05
-0.000101521 -1.48669e-05 0.000811412
0.00180788 0.000362992 -2.66565e-06
0.000362992 6.59282e-05 1.2023e-06
-2.66565e-06 1.2023e-06 -9.51784e-05
0.00192893 0.000483149 -2.73317e-06
0.000483149 0.000265809 -8.24542e-08
-2.73317e-06 -8.24542e-08 4.38726e-05
0.00149084 0.000475886 -1.03036e-05
0.000475886 0.00013623 -7.51265e-06
-1.03036e-05 -7.51265e-06 -0.000105993
0.00204055 0.00039378 2.80331e-06
0.00039378 0.000275236 1.09965e-06
2.80331e-06 1.09965e-06 8.65481e-05
0.00176987 0.00044022 -1.70149e-06
0.00044022 0.000238128 -2.76225e-06
-1.70149e-06 -2.76225e-06 6.24875e-06
0.00221662 0.000305349 2.82029e-07
0.000305349 0.000195057 4.32405e-07
2.82029e-07 4.32405e-07 9.26258e-05
0.00173055 0.000416185 -3.99423e-07
0.000416185 2.67578e-05 7.45675e-07
-3.99423e-07 7.45675e-07 -0.000143541
0.00223477 0.000545491 -3.43394e-06
0.000545491 0.000444317 -5.23955e-07
-3.43394e-06 -5.23955e-07 0.000218768
0.00183197 0.000312348 -1.02422e-06
0.000312348 -2.28311e-05 -3.08177e-07
-1.02422e-06 -3.08177e-07 -0.000117861
0.00204193 0.000533552 1.69026e-05
0.000533552 0.000176932 2.63465e-06
1.69026e-05 2.63465e-06 -4.23496e-06
0.00113756 0.000281798 -2.92494e-05
0.000281798 -0.000203702 -7.28226e-06
-2.92494e-05 -7.28226e-06 -0.000248225
0.00206137 5.44593e-05 -1.5395e-06
5.44593e-05 1.2993e-05 4.75558e-07
-1.5395e-06 4.75558e-07 1.61498e-05
0.00200103 5.60896e-05 -1.95198e-06
5.60896e-05 -1.34644e-05 2.05758e-07
-1.95198e-06 2.05758e-07 -2.57747e-06
0.00291719 -3.16392e-05 -3.92985e-05
-3.16392e-05 0.000847066 3.39616e-06
-3.92985e-05 3.39616e-06 0.000853704
0.00194598 -0.000180373 -9.97565e-06
-0.000180373 -9.94943e-05 -4.59364e-07
-9.97565e-06 -4.59364e-07 -4.40953e-05
0.00208615 -2.21378e-05 -3.05004e-06
-2.21378e-05 -5.66642e-06 -2.16851e-06
-3.05004e-06 -2.16851e-06 -5.29565e-06
0.00207171 -7.33888e-05 -3.18923e-07
-7.33888e-05 -1.16411e-05 9.45388e-08
-3.18923e-07 9.45388e-08 4.17797e-07
0.00192667 -5.80891e-05 -2.28497e-06
-5.80891e-05 2.02069e-05 2.0268e-07
-2.28497e-06 2.0268e-07 3.50547e-06
0.00198403 -0.000200778 1.67049e-06
-0.000200778 2.54539e-06 2.42915e-07
1.67049e-06 2.42915e-07 -5.63661e-06
0.00192809 -0.000172496 1.46644e-07
-0.000172496 1.55466e-05 -4.87169e-10
1.46644e-07 -4.87169e-10 -2.24932e-05
0.0018376 -0.00013363 2.07111e-06
-0.00013363 5.93868e-05 -1.37601e-06
2.07111e-06 -1.37601e-06 -1.54871e-05
0.00177176 -0.00023603 1.90008e-06
-0.00023603 1.24111e-05 -4.73082e-07
1.90008e-06 -4.73082e-07 -6.99099e-05
0.00184957 -0.000202724 -8.35676e-08
-0.000202724 8.88785e-05 1.31558e-08
-8.35676e-08 1.31558e-08 -6.11387e-06
0.00180587 -0.000186798 7.39854e-07
-0.000186798 0.000119168 -8.11894e-07
7.39854e-07 -8.11894e-07 -6.31913e-06
0.00185367 -0.000254565 1.93651e-09
-0.000254565 0.000139614 3.9494e-07
1.93651e-09 3.9494e-07 2.41279e-05
0.00177489 -0.000228128 -2.37933e-07
-0.000228128 0.000143378 1.25143e-08
-2.37933e-07 1.25143e-08 1.73723e-06
0.00145896 -0.000171839 -3.48483e-06
-0.000171839 9.15533e-05 7.61918e-07
-3.48483e-06 7.61918e-07 -6.62187e-05
0.00175685 -0.000257944 -2.42167e-07
-0.000257944 0.000176064 9.22286e-07
-2.42167e-07 9.22286e-07 1.80185e-05
0.00142627 -0.000196704 -1.93226e-07
-0.000196704 9.83658e-05 7.39899e-08
-1.93226e-07 7.39899e-08 -6.82794e-05
0.000968026 -0.000128609 -1.34791e-05
-0.000128609 -2.09139e-05 4.86536e-06
-1.34791e-05 4.86536e-06 -0.000164029
0.00140291 -0.000216979 5.4054e-06
-0.000216979 0.000111208 -1.29392e-06
5.4054e-06 -1.29392e-06 -6.3843e-05
0.000977389 -0.000144327 1.21318e-07
-0.000144327 -5.44403e-06 1.22001e-07
1.21318e-07 1.22001e-07 -0.000151262
0.00250815 -0.00012911 -4.04975e-05
-0.00012911 0.00106894 8.31522e-06
-4.04975e-05 8.31522e-06 0.000995143
0.000975722 -0.000162068 1.34548e-05
-0.000162068 7.79511e-06 -5.93091e-06
1.34548e-05 -5.93091e-06 -0.000143451
0.00262872 -0.000168092 3.90583e-05
-0.000168092 0.00114937 -5.18293e-06
3.90583e-05 -5.18293e-06 0.00107454
0.00182741 -9.51272e-05 -0.000194914
-9.51272e-05 0.000748939 2.61714e-05
-0.000194914 2.61714e-05 0.000729534
0.00369923 -3.49115e-05 -0.000191835
-3.49115e-05 0.00188262 1.36105e-05
-0.000191835 1.36105e-05 0.00187094
0.00271556 -0.000221941 0.00012235
-0.000221941 0.00120843 -1.73287e-05
0.00012235 -1.73287e-05 0.001135
0.00582033 6.94937e-05 0.000201296
6.94937e-05 0.00316883 -1.94345e-05
0.000201296 -1.94345e-05 0.00315631
0.00208947 0.000309218 -2.02176e-06
0.000309218 0.00024334 -9.39798e-07
-2.02176e-06 -9.39798e-07 0.000100753
0.0016159 0.000294435 2.8448e-06
0.000294435 8.65175e-05 1.05163e-06
2.8448e-06 1.05163e-06 -9.20575e-05
0.00195635 0.000312561 3.76144e-07
0.000312561 0.000180894 -1.28565e-06
3.76144e-07 -1.28565e-06 2.62305e-05
0.00127085 0.00026183 -5.9187e-06
0.00026183 6.57627e-05 -8.0034e-07
-5.9187e-06 -8.0034e-07 -0.000129464
0.00178871 0.000371741 6.40183e-07
0.000371741 0.000237563 4.47185e-07
6.40183e-07 4.47185e-07 2.65834e-05
0.00189588 0.000407446 2.02605e-06
0.000407446 0.000415858 -1.35583e-06
2.02605e-06 -1.35583e-06 0.000176474
0.00120818 0.00026292 -2.07962e-07
0.00026292 9.45482e-05 2.70229e-08
-2.07962e-07 2.70229e-08 -0.000108669
0.000936789 0.000186933 -1.20109e-05
0.000186933 2.68743e-05 -5.82291e-06
-1.20109e-05 -5.82291e-06 -0.000137246
0.00115151 0.000247509 7.5718e-06
0.000247509 0.000121366 2.26957e-06
7.5718e-06 2.26957e-06 -8.43727e-05
0.00083766 0.000179726 -2.69484e-07
0.000179726 2.42722e-05 9.94871e-08
-2.69484e-07 9.94871e-08 -0.000143418
0.000596913 0.000196194 -2.36033e-05
0.000196194 -3.16238e-05 -1.54623e-05
-2.36033e-05 -1.54623e-05 -0.00013029
0.000618472 0.000163312 4.33084e-06
0.000163312 -1.38811e-05 5.45847e-06
4.33084e-06 5.45847e-06 -0.000186318
0.000540948 0.000122189 1.76648e-07
0.000122189 -4.02015e-05 2.05501e-07
1.76648e-07 2.05501e-07 -0.000121966
0.00524141 -0.000130958 -0.00017721
-0.000130958 0.00284959 -1.50936e-05
-0.00017721 -1.50936e-05 0.0028301
0.000279824 2.26389e-05 7.37196e-06
2.26389e-05 -0.000167524 1.18696e-05
7.37196e-06 1.18696e-05 -0.000229101
0.00414413 -0.0001715 -9.86515e-06
-0.0001715 0.00219214 6.85145e-07
-9.86515e-06 6.85145e-07 0.00217601
0.0033997 -0.000162878 7.74699e-05
-0.000162878 0.00173791 2.46051e-06
7.74699e-05 2.46051e-06 0.00172598
0.00201827 0.000179421 -1.02802e-06
0.000179421 1.17578e-05 4.82778e-07
-1.02802e-06 4.82778e-07 -2.88189e-05
0.0019015 0.000163126 9.1213e-07
0.000163126 -7.32448e-05 -1.79751e-07
9.1213e-07 -1.79751e-07 -8.41342e-05
0.00306356 4.01464e-05 -7.30164e-05
4.01464e-05 0.000713183 -7.7975e-06
-7.30164e-05 -7.7975e-06 0.000765288
0.00199789 0.000267163 7.68638e-07
0.000267163 0.000116991 5.38741e-07
7.68638e-07 5.38741e-07 4.46304e-06
0.00182684 0.00036042 -3.46782e-07
0.00036042 9.61041e-05 3.50574e-07
-3.46782e-07 3.50574e-07 -6.49718e-05
0.00157534 0.000450445 -2.97153e-07
0.000450445 7.48053e-05 -1.98255e-06
-2.97153e-07 -1.98255e-06 -0.000143625
0.0021134 0.000385954 -6.63417e-07
0.000385954 0.000331437 -2.29144e-06
-6.63417e-07 -2.29144e-06 0.000145117
0.00208424 0.000294753 -7.60691e-07
0.000294753 0.000121963 -7.45976e-08
-7.60691e-07 -7.45976e-08 2.00355e-05
0.00161311 0.000409566 -3.23127e-06
0.000409566 -2.04936e-05 2.7529e-07
-3.23127e-06 2.7529e-07 -0.000191292
0.00177724 0.000312135 7.432e-06
0.000312135 -3.30816e-05 7.06958e-07
7.432e-06 7.06958e-07 -0.000129376
0.0019321 5.01829e-05 -7.19671e-07
5.01829e-05 1.1539e-05 5.75059e-07
-7.19671e-07 5.75059e-07 -5.14006e-06
0.00202016 5.40344e-05 1.401e-07
5.40344e-05 1.08772e-07 -1.51252e-07
1.401e-07 -1.51252e-07 -3.92488e-07
0.00207136 6.63372e-05 -8.33429e-06
6.63372e-05 3.89383e-05 1.50641e-07
-8.33429e-06 1.50641e-07 4.66839e-05
0.0018139 -1.28525e-05 -4.26027e-06
-1.28525e-05 -1.57012e-06 3.99003e-07
-4.26027e-06 3.99003e-07 -3.34195e-05
0.00203275 -8.1767e-05 1.74162e-06
-8.1767e-05 -4.99437e-05 -5.51639e-07
1.74162e-06 -5.51639e-07 -3.33033e-05
0.00192545 -6.0918e-05 -6.96778e-07
-6.0918e-05 1.77574e-05 2.84342e-07
-6.96778e-07 2.84342e-07 5.61912e-07
0.00187576 -7.81539e-05 -2.40348e-06
-7.81539e-05 7.62389e-05 -6.5368e-08
-2.40348e-06 -6.5368e-08 1.60708e-05
0.00185195 -0.000172984 2.61359e-06
-0.000172984 -1.93051e-05 -1.93845e-07
2.61359e-06 -1.93845e-07 -6.08781e-05
0.00186404 -0.000134653 2.10091e-06
-0.000134653 6.62159e-05 -7.89259e-07
2.10091e-06 -7.89259e-07 -8.29644e-06
0.00183839 -0.000132098 3.05487e-06
-0.000132098 0.000119671 -1.11441e-06
3.05487e-06 -1.11441e-06 7.77308e-06
0.0019094 -0.000205085 4.52585e-07
-0.000205085 0.000118071 3.75832e-07
4.52585e-07 3.75832e-07 2.2899e-05
0.00181932 -0.00018556 -1.35972e-07
-0.00018556 0.000129806 -1.92831e-07
-1.35972e-07 -1.92831e-07 4.67687e-06
0.00149939 -0.000139604 -2.65101e-06
-0.000139604 8.94089e-05 3.47148e-07
-2.65101e-06 3.47148e-07 -5.8015e-05
0.00180411 -0.000229025 -5.95177e-07
-0.000229025 0.000160588 8.66842e-07
-5.95177e-07 8.66842e-07 1.9097e-05
0.00146241 -0.000171431 -1.90939e-07
-0.000171431 9.169e-05 1.20573e-07
-1.90939e-07 1.20573e-07 -6.56335e-05
0.000980238 -0.00011037 -1.29471e-05
-0.00011037 -2.53413e-05 3.9186e-06
-1.29471e-05 3.9186e-06 -0.000165219
0.00144301 -0.000197273 4.05265e-06
-0.000197273 0.000106551 -1.00057e-06
4.05265e-06 -1.00057e-06 -5.96967e-05
0.00099046 -0.000127433 2.32665e-09
-0.000127433 -1.00528e-05 2.04582e-07
2.32665e-09 2.04582e-07 -0.000152438
0.00253144 -0.000135207 -4.83045e-05
-0.000135207 0.00107742 8.08462e-06
-4.83045e-05 8.08462e-06 0.00100598
0.000995624 -0.000143758 1.37217e-05
-0.000143758 2.8707e-06 -5.45219e-06
1.37217e-05 -5.45219e-06 -0.000142385
0.00260858 -0.000158197 3.55709e-05
-0.000158197 0.00112771 -4.24889e-06
3.55709e-05 -4.24889e-06 0.0010585
0.00186762 -8.24469e-05 -0.000190639
-8.24469e-05 0.000767564 2.33188e-05
-0.000190639 2.33188e-05 0.000749366
0.00276023 -0.000182896 0.000120476
-0.000182896 0.00122404 -1.90895e-05
0.000120476 -1.90895e-05 0.00115508
0.00157833 -3.3159e-05 -8.53549e-05
-3.3159e-05 0.000605348 1.02114e-05
-8.53549e-05 1.02114e-05 0.000576068
0.00552309 0.000146366 4.00017e-05
0.000146366 0.00297965 -2.19335e-06
4.00017e-05 -2.19335e-06 0.00295395
0.00188945 0.000254808 5.45308e-07
0.000254808 0.000111617 2.38121e-07
5.45308e-07 2.38121e-07 -1.86768e-05
0.00187636 0.000282275 -4.52258e-08
0.000282275 0.000196752 -7.93096e-07
-4.52258e-08 -7.93096e-07 3.73116e-05
0.00198271 0.000305334 -3.52147e-06
0.000305334 0.00017641 1.99205e-08
-3.52147e-06 1.99205e-08 3.17504e-05
0.00166184 0.000255578 -3.22484e-06
0.000255578 0.000251057 -5.65815e-07
-3.22484e-06 -5.65815e-07 7.13884e-05
0.00165116 0.000301466 2.27964e-07
0.000301466 9.7504e-05 -1.55964e-06
2.27964e-07 -1.55964e-06 -7.90808e-05
0.00195752 0.000310056 -3.12863e-06
0.000310056 0.000180734 -3.45262e-06
-3.12863e-06 -3.45262e-06 3.12047e-05
0.000963065 0.000179968 -1.35381e-05
0.000179968 1.3796e-06 -5.57053e-06
-1.35381e-05 -5.57053e-06 -0.000156622
0.00131091 0.000264753 -8.87768e-08
0.000264753 8.96024e-05 3.2398e-07
-8.87768e-08 3.2398e-07 -0.000106307
0.00185199 0.00037431 2.69889e-06
0.00037431 0.000264195 -2.03025e-06
2.69889e-06 -2.03025e-06 5.25457e-05
0.00127868 0.000265272 7.74277e-06
0.000265272 0.00014132 2.37542e-06
7.74277e-06 2.37542e-06 -6.17927e-05
0.000882444 0.000182395 -5.88561e-07
0.000182395 -3.9724e-06 1.29111e-08
-5.88561e-07 1.29111e-08 -0.000167099
0.000539428 0.000215883 -2.5113e-05
0.000215883 -7.52802e-05 -1.50881e-05
-2.5113e-05 -1.50881e-05 -0.0001778
0.000749058 0.00017181 9.46055e-06
0.00017181 -3.29134e-05 5.56619e-06
9.46055e-06 5.56619e-06 -0.00019882
0.00052461 0.000186919 2.1743e-06
0.000186919 -7.11306e-05 4.6107e-07
2.1743e-06 4.6107e-07 -0.000168413
0.00576217 -9.62416e-05 -0.000191717
-9.62416e-05 0.00316402 -2.09932e-05
-0.000191717 -2.09932e-05 0.00313867
0.00036368 0.000107909 1.64448e-05
0.000107909 -0.000147815 1.4376e-05
1.64448e-05 1.4376e-05 -0.000223048
0.00497327 -0.000165563 -9.35638e-06
-0.000165563 0.00268739 5.63012e-07
-9.35638e-06 5.63012e-07 0.0026683
0.00386611 -0.000186911 9.3167e-05
-0.000186911 0.0020291 3.19846e-06
9.3167e-05 3.19846e-06 0.00200958
0.00194017 0.000144305 -1.31619e-06
0.000144305 5.19221e-05 1.08229e-06
-1.31619e-06 1.08229e-06 -1.09207e-05
0.00203743 0.000183038 5.82129e-07
0.000183038 1.55856e-05 4.03976e-07
5.82129e-07 4.03976e-07 -2.19315e-05
0.00190279 0.000167536 5.19592e-08
0.000167536 -7.86953e-05 8.49345e-07
5.19592e-08 8.49345e-07 -9.02921e-05
0.00199383 0.00026205 3.04147e-07
0.00026205 0.000119706 1.12472e-08
3.04147e-07 1.12472e-08 1.01177e-05
0.00183373 0.000356929 -1.26222e-06
0.000356929 0.000120172 -7.6254e-07
-1.26222e-06 -7.6254e-07 -4.07631e-05
0.00197028 0.000284417 -2.54855e-08
0.000284417 5.98646e-05 -6.54975e-07
-2.54855e-08 -6.54975e-07 -4.13812e-05
0.00192718 5.57445e-05 -2.31722e-06
5.57445e-05 6.24796e-05 1.57636e-07
-2.31722e-06 1.57636e-07 2.50525e-05
0.00194387 4.77713e-05 3.56604e-07
4.77713e-05 2.27587e-05 -1.38357e-07
3.56604e-07 -1.38357e-07 4.15158e-06
0.00199935 5.41005e-05 1.40616e-06
5.41005e-05 -1.2291e-06 -1.19246e-07
1.40616e-06 -1.19246e-07 -5.24128e-06
0.00186351 -1.7173e-05 -1.80185e-06
-1.7173e-05 2.50496e-05 1.03135e-07
-1.80185e-06 1.03135e-07 -6.24815e-06
0.00180201 -3.59526e-05 -2.86275e-06
-3.59526e-05 4.00636e-05 -6.27003e-08
-2.86275e-06 -6.27003e-08 -2.31533e-05
0.00192431 -6.3739e-05 1.70243e-06
-6.3739e-05 1.52312e-05 4.56237e-08
1.70243e-06 4.56237e-08 -2.40033e-06
0.00183813 -7.68899e-05 -1.95667e-06
-7.68899e-05 5.46759e-05 6.31342e-07
-1.95667e-06 6.31342e-07 -9.54366e-06
0.00187796 -7.84734e-05 3.1375e-08
-7.84734e-05 0.000146523 -4.57704e-07
3.1375e-08 -4.57704e-07 4.95454e-05
0.00187752 -0.000135709 2.93704e-06
-0.000135709 6.61829e-05 -2.8552e-07
2.93704e-06 -2.8552e-07 -8.05637e-06
0.00181103 -0.00013261 2.49119e-06
-0.00013261 0.000106785 -6.95891e-07
2.49119e-06 -6.95891e-07 -5.17501e-06
0.00151515 -9.98683e-05 -1.32029e-06
-9.98683e-05 7.66948e-05 -1.67406e-07
-1.32029e-06 -1.67406e-07 -6.08829e-05
0.00181757 -0.000185588 -1.08934e-06
-0.000185588 0.000130641 4.17862e-07
-1.08934e-06 4.17862e-07 5.59255e-06
0.00149272 -0.000139324 -1.15887e-07
-0.000139324 8.24557e-05 3.36828e-08
-1.15887e-07 3.36828e-08 -6.47262e-05
0.0009845 -8.7513e-05 -1.25146e-05
-8.7513e-05 -3.39229e-05 2.99314e-06
-1.25146e-05 2.99314e-06 -0.000169412
0.00147001 -0.000171262 2.9623e-06
-0.000171262 9.35444e-05 -5.3693e-07
2.9623e-06 -5.3693e-07 -6.33471e-05
0.000999466 -0.000108635 -1.27045e-07
-0.000108635 -1.58284e-05 2.24928e-07
-1.27045e-07 2.24928e-07 -0.000154988
0.00250669 -0.000146235 -5.18158e-05
-0.000146235 0.00105946 7.25443e-06
-5.18158e-05 7.25443e-06 0.000987965
0.00101288 -0.00012632 1.33912e-05
-0.00012632 6.10343e-07 -4.54274e-06
1.33912e-05 -4.54274e-06 -0.000141025
0.00259817 -0.000141281 3.42077e-05
-0.000141281 0.00111361 -3.22355e-06
3.42077e-05 -3.22355e-06 0.00104724
0.00190258 -7.01602e-05 -0.000190524
-7.01602e-05 0.000781971 1.99517e-05
-0.000190524 1.99517e-05 0.000764417
0.0027079 -0.000156616 0.00011869
-0.000156616 0.00118161 -1.6536e-05
0.00011869 -1.6536e-05 0.00111888
0.00158064 -4.39506e-05 -7.74678e-05
-4.39506e-05 0.000600367 8.744e-06
-7.74678e-05 8.744e-06 0.000573944
0.00137742 -2.7157e-05 3.79068e-05
-2.7157e-05 0.000490143 -5.80181e-06
3.79068e-05 -5.80181e-06 0.000452499
0.0019621 0.000154485 -1.1953e-06
0.000154485 0.000134105 1.39345e-06
-1.1953e-06 1.39345e-06 3.86838e-05
0.00185148 0.000237117 -1.11051e-06
0.000237117 0.000151814 2.15463e-07
-1.11051e-06 2.15463e-07 7.09752e-06
0.00190256 0.000255864 -6.61816e-07
0.000255864 0.000110994 -6.55677e-08
-6.61816e-07 -6.55677e-08 -1.63756e-05
0.00176905 0.000237464 -2.51392e-06
0.000237464 0.000267618 -3.91773e-07
-2.51392e-06 -3.91773e-07 0.000102839
0.00182242 0.000277695 1.70352e-07
0.000277695 0.000170891 -8.55094e-08
1.70352e-07 -8.55094e-08 1.02592e-05
0.00187221 0.000301459 5.72834e-07
0.000301459 0.000107542 2.09166e-07
5.72834e-07 2.09166e-07 -3.92513e-05
0.000997746 0.000165037 -1.41338e-05
0.000165037 -3.35148e-06 -5.17158e-06
-1.41338e-05 -5.17158e-06 -0.000153582
0.00152881 0.000253013 3.18053e-06
0.000253013 0.000166425 5.62824e-07
3.18053e-06 5.62824e-07 -1.33427e-05
0.00169236 0.000308862 1.49298e-08
0.000308862 0.000112485 -2.31386e-06
1.49298e-08 -2.31386e-06 -6.2123e-05
0.000483854 0.000179405 -2.26977e-05
0.000179405 -0.00011886 -1.31878e-05
-2.26977e-05 -1.31878e-05 -0.000217559
0.000947259 0.000178193 -5.57623e-07
0.000178193 -5.51439e-06 1.45132e-07
-5.57623e-07 1.45132e-07 -0.000163084
0.0013526 0.000267973 7.48065e-06
0.000267973 0.000113931 2.09277e-06
7.48065e-06 2.09277e-06 -8.27598e-05
0.000849358 0.000179327 1.17004e-05
0.000179327 -2.23514e-05 6.14162e-06
1.17004e-05 6.14162e-06 -0.000184722
0.00051931 0.000197897 1.41162e-06
0.000197897 -8.32168e-05 6.62941e-07
1.41162e-06 6.62941e-07 -0.000187182
0.00596683 -1.84542e-06 -0.000207119
-1.84542e-06 0.00326455 -2.36762e-05
-0.000207119 -2.36762e-05 0.00324835
0.000461309 0.00017282 2.12915e-05
0.00017282 -0.000107457 1.50272e-05
2.12915e-05 1.50272e-05 -0.000202223
0.00559515 -0.000118832 4.61097e-06
-0.000118832 0.003052 -1.04609e-06
4.61097e-06 -1.04609e-06 0.00303393
0.004665 -0.000221566 0.000115653
-0.000221566 0.00252187 6.61931e-06
0.000115653 6.61931e-06 0.00248998
0.0018466 0.000100175 -3.7455e-06
0.000100175 3.74894e-05 9.40888e-07
-3.7455e-06 9.40888e-07 -1.95261e-05
0.00191168 0.000144204 1.26296e-06
0.000144204 3.71337e-05 7.78627e-07
1.26296e-06 7.78627e-07 -2.38745e-05
0.0020342 0.000186473 -3.05915e-07
0.000186473 6.90459e-06 -4.01832e-07
-3.05915e-07 -4.01832e-07 -2.77348e-05
0.00200817 0.000257145 2.45045e-06
0.000257145 0.000133624 -1.73044e-07
2.45045e-06 -1.73044e-07 2.70718e-05
0.00171057 3.58274e-06 -3.19011e-07
3.58274e-06 -3.66335e-06 8.09194e-08
-3.19011e-07 8.09194e-08 -7.0573e-05
0.00191955 4.82424e-05 3.11171e-07
4.82424e-05 5.22607e-05 6.13909e-08
3.11171e-07 6.13909e-08 1.6071e-05
0.00195782 4.54794e-05 1.64822e-06
4.54794e-05 3.61318e-05 -2.23207e-07
1.64822e-06 -2.23207e-07 1.53161e-05
0.00191263 -1.93531e-05 1.15065e-06
-1.93531e-05 5.11308e-05 -6.22116e-07
1.15065e-06 -6.22116e-07 2.045e-05
0.0018135 -2.94584e-05 -2.15537e-06
-2.94584e-05 4.89426e-05 1.359e-07
-2.15537e-06 1.359e-07 -1.19657e-05
0.00182832 -3.11231e-05 2.33337e-06
-3.11231e-05 0.000122307 -9.43289e-07
2.33337e-06 -9.43289e-07 2.75188e-05
0.00179816 -7.5701e-05 -8.696e-07
-7.5701e-05 3.05703e-05 1.06674e-06
-8.696e-07 1.06674e-06 -3.75729e-05
0.00180781 -7.81551e-05 -3.39609e-07
-7.81551e-05 0.000108248 3.13903e-07
-3.39609e-07 3.13903e-07 6.08121e-06
0.00157376 -5.83098e-05 -2.33929e-06
-5.83098e-05 9.69525e-05 -1.63293e-07
-2.33929e-06 -1.63293e-07 -2.84918e-05
0.00180267 -0.000132081 1.6583e-06
-0.000132081 0.000104926 -2.12384e-07
1.6583e-06 -2.12384e-07 -6.83503e-06
0.00151638 -9.78953e-05 7.46836e-07
-9.78953e-05 7.54666e-05 -2.46489e-07
7.46836e-07 -2.46489e-07 -6.1663e-05
0.000983314 -6.1184e-05 -1.2301e-05
-6.1184e-05 -4.28802e-05 2.15431e-06
-1.2301e-05 2.15431e-06 -0.000173759
0.00149303 -0.000137015 2.38892e-06
-0.000137015 8.05398e-05 -3.30601e-07
2.38892e-06 -3.30601e-07 -6.60734e-05
0.000993422 -8.67777e-05 -6.26501e-08
-8.67777e-05 -2.92298e-05 1.86239e-07
-6.26501e-08 1.86239e-07 -0.00016437
0.000567182 -8.2745e-05 -1.98178e-05
-8.2745e-05 -0.000120279 5.0239e-06
-1.98178e-05 5.0239e-06 -0.000198133
0.00101815 -0.000106858 1.28047e-05
-0.000106858 -6.4726e-06 -3.52044e-06
1.28047e-05 -3.52044e-06 -0.000144886
0.00158205 -9.40527e-05 4.86181e-05
-9.40527e-05 0.00049497 -3.2684e-06
4.86181e-05 -3.2684e-06 0.000425335
0.00571181 -0.000125139 -0.000246606
-0.000125139 0.00307043 1.58769e-05
-0.000246606 1.58769e-05 0.00307834
0.002683 -0.000127612 0.000117632
-0.000127612 0.00115592 -1.33316e-05
0.000117632 -1.33316e-05 0.00109698
0.00159568 -5.27605e-05 -6.98459e-05
-5.27605e-05 0.000606233 5.94572e-06
-6.98459e-05 5.94572e-06 0.000579714
0.00129596 -6.59732e-05 4.91399e-05
-6.59732e-05 0.000443003 -6.93935e-06
4.91399e-05 -6.93935e-06 0.000404593
0.00189285 0.000108362 -1.62436e-06
0.000108362 0.000107045 1.67649e-06
-1.62436e-06 1.67649e-06 2.67129e-05
0.00190027 0.000168063 7.14115e-08
0.000168063 0.000165092 1.38776e-06
7.14115e-08 1.38776e-06 4.29605e-05
0.00197237 0.000151212 4.47569e-07
0.000151212 0.000147081 7.3975e-08
4.47569e-07 7.3975e-08 5.10484e-05
0.001589 0.000191156 -2.84504e-06
0.000191156 0.000123258 -2.17846e-07
-2.84504e-06 -2.17846e-07 -2.93703e-05
0.00182408 0.000233626 3.88226e-07
0.000233626 0.000136136 3.71901e-09
3.88226e-07 3.71901e-09 -8.05369e-06
0.00190923 0.000257116 4.11247e-07
0.000257116 0.000105843 -4.74193e-09
4.11247e-07 -4.74193e-09 -1.86869e-05
0.000775296 0.000133998 -1.56438e-05
0.000133998 -0.000157778 -4.54062e-06
-1.56438e-05 -4.54062e-06 -0.000301911
0.00178303 0.000238205 2.54386e-06
0.000238205 0.000275594 6.62377e-07
2.54386e-06 6.62377e-07 0.000110941
0.00176108 0.000272595 9.70054e-08
0.000272595 0.000140648 -4.1803e-07
9.70054e-08 -4.1803e-07 -2.11445e-05
0.000473449 0.000130968 -1.95934e-05
0.000130968 -0.000144635 -1.02169e-05
-1.95934e-05 -1.02169e-05 -0.000234562
0.000830965 0.000156727 4.19614e-07
0.000156727 -0.000102372 2.95716e-07
4.19614e-07 2.95716e-07 -0.000253005
0.0013843 0.000249647 8.8253e-06
0.000249647 7.4751e-05 1.35025e-06
8.8253e-06 1.35025e-06 -0.000104986
0.0059748 8.29874e-05 -0.000219489
8.29874e-05 0.00324555 -2.31925e-05
-0.000219489 -2.31925e-05 0.00324014
0.000484341 0.000167379 1.00121e-06
0.000167379 -0.000118516 6.74871e-07
1.00121e-06 6.74871e-07 -0.000218081
0.000914312 0.000175394 1.34897e-05
0.000175394 -2.2114e-05 5.97255e-06
1.34897e-05 5.97255e-06 -0.000179153
0.000453445 0.000181119 2.09594e-05
0.000181119 -0.000118138 1.49454e-05
2.09594e-05 1.49454e-05 -0.000223241
0.00584827 -1.21385e-05 9.20104e-06
-1.21385e-05 0.00318416 -4.31917e-07
9.20104e-06 -4.31917e-07 0.00317516
0.0054265 -0.000154026 0.00016646
-0.000154026 0.00294692 8.5592e-06
0.00016646 8.5592e-06 0.00293029
0.00181558 6.29293e-05 -3.0879e-06
6.29293e-05 6.18174e-05 -3.09867e-07
-3.0879e-06 -3.09867e-07 -6.83132e-06
0.00188995 0.000100135 5.06453e-07
0.000100135 5.98456e-05 6.64201e-07
5.06453e-07 6.64201e-07 2.14728e-06
0.00187344 0.000143909 2.1463e-06
0.000143909 1.65239e-05 2.63074e-07
2.1463e-06 2.63074e-07 -4.25914e-05
0.00169048 5.20131e-06 2.56796e-06
5.20131e-06 4.11113e-05 -7.53025e-07
2.56796e-06 -7.53025e-07 -5.61161e-05
0.00174208 6.83491e-06 3.96851e-07
6.83491e-06 1.92127e-05 2.14926e-07
3.96851e-07 2.14926e-07 -4.47462e-05
0.00190968 3.92881e-05 2.23466e-06
3.92881e-05 4.10364e-05 -2.80083e-07
2.23466e-06 -2.80083e-07 6.13059e-06
0.0018228 -2.40797e-05 -1.30317e-06
-2.40797e-05 5.6634e-05 8.3046e-07
-1.30317e-06 8.3046e-07 -2.13717e-06
0.00179179 -2.78295e-05 1.01815e-06
-2.78295e-05 9.97555e-05 -1.29406e-07
1.01815e-06 -1.29406e-07 5.19794e-06
0.00176242 -2.19531e-05 -1.70856e-07
-2.19531e-05 0.000216433 -5.88801e-07
-1.70856e-07 -5.88801e-07 9.70193e-05
0.00173747 -7.76861e-05 -2.24994e-06
-7.76861e-05 7.07303e-05 1.04848e-06
-2.24994e-06 1.04848e-06 -3.66353e-05
0.0016328 -5.88981e-05 8.04922e-08
-5.88981e-05 0.00013454 5.59875e-08
8.04922e-08 5.59875e-08 7.06788e-06
0.000808103 -3.07122e-05 -1.37154e-05
-3.07122e-05 -0.000154825 1.31304e-06
-1.37154e-05 1.31304e-06 -0.00028205
0.00150616 -9.78925e-05 2.77004e-06
-9.78925e-05 6.72589e-05 -3.94643e-07
2.77004e-06 -3.94643e-07 -6.97492e-05
0.000991693 -5.8186e-05 -5.12125e-08
-5.8186e-05 -3.91517e-05 1.36148e-07
-5.12125e-08 1.36148e-07 -0.000169547
0.000572556 -2.10014e-05 -1.85251e-05
-2.10014e-05 -0.000120695 3.19433e-06
-1.85251e-05 3.19433e-06 -0.000196752
0.00101752 -8.54905e-05 1.24088e-05
-8.54905e-05 -1.64053e-05 -2.61582e-06
1.24088e-05 -2.61582e-06 -0.000151037
0.000572708 -6.60391e-05 -2.14992e-07
-6.60391e-05 -0.000114894 3.70583e-07
-2.14992e-07 3.70583e-07 -0.000194212
0.00571494 -1.99443e-05 -0.000237856
-1.99443e-05 0.00306854 9.62581e-06
-0.000237856 9.62581e-06 0.00307901
0.0006057 -6.8673e-05 1.58705e-05
-6.8673e-05 -9.35751e-05 -6.92628e-06
1.58705e-05 -6.92628e-06 -0.000175419
0.00359965 -8.21802e-05 0.000109483
-8.21802e-05 0.00180792 -4.34028e-06
0.000109483 -4.34028e-06 0.00179197
0.00125538 -7.49303e-05 5.53847e-05
-7.49303e-05 0.000420167 -7.38515e-06
5.53847e-05 -7.38515e-06 0.000379806
0.00177619 9.42781e-05 -2.0608e-06
9.42781e-05 5.78408e-05 1.65727e-07
-2.0608e-06 1.65727e-07 -2.30616e-05
0.00179266 0.0001052 2.11881e-06
0.0001052 0.000105169 2.3828e-06
2.11881e-06 2.3828e-06 -4.07501e-06
0.00193087 0.000104931 7.52477e-08
0.000104931 0.00013078 -3.17456e-07
7.52477e-08 -3.17456e-07 5.18974e-05
0.00153199 0.000137267 -1.71305e-06
0.000137267 7.52308e-05 2.75259e-08
-1.71305e-06 2.75259e-08 -6.74442e-05
0.00187553 0.000167153 5.24527e-07
0.000167153 0.000145765 2.14077e-07
5.24527e-07 2.14077e-07 2.24059e-05
0.0019887 0.0001478 8.47416e-07
0.0001478 0.000163574 -1.4076e-06
8.47416e-07 -1.4076e-06 6.6971e-05
0.000822683 0.000111353 -1.46733e-05
0.000111353 -0.00014554 -3.4564e-06
-1.46733e-05 -3.4564e-06 -0.000283441
0.00166678 0.000191985 1.49346e-07
0.000191985 0.000173508 2.89323e-07
1.49346e-07 2.89323e-07 2.0057e-05
0.0018019 0.000230282 7.01652e-07
0.000230282 0.000123872 -3.91693e-07
7.01652e-07 -3.91693e-07 -1.97728e-05
0.000487778 9.3043e-05 -1.80295e-05
9.3043e-05 -0.000154642 -7.44886e-06
-1.80295e-05 -7.44886e-06 -0.000237492
0.000749863 0.000132881 -2.66825e-06
0.000132881 -0.000171994 -3.13407e-07
-2.66825e-06 -3.13407e-07 -0.000316187
0.00180017 0.000239337 7.75262e-06
0.000239337 0.000285432 1.82523e-06
7.75262e-06 1.82523e-06 0.000120833
0.00590249 0.000157604 -0.000237601
0.000157604 0.00318974 -2.22716e-05
-0.000237601 -2.22716e-05 0.00319064
0.000485094 0.000126054 3.25311e-07
0.000126054 -0.000138659 3.91648e-07
3.25311e-07 3.91648e-07 -0.000229019
0.000673662 0.000149329 1.38999e-05
0.000149329 -0.000196082 5.1238e-06
1.38999e-05 5.1238e-06 -0.000347222
0.00588807 9.73e-05 1.2875e-05
9.73e-05 0.00319609 1.57098e-06
1.2875e-05 1.57098e-06 0.0031911
0.000471543 0.00015513 1.96529e-05
0.00015513 -0.000126034 1.3071e-05
1.96529e-05 1.3071e-05 -0.000226329
0.00573643 -4.47298e-05 0.000201845
-4.47298e-05 0.00310707 1.30953e-05
0.000201845 1.30953e-05 0.00310463
0.00182972 4.52534e-05 8.20528e-07
4.52534e-05 0.000113589 -3.9591e-07
8.20528e-07 -3.9591e-07 1.83975e-05
0.00180485 6.11847e-05 -1.79564e-06
6.11847e-05 6.36167e-05 2.82112e-07
-1.79564e-06 2.82112e-07 -6.79787e-06
0.00193 9.97697e-05 3.38745e-06
9.97697e-05 7.97945e-05 2.0213e-07
3.38745e-06 2.0213e-07 2.14881e-05
0.00175608 -1.80482e-06 8.83846e-07
-1.80482e-06 0.000219708 -4.3312e-07
8.83846e-07 -4.3312e-07 0.000102667
0.00168024 4.31738e-06 1.20904e-08
4.31738e-06 3.24119e-05 -3.15528e-08
1.20904e-08 -3.15528e-08 -6.26073e-05
0.00178961 1.14863e-05 2.43606e-06
1.14863e-05 5.11094e-05 4.13292e-07
2.43606e-06 4.13292e-07 -9.83059e-06
0.00175496 -2.4974e-05 -4.08152e-07
-2.4974e-05 7.7278e-05 7.25922e-07
-4.08152e-07 7.25922e-07 -1.70745e-05
0.00175671 -2.17788e-05 2.78617e-06
-2.17788e-05 0.000212211 -2.69799e-07
2.78617e-06 -2.69799e-07 9.27355e-05
0.000821891 -1.03123e-05 -1.32163e-05
-1.03123e-05 -0.000143782 5.77339e-07
-1.32163e-05 5.77339e-07 -0.000267942
0.00169659 -5.97025e-05 2.55858e-06
-5.97025e-05 0.000174838 5.63979e-08
2.55858e-06 5.63979e-08 4.53339e-05
0.000903962 -3.05351e-05 -2.09971e-06
-3.05351e-05 -9.72119e-05 1.75326e-07
-2.09971e-06 1.75326e-07 -0.00022416
0.000574227 -6.69839e-06 -1.87674e-05
-6.69839e-06 -0.000122619 2.0518e-06
-1.87674e-05 2.0518e-06 -0.000196987
0.00100407 -5.63549e-05 1.19381e-05
-5.63549e-05 -3.26184e-05 -1.86041e-06
1.19381e-05 -1.86041e-06 -0.000162642
0.000552998 -3.21112e-05 8.67104e-07
-3.21112e-05 -0.000133778 -7.07157e-08
8.67104e-07 -7.07157e-08 -0.000208554
0.00565093 -0.000117661 -0.000245943
-0.000117661 0.00303953 1.02535e-05
-0.000245943 1.02535e-05 0.00304647
0.000547114 -4.93206e-05 1.78912e-05
-4.93206e-05 -0.000130181 -3.90465e-06
1.78912e-05 -3.90465e-06 -0.000209277
0.00569066 -5.617e-05 7.69675e-06
-5.617e-05 0.0030551 -5.7271e-08
7.69675e-06 -5.7271e-08 0.00306574
0.00159673 -2.22807e-05 0.000196241
-2.22807e-05 0.000598531 -1.11079e-05
0.000196241 -1.11079e-05 0.000585935
0.00169343 7.41639e-05 2.23002e-06
7.41639e-05 4.2739e-05 5.34997e-07
2.23002e-06 5.34997e-07 -6.23131e-05
0.00177801 9.80568e-05 -3.1815e-06
9.80568e-05 5.56611e-05 -1.01817e-06
-3.1815e-06 -1.01817e-06 -2.25379e-05
0.00152866 8.61022e-05 -7.69079e-07
8.61022e-05 7.29953e-05 2.68087e-07
-7.69079e-07 2.68087e-07 -5.91038e-05
0.00179351 0.000104204 6.70761e-07
0.000104204 0.000103942 1.91268e-07
6.70761e-07 1.91268e-07 -5.41164e-06
0.00197247 0.000101762 6.38522e-07
0.000101762 0.000156588 -2.95021e-06
6.38522e-07 -2.95021e-06 7.91363e-05
0.00104854 8.55932e-05 -1.25513e-05
8.55932e-05 -1.31855e-05 -2.32967e-06
-1.25513e-05 -2.32967e-06 -0.000143469
0.00152865 0.000136768 1.10854e-07
0.000136768 7.52342e-05 8.45417e-08
1.10854e-07 8.45417e-08 -6.75849e-05
0.00184596 0.000166057 5.39437e-07
0.000166057 0.0001238 -8.23502e-07
5.39437e-07 -8.23502e-07 -7.88333e-07
0.000516091 6.63084e-05 -1.7592e-05
6.63084e-05 -0.000150451 -5.35843e-06
-1.7592e-05 -5.35843e-06 -0.000229384
0.000896343 0.000114299 -2.84273e-06
0.000114299 -9.96686e-05 -2.34662e-07
-2.84273e-06 -2.34662e-07 -0.000237407
0.0017468 0.000192656 3.91629e-06
0.000192656 0.000225346 1.05787e-06
3.91629e-06 1.05787e-06 7.11142e-05
0.00584179 0.000198184 -0.000256077
0.000198184 0.00315615 -2.13769e-05
-0.000256077 -2.13769e-05 0.00315622
0.000512725 9.28316e-05 6.83662e-09
9.28316e-05 -0.000140849 1.71713e-07
6.83662e-09 1.71713e-07 -0.000223903
0.000724735 0.000131835 9.83112e-06
0.000131835 -0.000186284 3.702e-06
9.83112e-06 3.702e-06 -0.000330484
0.00585828 0.000178115 1.08322e-05
0.000178115 0.00317322 3.16209e-06
1.08322e-05 3.16209e-06 0.00316961
0.000499211 0.000119462 1.84567e-05
0.000119462 -0.00013175 1.02453e-05
1.84567e-05 1.02453e-05 -0.000222091
0.0058412 9.30268e-05 0.000227568
9.30268e-05 0.00315725 1.94085e-05
0.000227568 1.94085e-05 0.00315973
0.00173875 3.14698e-05 1.84182e-06
3.14698e-05 0.000208106 -1.49707e-08
1.84182e-06 -1.49707e-08 9.04956e-05
0.00177582 4.08216e-05 -1.70682e-06
4.08216e-05 8.48013e-05 1.07539e-07
-1.70682e-06 1.07539e-07 -1.19505e-05
0.00179609 5.9221e-05 -6.68309e-07
5.9221e-05 6.72745e-05 4.18094e-08
-6.68309e-07 4.18094e-08 -4.92097e-06
0.000820016 -7.35741e-06 -1.37588e-05
-7.35741e-06 -0.000137207 -1.17338e-07
-1.37588e-05 -1.17338e-07 -0.000259945
0.00175927 4.12609e-06 3.26001e-06
4.12609e-06 0.000221496 -2.23358e-07
3.26001e-06 -2.23358e-07 0.000104368
0.00166084 3.31906e-06 -1.42565e-06
3.31906e-06 1.81972e-05 6.8068e-07
-1.42565e-06 6.8068e-07 -7.45888e-05
0.00175622 -2.1985e-05 5.53556e-06
-2.1985e-05 0.000211142 6.70429e-08
5.53556e-06 6.70429e-08 9.16051e-05
0.000814411 -1.05092e-05 -1.52372e-06
-1.05092e-05 -0.000149085 9.32858e-08
-1.52372e-06 9.32858e-08 -0.000273444
0.000575886 -2.97996e-05 -1.9148e-05
-2.97996e-05 -0.000122542 8.70995e-07
-1.9148e-05 8.70995e-07 -0.000194675
0.000981353 -2.95103e-05 1.03727e-05
-2.95103e-05 -5.04421e-05 -1.21929e-06
1.03727e-05 -1.21929e-06 -0.000177139
0.000554697 4.2794e-06 3.26274e-07
4.2794e-06 -0.000134713 4.93789e-08
3.26274e-07 4.93789e-08 -0.000208358
0.005659 -9.38102e-05 -0.000251535
-9.38102e-05 0.0030424 7.32276e-06
-0.000251535 7.32276e-06 0.00305166
0.000563757 -3.64227e-05 1.87186e-05
-3.64227e-05 -0.000125579 -2.63497e-06
1.87186e-05 -2.63497e-06 -0.000201481
0.00567525 -1.16377e-05 -3.04993e-06
-1.16377e-05 0.00304472 1.77853e-06
-3.04993e-06 1.77853e-06 0.00305725
0.00569263 -7.35778e-05 0.000245812
-7.35778e-05 0.00305521 -9.07827e-06
0.000245812 -9.07827e-06 0.0030669
0.00149492 5.11581e-05 -5.82391e-07
5.11581e-05 5.92766e-05 2.64297e-08
-5.82391e-07 2.64297e-08 -6.74236e-05
0.00175289 7.69949e-05 -1.75201e-06
7.69949e-05 7.57733e-05 -1.23673e-06
-1.75201e-06 -1.23673e-06 -2.47509e-05
0.00177117 0.000102071 -3.57703e-06
0.000102071 4.83493e-05 -2.19565e-06
-3.57703e-06 -2.19565e-06 -2.71888e-05
0.00104797 5.03553e-05 -1.22672e-05
5.03553e-05 -1.06913e-05 -1.80167e-06
-1.22672e-05 -1.80167e-06 -0.000135471
0.00151445 8.56473e-05 2.02241e-07
8.56473e-05 6.54076e-05 -6.70444e-09
2.02241e-07 -6.70444e-09 -6.70788e-05
0.00179543 0.000103144 -6.21158e-07
0.000103144 0.000103608 -1.80779e-06
-6.21158e-07 -1.80779e-06 -5.84081e-06
0.000541657 4.19627e-05 -1.72043e-05
4.19627e-05 -0.000140033 -3.83283e-06
-1.72043e-05 -3.83283e-06 -0.000216461
0.00101551 8.67639e-05 2.54922e-07
8.67639e-05 -3.26287e-05 2.47593e-07
2.54922e-07 2.47593e-07 -0.000163506
0.00152649 0.000136339 2.332e-06
0.000136339 7.5552e-05 1.99176e-07
2.332e-06 1.99176e-07 -6.74284e-05
0.00576147 0.000184503 -0.000267648
0.000184503 0.00311026 -1.83664e-05
-0.000267648 -1.83664e-05 0.00311201
0.00054294 6.97961e-05 3.42051e-07
6.97961e-05 -0.000134412 1.58383e-07
3.42051e-07 1.58383e-07 -0.000213954
0.000968767 0.000117257 9.84739e-06
0.000117257 -5.47397e-05 3.09205e-06
9.84739e-06 3.09205e-06 -0.000192279
0.00583068 0.00021183 6.32718e-06
0.00021183 0.00315609 2.83513e-06
6.32718e-06 2.83513e-06 0.00315349
0.000541192 9.40659e-05 1.77682e-05
9.40659e-05 -0.000124238 7.87966e-06
1.77682e-05 7.87966e-06 -0.00020773
0.00584158 0.000201992 0.000245559
0.000201992 0.00316435 2.46964e-05
0.000245559 2.46964e-05 0.00316063
0.00100098 1.52273e-05 -1.28953e-05
1.52273e-05 -2.53562e-05 -7.27376e-07
-1.28953e-05 -7.27376e-07 -0.000147287
0.0016449 2.71609e-05 3.7301e-06
2.71609e-05 0.000152456 8.1876e-08
3.7301e-06 8.1876e-08 3.47588e-05
0.00172167 3.58544e-05 -4.43902e-06
3.58544e-05 5.54719e-05 2.42401e-07
-4.43902e-06 2.42401e-07 -4.28576e-05
0.000606844 3.03346e-05 -1.96891e-05
3.03346e-05 -0.000111809 -4.90967e-07
-1.96891e-05 -4.90967e-07 -0.000176962
0.00079622 -1.67951e-06 -1.73848e-06
-1.67951e-06 -0.000152201 5.65879e-08
-1.73848e-06 5.65879e-08 -0.000275087
0.00175935 1.06865e-05 5.6695e-06
1.06865e-05 0.000221364 1.52895e-07
5.6695e-06 1.52895e-07 0.000104129
0.000804354 -1.02945e-05 1.02278e-05
-1.02945e-05 -0.000156051 -4.33007e-07
1.02278e-05 -4.33007e-07 -0.000280589
0.000571238 -4.73992e-06 2.84136e-07
-4.73992e-06 -0.00012508 3.41263e-07
2.84136e-07 3.41263e-07 -0.000197467
0.00562299 3.61477e-05 -0.000256499
3.61477e-05 0.00301632 -2.92689e-07
-0.000256499 -2.92689e-07 0.00302976
0.000532444 1.57739e-05 1.82447e-05
1.57739e-05 -0.000149083 -1.24315e-06
1.82447e-05 -1.24315e-06 -0.000221651
0.00563642 -9.25111e-05 -7.81521e-06
-9.25111e-05 0.00302982 1.5972e-06
-7.81521e-06 1.5972e-06 0.0030387
0.00563327 7.80171e-06 0.000236339
7.80171e-06 0.00302008 -4.14396e-06
0.000236339 -4.14396e-06 0.00303234
0.00102085 2.7111e-05 -1.26659e-05
2.7111e-05 -1.88506e-05 -1.43517e-06
-1.26659e-05 -1.43517e-06 -0.000141101
0.00150571 5.02517e-05 -1.68715e-07
5.02517e-05 6.58384e-05 -9.51333e-08
-1.68715e-07 -9.51333e-08 -5.82719e-05
0.0018165 7.95631e-05 -4.5003e-06
7.95631e-05 0.000111186 -2.20472e-06
-4.5003e-06 -2.20472e-06 1.51961e-05
0.00262498 5.22578e-05 -0.000122376
5.22578e-05 0.00110567 -3.9863e-06
-0.000122376 -3.9863e-06 0.00105698
0.00101263 5.2243e-05 2.87812e-07
5.2243e-05 -3.23e-05 1.05464e-07
2.87812e-07 1.05464e-07 -0.000157525
0.00150043 8.51151e-05 2.05938e-06
8.51151e-05 5.78738e-05 -1.34495e-07
2.05938e-06 -1.34495e-07 -7.50112e-05
0.00567922 0.000142944 -0.000269008
0.000142944 0.00305841 -1.35352e-05
-0.000269008 -1.35352e-05 0.00306473
0.000576977 5.94724e-05 8.21731e-07
5.94724e-05 -0.000117031 3.64059e-07
8.21731e-07 3.64059e-07 -0.000195088
0.000985733 8.80435e-05 1.24177e-05
8.80435e-05 -5.00724e-05 2.77265e-06
1.24177e-05 2.77265e-06 -0.000181521
0.00580794 0.000196672 1.83041e-06
0.000196672 0.00313979 1.65909e-06
1.83041e-06 1.65909e-06 0.00314051
0.00058022 7.60369e-05 1.80563e-05
7.60369e-05 -0.000111052 6.1902e-06
1.80563e-05 6.1902e-06 -0.000191821
0.00581943 0.000239941 0.000257344
0.000239941 0.00315855 2.60882e-05
0.000257344 2.60882e-05 0.00315106
0.000655125 9.74725e-06 -1.63331e-05
9.74725e-06 -7.24188e-05 -1.8119e-06
-1.63331e-05 -1.8119e-06 -0.000145862
0.000892767 1.36618e-05 6.25257e-07
1.36618e-05 -9.13088e-05 2.69002e-07
6.25257e-07 2.69002e-07 -0.000213604
0.00154951 2.22e-05 4.83067e-06
2.22e-05 9.5733e-05 1.42036e-07
4.83067e-06 1.42036e-07 -2.20101e-05
0.00550044 -9.46302e-05 -0.000240686
-9.46302e-05 0.00295953 1.46246e-06
-0.000240686 1.46246e-06 0.0029631
0.000567026 8.01064e-06 -5.33463e-07
8.01064e-06 -0.000130876 1.09755e-07
-5.33463e-07 1.09755e-07 -0.000198649
0.000788114 3.26692e-06 1.01396e-05
3.26692e-06 -0.000158104 9.73495e-08
1.01396e-05 9.73495e-08 -0.00028109
0.000531415 2.06738e-05 1.84601e-05
2.06738e-05 -0.000149439 1.46127e-07
1.84601e-05 1.46127e-07 -0.000221162
0.00557878 3.67572e-07 2.42389e-06
3.67572e-07 0.0029945 -1.01509e-06
2.42389e-06 -1.01509e-06 0.00300447
0.00564506 -8.83699e-06 0.00024542
-8.83699e-06 0.00302522 -2.27519e-06
0.00024542 -2.27519e-06 0.00303899
0.00270115 9.02229e-06 -0.000118833
9.02229e-06 0.00114821 -2.46296e-06
-0.000118833 -2.46296e-06 0.00110108
0.00101424 3.01402e-05 5.32408e-08
3.01402e-05 -2.45965e-05 6.52832e-08
5.32408e-08 6.52832e-08 -0.000147154
0.00151065 4.95099e-05 1.79915e-06
4.95099e-05 6.91957e-05 -2.55298e-07
1.79915e-06 -2.55298e-07 -5.23178e-05
0.00526 -5.3139e-05 -8.82135e-05
-5.3139e-05 0.00281898 5.20589e-07
-8.82135e-05 5.20589e-07 0.00280544
0.00059337 5.18527e-05 5.92936e-08
5.18527e-05 -0.000108446 2.06527e-07
5.92936e-08 2.06527e-07 -0.000183229
0.000994388 5.46848e-05 1.2173e-05
5.46848e-05 -4.43332e-05 2.04705e-06
1.2173e-05 2.04705e-06 -0.000169943
0.00573351 0.000114269 -1.0761e-05
0.000114269 0.00308613 -1.29906e-06
-1.0761e-05 -1.29906e-06 0.0030941
0.000609324 8.1898e-05 1.94994e-05
8.1898e-05 -9.72084e-05 5.17125e-06
1.94994e-05 5.17125e-06 -0.000175962
0.00582514 0.000220804 0.000268153
0.000220804 0.00315738 2.37015e-05
0.000268153 2.37015e-05 0.00315462
0.00168375 -5.07667e-05 -0.000201027
-5.07667e-05 0.000645723 8.06453e-07
-0.000201027 8.06453e-07 0.000638554
0.00164562 2.66871e-05 -4.98527e-05
2.66871e-05 0.000513831 2.13817e-07
-4.98527e-05 2.13817e-07 0.000458119
0.000780588 1.45789e-05 1.24703e-05
1.45789e-05 -0.000159292 9.85463e-07
1.24703e-05 9.85463e-07 -0.000282019
0.00556561 -4.13685e-05 7.62507e-06
-4.13685e-05 0.00299278 1.5537e-06
7.62507e-06 1.5537e-06 0.00300076
0.000583187 -1.25637e-05 1.90227e-05
-1.25637e-05 -0.000115708 7.9578e-07
1.90227e-05 7.9578e-07 -0.000186863
0.00561816 -6.66026e-05 0.000259805
-6.66026e-05 0.00301935 -2.49581e-06
0.000259805 -2.49581e-06 0.00302977
0.00127011 1.32815e-05 -4.28199e-05
1.32815e-05 0.000422472 -7.14801e-07
-4.28199e-05 -7.14801e-07 0.000388171
0.00163363 1.35454e-05 -5.01798e-05
1.35454e-05 0.000510606 -7.61992e-07
-5.01798e-05 -7.61992e-07 0.000451717
0.000996764 3.17938e-05 1.24037e-05
3.17938e-05 -3.65178e-05 1.61698e-06
1.24037e-05 1.61698e-06 -0.000159411
0.00347913 5.33314e-05 9.54011e-05
5.33314e-05 0.00173572 2.34562e-06
9.54011e-05 2.34562e-06 0.0017251
0.000602169 6.22375e-05 1.97816e-05
6.22375e-05 -0.000103161 3.96512e-06
1.97816e-05 3.96512e-06 -0.000177972
0.00579051 0.000103376 0.000256511
0.000103376 0.00311428 1.43187e-05
0.000256511 1.43187e-05 0.0031253
0.00551544 -2.13738e-05 -8.93871e-06
-2.13738e-05 0.00296546 -2.17419e-06
-8.93871e-06 -2.17419e-06 0.00297252
0.000583241 4.48879e-05 2.04363e-05
4.48879e-05 -0.000124353 2.07472e-06
2.04363e-05 2.07472e-06 -0.000189204
0.00548137 4.80145e-05 0.000246903
4.80145e-05 0.00293924 1.06946e-07
0.000246903 1.06946e-07 0.00295018
0.0034123 2.7267e-05 0.000108864
2.7267e-05 0.00169982 3.53164e-06
0.000108864 3.53164e-06 0.00168973
0.000613022 5.56419e-06 1.8951e-05
5.56419e-06 -9.79727e-05 2.67269e-06
1.8951e-05 2.67269e-06 -0.000169466
0.00565802 -2.07783e-05 0.000247086
-2.07783e-05 0.00303769 6.27225e-06
0.000247086 6.27225e-06 0.00304853
0.00554814 -0.000125587 0.000242938
-0.000125587 0.00299046 -3.2171e-06
0.000242938 -3.2171e-06 0.0029927
0.00553062 -6.81313e-06 0.000242588
-6.81313e-06 0.00296002 3.34619e-06
0.000242588 3.34619e-06 0.00297405
