# vtk DataFile Version 2.0
Wound Healing Simulation
ASCII
DATASET UNSTRUCTURED_GRID
POINTS 3012 float
69.9759 18.75 4
67.2507 60.3285 4
69.976 18.75 2
73.0099 25.446 4
71.1327 20.9142 4
68.6801 16.6661 4
67.8246 19.9262 3.98056
67.2507 60.3286 2
71.1327 54.0858 4
68.6801 58.3339 4
65.6939 62.2254 4
65.3112 59.0006 3.97962
74.6784 42.3946 4
73.7221 47.2057 4
69.9759 18.75 0
73.0099 25.446 2
68.6801 16.6661 2
71.1327 20.9142 2
67.8252 19.9296 2
74.6792 32.6053 4
73.7222 27.7943 4
72.1454 23.1494 4
70.6134 26.2209 3.98015
68.8849 21.958 3.98103
67.2507 14.6715 4
66.6361 17.9724 3.97965
65.7941 21.027 3.96999
67.2507 60.3285 0
71.1327 54.0858 2
68.6801 58.3339 2
65.694 62.2255 2
65.3125 58.9967 2
72.1454 51.8506 4
69.9759 56.25 4
68.8356 53.113 3.98021
64.0165 64.0165 4
66.6099 57.1334 3.98023
63.8843 60.7649 3.97982
63.4974 57.7682 3.97111
60.3285 67.2507 4
74.6792 42.3947 2
73.7222 47.2057 2
74.9194 39.9526 4
74.2788 44.8158 4
72.1677 42.0855 3.97982
73.0099 49.554 4
71.2486 46.5979 3.97943
73.0099 25.446 0
71.1327 20.9142 0
68.6801 16.6661 0
67.8246 19.9262 0.0194364
74.6792 32.6053 2
73.7222 27.7943 2
67.2508 14.6715 2
72.1455 23.1494 2
70.6134 26.2214 2
66.6371 17.9766 2
68.8852 21.9602 2
65.7935 21.028 2
74.9197 35.0474 4
74.2794 30.1841 4
72.1844 32.9434 3.98008
71.2775 28.4314 3.97972
69.8148 24.0595 3.98077
68.3443 26.9522 3.96915
66.7597 22.9344 3.96957
65.694 12.7746 4
65.3224 16.1045 3.97922
64.7104 19.1979 3.97037
63.8787 22.0404 3.96646
71.1327 54.0858 0
65.6939 62.2254 0
68.6801 58.3339 0
65.3112 59.0006 0.0203829
72.1455 51.8506 2
69.9759 56.25 2
68.8358 53.111 2
64.0165 64.0165 2
66.6108 57.1297 2
63.886 60.7615 2
63.4968 57.7679 2
62.2254 65.694 4
58.8939 65.4139 3.98937
69.7681 50.9888 3.97992
67.7828 55.167 3.98005
66.6467 52.2079 3.96878
62.335 62.4269 3.98391
64.6579 56.0293 3.97028
62.1989 59.3977 3.96948
61.8165 56.6736 3.96626
58.3339 68.6801 4
60.3285 67.2508 2
73.7221 47.2057 0
74.6784 42.3946 0
74.9197 39.9526 2
74.2794 44.8159 2
72.1672 42.0854 2
73.0099 49.554 2
71.2485 46.5977 2
75 37.5 4
72.405 39.8022 3.98044
71.782 44.3527 3.97982
69.802 41.7894 3.96931
70.5744 48.8134 3.97953
68.9098 46.014 3.96889
74.6792 32.6053 0
73.7222 27.7943 0
67.2507 14.6715 0
72.1454 23.1494 0
70.6134 26.2209 0.0198512
68.8849 21.958 0.0189703
66.6361 17.9724 0.0203512
65.7941 21.027 0.0300062
74.9197 35.0474 2
74.2794 30.1841 2
72.1838 32.9438 2
71.2774 28.4318 2
65.694 12.7745 2
65.3239 16.1088 2
69.8149 24.0607 2
68.3442 26.9528 2
64.7098 19.1987 2
66.7593 22.9353 2
63.8783 22.0409 2
72.4128 35.2242 3.98048
71.8034 30.6763 3.98013
69.838 33.2687 3.96949
68.9637 29.0388 3.96917
67.6086 24.9129 3.96927
66.1786 27.6387 3.96701
64.0165 10.9835 4
64.7451 23.8346 3.96668
63.8887 14.3286 3.98076
63.5095 17.4521 3.97092
62.8995 20.3272 3.96617
62.0518 22.9591 3.96682
60.683 11.0988 3.98533
57.6111 11.4534 3.97705
72.1454 51.8506 0
69.9759 56.25 0
68.8356 53.113 0.01979
64.0165 64.0165 0
63.8843 60.7649 0.0201751
66.6099 57.1334 0.0197744
63.4974 57.7682 0.0288857
62.2255 65.694 2
58.8953 65.413 2
69.7681 50.9878 2
67.7833 55.164 2
66.6462 52.207 2
62.337 62.4243 2
64.6573 56.0287 2
62.1984 59.3981 2
61.8159 56.6735 2
60.6677 63.9763 3.98643
57.0251 66.7346 3.99083
57.5565 63.688 3.97908
67.5048 50.1755 3.96851
65.6989 54.1716 3.96929
64.5231 51.3795 3.96586
60.7705 60.9322 3.97338
62.8136 55.0619 3.96647
60.6492 58.1475 3.96396
60.3173 55.7723 3.96545
56.25 69.9759 4
58.3339 68.6801 2
60.3285 67.2507 0
58.9205 9.65686 3.98714
62.2254 9.30607 4
73.0099 49.554 0
74.2788 44.8158 0
71.2486 46.5979 0.0205717
72.1677 42.0855 0.0201774
74.9194 39.9526 0
75 37.5 2
72.4049 39.8023 2
71.7819 44.3524 2
69.8015 41.7891 2
70.5743 48.8131 2
68.9098 46.0134 2
72.4884 37.512 3.98003
70.0394 39.6573 3.96941
69.4282 43.907 3.96918
67.5814 41.4954 3.96831
68.2633 48.1061 3.96857
66.6876 45.4352 3.96752
74.9197 35.0474 0
74.2794 30.1841 0
72.1844 32.9434 0.0199169
71.2775 28.4314 0.0202824
65.694 12.7746 0
65.3224 16.1045 0.020777
69.8148 24.0595 0.0192292
68.3443 26.9522 0.0308519
66.7597 22.9344 0.0304292
64.7104 19.1979 0.0296263
63.8787 22.0404 0.0335394
72.4128 35.2243 2
71.8034 30.6769 2
69.8374 33.2692 2
68.9637 29.0393 2
64.0165 10.9835 2
63.8907 14.3325 2
63.5089 17.4529 2
67.6084 24.9137 2
66.1787 27.6391 2
62.8988 20.3276 2
64.7447 23.8351 2
62.0512 22.9596 2
60.6855 11.1014 2
57.6121 11.4517 2
70.0561 35.3922 3.96955
69.465 31.1499 3.96927
67.6428 33.5928 3.96805
66.7556 29.6264 3.96733
65.5092 25.7036 3.96678
64.0775 28.2697 3.97002
62.3406 12.656 3.9838
62.8061 24.6528 3.96808
62.1953 15.7926 3.97128
61.805 18.6947 3.96617
61.1831 21.3586 3.96528
60.3405 23.7556 3.96914
59.2442 12.7859 3.97424
55.8736 10.2386 3.97925
56.4028 13.1303 3.97358
69.7681 50.9888 0.0200753
62.2254 65.694 0
58.8939 65.4139 0.0106278
67.7828 55.167 0.0199485
66.6467 52.2079 0.0312164
62.335 62.4269 0.0160932
62.1989 59.3977 0.0305197
64.6579 56.0293 0.0297189
61.8165 56.6736 0.0337421
60.6695 63.9747 2
57.026 66.7342 2
57.5565 63.6897 2
67.5045 50.1747 2
65.6982 54.1708 2
64.523 51.3791 2
60.7703 60.933 2
62.813 55.0616 2
60.6489 58.1477 2
60.3168 55.7721 2
55.071 67.9315 3.9917
59.2169 62.3604 3.97455
55.804 64.9075 3.98349
56.324 62.0788 3.97504
65.3117 49.4023 3.96627
63.6978 53.287 3.96567
62.3821 50.634 3.96721
59.3271 59.5457 3.96817
61.0579 54.2955 3.96587
59.2711 56.9937 3.96385
59.2239 55.1651 3.96521
48.1016 68.5773 3.98714
50.9488 69.9312 3.99183
54.0858 71.1327 4
56.25 69.976 2
58.3339 68.6801 0
57.058 8.33666 3.98843
60.3285 7.74928 4
58.9228 9.65843 2
62.2255 9.30602 2
70.5744 48.8134 0.0204658
71.782 44.3527 0.0201801
68.9098 46.014 0.031106
69.802 41.7894 0.0306871
72.405 39.8022 0.0195641
75 37.5 0
72.4879 37.5122 2
70.0393 39.6572 2
69.428 43.9066 2
67.5814 41.4952 2
68.2632 48.1054 2
66.6871 45.4349 2
70.1273 37.5216 3.96943
67.8216 39.5113 3.96836
67.2036 43.4665 3.96792
65.4786 41.2025 3.9724
66.0457 47.4124 3.96692
64.5674 44.8344 3.97061
72.4128 35.2242 0.0195157
71.8034 30.6763 0.0198741
69.838 33.2687 0.0305144
68.9637 29.0388 0.030832
64.0165 10.9835 0
63.8887 14.3286 0.0192391
63.5095 17.4521 0.0290778
67.6086 24.9129 0.0307341
66.1786 27.6387 0.0329914
64.7451 23.8346 0.0333184
62.8995 20.3272 0.0338338
62.0518 22.9591 0.0331762
60.683 11.0988 0.0146746
57.6111 11.4534 0.0229545
70.056 35.3924 2
69.4649 31.1504 2
67.6429 33.593 2
66.7557 29.6267 2
62.343 12.6596 2
62.1948 15.7928 2
61.8043 18.6951 2
65.509 25.7041 2
64.0762 28.2701 2
61.1821 21.3591 2
62.8054 24.6533 2
60.3402 23.7563 2
59.2453 12.7856 2
56.4034 13.1284 2
55.8743 10.2373 2
67.86 35.5485 3.96833
67.2505 31.6252 3.96773
65.632 33.9329 3.97243
64.5914 30.2041 3.97087
63.4792 26.4292 3.96914
62.1342 28.8012 3.97405
60.773 14.2302 3.97366
60.9473 25.365 3.97114
60.6031 17.1418 3.96598
60.194 19.8353 3.96368
59.5808 22.2884 3.96599
58.8575 24.3583 3.97166
54.037 9.13959 3.98124
57.9065 14.3467 3.97392
54.7847 12.0224 3.9746
55.3071 14.6699 3.97192
67.5048 50.1755 0.0314862
57.0251 66.7346 0.0091672
60.6677 63.9763 0.0135744
57.5565 63.688 0.0209191
65.6989 54.1716 0.0307111
64.5231 51.3795 0.0341363
60.7705 60.9322 0.0266217
60.6492 58.1475 0.0360391
62.8136 55.0619 0.0335306
60.3173 55.7723 0.034552
55.0717 67.9314 2
59.2171 62.3617 2
55.8038 64.9086 2
56.3235 62.0811 2
65.3114 49.4019 2
63.6975 53.2868 2
62.3819 50.6336 2
59.3264 59.5471 2
61.0583 54.2953 2
59.2714 56.9933 2
59.2244 55.1647 2
53.043 68.9993 3.99173
53.9663 66.0114 3.98509
57.8764 60.8581 3.97401
54.6825 63.2021 3.97807
55.2061 60.5979 3.9737
63.122 48.6431 3.9684
61.7008 52.5588 3.96642
60.1605 49.9886 3.96909
58.0043 58.2449 3.96534
59.286 53.9251 3.96698
58.0861 55.7884 3.96128
50.1084 67.8556 3.98683
47.4625 66.5775 3.98356
46.0553 69.1563 3.98733
48.1016 68.578 2
48.8028 70.7224 3.99194
50.9492 69.9312 2
51.8506 72.1454 4
54.0858 71.1327 2
56.25 69.9759 0
55.1028 7.14098 3.99016
58.3339 6.31992 4
57.0598 8.33746 2
60.3286 7.74926 2
58.9205 9.65686 0.0128601
62.2254 9.30607 0
68.2633 48.1061 0.0314342
69.4282 43.907 0.0308192
66.6876 45.4352 0.0324783
67.5814 41.4954 0.0316904
70.0394 39.6573 0.030594
72.4884 37.512 0.019972
70.1269 37.5216 2
67.8214 39.5112 2
67.2042 43.4662 2
65.4774 41.2022 2
66.0458 47.412 2
64.5661 44.8339 2
67.9204 37.522 3.96838
65.716 39.3663 3.97261
65.0973 43.0147 3.97191
63.6191 40.9174 3.97693
63.8819 46.7 3.96941
62.663 44.194 3.97463
70.0561 35.3922 0.03045
69.465 31.1499 0.0307253
67.6428 33.5928 0.0319515
66.7556 29.6264 0.032668
62.3406 12.656 0.0161979
62.1953 15.7926 0.0287219
61.805 18.6947 0.0338295
65.5092 25.7036 0.0332173
64.0775 28.2697 0.0299824
62.8061 24.6528 0.0319187
61.1831 21.3586 0.0347198
60.3405 23.7556 0.0308595
59.2442 12.7859 0.0257642
56.4028 13.1303 0.0264223
55.8736 10.2386 0.0207457
67.8597 35.5486 2
67.2509 31.6254 2
65.631 33.9331 2
64.5903 30.2045 2
60.7731 14.231 2
60.6026 17.1418 2
60.1951 19.8353 2
63.4784 26.4297 2
62.1321 28.8018 2
59.5823 22.2889 2
60.9466 25.3657 2
58.8567 24.3594 2
57.9066 14.3457 2
55.3075 14.6693 2
54.0375 9.13814 2
54.7854 12.0201 2
65.8076 35.6694 3.97254
65.1118 32.1635 3.97141
64.173 34.2578 3.9768
62.4499 30.6567 3.97502
61.5392 27.0982 3.97238
60.6877 29.1709 3.97729
59.3046 15.6823 3.96993
59.185 25.8351 3.97452
59.1046 18.3763 3.96431
58.6786 20.8843 3.96293
58.1662 23.1331 3.96663
57.8261 24.7101 3.97372
52.1119 8.15607 3.98387
53.0568 11.0259 3.97657
56.6687 15.7634 3.9725
53.8055 13.7012 3.97431
54.3658 16.0262 3.97357
55.071 67.9315 0.00829895
65.3117 49.4023 0.0337273
55.804 64.9075 0.0165126
59.2169 62.3604 0.0254476
56.324 62.0788 0.0249619
63.6978 53.287 0.0343275
62.3821 50.634 0.032788
59.3271 59.5457 0.0318258
59.2711 56.9937 0.0361544
61.0579 54.2955 0.0341327
59.2239 55.1651 0.0347895
53.0435 68.9993 2
53.9663 66.0122 2
57.8756 60.8596 2
54.6819 63.2029 2
55.2058 60.5997 2
63.1212 48.6426 2
61.7017 52.5587 2
60.1603 49.988 2
58.0037 58.2462 2
59.288 53.9248 2
58.0843 55.7873 2
52.0696 66.9985 3.98648
52.9527 64.2144 3.9816
56.6396 59.4732 3.97288
53.6774 61.6128 3.97609
54.2497 59.2996 3.97418
60.8499 47.8494 3.96996
59.622 52.0765 3.96786
57.8696 49.5757 3.97081
56.7512 56.9637 3.96692
57.0557 54.0919 3.96467
50.1083 67.856 2
49.3365 65.9183 3.98353
47.4625 66.5781 2
46.8917 64.7306 3.98188
45.5575 67.0943 3.98361
43.9725 69.5883 3.98753
46.0553 69.1568 2
46.6093 71.3669 3.99198
48.1016 68.5773 0.0128623
48.8032 70.7226 2
49.554 73.0099 4
50.9488 69.9312 0.00816824
51.8506 72.1455 2
54.0858 71.1327 0
53.0645 6.07215 3.99131
55.1042 7.14114 2
56.25 5.02411 4
58.3339 6.3199 2
57.058 8.33666 0.0115698
60.3285 7.74928 0
66.0457 47.4124 0.0330815
67.2036 43.4665 0.0320774
64.5674 44.8344 0.0293935
65.4786 41.2025 0.0275971
67.8216 39.5113 0.0316356
70.1273 37.5216 0.0305737
67.9204 37.522 2
65.7147 39.3662 2
65.0959 43.0143 2
63.6166 40.9169 2
63.8806 46.6995 2
62.6606 44.1933 2
65.822 37.5012 3.97258
63.7698 39.26 3.97712
63.1814 42.5323 3.97586
62.2473 40.6797 3.97708
61.8228 45.8921 3.97232
61.2582 43.6546 3.97724
67.86 35.5485 0.0316659
67.2505 31.6252 0.032265
65.632 33.9329 0.0275706
64.5914 30.2041 0.0291286
60.773 14.2302 0.0263395
60.6031 17.1418 0.0340219
60.194 19.8353 0.0363185
63.4792 26.4292 0.0308563
62.1342 28.8012 0.0259475
60.9473 25.365 0.0288569
59.5808 22.2884 0.034009
58.8575 24.3583 0.0283447
57.9065 14.3467 0.0260785
55.3071 14.6699 0.0280824
54.037 9.13959 0.0187577
54.7847 12.0224 0.0254027
65.8063 35.6695 2
65.1106 32.1638 2
64.1718 34.2581 2
62.4483 30.6572 2
59.3038 15.6827 2
59.1048 18.3763 2
58.6835 20.8844 2
61.5379 27.0989 2
60.6866 29.1717 2
58.1648 23.1345 2
59.1842 25.8362 2
57.8258 24.7116 2
56.6686 15.7621 2
54.366 16.0268 2
53.8056 13.6962 2
52.1121 8.15494 2
53.0571 11.0244 2
63.9708 35.6366 3.97641
62.7822 33.0614 3.97589
60.4217 30.6429 3.97664
59.4013 27.948 3.97555
57.9266 17.0045 3.96686
57.5766 25.7742 3.97628
57.6784 19.5041 3.96084
57.2667 21.8834 3.96327
57.0286 23.9989 3.96785
50.1123 7.28672 3.98651
51.2321 10.1308 3.9794
52.1689 12.8103 3.97656
55.5228 16.9982 3.97146
52.9709 15.2934 3.9714
53.7429 17.012 3.9783
53.043 68.9993 0.00826771
53.9663 66.0114 0.0149111
63.122 48.6431 0.0316031
54.6825 63.2021 0.0219332
57.8764 60.8581 0.0259924
55.2061 60.5979 0.0262965
61.7008 52.5588 0.0335809
60.1605 49.9886 0.0309143
58.0043 58.2449 0.0346602
58.0861 55.7884 0.0387238
59.286 53.9251 0.033018
52.0696 66.9992 2
52.9523 64.2151 2
56.6391 59.4743 2
53.6768 61.6128 2
54.2495 59.3016 2
60.8486 47.8486 2
59.6221 52.0759 2
57.8671 49.5744 2
56.7499 56.968 2
57.0536 54.0908 2
51.1676 65.125 3.98343
52.0441 62.5319 3.97848
55.4646 58.2311 3.97474
52.8263 60.1145 3.97746
53.6237 58.4498 3.97905
58.0954 46.8038 3.97422
57.4476 51.7493 3.96733
56.0559 49.5057 3.97064
55.4304 55.763 3.96343
55.2658 53.3458 3.96307
50.1084 67.8556 0.013171
49.3364 65.9185 2
48.6176 64.118 3.98241
47.4625 66.5775 0.0164406
45.5576 67.0949 2
46.8918 64.7311 2
46.3812 63.0459 3.98213
45.132 65.191 3.98163
43.6308 67.4648 3.98378
41.86 69.8754 3.9873
43.9724 69.5888 2
44.3766 71.8617 3.99195
46.0553 69.1563 0.012667
46.6097 71.3671 2
47.2057 73.7222 4
48.8028 70.7224 0.00805878
49.554 73.0099 2
51.8506 72.1454 0
50.9546 5.13257 3.99195
53.0654 6.07217 2
54.0858 3.86728 4
55.1028 7.14098 0.00983853
56.25 5.02406 2
58.3339 6.31992 0
63.8819 46.7 0.0305896
65.0973 43.0147 0.0280931
62.663 44.194 0.0253651
63.6191 40.9174 0.0230694
65.716 39.3663 0.0273933
67.9204 37.522 0.0316156
65.8208 37.5012 2
63.7674 39.2598 2
63.1794 42.5317 2
62.2449 40.6792 2
61.8207 45.8913 2
61.2561 43.6538 2
63.8319 37.456 3.97673
61.9661 39.3429 3.97712
61.0057 41.9319 3.97705
60.0493 44.7353 3.97681
65.8076 35.6694 0.0274632
65.1118 32.1635 0.0285895
64.173 34.2578 0.0231964
62.4499 30.6567 0.0249756
59.3046 15.6823 0.0300675
59.1046 18.3763 0.03569
58.6786 20.8843 0.0370743
61.5392 27.0982 0.0276172
60.6877 29.1709 0.0227096
59.185 25.8351 0.025478
58.1662 23.1331 0.0333715
57.8261 24.7101 0.0262792
56.6687 15.7634 0.027497
54.3658 16.0262 0.0264263
53.8055 13.7012 0.0256852
52.1119 8.15607 0.0161265
53.0568 11.0259 0.0234318
63.9689 35.6368 2
62.7805 33.0619 2
60.4202 30.6438 2
57.9257 17.0048 2
57.6814 19.5031 2
57.2698 21.8841 2
59.4004 27.949 2
57.0279 24.0006 2
57.5761 25.7756 2
50.1126 7.28508 2
55.5231 16.9976 2
53.7429 17.0113 2
52.9711 15.2915 2
52.1695 12.8101 2
51.2325 10.1294 2
62.0039 35.3718 3.97708
60.0589 32.7745 3.97705
58.3926 30.1213 3.97693
57.0812 27.4356 3.97686
56.6132 18.1832 3.9667
56.1107 25.1624 3.97374
56.2952 20.5606 3.95988
55.9665 22.9247 3.9624
48.0567 6.52824 3.98847
49.3246 9.33575 3.98154
50.4316 12.0045 3.97641
51.3715 14.5178 3.97245
54.3919 17.9509 3.97347
52.3467 17.0753 3.96884
52.0696 66.9985 0.0135236
52.9527 64.2144 0.0183955
60.8499 47.8494 0.0300444
53.6774 61.6128 0.0239063
56.6396 59.4732 0.0271212
54.2497 59.2996 0.025819
59.622 52.0765 0.0321371
57.8696 49.5757 0.0291883
56.7512 56.9637 0.0330783
57.0557 54.0919 0.0353332
51.1674 65.1256 2
52.0436 62.5326 2
55.4641 58.2324 2
52.826 60.118 2
53.6233 58.451 2
58.0943 46.8027 2
57.4463 51.7483 2
56.0534 49.5046 2
55.4298 55.7636 2
55.2683 53.3462 2
50.3455 63.3764 3.9821
51.2392 60.9241 3.97655
54.1931 57.2472 3.97508
52.2976 58.6081 3.97555
56.4068 44.1247 3.97753
55.2518 47.8396 3.97403
54.9243 51.3445 3.96587
53.9397 54.5096 3.9644
49.3365 65.9183 0.0164705
48.6175 64.1181 2
47.961 62.4683 3.98175
45.5575 67.0943 0.0163929
46.8917 64.7306 0.0181233
43.6308 67.4653 2
46.3814 63.0463 2
45.132 65.1916 2
45.9863 61.577 3.98392
44.7666 63.4449 3.98033
43.3562 65.5 3.98135
41.6631 67.6832 3.98359
39.702 70.022 3.98741
41.8599 69.876 2
42.1109 72.2065 3.99202
43.9725 69.5883 0.0124707
44.3769 71.8619 2
44.8159 74.2794 4
46.6093 71.3669 0.00801912
47.2057 73.7222 2
49.554 73.0099 0
48.7853 4.32305 3.99257
50.9552 5.13202 2
51.8506 2.85458 4
53.0645 6.07215 0.00869372
54.0858 3.86728 2
56.25 5.02411 0
61.8228 45.8921 0.0276798
63.1814 42.5323 0.0241371
61.2582 43.6546 0.0227647
62.2473 40.6797 0.0229244
63.7698 39.26 0.022881
65.822 37.5012 0.0274188
63.8295 37.456 2
61.964 39.343 2
61.0038 41.9312 2
60.0485 44.7344 2
61.8023 37.4435 3.97736
59.9927 39.826 3.97722
58.715 42.8754 3.97688
63.9708 35.6366 0.0235934
62.7822 33.0614 0.0241103
60.4217 30.6429 0.0233594
57.9266 17.0045 0.0331389
57.6784 19.5041 0.0391563
57.2667 21.8834 0.0367275
59.4013 27.948 0.0244515
57.5766 25.7742 0.0237161
57.0286 23.9989 0.0321456
55.5228 16.9982 0.0285421
53.7429 17.012 0.0216992
52.9709 15.2934 0.0285995
50.1123 7.28672 0.0134933
52.1689 12.8103 0.0234387
51.2321 10.1308 0.0206033
62.0019 35.3723 2
60.057 32.7747 2
58.392 30.1221 2
56.6124 18.1836 2
56.2991 20.558 2
55.9694 22.9262 2
57.0816 27.4369 2
56.1115 25.1642 2
48.0567 6.52707 2
49.325 9.33389 2
54.3924 17.9507 2
52.3466 17.0743 2
51.3712 14.5131 2
50.4322 12.0028 2
59.6352 35.1356 3.97712
57.6953 32.3134 3.97653
56.2907 29.4011 3.97749
55.1982 26.6747 3.97738
55.3039 19.2214 3.96109
54.7536 24.1275 3.96387
54.9061 21.6141 3.95979
45.9627 5.8831 3.98892
43.3742 7.47447 3.98589
47.3556 8.62611 3.98418
48.5993 11.3016 3.9783
49.7085 13.7568 3.97619
50.6224 16.1623 3.97543
53.0952 18.6996 3.9678
51.2799 18.0977 3.97779
51.1676 65.125 0.0165653
52.0441 62.5319 0.0215224
58.0954 46.8038 0.0257767
52.8263 60.1145 0.0225393
55.4646 58.2311 0.0252577
53.6237 58.4498 0.0209524
57.4476 51.7493 0.0326697
56.0559 49.5057 0.0293603
55.4304 55.763 0.0365687
55.2658 53.3458 0.0369278
50.3452 63.3766 2
51.2386 60.9244 2
54.1928 57.2487 2
52.2971 58.6091 2
56.4058 44.1238 2
55.2515 47.8387 2
54.9263 51.3445 2
53.9403 54.5111 2
49.59 61.7387 3.98045
55.2295 41.6684 3.97577
50.5555 59.311 3.97362
52.1507 56.4648 3.97023
53.8491 45.4936 3.97493
53.1172 49.2707 3.96966
52.5592 52.8108 3.96178
48.6176 64.118 0.0175947
47.9608 62.468 2
47.3264 61.0012 3.98521
43.6308 67.4648 0.0162245
45.132 65.191 0.0183727
46.3812 63.0459 0.0178713
41.6633 67.6833 2
43.3562 65.5009 2
45.9865 61.5775 2
44.7667 63.4456 2
45.7626 60.6211 3.98334
44.4827 61.8235 3.98084
43.146 63.7164 3.97966
41.5459 65.6373 3.98034
39.6325 67.7622 3.98319
37.526 70.0468 3.98686
39.7019 70.0226 2
39.8177 72.4033 3.99182
41.86 69.8754 0.0126993
42.1112 72.2068 2
42.3947 74.6792 4
44.3766 71.8617 0.00805493
44.8159 74.2794 2
47.2057 73.7222 0
43.8519 5.36002 3.9889
46.5712 3.64752 3.9927
48.7856 4.32259 2
49.554 1.99015 4
50.9546 5.13257 0.0080505
51.8506 2.85453 2
54.0858 3.86728 0
60.0493 44.7353 0.0231907
61.0057 41.9319 0.0229453
61.9661 39.3429 0.0228779
63.8319 37.456 0.0232707
61.8008 37.4436 2
59.992 39.8262 2
58.7141 42.8744 2
59.4939 37.5652 3.97746
57.6697 40.6255 3.97743
54.6517 39.685 3.97527
62.0039 35.3718 0.0229157
60.0589 32.7745 0.0229501
58.3926 30.1213 0.0230668
56.6132 18.1832 0.0333006
56.2952 20.5606 0.0401217
55.9665 22.9247 0.0375975
57.0812 27.4356 0.0231399
56.1107 25.1624 0.026259
54.3919 17.9509 0.0265267
52.3467 17.0753 0.0311646
51.3715 14.5178 0.0275535
48.0567 6.52824 0.0115296
49.3246 9.33575 0.0184576
50.4316 12.0045 0.0235854
59.6348 35.1352 2
45.9626 5.88238 2
43.3741 7.47365 2
57.6951 32.3139 2
56.2897 29.4024 2
55.3034 19.222 2
54.9139 21.614 2
54.7531 24.1297 2
55.1953 26.6771 2
47.3557 8.62412 2
48.5999 11.2994 2
53.0962 18.6986 2
51.2808 18.0981 2
50.623 16.162 2
49.7086 13.7554 2
57.0552 34.7794 3.9774
55.41 31.5718 3.9769
54.2096 28.4889 3.9776
53.5609 25.5861 3.97595
53.9146 20.1804 3.96106
53.4535 22.7815 3.95517
41.3994 7.08032 3.98602
45.3604 7.99583 3.98653
42.8663 9.41785 3.98269
46.667 10.6576 3.98129
47.7416 13.1128 3.97817
48.9225 15.4202 3.97304
49.9862 17.7266 3.97474
51.613 19.3758 3.97619
50.3455 63.3764 0.0178992
51.2392 60.9241 0.0234473
56.4068 44.1247 0.0224706
55.2518 47.8396 0.0259705
52.2976 58.6081 0.0244459
54.1931 57.2472 0.0249219
54.9243 51.3445 0.0341293
53.9397 54.5096 0.0355981
49.5894 61.7385 2
55.2268 41.6669 2
50.5551 59.3125 2
52.1503 56.4661 2
53.8509 45.4934 2
53.1255 49.2711 2
52.5592 52.8101 2
48.8421 60.1946 3.9784
52.0702 42.5617 3.98116
49.766 57.6041 3.97023
50.5202 54.3997 3.96219
51.5189 47.2016 3.97577
51.0503 50.8974 3.9564
47.7332 43.698 3.98818
47.961 62.4683 0.0182451
47.3264 61.0009 2
46.6125 59.7884 3.98581
41.6631 67.6832 0.0164066
43.3562 65.5 0.0186498
44.7666 63.4449 0.0196652
45.9863 61.577 0.0160826
39.6328 67.7629 2
41.5457 65.6371 2
45.7627 60.6217 2
43.1461 63.7173 2
44.4829 61.8242 2
44.6194 60.2807 3.98438
42.9498 62.07 3.97754
41.5997 63.809 3.97958
39.6473 65.6039 3.97918
37.5634 67.7435 3.98231
31.6973 65.1235 3.98055
33.3925 67.4817 3.98207
35.3339 69.957 3.98709
37.5259 70.0477 2
37.5095 72.4578 3.99189
39.702 70.022 0.0125864
39.8179 72.4037 2
39.9526 74.9197 4
42.1109 72.2065 0.00797985
42.3947 74.6792 2
44.8159 74.2794 0
41.7365 4.96917 3.98908
43.8519 5.35916 2
44.3265 3.11068 3.99303
46.5714 3.64716 2
47.2057 1.27793 4
48.7853 4.32305 0.00742712
49.554 1.99013 2
51.8506 2.85458 0
58.715 42.8754 0.0231159
59.9927 39.826 0.0227793
61.8023 37.4435 0.0226374
59.4942 37.5656 2
57.6693 40.6259 2
54.6502 39.6863 2
56.4438 37.8851 3.97716
49.1017 41.2682 3.98594
52.6659 39.3068 3.98355
39.4429 6.80416 3.98598
59.6352 35.1356 0.0228751
57.6953 32.3134 0.0234663
56.2907 29.4011 0.0225136
55.3039 19.2214 0.0389052
54.9061 21.6141 0.0402054
54.7536 24.1275 0.0361309
55.1982 26.6747 0.022623
53.0952 18.6996 0.0321978
51.2799 18.0977 0.0222141
50.6224 16.1623 0.0245746
45.9627 5.8831 0.011084
49.7085 13.7568 0.0238098
47.3556 8.62611 0.0158158
48.5993 11.3016 0.0217018
43.3742 7.47447 0.0141141
57.0547 34.7789 2
41.3994 7.07911 2
45.3602 7.99514 2
42.8661 9.41714 2
55.4128 31.5702 2
54.2099 28.4896 2
53.916 20.1828 2
53.4532 22.7798 2
53.5592 25.5879 2
46.6671 10.6543 2
47.742 13.1096 2
51.6148 19.3763 2
49.9861 17.7244 2
48.9221 15.4208 2
54.4549 33.9774 3.97593
53.1511 30.5777 3.97754
52.3024 27.3049 3.97572
51.9829 24.194 3.97738
52.3158 21.115 3.97317
41.0138 9.05188 3.98235
44.7255 9.99597 3.98466
42.468 10.9043 3.98634
46.0029 12.7362 3.97709
47.6733 14.5977 3.97299
48.0933 17.0043 3.9727
49.7943 19.721 3.97199
49.59 61.7387 0.0195517
50.5555 59.311 0.0263764
55.2295 41.6684 0.024227
53.8491 45.4936 0.0250704
53.1172 49.2707 0.0303383
52.1507 56.4648 0.0297652
52.5592 52.8108 0.038217
48.8416 60.193 2
52.0847 42.566 2
49.7654 57.605 2
50.5198 54.4014 2
51.5226 47.2018 2
51.0508 50.896 2
47.7435 43.7221 2
47.9721 58.7274 3.97887
49.6893 45.2052 3.97891
48.5525 55.8972 3.9755
49.0226 52.5599 3.97758
49.4571 48.9878 3.97385
45.5019 39.8372 3.88037
45.9667 42.5682 3.91097
46.1417 45.7313 3.98371
43.3109 41.0877 3.76738
41.8019 41.97 3.60248
47.3264 61.0012 0.0147888
46.612 59.7881 2
45.4583 58.7833 3.98308
39.6325 67.7622 0.0168129
41.5459 65.6373 0.0196588
43.146 63.7164 0.0203368
44.4827 61.8235 0.0191577
45.7626 60.6211 0.0166589
41.5997 63.8092 2
37.5636 67.7445 2
39.6472 65.6046 2
44.6196 60.2813 2
42.95 62.0707 2
41.7529 62.4806 3.97867
42.4778 59.9654 3.98097
39.8938 63.5411 3.97731
37.6421 65.502 3.98004
35.4636 67.6532 3.98232
33.5756 65.3353 3.97943
31.9592 63.2918 3.98024
29.8836 64.7153 3.98175
31.6972 65.1241 2
31.3772 67.1921 3.98278
33.3926 67.4825 2
33.1572 69.7509 3.98697
35.3337 69.9578 2
35.1951 72.3722 3.99178
37.526 70.0468 0.0131364
37.5096 72.4584 2
37.5 75 4
39.8177 72.4033 0.00818133
39.9526 74.9197 2
42.3947 74.6792 0
39.6242 4.71673 3.98945
41.7365 4.96824 2
42.0628 2.71813 3.99328
43.8519 5.36002 0.0111016
44.3266 3.11014 2
44.8158 0.721173 4
46.5712 3.64752 0.00730211
47.2057 1.27779 2
49.554 1.99015 0
57.6697 40.6255 0.0225712
59.4939 37.5652 0.0225357
54.6517 39.685 0.0247343
49.1243 41.2824 2
56.4449 37.8853 2
52.6649 39.2925 2
53.5114 36.6313 3.97733
47.0263 40.3606 3.91697
50.043 38.5233 3.99042
37.5169 6.67542 3.98589
39.4429 6.80278 2
39.2112 8.69491 3.9833
35.9427 8.49512 3.98394
57.0552 34.7794 0.0226022
55.41 31.5718 0.0230977
54.2096 28.4889 0.0224002
53.9146 20.1804 0.0389439
53.4535 22.7815 0.0448256
53.5609 25.5861 0.0240501
51.613 19.3758 0.0238108
49.9862 17.7266 0.02526
48.9225 15.4202 0.0269599
45.3604 7.99583 0.0134716
47.7416 13.1128 0.0218314
46.667 10.6576 0.0187111
41.3994 7.08032 0.0139838
42.8663 9.41785 0.0173064
54.4517 33.98 2
41.0139 9.05078 2
44.7247 9.99549 2
42.4679 10.9043 2
53.1484 30.5776 2
52.3106 27.3059 2
52.3194 21.1157 2
51.9842 24.1975 2
46.0028 12.7312 2
47.6731 14.5944 2
49.7965 19.7207 2
48.0923 17.0025 2
51.9962 32.8909 3.98026
50.9475 29.2658 3.9755
50.5575 25.8271 3.9731
49.8687 22.312 3.98339
40.5686 11.6116 3.98081
43.8574 11.9162 3.98012
45.7925 15.4363 3.98184
47.4857 19.3331 3.97716
45.8949 37.4827 3.87684
48.8421 60.1946 0.0216026
49.766 57.6041 0.0297658
52.0702 42.5617 0.0188372
51.5189 47.2016 0.0242314
51.0503 50.8974 0.0435996
50.5202 54.3997 0.0378135
47.7332 43.698 0.0118248
47.9714 58.729 2
49.7021 45.2153 2
48.5509 55.8996 2
49.0214 52.5642 2
49.4605 48.9847 2
45.5475 39.8483 2
45.9919 42.5955 2
46.1486 45.739 2
43.3366 41.1167 2
41.8224 41.9882 2
46.8147 57.3295 3.98087
44.0626 39.377 3.76583
42.155 40.8462 3.65435
47.777 47.2012 3.97936
47.1017 54.2115 3.97065
47.4426 50.7126 3.9694
44.5496 47.3333 3.97653
44.6167 41.9063 3.85897
44.6177 44.4658 3.92702
42.2246 42.581 3.78079
40.7428 42.2911 3.64022
46.6125 59.7884 0.0141853
45.4587 58.7835 2
43.8628 57.6981 3.98127
37.5634 67.7435 0.0176857
39.6473 65.6039 0.0208181
41.5997 63.809 0.0204174
42.9498 62.07 0.0224562
44.6194 60.2807 0.0156169
35.4638 67.6541 2
41.753 62.4812 2
39.8935 63.5417 2
37.6421 65.5028 2
42.4782 59.966 2
40.6232 61.6347 3.98054
40.4399 58.1869 3.97953
37.8368 63.2021 3.97805
35.573 65.4243 3.97963
33.5755 65.336 2
31.9589 63.2925 2
33.6285 63.3295 3.97852
30.3786 62.8515 3.98114
32.1238 61.9959 3.98382
26.8712 61.4922 3.97854
28.0625 64.1438 3.98134
29.8834 64.7159 2
29.4066 66.7564 3.98347
31.6973 65.1235 0.0194493
31.3773 67.1928 2
31.0148 69.416 3.9869
33.3925 67.4817 0.0179251
33.157 69.7516 2
32.8922 72.1467 3.99187
35.3339 69.957 0.0129069
35.1949 72.3727 2
35.0474 74.9194 4
37.5095 72.4578 0.00810664
37.5 75 2
39.9526 74.9197 0
35.6215 6.72655 3.98549
37.5237 4.6162 3.98956
39.6242 4.71553 2
39.7893 2.47469 3.99325
41.7365 4.96917 0.0109173
42.0629 2.71759 2
42.3946 0.32156 4
44.3265 3.11068 0.00696795
44.8159 0.72056 2
47.2057 1.27793 0
49.1017 41.2682 0.0140643
56.4438 37.8851 0.0228371
52.6659 39.3068 0.016451
47.0478 40.3597 2
50.0495 38.5114 2
53.5172 36.6371 2
50.8313 35.5798 3.97598
47.6948 37.7553 3.93258
45.5039 35.1495 3.87722
43.3175 33.8982 3.76164
41.8023 33.0268 3.5984
37.4584 8.53668 3.98416
37.5168 6.67422 2
39.4429 6.80416 0.0140157
39.2115 8.69328 2
38.9763 10.1296 3.98365
35.899 9.77695 3.98132
34.1518 8.82588 3.9827
35.9423 8.49358 2
54.4549 33.9774 0.0240674
53.1511 30.5777 0.0224594
52.3024 27.3049 0.0242769
52.3158 21.115 0.026825
51.9829 24.194 0.0226199
49.7943 19.721 0.0280132
48.0933 17.0043 0.0272957
47.6733 14.5977 0.0270128
44.7255 9.99597 0.0153369
46.0029 12.7362 0.0229055
41.0138 9.05188 0.0176457
42.468 10.9043 0.0136596
52.0027 32.8904 2
40.5695 11.6117 2
43.8562 11.9166 2
50.9659 29.266 2
50.5624 25.8294 2
49.8703 22.3094 2
45.7909 15.4237 2
47.4874 19.3369 2
49.5427 31.4898 3.98699
48.9817 27.598 3.975
49.2402 24.504 3.97761
47.1472 22.0784 3.98382
38.3022 12.742 3.97786
42.0993 14.3068 3.97893
44.7879 18.5209 3.97778
44.4155 37.491 3.77562
45.9655 37.4908 2
47.9721 58.7274 0.0211294
48.5525 55.8972 0.0244958
49.6893 45.2052 0.0210867
49.4571 48.9878 0.0261487
49.0226 52.5599 0.0224238
45.5019 39.8372 0.119633
45.9667 42.5682 0.0890326
46.1417 45.7313 0.0162866
43.3109 41.0877 0.232624
41.8019 41.97 0.397518
46.8133 57.3307 2
44.0992 39.3987 2
42.149 40.8562 2
47.7821 47.2018 2
47.0997 54.2157 2
47.4452 50.7164 2
44.5621 47.3121 2
44.6425 41.9309 2
44.6426 44.4854 2
42.273 42.6132 2
40.7553 42.2904 2
45.3619 55.9175 3.98944
42.4795 39.2631 3.66629
40.6253 40.7331 3.76013
45.8913 48.8678 3.99085
45.4378 52.4985 3.9831
43.2562 48.3394 3.998
43.1894 46.0003 3.90851
43.3561 43.6857 3.85679
40.8824 43.6888 3.76251
39.2445 42.579 3.65384
45.4583 58.7833 0.0169233
43.8628 57.6993 2
42.0904 56.3056 3.9836
35.4636 67.6532 0.0176755
37.6421 65.502 0.0199616
39.8938 63.5411 0.0226942
41.7529 62.4806 0.0213292
42.4778 59.9654 0.0190272
35.573 65.4254 2
40.6233 61.6355 2
37.8364 63.2028 2
40.4402 58.1884 2
38.9183 56.4788 3.9906
38.2509 60.3167 3.97881
35.6066 63.1952 3.97661
33.5756 65.3353 0.0205705
31.9592 63.2918 0.0197602
33.6284 63.3304 2
30.3785 62.852 2
32.1242 61.9968 2
28.6821 62.1971 3.98084
33.3456 61.5053 3.98012
31.0692 61.2134 3.98042
27.576 59.5859 3.98083
23.8019 59.0728 3.97871
25.0378 60.8652 3.97898
26.8716 61.4928 2
26.2298 63.4741 3.98025
28.0625 64.144 2
27.4634 66.1806 3.9837
29.8836 64.7153 0.0182534
29.4068 66.7568 2
28.9071 68.9421 3.98672
31.3772 67.1921 0.0172215
31.0146 69.4166 2
30.6146 71.7777 3.99165
33.1572 69.7509 0.0130325
32.8919 72.1471 2
32.6054 74.6784 4
35.1951 72.3722 0.00821615
35.0474 74.9197 2
37.5 75 0
33.7244 6.98197 3.98476
35.4356 4.68648 3.98942
35.6214 6.72554 2
37.5149 2.38718 3.99326
37.5236 4.61535 2
39.6242 4.71673 0.0105472
39.7892 2.47403 2
39.9526 0.0806499 4
42.0628 2.71813 0.00672227
42.3947 0.320817 2
44.8158 0.721173 0
44.0739 35.6026 3.76382
42.1577 34.1433 3.64886
47.0263 40.3606 0.083032
50.043 38.5233 0.00958052
53.5114 36.6313 0.0226692
47.694 37.7548 2
50.844 35.5751 2
45.5408 35.1246 2
43.3484 33.8675 2
41.8235 33.0073 2
47.863 34.3053 3.95984
44.618 33.065 3.85294
42.2274 32.4151 3.77376
40.7448 32.7094 3.63708
37.3108 10.6343 3.981
37.4584 8.53498 2
37.5169 6.67542 0.0141136
39.2112 8.69491 0.0167043
38.9774 10.1283 2
34.7548 10.3849 3.98133
35.8994 9.77427 2
32.3787 9.37351 3.98033
34.1508 8.82379 2
35.9427 8.49512 0.0160588
51.9962 32.8909 0.0197441
50.9475 29.2658 0.0245019
50.5575 25.8271 0.0268999
49.8687 22.312 0.0166116
47.4857 19.3331 0.0228402
45.7925 15.4363 0.0181612
43.8574 11.9162 0.0198833
40.5686 11.6116 0.0191908
49.5575 31.4871 2
38.3023 12.7403 2
42.1 14.3102 2
48.9894 27.5995 2
49.2444 24.5022 2
47.1439 22.0709 2
44.7881 18.5402 2
47.3826 29.596 3.98368
46.9283 25.2497 3.97903
44.2631 21.4559 3.97819
36.5831 12.9414 3.97592
38.6829 14.8233 3.9758
41.7452 17.8823 3.97864
42.6001 37.4842 3.68284
44.4503 37.4902 2
45.8949 37.4827 0.12316
46.8147 57.3295 0.0191272
47.1017 54.2115 0.029351
47.777 47.2012 0.0206418
47.4426 50.7126 0.0305995
44.0626 39.377 0.234171
44.6167 41.9063 0.141025
44.6177 44.4658 0.0729843
44.5496 47.3333 0.0234701
42.2246 42.581 0.219206
42.155 40.8462 0.345645
40.7428 42.2911 0.359782
45.3604 55.917 2
42.4712 39.2631 2
40.6227 40.7184 2
45.8933 48.8758 2
45.4368 52.505 2
43.2617 48.3576 2
43.2279 46.0306 2
43.3925 43.7126 2
40.9155 43.7331 2
39.2418 42.5788 2
43.6925 54.4114 3.99743
40.7222 39.1373 3.77645
39.1114 40.8009 3.75566
43.5593 50.4033 4.00451
41.8581 47.5427 3.94535
41.764 45.0959 3.87215
39.3354 44.3642 3.76373
37.5059 42.6741 3.67848
43.8628 57.6981 0.0187302
42.0904 56.3069 2
40.4022 54.8897 3.98213
35.573 65.4243 0.0203664
37.8368 63.2021 0.021951
40.6232 61.6347 0.019461
40.4399 58.1869 0.020467
35.6064 63.1958 2
38.2512 60.3175 2
38.9184 56.4796 2
37.9942 55.2112 3.99135
36.9338 57.6136 3.98433
35.3636 60.9009 3.97645
33.6285 63.3295 0.0214771
30.3786 62.8515 0.0188585
32.1238 61.9959 0.016176
33.3463 61.5061 2
28.6823 62.197 2
31.0698 61.2142 2
29.4076 60.2829 3.97872
32.3614 59.7354 3.98872
28.0376 58.3673 3.99052
27.577 59.5864 2
25.3909 58.587 3.9774
22.7716 58.2268 3.96932
23.4057 60.3419 3.97925
23.8027 59.0738 2
25.0383 60.8659 2
24.4333 62.7655 3.98036
26.8712 61.4922 0.0214622
26.2299 63.4748 2
25.5477 65.4897 3.98256
28.0625 64.1438 0.0186611
27.4634 66.181 2
26.8367 68.3305 3.98672
29.4066 66.7564 0.0165265
28.907 68.9422 2
28.3696 71.263 3.99166
31.0148 69.416 0.0131038
30.6142 71.778 2
30.1842 74.2788 4
32.8922 72.1467 0.0081268
32.6053 74.6792 2
35.0474 74.9194 0
31.7889 7.42209 3.9835
33.3481 4.92605 3.98883
33.724 6.98041 2
35.2451 2.46323 3.99316
35.4354 4.68587 2
35.6215 6.72655 0.0145142
37.5 0 4
37.5146 2.38673 2
37.5237 4.6162 0.0104378
39.7893 2.47469 0.00674967
39.9526 0.0802889 2
42.3946 0.32156 0
42.4681 35.7106 3.66443
44.1107 35.5806 2
40.6304 34.2631 3.75864
42.1483 34.1334 2
47.6948 37.7553 0.0674215
50.8313 35.5798 0.0240182
45.5039 35.1495 0.122784
43.3175 33.8982 0.238363
41.8023 33.0268 0.4016
47.8802 34.3029 2
44.646 33.0464 2
42.2804 32.379 2
40.7585 32.7095 2
45.8946 31.6446 3.93146
43.3509 31.3128 3.85778
40.8821 31.3117 3.7644
39.2443 32.432 3.65257
35.6934 11.7821 3.97941
37.3124 10.6318 2
37.4584 8.53668 0.0158371
38.9763 10.1296 0.0163549
33.0996 11.224 3.97685
34.7543 10.3813 2
35.899 9.77695 0.0186767
30.4838 10.0235 3.97997
32.3779 9.37266 2
34.1518 8.82588 0.0172974
49.5427 31.4898 0.0130107
48.9817 27.598 0.025004
49.2402 24.504 0.0223931
47.1472 22.0784 0.0161777
44.7879 18.5209 0.022223
42.0993 14.3068 0.0210706
38.3022 12.742 0.0221354
36.5822 12.9352 2
47.3965 29.5702 2
38.6816 14.8147 2
41.7427 17.8802 2
46.936 25.2497 2
44.2588 21.4405 2
45.2666 27.7233 4.00262
43.6971 24.1713 4.0097
41.3231 20.8452 3.97982
35.7737 14.7761 3.97728
38.6818 17.6261 3.97851
40.7738 37.4776 3.78726
42.5982 37.4867 2
44.4155 37.491 0.224385
45.3619 55.9175 0.0105605
45.4378 52.4985 0.016899
45.8913 48.8678 0.00914654
42.4795 39.2631 0.33371
43.3561 43.6857 0.14321
43.1894 46.0003 0.0914853
43.2562 48.3394 0.0020024
40.8824 43.6888 0.23749
40.6253 40.7331 0.239874
39.2445 42.579 0.346163
43.6897 54.4109 2
40.7075 39.1319 2
39.1138 40.7837 2
43.5586 50.4203 2
41.8493 47.5646 2
41.7866 45.1294 2
37.5031 42.6776 2
39.3519 44.4041 2
41.8435 52.9472 3.99511
39.1297 39.1499 3.77632
37.5059 40.8505 3.77053
35.7696 42.5865 3.65532
40.8557 49.5966 3.99698
39.7951 45.9279 3.84866
37.5042 44.5952 3.76287
42.0904 56.3056 0.0163986
40.3991 54.9004 2
38.7209 53.7686 3.99667
35.6066 63.1952 0.0233915
38.2509 60.3167 0.0211901
38.9183 56.4788 0.00940287
35.3639 60.9004 2
36.9345 57.6146 2
37.9932 55.2009 2
36.3244 55.2877 3.99873
34.4898 58.5063 3.98569
33.3456 61.5053 0.0198775
28.6821 62.1971 0.0191588
31.0692 61.2134 0.019576
32.3622 59.7369 2
29.4086 60.2827 2
30.3152 57.8114 3.98415
28.0387 58.3677 2
26.9733 56.8204 3.97535
27.576 59.5859 0.0191742
25.3919 58.5879 2
23.8675 56.7872 3.96214
21.3546 57.3789 3.96777
22.0019 59.6112 3.977
22.7722 58.2285 2
22.7383 62.0155 3.97806
23.4063 60.3427 2
23.8019 59.0728 0.0212865
25.0378 60.8652 0.0210238
24.4335 62.7662 2
23.682 64.7069 3.9819
26.2298 63.4741 0.0197503
25.5477 65.4907 2
24.8089 67.5915 3.98631
27.4634 66.1806 0.0163034
26.8366 68.3311 2
26.1647 70.6037 3.99168
28.9071 68.9421 0.013283
28.3692 71.263 2
27.7943 73.7221 4
30.6146 71.7777 0.00834637
30.1841 74.2794 2
32.6054 74.6784 0
29.8116 7.99685 3.98242
31.2535 5.33305 3.9879
31.7885 7.421 2
32.9809 2.70152 3.99285
33.3477 4.92496 2
33.7244 6.98197 0.0152411
35.0474 0.080333 4
35.2448 2.46294 2
35.4356 4.68648 0.0105817
37.5 0 2
37.5149 2.38718 0.00673929
39.9526 0.0806499 0
40.728 35.8326 3.77394
42.4607 35.7137 2
44.0739 35.6026 0.236177
28.5444 10.6988 3.97884
39.1067 34.2086 3.75509
40.622 34.2777 2
42.1577 34.1433 0.351142
47.863 34.3053 0.040157
44.618 33.065 0.147059
42.2274 32.4151 0.226239
40.7448 32.7094 0.362917
45.9239 31.6265 2
43.386 31.2808 2
40.919 31.2663 2
39.2473 32.4332 2
44.1675 29.8406 3.92558
41.7582 29.903 3.87079
39.3396 30.6411 3.76262
37.5088 32.3456 3.67818
34.0946 12.9455 3.97559
35.693 11.7759 2
37.3108 10.6343 0.018999
31.1881 11.9942 3.97792
33.0996 11.2229 2
34.7548 10.3849 0.0186669
30.4824 10.0207 2
32.3787 9.37351 0.0196653
47.3826 29.596 0.0163182
46.9283 25.2497 0.0209739
36.5831 12.9414 0.0240752
44.2631 21.4559 0.0218055
41.7452 17.8823 0.0213554
38.6829 14.8233 0.0241991
35.7745 14.7818 2
45.2716 27.7229 2
38.6793 17.6276 2
41.318 20.8384 2
43.7008 24.1627 2
33.6112 15.8943 3.97718
42.8815 26.5749 3.99284
40.857 23.4144 4.00742
38.4119 20.4043 3.98482
35.8524 17.53 3.97968
39.1345 37.4894 3.79996
40.7601 37.478 2
42.6001 37.4842 0.317156
43.6925 54.4114 0.00256891
43.5593 50.4033 -0.00450757
40.7222 39.1373 0.223547
41.764 45.0959 0.127847
41.8581 47.5427 0.0546528
39.3354 44.3642 0.236269
39.1114 40.8009 0.244337
37.5059 42.6741 0.321523
41.84 52.9447 2
39.1203 39.1376 2
37.5053 40.8287 2
40.8581 49.6122 2
35.7657 42.5861 2
39.8137 45.9687 2
37.4971 44.6302 2
39.7839 51.8089 4.00093
37.5023 39.1598 3.8044
35.9024 40.8141 3.75618
34.2677 42.3031 3.63775
35.6726 44.3762 3.75988
38.6682 48.5735 3.95966
37.5176 46.2206 3.86647
40.4022 54.8897 0.0178719
38.7211 53.7617 2
36.7457 53.1049 3.99847
35.3636 60.9009 0.0235524
36.9338 57.6136 0.0156725
37.9942 55.2112 0.00865401
34.4901 58.5053 2
36.3247 55.2894 2
33.2483 55.4741 3.99354
32.3614 59.7354 0.0112765
29.4076 60.2829 0.0212828
30.3164 57.8112 2
28.7353 55.3078 3.97934
28.0376 58.3673 0.00948362
26.974 56.821 2
25.3602 55.1257 3.96807
21.8478 55.3269 3.96411
25.3909 58.587 0.0225955
23.8677 56.7898 2
20.241 57.0078 3.97047
20.6567 58.7625 3.97167
21.3547 57.3803 2
21.1708 61.1617 3.97699
22.0025 59.6121 2
22.7716 58.2268 0.0306809
21.896 63.8339 3.98057
22.7386 62.0162 2
23.4057 60.3419 0.0207542
24.4333 62.7655 0.0196376
23.6821 64.7077 2
22.8373 66.7346 3.98528
25.5477 65.4897 0.017443
24.8089 67.5925 2
24.0089 69.8048 3.99173
26.8367 68.3305 0.0132751
26.1642 70.6039 2
25.446 73.0099 4
28.3696 71.263 0.00834399
27.7943 73.7222 2
30.1842 74.2788 0
27.8215 8.65644 3.98208
29.1557 5.87941 3.98671
29.8107 7.99466 2
30.7262 3.09854 3.99257
31.253 5.33211 2
31.7889 7.42209 0.0165033
32.6053 0.320823 4
32.9805 2.70099 2
33.3481 4.92605 0.0111716
35.0474 0.0802903 2
35.2451 2.46323 0.0068429
37.5 0 0
39.1278 35.8409 3.77743
40.7106 35.8377 2
42.4681 35.7106 0.335574
28.5432 10.6978 2
26.6228 11.395 3.97874
29.2272 12.6501 3.97888
37.5017 34.1712 3.76926
39.1097 34.2272 2
40.6304 34.2631 0.241357
45.8946 31.6446 0.0685448
43.3509 31.3128 0.142224
40.8821 31.3117 0.235597
39.2443 32.432 0.34743
44.1723 29.8294 2
41.7774 29.8738 2
39.35 30.6007 2
37.5106 32.3414 2
42.2106 28.5071 3.89632
39.7953 29.0677 3.86947
37.5106 30.42 3.76207
35.7746 32.433 3.65369
31.9179 14.4945 3.97749
34.0952 12.9459 2
35.6934 11.7821 0.0205871
31.1871 11.9901 2
33.0996 11.224 0.0231524
30.4838 10.0235 0.0200265
45.2666 27.7233 -0.00261747
43.6971 24.1713 -0.0097027
35.7737 14.7761 0.0227246
41.3231 20.8452 0.0201754
38.6818 17.6261 0.0214872
33.6095 15.8895 2
35.8488 17.5327 2
42.8907 26.5767 2
38.4088 20.4039 2
40.85 23.3997 2
33.5558 17.4043 3.9785
40.3157 25.783 3.9817
38.0656 23.0771 3.99878
35.5835 20.1167 3.98296
37.5008 37.4998 3.82278
39.1258 37.4882 2
40.7738 37.4776 0.212743
41.8435 52.9472 0.00488941
40.8557 49.5966 0.0030162
39.1297 39.1499 0.223685
39.7951 45.9279 0.151341
37.5042 44.5952 0.237132
37.5059 40.8505 0.229466
35.7696 42.5865 0.344682
39.7832 51.8116 2
37.5029 39.1467 2
35.8999 40.7978 2
38.6808 48.6163 2
34.2561 42.3026 2
35.6545 44.4181 2
37.5199 46.2626 2
37.6599 50.8673 4.00089
35.8803 39.1675 3.77739
34.3879 40.7546 3.75925
33.2051 41.9825 3.60165
34.1166 43.6911 3.76324
35.1927 45.9264 3.86204
36.9164 48.1946 3.9283
38.7209 53.7686 0.00332959
36.7414 53.107 2
34.4027 52.4143 3.99651
34.4898 58.5063 0.0143091
36.3244 55.2877 0.00127171
33.2491 55.4782 2
30.5683 53.3349 3.9846
30.3152 57.8114 0.0158525
28.7359 55.309 2
26.9571 53.421 3.97202
26.9733 56.8204 0.0246539
25.3604 55.1297 2
23.6566 53.4556 3.95845
20.5663 53.1898 3.96157
19.9648 55.8092 3.96515
21.8464 55.3284 2
23.8675 56.7872 0.0378586
19.4535 57.8693 3.97092
20.2406 57.0092 2
19.7125 60.1883 3.97531
20.6569 58.763 2
21.3546 57.3789 0.0322305
20.2093 62.8535 3.97739
21.1714 61.1636 2
22.0019 59.6112 0.0230045
20.9386 65.7631 3.98416
21.8961 63.8348 2
22.7383 62.0155 0.0219449
23.682 64.7069 0.0181013
22.8372 66.7351 2
21.9115 68.8719 3.99137
24.8089 67.5915 0.0136924
24.0083 69.805 2
23.1494 72.1454 4
26.1647 70.6037 0.00832053
25.446 73.0099 2
27.7943 73.7221 0
25.8606 9.38537 3.98107
27.0704 6.54344 3.98564
27.8204 8.65548 2
28.4885 3.64459 3.992
29.155 5.87801 2
29.8116 7.99685 0.0175792
30.1841 0.720592 4
30.7256 3.09815 2
31.2535 5.33305 0.0120963
32.6053 0.320817 2
32.9809 2.70152 0.00715171
35.0474 0.080333 0
37.5016 35.8462 3.80331
39.1155 35.8504 2
40.728 35.8326 0.226057
24.7779 12.0808 3.97848
23.7539 14.3707 3.97659
28.5444 10.6988 0.0211634
26.622 11.3948 2
29.2262 12.649 2
27.2935 13.3835 3.97819
29.7841 14.2123 3.9785
35.8977 34.2082 3.75457
37.5037 34.1926 2
39.1067 34.2086 0.244907
37.5088 32.3456 0.321815
44.1675 29.8406 0.0744223
41.7582 29.903 0.129209
39.3396 30.6411 0.237378
42.2314 28.476 2
39.8079 29.0299 2
37.5143 30.3824 2
35.7734 32.4331 2
39.9761 27.7071 3.9021
37.4998 28.7869 3.86608
35.6788 30.6531 3.76596
34.2774 32.7159 3.63758
30.9315 16.8559 3.97828
31.9169 14.4875 2
34.0946 12.9455 0.0244073
31.1881 11.9942 0.0220827
42.8815 26.5749 0.00715989
40.857 23.4144 -0.00742243
33.6112 15.8943 0.0228174
35.8524 17.53 0.0203239
38.4119 20.4043 0.0151794
33.5509 17.4164 2
35.5836 20.1199 2
40.325 25.7677 2
38.0537 23.0654 2
32.8705 19.8088 3.98974
37.7713 25.3831 3.99386
35.1943 22.7905 3.99449
35.8675 37.5039 3.801
37.5005 37.4999 2
39.1345 37.4894 0.200041
39.7839 51.8089 -0.000934636
38.6682 48.5735 0.0403418
37.5023 39.1598 0.195598
37.5176 46.2206 0.133533
35.6726 44.3762 0.240118
35.9024 40.8141 0.243823
34.2677 42.3031 0.362248
37.6485 50.8892 2
35.8924 39.1557 2
34.3899 40.7413 2
36.8936 48.2385 2
33.184 42 2
34.089 43.7334 2
35.1776 45.9598 2
35.5162 50.0358 3.99064
34.2903 39.1672 3.77606
32.8481 40.864 3.65132
32.7793 42.5956 3.77623
33.2498 45.0997 3.86795
34.3559 47.2992 3.903
36.7457 53.1049 0.00153422
34.3963 52.4209 2
32.0899 51.1501 4.01285
33.2483 55.4741 0.00645586
30.5686 53.3389 2
28.521 51.556 3.98487
28.7353 55.3078 0.0206605
26.9568 53.4244 2
25.1943 51.7072 3.95577
25.3602 55.1257 0.0319338
23.6559 53.4583 2
22.1006 51.763 3.95412
19.3516 51.5944 3.96214
18.9804 54.2809 3.96266
20.5658 53.1891 2
18.4698 56.7024 3.96701
19.9636 55.8106 2
21.8478 55.3269 0.0358858
18.378 59.0917 3.96925
19.4532 57.8703 2
20.241 57.0078 0.0295324
18.6221 61.7549 3.97442
19.7133 60.1896 2
20.6567 58.7625 0.0283341
19.1278 64.6724 3.98276
20.2093 62.8548 2
21.1708 61.1617 0.0230136
19.8857 67.8085 3.99123
20.9385 65.7638 2
21.896 63.8339 0.0194341
22.8373 66.7346 0.0147161
21.9108 68.8717 2
20.9142 71.1327 4
24.0089 69.8048 0.00826713
23.1494 72.1455 2
25.446 73.0099 0
23.0974 12.7966 3.97789
23.9732 10.1739 3.98005
25.024 7.31417 3.98459
25.8597 9.38483 2
26.2803 4.32868 3.99147
27.0696 6.54273 2
27.8215 8.65644 0.0179194
27.7943 1.27781 4
28.4876 3.64417 2
29.1557 5.87941 0.0132888
30.1841 0.720551 2
30.7262 3.09854 0.00743276
32.6053 0.320823 0
35.8708 35.844 3.77459
37.5027 35.8598 2
39.1278 35.8409 0.222571
24.777 12.0794 2
23.7544 14.3714 2
22.4835 15.0486 3.97855
25.3599 13.9192 3.9765
24.0316 15.6343 3.97952
26.6228 11.395 0.0212639
29.2272 12.6501 0.0211233
27.2935 13.3837 2
29.7821 14.2105 2
28.3628 15.9876 3.97801
34.3887 34.2716 3.75814
35.8948 34.2258 2
37.5017 34.1712 0.230736
35.7746 32.433 0.346309
37.5106 30.42 0.237935
42.2106 28.5071 0.103677
39.7953 29.0677 0.130528
39.9933 27.6756 2
37.5004 28.7475 2
35.6628 30.6076 2
34.2618 32.7183 2
37.5733 27.4228 3.91335
35.2026 29.0839 3.86817
34.1258 31.326 3.76321
33.2197 33.0377 3.60051
30.2177 19.3746 3.98094
30.9292 16.8485 2
31.9179 14.4945 0.022511
40.3157 25.783 0.0182976
38.0656 23.0771 0.00122351
33.5558 17.4043 0.0215039
35.5835 20.1167 0.0170419
32.868 19.8217 2
35.1882 22.7789 2
37.7741 25.3703 2
32.3224 22.5094 3.99639
35.0248 25.3413 4.00041
34.2323 37.5124 3.78828
35.8765 37.5048 2
37.5008 37.4998 0.177219
37.6599 50.8673 -0.000894295
36.9164 48.1946 0.0717049
35.8803 39.1675 0.222614
35.1927 45.9264 0.137964
34.1166 43.6911 0.236758
34.3879 40.7546 0.240748
33.2051 41.9825 0.398351
35.5041 50.0407 2
34.3074 39.1619 2
32.8529 40.8718 2
34.3488 47.3401 2
32.741 42.6275 2
33.2323 45.1302 2
33.3387 49.0462 3.98179
32.5289 39.2905 3.66689
31.6839 41.1049 3.76485
31.6478 43.6949 3.85905
32.4253 46.2453 3.90189
34.4027 52.4143 0.00348824
32.0911 51.1601 2
30.0036 49.6861 3.99185
30.5683 53.3349 0.0154002
28.5197 51.5538 2
26.6605 49.9339 3.97004
26.9571 53.421 0.0279791
25.193 51.7052 2
23.5116 50.1342 3.9638
23.6566 53.4556 0.041548
22.0998 51.7611 2
20.6452 50.2644 3.96479
18.1595 50.2885 3.96788
17.95 52.7579 3.96415
19.3501 51.5938 2
17.4758 55.3181 3.96268
18.9769 54.2811 2
20.5663 53.1898 0.038432
17.1487 57.8543 3.96609
18.4691 56.7027 2
19.9648 55.8092 0.0348473
17.1407 60.5319 3.97225
18.3781 59.0928 2
19.4535 57.8693 0.0290843
17.4091 63.4631 3.97828
18.6225 61.7556 2
19.7125 60.1883 0.0246946
17.9423 66.6169 3.99027
19.1276 64.6734 2
20.2093 62.8535 0.0226144
18.75 69.9759 4
19.8849 67.8082 2
20.9386 65.7631 0.0158421
21.9115 68.8719 0.00862935
20.9142 71.1327 2
23.1494 72.1454 0
21.589 13.6186 3.97763
22.1912 11.0343 3.97897
23.0974 12.7972 2
23.0418 8.18068 3.9836
23.9723 10.1726 2
24.1179 5.14349 3.99093
25.0232 7.31349 2
25.8606 9.38537 0.0189287
25.446 1.99014 4
26.2792 4.3287 2
27.0704 6.54344 0.0143614
27.7943 1.27778 2
28.4885 3.64459 0.00799922
30.1841 0.720592 0
34.2857 35.8554 3.77607
35.8814 35.8559 2
37.5016 35.8462 0.196692
21.3115 15.846 3.98105
24.7779 12.0808 0.0215192
23.7539 14.3707 0.0234122
25.3599 13.9172 2
22.4843 15.0487 2
24.032 15.6363 2
23.2733 16.2651 3.9753
25.3877 16.1049 3.97914
27.2935 13.3835 0.0218109
29.7841 14.2123 0.0215028
28.3601 15.9914 2
27.4491 18.827 3.97911
32.8541 34.1581 3.65241
34.3944 34.2865 2
35.8977 34.2082 0.245432
34.2774 32.7159 0.362415
35.6788 30.6531 0.234043
37.4998 28.7869 0.13392
39.9761 27.7071 0.0978985
37.5768 27.3861 2
33.1978 33.0205 2
35.1955 29.0387 2
34.0888 31.2773 2
35.0992 27.5368 3.91195
33.2454 29.9158 3.8659
32.7936 32.418 3.76274
29.6134 21.9739 3.99587
30.2163 19.387 2
30.9315 16.8559 0.0217192
37.7713 25.3831 0.0061355
35.1943 22.7905 0.00550807
32.8705 19.8088 0.0102637
32.3218 22.4999 2
35.0453 25.3291 2
31.8138 25.7372 4.00779
32.3918 37.5135 3.68548
34.2507 37.5119 2
35.8675 37.5039 0.198999
35.5162 50.0358 0.0093638
34.3559 47.2992 0.0970016
34.2903 39.1672 0.223936
33.2498 45.0997 0.132054
32.7793 42.5956 0.223765
32.8481 40.864 0.348676
33.3294 49.0465 2
32.5433 39.2897 2
31.6507 41.1319 2
32.3924 46.2784 2
31.6151 43.7229 2
31.3279 47.8857 3.9844
30.9333 39.4005 3.76549
30.3824 41.9387 3.85499
30.6787 44.8508 3.92306
32.0899 51.1501 -0.0128454
30.0029 49.6963 2
28.0898 48.1192 3.9598
28.521 51.556 0.0151282
26.6595 49.9319 2
24.8695 48.4017 3.97218
25.1943 51.7072 0.0442329
23.5112 50.132 2
21.8928 48.7251 3.96977
22.1006 51.763 0.0458806
20.6432 50.2633 2
19.2359 49.0434 3.97201
17.0536 49.2942 3.97316
16.9007 51.3736 3.96698
18.1616 50.2873 2
16.454 53.8459 3.96446
17.948 52.7576 2
19.3516 51.5944 0.0378605
15.9943 56.4589 3.96514
17.4729 55.3187 2
18.9804 54.2809 0.0373386
15.7574 59.195 3.96879
17.1488 57.8549 2
18.4698 56.7024 0.0329861
15.7908 62.1292 3.97318
17.1411 60.5336 2
18.378 59.0917 0.0307534
16.0895 65.2993 3.98902
17.4087 63.4648 2
18.6221 61.7549 0.0255755
16.6661 68.6801 4
17.9411 66.6164 2
19.1278 64.6724 0.0172418
18.75 69.9759 2
19.8857 67.8085 0.00876594
20.9142 71.1327 0
20.2227 14.61 3.97606
21.5892 13.6187 2
20.5308 12.0058 3.97822
21.1445 9.15109 3.98277
22.1908 11.0344 2
23.0974 12.7966 0.0221072
22.017 6.0827 3.99031
23.0409 8.17968 2
23.9732 10.1739 0.0199522
23.1494 2.85457 4
24.1166 5.14363 2
25.024 7.31417 0.0154146
25.446 1.99012 2
26.2803 4.32868 0.00852613
27.7943 1.27781 0
32.52 35.7341 3.66413
34.3038 35.8624 2
35.8708 35.844 0.225412
21.3124 15.8454 2
20.3132 16.9783 3.97998
22.1056 16.6518 3.97215
25.3599 13.9192 0.0234965
22.4835 15.0486 0.0214453
24.0316 15.6343 0.0204796
25.3873 16.104 2
23.2739 16.2656 2
24.2152 18.4846 3.97339
27.0541 21.4966 3.9922
28.3628 15.9876 0.0219872
27.4496 18.8251 2
31.6994 33.9257 3.76165
32.8616 34.1471 2
34.3887 34.2716 0.241862
33.2197 33.0377 0.399489
34.1258 31.326 0.236793
35.2026 29.0839 0.131831
37.5733 27.4228 0.0866524
35.0987 27.4952 2
32.7248 32.3859 2
33.231 29.8961 2
32.6829 28.2418 3.92282
31.6474 31.3331 3.85902
28.9239 24.4576 3.98257
29.6076 21.985 2
30.2177 19.3746 0.0190565
35.0248 25.3413 -0.000408129
32.3224 22.5094 0.00360926
31.8148 25.7147 2
29.8294 27.3904 3.97551
30.573 37.5105 3.77403
32.404 37.5123 2
34.2323 37.5124 0.211722
33.3387 49.0462 0.0182077
32.4253 46.2453 0.0981079
32.5289 39.2905 0.333114
31.6478 43.6949 0.14095
31.6839 41.1049 0.235151
31.3251 47.8902 2
30.8886 39.4227 2
30.3552 41.9552 2
30.6544 44.8746 2
29.4609 46.4925 4.00017
29.4882 39.8538 3.87903
29.0865 43.0845 3.92326
30.0036 49.6861 0.00814925
28.0869 48.1156 2
26.2292 46.5804 3.97636
26.6605 49.9339 0.0299644
24.8689 48.3991 2
23.0984 47.0011 3.97493
23.5116 50.1342 0.0361961
21.8912 48.724 2
20.2129 47.5619 3.97722
20.6452 50.2644 0.0352061
19.2376 49.042 2
17.8574 48.1363 3.97636
16.2916 48.6497 3.97613
17.055 49.2933 2
15.981 50.1384 3.97064
15.4624 52.3902 3.96643
16.9017 51.3729 2
18.1595 50.2885 0.0321201
14.8995 54.9607 3.96432
16.4545 53.8455 2
17.95 52.7579 0.0358528
14.47 57.726 3.96608
15.9949 56.4588 2
17.4758 55.3181 0.0373206
14.2701 60.6832 3.97216
15.7579 59.196 2
17.1487 57.8543 0.0339067
14.3347 63.8579 3.98538
15.7907 62.1305 2
17.1407 60.5319 0.0277455
14.6715 67.2507 4
16.0878 65.2984 2
17.4091 63.4631 0.0217218
16.6661 68.6801 2
17.9423 66.6169 0.00972764
18.75 69.9759 0
18.9385 15.7967 3.97741
20.2231 14.6097 2
18.9813 13.1183 3.97664
21.589 13.6186 0.0223737
20.5307 12.0057 2
19.3438 10.24 3.98184
19.9915 7.14739 3.98975
21.1439 9.15099 2
22.1912 11.0343 0.0210326
20.9142 3.86727 4
22.0153 6.08301 2
23.0418 8.18068 0.0164027
23.1494 2.85451 2
24.1179 5.14349 0.00907267
25.446 1.99014 0
30.9519 35.6316 3.76589
32.5306 35.7359 2
34.2857 35.8554 0.22393
21.3115 15.846 0.0189498
22.1063 16.6519 2
20.3138 16.9768 2
19.2649 18.428 3.97215
21.7931 17.8733 3.98011
25.3877 16.1049 0.020859
23.2733 16.2651 0.0246965
24.2147 18.4863 2
22.3132 19.9258 3.9677
24.6359 21.3737 3.98807
26.5327 23.7644 3.97243
27.0529 21.4917 2
27.4491 18.827 0.0208902
30.4149 33.0972 3.86817
31.6737 33.8874 2
32.8541 34.1581 0.347592
32.7936 32.418 0.237261
33.2454 29.9158 0.134105
35.0992 27.5368 0.0880465
32.6409 28.2129 2
31.6087 31.2969 2
30.3638 29.6531 3.94354
28.0788 26.6013 3.98945
28.9178 24.4735 2
29.6134 21.9739 0.00413058
31.8138 25.7372 -0.00778882
29.8237 27.3614 2
29.0911 37.5193 3.8776
30.5446 37.5112 2
32.3918 37.5135 0.314518
31.3279 47.8857 0.0156021
30.6787 44.8508 0.0769411
30.9333 39.4005 0.234506
30.3824 41.9387 0.145008
29.4596 46.5055 2
29.4525 39.8735 2
29.0573 43.1142 2
27.6583 44.8 3.9724
27.2586 40.5943 3.94924
28.0898 48.1192 0.0402011
26.225 46.5818 2
24.3603 45.1218 3.97602
24.8695 48.4017 0.0278165
23.0973 47.0006 2
21.1974 45.8286 3.97802
21.8928 48.7251 0.0302257
20.2117 47.5606 2
18.5451 46.6882 3.97798
19.2359 49.0434 0.0279853
17.8586 48.1352 2
16.5023 47.6781 3.97711
16.2929 48.6489 2
15.326 48.986 3.97406
17.0536 49.2942 0.0268373
15.9827 50.1376 2
14.5821 50.9605 3.96873
13.8722 53.4182 3.96554
15.4634 52.3897 2
16.9007 51.3736 0.0330202
13.2652 56.1578 3.96634
14.8989 54.9608 2
16.454 53.8459 0.0355407
12.8539 59.1172 3.97059
14.4708 57.726 2
15.9943 56.4589 0.0348572
12.6806 62.2999 3.98233
14.2702 60.6835 2
15.7574 59.195 0.0312084
12.7746 65.6939 4
14.3328 63.8559 2
15.7908 62.1292 0.02682
14.6714 67.2507 2
16.0895 65.2993 0.0109755
16.6661 68.6801 0
17.6797 17.1741 3.97113
18.9389 15.796 2
17.514 14.3837 3.9757
20.2227 14.61 0.0239406
18.9815 13.1181 2
17.6395 11.4598 3.98032
20.5308 12.0058 0.0217806
19.3433 10.2399 2
18.0516 8.34045 3.98928
18.75 5.0241 4
19.9898 7.14845 2
21.1445 9.15109 0.0172309
20.9142 3.86727 2
22.017 6.0827 0.00968568
23.1494 2.85457 0
29.5056 35.1709 3.88127
30.9002 35.6073 2
32.52 35.7341 0.335873
22.1056 16.6518 0.0278545
20.3132 16.9783 0.0200237
21.7938 17.8718 2
19.2651 18.4265 2
18.0246 19.9664 3.95967
20.9071 19.4039 3.97209
24.2152 18.4846 0.0266119
22.3126 19.9255 2
24.635 21.3756 2
22.4213 21.7586 3.9778
24.8011 23.2062 3.97514
25.668 25.9967 3.97757
26.5343 23.7612 2
27.0541 21.4966 0.00779555
28.7937 32.4251 3.92702
30.3787 33.074 2
31.6994 33.9257 0.238355
31.6474 31.3331 0.140976
32.6829 28.2418 0.0771756
30.356 29.6539 2
27.3185 29.1904 4.00684
28.0692 26.6133 2
28.9239 24.4576 0.0174262
29.8294 27.3904 0.0244896
27.3687 37.3683 3.92959
29.0317 37.5076 2
30.573 37.5105 0.225966
29.4609 46.4925 -0.000168494
29.0865 43.0845 0.0767444
29.4882 39.8538 0.120975
27.648 44.8266 2
27.2391 40.597 2
25.6879 43.1071 3.98835
24.5152 39.454 3.97532
26.2292 46.5804 0.0236388
24.3517 45.1228 2
22.247 43.8784 3.97774
23.0984 47.0011 0.0250704
21.1946 45.828 2
19.2543 44.9209 3.97756
20.2129 47.5619 0.0227797
18.5455 46.687 2
16.8275 46.1746 3.97703
17.8574 48.1363 0.023642
16.5037 47.6773 2
15.075 47.6411 3.97549
16.2916 48.6497 0.0238726
15.3278 48.9854 2
13.8856 49.5232 3.97094
15.981 50.1384 0.0293596
14.5831 50.96 2
12.9447 51.8589 3.96692
12.1533 54.5199 3.96595
13.8723 53.4181 2
15.4624 52.3902 0.0335746
11.5395 57.4519 3.97039
13.2658 56.1578 2
14.8995 54.9607 0.035678
11.1354 60.6255 3.98004
12.8546 59.1167 2
14.47 57.726 0.0339189
10.9835 64.0165 4
12.6787 62.2969 2
14.2701 60.6832 0.0278406
12.7745 65.694 2
14.3347 63.8579 0.014623
14.6715 67.2507 0
16.4233 18.6711 3.9645
17.6797 17.1733 2
16.1074 15.7944 3.97279
18.9385 15.7967 0.0225865
17.5141 14.383 2
16.0216 12.8145 3.97803
18.9813 13.1183 0.0233639
17.6392 11.4598 2
16.2027 9.66366 3.98871
19.3438 10.24 0.0181582
18.0498 8.34188 2
16.6661 6.31991 4
18.75 5.02404 2
19.9915 7.14739 0.0102479
20.9142 3.86727 0
27.902 34.8105 3.92005
29.4683 35.154 2
30.9519 35.6316 0.234112
16.7362 21.4021 3.9652
21.7931 17.8733 0.0198884
19.2649 18.428 0.0278492
20.907 19.4023 2
18.0249 19.9656 2
19.7936 21.6067 3.9687
22.3132 19.9258 0.0322984
24.6359 21.3737 0.011926
22.4209 21.7587 2
24.8009 23.2053 2
23.0092 24.6465 3.97302
24.8601 28.5806 3.97886
25.6642 25.9936 2
26.5327 23.7644 0.0275739
26.6426 31.7764 3.98151
28.7654 32.402 2
30.4149 33.0972 0.13183
30.3638 29.6531 0.0564648
27.3393 29.1716 2
28.0788 26.6013 0.0105505
25.1991 36.8597 3.98061
27.3567 37.3611 2
29.0911 37.5193 0.122402
27.6583 44.8 0.0275952
27.2586 40.5943 0.0507591
25.6704 43.1204 2
24.4981 39.4546 2
23.409 41.8146 3.98017
22.2322 38.5225 3.97775
24.3603 45.1218 0.0239803
22.246 43.8787 2
20.0866 42.856 3.97668
21.1974 45.8286 0.0219847
19.2546 44.921 2
17.2036 44.3417 3.97689
18.5451 46.6882 0.0220234
16.8292 46.1737 2
15.0183 46.0618 3.97592
16.5023 47.6781 0.0228878
15.0765 47.6405 2
13.4057 47.9868 3.9727
15.326 48.986 0.0259365
13.8868 49.5227 2
12.1693 50.2387 3.9681
14.5821 50.9605 0.0312714
12.9451 51.8586 2
11.1508 52.8309 3.96626
10.3302 55.7069 3.96991
12.1539 54.5197 2
13.8722 53.4182 0.0344626
9.70204 58.8479 3.97902
11.5399 57.4515 2
13.2652 56.1578 0.0336567
9.30605 62.2254 4
11.1338 60.6221 2
12.8539 59.1172 0.0294075
10.9835 64.0165 2
12.6806 62.2999 0.017668
12.7746 65.6939 0
15.1719 20.2034 3.96428
16.4233 18.6709 2
14.7593 17.3208 3.96645
17.6797 17.1741 0.0288749
16.1077 15.7934 2
14.4851 14.2983 3.97536
17.514 14.3837 0.0242999
16.0213 12.8142 2
14.4455 11.1151 3.98769
17.6395 11.4598 0.0196791
16.2009 9.66554 2
14.6715 7.74927 4
18.0516 8.34045 0.0107217
16.6661 6.31988 2
18.75 5.0241 0
25.8619 34.3016 3.98825
27.879 34.8186 2
29.5056 35.1709 0.118729
17.9447 22.3537 3.97085
15.605 22.9448 3.96795
16.7365 21.4021 2
20.9071 19.4039 0.0279144
18.0246 19.9664 0.0403308
19.7938 21.6062 2
19.841 24.4273 3.9708
22.4213 21.7586 0.0221984
24.8011 23.2062 0.0248618
23.0075 24.6464 2
22.2274 27.8824 3.97317
24.1997 31.2544 3.97674
24.8733 28.5806 2
25.668 25.9967 0.022431
26.6249 31.7439 2
28.7937 32.4251 0.0729779
27.3185 29.1904 -0.00683594
22.9526 36.2889 3.98251
25.1845 36.8639 2
27.3687 37.3683 0.0704136
25.6879 43.1071 0.0116506
24.5152 39.454 0.0246785
23.3978 41.8141 2
22.2239 38.5208 2
21.1275 40.6358 3.97551
20.5171 37.8037 3.97697
22.247 43.8784 0.0222625
20.0852 42.8573 2
17.6653 42.0675 3.97641
19.2543 44.9209 0.0224362
17.2052 44.3417 2
15.054 44.1722 3.97626
16.8275 46.1746 0.0229658
15.0195 46.0613 2
13.0959 46.2751 3.97395
15.075 47.6411 0.0245149
13.4068 47.9863 2
11.5489 48.5365 3.96912
13.8856 49.5232 0.0290587
12.17 50.2383 2
10.2786 51.0757 3.9665
12.9447 51.8589 0.0330764
11.1513 52.8306 2
9.23882 53.8871 3.9698
8.38546 56.9812 3.97955
10.3307 55.7062 2
12.1533 54.5199 0.0340526
7.74927 60.3285 4
9.70079 58.8443 2
11.5395 57.4519 0.0296092
9.306 62.2255 2
11.1354 60.6255 0.0199621
10.9835 64.0165 0
13.9986 21.7695 3.96496
15.1723 20.2032 2
13.4618 18.9154 3.9665
16.4233 18.6711 0.035501
14.7597 17.3204 2
13.0329 15.895 3.97187
16.1074 15.7944 0.0272084
14.4847 14.2977 2
12.7833 12.6891 3.9856
16.0216 12.8145 0.0219727
14.4437 11.1174 2
12.7746 9.30605 4
16.2027 9.66366 0.0112873
14.6715 7.74924 2
16.6661 6.31991 0
23.5393 33.842 3.98389
25.8366 34.2939 2
27.902 34.8105 0.0799512
17.7779 24.0797 3.96972
17.9461 22.3538 2
14.437 24.4788 3.96968
15.6062 22.945 2
16.7362 21.4021 0.0348046
19.2993 27.2551 3.9721
19.7936 21.6067 0.0312952
19.8379 24.4272 2
21.5662 30.7254 3.97548
23.0092 24.6465 0.0269754
22.2355 27.884 2
24.179 31.254 2
24.8601 28.5806 0.0211376
26.6426 31.7764 0.0184897
20.6385 35.9547 3.97677
22.9528 36.2881 2
25.1991 36.8597 0.0193892
23.409 41.8146 0.01983
22.2322 38.5225 0.0222458
21.1334 40.6355 2
20.5167 37.8023 2
18.4104 39.0047 3.97724
20.0866 42.856 0.0233183
17.666 42.0677 2
15.0372 41.8934 3.97683
17.2036 44.3417 0.0231051
15.0554 44.1717 2
12.8584 44.3739 3.97477
15.0183 46.0618 0.0240759
13.0974 46.2746 2
11.0599 46.7214 3.96991
13.4057 47.9868 0.0273028
11.5497 48.5362 2
9.54412 49.2361 3.96656
12.1693 50.2387 0.0319017
10.279 51.0753 2
8.27164 52.001 3.96955
11.1508 52.8309 0.0337399
9.23933 53.8862 2
7.19441 55.0322 3.98049
6.31991 58.3339 4
8.38455 56.9776 2
10.3302 55.7069 0.0300907
7.74924 60.3285 2
9.70204 58.8479 0.0209828
9.30605 62.2254 0
13.3279 25.3852 3.9726
12.8879 23.299 3.96705
13.9978 21.7693 2
12.2476 20.5603 3.96684
15.1719 20.2034 0.0357187
13.463 18.9153 2
11.6641 17.5743 3.97068
14.7593 17.3208 0.0335531
13.0334 15.8938 2
11.2215 14.3751 3.9812
14.4851 14.2983 0.0246408
12.7811 12.6916 2
10.9835 10.9835 4
14.4455 11.1151 0.0123127
12.7745 9.306 2
14.6715 7.74927 0
21.0009 33.4492 3.97591
23.539 33.8419 2
25.8619 34.3016 0.0117514
16.1003 26.4387 3.97205
17.7782 24.0798 2
17.9447 22.3537 0.0291523
14.4371 24.4792 2
15.605 22.9448 0.0320501
18.6838 30.2241 3.97485
19.2971 27.2554 2
19.841 24.4273 0.0291988
21.5697 30.7256 2
22.2274 27.8824 0.0268338
24.1997 31.2544 0.0232609
18.0223 35.9861 3.978
20.6395 35.9559 2
22.9526 36.2889 0.0174933
21.1275 40.6358 0.0244908
20.5171 37.8037 0.02303
18.4085 39.0044 2
14.5446 39.1698 3.97749
17.6653 42.0675 0.0235906
15.0383 41.8931 2
12.5528 42.2641 3.97589
15.054 44.1722 0.0237373
12.8597 44.3735 2
10.6468 44.7918 3.97074
13.0959 46.2751 0.0260453
11.0608 46.7211 2
8.92884 47.3154 3.96664
11.5489 48.5365 0.0308798
9.54428 49.2357 2
7.43848 50.0346 3.96916
10.2786 51.0757 0.033503
8.272 52.0002 2
6.13504 53.0075 3.98085
9.23882 53.8871 0.0301993
7.19385 55.0292 2
5.0241 56.25 4
6.31988 58.3339 2
8.38546 56.9812 0.0204509
7.74927 60.3285 0
13.5945 26.8394 3.97207
11.9979 24.8037 3.96893
13.3272 25.3854 2
11.1561 22.2426 3.96611
12.8883 23.2992 2
13.9986 21.7695 0.0350437
12.2487 20.5603 2
10.3951 19.326 3.97021
13.4618 18.9154 0.0334982
11.6652 17.5744 2
9.76262 16.1591 3.9791
13.0329 15.895 0.0281325
11.2195 14.3788 2
9.30607 12.7746 4
12.7833 12.6891 0.0143983
10.9835 10.9835 2
12.7746 9.30605 0
18.1952 33.1563 3.97705
21.0017 33.4509 2
23.5393 33.842 0.0161136
15.7253 29.6731 3.97466
16.0997 26.4392 2
17.7779 24.0797 0.0302813
14.437 24.4788 0.0303207
18.6826 30.2247 2
19.2993 27.2551 0.0278989
21.5662 30.7254 0.02452
15.1641 36.0357 3.97773
18.023 35.9859 2
20.6385 35.9547 0.023233
12.7809 37.8316 3.9776
18.4104 39.0047 0.0227616
14.5452 39.1696 2
12.0557 40.1347 3.97674
15.0372 41.8934 0.0231653
12.5539 42.2637 2
10.2526 42.7697 3.97098
12.8584 44.3739 0.0252335
10.6475 44.7915 2
8.40776 45.3177 3.967
11.0599 46.7214 0.0300879
8.92861 47.3151 2
6.72964 48 3.96886
9.54412 49.2361 0.0334391
7.4387 50.0339 2
5.21184 50.9109 3.98057
8.27164 52.001 0.0304479
6.13477 53.0055 2
3.86727 54.0858 4
7.19441 55.0322 0.019505
5.02404 56.25 2
6.31991 58.3339 0
13.0711 29.0567 3.97177
11.4422 26.5032 3.96932
13.594 26.8396 2
10.2168 23.9741 3.96673
11.9991 24.804 2
13.3279 25.3852 0.0274024
9.24748 21.1422 3.96965
11.1567 22.2427 2
12.8879 23.299 0.0329546
12.2476 20.5603 0.0331613
10.3962 19.3264 2
8.41828 18.03 3.97921
11.6641 17.5743 0.0293151
9.7612 16.1635 2
7.74928 14.6715 4
11.2215 14.3751 0.018799
9.30602 12.7745 2
10.9835 10.9835 0
14.7191 32.8906 3.97685
18.1932 33.1562 2
21.0009 33.4492 0.0240863
15.7268 29.6738 2
16.1003 26.4387 0.0279478
18.6838 30.2241 0.0251538
13.074 36.2189 3.97721
15.1642 36.0356 2
18.0223 35.9861 0.0219966
12.7828 37.8313 2
11.3996 38.3096 3.97661
14.5446 39.1698 0.0225094
12.0579 40.1345 2
9.83747 40.7492 3.97146
12.5528 42.2641 0.0241068
10.254 42.7694 2
7.95781 43.2672 3.96738
10.6468 44.7918 0.0292559
8.40801 45.3174 2
6.13566 45.9052 3.96874
8.92884 47.3154 0.0333594
6.72983 47.9994 2
4.42333 48.7515 3.97995
7.43848 50.0346 0.030841
5.21174 50.9098 2
2.85457 51.8506 4
6.13504 53.0075 0.0191458
3.86727 54.0858 2
5.0241 56.25 0
12.2151 31.276 3.97293
10.8642 28.4299 3.96961
13.0725 29.0572 2
9.4344 25.8037 3.96707
11.4428 26.5035 2
13.5945 26.8394 0.0279325
8.23412 23.0255 3.96956
10.2173 23.9744 2
11.9979 24.8037 0.0310727
7.20037 19.9796 3.97986
9.24854 21.1428 2
11.1561 22.2426 0.0338888
10.3951 19.326 0.0297916
8.41745 18.0342 2
6.31992 16.6661 4
9.76262 16.1591 0.0208963
7.74926 14.6714 2
9.30607 12.7746 0
12.2411 34.3091 3.977
14.7202 32.8913 2
18.1952 33.1563 0.0229513
15.7253 29.6731 0.025335
10.9523 36.6152 3.97601
13.0754 36.2189 2
15.1641 36.0357 0.0222721
12.7809 37.8316 0.0224017
11.4019 38.3095 2
9.42476 38.8217 3.97205
12.0557 40.1347 0.0232637
9.83861 40.749 2
7.56907 41.2096 3.96783
10.2526 42.7697 0.0290191
7.95713 43.267 2
5.64747 43.7681 3.96876
8.40776 45.3177 0.0329951
6.13581 45.9046 2
3.76887 46.5371 3.97956
6.72964 48 0.0311417
4.42343 48.751 2
1.99014 49.554 4
5.21184 50.9109 0.0194325
2.85451 51.8506 2
3.86727 54.0858 0
11.0406 32.9322 3.97483
10.1807 30.3949 3.97014
12.2166 31.2765 2
8.74614 27.7371 3.96717
10.8651 28.4302 2
13.0711 29.0567 0.0282345
7.35954 24.9838 3.96927
9.43451 25.8039 2
11.4422 26.5032 0.0306751
6.11728 22.0026 3.98075
8.23478 23.026 2
10.2168 23.9741 0.0332709
5.02411 18.75 4
7.20001 19.9829 2
9.24748 21.1422 0.0303486
8.41828 18.03 0.0207918
6.3199 16.6661 2
7.74928 14.6715 0
10.5528 35.0072 3.97568
12.2433 34.3096 2
14.7191 32.8906 0.0231514
9.08779 36.9862 3.9727
10.9541 36.6153 2
13.074 36.2189 0.022785
11.3996 38.3096 0.0233944
9.42616 38.8215 2
7.24638 39.1816 3.96826
9.83747 40.7492 0.0285425
7.56916 41.2094 2
5.26249 41.6139 3.96876
7.95781 43.2672 0.0326178
5.64756 43.7677 2
3.24656 44.2818 3.97961
6.13566 45.9052 0.03126
3.76906 46.5367 2
1.27781 47.2057 4
4.42333 48.7515 0.0200512
1.99012 49.554 2
2.85457 51.8506 0
10.1894 33.8904 3.97571
9.46309 32.1638 3.971
11.0424 32.9326 2
8.09364 29.6999 3.9675
10.1819 30.3952 2
12.2151 31.276 0.0270665
6.60305 27.0094 3.96911
8.74577 27.7373 2
10.8642 28.4299 0.0303876
5.17266 24.0952 3.98065
7.35989 24.9843 2
9.4344 25.8037 0.0329298
3.86728 20.9142 4
6.11715 22.0046 2
8.23412 23.0255 0.0304367
5.02406 18.75 2
7.20037 19.9796 0.0201446
6.31992 16.6661 0
8.90873 35.2834 3.9728
10.554 35.0074 2
12.2411 34.3091 0.0230009
7.02589 37.2064 3.96824
9.08893 36.9861 2
10.9523 36.6152 0.0239942
9.42476 38.8217 0.0279472
7.24684 39.1815 2
4.99006 39.4674 3.96895
7.56907 41.2096 0.0321734
5.26293 41.6136 2
2.85695 42.0021 3.97968
5.64747 43.7681 0.0312377
3.24663 44.2816 2
0.720592 44.8159 4
3.76887 46.5371 0.0204404
1.27778 47.2057 2
1.99014 49.554 0
8.94964 33.7041 3.97227
10.1908 33.8906 2
7.52856 31.6124 3.96786
9.46444 32.1641 2
11.0406 32.9322 0.0251713
5.94799 29.0702 3.96918
8.09308 29.7 2
10.1807 30.3949 0.0298563
4.36031 26.2475 3.98018
6.6032 27.0098 2
8.74614 27.7371 0.0328301
2.85458 23.1494 4
5.17267 24.0961 2
7.35954 24.9838 0.030729
3.86728 20.9142 2
6.11728 22.0026 0.0192498
5.02411 18.75 0
6.97426 35.3074 3.96823
8.90977 35.2834 2
10.5528 35.0072 0.0243176
4.84015 37.3399 3.96935
7.02643 37.2064 2
9.08779 36.9862 0.0273048
7.24638 39.1816 0.0317434
4.99049 39.4672 2
2.60498 39.7138 3.97966
5.26249 41.6139 0.031235
2.85731 42.0021 2
0.320823 42.3947 4
3.24656 44.2818 0.0203942
0.720551 44.8159 2
1.27781 47.2057 0
7.13791 33.4631 3.96811
8.95041 33.7042 2
10.1894 33.8904 0.0242882
5.41857 31.1339 3.96947
7.52839 31.6126 2
9.46309 32.1638 0.0290019
3.68193 28.4434 3.97982
5.94813 29.0706 2
8.09364 29.6999 0.0324984
1.99015 25.446 4
4.36039 26.2479 2
6.60305 27.0094 0.0308858
2.85453 23.1494 2
5.17266 24.0952 0.019351
3.86728 20.9142 0
4.85445 35.2517 3.96946
6.97427 35.3075 2
8.90873 35.2834 0.027198
2.49641 37.4284 3.98036
4.84017 37.3399 2
7.02589 37.2064 0.0317618
4.99006 39.4674 0.031054
2.60542 39.7141 2
0.080333 39.9526 4
2.85695 42.0021 0.0203249
0.320817 42.3947 2
0.720592 44.8159 0
5.04784 33.1905 3.96952
7.13781 33.4633 2
8.94964 33.7041 0.0277323
3.14613 30.6662 3.97987
5.41871 31.1344 2
7.52856 31.6124 0.0321368
1.27793 27.7943 4
3.68214 28.4437 2
5.94799 29.0702 0.0308171
1.99013 25.446 2
4.36031 26.2475 0.0198181
2.85458 23.1494 0
2.5485 35.159 3.98016
4.855 35.252 2
6.97426 35.3074 0.0317666
0 37.5 4
2.49644 37.4288 2
4.84015 37.3399 0.0306463
2.60498 39.7138 0.0203361
0.0802903 39.9526 2
0.320823 42.3947 0
2.76613 32.9057 3.98031
5.048 33.1908 2
7.13791 33.4631 0.0318877
0.721173 30.1842 4
3.14636 30.6666 2
5.41857 31.1339 0.0305252
1.27779 27.7943 2
3.68193 28.4434 0.0201841
1.99015 25.446 0
0.0806499 35.0474 4
2.54903 35.1594 2
4.85445 35.2517 0.0305449
0 37.5 2
2.49641 37.4284 0.0196391
0.080333 39.9526 0
0.32156 32.6054 4
2.76624 32.9063 2
5.04784 33.1905 0.0304764
0.72056 30.1841 2
3.14613 30.6662 0.0201313
1.27793 27.7943 0
0.0802889 35.0474 2
2.5485 35.159 0.0198392
0 37.5 0
0.320817 32.6053 2
2.76613 32.9057 0.0196867
0.721173 30.1842 0
0.0806499 35.0474 0
0.32156 32.6054 0
CELLS 1910 17190
8 18 6 25 56 2 0 5 16
8 57 23 6 18 17 4 0 2
8 78 36 9 29 31 11 1 7
8 31 11 1 7 79 37 10 30
8 110 57 18 50 48 17 2 14
8 50 18 56 111 14 2 16 49
8 116 62 22 55 52 20 3 15
8 56 25 67 118 16 5 24 53
8 119 63 23 57 54 21 4 17
8 55 22 63 119 15 3 21 54
8 58 26 68 121 18 6 25 56
8 122 65 26 58 57 23 6 18
8 73 31 7 27 142 79 30 71
8 143 78 29 72 73 31 7 27
8 83 147 76 34 32 74 28 8
8 84 148 78 36 33 75 29 9
8 76 34 8 28 148 84 33 75
8 37 79 150 86 10 30 77 35
8 151 87 36 78 80 38 11 31
8 80 38 11 31 152 88 37 79
8 175 100 42 94 96 44 12 40
8 44 96 176 101 12 40 95 43
8 101 176 98 46 43 95 41 13
8 46 98 178 103 13 41 97 45
8 178 103 45 97 147 83 32 74
8 189 116 55 109 106 52 15 47
8 111 56 118 191 49 16 53 107
8 192 119 57 110 108 54 17 48
8 109 55 119 192 47 15 54 108
8 194 122 58 112 110 57 18 50
8 112 58 121 195 50 18 56 111
8 115 61 19 51 197 124 59 113
8 115 61 125 198 51 19 60 114
8 198 125 62 116 114 60 20 52
8 200 127 64 120 116 62 22 55
8 118 67 132 202 53 24 66 117
8 121 68 133 203 56 25 67 118
8 120 64 128 204 55 22 63 119
8 204 128 65 122 119 63 23 57
8 206 134 68 121 123 69 26 58
8 123 69 26 58 207 131 65 122
8 226 147 74 138 140 76 28 70
8 229 148 75 139 143 78 29 72
8 140 76 28 70 229 148 75 139
8 142 79 30 71 231 150 77 141
8 144 80 31 73 232 152 79 142
8 233 151 78 143 144 80 31 73
8 150 86 35 77 235 154 81 145
8 235 154 81 145 146 82 39 91
8 146 82 39 91 236 155 90 165
8 238 157 83 147 149 85 34 76
8 239 158 84 148 151 87 36 78
8 149 85 34 76 239 158 84 148
8 152 88 37 79 241 160 86 150
8 242 161 87 151 153 89 38 80
8 153 89 38 80 243 162 88 152
8 171 98 41 92 265 178 97 169
8 265 178 97 169 226 147 74 138
8 172 96 40 93 266 176 95 170
8 266 176 95 170 171 98 41 92
8 269 175 94 173 172 96 40 93
8 271 180 99 174 175 100 42 94
8 197 124 59 113 271 180 99 174
8 272 181 100 175 177 102 44 96
8 273 182 101 176 179 104 46 98
8 177 102 44 96 273 182 101 176
8 179 104 46 98 275 184 103 178
8 275 184 103 178 238 157 83 147
8 188 115 51 105 283 197 113 186
8 188 115 198 284 105 51 114 187
8 284 198 116 189 187 114 52 106
8 286 200 120 193 189 116 55 109
8 191 118 202 288 107 53 117 190
8 195 121 203 289 111 56 118 191
8 193 120 204 290 109 55 119 192
8 290 204 122 194 192 119 57 110
8 196 123 58 112 292 207 122 194
8 293 206 121 195 196 123 58 112
8 199 126 61 115 297 211 124 197
8 298 212 127 200 198 125 62 116
8 199 126 212 298 115 61 125 198
8 205 129 64 120 300 214 127 200
8 301 217 130 201 202 132 66 117
8 209 136 168 264 301 217 130 201
8 302 219 132 202 203 133 67 118
8 303 220 133 203 206 134 68 121
8 205 129 215 304 120 64 128 204
8 304 215 131 207 204 128 65 122
8 306 221 134 206 208 135 69 123
8 208 135 69 123 307 218 131 207
8 210 137 167 263 309 223 136 209
8 328 238 147 226 230 149 76 140
8 228 146 91 166 329 236 165 260
8 231 150 77 141 330 235 145 227
8 330 235 145 227 228 146 91 166
8 332 239 148 229 233 151 78 143
8 230 149 76 140 332 239 148 229
8 232 152 79 142 334 241 150 231
8 234 153 80 144 335 243 152 232
8 336 242 151 233 234 153 80 144
8 236 155 90 165 338 245 164 259
8 241 160 86 150 339 246 154 235
8 339 246 154 235 237 156 82 146
8 237 156 82 146 340 247 155 236
8 342 249 157 238 240 159 85 149
8 343 250 158 239 242 161 87 151
8 240 159 85 149 343 250 158 239
8 243 162 88 152 345 252 160 241
8 244 163 253 346 153 89 161 242
8 244 163 89 153 347 254 162 243
8 311 224 261 371 210 137 167 263
8 263 167 262 372 209 136 168 264
8 267 179 98 171 375 275 178 265
8 375 275 178 265 328 238 147 226
8 376 273 176 266 267 179 98 171
8 268 177 96 172 376 273 176 266
8 379 272 175 269 268 177 96 172
8 380 271 174 270 269 175 94 173
8 283 197 113 186 380 271 174 270
8 381 277 180 271 272 181 100 175
8 297 211 124 197 381 277 180 271
8 382 278 181 272 274 183 102 177
8 274 183 102 177 383 279 182 273
8 383 279 182 273 276 185 104 179
8 385 281 184 275 342 249 157 238
8 276 185 104 179 385 281 184 275
8 285 199 115 188 393 297 197 283
8 394 298 200 286 284 198 116 189
8 285 199 298 394 188 115 198 284
8 291 205 120 193 396 300 200 286
8 397 301 201 287 288 202 117 190
8 295 209 264 374 397 301 201 287
8 398 302 202 288 289 203 118 191
8 399 303 203 289 293 206 121 195
8 291 205 304 400 193 120 204 290
8 400 304 207 292 290 204 122 194
8 294 208 123 196 402 307 207 292
8 403 306 206 293 294 208 123 196
8 296 210 263 373 405 309 209 295
8 408 312 213 299 297 211 126 199
8 299 213 313 409 199 126 212 298
8 409 313 214 300 298 212 127 200
8 305 216 129 205 411 315 214 300
8 412 318 217 301 302 219 132 202
8 309 223 136 209 412 318 217 301
8 413 320 219 302 303 220 133 203
8 306 221 321 414 206 134 220 303
8 307 218 131 207 415 316 215 304
8 305 216 316 415 205 129 215 304
8 417 322 221 306 308 222 135 208
8 308 222 135 208 418 319 218 307
8 310 225 137 210 420 325 223 309
8 423 326 224 311 310 225 137 210
8 329 236 165 260 441 338 259 368
8 442 342 238 328 333 240 149 230
8 331 237 146 228 443 340 236 329
8 334 241 150 231 444 339 235 330
8 444 339 235 330 331 237 146 228
8 446 343 239 332 336 242 151 233
8 333 240 149 230 446 343 239 332
8 335 243 152 232 448 345 241 334
8 337 244 153 234 449 347 243 335
8 337 244 346 450 234 153 242 336
8 338 245 164 259 452 349 258 367
8 340 247 155 236 453 350 245 338
8 345 252 160 241 454 351 246 339
8 454 351 246 339 341 248 156 237
8 341 248 156 237 455 352 247 340
8 240 159 251 344 342 249 354 457
8 242 161 253 346 343 250 355 458
8 343 250 355 458 240 159 251 344
8 347 254 162 243 460 357 252 345
8 348 255 358 461 244 163 253 346
8 348 255 163 244 462 359 254 347
8 473 360 257 365 363 256 364 482
8 452 349 258 367 365 257 366 485
8 422 324 369 488 311 224 261 371
8 371 261 370 490 263 167 262 372
8 407 311 371 491 296 210 263 373
8 373 263 372 492 295 209 264 374
8 493 385 275 375 442 342 238 328
8 377 276 179 267 493 385 275 375
8 378 274 177 268 494 383 273 376
8 494 383 273 376 377 276 179 267
8 497 382 272 379 378 274 177 268
8 498 381 271 380 379 272 175 269
8 393 297 197 283 498 381 271 380
8 499 387 277 381 382 278 181 272
8 408 312 211 297 499 387 277 381
8 500 388 278 382 384 280 183 274
8 501 389 279 383 386 282 185 276
8 384 280 183 274 501 389 279 383
8 386 282 185 276 503 391 281 385
8 503 391 281 385 457 354 249 342
8 511 408 299 395 393 297 199 285
8 395 299 409 512 285 199 298 394
8 512 409 300 396 394 298 200 286
8 401 305 205 291 514 411 300 396
8 515 412 301 397 398 302 202 288
8 405 309 209 295 515 412 301 397
8 516 413 302 398 399 303 203 289
8 403 306 414 517 293 206 303 399
8 402 307 207 292 518 415 304 400
8 401 305 415 518 291 205 304 400
8 404 308 208 294 520 418 307 402
8 521 417 306 403 404 308 208 294
8 406 310 210 296 523 420 309 405
8 526 423 311 407 406 310 210 296
8 410 314 213 299 527 424 312 408
8 528 425 315 411 409 313 214 300
8 410 314 425 528 299 213 313 409
8 416 317 216 305 530 427 315 411
8 531 430 318 412 413 320 219 302
8 420 325 223 309 531 430 318 412
8 532 432 320 413 414 321 220 303
8 417 322 433 533 306 221 321 414
8 418 319 218 307 534 428 316 415
8 416 317 428 534 305 216 316 415
8 419 323 434 536 308 222 322 417
8 419 323 222 308 537 431 319 418
8 421 327 225 310 539 438 325 420
8 421 327 439 541 310 225 326 423
8 543 437 324 422 423 326 224 311
8 441 338 259 368 559 452 367 486
8 443 340 236 329 560 453 338 441
8 333 240 344 447 442 342 457 561
8 445 341 237 331 562 455 340 443
8 448 345 241 334 563 454 339 444
8 563 454 339 444 445 341 237 331
8 336 242 346 450 446 343 458 565
8 446 343 458 565 333 240 344 447
8 449 347 243 335 567 460 345 448
8 451 348 244 337 568 462 347 449
8 451 348 461 569 337 244 346 450
8 570 463 349 452 473 360 257 365
8 453 350 245 338 570 463 349 452
8 455 352 247 340 571 464 350 453
8 460 357 252 345 572 465 351 454
8 572 465 351 454 456 353 248 341
8 456 353 248 341 573 466 352 455
8 344 251 356 459 457 354 468 575
8 458 355 469 576 344 251 356 459
8 346 253 358 461 458 355 469 576
8 462 359 254 347 578 471 357 460
8 348 255 359 462 461 358 472 579
8 591 474 360 473 475 361 256 363
8 475 361 256 363 594 477 362 479
8 363 256 364 482 479 362 480 603
8 590 473 365 484 481 363 482 605
8 482 364 257 365 606 483 366 485
8 559 452 367 486 484 365 485 607
8 542 436 487 609 422 324 369 488
8 525 422 488 611 407 311 371 491
8 488 369 489 612 371 261 370 490
8 491 371 490 613 373 263 372 492
8 495 386 276 377 614 503 385 493
8 614 503 385 493 561 457 342 442
8 615 501 383 494 495 386 276 377
8 496 384 274 378 615 501 383 494
8 618 500 382 497 496 384 274 378
8 619 499 381 498 497 382 272 379
8 511 408 297 393 619 499 381 498
8 620 505 387 499 500 388 278 382
8 527 424 312 408 620 505 387 499
8 502 390 506 621 384 280 388 500
8 622 507 389 501 504 392 282 386
8 502 390 280 384 622 507 389 501
8 504 392 282 386 624 509 391 503
8 624 509 391 503 575 468 354 457
8 513 410 299 395 630 527 408 511
8 631 528 411 514 512 409 300 396
8 513 410 528 631 395 299 409 512
8 519 416 305 401 633 530 411 514
8 634 531 412 515 516 413 302 398
8 523 420 309 405 634 531 412 515
8 635 532 413 516 517 414 303 399
8 521 417 533 636 403 306 414 517
8 520 418 307 402 637 534 415 518
8 519 416 534 637 401 305 415 518
8 522 419 308 404 639 537 418 520
8 522 419 536 640 404 308 417 521
8 524 421 310 406 642 539 420 523
8 524 421 541 644 406 310 423 526
8 646 543 422 525 526 423 311 407
8 529 426 314 410 647 544 424 527
8 528 425 545 648 411 315 427 530
8 529 426 545 648 410 314 425 528
8 535 429 317 416 649 546 427 530
8 650 548 430 531 532 432 320 413
8 539 438 325 420 650 548 430 531
8 533 433 550 651 414 321 432 532
8 536 434 551 652 417 322 433 533
8 537 431 319 418 653 547 428 534
8 535 429 547 653 416 317 428 534
8 538 435 552 654 419 323 434 536
8 538 435 323 419 655 549 431 537
8 540 440 327 421 657 556 438 539
8 540 440 557 659 421 327 439 541
8 541 439 555 660 423 326 437 543
8 661 554 436 542 543 437 324 422
8 676 570 452 559 590 473 365 484
8 560 453 338 441 676 570 452 559
8 562 455 340 443 677 571 453 560
8 447 344 459 566 561 457 575 678
8 564 456 341 445 679 573 455 562
8 567 460 345 448 680 572 454 563
8 680 572 454 563 564 456 341 445
8 565 458 576 682 447 344 459 566
8 450 346 461 569 565 458 576 682
8 568 462 347 449 684 578 460 567
8 451 348 462 568 569 461 579 685
8 686 580 463 570 591 474 360 473
8 571 464 350 453 686 580 463 570
8 573 466 352 455 687 581 464 571
8 572 465 582 688 460 357 471 578
8 574 467 582 688 456 353 465 572
8 574 467 353 456 689 583 466 573
8 459 356 470 577 575 468 585 691
8 576 469 586 692 459 356 470 577
8 461 358 472 579 576 469 586 692
8 462 359 471 578 579 472 588 694
8 704 591 473 590 593 475 363 481
8 595 476 592 705 475 361 474 591
8 593 475 363 481 707 594 479 602
8 594 477 362 479 709 598 478 600
8 595 476 361 475 711 597 477 594
8 479 362 480 603 600 478 601 720
8 481 363 482 605 602 479 603 722
8 603 480 364 482 723 604 483 606
8 605 482 365 484 724 606 485 607
8 656 553 608 726 542 436 487 609
8 645 542 609 728 525 422 488 611
8 609 487 610 729 488 369 489 612
8 611 488 612 730 491 371 490 613
8 616 504 386 495 731 624 503 614
8 731 624 503 614 678 575 457 561
8 732 622 501 615 616 504 386 495
8 617 502 384 496 732 622 501 615
8 617 502 621 735 496 384 500 618
8 736 620 499 619 618 500 382 497
8 630 527 408 511 736 620 499 619
8 621 506 626 737 500 388 505 620
8 647 544 424 527 737 626 505 620
8 623 508 627 738 502 390 506 621
8 623 508 390 502 739 628 507 622
8 625 510 628 739 504 392 507 622
8 740 629 509 624 691 585 468 575
8 625 510 392 504 740 629 509 624
8 632 529 410 513 744 647 527 630
8 631 528 648 745 514 411 530 633
8 632 529 648 745 513 410 528 631
8 638 535 416 519 746 649 530 633
8 747 650 531 634 635 532 413 516
8 642 539 420 523 747 650 531 634
8 636 533 651 748 517 414 532 635
8 640 536 652 749 521 417 533 636
8 639 537 418 520 750 653 534 637
8 638 535 653 750 519 416 534 637
8 641 538 419 522 751 655 537 639
8 641 538 654 752 522 419 536 640
8 643 540 421 524 753 657 539 642
8 643 540 659 755 524 421 541 644
8 644 541 660 757 526 423 543 646
8 758 661 542 645 646 543 422 525
8 529 426 544 647 648 545 662 759
8 530 427 545 648 649 546 663 760
8 535 429 546 649 653 547 664 761
8 762 666 548 650 651 550 432 532
8 657 556 438 539 762 666 548 650
8 652 551 668 763 533 433 550 651
8 654 552 669 764 536 434 551 652
8 655 549 431 537 765 665 547 653
8 538 435 549 655 654 552 667 766
8 661 554 671 768 542 436 553 656
8 658 558 440 540 769 674 556 657
8 658 558 675 770 540 440 557 659
8 659 557 673 771 541 439 555 660
8 660 555 672 772 543 437 554 661
8 788 686 570 676 704 591 473 590
8 677 571 453 560 788 686 570 676
8 679 573 455 562 789 687 571 677
8 566 459 577 683 678 575 691 790
8 681 574 456 564 791 689 573 679
8 680 572 688 792 567 460 578 684
8 681 574 688 792 564 456 572 680
8 682 576 692 794 566 459 577 683
8 569 461 579 685 682 576 692 794
8 568 462 578 684 685 579 694 796
8 687 581 464 571 798 696 580 686
8 798 696 580 686 705 592 474 591
8 689 583 466 573 799 697 581 687
8 688 582 698 800 578 471 588 694
8 690 584 698 800 574 467 582 688
8 690 584 467 574 801 699 583 689
8 693 587 701 803 577 470 585 691
8 693 587 470 577 804 702 586 692
8 695 589 702 804 579 472 586 692
8 695 589 472 579 805 703 588 694
8 708 595 705 813 593 475 591 704
8 710 596 706 814 595 476 592 705
8 707 594 479 602 816 709 600 719
8 708 595 475 593 817 711 594 707
8 709 598 478 600 819 715 599 717
8 711 597 477 594 820 714 598 709
8 710 596 476 595 822 713 597 711
8 600 478 601 720 717 599 718 832
8 602 479 603 722 719 600 720 834
8 720 601 480 603 835 721 604 723
8 722 603 482 605 836 723 606 724
8 767 670 725 839 656 553 608 726
8 756 656 726 841 645 542 609 728
8 726 608 727 842 609 487 610 729
8 728 609 729 843 611 488 612 730
8 844 740 624 731 790 691 575 678
8 733 625 504 616 844 740 624 731
8 734 623 502 617 845 739 622 732
8 733 625 739 845 616 504 622 732
8 734 623 738 846 617 502 621 735
8 735 621 737 847 618 500 620 736
8 744 647 527 630 847 737 620 736
8 621 506 627 738 737 626 741 848
8 647 544 626 737 759 662 741 848
8 623 508 628 739 738 627 742 849
8 740 629 585 691 850 743 700 802
8 625 510 629 740 739 628 743 850
8 632 529 647 744 745 648 759 854
8 633 530 648 745 746 649 760 855
8 638 535 649 746 750 653 761 856
8 857 762 650 747 748 651 532 635
8 753 657 539 642 857 762 650 747
8 749 652 763 858 636 533 651 748
8 752 654 764 859 640 536 652 749
8 751 655 537 639 860 765 653 750
8 641 538 655 751 752 654 766 861
8 754 658 540 643 862 769 657 753
8 754 658 770 863 643 540 659 755
8 755 659 771 864 644 541 660 757
8 758 661 768 866 645 542 656 756
8 757 660 772 867 646 543 661 758
8 759 662 773 868 648 545 663 760
8 649 546 663 760 761 664 774 871
8 765 665 547 653 872 775 664 761
8 873 777 666 762 763 668 550 651
8 769 674 556 657 873 777 666 762
8 764 669 779 874 652 551 668 763
8 654 552 667 766 764 669 778 875
8 655 549 665 765 766 667 776 876
8 768 671 782 877 656 553 670 767
8 772 672 783 878 661 554 671 768
8 658 558 674 769 770 675 786 879
8 659 557 675 770 771 673 785 881
8 882 784 672 772 771 673 555 660
8 789 687 571 677 897 798 686 788
8 897 798 686 788 813 705 591 704
8 791 689 573 679 898 799 687 789
8 795 693 803 900 683 577 691 790
8 793 690 574 681 901 801 689 791
8 792 688 800 902 684 578 694 796
8 793 690 800 902 681 574 688 792
8 795 693 577 683 903 804 692 794
8 797 695 804 903 685 579 692 794
8 797 695 579 685 904 805 694 796
8 905 806 697 799 798 696 581 687
8 814 706 806 905 705 592 696 798
8 689 583 697 799 801 699 808 907
8 800 698 809 908 694 588 703 805
8 690 584 699 801 800 698 809 908
8 803 701 810 909 691 585 700 802
8 693 587 702 804 803 701 811 910
8 695 589 703 805 804 702 812 911
8 818 710 814 919 708 595 705 813
8 821 712 815 920 710 596 706 814
8 816 709 600 719 922 819 717 831
8 817 711 594 707 923 820 709 816
8 818 710 595 708 924 822 711 817
8 819 715 599 717 926 827 716 829
8 820 714 598 709 927 826 715 819
8 929 825 713 822 820 714 597 711
8 821 712 596 710 930 824 713 822
8 717 599 718 832 829 716 830 942
8 719 600 720 834 831 717 832 944
8 832 718 601 720 945 833 721 835
8 834 720 603 722 946 835 723 836
8 869 780 838 950 767 670 725 839
8 865 767 839 952 756 656 726 841
8 839 725 840 953 726 608 727 842
8 841 726 842 954 728 609 729 843
8 844 740 691 790 955 850 802 899
8 733 625 740 844 845 739 850 955
8 734 623 739 845 846 738 849 956
8 735 621 738 846 847 737 848 957
8 744 647 737 847 854 759 848 957
8 738 627 742 849 848 741 851 958
8 848 741 851 958 759 662 773 868
8 850 743 700 802 959 852 807 906
8 849 742 628 739 959 852 743 850
8 854 759 868 965 745 648 760 855
8 746 649 760 855 856 761 871 966
8 860 765 653 750 967 872 761 856
8 968 873 762 857 858 763 651 748
8 862 769 657 753 968 873 762 857
8 859 764 874 969 749 652 763 858
8 752 654 766 861 859 764 875 970
8 751 655 765 860 861 766 876 971
8 754 658 769 862 863 770 879 972
8 755 659 770 863 864 771 881 974
8 976 882 772 867 864 771 660 757
8 866 768 877 977 756 656 767 865
8 867 772 878 978 758 661 768 866
8 760 663 773 868 871 774 883 980
8 870 781 837 948 982 890 780 869
8 982 890 780 869 877 782 670 767
8 761 664 774 871 872 775 884 984
8 876 776 665 765 985 885 775 872
8 873 777 668 763 986 887 779 874
8 769 674 777 873 879 786 887 986
8 764 669 778 875 874 779 888 987
8 766 667 776 876 875 778 886 988
8 878 783 892 989 768 671 782 877
8 878 783 672 772 990 893 784 882
8 880 787 675 770 991 896 786 879
8 880 787 895 992 770 675 785 881
8 881 785 894 993 771 673 784 882
8 1006 905 799 898 897 798 687 789
8 919 814 905 1006 813 705 798 897
8 791 689 799 898 901 801 907 1007
8 900 803 909 1009 790 691 802 899
8 795 693 804 903 900 803 910 1010
8 902 800 908 1011 796 694 805 904
8 793 690 801 901 902 800 908 1011
8 797 695 805 904 903 804 911 1012
8 799 697 806 905 907 808 912 1013
8 920 815 912 1013 814 706 806 905
8 802 700 810 909 906 807 913 1014
8 801 699 808 907 908 809 914 1015
8 805 703 809 908 911 812 915 1016
8 803 701 811 910 909 810 916 1017
8 911 812 917 1018 804 702 811 910
8 925 821 920 1030 818 710 814 919
8 928 823 921 1031 821 712 815 920
8 922 819 717 831 1033 926 829 941
8 923 820 709 816 1034 927 819 922
8 1035 929 822 924 923 820 711 817
8 925 821 710 818 1036 930 822 924
8 1038 933 825 929 927 826 714 820
8 926 827 716 829 1039 935 828 939
8 927 826 715 819 1040 934 827 926
8 928 823 712 821 1041 931 824 930
8 1042 932 824 930 929 825 713 822
8 829 716 830 942 939 828 940 1058
8 831 717 832 944 941 829 942 1060
8 942 830 718 832 1061 943 833 945
8 944 832 720 834 1062 945 835 946
8 981 889 947 1064 870 781 837 948
8 948 837 949 1067 869 780 838 950
8 975 869 950 1069 865 767 839 952
8 950 838 951 1070 839 725 840 953
8 952 839 953 1071 841 726 842 954
8 955 850 802 899 1072 959 906 1008
8 956 849 739 845 1072 959 850 955
8 846 738 849 956 957 848 958 1073
8 957 848 958 1073 854 759 868 965
8 849 742 852 959 958 851 961 1076
8 960 853 961 1076 906 807 852 959
8 958 851 961 1076 868 773 883 980
8 960 853 807 906 1077 963 913 1014
8 855 760 868 965 966 871 980 1085
8 856 761 871 966 967 872 984 1086
8 971 876 765 860 1087 985 872 967
8 968 873 763 858 1088 986 874 969
8 862 769 873 968 972 879 986 1088
8 859 764 875 970 969 874 987 1089
8 861 766 876 971 970 875 988 1090
8 973 880 770 863 1091 991 879 972
8 973 880 992 1092 863 770 881 974
8 974 881 993 1093 864 771 882 976
8 979 870 948 1066 1094 982 869 975
8 1094 982 869 975 977 877 767 865
8 978 878 772 867 1095 990 882 976
8 978 878 989 1096 866 768 877 977
8 871 774 883 980 984 884 994 1099
8 983 891 999 1100 870 781 889 981
8 1101 1000 890 982 989 892 782 877
8 983 891 781 870 1101 1000 890 982
8 872 775 884 984 985 885 995 1103
8 876 776 885 985 988 886 996 1104
8 986 887 779 874 1105 998 888 987
8 879 786 887 986 991 896 998 1105
8 875 778 886 988 987 888 997 1106
8 990 893 1002 1107 878 783 892 989
8 1108 1003 893 990 993 894 784 882
8 880 787 896 991 992 895 1005 1109
8 993 894 785 881 1110 1004 895 992
8 898 799 905 1006 1007 907 1013 1120
8 1030 920 1013 1120 919 814 905 1006
8 901 801 907 1007 1011 908 1015 1121
8 899 802 909 1009 1008 906 1014 1122
8 900 803 910 1010 1009 909 1017 1123
8 1012 911 1018 1124 903 804 910 1010
8 904 805 908 1011 1012 911 1016 1125
8 1013 912 1020 1127 907 808 914 1015
8 1031 921 1020 1127 920 815 912 1013
8 1019 918 962 1075 1128 1021 913 1014
8 1128 1021 913 1014 1017 916 810 909
8 1015 914 1022 1129 908 809 915 1016
8 1016 915 1023 1130 911 812 917 1018
8 1018 917 1024 1131 910 811 916 1017
8 1037 928 1031 1148 925 821 920 1030
8 928 823 931 1041 1031 921 1032 1149
8 1033 926 829 941 1151 1039 939 1057
8 1034 927 819 922 1152 1040 926 1033
8 1153 1038 929 1035 1034 927 820 923
8 1154 1042 930 1036 1035 929 822 924
8 1037 928 821 925 1155 1041 930 1036
8 1039 935 828 939 1156 1047 938 1055
8 1157 1043 932 1042 1038 933 825 929
8 1038 933 826 927 1158 1045 934 1040
8 1040 934 827 926 1159 1046 935 1039
8 930 824 932 1042 1041 931 1044 1160
8 1051 936 1048 1165 1175 1052 937 1053
8 1156 1047 938 1055 1053 937 1054 1178
8 939 828 940 1058 1055 938 1056 1181
8 941 829 942 1060 1057 939 1058 1183
8 942 830 943 1061 1058 940 1059 1184
8 1060 942 832 944 1185 1061 945 1062
8 1082 964 1063 1188 981 889 947 1064
8 1097 981 1064 1190 979 870 948 1066
8 1064 947 1065 1191 948 837 949 1067
8 1066 948 1067 1193 975 869 950 1069
8 1067 949 1068 1194 950 838 951 1070
8 1069 950 1070 1195 952 839 953 1071
8 956 849 959 1072 1073 958 1076 1197
8 1074 960 1076 1197 1008 906 959 1072
8 1073 958 1076 1197 965 868 980 1085
8 1074 960 906 1008 1198 1077 1014 1122
8 1133 1026 1079 1199 1019 918 962 1075
8 1077 963 913 1014 1200 1080 962 1075
8 960 853 963 1077 1076 961 1078 1201
8 980 883 961 1076 1099 994 1078 1201
8 1210 1083 964 1082 1100 999 889 981
8 966 871 980 1085 1086 984 1099 1215
8 967 872 984 1086 1087 985 1103 1216
8 971 876 985 1087 1090 988 1104 1217
8 1088 986 874 969 1218 1105 987 1089
8 972 879 986 1088 1091 991 1105 1218
8 970 875 988 1090 1089 987 1106 1219
8 973 880 991 1091 1092 992 1109 1220
8 1093 993 881 974 1221 1110 992 1092
8 1222 1108 990 1095 1093 993 882 976
8 1223 1101 982 1094 1096 989 877 977
8 1098 983 870 979 1223 1101 982 1094
8 1095 990 1107 1224 978 878 989 1096
8 1098 983 1100 1225 979 870 981 1097
8 984 884 994 1099 1103 995 1111 1227
8 1102 1001 1115 1228 983 891 999 1100
8 1101 1000 892 989 1229 1116 1002 1107
8 1102 1001 891 983 1229 1116 1000 1101
8 985 885 995 1103 1104 996 1112 1230
8 988 886 996 1104 1106 997 1113 1231
8 1105 998 888 987 1232 1114 997 1106
8 991 896 998 1105 1109 1005 1114 1232
8 1108 1003 1117 1233 990 893 1002 1107
8 1108 1003 894 993 1233 1117 1004 1110
8 992 895 1005 1109 1110 1004 1118 1234
8 1120 1013 1127 1244 1007 907 1015 1121
8 1148 1031 1127 1244 1030 920 1013 1120
8 1121 1015 1129 1245 1011 908 1016 1125
8 1126 1019 1075 1196 1246 1128 1014 1122
8 1246 1128 1014 1122 1123 1017 909 1009
8 1124 1018 1131 1247 1010 910 1017 1123
8 1125 1016 1130 1248 1012 911 1018 1124
8 1127 1020 1137 1254 1015 914 1022 1129
8 1031 921 1032 1149 1127 1020 1137 1254
8 1134 1027 918 1019 1257 1140 1021 1128
8 1257 1140 1021 1128 1131 1024 916 1017
8 1129 1022 1141 1258 1016 915 1023 1130
8 1130 1023 1142 1259 1018 917 1024 1131
8 1261 1144 1025 1132 1133 1026 1079 1199
8 1255 1138 1025 1132 1135 1028 1144 1261
8 1133 1026 918 1019 1262 1145 1027 1134
8 1136 1029 1139 1256 1263 1146 1028 1135
8 1037 928 1041 1155 1148 1031 1149 1275
8 1041 931 1044 1160 1149 1032 1150 1276
8 1151 1039 939 1057 1278 1156 1055 1180
8 1152 1040 926 1033 1279 1159 1039 1151
8 1153 1038 927 1034 1280 1158 1040 1152
8 1281 1157 1042 1154 1153 1038 929 1035
8 1036 930 1042 1154 1155 1041 1160 1282
8 1283 1164 1046 1159 1156 1047 935 1039
8 1165 1048 1164 1283 1053 937 1047 1156
8 1157 1043 933 1038 1284 1161 1045 1158
8 1157 1043 1161 1284 1042 932 1044 1160
8 1040 934 1046 1159 1158 1045 1163 1285
8 1166 1049 1167 1292 1051 936 1048 1165
8 1166 1049 936 1051 1293 1168 1050 1172
8 1051 936 1052 1175 1172 1050 1173 1306
8 1174 1051 1165 1290 1308 1175 1053 1177
8 1053 937 1054 1178 1175 1052 1176 1309
8 1278 1156 1055 1180 1177 1053 1178 1311
8 1055 938 1056 1181 1178 1054 1179 1312
8 1057 939 1058 1183 1180 1055 1181 1314
8 1058 940 1059 1184 1181 1056 1182 1315
8 1060 942 1061 1185 1183 1058 1184 1316
8 1208 1081 1187 1321 1082 964 1063 1188
8 1209 1082 1188 1322 1097 981 1064 1190
8 1188 1063 1189 1323 1064 947 1065 1191
8 1190 1064 1191 1325 1066 948 1067 1193
8 1191 1065 1192 1326 1067 949 1068 1194
8 1067 1193 1069 950 1194 1327 1195 1070
8 1250 1133 1199 1330 1126 1019 1075 1196
8 1198 1077 1014 1122 1331 1200 1075 1196
8 1074 960 1077 1198 1197 1076 1201 1332
8 1085 980 1076 1197 1215 1099 1201 1332
8 1199 1079 1203 1333 1075 962 1080 1200
8 1132 1025 1119 1243 1199 1079 1203 1333
8 1201 1078 963 1077 1334 1202 1080 1200
8 1099 994 1078 1201 1227 1111 1202 1334
8 1343 1207 1081 1208 1210 1083 964 1082
8 1214 1084 1186 1319 1343 1207 1081 1208
8 1345 1210 1082 1209 1225 1100 981 1097
8 1346 1211 1083 1210 1228 1115 999 1100
8 1086 984 1099 1215 1216 1103 1227 1352
8 1087 985 1103 1216 1217 1104 1230 1353
8 1090 988 1104 1217 1219 1106 1231 1354
8 1218 1105 987 1089 1355 1232 1106 1219
8 1091 991 1105 1218 1220 1109 1232 1355
8 1092 992 1109 1220 1221 1110 1234 1356
8 1222 1108 1233 1357 1095 990 1107 1224
8 1222 1108 993 1093 1357 1233 1110 1221
8 1223 1101 989 1096 1358 1229 1107 1224
8 1226 1102 983 1098 1358 1229 1101 1223
8 1226 1102 1228 1359 1098 983 1100 1225
8 1103 995 1111 1227 1230 1112 1235 1360
8 1107 1002 1117 1233 1229 1116 1240 1362
8 1102 1001 1116 1229 1228 1115 1240 1362
8 1104 996 1112 1230 1231 1113 1236 1363
8 1364 1237 1114 1232 1231 1113 997 1106
8 1109 1005 1114 1232 1234 1118 1238 1365
8 1110 1004 1118 1234 1233 1117 1241 1366
8 1242 1374 1255 1138 1119 1243 1132 1025
8 1244 1127 1254 1376 1121 1015 1129 1245
8 1148 1031 1149 1275 1244 1127 1254 1376
8 1245 1129 1258 1377 1125 1016 1130 1248
8 1251 1134 1019 1126 1378 1257 1128 1246
8 1378 1257 1128 1246 1247 1131 1017 1123
8 1248 1130 1259 1379 1124 1018 1131 1247
8 1261 1381 1250 1133 1132 1249 1330 1199
8 1255 1380 1252 1135 1132 1249 1381 1261
8 1250 1133 1019 1126 1382 1262 1134 1251
8 1253 1136 1256 1385 1384 1263 1135 1252
8 1254 1137 1265 1387 1129 1022 1141 1258
8 1149 1032 1150 1276 1254 1137 1265 1387
8 1028 1135 1255 1138 1139 1256 1388 1266
8 1136 1029 1147 1264 1256 1139 1267 1389
8 1390 1268 1140 1257 1259 1142 1024 1131
8 1260 1143 1027 1134 1390 1268 1140 1257
8 1258 1141 1269 1391 1130 1023 1142 1259
8 1262 1145 1027 1134 1393 1271 1143 1260
8 1261 1144 1026 1133 1394 1272 1145 1262
8 1135 1028 1144 1261 1263 1146 1272 1394
8 1136 1029 1146 1263 1264 1147 1273 1395
8 1155 1041 1160 1282 1275 1149 1276 1405
8 1276 1150 1044 1160 1406 1277 1162 1286
8 1408 1283 1159 1279 1278 1156 1039 1151
8 1290 1165 1283 1408 1177 1053 1156 1278
8 1152 1040 1159 1279 1280 1158 1285 1409
8 1281 1157 1038 1153 1410 1284 1158 1280
8 1281 1157 1284 1410 1154 1042 1160 1282
8 1159 1046 1164 1283 1285 1163 1289 1412
8 1292 1167 1289 1412 1165 1048 1164 1283
8 1158 1045 1163 1285 1284 1161 1288 1413
8 1284 1161 1288 1413 1160 1044 1162 1286
8 1291 1166 1292 1418 1174 1051 1165 1290
8 1291 1166 1051 1174 1419 1293 1172 1305
8 1294 1169 1296 1421 1166 1049 1167 1292
8 1293 1168 1050 1172 1422 1295 1171 1303
8 1294 1169 1049 1166 1423 1297 1168 1293
8 1422 1295 1171 1303 1301 1170 1302 1435
8 1172 1050 1173 1306 1303 1171 1304 1438
8 1174 1051 1175 1308 1305 1172 1306 1440
8 1175 1052 1176 1309 1306 1173 1307 1441
8 1177 1053 1178 1311 1308 1175 1309 1443
8 1178 1054 1179 1312 1309 1176 1310 1444
8 1180 1055 1181 1314 1311 1178 1312 1446
8 1056 1181 1312 1179 1182 1315 1447 1313
8 1183 1058 1184 1316 1314 1181 1315 1448
8 1319 1186 1084 1214 1451 1317 1213 1350
8 1319 1186 1318 1453 1208 1081 1187 1321
8 1321 1187 1320 1456 1188 1063 1189 1323
8 1344 1208 1321 1457 1209 1082 1188 1322
8 1322 1188 1323 1458 1190 1064 1191 1325
8 1323 1189 1324 1459 1191 1065 1192 1326
8 1191 1325 1193 1067 1326 1460 1327 1194
8 1242 1374 1243 1119 1328 1462 1335 1204
8 1330 1199 1333 1465 1196 1075 1200 1331
8 1132 1249 1330 1199 1243 1375 1465 1333
8 1332 1201 1077 1198 1466 1334 1200 1331
8 1215 1099 1201 1332 1352 1227 1334 1466
8 1119 1243 1333 1203 1204 1335 1470 1338
8 1333 1203 1338 1470 1200 1080 1202 1334
8 1227 1111 1202 1334 1360 1235 1338 1470
8 1328 1462 1335 1204 1205 1336 1471 1339
8 1337 1206 1340 1472 1464 1329 1205 1336
8 1346 1211 1342 1479 1210 1083 1207 1343
8 1346 1211 1115 1228 1479 1342 1239 1361
8 1348 1212 1084 1214 1479 1342 1207 1343
8 1480 1343 1208 1344 1345 1210 1082 1209
8 1351 1214 1319 1454 1480 1343 1208 1344
8 1481 1346 1210 1345 1359 1228 1100 1225
8 1348 1212 1347 1483 1214 1084 1213 1350
8 1216 1103 1227 1352 1353 1230 1360 1488
8 1217 1104 1230 1353 1354 1231 1363 1489
8 1490 1364 1232 1355 1354 1231 1106 1219
8 1220 1109 1232 1355 1356 1234 1365 1491
8 1221 1110 1234 1356 1357 1233 1366 1492
8 1224 1107 1233 1357 1358 1229 1362 1493
8 1226 1102 1229 1358 1359 1228 1362 1493
8 1230 1112 1235 1360 1363 1236 1367 1496
8 1361 1239 1115 1228 1497 1371 1240 1362
8 1366 1241 1372 1498 1233 1117 1240 1362
8 1364 1237 1113 1231 1499 1368 1236 1363
8 1364 1237 1368 1499 1232 1114 1238 1365
8 1234 1118 1238 1365 1366 1241 1369 1500
8 1507 1373 1242 1374 1388 1266 1138 1255
8 1508 1374 1243 1375 1380 1255 1132 1249
8 1376 1254 1387 1509 1245 1129 1258 1377
8 1275 1149 1276 1405 1376 1254 1387 1509
8 1377 1258 1391 1510 1248 1130 1259 1379
8 1511 1390 1257 1378 1379 1259 1131 1247
8 1383 1260 1134 1251 1511 1390 1257 1378
8 1252 1135 1256 1385 1380 1255 1388 1512
8 1261 1381 1513 1394 1133 1250 1382 1262
8 1135 1252 1384 1263 1261 1381 1513 1394
8 1382 1262 1134 1251 1514 1393 1260 1383
8 1253 1136 1263 1384 1386 1264 1395 1516
8 1253 1136 1264 1386 1385 1256 1389 1517
8 1387 1265 1397 1519 1258 1141 1269 1391
8 1276 1150 1277 1406 1387 1265 1397 1519
8 1256 1139 1267 1389 1388 1266 1398 1520
8 1264 1147 1274 1396 1389 1267 1399 1521
8 1392 1270 1143 1260 1522 1400 1268 1390
8 1390 1268 1142 1259 1522 1400 1269 1391
8 1392 1270 1401 1523 1260 1143 1271 1393
8 1272 1394 1524 1402 1145 1262 1393 1271
8 1395 1273 1146 1263 1524 1402 1272 1394
8 1273 1395 1264 1147 1403 1526 1396 1274
8 1405 1276 1160 1282 1534 1406 1286 1411
8 1414 1287 1407 1535 1286 1162 1277 1406
8 1279 1159 1283 1408 1409 1285 1412 1537
8 1418 1292 1412 1537 1290 1165 1283 1408
8 1280 1158 1285 1409 1410 1284 1413 1538
8 1410 1284 1413 1538 1282 1160 1286 1411
8 1285 1163 1289 1412 1413 1288 1417 1540
8 1421 1296 1417 1540 1292 1167 1289 1412
8 1414 1287 1162 1286 1541 1416 1288 1413
8 1420 1294 1421 1545 1291 1166 1292 1418
8 1419 1293 1172 1305 1546 1422 1303 1437
8 1420 1294 1166 1291 1547 1423 1293 1419
8 1294 1169 1297 1423 1421 1296 1425 1548
8 1423 1297 1168 1293 1549 1424 1295 1422
8 1301 1170 1298 1427 1422 1295 1424 1549
8 1432 1300 1428 1554 1301 1170 1298 1427
8 1431 1299 1428 1554 1560 1430 1300 1432
8 1563 1433 1300 1432 1435 1302 1170 1301
8 1546 1422 1303 1437 1434 1301 1435 1565
8 1303 1171 1304 1438 1435 1302 1436 1566
8 1305 1172 1306 1440 1437 1303 1438 1568
8 1306 1173 1307 1441 1438 1304 1439 1569
8 1308 1175 1309 1443 1440 1306 1441 1571
8 1309 1176 1310 1444 1441 1307 1442 1572
8 1311 1178 1312 1446 1443 1309 1444 1574
8 1179 1312 1444 1310 1313 1447 1575 1445
8 1314 1181 1315 1448 1446 1312 1447 1576
8 1350 1213 1349 1486 1451 1317 1449 1579
8 1451 1317 1450 1581 1319 1186 1318 1453
8 1454 1319 1214 1351 1582 1451 1350 1487
8 1453 1318 1452 1584 1321 1187 1320 1456
8 1454 1319 1453 1585 1344 1208 1321 1457
8 1456 1320 1455 1586 1323 1189 1324 1459
8 1457 1321 1456 1587 1322 1188 1323 1458
8 1458 1323 1459 1588 1325 1191 1326 1460
8 1205 1336 1464 1329 1328 1462 1590 1461
8 1507 1373 1461 1590 1374 1242 1328 1462
8 1508 1374 1462 1591 1375 1243 1335 1467
8 1337 1206 1329 1464 1473 1341 1463 1594
8 1375 1243 1335 1467 1465 1333 1470 1596
8 1465 1333 1470 1596 1331 1200 1334 1466
8 1352 1227 1334 1466 1488 1360 1470 1596
8 1591 1462 1336 1468 1467 1335 1471 1597
8 1469 1337 1472 1598 1595 1464 1336 1468
8 1471 1339 1474 1600 1335 1204 1338 1470
8 1600 1474 1367 1496 1470 1338 1235 1360
8 1336 1205 1340 1472 1471 1339 1475 1601
8 1337 1206 1341 1473 1472 1340 1476 1602
8 1495 1370 1478 1609 1361 1239 1342 1479
8 1348 1212 1342 1479 1483 1347 1478 1609
8 1481 1346 1479 1610 1345 1210 1343 1480
8 1481 1346 1228 1359 1610 1479 1361 1494
8 1484 1348 1214 1351 1610 1479 1343 1480
8 1483 1347 1482 1612 1350 1213 1349 1486
8 1484 1348 1483 1613 1351 1214 1350 1487
8 1353 1230 1360 1488 1489 1363 1496 1616
8 1490 1364 1231 1354 1617 1499 1363 1489
8 1490 1364 1499 1617 1355 1232 1365 1491
8 1356 1234 1365 1491 1492 1366 1500 1619
8 1492 1366 1498 1620 1357 1233 1362 1493
8 1494 1361 1228 1359 1621 1497 1362 1493
8 1495 1370 1239 1361 1622 1504 1371 1497
8 1363 1236 1367 1496 1499 1368 1501 1623
8 1497 1371 1240 1362 1624 1505 1372 1498
8 1625 1503 1372 1498 1500 1369 1241 1366
8 1365 1238 1368 1499 1500 1369 1502 1626
8 1520 1398 1506 1633 1388 1266 1373 1507
8 1634 1507 1374 1508 1512 1388 1255 1380
8 1509 1387 1519 1635 1377 1258 1391 1510
8 1405 1276 1406 1534 1509 1387 1519 1635
8 1515 1392 1260 1383 1636 1522 1390 1511
8 1511 1390 1259 1379 1636 1522 1391 1510
8 1385 1256 1389 1517 1512 1388 1520 1637
8 1513 1394 1262 1382 1638 1524 1393 1514
8 1395 1516 1638 1524 1263 1384 1513 1394
8 1515 1392 1523 1639 1383 1260 1393 1514
8 1516 1395 1526 1640 1386 1264 1396 1518
8 1386 1264 1396 1518 1517 1389 1521 1641
8 1519 1397 1527 1643 1391 1269 1400 1522
8 1535 1407 1527 1643 1406 1277 1397 1519
8 1389 1267 1399 1521 1520 1398 1528 1644
8 1645 1529 1399 1521 1525 1404 1274 1396
8 1392 1270 1400 1522 1523 1401 1531 1646
8 1524 1402 1271 1393 1648 1532 1401 1523
8 1403 1526 1648 1532 1273 1395 1524 1402
8 1525 1404 1274 1396 1649 1533 1403 1526
8 1539 1414 1535 1657 1411 1286 1406 1534
8 1542 1415 1536 1658 1414 1287 1407 1535
8 1409 1285 1412 1537 1538 1413 1540 1660
8 1545 1421 1540 1660 1418 1292 1412 1537
8 1539 1414 1286 1411 1661 1541 1413 1538
8 1540 1417 1544 1663 1413 1288 1416 1541
8 1421 1296 1425 1548 1540 1417 1544 1663
8 1542 1415 1287 1414 1664 1543 1416 1541
8 1420 1294 1423 1547 1545 1421 1548 1666
8 1547 1423 1293 1419 1667 1549 1422 1546
8 1434 1301 1427 1553 1546 1422 1549 1667
8 1423 1297 1424 1549 1548 1425 1550 1668
8 1551 1426 1550 1668 1427 1298 1424 1549
8 1551 1426 1298 1427 1671 1552 1428 1554
8 1562 1432 1554 1674 1434 1301 1427 1553
8 1431 1299 1429 1558 1554 1428 1555 1675
8 1431 1299 1430 1560 1558 1429 1557 1680
8 1560 1430 1300 1432 1683 1559 1433 1563
8 1561 1431 1554 1674 1684 1560 1432 1562
8 1685 1563 1432 1562 1565 1435 1301 1434
8 1435 1302 1436 1566 1563 1433 1564 1686
8 1437 1303 1438 1568 1565 1435 1566 1688
8 1438 1304 1439 1569 1566 1436 1567 1689
8 1440 1306 1441 1571 1568 1438 1569 1691
8 1441 1307 1442 1572 1569 1439 1570 1692
8 1443 1309 1444 1574 1571 1441 1572 1694
8 1310 1444 1572 1442 1445 1575 1695 1573
8 1446 1312 1447 1576 1574 1444 1575 1696
8 1486 1349 1485 1614 1579 1449 1577 1699
8 1451 1317 1449 1579 1581 1450 1578 1701
8 1487 1350 1486 1615 1582 1451 1579 1702
8 1581 1450 1580 1704 1453 1318 1452 1584
8 1582 1451 1581 1705 1454 1319 1453 1585
8 1584 1452 1583 1706 1456 1320 1455 1586
8 1585 1453 1584 1707 1457 1321 1456 1587
8 1587 1456 1586 1708 1458 1323 1459 1588
8 1633 1506 1589 1710 1507 1373 1461 1590
8 1464 1329 1461 1590 1594 1463 1589 1710
8 1468 1336 1462 1591 1595 1464 1590 1711
8 1634 1507 1590 1711 1508 1374 1462 1591
8 1473 1341 1463 1594 1603 1477 1593 1716
8 1469 1337 1464 1595 1599 1473 1594 1717
8 1471 1597 1467 1335 1600 1718 1596 1470
8 1718 1600 1496 1616 1596 1470 1360 1488
8 1336 1468 1597 1471 1472 1598 1719 1601
8 1469 1337 1473 1599 1598 1472 1602 1720
8 1722 1604 1501 1623 1600 1474 1367 1496
8 1475 1601 1471 1339 1604 1722 1600 1474
8 1602 1476 1605 1723 1472 1340 1475 1601
8 1476 1602 1724 1606 1341 1473 1603 1477
8 1483 1347 1478 1609 1612 1482 1608 1731
8 1495 1370 1504 1622 1609 1478 1608 1731
8 1618 1495 1609 1732 1494 1361 1479 1610
8 1484 1348 1479 1610 1613 1483 1609 1732
8 1486 1349 1482 1612 1614 1485 1611 1733
8 1613 1483 1612 1734 1487 1350 1486 1615
8 1489 1363 1496 1616 1617 1499 1623 1736
8 1491 1365 1499 1617 1619 1500 1626 1737
8 1618 1495 1361 1494 1738 1622 1497 1621
8 1739 1625 1498 1620 1619 1500 1366 1492
8 1621 1497 1362 1493 1740 1624 1498 1620
8 1742 1631 1504 1622 1624 1505 1371 1497
8 1743 1628 1502 1626 1623 1501 1368 1499
8 1744 1630 1505 1624 1625 1503 1372 1498
8 1745 1629 1503 1625 1626 1502 1369 1500
8 1520 1398 1528 1644 1633 1506 1632 1751
8 1637 1520 1633 1752 1512 1388 1507 1634
8 1635 1519 1643 1753 1510 1391 1522 1636
8 1657 1535 1643 1753 1534 1406 1519 1635
8 1515 1392 1522 1636 1639 1523 1646 1754
8 1517 1389 1521 1641 1637 1520 1644 1755
8 1524 1638 1756 1648 1393 1514 1639 1523
8 1640 1526 1395 1516 1756 1648 1524 1638
8 1642 1525 1396 1518 1757 1649 1526 1640
8 1758 1645 1521 1641 1642 1525 1396 1518
8 1646 1531 1400 1522 1760 1650 1527 1643
8 1535 1407 1536 1658 1643 1527 1650 1760
8 1521 1399 1529 1645 1644 1528 1651 1761
8 1647 1530 1652 1762 1525 1404 1529 1645
8 1401 1523 1648 1532 1531 1646 1763 1655
8 1525 1404 1533 1649 1647 1530 1654 1765
8 1533 1649 1766 1656 1403 1526 1648 1532
8 1662 1542 1658 1774 1539 1414 1535 1657
8 1542 1415 1543 1664 1658 1536 1659 1775
8 1660 1540 1663 1777 1538 1413 1541 1661
8 1545 1421 1548 1666 1660 1540 1663 1777
8 1662 1542 1414 1539 1778 1664 1541 1661
8 1664 1543 1416 1541 1779 1665 1544 1663
8 1548 1425 1550 1668 1663 1544 1665 1779
8 1547 1423 1549 1667 1666 1548 1668 1781
8 1670 1551 1668 1781 1553 1427 1549 1667
8 1551 1426 1552 1671 1668 1550 1669 1782
8 1670 1551 1427 1553 1784 1671 1554 1674
8 1675 1555 1672 1785 1554 1428 1552 1671
8 1678 1556 1673 1789 1558 1429 1555 1675
8 1561 1431 1558 1681 1674 1554 1675 1790
8 1794 1677 1556 1678 1680 1557 1429 1558
8 1560 1430 1559 1683 1680 1557 1679 1797
8 1561 1431 1560 1684 1681 1558 1680 1798
8 1563 1433 1564 1686 1683 1559 1682 1800
8 1684 1560 1432 1562 1801 1683 1563 1685
8 1565 1435 1566 1688 1685 1563 1686 1802
8 1566 1436 1567 1689 1686 1564 1687 1803
8 1568 1438 1569 1691 1688 1566 1689 1805
8 1569 1439 1570 1692 1689 1567 1690 1806
8 1571 1441 1572 1694 1691 1569 1692 1808
8 1442 1572 1692 1570 1573 1695 1809 1693
8 1574 1444 1575 1696 1694 1572 1695 1810
8 1614 1485 1592 1712 1699 1577 1697 1813
8 1579 1449 1577 1699 1701 1578 1698 1815
8 1615 1486 1614 1735 1702 1579 1699 1816
8 1701 1578 1700 1818 1581 1450 1580 1704
8 1582 1451 1579 1702 1705 1581 1701 1819
8 1704 1580 1703 1820 1584 1452 1583 1706
8 1705 1581 1704 1821 1585 1453 1584 1707
8 1707 1584 1706 1822 1587 1456 1586 1708
8 1710 1589 1506 1633 1824 1709 1632 1751
8 1594 1463 1589 1710 1716 1593 1709 1824
8 1752 1633 1710 1825 1634 1507 1590 1711
8 1595 1464 1590 1711 1717 1594 1710 1825
8 1830 1714 1592 1712 1733 1611 1485 1614
8 1603 1477 1593 1716 1725 1607 1715 1834
8 1599 1473 1594 1717 1721 1603 1716 1835
8 1837 1722 1623 1736 1718 1600 1496 1616
8 1719 1601 1722 1837 1597 1471 1600 1718
8 1602 1720 1598 1472 1723 1838 1719 1601
8 1720 1602 1473 1599 1839 1724 1603 1721
8 1723 1605 1726 1840 1601 1475 1604 1722
8 1840 1726 1628 1743 1722 1604 1501 1623
8 1724 1606 1727 1841 1602 1476 1605 1723
8 1725 1607 1728 1842 1603 1477 1606 1724
8 1612 1482 1608 1731 1733 1611 1730 1849
8 1741 1627 1730 1849 1622 1504 1608 1731
8 1613 1483 1609 1732 1734 1612 1731 1850
8 1618 1495 1622 1738 1732 1609 1731 1850
8 1615 1486 1612 1734 1735 1614 1733 1851
8 1852 1743 1626 1737 1736 1623 1499 1617
8 1853 1745 1625 1739 1737 1626 1500 1619
8 1855 1742 1622 1738 1740 1624 1497 1621
8 1856 1744 1624 1740 1739 1625 1498 1620
8 1741 1627 1504 1622 1857 1746 1631 1742
8 1742 1631 1505 1624 1858 1749 1630 1744
8 1859 1747 1629 1745 1743 1628 1502 1626
8 1860 1748 1630 1744 1745 1629 1503 1625
8 1644 1528 1651 1761 1751 1632 1750 1865
8 1637 1520 1644 1755 1752 1633 1751 1866
8 1754 1646 1522 1636 1867 1760 1643 1753
8 1657 1535 1658 1774 1753 1643 1760 1867
8 1639 1523 1646 1754 1756 1648 1763 1868
8 1641 1521 1645 1758 1755 1644 1761 1869
8 1757 1649 1526 1640 1870 1766 1648 1756
8 1642 1525 1649 1757 1759 1647 1765 1871
8 1759 1647 1762 1872 1642 1525 1645 1758
8 1760 1650 1767 1874 1646 1531 1655 1763
8 1658 1536 1659 1775 1760 1650 1767 1874
8 1762 1652 1768 1875 1645 1529 1651 1761
8 1764 1653 1769 1876 1647 1530 1652 1762
8 1656 1766 1877 1773 1532 1648 1763 1655
8 1771 1879 1765 1654 1653 1764 1647 1530
8 1533 1649 1765 1654 1656 1766 1880 1772
8 1662 1542 1664 1778 1774 1658 1775 1887
8 1664 1543 1665 1779 1775 1659 1776 1888
8 1778 1664 1541 1661 1890 1779 1663 1777
8 1666 1548 1668 1781 1777 1663 1779 1890
8 1782 1669 1780 1891 1668 1550 1665 1779
8 1670 1551 1671 1784 1781 1668 1782 1893
8 1671 1552 1672 1785 1782 1669 1783 1894
8 1790 1675 1785 1896 1674 1554 1671 1784
8 1675 1555 1673 1789 1785 1672 1786 1897
8 1792 1676 1788 1903 1678 1556 1673 1789
8 1795 1678 1789 1904 1681 1558 1675 1790
8 1792 1676 1556 1678 1906 1791 1677 1794
8 1680 1557 1679 1797 1794 1677 1793 1909
8 1910 1794 1678 1795 1798 1680 1558 1681
8 1683 1559 1682 1800 1797 1679 1796 1912
8 1684 1560 1683 1801 1798 1680 1797 1913
8 1686 1564 1687 1803 1800 1682 1799 1915
8 1685 1563 1686 1802 1801 1683 1800 1916
8 1688 1566 1689 1805 1802 1686 1803 1917
8 1689 1567 1690 1806 1803 1687 1804 1918
8 1691 1569 1692 1808 1805 1689 1806 1920
8 1692 1570 1693 1809 1806 1690 1807 1921
8 1694 1572 1695 1810 1808 1692 1809 1922
8 1829 1713 1811 1926 1712 1592 1697 1813
8 1813 1697 1812 1928 1699 1577 1698 1815
8 1735 1614 1712 1828 1816 1699 1813 1929
8 1815 1698 1814 1931 1701 1578 1700 1818
8 1702 1579 1699 1816 1819 1701 1815 1932
8 1818 1700 1817 1933 1704 1580 1703 1820
8 1819 1701 1818 1934 1705 1581 1704 1821
8 1821 1704 1820 1935 1707 1584 1706 1822
8 1824 1709 1632 1751 1937 1823 1750 1865
8 1716 1593 1709 1824 1834 1715 1823 1937
8 1825 1710 1633 1752 1938 1824 1751 1866
8 1717 1594 1710 1825 1835 1716 1824 1938
8 1945 1830 1712 1828 1851 1733 1614 1735
8 1830 1714 1831 1946 1712 1592 1713 1829
8 1947 1832 1714 1830 1849 1730 1611 1733
8 1843 1729 1607 1725 1950 1833 1715 1834
8 1721 1603 1716 1835 1836 1725 1834 1951
8 1836 1725 1842 1953 1721 1603 1724 1839
8 1723 1838 1719 1601 1840 1954 1837 1722
8 1954 1840 1743 1852 1837 1722 1623 1736
8 1724 1839 1720 1602 1841 1955 1838 1723
8 1841 1727 1844 1956 1723 1605 1726 1840
8 1956 1844 1747 1859 1840 1726 1628 1743
8 1728 1842 1724 1606 1845 1957 1841 1727
8 1725 1607 1729 1843 1842 1728 1846 1958
8 1741 1627 1746 1857 1849 1730 1848 1965
8 1734 1612 1731 1850 1851 1733 1849 1966
8 1854 1741 1849 1966 1738 1622 1731 1850
8 1967 1859 1745 1853 1852 1743 1626 1737
8 1968 1860 1744 1856 1853 1745 1625 1739
8 1854 1741 1622 1738 1969 1857 1742 1855
8 1855 1742 1624 1740 1970 1858 1744 1856
8 1857 1746 1631 1742 1971 1861 1749 1858
8 1858 1749 1630 1744 1972 1863 1748 1860
8 1859 1747 1862 1973 1745 1629 1748 1860
8 1875 1768 1864 1977 1761 1651 1750 1865
8 1755 1644 1761 1869 1866 1751 1865 1978
8 1867 1760 1874 1979 1754 1646 1763 1868
8 1774 1658 1775 1887 1867 1760 1874 1979
8 1870 1766 1648 1756 1980 1877 1763 1868
8 1872 1762 1875 1981 1758 1645 1761 1869
8 1757 1649 1766 1870 1871 1765 1880 1982
8 1983 1879 1764 1873 1871 1765 1647 1759
8 1873 1764 1876 1984 1759 1647 1762 1872
8 1877 1773 1655 1763 1986 1881 1767 1874
8 1775 1659 1776 1888 1874 1767 1881 1986
8 1876 1769 1882 1987 1762 1652 1768 1875
8 1878 1770 1883 1988 1764 1653 1769 1876
8 1880 1772 1656 1766 1989 1886 1773 1877
8 1878 1770 1653 1764 1990 1884 1771 1879
8 1765 1654 1772 1880 1879 1771 1885 1991
8 1778 1664 1779 1890 1887 1775 1888 1997
8 1998 1889 1776 1888 1891 1780 1665 1779
8 1893 1782 1891 2000 1781 1668 1779 1890
8 1894 1783 1892 2001 1782 1669 1780 1891
8 1784 1671 1785 1896 1893 1782 1894 2003
8 1897 1786 1895 2004 1785 1672 1783 1894
8 1790 1675 1789 1904 1896 1785 1897 2006
8 1901 1787 1898 2007 1789 1673 1786 1897
8 1903 1788 1900 2013 1789 1673 1787 1901
8 1792 1676 1791 1906 1903 1788 1902 2016
8 1907 1792 1903 2017 1795 1678 1789 1904
8 1906 1791 1677 1794 2019 1905 1793 1909
8 1907 1792 1678 1795 2020 1906 1794 1910
8 1797 1679 1796 1912 1909 1793 1908 2022
8 1798 1680 1797 1913 1910 1794 1909 2023
8 1800 1682 1799 1915 1912 1796 1911 2025
8 1801 1683 1800 1916 1913 1797 1912 2026
8 1803 1687 1804 1918 1915 1799 1914 2028
8 1802 1686 1803 1917 1916 1800 1915 2029
8 1805 1689 1806 1920 1917 1803 1918 2030
8 1806 1690 1807 1921 1918 1804 1919 2031
8 1808 1692 1809 1922 1920 1806 1921 2032
8 1939 1826 1924 2037 1829 1713 1811 1926
8 1926 1811 1925 2039 1813 1697 1812 1928
8 1944 1829 1926 2040 1828 1712 1813 1929
8 1928 1812 1927 2042 1815 1698 1814 1931
8 1929 1813 1928 2043 1816 1699 1815 1932
8 1931 1814 1930 2044 1818 1700 1817 1933
8 1932 1815 1931 2045 1819 1701 1818 1934
8 1934 1818 1933 2046 1821 1704 1820 1935
8 2048 1936 1823 1937 1977 1864 1750 1865
8 1950 1833 1715 1834 2048 1936 1823 1937
8 1938 1824 1751 1866 2049 1937 1865 1978
8 1835 1716 1824 1938 1951 1834 1937 2049
8 1939 1826 1713 1829 2053 1942 1831 1946
8 1940 1827 1923 2035 2053 1942 1826 1939
8 1945 1830 1946 2058 1828 1712 1829 1944
8 2059 1947 1830 1945 1966 1849 1733 1851
8 1947 1832 1730 1849 2060 1948 1848 1965
8 1947 1832 1948 2060 1830 1714 1831 1946
8 1959 1847 1729 1843 2063 1949 1833 1950
8 1952 1843 1725 1836 2064 1950 1834 1951
8 1836 1725 1843 1952 1953 1842 1958 2066
8 1953 1842 1957 2067 1839 1724 1841 1955
8 1841 1955 1838 1723 1956 2068 1954 1840
8 2068 1956 1859 1967 1954 1840 1743 1852
8 1956 1844 1960 2069 1859 1747 1862 1973
8 1845 1957 1841 1727 1960 2069 1956 1844
8 1728 1842 1957 1845 1846 1958 2071 1961
8 1962 2072 1959 1847 1846 1958 1843 1729
8 1971 1861 1964 2077 1857 1746 1848 1965
8 1854 1741 1857 1969 1966 1849 1965 2078
8 1967 1859 1973 2079 1853 1745 1860 1968
8 1970 1858 1744 1856 2080 1972 1860 1968
8 1969 1857 1742 1855 2081 1971 1858 1970
8 1971 1861 1749 1858 2082 1974 1863 1972
8 1973 1862 1975 2083 1860 1748 1863 1972
8 1987 1882 1976 2086 1875 1768 1864 1977
8 1981 1875 1977 2087 1869 1761 1865 1978
8 1980 1877 1763 1868 2088 1986 1874 1979
8 1887 1775 1888 1997 1979 1874 1986 2088
8 1880 1982 2089 1989 1766 1870 1980 1877
8 1984 1876 1987 2090 1872 1762 1875 1981
8 1765 1871 1983 1879 1880 1982 2091 1991
8 1985 1878 1764 1873 2092 1990 1879 1983
8 1985 1878 1988 2093 1873 1764 1876 1984
8 2094 1992 1881 1986 1998 1889 1776 1888
8 1986 1881 1992 2094 1877 1773 1886 1989
8 1988 1883 1993 2095 1876 1769 1882 1987
8 1878 1770 1884 1990 1988 1883 1994 2096
8 1991 1885 1772 1880 2097 1996 1886 1989
8 1879 1771 1885 1991 1990 1884 1995 2098
8 2103 1998 1888 1997 2000 1891 1779 1890
8 2104 1999 1889 1998 2001 1892 1780 1891
8 2003 1894 2001 2106 1893 1782 1891 2000
8 2004 1895 2002 2107 1894 1783 1892 2001
8 2006 1897 2004 2109 1896 1785 1894 2003
8 2007 1898 2005 2110 1897 1786 1895 2004
8 2014 1901 2007 2112 1904 1789 1897 2006
8 2011 1899 2008 2113 1901 1787 1898 2007
8 2119 2010 1899 2011 2013 1900 1787 1901
8 2016 1902 2012 2122 1903 1788 1900 2013
8 2017 1903 2013 2123 1904 1789 1901 2014
8 1906 1791 1905 2019 2016 1902 2015 2125
8 1907 1792 1906 2020 2017 1903 2016 2126
8 1909 1793 1908 2022 2019 1905 2018 2128
8 2020 1906 1794 1910 2129 2019 1909 2023
8 1912 1796 1911 2025 2022 1908 2021 2131
8 1913 1797 1912 2026 2023 1909 2022 2132
8 1915 1799 1914 2028 2025 1911 2024 2134
8 1916 1800 1915 2029 2026 1912 2025 2135
8 1918 1804 1919 2031 2028 1914 2027 2136
8 1917 1803 1918 2030 2029 1915 2028 2137
8 1920 1806 1921 2032 2030 1918 2031 2138
8 1940 1827 1941 2054 2035 1923 2033 2140
8 2035 1923 2034 2143 1939 1826 1924 2037
8 2037 1924 2036 2146 1926 1811 1925 2039
8 2051 1939 2037 2147 1944 1829 1926 2040
8 2039 1925 2038 2149 1928 1812 1927 2042
8 2040 1926 2039 2150 1929 1813 1928 2043
8 2042 1927 2041 2151 1931 1814 1930 2044
8 2043 1928 2042 2152 1932 1815 1931 2045
8 2045 1931 2044 2153 1934 1818 1933 2046
8 2155 2047 1936 2048 2086 1976 1864 1977
8 2063 1949 1833 1950 2155 2047 1936 2048
8 2156 2048 1937 2049 2087 1977 1865 1978
8 2064 1950 1834 1951 2156 2048 1937 2049
8 2051 1939 1829 1944 2160 2053 1946 2058
8 2052 1940 2035 2144 2160 2053 1939 2051
8 2053 1942 1831 1946 2163 2057 1948 2060
8 2055 1943 1827 1940 2163 2057 1942 2053
8 2055 1943 2056 2164 1940 1827 1941 2054
8 2059 1947 1849 1966 2167 2060 1965 2078
8 2059 1947 2060 2167 1945 1830 1946 2058
8 2077 1964 2061 2168 1965 1848 1948 2060
8 2070 1963 1847 1959 2170 2062 1949 2063
8 2065 1959 1843 1952 2171 2063 1950 2064
8 2173 2072 1958 2066 2065 1959 1843 1952
8 1953 1842 1958 2066 2067 1957 2071 2174
8 2068 1956 2069 2175 1967 1859 1973 2079
8 2067 1957 2069 2175 1955 1841 1956 2068
8 1845 1957 2069 1960 1961 2071 2176 2073
8 2069 1960 2073 2176 1973 1862 1975 2083
8 2070 1963 2075 2177 1959 1847 1962 2072
8 1846 1958 2071 1961 1962 2072 2178 2074
8 2077 1964 1861 1971 2182 2076 1974 2082
8 2081 1971 2077 2183 1969 1857 1965 2078
8 2079 1973 2083 2184 1968 1860 1972 2080
8 2081 1971 1858 1970 2185 2082 1972 2080
8 2083 1975 2084 2186 1972 1863 1974 2082
8 2086 1976 1882 1987 2189 2085 1993 2095
8 2090 1987 2086 2190 1981 1875 1977 2087
8 2191 2094 1986 2088 2103 1998 1888 1997
8 2088 1986 2094 2191 1980 1877 1989 2089
8 1991 2091 2192 2097 1880 1982 2089 1989
8 2093 1988 2095 2193 1984 1876 1987 2090
8 1879 1983 2092 1990 1991 2091 2194 2098
8 1985 1878 1990 2092 2093 1988 2096 2195
8 2097 1996 1886 1989 2196 2099 1992 2094
8 2196 2099 1992 2094 2104 1999 1889 1998
8 1994 2096 1988 1883 2100 2197 2095 1993
8 2096 1994 1884 1990 2198 2101 1995 2098
8 1995 2098 2199 2102 1885 1991 2097 1996
8 2203 2104 1998 2103 2106 2001 1891 2000
8 2107 2002 2105 2204 2001 1892 1999 2104
8 2109 2004 2107 2206 2003 1894 2001 2106
8 2110 2005 2108 2207 2004 1895 2002 2107
8 2112 2007 2110 2209 2006 1897 2004 2109
8 2113 2008 2111 2210 2007 1898 2005 2110
8 2120 2011 2113 2212 2014 1901 2007 2112
8 2117 2009 2114 2213 2011 1899 2008 2113
8 2219 2116 2009 2117 2119 2010 1899 2011
8 2222 2118 2010 2119 2122 2012 1900 2013
8 2223 2119 2011 2120 2123 2013 1901 2014
8 2016 1902 2015 2125 2122 2012 2121 2225
8 2126 2016 2122 2226 2017 1903 2013 2123
8 2019 1905 2018 2128 2125 2015 2124 2228
8 2020 1906 2019 2129 2126 2016 2125 2229
8 2022 1908 2021 2131 2128 2018 2127 2231
8 2023 1909 2022 2132 2129 2019 2128 2232
8 2025 1911 2024 2134 2131 2021 2130 2234
8 2026 1912 2025 2135 2132 2022 2131 2235
8 1914 2028 2134 2024 2027 2136 2236 2133
8 2029 1915 2028 2137 2135 2025 2134 2237
8 2030 1918 2031 2138 2137 2028 2136 2238
8 2157 2050 2139 2240 2054 1941 2033 2140
8 2052 1940 2054 2161 2144 2035 2140 2242
8 2140 2033 2141 2243 2035 1923 2034 2143
8 2143 2034 2142 2246 2037 1924 2036 2146
8 2144 2035 2143 2247 2051 1939 2037 2147
8 2146 2036 2145 2249 2039 1925 2038 2149
8 2147 2037 2146 2250 2040 1926 2039 2150
8 2149 2038 2148 2251 2042 1927 2041 2151
8 2150 2039 2149 2252 2043 1928 2042 2152
8 2152 2042 2151 2253 2045 1931 2044 2153
8 2255 2154 2047 2155 2189 2085 1976 2086
8 2170 2062 1949 2063 2255 2154 2047 2155
8 2256 2155 2048 2156 2190 2086 1977 2087
8 2171 2063 1950 2064 2256 2155 2048 2156
8 2258 2159 2050 2157 2164 2056 1941 2054
8 2160 2053 1946 2058 2262 2163 2060 2167
8 2162 2055 1940 2052 2262 2163 2053 2160
8 2162 2055 2164 2263 2052 1940 2054 2161
8 2163 2057 1948 2060 2264 2165 2061 2168
8 2055 1943 2057 2163 2164 2056 2165 2264
8 2182 2076 2166 2268 2077 1964 2061 2168
8 2183 2077 2168 2269 2078 1965 2060 2167
8 2070 1963 2062 2170 2177 2075 2169 2271
8 2172 2070 1959 2065 2272 2170 2063 2171
8 2172 2070 2177 2273 2065 1959 2072 2173
8 2066 1958 2072 2173 2174 2071 2178 2274
8 2067 1957 2071 2174 2175 2069 2176 2275
8 2175 2069 2176 2275 2079 1973 2083 2184
8 2071 1961 2074 2178 2176 2073 2179 2276
8 2176 2073 2179 2276 2083 1975 2084 2186
8 2072 1962 2075 2177 2178 2074 2180 2277
8 2182 2076 1974 2082 2280 2181 2084 2186
8 2183 2077 1971 2081 2281 2182 2082 2185
8 2184 2083 2186 2282 2080 1972 2082 2185
8 2189 2085 1993 2095 2285 2188 2100 2197
8 2190 2086 1987 2090 2286 2189 2095 2193
8 2192 2097 1989 2089 2287 2196 2094 2191
8 2287 2196 2094 2191 2203 2104 1998 2103
8 2194 2098 1991 2091 2288 2199 2097 2192
8 2195 2096 2197 2289 2093 1988 2095 2193
8 2096 2195 2290 2198 1990 2092 2194 2098
8 2097 1996 2099 2196 2199 2102 2200 2291
8 2196 2099 1999 2104 2291 2200 2105 2204
8 2100 2197 2292 2201 1994 2096 2198 2101
8 1995 2098 2198 2101 2102 2199 2293 2202
8 2206 2107 2204 2296 2106 2001 2104 2203
8 2207 2108 2205 2297 2107 2002 2105 2204
8 2209 2110 2207 2299 2109 2004 2107 2206
8 2210 2111 2208 2300 2110 2005 2108 2207
8 2212 2113 2210 2302 2112 2007 2110 2209
8 2213 2114 2211 2303 2113 2008 2111 2210
8 2220 2117 2213 2305 2120 2011 2113 2212
8 2216 2115 2214 2306 2117 2009 2114 2213
8 2216 2115 2009 2117 2311 2217 2116 2219
8 2219 2116 2010 2119 2314 2218 2118 2222
8 2315 2219 2117 2220 2223 2119 2011 2120
8 2122 2012 2121 2225 2222 2118 2221 2317
8 2318 2222 2119 2223 2226 2122 2013 2123
8 2125 2015 2124 2228 2225 2121 2224 2320
8 2126 2016 2125 2229 2226 2122 2225 2321
8 2128 2018 2127 2231 2228 2124 2227 2323
8 2129 2019 2128 2232 2229 2125 2228 2324
8 2131 2021 2130 2234 2231 2127 2230 2326
8 2132 2022 2131 2235 2232 2128 2231 2327
8 2134 2024 2133 2236 2234 2130 2233 2328
8 2135 2025 2134 2237 2235 2131 2234 2329
8 2137 2028 2136 2238 2237 2134 2236 2330
8 2157 2050 2158 2259 2240 2139 2239 2332
8 2257 2157 2240 2334 2161 2054 2140 2242
8 2240 2139 2241 2335 2140 2033 2141 2243
8 2242 2140 2243 2337 2144 2035 2143 2247
8 2243 2141 2244 2338 2143 2034 2142 2246
8 2246 2142 2245 2341 2146 2036 2145 2249
8 2247 2143 2246 2342 2147 2037 2146 2250
8 2249 2145 2248 2343 2149 2038 2148 2251
8 2250 2146 2249 2344 2150 2039 2149 2252
8 2252 2149 2251 2345 2152 2042 2151 2253
8 2169 2271 2347 2254 2062 2170 2255 2154
8 2189 2085 2188 2285 2255 2154 2254 2347
8 2348 2255 2155 2256 2286 2189 2086 2190
8 2272 2170 2063 2171 2348 2255 2155 2256
8 2349 2258 2157 2257 2263 2164 2054 2161
8 2258 2159 2261 2351 2157 2050 2158 2259
8 2258 2159 2056 2164 2351 2261 2165 2264
8 2262 2163 2060 2167 2355 2264 2168 2269
8 2162 2055 2163 2262 2263 2164 2264 2355
8 2357 2266 2165 2264 2268 2166 2061 2168
8 2268 2166 2076 2182 2361 2267 2181 2280
8 2281 2182 2268 2362 2183 2077 2168 2269
8 2271 2169 2270 2364 2177 2075 2180 2277
8 2172 2070 2170 2272 2273 2177 2271 2365
8 2072 2173 2274 2178 2177 2273 2366 2277
8 2071 2174 2275 2176 2178 2274 2367 2276
8 2275 2176 2276 2367 2184 2083 2186 2282
8 2283 2187 2084 2186 2368 2278 2179 2276
8 2178 2074 2180 2277 2276 2179 2278 2368
8 2283 2187 2279 2370 2186 2084 2181 2280
8 2281 2182 2082 2185 2371 2280 2186 2282
8 2188 2285 2374 2284 2100 2197 2292 2201
8 2286 2189 2095 2193 2375 2285 2197 2289
8 2192 2097 2196 2287 2288 2199 2291 2376
8 2287 2196 2104 2203 2376 2291 2204 2296
8 2194 2098 2199 2288 2290 2198 2293 2377
8 2289 2197 2096 2195 2378 2292 2198 2290
8 2291 2200 2105 2204 2379 2294 2205 2297
8 2199 2102 2200 2291 2293 2202 2294 2379
8 2198 2101 2202 2293 2292 2201 2295 2380
8 2299 2207 2297 2383 2206 2107 2204 2296
8 2300 2208 2298 2384 2207 2108 2205 2297
8 2302 2210 2300 2386 2209 2110 2207 2299
8 2303 2211 2301 2387 2210 2111 2208 2300
8 2305 2213 2303 2389 2212 2113 2210 2302
8 2306 2214 2304 2390 2213 2114 2211 2303
8 2310 2216 2306 2392 2220 2117 2213 2305
8 2308 2215 2307 2393 2216 2115 2214 2306
8 2308 2215 2115 2216 2396 2309 2217 2311
8 2310 2216 2117 2220 2398 2311 2219 2315
8 2311 2217 2116 2219 2399 2312 2218 2314
8 2314 2218 2118 2222 2402 2313 2221 2317
8 2315 2219 2119 2223 2403 2314 2222 2318
8 2225 2121 2224 2320 2317 2221 2316 2405
8 2226 2122 2225 2321 2318 2222 2317 2406
8 2228 2124 2227 2323 2320 2224 2319 2408
8 2229 2125 2228 2324 2321 2225 2320 2409
8 2231 2127 2230 2326 2323 2227 2322 2411
8 2232 2128 2231 2327 2324 2228 2323 2412
8 2234 2130 2233 2328 2326 2230 2325 2413
8 2235 2131 2234 2329 2327 2231 2326 2414
8 2237 2134 2236 2330 2329 2234 2328 2415
8 2259 2158 2260 2352 2332 2239 2331 2417
8 2257 2157 2259 2350 2334 2240 2332 2419
8 2240 2139 2239 2332 2335 2241 2333 2420
8 2334 2240 2335 2422 2242 2140 2243 2337
8 2335 2241 2336 2423 2243 2141 2244 2338
8 2337 2243 2338 2425 2247 2143 2246 2342
8 2338 2244 2339 2426 2246 2142 2245 2341
8 2341 2245 2340 2428 2249 2145 2248 2343
8 2342 2246 2341 2429 2250 2146 2249 2344
8 2344 2249 2343 2430 2252 2149 2251 2345
8 2188 2285 2347 2254 2284 2374 2432 2346
8 2347 2254 2346 2432 2271 2169 2270 2364
8 2365 2271 2170 2272 2433 2347 2255 2348
8 2286 2189 2285 2375 2348 2255 2347 2433
8 2349 2258 2351 2435 2257 2157 2259 2350
8 2349 2258 2164 2263 2435 2351 2264 2355
8 2259 2158 2261 2351 2352 2260 2354 2437
8 2356 2265 2354 2437 2264 2165 2261 2351
8 2441 2357 2264 2355 2362 2268 2168 2269
8 2356 2265 2165 2264 2442 2358 2266 2357
8 2443 2359 2266 2357 2361 2267 2166 2268
8 2370 2279 2360 2446 2280 2181 2267 2361
8 2362 2268 2182 2281 2447 2361 2280 2371
8 2180 2277 2368 2278 2270 2364 2449 2363
8 2271 2365 2273 2177 2364 2450 2366 2277
8 2372 2283 2186 2282 2451 2368 2276 2367
8 2178 2274 2367 2276 2277 2366 2451 2368
8 2283 2187 2278 2368 2370 2279 2369 2452
8 2372 2283 2370 2453 2282 2186 2280 2371
8 2284 2374 2455 2373 2201 2292 2380 2295
8 2375 2285 2197 2289 2456 2374 2292 2378
8 2376 2291 2204 2296 2457 2379 2297 2383
8 2288 2199 2291 2376 2377 2293 2379 2457
8 2198 2290 2378 2292 2293 2377 2458 2380
8 2293 2202 2294 2379 2380 2295 2381 2459
8 2384 2298 2381 2459 2297 2205 2294 2379
8 2386 2300 2384 2463 2299 2207 2297 2383
8 2387 2301 2385 2464 2300 2208 2298 2384
8 2389 2303 2387 2466 2302 2210 2300 2386
8 2390 2304 2388 2467 2303 2211 2301 2387
8 2392 2306 2390 2469 2305 2213 2303 2389
8 2393 2307 2391 2470 2306 2214 2304 2390
8 2395 2308 2393 2472 2310 2216 2306 2392
8 2308 2215 2309 2396 2393 2307 2394 2473
8 2395 2308 2216 2310 2475 2396 2311 2398
8 2396 2309 2217 2311 2476 2397 2312 2399
8 2398 2311 2219 2315 2478 2399 2314 2403
8 2399 2312 2218 2314 2479 2400 2313 2402
8 2317 2221 2316 2405 2402 2313 2401 2482
8 2403 2314 2222 2318 2483 2402 2317 2406
8 2320 2224 2319 2408 2405 2316 2404 2485
8 2321 2225 2320 2409 2406 2317 2405 2486
8 2323 2227 2322 2411 2408 2319 2407 2488
8 2324 2228 2323 2412 2409 2320 2408 2489
8 2326 2230 2325 2413 2411 2322 2410 2490
8 2327 2231 2326 2414 2412 2323 2411 2491
8 2329 2234 2328 2415 2414 2326 2413 2492
8 2417 2331 2260 2352 2494 2416 2353 2438
8 2350 2259 2352 2436 2419 2332 2417 2496
8 2332 2239 2331 2417 2420 2333 2418 2497
8 2334 2240 2332 2419 2422 2335 2420 2499
8 2420 2333 2421 2500 2335 2241 2336 2423
8 2422 2335 2423 2502 2337 2243 2338 2425
8 2423 2336 2424 2503 2338 2244 2339 2426
8 2425 2338 2426 2505 2342 2246 2341 2429
8 2426 2339 2427 2506 2341 2245 2340 2428
8 2429 2341 2428 2507 2344 2249 2343 2430
8 2432 2346 2284 2374 2509 2431 2373 2455
8 2432 2346 2431 2509 2364 2270 2363 2449
8 2375 2285 2374 2456 2433 2347 2432 2510
8 2347 2433 2365 2271 2432 2510 2450 2364
8 2350 2259 2351 2435 2436 2352 2437 2514
8 2440 2356 2437 2514 2355 2264 2351 2435
8 2352 2260 2354 2437 2438 2353 2439 2516
8 2356 2265 2358 2442 2437 2354 2439 2516
8 2440 2356 2264 2355 2518 2442 2357 2441
8 2519 2443 2357 2441 2447 2361 2268 2362
8 2443 2359 2444 2520 2357 2266 2358 2442
8 2443 2359 2267 2361 2520 2444 2360 2446
8 2446 2360 2279 2370 2523 2445 2369 2452
8 2453 2370 2446 2524 2371 2280 2361 2447
8 2449 2363 2448 2525 2368 2278 2369 2452
8 2366 2277 2364 2450 2451 2368 2449 2526
8 2372 2283 2368 2451 2453 2370 2452 2527
8 2455 2373 2295 2380 2529 2454 2382 2460
8 2456 2374 2292 2378 2530 2455 2380 2458
8 2377 2293 2379 2457 2458 2380 2459 2531
8 2463 2384 2459 2531 2383 2297 2379 2457
8 2533 2461 2382 2460 2459 2381 2295 2380
8 2464 2385 2461 2533 2384 2298 2381 2459
8 2466 2387 2464 2537 2386 2300 2384 2463
8 2467 2388 2465 2538 2387 2301 2385 2464
8 2469 2390 2467 2540 2389 2303 2387 2466
8 2470 2391 2468 2541 2390 2304 2388 2467
8 2472 2393 2470 2543 2392 2306 2390 2469
8 2393 2307 2394 2473 2470 2391 2471 2544
8 2395 2308 2396 2475 2472 2393 2473 2546
8 2396 2309 2397 2476 2473 2394 2474 2547
8 2475 2396 2311 2398 2549 2476 2399 2478
8 2476 2397 2312 2399 2550 2477 2400 2479
8 2478 2399 2314 2403 2552 2479 2402 2483
8 2479 2400 2313 2402 2553 2480 2401 2482
8 2405 2316 2404 2485 2482 2401 2481 2556
8 2406 2317 2405 2486 2483 2402 2482 2557
8 2408 2319 2407 2488 2485 2404 2484 2559
8 2409 2320 2408 2489 2486 2405 2485 2560
8 2411 2322 2410 2490 2488 2407 2487 2561
8 2412 2323 2411 2491 2489 2408 2488 2562
8 2414 2326 2413 2492 2491 2411 2490 2563
8 2513 2434 2493 2565 2438 2353 2416 2494
8 2496 2417 2352 2436 2567 2494 2438 2515
8 2494 2416 2495 2568 2417 2331 2418 2497
8 2419 2332 2417 2496 2499 2420 2497 2570
8 2497 2418 2498 2571 2420 2333 2421 2500
8 2499 2420 2500 2573 2422 2335 2423 2502
8 2500 2421 2501 2574 2423 2336 2424 2503
8 2502 2423 2503 2576 2425 2338 2426 2505
8 2503 2424 2504 2577 2426 2339 2427 2506
8 2505 2426 2506 2578 2429 2341 2428 2507
8 2509 2431 2373 2455 2580 2508 2454 2529
8 2509 2431 2508 2580 2449 2363 2448 2525
8 2432 2510 2581 2509 2374 2456 2530 2455
8 2432 2510 2450 2364 2509 2581 2526 2449
8 2583 2511 2434 2513 2516 2439 2353 2438
8 2436 2352 2437 2514 2515 2438 2516 2588
8 2440 2356 2442 2518 2514 2437 2516 2588
8 2442 2358 2444 2520 2516 2439 2517 2589
8 2519 2443 2520 2591 2441 2357 2442 2518
8 2519 2443 2361 2447 2591 2520 2446 2524
8 2446 2360 2445 2523 2520 2444 2521 2592
8 2525 2448 2522 2593 2452 2369 2445 2523
8 2524 2446 2370 2453 2594 2523 2452 2527
8 2526 2449 2525 2595 2451 2368 2452 2527
8 2534 2462 2528 2597 2460 2382 2454 2529
8 2530 2455 2380 2458 2598 2529 2460 2532
8 2599 2533 2460 2532 2531 2459 2380 2458
8 2537 2464 2533 2599 2463 2384 2459 2531
8 2534 2462 2382 2460 2601 2535 2461 2533
8 2538 2465 2535 2601 2464 2385 2461 2533
8 2540 2467 2538 2604 2466 2387 2464 2537
8 2541 2468 2539 2605 2467 2388 2465 2538
8 2543 2470 2541 2607 2469 2390 2467 2540
8 2470 2391 2471 2544 2541 2468 2542 2608
8 2472 2393 2473 2546 2543 2470 2544 2610
8 2473 2394 2474 2547 2544 2471 2545 2611
8 2475 2396 2476 2549 2546 2473 2547 2613
8 2476 2397 2477 2550 2547 2474 2548 2614
8 2549 2476 2399 2478 2616 2550 2479 2552
8 2479 2400 2480 2553 2550 2477 2551 2617
8 2552 2479 2402 2483 2619 2553 2482 2557
8 2482 2401 2481 2556 2553 2480 2554 2620
8 2485 2404 2484 2559 2556 2481 2555 2623
8 2486 2405 2485 2560 2557 2482 2556 2624
8 2488 2407 2487 2561 2559 2484 2558 2625
8 2489 2408 2488 2562 2560 2485 2559 2626
8 2491 2411 2490 2563 2562 2488 2561 2627
8 2513 2434 2512 2585 2565 2493 2564 2630
8 2586 2513 2565 2632 2515 2438 2494 2567
8 2565 2493 2566 2633 2494 2416 2495 2568
8 2567 2494 2568 2635 2496 2417 2497 2570
8 2568 2495 2569 2636 2497 2418 2498 2571
8 2570 2497 2571 2638 2499 2420 2500 2573
8 2571 2498 2572 2639 2500 2421 2501 2574
8 2573 2500 2574 2641 2502 2423 2503 2576
8 2574 2501 2575 2642 2503 2424 2504 2577
8 2576 2503 2577 2643 2505 2426 2506 2578
8 2597 2528 2579 2645 2529 2454 2508 2580
8 2580 2508 2579 2645 2525 2448 2522 2593
8 2581 2509 2455 2530 2646 2580 2529 2598
8 2581 2509 2580 2646 2526 2449 2525 2595
8 2583 2511 2582 2648 2513 2434 2512 2585
8 2583 2511 2439 2516 2648 2582 2517 2589
8 2649 2583 2513 2586 2588 2516 2438 2515
8 2589 2517 2444 2520 2653 2587 2521 2592
8 2518 2442 2520 2591 2588 2516 2589 2654
8 2593 2522 2590 2655 2523 2445 2521 2592
8 2524 2446 2523 2594 2591 2520 2592 2656
8 2595 2525 2593 2657 2527 2452 2523 2594
8 2602 2536 2596 2659 2534 2462 2528 2597
8 2600 2534 2597 2660 2532 2460 2529 2598
8 2600 2534 2460 2532 2661 2601 2533 2599
8 2604 2538 2601 2661 2537 2464 2533 2599
8 2602 2536 2462 2534 2663 2603 2535 2601
8 2601 2535 2465 2538 2663 2603 2539 2605
8 2607 2541 2605 2665 2540 2467 2538 2604
8 2608 2542 2606 2666 2541 2468 2539 2605
8 2543 2470 2544 2610 2607 2541 2608 2668
8 2544 2471 2545 2611 2608 2542 2609 2669
8 2546 2473 2547 2613 2610 2544 2611 2671
8 2547 2474 2548 2614 2611 2545 2612 2672
8 2549 2476 2550 2616 2613 2547 2614 2674
8 2550 2477 2551 2617 2614 2548 2615 2675
8 2552 2479 2553 2619 2616 2550 2617 2677
8 2553 2480 2554 2620 2617 2551 2618 2678
8 2557 2482 2556 2624 2619 2553 2620 2680
8 2556 2481 2555 2623 2620 2554 2621 2681
8 2559 2484 2558 2625 2623 2555 2622 2683
8 2560 2485 2559 2626 2624 2556 2623 2684
8 2562 2488 2561 2627 2626 2559 2625 2685
8 2690 2629 2564 2630 2650 2584 2512 2585
8 2586 2513 2585 2651 2632 2565 2630 2691
8 2630 2564 2631 2692 2565 2493 2566 2633
8 2632 2565 2633 2694 2567 2494 2568 2635
8 2633 2566 2634 2695 2568 2495 2569 2636
8 2635 2568 2636 2697 2570 2497 2571 2638
8 2636 2569 2637 2698 2571 2498 2572 2639
8 2638 2571 2639 2700 2573 2500 2574 2641
8 2639 2572 2640 2701 2574 2501 2575 2642
8 2641 2574 2642 2702 2576 2503 2577 2643
8 2597 2528 2596 2659 2645 2579 2644 2704
8 2645 2579 2644 2704 2593 2522 2590 2655
8 2660 2597 2645 2705 2598 2529 2580 2646
8 2646 2580 2645 2705 2595 2525 2593 2657
8 2650 2584 2512 2585 2707 2647 2582 2648
8 2648 2582 2517 2589 2707 2647 2587 2653
8 2649 2583 2648 2708 2586 2513 2585 2651
8 2649 2583 2516 2588 2708 2648 2589 2654
8 2655 2590 2652 2710 2592 2521 2587 2653
8 2654 2589 2520 2591 2711 2653 2592 2656
8 2657 2593 2655 2712 2594 2523 2592 2656
8 2602 2536 2603 2663 2659 2596 2658 2714
8 2662 2602 2659 2715 2600 2534 2597 2660
8 2662 2602 2534 2600 2717 2663 2601 2661
8 2661 2601 2538 2604 2717 2663 2605 2665
8 2666 2606 2664 2718 2605 2539 2603 2663
8 2668 2608 2666 2720 2607 2541 2605 2665
8 2608 2542 2609 2669 2666 2606 2667 2721
8 2610 2544 2611 2671 2668 2608 2669 2723
8 2611 2545 2612 2672 2669 2609 2670 2724
8 2613 2547 2614 2674 2671 2611 2672 2726
8 2614 2548 2615 2675 2672 2612 2673 2727
8 2616 2550 2617 2677 2674 2614 2675 2729
8 2617 2551 2618 2678 2675 2615 2676 2730
8 2619 2553 2620 2680 2677 2617 2678 2732
8 2620 2554 2621 2681 2678 2618 2679 2733
8 2624 2556 2623 2684 2680 2620 2681 2735
8 2681 2621 2555 2623 2736 2682 2622 2683
8 2626 2559 2625 2685 2684 2623 2683 2737
8 2688 2628 2584 2650 2740 2686 2647 2707
8 2688 2628 2687 2742 2650 2584 2629 2690
8 2690 2629 2689 2745 2630 2564 2631 2692
8 2746 2690 2630 2691 2709 2650 2585 2651
8 2691 2630 2692 2747 2632 2565 2633 2694
8 2692 2631 2693 2748 2633 2566 2634 2695
8 2694 2633 2695 2750 2635 2568 2636 2697
8 2695 2634 2696 2751 2636 2569 2637 2698
8 2697 2636 2698 2753 2638 2571 2639 2700
8 2698 2637 2699 2754 2639 2572 2640 2701
8 2700 2639 2701 2755 2641 2574 2642 2702
8 2659 2596 2658 2714 2704 2644 2703 2757
8 2704 2644 2703 2757 2655 2590 2652 2710
8 2660 2597 2659 2715 2705 2645 2704 2758
8 2705 2645 2704 2758 2657 2593 2655 2712
8 2759 2706 2647 2707 2710 2652 2587 2653
8 2709 2650 2585 2651 2760 2707 2648 2708
8 2708 2648 2589 2654 2760 2707 2653 2711
8 2712 2655 2710 2761 2656 2592 2653 2711
8 2763 2713 2658 2714 2718 2664 2603 2663
8 2662 2602 2663 2717 2715 2659 2714 2764
8 2720 2666 2718 2767 2665 2605 2663 2717
8 2768 2719 2664 2718 2721 2667 2606 2666
8 2668 2608 2669 2723 2720 2666 2721 2770
8 2669 2609 2670 2724 2721 2667 2722 2771
8 2671 2611 2672 2726 2723 2669 2724 2773
8 2672 2612 2673 2727 2724 2670 2725 2774
8 2674 2614 2675 2729 2726 2672 2727 2776
8 2675 2615 2676 2730 2727 2673 2728 2777
8 2677 2617 2678 2732 2729 2675 2730 2779
8 2678 2618 2679 2733 2730 2676 2731 2780
8 2680 2620 2681 2735 2732 2678 2733 2782
8 2733 2679 2621 2681 2783 2734 2682 2736
8 2735 2681 2623 2684 2784 2736 2683 2737
8 2740 2686 2647 2707 2787 2738 2706 2759
8 2688 2628 2686 2740 2742 2687 2739 2789
8 2743 2688 2650 2709 2790 2740 2707 2760
8 2742 2687 2741 2792 2690 2629 2689 2745
8 2743 2688 2742 2793 2709 2650 2690 2746
8 2745 2689 2744 2795 2692 2631 2693 2748
8 2746 2690 2745 2796 2691 2630 2692 2747
8 2747 2692 2748 2797 2694 2633 2695 2750
8 2748 2693 2749 2798 2695 2634 2696 2751
8 2750 2695 2751 2800 2697 2636 2698 2753
8 2751 2696 2752 2801 2698 2637 2699 2754
8 2753 2698 2754 2802 2700 2639 2701 2755
8 2763 2713 2756 2804 2714 2658 2703 2757
8 2759 2706 2652 2710 2804 2756 2703 2757
8 2715 2659 2714 2764 2758 2704 2757 2805
8 2758 2704 2757 2805 2712 2655 2710 2761
8 2806 2759 2707 2760 2761 2710 2653 2711
8 2765 2716 2762 2808 2718 2664 2713 2763
8 2809 2763 2714 2764 2767 2718 2663 2717
8 2765 2716 2664 2718 2811 2766 2719 2768
8 2813 2768 2718 2767 2770 2721 2666 2720
8 2814 2769 2719 2768 2771 2722 2667 2721
8 2723 2669 2724 2773 2770 2721 2771 2816
8 2724 2670 2725 2774 2771 2722 2772 2817
8 2726 2672 2727 2776 2773 2724 2774 2819
8 2727 2673 2728 2777 2774 2725 2775 2820
8 2729 2675 2730 2779 2776 2727 2777 2822
8 2730 2676 2731 2780 2777 2728 2778 2823
8 2732 2678 2733 2782 2779 2730 2780 2825
8 2780 2731 2679 2733 2826 2781 2734 2783
8 2782 2733 2681 2735 2827 2783 2736 2784
8 2830 2785 2738 2787 2804 2756 2706 2759
8 2789 2739 2686 2740 2832 2786 2738 2787
8 2790 2740 2707 2760 2833 2787 2759 2806
8 2742 2687 2739 2789 2792 2741 2788 2835
8 2743 2688 2740 2790 2793 2742 2789 2836
8 2792 2741 2791 2838 2745 2689 2744 2795
8 2793 2742 2792 2839 2746 2690 2745 2796
8 2795 2744 2794 2841 2748 2693 2749 2798
8 2796 2745 2795 2842 2747 2692 2748 2797
8 2797 2748 2798 2843 2750 2695 2751 2800
8 2798 2749 2799 2844 2751 2696 2752 2801
8 2800 2751 2801 2845 2753 2698 2754 2802
8 2808 2762 2803 2847 2763 2713 2756 2804
8 2809 2763 2804 2848 2764 2714 2757 2805
8 2806 2759 2710 2761 2848 2804 2757 2805
8 2765 2716 2766 2811 2808 2762 2807 2850
8 2810 2765 2808 2851 2767 2718 2763 2809
8 2810 2765 2718 2767 2852 2811 2768 2813
8 2811 2766 2719 2768 2853 2812 2769 2814
8 2855 2814 2768 2813 2816 2771 2721 2770
8 2856 2815 2769 2814 2817 2772 2722 2771
8 2773 2724 2774 2819 2816 2771 2817 2858
8 2774 2725 2775 2820 2817 2772 2818 2859
8 2776 2727 2777 2822 2819 2774 2820 2861
8 2777 2728 2778 2823 2820 2775 2821 2862
8 2779 2730 2780 2825 2822 2777 2823 2864
8 2823 2778 2731 2780 2865 2824 2781 2826
8 2825 2780 2733 2782 2866 2826 2783 2827
8 2869 2828 2785 2830 2847 2803 2756 2804
8 2871 2829 2786 2832 2830 2785 2738 2787
8 2872 2830 2787 2833 2848 2804 2759 2806
8 2789 2739 2786 2832 2835 2788 2831 2874
8 2836 2789 2740 2790 2875 2832 2787 2833
8 2792 2741 2788 2835 2838 2791 2834 2877
8 2793 2742 2789 2836 2839 2792 2835 2878
8 2838 2791 2837 2880 2795 2744 2794 2841
8 2839 2792 2838 2881 2796 2745 2795 2842
8 2841 2794 2840 2882 2798 2749 2799 2844
8 2842 2795 2841 2883 2797 2748 2798 2843
8 2843 2798 2844 2884 2800 2751 2801 2845
8 2886 2846 2803 2847 2850 2807 2762 2808
8 2851 2808 2847 2887 2809 2763 2804 2848
8 2850 2807 2766 2811 2889 2849 2812 2853
8 2810 2765 2811 2852 2851 2808 2850 2890
8 2852 2811 2768 2813 2891 2853 2814 2855
8 2853 2812 2769 2814 2892 2854 2815 2856
8 2894 2856 2814 2855 2858 2817 2771 2816
8 2817 2772 2818 2859 2856 2815 2857 2895
8 2819 2774 2820 2861 2858 2817 2859 2897
8 2820 2775 2821 2862 2859 2818 2860 2898
8 2822 2777 2823 2864 2861 2820 2862 2900
8 2823 2778 2824 2865 2862 2821 2863 2901
8 2864 2823 2780 2825 2902 2865 2826 2866
8 2904 2867 2828 2869 2886 2846 2803 2847
8 2869 2828 2868 2906 2830 2785 2829 2871
8 2907 2869 2830 2872 2887 2847 2804 2848
8 2871 2829 2870 2909 2832 2786 2831 2874
8 2910 2871 2832 2875 2872 2830 2787 2833
8 2835 2788 2831 2874 2877 2834 2873 2912
8 2836 2789 2832 2875 2878 2835 2874 2913
8 2877 2834 2876 2915 2838 2791 2837 2880
8 2839 2792 2835 2878 2881 2838 2877 2916
8 2880 2837 2879 2917 2841 2794 2840 2882
8 2881 2838 2880 2918 2842 2795 2841 2883
8 2883 2841 2882 2919 2843 2798 2844 2884
8 2921 2885 2846 2886 2889 2849 2807 2850
8 2922 2886 2847 2887 2890 2850 2808 2851
8 2889 2849 2812 2853 2924 2888 2854 2892
8 2890 2850 2811 2852 2925 2889 2853 2891
8 2891 2853 2814 2855 2926 2892 2856 2894
8 2892 2854 2815 2856 2927 2893 2857 2895
8 2858 2817 2859 2897 2894 2856 2895 2929
8 2859 2818 2860 2898 2895 2857 2896 2930
8 2861 2820 2862 2900 2897 2859 2898 2932
8 2862 2821 2863 2901 2898 2860 2899 2933
8 2864 2823 2865 2902 2900 2862 2901 2934
8 2904 2867 2846 2886 2936 2903 2885 2921
8 2904 2867 2903 2936 2869 2828 2868 2906
8 2937 2904 2869 2907 2922 2886 2847 2887
8 2906 2868 2905 2939 2871 2829 2870 2909
8 2907 2869 2906 2940 2872 2830 2871 2910
8 2909 2870 2908 2942 2874 2831 2873 2912
8 2910 2871 2909 2943 2875 2832 2874 2913
8 2912 2873 2911 2945 2877 2834 2876 2915
8 2878 2835 2874 2913 2916 2877 2912 2946
8 2915 2876 2914 2947 2880 2837 2879 2917
8 2916 2877 2915 2948 2881 2838 2880 2918
8 2918 2880 2917 2949 2883 2841 2882 2919
8 2921 2885 2849 2889 2951 2920 2888 2924
8 2952 2921 2886 2922 2925 2889 2850 2890
8 2924 2888 2854 2892 2954 2923 2893 2927
8 2925 2889 2853 2891 2955 2924 2892 2926
8 2926 2892 2856 2894 2956 2927 2895 2929
8 2895 2857 2896 2930 2927 2893 2928 2957
8 2897 2859 2898 2932 2929 2895 2930 2959
8 2898 2860 2899 2933 2930 2896 2931 2960
8 2900 2862 2901 2934 2932 2898 2933 2961
8 2936 2903 2885 2921 2963 2935 2920 2951
8 2936 2903 2935 2963 2906 2868 2905 2939
8 2937 2904 2886 2922 2964 2936 2921 2952
8 2937 2904 2936 2964 2907 2869 2906 2940
8 2939 2905 2938 2966 2909 2870 2908 2942
8 2940 2906 2939 2967 2910 2871 2909 2943
8 2942 2908 2941 2969 2912 2873 2911 2945
8 2943 2909 2942 2970 2913 2874 2912 2946
8 2945 2911 2944 2971 2915 2876 2914 2947
8 2946 2912 2945 2972 2916 2877 2915 2948
8 2948 2915 2947 2973 2918 2880 2917 2949
8 2951 2920 2888 2924 2975 2950 2923 2954
8 2952 2921 2889 2925 2976 2951 2924 2955
8 2927 2893 2928 2957 2954 2923 2953 2978
8 2955 2924 2892 2926 2979 2954 2927 2956
8 2929 2895 2930 2959 2956 2927 2957 2980
8 2930 2896 2931 2960 2957 2928 2958 2981
8 2932 2898 2933 2961 2959 2930 2960 2982
8 2951 2920 2950 2975 2963 2935 2962 2984
8 2963 2935 2962 2984 2939 2905 2938 2966
8 2964 2936 2921 2952 2985 2963 2951 2976
8 2964 2936 2963 2985 2940 2906 2939 2967
8 2966 2938 2965 2987 2942 2908 2941 2969
8 2967 2939 2966 2988 2943 2909 2942 2970
8 2969 2941 2968 2989 2945 2911 2944 2971
8 2970 2942 2969 2990 2946 2912 2945 2972
8 2972 2945 2971 2991 2948 2915 2947 2973
8 2954 2923 2953 2978 2975 2950 2974 2993
8 2976 2951 2924 2955 2994 2975 2954 2979
8 2957 2928 2958 2981 2978 2953 2977 2995
8 2956 2927 2957 2980 2979 2954 2978 2996
8 2959 2930 2960 2982 2980 2957 2981 2997
8 2984 2962 2983 2999 2966 2938 2965 2987
8 2975 2950 2974 2993 2984 2962 2983 2999
8 2976 2951 2975 2994 2985 2963 2984 3000
8 2985 2963 2984 3000 2967 2939 2966 2988
8 2987 2965 2986 3001 2969 2941 2968 2989
8 2988 2966 2987 3002 2970 2942 2969 2990
8 2990 2969 2989 3003 2972 2945 2971 2991
8 2978 2953 2977 2995 2993 2974 2992 3004
8 2979 2954 2978 2996 2994 2975 2993 3005
8 2980 2957 2981 2997 2996 2978 2995 3006
8 2974 2993 2999 2983 2992 3004 3007 2998
8 2983 2999 2987 2965 2998 3007 3001 2986
8 3000 2984 2999 3008 2988 2966 2987 3002
8 2994 2975 2993 3005 3000 2984 2999 3008
8 3002 2987 3001 3009 2990 2969 2989 3003
8 2996 2978 2995 3006 3005 2993 3004 3010
8 3005 2993 3004 3010 3008 2999 3007 3011
8 3008 2999 3007 3011 3002 2987 3001 3009

CELL_TYPES 1910
12
12
12
12
12
12
12
12
12
12
12
12
12
12
12
12
12
12
12
12
12
12
12
12
12
12
12
12
12
12
12
12
12
12
12
12
12
12
12
12
12
12
12
12
12
12
12
12
12
12
12
12
12
12
12
12
12
12
12
12
12
12
12
12
12
12
12
12
12
12
12
12
12
12
12
12
12
12
12
12
12
12
12
12
12
12
12
12
12
12
12
12
12
12
12
12
12
12
12
12
12
12
12
12
12
12
12
12
12
12
12
12
12
12
12
12
12
12
12
12
12
12
12
12
12
12
12
12
12
12
12
12
12
12
12
12
12
12
12
12
12
12
12
12
12
12
12
12
12
12
12
12
12
12
12
12
12
12
12
12
12
12
12
12
12
12
12
12
12
12
12
12
12
12
12
12
12
12
12
12
12
12
12
12
12
12
12
12
12
12
12
12
12
12
12
12
12
12
12
12
12
12
12
12
12
12
12
12
12
12
12
12
12
12
12
12
12
12
12
12
12
12
12
12
12
12
12
12
12
12
12
12
12
12
12
12
12
12
12
12
12
12
12
12
12
12
12
12
12
12
12
12
12
12
12
12
12
12
12
12
12
12
12
12
12
12
12
12
12
12
12
12
12
12
12
12
12
12
12
12
12
12
12
12
12
12
12
12
12
12
12
12
12
12
12
12
12
12
12
12
12
12
12
12
12
12
12
12
12
12
12
12
12
12
12
12
12
12
12
12
12
12
12
12
12
12
12
12
12
12
12
12
12
12
12
12
12
12
12
12
12
12
12
12
12
12
12
12
12
12
12
12
12
12
12
12
12
12
12
12
12
12
12
12
12
12
12
12
12
12
12
12
12
12
12
12
12
12
12
12
12
12
12
12
12
12
12
12
12
12
12
12
12
12
12
12
12
12
12
12
12
12
12
12
12
12
12
12
12
12
12
12
12
12
12
12
12
12
12
12
12
12
12
12
12
12
12
12
12
12
12
12
12
12
12
12
12
12
12
12
12
12
12
12
12
12
12
12
12
12
12
12
12
12
12
12
12
12
12
12
12
12
12
12
12
12
12
12
12
12
12
12
12
12
12
12
12
12
12
12
12
12
12
12
12
12
12
12
12
12
12
12
12
12
12
12
12
12
12
12
12
12
12
12
12
12
12
12
12
12
12
12
12
12
12
12
12
12
12
12
12
12
12
12
12
12
12
12
12
12
12
12
12
12
12
12
12
12
12
12
12
12
12
12
12
12
12
12
12
12
12
12
12
12
12
12
12
12
12
12
12
12
12
12
12
12
12
12
12
12
12
12
12
12
12
12
12
12
12
12
12
12
12
12
12
12
12
12
12
12
12
12
12
12
12
12
12
12
12
12
12
12
12
12
12
12
12
12
12
12
12
12
12
12
12
12
12
12
12
12
12
12
12
12
12
12
12
12
12
12
12
12
12
12
12
12
12
12
12
12
12
12
12
12
12
12
12
12
12
12
12
12
12
12
12
12
12
12
12
12
12
12
12
12
12
12
12
12
12
12
12
12
12
12
12
12
12
12
12
12
12
12
12
12
12
12
12
12
12
12
12
12
12
12
12
12
12
12
12
12
12
12
12
12
12
12
12
12
12
12
12
12
12
12
12
12
12
12
12
12
12
12
12
12
12
12
12
12
12
12
12
12
12
12
12
12
12
12
12
12
12
12
12
12
12
12
12
12
12
12
12
12
12
12
12
12
12
12
12
12
12
12
12
12
12
12
12
12
12
12
12
12
12
12
12
12
12
12
12
12
12
12
12
12
12
12
12
12
12
12
12
12
12
12
12
12
12
12
12
12
12
12
12
12
12
12
12
12
12
12
12
12
12
12
12
12
12
12
12
12
12
12
12
12
12
12
12
12
12
12
12
12
12
12
12
12
12
12
12
12
12
12
12
12
12
12
12
12
12
12
12
12
12
12
12
12
12
12
12
12
12
12
12
12
12
12
12
12
12
12
12
12
12
12
12
12
12
12
12
12
12
12
12
12
12
12
12
12
12
12
12
12
12
12
12
12
12
12
12
12
12
12
12
12
12
12
12
12
12
12
12
12
12
12
12
12
12
12
12
12
12
12
12
12
12
12
12
12
12
12
12
12
12
12
12
12
12
12
12
12
12
12
12
12
12
12
12
12
12
12
12
12
12
12
12
12
12
12
12
12
12
12
12
12
12
12
12
12
12
12
12
12
12
12
12
12
12
12
12
12
12
12
12
12
12
12
12
12
12
12
12
12
12
12
12
12
12
12
12
12
12
12
12
12
12
12
12
12
12
12
12
12
12
12
12
12
12
12
12
12
12
12
12
12
12
12
12
12
12
12
12
12
12
12
12
12
12
12
12
12
12
12
12
12
12
12
12
12
12
12
12
12
12
12
12
12
12
12
12
12
12
12
12
12
12
12
12
12
12
12
12
12
12
12
12
12
12
12
12
12
12
12
12
12
12
12
12
12
12
12
12
12
12
12
12
12
12
12
12
12
12
12
12
12
12
12
12
12
12
12
12
12
12
12
12
12
12
12
12
12
12
12
12
12
12
12
12
12
12
12
12
12
12
12
12
12
12
12
12
12
12
12
12
12
12
12
12
12
12
12
12
12
12
12
12
12
12
12
12
12
12
12
12
12
12
12
12
12
12
12
12
12
12
12
12
12
12
12
12
12
12
12
12
12
12
12
12
12
12
12
12
12
12
12
12
12
12
12
12
12
12
12
12
12
12
12
12
12
12
12
12
12
12
12
12
12
12
12
12
12
12
12
12
12
12
12
12
12
12
12
12
12
12
12
12
12
12
12
12
12
12
12
12
12
12
12
12
12
12
12
12
12
12
12
12
12
12
12
12
12
12
12
12
12
12
12
12
12
12
12
12
12
12
12
12
12
12
12
12
12
12
12
12
12
12
12
12
12
12
12
12
12
12
12
12
12
12
12
12
12
12
12
12
12
12
12
12
12
12
12
12
12
12
12
12
12
12
12
12
12
12
12
12
12
12
12
12
12
12
12
12
12
12
12
12
12
12
12
12
12
12
12
12
12
12
12
12
12
12
12
12
12
12
12
12
12
12
12
12
12
12
12
12
12
12
12
12
12
12
12
12
12
12
12
12
12
12
12
12
12
12
12
12
12
12
12
12
12
12
12
12
12
12
12
12
12
12
12
12
12
12
12
12
12
12
12
12
12
12
12
12
12
12
12
12
12
12
12
12
12
12
12
12
12
12
12
12
12
12
12
12
12
12
12
12
12
12
12
12
12
12
12
12
12
12
12
12
12
12
12
12
12
12
12
12
12
12
12
12
12
12
12
12
12
12
12
12
12
12
12
12
12
12
12
12
12
12
12
12
12
12
12
12
12
12
12
12
12
12
12
12
12
12
12
12
12
12
12
12
12
12
12
12
12
12
12
12
12
12
12
12
12
12
12
12
12
12
12
12
12
12
12
12
12
12
12
12
12
12
12
12
12
12
12
12
12
12
12
12
12
12
12
12
12
12
12
12
12
12
12
12
12
12
12
12
12
12
12
12
12
12
12
12
12
12
12
12
12
12
12
12
12
12
12
12
12
12
12
12
12
12
12
12
12
12
12
12
12
12
12
12
12
12
12
12
12
12
12
12
12
12
12
12
12
12
12
12
12
12
12
12
12
12
12
12
12
12
12
12
12
12
12
12
12
12
12
12
12
12
12
12
12
12
12
12
12
12
12
12
12
12
12
12
12
12
12
12
12
12
12
12
12
12
12
12
12
12
12
12
12
12
12
12
12
12
12
12
12
12
12
12
12
12
12
12
12
12
12
12
12
12
12
12
12
12
12
12
12
12
12
12
12
12
12
12
12
12
12
12
12
12
12
12
12
12
12
12
12
12
12
12
12
12
12
12
12
12
12
12
12
12
12
12
12
12
12
12
12
12
12
12
12
12
12
12
12
12
12
12
12
12
12
12
12
12
12
12
12
12
12
12
12
12
12
12
12
12
12
12
12
12
12
12
12
12
12
12
12
12
12
12
12
12
12
12
12
12
12
12
12
12
12
12
12
12
12
12
12
12
12
12
12
12
12
12
12
12
12
12
12
12
12
12
12
12
12
12
12
12
12
12
12
12
12
12
12
12
12
12
12
12
12
12
12
12
12
12
12
12
12
12
12
12
12
12
12
12
12
12
12
12
12
12
12
12
12
12
12
12
12
12
12
12
12
12
12
12
12
12
12
12
12
12
12
12
12
12
12
12
12
12
12
12
12
12
12
12
12
12
12
12
12
12
12
12
12
12
12
12
12
12
12
12
12
12
12
12
12
12
12
12
12
12
12
12
12
12
12
12
12

POINT_DATA 3012
SCALARS Jp_lamdaP float 4
LOOKUP_TABLE default
0.999855 1 1 0.999855
1 1 1 1
0.999859 1 1 0.999859
0.999812 1 1 0.999812
0.999854 1 1 0.999854
0.999849 1 1 0.999849
0.999323 1 1 0.999323
1 1 1 1
1 1 1 1
1 1 1 1
0.999927 1 1 0.999927
0.999482 1 1 0.999482
0.999775 1 1 0.999775
0.999804 1 1 0.999804
0.999859 1 1 0.999859
0.999827 1 1 0.999827
0.999854 1 1 0.999854
0.999863 1 1 0.999863
0.999326 1 1 0.999326
1 1 1 1
0.999792 1 1 0.999792
0.999837 1 1 0.999837
0.999194 1 1 0.999194
0.999292 1 1 0.999292
0.999869 1 1 0.999869
0.999356 1 1 0.999356
0.998804 1.00032 1 0.998482
1 1 1 1
0.999916 1 1 0.999916
0.99993 1 1 0.99993
1 1 1 1
0.99949 1 1 0.99949
0.999827 1 1 0.999827
0.99985 1 1 0.99985
0.999408 1 1 0.999408
1 1 1 1
0.999498 1 1 0.999498
0.999579 1 1 0.999579
0.998525 1 1 0.998525
1 1 1 1
1 1 1 1
0.9999 1 1 0.9999
1 1 1 1
0.999796 1 1 0.999796
0.999123 1 1 0.999123
1 1 1 1
0.999314 1 1 0.999314
0.999841 1 1 0.999841
0.999868 1 1 0.999868
0.999856 1 1 0.999856
0.999331 1 1 0.999331
0.999884 1 1 0.999884
0.999808 1 1 0.999808
0.999879 1 1 0.999879
0.99985 1 1 0.99985
0.999194 1 1 0.999194
0.99936 1 1 0.99936
0.999295 1 1 0.999295
0.998965 1.0005 1 0.998467
1 1 1 1
0.999781 1 1 0.999781
0.99929 1 1 0.99929
0.999158 1 1 0.999158
0.999244 1 1 0.999244
1.00054 1.00236 1 0.998184
0.999244 1.00093 1 0.998318
0.999925 1 1 0.999925
0.999471 1 1 0.999471
0.998627 1.00004 1 0.998587
1.00487 1.00714 1 0.997742
1 1 1 1
1 1 1 1
1 1 1 1
0.999498 1 1 0.999498
1 1 1 1
1 1 1 1
0.999327 1 1 0.999327
0.999983 1 1 0.999983
0.999435 1 1 0.999435
0.999633 1 1 0.999633
0.998522 1 1 0.998522
1 1 1 1
0.999949 1 1 0.999949
0.999267 1 1 0.999267
0.999364 1 1 0.999364
1.00029 1.00219 1 0.998104
0.999776 1 1 0.999776
0.998555 1.00013 1 0.998424
0.998661 1 1 0.998661
0.998401 1.00043 1 0.997973
1 1 1 1
1 1 1 1
1 1 1 1
1 1 1 1
1 1 1 1
0.999894 1 1 0.999894
0.999201 1 1 0.999201
0.999905 1 1 0.999905
0.999269 1 1 0.999269
1 1 1 1
0.999109 1 1 0.999109
0.999287 1 1 0.999287
1.00032 1.00252 1 0.997811
0.999349 1 1 0.999349
1.00162 1.00373 1 0.997897
0.999793 1 1 0.999793
0.999821 1 1 0.999821
0.999888 1 1 0.999888
0.99986 1 1 0.99986
0.999195 1 1 0.999195
0.999299 1 1 0.999299
0.999366 1 1 0.999366
0.999115 1.00066 1 0.998452
1 1 1 1
0.999796 1 1 0.999796
0.999135 1 1 0.999135
0.999156 1 1 0.999156
0.999962 1 1 0.999962
0.999524 1 1 0.999524
0.999246 1 1 0.999246
1.00052 1.00238 1 0.998144
0.998662 1.00009 1 0.998568
0.99942 1.00108 1 0.998346
1.00514 1.00741 1 0.997746
0.999131 1 1 0.999131
0.999135 1 1 0.999135
0.999945 1.00197 1 0.997977
1.00059 1.00253 1 0.998068
1.00019 1.00199 1 0.998201
1.01171 1.01421 1 0.997538
1 1 1 1
1.00689 1.00924 1 0.997672
0.999695 1 1 0.999695
0.998623 1 1 0.998623
1.00333 1.00553 1 0.997811
1.01525 1.01779 1 0.997501
0.999866 1 1 0.999866
0.999574 1 1.00041 0.999169
1 1 1 1
1 1 1 1
0.999334 1 1 0.999334
1 1 1 1
0.999632 1 1 0.999632
0.99944 1 1 0.99944
0.998519 1 1 0.998519
1 1 1 1
0.999963 1 1 0.999963
0.999325 1 1 0.999325
0.999419 1 1 0.999419
0.999907 1.0018 1 0.998107
0.999788 1 1 0.999788
0.998481 1.00005 1 0.998427
0.99866 1 1 0.99866
0.998425 1.00047 1 0.997957
0.999879 1 1 0.999879
0.999989 1 1 0.999989
0.99943 1 1.00007 0.999357
1.00124 1.00326 1 0.997993
0.999157 1.00089 1 0.998267
1.00833 1.01082 1 0.997536
0.998879 1 1 0.998879
1.0013 1.00345 1 0.997865
0.998896 1.00026 1.00057 0.998065
1.00109 1.0033 1 0.997794
1 1 1 1
1 1 1 1
1 1 1 1
0.999919 1 1 0.999919
1 1 1 1
1 1 1 1
1 1 1 1
0.99922 1 1 0.99922
0.999148 1 1 0.999148
1 1 1 1
1 1 1 1
0.999111 1 1 0.999111
0.999241 1 1 0.999241
1.00055 1.00274 1 0.997811
0.999248 1 1 0.999248
1.00166 1.00377 1 0.997897
0.999102 1 1 0.999102
0.999707 1.00195 1 0.997762
1.00105 1.00319 1 0.997864
1.01486 1.01756 1 0.997338
1.00168 1.00375 1 0.997931
1.01529 1.01793 1 0.997408
1 1 1 1
0.99981 1 1 0.99981
0.998967 1 1 0.998967
0.999156 1 1 0.999156
1 1 1 1
0.999579 1 1 0.999579
0.999249 1 1 0.999249
1.00049 1.00239 1 0.998104
0.999599 1.00123 1 0.998375
0.998704 1.00015 1 0.99855
1.00541 1.00768 1 0.99775
0.999129 1 1 0.999129
0.999134 1 1 0.999134
0.999811 1.00193 1 0.997884
1.00062 1.00253 1 0.998097
1 1 1 1
0.999691 1 1 0.999691
0.998674 1 1 0.998674
1.00016 1.00196 1 0.9982
1.01161 1.01415 1 0.9975
1.00334 1.00555 1 0.997799
1.00719 1.00951 1 0.997702
1.01477 1.0173 1 0.997507
0.999856 1 1 0.999856
0.999576 1 1.00041 0.99917
0.999427 1.00165 1 0.997783
1.00037 1.00235 1 0.998027
1.01277 1.01538 1 0.997436
1.01219 1.0148 1 0.997424
1.00906 1.01146 1 0.997632
1.02303 1.02568 1 0.99742
0.999792 1 1 0.999792
1.01714 1.0197 1 0.997489
0.99886 1 1.00007 0.998786
0.999924 1.00199 1 0.997939
1.01293 1.01543 1 0.997542
1.01854 1.02108 1 0.997515
0.999275 1 1.00025 0.999023
0.999383 1 1.00003 0.999357
1.00014 1 1.00152 0.998623
0.999287 1 1 0.999287
1 1 1 1
0.999977 1 1 0.999977
0.999392 1 1 0.999392
0.999513 1.00141 1 0.998109
0.999798 1 1 0.999798
0.9987 1 1.00004 0.998659
0.99843 1 1 0.99843
0.998486 1.00055 1 0.997941
0.999897 1 1 0.999897
0.999993 1 1 0.999993
0.999552 1 1.00019 0.99936
1.00098 1.00299 1 0.997993
0.998889 1.00062 1 0.998272
1.00811 1.0106 1 0.997534
0.998902 1 1.00002 0.998882
1.00078 1.00292 1 0.997875
0.998921 1.00039 1.00047 0.998061
1.00124 1.00346 1 0.99778
0.999999 1 1 0.999999
0.999209 1 1.0001 0.999109
0.999711 1 1.00011 0.999597
0.999611 1 1.0008 0.998808
1.01149 1.01408 1 0.997451
1.00514 1.00745 1 0.997705
1.0177 1.02041 1 0.997346
0.998754 1 1.00044 0.998317
1.00606 1.00839 1 0.997685
1.00281 1.00349 1.00158 0.99775
1.0084 1.01078 1 0.997648
0.999859 1 1 0.999859
1 1 1 1
1 1 1 1
1 1 1 1
1 1 1 1
0.999959 1 1 0.999959
1 1 1 1
0.999908 1 1 0.999908
1 1 1 1
0.999249 1 1 0.999249
0.999188 1 1 0.999188
1.00176 1.00387 1 0.997897
1.00076 1.00295 1 0.997812
0.999113 1 1 0.999113
1 1 1 1
0.999101 1 1 0.999101
0.99986 1.0021 1 0.997762
1.00125 1.00339 1 0.997864
1.01466 1.01737 1 0.997337
1.00161 1.00369 1 0.99793
1.01527 1.01791 1 0.997407
0.999351 1.0016 1 0.997754
1.01391 1.01667 1 0.997293
1.01545 1.01812 1 0.997381
1.02857 1.03128 1 0.997367
1.01428 1.01691 1 0.997423
1.02739 1.03009 1 0.997383
0.999126 1 1 0.999126
0.999132 1 1 0.999132
0.999684 1.0019 1 0.997792
1.00065 1.00253 1 0.998125
1 1 1 1
0.999688 1 1 0.999688
0.998725 1 1 0.998725
1.00013 1.00193 1 0.998199
1.01152 1.01409 1 0.997463
1.00748 1.00977 1 0.997732
1.00331 1.00553 1 0.997788
1.01439 1.01692 1 0.997513
0.999846 1 1 0.999846
0.99961 1 1.00044 0.999171
0.999376 1.00162 1 0.997758
1.00033 1.00231 1 0.998025
1.01299 1.0156 1 0.997433
1.01234 1.01492 1 0.99746
0.999782 1 1 0.999782
0.998788 1 1 0.998783
1.00041 1.00244 1 0.997973
1.0093 1.0117 1 0.997629
1.02335 1.02598 1 0.99743
1.01225 1.01478 1 0.997509
1.017 1.01955 1 0.997493
1.01888 1.02142 1 0.997515
0.999211 1 1.00019 0.999026
1.00014 1 1.00152 0.998625
0.999591 1 1.00024 0.999354
1.01298 1.01564 1 0.997381
1.01322 1.01579 1 0.997461
1.02678 1.0295 1 0.997355
1.02519 1.02789 1 0.997376
1.01914 1.02172 1 0.997474
1.02493 1.02742 1 0.997577
0.998925 1 1 0.998925
1.02052 1.02303 1 0.997552
0.99861 1.00036 1 0.998251
1.00482 1.0073 1 0.997542
1.0161 1.01876 1 0.997382
1.01775 1.02013 1 0.997666
0.999519 1 1 0.999519
0.998662 1 1.00007 0.998594
1.00067 1 1.00196 0.998714
0.9995 1 1.00105 0.998451
1.00072 1.00273 1 0.997993
0.999997 1 1 0.999997
0.999916 1 1 0.999916
0.999563 1 1.0002 0.999362
0.998598 1.00032 1 0.998277
1.00788 1.01037 1 0.997531
0.998885 1 1 0.998885
0.998884 1.0005 1.00033 0.998056
1.00023 1.00235 1 0.997886
1.00122 1.00347 1 0.997765
1 1 1 1
0.99921 1 1.0001 0.999109
0.999641 1 1.00004 0.999604
0.999771 1 1.00097 0.998804
1.01132 1.01391 1 0.997447
1.00427 1.00658 1 0.997706
1.01771 1.02042 1 0.997344
0.998771 1 1.00045 0.998322
1.00606 1.00838 1 0.997698
1.00275 1.00329 1.00173 0.997739
1.00843 1.01074 1 0.997714
1 1 1 1
0.999744 1 1 0.999744
0.998877 1 1.00029 0.998589
0.999625 1 1.00058 0.999044
0.999737 1 1.00121 0.998528
1.02103 1.02377 1 0.997322
1.01208 1.01462 1 0.997496
1.01742 1.02011 1 0.997364
1.00096 1.00101 1.00199 0.997955
1.00906 1.01147 1 0.997616
1.00617 1.00785 1.00086 0.997468
0.999841 1 1 0.999841
0.999468 1 1 0.999468
0.999871 1 1 0.999871
0.999861 1 1 0.999861
1 1 1 1
1 1 1 1
1 1 1 1
1 1 1 1
1 1 1 1
0.999986 1 1 0.999986
1 1 1 1
0.999949 1 1 0.999949
1 1 1 1
0.999897 1 1 0.999897
1 1 1 1
1.00152 1.0036 1 0.997929
1.0014 1.00354 1 0.997863
1.0151 1.01774 1 0.997406
1.01444 1.01715 1 0.997336
1.00006 1.0023 1 0.997762
0.9991 1 1 0.9991
0.999451 1.0017 1 0.997754
1.01387 1.01662 1 0.997293
1.01513 1.0178 1 0.99738
1.02883 1.03154 1 0.997379
1.0139 1.01653 1 0.99742
1.02687 1.02957 1 0.997381
1.01341 1.01617 1 0.997283
1.02769 1.03041 1 0.99736
1.02888 1.03159 1 0.99738
1.03267 1.03538 0.99986 0.997529
1.02354 1.02625 1 0.997358
1.02798 1.03045 1 0.99761
0.999352 1.00162 1 0.997733
1.0003 1.00228 1 0.998022
1.01321 1.01582 1 0.99743
1.01249 1.01503 1 0.997497
0.999772 1 1 0.999772
0.998781 1 1 0.998781
1.00088 1.00288 1 0.998007
1.00955 1.01195 1 0.997626
1.02368 1.0263 1 0.997441
1.01686 1.01941 1 0.997496
1.01148 1.01404 1 0.997475
1.01919 1.02173 1 0.997515
0.999151 1 1.00012 0.999028
1.00011 1 1.00149 0.998627
0.999763 1 1.00041 0.999351
1.01311 1.0158 1 0.997345
1.01331 1.01589 1 0.997459
1.02639 1.02909 1 0.99737
1.02545 1.02815 1 0.997378
0.998961 1 1.00004 0.998924
0.999009 1.00077 1 0.998245
1.00436 1.00675 1.00003 0.997592
1.0193 1.02189 1 0.997472
1.0244 1.02686 1 0.997612
1.01612 1.01882 1 0.99735
1.02056 1.02306 1 0.997555
1.01733 1.01968 1 0.997691
0.998761 1 1.00016 0.998596
0.999483 1 1.00105 0.998433
0.999514 1 1 0.999514
1.00065 1 1.00191 0.99874
1.02665 1.02941 1 0.997324
1.02732 1.03001 1 0.997387
1.02923 1.03186 1 0.997453
1.02692 1.02955 0.999839 0.997598
1.02226 1.02472 1 0.997604
1.02348 1.02577 1 0.997762
0.998488 1 1 0.998488
1.01785 1.02009 1 0.997804
0.998861 1.00098 1 0.997881
1.00876 1.01131 1.00018 0.997305
1.01765 1.02038 1 0.997317
1.01643 1.01874 1 0.997727
0.999628 1 1 0.999628
0.999328 1 1.00043 0.998898
0.998414 1 1 0.998414
1.00091 1 1.00242 0.998493
0.998977 1 1.00057 0.998405
1 1 1 1
1.01109 1.01368 1 0.997444
0.999612 1 1 0.999612
0.999281 1 1.00017 0.99911
1.00004 1 1.00124 0.998799
1.00346 1.00577 1 0.997707
1.01778 1.02049 1 0.997342
0.998833 1 1.00051 0.998327
1.00298 1.00333 1.00193 0.997728
1.00618 1.00848 1 0.997712
1.00867 1.01091 1 0.997781
1 1 1 1
0.999751 1 1 0.999751
0.998903 1 1.00031 0.998591
0.999752 1 1.00071 0.999044
1.00013 1 1.00162 0.998507
1.02128 1.02402 1 0.997317
1.01236 1.0149 1 0.997495
1.01737 1.02007 1 0.997354
1.00074 1.00065 1.00213 0.99796
1.01144 1.01384 1 0.997627
1.00538 1.00695 1.00096 0.997488
0.99981 1 1 0.99981
0.999254 1 1 0.999254
0.998756 1 1.00048 0.998279
1.00077 1 1.00206 0.99871
0.99975 1 1.00136 0.998392
1.0212 1.02386 1 0.997404
1.01306 1.01563 1 0.997465
1.01545 1.01796 1 0.997531
1.00152 1.00002 1.00379 0.997725
1.00605 1.00873 1 0.99735
0.999844 1 1 0.999844
0.999401 1 1 0.999401
0.999447 1 1 0.999447
0.999237 1 1 0.999237
0.999477 1 1 0.999477
0.999875 1 1 0.999875
0.999872 1 1 0.999872
1 1 1 1
0.999863 1 1 0.999863
1 1 1 1
1 1 1 1
1 1 1 1
1 1 1 1
1 1 1 1
0.999998 1 1 0.999998
0.999979 1 1 0.999979
1 1 1 1
1 1 1 1
0.999939 1 1 0.999939
1 1 1 1
1.01361 1.01623 1 0.997418
1.01496 1.01763 1 0.997379
1.02645 1.02915 1 0.99738
1.02917 1.03186 1 0.997391
1.01378 1.01654 1 0.997293
0.999502 1.00175 1 0.997754
1.01328 1.01604 1 0.997284
1.02764 1.03037 1 0.997353
1.02886 1.03156 1 0.99738
1.03179 1.03471 0.999622 0.997557
1.02405 1.02677 1 0.997353
1.02817 1.03067 0.999949 0.997628
1.02676 1.02952 1 0.997327
1.03062 1.03394 0.999298 0.997494
1.03083 1.03336 0.999935 0.997619
1.03071 1.0344 0.99876 0.997678
1.02516 1.0277 1 0.997528
1.02831 1.03086 0.999716 0.997805
1.0132 1.01593 1 0.99731
1.01339 1.01597 1 0.997457
1.02597 1.02867 1 0.997384
1.0257 1.0284 1 0.997379
0.998931 1 1.00001 0.998923
0.999456 1.00122 1 0.998238
1.0041 1.00629 1.00018 0.997643
1.01947 1.02205 1 0.99747
1.02382 1.02623 1 0.997648
1.0206 1.02309 1 0.997559
1.01621 1.01894 1 0.997318
1.01682 1.01915 1 0.997715
0.998876 1 1.00028 0.998599
0.999437 1 1.00102 0.998414
0.999509 1 1 0.999509
1.00043 1 1.00167 0.998766
1.02651 1.02926 1 0.997324
1.02684 1.02955 1 0.997372
1.02914 1.03176 0.999984 0.997475
1.02672 1.02927 0.999937 0.997582
0.998482 1 1 0.998482
0.999087 1.00113 1.00003 0.997927
1.00896 1.0113 1.00039 0.997297
1.02196 1.02445 1 0.997573
1.02336 1.02561 0.999987 0.997814
1.01692 1.01967 1 0.997304
1.01814 1.02038 1 0.997807
1.01771 1.01999 1 0.99777
0.998412 1 1 0.998412
0.998692 1 1.00028 0.998408
1.00148 1 1.003 0.998486
0.999594 1 1 0.999594
0.999235 1 1.00031 0.998923
1.02954 1.03304 0.999137 0.997475
1.03015 1.03293 0.999777 0.997527
1.02448 1.02779 0.998975 0.997795
1.0207 1.02295 0.999961 0.997837
0.99826 1 1 0.99826
1.02101 1.02309 1 0.997961
0.998843 1.00091 1.00029 0.997651
1.00946 1.01191 1.00051 0.997073
1.01601 1.01878 1 0.997288
0.999664 1 1 0.999664
0.999131 1 1 0.999131
0.999863 1 1.00119 0.998677
0.99837 1 1 0.99837
1.00179 1 1.00349 0.998312
0.998342 1 1 0.998342
1 1 1 1
0.999758 1 1 0.999758
1.02155 1.02431 1 0.997312
0.999848 1 1.0008 0.999044
0.998856 1 1.00026 0.998593
1.00067 1 1.00218 0.998485
1.01246 1.015 1 0.997494
1.01715 1.01986 1 0.997345
1.00046 1.00021 1.00229 0.997964
1.00412 1.00585 1.00077 0.997507
1.01357 1.01598 1 0.997637
0.999814 1 1 0.999814
0.999257 1 1 0.999257
0.998698 1 1.00041 0.998285
1.00117 1 1.00247 0.998707
0.99986 1 1.00148 0.998385
1.02112 1.02379 1 0.997398
1.01355 1.01613 1 0.997456
1.01527 1.01776 1 0.997556
1.00116 1.00023 1.00324 0.997694
1.00502 1.00767 1.00006 0.99732
0.999379 1 1 0.999379
1.00002 1 1.00115 0.998874
1.00012 1.00001 1.002 0.998119
1.00145 1 1.00301 0.998444
0.999271 1 1.001 0.998278
1.02187 1.02412 1 0.997801
1.01147 1.01413 1 0.997377
1.01231 1.01476 1 0.997581
1.00347 1.00162 1.00433 0.997528
1.0008 1.00369 1 0.997124
0.999847 1 1 0.999847
0.999418 1 1 0.999418
0.999149 1 1 0.999149
0.999426 1 1 0.999426
0.999477 1 1 0.999477
0.999206 1 1 0.999206
0.999062 1 1 0.999062
0.999179 1 1 0.999179
0.999481 1 1 0.999481
0.999872 1 1 0.999872
0.999875 1 1 0.999875
1 1 1 1
0.999873 1 1 0.999873
1 1 1 1
1 1 1 1
1 1 1 1
1 1 1 1
1 1 1 1
1 1 1 1
0.999996 1 1 0.999996
1 1 1 1
0.999972 1 1 0.999972
1 1 1 1
1 1 1 1
1.02451 1.02723 1 0.997348
1.0287 1.03141 1 0.99738
1.02835 1.0309 0.999882 0.997646
1.03086 1.03402 0.999357 0.997585
1.02759 1.03033 1 0.997347
1.01321 1.01597 1 0.997284
1.02703 1.0298 1 0.997311
1.03088 1.03403 0.999468 0.997485
1.03054 1.03306 0.99996 0.997598
1.03021 1.03415 0.998487 0.997692
1.02452 1.02706 1 0.997527
1.02755 1.03012 0.999658 0.997844
1.03017 1.03317 0.999635 0.997459
1.03075 1.03617 0.997102 0.997669
1.02949 1.03342 0.998393 0.997796
1.02554 1.02799 0.999713 0.997899
1.02638 1.02913 1 0.997325
1.02638 1.0291 1 0.997356
1.02906 1.03165 0.999985 0.997498
1.02655 1.02906 1 0.997566
0.998477 1 1 0.998477
0.99905 1.00108 1 0.997972
1.00905 1.01121 1.00058 0.997289
1.02161 1.02413 1 0.997543
1.02329 1.0255 0.999982 0.997865
1.0185 1.02073 1 0.997809
1.01628 1.01904 1 0.997292
1.01893 1.02116 1 0.997813
0.99841 1 1 0.99841
0.998412 1 1 0.998412
1.00254 1 1.00406 0.99848
0.999561 1 1 0.999561
0.999262 1 1.00031 0.998947
1.02997 1.03313 0.999462 0.997478
1.03036 1.0331 0.999811 0.997529
1.02437 1.02746 0.999203 0.997784
0.998448 1.0002 1 0.998253
1 1.00206 1.00026 0.997694
1.00913 1.01133 1.00076 0.997062
1.02134 1.0236 0.999966 0.997826
1.01575 1.01843 1 0.997361
1.01952 1.02169 0.999939 0.99794
0.999678 1 1 0.999678
0.998391 1.00003 1 0.998363
0.998413 1 1 0.998413
1.00166 1 1.00336 0.998298
0.999856 1 1.00117 0.998688
0.999106 1 1 0.999105
1.03038 1.03509 0.997882 0.997559
1.02822 1.03426 0.996444 0.997706
1.02136 1.0262 0.997389 0.997882
1.02566 1.02858 0.999132 0.998026
0.998591 1.00048 1 0.998107
1.0168 1.0192 1 0.997641
1.00196 1.00309 1.00165 0.997233
1.00598 1.00803 1.00104 0.996927
0.999777 1 1 0.999777
0.999278 1 1 0.999278
0.998848 1 1 0.998845
1.002 1 1.00362 0.998392
0.998271 1 1 0.998271
1.00022 1 1.00203 0.998193
0.999819 1 1 0.999819
0.999261 1 1 0.999261
1.0212 1.02387 1 0.997392
1.0012 1 1.0025 0.998704
0.998559 1 1.00027 0.99829
0.999856 1 1.00148 0.998378
1.01431 1.01691 1 0.997446
1.01532 1.01778 1 0.997581
1.00093 1.00054 1.00273 0.997663
1.00409 1.00654 1.00027 0.997291
0.999381 1 1 0.999381
0.999643 1 1.00076 0.998882
1.00012 1.00001 1.00198 0.998136
1.00168 1 1.00324 0.998448
0.998819 1 1.00048 0.998344
1.02222 1.02444 0.999994 0.997834
1.01087 1.01352 1 0.997382
1.01373 1.01611 1 0.997655
1.00299 1.00092 1.00458 0.997494
1.00152 1.00442 1.00003 0.997077
0.999078 1 1 0.999078
1.00063 1 1.00208 0.998552
1.00197 1.00022 1.00378 0.997969
0.999712 1 1.00155 0.998161
1.02496 1.03251 0.994639 0.998044
1.01725 1.01951 0.999872 0.997911
1.00648 1.00932 1 0.997181
1.00331 1.00192 1.00426 0.997138
0.999435 1 1 0.999435
0.999161 1 1 0.999161
0.999019 1 1 0.999019
0.999476 1 1 0.999476
0.999176 1 1 0.999176
0.99948 1 1 0.99948
0.999045 1 1 0.999045
0.999192 1 1 0.999192
0.99895 1 1 0.99895
0.999012 1 1 0.999012
0.999164 1 1 0.999164
0.999468 1 1 0.999468
0.999865 1 1 0.999865
0.999871 1 1 0.999871
1 1 1 1
0.999875 1 1 0.999875
1 1 1 1
1 1 1 1
1 1 1 1
1 1 1 1
1 1 1 1
1 1 1 1
1 1 1 1
1 1 1 1
0.999993 1 1 0.999993
1 1 1 1
1 1 1 1
1.02381 1.02635 1 0.997527
1.0303 1.0328 1 0.997578
1.02682 1.02939 0.99962 0.997884
1.02971 1.03389 0.998246 0.997707
1.03114 1.0341 0.999659 0.997477
1.0273 1.03008 1 0.997295
1.02984 1.03313 0.999349 0.997463
1.0301 1.03532 0.997293 0.99766
1.02914 1.03319 0.998283 0.997796
1.02709 1.02948 0.999774 0.997903
1.03034 1.03574 0.997171 0.99761
1.03023 1.03798 0.994684 0.997838
1.03031 1.03533 0.997206 0.997935
1.03037 1.03321 0.99977 0.997481
1.03056 1.03325 0.999867 0.997531
1.02424 1.02707 0.999473 0.997774
0.998739 1.00049 1 0.998246
1.00119 1.00328 1.00018 0.997736
1.00854 1.01066 1.00085 0.997052
1.02195 1.02422 0.999967 0.997816
1.01816 1.02038 0.999902 0.997919
1.01577 1.01839 1 0.997435
0.998471 1.00012 1 0.998355
0.998484 1 1 0.998484
1.00138 1 1.0031 0.998283
0.999691 1 1 0.999691
0.999431 1 1.00073 0.998698
0.999078 1 1 0.999078
1.03113 1.03544 0.998274 0.997566
1.02864 1.03446 0.996654 0.997715
1.02161 1.02598 0.99786 0.997874
0.998972 1.00088 1 0.998096
1.00162 1.00291 1.0014 0.997319
1.0053 1.00745 1.0009 0.996967
1.02555 1.02824 0.999345 0.998035
1.01738 1.01985 0.999951 0.997629
0.999816 1 1 0.999816
0.999278 1 1 0.999278
0.998299 1 1 0.998299
1.00108 1 1.00282 0.998268
1.00191 1 1.00351 0.998411
0.998823 1 1 0.998823
1.02983 1.03707 0.995254 0.997756
1.02103 1.03125 0.992227 0.997846
1.02211 1.02776 0.996424 0.99807
1.01996 1.02338 0.998589 0.998062
0.999566 1.00082 1.00088 0.997863
1.00518 1.00673 1.0014 0.997066
1.00318 1.00351 1.00264 0.997038
0.999906 1 1 0.999906
0.999546 1 1 0.999546
0.999354 1 1 0.999354
0.998938 1 1 0.998938
0.999615 1 1.00104 0.998575
1.00166 1 1.00338 0.998284
0.998329 1 1 0.998329
1.01325 1 1.01486 0.998416
0.999383 1 1 0.999383
0.999493 1 1.0006 0.998891
1.02246 1.02466 0.999991 0.997867
1.00222 1 1.00377 0.998453
1.0003 1 1.00215 0.998152
0.998446 1 1.00004 0.99841
1.01001 1.01266 1 0.997386
1.01496 1.01727 1 0.997729
1.00269 1.00042 1.00482 0.997461
1.00238 1.00537 1 0.99703
0.999059 1 1 0.999059
1.0009 1 1.00234 0.998566
1.00228 1.00014 1.00415 0.997994
0.999542 1 1.00135 0.99819
1.02639 1.03348 0.995066 0.998057
1.01704 1.01926 0.999949 0.997875
1.00749 1.01029 1 0.997221
1.00332 1.00246 1.00377 0.997097
0.999103 1 1.00023 0.998873
1.02357 1.03478 0.991102 0.998054
1.00103 1 1.00272 0.998311
1.00103 1.00062 1.00268 0.99773
1.0238 1.02734 0.998398 0.998145
1.00765 1.01037 1 0.997309
1.00468 1.0045 1.00323 0.996958
0.999174 1 1 0.999174
0.999016 1 1 0.999016
0.998915 1 1 0.998915
0.999479 1 1 0.999479
0.999204 1 1 0.999204
0.999028 1 1 0.999028
0.999466 1 1 0.999466
0.999167 1 1 0.999167
0.998936 1 1 0.998936
0.999034 1 1 0.999034
0.998872 1 1 0.998872
0.998906 1 1 0.998906
0.999 1 1 0.999
0.99915 1 1 0.99915
0.99944 1 1 0.99944
0.999855 1 1 0.999855
0.999863 1 1 0.999863
1 1 1 1
0.99987 1 1 0.99987
1 1 1 1
1 1 1 1
1 1 1 1
1 1 1 1
1 1 1 1
0.999933 1 1 0.999933
1 1 1 1
1 1 1 1
1 1 1 1
1 1 1 1
1 1 1 1
1 1 1 1
1.02869 1.03101 0.999844 0.997906
1.02877 1.03293 0.998177 0.997796
1.02945 1.03449 0.997464 0.997651
1.02952 1.0331 0.999068 0.997467
1.02993 1.03563 0.99685 0.99763
1.03046 1.03797 0.99493 0.997827
1.02979 1.03509 0.996927 0.997947
1.03015 1.03868 0.993959 0.997812
1.0336 1.0423 0.993686 0.997953
1.01821 1.03283 0.987651 0.99817
1.03194 1.03582 0.998672 0.997573
1.0291 1.03476 0.996807 0.997723
1.02178 1.02576 0.998245 0.997866
0.999357 1.00122 1.00006 0.998086
1.00127 1.00261 1.00126 0.997405
1.00472 1.00696 1.00078 0.997007
1.02555 1.02805 0.999516 0.998045
1.01746 1.02001 0.999877 0.997616
0.998327 1 1 0.998327
1.00195 1 1.00362 0.998343
1.0023 1 1.00388 0.99843
0.999855 1 1 0.999855
0.999278 1 1 0.999278
0.998966 1 1.00017 0.9988
1.02964 1.03726 0.994872 0.997769
0.999902 1 1 0.999902
0.999525 1 1 0.999525
1.02073 1.03043 0.992723 0.997846
1.02261 1.02846 0.996267 0.998039
0.999276 1.00049 1.00084 0.997945
1.00345 1.00314 1.0033 0.997014
1.00576 1.00787 1.00084 0.997067
1.01884 1.02236 0.998505 0.998045
0.999414 1 1 0.999414
0.998934 1 1 0.998934
0.99826 1 1 0.99826
1.0095 1 1.011 0.998525
1.00149 1 1.00322 0.998278
0.999926 1 1.00134 0.998588
1.03314 1.0417 0.993865 0.997913
1.01125 1.02885 0.984877 0.997984
1.01909 1.02636 0.994655 0.998251
1.00537 1.0095 0.998134 0.997769
1.00043 1.00014 1.00234 0.997951
1.00418 1.00183 1.00547 0.996894
0.999537 1 1 0.999537
0.999494 1 1 0.999494
0.999267 1 1 0.999267
0.998972 1 1 0.998972
0.998855 1 1.00012 0.998738
0.999909 1 1.00157 0.99834
1.01958 1 1.02137 0.998247
1.00059 1 1.00204 0.998558
0.99904 1 1 0.99904
1.00085 1 1.00227 0.998579
1.02756 1.03412 0.995571 0.998069
1.01703 1.01923 1 0.997839
0.999318 1 1.0011 0.998219
1.00242 1 1.00441 0.998018
1.00876 1.0115 1.00004 0.99726
1.00317 1.00278 1.00335 0.997055
0.999157 1 1.00029 0.998865
1.02472 1.03671 0.990331 0.998085
1.00086 1 1.00253 0.998328
1.00069 1.00031 1.00269 0.9977
1.02253 1.02644 0.998068 0.998119
1.00792 1.01059 1 0.997361
1.00459 1.00415 1.00348 0.996972
1.00022 1 1.00163 0.998593
1.01713 1.02954 0.989491 0.998434
1.00033 1.00045 1.00178 0.998104
1.0024 1.00119 1.00379 0.997427
1.01128 1.01661 0.996952 0.99779
1.00228 1.00298 1.00221 0.997096
1.00275 1.00723 0.997102 0.998446
0.999012 1 1 0.999012
0.998997 1 1.00008 0.998913
0.998898 1 1.0001 0.998796
0.999465 1 1 0.999465
0.999169 1 1 0.999169
0.999056 1 1 0.999056
0.998921 1 1 0.998921
0.999439 1 1 0.999439
0.999139 1 1 0.999139
0.998853 1 1 0.998853
0.999 1 1 0.999
0.998919 1 1 0.998919
0.998838 1 1 0.998838
0.998874 1 1 0.998874
0.99899 1 1 0.99899
0.999079 1 1 0.999079
0.999368 1 1 0.999368
0.999199 1 1 0.999199
0.999362 1 1 0.999362
0.999847 1 1 0.999847
0.999854 1 1 0.999854
1 1 1 1
0.999862 1 1 0.999862
1 1 1 1
1 1 1 1
1 1 1 1
1 1 1 1
1 1 1 1
0.99995 1 1 0.99995
0.99993 1 1 0.99993
1 1 1 1
1 1 1 1
1 1 1 1
1 1 1 1
1 1 1 1
1 1 1 1
1.02933 1.03496 0.996591 0.997959
1.03068 1.03796 0.995154 0.997816
1.02951 1.03553 0.996532 0.997649
1.03001 1.03852 0.993985 0.99781
1.03198 1.0406 0.993746 0.99795
1.01884 1.03244 0.988664 0.998138
1.03189 1.04296 0.991348 0.998016
0.993906 1.01596 0.980681 0.997567
1.00928 1.02714 0.983926 0.998669
0.999617 1 1 0.999617
1.02939 1.03738 0.994508 0.997781
1.02078 1.02971 0.993468 0.997846
1.02322 1.02911 0.996254 0.998007
0.998934 1.00009 1.00082 0.998028
1.00372 1.00272 1.00402 0.99699
1.00658 1.00909 1.00045 0.997068
1.0177 1.02122 0.998517 0.998028
0.998193 1 1 0.998193
1.00568 1 1.00705 0.998635
1.00112 1 1.00286 0.998271
0.999898 1 1 0.999898
1.00003 1 1.00143 0.998601
0.999474 1 1 0.999474
0.99893 1 1 0.99893
0.999503 1 1 0.999503
1.0319 1.04216 0.992217 0.997921
0.999567 1 1 0.999567
0.999493 1 1 0.999493
0.999228 1 1 0.999228
1.01247 1.02839 0.986502 0.997987
1.01898 1.02627 0.994678 0.998204
0.999786 1.00008 1.00174 0.997972
1.00419 1.00171 1.00555 0.996943
1.00452 1.00815 0.998632 0.997764
0.999006 1 1 0.999006
0.998948 1 1.00024 0.998709
1.00353 1 1.00505 0.998486
1.0159 1 1.01764 0.998285
0.999689 1 1.00132 0.998367
1.0217 1.03487 0.989255 0.998002
1.01142 1.0315 0.982398 0.998103
1.01157 1.01693 0.996756 0.997961
1.00166 1.00397 1.00012 0.997583
1.00313 1 1.00503 0.998109
0.9992 1 1 0.9992
0.999099 1 1 0.999099
0.998984 1 1 0.998984
0.999005 1 1.00024 0.998767
0.999537 1 1.001 0.998543
1.01423 1 1.01597 0.998282
1.01592 1 1.01773 0.998227
0.999207 1 1.00035 0.998856
1.00067 1 1.00233 0.998345
1.02557 1.03894 0.989002 0.998116
1.02115 1.02558 0.997582 0.998092
1.00771 1.01032 1 0.997413
1.00037 1.00003 1.00268 0.99767
1.00426 1.00368 1.0036 0.996986
1.00016 1 1.00153 0.99863
1.01508 1.02903 0.987971 0.998449
0.999669 1.00022 1.00132 0.998131
1.00212 1.00062 1.00408 0.997438
1.01223 1.01717 0.99726 0.997874
1.0022 1.00244 1.00269 0.997082
1.00159 1.00734 0.996372 0.997909
1.00023 1 1.00177 0.998462
1.00621 1.01818 0.989794 0.998431
1.00005 1 1.00194 0.998113
1.00417 1.00037 1.00636 0.997453
1.00031 1.00576 0.997029 0.997547
0.950982 0.981122 0.983625 0.985417
0.969254 0.985471 0.990584 0.992893
0.983313 0.997664 0.987104 0.998493
0.844518 0.895519 0.96211 0.980189
0.799363 0.890153 0.919753 0.976356
0.998981 1 1.00007 0.99891
0.999122 1 1.00031 0.998814
0.998818 1 1 0.998818
0.999438 1 1 0.999438
0.999129 1 1 0.999129
0.999 1 1 0.999
0.998931 1 1 0.998931
0.998833 1 1 0.998833
0.99897 1 1 0.99897
0.999392 1 1 0.999392
0.999093 1 1 0.999093
0.998837 1 1 0.998837
0.99888 1 1 0.99888
0.998887 1 1 0.998887
0.998865 1 1 0.998865
0.99891 1 1 0.99891
0.999049 1 1 0.999049
0.999353 1 1 0.999353
0.999116 1 1 0.999116
0.999034 1 1 0.999034
0.999183 1 1 0.999183
0.999169 1 1 0.999169
0.99943 1 1 0.99943
0.999359 1 1 0.999359
0.999842 1 1 0.999842
0.999847 1 1 0.999847
1 1 1 1
0.999853 1 1 0.999853
1 1 1 1
1 1 1 1
1 1 1 1
1 1 1 1
1 1 1 1
0.999958 1 1 0.999958
0.999947 1 1 0.999947
1 1 1 1
0.999928 1 1 0.999928
1 1 1 1
1 1 1 1
1 1 1 1
1 1 1 1
1 1 1 1
1.03029 1.03883 0.993816 0.997947
1.02987 1.03835 0.99401 0.997808
1.01963 1.03197 0.989917 0.998107
0.996859 1.01575 0.983752 0.997614
1.0299 1.04106 0.991256 0.998014
1.01483 1.02935 0.987298 0.998581
1.02733 1.03428 0.995191 0.998078
0.957883 0.984485 0.980755 0.992072
1.00396 1.01935 0.986826 0.998044
0.999624 1 1 0.999624
0.999616 1 1 0.999616
0.999291 1 1 0.999291
0.999321 1 1 0.999321
1.03042 1.04249 0.990476 0.997929
1.01281 1.02745 0.987735 0.997989
1.01869 1.02609 0.994628 0.998157
0.998893 1.00013 1.00077 0.997992
1.004 1.00166 1.00536 0.996992
1.00372 1.00713 0.998852 0.99776
1.00635 1 1.00795 0.998412
1.01224 1 1.01394 0.998323
0.999457 1 1.00107 0.998393
0.999491 1 1 0.999491
0.998935 1 1.00025 0.998681
0.99904 1 1 0.99904
0.999596 1 1 0.999596
0.999188 1 1 0.999188
1.01975 1.0342 0.987983 0.998017
0.999244 1 1 0.999244
0.999134 1 1 0.999134
0.999021 1 1 0.999021
1.01386 1.03353 0.98283 0.998106
1.01016 1.01604 0.996253 0.997959
1.00278 1 1.0047 0.998097
1.00215 1.00432 1.00023 0.997604
0.999039 1 1.00028 0.99876
0.999184 1 1.00067 0.998514
1.01708 1 1.01889 0.998223
1.015 1 1.01677 0.998254
1.00784 1.03133 0.979079 0.998098
1.00422 1.02508 0.981551 0.998066
1.00492 1.00775 0.999516 0.997667
0.997858 1.00034 0.999297 0.998225
0.998885 1 1 0.998885
0.999166 1 1.00033 0.998837
1.00458 1 1.00601 0.998571
1.02797 1 1.02994 0.998091
0.931257 0.972402 0.972776 0.984489
1.00034 1 1.00167 0.998668
0.999251 1 1.00109 0.998159
1.01316 1.0283 0.986797 0.998462
1.01349 1.01801 0.9976 0.997957
1.0026 1.00225 1.0033 0.997067
1.00191 1 1.00447 0.997449
1.00082 1.00726 0.996241 0.997361
1.00025 1 1.00176 0.998493
1.0064 1.0188 0.989391 0.998419
0.99956 1 1.00144 0.998125
1.0038 1.00025 1.00611 0.997452
1.00176 1.00668 0.997526 0.997571
0.949867 0.984167 0.98017 0.984675
0.964362 0.982943 0.989981 0.991026
0.984313 0.995627 0.990104 0.998518
0.846942 0.894363 0.966096 0.980211
0.78319 0.87838 0.915113 0.974339
0.999583 1 1.00093 0.998657
0.870277 0.915769 0.968897 0.98083
0.841919 0.895383 0.961755 0.977681
0.985047 1.0071 0.979756 0.998309
1.00505 1.00024 1.00657 0.998256
1.01118 1.00326 1.01019 0.997728
0.977876 0.990941 0.988151 0.998649
0.947275 0.971731 0.990239 0.984441
0.949876 0.96404 0.995031 0.990228
0.823292 0.89568 0.937309 0.980659
0.85357 0.930347 0.937968 0.978151
0.999476 1 1.00065 0.998832
0.999087 1 1.00028 0.998808
0.99955 1 1.00051 0.999042
0.999416 1 1 0.999416
0.999107 1 1 0.999107
0.998949 1 1 0.998949
0.998886 1 1 0.998886
0.998836 1 1 0.998836
0.999354 1 1 0.999354
0.998882 1 1 0.998882
0.998928 1 1 0.998928
0.999074 1 1 0.999074
0.998944 1 1.00008 0.998865
0.998857 1 1 0.998857
0.999292 1 1.0004 0.998891
0.99889 1 1 0.99889
0.999078 1 1 0.999078
0.999113 1 1 0.999113
0.999022 1 1 0.999022
0.998956 1 1 0.998956
0.999019 1 1 0.999019
0.998968 1 1 0.998968
0.998875 1 1 0.998875
0.999161 1 1 0.999161
0.999182 1 1 0.999182
0.999445 1 1 0.999445
0.999138 1 1 0.999138
0.999409 1 1 0.999409
0.99984 1 1 0.99984
0.999357 1 1 0.999357
0.999842 1 1 0.999842
1 1 1 1
0.999846 1 1 0.999846
1 1 1 1
1 1 1 1
1 1 1 1
1 1 1 1
1 1 1 1
0.9996 1 1 0.9996
0.999958 1 1 0.999958
0.999957 1 1 0.999957
1 1 1 1
0.999944 1 1 0.999944
1 1 1 1
1 1 1 1
1 1 1 1
1 1 1 1
1 1 1 1
0.999107 1.01579 0.985877 0.997665
1.02841 1.03925 0.991541 0.998012
1.01951 1.03171 0.989672 0.998493
0.953643 0.97964 0.980342 0.992983
1.00417 1.01907 0.987209 0.998142
1.02928 1.03723 0.994285 0.99804
1.01623 1.02422 0.994271 0.997924
0.964663 0.982161 0.9884 0.99371
0.951634 0.979371 0.987581 0.983897
0.826735 0.888481 0.949693 0.979794
0.780623 0.863247 0.926622 0.975896
0.999278 1 1 0.999278
0.999623 1 1 0.999623
0.999615 1 1 0.999615
0.999279 1 1 0.999279
0.999072 1 1 0.999072
0.999106 1 1 0.999106
0.999266 1 1 0.999266
0.999298 1 1 0.999298
1.01827 1.03397 0.986765 0.998031
1.01721 1.03647 0.98328 0.99811
1.009 1.01523 0.995906 0.997957
1.00303 1.00006 1.00489 0.998085
1.00269 1.00439 1.00069 0.997625
1.01808 1 1.0199 0.99822
1.01628 1 1.01809 0.998227
0.998992 1 1.00051 0.998485
0.999168 1 1 0.999168
0.99904 1 1.00029 0.998753
0.999288 1 1 0.999288
0.999058 1 1 0.999058
1.00909 1.03152 0.980129 0.998084
0.99891 1 1 0.99891
0.999044 1 1.00019 0.998856
1.00509 1.0245 0.982979 0.998045
1.00331 1.00735 0.998209 0.997776
0.999811 1.00064 1.00102 0.998154
1.00664 1 1.00814 0.998517
1.02502 1 1.02697 0.998102
1.00648 1.02625 0.98263 0.998078
0.986191 1.00768 0.980542 0.9981
0.994668 1.00056 0.995991 0.998109
1.00506 1.00025 1.00656 0.99827
0.999039 1 1.00034 0.998702
1.00283 1 1.00421 0.998623
1.02386 1 1.02559 0.998313
0.85844 0.920862 0.949873 0.981409
0.944954 0.976676 0.981124 0.986134
0.999919 1 1.0014 0.998525
0.999202 1 1.00107 0.998137
1.00707 1.01978 0.989116 0.998408
1.0029 1.00748 0.99785 0.997595
1.0033 1.00015 1.00571 0.997452
0.946529 0.977383 0.984161 0.984018
0.967445 0.987694 0.987711 0.991686
0.985892 0.994243 0.993053 0.998538
0.841426 0.895416 0.958208 0.980689
0.769351 0.866293 0.913404 0.972292
0.999262 1 1.0006 0.998658
0.862725 0.918432 0.957318 0.981227
0.83599 0.889032 0.962695 0.976777
0.986834 1.00791 0.980752 0.998301
1.00467 1.00024 1.00617 0.998278
1.00998 1.00171 1.01042 0.997859
0.969512 0.985813 0.984702 0.998743
0.953046 0.979959 0.989178 0.983177
0.951961 0.967927 0.991398 0.992039
0.826495 0.890165 0.948061 0.97934
0.852557 0.932403 0.935455 0.977455
1.00107 1 1.00216 0.998909
0.869543 0.904789 0.981322 0.979337
0.93536 0.960139 0.989877 0.984155
0.989331 0.999994 0.990532 0.998794
1.01254 1.0018 1.01196 0.998774
0.983732 0.977277 1.00772 0.998895
0.934428 0.953256 0.987068 0.993091
0.937202 0.955708 0.997711 0.982885
0.841809 0.904687 0.949721 0.979759
0.882315 0.953828 0.943275 0.980653
0.999201 1 1.0004 0.998798
0.999279 1 1.00026 0.99902
1.00188 1 1.00267 0.999218
0.999355 1 1 0.999355
0.999099 1 1 0.999099
0.998946 1 1 0.998946
0.998876 1 1 0.998876
0.99904 1 1.00017 0.998866
0.999077 1 1 0.999077
0.998861 1 1 0.998861
0.998891 1 1 0.998891
1.00004 1 1.00112 0.998916
1.00894 0.999976 1.00981 0.99917
0.998916 1 1.00009 0.99883
0.998868 1 1 0.998868
0.999111 1 1 0.999111
0.99901 1 1 0.99901
0.998953 1 1 0.998953
0.999016 1 1 0.999016
0.99898 1 1 0.99898
0.998968 1 1 0.998968
0.998916 1 1 0.998916
0.998965 1 1 0.998965
0.99874 1 1 0.99874
0.999292 1 1.00093 0.998365
0.998775 1 1.00002 0.998752
0.998872 1 1 0.998872
0.999104 1 1 0.999104
0.999159 1 1 0.999159
0.99944 1 1 0.99944
0.999181 1 1 0.999181
0.999446 1 1 0.999446
0.99984 1 1 0.99984
0.999389 1 1 0.999389
0.99984 1 1 0.99984
1 1 1 1
0.999842 1 1 0.999842
1 1 1 1
1 1 1 1
1 1 1 1
1 1 1 1
1 1 1 1
0.999619 1 1 0.999619
0.999948 1 1 0.999948
0.999601 1 1 0.999601
1 1 1 1
0.999959 1 1 0.999959
0.999955 1 1 0.999955
1 1 1 1
1 1 1 1
1 1 1 1
1 1 1 1
1 1 1 1
0.859269 0.909003 0.964011 0.980577
0.845222 0.897056 0.963189 0.978227
0.956053 0.982996 0.978966 0.993487
1.00629 1.01871 0.989543 0.998241
1.03172 1.03996 0.99407 0.998002
0.956591 0.973685 0.98738 0.995001
1.01573 1.02381 0.994119 0.997985
0.956027 0.984915 0.985246 0.985205
0.840564 0.894804 0.958511 0.980045
0.772027 0.862866 0.918763 0.973835
0.983523 0.998273 0.988855 0.996329
0.949346 0.973474 0.990165 0.984901
0.816162 0.890256 0.93526 0.980233
0.84481 0.921577 0.938435 0.97684
0.998981 1 1 0.998981
0.999299 1 1 0.999299
0.999622 1 1 0.999622
0.999266 1 1 0.999266
0.999104 1 1 0.999104
0.99917 1 1.00017 0.999
0.999105 1 1 0.999105
0.999116 1 1 0.999116
0.99924 1 1 0.99924
0.999275 1 1 0.999275
1.01013 1.03122 0.981436 0.998072
1.00457 1.02278 0.984134 0.998025
1.00187 1.0072 0.996817 0.997886
1.00148 1.00096 1.00243 0.998082
1.02109 1 1.02302 0.998113
1.00876 1 1.01032 0.998463
0.998874 1 1 0.998874
0.998936 1 1 0.998936
1.00578 1.02657 0.98162 0.998092
0.999294 1 1.00061 0.998687
1.00275 1 1.00417 0.998592
0.986568 1.00629 0.982341 0.998021
0.994051 1.00041 0.995404 0.998228
1.00609 1.00079 1.00714 0.99817
1.021 1 1.02276 0.998286
0.997998 1.00476 0.994871 0.998388
0.987113 1 0.988317 0.998782
1.01351 1.00043 1.01476 0.998347
1.00171 1 1.00305 0.998665
1.00124 1 1.00273 0.998523
1.01436 1 1.01598 0.998402
0.877443 0.911896 0.979729 0.982128
0.867095 0.919862 0.960756 0.98114
0.937716 0.976575 0.975316 0.98451
0.998956 1 1.0003 0.99866
1.00428 1.00018 1.00581 0.998301
0.989473 1.00856 0.982747 0.998295
1.00896 1.00017 1.01083 0.997988
0.856064 0.913123 0.95564 0.981031
0.953543 0.978338 0.989538 0.98496
0.945817 0.966736 0.987938 0.990305
0.965629 0.981527 0.984947 0.998838
0.826839 0.890503 0.948159 0.979274
0.838281 0.893688 0.960343 0.976736
0.842802 0.925778 0.931148 0.977687
1.00174 1 1.00283 0.998915
0.870471 0.908232 0.977848 0.980136
0.940846 0.964861 0.990901 0.984065
0.991622 1.00013 0.992617 0.998872
1.01204 1.0005 1.0128 0.998752
0.981328 0.976315 1.00629 0.998854
0.935525 0.955543 0.987721 0.991222
0.93961 0.960144 0.994618 0.98391
0.853661 0.917024 0.94983 0.980074
0.871457 0.944314 0.940847 0.980867
1.00356 0.999757 1.00435 0.999461
0.938833 0.964811 0.985675 0.987216
0.922544 0.953906 0.979167 0.987699
1.00328 0.989682 1.01402 0.999715
0.954585 0.956804 1.00204 0.995652
0.94512 0.95557 1.00601 0.983152
0.889995 0.935417 0.970857 0.980002
0.889242 0.96668 0.938531 0.980141
0.999055 1 1.00006 0.998998
1.00111 1 1.00189 0.99922
1.01305 1 1.01366 0.999398
0.999075 1 1 0.999075
0.998892 1 1 0.998892
0.998865 1 1 0.998865
1.00035 1 1.00141 0.998943
0.998867 1 1 0.998867
0.998929 1 1.0001 0.998825
1.01133 1 1.01212 0.999216
1.02 0.998113 1.02249 0.999446
1.00889 1 1.0098 0.999098
0.998822 1 1 0.998822
0.998951 1 1 0.998951
0.999012 1 1 0.999012
0.998992 1 1 0.998992
0.998926 1 1 0.998926
0.998967 1 1 0.998967
0.998972 1 1 0.998972
0.998887 1 1 0.998887
0.999291 1 1.0002 0.999091
0.998773 1 1 0.998773
0.998766 1 1 0.998766
0.999186 1 1.00069 0.998493
0.999469 1 1.00153 0.997946
0.999152 1 1.00049 0.99866
0.999249 1 1.00079 0.998458
0.998793 1 1.00001 0.998783
0.998995 1 1.00002 0.998975
0.998869 1 1 0.998869
0.999102 1 1 0.999102
0.999402 1 1 0.999402
0.999157 1 1 0.999157
0.999439 1 1 0.999439
0.999838 1 1 0.999838
0.999446 1 1 0.999446
0.99984 1 1 0.99984
1 1 1 1
0.999841 1 1 0.999841
1 1 1 1
1 1 1 1
1 1 1 1
1 1 1 1
1 1 1 1
0.999487 1 1 0.999487
0.999933 1 1 0.999933
0.999568 1 1 0.999568
1 1 1 1
0.999951 1 1 0.999951
0.999601 1 1 0.999601
1 1 1 1
1 1 1 1
0.999959 1 1 0.999959
1 1 1 1
1 1 1 1
1 1 1 1
0.872123 0.907646 0.979449 0.981023
0.863078 0.915128 0.961904 0.980474
0.938018 0.96572 0.987179 0.983929
0.836654 0.890042 0.961718 0.977435
0.953559 0.977178 0.982621 0.993087
1.01351 1.02351 0.992162 0.998048
0.960435 0.984921 0.988539 0.986446
0.842291 0.897958 0.957109 0.980042
0.766984 0.865205 0.912241 0.971757
0.979892 0.995768 0.988381 0.995625
0.948145 0.973781 0.990487 0.983025
0.827772 0.897463 0.942146 0.978984
0.844251 0.923894 0.936333 0.975931
0.962354 0.983911 0.983397 0.994604
0.949301 0.961479 1.00483 0.982587
0.852463 0.919552 0.946515 0.979425
0.877941 0.954789 0.939177 0.979063
0.999356 1 1.00054 0.998812
0.999013 1 1 0.999013
0.99932 1 1 0.99932
0.999137 1 1 0.999137
0.998814 1 1 0.998814
0.999023 1 1 0.999023
0.999103 1 1 0.999103
0.999084 1 1 0.999084
0.999144 1 1 0.999144
0.999213 1 1 0.999213
1.00638 1.02769 0.981125 0.998106
0.988726 1.0058 0.98505 0.997944
0.993351 1.00017 0.994828 0.998347
1.00785 1.00132 1.00846 0.998071
1.0182 1 1.01997 0.99826
1.00238 1 1.00382 0.998561
0.999587 1 1.00092 0.998671
1.00103 1 1.00238 0.998657
0.99428 1.0056 0.990327 0.9984
1.00102 1 1.00249 0.99853
1.01417 1 1.0158 0.998396
0.985794 1.00024 0.986838 0.998704
1.01369 1.00089 1.01449 0.998323
0.966824 0.990602 0.977083 0.998888
1.00276 0.997822 1.0057 0.999261
1.0202 1 1.02167 0.998565
1.00031 1 1.00177 0.99854
1.00808 1 1.00969 0.998406
0.940232 0.961387 0.989078 0.988795
0.88151 0.911833 0.984304 0.98216
0.859428 0.915586 0.956623 0.981227
1.0024 1 1.00348 0.99892
1.01168 0.99934 1.01363 0.998728
0.991362 1 0.992409 0.998945
0.879949 0.914016 0.981471 0.980903
0.948542 0.959504 1.00604 0.982638
0.937612 0.956161 0.988006 0.992505
0.971296 0.972516 0.99996 0.998786
0.854542 0.916367 0.951746 0.979813
0.945962 0.968832 0.992291 0.983979
0.871918 0.945079 0.940497 0.980957
1.00316 0.999416 1.00432 0.999436
0.936471 0.962946 0.984286 0.988032
0.924663 0.955786 0.979476 0.987709
1.00469 0.991788 1.01345 0.999568
0.959448 0.960421 1.00375 0.995251
0.934367 0.953136 0.998305 0.981974
0.892374 0.968574 0.939196 0.980975
0.888786 0.934812 0.97024 0.979927
1.0047 0.993464 1.0116 0.999711
0.919525 0.950351 0.97464 0.99274
0.933593 0.966724 0.977024 0.988439
0.879789 0.955558 0.940336 0.979125
0.988938 0.97555 1.01491 0.998834
0.962061 0.964664 1.01365 0.983871
0.897715 0.933344 0.981166 0.98029
1.00095 1 1.00173 0.999222
1.01205 1 1.01272 0.999335
1.01603 0.996405 1.02014 0.999566
0.998865 1 1 0.998865
0.999006 1 1.00019 0.99882
1.01497 1 1.01572 0.999262
0.998832 1 1 0.998832
1.00854 1 1.00944 0.999105
1.02161 0.997975 1.02428 0.999421
1.00907 0.997326 1.01229 0.999489
1.00556 1 1.00647 0.999098
0.998936 1 1 0.998936
0.998966 1 1 0.998966
0.998979 1 1 0.998979
0.999233 1 1.00016 0.999074
0.998895 1 1 0.998895
0.999352 1 1.00033 0.99902
0.998905 1 1 0.998905
1.00085 1 1.00259 0.99826
0.998792 1 1 0.998792
0.999021 1 1.00057 0.998456
0.998787 1 1.00101 0.997776
0.999156 1 1.00129 0.99787
0.999997 1 1.00154 0.998464
0.999348 1 1.00138 0.997968
0.999198 1 1.00035 0.998848
0.99925 1 1.00062 0.998632
0.999195 1 1.00065 0.99855
0.998815 1 1 0.998815
0.999018 1 1.00001 0.999006
0.999334 1 1 0.999334
0.9991 1 1 0.9991
0.999401 1 1 0.999401
0.999823 1 1 0.999823
0.999438 1 1 0.999438
0.999836 1 1 0.999836
1 1 1 1
0.99984 1 1 0.99984
1 1 1 1
1 1 1 1
1 1 1 1
1 1 1 1
1 1 1 1
0.999331 1 1 0.999331
0.999824 1 1 0.999824
0.999486 1 1 0.999486
1 1 1 1
0.9999 1 1 0.9999
0.999517 1 1 0.999517
1 1 1 1
1 1 1 1
0.999954 1 1 0.999954
1 1 1 1
1 1 1 1
1 1 1 1
0.932475 0.960274 0.982874 0.987971
0.861494 0.90557 0.969732 0.981021
0.862981 0.911901 0.965365 0.980306
0.998988 1 1 0.998988
0.924755 0.951733 0.982811 0.988648
0.940212 0.966502 0.988755 0.983862
0.833173 0.892135 0.955366 0.977541
0.982881 0.996989 0.991032 0.99477
0.949625 0.972726 0.991503 0.984618
0.834046 0.908744 0.937584 0.9789
0.838449 0.917291 0.936516 0.97601
0.964122 0.984247 0.987061 0.992393
0.936035 0.955517 0.995639 0.983901
0.863015 0.923315 0.95436 0.979392
0.876222 0.950676 0.941591 0.978857
0.943641 0.963018 0.989179 0.990598
0.944517 0.950611 1.01183 0.981972
0.89432 0.941147 0.969931 0.979704
0.889021 0.965161 0.939787 0.980129
0.999399 1 1.00076 0.998644
0.999659 1 1.00087 0.998789
0.999044 1 1 0.999044
0.998813 1 1 0.998813
0.998938 1 1.00009 0.998853
0.999046 1 1 0.999046
0.999092 1 1 0.999092
0.999173 1 1 0.999173
0.988241 1.00561 0.984287 0.998411
0.983469 1.00014 0.984683 0.998626
1.00029 1 1.00164 0.998649
1.01416 1.00139 1.01448 0.998296
1.01491 1 1.01655 0.998389
1.00106 1 1.00253 0.998537
1.00057 1 1.00203 0.998549
0.97146 0.992286 0.980072 0.998919
1.00884 1 1.01042 0.998434
1.01713 1.00012 1.01847 0.99857
0.997667 0.998313 1.00006 0.999294
1.00032 1 1.00174 0.998584
0.962093 0.982054 0.98047 0.999188
1.00819 0.995228 1.01358 0.999454
1.02897 1 1.03037 0.998646
1.00201 1 1.00346 0.998556
0.932174 0.952742 0.984649 0.993665
0.93955 0.960485 0.989172 0.988911
0.886674 0.911957 0.989901 0.982196
1.00215 0.998986 1.00375 0.999414
1.00762 0.994144 1.01414 0.999425
0.934757 0.961575 0.98308 0.988842
0.952511 0.954668 1.01432 0.983658
0.953883 0.958684 1.00217 0.992838
0.893393 0.938799 0.971997 0.97905
0.925365 0.956294 0.979691 0.987717
0.896604 0.971617 0.939897 0.981805
1.00608 0.995458 1.011 0.999672
0.919767 0.950202 0.975043 0.992745
0.931309 0.964821 0.975436 0.989573
0.997715 0.982142 1.01607 0.999793
0.877375 0.951552 0.941934 0.978886
0.950604 0.956653 1.01073 0.983126
0.908351 0.946887 0.979315 0.979566
1.00654 0.991396 1.0155 0.999771
0.93338 0.964179 0.974193 0.9937
0.925346 0.952634 0.982452 0.988705
0.844529 0.922756 0.936842 0.976924
0.89401 0.942728 0.968283 0.979386
0.971438 0.968385 1.00521 0.99795
0.964749 0.958439 1.02594 0.981138
1.00978 1 1.01051 0.999272
1.01534 0.995851 1.02004 0.99954
1.0037 0.985237 1.01917 0.999582
0.998843 1 1 0.998843
1.00769 1 1.00859 0.999112
1.02233 0.998625 1.02435 0.999396
1.00307 1 1.00399 0.999086
1.00931 0.998068 1.01178 0.999488
1.00718 0.997234 1.01073 0.99925
0.999057 1 1 0.999057
0.998903 1 1 0.998903
1.00006 1 1.00107 0.998991
1.00635 1 1.00787 0.998488
0.999036 1 1 0.999036
1.00034 1 1.00198 0.998364
1.0018 1 1.00413 0.997678
1.00071 1.00152 1.00188 0.997317
0.998822 1 1.0004 0.998418
0.998982 1.00021 1.00109 0.997678
0.998486 1 1.00053 0.997962
1.00056 1 1.00232 0.998242
0.999178 1 1.00125 0.997927
1.00056 1 1.00186 0.998704
1.00003 1 1.00157 0.998456
0.999266 1 1.00128 0.997991
0.999216 1 1 0.999216
0.999277 1 1.00043 0.998843
0.999435 1 1.00083 0.998604
0.999037 1 1 0.999037
0.999332 1 1 0.999332
0.99979 1 1 0.99979
0.999401 1 1 0.999401
0.99982 1 1 0.99982
1 1 1 1
0.999835 1 1 0.999835
1 1 1 1
1 1 1 1
1 1 1 1
1 1 1 1
1 1 1 1
0.999265 1 1 0.999265
0.999748 1 1 0.999748
0.99936 1 1 0.99936
1 1 1 1
0.999817 1 1 0.999817
0.999484 1 1 0.999484
1 1 1 1
1 1 1 1
0.999868 1 1 0.999868
1 1 1 1
1 1 1 1
1 1 1 1
0.921549 0.950574 0.976489 0.992807
0.934006 0.960672 0.984088 0.987963
0.861469 0.906794 0.968294 0.981124
0.999006 1 1 0.999006
0.998956 1 1 0.998956
0.998852 1 1 0.998852
0.930401 0.965616 0.974861 0.988378
0.922223 0.950776 0.981086 0.988668
0.942895 0.967391 0.990733 0.983795
0.97051 0.986543 0.989672 0.994014
0.934147 0.955469 0.995019 0.982578
0.853294 0.91164 0.955282 0.979815
0.885577 0.956601 0.946067 0.978529
0.946163 0.963728 0.989165 0.992528
0.940675 0.950029 1.00744 0.98284
0.882551 0.92579 0.971897 0.98086
0.890954 0.967386 0.938883 0.980944
0.933541 0.953268 0.987961 0.991241
0.958918 0.960791 1.01501 0.983288
0.898779 0.931786 0.983787 0.980473
0.88301 0.953341 0.944589 0.980562
0.998633 1 1 0.998633
0.99965 1 1.00101 0.998637
0.999744 1 1.00098 0.998765
0.998808 1 1 0.998808
0.998891 1 1 0.998891
0.9991 1 1 0.9991
0.978289 0.994749 0.984493 0.998943
0.993198 0.998738 0.995126 0.999324
1.00076 1 1.0022 0.998558
1.01342 1.00021 1.01464 0.998575
1.00954 1 1.0111 0.998462
1.00013 1 1.00157 0.998559
1.00173 1 1.00317 0.998571
0.973348 0.984975 0.988961 0.999226
1.02522 1 1.0265 0.998751
1.00625 0.990679 1.01625 0.99948
1.00004 1 1.00135 0.998688
0.987839 0.974289 1.01454 0.999377
1.00023 0.987834 1.01303 0.999522
1.02064 1 1.02179 0.998874
0.948362 0.968136 0.98466 0.994837
0.931833 0.952951 0.983749 0.993994
0.939214 0.959502 0.989718 0.989024
1.00851 0.997795 1.01111 0.999634
0.99224 0.983625 1.00952 0.999245
0.920676 0.950696 0.975497 0.992749
0.950196 0.950408 1.0133 0.986656
0.906969 0.943863 0.980237 0.980285
0.930124 0.96329 0.974626 0.990709
0.886291 0.957075 0.946298 0.978593
1.00449 0.990777 1.01405 0.999788
0.934186 0.964509 0.974363 0.994045
0.92354 0.952002 0.981164 0.988726
0.970563 0.965279 1.01036 0.995164
0.843098 0.924126 0.934699 0.976056
0.879905 0.928292 0.966692 0.980535
0.973223 0.963329 1.02761 0.983126
1.00127 0.972895 1.0296 0.99958
0.922339 0.951144 0.976672 0.992878
0.939727 0.967596 0.986931 0.984059
0.778635 0.86148 0.925924 0.976144
0.853741 0.921059 0.946361 0.979449
0.958192 0.960069 1.01537 0.982932
0.949115 0.960562 0.994498 0.99355
1.01457 0.994962 1.02021 0.999514
1.007 0.989462 1.01815 0.999586
1.01684 0.994786 1.02265 0.999529
1.00059 1 1.00152 0.999073
1.00981 0.998062 1.01229 0.999487
1.00863 0.997176 1.01217 0.999326
1.01534 1 1.01654 0.998822
1.0009 1 1.00194 0.998962
1.00664 1 1.00827 0.998383
1.01498 1 1.01743 0.997585
0.999912 1 1.00145 0.998469
1.0031 1.00039 1.00509 0.997635
1.00479 1.00186 1.00596 0.996979
1.00321 1.00441 1.00191 0.996903
0.998946 1.00024 1.00108 0.99763
1.00065 1.0015 1.00189 0.997277
0.999209 1.00039 1.00124 0.997581
0.999249 1 1.0011 0.998153
0.998531 1 1.00048 0.998052
1.00105 1 1.00262 0.998443
1.00064 1 1.00237 0.998281
0.999153 1 1.00117 0.997985
0.999958 1 1.00094 0.999014
1.00022 1 1.00152 0.998706
0.999955 1 1.00151 0.998448
0.999728 1 1 0.999728
0.999213 1 1 0.999213
0.999278 1 1.00044 0.998839
0.99933 1 1 0.99933
0.999786 1 1 0.999786
1 1 1 1
0.999817 1 1 0.999817
1 1 1 1
1 1 1 1
1 1 1 1
1 1 1 1
1 1 1 1
0.999254 1 1 0.999254
0.999754 1 1 0.999754
0.999284 1 1 0.999284
1 1 1 1
0.999781 1 1 0.999781
0.999389 1 1 0.999389
1 1 1 1
1 1 1 1
0.999811 1 1 0.999811
1 1 1 1
1 1 1 1
1 1 1 1
0.932847 0.963542 0.974324 0.993657
0.92173 0.951012 0.976225 0.992814
0.933807 0.96098 0.983561 0.987966
0.998929 1 1 0.998929
0.998811 1 1 0.998811
0.999023 1 1 0.999023
0.998953 1 1 0.998953
0.998833 1 1 0.998833
0.998839 1 1 0.998839
0.998739 1 1 0.998739
0.919836 0.953297 0.977019 0.987595
0.930016 0.963609 0.97536 0.98952
0.919654 0.949628 0.979514 0.98869
0.893392 0.970075 0.938062 0.98176
0.935162 0.954089 0.989254 0.99081
0.943227 0.950666 1.00847 0.983845
0.886957 0.927694 0.975603 0.979997
0.928905 0.952731 0.984325 0.990518
0.949804 0.952603 1.01519 0.982146
0.910589 0.948018 0.980073 0.980048
0.870805 0.943801 0.940735 0.980784
0.934343 0.954416 0.986435 0.992431
0.956868 0.958654 1.01668 0.981758
0.892383 0.93745 0.971168 0.980186
0.851125 0.928798 0.937075 0.977907
1.00036 1 1.00163 0.998732
0.998748 1 1.00011 0.998634
1.00005 1 1.00142 0.99863
0.998803 1 1 0.998803
0.981647 0.986915 0.995389 0.99927
1.00329 0.986904 1.01711 0.999505
0.998588 1 1.00005 0.998535
1.00148 1 1.00289 0.998586
1.02099 1 1.02216 0.998855
0.999495 1 1.00082 0.99868
1.02124 0.999697 1.02272 0.998859
0.98376 0.972668 1.01274 0.998676
1.00312 0.987077 1.01663 0.999633
1.00968 0.998943 1.01179 0.99897
0.989146 0.971352 1.01982 0.998524
1.01924 0.993134 1.027 0.999297
0.932729 0.952951 0.98498 0.993704
0.943984 0.966236 0.981664 0.995219
0.931277 0.953132 0.98265 0.994321
1.00159 0.989175 1.01275 0.999805
0.973993 0.967278 1.00886 0.998097
0.934061 0.964157 0.974249 0.994392
0.967235 0.962246 1.02414 0.981494
0.883204 0.928291 0.971217 0.979627
0.921473 0.951366 0.979602 0.988747
0.838325 0.917413 0.93613 0.976139
1.00633 0.976632 1.03075 0.999664
0.922071 0.951533 0.97598 0.992887
0.941498 0.967923 0.988527 0.983989
0.951326 0.960272 0.994931 0.995732
0.772001 0.862298 0.919078 0.974111
0.860401 0.922169 0.952743 0.979297
0.956104 0.955221 1.0187 0.982548
0.999859 0.978503 1.02298 0.998871
0.933923 0.961428 0.983065 0.988126
0.845784 0.897241 0.963377 0.978485
0.819058 0.89142 0.937101 0.980496
0.942321 0.94807 1.01083 0.983292
0.930841 0.95263 0.985611 0.991392
1.01061 0.993628 1.01751 0.99959
1.01751 0.993305 1.02486 0.999522
1.00939 0.99795 1.01212 0.999358
1.01035 0.997383 1.01361 0.999402
1.0145 0.998352 1.0173 0.998898
1.0085 1.0008 1.00969 0.998021
1.00713 1 1.00886 0.998277
1.01405 1 1.01656 0.997533
1.00898 1.00017 1.01188 0.996967
1.00447 1.00085 1.00604 0.997592
1.00492 1.00151 1.00652 0.996907
1.00313 1.00209 1.00437 0.996688
1.00558 1.00866 1 0.996945
1.00527 1.00742 1.00077 0.997102
1.00374 1.00473 1.00218 0.99685
0.998685 1.00069 1.00013 0.997867
0.998753 1.00033 1.00074 0.997685
1.00063 1.00151 1.0019 0.997238
0.99929 1 1.00112 0.998177
0.99924 1.00001 1.00108 0.998145
0.998567 1 1.00043 0.998142
1.0009 1 1.00216 0.998744
1.00096 1 1.00248 0.998485
1.00073 1 1.00241 0.99832
0.999586 1 1 0.999586
0.999697 1 1.00068 0.999015
0.999987 1 1.00128 0.998709
0.999999 1 1 0.999999
0.999721 1 1 0.999721
0.999211 1 1 0.999211
0.999782 1 1 0.999782
1 1 1 1
1 1 1 1
1 1 1 1
1 1 1 1
1 1 1 1
0.998923 1 1 0.998923
0.999196 1 1 0.999196
0.999698 1 1 0.999698
0.999253 1 1 0.999253
0.999999 1 1 0.999999
0.999757 1 1 0.999757
0.999303 1 1 0.999303
1 1 1 1
1 1 1 1
0.999813 1 1 0.999813
1 1 1 1
1 1 1 1
1 1 1 1
0.918842 0.950332 0.973965 0.992709
0.933353 0.963969 0.974077 0.994007
0.922072 0.951531 0.976049 0.99282
0.99894 1 1 0.99894
0.998797 1 1 0.998797
0.99874 1 1 0.99874
0.998798 1 1 0.998798
0.999353 1 1.00065 0.998708
0.99895 1 1 0.99895
0.998815 1 1 0.998815
0.998839 1 1 0.998839
0.99874 1 1 0.99874
0.99985 1 1.00107 0.998786
0.933578 0.958749 0.98963 0.983949
0.923357 0.955307 0.978676 0.987616
0.93073 0.962463 0.976146 0.990661
0.869756 0.944351 0.938955 0.980888
0.907843 0.94237 0.982527 0.980493
0.921306 0.948523 0.981569 0.989544
0.958075 0.960152 1.01503 0.983062
0.934949 0.956491 0.98706 0.990293
0.967999 0.967659 1.01767 0.982982
0.89119 0.935857 0.971341 0.980367
0.851688 0.931601 0.935592 0.977157
0.955113 0.963579 0.999438 0.991772
0.958325 0.960182 1.01485 0.983464
0.840261 0.904544 0.948334 0.979542
0.801762 0.891241 0.921922 0.975789
1.00247 1 1.00333 0.999149
1.00192 1 1.00319 0.998731
0.999545 1 1.00091 0.998635
0.982158 0.9716 1.01293 0.997962
1.00592 0.985637 1.02084 0.999748
0.999829 1 1.00116 0.998673
1.02251 0.999534 1.02417 0.998846
1.01093 0.999537 1.01243 0.998978
1.02038 0.995204 1.02603 0.999287
0.985209 0.968039 1.0192 0.99856
1.01639 0.998772 1.0183 0.999345
0.991631 0.978246 1.01532 0.998389
0.94228 0.963245 0.989437 0.988678
0.932373 0.953052 0.984181 0.994028
0.939558 0.964422 0.978524 0.995601
1.01157 0.980735 1.03171 0.999741
0.950657 0.961585 0.996077 0.992529
0.922543 0.95189 0.976107 0.992893
0.957803 0.961873 1.0151 0.980954
0.852426 0.910669 0.95539 0.97975
0.943302 0.968244 0.990159 0.983923
0.768827 0.865923 0.913391 0.97206
0.999058 0.977157 1.02345 0.998992
0.935412 0.961949 0.984107 0.988118
0.837606 0.891032 0.961483 0.977697
0.933334 0.955866 0.983805 0.992502
0.829837 0.898025 0.943672 0.979226
0.930358 0.94601 1.00145 0.982036
0.97395 0.976591 0.999277 0.998018
0.872497 0.908567 0.97862 0.98128
0.828832 0.889131 0.951128 0.980081
0.948305 0.961792 1.00337 0.982661
0.927728 0.951639 0.981813 0.992932
1.01724 0.991939 1.02601 0.999515
1.01094 0.996474 1.0152 0.999329
0.996423 1.001 0.996748 0.99867
1.01324 0.996378 1.01797 0.998974
1.00851 1.00092 1.00948 0.998118
1.00151 1.00198 1.00198 0.997559
1.01284 1 1.01539 0.997481
1.00738 1.00032 1.01011 0.996982
0.999562 1.00147 1.00102 0.997079
1.00475 1.00114 1.00679 0.996835
1.00331 1.00301 1.0036 0.996709
1.0062 1.00912 1 0.997107
1.0162 1.01895 1 0.997295
1.0102 1.01324 1.00002 0.996986
1.00516 1.00822 1 0.996963
1.00245 1.00508 1 0.997381
1.00356 1.00544 1.00107 0.997055
1.0043 1.00508 1.00244 0.996798
0.998296 1.00028 1 0.998021
0.998412 1.00046 1.00002 0.997932
0.998471 1.00041 1.00032 0.997741
0.999807 1 1.00132 0.998486
0.999487 1 1.00129 0.998203
0.999288 1.00006 1.0011 0.998136
0.999842 1 1.00052 0.999322
1.00067 1 1.00192 0.998746
1.00084 1 1.00232 0.998527
0.999995 1 1 0.999995
0.999623 1 1.00004 0.999579
0.999485 1 1.00047 0.999017
1 1 1 1
0.999999 1 1 0.999999
0.999715 1 1 0.999715
1 1 1 1
1 1 1 1
1 1 1 1
0.998837 1 1 0.998837
0.999129 1 1 0.999129
0.998909 1 1 0.998909
0.999652 1 1 0.999652
0.999196 1 1 0.999196
0.999995 1 1 0.999995
0.999701 1 1 0.999701
0.999251 1 1 0.999251
1 1 1 1
1 1 1 1
0.999761 1 1 0.999761
1 1 1 1
1 1 1 1
1 1 1 1
0.937344 0.965199 0.981988 0.988952
0.919011 0.950119 0.974356 0.992717
0.933316 0.963635 0.974031 0.994359
0.998745 1 1 0.998745
0.998951 1 1 0.998951
0.998783 1 1 0.998783
0.998811 1 1 0.998811
0.998757 1 1 0.998757
0.999084 1 1.00037 0.998716
1.00054 1 1.00194 0.998598
1.00067 1 1.00199 0.998684
0.99884 1 1 0.99884
0.998741 1 1 0.998741
0.999991 1 1.00122 0.998777
1.00108 1 1.00215 0.998931
0.842206 0.896295 0.961436 0.977343
0.939371 0.964069 0.990367 0.983859
0.924943 0.955352 0.980292 0.987634
0.844472 0.926661 0.932386 0.977391
0.898111 0.943099 0.97195 0.979781
0.958151 0.959262 1.01734 0.981813
0.940223 0.95735 0.99097 0.99106
0.954317 0.960628 0.999919 0.993511
0.785463 0.879445 0.91713 0.973837
0.953522 0.955623 1.0162 0.981893
0.850879 0.916232 0.947854 0.979763
0.945057 0.959068 0.991383 0.993956
0.946065 0.952418 1.00934 0.984138
0.823277 0.896136 0.937679 0.979757
1.00043 1 1.00084 0.999586
1.00216 1 1.00301 0.999152
1.0031 1 1.00438 0.99873
0.981823 0.965383 1.01846 0.998594
1.02234 0.998187 1.02493 0.999275
1.01207 1 1.0131 0.998985
1.01582 0.999472 1.01703 0.999344
0.991836 0.98011 1.01355 0.99844
0.999806 0.99162 1.00939 0.998879
0.879458 0.912897 0.982601 0.980429
0.940387 0.961938 0.987675 0.989795
0.931571 0.953048 0.983019 0.99435
0.999322 0.975587 1.02525 0.999098
0.928676 0.955247 0.978774 0.993267
0.935073 0.962371 0.983319 0.988118
0.938792 0.946115 1.00871 0.983689
0.837693 0.91036 0.939745 0.979179
0.833375 0.892512 0.954928 0.977813
0.975788 0.977154 1.00053 0.998077
0.862003 0.906185 0.9694 0.981271
0.843288 0.895835 0.960196 0.980366
0.930126 0.952087 0.98611 0.990695
0.93692 0.958619 0.993347 0.983911
0.964885 0.986085 0.979526 0.998954
0.859079 0.909247 0.963312 0.98081
0.951783 0.97614 0.990238 0.98466
0.94208 0.964558 0.986072 0.990492
1.01335 0.995524 1.01862 0.999301
0.990536 1.00034 0.991416 0.998775
0.985497 1.00264 0.984688 0.998185
1.009 1.00105 1.00974 0.998214
1.00303 1.00239 1.00309 0.99755
1.00048 1.00336 0.999428 0.997705
1.00613 1.0005 1.00865 0.996997
0.999618 1.00113 1.00141 0.997092
1.01169 1.01408 1 0.997643
1.00369 1.00395 1.00303 0.996731
1.00577 1.00868 1 0.997115
1.01596 1.01829 1 0.997706
1.02151 1.02386 1 0.997703
1.01831 1.02114 1 0.997228
1.01562 1.01834 1 0.997324
1.00928 1.01211 1 0.997199
1.00936 1.01237 1 0.997028
1.00461 1.00765 1 0.996981
1.00045 1.0027 1 0.99775
1.00242 1.00489 1.00014 0.997405
1.00197 1.00349 1.00148 0.997009
0.998277 1 1 0.998277
0.998765 1.00075 1 0.998016
0.998026 1.00003 1 0.997997
0.999542 1 1.00052 0.999023
0.999656 1 1.00117 0.998488
0.999672 1 1.00145 0.998229
0.999968 1 1 0.999968
0.999796 1 1.00048 0.999318
1.00029 1 1.00155 0.998747
1 1 1 1
0.999989 1 1 0.999989
0.999631 1 1.00006 0.999572
1 1 1 1
0.999998 1 1 0.999998
1 1 1 1
0.998799 1 1 0.998799
0.998853 1 1.00002 0.998836
0.999042 1 1 0.999042
0.999606 1 1 0.999606
0.999129 1 1 0.999129
0.998896 1 1 0.998896
0.999988 1 1 0.999988
0.999654 1 1 0.999654
0.999195 1 1 0.999195
1 1 1 1
0.999997 1 1 0.999997
0.999704 1 1 0.999704
1 1 1 1
1 1 1 1
1 1 1 1
0.867623 0.903457 0.980486 0.97945
0.935513 0.962927 0.982378 0.988958
0.920008 0.950733 0.974775 0.992725
0.99882 1 1.00009 0.99873
0.998762 1 1.0001 0.998665
0.999796 1 1.00116 0.998641
0.998825 1 1 0.998825
0.998774 1 1 0.998774
0.999245 1 1.00052 0.998723
1.00063 1 1.00195 0.998679
1.00043 1 1.00183 0.998604
1.00109 1 1.00258 0.998513
0.998377 1 0.999328 0.999048
0.999692 1 1.00093 0.998768
1.00047 1 1.00156 0.99891
0.839368 0.892437 0.960025 0.979697
0.835043 0.888563 0.962471 0.976412
0.94507 0.968838 0.991553 0.983778
0.770248 0.865793 0.915404 0.971861
0.851884 0.914015 0.951491 0.97954
0.953229 0.957391 1.01161 0.984223
0.955595 0.958674 1.00534 0.991489
0.943758 0.958506 0.992361 0.992193
0.824919 0.88904 0.947972 0.978801
0.935863 0.948079 1.00365 0.983521
0.938481 0.960376 0.984238 0.992851
0.934713 0.960189 0.990264 0.983039
1.00712 1 1.00808 0.999039
1.00005 1 1.00052 0.999524
1.00147 1 1.00232 0.999155
0.990977 0.980641 1.01207 0.998485
1.01502 1 1.01569 0.999344
1.00025 0.992537 1.009 0.998779
0.991076 0.99571 0.997329 0.998011
0.858539 0.922082 0.948672 0.981464
0.883192 0.913086 0.985733 0.981259
0.939291 0.960713 0.986678 0.990903
0.976232 0.979709 0.998272 0.998176
0.929521 0.951744 0.985075 0.991448
0.86215 0.907437 0.968132 0.981367
0.933781 0.955504 0.994464 0.982706
0.847368 0.901819 0.95847 0.980334
0.968484 0.986559 0.983254 0.998398
0.864209 0.916106 0.96192 0.980695
0.951592 0.977128 0.990694 0.983014
0.94894 0.966709 0.989164 0.992373
0.977639 0.993641 0.985083 0.998795
0.954058 0.981796 0.987736 0.983814
0.960858 0.98413 0.982586 0.993656
0.985056 0.999516 0.986641 0.998877
0.985963 1.00351 0.984322 0.998163
0.983836 1.00678 0.979104 0.998068
1.00386 1.00276 1.00356 0.997541
0.999807 1.00347 0.998648 0.9977
1.0156 1.02049 0.997032 0.998167
0.999485 1.00069 1.0017 0.997105
1.01159 1.01399 1 0.997632
1.02105 1.02338 0.999583 0.998141
1.00518 1.00809 1 0.997122
1.01532 1.01765 1 0.997705
1.0219 1.02387 1 0.998071
1.01941 1.0215 1 0.997955
1.02194 1.02424 1 0.997751
1.02132 1.02379 1 0.99759
1.01751 1.02026 1 0.997307
1.01888 1.0217 1 0.997234
1.01512 1.01782 1 0.997352
1.00571 1.00826 1 0.997471
1.00988 1.01269 1 0.997234
1.00854 1.0115 1 0.997071
0.998525 1.00047 1 0.998057
1.00116 1.00342 1 0.997743
1.00254 1.00495 1.00017 0.997427
0.998806 1 1 0.998806
0.998276 1 1 0.998276
0.999344 1.00134 1 0.99801
0.99988 1 1 0.99988
0.999475 1 1.00045 0.999024
0.999601 1 1.00111 0.99849
1 1 1 1
0.99995 1 1 0.99995
0.999786 1 1.00047 0.999314
1 1 1 1
0.999984 1 1 0.999984
1 1 1 1
0.998734 1 1 0.998734
0.998793 1 1 0.998792
0.998946 1 1 0.998946
0.998838 1 1 0.998836
0.999041 1 1 0.999041
0.999536 1 1 0.999536
0.999981 1 1 0.999981
0.999608 1 1 0.999608
0.99913 1 1 0.99913
1 1 1 1
0.99999 1 1 0.99999
0.999657 1 1 0.999657
1 1 1 1
0.999998 1 1 0.999998
1 1 1 1
0.866705 0.913072 0.967812 0.980788
0.870567 0.908092 0.979015 0.979226
0.934029 0.961124 0.982655 0.988962
0.998761 1 1.00005 0.998714
0.999858 1 1.00127 0.998594
0.998707 1 1 0.998707
0.99836 1 1 0.99836
0.999588 1 1.00103 0.998564
1.00063 1 1.00196 0.998674
1.00002 1 1.00141 0.998609
1.00093 1 1.00238 0.998547
0.998386 1 1 0.998386
0.997139 1.0004 0.997893 0.998847
0.998603 1.00034 1.00026 0.998011
0.999299 1 1.0002 0.999099
1.00018 1 1.00129 0.998889
0.946524 0.975486 0.986848 0.983241
0.842154 0.890945 0.96466 0.979864
0.835945 0.891547 0.960318 0.976379
0.822948 0.88992 0.94494 0.978626
0.941301 0.951712 1.00719 0.982
0.94668 0.956718 0.995389 0.994091
0.93971 0.959288 0.98544 0.994064
0.941201 0.961743 0.993968 0.984579
0.962791 0.984751 0.984515 0.993078
1.00047 1.00132 1.00092 0.998236
1.00567 1 1.00666 0.999017
0.999559 1 1.0001 0.999462
1.00101 0.994316 1.00804 0.998698
0.996669 0.999646 0.999085 0.997935
0.933153 0.973435 0.973719 0.984492
0.867698 0.921279 0.959819 0.981269
0.888094 0.913617 0.989777 0.982103
0.971811 0.987884 0.985882 0.997818
0.944375 0.962466 0.99051 0.990605
0.865133 0.913709 0.96567 0.980496
0.950442 0.97356 0.991684 0.98444
0.97843 0.993662 0.985832 0.998822
0.957234 0.985898 0.985709 0.985003
0.961678 0.983987 0.985435 0.991773
0.996754 1.00476 0.993766 0.998251
0.977778 0.995802 0.986225 0.995616
0.986513 1.00454 0.983883 0.998146
0.985311 1.00621 0.981169 0.998019
1.00497 1.0271 0.980203 0.998207
0.999389 1.00358 0.998123 0.997695
1.01507 1.02013 0.99688 0.998153
1.02258 1.03072 0.993731 0.998363
1.01159 1.01401 0.999985 0.997622
1.0208 1.02353 0.999212 0.998124
1.02001 1.02351 0.998304 0.998273
1.01484 1.01718 1 0.997704
1.02216 1.02422 0.999933 0.998054
1.02075 1.02269 1 0.998103
1.02005 1.0221 1 0.997999
1.01928 1.02153 1 0.997792
1.02234 1.02459 1 0.997799
1.02122 1.02369 1 0.997583
1.02037 1.02295 1 0.997479
1.01252 1.01514 1 0.997419
1.01736 1.02012 1 0.997298
1.01941 1.02223 1 0.99724
1.00038 1.00253 1 0.997852
1.00554 1.00806 1 0.997492
1.01044 1.01321 1 0.99727
0.998633 1 1 0.998633
0.998982 1.00093 1 0.998053
1.00154 1.00381 1 0.997736
0.999743 1 1 0.999743
0.998807 1 1 0.998807
0.998282 1.00001 1 0.998274
1 1 1 1
0.999858 1 1 0.999858
0.999401 1 1.00038 0.999024
1 1 1 1
0.999933 1 1 0.999933
1 1 1 1
0.998883 1.00051 1 0.998374
0.998733 1 1 0.998733
0.99881 1 1 0.99881
0.998819 1 1.00003 0.998785
0.998925 1 1 0.998925
0.999408 1 1 0.999408
0.999041 1 1 0.999041
0.999538 1 1 0.999538
0.999973 1 1 0.999973
1 1 1 1
0.999983 1 1 0.999983
0.999611 1 1 0.999611
1 1 1 1
0.999992 1 1 0.999992
1 1 1 1
0.953371 0.982392 0.984859 0.985377
0.859359 0.915332 0.956773 0.981267
0.881323 0.914271 0.984679 0.978961
1.00008 1 1.00153 0.998548
0.998749 1 1 0.998749
0.999536 1 1.00097 0.998571
0.998408 1.00003 1 0.998379
1.00167 1.00368 1.00002 0.997983
0.998435 1 1 0.998435
1.00088 1 1.0023 0.998581
0.998277 1 1 0.998277
0.998189 1.00019 0.99918 0.998814
0.998481 1.00026 1 0.998223
0.998992 1.00265 0.998161 0.998186
0.998093 1.00129 0.999193 0.997614
0.998413 1.00081 0.999472 0.998136
1.00043 1 1.00128 0.999151
0.961324 0.986185 0.981421 0.993245
0.949355 0.976864 0.98765 0.983992
0.837386 0.891769 0.95791 0.980276
0.953803 0.968292 1.00236 0.982712
0.939608 0.958301 0.985489 0.994931
0.966699 0.985474 0.985553 0.995328
0.993202 1.00377 0.991287 0.998171
0.998296 1.00067 0.999348 0.998279
1.00462 1 1.00563 0.998994
0.996801 1.00112 0.99784 0.997841
0.963966 0.981096 0.989202 0.993265
0.945803 0.977306 0.981403 0.986103
0.858532 0.916145 0.954953 0.981319
0.980298 0.994479 0.986878 0.998847
0.965974 0.986187 0.98626 0.993149
0.961079 0.985937 0.988429 0.986199
0.990523 1.00383 0.988456 0.998265
0.975399 0.993492 0.986755 0.994968
0.99671 1.0236 0.975647 0.998035
1.00551 1.01527 0.992729 0.997641
0.986488 1.00554 0.983054 0.997967
1.00466 1.02641 0.980576 0.998199
1.00853 1.0349 0.97623 0.998243
1.01474 1.0201 0.996604 0.998139
1.02228 1.03056 0.993605 0.998349
1.01545 1.02477 0.992669 0.998219
1.02047 1.0236 0.998833 0.998106
1.01944 1.02311 0.998151 0.998258
1.02124 1.02485 0.998412 0.998068
1.02237 1.02453 0.999858 0.998037
1.02009 1.02211 0.999929 0.998099
1.01948 1.02168 1 0.997841
1.02072 1.02272 1 0.998044
1.01923 1.02144 1 0.997828
1.02063 1.02311 1 0.997575
1.02117 1.02365 1 0.997576
1.02027 1.02286 1 0.99747
1.01607 1.0186 1 0.997509
1.00327 1.00558 1 0.997702
1.01215 1.01475 1 0.997438
1.0172 1.01996 1 0.997289
0.998458 1 1 0.998458
1.00127 1.00343 1 0.997852
1.0056 1.00811 1 0.997513
0.999596 1 1 0.999596
0.998632 1 1 0.998632
0.999469 1.00142 1 0.998048
1 1 1 1
0.999727 1 1 0.999727
0.998807 1 1 0.998807
1 1 1 1
0.999836 1 1 0.999836
1 1 1 1
1.00102 1.00299 1 0.998039
0.998638 1.00025 1 0.998386
0.998566 1 1 0.998566
0.998731 1 1 0.998731
0.998788 1 1 0.998788
0.999229 1 1 0.999229
0.998904 1 1 0.998904
0.99941 1 1 0.99941
0.999955 1 1 0.999955
0.99954 1 1 0.99954
0.999975 1 1 0.999975
1 1 1 1
1 1 1 1
0.999985 1 1 0.999985
1 1 1 1
0.962697 0.984519 0.984094 0.993639
0.949518 0.983178 0.98129 0.984178
0.852856 0.910752 0.954556 0.981012
1.0075 1.0098 1.00007 0.997659
0.999403 1 1.00083 0.998578
0.998455 1.00006 1 0.998397
0.998403 1 1 0.998403
1.00139 1.0033 1.00012 0.997972
1.00029 1.002 1 0.998293
0.998168 1 1 0.998168
0.999086 1 1.00031 0.998781
0.998619 1.00047 0.999892 0.998263
0.997617 1.00177 0.997693 0.998157
1.00128 1.00373 1 0.997564
1.00289 1.0058 0.999527 0.99758
0.999169 1.00195 0.999652 0.997567
0.998335 1.00134 0.99874 0.998261
0.994519 1.00619 0.98972 0.99867
0.960399 0.986525 0.981036 0.992336
0.953216 0.978331 0.989114 0.985052
0.960482 0.981501 0.984786 0.993703
0.997152 1.00583 0.992815 0.998548
0.999082 1.0002 1.00056 0.99832
0.997033 1.00668 0.992706 0.997692
0.95901 0.973905 0.990114 0.994537
0.938091 0.976561 0.975641 0.98459
0.983853 1.00219 0.983404 0.998274
0.979247 0.994776 0.990176 0.994156
0.998256 1.02459 0.976176 0.998075
1.0044 1.01388 0.992855 0.997784
1.00527 1.03141 0.97657 0.998043
1.02348 1.02932 0.996374 0.997946
1.00415 1.02537 0.981079 0.998191
1.01111 1.0361 0.977603 0.998241
1.00855 1.02928 0.981747 0.998081
1.02166 1.03005 0.99351 0.998334
1.01583 1.02489 0.992935 0.998216
1.02038 1.02685 0.995732 0.997958
1.0189 1.0227 0.998034 0.998242
1.0211 1.02445 0.998645 0.998081
1.02174 1.0241 0.999923 0.997768
1.01941 1.02149 0.999865 0.998095
1.01956 1.02177 1 0.997841
1.02237 1.02485 1 0.997584
1.01913 1.02131 1 0.997864
1.02068 1.02314 1 0.997598
1.01789 1.02045 1 0.997488
1.02014 1.02274 1 0.997461
1.01588 1.01844 1 0.997488
1.00612 1.00845 1 0.997687
0.998489 1.00016 1 0.998333
1.00362 1.0059 1 0.997727
1.01174 1.01432 1 0.997457
0.999464 1 1 0.999464
0.998478 1.00002 1 0.998458
1.0021 1.00426 1 0.997852
1 1 1 1
0.999583 1 1 0.999583
0.99863 1 1 0.99863
1 1 1 1
0.999712 1 1 0.999712
1 1 1 1
1.00283 1.00511 1 0.997725
1.00048 1.00243 1 0.998044
0.998787 1.0005 1 0.998293
0.998406 1 1.00001 0.998399
0.998572 1 1 0.998572
0.999117 1 1.00009 0.999026
0.998766 1 1 0.998766
0.999229 1 1 0.999229
0.999914 1 1 0.999914
0.999412 1 1 0.999412
0.999961 1 1 0.999961
1 1 1 1
0.999978 1 1 0.999978
1 1 1 1
1 1 1 1
0.997983 1.01055 0.988927 0.998625
0.956941 0.98248 0.981988 0.991871
0.947633 0.975598 0.985449 0.985678
1.00669 1.00882 1.00001 0.997878
1.01283 1.01538 1 0.997494
1.0064 1.00858 1.00013 0.997701
0.99837 1 1 0.99837
1.00107 1.00287 1.00024 0.99796
1.00104 1.00281 1 0.998238
1.00877 1.01116 1 0.997633
0.998674 1.00064 0.999736 0.998302
0.996178 1.00077 0.99728 0.998127
1.00206 1.00454 0.999895 0.997627
1.01093 1.01365 0.999998 0.997313
1.01042 1.01798 0.994671 0.997893
1.00313 1.00624 0.999354 0.997554
0.999924 1.00262 0.999786 0.99752
0.99874 1.00846 0.991554 0.998796
0.962971 0.98696 0.984277 0.991279
0.997498 1.00705 0.991576 0.998934
1.01445 1.02316 0.992964 0.998513
0.996053 1.00539 0.992918 0.997778
0.959006 0.978743 0.986945 0.992796
1.00041 1.02584 0.977056 0.998113
1.00256 1.01275 0.991987 0.997934
1.00457 1.0315 0.975733 0.998111
1.02516 1.03141 0.995978 0.997955
1.02067 1.03461 0.988541 0.997954
1.03697 1.04395 0.995241 0.998065
1.01389 1.03787 0.97862 0.998238
1.0101 1.02901 0.983506 0.998085
1.02344 1.03354 0.992346 0.997864
1.01631 1.02509 0.993214 0.998213
1.02061 1.02641 0.996392 0.997955
1.02552 1.02873 0.999148 0.997726
1.02093 1.02403 0.998877 0.998094
1.02207 1.02439 0.999969 0.997767
1.02497 1.02751 1 0.99753
1.01964 1.02185 1 0.997841
1.02222 1.0247 1 0.997585
1.02018 1.02279 1 0.997446
1.02074 1.02317 1 0.997622
1.01769 1.02025 1 0.997495
1.00756 1.00995 1 0.997633
1.01573 1.01831 1 0.997467
1.006 1.00835 1 0.997676
0.99886 1.0006 1 0.998259
0.999386 1 1 0.999386
0.998588 1.00026 1 0.998333
1.00399 1.00625 1 0.997753
1 1 1 1
0.999453 1 1 0.999453
0.998503 1.00005 1 0.998457
1 1 1 1
0.99957 1 1 0.99957
1 1 1 1
1.00578 1.0083 1 0.997501
1.00289 1.0052 1 0.997698
1.00033 1.00233 1 0.998001
0.999913 1.00187 1 0.998049
0.998649 1.00035 1 0.998298
0.998801 1 1 0.998801
0.998579 1 1 0.998579
0.999152 1 1.00013 0.999027
0.999827 1 1 0.999827
0.999229 1 1 0.999229
0.999927 1 1 0.999927
1 1 1 1
0.999967 1 1 0.999967
1 1 1 1
1 1 1 1
1.00989 1.02322 0.988605 0.998346
0.995157 1.00952 0.987513 0.998237
0.954946 0.983305 0.978326 0.992675
1.01523 1.0177 1 0.997568
1.00674 1.00871 1 0.99804
1.02384 1.02649 1 0.997419
1.01311 1.01567 1 0.99748
1.00543 1.00752 1.00018 0.997745
1.02186 1.02461 1 0.997313
1.00183 1.00365 1 0.998183
1.00782 1.01027 1 0.997575
1.02697 1.03092 0.998671 0.997496
1.00272 1.00522 0.999827 0.997691
1.01201 1.01477 0.999996 0.99728
1.01023 1.01757 0.994872 0.997909
1.00287 1.00589 0.999478 0.997525
1.00274 1.01033 0.993554 0.998922
1.0294 1.03925 0.992378 0.998137
1.01434 1.02315 0.992865 0.998517
0.996148 1.00409 0.994219 0.997859
1.00404 1.03116 0.975477 0.99818
1.02574 1.03269 0.995293 0.997964
1.01926 1.03484 0.986944 0.99797
1.03703 1.04488 0.994405 0.998066
1.03371 1.04331 0.99282 0.997964
1.0114 1.02851 0.985247 0.998088
1.02327 1.03309 0.992607 0.997872
1.02891 1.03511 0.996258 0.997736
1.02082 1.02599 0.997006 0.997952
1.02515 1.02813 0.999395 0.997708
1.02719 1.02979 1 0.997475
1.02247 1.02476 1 0.997765
1.02472 1.02726 1 0.997529
1.0232 1.02589 1 0.99738
1.0221 1.02457 1 0.997586
1.02016 1.02277 1 0.997448
1.00936 1.01184 1 0.997548
1.0175 1.02005 1 0.997502
1.0077 1.01009 1 0.997636
0.999359 1.00118 1 0.998183
1.00586 1.00822 1 0.997665
0.999008 1.00075 1 0.998257
0.999456 1 1 0.999456
0.999831 1 1 0.999831
0.999422 1 1 0.999422
0.998684 1.00035 1 0.998332
1 1 1 1
0.999442 1 1 0.999442
1 1 1 1
1.0302 1.03282 1 0.997467
1.01596 1.01854 1 0.99747
1.00665 1.00919 1 0.997488
1.00351 1.00571 1 0.997814
1.00287 1.00521 1 0.997672
0.999716 1.00171 1 0.998004
0.998587 1 1 0.998587
0.998526 1.00022 1 0.998303
0.998882 1 1.00008 0.998805
0.999681 1 1 0.999681
0.99909 1 1.00006 0.999028
0.999846 1 1 0.999846
1 1 1 1
0.99994 1 1 0.99994
1 1 1 1
1 1 1 1
1.02975 1.03792 0.994232 0.99789
1.0134 1.02659 0.988707 0.998429
0.992827 1.00962 0.985488 0.99785
1.02488 1.0276 1 0.997358
1.01467 1.01707 1 0.997636
1.00664 1.00845 1 0.9982
1.02341 1.02604 1 0.997438
1.01337 1.01595 1 0.997466
1.03249 1.03558 0.999545 0.997477
1.01953 1.02231 1 0.997274
1.00701 1.00952 1 0.997516
1.02636 1.03016 0.998812 0.99749
1.01407 1.01687 1 0.997247
1.01213 1.01956 0.994777 0.997931
1.03563 1.044 0.993918 0.998055
1.03129 1.0405 0.992988 0.998151
1.01482 1.02318 0.99329 0.998523
1.01868 1.03588 0.985382 0.997985
1.03789 1.04638 0.993808 0.998068
1.03388 1.04412 0.992199 0.997976
1.03197 1.03868 0.99573 0.997804
1.02296 1.03251 0.992852 0.99788
1.0285 1.03437 0.996594 0.997727
1.02955 1.03224 0.999904 0.997482
1.02477 1.02749 0.999666 0.997689
1.02782 1.03042 1 0.997476
1.02627 1.02902 1 0.997323
1.02442 1.02696 1 0.997527
1.0233 1.02599 1 0.997381
1.01128 1.01386 1 0.997455
1.02013 1.02274 1 0.99745
1.00959 1.01207 1 0.997549
0.999829 1.00175 1 0.998084
1.00784 1.01022 1 0.997639
0.999504 1.00133 1 0.998181
0.999455 1 1 0.999455
0.999153 1.0009 1 0.998255
0.999451 1 1 0.999451
0.999842 1 1 0.999842
0.999918 1 1 0.999918
0.999459 1 1 0.999459
1 1 1 1
1.029 1.03172 1 0.99736
1.02153 1.02409 1 0.997497
1.02994 1.03245 1 0.997569
1.007 1.00933 1 0.99769
1.01747 1.02006 1 0.997462
1.00763 1.01018 1 0.997474
1.00253 1.00472 1 0.997812
0.998888 1.00048 1 0.998408
0.999129 1.00112 1 0.998008
0.998588 1 1 0.998588
0.999522 1 1 0.999522
0.999059 1 1.00025 0.998808
0.9997 1 1 0.9997
1 1 1 1
0.999864 1 1 0.999864
1 1 1 1
1 1 1 1
1.03436 1.03982 0.996965 0.997773
1.02954 1.03765 0.994288 0.997887
1.01522 1.02846 0.988603 0.998506
1.03219 1.03487 1 0.997402
1.0238 1.02651 1 0.99736
1.01425 1.01659 1 0.997704
1.02285 1.02545 1 0.997458
1.03209 1.0352 0.999533 0.997456
1.01719 1.02001 1 0.997234
1.02423 1.02787 0.998974 0.997484
1.034 1.04027 0.9961 0.997865
1.03503 1.04307 0.99427 0.998016
1.03315 1.04179 0.993524 0.998165
1.03233 1.03717 0.99764 0.99769
1.03388 1.04473 0.99161 0.997988
1.03172 1.03846 0.995707 0.997791
1.0311 1.03409 0.999543 0.997569
1.02816 1.03368 0.996943 0.997717
1.03065 1.03342 0.999841 0.997484
1.02747 1.03025 1 0.997297
1.02844 1.03105 1 0.997476
1.02599 1.02874 1 0.997324
1.01304 1.0157 1 0.99738
1.02337 1.02605 1 0.997381
1.01154 1.01412 1 0.997456
1.00027 1.00229 1 0.997983
1.00981 1.01229 1 0.997551
0.999978 1.0019 1 0.998082
0.999433 1 1 0.999433
0.999655 1.00148 1 0.998179
0.999448 1 1 0.999448
0.999845 1 1 0.999845
0.999449 1 1 0.999449
0.999845 1 1 0.999845
1 1 1 1
1.02959 1.03242 1 0.997262
1.02314 1.02585 1 0.997353
1.02968 1.03239 1 0.997376
1.00921 1.01156 1 0.997671
1.02183 1.02439 1 0.997505
1.02977 1.03218 1 0.99767
0.999689 1.00144 1 0.998254
1.00663 1.00896 1 0.997685
1.01908 1.02168 1 0.997453
1.00142 1.00362 1 0.99781
0.998687 1.00028 1 0.998409
0.999409 1 1 0.999409
0.99859 1 1 0.99859
0.999535 1 1 0.999535
1 1 1 1
0.999718 1 1 0.999718
1 1 1 1
1 1 1 1
1.03434 1.03783 0.999007 0.997627
1.03429 1.04017 0.996579 0.997758
1.03 1.03807 0.994324 0.997883
1.03164 1.03431 1 0.997411
1.02265 1.02536 1 0.997363
1.03156 1.03472 0.999516 0.997435
1.03267 1.0368 0.998318 0.997695
1.03419 1.04029 0.996265 0.997858
1.03441 1.04213 0.9946 0.997978
1.03295 1.03775 0.997668 0.997709
1.03182 1.03467 0.999736 0.997514
1.03146 1.03825 0.995673 0.997778
1.03152 1.03444 0.999642 0.997534
1.02718 1.02992 1 0.997347
1.03169 1.03452 0.99978 0.997487
1.02707 1.02985 1 0.9973
1.01439 1.01711 1 0.997322
1.02584 1.02859 1 0.997325
1.01341 1.01607 1 0.99738
1.00062 1.00272 1 0.997906
1.01188 1.01446 1 0.997457
1.0004 1.00242 1 0.997983
0.999387 1 1 0.999387
1.00013 1.00206 1 0.998081
0.999422 1 1 0.999422
0.999831 1 1 0.999831
0.999443 1 1 0.999443
0.999854 1 1 0.999854
0.999845 1 1 0.999845
1.03134 1.03397 1 0.997455
1.02536 1.02821 1 0.997225
1.03002 1.03283 1 0.997278
1.01176 1.01427 1 0.997524
1.02278 1.02549 1 0.997355
1.03032 1.03301 1 0.997393
1.00026 1.00212 1 0.998139
1.00924 1.01164 1 0.997626
1.02199 1.02454 1 0.997512
0.999353 1 1 0.999353
0.999419 1.00116 1 0.998256
1.00631 1.00866 1 0.997679
0.9985 1.00009 1 0.998411
0.999419 1 1 0.999419
1 1 1 1
0.999549 1 1 0.999549
1 1 1 1
1 1 1 1
1.03135 1.03453 0.999327 0.997596
1.03346 1.03725 0.998714 0.997624
1.03425 1.04054 0.996207 0.997743
1.03107 1.03373 1 0.997419
1.03154 1.03419 0.99996 0.997477
1.03347 1.03775 0.998163 0.997704
1.03433 1.04025 0.99645 0.99785
1.03359 1.03835 0.997679 0.997729
1.03109 1.03416 0.999508 0.997525
1.02702 1.02974 1 0.997357
1.03203 1.0349 0.999728 0.997499
1.02692 1.02967 1 0.997326
1.0152 1.01795 1 0.997303
1.02666 1.02943 1 0.997303
1.01458 1.01731 1 0.997324
1.00075 1.00292 1 0.997838
1.01364 1.01631 1 0.997381
1.00066 1.00276 1 0.997906
0.999244 1 1 0.999244
1.0005 1.00252 1 0.997982
0.999334 1 1 0.999334
1 1 1 1
0.999411 1 1 0.999411
0.999844 1 1 0.999844
0.999858 1 1 0.999858
1.02991 1.03247 1 0.997519
1.02638 1.02916 1 0.997299
1.03093 1.03356 1 0.997451
1.01426 1.01697 1 0.997343
1.02533 1.02816 1 0.997246
1.03053 1.03333 1 0.997295
1.00078 1.00283 1 0.997949
1.01186 1.01438 1 0.997523
1.02249 1.0252 1 0.997357
0.99933 1 1 0.99933
1.00008 1.00199 1 0.998096
1.00928 1.01173 1 0.997581
1 1 1 1
0.999363 1 1 0.999363
0.999122 1.00086 1 0.998259
0.99943 1 1 0.99943
1 1 1 1
1 1 1 1
1.02994 1.03253 1 0.997489
1.03186 1.035 0.999364 0.997603
1.03256 1.03667 0.998415 0.997621
1.02773 1.03051 1 0.997303
1.03055 1.03322 0.999931 0.997485
1.03421 1.03864 0.998008 0.997714
1.03038 1.03364 0.999301 0.997536
1.02704 1.02976 1 0.997358
1.01468 1.01737 1 0.997359
1.02656 1.02934 1 0.997305
1.01514 1.01786 1 0.99733
1.00082 1.00312 1 0.997709
1.01485 1.01757 1 0.997326
1.00083 1.003 1 0.997839
0.999193 1 1 0.999193
1.00075 1.00286 1 0.997905
0.999242 1 1 0.999242
1 1 1 1
0.999273 1 1 0.999273
0.999909 1 1 0.999909
0.999854 1 1 0.999854
1.02758 1.03018 1 0.997477
1.02659 1.02932 1 0.997347
1.02971 1.03227 1 0.997523
1.01524 1.01795 1 0.997346
1.02692 1.02971 1 0.99729
1.03053 1.03317 1 0.997447
1.0014 1.00357 1 0.997844
1.01421 1.01686 1 0.997386
1.02524 1.02805 1 0.997268
0.999304 1 1 0.999304
1.00074 1.00281 1 0.997935
1.01196 1.01447 1 0.997522
1 1 1 1
0.999339 1 1 0.999339
0.999913 1.00186 1 0.998054
1 1 1 1
0.999374 1 1 0.999374
1 1 1 1
1.02827 1.031 1 0.997347
1.02932 1.03193 0.999991 0.997479
1.03244 1.03555 0.999393 0.997611
1.01377 1.01646 1 0.997347
1.02778 1.03054 1 0.99732
1.02963 1.03233 0.999886 0.997493
1.02705 1.02977 1 0.997358
1.01474 1.01742 1 0.997358
1.00038 1.00272 1 0.997674
1.01511 1.01779 1 0.997358
1.00083 1.00309 1 0.997744
0.999129 1 1 0.999129
1.00086 1.00303 1 0.997839
0.999189 1 1 0.999189
1 1 1 1
0.999239 1 1 0.999239
1 1 1 1
0.999836 1 1 0.999836
1.02701 1.02972 1 0.997369
1.02752 1.0301 1 0.997492
1.01486 1.01754 1 0.997359
1.02672 1.02945 1 0.997346
1.02951 1.03206 1 0.997526
1.00133 1.00347 1 0.997867
1.01504 1.01774 1 0.997343
1.02744 1.03024 1 0.997281
0.999258 1 1 0.999258
1.00147 1.0036 1 0.997873
1.01413 1.01674 1 0.997429
1 1 1 1
0.999309 1 1 0.999309
1.00071 1.0028 1 0.997921
1 1 1 1
0.999348 1 1 0.999348
1 1 1 1
1.01367 1.01633 1 0.997383
1.02817 1.03091 1 0.997339
1.02861 1.03122 0.999996 0.997469
0.99959 1.00192 1 0.997677
1.01381 1.01651 1 0.997347
1.0278 1.03055 1 0.997337
1.01479 1.01748 1 0.997358
1.00038 1.00271 1 0.997676
0.999082 1 1 0.999082
1.00086 1.00308 1 0.997779
0.999125 1 1 0.999125
1 1 1 1
0.999186 1 1 0.999186
1 1 1 1
1 1 1 1
1.01423 1.01692 1 0.997358
1.02669 1.02938 1 0.997386
1.02746 1.03002 1 0.997507
1.00076 1.00292 1 0.997845
1.01482 1.01751 1 0.997357
1.02682 1.02955 1 0.997345
0.999208 1 1 0.999208
1.00143 1.00358 1 0.997865
1.01488 1.01758 1 0.99734
1 1 1 1
0.999261 1 1 0.999261
1.00154 1.00364 1 0.997902
1 1 1 1
0.999315 1 1 0.999315
1 1 1 1
0.999315 1.00155 1 0.997767
1.01358 1.01628 1 0.997346
1.0281 1.03085 1 0.997332
0.999081 1 1 0.999081
0.999622 1.00195 1 0.997675
1.01386 1.01655 1 0.997347
1.00038 1.00271 1 0.997678
0.999082 1 1 0.999082
1 1 1 1
0.999122 1 1 0.999122
1 1 1 1
1 1 1 1
0.99988 1.00207 1 0.997811
1.01398 1.01667 1 0.997358
1.02642 1.02909 1 0.997402
0.99929 1 1 0.99929
1.00096 1.00312 1 0.997843
1.01479 1.01748 1 0.997354
1 1 1 1
0.999209 1 1 0.999209
1.00152 1.00366 1 0.997863
1 1 1 1
0.999265 1 1 0.999265
1 1 1 1
0.999081 1 1 0.999081
0.999426 1.00169 1 0.997736
1.0135 1.01624 1 0.99731
1 1 1 1
0.999081 1 1 0.999081
0.999651 1.00198 1 0.997673
0.99908 1 1 0.99908
1 1 1 1
1 1 1 1
0.999243 1 1 0.999243
1.00015 1.00235 1 0.997811
1.0137 1.01639 1 0.997357
1 1 1 1
0.999169 1 1 0.999169
1.00117 1.00334 1 0.997842
1 1 1 1
0.999211 1 1 0.999211
1 1 1 1
0.999756 1 1 0.999756
0.999163 1 1 0.999163
0.999529 1.00183 1 0.997705
1 1 1 1
0.999082 1 1 0.999082
1 1 1 1
0.999773 1 1 0.999773
0.999191 1 1 0.999191
1.00043 1.00263 1 0.997811
0.999889 1 1 0.999889
0.999168 1 1 0.999168
1 1 1 1
1 1 1 1
0.999103 1 1 0.999103
1 1 1 1
0.999883 1 1 0.999883
0.999134 1 1 0.999134
1 1 1 1
1 1 1 1
1 1 1 1

VECTORS lamdaE float
1.00038 1.00014 0.994859
1.00017 1.00046 0.99754
1.00004 1.00035 0.995058
1.00063 0.999943 0.994679
1.00047 0.999948 0.994921
1.00033 1.00033 0.994706
1.00165 1.00048 0.991999
1.00019 1.00037 0.997541
1.00008 1.00021 0.997857
0.999666 1.00076 0.99789
1.00018 1.0004 0.994873
1.00145 1.00124 0.990967
1.00044 1 0.994797
1.00016 0.999995 0.995031
0.999733 1.00058 0.99523
1.00039 0.999921 0.994925
0.999965 1.00065 0.994882
1.00019 1.00002 0.995135
1.00183 1.00031 0.991913
1.00044 1 0.997473
1.00064 1 0.994592
1.00058 0.999887 0.994835
1.00198 1.00001 0.991924
1.00182 1.00011 0.992076
1.00033 1.00033 0.994654
1.00143 1.00101 0.991826
1.00437 1.00027 0.987616
1.00019 1.00032 0.997558
1.00024 1.0001 0.996346
0.999919 1.00057 0.996354
1.00018 1.00018 0.997631
1.00136 1.00138 0.990967
1.00052 0.999845 0.994767
1.00024 1.00037 0.994827
1.0021 1.00015 0.992316
0.99966 0.999676 0.998283
1.00176 1.00085 0.992277
1.00112 1.00171 0.99105
1.00352 1.00167 0.986947
0.999745 0.998563 0.998645
1.00045 1.00001 0.997456
1.00033 1.00001 0.996239
1.00041 0.999992 0.997478
1.00009 1.00004 0.995116
1.00207 1.00001 0.991143
1.00025 0.999966 0.997769
1.00225 1.0001 0.992146
1.00014 0.99986 0.995171
0.99993 1.00008 0.995335
0.999613 1.00101 0.995043
1.00199 1.00013 0.99184
1.00031 1.00002 0.996266
1.00038 1.00001 0.994844
0.999952 1.00071 0.994817
1.00033 0.999872 0.995066
1.00208 0.999971 0.991819
1.00164 1.00079 0.991744
1.00196 1.00001 0.991988
1.00435 1.00029 0.987613
1.00038 1 0.997492
1.00057 1.00003 0.99467
1.00189 1 0.992679
1.00199 1.00004 0.991879
1.00193 0.99998 0.992027
1.00447 0.999974 0.987639
1.00444 0.999982 0.987522
1.00012 0.999916 0.995135
1.00095 1.00176 0.991816
1.00415 1.00072 0.987541
1.00519 1.00009 0.985619
1.00044 1.00013 0.997521
1.00006 0.999973 0.997826
1.00017 1.00041 0.997541
1.00129 1.00148 0.99096
1.00055 0.999976 0.997479
1.00033 1.00032 0.997535
1.00198 1.00011 0.991093
0.999796 0.999731 0.996961
1.00154 1.00092 0.991074
1.00102 1.00177 0.991875
1.00359 1.00156 0.986932
0.999913 0.999052 0.99831
0.999801 1.00062 0.994537
1.00218 0.999988 0.990949
1.00192 1.00038 0.991047
1.00449 1.00022 0.986715
1.00059 1.00172 0.993352
1.00394 1.00094 0.986955
1.00259 1.00325 0.987002
1.00478 1.00134 0.985073
0.999645 0.998086 0.998918
0.999651 0.998466 0.998761
1.00054 0.999993 0.997432
1.00048 1 0.997452
1.00044 0.999995 0.997478
1.00029 1.00001 0.996288
1.0021 0.999999 0.991786
1.00039 0.999974 0.99624
1.00219 1.00011 0.991541
1.00043 0.999991 0.997487
1.00198 0.999933 0.991332
1.0022 1.00009 0.992252
1.00449 0.999661 0.987298
1.00223 1.00002 0.992208
1.00455 0.999872 0.986993
1.00041 1.00001 0.99484
1.00011 1 0.9951
0.999582 1.00111 0.994986
1.00008 0.999834 0.995293
1.00219 0.999973 0.991714
1.00209 0.999927 0.991906
1.00184 1.00053 0.991671
1.00434 1.00031 0.987611
1.00043 0.999995 0.997489
1.0003 1.00003 0.994923
1.00202 0.999977 0.991594
1.00209 1.00002 0.991764
0.999986 1.00023 0.996408
1.00123 1.0016 0.991958
1.00204 0.999927 0.991933
1.00449 0.999949 0.987577
1.00413 1.00076 0.987541
1.00444 1.00006 0.987576
1.00517 1.0001 0.985643
1.00196 0.999965 0.991351
1.00191 1.00002 0.991987
1.00442 0.999631 0.987894
1.00447 0.999856 0.98759
1.00447 0.999894 0.987541
1.00522 0.999539 0.986389
0.999802 0.999667 0.998159
1.00521 0.999865 0.985823
1.00045 1.00227 0.991484
1.00353 1.00156 0.987015
1.00511 1.00046 0.985435
1.00522 0.999725 0.985899
0.999937 1.00166 0.993069
1.0003 1.00461 0.98963
1.00053 1 0.997499
1.00028 1.00031 0.997541
1.002 1.00009 0.991087
0.999887 0.999418 0.998204
1.00074 1.00206 0.991274
1.00149 1.00095 0.991085
1.00367 1.00145 0.986918
0.999806 0.998975 0.998436
0.999771 1.00054 0.994593
1.00219 1.00002 0.991615
1.00191 1.00041 0.991692
1.00448 1.00022 0.986707
1.00032 1.00181 0.992383
1.00396 1.00092 0.98696
1.00264 1.00319 0.986989
1.00478 1.00126 0.98506
1.00003 1.0013 0.993462
0.999782 0.999793 0.995382
1.00035 1.00383 0.990509
1.00455 1.00009 0.986747
1.0043 1.00047 0.986772
1.00518 1.0001 0.985635
1.00161 1.00426 0.987778
1.00487 1.00074 0.98538
1.00422 1.00264 0.98494
1.00511 1.00115 0.984783
0.999652 0.997748 0.999058
0.999609 0.998014 0.998978
0.999587 0.998345 0.998859
0.999847 1.00112 0.993774
0.999717 0.99926 0.998388
1.00058 0.999976 0.997452
1.00049 1 0.997435
1.00209 1.00013 0.990951
1.00201 1 0.991206
1.00041 0.999998 0.997478
1.0004 0.999994 0.997484
1.00197 0.999941 0.991329
1.00213 1.00008 0.991646
1.00448 0.99966 0.987299
1.00213 1.00005 0.990938
1.00454 0.999871 0.986988
1.00195 0.999933 0.991367
1.00446 0.9996 0.987398
1.00452 0.999752 0.987158
1.00522 0.998764 0.987017
1.00457 0.999983 0.986841
1.00523 0.999206 0.986548
1.0004 0.999993 0.997482
1.00004 1.00005 0.995176
1.00203 0.999971 0.990616
1.00219 1.00002 0.991646
0.999552 1.00058 0.997989
1.00158 1.00131 0.9921
1.00215 0.999899 0.99184
1.0045 0.999908 0.987514
1.00443 1.00012 0.98763
1.0041 1.00081 0.987541
1.00515 1.00011 0.985667
1.00195 0.99995 0.991352
1.00203 1.00002 0.991867
1.00445 0.999612 0.987576
1.00449 0.999903 0.987611
0.999865 0.999755 0.99806
1.0007 1.00204 0.992125
1.00343 1.0018 0.987269
1.00447 0.999928 0.987515
1.00522 0.999387 0.986455
1.00508 1.00048 0.985422
1.0052 0.99991 0.985919
1.00523 0.999715 0.985929
1 1.00165 0.993052
1.00039 1.00443 0.989648
1.00443 0.999622 0.987429
1.00445 0.999767 0.987743
1.00522 0.998972 0.986961
1.00521 0.999066 0.98672
1.00522 0.999557 0.986333
1.00523 0.99829 0.987453
1.00014 1.00207 0.992275
1.00522 0.9991 0.986553
1.00231 1.00335 0.987322
1.00487 1.00105 0.985067
1.00523 1.00047 0.985327
1.00517 0.998713 0.987105
1.00076 1.00464 0.988823
1.00023 1.00388 0.990501
1.00113 1.00473 0.988293
1.00209 1 0.991021
0.999695 0.998873 0.998569
0.999754 1.00042 0.994648
1.00178 1.00045 0.991105
1.00448 1.00023 0.986699
1.00022 1.00191 0.992296
1.00265 1.00313 0.986976
1.00397 1.0009 0.986965
1.00476 1.00118 0.985048
0.99998 1.00127 0.993489
0.99979 0.999665 0.995425
1.00018 1.00392 0.990502
1.00454 1.0001 0.986734
1.00431 1.00046 0.986772
1.00519 1.00011 0.985616
1.00153 1.00433 0.987803
1.00493 1.00075 0.985381
1.00417 1.00261 0.984929
1.0051 1.00104 0.984758
0.999883 0.999124 0.995833
1.00096 1.00415 0.989016
1.00011 1.0027 0.991936
1.00063 1.00475 0.989101
1.00521 0.999792 0.985923
1.00508 1.00039 0.985454
1.0052 0.999403 0.9863
1.00288 1.00401 0.986044
1.00517 1.00042 0.985406
1.0047 1.00199 0.984528
1.00524 1.00089 0.984673
1.00028 1.00054 0.993762
1.00012 0.998459 0.996072
0.999715 0.997506 0.999105
0.999641 0.997706 0.999075
0.999583 0.997945 0.999021
0.999848 1.00048 0.994454
0.999673 0.998835 0.998585
0.999884 1.00117 0.993747
0.999788 0.999316 0.998309
1.00212 1.00008 0.990934
1.00206 1.00006 0.991059
1.00454 0.99987 0.986983
1.00447 0.999661 0.987301
1.00198 0.999951 0.991329
1.00043 0.999993 0.99748
1.00196 0.999935 0.991368
1.00446 0.999607 0.987399
1.00451 0.999757 0.987155
1.00521 0.998774 0.987015
1.00456 0.999993 0.986829
1.00523 0.999209 0.986535
1.00444 0.999603 0.987435
1.00522 0.998655 0.987126
1.00522 0.998958 0.986819
1.00521 0.997067 0.988774
1.00523 0.999485 0.986235
1.00521 0.99784 0.987951
1.00196 0.999939 0.991355
1.00215 0.999995 0.991746
1.00447 0.999579 0.98726
1.00451 0.999942 0.987633
0.999952 0.99986 0.997947
1.00095 1.0019 0.992631
1.00344 1.00197 0.987521
1.00448 0.999949 0.98749
1.00522 0.999231 0.986521
1.00519 0.999956 0.986014
1.00505 1.0005 0.985408
1.00523 0.999704 0.985958
1.00006 1.00163 0.993033
1.00047 1.0043 0.989665
1.00444 0.999557 0.987407
1.00447 0.99975 0.987726
1.00522 0.998833 0.987122
1.00521 0.999225 0.986625
1.00023 1.00203 0.992262
1.00238 1.00331 0.987327
1.00484 1.00111 0.985115
1.00522 0.999653 0.986249
1.00523 0.998084 0.987692
1.00523 1.00044 0.985352
1.00522 0.999094 0.986572
1.00518 0.998663 0.987093
1.00086 1.00448 0.988818
1.00098 1.00464 0.988313
1.00027 1.00381 0.990504
1.00522 0.998831 0.987102
1.00522 0.998927 0.987041
1.00523 0.997278 0.988488
1.00521 0.997775 0.987984
1.00522 0.998379 0.987274
1.00517 0.996599 0.989128
1.00138 1.0043 0.988058
1.00518 0.997709 0.987892
1.00393 1.00259 0.985367
1.00519 1.00121 0.984419
1.00519 0.999937 0.985835
1.00512 0.997784 0.988037
1.0002 1.00303 0.991405
1.00164 1.0041 0.987825
1.00052 1.00504 0.988708
1.00196 1.00382 0.98791
1.00453 1.00011 0.98672
0.999799 0.999561 0.995466
0.999908 1.00126 0.993517
1.00005 1.00405 0.990496
1.00433 1.00045 0.986772
1.0052 1.00011 0.985597
1.00145 1.0044 0.987829
1.00413 1.00261 0.984916
1.005 1.00076 0.985381
1.00508 1.00093 0.984733
0.999901 0.999046 0.995855
1.00084 1.00433 0.98903
1.00007 1.00269 0.991961
1.00049 1.00491 0.989062
1.00521 0.999801 0.985908
1.00512 1.00038 0.985431
1.00519 0.999404 0.986291
1.0028 1.00393 0.98607
1.00518 1.00047 0.985373
1.00481 1.00178 0.984536
1.00525 1.00091 0.984673
1.00003 0.998676 0.996005
1.00024 1.00152 0.992875
1.00153 1.00447 0.98783
1.00028 1.00439 0.990186
1.00126 1.00417 0.988682
1.0052 0.9989 0.986834
1.00519 0.999901 0.985777
1.00514 0.998534 0.987144
1.00361 1.0029 0.985541
1.00518 1.00006 0.98571
1.00461 1.00185 0.984351
1.0003 1.00061 0.993657
1.00028 1.00193 0.992416
1.00022 1.00058 0.993842
1.00027 1.00056 0.993759
1.00014 0.998282 0.996711
1.00011 0.998442 0.996374
0.999873 0.997315 0.997942
0.999721 0.997468 0.999108
0.999636 0.997658 0.99909
0.999836 0.999843 0.995129
0.999665 0.998403 0.998787
0.999855 1.00054 0.994432
0.999732 0.998914 0.998517
0.999937 1.00118 0.993719
0.999847 0.99938 0.998228
1.00455 0.999999 0.986816
1.00451 0.99976 0.987153
1.00523 0.999226 0.986522
1.00521 0.998783 0.987013
1.00445 0.999614 0.9874
1.00195 0.999935 0.991366
1.00444 0.999602 0.987437
1.00522 0.998659 0.987125
1.00522 0.998973 0.98681
1.00521 0.996905 0.988927
1.00523 0.999495 0.986223
1.00521 0.997854 0.987933
1.00522 0.998638 0.987143
1.00522 0.996635 0.989229
1.0052 0.997351 0.988471
1.00515 0.995585 0.990248
1.00521 0.998395 0.987378
1.0052 0.996163 0.989409
1.00444 0.999494 0.987386
1.00449 0.999746 0.987709
1.00522 0.998709 0.987284
1.00521 0.999386 0.98653
1.00034 1.002 0.99225
1.00234 1.00331 0.987334
1.0048 1.00117 0.985162
1.00522 0.99975 0.986165
1.00523 0.997877 0.98793
1.00522 0.999088 0.986591
1.00523 1.0004 0.985376
1.00518 0.998615 0.98708
1.00097 1.00431 0.988811
1.00094 1.0046 0.988334
1.00031 1.00369 0.990508
1.00522 0.99877 0.987101
1.00522 0.998928 0.987032
1.00523 0.997026 0.988781
1.00521 0.997881 0.98788
1.00143 1.00426 0.988031
1.00395 1.00257 0.985369
1.00517 1.0013 0.984431
1.00522 0.998586 0.987071
1.00518 0.996389 0.989338
1.00519 0.999933 0.985762
1.00518 0.997728 0.987901
1.00513 0.997655 0.988161
1.00176 1.00406 0.98781
1.00189 1.00386 0.987885
1.00024 1.00297 0.991396
1.00044 1.00496 0.988811
1.00523 0.996924 0.9889
1.00522 0.997489 0.988365
1.00518 0.99575 0.990031
1.00518 0.995756 0.989877
1.00517 0.996912 0.98872
1.00516 0.995747 0.990026
1.00275 1.00352 0.986553
1.00514 0.996341 0.98913
1.00469 1.00233 0.984287
1.00516 1.00133 0.984357
1.00516 0.999435 0.986126
1.00515 0.997409 0.988337
1.00014 1.00218 0.99229
1.00024 1.00472 0.989501
1.00251 1.00331 0.987155
1.0008 1.00504 0.988402
1.00233 1.00305 0.988122
0.999912 0.99898 0.995876
1.00522 0.999809 0.985892
1.00003 1.00265 0.991987
1.00069 1.00452 0.989043
1.00037 1.00499 0.989023
1.00516 1.00038 0.985409
1.00519 0.999404 0.986281
1.00284 1.00372 0.986096
1.00496 1.00158 0.984548
1.0052 1.00053 0.98534
1.00526 1.00095 0.984675
1.00004 0.998652 0.996018
1.0002 1.00154 0.992903
1.00155 1.00438 0.987847
1.00013 1.00437 0.990175
1.00106 1.00412 0.988702
1.0052 0.998893 0.986822
1.00519 0.999898 0.985758
1.00514 0.998506 0.987116
1.00368 1.00287 0.985563
1.0052 1.00009 0.985577
1.00491 1.00178 0.984326
1.00031 1.00089 0.993406
1.00024 1.00317 0.991383
1.00235 1.00325 0.987572
1.00044 1.00493 0.989482
1.0016 1.00301 0.989203
1.00516 0.997833 0.987849
1.00515 0.999206 0.986412
1.00513 0.997803 0.987516
1.00356 1.00207 0.9862
1.00497 1.001 0.984755
1.0003 1.00061 0.993654
1.00028 1.00188 0.992373
1.0002 1.00201 0.992373
1.00032 1.00254 0.991897
1.00021 1.00203 0.992433
1.00014 1.00066 0.993879
1.00021 1.00058 0.993843
1.00015 0.998235 0.996739
1.00026 1.00058 0.993757
1.00014 0.998309 0.996715
0.999965 0.997096 0.997972
1.0001 0.998441 0.996671
0.999834 0.997277 0.998533
0.999731 0.997414 0.999111
0.999879 0.999191 0.995712
0.999832 0.99991 0.9951
0.999654 0.997979 0.998966
0.999703 0.998492 0.998711
0.999859 1.00063 0.99441
0.999793 0.998968 0.998443
1.00523 0.999504 0.986212
1.00521 0.998975 0.9868
1.00522 0.997861 0.987916
1.00521 0.996738 0.98908
1.00522 0.998663 0.987125
1.00444 0.999603 0.987438
1.00522 0.99864 0.987144
1.00523 0.996618 0.989239
1.00521 0.997358 0.98846
1.00516 0.995432 0.990391
1.00521 0.998387 0.987358
1.00519 0.996082 0.989526
1.00522 0.996633 0.98923
1.00516 0.995411 0.990443
1.00518 0.995485 0.990213
1.00516 0.994965 0.990796
1.00518 0.997015 0.988664
1.00518 0.995329 0.990251
1.00522 0.998705 0.987099
1.00522 0.998937 0.987024
1.00522 0.996765 0.989074
1.00521 0.997983 0.987777
1.00149 1.00425 0.988005
1.00399 1.00254 0.98537
1.00511 1.00133 0.984442
1.00522 0.998796 0.986869
1.00519 0.996184 0.989548
1.00518 0.997746 0.98791
1.00519 0.999939 0.98569
1.00514 0.997523 0.988285
1.00172 1.00411 0.987795
1.00165 1.00391 0.98786
1.00028 1.00294 0.991386
1.00036 1.00491 0.988915
1.00523 0.996932 0.988897
1.00521 0.997589 0.988234
1.00517 0.995544 0.990262
1.00519 0.995817 0.989798
1.00262 1.00379 0.986518
1.0046 1.00228 0.984347
1.00516 1.00131 0.98432
1.00516 0.997121 0.988513
1.00515 0.995494 0.990208
1.00515 0.999484 0.986098
1.00515 0.996361 0.989127
1.00514 0.997129 0.988508
1.00264 1.0032 0.987133
1.00225 1.00297 0.988217
1.00079 1.00505 0.988377
1.00015 1.00218 0.992224
1.00014 1.00469 0.989627
1.00518 0.99527 0.990627
1.00518 0.995502 0.990298
1.00518 0.99506 0.990477
1.00515 0.995647 0.98986
1.00354 1.00319 0.985611
1.00518 0.995878 0.989738
1.00509 1.00225 0.983537
1.00506 1.00128 0.984439
1.00512 0.999125 0.986318
1.00004 1.00137 0.993076
1.00006 1.00413 0.990582
1.00049 1.00501 0.98911
1.00298 1.00264 0.987144
1.00106 1.00478 0.987927
1.00259 1.00212 0.988001
1.00004 0.998637 0.996031
1.00016 1.00155 0.99293
1.0052 0.998887 0.98681
0.999957 1.00441 0.990165
1.00142 1.00445 0.987866
1.00088 1.00406 0.988722
1.0052 0.999897 0.985737
1.00514 0.99848 0.987088
1.00372 1.00283 0.985583
1.00516 1.00176 0.984298
1.00522 1.00011 0.985444
1.00028 1.00088 0.993415
1.00011 1.00324 0.991402
1.00238 1.00329 0.987495
1.00025 1.00497 0.989453
1.00151 1.0028 0.989334
1.00516 0.997836 0.987826
1.00514 0.999212 0.986385
1.00512 0.997841 0.987561
1.0037 1.00201 0.986012
1.00498 1.00106 0.984818
1.00025 1.00228 0.992179
0.999783 1.00445 0.990464
1.00303 1.00146 0.988189
1.00039 1.00448 0.989626
1.00217 1.00143 0.989449
1.00513 0.996411 0.989011
1.00512 0.999302 0.986249
1.0051 0.997712 0.987555
1.00411 1.00147 0.985949
1.00476 1.00087 0.985097
1.0003 1.0006 0.99365
1.00028 1.0019 0.992397
1.0001 1.00252 0.991999
1.00014 1.00207 0.992331
1.00017 1.00209 0.992427
1.00018 1.00264 0.991858
1.00012 1.00281 0.991866
1.00011 1.0029 0.991599
1.00012 1.00219 0.992433
1.00008 1.00079 0.993861
1.00014 1.00066 0.993879
1.00014 0.998253 0.996747
1.0002 1.00057 0.993843
1.00016 0.99826 0.99674
1.00002 0.996977 0.997984
1.00015 0.998323 0.996721
0.999954 0.997066 0.997979
0.999792 0.997232 0.999136
0.999932 0.99869 0.996137
0.999868 0.999276 0.995675
0.999675 0.99765 0.999081
0.999827 0.999994 0.995072
0.999683 0.998079 0.998911
0.99975 0.998562 0.998643
1.00521 0.998379 0.987337
1.00521 0.99737 0.988449
1.00519 0.996009 0.989642
1.00516 0.995284 0.990535
1.00523 0.996602 0.989248
1.00522 0.998642 0.987145
1.00523 0.996755 0.989094
1.00516 0.995438 0.990457
1.00518 0.995506 0.990227
1.00516 0.994963 0.990796
1.00518 0.997043 0.988657
1.00518 0.995185 0.990368
1.00517 0.995218 0.990697
1.00514 0.994972 0.990897
1.00519 0.99495 0.990667
1.00518 0.995499 0.990037
1.00523 0.99694 0.988893
1.00521 0.997684 0.988104
1.00517 0.995334 0.990493
1.0052 0.99589 0.989719
1.00262 1.00394 0.986484
1.00455 1.00222 0.984409
1.00516 1.00133 0.984284
1.00516 0.997325 0.988304
1.00514 0.995219 0.990388
1.00516 0.996381 0.989124
1.00514 0.999522 0.98607
1.00514 0.996862 0.988678
1.00275 1.00313 0.98711
1.00224 1.00268 0.988311
1.00075 1.00507 0.988352
1.00018 1.00214 0.992159
1.00011 1.00457 0.989754
1.00518 0.995256 0.990613
1.00517 0.995537 0.990225
1.00518 0.995132 0.990434
1.00344 1.0033 0.985597
1.00488 1.0023 0.983635
1.00505 1.0012 0.984429
1.00515 0.99566 0.989848
1.00514 0.998878 0.98664
1.00516 0.995856 0.989591
1.00007 1.00123 0.993205
1.00316 1.00242 0.987062
1.00235 1.0018 0.988698
1.00123 1.00491 0.987853
1.00051 1.00497 0.989194
1.00008 1.00408 0.990518
1.00518 0.994936 0.9908
1.00517 0.995065 0.99061
1.00517 0.994942 0.990462
1.00515 0.995134 0.990385
1.00425 1.0026 0.985047
1.00511 0.997028 0.98842
1.00504 1.00274 0.982952
1.00497 1.00144 0.984246
1.00013 1.00034 0.994
1.00005 1.00302 0.99172
1.00028 1.0047 0.989786
1.00093 1.00504 0.988237
1.0032 1.00229 0.986571
1.00232 1.0036 0.987183
1.00026 1.00087 0.993424
0.999995 1.00326 0.991422
1.00516 0.997837 0.987802
1.00004 1.00504 0.989424
1.00242 1.00333 0.987416
1.0012 1.0027 0.989468
1.00514 0.999218 0.986357
1.00512 0.997886 0.987606
1.00383 1.00199 0.985823
1.00503 1.00111 0.984881
1.00019 1.0023 0.992193
0.999869 1.00457 0.990372
1.00314 1.00149 0.988104
1.00018 1.00468 0.989665
1.00205 1.00113 0.989871
1.00514 0.996352 0.989196
1.00511 0.999275 0.986353
1.0051 0.997831 0.987523
1.00406 1.00165 0.985862
1.00484 1.00094 0.98495
0.999846 1.00308 0.9917
0.999738 1.00504 0.989703
1.00349 1.00046 0.988147
1.00112 1.00278 0.98913
1.00519 0.995243 0.990006
1.00509 0.996795 0.988963
1.00497 0.999777 0.985823
1.00437 1.0009 0.985352
1.0003 1.00188 0.992421
1.00013 1.00253 0.992007
0.999823 1.003 0.992264
1.00012 1.00217 0.99242
1.00005 1.00274 0.99182
1.0001 1.00222 0.992424
1.00004 1.00279 0.991942
1.00014 1.00288 0.991628
0.999988 1.00241 0.992451
1.00007 1.00324 0.991434
1.00012 1.00314 0.991346
1.00009 1.00232 0.992344
1.00002 1.00093 0.993791
1.00007 1.00077 0.993859
1.00011 0.998298 0.996749
1.00014 1.00064 0.993879
1.00014 0.998285 0.996746
1.00005 0.996925 0.997984
1.00016 0.998288 0.996743
1.00001 0.996946 0.997991
0.999938 0.997045 0.997981
1.00003 0.998265 0.996411
0.999939 0.998732 0.996102
0.999732 0.997313 0.999158
0.999855 0.999359 0.995636
0.999691 0.997699 0.99905
0.999719 0.998165 0.998834
1.00517 0.99707 0.988651
1.00518 0.99552 0.990242
1.00517 0.995029 0.990486
1.00516 0.994961 0.990797
1.00515 0.995464 0.99047
1.00523 0.996881 0.988959
1.00516 0.995343 0.990563
1.00515 0.994971 0.990898
1.00518 0.994993 0.990636
1.00518 0.995399 0.990129
1.00515 0.994957 0.990922
1.00518 0.994944 0.990766
1.0052 0.994941 0.990533
1.00519 0.99525 0.9906
1.00517 0.995568 0.990152
1.00517 0.995207 0.990392
1.00333 1.00341 0.985583
1.00475 1.00233 0.983729
1.00508 1.00112 0.984418
1.00515 0.995686 0.989836
1.00514 0.995809 0.989444
1.00514 0.998624 0.986964
1.00331 1.00227 0.986978
1.00209 1.00164 0.989393
1.00147 1.00505 0.98778
1.00008 1.00113 0.993334
1.00037 1.00499 0.989277
1.00008 1.00404 0.990453
1.00518 0.994949 0.990827
1.00517 0.994989 0.990636
1.00516 0.994994 0.990486
1.00404 1.0028 0.985018
1.00493 1.00274 0.982975
1.00499 1.00123 0.984569
1.00515 0.995104 0.990338
1.0051 0.996984 0.988353
1.00012 1.0003 0.994165
1.00007 1.003 0.991721
1.00293 1.00213 0.987011
1.00216 1.00367 0.987714
1.00084 1.00504 0.988444
1.00024 1.00474 0.989753
1.00516 0.994929 0.990821
1.00518 0.994922 0.99052
1.00514 0.994949 0.990547
1.00507 0.995069 0.990216
1.00451 1.00309 0.983272
1.00478 1.00037 0.98564
1.00493 1.00309 0.982918
1.00021 0.999867 0.994553
1.00023 1.00099 0.993463
1.00009 1.00176 0.992758
1.00004 1.00409 0.990618
1.00038 1.0049 0.989084
1.00067 1.0046 0.988448
1.00289 1.0018 0.987187
1.00219 1.00378 0.988437
1.00013 1.00236 0.992207
0.999954 1.00469 0.990279
1.00515 0.996282 0.989381
1.00023 1.00472 0.9897
1.00324 1.00155 0.98802
1.00189 1.0009 0.990289
1.00511 0.999234 0.986458
1.00511 0.99793 0.987493
1.004 1.0018 0.98578
1.00489 1.00099 0.984804
0.99989 1.00319 0.991582
0.999867 1.00502 0.989765
1.00355 1.00051 0.988218
1.00144 1.00291 0.989245
1.00519 0.995172 0.99012
1.00509 0.996802 0.988782
1.00499 0.99973 0.985842
1.00468 1.00094 0.985194
0.999693 1.00383 0.991265
1.00524 0.994893 0.990303
1.0009 1.00475 0.989007
1.00359 1.00092 0.98753
1.00515 0.995702 0.990055
1.00507 0.9984 0.986136
1.00492 1.00139 0.984686
1.00013 1.00258 0.992015
0.999785 1.00295 0.992223
0.999477 1.00288 0.992997
1.0001 1.0022 0.992415
1.00015 1.00288 0.991658
0.999793 1.00292 0.992016
1.00008 1.00233 0.99233
1.00007 1.00317 0.991376
0.999751 1.00255 0.992553
1.00016 1.00314 0.991441
0.999957 1.00197 0.99322
0.99988 1.00295 0.992052
1.00015 1.00373 0.990825
1.00028 1.00325 0.991052
1.0001 1.00251 0.992131
0.99998 1.0011 0.993694
1.00001 1.00097 0.993784
1.00008 0.9984 0.996718
1.00006 1.0008 0.993857
1.00011 0.998342 0.996745
1.00005 0.996902 0.997993
1.00014 0.998319 0.996747
1.00005 0.996895 0.997988
1.00001 0.996918 0.997993
1.0002 0.999877 0.994596
1.00009 0.998026 0.996553
1.00003 0.9983 0.996393
0.999821 0.99703 0.999206
0.999941 0.998785 0.996067
0.999739 0.997399 0.999138
0.999713 0.997776 0.99902
1.00519 0.995302 0.99022
1.00517 0.995042 0.990605
1.00516 0.994971 0.9909
1.00516 0.995464 0.990428
1.00515 0.994952 0.990931
1.00517 0.994946 0.990781
1.0052 0.994943 0.990488
1.00517 0.99496 0.990821
1.00522 0.994935 0.990594
1.00527 0.994923 0.990916
1.00517 0.994955 0.990853
1.00517 0.99492 0.990662
1.00516 0.995032 0.99051
1.00379 1.00298 0.984991
1.00495 1.00281 0.983006
1.00496 1.00103 0.984891
1.00515 0.99509 0.990292
1.0051 0.996957 0.988287
1.00267 1.00207 0.987456
1.00209 1.0037 0.988243
1.00062 1.00505 0.988651
1.0001 1.00023 0.99433
1.00012 1.00295 0.991723
1.00022 1.00479 0.989718
1.00516 0.994931 0.990797
1.00019 0.999889 0.994547
1.00018 1.00104 0.993385
1.00518 0.994914 0.990535
1.00513 0.994939 0.990543
1.00425 1.00326 0.983619
1.0049 1.00298 0.983053
1.00483 1.00016 0.985571
1.00507 0.995229 0.990156
1.00008 1.00177 0.992945
1.00011 1.00404 0.990591
1.00317 1.00242 0.986811
1.00157 1.00371 0.988865
1.00074 1.00462 0.988639
1.00034 1.00497 0.98918
1.00522 0.994933 0.990546
1.00518 0.994842 0.990542
1.0051 0.994912 0.990272
1.00469 0.995813 0.989929
1.00388 1.00356 0.984106
1.00429 1.00354 0.983827
1.0001 1.00128 0.993184
1.00019 1.00106 0.993429
1.00044 1.00143 0.992802
1.00018 1.00294 0.991392
1.00006 1.00475 0.990068
1.00128 1.00432 0.988429
0.999964 1.00492 0.989044
1.00226 1.00127 0.9887
0.999931 1.00327 0.991465
1.00007 1.00499 0.98983
1.00517 0.995112 0.990234
1.00509 0.996841 0.988602
1.00174 1.00302 0.989361
1.00362 1.00051 0.988288
1.005 0.999705 0.98586
1.00501 1.00101 0.985033
0.99981 1.00381 0.991215
1.00524 0.994899 0.990426
1.0007 1.00469 0.989058
1.00373 1.00095 0.987236
1.00515 0.995565 0.990049
1.00507 0.998533 0.986417
1.00487 1.00138 0.984709
0.999895 1.00467 0.990582
1.00454 0.995036 0.991562
1.00228 1.00314 0.988432
1.00417 1.00164 0.986122
1.00483 0.996572 0.989344
1.00377 1.00128 0.985699
0.998553 0.997541 0.990171
0.999704 1.00297 0.992184
0.999287 1.00303 0.992976
0.999622 1.00295 0.993013
1.00005 1.00237 0.992317
1.00005 1.00321 0.991405
1.00031 1.00299 0.991449
0.999614 1.00257 0.992656
1.00008 1.00251 0.992133
1.00023 1.00332 0.991044
0.999919 1.00196 0.993135
1.00012 1.00377 0.990833
1.00001 1.00287 0.991936
0.999893 1.00233 0.992839
1.00029 1.00387 0.990497
1.00018 1.00395 0.990617
1.00038 1.00345 0.990713
1.00013 1.00265 0.991808
1.00024 1.00314 0.991416
1.00013 1.00271 0.991692
0.999979 1.00111 0.99366
0.999982 1.00109 0.993688
1.00007 0.998502 0.996104
1.00001 1.00095 0.993776
1.00008 0.99845 0.996415
1.00002 0.996919 0.999137
1.00011 0.998384 0.996741
1.00006 0.996865 0.997997
1.00005 0.996865 0.997989
1.00014 0.999871 0.994663
1.00021 0.999825 0.994607
1.0001 0.99791 0.996661
1.00007 0.998031 0.99681
0.999893 0.996851 0.999237
1.00002 0.998335 0.996375
0.999812 0.997099 0.999194
0.999747 0.997443 0.999117
1.0052 0.994943 0.990444
1.00516 0.994947 0.990797
1.00515 0.994946 0.990941
1.00517 0.99496 0.990823
1.00522 0.994934 0.990596
1.00527 0.994923 0.990541
1.00527 0.994944 0.990541
1.00108 0.994859 0.986124
1.00447 0.994872 0.993013
1.00003 1.00132 0.993413
1.00517 0.994933 0.990773
1.00517 0.99491 0.990551
1.00513 0.994932 0.990539
1.00404 1.00328 0.983959
1.00491 1.00288 0.983187
1.00488 1 0.985508
1.00507 0.995386 0.990094
1.00362 1.00256 0.986436
1.00089 1.00363 0.989297
1.00087 1.00465 0.988831
1.00017 0.999935 0.994542
1.00034 1.00501 0.989275
1.00006 1.00176 0.993129
1.00021 1.00398 0.990564
1.00018 1.00102 0.993308
1.00521 0.994926 0.990548
1.00011 1.00124 0.993283
1.00016 1.00111 0.993424
1.00039 1.00146 0.992764
1.00517 0.994864 0.990522
1.00511 0.994905 0.990304
1.00407 1.00345 0.984139
1.00427 1.0028 0.984421
1.00462 0.996322 0.98982
1.00005 1.00302 0.991546
1.00019 1.00465 0.9899
1.0022 1.00218 0.988421
1.00045 1.00475 0.989074
1.00114 1.0042 0.988558
1.00521 0.995042 0.990608
1.00514 0.994829 0.990626
1.00507 0.995429 0.989848
1.00441 0.998205 0.989083
1.00197 1.00363 0.987768
1.0001 1.00223 0.992249
1.00044 1.00162 0.992297
1.00014 1.00222 0.992104
0.999925 1.00441 0.990976
1.00012 1.00468 0.989699
1.00032 1.00453 0.989174
1.00082 1.00318 0.989424
0.999996 1.00373 0.99116
1.00039 1.00464 0.989106
1.00525 0.994892 0.990542
1.00515 0.995435 0.99004
1.00506 0.998704 0.986698
1.00389 1.00095 0.986943
1.00484 1.00129 0.984735
1.00002 1.00454 0.99068
1.00451 0.995093 0.991673
1.00208 1.00312 0.988377
1.00402 1.0017 0.985986
1.00499 0.995998 0.989606
1.00399 1.00145 0.985702
0.998561 0.997799 0.987975
1.00014 1.00438 0.990387
1.00258 0.998221 0.99162
1.00207 1.00238 0.988725
1.00249 1.00167 0.987732
1.00362 0.997525 0.989566
1.00004 0.995109 0.952102
0.99702 0.994886 0.970888
0.996354 1.0017 0.989375
0.999801 0.996152 0.892097
0.994678 0.99583 0.864935
0.999121 1.00318 0.992957
0.99917 1.00321 0.993157
0.999567 1.00312 0.99275
1.00007 1.00252 0.992135
1.00029 1.00321 0.991036
1.0001 1.00381 0.99084
1.00015 1.00279 0.99182
0.999833 1.00194 0.99305
1.00022 1.0039 0.990583
1.00013 1.00263 0.991878
1.00036 1.00343 0.990736
0.999924 1.0022 0.992723
1.00018 1.00389 0.990656
1.00021 1.0041 0.990675
0.999652 1.00384 0.991354
1.00025 1.00402 0.990416
1.00033 1.00338 0.990758
1.00018 1.00265 0.991692
1.00033 1.00343 0.990877
1.00014 1.00334 0.991313
1.00009 1.00308 0.991566
1.00022 1.00317 0.991348
1.00022 1.00236 0.99209
1.00016 1.00271 0.991678
1.00004 1.00104 0.993651
0.999987 1.00112 0.993659
1.00006 0.998561 0.996087
0.999972 1.00112 0.993683
1.00006 0.998518 0.996101
1.00002 0.996913 0.999139
1.00008 0.998505 0.996112
1.00004 0.996914 0.998552
1.00006 0.996829 0.998
1.00007 0.999898 0.994758
1.00015 0.99986 0.994667
1.00011 0.997817 0.996752
1.00021 0.999783 0.994617
1.0001 0.997866 0.996919
0.999942 0.996684 0.999268
1.00009 0.998067 0.996527
0.999882 0.996926 0.999222
0.999808 0.997167 0.999183
1.00522 0.994931 0.990598
1.00517 0.99496 0.990824
1.00528 0.994925 0.990169
1.00085 0.994944 0.986252
1.00526 0.994942 0.99054
1.00433 0.995224 0.992607
1.00505 0.996192 0.99113
0.99662 0.994887 0.969962
1.00049 0.99684 0.988125
1.00005 1.00133 0.993378
1.00009 1.00126 0.993404
1.00002 1.00231 0.992425
0.99999 1.00223 0.992562
1.00521 0.994923 0.99055
1.00517 0.994882 0.990503
1.00512 0.9949 0.990336
1.00454 1.0033 0.98417
1.00414 1.00178 0.985008
1.00454 0.996844 0.989707
1.00189 1.00339 0.988142
1.00106 1.00458 0.989102
1.00099 1.00399 0.988686
1.00012 1.0012 0.993419
1.00024 1.00462 0.989729
1.00006 1.00305 0.991701
1.00011 1.00124 0.993383
1.00028 1.00152 0.992722
1.00522 0.994993 0.99061
1.00014 1.00224 0.992326
1.00042 1.00162 0.992483
0.999873 1.00217 0.99263
1.00515 0.99483 0.990527
1.00494 0.995438 0.98987
1.00261 1.00284 0.987675
1.00406 0.997949 0.989528
1.00004 1.00419 0.990792
1.00027 1.00484 0.989261
1.00096 1.00384 0.989308
1.00098 1.0043 0.989026
1.00455 0.995004 0.99151
1.00508 0.995506 0.990336
1.00502 0.996051 0.989665
1.002 0.999572 0.991694
0.99985 1.00328 0.991674
1.00026 1.00272 0.99152
0.999236 1.00472 0.991251
0.999532 1.00477 0.990114
0.999995 0.994905 0.943391
1.00007 1.00444 0.990778
1.00176 1.00321 0.98832
1.0045 0.994998 0.991787
1.00509 0.995573 0.989866
1.00413 1.00152 0.985695
1.00384 1.00185 0.985844
0.998675 0.997667 0.985714
1.00002 1.00455 0.990557
1.00265 0.997821 0.991658
1.00203 1.00245 0.988737
1.00308 1.00118 0.987692
1.00388 0.997551 0.989527
1.00109 0.99519 0.941913
0.99689 0.994905 0.966533
0.996424 1.00217 0.989199
0.999787 0.995802 0.895793
0.994707 0.995838 0.853775
0.999827 1.0039 0.991458
0.999823 0.994869 0.902752
0.994685 0.995598 0.864452
1.00145 1.00004 0.99136
1.00105 1.00222 0.990326
1.00192 1.00068 0.989768
0.996266 1.00254 0.989559
1.00074 0.996525 0.948167
0.994914 0.995787 0.964176
0.997549 0.998538 0.901963
0.994784 0.996197 0.859287
0.998856 1.00343 0.9933
0.999401 1.00323 0.992659
0.999434 1.00333 0.992974
1.00015 1.00257 0.991948
1.00037 1.00345 0.990758
1.00001 1.00411 0.990551
1.00007 1.00389 0.990815
1.00001 1.00205 0.992606
1.00018 1.00265 0.9917
1.00004 1.00424 0.990614
1.00026 1.00402 0.990392
1.0004 1.00331 0.990809
0.999643 1.00382 0.991422
0.999834 1.00434 0.99113
0.998912 1.00472 0.991574
1.00042 1.00376 0.99035
1.0004 1.00344 0.99074
1.00035 1.00342 0.990856
1.0001 1.00333 0.991388
1.0004 1.00352 0.990672
0.999984 1.00339 0.991464
0.99967 1.00326 0.991664
0.9997 1.00441 0.990812
0.999927 1.0034 0.991501
1.00013 1.00305 0.991564
1.00014 1.00227 0.992294
1.0002 1.00317 0.99128
1.00023 1.00236 0.992018
1.00012 1.00096 0.993621
1.00018 1.00271 0.991665
1.00003 1.00106 0.993655
1.00009 0.998503 0.996679
0.999975 1.00114 0.993658
1.00006 0.998525 0.996389
1.00006 0.996928 0.997954
1.00006 0.99853 0.996099
1.00002 0.996926 0.999138
1.00006 0.996922 0.997966
1.00009 1.00142 0.993209
1.00001 0.999954 0.994791
1.00007 0.999885 0.994761
1.00011 0.997791 0.996785
1.00016 0.999833 0.99467
1.00012 0.997777 0.996755
0.999981 0.996582 0.999285
1.00009 0.997866 0.997152
0.999958 0.996773 0.998748
0.999926 0.996977 0.998178
1.00049 0.995196 0.986398
1.00524 0.99495 0.99054
1.00412 0.995969 0.992194
0.996679 0.994873 0.971129
1.00044 0.996523 0.988427
1.00508 0.995818 0.990987
1.00306 0.997318 0.988283
0.996495 0.996846 0.973959
1.00002 0.995442 0.949212
0.999447 0.997701 0.905569
0.994645 0.996151 0.863056
0.999931 1.0023 0.992461
1.00008 1.00131 0.993373
1.00015 1.00119 0.993395
1.00003 1.00231 0.992425
0.999753 1.00328 0.991914
1.00024 1.00246 0.991869
1.00003 1.00274 0.992171
0.999995 1.0023 0.992452
1.00523 0.994896 0.990609
1.00516 0.994836 0.990428
1.00485 0.995316 0.989894
1.00281 1.00236 0.98759
1.00374 0.997854 0.98998
1.00112 1.00449 0.989188
1.00159 1.00415 0.98888
1.00057 1.00499 0.988826
1.00031 1.00161 0.992671
1.00004 1.00423 0.990605
1.00018 1.00226 0.992406
0.999756 1.0021 0.993154
1.0046 0.994903 0.991648
0.999842 1.00333 0.991728
1.00021 1.00286 0.991684
1.005 0.995313 0.990298
1.00482 0.995612 0.98981
1.00196 0.999548 0.991317
0.999662 1.00497 0.990674
1.00023 1.00446 0.990195
1.0033 0.995495 0.991904
1.00454 0.996617 0.990517
1.00463 0.995093 0.991072
1.00143 0.999285 0.992589
0.999956 1.00443 0.990411
0.999539 1.00423 0.991198
0.99947 1.00507 0.99092
0.999844 0.994846 0.904248
1.00046 0.994929 0.953613
0.99996 1.00464 0.990728
1.00203 1.00237 0.988754
1.00262 0.997538 0.991702
1.00424 0.997681 0.989491
1.00376 1.00069 0.987666
1.00017 0.99493 0.950631
0.997207 0.99503 0.965785
0.996492 1.00258 0.988977
0.999643 0.996467 0.906935
0.994748 0.995956 0.842208
0.999865 1.00376 0.991421
0.999846 0.995503 0.901566
0.994679 0.995663 0.858744
1.00148 1.00003 0.991415
1.00117 1.00207 0.990379
1.00207 1.00045 0.990413
0.996434 1.0028 0.990191
1.00175 0.996531 0.941282
0.99492 0.995297 0.967977
0.998427 0.99896 0.901806
0.994798 0.995763 0.857626
0.999507 1.00352 0.992758
0.994709 0.995698 0.861924
0.994801 0.995661 0.876332
0.999192 1.00177 0.993846
0.999581 1.00267 0.993315
0.995655 1.00255 0.989941
0.994865 0.997796 0.967371
0.997836 0.998886 0.938548
0.99475 0.999803 0.907383
0.994855 0.994804 0.862476
0.99936 1.00328 0.992571
0.999601 1.00305 0.992818
0.998301 1.00426 0.993045
1.00018 1.00264 0.991708
1.00042 1.00328 0.990861
1.00028 1.00398 0.990368
0.999928 1.00438 0.990553
0.999538 1.00389 0.991491
1.0004 1.00345 0.990736
0.999873 1.00414 0.990978
1.00043 1.00372 0.990384
0.998649 1.00482 0.991784
0.996993 1.00524 0.994073
0.999998 1.00412 0.990834
1.00062 1.00392 0.989969
1.00038 1.0034 0.990835
1.00013 1.00324 0.991463
1.0004 1.00359 0.990626
1.00003 1.00337 0.991424
0.999642 1.00322 0.991983
0.999732 1.00401 0.991187
0.999764 1.00387 0.991103
0.99949 1.00321 0.992158
1.00029 1.00277 0.991532
1.00043 1.00413 0.989344
0.999582 1.00461 0.990651
0.999792 1.00434 0.990812
0.999767 1.00395 0.991207
0.999962 1.00341 0.99149
1.00002 1.00242 0.992298
1.00013 1.00309 0.991562
1.00015 1.00226 0.992301
1.00019 1.0008 0.993612
1.00023 1.00237 0.991946
1.00011 1.00094 0.993633
1.00013 0.998477 0.996637
1.00002 1.00106 0.993659
1.0001 0.998475 0.996374
1.00006 0.996867 0.997958
1.00008 0.998497 0.996094
1.00002 0.996928 0.999135
1.00002 0.996922 0.999138
1.00012 1.00166 0.993184
0.999993 1.00009 0.994694
1.00008 1.00145 0.993215
1.00011 0.997797 0.996776
1.00001 0.999955 0.994793
1.00007 0.99989 0.994764
1.00011 0.99778 0.996781
1.00001 0.996523 0.999287
1.0001 0.997751 0.997233
0.999998 0.996594 0.998794
0.999979 0.996782 0.998261
0.999845 0.995486 0.893636
0.994668 0.995755 0.861457
0.998048 0.994876 0.971015
1.00049 0.995477 0.988752
1.00514 0.995089 0.990845
0.99617 0.995858 0.974912
1.00336 0.996276 0.988653
1.0012 0.995737 0.947804
0.999824 0.996506 0.894428
0.994688 0.996088 0.851906
0.998636 0.994895 0.97866
1.00001 0.997281 0.948739
0.99809 0.998831 0.899969
0.994787 0.995709 0.859527
1.00004 1.0033 0.991464
0.999921 1.00228 0.992547
1.00012 1.00126 0.993369
1.00001 1.00229 0.992426
0.999746 1.0031 0.992109
1.00003 1.00358 0.991241
1.00017 1.00278 0.991784
1.00026 1.00317 0.991133
1.00006 1.00267 0.992066
0.999972 1.00242 0.992344
1.00465 0.994848 0.991785
1.00499 0.995061 0.990274
1.00443 0.995334 0.989952
1.00177 0.999665 0.990941
1.00074 1.00443 0.990278
0.99982 1.0051 0.990097
1.00019 1.00285 0.991851
0.999792 1.00341 0.99178
1.00324 0.995439 0.992182
0.999911 1.00464 0.990279
0.99946 1.00434 0.991103
1.00468 0.996061 0.990394
1.0045 0.995229 0.990843
1.00125 0.999313 0.992686
0.999677 1.00497 0.990905
1.00066 0.997006 0.992378
1.00288 0.996204 0.993776
1.00034 1.0012 0.992858
0.999378 1.00475 0.990167
0.999586 1.00502 0.99017
0.999272 1.0051 0.991003
0.994751 0.995987 0.878828
0.999839 0.994871 0.907677
0.999994 0.994905 0.943719
0.999717 1.00378 0.991381
1.00129 1.00198 0.990426
1.00151 1.00003 0.991469
1.00224 1.00021 0.991053
0.999839 0.99503 0.90976
1.00001 0.996378 0.94112
0.994893 0.994879 0.96436
0.996576 1.00212 0.990795
0.9977 0.998639 0.890565
0.994673 0.995648 0.861288
0.994758 0.995543 0.864704
0.999223 1.00342 0.992691
0.994699 0.995281 0.868864
0.99482 0.995883 0.875981
0.999139 1.00148 0.993982
0.999371 1.00247 0.993325
0.995616 0.999527 0.992749
0.994878 0.997456 0.966423
0.997424 0.999563 0.948635
0.996955 0.999918 0.895192
0.994819 0.99479 0.870119
0.99752 1.00359 0.995659
0.994811 0.995717 0.885241
0.994788 0.994766 0.879343
0.99562 1.00205 0.99968
0.994823 0.999478 0.973969
0.994899 0.999959 0.949459
0.994876 0.99926 0.89109
0.994874 0.994814 0.868688
0.999759 1.00274 0.992658
0.998572 1.00422 0.993344
0.996896 1.005 0.995209
1.00035 1.00351 0.990732
1.00046 1.00369 0.990418
0.999947 1.00387 0.990825
0.99838 1.00504 0.992
1.00052 1.00402 0.989956
0.999945 1.0042 0.990781
0.997131 1.00508 0.994527
0.995098 1.0053 0.997299
0.997744 1.00488 0.994055
1.00038 1.00398 0.990284
1.00041 1.00365 0.990578
1.00005 1.00336 0.991382
0.999535 1.00325 0.992296
0.999806 1.00373 0.991233
0.999781 1.00397 0.991203
0.999501 1.00337 0.992218
0.99999 1.00341 0.991618
0.998156 1.00391 0.993667
1.00156 0.999765 0.992004
1.00031 1.00261 0.99166
1.00067 1.00324 0.990159
1.00229 1.00395 0.986952
1.00001 1.00469 0.990511
1.00026 1.00425 0.989723
0.999748 1.00451 0.990672
0.999616 1.00435 0.990874
0.999883 1.00427 0.990812
0.999883 1.00382 0.991208
0.999958 1.00283 0.992
1.00007 1.00332 0.991479
1.00009 1.00238 0.992291
1.00021 1.00081 0.993573
1.00019 1.00221 0.992308
1.0002 1.00083 0.993619
1.00015 0.998452 0.996612
1.00012 1.00092 0.993644
1.00014 0.998457 0.99633
1.00004 0.996949 0.997916
1.00012 0.998452 0.996076
1.00003 0.996894 0.998547
1.00002 0.996914 0.999137
1.00015 1.00213 0.992444
1.00005 1.00022 0.994501
1.00009 1.00168 0.993006
1.0001 0.997862 0.996711
0.999999 1.00007 0.994697
1.00006 1.00149 0.993219
1.00003 0.996504 0.999283
1.0001 0.997797 0.996776
1.00001 0.999948 0.994795
1.00011 0.997768 0.996778
1.00001 0.996542 0.999288
0.99998 0.99658 0.999285
0.99468 0.99483 0.867447
0.999861 0.995364 0.900832
0.994832 0.996152 0.874765
0.994687 0.995805 0.859048
0.995896 0.995629 0.972337
1.00343 0.996097 0.98906
1.00005 0.996089 0.945854
0.99982 0.996938 0.906221
0.994754 0.99637 0.840479
0.998239 0.995642 0.977865
1.00144 0.997128 0.937487
0.998297 0.999207 0.900644
0.9948 0.995958 0.853998
0.995573 0.995766 0.972509
0.997663 0.998738 0.938997
0.995449 0.99983 0.890097
0.994829 0.994806 0.857593
1.0001 1.00413 0.990794
1.00002 1.00316 0.991599
0.999909 1.00231 0.992631
0.999739 1.00295 0.992305
1.00041 1.00396 0.990081
0.999987 1.00346 0.991382
1.00001 1.00302 0.991699
1.00049 1.00308 0.991025
1.00029 1.0032 0.991217
1.00009 1.00259 0.991961
1.00328 0.994869 0.992447
1.00476 0.995453 0.990285
1.00463 0.995287 0.990612
1.00122 0.99906 0.992794
1.00008 1.00466 0.99089
0.999565 1.00448 0.991011
0.999818 1.00479 0.990149
0.999954 1.00489 0.98994
1.00057 0.996502 0.992679
0.99987 1.00493 0.990062
0.999578 1.00508 0.990992
1.00301 0.99585 0.993784
1.00101 1.00031 0.992688
0.998253 0.997035 0.993483
0.998172 0.999082 0.999721
0.998624 1.00353 0.992903
1.00001 1.00473 0.990034
0.999272 1.005 0.99107
0.994839 0.995946 0.889631
0.994743 0.99587 0.876036
0.999819 0.994857 0.896613
0.998983 1.00328 0.99263
0.999161 1.00215 0.993323
0.999197 1.00141 0.994129
0.994677 0.994833 0.86902
0.997369 0.9987 0.939825
0.994855 0.997112 0.966616
0.99588 0.997918 0.995781
0.995092 0.999843 0.907923
0.994839 0.995928 0.875729
0.99483 0.994804 0.870399
0.997505 1.00345 0.995969
0.994812 0.995252 0.888025
0.994784 0.994768 0.87945
0.995738 1.00224 0.998662
0.994858 0.999155 0.975551
0.996001 0.99977 0.939687
0.994861 0.994814 0.868044
0.994861 0.999925 0.898578
0.995584 1.00487 0.998417
0.994736 0.994799 0.896391
0.994814 0.994782 0.882571
0.994835 0.994798 0.858251
0.995117 1.00009 0.992345
0.994957 0.999544 0.952842
0.994987 0.99966 0.899839
0.998953 1.00415 0.993641
0.997485 1.00507 0.994353
0.995167 1.00508 0.99847
1.00048 1.00405 0.989943
0.999862 1.00424 0.990726
0.99711 1.00488 0.994968
1.00022 1.00406 0.990335
0.997794 1.00471 0.994087
0.995384 1.00531 0.997076
0.995131 1.00522 0.998344
0.997712 1.00456 0.993988
0.99982 1.00368 0.991368
0.99983 1.00394 0.991218
0.999552 1.00352 0.992285
0.998466 1.00398 0.993523
0.999852 1.00336 0.991603
0.999578 1.00265 0.99297
1.00069 1.00024 0.993107
1.00152 1.00171 0.989603
1.00034 1.00244 0.991792
1.00115 1.00319 0.989825
1.00301 1.0029 0.986456
1.00307 1.00308 0.986252
1.00055 1.00454 0.989465
1.00194 1.00387 0.987055
0.999883 1.00483 0.990282
0.999884 1.00473 0.990471
1.00006 1.00435 0.990102
0.999905 1.00441 0.990693
0.999689 1.00422 0.990958
0.999972 1.0032 0.991608
0.999985 1.00369 0.991209
1.00002 1.00277 0.992004
1.00019 1.00107 0.993371
1.00013 1.00236 0.992284
1.00023 1.00081 0.993567
1.00013 0.998456 0.996615
1.00021 1.00081 0.993626
1.00016 0.998431 0.996311
1.00001 0.997021 0.997915
1.00016 0.998409 0.996035
1.00002 0.996953 0.998522
1.00001 0.996926 0.99913
1.00032 1.0023 0.991811
1.0001 1.00053 0.993872
1.00018 1.00211 0.992442
1.00013 0.997956 0.996576
1.00005 1.00022 0.994358
1.00009 1.00167 0.99283
1.00003 0.99656 0.999265
1.00011 0.997849 0.996716
1 1.00005 0.994699
1.00003 0.996517 0.999285
1.00009 0.997797 0.996777
1.00001 0.996539 0.999288
0.994829 0.994809 0.884193
0.994693 0.995309 0.874498
0.999847 0.995473 0.90143
1.00062 1.00316 0.990624
0.994767 0.994807 0.885453
0.994806 0.995745 0.874625
0.994719 0.995703 0.865244
0.998441 0.995958 0.976626
0.999654 0.997686 0.947797
0.997971 0.998599 0.888754
0.994757 0.995866 0.857622
0.996564 0.995247 0.968891
0.997424 0.999054 0.948065
0.996695 0.999896 0.894213
0.994823 0.99481 0.861035
0.994866 0.995779 0.964636
0.995259 0.999887 0.947606
0.994864 0.999976 0.899548
0.994876 0.994826 0.868394
1.00013 1.00461 0.98999
1.00009 1.00416 0.990601
1.00006 1.00304 0.991734
1.00042 1.00385 0.990222
1.0003 1.00405 0.990292
1 1.00343 0.99152
1.00053 1.00307 0.991044
1.00029 1.00322 0.991298
1.00012 0.997068 0.992899
1.00321 0.995593 0.993748
1.00012 1.00504 0.989712
1.00156 0.999801 0.99251
0.999859 1.00509 0.990979
1.00003 1.00502 0.989953
0.99991 1.00477 0.990023
0.997488 0.997443 0.994129
0.999535 1.0048 0.991181
0.999276 1.00327 0.992974
0.998139 0.998631 0.999749
0.999999 1.0048 0.990246
0.995988 0.999401 0.992513
0.995008 1.0023 1.00151
0.997698 1.00511 0.993228
0.999604 1.00459 0.991298
0.994735 0.994771 0.901686
0.994843 0.995865 0.889251
0.994735 0.995807 0.873226
0.99746 1.00345 0.996302
0.995562 1.00196 0.997635
0.994818 0.994804 0.890717
0.994914 0.999987 0.949598
0.994872 0.99874 0.972753
0.994836 0.999956 0.898052
0.994785 0.994769 0.879513
0.994852 0.994815 0.867405
0.995862 1.00468 0.998045
0.994746 0.9948 0.896188
0.994811 0.994771 0.88611
0.994927 1.00084 0.995742
0.994817 0.994811 0.861456
0.994916 0.998815 0.946996
0.994972 0.999721 0.904197
0.995042 1.00406 0.998478
0.994759 0.9948 0.900355
0.994787 0.99496 0.885914
0.994746 0.995941 0.859852
0.995622 0.999983 0.899171
0.994896 0.99998 0.981434
0.994972 0.999987 0.939674
0.998194 1.00495 0.993499
0.995506 1.00502 0.997993
0.994919 1.0051 0.999516
1.00004 1.00408 0.990387
0.997807 1.00457 0.994121
0.995861 1.00532 0.996862
0.997911 1.00449 0.993874
0.995227 1.00468 0.998325
0.997564 1.0033 0.996513
0.998783 1.00395 0.993373
0.999615 1.00339 0.991589
0.99961 1.00284 0.993145
0.999286 1.00347 0.991505
0.999821 1.00068 0.994189
1.00142 1.00151 0.990192
1.00327 1.00268 0.986167
1.00459 1.00191 0.984617
1.00162 1.00315 0.989485
1.00339 1.003 0.985675
1.00419 1.00214 0.986164
1.00151 1.00385 0.987845
1.00299 1.00306 0.986448
0.999951 1.00502 0.989712
1.00058 1.00456 0.989411
1.00159 1.00382 0.98716
0.999984 1.00375 0.990955
0.999747 1.00481 0.990393
0.999781 1.00475 0.99043
0.999772 1.00409 0.991041
1.00003 1.00315 0.99161
1.00019 1.00142 0.992989
1.00008 1.00273 0.992009
1.0002 1.00107 0.993362
1.00009 0.998606 0.995978
1.00024 1.00085 0.993561
1.00015 0.998455 0.996015
0.999895 0.997081 0.999121
1.00017 0.998417 0.996011
0.999989 0.997026 0.998512
0.999993 0.99698 0.999116
1.00034 1.00251 0.991519
1.00021 1.00086 0.993366
1.00028 1.00234 0.991919
1.00015 0.998118 0.996382
1.00013 1.00053 0.993811
1.00018 1.00212 0.992439
1.00004 0.996618 0.999234
1.00012 0.997942 0.996588
1.00005 1.00024 0.994215
1.00004 0.996533 0.999271
1.00011 0.997834 0.996722
1.00002 0.996533 0.999287
0.994753 0.994795 0.897959
0.994821 0.995348 0.88409
0.99469 0.995852 0.874705
1.00053 1.0032 0.990728
1.00049 1.00337 0.990475
1.00059 1.00351 0.990451
0.994829 0.994774 0.882035
0.99478 0.994954 0.88551
0.994782 0.995841 0.874479
0.996457 0.99487 0.971081
0.998187 0.999054 0.937697
0.99513 0.999907 0.907109
0.994861 0.994947 0.857012
0.994882 0.996179 0.96813
0.995883 0.999945 0.944105
0.994817 0.999779 0.898804
0.99487 0.99482 0.867632
0.994901 0.996409 0.963947
0.9949 0.999536 0.949439
0.995054 0.999887 0.899723
0.994861 0.994806 0.862386
1.00035 1.00412 0.990011
1.00022 1.00456 0.989842
1.00024 1.00407 0.990408
1.00052 1.00371 0.990192
1.00013 1.00412 0.990505
1.00054 1.00309 0.991062
0.996877 0.997707 0.994771
0.997708 0.998282 0.999812
1.00002 1.00453 0.990011
0.999881 1.00262 0.993045
0.999596 1.00474 0.991292
0.999908 1.00466 0.990198
0.999236 1.00463 0.991443
0.995691 0.999397 0.992748
0.997778 1.00514 0.993871
0.995228 1.00214 1.00058
0.999482 1.00404 0.99173
0.995352 0.999233 0.991686
0.995934 1.00278 0.997628
0.997998 1.00514 0.993916
0.994751 0.994753 0.905314
0.994736 0.994767 0.902561
0.99485 0.995734 0.88886
0.995999 1.00463 0.997652
0.994886 1.00089 0.992508
0.994756 0.994802 0.89599
0.994857 0.999253 0.948435
0.994968 0.999653 0.892654
0.994802 0.994768 0.889634
0.994845 0.995246 0.857594
0.995146 1.00391 0.99896
0.994756 0.994805 0.901804
0.994789 0.995088 0.885984
0.994921 0.999657 0.978209
0.99478 0.996227 0.85444
0.994835 0.999983 0.898102
0.99492 0.999812 0.950447
0.995113 1.00487 0.994332
0.994752 0.994793 0.898287
0.994814 0.996535 0.875283
0.994644 0.996444 0.86379
0.995775 0.99909 0.889946
0.995696 0.999958 0.947953
0.994929 1.00048 0.972179
0.995959 1.00508 0.997526
0.995266 1.00418 0.999443
0.996933 1.00306 0.997958
0.998062 1.00455 0.993762
0.995481 1.00415 0.998324
0.996503 1.00427 0.996809
0.99956 1.00015 0.996348
0.999672 1.00299 0.993318
1.0008 1.00289 0.991119
1.00202 1.00379 0.987446
1.0013 1.00135 0.990805
1.00333 1.00274 0.986153
1.00412 1.00395 0.983425
1.00487 1.00187 0.984079
1.00451 1.0017 0.985005
1.00457 1.00211 0.984431
1.00382 1.00306 0.984894
1.00359 1.00237 0.986699
1.00386 1.00201 0.986373
1.00078 1.00446 0.988418
1.00163 1.00389 0.988012
1.00294 1.00306 0.986646
0.999964 1.00463 0.98988
1.00013 1.005 0.989698
1.00057 1.00461 0.989357
1.00018 1.00197 0.992498
1.0001 1.00371 0.99095
0.999624 1.00478 0.990504
1.00009 1.0031 0.991612
1.00022 1.00144 0.992982
1.00001 0.998858 0.995857
1.00022 1.00107 0.993353
1.00009 0.998613 0.995967
0.999843 0.997236 0.999107
1.00016 0.998454 0.996011
0.999932 0.997111 0.998514
0.999955 0.997059 0.999112
1.00036 1.00286 0.991348
1.0003 1.00109 0.993175
1.00038 1.00249 0.991586
1.00017 0.998311 0.996132
1.0002 1.00086 0.993451
1.00029 1.00235 0.992028
1.00003 0.996737 0.99919
1.00015 0.998089 0.996398
1.00015 1.00052 0.993749
1.00004 0.996612 0.999243
1.00012 0.99793 0.996599
1.00004 0.996534 0.999278
0.994765 0.994807 0.899995
0.994757 0.994808 0.897763
0.994812 0.995809 0.884098
1.00036 1.00389 0.990151
1.00067 1.004 0.989813
1.00046 1.00325 0.990835
1.00044 1.00351 0.990437
1.00041 1.00362 0.990438
1.00031 1.00393 0.990276
1.0004 1.00373 0.990342
0.994805 0.994763 0.878796
0.994817 0.994774 0.885634
0.994788 0.994761 0.885584
0.994857 0.994815 0.86691
0.994896 0.996023 0.965103
0.995129 0.999949 0.94084
0.994874 0.999471 0.907048
0.995011 0.996836 0.963016
0.994887 0.999826 0.940037
0.994962 0.999687 0.904494
0.994825 0.994794 0.870072
0.995392 0.996365 0.966919
0.99492 0.999924 0.940183
0.994898 0.999643 0.891669
0.994791 0.996448 0.858587
0.99951 1.00494 0.990833
1.00021 1.00433 0.990053
1.00028 1.00469 0.989693
1.00063 1.00363 0.990164
0.995476 0.999619 0.993131
0.99533 1.00304 0.999624
0.999839 1.00493 0.990151
0.999182 1.00461 0.991589
0.998195 1.00512 0.994505
0.99947 1.00419 0.991673
0.99775 1.00513 0.993914
0.99514 1.0009 0.988799
0.995325 1.00395 0.998062
0.997398 1.0047 0.994878
0.994886 0.999256 0.988356
0.997107 1.00409 0.997466
0.994729 0.994783 0.90181
0.994755 0.994754 0.908119
0.994733 0.994761 0.903433
0.994991 1.00366 0.999386
0.994937 0.998467 0.982156
0.994754 0.994803 0.903293
0.995809 0.999513 0.940347
0.994857 0.999764 0.906378
0.994792 0.994753 0.886064
0.994768 0.996017 0.858111
0.99491 1.00397 0.995005
0.994757 0.994799 0.898108
0.994799 0.996002 0.87515
0.994941 1.00055 0.97293
0.994668 0.996345 0.852849
0.996733 0.999904 0.893765
0.994858 0.999858 0.939444
0.99558 1.00477 0.988852
0.994824 0.994819 0.884882
0.994656 0.995887 0.862326
0.99848 0.997713 0.900684
0.995051 0.99994 0.947653
0.995002 1 0.965679
0.995257 1.00349 0.999589
0.996155 1.0038 0.997967
0.997075 1.00089 0.998983
0.995489 1.00514 0.997096
0.998297 1.00054 0.996668
1.00259 0.999069 0.992232
1.00232 1.00223 0.990732
1.00246 1.00358 0.987394
1.00304 1.00431 0.984441
1.00336 1.00282 0.986141
1.00444 1.00391 0.983063
1.00428 1.00444 0.982591
1.00495 1.00122 0.984703
1.00505 1.0013 0.984493
1.00481 1.00202 0.984055
1.00429 1.00152 0.985407
1.00447 1.00162 0.985171
1.00452 1.00237 0.984246
1.00279 1.00361 0.986535
1.00343 1.00232 0.986668
1.00347 1.00188 0.986577
1.0005 1.00494 0.988702
1.00081 1.00453 0.98864
1.00177 1.0039 0.988182
1.00006 1.00292 0.99163
1.00017 1.0046 0.989903
1.00027 1.00498 0.989684
0.999926 0.999156 0.995695
1.00021 1.00195 0.992478
1.00019 1.00371 0.990946
1.00024 1.00143 0.992975
1.00001 0.998888 0.99584
0.999764 0.997443 0.999085
1.0001 0.998615 0.995956
0.999837 0.997274 0.999102
0.9999 0.997138 0.999112
1.00032 1.00416 0.990076
1.00048 1.00312 0.990924
1.00034 1.00147 0.992741
1.00038 1.00283 0.991337
1.00017 0.998574 0.995861
1.00029 1.00111 0.993174
1.00033 1.00256 0.991652
1.00002 0.996884 0.999131
1.00016 0.998307 0.996149
1.0002 1.00086 0.993534
1.00003 0.996708 0.999203
1.00015 0.998071 0.996414
1.00004 0.996582 0.999253
0.994743 0.994786 0.89599
0.994759 0.994805 0.901484
0.994762 0.99482 0.897546
1.00043 1.0039 0.990178
1.00051 1.00403 0.989849
1.00028 1.00358 0.990274
1.00019 1.00432 0.989911
1.0006 1.00434 0.989921
1.00044 1.00359 0.990399
1.00035 1.00373 0.990425
1.00039 1.00388 0.990283
1.00045 1.00383 0.990385
1.00003 1.00461 0.99036
0.9948 0.996046 0.87565
0.994802 0.994764 0.878972
0.994817 0.994773 0.889204
0.994849 0.994801 0.870356
0.995034 0.999881 0.892674
0.995053 0.997933 0.961454
0.994899 0.999914 0.94923
0.995293 0.996346 0.963751
0.994917 0.999238 0.949926
0.99485 0.999968 0.899782
0.994806 0.996043 0.856688
0.994851 0.995315 0.968556
0.994904 0.999995 0.949773
0.99526 0.999859 0.906182
0.994693 0.996132 0.862568
0.998595 1.00392 0.993027
0.999627 1.0048 0.990771
1.00021 1.00433 0.990097
0.995057 1.0015 0.985726
0.995238 1.0043 0.998493
0.999394 1.00415 0.991615
0.997064 1.00517 0.993917
0.99747 1.00431 0.99489
0.99625 1.00368 0.997556
0.99491 0.999565 0.988294
0.995953 1.00199 0.998883
0.995957 0.999762 0.990023
0.994842 0.995622 0.889195
0.994735 0.994777 0.902655
0.994761 0.994756 0.910928
0.99498 1.00277 0.995317
0.994967 1.00075 0.969629
0.99476 0.994822 0.8979
0.995723 0.999968 0.947165
0.994936 0.999913 0.906541
0.994784 0.996044 0.875032
0.994705 0.996413 0.841621
0.995498 1.00476 0.989435
0.994815 0.995122 0.884784
0.994677 0.995968 0.859932
0.994959 0.999977 0.966671
0.998359 0.998976 0.90128
0.995895 0.999921 0.943028
0.995008 1.00476 0.986835
0.994684 0.994831 0.868387
0.999798 0.997161 0.90651
0.997522 0.998547 0.939056
0.99484 0.997386 0.968693
0.995506 1.00464 0.997965
0.996864 1.0011 0.99891
1.00067 1.00236 0.993118
0.997066 1.00103 0.996925
1.00144 0.999581 0.992485
1.00366 0.999373 0.98883
1.00286 1.00333 0.98734
1.00313 1.00419 0.984437
1.0043 1.00177 0.984722
1.00477 1.00393 0.982702
1.00433 1.00404 0.982691
1.00475 1.00109 0.985064
1.00514 0.999079 0.986312
1.00509 1.00056 0.984947
1.0049 1.00111 0.984789
1.00507 1.00151 0.984418
1.00504 1.00133 0.984474
1.00476 1.00213 0.98403
1.00414 1.00227 0.985424
1.00425 1.00154 0.985513
1.00445 1.00157 0.985339
1.00177 1.00409 0.987501
1.00259 1.00354 0.986713
1.00325 1.00229 0.986637
1.00007 1.0043 0.990095
1.00066 1.00495 0.988715
1.00086 1.00462 0.98886
0.999857 0.999727 0.995906
1.00016 1.00292 0.991607
1.00038 1.00454 0.989926
0.999699 0.997699 0.997751
0.999921 0.999259 0.995939
1.00024 1.00193 0.992459
1 0.998921 0.995824
0.999762 0.997478 0.999075
0.99983 0.997294 0.999097
1.00022 1.00443 0.989997
1.00042 1.00362 0.990533
1.00027 1.00421 0.990037
1.00036 1.00184 0.99232
1.00038 1.00327 0.990918
1.00015 0.99889 0.995591
1.00033 1.00145 0.992745
1.00045 1.00275 0.991325
1 0.997086 0.999069
1.00017 0.998554 0.995877
1.00027 1.00113 0.993172
1.00002 0.996872 0.999149
1.00016 0.998293 0.996166
1.00004 0.996691 0.999217
0.994816 0.99483 0.891434
0.994748 0.994794 0.895798
0.994749 0.994805 0.903
1.00054 1.00315 0.990516
1.00035 1.00406 0.990203
1.00043 1.00401 0.989884
1.00035 1.00437 0.989877
1.00059 1.00343 0.990325
1.00044 1.00412 0.990228
1.00105 1.00381 0.989228
0.999655 1.00478 0.990141
1.00045 1.00379 0.99029
1.00015 1.00391 0.990426
0.999889 1.00452 0.990342
0.999236 1.00501 0.991693
0.994794 0.996063 0.863362
0.994829 0.996142 0.87531
0.994783 0.994764 0.879106
0.99477 0.995798 0.863891
0.994834 0.999956 0.899594
0.995022 0.999692 0.940227
0.995127 0.996085 0.962665
0.994859 0.995387 0.970052
0.994715 0.996342 0.851808
0.994886 0.999612 0.944349
0.996806 0.999923 0.894201
0.994873 0.996147 0.970933
0.995064 0.999955 0.950073
0.998961 0.998541 0.897035
0.999123 1.00149 0.99523
0.998742 1.004 0.992987
0.999517 1.00472 0.990708
0.994881 0.999898 0.988493
0.995573 1.00331 0.99764
0.997453 1.00396 0.994903
0.997083 1.00185 0.998748
0.995464 0.999571 0.990131
0.996946 0.998527 0.993417
0.994747 0.996504 0.873111
0.994836 0.995255 0.892388
0.994737 0.994764 0.903495
0.995369 1.00469 0.989756
0.994853 0.999964 0.96674
0.994805 0.995468 0.884795
0.994932 0.999951 0.940207
0.998335 0.997676 0.889613
0.994701 0.995933 0.866115
0.99494 1.00472 0.986843
0.994696 0.995144 0.875372
0.999823 0.996045 0.895476
0.994923 0.997036 0.964775
0.997424 0.9989 0.948057
0.996021 1.00295 0.990998
0.999834 0.995377 0.89428
1.00001 0.997127 0.948855
0.994873 0.995308 0.964143
0.996584 1.00109 0.998943
0.999955 1.00166 0.99319
1.00279 1.00244 0.988757
1.00034 1.00007 0.992745
1.00305 1.00001 0.988777
1.00448 0.998516 0.987929
1.00319 1.00409 0.984431
1.0042 1.00184 0.984697
1.00498 0.99771 0.987421
1.00436 1.00361 0.982791
1.00467 1.0009 0.98511
1.00511 0.997341 0.987976
1.00513 0.997269 0.988245
1.00517 0.999305 0.98609
1.00514 0.998947 0.986457
1.00512 1.0007 0.984858
1.00509 1.00058 0.985025
1.00486 1.001 0.984875
1.00502 1.00125 0.984841
1.00498 1.00145 0.984528
1.00503 1.00133 0.984454
1.00328 1.00282 0.986238
1.0041 1.00226 0.985414
1.00427 1.00153 0.985618
1.00077 1.00484 0.98854
1.00187 1.00416 0.987476
1.00237 1.00346 0.986892
0.999789 1.00061 0.994385
1.00033 1.0041 0.990099
1.00085 1.00496 0.988727
0.999614 0.998019 0.998968
0.999846 0.99983 0.995167
1.00024 1.0029 0.991584
0.999705 0.997688 0.99904
0.999894 0.99934 0.995604
0.999761 0.99753 0.999065
1.00077 1.00382 0.989737
1.00029 1.00439 0.989937
1.00045 1.004 0.990116
1.0003 1.00235 0.991934
1.00038 1.00364 0.990526
1.00031 1.00415 0.989998
1.00013 0.999201 0.995318
1.00034 1.00188 0.992325
1.0003 1.00339 0.990912
0.999965 0.997309 0.999001
1.00016 0.998847 0.995605
1.00033 1.00145 0.992748
1 0.997047 0.999087
1.00017 0.998537 0.995893
1.00002 0.996831 0.999167
0.994963 0.995609 0.86268
0.994864 0.994813 0.891375
0.994757 0.994805 0.895611
1.00038 1.00344 0.990454
1.00167 1.00313 0.989912
1.00061 1.00359 0.990073
1.00039 1.00448 0.989843
1.0009 1.00328 0.990375
1.00011 1.0038 0.990533
0.999901 1.00478 0.990042
1.00078 1.00399 0.98939
1.00053 1.00464 0.989339
0.999933 1.00073 0.993818
1.00012 1.00446 0.990324
0.999341 1.00482 0.991363
0.999797 0.997264 0.890019
0.994814 0.996046 0.857648
0.994937 0.996103 0.875093
0.994741 0.996673 0.840702
0.996451 0.999148 0.906419
0.994847 0.999926 0.941721
0.99494 0.995557 0.967773
0.994914 0.99608 0.96964
0.998355 0.99938 0.899632
0.995964 0.999897 0.940575
0.994896 0.997436 0.971197
0.998378 0.998781 0.938858
1.00176 0.997713 0.994764
0.999035 1.00169 0.995108
0.998876 1.00411 0.992959
0.994986 0.999384 0.990194
0.997989 1.00173 0.998598
0.997515 0.998687 0.993006
0.998741 0.998017 0.990846
0.999854 0.994856 0.903836
0.994741 0.99598 0.872797
0.994835 0.994828 0.895485
0.99491 1.00488 0.987035
0.994903 0.996756 0.962746
0.994692 0.995393 0.875525
0.998575 0.998302 0.938071
0.999837 0.996321 0.907269
0.995656 1.00223 0.988605
0.999853 0.99524 0.901594
1.00144 0.996829 0.938032
0.994908 0.995346 0.967534
0.998181 0.997642 0.990583
1.00002 0.99554 0.949692
0.996191 0.995631 0.97002
0.999284 1.00069 0.993189
1.00262 1.00053 0.988749
1.00486 0.99836 0.988665
1.00241 1.00067 0.988732
1.00419 0.99872 0.987952
1.00492 0.996279 0.989238
1.00421 1.00188 0.984674
1.00494 0.998032 0.987338
1.00512 0.995638 0.989542
1.00461 1.00072 0.985155
1.00511 0.997363 0.987954
1.00513 0.995757 0.989663
1.00512 0.996334 0.989475
1.00514 0.997087 0.988463
1.00514 0.997926 0.987769
1.00518 0.999742 0.985877
1.00516 0.999377 0.986146
1.00514 0.998814 0.986601
1.00517 1.00081 0.984951
1.00513 1.00071 0.984836
1.00509 1.00057 0.985104
1.00442 1.00161 0.985455
1.00491 1.00134 0.984846
1.00485 1.00145 0.984641
1.00179 1.0041 0.987588
1.00332 1.00287 0.986227
1.00405 1.00225 0.985404
0.999985 1.00151 0.993097
1.00092 1.00463 0.988545
1.00204 1.00412 0.987451
0.999668 0.998349 0.998804
0.999825 1.0007 0.994329
1.00055 1.00402 0.990103
0.999658 0.998039 0.998253
0.99984 0.999917 0.995154
0.999722 0.99777 0.999002
1.00122 1.00299 0.989786
1.00046 1.004 0.989871
1.00037 1.00441 0.989678
1.00039 1.00438 0.989876
1.00034 1.0041 0.990112
1.00029 1.0028 0.991503
1.00006 0.999585 0.99506
1.0003 1.00232 0.991937
1.0003 1.00373 0.990519
0.999917 0.997537 0.998927
1.00012 0.999191 0.99533
1.00031 1.0019 0.99233
0.999966 0.997265 0.999022
1.00016 0.998817 0.995619
1 0.997028 0.999106
0.99982 0.994883 0.902267
0.994759 0.99557 0.865879
0.994833 0.994793 0.891281
1.00022 1.00383 0.990392
1.0006 1.00426 0.989401
1.00126 1.00307 0.990187
1.00284 1.00333 0.986703
1.00055 1.00417 0.989844
1.00007 1.00485 0.989946
1.00063 1.00421 0.989553
1.00028 1.0046 0.989593
1.00115 1.00327 0.988623
1.00146 0.999724 0.992764
1.00418 0.996765 0.99047
1.00025 1.00033 0.993881
0.999842 1.00406 0.991029
0.998696 0.997246 0.948464
0.999785 0.99756 0.894932
0.994674 0.995945 0.860015
0.998884 0.999674 0.887396
0.99544 0.999953 0.947515
0.99487 0.996004 0.970666
0.994884 0.997388 0.972892
0.997419 0.998847 0.949675
0.995869 0.997137 0.972351
1.00199 0.99603 0.995093
1.00106 0.998438 0.994829
0.998981 1.00199 0.994977
0.998264 0.998313 0.992692
0.999174 0.997851 0.990743
0.999983 0.994952 0.94347
0.999843 0.994884 0.907694
0.994727 0.995524 0.872595
0.995042 1.00204 0.986147
0.995027 0.995027 0.964428
0.999846 0.995401 0.902217
1.00038 0.99717 0.947733
0.997225 0.998811 0.99101
1.00113 0.995698 0.947816
0.99667 0.995101 0.967104
1.00139 0.996284 0.98979
0.999057 0.995439 0.976287
1.00246 0.998821 0.988827
1.00479 0.997165 0.988622
1.005 0.995924 0.990242
1.00386 0.998918 0.987973
1.00474 0.996465 0.98916
1.00518 0.994961 0.990157
1.00481 0.998387 0.987255
1.00511 0.995709 0.98949
1.0051 0.994995 0.990422
1.00511 0.997378 0.987933
1.00513 0.995796 0.989616
1.00515 0.995368 0.990224
1.00512 0.996098 0.989604
1.00512 0.996831 0.988965
1.00515 0.996903 0.988683
1.00514 0.997936 0.987747
1.00518 0.998769 0.986893
1.00521 1.00022 0.985471
1.00518 0.999785 0.985857
1.00515 0.999445 0.986203
1.00498 1.00072 0.985341
1.00513 1.00083 0.984901
1.00514 1.00072 0.984812
1.00292 1.0026 0.987083
1.00439 1.00171 0.985459
1.00478 1.00142 0.984852
1.00044 1.00193 0.991906
1.00183 1.00402 0.98758
1.00325 1.00305 0.986217
0.999797 0.998932 0.998493
1.00007 1.00154 0.993071
1.00111 1.00439 0.98855
0.999739 0.998478 0.998708
0.999877 1.00078 0.994272
0.99973 0.998082 0.998872
1.00282 1.00313 0.986781
1.00131 1.00283 0.98975
1.00058 1.00426 0.989291
1.00018 1.0041 0.990006
1.00031 1.00445 0.989651
1.00032 1.00331 0.990918
1.00025 1.00418 0.990107
1.00026 1.0028 0.991511
0.999992 0.999969 0.994803
0.999848 0.997832 0.998857
1.00006 0.999549 0.995072
1.0003 1.00229 0.991941
0.99992 0.99752 0.998951
1.0001 0.999179 0.995342
0.999971 0.997221 0.999043
1.00003 0.995256 0.952425
0.999844 0.99488 0.901283
0.994704 0.99553 0.862164
1.0006 1.00483 0.98873
1.00094 1.00285 0.990465
1.00087 1.00396 0.989674
1.00277 1.00336 0.986895
1.00415 1.00255 0.984519
1.0014 1.00355 0.988194
1.00002 1.00459 0.989843
1.00192 1.00313 0.987815
1.00123 0.99974 0.992823
1.00311 0.999742 0.988941
1.00478 0.995905 0.990882
1.00401 0.996377 0.99118
1.00372 0.99674 0.99099
1.00001 1.00038 0.993946
0.995989 0.995839 0.971558
0.99999 0.997108 0.945365
0.998108 0.997187 0.906257
0.997579 0.999403 0.938859
0.994865 0.99777 0.973439
0.995715 0.997419 0.977296
0.999591 0.997596 0.992239
1.00235 0.995707 0.994959
1.00062 0.999017 0.994895
1.00043 0.998288 0.990631
0.996469 0.99741 0.972397
1.00018 0.995006 0.953561
0.999827 0.994875 0.896492
0.996463 0.999456 0.991257
0.99685 0.994883 0.968964
1.00004 0.996476 0.945735
1.00086 0.996268 0.989887
0.998443 0.995722 0.97569
1.00363 0.995528 0.990656
1.0027 0.998263 0.987012
1.00469 0.996057 0.988545
1.00486 0.995726 0.99027
1.00518 0.994865 0.990586
1.00461 0.996647 0.989082
1.00519 0.994959 0.990114
1.00513 0.994944 0.990497
1.00511 0.995768 0.989438
1.00508 0.995074 0.99039
1.00517 0.995043 0.990468
1.00514 0.99584 0.989568
1.00514 0.99536 0.990158
1.00513 0.995867 0.989717
1.00512 0.99587 0.989731
1.00512 0.996686 0.989104
1.00516 0.998025 0.987776
1.00514 0.997948 0.987725
1.00518 0.998823 0.986866
1.0052 0.999638 0.986154
1.00515 1.00029 0.985462
1.0052 1.00028 0.985415
1.00518 0.999832 0.985836
1.00382 1.00118 0.986927
1.00495 1.00077 0.985349
1.00511 1.00086 0.984849
1.00089 1.00193 0.991127
1.00288 1.00266 0.987088
1.00437 1.0018 0.985461
1.00003 0.999491 0.998086
1.00055 1.00186 0.991895
1.00189 1.00391 0.98757
0.999914 0.999045 0.998338
1.00014 1.00155 0.993045
0.999835 0.998556 0.998587
1.00424 1.00248 0.984976
1.00301 1.0031 0.986801
1.00185 1.00407 0.987387
1.0013 1.00278 0.989714
1.00071 1.00417 0.989157
1.00065 1.00363 0.990084
1.00025 1.00448 0.989625
1.0003 1.00333 0.990922
0.99992 1.00043 0.994468
1.00023 1.0028 0.991518
0.999982 0.999932 0.994819
0.999773 0.998132 0.998784
0.999854 0.997779 0.99888
1.00005 0.999519 0.995084
0.999918 0.997467 0.998974
0.996831 0.994871 0.973116
1.00003 0.995528 0.942557
0.999829 0.995209 0.909373
1.00512 1.00088 0.984613
1.0012 1.00378 0.989503
1.00273 1.0034 0.987089
1.00185 1.00343 0.98796
1.00428 1.00272 0.984494
1.0038 1.00078 0.986977
1.00265 1.0031 0.987008
1.00098 0.999734 0.992889
1.0035 0.999583 0.988795
1.00475 0.995836 0.990463
1.00482 0.996315 0.989301
1.00415 0.995519 0.992076
1.00392 0.995994 0.991159
1.00324 0.996668 0.991509
0.999873 0.99696 0.992017
0.995791 0.99562 0.969831
0.999373 0.996366 0.942839
0.995288 0.997141 0.975942
0.999776 0.996734 0.994333
1.00214 0.995315 0.994813
1.00054 0.99758 0.986265
0.996386 0.996117 0.973751
0.999987 0.994884 0.943584
0.999975 0.99678 0.990059
0.998445 0.996091 0.974611
1.00314 0.995511 0.991001
1.00279 0.997658 0.987499
1.00441 0.994863 0.991157
1.00459 0.997522 0.99066
1.00474 0.995514 0.990294
1.00518 0.994873 0.990475
1.00521 0.994862 0.990398
1.00519 0.994961 0.990071
1.00513 0.994937 0.990491
1.00518 0.994936 0.990499
1.00506 0.995154 0.990357
1.00516 0.995013 0.990445
1.00516 0.995459 0.990127
1.00513 0.995343 0.990093
1.00514 0.995878 0.989701
1.00515 0.997099 0.988629
1.00513 0.996542 0.989244
1.00516 0.99788 0.987955
1.0052 0.999144 0.986642
1.00518 0.998877 0.98684
1.0052 0.999639 0.98614
1.00517 1.00014 0.985634
1.00421 1.00046 0.986947
1.00511 1.00037 0.985449
1.0052 1.00034 0.985359
1.00141 1.00138 0.990833
1.00376 1.00125 0.98693
1.00493 1.00082 0.985358
1.00018 0.999944 0.997761
1.00108 1.0017 0.991122
1.00284 1.00268 0.987095
1.00012 0.999586 0.997954
1.00068 1.00174 0.99189
1.00003 0.999158 0.998184
1.00509 1.00122 0.98458
1.00426 1.00241 0.984977
1.00352 1.0029 0.985815
1.00319 1.00307 0.98682
1.00195 1.00411 0.987334
1.00107 1.00421 0.988869
1.00087 1.00408 0.989023
1.00047 1.00386 0.99009
0.999909 1.00101 0.99392
1.00023 1.00337 0.990928
0.999907 1.00038 0.994491
0.999716 0.998482 0.998681
0.999972 0.999896 0.994835
0.999777 0.99808 0.998811
0.999859 0.99775 0.998903
1.00102 0.994877 0.990223
0.996698 0.994879 0.969749
0.999995 0.994911 0.95289
1.00495 0.999706 0.986133
1.00516 0.999296 0.986342
1.00509 1.0008 0.984775
1.00227 1.00324 0.987721
1.00439 1.00289 0.984465
1.00398 1.0006 0.987043
1.00503 0.997248 0.988054
1.00391 0.999405 0.988649
1.00465 0.995839 0.990036
1.00485 0.996438 0.989487
1.005 0.995435 0.99003
1.00412 0.995426 0.991737
1.00381 0.995704 0.991977
1.00405 0.995695 0.991131
1.00016 0.996779 0.992143
0.995917 0.995528 0.968114
1.0001 0.996479 0.996508
1.00422 0.995539 0.991836
1.00047 0.997644 0.986456
0.996282 0.995808 0.971528
1.00299 0.994889 0.991319
1.00285 0.997453 0.988021
1.00447 0.994983 0.991538
1.00461 0.996742 0.990638
1.00525 0.994935 0.990432
1.00529 0.994971 0.990633
1.00519 0.994876 0.990364
1.00522 0.994884 0.99038
1.0052 0.994926 0.990415
1.00512 0.994933 0.990485
1.00518 0.994938 0.990494
1.00519 0.995121 0.99041
1.00516 0.994981 0.990422
1.00516 0.995445 0.990112
1.00515 0.996447 0.989273
1.00515 0.995891 0.989685
1.00515 0.997119 0.988629
1.00521 0.998644 0.987085
1.00516 0.997734 0.988133
1.0052 0.999088 0.986708
1.0052 0.999951 0.985783
1.0052 0.999642 0.986127
1.00517 1.00011 0.985663
1.00436 1.00019 0.98696
1.00168 1.00076 0.990916
1.0042 1.00049 0.986935
1.00507 1.00045 0.985435
1.00027 1.00025 0.997556
1.00146 1.0013 0.990832
1.00368 1.00136 0.986934
1.00024 1.00003 0.997668
1.00118 1.00159 0.991119
1.0002 0.999706 0.99783
1.00517 1.00024 0.985385
1.00509 1.00113 0.984635
1.00467 1.00122 0.985385
1.00428 1.00232 0.984978
1.0035 1.00292 0.985829
1.00198 1.00374 0.98766
1.00203 1.00416 0.987282
1.00087 1.00436 0.988891
1.00012 1.00175 0.992906
1.00032 1.00405 0.990096
0.99988 1.00097 0.993946
0.999715 0.99893 0.998494
0.999898 1.00033 0.994514
0.999707 0.998407 0.998723
0.99978 0.998025 0.998835
1.00409 0.994853 0.99252
1.001 0.994896 0.988448
0.996565 0.994885 0.969081
1.00512 0.998438 0.987375
1.00505 0.999285 0.986362
1.00522 0.997968 0.987572
1.00518 0.999262 0.986344
1.00506 1.0007 0.984939
1.00513 0.996353 0.988914
1.00418 1.00043 0.98711
1.00501 0.997491 0.988048
1.00517 0.995053 0.990179
1.00489 0.996528 0.989675
1.00496 0.995548 0.989915
1.00416 0.995505 0.991873
1.00332 0.995866 0.991872
1.00044 0.996473 0.992178
1.00526 0.994903 0.990478
1.00417 0.996267 0.991914
1.00051 0.997339 0.986637
1.00451 0.995163 0.99191
1.00461 0.996031 0.990621
1.00524 0.994924 0.990473
1.00529 0.995019 0.990558
1.00523 0.994946 0.990629
1.00522 0.994906 0.990363
1.0052 0.994924 0.990432
1.00518 0.994945 0.990619
1.00518 0.994937 0.990488
1.00518 0.995115 0.990381
1.00516 0.995911 0.989776
1.00516 0.995443 0.990096
1.00515 0.996472 0.989268
1.00522 0.998156 0.987574
1.00515 0.997139 0.988629
1.00521 0.998651 0.987105
1.00521 0.999785 0.98595
1.0052 0.99903 0.986774
1.00519 0.999947 0.985802
1.00442 1.00011 0.986957
1.00516 1.00008 0.985693
1.00437 1.00019 0.986956
1.00175 1.00038 0.992572
1.00049 1.00007 0.994685
1.00173 1.00073 0.991624
1.00419 1.00054 0.986924
1.00029 1.0003 0.997518
1.00159 1.00112 0.990828
1.00028 1.00014 0.997584
1.00524 0.997868 0.987749
1.00522 0.999286 0.986351
1.00518 1.00025 0.985488
1.00494 1.00051 0.985591
1.0051 1.00106 0.984689
1.00474 1.00115 0.985365
1.00318 1.00213 0.987069
1.00349 1.0029 0.985843
1.00195 1.00374 0.987658
1.00063 1.00209 0.991641
1.0007 1.00457 0.988911
0.999999 1.00176 0.992935
0.999824 0.999558 0.99812
0.999852 1.00091 0.993971
0.999671 0.99882 0.998573
0.999704 0.99834 0.998759
1.00524 0.994857 0.990458
1.00444 0.994848 0.992421
1.00116 0.994898 0.986722
1.00515 0.996942 0.988458
1.00512 0.998369 0.98722
1.00511 0.998885 0.986587
1.00521 0.998106 0.987535
1.00519 0.999225 0.986347
1.00523 0.995433 0.990042
1.00511 0.996353 0.988876
1.00499 0.997753 0.988041
1.00518 0.995018 0.990186
1.00498 0.995638 0.9898
1.00417 0.99561 0.99203
1.00523 0.994904 0.990728
1.00525 0.994905 0.99065
1.0041 0.997005 0.991998
1.00523 0.994914 0.990508
1.0053 0.994964 0.990485
1.00524 0.994946 0.990576
1.00516 0.994949 0.990863
1.0052 0.994926 0.990449
1.00518 0.994939 0.990585
1.00517 0.995511 0.990203
1.00517 0.995098 0.990352
1.00517 0.995932 0.989775
1.00522 0.997779 0.987969
1.00515 0.996499 0.989263
1.00522 0.998162 0.987586
1.00523 0.999605 0.986135
1.00521 0.998657 0.987124
1.00521 0.999775 0.985968
1.00446 1.00009 0.986911
1.00519 0.999943 0.985821
1.00443 1.0001 0.986961
1.00186 1.0001 0.992689
1.00437 1.0002 0.986952
1.00191 1.00029 0.992494
1.00047 0.999982 0.994856
1.00028 1.00032 0.996123
1.0019 1.00066 0.9922
1.00029 1.00038 0.997493
1.00518 0.997208 0.988531
1.00524 0.998901 0.986651
1.00523 0.997674 0.987941
1.00509 1.00007 0.985737
1.00523 0.999367 0.986299
1.0052 1.00026 0.98559
1.005 1.00046 0.985562
1.00396 1.00088 0.986933
1.00479 1.00109 0.985346
1.00326 1.00201 0.98705
1.00118 1.00179 0.990884
1.00188 1.00374 0.987657
1.00044 1.00227 0.991658
0.999973 1.00031 0.997702
0.999857 1.00184 0.992963
0.999714 0.999444 0.998277
0.999651 0.998715 0.998639
1.00523 0.994901 0.990496
1.00523 0.994858 0.990442
1.00472 0.994863 0.992291
1.00518 0.996039 0.989547
1.00514 0.997022 0.988441
1.00513 0.998303 0.987069
1.00519 0.998246 0.987498
1.00521 0.995441 0.989974
1.00508 0.996362 0.988837
1.00516 0.995002 0.990193
1.00516 0.994918 0.990878
1.00522 0.994907 0.990719
1.00524 0.994911 0.99082
1.00518 0.994948 0.990859
1.00524 0.994945 0.990522
1.00516 0.994947 0.990833
1.00517 0.995358 0.990495
1.00517 0.994932 0.990551
1.00517 0.995537 0.990204
1.00521 0.997566 0.988243
1.00518 0.995956 0.989773
1.00522 0.997784 0.987977
1.00523 0.999402 0.986362
1.00522 0.99817 0.987598
1.00523 0.999593 0.98615
1.00449 1.00007 0.986881
1.00521 0.999765 0.985986
1.00447 1.00008 0.986921
1.00193 1.00005 0.992634
1.00444 1.00008 0.986964
1.00199 1.00005 0.992582
1.00053 0.999884 0.99489
1.00207 1.00018 0.992426
1.00017 1.00014 0.995048
0.999835 1.00062 0.997827
1.00517 0.997131 0.988537
1.00522 0.998339 0.987355
1.00519 0.997266 0.988388
1.00524 0.999763 0.986066
1.00525 0.998698 0.986831
1.00523 0.997485 0.988131
1.00433 1.00024 0.986935
1.00514 1.00006 0.985707
1.00524 0.999444 0.986246
1.00507 1.00041 0.985535
1.00399 1.00082 0.98694
1.00151 1.00124 0.990822
1.00333 1.00188 0.987032
1.00106 1.00193 0.990892
1.00002 1.00079 0.997503
1.00029 1.00238 0.991678
0.999868 1.00015 0.997857
0.99964 0.999265 0.99841
1.00516 0.995334 0.990374
1.00524 0.994899 0.990499
1.00523 0.994854 0.990427
1.00518 0.995956 0.989639
1.00513 0.997095 0.988423
1.00521 0.995443 0.989907
1.00521 0.994918 0.990867
1.00517 0.994925 0.990889
1.00522 0.994909 0.990711
1.00518 0.994947 0.990905
1.00521 0.99559 0.990215
1.00516 0.994946 0.990804
1.00517 0.995518 0.990316
1.0052 0.997143 0.988768
1.00517 0.995558 0.990206
1.00521 0.99754 0.988249
1.00522 0.999179 0.986601
1.00522 0.997778 0.987985
1.00523 0.999388 0.986371
1.00451 1 0.986909
1.00523 0.99958 0.986164
1.00449 1.00006 0.986893
1.00197 1.00012 0.99248
1.00448 1.00006 0.986931
1.00206 1 0.992508
1.00059 0.999887 0.994798
1.00212 0.999999 0.992485
1.00026 0.999936 0.995106
0.999882 1.00032 0.995224
1.00517 0.996476 0.989332
1.00521 0.998154 0.987552
1.00517 0.996944 0.988699
1.00524 0.999314 0.98652
1.00522 0.998434 0.987243
1.0052 0.997323 0.988244
1.00448 0.999922 0.987012
1.00524 0.999631 0.986076
1.00526 0.998495 0.987013
1.0017 1.00064 0.991052
1.00434 1.00022 0.986945
1.00519 1.00005 0.985676
1.00402 1.00077 0.986948
1.00145 1.00132 0.990827
1.00005 1.00089 0.997491
1.00094 1.00208 0.990901
1 1.00065 0.99756
0.999744 0.999993 0.998024
1.00519 0.995121 0.990584
1.00516 0.995373 0.990315
1.00523 0.994898 0.990501
1.00517 0.995879 0.98973
1.00518 0.995671 0.990166
1.0052 0.994926 0.990882
1.00517 0.994934 0.9909
1.00517 0.994945 0.990951
1.00521 0.995568 0.990233
1.00522 0.997187 0.988714
1.00517 0.995675 0.990137
1.00521 0.997372 0.988474
1.00522 0.998778 0.98705
1.00521 0.997523 0.988255
1.00522 0.999174 0.986603
1.00452 0.999908 0.98699
1.00522 0.999383 0.986379
1.00451 1 0.986918
1.00204 1.00018 0.990975
1.0045 1.00006 0.986905
1.00209 1.00008 0.991676
1.0005 0.999943 0.997498
1.00218 0.999974 0.992384
1.00035 0.999875 0.995025
1 0.999981 0.995305
1.00518 0.996019 0.989796
1.00522 0.997798 0.988
1.00517 0.996542 0.989295
1.00523 0.999058 0.986651
1.00521 0.998162 0.987538
1.00518 0.996751 0.98886
1.00452 0.999704 0.986972
1.00524 0.999315 0.986528
1.00521 0.998527 0.987131
1.00187 1.00011 0.991267
1.00447 0.999875 0.986951
1.00524 0.999492 0.986086
1.00014 1.00067 0.997555
1.00169 1.00063 0.991058
1.00435 1.00019 0.986956
1.00138 1.00138 0.990835
1.00006 1.0008 0.997485
0.99993 1.00056 0.997642
1.00516 0.995609 0.990267
1.00519 0.995174 0.990555
1.00516 0.995413 0.990257
1.00517 0.997278 0.988621
1.00519 0.995545 0.990264
1.00519 0.994934 0.990897
1.00521 0.995544 0.990251
1.00522 0.997149 0.988723
1.0052 0.998721 0.987294
1.00521 0.997605 0.98818
1.00522 0.998947 0.986926
1.0045 0.999684 0.987097
1.00522 0.99916 0.986607
1.00452 0.999906 0.986995
1.00205 1.00014 0.990999
1.00451 1 0.986927
1.00205 1.00016 0.990976
1.00049 0.999987 0.997466
1.00212 1.00007 0.990974
1.0004 0.99994 0.99624
1.0001 0.999842 0.99525
1.00518 0.996093 0.989693
1.00521 0.997616 0.988199
1.00519 0.995981 0.989858
1.00523 0.999098 0.986615
1.00522 0.997854 0.987919
1.00517 0.996612 0.989258
1.00455 0.999625 0.987038
1.00523 0.999191 0.98659
1.00521 0.998171 0.987524
1.00199 0.999875 0.99129
1.00451 0.9997 0.986978
1.00524 0.999318 0.986536
1.00031 1.00031 0.997586
1.00188 1.00009 0.99127
1.00447 0.999828 0.986887
1.00015 1.00063 0.997525
1.00169 1.00062 0.991063
1.00003 1.00076 0.997494
1.00517 0.997141 0.988797
1.00515 0.995706 0.99015
1.0052 0.995225 0.990526
1.00519 0.99861 0.987426
1.00517 0.997168 0.988728
1.00519 0.995433 0.990362
1.00522 0.997113 0.988731
1.0052 0.998724 0.987289
1.00447 0.999587 0.987268
1.00522 0.99912 0.986801
1.00451 0.999746 0.987093
1.00205 1.00005 0.991077
1.00452 0.999901 0.987
1.00204 1.00014 0.991002
1.00048 1.00001 0.997434
1.00204 1.00015 0.990976
1.00049 1 0.997449
1.00048 0.999899 0.994774
1.0052 0.99751 0.988277
1.00517 0.995917 0.989864
1.00522 0.998966 0.986792
1.00522 0.997623 0.988184
1.0052 0.995943 0.98992
1.00454 0.999685 0.987186
1.00522 0.999107 0.98661
1.00522 0.997908 0.987838
1.00208 0.999858 0.991183
1.00454 0.999674 0.987068
1.00523 0.999328 0.986529
1.00046 1.00005 0.997543
1.00201 0.999868 0.991292
1.00451 0.99969 0.986983
1.00029 1.00033 0.997577
1.0019 1.00008 0.991271
1.00015 1.00061 0.997502
1.0052 0.998596 0.987402
1.00516 0.997225 0.988699
1.00515 0.995799 0.990033
1.00443 0.999538 0.987376
1.00519 0.998615 0.987424
1.00517 0.997051 0.988835
1.0052 0.99873 0.987284
1.00448 0.999577 0.987246
1.00201 1.00001 0.9912
1.00451 0.999808 0.987088
1.00204 1.00006 0.991081
1.00049 1.00001 0.997429
1.00204 1.00014 0.991006
1.00048 1.00003 0.997435
1.00049 1.00001 0.997437
1.00521 0.99885 0.986931
1.00521 0.997275 0.988529
1.00515 0.995739 0.990034
1.0045 0.999666 0.98729
1.00522 0.998975 0.986782
1.00522 0.997629 0.988169
1.00208 0.999943 0.991119
1.00452 0.999691 0.98718
1.00522 0.999116 0.986606
1.00053 0.999949 0.997472
1.00208 0.999874 0.991183
1.00453 0.999718 0.987099
1.00043 1.00009 0.997562
1.00201 0.999879 0.991293
1.00029 1.00032 0.997558
1.00443 0.999642 0.987418
1.00519 0.998533 0.987399
1.00516 0.997306 0.9886
1.00198 0.999944 0.991337
1.00444 0.99952 0.987363
1.00519 0.998618 0.987422
1.0045 0.999563 0.987223
1.00201 0.999987 0.991207
1.00048 1.00001 0.997427
1.00202 1.00007 0.991084
1.00048 1.00002 0.997423
1.00046 1.00004 0.997435
1.00445 0.999649 0.987377
1.00521 0.99871 0.987079
1.00521 0.997044 0.988782
1.00213 0.999996 0.992406
1.00448 0.999666 0.98729
1.00521 0.998984 0.986771
1.00052 0.999957 0.997433
1.00208 0.999964 0.991119
1.00451 0.999697 0.987174
1.00052 0.999979 0.9975
1.00208 0.999899 0.991183
1.00041 1.0001 0.997577
1.00203 0.999946 0.99128
1.00443 0.999577 0.987403
1.00519 0.998467 0.987397
1.00042 0.999992 0.997465
1.00196 0.999945 0.991336
1.00445 0.999505 0.987351
1.00201 0.999971 0.991209
1.00046 1.00001 0.997437
1.00047 1.00003 0.997423
1.00215 0.999975 0.99244
1.00445 0.999648 0.987377
1.00521 0.998567 0.987227
1.00011 0.999994 0.997824
1.00203 1 0.991173
1.00447 0.999663 0.987292
1.00053 0.999968 0.997452
1.00208 0.999985 0.991118
1.0005 0.999999 0.997524
1.00041 0.999976 0.994885
1.00205 0.999945 0.991921
1.00443 0.999512 0.987386
1.00044 0.999993 0.997469
1.00197 0.999947 0.99134
1.00047 1 0.997444
1.00002 0.999997 0.995256
1.00207 0.999968 0.991862
1.00444 0.999649 0.987376
1.00028 0.999989 0.996316
1.00203 1 0.991184
1.00053 0.999979 0.997473
1.00042 0.999985 0.997469
1.00195 0.999941 0.991365
1.00041 0.999993 0.997469
1.00023 0.999982 0.996368
1.00199 0.999965 0.991301
1.00049 0.999981 0.997451
1.00043 0.999983 0.997481
1.00043 0.999983 0.997469

TENSORS stress float
0.00179874 -0.000105151 0.000192934
-0.000105151 0.00073737 -2.76859e-05
0.000192934 -2.76859e-05 0.00071536
0.00563119 -7.91885e-05 0.000192625
-7.91885e-05 0.00305704 2.01648e-05
0.000192625 2.01648e-05 0.00304169
0.00155733 -3.61414e-05 8.76813e-05
-3.61414e-05 0.000598503 -1.09496e-05
8.76813e-05 -1.09496e-05 0.000567177
0.00190654 -6.18837e-05 0.000191749
-6.18837e-05 0.000777125 -1.70889e-05
0.000191749 -1.70889e-05 0.000759844
0.00186144 -9.39802e-05 0.000188987
-9.39802e-05 0.000765963 -2.4826e-05
0.000188987 -2.4826e-05 0.000745969
0.00173354 -0.0001026 0.00019787
-0.0001026 0.000698232 -2.7698e-05
0.00019787 -2.7698e-05 0.00067755
0.00153536 -8.28316e-05 3.19167e-05
-8.28316e-05 0.000503564 -1.02761e-05
3.19167e-05 -1.02761e-05 0.000416127
0.00556894 -8.51119e-05 -7.07991e-06
-8.51119e-05 0.0030091 1.48864e-07
-7.07991e-06 1.48864e-07 0.00299923
0.00554888 9.23405e-05 9.12021e-05
9.23405e-05 0.00296599 6.12192e-06
9.12021e-05 6.12192e-06 0.00295071
0.00533125 -0.000176653 2.74121e-05
-0.000176653 0.00286942 2.61687e-06
2.74121e-05 2.61687e-06 0.00283902
0.00170861 0.000109788 0.000195984
0.000109788 0.00067818 1.9405e-05
0.000195984 1.9405e-05 0.000669765
0.000613696 0.000201065 2.38926e-05
0.000201065 -3.02866e-05 1.502e-05
2.38926e-05 1.502e-05 -0.000128567
0.00166476 -3.36326e-05 0.000199347
-3.36326e-05 0.000628484 2.72687e-06
0.000199347 2.72687e-06 0.000621866
0.00129665 -8.41508e-06 3.96998e-05
-8.41508e-06 0.000430881 1.14073e-06
3.96998e-05 1.14073e-06 0.000392579
0.00138113 -2.94057e-05 -3.42038e-05
-2.94057e-05 0.000496142 6.07214e-06
-3.42038e-05 6.07214e-06 0.000457825
0.00160091 -6.55129e-05 6.64521e-05
-6.55129e-05 0.000608312 -3.8163e-06
6.64521e-05 -3.8163e-06 0.00057977
0.00155027 -1.9456e-05 9.46123e-05
-1.9456e-05 0.000602103 -1.07113e-05
9.46123e-05 -1.07113e-05 0.000566801
0.00157517 -5.08244e-05 7.79689e-05
-5.08244e-05 0.000597953 -9.2612e-06
7.79689e-05 -9.2612e-06 0.000570794
0.00159988 -0.000123176 -3.2671e-05
-0.000123176 0.000534532 3.58018e-06
-3.2671e-05 3.58018e-06 0.000455627
0.00557073 -0.000114418 0.000243037
-0.000114418 0.00298675 -7.77022e-06
0.000243037 -7.77022e-06 0.00299312
0.00187506 -4.32878e-05 0.000193554
-4.32878e-05 0.000756147 -1.2743e-05
0.000193554 -1.2743e-05 0.000739949
0.0019079 -7.97192e-05 0.000189722
-7.97192e-05 0.000784058 -2.12117e-05
0.000189722 -2.12117e-05 0.000765919
0.00155542 -0.000109277 5.31875e-05
-0.000109277 0.000490003 -8.10292e-06
5.31875e-05 -8.10292e-06 0.000411535
0.00154649 -9.62653e-05 4.10844e-05
-9.62653e-05 0.000493433 -9.47105e-06
4.10844e-05 -9.47105e-06 0.000413488
0.0016572 -7.50459e-05 0.000191504
-7.50459e-05 0.000645009 -2.39702e-05
0.000191504 -2.39702e-05 0.000627829
0.00149548 -7.04492e-05 2.44622e-05
-7.04492e-05 0.000500477 -1.11232e-05
2.44622e-05 -1.11232e-05 0.000403878
0.00202499 -0.000228882 1.44567e-05
-0.000228882 0.000649709 -6.47289e-06
1.44567e-05 -6.47289e-06 0.000499185
0.00552362 -9.96739e-05 -0.000190285
-9.96739e-05 0.00297321 -1.19303e-05
-0.000190285 -1.19303e-05 0.00296767
0.00358042 8.44262e-05 -0.000111104
8.44262e-05 0.00179507 -9.78372e-06
-0.000111104 -9.78372e-06 0.00177634
0.00346438 -2.32783e-05 -0.000105109
-2.32783e-05 0.00174748 -6.05692e-06
-0.000105109 -6.05692e-06 0.00172374
0.00536917 -0.000147585 3.03846e-07
-0.000147585 0.00290327 4.78728e-07
3.03846e-07 4.78728e-07 0.00288586
0.000571126 0.000187674 -2.30485e-06
0.000187674 -5.50053e-05 -6.73205e-07
-2.30485e-06 -6.73205e-07 -0.000151243
0.00161576 5.55086e-05 0.000195363
5.55086e-05 0.000609229 1.55398e-05
0.000195363 1.55398e-05 0.000593508
0.00176419 0.000131366 0.000198067
0.000131366 0.000722356 2.33769e-05
0.000198067 2.33769e-05 0.000700125
0.00263865 0.000179327 0.00012061
0.000179327 0.00114008 1.57089e-05
0.00012061 1.57089e-05 0.0010723
0.00426139 -0.000287771 -4.68792e-06
-0.000287771 0.00227827 5.40303e-06
-4.68792e-06 5.40303e-06 0.00222841
0.00273188 0.000228858 0.000121057
0.000228858 0.0012245 1.81986e-05
0.000121057 1.81986e-05 0.00115028
0.000570573 0.000164527 2.75209e-05
0.000164527 -5.05985e-05 1.9057e-05
2.75209e-05 1.9057e-05 -0.000142777
0.000868528 0.000184399 1.04719e-05
0.000184399 2.79556e-05 5.60538e-06
1.04719e-05 5.60538e-06 -0.000139432
0.00337423 -0.000104882 0.000112636
-0.000104882 0.00170375 5.19705e-06
0.000112636 5.19705e-06 0.00170732
0.00557382 6.96824e-05 3.62553e-06
6.96824e-05 0.00297949 -1.41854e-06
3.62553e-06 -1.41854e-06 0.00299098
0.00351915 6.49823e-05 -9.20314e-05
6.49823e-05 0.00175277 -3.46165e-06
-9.20314e-05 -3.46165e-06 0.00173914
0.00547698 6.01464e-05 0.000238168
6.01464e-05 0.00292415 2.88205e-06
0.000238168 2.88205e-06 0.00293569
0.00129801 7.45055e-05 4.30011e-05
7.45055e-05 0.000429585 2.40577e-06
4.30011e-05 2.40577e-06 0.000395973
0.000655446 9.24918e-06 1.61909e-05
9.24918e-06 -7.46176e-05 1.66994e-06
1.61909e-05 1.66994e-06 -0.000148758
0.00546056 0.000194586 0.000124633
0.000194586 0.00293669 1.10021e-05
0.000124633 1.10021e-05 0.00291404
0.00270311 5.97079e-05 0.000117364
5.97079e-05 0.00114524 6.93655e-06
0.000117364 6.93655e-06 0.00109271
0.0012342 -7.40304e-05 -5.35884e-05
-7.40304e-05 0.00040507 6.64737e-06
-5.35884e-05 6.64737e-06 0.000363842
0.00128765 -7.04207e-05 -4.62309e-05
-7.04207e-05 0.00043964 7.18811e-06
-4.62309e-05 7.18811e-06 0.000400451
0.00143983 2.13592e-05 -2.2473e-05
2.13592e-05 0.000537672 5.9359e-06
-2.2473e-05 5.9359e-06 0.000495481
0.00162441 -0.00013184 -0.000104468
-0.00013184 0.000542411 1.70858e-05
-0.000104468 1.70858e-05 0.000470864
0.00349525 7.03485e-06 -9.72321e-05
7.03485e-06 0.00174511 -1.92275e-06
-9.72321e-05 -1.92275e-06 0.00172927
0.00159132 -4.92083e-05 7.29431e-05
-4.92083e-05 0.000597501 -3.20864e-06
7.29431e-05 -3.20864e-06 0.000571268
0.00150662 5.29313e-06 9.72693e-05
5.29313e-06 0.000578859 -8.59862e-06
9.72693e-05 -8.59862e-06 0.000542533
0.00159406 -5.95203e-05 7.09401e-05
-5.95203e-05 0.000603697 -6.49089e-06
7.09401e-05 -6.49089e-06 0.000577121
0.0016112 -9.02337e-05 -2.62019e-05
-9.02337e-05 0.000515709 1.2634e-06
-2.62019e-05 1.2634e-06 0.000444908
0.00157681 -0.000116208 -3.77731e-05
-0.000116208 0.000535102 3.6437e-06
-3.77731e-05 3.6437e-06 0.000450585
0.00160483 -0.000119589 -2.77621e-05
-0.000119589 0.000526104 2.56832e-06
-2.77621e-05 2.56832e-06 0.00045157
0.00201875 -0.000227432 -7.4236e-06
-0.000227432 0.000643516 1.99312e-06
-7.4236e-06 1.99312e-06 0.000493283
0.00544717 3.66252e-05 0.00023242
3.66252e-05 0.00290576 -2.91011e-07
0.00023242 -2.91011e-07 0.0029181
0.00184056 -2.36755e-05 0.00019289
-2.36755e-05 0.000738076 -8.74577e-06
0.00019289 -8.74577e-06 0.000723685
0.00242163 1.51401e-05 3.7639e-05
1.51401e-05 0.000994755 -9.54831e-07
3.7639e-05 -9.54831e-07 0.000933432
0.0015547 -8.82888e-05 4.66551e-05
-8.82888e-05 0.000481172 -5.47718e-06
4.66551e-05 -5.47718e-06 0.000407244
0.00155265 -0.000104452 4.85178e-05
-0.000104452 0.000489682 -8.93489e-06
4.85178e-05 -8.93489e-06 0.000411708
0.0019035 -0.000141791 1.15789e-05
-0.000141791 0.000522204 -3.05729e-06
1.15789e-05 -3.05729e-06 0.00039301
0.00167656 -0.00018657 1.59154e-05
-0.00018657 0.000418026 -5.73335e-06
1.59154e-05 -5.73335e-06 0.000275448
0.00122134 -3.38808e-05 0.000154593
-3.38808e-05 0.00038665 -1.71569e-05
0.000154593 -1.71569e-05 0.000373488
0.00135304 -2.6566e-05 1.55661e-05
-2.6566e-05 0.000438967 -1.12222e-05
1.55661e-05 -1.12222e-05 0.000342825
0.00198285 -0.000246303 1.34339e-05
-0.000246303 0.000653237 -7.06427e-06
1.34339e-05 -7.06427e-06 0.00049304
0.0012901 -0.000235875 7.68359e-06
-0.000235875 8.98923e-05 -2.45771e-06
7.68359e-06 -2.45771e-06 -9.57153e-05
0.00582458 0.00016044 -0.000247515
0.00016044 0.00313112 -2.15815e-05
-0.000247515 -2.15815e-05 0.00313415
0.00503601 -0.000174768 -0.000146994
-0.000174768 0.00270911 -9.96557e-06
-0.000146994 -9.96557e-06 0.00269031
0.00558639 -2.28546e-05 -0.000208499
-2.28546e-05 0.00299834 -1.44598e-05
-0.000208499 -1.44598e-05 0.00300096
0.000531451 0.000182361 -2.42937e-05
0.000182361 -7.46643e-05 -1.51773e-05
-2.42937e-05 -1.51773e-05 -0.000171925
0.00583004 0.000173309 -2.89279e-06
0.000173309 0.00313336 -1.93163e-06
-2.89279e-06 -1.93163e-06 0.00313642
0.00584477 9.38886e-05 -8.76272e-06
9.38886e-05 0.00314459 -1.47688e-06
-8.76272e-06 -1.47688e-06 0.00314745
0.000511394 0.000122651 -8.99165e-08
0.000122651 -0.000129605 -2.18193e-07
-8.99165e-08 -2.18193e-07 -0.000219521
0.00277785 -0.000133964 -6.13493e-05
-0.000133964 0.00136332 -2.60323e-06
-6.13493e-05 -2.60323e-06 0.00133276
0.000514911 0.000183493 -4.7021e-07
0.000183493 -9.12302e-05 -3.67526e-07
-4.7021e-07 -3.67526e-07 -0.000189374
0.00158839 0.000145851 4.03717e-05
0.000145851 0.00056488 1.13328e-06
4.03717e-05 1.13328e-06 0.00048679
0.000874452 0.000182523 -2.98545e-08
0.000182523 2.73562e-05 2.87221e-07
-2.98545e-08 2.87221e-07 -0.000139324
0.00402883 -0.000111858 0.00014026
-0.000111858 0.00209435 8.22069e-06
0.00014026 8.22069e-06 0.00209427
0.00065621 -2.20003e-05 5.15028e-06
-2.20003e-05 6.12729e-05 9.02605e-06
5.15028e-06 9.02605e-06 1.72876e-05
0.000625585 9.25124e-05 1.68999e-05
9.25124e-05 -8.18803e-05 8.85307e-06
1.68999e-05 8.85307e-06 -0.000167094
0.000663073 0.000148112 2.17946e-05
0.000148112 -2.6376e-05 1.52824e-05
2.17946e-05 1.52824e-05 -0.000122198
0.000995685 0.000155089 1.37598e-05
0.000155089 -2.15019e-06 5.48204e-06
1.37598e-05 5.48204e-06 -0.000153537
0.0025533 8.05992e-05 9.07979e-05
8.05992e-05 0.00116217 1.21398e-05
9.07979e-05 1.21398e-05 0.00110569
0.000912726 0.000178078 1.17601e-05
0.000178078 1.84049e-05 6.54308e-06
1.17601e-05 6.54308e-06 -0.000142062
0.000850262 0.000193841 1.0342e-05
0.000193841 8.33814e-05 5.12801e-06
1.0342e-05 5.12801e-06 -9.45652e-05
0.00110586 0.000237063 5.28273e-06
0.000237063 9.71587e-05 1.53223e-06
5.28273e-06 1.53223e-06 -0.000107993
0.00282409 -0.000120364 6.4324e-05
-0.000120364 0.00137406 2.40058e-06
6.4324e-05 2.40058e-06 0.00137403
0.0031634 -0.000138108 1.21259e-05
-0.000138108 0.00158372 -3.05798e-07
1.21259e-05 -3.05798e-07 0.00157879
0.00576004 2.81315e-05 -0.000240322
2.81315e-05 0.003083 -1.02395e-05
-0.000240322 -1.02395e-05 0.00309323
0.00563022 5.99223e-05 -0.000243298
5.99223e-05 0.00301038 -6.1939e-06
-0.000243298 -6.1939e-06 0.00302272
0.00554988 8.402e-05 -1.53418e-07
8.402e-05 0.00297352 -2.79067e-06
-1.53418e-07 -2.79067e-06 0.00298104
0.00347044 1.5558e-05 -0.000105682
1.5558e-05 0.00172211 -4.38295e-06
-0.000105682 -4.38295e-06 0.00171202
0.0016495 3.33848e-05 5.02999e-05
3.33848e-05 0.000519718 1.03657e-06
5.02999e-05 1.03657e-06 0.000458152
0.00360561 0.000113187 -9.3892e-05
0.000113187 0.00180824 -4.80189e-06
-9.3892e-05 -4.80189e-06 0.00178985
0.0016869 7.85952e-05 4.96951e-05
7.85952e-05 0.000543085 1.99831e-06
4.96951e-05 1.99831e-06 0.000475989
0.00552438 0.000138528 0.000241026
0.000138528 0.00296828 6.01158e-06
0.000241026 6.01158e-06 0.00296973
0.000580682 1.04383e-05 1.85939e-05
1.04383e-05 -0.000115769 5.43055e-07
1.85939e-05 5.43055e-07 -0.000188073
0.00272071 2.68395e-05 0.000117305
2.68395e-05 0.00115497 4.62988e-06
0.000117305 4.62988e-06 0.00110562
0.00102381 3.74588e-05 1.24636e-05
3.74588e-05 -1.93142e-05 1.21775e-06
1.24636e-05 1.21775e-06 -0.000142469
0.00262706 0.000102048 0.000119792
0.000102048 0.00110757 8.91039e-06
0.000119792 8.91039e-06 0.00105088
0.00104738 8.87189e-05 1.21735e-05
8.87189e-05 -7.7434e-06 2.51499e-06
1.21735e-05 2.51499e-06 -0.000140475
0.00167625 4.22598e-05 -0.00019795
4.22598e-05 0.000636343 1.80808e-06
-0.00019795 1.80808e-06 0.00063012
0.00127535 -1.20427e-06 -4.05404e-05
-1.20427e-06 0.00042078 1.80378e-06
-4.05404e-05 1.80378e-06 0.000383281
0.0014256 6.70495e-05 -1.29609e-05
6.70495e-05 0.000540979 6.53055e-06
-1.29609e-05 6.53055e-06 0.000492723
0.00124074 -7.95665e-05 -5.42451e-05
-7.95665e-05 0.000410814 7.62996e-06
-5.42451e-05 7.62996e-06 0.000370482
0.00172729 -7.01628e-05 -0.000102769
-7.01628e-05 0.00057676 8.93812e-06
-0.000102769 8.93812e-06 0.000514064
0.001677 -0.000112257 -0.000102486
-0.000112257 0.00056178 1.47202e-05
-0.000102486 1.47202e-05 0.000494853
0.00159575 -0.000139248 -0.000106042
-0.000139248 0.000537473 1.78339e-05
-0.000106042 1.78339e-05 0.000461445
0.00201391 -0.000226081 -2.77139e-05
-0.000226081 0.000638763 9.78474e-06
-2.77139e-05 9.78474e-06 0.000488901
0.0055382 -8.6876e-05 2.03814e-06
-8.6876e-05 0.00296732 -1.51442e-06
2.03814e-06 -1.51442e-06 0.00297438
0.00152701 4.33683e-05 8.12197e-05
4.33683e-05 0.000557806 -3.11195e-06
8.12197e-05 -3.11195e-06 0.000535115
0.00113322 -2.38598e-06 -5.33838e-05
-2.38598e-06 0.000216214 1.03854e-06
-5.33838e-05 1.03854e-06 0.000153116
0.00161381 -5.43634e-05 -3.00655e-05
-5.43634e-05 0.000511553 1.78528e-06
-3.00655e-05 1.78528e-06 0.000443666
0.00319685 3.70478e-05 0.000165302
3.70478e-05 0.0015918 -4.56948e-06
0.000165302 -4.56948e-06 0.00157966
0.00201057 -9.69287e-05 -3.36347e-05
-9.69287e-05 0.000813138 9.98267e-07
-3.36347e-05 9.98267e-07 0.00072917
0.00161345 -0.00010742 -2.55316e-05
-0.00010742 0.000522753 1.72772e-06
-2.55316e-05 1.72772e-06 0.000450589
0.00183147 -0.000136452 -8.95559e-06
-0.000136452 0.000477006 1.57998e-06
-8.95559e-06 1.57998e-06 0.000347616
0.00200027 -0.00024804 -6.20603e-06
-0.00024804 0.000662531 1.83889e-06
-6.20603e-06 1.83889e-06 0.00050187
0.0018527 -0.000193997 -4.80352e-06
-0.000193997 0.000522026 1.19407e-06
-4.80352e-06 1.19407e-06 0.000379934
0.00129657 -0.000236485 2.63739e-07
-0.000236485 9.25982e-05 -1.34895e-07
2.63739e-07 -1.34895e-07 -9.28151e-05
0.000617045 1.28916e-05 1.91569e-05
1.28916e-05 -9.68145e-05 -1.1489e-06
1.91569e-05 -1.1489e-06 -0.000165993
0.00149074 1.38798e-05 3.77566e-05
1.38798e-05 0.000438448 -2.59624e-06
3.77566e-05 -2.59624e-06 0.000370406
0.00165544 -3.51269e-05 1.26883e-05
-3.51269e-05 0.000361593 -1.05609e-06
1.26883e-05 -1.05609e-06 0.000247553
0.00166581 -0.000106607 1.25102e-05
-0.000106607 0.000372324 -2.38521e-06
1.25102e-05 -2.38521e-06 0.000246955
0.00166157 -0.000159732 1.45485e-05
-0.000159732 0.000387536 -4.3281e-06
1.45485e-05 -4.3281e-06 0.000251775
0.00172599 -0.000177356 1.49865e-06
-0.000177356 0.000251874 -6.81999e-07
1.49865e-06 -6.81999e-07 9.90817e-05
0.00442641 0.000170703 0.000124938
0.000170703 0.00235284 -7.60437e-06
0.000124938 -7.60437e-06 0.00233559
0.00133852 -0.000220434 6.34103e-06
-0.000220434 8.57191e-05 -1.95404e-06
6.34103e-06 -1.95404e-06 -9.01477e-05
0.000328137 -0.000101573 1.70444e-05
-0.000101573 -0.000178535 -1.47631e-05
1.70444e-05 -1.47631e-05 -0.000253189
0.000845108 -0.000184552 1.04291e-05
-0.000184552 1.47566e-05 -7.03036e-06
1.04291e-05 -7.03036e-06 -0.000151909
0.00133144 -0.000257652 8.72253e-06
-0.000257652 0.000152168 -3.21433e-06
8.72253e-06 -3.21433e-06 -4.58359e-05
0.00158199 -0.000307439 3.48215e-06
-0.000307439 0.000148069 5.31296e-07
3.48215e-06 5.31296e-07 -5.09287e-05
0.000382725 -3.63985e-05 9.35979e-06
-3.63985e-05 -0.000111066 -1.17286e-05
9.35979e-06 -1.17286e-05 -0.000169275
0.00067126 -4.56024e-05 1.07846e-06
-4.56024e-05 6.97317e-05 -4.04352e-06
1.07846e-06 -4.04352e-06 -5.39017e-05
0.00584453 0.000190139 -0.000258435
0.000190139 0.0031466 -2.19858e-05
-0.000258435 -2.19858e-05 0.00314737
0.00571188 7.56137e-05 -0.000227636
7.56137e-05 0.00306421 -1.82157e-05
-0.000227636 -1.82157e-05 0.00307018
0.000509995 0.00011648 -1.84162e-05
0.00011648 -0.000132347 -1.05397e-05
-1.84162e-05 -1.05397e-05 -0.000222143
0.00434008 -0.000176962 -0.000121705
-0.000176962 0.00229807 -6.81571e-06
-0.000121705 -6.81571e-06 0.00228201
0.000437748 0.000131507 -2.03596e-05
0.000131507 -0.000123991 -1.48817e-05
-2.03596e-05 -1.48817e-05 -0.000203906
0.000466293 0.00016757 -2.03175e-05
0.00016757 -0.000116048 -1.44955e-05
-2.03175e-05 -1.44955e-05 -0.000215686
0.000893925 0.000183183 -1.22241e-05
0.000183183 3.49979e-05 -5.38604e-06
-1.22241e-05 -5.38604e-06 -0.000131393
0.00382791 -0.000134973 8.91144e-06
-0.000134973 0.00198146 -5.65952e-07
8.91144e-06 -5.65952e-07 0.00197694
0.000529666 -3.33522e-05 3.82156e-07
-3.33522e-05 -9.46454e-06 5.35157e-07
3.82156e-07 5.35157e-07 -5.36532e-05
0.0016588 0.000121863 5.00977e-05
0.000121863 0.000538087 3.42881e-06
5.00977e-05 3.42881e-06 0.000463526
0.00161462 0.000173481 4.89053e-05
0.000173481 0.000545446 3.21695e-06
4.89053e-05 3.21695e-06 0.000460721
0.000971972 0.000154952 6.26801e-08
0.000154952 -1.20864e-05 -2.18576e-07
6.26801e-08 -2.18576e-07 -0.000163972
0.000603744 7.60722e-05 -5.04705e-07
7.60722e-05 -1.18495e-06 1.01561e-07
-5.04705e-07 1.01561e-07 -6.84208e-05
0.000933903 0.000180093 6.86289e-07
0.000180093 3.16452e-05 1.24268e-07
6.86289e-07 1.24268e-07 -0.000129109
0.000853478 0.000183623 6.42787e-07
0.000183623 8.13393e-05 -1.47832e-06
6.42787e-07 -1.47832e-06 -9.4591e-05
0.000978499 0.000228697 -7.4016e-07
0.000228697 1.97806e-05 2.58641e-07
-7.4016e-07 2.58641e-07 -0.000184429
0.000676637 3.13375e-05 1.20906e-05
3.13375e-05 5.9884e-05 1.09404e-05
1.20906e-05 1.09404e-05 4.04381e-06
0.000613303 -5.62786e-05 8.84874e-07
-5.62786e-05 4.11328e-05 7.08048e-06
8.84874e-07 7.08048e-06 4.5812e-06
0.000923783 8.40553e-05 3.33458e-06
8.40553e-05 0.000236032 4.69153e-06
3.33458e-06 4.69153e-06 0.000113852
0.00101657 0.000134556 1.3183e-05
0.000134556 -1.01153e-05 4.38924e-06
1.3183e-05 4.38924e-06 -0.000155465
0.000942844 0.000170272 1.35101e-05
0.000170272 -1.93711e-06 6.24374e-06
1.35101e-05 6.24374e-06 -0.000158739
0.00137632 0.000234639 5.69483e-06
0.000234639 9.90664e-05 1.42532e-06
5.69483e-06 1.42532e-06 -8.5388e-05
0.000861591 0.000188279 7.55432e-06
0.000188279 0.000155044 7.33484e-06
7.55432e-06 7.33484e-06 -1.80024e-05
0.00100849 0.000229969 5.20767e-06
0.000229969 -1.02643e-05 2.19031e-06
5.20767e-06 2.19031e-06 -0.000206222
0.00133939 0.000267326 6.13316e-06
0.000267326 0.000293919 8.66484e-07
6.13316e-06 8.66484e-07 6.65459e-05
0.00148412 0.00029119 -4.4423e-07
0.00029119 0.000268259 -4.31673e-07
-4.4423e-07 -4.31673e-07 4.74719e-05
0.00255125 -0.000120683 3.40585e-05
-0.000120683 0.00120697 2.9585e-06
3.40585e-05 2.9585e-06 0.00120648
0.00271252 -0.000135612 7.80392e-06
-0.000135612 0.00131092 -6.63328e-07
7.80392e-06 -6.63328e-07 0.00130633
0.00296667 -0.0001554 -4.78906e-05
-0.0001554 0.00147072 -2.49331e-06
-4.78906e-05 -2.49331e-06 0.00146051
0.000391862 -1.64937e-05 6.87385e-06
-1.64937e-05 -9.86595e-05 -9.64199e-06
6.87385e-06 -9.64199e-06 -0.000149141
0.00395048 0.000147842 0.000108781
0.000147842 0.0020618 -6.01569e-06
0.000108781 -6.01569e-06 0.00205131
0.00584109 0.000176582 -0.000261209
0.000176582 0.00314324 -1.92629e-05
-0.000261209 -1.92629e-05 0.00314586
0.00564044 6.70349e-05 -0.000240829
6.70349e-05 0.00301451 -8.6116e-06
-0.000240829 -8.6116e-06 0.00302615
0.000596504 8.97225e-05 -1.96879e-05
8.97225e-05 -0.000106414 -4.78267e-06
-1.96879e-05 -4.78267e-06 -0.000184776
0.000578689 4.02238e-05 -1.92458e-05
4.02238e-05 -0.000115167 -2.32197e-06
-1.92458e-05 -2.32197e-06 -0.000190161
0.00548549 -1.37541e-05 -0.000233256
-1.37541e-05 0.00292595 -1.49313e-06
-0.000233256 -1.49313e-06 0.0029392
0.00546217 1.72743e-05 -6.17686e-07
1.72743e-05 0.00291318 -4.79963e-07
-6.17686e-07 -4.79963e-07 0.00292615
0.000561965 8.17946e-07 -1.45225e-07
8.17946e-07 -0.000129155 -2.53375e-08
-1.45225e-07 -2.53375e-08 -0.000199794
0.00163381 3.20927e-05 5.02162e-05
3.20927e-05 0.000508469 1.80001e-06
5.02162e-05 1.80001e-06 0.000446299
0.00100073 4.11562e-05 -7.05498e-10
4.11562e-05 -3.35634e-05 -1.31319e-07
-7.05498e-10 -1.31319e-07 -0.000157147
0.000564484 7.51167e-05 -4.04954e-07
7.51167e-05 -0.000121093 -3.05847e-07
-4.04954e-07 -3.05847e-07 -0.000203362
0.00100866 9.01645e-05 -1.18602e-07
9.01645e-05 -2.98879e-05 -1.35361e-07
-1.18602e-07 -1.35361e-07 -0.000163227
0.000555504 -2.77952e-05 1.9092e-05
-2.77952e-05 -0.000135133 -8.69458e-07
1.9092e-05 -8.69458e-07 -0.000203471
0.00100175 1.6055e-05 1.22729e-05
1.6055e-05 -2.86182e-05 5.44595e-07
1.22729e-05 5.44595e-07 -0.000149797
0.00101854 6.3018e-05 1.21728e-05
6.3018e-05 -2.42484e-05 1.91954e-06
1.21728e-05 1.91954e-06 -0.000151443
0.00148626 6.37627e-05 1.30293e-06
6.37627e-05 5.89593e-05 1.49142e-07
1.30293e-06 1.49142e-07 -6.80172e-05
0.00104591 0.000111943 1.25624e-05
0.000111943 -4.37005e-06 3.30359e-06
1.25624e-05 3.30359e-06 -0.000143285
0.00151766 0.000140096 2.33365e-06
0.000140096 8.56549e-05 1.65428e-07
2.33365e-06 1.65428e-07 -5.86759e-05
0.00546592 -4.69675e-05 -0.000239851
-4.69675e-05 0.00291869 7.70118e-07
-0.000239851 7.70118e-07 0.00292973
0.00125517 -0.00013608 -4.28129e-05
-0.00013608 0.000414339 4.47908e-06
-4.28129e-05 4.47908e-06 0.000376474
-0.000268533 -2.0608e-06 -1.28771e-05
-2.0608e-06 -0.000617336 2.14372e-06
-1.28771e-05 2.14372e-06 -0.000700196
0.00170486 -4.84143e-05 -0.00010287
-4.84143e-05 0.00056062 6.42146e-06
-0.00010287 6.42146e-06 0.000499235
0.00487148 0.000354994 1.48022e-05
0.000354994 0.00267284 7.69069e-06
1.48022e-05 7.69069e-06 0.00260092
0.00267854 -0.000184478 -0.000106737
-0.000184478 0.00119997 1.77139e-05
-0.000106737 1.77139e-05 0.00112338
0.00171458 -9.15964e-05 -0.000102398
-9.15964e-05 0.000574664 1.18256e-05
-0.000102398 1.18256e-05 0.000510651
0.001733 -0.000130056 -2.76128e-05
-0.000130056 0.000415774 5.43988e-06
-2.76128e-05 5.43988e-06 0.000286415
0.00201274 -0.000200433 -2.62344e-05
-0.000200433 0.000616366 8.20138e-06
-2.62344e-05 8.20138e-06 0.00047504
0.00203996 -0.000251074 -2.52139e-05
-0.000251074 0.000686083 1.03141e-05
-2.52139e-05 1.03141e-05 0.00052469
0.00130275 -0.000237097 -6.36077e-06
-0.000237097 9.51854e-05 1.98045e-06
-6.36077e-06 1.98045e-06 -9.00576e-05
0.000558255 7.21175e-06 -5.56942e-08
7.21175e-06 -0.000129905 1.16779e-07
-5.56942e-08 1.16779e-07 -0.00020003
0.00161459 -6.78058e-05 -2.93282e-05
-6.78058e-05 0.000512252 3.28321e-07
-2.93282e-05 3.28321e-07 0.000447149
0.00123394 -3.05429e-05 -7.43151e-06
-3.05429e-05 0.000111053 3.95155e-07
-7.43151e-06 3.95155e-07 -7.4033e-06
0.00182435 -0.000108112 -5.67503e-06
-0.000108112 0.000465135 8.62241e-07
-5.67503e-06 8.62241e-07 0.000340959
0.00457179 0.000158442 -7.49509e-06
0.000158442 0.0024361 -1.0739e-06
-7.49509e-06 -1.0739e-06 0.00242092
0.00152984 -8.93872e-05 -2.39537e-06
-8.93872e-05 0.000551259 -7.99691e-08
-2.39537e-06 -7.99691e-08 0.000463599
0.00131659 -0.000212137 1.42818e-06
-0.000212137 0.000303439 -8.35127e-07
1.42818e-06 -8.35127e-07 0.000136226
0.00169221 -0.00016007 -5.97799e-06
-0.00016007 0.000405611 1.34993e-06
-5.97799e-06 1.34993e-06 0.000269741
0.00161187 -0.000174984 -2.28974e-06
-0.000174984 0.000181923 4.31436e-07
-2.28974e-06 4.31436e-07 3.01258e-05
0.00125703 -0.000254181 2.72156e-07
-0.000254181 0.000109027 -8.12265e-08
2.72156e-07 -8.12265e-08 -8.94097e-05
0.00152029 -0.000228416 3.56667e-07
-0.000228416 0.000192438 -1.44655e-07
3.56667e-07 -1.44655e-07 1.75193e-05
0.00161153 -0.000307591 6.62846e-07
-0.000307591 0.000170333 -6.13933e-08
6.62846e-07 -6.13933e-08 -2.79032e-05
0.000517102 -4.33114e-05 -1.00839e-06
-4.33114e-05 -3.51788e-05 1.39317e-07
-1.00839e-06 1.39317e-07 -9.41464e-05
0.000664362 -6.81798e-05 -1.27554e-07
-6.81798e-05 6.51223e-05 2.32409e-07
-1.27554e-07 2.32409e-07 -6.09665e-05
0.000988757 -1.46595e-05 1.22346e-05
-1.46595e-05 -3.17155e-05 -8.50559e-07
1.22346e-05 -8.50559e-07 -0.000152347
0.00169138 -6.58809e-05 1.19348e-05
-6.58809e-05 0.000382958 -1.64657e-06
1.19348e-05 -1.64657e-06 0.000264777
0.00167943 -5.68883e-05 4.48766e-07
-5.68883e-05 0.000193492 5.52979e-08
4.48766e-07 5.52979e-08 6.726e-05
0.00151195 -0.000138558 2.53568e-06
-0.000138558 0.000106853 -1.81513e-07
2.53568e-06 -1.81513e-07 -3.40716e-05
0.00168299 -0.0002142 3.33587e-06
-0.0002142 0.000256828 -8.2675e-07
3.33587e-06 -8.2675e-07 9.46348e-05
0.00177509 -0.000215691 -4.85166e-07
-0.000215691 0.000150947 4.65552e-07
-4.85166e-07 4.65552e-07 9.02631e-06
0.00035785 -7.37796e-05 1.41915e-05
-7.37796e-05 -0.00014052 -1.34629e-05
1.41915e-05 -1.34629e-05 -0.000206669
0.00164503 -0.000283692 1.55531e-06
-0.000283692 0.000148141 7.24188e-07
1.55531e-06 7.24188e-07 -2.94595e-05
0.000693997 -0.000165637 6.15743e-06
-0.000165637 5.95266e-06 -7.56855e-06
6.15743e-06 -7.56855e-06 -0.000164442
0.000957832 -0.000243036 9.75171e-06
-0.000243036 -7.52555e-06 -3.54472e-06
9.75171e-06 -3.54472e-06 -0.00021652
0.00179957 -0.000348948 3.22424e-06
-0.000348948 0.00032905 -5.7781e-08
3.22424e-06 -5.7781e-08 0.000105248
0.00193162 -0.000343675 -1.64047e-06
-0.000343675 0.000301831 3.27744e-06
-1.64047e-06 3.27744e-06 0.00011779
0.000729648 -0.00011317 1.96265e-06
-0.00011317 0.000103565 -5.3146e-06
1.96265e-06 -5.3146e-06 -4.45238e-05
0.000666375 -3.16297e-05 7.61697e-07
-3.16297e-05 6.93167e-05 -3.71494e-06
7.61697e-07 -3.71494e-06 -3.86043e-05
0.00105542 -0.000171356 -1.98825e-07
-0.000171356 0.000315176 5.56648e-07
-1.98825e-07 5.56648e-07 0.000126309
0.000538527 9.5441e-05 -1.7745e-05
9.5441e-05 -0.000128656 -8.15731e-06
-1.7745e-05 -8.15731e-06 -0.000214441
0.00359242 -0.00016213 -8.58049e-05
-0.00016213 0.00184674 -3.31148e-06
-8.58049e-05 -3.31148e-06 0.00183535
0.000384104 -4.54625e-05 7.47173e-08
-4.54625e-05 -9.02476e-05 -8.36101e-06
7.47173e-08 -8.36101e-06 -0.000135716
0.000487824 0.00014427 -1.94282e-05
0.00014427 -0.000123716 -1.32655e-05
-1.94282e-05 -1.32655e-05 -0.000219325
0.000947523 0.000154916 -1.43001e-05
0.000154916 -2.24607e-05 -5.88941e-06
-1.43001e-05 -5.88941e-06 -0.000174844
0.000367089 6.92377e-05 -1.5625e-05
6.92377e-05 -0.00014081 -1.27926e-05
-1.5625e-05 -1.27926e-05 -0.000205099
0.000771483 0.000170747 -8.02492e-06
0.000170747 3.03383e-05 -7.48073e-06
-8.02492e-06 -7.48073e-06 -0.000143607
0.000947559 0.000181398 -1.17558e-05
0.000181398 4.05939e-05 -6.75005e-06
-1.17558e-05 -6.75005e-06 -0.000120391
0.000805525 0.000216343 -7.02038e-06
0.000216343 -8.46601e-05 -9.00206e-07
-7.02038e-06 -9.00206e-07 -0.000287288
0.000538604 2.05486e-05 2.18262e-06
2.05486e-05 -2.03102e-05 4.01858e-07
2.18262e-06 4.01858e-07 -7.41778e-05
0.000502757 -6.48029e-05 3.55022e-07
-6.48029e-05 -2.1274e-05 2.51184e-07
3.55022e-07 2.51184e-07 -5.91519e-05
0.000615534 3.11945e-05 6.5416e-07
3.11945e-05 4.17558e-05 5.41784e-07
6.5416e-07 5.41784e-07 -6.82235e-05
0.000996637 0.000135315 1.1986e-08
0.000135315 -1.87815e-05 -2.58426e-07
1.1986e-08 -2.58426e-07 -0.000164842
0.000951307 0.000171649 4.37724e-07
0.000171649 5.80769e-06 -2.34063e-07
4.37724e-07 -2.34063e-07 -0.000151425
0.00138765 0.000235227 1.83982e-07
0.000235227 0.000106681 -1.66626e-08
1.83982e-07 -1.66626e-08 -7.8119e-05
0.000799985 0.000170107 -5.69143e-07
0.000170107 0.00012008 1.65474e-07
-5.69143e-07 1.65474e-07 -5.04668e-05
0.0011741 0.000239434 3.67645e-07
0.000239434 9.08202e-05 1.51238e-08
3.67645e-07 1.51238e-08 -0.000105736
0.0011318 0.00024952 5.86415e-07
0.00024952 0.000171547 -1.66894e-06
5.86415e-07 -1.66894e-06 -5.31318e-05
0.0012658 0.000281034 -6.04361e-07
0.000281034 0.000134733 1.57783e-07
-6.04361e-07 1.57783e-07 -8.57445e-05
0.000545552 -6.92737e-05 -2.12602e-06
-6.92737e-05 -3.81458e-06 6.01708e-06
-2.12602e-06 6.01708e-06 -3.56318e-05
0.000804476 0.000127782 5.38979e-06
0.000127782 0.000142158 4.94998e-06
5.38979e-06 4.94998e-06 -4.22928e-06
0.000713003 5.82125e-06 1.4534e-06
5.82125e-06 9.45072e-05 4.19091e-06
1.4534e-06 4.19091e-06 1.04419e-05
0.000964555 0.000115754 1.60023e-06
0.000115754 0.000284746 -1.63066e-07
1.60023e-06 -1.63066e-07 0.000110562
0.00145717 0.000209952 4.34482e-06
0.000209952 0.00010139 4.69935e-07
4.34482e-06 4.69935e-07 -6.95013e-05
0.00124361 0.000243671 6.2391e-06
0.000243671 7.07391e-05 2.18181e-06
6.2391e-06 2.18181e-06 -0.00012258
0.0017453 0.000311427 1.29335e-06
0.000311427 0.000204148 -1.54478e-07
1.29335e-06 -1.54478e-07 1.29793e-05
0.00136571 0.000246838 3.6906e-06
0.000246838 0.000397786 3.85718e-06
3.6906e-06 3.85718e-06 0.000181553
0.00166581 0.000339333 -6.96167e-07
0.000339333 0.000302376 -5.21839e-07
-6.96167e-07 -5.21839e-07 8.20865e-05
0.00124192 0.00028067 1.55983e-06
0.00028067 0.000176821 -8.3871e-07
1.55983e-06 -8.3871e-07 -7.11369e-05
0.00150592 0.000315283 1.06159e-06
0.000315283 0.000189756 1.88228e-07
1.06159e-06 1.88228e-07 -3.7748e-05
0.000617258 9.33877e-06 2.40711e-06
9.33877e-06 1.81674e-05 2.39216e-06
2.40711e-06 2.39216e-06 -3.32593e-05
0.000532452 -4.37375e-05 7.25765e-07
-4.37375e-05 -3.85308e-05 4.73055e-06
7.25765e-07 4.73055e-06 -5.88109e-05
0.00242651 -0.0001047 2.84652e-05
-0.0001047 0.00112377 3.31109e-06
2.84652e-05 3.31109e-06 0.00112729
0.00248734 -0.000118272 3.59948e-06
-0.000118272 0.00116844 -3.80939e-07
3.59948e-06 -3.80939e-07 0.00116838
0.00260938 -0.000134427 -3.57708e-05
-0.000134427 0.00124978 -2.74093e-06
-3.57708e-05 -2.74093e-06 0.0012452
0.000434921 -6.32104e-06 5.33172e-06
-6.32104e-06 -7.37929e-05 -8.15403e-06
5.33172e-06 -8.15403e-06 -0.000115703
0.0035064 0.000131802 9.15721e-05
0.000131802 0.0017901 -4.71278e-06
9.15721e-05 -4.71278e-06 0.00178436
0.000524894 -1.88057e-05 -2.95608e-07
-1.88057e-05 -2.24524e-05 2.81257e-07
-2.95608e-07 2.81257e-07 -7.34779e-05
0.00409827 0.000135611 -5.71432e-06
0.000135611 0.00214581 -8.23974e-07
-5.71432e-06 -8.23974e-07 0.00213819
0.000589995 9.92946e-05 -1.92216e-05
9.92946e-05 -0.000104195 -6.42127e-06
-1.92216e-05 -6.42127e-06 -0.000187921
0.000598379 3.30107e-05 -1.84499e-05
3.30107e-05 -0.000107387 -3.2438e-06
-1.84499e-05 -3.2438e-06 -0.000182585
0.000987315 9.14486e-05 -1.20647e-05
9.14486e-05 -4.27435e-05 -2.77578e-06
-1.20647e-05 -2.77578e-06 -0.000176568
0.000976749 4.31436e-05 -1.23441e-05
4.31436e-05 -4.83857e-05 -1.45255e-06
-1.23441e-05 -1.45255e-06 -0.000172259
0.00061253 -6.6881e-06 -1.9301e-05
-6.6881e-06 -0.000102745 -7.34034e-07
-1.9301e-05 -7.34034e-07 -0.000171362
0.00553879 -9.47515e-05 -0.000246693
-9.47515e-05 0.00296748 3.77943e-06
-0.000246693 3.77943e-06 0.00297556
0.000599854 -5.90099e-07 1.33126e-07
-5.90099e-07 -0.000109433 -5.16544e-07
1.33126e-07 -5.16544e-07 -0.000177822
0.000992121 2.08806e-05 -3.76024e-08
2.08806e-05 -3.47492e-05 -7.14864e-08
-3.76024e-08 -7.14864e-08 -0.000156141
0.00100985 6.47821e-05 -8.60556e-08
6.47821e-05 -3.03182e-05 -9.36121e-08
-8.60556e-08 -9.36121e-08 -0.000157902
0.0014815 6.27521e-05 -5.75215e-08
6.27521e-05 5.7823e-05 9.31276e-08
-5.75215e-08 9.31276e-08 -6.92552e-05
0.00101183 0.000113457 -1.38416e-07
0.000113457 -2.28038e-05 -2.35507e-07
-1.38416e-07 -2.35507e-07 -0.000162572
0.00150066 0.000140501 -5.80063e-08
0.000140501 7.58091e-05 3.61301e-09
-5.80063e-08 3.61301e-09 -6.90649e-05
0.000987668 -7.37619e-07 1.2248e-05
-7.37619e-07 -3.29614e-05 -3.39465e-07
1.2248e-05 -3.39465e-07 -0.00015359
0.00146951 3.29945e-05 1.50178e-06
3.29945e-05 5.42394e-05 1.25705e-07
1.50178e-06 1.25705e-07 -6.91382e-05
0.00149708 0.000101096 1.4295e-06
0.000101096 6.60413e-05 6.72328e-08
1.4295e-06 6.72328e-08 -6.80893e-05
0.00180843 8.96376e-05 -2.0624e-06
8.96376e-05 0.000102985 -3.15558e-07
-2.0624e-06 -3.15558e-07 3.40721e-06
0.00150807 0.000178622 3.29467e-06
0.000178622 9.62039e-05 3.60653e-07
3.29467e-06 3.60653e-07 -6.09644e-05
0.00181405 0.000184347 -2.83841e-07
0.000184347 0.000128631 -1.3832e-06
-2.83841e-07 -1.3832e-06 1.72202e-06
0.00058238 7.44666e-07 -1.84741e-05
7.44666e-07 -0.000113532 1.13135e-06
-1.84741e-05 1.13135e-06 -0.000185394
0.00169536 -2.60613e-05 -0.000102341
-2.60613e-05 0.000554548 4.22491e-06
-0.000102341 4.22491e-06 0.000495771
0.000783259 -2.46899e-05 -1.4758e-05
-2.46899e-05 -0.000156258 1.74215e-06
-1.4758e-05 1.74215e-06 -0.00027936
0.00196591 -0.000108356 -2.45455e-05
-0.000108356 0.000547506 3.91671e-06
-2.45455e-05 3.91671e-06 0.000424702
0.00478461 0.000131626 -0.000158955
0.000131626 0.00255549 1.11599e-05
-0.000158955 1.11599e-05 0.00254516
0.00271121 -0.000137662 -0.000101983
-0.000137662 0.00124371 1.39593e-05
-0.000101983 1.39593e-05 0.00117516
0.00194206 -0.000256562 -2.01617e-05
-0.000256562 0.000680139 8.85316e-06
-2.01617e-05 8.85316e-06 0.000509689
0.00170348 -0.000159154 -2.5997e-05
-0.000159154 0.000411835 6.69245e-06
-2.5997e-05 6.69245e-06 0.00027616
0.00149408 -0.000172459 -5.48528e-06
-0.000172459 0.000109584 1.02841e-06
-5.48528e-06 1.02841e-06 -4.12044e-05
0.00170285 -0.000236535 -6.65812e-06
-0.000236535 0.00029982 2.02259e-06
-6.65812e-06 2.02259e-06 0.000125819
0.00119241 -0.000251723 -7.42292e-06
-0.000251723 7.16085e-05 2.37793e-06
-7.42292e-06 2.37793e-06 -0.000127435
0.00164186 -0.000308096 -1.95631e-06
-0.000308096 0.000192093 -7.22673e-07
-1.95631e-06 -7.22673e-07 -5.46323e-06
0.000627656 -5.32365e-05 -1.21702e-05
-5.32365e-05 2.87269e-05 1.20055e-05
-1.21702e-05 1.20055e-05 -3.21005e-05
0.000704475 -9.46405e-05 -1.61439e-06
-9.46405e-05 9.21986e-05 3.49885e-06
-1.61439e-06 3.49885e-06 -3.86015e-05
0.000878614 -9.87058e-06 -2.29968e-07
-9.87058e-06 -9.75249e-05 -2.64994e-08
-2.29968e-07 -2.64994e-08 -0.000218518
0.00169994 -6.69965e-05 -6.14885e-06
-6.69965e-05 0.000386798 6.5137e-07
-6.14885e-06 6.5137e-07 0.000268712
0.0017163 -5.31732e-05 -1.79549e-06
-5.31732e-05 0.00021185 2.7607e-07
-1.79549e-06 2.7607e-07 8.86517e-05
0.00159096 -0.000139527 -6.35333e-07
-0.000139527 0.000155266 2.53834e-07
-6.35333e-07 2.53834e-07 1.29885e-05
0.000510073 -8.47505e-05 -1.62258e-08
-8.47505e-05 -5.17046e-05 3.92017e-07
-1.62258e-08 3.92017e-07 -0.000120811
0.000850308 -0.00018291 -7.39239e-07
-0.00018291 9.65189e-05 -5.78397e-07
-7.39239e-07 -5.78397e-07 -7.57672e-05
0.00102516 -0.000248179 2.62512e-06
-0.000248179 3.24289e-05 -8.92381e-07
2.62512e-06 -8.92381e-07 -0.000176692
0.0016958 -0.000212604 -2.88178e-06
-0.000212604 0.000263946 7.48734e-07
-2.88178e-06 7.48734e-07 0.000100744
0.00183506 -0.000220139 8.69502e-07
-0.000220139 0.000180295 -2.08e-07
8.69502e-07 -2.08e-07 4.2043e-05
0.00180296 -0.000353814 -1.68912e-06
-0.000353814 0.000333394 2.70346e-07
-1.68912e-06 2.70346e-07 0.000108148
0.00166575 -0.000284357 5.33313e-07
-0.000284357 0.000161873 -2.70733e-08
5.33313e-07 -2.70733e-08 -1.53965e-05
0.00187075 -0.000341775 7.55456e-07
-0.000341775 0.000259204 6.33654e-07
7.55456e-07 6.33654e-07 7.50513e-05
0.000724815 -0.000126211 -2.85168e-07
-0.000126211 9.98378e-05 -2.30022e-07
-2.85168e-07 -2.30022e-07 -5.03083e-05
0.000562339 -0.000107258 -4.66415e-07
-0.000107258 7.37807e-06 -5.98449e-07
-4.66415e-07 -5.98449e-07 -0.00016561
0.000677279 -4.51415e-05 -4.25325e-08
-4.51415e-05 7.48257e-05 6.3358e-08
-4.25325e-08 6.3358e-08 -3.49939e-05
0.00166405 -2.24719e-05 2.65838e-07
-2.24719e-05 0.000179211 3.83612e-09
2.65838e-07 3.83612e-09 5.64918e-05
0.00174684 -9.31597e-05 4.47973e-08
-9.31597e-05 0.000232134 4.50864e-07
4.47973e-08 4.50864e-07 0.000103928
0.00169995 -7.57248e-05 -1.93831e-06
-7.57248e-05 5.4907e-05 1.08839e-06
-1.93831e-06 1.08839e-06 -4.77663e-05
0.0017682 -0.000176631 -2.45202e-06
-0.000176631 0.000114085 1.23993e-06
-2.45202e-06 1.23993e-06 -1.0767e-05
0.001653 -0.000256992 -1.06264e-07
-0.000256992 0.000116942 1.53598e-06
-1.06264e-07 1.53598e-06 -3.89846e-05
0.00185752 -0.00024317 -7.77328e-07
-0.00024317 0.000140203 9.47444e-07
-7.77328e-07 9.47444e-07 2.51518e-05
0.000729609 -0.000149445 3.96128e-06
-0.000149445 8.32517e-05 -6.04581e-06
3.96128e-06 -6.04581e-06 -8.06932e-05
0.00173367 -0.000311594 -1.72097e-06
-0.000311594 0.000133009 1.84028e-06
-1.72097e-06 1.84028e-06 -2.59215e-05
0.00106587 -0.000244861 4.19413e-06
-0.000244861 0.000151587 -5.47457e-06
4.19413e-06 -5.47457e-06 -6.35014e-05
0.00138638 -0.000344132 4.39101e-06
-0.000344132 0.000177187 -1.37756e-06
4.39101e-06 -1.37756e-06 -7.19869e-05
0.00191705 -0.000390724 1.25617e-06
-0.000390724 0.000340044 3.2805e-06
1.25617e-06 3.2805e-06 0.000112965
0.00202116 -0.000364589 -3.1534e-06
-0.000364589 0.000326276 3.64292e-06
-3.1534e-06 3.64292e-06 0.00015599
0.000633795 -3.15305e-05 7.55499e-07
-3.15305e-05 5.2649e-05 -3.75409e-06
7.55499e-07 -3.75409e-06 -4.24895e-05
0.00076442 -0.000164688 2.37514e-07
-0.000164688 9.79911e-05 -1.6247e-07
2.37514e-07 -1.6247e-07 -7.80205e-05
0.000520101 -9.1814e-05 -6.45472e-07
-9.1814e-05 1.29899e-05 1.11941e-06
-6.45472e-07 1.11941e-06 -0.00016057
0.00133393 -0.000232416 -2.99327e-06
-0.000232416 0.000444441 2.37112e-06
-2.99327e-06 2.37112e-06 0.000245298
0.000973143 0.000136246 -1.37958e-05
0.000136246 -2.96984e-05 -4.83989e-06
-1.37958e-05 -4.83989e-06 -0.000176493
0.000430203 -6.67703e-05 1.73255e-06
-6.67703e-05 -6.37623e-05 -6.72517e-06
1.73255e-06 -6.72517e-06 -0.000101489
0.00037658 1.51341e-06 -5.89182e-06
1.51341e-06 -0.000111432 -1.06613e-05
-5.89182e-06 -1.06613e-05 -0.000164607
0.000468418 -5.01278e-06 3.91539e-08
-5.01278e-06 -4.33581e-05 -5.00641e-06
3.91539e-08 -5.00641e-06 -0.000150523
0.000967174 0.000173969 -1.34356e-05
0.000173969 1.79371e-05 -6.78515e-06
-1.34356e-05 -6.78515e-06 -0.000139872
0.0013983 0.000235682 -5.51687e-06
0.000235682 0.000113998 -1.42554e-06
-5.51687e-06 -1.42554e-06 -7.11209e-05
0.000714707 0.000146942 -4.89009e-06
0.000146942 6.93405e-05 -5.13768e-06
-4.89009e-06 -5.13768e-06 -9.7108e-05
0.00100664 0.000238506 -5.63312e-06
0.000238506 9.80995e-05 -4.62393e-06
-5.63312e-06 -4.62393e-06 -0.00012453
0.00134853 0.000249662 -5.84752e-06
0.000249662 0.000197503 -2.45286e-06
-5.84752e-06 -2.45286e-06 2.12737e-07
0.00104302 0.000269854 -3.67575e-06
0.000269854 1.13365e-07 3.85948e-08
-3.67575e-06 3.85948e-08 -0.000219864
0.000507885 -6.67246e-05 -3.0402e-07
-6.67246e-05 -2.83712e-05 2.07533e-07
-3.0402e-07 2.07533e-07 -5.90359e-05
0.000755583 0.000120453 2.58561e-07
0.000120453 0.000122465 -4.55546e-07
2.58561e-07 -4.55546e-07 -2.56556e-05
0.000614158 -1.29864e-05 -3.59626e-07
-1.29864e-05 3.82754e-05 7.09244e-07
-3.59626e-07 7.09244e-07 -4.49283e-05
0.000786399 9.18516e-05 1.31015e-06
9.18516e-05 0.00017623 -8.49881e-07
1.31015e-06 -8.49881e-07 7.01264e-06
0.00145168 0.00020948 -5.9555e-08
0.00020948 9.90841e-05 -4.18167e-07
-5.9555e-08 -4.18167e-07 -7.20809e-05
0.00129136 0.000245681 4.59145e-07
0.000245681 0.000104358 6.30109e-08
4.59145e-07 6.30109e-08 -8.92059e-05
0.00171796 0.000309613 2.44152e-07
0.000309613 0.000187814 1.28393e-07
2.44152e-07 1.28393e-07 -3.34385e-06
0.00105972 0.000223598 1.27109e-06
0.000223598 0.000219172 3.47564e-07
1.27109e-06 3.47564e-07 6.56884e-06
0.00171571 0.00033828 -1.10541e-06
0.00033828 0.000333642 -1.75075e-07
-1.10541e-06 -1.75075e-07 0.000113869
0.00125337 0.000285769 7.14754e-08
0.000285769 0.000178324 -1.5898e-06
7.14754e-08 -1.5898e-06 -7.14024e-05
0.00154606 0.000318148 -3.55609e-06
0.000318148 0.000214973 5.78729e-07
-3.55609e-06 5.78729e-07 -1.21998e-05
0.000525618 -5.77284e-05 -5.03405e-07
-5.77284e-05 -3.13252e-05 5.16319e-06
-5.03405e-07 5.16319e-06 -5.62719e-05
0.000670442 -6.85916e-06 1.68459e-06
-6.85916e-06 5.92606e-05 3.47582e-06
1.68459e-06 3.47582e-06 -7.84664e-06
0.00105768 0.000193869 1.15328e-06
0.000193869 0.000286914 1.99932e-06
1.15328e-06 1.99932e-06 0.000100711
0.00108833 6.60621e-05 -7.82728e-07
6.60621e-05 0.000363409 2.57711e-06
-7.82728e-07 2.57711e-06 0.00021476
0.00115582 0.000179946 -4.5548e-07
0.000179946 0.000373451 -1.99254e-06
-4.5548e-07 -1.99254e-06 0.000181484
0.00178766 0.000273866 9.87321e-07
0.000273866 0.000181133 -1.4968e-06
9.87321e-07 -1.4968e-06 1.26795e-05
0.00163526 0.000334909 9.40153e-07
0.000334909 0.000207687 1.63476e-07
9.40153e-07 1.63476e-07 -3.10749e-06
0.00183892 0.000346608 3.37858e-08
0.000346608 0.000221709 -1.9493e-07
3.37858e-08 -1.9493e-07 3.72526e-05
0.00108992 0.000267755 2.84371e-06
0.000267755 0.000185726 4.27371e-06
2.84371e-06 4.27371e-06 -5.98096e-05
0.00193934 0.000404839 1.15853e-06
0.000404839 0.000399142 -6.07406e-07
1.15853e-06 -6.07406e-07 0.000167933
0.000769175 0.000260389 4.58966e-06
0.000260389 -0.000171639 -1.30783e-06
4.58966e-06 -1.30783e-06 -0.000418641
0.000615987 4.2593e-06 2.68853e-06
4.2593e-06 1.76974e-05 2.4283e-06
2.68853e-06 2.4283e-06 -3.55319e-05
0.000678835 4.94395e-05 1.69584e-07
4.94395e-05 8.47418e-05 1.16757e-06
1.69584e-07 1.16757e-06 -3.36541e-06
0.000634623 1.95554e-05 2.20231e-06
1.95554e-05 3.22827e-05 2.40394e-06
2.20231e-06 2.40394e-06 -1.90423e-05
0.000602473 -1.47512e-05 -5.50339e-07
-1.47512e-05 1.15533e-05 3.91219e-11
-5.50339e-07 3.91219e-11 -4.08843e-05
0.00124368 -5.11416e-05 1.06401e-06
-5.11416e-05 0.000383735 2.72457e-06
1.06401e-06 2.72457e-06 0.000369426
0.000912245 -5.13663e-05 5.18422e-07
-5.13663e-05 0.000189439 -9.61638e-08
5.18422e-07 -9.61638e-08 0.000171062
0.00089595 -5.21405e-05 2.36785e-05
-5.21405e-05 0.000191496 7.53219e-06
2.36785e-05 7.53219e-06 0.000192582
0.00239197 -0.000102217 3.85188e-06
-0.000102217 0.00110205 -3.44703e-07
3.85188e-06 -3.44703e-07 0.00110609
0.00242469 -0.000114676 -3.30006e-05
-0.000114676 0.00113026 -3.02232e-06
-3.30006e-05 -3.02232e-06 0.001131
0.000456048 1.66286e-05 1.48219e-06
1.66286e-05 -6.0667e-05 -6.60988e-06
1.48219e-06 -6.60988e-06 -9.51011e-05
0.00315113 0.000134095 5.99248e-05
0.000134095 0.0015718 -3.27159e-06
5.99248e-05 -3.27159e-06 0.00156621
0.000520752 -7.21751e-06 -4.52873e-07
-7.21751e-06 -2.33772e-05 2.36412e-07
-4.52873e-07 2.36412e-07 -6.59505e-05
0.00367102 0.000121897 -5.99649e-06
0.000121897 0.00188535 -5.67058e-07
-5.99649e-06 -5.67058e-07 0.00188196
0.000633591 -2.12687e-05 -7.66266e-06
-2.12687e-05 3.87047e-05 1.01021e-05
-7.66266e-06 1.01021e-05 -1.29999e-05
0.00422501 0.000121426 -0.000136885
0.000121426 0.00221693 8.4875e-06
-0.000136885 8.4875e-06 0.00221237
0.000983029 0.000114997 -1.27667e-05
0.000114997 -3.82227e-05 -3.71776e-06
-1.27667e-05 -3.71776e-06 -0.000178759
0.000987497 6.84491e-05 -1.21097e-05
6.84491e-05 -4.34959e-05 -2.09345e-06
-1.21097e-05 -2.09345e-06 -0.000171705
0.00150016 0.000137756 -3.12374e-06
0.000137756 7.63314e-05 -2.23571e-07
-3.12374e-06 -2.23571e-07 -6.85886e-05
0.00147632 6.19309e-05 -1.64155e-06
6.19309e-05 5.6636e-05 7.52317e-08
-1.64155e-06 7.52317e-08 -7.0556e-05
0.000987499 2.47156e-05 -1.2342e-05
2.47156e-05 -3.83484e-05 -7.33382e-07
-1.2342e-05 -7.33382e-07 -0.000159959
0.000564834 2.7602e-05 -1.90814e-05
2.7602e-05 -0.000130209 -1.57385e-07
-1.90814e-05 -1.57385e-07 -0.000198249
0.000986759 1.84097e-06 -3.56655e-10
1.84097e-06 -3.42355e-05 -1.54385e-07
-3.56655e-10 -1.54385e-07 -0.000154903
0.00146825 3.44165e-05 -6.75135e-08
3.44165e-05 5.41079e-05 4.21906e-08
-6.75135e-08 4.21906e-08 -6.93939e-05
0.0014977 9.86049e-05 -1.47744e-09
9.86049e-05 6.82598e-05 2.18582e-08
-1.47744e-09 2.18582e-08 -6.58598e-05
0.00181042 8.84569e-05 1.01567e-07
8.84569e-05 9.865e-05 2.62766e-07
1.01567e-07 2.62766e-07 1.9124e-06
0.00149421 0.000177613 -2.27776e-07
0.000177613 9.06155e-05 -8.26869e-08
-2.27776e-07 -8.26869e-08 -6.67474e-05
0.00180458 0.000181824 -3.31697e-07
0.000181824 0.000127266 -4.1486e-10
-3.31697e-07 -4.1486e-10 4.28825e-07
0.00146183 5.06767e-06 1.7377e-06
5.06767e-06 5.33097e-05 1.17284e-08
1.7377e-06 1.17284e-08 -6.91288e-05
0.00181954 4.53411e-05 -3.5249e-06
4.53411e-05 0.000114317 -1.22903e-07
-3.5249e-06 -1.22903e-07 2.59977e-05
0.00181738 0.000140601 -1.45918e-06
0.000140601 0.000109737 -9.0104e-07
-1.45918e-06 -9.0104e-07 -1.18396e-06
0.00178859 8.90099e-05 3.51051e-06
8.90099e-05 2.79808e-05 3.8936e-07
3.51051e-06 3.8936e-07 -4.36951e-05
0.00181581 0.000228739 1.78966e-07
0.000228739 0.000166596 -1.23489e-06
1.78966e-07 -1.23489e-06 2.04922e-05
0.00176384 0.000203318 -6.16865e-08
0.000203318 4.0417e-05 -1.19481e-06
-6.16865e-08 -1.19481e-06 -6.03358e-05
0.000773229 -6.62022e-06 -1.21603e-05
-6.62022e-06 -0.000160555 7.29918e-07
-1.21603e-05 7.29918e-07 -0.000281965
0.00173161 -6.94471e-05 -2.41122e-05
-6.94471e-05 0.000404386 2.91426e-06
-2.41122e-05 2.91426e-06 0.000286343
0.00177887 -4.73257e-05 -4.9789e-06
-4.73257e-05 0.000245227 1.03827e-07
-4.9789e-06 1.03827e-07 0.000125313
0.00167201 -0.000140586 -3.99363e-06
-0.000140586 0.000204932 9.75234e-07
-3.99363e-06 9.75234e-07 6.12983e-05
0.000741115 -0.000101692 -1.70031e-05
-0.000101692 8.36906e-05 1.42706e-05
-1.70031e-05 1.42706e-05 1.0748e-05
0.000760321 -0.000187503 -8.76523e-06
-0.000187503 4.58306e-05 7.08005e-06
-8.76523e-06 7.08005e-06 -0.000127305
0.00108105 -0.000251936 -5.36144e-06
-0.000251936 6.59477e-05 2.58643e-06
-5.36144e-06 2.58643e-06 -0.000143039
0.00170899 -0.000210881 -7.83668e-06
-0.000210881 0.000271196 2.27022e-06
-7.83668e-06 2.27022e-06 0.000107019
0.00189462 -0.00022445 5.75626e-07
-0.00022445 0.00020921 -1.1756e-06
5.75626e-07 -1.1756e-06 7.46713e-05
0.00168557 -0.000284976 -1.0277e-06
-0.000284976 0.00017503 -6.29394e-07
-1.0277e-06 -6.29394e-07 -1.90557e-06
0.00179516 -0.000357406 -4.58221e-06
-0.000357406 0.000331816 -5.41663e-07
-4.58221e-06 -5.41663e-07 0.000105407
0.00180792 -0.000338839 3.12726e-06
-0.000338839 0.000215847 -2.57355e-06
3.12726e-06 -2.57355e-06 3.18717e-05
0.000756767 -0.000131256 -3.68758e-06
-0.000131256 0.000112272 5.20644e-06
-3.68758e-06 5.20644e-06 -3.69033e-05
0.000438463 -9.25482e-05 -3.99369e-07
-9.25482e-05 -6.58025e-05 -1.12891e-06
-3.99369e-07 -1.12891e-06 -0.000237172
0.00060576 -5.36523e-05 -1.69085e-06
-5.36523e-05 3.21685e-05 3.2781e-06
-1.69085e-06 3.2781e-06 -7.96169e-05
0.00158072 -2.01518e-05 -1.98577e-06
-2.01518e-05 0.000128232 1.39945e-07
-1.98577e-06 1.39945e-07 5.33397e-06
0.00174765 -0.000100937 -2.85759e-06
-0.000100937 0.000231708 4.46628e-07
-2.85759e-06 4.46628e-07 0.000102567
0.00175783 -7.28262e-05 1.74536e-06
-7.28262e-05 8.98844e-05 5.63256e-07
1.74536e-06 5.63256e-07 -7.27005e-06
0.00176205 -0.000172822 -1.73033e-06
-0.000172822 0.000109527 5.52505e-07
-1.73033e-06 5.52505e-07 -1.65464e-05
0.000751577 -0.000166014 3.71866e-07
-0.000166014 9.81908e-05 5.36709e-08
3.71866e-07 5.36709e-08 -6.9213e-05
0.00110513 -0.000249347 -1.54406e-06
-0.000249347 0.000169391 -6.31362e-07
-1.54406e-06 -6.31362e-07 -4.60923e-05
0.00144963 -0.000345124 2.42453e-06
-0.000345124 0.000223243 -2.53649e-07
2.42453e-06 -2.53649e-07 -2.57098e-05
0.0016494 -0.000255421 -9.69361e-07
-0.000255421 0.00011719 6.25055e-07
-9.69361e-07 6.25055e-07 -4.21244e-05
0.00188854 -0.000244747 1.71423e-06
-0.000244747 0.000158017 -2.1248e-08
1.71423e-06 -2.1248e-08 4.704e-05
0.00182623 -0.000391068 -6.77705e-07
-0.000391068 0.000282705 4.32406e-07
-6.77705e-07 4.32406e-07 5.28929e-05
0.00176612 -0.000312567 7.07321e-08
-0.000312567 0.000152023 3.54346e-07
7.07321e-08 3.54346e-07 -6.80953e-06
0.00204388 -0.000360984 1.91041e-06
-0.000360984 0.000337922 -2.25782e-07
1.91041e-06 -2.25782e-07 0.000171425
0.000987756 -0.00019211 4.32693e-07
-0.00019211 0.000233905 8.847e-07
4.32693e-07 8.847e-07 5.06254e-05
0.00116302 -0.000226098 -3.0007e-07
-0.000226098 0.000349615 3.35653e-07
-3.0007e-07 3.35653e-07 0.00014815
0.000625914 -3.66072e-05 -7.19311e-08
-3.66072e-05 4.6705e-05 1.60302e-07
-7.19311e-08 1.60302e-07 -4.91417e-05
0.00034393 -4.83679e-05 -1.27641e-07
-4.83679e-05 -0.000103577 -6.79403e-07
-1.27641e-07 -6.79403e-07 -0.000264861
0.0017704 -3.97815e-05 -2.4115e-06
-3.97815e-05 9.5629e-05 1.15771e-07
-2.4115e-06 1.15771e-07 1.52067e-06
0.00184593 -0.000120566 -5.31551e-07
-0.000120566 0.000141482 1.36674e-06
-5.31551e-07 1.36674e-06 3.17329e-05
0.00173369 -8.24026e-05 2.39203e-06
-8.24026e-05 2.81884e-05 -1.96324e-07
2.39203e-06 -1.96324e-07 -4.7808e-05
0.00181503 -0.000199154 -2.92396e-06
-0.000199154 7.08016e-05 6.72039e-07
-2.92396e-06 6.72039e-07 -2.00956e-05
0.00173097 -0.000277359 -3.16187e-06
-0.000277359 9.87279e-05 2.50574e-06
-3.16187e-06 2.50574e-06 -3.38994e-05
0.00199488 -0.000253186 2.94285e-06
-0.000253186 0.000206941 -1.14049e-06
2.94285e-06 -1.14049e-06 0.000109095
0.000964698 -0.00022045 7.53203e-07
-0.00022045 0.000172785 -4.56842e-06
7.53203e-07 -4.56842e-06 -2.92266e-05
0.00166354 -0.000322588 -4.52651e-06
-0.000322588 7.20443e-05 2.11255e-06
-4.52651e-06 2.11255e-06 -6.45854e-05
0.00132182 -0.000319064 2.98672e-06
-0.000319064 0.000252993 -3.82538e-06
2.98672e-06 -3.82538e-06 1.00842e-06
0.00169753 -0.000421325 -1.64581e-06
-0.000421325 0.000304658 1.78801e-06
-1.64581e-06 1.78801e-06 2.95037e-05
0.00176434 -0.000398354 1.64259e-06
-0.000398354 0.000201045 5.03581e-06
1.64259e-06 5.03581e-06 -2.39951e-05
0.00206923 -0.000350308 1.28198e-07
-0.000350308 0.000340378 7.37655e-07
1.28198e-07 7.37655e-07 0.000181202
0.000522243 -3.75726e-05 9.24071e-07
-3.75726e-05 -1.35909e-05 -3.40513e-06
9.24071e-07 -3.40513e-06 -9.55662e-05
0.000460927 -4.60314e-05 -1.96983e-06
-4.60314e-05 -2.20949e-05 -9.98097e-07
-1.96983e-06 -9.98097e-07 -0.000168522
0.000910135 -0.00022326 -1.67603e-06
-0.00022326 0.000156438 5.14243e-07
-1.67603e-06 5.14243e-07 -4.29462e-05
0.000824345 -0.000159048 6.00956e-08
-0.000159048 0.000201099 3.18635e-06
6.00956e-08 3.18635e-06 3.51606e-06
0.00147132 -0.000277064 -4.83166e-06
-0.000277064 0.000514677 4.37305e-06
-4.83166e-06 4.37305e-06 0.000310933
0.000470915 -6.20736e-05 -3.49636e-07
-6.20736e-05 -5.29166e-05 -5.17806e-06
-3.49636e-07 -5.17806e-06 -8.2041e-05
0.00144403 0.000208735 -4.49721e-06
0.000208735 9.60399e-05 -1.25885e-06
-4.49721e-06 -1.25885e-06 -7.53625e-05
0.000491407 -2.98184e-05 -4.047e-07
-2.98184e-05 -3.14847e-05 -3.60821e-06
-4.047e-07 -3.60821e-06 -0.00011466
0.000680302 9.25136e-05 -1.76023e-06
9.25136e-05 7.42848e-05 -4.92028e-06
-1.76023e-06 -4.92028e-06 -6.6899e-05
0.000522185 7.00094e-05 1.18284e-06
7.00094e-05 1.45197e-05 -4.64397e-07
1.18284e-06 -4.64397e-07 -0.000148892
0.00133734 0.000247771 -6.17927e-06
0.000247771 0.000136375 -2.25504e-06
-6.17927e-06 -2.25504e-06 -5.74925e-05
0.00169177 0.00030802 -1.29758e-08
0.00030802 0.000171613 6.00931e-07
-1.29758e-08 6.00931e-07 -1.95868e-05
0.000883239 0.000213724 -1.63602e-06
0.000213724 0.000116872 -4.19723e-06
-1.63602e-06 -4.19723e-06 -9.57682e-05
0.00137421 0.000302564 -2.86414e-06
0.000302564 0.00024235 -1.56881e-06
-2.86414e-06 -1.56881e-06 -1.15671e-05
0.00176531 0.000337354 -2.06915e-06
0.000337354 0.000363735 -2.34881e-07
-2.06915e-06 -2.34881e-07 0.000144457
0.00160628 0.000324146 -5.2523e-06
0.000324146 0.000251547 4.10674e-06
-5.2523e-06 4.10674e-06 2.39453e-05
0.000531596 -5.16012e-05 6.96504e-09
-5.16012e-05 -3.07621e-05 3.95356e-09
6.96504e-09 3.95356e-09 -5.41094e-05
0.000631464 -1.62931e-05 -6.38741e-07
-1.62931e-05 3.91254e-05 3.10675e-07
-6.38741e-07 3.10675e-07 -2.81505e-05
0.00097714 0.000187325 -1.92943e-07
0.000187325 0.000238464 1.06405e-06
-1.92943e-07 1.06405e-06 5.35127e-05
0.000668707 2.43961e-05 -4.1373e-07
2.43961e-05 0.000103764 1.43651e-08
-4.1373e-07 1.43651e-08 -3.38419e-05
0.000612713 0.000121479 7.0499e-07
0.000121479 4.16177e-05 -5.90828e-07
7.0499e-07 -5.90828e-07 -0.00013803
0.00176972 0.000274313 -3.33496e-07
0.000274313 0.00016771 -9.2558e-07
-3.33496e-07 -9.2558e-07 -1.16777e-06
0.00162416 0.000335016 5.12708e-07
0.000335016 0.000198349 1.97943e-07
5.12708e-07 1.97943e-07 -1.28653e-05
0.0017577 0.00034285 1.77425e-06
0.00034285 0.000175467 2.26584e-07
1.77425e-06 2.26584e-07 -9.2925e-06
0.00123405 0.000281349 1.39996e-06
0.000281349 0.000278785 6.13206e-07
1.39996e-06 6.13206e-07 2.91006e-05
0.00183443 0.000394959 1.02232e-06
0.000394959 0.000319531 1.60241e-07
1.02232e-06 1.60241e-07 8.85133e-05
0.00140069 0.000315469 -1.388e-06
0.000315469 0.000201314 3.3091e-07
-1.388e-06 3.3091e-07 -5.2995e-05
0.000681797 -2.40372e-06 2.13089e-06
-2.40372e-06 5.89875e-05 2.67782e-06
2.13089e-06 2.67782e-06 1.29282e-06
0.0009163 6.39069e-05 6.79374e-07
6.39069e-05 0.000239666 2.80295e-06
6.79374e-07 2.80295e-06 0.000126674
0.0011004 0.000244189 -3.1573e-06
0.000244189 0.00027053 -8.01976e-07
-3.1573e-06 -8.01976e-07 6.66453e-05
0.00129898 9.6201e-05 -1.71425e-07
9.6201e-05 0.000484048 5.57929e-07
-1.71425e-07 5.57929e-07 0.000311032
0.00114905 0.00014947 -5.8605e-06
0.00014947 0.000313591 -6.58745e-06
-5.8605e-06 -6.58745e-06 0.000147329
0.00179472 0.000284886 -2.80216e-06
0.000284886 0.00014999 -2.60835e-06
-2.80216e-06 -2.60835e-06 -1.87784e-06
0.00181868 0.000392778 1.26589e-06
0.000392778 0.000257261 2.6147e-07
1.26589e-06 2.6147e-07 4.27733e-05
0.00155643 0.000364023 3.30147e-06
0.000364023 3.16605e-05 -6.66708e-07
3.30147e-06 -6.66708e-07 -0.000150838
0.00082753 0.000259903 -1.36755e-06
0.000259903 3.23527e-05 2.62938e-06
-1.36755e-06 2.62938e-06 -0.000222141
0.00141435 0.000363486 6.3219e-06
0.000363486 0.00013188 -1.1532e-06
6.3219e-06 -1.1532e-06 -0.000116951
0.000619843 -3.29368e-06 -1.88411e-07
-3.29368e-06 1.92084e-05 2.82125e-08
-1.88411e-07 2.82125e-08 -3.36384e-05
0.000550126 2.63957e-05 1.51897e-06
2.63957e-05 -2.9346e-06 1.65883e-06
1.51897e-06 1.65883e-06 -8.5416e-05
0.000537882 1.70959e-05 -5.98884e-07
1.70959e-05 -6.51737e-06 -1.15509e-07
-5.98884e-07 -1.15509e-07 -8.85595e-05
0.000932154 9.73789e-05 3.60241e-07
9.73789e-05 0.000240505 -5.7137e-07
3.60241e-07 -5.7137e-07 0.000137346
0.000676302 7.48023e-05 1.97698e-06
7.48023e-05 8.46655e-05 1.54499e-06
1.97698e-06 1.54499e-06 -2.38553e-06
0.000609426 3.17297e-05 2.30019e-06
3.17297e-05 2.30814e-05 2.48633e-06
2.30019e-06 2.48633e-06 -2.94715e-05
0.000606503 -6.77844e-06 -6.3196e-07
-6.77844e-06 1.67096e-05 -8.78149e-09
-6.3196e-07 -8.78149e-09 -3.50258e-05
0.00124362 -3.82432e-05 8.98138e-07
-3.82432e-05 0.000380448 2.5926e-06
8.98138e-07 2.5926e-06 0.000368011
0.000611482 -1.35279e-05 -1.38334e-06
-1.35279e-05 1.52324e-05 -2.44453e-06
-1.38334e-06 -2.44453e-06 -3.59121e-05
0.00129651 -4.79417e-05 -5.47665e-06
-4.79417e-05 0.000415124 -1.41074e-06
-5.47665e-06 -1.41074e-06 0.000401308
0.000856137 -4.07572e-05 2.3565e-05
-4.07572e-05 0.000159192 7.65713e-06
2.3565e-05 7.65713e-06 0.000163531
0.00131533 -5.69783e-05 -9.63705e-06
-5.69783e-05 0.000432112 -3.92527e-06
-9.63705e-06 -3.92527e-06 0.000416023
0.00158663 -6.89996e-05 2.11315e-05
-6.89996e-05 0.000608043 1.89754e-06
2.11315e-05 1.89754e-06 0.000612409
0.00234098 -9.91184e-05 -2.91027e-05
-9.91184e-05 0.00107022 -3.58119e-06
-2.91027e-05 -3.58119e-06 0.00107492
0.000454911 6.58309e-05 -2.58978e-06
6.58309e-05 -5.67894e-05 -5.41673e-06
-2.58978e-06 -5.41673e-06 -8.93397e-05
0.000503618 1.67893e-05 4.09577e-07
1.67893e-05 -3.09885e-05 3.60608e-07
4.09577e-07 3.60608e-07 -6.69501e-05
0.00276133 0.000124305 3.33723e-05
0.000124305 0.00133334 -3.53198e-06
3.33723e-05 -3.53198e-06 0.00133032
0.00326283 0.000111023 -7.27451e-06
0.000111023 0.00163575 -4.57205e-07
-7.27451e-06 -4.57205e-07 0.00163571
0.000629319 -8.80469e-06 -6.11148e-06
-8.80469e-06 4.0484e-05 8.21117e-06
-6.11148e-06 8.21117e-06 -2.83254e-06
0.00379836 0.000106679 -0.000121109
0.000106679 0.00195718 7.08144e-06
-0.000121109 7.08144e-06 0.00195726
0.00148192 0.000176979 -3.90908e-06
0.000176979 8.52829e-05 -5.17995e-07
-3.90908e-06 -5.17995e-07 -7.23379e-05
0.00148225 9.89378e-05 -2.07632e-06
9.89378e-05 6.03863e-05 -3.69753e-08
-2.07632e-06 -3.69753e-08 -7.41725e-05
0.00179097 0.000180477 -4.2498e-07
0.000180477 0.000122919 1.34808e-06
-4.2498e-07 1.34808e-06 -4.03277e-06
0.00181036 8.72657e-05 1.10737e-06
8.72657e-05 9.24263e-05 7.02903e-07
1.10737e-06 7.02903e-07 -1.43093e-06
0.00146349 3.72273e-05 -1.60861e-06
3.72273e-05 5.24314e-05 -1.86986e-08
-1.60861e-06 -1.86986e-08 -7.12476e-05
0.000991679 6.44649e-06 -1.21219e-05
6.44649e-06 -3.19016e-05 -7.84246e-08
-1.21219e-05 -7.84246e-08 -0.000152537
0.00145682 8.64654e-06 7.19419e-08
8.64654e-06 5.20363e-05 3.16598e-08
7.19419e-08 3.16598e-08 -7.05037e-05
0.00181298 3.66721e-05 -2.04765e-06
3.66721e-05 0.00011073 -6.97638e-08
-2.04765e-06 -6.97638e-08 2.28488e-05
0.00181849 0.000139283 -3.06201e-07
0.000139283 0.000110076 2.40689e-07
-3.06201e-07 2.40689e-07 -7.44814e-07
0.00181242 8.72729e-05 2.3348e-06
8.72729e-05 4.15943e-05 6.84498e-07
2.3348e-06 6.84498e-07 -2.47785e-05
0.00178747 0.00022924 -2.84948e-07
0.00022924 0.000145035 -1.08152e-07
-2.84948e-07 -1.08152e-07 -1.69395e-06
0.00179058 0.000200172 -3.83093e-07
0.000200172 5.46318e-05 8.09456e-07
-3.83093e-07 8.09456e-07 -4.29691e-05
0.00178222 1.51896e-06 -2.6412e-06
1.51896e-06 0.000101994 1.51468e-07
-2.6412e-06 1.51468e-07 1.45089e-05
0.00177581 4.06733e-05 3.87081e-06
4.06733e-05 3.10865e-05 2.30959e-07
3.87081e-06 2.30959e-07 -2.91162e-05
0.00182387 0.000145669 2.84745e-07
0.000145669 5.03904e-05 -5.31509e-07
2.84745e-07 -5.31509e-07 -2.75998e-05
0.00184079 9.29859e-05 5.83107e-06
9.29859e-05 3.51254e-05 6.67055e-07
5.83107e-06 6.67055e-07 -1.548e-05
0.00177154 0.00022861 -1.60163e-07
0.00022861 9.05844e-05 -2.2334e-06
-1.60163e-07 -2.2334e-06 -3.01918e-05
0.00190187 0.000208782 3.93334e-06
0.000208782 8.39287e-05 9.5239e-07
3.93334e-06 9.5239e-07 2.46462e-06
0.00148414 -1.80248e-05 -3.60314e-06
-1.80248e-05 6.97287e-05 7.45055e-08
-3.60314e-06 7.45055e-08 -5.33711e-05
0.00175954 -0.000106059 -5.87569e-06
-0.000106059 0.000237678 6.93975e-07
-5.87569e-06 6.93975e-07 0.000107877
0.00179664 -7.09771e-05 3.39308e-06
-7.09771e-05 0.00011381 -1.22699e-06
3.39308e-06 -1.22699e-06 2.2022e-05
0.00174599 -0.000169298 -2.67253e-07
-0.000169298 9.94258e-05 -9.3393e-08
-2.67253e-07 -9.3393e-08 -2.79532e-05
0.000863956 -0.000189978 -5.78727e-06
-0.000189978 0.000166569 7.74728e-06
-5.78727e-06 7.74728e-06 -4.68345e-06
0.00116296 -0.000255723 -6.51064e-06
-0.000255723 0.000197783 3.84297e-06
-6.51064e-06 3.84297e-06 -1.84599e-05
0.00134752 -0.000331188 -4.67999e-07
-0.000331188 0.000171082 8.10789e-07
-4.67999e-07 8.10789e-07 -7.58612e-05
0.00165047 -0.000254084 -1.0946e-06
-0.000254084 0.000120206 1.55306e-07
-1.0946e-06 1.55306e-07 -4.25301e-05
0.00192248 -0.00024604 2.64049e-06
-0.00024604 0.000178323 -1.65852e-06
2.64049e-06 -1.65852e-06 7.1448e-05
0.00180246 -0.000313777 2.17794e-06
-0.000313777 0.000173342 -1.12727e-06
2.17794e-06 -1.12727e-06 1.45849e-05
0.00175459 -0.000393942 -5.0335e-07
-0.000393942 0.000235957 -1.98839e-06
-5.0335e-07 -1.98839e-06 2.84198e-06
0.00205291 -0.000356669 5.68766e-06
-0.000356669 0.000342334 -6.1712e-06
5.68766e-06 -6.1712e-06 0.000179691
0.000925451 -0.000191876 6.14353e-07
-0.000191876 0.00019923 1.91738e-06
6.14353e-07 1.91738e-06 1.4737e-05
0.000602869 -0.000159726 9.51976e-07
-0.000159726 6.53359e-06 -7.03731e-07
9.51976e-07 -7.03731e-07 -0.000180379
0.000701433 -4.27586e-05 -1.34447e-06
-4.27586e-05 8.89816e-05 3.6078e-06
-1.34447e-06 3.6078e-06 -7.1207e-06
0.000227193 -1.77154e-05 9.95365e-07
-1.77154e-05 -0.000178703 -2.372e-06
9.95365e-07 -2.372e-06 -0.000331056
0.00176977 -3.98913e-05 5.96202e-09
-3.98913e-05 9.67634e-05 1.11176e-07
5.96202e-09 1.11176e-07 2.5609e-06
0.0017936 -0.000119888 7.05182e-07
-0.000119888 0.000113715 -3.60692e-07
7.05182e-07 -3.60692e-07 1.78071e-06
0.0017619 -8.07499e-05 2.21864e-06
-8.07499e-05 4.42472e-05 -6.05995e-07
2.21864e-06 -6.05995e-07 -2.73135e-05
0.00178682 -0.000195675 -1.8501e-06
-0.000195675 5.97563e-05 6.68441e-07
-1.8501e-06 6.68441e-07 -3.3149e-05
0.00100028 -0.000217197 -1.29194e-06
-0.000217197 0.000195892 5.88448e-07
-1.29194e-06 5.88448e-07 -5.34825e-06
0.00108142 -0.000290946 1.88751e-06
-0.000290946 0.000109875 -1.84234e-06
1.88751e-06 -1.84234e-06 -0.000134588
0.00162637 -0.000420614 -1.54117e-07
-0.000420614 0.000261397 9.80235e-07
-1.54117e-07 9.80235e-07 -1.71857e-05
0.00170605 -0.000274633 -1.51869e-06
-0.000274633 9.02723e-05 7.86626e-07
-1.51869e-06 7.86626e-07 -4.60103e-05
0.00187197 -0.000249826 1.93419e-06
-0.000249826 0.000132381 -9.9022e-07
1.93419e-06 -9.9022e-07 3.86667e-05
0.0017601 -0.000401041 -5.58492e-07
-0.000401041 0.000204537 6.16753e-07
-5.58492e-07 6.16753e-07 -2.21808e-05
0.00172309 -0.000326324 -6.52746e-07
-0.000326324 0.000102139 1.05304e-06
-6.52746e-07 1.05304e-06 -3.50582e-05
0.00190291 -0.00033946 3.73675e-06
-0.00033946 0.000230643 -5.5919e-06
3.73675e-06 -5.5919e-06 7.72258e-05
0.00104974 -0.000237336 5.92705e-07
-0.000237336 0.000233957 1.55859e-06
5.92705e-07 1.55859e-06 3.24967e-05
0.00129551 -0.000253915 3.88995e-06
-0.000253915 0.000401963 1.45061e-06
3.88995e-06 1.45061e-06 0.000207864
0.000771763 -0.000124668 -1.79955e-07
-0.000124668 0.000166721 -3.02847e-07
-1.79955e-07 -3.02847e-07 -3.12857e-05
0.000458198 -1.16358e-05 -1.44357e-06
-1.16358e-05 -5.21249e-05 4.92793e-07
-1.44357e-06 4.92793e-07 -0.000135516
0.000349045 -1.12294e-05 -3.23063e-07
-1.12294e-05 -9.16044e-05 -5.10881e-07
-3.23063e-07 -5.10881e-07 -0.000230868
0.00189372 -5.20261e-05 2.16906e-06
-5.20261e-05 0.000105414 -7.442e-07
2.16906e-06 -7.442e-07 4.92109e-05
0.00188403 -0.000117998 3.37861e-06
-0.000117998 9.4058e-05 6.9079e-08
3.37861e-06 6.9079e-08 2.22346e-05
0.00185215 -0.000237892 1.34778e-06
-0.000237892 6.73184e-05 -1.83082e-06
1.34778e-06 -1.83082e-06 -7.87469e-06
0.00168912 -0.000274947 -3.21692e-07
-0.000274947 4.50739e-05 -3.72004e-07
-3.21692e-07 -3.72004e-07 -6.18476e-05
0.00128609 -0.000278473 -2.11483e-06
-0.000278473 0.000324008 -4.70239e-06
-2.11483e-06 -4.70239e-06 9.58726e-05
0.0022386 -0.000391701 -2.89744e-06
-0.000391701 0.000338566 1.89155e-07
-2.89744e-06 1.89155e-07 0.000202586
0.00139157 -0.000373258 2.88837e-06
-0.000373258 0.000258809 -4.6246e-06
2.88837e-06 -4.6246e-06 -2.46263e-05
0.00175949 -0.000471774 -6.20989e-07
-0.000471774 0.000300885 2.15907e-06
-6.20989e-07 2.15907e-06 7.04624e-06
0.00165683 -0.000385434 1.80543e-06
-0.000385434 0.000119691 3.90597e-06
1.80543e-06 3.90597e-06 -9.75852e-05
0.000223314 9.56122e-06 8.93587e-08
9.56122e-06 -0.000191312 -3.52761e-06
8.93587e-08 -3.52761e-06 -0.000261758
0.000716894 -4.71196e-05 5.63236e-07
-4.71196e-05 0.000141188 -8.91719e-07
5.63236e-07 -8.91719e-07 1.05462e-05
0.0010077 -7.99796e-05 -1.39217e-06
-7.99796e-05 0.000303932 1.19472e-06
-1.39217e-06 1.19472e-06 0.000135779
0.00120092 -0.000263038 -7.74319e-06
-0.000263038 0.000301818 3.19371e-07
-7.74319e-06 3.19371e-07 9.68956e-05
0.00044941 -0.000130366 2.82471e-06
-0.000130366 -3.98518e-05 5.67149e-06
2.82471e-06 5.67149e-06 -0.000248316
0.000670202 -0.000216955 -1.98397e-06
-0.000216955 -4.67941e-06 8.21209e-07
-1.98397e-06 8.21209e-07 -0.000190974
0.000537284 -4.95973e-05 -1.09742e-06
-4.95973e-05 -2.86375e-05 -4.70435e-06
-1.09742e-06 -4.70435e-06 -5.14188e-05
0.000579299 -2.03864e-05 -1.76444e-06
-2.03864e-05 1.04185e-05 -2.86847e-06
-1.76444e-06 -2.86847e-06 -5.67792e-05
0.00175034 0.000274748 -1.62395e-06
0.000274748 0.000153219 -3.56268e-07
-1.62395e-06 -3.56268e-07 -1.60991e-05
0.000264317 -5.12197e-05 1.21157e-06
-5.12197e-05 -0.000139502 -2.67255e-06
1.21157e-06 -2.67255e-06 -0.000269791
0.000776535 0.000170049 -1.05027e-06
0.000170049 0.000121322 2.35225e-07
-1.05027e-06 2.35225e-07 -5.96209e-05
9.92589e-05 6.64729e-05 1.70147e-06
6.64729e-05 -0.000271545 1.61301e-06
1.70147e-06 1.61301e-06 -0.00044049
0.00161514 0.000334877 2.0381e-07
0.000334877 0.000191634 3.30469e-07
2.0381e-07 3.30469e-07 -1.99066e-05
0.00167496 0.000338566 4.71606e-07
0.000338566 0.000129696 1.13473e-07
4.71606e-07 1.13473e-07 -5.52371e-05
0.00128047 0.000285258 1.46327e-06
0.000285258 0.000314585 -1.69639e-06
1.46327e-06 -1.69639e-06 6.22563e-05
0.00197987 0.000364371 -1.66544e-06
0.000364371 0.000542728 -1.25278e-06
-1.66544e-06 -1.25278e-06 0.000283907
0.00172336 0.000384527 -2.61246e-06
0.000384527 0.000237928 3.28972e-07
-2.61246e-06 3.28972e-07 7.18903e-06
0.0006164 -2.55118e-06 -3.82494e-07
-2.55118e-06 2.1264e-05 2.86359e-07
-3.82494e-07 2.86359e-07 -3.62612e-05
0.000705768 5.30116e-06 -8.35415e-07
5.30116e-06 0.000112269 4.75891e-07
-8.35415e-07 4.75891e-07 5.3371e-06
0.00111998 0.000246421 -7.12907e-07
0.000246421 0.000284711 1.28517e-07
-7.12907e-07 1.28517e-07 7.92294e-05
0.000824181 4.73345e-05 4.31046e-07
4.73345e-05 0.000196518 -1.19365e-08
4.31046e-07 -1.19365e-08 3.2523e-05
0.000784042 0.00015877 1.88878e-06
0.00015877 0.000114496 1.32312e-06
1.88878e-06 1.32312e-06 -5.8035e-05
0.00176772 0.000285991 -1.99772e-06
0.000285991 0.000136387 -1.53438e-06
-1.99772e-06 -1.53438e-06 -1.66373e-05
0.00177584 0.000389 1.64377e-06
0.000389 0.000230229 3.85251e-07
1.64377e-06 3.85251e-07 1.59887e-05
0.0016809 0.00036757 4.08175e-07
0.00036757 0.000105397 -1.37541e-07
4.08175e-07 -1.37541e-07 -7.59506e-05
0.000851247 0.000269402 9.11853e-07
0.000269402 3.79619e-05 3.47654e-06
9.11853e-07 3.47654e-06 -0.000218067
0.00161791 0.000380717 -2.33086e-06
0.000380717 0.000263548 -1.24978e-06
-2.33086e-06 -1.24978e-06 1.13037e-05
0.00078049 3.77758e-05 5.95561e-07
3.77758e-05 0.000147395 2.07767e-06
5.95561e-07 2.07767e-06 5.40184e-05
0.000328552 -5.31868e-06 -1.75826e-06
-5.31868e-06 -9.83673e-05 2.2451e-06
-1.75826e-06 2.2451e-06 -0.000226864
0.00125607 0.000275964 -3.9034e-06
0.000275964 0.000317163 -2.00809e-06
-3.9034e-06 -2.00809e-06 0.000109667
0.000747606 0.000130108 -5.62444e-06
0.000130108 0.000169333 -4.96406e-06
-5.62444e-06 -4.96406e-06 -1.84482e-05
0.000708943 0.000216271 -1.24998e-06
0.000216271 3.38176e-05 -3.17075e-06
-1.24998e-06 -3.17075e-06 -0.000140041
0.00167471 0.000305904 -8.14787e-07
0.000305904 1.69752e-05 -2.13172e-06
-8.14787e-07 -2.13172e-06 -0.000112456
0.00192571 0.000426823 3.38505e-06
0.000426823 0.000302698 -1.93446e-06
3.38505e-06 -1.93446e-06 7.52437e-05
0.00157202 0.000381404 1.86064e-06
0.000381404 3.30977e-05 2.08414e-08
1.86064e-06 2.08414e-08 -0.000151448
0.00119665 0.00030999 1.71223e-06
0.00030999 0.000192614 7.89922e-06
1.71223e-06 7.89922e-06 -7.88463e-05
0.00132831 0.000382756 -9.31505e-07
0.000382756 0.000109077 -8.12618e-07
-9.31505e-07 -8.12618e-07 -0.000146404
0.000599338 -1.35368e-05 -1.68624e-06
-1.35368e-05 7.74007e-06 -2.5408e-06
-1.68624e-06 -2.5408e-06 -4.55226e-05
0.000608789 3.10199e-05 1.05088e-06
3.10199e-05 3.39008e-05 3.48896e-07
1.05088e-06 3.48896e-07 -4.92624e-05
0.000515493 1.1468e-05 -6.46089e-08
1.1468e-05 -2.24147e-05 1.04828e-06
-6.46089e-08 1.04828e-06 -0.000110062
0.000422247 -2.68103e-05 -7.61742e-07
-2.68103e-05 -7.5165e-05 -1.51688e-06
-7.61742e-07 -1.51688e-06 -0.000156514
0.00065352 3.89565e-05 -2.90237e-07
3.89565e-05 7.03063e-05 1.14225e-08
-2.90237e-07 1.14225e-08 -1.51963e-05
0.000683664 5.26769e-05 -3.91616e-07
5.26769e-05 8.14047e-05 -3.38704e-07
-3.91616e-07 -3.38704e-07 -1.14577e-05
0.000805435 8.45255e-05 -1.31704e-06
8.45255e-05 0.000163277 -2.05153e-06
-1.31704e-06 -2.05153e-06 6.16823e-05
0.000484549 -8.60716e-06 8.25245e-07
-8.60716e-06 -2.0779e-05 2.02034e-07
8.25245e-07 2.02034e-07 -0.000124912
0.00068451 6.36756e-05 1.01802e-06
6.36756e-05 8.5915e-05 1.69513e-06
1.01802e-06 1.69513e-06 3.54986e-06
0.000620521 3.86825e-05 2.44966e-06
3.86825e-05 3.46222e-05 2.50947e-06
2.44966e-06 2.50947e-06 -1.95579e-05
0.000606666 2.74297e-06 -1.31362e-06
2.74297e-06 2.12143e-05 -1.74371e-09
-1.31362e-06 -1.74371e-09 -3.11313e-05
0.00125099 -2.5852e-05 1.01131e-06
-2.5852e-05 0.000384066 2.54002e-06
1.01131e-06 2.54002e-06 0.000372497
0.000566902 -4.78271e-05 -1.38222e-08
-4.78271e-05 -2.66747e-06 -2.4653e-06
-1.38222e-08 -2.4653e-06 -5.66852e-05
0.00129706 -3.50661e-05 -4.74045e-06
-3.50661e-05 0.000412176 -1.46595e-06
-4.74045e-06 -1.46595e-06 0.000400048
0.000847883 -3.27854e-05 1.99202e-05
-3.27854e-05 0.000149176 8.02909e-06
1.99202e-05 8.02909e-06 0.000155066
0.00133899 -4.56761e-05 -8.57613e-06
-4.56761e-05 0.000440261 -5.57293e-06
-8.57613e-06 -5.57293e-06 0.000426665
0.000802288 -4.17853e-05 7.21992e-06
-4.17853e-05 0.000126267 3.00735e-06
7.21992e-06 3.00735e-06 0.000130005
0.00227412 -9.27713e-05 -4.41705e-06
-9.27713e-05 0.0010218 -2.00823e-06
-4.41705e-06 -2.00823e-06 0.00102794
0.000487118 4.65283e-05 -9.41696e-07
4.65283e-05 -5.22756e-05 -3.95655e-06
-9.41696e-07 -3.95655e-06 -7.42321e-05
0.000501652 4.10137e-05 -1.3652e-06
4.10137e-05 -3.45256e-05 -2.24476e-08
-1.3652e-06 -2.24476e-08 -6.41338e-05
0.00250406 0.000105761 2.47761e-05
0.000105761 0.00117245 -3.68644e-06
2.47761e-05 -3.68644e-06 0.00117436
0.000577923 5.20281e-07 -4.77974e-06
5.20281e-07 9.9329e-06 6.93103e-06
-4.77974e-06 6.93103e-06 -2.46802e-05
0.0029021 0.000121183 -1.55682e-05
0.000121183 0.00141661 -7.21115e-07
-1.55682e-05 -7.21115e-07 0.00141459
0.00338744 9.78015e-05 -0.000101178
9.78015e-05 0.00170735 5.58538e-06
-0.000101178 5.58538e-06 0.00171035
0.00175981 0.000229614 -1.9005e-06
0.000229614 0.000124319 7.49447e-07
-1.9005e-06 7.49447e-07 -2.30022e-05
0.00181647 0.000136797 1.15431e-06
0.000136797 0.000109309 1.43603e-06
1.15431e-06 1.43603e-06 -1.26204e-06
0.00182878 0.00019749 5.46344e-07
0.00019749 7.5431e-05 2.11903e-06
5.46344e-07 2.11903e-06 -1.89345e-05
0.00183955 8.55223e-05 6.49173e-07
8.55223e-05 5.72063e-05 8.81077e-07
6.49173e-07 8.81077e-07 -3.63209e-06
0.0018089 3.03561e-05 -6.79515e-07
3.03561e-05 0.000108791 6.84425e-08
-6.79515e-07 6.84425e-08 2.12837e-05
0.00145765 1.15163e-05 -1.49687e-06
1.15163e-05 5.35015e-05 6.90487e-08
-1.49687e-06 6.90487e-08 -6.90601e-05
0.00176564 2.63559e-06 -1.93874e-06
2.63559e-06 9.11797e-05 -9.15119e-09
-1.93874e-06 -9.15119e-09 1.21043e-06
0.00180312 3.93024e-05 2.26987e-06
3.93024e-05 5.11521e-05 1.22155e-07
2.26987e-06 1.22155e-07 -1.05824e-05
0.00187416 0.000145582 -1.31828e-06
0.000145582 8.31596e-05 -5.29554e-07
-1.31828e-06 -5.29554e-07 5.1173e-06
0.00185122 9.49591e-05 1.50384e-06
9.49591e-05 3.86589e-05 4.43545e-07
1.50384e-06 4.43545e-07 -9.39324e-06
0.00178401 0.000227066 -8.71838e-07
0.000227066 0.000105938 -2.44474e-07
-8.71838e-07 -2.44474e-07 -1.46482e-05
0.00187913 0.000210818 3.51174e-06
0.000210818 7.13424e-05 1.45939e-06
3.51174e-06 1.45939e-06 -7.38696e-06
0.00180571 -6.88439e-06 2.0312e-06
-6.88439e-06 6.35741e-05 2.50877e-07
2.0312e-06 2.50877e-07 4.99401e-06
0.00185999 4.36204e-05 5.41118e-06
4.36204e-05 2.94205e-05 -4.11408e-08
5.41118e-06 -4.11408e-08 -2.23921e-06
0.00190024 0.000148612 4.3806e-06
0.000148612 5.48511e-05 1.05745e-06
4.3806e-06 1.05745e-06 1.43137e-06
0.00193673 0.000265684 3.46979e-07
0.000265684 0.00011817 -1.26226e-07
3.46979e-07 -1.26226e-07 2.40211e-05
0.00177568 -4.00848e-05 1.64094e-06
-4.00848e-05 0.000101629 1.18815e-07
1.64094e-06 1.18815e-07 7.35793e-06
0.0017367 -0.000120623 2.38671e-06
-0.000120623 8.32206e-05 -1.18498e-06
2.38671e-06 -1.18498e-06 -3.10434e-05
0.00178716 -7.90503e-05 3.29047e-06
-7.90503e-05 5.85767e-05 -1.75556e-06
3.29047e-06 -1.75556e-06 -8.68561e-06
0.00178359 -0.000192538 -1.68211e-06
-0.000192538 6.23473e-05 3.72049e-07
-1.68211e-06 3.72049e-07 -3.22493e-05
0.00116655 -0.000231447 -1.85145e-06
-0.000231447 0.0002972 4.85355e-06
-1.85145e-06 4.85355e-06 9.24589e-05
0.00093852 -0.000271716 -1.14593e-06
-0.000271716 2.48218e-05 1.94391e-06
-1.14593e-06 1.94391e-06 -0.000212998
0.00161424 -0.000425707 1.32521e-06
-0.000425707 0.000254442 -7.79256e-07
1.32521e-06 -7.79256e-07 -2.87715e-05
0.00167099 -0.000271634 -2.14501e-07
-0.000271634 7.61341e-05 -2.5382e-07
-2.14501e-07 -2.5382e-07 -6.37798e-05
0.00172081 -0.000245751 2.24823e-06
-0.000245751 4.06217e-05 -8.53264e-07
2.24823e-06 -8.53264e-07 -4.89468e-05
0.00178922 -0.00033053 3.18092e-06
-0.00033053 0.000135341 1.02161e-08
3.18092e-06 1.02161e-08 -2.47024e-06
0.00174801 -0.000402223 -2.25225e-06
-0.000402223 0.000202531 -2.48653e-06
-2.25225e-06 -2.48653e-06 -2.54288e-05
0.00176605 -0.000330046 2.2335e-06
-0.000330046 0.000139163 -1.1442e-05
2.2335e-06 -1.1442e-05 -8.71005e-06
0.0012227 -0.000254472 3.41461e-06
-0.000254472 0.000333074 2.40332e-06
3.41461e-06 2.40332e-06 0.000128622
0.00100918 -0.000224538 5.22519e-06
-0.000224538 0.000217502 -2.84818e-06
5.22519e-06 -2.84818e-06 3.53382e-05
0.000676243 -0.000101129 2.13602e-06
-0.000101129 0.00010821 -4.43113e-06
2.13602e-06 -4.43113e-06 -9.18245e-05
0.000367508 6.63558e-06 -9.27321e-07
6.63558e-06 -0.000105788 3.20633e-06
-9.27321e-07 3.20633e-06 -0.000191356
0.000292868 1.67596e-05 1.53188e-06
1.67596e-05 -0.000128153 -9.68493e-09
1.53188e-06 -9.68493e-09 -0.000262984
0.00186909 -5.72885e-05 -1.89956e-07
-5.72885e-05 9.17016e-05 -1.61871e-07
-1.89956e-07 -1.61871e-07 3.21789e-05
0.00183212 -0.000119406 1.383e-06
-0.000119406 6.10572e-05 -6.90737e-07
1.383e-06 -6.90737e-07 -1.26781e-05
0.00185066 -0.000231368 -2.01229e-06
-0.000231368 7.60287e-05 2.97937e-07
-2.01229e-06 2.97937e-07 -1.61043e-06
0.00116969 -0.00026569 -1.54092e-06
-0.00026569 0.000254378 -2.24585e-07
-1.54092e-06 -2.24585e-07 2.83655e-05
0.00102653 -0.000329489 1.1893e-06
-0.000329489 3.8776e-05 -1.91532e-06
1.1893e-06 -1.91532e-06 -0.000232978
0.0016339 -0.000465553 -3.42687e-07
-0.000465553 0.000230235 -2.44922e-08
-3.42687e-07 -2.44922e-08 -6.60794e-05
0.00169634 -0.000275355 5.95319e-07
-0.000275355 4.38635e-05 -2.94498e-07
5.95319e-07 -2.94498e-07 -6.34284e-05
0.00177039 -0.000390204 9.325e-07
-0.000390204 0.000187688 -2.56395e-06
9.325e-07 -2.56395e-06 -2.30889e-05
0.00192235 -0.000369009 -4.37561e-07
-0.000369009 0.000171394 -1.12864e-06
-4.37561e-07 -1.12864e-06 3.68352e-05
0.000278661 3.68798e-05 -4.99344e-07
3.68798e-05 -0.000164091 -9.0135e-07
-4.99344e-07 -9.0135e-07 -0.000230213
0.00123882 -0.000264883 -2.52916e-07
-0.000264883 0.000310698 1.34816e-06
-2.52916e-07 1.34816e-06 0.000107051
0.000607028 -0.000208444 5.19113e-07
-0.000208444 -3.67904e-05 7.90828e-07
5.19113e-07 7.90828e-07 -0.000211629
0.000980293 -0.00017678 -6.45978e-07
-0.00017678 0.000279012 5.61407e-07
-6.45978e-07 5.61407e-07 6.04923e-05
0.00112528 -8.3659e-05 4.74933e-07
-8.3659e-05 0.000372664 -1.34661e-06
4.74933e-07 -1.34661e-06 0.000205544
0.000594273 -2.94147e-06 -5.68916e-07
-2.94147e-06 5.99377e-05 5.42518e-07
-5.68916e-07 5.42518e-07 -6.69947e-05
0.0017824 -6.59903e-05 3.6917e-06
-6.59903e-05 -5.1424e-06 -4.85817e-07
3.6917e-06 -4.85817e-07 -4.67454e-05
0.00201571 -0.000161575 2.58009e-06
-0.000161575 9.26184e-05 -6.96562e-08
2.58009e-06 -6.96562e-08 5.31981e-05
0.00174227 -0.000269297 2.02202e-06
-0.000269297 -1.09179e-05 -1.91885e-06
2.02202e-06 -1.91885e-06 -7.77834e-05
0.00207512 -0.000345094 1.01109e-07
-0.000345094 0.000173927 -2.51872e-06
1.01109e-07 -2.51872e-06 7.24172e-05
0.00159515 -0.000330769 -5.08241e-06
-0.000330769 0.000455416 -5.14804e-06
-5.08241e-06 -5.14804e-06 0.000210879
0.001884 -0.000413209 1.42818e-06
-0.000413209 0.000179558 3.81401e-06
1.42818e-06 3.81401e-06 4.44907e-06
0.00149871 -0.000438964 -4.26363e-06
-0.000438964 0.000275973 1.76822e-06
-4.26363e-06 1.76822e-06 -5.32747e-05
0.00170132 -0.000488157 -4.45173e-06
-0.000488157 0.000267268 2.60076e-06
-4.45173e-06 2.60076e-06 -4.16504e-05
0.000284259 5.43794e-05 -2.11976e-06
5.43794e-05 -0.000165133 -2.2394e-06
-2.11976e-06 -2.2394e-06 -0.000220332
0.000702295 1.4099e-06 -3.81148e-07
1.4099e-06 0.000119768 -5.78766e-07
-3.81148e-07 -5.78766e-07 1.25468e-05
0.000973339 -0.000107764 -1.97345e-06
-0.000107764 0.000288208 2.28143e-06
-1.97345e-06 2.28143e-06 0.000138988
0.000937709 -2.97507e-05 -2.16475e-06
-2.97507e-05 0.000254214 4.73351e-06
-2.16475e-06 4.73351e-06 5.30487e-05
0.000542776 -0.000227119 -4.70689e-06
-0.000227119 -0.000120468 -4.40526e-06
-4.70689e-06 -4.40526e-06 -0.000328187
0.000982046 -0.000240301 -7.62777e-06
-0.000240301 0.000219568 2.92481e-06
-7.62777e-06 2.92481e-06 -3.49729e-06
0.000555736 -1.0112e-05 -2.28868e-06
-1.0112e-05 -1.42668e-05 -2.44596e-06
-2.28868e-06 -2.44596e-06 -7.12902e-05
0.000481972 -3.17192e-05 6.19475e-07
-3.17192e-05 -2.84641e-05 -2.01064e-06
6.19475e-07 -2.01064e-06 -0.000126579
0.00174466 0.000287701 -2.4001e-06
0.000287701 0.000123662 -6.67809e-07
-2.4001e-06 -6.67809e-07 -3.06165e-05
0.000367068 -4.03912e-06 8.74403e-07
-4.03912e-06 -8.11404e-05 -7.04525e-07
8.74403e-07 -7.04525e-07 -0.000234024
0.00114531 0.000248888 1.94493e-06
0.000248888 0.000302337 -3.98696e-07
1.94493e-06 -3.98696e-07 9.58085e-05
5.39049e-05 7.56138e-05 3.53436e-06
7.56138e-05 -0.000331167 3.33328e-06
3.53436e-06 3.33328e-06 -0.000481787
0.00174168 0.000386301 -2.03404e-07
0.000386301 0.000206045 1.11139e-07
-2.03404e-07 1.11139e-07 -8.14683e-06
0.00181724 0.000372257 -2.06633e-06
0.000372257 0.000183611 1.01834e-06
-2.06633e-06 1.01834e-06 3.16e-06
0.00090129 0.000280022 -8.78746e-07
0.000280022 6.19923e-05 4.21529e-07
-8.78746e-07 4.21529e-07 -0.000195862
0.00189527 0.000403968 -2.47362e-06
0.000403968 0.00043847 6.70964e-07
-2.47362e-06 6.70964e-07 0.000181012
0.000685996 1.46227e-05 -9.40801e-07
1.46227e-05 8.75054e-05 2.34684e-07
-9.40801e-07 2.34684e-07 -1.47625e-06
0.000593131 2.49193e-05 7.80907e-07
2.49193e-05 5.86095e-05 1.04079e-06
7.80907e-07 1.04079e-06 -7.22828e-05
0.00139458 0.000288575 -7.38991e-07
0.000288575 0.000410741 -2.58945e-06
-7.38991e-07 -2.58945e-06 0.000196874
0.000566391 4.38406e-05 -1.1498e-06
4.38406e-05 3.16769e-05 -3.25904e-07
-1.1498e-06 -3.25904e-07 -0.000128907
0.000550469 0.000182935 -1.59601e-06
0.000182935 -7.23826e-05 -5.62627e-07
-1.59601e-06 -5.62627e-07 -0.000225934
0.00188841 0.000317097 -2.89385e-06
0.000317097 0.000137643 -1.26881e-06
-2.89385e-06 -1.26881e-06 1.02318e-05
0.00201029 0.000427941 1.93935e-06
0.000427941 0.00035658 -3.56987e-07
1.93935e-06 -3.56987e-07 0.000131712
0.00173976 0.00040011 1.6624e-06
0.00040011 0.000118619 2.55788e-06
1.6624e-06 2.55788e-06 -6.96062e-05
0.00122451 0.000315749 3.54653e-06
0.000315749 0.000222916 4.42969e-06
3.54653e-06 4.42969e-06 -5.43635e-05
0.00144659 0.000401364 -3.29716e-06
0.000401364 0.000171386 4.57048e-07
-3.29716e-06 4.57048e-07 -9.14406e-05
0.000256529 -1.71981e-05 -1.23851e-06
-1.71981e-05 -0.000156244 2.90831e-06
-1.23851e-06 2.90831e-06 -0.000254392
-2.45721e-05 7.70233e-05 4.8504e-07
7.70233e-05 -0.000271061 4.587e-08
4.8504e-07 4.587e-08 -0.000439846
0.000958403 0.000255272 2.12503e-06
0.000255272 0.000121964 2.7026e-06
2.12503e-06 2.7026e-06 -9.90281e-05
-0.000493527 8.36055e-05 3.92418e-06
8.36055e-05 -0.000642651 -1.06261e-06
3.92418e-06 -1.06261e-06 -0.000807709
0.00200881 0.000326081 -8.24461e-07
0.000326081 2.79151e-05 5.6604e-08
-8.24461e-07 5.6604e-08 -2.97773e-05
0.00238026 0.000405319 4.82217e-07
0.000405319 0.000418519 -1.03894e-06
4.82217e-07 -1.03894e-06 0.00026919
0.00182329 0.00045835 -3.25176e-06
0.00045835 0.00026026 -4.08707e-06
-3.25176e-06 -4.08707e-06 1.12168e-05
0.000508961 0.000292063 -7.67013e-07
0.000292063 -0.000260456 2.0799e-06
-7.67013e-07 2.0799e-06 -0.000546732
0.000661449 6.24572e-05 -1.03702e-06
6.24572e-05 7.00928e-05 -8.79247e-07
-1.03702e-06 -8.79247e-07 -1.6096e-05
0.000613383 4.07431e-05 -1.84199e-07
4.07431e-05 4.45024e-05 2.40046e-07
-1.84199e-07 2.40046e-07 -4.92412e-05
0.000924359 3.44747e-05 -2.51351e-06
3.44747e-05 0.000227824 -1.49388e-06
-2.51351e-06 -1.49388e-06 0.000140531
0.000643109 1.23488e-05 -1.53939e-06
1.23488e-05 5.26545e-05 -1.54324e-06
-1.53939e-06 -1.54324e-06 -2.43857e-05
0.000435642 5.49712e-07 -4.22386e-07
5.49712e-07 -6.30665e-05 -6.84088e-07
-4.22386e-07 -6.84088e-07 -0.000154869
0.000657108 2.96466e-05 -3.94115e-08
2.96466e-05 7.19688e-05 1.31085e-08
-3.94115e-08 1.31085e-08 -1.14231e-05
0.000666677 8.35603e-05 -7.70444e-07
8.35603e-05 9.14498e-05 -1.79825e-07
-7.70444e-07 -1.79825e-07 -1.375e-05
0.000589722 2.51696e-05 8.43197e-07
2.51696e-05 4.46681e-05 3.50375e-07
8.43197e-07 3.50375e-07 -6.18488e-05
0.000759237 5.65293e-05 9.44596e-07
5.65293e-05 0.000126096 -1.45801e-06
9.44596e-07 -1.45801e-06 3.69622e-05
0.00067863 -1.52393e-05 1.99024e-06
-1.52393e-05 9.58024e-05 -1.89018e-06
1.99024e-06 -1.89018e-06 -1.41184e-05
0.000514325 5.03151e-05 8.43692e-07
5.03151e-05 -6.67189e-08 1.38701e-06
8.43692e-07 1.38701e-06 -0.000109536
0.000659488 7.543e-05 1.43712e-06
7.543e-05 7.7446e-05 2.13944e-06
1.43712e-06 2.13944e-06 -9.31514e-06
0.00056322 4.77785e-05 2.03028e-06
4.77785e-05 6.90876e-06 2.31856e-06
2.03028e-06 2.31856e-06 -5.04032e-05
0.000576059 -1.65152e-06 -1.20315e-06
-1.65152e-06 9.47965e-06 -2.38443e-08
-1.20315e-06 -2.38443e-08 -4.54222e-05
0.00125206 -1.37822e-05 8.3616e-07
-1.37822e-05 0.000385676 2.43059e-06
8.3616e-07 2.43059e-06 0.000374379
0.000570921 -4.46709e-05 7.9158e-08
-4.46709e-05 2.73421e-06 -2.45949e-06
7.9158e-08 -2.45949e-06 -5.12235e-05
0.00130327 -2.28081e-05 -4.01551e-06
-2.28081e-05 0.000415517 -1.55252e-06
-4.01551e-06 -1.55252e-06 0.000404053
0.000843791 -2.44789e-05 1.68655e-05
-2.44789e-05 0.000144004 8.34078e-06
1.68655e-05 8.34078e-06 0.000150774
0.0013462 -3.28855e-05 -7.26283e-06
-3.28855e-05 0.000441715 -5.60413e-06
-7.26283e-06 -5.60413e-06 0.000429602
0.000799455 -3.33697e-05 5.87863e-06
-3.33697e-05 0.000119269 3.11132e-06
5.87863e-06 3.11132e-06 0.000124832
0.000740438 -4.04742e-05 -1.15973e-06
-4.04742e-05 8.86395e-05 -2.20502e-06
-1.15973e-06 -2.20502e-06 9.24322e-05
0.000518933 3.72576e-05 2.03122e-07
3.72576e-05 -4.54488e-05 -3.35712e-06
2.03122e-07 -3.35712e-06 -6.09822e-05
0.000513053 5.5129e-05 2.27119e-08
5.5129e-05 -3.40416e-05 1.52387e-07
2.27119e-08 1.52387e-07 -5.80287e-05
0.00226718 8.72004e-05 1.97104e-05
8.72004e-05 0.00102233 -3.78248e-06
1.97104e-05 -3.78248e-06 0.00102919
0.000537957 3.46175e-05 -2.80744e-06
3.46175e-05 -1.29059e-05 5.83455e-06
-2.80744e-06 5.83455e-06 -4.27084e-05
0.00257093 0.000107792 -6.53918e-06
0.000107792 0.00121252 -5.14008e-07
-6.53918e-06 -5.14008e-07 0.00121399
0.00300487 9.11412e-05 -7.96515e-05
9.11412e-05 0.00147439 4.38455e-06
-7.96515e-05 4.38455e-06 0.00147942
0.00178838 0.000225089 -4.71149e-07
0.000225089 0.0001173 2.04446e-06
-4.71149e-07 2.04446e-06 -3.06584e-06
0.00192252 0.000145358 -2.32141e-06
0.000145358 0.000114518 4.61051e-07
-2.32141e-06 4.61051e-07 3.63514e-05
0.00183886 0.000212015 1.49779e-06
0.000212015 4.82886e-05 4.72095e-07
1.49779e-06 4.72095e-07 -2.77647e-05
0.00186486 9.71878e-05 -4.09304e-06
9.71878e-05 4.45384e-05 -5.43099e-07
-4.09304e-06 -5.43099e-07 -1.30037e-06
0.00182972 3.84318e-05 4.52598e-07
3.84318e-05 7.10815e-05 -2.63615e-07
4.52598e-07 -2.63615e-07 7.58614e-06
0.00175308 7.06696e-07 -3.99844e-07
7.06696e-07 8.26595e-05 1.15602e-07
-3.99844e-07 1.15602e-07 -9.75167e-06
0.00178668 -3.83002e-06 -2.73903e-07
-3.83002e-06 5.12541e-05 -9.71181e-08
-2.73903e-07 -9.71181e-08 -7.11903e-06
0.0018772 4.35462e-05 9.11432e-07
4.35462e-05 4.87081e-05 2.04503e-07
9.11432e-07 2.04503e-07 1.51655e-05
0.00190654 0.000153807 5.07278e-07
0.000153807 5.83803e-05 -1.43645e-07
5.07278e-07 -1.43645e-07 4.57981e-06
0.001947 0.000261935 2.73902e-07
0.000261935 0.000110548 1.22312e-07
2.73902e-07 1.22312e-07 1.85957e-05
0.00181615 -8.67307e-06 3.22353e-06
-8.67307e-06 1.64738e-05 -2.4235e-07
3.22353e-06 -2.4235e-07 -1.47692e-05
0.00194639 8.9404e-05 2.86933e-06
8.9404e-05 2.12512e-05 -2.24459e-07
2.86933e-06 -2.24459e-07 8.31636e-06
0.00204244 0.000229047 3.30465e-06
0.000229047 7.92456e-05 1.02891e-06
3.30465e-06 1.02891e-06 2.3879e-05
0.00185404 -6.25902e-05 -7.3705e-07
-6.25902e-05 8.37922e-05 2.2306e-07
-7.3705e-07 2.2306e-07 2.10978e-05
0.00177323 -0.000120644 -6.79131e-07
-0.000120644 2.43799e-05 -6.96122e-07
-6.79131e-07 -6.96122e-07 -5.14307e-05
0.00184679 -0.000224723 -2.60622e-06
-0.000224723 8.45226e-05 1.16163e-06
-2.60622e-06 1.16163e-06 4.08808e-06
0.00104047 -0.000251974 -1.2211e-06
-0.000251974 0.000175915 4.52419e-06
-1.2211e-06 4.52419e-06 -4.77523e-05
0.000857729 -0.000304647 1.70148e-06
-0.000304647 -6.67396e-05 9.84176e-07
1.70148e-06 9.84176e-07 -0.000329852
0.00160679 -0.000469548 1.74223e-06
-0.000469548 0.000214285 -1.59747e-06
1.74223e-06 -1.59747e-06 -8.48649e-05
0.00171901 -0.000276225 -2.5771e-07
-0.000276225 5.2037e-05 4.24902e-07
-2.5771e-07 4.24902e-07 -5.56564e-05
0.00156796 -0.000346287 4.56357e-07
-0.000346287 -2.0733e-05 -2.34686e-06
4.56357e-07 -2.34686e-06 -0.000154253
0.00186616 -0.000395553 -2.42713e-06
-0.000395553 0.000242989 -7.89435e-06
-2.42713e-06 -7.89435e-06 3.83012e-05
0.0012884 -0.000268678 3.63899e-06
-0.000268678 0.000329851 5.18202e-06
3.63899e-06 5.18202e-06 0.000126257
0.000692238 -0.000212847 -7.75446e-06
-0.000212847 2.43826e-05 9.21482e-07
-7.75446e-06 9.21482e-07 -0.000142422
0.00168693 -0.000234043 1.40409e-06
-0.000234043 0.000712128 -1.57262e-06
1.40409e-06 -1.57262e-06 0.000475004
0.000351166 2.82595e-05 7.07884e-07
2.82595e-05 -0.000122147 6.89875e-07
7.07884e-07 6.89875e-07 -0.000186492
0.000907677 -9.02292e-05 1.98122e-06
-9.02292e-05 0.000238708 -1.14044e-06
1.98122e-06 -1.14044e-06 8.18213e-05
0.000421718 3.3959e-05 2.89341e-06
3.3959e-05 -5.04602e-05 1.65305e-06
2.89341e-06 1.65305e-06 -0.000173277
0.00182201 -6.60931e-05 -4.54693e-07
-6.60931e-05 2.04438e-05 1.89162e-07
-4.54693e-07 1.89162e-07 -2.4325e-05
0.00195047 -0.00016734 9.57885e-08
-0.00016734 5.20749e-05 -2.3773e-07
9.57885e-08 -2.3773e-07 1.07106e-05
0.00183532 -0.000270832 -2.62786e-07
-0.000270832 4.99286e-05 5.09105e-07
-2.62786e-07 5.09105e-07 -2.07282e-05
0.00129454 -0.000301349 -2.38261e-06
-0.000301349 0.000279013 5.55579e-07
-2.38261e-06 5.55579e-07 3.85277e-05
0.00121328 -0.000407433 3.19679e-07
-0.000407433 0.000111958 -1.16355e-06
3.19679e-07 -1.16355e-06 -0.00020822
0.00187771 -0.00049626 -3.78652e-06
-0.00049626 0.000368775 3.94924e-07
-3.78652e-06 3.94924e-07 6.72311e-05
0.00195226 -0.000344331 7.48578e-07
-0.000344331 0.000106629 -3.76829e-07
7.48578e-07 -3.76829e-07 1.87705e-06
0.00170993 -0.000404517 1.24261e-06
-0.000404517 7.08155e-05 -2.9759e-06
1.24261e-06 -2.9759e-06 -0.000103711
0.000443794 4.72038e-05 -4.08082e-07
4.72038e-05 -7.2755e-05 -1.00146e-06
-4.08082e-07 -1.00146e-06 -0.000123881
0.000719161 -9.73385e-06 -6.28328e-07
-9.73385e-06 0.000127811 2.87837e-07
-6.28328e-07 2.87837e-07 2.1409e-05
0.000235419 -0.000195745 -3.62881e-06
-0.000195745 -0.00029769 6.1388e-06
-3.62881e-06 6.1388e-06 -0.000493281
0.00142489 -0.000263435 7.09498e-07
-0.000263435 0.000496032 -9.017e-07
7.09498e-07 -9.017e-07 0.000270415
0.00101155 -7.86462e-05 -9.93854e-08
-7.86462e-05 0.000308614 -1.39367e-06
-9.93854e-08 -1.39367e-06 0.00010632
0.000866292 -8.45917e-05 -7.21308e-07
-8.45917e-05 0.000226328 1.27626e-06
-7.21308e-07 1.27626e-06 7.66163e-05
0.0019096 -8.24774e-05 1.74328e-06
-8.24774e-05 1.55814e-05 4.31282e-07
1.74328e-06 4.31282e-07 -1.42785e-06
0.00200855 -0.000240607 6.58526e-07
-0.000240607 3.35716e-05 3.67899e-08
6.58526e-07 3.67899e-08 2.16822e-05
0.00196239 -0.000293137 1.12912e-06
-0.000293137 8.49212e-05 -2.21936e-06
1.12912e-06 -2.21936e-06 2.47439e-05
0.00192234 -0.000451617 4.43879e-06
-0.000451617 6.23556e-05 -2.58225e-06
4.43879e-06 -2.58225e-06 -6.55367e-05
0.000701135 -0.000294267 -6.27916e-06
-0.000294267 -0.00010149 -7.89228e-06
-6.27916e-06 -7.89228e-06 -0.000384201
0.00186444 -0.000499732 -2.59828e-06
-0.000499732 0.000320625 1.21583e-05
-2.59828e-06 1.21583e-05 3.66775e-05
0.00195081 -0.000518524 -4.88925e-06
-0.000518524 0.00050692 -2.81967e-07
-4.88925e-06 -2.81967e-07 0.00014727
0.000607771 4.79776e-05 1.40539e-07
4.79776e-05 1.65747e-05 -1.20029e-06
1.40539e-07 -1.20029e-06 -2.67366e-05
0.000679701 -0.000109584 2.9325e-06
-0.000109584 9.8913e-05 -1.54193e-06
2.9325e-06 -1.54193e-06 1.56789e-05
0.000448726 5.20669e-05 -2.47981e-06
5.20669e-05 -4.24631e-05 -1.10865e-06
-2.47981e-06 -1.10865e-06 -0.000130548
0.000649002 -4.76961e-05 -1.28842e-06
-4.76961e-05 0.00010435 2.8646e-06
-1.28842e-06 2.8646e-06 -3.18969e-05
0.000559166 -3.57813e-05 1.02293e-06
-3.57813e-05 1.86634e-05 6.1533e-08
1.02293e-06 6.1533e-08 -0.000136339
-5.50041e-05 -8.07652e-05 -9.23516e-07
-8.07652e-05 -0.000324812 2.43253e-06
-9.23516e-07 2.43253e-06 -0.000520828
-5.91562e-05 -0.000194041 -4.67229e-06
-0.000194041 -0.000472052 -6.77117e-06
-4.67229e-06 -6.77117e-06 -0.000663601
0.00278511 -0.00038987 -1.30071e-05
-0.00038987 0.00137245 3.5518e-06
-1.30071e-05 3.5518e-06 0.00104167
0.000629734 -4.54202e-06 -1.13122e-06
-4.54202e-06 4.81802e-05 -9.79012e-07
-1.13122e-06 -9.79012e-07 -3.48458e-05
0.000838691 4.32972e-05 5.87041e-07
4.32972e-05 0.000208169 -1.35803e-06
5.87041e-07 -1.35803e-06 7.16922e-05
0.00208189 0.000326802 -1.31178e-06
0.000326802 0.00024778 -6.18273e-07
-1.31178e-06 -6.18273e-07 0.000122659
0.000807602 8.18198e-05 -1.23582e-06
8.18198e-05 0.000187486 3.53161e-06
-1.23582e-06 3.53161e-06 1.47935e-05
0.00160584 0.000309643 2.72324e-06
0.000309643 0.000547814 -9.91682e-07
2.72324e-06 -9.91682e-07 0.000324224
0.000403195 0.000151141 -5.41938e-07
0.000151141 -0.000167893 2.24506e-06
-5.41938e-07 2.24506e-06 -0.000303035
0.00206863 0.000425657 -2.89885e-06
0.000425657 0.000398111 -4.58673e-08
-2.89885e-06 -4.58673e-08 0.000176616
0.00186734 0.000416149 -8.49814e-07
0.000416149 0.000182595 5.75841e-06
-8.49814e-07 5.75841e-06 -8.78986e-06
0.00117251 0.000316689 -7.04763e-07
0.000316689 0.000204544 -4.5941e-07
-7.04763e-07 -4.5941e-07 -7.81507e-05
0.0014671 0.000411977 -9.26646e-08
0.000411977 0.000175041 1.50974e-06
-9.26646e-08 1.50974e-06 -9.33911e-05
0.000344459 1.30725e-05 -1.71139e-07
1.30725e-05 -9.69462e-05 1.20001e-06
-1.71139e-07 1.20001e-06 -0.00020228
0.000362487 0.000109217 -6.38199e-07
0.000109217 -3.7273e-05 -2.2201e-06
-6.38199e-07 -2.2201e-06 -0.000213152
0.00130471 0.00029218 3.5181e-06
0.00029218 0.000333911 -1.85938e-06
3.5181e-06 -1.85938e-06 0.000103277
0.000686935 0.00017572 -2.21157e-06
0.00017572 5.23205e-05 -2.96414e-06
-2.21157e-06 -2.96414e-06 -0.000123481
0.0020449 0.000316991 1.00034e-06
0.000316991 4.63212e-05 -8.76536e-07
1.00034e-06 -8.76536e-07 -1.0624e-05
0.00212165 0.000397381 2.96689e-06
0.000397381 0.000277141 6.68022e-07
2.96689e-06 6.68022e-07 0.000123753
0.00182293 0.000451644 -7.51866e-07
0.000451644 0.000252611 3.67533e-07
-7.51866e-07 3.67533e-07 6.64586e-06
0.0011903 0.000359216 -2.40133e-08
0.000359216 0.000110055 6.31026e-07
-2.40133e-08 6.31026e-07 -0.000180715
0.000355238 3.75305e-05 -1.35646e-06
3.75305e-05 -9.64585e-05 2.91062e-06
-1.35646e-06 2.91062e-06 -0.000202247
0.00200496 0.000258736 6.07153e-07
0.000258736 -2.67146e-05 2.42951e-06
6.07153e-07 2.42951e-06 -3.20097e-05
0.0015936 0.000282181 1.59986e-06
0.000282181 0.000677478 3.31804e-06
1.59986e-06 3.31804e-06 0.00045326
0.00117828 0.000293606 5.67418e-06
0.000293606 0.000222824 3.77681e-06
5.67418e-06 3.77681e-06 -1.01652e-05
0.0025014 0.000395442 -1.71475e-05
0.000395442 0.000382425 -5.14313e-06
-1.71475e-05 -5.14313e-06 0.000276598
0.00101613 0.00042057 -6.09372e-06
0.00042057 -0.000299238 -8.16535e-06
-6.09372e-06 -8.16535e-06 -0.000527382
0.0020756 0.000472107 -6.37019e-07
0.000472107 0.000542605 2.45988e-06
-6.37019e-07 2.45988e-06 0.000232487
0.000684712 5.61562e-05 -1.36758e-06
5.61562e-05 8.68497e-05 -6.92357e-07
-1.36758e-06 -6.92357e-07 -6.43218e-06
0.000692855 4.98966e-05 -1.56748e-06
4.98966e-05 9.80777e-05 -5.58781e-07
-1.56748e-06 -5.58781e-07 7.24753e-06
0.000936824 3.85015e-05 -1.98364e-06
3.85015e-05 0.000248463 3.58927e-07
-1.98364e-06 3.58927e-07 0.00016614
0.000610209 -3.99015e-06 9.18519e-09
-3.99015e-06 4.68275e-05 -2.22193e-06
9.18519e-09 -2.22193e-06 -3.8323e-05
0.000661767 5.11724e-05 8.03984e-07
5.11724e-05 8.91246e-05 6.42888e-09
8.03984e-07 6.42888e-09 -1.84686e-05
0.000344902 2.40259e-05 -1.13256e-06
2.40259e-05 -8.68058e-05 1.58562e-06
-1.13256e-06 1.58562e-06 -0.00019212
0.000620892 4.99477e-06 -6.90728e-07
4.99477e-06 6.18245e-05 -5.55236e-09
-6.90728e-07 -5.55236e-09 -2.93828e-05
0.000457984 -1.89657e-05 -6.38082e-07
-1.89657e-05 -2.46719e-05 3.4891e-07
-6.38082e-07 3.4891e-07 -0.000137786
0.000507776 9.19613e-06 3.23867e-07
9.19613e-06 -1.64347e-05 3.16486e-07
3.23867e-07 3.16486e-07 -0.000101483
0.000762812 4.63179e-05 5.99069e-07
4.63179e-05 0.000157136 -3.52857e-07
5.99069e-07 -3.52857e-07 3.77334e-05
0.00116426 5.21979e-05 4.0054e-07
5.21979e-05 0.000353873 -1.11762e-06
4.0054e-07 -1.11762e-06 0.000279076
0.00068175 -1.61437e-05 2.63115e-06
-1.61437e-05 8.7179e-05 -2.61433e-06
2.63115e-06 -2.61433e-06 -7.34777e-06
0.000707304 4.57282e-05 1.78752e-07
4.57282e-05 0.000126778 3.46533e-07
1.78752e-07 3.46533e-07 -8.32922e-07
0.000637633 3.87335e-05 2.40067e-06
3.87335e-05 8.47867e-05 1.77484e-06
2.40067e-06 1.77484e-06 -3.95125e-05
0.000655372 2.22777e-05 1.68198e-06
2.22777e-05 7.58563e-05 2.17299e-06
1.68198e-06 2.17299e-06 -1.42154e-05
0.000568951 -3.14664e-05 -1.62707e-07
-3.14664e-05 9.43991e-06 2.16511e-06
-1.62707e-07 2.16511e-06 -4.73468e-05
0.000581717 -6.54282e-06 -3.40353e-07
-6.54282e-06 1.4924e-05 -3.646e-09
-3.40353e-07 -3.646e-09 -4.03298e-05
0.00128089 -3.06601e-06 8.92346e-07
-3.06601e-06 0.000404992 2.3273e-06
8.92346e-07 2.3273e-06 0.000393031
0.000588949 -2.53344e-05 6.62904e-07
-2.53344e-05 1.50045e-05 -2.58897e-06
6.62904e-07 -2.58897e-06 -3.83571e-05
0.00130975 -1.092e-05 -3.07659e-06
-1.092e-05 0.00042077 -1.5941e-06
-3.07659e-06 -1.5941e-06 0.000409325
0.000835069 -1.64854e-05 1.26222e-05
-1.64854e-05 0.000137702 8.41803e-06
1.26222e-05 8.41803e-06 0.000144972
0.00135973 -2.08372e-05 -5.23059e-06
-2.08372e-05 0.000449593 -5.74038e-06
-5.23059e-06 -5.74038e-06 0.000437979
0.000812281 -2.52305e-05 3.90569e-06
-2.52305e-05 0.000123658 3.22621e-06
3.90569e-06 3.22621e-06 0.000130216
0.000763883 -3.2326e-05 -7.73763e-07
-3.2326e-05 9.64598e-05 -2.19569e-06
-7.73763e-07 -2.19569e-06 0.000102198
0.000653923 1.0455e-05 1.23309e-06
1.0455e-05 3.97098e-05 -1.37809e-06
1.23309e-06 -1.37809e-06 -6.08578e-08
0.000532239 2.85281e-05 3.86898e-07
2.85281e-05 -4.49057e-05 -3.42711e-06
3.86898e-07 -3.42711e-06 -5.66757e-05
0.000539388 3.84049e-05 1.83011e-07
3.84049e-05 -3.23737e-05 1.31219e-07
1.83011e-07 1.31219e-07 -4.83768e-05
0.00215059 7.04635e-05 1.7923e-05
7.04635e-05 0.000943527 -3.96526e-06
1.7923e-05 -3.96526e-06 0.000954609
0.000544451 5.91783e-05 3.29768e-06
5.91783e-05 -1.3696e-05 4.99867e-06
3.29768e-06 4.99867e-06 -3.92166e-05
0.0023816 9.13242e-05 -4.44414e-06
9.13242e-05 0.00109166 -3.53638e-07
-4.44414e-06 -3.53638e-07 0.0010975
0.00269416 0.000111283 -2.94204e-05
0.000111283 0.00128638 3.85637e-06
-2.94204e-05 3.85637e-06 0.00128705
0.00196035 0.000258556 -6.87714e-07
0.000258556 0.000104607 8.99288e-07
-6.87714e-07 8.99288e-07 1.47215e-05
0.00191798 0.00015907 -3.4143e-06
0.00015907 6.53746e-05 -4.98398e-07
-3.4143e-06 -4.98398e-07 1.11274e-05
0.00189128 4.54869e-05 -4.09543e-06
4.54869e-05 6.59326e-05 -8.4703e-08
-4.09543e-06 -8.4703e-08 3.07196e-05
0.00176072 -8.35094e-07 -1.27067e-06
-8.35094e-07 3.4772e-05 -4.84339e-08
-1.27067e-06 -4.84339e-08 -2.34369e-05
0.00183215 -5.42332e-06 -9.18344e-07
-5.42332e-06 2.35021e-05 -7.01828e-08
-9.18344e-07 -7.01828e-08 -4.50073e-06
0.00193026 8.4665e-05 1.2007e-07
8.4665e-05 1.6286e-05 -2.45925e-08
1.2007e-07 -2.45925e-08 1.73978e-06
0.00198296 0.000231364 -5.5738e-07
0.000231364 4.30114e-05 -6.0129e-08
-5.5738e-07 -6.0129e-08 -1.07303e-05
0.00192955 -1.50039e-06 1.48373e-06
-1.50039e-06 9.31814e-06 -4.35225e-07
1.48373e-06 -4.35225e-07 6.44381e-06
0.0020467 0.0001305 2.61411e-06
0.0001305 1.327e-05 -8.06654e-07
2.61411e-06 -8.06654e-07 4.73506e-06
0.00225628 8.22101e-05 -3.47793e-06
8.22101e-05 0.000184514 4.89196e-06
-3.47793e-06 4.89196e-06 0.000223989
0.00185341 -6.63661e-05 -4.36418e-06
-6.63661e-05 4.05656e-05 1.68791e-07
-4.36418e-06 1.68791e-07 -7.40954e-06
0.0019002 -0.00017438 -3.71775e-06
-0.00017438 1.88099e-05 6.27581e-07
-3.71775e-06 6.27581e-07 -2.42158e-05
0.00191518 -0.000271755 -2.9644e-06
-0.000271755 0.000102067 1.95851e-06
-2.9644e-06 1.95851e-06 2.8365e-05
0.000881285 -0.000260256 1.39733e-06
-0.000260256 3.74036e-05 5.92e-06
1.39733e-06 5.92e-06 -0.00019711
0.00139279 -0.000420611 2.07343e-06
-0.000420611 0.000218552 -4.73728e-07
2.07343e-06 -4.73728e-07 -0.000100858
0.0019589 -0.000493058 -2.05536e-06
-0.000493058 0.000419457 -1.7441e-06
-2.05536e-06 -1.7441e-06 0.000127018
0.0018473 -0.000342747 2.00333e-06
-0.000342747 5.02983e-05 1.21679e-06
2.00333e-06 1.21679e-06 -5.70376e-05
0.00155939 -0.000392692 -3.66844e-06
-0.000392692 -1.76284e-05 -6.07787e-06
-3.66844e-06 -6.07787e-06 -0.000190373
0.00012544 -0.000181962 -1.15048e-07
-0.000181962 -0.000357226 1.24749e-05
-1.15048e-07 1.24749e-05 -0.000544138
0.00204439 -0.000305934 1.49441e-05
-0.000305934 0.000878592 -4.39687e-06
1.49441e-05 -4.39687e-06 0.000646645
0.000746515 -3.14337e-05 6.30633e-07
-3.14337e-05 0.000138822 -1.43214e-06
6.30633e-07 -1.43214e-06 -4.60048e-05
0.000539083 1.53277e-05 6.72536e-08
1.53277e-05 -1.73977e-05 5.17072e-07
6.72536e-08 5.17072e-07 -6.50747e-05
0.000797042 2.63122e-05 1.75323e-06
2.63122e-05 0.000170219 8.14607e-07
1.75323e-06 8.14607e-07 6.46848e-05
0.00085956 -5.58868e-05 6.4346e-07
-5.58868e-05 0.000223798 1.55179e-06
6.4346e-07 1.55179e-06 7.20378e-05
0.00192777 -8.52592e-05 2.41412e-07
-8.52592e-05 1.87105e-05 -1.14129e-07
2.41412e-07 -1.14129e-07 4.489e-06
0.000584477 1.83312e-05 1.00499e-06
1.83312e-05 1.82019e-06 1.2247e-07
1.00499e-06 1.2247e-07 -4.05937e-05
0.000527921 -4.11311e-05 -1.75158e-06
-4.11311e-05 -1.01246e-05 -4.37579e-08
-1.75158e-06 -4.37579e-08 -8.13831e-05
0.00198218 -0.000230454 -1.46547e-07
-0.000230454 3.41327e-05 2.44891e-07
-1.46547e-07 2.44891e-07 1.89098e-05
0.0019069 -0.000291172 -1.39414e-06
-0.000291172 4.88288e-05 1.8154e-07
-1.39414e-06 1.8154e-07 -9.84705e-06
0.000742994 -0.000295456 -1.18089e-06
-0.000295456 -6.75201e-05 1.51733e-06
-1.18089e-06 1.51733e-06 -0.000344781
0.00187773 -0.000511978 3.45741e-07
-0.000511978 0.000472289 5.28317e-07
3.45741e-07 5.28317e-07 0.000108946
0.00158557 -0.000479075 3.28136e-06
-0.000479075 0.000144445 -1.55772e-06
3.28136e-06 -1.55772e-06 -0.000131611
0.00206145 -0.000456964 2.37706e-06
-0.000456964 0.000152368 -9.73978e-07
2.37706e-06 -9.73978e-07 2.25616e-05
0.000707454 -8.57713e-06 8.05382e-07
-8.57713e-06 0.000118266 -1.14723e-06
8.05382e-07 -1.14723e-06 2.90011e-05
0.000723647 -3.07117e-05 2.34352e-07
-3.07117e-05 0.00014921 1.34097e-06
2.34352e-07 1.34097e-06 1.0263e-05
0.00100305 -0.000266111 -3.82481e-06
-0.000266111 0.000148467 -1.8117e-06
-3.82481e-06 -1.8117e-06 -5.83323e-05
0.00167385 -0.000288642 1.47229e-05
-0.000288642 0.000710046 -3.21438e-06
1.47229e-05 -3.21438e-06 0.000431987
0.000433334 -8.39902e-05 -2.72085e-06
-8.39902e-05 -4.27037e-05 -3.93147e-07
-2.72085e-06 -3.93147e-07 -0.000235519
0.00065836 -3.1833e-05 6.19036e-07
-3.1833e-05 9.09798e-05 -7.94629e-07
6.19036e-07 -7.94629e-07 -7.09316e-05
0.00194496 -9.89181e-05 1.55072e-06
-9.89181e-05 -4.41832e-05 -1.16178e-06
1.55072e-06 -1.16178e-06 -5.18274e-05
0.00191144 -0.000272133 -3.25118e-07
-0.000272133 -7.20257e-05 2.85085e-07
-3.25118e-07 2.85085e-07 -1.82112e-05
0.0020365 -0.000403391 -4.29693e-06
-0.000403391 4.48353e-05 -1.93825e-06
-4.29693e-06 -1.93825e-06 -2.82803e-05
0.00155195 -0.000516858 8.72385e-07
-0.000516858 -1.84311e-05 -7.38361e-07
8.72385e-07 -7.38361e-07 -0.000183123
0.000885416 -0.000285695 -1.08661e-05
-0.000285695 4.56304e-05 -8.43498e-06
-1.08661e-05 -8.43498e-06 -0.000235454
0.00248523 -0.000607935 -9.77639e-06
-0.000607935 0.000787171 8.47437e-06
-9.77639e-06 8.47437e-06 0.000399896
0.000377533 5.20861e-05 -1.1425e-06
5.20861e-05 -9.02627e-05 -2.08798e-06
-1.1425e-06 -2.08798e-06 -0.00016709
0.000648199 -5.71184e-05 3.29957e-06
-5.71184e-05 6.25693e-05 -7.2081e-07
3.29957e-06 -7.2081e-07 -9.60552e-06
0.000936059 -9.31438e-05 1.39701e-06
-9.31438e-05 0.000245032 2.04245e-06
1.39701e-06 2.04245e-06 0.00014679
0.000449276 1.86129e-05 -1.87865e-06
1.86129e-05 -2.20164e-05 2.65867e-06
-1.87865e-06 2.65867e-06 -0.000147784
0.000916617 -7.24389e-05 -2.14668e-06
-7.24389e-05 0.000245499 3.17886e-06
-2.14668e-06 3.17886e-06 0.000106929
0.00107467 -5.21065e-05 1.82478e-06
-5.21065e-05 0.000290632 8.91813e-08
1.82478e-06 8.91813e-08 0.000115781
-0.000561209 -0.000106947 5.35304e-06
-0.000106947 -0.000449372 8.0656e-07
5.35304e-06 8.0656e-07 -0.000814396
-0.000114134 -0.000254025 -2.23438e-05
-0.000254025 -0.0004905 2.75341e-06
-2.23438e-05 2.75341e-06 -0.000697041
0.000400694 5.05503e-05 -1.23618e-07
5.05503e-05 -5.74362e-05 -8.91583e-07
-1.23618e-07 -8.91583e-07 -0.00016932
0.000941883 0.00015314 -5.15391e-06
0.00015314 0.000304907 -2.69115e-06
-5.15391e-06 -2.69115e-06 0.000123838
0.00207286 0.000308359 -4.07814e-06
0.000308359 6.28502e-05 -1.74928e-06
-4.07814e-06 -1.74928e-06 5.88055e-06
0.00192116 0.000392455 8.71772e-08
0.000392455 0.000167738 1.6686e-06
8.71772e-08 1.6686e-06 9.94804e-06
0.0018132 0.000239638 -7.52474e-06
0.000239638 0.000701255 -1.18024e-06
-7.52474e-06 -1.18024e-06 0.000524329
0.00158829 0.000321717 -3.93983e-06
0.000321717 0.000507174 -7.98536e-06
-3.93983e-06 -7.98536e-06 0.000269904
0.00184089 0.00044704 1.93954e-06
0.00044704 0.000254156 2.16815e-06
1.93954e-06 2.16815e-06 1.04026e-05
0.00193848 0.000430674 -4.74516e-07
0.000430674 0.000523156 -1.44362e-06
-4.74516e-07 -1.44362e-06 0.000226487
0.000544538 6.8132e-05 7.55368e-07
6.8132e-05 2.83428e-05 -9.92503e-07
7.55368e-07 -9.92503e-07 -8.96245e-05
0.00206428 0.00024485 -9.99086e-07
0.00024485 1.35034e-06 -7.74962e-07
-9.99086e-07 -7.74962e-07 2.33354e-06
0.00105468 0.000203938 1.13039e-06
0.000203938 0.000346744 1.62685e-06
1.13039e-06 1.62685e-06 0.000141737
0.00115579 0.000293533 1.23533e-06
0.000293533 0.000214454 -8.07018e-07
1.23533e-06 -8.07018e-07 -2.39778e-05
0.00228494 0.000387015 2.58332e-06
0.000387015 0.000264222 5.97097e-07
2.58332e-06 5.97097e-07 0.000161146
0.00163353 0.00046222 -1.29071e-06
0.00046222 4.33215e-05 -3.91091e-06
-1.29071e-06 -3.91091e-06 -0.000185988
0.00194982 0.000460036 -1.15688e-07
0.000460036 0.000481562 2.13172e-07
-1.15688e-07 2.13172e-07 0.00017158
0.00115053 0.00015834 -3.97658e-06
0.00015834 0.000411003 3.29122e-06
-3.97658e-06 3.29122e-06 0.000249345
0.00240219 0.000282218 -4.70098e-05
0.000282218 0.00025343 -1.25695e-05
-4.70098e-05 -1.25695e-05 0.000276431
0.0021139 0.000383639 -5.80896e-06
0.000383639 0.000891059 3.50276e-07
-5.80896e-06 3.50276e-07 0.000655598
0.00209101 0.000425904 -8.03958e-06
0.000425904 0.000664285 -1.99171e-07
-8.03958e-06 -1.99171e-07 0.000385557
0.00198953 0.000507503 -2.41103e-05
0.000507503 0.000138547 -1.3024e-05
-2.41103e-05 -1.3024e-05 -2.12639e-05
0.00080578 0.000387651 -1.80828e-05
0.000387651 -0.000213471 -1.95607e-06
-1.80828e-05 -1.95607e-06 -0.000495393
0.000876308 0.000378506 3.38901e-05
0.000378506 -0.000533914 -2.16311e-05
3.38901e-05 -2.16311e-05 -0.000780401
0.000448447 6.43518e-05 1.06738e-06
6.43518e-05 -3.5393e-05 -6.0929e-07
1.06738e-06 -6.0929e-07 -0.000130759
0.000631209 4.61182e-05 -1.4786e-07
4.61182e-05 8.33306e-05 9.87853e-07
-1.4786e-07 9.87853e-07 -2.80847e-06
0.0014491 8.01221e-05 4.44311e-07
8.01221e-05 0.000548093 2.41085e-08
4.44311e-07 2.41085e-08 0.000459616
0.000579636 -6.12027e-05 1.94461e-07
-6.12027e-05 4.4664e-05 -2.73757e-06
1.94461e-07 -2.73757e-06 -5.0542e-05
0.000521929 -3.91533e-05 -1.28518e-06
-3.91533e-05 8.16799e-06 -9.47636e-08
-1.28518e-06 -9.47636e-08 -0.000100918
0.000924095 0.000133333 -2.19993e-07
0.000133333 0.000253123 8.6604e-07
-2.19993e-07 8.6604e-07 0.000129781
0.000320284 -5.14194e-06 -1.74063e-06
-5.14194e-06 -0.000117614 4.25312e-06
-1.74063e-06 4.25312e-06 -0.000203728
0.000619189 -2.28469e-05 -1.15552e-07
-2.28469e-05 6.669e-05 -3.94365e-08
-1.15552e-07 -3.94365e-08 -3.08183e-05
0.000618107 4.51923e-05 -6.45041e-08
4.51923e-05 5.80013e-05 -4.70901e-07
-6.45041e-08 -4.70901e-07 -5.53783e-05
0.000919761 4.4756e-05 -1.33881e-06
4.4756e-05 0.000210766 5.54918e-07
-1.33881e-06 5.54918e-07 0.000135238
0.000720189 2.79637e-05 6.43528e-07
2.79637e-05 0.000120804 4.85551e-08
6.43528e-07 4.85551e-08 2.58389e-06
0.00074426 8.18155e-06 -3.48565e-07
8.18155e-06 0.0001206 -4.58398e-07
-3.48565e-07 -4.58398e-07 2.35124e-05
0.000976094 4.48278e-05 1.19272e-07
4.48278e-05 0.000246766 -3.60222e-06
1.19272e-07 -3.60222e-06 0.000166694
0.000831892 5.09038e-05 -1.84952e-06
5.09038e-05 0.000172823 -2.41919e-06
-1.84952e-06 -2.41919e-06 5.2112e-05
0.000816932 8.03859e-05 8.12137e-07
8.03859e-05 0.000170704 3.35205e-07
8.12137e-07 3.35205e-07 5.33265e-05
0.000680408 4.41778e-05 5.27774e-07
4.41778e-05 0.00011028 1.38767e-06
5.27774e-07 1.38767e-06 -2.07826e-05
0.000475207 -2.30713e-05 -2.4957e-07
-2.30713e-05 -3.4734e-05 2.33999e-06
-2.4957e-07 2.33999e-06 -0.000127814
0.000892822 -3.17105e-05 2.38457e-07
-3.17105e-05 0.000257344 -8.6458e-07
2.38457e-07 -8.6458e-07 0.000125772
0.000389006 -1.74716e-05 -9.47842e-07
-1.74716e-05 -8.2588e-05 2.35924e-06
-9.47842e-07 2.35924e-06 -0.000179376
0.000538699 5.11151e-06 -1.35644e-06
5.11151e-06 -5.66154e-06 2.22569e-06
-1.35644e-06 2.22569e-06 -6.46727e-05
0.000557508 2.34005e-05 1.44961e-06
2.34005e-05 4.59191e-06 -1.49932e-08
1.44961e-06 -1.49932e-08 -5.35407e-05
0.00052109 6.84544e-06 5.77235e-07
6.84544e-06 -4.80736e-05 3.83115e-06
5.77235e-07 3.83115e-06 -6.49139e-05
0.000562834 1.84886e-07 -1.92337e-06
1.84886e-07 5.89463e-06 -2.4099e-06
-1.92337e-06 -2.4099e-06 -5.10374e-05
0.000931506 6.62425e-07 -2.09082e-06
6.62425e-07 0.000196487 -1.65999e-06
-2.09082e-06 -1.65999e-06 0.00018218
0.00240665 -1.32724e-05 8.46682e-06
-1.32724e-05 0.00107963 5.25346e-06
8.46682e-06 5.25346e-06 0.00109475
0.00136602 -9.03021e-06 -3.37497e-06
-9.03021e-06 0.00045504 -5.63997e-06
-3.37497e-06 -5.63997e-06 0.000443304
0.000807373 -1.66135e-05 2.19801e-06
-1.66135e-05 0.00011926 3.26469e-06
2.19801e-06 3.26469e-06 0.000126587
0.000779145 -2.371e-05 -2.03347e-07
-2.371e-05 0.000102099 -2.22641e-06
-2.03347e-07 -2.22641e-06 0.000108921
0.000593676 1.07873e-05 -6.53079e-07
1.07873e-05 6.7356e-06 -1.3691e-06
-6.53079e-07 -1.3691e-06 -3.24694e-05
0.000613025 -4.19188e-06 1.08086e-06
-4.19188e-06 1.67512e-05 -1.27271e-07
1.08086e-06 -1.27271e-07 -2.40004e-05
0.000562926 2.17799e-05 3.3537e-07
2.17799e-05 -2.9831e-05 -3.34e-06
3.3537e-07 -3.34e-06 -3.93779e-05
0.000868981 3.49468e-05 -3.61277e-07
3.49468e-05 0.000158339 4.79635e-08
-3.61277e-07 4.79635e-08 0.000147979
0.00211524 5.63663e-05 1.40285e-05
5.63663e-05 0.000915516 -4.18215e-06
1.40285e-05 -4.18215e-06 0.000929391
0.000550594 4.17519e-05 9.7832e-07
4.17519e-05 -2.39875e-05 3.79027e-06
9.7832e-07 3.79027e-06 -4.08476e-05
0.00221052 7.37726e-05 -2.88822e-06
7.37726e-05 0.000980689 -1.95389e-07
-2.88822e-06 -1.95389e-07 0.000990907
0.00243567 9.39425e-05 -1.99795e-05
9.39425e-05 0.0011245 4.02707e-06
-1.99795e-05 4.02707e-06 0.00112967
0.00193027 0.000234107 -4.2247e-06
0.000234107 9.41074e-06 -1.8071e-06
-4.2247e-06 -1.8071e-06 -4.22492e-05
0.00191226 8.05812e-05 -1.89264e-06
8.05812e-05 9.96869e-06 5.81946e-07
-1.89264e-06 5.81946e-07 -6.00105e-06
0.00184651 -3.83543e-06 -4.46397e-06
-3.83543e-06 2.95224e-05 1.60444e-07
-4.46397e-06 1.60444e-07 4.7929e-06
0.0019237 -4.38439e-07 1.38321e-07
-4.38439e-07 8.32948e-06 -1.69038e-07
1.38321e-07 -1.69038e-07 5.37333e-06
0.00203104 0.000131202 5.58356e-08
0.000131202 1.88209e-05 2.00703e-07
5.58356e-08 2.00703e-07 9.2181e-06
0.00194705 6.89481e-05 5.40688e-06
6.89481e-05 -9.80207e-06 -1.20746e-06
5.40688e-06 -1.20746e-06 2.38499e-05
0.0020311 4.60834e-06 -1.76202e-06
4.60834e-06 -1.67285e-05 -1.52121e-06
-1.76202e-06 -1.52121e-06 2.82825e-06
0.00304433 0.00035589 3.49443e-05
0.00035589 -0.000372117 5.31983e-06
3.49443e-05 5.31983e-06 -0.000117986
0.00228471 4.39856e-05 -2.97456e-05
4.39856e-05 0.000346012 1.58282e-05
-2.97456e-05 1.58282e-05 0.000431599
0.000580448 8.43322e-05 -8.89096e-07
8.43322e-05 3.45743e-05 -2.45708e-07
-8.89096e-07 -2.45708e-07 -3.96547e-05
0.00194098 -8.73196e-05 -1.66751e-06
-8.73196e-05 1.99725e-05 -3.02827e-07
-1.66751e-06 -3.02827e-07 8.45082e-06
0.00194911 -0.000220545 -5.68719e-07
-0.000220545 3.21518e-05 1.71535e-07
-5.68719e-07 1.71535e-07 1.16182e-05
0.00186169 -0.000291626 -5.35742e-07
-0.000291626 1.95094e-05 2.32539e-06
-5.35742e-07 2.32539e-06 -3.93156e-05
0.000690705 -0.000287579 -6.65347e-07
-0.000287579 -9.4851e-05 9.08881e-06
-6.65347e-07 9.08881e-06 -0.000364349
0.00193694 -0.000516902 4.88155e-06
-0.000516902 0.000511727 4.19009e-06
4.88155e-06 4.19009e-06 0.000144951
0.00144654 -0.000472917 1.51385e-06
-0.000472917 4.38046e-05 -8.36165e-06
1.51385e-06 -8.36165e-06 -0.000228069
0.00220114 -0.000464148 -2.72933e-06
-0.000464148 0.000242427 -1.20324e-06
-2.72933e-06 -1.20324e-06 0.000109326
0.00183297 -0.000322494 1.71057e-05
-0.000322494 0.00061985 -2.05434e-07
1.71057e-05 -2.05434e-07 0.000401497
0.000393393 -0.000173882 1.26746e-05
-0.000173882 -4.72281e-05 -5.70363e-06
1.26746e-05 -5.70363e-06 -0.000273517
0.00108813 -0.000116124 1.79566e-06
-0.000116124 0.000338864 -2.91232e-06
1.79566e-06 -2.91232e-06 0.000147092
0.000585141 5.07599e-06 -6.17815e-07
5.07599e-06 1.35419e-06 1.42902e-06
-6.17815e-07 1.42902e-06 -4.00072e-05
0.000867691 -1.96718e-05 1.94157e-06
-1.96718e-05 0.000226649 -1.55465e-06
1.94157e-06 -1.55465e-06 5.79507e-05
0.00089925 -3.75277e-05 2.28071e-06
-3.75277e-05 0.000240962 -5.10832e-07
2.28071e-06 -5.10832e-07 0.000149712
0.000845774 -2.87584e-05 1.24154e-06
-2.87584e-05 0.00021852 -1.02231e-06
1.24154e-06 -1.02231e-06 7.79723e-05
0.000367796 -2.84681e-05 -2.17897e-06
-2.84681e-05 -0.000112156 6.48562e-07
-2.17897e-06 6.48562e-07 -0.000180085
0.0019715 -0.000113121 -2.44306e-07
-0.000113121 -5.03268e-05 1.49895e-07
-2.44306e-07 1.49895e-07 -4.43182e-05
0.000479459 3.60942e-05 -2.69016e-08
3.60942e-05 -2.34247e-05 -1.37835e-06
-2.69016e-08 -1.37835e-06 -0.000103027
0.000636348 -5.43003e-05 9.60602e-07
-5.43003e-05 6.43906e-05 4.73934e-07
9.60602e-07 4.73934e-07 -1.28031e-05
0.000784346 -6.27282e-05 2.6901e-08
-6.27282e-05 0.000152838 7.5136e-07
2.6901e-08 7.5136e-07 5.64566e-05
0.00194406 -0.000275058 1.25723e-06
-0.000275058 -3.97667e-05 -1.69547e-07
1.25723e-06 -1.69547e-07 -1.83264e-06
0.00207133 -0.000405165 -6.80373e-08
-0.000405165 7.24523e-05 -5.29986e-07
-6.80373e-08 -5.29986e-07 -1.60892e-06
0.0013108 -0.000337474 7.12816e-06
-0.000337474 0.000276354 -1.95894e-07
7.12816e-06 -1.95894e-07 -6.29157e-06
0.00211736 -0.000574331 6.36434e-06
-0.000574331 0.000591032 -5.28948e-08
6.36434e-06 -5.28948e-08 0.000215801
0.00192875 -0.000540095 -9.55871e-07
-0.000540095 0.00021007 1.54814e-06
-9.55871e-07 1.54814e-06 3.34219e-05
0.000459663 -1.24874e-05 -5.58851e-07
-1.24874e-05 -1.20549e-05 -1.68372e-07
-5.58851e-07 -1.68372e-07 -0.0001346
0.000845555 -8.312e-05 -1.73874e-06
-8.312e-05 0.000210942 5.71393e-07
-1.73874e-06 5.71393e-07 6.15409e-05
0.000635817 -0.000318946 -6.67436e-06
-0.000318946 -4.74386e-05 -5.60189e-07
-6.67436e-06 -5.60189e-07 -0.000295989
0.000540877 -0.000117301 -1.22773e-07
-0.000117301 0.00011396 -1.41573e-06
-1.22773e-07 -1.41573e-06 -0.000191629
0.000736934 -7.16377e-05 -8.02379e-08
-7.16377e-05 9.19455e-05 2.30443e-07
-8.02379e-08 2.30443e-07 -7.64535e-05
0.0023944 -0.000230579 -3.47658e-06
-0.000230579 0.000178999 -1.59009e-06
-3.47658e-06 -1.59009e-06 0.000191401
0.00178593 -0.000290932 -1.23093e-05
-0.000290932 -0.000162021 1.85507e-06
-1.23093e-05 1.85507e-06 -9.32784e-05
0.00243581 -0.000564727 -1.01564e-05
-0.000564727 0.000310532 -2.10888e-06
-1.01564e-05 -2.10888e-06 0.000165839
0.00287106 -0.000659329 -2.29865e-05
-0.000659329 0.000847388 1.04493e-06
-2.29865e-05 1.04493e-06 0.000603861
0.00119919 -0.000365325 -2.15885e-05
-0.000365325 0.00026361 -2.98979e-06
-2.15885e-05 -2.98979e-06 -2.73197e-05
0.000421197 -1.78061e-07 1.23077e-06
-1.78061e-07 -5.73196e-05 -1.2475e-07
1.23077e-06 -1.2475e-07 -0.00015463
0.000474377 4.0087e-05 5.46563e-07
4.0087e-05 -3.90113e-05 1.28027e-06
5.46563e-07 1.28027e-06 -0.000138705
0.000342852 -4.89615e-06 -1.7619e-07
-4.89615e-06 -0.000103362 -8.38605e-07
-1.7619e-07 -8.38605e-07 -0.000209575
0.00138558 -0.000166362 -3.41719e-06
-0.000166362 0.000551116 6.14592e-06
-3.41719e-06 6.14592e-06 0.000405903
0.000467423 -5.97494e-05 -1.60257e-06
-5.97494e-05 -3.7508e-05 7.27782e-06
-1.60257e-06 7.27782e-06 -0.000177926
-0.000124251 -8.70634e-05 1.05929e-06
-8.70634e-05 -0.000196146 4.35003e-06
1.05929e-06 4.35003e-06 -0.000535834
-7.37596e-05 -0.000364898 1.63166e-06
-0.000364898 -0.000232645 1.10345e-06
1.63166e-06 1.10345e-06 -0.000629757
0.000822226 0.000109851 8.27994e-07
0.000109851 0.00020687 -4.55589e-06
8.27994e-07 -4.55589e-06 7.3318e-05
0.000270774 9.95187e-05 -1.483e-06
9.95187e-05 -0.000129459 -1.18881e-06
-1.483e-06 -1.18881e-06 -0.00031001
0.0021227 0.000228054 7.40207e-06
0.000228054 2.38692e-05 2.49217e-07
7.40207e-06 2.49217e-07 3.55487e-05
0.00208204 0.000378772 1.39284e-05
0.000378772 0.000155064 3.84838e-06
1.39284e-05 3.84838e-06 5.611e-05
0.00227774 0.000504634 1.32916e-05
0.000504634 0.000404845 4.17949e-06
1.32916e-05 4.17949e-06 0.000174298
0.00112822 0.000293477 -7.32628e-07
0.000293477 0.000200982 -1.43012e-06
-7.32628e-07 -1.43012e-06 -4.23897e-05
0.00177331 0.000443177 1.01261e-06
0.000443177 0.000389757 1.60095e-06
1.01261e-06 1.60095e-06 8.18206e-05
0.00141603 0.000140316 3.87416e-09
0.000140316 0.00054701 2.60219e-07
3.87416e-09 2.60219e-07 0.000398265
0.00232194 0.000248573 -2.6504e-06
0.000248573 0.000237676 7.34506e-07
-2.6504e-06 7.34506e-07 0.000267264
0.00147607 0.000297241 -2.02545e-06
0.000297241 0.000508275 5.97727e-07
-2.02545e-06 5.97727e-07 0.000292824
0.00152904 0.000373271 4.53323e-07
0.000373271 0.00036952 2.27068e-06
4.53323e-07 2.27068e-06 8.62655e-05
0.00198862 0.000500374 -1.62775e-06
0.000500374 0.000126417 -2.78662e-06
-1.62775e-06 -2.78662e-06 -2.00313e-05
0.00164543 0.000466673 -3.51114e-06
0.000466673 0.00025634 5.3582e-06
-3.51114e-06 5.3582e-06 -4.0699e-05
0.00234486 0.000508525 4.3736e-05
0.000508525 -6.82166e-05 4.58374e-06
4.3736e-05 4.58374e-06 -0.000383013
0.00109438 0.000203947 -5.70279e-06
0.000203947 0.000380792 -4.55309e-07
-5.70279e-06 -4.55309e-07 0.000205865
0.00286014 0.000427935 -5.95236e-05
0.000427935 0.000652014 -2.75059e-05
-5.95236e-05 -2.75059e-05 0.00061727
0.00115225 0.000293087 -4.51239e-06
0.000293087 0.000238937 -1.64066e-06
-4.51239e-06 -1.64066e-06 2.9839e-05
0.000378954 0.00028879 -7.23302e-07
0.00028879 -0.000289476 -5.34833e-06
-7.23302e-07 -5.34833e-06 -0.000563792
0.000444348 0.000459642 -1.98619e-05
0.000459642 -0.000553408 -3.83475e-06
-1.98619e-05 -3.83475e-06 -0.000742711
0.0110319 0.000410098 -0.000223583
0.000410098 0.00232472 -4.74919e-05
-0.000223583 -4.74919e-05 0.00143663
0.00603242 0.000914529 0.000122073
0.000914529 0.000752976 -3.2794e-05
0.000122073 -3.2794e-05 0.000548326
0.000159505 0.000617964 1.33123e-05
0.000617964 -0.000742676 6.30479e-06
1.33123e-05 6.30479e-06 -0.00101381
-0.00416229 -0.0009033 0.000488782
-0.0009033 -0.000674033 6.75419e-05
0.000488782 6.75419e-05 -0.00224951
0.0099383 -0.00308212 -2.26987e-05
-0.00308212 0.00242051 2.10113e-05
-2.26987e-05 2.10113e-05 0.00353025
0.000389895 5.49926e-05 4.08369e-06
5.49926e-05 -4.68018e-05 7.19413e-07
4.08369e-06 7.19413e-07 -0.000135285
0.000869081 5.21889e-05 1.32955e-06
5.21889e-05 0.000228711 -8.10913e-07
1.32955e-06 -8.10913e-07 0.000141132
0.00115457 0.000119057 -2.14809e-06
0.000119057 0.000399234 -4.15698e-07
-2.14809e-06 -4.15698e-07 0.000293724
0.000592855 -6.13469e-05 -1.1801e-07
-6.13469e-05 5.93708e-05 -1.99326e-06
-1.1801e-07 -1.99326e-06 -4.29979e-05
0.000599572 6.00797e-05 -1.4562e-06
6.00797e-05 5.04269e-05 -1.73163e-06
-1.4562e-06 -1.73163e-06 -6.70371e-05
0.000726828 -2.60044e-05 1.11784e-07
-2.60044e-05 0.000127039 -2.80266e-07
1.11784e-07 -2.80266e-07 8.17358e-06
0.000810331 3.23112e-05 -1.8873e-06
3.23112e-05 0.000155697 3.45641e-06
-1.8873e-06 3.45641e-06 5.61789e-05
0.000547582 3.22417e-05 -1.46167e-06
3.22417e-05 -5.97122e-06 2.81591e-06
-1.46167e-06 2.81591e-06 -8.1877e-05
0.000790709 8.55178e-05 -1.73096e-06
8.55178e-05 0.000170875 -5.45056e-07
-1.73096e-06 -5.45056e-07 4.1957e-05
0.000534481 -9.91684e-06 3.6127e-09
-9.91684e-06 7.11599e-06 7.09413e-07
3.6127e-09 7.09413e-07 -8.90293e-05
0.000653432 2.09086e-05 2.69684e-07
2.09086e-05 9.02089e-05 1.86339e-07
2.69684e-07 1.86339e-07 -3.75854e-05
0.000688874 4.24975e-05 6.93833e-07
4.24975e-05 7.55448e-05 -6.39573e-07
6.93833e-07 -6.39573e-07 -5.34032e-06
0.000799638 5.54138e-05 -8.73137e-07
5.54138e-05 0.000153937 -2.41408e-07
-8.73137e-07 -2.41408e-07 3.80104e-05
0.00121804 0.000108585 -1.56604e-06
0.000108585 0.000409469 -1.62356e-06
-1.56604e-06 -1.62356e-06 0.000288543
0.00039667 5.34656e-05 -6.91568e-08
5.34656e-05 -6.67092e-05 -3.02629e-06
-6.91568e-08 -3.02629e-06 -0.000172319
0.000796204 8.51738e-05 1.89937e-06
8.51738e-05 0.000159138 3.28578e-07
1.89937e-06 3.28578e-07 3.69863e-05
0.000546295 -2.22314e-05 1.27333e-06
-2.22314e-05 1.27202e-05 3.44203e-09
1.27333e-06 3.44203e-09 -0.000105573
0.00042376 -5.43581e-05 -1.18035e-06
-5.43581e-05 -6.06772e-05 2.15314e-06
-1.18035e-06 2.15314e-06 -0.000159562
0.000777869 -7.4151e-06 -7.04247e-07
-7.4151e-06 0.000161475 -1.03316e-07
-7.04247e-07 -1.03316e-07 3.82041e-05
0.000829636 3.13848e-05 -1.22311e-08
3.13848e-05 0.000195572 -3.3902e-06
-1.22311e-08 -3.3902e-06 7.71114e-05
0.000653454 -2.67505e-05 -6.3616e-07
-2.67505e-05 9.83398e-05 1.08494e-07
-6.3616e-07 1.08494e-07 -1.77688e-05
0.000791219 -2.69119e-05 1.19789e-06
-2.69119e-05 0.000177193 -6.20168e-07
1.19789e-06 -6.20168e-07 5.75665e-05
0.000665163 -8.95562e-05 -2.47943e-06
-8.95562e-05 8.31393e-05 1.55572e-06
-2.47943e-06 1.55572e-06 -1.16102e-05
0.000434834 -1.30747e-05 1.48188e-07
-1.30747e-05 -5.33111e-05 8.81676e-07
1.48188e-07 8.81676e-07 -0.000152223
0.00057659 -2.38451e-05 -1.57242e-06
-2.38451e-05 9.38436e-06 2.51949e-06
-1.57242e-06 2.51949e-06 -4.66626e-05
0.000569768 -2.09319e-05 1.13291e-06
-2.09319e-05 1.1249e-05 8.68966e-09
1.13291e-06 8.68966e-09 -4.70512e-05
0.00056531 6.58244e-06 1.66367e-07
6.58244e-06 -2.08016e-05 5.61573e-06
1.66367e-07 5.61573e-06 -3.818e-05
0.000569727 2.22764e-05 -1.03267e-06
2.22764e-05 9.10961e-06 -2.28839e-06
-1.03267e-06 -2.28839e-06 -4.71637e-05
0.000533451 5.97823e-06 4.03693e-07
5.97823e-06 -4.03914e-05 5.43397e-09
4.03693e-07 5.43397e-09 -5.73453e-05
0.00238777 -1.61115e-06 -8.30316e-07
-1.61115e-06 0.00106832 5.31304e-06
-8.30316e-07 5.31304e-06 0.00108346
0.00057983 4.30859e-06 -9.99722e-07
4.30859e-06 -1.41681e-05 -5.78552e-06
-9.99722e-07 -5.78552e-06 -3.0964e-05
0.00160972 -9.90474e-06 2.30738e-08
-9.90474e-06 0.000600532 8.93186e-08
2.30738e-08 8.93186e-08 0.000611562
0.000775217 -1.47746e-05 2.39624e-07
-1.47746e-05 9.80855e-05 -2.14189e-06
2.39624e-07 -2.14189e-06 0.000105764
0.000591145 -1.35547e-05 1.00694e-06
-1.35547e-05 7.85517e-06 -1.29834e-06
1.00694e-06 -1.29834e-06 -3.01463e-05
0.000616178 -2.16472e-05 3.94038e-07
-2.16472e-05 2.07181e-05 -4.94191e-08
3.94038e-07 -4.94191e-08 -1.92777e-05
0.000580015 1.40746e-05 4.84546e-07
1.40746e-05 -2.1827e-05 -3.09003e-06
4.84546e-07 -3.09003e-06 -2.95395e-05
0.000589784 -1.60676e-05 -1.39302e-06
-1.60676e-05 1.65826e-06 1.17697e-06
-1.39302e-06 1.17697e-06 -3.84484e-05
0.000850763 2.57067e-05 -5.98164e-08
2.57067e-05 0.000143178 -7.12627e-07
-5.98164e-08 -7.12627e-07 0.00013557
0.002042 4.18722e-05 1.05235e-05
4.18722e-05 0.000866589 -4.2974e-06
1.05235e-05 -4.2974e-06 0.000882939
0.000547832 3.05537e-05 -3.96688e-07
3.05537e-05 -3.4427e-05 3.40494e-06
-3.96688e-07 3.40494e-06 -4.68317e-05
0.00217637 5.86894e-05 -7.13472e-06
5.86894e-05 0.000954374 1.11372e-06
-7.13472e-06 1.11372e-06 0.00096755
0.00228441 7.7392e-05 -1.55521e-05
7.7392e-05 0.00102618 4.09131e-06
-1.55521e-05 4.09131e-06 0.00103548
0.00200709 0.000131985 -2.46645e-06
0.000131985 2.00763e-05 -2.12883e-07
-2.46645e-06 -2.12883e-07 9.39499e-06
0.00192566 -1.18536e-07 -1.28091e-06
-1.18536e-07 1.19526e-05 2.41504e-07
-1.28091e-06 2.41504e-07 8.88622e-06
0.00165264 5.62757e-05 8.89277e-06
5.62757e-05 -0.000196591 3.93583e-07
8.89277e-06 3.93583e-07 -0.000168949
0.00229531 0.000258322 4.10979e-05
0.000258322 -0.000576319 8.91929e-06
4.10979e-05 8.91929e-06 -0.000413339
0.00199332 -1.01902e-05 -2.11335e-06
-1.01902e-05 -2.71265e-05 -5.90023e-07
-2.11335e-06 -5.90023e-07 -6.93807e-06
0.00191838 5.26574e-05 3.74022e-06
5.26574e-05 0.000136161 -3.11475e-06
3.74022e-06 -3.11475e-06 0.000203144
0.00285515 -1.87493e-05 -2.79683e-05
-1.87493e-05 0.000716105 4.30751e-06
-2.79683e-05 4.30751e-06 0.000695891
0.00195465 -2.17284e-05 4.82354e-05
-2.17284e-05 -0.00146664 -2.54566e-05
4.82354e-05 -2.54566e-05 -0.00122148
0.00251047 9.44007e-05 3.92421e-05
9.44007e-05 -0.000142475 2.30938e-05
3.92421e-05 2.30938e-05 3.48133e-05
0.000617034 7.10638e-05 1.01887e-07
7.10638e-05 5.96752e-05 -5.54109e-07
1.01887e-07 -5.54109e-07 -1.7674e-05
0.000641279 -8.48431e-06 5.81241e-07
-8.48431e-06 7.60826e-05 -2.00845e-07
5.81241e-07 -2.00845e-07 -3.22159e-06
0.000617189 -9.66274e-05 -9.40084e-07
-9.66274e-05 6.13943e-05 1.14386e-06
-9.40084e-07 1.14386e-06 -3.28423e-05
0.000592814 -4.2677e-05 -1.26476e-06
-4.2677e-05 6.90063e-05 1.06028e-06
-1.26476e-06 1.06028e-06 -3.57274e-05
0.00201186 -0.000125851 -3.52871e-06
-0.000125851 -4.78362e-05 5.80353e-07
-3.52871e-06 5.80353e-07 -2.73951e-05
0.00196435 -0.000272771 7.76446e-07
-0.000272771 -1.15893e-05 -2.51728e-07
7.76446e-07 -2.51728e-07 1.43742e-05
0.00209874 -0.000403715 -2.23255e-06
-0.000403715 9.60529e-05 2.27083e-06
-2.23255e-06 2.27083e-06 2.24642e-05
0.00240933 -0.000459676 1.11337e-05
-0.000459676 0.000888137 3.33047e-06
1.11337e-05 3.33047e-06 0.000595056
0.00105083 -0.000479461 1.19683e-05
-0.000479461 7.9e-06 -3.72134e-06
1.19683e-05 -3.72134e-06 -0.000350385
0.00231582 -0.000564793 7.04206e-06
-0.000564793 0.000440521 -3.15127e-06
7.04206e-06 -3.15127e-06 0.000253712
0.00119154 -0.000355612 -4.00217e-06
-0.000355612 0.000286139 2.68859e-06
-4.00217e-06 2.68859e-06 5.68195e-06
0.00197631 -0.000155892 1.53154e-06
-0.000155892 0.000869939 -9.29056e-07
1.53154e-06 -9.29056e-07 0.000621657
0.000234163 -7.5388e-05 -3.75958e-08
-7.5388e-05 -0.000208792 -1.22507e-06
-3.75958e-08 -1.22507e-06 -0.000366647
0.000674943 -4.06485e-05 -1.25828e-07
-4.06485e-05 8.61323e-05 1.05178e-06
-1.25828e-07 1.05178e-06 1.03613e-05
0.000680754 -9.04669e-05 6.30871e-07
-9.04669e-05 0.000123964 -2.9867e-06
6.30871e-07 -2.9867e-06 -3.56266e-05
0.000755703 -7.75885e-06 9.43565e-07
-7.75885e-06 0.000165511 -8.33886e-07
9.43565e-07 -8.33886e-07 4.33023e-05
0.000640744 7.23516e-06 1.46657e-07
7.23516e-06 7.91747e-05 -2.04316e-07
1.46657e-07 -2.04316e-07 -3.4339e-06
0.000542949 -1.6606e-06 -3.36165e-06
-1.6606e-06 9.06814e-06 2.21427e-06
-3.36165e-06 2.21427e-06 -8.48884e-05
0.00232287 -0.000212943 1.25458e-06
-0.000212943 0.000146008 6.13903e-07
1.25458e-06 6.13903e-07 0.0001722
0.000642844 -1.41691e-05 1.1222e-06
-1.41691e-05 8.60712e-05 -2.33628e-07
1.1222e-06 -2.33628e-07 -1.85965e-05
0.000692262 2.64487e-06 2.66542e-06
2.64487e-06 0.000100208 -1.52798e-07
2.66542e-06 -1.52798e-07 -3.35089e-06
0.000345271 3.00299e-05 2.11628e-07
3.00299e-05 -0.000100708 1.31511e-06
2.11628e-07 1.31511e-06 -0.000193803
0.00177629 -0.000294358 -8.04223e-07
-0.000294358 -0.000193813 -1.5801e-06
-8.04223e-07 -1.5801e-06 -0.000128892
0.00207435 -0.000531222 1.55199e-06
-0.000531222 0.00012874 -4.29247e-07
1.55199e-06 -4.29247e-07 -5.6736e-06
0.00167773 -0.000445249 -1.17514e-06
-0.000445249 0.000521951 2.14289e-07
-1.17514e-06 2.14289e-07 0.000219082
0.00215617 -0.000604224 -5.72384e-06
-0.000604224 0.000463562 1.94455e-06
-5.72384e-06 1.94455e-06 0.000224693
0.00108884 -8.14761e-05 -9.58484e-07
-8.14761e-05 0.00035584 4.07662e-07
-9.58484e-07 4.07662e-07 0.000219338
0.000447219 -7.16626e-05 3.31608e-07
-7.16626e-05 -5.15498e-05 9.10708e-07
3.31608e-07 9.10708e-07 -0.000198926
0.00111089 -0.000446544 4.00995e-06
-0.000446544 0.00043863 -1.73056e-06
4.00995e-06 -1.73056e-06 2.50398e-05
0.00116142 -0.000200487 1.29889e-07
-0.000200487 0.000459969 -4.08572e-07
1.29889e-07 -4.08572e-07 0.000155228
0.00248535 -0.000259384 -2.41827e-05
-0.000259384 0.000149729 -1.40468e-06
-2.41827e-05 -1.40468e-06 0.000272211
0.00231494 -0.000431426 -2.92419e-05
-0.000431426 0.000150495 6.35379e-06
-2.92419e-05 6.35379e-06 0.00016778
0.00282051 -0.000690451 -1.24806e-05
-0.000690451 0.000627648 -5.47143e-06
-1.24806e-05 -5.47143e-06 0.000407274
0.00163707 -0.000515188 -1.02948e-05
-0.000515188 0.00037461 2.81522e-06
-1.02948e-05 2.81522e-06 0.000149514
0.000527333 -1.21086e-05 -1.57973e-06
-1.21086e-05 3.38201e-05 -2.04599e-06
-1.57973e-06 -2.04599e-06 -8.86503e-05
0.000526224 -8.12209e-05 -9.24305e-07
-8.12209e-05 2.15925e-05 -4.48895e-06
-9.24305e-07 -4.48895e-06 -0.000110561
0.000432939 -0.00012164 -3.32008e-06
-0.00012164 6.54173e-05 1.19963e-05
-3.32008e-06 1.19963e-05 -0.00013034
-0.000401519 -0.000223637 -3.43809e-06
-0.000223637 -0.000195307 -5.70609e-06
-3.43809e-06 -5.70609e-06 -0.000695803
0.00106172 -0.000416331 2.73234e-05
-0.000416331 -0.0033521 -6.1247e-06
2.73234e-05 -6.1247e-06 -0.00356457
0.00154881 0.000131047 7.68232e-07
0.000131047 0.000613543 -3.931e-06
7.68232e-07 -3.931e-06 0.000473028
0.000677475 0.000203842 2.85459e-06
0.000203842 4.21033e-05 1.97343e-06
2.85459e-06 1.97343e-06 -0.000156989
0.00209639 0.000219639 5.46978e-05
0.000219639 0.000130574 1.11731e-05
5.46978e-05 1.11731e-05 0.000163809
0.00203105 0.000492054 1.87531e-05
0.000492054 0.000142051 6.79182e-06
1.87531e-05 6.79182e-06 6.24926e-06
0.00210235 0.000511823 7.71801e-06
0.000511823 0.000521531 8.42789e-06
7.71801e-06 8.42789e-06 0.000211488
0.00103892 0.000327213 6.01156e-06
0.000327213 0.000115684 4.41793e-06
6.01156e-06 4.41793e-06 -0.000173585
0.00344784 0.000617757 8.0254e-05
0.000617757 0.000236479 2.99801e-05
8.0254e-05 2.99801e-05 -0.000187882
0.00126838 0.000189809 3.75325e-06
0.000189809 0.000484269 6.87572e-07
3.75325e-06 6.87572e-07 0.00031305
0.00240746 0.000401455 -1.16349e-05
0.000401455 0.000379192 -8.84934e-07
-1.16349e-05 -8.84934e-07 0.000368405
0.00112272 0.000291017 1.87527e-06
0.000291017 0.000243994 6.83366e-07
1.87527e-06 6.83366e-07 3.3077e-05
0.0011811 0.000382308 2.24632e-06
0.000382308 0.000158912 -2.76111e-06
2.24632e-06 -2.76111e-06 -0.000129637
0.00123395 0.000521276 -5.24005e-06
0.000521276 -0.00014577 -1.47602e-06
-5.24005e-06 -1.47602e-06 -0.000342388
0.00278774 -0.000336613 -0.000128097
-0.000336613 -0.002695 -3.82554e-05
-0.000128097 -3.82554e-05 -0.00369251
0.00604605 0.000772578 -2.59175e-05
0.000772578 0.000599393 -4.69579e-05
-2.59175e-05 -4.69579e-05 0.000181951
0.000586286 0.000538997 -8.70316e-06
0.000538997 -0.000383465 7.20995e-06
-8.70316e-06 7.20995e-06 -0.000711683
-0.00208278 -0.000686368 0.000212551
-0.000686368 0.00111917 9.09023e-05
0.000212551 9.09023e-05 -0.000642032
0.00192589 -0.00307102 -0.000156359
-0.00307102 -0.000185322 -0.000165433
-0.000156359 -0.000165433 0.00108927
0.00117148 0.00021288 -6.81974e-06
0.00021288 0.000407728 -2.62555e-06
-6.81974e-06 -2.62555e-06 0.000251595
0.000615962 0.000455794 0.000248016
0.000455794 0.00213806 -4.66016e-06
0.000248016 -4.66016e-06 0.000856066
0.00102816 -0.000939343 -0.000124601
-0.000939343 0.00277857 -0.000191175
-0.000124601 -0.000191175 0.000496567
0.00265534 0.000621911 -3.26678e-05
0.000621911 0.000494556 -8.60316e-06
-3.26678e-05 -8.60316e-06 0.000513027
0.00073676 0.000177843 -1.41176e-05
0.000177843 2.59775e-05 -3.99967e-06
-1.41176e-05 -3.99967e-06 -0.000170729
0.000355789 0.000423154 -2.54297e-05
0.000423154 -0.000286973 -1.7466e-05
-2.54297e-05 -1.7466e-05 -0.000578473
9.59664e-05 0.000569683 3.36752e-05
0.000569683 -0.000704939 7.15577e-05
3.36752e-05 7.15577e-05 -0.00087465
0.0132829 0.000962385 -1.20705e-05
0.000962385 0.00381049 -4.41439e-05
-1.20705e-05 -4.41439e-05 0.00233692
0.00272298 0.00111023 1.29799e-05
0.00111023 0.000411833 3.63643e-06
1.29799e-05 3.63643e-06 -0.000660743
0.00405491 -0.00272482 0.00039908
-0.00272482 0.000178209 0.000270926
0.00039908 0.000270926 0.000141302
0.00681431 -0.00141749 -3.38808e-05
-0.00141749 3.10132e-06 0.000285968
-3.38808e-05 0.000285968 0.000671216
0.000580621 3.549e-05 2.53505e-06
3.549e-05 7.67393e-05 -2.39403e-06
2.53505e-06 -2.39403e-06 -1.22082e-05
0.000743011 9.7324e-05 3.32689e-06
9.7324e-05 0.000162227 9.6164e-07
3.32689e-06 9.6164e-07 5.67302e-05
0.00144099 0.000170465 -2.22383e-06
0.000170465 0.000584654 -2.75853e-06
-2.22383e-06 -2.75853e-06 0.000467684
0.000616024 5.10519e-06 8.19502e-07
5.10519e-06 7.34097e-05 -4.7382e-07
8.19502e-07 -4.7382e-07 -3.36401e-05
0.000724515 3.57469e-05 2.41867e-08
3.57469e-05 0.000130142 -1.70796e-06
2.41867e-08 -1.70796e-06 4.00897e-06
0.000513874 -1.55527e-06 -1.74184e-06
-1.55527e-06 -5.88695e-06 4.58329e-07
-1.74184e-06 4.58329e-07 -0.000121421
0.000747498 6.00149e-05 -1.71535e-06
6.00149e-05 0.000124125 1.5647e-06
-1.71535e-06 1.5647e-06 1.25194e-05
0.000522659 4.13909e-05 -1.43129e-06
4.13909e-05 -2.75197e-05 -1.76113e-07
-1.43129e-06 -1.76113e-07 -0.000108906
0.000432399 -4.46864e-06 2.52734e-07
-4.46864e-06 -5.08146e-05 7.91844e-07
2.52734e-07 7.91844e-07 -0.000152578
0.00089904 4.60479e-05 5.6571e-07
4.60479e-05 0.000223293 7.83563e-07
5.6571e-07 7.83563e-07 0.000104813
0.00077882 3.39387e-05 2.74705e-07
3.39387e-05 0.000149442 3.50855e-07
2.74705e-07 3.50855e-07 2.65809e-05
0.000684689 1.91163e-05 6.42811e-07
1.91163e-05 0.0001107 -3.20852e-07
6.42811e-07 -3.20852e-07 -1.84028e-05
0.000445603 5.62813e-05 -3.02539e-07
5.62813e-05 -3.59888e-05 -9.51963e-07
-3.02539e-07 -9.51963e-07 -0.000142252
0.00127711 7.27842e-05 -8.74346e-07
7.27842e-05 0.000449958 -3.20719e-06
-8.74346e-07 -3.20719e-06 0.000340721
9.76594e-05 4.84386e-05 -3.40834e-06
4.84386e-05 -0.000193617 -4.92974e-06
-3.40834e-06 -4.92974e-06 -0.000308503
0.000760212 -8.16279e-05 -1.0204e-08
-8.16279e-05 0.000137955 -1.1333e-07
-1.0204e-08 -1.1333e-07 1.06023e-05
0.000765795 -5.68084e-05 -6.81553e-07
-5.68084e-05 0.000165454 -3.14599e-07
-6.81553e-07 -3.14599e-07 3.14049e-05
0.000791588 -2.88726e-05 -4.54654e-07
-2.88726e-05 0.000180112 -3.74278e-07
-4.54654e-07 -3.74278e-07 4.94159e-05
0.000806066 6.16249e-07 -1.30804e-06
6.16249e-07 0.000172904 -1.99434e-07
-1.30804e-06 -1.99434e-07 6.18353e-05
0.000784213 1.782e-05 -3.18533e-06
1.782e-05 0.000181227 -2.48096e-06
-3.18533e-06 -2.48096e-06 4.055e-05
0.000723723 4.41899e-06 1.35311e-06
4.41899e-06 0.000127096 -1.8851e-06
1.35311e-06 -1.8851e-06 1.71132e-05
2.2722e-05 -2.16099e-05 -3.73056e-07
-2.16099e-05 -0.00029449 -2.53093e-06
-3.73056e-07 -2.53093e-06 -0.000390138
0.000586479 -5.21025e-06 9.40122e-07
-5.21025e-06 3.50079e-05 7.19779e-08
9.40122e-07 7.19779e-08 -7.28183e-05
0.000640861 -5.22125e-05 2.85022e-07
-5.22125e-05 6.84829e-05 5.8168e-07
2.85022e-07 5.8168e-07 -3.10798e-05
0.000714738 -5.00237e-05 -2.1553e-07
-5.00237e-05 0.000127974 -3.12317e-08
-2.1553e-07 -3.12317e-08 1.46045e-05
0.000654456 -5.59704e-05 -2.06392e-06
-5.59704e-05 6.48449e-05 1.26671e-06
-2.06392e-06 1.26671e-06 -1.80786e-05
0.000673556 -4.00734e-05 1.42354e-06
-4.00734e-05 8.67165e-05 -4.71424e-07
1.42354e-06 -4.71424e-07 -2.0668e-05
0.000596082 -8.27342e-05 1.81179e-08
-8.27342e-05 3.95544e-05 2.2398e-07
1.81179e-08 2.2398e-07 -5.49305e-05
0.000618844 -2.25167e-05 -2.07858e-06
-2.25167e-05 3.00026e-05 2.73208e-06
-2.07858e-06 2.73208e-06 -2.57803e-05
0.000478289 -6.12045e-06 1.26371e-06
-6.12045e-06 -1.73504e-05 -7.42681e-07
1.26371e-06 -7.42681e-07 -0.000123521
0.000575056 2.90028e-06 1.36266e-06
2.90028e-06 1.28949e-05 -6.75934e-09
1.36266e-06 -6.75934e-09 -4.56074e-05
0.00139039 9.0143e-06 -3.30717e-06
9.0143e-06 0.000472168 5.52382e-06
-3.30717e-06 5.52382e-06 0.000459169
0.000568143 3.77992e-05 -7.37399e-07
3.77992e-05 1.05534e-05 -2.32366e-06
-7.37399e-07 -2.32366e-06 -4.76158e-05
0.000947615 2.47061e-06 -1.8958e-06
2.47061e-06 0.000208167 8.08734e-07
-1.8958e-06 8.08734e-07 0.000193178
0.000830337 3.10482e-06 -4.21592e-06
3.10482e-06 0.00013411 5.0849e-06
-4.21592e-06 5.0849e-06 0.000141055
0.000539014 -7.4033e-07 5.56572e-07
-7.4033e-07 -3.68906e-05 -3.86047e-06
5.56572e-07 -3.86047e-06 -5.38859e-05
0.00240305 1.55395e-07 4.69669e-06
1.55395e-07 0.00107757 -6.89639e-09
4.69669e-06 -6.89639e-09 0.00109265
0.000850549 -2.74462e-06 -4.29149e-06
-2.74462e-06 0.000145832 -5.1979e-06
-4.29149e-06 -5.1979e-06 0.000152907
0.000586681 6.39902e-05 2.0016e-06
6.39902e-05 4.78911e-05 1.87345e-07
2.0016e-06 1.87345e-07 -3.66516e-05
0.000568224 2.96145e-05 -1.3666e-06
2.96145e-05 -2.48324e-07 -1.7568e-06
-1.3666e-06 -1.7568e-06 -3.99093e-05
0.00058083 -6.36852e-06 1.04162e-06
-6.36852e-06 4.17641e-06 1.70783e-08
1.04162e-06 1.70783e-08 -3.54673e-05
0.000580695 8.2486e-06 4.12886e-07
8.2486e-06 -2.19593e-05 -3.0452e-06
4.12886e-07 -3.0452e-06 -2.89874e-05
0.000609341 -3.6033e-05 -1.77611e-06
-3.6033e-05 1.85146e-05 1.32721e-06
-1.77611e-06 1.32721e-06 -2.30472e-05
0.0005494 1.40613e-05 1.80231e-08
1.40613e-05 -4.07676e-05 -7.57175e-07
1.80231e-08 -7.57175e-07 -4.81663e-05
0.0020166 2.81676e-05 7.06193e-06
2.81676e-05 0.000847721 -4.45144e-06
7.06193e-06 -4.45144e-06 0.00086566
0.00114953 3.23194e-05 -6.21194e-07
3.23194e-05 0.000323611 1.80547e-06
-6.21194e-07 1.80547e-06 0.000317249
0.00147819 3.60619e-05 7.20846e-08
3.60619e-05 0.000527868 1.40304e-06
7.20846e-08 1.40304e-06 0.000540115
0.000884802 3.92371e-05 -1.29637e-05
3.92371e-05 0.000176247 7.18338e-06
-1.29637e-05 7.18338e-06 0.000182635
0.00151176 0.000172342 7.58197e-05
0.000172342 -0.000868737 1.61527e-05
7.58197e-05 1.61527e-05 -0.000726752
0.00196068 -2.35428e-05 2.47205e-06
-2.35428e-05 -3.1264e-05 1.503e-06
2.47205e-06 1.503e-06 -1.43618e-05
0.00191073 6.46662e-05 3.51077e-05
6.46662e-05 0.000148095 -1.21674e-05
3.51077e-05 -1.21674e-05 0.000206039
0.00155499 0.000143419 -2.03074e-05
0.000143419 -0.00124835 -1.27142e-05
-2.03074e-05 -1.27142e-05 -0.000820211
0.00188005 6.70917e-05 2.07596e-05
6.70917e-05 -0.000388898 -4.18556e-08
2.07596e-05 -4.18556e-08 -0.000225827
0.00237386 -2.22143e-05 7.28296e-07
-2.22143e-05 0.000377702 -2.97939e-06
7.28296e-07 -2.97939e-06 0.000362615
0.00357233 -9.89057e-05 -6.0297e-05
-9.89057e-05 0.000843325 1.78472e-06
-6.0297e-05 1.78472e-06 0.000815594
0.00303476 -7.36541e-05 7.61878e-05
-7.36541e-05 0.00030823 3.73462e-06
7.61878e-05 3.73462e-06 0.000270902
0.0104847 -0.000511447 1.47944e-05
-0.000511447 0.00239314 4.16426e-05
1.47944e-05 4.16426e-05 0.000843619
0.0103656 0.00220977 0.000498047
0.00220977 0.00463929 -0.000214874
0.000498047 -0.000214874 0.00430364
0.00640305 0.00240959 -2.6748e-05
0.00240959 0.00481621 1.94753e-05
-2.6748e-05 1.94753e-05 0.00493627
0.000412912 -9.07621e-05 1.76942e-06
-9.07621e-05 -5.05647e-05 -1.76093e-07
1.76942e-06 -1.76093e-07 -0.000147517
0.00063688 -1.1706e-05 1.34052e-06
-1.1706e-05 7.3297e-05 -1.69036e-07
1.34052e-06 -1.69036e-07 -5.93116e-06
0.000684451 -8.07299e-05 -1.65417e-06
-8.07299e-05 0.00010805 1.07721e-06
-1.65417e-06 1.07721e-06 2.29756e-05
0.000622067 -4.38827e-05 -1.74706e-07
-4.38827e-05 6.60967e-05 2.47587e-07
-1.74706e-07 2.47587e-07 -2.95054e-05
0.000614894 5.88751e-05 -1.52225e-06
5.88751e-05 8.4719e-05 1.91088e-06
-1.52225e-06 1.91088e-06 -2.82739e-05
0.000599269 0.000118371 1.33584e-06
0.000118371 5.26632e-05 4.15468e-06
1.33584e-06 4.15468e-06 -5.78455e-05
0.000868929 -1.49777e-05 2.90623e-06
-1.49777e-05 0.000232674 3.90859e-07
2.90623e-06 3.90859e-07 0.000121861
0.000561764 -2.87353e-05 -1.125e-06
-2.87353e-05 3.88675e-05 1.00279e-06
-1.125e-06 1.00279e-06 -6.03654e-05
0.00217698 -0.000198168 5.53325e-06
-0.000198168 6.46331e-05 2.18518e-06
5.53325e-06 2.18518e-06 0.00010484
0.00181785 -0.000307496 9.88485e-06
-0.000307496 -0.000206101 -2.10164e-06
9.88485e-06 -2.10164e-06 -0.000147432
0.00161543 -0.000491932 6.85537e-06
-0.000491932 -0.000109198 3.3117e-06
6.85537e-06 3.3117e-06 -0.000233827
0.00146475 -0.000449156 1.57086e-05
-0.000449156 0.00038733 2.22351e-07
1.57086e-05 2.22351e-07 8.04043e-05
0.00178343 -0.000578896 6.62511e-06
-0.000578896 0.000269213 2.43762e-06
6.62511e-06 2.43762e-06 3.25091e-05
0.00231316 -0.00052744 8.57728e-06
-0.00052744 0.00112127 -2.9986e-06
8.57728e-06 -2.9986e-06 0.000687304
0.00239658 -0.000316363 1.54323e-06
-0.000316363 0.00111126 -2.82694e-06
1.54323e-06 -2.82694e-06 0.000824338
0.000789821 -0.00013638 4.66998e-06
-0.00013638 0.000159003 -4.57252e-06
4.66998e-06 -4.57252e-06 -7.77637e-06
0.000666752 -2.62e-05 5.24987e-07
-2.62e-05 8.50043e-05 2.20392e-06
5.24987e-07 2.20392e-06 -1.3302e-05
0.000884602 -4.65207e-05 2.15785e-06
-4.65207e-05 0.000218108 -7.37102e-06
2.15785e-06 -7.37102e-06 9.07201e-05
0.000916876 -2.42171e-05 1.7082e-06
-2.42171e-05 0.000252033 -1.33163e-07
1.7082e-06 -1.33163e-07 0.000145014
0.000709579 9.08566e-05 2.16203e-06
9.08566e-05 0.000118939 1.92031e-06
2.16203e-06 1.92031e-06 3.2687e-05
0.00202848 -0.000245564 -2.53366e-07
-0.000245564 -4.01873e-05 2.10938e-06
-2.53366e-07 2.10938e-06 6.45534e-05
0.000654777 9.27114e-06 -1.57962e-06
9.27114e-06 0.000110035 1.75483e-07
-1.57962e-06 1.75483e-07 -1.18009e-05
0.000849593 -9.26706e-05 -2.70412e-06
-9.26706e-05 0.000204403 1.65415e-06
-2.70412e-06 1.65415e-06 8.14639e-05
0.00176881 -0.000414812 2.1792e-06
-0.000414812 -0.000142283 -1.69421e-06
2.1792e-06 -1.69421e-06 -0.000128863
0.00164891 -0.000589228 3.12705e-07
-0.000589228 3.5125e-06 7.57688e-08
3.12705e-07 7.57688e-08 -0.000183226
0.00098673 -0.000456165 -1.09195e-06
-0.000456165 2.14588e-05 -1.85565e-06
-1.09195e-06 -1.85565e-06 -0.000215107
0.00110205 -0.0001699 2.73375e-07
-0.0001699 0.000437213 -5.94431e-06
2.73375e-07 -5.94431e-06 0.000220716
0.00116413 -0.000292597 -1.82623e-06
-0.000292597 0.000635408 1.46218e-06
-1.82623e-06 1.46218e-06 0.000180379
0.0031341 -0.000371809 -3.50714e-05
-0.000371809 0.000521935 4.23051e-06
-3.50714e-05 4.23051e-06 0.000563011
0.00287342 -0.000598733 -3.73516e-05
-0.000598733 0.000586478 5.8094e-06
-3.73516e-05 5.8094e-06 0.000547157
0.00182585 -0.000655204 -1.32393e-05
-0.000655204 0.000189961 -5.29188e-07
-1.32393e-05 -5.29188e-07 -1.48702e-06
0.000570588 -0.000327404 -1.6017e-05
-0.000327404 -5.56491e-05 1.69437e-05
-1.6017e-05 1.69437e-05 -0.000272209
0.000658415 -0.000137601 1.48282e-06
-0.000137601 0.000117951 1.89245e-06
1.48282e-06 1.89245e-06 -3.07238e-05
0.000430448 -0.000115058 2.88208e-06
-0.000115058 2.45024e-05 -8.76188e-08
2.88208e-06 -8.76188e-08 -0.00014643
0.00106513 -0.000121604 -6.4125e-07
-0.000121604 0.000585064 -4.01811e-06
-6.4125e-07 -4.01811e-06 0.000203213
-0.00525286 -0.000121227 0.000284556
-0.000121227 -0.00383543 1.55143e-06
0.000284556 1.55143e-06 -0.00269206
0.0103445 -0.000157358 1.62942e-05
-0.000157358 0.00264633 3.13397e-07
1.62942e-05 3.13397e-07 0.00210441
0.00150604 0.000169417 6.3673e-06
0.000169417 0.000610807 -3.55337e-06
6.3673e-06 -3.55337e-06 0.000451799
0.000953286 0.000275338 2.93309e-06
0.000275338 0.0001637 -1.73438e-06
2.93309e-06 -1.73438e-06 -4.60632e-05
0.00185081 0.000353962 4.79884e-05
0.000353962 6.43064e-05 2.47729e-05
4.79884e-05 2.47729e-05 7.64686e-05
0.00244415 0.000619234 1.57235e-05
0.000619234 0.000482848 5.05959e-06
1.57235e-05 5.05959e-06 0.000275537
0.0022551 0.00050201 1.09115e-05
0.00050201 0.000749698 8.38628e-07
1.09115e-05 8.38628e-07 0.00044582
0.0114701 0.000626265 5.19543e-05
0.000626265 0.00290005 2.42497e-05
5.19543e-05 2.42497e-05 0.00180217
0.00772583 0.00110982 -0.000169625
0.00110982 0.000878872 -2.20742e-05
-0.000169625 -2.20742e-05 0.000583063
0.000841126 0.000470525 6.31178e-06
0.000470525 -0.000130202 -1.86108e-05
6.31178e-06 -1.86108e-05 -0.000523591
0.0104177 -0.0017624 -0.000136757
-0.0017624 0.00473073 1.47953e-05
-0.000136757 1.47953e-05 0.00387631
-0.0070698 -0.003122 -0.000840625
-0.003122 -0.00289157 -0.000635001
-0.000840625 -0.000635001 -0.00174868
0.000989791 0.000203722 -6.85167e-07
0.000203722 0.000312333 -1.38633e-06
-6.85167e-07 -1.38633e-06 0.000155295
-0.00243236 -0.000924421 0.000166915
-0.000924421 -0.00231185 2.41213e-05
0.000166915 2.41213e-05 -0.00268769
-0.0031852 -0.000671917 -0.000196808
-0.000671917 0.00184565 -9.81702e-05
-0.000196808 -9.81702e-05 -0.000793097
0.002841 0.000563577 -1.23391e-05
0.000563577 0.000605277 -1.1918e-06
-1.23391e-05 -1.1918e-06 0.000625375
0.000875414 0.000242521 -4.12499e-06
0.000242521 0.000135861 1.36557e-06
-4.12499e-06 1.36557e-06 -8.42545e-05
0.00124187 0.000506511 4.93377e-06
0.000506511 0.000193153 2.29942e-06
4.93377e-06 2.29942e-06 -0.000107416
0.00121037 0.000510672 2.00899e-05
0.000510672 2.47943e-05 1.67303e-05
2.00899e-05 1.67303e-05 -2.48756e-05
0.00982835 0.000769837 -7.11868e-05
0.000769837 0.00140255 -3.38886e-05
-7.11868e-05 -3.38886e-05 -0.000464877
0.00601687 0.0015873 -6.51336e-05
0.0015873 0.00136385 -3.00139e-05
-6.51336e-05 -3.00139e-05 0.000640689
0.0116492 -0.00208774 0.000169269
-0.00208774 0.00509179 -4.92771e-05
0.000169269 -4.92771e-05 0.00466452
0.00620619 -0.00177667 0.000167498
-0.00177667 -0.000835336 0.000368938
0.000167498 0.000368938 -0.000140588
0.00164795 0.000201636 -1.66325e-05
0.000201636 0.000700547 -9.26099e-06
-1.66325e-05 -9.26099e-06 0.000559489
-0.00683085 0.000432295 -9.60276e-05
0.000432295 0.00127464 -6.33391e-05
-9.60276e-05 -6.33391e-05 -0.00202853
0.00337011 0.000383163 -0.000195047
0.000383163 0.00209019 -0.000258271
-0.000195047 -0.000258271 -0.00113901
0.00180963 0.0004929 -1.96718e-05
0.0004929 0.000315399 7.15952e-06
-1.96718e-05 7.15952e-06 0.00031546
0.00149197 0.000448428 -5.23096e-05
0.000448428 0.000554655 -1.8652e-05
-5.23096e-05 -1.8652e-05 0.000303355
0.00230012 0.000443561 -6.10344e-05
0.000443561 0.00128291 -6.04518e-06
-6.10344e-05 -6.04518e-06 0.000842956
0.00146123 0.00105767 -4.32394e-05
0.00105767 -2.11526e-06 -1.73354e-05
-4.32394e-05 -1.73354e-05 -0.000240024
0.000537883 0.000993638 0.000177112
0.000993638 -0.000531948 0.000122223
0.000177112 0.000122223 -0.00335843
0.010724 -0.00246941 0.000122558
-0.00246941 0.00390166 0.000328778
0.000122558 0.000328778 0.00304508
0.00533798 -0.000999349 -5.91781e-05
-0.000999349 -0.00200253 -6.15016e-05
-5.91781e-05 -6.15016e-05 -0.000805103
0.000586291 0.000113088 3.31004e-06
0.000113088 8.17414e-05 8.01327e-07
3.31004e-06 8.01327e-07 -3.30171e-05
0.00123808 0.000153954 6.24304e-06
0.000153954 0.000454301 3.41354e-06
6.24304e-06 3.41354e-06 0.000340926
-6.06104e-05 5.69763e-05 2.6393e-06
5.69763e-05 -0.000234215 -8.47406e-06
2.6393e-06 -8.47406e-06 -0.000355469
0.000444036 4.67886e-05 1.41426e-06
4.67886e-05 -4.43608e-05 -4.80027e-07
1.41426e-06 -4.80027e-07 -0.000145817
0.000746218 5.19342e-05 -5.56387e-07
5.19342e-05 0.000153711 -1.17184e-06
-5.56387e-07 -1.17184e-06 2.08752e-05
0.000740309 -6.93321e-06 -7.36433e-07
-6.93321e-06 0.000125492 1.80158e-06
-7.36433e-07 1.80158e-06 2.61607e-06
0.00072011 2.74474e-06 3.33364e-06
2.74474e-06 0.000127218 1.30928e-06
3.33364e-06 1.30928e-06 5.00411e-06
0.000364184 4.51955e-05 1.08496e-07
4.51955e-05 -7.9916e-05 2.23006e-06
1.08496e-07 2.23006e-06 -0.000185454
0.000761967 4.61644e-05 -2.10892e-08
4.61644e-05 0.000163606 -8.29107e-07
-2.10892e-08 -8.29107e-07 2.92469e-05
0.000856807 5.09181e-05 1.61022e-07
5.09181e-05 0.000197743 5.24117e-08
1.61022e-07 5.24117e-08 8.80773e-05
0.000770953 -3.95441e-05 -6.42272e-07
-3.95441e-05 0.000146895 6.90749e-07
-6.42272e-07 6.90749e-07 1.80684e-05
-0.00013651 3.16458e-05 5.86326e-07
3.16458e-05 -0.000314685 6.1362e-07
5.86326e-07 6.1362e-07 -0.00043261
-0.000524 2.42866e-05 -9.83315e-07
2.42866e-05 -0.000370724 -2.15758e-06
-9.83315e-07 -2.15758e-06 -0.000557901
0.000925419 -3.30182e-06 -3.26773e-06
-3.30182e-06 0.000246236 -5.24355e-06
-3.26773e-06 -5.24355e-06 0.000126333
0.000936313 9.1115e-06 -4.41537e-07
9.1115e-06 0.000268035 2.13628e-08
-4.41537e-07 2.13628e-08 0.000114249
0.000795187 -5.76192e-05 -2.94839e-07
-5.76192e-05 0.000186965 -7.77548e-07
-2.94839e-07 -7.77548e-07 5.24012e-05
0.000864447 -4.34542e-05 1.83045e-07
-4.34542e-05 0.000200648 1.7031e-06
1.83045e-07 1.7031e-06 9.35513e-05
0.000826131 -5.39931e-05 2.79664e-07
-5.39931e-05 0.000194999 -6.62337e-07
2.79664e-07 -6.62337e-07 6.08353e-05
0.000757325 -5.09102e-06 -3.29766e-07
-5.09102e-06 0.000141509 -2.49657e-08
-3.29766e-07 -2.49657e-08 3.29202e-05
0.000355339 -5.14147e-05 5.8365e-07
-5.14147e-05 -8.97078e-05 1.62505e-06
5.8365e-07 1.62505e-06 -0.000186105
0.000603244 3.18679e-06 9.12772e-07
3.18679e-06 5.20104e-05 9.46038e-07
9.12772e-07 9.46038e-07 -5.35914e-05
0.000321447 -1.32419e-05 -3.07825e-06
-1.32419e-05 -8.92104e-05 -3.79787e-06
-3.07825e-06 -3.79787e-06 -0.000211816
0.000216227 -4.2303e-05 2.25643e-06
-4.2303e-05 -0.000169443 -1.35235e-06
2.25643e-06 -1.35235e-06 -0.000262316
0.000764734 -4.07596e-05 3.56021e-06
-4.07596e-05 0.000102904 -5.84627e-06
3.56021e-06 -5.84627e-06 5.61359e-06
4.82038e-06 -5.01289e-05 -9.75192e-08
-5.01289e-05 -0.000326133 1.48723e-06
-9.75192e-08 1.48723e-06 -0.000477258
0.000349579 2.70674e-06 -1.12609e-06
2.70674e-06 -9.72545e-05 -8.11589e-07
-1.12609e-06 -8.11589e-07 -0.000211031
0.000724004 -1.30522e-05 2.44248e-07
-1.30522e-05 0.000114069 2.01442e-07
2.44248e-07 2.01442e-07 4.10159e-06
0.000629618 -1.64162e-05 2.72938e-07
-1.64162e-05 6.14995e-05 8.51297e-07
2.72938e-07 8.51297e-07 -3.84863e-05
0.000715973 -3.39874e-05 -2.0546e-07
-3.39874e-05 0.000126369 -7.64924e-08
-2.0546e-07 -7.64924e-08 1.69701e-05
0.000559448 -5.59373e-07 -5.57484e-07
-5.59373e-07 1.68011e-05 1.11965e-06
-5.57484e-07 1.11965e-06 -6.84693e-05
0.000767793 -3.04997e-05 -5.03165e-08
-3.04997e-05 0.000156806 -1.98244e-07
-5.03165e-08 -1.98244e-07 4.50663e-05
0.000662727 -4.9314e-05 -5.08895e-07
-4.9314e-05 7.87423e-05 1.14511e-07
-5.08895e-07 1.14511e-07 -9.9655e-06
0.000552232 4.04342e-05 -7.4148e-07
4.04342e-05 -1.08172e-05 2.56839e-06
-7.4148e-07 2.56839e-06 -6.77778e-05
0.000530402 -7.31736e-05 1.81702e-06
-7.31736e-05 -4.68961e-06 -1.18207e-06
1.81702e-06 -1.18207e-06 -9.71312e-05
0.000588288 -6.2578e-06 -3.82727e-07
-6.2578e-06 1.11802e-05 3.53893e-09
-3.82727e-07 3.53893e-09 -4.3946e-05
0.00138711 2.01664e-05 -4.93897e-06
2.01664e-05 0.000468563 5.70802e-06
-4.93897e-06 5.70802e-06 0.000455093
0.000576377 -2.87333e-05 1.11973e-06
-2.87333e-05 1.14076e-05 -2.29224e-06
1.11973e-06 -2.29224e-06 -4.55989e-05
0.00094202 8.16911e-06 -2.85751e-06
8.16911e-06 0.000202777 7.35861e-07
-2.85751e-06 7.35861e-07 0.000187912
0.000759605 1.46523e-05 1.62739e-08
1.46523e-05 8.9289e-05 2.03222e-06
1.62739e-08 2.03222e-06 9.63815e-05
0.00053178 -3.50755e-07 8.5168e-07
-3.50755e-07 -4.2419e-05 -3.88078e-06
8.5168e-07 -3.88078e-06 -5.92233e-05
0.00240227 1.38288e-05 4.51362e-06
1.38288e-05 0.00107728 5.97999e-08
4.51362e-06 5.97999e-08 0.00109222
0.00239505 1.93204e-06 -5.46734e-07
1.93204e-06 0.0010728 -5.27524e-06
-5.46734e-07 -5.27524e-06 0.00108787
0.000990565 7.20342e-05 -9.50235e-07
7.20342e-05 0.000284196 -5.47919e-07
-9.50235e-07 -5.47919e-07 0.000201101
0.000587344 3.93088e-05 -1.22174e-06
3.93088e-05 1.47379e-05 -2.02169e-06
-1.22174e-06 -2.02169e-06 -2.80569e-05
0.000627294 -1.02546e-05 5.80347e-07
-1.02546e-05 7.14798e-05 8.72747e-07
5.80347e-07 8.72747e-07 -1.24831e-05
0.000581801 3.43278e-06 3.63903e-07
3.43278e-06 -2.14814e-05 -3.26939e-06
3.63903e-07 -3.26939e-06 -2.84999e-05
0.000579888 -1.40465e-05 1.77055e-07
-1.40465e-05 7.15363e-06 -2.30518e-08
1.77055e-07 -2.30518e-08 -3.2883e-05
0.000605659 -3.61848e-05 -1.51973e-06
-3.61848e-05 2.0195e-05 1.21182e-06
-1.51973e-06 1.21182e-06 -2.04577e-05
0.000564009 7.82136e-06 -2.4342e-07
7.82136e-06 -3.19789e-05 -1.9758e-08
-2.4342e-07 -1.9758e-08 -3.89426e-05
0.0020039 1.52152e-05 2.54467e-06
1.52152e-05 0.000837682 -4.60657e-06
2.54467e-06 -4.60657e-06 0.00085651
0.0011357 2.11043e-05 -6.94946e-07
2.11043e-05 0.000312328 1.7817e-06
-6.94946e-07 1.7817e-06 0.000308098
0.00138704 2.39054e-05 6.16226e-07
2.39054e-05 0.000468218 4.73445e-10
6.16226e-07 4.73445e-10 0.000482801
0.000857847 2.84424e-05 -1.23814e-05
2.84424e-05 0.000154405 7.0158e-06
-1.23814e-05 7.0158e-06 0.000163795
-0.00871251 0.000511902 0.00023972
0.000511902 -0.0037548 9.49651e-07
0.00023972 9.49651e-07 -0.00489039
-0.00218463 -7.9218e-06 0.000335056
-7.9218e-06 0.00254783 -2.47602e-05
0.000335056 -2.47602e-05 0.000627693
0.00449423 0.000241644 -0.000226206
0.000241644 6.74643e-05 -1.87526e-05
-0.000226206 -1.87526e-05 0.000623193
0.000469637 4.60141e-05 2.6988e-05
4.60141e-05 -0.00106844 -1.62317e-05
2.6988e-05 -1.62317e-05 -0.000978981
0.00149215 -3.19306e-05 1.80473e-05
-3.19306e-05 -0.00020925 2.55514e-07
1.80473e-05 2.55514e-07 -0.000222191
-0.00010458 5.20456e-05 -2.24678e-05
5.20456e-05 -0.000862344 -8.84267e-06
-2.24678e-05 -8.84267e-06 -0.000718324
0.00271578 -0.00014043 -3.08313e-06
-0.00014043 0.000268019 4.44079e-06
-3.08313e-06 4.44079e-06 0.000236012
0.00960125 0.000106824 6.43176e-05
0.000106824 0.00118176 -3.52769e-05
6.43176e-05 -3.52769e-05 0.000133007
-0.00297401 0.00135211 -1.90267e-05
0.00135211 -0.000658461 -1.99668e-05
-1.90267e-05 -1.99668e-05 -0.00218368
-0.000200102 0.00263469 -0.000170713
0.00263469 0.00112895 9.29529e-05
-0.000170713 9.29529e-05 0.00183291
0.00193279 -0.000292147 6.81582e-05
-0.000292147 -0.000781383 -7.34068e-06
6.81582e-05 -7.34068e-06 -0.000729669
0.0130288 -0.000581415 0.000117296
-0.000581415 0.00322473 -3.12837e-05
0.000117296 -3.12837e-05 0.00168228
0.00458487 0.00254833 0.000167687
0.00254833 0.000635706 -0.000309105
0.000167687 -0.000309105 0.00080546
0.00819901 0.00184822 -0.000242768
0.00184822 0.00148439 0.000148925
-0.000242768 0.000148925 0.00123298
0.000723882 9.58859e-05 -2.43456e-06
9.58859e-05 0.000156575 1.63152e-06
-2.43456e-06 1.63152e-06 2.44012e-05
0.000475402 1.78478e-05 -1.2926e-07
1.78478e-05 -1.86878e-05 -7.58456e-07
-1.2926e-07 -7.58456e-07 -0.000110996
0.000662001 -8.98455e-05 -9.1704e-07
-8.98455e-05 9.36936e-05 8.99217e-07
-9.1704e-07 8.99217e-07 9.93583e-06
0.000553529 -7.84142e-06 1.06662e-06
-7.84142e-06 3.29029e-05 -5.57322e-07
1.06662e-06 -5.57322e-07 -6.69216e-05
0.000616627 5.71832e-05 1.00268e-06
5.71832e-05 9.14765e-05 1.37106e-06
1.00268e-06 1.37106e-06 -2.22871e-05
0.000772305 5.2974e-05 1.45818e-07
5.2974e-05 0.000186447 3.26314e-06
1.45818e-07 3.26314e-06 5.21676e-05
0.000747084 8.90517e-05 1.46982e-06
8.90517e-05 0.000153484 1.98196e-06
1.46982e-06 1.98196e-06 3.56846e-05
0.000603648 2.29185e-05 3.43199e-06
2.29185e-05 5.37378e-05 5.22515e-07
3.43199e-06 5.22515e-07 -6.35572e-05
0.00071408 -2.73687e-05 1.4866e-06
-2.73687e-05 0.000140857 -9.5222e-07
1.4866e-06 -9.5222e-07 2.75721e-05
0.00052023 -8.96674e-06 -1.25765e-07
-8.96674e-06 3.14942e-06 -5.3815e-07
-1.25765e-07 -5.3815e-07 -9.00401e-05
0.00167919 -0.000228225 2.14991e-05
-0.000228225 -0.000163521 1.3648e-07
2.14991e-05 1.3648e-07 -7.90957e-05
0.00132346 -0.000395275 2.77932e-05
-0.000395275 -0.000376269 -4.2611e-06
2.77932e-05 -4.2611e-06 -0.000363446
0.000164928 -0.000456938 1.61682e-05
-0.000456938 -0.000786897 3.32319e-06
1.61682e-05 3.32319e-06 -0.000930984
9.78965e-05 -0.0003793 8.26862e-06
-0.0003793 -0.000449134 -1.72044e-06
8.26862e-06 -1.72044e-06 -0.000686831
0.00265842 -0.00035628 4.754e-06
-0.00035628 0.00142666 5.90148e-06
4.754e-06 5.90148e-06 0.00102268
0.000885711 -0.000209886 4.12077e-06
-0.000209886 0.000315397 -2.06034e-06
4.12077e-06 -2.06034e-06 6.85726e-05
0.00103766 -0.000104973 1.48124e-07
-0.000104973 0.000302885 -4.3967e-07
1.48124e-07 -4.3967e-07 0.000191722
0.000716458 6.01359e-06 -1.62816e-06
6.01359e-06 0.000146204 1.714e-06
-1.62816e-06 1.714e-06 2.68446e-05
0.0021351 -0.000307858 6.99705e-06
-0.000307858 4.45458e-05 -3.79385e-06
6.99705e-06 -3.79385e-06 0.000105181
0.000668652 -6.76614e-05 -2.08595e-07
-6.76614e-05 0.000129068 -2.36204e-07
-2.08595e-07 -2.36204e-07 -2.43112e-05
0.000256951 -9.67159e-05 8.26512e-07
-9.67159e-05 -7.20708e-05 -2.03882e-06
8.26512e-07 -2.03882e-06 -0.000245407
0.0020583 -0.000544675 7.19815e-06
-0.000544675 0.000161403 -1.07061e-06
7.19815e-06 -1.07061e-06 0.000122528
0.00150446 -0.000636084 5.73339e-07
-0.000636084 -1.47791e-05 3.44025e-06
5.73339e-07 3.44025e-06 -0.00018455
0.000382326 -0.000360897 9.18331e-06
-0.000360897 -0.000151588 -4.78242e-06
9.18331e-06 -4.78242e-06 -0.00039049
0.00146771 -0.000186396 -1.00309e-06
-0.000186396 0.000786084 -4.87515e-06
-1.00309e-06 -4.87515e-06 0.000426792
0.00237711 -0.000495859 -3.59955e-05
-0.000495859 0.000569103 5.48276e-06
-3.59955e-05 5.48276e-06 0.000281547
0.00165525 -0.000507215 -4.46952e-05
-0.000507215 0.00021744 6.13082e-06
-4.46952e-05 6.13082e-06 0.000126048
0.000594593 -0.00028088 -3.48898e-05
-0.00028088 0.000145458 3.78343e-05
-3.48898e-05 3.78343e-05 -0.0001365
-0.000715565 -3.67585e-05 -3.0373e-07
-3.67585e-05 -0.000673268 3.00709e-06
-3.0373e-07 3.00709e-06 -0.000830535
0.000223416 -0.000114167 2.90853e-06
-0.000114167 -9.48312e-05 2.31154e-06
2.90853e-06 2.31154e-06 -0.000275335
0.000767138 -9.72411e-05 4.40549e-06
-9.72411e-05 0.00030728 3.72834e-08
4.40549e-06 3.72834e-08 4.36991e-05
-0.000192824 0.000374352 -0.000187283
0.000374352 0.00436105 6.52456e-06
-0.000187283 6.52456e-06 0.00218058
0.00154805 -0.000531293 1.44088e-05
-0.000531293 0.00141162 2.58882e-05
1.44088e-05 2.58882e-05 0.00138623
0.00123324 0.000812744 -6.33181e-05
0.000812744 -0.0033453 3.07569e-06
-6.33181e-05 3.07569e-06 -0.00374812
0.000553585 0.00016772 5.96465e-06
0.00016772 6.75633e-05 2.29229e-06
5.96465e-06 2.29229e-06 -8.44118e-05
0.00108513 0.000313359 7.49128e-06
0.000313359 0.000282216 1.16556e-05
7.49128e-06 1.16556e-05 3.96603e-05
0.00304824 0.000493008 3.28936e-05
0.000493008 0.00074471 1.14097e-05
3.28936e-05 1.14097e-05 0.000753993
0.00212525 0.000563518 1.86583e-05
0.000563518 0.000676028 1.39889e-05
1.86583e-05 1.39889e-05 0.000370253
0.00780168 -0.00105671 8.38858e-05
-0.00105671 0.00278673 4.29093e-05
8.38858e-05 4.29093e-05 0.00297695
0.00309698 0.000195407 -0.000178306
0.000195407 -0.00215278 -8.71497e-06
-0.000178306 -8.71497e-06 -0.0039755
0.00294121 0.00143034 -5.88563e-05
0.00143034 -0.000395923 -9.72978e-06
-5.88563e-05 -9.72978e-06 -0.00100482
0.000741948 0.000345849 2.78475e-05
0.000345849 -8.82014e-07 -2.48379e-05
2.78475e-05 -2.48379e-05 -1.84949e-06
-0.00320846 -0.00123538 -0.000148136
-0.00123538 -0.000655145 -0.000166368
-0.000148136 -0.000166368 -0.0013782
-0.000932978 -0.00109923 -0.00014388
-0.00109923 0.00190166 -2.84967e-05
-0.00014388 -2.84967e-05 -0.000782364
0.0108952 -0.00226141 0.000266849
-0.00226141 0.00166154 0.000192563
0.000266849 0.000192563 0.0024392
0.000631405 0.000142817 7.88406e-06
0.000142817 0.000129487 -2.57042e-06
7.88406e-06 -2.57042e-06 -1.65937e-05
-0.0024931 0.000141024 -9.94049e-05
0.000141024 0.0025299 -2.61196e-05
-9.94049e-05 -2.61196e-05 -0.00024802
0.00383995 0.000444669 -2.27104e-05
0.000444669 0.00205571 -9.18561e-05
-2.27104e-05 -9.18561e-05 -0.00128848
0.00131372 0.00045766 -3.74716e-06
0.00045766 0.000103839 4.93786e-06
-3.74716e-06 4.93786e-06 6.65269e-05
0.000568712 0.000315716 4.30176e-06
0.000315716 9.74605e-05 2.485e-06
4.30176e-06 2.485e-06 -0.000157127
-0.000487725 0.000337469 1.1255e-05
0.000337469 -0.00027366 -4.15813e-05
1.1255e-05 -4.15813e-05 -0.00059427
0.00506134 0.00165861 -7.41928e-06
0.00165861 0.00176379 7.73481e-06
-7.41928e-06 7.73481e-06 0.00120094
0.0128072 0.00117748 6.61239e-05
0.00117748 0.00431919 2.36192e-05
6.61239e-05 2.36192e-05 0.00225425
0.004816 -0.00160721 3.20364e-05
-0.00160721 9.7354e-05 -5.14021e-05
3.20364e-05 -5.14021e-05 -0.000866672
0.0102977 -0.00138292 3.1383e-06
-0.00138292 0.00136281 -4.03562e-05
3.1383e-06 -4.03562e-05 0.00259413
0.000576246 0.000208683 -8.29941e-06
0.000208683 0.00014847 -1.20547e-05
-8.29941e-06 -1.20547e-05 6.75201e-06
0.00296395 0.000115133 -0.000142118
0.000115133 0.00121227 -2.93324e-05
-0.000142118 -2.93324e-05 -0.000879783
7.75498e-05 0.000140367 -3.46066e-05
0.000140367 1.71799e-05 -0.000104817
-3.46066e-05 -0.000104817 -0.00153034
-0.000909425 9.95079e-05 -9.97412e-06
9.95079e-05 -0.000412528 -1.78503e-05
-9.97412e-06 -1.78503e-05 -0.000582444
0.00122679 0.000376628 -5.02022e-05
0.000376628 0.000976131 3.97644e-05
-5.02022e-05 3.97644e-05 0.000251459
0.0101249 0.00163673 4.72282e-05
0.00163673 0.00393978 9.50592e-07
4.72282e-05 9.50592e-07 0.000733265
-0.0067135 -0.0023372 -3.8849e-05
-0.0023372 -0.00335824 0.000145286
-3.8849e-05 0.000145286 -0.00580916
0.0083373 0.000491446 2.69073e-05
0.000491446 -0.0010768 -0.000202402
2.69073e-05 -0.000202402 0.00108143
0.000953116 0.000121123 1.84459e-06
0.000121123 0.000267827 7.92534e-06
1.84459e-06 7.92534e-06 0.000163688
0.00102149 0.000145897 -6.07423e-06
0.000145897 0.000402835 -1.20081e-06
-6.07423e-06 -1.20081e-06 0.000273722
0.000335251 8.88293e-05 -1.65221e-06
8.88293e-05 0.000170537 -6.75924e-06
-1.65221e-06 -6.75924e-06 -3.51944e-05
0.000746171 7.97308e-05 -2.58921e-06
7.97308e-05 0.000143319 -1.51106e-06
-2.58921e-06 -1.51106e-06 1.6988e-05
0.000836475 -2.92601e-05 -1.15526e-06
-2.92601e-05 0.000196959 1.61351e-06
-1.15526e-06 1.61351e-06 6.06571e-05
0.000419138 3.50813e-05 1.41857e-06
3.50813e-05 -6.54065e-05 2.25393e-06
1.41857e-06 2.25393e-06 -0.000175955
-0.000197131 2.64752e-05 1.74065e-06
2.64752e-05 -0.000332456 4.42507e-06
1.74065e-06 4.42507e-06 -0.000452298
0.000801876 -7.19943e-06 1.1232e-06
-7.19943e-06 0.000169074 1.49061e-07
1.1232e-06 1.49061e-07 3.01922e-05
0.000820427 2.56538e-05 2.03725e-07
2.56538e-05 0.000189076 -1.08682e-06
2.03725e-07 -1.08682e-06 6.69014e-05
0.000265767 -5.3519e-06 1.5706e-06
-5.3519e-06 9.37926e-05 2.10432e-06
1.5706e-06 2.10432e-06 -9.82727e-05
-0.000937514 1.15537e-05 -1.72378e-06
1.15537e-05 -0.000369848 1.52928e-06
-1.72378e-06 1.52928e-06 -0.000657231
0.000907376 1.13011e-06 -2.48791e-06
1.13011e-06 0.000406365 -6.85749e-06
-2.48791e-06 -6.85749e-06 0.000241627
0.00087738 3.55426e-05 -1.81229e-06
3.55426e-05 0.000221911 -3.18252e-06
-1.81229e-06 -3.18252e-06 8.33933e-05
0.000888756 -0.000115038 1.56105e-06
-0.000115038 0.000219982 8.57561e-07
1.56105e-06 8.57561e-07 9.25167e-05
0.000736205 -5.07795e-06 -3.08108e-07
-5.07795e-06 0.000123415 -1.22435e-07
-3.08108e-07 -1.22435e-07 1.71206e-05
0.000576246 -6.09139e-05 -1.11033e-06
-6.09139e-05 4.82665e-05 4.10899e-06
-1.11033e-06 4.10899e-06 -4.61745e-05
0.000432891 -3.14851e-05 2.06942e-06
-3.14851e-05 -3.60017e-05 1.58564e-06
2.06942e-06 1.58564e-06 -0.000150263
0.000701395 -1.8243e-06 2.89923e-07
-1.8243e-06 0.00011012 -9.93707e-08
2.89923e-07 -9.93707e-08 2.6713e-06
0.000568484 -3.35368e-05 -6.37216e-07
-3.35368e-05 3.64375e-05 -2.36157e-07
-6.37216e-07 -2.36157e-07 -5.47355e-05
0.00102415 -3.3303e-05 -1.09441e-06
-3.3303e-05 0.000278143 -3.08978e-06
-1.09441e-06 -3.08978e-06 0.000181244
-4.82552e-06 -4.03401e-05 4.18551e-06
-4.03401e-05 -0.000225424 -4.86405e-06
4.18551e-06 -4.86405e-06 -0.000310663
0.000358291 -0.000110616 5.71266e-07
-0.000110616 -0.000195049 -3.03648e-07
5.71266e-07 -3.03648e-07 -0.000291998
0.000770173 -7.15848e-05 -3.02173e-06
-7.15848e-05 0.000112993 -4.0766e-07
-3.02173e-06 -4.0766e-07 1.05108e-05
0.00049549 -0.000108347 5.00085e-06
-0.000108347 -4.55699e-05 3.56576e-06
5.00085e-06 3.56576e-06 -0.00018949
0.00120765 -0.00025761 -2.22281e-06
-0.00025761 0.00032753 8.41897e-06
-2.22281e-06 8.41897e-06 9.78793e-05
0.00137702 -0.000133288 9.85634e-07
-0.000133288 0.000518689 -1.00441e-06
9.85634e-07 -1.00441e-06 0.000376075
0.00027953 -8.33121e-05 -2.17905e-06
-8.33121e-05 -0.000147051 -5.02174e-06
-2.17905e-06 -5.02174e-06 -0.000300182
0.000667017 -1.65579e-05 -2.07986e-07
-1.65579e-05 7.98784e-05 1.31752e-07
-2.07986e-07 1.31752e-07 -3.25009e-05
0.000352057 -5.58292e-06 -2.84826e-08
-5.58292e-06 -9.13579e-05 1.67888e-08
-2.84826e-08 1.67888e-08 -0.000200276
0.000860738 -2.70679e-05 -7.03387e-07
-2.70679e-05 0.000193226 8.12266e-07
-7.03387e-07 8.12266e-07 8.08094e-05
0.000729068 -4.4367e-05 -5.50285e-07
-4.4367e-05 0.000131255 6.69891e-07
-5.50285e-07 6.69891e-07 2.0724e-05
0.000596023 -2.48088e-05 -5.23655e-07
-2.48088e-05 3.31642e-05 1.18944e-06
-5.23655e-07 1.18944e-06 -5.1388e-05
0.000849998 -6.43995e-05 -4.39497e-07
-6.43995e-05 0.00021918 -1.04841e-06
-4.39497e-07 -1.04841e-06 9.77424e-05
0.000671449 -5.69958e-05 -6.20307e-07
-5.69958e-05 8.44419e-05 -4.28807e-08
-6.20307e-07 -4.28807e-08 -3.57464e-06
0.000576167 2.85023e-05 -2.02923e-06
2.85023e-05 2.18986e-06 2.04864e-06
-2.02923e-06 2.04864e-06 -5.50817e-05
0.000705568 -8.86539e-05 1.94598e-06
-8.86539e-05 0.000107289 -1.40082e-06
1.94598e-06 -1.40082e-06 1.55708e-05
0.000634761 -1.68874e-05 -2.62082e-07
-1.68874e-05 3.42544e-05 4.93417e-08
-2.62082e-07 4.93417e-08 -2.05486e-05
0.00137874 3.04191e-05 -7.70642e-06
3.04191e-05 0.000462968 5.72103e-06
-7.70642e-06 5.72103e-06 0.00044895
0.000604066 -3.56406e-05 2.0842e-06
-3.56406e-05 2.33519e-05 -2.35585e-06
2.0842e-06 -2.35585e-06 -3.3621e-05
0.000948311 1.7325e-05 -3.81283e-06
1.7325e-05 0.00020487 7.16802e-07
-3.81283e-06 7.16802e-07 0.000189511
0.000772479 2.34867e-05 -2.24325e-07
2.34867e-05 9.92771e-05 2.19065e-06
-2.24325e-07 2.19065e-06 0.000104958
0.000532179 5.30762e-06 5.22643e-07
5.30762e-06 -4.43886e-05 -3.989e-06
5.22643e-07 -3.989e-06 -6.1137e-05
0.00156998 2.33692e-05 5.99588e-06
2.33692e-05 0.000577439 -1.50106e-06
5.99588e-06 -1.50106e-06 0.000588254
0.00238224 1.6259e-05 4.50043e-06
1.6259e-05 0.00106532 -5.18313e-06
4.50043e-06 -5.18313e-06 0.00108029
0.000681961 1.38588e-05 1.49584e-06
1.38588e-05 8.97745e-05 -1.24728e-06
1.49584e-06 -1.24728e-06 3.10019e-06
0.000636855 3.53394e-05 -7.10496e-07
3.53394e-05 4.14114e-05 -1.85998e-06
-7.10496e-07 -1.85998e-06 -3.3405e-06
0.000684675 -3.47491e-06 1.21439e-06
-3.47491e-06 9.88167e-05 3.65631e-07
1.21439e-06 3.65631e-07 1.62758e-05
0.000568505 -1.91394e-06 5.18355e-07
-1.91394e-06 -2.84281e-05 -3.48331e-06
5.18355e-07 -3.48331e-06 -3.63622e-05
0.000581103 2.80389e-05 8.62107e-08
2.80389e-05 8.93137e-06 -3.24977e-08
8.62107e-08 -3.24977e-08 -3.26275e-05
0.00064555 -9.39561e-05 -3.52795e-06
-9.39561e-05 7.6383e-05 1.35521e-06
-3.52795e-06 1.35521e-06 -3.27572e-06
0.00202009 2.38266e-06 -2.25694e-06
2.38266e-06 0.000846005 -4.73253e-06
-2.25694e-06 -4.73253e-06 0.000865148
0.000562825 2.9054e-06 -1.81672e-07
2.9054e-06 -3.23617e-05 -2.7565e-09
-1.81672e-07 -2.7565e-09 -3.93764e-05
0.000581937 -2.01686e-05 -1.61772e-06
-2.01686e-05 6.75677e-06 1.59698e-06
-1.61772e-06 1.59698e-06 -3.23312e-05
0.00054566 7.459e-06 -6.55785e-07
7.459e-06 -4.2998e-05 3.1263e-06
-6.55785e-07 3.1263e-06 -4.99157e-05
0.0020289 1.67237e-05 -4.0471e-06
1.67237e-05 0.000852883 -5.23766e-08
-4.0471e-06 -5.23766e-08 0.000871555
0.00201184 2.90173e-05 -9.13037e-06
2.90173e-05 0.000844872 4.32768e-06
-9.13037e-06 4.32768e-06 0.000862915
-0.00491511 -0.00052433 -6.21874e-05
-0.00052433 0.00203918 2.37396e-05
-6.21874e-05 2.37396e-05 -0.000541596
-0.000299319 0.000594129 -0.00010408
0.000594129 -0.000304429 2.43247e-05
-0.00010408 2.43247e-05 -0.00101335
0.00338257 -0.000476571 -0.000310043
-0.000476571 0.00116351 0.000184238
-0.000310043 0.000184238 -0.00184539
-0.00310349 7.09524e-05 0.000450845
7.09524e-05 0.00259761 -0.000187803
0.000450845 -0.000187803 0.000638112
0.000370973 0.000299661 -1.70417e-05
0.000299661 -0.00128914 1.6262e-06
-1.70417e-05 1.6262e-06 -0.00116669
0.00250627 -0.000196358 0.000101076
-0.000196358 6.44115e-05 -8.39361e-06
0.000101076 -8.39361e-06 6.57305e-05
0.00106209 -0.000395582 9.95209e-06
-0.000395582 -0.0024352 -7.36e-05
9.95209e-06 -7.36e-05 -0.0040514
0.0117245 0.00132489 -0.000184877
0.00132489 0.00562281 -1.09128e-05
-0.000184877 -1.09128e-05 0.00471701
-0.00717923 0.00297752 -0.000789515
0.00297752 -0.00290504 0.000611757
-0.000789515 0.000611757 -0.0017009
0.00293786 -0.000163304 -1.35786e-06
-0.000163304 -0.000276395 -4.12439e-06
-1.35786e-06 -4.12439e-06 -0.000287152
0.00547707 -0.000635535 6.44784e-05
-0.000635535 -0.000302615 -6.37645e-05
6.44784e-05 -6.37645e-05 -0.00250836
0.0123595 0.00238966 -0.000109611
0.00238966 0.00371702 -9.03606e-05
-0.000109611 -9.03606e-05 0.003936
0.00505575 0.00184163 -7.83328e-05
0.00184163 -0.000701626 0.000203726
-7.83328e-05 0.000203726 -0.000918361
0.00271196 -0.00079319 -7.64662e-05
-0.00079319 -0.00099005 2.07017e-05
-7.64662e-05 2.07017e-05 -0.000800146
0.00306149 -0.00120939 0.000217916
-0.00120939 9.91299e-06 -0.000144841
0.000217916 -0.000144841 -0.00343795
-0.0034882 0.00144923 -7.48362e-05
0.00144923 -0.00361804 -0.000382489
-7.48362e-05 -0.000382489 -0.00416106
0.00470023 0.000962158 -0.000100514
0.000962158 -0.00297439 5.60305e-06
-0.000100514 5.60305e-06 -0.00171116
0.00113686 -4.12291e-05 8.16953e-07
-4.12291e-05 0.000421639 5.38332e-06
8.16953e-07 5.38332e-06 0.000261106
0.000658638 8.23774e-05 -1.72399e-06
8.23774e-05 0.000108784 -1.40457e-06
-1.72399e-06 -1.40457e-06 -1.47571e-05
0.000622323 7.0533e-05 1.92004e-07
7.0533e-05 6.40266e-05 -1.4994e-06
1.92004e-07 -1.4994e-06 -2.40898e-05
0.000656713 6.20393e-05 3.9566e-06
6.20393e-05 0.000118742 6.79972e-07
3.9566e-06 6.79972e-07 5.83944e-06
0.000627535 5.39117e-05 1.71576e-06
5.39117e-05 8.75293e-05 2.06864e-06
1.71576e-06 2.06864e-06 -6.43458e-05
0.000704469 5.9973e-05 -2.33369e-07
5.9973e-05 0.000143129 1.50969e-06
-2.33369e-07 1.50969e-06 1.45169e-05
0.000578163 3.27365e-05 7.07825e-07
3.27365e-05 5.47459e-05 -4.21376e-07
7.07825e-07 -4.21376e-07 -6.06146e-05
0.000877685 0.000133557 1.63106e-06
0.000133557 0.000241233 2.36163e-06
1.63106e-06 2.36163e-06 0.000100174
0.000841725 8.58747e-05 -1.12399e-07
8.58747e-05 0.000220952 3.45008e-07
-1.12399e-07 3.45008e-07 8.73619e-05
0.000498083 -1.1957e-05 -3.38795e-06
-1.1957e-05 9.31586e-06 -2.15236e-06
-3.38795e-06 -2.15236e-06 -0.000104012
0.000662796 -0.000232833 4.47299e-05
-0.000232833 -0.000720321 -1.74897e-05
4.47299e-05 -1.74897e-05 -0.000639121
0.00100164 -0.000488585 3.66425e-05
-0.000488585 -0.000398695 -4.71979e-06
3.66425e-05 -4.71979e-06 -0.000440521
0.00177209 -0.000666506 1.71711e-05
-0.000666506 0.000110676 4.9281e-06
1.71711e-05 4.9281e-06 -5.67442e-05
0.00022635 -0.000401161 1.01482e-05
-0.000401161 -0.000236598 -1.57498e-05
1.01482e-05 -1.57498e-05 -0.000512406
0.00210767 -0.000227492 -2.50516e-06
-0.000227492 0.00109018 1.56438e-05
-2.50516e-06 1.56438e-05 0.000774519
0.000597054 -0.000101283 -1.1498e-06
-0.000101283 0.000131815 1.48365e-06
-1.1498e-06 1.48365e-06 -4.79483e-05
0.000449758 7.9686e-05 -3.6024e-07
7.9686e-05 4.48282e-06 -4.33793e-06
-3.6024e-07 -4.33793e-06 -0.000151576
0.00065071 -6.58311e-05 -6.4241e-07
-6.58311e-05 0.000135407 3.68849e-06
-6.4241e-07 3.68849e-06 -4.11974e-05
0.00125107 -0.000377997 2.86138e-07
-0.000377997 -0.000107823 -1.63893e-06
2.86138e-07 -1.63893e-06 -0.00026286
0.000677776 -3.00626e-05 6.25425e-08
-3.00626e-05 0.000155482 1.70407e-06
6.25425e-08 1.70407e-06 -2.29748e-05
0.00152594 -0.000161805 -2.33605e-07
-0.000161805 0.00074742 -8.19286e-07
-2.33605e-07 -8.19286e-07 0.000476738
0.00166481 -0.000516553 1.48167e-06
-0.000516553 0.000182918 3.01673e-06
1.48167e-06 3.01673e-06 0.000108958
0.000879811 -0.000352918 -1.47558e-05
-0.000352918 0.000264682 4.74522e-06
-1.47558e-05 4.74522e-06 -1.79659e-05
0.00108744 -0.0006469 -4.78303e-06
-0.0006469 -0.000229284 -2.57152e-05
-4.78303e-06 -2.57152e-05 -0.00024147
0.00139702 -0.000298986 -1.74445e-05
-0.000298986 0.000554659 1.40183e-05
-1.74445e-05 1.40183e-05 0.000428153
-0.000648756 -4.99543e-05 9.5306e-07
-4.99543e-05 -0.000417326 1.83384e-05
9.5306e-07 1.83384e-05 -0.000734038
0.000716651 1.24277e-05 -7.80716e-07
1.24277e-05 0.000146437 -3.77104e-06
-7.80716e-07 -3.77104e-06 -1.22934e-05
0.00071076 4.09828e-05 3.28668e-06
4.09828e-05 0.000260474 1.13137e-06
3.28668e-06 1.13137e-06 2.66501e-05
0.0017684 -4.79077e-05 -2.1439e-05
-4.79077e-05 0.00134411 -7.96901e-06
-2.1439e-05 -7.96901e-06 -0.000694557
-0.00315113 0.000140243 -0.000151261
0.000140243 0.00345955 -5.91285e-06
-0.000151261 -5.91285e-06 0.000812294
-0.0103813 -0.000783253 -0.000336149
-0.000783253 -0.00545064 8.56185e-07
-0.000336149 8.56185e-07 -0.00521326
-0.000304459 0.000101848 6.33468e-06
0.000101848 -0.000387674 -1.70773e-06
6.33468e-06 -1.70773e-06 -0.000546262
-0.000532058 0.000199125 1.15597e-06
0.000199125 -0.000469598 5.39455e-06
1.15597e-06 5.39455e-06 -0.000728847
0.00152647 0.000459404 2.44502e-05
0.000459404 0.000209193 8.53166e-06
2.44502e-05 8.53166e-06 0.000181618
-0.0041795 0.000633761 -1.53565e-05
0.000633761 0.00203192 2.21703e-05
-1.53565e-05 2.21703e-05 -0.000777029
0.00151439 0.0010364 -0.000105274
0.0010364 -9.30542e-05 -0.000109246
-0.000105274 -0.000109246 -0.00362117
0.00286732 0.00122203 0.000197267
0.00122203 0.000545124 5.06427e-05
0.000197267 5.06427e-05 0.000162882
0.000149831 0.000380676 9.02512e-06
0.000380676 -9.1012e-05 -3.10341e-05
9.02512e-06 -3.10341e-05 -0.000164386
0.0138968 -0.00173321 -1.96291e-05
-0.00173321 0.00402694 -0.00014175
-1.96291e-05 -0.00014175 0.00345476
0.00422145 0.000488247 0.000177041
0.000488247 0.00206996 7.97295e-05
0.000177041 7.97295e-05 -0.00143034
0.0104316 -0.00121987 6.7982e-05
-0.00121987 0.00159379 1.98358e-05
6.7982e-05 1.98358e-05 0.00287431
0.000779497 0.000221371 2.07307e-06
0.000221371 0.000321009 -2.26409e-06
2.07307e-06 -2.26409e-06 0.000170269
0.00364397 0.000137575 1.09755e-05
0.000137575 0.00174913 2.97909e-06
1.09755e-05 2.97909e-06 7.00006e-05
0.000671035 0.000159924 2.04723e-05
0.000159924 7.90663e-05 1.03033e-05
2.04723e-05 1.03033e-05 -0.00151079
-0.000368733 0.000234082 -5.84574e-06
0.000234082 -0.000195783 -1.74581e-06
-5.84574e-06 -1.74581e-06 -0.000410683
0.00196965 0.000664629 -8.26926e-05
0.000664629 0.00108179 -4.02067e-05
-8.26926e-05 -4.02067e-05 0.000163333
0.00279681 0.00195144 9.32812e-05
0.00195144 0.00102501 6.33014e-05
9.32812e-05 6.33014e-05 -0.00235873
0.00637898 0.000184543 -1.17226e-05
0.000184543 -0.0026849 -0.000130605
-1.17226e-05 -0.000130605 -0.000205034
0.0024845 -0.00143548 -4.03196e-05
-0.00143548 0.00080276 -5.71794e-05
-4.03196e-05 -5.71794e-05 -0.00126567
0.000973305 0.000180868 -5.26585e-06
0.000180868 0.00063201 -1.26929e-05
-5.26585e-06 -1.26929e-05 0.000455911
2.23364e-05 -4.50569e-05 -2.19335e-06
-4.50569e-05 -2.39592e-05 -5.85329e-06
-2.19335e-06 -5.85329e-06 3.08187e-05
0.00289533 2.51942e-05 3.65461e-05
2.51942e-05 0.00017618 -9.71769e-05
3.65461e-05 -9.71769e-05 -0.000926597
0.00479267 0.00100125 0.000108073
0.00100125 -0.00282405 -1.26194e-05
0.000108073 -1.26194e-05 -0.00170188
-0.000814878 0.00012254 1.15863e-07
0.00012254 1.08996e-05 -1.95583e-05
1.15863e-07 -1.95583e-05 -0.000551942
0.0107381 0.00150197 0.000143914
0.00150197 0.00519119 5.08215e-05
0.000143914 5.08215e-05 0.00132228
-0.00835218 -0.000422334 7.57581e-05
-0.000422334 -0.000254052 0.000228449
7.57581e-05 0.000228449 -0.00243958
0.00234941 0.000260678 1.92408e-05
0.000260678 0.00119273 1.38061e-05
1.92408e-05 1.38061e-05 0.0010452
0.00073906 0.000144819 -4.96337e-06
0.000144819 0.000379846 -2.18698e-06
-4.96337e-06 -2.18698e-06 0.000163279
-7.98873e-05 6.98032e-05 -2.41349e-06
6.98032e-05 0.000121767 -8.79326e-07
-2.41349e-06 -8.79326e-07 -0.000121297
0.000722789 0.000139403 3.73321e-07
0.000139403 0.000134506 8.08298e-08
3.73321e-07 8.08298e-08 -1.12217e-05
0.000586727 6.60404e-05 1.00964e-06
6.60404e-05 4.75245e-05 2.13125e-06
1.00964e-06 2.13125e-06 -7.10027e-05
0.000549426 3.15216e-06 7.03336e-06
3.15216e-06 0.000286363 6.49729e-06
7.03336e-06 6.49729e-06 7.26927e-05
0.000653225 4.62143e-05 -2.78579e-07
4.62143e-05 8.59429e-05 -3.95995e-07
-2.78579e-07 -3.95995e-07 -4.51204e-05
0.000808439 -1.65488e-05 -1.83656e-06
-1.65488e-05 0.00035365 -2.21869e-06
-1.83656e-06 -2.21869e-06 0.000184719
-0.000404186 3.41693e-05 3.77311e-06
3.41693e-05 -7.26408e-05 5.89719e-06
3.77311e-06 5.89719e-06 -0.000363905
0.000651056 3.35674e-07 -6.02689e-06
3.35674e-07 0.000413761 -5.52634e-06
-6.02689e-06 -5.52634e-06 0.000266907
0.000247821 -4.13881e-05 -3.0399e-06
-4.13881e-05 6.26676e-06 -7.43966e-06
-3.0399e-06 -7.43966e-06 -0.000137661
0.000600392 -5.47968e-05 3.26145e-06
-5.47968e-05 4.95902e-05 4.46922e-06
3.26145e-06 4.46922e-06 -5.51275e-05
0.000805169 -2.42217e-06 -9.70621e-07
-2.42217e-06 0.000170833 -1.87223e-07
-9.70621e-07 -1.87223e-07 6.19577e-05
0.00101999 -3.20726e-05 -7.83858e-06
-3.20726e-05 0.000300261 5.71108e-06
-7.83858e-06 5.71108e-06 0.000210052
0.000687499 -5.12139e-05 4.20342e-06
-5.12139e-05 0.000166471 -5.10301e-07
4.20342e-06 -5.10301e-07 8.06962e-05
0.000568412 -2.32724e-05 -1.13539e-06
-2.32724e-05 1.75005e-05 8.87707e-08
-1.13539e-06 8.87707e-08 -8.0439e-05
0.000801951 -9.82375e-05 2.66984e-06
-9.82375e-05 0.000185633 -2.46714e-07
2.66984e-06 -2.46714e-07 8.46719e-05
0.000397758 -9.51049e-05 -2.59128e-06
-9.51049e-05 -0.000135397 -9.97329e-07
-2.59128e-06 -9.97329e-07 -0.000217092
-0.000333648 -0.0001611 7.58663e-06
-0.0001611 -0.000536241 2.20527e-06
7.58663e-06 2.20527e-06 -0.000720954
0.000809365 -0.000101272 4.09081e-08
-0.000101272 0.000143131 8.88252e-07
4.09081e-08 8.88252e-07 3.49869e-05
0.00119207 -0.000182345 -7.67674e-07
-0.000182345 0.000353193 3.05857e-06
-7.67674e-07 3.05857e-06 0.000193462
0.000950974 -0.000267781 -4.69118e-06
-0.000267781 0.000135379 5.08728e-06
-4.69118e-06 5.08728e-06 -9.94296e-05
0.000969548 -0.000246184 -4.86258e-06
-0.000246184 0.000141784 5.44806e-07
-4.86258e-06 5.44806e-07 -8.86493e-05
0.00104117 -0.000198372 -2.63993e-06
-0.000198372 0.000334063 5.353e-06
-2.63993e-06 5.353e-06 0.000146068
0.000341146 -0.000166809 2.39807e-06
-0.000166809 -0.00017989 -3.42244e-08
2.39807e-06 -3.42244e-08 -0.000390932
0.00090176 -8.2897e-05 1.13056e-06
-8.2897e-05 0.000234934 -6.49353e-07
1.13056e-06 -6.49353e-07 0.000104567
0.00104887 -0.000123455 -1.60302e-06
-0.000123455 0.000335731 -4.01292e-07
-1.60302e-06 -4.01292e-07 0.000188841
0.000433479 -0.000106238 4.8304e-06
-0.000106238 -4.07605e-05 -1.15006e-05
4.8304e-06 -1.15006e-05 -0.000193133
0.000964175 -3.63003e-05 -1.5858e-08
-3.63003e-05 0.00024532 -8.906e-08
-1.5858e-08 -8.906e-08 0.000134457
0.000458312 -1.56416e-05 4.11011e-07
-1.56416e-05 -2.67576e-05 -1.53876e-07
4.11011e-07 -1.53876e-07 -0.000137968
0.000612072 -1.42241e-05 -3.4878e-07
-1.42241e-05 4.18365e-05 8.99634e-07
-3.4878e-07 8.99634e-07 -4.8376e-05
0.000796373 -6.26784e-05 -3.08172e-07
-6.26784e-05 0.000181418 -8.35758e-08
-3.08172e-07 -8.35758e-08 6.11114e-05
0.000669407 -3.94086e-05 -7.96496e-08
-3.94086e-05 8.52787e-05 4.61017e-08
-7.96496e-08 4.61017e-08 -6.46982e-06
0.000578308 2.80247e-05 -2.58798e-07
2.80247e-05 8.59115e-06 2.16125e-06
-2.58798e-07 2.16125e-06 -5.33561e-05
0.000734638 -7.25331e-05 5.02739e-07
-7.25331e-05 0.000129852 -1.52114e-06
5.02739e-07 -1.52114e-06 3.55747e-05
0.000601597 1.96732e-05 -1.07695e-06
1.96732e-05 1.80802e-05 -7.79469e-08
-1.07695e-06 -7.79469e-08 -4.01092e-05
0.00133928 4.41098e-05 -8.69433e-06
4.41098e-05 0.000442372 3.82422e-06
-8.69433e-06 3.82422e-06 0.000427233
0.00063859 -2.84207e-05 2.33916e-06
-2.84207e-05 3.7995e-05 -2.40486e-06
2.33916e-06 -2.40486e-06 -1.789e-05
0.000932035 2.72506e-05 -4.79567e-06
2.72506e-05 0.000194869 6.25298e-07
-4.79567e-06 6.25298e-07 0.000178933
0.000799431 3.24921e-05 -8.61657e-07
3.24921e-05 0.000118358 2.27354e-06
-8.61657e-07 2.27354e-06 0.000122786
0.000518262 1.30626e-05 8.2116e-07
1.30626e-05 -5.48512e-05 -4.25537e-06
8.2116e-07 -4.25537e-06 -7.19131e-05
0.00158374 3.5204e-05 8.18878e-06
3.5204e-05 0.000587824 -1.34979e-06
8.18878e-06 -1.34979e-06 0.000597445
0.00237512 3.13824e-05 8.00332e-06
3.13824e-05 0.00106232 -5.14038e-06
8.00332e-06 -5.14038e-06 0.00107668
0.00042693 7.19884e-06 1.01053e-06
7.19884e-06 -5.15453e-05 -3.53101e-07
1.01053e-06 -3.53101e-07 -0.000158016
0.000300025 5.99489e-06 1.30192e-08
5.99489e-06 -0.000160103 -3.21685e-06
1.30192e-08 -3.21685e-06 -0.000213101
0.000724071 2.37022e-05 9.75916e-09
2.37022e-05 0.000121074 1.23184e-07
9.75916e-09 1.23184e-07 2.95714e-05
0.000563772 -6.33139e-06 4.23879e-07
-6.33139e-06 -3.11347e-05 -3.62705e-06
4.23879e-07 -3.62705e-06 -4.07868e-05
0.000431604 1.92161e-06 1.2044e-06
1.92161e-06 -8.28209e-05 -6.32841e-08
1.2044e-06 -6.32841e-08 -0.000127898
0.000423042 -8.40133e-05 -1.51304e-06
-8.40133e-05 -5.66807e-05 6.93934e-07
-1.51304e-06 6.93934e-07 -0.000141943
0.00208884 -1.09355e-05 -6.69014e-06
-1.09355e-05 0.000887342 -4.78007e-06
-6.69014e-06 -4.78007e-06 0.000905915
0.000563039 -2.05605e-06 -1.0274e-07
-2.05605e-06 -3.19319e-05 -4.661e-08
-1.0274e-07 -4.661e-08 -3.97536e-05
0.000558194 -1.66909e-05 -1.7676e-06
-1.66909e-05 -6.58425e-06 1.87013e-06
-1.7676e-06 1.87013e-06 -4.68986e-05
0.00203471 3.78246e-06 -3.98644e-06
3.78246e-06 0.000854968 1.40755e-08
-3.98644e-06 1.40755e-08 0.000874027
0.00054582 2.5918e-06 -5.49543e-07
2.5918e-06 -4.2059e-05 3.25074e-06
-5.49543e-07 3.25074e-06 -4.9079e-05
0.0020217 1.81157e-05 -2.11402e-06
1.81157e-05 0.000848668 4.52438e-06
-2.11402e-06 4.52438e-06 0.000867303
0.000312743 -0.00022646 -0.000113726
-0.00022646 -0.000222189 3.21325e-05
-0.000113726 3.21325e-05 -0.00191903
0.0013599 0.000193159 -3.58399e-05
0.000193159 0.00395459 -5.8388e-06
-3.58399e-05 -5.8388e-06 0.00223615
0.00105963 -0.000341769 -0.000327515
-0.000341769 0.00222572 1.89341e-05
-0.000327515 1.89341e-05 0.00115932
0.000755119 8.69185e-05 2.23807e-06
8.69185e-05 0.000145939 8.52857e-07
2.23807e-06 8.52857e-07 1.03131e-05
0.00346925 -0.000303661 -2.30798e-05
-0.000303661 0.00237335 0.000108932
-2.30798e-05 0.000108932 0.00091287
0.00366232 -0.000543224 -0.000125681
-0.000543224 0.0013333 8.48613e-06
-0.000125681 8.48613e-06 -0.00182846
0.00304843 0.000862297 0.000220904
0.000862297 0.00387919 -0.000181112
0.000220904 -0.000181112 0.00239264
0.00434621 -0.00029772 3.70658e-05
-0.00029772 0.000341153 -3.72011e-05
3.70658e-05 -3.72011e-05 7.75066e-05
0.0119005 -0.000626795 0.000135991
-0.000626795 0.00281792 -6.90812e-05
0.000135991 -6.90812e-05 0.00121046
-0.00101354 0.00199739 -0.000179168
0.00199739 -0.00336526 0.000183505
-0.000179168 0.000183505 -0.00294001
0.00620052 0.00196531 3.5783e-05
0.00196531 0.000536524 6.00532e-05
3.5783e-05 6.00532e-05 -3.70734e-05
0.00506999 -0.000934642 -9.4946e-05
-0.000934642 0.000195077 -1.90181e-06
-9.4946e-05 -1.90181e-06 -8.39527e-05
0.0116548 -0.00111858 5.64641e-05
-0.00111858 0.00399991 -1.58652e-05
5.64641e-05 -1.58652e-05 0.00183472
0.00733262 0.00129341 8.31859e-05
0.00129341 0.000829225 -0.000147287
8.31859e-05 -0.000147287 8.43216e-05
0.00639414 0.000892828 1.69653e-06
0.000892828 -0.00154027 1.33278e-05
1.69653e-06 1.33278e-05 -0.000629835
0.00310459 -0.00135282 1.43676e-05
-0.00135282 3.49061e-05 6.4049e-06
1.43676e-05 6.4049e-06 -0.000664122
0.0116694 -0.00173035 0.00010399
-0.00173035 0.00537441 -5.62852e-05
0.00010399 -5.62852e-05 0.00160894
0.00409686 -9.58827e-05 8.19549e-05
-9.58827e-05 0.000813234 -0.000222083
8.19549e-05 -0.000222083 3.0028e-05
0.00802757 0.000466837 -5.54989e-05
0.000466837 -0.00100915 0.000124709
-5.54989e-05 0.000124709 0.000981443
0.000745535 -2.2188e-05 1.90215e-06
-2.2188e-05 0.000174928 2.7974e-06
1.90215e-06 2.7974e-06 1.20127e-05
0.000850941 -7.09018e-05 -3.40567e-07
-7.09018e-05 0.000254087 -4.27985e-08
-3.40567e-07 -4.27985e-08 8.96367e-05
0.00079137 0.000105203 -2.0411e-07
0.000105203 0.000192927 -2.80567e-06
-2.0411e-07 -2.80567e-06 6.66159e-05
0.000721446 5.56539e-05 1.07266e-06
5.56539e-05 0.000115323 3.41702e-06
1.07266e-06 3.41702e-06 -1.74435e-05
0.000778175 0.000102425 -4.1406e-07
0.000102425 0.000186677 7.22906e-07
-4.1406e-07 7.22906e-07 3.40155e-05
0.000889871 6.27413e-05 -2.29664e-06
6.27413e-05 0.000252618 -7.7177e-07
-2.29664e-06 -7.7177e-07 0.000125765
0.000998682 0.000126877 -1.00147e-06
0.000126877 0.00031176 -7.54181e-08
-1.00147e-06 -7.54181e-08 0.00017079
0.000986092 0.000134974 7.32413e-07
0.000134974 0.000318869 2.20505e-06
7.32413e-07 2.20505e-06 0.000178723
0.000453385 -0.000276897 5.77338e-05
-0.000276897 -0.000595818 -2.26476e-05
5.77338e-05 -2.26476e-05 -0.000597989
0.00192477 -0.000542549 1.25799e-05
-0.000542549 0.000282302 -9.82856e-06
1.25799e-05 -9.82856e-06 0.00022619
0.000950184 -0.000188123 -7.80034e-07
-0.000188123 0.000322058 -4.89287e-06
-7.80034e-07 -4.89287e-06 0.000134273
0.00139412 -0.000422982 1.8227e-05
-0.000422982 0.000526674 -2.19182e-05
1.8227e-05 -2.19182e-05 0.000242
0.00228121 -0.00023203 -5.82336e-06
-0.00023203 0.00117692 3.24215e-06
-5.82336e-06 3.24215e-06 0.000902322
0.00106433 -8.51451e-05 -1.77379e-06
-8.51451e-05 0.00037274 -7.71944e-06
-1.77379e-06 -7.71944e-06 0.000193726
0.000482199 -1.42991e-05 9.39617e-07
-1.42991e-05 1.5409e-05 3.06651e-06
9.39617e-07 3.06651e-06 -0.000145871
0.000263549 -0.000587695 -4.60131e-06
-0.000587695 -0.000691778 -9.2518e-07
-4.60131e-06 -9.2518e-07 -0.000661317
0.0012809 4.57865e-05 3.36446e-07
4.57865e-05 0.000594427 4.03574e-07
3.36446e-07 4.03574e-07 0.000351277
0.000884528 -0.000182391 -1.14681e-05
-0.000182391 0.000399003 3.0939e-06
-1.14681e-05 3.0939e-06 0.000108849
0.000542076 -0.000217558 1.38545e-05
-0.000217558 5.26642e-05 2.90788e-06
1.38545e-05 2.90788e-06 -2.59703e-05
0.00108501 7.71439e-05 1.87377e-06
7.71439e-05 0.000339859 -2.10763e-06
1.87377e-06 -2.10763e-06 0.000201044
0.00106375 -0.000511303 1.77693e-05
-0.000511303 -7.63548e-05 -3.92651e-05
1.77693e-05 -3.92651e-05 5.57094e-05
3.04111e-05 -0.000123933 1.09742e-05
-0.000123933 4.61212e-05 1.95807e-05
1.09742e-05 1.95807e-05 -8.64639e-05
-0.000360476 5.03917e-05 5.45041e-06
5.03917e-05 -9.3069e-05 7.74441e-06
5.45041e-06 7.74441e-06 -0.000506031
0.00135917 0.000203846 2.55668e-06
0.000203846 0.000582077 -3.66296e-06
2.55668e-06 -3.66296e-06 0.000399458
0.000202878 -1.38483e-06 1.23466e-06
-1.38483e-06 0.000751178 -8.76601e-06
1.23466e-06 -8.76601e-06 0.000109791
0.00120656 -4.46969e-05 8.91953e-05
-4.46969e-05 0.00106253 -1.3174e-05
8.91953e-05 -1.3174e-05 -0.000995586
-0.00621304 -7.40051e-05 -0.000160399
-7.40051e-05 0.00265407 7.62312e-06
-0.000160399 7.62312e-06 -0.000529387
0.00110734 0.000235191 1.46195e-05
0.000235191 0.000576687 4.61932e-06
1.46195e-05 4.61932e-06 0.000416624
-0.00141849 0.000289452 4.6238e-06
0.000289452 -0.000788667 9.91509e-06
4.6238e-06 9.91509e-06 -0.00107513
0.00425854 0.000130794 0.000107142
0.000130794 0.00222567 7.74319e-06
0.000107142 7.74319e-06 0.000950646
0.00760469 0.00109149 0.000166245
0.00109149 0.00342106 8.8568e-05
0.000166245 8.8568e-05 -0.00023164
0.0033788 0.000997386 -0.000110343
0.000997386 0.00167295 -8.7737e-05
-0.000110343 -8.7737e-05 0.000573144
0.00481465 -0.000965672 -3.27245e-05
-0.000965672 0.00174507 -0.000244743
-3.27245e-05 -0.000244743 -1.99721e-05
0.00112395 0.000180989 5.96873e-05
0.000180989 0.000154242 0.000131138
5.96873e-05 0.000131138 -0.0014148
0.00460385 -6.15588e-05 -1.95337e-05
-6.15588e-05 -0.00436615 -0.000134065
-1.95337e-05 -0.000134065 -0.00145881
0.000700788 0.000199436 1.65879e-07
0.000199436 0.000477838 -2.44875e-06
1.65879e-07 -2.44875e-06 0.000282376
-4.81467e-06 -4.61391e-05 7.58865e-07
-4.61391e-05 -2.44443e-05 -8.67813e-07
7.58865e-07 -8.67813e-07 2.30175e-06
0.00294214 5.50038e-05 4.39176e-05
5.50038e-05 0.000315825 1.84935e-05
4.39176e-05 1.84935e-05 -0.000356502
-0.000997379 0.000181354 -8.87821e-06
0.000181354 -0.000349518 -5.85019e-06
-8.87821e-06 -5.85019e-06 -0.000805886
0.00648664 0.000984151 -7.71567e-07
0.000984151 -0.00151549 -1.2829e-05
-7.71567e-07 -1.2829e-05 -0.000667903
0.00481033 0.00108009 0.000129578
0.00108009 0.00315574 6.71432e-05
0.000129578 6.71432e-05 -0.000936721
0.00373999 0.000478422 -8.39558e-05
0.000478422 0.00251616 6.50275e-06
-8.39558e-05 6.50275e-06 0.000975871
0.000295374 0.000211193 -1.35963e-05
0.000211193 0.000275378 -1.62355e-05
-1.35963e-05 -1.62355e-05 -6.13414e-06
0.00161269 7.81914e-05 1.14222e-05
7.81914e-05 -0.000275363 -1.59757e-05
1.14222e-05 -1.59757e-05 -3.86869e-05
0.00351498 -0.000254424 2.84076e-05
-0.000254424 0.00236771 -0.000111691
2.84076e-05 -0.000111691 0.000956204
0.00834684 0.00196883 0.000221518
0.00196883 0.00127372 -0.000145849
0.000221518 -0.000145849 0.00118423
0.00651516 -0.000142227 -9.52311e-05
-0.000142227 0.00165973 0.000220312
-9.52311e-05 0.000220312 0.00102473
0.000989499 0.000180323 1.32254e-06
0.000180323 0.000251529 -7.46225e-05
1.32254e-06 -7.46225e-05 7.84407e-05
-0.000547623 0.00114114 0.000132859
0.00114114 0.00287006 3.05645e-05
0.000132859 3.05645e-05 -0.00324243
0.00121127 0.000214488 3.85086e-06
0.000214488 0.000608561 1.81765e-05
3.85086e-06 1.81765e-05 0.000392863
0.000156125 0.000105391 2.55613e-06
0.000105391 0.000247837 1.16073e-06
2.55613e-06 1.16073e-06 1.21445e-06
0.000964265 -2.69261e-06 -8.31364e-06
-2.69261e-06 0.00074959 -1.00496e-05
-8.31364e-06 -1.00496e-05 0.000589891
0.000327588 -2.61456e-05 1.25471e-06
-2.61456e-05 -0.00012011 3.47194e-06
1.25471e-06 3.47194e-06 -0.000237301
0.000675887 -1.61981e-05 1.85987e-06
-1.61981e-05 0.000277241 5.07468e-06
1.85987e-06 5.07468e-06 0.000108438
0.000605662 -1.25309e-05 2.95932e-06
-1.25309e-05 0.000470202 -4.58104e-06
2.95932e-06 -4.58104e-06 0.000193906
0.000491922 -5.76332e-05 4.30566e-07
-5.76332e-05 0.000119643 -7.80605e-08
4.30566e-07 -7.80605e-08 -3.7732e-06
6.70116e-05 -1.48656e-05 5.5685e-07
-1.48656e-05 7.42951e-05 1.9554e-06
5.5685e-07 1.9554e-06 -7.85053e-05
0.00138119 -0.000232074 7.8503e-06
-0.000232074 0.000759593 -1.05952e-05
7.8503e-06 -1.05952e-05 0.000563848
0.00124643 -6.97126e-05 -1.56199e-06
-6.97126e-05 0.000481163 3.94905e-06
-1.56199e-06 3.94905e-06 0.000394623
-3.07662e-05 -6.76502e-06 -8.65164e-07
-6.76502e-06 -0.000325377 1.62164e-06
-8.65164e-07 1.62164e-06 -0.000422951
0.00147019 -0.000163033 1.67253e-06
-0.000163033 0.000565544 1.96074e-06
1.67253e-06 1.96074e-06 0.000451591
-0.000920751 -0.000118319 5.5857e-06
-0.000118319 -0.000713913 1.59994e-06
5.5857e-06 1.59994e-06 -0.000941497
0.000348122 -7.47285e-05 -4.57375e-06
-7.47285e-05 -0.000128426 5.9289e-07
-4.57375e-06 5.9289e-07 -0.00019447
2.83672e-06 -0.000171146 2.89362e-06
-0.000171146 -0.000348543 -1.04598e-06
2.89362e-06 -1.04598e-06 -0.000519014
0.00112529 -0.000315584 9.96832e-06
-0.000315584 0.000207424 -4.11772e-06
9.96832e-06 -4.11772e-06 -6.68358e-05
0.00132512 -0.00035161 -4.18168e-06
-0.00035161 0.000210798 3.17376e-06
-4.18168e-06 3.17376e-06 -6.62393e-05
0.00188742 -0.000256353 -1.80883e-06
-0.000256353 0.000752015 2.64496e-07
-1.80883e-06 2.64496e-07 0.000576085
0.00100944 -0.00027404 -1.36524e-07
-0.00027404 0.000142393 3.84072e-07
-1.36524e-07 3.84072e-07 -0.00010377
0.00237436 -0.000392925 2.87506e-06
-0.000392925 0.000936111 -1.20445e-06
2.87506e-06 -1.20445e-06 0.000691843
0.000210695 -0.000140435 -1.91148e-06
-0.000140435 -0.000214716 2.85007e-06
-1.91148e-06 2.85007e-06 -0.000418035
0.00100038 -0.000244768 -3.88688e-07
-0.000244768 0.000167214 -4.08883e-07
-3.88688e-07 -4.08883e-07 -5.97183e-05
0.000519735 -7.4355e-05 7.81269e-08
-7.4355e-05 2.05752e-05 -1.55404e-06
7.81269e-08 -1.55404e-06 -0.000133358
0.00106434 -0.000212519 -4.17029e-06
-0.000212519 0.00035101 2.44801e-06
-4.17029e-06 2.44801e-06 0.000158427
-0.000512512 -7.7612e-05 -2.21217e-06
-7.7612e-05 -0.000678261 -4.319e-06
-2.21217e-06 -4.319e-06 -0.000872138
0.000501054 2.66134e-06 8.56762e-07
2.66134e-06 -1.69327e-05 1.25874e-06
8.56762e-07 1.25874e-06 -0.00012203
0.000669687 -6.58997e-05 5.4463e-07
-6.58997e-05 0.000107299 3.12831e-08
5.4463e-07 3.12831e-08 -2.40118e-05
0.00074727 -0.000115246 4.33371e-06
-0.000115246 0.000167779 -2.68321e-06
4.33371e-06 -2.68321e-06 1.5728e-05
0.000611693 -2.71113e-05 2.4754e-07
-2.71113e-05 6.55642e-05 -4.0728e-07
2.4754e-07 -4.0728e-07 -4.81569e-05
0.000685707 -2.6337e-05 -6.29983e-07
-2.6337e-05 9.58669e-05 -9.3992e-08
-6.29983e-07 -9.3992e-08 -2.76795e-06
0.000562765 3.20883e-05 -2.12194e-07
3.20883e-05 3.67643e-07 2.76297e-06
-2.12194e-07 2.76297e-06 -6.6661e-05
0.00076545 -5.2292e-05 4.25488e-07
-5.2292e-05 0.000150036 -9.8764e-07
4.25488e-07 -9.8764e-07 5.15885e-05
0.000602398 2.46785e-05 -9.56478e-07
2.46785e-05 2.13783e-05 -1.72749e-07
-9.56478e-07 -1.72749e-07 -4.00494e-05
0.000535519 4.09e-05 -9.76726e-07
4.09e-05 -3.4779e-05 4.41545e-06
-9.76726e-07 4.41545e-06 -5.63324e-05
0.000671874 -2.0028e-05 2.16955e-06
-2.0028e-05 5.56739e-05 -2.25696e-06
2.16955e-06 -2.25696e-06 -3.00313e-07
0.00054408 3.0995e-05 1.72958e-07
3.0995e-05 -3.65874e-05 -3.1467e-09
1.72958e-07 -3.1467e-09 -5.55393e-05
0.0022944 7.76548e-05 -3.85594e-06
7.76548e-05 0.00102456 1.98245e-06
-3.85594e-06 1.98245e-06 0.00103373
0.000519945 2.25549e-05 9.41777e-07
2.25549e-05 -5.32619e-05 -4.37144e-06
9.41777e-07 -4.37144e-06 -7.11981e-05
0.00159 4.69652e-05 9.71806e-06
4.69652e-05 0.000595145 -1.14903e-06
9.71806e-06 -1.14903e-06 0.000603304
0.00238701 4.60214e-05 1.28764e-05
4.60214e-05 0.00107204 -4.96972e-06
1.28764e-05 -4.96972e-06 0.00108524
0.000371043 6.17971e-06 8.37378e-07
6.17971e-06 -9.95313e-05 -1.69008e-06
8.37378e-07 -1.69008e-06 -0.0002012
0.000321057 2.01135e-06 3.47946e-07
2.01135e-06 -0.000149949 -2.78433e-06
3.47946e-07 -2.78433e-06 -0.000210298
0.000554994 1.77814e-05 -4.48445e-07
1.77814e-05 2.38536e-05 -1.11765e-06
-4.48445e-07 -1.11765e-06 -7.94833e-05
0.00056775 -1.18279e-05 6.7397e-07
-1.18279e-05 -2.75654e-05 -3.89629e-06
6.7397e-07 -3.89629e-06 -3.99395e-05
0.000286229 4.87874e-06 -4.74934e-07
4.87874e-06 -0.000168867 -1.2994e-06
-4.74934e-07 -1.2994e-06 -0.000222878
0.00072494 3.33587e-05 -3.08146e-07
3.33587e-05 0.000130737 1.50748e-06
-3.08146e-07 1.50748e-06 3.355e-05
0.00213653 -2.41083e-05 -1.15439e-05
-2.41083e-05 0.000916584 -4.71405e-06
-1.15439e-05 -4.71405e-06 0.000934286
0.000558761 -6.89573e-06 -2.51987e-07
-6.89573e-06 -3.42404e-05 -5.00572e-08
-2.51987e-07 -5.00572e-08 -4.37185e-05
0.000250729 4.88306e-06 7.16296e-07
4.88306e-06 -0.000189193 1.75976e-06
7.16296e-07 1.75976e-06 -0.000236978
0.00206287 -9.41846e-06 -3.69287e-06
-9.41846e-06 0.000871494 4.40221e-08
-3.69287e-06 4.40221e-08 0.000890327
0.000553673 -2.18479e-06 -5.29564e-07
-2.18479e-06 -3.77019e-05 3.43168e-06
-5.29564e-07 3.43168e-06 -4.53718e-05
0.00205409 5.24468e-06 2.52757e-06
5.24468e-06 0.000866799 4.66596e-06
2.52757e-06 4.66596e-06 0.0008857
0.000692133 -4.9378e-06 2.01734e-05
-4.9378e-06 0.000534239 6.90415e-06
2.01734e-05 6.90415e-06 0.000443816
0.000651686 -0.000157404 -3.69017e-06
-0.000157404 0.000101209 -1.32771e-05
-3.69017e-06 -1.32771e-05 -0.00173973
0.00139834 9.84917e-05 2.96921e-05
9.84917e-05 0.00394883 -2.83768e-05
2.96921e-05 -2.83768e-05 0.00242713
0.000739248 9.37043e-05 -1.30514e-07
9.37043e-05 0.000129141 3.65173e-07
-1.30514e-07 3.65173e-07 1.94916e-06
0.000539576 6.60316e-05 1.94972e-06
6.60316e-05 -5.30631e-06 -3.44273e-07
1.94972e-06 -3.44273e-07 -0.000124614
0.000966551 0.000134211 3.13149e-06
0.000134211 0.000264993 2.96554e-06
3.13149e-06 2.96554e-06 0.000128257
0.00293816 -5.61353e-05 1.1532e-06
-5.61353e-05 2.54781e-05 0.000174866
1.1532e-06 0.000174866 -0.000857574
0.00352675 -0.000274189 1.78089e-05
-0.000274189 0.00239098 -5.33488e-06
1.78089e-05 -5.33488e-06 0.00113706
0.00411762 -0.000610869 6.76098e-05
-0.000610869 0.00162399 -0.000133164
6.76098e-05 -0.000133164 -0.00173169
0.00626053 -0.00114219 -8.91638e-05
-0.00114219 0.000771199 -4.44776e-06
-8.91638e-05 -4.44776e-06 0.000537661
0.0021688 -0.00110289 -0.000146615
-0.00110289 -0.000216909 8.84476e-05
-0.000146615 8.84476e-05 -0.00288404
0.0128177 0.00182982 0.000115505
0.00182982 0.00455786 5.13052e-05
0.000115505 5.13052e-05 0.00352478
0.00333381 0.000258698 9.30995e-05
0.000258698 -0.00314954 -0.000111601
9.30995e-05 -0.000111601 -0.00250554
0.00536191 -0.00157349 -2.02329e-05
-0.00157349 0.00114477 5.71791e-06
-2.02329e-05 5.71791e-06 0.000588141
0.00652929 -0.00144168 -3.46196e-05
-0.00144168 0.00299003 2.31114e-05
-3.46196e-05 2.31114e-05 -0.000544393
-0.00317034 0.00145197 -4.05918e-05
0.00145197 0.00039987 -0.000150797
-4.05918e-05 -0.000150797 -0.00189616
0.00626968 0.000143858 -2.07291e-05
0.000143858 -0.00272268 6.22219e-05
-2.07291e-05 6.22219e-05 -0.000227271
0.00130893 -0.000890748 -4.33894e-05
-0.000890748 0.000129073 -1.36673e-05
-4.33894e-05 -1.36673e-05 -0.000365131
0.0114536 -0.00167163 -8.85399e-05
-0.00167163 0.00507663 6.82136e-05
-8.85399e-05 6.82136e-05 0.00114421
-0.00853283 -0.00011172 3.77105e-05
-0.00011172 -3.56997e-05 -0.000216339
3.77105e-05 -0.000216339 -0.00251679
0.00501142 -0.0010155 4.84829e-05
-0.0010155 -0.00195418 -7.87295e-06
4.84829e-05 -7.87295e-06 -0.000890026
0.000639764 6.19523e-05 1.51164e-06
6.19523e-05 7.38849e-05 8.99259e-06
1.51164e-06 8.99259e-06 -6.75488e-05
0.000700832 -6.54595e-06 1.25113e-06
-6.54595e-06 0.000146778 -1.0196e-06
1.25113e-06 -1.0196e-06 -2.08563e-05
0.000851751 -9.01684e-05 4.39064e-07
-9.01684e-05 0.000242311 -3.29149e-06
4.39064e-07 -3.29149e-06 7.72809e-05
0.000718799 7.43603e-05 -9.45294e-07
7.43603e-05 0.000113864 -4.16581e-07
-9.45294e-07 -4.16581e-07 -2.20144e-05
0.000772039 0.000117595 6.19913e-07
0.000117595 0.000186093 -1.31491e-06
6.19913e-07 -1.31491e-06 3.94501e-05
0.0010937 0.000138917 -2.47931e-06
0.000138917 0.000372244 -1.3067e-06
-2.47931e-06 -1.3067e-06 0.000228558
-0.000253145 -0.000551141 1.97792e-05
-0.000551141 -0.000983153 1.04639e-05
1.97792e-05 1.04639e-05 -0.000974784
-0.00117946 -0.00013995 1.64464e-05
-0.00013995 -0.000923202 -1.45421e-05
1.64464e-05 -1.45421e-05 -0.000953988
0.000388064 3.69033e-05 -2.17371e-06
3.69033e-05 -3.53235e-05 -3.18842e-06
-2.17371e-06 -3.18842e-06 -0.000203191
0.00171921 -0.000296425 4.0709e-05
-0.000296425 0.000822993 -3.00846e-05
4.0709e-05 -3.00846e-05 0.000547695
0.00151338 6.30835e-06 -4.58016e-06
6.30835e-06 0.000719569 -4.16597e-06
-4.58016e-06 -4.16597e-06 0.000480417
0.000569879 5.55101e-05 7.37993e-08
5.55101e-05 4.71743e-05 2.35599e-06
7.37993e-08 2.35599e-06 -9.59164e-05
0.000667319 0.000123489 5.08201e-07
0.000123489 0.00017505 -1.61916e-06
5.08201e-07 -1.61916e-06 9.5878e-06
0.000383776 -0.00054615 -1.08822e-06
-0.00054615 -0.000414771 -5.06063e-06
-1.08822e-06 -5.06063e-06 -0.000446149
0.000740152 -1.3767e-05 -1.3349e-06
-1.3767e-05 0.000466796 3.89269e-07
-1.3349e-06 3.89269e-07 0.000141272
-1.5846e-05 -0.000116449 3.07134e-06
-0.000116449 8.68994e-05 -2.25792e-06
3.07134e-06 -2.25792e-06 -8.62778e-05
0.000853381 9.75207e-05 4.0204e-06
9.75207e-05 0.000233565 -1.04389e-05
4.0204e-06 -1.04389e-05 0.000105516
-0.0022831 2.04969e-07 -5.33179e-05
2.04969e-07 -0.000839638 -1.83099e-05
-5.33179e-05 -1.83099e-05 -0.00132019
-0.000383083 4.10171e-05 2.6634e-05
4.10171e-05 -0.000125572 2.31425e-05
2.6634e-05 2.31425e-05 -0.000294561
0.00129325 2.7925e-05 8.24438e-06
2.7925e-05 0.000727031 3.22265e-06
8.24438e-06 3.22265e-06 0.00047392
0.000759505 -8.49419e-06 -1.43023e-06
-8.49419e-06 -0.00023355 8.62428e-07
-1.43023e-06 8.62428e-07 -0.000707326
-1.81884e-06 -3.02376e-07 -1.2617e-05
-3.02376e-07 0.000508322 -1.33985e-05
-1.2617e-05 -1.33985e-05 -1.67887e-05
0.000525807 -3.99423e-05 0.000195582
-3.99423e-05 0.000760769 -8.95612e-06
0.000195582 -8.95612e-06 -0.00135481
0.000230396 0.0001924 6.22957e-06
0.0001924 0.000203491 1.6822e-05
6.22957e-06 1.6822e-05 -1.09404e-05
0.000904435 0.000451159 7.83554e-06
0.000451159 0.000190619 -1.21112e-05
7.83554e-06 -1.21112e-05 -0.000148354
1.78752e-05 -4.92564e-05 1.22703e-05
-4.92564e-05 -4.86486e-05 2.56893e-06
1.22703e-05 2.56893e-06 -5.52867e-05
-0.00303725 0.000578697 4.25012e-05
0.000578697 0.000553992 8.06286e-05
4.25012e-05 8.06286e-05 -0.00350775
-0.00962154 0.000647778 -9.88167e-05
0.000647778 -0.00360186 -0.000271601
-9.88167e-05 -0.000271601 -0.00601496
0.00285106 6.65216e-05 4.11073e-05
6.65216e-05 0.000457058 7.09649e-05
4.11073e-05 7.09649e-05 0.000121405
0.00354228 0.000330295 -9.66447e-05
0.000330295 -0.00299476 0.000112695
-9.66447e-05 0.000112695 -0.00237989
0.000597463 0.000199691 6.79087e-06
0.000199691 0.000446508 -8.29959e-07
6.79087e-06 -8.29959e-07 0.000205087
0.00140761 1.01188e-05 1.62259e-05
1.01188e-05 -0.000393795 -2.73239e-05
1.62259e-05 -2.73239e-05 -0.000129092
0.00354791 -0.000203384 -1.76207e-05
-0.000203384 0.00237867 4.97312e-06
-1.76207e-05 4.97312e-06 0.00113569
0.00102487 0.000261019 -5.53277e-05
0.000261019 0.000634361 -5.049e-06
-5.53277e-05 -5.049e-06 -7.91891e-05
0.00506009 0.00189743 7.1261e-05
0.00189743 -0.000854479 -0.000199057
7.1261e-05 -0.000199057 -0.000877618
-0.00264475 0.00128949 3.94505e-05
0.00128949 -0.000136365 0.000147157
3.94505e-05 0.000147157 -0.00200197
0.00716797 0.000128744 5.8676e-05
0.000128744 0.0058494 -2.65565e-05
5.8676e-05 -2.65565e-05 0.000282835
0.00150949 -6.20018e-05 5.52686e-05
-6.20018e-05 0.00136768 -2.05651e-05
5.52686e-05 -2.05651e-05 0.000837687
0.000770615 2.19061e-05 -2.12582e-05
2.19061e-05 0.000541949 -4.7233e-06
-2.12582e-05 -4.7233e-06 0.000448168
0.00340346 -0.00043864 0.000322722
-0.00043864 0.00106872 -0.000183419
0.000322722 -0.000183419 -0.00189097
0.00647009 0.00250001 -5.21797e-08
0.00250001 0.00488534 -6.19268e-06
-5.21797e-08 -6.19268e-06 0.00507024
-0.00312733 0.00142668 2.3718e-05
0.00142668 -0.0036741 0.000383203
2.3718e-05 0.000383203 -0.0041603
0.0132472 -0.00162613 0.000133921
-0.00162613 0.0055111 -0.000118341
0.000133921 -0.000118341 0.0015086
0.00306849 -0.000481573 -6.4178e-05
-0.000481573 0.00139224 6.82653e-05
-6.4178e-05 6.82653e-05 0.000990999
0.000939381 0.000171827 8.66344e-06
0.000171827 0.000681165 4.61049e-06
8.66344e-06 4.61049e-06 0.00043463
0.000263136 4.54759e-07 -2.7869e-05
4.54759e-07 0.000304702 1.17447e-06
-2.7869e-05 1.17447e-06 0.000133609
0.00141444 -0.000305918 2.19474e-05
-0.000305918 0.000919956 -8.14032e-06
2.19474e-05 -8.14032e-06 0.00059807
0.000820313 -8.0087e-05 1.22011e-06
-8.0087e-05 0.000288492 2.88582e-06
1.22011e-06 2.88582e-06 0.000182757
-3.83978e-05 -3.65329e-05 4.32802e-07
-3.65329e-05 9.06138e-06 2.83919e-06
4.32802e-07 2.83919e-06 -0.00015094
0.000488612 -0.000213107 -9.54364e-07
-0.000213107 0.000300829 -8.23997e-07
-9.54364e-07 -8.23997e-07 0.000110155
0.00166758 -0.000370974 2.71025e-05
-0.000370974 0.000788806 -1.91361e-05
2.71025e-05 -1.91361e-05 0.000550086
0.00216788 -0.000227353 -5.8508e-06
-0.000227353 0.000961393 4.12232e-06
-5.8508e-06 4.12232e-06 0.000832736
0.00185063 -0.000384086 5.15793e-06
-0.000384086 0.000769831 -8.21166e-07
5.15793e-06 -8.21166e-07 0.000518154
0.00138705 -0.000366483 1.25451e-05
-0.000366483 0.000526002 1.88923e-06
1.25451e-05 1.88923e-06 0.000109468
0.000367338 -0.00017136 -2.66367e-06
-0.00017136 -0.000148147 -1.17602e-06
-2.66367e-06 -1.17602e-06 -0.000300308
0.00146062 -0.00034621 -1.98126e-06
-0.00034621 0.000369031 1.22605e-06
-1.98126e-06 1.22605e-06 8.66271e-05
0.0017794 -0.000448146 -9.02425e-07
-0.000448146 0.000490655 2.17853e-06
-9.02425e-07 2.17853e-06 0.000119751
0.00170395 -0.000465835 -4.02172e-06
-0.000465835 0.000332135 3.25259e-06
-4.02172e-06 3.25259e-06 1.55157e-05
0.00118076 -0.000320983 -1.35988e-07
-0.000320983 0.000160151 3.91816e-06
-1.35988e-07 3.91816e-06 -9.44916e-05
0.00133887 -0.000355279 -2.651e-06
-0.000355279 0.000218839 1.55621e-06
-2.651e-06 1.55621e-06 -6.30489e-05
0.00112753 -0.000286877 -6.96217e-06
-0.000286877 0.000181392 2.08584e-06
-6.96217e-06 2.08584e-06 -7.70225e-05
0.00183986 -0.000333463 5.08505e-06
-0.000333463 0.000655785 -8.59843e-07
5.08505e-06 -8.59843e-07 0.000424327
0.00160884 -0.000318265 3.08815e-06
-0.000318265 0.000486755 -3.04242e-06
3.08815e-06 -3.04242e-06 0.000259873
-2.54644e-06 -6.92442e-05 1.21345e-06
-6.92442e-05 -0.000322154 7.7244e-07
1.21345e-06 7.7244e-07 -0.000501475
0.000818055 -0.000204037 2.02039e-06
-0.000204037 0.000152883 -1.28881e-06
2.02039e-06 -1.28881e-06 -5.98974e-05
0.00111721 -0.000251856 6.14952e-06
-0.000251856 0.000244078 -5.34382e-06
6.14952e-06 -5.34382e-06 1.93918e-05
0.000201176 9.44737e-07 9.8964e-07
9.44737e-07 -0.00018489 1.76272e-06
9.8964e-07 1.76272e-06 -0.000315302
0.000920265 -0.000115387 -5.68248e-07
-0.000115387 0.000264426 2.40429e-07
-5.68248e-07 2.40429e-07 0.00010074
0.0010409 -0.00022131 -9.97207e-07
-0.00022131 0.000340753 -1.29298e-06
-9.97207e-07 -1.29298e-06 0.000145158
0.000628504 1.3703e-05 -1.11113e-06
1.3703e-05 4.02794e-05 3.01964e-06
-1.11113e-06 3.01964e-06 -3.32056e-05
0.000734881 -3.42609e-05 -4.24277e-07
-3.42609e-05 0.00012086 -3.76155e-07
-4.24277e-07 -3.76155e-07 1.25556e-05
0.000474769 -4.85537e-05 3.67461e-07
-4.85537e-05 1.24324e-06 4.07878e-07
3.67461e-07 4.07878e-07 -0.000130928
0.000756032 -4.56854e-05 4.63715e-07
-4.56854e-05 0.000141129 -1.29535e-06
4.63715e-07 -1.29535e-06 3.83449e-05
0.000629846 -1.81984e-06 -2.35017e-07
-1.81984e-06 3.54653e-05 -1.99693e-07
-2.35017e-07 -1.99693e-07 -2.93684e-05
0.000524511 4.99107e-05 -2.05029e-07
4.99107e-05 -3.22678e-05 5.08675e-06
-2.05029e-07 5.08675e-06 -5.78823e-05
0.000642913 -1.07543e-05 1.73196e-06
-1.07543e-05 4.06862e-05 -2.21961e-06
1.73196e-06 -2.21961e-06 -1.8333e-05
0.000547471 4.31989e-05 -2.79595e-07
4.31989e-05 -2.72582e-05 -5.85677e-08
-2.79595e-07 -5.85677e-08 -4.92237e-05
0.00236277 8.56318e-05 -2.54898e-05
8.56318e-05 0.0010732 3.93585e-06
-2.54898e-05 3.93585e-06 0.0010809
0.000540407 3.20068e-05 9.91289e-07
3.20068e-05 -3.85909e-05 -4.32385e-06
9.91289e-07 -4.32385e-06 -5.76723e-05
0.00157092 5.90083e-05 1.16863e-05
5.90083e-05 0.00058928 -9.7688e-07
1.16863e-05 -9.7688e-07 0.000595626
0.00239826 6.10275e-05 1.69122e-05
6.10275e-05 0.0010831 -4.63143e-06
1.69122e-05 -4.63143e-06 0.00109465
0.000699352 6.89975e-05 7.68412e-07
6.89975e-05 0.000103322 -9.52913e-07
7.68412e-07 -9.52913e-07 -5.9598e-06
0.000609213 2.81583e-05 -5.36509e-08
2.81583e-05 2.00814e-05 -2.42232e-06
-5.36509e-08 -2.42232e-06 -4.32335e-05
0.000547417 4.13364e-05 -1.18634e-06
4.13364e-05 1.80153e-05 -1.17634e-06
-1.18634e-06 -1.17634e-06 -9.18767e-05
0.00055184 -1.61851e-05 6.26319e-07
-1.61851e-05 -3.57021e-05 -4.38685e-06
6.26319e-07 -4.38685e-06 -5.15025e-05
0.000427627 1.99717e-05 -1.55799e-06
1.99717e-05 -8.5828e-05 -1.30167e-06
-1.55799e-06 -1.30167e-06 -0.000145023
0.000759082 4.62015e-05 -4.96988e-07
4.62015e-05 0.000145892 -9.82577e-07
-4.96988e-07 -9.82577e-07 4.33728e-05
0.00223685 -3.83203e-05 -1.63003e-05
-3.83203e-05 0.000978486 -4.6791e-06
-1.63003e-05 -4.6791e-06 0.000994517
0.000552764 -1.20289e-05 -1.82796e-07
-1.20289e-05 -3.69041e-05 -7.96444e-08
-1.82796e-07 -7.96444e-08 -4.90035e-05
0.000230873 3.78115e-06 -9.75345e-07
3.78115e-06 -0.000202267 7.58232e-07
-9.75345e-07 7.58232e-07 -0.000257077
0.00214644 -2.29853e-05 -4.21019e-06
-2.29853e-05 0.000922318 9.92168e-08
-4.21019e-06 9.92168e-08 0.000940132
0.00055365 -7.67978e-06 -7.18422e-07
-7.67978e-06 -3.73343e-05 3.48184e-06
-7.18422e-07 3.48184e-06 -4.66828e-05
0.00207951 -7.93898e-06 7.26966e-06
-7.93898e-06 0.000881333 4.72512e-06
7.26966e-06 4.72512e-06 0.000900167
0.00148148 -4.96293e-05 -1.60596e-05
-4.96293e-05 -0.000294091 1.87804e-05
-1.60596e-05 1.87804e-05 -7.35999e-05
0.00070555 -4.48881e-05 1.25962e-05
-4.48881e-05 0.000492835 -1.84917e-06
1.25962e-05 -1.84917e-06 0.000422754
0.00105334 -0.00014578 0.00011453
-0.00014578 0.000305625 -3.77717e-05
0.00011453 -3.77717e-05 -0.0015023
0.000510173 2.68388e-05 9.70675e-07
2.68388e-05 -3.51037e-05 -3.65025e-07
9.70675e-07 -3.65025e-07 -0.0001475
0.000995833 6.28473e-05 -6.39141e-07
6.28473e-05 0.000247174 7.88799e-07
-6.39141e-07 7.88799e-07 0.000120789
0.000790448 0.000103759 -5.56555e-07
0.000103759 0.000158975 -2.03271e-07
-5.56555e-07 -2.03271e-07 3.55581e-05
0.000563135 4.97636e-05 2.4013e-07
4.97636e-05 9.46776e-07 3.24328e-07
2.4013e-07 3.24328e-07 -0.000112394
0.000675502 6.58299e-05 1.40886e-07
6.58299e-05 8.74053e-05 3.33477e-07
1.40886e-07 3.33477e-07 -4.14841e-05
0.000641589 6.05405e-05 1.66536e-06
6.05405e-05 5.83274e-05 -1.47271e-06
1.66536e-06 -1.47271e-06 -6.38716e-05
0.000656658 0.000152171 4.58176e-06
0.000152171 0.000102171 3.75547e-06
4.58176e-06 3.75547e-06 -4.60837e-05
9.96204e-05 9.83738e-05 6.44311e-05
9.83738e-05 -0.000111977 0.000172595
6.44311e-05 0.000172595 -0.00149141
0.00278172 -3.83419e-05 -1.22e-05
-3.83419e-05 0.000315979 5.21448e-05
-1.22e-05 5.21448e-05 -0.000382792
0.00329784 -0.000198741 4.06123e-05
-0.000198741 0.00230017 -7.0519e-05
4.06123e-05 -7.0519e-05 0.00123156
0.00449562 -0.000123453 -6.84718e-06
-0.000123453 -0.00448482 6.92364e-05
-6.84718e-06 6.92364e-05 -0.00141862
0.00293279 -0.00127768 -9.25523e-05
-0.00127768 0.000895237 6.91156e-05
-9.25523e-05 6.91156e-05 0.00012375
-0.0019217 -0.0015704 -3.68905e-05
-0.0015704 -0.000119999 8.84476e-05
-3.68905e-05 8.84476e-05 -0.00422885
0.00949424 0.00206247 7.95658e-05
0.00206247 0.00495499 -6.55442e-05
7.95658e-05 -6.55442e-05 0.00276609
0.00323565 -0.00115933 -2.84208e-05
-0.00115933 0.000811239 5.48978e-06
-2.84208e-05 5.48978e-06 0.000401806
-0.000674972 -0.000526362 2.60576e-05
-0.000526362 0.00177103 3.10337e-05
2.60576e-05 3.10337e-05 -0.00301408
0.00480927 0.000195797 3.1241e-05
0.000195797 0.00256938 -1.14825e-05
3.1241e-05 -1.14825e-05 0.000990404
0.0100006 -0.00138961 -3.41947e-05
-0.00138961 0.0013132 -3.786e-05
-3.41947e-05 -3.786e-05 0.00255012
-0.000969395 -9.04323e-05 -0.000131744
-9.04323e-05 -0.00102021 8.21256e-05
-0.000131744 8.21256e-05 -0.00083152
0.000865091 0.00146767 -6.62716e-05
0.00146767 0.00221213 -8.28979e-05
-6.62716e-05 -8.28979e-05 -0.00262729
-0.0063167 -0.00227941 5.01067e-05
-0.00227941 -0.00336983 -0.0001494
5.01067e-05 -0.0001494 -0.0057554
0.00642868 -0.00140309 5.25188e-05
-0.00140309 -5.96124e-05 -0.000290211
5.25188e-05 -0.000290211 0.00070562
0.00091001 2.62279e-05 5.7982e-06
2.62279e-05 0.000253286 2.30796e-09
5.7982e-06 2.30796e-09 0.000126406
0.00063558 7.81899e-05 -1.38534e-07
7.81899e-05 7.90385e-05 -1.26839e-06
-1.38534e-07 -1.26839e-06 -6.29358e-05
0.000820203 -1.12757e-05 2.07727e-07
-1.12757e-05 0.000231356 -3.03151e-06
2.07727e-07 -3.03151e-06 4.97619e-05
0.000823303 6.40287e-05 -1.73604e-06
6.40287e-05 0.00018842 -5.0958e-06
-1.73604e-06 -5.0958e-06 4.10844e-05
0.000528589 -0.000461104 -5.13802e-06
-0.000461104 -0.000335271 3.5326e-05
-5.13802e-06 3.5326e-05 -0.000433145
0.00121961 -0.000100399 -2.03697e-05
-0.000100399 0.000831593 -2.07528e-05
-2.03697e-05 -2.07528e-05 0.000630205
0.000735655 4.64105e-05 -3.53994e-06
4.64105e-05 0.000124691 -4.97051e-06
-3.53994e-06 -4.97051e-06 1.35296e-06
0.000699855 0.000169018 -1.67727e-06
0.000169018 0.000206498 3.55074e-06
-1.67727e-06 3.55074e-06 3.61075e-05
0.00264165 -2.25046e-05 8.11614e-06
-2.25046e-05 0.00147516 -2.00683e-05
8.11614e-06 -2.00683e-05 0.0012415
0.000956137 7.54861e-05 2.98954e-06
7.54861e-05 0.000281185 3.63617e-06
2.98954e-06 3.63617e-06 0.000162981
0.000622413 0.000121928 -2.69507e-06
0.000121928 0.000370685 -1.16171e-06
-2.69507e-06 -1.16171e-06 9.01599e-05
0.000544909 -8.08358e-05 1.98016e-05
-8.08358e-05 0.000562384 -8.94192e-06
1.98016e-05 -8.94192e-06 -3.42473e-05
0.000169574 1.96489e-05 2.35665e-05
1.96489e-05 0.000232327 -1.0958e-06
2.35665e-05 -1.0958e-06 6.45769e-05
0.000765478 0.000139425 5.64209e-07
0.000139425 0.000393652 -6.60721e-06
5.64209e-07 -6.60721e-06 0.000201929
-0.000488996 -4.80541e-05 -3.2801e-05
-4.80541e-05 0.000490411 -4.53192e-05
-3.2801e-05 -4.53192e-05 -0.000791324
0.00372116 0.000172212 2.56667e-05
0.000172212 0.00209089 2.26535e-05
2.56667e-05 2.26535e-05 0.00183849
0.000214901 1.41553e-05 -7.81209e-06
1.41553e-05 0.000772115 1.39805e-05
-7.81209e-06 1.39805e-05 0.000110771
0.0012417 -2.58754e-05 5.19089e-08
-2.58754e-05 -2.50736e-06 5.41966e-07
5.19089e-08 5.41966e-07 -0.000163907
-0.000171121 -3.42683e-06 2.87379e-06
-3.42683e-06 0.000263009 -1.97691e-05
2.87379e-06 -1.97691e-05 -0.000125613
-8.37299e-05 0.000114796 -1.80307e-06
0.000114796 0.000128498 5.57341e-06
-1.80307e-06 5.57341e-06 -7.07305e-05
-0.00115032 0.000351459 6.54538e-05
0.000351459 -0.000810659 5.51111e-05
6.54538e-05 5.51111e-05 -0.00112063
0.00123147 -2.11837e-05 2.14209e-05
-2.11837e-05 -0.000463976 -6.35613e-06
2.14209e-05 -6.35613e-06 -0.00014874
0.00289871 -0.00126228 0.000133322
-0.00126228 0.00363585 -0.000128742
0.000133322 -0.000128742 -0.00213534
0.0100074 0.00204792 -8.35425e-05
0.00204792 0.00464574 6.22958e-05
-8.35425e-05 6.22958e-05 0.00274549
0.00332456 -0.00013585 -4.66987e-05
-0.00013585 0.00223937 7.49402e-05
-4.66987e-05 7.49402e-05 0.0011761
0.00607792 0.00197472 -2.47772e-05
0.00197472 0.000485947 -5.88032e-05
-2.47772e-05 -5.88032e-05 -4.06562e-05
2.20213e-05 0.000122362 -4.1873e-05
0.000122362 0.000538844 1.09311e-05
-4.1873e-05 1.09311e-05 -4.6643e-05
0.00080996 -3.32693e-06 -1.48096e-05
-3.32693e-06 0.000486314 2.16173e-06
-1.48096e-05 2.16173e-06 0.000448126
0.0036477 -0.000503817 0.000123059
-0.000503817 0.00125746 -1.0498e-05
0.000123059 -1.0498e-05 -0.00185927
-0.000281647 -0.000200399 1.39804e-05
-0.000200399 -0.00041678 2.56212e-05
1.39804e-05 2.56212e-05 -0.000536908
-0.000186553 0.00270445 0.000176934
0.00270445 0.00121261 -8.76277e-05
0.000176934 -8.76277e-05 0.00191602
0.00743627 0.00126492 -7.73719e-05
0.00126492 0.000686331 0.000146655
-7.73719e-05 0.000146655 0.000106257
-0.0030984 -0.000799702 7.59856e-05
-0.000799702 0.000808569 -8.02441e-05
7.59856e-05 -8.02441e-05 -0.00457926
0.000557483 -0.000206051 4.19715e-05
-0.000206051 0.000533469 -9.82818e-06
4.19715e-05 -9.82818e-06 7.4875e-05
0.000482268 -0.00021208 0.000103794
-0.00021208 -0.000227417 -3.30897e-05
0.000103794 -3.30897e-05 -0.00191152
-0.00212354 5.33061e-05 -0.000325764
5.33061e-05 0.0025707 3.22538e-05
-0.000325764 3.22538e-05 0.000670463
0.00482573 0.00254656 -0.000257041
0.00254656 0.000656373 0.000324111
-0.000257041 0.000324111 0.000705936
0.00805165 -0.0011009 -2.25617e-05
-0.0011009 0.00362281 7.49134e-06
-2.25617e-05 7.49134e-06 0.000183825
0.00301267 -0.000628272 -5.85396e-05
-0.000628272 0.0012116 4.36783e-05
-5.85396e-05 4.36783e-05 0.000814504
-0.000744483 3.40922e-05 2.43813e-05
3.40922e-05 -0.000280524 7.90888e-06
2.43813e-05 7.90888e-06 -0.000469245
0.00035789 -0.000225422 -1.78043e-06
-0.000225422 0.000358495 6.45247e-07
-1.78043e-06 6.45247e-07 4.4984e-05
0.000994853 -0.000362016 1.65805e-05
-0.000362016 0.000418951 -3.85766e-06
1.65805e-05 -3.85766e-06 0.000267112
-0.000460474 -0.000187525 -6.68538e-06
-0.000187525 -0.000187395 6.95374e-06
-6.68538e-06 6.95374e-06 -0.000373439
-0.000672343 -0.000198757 -6.5015e-07
-0.000198757 -0.000447738 -3.85573e-06
-6.5015e-07 -3.85573e-06 -0.000686109
0.00319814 -0.000598243 3.27509e-05
-0.000598243 0.00129279 -2.46595e-06
3.27509e-05 -2.46595e-06 0.0010183
0.0045454 -0.000656073 -9.86341e-06
-0.000656073 0.00220512 3.76829e-06
-9.86341e-06 3.76829e-06 0.00192813
0.00233569 -0.000461086 7.13354e-06
-0.000461086 0.000975379 2.84698e-07
7.13354e-06 2.84698e-07 0.000582005
0.00122104 -0.000426811 8.55478e-06
-0.000426811 0.000214152 -6.28957e-06
8.55478e-06 -6.28957e-06 -0.000207087
0.00174229 -0.000372471 -8.33986e-06
-0.000372471 0.000498689 1.96933e-06
-8.33986e-06 1.96933e-06 0.000209441
0.00214833 -0.000493663 1.0474e-06
-0.000493663 0.000662382 5.11179e-07
1.0474e-06 5.11179e-07 0.000282389
0.00199358 -0.000505854 1.40404e-06
-0.000505854 0.000534352 -5.66486e-06
1.40404e-06 -5.66486e-06 0.000152576
0.00198532 -0.000474649 -1.67274e-06
-0.000474649 0.000408889 -3.00334e-06
-1.67274e-06 -3.00334e-06 0.00012927
0.00179955 -0.00046897 -1.5077e-06
-0.00046897 0.000367801 2.26519e-06
-1.5077e-06 2.26519e-06 7.19744e-05
0.00174245 -0.000474077 -9.52603e-07
-0.000474077 0.000354041 -1.65849e-07
-9.52603e-07 -1.65849e-07 3.12293e-05
0.000773982 -0.000263356 6.57309e-06
-0.000263356 -6.9585e-05 2.18242e-06
6.57309e-06 2.18242e-06 -0.000295058
0.00116996 -0.000312586 1.83016e-06
-0.000312586 0.000151056 -2.74169e-09
1.83016e-06 -2.74169e-09 -9.4619e-05
0.0013254 -0.000355491 1.01551e-06
-0.000355491 0.00021331 -2.12851e-06
1.01551e-06 -2.12851e-06 -7.30271e-05
0.00130823 -0.000265337 3.41982e-06
-0.000265337 0.000379708 1.86611e-06
3.41982e-06 1.86611e-06 0.000152773
0.00132599 -0.00028224 -2.30927e-06
-0.00028224 0.000346194 -1.89545e-06
-2.30927e-06 -1.89545e-06 0.000123521
0.000691218 -0.000229252 5.98855e-06
-0.000229252 -5.1357e-05 -5.85486e-06
5.98855e-06 -5.85486e-06 -0.000258316
0.000347782 -9.1647e-05 1.87406e-06
-9.1647e-05 -9.0477e-05 6.54554e-07
1.87406e-06 6.54554e-07 -0.000266198
0.000481857 -0.000116487 -6.5973e-07
-0.000116487 -1.8587e-05 1.03814e-06
-6.5973e-07 1.03814e-06 -0.000207307
0.00143618 -0.000268395 3.36076e-06
-0.000268395 0.000526277 -5.01553e-06
3.36076e-06 -5.01553e-06 0.000303898
0.000457181 1.60435e-05 5.13548e-08
1.60435e-05 -5.45231e-05 3.5647e-06
5.13548e-08 3.5647e-06 -0.000141486
0.000705648 -4.03609e-05 -2.21791e-07
-4.03609e-05 0.00012198 -1.00394e-07
-2.21791e-07 -1.00394e-07 -1.88086e-05
0.00123635 -0.000157743 7.25896e-07
-0.000157743 0.000458437 -2.27658e-07
7.25896e-07 -2.27658e-07 0.000285483
0.000498811 5.24848e-05 -1.30251e-06
5.24848e-05 -3.89121e-05 7.33206e-06
-1.30251e-06 7.33206e-06 -6.83313e-05
0.000641758 9.07851e-06 -3.24311e-07
9.07851e-06 4.58229e-05 -2.48675e-07
-3.24311e-07 -2.48675e-07 -2.74691e-05
0.00096722 -6.0517e-05 -3.14231e-07
-6.0517e-05 0.000264013 -1.4353e-06
-3.14231e-07 -1.4353e-06 0.000149115
0.00066554 -2.96615e-06 1.42913e-06
-2.96615e-06 5.562e-05 -2.69758e-06
1.42913e-06 -2.69758e-06 -9.27748e-06
0.000536209 5.20505e-05 4.25527e-07
5.20505e-05 -2.41098e-05 2.6934e-08
4.25527e-07 2.6934e-08 -5.03771e-05
0.00243268 0.000102355 -2.72548e-05
0.000102355 0.00112364 3.60935e-06
-2.72548e-05 3.60935e-06 0.00112755
0.000556878 4.79704e-05 -5.30185e-07
4.79704e-05 -2.07038e-05 -4.78796e-06
-5.30185e-07 -4.78796e-06 -4.35611e-05
0.00239529 8.87844e-05 2.81046e-06
8.87844e-05 0.0010936 2.68992e-07
2.81046e-06 2.68992e-07 0.00110065
0.0023729 7.51743e-05 2.04655e-05
7.51743e-05 0.00107357 -4.17503e-06
2.04655e-05 -4.17503e-06 0.00108324
0.000693442 6.36029e-05 -1.64723e-07
6.36029e-05 0.000108441 -1.09657e-06
-1.64723e-07 -1.09657e-06 -2.67809e-05
0.000770137 8.95987e-05 9.15316e-07
8.95987e-05 0.000155869 -1.33585e-06
9.15316e-07 -1.33585e-06 3.09056e-05
0.000632475 2.00148e-05 9.02899e-08
2.00148e-05 3.40951e-05 -2.78303e-06
9.02899e-08 -2.78303e-06 -3.54114e-05
0.000693994 8.13489e-05 -3.09299e-08
8.13489e-05 9.85183e-05 -4.83173e-08
-3.09299e-08 -4.83173e-08 -1.04279e-05
0.000542303 -1.86223e-05 -2.34036e-07
-1.86223e-05 -3.79991e-05 -5.05978e-06
-2.34036e-07 -5.05978e-06 -5.78247e-05
0.000613992 2.88788e-05 2.75669e-08
2.88788e-05 2.35588e-05 -9.43615e-08
2.75669e-08 -9.43615e-08 -3.97876e-05
0.000624562 4.35275e-05 -2.27214e-06
4.35275e-05 5.30764e-05 2.25288e-07
-2.27214e-06 2.25288e-07 -4.78008e-05
0.00234044 -5.27815e-05 -2.13849e-05
-5.27815e-05 0.00104332 -4.63852e-06
-2.13849e-05 -4.63852e-06 0.00105717
0.000550976 -1.74327e-05 -3.52339e-07
-1.74327e-05 -3.57748e-05 -7.04543e-08
-3.52339e-07 -7.04543e-08 -5.15053e-05
0.000543791 3.21356e-05 -1.56049e-06
3.21356e-05 -1.60818e-05 7.56945e-07
-1.56049e-06 7.56945e-07 -7.41151e-05
0.00221699 -3.69508e-05 -4.15084e-06
-3.69508e-05 0.000966225 1.61727e-07
-4.15084e-06 1.61727e-07 0.000982569
0.000552079 -1.19136e-05 -7.73153e-07
-1.19136e-05 -3.76082e-05 3.67837e-06
-7.73153e-07 3.67837e-06 -4.94666e-05
0.0021217 -2.16644e-05 1.14072e-05
-2.16644e-05 0.000907119 4.67959e-06
1.14072e-05 4.67959e-06 0.000925187
0.000182314 -7.15882e-05 -1.42781e-06
-7.15882e-05 -2.3509e-05 6.71375e-06
-1.42781e-06 6.71375e-06 7.55301e-05
0.00141855 -9.05789e-05 -1.67101e-05
-9.05789e-05 -0.000384065 2.68655e-05
-1.67101e-05 2.68655e-05 -0.000107365
0.000745497 -7.33482e-05 9.44278e-06
-7.33482e-05 0.000461662 -1.59642e-05
9.44278e-06 -1.59642e-05 0.000399915
0.000731789 6.48926e-05 -2.35033e-07
6.48926e-05 0.000118917 1.52956e-07
-2.35033e-07 1.52956e-07 -9.24453e-06
0.000703874 4.91378e-05 1.27574e-06
4.91378e-05 7.54126e-05 -3.22563e-07
1.27574e-06 -3.22563e-07 -4.69825e-05
4.8013e-05 3.23545e-05 -4.14756e-06
3.23545e-05 -0.000310732 -4.57702e-06
-4.14756e-06 -4.57702e-06 -0.000424113
0.000358922 1.44954e-05 7.97298e-07
1.44954e-05 -0.000112962 1.27611e-06
7.97298e-07 1.27611e-06 -0.000234218
0.0014973 0.000172599 -7.43079e-07
0.000172599 0.000582374 -8.75221e-07
-7.43079e-07 -8.75221e-07 0.000426147
0.000649914 3.1245e-05 -1.79043e-06
3.1245e-05 4.54616e-05 4.87392e-07
-1.79043e-06 4.87392e-07 -6.42255e-05
0.000669041 5.59899e-05 -2.58725e-06
5.59899e-05 7.47445e-05 -3.1237e-06
-2.58725e-06 -3.1237e-06 -4.7411e-05
0.000764457 6.5548e-05 -9.22793e-08
6.5548e-05 0.000132031 -2.17349e-07
-9.22793e-08 -2.17349e-07 7.22366e-06
0.000998858 0.000106012 1.48271e-07
0.000106012 0.000282482 -1.08431e-07
1.48271e-07 -1.08431e-07 0.000147342
0.00105559 8.32282e-05 2.98074e-06
8.32282e-05 0.000340245 -1.97538e-06
2.98074e-06 -1.97538e-06 0.000196069
0.00318563 0.000276293 0.000184721
0.000276293 0.00215633 0.000255913
0.000184721 0.000255913 -0.00110432
0.000634516 0.000116017 9.66837e-06
0.000116017 3.82764e-05 6.77263e-05
9.66837e-06 6.77263e-05 -0.00149907
0.00266799 -4.61871e-05 -1.15895e-05
-4.61871e-05 0.000557125 -6.0729e-06
-1.15895e-05 -6.0729e-06 5.66057e-05
0.010293 -0.00121134 -0.000105251
-0.00121134 0.001448 -0.000110887
-0.000105251 -0.000110887 0.00289501
-0.00976901 0.000983041 -1.77235e-05
0.000983041 -0.00332274 0.000267535
-1.77235e-05 0.000267535 -0.00598337
0.00518744 -0.00128368 -0.000124974
-0.00128368 0.00196425 3.88628e-05
-0.000124974 3.88628e-05 0.00157666
0.0109701 -0.00105129 -7.2765e-05
-0.00105129 0.00492208 -2.64673e-06
-7.2765e-05 -2.64673e-06 0.00123452
0.00225701 -0.000289922 -2.55678e-05
-0.000289922 0.000577012 6.80473e-05
-2.55678e-05 6.80473e-05 0.000369675
0.0115303 -0.000128221 -1.58079e-05
-0.000128221 0.00596503 -1.27326e-05
-1.58079e-05 -1.27326e-05 0.00137275
0.00261152 -0.00141528 5.73735e-05
-0.00141528 0.000841209 7.75455e-05
5.73735e-05 7.75455e-05 -0.00115403
0.00571215 -0.00171809 -0.000149637
-0.00171809 -0.000897898 -0.000352845
-0.000149637 -0.000352845 -0.000217621
0.00280537 9.94656e-05 -0.000116924
9.94656e-05 0.000852864 5.3249e-05
-0.000116924 5.3249e-05 0.000280958
0.0101457 0.0011676 -5.22719e-05
0.0011676 0.00475594 1.49366e-05
-5.22719e-05 1.49366e-05 0.00105015
0.0115739 -0.00246094 -9.07648e-05
-0.00246094 0.0040731 -0.000307912
-9.07648e-05 -0.000307912 0.00352015
0.00895161 -0.0028209 7.49532e-05
-0.0028209 0.00222232 -1.48529e-06
7.49532e-05 -1.48529e-06 0.00321184
0.000173196 7.81587e-05 5.32071e-06
7.81587e-05 -9.56285e-05 -4.90071e-06
5.32071e-06 -4.90071e-06 -0.000237875
0.000898072 2.71715e-05 1.1071e-06
2.71715e-05 0.000264668 2.93633e-06
1.1071e-06 2.93633e-06 0.00011658
0.000720827 9.23487e-05 -3.06401e-06
9.23487e-05 0.000131692 -6.55997e-06
-3.06401e-06 -6.55997e-06 -1.40228e-05
0.00176478 -0.0002325 -2.30712e-05
-0.0002325 0.00110465 2.29793e-05
-2.30712e-05 2.29793e-05 0.000368592
0.000907284 -2.96509e-05 -6.40284e-05
-2.96509e-05 0.000670542 -2.29241e-05
-6.40284e-05 -2.29241e-05 0.000519789
0.000624723 7.74952e-06 -5.16857e-06
7.74952e-06 8.52666e-05 4.06483e-06
-5.16857e-06 4.06483e-06 -3.08939e-05
-0.0011241 0.000100122 -9.13885e-06
0.000100122 -0.000576003 -4.24469e-06
-9.13885e-06 -4.24469e-06 -0.000900674
0.000412802 8.07949e-05 6.30992e-07
8.07949e-05 0.000179024 -2.27683e-06
6.30992e-07 -2.27683e-06 -1.83269e-05
0.00062719 0.000148827 5.76633e-07
0.000148827 0.000435694 2.83934e-06
5.76633e-07 2.83934e-06 0.00013414
-0.000487909 -6.01752e-05 0.000120006
-6.01752e-05 0.000716968 -4.05428e-05
0.000120006 -4.05428e-05 -0.000550646
-0.00216082 2.11743e-05 -2.12193e-05
2.11743e-05 -0.0011397 1.30276e-05
-2.12193e-05 1.30276e-05 -0.00136781
0.00247403 0.000326851 -5.44063e-05
0.000326851 0.00160272 -4.74889e-05
-5.44063e-05 -4.74889e-05 0.000740852
0.00191628 4.84057e-05 9.00351e-05
4.84057e-05 0.00122194 1.64301e-05
9.00351e-05 1.64301e-05 -0.000903997
-2.35452e-06 1.1291e-05 1.35917e-05
1.1291e-05 0.000536845 1.48854e-05
1.35917e-05 1.48854e-05 -1.75694e-05
0.00174239 -7.32495e-05 3.26961e-07
-7.32495e-05 0.000228001 -1.32248e-07
3.26961e-07 -1.32248e-07 0.00036863
-0.00173209 0.000293256 0.000102814
0.000293256 -0.000412991 7.45907e-06
0.000102814 7.45907e-06 -0.00110994
0.00300099 0.000154524 -3.11451e-05
0.000154524 0.00152189 1.72628e-05
-3.11451e-05 1.72628e-05 0.000753839
0.000782771 -4.4016e-05 -8.71212e-06
-4.4016e-05 0.000461243 1.25964e-05
-8.71212e-06 1.25964e-05 0.000407883
0.016109 -0.00182218 0.000135998
-0.00182218 0.0070486 -4.31034e-05
0.000135998 -4.31034e-05 0.00283245
0.0117428 0.00189292 -6.71024e-05
0.00189292 0.0042116 -5.43411e-05
-6.71024e-05 -5.43411e-05 0.0031098
0.00419305 -0.000555988 -8.41843e-05
-0.000555988 0.00159923 0.000134446
-8.41843e-05 0.000134446 -0.00166415
-0.00707208 0.0030435 0.000823418
0.0030435 -0.00284383 -0.000626575
0.000823418 -0.000626575 -0.00170858
0.000689095 -0.000200058 1.1597e-05
-0.000200058 0.000713123 -4.00734e-06
1.1597e-05 -4.00734e-06 0.000167417
0.000756884 -0.000163362 2.71427e-06
-0.000163362 2.75208e-05 1.27349e-05
2.71427e-06 1.27349e-05 -0.00178714
-0.00289739 0.00015501 -0.00045399
0.00015501 0.00256179 0.000188077
-0.00045399 0.000188077 0.000664555
0.00136067 -0.000378702 -2.30533e-05
-0.000378702 0.000395239 3.56781e-05
-2.30533e-05 3.56781e-05 3.87766e-05
0.0126231 0.00247841 0.000116342
0.00247841 0.00379475 8.30229e-05
0.000116342 8.30229e-05 0.00392343
0.00784738 -0.00174213 9.48348e-05
-0.00174213 0.00323236 -5.69703e-05
9.48348e-05 -5.69703e-05 9.2255e-05
0.0022687 -0.000495285 3.63295e-06
-0.000495285 0.00102164 2.2751e-05
3.63295e-06 2.2751e-05 0.000889841
-0.0046346 -0.000502845 4.45119e-05
-0.000502845 0.00201461 -2.77937e-05
4.45119e-05 -2.77937e-05 -0.00042638
0.0109293 0.00229101 -0.000506554
0.00229101 0.00488952 0.000237154
-0.000506554 0.000237154 0.00452381
0.0024978 -0.00109471 -0.000223223
-0.00109471 -0.000379108 0.000146085
-0.000223223 0.000146085 -0.00368352
0.00243312 -0.00101461 0.000106046
-0.00101461 0.000490949 -5.16602e-05
0.000106046 -5.16602e-05 0.000505591
-0.000296757 -0.000191836 -4.9105e-05
-0.000191836 -7.70867e-06 1.42236e-05
-4.9105e-05 1.42236e-05 -0.000305398
0.000608911 -0.000309627 -7.82314e-06
-0.000309627 0.000274786 9.28702e-06
-7.82314e-06 9.28702e-06 5.63655e-05
0.00387351 -0.000631222 3.04566e-05
-0.000631222 0.00165668 2.34528e-06
3.04566e-05 2.34528e-06 0.00148535
-0.00287155 -5.11072e-05 -1.51721e-06
-5.11072e-05 -0.00159795 1.03691e-05
-1.51721e-06 1.03691e-05 -0.00183612
0.000833025 -0.000355292 4.34287e-06
-0.000355292 7.8483e-05 2.01029e-06
4.34287e-06 2.01029e-06 -0.000192464
0.00227783 -0.000582891 5.23278e-06
-0.000582891 0.000548404 1.41279e-06
5.23278e-06 1.41279e-06 0.000287247
0.00306271 -0.000530665 -1.51797e-05
-0.000530665 0.00130354 5.06463e-06
-1.51797e-05 5.06463e-06 0.000936996
0.00129917 -0.000424109 -2.36304e-06
-0.000424109 0.000226962 -3.88947e-06
-2.36304e-06 -3.88947e-06 -0.00017115
0.00177898 -0.000551101 4.87288e-06
-0.000551101 0.000259017 -6.18907e-06
4.87288e-06 -6.18907e-06 -5.43965e-05
0.00258783 -0.00054441 -3.54616e-06
-0.00054441 0.000875902 -1.12803e-06
-3.54616e-06 -1.12803e-06 0.00048795
0.00166936 -0.000479567 2.49396e-07
-0.000479567 0.000329205 -3.63401e-06
2.49396e-07 -3.63401e-06 -3.7096e-05
0.00209155 -0.000488549 5.57083e-07
-0.000488549 0.000410719 -6.83523e-06
5.57083e-07 -6.83523e-06 0.000140754
0.0016827 -0.00037633 -3.58674e-06
-0.00037633 0.00011812 -3.30314e-06
-3.58674e-06 -3.30314e-06 -9.27935e-05
0.00159976 -0.000451838 1.37914e-06
-0.000451838 0.000168955 -7.54261e-07
1.37914e-06 -7.54261e-07 -0.000104632
0.00179932 -0.000457717 1.96643e-06
-0.000457717 0.00030535 -2.51399e-06
1.96643e-06 -2.51399e-06 3.01144e-05
0.0017085 -0.000397166 -3.75012e-07
-0.000397166 0.000376264 1.7552e-06
-3.75012e-07 1.7552e-06 0.000109787
0.001803 -0.000470144 -2.15327e-06
-0.000470144 0.000387389 1.36429e-07
-2.15327e-06 1.36429e-07 8.68607e-05
0.00175724 -0.000481387 1.4982e-06
-0.000481387 0.000361663 -3.73046e-06
1.4982e-06 -3.73046e-06 3.29879e-05
0.00134295 -0.000289968 3.2901e-06
-0.000289968 0.000301565 1.10432e-06
3.2901e-06 1.10432e-06 7.42656e-05
0.000848007 -0.000266618 9.02988e-07
-0.000266618 -2.30685e-05 -2.57041e-09
9.02988e-07 -2.57041e-09 -0.000245664
0.00125947 -0.00031448 4.05151e-06
-0.00031448 0.000199801 -3.25697e-06
4.05151e-06 -3.25697e-06 -3.8058e-05
0.000658484 -0.000192626 -2.52669e-07
-0.000192626 4.05699e-05 3.71615e-07
-2.52669e-07 3.71615e-07 -0.000157763
0.000931463 -0.000225765 1.94184e-08
-0.000225765 0.000158033 -3.30353e-07
1.94184e-08 -3.30353e-07 -6.01867e-05
0.000797719 -0.000229743 -3.77089e-06
-0.000229743 2.83403e-05 -1.6624e-06
-3.77089e-06 -1.6624e-06 -0.000185498
0.000304231 1.42311e-05 2.13168e-07
1.42311e-05 -0.000139072 5.04591e-06
2.13168e-07 5.04591e-06 -0.000254553
0.000779536 -0.00011244 1.10077e-06
-0.00011244 0.000173961 5.45927e-07
1.10077e-06 5.45927e-07 -1.17628e-05
0.00106156 -0.000167366 -2.22102e-06
-0.000167366 0.0003414 2.61709e-07
-2.22102e-06 2.61709e-07 0.00014225
0.00144682 8.73995e-05 -1.77876e-05
8.73995e-05 0.000542737 4.8622e-06
-1.77876e-05 4.8622e-06 0.000508327
0.000676548 -1.17936e-05 -8.98753e-08
-1.17936e-05 7.19214e-05 -6.23646e-07
-8.98753e-08 -6.23646e-07 -1.64642e-05
0.00119582 -7.49022e-05 -1.75837e-06
-7.49022e-05 0.00042049 -1.6798e-06
-1.75837e-06 -1.6798e-06 0.000268922
0.000739436 4.96044e-05 -2.94996e-05
4.96044e-05 0.000111401 3.79197e-06
-2.94996e-05 3.79197e-06 0.000108548
0.000986808 6.7907e-05 -9.06679e-06
6.7907e-05 0.000256244 -1.32545e-07
-9.06679e-06 -1.32545e-07 0.000227063
0.000664464 2.52131e-06 1.1396e-06
2.52131e-06 5.64048e-05 -3.50361e-06
1.1396e-06 -3.50361e-06 -1.64983e-05
0.000546317 5.46935e-05 -2.9266e-07
5.46935e-05 -1.67628e-05 -5.4212e-06
-2.9266e-07 -5.4212e-06 -4.37682e-05
0.00246275 0.000104328 4.22987e-06
0.000104328 0.00114242 3.82995e-07
4.22987e-06 3.82995e-07 0.00114595
0.00239929 9.08364e-05 2.27525e-05
9.08364e-05 0.00109694 -3.94092e-06
2.27525e-05 -3.94092e-06 0.00110356
0.000744698 6.59937e-05 6.93365e-07
6.59937e-05 0.000122681 9.43994e-07
6.93365e-07 9.43994e-07 -3.16598e-06
0.000790589 8.02375e-05 5.18882e-07
8.02375e-05 0.000167951 -2.02334e-06
5.18882e-07 -2.02334e-06 3.86142e-05
0.000597946 4.98525e-05 -3.52537e-07
4.98525e-05 3.33198e-05 4.66503e-07
-3.52537e-07 4.66503e-07 -8.93089e-05
0.000637851 9.24348e-06 -1.08673e-07
9.24348e-06 3.73766e-05 -3.10328e-06
-1.08673e-07 -3.10328e-06 -3.79142e-05
0.000725135 6.67251e-05 5.80261e-07
6.67251e-05 0.000116995 3.25517e-08
5.80261e-07 3.25517e-08 2.51583e-06
0.000541523 -1.98536e-05 -8.69929e-07
-1.98536e-05 -3.37751e-05 -5.6189e-06
-8.69929e-07 -5.6189e-06 -5.79828e-05
0.000607398 2.27019e-05 -2.58526e-08
2.27019e-05 2.03086e-05 -1.31349e-07
-2.58526e-08 -1.31349e-07 -4.96596e-05
0.00073179 6.8174e-05 -8.18765e-07
6.8174e-05 0.000137439 1.63437e-06
-8.18765e-07 1.63437e-06 1.61525e-05
0.00248723 -6.80897e-05 -2.79423e-05
-6.80897e-05 0.00113546 -4.50324e-06
-2.79423e-05 -4.50324e-06 0.00114659
0.000532802 -2.1014e-05 -5.14429e-07
-2.1014e-05 -4.356e-05 -5.21958e-08
-5.14429e-07 -5.21958e-08 -6.33106e-05
0.000602039 3.16086e-05 2.40669e-07
3.16086e-05 1.72593e-05 2.56023e-06
2.40669e-07 2.56023e-06 -4.60964e-05
0.0023488 -5.2114e-05 -4.47738e-06
-5.2114e-05 0.00104808 2.4088e-07
-4.47738e-06 2.4088e-07 0.00106209
0.000534347 -1.82771e-05 -1.08852e-06
-1.82771e-05 -4.54254e-05 4.21161e-06
-1.08852e-06 4.21161e-06 -6.10338e-05
0.00221816 -3.56266e-05 1.63374e-05
-3.56266e-05 0.000966573 4.59471e-06
1.63374e-05 4.59471e-06 0.00098312
0.00488816 0.000113071 0.000115159
0.000113071 0.00201713 2.42306e-05
0.000115159 2.42306e-05 0.000815313
0.000134549 -6.737e-05 -8.03498e-07
-6.737e-05 -2.96884e-05 -5.76161e-07
-8.03498e-07 -5.76161e-07 4.2871e-05
0.00129875 -7.40924e-05 -1.81463e-05
-7.40924e-05 -0.000424785 4.27034e-06
-1.81463e-05 4.27034e-06 -0.000104789
0.000451995 0.000103622 -6.17496e-06
0.000103622 -6.10837e-05 -1.74388e-06
-6.17496e-06 -1.74388e-06 -0.000187736
0.000818025 6.52618e-05 -1.12705e-06
6.52618e-05 0.000166276 9.35887e-08
-1.12705e-06 9.35887e-08 4.31071e-05
0.000510361 3.93699e-05 5.90111e-07
3.93699e-05 -4.11917e-05 8.13419e-08
5.90111e-07 8.13419e-08 -0.000159627
0.000820529 4.18351e-05 1.16918e-07
4.18351e-05 0.000151643 -1.92903e-07
1.16918e-07 -1.92903e-07 3.04453e-05
0.000714044 8.1311e-05 -7.95797e-07
8.1311e-05 8.14282e-05 2.08661e-07
-7.95797e-07 2.08661e-07 -3.92587e-05
0.0012014 0.000143359 6.08895e-07
0.000143359 0.000402863 -7.694e-07
6.08895e-07 -7.694e-07 0.00025951
0.000862068 0.000110191 -1.08269e-06
0.000110191 0.000174936 -6.81988e-06
-1.08269e-06 -6.81988e-06 1.25305e-05
1.67468e-05 2.60705e-05 7.26662e-07
2.60705e-05 -0.000270677 9.20747e-07
7.26662e-07 9.20747e-07 -0.000413088
0.000797774 0.000118406 -1.81886e-06
0.000118406 0.00016461 1.08207e-06
-1.81886e-06 1.08207e-06 2.98347e-05
0.000420326 2.39104e-05 -3.25614e-06
2.39104e-05 -8.25804e-05 -2.59188e-06
-3.25614e-06 -2.59188e-06 -0.000193996
0.000529523 5.98289e-05 -1.07546e-07
5.98289e-05 2.6128e-05 9.67808e-07
-1.07546e-07 9.67808e-07 -0.000112299
0.0015606 0.000172078 9.90006e-06
0.000172078 0.000685051 6.22495e-06
9.90006e-06 6.22495e-06 0.000528512
0.00104967 -0.000995237 0.000125487
-0.000995237 0.00272982 0.000207854
0.000125487 0.000207854 0.000422379
0.00375329 0.000367713 2.64815e-05
0.000367713 0.00207119 9.18277e-05
2.64815e-05 9.18277e-05 -0.00128014
0.000922001 0.000113924 -2.38908e-05
0.000113924 0.00024707 -4.37405e-05
-2.38908e-05 -4.37405e-05 -0.00144209
0.0105072 -0.00216608 -0.000284827
-0.00216608 0.00165708 -0.000206095
-0.000284827 -0.000206095 0.00228933
0.00577338 -0.000786459 7.78076e-05
-0.000786459 0.00155323 0.00026528
7.78076e-05 0.00026528 4.63492e-05
0.00088186 -0.000839799 -0.000103359
-0.000839799 0.00207649 8.98147e-05
-0.000103359 8.98147e-05 -0.00284563
0.000950518 -0.000362653 8.25411e-06
-0.000362653 0.000186574 5.50954e-05
8.25411e-06 5.50954e-05 -0.000373883
0.00223617 -0.000110274 2.84749e-05
-0.000110274 0.000695946 5.25964e-05
2.84749e-05 5.25964e-05 0.000320549
0.00137385 -0.00289194 0.000141091
-0.00289194 -0.000238522 0.00015205
0.000141091 0.00015205 0.000885762
0.00459702 0.000971175 -1.54794e-05
0.000971175 0.00369247 -2.91713e-05
-1.54794e-05 -2.91713e-05 -0.00090225
0.00336408 -0.00147533 -4.5292e-05
-0.00147533 -0.000521916 5.68265e-05
-4.5292e-05 5.68265e-05 -0.00127958
0.000559424 0.000333317 -9.79014e-06
0.000333317 4.66413e-05 5.09455e-05
-9.79014e-06 5.09455e-05 -7.55689e-05
0.00826987 0.00119484 -4.43892e-05
0.00119484 0.00381493 -2.30862e-05
-4.43892e-05 -2.30862e-05 0.00055894
0.00446635 -0.00245111 -0.000281426
-0.00245111 0.000255219 -0.000236204
-0.000281426 -0.000236204 0.00021004
0.000887892 0.000340658 6.54198e-06
0.000340658 0.000209322 -1.28513e-05
6.54198e-06 -1.28513e-05 5.98077e-05
0.000630549 9.53219e-05 2.76874e-06
9.53219e-05 0.000160285 -3.42451e-07
2.76874e-06 -3.42451e-07 2.41194e-05
0.000401629 4.25433e-05 -3.99216e-06
4.25433e-05 -1.78078e-05 -2.09895e-06
-3.99216e-06 -2.09895e-06 -0.000175321
-0.000106656 -8.42618e-05 -0.000163208
-8.42618e-05 0.00107371 -4.42812e-05
-0.000163208 -4.42812e-05 -0.000142743
-0.00190404 0.000151569 1.89039e-06
0.000151569 -0.00096607 -1.63743e-05
1.89039e-06 -1.63743e-05 -0.00129007
-0.000124664 9.8953e-05 -5.67869e-06
9.8953e-05 -0.000116963 4.47698e-06
-5.67869e-06 4.47698e-06 -0.000339631
0.000550345 0.000327651 1.22252e-05
0.000327651 0.000268783 3.24359e-06
1.22252e-05 3.24359e-06 1.6162e-05
0.000708452 0.000276012 8.94006e-07
0.000276012 0.000594049 -3.42568e-05
8.94006e-07 -3.42568e-05 -0.000149915
-5.27079e-05 0.000549548 3.20698e-05
0.000549548 -0.000442711 7.5993e-06
3.20698e-05 7.5993e-06 -0.000821757
-0.00170212 0.00038223 0.000172122
0.00038223 0.00355331 4.52138e-06
0.000172122 4.52138e-06 0.00057835
0.00214262 -1.47646e-05 -5.73434e-06
-1.47646e-05 0.00135234 2.55267e-05
-5.73434e-06 2.55267e-05 -0.000311577
-0.00024259 -1.69777e-05 1.96171e-07
-1.69777e-05 0.000269911 1.76779e-05
1.96171e-07 1.76779e-05 -0.000142363
0.000126321 -0.000141453 -5.61346e-05
-0.000141453 0.000519 5.59568e-06
-5.61346e-05 5.59568e-06 -3.3156e-05
-0.000490122 -0.000108712 -6.40091e-05
-0.000108712 -0.00101655 2.41606e-05
-6.40091e-05 2.41606e-05 -0.000779652
0.00116635 -0.000130416 -9.93507e-05
-0.000130416 0.000191473 3.83135e-05
-9.93507e-05 3.83135e-05 -0.00157989
-0.00233974 -0.00155572 8.33177e-05
-0.00155572 5.90605e-05 -0.000107308
8.33177e-05 -0.000107308 -0.00415903
-0.00046971 0.00203216 0.000231076
0.00203216 -0.00320312 -0.00020356
0.000231076 -0.00020356 -0.00292181
0.00304648 0.000933808 -0.000226464
0.000933808 0.00383655 0.000170437
-0.000226464 0.000170437 0.00241643
0.00148366 -0.000244373 -6.63858e-06
-0.000244373 0.000621311 -2.32185e-06
-6.63858e-06 -2.32185e-06 0.000567358
0.00147447 0.000203657 3.69968e-05
0.000203657 0.00389322 6.23067e-06
3.69968e-05 6.23067e-06 0.00224335
-0.00318928 0.00142817 2.55361e-05
0.00142817 -0.000721168 1.80127e-05
2.55361e-05 1.80127e-05 -0.00236119
0.00356898 -0.00121039 5.0972e-05
-0.00121039 0.00126102 -1.43529e-05
5.0972e-05 -1.43529e-05 0.000725704
0.0120029 -0.00101418 1.7556e-05
-0.00101418 0.00372835 -1.21359e-05
1.7556e-05 -1.21359e-05 0.00180827
0.00319696 -0.000748024 -1.12378e-05
-0.000748024 0.00110977 2.26189e-05
-1.12378e-05 2.26189e-05 0.00109267
-0.00848234 0.000541044 -0.000233562
0.000541044 -0.00379235 1.00659e-05
-0.000233562 1.00659e-05 -0.00484696
0.0128355 -0.000600932 -0.000108613
-0.000600932 0.00315994 3.38946e-05
-0.000108613 3.38946e-05 0.00159556
0.00335738 -0.00135586 2.65738e-05
-0.00135586 -0.000152885 -2.78886e-05
2.65738e-05 -2.78886e-05 -0.000583599
-0.000103741 -0.000216809 -1.46481e-05
-0.000216809 -4.45102e-05 1.64935e-05
-1.46481e-05 1.64935e-05 -0.000331596
0.0015871 -0.000473845 -3.8864e-06
-0.000473845 0.000327225 1.03023e-06
-3.8864e-06 1.03023e-06 0.00027774
0.00371991 -0.000601405 1.188e-05
-0.000601405 0.00126391 -4.28716e-06
1.188e-05 -4.28716e-06 0.00113993
-0.00139772 -0.000129546 -5.38921e-06
-0.000129546 -0.00106113 2.54816e-06
-5.38921e-06 2.54816e-06 -0.00133267
0.00130992 -0.000485172 -5.49273e-06
-0.000485172 7.77066e-05 -2.73655e-06
-5.49273e-06 -2.73655e-06 -0.000192719
0.0023143 -0.000613805 3.63002e-06
-0.000613805 0.000411249 -9.79986e-07
3.63002e-06 -9.79986e-07 0.000176199
0.00133294 -0.000419367 -1.58771e-05
-0.000419367 0.000222583 -1.49934e-06
-1.58771e-05 -1.49934e-06 -0.000155715
0.00154607 -0.000519384 -1.49432e-08
-0.000519384 0.000145084 3.82062e-07
-1.49432e-08 3.82062e-07 -0.000170886
0.00159756 -0.000460767 1.17574e-06
-0.000460767 -1.01812e-05 -5.85827e-06
1.17574e-06 -5.85827e-06 -0.000218009
0.00126803 -0.000447323 -4.13025e-06
-0.000447323 8.26248e-05 -4.89769e-07
-4.13025e-06 -4.89769e-07 -0.000269258
0.0016425 -0.00044527 -4.58032e-07
-0.00044527 0.00016465 6.12863e-07
-4.58032e-07 6.12863e-07 -9.74228e-05
0.00175228 -0.000369826 -1.59752e-06
-0.000369826 9.68728e-05 -5.21565e-06
-1.59752e-06 -5.21565e-06 -7.31118e-05
0.00164731 -0.000296013 -4.63403e-06
-0.000296013 5.03585e-05 -2.84019e-06
-4.63403e-06 -2.84019e-06 -9.72567e-05
0.00153999 -0.000364659 -3.6025e-06
-0.000364659 5.5061e-05 -2.13835e-06
-3.6025e-06 -2.13835e-06 -0.00016065
0.00164586 -0.000365479 1.10117e-06
-0.000365479 0.000104432 1.70156e-06
1.10117e-06 1.70156e-06 -0.00010114
0.00145501 -0.000388967 -2.58084e-06
-0.000388967 0.000133685 -1.00306e-06
-2.58084e-06 -1.00306e-06 -0.000121502
0.00169795 -0.000454146 1.67242e-06
-0.000454146 0.000235694 -1.91841e-07
1.67242e-06 -1.91841e-07 -3.55757e-05
0.00167502 -0.000445583 1.78187e-06
-0.000445583 0.000236695 1.81822e-07
1.78187e-06 1.81822e-07 -3.46683e-05
0.00144367 -0.000321525 -1.92659e-06
-0.000321525 0.000272908 1.70677e-06
-1.92659e-06 1.70677e-06 3.72088e-05
0.00153825 -0.000383706 1.05247e-06
-0.000383706 0.000279448 -5.22515e-07
1.05247e-06 -5.22515e-07 1.521e-05
0.00175042 -0.000465415 -2.33859e-06
-0.000465415 0.000374471 -1.60353e-06
-2.33859e-06 -1.60353e-06 6.97387e-05
0.000927554 -0.000221654 -1.68839e-06
-0.000221654 0.000105959 2.64048e-06
-1.68839e-06 2.64048e-06 -9.59918e-05
0.00120587 -0.000276714 1.33985e-06
-0.000276714 0.000214606 3.55155e-07
1.33985e-06 3.55155e-07 -9.91322e-06
0.00102159 -0.000278433 -5.65223e-07
-0.000278433 8.23882e-05 -3.52059e-06
-5.65223e-07 -3.52059e-06 -0.000139229
0.000656249 -9.65216e-05 -1.03595e-06
-9.65216e-05 5.62248e-05 5.22687e-06
-1.03595e-06 5.22687e-06 -9.53497e-05
0.000997809 -0.00019996 2.38285e-08
-0.00019996 0.000238574 4.90571e-08
2.38285e-08 4.90571e-08 3.79352e-05
0.000505041 -0.000183226 -3.71328e-06
-0.000183226 -9.33537e-05 -7.49142e-07
-3.71328e-06 -7.49142e-07 -0.000302236
0.000378451 3.48487e-05 -7.32177e-07
3.48487e-05 -9.81914e-05 8.39741e-06
-7.32177e-07 8.39741e-06 -0.0001449
0.000683752 -6.15628e-05 -6.64862e-07
-6.15628e-05 8.52531e-05 -4.78321e-07
-6.64862e-07 -4.78321e-07 -3.81143e-05
0.00131078 -0.000135982 9.65074e-07
-0.000135982 0.000494905 -1.85449e-06
9.65074e-07 -1.85449e-06 0.000300061
0.00272512 0.000150023 -6.10594e-06
0.000150023 0.00131768 2.07208e-06
-6.10594e-06 2.07208e-06 0.00130824
0.000517892 4.67731e-05 -3.02374e-07
4.67731e-05 -2.02574e-05 -2.00577e-07
-3.02374e-07 -2.00577e-07 -5.72583e-05
0.000835407 -3.65911e-05 2.50721e-06
-3.65911e-05 0.000165186 -4.43451e-06
2.50721e-06 -4.43451e-06 7.39734e-05
0.00257384 0.000118246 4.21944e-06
0.000118246 0.00121638 3.39159e-07
4.21944e-06 3.39159e-07 0.00121667
0.000561865 5.04958e-05 2.55346e-07
5.04958e-05 3.68917e-07 -5.97064e-06
2.55346e-07 -5.97064e-06 -3.03106e-05
0.00252269 0.000106621 2.94479e-05
0.000106621 0.00117906 -3.39232e-06
2.94479e-05 -3.39232e-06 0.00118213
0.000884322 0.000129368 1.21333e-06
0.000129368 0.000197377 2.37746e-06
1.21333e-06 2.37746e-06 5.5885e-05
0.000768068 7.71814e-05 9.18336e-08
7.71814e-05 0.000139173 1.52988e-08
9.18336e-08 1.52988e-08 9.27562e-06
0.000820919 6.82885e-05 2.63287e-07
6.82885e-05 0.000189579 -2.66895e-06
2.63287e-07 -2.66895e-06 4.96412e-05
0.000651515 8.35768e-06 -6.04465e-07
8.35768e-06 5.09309e-05 -3.88569e-06
-6.04465e-07 -3.88569e-06 -3.12165e-05
0.000714978 4.88393e-05 2.79064e-07
4.88393e-05 0.000113942 2.70298e-07
2.79064e-07 2.70298e-07 -8.43975e-06
0.000550703 6.56055e-05 8.31088e-07
6.56055e-05 1.22382e-05 1.42357e-06
8.31088e-07 1.42357e-06 -0.000116366
0.000547774 -1.99816e-05 -1.54035e-06
-1.99816e-05 -2.63941e-05 -6.23157e-06
-1.54035e-06 -6.23157e-06 -5.47949e-05
0.000621784 1.57102e-05 -2.78728e-08
1.57102e-05 3.1222e-05 -8.9493e-08
-2.78728e-08 -8.9493e-08 -4.52599e-05
0.000681667 6.30869e-05 8.75171e-08
6.30869e-05 8.73944e-05 1.42137e-06
8.75171e-08 1.42137e-06 -2.23353e-05
0.00262665 -8.29383e-05 -3.59605e-05
-8.29383e-05 0.00122441 -4.23415e-06
-3.59605e-05 -4.23415e-06 0.00123262
0.000517517 -2.11127e-05 1.07268e-07
-2.11127e-05 -4.84735e-05 -1.06243e-07
1.07268e-07 -1.06243e-07 -7.23754e-05
0.000610746 2.56742e-05 1.18581e-07
2.56742e-05 2.30823e-05 2.88405e-06
1.18581e-07 2.88405e-06 -4.71983e-05
0.00246114 -6.71424e-05 -4.92447e-06
-6.71424e-05 0.00111935 3.11516e-07
-4.92447e-06 3.11516e-07 0.00113074
0.000524493 -2.20937e-05 -9.3984e-07
-2.20937e-05 -4.84408e-05 4.89279e-06
-9.3984e-07 4.89279e-06 -6.80558e-05
0.00231291 -5.06209e-05 2.04763e-05
-5.06209e-05 0.00102621 4.50761e-06
2.04763e-05 4.50761e-06 0.0010406
-0.0062857 0.000332214 -1.03258e-05
0.000332214 0.00159124 4.74255e-05
-1.03258e-05 4.74255e-05 -0.00155555
0.00468121 3.75404e-05 -5.10636e-06
3.75404e-05 0.00220111 3.6113e-06
-5.10636e-06 3.6113e-06 0.000997384
0.000180362 -7.0803e-05 -8.08407e-06
-7.0803e-05 -5.69667e-05 -6.464e-06
-8.08407e-06 -6.464e-06 -1.61752e-05
0.00038235 7.17809e-05 -1.44428e-06
7.17809e-05 -0.00010638 1.46412e-06
-1.44428e-06 1.46412e-06 -0.000226811
0.00250356 0.000360229 3.32676e-07
0.000360229 0.00116752 4.11864e-06
3.32676e-07 4.11864e-06 0.000971757
0.000643058 7.43592e-05 -3.67052e-06
7.43592e-05 4.65715e-05 -2.38404e-07
-3.67052e-06 -2.38404e-07 -9.01495e-05
0.00102491 4.49789e-05 -1.09743e-06
4.49789e-05 0.000267857 -2.05431e-06
-1.09743e-06 -2.05431e-06 0.000148622
0.00136232 0.000139204 2.6419e-06
0.000139204 0.000460788 1.60406e-07
2.6419e-06 1.60406e-07 0.000334122
0.000333256 5.20767e-05 -2.91618e-06
5.20767e-05 -0.000127035 3.21335e-06
-2.91618e-06 3.21335e-06 -0.000245642
0.000516322 7.08065e-05 -1.15719e-06
7.08065e-05 2.86926e-05 1.28298e-06
-1.15719e-06 1.28298e-06 -0.000125191
0.000686333 8.72469e-05 -1.8544e-06
8.72469e-05 7.58143e-05 -2.21881e-06
-1.8544e-06 -2.21881e-06 -7.90843e-05
0.000977814 0.000165458 2.37505e-06
0.000165458 0.000289498 -4.76854e-06
2.37505e-06 -4.76854e-06 9.2304e-05
0.000595182 0.000247738 2.31796e-06
0.000247738 -3.01263e-05 -2.78008e-06
2.31796e-06 -2.78008e-06 -0.000143245
0.0010137 8.80691e-05 -3.11471e-06
8.80691e-05 0.000318277 4.66795e-07
-3.11471e-06 4.66795e-07 0.000169569
0.00105091 0.000148089 6.53499e-07
0.000148089 0.000389976 3.38095e-06
6.53499e-07 3.38095e-06 0.000233033
-0.00476383 -0.00104101 -0.000487749
-0.00104101 -0.00084077 -3.04447e-05
-0.000487749 -3.04447e-05 -0.00237477
-0.00327093 -0.00074459 0.00019902
-0.00074459 0.00186863 9.89067e-05
0.00019902 9.89067e-05 -0.000787126
0.00433252 0.000413644 -0.000170148
0.000413644 0.00208001 -7.8368e-05
-0.000170148 -7.8368e-05 -0.00140676
-0.00745875 -0.00297368 0.000697089
-0.00297368 -0.00271883 0.000545453
0.000697089 0.000545453 -0.00175659
0.0147128 -0.0017042 -4.60806e-05
-0.0017042 0.00451652 0.000159559
-4.60806e-05 0.000159559 0.00407734
-0.00164808 0.00112352 -6.19905e-06
0.00112352 0.000458657 -8.61175e-05
-6.19905e-06 -8.61175e-05 -0.00388591
0.00243713 1.59449e-06 -0.000137681
1.59449e-06 0.00118245 2.5295e-05
-0.000137681 2.5295e-05 0.000252162
0.00213575 0.000440304 4.76172e-06
0.000440304 0.000794872 2.63894e-05
4.76172e-06 2.63894e-05 0.000539747
0.0105519 -0.00189096 -0.000208588
-0.00189096 0.00489649 5.60614e-05
-0.000208588 5.60614e-05 0.00447422
-0.000271353 0.00124138 -1.93822e-05
0.00124138 0.00054838 -3.3145e-05
-1.93822e-05 -3.3145e-05 -0.00296915
0.00193723 0.000885898 -3.14199e-05
0.000885898 0.000375265 -6.01337e-05
-3.14199e-05 -6.01337e-05 0.00040785
0.00426793 0.00182954 -0.00020283
0.00182954 6.70053e-05 -0.000115427
-0.00020283 -0.000115427 -0.00234128
0.00227239 0.000678055 1.79383e-05
0.000678055 0.00064283 -2.02008e-05
1.79383e-05 -2.02008e-05 0.000395861
0.000824114 0.000315011 -4.63762e-06
0.000315011 0.000176317 5.53002e-07
-4.63762e-06 5.53002e-07 3.66906e-05
0.00113438 0.000103402 -6.8837e-06
0.000103402 0.000440569 4.28991e-06
-6.8837e-06 4.28991e-06 0.000315613
-0.00106154 0.000218076 -4.86818e-05
0.000218076 -0.000416661 -4.94178e-05
-4.86818e-05 -4.94178e-05 -0.00106881
0.0025754 0.000493589 -2.38464e-05
0.000493589 0.00130783 -1.60547e-05
-2.38464e-05 -1.60547e-05 0.00105335
0.00132081 0.0006761 1.39313e-05
0.0006761 0.000201372 -4.09403e-06
1.39313e-05 -4.09403e-06 -0.00017453
0.00298856 0.00105165 0.000107022
0.00105165 0.000403234 3.33763e-05
0.000107022 3.33763e-05 0.000251172
-0.00490501 -0.000111486 -0.00030315
-0.000111486 -0.00397354 6.19726e-06
-0.00030315 6.19726e-06 -0.00275301
-0.00377721 0.000215262 0.000151598
0.000215262 0.00296324 2.81441e-06
0.000151598 2.81441e-06 -0.000129502
0.00228742 -6.00443e-05 -7.57161e-05
-6.00443e-05 0.00148204 3.10196e-05
-7.57161e-05 3.10196e-05 0.000218438
0.00194063 -0.000315856 -5.43908e-05
-0.000315856 0.000670663 -3.88554e-05
-5.43908e-05 -3.88554e-05 0.000612993
0.00130612 -0.00103093 -1.401e-05
-0.00103093 -0.000110895 1.60283e-05
-1.401e-05 1.60283e-05 -0.000456391
0.00146036 0.000156135 -1.92113e-05
0.000156135 0.00380515 3.17458e-05
-1.92113e-05 3.17458e-05 0.00230189
0.00283711 -0.00110949 0.00019759
-0.00110949 -1.2011e-05 -0.000136377
0.00019759 -0.000136377 -0.00252997
0.0114985 0.00138768 0.000183582
0.00138768 0.00532343 -9.09411e-06
0.000183582 -9.09411e-06 0.00429346
0.00268265 -0.000872706 -2.33746e-05
-0.000872706 0.000683383 7.35223e-06
-2.33746e-05 7.35223e-06 0.000494965
-0.000276648 0.000628045 9.90223e-05
0.000628045 -0.000411485 -2.44385e-05
9.90223e-05 -2.44385e-05 -0.00109168
0.00523112 -0.000555173 -6.5083e-05
-0.000555173 -0.000550987 6.24867e-05
-6.5083e-05 6.24867e-05 -0.00273426
0.00564614 -0.00149389 -3.53474e-05
-0.00149389 0.00104439 1.76323e-05
-3.53474e-05 1.76323e-05 0.000554728
0.00155513 -0.000615898 5.05699e-05
-0.000615898 5.76244e-05 -1.26863e-05
5.05699e-05 -1.26863e-05 -0.000162936
0.01075 -0.000487186 5.47463e-06
-0.000487186 0.00253616 -2.59147e-05
5.47463e-06 -2.59147e-05 0.000982005
0.00357623 -0.000797872 7.95016e-05
-0.000797872 -0.000778007 -4.73217e-05
7.95016e-05 -4.73217e-05 -0.000558288
-0.00101705 -0.000274307 -2.37352e-05
-0.000274307 -0.00114841 1.25161e-05
-2.37352e-05 1.25161e-05 -0.00109135
0.000367537 -0.000363325 -1.17748e-05
-0.000363325 -0.000565534 -7.95835e-07
-1.17748e-05 -7.95835e-07 -0.0006064
0.00368013 -0.000617605 3.27537e-05
-0.000617605 0.000988285 -1.88041e-05
3.27537e-05 -1.88041e-05 0.000922037
0.000316781 -0.000382166 -1.37489e-05
-0.000382166 -0.000409294 -7.79816e-06
-1.37489e-05 -7.79816e-06 -0.000681615
0.00177606 -0.000559122 9.85703e-08
-0.000559122 0.000141384 -9.84356e-07
9.85703e-08 -9.84356e-07 -8.07665e-05
0.00225391 -0.00051369 -6.15175e-07
-0.00051369 0.000202978 -1.02656e-06
-6.15175e-07 -1.02656e-06 5.98613e-05
0.00159428 -0.000513086 -3.04306e-06
-0.000513086 0.000174921 4.37228e-06
-3.04306e-06 4.37228e-06 -0.00014506
0.001838 -0.00047872 -2.02112e-06
-0.00047872 0.000118612 8.0726e-07
-2.02112e-06 8.0726e-07 -9.4039e-05
0.00189997 -0.000373166 3.89637e-07
-0.000373166 7.19013e-05 -9.08635e-07
3.89637e-07 -9.08635e-07 -5.46771e-05
0.00126342 -0.000406995 3.62926e-06
-0.000406995 -4.32772e-05 4.52894e-06
3.62926e-06 4.52894e-06 -0.000298024
0.00173607 -0.000361833 -1.84555e-07
-0.000361833 9.51988e-05 1.02956e-06
-1.84555e-07 1.02956e-06 -7.29967e-05
0.0017888 -0.000307125 -3.48795e-06
-0.000307125 7.28284e-05 -1.16369e-06
-3.48795e-06 -1.16369e-06 -4.34896e-05
0.00200204 -0.0002927 -3.19033e-06
-0.0002927 0.000262653 -4.22276e-07
-3.19033e-06 -4.22276e-07 0.000143515
0.00172903 -0.000298733 -2.52853e-06
-0.000298733 9.25839e-05 3.16352e-06
-2.52853e-06 3.16352e-06 -5.04683e-05
0.00176827 -0.000314313 -1.77796e-06
-0.000314313 0.000154054 -5.38992e-06
-1.77796e-06 -5.38992e-06 -8.89286e-06
0.00169021 -0.000365179 -4.30094e-06
-0.000365179 0.000180212 -1.97871e-06
-4.30094e-06 -1.97871e-06 -3.87459e-05
0.00168691 -0.000375215 1.25224e-06
-0.000375215 0.000141585 4.66554e-07
1.25224e-06 4.66554e-07 -7.50272e-05
0.00161425 -0.000355002 4.16467e-06
-0.000355002 9.26873e-05 5.973e-06
4.16467e-06 5.973e-06 -0.000107556
0.00153545 -0.000344928 -6.67787e-06
-0.000344928 0.000246039 1.53389e-06
-6.67787e-06 1.53389e-06 9.24539e-06
0.00146055 -0.000390597 -5.00796e-07
-0.000390597 0.00013211 2.88387e-07
-5.00796e-07 2.88387e-07 -0.000123505
0.00178063 -0.000455789 3.05751e-06
-0.000455789 0.000292941 5.17773e-07
3.05751e-06 5.17773e-07 2.39496e-05
0.0010687 -0.000243468 -4.48418e-06
-0.000243468 0.000109902 3.47598e-06
-4.48418e-06 3.47598e-06 -9.73378e-05
0.00131207 -0.00031106 4.05477e-07
-0.00031106 0.000192583 3.18472e-07
4.05477e-07 3.18472e-07 -4.21213e-05
0.00139302 -0.000373021 2.45243e-06
-0.000373021 0.000195593 -1.95635e-06
2.45243e-06 -1.95635e-06 -6.63981e-05
0.000815963 -0.000160115 -5.61594e-06
-0.000160115 0.000108927 5.01883e-06
-5.61594e-06 5.01883e-06 -5.99387e-05
0.00109929 -0.000237451 7.98749e-07
-0.000237451 0.000208343 -2.53797e-07
7.98749e-07 -2.53797e-07 3.34098e-06
0.00107863 -0.000265388 1.15393e-06
-0.000265388 0.000133231 -1.68555e-06
1.15393e-06 -1.68555e-06 -8.91756e-05
0.000333624 -2.26996e-05 -6.57415e-06
-2.26996e-05 -0.000143665 1.14663e-05
-6.57415e-06 1.14663e-05 -0.00020072
0.000726838 -0.00011468 6.35859e-07
-0.00011468 0.000103374 6.76082e-07
6.35859e-07 6.76082e-07 -5.59092e-05
0.00132952 -0.000220896 4.3078e-07
-0.000220896 0.000433813 -1.32231e-06
4.3078e-07 -1.32231e-06 0.000227422
0.00310107 0.000156297 -5.16767e-05
0.000156297 0.00154623 2.44501e-06
-5.16767e-05 2.44501e-06 0.0015363
0.000518156 1.96272e-05 -1.89437e-07
1.96272e-05 -2.12035e-05 -6.69836e-07
-1.89437e-07 -6.69836e-07 -6.7141e-05
0.00110833 -0.000106183 2.08985e-06
-0.000106183 0.000340065 -5.24644e-06
2.08985e-06 -5.24644e-06 0.000207761
0.00184429 0.000104823 2.51524e-05
0.000104823 0.000784211 4.86955e-07
2.51524e-05 4.86955e-07 0.000776463
0.000614311 3.98251e-05 2.15031e-06
3.98251e-05 3.49572e-05 -7.13795e-06
2.15031e-06 -7.13795e-06 -1.29833e-06
0.00267959 0.000120131 4.05698e-05
0.000120131 0.00127973 -2.81833e-06
4.05698e-05 -2.81833e-06 0.00127973
0.00090026 0.000142182 4.01168e-06
0.000142182 0.000179949 9.02629e-07
4.01168e-06 9.02629e-07 3.98352e-05
0.00055053 7.68765e-05 -1.97526e-07
7.68765e-05 -5.84795e-06 1.25665e-07
-1.97526e-07 1.25665e-07 -0.00013296
0.00062807 5.74976e-05 -2.76866e-07
5.74976e-05 5.06466e-05 -1.51254e-06
-2.76866e-07 -1.51254e-06 -7.94894e-05
0.00092371 9.97431e-05 4.67162e-07
9.97431e-05 0.000234912 4.29233e-07
4.67162e-07 4.29233e-07 9.93085e-05
0.000703793 4.25599e-05 2.15743e-07
4.25599e-05 9.91502e-05 3.70191e-08
2.15743e-07 3.70191e-08 -2.42997e-05
0.000667872 1.31393e-05 -1.01208e-06
1.31393e-05 6.19841e-05 -4.64827e-06
-1.01208e-06 -4.64827e-06 -2.76041e-05
0.000560746 -2.09674e-05 -2.27548e-06
-2.09674e-05 -1.23412e-05 -7.12749e-06
-2.27548e-06 -7.12749e-06 -4.53735e-05
0.000611616 8.39475e-06 2.51686e-07
8.39475e-06 2.85467e-05 -7.59045e-08
2.51686e-07 -7.59045e-08 -5.4272e-05
0.000631955 2.21726e-05 -4.96794e-07
2.21726e-05 4.3013e-05 1.88364e-06
-4.96794e-07 1.88364e-06 -6.34618e-05
0.0027301 -9.64724e-05 -4.52067e-05
-9.64724e-05 0.00129286 -3.92705e-06
-4.52067e-05 -3.92705e-06 0.0012983
0.000517135 -1.80197e-05 -2.69124e-08
-1.80197e-05 -4.36779e-05 -9.06366e-08
-2.69124e-08 -9.06366e-08 -7.19237e-05
0.000590717 1.93598e-05 4.5074e-07
1.93598e-05 1.6598e-05 3.20796e-06
4.5074e-07 3.20796e-06 -6.13904e-05
0.00259645 -8.25389e-05 -5.25276e-06
-8.25389e-05 0.00120584 3.59054e-07
-5.25276e-06 3.59054e-07 0.00121417
0.000506717 -2.50587e-05 -1.43158e-07
-2.50587e-05 -5.45927e-05 5.52116e-06
-1.43158e-07 5.52116e-06 -7.85537e-05
0.00246548 -6.6517e-05 2.56211e-05
-6.6517e-05 0.00112152 4.44827e-06
2.56211e-05 4.44827e-06 0.00113302
-1.86513e-05 0.0003161 -0.00026839
0.0003161 0.00188529 1.86283e-05
-0.00026839 1.86283e-05 0.000632646
-0.00318361 2.56491e-05 1.91387e-05
2.56491e-05 0.00213558 1.40663e-05
1.91387e-05 1.40663e-05 -0.00103863
0.00438643 -2.51422e-05 -7.89546e-05
-2.51422e-05 0.00228548 -1.05754e-05
-7.89546e-05 -1.05754e-05 0.00108856
0.000462522 4.61711e-05 2.45777e-06
4.61711e-05 -6.14665e-05 -2.45721e-06
2.45777e-06 -2.45721e-06 -0.000176316
0.000648084 5.57852e-05 2.81321e-06
5.57852e-05 4.59532e-05 1.07661e-06
2.81321e-06 1.07661e-06 -9.69052e-05
0.00173243 0.000280003 -1.61789e-06
0.000280003 0.000715138 1.09376e-06
-1.61789e-06 1.09376e-06 0.000538666
0.00133577 0.000297467 3.41823e-06
0.000297467 0.000381818 -2.42798e-06
3.41823e-06 -2.42798e-06 0.000156315
0.00106964 0.000215931 -5.99752e-06
0.000215931 0.000355003 1.46271e-08
-5.99752e-06 1.46271e-08 0.000167687
0.000908324 0.000121651 2.41321e-07
0.000121651 0.000263187 3.01128e-06
2.41321e-07 3.01128e-06 0.000101065
0.000841113 0.00011092 4.88912e-06
0.00011092 0.000178572 3.50442e-06
4.88912e-06 3.50442e-06 2.45509e-05
0.000618265 0.000167987 -4.7657e-06
0.000167987 9.20329e-05 -3.37353e-06
-4.7657e-06 -3.37353e-06 -9.96553e-05
-0.000370575 0.000156244 9.92089e-07
0.000156244 -0.000559047 -5.49221e-07
9.92089e-07 -5.49221e-07 -0.000745776
0.00167462 0.000359984 4.07224e-06
0.000359984 0.00050737 -2.93821e-06
4.07224e-06 -2.93821e-06 0.000374195
0.0020202 0.000573103 6.38222e-06
0.000573103 0.000421264 -6.9414e-06
6.38222e-06 -6.9414e-06 0.000209749
0.000835587 0.000274547 -5.9101e-06
0.000274547 0.000121819 -7.10299e-07
-5.9101e-06 -7.10299e-07 -4.11323e-06
0.000750855 0.000108527 -2.30939e-06
0.000108527 0.000163597 -2.37327e-06
-2.30939e-06 -2.37327e-06 1.99162e-05
0.0117603 0.000999722 -0.000101539
0.000999722 0.00277361 4.09164e-05
-0.000101539 4.09164e-05 0.001295
-9.01073e-05 -0.0008234 -0.000227251
-0.0008234 0.00229542 -7.82645e-05
-0.000227251 -7.82645e-05 0.000676267
-0.00143647 -0.00119933 0.000142298
-0.00119933 0.00188109 6.2743e-06
0.000142298 6.2743e-06 -0.000816261
-0.000832302 -0.00106006 5.14041e-05
-0.00106006 -1.21837e-05 0.000180188
5.14041e-05 0.000180188 -0.000492781
0.0113394 0.00143373 -5.3659e-06
0.00143373 0.00492555 2.68556e-06
-5.3659e-06 2.68556e-06 0.00158837
-0.000301074 0.000291908 -2.32024e-05
0.000291908 -0.000361038 -2.57716e-05
-2.32024e-05 -2.57716e-05 -0.000551223
0.00164944 0.000815724 -2.4534e-05
0.000815724 0.000339608 -1.21159e-05
-2.4534e-05 -1.21159e-05 0.000352722
0.0112022 0.0012713 2.50986e-05
0.0012713 0.00350499 2.41144e-05
2.50986e-05 2.41144e-05 0.0014819
0.00593839 0.00168162 -4.39837e-05
0.00168162 0.000902359 -5.52583e-05
-4.39837e-05 -5.52583e-05 0.000510837
0.00159096 0.000684766 4.47112e-06
0.000684766 0.000137447 -6.41865e-06
4.47112e-06 -6.41865e-06 -3.86093e-05
0.0011403 0.000522234 5.90134e-06
0.000522234 0.000169343 -5.07399e-07
5.90134e-06 -5.07399e-07 -6.01176e-05
0.000925012 0.000291972 -1.80012e-05
0.000291972 0.000252912 1.72291e-05
-1.80012e-05 1.72291e-05 0.000123565
0.00267012 0.000840801 -4.77725e-05
0.000840801 0.000778941 -1.97449e-05
-4.77725e-05 -1.97449e-05 0.000417014
0.00191564 0.000953827 2.05849e-06
0.000953827 -0.000262902 1.96096e-05
2.05849e-06 1.96096e-05 -0.00041444
0.00106965 -0.000369353 -4.04819e-05
-0.000369353 -0.00331837 2.42973e-05
-4.04819e-05 2.42973e-05 -0.00354477
0.00200438 -0.000575063 -1.92888e-07
-0.000575063 0.00127212 -2.3538e-05
-1.92888e-07 -2.3538e-05 0.00133804
-0.00604658 2.13509e-05 0.00017521
2.13509e-05 0.00245871 -4.8498e-06
0.00017521 -4.8498e-06 -0.000789198
0.00165502 -0.000885894 -2.86237e-05
-0.000885894 6.3806e-05 6.75979e-06
-2.86237e-05 6.75979e-06 -0.000229145
0.00328749 -0.00133966 3.37831e-05
-0.00133966 0.000460483 -2.54722e-06
3.37831e-05 -2.54722e-06 -0.000333147
0.00125367 -0.000302407 0.000306509
-0.000302407 0.00220636 -2.96117e-05
0.000306509 -2.96117e-05 0.00117476
0.0128514 -0.000688467 -0.000152347
-0.000688467 0.00339112 7.0599e-05
-0.000152347 7.0599e-05 0.00179223
0.00110863 -0.000608381 -3.01783e-05
-0.000608381 -0.000203554 -2.50718e-06
-3.01783e-05 -2.50718e-06 -0.000372945
0.00889642 5.24059e-05 -7.60511e-05
5.24059e-05 0.000896412 3.21809e-05
-7.60511e-05 3.21809e-05 -0.00017711
0.00488642 -0.000878254 8.12488e-05
-0.000878254 -0.000121027 6.51802e-06
8.12488e-05 6.51802e-06 -0.000304287
0.00365014 -0.00061329 5.75557e-05
-0.00061329 0.00100328 -1.56699e-05
5.75557e-05 -1.56699e-05 0.000674812
0.0032135 -0.000322384 -8.74853e-05
-0.000322384 -0.000232863 6.9776e-06
-8.74853e-05 6.9776e-06 -0.000129381
-0.00248542 -0.000174348 -1.37788e-05
-0.000174348 -0.00214519 5.24333e-06
-1.37788e-05 5.24333e-06 -0.00210363
0.00151821 -0.000480531 -1.3055e-06
-0.000480531 -0.000167778 -5.08046e-07
-1.3055e-06 -5.08046e-07 -0.00019983
0.00249738 -0.000431567 1.83401e-05
-0.000431567 0.000209266 -9.75659e-06
1.83401e-05 -9.75659e-06 0.00024224
0.00111769 -0.00049832 -2.89283e-06
-0.00049832 -0.000188048 3.20154e-06
-2.89283e-06 3.20154e-06 -0.00039841
0.00180881 -0.000471421 -2.07899e-06
-0.000471421 -1.20009e-05 5.57116e-07
-2.07899e-06 5.57116e-07 -0.000151105
0.00205152 -0.000375039 2.1003e-06
-0.000375039 1.64022e-05 8.59246e-07
2.1003e-06 8.59246e-07 -3.55373e-05
0.0019118 -0.000481282 -4.84916e-06
-0.000481282 0.000161803 6.66986e-06
-4.84916e-06 6.66986e-06 -5.37091e-05
0.00188608 -0.000371469 3.73673e-07
-0.000371469 6.46709e-05 1.7782e-06
3.73673e-07 1.7782e-06 -5.98401e-05
0.00189585 -0.000333073 -2.86459e-07
-0.000333073 7.72214e-05 2.07436e-06
-2.86459e-07 2.07436e-06 -1.02817e-05
0.00169906 -0.000353556 3.6534e-06
-0.000353556 8.0639e-05 5.76552e-06
3.6534e-06 5.76552e-06 -8.5849e-05
0.0017746 -0.000309332 -4.3632e-07
-0.000309332 6.29213e-05 1.45347e-06
-4.3632e-07 1.45347e-06 -5.45022e-05
0.00200458 -0.000315088 -1.30956e-06
-0.000315088 0.000206933 5.65432e-07
-1.30956e-06 5.65432e-07 0.000100946
0.00185718 -0.000287035 -4.03516e-06
-0.000287035 0.000169287 3.49536e-06
-4.03516e-06 3.49536e-06 5.3717e-05
0.00189053 -0.000297359 1.03816e-06
-0.000297359 0.00021863 -3.04653e-06
1.03816e-06 -3.04653e-06 8.63879e-05
0.00180839 -0.000301915 3.24524e-06
-0.000301915 0.000133601 7.82338e-06
3.24524e-06 7.82338e-06 -5.03735e-06
0.00177148 -0.00031534 3.22362e-07
-0.00031534 0.000154674 -8.15088e-07
3.22362e-07 -8.15088e-07 -8.78704e-06
0.00169766 -0.000314886 -1.73332e-06
-0.000314886 0.000143334 -3.38236e-06
-1.73332e-06 -3.38236e-06 -3.73485e-05
0.00161825 -0.000330212 -5.31147e-06
-0.000330212 0.00020888 -9.89084e-07
-5.31147e-06 -9.89084e-07 -7.81715e-06
0.00173188 -0.000369185 2.79503e-07
-0.000369185 0.000206004 -2.77668e-07
2.79503e-07 -2.77668e-07 -1.43264e-05
0.00183034 -0.000385544 4.68938e-06
-0.000385544 0.000226695 2.84273e-06
4.68938e-06 2.84273e-06 9.20704e-06
0.00115674 -0.00024837 -7.35724e-06
-0.00024837 9.33333e-05 2.53693e-06
-7.35724e-06 2.53693e-06 -0.000108651
0.00138829 -0.000330532 -9.18937e-07
-0.000330532 0.000162252 2.32033e-07
-9.18937e-07 2.32033e-07 -7.27483e-05
0.0014575 -0.000390823 2.9474e-06
-0.000390823 0.000125802 6.99455e-07
2.9474e-06 6.99455e-07 -0.000129929
0.000833792 -0.000172799 -7.7059e-06
-0.000172799 4.81758e-05 6.46349e-06
-7.7059e-06 6.46349e-06 -0.000120521
0.0011381 -0.000250033 8.41984e-07
-0.000250033 0.000149914 4.9772e-07
8.41984e-07 4.9772e-07 -5.88847e-05
0.00111577 -0.000293157 3.3257e-06
-0.000293157 7.66995e-05 -1.40092e-06
3.3257e-06 -1.40092e-06 -0.000155433
0.000394671 -9.5979e-05 -1.68507e-05
-9.5979e-05 -0.000135197 1.33524e-05
-1.68507e-05 1.33524e-05 -0.000204808
0.000794756 -0.000172991 -4.44604e-07
-0.000172991 9.61939e-05 3.47057e-07
-4.44604e-07 3.47057e-07 -7.44517e-05
0.00115796 -0.000237711 2.17857e-06
-0.000237711 0.000244069 -1.9897e-06
2.17857e-06 -1.9897e-06 3.9586e-05
0.00382798 0.000175833 -8.23288e-05
0.000175833 0.00198342 3.05238e-06
-8.23288e-05 3.05238e-06 0.00196891
0.000549538 -4.27682e-05 1.27568e-06
-4.27682e-05 -1.93215e-05 -3.5212e-07
1.27568e-06 -3.5212e-07 -7.82677e-05
0.000866556 -0.000164368 4.86175e-06
-0.000164368 0.000186743 -4.57402e-06
4.86175e-06 -4.57402e-06 2.12046e-05
0.00332958 0.000146399 9.81574e-06
0.000146399 0.00167881 3.56017e-07
9.81574e-06 3.56017e-07 0.00167224
0.00070068 1.7258e-06 7.1623e-06
1.7258e-06 8.17838e-05 -9.46861e-06
7.1623e-06 -9.46861e-06 3.58018e-05
0.00296711 0.000126346 6.47523e-05
0.000126346 0.0014556 -2.19043e-06
6.47523e-05 -2.19043e-06 0.00145466
0.000977475 0.000234621 4.41689e-06
0.000234621 0.000168441 -4.16836e-06
4.41689e-06 -4.16836e-06 -3.55958e-05
0.000856 0.000166798 1.32902e-06
0.000166798 0.000163041 -1.959e-07
1.32902e-06 -1.959e-07 1.43135e-05
0.000373732 6.23067e-05 7.85944e-07
6.23067e-05 -0.000111199 -7.34337e-07
7.85944e-07 -7.34337e-07 -0.000247408
0.0001839 3.507e-05 -4.05697e-07
3.507e-05 -0.0002216 -9.95738e-07
-4.05697e-07 -9.95738e-07 -0.000339951
0.000499601 2.83147e-05 -2.94159e-07
2.83147e-05 -2.92772e-05 7.21802e-07
-2.94159e-07 7.21802e-07 -0.000155699
0.000670774 2.22079e-05 -1.36238e-06
2.22079e-05 6.20589e-05 -4.85328e-06
-1.36238e-06 -4.85328e-06 -3.71913e-05
0.000600903 1.99026e-05 5.65201e-08
1.99026e-05 2.82373e-05 2.15045e-06
5.65201e-08 2.15045e-06 -8.62852e-05
0.000605891 6.18876e-06 3.17399e-07
6.18876e-06 2.73569e-05 -2.2877e-07
3.17399e-07 -2.2877e-07 -6.23219e-05
0.000568301 -2.33749e-05 -2.87238e-06
-2.33749e-05 -1.86432e-06 -8.04164e-06
-2.87238e-06 -8.04164e-06 -3.95373e-05
0.00288177 -0.000111319 -5.49039e-05
-0.000111319 0.00139218 -3.48417e-06
-5.49039e-05 -3.48417e-06 0.00139426
0.000509694 -2.04363e-05 2.31534e-07
-2.04363e-05 -4.23789e-05 -4.80514e-08
2.31534e-07 -4.80514e-08 -7.51146e-05
0.000576099 9.82589e-06 8.82755e-07
9.82589e-06 8.52617e-06 3.97447e-06
8.82755e-07 3.97447e-06 -7.4673e-05
0.00274745 -9.79534e-05 -5.70338e-06
-9.79534e-05 0.00130307 4.41821e-07
-5.70338e-06 4.41821e-07 0.00130807
0.000477742 -2.34829e-05 5.98498e-07
-2.34829e-05 -6.58068e-05 6.17668e-06
5.98498e-07 6.17668e-06 -9.4245e-05
0.00257483 -8.18672e-05 3.17171e-05
-8.18672e-05 0.00119216 4.29455e-06
3.17171e-05 4.29455e-06 0.00120068
0.0119191 0.000545572 0.000226488
0.000545572 0.00267181 6.3244e-05
0.000226488 6.3244e-05 0.0017782
-0.00329184 -0.00109348 -0.000162501
-0.00109348 -0.00260127 -2.41022e-05
-0.000162501 -2.41022e-05 -0.00299027
-0.00597733 0.000508759 -8.19629e-05
0.000508759 0.00108053 -4.63204e-05
-8.19629e-05 -4.63204e-05 -0.0026714
0.000526288 2.80772e-05 1.07948e-05
2.80772e-05 -3.26943e-05 1.56015e-06
1.07948e-05 1.56015e-06 -0.000180772
0.000970383 0.000205794 -4.62271e-06
0.000205794 0.000263873 1.03283e-06
-4.62271e-06 1.03283e-06 0.000106898
0.00134239 0.000236192 -8.01089e-07
0.000236192 0.000496581 -1.17408e-06
-8.01089e-07 -1.17408e-06 0.000306949
0.00145144 0.000305297 -4.34844e-06
0.000305297 0.000460136 1.2314e-06
-4.34844e-06 1.2314e-06 0.000235308
0.000705255 0.00027608 1.33788e-05
0.00027608 -0.000129146 2.21925e-06
1.33788e-05 2.21925e-06 -0.000374849
9.50408e-05 0.000188505 1.68819e-06
0.000188505 -0.000296092 -2.13435e-06
1.68819e-06 -2.13435e-06 -0.000491301
0.000271839 0.000150547 -3.85238e-06
0.000150547 -9.40838e-05 -2.64081e-06
-3.85238e-06 -2.64081e-06 -0.000281653
0.000327425 0.000232678 1.43341e-06
0.000232678 -0.000183532 1.8348e-06
1.43341e-06 1.8348e-06 -0.000393695
0.00118252 0.000331903 -1.78536e-07
0.000331903 0.000244328 1.01754e-06
-1.78536e-07 1.01754e-06 0.000104279
0.000696005 0.000343633 5.78216e-06
0.000343633 -0.000137227 2.14553e-06
5.78216e-06 2.14553e-06 -0.000334464
0.00304185 0.000624576 -1.83339e-06
0.000624576 0.000953708 -2.77734e-06
-1.83339e-06 -2.77734e-06 0.00076265
0.00205702 0.00060366 -2.31766e-06
0.00060366 0.000363934 6.13642e-06
-2.31766e-06 6.13642e-06 0.000166496
0.0014028 0.000517034 4.07811e-06
0.000517034 0.000100586 -3.68795e-06
4.07811e-06 -3.68795e-06 -8.94439e-05
0.000308411 0.000249608 -3.41238e-06
0.000249608 -0.000162979 1.48904e-06
-3.41238e-06 1.48904e-06 -0.000294506
0.00584991 0.00076516 -1.18268e-05
0.00076516 0.00026987 1.17642e-05
-1.18268e-05 1.17642e-05 0.000614441
0.010039 0.000887568 0.00011557
0.000887568 0.00180652 5.68999e-05
0.00011557 5.68999e-05 0.000158443
0.00599909 -0.00167713 0.00013117
-0.00167713 0.0033203 -5.54744e-05
0.00013117 -5.54744e-05 0.00234199
0.00375533 0.00169974 0.000361196
0.00169974 -0.000153825 0.000179774
0.000361196 0.000179774 -0.00371759
0.000809417 0.000628651 -5.42131e-05
0.000628651 7.38547e-05 -6.01465e-06
-5.42131e-05 -6.01465e-06 0.000249586
0.00340907 0.00127709 -9.14266e-05
0.00127709 -0.000105056 -2.768e-05
-9.14266e-05 -2.768e-05 -0.000222393
0.00418822 0.00105825 4.46596e-05
0.00105825 0.000764562 2.00792e-05
4.46596e-05 2.00792e-05 0.000697046
0.00316748 0.000838569 1.02884e-05
0.000838569 0.00083938 5.28391e-06
1.02884e-05 5.28391e-06 0.000655945
0.000649423 0.000448486 -1.16947e-05
0.000448486 -3.80583e-05 1.80414e-05
-1.16947e-05 1.80414e-05 -0.000250217
0.00447161 0.00118237 -0.000131975
0.00118237 0.000945231 -2.50598e-05
-0.000131975 -2.50598e-05 0.000730742
0.00298262 -0.000243202 -5.47582e-05
-0.000243202 0.000371625 6.32348e-06
-5.47582e-05 6.32348e-06 0.000234669
0.0101572 -0.000316221 -1.37242e-05
-0.000316221 0.00244181 5.72602e-06
-1.37242e-05 5.72602e-06 0.00188171
-0.0098432 -0.000834527 0.000346493
-0.000834527 -0.00547807 -6.60526e-06
0.000346493 -6.60526e-06 -0.00512774
0.000228602 -0.000553035 -5.02143e-05
-0.000553035 -0.000739927 1.28579e-05
-5.02143e-05 1.28579e-05 -0.000848382
0.00722503 -0.0011501 0.000105196
-0.0011501 0.000926139 3.81638e-05
0.000105196 3.81638e-05 0.000871555
0.00157975 -0.000357978 -3.46461e-05
-0.000357978 -0.00224489 5.97953e-05
-3.46461e-05 5.97953e-05 -0.00385099
0.00165514 -0.000448915 1.66613e-05
-0.000448915 -0.000126643 1.42801e-06
1.66613e-05 1.42801e-06 -0.000265869
0.00307557 -0.000199272 -9.83987e-06
-0.000199272 -0.000346135 4.4009e-06
-9.83987e-06 4.4009e-06 -0.000326563
0.00436231 -0.000447247 2.57297e-05
-0.000447247 0.00100207 -1.17775e-05
2.57297e-05 -1.17775e-05 0.00110421
0.00371102 -0.000116531 7.1028e-05
-0.000116531 0.000859706 1.85438e-06
7.1028e-05 1.85438e-06 0.000815714
-0.000628708 -0.000356863 -6.8456e-06
-0.000356863 -0.00132735 7.64542e-06
-6.8456e-06 7.64542e-06 -0.00131569
0.00179658 -0.000396452 -4.40259e-07
-0.000396452 -0.000168976 4.65577e-07
-4.40259e-07 4.65577e-07 -0.000121038
0.00186115 -0.000281508 1.47757e-05
-0.000281508 -0.000210344 -3.47388e-06
1.47757e-05 -3.47388e-06 -8.1603e-05
0.00154133 -0.000443993 -3.32614e-07
-0.000443993 -0.000141933 2.48202e-06
-3.32614e-07 2.48202e-06 -0.000278338
0.00199125 -0.000373816 1.67957e-06
-0.000373816 -1.36921e-05 6.93671e-07
1.67957e-06 6.93671e-07 -6.6285e-05
0.00193243 -0.000309901 8.47419e-07
-0.000309901 2.7579e-05 8.55785e-07
8.47419e-07 8.55785e-07 3.82777e-06
0.00185339 -0.000368293 3.14348e-06
-0.000368293 4.62764e-05 3.80271e-06
3.14348e-06 3.80271e-06 -7.58186e-05
0.00187658 -0.000328148 7.19436e-07
-0.000328148 7.50019e-05 3.03608e-07
7.19436e-07 3.03608e-07 -1.13145e-05
0.00195675 -0.000297159 -2.6706e-06
-0.000297159 0.000130752 1.73324e-06
-2.6706e-06 1.73324e-06 5.04041e-05
0.00177212 -0.000311637 4.3327e-06
-0.000311637 5.99989e-05 3.40643e-06
4.3327e-06 3.40643e-06 -5.84208e-05
0.00184424 -0.000307925 2.45063e-07
-0.000307925 0.000122104 4.648e-07
2.45063e-07 4.648e-07 1.61061e-05
0.0017157 -0.000285676 2.5635e-06
-0.000285676 8.30867e-05 -1.40061e-06
2.5635e-06 -1.40061e-06 -3.10313e-05
0.00171692 -0.000281587 -1.5023e-06
-0.000281587 7.88888e-05 6.72399e-06
-1.5023e-06 6.72399e-06 -3.31799e-05
0.00190224 -0.000294308 -2.22235e-06
-0.000294308 0.000222124 2.05259e-07
-2.22235e-06 2.05259e-07 9.36204e-05
0.00183576 -0.000292232 4.51905e-07
-0.000292232 0.000208124 -2.00091e-06
4.51905e-07 -2.00091e-06 5.30459e-05
0.00177456 -0.000315747 2.87865e-06
-0.000315747 0.00015514 3.71628e-06
2.87865e-06 3.71628e-06 -8.65918e-06
0.00174397 -0.000318747 5.2276e-07
-0.000318747 0.00017208 -5.85473e-07
5.2276e-07 -5.85473e-07 -9.82988e-06
0.00173769 -0.000298207 -2.1267e-06
-0.000298207 0.000232156 -1.61834e-06
-2.1267e-06 -1.61834e-06 4.252e-05
0.00122329 -0.000244795 -9.13054e-06
-0.000244795 7.72177e-05 2.57679e-06
-9.13054e-06 2.57679e-06 -0.000116994
0.00161914 -0.00033096 -9.91975e-07
-0.00033096 0.000213491 -2.84153e-07
-9.91975e-07 -2.84153e-07 -4.53388e-06
0.00176935 -0.000372833 4.15896e-06
-0.000372833 0.000229901 1.08793e-06
4.15896e-06 1.08793e-06 8.23404e-06
0.000921508 -0.000184835 -1.09325e-05
-0.000184835 3.83529e-05 6.34255e-06
-1.09325e-05 6.34255e-06 -0.000126499
0.00118467 -0.000252751 -2.05714e-07
-0.000252751 0.000104607 5.84627e-08
-2.05714e-07 5.84627e-08 -9.84739e-05
0.00128138 -0.000320413 2.3806e-06
-0.000320413 0.000100436 -4.00768e-07
2.3806e-06 -4.00768e-07 -0.000133588
0.000433611 -0.000125113 -1.90481e-05
-0.000125113 -0.000135029 1.43739e-05
-1.90481e-05 1.43739e-05 -0.000215523
0.000838526 -0.000177228 6.11518e-07
-0.000177228 5.35477e-05 4.79211e-07
6.11518e-07 4.79211e-07 -0.00011629
0.00122939 -0.000258898 6.68619e-06
-0.000258898 0.000202142 -2.36976e-06
6.68619e-06 -2.36976e-06 -8.57482e-06
0.0046341 0.000188364 -0.000122804
0.000188364 0.00246713 6.32858e-06
-0.000122804 6.32858e-06 0.00244818
0.000556425 -0.000100083 -2.31923e-07
-0.000100083 -3.9148e-05 -3.10283e-07
-2.31923e-07 -3.10283e-07 -0.000113053
0.000764715 -0.000185522 7.00679e-06
-0.000185522 7.61997e-05 -5.8686e-06
7.00679e-06 -5.8686e-06 -9.53314e-05
0.00406516 0.000146087 1.00285e-05
0.000146087 0.00211808 5.21489e-07
1.00285e-05 5.21489e-07 0.00211054
0.000713034 -5.23663e-05 1.28008e-05
-5.23663e-05 7.44998e-05 -1.16264e-05
1.28008e-05 -1.16264e-05 1.39572e-05
0.00350969 0.000111801 0.000109381
0.000111801 0.00177912 -4.80263e-06
0.000109381 -4.80263e-06 0.00178091
0.00127307 0.000287969 -3.76302e-06
0.000287969 0.00023527 -4.21286e-06
-3.76302e-06 -4.21286e-06 2.58097e-06
0.00142829 0.000275912 1.22253e-06
0.000275912 0.000441079 6.92788e-07
1.22253e-06 6.92788e-07 0.000229713
0.00065479 0.000159211 2.43315e-07
0.000159211 1.52319e-05 -5.93033e-06
2.43315e-07 -5.93033e-06 -0.000164533
0.000697902 0.0001768 -2.62547e-06
0.0001768 8.15238e-05 -3.62243e-07
-2.62547e-06 -3.62243e-07 -7.43288e-05
0.000386481 7.36902e-05 4.52141e-07
7.36902e-05 -0.000104632 -5.70447e-07
4.52141e-07 -5.70447e-07 -0.00024599
0.000779781 0.000103303 -2.68887e-06
0.000103303 0.000134694 -5.26073e-06
-2.68887e-06 -5.26073e-06 7.97315e-06
0.000346691 7.24549e-06 1.58605e-07
7.24549e-06 -0.000125349 1.62415e-06
1.58605e-07 1.62415e-06 -0.000246815
0.000631029 2.1295e-05 1.97879e-08
2.1295e-05 4.04518e-05 -2.47997e-07
1.97879e-08 -2.47997e-07 -5.89376e-05
0.000578652 -1.80849e-05 -3.88222e-06
-1.80849e-05 8.62049e-06 -9.00968e-06
-3.88222e-06 -9.00968e-06 -3.40748e-05
0.000555381 3.08266e-06 8.54782e-07
3.08266e-06 -2.11648e-06 4.6193e-06
8.54782e-07 4.6193e-06 -9.10326e-05
0.000508771 -2.09514e-05 2.83781e-07
-2.09514e-05 -3.6739e-05 -7.96832e-08
2.83781e-07 -7.96832e-08 -7.39522e-05
0.00302336 -0.000123505 -6.64601e-05
-0.000123505 0.00148575 -2.95816e-06
-6.64601e-05 -2.95816e-06 0.00148496
0.00285343 -0.000112259 -4.63075e-06
-0.000112259 0.00137468 4.51511e-07
-4.63075e-06 4.51511e-07 0.00137634
0.000474994 -1.24072e-05 3.07224e-06
-1.24072e-05 -6.34499e-05 7.08652e-06
3.07224e-06 7.08652e-06 -9.54415e-05
0.0026992 -9.72849e-05 3.89355e-05
-9.72849e-05 0.00127377 4.02162e-06
3.89355e-05 4.02162e-06 0.00127881
0.00367172 4.93466e-05 3.67318e-05
4.93466e-05 -0.000299137 1.30772e-05
3.67318e-05 1.30772e-05 -1.53876e-05
0.00311572 -0.000595528 7.31579e-05
-0.000595528 -0.00244204 3.419e-05
7.31579e-05 3.419e-05 -0.00353254
0.00819765 -0.0011374 -0.000101302
-0.0011374 0.00308098 -6.12197e-05
-0.000101302 -6.12197e-05 0.00336466
0.00114623 0.000347216 6.46097e-06
0.000347216 3.09304e-06 4.89892e-06
6.46097e-06 4.89892e-06 -0.000246316
0.00169072 0.000269475 8.75357e-07
0.000269475 0.000685897 1.86152e-06
8.75357e-07 1.86152e-06 0.000491221
0.00164313 0.000321365 -5.78449e-06
0.000321365 0.000584284 7.72532e-06
-5.78449e-06 7.72532e-06 0.000358227
0.000769729 0.000260338 1.61756e-06
0.000260338 8.74577e-05 2.55274e-06
1.61756e-06 2.55274e-06 -0.000124439
0.00123243 0.000326819 -1.34229e-06
0.000326819 0.000193995 -1.41859e-06
-1.34229e-06 -1.41859e-06 -6.41115e-05
0.00113887 0.000385344 8.49751e-06
0.000385344 9.59054e-05 6.53082e-06
8.49751e-06 6.53082e-06 -0.000136394
0.00106458 0.000312518 -8.30126e-06
0.000312518 0.000219485 -4.08248e-06
-8.30126e-06 -4.08248e-06 -1.53297e-05
0.000624549 0.000300758 3.06525e-06
0.000300758 -5.8011e-05 3.76734e-06
3.06525e-06 3.76734e-06 -0.000201504
0.00129191 0.000405058 2.35604e-06
0.000405058 0.000187023 -1.11403e-06
2.35604e-06 -1.11403e-06 -2.00491e-05
0.00217385 0.000547493 2.94463e-06
0.000547493 0.000473498 6.28623e-06
2.94463e-06 6.28623e-06 0.000301219
0.00171643 0.000542444 3.6735e-06
0.000542444 0.000143459 6.16956e-07
3.6735e-06 6.16956e-07 -6.37327e-05
0.00176766 0.000509308 7.21364e-06
0.000509308 0.000187808 8.16425e-06
7.21364e-06 8.16425e-06 4.59863e-05
0.00121443 0.000533719 -3.24339e-06
0.000533719 -8.53346e-05 -2.79926e-06
-3.24339e-06 -2.79926e-06 -0.000271642
0.000644229 0.000443604 -2.21199e-06
0.000443604 -0.000292775 -8.70025e-07
-2.21199e-06 -8.70025e-07 -0.000456969
0.00159367 0.000426417 3.2724e-05
0.000426417 -0.000266218 3.48659e-05
3.2724e-05 3.48659e-05 -0.000192211
0.00528124 0.000862602 -5.56311e-05
0.000862602 -0.000274028 -1.57353e-05
-5.56311e-05 -1.57353e-05 4.23346e-05
0.00232716 0.000555913 0.00031369
0.000555913 -0.00230962 4.22851e-05
0.00031369 4.22851e-05 -0.00414946
0.000306793 0.000926989 -2.81817e-05
0.000926989 -0.00136754 -2.61131e-05
-2.81817e-05 -2.61131e-05 -0.00140272
0.00288616 0.000851931 -2.67971e-05
0.000851931 0.000393944 -3.68471e-06
-2.67971e-05 -3.68471e-06 0.000315429
0.00273587 0.000789415 -7.0616e-05
0.000789415 0.000618565 -2.46714e-05
-7.0616e-05 -2.46714e-05 0.000431395
0.00235081 -0.00020333 -1.9487e-05
-0.00020333 -2.66679e-05 -1.06959e-05
-1.9487e-05 -1.06959e-05 1.29978e-06
0.000769593 -8.99758e-05 1.9259e-05
-8.99758e-05 -0.000276296 6.84912e-06
1.9259e-05 6.84912e-06 -0.000358958
0.0012679 0.000766077 0.000100917
0.000766077 -0.00337184 -1.93028e-05
0.000100917 -1.93028e-05 -0.00378248
-0.000443651 -0.000289091 -2.09563e-05
-0.000289091 -0.00127647 3.30759e-05
-2.09563e-05 3.30759e-05 -0.00122281
0.00400054 -0.000173596 -4.89254e-05
-0.000173596 0.000112147 3.83225e-05
-4.89254e-05 3.83225e-05 -0.000157105
0.00227215 -0.000325194 -1.73909e-05
-0.000325194 -7.12726e-05 6.39003e-06
-1.73909e-05 6.39003e-06 6.46254e-05
0.00325688 -0.000159379 -8.78362e-07
-0.000159379 0.000559925 -3.62995e-06
-8.78362e-07 -3.62995e-06 0.00051658
0.00160933 -0.000185423 3.34136e-05
-0.000185423 -0.000390346 -2.34422e-06
3.34136e-05 -2.34422e-06 -0.000221313
0.00330442 -4.52141e-05 2.70044e-05
-4.52141e-05 0.000996968 9.03489e-08
2.70044e-05 9.03489e-08 0.000957096
0.00110596 -0.000357052 -1.80404e-05
-0.000357052 -0.000529593 8.72782e-06
-1.80404e-05 8.72782e-06 -0.000470999
0.00182798 -0.000292099 3.13818e-07
-0.000292099 -0.000245921 2.16502e-06
3.13818e-07 2.16502e-06 -0.000129232
0.00202257 -0.000281289 2.12551e-06
-0.000281289 -6.87233e-05 -9.78413e-07
2.12551e-06 -9.78413e-07 1.02316e-05
0.00191627 -0.000369541 -4.8093e-07
-0.000369541 -4.75921e-05 1.93896e-06
-4.8093e-07 1.93896e-06 -0.000100713
0.00193863 -0.000315015 3.98318e-07
-0.000315015 3.10193e-05 4.41697e-08
3.98318e-07 4.41697e-08 2.77283e-06
0.00195809 -0.000277058 -1.90512e-06
-0.000277058 7.29377e-05 3.67979e-07
-1.90512e-06 3.67979e-07 2.34742e-05
0.00187229 -0.000324431 3.86973e-07
-0.000324431 8.15262e-05 1.95744e-07
3.86973e-07 1.95744e-07 -4.12403e-06
0.00187052 -0.000299836 -6.2025e-07
-0.000299836 8.6019e-05 5.95894e-08
-6.2025e-07 5.95894e-08 2.18659e-06
0.00181286 -0.000265096 -2.20938e-07
-0.000265096 0.000103707 4.64175e-07
-2.20938e-07 4.64175e-07 4.83141e-06
0.00167306 -0.000300136 5.71668e-07
-0.000300136 3.13007e-05 6.12971e-07
5.71668e-07 6.12971e-07 -7.46674e-05
0.00174755 -0.000287597 8.54907e-07
-0.000287597 9.92937e-05 -6.96626e-07
8.54907e-07 -6.96626e-07 -1.52623e-05
0.00177195 -0.000274978 1.67342e-06
-0.000274978 0.000134156 -2.06624e-06
1.67342e-06 -2.06624e-06 -2.81522e-07
0.00191249 -0.000290989 -4.31171e-06
-0.000290989 0.000225232 4.77229e-06
-4.31171e-06 4.77229e-06 0.000100507
0.00189619 -0.000293432 -1.43256e-06
-0.000293432 0.000240509 3.963e-07
-1.43256e-06 3.963e-07 8.89752e-05
0.00173267 -0.000271076 -1.32246e-06
-0.000271076 0.000198843 -1.25431e-06
-1.32246e-06 -1.25431e-06 2.71203e-05
0.0017918 -0.000323069 2.6867e-06
-0.000323069 0.000201622 1.9673e-06
2.6867e-06 1.9673e-06 1.838e-05
0.00172463 -0.000299649 8.57369e-07
-0.000299649 0.000225171 -6.1923e-07
8.57369e-07 -6.1923e-07 3.45538e-05
0.00133782 -0.000229289 -7.27316e-06
-0.000229289 0.000105534 1.85248e-06
-7.27316e-06 1.85248e-06 -7.74767e-05
0.000909594 -0.000174316 -1.19312e-05
-0.000174316 -4.72415e-06 6.45207e-06
-1.19312e-05 6.45207e-06 -0.000161555
0.00120876 -0.000243777 -1.37397e-06
-0.000243777 6.97412e-05 3.69068e-07
-1.37397e-06 3.69068e-07 -0.000124849
0.0016241 -0.000332128 3.30947e-06
-0.000332128 0.00022042 -1.62925e-07
3.30947e-06 -1.62925e-07 9.92298e-07
0.00051517 -0.000180454 -2.18271e-05
-0.000180454 -9.20605e-05 1.49559e-05
-2.18271e-05 1.49559e-05 -0.000189763
0.000870987 -0.000181972 4.29166e-07
-0.000181972 1.05814e-05 1.45137e-08
4.29166e-07 1.45137e-08 -0.000154081
0.00121545 -0.000257256 6.81461e-06
-0.000257256 0.000118061 -2.42265e-06
6.81461e-06 -2.42265e-06 -8.61026e-05
0.00521554 0.000177413 -0.000151525
0.000177413 0.00280814 9.13487e-06
-0.000151525 9.13487e-06 0.00278923
0.000560727 -0.000163325 -1.14995e-06
-0.000163325 -5.4737e-05 1.56687e-07
-1.14995e-06 1.56687e-07 -0.000144018
0.000784322 -0.000179485 9.26583e-06
-0.000179485 2.42806e-05 -6.0806e-06
9.26583e-06 -6.0806e-06 -0.000146605
0.00481502 0.000156359 9.4895e-06
0.000156359 0.00256718 1.2008e-06
9.4895e-06 1.2008e-06 0.00255384
0.000727344 -0.000121249 1.86832e-05
-0.000121249 6.09913e-05 -1.40062e-05
1.86832e-05 -1.40062e-05 -1.72139e-05
0.00429897 0.000112718 0.000144605
0.000112718 0.0022494 -8.75866e-06
0.000144605 -8.75866e-06 0.00224766
0.00125277 0.000305499 -3.56444e-06
0.000305499 0.000129581 2.88206e-07
-3.56444e-06 2.88206e-07 -0.000105296
0.00119701 0.000280124 -2.18135e-06
0.000280124 0.00019284 -8.04961e-07
-2.18135e-06 -8.04961e-07 -3.81973e-05
0.00107234 0.00023148 -4.51417e-06
0.00023148 0.000174137 -2.32699e-06
-4.51417e-06 -2.32699e-06 -3.22669e-05
0.00188195 0.000317138 -2.58269e-06
0.000317138 0.000715439 3.45158e-06
-2.58269e-06 3.45158e-06 0.000496794
0.000896201 0.000180333 -1.33368e-06
0.000180333 0.000159969 -2.06224e-06
-1.33368e-06 -2.06224e-06 -2.39617e-05
0.000965229 0.000159368 -4.18022e-06
0.000159368 0.000240223 -6.12837e-06
-4.18022e-06 -6.12837e-06 8.53259e-05
0.000467747 8.87154e-05 -5.69619e-07
8.87154e-05 -5.94714e-05 2.94787e-07
-5.69619e-07 2.94787e-07 -0.000205486
0.000664676 5.15227e-05 -6.34861e-07
5.15227e-05 5.86032e-05 -2.59933e-07
-6.34861e-07 -2.59933e-07 -5.76478e-05
0.000597301 6.66409e-07 -6.53887e-06
6.66409e-07 1.87378e-05 -1.0129e-05
-6.53887e-06 -1.0129e-05 -3.09166e-05
0.000538222 1.59643e-06 8.90477e-07
1.59643e-06 -1.30128e-05 5.03994e-06
8.90477e-07 5.03994e-06 -0.000111115
0.000499198 -2.16563e-05 3.9184e-07
-2.16563e-05 -3.67794e-05 -1.64876e-07
3.9184e-07 -1.64876e-07 -7.94077e-05
0.00323907 -0.000131475 -8.32972e-05
-0.000131475 0.00162272 -2.73358e-06
-8.32972e-05 -2.73358e-06 0.00161989
0.000452963 -1.87741e-05 3.25635e-06
-1.87741e-05 -6.9498e-05 7.89297e-06
3.25635e-06 7.89297e-06 -0.00010625
0.00299631 -0.000127206 -3.79784e-06
-0.000127206 0.00146953 4.19691e-07
-3.79784e-06 4.19691e-07 0.00146752
0.00285772 -0.000112953 4.81573e-05
-0.000112953 0.00137682 3.69435e-06
4.81573e-05 3.69435e-06 0.00137818
0.000387945 5.93869e-05 1.6986e-05
5.93869e-05 -0.00102741 1.02511e-05
1.6986e-05 1.02511e-05 -0.000901992
0.0048079 3.90879e-05 5.49664e-05
3.90879e-05 0.000231284 1.40585e-06
5.49664e-05 1.40585e-06 0.000434026
0.0111426 0.000677563 -7.21859e-05
0.000677563 0.00299277 -1.61786e-05
-7.21859e-05 -1.61786e-05 0.0020253
0.00144529 0.000419283 3.30003e-06
0.000419283 0.000139824 2.8682e-06
3.30003e-06 2.8682e-06 -9.93083e-05
0.00177701 0.000433323 2.56143e-06
0.000433323 0.000253918 2.32757e-06
2.56143e-06 2.32757e-06 2.41282e-05
0.00122013 0.000360859 8.27729e-07
0.000360859 5.4711e-05 -1.98256e-06
8.27729e-07 -1.98256e-06 -0.000196273
0.00128153 0.000316383 -2.70922e-06
0.000316383 0.000373834 2.60714e-06
-2.70922e-06 2.60714e-06 0.000148687
0.00174954 0.000375474 -1.75362e-06
0.000375474 0.000511025 -1.21309e-06
-1.75362e-06 -1.21309e-06 0.000241026
0.00146529 0.00041677 7.16573e-06
0.00041677 0.000263931 1.06563e-06
7.16573e-06 1.06563e-06 2.88257e-05
0.00168556 0.000504132 -2.21784e-06
0.000504132 0.000103424 -1.48319e-06
-2.21784e-06 -1.48319e-06 -0.000112087
0.00193684 0.000471148 -7.16367e-06
0.000471148 0.000536042 5.4064e-07
-7.16367e-06 5.4064e-07 0.00031869
0.00122304 0.000465395 9.0676e-06
0.000465395 -5.17523e-05 1.55815e-05
9.0676e-06 1.55815e-05 -0.000206038
0.00219881 0.000579717 -2.61103e-06
0.000579717 0.000409752 8.79976e-07
-2.61103e-06 8.79976e-07 0.000199958
0.00192031 0.000504429 -9.6805e-06
0.000504429 0.000146306 8.87449e-07
-9.6805e-06 8.87449e-07 -2.45514e-05
0.00065876 0.000255759 1.6799e-05
0.000255759 -0.000517968 9.22387e-06
1.6799e-05 9.22387e-06 -0.000548369
0.000945151 0.000446457 1.04085e-05
0.000446457 -0.000232506 -2.30099e-07
1.04085e-05 -2.30099e-07 -0.000368946
0.00114923 0.000520422 -1.23243e-05
0.000520422 -0.000125874 -1.00765e-05
-1.23243e-05 -1.00765e-05 -0.000308985
0.00200577 0.000439218 3.91682e-06
0.000439218 -5.38108e-05 7.27365e-06
3.91682e-06 7.27365e-06 -3.23101e-05
0.00557296 0.000571974 2.62552e-05
0.000571974 -4.7887e-05 -2.22993e-05
2.62552e-05 -2.22993e-05 -6.77005e-05
0.00296124 0.00074477 5.09697e-06
0.00074477 0.000704061 -3.28723e-05
5.09697e-06 -3.28723e-05 0.00064258
0.00150145 -4.49344e-05 2.46151e-05
-4.49344e-05 -3.2993e-05 -2.87001e-06
2.46151e-05 -2.87001e-06 -2.58404e-05
0.0021794 -0.000135223 -2.84679e-05
-0.000135223 -6.02086e-05 2.57256e-07
-2.84679e-05 2.57256e-07 -4.55694e-05
0.00159114 0.000198803 2.57619e-05
0.000198803 -0.000556714 -7.10656e-06
2.57619e-05 -7.10656e-06 -0.000693701
0.000208656 -0.000225299 -3.29573e-05
-0.000225299 -0.00114451 2.58713e-05
-3.29573e-05 2.58713e-05 -0.000993232
0.00331684 -0.000235902 -9.5899e-05
-0.000235902 0.00051054 -1.12636e-06
-9.5899e-05 -1.12636e-06 0.000510165
0.00192408 -0.000214708 4.2834e-06
-0.000214708 -0.000158166 -3.12192e-06
4.2834e-06 -3.12192e-06 -6.35531e-06
0.00234944 -6.05906e-05 -8.46597e-06
-6.05906e-05 0.000391957 4.1257e-07
-8.46597e-06 4.1257e-07 0.000358277
0.00209023 -0.000191217 4.8657e-06
-0.000191217 5.84354e-06 8.0284e-07
4.8657e-06 8.0284e-07 3.3348e-05
0.00204942 -2.2381e-05 6.2687e-06
-2.2381e-05 3.13881e-05 4.0211e-07
6.2687e-06 4.0211e-07 1.84161e-05
0.00181615 -0.000307156 -8.37606e-06
-0.000307156 -0.000279066 3.36846e-06
-8.37606e-06 3.36846e-06 -0.000171934
0.00204566 -0.000280475 -1.8718e-06
-0.000280475 -4.38428e-05 1.35372e-07
-1.8718e-06 1.35372e-07 2.0331e-05
0.00202174 -0.000214315 -1.60117e-06
-0.000214315 1.14216e-05 -6.14498e-07
-1.60117e-06 -6.14498e-07 2.46545e-06
0.00194906 -0.000320246 -1.72125e-06
-0.000320246 3.59565e-05 -5.09999e-07
-1.72125e-06 -5.09999e-07 3.32336e-06
0.00193572 -0.000272442 1.13152e-07
-0.000272442 7.04103e-05 1.55919e-08
1.13152e-07 1.55919e-08 1.55752e-05
0.00192722 -0.0002414 -1.57244e-06
-0.0002414 9.70569e-05 4.08665e-07
-1.57244e-06 4.08665e-07 1.82808e-05
0.0017873 -0.00030242 -8.8766e-07
-0.00030242 4.29929e-05 -1.30622e-06
-8.8766e-07 -1.30622e-06 -4.4236e-05
0.00178472 -0.000263567 4.73656e-07
-0.000263567 8.34831e-05 -1.69191e-07
4.73656e-07 -1.69191e-07 -1.57209e-05
0.00178272 -0.000247421 9.98518e-07
-0.000247421 0.000100704 -9.30815e-07
9.98518e-07 -9.30815e-07 -1.46163e-05
0.00178221 -0.00028968 -6.33968e-07
-0.00028968 0.000117049 3.53724e-09
-6.33968e-07 3.53724e-09 2.04559e-06
0.00179182 -0.000275292 -1.93853e-08
-0.000275292 0.000146765 -3.42066e-07
-1.93853e-08 -3.42066e-07 1.22952e-05
0.00168196 -0.000248501 -2.32931e-07
-0.000248501 0.000136671 -1.11769e-06
-2.32931e-07 -1.11769e-06 -2.1092e-05
0.00195672 -0.000294711 -1.73064e-06
-0.000294711 0.000272714 3.58435e-06
-1.73064e-06 3.58435e-06 0.000124718
0.00174484 -0.000272233 -6.29673e-07
-0.000272233 0.000206802 -1.10438e-07
-6.29673e-07 -1.10438e-07 3.60277e-05
0.0013453 -0.000208041 -6.34644e-06
-0.000208041 8.46476e-05 1.60876e-06
-6.34644e-06 1.60876e-06 -8.87961e-05
0.00171244 -0.000301075 4.08857e-06
-0.000301075 0.000218625 5.3749e-07
4.08857e-06 5.3749e-07 2.70309e-05
0.00133075 -0.000229987 -2.04325e-07
-0.000229987 0.000101696 -4.57502e-08
-2.04325e-07 -4.57502e-08 -8.119e-05
0.000935079 -0.00015846 -1.32566e-05
-0.00015846 -1.21967e-05 6.13954e-06
-1.32566e-05 6.13954e-06 -0.00016178
0.000441217 -0.000169442 -2.00687e-05
-0.000169442 -0.000146092 1.41557e-05
-2.00687e-05 1.41557e-05 -0.000244663
0.000929291 -0.00017511 2.39303e-07
-0.00017511 6.44642e-06 1.27113e-07
2.39303e-07 1.27113e-07 -0.000150614
0.00119344 -0.000242648 5.72659e-06
-0.000242648 6.17197e-05 -1.82473e-06
5.72659e-06 -1.82473e-06 -0.000133236
0.0056007 0.000107432 -0.000184693
0.000107432 0.00301322 1.0037e-05
-0.000184693 1.0037e-05 0.00300713
0.000541985 -0.000176379 -1.76384e-06
-0.000176379 -8.30257e-05 7.33429e-07
-1.76384e-06 7.33429e-07 -0.00017766
0.000828891 -0.000180559 1.06914e-05
-0.000180559 -1.10223e-05 -6.11348e-06
1.06914e-05 -6.11348e-06 -0.000175773
0.00536694 0.000144449 2.5207e-06
0.000144449 0.00289105 1.21766e-07
2.5207e-06 1.21766e-07 0.00287685
0.000657909 -0.000166021 2.18826e-05
-0.000166021 -1.40142e-07 -1.48432e-05
2.18826e-05 -1.48432e-05 -9.10402e-05
0.00501344 0.000130272 0.000165866
0.000130272 0.00267888 -1.16287e-05
0.000165866 -1.16287e-05 0.00266913
0.00137589 0.000341909 -2.67144e-06
0.000341909 0.000135917 1.75363e-06
-2.67144e-06 1.75363e-06 -9.20407e-05
0.0011994 0.00030223 1.40781e-07
0.00030223 9.5484e-05 4.47337e-07
1.40781e-07 4.47337e-07 -0.000138133
0.00109687 0.000243227 -7.23705e-06
0.000243227 8.83013e-05 -1.77075e-06
-7.23705e-06 -1.77075e-06 -0.000115339
0.00111084 0.000271533 -8.03884e-07
0.000271533 0.000144205 2.59581e-06
-8.03884e-07 2.59581e-06 -8.49445e-05
0.00105386 0.000228685 -1.88412e-06
0.000228685 0.000166043 9.9714e-07
-1.88412e-06 9.9714e-07 -3.98474e-05
0.00090214 0.000184323 -7.098e-06
0.000184323 0.0001523 -4.95476e-06
-7.098e-06 -4.95476e-06 -1.80465e-05
0.00108442 0.000197463 -9.42494e-07
0.000197463 0.000273895 1.24166e-06
-9.42494e-07 1.24166e-06 8.63278e-05
0.000696653 0.00012709 -6.32537e-08
0.00012709 8.44575e-05 -2.27641e-07
-6.32537e-08 -2.27641e-07 -6.60425e-05
0.000760074 5.90633e-05 -1.28422e-05
5.90633e-05 0.00010676 -1.25783e-05
-1.28422e-05 -1.25783e-05 4.19162e-05
0.000571375 1.65812e-05 1.15647e-06
1.65812e-05 2.16634e-06 5.08678e-06
1.15647e-06 5.08678e-06 -0.000108809
0.000498596 -8.0465e-06 -2.15176e-07
-8.0465e-06 -3.7083e-05 -3.04613e-07
-2.15176e-07 -3.04613e-07 -8.63896e-05
0.00361749 -0.000132813 -0.00010873
-0.000132813 0.00185462 -3.73525e-06
-0.00010873 -3.73525e-06 0.00185055
0.000434329 -2.23406e-05 3.38594e-06
-2.23406e-05 -7.43411e-05 8.70074e-06
3.38594e-06 8.70074e-06 -0.000116603
0.00316685 -0.000140479 -3.73839e-06
-0.000140479 0.00158074 4.02569e-07
-3.73839e-06 4.02569e-07 0.00157527
0.00295949 -0.000127724 5.61151e-05
-0.000127724 0.0014471 3.27678e-06
5.61151e-05 3.27678e-06 0.00144471
0.00055007 6.97483e-05 2.12751e-05
6.97483e-05 -0.000601517 3.76132e-06
2.12751e-05 3.76132e-06 -0.000538898
0.00205412 4.17433e-05 -8.35898e-06
4.17433e-05 -0.000339199 -1.42962e-06
-8.35898e-06 -1.42962e-06 -0.000192256
0.00426628 5.81864e-05 0.000147682
5.81864e-05 -0.000470416 4.02169e-05
0.000147682 4.02169e-05 0.000131369
0.00225922 0.000498247 -1.83837e-06
0.000498247 0.000446858 2.78808e-07
-1.83837e-06 2.78808e-07 0.000226255
0.0015133 0.000443298 -1.84206e-06
0.000443298 0.000165403 -3.27513e-06
-1.84206e-06 -3.27513e-06 -7.35563e-05
0.00196505 0.000391907 -1.22504e-07
0.000391907 0.000226861 3.38006e-06
-1.22504e-07 3.38006e-06 3.79606e-05
0.00177419 0.000429502 8.37859e-07
0.000429502 0.000250045 2.77333e-07
8.37859e-07 2.77333e-07 2.14523e-05
0.00127741 0.000373765 1.63953e-06
0.000373765 9.4289e-05 -6.72993e-06
1.63953e-06 -6.72993e-06 -0.00015822
0.00185065 0.000414796 -6.49379e-07
0.000414796 7.99241e-05 1.15097e-06
-6.49379e-07 1.15097e-06 -8.77238e-05
0.00189505 0.00045883 -3.87507e-06
0.00045883 0.000492919 -1.9984e-06
-3.87507e-06 -1.9984e-06 0.000252812
0.00193942 0.000515993 9.50296e-09
0.000515993 0.000262431 -1.78718e-07
9.50296e-09 -1.78718e-07 4.47264e-05
0.00181582 0.000300624 -4.32546e-06
0.000300624 -2.71994e-05 -2.46014e-07
-4.32546e-06 -2.46014e-07 -0.000123235
0.0026765 0.000617108 2.76464e-06
0.000617108 0.000671465 1.96024e-06
2.76464e-06 1.96024e-06 0.000459111
0.00192687 0.000508657 -1.68468e-06
0.000508657 0.000139414 8.55383e-08
-1.68468e-06 8.55383e-08 -3.48266e-05
0.000915418 0.000272994 5.0484e-06
0.000272994 -0.000342933 3.18427e-06
5.0484e-06 3.18427e-06 -0.000383107
-0.000386278 0.000348232 -4.91606e-06
0.000348232 -0.000912791 -4.061e-06
-4.91606e-06 -4.061e-06 -0.00103983
0.00207651 0.000454132 -5.89153e-05
0.000454132 -2.77732e-05 -2.92004e-05
-5.89153e-05 -2.92004e-05 -5.2883e-05
0.00188061 4.55707e-05 6.75179e-07
4.55707e-05 -8.09906e-05 -1.47237e-06
6.75179e-07 -1.47237e-06 -7.10279e-05
0.0022058 -3.94769e-05 1.3102e-06
-3.94769e-05 0.000405523 1.42567e-06
1.3102e-06 1.42567e-06 0.000413476
0.00174736 -7.45247e-05 -5.68523e-05
-7.45247e-05 -0.000190312 8.73886e-07
-5.68523e-05 8.73886e-07 -0.000270981
0.00229007 -0.000243981 -3.6928e-05
-0.000243981 0.000101432 3.23205e-06
-3.6928e-05 3.23205e-06 0.000230085
0.00143874 -7.71039e-05 -9.75718e-06
-7.71039e-05 -0.000180909 1.11464e-06
-9.75718e-06 1.11464e-06 -0.000207634
0.00201748 -0.000184826 5.44279e-10
-0.000184826 -3.9656e-05 -7.89783e-07
5.44279e-10 -7.89783e-07 1.60058e-07
0.0021192 -2.35886e-05 -1.91814e-06
-2.35886e-05 5.19003e-05 1.48666e-06
-1.91814e-06 1.48666e-06 4.50822e-05
0.00209706 -6.8499e-05 -1.94817e-06
-6.8499e-05 2.90928e-05 -2.31108e-07
-1.94817e-06 -2.31108e-07 3.32314e-05
0.00205797 -0.000277656 -4.05323e-06
-0.000277656 -2.16476e-05 7.02586e-07
-4.05323e-06 7.02586e-07 2.80187e-05
0.00199543 -0.000205994 4.14868e-07
-0.000205994 7.10066e-06 -2.06266e-07
4.14868e-07 -2.06266e-07 -3.13875e-06
0.00201098 -0.000169114 -1.71008e-06
-0.000169114 6.1676e-05 -2.21576e-07
-1.71008e-06 -2.21576e-07 2.44151e-05
0.00191055 -0.000268297 1.15926e-06
-0.000268297 6.56667e-05 -9.78349e-07
1.15926e-06 -9.78349e-07 5.70586e-06
0.00184813 -0.000236155 2.16742e-07
-0.000236155 5.81279e-05 -6.98033e-09
2.16742e-07 -6.98033e-09 -2.28193e-05
0.00178689 -0.000195594 2.70917e-07
-0.000195594 6.30231e-05 -3.96881e-07
2.70917e-07 -3.96881e-07 -3.22983e-05
0.00177115 -0.000262694 1.00477e-06
-0.000262694 7.10656e-05 -6.38458e-07
1.00477e-06 -6.38458e-07 -2.84278e-05
0.00181187 -0.000247867 4.92335e-08
-0.000247867 0.000119145 -2.13569e-07
4.92335e-08 -2.13569e-07 3.7598e-06
0.00172755 -0.000220846 6.34054e-07
-0.000220846 0.000123203 -9.00772e-07
6.34054e-07 -9.00772e-07 -1.86711e-05
0.00181024 -0.000275581 -9.69789e-07
-0.000275581 0.000158372 1.20306e-06
-9.69789e-07 1.20306e-06 2.38637e-05
0.00171087 -0.000249397 -3.0951e-07
-0.000249397 0.000154571 -8.52633e-08
-3.0951e-07 -8.52633e-08 -2.92062e-06
0.00139381 -0.000189732 -4.72193e-06
-0.000189732 8.79083e-05 1.27272e-06
-4.72193e-06 1.27272e-06 -7.75206e-05
0.00175553 -0.000273247 8.71236e-07
-0.000273247 0.000213727 1.1844e-06
8.71236e-07 1.1844e-06 4.39397e-05
0.00136658 -0.000209056 -2.3814e-07
-0.000209056 9.62854e-05 5.77816e-08
-2.3814e-07 5.77816e-08 -7.68514e-05
0.000962789 -0.000142336 -1.37355e-05
-0.000142336 -1.08788e-05 5.68508e-06
-1.37355e-05 5.68508e-06 -0.000155375
0.00132446 -0.000230765 6.42128e-06
-0.000230765 9.83052e-05 -1.45617e-06
6.42128e-06 -1.45617e-06 -8.44717e-05
0.000960132 -0.000158886 1.31069e-07
-0.000158886 8.24948e-07 6.21588e-08
1.31069e-07 6.21588e-08 -0.000148604
0.00246535 -0.0001211 -3.18686e-05
-0.0001211 0.00105118 8.85678e-06
-3.18686e-05 8.85678e-06 0.000970996
0.00173219 -5.35238e-05 -0.000188259
-5.35238e-05 0.000681585 2.1157e-05
-0.000188259 2.1157e-05 0.000663721
0.00154347 -0.00015526 -6.23002e-06
-0.00015526 0.000507251 -3.24003e-07
-6.23002e-06 -3.24003e-07 0.000415294
0.000959174 -0.000176673 1.22428e-05
-0.000176673 2.37015e-05 -6.01309e-06
1.22428e-05 -6.01309e-06 -0.000133717
0.00568971 9.094e-05 -6.19395e-06
9.094e-05 0.00307254 -4.80731e-07
-6.19395e-06 -4.80731e-07 0.00306324
0.000606134 -0.000198426 2.33846e-05
-0.000198426 -4.53089e-05 -1.46723e-05
2.33846e-05 -1.46723e-05 -0.000143231
0.00550033 0.000133728 0.000178617
0.000133728 0.00297905 -1.61352e-05
0.000178617 -1.61352e-05 0.00296004
0.00195619 0.000309629 7.62131e-07
0.000309629 0.000189914 4.30165e-07
7.62131e-07 4.30165e-07 3.05975e-05
0.00169546 0.000355707 1.39451e-06
0.000355707 0.000200431 3.10888e-06
1.39451e-06 3.10888e-06 -6.30702e-06
0.0016118 0.000366 4.04595e-08
0.000366 0.000265543 5.49674e-08
4.04595e-08 5.49674e-08 3.45685e-05
0.00116559 0.000254825 -6.29908e-06
0.000254825 6.66384e-05 -1.86471e-06
-6.29908e-06 -1.86471e-06 -0.000132282
0.00118813 0.000302922 5.08622e-06
0.000302922 8.72232e-05 1.14436e-06
5.08622e-06 1.14436e-06 -0.000145927
0.00111982 0.000242793 -1.88593e-07
0.000242793 0.000103417 2.17574e-07
-1.88593e-07 2.17574e-07 -9.94845e-05
0.000829644 0.000180568 -9.6844e-06
0.000180568 2.67004e-05 -4.87433e-06
-9.6844e-06 -4.87433e-06 -0.000141003
0.00101755 0.000224498 2.20741e-06
0.000224498 0.000146063 4.73964e-06
2.20741e-06 4.73964e-06 -5.891e-05
0.000805318 0.000169867 -2.38801e-07
0.000169867 9.51611e-05 7.03694e-07
-2.38801e-07 7.03694e-07 -7.37427e-05
0.00072954 0.000142819 -2.03675e-05
0.000142819 6.85887e-05 -1.42801e-05
-2.03675e-05 -1.42801e-05 -1.57333e-05
0.000602892 9.25766e-05 1.75618e-06
9.25766e-05 2.45579e-05 4.80073e-06
1.75618e-06 4.80073e-06 -0.00011767
0.00051483 4.44192e-05 -1.40515e-06
4.44192e-05 -3.60832e-05 -6.79232e-07
-1.40515e-06 -6.79232e-07 -9.72921e-05
0.00426853 -0.000126824 -0.000144824
-0.000126824 0.00224642 -7.60812e-06
-0.000144824 -7.60812e-06 0.00223949
0.000381968 -1.57888e-05 3.85713e-06
-1.57888e-05 -0.000102702 9.78229e-06
3.85713e-06 9.78229e-06 -0.000152075
0.00346085 -0.000152269 -5.02219e-06
-0.000152269 0.00176477 4.0488e-07
-5.02219e-06 4.0488e-07 0.00175582
0.00311455 -0.000143667 6.47833e-05
-0.000143667 0.00154968 2.69684e-06
6.47833e-05 2.69684e-06 0.00154311
0.00194717 0.000158827 9.4978e-07
0.000158827 -3.47414e-05 -9.69889e-07
9.4978e-07 -9.69889e-07 -5.26073e-05
0.00191519 5.20057e-05 1.73367e-05
5.20057e-05 0.000115535 -6.38556e-07
1.73367e-05 -6.38556e-07 0.000166154
0.00428937 4.88068e-05 -0.000100163
4.88068e-05 0.000612953 -1.46748e-05
-0.000100163 -1.46748e-05 0.00080677
0.00179637 0.000356361 -2.49485e-06
0.000356361 6.54726e-05 1.35692e-06
-2.49485e-06 1.35692e-06 -9.46841e-05
0.00190899 0.000466925 -2.61467e-06
0.000466925 0.000259375 -8.92735e-08
-2.61467e-06 -8.92735e-08 4.19261e-05
0.00148433 0.000457281 -1.0753e-05
0.000457281 0.00013765 -7.52137e-06
-1.0753e-05 -7.52137e-06 -9.89552e-05
0.0020281 0.00038396 2.77878e-06
0.00038396 0.00027586 1.05956e-06
2.77878e-06 1.05956e-06 8.91912e-05
0.00175739 0.000424836 -1.52601e-06
0.000424836 0.000239034 -2.75199e-06
-1.52601e-06 -2.75199e-06 1.16487e-05
0.00220482 0.000297931 6.1778e-07
0.000297931 0.000198896 6.06805e-07
6.1778e-07 6.06805e-07 9.60159e-05
0.00172803 0.00040788 -5.74331e-07
0.00040788 2.91259e-05 7.39683e-07
-5.74331e-07 7.39683e-07 -0.000138919
0.0022211 0.000530506 -2.56376e-06
0.000530506 0.000436359 -5.75446e-07
-2.56376e-06 -5.75446e-07 0.000215865
0.00182043 0.000304648 -1.02065e-06
0.000304648 -1.88386e-05 -2.42853e-07
-1.02065e-06 -2.42853e-07 -0.000116404
0.00204547 0.000520563 1.70277e-05
0.000520563 0.000183486 2.15475e-06
1.70277e-05 2.15475e-06 5.46401e-06
0.0011535 0.000274995 -2.8303e-05
0.000274995 -0.000189909 -7.13996e-06
-2.8303e-05 -7.13996e-06 -0.000236941
0.00204956 5.33283e-05 -1.98734e-06
5.33283e-05 1.81112e-05 3.93379e-07
-1.98734e-06 3.93379e-07 1.61243e-05
0.00198653 5.51282e-05 -2.022e-06
5.51282e-05 -9.80373e-06 2.21212e-07
-2.022e-06 2.21212e-07 -3.71247e-06
0.00290864 -2.95016e-05 -3.90908e-05
-2.95016e-05 0.000848797 3.53653e-06
-3.90908e-05 3.53653e-06 0.000852355
0.00193193 -0.000177194 -9.57243e-06
-0.000177194 -9.71938e-05 -4.98908e-07
-9.57243e-06 -4.98908e-07 -4.53218e-05
0.00205943 -2.28394e-05 -1.98151e-06
-2.28394e-05 -1.00189e-05 -1.71665e-06
-1.98151e-06 -1.71665e-06 -1.16764e-05
0.00206099 -7.25336e-05 -3.37124e-07
-7.25336e-05 -7.99443e-06 7.98421e-08
-3.37124e-07 7.98421e-08 1.14134e-06
0.00193185 -5.75402e-05 -2.19088e-06
-5.75402e-05 2.80053e-05 1.77495e-07
-2.19088e-06 1.77495e-07 8.84971e-06
0.00196955 -0.000196573 1.9027e-06
-0.000196573 4.4726e-06 2.34717e-07
1.9027e-06 2.34717e-07 -6.84214e-06
0.00191984 -0.000169189 1.83336e-07
-0.000169189 1.90316e-05 -2.25698e-09
1.83336e-07 -2.25698e-09 -2.19881e-05
0.00181209 -0.000129742 2.3482e-06
-0.000129742 4.98281e-05 -1.4556e-06
2.3482e-06 -1.4556e-06 -2.67925e-05
0.00175485 -0.00023016 1.78342e-06
-0.00023016 1.13996e-05 -4.48001e-07
1.78342e-06 -4.48001e-07 -7.18433e-05
0.00184337 -0.000198268 -7.87887e-08
-0.000198268 9.07635e-05 3.93836e-08
-7.87887e-08 3.93836e-08 -4.79792e-06
0.00179592 -0.000181855 8.67282e-07
-0.000181855 0.000120655 -7.40985e-07
8.67282e-07 -7.40985e-07 -5.76436e-06
0.00184014 -0.000248124 -2.06895e-07
-0.000248124 0.000137482 4.07686e-07
-2.06895e-07 4.07686e-07 2.20641e-05
0.00175878 -0.00022187 -2.34674e-07
-0.00022187 0.000141279 -1.49059e-08
-2.34674e-07 -1.49059e-08 -4.43766e-07
0.00144344 -0.000166357 -3.59044e-06
-0.000166357 9.0181e-05 8.5533e-07
-3.59044e-06 8.5533e-07 -6.66715e-05
0.00173901 -0.000250281 -2.52229e-07
-0.000250281 0.000172087 8.95228e-07
-2.52229e-07 8.95228e-07 1.48624e-05
0.00140959 -0.000190299 -1.79222e-07
-0.000190299 9.53859e-05 6.92123e-08
-1.79222e-07 6.92123e-08 -6.96659e-05
0.000969038 -0.00012604 -1.34031e-05
-0.00012604 -1.89845e-05 4.89591e-06
-1.34031e-05 4.89591e-06 -0.0001604
0.00138607 -0.000209995 5.48521e-06
-0.000209995 0.000106893 -1.39651e-06
5.48521e-06 -1.39651e-06 -6.59344e-05
0.000977401 -0.000141463 1.30576e-07
-0.000141463 -4.37239e-06 1.18053e-07
1.30576e-07 1.18053e-07 -0.000148329
0.00249588 -0.000126264 -3.95064e-05
-0.000126264 0.00105735 8.16714e-06
-3.95064e-05 8.16714e-06 0.000984515
0.000978111 -0.000159117 1.33043e-05
-0.000159117 9.84229e-06 -5.95766e-06
1.33043e-05 -5.95766e-06 -0.000139447
0.00261812 -0.000165155 3.863e-05
-0.000165155 0.00113831 -5.06239e-06
3.863e-05 -5.06239e-06 0.00106446
0.00181554 -9.30798e-05 -0.000191985
-9.30798e-05 0.000738103 2.55342e-05
-0.000191985 2.55342e-05 0.000718779
0.00366532 -3.07862e-05 -0.000189056
-3.07862e-05 0.00185588 1.30403e-05
-0.000189056 1.30403e-05 0.00184379
0.0027076 -0.000218537 0.000120404
-0.000218537 0.00119834 -1.68735e-05
0.000120404 -1.68735e-05 0.00112607
0.00576081 7.59484e-05 0.000196465
7.59484e-05 0.00312423 -1.89663e-05
0.000196465 -1.89663e-05 0.00311057
0.00208429 0.000304104 -1.92876e-06
0.000304104 0.000245743 -8.31413e-07
-1.92876e-06 -8.31413e-07 0.000103185
0.00159922 0.000286216 2.80844e-06
0.000286216 8.4865e-05 1.0948e-06
2.80844e-06 1.0948e-06 -9.21788e-05
0.00194655 0.000306955 3.84271e-07
0.000306955 0.000182702 -1.25816e-06
3.84271e-07 -1.25816e-06 2.8359e-05
0.00123352 0.000250862 -6.06667e-06
0.000250862 4.81184e-05 -9.16784e-07
-6.06667e-06 -9.16784e-07 -0.000142993
0.00176449 0.000358654 6.54868e-07
0.000358654 0.000231371 4.94074e-07
6.54868e-07 4.94074e-07 2.38429e-05
0.00185604 0.000391104 2.25018e-06
0.000391104 0.000399314 -1.23343e-06
2.25018e-06 -1.23343e-06 0.000165155
0.00120308 0.000254607 -1.1941e-07
0.000254607 9.31961e-05 -1.24113e-07
-1.1941e-07 -1.24113e-07 -0.000105155
0.000888277 0.00018043 -1.1677e-05
0.00018043 -9.83427e-07 -5.73485e-06
-1.1677e-05 -5.73485e-06 -0.000162523
0.00114215 0.000242413 7.26392e-06
0.000242413 0.000118362 2.1843e-06
7.26392e-06 2.1843e-06 -8.39014e-05
0.000837549 0.000176772 -3.80708e-07
0.000176772 2.69058e-05 2.4235e-07
-3.80708e-07 2.4235e-07 -0.000139694
0.000614782 0.000190817 -2.32366e-05
0.000190817 -2.10074e-05 -1.50988e-05
-2.32366e-05 -1.50988e-05 -0.000117842
0.000615316 0.000157477 4.14084e-06
0.000157477 -1.35091e-05 5.55527e-06
4.14084e-06 5.55527e-06 -0.000182438
0.00054807 0.000114944 -8.33241e-08
0.000114944 -3.58749e-05 1.45001e-07
-8.33241e-08 1.45001e-07 -0.000115419
0.0051341 -0.000127989 -0.000173791
-0.000127989 0.00277365 -1.42103e-05
-0.000173791 -1.42103e-05 0.00275572
0.000298055 1.66033e-05 6.76498e-06
1.66033e-05 -0.000157328 1.14933e-05
6.76498e-06 1.14933e-05 -0.000217277
0.00405125 -0.000168604 -9.26461e-06
-0.000168604 0.00212687 6.31528e-07
-9.26461e-06 6.31528e-07 0.00211175
0.00335133 -0.000160707 7.54503e-05
-0.000160707 0.00170072 2.33273e-06
7.54503e-05 2.33273e-06 0.00168943
0.0019872 0.000174819 -8.46311e-07
0.000174819 6.78294e-06 5.0767e-07
-8.46311e-07 5.0767e-07 -3.88367e-05
0.001882 0.000159584 8.7611e-07
0.000159584 -6.9777e-05 -1.90605e-07
8.7611e-07 -1.90605e-07 -8.82177e-05
0.0030607 3.87753e-05 -7.16805e-05
3.87753e-05 0.000724546 -7.12438e-06
-7.16805e-05 -7.12438e-06 0.000769274
0.00200363 0.000261923 8.90148e-07
0.000261923 0.000126967 6.78923e-07
8.90148e-07 6.78923e-07 1.45948e-05
0.00181272 0.000353346 -4.45942e-07
0.000353346 9.3221e-05 3.48168e-07
-4.45942e-07 3.48168e-07 -6.67635e-05
0.00157288 0.000436522 -2.98928e-07
0.000436522 7.8448e-05 -2.15081e-06
-2.98928e-07 -2.15081e-06 -0.000135946
0.00209274 0.000375726 -7.06737e-07
0.000375726 0.000326316 -2.37944e-06
-7.06737e-07 -2.37944e-06 0.000142004
0.00206802 0.000287712 -8.26649e-07
0.000287712 0.000122615 -1.015e-07
-8.26649e-07 -1.015e-07 1.99779e-05
0.00160843 0.000401082 -2.71891e-06
0.000401082 -2.05546e-05 1.15461e-07
-2.71891e-06 1.15461e-07 -0.000189014
0.00176616 0.000304935 6.85182e-06
0.000304935 -2.90798e-05 2.01081e-07
6.85182e-06 2.01081e-07 -0.000128154
0.0019218 4.90361e-05 -7.64238e-07
4.90361e-05 1.34604e-05 5.30012e-07
-7.64238e-07 5.30012e-07 -7.77962e-06
0.00200744 5.30367e-05 2.45568e-07
5.30367e-05 4.30903e-06 -1.37408e-07
2.45568e-07 -1.37408e-07 -1.19368e-06
0.00205081 6.50289e-05 -8.04961e-06
6.50289e-05 3.71316e-05 4.95675e-07
-8.04961e-06 4.95675e-07 4.04421e-05
0.00181441 -1.36047e-05 -3.8515e-06
-1.36047e-05 2.52615e-06 3.38369e-07
-3.8515e-06 3.38369e-07 -3.28498e-05
0.00202251 -8.08037e-05 2.10087e-06
-8.08037e-05 -4.57013e-05 -5.14149e-07
2.10087e-06 -5.14149e-07 -3.21207e-05
0.00191949 -6.03187e-05 -7.20415e-07
-6.03187e-05 1.91801e-05 2.67311e-07
-7.20415e-07 2.67311e-07 -7.3825e-07
0.0018798 -7.54014e-05 -1.98916e-06
-7.54014e-05 8.50742e-05 -1.0903e-07
-1.98916e-06 -1.0903e-07 2.25772e-05
0.00182963 -0.000169251 2.67395e-06
-0.000169251 -2.35662e-05 -2.07204e-07
2.67395e-06 -2.07204e-07 -6.84217e-05
0.00186141 -0.000131419 2.13371e-06
-0.000131419 6.9899e-05 -7.99516e-07
2.13371e-06 -7.99516e-07 -6.35523e-06
0.00183749 -0.000128359 3.10829e-06
-0.000128359 0.000126304 -1.18843e-06
3.10829e-06 -1.18843e-06 1.30757e-05
0.00190897 -0.000200739 2.13186e-07
-0.000200739 0.000123922 4.33286e-07
2.13186e-07 4.33286e-07 2.81997e-05
0.00180921 -0.000180613 -1.23006e-07
-0.000180613 0.000131001 -1.3962e-07
-1.23006e-07 -1.3962e-07 4.95289e-06
0.00148494 -0.000135124 -2.75179e-06
-0.000135124 8.89049e-05 3.99495e-07
-2.75179e-06 3.99495e-07 -5.81989e-05
0.00179079 -0.000222796 -6.93827e-07
-0.000222796 0.000160121 7.82975e-07
-6.93827e-07 7.82975e-07 1.85783e-05
0.00144582 -0.000165921 -1.77739e-07
-0.000165921 8.955e-05 1.31616e-07
-1.77739e-07 1.31616e-07 -6.68731e-05
0.000980832 -0.000108042 -1.2902e-05
-0.000108042 -2.33746e-05 3.95131e-06
-1.2902e-05 3.95131e-06 -0.000161769
0.00142404 -0.000190715 4.15382e-06
-0.000190715 0.000102176 -1.10287e-06
4.15382e-06 -1.10287e-06 -6.2473e-05
0.000990013 -0.000124771 7.60252e-09
-0.000124771 -8.90823e-06 1.99078e-07
7.60252e-09 1.99078e-07 -0.000149608
0.00252226 -0.000133107 -4.73146e-05
-0.000133107 0.00106746 7.92578e-06
-4.73146e-05 7.92578e-06 0.00099694
0.000992606 -0.000140704 1.36095e-05
-0.000140704 2.27379e-06 -5.48621e-06
1.36095e-05 -5.48621e-06 -0.000141118
0.00259822 -0.000155866 3.51473e-05
-0.000155866 0.00111696 -4.16513e-06
3.51473e-05 -4.16513e-06 0.00104862
0.00185309 -8.07127e-05 -0.000187682
-8.07127e-05 0.000755304 2.27821e-05
-0.000187682 2.27821e-05 0.000737081
0.00275018 -0.000180512 0.000118699
-0.000180512 0.00121313 -1.87007e-05
0.000118699 -1.87007e-05 0.00114497
0.00156805 -3.08354e-05 -8.45015e-05
-3.08354e-05 0.000596236 9.94737e-06
-8.45015e-05 9.94737e-06 0.000567115
0.00547275 0.000154302 3.71837e-05
0.000154302 0.00294171 -2.20101e-06
3.71837e-05 -2.20101e-06 0.00291518
0.001885 0.000249578 5.40668e-07
0.000249578 0.000113708 3.01401e-07
5.40668e-07 3.01401e-07 -1.67555e-05
0.00186688 0.000276101 -9.7514e-09
0.000276101 0.000198255 -7.24234e-07
-9.7514e-09 -7.24234e-07 3.94456e-05
0.00196906 0.000299651 -3.47374e-06
0.000299651 0.000174351 2.82719e-08
-3.47374e-06 2.82719e-08 2.97937e-05
0.00166038 0.000248459 -3.39716e-06
0.000248459 0.000257287 -5.76359e-07
-3.39716e-06 -5.76359e-07 8.00389e-05
0.00163462 0.000293312 3.03326e-07
0.000293312 9.63622e-05 -1.50543e-06
3.03326e-07 -1.50543e-06 -7.87919e-05
0.00194302 0.000304775 -3.09061e-06
0.000304775 0.000179142 -3.48162e-06
-3.09061e-06 -3.48162e-06 2.97251e-05
0.00095399 0.00017595 -1.3447e-05
0.00017595 -2.77228e-06 -5.53382e-06
-1.3447e-05 -5.53382e-06 -0.000158254
0.00129301 0.000254886 -2.2749e-07
0.000254886 8.367e-05 3.53014e-07
-2.2749e-07 3.53014e-07 -0.000108166
0.00182809 0.000361144 2.75178e-06
0.000361144 0.000258237 -1.95581e-06
2.75178e-06 -1.95581e-06 4.99698e-05
0.00125624 0.000255347 7.73995e-06
0.000255347 0.000129874 2.2161e-06
7.73995e-06 2.2161e-06 -6.79923e-05
0.000885533 0.000179812 -5.90935e-07
0.000179812 -2.0391e-06 -7.55647e-08
-5.90935e-07 -7.55647e-08 -0.000163148
0.000557896 0.000213859 -2.50457e-05
0.000213859 -6.58476e-05 -1.47833e-05
-2.50457e-05 -1.47833e-05 -0.000166575
0.000781688 0.000171092 9.18763e-06
0.000171092 -1.04294e-05 5.52084e-06
9.18763e-06 5.52084e-06 -0.000175686
0.000530994 0.000182357 2.14184e-06
0.000182357 -6.7717e-05 4.42335e-07
2.14184e-06 4.42335e-07 -0.000162863
0.00568237 -0.000103092 -0.000186368
-0.000103092 0.00310775 -2.04131e-05
-0.000186368 -2.04131e-05 0.00308127
0.000354918 9.984e-05 1.53309e-05
9.984e-05 -0.000151433 1.39888e-05
1.53309e-05 1.39888e-05 -0.000224869
0.00485843 -0.000167548 -1.02046e-05
-0.000167548 0.00261036 7.09699e-07
-1.02046e-05 7.09699e-07 0.00259098
0.0037928 -0.000183566 9.0751e-05
-0.000183566 0.00197565 2.89822e-06
9.0751e-05 2.89822e-06 0.00195724
0.00193093 0.000141449 -1.09011e-06
0.000141449 5.20042e-05 1.21927e-06
-1.09011e-06 1.21927e-06 -1.35286e-05
0.00201257 0.000178552 6.8019e-07
0.000178552 1.47127e-05 3.82695e-07
6.8019e-07 3.82695e-07 -2.79204e-05
0.00188232 0.000164268 -3.41601e-07
0.000164268 -7.5635e-05 8.31203e-07
-3.41601e-07 8.31203e-07 -9.49127e-05
0.00199688 0.000257087 2.02823e-07
0.000257087 0.000127595 -4.14476e-09
2.02823e-07 -4.14476e-09 1.80172e-05
0.00181846 0.00034959 -1.24516e-06
0.00034959 0.000115648 -9.12469e-07
-1.24516e-06 -9.12469e-07 -4.40832e-05
0.00194624 0.00027757 -1.85336e-07
0.00027757 5.58491e-05 -7.9893e-07
-1.85336e-07 -7.9893e-07 -4.63665e-05
0.00192327 5.4275e-05 -1.88056e-06
5.4275e-05 6.86714e-05 8.84424e-08
-1.88056e-06 8.84424e-08 2.61767e-05
0.00193528 4.67745e-05 3.8784e-07
4.67745e-05 2.52284e-05 -1.28899e-07
3.8784e-07 -1.28899e-07 2.56291e-06
0.00199272 5.33493e-05 1.63954e-06
5.33493e-05 6.63833e-06 -3.95303e-08
1.63954e-06 -3.95303e-08 -2.3336e-06
0.00187115 -1.83675e-05 -2.00162e-06
-1.83675e-05 3.32803e-05 9.00035e-08
-2.00162e-06 9.00035e-08 -1.6023e-06
0.00178679 -3.6362e-05 -2.27416e-06
-3.6362e-05 3.83122e-05 -8.78871e-08
-2.27416e-06 -8.78871e-08 -2.87072e-05
0.00190682 -6.30967e-05 1.5472e-06
-6.30967e-05 1.00199e-05 6.02519e-08
1.5472e-06 6.02519e-08 -1.05817e-05
0.00183531 -7.44964e-05 -1.87963e-06
-7.44964e-05 5.87164e-05 6.18724e-07
-1.87963e-06 6.18724e-07 -8.03656e-06
0.00188906 -7.5693e-05 2.36738e-07
-7.5693e-05 0.000161512 -4.45581e-07
2.36738e-07 -4.45581e-07 6.29267e-05
0.00189753 -0.000133155 2.65274e-06
-0.000133155 8.28757e-05 -2.16033e-07
2.65274e-06 -2.16033e-07 6.89724e-06
0.00179994 -0.000128658 2.36671e-06
-0.000128658 0.00010754 -7.04305e-07
2.36671e-06 -7.04305e-07 -5.75909e-06
0.00150127 -9.64094e-05 -1.51198e-06
-9.64094e-05 7.6503e-05 -1.03097e-07
-1.51198e-06 -1.03097e-07 -6.1271e-05
0.00180758 -0.000180663 -1.17743e-06
-0.000180663 0.000131764 4.5365e-07
-1.17743e-06 4.5365e-07 5.81425e-06
0.00147648 -0.000134749 -1.12048e-07
-0.000134749 8.0855e-05 3.67376e-08
-1.12048e-07 3.67376e-08 -6.60097e-05
0.000985298 -8.55535e-05 -1.24975e-05
-8.55535e-05 -3.15964e-05 3.0079e-06
-1.24975e-05 3.0079e-06 -0.000165873
0.0014526 -0.000165716 3.11347e-06
-0.000165716 9.08364e-05 -6.12605e-07
3.11347e-06 -6.12605e-07 -6.517e-05
0.00099869 -0.000106251 -1.15072e-07
-0.000106251 -1.4622e-05 2.31472e-07
-1.15072e-07 2.31472e-07 -0.000152321
0.00250031 -0.000144737 -5.08917e-05
-0.000144737 0.00105112 7.12061e-06
-5.08917e-05 7.12061e-06 0.000980428
0.00101079 -0.000123557 1.33192e-05
-0.000123557 8.70535e-07 -4.58639e-06
1.33192e-05 -4.58639e-06 -0.000139094
0.00258956 -0.000139621 3.37998e-05
-0.000139621 0.00110395 -3.16134e-06
3.37998e-05 -3.16134e-06 0.00103831
0.00188896 -6.87747e-05 -0.000187608
-6.87747e-05 0.0007703 1.95146e-05
-0.000187608 1.95146e-05 0.000752665
0.0026992 -0.000154745 0.000116959
-0.000154745 0.0011718 -1.62312e-05
0.000116959 -1.62312e-05 0.0011097
0.00156971 -4.19993e-05 -7.6675e-05
-4.19993e-05 0.000590804 8.57446e-06
-7.6675e-05 8.57446e-06 0.000564565
0.0013718 -2.42727e-05 3.66378e-05
-2.42727e-05 0.000483866 -5.63047e-06
3.66378e-05 -5.63047e-06 0.000446783
0.00195184 0.000150552 -9.48599e-07
0.000150552 0.000132651 1.51605e-06
-9.48599e-07 1.51605e-06 3.66008e-05
0.00183799 0.000231481 -1.11962e-06
0.000231481 0.000150772 2.54636e-07
-1.11962e-06 2.54636e-07 6.07283e-06
0.00188951 0.000250251 -6.92193e-07
0.000250251 0.00010841 -7.37527e-08
-6.92193e-07 -7.37527e-08 -1.90995e-05
0.00175662 0.000230765 -2.64343e-06
0.000230765 0.000267757 -4.09284e-07
-2.64343e-06 -4.09284e-07 0.000104554
0.00181148 0.000271412 2.47136e-07
0.000271412 0.00017141 -6.82459e-08
2.47136e-07 -6.82459e-08 1.14301e-05
0.00185038 0.000295217 5.10116e-07
0.000295217 0.000101205 1.48567e-07
5.10116e-07 1.48567e-07 -4.5412e-05
0.00100449 0.000162061 -1.40605e-05
0.000162061 2.18985e-06 -5.1628e-06
-1.40605e-05 -5.1628e-06 -0.000145966
0.00151956 0.000245519 3.21544e-06
0.000245519 0.000168772 6.07633e-07
3.21544e-06 6.07633e-07 -8.71293e-06
0.0016759 0.000300756 8.65148e-08
0.000300756 0.000111812 -2.33408e-06
8.65148e-08 -2.33408e-06 -6.14628e-05
0.000495086 0.000178518 -2.26539e-05
0.000178518 -0.000113507 -1.29342e-05
-2.26539e-05 -1.29342e-05 -0.000210897
0.000952869 0.000175414 -6.14764e-07
0.000175414 -1.56233e-06 1.60946e-07
-6.14764e-07 1.60946e-07 -0.000156752
0.00135807 0.000259409 7.64674e-06
0.000259409 0.000122153 2.39166e-06
7.64674e-06 2.39166e-06 -7.05142e-05
0.0008945 0.000179979 1.16446e-05
0.000179979 3.78772e-06 5.83505e-06
1.16446e-05 5.83505e-06 -0.00015704
0.000528445 0.00019563 1.47711e-06
0.00019563 -7.90901e-05 6.09949e-07
1.47711e-06 6.09949e-07 -0.000181253
0.00590877 -8.93867e-06 -0.00020276
-8.93867e-06 0.00322048 -2.30572e-05
-0.00020276 -2.30572e-05 0.00320348
0.000462212 0.00016927 2.10817e-05
0.00016927 -0.000107691 1.47802e-05
2.10817e-05 1.47802e-05 -0.000200027
0.00550798 -0.000121581 3.24107e-06
-0.000121581 0.00298992 -9.15265e-07
3.24107e-06 -9.15265e-07 0.0029719
0.00455541 -0.000218345 0.00011195
-0.000218345 0.00244606 6.10198e-06
0.00011195 6.10198e-06 0.00241534
0.00182798 9.81576e-05 -3.35272e-06
9.81576e-05 3.22497e-05 9.80791e-07
-3.35272e-06 9.80791e-07 -2.76434e-05
0.00190153 0.000140973 1.24077e-06
0.000140973 3.70181e-05 7.83456e-07
1.24077e-06 7.83456e-07 -2.6829e-05
0.00201291 0.000182066 -5.46333e-07
0.000182066 8.17835e-06 -3.48176e-07
-5.46333e-07 -3.48176e-07 -3.15803e-05
0.00199482 0.000252043 2.35516e-06
0.000252043 0.000131059 -3.43124e-07
2.35516e-06 -3.43124e-07 2.43428e-05
0.00173601 2.14041e-06 3.28716e-07
2.14041e-06 1.79089e-05 -2.02647e-07
3.28716e-07 -2.02647e-07 -5.25338e-05
0.00192783 4.71212e-05 3.91169e-07
4.71212e-05 6.45849e-05 2.05763e-08
3.91169e-07 2.05763e-08 2.38513e-05
0.0019518 4.46464e-05 1.75919e-06
4.46464e-05 3.9657e-05 -1.93892e-07
1.75919e-06 -1.93892e-07 1.53717e-05
0.00192999 -2.09098e-05 4.17467e-07
-2.09098e-05 6.49804e-05 -4.91275e-07
4.17467e-07 -4.91275e-07 3.06769e-05
0.00177854 -2.96182e-05 -2.09395e-06
-2.96182e-05 3.51756e-05 7.24291e-08
-2.09395e-06 7.24291e-08 -2.92536e-05
0.00182896 -3.0601e-05 2.28797e-06
-3.0601e-05 0.000133286 -8.63007e-07
2.28797e-06 -8.63007e-07 3.65558e-05
0.0017882 -7.36255e-05 -1.19554e-06
-7.36255e-05 2.96648e-05 1.12724e-06
-1.19554e-06 1.12724e-06 -4.12182e-05
0.00179664 -7.52213e-05 -3.30207e-07
-7.52213e-05 0.000110042 3.21687e-07
-3.30207e-07 3.21687e-07 6.35859e-06
0.00156601 -5.6068e-05 -2.43049e-06
-5.6068e-05 0.000100305 -1.53787e-07
-2.43049e-06 -1.53787e-07 -2.57941e-05
0.00178149 -0.000127877 1.41237e-06
-0.000127877 9.98722e-05 -1.68377e-07
1.41237e-06 -1.68377e-07 -1.32346e-05
0.00149916 -9.4367e-05 6.91711e-07
-9.4367e-05 7.34539e-05 -2.33917e-07
6.91711e-07 -2.33917e-07 -6.38756e-05
0.00098341 -5.95846e-05 -1.22849e-05
-5.95846e-05 -4.10519e-05 2.20081e-06
-1.22849e-05 2.20081e-06 -0.000171075
0.00147405 -0.00013234 2.48836e-06
-0.00013234 7.71813e-05 -3.81118e-07
2.48836e-06 -3.81118e-07 -6.91311e-05
0.000992933 -8.47803e-05 -5.88687e-08
-8.47803e-05 -2.76566e-05 1.72238e-07
-5.88687e-08 1.72238e-07 -0.000161598
0.000574615 -8.22366e-05 -1.97879e-05
-8.22366e-05 -0.000117053 4.95871e-06
-1.97879e-05 4.95871e-06 -0.000193985
0.00101626 -0.000104439 1.27704e-05
-0.000104439 -5.90639e-06 -3.53987e-06
1.27704e-05 -3.53987e-06 -0.000142884
0.00158199 -9.28928e-05 4.78572e-05
-9.28928e-05 0.000492152 -3.18651e-06
4.78572e-05 -3.18651e-06 0.000423228
0.00567177 -0.000123333 -0.000242091
-0.000123333 0.00303634 1.54597e-05
-0.000242091 1.54597e-05 0.00304371
0.00267476 -0.000126131 0.000115965
-0.000126131 0.00114646 -1.31015e-05
0.000115965 -1.31015e-05 0.00108805
0.00158516 -5.1434e-05 -6.91133e-05
-5.1434e-05 0.000596794 5.85746e-06
-6.91133e-05 5.85746e-06 0.000570478
0.00128961 -6.39124e-05 4.78168e-05
-6.39124e-05 0.000436182 -6.72945e-06
4.78168e-05 -6.72945e-06 0.000398431
0.00189074 0.00010536 -1.23932e-06
0.00010536 0.000111593 1.75066e-06
-1.23932e-06 1.75066e-06 3.03273e-05
0.0018895 0.000163367 2.05695e-07
0.000163367 0.000166237 1.42488e-06
2.05695e-07 1.42488e-06 4.35345e-05
0.00197062 0.000147363 4.46363e-07
0.000147363 0.000150641 5.70919e-08
4.46363e-07 5.70919e-08 5.3978e-05
0.00156712 0.000185437 -3.0249e-06
0.000185437 0.000118296 -2.50582e-07
-3.0249e-06 -2.50582e-07 -3.35791e-05
0.00181497 0.0002281 3.90925e-07
0.0002281 0.000137631 3.63058e-09
3.90925e-07 3.63058e-09 -6.4965e-06
0.00188677 0.000251073 4.07987e-07
0.000251073 9.8087e-05 -1.23426e-07
4.07987e-07 -1.23426e-07 -2.65442e-05
0.000755468 0.000129908 -1.5611e-05
0.000129908 -0.000166451 -4.5406e-06
-1.5611e-05 -4.5406e-06 -0.000308969
0.00177294 0.000231668 2.52e-06
0.000231668 0.000277169 6.61853e-07
2.52e-06 6.61853e-07 0.000114066
0.00174972 0.000266262 1.29806e-07
0.000266262 0.000140744 -4.4691e-07
1.29806e-07 -4.4691e-07 -2.0379e-05
0.000479067 0.000130724 -1.95949e-05
0.000130724 -0.000142229 -1.00959e-05
-1.95949e-05 -1.00959e-05 -0.000231019
0.000824236 0.000153068 4.60457e-07
0.000153068 -0.000104392 2.92366e-07
4.60457e-07 2.92366e-07 -0.000252985
0.00136683 0.000241778 9.01118e-06
0.000241778 7.29311e-05 1.44828e-06
9.01118e-06 1.44828e-06 -0.000104666
0.00592988 7.56142e-05 -0.000215013
7.56142e-05 0.00320885 -2.24761e-05
-0.000215013 -2.24761e-05 0.00320294
0.000493411 0.000166375 1.02633e-06
0.000166375 -0.000114156 6.98722e-07
1.02633e-06 6.98722e-07 -0.000212421
0.000935028 0.000173978 1.3289e-05
0.000173978 -9.86515e-06 5.94888e-06
1.3289e-05 5.94888e-06 -0.000164689
0.000453197 0.000178737 2.09109e-05
0.000178737 -0.000119265 1.46445e-05
2.09109e-05 1.46445e-05 -0.000222575
0.00578556 -1.98761e-05 8.99075e-06
-1.98761e-05 0.00313748 -5.29638e-07
8.99075e-06 -5.29638e-07 0.00312763
0.00532021 -0.000160519 0.000159301
-0.000160519 0.00287625 8.19031e-06
0.000159301 8.19031e-06 0.00285815
0.00185736 6.27957e-05 -2.48341e-06
6.27957e-05 9.24981e-05 -4.04716e-07
-2.48341e-06 -4.04716e-07 2.141e-05
0.00188052 9.84312e-05 4.58011e-07
9.84312e-05 6.04822e-05 6.4807e-07
4.58011e-07 6.4807e-07 -1.94544e-07
0.00187255 0.000140527 1.96733e-06
0.000140527 2.23931e-05 1.95203e-07
1.96733e-06 1.95203e-07 -3.97178e-05
0.00167976 4.69937e-06 2.40448e-06
4.69937e-06 4.15254e-05 -6.95273e-07
2.40448e-06 -6.95273e-07 -5.73989e-05
0.00172041 4.75463e-06 4.71442e-07
4.75463e-06 1.31464e-05 1.23074e-07
4.71442e-07 1.23074e-07 -5.50154e-05
0.00192917 3.85106e-05 1.91092e-06
3.85106e-05 5.89206e-05 -2.28412e-07
1.91092e-06 -2.28412e-07 1.99593e-05
0.00176707 -2.39862e-05 -1.65842e-06
-2.39862e-05 3.02576e-05 7.61255e-07
-1.65842e-06 7.61255e-07 -3.17523e-05
0.0017847 -2.69097e-05 9.70399e-07
-2.69097e-05 0.000105893 -8.69133e-08
9.70399e-07 -8.69133e-08 9.491e-06
0.0017534 -2.09261e-05 -2.8828e-07
-2.09261e-05 0.000217636 -5.85104e-07
-2.8828e-07 -5.85104e-07 9.77633e-05
0.00170377 -7.46426e-05 -2.24762e-06
-7.46426e-05 5.91072e-05 1.08432e-06
-2.24762e-06 1.08432e-06 -4.96873e-05
0.00162261 -5.65014e-05 7.37366e-08
-5.65014e-05 0.00013609 5.76374e-08
7.37366e-08 5.76374e-08 8.13017e-06
0.000799602 -2.9576e-05 -1.3739e-05
-2.9576e-05 -0.000157974 1.3461e-06
-1.3739e-05 1.3461e-06 -0.000284834
0.00148615 -9.43061e-05 2.80182e-06
-9.43061e-05 6.37881e-05 -4.26472e-07
2.80182e-06 -4.26472e-07 -7.34146e-05
0.000990693 -5.6584e-05 -4.26794e-08
-5.6584e-05 -3.79947e-05 1.35038e-07
-4.26794e-08 1.35038e-07 -0.000167551
0.000579083 -2.08736e-05 -1.84821e-05
-2.08736e-05 -0.000118017 3.18884e-06
-1.84821e-05 3.18884e-06 -0.000193473
0.00101503 -8.34288e-05 1.23745e-05
-8.34288e-05 -1.59717e-05 -2.65513e-06
1.23745e-05 -2.65513e-06 -0.000149421
0.000580538 -6.52651e-05 -2.21265e-07
-6.52651e-05 -0.000111345 3.55474e-07
-2.21265e-07 3.55474e-07 -0.000189828
0.00567625 -1.81646e-05 -0.000233327
-1.81646e-05 0.00303541 9.37357e-06
-0.000233327 9.37357e-06 0.00304523
0.000612763 -6.81003e-05 1.59246e-05
-6.81003e-05 -9.04561e-05 -6.86849e-06
1.59246e-05 -6.86849e-06 -0.00017135
0.00357483 -8.10261e-05 0.000107799
-8.10261e-05 0.00178649 -4.18148e-06
0.000107799 -4.18148e-06 0.00177049
0.00124804 -7.41487e-05 5.40537e-05
-7.41487e-05 0.000412993 -7.20451e-06
5.40537e-05 -7.20451e-06 0.000373129
0.00179767 9.33098e-05 -1.59065e-06
9.33098e-05 7.678e-05 2.19535e-07
-1.59065e-06 2.19535e-07 -5.59205e-06
0.00177603 0.000101483 2.26929e-06
0.000101483 0.000102221 2.40908e-06
2.26929e-06 2.40908e-06 -8.09492e-06
0.00193379 0.000102305 8.31646e-08
0.000102305 0.000138416 -3.16596e-07
8.31646e-08 -3.16596e-07 5.85431e-05
0.00151427 0.000132958 -1.84752e-06
0.000132958 7.27125e-05 -5.57612e-09
-1.84752e-06 -5.57612e-09 -6.96295e-05
0.00186218 0.000162448 5.34807e-07
0.000162448 0.000145577 1.99454e-07
5.34807e-07 1.99454e-07 2.1627e-05
0.00199683 0.000144095 5.79755e-07
0.000144095 0.000172979 -1.52652e-06
5.79755e-07 -1.52652e-06 7.57393e-05
0.000807475 0.00010805 -1.4665e-05
0.00010805 -0.000151594 -3.47078e-06
-1.4665e-05 -3.47078e-06 -0.000288234
0.00165307 0.00018659 7.32947e-08
0.00018659 0.000173014 2.64893e-07
7.32947e-08 2.64893e-07 2.04734e-05
0.00179591 0.000224829 7.21362e-07
0.000224829 0.000127201 -4.41249e-07
7.21362e-07 -4.41249e-07 -1.63403e-05
0.000497204 9.28139e-05 -1.80107e-05
9.28139e-05 -0.000149735 -7.37784e-06
-1.80107e-05 -7.37784e-06 -0.000231583
0.000732837 0.000129003 -2.72681e-06
0.000129003 -0.000179007 -3.36068e-07
-2.72681e-06 -3.36068e-07 -0.000321628
0.00179258 0.000232975 7.85229e-06
0.000232975 0.000288539 1.84092e-06
7.85229e-06 1.84092e-06 0.000125464
0.00585747 0.000151115 -0.000233079
0.000151115 0.00315235 -2.15457e-05
-0.000233079 -2.15457e-05 0.00315316
0.000491939 0.000125589 3.37675e-07
0.000125589 -0.000135532 3.69946e-07
3.37675e-07 3.69946e-07 -0.000224764
0.000653268 0.000144908 1.38097e-05
0.000144908 -0.000205759 5.08911e-06
1.38097e-05 5.08911e-06 -0.000354879
0.0058404 9.00895e-05 1.28229e-05
9.00895e-05 0.00315753 1.46001e-06
1.28229e-05 1.46001e-06 0.00315224
0.00047778 0.000153837 1.954e-05
0.000153837 -0.000123064 1.28785e-05
1.954e-05 1.28785e-05 -0.000222066
0.00567248 -5.20626e-05 0.000196779
-5.20626e-05 0.00306006 1.25248e-05
0.000196779 1.25248e-05 0.0030567
0.0018088 4.46497e-05 1.02058e-06
4.46497e-05 0.000106947 -3.98347e-07
1.02058e-06 -3.98347e-07 1.01915e-05
0.00179946 6.04907e-05 -1.81929e-06
6.04907e-05 6.55486e-05 3.96516e-07
-1.81929e-06 3.96516e-07 -7.43054e-06
0.00192803 9.8351e-05 2.87911e-06
9.8351e-05 8.52211e-05 1.95088e-07
2.87911e-06 1.95088e-07 2.38491e-05
0.00175175 -1.77367e-06 7.60696e-07
-1.77367e-06 0.000223455 -4.06236e-07
7.60696e-07 -4.06236e-07 0.000105984
0.0016878 3.38882e-06 5.65671e-08
3.38882e-06 4.43704e-05 -6.08766e-09
5.65671e-08 -6.08766e-09 -5.25684e-05
0.00173161 8.72467e-06 1.95746e-06
8.72467e-06 2.39749e-05 4.22874e-07
1.95746e-06 4.22874e-07 -4.17853e-05
0.00174094 -2.36265e-05 -4.35546e-07
-2.36265e-05 7.90599e-05 7.35557e-07
-4.35546e-07 7.35557e-07 -1.70454e-05
0.00175319 -2.07819e-05 2.77882e-06
-2.07819e-05 0.000216812 -2.7529e-07
2.77882e-06 -2.7529e-07 9.6879e-05
0.000816028 -9.8747e-06 -1.32456e-05
-9.8747e-06 -0.00014558 5.74123e-07
-1.32456e-05 5.74123e-07 -0.000269388
0.00168473 -5.71471e-05 2.6903e-06
-5.71471e-05 0.000175073 4.22255e-08
2.6903e-06 4.22255e-08 4.52503e-05
0.000899425 -2.93445e-05 -2.15511e-06
-2.93445e-05 -9.83616e-05 1.91101e-07
-2.15511e-06 1.91101e-07 -0.000224852
0.000581465 -6.61505e-06 -1.87301e-05
-6.61505e-06 -0.000119976 2.05441e-06
-1.87301e-05 2.05441e-06 -0.000193856
0.00100221 -5.47513e-05 1.19169e-05
-5.47513e-05 -3.20236e-05 -1.90423e-06
1.19169e-05 -1.90423e-06 -0.000161222
0.000560824 -3.19008e-05 8.58816e-07
-3.19008e-05 -0.000130448 -6.05249e-08
8.58816e-07 -6.05249e-08 -0.000204576
0.00561849 -0.000115846 -0.000241579
-0.000115846 0.00300989 9.93238e-06
-0.000241579 9.93238e-06 0.00301628
0.000555728 -4.86079e-05 1.78603e-05
-4.86079e-05 -0.000126153 -3.87868e-06
1.78603e-05 -3.87868e-06 -0.000204417
0.00565307 -5.43041e-05 7.71177e-06
-5.43041e-05 0.00302263 -5.63184e-08
7.71177e-06 -5.63184e-08 0.00303261
0.00158597 -2.14675e-05 0.00019328
-2.14675e-05 0.00058916 -1.08364e-05
0.00019328 -1.08364e-05 0.000576332
0.00168535 7.18468e-05 2.43786e-06
7.18468e-05 4.46592e-05 5.71644e-07
2.43786e-06 5.71644e-07 -6.15704e-05
0.00178614 9.71171e-05 -3.16341e-06
9.71171e-05 6.59647e-05 -9.95109e-07
-3.16341e-06 -9.95109e-07 -1.36868e-05
0.00151323 8.2876e-05 -9.05784e-07
8.2876e-05 7.15278e-05 2.58554e-07
-9.05784e-07 2.58554e-07 -6.06424e-05
0.00177712 0.000100418 6.48857e-07
0.000100418 0.000101405 1.91751e-07
6.48857e-07 1.91751e-07 -9.02139e-06
0.00197946 9.95168e-05 2.50617e-07
9.95168e-05 0.000166741 -3.01626e-06
2.50617e-07 -3.01626e-06 8.82397e-05
0.00104627 8.33997e-05 -1.25214e-05
8.33997e-05 -1.28277e-05 -2.33207e-06
-1.25214e-05 -2.33207e-06 -0.000141989
0.00151132 0.00013254 1.01144e-07
0.00013254 7.276e-05 8.45705e-08
1.01144e-07 8.45705e-08 -6.97343e-05
0.00183026 0.000161352 3.85903e-07
0.000161352 0.000122377 -8.65519e-07
3.85903e-07 -8.65519e-07 -2.82199e-06
0.000524104 6.60168e-05 -1.75739e-05
6.60168e-05 -0.000146601 -5.31985e-06
-1.75739e-05 -5.31985e-06 -0.000224652
0.000888378 0.000111302 -2.90227e-06
0.000111302 -0.000101716 -2.55933e-07
-2.90227e-06 -2.55933e-07 -0.000238109
0.00174155 0.000187592 4.05307e-06
0.000187592 0.000229456 1.06806e-06
4.05307e-06 1.06806e-06 7.62905e-05
0.00579971 0.000193003 -0.000251559
0.000193003 0.00312004 -2.07e-05
-0.000251559 -2.07e-05 0.00312014
0.000520305 9.24053e-05 1.62854e-08
9.24053e-05 -0.000137032 1.77224e-07
1.62854e-08 1.77224e-07 -0.000219065
0.000710074 0.00012816 9.73091e-06
0.00012816 -0.000191889 3.6824e-06
9.73091e-06 3.6824e-06 -0.000334562
0.00581209 0.000171482 1.08171e-05
0.000171482 0.00313496 3.05307e-06
1.08171e-05 3.05307e-06 0.00313137
0.000507471 0.000118887 1.84422e-05
0.000118887 -0.000127782 1.00569e-05
1.84422e-05 1.00569e-05 -0.000217002
0.00578591 8.53076e-05 0.000222561
8.53076e-05 0.00311424 1.86204e-05
0.000222561 1.86204e-05 0.00311643
0.00173233 3.08033e-05 1.68459e-06
3.08033e-05 0.000211022 -8.84637e-09
1.68459e-06 -8.84637e-09 9.30699e-05
0.00176061 4.00497e-05 -1.54608e-06
4.00497e-05 8.14958e-05 1.1218e-07
-1.54608e-06 1.1218e-07 -1.67865e-05
0.00173561 5.79183e-05 -9.86655e-07
5.79183e-05 3.57126e-05 2.69206e-07
-9.86655e-07 2.69206e-07 -3.92197e-05
0.000810172 -7.43313e-06 -1.3777e-05
-7.43313e-06 -0.000141297 -1.40638e-07
-1.3777e-05 -1.40638e-07 -0.000263569
0.00175494 4.11949e-06 3.23097e-06
4.11949e-06 0.000225221 -2.15304e-07
3.23097e-06 -2.15304e-07 0.000107682
0.00168411 1.99116e-06 -1.49699e-06
1.99116e-06 4.01567e-05 6.66021e-07
-1.49699e-06 6.66021e-07 -5.47776e-05
0.00175704 -2.1017e-05 5.64561e-06
-2.1017e-05 0.000218412 7.93804e-08
5.64561e-06 7.93804e-08 9.84177e-05
0.000807143 -1.00222e-05 -1.58022e-06
-1.00222e-05 -0.000151723 8.83388e-08
-1.58022e-06 8.83388e-08 -0.00027575
0.000583504 -2.94709e-05 -1.91046e-05
-2.94709e-05 -0.000119743 8.51589e-07
-1.91046e-05 8.51589e-07 -0.000191414
0.000980923 -2.82702e-05 1.03019e-05
-2.82702e-05 -4.94835e-05 -1.21694e-06
1.03019e-05 -1.21694e-06 -0.00017563
0.000562072 4.31581e-06 3.25469e-07
4.31581e-06 -0.000131934 5.84414e-08
3.25469e-07 5.84414e-08 -0.000205118
0.00563661 -9.23549e-05 -0.000247636
-9.23549e-05 0.00301854 7.07384e-06
-0.000247636 7.07384e-06 0.00302721
0.000572498 -3.57632e-05 1.86773e-05
-3.57632e-05 -0.00012177 -2.61987e-06
1.86773e-05 -2.61987e-06 -0.00019705
0.00564646 -9.7689e-06 -3.04912e-06
-9.7689e-06 0.00301735 1.71739e-06
-3.04912e-06 1.71739e-06 0.00302921
0.00565698 -7.19762e-05 0.000241569
-7.19762e-05 0.00302377 -8.80557e-06
0.000241569 -8.80557e-06 0.00303486
0.00148176 4.92242e-05 -7.08051e-07
4.92242e-05 5.90784e-05 4.70049e-08
-7.08051e-07 4.70049e-08 -6.78869e-05
0.00174458 7.48612e-05 -1.6376e-06
7.48612e-05 7.77099e-05 -1.23548e-06
-1.6376e-06 -1.23548e-06 -2.40995e-05
0.00176652 0.000101184 -3.95031e-06
0.000101184 5.03016e-05 -2.1931e-06
-3.95031e-06 -2.1931e-06 -2.66729e-05
0.00104646 4.87384e-05 -1.2244e-05
4.87384e-05 -1.04108e-05 -1.79244e-06
-1.2244e-05 -1.79244e-06 -0.000134286
0.00149837 8.24812e-05 1.95743e-07
8.24812e-05 6.33557e-05 5.63316e-09
1.95743e-07 5.63316e-09 -6.9205e-05
0.00177899 9.92829e-05 -7.94714e-07
9.92829e-05 0.000101353 -1.81841e-06
-7.94714e-07 -1.81841e-06 -9.17226e-06
0.000550136 4.16221e-05 -1.71746e-05
4.16221e-05 -0.000136188 -3.8084e-06
-1.71746e-05 -3.8084e-06 -0.000211858
0.00101365 8.45612e-05 2.42506e-07
8.45612e-05 -3.18455e-05 2.48558e-07
2.42506e-07 2.48558e-07 -0.000161577
0.00150938 0.000132184 2.4605e-06
0.000132184 7.30426e-05 2.34009e-07
2.4605e-06 2.34009e-07 -6.96203e-05
0.00572436 0.000181122 -0.00026328
0.000181122 0.00307726 -1.78343e-05
-0.00026328 -1.78343e-05 0.00307878
0.000550449 6.93275e-05 3.37305e-07
6.93275e-05 -0.000130928 1.53184e-07
3.37305e-07 1.53184e-07 -0.000209551
0.000967712 0.000114554 9.76775e-06
0.000114554 -5.29704e-05 3.07071e-06
9.76775e-06 3.07071e-06 -0.000189079
0.00578635 0.000206613 6.28332e-06
0.000206613 0.00311872 2.78167e-06
6.28332e-06 2.78167e-06 0.00311614
0.00054696 9.33633e-05 1.77001e-05
9.33633e-05 -0.000121547 7.80308e-06
1.77001e-05 7.80308e-06 -0.000203973
0.00579616 0.000195092 0.000241128
0.000195092 0.00312617 2.3822e-05
0.000241128 2.3822e-05 0.0031227
0.00100182 1.47535e-05 -1.28739e-05
1.47535e-05 -2.37317e-05 -7.38128e-07
-1.28739e-05 -7.38128e-07 -0.000144841
0.00163457 2.64721e-05 3.68292e-06
2.64721e-05 0.000153445 9.57763e-08
3.68292e-06 9.57763e-08 3.53037e-05
0.00171433 3.49061e-05 -4.43372e-06
3.49061e-05 5.67957e-05 2.10608e-07
-4.43372e-06 2.10608e-07 -4.30209e-05
0.000613871 3.00938e-05 -1.96299e-05
3.00938e-05 -0.000109074 -4.83217e-07
-1.96299e-05 -4.83217e-07 -0.000173763
0.000787997 -1.78132e-06 -1.8012e-06
-1.78132e-06 -0.000155316 5.31403e-08
-1.8012e-06 5.31403e-08 -0.000277753
0.00175554 1.05714e-05 5.76708e-06
1.05714e-05 0.000225388 1.54041e-07
5.76708e-06 1.54041e-07 0.000107762
0.000796371 -9.77338e-06 1.01421e-05
-9.77338e-06 -0.000159121 -4.20817e-07
1.01421e-05 -4.20817e-07 -0.000283345
0.000577989 -4.64232e-06 2.83307e-07
-4.64232e-06 -0.000122761 3.37622e-07
2.83307e-07 3.37622e-07 -0.000194673
0.00560449 3.73648e-05 -0.000252879
3.73648e-05 0.00299496 -3.66698e-07
-0.000252879 -3.66698e-07 0.00300768
0.000539563 1.57582e-05 1.81938e-05
1.57582e-05 -0.000146375 -1.23708e-06
1.81938e-05 -1.23708e-06 -0.000218513
0.00561621 -9.1088e-05 -7.83302e-06
-9.1088e-05 0.00300722 1.57936e-06
-7.83302e-06 1.57936e-06 0.00301554
0.00560861 9.79143e-06 0.000232517
9.79143e-06 0.0029952 -3.99443e-06
0.000232517 -3.99443e-06 0.00300678
0.00102008 2.60929e-05 -1.26466e-05
2.60929e-05 -1.82492e-05 -1.40996e-06
-1.26466e-05 -1.40996e-06 -0.000139673
0.00149095 4.84332e-05 -1.54002e-07
4.84332e-05 6.46116e-05 -8.25215e-08
-1.54002e-07 -8.25215e-08 -5.9871e-05
0.00180791 7.76035e-05 -4.57388e-06
7.76035e-05 0.000113036 -2.22091e-06
-4.57388e-06 -2.22091e-06 1.56578e-05
0.00262203 5.14199e-05 -0.000120853
5.14199e-05 0.00109905 -3.90162e-06
-0.000120853 -3.90162e-06 0.00105052
0.00101231 5.0619e-05 2.81377e-07
5.0619e-05 -3.11665e-05 1.11664e-07
2.81377e-07 1.11664e-07 -0.000155462
0.00148438 8.20208e-05 2.14719e-06
8.20208e-05 5.56208e-05 -1.0647e-07
2.14719e-06 -1.0647e-07 -7.73394e-05
0.00564732 0.000141211 -0.000264859
0.000141211 0.00302893 -1.31813e-05
-0.000264859 -1.31813e-05 0.00303471
0.000584803 5.88839e-05 8.22862e-07
5.88839e-05 -0.000113671 3.60502e-07
8.22862e-07 3.60502e-07 -0.000190926
0.000984603 8.58435e-05 1.23908e-05
8.58435e-05 -4.86843e-05 2.77978e-06
1.23908e-05 2.77978e-06 -0.000178964
0.00576829 0.0001932 1.80224e-06
0.0001932 0.0031053 1.6569e-06
1.80224e-06 1.6569e-06 0.00310577
0.000587237 7.5343e-05 1.80213e-05
7.5343e-05 -0.000107966 6.12602e-06
1.80213e-05 6.12602e-06 -0.000187765
0.00577299 0.000234255 0.000252568
0.000234255 0.00311966 2.52218e-05
0.000252568 2.52218e-05 0.00311236
0.000660898 9.58003e-06 -1.63489e-05
9.58003e-06 -7.0371e-05 -1.79908e-06
-1.63489e-05 -1.79908e-06 -0.000143203
0.000889252 1.31082e-05 6.38445e-07
1.31082e-05 -9.18986e-05 2.54281e-07
6.38445e-07 2.54281e-07 -0.000213486
0.00153365 2.1549e-05 4.87156e-06
2.1549e-05 9.38482e-05 1.32105e-07
4.87156e-06 1.32105e-07 -2.44448e-05
0.00547895 -9.42075e-05 -0.000236924
-9.42075e-05 0.00293662 1.31531e-06
-0.000236924 1.31531e-06 0.00293953
0.000573846 7.90981e-06 -5.21836e-07
7.90981e-06 -0.00012813 1.19368e-07
-5.21836e-07 1.19368e-07 -0.000195441
0.000780653 3.17457e-06 1.00495e-05
3.17457e-06 -0.000160775 1.0315e-07
1.00495e-05 1.0315e-07 -0.000283331
0.000537775 2.06651e-05 1.84093e-05
2.06651e-05 -0.00014719 1.4962e-07
1.84093e-05 1.4962e-07 -0.000218464
0.00555971 1.54768e-06 2.44953e-06
1.54768e-06 0.00297283 -9.70206e-07
2.44953e-06 -9.70206e-07 0.00298214
0.00562638 -6.87015e-06 0.000241747
-6.87015e-06 0.00300366 -2.13006e-06
0.000241747 -2.13006e-06 0.00301679
0.00269447 8.48303e-06 -0.000117356
8.48303e-06 0.00113936 -2.41474e-06
-0.000117356 -2.41474e-06 0.00109233
0.00101468 2.9086e-05 5.3097e-08
2.9086e-05 -2.32371e-05 7.1544e-08
5.3097e-08 7.1544e-08 -0.000144948
0.00149549 4.78048e-05 1.85487e-06
4.78048e-05 6.76612e-05 -2.60978e-07
1.85487e-06 -2.60978e-07 -5.43328e-05
0.00523447 -5.44851e-05 -8.53829e-05
-5.44851e-05 0.00279402 5.11016e-07
-8.53829e-05 5.11016e-07 0.00278033
0.000600871 5.12432e-05 5.20049e-08
5.12432e-05 -0.000105451 2.08834e-07
5.20049e-08 2.08834e-07 -0.000179581
0.000994932 5.30432e-05 1.21549e-05
5.30432e-05 -4.25669e-05 2.05091e-06
1.21549e-05 2.05091e-06 -0.000167224
0.00570028 0.000112175 -1.08059e-05
0.000112175 0.00305582 -1.25577e-06
-1.08059e-05 -1.25577e-06 0.00306327
0.000616472 8.1166e-05 1.94569e-05
8.1166e-05 -9.43064e-05 5.126e-06
1.94569e-05 5.126e-06 -0.000172234
0.00578388 0.000217345 0.000263479
0.000217345 0.0031219 2.30208e-05
0.000263479 2.30208e-05 0.00311889
0.001679 -5.04043e-05 -0.000198516
-5.04043e-05 0.000639678 7.77337e-07
-0.000198516 7.77337e-07 0.000632085
0.00164564 2.62801e-05 -4.91293e-05
2.62801e-05 0.00051083 2.09028e-07
-4.91293e-05 2.09028e-07 0.000455414
0.00077287 1.39401e-05 1.24416e-05
1.39401e-05 -0.000162013 9.66376e-07
1.24416e-05 9.66376e-07 -0.000284146
0.00554046 -4.09468e-05 7.66799e-06
-4.09468e-05 0.00296772 1.4759e-06
7.66799e-06 1.4759e-06 0.00297495
0.000589243 -1.25445e-05 1.896e-05
-1.25445e-05 -0.000113519 8.03301e-07
1.896e-05 8.03301e-07 -0.000184138
0.00559649 -6.56925e-05 0.000256013
-6.56925e-05 0.002996 -2.36424e-06
0.000256013 -2.36424e-06 0.00300578
0.00126782 1.22061e-05 -4.15161e-05
1.22061e-05 0.000418233 -6.94919e-07
-4.15161e-05 -6.94919e-07 0.000384086
0.00163486 1.32012e-05 -4.94903e-05
1.32012e-05 0.000508226 -7.23276e-07
-4.94903e-05 -7.23276e-07 0.000449661
0.000998375 3.06997e-05 1.23887e-05
3.06997e-05 -3.43857e-05 1.60432e-06
1.23887e-05 1.60432e-06 -0.000156411
0.00346288 5.22048e-05 9.3974e-05
5.22048e-05 0.00171939 2.28335e-06
9.3974e-05 2.28335e-06 0.00170856
0.000609764 6.15267e-05 1.9736e-05
6.15267e-05 -0.000100108 3.92976e-06
1.9736e-05 3.92976e-06 -0.000174282
0.00575499 0.000101494 0.000251996
0.000101494 0.00308269 1.39295e-05
0.000251996 1.39295e-05 0.00309312
0.00548656 -2.15751e-05 -8.91737e-06
-2.15751e-05 0.0029383 -2.09846e-06
-8.91737e-06 -2.09846e-06 0.00294464
0.000590345 4.43259e-05 2.03649e-05
4.43259e-05 -0.000121241 2.0321e-06
2.03649e-05 2.0321e-06 -0.000185633
0.00545496 4.8679e-05 0.000242796
4.8679e-05 0.00291371 8.33637e-08
0.000242796 8.33637e-08 0.00292384
0.00339717 2.69493e-05 0.000107472
2.69493e-05 0.00168439 3.42754e-06
0.000107472 3.42754e-06 0.001674
0.000620547 5.3737e-06 1.89088e-05
5.3737e-06 -9.49155e-05 2.65575e-06
1.89088e-05 2.65575e-06 -0.000165845
0.00562916 -2.22803e-05 0.000242834
-2.22803e-05 0.00301035 6.11637e-06
0.000242834 6.11637e-06 0.00302046
0.00551987 -0.000126033 0.000238844
-0.000126033 0.00296365 -3.13066e-06
0.000238844 -3.13066e-06 0.00296515
0.00550482 -8.01269e-06 0.000238503
-8.01269e-06 0.00293465 3.23695e-06
0.000238503 3.23695e-06 0.00294797
