# vtk DataFile Version 2.0
Wound Healing Simulation
ASCII
DATASET UNSTRUCTURED_GRID
POINTS 3012 float
69.9759 18.75 4
67.2507 60.3285 4
69.976 18.75 2
73.0099 25.446 4
71.1327 20.9142 4
68.6801 16.6661 4
67.8237 19.9264 3.97824
67.2507 60.3286 2
71.1327 54.0858 4
68.6801 58.3339 4
65.6939 62.2254 4
65.3104 59.0004 3.97745
74.6784 42.3946 4
73.7221 47.2057 4
69.9759 18.75 0
73.0099 25.446 2
68.6801 16.6661 2
71.1327 20.9142 2
67.8243 19.93 2
74.6792 32.6053 4
73.7222 27.7943 4
72.1454 23.1494 4
70.6127 26.2213 3.97795
68.884 21.9582 3.9787
67.2507 14.6715 4
66.6351 17.9727 3.97726
65.7919 21.0283 3.96729
67.2507 60.3285 0
71.1327 54.0858 2
68.6801 58.3339 2
65.694 62.2255 2
65.3117 58.9957 2
72.1454 51.8506 4
69.9759 56.25 4
68.8346 53.1131 3.97794
64.0165 64.0165 4
66.609 57.1332 3.97801
63.8835 60.7644 3.97768
63.4957 57.7664 3.96833
60.3285 67.2507 4
74.6792 42.3947 2
73.7222 47.2057 2
74.9194 39.9526 4
74.2788 44.8158 4
72.1671 42.0857 3.97826
73.0099 49.554 4
71.2479 46.598 3.97755
73.0099 25.446 0
71.1327 20.9142 0
68.6801 16.6661 0
67.8237 19.9264 0.0217598
74.6792 32.6053 2
73.7222 27.7943 2
67.2508 14.6715 2
72.1455 23.1494 2
70.6125 26.2219 2
66.6362 17.9774 2
68.8843 21.9605 2
65.7911 21.0294 2
74.9197 35.0474 4
74.2794 30.1841 4
72.1839 32.9439 3.97861
71.277 28.4319 3.97785
69.814 24.0598 3.97848
68.3424 26.9534 3.96689
66.7576 22.9355 3.96701
65.694 12.7746 4
65.3214 16.105 3.97663
64.7082 19.1996 3.9677
63.8466 22.0517 3.96504
71.1327 54.0858 0
65.6939 62.2254 0
68.6801 58.3339 0
65.3104 59.0004 0.0225454
72.1455 51.8506 2
69.9759 56.25 2
68.8347 53.111 2
64.0165 64.0165 2
66.6098 57.129 2
63.8854 60.7602 2
63.4943 57.766 2
62.2254 65.694 4
58.8931 65.4133 3.987
69.7672 50.989 3.97767
67.7819 55.1671 3.97808
66.6443 52.2076 3.96669
62.3337 62.4254 3.97992
64.6557 56.0283 3.96795
62.1977 59.395 3.96797
61.8091 56.6688 3.96377
58.3339 68.6801 4
60.3285 67.2508 2
73.7221 47.2057 0
74.6784 42.3946 0
74.9197 39.9526 2
74.2794 44.8159 2
72.1665 42.0855 2
73.0099 49.554 2
71.2477 46.5977 2
75 37.5 4
72.4045 39.8025 3.97913
71.7814 44.3529 3.97824
69.8004 41.7901 3.96785
70.5735 48.8135 3.97735
68.9079 46.0144 3.96723
74.6792 32.6053 0
73.7222 27.7943 0
67.2507 14.6715 0
72.1454 23.1494 0
70.6127 26.2213 0.0220469
68.884 21.9582 0.0213034
66.6351 17.9727 0.0227372
65.7919 21.0283 0.0327132
74.9197 35.0474 2
74.2794 30.1841 2
72.1832 32.9443 2
71.2767 28.4324 2
65.694 12.7745 2
65.323 16.1102 2
69.814 24.061 2
68.3422 26.9542 2
64.7073 19.2006 2
66.757 22.9366 2
63.8468 22.0522 2
72.4123 35.2247 3.97907
71.8029 30.6768 3.97851
69.8367 33.27 3.96804
68.9622 29.04 3.96729
67.6066 24.914 3.96686
66.1415 27.6481 3.9671
64.0165 10.9835 4
64.7092 23.8457 3.96583
63.8874 14.3298 3.97724
63.5075 17.4549 3.96816
62.8724 20.338 3.96406
61.9911 22.9805 3.96735
60.6821 11.1006 3.98166
57.6089 11.4576 3.97265
72.1454 51.8506 0
69.9759 56.25 0
68.8346 53.1131 0.0220598
64.0165 64.0165 0
63.8835 60.7644 0.0223244
66.609 57.1332 0.0219906
63.4957 57.7664 0.0316728
62.2255 65.694 2
58.8952 65.4113 2
69.7671 50.9879 2
67.7824 55.1638 2
66.6436 52.2068 2
62.3358 62.4216 2
64.6546 56.0277 2
62.1966 59.3955 2
61.8104 56.6692 2
60.6667 63.975 3.98295
57.024 66.7347 3.98898
57.5556 63.6853 3.975
67.5024 50.1755 3.96652
65.6967 54.1711 3.96716
64.4829 51.37 3.96547
60.7688 60.9247 3.97077
62.7939 55.0553 3.96449
60.6472 58.1432 3.9638
60.2883 55.7607 3.96434
56.25 69.9759 4
58.3339 68.6801 2
60.3285 67.2507 0
58.9196 9.65819 3.98379
62.2254 9.30607 4
73.0099 49.554 0
74.2788 44.8158 0
71.2479 46.598 0.0224524
72.1671 42.0857 0.0217368
74.9194 39.9526 0
75 37.5 2
72.4044 39.8025 2
71.7812 44.3525 2
69.7997 41.7898 2
70.5733 48.8131 2
68.9077 46.0139 2
72.4879 37.5125 3.97869
70.038 39.6582 3.96815
69.4265 43.9076 3.96776
67.5472 41.4936 3.96944
68.261 48.1063 3.96666
66.6468 45.4295 3.9684
74.9197 35.0474 0
74.2794 30.1841 0
72.1839 32.9439 0.0213907
71.277 28.4319 0.0221476
65.694 12.7746 0
65.3214 16.105 0.0233679
69.814 24.0598 0.0215221
68.3424 26.9534 0.0331134
66.7576 22.9355 0.0329938
64.7082 19.1996 0.0323005
63.8466 22.0517 0.0349573
72.4122 35.2247 2
71.8028 30.6774 2
69.836 33.2705 2
68.962 29.0407 2
64.0165 10.9835 2
63.8896 14.3348 2
63.5065 17.4558 2
67.6062 24.9149 2
66.1416 27.6487 2
62.8729 20.3384 2
64.709 23.8464 2
61.9902 22.9812 2
60.6849 11.1042 2
57.6108 11.4567 2
70.0546 35.3934 3.96807
69.4636 31.1512 3.96765
67.6109 33.5974 3.96907
66.7187 29.6345 3.96779
65.4723 25.7141 3.96651
64.0089 28.2866 3.97174
62.3392 12.6583 3.97927
62.7413 24.6732 3.96891
62.1934 15.7979 3.96911
61.7919 18.7035 3.96339
61.1264 21.381 3.96518
60.2596 23.7849 3.9705
59.2418 12.8013 3.97073
55.8719 10.2428 3.97546
56.3988 13.1515 3.96982
69.7672 50.989 0.0223293
62.2254 65.694 0
58.8931 65.4133 0.0129985
67.7819 55.1671 0.0219212
66.6443 52.2076 0.0333095
62.3337 62.4254 0.0200831
62.1977 59.395 0.0320266
64.6557 56.0283 0.0320526
61.8091 56.6688 0.0362267
60.6689 63.9721 2
57.0258 66.7334 2
57.5563 63.6858 2
67.502 50.1748 2
65.6958 54.1704 2
64.4831 51.3697 2
60.7677 60.9259 2
62.7945 55.0554 2
60.6471 58.1435 2
60.2894 55.7609 2
55.0699 67.9316 3.9906
59.215 62.3491 3.97175
55.8026 64.9046 3.97951
56.3205 62.0647 3.97236
65.2683 49.3932 3.96638
63.6636 53.278 3.96481
62.3101 50.6168 3.96792
59.3234 59.5371 3.96532
61.0056 54.2801 3.96613
59.2549 56.984 3.96275
59.1753 55.1482 3.96678
48.1005 68.5765 3.98628
50.9476 69.9314 3.99115
54.0858 71.1327 4
56.25 69.976 2
58.3339 68.6801 0
57.057 8.33746 3.98573
60.3285 7.74928 4
58.9226 9.66108 2
62.2255 9.30602 2
70.5735 48.8135 0.0226461
71.7814 44.3529 0.0217569
68.9079 46.0144 0.032768
69.8004 41.7901 0.0321453
72.4045 39.8025 0.0208735
75 37.5 0
72.4873 37.5125 2
70.0378 39.6581 2
69.4263 43.9072 2
67.5468 41.4934 2
68.2608 48.1056 2
66.6459 45.429 2
70.126 37.5227 3.96815
67.7896 39.5112 3.96941
67.1661 43.4628 3.96908
65.4175 41.198 3.97609
66.0025 47.4047 3.96748
64.4918 44.823 3.97278
72.4123 35.2247 0.0209344
71.8029 30.6768 0.0214888
69.8367 33.27 0.0319588
68.9622 29.04 0.0327107
64.0165 10.9835 0
63.8874 14.3298 0.0227594
63.5075 17.4549 0.0318366
67.6066 24.914 0.0331396
66.1415 27.6481 0.0328966
64.7092 23.8457 0.0341659
62.8724 20.338 0.0359413
61.9911 22.9805 0.0326453
60.6821 11.1006 0.0183433
57.6089 11.4576 0.0273507
70.0545 35.3936 2
69.4634 31.1518 2
67.6106 33.5977 2
66.7184 29.635 2
62.3419 12.6628 2
62.1921 15.7985 2
61.7929 18.7036 2
65.4723 25.7147 2
64.007 28.2873 2
61.1252 21.3816 2
62.7403 24.6739 2
60.2593 23.786 2
59.2434 12.8008 2
56.3996 13.1492 2
55.8732 10.2423 2
67.8301 35.5514 3.96941
67.2182 31.6314 3.96865
65.5686 33.9409 3.97531
64.5223 30.2186 3.9728
63.4119 26.4481 3.97042
62.0407 28.825 3.97607
60.7702 14.2419 3.96988
60.8614 25.393 3.9729
60.5989 17.1497 3.96388
60.1444 19.8578 3.96284
59.5035 22.3195 3.96694
58.7596 24.3952 3.97345
54.0357 9.14376 3.97786
57.901 14.3658 3.96867
54.7811 12.0377 3.97272
55.3005 14.6958 3.96677
67.5024 50.1755 0.0334796
57.024 66.7347 0.0110243
60.6667 63.975 0.0170476
57.5556 63.6853 0.0250028
65.6967 54.1711 0.0328363
64.4829 51.37 0.0345316
60.7688 60.9247 0.0292316
60.6472 58.1432 0.0361976
62.7939 55.0553 0.035514
60.2883 55.7607 0.0356563
55.0713 67.931 2
59.2156 62.3521 2
55.8032 64.905 2
56.3198 62.0671 2
65.2683 49.3928 2
63.6639 53.2779 2
62.3095 50.6163 2
59.3221 59.5382 2
61.0058 54.28 2
59.2585 56.9846 2
59.1776 55.1484 2
53.0419 68.9996 3.99099
53.9651 66.0096 3.98243
57.8718 60.8451 3.96992
54.6797 63.1969 3.9747
55.1996 60.5821 3.96986
63.0473 48.6271 3.9696
61.6364 52.5419 3.96697
60.0653 49.965 3.97009
57.9976 58.2363 3.96482
59.2151 53.9043 3.96785
58.0361 55.7691 3.96229
50.1072 67.8547 3.98562
47.4617 66.5754 3.98202
46.0544 69.1555 3.98675
48.1008 68.5771 2
48.8016 70.7226 3.99136
50.9486 69.931 2
51.8506 72.1454 4
54.0858 71.1327 2
56.25 69.9759 0
55.1018 7.14181 3.98835
58.3339 6.31992 4
57.0596 8.33912 2
60.3286 7.74926 2
58.9196 9.65819 0.0162079
62.2254 9.30607 0
68.261 48.1063 0.0333375
69.4265 43.9076 0.0322385
66.6468 45.4295 0.031599
67.5472 41.4936 0.0305578
70.038 39.6582 0.031847
72.4879 37.5125 0.0213059
70.1254 37.5227 2
67.7887 39.5111 2
67.1666 43.4625 2
65.4154 41.1975 2
66.0026 47.4043 2
64.4897 44.8224 2
67.8907 37.5235 3.96949
65.6564 39.3653 3.97633
65.0273 43.0067 3.97458
63.5307 40.9089 3.97681
63.8056 46.6859 3.97107
62.5636 44.1772 3.9766
70.0546 35.3934 0.0319275
69.4636 31.1512 0.0323453
67.6109 33.5974 0.030929
66.7187 29.6345 0.0322123
62.3392 12.6583 0.0207302
62.1934 15.7979 0.030895
61.7919 18.7035 0.0366074
65.4723 25.7141 0.0334924
64.0089 28.2866 0.0282612
62.7413 24.6732 0.0310947
61.1264 21.381 0.0348157
60.2596 23.7849 0.0294951
59.2418 12.8013 0.0292691
56.3988 13.1515 0.0301799
55.8719 10.2428 0.0245364
67.829 35.5516 2
67.2188 31.6317 2
65.5658 33.9415 2
64.5202 30.2192 2
60.7704 14.2428 2
60.598 17.1503 2
60.1446 19.858 2
63.4106 26.4488 2
62.0383 28.826 2
59.5052 22.3203 2
60.8607 25.394 2
58.7588 24.3967 2
57.9011 14.3647 2
55.3011 14.695 2
54.037 9.14211 2
54.782 12.0349 2
65.7518 35.6748 3.97604
65.0444 32.1749 3.97377
64.088 34.2706 3.97672
62.3614 30.6782 3.97685
61.446 27.1247 3.97412
60.5812 29.2024 3.97716
59.299 15.6964 3.96637
59.0822 25.8715 3.976
59.0824 18.3943 3.96169
58.6075 20.9162 3.9636
58.0728 23.1721 3.96824
57.7249 24.752 3.97464
52.1112 8.15901 3.98105
53.0539 11.035 3.97405
56.66 15.7861 3.96741
53.7996 13.7226 3.97062
54.3547 16.0551 3.96606
55.0699 67.9316 0.00939622
65.2683 49.3932 0.0336158
55.8026 64.9046 0.0204866
59.215 62.3491 0.0282462
56.3205 62.0647 0.0276439
63.6636 53.278 0.0351899
62.3101 50.6168 0.0320792
59.3234 59.5371 0.0346768
59.2549 56.984 0.0372475
61.0056 54.2801 0.0338704
59.1753 55.1482 0.0332186
53.0431 68.9992 2
53.9656 66.0102 2
57.871 60.8473 2
54.6793 63.1977 2
55.1991 60.5839 2
63.0462 48.6266 2
61.6366 52.5417 2
60.0656 49.9644 2
57.9969 58.2373 2
59.2175 53.9043 2
58.0335 55.768 2
52.0685 66.9975 3.98492
52.951 64.2103 3.97926
56.6318 59.4591 3.96794
53.6722 61.5997 3.97476
54.2393 59.2843 3.97114
60.7471 47.8264 3.9715
59.5387 52.0536 3.96851
57.7565 49.5462 3.97211
56.7333 56.9505 3.96578
56.9767 54.0657 3.96603
50.1074 67.855 2
49.3356 65.9159 3.98208
47.4619 66.576 2
46.8906 64.7274 3.98071
45.5568 67.0924 3.98216
43.9718 69.5875 3.98726
46.0546 69.1561 2
46.6081 71.3671 3.99153
48.1005 68.5765 0.0137183
48.8026 70.7226 2
49.554 73.0099 4
50.9476 69.9314 0.00884861
51.8506 72.1455 2
54.0858 71.1327 0
53.0639 6.07267 3.99056
55.104 7.14225 2
56.25 5.02411 4
58.3339 6.3199 2
57.057 8.33746 0.0142673
60.3285 7.74928 0
66.0025 47.4047 0.0325186
67.1661 43.4628 0.0309195
64.4918 44.823 0.0272167
65.4175 41.198 0.0239106
67.7896 39.5112 0.0305876
70.126 37.5227 0.0318519
67.8903 37.5235 2
65.6537 39.365 2
65.0246 43.0061 2
63.528 40.9086 2
63.8038 46.6852 2
62.5615 44.1763 2
65.7635 37.5035 3.97626
63.68 39.2578 3.97697
63.0905 42.5191 3.97663
62.1454 40.6726 3.97674
61.7164 45.8719 3.97374
61.1412 43.633 3.97638
67.8301 35.5514 0.0305888
67.2182 31.6314 0.0313489
65.5686 33.9409 0.0246853
64.5223 30.2186 0.0272049
60.7702 14.2419 0.0301175
60.5989 17.1497 0.036124
60.1444 19.8578 0.0371622
63.4119 26.4481 0.0295774
62.0407 28.825 0.0239332
60.8614 25.393 0.027101
59.5035 22.3195 0.033061
58.7596 24.3952 0.0265499
57.901 14.3658 0.0313306
55.3005 14.6958 0.0332253
54.0357 9.14376 0.0221437
54.7811 12.0377 0.0272768
65.7494 35.6751 2
65.042 32.1755 2
64.0854 34.271 2
62.3595 30.679 2
59.298 15.6968 2
59.0834 18.394 2
58.612 20.9168 2
61.4443 27.1258 2
60.5802 29.2034 2
58.0697 23.1742 2
59.082 25.8728 2
57.7258 24.7542 2
56.6599 15.7849 2
54.3555 16.0563 2
53.7993 13.7157 2
52.112 8.15775 2
53.0551 11.033 2
63.8858 35.6454 3.97677
62.6871 33.0798 3.97684
60.3075 30.6735 3.97647
59.2893 27.9849 3.97654
57.9169 17.0222 3.96328
57.4581 25.8204 3.97631
57.626 19.5349 3.96119
57.1794 21.9242 3.96382
56.9192 24.0456 3.96886
50.1119 7.28843 3.98503
51.2303 10.136 3.97609
52.1634 12.8255 3.975
55.5095 17.0247 3.9655
52.9612 15.3169 3.96827
53.7288 17.0451 3.96934
53.0419 68.9996 0.0090133
53.9651 66.0096 0.0175678
63.0473 48.6271 0.0304038
54.6797 63.1969 0.0253027
57.8718 60.8451 0.0300826
55.1996 60.5821 0.0301398
61.6364 52.5419 0.0330276
60.0653 49.965 0.0299135
57.9976 58.2363 0.0351754
58.0361 55.7691 0.0377088
59.2151 53.9043 0.0321548
52.0689 66.998 2
52.951 64.2109 2
56.6314 59.4606 2
53.6712 61.5994 2
54.2391 59.2865 2
60.7465 47.8257 2
59.5396 52.0533 2
57.7537 49.5448 2
56.7319 56.9548 2
56.9739 54.0641 2
51.1665 65.1221 3.98137
52.0403 62.5266 3.97647
55.4521 58.2162 3.96878
52.8176 60.0986 3.97632
53.6107 58.4338 3.97392
57.9596 46.772 3.97514
57.3477 51.7209 3.96874
55.9243 49.4704 3.97106
55.3958 55.7442 3.96495
55.1789 53.3187 3.96295
50.1072 67.8547 0.0143844
49.3358 65.916 2
48.616 64.1147 3.9809
47.4617 66.5754 0.0179826
45.557 67.0931 2
46.8909 64.7279 2
46.379 63.0421 3.9825
45.1312 65.1878 3.98007
43.6301 67.4634 3.98298
41.8595 69.8745 3.98685
43.9718 69.5879 2
44.3753 71.8617 3.99157
46.0544 69.1555 0.0132468
46.6088 71.3671 2
47.2057 73.7222 4
48.8016 70.7226 0.0086353
49.554 73.0099 2
51.8506 72.1454 0
50.9545 5.13303 3.99161
53.0654 6.07282 2
54.0858 3.86728 4
55.1018 7.14181 0.0116486
56.25 5.02406 2
58.3339 6.31992 0
63.8056 46.6859 0.0289341
65.0273 43.0067 0.0254185
62.5636 44.1772 0.0234008
63.5307 40.9089 0.0231944
65.6564 39.3653 0.0236712
67.8907 37.5235 0.0305063
65.7607 37.5036 2
63.6776 39.2579 2
63.0883 42.5185 2
62.1442 40.6722 2
61.7146 45.871 2
61.1395 43.6324 2
63.7429 37.4589 3.9768
61.8592 39.3406 3.97699
60.8873 41.918 3.97677
59.9225 44.7084 3.97675
65.7518 35.6748 0.023963
65.0444 32.1749 0.0262295
64.088 34.2706 0.0232756
62.3614 30.6782 0.0231462
59.299 15.6964 0.0336329
59.0824 18.3943 0.0383073
58.6075 20.9162 0.0363989
61.446 27.1247 0.0258822
60.5812 29.2024 0.0228422
59.0822 25.8715 0.0240011
58.0728 23.1721 0.0317561
57.7249 24.752 0.0253601
56.66 15.7861 0.0325942
54.3547 16.0551 0.0339446
53.7996 13.7226 0.0293834
52.1112 8.15901 0.018945
53.0539 11.035 0.025948
63.8833 35.6454 2
62.6856 33.0804 2
60.3069 30.674 2
57.916 17.0218 2
57.6313 19.5339 2
57.1794 21.9259 2
59.2884 27.9863 2
56.9246 24.0475 2
57.458 25.823 2
50.1125 7.2867 2
55.5111 17.0244 2
53.7289 17.0431 2
52.9613 15.3139 2
52.1646 12.8276 2
51.2316 10.1344 2
61.8992 35.3779 3.97668
59.9383 32.7957 3.97657
58.2569 30.1561 3.97652
56.9526 27.4869 3.97697
56.5924 18.209 3.96171
55.9915 25.216 3.97495
56.2292 20.5999 3.96119
55.8672 22.9735 3.96242
48.0566 6.52947 3.9883
49.3238 9.33937 3.97946
50.4274 12.0155 3.97579
51.3631 14.5373 3.96905
54.373 17.9849 3.96252
52.3349 17.1149 3.95979
52.0685 66.9975 0.0150841
52.951 64.2103 0.020741
60.7471 47.8264 0.0285007
53.6722 61.5997 0.025243
56.6318 59.4591 0.0320614
54.2393 59.2843 0.0288576
59.5387 52.0536 0.0314914
57.7565 49.5462 0.0278935
56.7333 56.9505 0.0342216
56.9767 54.0657 0.0339657
51.1667 65.1228 2
52.0397 62.5278 2
55.452 58.2177 2
52.8169 60.102 2
53.6104 58.4354 2
57.9587 46.771 2
57.347 51.7198 2
55.92 49.4689 2
55.3952 55.7444 2
55.182 53.3192 2
50.3433 63.3722 3.98082
51.2326 60.9127 3.97625
54.1749 57.2302 3.97073
52.2847 58.5923 3.97268
56.2313 44.0838 3.97714
55.1064 47.8009 3.97415
54.8007 51.3102 3.96546
53.8851 54.4883 3.96527
49.3356 65.9159 0.0179242
48.6161 64.1147 2
47.9575 62.4642 3.98111
45.5568 67.0924 0.0178444
46.8906 64.7274 0.0192936
43.6302 67.4639 2
46.3793 63.0427 2
45.1315 65.1884 2
45.9829 61.5731 3.98683
44.765 63.4403 3.97905
43.3559 65.4979 3.98025
41.6624 67.6815 3.98249
39.7018 70.0204 3.9867
41.8595 69.8751 2
42.1097 72.2064 3.99191
43.9718 69.5875 0.0127378
44.376 71.8618 2
44.8159 74.2794 4
46.6081 71.3671 0.00846771
47.2057 73.7222 2
49.554 73.0099 0
48.7854 4.32358 3.99241
50.9554 5.1326 2
51.8506 2.85458 4
53.0639 6.07267 0.00944438
54.0858 3.86728 2
56.25 5.02411 0
61.7164 45.8719 0.0262639
63.0905 42.5191 0.0233717
61.1412 43.633 0.0236169
62.1454 40.6726 0.0232622
63.68 39.2578 0.0230336
65.7635 37.5035 0.0237401
63.7403 37.4588 2
61.8587 39.3405 2
60.8871 41.9177 2
59.9221 44.7076 2
61.6915 37.4435 3.97693
59.861 39.8199 3.97693
58.5671 42.8531 3.97658
63.8858 35.6454 0.0232284
62.6871 33.0798 0.0231594
60.3075 30.6735 0.0235264
57.9169 17.0222 0.036717
57.626 19.5349 0.0388067
57.1794 21.9242 0.0361825
59.2893 27.9849 0.0234562
57.4581 25.8204 0.0236892
56.9192 24.0456 0.0311432
55.5095 17.0247 0.0344965
53.7288 17.0451 0.0306628
52.9612 15.3169 0.0317264
50.1119 7.28843 0.0149734
52.1634 12.8255 0.0250044
51.2303 10.136 0.0239128
61.8988 35.3781 2
59.9378 32.7956 2
58.2573 30.1558 2
56.5937 18.2088 2
56.2341 20.5976 2
55.8712 22.9763 2
56.9521 27.4883 2
55.9893 25.2189 2
48.057 6.52731 2
49.3248 9.33725 2
54.3745 17.985 2
52.3335 17.1099 2
51.362 14.5336 2
50.4291 12.0133 2
59.5019 35.1442 3.97677
57.5492 32.3377 3.97601
56.1424 29.4482 3.97694
55.0627 26.7382 3.97655
55.2708 19.2575 3.96077
54.6465 24.1866 3.96545
54.8302 21.6613 3.96029
45.963 5.8833 3.98903
43.3745 7.47542 3.98534
47.3555 8.6282 3.98347
48.597 11.3068 3.97549
49.701 13.7681 3.97354
50.6082 16.1812 3.97251
53.072 18.7429 3.9606
51.2647 18.153 3.97458
51.1665 65.1221 0.0186292
52.0403 62.5266 0.0235343
57.9596 46.772 0.0248622
52.8176 60.0986 0.0236761
55.4521 58.2162 0.0312231
53.6107 58.4338 0.0260762
57.3477 51.7209 0.0312574
55.9243 49.4704 0.0289352
55.3958 55.7442 0.0350489
55.1789 53.3187 0.037046
50.3431 63.3723 2
51.2315 60.9115 2
54.1761 57.2322 2
52.2837 58.5939 2
56.2316 44.083 2
55.1048 47.7995 2
54.8037 51.3102 2
53.8857 54.4901 2
49.5853 61.735 3.97899
55.0225 41.6553 3.97473
50.5444 59.2986 3.97112
52.1269 56.4507 3.96806
53.6703 45.4469 3.97461
52.9678 49.2305 3.96933
52.4708 52.7842 3.96151
48.616 64.1147 0.0191
47.9574 62.4635 2
47.3208 60.9967 3.98653
43.6301 67.4634 0.0170155
45.1312 65.1878 0.0199264
46.379 63.0421 0.0175004
41.6628 67.6815 2
43.3561 65.4986 2
45.9828 61.5741 2
44.7654 63.441 2
45.7567 60.6182 3.98474
44.4803 61.8176 3.98039
43.1452 63.713 3.97869
41.5456 65.6347 3.97872
39.632 67.7595 3.9823
37.5259 70.0449 3.98547
39.7017 70.021 2
39.8167 72.4028 3.99167
41.8595 69.8745 0.0131464
42.1103 72.2066 2
42.3947 74.6792 4
44.3753 71.8617 0.00842518
44.8159 74.2794 2
47.2057 73.7222 0
43.852 5.36054 3.98859
46.5715 3.64772 3.99264
48.7858 4.32274 2
49.554 1.99015 4
50.9545 5.13303 0.00838505
51.8506 2.85453 2
54.0858 3.86728 0
59.9225 44.7084 0.023249
60.8873 41.918 0.0232321
61.8592 39.3406 0.0230103
63.7429 37.4589 0.0231963
61.6909 37.4435 2
59.8615 39.8195 2
58.5674 42.8526 2
59.3574 37.5668 3.9773
57.5078 40.6137 3.97708
54.431 39.67 3.97524
61.8992 35.3779 0.0233154
59.9383 32.7957 0.0234267
58.2569 30.1561 0.0234802
56.5924 18.209 0.0382866
56.2292 20.5999 0.0388144
55.8672 22.9735 0.0375754
56.9526 27.4869 0.0230297
55.9915 25.216 0.0250512
54.373 17.9849 0.0374839
52.3349 17.1149 0.0402053
51.3631 14.5373 0.0309481
48.0566 6.52947 0.0117035
49.3238 9.33937 0.0205382
50.4274 12.0155 0.0242066
59.5026 35.1442 2
45.9627 5.88282 2
43.3743 7.47468 2
57.5499 32.3384 2
56.1424 29.4483 2
55.2653 19.2593 2
54.8405 21.6629 2
54.6436 24.189 2
55.0604 26.7404 2
47.3561 8.62408 2
48.5986 11.3039 2
53.0715 18.7358 2
51.266 18.1524 2
50.6087 16.1818 2
49.701 13.7682 2
56.893 34.7943 3.97716
55.2358 31.6053 3.9762
54.0626 28.5459 3.97727
53.4383 25.6568 3.97661
53.8689 20.2246 3.95981
53.3727 22.8432 3.95474
41.3997 7.08136 3.98516
45.361 7.99541 3.9871
42.8668 9.41916 3.9814
46.6662 10.6613 3.981
47.7352 13.1193 3.97631
48.9108 15.4341 3.97107
49.9672 17.7464 3.9675
51.5842 19.4321 3.96814
50.3433 63.3722 0.0191779
51.2326 60.9127 0.0237532
56.2313 44.0838 0.0228601
55.1064 47.8009 0.0258482
52.2847 58.5923 0.0273191
54.1749 57.2302 0.0292732
54.8007 51.3102 0.0345398
53.8851 54.4883 0.0347332
49.5845 61.7347 2
55.0163 41.6515 2
50.5434 59.2988 2
52.128 56.4534 2
53.6686 45.4455 2
52.977 49.2304 2
52.4725 52.7849 2
48.8335 60.1893 3.97595
51.8275 42.5272 3.98294
49.7465 57.5952 3.96731
50.47 54.3822 3.96388
51.3345 47.1539 3.97522
50.9367 50.8651 3.95487
47.5044 43.6404 3.97911
47.9575 62.4642 0.0188886
47.3203 60.9961 2
46.604 59.7848 3.99024
41.6624 67.6815 0.0175127
43.3559 65.4979 0.0197497
44.765 63.4403 0.020946
45.9829 61.5731 0.0131669
39.6324 67.7604 2
41.5456 65.634 2
45.7567 60.619 2
43.1456 63.7136 2
44.4799 61.8188 2
44.6132 60.2758 3.99075
42.9478 62.0653 3.97456
41.5996 63.8053 3.97856
39.6471 65.6004 3.97801
37.563 67.74 3.98032
31.6977 65.1168 3.97831
33.3924 67.4778 3.98023
35.3338 69.955 3.98556
37.5258 70.046 2
37.5091 72.4573 3.99209
39.7018 70.0204 0.0133033
39.8171 72.4031 2
39.9526 74.9197 4
42.1097 72.2064 0.00808835
42.3947 74.6792 2
44.8159 74.2794 0
41.7366 4.96953 3.98891
43.8521 5.35959 2
44.3267 3.11096 3.99295
46.5716 3.64746 2
47.2057 1.27793 4
48.7854 4.32358 0.00759005
49.554 1.99013 2
51.8506 2.85458 0
58.5671 42.8531 0.0234233
59.861 39.8199 0.023067
61.6915 37.4435 0.0230662
59.3578 37.5676 2
57.5076 40.6142 2
54.4249 39.6745 2
56.2646 37.8831 3.97701
48.8545 41.2354 3.97973
52.419 39.3076 3.98384
39.4433 6.80519 3.98561
59.5019 35.1442 0.023231
57.5492 32.3377 0.0239891
56.1424 29.4482 0.0230587
55.2708 19.2575 0.0392339
54.8302 21.6613 0.0397146
54.6465 24.1866 0.0345476
55.0627 26.7382 0.0234475
53.072 18.7429 0.0394041
51.2647 18.153 0.0254153
50.6082 16.1812 0.0274872
45.963 5.8833 0.0109707
49.701 13.7681 0.0264627
47.3555 8.6282 0.0165332
48.597 11.3068 0.0245142
43.3745 7.47542 0.0146559
56.8927 34.795 2
41.3997 7.08027 2
45.3603 7.99539 2
42.8663 9.41905 2
55.2386 31.604 2
54.0632 28.546 2
53.8711 20.2301 2
53.3699 22.8414 2
53.4354 25.6579 2
46.667 10.6539 2
47.7364 13.1138 2
51.5882 19.4326 2
49.9663 17.7434 2
48.909 15.4372 2
54.2512 33.9908 3.97546
52.9648 30.6399 3.9767
52.158 27.3789 3.97508
51.8912 24.2687 3.97805
52.2643 21.174 3.97089
41.0139 9.05417 3.98046
44.7269 9.99482 3.98549
42.4666 10.9044 3.99239
45.9975 12.7394 3.97577
47.663 14.6071 3.97067
48.0741 17.0144 3.9689
49.7737 19.8003 3.9709
49.5853 61.735 0.0210061
50.5444 59.2986 0.0288808
55.0225 41.6553 0.0252678
53.6703 45.4469 0.0253864
52.9678 49.2305 0.0306671
52.1269 56.4507 0.0319355
52.4708 52.7842 0.0384857
48.8321 60.1875 2
51.8451 42.5367 2
49.7445 57.5958 2
50.4706 54.3851 2
51.3412 47.154 2
50.9398 50.8646 2
47.5176 43.6684 2
47.958 58.7194 3.97825
49.4731 45.1647 3.97997
48.5204 55.886 3.96432
48.9475 52.5415 3.97606
49.3172 48.9513 3.97309
45.2529 39.8161 3.86822
45.7353 42.5211 3.90092
45.9525 45.653 3.9822
43.0712 41.0473 3.71821
41.6879 41.8947 3.5326
47.3208 60.9967 0.0134672
46.6028 59.7839 2
45.4469 58.7852 3.991
39.632 67.7595 0.017704
41.5456 65.6347 0.0212789
43.1452 63.713 0.0213148
44.4803 61.8176 0.0196074
45.7567 60.6182 0.0152552
41.5997 63.8051 2
37.5633 67.7409 2
39.6471 65.6015 2
44.6138 60.2772 2
42.9472 62.0658 2
41.751 62.4752 3.97702
42.4741 59.9567 3.97872
39.8941 63.5372 3.97671
37.642 65.4962 3.97714
35.4634 67.6494 3.98028
33.5755 65.3295 3.97695
31.9602 63.283 3.97715
29.8846 64.7084 3.98083
31.6976 65.1178 2
31.3773 67.1877 3.9807
33.3925 67.4789 2
33.1572 69.7488 3.98566
35.3336 69.956 2
35.1954 72.3717 3.99199
37.5259 70.0449 0.0145266
37.5092 72.4579 2
37.5 75 4
39.8167 72.4028 0.00832925
39.9526 74.9197 2
42.3947 74.6792 0
39.6244 4.71735 3.98946
41.7367 4.96868 2
42.0631 2.71828 3.99326
43.852 5.36054 0.0114078
44.3268 3.11029 2
44.8158 0.721173 4
46.5715 3.64772 0.00736398
47.2057 1.27779 2
49.554 1.99015 0
57.5078 40.6137 0.0229188
59.3574 37.5668 0.0226953
54.431 39.67 0.0247605
48.8826 41.2521 2
56.2638 37.8811 2
52.4172 39.2773 2
53.2732 36.6275 3.97801
46.78 40.3344 3.90403
49.799 38.5155 3.98641
37.5174 6.67617 3.98565
39.4434 6.80353 2
39.2116 8.69626 3.98307
35.9436 8.49552 3.98425
56.893 34.7943 0.0228422
55.2358 31.6053 0.0237966
54.0626 28.5459 0.0227261
53.8689 20.2246 0.0401877
53.3727 22.8432 0.0452607
53.4383 25.6568 0.023393
51.5842 19.4321 0.0318642
49.9672 17.7464 0.0325048
48.9108 15.4341 0.0289317
45.361 7.99541 0.0129022
47.7352 13.1193 0.0236943
46.6662 10.6613 0.0190021
41.3997 7.08136 0.0148358
42.8668 9.41916 0.0185971
54.2476 33.9912 2
41.014 9.05323 2
44.7249 9.99557 2
42.4664 10.9058 2
52.9613 30.639 2
52.1662 27.3791 2
52.2692 21.176 2
51.8902 24.2747 2
45.9985 12.7282 2
47.6617 14.6002 2
49.7792 19.8028 2
48.0709 17.0119 2
51.7727 32.8995 3.98225
50.7745 29.3368 3.97686
50.4431 25.8885 3.97159
49.82 22.3961 3.98538
40.5678 11.6154 3.98148
43.8537 11.9112 3.97971
45.7813 15.4433 3.98619
47.471 19.4061 3.97821
45.6936 37.4796 3.86267
48.8335 60.1893 0.0240518
49.7465 57.5952 0.0326877
51.8275 42.5272 0.0170637
51.3345 47.1539 0.0247813
50.9367 50.8651 0.045131
50.47 54.3822 0.0361188
47.5044 43.6404 0.0208914
47.9564 58.7218 2
49.4879 45.1777 2
48.5168 55.8878 2
48.9481 52.5467 2
49.3235 48.95 2
45.3215 39.8326 2
45.7643 42.5632 2
45.9613 45.6618 2
43.1021 41.0812 2
41.7165 41.9176 2
46.7935 57.3233 3.97685
43.8098 39.3544 3.72089
42.0456 40.7925 3.56721
47.6059 47.189 3.9804
47.0532 54.1992 3.96546
47.3471 50.6893 3.97833
44.4168 47.2762 3.97524
44.3836 41.866 3.8531
44.4392 44.3959 3.9097
42.0353 42.5054 3.74881
40.662 42.1988 3.54622
46.604 59.7848 0.00975596
45.4464 58.7842 2
43.8535 57.6837 3.97967
37.563 67.74 0.0196793
39.6471 65.6004 0.0219925
41.5996 63.8053 0.0214402
42.9478 62.0653 0.0254376
44.6132 60.2758 0.00925361
35.4637 67.6503 2
41.7504 62.4773 2
39.8938 63.538 2
37.6421 65.4969 2
42.475 59.9561 2
40.6218 61.6206 3.97924
40.4366 58.1506 3.97932
37.8378 63.194 3.97513
35.5729 65.4187 3.97759
33.5758 65.3304 2
31.9602 63.2845 2
33.6295 63.3214 3.97535
30.3795 62.8435 3.98017
32.1262 61.9861 3.98515
26.8759 61.4768 3.97711
28.0646 64.1367 3.97829
29.8842 64.7096 2
29.4072 66.7516 3.98161
31.6977 65.1168 0.0216882
31.3774 67.1886 2
31.0149 69.4138 3.9854
33.3924 67.4778 0.0197661
33.157 69.7496 2
32.8931 72.1462 3.99174
35.3338 69.955 0.0144443
35.1951 72.3723 2
35.0474 74.9194 4
37.5091 72.4573 0.00790575
37.5 75 2
39.9526 74.9197 0
35.622 6.72704 3.98537
37.5241 4.61676 3.9896
39.6245 4.71596 2
39.7896 2.47494 3.99319
41.7366 4.96953 0.0110904
42.063 2.71775 2
42.3946 0.32156 4
44.3267 3.11096 0.00704959
44.8159 0.72056 2
47.2057 1.27793 0
48.8545 41.2354 0.0202727
56.2646 37.8831 0.0229865
52.419 39.3076 0.0161583
46.8065 40.3289 2
49.8013 38.51 2
53.2744 36.6441 2
50.5976 35.5732 3.97497
47.4515 37.7686 3.92003
45.2673 35.1617 3.86647
43.0903 33.9226 3.71568
41.7076 33.08 3.53071
37.459 8.53741 3.98454
37.5173 6.67487 2
39.4433 6.80519 0.0143893
39.212 8.6943 2
38.9768 10.1316 3.98341
35.8998 9.77765 3.98034
34.1531 8.82706 3.98232
35.9433 8.49367 2
54.2512 33.9908 0.0245356
52.9648 30.6399 0.0233
52.158 27.3789 0.0249182
52.2643 21.174 0.02911
51.8912 24.2687 0.0219548
49.7737 19.8003 0.0291001
48.0741 17.0144 0.0311007
47.663 14.6071 0.0293297
44.7269 9.99482 0.0145114
45.9975 12.7394 0.024233
41.0139 9.05417 0.019542
42.4666 10.9044 0.00760638
51.778 32.8965 2
40.5692 11.6158 2
43.8519 11.9152 2
50.7961 29.3351 2
50.4435 25.8891 2
49.8223 22.3962 2
45.7763 15.4164 2
47.4732 19.425 2
49.3395 31.5244 3.98753
48.8404 27.6563 3.97775
49.1517 24.551 3.97608
47.1162 22.1632 3.98633
38.3015 12.7439 3.97725
42.0939 14.3083 3.9799
44.7782 18.5582 3.97519
44.2095 37.487 3.72879
45.7799 37.483 2
47.958 58.7194 0.0217469
48.5204 55.886 0.0356795
49.4731 45.1647 0.0200327
49.3172 48.9513 0.026907
48.9475 52.5415 0.0239427
45.2529 39.8161 0.131783
45.7353 42.5211 0.0990796
45.9525 45.653 0.0177958
43.0712 41.0473 0.281791
41.6879 41.8947 0.4674
46.7909 57.3253 2
43.8592 39.3765 2
42.0453 40.8066 2
47.6135 47.1912 2
47.0492 54.2035 2
47.3507 50.6963 2
44.4402 47.2588 2
44.4164 41.8932 2
44.4791 44.4185 2
42.0859 42.5474 2
40.6864 42.2059 2
45.3345 55.9059 3.99185
42.3843 39.2379 3.57708
40.547 40.6726 3.68191
45.7732 48.84 3.99912
45.367 52.4738 3.98133
43.1489 48.2683 3.9952
43.0624 45.9141 3.89796
43.1851 43.6355 3.84141
40.7738 43.5662 3.72564
39.2064 42.4642 3.57029
45.4469 58.7852 0.00900035
43.8521 57.6879 2
42.0809 56.272 3.98399
35.4634 67.6494 0.0197249
37.642 65.4962 0.0228635
39.8941 63.5372 0.0232903
41.751 62.4752 0.0229821
42.4741 59.9567 0.021277
35.5731 65.4195 2
40.622 61.6201 2
37.8378 63.1943 2
40.4372 58.1516 2
38.9112 56.4447 3.99316
38.2498 60.3058 3.97963
35.6075 63.1882 3.97509
33.5755 65.3295 0.0230537
31.9602 63.283 0.0228451
33.6297 63.3225 2
30.3793 62.8446 2
32.1268 61.9877 2
28.6855 62.1827 3.97923
33.3472 61.4941 3.97732
31.0731 61.2067 3.98041
27.583 59.5687 3.98004
23.8125 59.0569 3.98514
25.043 60.8511 3.9772
26.8761 61.477 2
26.2326 63.466 3.9776
28.0644 64.1357 2
27.4641 66.1761 3.98107
29.8846 64.7084 0.0191661
29.4071 66.752 2
28.9075 68.9394 3.98504
31.3773 67.1877 0.0192955
31.0147 69.4144 2
30.6159 71.7774 3.99118
33.1572 69.7488 0.0143355
32.8925 72.1466 2
32.6054 74.6784 4
35.1954 72.3717 0.0080117
35.0474 74.9197 2
37.5 75 0
33.725 6.98286 3.98428
35.4362 4.68683 3.98947
35.6219 6.72591 2
37.5153 2.3874 3.99325
37.5241 4.61578 2
39.6244 4.71735 0.0105406
39.7894 2.4742 2
39.9526 0.0806499 4
42.0631 2.71828 0.0067375
42.3947 0.320817 2
44.8158 0.721173 0
43.8178 35.6208 3.722
42.0579 34.1774 3.5593
46.78 40.3344 0.0959728
49.799 38.5155 0.0135946
53.2732 36.6275 0.0219853
47.4475 37.7375 2
50.6061 35.5671 2
45.3307 35.138 2
43.1281 33.8859 2
41.7335 33.0572 2
47.6353 34.3132 3.95073
44.4081 33.0918 3.84214
42.0628 32.4725 3.74464
40.6794 32.7857 3.54446
37.3115 10.6347 3.98105
37.4592 8.53572 2
37.5174 6.67617 0.014346
39.2116 8.69626 0.0169339
38.9784 10.13 2
34.7559 10.3866 3.98121
35.9004 9.77405 2
32.3801 9.37451 3.97911
34.1518 8.82412 2
35.9436 8.49552 0.0157453
51.7727 32.8995 0.01775
50.7745 29.3368 0.0231397
50.4431 25.8885 0.0284076
49.82 22.3961 0.0146249
47.471 19.4061 0.021788
45.7813 15.4433 0.0138095
43.8537 11.9112 0.0202868
40.5678 11.6154 0.0185242
49.3562 31.5214 2
38.3017 12.742 2
42.0959 14.3152 2
48.8503 27.6569 2
49.1528 24.5476 2
47.1083 22.1557 2
44.7795 18.5993 2
47.212 29.6486 3.98532
46.8393 25.2882 3.97456
44.2415 21.5296 3.97914
36.5847 12.949 3.97489
38.6824 14.8375 3.97535
41.7407 17.9037 3.97744
42.5264 37.4745 3.60931
44.257 37.4856 2
45.6936 37.4796 0.137333
46.7935 57.3233 0.0231494
47.0532 54.1992 0.034542
47.6059 47.189 0.0196039
47.3471 50.6893 0.0216686
43.8098 39.3544 0.279107
44.3836 41.866 0.1469
44.4392 44.3959 0.0903048
44.4168 47.2762 0.0247567
42.0353 42.5054 0.251189
42.0456 40.7925 0.43279
40.662 42.1988 0.453785
45.331 55.9071 2
42.3808 39.2421 2
40.5627 40.656 2
45.7785 48.8511 2
45.3646 52.4784 2
43.161 48.2866 2
43.1166 45.9545 2
43.2303 43.666 2
40.808 43.6203 2
39.2041 42.4733 2
43.6615 54.3821 3.9991
40.6524 39.0961 3.6966
39.0899 40.7424 3.65811
43.4707 50.3431 4.00537
41.7723 47.4442 3.93397
41.6809 45.0174 3.85544
39.3371 44.2246 3.70653
37.5038 42.5641 3.6033
43.8535 57.6837 0.0203255
42.0807 56.2733 2
40.3901 54.8489 3.98787
35.5729 65.4187 0.0224086
37.8378 63.194 0.0248683
40.6218 61.6206 0.0207591
40.4366 58.1506 0.0206767
35.6076 63.1883 2
38.2501 60.3066 2
38.9124 56.4361 2
37.9872 55.1391 3.99361
36.9331 57.603 3.98988
35.3649 60.8931 3.97807
33.6295 63.3214 0.0246493
30.3795 62.8435 0.0198307
32.1262 61.9861 0.0148508
33.3479 61.4953 2
28.6856 62.1838 2
31.074 61.209 2
29.4143 60.2654 3.97611
32.3641 59.7179 3.98835
28.0484 58.3512 4.00069
27.5848 59.5691 2
25.4009 58.573 3.97852
22.7894 58.2103 3.96908
23.4115 60.324 3.97902
23.8139 59.0574 2
25.0435 60.8508 2
24.4371 62.7567 3.97707
26.8759 61.4768 0.0228912
26.2329 63.4669 2
25.549 65.4842 3.97955
28.0646 64.1367 0.0217069
27.4642 66.1761 2
26.8371 68.3281 3.98508
29.4072 66.7516 0.0183865
28.9072 68.9395 2
28.3711 71.2627 3.99069
31.0149 69.4138 0.0145984
30.6151 71.7775 2
30.1842 74.2788 4
32.8931 72.1462 0.00825785
32.6053 74.6792 2
35.0474 74.9194 0
31.7896 7.42281 3.98281
33.3487 4.92651 3.98866
33.7245 6.98087 2
35.2456 2.46334 3.99321
35.4359 4.68621 2
35.622 6.72704 0.0146304
37.5 0 4
37.5148 2.38691 2
37.5241 4.61676 0.0104033
39.7896 2.47494 0.00681153
39.9526 0.0802889 2
42.3946 0.32156 0
42.3751 35.7114 3.57172
43.8808 35.5916 2
40.5674 34.3066 3.68156
42.054 34.1621 2
47.4515 37.7686 0.0799716
50.5976 35.5732 0.0250253
45.2673 35.1617 0.133526
43.0903 33.9226 0.284323
41.7076 33.08 0.46929
47.6496 34.3333 2
44.4414 33.0712 2
42.1159 32.4275 2
40.7036 32.7778 2
45.7037 31.7049 3.91616
43.2116 31.3414 3.83811
40.795 31.4167 3.7259
39.2202 32.5346 3.56736
35.6951 11.7833 3.97899
37.3138 10.6321 2
37.459 8.53741 0.0154555
38.9768 10.1316 0.0165899
33.1013 11.2259 3.97512
34.7548 10.3814 2
35.8998 9.77765 0.0196612
30.4851 10.0242 3.97906
32.3788 9.3732 2
34.1531 8.82706 0.0176809
49.3395 31.5244 0.012474
48.8404 27.6563 0.0222492
49.1517 24.551 0.0239228
47.1162 22.1632 0.013667
44.7782 18.5582 0.02481
42.0939 14.3083 0.0200962
38.3015 12.7439 0.0227461
36.5817 12.9346 2
47.2291 29.6076 2
38.68 14.8214 2
41.7339 17.8973 2
46.8435 25.2851 2
44.2339 21.5106 2
45.1397 27.7835 4.00457
43.6442 24.2191 4.0203
41.3084 20.9015 3.98215
35.7736 14.7877 3.97719
38.6785 17.6382 3.97944
40.7062 37.466 3.71011
42.5325 37.4781 2
44.2095 37.487 0.271208
45.3345 55.9059 0.0081496
45.367 52.4738 0.0186687
45.7732 48.84 0.0008811
42.3843 39.2379 0.422924
43.1851 43.6355 0.15859
43.0624 45.9141 0.102044
43.1489 48.2683 0.00480416
40.7738 43.5662 0.274362
40.547 40.6726 0.31809
39.2064 42.4642 0.42971
43.6571 54.3814 2
40.6488 39.0939 2
39.0917 40.7307 2
43.4683 50.363 2
41.7654 47.4744 2
41.706 45.0568 2
37.5004 42.5769 2
39.3507 44.2784 2
41.8179 52.8827 3.99648
39.1025 39.1183 3.67526
37.5064 40.7947 3.68039
35.8034 42.4726 3.57087
40.8413 49.5096 3.99502
39.7595 45.8023 3.83192
37.5026 44.4704 3.72657
42.0809 56.272 0.0160123
40.3856 54.8605 2
38.721 53.6956 3.99623
35.6075 63.1882 0.0249135
38.2498 60.3058 0.0203652
38.9112 56.4447 0.00683965
35.3653 60.8924 2
36.9341 57.6033 2
37.9868 55.1374 2
36.3207 55.2061 3.99525
34.4928 58.4992 3.99024
33.3472 61.4941 0.022683
28.6855 62.1827 0.020767
31.0731 61.2067 0.0195909
32.365 59.7213 2
29.4154 60.2647 2
30.3226 57.79 3.985
28.0505 58.351 2
26.997 56.8056 3.97014
27.583 59.5687 0.0199571
25.4032 58.5736 2
23.8972 56.7707 3.96069
21.3823 57.3603 3.96151
22.0098 59.5914 3.97439
22.7908 58.2119 2
22.7422 62.008 3.97534
23.4121 60.324 2
23.8125 59.0569 0.0148624
25.043 60.8511 0.0228002
24.4374 62.758 2
23.6837 64.701 3.97838
26.2326 63.466 0.0224001
25.5489 65.4855 2
24.8096 67.5889 3.98419
27.4641 66.1761 0.0189292
26.8369 68.3288 2
26.1662 70.6037 3.99076
28.9075 68.9394 0.0149592
28.3702 71.2626 2
27.7943 73.7221 4
30.6159 71.7774 0.00881748
30.1841 74.2794 2
32.6054 74.6784 0
29.8123 7.99753 3.98154
31.2542 5.33341 3.98767
31.7889 7.42129 2
32.9816 2.7016 3.99287
33.3482 4.92523 2
33.725 6.98286 0.0157211
35.0474 0.080333 4
35.2451 2.46311 2
35.4362 4.68683 0.0105297
37.5 0 2
37.5153 2.3874 0.0067508
39.9526 0.0806499 0
40.6737 35.8535 3.69557
42.3739 35.7137 2
43.8178 35.6208 0.277995
28.5453 10.6991 3.97828
39.0936 34.2559 3.65738
40.5708 34.3205 2
42.0579 34.1774 0.4407
47.6353 34.3132 0.0492744
44.4081 33.0918 0.157859
42.0628 32.4725 0.255356
40.6794 32.7857 0.455539
45.7352 31.6838 2
43.2531 31.3095 2
40.8325 31.3612 2
39.2236 32.5274 2
44.0225 29.9015 3.91149
41.6857 29.9573 3.8572
39.354 30.7674 3.70565
37.5228 32.4455 3.60281
34.097 12.9492 3.97437
35.6935 11.7741 2
37.3115 10.6347 0.0189495
31.1897 11.9948 3.97783
33.1006 11.2244 2
34.7559 10.3866 0.0187878
30.4833 10.0216 2
32.3801 9.37451 0.0208874
47.212 29.6486 0.0146768
46.8393 25.2882 0.0254367
36.5847 12.949 0.0251107
44.2415 21.5296 0.0208613
41.7407 17.9037 0.0225645
38.6824 14.8375 0.0246497
35.7753 14.7934 2
45.1435 27.7795 2
38.6741 17.6455 2
41.2998 20.8971 2
43.6418 24.2059 2
33.6121 15.8986 3.97897
42.8022 26.632 3.99201
40.8196 23.4871 3.99792
38.4069 20.4103 3.99157
35.8489 17.542 3.97904
39.1146 37.4873 3.69424
40.6975 37.4678 2
42.5264 37.4745 0.390694
43.6615 54.3821 0.000899324
43.4707 50.3431 -0.00536564
40.6524 39.0961 0.303401
41.6809 45.0174 0.144558
41.7723 47.4442 0.0660334
39.3371 44.2246 0.29347
39.0899 40.7424 0.341889
37.5038 42.5641 0.396702
41.8086 52.8847 2
39.0958 39.1042 2
37.5051 40.7787 2
40.8364 49.5301 2
35.8005 42.48 2
39.7824 45.855 2
37.4928 44.5165 2
39.7553 51.7113 4.00209
37.5075 39.1249 3.70681
35.9278 40.7555 3.65856
34.3453 42.215 3.54687
35.6722 44.2384 3.69953
38.6662 48.4478 3.94801
37.5198 46.0908 3.85679
40.3901 54.8489 0.0121282
38.7197 53.6812 2
36.7482 53.0046 3.99682
35.3649 60.8931 0.0219327
36.9331 57.603 0.0101179
37.9872 55.1391 0.00639071
34.4934 58.4982 2
36.3214 55.2064 2
33.2503 55.3965 3.99229
32.3641 59.7179 0.0116464
29.4143 60.2654 0.0238896
30.3249 57.7883 2
28.7715 55.2882 3.98204
28.0484 58.3512 -0.00069364
26.999 56.8057 2
25.4045 55.1046 3.96302
21.8992 55.3029 3.96125
25.4009 58.573 0.0214823
23.8985 56.7733 2
20.2601 56.9909 3.9645
20.668 58.7432 3.9702
21.3838 57.3618 2
21.1754 61.1463 3.97419
22.0105 59.5918 2
22.7894 58.2103 0.0309223
21.8981 63.8278 3.97767
22.7427 62.009 2
23.4115 60.324 0.0209845
24.4371 62.7567 0.0229251
23.6836 64.7019 2
22.8382 66.7317 3.98254
25.549 65.4842 0.0204496
24.8094 67.5899 2
24.0104 69.8049 3.9906
26.8371 68.3281 0.0149182
26.1651 70.6037 2
25.446 73.0099 4
28.3711 71.2627 0.00930721
27.7943 73.7222 2
30.1842 74.2788 0
27.822 8.65703 3.98153
29.1564 5.87969 3.98625
29.8111 7.9953 2
30.727 3.09852 3.9926
31.2535 5.3321 2
31.7896 7.42281 0.0171893
32.6053 0.320823 4
32.9808 2.70108 2
33.3487 4.92651 0.0113408
35.0474 0.0802903 2
35.2456 2.46334 0.00678606
37.5 0 0
39.0991 35.8687 3.67942
40.6583 35.8557 2
42.3751 35.7114 0.42828
28.5438 10.6978 2
26.6236 11.3953 3.97846
29.2291 12.6491 3.98016
37.5137 34.2169 3.6788
39.1013 34.2723 2
40.5674 34.3066 0.318441
45.7037 31.7049 0.0838373
43.2116 31.3414 0.161895
40.795 31.4167 0.274101
39.2202 32.5346 0.432638
44.0487 29.8774 2
41.7118 29.9207 2
39.3607 30.7127 2
37.5234 32.432 2
42.1188 28.5904 3.88316
39.7548 29.1799 3.85285
37.5198 30.5386 3.7251
35.8193 32.5388 3.57081
31.9213 14.4938 3.97904
34.0968 12.9507 2
35.6951 11.7833 0.0210146
31.1885 11.9912 2
33.1013 11.2259 0.0248777
30.4851 10.0242 0.0209446
45.1397 27.7835 -0.00457014
43.6442 24.2191 -0.0202987
35.7736 14.7877 0.0228102
41.3084 20.9015 0.0178543
38.6785 17.6382 0.020559
33.6096 15.8929 2
35.8453 17.5438 2
42.8089 26.6256 2
38.3947 20.4332 2
40.809 23.4648 2
33.553 17.4171 3.97999
40.2442 25.8657 3.95867
38.0518 23.201 3.99979
35.5826 20.1297 3.99204
37.5095 37.4948 3.72381
39.1073 37.4833 2
40.7062 37.466 0.289894
41.8179 52.8827 0.003521
40.8413 49.5096 0.0049838
39.1025 39.1183 0.324744
39.7595 45.8023 0.168084
37.5026 44.4704 0.273425
37.5064 40.7947 0.31961
35.8034 42.4726 0.429134
39.7485 51.7189 2
37.5087 39.1174 2
35.9259 40.7433 2
38.6763 48.4985 2
34.3217 42.2227 2
35.6512 44.2932 2
37.5134 46.1391 2
37.6719 50.7455 3.99823
35.9211 39.1339 3.67866
34.4703 40.6965 3.68381
33.3143 41.9143 3.53455
34.2281 43.5746 3.7232
35.2137 45.8111 3.8475
36.9248 48.0567 3.91475
38.721 53.6956 0.00377297
36.7549 53.0064 2
34.4257 52.3325 3.99977
34.4928 58.4992 0.00976135
36.3207 55.2061 0.00474784
33.2528 55.4003 2
30.6081 53.2926 3.99718
30.3226 57.79 0.0149995
28.7729 55.2881 2
27.0197 53.395 3.96428
26.997 56.8056 0.0298604
25.4057 55.1081 2
23.7299 53.4253 3.95793
20.6594 53.1548 3.95992
20.0023 55.7878 3.96249
21.8965 55.305 2
23.8972 56.7707 0.0393145
19.4649 57.8549 3.96858
20.2592 56.9924 2
19.7176 60.1667 3.972
20.6681 58.744 2
21.3823 57.3603 0.0384906
20.2116 62.8486 3.97471
21.176 61.1483 2
22.0098 59.5914 0.0256078
20.9396 65.7599 3.98081
21.898 63.8289 2
22.7422 62.008 0.0246637
23.6837 64.701 0.0216195
22.8378 66.7322 2
21.913 68.872 3.99003
24.8096 67.5889 0.015815
24.0091 69.8047 2
23.1494 72.1454 4
26.1662 70.6037 0.00923685
25.446 73.0099 2
27.7943 73.7221 0
25.8611 9.386 3.98056
27.0711 6.54377 3.98514
27.8206 8.65585 2
28.4894 3.64441 3.9919
29.1555 5.87825 2
29.8123 7.99753 0.0184645
30.1841 0.720592 4
30.7259 3.0981 2
31.2542 5.33341 0.0123256
32.6053 0.320817 2
32.9816 2.7016 0.0071335
35.0474 0.080333 0
37.5094 35.8705 3.70478
39.0853 35.8731 2
40.6737 35.8535 0.304429
24.7794 12.083 3.97733
23.7578 14.3764 3.97525
28.5453 10.6991 0.0217154
26.6223 11.3945 2
29.228 12.6481 2
27.2958 13.3823 3.97875
29.7879 14.2099 3.98047
35.9297 34.2586 3.65739
37.5193 34.2336 2
39.0936 34.2559 0.342621
37.5228 32.4455 0.397192
44.0225 29.9015 0.0885097
41.6857 29.9573 0.142804
39.354 30.7674 0.294354
42.1472 28.5437 2
39.7699 29.1309 2
37.5227 30.4882 2
35.8186 32.5295 2
39.9218 27.8181 3.88988
37.4936 28.9104 3.85451
35.6884 30.7844 3.70943
34.3629 32.7966 3.54691
30.9352 16.853 3.98296
31.9196 14.4876 2
34.097 12.9492 0.0256298
31.1897 11.9948 0.022171
42.8022 26.632 0.00798775
40.8196 23.4871 0.0020838
33.6121 15.8986 0.0210282
35.8489 17.542 0.0209588
38.4069 20.4103 0.00842545
33.5488 17.4258 2
35.5838 20.1303 2
40.3042 25.8629 2
38.0364 23.1704 2
32.8761 19.82 3.99307
37.6785 25.5092 3.97182
35.2066 22.8727 3.9996
35.9039 37.4971 3.69617
37.5066 37.4952 2
39.1146 37.4873 0.30576
39.7553 51.7113 -0.0020891
38.6662 48.4478 0.0519942
37.5075 39.1249 0.293194
37.5198 46.0908 0.143208
35.6722 44.2384 0.300467
35.9278 40.7555 0.341436
34.3453 42.215 0.453132
37.6613 50.7725 2
35.9327 39.1206 2
34.4545 40.6823 2
36.9039 48.1104 2
33.2847 41.9365 2
34.1989 43.6278 2
35.193 45.8571 2
35.5371 49.9248 3.98618
34.3645 39.1327 3.69622
32.9626 40.8159 3.56372
32.9652 42.521 3.7492
33.3456 45.0242 3.85054
34.404 47.1868 3.88757
36.7482 53.0046 0.00318204
34.4218 52.3394 2
32.15 51.1062 4.01841
33.2503 55.3965 0.00770997
30.6097 53.2964 2
28.6009 51.521 3.98982
28.7715 55.2882 0.0179562
27.0208 53.3981 2
25.2875 51.673 3.95482
25.4045 55.1046 0.0369776
23.7286 53.4294 2
22.2102 51.7239 3.95224
19.4778 51.5529 3.96129
19.0605 54.2508 3.9623
20.6581 53.1544 2
18.4926 56.6847 3.96413
20 55.7895 2
21.8992 55.3029 0.0387468
18.3848 59.0765 3.96931
19.4643 57.856 2
20.2601 56.9909 0.0355003
18.6257 61.7401 3.97199
19.7182 60.1682 2
20.668 58.7432 0.0297975
19.1287 64.6688 3.97956
20.2116 62.8496 2
21.1754 61.1463 0.0258137
19.8872 67.8086 3.98959
20.939 65.7605 2
21.8981 63.8278 0.0223348
22.8382 66.7317 0.0174628
21.9115 68.8713 2
20.9142 71.1327 4
24.0104 69.8049 0.00940122
23.1494 72.1455 2
25.446 73.0099 0
23.1 12.7996 3.97682
23.9738 10.1753 3.97873
25.0246 7.31456 3.98396
25.8597 9.38521 2
26.2812 4.32849 3.99125
27.0699 6.54297 2
27.822 8.65703 0.0184728
27.7943 1.27781 4
28.4878 3.64423 2
29.1564 5.87969 0.0137492
30.1841 0.720551 2
30.727 3.09852 0.00740023
32.6053 0.320823 0
35.9111 35.8656 3.67283
37.5155 35.8813 2
39.0991 35.8687 0.320577
24.7772 12.0799 2
23.7579 14.3786 2
22.4889 15.0561 3.98035
25.3629 13.9226 3.97385
24.0404 15.6388 3.98303
26.6236 11.3953 0.0215433
29.2291 12.6491 0.0198429
27.2961 13.3817 2
29.7849 14.2085 2
28.3689 15.9818 3.98148
34.4788 34.3216 3.68154
35.9262 34.2696 2
37.5137 34.2169 0.321205
35.8193 32.5388 0.429195
37.5198 30.5386 0.274903
42.1188 28.5904 0.116836
39.7548 29.1799 0.147149
39.942 27.7812 2
37.4937 28.8574 2
35.6723 30.7238 2
34.3364 32.7922 2
37.5912 27.5477 3.8964
35.2399 29.1987 3.85195
34.2399 31.435 3.72332
33.331 33.0951 3.53343
30.2226 19.395 3.98209
30.9316 16.8453 2
31.9213 14.4938 0.0209599
40.2442 25.8657 0.0413287
38.0518 23.201 0.000207548
33.553 17.4171 0.0200102
35.5826 20.1297 0.00796134
32.8711 19.83 2
35.2013 22.8613 2
37.7377 25.4847 2
32.3612 22.5407 3.99603
35.063 25.4321 3.99817
34.3131 37.5102 3.71156
35.9084 37.5004 2
37.5095 37.4948 0.276194
37.6719 50.7455 0.0017733
36.9248 48.0567 0.0852502
35.9211 39.1339 0.321338
35.2137 45.8111 0.152501
34.2281 43.5746 0.276803
34.4703 40.6965 0.316186
33.3143 41.9143 0.465453
35.5251 49.9346 2
34.3719 39.1284 2
32.9623 40.8283 2
34.4009 47.2307 2
32.9236 42.562 2
33.3227 45.0627 2
33.3629 48.9748 3.97789
32.6361 39.2742 3.57405
31.9273 41.0672 3.71793
31.8091 43.65 3.84151
32.5329 46.1542 3.88953
34.4257 52.3325 0.000228998
32.152 51.117 2
30.1098 49.686 4.00256
30.6081 53.2926 0.00281729
28.6002 51.5169 2
26.7759 49.8946 3.96841
27.0197 53.395 0.0357237
25.2857 51.6721 2
23.6412 50.0875 3.96229
23.7299 53.4253 0.0420662
22.2088 51.7226 2
20.7881 50.2184 3.96494
18.2829 50.2488 3.96867
18.0567 52.7223 3.96367
19.4757 51.5522 2
17.5397 55.2916 3.96253
19.0554 54.2513 2
20.6594 53.1548 0.0400774
17.158 57.8422 3.96392
18.4913 56.6854 2
20.0023 55.7878 0.0375143
17.1449 60.5166 3.96814
18.3846 59.0776 2
19.4649 57.8549 0.0314224
17.4099 63.4596 3.97405
18.626 61.7405 2
19.7176 60.1667 0.0280046
17.9435 66.6169 3.98787
19.128 64.669 2
20.2116 62.8486 0.0252935
18.75 69.9759 4
19.8854 67.8075 2
20.9396 65.7599 0.0191851
21.913 68.872 0.00997172
20.9142 71.1327 2
23.1494 72.1454 0
21.5932 13.6264 3.977
22.1922 11.037 3.97638
23.099 12.802 2
23.0424 8.18124 3.98245
23.9719 10.1735 2
24.1188 5.14329 3.99064
25.0233 7.31394 2
25.8611 9.386 0.0194382
25.446 1.99014 4
26.2793 4.32879 2
27.0711 6.54377 0.0148571
27.7943 1.27778 2
28.4894 3.64441 0.00810483
30.1841 0.720592 0
34.3713 35.8852 3.69549
35.9199 35.88 2
37.5094 35.8705 0.295223
21.3212 15.8586 3.98375
24.7794 12.083 0.0226688
23.7578 14.3764 0.0247474
25.3624 13.9165 2
22.4895 15.0559 2
24.0417 15.6423 2
23.2855 16.2675 3.97411
25.3965 16.1091 3.98207
27.2958 13.3823 0.0212454
29.7879 14.2099 0.01953
28.3653 15.9878 2
27.4587 18.8375 3.98021
32.9693 34.1998 3.56759
34.4634 34.3374 2
35.9297 34.2586 0.342613
34.3629 32.7966 0.453089
35.6884 30.7844 0.290572
37.4936 28.9104 0.145488
39.9218 27.8181 0.110124
37.5711 27.5121 2
33.3057 33.076 2
35.2368 29.1408 2
34.2017 31.3781 2
35.1352 27.6454 3.89963
33.342 29.982 3.85175
32.9858 32.484 3.73489
29.6633 21.9972 3.99876
30.2209 19.4004 2
30.9352 16.853 0.0170427
37.6785 25.5092 0.0281772
35.2066 22.8727 0.00040068
32.8761 19.82 0.00692947
32.3638 22.5334 2
35.0917 25.4236 2
31.9006 25.7896 4.00419
32.4797 37.5096 3.6103
34.3286 37.5069 2
35.9039 37.4971 0.303834
35.5371 49.9248 0.0138218
34.404 47.1868 0.112426
34.3645 39.1327 0.303778
33.3456 45.0242 0.149463
32.9652 42.521 0.250797
32.9626 40.8159 0.436279
33.3518 48.974 2
32.6476 39.2765 2
31.8908 41.1004 2
32.4934 46.1975 2
31.7691 43.6807 2
31.4461 47.8199 3.98016
31.1996 39.375 3.72229
30.6128 41.9031 3.84673
30.8519 44.7802 3.90718
32.15 51.1062 -0.0184081
30.1114 49.7058 2
28.2284 48.0724 3.95982
28.6009 51.521 0.0101766
26.7746 49.8947 2
25.0224 48.3478 3.96843
25.2875 51.673 0.0451826
23.6399 50.0863 2
22.055 48.6742 3.9713
22.2102 51.7239 0.0477582
20.7854 50.2173 2
19.3768 48.9995 3.97274
17.1673 49.2585 3.97412
17.0098 51.339 3.96768
18.2852 50.2474 2
16.5354 53.8169 3.96487
18.055 52.7219 2
19.4778 51.5529 0.0387082
16.0243 56.4423 3.96275
17.5356 55.2924 2
19.0605 54.2508 0.0377049
15.7605 59.1855 3.96787
17.1582 57.8432 2
18.4926 56.6847 0.0358688
15.7922 62.1159 3.971
17.1451 60.5187 2
18.3848 59.0765 0.0306865
16.0903 65.2986 3.98643
17.409 63.461 2
18.6257 61.7401 0.0280086
16.6661 68.6801 4
17.9415 66.6154 2
19.1287 64.6688 0.0204358
18.75 69.9759 2
19.8872 67.8086 0.0104138
20.9142 71.1327 0
20.228 14.6252 3.97319
21.5927 13.6271 2
20.5329 12.011 3.97549
21.1451 9.15224 3.98086
22.1908 11.0372 2
23.1 12.7996 0.0231794
22.018 6.08228 3.99017
23.0406 8.18017 2
23.9738 10.1753 0.0212714
23.1494 2.85457 4
24.1166 5.14389 2
25.0246 7.31456 0.0160406
25.446 1.99012 2
26.2812 4.32849 0.00875206
27.7943 1.27781 0
32.6275 35.7485 3.57589
34.3759 35.8872 2
35.9111 35.8656 0.327171
21.3222 15.8562 2
20.3283 16.9897 3.97664
22.1177 16.6601 3.96907
25.3629 13.9226 0.0261484
22.4889 15.0561 0.0196462
24.0404 15.6388 0.016971
25.397 16.1033 2
23.287 16.2672 2
24.2287 18.5162 3.97042
27.1 21.5556 3.99357
28.3689 15.9818 0.0185185
27.4567 18.8506 2
31.9538 33.9562 3.71485
32.9737 34.1834 2
34.4788 34.3216 0.318464
33.331 33.0951 0.466566
34.2399 31.435 0.276677
35.2399 29.1987 0.148046
37.5912 27.5477 0.103596
35.1429 27.6013 2
32.9146 32.4424 2
33.3202 29.947 2
32.776 28.322 3.91019
31.8156 31.3647 3.83701
29.0179 24.4904 3.99021
29.6596 22.0071 2
30.2226 19.395 0.017913
35.063 25.4321 0.00182838
32.3612 22.5407 0.00397005
31.8946 25.7657 2
29.9632 27.4374 3.97764
30.7967 37.5087 3.72743
32.4885 37.5081 2
34.3131 37.5102 0.288436
33.3629 48.9748 0.0221056
32.5329 46.1542 0.110471
32.6361 39.2742 0.425952
31.8091 43.65 0.15849
31.9273 41.0672 0.282071
31.4241 47.8353 2
31.1369 39.3992 2
30.5804 41.9215 2
30.8122 44.8166 2
29.6284 46.4325 3.9969
29.7451 39.8415 3.86903
29.3047 43.0227 3.9095
30.1098 49.686 -0.00256413
28.223 48.0654 2
26.4089 46.5218 3.98106
26.7759 49.8946 0.0315886
25.0209 48.3475 2
23.2822 46.9431 3.97504
23.6412 50.0875 0.0377132
22.0522 48.6728 2
20.3644 47.5142 3.97679
20.7881 50.2184 0.0350586
19.3778 48.998 2
17.9841 48.0969 3.97696
16.4028 48.6164 3.97639
17.1688 49.2574 2
16.086 50.1066 3.97178
15.55 52.3618 3.96739
17.011 51.3381 2
18.2829 50.2488 0.0313288
14.9599 54.9387 3.9637
16.5368 53.8164 2
18.0567 52.7223 0.0363339
14.475 57.7191 3.96388
16.0241 56.4426 2
17.5397 55.2916 0.0374726
14.2715 60.6754 3.96984
15.7615 59.1863 2
17.158 57.8422 0.0360765
14.3354 63.8566 3.9824
15.7919 62.1184 2
17.1449 60.5166 0.0318619
14.6715 67.2507 4
16.0876 65.2965 2
17.4099 63.4596 0.0259465
16.6661 68.6801 2
17.9435 66.6169 0.0121254
18.75 69.9759 0
18.9459 15.8112 3.97439
20.2283 14.6231 2
18.9849 13.1296 3.97518
21.5932 13.6264 0.0230049
20.5321 12.0125 2
19.345 10.2432 3.97847
19.9926 7.14706 3.98921
21.1434 9.15265 2
22.1922 11.037 0.0236177
20.9142 3.86727 4
22.0152 6.0832 2
23.0424 8.18124 0.017548
23.1494 2.85451 2
24.1188 5.14329 0.00935886
25.446 1.99014 0
31.2188 35.6398 3.71876
32.6367 35.7433 2
34.3713 35.8852 0.304508
21.3212 15.8586 0.0162531
22.1187 16.6588 2
20.3292 16.9862 2
19.2934 18.4426 3.96109
21.8075 17.8953 3.98301
25.3965 16.1091 0.0179254
23.2855 16.2675 0.0258905
24.2246 18.5252 2
22.3596 19.9554 3.96341
24.6832 21.4463 3.98693
26.6281 23.7891 3.9782
27.1035 21.5219 2
27.4587 18.8375 0.0197895
30.6603 33.1239 3.85836
31.9205 33.9102 2
32.9693 34.1998 0.432414
32.9858 32.484 0.265113
33.342 29.982 0.148253
35.1352 27.6454 0.100371
32.7421 28.2947 2
31.7625 31.33 2
30.5448 29.7187 3.93624
28.2183 26.641 3.99375
29.0069 24.4988 2
29.6633 21.9972 0.00123698
31.9006 25.7896 -0.0041939
29.9538 27.4151 2
29.3058 37.5103 3.86343
30.75 37.5088 2
32.4797 37.5096 0.389699
31.4461 47.8199 0.019837
30.8519 44.7802 0.0928205
31.1996 39.375 0.27771
30.6128 41.9031 0.153271
29.6292 46.4313 2
29.683 39.8587 2
29.2746 43.0631 2
27.8644 44.7539 3.9734
27.5088 40.579 3.94107
28.2284 48.0724 0.040181
26.4044 46.525 2
24.5694 45.0612 3.97722
25.0224 48.3478 0.0315675
23.28 46.943 2
21.3684 45.7848 3.97788
22.055 48.6742 0.0287033
20.3632 47.5129 2
18.6941 46.646 3.97705
19.3768 48.9995 0.0272638
17.9845 48.0957 2
16.6277 47.6418 3.97683
16.4044 48.6154 2
15.4298 48.9564 3.97549
17.1673 49.2585 0.0258768
16.0882 50.1055 2
14.6687 50.9344 3.97018
13.9358 53.397 3.96561
15.5509 52.3612 2
17.0098 51.339 0.0323186
13.2844 56.1483 3.96354
14.9603 54.9386 2
16.5354 53.8169 0.0351332
12.8558 59.1131 3.96818
14.4765 57.7191 2
16.0243 56.4423 0.0372517
12.6815 62.2981 3.97862
14.2721 60.6757 2
15.7605 59.1855 0.0321342
12.7746 65.6939 4
14.3333 63.8531 2
15.7922 62.1159 0.0289973
14.6714 67.2507 2
16.0903 65.2986 0.0135658
16.6661 68.6801 0
17.693 17.1883 3.96932
18.9461 15.8097 2
17.5193 14.396 3.97307
20.228 14.6252 0.026813
18.9844 13.1297 2
17.6411 11.4634 3.97648
20.5329 12.011 0.0245144
19.3434 10.2438 2
18.0529 8.34049 3.98757
18.75 5.0241 4
19.9896 7.14895 2
21.1451 9.15224 0.0191418
20.9142 3.86727 2
22.018 6.08228 0.00982775
23.1494 2.85457 0
29.7671 35.1903 3.86862
31.16 35.6177 2
32.6275 35.7485 0.424109
22.1177 16.6601 0.0309307
20.3283 16.9897 0.0233556
21.807 17.8937 2
19.2929 18.4393 2
18.0923 19.9936 3.95933
20.9484 19.4281 3.96223
24.2287 18.5162 0.0295842
22.3553 19.9584 2
24.6848 21.4361 2
22.4969 21.7949 3.9817
24.8977 23.2305 3.97505
25.8141 26.0242 3.97925
26.6264 23.7887 2
27.1 21.5556 0.00643225
29.0455 32.4725 3.91308
30.6061 33.0902 2
31.9538 33.9562 0.285148
31.8156 31.3647 0.16299
32.776 28.322 0.0898094
30.5238 29.7131 2
27.5217 29.2255 4.01058
28.2058 26.6489 2
29.0179 24.4904 0.00978973
29.9632 27.4374 0.0223611
27.6277 37.3565 3.91689
29.2397 37.502 2
30.7967 37.5087 0.272571
29.6284 46.4325 0.00309792
29.3047 43.0227 0.0905025
29.7451 39.8415 0.13097
27.8521 44.7888 2
27.4856 40.5679 2
25.9185 43.0629 3.98941
24.7678 39.4493 3.97286
26.4089 46.5218 0.0189357
24.5578 45.0628 2
22.4655 43.8258 3.97733
23.2822 46.9431 0.0249646
21.3646 45.7848 2
19.4319 44.8822 3.97684
20.3644 47.5142 0.023211
18.694 46.646 2
16.9692 46.1366 3.97679
17.9841 48.0969 0.0230441
16.6289 47.6408 2
15.1871 47.6112 3.97633
16.4028 48.6164 0.0236085
15.4318 48.9555 2
13.975 49.4989 3.97263
16.086 50.1066 0.0282186
14.6697 50.9338 2
13.0083 51.8393 3.96751
12.1873 54.5081 3.96432
13.9358 53.3967 2
15.55 52.3618 0.0326149
11.5417 57.4494 3.96761
13.2851 56.1482 2
14.9599 54.9387 0.0363008
11.1363 60.6242 3.97717
12.8571 59.1125 2
14.475 57.7191 0.0361189
10.9835 64.0165 4
12.6797 62.2943 2
14.2715 60.6754 0.0301642
12.7745 65.694 2
14.3354 63.8566 0.0176027
14.6715 67.2507 0
16.4526 18.6863 3.96198
17.6922 17.1865 2
16.1149 15.8088 3.96756
18.9459 15.8112 0.0256097
17.5189 14.3948 2
16.024 12.8191 3.97329
18.9849 13.1296 0.024819
17.64 11.4653 2
16.2038 9.66388 3.98626
19.345 10.2432 0.0215346
18.0497 8.34321 2
16.6661 6.31991 4
18.75 5.02404 2
19.9926 7.14706 0.0107892
20.9142 3.86727 0
28.161 34.8298 3.9073
29.7027 35.1636 2
31.2188 35.6398 0.281242
16.8129 21.4297 3.96576
21.8075 17.8953 0.0169908
19.2934 18.4426 0.0389117
20.9463 19.4262 2
18.0896 19.9918 2
19.8825 21.6405 3.96934
22.3596 19.9554 0.0365912
24.6832 21.4463 0.0130683
22.4934 21.7986 2
24.8943 23.2335 2
23.1404 24.6871 3.97452
25.0667 28.6144 3.98006
25.8052 26.0321 2
26.6281 23.7891 0.0218013
26.8972 31.8178 3.97879
29.0161 32.4561 2
30.6603 33.1239 0.141644
30.5448 29.7187 0.0637608
27.5341 29.2057 2
28.2183 26.641 0.00625023
25.4564 36.8566 3.97318
27.6146 37.3633 2
29.3058 37.5103 0.136572
27.8644 44.7539 0.0265995
27.5088 40.579 0.0589308
25.8994 43.0814 2
24.7498 39.4539 2
23.6578 41.8091 3.98222
22.4859 38.5194 3.97818
24.5694 45.0612 0.0227778
22.4655 43.8249 2
20.2868 42.8248 3.97618
21.3684 45.7848 0.0221179
19.4326 44.8823 2
17.361 44.3109 3.97613
18.6941 46.646 0.0229512
16.9707 46.1363 2
15.1399 46.0311 3.97635
16.6277 47.6418 0.0231744
15.1889 47.6104 2
13.502 47.9634 3.97441
15.4298 48.9564 0.0245149
13.9763 49.4982 2
12.2364 50.2203 3.96909
14.6687 50.9344 0.0298191
13.0089 51.8389 2
11.1862 52.8198 3.96523
10.3325 55.7051 3.96741
12.1875 54.5079 2
13.9358 53.397 0.0343896
9.70293 58.8471 3.97662
11.5423 57.4489 2
13.2844 56.1483 0.0364594
9.30605 62.2254 4
11.1347 60.6202 2
12.8558 59.1131 0.0318156
10.9835 64.0165 2
12.6815 62.2981 0.0213829
12.7746 65.6939 0
15.2333 20.2255 3.96301
16.4546 18.6864 2
14.7642 17.3287 3.96509
17.693 17.1883 0.0306804
16.1144 15.8072 2
14.4884 14.3123 3.97069
17.5193 14.396 0.0269333
16.0232 12.8205 2
14.4466 11.1162 3.98423
17.6411 11.4634 0.0235207
16.2008 9.66755 2
14.6715 7.74927 4
18.0529 8.34049 0.012426
16.6661 6.31988 2
18.75 5.0241 0
26.1216 34.3299 3.98184
28.1403 34.8374 2
29.7671 35.1903 0.131376
18.0431 22.3871 3.97216
15.7021 22.974 3.96923
16.8128 21.4296 2
20.9484 19.4281 0.0377658
18.0923 19.9936 0.0406708
19.8797 21.6388 2
19.9743 24.4702 3.9709
22.4969 21.7949 0.0182975
24.8977 23.2305 0.0249492
23.1367 24.6853 2
22.4286 27.9343 3.97263
24.4571 31.2995 3.97734
25.0719 28.6106 2
25.8141 26.0242 0.0207488
26.8786 31.7846 2
29.0455 32.4725 0.0869217
27.5217 29.2255 -0.0105763
23.2098 36.2863 3.98269
25.4412 36.8574 2
27.6277 37.3565 0.0831136
25.9185 43.0629 0.0105894
24.7678 39.4493 0.027144
23.6442 41.8101 2
22.4777 38.5177 2
21.3566 40.6246 3.97508
20.7279 37.8023 3.97708
22.4655 43.8258 0.0226709
20.2856 42.8257 2
17.8313 42.0476 3.97595
19.4319 44.8822 0.0231569
17.3618 44.3115 2
15.1831 44.143 3.97599
16.9692 46.1366 0.0232145
15.1411 46.0305 2
13.1977 46.2528 3.97547
15.1871 47.6112 0.0236685
13.5036 47.9627 2
11.6219 48.5192 3.97062
13.975 49.4989 0.0273711
12.2375 50.2197 2
10.3158 51.0653 3.966
13.0083 51.8393 0.0324931
11.1868 52.8193 2
9.24135 53.8859 3.96728
8.38641 56.9807 3.97723
10.3333 55.7043 2
12.1873 54.5081 0.0356766
7.74927 60.3285 4
9.70167 58.843 2
11.5417 57.4494 0.0323861
9.306 62.2255 2
11.1363 60.6242 0.0228318
10.9835 64.0165 0
14.061 21.7905 3.96568
15.2323 20.2252 2
13.4732 18.9233 3.96428
16.4526 18.6863 0.0380234
14.7661 17.3285 2
13.0345 15.9031 3.9695
16.1149 15.8088 0.0324359
14.4881 14.3085 2
12.7843 12.6907 3.98125
16.024 12.8191 0.0267084
14.4438 11.1205 2
12.7746 9.30605 4
16.2038 9.66388 0.0137375
14.6715 7.74924 2
16.6661 6.31991 0
23.7982 33.8655 3.98289
26.0991 34.3199 2
28.161 34.8298 0.0927043
17.9035 24.1176 3.97086
18.049 22.3879 2
14.5446 24.5079 3.9709
15.7036 22.9742 2
16.8129 21.4297 0.034245
19.4567 27.3019 3.97317
19.8825 21.6405 0.0306594
19.9703 24.4703 2
21.7836 30.7725 3.97519
23.1404 24.6871 0.0254801
22.4303 27.9354 2
24.4332 31.2971 2
25.0667 28.6144 0.0199413
26.8972 31.8178 0.0212083
20.8513 35.9579 3.97652
23.2107 36.2872 2
25.4564 36.8566 0.0268153
23.6578 41.8091 0.0177776
22.4859 38.5194 0.0218231
21.3632 40.6255 2
20.7283 37.801 2
18.5824 38.9967 3.97704
20.2868 42.8248 0.0238248
17.831 42.0477 2
15.1679 41.8799 3.97627
17.361 44.3109 0.0238688
15.1837 44.1429 2
12.9606 44.3528 3.97624
15.1399 46.0311 0.0236535
13.1993 46.2521 2
11.1368 46.7057 3.97217
13.502 47.9634 0.0255941
11.6234 48.5186 2
9.58371 49.2265 3.96665
12.2364 50.2203 0.0309093
10.3162 51.0648 2
8.2741 52.0002 3.96707
11.1862 52.8198 0.0347723
9.24198 53.8849 2
7.1954 55.0319 3.97814
6.31991 58.3339 4
8.38549 56.9768 2
10.3325 55.7051 0.0325878
7.74924 60.3285 2
9.70293 58.8471 0.0233836
9.30605 62.2254 0
13.4199 25.4092 3.97455
12.9623 23.32 3.9683
14.0603 21.7902 2
12.2754 20.5708 3.96476
15.2333 20.2255 0.0369894
13.4731 18.9226 2
11.665 17.5782 3.96946
14.7642 17.3287 0.0349088
13.0363 15.9024 2
11.2226 14.3773 3.97692
14.4884 14.3123 0.0293095
12.782 12.6952 2
10.9835 10.9835 4
14.4466 11.1162 0.0157685
12.7745 9.306 2
14.6715 7.74927 0
21.2153 33.4687 3.97563
23.8002 33.8548 2
26.1216 34.3299 0.0181617
16.2333 26.4751 3.97305
17.9056 24.1179 2
18.0431 22.3871 0.0278421
14.5446 24.5083 2
15.7021 22.974 0.0307658
18.8503 30.2706 3.97512
19.4551 27.3024 2
19.9743 24.4702 0.0291024
21.7953 30.7733 2
22.4286 27.9343 0.0273708
24.4571 31.2995 0.0226559
18.192 35.989 3.97766
20.8537 35.9587 2
23.2098 36.2863 0.0173073
21.3566 40.6246 0.0249153
20.7279 37.8023 0.0229152
18.5807 38.9958 2
14.671 39.1659 3.97714
17.8313 42.0476 0.0240469
15.168 41.8797 2
12.6569 42.2468 3.97649
15.1831 44.143 0.0240071
12.9619 44.3522 2
10.7251 44.7789 3.9736
13.1977 46.2528 0.0245341
11.1386 46.7051 2
8.97 47.3071 3.96718
11.6219 48.5192 0.0293757
9.58392 49.226 2
7.44082 50.0341 3.96681
10.3158 51.0653 0.0339998
8.27455 51.9992 2
6.13603 53.0073 3.97854
9.24135 53.8859 0.0327219
7.19486 55.0288 2
5.0241 56.25 4
6.31988 58.3339 2
8.38641 56.9807 0.0227656
7.74927 60.3285 0
13.691 26.8634 3.97491
12.0727 24.8225 3.97057
13.4192 25.4093 2
11.1988 22.2547 3.96552
12.9631 23.3203 2
14.061 21.7905 0.03432
12.276 20.5705 2
10.3972 19.3285 3.9683
13.4732 18.9233 0.0357217
11.667 17.5782 2
9.76321 16.1603 3.97689
13.0345 15.9031 0.0305044
11.2208 14.3822 2
9.30607 12.7746 4
12.7843 12.6907 0.0187516
10.9835 10.9835 2
12.7746 9.30605 0
18.3597 33.1741 3.97661
21.2159 33.4712 2
23.7982 33.8655 0.0171076
15.857 29.7078 3.97549
16.2342 26.4756 2
17.9035 24.1176 0.0291403
14.5446 24.5079 0.0291032
18.8494 30.2713 2
19.4567 27.3019 0.0268261
21.7836 30.7725 0.0248113
15.2952 36.0345 3.97733
18.1916 35.9893 2
20.8513 35.9579 0.0234838
12.8875 37.8298 3.97725
18.5824 38.9967 0.0229564
14.6708 39.1658 2
12.1608 40.1258 3.97672
15.1679 41.8799 0.0237317
12.6583 42.2464 2
10.3258 42.7607 3.97446
12.9606 44.3528 0.0237575
10.7268 44.7784 2
8.44854 45.311 3.96788
11.1368 46.7057 0.0278321
8.96977 47.3067 2
6.73177 47.9995 3.96671
9.58371 49.2265 0.033346
7.44113 50.0332 2
5.21278 50.9108 3.97826
8.2741 52.0002 0.0329255
6.13578 53.0052 2
3.86727 54.0858 4
7.1954 55.0319 0.0218626
5.02404 56.25 2
6.31991 58.3339 0
13.174 29.0776 3.97481
11.5177 26.5202 3.97104
13.6905 26.8637 2
10.2584 23.9849 3.96671
12.0745 24.823 2
13.4199 25.4092 0.025454
9.24979 21.1434 3.96771
11.1988 22.2546 2
12.9623 23.32 0.0317045
12.2754 20.5708 0.035242
10.3989 19.3287 2
8.41897 18.031 3.97681
11.665 17.5782 0.0305396
9.76192 16.1654 2
7.74928 14.6715 4
11.2226 14.3773 0.0230806
9.30602 12.7745 2
10.9835 10.9835 0
14.8464 32.9108 3.97683
18.3583 33.1733 2
21.2153 33.4687 0.0243748
15.8583 29.7083 2
16.2333 26.4751 0.0269507
18.8503 30.2706 0.0248844
13.182 36.2212 3.97695
15.2944 36.0342 2
18.192 35.989 0.0223396
12.8887 37.8295 2
11.4974 38.3084 3.97703
14.671 39.1659 0.0228602
12.1631 40.1256 2
9.90078 40.7444 3.97564
12.6569 42.2468 0.0235087
10.3285 42.7601 2
7.99477 43.2624 3.96861
10.7251 44.7789 0.0264033
8.44939 45.3105 2
6.13747 45.9047 3.96695
8.97 47.3071 0.0328155
6.73208 47.9987 2
4.42417 48.7515 3.97775
7.44082 50.0341 0.0331929
5.21273 50.9096 2
2.85457 51.8506 4
6.13603 53.0073 0.0214557
3.86727 54.0858 2
5.0241 56.25 0
12.3075 31.2912 3.97606
10.9364 28.4443 3.97152
13.1748 29.078 2
9.47566 25.813 3.96739
11.519 26.5206 2
13.691 26.8634 0.0250948
8.23658 23.0259 3.96743
10.2588 23.985 2
12.0727 24.8225 0.0294325
7.20117 19.9802 3.97774
9.25118 21.1439 2
11.1988 22.2547 0.034476
10.3972 19.3285 0.0317023
8.41835 18.0356 2
6.31992 16.6661 4
9.76321 16.1603 0.0231052
7.74926 14.6714 2
9.30607 12.7746 0
12.3446 34.3189 3.97675
14.8467 32.9115 2
18.3597 33.1741 0.02339
15.857 29.7078 0.0245082
11.0388 36.6189 3.9768
13.1827 36.221 2
15.2952 36.0345 0.0226704
12.8875 37.8298 0.0227465
11.5001 38.308 2
9.48387 38.8206 3.97575
12.1608 40.1258 0.0232828
9.90288 40.744 2
7.60319 41.2066 3.9689
10.3258 42.7607 0.0255352
7.9943 43.2621 2
5.64906 43.7677 3.96721
8.44854 45.311 0.0321171
6.13771 45.9041 2
3.76958 46.537 3.97764
6.73177 47.9995 0.0332896
4.42436 48.7507 2
1.99014 49.554 4
5.21278 50.9108 0.0217374
2.85451 51.8506 2
3.86727 54.0858 0
11.1276 32.9427 3.97692
10.2457 30.4058 3.97241
12.3088 31.2917 2
8.78602 27.745 3.96767
10.9378 28.4446 2
13.174 29.0776 0.025186
7.36178 24.9839 3.96716
9.47564 25.8132 2
11.5177 26.5202 0.0289585
6.11815 22.0029 3.97859
8.23744 23.0264 2
10.2584 23.9849 0.0332927
5.02411 18.75 4
7.20097 19.9835 2
9.24979 21.1434 0.0322897
8.41897 18.031 0.0231912
6.3199 16.6661 2
7.74928 14.6715 0
10.6333 35.0133 3.97661
12.3459 34.3193 2
14.8464 32.9108 0.0231732
9.14812 36.9877 3.97544
11.0416 36.6188 2
13.182 36.2212 0.0230501
11.4974 38.3084 0.0229742
9.48596 38.8204 2
7.27943 39.1801 3.9692
9.90078 40.7444 0.0243635
7.60368 41.2063 2
5.26402 41.6136 3.96734
7.99477 43.2624 0.031395
5.64926 43.7672 2
3.24718 44.2817 3.9779
6.13747 45.9047 0.0330519
3.76986 46.5365 2
1.27781 47.2057 4
4.42417 48.7515 0.0222515
1.99012 49.554 2
2.85457 51.8506 0
10.2713 33.8981 3.97646
9.52537 32.1716 3.97321
11.1299 32.9432 2
8.13002 29.7059 3.96807
10.2475 30.4062 2
12.3075 31.2912 0.0239385
6.60504 27.0095 3.96709
8.78584 27.7451 2
10.9364 28.4443 0.0284827
5.17351 24.0952 3.97854
7.36228 24.9844 2
9.47566 25.813 0.0326107
3.86728 20.9142 4
6.11817 22.0048 2
8.23658 23.0259 0.0325681
5.02406 18.75 2
7.20117 19.9802 0.0222571
6.31992 16.6661 0
8.9691 35.2869 3.97528
10.636 35.0134 2
12.3446 34.3189 0.0232488
7.05661 37.2064 3.96942
9.15005 36.9877 2
11.0388 36.6189 0.0232018
9.48387 38.8206 0.0242473
7.28049 39.1799 2
4.99139 39.4672 3.96772
7.60319 41.2066 0.0310977
5.2646 41.6132 2
2.85753 42.002 3.97806
5.64906 43.7677 0.0327874
3.24732 44.2813 2
0.720592 44.8159 4
3.76958 46.537 0.0223593
1.27778 47.2057 2
1.99014 49.554 0
9.01302 33.7096 3.97453
10.2742 33.8985 2
7.56148 31.6167 3.96865
9.5277 32.172 2
11.1276 32.9427 0.0230795
5.94976 29.0703 3.96726
8.12978 29.7061 2
10.2457 30.4058 0.0275885
4.36107 26.2475 3.97813
6.60534 27.0099 2
8.78602 27.745 0.0323305
2.85458 23.1494 4
5.17366 24.096 2
7.36178 24.9839 0.032842
3.86728 20.9142 2
6.11815 22.0029 0.0214133
5.02411 18.75 0
7.00517 35.3088 3.9694
8.97103 35.287 2
10.6333 35.0133 0.0233852
4.84143 37.3399 3.96812
7.05789 37.2062 2
9.14812 36.9877 0.0245587
7.27943 39.1801 0.0307991
4.99196 39.467 2
2.60547 39.7136 3.97825
5.26402 41.6136 0.0326605
2.85798 42.0018 2
0.320823 42.3947 4
3.24718 44.2817 0.0220985
0.720551 44.8159 2
1.27781 47.2057 0
7.17068 33.466 3.96909
9.01516 33.7098 2
10.2713 33.8981 0.0235363
5.42013 31.1341 3.96777
7.56168 31.6169 2
9.52537 32.1716 0.0267924
3.6826 28.4435 3.97791
5.95006 29.0707 2
8.13002 29.7059 0.0319306
1.99015 25.446 4
4.3613 26.2478 2
6.60504 27.0095 0.0329129
2.85453 23.1494 2
5.17351 24.0952 0.021461
3.86728 20.9142 0
4.85574 35.2518 3.96811
7.0055 35.3088 2
8.9691 35.2869 0.0247227
2.49689 37.4283 3.97905
4.84153 37.3399 2
7.05661 37.2064 0.030583
4.99139 39.4672 0.0322848
2.60603 39.7139 2
0.080333 39.9526 4
2.85753 42.002 0.0219423
0.320817 42.3947 2
0.720592 44.8159 0
5.04919 33.1906 3.96808
7.1711 33.466 2
9.01302 33.7096 0.0254737
3.14671 30.6662 3.9782
5.42039 31.1345 2
7.56148 31.6167 0.03135
1.27793 27.7943 4
3.68295 28.4437 2
5.94976 29.0703 0.0327402
1.99013 25.446 2
4.36107 26.2475 0.0218664
2.85458 23.1494 0
2.54898 35.1589 3.97879
4.85644 35.252 2
7.00517 35.3088 0.0305967
0 37.5 4
2.49698 37.4286 2
4.84143 37.3399 0.0318765
2.60547 39.7136 0.02175
0.0802903 39.9526 2
0.320823 42.3947 0
2.76664 32.9057 3.97891
5.04944 33.1909 2
7.17068 33.466 0.0309073
0.721173 30.1842 4
3.14707 30.6666 2
5.42013 31.1341 0.0322271
1.27779 27.7943 2
3.6826 28.4435 0.0220875
1.99015 25.446 0
0.0806499 35.0474 4
2.54964 35.1593 2
4.85574 35.2518 0.0318904
0 37.5 2
2.49689 37.4283 0.0209462
0.080333 39.9526 0
0.32156 32.6054 4
2.76682 32.9063 2
5.04919 33.1906 0.0319232
0.72056 30.1841 2
3.14671 30.6662 0.0218043
1.27793 27.7943 0
0.0802889 35.0474 2
2.54898 35.1589 0.0212114
0 37.5 0
0.320817 32.6053 2
2.76664 32.9057 0.0210912
0.721173 30.1842 0
0.0806499 35.0474 0
0.32156 32.6054 0
CELLS 1910 17190
8 18 6 25 56 2 0 5 16
8 57 23 6 18 17 4 0 2
8 78 36 9 29 31 11 1 7
8 31 11 1 7 79 37 10 30
8 110 57 18 50 48 17 2 14
8 50 18 56 111 14 2 16 49
8 116 62 22 55 52 20 3 15
8 56 25 67 118 16 5 24 53
8 119 63 23 57 54 21 4 17
8 55 22 63 119 15 3 21 54
8 58 26 68 121 18 6 25 56
8 122 65 26 58 57 23 6 18
8 73 31 7 27 142 79 30 71
8 143 78 29 72 73 31 7 27
8 83 147 76 34 32 74 28 8
8 84 148 78 36 33 75 29 9
8 76 34 8 28 148 84 33 75
8 37 79 150 86 10 30 77 35
8 151 87 36 78 80 38 11 31
8 80 38 11 31 152 88 37 79
8 175 100 42 94 96 44 12 40
8 44 96 176 101 12 40 95 43
8 101 176 98 46 43 95 41 13
8 46 98 178 103 13 41 97 45
8 178 103 45 97 147 83 32 74
8 189 116 55 109 106 52 15 47
8 111 56 118 191 49 16 53 107
8 192 119 57 110 108 54 17 48
8 109 55 119 192 47 15 54 108
8 194 122 58 112 110 57 18 50
8 112 58 121 195 50 18 56 111
8 115 61 19 51 197 124 59 113
8 115 61 125 198 51 19 60 114
8 198 125 62 116 114 60 20 52
8 200 127 64 120 116 62 22 55
8 118 67 132 202 53 24 66 117
8 121 68 133 203 56 25 67 118
8 120 64 128 204 55 22 63 119
8 204 128 65 122 119 63 23 57
8 206 134 68 121 123 69 26 58
8 123 69 26 58 207 131 65 122
8 226 147 74 138 140 76 28 70
8 229 148 75 139 143 78 29 72
8 140 76 28 70 229 148 75 139
8 142 79 30 71 231 150 77 141
8 144 80 31 73 232 152 79 142
8 233 151 78 143 144 80 31 73
8 150 86 35 77 235 154 81 145
8 235 154 81 145 146 82 39 91
8 146 82 39 91 236 155 90 165
8 238 157 83 147 149 85 34 76
8 239 158 84 148 151 87 36 78
8 149 85 34 76 239 158 84 148
8 152 88 37 79 241 160 86 150
8 242 161 87 151 153 89 38 80
8 153 89 38 80 243 162 88 152
8 171 98 41 92 265 178 97 169
8 265 178 97 169 226 147 74 138
8 172 96 40 93 266 176 95 170
8 266 176 95 170 171 98 41 92
8 269 175 94 173 172 96 40 93
8 271 180 99 174 175 100 42 94
8 197 124 59 113 271 180 99 174
8 272 181 100 175 177 102 44 96
8 273 182 101 176 179 104 46 98
8 177 102 44 96 273 182 101 176
8 179 104 46 98 275 184 103 178
8 275 184 103 178 238 157 83 147
8 188 115 51 105 283 197 113 186
8 188 115 198 284 105 51 114 187
8 284 198 116 189 187 114 52 106
8 286 200 120 193 189 116 55 109
8 191 118 202 288 107 53 117 190
8 195 121 203 289 111 56 118 191
8 193 120 204 290 109 55 119 192
8 290 204 122 194 192 119 57 110
8 196 123 58 112 292 207 122 194
8 293 206 121 195 196 123 58 112
8 199 126 61 115 297 211 124 197
8 298 212 127 200 198 125 62 116
8 199 126 212 298 115 61 125 198
8 205 129 64 120 300 214 127 200
8 301 217 130 201 202 132 66 117
8 209 136 168 264 301 217 130 201
8 302 219 132 202 203 133 67 118
8 303 220 133 203 206 134 68 121
8 205 129 215 304 120 64 128 204
8 304 215 131 207 204 128 65 122
8 306 221 134 206 208 135 69 123
8 208 135 69 123 307 218 131 207
8 210 137 167 263 309 223 136 209
8 328 238 147 226 230 149 76 140
8 228 146 91 166 329 236 165 260
8 231 150 77 141 330 235 145 227
8 330 235 145 227 228 146 91 166
8 332 239 148 229 233 151 78 143
8 230 149 76 140 332 239 148 229
8 232 152 79 142 334 241 150 231
8 234 153 80 144 335 243 152 232
8 336 242 151 233 234 153 80 144
8 236 155 90 165 338 245 164 259
8 241 160 86 150 339 246 154 235
8 339 246 154 235 237 156 82 146
8 237 156 82 146 340 247 155 236
8 342 249 157 238 240 159 85 149
8 343 250 158 239 242 161 87 151
8 240 159 85 149 343 250 158 239
8 243 162 88 152 345 252 160 241
8 244 163 253 346 153 89 161 242
8 244 163 89 153 347 254 162 243
8 311 224 261 371 210 137 167 263
8 263 167 262 372 209 136 168 264
8 267 179 98 171 375 275 178 265
8 375 275 178 265 328 238 147 226
8 376 273 176 266 267 179 98 171
8 268 177 96 172 376 273 176 266
8 379 272 175 269 268 177 96 172
8 380 271 174 270 269 175 94 173
8 283 197 113 186 380 271 174 270
8 381 277 180 271 272 181 100 175
8 297 211 124 197 381 277 180 271
8 382 278 181 272 274 183 102 177
8 274 183 102 177 383 279 182 273
8 383 279 182 273 276 185 104 179
8 385 281 184 275 342 249 157 238
8 276 185 104 179 385 281 184 275
8 285 199 115 188 393 297 197 283
8 394 298 200 286 284 198 116 189
8 285 199 298 394 188 115 198 284
8 291 205 120 193 396 300 200 286
8 397 301 201 287 288 202 117 190
8 295 209 264 374 397 301 201 287
8 398 302 202 288 289 203 118 191
8 399 303 203 289 293 206 121 195
8 291 205 304 400 193 120 204 290
8 400 304 207 292 290 204 122 194
8 294 208 123 196 402 307 207 292
8 403 306 206 293 294 208 123 196
8 296 210 263 373 405 309 209 295
8 408 312 213 299 297 211 126 199
8 299 213 313 409 199 126 212 298
8 409 313 214 300 298 212 127 200
8 305 216 129 205 411 315 214 300
8 412 318 217 301 302 219 132 202
8 309 223 136 209 412 318 217 301
8 413 320 219 302 303 220 133 203
8 306 221 321 414 206 134 220 303
8 307 218 131 207 415 316 215 304
8 305 216 316 415 205 129 215 304
8 417 322 221 306 308 222 135 208
8 308 222 135 208 418 319 218 307
8 310 225 137 210 420 325 223 309
8 423 326 224 311 310 225 137 210
8 329 236 165 260 441 338 259 368
8 442 342 238 328 333 240 149 230
8 331 237 146 228 443 340 236 329
8 334 241 150 231 444 339 235 330
8 444 339 235 330 331 237 146 228
8 446 343 239 332 336 242 151 233
8 333 240 149 230 446 343 239 332
8 335 243 152 232 448 345 241 334
8 337 244 153 234 449 347 243 335
8 337 244 346 450 234 153 242 336
8 338 245 164 259 452 349 258 367
8 340 247 155 236 453 350 245 338
8 345 252 160 241 454 351 246 339
8 454 351 246 339 341 248 156 237
8 341 248 156 237 455 352 247 340
8 240 159 251 344 342 249 354 457
8 242 161 253 346 343 250 355 458
8 343 250 355 458 240 159 251 344
8 347 254 162 243 460 357 252 345
8 348 255 358 461 244 163 253 346
8 348 255 163 244 462 359 254 347
8 473 360 257 365 363 256 364 482
8 452 349 258 367 365 257 366 485
8 422 324 369 488 311 224 261 371
8 371 261 370 490 263 167 262 372
8 407 311 371 491 296 210 263 373
8 373 263 372 492 295 209 264 374
8 493 385 275 375 442 342 238 328
8 377 276 179 267 493 385 275 375
8 378 274 177 268 494 383 273 376
8 494 383 273 376 377 276 179 267
8 497 382 272 379 378 274 177 268
8 498 381 271 380 379 272 175 269
8 393 297 197 283 498 381 271 380
8 499 387 277 381 382 278 181 272
8 408 312 211 297 499 387 277 381
8 500 388 278 382 384 280 183 274
8 501 389 279 383 386 282 185 276
8 384 280 183 274 501 389 279 383
8 386 282 185 276 503 391 281 385
8 503 391 281 385 457 354 249 342
8 511 408 299 395 393 297 199 285
8 395 299 409 512 285 199 298 394
8 512 409 300 396 394 298 200 286
8 401 305 205 291 514 411 300 396
8 515 412 301 397 398 302 202 288
8 405 309 209 295 515 412 301 397
8 516 413 302 398 399 303 203 289
8 403 306 414 517 293 206 303 399
8 402 307 207 292 518 415 304 400
8 401 305 415 518 291 205 304 400
8 404 308 208 294 520 418 307 402
8 521 417 306 403 404 308 208 294
8 406 310 210 296 523 420 309 405
8 526 423 311 407 406 310 210 296
8 410 314 213 299 527 424 312 408
8 528 425 315 411 409 313 214 300
8 410 314 425 528 299 213 313 409
8 416 317 216 305 530 427 315 411
8 531 430 318 412 413 320 219 302
8 420 325 223 309 531 430 318 412
8 532 432 320 413 414 321 220 303
8 417 322 433 533 306 221 321 414
8 418 319 218 307 534 428 316 415
8 416 317 428 534 305 216 316 415
8 419 323 434 536 308 222 322 417
8 419 323 222 308 537 431 319 418
8 421 327 225 310 539 438 325 420
8 421 327 439 541 310 225 326 423
8 543 437 324 422 423 326 224 311
8 441 338 259 368 559 452 367 486
8 443 340 236 329 560 453 338 441
8 333 240 344 447 442 342 457 561
8 445 341 237 331 562 455 340 443
8 448 345 241 334 563 454 339 444
8 563 454 339 444 445 341 237 331
8 336 242 346 450 446 343 458 565
8 446 343 458 565 333 240 344 447
8 449 347 243 335 567 460 345 448
8 451 348 244 337 568 462 347 449
8 451 348 461 569 337 244 346 450
8 570 463 349 452 473 360 257 365
8 453 350 245 338 570 463 349 452
8 455 352 247 340 571 464 350 453
8 460 357 252 345 572 465 351 454
8 572 465 351 454 456 353 248 341
8 456 353 248 341 573 466 352 455
8 344 251 356 459 457 354 468 575
8 458 355 469 576 344 251 356 459
8 346 253 358 461 458 355 469 576
8 462 359 254 347 578 471 357 460
8 348 255 359 462 461 358 472 579
8 591 474 360 473 475 361 256 363
8 475 361 256 363 594 477 362 479
8 363 256 364 482 479 362 480 603
8 590 473 365 484 481 363 482 605
8 482 364 257 365 606 483 366 485
8 559 452 367 486 484 365 485 607
8 542 436 487 609 422 324 369 488
8 525 422 488 611 407 311 371 491
8 488 369 489 612 371 261 370 490
8 491 371 490 613 373 263 372 492
8 495 386 276 377 614 503 385 493
8 614 503 385 493 561 457 342 442
8 615 501 383 494 495 386 276 377
8 496 384 274 378 615 501 383 494
8 618 500 382 497 496 384 274 378
8 619 499 381 498 497 382 272 379
8 511 408 297 393 619 499 381 498
8 620 505 387 499 500 388 278 382
8 527 424 312 408 620 505 387 499
8 502 390 506 621 384 280 388 500
8 622 507 389 501 504 392 282 386
8 502 390 280 384 622 507 389 501
8 504 392 282 386 624 509 391 503
8 624 509 391 503 575 468 354 457
8 513 410 299 395 630 527 408 511
8 631 528 411 514 512 409 300 396
8 513 410 528 631 395 299 409 512
8 519 416 305 401 633 530 411 514
8 634 531 412 515 516 413 302 398
8 523 420 309 405 634 531 412 515
8 635 532 413 516 517 414 303 399
8 521 417 533 636 403 306 414 517
8 520 418 307 402 637 534 415 518
8 519 416 534 637 401 305 415 518
8 522 419 308 404 639 537 418 520
8 522 419 536 640 404 308 417 521
8 524 421 310 406 642 539 420 523
8 524 421 541 644 406 310 423 526
8 646 543 422 525 526 423 311 407
8 529 426 314 410 647 544 424 527
8 528 425 545 648 411 315 427 530
8 529 426 545 648 410 314 425 528
8 535 429 317 416 649 546 427 530
8 650 548 430 531 532 432 320 413
8 539 438 325 420 650 548 430 531
8 533 433 550 651 414 321 432 532
8 536 434 551 652 417 322 433 533
8 537 431 319 418 653 547 428 534
8 535 429 547 653 416 317 428 534
8 538 435 552 654 419 323 434 536
8 538 435 323 419 655 549 431 537
8 540 440 327 421 657 556 438 539
8 540 440 557 659 421 327 439 541
8 541 439 555 660 423 326 437 543
8 661 554 436 542 543 437 324 422
8 676 570 452 559 590 473 365 484
8 560 453 338 441 676 570 452 559
8 562 455 340 443 677 571 453 560
8 447 344 459 566 561 457 575 678
8 564 456 341 445 679 573 455 562
8 567 460 345 448 680 572 454 563
8 680 572 454 563 564 456 341 445
8 565 458 576 682 447 344 459 566
8 450 346 461 569 565 458 576 682
8 568 462 347 449 684 578 460 567
8 451 348 462 568 569 461 579 685
8 686 580 463 570 591 474 360 473
8 571 464 350 453 686 580 463 570
8 573 466 352 455 687 581 464 571
8 572 465 582 688 460 357 471 578
8 574 467 582 688 456 353 465 572
8 574 467 353 456 689 583 466 573
8 459 356 470 577 575 468 585 691
8 576 469 586 692 459 356 470 577
8 461 358 472 579 576 469 586 692
8 462 359 471 578 579 472 588 694
8 704 591 473 590 593 475 363 481
8 595 476 592 705 475 361 474 591
8 593 475 363 481 707 594 479 602
8 594 477 362 479 709 598 478 600
8 595 476 361 475 711 597 477 594
8 479 362 480 603 600 478 601 720
8 481 363 482 605 602 479 603 722
8 603 480 364 482 723 604 483 606
8 605 482 365 484 724 606 485 607
8 656 553 608 726 542 436 487 609
8 645 542 609 728 525 422 488 611
8 609 487 610 729 488 369 489 612
8 611 488 612 730 491 371 490 613
8 616 504 386 495 731 624 503 614
8 731 624 503 614 678 575 457 561
8 732 622 501 615 616 504 386 495
8 617 502 384 496 732 622 501 615
8 617 502 621 735 496 384 500 618
8 736 620 499 619 618 500 382 497
8 630 527 408 511 736 620 499 619
8 621 506 626 737 500 388 505 620
8 647 544 424 527 737 626 505 620
8 623 508 627 738 502 390 506 621
8 623 508 390 502 739 628 507 622
8 625 510 628 739 504 392 507 622
8 740 629 509 624 691 585 468 575
8 625 510 392 504 740 629 509 624
8 632 529 410 513 744 647 527 630
8 631 528 648 745 514 411 530 633
8 632 529 648 745 513 410 528 631
8 638 535 416 519 746 649 530 633
8 747 650 531 634 635 532 413 516
8 642 539 420 523 747 650 531 634
8 636 533 651 748 517 414 532 635
8 640 536 652 749 521 417 533 636
8 639 537 418 520 750 653 534 637
8 638 535 653 750 519 416 534 637
8 641 538 419 522 751 655 537 639
8 641 538 654 752 522 419 536 640
8 643 540 421 524 753 657 539 642
8 643 540 659 755 524 421 541 644
8 644 541 660 757 526 423 543 646
8 758 661 542 645 646 543 422 525
8 529 426 544 647 648 545 662 759
8 530 427 545 648 649 546 663 760
8 535 429 546 649 653 547 664 761
8 762 666 548 650 651 550 432 532
8 657 556 438 539 762 666 548 650
8 652 551 668 763 533 433 550 651
8 654 552 669 764 536 434 551 652
8 655 549 431 537 765 665 547 653
8 538 435 549 655 654 552 667 766
8 661 554 671 768 542 436 553 656
8 658 558 440 540 769 674 556 657
8 658 558 675 770 540 440 557 659
8 659 557 673 771 541 439 555 660
8 660 555 672 772 543 437 554 661
8 788 686 570 676 704 591 473 590
8 677 571 453 560 788 686 570 676
8 679 573 455 562 789 687 571 677
8 566 459 577 683 678 575 691 790
8 681 574 456 564 791 689 573 679
8 680 572 688 792 567 460 578 684
8 681 574 688 792 564 456 572 680
8 682 576 692 794 566 459 577 683
8 569 461 579 685 682 576 692 794
8 568 462 578 684 685 579 694 796
8 687 581 464 571 798 696 580 686
8 798 696 580 686 705 592 474 591
8 689 583 466 573 799 697 581 687
8 688 582 698 800 578 471 588 694
8 690 584 698 800 574 467 582 688
8 690 584 467 574 801 699 583 689
8 693 587 701 803 577 470 585 691
8 693 587 470 577 804 702 586 692
8 695 589 702 804 579 472 586 692
8 695 589 472 579 805 703 588 694
8 708 595 705 813 593 475 591 704
8 710 596 706 814 595 476 592 705
8 707 594 479 602 816 709 600 719
8 708 595 475 593 817 711 594 707
8 709 598 478 600 819 715 599 717
8 711 597 477 594 820 714 598 709
8 710 596 476 595 822 713 597 711
8 600 478 601 720 717 599 718 832
8 602 479 603 722 719 600 720 834
8 720 601 480 603 835 721 604 723
8 722 603 482 605 836 723 606 724
8 767 670 725 839 656 553 608 726
8 756 656 726 841 645 542 609 728
8 726 608 727 842 609 487 610 729
8 728 609 729 843 611 488 612 730
8 844 740 624 731 790 691 575 678
8 733 625 504 616 844 740 624 731
8 734 623 502 617 845 739 622 732
8 733 625 739 845 616 504 622 732
8 734 623 738 846 617 502 621 735
8 735 621 737 847 618 500 620 736
8 744 647 527 630 847 737 620 736
8 621 506 627 738 737 626 741 848
8 647 544 626 737 759 662 741 848
8 623 508 628 739 738 627 742 849
8 740 629 585 691 850 743 700 802
8 625 510 629 740 739 628 743 850
8 632 529 647 744 745 648 759 854
8 633 530 648 745 746 649 760 855
8 638 535 649 746 750 653 761 856
8 857 762 650 747 748 651 532 635
8 753 657 539 642 857 762 650 747
8 749 652 763 858 636 533 651 748
8 752 654 764 859 640 536 652 749
8 751 655 537 639 860 765 653 750
8 641 538 655 751 752 654 766 861
8 754 658 540 643 862 769 657 753
8 754 658 770 863 643 540 659 755
8 755 659 771 864 644 541 660 757
8 758 661 768 866 645 542 656 756
8 757 660 772 867 646 543 661 758
8 759 662 773 868 648 545 663 760
8 649 546 663 760 761 664 774 871
8 765 665 547 653 872 775 664 761
8 873 777 666 762 763 668 550 651
8 769 674 556 657 873 777 666 762
8 764 669 779 874 652 551 668 763
8 654 552 667 766 764 669 778 875
8 655 549 665 765 766 667 776 876
8 768 671 782 877 656 553 670 767
8 772 672 783 878 661 554 671 768
8 658 558 674 769 770 675 786 879
8 659 557 675 770 771 673 785 881
8 882 784 672 772 771 673 555 660
8 789 687 571 677 897 798 686 788
8 897 798 686 788 813 705 591 704
8 791 689 573 679 898 799 687 789
8 795 693 803 900 683 577 691 790
8 793 690 574 681 901 801 689 791
8 792 688 800 902 684 578 694 796
8 793 690 800 902 681 574 688 792
8 795 693 577 683 903 804 692 794
8 797 695 804 903 685 579 692 794
8 797 695 579 685 904 805 694 796
8 905 806 697 799 798 696 581 687
8 814 706 806 905 705 592 696 798
8 689 583 697 799 801 699 808 907
8 800 698 809 908 694 588 703 805
8 690 584 699 801 800 698 809 908
8 803 701 810 909 691 585 700 802
8 693 587 702 804 803 701 811 910
8 695 589 703 805 804 702 812 911
8 818 710 814 919 708 595 705 813
8 821 712 815 920 710 596 706 814
8 816 709 600 719 922 819 717 831
8 817 711 594 707 923 820 709 816
8 818 710 595 708 924 822 711 817
8 819 715 599 717 926 827 716 829
8 820 714 598 709 927 826 715 819
8 929 825 713 822 820 714 597 711
8 821 712 596 710 930 824 713 822
8 717 599 718 832 829 716 830 942
8 719 600 720 834 831 717 832 944
8 832 718 601 720 945 833 721 835
8 834 720 603 722 946 835 723 836
8 869 780 838 950 767 670 725 839
8 865 767 839 952 756 656 726 841
8 839 725 840 953 726 608 727 842
8 841 726 842 954 728 609 729 843
8 844 740 691 790 955 850 802 899
8 733 625 740 844 845 739 850 955
8 734 623 739 845 846 738 849 956
8 735 621 738 846 847 737 848 957
8 744 647 737 847 854 759 848 957
8 738 627 742 849 848 741 851 958
8 848 741 851 958 759 662 773 868
8 850 743 700 802 959 852 807 906
8 849 742 628 739 959 852 743 850
8 854 759 868 965 745 648 760 855
8 746 649 760 855 856 761 871 966
8 860 765 653 750 967 872 761 856
8 968 873 762 857 858 763 651 748
8 862 769 657 753 968 873 762 857
8 859 764 874 969 749 652 763 858
8 752 654 766 861 859 764 875 970
8 751 655 765 860 861 766 876 971
8 754 658 769 862 863 770 879 972
8 755 659 770 863 864 771 881 974
8 976 882 772 867 864 771 660 757
8 866 768 877 977 756 656 767 865
8 867 772 878 978 758 661 768 866
8 760 663 773 868 871 774 883 980
8 870 781 837 948 982 890 780 869
8 982 890 780 869 877 782 670 767
8 761 664 774 871 872 775 884 984
8 876 776 665 765 985 885 775 872
8 873 777 668 763 986 887 779 874
8 769 674 777 873 879 786 887 986
8 764 669 778 875 874 779 888 987
8 766 667 776 876 875 778 886 988
8 878 783 892 989 768 671 782 877
8 878 783 672 772 990 893 784 882
8 880 787 675 770 991 896 786 879
8 880 787 895 992 770 675 785 881
8 881 785 894 993 771 673 784 882
8 1006 905 799 898 897 798 687 789
8 919 814 905 1006 813 705 798 897
8 791 689 799 898 901 801 907 1007
8 900 803 909 1009 790 691 802 899
8 795 693 804 903 900 803 910 1010
8 902 800 908 1011 796 694 805 904
8 793 690 801 901 902 800 908 1011
8 797 695 805 904 903 804 911 1012
8 799 697 806 905 907 808 912 1013
8 920 815 912 1013 814 706 806 905
8 802 700 810 909 906 807 913 1014
8 801 699 808 907 908 809 914 1015
8 805 703 809 908 911 812 915 1016
8 803 701 811 910 909 810 916 1017
8 911 812 917 1018 804 702 811 910
8 925 821 920 1030 818 710 814 919
8 928 823 921 1031 821 712 815 920
8 922 819 717 831 1033 926 829 941
8 923 820 709 816 1034 927 819 922
8 1035 929 822 924 923 820 711 817
8 925 821 710 818 1036 930 822 924
8 1038 933 825 929 927 826 714 820
8 926 827 716 829 1039 935 828 939
8 927 826 715 819 1040 934 827 926
8 928 823 712 821 1041 931 824 930
8 1042 932 824 930 929 825 713 822
8 829 716 830 942 939 828 940 1058
8 831 717 832 944 941 829 942 1060
8 942 830 718 832 1061 943 833 945
8 944 832 720 834 1062 945 835 946
8 981 889 947 1064 870 781 837 948
8 948 837 949 1067 869 780 838 950
8 975 869 950 1069 865 767 839 952
8 950 838 951 1070 839 725 840 953
8 952 839 953 1071 841 726 842 954
8 955 850 802 899 1072 959 906 1008
8 956 849 739 845 1072 959 850 955
8 846 738 849 956 957 848 958 1073
8 957 848 958 1073 854 759 868 965
8 849 742 852 959 958 851 961 1076
8 960 853 961 1076 906 807 852 959
8 958 851 961 1076 868 773 883 980
8 960 853 807 906 1077 963 913 1014
8 855 760 868 965 966 871 980 1085
8 856 761 871 966 967 872 984 1086
8 971 876 765 860 1087 985 872 967
8 968 873 763 858 1088 986 874 969
8 862 769 873 968 972 879 986 1088
8 859 764 875 970 969 874 987 1089
8 861 766 876 971 970 875 988 1090
8 973 880 770 863 1091 991 879 972
8 973 880 992 1092 863 770 881 974
8 974 881 993 1093 864 771 882 976
8 979 870 948 1066 1094 982 869 975
8 1094 982 869 975 977 877 767 865
8 978 878 772 867 1095 990 882 976
8 978 878 989 1096 866 768 877 977
8 871 774 883 980 984 884 994 1099
8 983 891 999 1100 870 781 889 981
8 1101 1000 890 982 989 892 782 877
8 983 891 781 870 1101 1000 890 982
8 872 775 884 984 985 885 995 1103
8 876 776 885 985 988 886 996 1104
8 986 887 779 874 1105 998 888 987
8 879 786 887 986 991 896 998 1105
8 875 778 886 988 987 888 997 1106
8 990 893 1002 1107 878 783 892 989
8 1108 1003 893 990 993 894 784 882
8 880 787 896 991 992 895 1005 1109
8 993 894 785 881 1110 1004 895 992
8 898 799 905 1006 1007 907 1013 1120
8 1030 920 1013 1120 919 814 905 1006
8 901 801 907 1007 1011 908 1015 1121
8 899 802 909 1009 1008 906 1014 1122
8 900 803 910 1010 1009 909 1017 1123
8 1012 911 1018 1124 903 804 910 1010
8 904 805 908 1011 1012 911 1016 1125
8 1013 912 1020 1127 907 808 914 1015
8 1031 921 1020 1127 920 815 912 1013
8 1019 918 962 1075 1128 1021 913 1014
8 1128 1021 913 1014 1017 916 810 909
8 1015 914 1022 1129 908 809 915 1016
8 1016 915 1023 1130 911 812 917 1018
8 1018 917 1024 1131 910 811 916 1017
8 1037 928 1031 1148 925 821 920 1030
8 928 823 931 1041 1031 921 1032 1149
8 1033 926 829 941 1151 1039 939 1057
8 1034 927 819 922 1152 1040 926 1033
8 1153 1038 929 1035 1034 927 820 923
8 1154 1042 930 1036 1035 929 822 924
8 1037 928 821 925 1155 1041 930 1036
8 1039 935 828 939 1156 1047 938 1055
8 1157 1043 932 1042 1038 933 825 929
8 1038 933 826 927 1158 1045 934 1040
8 1040 934 827 926 1159 1046 935 1039
8 930 824 932 1042 1041 931 1044 1160
8 1051 936 1048 1165 1175 1052 937 1053
8 1156 1047 938 1055 1053 937 1054 1178
8 939 828 940 1058 1055 938 1056 1181
8 941 829 942 1060 1057 939 1058 1183
8 942 830 943 1061 1058 940 1059 1184
8 1060 942 832 944 1185 1061 945 1062
8 1082 964 1063 1188 981 889 947 1064
8 1097 981 1064 1190 979 870 948 1066
8 1064 947 1065 1191 948 837 949 1067
8 1066 948 1067 1193 975 869 950 1069
8 1067 949 1068 1194 950 838 951 1070
8 1069 950 1070 1195 952 839 953 1071
8 956 849 959 1072 1073 958 1076 1197
8 1074 960 1076 1197 1008 906 959 1072
8 1073 958 1076 1197 965 868 980 1085
8 1074 960 906 1008 1198 1077 1014 1122
8 1133 1026 1079 1199 1019 918 962 1075
8 1077 963 913 1014 1200 1080 962 1075
8 960 853 963 1077 1076 961 1078 1201
8 980 883 961 1076 1099 994 1078 1201
8 1210 1083 964 1082 1100 999 889 981
8 966 871 980 1085 1086 984 1099 1215
8 967 872 984 1086 1087 985 1103 1216
8 971 876 985 1087 1090 988 1104 1217
8 1088 986 874 969 1218 1105 987 1089
8 972 879 986 1088 1091 991 1105 1218
8 970 875 988 1090 1089 987 1106 1219
8 973 880 991 1091 1092 992 1109 1220
8 1093 993 881 974 1221 1110 992 1092
8 1222 1108 990 1095 1093 993 882 976
8 1223 1101 982 1094 1096 989 877 977
8 1098 983 870 979 1223 1101 982 1094
8 1095 990 1107 1224 978 878 989 1096
8 1098 983 1100 1225 979 870 981 1097
8 984 884 994 1099 1103 995 1111 1227
8 1102 1001 1115 1228 983 891 999 1100
8 1101 1000 892 989 1229 1116 1002 1107
8 1102 1001 891 983 1229 1116 1000 1101
8 985 885 995 1103 1104 996 1112 1230
8 988 886 996 1104 1106 997 1113 1231
8 1105 998 888 987 1232 1114 997 1106
8 991 896 998 1105 1109 1005 1114 1232
8 1108 1003 1117 1233 990 893 1002 1107
8 1108 1003 894 993 1233 1117 1004 1110
8 992 895 1005 1109 1110 1004 1118 1234
8 1120 1013 1127 1244 1007 907 1015 1121
8 1148 1031 1127 1244 1030 920 1013 1120
8 1121 1015 1129 1245 1011 908 1016 1125
8 1126 1019 1075 1196 1246 1128 1014 1122
8 1246 1128 1014 1122 1123 1017 909 1009
8 1124 1018 1131 1247 1010 910 1017 1123
8 1125 1016 1130 1248 1012 911 1018 1124
8 1127 1020 1137 1254 1015 914 1022 1129
8 1031 921 1032 1149 1127 1020 1137 1254
8 1134 1027 918 1019 1257 1140 1021 1128
8 1257 1140 1021 1128 1131 1024 916 1017
8 1129 1022 1141 1258 1016 915 1023 1130
8 1130 1023 1142 1259 1018 917 1024 1131
8 1261 1144 1025 1132 1133 1026 1079 1199
8 1255 1138 1025 1132 1135 1028 1144 1261
8 1133 1026 918 1019 1262 1145 1027 1134
8 1136 1029 1139 1256 1263 1146 1028 1135
8 1037 928 1041 1155 1148 1031 1149 1275
8 1041 931 1044 1160 1149 1032 1150 1276
8 1151 1039 939 1057 1278 1156 1055 1180
8 1152 1040 926 1033 1279 1159 1039 1151
8 1153 1038 927 1034 1280 1158 1040 1152
8 1281 1157 1042 1154 1153 1038 929 1035
8 1036 930 1042 1154 1155 1041 1160 1282
8 1283 1164 1046 1159 1156 1047 935 1039
8 1165 1048 1164 1283 1053 937 1047 1156
8 1157 1043 933 1038 1284 1161 1045 1158
8 1157 1043 1161 1284 1042 932 1044 1160
8 1040 934 1046 1159 1158 1045 1163 1285
8 1166 1049 1167 1292 1051 936 1048 1165
8 1166 1049 936 1051 1293 1168 1050 1172
8 1051 936 1052 1175 1172 1050 1173 1306
8 1174 1051 1165 1290 1308 1175 1053 1177
8 1053 937 1054 1178 1175 1052 1176 1309
8 1278 1156 1055 1180 1177 1053 1178 1311
8 1055 938 1056 1181 1178 1054 1179 1312
8 1057 939 1058 1183 1180 1055 1181 1314
8 1058 940 1059 1184 1181 1056 1182 1315
8 1060 942 1061 1185 1183 1058 1184 1316
8 1208 1081 1187 1321 1082 964 1063 1188
8 1209 1082 1188 1322 1097 981 1064 1190
8 1188 1063 1189 1323 1064 947 1065 1191
8 1190 1064 1191 1325 1066 948 1067 1193
8 1191 1065 1192 1326 1067 949 1068 1194
8 1067 1193 1069 950 1194 1327 1195 1070
8 1250 1133 1199 1330 1126 1019 1075 1196
8 1198 1077 1014 1122 1331 1200 1075 1196
8 1074 960 1077 1198 1197 1076 1201 1332
8 1085 980 1076 1197 1215 1099 1201 1332
8 1199 1079 1203 1333 1075 962 1080 1200
8 1132 1025 1119 1243 1199 1079 1203 1333
8 1201 1078 963 1077 1334 1202 1080 1200
8 1099 994 1078 1201 1227 1111 1202 1334
8 1343 1207 1081 1208 1210 1083 964 1082
8 1214 1084 1186 1319 1343 1207 1081 1208
8 1345 1210 1082 1209 1225 1100 981 1097
8 1346 1211 1083 1210 1228 1115 999 1100
8 1086 984 1099 1215 1216 1103 1227 1352
8 1087 985 1103 1216 1217 1104 1230 1353
8 1090 988 1104 1217 1219 1106 1231 1354
8 1218 1105 987 1089 1355 1232 1106 1219
8 1091 991 1105 1218 1220 1109 1232 1355
8 1092 992 1109 1220 1221 1110 1234 1356
8 1222 1108 1233 1357 1095 990 1107 1224
8 1222 1108 993 1093 1357 1233 1110 1221
8 1223 1101 989 1096 1358 1229 1107 1224
8 1226 1102 983 1098 1358 1229 1101 1223
8 1226 1102 1228 1359 1098 983 1100 1225
8 1103 995 1111 1227 1230 1112 1235 1360
8 1107 1002 1117 1233 1229 1116 1240 1362
8 1102 1001 1116 1229 1228 1115 1240 1362
8 1104 996 1112 1230 1231 1113 1236 1363
8 1364 1237 1114 1232 1231 1113 997 1106
8 1109 1005 1114 1232 1234 1118 1238 1365
8 1110 1004 1118 1234 1233 1117 1241 1366
8 1242 1374 1255 1138 1119 1243 1132 1025
8 1244 1127 1254 1376 1121 1015 1129 1245
8 1148 1031 1149 1275 1244 1127 1254 1376
8 1245 1129 1258 1377 1125 1016 1130 1248
8 1251 1134 1019 1126 1378 1257 1128 1246
8 1378 1257 1128 1246 1247 1131 1017 1123
8 1248 1130 1259 1379 1124 1018 1131 1247
8 1261 1381 1250 1133 1132 1249 1330 1199
8 1255 1380 1252 1135 1132 1249 1381 1261
8 1250 1133 1019 1126 1382 1262 1134 1251
8 1253 1136 1256 1385 1384 1263 1135 1252
8 1254 1137 1265 1387 1129 1022 1141 1258
8 1149 1032 1150 1276 1254 1137 1265 1387
8 1028 1135 1255 1138 1139 1256 1388 1266
8 1136 1029 1147 1264 1256 1139 1267 1389
8 1390 1268 1140 1257 1259 1142 1024 1131
8 1260 1143 1027 1134 1390 1268 1140 1257
8 1258 1141 1269 1391 1130 1023 1142 1259
8 1262 1145 1027 1134 1393 1271 1143 1260
8 1261 1144 1026 1133 1394 1272 1145 1262
8 1135 1028 1144 1261 1263 1146 1272 1394
8 1136 1029 1146 1263 1264 1147 1273 1395
8 1155 1041 1160 1282 1275 1149 1276 1405
8 1276 1150 1044 1160 1406 1277 1162 1286
8 1408 1283 1159 1279 1278 1156 1039 1151
8 1290 1165 1283 1408 1177 1053 1156 1278
8 1152 1040 1159 1279 1280 1158 1285 1409
8 1281 1157 1038 1153 1410 1284 1158 1280
8 1281 1157 1284 1410 1154 1042 1160 1282
8 1159 1046 1164 1283 1285 1163 1289 1412
8 1292 1167 1289 1412 1165 1048 1164 1283
8 1158 1045 1163 1285 1284 1161 1288 1413
8 1284 1161 1288 1413 1160 1044 1162 1286
8 1291 1166 1292 1418 1174 1051 1165 1290
8 1291 1166 1051 1174 1419 1293 1172 1305
8 1294 1169 1296 1421 1166 1049 1167 1292
8 1293 1168 1050 1172 1422 1295 1171 1303
8 1294 1169 1049 1166 1423 1297 1168 1293
8 1422 1295 1171 1303 1301 1170 1302 1435
8 1172 1050 1173 1306 1303 1171 1304 1438
8 1174 1051 1175 1308 1305 1172 1306 1440
8 1175 1052 1176 1309 1306 1173 1307 1441
8 1177 1053 1178 1311 1308 1175 1309 1443
8 1178 1054 1179 1312 1309 1176 1310 1444
8 1180 1055 1181 1314 1311 1178 1312 1446
8 1056 1181 1312 1179 1182 1315 1447 1313
8 1183 1058 1184 1316 1314 1181 1315 1448
8 1319 1186 1084 1214 1451 1317 1213 1350
8 1319 1186 1318 1453 1208 1081 1187 1321
8 1321 1187 1320 1456 1188 1063 1189 1323
8 1344 1208 1321 1457 1209 1082 1188 1322
8 1322 1188 1323 1458 1190 1064 1191 1325
8 1323 1189 1324 1459 1191 1065 1192 1326
8 1191 1325 1193 1067 1326 1460 1327 1194
8 1242 1374 1243 1119 1328 1462 1335 1204
8 1330 1199 1333 1465 1196 1075 1200 1331
8 1132 1249 1330 1199 1243 1375 1465 1333
8 1332 1201 1077 1198 1466 1334 1200 1331
8 1215 1099 1201 1332 1352 1227 1334 1466
8 1119 1243 1333 1203 1204 1335 1470 1338
8 1333 1203 1338 1470 1200 1080 1202 1334
8 1227 1111 1202 1334 1360 1235 1338 1470
8 1328 1462 1335 1204 1205 1336 1471 1339
8 1337 1206 1340 1472 1464 1329 1205 1336
8 1346 1211 1342 1479 1210 1083 1207 1343
8 1346 1211 1115 1228 1479 1342 1239 1361
8 1348 1212 1084 1214 1479 1342 1207 1343
8 1480 1343 1208 1344 1345 1210 1082 1209
8 1351 1214 1319 1454 1480 1343 1208 1344
8 1481 1346 1210 1345 1359 1228 1100 1225
8 1348 1212 1347 1483 1214 1084 1213 1350
8 1216 1103 1227 1352 1353 1230 1360 1488
8 1217 1104 1230 1353 1354 1231 1363 1489
8 1490 1364 1232 1355 1354 1231 1106 1219
8 1220 1109 1232 1355 1356 1234 1365 1491
8 1221 1110 1234 1356 1357 1233 1366 1492
8 1224 1107 1233 1357 1358 1229 1362 1493
8 1226 1102 1229 1358 1359 1228 1362 1493
8 1230 1112 1235 1360 1363 1236 1367 1496
8 1361 1239 1115 1228 1497 1371 1240 1362
8 1366 1241 1372 1498 1233 1117 1240 1362
8 1364 1237 1113 1231 1499 1368 1236 1363
8 1364 1237 1368 1499 1232 1114 1238 1365
8 1234 1118 1238 1365 1366 1241 1369 1500
8 1507 1373 1242 1374 1388 1266 1138 1255
8 1508 1374 1243 1375 1380 1255 1132 1249
8 1376 1254 1387 1509 1245 1129 1258 1377
8 1275 1149 1276 1405 1376 1254 1387 1509
8 1377 1258 1391 1510 1248 1130 1259 1379
8 1511 1390 1257 1378 1379 1259 1131 1247
8 1383 1260 1134 1251 1511 1390 1257 1378
8 1252 1135 1256 1385 1380 1255 1388 1512
8 1261 1381 1513 1394 1133 1250 1382 1262
8 1135 1252 1384 1263 1261 1381 1513 1394
8 1382 1262 1134 1251 1514 1393 1260 1383
8 1253 1136 1263 1384 1386 1264 1395 1516
8 1253 1136 1264 1386 1385 1256 1389 1517
8 1387 1265 1397 1519 1258 1141 1269 1391
8 1276 1150 1277 1406 1387 1265 1397 1519
8 1256 1139 1267 1389 1388 1266 1398 1520
8 1264 1147 1274 1396 1389 1267 1399 1521
8 1392 1270 1143 1260 1522 1400 1268 1390
8 1390 1268 1142 1259 1522 1400 1269 1391
8 1392 1270 1401 1523 1260 1143 1271 1393
8 1272 1394 1524 1402 1145 1262 1393 1271
8 1395 1273 1146 1263 1524 1402 1272 1394
8 1273 1395 1264 1147 1403 1526 1396 1274
8 1405 1276 1160 1282 1534 1406 1286 1411
8 1414 1287 1407 1535 1286 1162 1277 1406
8 1279 1159 1283 1408 1409 1285 1412 1537
8 1418 1292 1412 1537 1290 1165 1283 1408
8 1280 1158 1285 1409 1410 1284 1413 1538
8 1410 1284 1413 1538 1282 1160 1286 1411
8 1285 1163 1289 1412 1413 1288 1417 1540
8 1421 1296 1417 1540 1292 1167 1289 1412
8 1414 1287 1162 1286 1541 1416 1288 1413
8 1420 1294 1421 1545 1291 1166 1292 1418
8 1419 1293 1172 1305 1546 1422 1303 1437
8 1420 1294 1166 1291 1547 1423 1293 1419
8 1294 1169 1297 1423 1421 1296 1425 1548
8 1423 1297 1168 1293 1549 1424 1295 1422
8 1301 1170 1298 1427 1422 1295 1424 1549
8 1432 1300 1428 1554 1301 1170 1298 1427
8 1431 1299 1428 1554 1560 1430 1300 1432
8 1563 1433 1300 1432 1435 1302 1170 1301
8 1546 1422 1303 1437 1434 1301 1435 1565
8 1303 1171 1304 1438 1435 1302 1436 1566
8 1305 1172 1306 1440 1437 1303 1438 1568
8 1306 1173 1307 1441 1438 1304 1439 1569
8 1308 1175 1309 1443 1440 1306 1441 1571
8 1309 1176 1310 1444 1441 1307 1442 1572
8 1311 1178 1312 1446 1443 1309 1444 1574
8 1179 1312 1444 1310 1313 1447 1575 1445
8 1314 1181 1315 1448 1446 1312 1447 1576
8 1350 1213 1349 1486 1451 1317 1449 1579
8 1451 1317 1450 1581 1319 1186 1318 1453
8 1454 1319 1214 1351 1582 1451 1350 1487
8 1453 1318 1452 1584 1321 1187 1320 1456
8 1454 1319 1453 1585 1344 1208 1321 1457
8 1456 1320 1455 1586 1323 1189 1324 1459
8 1457 1321 1456 1587 1322 1188 1323 1458
8 1458 1323 1459 1588 1325 1191 1326 1460
8 1205 1336 1464 1329 1328 1462 1590 1461
8 1507 1373 1461 1590 1374 1242 1328 1462
8 1508 1374 1462 1591 1375 1243 1335 1467
8 1337 1206 1329 1464 1473 1341 1463 1594
8 1375 1243 1335 1467 1465 1333 1470 1596
8 1465 1333 1470 1596 1331 1200 1334 1466
8 1352 1227 1334 1466 1488 1360 1470 1596
8 1591 1462 1336 1468 1467 1335 1471 1597
8 1469 1337 1472 1598 1595 1464 1336 1468
8 1471 1339 1474 1600 1335 1204 1338 1470
8 1600 1474 1367 1496 1470 1338 1235 1360
8 1336 1205 1340 1472 1471 1339 1475 1601
8 1337 1206 1341 1473 1472 1340 1476 1602
8 1495 1370 1478 1609 1361 1239 1342 1479
8 1348 1212 1342 1479 1483 1347 1478 1609
8 1481 1346 1479 1610 1345 1210 1343 1480
8 1481 1346 1228 1359 1610 1479 1361 1494
8 1484 1348 1214 1351 1610 1479 1343 1480
8 1483 1347 1482 1612 1350 1213 1349 1486
8 1484 1348 1483 1613 1351 1214 1350 1487
8 1353 1230 1360 1488 1489 1363 1496 1616
8 1490 1364 1231 1354 1617 1499 1363 1489
8 1490 1364 1499 1617 1355 1232 1365 1491
8 1356 1234 1365 1491 1492 1366 1500 1619
8 1492 1366 1498 1620 1357 1233 1362 1493
8 1494 1361 1228 1359 1621 1497 1362 1493
8 1495 1370 1239 1361 1622 1504 1371 1497
8 1363 1236 1367 1496 1499 1368 1501 1623
8 1497 1371 1240 1362 1624 1505 1372 1498
8 1625 1503 1372 1498 1500 1369 1241 1366
8 1365 1238 1368 1499 1500 1369 1502 1626
8 1520 1398 1506 1633 1388 1266 1373 1507
8 1634 1507 1374 1508 1512 1388 1255 1380
8 1509 1387 1519 1635 1377 1258 1391 1510
8 1405 1276 1406 1534 1509 1387 1519 1635
8 1515 1392 1260 1383 1636 1522 1390 1511
8 1511 1390 1259 1379 1636 1522 1391 1510
8 1385 1256 1389 1517 1512 1388 1520 1637
8 1513 1394 1262 1382 1638 1524 1393 1514
8 1395 1516 1638 1524 1263 1384 1513 1394
8 1515 1392 1523 1639 1383 1260 1393 1514
8 1516 1395 1526 1640 1386 1264 1396 1518
8 1386 1264 1396 1518 1517 1389 1521 1641
8 1519 1397 1527 1643 1391 1269 1400 1522
8 1535 1407 1527 1643 1406 1277 1397 1519
8 1389 1267 1399 1521 1520 1398 1528 1644
8 1645 1529 1399 1521 1525 1404 1274 1396
8 1392 1270 1400 1522 1523 1401 1531 1646
8 1524 1402 1271 1393 1648 1532 1401 1523
8 1403 1526 1648 1532 1273 1395 1524 1402
8 1525 1404 1274 1396 1649 1533 1403 1526
8 1539 1414 1535 1657 1411 1286 1406 1534
8 1542 1415 1536 1658 1414 1287 1407 1535
8 1409 1285 1412 1537 1538 1413 1540 1660
8 1545 1421 1540 1660 1418 1292 1412 1537
8 1539 1414 1286 1411 1661 1541 1413 1538
8 1540 1417 1544 1663 1413 1288 1416 1541
8 1421 1296 1425 1548 1540 1417 1544 1663
8 1542 1415 1287 1414 1664 1543 1416 1541
8 1420 1294 1423 1547 1545 1421 1548 1666
8 1547 1423 1293 1419 1667 1549 1422 1546
8 1434 1301 1427 1553 1546 1422 1549 1667
8 1423 1297 1424 1549 1548 1425 1550 1668
8 1551 1426 1550 1668 1427 1298 1424 1549
8 1551 1426 1298 1427 1671 1552 1428 1554
8 1562 1432 1554 1674 1434 1301 1427 1553
8 1431 1299 1429 1558 1554 1428 1555 1675
8 1431 1299 1430 1560 1558 1429 1557 1680
8 1560 1430 1300 1432 1683 1559 1433 1563
8 1561 1431 1554 1674 1684 1560 1432 1562
8 1685 1563 1432 1562 1565 1435 1301 1434
8 1435 1302 1436 1566 1563 1433 1564 1686
8 1437 1303 1438 1568 1565 1435 1566 1688
8 1438 1304 1439 1569 1566 1436 1567 1689
8 1440 1306 1441 1571 1568 1438 1569 1691
8 1441 1307 1442 1572 1569 1439 1570 1692
8 1443 1309 1444 1574 1571 1441 1572 1694
8 1310 1444 1572 1442 1445 1575 1695 1573
8 1446 1312 1447 1576 1574 1444 1575 1696
8 1486 1349 1485 1614 1579 1449 1577 1699
8 1451 1317 1449 1579 1581 1450 1578 1701
8 1487 1350 1486 1615 1582 1451 1579 1702
8 1581 1450 1580 1704 1453 1318 1452 1584
8 1582 1451 1581 1705 1454 1319 1453 1585
8 1584 1452 1583 1706 1456 1320 1455 1586
8 1585 1453 1584 1707 1457 1321 1456 1587
8 1587 1456 1586 1708 1458 1323 1459 1588
8 1633 1506 1589 1710 1507 1373 1461 1590
8 1464 1329 1461 1590 1594 1463 1589 1710
8 1468 1336 1462 1591 1595 1464 1590 1711
8 1634 1507 1590 1711 1508 1374 1462 1591
8 1473 1341 1463 1594 1603 1477 1593 1716
8 1469 1337 1464 1595 1599 1473 1594 1717
8 1471 1597 1467 1335 1600 1718 1596 1470
8 1718 1600 1496 1616 1596 1470 1360 1488
8 1336 1468 1597 1471 1472 1598 1719 1601
8 1469 1337 1473 1599 1598 1472 1602 1720
8 1722 1604 1501 1623 1600 1474 1367 1496
8 1475 1601 1471 1339 1604 1722 1600 1474
8 1602 1476 1605 1723 1472 1340 1475 1601
8 1476 1602 1724 1606 1341 1473 1603 1477
8 1483 1347 1478 1609 1612 1482 1608 1731
8 1495 1370 1504 1622 1609 1478 1608 1731
8 1618 1495 1609 1732 1494 1361 1479 1610
8 1484 1348 1479 1610 1613 1483 1609 1732
8 1486 1349 1482 1612 1614 1485 1611 1733
8 1613 1483 1612 1734 1487 1350 1486 1615
8 1489 1363 1496 1616 1617 1499 1623 1736
8 1491 1365 1499 1617 1619 1500 1626 1737
8 1618 1495 1361 1494 1738 1622 1497 1621
8 1739 1625 1498 1620 1619 1500 1366 1492
8 1621 1497 1362 1493 1740 1624 1498 1620
8 1742 1631 1504 1622 1624 1505 1371 1497
8 1743 1628 1502 1626 1623 1501 1368 1499
8 1744 1630 1505 1624 1625 1503 1372 1498
8 1745 1629 1503 1625 1626 1502 1369 1500
8 1520 1398 1528 1644 1633 1506 1632 1751
8 1637 1520 1633 1752 1512 1388 1507 1634
8 1635 1519 1643 1753 1510 1391 1522 1636
8 1657 1535 1643 1753 1534 1406 1519 1635
8 1515 1392 1522 1636 1639 1523 1646 1754
8 1517 1389 1521 1641 1637 1520 1644 1755
8 1524 1638 1756 1648 1393 1514 1639 1523
8 1640 1526 1395 1516 1756 1648 1524 1638
8 1642 1525 1396 1518 1757 1649 1526 1640
8 1758 1645 1521 1641 1642 1525 1396 1518
8 1646 1531 1400 1522 1760 1650 1527 1643
8 1535 1407 1536 1658 1643 1527 1650 1760
8 1521 1399 1529 1645 1644 1528 1651 1761
8 1647 1530 1652 1762 1525 1404 1529 1645
8 1401 1523 1648 1532 1531 1646 1763 1655
8 1525 1404 1533 1649 1647 1530 1654 1765
8 1533 1649 1766 1656 1403 1526 1648 1532
8 1662 1542 1658 1774 1539 1414 1535 1657
8 1542 1415 1543 1664 1658 1536 1659 1775
8 1660 1540 1663 1777 1538 1413 1541 1661
8 1545 1421 1548 1666 1660 1540 1663 1777
8 1662 1542 1414 1539 1778 1664 1541 1661
8 1664 1543 1416 1541 1779 1665 1544 1663
8 1548 1425 1550 1668 1663 1544 1665 1779
8 1547 1423 1549 1667 1666 1548 1668 1781
8 1670 1551 1668 1781 1553 1427 1549 1667
8 1551 1426 1552 1671 1668 1550 1669 1782
8 1670 1551 1427 1553 1784 1671 1554 1674
8 1675 1555 1672 1785 1554 1428 1552 1671
8 1678 1556 1673 1789 1558 1429 1555 1675
8 1561 1431 1558 1681 1674 1554 1675 1790
8 1794 1677 1556 1678 1680 1557 1429 1558
8 1560 1430 1559 1683 1680 1557 1679 1797
8 1561 1431 1560 1684 1681 1558 1680 1798
8 1563 1433 1564 1686 1683 1559 1682 1800
8 1684 1560 1432 1562 1801 1683 1563 1685
8 1565 1435 1566 1688 1685 1563 1686 1802
8 1566 1436 1567 1689 1686 1564 1687 1803
8 1568 1438 1569 1691 1688 1566 1689 1805
8 1569 1439 1570 1692 1689 1567 1690 1806
8 1571 1441 1572 1694 1691 1569 1692 1808
8 1442 1572 1692 1570 1573 1695 1809 1693
8 1574 1444 1575 1696 1694 1572 1695 1810
8 1614 1485 1592 1712 1699 1577 1697 1813
8 1579 1449 1577 1699 1701 1578 1698 1815
8 1615 1486 1614 1735 1702 1579 1699 1816
8 1701 1578 1700 1818 1581 1450 1580 1704
8 1582 1451 1579 1702 1705 1581 1701 1819
8 1704 1580 1703 1820 1584 1452 1583 1706
8 1705 1581 1704 1821 1585 1453 1584 1707
8 1707 1584 1706 1822 1587 1456 1586 1708
8 1710 1589 1506 1633 1824 1709 1632 1751
8 1594 1463 1589 1710 1716 1593 1709 1824
8 1752 1633 1710 1825 1634 1507 1590 1711
8 1595 1464 1590 1711 1717 1594 1710 1825
8 1830 1714 1592 1712 1733 1611 1485 1614
8 1603 1477 1593 1716 1725 1607 1715 1834
8 1599 1473 1594 1717 1721 1603 1716 1835
8 1837 1722 1623 1736 1718 1600 1496 1616
8 1719 1601 1722 1837 1597 1471 1600 1718
8 1602 1720 1598 1472 1723 1838 1719 1601
8 1720 1602 1473 1599 1839 1724 1603 1721
8 1723 1605 1726 1840 1601 1475 1604 1722
8 1840 1726 1628 1743 1722 1604 1501 1623
8 1724 1606 1727 1841 1602 1476 1605 1723
8 1725 1607 1728 1842 1603 1477 1606 1724
8 1612 1482 1608 1731 1733 1611 1730 1849
8 1741 1627 1730 1849 1622 1504 1608 1731
8 1613 1483 1609 1732 1734 1612 1731 1850
8 1618 1495 1622 1738 1732 1609 1731 1850
8 1615 1486 1612 1734 1735 1614 1733 1851
8 1852 1743 1626 1737 1736 1623 1499 1617
8 1853 1745 1625 1739 1737 1626 1500 1619
8 1855 1742 1622 1738 1740 1624 1497 1621
8 1856 1744 1624 1740 1739 1625 1498 1620
8 1741 1627 1504 1622 1857 1746 1631 1742
8 1742 1631 1505 1624 1858 1749 1630 1744
8 1859 1747 1629 1745 1743 1628 1502 1626
8 1860 1748 1630 1744 1745 1629 1503 1625
8 1644 1528 1651 1761 1751 1632 1750 1865
8 1637 1520 1644 1755 1752 1633 1751 1866
8 1754 1646 1522 1636 1867 1760 1643 1753
8 1657 1535 1658 1774 1753 1643 1760 1867
8 1639 1523 1646 1754 1756 1648 1763 1868
8 1641 1521 1645 1758 1755 1644 1761 1869
8 1757 1649 1526 1640 1870 1766 1648 1756
8 1642 1525 1649 1757 1759 1647 1765 1871
8 1759 1647 1762 1872 1642 1525 1645 1758
8 1760 1650 1767 1874 1646 1531 1655 1763
8 1658 1536 1659 1775 1760 1650 1767 1874
8 1762 1652 1768 1875 1645 1529 1651 1761
8 1764 1653 1769 1876 1647 1530 1652 1762
8 1656 1766 1877 1773 1532 1648 1763 1655
8 1771 1879 1765 1654 1653 1764 1647 1530
8 1533 1649 1765 1654 1656 1766 1880 1772
8 1662 1542 1664 1778 1774 1658 1775 1887
8 1664 1543 1665 1779 1775 1659 1776 1888
8 1778 1664 1541 1661 1890 1779 1663 1777
8 1666 1548 1668 1781 1777 1663 1779 1890
8 1782 1669 1780 1891 1668 1550 1665 1779
8 1670 1551 1671 1784 1781 1668 1782 1893
8 1671 1552 1672 1785 1782 1669 1783 1894
8 1790 1675 1785 1896 1674 1554 1671 1784
8 1675 1555 1673 1789 1785 1672 1786 1897
8 1792 1676 1788 1903 1678 1556 1673 1789
8 1795 1678 1789 1904 1681 1558 1675 1790
8 1792 1676 1556 1678 1906 1791 1677 1794
8 1680 1557 1679 1797 1794 1677 1793 1909
8 1910 1794 1678 1795 1798 1680 1558 1681
8 1683 1559 1682 1800 1797 1679 1796 1912
8 1684 1560 1683 1801 1798 1680 1797 1913
8 1686 1564 1687 1803 1800 1682 1799 1915
8 1685 1563 1686 1802 1801 1683 1800 1916
8 1688 1566 1689 1805 1802 1686 1803 1917
8 1689 1567 1690 1806 1803 1687 1804 1918
8 1691 1569 1692 1808 1805 1689 1806 1920
8 1692 1570 1693 1809 1806 1690 1807 1921
8 1694 1572 1695 1810 1808 1692 1809 1922
8 1829 1713 1811 1926 1712 1592 1697 1813
8 1813 1697 1812 1928 1699 1577 1698 1815
8 1735 1614 1712 1828 1816 1699 1813 1929
8 1815 1698 1814 1931 1701 1578 1700 1818
8 1702 1579 1699 1816 1819 1701 1815 1932
8 1818 1700 1817 1933 1704 1580 1703 1820
8 1819 1701 1818 1934 1705 1581 1704 1821
8 1821 1704 1820 1935 1707 1584 1706 1822
8 1824 1709 1632 1751 1937 1823 1750 1865
8 1716 1593 1709 1824 1834 1715 1823 1937
8 1825 1710 1633 1752 1938 1824 1751 1866
8 1717 1594 1710 1825 1835 1716 1824 1938
8 1945 1830 1712 1828 1851 1733 1614 1735
8 1830 1714 1831 1946 1712 1592 1713 1829
8 1947 1832 1714 1830 1849 1730 1611 1733
8 1843 1729 1607 1725 1950 1833 1715 1834
8 1721 1603 1716 1835 1836 1725 1834 1951
8 1836 1725 1842 1953 1721 1603 1724 1839
8 1723 1838 1719 1601 1840 1954 1837 1722
8 1954 1840 1743 1852 1837 1722 1623 1736
8 1724 1839 1720 1602 1841 1955 1838 1723
8 1841 1727 1844 1956 1723 1605 1726 1840
8 1956 1844 1747 1859 1840 1726 1628 1743
8 1728 1842 1724 1606 1845 1957 1841 1727
8 1725 1607 1729 1843 1842 1728 1846 1958
8 1741 1627 1746 1857 1849 1730 1848 1965
8 1734 1612 1731 1850 1851 1733 1849 1966
8 1854 1741 1849 1966 1738 1622 1731 1850
8 1967 1859 1745 1853 1852 1743 1626 1737
8 1968 1860 1744 1856 1853 1745 1625 1739
8 1854 1741 1622 1738 1969 1857 1742 1855
8 1855 1742 1624 1740 1970 1858 1744 1856
8 1857 1746 1631 1742 1971 1861 1749 1858
8 1858 1749 1630 1744 1972 1863 1748 1860
8 1859 1747 1862 1973 1745 1629 1748 1860
8 1875 1768 1864 1977 1761 1651 1750 1865
8 1755 1644 1761 1869 1866 1751 1865 1978
8 1867 1760 1874 1979 1754 1646 1763 1868
8 1774 1658 1775 1887 1867 1760 1874 1979
8 1870 1766 1648 1756 1980 1877 1763 1868
8 1872 1762 1875 1981 1758 1645 1761 1869
8 1757 1649 1766 1870 1871 1765 1880 1982
8 1983 1879 1764 1873 1871 1765 1647 1759
8 1873 1764 1876 1984 1759 1647 1762 1872
8 1877 1773 1655 1763 1986 1881 1767 1874
8 1775 1659 1776 1888 1874 1767 1881 1986
8 1876 1769 1882 1987 1762 1652 1768 1875
8 1878 1770 1883 1988 1764 1653 1769 1876
8 1880 1772 1656 1766 1989 1886 1773 1877
8 1878 1770 1653 1764 1990 1884 1771 1879
8 1765 1654 1772 1880 1879 1771 1885 1991
8 1778 1664 1779 1890 1887 1775 1888 1997
8 1998 1889 1776 1888 1891 1780 1665 1779
8 1893 1782 1891 2000 1781 1668 1779 1890
8 1894 1783 1892 2001 1782 1669 1780 1891
8 1784 1671 1785 1896 1893 1782 1894 2003
8 1897 1786 1895 2004 1785 1672 1783 1894
8 1790 1675 1789 1904 1896 1785 1897 2006
8 1901 1787 1898 2007 1789 1673 1786 1897
8 1903 1788 1900 2013 1789 1673 1787 1901
8 1792 1676 1791 1906 1903 1788 1902 2016
8 1907 1792 1903 2017 1795 1678 1789 1904
8 1906 1791 1677 1794 2019 1905 1793 1909
8 1907 1792 1678 1795 2020 1906 1794 1910
8 1797 1679 1796 1912 1909 1793 1908 2022
8 1798 1680 1797 1913 1910 1794 1909 2023
8 1800 1682 1799 1915 1912 1796 1911 2025
8 1801 1683 1800 1916 1913 1797 1912 2026
8 1803 1687 1804 1918 1915 1799 1914 2028
8 1802 1686 1803 1917 1916 1800 1915 2029
8 1805 1689 1806 1920 1917 1803 1918 2030
8 1806 1690 1807 1921 1918 1804 1919 2031
8 1808 1692 1809 1922 1920 1806 1921 2032
8 1939 1826 1924 2037 1829 1713 1811 1926
8 1926 1811 1925 2039 1813 1697 1812 1928
8 1944 1829 1926 2040 1828 1712 1813 1929
8 1928 1812 1927 2042 1815 1698 1814 1931
8 1929 1813 1928 2043 1816 1699 1815 1932
8 1931 1814 1930 2044 1818 1700 1817 1933
8 1932 1815 1931 2045 1819 1701 1818 1934
8 1934 1818 1933 2046 1821 1704 1820 1935
8 2048 1936 1823 1937 1977 1864 1750 1865
8 1950 1833 1715 1834 2048 1936 1823 1937
8 1938 1824 1751 1866 2049 1937 1865 1978
8 1835 1716 1824 1938 1951 1834 1937 2049
8 1939 1826 1713 1829 2053 1942 1831 1946
8 1940 1827 1923 2035 2053 1942 1826 1939
8 1945 1830 1946 2058 1828 1712 1829 1944
8 2059 1947 1830 1945 1966 1849 1733 1851
8 1947 1832 1730 1849 2060 1948 1848 1965
8 1947 1832 1948 2060 1830 1714 1831 1946
8 1959 1847 1729 1843 2063 1949 1833 1950
8 1952 1843 1725 1836 2064 1950 1834 1951
8 1836 1725 1843 1952 1953 1842 1958 2066
8 1953 1842 1957 2067 1839 1724 1841 1955
8 1841 1955 1838 1723 1956 2068 1954 1840
8 2068 1956 1859 1967 1954 1840 1743 1852
8 1956 1844 1960 2069 1859 1747 1862 1973
8 1845 1957 1841 1727 1960 2069 1956 1844
8 1728 1842 1957 1845 1846 1958 2071 1961
8 1962 2072 1959 1847 1846 1958 1843 1729
8 1971 1861 1964 2077 1857 1746 1848 1965
8 1854 1741 1857 1969 1966 1849 1965 2078
8 1967 1859 1973 2079 1853 1745 1860 1968
8 1970 1858 1744 1856 2080 1972 1860 1968
8 1969 1857 1742 1855 2081 1971 1858 1970
8 1971 1861 1749 1858 2082 1974 1863 1972
8 1973 1862 1975 2083 1860 1748 1863 1972
8 1987 1882 1976 2086 1875 1768 1864 1977
8 1981 1875 1977 2087 1869 1761 1865 1978
8 1980 1877 1763 1868 2088 1986 1874 1979
8 1887 1775 1888 1997 1979 1874 1986 2088
8 1880 1982 2089 1989 1766 1870 1980 1877
8 1984 1876 1987 2090 1872 1762 1875 1981
8 1765 1871 1983 1879 1880 1982 2091 1991
8 1985 1878 1764 1873 2092 1990 1879 1983
8 1985 1878 1988 2093 1873 1764 1876 1984
8 2094 1992 1881 1986 1998 1889 1776 1888
8 1986 1881 1992 2094 1877 1773 1886 1989
8 1988 1883 1993 2095 1876 1769 1882 1987
8 1878 1770 1884 1990 1988 1883 1994 2096
8 1991 1885 1772 1880 2097 1996 1886 1989
8 1879 1771 1885 1991 1990 1884 1995 2098
8 2103 1998 1888 1997 2000 1891 1779 1890
8 2104 1999 1889 1998 2001 1892 1780 1891
8 2003 1894 2001 2106 1893 1782 1891 2000
8 2004 1895 2002 2107 1894 1783 1892 2001
8 2006 1897 2004 2109 1896 1785 1894 2003
8 2007 1898 2005 2110 1897 1786 1895 2004
8 2014 1901 2007 2112 1904 1789 1897 2006
8 2011 1899 2008 2113 1901 1787 1898 2007
8 2119 2010 1899 2011 2013 1900 1787 1901
8 2016 1902 2012 2122 1903 1788 1900 2013
8 2017 1903 2013 2123 1904 1789 1901 2014
8 1906 1791 1905 2019 2016 1902 2015 2125
8 1907 1792 1906 2020 2017 1903 2016 2126
8 1909 1793 1908 2022 2019 1905 2018 2128
8 2020 1906 1794 1910 2129 2019 1909 2023
8 1912 1796 1911 2025 2022 1908 2021 2131
8 1913 1797 1912 2026 2023 1909 2022 2132
8 1915 1799 1914 2028 2025 1911 2024 2134
8 1916 1800 1915 2029 2026 1912 2025 2135
8 1918 1804 1919 2031 2028 1914 2027 2136
8 1917 1803 1918 2030 2029 1915 2028 2137
8 1920 1806 1921 2032 2030 1918 2031 2138
8 1940 1827 1941 2054 2035 1923 2033 2140
8 2035 1923 2034 2143 1939 1826 1924 2037
8 2037 1924 2036 2146 1926 1811 1925 2039
8 2051 1939 2037 2147 1944 1829 1926 2040
8 2039 1925 2038 2149 1928 1812 1927 2042
8 2040 1926 2039 2150 1929 1813 1928 2043
8 2042 1927 2041 2151 1931 1814 1930 2044
8 2043 1928 2042 2152 1932 1815 1931 2045
8 2045 1931 2044 2153 1934 1818 1933 2046
8 2155 2047 1936 2048 2086 1976 1864 1977
8 2063 1949 1833 1950 2155 2047 1936 2048
8 2156 2048 1937 2049 2087 1977 1865 1978
8 2064 1950 1834 1951 2156 2048 1937 2049
8 2051 1939 1829 1944 2160 2053 1946 2058
8 2052 1940 2035 2144 2160 2053 1939 2051
8 2053 1942 1831 1946 2163 2057 1948 2060
8 2055 1943 1827 1940 2163 2057 1942 2053
8 2055 1943 2056 2164 1940 1827 1941 2054
8 2059 1947 1849 1966 2167 2060 1965 2078
8 2059 1947 2060 2167 1945 1830 1946 2058
8 2077 1964 2061 2168 1965 1848 1948 2060
8 2070 1963 1847 1959 2170 2062 1949 2063
8 2065 1959 1843 1952 2171 2063 1950 2064
8 2173 2072 1958 2066 2065 1959 1843 1952
8 1953 1842 1958 2066 2067 1957 2071 2174
8 2068 1956 2069 2175 1967 1859 1973 2079
8 2067 1957 2069 2175 1955 1841 1956 2068
8 1845 1957 2069 1960 1961 2071 2176 2073
8 2069 1960 2073 2176 1973 1862 1975 2083
8 2070 1963 2075 2177 1959 1847 1962 2072
8 1846 1958 2071 1961 1962 2072 2178 2074
8 2077 1964 1861 1971 2182 2076 1974 2082
8 2081 1971 2077 2183 1969 1857 1965 2078
8 2079 1973 2083 2184 1968 1860 1972 2080
8 2081 1971 1858 1970 2185 2082 1972 2080
8 2083 1975 2084 2186 1972 1863 1974 2082
8 2086 1976 1882 1987 2189 2085 1993 2095
8 2090 1987 2086 2190 1981 1875 1977 2087
8 2191 2094 1986 2088 2103 1998 1888 1997
8 2088 1986 2094 2191 1980 1877 1989 2089
8 1991 2091 2192 2097 1880 1982 2089 1989
8 2093 1988 2095 2193 1984 1876 1987 2090
8 1879 1983 2092 1990 1991 2091 2194 2098
8 1985 1878 1990 2092 2093 1988 2096 2195
8 2097 1996 1886 1989 2196 2099 1992 2094
8 2196 2099 1992 2094 2104 1999 1889 1998
8 1994 2096 1988 1883 2100 2197 2095 1993
8 2096 1994 1884 1990 2198 2101 1995 2098
8 1995 2098 2199 2102 1885 1991 2097 1996
8 2203 2104 1998 2103 2106 2001 1891 2000
8 2107 2002 2105 2204 2001 1892 1999 2104
8 2109 2004 2107 2206 2003 1894 2001 2106
8 2110 2005 2108 2207 2004 1895 2002 2107
8 2112 2007 2110 2209 2006 1897 2004 2109
8 2113 2008 2111 2210 2007 1898 2005 2110
8 2120 2011 2113 2212 2014 1901 2007 2112
8 2117 2009 2114 2213 2011 1899 2008 2113
8 2219 2116 2009 2117 2119 2010 1899 2011
8 2222 2118 2010 2119 2122 2012 1900 2013
8 2223 2119 2011 2120 2123 2013 1901 2014
8 2016 1902 2015 2125 2122 2012 2121 2225
8 2126 2016 2122 2226 2017 1903 2013 2123
8 2019 1905 2018 2128 2125 2015 2124 2228
8 2020 1906 2019 2129 2126 2016 2125 2229
8 2022 1908 2021 2131 2128 2018 2127 2231
8 2023 1909 2022 2132 2129 2019 2128 2232
8 2025 1911 2024 2134 2131 2021 2130 2234
8 2026 1912 2025 2135 2132 2022 2131 2235
8 1914 2028 2134 2024 2027 2136 2236 2133
8 2029 1915 2028 2137 2135 2025 2134 2237
8 2030 1918 2031 2138 2137 2028 2136 2238
8 2157 2050 2139 2240 2054 1941 2033 2140
8 2052 1940 2054 2161 2144 2035 2140 2242
8 2140 2033 2141 2243 2035 1923 2034 2143
8 2143 2034 2142 2246 2037 1924 2036 2146
8 2144 2035 2143 2247 2051 1939 2037 2147
8 2146 2036 2145 2249 2039 1925 2038 2149
8 2147 2037 2146 2250 2040 1926 2039 2150
8 2149 2038 2148 2251 2042 1927 2041 2151
8 2150 2039 2149 2252 2043 1928 2042 2152
8 2152 2042 2151 2253 2045 1931 2044 2153
8 2255 2154 2047 2155 2189 2085 1976 2086
8 2170 2062 1949 2063 2255 2154 2047 2155
8 2256 2155 2048 2156 2190 2086 1977 2087
8 2171 2063 1950 2064 2256 2155 2048 2156
8 2258 2159 2050 2157 2164 2056 1941 2054
8 2160 2053 1946 2058 2262 2163 2060 2167
8 2162 2055 1940 2052 2262 2163 2053 2160
8 2162 2055 2164 2263 2052 1940 2054 2161
8 2163 2057 1948 2060 2264 2165 2061 2168
8 2055 1943 2057 2163 2164 2056 2165 2264
8 2182 2076 2166 2268 2077 1964 2061 2168
8 2183 2077 2168 2269 2078 1965 2060 2167
8 2070 1963 2062 2170 2177 2075 2169 2271
8 2172 2070 1959 2065 2272 2170 2063 2171
8 2172 2070 2177 2273 2065 1959 2072 2173
8 2066 1958 2072 2173 2174 2071 2178 2274
8 2067 1957 2071 2174 2175 2069 2176 2275
8 2175 2069 2176 2275 2079 1973 2083 2184
8 2071 1961 2074 2178 2176 2073 2179 2276
8 2176 2073 2179 2276 2083 1975 2084 2186
8 2072 1962 2075 2177 2178 2074 2180 2277
8 2182 2076 1974 2082 2280 2181 2084 2186
8 2183 2077 1971 2081 2281 2182 2082 2185
8 2184 2083 2186 2282 2080 1972 2082 2185
8 2189 2085 1993 2095 2285 2188 2100 2197
8 2190 2086 1987 2090 2286 2189 2095 2193
8 2192 2097 1989 2089 2287 2196 2094 2191
8 2287 2196 2094 2191 2203 2104 1998 2103
8 2194 2098 1991 2091 2288 2199 2097 2192
8 2195 2096 2197 2289 2093 1988 2095 2193
8 2096 2195 2290 2198 1990 2092 2194 2098
8 2097 1996 2099 2196 2199 2102 2200 2291
8 2196 2099 1999 2104 2291 2200 2105 2204
8 2100 2197 2292 2201 1994 2096 2198 2101
8 1995 2098 2198 2101 2102 2199 2293 2202
8 2206 2107 2204 2296 2106 2001 2104 2203
8 2207 2108 2205 2297 2107 2002 2105 2204
8 2209 2110 2207 2299 2109 2004 2107 2206
8 2210 2111 2208 2300 2110 2005 2108 2207
8 2212 2113 2210 2302 2112 2007 2110 2209
8 2213 2114 2211 2303 2113 2008 2111 2210
8 2220 2117 2213 2305 2120 2011 2113 2212
8 2216 2115 2214 2306 2117 2009 2114 2213
8 2216 2115 2009 2117 2311 2217 2116 2219
8 2219 2116 2010 2119 2314 2218 2118 2222
8 2315 2219 2117 2220 2223 2119 2011 2120
8 2122 2012 2121 2225 2222 2118 2221 2317
8 2318 2222 2119 2223 2226 2122 2013 2123
8 2125 2015 2124 2228 2225 2121 2224 2320
8 2126 2016 2125 2229 2226 2122 2225 2321
8 2128 2018 2127 2231 2228 2124 2227 2323
8 2129 2019 2128 2232 2229 2125 2228 2324
8 2131 2021 2130 2234 2231 2127 2230 2326
8 2132 2022 2131 2235 2232 2128 2231 2327
8 2134 2024 2133 2236 2234 2130 2233 2328
8 2135 2025 2134 2237 2235 2131 2234 2329
8 2137 2028 2136 2238 2237 2134 2236 2330
8 2157 2050 2158 2259 2240 2139 2239 2332
8 2257 2157 2240 2334 2161 2054 2140 2242
8 2240 2139 2241 2335 2140 2033 2141 2243
8 2242 2140 2243 2337 2144 2035 2143 2247
8 2243 2141 2244 2338 2143 2034 2142 2246
8 2246 2142 2245 2341 2146 2036 2145 2249
8 2247 2143 2246 2342 2147 2037 2146 2250
8 2249 2145 2248 2343 2149 2038 2148 2251
8 2250 2146 2249 2344 2150 2039 2149 2252
8 2252 2149 2251 2345 2152 2042 2151 2253
8 2169 2271 2347 2254 2062 2170 2255 2154
8 2189 2085 2188 2285 2255 2154 2254 2347
8 2348 2255 2155 2256 2286 2189 2086 2190
8 2272 2170 2063 2171 2348 2255 2155 2256
8 2349 2258 2157 2257 2263 2164 2054 2161
8 2258 2159 2261 2351 2157 2050 2158 2259
8 2258 2159 2056 2164 2351 2261 2165 2264
8 2262 2163 2060 2167 2355 2264 2168 2269
8 2162 2055 2163 2262 2263 2164 2264 2355
8 2357 2266 2165 2264 2268 2166 2061 2168
8 2268 2166 2076 2182 2361 2267 2181 2280
8 2281 2182 2268 2362 2183 2077 2168 2269
8 2271 2169 2270 2364 2177 2075 2180 2277
8 2172 2070 2170 2272 2273 2177 2271 2365
8 2072 2173 2274 2178 2177 2273 2366 2277
8 2071 2174 2275 2176 2178 2274 2367 2276
8 2275 2176 2276 2367 2184 2083 2186 2282
8 2283 2187 2084 2186 2368 2278 2179 2276
8 2178 2074 2180 2277 2276 2179 2278 2368
8 2283 2187 2279 2370 2186 2084 2181 2280
8 2281 2182 2082 2185 2371 2280 2186 2282
8 2188 2285 2374 2284 2100 2197 2292 2201
8 2286 2189 2095 2193 2375 2285 2197 2289
8 2192 2097 2196 2287 2288 2199 2291 2376
8 2287 2196 2104 2203 2376 2291 2204 2296
8 2194 2098 2199 2288 2290 2198 2293 2377
8 2289 2197 2096 2195 2378 2292 2198 2290
8 2291 2200 2105 2204 2379 2294 2205 2297
8 2199 2102 2200 2291 2293 2202 2294 2379
8 2198 2101 2202 2293 2292 2201 2295 2380
8 2299 2207 2297 2383 2206 2107 2204 2296
8 2300 2208 2298 2384 2207 2108 2205 2297
8 2302 2210 2300 2386 2209 2110 2207 2299
8 2303 2211 2301 2387 2210 2111 2208 2300
8 2305 2213 2303 2389 2212 2113 2210 2302
8 2306 2214 2304 2390 2213 2114 2211 2303
8 2310 2216 2306 2392 2220 2117 2213 2305
8 2308 2215 2307 2393 2216 2115 2214 2306
8 2308 2215 2115 2216 2396 2309 2217 2311
8 2310 2216 2117 2220 2398 2311 2219 2315
8 2311 2217 2116 2219 2399 2312 2218 2314
8 2314 2218 2118 2222 2402 2313 2221 2317
8 2315 2219 2119 2223 2403 2314 2222 2318
8 2225 2121 2224 2320 2317 2221 2316 2405
8 2226 2122 2225 2321 2318 2222 2317 2406
8 2228 2124 2227 2323 2320 2224 2319 2408
8 2229 2125 2228 2324 2321 2225 2320 2409
8 2231 2127 2230 2326 2323 2227 2322 2411
8 2232 2128 2231 2327 2324 2228 2323 2412
8 2234 2130 2233 2328 2326 2230 2325 2413
8 2235 2131 2234 2329 2327 2231 2326 2414
8 2237 2134 2236 2330 2329 2234 2328 2415
8 2259 2158 2260 2352 2332 2239 2331 2417
8 2257 2157 2259 2350 2334 2240 2332 2419
8 2240 2139 2239 2332 2335 2241 2333 2420
8 2334 2240 2335 2422 2242 2140 2243 2337
8 2335 2241 2336 2423 2243 2141 2244 2338
8 2337 2243 2338 2425 2247 2143 2246 2342
8 2338 2244 2339 2426 2246 2142 2245 2341
8 2341 2245 2340 2428 2249 2145 2248 2343
8 2342 2246 2341 2429 2250 2146 2249 2344
8 2344 2249 2343 2430 2252 2149 2251 2345
8 2188 2285 2347 2254 2284 2374 2432 2346
8 2347 2254 2346 2432 2271 2169 2270 2364
8 2365 2271 2170 2272 2433 2347 2255 2348
8 2286 2189 2285 2375 2348 2255 2347 2433
8 2349 2258 2351 2435 2257 2157 2259 2350
8 2349 2258 2164 2263 2435 2351 2264 2355
8 2259 2158 2261 2351 2352 2260 2354 2437
8 2356 2265 2354 2437 2264 2165 2261 2351
8 2441 2357 2264 2355 2362 2268 2168 2269
8 2356 2265 2165 2264 2442 2358 2266 2357
8 2443 2359 2266 2357 2361 2267 2166 2268
8 2370 2279 2360 2446 2280 2181 2267 2361
8 2362 2268 2182 2281 2447 2361 2280 2371
8 2180 2277 2368 2278 2270 2364 2449 2363
8 2271 2365 2273 2177 2364 2450 2366 2277
8 2372 2283 2186 2282 2451 2368 2276 2367
8 2178 2274 2367 2276 2277 2366 2451 2368
8 2283 2187 2278 2368 2370 2279 2369 2452
8 2372 2283 2370 2453 2282 2186 2280 2371
8 2284 2374 2455 2373 2201 2292 2380 2295
8 2375 2285 2197 2289 2456 2374 2292 2378
8 2376 2291 2204 2296 2457 2379 2297 2383
8 2288 2199 2291 2376 2377 2293 2379 2457
8 2198 2290 2378 2292 2293 2377 2458 2380
8 2293 2202 2294 2379 2380 2295 2381 2459
8 2384 2298 2381 2459 2297 2205 2294 2379
8 2386 2300 2384 2463 2299 2207 2297 2383
8 2387 2301 2385 2464 2300 2208 2298 2384
8 2389 2303 2387 2466 2302 2210 2300 2386
8 2390 2304 2388 2467 2303 2211 2301 2387
8 2392 2306 2390 2469 2305 2213 2303 2389
8 2393 2307 2391 2470 2306 2214 2304 2390
8 2395 2308 2393 2472 2310 2216 2306 2392
8 2308 2215 2309 2396 2393 2307 2394 2473
8 2395 2308 2216 2310 2475 2396 2311 2398
8 2396 2309 2217 2311 2476 2397 2312 2399
8 2398 2311 2219 2315 2478 2399 2314 2403
8 2399 2312 2218 2314 2479 2400 2313 2402
8 2317 2221 2316 2405 2402 2313 2401 2482
8 2403 2314 2222 2318 2483 2402 2317 2406
8 2320 2224 2319 2408 2405 2316 2404 2485
8 2321 2225 2320 2409 2406 2317 2405 2486
8 2323 2227 2322 2411 2408 2319 2407 2488
8 2324 2228 2323 2412 2409 2320 2408 2489
8 2326 2230 2325 2413 2411 2322 2410 2490
8 2327 2231 2326 2414 2412 2323 2411 2491
8 2329 2234 2328 2415 2414 2326 2413 2492
8 2417 2331 2260 2352 2494 2416 2353 2438
8 2350 2259 2352 2436 2419 2332 2417 2496
8 2332 2239 2331 2417 2420 2333 2418 2497
8 2334 2240 2332 2419 2422 2335 2420 2499
8 2420 2333 2421 2500 2335 2241 2336 2423
8 2422 2335 2423 2502 2337 2243 2338 2425
8 2423 2336 2424 2503 2338 2244 2339 2426
8 2425 2338 2426 2505 2342 2246 2341 2429
8 2426 2339 2427 2506 2341 2245 2340 2428
8 2429 2341 2428 2507 2344 2249 2343 2430
8 2432 2346 2284 2374 2509 2431 2373 2455
8 2432 2346 2431 2509 2364 2270 2363 2449
8 2375 2285 2374 2456 2433 2347 2432 2510
8 2347 2433 2365 2271 2432 2510 2450 2364
8 2350 2259 2351 2435 2436 2352 2437 2514
8 2440 2356 2437 2514 2355 2264 2351 2435
8 2352 2260 2354 2437 2438 2353 2439 2516
8 2356 2265 2358 2442 2437 2354 2439 2516
8 2440 2356 2264 2355 2518 2442 2357 2441
8 2519 2443 2357 2441 2447 2361 2268 2362
8 2443 2359 2444 2520 2357 2266 2358 2442
8 2443 2359 2267 2361 2520 2444 2360 2446
8 2446 2360 2279 2370 2523 2445 2369 2452
8 2453 2370 2446 2524 2371 2280 2361 2447
8 2449 2363 2448 2525 2368 2278 2369 2452
8 2366 2277 2364 2450 2451 2368 2449 2526
8 2372 2283 2368 2451 2453 2370 2452 2527
8 2455 2373 2295 2380 2529 2454 2382 2460
8 2456 2374 2292 2378 2530 2455 2380 2458
8 2377 2293 2379 2457 2458 2380 2459 2531
8 2463 2384 2459 2531 2383 2297 2379 2457
8 2533 2461 2382 2460 2459 2381 2295 2380
8 2464 2385 2461 2533 2384 2298 2381 2459
8 2466 2387 2464 2537 2386 2300 2384 2463
8 2467 2388 2465 2538 2387 2301 2385 2464
8 2469 2390 2467 2540 2389 2303 2387 2466
8 2470 2391 2468 2541 2390 2304 2388 2467
8 2472 2393 2470 2543 2392 2306 2390 2469
8 2393 2307 2394 2473 2470 2391 2471 2544
8 2395 2308 2396 2475 2472 2393 2473 2546
8 2396 2309 2397 2476 2473 2394 2474 2547
8 2475 2396 2311 2398 2549 2476 2399 2478
8 2476 2397 2312 2399 2550 2477 2400 2479
8 2478 2399 2314 2403 2552 2479 2402 2483
8 2479 2400 2313 2402 2553 2480 2401 2482
8 2405 2316 2404 2485 2482 2401 2481 2556
8 2406 2317 2405 2486 2483 2402 2482 2557
8 2408 2319 2407 2488 2485 2404 2484 2559
8 2409 2320 2408 2489 2486 2405 2485 2560
8 2411 2322 2410 2490 2488 2407 2487 2561
8 2412 2323 2411 2491 2489 2408 2488 2562
8 2414 2326 2413 2492 2491 2411 2490 2563
8 2513 2434 2493 2565 2438 2353 2416 2494
8 2496 2417 2352 2436 2567 2494 2438 2515
8 2494 2416 2495 2568 2417 2331 2418 2497
8 2419 2332 2417 2496 2499 2420 2497 2570
8 2497 2418 2498 2571 2420 2333 2421 2500
8 2499 2420 2500 2573 2422 2335 2423 2502
8 2500 2421 2501 2574 2423 2336 2424 2503
8 2502 2423 2503 2576 2425 2338 2426 2505
8 2503 2424 2504 2577 2426 2339 2427 2506
8 2505 2426 2506 2578 2429 2341 2428 2507
8 2509 2431 2373 2455 2580 2508 2454 2529
8 2509 2431 2508 2580 2449 2363 2448 2525
8 2432 2510 2581 2509 2374 2456 2530 2455
8 2432 2510 2450 2364 2509 2581 2526 2449
8 2583 2511 2434 2513 2516 2439 2353 2438
8 2436 2352 2437 2514 2515 2438 2516 2588
8 2440 2356 2442 2518 2514 2437 2516 2588
8 2442 2358 2444 2520 2516 2439 2517 2589
8 2519 2443 2520 2591 2441 2357 2442 2518
8 2519 2443 2361 2447 2591 2520 2446 2524
8 2446 2360 2445 2523 2520 2444 2521 2592
8 2525 2448 2522 2593 2452 2369 2445 2523
8 2524 2446 2370 2453 2594 2523 2452 2527
8 2526 2449 2525 2595 2451 2368 2452 2527
8 2534 2462 2528 2597 2460 2382 2454 2529
8 2530 2455 2380 2458 2598 2529 2460 2532
8 2599 2533 2460 2532 2531 2459 2380 2458
8 2537 2464 2533 2599 2463 2384 2459 2531
8 2534 2462 2382 2460 2601 2535 2461 2533
8 2538 2465 2535 2601 2464 2385 2461 2533
8 2540 2467 2538 2604 2466 2387 2464 2537
8 2541 2468 2539 2605 2467 2388 2465 2538
8 2543 2470 2541 2607 2469 2390 2467 2540
8 2470 2391 2471 2544 2541 2468 2542 2608
8 2472 2393 2473 2546 2543 2470 2544 2610
8 2473 2394 2474 2547 2544 2471 2545 2611
8 2475 2396 2476 2549 2546 2473 2547 2613
8 2476 2397 2477 2550 2547 2474 2548 2614
8 2549 2476 2399 2478 2616 2550 2479 2552
8 2479 2400 2480 2553 2550 2477 2551 2617
8 2552 2479 2402 2483 2619 2553 2482 2557
8 2482 2401 2481 2556 2553 2480 2554 2620
8 2485 2404 2484 2559 2556 2481 2555 2623
8 2486 2405 2485 2560 2557 2482 2556 2624
8 2488 2407 2487 2561 2559 2484 2558 2625
8 2489 2408 2488 2562 2560 2485 2559 2626
8 2491 2411 2490 2563 2562 2488 2561 2627
8 2513 2434 2512 2585 2565 2493 2564 2630
8 2586 2513 2565 2632 2515 2438 2494 2567
8 2565 2493 2566 2633 2494 2416 2495 2568
8 2567 2494 2568 2635 2496 2417 2497 2570
8 2568 2495 2569 2636 2497 2418 2498 2571
8 2570 2497 2571 2638 2499 2420 2500 2573
8 2571 2498 2572 2639 2500 2421 2501 2574
8 2573 2500 2574 2641 2502 2423 2503 2576
8 2574 2501 2575 2642 2503 2424 2504 2577
8 2576 2503 2577 2643 2505 2426 2506 2578
8 2597 2528 2579 2645 2529 2454 2508 2580
8 2580 2508 2579 2645 2525 2448 2522 2593
8 2581 2509 2455 2530 2646 2580 2529 2598
8 2581 2509 2580 2646 2526 2449 2525 2595
8 2583 2511 2582 2648 2513 2434 2512 2585
8 2583 2511 2439 2516 2648 2582 2517 2589
8 2649 2583 2513 2586 2588 2516 2438 2515
8 2589 2517 2444 2520 2653 2587 2521 2592
8 2518 2442 2520 2591 2588 2516 2589 2654
8 2593 2522 2590 2655 2523 2445 2521 2592
8 2524 2446 2523 2594 2591 2520 2592 2656
8 2595 2525 2593 2657 2527 2452 2523 2594
8 2602 2536 2596 2659 2534 2462 2528 2597
8 2600 2534 2597 2660 2532 2460 2529 2598
8 2600 2534 2460 2532 2661 2601 2533 2599
8 2604 2538 2601 2661 2537 2464 2533 2599
8 2602 2536 2462 2534 2663 2603 2535 2601
8 2601 2535 2465 2538 2663 2603 2539 2605
8 2607 2541 2605 2665 2540 2467 2538 2604
8 2608 2542 2606 2666 2541 2468 2539 2605
8 2543 2470 2544 2610 2607 2541 2608 2668
8 2544 2471 2545 2611 2608 2542 2609 2669
8 2546 2473 2547 2613 2610 2544 2611 2671
8 2547 2474 2548 2614 2611 2545 2612 2672
8 2549 2476 2550 2616 2613 2547 2614 2674
8 2550 2477 2551 2617 2614 2548 2615 2675
8 2552 2479 2553 2619 2616 2550 2617 2677
8 2553 2480 2554 2620 2617 2551 2618 2678
8 2557 2482 2556 2624 2619 2553 2620 2680
8 2556 2481 2555 2623 2620 2554 2621 2681
8 2559 2484 2558 2625 2623 2555 2622 2683
8 2560 2485 2559 2626 2624 2556 2623 2684
8 2562 2488 2561 2627 2626 2559 2625 2685
8 2690 2629 2564 2630 2650 2584 2512 2585
8 2586 2513 2585 2651 2632 2565 2630 2691
8 2630 2564 2631 2692 2565 2493 2566 2633
8 2632 2565 2633 2694 2567 2494 2568 2635
8 2633 2566 2634 2695 2568 2495 2569 2636
8 2635 2568 2636 2697 2570 2497 2571 2638
8 2636 2569 2637 2698 2571 2498 2572 2639
8 2638 2571 2639 2700 2573 2500 2574 2641
8 2639 2572 2640 2701 2574 2501 2575 2642
8 2641 2574 2642 2702 2576 2503 2577 2643
8 2597 2528 2596 2659 2645 2579 2644 2704
8 2645 2579 2644 2704 2593 2522 2590 2655
8 2660 2597 2645 2705 2598 2529 2580 2646
8 2646 2580 2645 2705 2595 2525 2593 2657
8 2650 2584 2512 2585 2707 2647 2582 2648
8 2648 2582 2517 2589 2707 2647 2587 2653
8 2649 2583 2648 2708 2586 2513 2585 2651
8 2649 2583 2516 2588 2708 2648 2589 2654
8 2655 2590 2652 2710 2592 2521 2587 2653
8 2654 2589 2520 2591 2711 2653 2592 2656
8 2657 2593 2655 2712 2594 2523 2592 2656
8 2602 2536 2603 2663 2659 2596 2658 2714
8 2662 2602 2659 2715 2600 2534 2597 2660
8 2662 2602 2534 2600 2717 2663 2601 2661
8 2661 2601 2538 2604 2717 2663 2605 2665
8 2666 2606 2664 2718 2605 2539 2603 2663
8 2668 2608 2666 2720 2607 2541 2605 2665
8 2608 2542 2609 2669 2666 2606 2667 2721
8 2610 2544 2611 2671 2668 2608 2669 2723
8 2611 2545 2612 2672 2669 2609 2670 2724
8 2613 2547 2614 2674 2671 2611 2672 2726
8 2614 2548 2615 2675 2672 2612 2673 2727
8 2616 2550 2617 2677 2674 2614 2675 2729
8 2617 2551 2618 2678 2675 2615 2676 2730
8 2619 2553 2620 2680 2677 2617 2678 2732
8 2620 2554 2621 2681 2678 2618 2679 2733
8 2624 2556 2623 2684 2680 2620 2681 2735
8 2681 2621 2555 2623 2736 2682 2622 2683
8 2626 2559 2625 2685 2684 2623 2683 2737
8 2688 2628 2584 2650 2740 2686 2647 2707
8 2688 2628 2687 2742 2650 2584 2629 2690
8 2690 2629 2689 2745 2630 2564 2631 2692
8 2746 2690 2630 2691 2709 2650 2585 2651
8 2691 2630 2692 2747 2632 2565 2633 2694
8 2692 2631 2693 2748 2633 2566 2634 2695
8 2694 2633 2695 2750 2635 2568 2636 2697
8 2695 2634 2696 2751 2636 2569 2637 2698
8 2697 2636 2698 2753 2638 2571 2639 2700
8 2698 2637 2699 2754 2639 2572 2640 2701
8 2700 2639 2701 2755 2641 2574 2642 2702
8 2659 2596 2658 2714 2704 2644 2703 2757
8 2704 2644 2703 2757 2655 2590 2652 2710
8 2660 2597 2659 2715 2705 2645 2704 2758
8 2705 2645 2704 2758 2657 2593 2655 2712
8 2759 2706 2647 2707 2710 2652 2587 2653
8 2709 2650 2585 2651 2760 2707 2648 2708
8 2708 2648 2589 2654 2760 2707 2653 2711
8 2712 2655 2710 2761 2656 2592 2653 2711
8 2763 2713 2658 2714 2718 2664 2603 2663
8 2662 2602 2663 2717 2715 2659 2714 2764
8 2720 2666 2718 2767 2665 2605 2663 2717
8 2768 2719 2664 2718 2721 2667 2606 2666
8 2668 2608 2669 2723 2720 2666 2721 2770
8 2669 2609 2670 2724 2721 2667 2722 2771
8 2671 2611 2672 2726 2723 2669 2724 2773
8 2672 2612 2673 2727 2724 2670 2725 2774
8 2674 2614 2675 2729 2726 2672 2727 2776
8 2675 2615 2676 2730 2727 2673 2728 2777
8 2677 2617 2678 2732 2729 2675 2730 2779
8 2678 2618 2679 2733 2730 2676 2731 2780
8 2680 2620 2681 2735 2732 2678 2733 2782
8 2733 2679 2621 2681 2783 2734 2682 2736
8 2735 2681 2623 2684 2784 2736 2683 2737
8 2740 2686 2647 2707 2787 2738 2706 2759
8 2688 2628 2686 2740 2742 2687 2739 2789
8 2743 2688 2650 2709 2790 2740 2707 2760
8 2742 2687 2741 2792 2690 2629 2689 2745
8 2743 2688 2742 2793 2709 2650 2690 2746
8 2745 2689 2744 2795 2692 2631 2693 2748
8 2746 2690 2745 2796 2691 2630 2692 2747
8 2747 2692 2748 2797 2694 2633 2695 2750
8 2748 2693 2749 2798 2695 2634 2696 2751
8 2750 2695 2751 2800 2697 2636 2698 2753
8 2751 2696 2752 2801 2698 2637 2699 2754
8 2753 2698 2754 2802 2700 2639 2701 2755
8 2763 2713 2756 2804 2714 2658 2703 2757
8 2759 2706 2652 2710 2804 2756 2703 2757
8 2715 2659 2714 2764 2758 2704 2757 2805
8 2758 2704 2757 2805 2712 2655 2710 2761
8 2806 2759 2707 2760 2761 2710 2653 2711
8 2765 2716 2762 2808 2718 2664 2713 2763
8 2809 2763 2714 2764 2767 2718 2663 2717
8 2765 2716 2664 2718 2811 2766 2719 2768
8 2813 2768 2718 2767 2770 2721 2666 2720
8 2814 2769 2719 2768 2771 2722 2667 2721
8 2723 2669 2724 2773 2770 2721 2771 2816
8 2724 2670 2725 2774 2771 2722 2772 2817
8 2726 2672 2727 2776 2773 2724 2774 2819
8 2727 2673 2728 2777 2774 2725 2775 2820
8 2729 2675 2730 2779 2776 2727 2777 2822
8 2730 2676 2731 2780 2777 2728 2778 2823
8 2732 2678 2733 2782 2779 2730 2780 2825
8 2780 2731 2679 2733 2826 2781 2734 2783
8 2782 2733 2681 2735 2827 2783 2736 2784
8 2830 2785 2738 2787 2804 2756 2706 2759
8 2789 2739 2686 2740 2832 2786 2738 2787
8 2790 2740 2707 2760 2833 2787 2759 2806
8 2742 2687 2739 2789 2792 2741 2788 2835
8 2743 2688 2740 2790 2793 2742 2789 2836
8 2792 2741 2791 2838 2745 2689 2744 2795
8 2793 2742 2792 2839 2746 2690 2745 2796
8 2795 2744 2794 2841 2748 2693 2749 2798
8 2796 2745 2795 2842 2747 2692 2748 2797
8 2797 2748 2798 2843 2750 2695 2751 2800
8 2798 2749 2799 2844 2751 2696 2752 2801
8 2800 2751 2801 2845 2753 2698 2754 2802
8 2808 2762 2803 2847 2763 2713 2756 2804
8 2809 2763 2804 2848 2764 2714 2757 2805
8 2806 2759 2710 2761 2848 2804 2757 2805
8 2765 2716 2766 2811 2808 2762 2807 2850
8 2810 2765 2808 2851 2767 2718 2763 2809
8 2810 2765 2718 2767 2852 2811 2768 2813
8 2811 2766 2719 2768 2853 2812 2769 2814
8 2855 2814 2768 2813 2816 2771 2721 2770
8 2856 2815 2769 2814 2817 2772 2722 2771
8 2773 2724 2774 2819 2816 2771 2817 2858
8 2774 2725 2775 2820 2817 2772 2818 2859
8 2776 2727 2777 2822 2819 2774 2820 2861
8 2777 2728 2778 2823 2820 2775 2821 2862
8 2779 2730 2780 2825 2822 2777 2823 2864
8 2823 2778 2731 2780 2865 2824 2781 2826
8 2825 2780 2733 2782 2866 2826 2783 2827
8 2869 2828 2785 2830 2847 2803 2756 2804
8 2871 2829 2786 2832 2830 2785 2738 2787
8 2872 2830 2787 2833 2848 2804 2759 2806
8 2789 2739 2786 2832 2835 2788 2831 2874
8 2836 2789 2740 2790 2875 2832 2787 2833
8 2792 2741 2788 2835 2838 2791 2834 2877
8 2793 2742 2789 2836 2839 2792 2835 2878
8 2838 2791 2837 2880 2795 2744 2794 2841
8 2839 2792 2838 2881 2796 2745 2795 2842
8 2841 2794 2840 2882 2798 2749 2799 2844
8 2842 2795 2841 2883 2797 2748 2798 2843
8 2843 2798 2844 2884 2800 2751 2801 2845
8 2886 2846 2803 2847 2850 2807 2762 2808
8 2851 2808 2847 2887 2809 2763 2804 2848
8 2850 2807 2766 2811 2889 2849 2812 2853
8 2810 2765 2811 2852 2851 2808 2850 2890
8 2852 2811 2768 2813 2891 2853 2814 2855
8 2853 2812 2769 2814 2892 2854 2815 2856
8 2894 2856 2814 2855 2858 2817 2771 2816
8 2817 2772 2818 2859 2856 2815 2857 2895
8 2819 2774 2820 2861 2858 2817 2859 2897
8 2820 2775 2821 2862 2859 2818 2860 2898
8 2822 2777 2823 2864 2861 2820 2862 2900
8 2823 2778 2824 2865 2862 2821 2863 2901
8 2864 2823 2780 2825 2902 2865 2826 2866
8 2904 2867 2828 2869 2886 2846 2803 2847
8 2869 2828 2868 2906 2830 2785 2829 2871
8 2907 2869 2830 2872 2887 2847 2804 2848
8 2871 2829 2870 2909 2832 2786 2831 2874
8 2910 2871 2832 2875 2872 2830 2787 2833
8 2835 2788 2831 2874 2877 2834 2873 2912
8 2836 2789 2832 2875 2878 2835 2874 2913
8 2877 2834 2876 2915 2838 2791 2837 2880
8 2839 2792 2835 2878 2881 2838 2877 2916
8 2880 2837 2879 2917 2841 2794 2840 2882
8 2881 2838 2880 2918 2842 2795 2841 2883
8 2883 2841 2882 2919 2843 2798 2844 2884
8 2921 2885 2846 2886 2889 2849 2807 2850
8 2922 2886 2847 2887 2890 2850 2808 2851
8 2889 2849 2812 2853 2924 2888 2854 2892
8 2890 2850 2811 2852 2925 2889 2853 2891
8 2891 2853 2814 2855 2926 2892 2856 2894
8 2892 2854 2815 2856 2927 2893 2857 2895
8 2858 2817 2859 2897 2894 2856 2895 2929
8 2859 2818 2860 2898 2895 2857 2896 2930
8 2861 2820 2862 2900 2897 2859 2898 2932
8 2862 2821 2863 2901 2898 2860 2899 2933
8 2864 2823 2865 2902 2900 2862 2901 2934
8 2904 2867 2846 2886 2936 2903 2885 2921
8 2904 2867 2903 2936 2869 2828 2868 2906
8 2937 2904 2869 2907 2922 2886 2847 2887
8 2906 2868 2905 2939 2871 2829 2870 2909
8 2907 2869 2906 2940 2872 2830 2871 2910
8 2909 2870 2908 2942 2874 2831 2873 2912
8 2910 2871 2909 2943 2875 2832 2874 2913
8 2912 2873 2911 2945 2877 2834 2876 2915
8 2878 2835 2874 2913 2916 2877 2912 2946
8 2915 2876 2914 2947 2880 2837 2879 2917
8 2916 2877 2915 2948 2881 2838 2880 2918
8 2918 2880 2917 2949 2883 2841 2882 2919
8 2921 2885 2849 2889 2951 2920 2888 2924
8 2952 2921 2886 2922 2925 2889 2850 2890
8 2924 2888 2854 2892 2954 2923 2893 2927
8 2925 2889 2853 2891 2955 2924 2892 2926
8 2926 2892 2856 2894 2956 2927 2895 2929
8 2895 2857 2896 2930 2927 2893 2928 2957
8 2897 2859 2898 2932 2929 2895 2930 2959
8 2898 2860 2899 2933 2930 2896 2931 2960
8 2900 2862 2901 2934 2932 2898 2933 2961
8 2936 2903 2885 2921 2963 2935 2920 2951
8 2936 2903 2935 2963 2906 2868 2905 2939
8 2937 2904 2886 2922 2964 2936 2921 2952
8 2937 2904 2936 2964 2907 2869 2906 2940
8 2939 2905 2938 2966 2909 2870 2908 2942
8 2940 2906 2939 2967 2910 2871 2909 2943
8 2942 2908 2941 2969 2912 2873 2911 2945
8 2943 2909 2942 2970 2913 2874 2912 2946
8 2945 2911 2944 2971 2915 2876 2914 2947
8 2946 2912 2945 2972 2916 2877 2915 2948
8 2948 2915 2947 2973 2918 2880 2917 2949
8 2951 2920 2888 2924 2975 2950 2923 2954
8 2952 2921 2889 2925 2976 2951 2924 2955
8 2927 2893 2928 2957 2954 2923 2953 2978
8 2955 2924 2892 2926 2979 2954 2927 2956
8 2929 2895 2930 2959 2956 2927 2957 2980
8 2930 2896 2931 2960 2957 2928 2958 2981
8 2932 2898 2933 2961 2959 2930 2960 2982
8 2951 2920 2950 2975 2963 2935 2962 2984
8 2963 2935 2962 2984 2939 2905 2938 2966
8 2964 2936 2921 2952 2985 2963 2951 2976
8 2964 2936 2963 2985 2940 2906 2939 2967
8 2966 2938 2965 2987 2942 2908 2941 2969
8 2967 2939 2966 2988 2943 2909 2942 2970
8 2969 2941 2968 2989 2945 2911 2944 2971
8 2970 2942 2969 2990 2946 2912 2945 2972
8 2972 2945 2971 2991 2948 2915 2947 2973
8 2954 2923 2953 2978 2975 2950 2974 2993
8 2976 2951 2924 2955 2994 2975 2954 2979
8 2957 2928 2958 2981 2978 2953 2977 2995
8 2956 2927 2957 2980 2979 2954 2978 2996
8 2959 2930 2960 2982 2980 2957 2981 2997
8 2984 2962 2983 2999 2966 2938 2965 2987
8 2975 2950 2974 2993 2984 2962 2983 2999
8 2976 2951 2975 2994 2985 2963 2984 3000
8 2985 2963 2984 3000 2967 2939 2966 2988
8 2987 2965 2986 3001 2969 2941 2968 2989
8 2988 2966 2987 3002 2970 2942 2969 2990
8 2990 2969 2989 3003 2972 2945 2971 2991
8 2978 2953 2977 2995 2993 2974 2992 3004
8 2979 2954 2978 2996 2994 2975 2993 3005
8 2980 2957 2981 2997 2996 2978 2995 3006
8 2974 2993 2999 2983 2992 3004 3007 2998
8 2983 2999 2987 2965 2998 3007 3001 2986
8 3000 2984 2999 3008 2988 2966 2987 3002
8 2994 2975 2993 3005 3000 2984 2999 3008
8 3002 2987 3001 3009 2990 2969 2989 3003
8 2996 2978 2995 3006 3005 2993 3004 3010
8 3005 2993 3004 3010 3008 2999 3007 3011
8 3008 2999 3007 3011 3002 2987 3001 3009

CELL_TYPES 1910
12
12
12
12
12
12
12
12
12
12
12
12
12
12
12
12
12
12
12
12
12
12
12
12
12
12
12
12
12
12
12
12
12
12
12
12
12
12
12
12
12
12
12
12
12
12
12
12
12
12
12
12
12
12
12
12
12
12
12
12
12
12
12
12
12
12
12
12
12
12
12
12
12
12
12
12
12
12
12
12
12
12
12
12
12
12
12
12
12
12
12
12
12
12
12
12
12
12
12
12
12
12
12
12
12
12
12
12
12
12
12
12
12
12
12
12
12
12
12
12
12
12
12
12
12
12
12
12
12
12
12
12
12
12
12
12
12
12
12
12
12
12
12
12
12
12
12
12
12
12
12
12
12
12
12
12
12
12
12
12
12
12
12
12
12
12
12
12
12
12
12
12
12
12
12
12
12
12
12
12
12
12
12
12
12
12
12
12
12
12
12
12
12
12
12
12
12
12
12
12
12
12
12
12
12
12
12
12
12
12
12
12
12
12
12
12
12
12
12
12
12
12
12
12
12
12
12
12
12
12
12
12
12
12
12
12
12
12
12
12
12
12
12
12
12
12
12
12
12
12
12
12
12
12
12
12
12
12
12
12
12
12
12
12
12
12
12
12
12
12
12
12
12
12
12
12
12
12
12
12
12
12
12
12
12
12
12
12
12
12
12
12
12
12
12
12
12
12
12
12
12
12
12
12
12
12
12
12
12
12
12
12
12
12
12
12
12
12
12
12
12
12
12
12
12
12
12
12
12
12
12
12
12
12
12
12
12
12
12
12
12
12
12
12
12
12
12
12
12
12
12
12
12
12
12
12
12
12
12
12
12
12
12
12
12
12
12
12
12
12
12
12
12
12
12
12
12
12
12
12
12
12
12
12
12
12
12
12
12
12
12
12
12
12
12
12
12
12
12
12
12
12
12
12
12
12
12
12
12
12
12
12
12
12
12
12
12
12
12
12
12
12
12
12
12
12
12
12
12
12
12
12
12
12
12
12
12
12
12
12
12
12
12
12
12
12
12
12
12
12
12
12
12
12
12
12
12
12
12
12
12
12
12
12
12
12
12
12
12
12
12
12
12
12
12
12
12
12
12
12
12
12
12
12
12
12
12
12
12
12
12
12
12
12
12
12
12
12
12
12
12
12
12
12
12
12
12
12
12
12
12
12
12
12
12
12
12
12
12
12
12
12
12
12
12
12
12
12
12
12
12
12
12
12
12
12
12
12
12
12
12
12
12
12
12
12
12
12
12
12
12
12
12
12
12
12
12
12
12
12
12
12
12
12
12
12
12
12
12
12
12
12
12
12
12
12
12
12
12
12
12
12
12
12
12
12
12
12
12
12
12
12
12
12
12
12
12
12
12
12
12
12
12
12
12
12
12
12
12
12
12
12
12
12
12
12
12
12
12
12
12
12
12
12
12
12
12
12
12
12
12
12
12
12
12
12
12
12
12
12
12
12
12
12
12
12
12
12
12
12
12
12
12
12
12
12
12
12
12
12
12
12
12
12
12
12
12
12
12
12
12
12
12
12
12
12
12
12
12
12
12
12
12
12
12
12
12
12
12
12
12
12
12
12
12
12
12
12
12
12
12
12
12
12
12
12
12
12
12
12
12
12
12
12
12
12
12
12
12
12
12
12
12
12
12
12
12
12
12
12
12
12
12
12
12
12
12
12
12
12
12
12
12
12
12
12
12
12
12
12
12
12
12
12
12
12
12
12
12
12
12
12
12
12
12
12
12
12
12
12
12
12
12
12
12
12
12
12
12
12
12
12
12
12
12
12
12
12
12
12
12
12
12
12
12
12
12
12
12
12
12
12
12
12
12
12
12
12
12
12
12
12
12
12
12
12
12
12
12
12
12
12
12
12
12
12
12
12
12
12
12
12
12
12
12
12
12
12
12
12
12
12
12
12
12
12
12
12
12
12
12
12
12
12
12
12
12
12
12
12
12
12
12
12
12
12
12
12
12
12
12
12
12
12
12
12
12
12
12
12
12
12
12
12
12
12
12
12
12
12
12
12
12
12
12
12
12
12
12
12
12
12
12
12
12
12
12
12
12
12
12
12
12
12
12
12
12
12
12
12
12
12
12
12
12
12
12
12
12
12
12
12
12
12
12
12
12
12
12
12
12
12
12
12
12
12
12
12
12
12
12
12
12
12
12
12
12
12
12
12
12
12
12
12
12
12
12
12
12
12
12
12
12
12
12
12
12
12
12
12
12
12
12
12
12
12
12
12
12
12
12
12
12
12
12
12
12
12
12
12
12
12
12
12
12
12
12
12
12
12
12
12
12
12
12
12
12
12
12
12
12
12
12
12
12
12
12
12
12
12
12
12
12
12
12
12
12
12
12
12
12
12
12
12
12
12
12
12
12
12
12
12
12
12
12
12
12
12
12
12
12
12
12
12
12
12
12
12
12
12
12
12
12
12
12
12
12
12
12
12
12
12
12
12
12
12
12
12
12
12
12
12
12
12
12
12
12
12
12
12
12
12
12
12
12
12
12
12
12
12
12
12
12
12
12
12
12
12
12
12
12
12
12
12
12
12
12
12
12
12
12
12
12
12
12
12
12
12
12
12
12
12
12
12
12
12
12
12
12
12
12
12
12
12
12
12
12
12
12
12
12
12
12
12
12
12
12
12
12
12
12
12
12
12
12
12
12
12
12
12
12
12
12
12
12
12
12
12
12
12
12
12
12
12
12
12
12
12
12
12
12
12
12
12
12
12
12
12
12
12
12
12
12
12
12
12
12
12
12
12
12
12
12
12
12
12
12
12
12
12
12
12
12
12
12
12
12
12
12
12
12
12
12
12
12
12
12
12
12
12
12
12
12
12
12
12
12
12
12
12
12
12
12
12
12
12
12
12
12
12
12
12
12
12
12
12
12
12
12
12
12
12
12
12
12
12
12
12
12
12
12
12
12
12
12
12
12
12
12
12
12
12
12
12
12
12
12
12
12
12
12
12
12
12
12
12
12
12
12
12
12
12
12
12
12
12
12
12
12
12
12
12
12
12
12
12
12
12
12
12
12
12
12
12
12
12
12
12
12
12
12
12
12
12
12
12
12
12
12
12
12
12
12
12
12
12
12
12
12
12
12
12
12
12
12
12
12
12
12
12
12
12
12
12
12
12
12
12
12
12
12
12
12
12
12
12
12
12
12
12
12
12
12
12
12
12
12
12
12
12
12
12
12
12
12
12
12
12
12
12
12
12
12
12
12
12
12
12
12
12
12
12
12
12
12
12
12
12
12
12
12
12
12
12
12
12
12
12
12
12
12
12
12
12
12
12
12
12
12
12
12
12
12
12
12
12
12
12
12
12
12
12
12
12
12
12
12
12
12
12
12
12
12
12
12
12
12
12
12
12
12
12
12
12
12
12
12
12
12
12
12
12
12
12
12
12
12
12
12
12
12
12
12
12
12
12
12
12
12
12
12
12
12
12
12
12
12
12
12
12
12
12
12
12
12
12
12
12
12
12
12
12
12
12
12
12
12
12
12
12
12
12
12
12
12
12
12
12
12
12
12
12
12
12
12
12
12
12
12
12
12
12
12
12
12
12
12
12
12
12
12
12
12
12
12
12
12
12
12
12
12
12
12
12
12
12
12
12
12
12
12
12
12
12
12
12
12
12
12
12
12
12
12
12
12
12
12
12
12
12
12
12
12
12
12
12
12
12
12
12
12
12
12
12
12
12
12
12
12
12
12
12
12
12
12
12
12
12
12
12
12
12
12
12
12
12
12
12
12
12
12
12
12
12
12
12
12
12
12
12
12
12
12
12
12
12
12
12
12
12
12
12
12
12
12
12
12
12
12
12
12
12
12
12
12
12
12
12
12
12
12
12
12
12
12
12
12
12
12
12
12
12
12
12
12
12
12
12
12
12
12
12
12
12
12
12
12
12
12
12
12
12
12
12
12
12
12
12
12
12
12
12
12
12
12
12
12
12
12
12
12
12
12
12
12
12
12
12
12
12
12
12
12
12
12
12
12
12
12
12
12
12
12
12
12
12
12
12
12
12
12
12
12
12
12
12
12
12
12
12
12
12
12
12
12
12
12
12
12
12
12
12
12
12
12
12
12
12
12
12
12
12
12
12
12
12
12
12
12
12
12
12
12
12
12
12
12
12
12
12
12
12
12
12
12
12
12
12
12
12
12
12
12
12
12
12
12
12
12
12
12
12
12
12
12
12
12
12
12
12
12
12
12
12
12
12
12
12
12
12
12
12
12
12
12
12
12
12
12
12
12
12
12
12
12
12
12
12
12
12
12
12
12
12
12
12
12
12
12
12
12
12
12
12
12
12
12
12
12
12

POINT_DATA 3012
SCALARS Jp_lamdaP float 4
LOOKUP_TABLE default
0.999769 1 1 0.999769
1 1 1 1
0.999776 1 1 0.999776
0.999718 1 1 0.999718
0.99977 1 1 0.99977
0.999757 1 1 0.999757
0.999086 1 1 0.999086
1 1 1 1
1 1 1 1
1 1 1 1
0.999843 1 1 0.999843
0.999222 1 1 0.999222
0.999695 1 1 0.999695
0.999715 1 1 0.999715
0.999776 1 1 0.999776
0.999739 1 1 0.999739
0.999762 1 1 0.999762
0.999782 1 1 0.999782
0.999088 1 1 0.999088
1 1 1 1
0.999698 1 1 0.999698
0.999749 1 1 0.999749
0.998955 1 1 0.998955
0.999059 1 1 0.999059
0.99977 1 1 0.99977
0.99911 1 1 0.99911
1.00465 1.00664 1 0.998025
1 1 1 1
0.999874 1 1 0.999874
0.999887 1 1 0.999887
1 1 1 1
0.999231 1 1 0.999231
0.999741 1 1 0.999741
0.999766 1 1 0.999766
0.999203 1 1 0.999203
1 1 1 1
0.999289 1 1 0.999289
0.999323 1 1 0.999323
0.999767 1.00174 1 0.998029
1 1 1 1
1 1 1 1
0.999856 1 1 0.999856
1 1 1 1
0.999713 1 1 0.999713
0.998882 1 1 0.998882
1 1 1 1
0.999103 1 1 0.999103
0.999758 1 1 0.999758
0.99979 1 1 0.99979
0.999764 1 1 0.999764
0.999094 1 1 0.999094
0.99984 1 1 0.99984
0.999718 1 1 0.999718
0.999782 1 1 0.999782
0.999767 1 1 0.999767
0.998954 1 1 0.998954
0.999114 1 1 0.999114
0.999061 1 1 0.999061
1.00507 1.00707 1 0.99801
1 1 1 1
0.999692 1 1 0.999692
0.999102 1 1 0.999102
0.99892 1 1 0.99892
0.999009 1 1 0.999009
1.00785 1.01013 1 0.997735
1.00607 1.00822 1 0.99786
0.999832 1 1 0.999832
0.999219 1 1 0.999219
1.00235 1.00424 1 0.998123
1.01817 1.02105 1 0.997183
1 1 1 1
1 1 1 1
1 1 1 1
0.999239 1 1 0.999239
1 1 1 1
1 1 1 1
0.999076 1 1 0.999076
0.999949 1 1 0.999949
0.999182 1 1 0.999182
0.999407 1 1 0.999407
0.999256 1.00123 1 0.998026
1 1 1 1
1.0004 1 1.00053 0.999875
0.999007 1 1 0.999007
0.999112 1 1 0.999112
1.00803 1.01046 1 0.997603
0.999637 1 1.00003 0.999609
1.00263 1.00471 1 0.997928
0.998528 1.00036 1 0.998171
1.00325 1.00588 1 0.997381
1 1 1 1
1 1 1 1
1 1 1 1
1 1 1 1
1 1 1 1
0.999854 1 1 0.999854
0.998986 1 1 0.998986
0.99986 1 1 0.99986
0.999035 1 1 0.999035
1 1 1 1
0.998882 1 1 0.998882
0.999084 1 1 0.999084
1.00701 1.00968 1 0.997354
0.99914 1 1 0.99914
1.00943 1.01204 1 0.997418
0.999715 1 1 0.999715
0.999735 1 1 0.999735
0.999791 1 1 0.999791
0.999782 1 1 0.999782
0.998954 1 1 0.998954
0.999065 1 1 0.999065
0.99912 1 1 0.99912
1.00547 1.00749 1 0.997995
1 1 1 1
0.999711 1 1 0.999711
0.998908 1 1 0.998908
0.998917 1 1 0.998917
0.999916 1 1 0.999916
0.999286 1 1 0.999286
0.999011 1 1 0.999011
1.00782 1.01015 1 0.997694
1.003 1.0049 1 0.998105
1.00632 1.00844 1 0.99789
1.01807 1.02094 1 0.997189
0.998905 1 1 0.998905
0.998906 1 1 0.998906
1.00635 1.00881 1 0.997558
1.00787 1.01027 1 0.997624
1.0075 1.00977 1 0.997748
1.02647 1.02952 1 0.99704
1 1 1 1
1.02092 1.02385 1 0.997132
0.999594 1 1.00015 0.999444
0.99965 1.00152 1 0.998128
1.01483 1.01764 1 0.997234
1.02737 1.03048 1 0.996985
1.0005 1 1.00079 0.999705
1.00337 1 1.00457 0.998806
1 1 1 1
1 1 1 1
0.999083 1 1 0.999083
1 1 1 1
0.999386 1 1 0.999386
0.999187 1 1 0.999187
0.998647 1.00062 1 0.998023
1 1 1 1
1.00004 1 1.00015 0.999896
0.999091 1 1 0.999091
0.99919 1 1 0.99919
1.00743 1.00985 1 0.997605
0.999728 1 1.00014 0.999593
1.0017 1.00377 1 0.997932
0.998325 1.00016 1 0.99817
1.00312 1.00577 1 0.997365
1.00019 1 1.00045 0.999745
0.999953 1 1 0.999953
1.00112 1 1.00208 0.999049
1.00943 1.01196 1 0.997495
1.00573 1.00798 1 0.997767
1.02256 1.02565 1 0.996992
0.998587 1 1.00016 0.998425
1.00984 1.01259 1 0.99729
1.002 1.00397 1.00057 0.997471
1.0106 1.01345 1 0.99719
1 1 1 1
1 1 1 1
1 1 1 1
0.999898 1 1.00009 0.999809
1 1 1 1
1 1 1 1
1 1 1 1
0.998965 1 1 0.998965
0.998912 1 1 0.998912
1 1 1 1
1 1 1 1
0.998884 1 1 0.998884
0.999015 1 1 0.999015
1.00741 1.01008 1 0.997354
0.998989 1 1 0.998989
1.0096 1.01221 1 0.997418
0.998877 1 1 0.998877
1.00598 1.00869 1 0.997312
1.00827 1.0109 1 0.997397
1.02879 1.03199 1 0.996897
1.00983 1.01242 1 0.997441
1.03147 1.03465 1 0.996932
1 1 1 1
0.99973 1 1 0.99973
0.998697 1 1 0.998697
0.998915 1 1 0.998915
1 1 1 1
0.999354 1 1 0.999354
0.999013 1 1 0.999013
1.00777 1.01014 1 0.997653
1.00659 1.00869 1 0.997921
1.00365 1.00557 1 0.998087
1.01796 1.02082 1 0.997195
0.998902 1 1 0.998902
0.998902 1 1 0.998902
1.00619 1.00877 1 0.997447
1.00788 1.01025 1 0.997652
1 1 1 1
0.99952 1 1.00006 0.999463
1.00052 1.00233 1 0.998193
1.00744 1.00972 1 0.997745
1.02638 1.02946 1 0.99701
1.0142 1.01702 1 0.997224
1.02112 1.02402 1 0.997166
1.02695 1.03005 1 0.996992
1.0007 1 1.001 0.999695
1.00295 1 1.00415 0.998808
1.00548 1.00817 1 0.997334
1.00684 1.00926 1 0.997597
1.02719 1.0303 1 0.996983
1.02705 1.03019 1 0.996955
1.02358 1.02653 1 0.997127
1.03647 1.03958 1 0.997006
1.00032 1 1.00074 0.999581
1.02945 1.03253 1 0.997016
0.998647 1.00024 1.00011 0.998303
1.00794 1.01063 1 0.997341
1.02499 1.0281 1 0.996982
1.02904 1.03205 1 0.997082
1.00257 1 1.00396 0.998614
1.00057 1 1.00152 0.999048
1.00292 1 1.00474 0.998185
0.999031 1 1 0.999031
1 1 1 1
0.999916 1 1 0.999916
0.999142 1 1 0.999142
1.00683 1.00924 1 0.997607
0.999852 1 1.00025 0.999599
0.998228 1.00002 1.00004 0.998168
1.00077 1.00284 1 0.997935
1.0033 1.00597 1 0.997348
1.00017 1 1.00041 0.999766
0.999964 1 1 0.999964
1.00139 1 1.00234 0.999051
1.00909 1.01162 1 0.997495
1.00485 1.0071 1 0.997771
1.02267 1.02576 1 0.996988
0.998676 1 1.00025 0.998429
1.01056 1.0133 1 0.997298
1.0014 1.00347 1.00047 0.997467
1.01141 1.01427 1 0.997177
0.999986 1 1 0.999986
0.999965 1 1.00125 0.998717
1.00045 1 1.00108 0.999373
1.00167 1 1.00325 0.998424
1.02669 1.02985 1 0.996929
1.01717 1.02009 1 0.997141
1.02992 1.03317 1 0.996856
0.999805 1.00155 1.00049 0.997766
1.01828 1.0212 1 0.997135
1.01015 1.01145 1.00158 0.997138
1.0208 1.02381 1 0.997057
0.999775 1 1 0.999775
1 1 1 1
1 1 1 1
1 1 1 1
1 1 1 1
0.999892 1 1 0.999892
1 1 1 1
1.00028 1 1.00048 0.999796
1 1 1 1
0.99899 1 1 0.99899
0.998942 1 1 0.998942
1.00987 1.01248 1 0.997417
1.00778 1.01045 1 0.997355
0.998885 1 1 0.998885
1 1 1 1
0.998877 1 1 0.998877
1.00625 1.00896 1 0.997312
1.00867 1.01131 1 0.997396
1.02861 1.03181 1 0.996895
1.00983 1.01243 1 0.997439
1.03132 1.0345 1 0.99693
1.00536 1.00808 1 0.997307
1.02738 1.03062 1 0.99686
1.03066 1.03384 1 0.996924
1.04276 1.04597 0.99988 0.99705
1.03034 1.03352 1 0.996925
1.04106 1.04419 1 0.997004
0.9989 1 1 0.9989
0.998899 1 1 0.998899
1.00605 1.00873 1 0.997337
1.00789 1.01023 1 0.997679
1 1 1 1
0.999481 1 1 0.999481
1.00131 1.00306 1 0.998258
1.00739 1.00967 1 0.997743
1.02631 1.02942 1 0.99698
1.02127 1.02414 1 0.997201
1.01358 1.01641 1 0.997214
1.02665 1.02973 1 0.997
1.00086 1 1.00118 0.999684
1.00255 1 1.00374 0.99881
1.00541 1.00813 1 0.99731
1.00681 1.00924 1 0.997593
1.02715 1.03025 1 0.996991
1.02723 1.03034 1 0.996982
1.00015 1 1.00058 0.99957
0.998895 1.00054 1.00006 0.9983
1.00835 1.011 1 0.997377
1.02388 1.02684 1 0.997118
1.03652 1.03961 1 0.997033
1.02442 1.02756 1 0.996953
1.02945 1.03253 1 0.997021
1.02933 1.03234 1 0.997082
1.00183 1 1.00322 0.998616
1.00308 1 1.0049 0.998187
1.00113 1 1.00208 0.999045
1.0263 1.02945 1 0.996939
1.02789 1.03097 1 0.997012
1.0414 1.04455 0.999968 0.997014
1.038 1.04113 1 0.996998
1.03228 1.03534 1 0.997048
1.03535 1.03836 0.999836 0.997266
0.999005 1 1.00053 0.998475
1.03108 1.034 1 0.997168
1.00122 1.00356 1 0.997662
1.01611 1.01925 1 0.996922
1.02601 1.02923 1 0.996869
1.0255 1.02829 1 0.99729
0.999678 1 1.00041 0.999269
0.998747 1 1.00063 0.998117
1.00509 1 1.00678 0.998313
1.00056 1 1.00258 0.997977
1.00877 1.0113 1 0.997493
0.999976 1 1 0.999976
0.999909 1 1.00012 0.999788
1.00141 1 1.00236 0.999053
1.00399 1.00622 1 0.997775
1.02275 1.02585 1 0.996985
0.99868 1 1.00025 0.998433
1.00034 1.00256 1.00033 0.997462
1.01125 1.01399 1 0.997306
1.01172 1.0146 1 0.997164
0.999991 1 1 0.999991
1.00047 1 1.00176 0.998718
1.00004 1 1.00066 0.999381
1.00211 1 1.00369 0.998419
1.02659 1.02976 1 0.996925
1.0172 1.02012 1 0.997141
1.02969 1.03294 1 0.996853
0.99916 1.00094 1.00045 0.997772
1.01827 1.02119 1 0.997143
1.00981 1.01097 1.00173 0.997127
1.02086 1.0238 1 0.99713
0.999998 1 1 0.999998
0.999586 1 1 0.999586
0.9994 1.00013 1.00115 0.998127
1.00154 1 1.00282 0.998729
1.00041 1 1.00229 0.998124
1.03398 1.03723 1 0.996868
1.02421 1.02732 1 0.996971
1.02699 1.03015 1 0.996927
1.00458 1.00521 1.00199 0.997389
1.01887 1.02184 1 0.997094
1.01242 1.01474 1.00086 0.996863
0.999749 1 1 0.999749
0.999299 1 1 0.999299
0.999795 1 1 0.999795
0.999777 1 1 0.999777
1 1 1 1
1 1 1 1
1 1 1 1
1 1 1 1
1 1 1 1
0.999954 1 1 0.999954
1 1 1 1
0.999877 1 1 0.999877
1 1 1 1
1.00065 1 1.00087 0.999783
1 1 1 1
1.0098 1.01239 1 0.997437
1.00901 1.01165 1 0.997396
1.03095 1.03413 1 0.996928
1.0284 1.03161 1 0.996893
1.00659 1.0093 1 0.997313
0.998876 1 1 0.998876
1.00554 1.00825 1 0.997307
1.02717 1.03041 1 0.99686
1.03035 1.03353 1 0.996922
1.04222 1.04573 0.99957 0.997068
1.02974 1.03292 1 0.996922
1.0408 1.04393 1 0.997002
1.02649 1.02974 1 0.996851
1.04109 1.04505 0.999138 0.997067
1.04306 1.04615 1 0.997038
1.04158 1.04695 0.997587 0.997276
1.037 1.04018 1 0.996941
1.04031 1.04365 0.999487 0.997313
1.00539 1.00812 1 0.997286
1.00681 1.00924 1 0.997589
1.02714 1.03023 1 0.997
1.02739 1.03048 1 0.997009
0.999983 1 1.00042 0.999559
0.999154 1.00086 1 0.998298
1.00896 1.01158 1 0.997412
1.0242 1.02717 1 0.99711
1.0366 1.03965 1 0.99706
1.02947 1.03254 1 0.997025
1.02371 1.02687 1 0.996924
1.02963 1.03265 1 0.997081
1.00115 1 1.00253 0.998619
1.00328 1 1.0051 0.99819
1.00158 1 1.00254 0.999043
1.02632 1.02951 1 0.996907
1.0281 1.03118 1 0.99701
1.04109 1.04429 0.999892 0.997045
1.03813 1.04126 1 0.996993
0.999084 1.00001 1.00061 0.998473
1.00274 1.00509 1 0.997656
1.01483 1.01788 1.00003 0.996971
1.03253 1.0356 1 0.997031
1.0354 1.03835 0.999847 0.997312
1.0263 1.02956 1 0.996833
1.03079 1.03371 1 0.997172
1.02591 1.02866 1 0.997321
0.99925 1.00007 1.00106 0.998118
1.00067 1.00002 1.0027 0.997955
0.999956 1 1.00069 0.999264
1.00464 1 1.00631 0.998346
1.04117 1.04443 0.999859 0.997016
1.04066 1.04379 0.99998 0.997029
1.03894 1.04433 0.997645 0.99719
1.03641 1.04076 0.998487 0.997326
1.03298 1.03581 1 0.997267
1.03284 1.03703 0.998464 0.99749
0.998481 1.00054 1 0.997946
1.02671 1.02939 0.999909 0.99749
1.00615 1.00894 1 0.997237
1.0166 1.01979 1.00018 0.996697
1.02736 1.03063 1 0.996825
1.0259 1.02861 1 0.99736
0.999437 1 1 0.999437
1.00225 1 1.0037 0.998548
0.998002 1.00011 1 0.997892
1.00341 1 1.00534 0.998073
1.00008 1.00011 1.00205 0.997924
0.999995 1 1 0.999995
1.02643 1.0296 1 0.99692
0.999649 1 1.00026 0.999389
1.00126 1 1.00254 0.998719
1.00268 1 1.00427 0.998413
1.01727 1.02019 1 0.997141
1.02949 1.03275 1 0.99685
0.998686 1.0004 1.00051 0.997778
1.01038 1.01135 1.00193 0.997117
1.01835 1.02126 1 0.997152
1.0212 1.02407 1 0.997202
0.999999 1 1 0.999999
0.999594 1 1 0.999594
0.999159 1.00004 1.001 0.998129
1.00191 1 1.00319 0.998728
1.00074 1 1.00265 0.998103
1.03401 1.03726 1 0.996862
1.02434 1.02745 1 0.99697
1.0269 1.03007 1 0.996916
1.00361 1.00409 1.00213 0.997395
1.02147 1.02445 1 0.997096
1.01226 1.01445 1.00096 0.996882
0.999696 1 1 0.999696
0.999604 1 1.00059 0.999012
0.999456 1.00118 1.00048 0.997803
1.00292 1 1.00456 0.998368
0.999672 1 1.00165 0.998023
1.03171 1.0348 1 0.997011
1.02209 1.02518 1 0.996983
1.02557 1.02854 1 0.997118
1.00248 1.0015 1.00379 0.997195
1.01035 1.01362 1 0.996778
0.999751 1 1 0.999751
0.999229 1 1 0.999229
0.999276 1 1 0.999276
0.999041 1 1 0.999041
0.999311 1 1 0.999311
0.999803 1 1 0.999803
0.999796 1 1 0.999796
1 1 1 1
0.999779 1 1 0.999779
1 1 1 1
1 1 1 1
1 1 1 1
1 1 1 1
1 1 1 1
0.99999 1 1 0.99999
0.999939 1 1 0.999939
1 1 1 1
1 1 1 1
0.999862 1 1 0.999862
1 1 1 1
1.02925 1.03244 1 0.996918
1.03027 1.03345 1 0.99692
1.04067 1.04381 1 0.997
1.04178 1.0456 0.999256 0.997086
1.02686 1.03009 1 0.99686
1.00563 1.00835 1 0.997307
1.02629 1.02953 1 0.996852
1.0411 1.045 0.999205 0.997061
1.04268 1.04578 0.999999 0.997038
1.04101 1.04683 0.997119 0.997308
1.03767 1.04086 1 0.996935
1.03975 1.0435 0.999066 0.997335
1.0407 1.04447 0.999349 0.997035
1.04051 1.04662 0.996908 0.997247
1.04031 1.0455 0.997673 0.99736
1.03794 1.04591 0.994928 0.997437
1.03685 1.03978 0.999999 0.997185
1.03792 1.04331 0.997288 0.997539
1.02621 1.02942 1 0.996875
1.02828 1.03137 1 0.997007
1.0407 1.04395 0.999804 0.997076
1.0382 1.04134 1 0.996987
0.999198 1.00005 1.00068 0.998471
1.00403 1.00639 1 0.99765
1.01355 1.01639 1.00018 0.99702
1.03278 1.03587 1 0.997015
1.03538 1.03829 0.999845 0.997358
1.03047 1.03339 1 0.997175
1.02664 1.02993 1 0.996798
1.02597 1.02869 1 0.997352
0.99979 1.00021 1.00147 0.99812
1.00089 1.00012 1.00284 0.997932
1.00025 1 1.00099 0.999259
1.00388 1 1.00551 0.998379
1.04113 1.04439 0.99986 0.997016
1.04026 1.0434 0.999985 0.997007
1.03879 1.04411 0.997682 0.997222
1.03691 1.04083 0.998922 0.997308
0.999147 1.00121 1 0.997939
1.00541 1.00811 1.00003 0.997282
1.0171 1.02008 1.00039 0.996687
1.03237 1.03524 1 0.997224
1.03228 1.03642 0.998453 0.997548
1.02549 1.02877 1 0.996811
1.02772 1.03034 0.999959 0.997492
1.02671 1.02937 1 0.997413
0.998531 1.00064 1 0.99789
0.999669 1.00035 1.00139 0.99793
1.00395 1 1.00589 0.998066
0.999495 1 1.00009 0.999401
1.002 1 1.00342 0.998579
1.03901 1.04559 0.996464 0.997236
1.03753 1.04322 0.997271 0.997275
1.03309 1.04025 0.995565 0.997536
1.02907 1.03333 0.998315 0.997559
0.999977 1.00232 1 0.997665
1.03155 1.03408 0.999887 0.997668
1.00414 1.00689 1.00029 0.99698
1.01501 1.01809 1.00051 0.996474
1.02337 1.02665 1 0.996802
0.999534 1 1 0.999534
1.00038 1 1.00153 0.998844
1.00242 1 1.00411 0.998309
0.998862 1.00103 1 0.997832
1.00401 1 1.00617 0.997848
0.999125 1.00043 1.00087 0.997824
0.999999 1 1 0.999999
0.999603 1 1 0.999603
1.03405 1.03731 1 0.996856
1.00238 1 1.00366 0.998728
0.998784 1 1.00065 0.998131
1.00125 1 1.00318 0.998082
1.02435 1.02747 1 0.996968
1.02664 1.02983 1 0.996905
1.0023 1.00262 1.00229 0.9974
1.01128 1.01364 1.00077 0.996901
1.024 1.02698 1 0.997099
0.999701 1 1 0.999701
0.999466 1 1.00045 0.999016
0.998942 1.00073 1.00041 0.9978
1.00375 1 1.00539 0.998364
0.999666 1 1.00165 0.998024
1.03175 1.03485 1 0.997004
1.02238 1.02549 1 0.996972
1.02526 1.0282 1 0.997144
1.00277 1.00238 1.00324 0.997156
1.00923 1.01246 1.00006 0.996748
0.99919 1 1 0.99919
1.00209 1 1.0035 0.998595
1.00124 1.00157 1.002 0.997674
1.00254 1 1.00443 0.998115
0.999093 1.00018 1.001 0.99792
1.03183 1.03466 0.999797 0.997468
1.0206 1.02379 1 0.996888
1.02179 1.0247 1 0.99716
1.00422 1.0029 1.00433 0.996996
1.00226 1.00572 1 0.99656
0.999754 1 1 0.999754
0.999248 1 1 0.999248
0.99896 1 1 0.99896
0.999253 1 1 0.999253
0.99931 1 1 0.99931
0.99901 1 1 0.99901
0.998879 1 1 0.998879
0.998964 1 1 0.998964
0.999318 1 1 0.999318
0.999799 1 1 0.999799
0.999803 1 1 0.999803
1 1 1 1
0.999798 1 1 0.999798
1 1 1 1
1 1 1 1
1 1 1 1
1 1 1 1
1 1 1 1
1 1 1 1
0.999982 1 1 0.999982
1 1 1 1
0.999924 1 1 0.999924
1 1 1 1
1 1 1 1
1.03829 1.04149 1 0.996928
1.0421 1.0452 1 0.997037
1.03919 1.04336 0.998638 0.997357
1.04037 1.04665 0.996649 0.99734
1.04117 1.04498 0.999294 0.997055
1.02623 1.02947 1 0.996852
1.04103 1.04461 0.999554 0.997015
1.04081 1.04666 0.997166 0.997239
1.04048 1.04541 0.997938 0.997343
1.03732 1.04563 0.994591 0.99745
1.03625 1.03917 0.999997 0.997185
1.03645 1.04236 0.996731 0.997582
1.04037 1.04623 0.997172 0.997221
1.03868 1.0472 0.994421 0.997431
1.03783 1.04652 0.994134 0.997546
1.03489 1.04035 0.997128 0.997617
1.04121 1.04447 0.99986 0.997016
1.03992 1.04306 1 0.996985
1.0387 1.0439 0.997754 0.997255
1.03748 1.04097 0.999351 0.99729
0.999827 1.00189 1 0.997931
1.00468 1.00737 1 0.997328
1.01749 1.02028 1.00058 0.996678
1.03171 1.03462 1 0.997182
1.03172 1.03582 0.998439 0.997605
1.02891 1.03149 0.999999 0.997494
1.02399 1.02728 1 0.996797
1.02826 1.03088 1 0.997465
0.998957 1.00107 1 0.997887
0.999191 1.00057 1.00069 0.997936
1.00527 1 1.00723 0.998059
0.999585 1 1.00022 0.999364
1.00188 1 1.00328 0.998611
1.03948 1.04593 0.99658 0.997238
1.03762 1.04338 0.997195 0.997271
1.03295 1.03962 0.996046 0.997526
1.00076 1.00311 1 0.997658
1.00454 1.00728 1.00026 0.997026
1.01429 1.01712 1.00076 0.996463
1.0296 1.03384 0.998357 0.997546
1.02434 1.02753 1 0.996895
1.02866 1.03142 0.999679 0.997639
0.999557 1 1 0.999557
0.999639 1.00182 1 0.99782
0.998554 1.00017 1.00044 0.997946
1.00466 1 1.00684 0.997834
1.00261 1 1.00429 0.998327
1.00029 1 1.00148 0.998812
1.03683 1.04573 0.994149 0.997322
1.03544 1.04612 0.992321 0.997455
1.02724 1.03778 0.992201 0.997622
1.03081 1.03751 0.995772 0.997764
1.00167 1.0042 1 0.997481
1.02342 1.02622 1 0.997275
1.00326 1.00508 1.00165 0.996552
1.00779 1.01047 1.00104 0.996313
0.999714 1 1 0.999714
0.999179 1 1.00011 0.999067
1.00063 1 1.00211 0.998522
1.00392 1 1.00597 0.997963
0.999785 1.0019 1.00022 0.99767
1.00527 1 1.00765 0.997644
0.999707 1 1 0.999707
0.99922 1 1.0002 0.99902
1.03198 1.03509 1 0.996998
1.00408 1 1.00573 0.998359
0.998353 1.00029 1.00027 0.997797
0.999546 1 1.00152 0.998025
1.02295 1.02606 1 0.996961
1.02528 1.02819 1 0.997171
1.00331 1.00347 1.00273 0.997116
1.0081 1.01115 1.00027 0.996719
0.999193 1 1 0.999193
1.00204 1 1.00344 0.998596
1.00099 1.00133 1.00198 0.997685
1.00246 1 1.00434 0.998123
0.998563 1.00008 1.00048 0.998007
1.03243 1.03543 0.999593 0.99751
1.01999 1.02316 1 0.9969
1.02325 1.02609 1 0.997233
1.00365 1.00212 1.00458 0.996958
1.0028 1.0063 1.00003 0.996501
0.998888 1 1.00002 0.998868
1.00315 1 1.00492 0.998234
1.00278 1.00147 1.00378 0.997534
0.999414 1.00001 1.00161 0.997799
1.03243 1.04641 0.98886 0.997755
1.02604 1.02867 0.999872 0.997568
1.01186 1.01526 1 0.996651
1.00389 1.00307 1.00426 0.996582
0.999266 1 1 0.999266
0.998973 1 1 0.998973
0.998859 1 1 0.998859
0.999309 1 1 0.999309
0.998978 1 1 0.998978
0.999316 1 1 0.999316
0.998869 1 1 0.998869
0.998977 1 1 0.998977
0.998823 1 1 0.998823
0.998794 1 1 0.998794
0.998932 1 1 0.998932
0.9993 1 1 0.9993
0.999783 1 1 0.999783
0.999797 1 1 0.999797
1 1 1 1
0.999803 1 1 0.999803
1 1 1 1
1 1 1 1
1 1 1 1
1 1 1 1
1 1 1 1
1 1 1 1
0.999998 1 1 0.999998
1 1 1 1
0.999973 1 1 0.999973
1 1 1 1
1 1 1 1
1.03554 1.03846 1 0.997185
1.04072 1.0454 0.998193 0.997325
1.03501 1.04145 0.996184 0.997625
1.03674 1.04541 0.994238 0.997463
1.04112 1.04672 0.997414 0.997231
1.04126 1.04467 0.999739 0.996995
1.0402 1.04615 0.997078 0.99722
1.03835 1.04673 0.994554 0.997422
1.03711 1.04584 0.994097 0.997545
1.03656 1.04178 0.997355 0.997625
1.0389 1.04704 0.994831 0.997374
1.0394 1.05177 0.990624 0.997592
1.03947 1.0501 0.992187 0.997675
1.03991 1.04626 0.996682 0.99724
1.03766 1.04352 0.997104 0.997267
1.03288 1.03897 0.996612 0.997515
1.0016 1.00396 1 0.997651
1.00481 1.00758 1.00018 0.99707
1.01333 1.01608 1.00085 0.996451
1.03016 1.03434 0.998426 0.997533
1.0255 1.02839 0.999578 0.997611
1.02463 1.02773 1 0.996988
0.999977 1.00217 1 0.997808
0.998068 1 1 0.998068
1.00509 1 1.00729 0.997819
0.99958 1 1 0.99958
1.00208 1 1.00374 0.998344
1.00017 1 1.00139 0.998781
1.03748 1.04613 0.994388 0.997329
1.03512 1.04605 0.99207 0.997463
1.02743 1.03736 0.992801 0.997615
1.00097 1.00351 1 0.997471
1.00298 1.00497 1.0014 0.996634
1.00767 1.01043 1.0009 0.996372
1.03097 1.03733 0.996083 0.99777
1.02307 1.02604 0.999849 0.997258
0.999764 1 1 0.999764
0.999129 1 1.00006 0.999066
0.998713 1.001 1 0.997719
1.00734 1.00021 1.0094 0.997762
1.00398 1 1.006 0.997997
1.00056 1 1.00207 0.998495
1.03718 1.04934 0.990877 0.997512
1.0277 1.04471 0.9861 0.997582
1.02541 1.0376 0.990424 0.997812
1.02146 1.02859 0.995275 0.997787
1.00127 1.00321 1.00091 0.997153
1.00654 1.00863 1.0014 0.996536
1.00279 1.00381 1.00264 0.996345
0.99988 1 1 0.99988
0.999452 1 1 0.999452
0.99922 1 1 0.99922
0.998948 1 1.00029 0.998659
1.00114 1 1.00294 0.998206
1.00758 1 1.00975 0.997848
0.998178 1.00042 1 0.997761
1.02799 1.00026 1.02983 0.997951
0.999196 1 1 0.999196
1.00225 1 1.00366 0.998597
1.03294 1.03611 0.999393 0.997552
1.00284 1 1.00472 0.99813
1.00099 1.00115 1.00215 0.997696
0.998129 1 1.00004 0.998094
1.01898 1.02214 1 0.996912
1.02447 1.02724 1 0.997306
1.00324 1.00151 1.00482 0.996921
1.00351 1.00709 1 0.996443
0.998998 1 1.00016 0.998842
1.00307 1 1.00483 0.998249
1.00315 1.00144 1.00415 0.997563
0.99932 1.00007 1.00142 0.997834
1.03425 1.04773 0.989333 0.997773
1.02586 1.02846 0.999949 0.997522
1.01295 1.01631 1 0.996693
1.00482 1.00453 1.00377 0.996532
0.999584 1 1.00095 0.998638
1.03178 1.05086 0.984031 0.997778
1.0014 1 1.00347 0.997939
1.00196 1.00201 1.00268 0.997282
1.03146 1.03867 0.995185 0.997864
1.01229 1.01555 1 0.996791
1.00533 1.00574 1.00323 0.996363
0.998986 1 1 0.998986
0.998852 1 1 0.998852
0.998819 1 1 0.998819
0.999315 1 1 0.999315
0.99899 1 1 0.99899
0.99886 1 1 0.99886
0.999298 1 1 0.999298
0.998937 1 1 0.998937
0.998818 1 1 0.998818
0.998815 1 1 0.998815
0.998818 1 1 0.998818
0.99875 1 1 0.99875
0.998806 1 1.00008 0.998729
0.9989 1 1 0.9989
0.999257 1 1 0.999257
0.999762 1 1 0.999762
0.999781 1 1 0.999781
1 1 1 1
0.999796 1 1 0.999796
1 1 1 1
1 1 1 1
1 1 1 1
1 1 1 1
1 1 1 1
0.999907 1 1 0.999907
1 1 1 1
1 1 1 1
1 1 1 1
0.999997 1 1 0.999997
1 1 1 1
1 1 1 1
1.03825 1.04325 0.997566 0.997633
1.03636 1.04507 0.994111 0.997545
1.03798 1.04623 0.994688 0.997413
1.04005 1.04608 0.997006 0.99722
1.03849 1.04697 0.994499 0.997393
1.03948 1.05141 0.99105 0.997581
1.03833 1.04928 0.991859 0.997685
1.03914 1.05163 0.990525 0.997569
1.04526 1.05908 0.989237 0.997695
1.03118 1.05079 0.983363 0.997937
1.03816 1.04655 0.994639 0.997336
1.03477 1.04603 0.991744 0.99747
1.02744 1.03691 0.99324 0.997607
1.00095 1.00344 1.00006 0.997461
1.00311 1.00514 1.00126 0.996717
1.0081 1.01093 1.00078 0.996432
1.03121 1.03729 0.996358 0.997777
1.02287 1.0261 0.999612 0.997242
0.998164 1.0004 1 0.997769
1.00968 1.00057 1.01125 0.997879
1.00483 1 1.00681 0.998031
0.999814 1 1 0.999814
0.999107 1 1.00004 0.999066
1.00078 1 1.00231 0.998469
1.03716 1.04964 0.990564 0.997524
0.999875 1 1 0.999875
0.999426 1 1 0.999426
1.02758 1.04391 0.986748 0.997583
1.02491 1.03757 0.989993 0.997781
1.00081 1.00251 1.00105 0.997244
1.00337 1.00375 1.0033 0.996328
1.00724 1.00989 1.00084 0.996533
1.0203 1.02765 0.99507 0.997766
0.999292 1 1 0.999292
0.998995 1 1.00034 0.998654
0.999014 1.00075 1.0006 0.99767
1.0226 1.00024 1.0243 0.998098
1.00602 1 1.00818 0.997857
1.00161 1 1.00339 0.998224
1.04396 1.05763 0.989392 0.997654
1.01227 1.04214 0.973549 0.997722
1.019 1.03317 0.98829 0.997975
1.00392 1.01189 0.994632 0.997482
1.00176 1.00111 1.00338 0.997274
1.00353 1.00183 1.00547 0.996247
0.999422 1 1 0.999422
0.999403 1 1 0.999403
0.999139 1 1 0.999139
0.998758 1 1 0.998758
0.999573 1 1.00115 0.998428
1.00071 1 1.00279 0.997929
1.03735 1 1.03958 0.997849
1.00212 1.00036 1.00366 0.998113
0.99917 1 1.00035 0.998816
1.00259 1 1.00433 0.998264
1.0355 1.04827 0.990005 0.99779
1.02567 1.02826 1 0.997477
0.999146 1.00013 1.00115 0.997869
1.00342 1.00142 1.00441 0.997592
1.01439 1.01768 1.00004 0.996736
1.00556 1.00574 1.00335 0.996482
0.999738 1 1.00111 0.998626
1.03349 1.05321 0.983421 0.997819
1.00142 1 1.00347 0.997958
1.00163 1.00171 1.00269 0.997234
1.03013 1.03797 0.994596 0.997837
1.01243 1.01562 1 0.996858
1.00556 1.00571 1.00348 0.996379
1.00095 1 1.00264 0.998318
1.01759 1.03668 0.983332 0.998224
1.00173 1.00201 1.00203 0.99769
1.00322 1.00255 1.00379 0.996889
1.01524 1.02214 0.995784 0.99746
1.00207 1.00333 1.00221 0.996546
0.993694 1.0057 0.99002 0.998018
0.998845 1 1 0.998845
0.999032 1 1.00022 0.998815
0.998811 1 1.0001 0.998709
0.999295 1 1 0.999295
0.998941 1 1 0.998941
0.998837 1 1 0.998837
0.998813 1 1 0.998813
0.999256 1 1 0.999256
0.99889 1 1 0.99889
0.998789 1 1 0.998789
0.99875 1 1.00002 0.99873
0.998751 1 1 0.998751
0.998771 1 1 0.998771
0.998862 1 1.00029 0.99857
0.998906 1 1.00019 0.998715
0.998805 1 1 0.998805
0.999158 1 1 0.999158
0.998959 1 1 0.998959
0.999143 1 1 0.999143
0.99975 1 1 0.99975
0.999761 1 1 0.999761
1 1 1 1
0.999779 1 1 0.999779
1 1 1 1
1 1 1 1
1 1 1 1
1 1 1 1
1 1 1 1
0.999927 1 1 0.999927
0.999905 1 1 0.999905
1 1 1 1
1 1 1 1
1 1 1 1
1 1 1 1
1 1 1 1
1 1 1 1
1.03734 1.0487 0.99145 0.997695
1.0395 1.05108 0.991392 0.997571
1.0381 1.0469 0.994167 0.997412
1.03912 1.05155 0.990585 0.997567
1.04329 1.05707 0.989245 0.997692
1.03158 1.05008 0.984467 0.997884
1.04532 1.06161 0.986859 0.997759
0.984217 1.01605 0.971797 0.996781
1.0086 1.03379 0.977051 0.998549
0.999521 1 1 0.999521
1.03711 1.04989 0.99027 0.997536
1.02775 1.04318 0.987599 0.997583
1.02455 1.03761 0.989641 0.997749
0.999546 1.0014 1.00082 0.997334
1.00367 1.00335 1.00402 0.996311
1.00779 1.01084 1.00045 0.99653
1.01894 1.02644 0.994935 0.997744
0.998569 1.00099 1 0.99758
1.01671 1 1.0185 0.998247
1.0042 1 1.00634 0.997866
0.999871 1 1 0.999871
1.00188 1 1.00365 0.998243
0.999362 1 1 0.999362
0.998903 1 1.00026 0.998648
0.999399 1 1 0.999399
1.0416 1.05791 0.98689 0.997662
0.999458 1 1 0.999458
0.999401 1 1 0.999401
0.999101 1 1 0.999101
1.01522 1.04193 0.976589 0.997722
1.01943 1.03374 0.988201 0.997929
1.00036 1.00104 1.00203 0.997297
1.00375 1.00188 1.00556 0.996333
1.00308 1.01006 0.995611 0.997471
0.998801 1 1 0.998801
0.999614 1 1.00123 0.998391
1.00689 1.00022 1.00866 0.998028
1.03028 1 1.03246 0.997886
1.00059 1 1.00264 0.997964
1.02957 1.04939 0.983322 0.997753
1.0062 1.03963 0.969925 0.997853
1.01121 1.02066 0.993061 0.997662
0.995853 1.00402 0.994605 0.997248
1.00324 1 1.0056 0.997659
0.999034 1 1 0.999034
0.998943 1 1 0.998943
0.998897 1 1.00007 0.998826
0.999088 1 1.00055 0.998539
1.00053 1 1.0023 0.998231
1.02554 1 1.02767 0.997922
1.02484 1 1.02703 0.997872
0.99978 1 1.00117 0.998614
1.00143 1 1.00346 0.997977
1.03451 1.05622 0.98155 0.99786
1.0289 1.03758 0.993812 0.997811
1.01226 1.01539 1 0.996926
1.00138 1.00152 1.00268 0.997187
1.00548 1.0055 1.0036 0.996395
1.0009 1 1.00255 0.998359
1.01551 1.03665 0.981327 0.998247
1.00048 1.00134 1.00143 0.997708
1.00272 1.00175 1.00408 0.996897
1.01545 1.02231 0.995722 0.997559
1.00202 1.00277 1.00273 0.996534
0.992958 1.00532 0.990398 0.99728
1.00067 1.00023 1.00227 0.998174
1.00706 1.02058 0.98852 0.998204
1.00056 1.00094 1.00194 0.997683
1.00441 1.00098 1.00644 0.997011
0.995583 1.0058 0.992563 0.997258
0.940555 0.982492 0.975558 0.981301
0.948708 0.979763 0.977521 0.99057
0.982975 0.992609 0.992231 0.998048
0.800681 0.87219 0.946942 0.969448
0.737689 0.854873 0.897273 0.961716
0.999079 1 1.00027 0.998812
0.999168 1 1.00043 0.998742
0.998943 1 1.00021 0.998733
0.999255 1 1 0.999255
0.998879 1 1 0.998879
0.99873 1 1 0.99873
0.998753 1 1 0.998753
0.99876 1 1 0.99876
0.999456 1 1.00077 0.998691
0.999186 1 1 0.999186
0.998822 1 1 0.998822
0.998755 1 1 0.998755
0.99922 1 1.00063 0.99859
1.00063 1 1.00203 0.9986
1.00069 1 1.00207 0.99862
0.999582 1 1.00096 0.998621
0.998767 1 1 0.998767
0.999136 1 1 0.999136
0.998843 1 1 0.998843
0.998786 1 1 0.998786
0.998951 1 1 0.998951
0.998924 1 1 0.998924
0.999232 1 1 0.999232
0.99914 1 1 0.99914
0.999745 1 1 0.999745
0.99975 1 1 0.99975
1 1 1 1
0.999759 1 1 0.999759
1 1 1 1
1 1 1 1
1 1 1 1
1 1 1 1
1 1 1 1
0.999941 1 1 0.999941
0.999924 1 1 0.999924
1 1 1 1
0.999904 1 1 0.999904
1 1 1 1
1 1 1 1
1 1 1 1
1 1 1 1
1 1 1 1
1.04111 1.05488 0.989227 0.99769
1.03913 1.05148 0.990671 0.997565
1.03256 1.0496 0.985905 0.997831
0.98827 1.01587 0.975914 0.996841
1.04258 1.05911 0.986604 0.997757
1.01772 1.03661 0.983312 0.998438
1.03493 1.04473 0.992745 0.997856
0.945136 0.982725 0.971734 0.989725
0.998076 1.01935 0.981638 0.997442
0.999529 1 1 0.999529
0.999519 1 1 0.999519
0.999137 1 1 0.999137
0.999183 1 1 0.999183
1.0396 1.0581 0.98481 0.997669
1.01746 1.04123 0.979401 0.997723
1.01958 1.03405 0.988097 0.997884
0.999249 1.00073 1.0012 0.99732
1.0039 1.00213 1.00536 0.996418
1.00235 1.00875 0.996191 0.99746
1.01237 1 1.01446 0.997941
1.0236 1 1.02573 0.997922
1.00026 1 1.00227 0.997999
0.9994 1 1 0.9994
0.999555 1 1.0012 0.998353
0.998844 1 1 0.998844
0.999494 1 1 0.999494
0.999063 1 1 0.999063
1.02703 1.04903 0.98122 0.997768
0.99908 1 1 0.99908
0.998989 1 1 0.998989
0.998914 1 1 0.998914
1.0094 1.04185 0.970939 0.997851
1.01005 1.02016 0.992409 0.99766
1.0029 1.00005 1.00522 0.997642
0.997081 1.00446 0.995344 0.997296
0.999206 1 1.00069 0.998517
1.00018 1 1.00201 0.99817
1.02801 1.00014 1.03007 0.997861
1.02651 1 1.02869 0.99788
1.0015 1.03685 0.967942 0.997903
1.00022 1.02784 0.975254 0.997816
1.00349 1.00823 0.997936 0.997354
0.990464 1.00035 0.992058 0.99804
0.998701 1 1 0.998701
0.99957 1 1.00093 0.998641
1.00875 1 1.01038 0.998388
1.04318 1 1.04548 0.997803
0.91693 0.971385 0.963592 0.979606
1.0012 1 1.0028 0.9984
0.999434 1.00062 1.00109 0.997726
1.01453 1.03647 0.980528 0.998271
1.01589 1.02273 0.995639 0.997659
1.00231 1.0025 1.0033 0.99652
1.00238 1.00102 1.00447 0.996904
0.99358 1.00531 0.99178 0.996526
1.00043 1.0001 1.00211 0.99822
1.00754 1.02112 0.988483 0.998193
1.00005 1.00092 1.00144 0.997696
1.00424 1.00113 1.00611 0.997009
0.998205 1.0068 0.994171 0.997273
0.939615 0.987143 0.971597 0.979679
0.944121 0.977455 0.977347 0.988285
0.982943 0.990963 0.993828 0.998067
0.800249 0.869828 0.94861 0.969849
0.72249 0.843925 0.893113 0.958565
0.999763 1 1.00135 0.99842
0.82821 0.892769 0.955161 0.971235
0.77998 0.859637 0.941989 0.963214
0.989326 1.00713 0.984191 0.998095
1.00582 1.00097 1.0069 0.997958
1.01219 1.00424 1.01044 0.997496
0.974394 0.986718 0.989237 0.998254
0.934703 0.970331 0.983099 0.979844
0.924383 0.953655 0.981901 0.987172
0.78126 0.871121 0.923708 0.970917
0.798948 0.902858 0.91913 0.962769
0.999702 1 1.00093 0.998775
0.999749 1 1.00104 0.998715
1.00038 1 1.00147 0.998914
0.999215 1 1 0.999215
0.998839 1 1 0.998839
0.999677 1 1.00101 0.998667
0.99971 1 1.0011 0.99861
0.998739 1 1 0.998739
0.999137 1 1 0.999137
1.0003 1 1.00171 0.998593
0.999962 1 1.00133 0.998638
0.998797 1 1 0.998797
1.00031 1 1.00168 0.99863
1.0021 1 1.00351 0.998599
1.00352 1 1.00484 0.998689
0.998687 1 1.00009 0.998597
0.998805 1 1 0.998805
0.99884 1 1 0.99884
0.99878 1 1 0.99878
0.998665 1 1 0.998665
0.999093 1 1.00031 0.998783
0.99907 1 1.00033 0.998743
1.00012 1 1.00153 0.998601
0.999254 1 1.00033 0.99892
0.998996 1 1.00005 0.998951
0.999258 1 1 0.999258
0.998888 1 1 0.998888
0.999208 1 1 0.999208
0.999739 1 1 0.999739
0.999137 1 1 0.999137
0.999746 1 1 0.999746
1 1 1 1
0.99975 1 1 0.99975
1 1 1 1
1 1 1 1
1 1 1 1
1 1 1 1
1 1 1 1
0.999495 1 1 0.999495
0.999942 1 1 0.999942
0.999939 1 1 0.999939
1 1 1 1
0.999921 1 1 0.999921
1 1 1 1
1 1 1 1
1 1 1 1
1 1 1 1
1 1 1 1
0.991369 1.01579 0.978986 0.996906
1.04052 1.05648 0.987103 0.997756
1.02338 1.03937 0.986272 0.998326
0.939424 0.97653 0.970988 0.990745
0.998489 1.01907 0.982189 0.997573
1.03605 1.04799 0.990774 0.997812
1.01365 1.0258 0.990694 0.99744
0.954211 0.977899 0.983873 0.99177
0.939693 0.980262 0.978711 0.979466
0.78881 0.867336 0.937198 0.970406
0.713278 0.822631 0.902211 0.96105
0.999134 1 1 0.999134
0.999527 1 1 0.999527
0.999517 1 1 0.999517
0.999125 1 1 0.999125
0.998893 1 1 0.998893
0.998926 1 1 0.998926
0.999101 1 1 0.999101
0.999153 1 1 0.999153
1.02396 1.04903 0.978272 0.997782
1.01367 1.04514 0.971978 0.997848
1.00917 1.01962 0.992069 0.997659
1.00277 1.00022 1.00493 0.997626
0.998404 1.00452 0.996558 0.997344
1.03046 1 1.03268 0.997849
1.02801 1 1.03024 0.997838
1.00002 1 1.00192 0.998109
0.999034 1 1 0.999034
0.999082 1 1.00059 0.998495
0.999126 1 1 0.999126
0.999002 1 1 0.999002
1.00237 1.03745 0.968215 0.997901
0.998751 1 1.00002 0.99873
0.99906 1 1.00039 0.998676
1.00015 1.02712 0.9759 0.997793
1.00061 1.00772 0.99545 0.997473
0.99283 1.00076 0.994121 0.997944
1.01257 1 1.01432 0.998281
1.03881 1 1.04108 0.997822
0.994938 1.02672 0.971097 0.997887
0.985613 1.00839 0.979519 0.99785
0.985405 1.00095 0.986565 0.997876
0.99744 1.00033 0.998963 0.998145
1.0002 1 1.00177 0.998434
1.00451 1 1.0061 0.998416
1.03783 1 1.03983 0.998081
0.819641 0.900364 0.936336 0.97224
0.933492 0.976792 0.973041 0.982148
0.999818 1 1.00155 0.998267
0.999602 1.00083 1.00107 0.99771
1.00813 1.02175 0.98846 0.998184
1.00054 1.00776 0.995534 0.997288
1.0041 1.0014 1.00571 0.99701
0.934258 0.976887 0.976128 0.979751
0.950361 0.984205 0.976443 0.988909
0.983192 0.989422 0.995617 0.998079
0.799141 0.871461 0.943995 0.971417
0.709888 0.833164 0.89187 0.95534
0.999819 1 1.0014 0.998418
0.823508 0.897269 0.94447 0.971755
0.771415 0.851541 0.942029 0.961654
0.990382 1.00796 0.984441 0.998092
1.00572 1.00116 1.00657 0.997984
1.01038 1.00259 1.01015 0.997649
0.966688 0.980571 0.987442 0.998381
0.93968 0.979322 0.981119 0.977987
0.924818 0.95773 0.976024 0.989356
0.784269 0.866597 0.933638 0.969325
0.79642 0.906022 0.913813 0.961936
1.00139 1 1.00263 0.998764
0.810519 0.870495 0.965024 0.964848
0.883174 0.936484 0.971025 0.971215
0.990114 0.999266 0.992124 0.998707
1.01377 1.0026 1.01248 0.998674
0.976783 0.970912 1.00772 0.998342
0.913791 0.940892 0.980585 0.990426
0.914013 0.945951 0.988694 0.977286
0.793648 0.871399 0.938986 0.969955
0.83265 0.934663 0.922586 0.965607
1.00049 1 1.00179 0.998697
1.00031 1 1.00143 0.998883
1.00395 1 1.00485 0.999111
0.999138 1 1 0.999138
0.998827 1 1 0.998827
1.0005 1 1.00184 0.998654
1.00035 1 1.00177 0.998586
1.00015 1 1.00152 0.998639
0.998804 1 1 0.998804
1.00098 1 1.00238 0.998595
0.998688 1 1.00009 0.998599
1.00447 1 1.00575 0.998733
1.01955 0.999693 1.02076 0.999117
1.00107 1 1.00248 0.998593
0.998562 1 1 0.998562
0.998836 1 1 0.998836
0.998773 1 1 0.998773
0.998689 1 1.00003 0.99866
0.999131 1 1.00036 0.998777
0.999029 1 1.00025 0.998784
1.00009 1 1.00137 0.998713
0.999032 1 1.00037 0.998664
0.999991 1 1.00121 0.998778
0.998757 1 1.00021 0.998545
0.99897 1 1.00093 0.998043
1.00006 1 1.00158 0.998483
1.00007 1 1.00147 0.998599
0.999985 1 1.00114 0.998842
0.999499 1 1.00058 0.998918
0.999248 1 1 0.999248
0.999132 1 1.00018 0.99895
0.999259 1 1 0.999259
0.999736 1 1 0.999736
0.999183 1 1 0.999183
0.99974 1 1 0.99974
1 1 1 1
0.999746 1 1 0.999746
1 1 1 1
1 1 1 1
1 1 1 1
1 1 1 1
1 1 1 1
0.999511 1 1 0.999511
0.999927 1 1 0.999927
0.999496 1 1 0.999496
1 1 1 1
0.999942 1 1 0.999942
0.999936 1 1 0.999936
1 1 1 1
1 1 1 1
1 1 1 1
1 1 1 1
1 1 1 1
0.819834 0.887874 0.951748 0.970181
0.778662 0.858688 0.941223 0.963433
0.941794 0.980902 0.96862 0.991236
0.999881 1.01871 0.983772 0.997706
1.03903 1.05133 0.990512 0.997769
0.938 0.964644 0.9791 0.993137
1.01241 1.02521 0.989956 0.997537
0.947967 0.989278 0.97707 0.98073
0.796236 0.871701 0.942038 0.96963
0.708497 0.826446 0.895003 0.957854
0.968456 0.996411 0.976941 0.994885
0.937892 0.973419 0.982798 0.980366
0.77594 0.867964 0.921358 0.970281
0.784773 0.892985 0.91415 0.961353
0.999111 1 1.00034 0.998776
0.999161 1 1 0.999161
0.999526 1 1 0.999526
0.999112 1 1 0.999112
0.998935 1 1 0.998935
0.999273 1 1.0005 0.998777
0.998915 1 1 0.998915
0.998881 1 1 0.998881
0.999068 1 1 0.999068
0.999122 1 1 0.999122
1.0038 1.03757 0.969492 0.9979
0.998056 1.02513 0.975765 0.997772
0.997817 1.00761 0.99267 0.997594
0.994646 1.00099 0.995807 0.997848
1.03376 1.00028 1.03572 0.99784
1.01727 1 1.01913 0.998174
0.998711 1 1 0.998711
0.998759 1 1 0.998759
0.994926 1.02701 0.970778 0.997924
1.00091 1 1.0025 0.99841
1.00464 1 1.00627 0.99838
0.984832 1.00677 0.980395 0.997772
0.983698 1.00045 0.985246 0.997975
0.998975 1.00105 0.999874 0.998053
1.03346 1 1.03548 0.998049
0.992106 1.0043 0.989622 0.998221
0.979493 1 0.980843 0.998623
1.0146 1.00052 1.01586 0.998243
1.00418 1 1.0058 0.998383
1.00354 1 1.00531 0.998245
1.02061 1 1.02248 0.998173
0.827608 0.882665 0.966854 0.969768
0.829697 0.899477 0.948835 0.972162
0.922892 0.97434 0.966851 0.979672
0.999804 1 1.00139 0.998415
1.00556 1.0012 1.00635 0.99801
0.992355 1.00862 0.985758 0.998089
1.00895 1.00105 1.01011 0.997799
0.816067 0.891966 0.941093 0.972176
0.937969 0.976307 0.980518 0.97982
0.916059 0.954153 0.972458 0.987268
0.962906 0.975775 0.988286 0.998508
0.783187 0.866172 0.933864 0.968229
0.773229 0.855436 0.939704 0.961899
0.7842 0.896066 0.908837 0.962943
1.00203 1 1.00327 0.998767
0.811943 0.873895 0.961382 0.96643
0.891505 0.943463 0.973091 0.971059
0.991788 0.999167 0.99381 0.998797
1.01351 1.00122 1.01365 0.998643
0.973738 0.969551 1.0058 0.998527
0.912293 0.943965 0.97783 0.988359
0.918124 0.950647 0.986353 0.979151
0.812389 0.890991 0.940779 0.969177
0.819865 0.922952 0.919036 0.966564
1.00569 0.999663 1.00659 0.999441
0.896974 0.945411 0.972429 0.975667
0.871751 0.933776 0.957233 0.975285
0.995619 0.981784 1.01438 0.999715
0.934594 0.941301 0.99919 0.99368
0.923378 0.943212 1.00079 0.978198
0.849594 0.911154 0.962854 0.96841
0.846354 0.952639 0.920024 0.965661
1.00006 1 1.00121 0.998852
1.00348 1 1.00437 0.999113
1.01941 0.999964 1.02011 0.999354
0.998803 1 1 0.998803
0.998639 1 1.00004 0.9986
0.999631 1 1.00104 0.998591
1.00527 1 1.0065 0.998777
0.998561 1 1 0.998561
1.00148 1 1.0029 0.998585
1.02298 0.999966 1.02385 0.999184
1.03469 0.997167 1.03821 0.999446
1.02344 1 1.02439 0.999068
0.998557 1 1 0.998557
0.9987 1 1.00005 0.998655
0.998978 1 1.00021 0.99877
0.998823 1 1 0.998823
0.998824 1 1.00015 0.998679
0.99981 1 1.0011 0.998714
1.00029 1 1.00151 0.998789
0.999688 1 1.00101 0.998679
1.00405 1 1.00505 0.999008
0.998621 1 1 0.998621
0.998988 1.00013 1.00029 0.998573
0.998912 1 1.00069 0.998218
0.998978 1 1.00153 0.997456
1.00086 1 1.00247 0.998394
0.998965 1 1.00079 0.998174
0.999923 1 1.00141 0.998512
1.00024 1 1.00154 0.998701
0.999932 1 1.00134 0.998596
0.999722 1 1.00088 0.998841
0.999186 1 1 0.999186
0.999498 1 1.00058 0.998915
0.999246 1 1 0.999246
0.999729 1 1 0.999729
0.999259 1 1 0.999259
0.999736 1 1 0.999736
0.999999 1 1 0.999999
0.999742 1 1 0.999742
1 1 1 1
1 1 1 1
1 1 1 1
1 1 1 1
1 1 1 1
0.999331 1 1 0.999331
0.999901 1 1 0.999901
0.999449 1 1 0.999449
1 1 1 1
0.999931 1 1 0.999931
0.999497 1 1 0.999497
1 1 1 1
1 1 1 1
0.999943 1 1 0.999943
1 1 1 1
1 1 1 1
1 1 1 1
0.809776 0.872134 0.960012 0.967175
0.824786 0.895316 0.948936 0.970796
0.888972 0.943922 0.970117 0.970796
0.771938 0.853439 0.939908 0.962332
0.937231 0.971671 0.973359 0.990956
1.0101 1.0246 0.988175 0.997641
0.954966 0.988738 0.983677 0.981871
0.802263 0.875465 0.944081 0.970664
0.708397 0.833815 0.88998 0.954611
0.966784 0.992729 0.979637 0.994108
0.934468 0.973889 0.98165 0.977458
0.788429 0.876201 0.928737 0.968871
0.786909 0.897505 0.913414 0.959886
0.947955 0.980512 0.974134 0.992467
0.926149 0.950211 0.997719 0.976906
0.813102 0.896186 0.937266 0.96802
0.826756 0.934091 0.918755 0.96336
0.999979 1 1.00141 0.998566
0.998829 1 1.00001 0.998815
0.999188 1 1 0.999188
0.998977 1 1 0.998977
0.998672 1 1.00015 0.998519
0.998886 1 1.00008 0.998809
0.998905 1 1 0.998905
0.998846 1 1 0.998846
0.998914 1 1 0.998914
0.999034 1 1 0.999034
0.996314 1.02824 0.97093 0.997961
0.986638 1.00608 0.982937 0.997696
0.982439 1.00033 0.984009 0.998074
1.00184 1.00202 1.00185 0.997964
1.02782 1 1.02986 0.998016
1.00386 1 1.00552 0.998344
1.00121 1 1.00283 0.998387
1.00339 1 1.00504 0.998359
0.988583 1.00482 0.985591 0.998227
1.00269 1 1.00445 0.998245
1.02048 1 1.02235 0.998164
0.978839 1.00039 0.979864 0.998562
1.01343 1.00133 1.0139 0.998209
0.961525 0.987909 0.974566 0.998694
0.997418 0.996688 1.0015 0.999237
1.03302 0.999968 1.03465 0.998458
1.00155 1 1.0033 0.998258
1.00984 1 1.01167 0.998192
0.903456 0.946813 0.975623 0.978048
0.831444 0.882695 0.971514 0.969557
0.819215 0.893754 0.943711 0.971272
1.0026 1 1.00383 0.998769
1.01322 0.999887 1.01474 0.998611
0.991099 0.998636 0.993563 0.998883
0.818603 0.87836 0.963492 0.967281
0.92648 0.949801 0.998356 0.977054
0.91286 0.942272 0.978823 0.989746
0.963519 0.965137 0.999633 0.998689
0.812292 0.890327 0.940452 0.970121
0.897559 0.947842 0.975303 0.970929
0.823195 0.925758 0.91987 0.966672
1.00431 0.99921 1.0057 0.999409
0.893524 0.943659 0.969354 0.976807
0.872984 0.934921 0.9574 0.9753
0.998261 0.985383 1.01351 0.999562
0.943761 0.948677 1.00148 0.99335
0.905485 0.937752 0.989205 0.976128
0.848743 0.953577 0.920883 0.966531
0.857794 0.91634 0.966151 0.968905
1.00508 0.988472 1.0171 0.999711
0.875412 0.929277 0.958498 0.982825
0.887375 0.95045 0.956247 0.976355
0.827654 0.934079 0.919635 0.963495
0.978242 0.965768 1.01461 0.998333
0.947514 0.95721 1.01094 0.97916
0.883397 0.931822 0.97769 0.969665
1.00343 1 1.00432 0.999113
1.01957 0.999991 1.02032 0.999275
1.02059 0.991702 1.02958 0.999566
0.998559 1 1 0.998559
1.00176 1 1.00319 0.998578
1.0274 1 1.02817 0.999251
0.998566 1 1 0.998566
1.02245 1 1.02339 0.999079
1.03666 0.997178 1.0402 0.999421
1.02372 0.995668 1.0287 0.999489
1.01645 1 1.01741 0.999061
0.998753 1 1.00006 0.998695
0.999774 1 1.00106 0.998714
1.00068 1 1.00188 0.998801
1.00319 1 1.00421 0.998984
0.999386 1 1.0007 0.998684
1.00186 1 1.00294 0.998922
0.998825 1 1 0.998825
1.00099 1 1.00306 0.997936
0.999196 1.00026 1.00033 0.998603
0.998902 1.00018 1.00057 0.998159
0.998267 1 1.00101 0.997257
1.00354 1.00496 1.00129 0.997306
1.00077 1 1.00265 0.99812
0.998961 1.00009 1.00138 0.997489
1.00267 1 1.00413 0.998546
1.00127 1 1.0029 0.998369
0.99895 1 1.00065 0.998306
0.99982 1 1.00128 0.99854
1.00005 1 1.00132 0.998735
0.999094 1 1 0.999094
0.999629 1 1.00079 0.998839
0.999186 1 1 0.999186
0.999699 1 1 0.999699
0.999244 1 1 0.999244
0.999727 1 1 0.999727
0.999998 1 1 0.999998
0.999737 1 1 0.999737
0.999999 1 1 0.999999
1 1 1 1
0.999999 1 1 0.999999
1 1 1 1
1 1 1 1
0.999137 1 1 0.999137
0.999755 1 1 0.999755
0.99933 1 1 0.99933
1 1 1 1
0.999861 1 1 0.999861
0.999388 1 1 0.999388
1 1 1 1
1 1 1 1
0.999935 1 1 0.999935
1 1 1 1
1 1 1 1
1 1 1 1
0.890662 0.944176 0.966104 0.976418
0.802616 0.870837 0.952199 0.967928
0.823217 0.891757 0.951145 0.970557
0.998732 1 1 0.998732
0.875855 0.931039 0.962986 0.976888
0.887842 0.943611 0.969308 0.970691
0.770992 0.8574 0.933639 0.963136
0.97242 0.994823 0.984242 0.99313
0.934723 0.970194 0.983189 0.979912
0.795009 0.888213 0.924908 0.967734
0.781608 0.888477 0.916021 0.960368
0.947435 0.979112 0.977527 0.989893
0.915467 0.946591 0.987821 0.979043
0.824104 0.900675 0.945008 0.96823
0.823931 0.928638 0.920861 0.963497
0.918397 0.950747 0.978149 0.987552
0.919614 0.938017 1.00364 0.976827
0.868048 0.925938 0.967554 0.968917
0.846651 0.951526 0.921453 0.96563
0.999938 1 1.00158 0.998356
1.00067 1 1.00214 0.998531
0.998854 1 1 0.998854
0.998537 1 1 0.998537
0.998818 1 1.00025 0.99857
0.998841 1 1 0.998841
0.998854 1 1 0.998854
0.998946 1 1 0.998946
0.983408 1.00531 0.979946 0.998231
0.976688 1.00021 0.977948 0.998505
1.00289 1 1.00456 0.998336
1.01284 1.00215 1.01252 0.998174
1.02222 1 1.02411 0.998155
1.00244 1 1.0042 0.998246
1.00186 1 1.00361 0.998265
0.967773 0.990368 0.978402 0.998757
1.01107 1 1.01286 0.99823
1.02592 1.00032 1.02716 0.998475
0.992474 0.996528 0.996647 0.999283
1.00096 1 1.00263 0.998326
0.959664 0.978214 0.982228 0.998788
1.00655 0.992646 1.01456 0.999454
1.04565 0.998985 1.04822 0.998565
1.00232 1 1.00395 0.998375
0.8874 0.932605 0.966491 0.984518
0.902436 0.946181 0.975091 0.978132
0.836674 0.882818 0.977701 0.969345
1.00241 0.998652 1.00439 0.999381
1.00242 0.989031 1.01414 0.999414
0.891458 0.943104 0.96657 0.97793
0.930874 0.942057 1.00952 0.978806
0.935722 0.946441 0.998109 0.990549
0.86055 0.91952 0.966946 0.96786
0.873836 0.935851 0.957374 0.975308
0.852225 0.95541 0.922059 0.9674
1.00752 0.992485 1.01548 0.999669
0.876698 0.93008 0.959094 0.982808
0.88561 0.948451 0.954745 0.978003
0.987866 0.972594 1.01607 0.999642
0.824127 0.928376 0.921266 0.963574
0.929724 0.943545 1.00771 0.977811
0.892583 0.942487 0.977201 0.969146
1.00713 0.986801 1.02084 0.999769
0.893584 0.946104 0.959542 0.984312
0.874917 0.930285 0.962611 0.977012
0.783427 0.892525 0.912916 0.961496
0.867771 0.927024 0.966501 0.968527
0.962826 0.960711 1.00558 0.99664
0.949605 0.951008 1.02403 0.975094
1.01693 1 1.01774 0.999198
1.02106 0.992005 1.02977 0.999534
1.0065 0.980641 1.0268 0.999582
0.998575 1 1 0.998575
1.02215 1 1.02308 0.999091
1.03723 0.998282 1.03964 0.999396
1.01205 1 1.01302 0.999047
1.02333 0.996692 1.02725 0.999488
1.01148 0.99453 1.01781 0.999241
1.00213 1 1.00317 0.99896
0.999133 1 1.00045 0.998688
1.00325 1 1.00436 0.998899
1.00681 1 1.00851 0.998311
0.999028 1 1 0.999028
1.00033 1 1.00225 0.998081
1.00163 1.00041 1.00413 0.997104
1.00331 1.00476 1.00188 0.99669
0.998878 1.00038 1.0004 0.998098
0.99868 1.00047 1.00109 0.997116
1.00489 1.00699 1.00053 0.997399
1.00239 1.00201 1.00261 0.997774
1.00357 1.00495 1.00125 0.997375
1.00486 1 1.0065 0.998364
1.00137 1.00028 1.00299 0.998107
0.998869 1.00007 1.00128 0.997522
0.999197 1 1.00026 0.998941
1.00248 1 1.00394 0.998548
1.00176 1 1.00342 0.998343
0.999854 1 1.00109 0.998768
0.999092 1 1 0.999092
0.999638 1 1 0.999638
0.999185 1 1 0.999185
0.999695 1 1 0.999695
0.999997 1 1 0.999997
0.999725 1 1 0.999725
0.999998 1 1 0.999998
1 1 1 1
0.999998 1 1 0.999998
1 1 1 1
1 1 1 1
0.999057 1 1 0.999057
0.999648 1 1 0.999648
0.999173 1 1 0.999173
1 1 1 1
0.999745 1 1 0.999745
0.999328 1 1 0.999328
1 1 1 1
1 1 1 1
0.999821 1 1 0.999821
1 1 1 1
1 1 1 1
1 1 1 1
0.879526 0.930956 0.960962 0.983136
0.893486 0.943992 0.969374 0.9764
0.802627 0.871587 0.951255 0.968068
0.998756 1 1 0.998756
0.998693 1 1 0.998693
0.998598 1 1 0.998598
0.885339 0.950825 0.953801 0.976228
0.873113 0.930622 0.96038 0.97691
0.888289 0.943369 0.970147 0.970588
0.951937 0.982059 0.977414 0.991728
0.911456 0.945468 0.98689 0.976832
0.813193 0.884768 0.947529 0.97
0.836534 0.937122 0.92719 0.962761
0.922823 0.95336 0.977872 0.989873
0.919013 0.938884 1.00139 0.977477
0.849245 0.904939 0.967478 0.970002
0.847761 0.953066 0.920374 0.966465
0.912032 0.942526 0.979279 0.988121
0.933828 0.946166 1.0089 0.978248
0.883707 0.929961 0.979783 0.96987
0.834983 0.93571 0.924227 0.965511
0.998459 1 1.0001 0.998361
1.00039 1 1.00205 0.998339
1.00053 1 1.00203 0.998495
0.99853 1 1 0.99853
0.998622 1 1 0.998622
0.998862 1 1 0.998862
0.974417 0.992302 0.983152 0.998804
0.987653 0.996612 0.991685 0.99932
1.00209 1 1.00383 0.998272
1.01882 1.00056 1.01979 0.998493
1.01235 1 1.0141 0.998268
1.00134 1 1.00305 0.998299
1.0016 1 1.0032 0.998398
0.967811 0.979697 0.988992 0.998863
1.04075 0.999171 1.04297 0.998693
1.00818 0.988618 1.02036 0.999439
1.00124 1 1.00271 0.998526
0.981015 0.967809 1.01483 0.998832
1.00723 0.98407 1.02406 0.999486
1.03208 0.998338 1.03502 0.998818
0.906725 0.950216 0.967592 0.986191
0.887576 0.932741 0.966093 0.984975
0.901806 0.945552 0.974977 0.978212
1.01149 0.997045 1.01486 0.999627
0.978952 0.97126 1.00913 0.998803
0.87831 0.931079 0.959842 0.982791
0.925581 0.93346 1.01009 0.981649
0.888481 0.939479 0.976105 0.968867
0.885084 0.94679 0.954244 0.979651
0.837726 0.937207 0.928294 0.9629
1.00308 0.984404 1.01919 0.999787
0.894772 0.946329 0.960034 0.984881
0.874089 0.931016 0.960923 0.977035
0.960984 0.957402 1.01041 0.9934
0.785721 0.89681 0.912543 0.960097
0.846164 0.905899 0.963409 0.969536
0.958672 0.955037 1.02619 0.97819
1.00049 0.967547 1.03479 0.999288
0.880368 0.931238 0.961483 0.983246
0.892756 0.946697 0.97116 0.971026
0.711741 0.820382 0.902382 0.961426
0.811008 0.894423 0.936694 0.968019
0.9321 0.943857 1.01007 0.977701
0.940161 0.952921 0.995306 0.991262
1.02413 0.992622 1.03225 0.999501
1.00998 0.986247 1.02449 0.999586
1.01432 0.991715 1.02327 0.999528
1.00777 1 1.00875 0.999032
1.0231 0.997446 1.02624 0.999487
1.01388 0.993412 1.0213 0.999321
1.00979 1 1.01098 0.998816
1.00471 1 1.00585 0.998875
1.00667 1 1.00851 0.998178
1.01501 1.00047 1.01745 0.99713
0.999672 1 1.00145 0.998229
1.00304 1.00089 1.00509 0.997075
1.00463 1.0024 1.00596 0.996286
1.00371 1.00556 1.00191 0.996261
1.00281 1.00472 1.00108 0.997019
1.00308 1.00456 1.00189 0.996642
0.999021 1.00081 1.00124 0.996974
1.00123 1.00249 1.0011 0.997642
1.00479 1.00684 1.00048 0.997488
1.00255 1 1.00453 0.998022
1.00286 1.0023 1.00274 0.997825
1.00378 1.00518 1.00117 0.997444
1.00285 1 1.00417 0.998684
1.00394 1 1.00559 0.998364
1.00198 1.00067 1.00323 0.998094
0.999542 1 1 0.999542
0.999453 1 1.00051 0.998939
1.00213 1 1.00359 0.998551
0.999091 1 1 0.999091
0.999634 1 1 0.999634
0.999992 1 1 0.999992
0.999692 1 1 0.999692
0.999995 1 1 0.999995
1 1 1 1
0.999998 1 1 0.999998
1 1 1 1
1 1 1 1
0.999036 1 1 0.999036
0.999643 1 1 0.999643
0.999081 1 1 0.999081
1 1 1 1
0.999686 1 1 0.999686
0.99921 1 1 0.99921
1 1 1 1
1 1 1 1
0.999734 1 1 0.999734
1 1 1 1
1 1 1 1
1 1 1 1
0.893348 0.945884 0.959601 0.98422
0.880399 0.931591 0.961272 0.983124
0.894266 0.943559 0.970664 0.976402
0.998815 1 1.00018 0.998632
0.998622 1 1.00013 0.998495
0.998781 1 1 0.998781
0.998686 1 1 0.998686
0.998581 1 1 0.998581
0.998578 1 1 0.998578
0.998497 1 1 0.998497
0.869995 0.934506 0.954736 0.975105
0.885696 0.948483 0.954916 0.977891
0.870279 0.929747 0.958139 0.976934
0.849286 0.954788 0.919566 0.967305
0.912719 0.944742 0.978014 0.987823
0.919422 0.937124 1.00295 0.978228
0.856885 0.912438 0.968224 0.969936
0.904472 0.941567 0.972965 0.987294
0.928153 0.938676 1.0129 0.976199
0.893734 0.943201 0.977149 0.969713
0.820277 0.923525 0.919003 0.966484
0.918633 0.94452 0.982866 0.989548
0.939326 0.947626 1.01582 0.975801
0.853558 0.914761 0.963245 0.968698
0.798547 0.903682 0.918118 0.962467
1.00445 1 1.00594 0.998523
0.998829 1 1.00046 0.998367
1.00109 1 1.00277 0.998321
0.998523 1 1 0.998523
0.973408 0.979066 0.995261 0.998955
1.00908 0.985311 1.02471 0.999421
1.00051 1 1.00224 0.998273
1.00132 1 1.00291 0.99842
1.03374 0.998709 1.0363 0.998821
1.00072 1 1.0022 0.998519
1.03253 0.997467 1.03639 0.998804
0.978648 0.966379 1.01485 0.997882
1.00798 0.978786 1.03022 0.999611
1.01283 0.99576 1.01824 0.998928
0.968815 0.950903 1.02122 0.997663
1.02322 0.983333 1.0413 0.999296
0.888033 0.932518 0.967216 0.984574
0.903856 0.949185 0.964883 0.986901
0.887116 0.932579 0.965315 0.98543
0.997403 0.980445 1.0175 0.999805
0.966832 0.961857 1.00832 0.996882
0.894404 0.945747 0.95967 0.985455
0.955516 0.957466 1.02294 0.975581
0.849682 0.909255 0.963935 0.969445
0.871864 0.931563 0.95789 0.977059
0.781266 0.887658 0.916268 0.960573
1.00372 0.970664 1.03465 0.99942
0.88008 0.932118 0.960271 0.983236
0.889518 0.94473 0.969758 0.97092
0.942459 0.952439 0.995877 0.993618
0.708073 0.825141 0.895488 0.958273
0.818655 0.896475 0.943324 0.968059
0.929932 0.938981 1.01414 0.976555
0.99942 0.97518 1.02668 0.998229
0.891335 0.944763 0.966004 0.976651
0.779294 0.858534 0.941763 0.963835
0.777368 0.868693 0.921938 0.970641
0.91429 0.931877 1.00303 0.978164
0.914357 0.940144 0.983985 0.988401
1.01174 0.989866 1.02252 0.99959
1.01439 0.989403 1.02574 0.999522
0.995684 0.989782 1.00662 0.999347
1.01615 0.992258 1.02469 0.999402
1.00856 0.995803 1.01393 0.998896
1.00247 1.0008 1.00378 0.997899
1.00689 1 1.00886 0.998044
1.01406 1.00043 1.01661 0.997064
1.00887 1.00036 1.01222 0.996333
1.00468 1.00161 1.00604 0.997046
1.00505 1.00223 1.00664 0.9962
1.00253 1.00213 1.00445 0.995963
1.01061 1.01432 1 0.996346
1.00773 1.0105 1.00077 0.996494
1.00426 1.00589 1.00218 0.996206
1.00091 1.00351 1.00013 0.99729
1.00211 1.0043 1.00074 0.997082
1.00289 1.00441 1.0019 0.996594
0.999147 1.00037 1.00112 0.997665
1.00148 1.00278 1.00108 0.997627
1.00447 1.00649 1.00043 0.997576
1.00407 1 1.00574 0.998344
1.00243 1 1.00436 0.998076
1.00316 1.00241 1.00288 0.997876
0.999566 1 1.00022 0.999344
1.00237 1 1.00369 0.998686
1.00324 1 1.00488 0.998365
0.999983 1 1 0.999983
0.999535 1 1 0.999535
0.999742 1 1.0008 0.998938
0.999629 1 1 0.999629
0.99999 1 1 0.99999
1 1 1 1
0.999994 1 1 0.999994
1 1 1 1
1 1 1 1
0.999314 1 1.0007 0.998617
0.998944 1 1 0.998944
0.99956 1 1 0.99956
0.999033 1 1 0.999033
0.999996 1 1 0.999996
0.999646 1 1 0.999646
0.999104 1 1 0.999104
1 1 1 1
1 1 1 1
0.999723 1 1 0.999723
1 1 1 1
1 1 1 1
1 1 1 1
0.874226 0.929181 0.957384 0.982737
0.893236 0.945549 0.959256 0.9848
0.881363 0.932744 0.961149 0.983108
0.998751 1 1.00011 0.998644
0.998989 1 1.0005 0.998487
0.998757 1 1.00027 0.998484
0.998545 1 1.00005 0.998494
1.00153 1 1.00312 0.998422
0.99868 1 1 0.99868
0.998565 1 1 0.998565
0.99858 1 1 0.99858
0.998501 1 1 0.998501
1.00281 1 1.00427 0.998547
0.883347 0.937083 0.970864 0.970945
0.872537 0.935572 0.956402 0.975139
0.887026 0.94735 0.955872 0.979549
0.821365 0.925682 0.917961 0.966607
0.889439 0.938201 0.978233 0.969121
0.896876 0.937266 0.970368 0.986128
0.935595 0.946261 1.01101 0.977964
0.917901 0.947618 0.981388 0.987012
0.950506 0.956664 1.01598 0.977933
0.860373 0.917195 0.967496 0.969562
0.797186 0.907428 0.913639 0.961553
0.932891 0.946224 0.996968 0.988908
0.936891 0.945571 1.01262 0.978474
0.794654 0.873175 0.938579 0.969629
0.739326 0.855803 0.899054 0.960897
1.00562 1 1.00659 0.999028
1.00551 1 1.007 0.998522
0.999795 1 1.00143 0.998373
0.980097 0.969129 1.01446 0.996906
1.01133 0.97518 1.03734 0.999742
1.00067 1 1.00216 0.998512
1.03368 0.996636 1.03842 0.998791
1.01399 0.997745 1.01736 0.998936
1.02692 0.987876 1.04026 0.999285
0.97226 0.95613 1.01925 0.997662
1.01853 0.996037 1.02325 0.999345
0.981201 0.968059 1.01591 0.997705
0.902521 0.946742 0.974903 0.977833
0.888506 0.932832 0.966966 0.985022
0.901241 0.948197 0.962401 0.987611
1.0083 0.975732 1.03386 0.999537
0.942551 0.954281 0.997744 0.989942
0.881844 0.933048 0.96125 0.983221
0.934138 0.947778 1.01029 0.975567
0.80749 0.879892 0.946261 0.969833
0.887779 0.942784 0.969959 0.970822
0.70872 0.833193 0.89062 0.955072
0.998909 0.974055 1.02717 0.99839
0.893559 0.944238 0.968971 0.976632
0.772605 0.853846 0.939867 0.962746
0.918261 0.944842 0.982017 0.989664
0.789337 0.876363 0.929323 0.969197
0.902849 0.931667 0.992395 0.976495
0.967332 0.967653 1.00257 0.997103
0.810066 0.872969 0.959071 0.967545
0.789653 0.867382 0.937756 0.970814
0.924321 0.950764 0.995095 0.976979
0.898484 0.936268 0.969041 0.990303
1.01393 0.987613 1.02714 0.999515
0.999504 0.988986 1.01132 0.99932
0.999427 0.998663 1.00222 0.998552
1.00726 0.991276 1.01716 0.998974
1.00215 1.00093 1.00323 0.997988
0.998949 1.00199 0.999764 0.997205
1.01267 1.00032 1.01539 0.996998
1.0072 1.00052 1.01037 0.996344
0.9994 1.00156 1.00137 0.996477
1.00502 1.00195 1.00697 0.996115
1.0027 1.00303 1.0037 0.995991
1.01054 1.01405 1 0.996534
1.02653 1.02982 1 0.996803
1.01778 1.02143 1.00002 0.996407
1.01027 1.01395 1 0.99637
1.00707 1.01034 1 0.99677
1.00597 1.00848 1.00107 0.996445
1.0049 1.00633 1.00244 0.996151
1.00033 1.00289 1 0.997446
0.999933 1.00255 1.00002 0.997363
1.00136 1.00391 1.00032 0.997145
1.00008 1 1.00207 0.998012
0.999809 1.00082 1.0013 0.997698
1.00181 1.00311 1.0011 0.997613
1.00221 1 1.00322 0.998993
1.00371 1 1.00537 0.998346
1.00227 1 1.00415 0.99813
0.999962 1 1 0.999962
0.999946 1 1.00061 0.999336
1.00194 1 1.00325 0.998689
1 1 1 1
0.999978 1 1 0.999978
0.999527 1 1 0.999527
0.999988 1 1 0.999988
1 1 1 1
1 1 1 1
0.999703 1 1.00117 0.998537
0.99897 1 1.00013 0.998843
0.99928 1 1.00068 0.998602
0.999483 1 1 0.999483
0.998943 1 1 0.998943
0.999984 1 1 0.999984
0.999563 1 1 0.999563
0.99903 1 1 0.99903
1 1 1 1
0.999998 1 1 0.999998
0.99965 1 1 0.99965
1 1 1 1
1 1 1 1
1 1 1 1
0.893351 0.945788 0.965647 0.97816
0.876049 0.930274 0.958266 0.982725
0.893085 0.944539 0.959551 0.985382
0.998569 1 1.00007 0.998501
0.998823 1 1.00017 0.998656
0.999045 1 1.00057 0.998479
0.998659 1 1.00016 0.998502
0.998618 1 1.00011 0.998503
1.0005 1 1.00204 0.998459
1.00548 1 1.00723 0.998262
1.0061 1 1.00769 0.99842
0.998581 1 1 0.998581
0.998504 1 1 0.998504
1.00264 1 1.00411 0.998536
1.00942 1 1.0107 0.998741
0.780592 0.860075 0.942686 0.962766
0.891377 0.944229 0.972429 0.970792
0.874 0.935631 0.957919 0.975165
0.787151 0.899097 0.90954 0.962564
0.866025 0.924416 0.966933 0.968872
0.940896 0.948474 1.01655 0.975861
0.920974 0.943986 0.987733 0.987739
0.930778 0.943442 0.995721 0.990817
0.724777 0.84574 0.894682 0.957854
0.931431 0.941211 1.01363 0.976305
0.810774 0.890407 0.939941 0.968749
0.927719 0.947277 0.987766 0.991483
0.922837 0.939691 1.00278 0.979339
0.7804 0.872196 0.922923 0.969477
1.00058 1 1.00102 0.999553
1.00553 1 1.00651 0.999034
1.00607 1 1.00756 0.998521
0.968646 0.952844 1.01893 0.997694
1.03056 0.992459 1.03914 0.999273
1.01479 0.999033 1.01685 0.998944
1.01865 0.997396 1.02198 0.999344
0.979295 0.967922 1.01403 0.997754
0.996187 0.988952 1.0089 0.99843
0.830052 0.883555 0.971126 0.967377
0.900152 0.94589 0.971698 0.979363
0.887451 0.932683 0.965533 0.985469
0.999159 0.972427 1.02902 0.998513
0.910108 0.94128 0.976171 0.990485
0.893144 0.943647 0.96913 0.97663
0.908724 0.927131 1.00226 0.977939
0.798359 0.890356 0.926198 0.968123
0.771218 0.857451 0.933461 0.963544
0.968797 0.96673 1.00498 0.997171
0.802713 0.871313 0.951445 0.968283
0.797362 0.872144 0.942462 0.970071
0.902218 0.937764 0.974165 0.98761
0.915669 0.9497 0.984787 0.979061
0.958781 0.976444 0.983331 0.998556
0.817251 0.886167 0.950276 0.970488
0.93914 0.975747 0.981943 0.980182
0.915098 0.951653 0.973865 0.987393
1.00349 0.988212 1.01618 0.999296
0.990938 0.997631 0.994628 0.998656
0.993616 1.0024 0.993366 0.997858
1.00236 1.0011 1.00318 0.998076
1.00173 1.00242 1.00213 0.997191
1.00022 1.00352 0.999428 0.99728
1.00592 1.00075 1.00884 0.996356
0.999318 1.00117 1.00167 0.99649
1.0166 1.01954 0.9999 0.997214
1.00314 1.00395 1.00319 0.996019
1.00975 1.01325 1 0.996544
1.02652 1.02928 1 0.997312
1.03063 1.03339 1 0.997329
1.02917 1.03255 1 0.996725
1.026 1.02925 1 0.99684
1.01797 1.02142 1 0.996619
1.01664 1.02025 1 0.996456
1.00965 1.0133 1 0.996393
1.00764 1.01053 1 0.997141
1.00702 1.01012 1.00014 0.996798
1.00427 1.00641 1.00148 0.996396
0.998462 1.00072 1 0.99774
1.00129 1.00387 1 0.99744
0.998893 1.00146 1 0.997435
1.00187 1 1.00326 0.998613
1.00027 1.0002 1.00207 0.998012
1.00041 1.00124 1.00145 0.997732
0.999892 1 1 0.999892
1.00192 1 1.00293 0.998989
1.00305 1 1.0047 0.998348
1 1 1 1
0.999951 1 1 0.999951
1.00026 1 1.00093 0.999328
1 1 1 1
0.999974 1 1 0.999974
1 1 1 1
0.999047 1 1.00057 0.998477
0.999745 1 1.00122 0.998531
0.999824 1 1.0011 0.998725
0.999404 1 1 0.999404
0.998939 1 1.0001 0.998842
0.999041 1 1.00045 0.998587
0.999967 1 1 0.999967
0.999486 1 1 0.999486
0.998942 1 1 0.998942
1 1 1 1
0.999988 1 1 0.999988
0.999566 1 1 0.999566
1 1 1 1
1 1 1 1
1 1 1 1
0.809801 0.870156 0.964275 0.965117
0.892245 0.944581 0.965682 0.978162
0.878483 0.931919 0.959243 0.982712
0.999535 1 1.00105 0.998483
1.00063 1.00034 1.00196 0.998334
1.00381 1 1.00545 0.998368
0.999034 1 1.00053 0.99851
0.99859 1 1.00007 0.998522
1.00051 1 1.00202 0.998496
1.00562 1 1.00723 0.998405
1.00504 1 1.00677 0.99828
1.00681 1 1.00865 0.998174
0.995195 1 0.996195 0.998996
1.00187 1 1.00335 0.998525
1.00722 1 1.00852 0.998709
0.795155 0.868487 0.945118 0.96873
0.770812 0.85084 0.942532 0.96118
0.897504 0.949012 0.9743 0.970671
0.71167 0.834347 0.893393 0.954749
0.811111 0.888779 0.941133 0.969696
0.925201 0.940166 1.00569 0.978514
0.937509 0.948543 0.999871 0.988496
0.922215 0.944063 0.987199 0.989524
0.782785 0.865317 0.934045 0.968499
0.909705 0.932505 0.997667 0.977831
0.915248 0.948168 0.974616 0.990421
0.910517 0.950042 0.980545 0.977412
1.00632 1 1.00731 0.999021
1.00011 1 1.00062 0.999492
1.00529 1 1.00625 0.999039
0.978683 0.969036 1.01218 0.997798
1.01861 0.998697 1.02061 0.999344
0.996584 0.989709 1.00861 0.998347
0.987187 0.994081 0.995545 0.997509
0.821174 0.902398 0.935947 0.972267
0.832435 0.883085 0.973572 0.968232
0.899991 0.946143 0.969768 0.980875
0.9701 0.971507 1.00126 0.997296
0.903284 0.938398 0.974042 0.988232
0.802913 0.872324 0.950458 0.968407
0.909789 0.94528 0.985085 0.977026
0.804766 0.878318 0.943537 0.971089
0.962617 0.977515 0.98694 0.99779
0.824324 0.895168 0.948265 0.971099
0.937565 0.976956 0.981725 0.977544
0.922004 0.954233 0.976353 0.989627
0.96816 0.989409 0.980062 0.99843
0.942701 0.982323 0.979788 0.979462
0.946745 0.98088 0.973655 0.991316
0.981671 0.99601 0.986836 0.998751
0.99088 1.00295 0.990112 0.997833
0.982315 1.00725 0.977473 0.997723
1.00351 1.00278 1.00356 0.997176
0.999487 1.00357 0.998648 0.997276
1.01948 1.02709 0.994747 0.997836
0.999067 1.00071 1.00186 0.996502
1.01615 1.01954 0.999477 0.997198
1.02861 1.03324 0.997685 0.99783
1.00887 1.01236 1 0.996554
1.02598 1.02886 0.99989 0.997309
1.03159 1.03425 0.999649 0.997772
1.02835 1.03077 1 0.997649
1.03154 1.03424 1 0.99739
1.03088 1.03379 1 0.997192
1.0294 1.03271 1 0.996794
1.02954 1.03291 1 0.996735
1.02564 1.02885 1 0.996877
1.01709 1.02027 1 0.996883
1.01936 1.02278 1 0.996652
1.01558 1.01914 1 0.996505
1.00198 1.00451 1 0.997483
1.00728 1.01017 1 0.997136
1.00715 1.01018 1.00017 0.996826
0.998501 1 1.00016 0.998345
0.999382 1.00165 1 0.997737
1.00229 1.00487 1 0.997433
1.00013 1 1.0004 0.99973
1.00122 1 1.00261 0.998614
1.00074 1.00045 1.00228 0.998013
1 1 1 1
1.00019 1 1.00032 0.99987
1.00175 1 1.00276 0.998985
1 1 1 1
0.999939 1 1 0.999939
1 1 1 1
0.998405 1 1 0.998405
0.999405 1 1.00092 0.998482
1.00025 1 1.00164 0.998606
0.999737 1 1.00121 0.998525
1.00006 1 1.00133 0.998724
0.999722 1 1.00043 0.999296
0.999947 1 1 0.999947
0.999411 1 1 0.999407
0.999139 1 1.0003 0.998841
1 1 1 1
0.999972 1 1 0.999972
0.999489 1 1 0.999489
1 1 1 1
0.999993 1 1 0.999993
1 1 1 1
0.826127 0.891407 0.954321 0.971128
0.812545 0.873978 0.963248 0.965182
0.891019 0.943551 0.965412 0.978158
1.00043 1 1.00197 0.998464
1.00486 1 1.0066 0.998269
0.999598 1.00019 1.00101 0.998396
0.998709 1.00066 1.00027 0.997783
1.00427 1.00004 1.00599 0.998258
1.00541 1 1.00703 0.99839
1.00386 1 1.00557 0.998298
1.00784 1 1.00963 0.998225
0.997994 1 1 0.997994
0.988878 1.00065 0.989508 0.998715
0.991855 1.00035 0.993675 0.997818
0.996636 1.00001 0.997581 0.999046
1.00449 1 1.00582 0.998678
0.929223 0.970996 0.9779 0.978607
0.796887 0.865852 0.949422 0.969379
0.7715 0.853727 0.939954 0.961413
0.780544 0.866851 0.930943 0.967231
0.920342 0.940714 1.00149 0.976884
0.924186 0.939659 0.991867 0.991599
0.917227 0.947351 0.976164 0.991843
0.919609 0.951667 0.986138 0.979897
0.943627 0.976895 0.974799 0.990917
0.997606 1.00132 0.998071 0.998218
1.00556 1 1.00657 0.998999
0.999885 1 1.00045 0.99943
0.99775 0.991483 1.00804 0.998293
0.992168 0.997795 0.996799 0.997553
0.919149 0.970141 0.967144 0.979626
0.831042 0.901044 0.948606 0.972279
0.83494 0.881903 0.976928 0.969108
0.968769 0.980726 0.990793 0.996987
0.920864 0.95318 0.978286 0.98754
0.824672 0.892277 0.951996 0.970837
0.935848 0.971277 0.983411 0.979777
0.974506 0.989384 0.986454 0.998488
0.94919 0.989301 0.978477 0.980561
0.944012 0.978633 0.975227 0.989127
0.990353 1.0043 0.988219 0.997872
0.965299 0.994269 0.97674 0.993983
0.990651 1.00465 0.988222 0.997822
0.983277 1.00675 0.978967 0.997672
1.00333 1.03103 0.975133 0.997951
0.998965 1.00358 0.998123 0.997271
1.01974 1.02708 0.995025 0.997816
1.02878 1.04134 0.989831 0.998086
1.01574 1.01956 0.999068 0.997183
1.02812 1.03337 0.997098 0.99781
1.02587 1.03314 0.994948 0.998005
1.02546 1.02853 0.99971 0.997306
1.03174 1.0347 0.999389 0.997753
1.02999 1.033 0.999247 0.997833
1.029 1.03137 1 0.9977
1.02791 1.03052 1 0.997465
1.03241 1.03505 1 0.99745
1.03082 1.03373 1 0.997184
1.03207 1.03514 1 0.99703
1.02554 1.02875 1 0.996874
1.02924 1.03256 1 0.996783
1.02984 1.03321 1 0.996746
1.00978 1.01255 1 0.997268
1.01622 1.01938 1 0.996899
1.02072 1.02411 1 0.996685
0.998612 1.00047 1 0.998143
1.0033 1.00584 1 0.997479
1.00677 1.00967 1 0.99713
0.999969 1 1.00045 0.999522
0.998648 1.00004 1.00026 0.998346
1.00027 1.00254 1 0.997735
1 1 1 1
1.00035 1 1.00064 0.999706
1.00059 1 1.00197 0.998614
1 1 1 1
1.00059 1 1.00074 0.999847
1 1 1 1
1.00093 1.0031 1 0.997838
0.998399 1 1 0.998399
0.999668 1 1.00122 0.998445
0.999812 1 1.00133 0.998487
1.00027 1 1.00169 0.998583
0.999941 1 1.00082 0.999122
0.999968 1 1.00125 0.998723
0.999524 1 1.00023 0.999299
0.999923 1 1 0.999923
1 1 1 1
0.999953 1 1 0.999953
0.99941 1 1 0.99941
1 1 1 1
0.999977 1 1 0.999977
1 1 1 1
0.942652 0.983417 0.976861 0.981253
0.821774 0.895902 0.943961 0.971713
0.821221 0.879282 0.968335 0.964509
1.00588 1 1.00772 0.99817
0.998491 1 1.00003 0.99846
1.00326 1 1.00502 0.998245
0.999677 1.00154 1.00032 0.997828
1.00666 1.00919 1.00016 0.997338
0.997978 1 1 0.997978
1.00913 1 1.01088 0.998275
0.997834 1 1 0.997834
0.992244 1.00043 0.99312 0.998689
0.997253 1.00061 0.998745 0.997898
0.989716 1.00303 0.988722 0.997983
0.995961 1.00129 0.997238 0.997433
0.991937 1.00082 0.993157 0.997955
0.999291 1 1.0002 0.999096
0.944686 0.980379 0.972306 0.991038
0.932415 0.973305 0.978418 0.97912
0.794477 0.867212 0.943596 0.970889
0.929342 0.957257 0.993679 0.977015
0.919208 0.946239 0.978516 0.992762
0.94821 0.976551 0.977144 0.993689
0.990864 1.00377 0.989294 0.997828
0.995777 1.00067 0.996876 0.998229
1.0046 1 1.00563 0.998978
0.993675 1.00043 0.995659 0.997577
0.952073 0.976292 0.983858 0.991193
0.93361 0.97587 0.974116 0.982117
0.819926 0.894988 0.943158 0.971344
0.97656 0.987709 0.990159 0.998538
0.946566 0.981349 0.973635 0.990676
0.955881 0.989116 0.984475 0.981639
0.983914 1.00296 0.983074 0.997897
0.963518 0.991046 0.978802 0.993279
0.986501 1.02425 0.965322 0.997749
1.00365 1.0162 0.990578 0.997044
0.983645 1.00625 0.97987 0.997617
1.00174 1.02992 0.97464 0.997945
1.00778 1.04478 0.966526 0.997992
1.0204 1.02759 0.995201 0.997796
1.0286 1.04122 0.989785 0.998069
1.02165 1.03578 0.988383 0.997954
1.02774 1.03355 0.996578 0.99779
1.02525 1.03248 0.994999 0.997987
1.03 1.03686 0.99557 0.997804
1.03195 1.0351 0.999216 0.997734
1.02851 1.03158 0.999196 0.997826
1.02917 1.03191 0.999789 0.997553
1.02961 1.03194 1 0.99775
1.02816 1.03073 1 0.997508
1.03113 1.03404 1 0.997181
1.03084 1.03376 1 0.997176
1.03201 1.03509 1 0.997019
1.02887 1.03196 1 0.997008
1.0165 1.01943 1 0.997134
1.02549 1.0287 1 0.996887
1.02904 1.03237 1 0.996773
1.00044 1.00248 1 0.997959
1.0099 1.01266 1 0.99727
1.01549 1.01863 1 0.996916
0.999336 1 1 0.999336
0.999075 1.00093 1 0.998141
1.00456 1.0071 1 0.997475
1 1 1 1
0.999762 1 1.00026 0.999506
0.998743 1.0001 1.0003 0.998346
1 1 1 1
1.00045 1 1.00076 0.999682
1 1 1 1
1.00595 1.00855 1 0.997425
1.00082 1.00297 1 0.997855
1.00055 1.00193 1.00055 0.998081
0.998393 1 1 0.998393
0.999521 1 1.00111 0.998413
1.00019 1 1.0013 0.998884
1.00047 1 1.00191 0.99856
0.999739 1 1.00062 0.999124
0.999884 1 1 0.999884
0.999416 1 1.00012 0.999301
0.99993 1 1 0.99993
1 1 1 1
1 1 1 1
0.999959 1 1 0.999959
1 1 1 1
0.944646 0.980336 0.971785 0.991571
0.936828 0.983083 0.973188 0.979204
0.814574 0.889584 0.941973 0.972088
1.01691 1.01984 1.00007 0.997058
1.00232 1 1.00409 0.998233
1.00093 1.0027 1.00036 0.997873
0.997964 1.00002 1 0.997945
1.00639 1.00867 1.00042 0.997324
1.00155 1.00374 1 0.997819
0.997678 1 1 0.997673
0.994538 1.00025 0.995622 0.998663
0.996379 1.00083 0.997622 0.997924
0.985388 1.0021 0.985371 0.997918
1.00116 1.00531 0.998613 0.99726
1.00129 1.00663 0.997267 0.99742
0.996811 1.00195 0.997473 0.997388
0.991803 1.00134 0.992373 0.998091
0.990596 1.00613 0.986207 0.998334
0.94122 0.979974 0.970209 0.989946
0.935858 0.975131 0.979281 0.98003
0.94104 0.972005 0.976153 0.991794
0.993953 1.00572 0.98993 0.998356
0.996202 1.0002 0.997763 0.998236
0.99077 1.00668 0.98721 0.996945
0.940782 0.964938 0.982264 0.992571
0.921347 0.973184 0.966315 0.979737
0.978618 1.00134 0.979339 0.997922
0.969113 0.992687 0.983768 0.992361
0.988712 1.02526 0.96646 0.997819
1.00264 1.01543 0.990144 0.997239
0.998195 1.03583 0.965778 0.997815
1.03577 1.04323 0.995148 0.99769
0.99962 1.02816 0.97425 0.997939
1.01066 1.04617 0.968005 0.997983
1.01243 1.0443 0.971612 0.997812
1.02771 1.04051 0.989632 0.998051
1.02093 1.03529 0.98815 0.99795
1.02841 1.04078 0.990396 0.997692
1.02443 1.03176 0.994921 0.99797
1.02921 1.03611 0.995514 0.997817
1.03244 1.03632 0.998759 0.997498
1.02706 1.0302 0.999135 0.997819
1.02968 1.03239 0.999822 0.997552
1.03307 1.03593 1 0.997243
1.02839 1.03091 1 0.997551
1.03125 1.03413 1 0.997216
1.03087 1.03394 1 0.997023
1.03192 1.03502 1 0.997009
1.02862 1.03173 1 0.996987
1.01988 1.02281 1 0.997136
1.00351 1.00569 1 0.997837
1.01593 1.01883 1 0.997156
1.02544 1.02863 1 0.9969
0.999193 1 1 0.999193
1.00136 1.00341 1 0.997958
1.01003 1.01279 1 0.997271
1 1 1 1
0.999323 1 1 0.999323
0.999526 1.00139 1 0.99814
1 1 1 1
0.999586 1 1.0001 0.99949
1 1 1 1
1.01245 1.01539 1 0.997101
1.00645 1.00904 1 0.997428
1.00438 1.00667 1 0.997726
1.00044 1.00257 1.00001 0.997873
0.999772 1.00114 1.00056 0.998081
0.999683 1 1.00107 0.998611
0.999446 1 1.00107 0.998381
1.00058 1 1.0017 0.998884
1.00037 1 1.00057 0.999806
0.999552 1 1.00043 0.999125
0.999894 1 1 0.999894
1 1 1 1
0.999937 1 1 0.999937
1 1 1 1
1 1 1 1
0.98859 1.01057 0.979994 0.998224
0.939022 0.97733 0.971017 0.989482
0.932484 0.973367 0.97596 0.981596
1.01268 1.01533 1.00001 0.997376
1.02399 1.02706 1 0.997012
1.01475 1.01756 1.00013 0.997112
0.997911 1 1 0.997911
1.00587 1.00785 1.00073 0.997308
1.00266 1.00508 0.99982 0.997775
1.0143 1.0172 0.999908 0.997245
0.99594 1.00102 0.996965 0.99795
0.981836 1.00105 0.982916 0.997851
1.00217 1.00683 0.998038 0.997331
1.01668 1.02184 0.997908 0.997035
1.01014 1.02228 0.990408 0.9977
1.00291 1.00793 0.99763 0.99739
0.99811 1.00262 0.998151 0.997341
0.994691 1.00824 0.988036 0.998512
0.94489 0.98133 0.973846 0.988726
0.99432 1.00657 0.988912 0.998901
1.0188 1.0329 0.988027 0.998303
0.990321 1.00539 0.987924 0.997051
0.943932 0.973583 0.978747 0.990596
0.991765 1.02666 0.968058 0.997886
1.00162 1.015 0.989347 0.997444
0.99801 1.03635 0.965016 0.997913
1.03636 1.04479 0.994218 0.9977
1.03143 1.05118 0.983479 0.997692
1.05461 1.06457 0.992813 0.997815
1.01411 1.04845 0.969207 0.997975
1.01618 1.04449 0.975021 0.997814
1.03169 1.04882 0.986039 0.997595
1.02059 1.03501 0.988094 0.997947
1.02837 1.04016 0.990952 0.99769
1.03403 1.04156 0.995295 0.997464
1.02845 1.03535 0.995501 0.997829
1.03287 1.03665 0.998856 0.997495
1.03601 1.03897 0.999931 0.997225
1.03013 1.03281 0.999859 0.997551
1.03304 1.0359 1 0.997243
1.03391 1.03701 1 0.997011
1.03141 1.03425 1 0.99725
1.03055 1.03361 1 0.997033
1.02204 1.02502 1 0.997096
1.02841 1.03154 1 0.996967
1.01974 1.02268 1 0.997128
1.00559 1.00784 1 0.997766
0.999124 1 1 0.999124
1.00414 1.00631 1 0.997836
1.01541 1.01829 1 0.997179
1 1 1 1
0.999182 1 1 0.999182
1.00229 1.00435 1 0.997957
1 1 1 1
0.99931 1 1 0.99931
1 1 1 1
1.02012 1.02324 1 0.99695
1.01305 1.01602 1 0.997082
1.00848 1.01109 1 0.997418
1.00695 1.00955 1 0.997432
1.003 1.00528 1 0.997732
0.999378 1.00073 1.00032 0.998336
0.998869 1.00033 1.00046 0.998081
1.00021 1 1.0016 0.998613
1.00013 1 1.00048 0.999653
1.00063 1 1.00175 0.998885
1.00001 1 1.00019 0.999821
1 1 1 1
0.999903 1 1 0.999903
1 1 1 1
1 1 1 1
1.00847 1.03109 0.97984 0.998188
0.986306 1.00952 0.979297 0.997659
0.938061 0.978964 0.967673 0.990229
1.02327 1.0262 1 0.997145
1.01346 1.01594 1 0.997555
1.03811 1.04123 1 0.99701
1.02468 1.02777 1 0.996997
1.01284 1.01554 1.00018 0.997168
1.03259 1.03596 0.999781 0.996972
1.00362 1.00647 0.999433 0.997733
1.0126 1.0156 0.999863 0.997183
1.03521 1.04604 0.992416 0.997218
1.00246 1.00832 0.996781 0.997403
1.01747 1.02275 0.997842 0.996993
1.0106 1.02294 0.990193 0.997726
1.00316 1.00816 0.997681 0.997358
0.998948 1.01017 0.990197 0.998683
1.04289 1.05807 0.98775 0.997874
1.0189 1.03281 0.988197 0.998314
0.989854 1.00409 0.988638 0.997151
0.998325 1.03623 0.965342 0.998011
1.03604 1.04546 0.993261 0.997711
1.0283 1.05075 0.98088 0.997711
1.05498 1.06598 0.991846 0.997813
1.04653 1.06038 0.989196 0.997709
1.0194 1.04433 0.978263 0.997817
1.03203 1.04828 0.986862 0.997604
1.03522 1.04718 0.991071 0.997482
1.02821 1.03952 0.991412 0.997688
1.03361 1.04107 0.995378 0.997445
1.03803 1.04189 0.999092 0.997198
1.03336 1.03705 0.998949 0.997492
1.03612 1.03905 0.999954 0.997223
1.03736 1.0405 1 0.996981
1.033 1.03586 1 0.997243
1.03375 1.03685 1 0.997014
1.02488 1.02794 1 0.997027
1.03022 1.03328 1 0.997044
1.02223 1.02521 1 0.9971
1.00651 1.00884 1 0.997691
1.01956 1.02251 1 0.99712
1.00581 1.00806 1 0.997764
0.999253 1 1 0.999253
0.999739 1 1 0.999739
0.999182 1 1 0.999182
1.00472 1.0069 1 0.997835
1 1 1 1
0.999171 1 1 0.999171
1 1 1 1
1.04523 1.04829 1 0.997076
1.03005 1.03316 1 0.996988
1.02094 1.02407 1 0.996945
1.0129 1.01569 1 0.997248
1.01388 1.01686 1 0.997063
1.00809 1.01069 1 0.99742
1.00084 1.00274 1 0.998103
1.0016 1.00387 1 0.997739
0.999219 1.00044 1.00045 0.998339
0.999548 1 1.00011 0.999438
1.00104 1 1.00243 0.998615
1.00021 1 1.00053 0.999673
1 1 1 1
0.999836 1 1 0.999836
1 1 1 1
1 1 1 1
1.03903 1.05661 0.9857 0.997626
1.0125 1.03531 0.979673 0.99826
0.984396 1.00962 0.977854 0.9971
1.03604 1.03915 1 0.997001
1.02223 1.0251 1 0.997204
1.01399 1.0163 1 0.997731
1.03701 1.0401 1 0.997029
1.02533 1.02843 1 0.996983
1.04254 1.05106 0.994682 0.997196
1.02909 1.03248 0.99979 0.996931
1.0112 1.01412 1 0.997121
1.03439 1.04522 0.99241 0.997212
1.02027 1.0252 0.998227 0.996951
1.01372 1.02672 0.989557 0.997757
1.04633 1.05985 0.989413 0.997805
1.04492 1.0594 0.988405 0.997899
1.01907 1.03284 0.988313 0.998327
1.02635 1.05129 0.978497 0.997729
1.05614 1.06809 0.990987 0.99781
1.04661 1.06142 0.988294 0.997719
1.03983 1.04955 0.993154 0.997563
1.03232 1.04763 0.987741 0.997613
1.03522 1.04668 0.991553 0.997471
1.03997 1.04553 0.99745 0.997226
1.03319 1.04056 0.995478 0.997425
1.03861 1.04246 0.999107 0.997198
1.04036 1.04354 1 0.996953
1.03621 1.03912 0.999978 0.997221
1.03737 1.04051 1 0.996982
1.02751 1.03065 1 0.996951
1.03362 1.03671 1 0.997017
1.02516 1.02822 1 0.99703
1.0074 1.00984 1 0.997592
1.02242 1.02539 1 0.997104
1.00675 1.00908 1 0.99769
0.999259 1 1 0.999259
1.00604 1.00829 1 0.997762
0.999248 1 1 0.999248
0.999755 1 1 0.999755
0.999874 1 1 0.999874
0.999245 1 1 0.999245
1 1 1 1
1.04131 1.04442 1 0.997023
1.03601 1.03909 1 0.997035
1.04445 1.04739 1 0.997191
1.02097 1.02389 1 0.997147
1.03197 1.0351 1 0.996977
1.02182 1.02496 1 0.99694
1.01348 1.01628 1 0.997244
1.00434 1.00643 1 0.99792
1.00778 1.01038 1 0.997422
1.00015 1.00205 1 0.998105
0.999251 1 1 0.999251
0.999088 1.00023 1.00052 0.998342
0.999693 1 1.00024 0.999457
1 1 1 1
1.00006 1 1.00037 0.999692
1 1 1 1
1 1 1 1
1.04116 1.05505 0.989289 0.997514
1.03801 1.05542 0.985845 0.997621
1.01498 1.03751 0.979924 0.998324
1.04318 1.04772 0.998551 0.997108
1.03439 1.0375 1 0.997002
1.0212 1.02401 1 0.997263
1.03573 1.0388 1 0.997047
1.04145 1.05002 0.994651 0.997173
1.02539 1.0288 0.9998 0.99689
1.03077 1.04146 0.992505 0.997207
1.04171 1.05234 0.992253 0.997625
1.04543 1.05871 0.989672 0.997766
1.04681 1.06054 0.989116 0.997923
1.03898 1.0466 0.99525 0.997455
1.04639 1.06222 0.987343 0.997728
1.03956 1.04955 0.992917 0.99755
1.04152 1.04784 0.996632 0.997323
1.03528 1.04623 0.992052 0.99746
1.04012 1.04572 0.997413 0.997228
1.0416 1.04479 1 0.996947
1.03918 1.04301 0.999124 0.997198
1.0402 1.04338 1 0.996954
1.02913 1.03234 1 0.996894
1.0373 1.04044 1 0.996983
1.02778 1.03092 1 0.996953
1.00814 1.01068 1 0.997492
1.02543 1.02848 1 0.997033
1.00762 1.01006 1 0.997591
0.999234 1 1 0.999234
1.00699 1.00932 1 0.997688
0.99925 1 1 0.99925
0.99976 1 1 0.99976
0.999246 1 1 0.999246
0.999761 1 1 0.999761
1 1 1 1
1.04185 1.04513 0.999934 0.996925
1.03727 1.04045 1 0.996938
1.04268 1.04579 1 0.99703
1.02616 1.02909 1 0.997152
1.0368 1.03987 1 0.997055
1.04381 1.04663 1 0.997304
1.00745 1.0097 1 0.997766
1.02102 1.02395 1 0.997139
1.03399 1.03713 1 0.996966
1.01392 1.01673 1 0.99724
1.00316 1.00525 1 0.997922
0.999142 1 1 0.999142
0.999354 1.00125 1 0.998106
0.999264 1 1 0.999264
1 1 1 1
0.999865 1 1.00039 0.999476
1 1 1 1
1 1 1 1
1.04137 1.0494 0.994963 0.997373
1.04134 1.05558 0.988979 0.997498
1.03836 1.05578 0.985855 0.997617
1.04218 1.04687 0.998394 0.997123
1.03265 1.03575 1 0.997003
1.04091 1.04954 0.994614 0.997149
1.03965 1.04789 0.994667 0.997458
1.04215 1.05241 0.992619 0.997618
1.04457 1.05767 0.989868 0.997728
1.03955 1.04705 0.995349 0.997476
1.04301 1.04826 0.997716 0.997262
1.03927 1.04954 0.992656 0.997537
1.04163 1.0477 0.996919 0.997281
1.0416 1.04528 0.999451 0.997024
1.0402 1.04584 0.997374 0.99723
1.042 1.0452 0.999988 0.99695
1.02955 1.0328 1 0.996854
1.04021 1.04338 1 0.996956
1.02963 1.03284 1 0.996895
1.00847 1.01108 1 0.99742
1.02818 1.03132 1 0.996955
1.00827 1.01081 1 0.997492
0.999181 1 1 0.999181
1.00785 1.01029 1 0.99759
0.99922 1 1 0.99922
0.999741 1 1 0.999741
0.999243 1 1 0.999243
0.999772 1 1 0.999772
0.999762 1 1 0.999762
1.043 1.04679 0.999213 0.997161
1.03961 1.04293 1 0.996824
1.04261 1.04614 0.999675 0.99695
1.0284 1.03145 1 0.997038
1.0366 1.03979 1 0.996932
1.04396 1.04707 1 0.997037
1.00855 1.01092 1 0.997655
1.02618 1.02915 1 0.997111
1.03745 1.04049 1 0.997075
0.9991 1 1 0.9991
1.00674 1.00899 1 0.997768
1.02117 1.02411 1 0.997132
1.00202 1.00411 1 0.997924
0.999152 1 1 0.999152
1 1 1 1
0.999278 1 1 0.999278
1 1 1 1
1 1 1 1
1.03859 1.0453 0.996216 0.997353
1.04078 1.04899 0.994788 0.997367
1.04127 1.0558 0.988724 0.997483
1.04117 1.046 0.998233 0.997138
1.04187 1.04617 0.99867 0.997222
1.04025 1.04823 0.994905 0.997469
1.04262 1.05243 0.993048 0.997611
1.04015 1.04752 0.995457 0.997497
1.04261 1.04797 0.997609 0.997273
1.04196 1.04559 0.999501 0.997029
1.04184 1.04763 0.99722 0.99724
1.04214 1.0456 0.999701 0.996987
1.02906 1.03229 1 0.996868
1.04238 1.0456 0.999966 0.996953
1.02972 1.03296 1 0.996857
1.00806 1.01073 1 0.997361
1.0299 1.03311 1 0.996896
1.00834 1.01095 1 0.99742
0.998989 1 1 0.998989
1.00835 1.01088 1 0.997492
0.999104 1 1 0.999104
1 1 1 1
0.999207 1 1 0.999207
0.999759 1 1 0.999759
0.999779 1 1 0.999779
1.04036 1.04427 0.999001 0.997248
1.04019 1.0434 1 0.996928
1.04286 1.04654 0.999322 0.997154
1.02973 1.03296 1 0.996873
1.03918 1.04247 1 0.996844
1.04345 1.04723 0.999411 0.996975
1.00902 1.01158 1 0.997468
1.02858 1.03164 1 0.997038
1.03599 1.03918 1 0.996927
0.99909 1 1 0.99909
1.00841 1.01082 1 0.997611
1.02619 1.02921 1 0.99707
1 1 1 1
0.999111 1 1 0.999111
1.00598 1.00823 1 0.997771
0.999164 1 1 0.999164
1 1 1 1
1 1 1 1
1.04028 1.04436 0.998848 0.997239
1.03915 1.04583 0.996246 0.99736
1.04012 1.04857 0.994571 0.997361
1.04177 1.04501 0.999941 0.996967
1.04114 1.04574 0.998357 0.997235
1.04081 1.04854 0.995138 0.997479
1.04218 1.04767 0.997469 0.997284
1.04176 1.0455 0.999392 0.99703
1.02745 1.03061 1 0.996932
1.04258 1.04582 0.999948 0.996949
1.02882 1.03204 1 0.996883
1.00752 1.0103 1 0.997247
1.02999 1.03324 1 0.996859
1.00794 1.01061 1 0.997362
0.998942 1 1 0.998942
1.00829 1.0109 1 0.99742
0.998987 1 1 0.998987
1 1 1 1
0.999015 1 1 0.999015
0.999863 1 1 0.999863
0.999774 1 1 0.999774
1.03956 1.04308 0.999423 0.997199
1.04047 1.04361 1 0.996986
1.04076 1.04457 0.999101 0.997254
1.03008 1.03331 1 0.996873
1.04062 1.04384 1 0.996914
1.04274 1.04631 0.999441 0.997147
1.00913 1.01179 1 0.997368
1.02966 1.03285 1 0.996908
1.03872 1.04198 1 0.996864
0.999065 1 1 0.999065
1.00898 1.01155 1 0.997455
1.02877 1.03182 1 0.997038
1 1 1 1
0.999099 1 1 0.999099
1.0083 1.01076 1 0.997567
1 1 1 1
0.999122 1 1 0.999122
1 1 1 1
1.04233 1.04556 0.999885 0.997017
1.03953 1.04358 0.998886 0.997223
1.03971 1.04636 0.996275 0.997366
1.0274 1.03057 1 0.996925
1.04157 1.045 0.999731 0.996989
1.04044 1.04535 0.998048 0.997249
1.0416 1.04541 0.999316 0.997031
1.02751 1.03067 1 0.996932
1.00686 1.00966 1 0.997221
1.02862 1.03182 1 0.996899
1.00745 1.0102 1 0.997279
0.998885 1 1 0.998885
1.00776 1.01042 1 0.997363
0.998939 1 1 0.998939
1 1 1 1
0.998984 1 1 0.998984
1 1 1 1
0.999751 1 1 0.999751
1.04206 1.04519 1 0.997008
1.039 1.04268 0.999244 0.997223
1.02979 1.033 1 0.996897
1.04073 1.04388 1 0.996984
1.04122 1.04493 0.999194 0.997261
1.00847 1.0111 1 0.997397
1.02971 1.03295 1 0.996869
1.04103 1.04427 1 0.9969
0.999014 1 1 0.999014
1.00928 1.01191 1 0.997397
1.02957 1.03273 1 0.996944
1 1 1 1
0.99907 1 1 0.99907
1.00894 1.01152 1 0.997441
1 1 1 1
0.999107 1 1 0.999107
1 1 1 1
1.0283 1.03144 1 0.996956
1.04216 1.04537 0.999928 0.997004
1.03875 1.0428 0.998904 0.997208
1.00589 1.00869 1 0.99723
1.0274 1.03057 1 0.996925
1.04135 1.04498 0.999513 0.997011
1.02758 1.03074 1 0.996931
1.00688 1.00968 1 0.997222
0.998847 1 1 0.998847
1.00741 1.01013 1 0.997311
0.998882 1 1 0.998882
1 1 1 1
0.998936 1 1 0.998936
1 1 1 1
1 1 1 1
1.02959 1.03279 1 0.996905
1.04173 1.04492 0.999905 0.99704
1.0384 1.04219 0.999112 0.997246
1.00766 1.0103 1 0.997383
1.02944 1.03264 1 0.996894
1.04093 1.04408 1 0.996982
0.998962 1 1 0.998962
1.00876 1.01139 1 0.997395
1.02938 1.03261 1 0.996866
1 1 1 1
0.999017 1 1 0.999017
1.00943 1.01204 1 0.997426
1 1 1 1
0.999076 1 1 0.999076
1 1 1 1
1.00584 1.00855 1 0.997316
1.02815 1.03132 1 0.996922
1.04204 1.04518 1 0.996991
0.998855 1 1 0.998855
1.00597 1.00876 1 0.997228
1.0274 1.03057 1 0.996925
1.0069 1.0097 1 0.997223
0.998847 1 1 0.998847
1 1 1 1
0.998879 1 1 0.998879
1 1 1 1
1 1 1 1
1.00665 1.00932 1 0.997356
1.02915 1.03233 1 0.996914
1.04142 1.04471 0.999776 0.997072
0.999096 1 1 0.999096
1.00792 1.01057 1 0.997381
1.02909 1.0323 1 0.996891
1 1 1 1
0.998964 1 1 0.998964
1.00903 1.01167 1 0.997392
1 1 1 1
0.999021 1 1 0.999021
1 1 1 1
0.99885 1 1 0.99885
1.00604 1.00878 1 0.997286
1.02801 1.03122 1 0.996889
1 1 1 1
0.998854 1 1 0.998854
1.00604 1.00884 1 0.997225
0.998845 1 1 0.998845
1 1 1 1
1 1 1 1
0.999051 1 1 0.999051
1.00697 1.00964 1 0.997356
1.02867 1.03184 1 0.996924
1 1 1 1
0.998928 1 1 0.998928
1.00819 1.01084 1 0.99738
1 1 1 1
0.998965 1 1 0.998965
1 1 1 1
0.999681 1 1 0.999681
0.998956 1 1 0.998956
1.00621 1.00898 1 0.997257
1 1 1 1
0.998855 1 1 0.998855
1 1 1 1
0.999697 1 1 0.999697
0.998979 1 1 0.998979
1.00731 1.00999 1 0.997356
0.99985 1 1 0.99985
0.998928 1 1 0.998928
1 1 1 1
1 1 1 1
0.998877 1 1 0.998877
1 1 1 1
0.999846 1 1 0.999846
0.998902 1 1 0.998902
1 1 1 1
1 1 1 1
1 1 1 1

VECTORS lamdaE float
1.00087 1.00015 0.994235
1.00052 1.00062 0.997222
1.00047 1.00036 0.99449
1.00106 1 0.994101
1.00096 0.999972 0.994294
1.00081 1.00036 0.994077
1.00219 1.00048 0.991302
1.00055 1.00052 0.997225
1.00049 1.00018 0.997601
1.00001 1.00085 0.997644
1.00052 1.00054 0.994267
1.00191 1.00129 0.990215
1.00075 0.999984 0.994419
1.00049 0.999992 0.994626
1.0001 1.00058 0.994717
1.00077 0.999983 0.994395
1.00036 1.00072 0.994307
1.00063 1.00003 0.994561
1.0024 1.0003 0.991189
1.00076 1.00002 0.997229
1.00102 1.00005 0.994096
1.00104 0.999938 0.994221
1.00242 1.00008 0.991327
1.00234 1.00014 0.991392
1.0008 1.00044 0.993983
1.00196 1.00103 0.991122
1.00482 1.00047 0.986825
1.00055 1.00048 0.997248
1.00068 1.00007 0.99594
1.00029 1.00061 0.995964
1.00051 1.00044 0.997301
1.00181 1.00143 0.990222
1.00098 0.999823 0.994202
1.00069 1.00028 0.994309
1.00265 1.00008 0.991663
0.999854 1.00048 0.997891
1.0023 1.00079 0.991627
1.00164 1.00169 0.990238
1.00408 1.00149 0.98628
0.999947 0.999066 0.998299
1.00078 0.999992 0.99721
1.00069 1 0.995904
1.00071 0.999979 0.997251
1.00037 1.00003 0.994777
1.00244 0.999959 0.990669
1.00063 0.99996 0.99752
1.00271 1.00005 0.991611
1.00047 0.999921 0.994689
1.00031 1.00008 0.994815
0.999925 1.00111 0.99452
1.00258 1.00011 0.991091
1.00059 1.00004 0.995975
1.00071 1.00007 0.994392
1.00032 1.00088 0.994187
1.00074 0.999919 0.994503
1.00255 1.00004 0.991192
1.00221 1.00076 0.991015
1.0025 1.00004 0.991276
1.00479 1.00049 0.986831
1.00069 1.00001 0.997254
1.00091 1.00006 0.994235
1.0022 1.00001 0.992304
1.00235 1.00011 0.991401
1.00241 1.00004 0.991374
1.0048 1.00013 0.987096
1.00483 1.00014 0.986929
1.00064 1.00032 0.994225
1.00148 1.00189 0.991006
1.00471 1.0008 0.986702
1.00525 1.00031 0.985478
1.00091 1.0001 0.997204
1.00044 1.00033 0.997425
1.00059 1.00046 0.997223
1.00175 1.0015 0.990224
1.00102 0.999956 0.997148
1.00078 1.00029 0.997228
1.00252 1.00004 0.99034
1.00007 1.00031 0.996336
1.00206 1.00085 0.990322
1.00152 1.00191 0.991019
1.00419 1.00135 0.98628
1.0002 0.999737 0.997854
0.999963 1.00142 0.993431
1.00271 0.999942 0.990171
1.00246 1.00026 0.990322
1.00488 1.0002 0.986262
1.00102 1.00232 0.992273
1.0045 1.00079 0.986296
1.0033 1.00272 0.986429
1.00508 1.00123 0.984758
0.99981 0.998343 0.998677
0.999811 0.998926 0.998458
1.00095 0.999984 0.997128
1.00082 0.999989 0.997202
1.00075 0.999985 0.997249
1.0006 0.999996 0.995994
1.00247 0.999948 0.991345
1.0008 0.999965 0.995852
1.00265 1.00006 0.990958
1.00073 0.999992 0.997258
1.00231 0.999881 0.99092
1.00262 1.00004 0.991794
1.00478 0.999521 0.987174
1.00274 0.999982 0.991588
1.00488 0.999776 0.986756
1.00073 1.00001 0.994466
1.00039 1.00007 0.994693
0.999843 1.00136 0.994392
1.00044 0.999874 0.994781
1.00267 1.00005 0.991057
1.00265 0.999954 0.991167
1.00246 1.00046 0.990916
1.00476 1.00051 0.986838
1.00074 0.999993 0.997254
1.0006 1.00006 0.994532
1.00236 0.999981 0.991178
1.00248 1.00009 0.991256
1.00041 1.00074 0.995736
1.00182 1.00166 0.99113
1.00254 0.999989 0.991252
1.00482 1.00006 0.987129
1.00466 1.00084 0.986713
1.00483 1.00025 0.986918
1.00525 1.0003 0.985506
1.0023 0.999934 0.990915
1.00224 1.00005 0.991594
1.00467 0.99948 0.987884
1.00475 0.999847 0.987356
1.00481 1.00002 0.987071
1.00528 0.999265 0.986749
1.00008 1.00047 0.997653
1.00526 0.999886 0.985896
1.00106 1.00267 0.990122
1.00426 1.00126 0.986202
1.00524 1.00079 0.985066
1.0052 0.999197 0.986586
1.00024 1.00279 0.991529
1.00089 1.0051 0.988054
1.00101 0.999983 0.997166
1.00074 1.00029 0.997227
1.00253 1.00003 0.990333
1.00021 1.00003 0.997755
1.00118 1.0023 0.990367
1.00204 1.00086 0.990334
1.00426 1.00121 0.98628
1.00004 0.999617 0.998023
0.99988 1.00154 0.993471
1.00273 0.999979 0.990891
1.00247 1.0003 0.991
1.00487 1.00021 0.986245
1.00071 1.00247 0.991057
1.00453 1.00075 0.986289
1.0034 1.00256 0.986427
1.00515 1.00114 0.984811
1.0002 1.00232 0.992132
0.999944 1.00042 0.994505
1.00095 1.0045 0.989046
1.00493 1.00006 0.986343
1.00474 1.00041 0.986254
1.00528 0.99983 0.985958
1.00235 1.00381 0.986992
1.00521 1.00064 0.985256
1.00479 1.0018 0.984806
1.0052 1.00093 0.984882
0.999807 0.997842 0.998899
0.999767 0.998229 0.998768
0.999722 0.998729 0.998593
1.00005 1.00227 0.992385
0.999902 1.00003 0.997948
1.00103 0.999964 0.997126
1.00086 0.999991 0.997165
1.00253 1.00008 0.990344
1.00237 0.999949 0.990746
1.00073 0.999984 0.997242
1.0007 0.999987 0.997257
1.0023 0.999894 0.990914
1.00253 1.00003 0.991154
1.00477 0.999522 0.987178
1.00262 1.00002 0.990222
1.00486 0.99978 0.986751
1.00226 0.999899 0.990959
1.00474 0.999446 0.987307
1.00482 0.999632 0.987
1.00527 0.997972 0.988012
1.00493 0.999928 0.986507
1.0053 0.998523 0.987395
1.00071 0.999992 0.997251
1.00028 1.0001 0.994829
1.00238 0.99998 0.990178
1.00261 1.00008 0.991109
0.999796 1.00124 0.997609
1.00225 1.00127 0.991255
1.00268 0.999962 0.99113
1.00483 0.999968 0.987162
1.00482 1.00035 0.986907
1.00461 1.0009 0.986724
1.00525 1.00029 0.985535
1.00228 0.999925 0.990917
1.00238 1.00006 0.991448
1.00469 0.999467 0.987582
1.00477 0.999944 0.987302
1.00022 1.00051 0.997543
1.00128 1.00243 0.990895
1.00413 1.00158 0.986445
1.00482 1.00006 0.987037
1.00528 0.999025 0.98695
1.00524 1.00074 0.985108
1.00526 0.999952 0.985943
1.00521 0.999204 0.98661
1.00033 1.00269 0.991511
1.00104 1.00496 0.988052
1.0047 0.999521 0.987293
1.00469 0.999694 0.987671
1.00525 0.998384 0.987707
1.00528 0.998469 0.987454
1.00527 0.999368 0.986581
1.00524 0.997364 0.988543
1.00062 1.00295 0.990695
1.00522 0.998385 0.987411
1.00348 1.00228 0.986404
1.00521 1.00121 0.984617
1.0052 1.00025 0.985679
1.00519 0.997701 0.988218
1.00172 1.00458 0.987282
1.0006 1.00472 0.989017
1.00214 1.00473 0.986699
1.00262 0.999966 0.990256
0.999861 0.9995 0.998202
0.999825 1.0015 0.993509
1.00232 1.00034 0.990378
1.00487 1.00021 0.986227
1.00065 1.00258 0.991015
1.00346 1.00236 0.986424
1.00456 1.00072 0.986283
1.00518 1.00105 0.984864
1.00014 1.00236 0.992145
0.999936 1.00033 0.994551
1.00068 1.00462 0.989032
1.00492 1.00008 0.986324
1.00476 1.0004 0.986241
1.00529 0.999839 0.985937
1.00245 1.00363 0.986995
1.00523 1.00068 0.985202
1.00482 1.00173 0.984795
1.0052 1.00078 0.984973
0.999992 0.999623 0.99521
1.0016 1.00444 0.987842
1.00056 1.0035 0.990467
1.00149 1.00467 0.987796
1.00529 0.999376 0.986442
1.00526 1.00027 0.985523
1.00523 0.998637 0.987134
1.0041 1.00248 0.985403
1.00521 0.999897 0.986044
1.00501 1.0015 0.984731
1.00516 1.00034 0.985488
1.00023 1.00104 0.993392
1.00022 0.998682 0.995732
0.999859 0.997524 0.999008
0.999792 0.997785 0.998944
0.999744 0.998116 0.998845
1.00001 1.00142 0.993287
0.99981 0.999482 0.998215
1.00014 1.00217 0.992362
1 1.00013 0.997839
1.00261 1.00005 0.990224
1.00245 1.00001 0.990547
1.00484 0.999785 0.986746
1.00475 0.999528 0.987182
1.00231 0.99991 0.990914
1.00074 0.999978 0.997257
1.00228 0.999895 0.990962
1.00473 0.999456 0.987309
1.0048 0.999642 0.986998
1.00527 0.997982 0.988004
1.00491 0.999941 0.986492
1.0053 0.998522 0.987379
1.0047 0.999464 0.987341
1.00529 0.997845 0.98811
1.00526 0.998201 0.98778
1.00522 0.995516 0.990507
1.0053 0.998924 0.986933
1.00527 0.996621 0.989303
1.00229 0.99992 0.990922
1.00252 1.00003 0.991301
1.00472 0.999437 0.987281
1.0048 1.00003 0.987248
1.00032 1.00058 0.997432
1.00156 1.00223 0.991497
1.00412 1.00182 0.986686
1.00483 1.00009 0.987002
1.00529 0.998782 0.98715
1.00526 1.00002 0.985989
1.00524 1.00069 0.985151
1.00521 0.999208 0.986635
1.00038 1.00259 0.991497
1.00119 1.00487 0.988049
1.00471 0.999401 0.987361
1.00471 0.99967 0.98765
1.00525 0.998194 0.987929
1.00528 0.998733 0.987228
1.0007 1.00282 0.990691
1.00347 1.00243 0.9864
1.00518 1.00126 0.984591
1.00527 0.99951 0.986463
1.00524 0.99709 0.988832
1.0052 1.00013 0.985812
1.00522 0.998388 0.987423
1.00518 0.997631 0.988202
1.00176 1.00452 0.987287
1.00192 1.00462 0.986717
1.00068 1.00467 0.989022
1.00526 0.998188 0.987879
1.00526 0.998322 0.987802
1.00525 0.996052 0.989938
1.00525 0.996631 0.989238
1.00523 0.997444 0.988285
1.00518 0.995636 0.990272
1.00268 1.00337 0.986766
1.00519 0.996615 0.98906
1.00509 1.00161 0.984619
1.0052 1.00111 0.984653
1.00517 0.99909 0.986793
1.00515 0.996722 0.989169
1.00026 1.00433 0.990079
1.00325 1.00329 0.986078
1.00108 1.0051 0.987623
1.0035 1.00345 0.985933
1.0049 1.00009 0.986304
0.999933 1.00024 0.994595
1.00001 1.00254 0.992163
1.00041 1.00476 0.989019
1.00477 1.00039 0.986228
1.00529 0.999849 0.985915
1.00251 1.00348 0.987002
1.00493 1.0017 0.984785
1.00524 1.00073 0.985148
1.0052 1.00063 0.985063
1 0.999515 0.995247
1.00145 1.0045 0.987847
1.0004 1.00364 0.990483
1.00134 1.00479 0.987795
1.00529 0.999385 0.986422
1.00527 1.00028 0.985499
1.00523 0.998633 0.987125
1.00416 1.00233 0.98541
1.00521 0.999993 0.985914
1.00504 1.00138 0.984724
1.00516 1.00027 0.985634
1.00013 0.998983 0.995581
1.00038 1.00248 0.991764
1.00283 1.00343 0.986596
1.00082 1.00485 0.989026
1.00242 1.00361 0.987435
1.00524 0.997967 0.987829
1.00522 0.999272 0.986479
1.00519 0.997554 0.98809
1.00455 1.0015 0.9852
1.00516 0.99923 0.986655
1.00468 1.00123 0.985245
1.0003 1.00119 0.993148
1.00032 1.00245 0.99188
1.00014 1.00101 0.993595
1.00022 1.00105 0.993388
1.00021 0.998485 0.996471
1.0002 0.998651 0.996066
1.00003 0.997265 0.997772
0.999863 0.997478 0.999018
0.999785 0.997716 0.998976
0.999849 1.00065 0.994294
0.999789 0.998902 0.998509
1.00004 1.00142 0.993263
0.999902 0.999585 0.99812
1.00025 1.00201 0.992338
1.00013 1.00021 0.997728
1.00489 0.999952 0.986477
1.00479 0.999648 0.986996
1.0053 0.998541 0.987363
1.00527 0.997991 0.987995
1.00471 0.999466 0.987312
1.00227 0.999886 0.990962
1.0047 0.999464 0.987342
1.00528 0.997851 0.988111
1.00527 0.998217 0.987761
1.00523 0.995505 0.990523
1.0053 0.998929 0.986917
1.00526 0.996619 0.989295
1.00527 0.997842 0.988124
1.00521 0.995369 0.990759
1.00526 0.995946 0.990004
1.00523 0.994951 0.99097
1.00525 0.997318 0.988562
1.00526 0.995161 0.990446
1.00471 0.999283 0.98743
1.00473 0.999661 0.987629
1.00525 0.998024 0.988151
1.00528 0.998998 0.987003
1.0008 1.00272 0.990689
1.00333 1.00272 0.986399
1.00515 1.00132 0.984563
1.00527 0.999653 0.986344
1.00524 0.996818 0.98912
1.00522 0.99839 0.987436
1.0052 1 0.985943
1.00518 0.99756 0.988186
1.00184 1.00444 0.98729
1.00184 1.00454 0.986736
1.00074 1.00458 0.989028
1.00526 0.998074 0.987974
1.00526 0.998313 0.987792
1.00524 0.99583 0.990186
1.00525 0.996796 0.989091
1.00267 1.00349 0.986763
1.00499 1.00166 0.984636
1.0052 1.00119 0.984565
1.00523 0.997732 0.988019
1.00518 0.995418 0.990414
1.00517 0.999029 0.986744
1.00519 0.99665 0.989057
1.00516 0.996584 0.989264
1.00334 1.00323 0.98607
1.00335 1.0035 0.985819
1.00036 1.00412 0.990095
1.00093 1.0051 0.98778
1.00523 0.995454 0.990613
1.00525 0.99637 0.989511
1.00522 0.995101 0.990905
1.00519 0.994988 0.990768
1.00519 0.995835 0.989804
1.00516 0.995129 0.990689
1.00468 1.00172 0.985276
1.00516 0.995426 0.99012
1.00516 1.00205 0.983938
1.00512 1.00068 0.98508
1.00517 0.998385 0.987227
1.00517 0.996635 0.989212
1.00016 1.00336 0.991143
1.00053 1.00509 0.988636
1.0047 1.00185 0.985227
1.00161 1.00506 0.987167
1.00414 1.00317 0.985341
1.00001 0.999424 0.995283
1.00529 0.999393 0.986402
1.00027 1.00377 0.9905
1.00134 1.00456 0.98785
1.00119 1.00485 0.987793
1.00528 1.00028 0.985476
1.00522 0.998629 0.987116
1.00441 1.00195 0.985414
1.00514 1.00128 0.984717
1.0052 1.00008 0.985785
1.00515 1.00021 0.985781
1.00014 0.998944 0.995605
1.00029 1.00255 0.991791
1.00291 1.0034 0.986598
1.00053 1.00491 0.989019
1.00217 1.00356 0.987447
1.00524 0.997958 0.987822
1.00521 0.999262 0.986471
1.00519 0.997519 0.988072
1.00482 1.0014 0.985195
1.00515 0.999287 0.986512
1.00485 1.0012 0.985266
1.00035 1.00162 0.992679
1.00046 1.00398 0.990409
1.00394 1.00174 0.98621
1.00095 1.00503 0.988731
1.0028 1.00237 0.98799
1.00521 0.996827 0.988868
1.00517 0.99831 0.987298
1.00521 0.996746 0.988498
1.00428 1.00107 0.985806
1.00495 0.999922 0.985902
1.0003 1.00117 0.993147
1.00031 1.00245 0.991772
1.00019 1.0026 0.991844
1.00043 1.00285 0.991483
1.00023 1.00252 0.991984
1.00006 1.00099 0.993725
1.00014 1.00099 0.9936
1.0002 0.998414 0.996553
1.00022 1.00107 0.993384
1.00022 0.998497 0.996484
1.00011 0.99706 0.99783
1.00019 0.998643 0.996394
0.999972 0.997268 0.99841
0.999872 0.997416 0.999028
0.999817 0.99977 0.995235
0.999877 1.0007 0.994267
0.99972 0.998307 0.998816
0.99985 0.999007 0.998397
1.00009 1.00146 0.993238
0.999987 0.999699 0.998019
1.0053 0.998933 0.986902
1.00528 0.998215 0.987743
1.00526 0.996613 0.989288
1.00524 0.995494 0.990538
1.00528 0.997857 0.988111
1.0047 0.999465 0.987341
1.00528 0.997846 0.988125
1.00521 0.995347 0.990768
1.00525 0.995952 0.99001
1.00523 0.994949 0.990974
1.00525 0.997296 0.988545
1.00526 0.995189 0.99045
1.00524 0.995365 0.990763
1.00518 0.994961 0.991107
1.00524 0.994933 0.990817
1.00522 0.994942 0.990955
1.00524 0.99596 0.989698
1.00527 0.994916 0.990675
1.00527 0.997957 0.988068
1.00526 0.998315 0.987782
1.00524 0.995603 0.990434
1.00525 0.996957 0.988942
1.00266 1.00357 0.986759
1.00493 1.0017 0.984651
1.00519 1.00122 0.984478
1.00523 0.998019 0.987753
1.00519 0.995206 0.990556
1.00518 0.996685 0.989054
1.00518 0.998983 0.986696
1.00516 0.996445 0.98936
1.00317 1.00333 0.986063
1.00294 1.00354 0.985705
1.00047 1.00399 0.990111
1.00081 1.00509 0.987939
1.00523 0.995462 0.99061
1.00525 0.996469 0.989452
1.00524 0.99503 0.990946
1.00519 0.994983 0.990777
1.0044 1.0021 0.985251
1.00508 1.00209 0.983886
1.00514 1.00062 0.985062
1.00519 0.99605 0.989623
1.00515 0.995038 0.99074
1.00515 0.998436 0.987201
1.00517 0.995409 0.990109
1.00517 0.996403 0.989356
1.00453 1.00194 0.985222
1.00389 1.00323 0.985271
1.00158 1.00504 0.987164
1.00016 1.00329 0.991115
1.00038 1.00509 0.988757
1.0052 0.99496 0.991083
1.0052 0.994929 0.990974
1.00519 0.994911 0.99072
1.00518 0.995045 0.990574
1.00508 1.00217 0.984307
1.00519 0.995254 0.990261
1.00509 1.00189 0.983775
1.00514 1.00026 0.985321
1.00514 0.998268 0.987283
0.999965 1.00217 0.992366
1.00022 1.00481 0.989692
1.00094 1.00509 0.988372
1.00507 1.0023 0.984548
1.00209 1.00501 0.986033
1.00439 1.00315 0.984248
1.00014 0.998913 0.995628
1.00022 1.00261 0.991819
1.00523 0.997949 0.987815
1.0002 1.00498 0.98901
1.00277 1.0036 0.986603
1.00194 1.00352 0.987459
1.00521 0.999254 0.986462
1.0052 0.997486 0.988054
1.00504 1.0013 0.985191
1.00503 1.0012 0.985287
1.00515 0.999336 0.986369
1.00031 1.00162 0.992691
1.00019 1.00416 0.99041
1.00418 1.00169 0.986094
1.00069 1.00505 0.988721
1.00265 1.00216 0.988079
1.00521 0.996798 0.988863
1.00517 0.998325 0.987276
1.00521 0.996798 0.988501
1.00452 1.00103 0.985754
1.00498 1.00004 0.985909
1.00036 1.00298 0.991418
0.999778 1.00482 0.990016
1.00451 1.00043 0.986588
1.00083 1.00428 0.988966
1.00356 1.0007 0.987975
1.00522 0.995686 0.989684
1.00519 0.998252 0.987187
1.0052 0.996937 0.988175
1.00456 1.00036 0.98618
1.00502 0.999894 0.985922
1.0003 1.00116 0.993146
1.00032 1.00248 0.991789
1.0001 1.00295 0.991574
1.00009 1.00269 0.991809
1.00015 1.00262 0.991974
1.00019 1.00304 0.991492
1.0001 1.0028 0.991942
1.00006 1.00336 0.991204
1.00011 1.0026 0.992097
1.00002 1.00111 0.99369
1.00006 1.00099 0.993724
1.00015 0.998438 0.99661
1.00013 1.00095 0.993604
1.00021 0.998426 0.996562
1.00014 0.996941 0.997872
1.00023 0.998493 0.9965
1.00008 0.99705 0.997835
0.999904 0.997256 0.999065
0.999877 0.999011 0.995922
0.999809 0.999884 0.99519
0.999691 0.997869 0.999009
0.999908 1.00076 0.99424
0.999773 0.998454 0.998711
0.999917 0.9991 0.998293
1.00526 0.997274 0.988528
1.00524 0.995961 0.990017
1.00526 0.99522 0.990453
1.00523 0.994948 0.990979
1.00521 0.995325 0.990777
1.00529 0.99785 0.988126
1.00522 0.995356 0.99076
1.00518 0.994963 0.99112
1.00525 0.994934 0.990858
1.00522 0.99494 0.99093
1.00524 0.995986 0.989712
1.00527 0.994911 0.990629
1.00519 0.994965 0.991137
1.00521 0.994947 0.991025
1.00524 0.994926 0.990798
1.00524 0.995114 0.990387
1.00522 0.995472 0.990607
1.00526 0.996559 0.989394
1.00525 0.99495 0.990987
1.00519 0.994981 0.990787
1.00428 1.00229 0.985226
1.00501 1.00215 0.983834
1.00515 1.00058 0.985045
1.00519 0.996272 0.989441
1.00515 0.994941 0.99079
1.00518 0.995398 0.990097
1.00513 0.998474 0.987173
1.00518 0.996133 0.989499
1.00441 1.00204 0.985218
1.0037 1.00306 0.985198
1.00148 1.00504 0.987161
1.00019 1.00314 0.991093
1.00032 1.00509 0.988878
1.0052 0.994953 0.991071
1.00521 0.995003 0.99088
1.00518 0.994913 0.990756
1.00489 1.00222 0.984318
1.00505 1.00204 0.983753
1.00511 1.00022 0.985312
1.00517 0.995082 0.990534
1.00517 0.997993 0.987604
1.00517 0.995342 0.990158
1.00001 1.00198 0.992564
1.00479 1.00211 0.984525
1.00406 1.00308 0.984804
1.00227 1.00504 0.986105
1.00094 1.00509 0.988499
1.00018 1.00483 0.989583
1.00519 0.994953 0.991033
1.00521 0.994918 0.990809
1.00521 0.994896 0.990651
1.00517 0.994918 0.990617
1.00508 1.00272 0.983719
1.00514 0.996226 0.98922
1.005 1.00173 0.983991
1.00507 1.00065 0.98507
1.00008 1.00062 0.993821
0.999977 1.00394 0.990958
1.00048 1.00508 0.989285
1.00163 1.00506 0.987088
1.00482 1.00305 0.983509
1.00402 1.00428 0.983882
1.00027 1.00161 0.992703
0.999977 1.00427 0.990412
1.00521 0.996769 0.988858
1.0004 1.00508 0.988712
1.00441 1.0016 0.985978
1.00222 1.00216 0.988172
1.00517 0.998339 0.987254
1.00521 0.996865 0.988502
1.00474 1.00103 0.9857
1.00503 1.00017 0.985915
1.00025 1.00304 0.991425
0.999969 1.00485 0.989859
1.00478 1.00039 0.986488
1.00058 1.00455 0.989049
1.00344 1.00054 0.988174
1.00523 0.995673 0.989807
1.00519 0.998175 0.987342
1.00521 0.997088 0.988145
1.00455 1.00047 0.986205
1.00501 1.00005 0.985694
0.999728 1.00361 0.991189
0.999896 1.005 0.989442
1.00463 0.999506 0.987081
1.00236 1.00181 0.98811
1.00526 0.994922 0.990215
1.0052 0.99631 0.989386
1.00503 0.999245 0.986267
1.00502 0.999778 0.985853
1.00036 1.00246 0.991806
1.00018 1.00294 0.99157
0.999735 1.00325 0.99226
1.00008 1.00274 0.991964
0.999939 1.00323 0.991503
1.00008 1.00263 0.992086
0.999939 1.00281 0.992126
1.0001 1.0034 0.991193
0.999857 1.00186 0.993253
0.999955 1.00367 0.991293
1.00003 1.00364 0.990981
1.00013 1.00264 0.992026
0.999984 1.00132 0.993491
1 1.0011 0.993686
1.00007 0.998501 0.996669
1.00006 1.00097 0.993724
1.00016 0.998461 0.996617
1.00012 0.99694 0.9979
1.00021 0.998441 0.996574
1.00012 0.996929 0.997877
1.00006 0.99705 0.997834
0.999997 0.998429 0.99633
0.999877 0.999101 0.995868
0.99972 0.997488 0.999127
0.999797 1.00001 0.995144
0.999722 0.997946 0.99896
0.999846 0.998536 0.998587
1.00524 0.996012 0.989726
1.00525 0.994933 0.990899
1.00527 0.994904 0.990584
1.00523 0.994937 0.990904
1.00518 0.994965 0.991132
1.00521 0.995347 0.990757
1.0052 0.994967 0.991123
1.00521 0.994949 0.991021
1.00524 0.994923 0.990791
1.00523 0.995097 0.990441
1.00522 0.99496 0.991046
1.00525 0.994931 0.99088
1.00527 0.994899 0.990638
1.00521 0.994946 0.991059
1.00521 0.995081 0.990787
1.00518 0.994913 0.990792
1.00467 1.00228 0.984329
1.00496 1.00219 0.983726
1.0051 1.00015 0.985301
1.00517 0.995111 0.990495
1.00514 0.995381 0.990055
1.00518 0.997721 0.987924
1.0047 1.00206 0.984498
1.00359 1.00299 0.985355
1.00258 1.00506 0.986178
1.00006 1.00181 0.992765
1.00078 1.00507 0.988624
1.0001 1.00487 0.98947
1.0052 0.994947 0.991034
1.00521 0.994915 0.990784
1.00521 0.994893 0.990644
1.00489 1.00271 0.983764
1.00504 1.00172 0.9839
1.00508 1.00038 0.985399
1.00516 0.994922 0.990571
1.00512 0.996239 0.989147
1.00008 1.00054 0.994025
0.999975 1.00397 0.990939
1.00464 1.00262 0.983668
1.00358 1.0043 0.984754
1.00161 1.00506 0.987338
1.00041 1.00507 0.98916
1.00523 0.994928 0.990909
1.00526 0.994876 0.990527
1.0052 0.994891 0.990612
1.0051 0.994931 0.990436
1.00469 1.00287 0.983246
1.00505 0.999064 0.986609
1.00497 1.00234 0.983798
1.00025 0.999884 0.994548
1.00031 1.00102 0.993371
0.999935 1.00212 0.992669
1.00012 1.00487 0.98983
1.00066 1.00507 0.988373
1.00157 1.00462 0.986458
1.00453 1.00299 0.98388
1.00371 1.00398 0.985605
1.00013 1.00319 0.991432
1.00012 1.00498 0.989701
1.00524 0.995659 0.989928
1.00068 1.0045 0.989128
1.00501 1.00041 0.986391
1.00323 1.0004 0.988368
1.00519 0.998074 0.9875
1.00521 0.9972 0.988119
1.00467 1.00054 0.98623
1.00498 1.00016 0.985468
0.999866 1.00367 0.991064
1.00006 1.00502 0.98943
1.00488 0.999493 0.987102
1.00261 1.00194 0.988217
1.00528 0.994914 0.990271
1.0052 0.996266 0.989244
1.00502 0.999188 0.986362
1.00502 0.99994 0.985771
0.999776 1.00405 0.990783
1.0053 0.994878 0.990329
1.00181 1.00408 0.988359
1.00464 0.99986 0.986925
1.00521 0.995271 0.990417
1.00501 0.998209 0.986374
1.00478 1.00108 0.985274
1.00021 1.00298 0.991565
0.999715 1.00315 0.992184
0.999228 1.00283 0.993738
1.00008 1.0026 0.992077
1.00014 1.00345 0.991182
0.999476 1.00312 0.992309
1.0001 1.00264 0.992016
0.999958 1.00373 0.991006
0.999408 1.00214 0.993464
1.00008 1.00351 0.99126
0.999678 1.00075 0.995161
0.999536 1.00278 0.992786
0.999959 1.00445 0.990358
1.00035 1.00362 0.990622
1.00011 1.00295 0.991701
0.999921 1.0017 0.993216
0.999936 1.00143 0.993476
0.999976 0.9987 0.996672
0.999974 1.00116 0.993681
1.00007 0.998552 0.996666
1.00006 0.996964 0.997961
1.00016 0.998486 0.996626
1.00012 0.996921 0.9979
1.00012 0.996919 0.997876
1.00019 1.00003 0.994522
1.0001 0.998095 0.996512
1 0.998485 0.996299
0.999807 0.997126 0.999191
0.999874 0.999201 0.995815
0.999738 0.997562 0.999098
0.99976 0.998056 0.998899
1.00523 0.99508 0.990495
1.00524 0.994922 0.990784
1.00522 0.99495 0.991018
1.0052 0.99497 0.991109
1.00522 0.994964 0.991038
1.00525 0.994932 0.990894
1.00525 0.9949 0.990616
1.00525 0.994926 0.99094
1.00531 0.994921 0.990689
1.00533 0.994961 0.991112
1.0052 0.994942 0.991034
1.0052 0.994915 0.990758
1.00521 0.994893 0.990636
1.00461 1.00271 0.98381
1.00507 1.00188 0.983819
1.00498 1.00017 0.985729
1.00516 0.994924 0.990526
1.00511 0.996341 0.989074
1.00458 1.00265 0.983832
1.00324 1.00438 0.985628
1.00138 1.00504 0.987587
1.00008 1.0004 0.994229
1.00011 1.00385 0.990922
1.00042 1.00507 0.989032
1.00523 0.994927 0.990897
1.0002 0.999925 0.994541
1.00024 1.00108 0.993274
1.00526 0.994888 0.99054
1.00519 0.994886 0.990622
1.00496 1.00289 0.983222
1.00482 1.00221 0.983891
1.005 0.998921 0.986527
1.00511 0.995021 0.990359
0.999996 1.00208 0.992855
1.00014 1.00481 0.989796
1.00463 1.00335 0.98359
1.00291 1.00379 0.986407
1.00176 1.0048 0.986763
1.00074 1.00508 0.988397
1.00529 0.994916 0.990665
1.00525 0.994804 0.990532
1.00514 0.994877 0.990348
1.00484 0.995143 0.990342
1.00432 1.00318 0.983813
1.00442 1.00245 0.984535
1.00006 1.00162 0.992896
1.00028 1.00091 0.993496
1.00075 1.00093 0.992908
1.00033 1.00293 0.991283
1.00027 1.00504 0.989386
1.00208 1.00431 0.987517
1.00077 1.00516 0.987124
1.00379 1.00057 0.986422
1.00006 1.00362 0.990939
1.00036 1.00502 0.98942
1.00529 0.994897 0.990328
1.0052 0.99627 0.989103
1.00289 1.00214 0.988326
1.005 0.999444 0.987124
1.00501 0.999158 0.986454
1.00507 1.00011 0.985689
1.00003 1.00394 0.99071
1.00531 0.994884 0.990536
1.00156 1.00414 0.988414
1.00475 0.999901 0.986747
1.00521 0.995245 0.990413
1.005 0.998385 0.986626
1.00476 1.00095 0.985312
1.00013 1.0047 0.990162
1.00467 0.99486 0.991322
1.00304 1.00256 0.987587
1.0046 1.00117 0.985442
1.00482 0.996581 0.989588
1.00361 1.0016 0.985793
0.998537 0.997151 0.987605
0.999604 1.00316 0.99211
0.998864 1.00301 0.993713
0.999456 1.00222 0.994238
1.00004 1.00271 0.992005
0.999925 1.00381 0.991031
1.00035 1.00322 0.991229
0.999114 1.00225 0.993678
1.00008 1.00298 0.991699
1.00023 1.00373 0.990651
0.999647 1.00087 0.994772
1.00001 1.00443 0.990374
0.99978 1.0027 0.992526
0.999157 1.00147 0.995278
1.00033 1.0047 0.989763
1.0001 1.0045 0.990328
1.00052 1.00383 0.990215
1.00013 1.00335 0.991096
1.00027 1.00397 0.990654
1.00011 1.00351 0.99091
0.999932 1.0018 0.993085
0.999947 1.00168 0.993198
0.999881 0.998852 0.996089
0.999948 1.00141 0.993458
0.99997 0.998763 0.996355
1.00001 0.997109 0.999125
1.00008 0.9986 0.996664
1.00007 0.996935 0.997962
1.00013 0.996902 0.997896
1.0001 1.00005 0.994585
1.00021 0.999935 0.994544
1.0001 0.99801 0.996626
1.00007 0.99812 0.996773
0.999886 0.996938 0.999229
0.999997 0.998532 0.996268
0.999803 0.997238 0.999176
0.999759 0.997626 0.99907
1.00523 0.9949 0.990593
1.00524 0.994933 0.990908
1.00522 0.994967 0.991029
1.00525 0.994925 0.990939
1.0053 0.994918 0.990692
1.00531 0.994954 0.990756
1.00533 0.994914 0.990729
1.00121 0.994899 0.983875
1.00448 0.994931 0.992773
1.00001 1.00147 0.993316
1.00523 0.994925 0.990885
1.00526 0.994895 0.990552
1.00517 0.994879 0.990632
1.00485 1.00266 0.983189
1.00499 1.00205 0.98398
1.00503 0.998882 0.986452
1.00511 0.995123 0.99028
1.00494 1.00328 0.983295
1.00212 1.00361 0.987201
1.00185 1.00499 0.987074
1.00014 1.00004 0.994536
1.00086 1.00508 0.988423
0.999963 1.00205 0.993031
1.00022 1.00482 0.98976
1.00025 1.00104 0.993177
1.00529 0.994902 0.990658
1.00008 1.00159 0.993005
1.00017 1.00107 0.993499
1.00062 1.00092 0.993014
1.00526 0.994825 0.990498
1.00514 0.994884 0.990359
1.00395 1.00358 0.98388
1.00463 1.00153 0.985124
1.00481 0.995644 0.990237
0.999989 1.00313 0.991446
1.00041 1.00503 0.989244
1.00365 1.00199 0.986251
1.00148 1.00494 0.987044
1.00179 1.00406 0.987695
1.00525 0.994858 0.990897
1.00515 0.99479 0.9908
1.00507 0.995157 0.989927
1.00464 0.997477 0.98961
1.00229 1.00314 0.987467
0.999815 1.00278 0.992124
1.00073 1.001 0.992478
0.999927 1.00173 0.992649
0.999992 1.00447 0.991242
1.00022 1.00496 0.989669
1.00041 1.00458 0.98855
1.00198 1.00155 0.988694
1.00042 1.00376 0.990635
1.00111 1.0042 0.988468
1.00533 0.994882 0.990732
1.00521 0.995187 0.990403
1.00498 0.998572 0.986879
1.00476 0.999924 0.986567
1.00473 1.00078 0.985355
1.00042 1.00457 0.99017
1.00457 0.994858 0.991502
1.00305 1.0023 0.987469
1.00469 1.00106 0.985443
1.00491 0.996004 0.989846
1.00376 1.00173 0.985857
0.998614 0.997575 0.985658
1.00043 1.00435 0.990009
1.00263 0.998157 0.991091
1.0036 1.00169 0.986456
1.00289 1.00119 0.987225
1.00309 0.997785 0.990618
0.999979 0.994903 0.948363
0.996404 0.994803 0.96791
0.995686 1.00102 0.98816
0.999672 0.994814 0.875552
0.9947 0.994797 0.842659
0.998603 1.00319 0.993692
0.99876 1.00271 0.994529
0.99891 1.00277 0.994764
1.00007 1.00299 0.991699
1.00032 1.00354 0.990679
1.00005 1.0044 0.99039
0.999993 1.00261 0.992261
0.999627 1.00099 0.994381
1.00016 1.00431 0.990281
1.00012 1.00335 0.991183
1.00046 1.00381 0.990277
0.999389 1.00096 0.994877
1.00011 1.00465 0.990039
1.00025 1.00458 0.990125
0.999413 1.00474 0.990882
1.00006 1.00461 0.990206
1.00047 1.00421 0.989773
1.00021 1.0034 0.990922
1.00038 1.00434 0.989922
1.00037 1.00389 0.990555
0.999844 1.00417 0.990879
1.0002 1.00404 0.990567
1.00018 1.00327 0.991304
1.00015 1.00352 0.990899
0.999965 1.00178 0.993076
0.999949 1.00179 0.993088
0.999857 0.998951 0.996077
0.999932 1.00174 0.993183
0.999876 0.998886 0.99608
0.999974 0.997113 0.999146
0.999958 0.998833 0.99604
1.00001 0.997103 0.998536
1.00009 0.996908 0.997961
1 1.00005 0.994741
1.00012 1.00005 0.994589
1.0001 0.997912 0.996729
1.00024 0.999845 0.994564
1.0001 0.997948 0.996888
0.999933 0.99675 0.999263
1.00007 0.99819 0.99649
0.999873 0.997007 0.999214
0.999806 0.997286 0.999162
1.00529 0.994915 0.990695
1.00525 0.994925 0.990938
1.0053 0.994948 0.990409
1.0008 0.994896 0.984003
1.00532 0.994912 0.990739
1.00435 0.995252 0.992425
1.00501 0.996364 0.991288
0.996403 0.99492 0.967149
1.00062 0.996602 0.986144
1.00007 1.00134 0.993395
1.00006 1.00146 0.993292
0.999808 1.00278 0.992314
0.999866 1.00226 0.992748
1.00529 0.994895 0.990651
1.00527 0.99485 0.990464
1.00515 0.994887 0.99037
1.00472 1.00351 0.983943
1.00447 1.00013 0.985708
1.00472 0.99609 0.990126
1.00326 1.00323 0.986098
1.00246 1.00475 0.986962
1.00159 1.00364 0.987871
1.00004 1.00134 0.993503
1.00036 1.00506 0.989102
1.00004 1.00325 0.99161
1.00008 1.00163 0.993115
1.00045 1.00093 0.993108
1.00525 0.994851 0.990903
1 1.00271 0.992111
1.00079 1.00096 0.992678
0.999336 1.00168 0.993845
1.00515 0.9948 0.990699
1.00504 0.995202 0.989932
1.00321 1.00197 0.987424
1.00433 0.996928 0.990048
1.0002 1.004 0.990902
1.00036 1.00491 0.98905
1.00195 1.00297 0.988542
1.00163 1.00412 0.988179
1.00441 0.994798 0.991856
1.00494 0.995194 0.991042
1.00496 0.995937 0.9896
1.00264 0.998382 0.992097
0.999247 1.00373 0.992197
1.00047 1.00188 0.991884
0.998587 1.00447 0.992482
0.999254 1.00514 0.990133
0.999972 0.994893 0.937388
1.00057 1.0045 0.990175
1.00301 1.00219 0.98735
1.00439 0.994877 0.991703
1.005 0.995691 0.9901
1.00386 1.00181 0.985904
1.00469 1.00099 0.985438
0.998711 0.99736 0.98361
1.00043 1.00412 0.990379
1.00266 0.997605 0.991083
1.00347 1.00203 0.986484
1.00351 1.00095 0.987258
1.0035 0.997822 0.990346
1.00065 0.994896 0.936698
0.996578 0.994825 0.963837
0.996035 1.00175 0.988174
0.999362 0.994806 0.879891
0.994704 0.994801 0.831845
1.00031 1.00404 0.990578
0.999796 0.994858 0.886764
0.994696 0.994783 0.838048
1.00075 1.00006 0.991751
1.00193 1.00155 0.989456
1.00144 0.999601 0.992252
0.995388 1.00178 0.989573
0.999354 0.994906 0.945207
0.994887 0.994798 0.960946
0.997149 0.995674 0.892319
0.99473 0.994802 0.830549
0.998177 1.00306 0.994822
0.998602 1.00247 0.99463
0.99886 1.00428 0.993311
1.00015 1.00331 0.991268
1.0004 1.00386 0.99034
0.999844 1.00464 0.990236
0.999903 1.0046 0.990316
0.999634 1.00034 0.994477
1.0002 1.00343 0.990923
1.00006 1.00492 0.990063
1.00001 1.00468 0.990159
1.00058 1.00401 0.989903
0.999336 1.00483 0.99108
0.999649 1.00505 0.990718
0.998684 1.0048 0.991739
1.00027 1.00464 0.989795
1.00045 1.0042 0.989978
1.00043 1.00429 0.989914
1.00027 1.00377 0.990704
1.00045 1.00452 0.989673
0.999904 1.00409 0.990956
0.999635 1.00344 0.991216
0.999778 1.00491 0.990242
0.999738 1.00456 0.990574
0.99995 1.00406 0.990893
1.00008 1.00319 0.991474
1.00013 1.00405 0.99048
1.00018 1.00325 0.991246
1.00001 1.0018 0.992995
1.0002 1.00349 0.990887
0.999955 1.00179 0.993085
0.999971 0.998911 0.996576
0.999933 1.00182 0.99309
0.999881 0.998915 0.996355
0.99995 0.997117 0.997991
0.999869 0.998907 0.996071
0.999972 0.997123 0.999151
1.00002 0.997112 0.997945
1.00013 1.00137 0.993223
0.999956 1.00006 0.994808
1.00001 1.00004 0.99474
1.00008 0.997896 0.99677
1.00013 1.00002 0.994592
1.00011 0.997866 0.996731
0.999974 0.996653 0.999281
1.00009 0.997935 0.997124
0.99995 0.99686 0.998736
0.999917 0.997087 0.998158
1.00041 0.994881 0.984137
1.00531 0.994914 0.990748
1.00404 0.996081 0.99207
0.996573 0.994899 0.968029
1.00058 0.996225 0.986491
1.00502 0.995773 0.991229
1.00311 0.99683 0.987448
0.996674 0.995987 0.970968
0.999975 0.994885 0.945981
0.999398 0.995295 0.894917
0.994667 0.994771 0.841383
0.999795 1.00236 0.992633
1.00007 1.00134 0.993387
1.00014 1.00141 0.993268
0.999886 1.00268 0.99234
0.999536 1.00358 0.992068
1.00032 1.00218 0.991981
1.00007 1.00279 0.992177
0.999982 1.00221 0.992597
1.00525 0.994831 0.990906
1.00515 0.99481 0.990599
1.00507 0.99515 0.989936
1.00331 1.00173 0.987388
1.00414 0.996681 0.990493
1.00219 1.00398 0.988378
1.00268 1.00383 0.987812
1.00072 1.00506 0.988436
1.00054 1.001 0.992883
1.00013 1.00403 0.990553
1.0002 1.00264 0.992105
0.998934 1.00159 0.99503
1.00433 0.994779 0.992075
0.999367 1.00362 0.992231
1.00034 1.00224 0.992231
1.00483 0.995012 0.991004
1.00486 0.995552 0.989833
1.00238 0.998343 0.991654
0.999468 1.005 0.991277
1.00039 1.00437 0.990302
1.00312 0.994784 0.992027
1.00421 0.997354 0.990814
1.00473 0.995279 0.990895
1.00103 0.999061 0.99314
0.999701 1.00469 0.990541
0.999358 1.00407 0.991775
0.999427 1.00529 0.991204
0.999817 0.994895 0.889168
1.00031 0.994897 0.949379
1.00051 1.0038 0.990748
1.00347 1.00224 0.986516
1.00265 0.997413 0.991072
1.00399 0.997982 0.990082
1.00406 1.00079 0.987312
0.999978 0.994892 0.946948
0.99649 0.99485 0.963344
0.996222 1.00248 0.988177
0.999052 0.994833 0.894242
0.994708 0.994802 0.820497
1.0003 1.00389 0.990521
0.999809 0.994858 0.886557
0.994669 0.994784 0.83168
1.00088 1.00006 0.991808
1.00201 1.00147 0.989501
1.00151 0.999729 0.992567
0.99555 1.00222 0.990216
1.00075 0.995915 0.938495
0.994872 0.994784 0.963924
0.997414 0.998072 0.891332
0.994751 0.994793 0.829313
0.999548 1.00394 0.992731
0.994699 0.99483 0.832041
0.99475 0.994804 0.844638
0.998111 1.00158 0.995698
0.999797 1.00178 0.994214
0.994926 1.00209 0.98886
0.994922 0.996324 0.964388
0.996956 0.995897 0.934385
0.994724 0.999265 0.89626
0.994826 0.99481 0.832562
0.998476 1.00228 0.994501
0.999184 1.00369 0.993029
0.998179 1.00359 0.993871
1.00017 1.00347 0.990923
1.00066 1.00384 0.990034
0.999995 1.00473 0.99011
0.999876 1.00501 0.990002
0.999109 1.00476 0.991279
1.00042 1.00423 0.989977
0.999663 1.00493 0.990549
1.00034 1.00457 0.989798
0.998349 1.00481 0.992143
0.99636 1.00489 0.995414
0.999415 1.00476 0.99118
1.00052 1.00451 0.98964
1.00048 1.00423 0.989906
1.00026 1.0036 0.99085
1.00041 1.00461 0.989629
0.999983 1.00402 0.990894
0.999503 1.00336 0.991871
0.999438 1.00493 0.990671
0.999558 1.00457 0.990717
0.999005 1.00412 0.992067
1.00058 1.00216 0.991847
1.00103 1.00209 0.990108
0.999516 1.00479 0.990464
0.99989 1.00477 0.990272
0.99979 1.00492 0.990069
0.999787 1.00467 0.990568
0.999998 1.00348 0.99128
0.999965 1.00415 0.990905
1.00011 1.0032 0.991476
1.00007 1.00172 0.992922
1.00018 1.00326 0.991188
1.00001 1.00178 0.993013
1.00006 0.998912 0.996417
0.99995 1.00179 0.993094
0.999958 0.998894 0.996245
1.00002 0.997059 0.997915
0.99988 0.998901 0.996066
0.999973 0.997122 0.999153
0.999972 0.997126 0.999156
1.00018 1.00169 0.993129
0.999953 1.00019 0.9947
1.00009 1.00146 0.993233
1.00008 0.997893 0.996775
0.999953 1.00007 0.994809
1.00002 1.00006 0.994739
1.00009 0.997882 0.996765
1 0.996602 0.999284
1.00009 0.997841 0.997207
0.99999 0.996659 0.998787
0.999968 0.99687 0.998244
0.999821 0.99486 0.876286
0.99467 0.994772 0.832671
0.997501 0.994879 0.968021
1.00061 0.995398 0.98689
1.00506 0.995063 0.991171
0.996316 0.995671 0.971431
1.00339 0.99604 0.9879
1.00111 0.994891 0.943662
0.999658 0.994809 0.879873
0.994695 0.994785 0.830745
0.99849 0.994845 0.975984
0.999853 0.995119 0.945252
0.997228 0.996352 0.8915
0.994727 0.994772 0.833887
1.00009 1.00321 0.991592
0.999866 1.00219 0.992751
1.00009 1.00134 0.99338
0.999908 1.00262 0.992366
0.999527 1.00341 0.992234
1.00006 1.00358 0.991155
1.00025 1.0027 0.991791
1.00035 1.00331 0.990869
1.00008 1.00274 0.99206
1.00001 1.00229 0.992447
1.00428 0.994776 0.992282
1.00472 0.994848 0.990974
1.00456 0.99529 0.990064
1.00209 0.99868 0.991209
1.00098 1.00418 0.990473
0.999607 1.00519 0.990076
1.00044 1.00204 0.992598
0.999446 1.00367 0.992258
1.00271 0.995046 0.992394
0.999763 1.00476 0.990374
0.999088 1.00425 0.991662
1.00416 0.996435 0.990973
1.00466 0.995426 0.990563
1.00098 0.999134 0.993335
0.999475 1.00524 0.991008
1.00047 0.995335 0.992377
1.00246 0.996843 0.993749
0.999963 1.00156 0.993669
0.998917 1.00489 0.99019
0.999355 1.00499 0.990367
0.999082 1.00515 0.991284
0.994729 0.994855 0.853162
0.999813 0.994896 0.893761
0.999968 0.99491 0.937669
1.00005 1.00389 0.990455
1.00216 1.00135 0.989534
1.00111 1.00005 0.991868
1.00153 0.99964 0.992883
0.999818 0.994862 0.896456
0.999524 0.994878 0.936104
0.994865 0.994809 0.961145
0.995606 1.00262 0.990839
0.997177 0.995888 0.878441
0.99465 0.994791 0.835827
0.994737 0.994799 0.840068
0.999294 1.00345 0.99252
0.994696 0.994829 0.840951
0.994777 0.994807 0.844186
0.997893 1.00119 0.996114
0.999433 1.00165 0.994159
0.995133 0.999474 0.991454
0.994981 0.995858 0.962938
0.997183 0.999016 0.945067
0.995451 0.999345 0.881789
0.994835 0.994806 0.842086
0.997285 1.00349 0.996036
0.994793 0.994851 0.852928
0.994812 0.994795 0.842553
0.995099 1.00215 1.00015
0.99493 0.998451 0.970862
0.994905 0.999941 0.94531
0.995243 0.997489 0.874984
0.994909 0.994849 0.844723
0.999429 1.00328 0.992729
0.998465 1.0036 0.994147
0.996678 1.00416 0.996362
1.00037 1.00429 0.989977
1.00046 1.00448 0.989803
0.99975 1.00482 0.99038
0.997999 1.00472 0.992553
1.0004 1.00459 0.989658
0.999412 1.00474 0.991134
0.996389 1.00477 0.995853
0.995162 1.00506 0.99761
0.996334 1.00497 0.995887
0.999959 1.0042 0.990821
1.00039 1.00471 0.989584
1.00002 1.00394 0.990832
0.999284 1.00348 0.992514
0.999564 1.00459 0.990786
0.99952 1.00494 0.990692
0.999028 1.00425 0.992162
0.999319 1.00455 0.991469
0.997463 1.00491 0.994066
1.00217 0.998133 0.992465
1.00047 1.00194 0.992147
1.00093 1.00209 0.990778
1.0039 1.00175 0.98687
1.00067 1.004 0.990344
1.0004 1.00231 0.991225
0.999883 1.00461 0.990312
0.999785 1.00494 0.989843
1.00003 1.00459 0.990302
0.999941 1.00493 0.990075
1.00003 1.00401 0.99074
1.00002 1.00458 0.990564
1.00013 1.00338 0.991264
1.00012 1.00178 0.992804
1.00023 1.00305 0.991479
1.00012 1.00171 0.992927
1.00014 0.998937 0.996261
1.00003 1.00173 0.99303
1.00005 0.998918 0.996062
1.00007 0.997122 0.997781
0.999963 0.998881 0.99595
1 0.997082 0.998534
0.99998 0.997104 0.999144
1.00021 1.00224 0.99226
1.00004 1.00033 0.994462
1.00012 1.00173 0.99295
1.00007 0.99795 0.996721
0.999963 1.00016 0.994703
1.00004 1.00153 0.993241
1.00002 0.996572 0.999285
1.00007 0.997896 0.996775
0.999957 1.00007 0.99481
1.00009 0.997866 0.996759
1 0.996621 0.999284
0.999973 0.996641 0.999282
0.994683 0.994808 0.8371
0.999816 0.994863 0.886274
0.994765 0.994794 0.842344
0.994693 0.99478 0.83095
0.996145 0.995293 0.969062
1.00355 0.995028 0.988376
0.999993 0.994913 0.940803
0.999723 0.994844 0.895069
0.994727 0.9948 0.819752
0.998422 0.99502 0.975288
1.00129 0.996004 0.932501
0.997473 0.998423 0.890269
0.994748 0.994772 0.827637
0.995462 0.994889 0.968645
0.997184 0.997397 0.933815
0.994788 0.998658 0.875597
0.994819 0.994828 0.82934
1.00022 1.00429 0.990803
0.999959 1.00316 0.991713
0.999901 1.00211 0.992865
0.999495 1.00324 0.992401
1.00052 1.004 0.989862
0.999961 1.00356 0.991325
1.00004 1.00309 0.991602
1.00075 1.00286 0.990895
1.00043 1.00332 0.990941
1.00008 1.00264 0.991943
1.00248 0.994816 0.99276
1.00419 0.99536 0.99115
1.00456 0.995616 0.990234
1.00094 0.998508 0.993551
1.00012 1.00515 0.99081
0.999282 1.00454 0.991558
0.999756 1.00491 0.990207
0.999902 1.00505 0.989914
1.00011 0.99535 0.992721
0.999776 1.00496 0.990247
0.999531 1.00517 0.991198
1.00247 0.996316 0.994122
1.00058 1.00033 0.993509
0.997688 0.996993 0.99329
0.998003 0.997711 1.00005
0.998126 1.00341 0.994018
0.999908 1.00472 0.990248
0.998921 1.0051 0.99183
0.994829 0.994831 0.858266
0.994726 0.994849 0.849872
0.999809 0.994886 0.879572
0.999215 1.00294 0.992334
0.999241 1.00148 0.994082
0.997914 1.00059 0.996535
0.994677 0.994823 0.840325
0.997235 0.997375 0.934854
0.994992 0.995964 0.963439
0.995457 0.997254 0.994247
0.994799 0.998191 0.897699
0.99479 0.99481 0.844046
0.994845 0.994815 0.842645
0.997477 1.00332 0.996331
0.994798 0.994844 0.855768
0.994801 0.994792 0.84298
0.99531 1.00179 0.999092
0.994966 0.997961 0.972654
0.995284 0.998909 0.934213
0.994867 0.994848 0.842307
0.994874 0.999492 0.882747
0.995246 1.00488 0.999168
0.994788 0.994826 0.855286
0.994844 0.994808 0.847432
0.994812 0.99483 0.830111
0.994934 0.999448 0.991166
0.994902 0.998962 0.94897
0.995468 0.998325 0.888321
0.998876 1.0038 0.994431
0.997054 1.0045 0.99578
0.994973 1.00519 0.998725
1.00032 1.00464 0.989675
0.999326 1.00475 0.991083
0.996475 1.00482 0.996283
0.999751 1.00442 0.990752
0.996602 1.00499 0.995872
0.995401 1.00514 0.997586
0.995179 1.00528 0.997811
0.996831 1.00474 0.995321
0.999504 1.00461 0.990862
0.999578 1.00495 0.990714
0.999074 1.00442 0.992271
0.997744 1.00485 0.993923
0.999299 1.00463 0.991388
0.999047 1.00282 0.993507
1.00048 0.99882 0.994781
1.00206 1.00104 0.989004
1.00033 1.00174 0.992442
1.00151 1.00212 0.990357
1.00395 1.00221 0.986149
1.00506 1.00142 0.984732
1.00192 1.00269 0.989059
1.00314 1.00176 0.987067
1.00045 1.005 0.98929
1.00039 1.00397 0.990546
0.999738 1.00254 0.992332
1.00024 1.00446 0.990159
0.999844 1.00499 0.989842
1.00019 1.00425 0.990258
1.00003 1.00495 0.990082
1.00013 1.00388 0.990751
1.00013 1.00215 0.992426
1.00019 1.00337 0.991248
1.00014 1.00177 0.992791
1.00015 0.998941 0.996205
1.00014 1.00168 0.992932
1.00014 0.998923 0.99592
1.00011 0.997185 0.997681
1.00007 0.998902 0.995754
1.00005 0.997121 0.998447
1.00001 0.997096 0.999105
1.00043 1.00235 0.991595
1.0001 1.00065 0.99378
1.00026 1.0022 0.992258
1.00011 0.99803 0.99658
1.00003 1.00033 0.994315
1.00011 1.00173 0.992775
1.00004 0.996614 0.999268
1.00008 0.997932 0.996728
0.999966 1.00013 0.994707
1.00002 0.996595 0.999284
1.00006 0.997902 0.996775
1 0.996608 0.999284
0.994825 0.994835 0.850098
0.994696 0.994829 0.847326
0.999812 0.994852 0.886047
1.00088 1.00273 0.990682
0.994817 0.994802 0.84956
0.994762 0.994791 0.842271
0.994715 0.994793 0.840536
0.998786 0.995463 0.974297
0.999522 0.995318 0.943773
0.997117 0.996127 0.876535
0.994736 0.994793 0.833602
0.996654 0.994892 0.965622
0.997242 0.999371 0.943816
0.995297 0.999557 0.879065
0.994812 0.994817 0.833784
0.9949 0.994875 0.961016
0.994881 0.998924 0.943039
0.99491 0.999978 0.88521
0.994879 0.994847 0.844393
1 1.00472 0.990181
1.00012 1.00417 0.990589
1.00007 1.00295 0.991833
1.00064 1.00329 0.990457
1.00041 1.00411 0.990103
0.999973 1.0036 0.991492
1.00077 1.00294 0.990875
1.00046 1.00335 0.991008
0.999194 0.996303 0.99293
1.00262 0.995925 0.994429
1.00019 1.00506 0.989634
1.00108 0.999954 0.993349
0.999773 1.00519 0.991108
1 1.00504 0.990132
0.999754 1.00473 0.990242
0.996733 0.996366 0.994012
0.999083 1.00478 0.992019
0.998618 1.00338 0.994185
0.997885 0.99829 1.00023
0.999665 1.00481 0.991057
0.995833 0.999608 0.990239
0.995902 1.00218 0.999188
0.996824 1.00473 0.995197
0.999024 1.00425 0.992583
0.994784 0.994803 0.860961
0.994831 0.994828 0.856871
0.994723 0.994846 0.846543
0.997556 1.00336 0.996642
0.995388 1.00107 0.998037
0.994807 0.994837 0.85847
0.994894 0.999927 0.945354
0.994981 0.997504 0.970085
0.994868 0.999584 0.881773
0.994799 0.994787 0.843294
0.994856 0.994847 0.839922
0.995464 1.0047 0.998883
0.99479 0.994828 0.855166
0.994843 0.994808 0.849885
0.994828 1.00013 0.994726
0.994802 0.994822 0.834303
0.994885 0.997422 0.94215
0.995186 0.998732 0.891136
0.994891 1.00379 0.998386
0.994812 0.994843 0.859621
0.994798 0.9948 0.850228
0.994714 0.994775 0.834451
0.995027 0.99998 0.884798
0.994905 1.00026 0.97806
0.995262 0.998678 0.935166
0.997698 1.00467 0.995213
0.995376 1.00519 0.998476
0.994929 1.00515 0.998532
0.999579 1.00452 0.990682
0.996752 1.00508 0.995861
0.995567 1.00514 0.997569
0.997001 1.00464 0.995271
0.995248 1.0051 0.997857
0.997703 1.0019 0.997584
0.997988 1.00471 0.993773
0.999251 1.00465 0.991315
0.999083 1.00298 0.993891
0.998973 1.00343 0.99196
0.998833 0.999477 0.997027
1.002 1.00067 0.989906
1.00402 1.00294 0.984539
1.00494 1.00215 0.983878
1.00209 1.00212 0.989917
1.00403 1.00237 0.985428
1.00518 1.00135 0.984767
1.00404 1.00083 0.986892
1.0047 1.00134 0.985073
1.00052 1.00509 0.98868
1.00192 1.00287 0.988919
1.00237 1.00176 0.987265
1.00022 1.00458 0.989716
1.00017 1.00504 0.989436
1.00015 1.00391 0.990753
0.999907 1.00506 0.989842
1.00023 1.00421 0.990268
1.00021 1.00261 0.99181
1.00023 1.00381 0.990761
1.00014 1.00217 0.992414
1.00012 0.999122 0.995429
1.00018 1.00181 0.992779
1.00018 0.998941 0.995538
1.00001 0.997173 0.999021
1.00015 0.998931 0.995599
1.00008 0.997184 0.99836
1.00005 0.997139 0.999049
1.00043 1.00248 0.991427
1.00024 1.00098 0.99323
1.00039 1.0024 0.991725
1.00016 0.998167 0.996363
1.00014 1.00065 0.993712
1.00026 1.00221 0.992252
1.00005 0.996642 0.999237
1.00011 0.998006 0.996593
1.00004 1.00033 0.99417
1.00004 0.99659 0.999274
1.00008 0.997913 0.996735
1.00002 0.996617 0.999284
0.994796 0.994833 0.859229
0.994823 0.99484 0.850197
0.994688 0.994835 0.847425
1.00079 1.00277 0.990825
1.00066 1.00301 0.990622
1.00086 1.00261 0.991
0.994859 0.994808 0.846781
0.994816 0.994794 0.84989
0.994758 0.994783 0.842227
0.996844 0.994871 0.967121
0.997263 0.996586 0.932677
0.994782 0.999927 0.896311
0.994826 0.994824 0.828906
0.994997 0.994954 0.964377
0.995194 0.999854 0.939596
0.994849 0.999133 0.882688
0.994872 0.994842 0.841814
0.994885 0.995636 0.960887
0.994879 0.998302 0.944764
0.995438 0.998655 0.888067
0.994843 0.994815 0.83286
1.00013 1.0036 0.990873
1.00025 1.00447 0.989978
1.00032 1.00406 0.990375
1.00073 1.00321 0.990409
1.00022 1.00422 0.99035
1.00078 1.00302 0.990855
0.996172 0.995884 0.994743
0.997392 0.998833 1.0005
0.999839 1.00449 0.990233
0.999098 1.00258 0.994335
0.999137 1.00462 0.992204
0.99942 1.0047 0.991104
0.998687 1.00462 0.992631
0.995404 0.999803 0.990193
0.996586 1.00501 0.9958
0.99636 1.00242 0.998393
0.998639 1.00443 0.993056
0.995208 1.00216 0.986423
0.995689 1.00431 0.995989
0.996355 1.00487 0.99652
0.99481 0.994817 0.862044
0.994783 0.994809 0.860986
0.994832 0.994825 0.855479
0.99543 1.00438 0.998551
0.994782 1.00046 0.991073
0.994794 0.99483 0.855057
0.99482 0.999045 0.942338
0.995431 0.99832 0.87741
0.99484 0.994807 0.852319
0.994822 0.994832 0.829748
0.994908 1.00363 0.998882
0.99481 0.994844 0.860595
0.994808 0.994797 0.850565
0.994898 0.999682 0.975278
0.99474 0.994776 0.828488
0.995224 0.999907 0.881206
0.994959 0.997546 0.947443
0.994955 1.00509 0.992365
0.994787 0.994839 0.859393
0.994777 0.994798 0.843312
0.99466 0.994759 0.842726
0.994766 0.998314 0.875344
0.995027 0.999743 0.943358
0.994901 1.00075 0.969294
0.995754 1.00515 0.998215
0.995095 1.0049 0.99854
0.997226 1.00213 0.99807
0.997212 1.00458 0.995222
0.995358 1.00504 0.997862
0.996467 1.00352 0.997546
0.999081 0.99711 0.999917
0.99911 1.00323 0.994265
1.00107 1.00246 0.991353
1.00244 1.00405 0.986771
1.00183 1.00038 0.990896
1.00407 1.0028 0.984775
1.0044 1.00407 0.98293
1.00491 1.0018 0.984002
1.00513 1.00169 0.984183
1.0049 1.00223 0.983826
1.00431 1.00244 0.984714
1.00509 1.0008 0.986011
1.0051 1.00146 0.984683
1.00219 1.00295 0.987708
1.00385 1.00097 0.987137
1.00437 1.00127 0.985419
1.00032 1.00493 0.988811
1.00084 1.00498 0.988655
1.00181 1.00307 0.988776
1.00032 1.00318 0.991171
1.00044 1.00446 0.989719
0.999947 1.00508 0.989581
1.00032 1.00407 0.990278
1.00027 1.00257 0.991809
1.00007 0.999452 0.99519
1.00018 1.00214 0.992403
1.00014 0.999147 0.995411
1 0.997308 0.998991
1.00018 0.998966 0.995529
1.00006 0.997206 0.998342
1.00006 0.997179 0.999015
1.00046 1.00292 0.991214
1.00034 1.0012 0.993041
1.00051 1.00242 0.991495
1.00021 0.998367 0.996068
1.00023 1.00099 0.993314
1.00038 1.00242 0.991856
1.00007 0.996716 0.999187
1.00016 0.998138 0.996381
1.00017 1.00063 0.993645
1.00005 0.996644 0.999246
1.00011 0.997984 0.996607
1.00004 0.996604 0.999281
0.994815 0.99484 0.859146
0.994796 0.994845 0.859106
0.994817 0.994852 0.850386
1.00037 1.00414 0.989858
1.00107 1.00393 0.989679
1.00065 1.00285 0.990971
1.00058 1.00322 0.99054
1.00056 1.00275 0.991086
1.00037 1.00318 0.990956
1.00038 1.00258 0.991589
0.994828 0.994789 0.842197
0.994856 0.994811 0.849324
0.994812 0.9948 0.850233
0.994863 0.994836 0.839324
0.994983 0.99496 0.961358
0.994867 0.999944 0.935497
0.994911 0.997662 0.894511
0.994888 0.996126 0.959854
0.994886 0.999296 0.933674
0.994992 0.998395 0.891414
0.994829 0.994807 0.842388
0.99617 0.996415 0.962906
0.994914 0.99937 0.935155
0.995217 0.998146 0.87533
0.994745 0.994797 0.830878
0.998771 1.0048 0.992302
0.999975 1.00389 0.990992
1.00028 1.0046 0.989776
1.00076 1.00333 0.990364
0.994973 0.999967 0.990441
0.99673 1.00282 0.997488
0.99928 1.00489 0.991154
0.998602 1.00458 0.992679
0.996639 1.00524 0.996382
0.998643 1.00413 0.992996
0.996367 1.00484 0.996509
0.996552 1.00196 0.983198
0.994964 1.00517 0.996512
0.996559 1.0044 0.996177
0.994726 1.00349 0.983419
0.995473 1.00364 0.998819
0.99478 0.994803 0.861123
0.994816 0.994817 0.864873
0.99478 0.994816 0.861003
0.994835 1.00351 0.999332
0.994925 0.998846 0.978824
0.994803 0.994842 0.861618
0.995557 0.997909 0.936014
0.995185 0.998427 0.893578
0.994816 0.994799 0.850886
0.99473 0.994795 0.834342
0.994903 1.00439 0.993142
0.994797 0.994835 0.859289
0.994759 0.994791 0.843263
0.994903 1.00038 0.969523
0.994691 0.994766 0.832208
0.995359 0.999537 0.878209
0.995123 0.999464 0.932914
0.995397 1.00446 0.987014
0.994827 0.994826 0.850472
0.994656 0.994761 0.833957
0.997111 0.996087 0.892842
0.994859 0.999735 0.942821
0.994882 0.999989 0.962524
0.995229 1.00485 0.998829
0.99621 1.003 0.998209
0.996567 0.999275 1.00122
0.995361 1.00503 0.997496
0.997594 0.99854 1.00009
1.00196 0.9982 0.994223
1.00319 1.00135 0.99075
1.00317 1.00357 0.986279
1.00337 1.00442 0.983918
1.00393 1.00277 0.98501
1.00454 1.00401 0.982786
1.00432 1.00432 0.982769
1.00507 1.00062 0.985011
1.00507 1.0011 0.984749
1.00488 1.002 0.983983
1.00507 1.0016 0.984865
1.00504 1.0016 0.984256
1.00477 1.0024 0.983773
1.00455 1.00095 0.986442
1.00484 1.00089 0.985835
1.005 1.00156 0.984602
1.00122 1.00506 0.987625
1.00222 1.00313 0.987807
1.00374 1.00106 0.987381
1.00032 1.00389 0.990222
1.00064 1.00491 0.988835
1.00106 1.00487 0.988631
1.00005 0.999791 0.994898
1.00037 1.00305 0.991167
1.0006 1.00443 0.989721
1.0003 1.00256 0.991807
1.00008 0.999488 0.995166
0.999943 0.997527 0.998945
1.00015 0.999167 0.995393
0.999997 0.997342 0.998979
1.00004 0.997208 0.999003
1.00009 1.00489 0.989795
1.00062 1.00339 0.9905
1.0004 1.00163 0.992536
1.00048 1.00285 0.991203
1.00023 0.998642 0.995753
1.00033 1.00123 0.993035
1.00049 1.00245 0.991563
1.00008 0.996864 0.999116
1.0002 0.998361 0.996087
1.00023 1.001 0.993397
1.00007 0.996713 0.999203
1.00016 0.998122 0.996399
1.00006 0.99662 0.999257
0.99479 0.994823 0.854903
0.994801 0.994836 0.860162
0.994805 0.994839 0.858973
1.00044 1.0043 0.989869
1.00073 1.00366 0.989829
1.00004 1.00254 0.99096
1.00007 1.00447 0.989908
1.00113 1.00361 0.990439
1.00064 1.00333 0.990456
1.00044 1.00287 0.991171
1.00045 1.00315 0.990974
1.00041 1.00273 0.991627
0.99949 1.0041 0.991699
0.994762 0.994792 0.844719
0.994815 0.994786 0.842678
0.994856 0.994806 0.851811
0.994841 0.994816 0.842905
0.995424 0.998657 0.877543
0.994877 0.996473 0.958342
0.994866 0.998999 0.944751
0.995016 0.996784 0.959705
0.9949 0.99663 0.946224
0.994847 0.999647 0.883851
0.994762 0.994781 0.82956
0.994786 0.997521 0.964053
0.994866 0.99998 0.945703
0.994733 0.999506 0.895384
0.994676 0.994763 0.841885
0.998239 1.00347 0.994307
0.998633 1.00467 0.992401
0.999972 1.00391 0.991115
0.996875 1.00177 0.979685
0.99482 1.00526 0.997118
0.998577 1.00415 0.992934
0.996144 1.00506 0.996502
0.996841 1.00418 0.996122
0.995241 1.00337 0.999073
0.995183 1.00154 0.982628
0.995806 1.00214 0.999042
0.995735 0.999801 0.988304
0.99482 0.994822 0.857283
0.994783 0.994811 0.861149
0.99482 0.994818 0.867712
0.994906 1.00336 0.993552
0.994874 0.999954 0.966663
0.994806 0.994839 0.859158
0.995056 0.99984 0.94313
0.994751 0.999858 0.895098
0.994741 0.994776 0.843277
0.994718 0.994775 0.821311
0.99558 1.00425 0.987704
0.994815 0.994835 0.850517
0.99468 0.994766 0.832373
0.994969 0.999741 0.96349
0.99736 0.998151 0.891207
0.995242 0.99978 0.937888
0.99499 1.00374 0.985536
0.994684 0.994801 0.83775
0.999472 0.994842 0.895991
0.997035 0.997381 0.934053
0.99487 0.997024 0.96541
0.99562 1.0038 0.998329
0.996299 0.999416 1.0012
0.998837 1.00247 0.995941
0.9961 0.999931 1.00024
1.00079 0.998736 0.994769
1.00328 0.999936 0.989125
1.00394 1.00299 0.985776
1.0034 1.00434 0.983825
1.00419 1.00176 0.984891
1.00476 1.004 0.982645
1.00432 1.00396 0.982866
1.00482 1.00061 0.985536
1.00521 0.998207 0.987016
1.00519 0.999976 0.985358
1.00504 1.00052 0.985103
1.00511 1.00122 0.984783
1.00508 1.00114 0.984692
1.00487 1.00216 0.983963
1.00509 1.0014 0.985113
1.00478 1.00151 0.984926
1.00498 1.00151 0.98433
1.00312 1.00304 0.986616
1.00414 1.00128 0.986445
1.00461 1.00104 0.985656
1.00041 1.00482 0.988769
1.00133 1.00493 0.987652
1.00234 1.0033 0.987905
1.00001 1.00055 0.995022
1.00049 1.00383 0.99021
1.00094 1.0049 0.988858
0.999924 0.997843 0.997313
1.00004 0.999933 0.995161
1.00044 1.00293 0.991163
1.00008 0.99953 0.995143
0.999943 0.997566 0.998926
0.999993 0.997355 0.998967
1.00011 1.00505 0.989874
1.00046 1.00454 0.989765
0.999993 1.00491 0.989761
1.00045 1.00219 0.991907
1.00043 1.00371 0.990492
1.0002 0.998982 0.995467
1.0004 1.0016 0.992546
1.00059 1.00273 0.99119
1.00007 0.997077 0.999043
1.00023 0.998624 0.995768
1.00032 1.00126 0.99303
1.00007 0.996853 0.999138
1.00019 0.998344 0.996105
1.00007 0.9967 0.999218
0.99479 0.994826 0.859215
0.994798 0.994827 0.854782
0.99479 0.994843 0.86121
1.00049 1.00249 0.990936
1.0002 1.00464 0.989879
1.00059 1.0035 0.989982
1.00046 1.00449 0.98973
1.00066 1.00249 0.990997
1.00065 1.00327 0.991146
1.00198 1.00245 0.989202
0.999014 1.00485 0.990997
1.00048 1.00311 0.990992
1.00012 1.00268 0.991662
0.999383 1.00399 0.991644
0.998531 1.00526 0.992412
0.994683 0.994809 0.838002
0.994785 0.994795 0.844273
0.99481 0.994781 0.843062
0.994749 0.994774 0.840107
0.994834 0.9996 0.883251
0.995306 0.998564 0.935179
0.994871 0.997449 0.958986
0.995087 0.997256 0.964271
0.994696 0.994769 0.831463
0.994877 0.997882 0.938937
0.995448 0.999932 0.880852
0.994883 0.996176 0.967778
0.994884 0.999927 0.946111
0.997625 0.997204 0.888994
0.999326 0.999257 0.996723
0.998304 1.00343 0.994268
0.99852 1.00452 0.992496
0.995353 1.00115 0.98246
0.994931 1.00302 0.99932
0.997149 1.00375 0.996082
0.996842 1.00199 0.999059
0.995214 0.999038 0.988409
0.996781 0.998768 0.992051
0.994725 0.994861 0.847736
0.994821 0.994812 0.859459
0.994783 0.994811 0.861145
0.995321 1.00417 0.988081
0.994861 0.999974 0.963405
0.994803 0.99484 0.850704
0.994838 0.999924 0.934319
0.99698 0.995765 0.877822
0.994709 0.99478 0.841743
0.994827 1.00401 0.985573
0.994696 0.994825 0.847887
0.99944 0.99479 0.880902
0.994856 0.996301 0.961212
0.997095 0.999119 0.944158
0.994795 1.00344 0.990497
0.999801 0.99486 0.876583
0.999787 0.994897 0.946025
0.994881 0.99486 0.960493
0.995983 0.999411 1.00124
0.998294 1.0016 0.995658
1.00171 1.00316 0.990343
0.999635 0.999426 0.995317
1.00276 1.00059 0.98898
1.00435 0.999388 0.987576
1.00336 1.00433 0.983731
1.00407 1.00198 0.984873
1.00497 0.997188 0.987886
1.00432 1.00352 0.982962
1.00471 1.00039 0.985569
1.00523 0.996487 0.988634
1.00519 0.996472 0.989047
1.00522 0.998442 0.986856
1.00522 0.998097 0.98715
1.0052 0.999931 0.98545
1.00518 0.999956 0.985506
1.00504 1.00042 0.985195
1.00517 1.0014 0.984508
1.00509 1.00114 0.984791
1.00509 1.00114 0.984633
1.00474 1.00107 0.985768
1.00488 1.00137 0.985107
1.00453 1.00137 0.984985
1.00151 1.00456 0.987537
1.00313 1.00306 0.986586
1.0037 1.00158 0.986451
0.999865 1.00174 0.993229
1.00085 1.00465 0.988768
1.00148 1.00487 0.987678
0.999745 0.998354 0.998721
1.00002 1.00059 0.99411
1.00066 1.00368 0.990198
0.999906 0.997817 0.998857
1.00002 1.00001 0.994764
0.999946 0.997616 0.998905
1.00134 1.00374 0.989213
1.00013 1.0049 0.989768
1.00052 1.00498 0.989258
1.00032 1.00317 0.99115
1.00037 1.00452 0.989738
1.00011 1.00475 0.989726
1.00016 0.999364 0.995158
1.0004 1.00223 0.991925
1.00027 1.00385 0.990483
1.00004 0.997292 0.998976
1.00021 0.998925 0.995482
1.00041 1.00158 0.992555
1.00007 0.997042 0.999064
1.00022 0.998611 0.995783
1.00007 0.996827 0.99916
0.994708 0.994829 0.83384
0.994808 0.994827 0.85935
0.994807 0.994832 0.854671
1.0004 1.00274 0.990913
1.00342 1.00214 0.98854
1.00086 1.00323 0.990451
1.00049 1.00448 0.989551
1.00133 1.00231 0.991029
0.999847 1.00271 0.991845
0.99952 1.00471 0.990733
1.00135 1.00288 0.989523
1.0011 1.00428 0.989033
0.999791 0.999867 0.99481
0.999851 1.00392 0.99159
0.998706 1.00521 0.992181
0.999655 0.995797 0.87445
0.994661 0.994787 0.831765
0.994794 0.994798 0.844163
0.994714 0.994777 0.820583
0.995457 0.998847 0.896383
0.994829 0.999531 0.934971
0.995612 0.995376 0.961648
0.994846 0.996108 0.966259
0.997482 0.998383 0.889535
0.995225 0.999343 0.934926
0.994878 0.997467 0.968193
0.997217 0.996923 0.933824
1.00146 0.996466 0.997141
0.999256 1 0.996684
0.998405 1.00349 0.994234
0.994791 0.998862 0.988602
0.997584 1.00172 0.999047
0.997225 0.998865 0.991809
0.997743 0.996473 0.990687
0.999817 0.994881 0.888606
0.994717 0.994851 0.846197
0.99483 0.994809 0.861524
0.99486 1.00401 0.985856
0.994863 0.995703 0.95954
0.994692 0.994832 0.84787
0.997336 0.996101 0.933694
0.999445 0.994831 0.896347
0.994946 1.00178 0.987529
0.999809 0.994867 0.886615
1.00086 0.9958 0.933643
0.994894 0.99484 0.963401
0.997449 0.998106 0.989376
0.999977 0.994899 0.946737
0.995536 0.994904 0.966833
0.997974 1.00078 0.995314
1.00117 1.00113 0.99043
1.00431 0.998571 0.989915
1.00231 1.00103 0.988847
1.00413 0.99938 0.987588
1.00506 0.996118 0.989355
1.00404 1.00217 0.984859
1.00492 0.997609 0.987816
1.00519 0.995252 0.98985
1.00462 1.00016 0.985601
1.00523 0.996548 0.988582
1.00521 0.995257 0.99012
1.00518 0.995692 0.990105
1.0052 0.99635 0.98924
1.00519 0.996994 0.988724
1.00524 0.998845 0.986712
1.00521 0.998514 0.986949
1.00523 0.997995 0.987285
1.00523 1.00056 0.985146
1.00521 0.999977 0.985407
1.00518 0.999918 0.985653
1.00509 1.00126 0.984971
1.00513 1.00142 0.984553
1.00502 1.00111 0.984805
1.0028 1.00321 0.986833
1.00458 1.00127 0.985741
1.00469 1.00139 0.9851
1.00011 1.00262 0.991883
1.00164 1.00443 0.987559
1.00319 1.00289 0.986555
0.999798 0.99878 0.998509
0.999969 1.00164 0.993187
1.0012 1.00456 0.988766
0.999829 0.998365 0.99784
1.00004 1.00065 0.994118
0.999916 0.997929 0.998783
1.00254 1.00209 0.988677
1.0008 1.00387 0.98945
1.00046 1.00506 0.988924
1.00019 1.00486 0.989661
1.00033 1.005 0.989254
1.00035 1.00397 0.990319
1.00007 1.00003 0.994681
1.00029 1.0032 0.991152
1.0002 1.00462 0.989712
1 0.997522 0.998891
1.00014 0.999348 0.995176
1.00035 1.00228 0.991943
1.00004 0.997256 0.998996
1.00022 0.998886 0.995498
1.00007 0.997019 0.999086
0.999822 0.994867 0.886325
0.994699 0.994844 0.838608
0.994818 0.994826 0.85946
1.0003 1.0032 0.990886
1.00086 1.00406 0.989399
1.00264 1.00255 0.988866
1.00455 1.00341 0.983949
1.00089 1.00362 0.989432
0.999714 1.00475 0.99048
1.00096 1.00338 0.989847
1.00058 1.00429 0.989333
1.00257 1.00144 0.987726
1.00164 0.999763 0.99264
1.00379 0.995012 0.992669
1.00043 0.999453 0.994705
0.999442 1.00432 0.991952
0.99865 0.995493 0.94465
0.999808 0.994802 0.879495
0.994653 0.994786 0.83569
0.997661 0.997854 0.876228
0.994895 0.999915 0.943247
0.994807 0.995558 0.967019
0.99488 0.997139 0.969823
0.997283 0.999215 0.945556
0.995858 0.995578 0.96981
1.00089 0.995976 0.997311
1.00071 0.99707 0.997182
0.999112 1.00064 0.996641
0.997875 0.998326 0.991668
0.998311 0.997202 0.990913
0.999956 0.994898 0.93738
0.999809 0.994882 0.893371
0.994702 0.99484 0.844756
0.994892 1.00037 0.984386
0.994909 0.994848 0.960614
0.999805 0.994855 0.886485
0.999599 0.994888 0.944485
0.996839 0.997975 0.989752
1.00078 0.994902 0.943921
0.996506 0.994896 0.964321
1.00089 0.995762 0.989483
0.998736 0.994853 0.974054
1.00051 0.999178 0.990611
1.00393 0.997377 0.989888
1.00485 0.995497 0.991183
1.0038 0.999443 0.987596
1.00492 0.996171 0.989234
1.00519 0.99492 0.990335
1.00482 0.998058 0.987747
1.0052 0.995315 0.989792
1.00521 0.994915 0.990426
1.00523 0.996623 0.98853
1.00521 0.995313 0.990081
1.00519 0.995056 0.99051
1.00519 0.995538 0.990175
1.00518 0.995928 0.989907
1.0052 0.996224 0.989435
1.00519 0.997006 0.988712
1.00522 0.99776 0.987906
1.00526 0.999674 0.986057
1.00524 0.998904 0.98669
1.00521 0.998583 0.987042
1.00525 1.00103 0.98478
1.00524 1.00062 0.985042
1.00522 1.00002 0.985361
1.00369 1.00201 0.986346
1.00496 1.00135 0.98499
1.00503 1.00144 0.984597
1.0008 1.00264 0.990691
1.00273 1.00329 0.986839
1.00433 1.0016 0.985716
0.99992 0.999563 0.998147
1.00025 1.00249 0.991867
1.00185 1.00432 0.987582
0.999885 0.998973 0.998393
1.00012 1.00145 0.993143
0.999906 0.998401 0.998588
1.00418 1.00206 0.985385
1.00264 1.00182 0.988571
1.00094 1.00459 0.988194
1.0003 1.00384 0.989693
1.00046 1.00502 0.988831
1.00057 1.00449 0.989413
1.00021 1.00506 0.989249
1.00026 1.00404 0.990303
1.00009 1.00067 0.994043
0.999952 0.99794 0.998744
1.00006 0.999958 0.994704
1.00025 1.00318 0.991155
0.999995 0.997513 0.998921
1.00013 0.999309 0.995191
1.00004 0.997223 0.999016
0.999987 0.994914 0.948463
0.999837 0.99488 0.88581
0.994683 0.994833 0.833717
1.00081 1.00476 0.988348
1.00204 1.00271 0.9892
1.00168 1.00359 0.988934
1.0041 1.00356 0.984613
1.00462 1.00251 0.983929
1.00282 1.00283 0.985919
1.00015 1.00446 0.989624
1.00353 1.00123 0.986696
1.00158 0.999665 0.99284
1.0032 0.998222 0.989931
1.00436 0.995494 0.991955
1.00347 0.995784 0.992617
1.00343 0.995179 0.992873
1.00008 0.999895 0.994601
0.996044 0.994857 0.968273
0.999745 0.995955 0.940916
0.998531 0.995487 0.893908
0.997047 0.998286 0.933644
0.994884 0.997262 0.970293
0.995502 0.996032 0.975346
0.999482 0.996369 0.992329
1.00138 0.995487 0.996956
1.00008 0.997762 0.997236
0.999199 0.998441 0.991166
0.996848 0.996485 0.969268
1.00007 0.994911 0.949293
0.99981 0.99487 0.879104
0.996259 0.997904 0.990044
0.996892 0.994868 0.96549
0.999995 0.994921 0.9409
1.00027 0.995077 0.989668
0.998469 0.995127 0.973469
1.00312 0.994751 0.99097
1.00294 0.997398 0.98581
1.00345 0.99609 0.989831
1.00464 0.995307 0.991193
1.00514 0.994774 0.990872
1.00486 0.996252 0.989115
1.00519 0.994921 0.9903
1.00524 0.994902 0.990473
1.0052 0.99538 0.989734
1.00521 0.994922 0.990398
1.00524 0.994921 0.990513
1.00521 0.995351 0.990041
1.00518 0.995065 0.99048
1.00521 0.995134 0.990436
1.00519 0.99539 0.990244
1.00518 0.995803 0.989991
1.0052 0.996951 0.988904
1.00519 0.997021 0.988701
1.00522 0.99782 0.987883
1.00524 0.99897 0.986871
1.00529 1.0004 0.985304
1.00526 0.999785 0.985918
1.00524 0.998965 0.986667
1.00442 1.00105 0.986128
1.00521 1.00105 0.984807
1.00524 1.00068 0.984939
1.00135 1.00229 0.990075
1.00365 1.0022 0.986327
1.00481 1.00144 0.985007
1.00027 1.00014 0.997669
1.0009 1.00252 0.990678
1.00265 1.00336 0.986843
1.00008 0.999691 0.997958
1.0003 1.00238 0.991859
0.999996 0.999089 0.998248
1.00462 1.00196 0.984562
1.00447 1.002 0.985518
1.00319 1.00269 0.986276
1.00259 1.00183 0.988464
1.00117 1.00433 0.987992
1.00121 1.0048 0.988298
1.00038 1.00498 0.988736
1.00053 1.00458 0.989405
1.0001 1.00134 0.993329
1.00021 1.00415 0.990288
1.00003 1.00065 0.99407
0.999904 0.998417 0.998559
0.99994 0.997865 0.998799
1.00004 0.999915 0.99473
0.999986 0.997461 0.998947
0.996952 0.994878 0.969495
0.999983 0.994902 0.936684
0.999826 0.994873 0.895987
1.00517 1.00016 0.985239
1.00249 1.00361 0.988445
1.00362 1.00369 0.985276
1.00343 1.00255 0.986196
1.00469 1.00274 0.983825
1.00423 1.00003 0.987027
1.00444 1.00154 0.985665
1.00127 0.999251 0.993041
1.00364 0.998532 0.989576
1.00426 0.995522 0.991324
1.00478 0.995397 0.990273
1.0038 0.995459 0.992693
1.00344 0.995454 0.992655
1.00316 0.99536 0.993071
0.999454 0.996405 0.990834
0.995891 0.994855 0.9666
0.999271 0.994884 0.937299
0.995055 0.996499 0.973714
0.999285 0.996176 0.994648
1.00132 0.99495 0.996559
1.00122 0.996951 0.983749
0.996838 0.995645 0.970081
0.999958 0.994911 0.937375
0.999358 0.99488 0.989899
0.99872 0.995428 0.972593
1.00227 0.995239 0.991405
1.00294 0.997027 0.986543
1.00413 0.994794 0.991341
1.00463 0.997466 0.990641
1.00441 0.995084 0.991192
1.00513 0.994785 0.990762
1.00528 0.994778 0.990474
1.00519 0.994917 0.990265
1.00523 0.994893 0.990465
1.00528 0.994889 0.990447
1.00521 0.994926 0.99037
1.00523 0.99492 0.990518
1.00523 0.994967 0.9906
1.00517 0.995074 0.99045
1.00521 0.995133 0.990418
1.00521 0.99595 0.98977
1.00518 0.995678 0.990075
1.00521 0.996792 0.98908
1.00524 0.998292 0.987601
1.00522 0.99788 0.987859
1.00524 0.998935 0.986902
1.00528 1.00011 0.985698
1.00472 1.0005 0.986187
1.00529 1.00049 0.985219
1.00526 0.999891 0.985779
1.00192 1.00145 0.98996
1.00435 1.00116 0.986131
1.0052 1.00106 0.984834
1.00052 1.00043 0.997337
1.00155 1.002 0.990066
1.00361 1.00233 0.986308
1.0004 1.00022 0.997523
1.00104 1.00237 0.990665
1.00024 0.999875 0.997772
1.00523 1.00106 0.984584
1.00495 1.0019 0.9845
1.00472 1.00157 0.985101
1.00488 1.00194 0.985653
1.00347 1.0028 0.986085
1.00212 1.00427 0.98726
1.00144 1.00406 0.98779
1.00092 1.00492 0.988317
1.00022 1.00202 0.992434
1.00038 1.00464 0.989396
1.00005 1.0013 0.99336
0.999867 0.999003 0.998344
0.999989 1.00059 0.994098
0.999896 0.998333 0.998626
0.999934 0.997802 0.998848
1.00098 0.994863 0.988052
0.996747 0.994891 0.966297
0.999963 0.994882 0.94845
1.00511 0.998738 0.987026
1.00521 0.998249 0.987358
1.00517 0.99999 0.985472
1.00399 1.00213 0.986468
1.00476 1.003 0.983718
1.00429 0.999839 0.987376
1.00514 0.996105 0.988872
1.00422 0.998521 0.989234
1.00428 0.995932 0.990691
1.00472 0.995997 0.990412
1.00517 0.995031 0.99051
1.00399 0.995615 0.991861
1.00347 0.995727 0.992625
1.00368 0.995104 0.992701
1.00001 0.996143 0.99097
0.995663 0.994851 0.965034
0.999409 0.996027 0.997063
1.00442 0.9953 0.991096
1.00108 0.99698 0.983931
0.996823 0.995112 0.96801
1.00192 0.994816 0.991815
1.0029 0.996573 0.987304
1.00416 0.994807 0.991943
1.00467 0.996666 0.990711
1.00528 0.994891 0.99068
1.00537 0.994939 0.990871
1.00514 0.994798 0.990655
1.00529 0.994811 0.990445
1.0053 0.99487 0.99044
1.00522 0.994885 0.990457
1.00528 0.994887 0.990469
1.00525 0.994897 0.990608
1.00522 0.99492 0.990524
1.00523 0.994952 0.990583
1.00522 0.995392 0.990345
1.00521 0.995125 0.9904
1.00522 0.995978 0.989753
1.00525 0.997603 0.988234
1.00521 0.996629 0.989256
1.00524 0.99822 0.987669
1.00529 0.999754 0.986043
1.00524 0.998904 0.986932
1.00529 1.00005 0.98577
1.00481 1.00028 0.986268
1.00223 1.00075 0.990092
1.00469 1.00055 0.986189
1.00528 1.0006 0.985134
1.00065 1.00052 0.997195
1.00196 1.00139 0.989958
1.00427 1.00133 0.986135
1.00058 1.00047 0.997269
1.00168 1.00183 0.990058
1.00049 1.00033 0.997399
1.00526 0.999501 0.98606
1.00522 1.00096 0.984732
1.00517 1.00093 0.985057
1.00517 1.00182 0.984436
1.00487 1.00141 0.985134
1.00309 1.00292 0.986738
1.00374 1.00283 0.985894
1.0019 1.00429 0.987267
1.00051 1.00269 0.991266
1.0007 1.00508 0.988336
1.0001 1.00214 0.992465
0.999919 0.99968 0.998034
1.00001 1.0013 0.99339
0.999841 0.998874 0.998427
0.999877 0.998243 0.998691
1.00429 0.99486 0.992154
1.001 0.994865 0.986029
0.996604 0.994893 0.965306
1.00515 0.99752 0.98834
1.00511 0.998294 0.987314
1.00525 0.996938 0.988606
1.00521 0.998245 0.987339
1.00517 0.999793 0.985703
1.00524 0.995483 0.989547
1.00438 0.999728 0.987718
1.00514 0.996514 0.9888
1.00528 0.994878 0.990344
1.00463 0.996352 0.990551
1.00511 0.995094 0.990301
1.00389 0.995639 0.992056
1.0029 0.995959 0.992557
1.00039 0.995831 0.990982
1.00534 0.994924 0.990637
1.00438 0.996224 0.991248
1.00102 0.996977 0.984137
1.00411 0.994839 0.99253
1.00467 0.995911 0.990786
1.00528 0.99486 0.990745
1.00538 0.994938 0.990819
1.00532 0.994925 0.99075
1.0053 0.994841 0.990417
1.0053 0.994885 0.990453
1.00525 0.994904 0.99069
1.00527 0.994888 0.990491
1.00525 0.994896 0.990605
1.00524 0.995038 0.990711
1.00524 0.994946 0.990567
1.00522 0.995396 0.990321
1.00525 0.996903 0.988963
1.00522 0.996005 0.989736
1.00525 0.99762 0.988243
1.0053 0.999379 0.986442
1.00524 0.998147 0.987737
1.00529 0.999752 0.986066
1.00484 1.00021 0.986314
1.00529 0.99998 0.985841
1.00482 1.00028 0.986273
1.00231 1.00036 0.991876
1.00094 1.00016 0.994073
1.00227 1.00073 0.99086
1.00466 1.00061 0.986191
1.00067 1.00054 0.997168
1.00209 1.00121 0.989952
1.00062 1.00053 0.997207
1.00526 0.996685 0.989044
1.00524 0.998398 0.987338
1.00525 0.999508 0.986225
1.00522 1.00043 0.985412
1.00522 1.00088 0.98488
1.00519 1.00092 0.985017
1.00389 1.00151 0.986608
1.00499 1.00127 0.985168
1.00318 1.00262 0.98673
1.00114 1.00257 0.990265
1.00172 1.00436 0.987272
1.00043 1.00277 0.991271
1.00012 1.0004 0.997585
1.00002 1.00214 0.992494
0.999842 0.999508 0.998161
0.999832 0.998755 0.998501
1.00534 0.994882 0.990581
1.00455 0.994857 0.991917
1.00126 0.99487 0.984057
1.00523 0.996009 0.989389
1.00513 0.997454 0.988192
1.00513 0.997861 0.987605
1.00525 0.997079 0.988598
1.00521 0.998244 0.98732
1.00529 0.994993 0.990413
1.00523 0.995484 0.989544
1.00514 0.996939 0.988728
1.00527 0.994879 0.990356
1.00509 0.995163 0.990091
1.0039 0.995694 0.992256
1.00529 0.994938 0.990826
1.00534 0.994926 0.990817
1.00434 0.996881 0.991404
1.00527 0.994833 0.990799
1.00539 0.994933 0.99077
1.00532 0.994918 0.990708
1.00523 0.994957 0.990942
1.0053 0.994895 0.990467
1.00525 0.994905 0.990666
1.00526 0.994919 0.990893
1.00526 0.994893 0.990602
1.00523 0.99503 0.990693
1.00523 0.996298 0.989593
1.00523 0.9954 0.990298
1.00524 0.996925 0.988967
1.0053 0.999021 0.986839
1.00524 0.997636 0.988253
1.0053 0.999376 0.986466
1.00485 1.00017 0.986351
1.00529 0.999748 0.98609
1.00486 1.00019 0.986326
1.00241 1.00009 0.991994
1.00483 1.00029 0.986278
1.00249 1.00026 0.991771
1.00097 0.999985 0.994231
1.00069 1.00043 0.995665
1.00246 1.00068 0.991474
1.00067 1.0006 0.997151
1.00523 0.995724 0.990112
1.00524 0.998018 0.987699
1.00524 0.996491 0.989247
1.00529 0.999824 0.98592
1.00525 0.998469 0.98731
1.00525 0.999517 0.986389
1.00525 1.00043 0.985363
1.00444 1.00062 0.986521
1.00522 1.00094 0.984977
1.004 1.00128 0.986608
1.00166 1.0019 0.989958
1.00322 1.0023 0.986723
1.00097 1.00275 0.990264
1.00029 1.00095 0.99725
1.00024 1.00294 0.991283
0.999964 1.00025 0.997767
0.999781 0.99935 0.998272
1.00528 0.994866 0.990682
1.00532 0.994883 0.990566
1.0047 0.994867 0.991662
1.00525 0.995115 0.990405
1.00522 0.996077 0.989372
1.00509 0.997389 0.988049
1.00524 0.997222 0.98859
1.00528 0.994994 0.990378
1.00522 0.995493 0.989541
1.00523 0.99488 0.990369
1.00524 0.994956 0.990954
1.00529 0.994936 0.990814
1.00535 0.994929 0.990994
1.0052 0.994972 0.991051
1.00532 0.994914 0.990667
1.00523 0.994956 0.990927
1.00525 0.994947 0.990971
1.00525 0.99491 0.990642
1.00525 0.99492 0.990883
1.00523 0.995899 0.990082
1.00522 0.995022 0.990675
1.00525 0.996321 0.989589
1.00528 0.9987 0.987243
1.00524 0.996948 0.988971
1.00531 0.999014 0.986858
1.00484 1.00011 0.986443
1.0053 0.999373 0.986489
1.00486 1.00015 0.986367
1.00246 1.00005 0.991955
1.00487 1.00017 0.986337
1.00256 1.00002 0.991863
1.00103 0.999876 0.994271
1.00267 1.00015 0.991675
1.00061 1.00015 0.994477
1.00017 1.00076 0.997566
1.00523 0.995576 0.990121
1.00525 0.997238 0.988595
1.00524 0.995809 0.989924
1.00532 0.999498 0.986348
1.00525 0.997722 0.987941
1.00523 0.996301 0.989449
1.00481 1.00006 0.986488
1.00529 0.999832 0.985883
1.00525 0.998535 0.987281
1.00527 1.00042 0.985312
1.0045 1.00052 0.986516
1.00199 1.00123 0.990067
1.00409 1.00104 0.98661
1.00154 1.00208 0.989963
1.00035 1.00113 0.997154
1.0009 1.00291 0.990262
1.00022 1.0008 0.997363
0.999859 1.00005 0.997935
1.00522 0.994902 0.990901
1.00528 0.994867 0.990664
1.00532 0.994882 0.990552
1.00525 0.995111 0.990445
1.00521 0.996141 0.989356
1.00529 0.994987 0.990343
1.00521 0.994958 0.991015
1.00524 0.994952 0.990962
1.00528 0.994932 0.990802
1.00519 0.99497 0.991059
1.00521 0.994958 0.991055
1.00523 0.994955 0.990912
1.00525 0.994947 0.990957
1.00523 0.99565 0.990435
1.00524 0.994921 0.990874
1.00524 0.995878 0.990075
1.00525 0.998433 0.987594
1.00526 0.996335 0.989585
1.00528 0.998687 0.987256
1.00481 1 0.986612
1.00531 0.999008 0.986878
1.00486 1.00009 0.986457
1.00244 1.00013 0.991867
1.00488 1.00013 0.986383
1.0026 1.00001 0.991809
1.00108 0.999891 0.994186
1.0027 0.999967 0.991742
1.00071 0.999928 0.994538
1.00026 1.00034 0.994706
1.00521 0.995182 0.99072
1.00524 0.99695 0.988897
1.00524 0.995432 0.990228
1.0053 0.998871 0.987028
1.00524 0.997363 0.988446
1.00525 0.995891 0.989735
1.00491 0.99986 0.986551
1.00531 0.999278 0.986488
1.00526 0.99743 0.988185
1.00224 1.0005 0.990303
1.00482 1.00003 0.986484
1.00529 0.999843 0.985846
1.00456 1.00043 0.986511
1.00193 1.0013 0.990079
1.00044 1.00106 0.997165
1.00143 1.00225 0.989969
1.00034 1.00104 0.997182
1.00008 1.0007 0.997505
1.0052 0.994937 0.991017
1.00523 0.99491 0.990863
1.00527 0.99487 0.990646
1.00525 0.995115 0.990484
1.00523 0.994967 0.991
1.00521 0.994959 0.991021
1.00524 0.99495 0.990969
1.00519 0.994971 0.991066
1.00522 0.994962 0.991044
1.00523 0.995934 0.990137
1.00525 0.99495 0.990941
1.00523 0.995849 0.990188
1.00522 0.997899 0.988265
1.00525 0.995876 0.990067
1.00524 0.998427 0.987604
1.00478 0.999872 0.986804
1.00528 0.998685 0.987268
1.00482 0.999991 0.986622
1.00246 1.0002 0.990337
1.00487 1.00008 0.986471
1.00258 1.0001 0.990987
1.00093 0.999955 0.997173
1.00273 0.999971 0.991663
1.00079 0.99988 0.994464
1.0004 0.999967 0.994789
1.00521 0.995133 0.990871
1.00524 0.996476 0.989463
1.00522 0.995261 0.990622
1.00528 0.99847 0.987416
1.00524 0.996956 0.988876
1.00524 0.995288 0.990335
1.00491 0.999639 0.98669
1.0053 0.998867 0.987039
1.00524 0.997485 0.988298
1.00242 0.999971 0.990523
1.0049 0.999777 0.986566
1.00531 0.999049 0.986628
1.00059 1.0007 0.997239
1.00225 1.00049 0.990311
1.00482 1 0.986479
1.00186 1.00136 0.990094
1.00044 1.00098 0.997155
1.00031 1.00098 0.997217
1.00522 0.994968 0.990993
1.00519 0.994937 0.991017
1.00524 0.994917 0.990826
1.00524 0.995995 0.990041
1.00523 0.994964 0.991026
1.0052 0.99496 0.991027
1.00523 0.994974 0.991032
1.00523 0.995931 0.990138
1.00524 0.997962 0.98825
1.00523 0.996032 0.989942
1.00522 0.99818 0.987959
1.00475 0.99952 0.987152
1.00523 0.99841 0.987615
1.00478 0.999863 0.986808
1.00243 1.00015 0.990449
1.00483 0.999981 0.986632
1.00247 1.00018 0.990342
1.00089 1 0.997159
1.0026 1.00008 0.990229
1.0008 0.999954 0.995824
1.00049 0.999848 0.99474
1.00525 0.995131 0.990743
1.00526 0.996412 0.98957
1.00521 0.995078 0.990888
1.00528 0.998559 0.987339
1.00523 0.996559 0.989374
1.00523 0.995341 0.990524
1.00489 0.99957 0.986808
1.00528 0.998694 0.98722
1.00523 0.996958 0.988856
1.00251 0.999796 0.990557
1.00489 0.999628 0.9867
1.0053 0.998866 0.987049
1.00077 1.00027 0.99727
1.00245 0.999948 0.990527
1.00488 0.999691 0.986579
1.00059 1.00068 0.997205
1.00226 1.00048 0.990318
1.0004 1.00096 0.997168
1.00523 0.996011 0.990019
1.00522 0.995024 0.990953
1.00518 0.994938 0.991018
1.00523 0.997879 0.988322
1.00523 0.995976 0.990065
1.00524 0.994961 0.991051
1.00523 0.995922 0.99014
1.00524 0.997938 0.988259
1.00471 0.999375 0.98736
1.00522 0.998467 0.987653
1.00476 0.999619 0.987053
1.00241 1.00004 0.990589
1.00479 0.999852 0.986812
1.00241 1.00016 0.990455
1.00084 1.00002 0.997155
1.00246 1.00017 0.990346
1.00087 1.00002 0.997153
1.00089 0.999916 0.99423
1.00527 0.996388 0.989538
1.00525 0.995061 0.9908
1.00527 0.998364 0.987584
1.00526 0.996412 0.989576
1.00521 0.995028 0.990904
1.00485 0.999726 0.986833
1.00528 0.998567 0.987334
1.00523 0.996642 0.989285
1.00254 0.999844 0.99049
1.00487 0.999677 0.986751
1.00528 0.998923 0.987022
1.00091 1.00002 0.997228
1.00253 0.999792 0.990558
1.00487 0.999609 0.98671
1.00075 1.00031 0.997261
1.00246 0.99994 0.990531
1.0006 1.00067 0.997174
1.00524 0.997919 0.98824
1.00523 0.996072 0.989976
1.00523 0.995094 0.990912
1.00467 0.999312 0.987486
1.00523 0.997872 0.98833
1.00523 0.995959 0.990089
1.00524 0.997914 0.988268
1.00473 0.999369 0.987331
1.00233 0.999992 0.99077
1.00477 0.999718 0.986952
1.00239 1.00005 0.990595
1.00083 1.00002 0.997169
1.00241 1.00016 0.990462
1.00083 1.00004 0.997164
1.00086 1.00002 0.997152
1.00526 0.998194 0.987797
1.00527 0.996165 0.989778
1.00525 0.994961 0.990857
1.00478 0.999662 0.987029
1.00527 0.99837 0.987578
1.00525 0.996411 0.989583
1.0025 0.99995 0.990493
1.00483 0.999741 0.986828
1.00527 0.998574 0.98733
1.00095 0.999941 0.997166
1.00255 0.99986 0.990489
1.00485 0.999778 0.986693
1.00088 1.00006 0.997247
1.00254 0.999805 0.990559
1.00077 1.00031 0.997242
1.00468 0.999543 0.987315
1.00524 0.997794 0.988336
1.00523 0.996119 0.989933
1.00228 0.999923 0.990938
1.00468 0.999298 0.987473
1.00523 0.997861 0.988338
1.00475 0.999358 0.987301
1.00234 0.999969 0.990778
1.00079 1.00002 0.997182
1.00237 1.00006 0.9906
1.00081 1.00003 0.997167
1.00079 1.00006 0.997168
1.00471 0.999592 0.987215
1.00526 0.998018 0.987989
1.00527 0.995958 0.990018
1.00252 0.999995 0.991927
1.00476 0.999669 0.98703
1.00527 0.998378 0.987572
1.0009 0.999957 0.997146
1.0025 0.999969 0.990491
1.0048 0.999758 0.986823
1.00094 0.999969 0.997191
1.00255 0.999882 0.990488
1.00087 1.00008 0.99726
1.00236 0.999923 0.990857
1.00467 0.999426 0.98739
1.00523 0.99767 0.988431
1.00072 0.999987 0.997236
1.00227 0.999923 0.990935
1.00469 0.999285 0.987461
1.00233 0.999947 0.990782
1.00076 1.00001 0.9972
1.00079 1.00004 0.997174
1.00251 0.999962 0.99203
1.00471 0.999593 0.987213
1.00526 0.997838 0.988182
1.0004 0.999995 0.997626
1.00242 0.999997 0.990629
1.00474 0.999672 0.987032
1.00091 0.999968 0.997158
1.00251 0.999988 0.990488
1.00094 0.99999 0.997213
1.0007 0.999963 0.994539
1.00238 0.999924 0.991522
1.00467 0.99931 0.987465
1.00074 0.99999 0.997242
1.00227 0.999926 0.990938
1.00078 0.999999 0.997213
1.00027 0.999989 0.994954
1.00242 0.999952 0.991422
1.00469 0.9996 0.987212
1.0006 0.999987 0.996009
1.00241 0.999998 0.990643
1.00093 0.999978 0.997172
1.00073 0.999978 0.997238
1.00227 0.999916 0.990951
1.0007 0.999991 0.997241
1.00051 0.999974 0.996102
1.00233 0.999945 0.990844
1.00085 0.999982 0.997173
1.00074 0.999976 0.997248
1.00076 0.999979 0.997218

TENSORS stress float
0.00197727 -0.000128158 0.000224095
-0.000128158 0.000879567 -3.52554e-05
0.000224095 -3.52554e-05 0.000855552
0.00615291 -1.11458e-05 0.000240819
-1.11458e-05 0.0034586 2.5788e-05
0.000240819 2.5788e-05 0.00345486
0.00169128 -6.015e-05 9.74797e-05
-6.015e-05 0.000705346 -1.40783e-05
9.74797e-05 -1.40783e-05 0.000671342
0.0020526 -7.41756e-05 0.000220534
-7.41756e-05 0.000900554 -2.09055e-05
0.000220534 -2.09055e-05 0.000883856
0.00203405 -0.000113755 0.000219678
-0.000113755 0.000904637 -3.1221e-05
0.000219678 -3.1221e-05 0.000883483
0.00191795 -0.000127792 0.000230248
-0.000127792 0.000844293 -3.60796e-05
0.000230248 -3.60796e-05 0.000821133
0.00167783 -0.000112103 4.09995e-05
-0.000112103 0.000612986 -1.1859e-05
4.09995e-05 -1.1859e-05 0.000513889
0.006077 -1.90588e-05 -7.00226e-06
-1.90588e-05 0.00340205 -6.56372e-07
-7.00226e-06 -6.56372e-07 0.00340333
0.00601301 0.000157336 0.000119902
0.000157336 0.00334631 9.99397e-06
0.000119902 9.99397e-06 0.00332604
0.00587303 -0.000100873 5.44372e-05
-0.000100873 0.0032684 2.72284e-06
5.44372e-05 2.72284e-06 0.00324562
0.00175938 0.000164181 0.000232447
0.000164181 0.000734734 2.58237e-05
0.000232447 2.58237e-05 0.000732024
0.000564213 0.000233348 2.60785e-05
0.000233348 -4.5515e-05 1.76496e-05
2.60785e-05 1.76496e-05 -0.000160085
0.00172114 -3.45382e-05 0.00022281
-3.45382e-05 0.000693341 3.4204e-06
0.00022281 3.4204e-06 0.000690912
0.00137643 -2.70542e-06 5.2024e-05
-2.70542e-06 0.000505019 1.42265e-06
5.2024e-05 1.42265e-06 0.000463194
0.00145739 -5.81894e-05 -4.58487e-05
-5.81894e-05 0.000567962 8.0547e-06
-4.58487e-05 8.0547e-06 0.000522455
0.00171367 -7.58014e-05 7.37297e-05
-7.58014e-05 0.000708471 -4.35893e-06
7.37297e-05 -4.35893e-06 0.000677333
0.00168817 -4.56978e-05 0.000105319
-4.56978e-05 0.000711058 -1.45581e-05
0.000105319 -1.45581e-05 0.000673411
0.00170676 -7.14354e-05 8.68679e-05
-7.14354e-05 0.000706002 -1.12291e-05
8.68679e-05 -1.12291e-05 0.00067551
0.00173493 -0.000149463 -3.65785e-05
-0.000149463 0.000643519 4.7157e-06
-3.65785e-05 4.7157e-06 0.000553219
0.00584517 -0.00012829 0.00028143
-0.00012829 0.00325296 -1.05491e-05
0.00028143 -1.05491e-05 0.00326512
0.00199865 -5.33091e-05 0.000219867
-5.33091e-05 0.000866889 -1.55315e-05
0.000219867 -1.55315e-05 0.0008522
0.00206762 -9.54056e-05 0.000219632
-9.54056e-05 0.000915636 -2.63309e-05
0.000219632 -2.63309e-05 0.000897197
0.00166828 -0.000124056 6.23653e-05
-0.000124056 0.000589269 -9.46148e-06
6.23653e-05 -9.46148e-06 0.00050117
0.00168184 -0.000121931 5.05069e-05
-0.000121931 0.000602014 -1.12184e-05
5.05069e-05 -1.12184e-05 0.000510338
0.00187703 -0.000103186 0.000228086
-0.000103186 0.000811213 -3.25402e-05
0.000228086 -3.25402e-05 0.000792018
0.00165176 -0.000103873 3.32111e-05
-0.000103873 0.000616799 -1.26933e-05
3.32111e-05 -1.26933e-05 0.000507726
0.00204334 -0.000271773 1.58355e-05
-0.000271773 0.000660977 -6.99732e-06
1.58355e-05 -6.99732e-06 0.000482989
0.00606385 -3.40744e-05 -0.000238918
-3.40744e-05 0.00338476 -1.68147e-05
-0.000238918 -1.68147e-05 0.00339061
0.00388371 0.000122443 -0.000128593
0.000122443 0.0020414 -1.31753e-05
-0.000128593 -1.31753e-05 0.00202113
0.00377223 2.43503e-05 -0.000123724
2.43503e-05 0.00198823 -9.72886e-06
-0.000123724 -9.72886e-06 0.00196691
0.00596886 -8.81583e-05 -3.48617e-06
-8.81583e-05 0.00334849 1.31425e-07
-3.48617e-06 1.31425e-07 0.00334368
0.00051746 0.000213991 -1.58979e-06
0.000213991 -7.09354e-05 -1.0251e-06
-1.58979e-06 -1.0251e-06 -0.000185215
0.00173457 6.20449e-05 0.000225341
6.20449e-05 0.000707689 1.93612e-05
0.000225341 1.93612e-05 0.000693867
0.00186223 0.00014559 0.000229095
0.00014559 0.000816201 2.97447e-05
0.000229095 2.97447e-05 0.000792968
0.00272847 0.000194874 0.000138649
0.000194874 0.00123647 1.89676e-05
0.000138649 1.89676e-05 0.00116184
0.00523897 -0.000352974 -1.31212e-05
-0.000352974 0.00297782 7.84433e-06
-1.31212e-05 7.84433e-06 0.00290804
0.00282307 0.000259529 0.000140604
0.000259529 0.0013306 2.30714e-05
0.000140604 2.30714e-05 0.00124472
0.000509801 0.00019301 2.73585e-05
0.00019301 -7.51749e-05 2.26571e-05
2.73585e-05 2.26571e-05 -0.000186379
0.000832885 0.000208073 1.1917e-05
0.000208073 1.26846e-05 5.8171e-06
1.1917e-05 5.8171e-06 -0.000175745
0.00399384 -0.00010411 0.000148013
-0.00010411 0.00215781 9.86038e-06
0.000148013 9.86038e-06 0.00216006
0.00585587 7.7085e-05 3.69966e-06
7.7085e-05 0.00324774 -1.65721e-06
3.69966e-06 -1.65721e-06 0.00326613
0.00374199 7.87646e-05 -0.000107169
7.87646e-05 0.00195059 -4.4281e-06
-0.000107169 -4.4281e-06 0.00193832
0.00571976 5.93487e-05 0.000275077
5.93487e-05 0.0031674 3.73116e-06
0.000275077 3.73116e-06 0.0031861
0.00135552 8.26953e-05 5.49532e-05
8.26953e-05 0.000492743 3.42283e-06
5.49532e-05 3.42283e-06 0.000455677
0.000585533 1.05299e-05 1.5807e-05
1.05299e-05 -0.000103662 1.80114e-06
1.5807e-05 1.80114e-06 -0.000183699
0.00588004 0.00021492 0.000152351
0.00021492 0.00328951 1.41279e-05
0.000152351 1.41279e-05 0.00326538
0.00275669 6.88497e-05 0.000132153
6.88497e-05 0.00122171 8.15102e-06
0.000132153 8.15102e-06 0.00116653
0.00132412 -7.93024e-05 -6.60888e-05
-7.93024e-05 0.000486447 8.22012e-06
-6.60888e-05 8.22012e-06 0.000439988
0.00136742 -9.22676e-05 -5.84104e-05
-9.22676e-05 0.000516289 9.62557e-06
-5.84104e-05 9.62557e-06 0.000468742
0.00151922 -1.24849e-05 -3.39986e-05
-1.24849e-05 0.000608505 7.35901e-06
-3.39986e-05 7.35901e-06 0.000561528
0.00176894 -0.000154197 -0.000121086
-0.000154197 0.000657143 2.1155e-05
-0.000121086 2.1155e-05 0.000576165
0.00366677 -6.68811e-06 -0.000110817
-6.68811e-06 0.00191291 -1.96023e-06
-0.000110817 -1.96023e-06 0.0018993
0.00168631 -5.82336e-05 7.92074e-05
-5.82336e-05 0.000687684 -3.55512e-06
7.92074e-05 -3.55512e-06 0.000659948
0.00164709 -2.24563e-05 0.000108863
-2.24563e-05 0.000688672 -1.26702e-05
0.000108863 -1.26702e-05 0.000650243
0.00171698 -7.49443e-05 7.89584e-05
-7.49443e-05 0.000709128 -7.50337e-06
7.89584e-05 -7.50337e-06 0.000679172
0.00173221 -0.000102893 -2.94313e-05
-0.000102893 0.000619176 1.73475e-06
-2.94313e-05 1.73475e-06 0.00054075
0.00171333 -0.000147231 -4.21992e-05
-0.000147231 0.000643662 5.16361e-06
-4.21992e-05 5.16361e-06 0.000547092
0.00173806 -0.000141342 -3.13753e-05
-0.000141342 0.000635318 3.34628e-06
-3.13753e-05 3.34628e-06 0.000550234
0.00202951 -0.00027111 -8.58527e-06
-0.00027111 0.000648621 2.30567e-06
-8.58527e-06 2.30567e-06 0.000470768
0.00570226 2.10513e-05 0.000270014
2.10513e-05 0.00315534 -1.06137e-06
0.000270014 -1.06137e-06 0.00317507
0.00194267 -3.11183e-05 0.000217106
-3.11183e-05 0.000835817 -1.06709e-05
0.000217106 -1.06709e-05 0.000823794
0.00243075 2.1801e-06 4.55881e-05
2.1801e-06 0.00104435 -9.29411e-07
4.55881e-05 -9.29411e-07 0.000979509
0.00164667 -0.000100446 5.52718e-05
-0.000100446 0.000569719 -6.29439e-06
5.52718e-05 -6.29439e-06 0.000488362
0.00167394 -0.000124895 5.79698e-05
-0.000124895 0.000592937 -1.0692e-05
5.79698e-05 -1.0692e-05 0.000503726
0.00189602 -0.000173785 1.14919e-05
-0.000173785 0.000502704 -2.99046e-06
1.14919e-05 -2.99046e-06 0.000355648
0.00178603 -0.000231907 1.64374e-05
-0.000231907 0.000467788 -5.65411e-06
1.64374e-05 -5.65411e-06 0.000301738
0.00166833 -6.17131e-05 0.000206002
-6.17131e-05 0.000682819 -2.50254e-05
0.000206002 -2.50254e-05 0.000667608
0.0015526 -6.57888e-05 2.42464e-05
-6.57888e-05 0.000575395 -1.24008e-05
2.42464e-05 -1.24008e-05 0.000465592
0.00203807 -0.000291738 1.55074e-05
-0.000291738 0.000698512 -7.91798e-06
1.55074e-05 -7.91798e-06 0.000509397
0.00146848 -0.000325936 6.19755e-06
-0.000325936 0.000132739 -1.51548e-06
6.19755e-06 -1.51548e-06 -8.98424e-05
0.00631629 0.000216311 -0.000295017
0.000216311 0.00353348 -2.9671e-05
-0.000295017 -2.9671e-05 0.00353751
0.00580697 -0.000112307 -0.000208461
-0.000112307 0.00325057 -1.34506e-05
-0.000208461 -1.34506e-05 0.00324683
0.00610871 4.28881e-05 -0.000255455
4.28881e-05 0.00340251 -2.06442e-05
-0.000255455 -2.06442e-05 0.00341297
0.000480289 0.000207505 -2.48217e-05
0.000207505 -8.89776e-05 -1.82186e-05
-2.48217e-05 -1.82186e-05 -0.000205366
0.00629811 0.000209395 -2.61479e-06
0.000209395 0.00351942 -2.16286e-06
-2.61479e-06 -2.16286e-06 0.00352579
0.006319 0.000157477 -8.88349e-06
0.000157477 0.00353124 -2.24794e-06
-8.88349e-06 -2.24794e-06 0.00353745
0.000434614 0.000127097 9.80459e-08
0.000127097 -0.00017088 -2.79366e-07
9.80459e-08 -2.79366e-07 -0.000272286
0.00328725 -0.000118622 -9.27246e-05
-0.000118622 0.00172655 -3.27863e-06
-9.27246e-05 -3.27863e-06 0.00169422
0.000442813 0.000197594 -8.70428e-08
0.000197594 -0.000123042 -4.12932e-07
-8.70428e-08 -4.12932e-07 -0.000237736
0.00166219 0.000193295 4.82449e-05
0.000193295 0.000635085 2.42835e-06
4.82449e-05 2.42835e-06 0.00054241
0.000865746 0.000208283 3.33208e-07
0.000208283 3.13347e-05 -1.1404e-08
3.33208e-07 -1.1404e-08 -0.000156069
0.00496245 -0.000123344 0.000181449
-0.000123344 0.0027557 1.48948e-05
0.000181449 1.48948e-05 0.00275002
0.000533658 1.77245e-05 9.34367e-06
1.77245e-05 4.14195e-06 1.16448e-05
9.34367e-06 1.16448e-05 -5.40401e-05
0.000534496 9.70828e-05 1.60569e-05
9.70828e-05 -0.000130578 9.46878e-06
1.60569e-05 9.46878e-06 -0.000226556
0.000577408 0.000154603 2.09531e-05
0.000154603 -6.95682e-05 1.6642e-05
2.09531e-05 1.6642e-05 -0.00017754
0.00104794 0.000195557 1.46023e-05
0.000195557 -3.14605e-06 5.27005e-06
1.46023e-05 5.27005e-06 -0.000175711
0.00282444 0.000146639 0.000120118
0.000146639 0.00136803 1.60294e-05
0.000120118 1.60294e-05 0.00129988
0.000914979 0.000213447 1.35683e-05
0.000213447 8.26723e-06 6.49107e-06
1.35683e-05 6.49107e-06 -0.000175807
0.00084196 0.000210994 1.12955e-05
0.000210994 8.14929e-05 5.46767e-06
1.12955e-05 5.46767e-06 -0.000113144
0.00102131 0.00029168 2.83161e-06
0.00029168 4.7927e-05 2.84239e-07
2.83161e-06 2.84239e-07 -0.000190812
0.00315246 -0.000120715 8.89044e-05
-0.000120715 0.00163591 4.0039e-06
8.89044e-05 4.0039e-06 0.00163591
0.00368647 -0.000151368 1.6121e-05
-0.000151368 0.00197723 -2.16114e-07
1.6121e-05 -2.16114e-07 0.00196813
0.00615724 4.5977e-05 -0.000284836
4.5977e-05 0.00342122 -1.31981e-05
-0.000284836 -1.31981e-05 0.00343827
0.00592837 6.75664e-05 -0.000282814
6.75664e-05 0.0032889 -8.15432e-06
-0.000282814 -8.15432e-06 0.0033082
0.00580948 8.44323e-05 -1.09043e-08
8.44323e-05 0.00322768 -3.36664e-06
-1.09043e-08 -3.36664e-06 0.00324275
0.00365641 2.48565e-05 -0.000119608
2.48565e-05 0.00189712 -5.71699e-06
-0.000119608 -5.71699e-06 0.00188926
0.00163045 3.65713e-05 5.71377e-05
3.65713e-05 0.000537764 1.34548e-06
5.71377e-05 1.34548e-06 0.000472814
0.00387807 0.000132822 -0.00010971
0.000132822 0.00203832 -6.07094e-06
-0.00010971 -6.07094e-06 0.00201947
0.00167398 8.67159e-05 5.73412e-05
8.67159e-05 0.000562451 2.61927e-06
5.73412e-05 2.61927e-06 0.000489716
0.00577588 0.000130281 0.000278518
0.000130281 0.00321664 6.93823e-06
0.000278518 6.93823e-06 0.00322622
0.000501687 1.06759e-05 1.88078e-05
1.06759e-05 -0.000150098 7.59704e-07
1.88078e-05 7.59704e-07 -0.000227555
0.00276516 3.41417e-05 0.000131265
3.41417e-05 0.00122765 5.57227e-06
0.000131265 5.57227e-06 0.00117688
0.00105797 4.9383e-05 1.23768e-05
4.9383e-05 -2.50003e-05 1.0126e-06
1.23768e-05 1.0126e-06 -0.0001543
0.00269245 0.000112207 0.000136431
0.000112207 0.00118803 1.06648e-05
0.000136431 1.06648e-05 0.00112731
0.00111296 0.00011488 1.22445e-05
0.00011488 -3.71002e-06 2.15479e-06
1.22445e-05 2.15479e-06 -0.000147609
0.00175917 4.2851e-05 -0.000222348
4.2851e-05 0.000716824 2.36273e-06
-0.000222348 2.36273e-06 0.000715538
0.001338 -9.00378e-06 -5.27868e-05
-9.00378e-06 0.000486972 2.2419e-06
-5.27868e-05 2.2419e-06 0.000445346
0.00149142 2.40542e-05 -2.57269e-05
2.40542e-05 0.000597079 7.26071e-06
-2.57269e-05 7.26071e-06 0.000548139
0.00132649 -9.19021e-05 -6.68976e-05
-9.19021e-05 0.000490683 9.83038e-06
-6.68976e-05 9.83038e-06 0.000443536
0.00184969 -8.23829e-05 -0.000117388
-8.23829e-05 0.000681863 1.06207e-05
-0.000117388 1.06207e-05 0.000613246
0.00182025 -0.000130569 -0.000118571
-0.000130569 0.000676488 1.79008e-05
-0.000118571 1.79008e-05 0.000601472
0.00172432 -0.000165137 -0.000123385
-0.000165137 0.000641901 2.25636e-05
-0.000123385 2.25636e-05 0.000555385
0.00201004 -0.000269832 -3.05898e-05
-0.000269832 0.00063317 1.06462e-05
-3.05898e-05 1.06462e-05 0.000455729
0.00580718 -9.59537e-05 2.21857e-06
-9.59537e-05 0.00322892 -1.73883e-06
2.21857e-06 -1.73883e-06 0.00324235
0.00160653 3.67392e-05 8.68949e-05
3.67392e-05 0.000634976 -3.88056e-06
8.68949e-05 -3.88056e-06 0.000613309
0.00114043 -6.61524e-06 -6.00969e-05
-6.61524e-06 0.000244131 1.51171e-06
-6.00969e-05 1.51171e-06 0.000177615
0.00170985 -6.49611e-05 -3.28084e-05
-6.49611e-05 0.000602258 2.3519e-06
-3.28084e-05 2.3519e-06 0.000528643
0.00387895 4.66099e-06 0.000213101
4.66099e-06 0.00206331 -9.76227e-06
0.000213101 -9.76227e-06 0.00205245
0.00222322 -0.000143334 -3.77945e-05
-0.000143334 0.000969651 2.30472e-06
-3.77945e-05 2.30472e-06 0.000872533
0.00174081 -0.000124261 -2.88906e-05
-0.000124261 0.000629522 2.29603e-06
-2.88906e-05 2.29603e-06 0.00054819
0.00189036 -0.000171047 -9.66425e-06
-0.000171047 0.000495406 1.6924e-06
-9.66425e-06 1.6924e-06 0.000349632
0.00201228 -0.000292782 -7.31374e-06
-0.000292782 0.000678524 2.1845e-06
-7.31374e-06 2.1845e-06 0.000488601
0.00190894 -0.00023742 -6.42239e-06
-0.00023742 0.000543783 1.6678e-06
-6.42239e-06 1.6678e-06 0.00037745
0.0014934 -0.000326916 4.99602e-07
-0.000326916 0.000149194 -1.6806e-07
4.99602e-07 -1.6806e-07 -7.28281e-05
0.000539047 1.15621e-05 1.94439e-05
1.15621e-05 -0.0001305 -9.46451e-07
1.94439e-05 -9.46451e-07 -0.000204817
0.00156602 5.55678e-06 4.61053e-05
5.55678e-06 0.000513504 -2.6437e-06
4.61053e-05 -2.6437e-06 0.000441383
0.00172467 -4.96321e-05 1.1768e-05
-4.96321e-05 0.000388296 -8.58678e-07
1.1768e-05 -8.58678e-07 0.000270219
0.00172943 -0.000133099 1.18137e-05
-0.000133099 0.000390106 -1.9551e-06
1.18137e-05 -1.9551e-06 0.000253668
0.00176607 -0.000200417 1.43274e-05
-0.000200417 0.000430486 -4.09591e-06
1.43274e-05 -4.09591e-06 0.000275426
0.00181147 -0.000234748 5.77735e-07
-0.000234748 0.000228451 -3.73197e-07
5.77735e-07 -3.73197e-07 6.2986e-05
0.00543935 0.000160108 0.000170414
0.000160108 0.00305547 -1.24894e-05
0.000170414 -1.24894e-05 0.00303839
0.00149368 -0.000300206 5.05492e-06
-0.000300206 0.000104495 -1.19119e-06
5.05492e-06 -1.19119e-06 -9.94429e-05
0.000356255 -0.000152884 2.08077e-05
-0.000152884 -0.000168717 -1.79421e-05
2.08077e-05 -1.79421e-05 -0.000264868
0.00084004 -0.000215962 1.19792e-05
-0.000215962 1.12955e-05 -8.1109e-06
1.19792e-05 -8.1109e-06 -0.000179264
0.0014999 -0.000359054 7.09071e-06
-0.000359054 0.00020972 -2.22117e-06
7.09071e-06 -2.22117e-06 -3.57611e-05
0.00174816 -0.000401242 2.75785e-06
-0.000401242 0.000185524 1.36668e-06
2.75785e-06 1.36668e-06 -3.88795e-05
0.000472291 -9.9978e-05 1.82995e-05
-9.9978e-05 -5.21253e-05 -1.45358e-05
1.82995e-05 -1.45358e-05 -0.000131616
0.000474459 -8.09875e-05 -7.47487e-07
-8.09875e-05 -1.01985e-05 -5.12123e-06
-7.47487e-07 -5.12123e-06 -0.000197836
0.00633547 0.000229868 -0.000306491
0.000229868 0.00354778 -2.91818e-05
-0.000306491 -2.91818e-05 0.0035512
0.00622169 0.000140896 -0.000276011
0.000140896 0.00347009 -2.58618e-05
-0.000276011 -2.58618e-05 0.00347968
0.000434718 0.000123133 -1.858e-05
0.000123133 -0.000172582 -1.15684e-05
-1.858e-05 -1.15684e-05 -0.000274075
0.00525935 -0.000180977 -0.000161503
-0.000180977 0.00294704 -1.15495e-05
-0.000161503 -1.15495e-05 0.00292912
0.000454957 0.000170474 -2.32732e-05
0.000170474 -0.000106286 -1.69975e-05
-2.32732e-05 -1.69975e-05 -0.000203672
0.000422154 0.000182897 -2.09892e-05
0.000182897 -0.000133096 -1.67667e-05
-2.09892e-05 -1.67667e-05 -0.000249057
0.00084427 0.000204433 -1.29254e-05
0.000204433 1.82573e-05 -6.17513e-06
-1.29254e-05 -6.17513e-06 -0.000167549
0.00462155 -0.00014584 1.18397e-05
-0.00014584 0.00255337 -8.38624e-07
1.18397e-05 -8.38624e-07 0.00254407
0.000548728 4.14062e-06 1.32162e-06
4.14062e-06 1.73437e-05 6.24876e-07
1.32162e-06 6.24876e-07 -3.82149e-05
0.00166654 0.00013324 5.86628e-05
0.00013324 0.000566928 4.63392e-06
5.86628e-05 4.63392e-06 0.000483807
0.00162847 0.000189691 5.78169e-05
0.000189691 0.000579906 4.79822e-06
5.78169e-05 4.79822e-06 0.000484219
0.00101665 0.000194177 9.08643e-08
0.000194177 -1.63778e-05 -2.60103e-07
9.08643e-08 -2.60103e-07 -0.000189408
0.000517367 0.000135219 -3.88811e-07
0.000135219 -4.96806e-05 -2.20366e-07
-3.88811e-07 -2.20366e-07 -0.000134327
0.000903402 0.000210465 6.98055e-07
0.000210465 7.20215e-06 9.49249e-08
6.98055e-07 9.49249e-08 -0.000176051
0.000818055 0.000205745 3.1789e-07
0.000205745 6.33032e-05 -7.93169e-07
3.1789e-07 -7.93169e-07 -0.000129442
0.00116205 0.000308917 1.90701e-07
0.000308917 0.000130185 -3.42899e-07
1.90701e-07 -3.42899e-07 -0.000111302
0.000563355 8.57056e-05 1.69627e-05
8.57056e-05 9.61309e-06 1.39932e-05
1.69627e-05 1.39932e-05 -6.56881e-05
0.000576452 -2.76027e-05 3.68766e-06
-2.76027e-05 3.3292e-05 9.64077e-06
3.68766e-06 9.64077e-06 -1.00282e-05
0.00117425 0.000123583 2.90264e-06
0.000123583 0.000420275 6.01796e-06
2.90264e-06 6.01796e-06 0.000252384
0.00109298 0.000173073 1.37252e-05
0.000173073 -1.92107e-06 4.13791e-06
1.37252e-05 4.13791e-06 -0.000165693
0.000982235 0.000210636 1.4596e-05
0.000210636 -2.23444e-06 6.14237e-06
1.4596e-05 6.14237e-06 -0.000182114
0.0016199 0.000321266 4.59876e-06
0.000321266 0.000166878 6.0019e-07
4.59876e-06 6.0019e-07 -4.26545e-05
0.000778318 0.0002118 8.80575e-06
0.0002118 0.00011076 5.50395e-06
8.80575e-06 5.50395e-06 -8.43331e-05
0.00140731 0.000348075 3.85293e-06
0.000348075 0.000195208 2.8399e-07
3.85293e-06 2.8399e-07 -4.46221e-05
0.00112543 0.000293427 4.02497e-06
0.000293427 0.000164867 1.0451e-06
4.02497e-06 1.0451e-06 -8.34915e-05
0.00138356 0.000390129 -5.69747e-06
0.000390129 0.000187715 -2.95168e-06
-5.69747e-06 -2.95168e-06 -7.99269e-05
0.00274005 -0.000126279 4.8685e-05
-0.000126279 0.00137697 3.24674e-06
4.8685e-05 3.24674e-06 0.00137536
0.00301549 -0.000146609 1.15407e-05
-0.000146609 0.00155608 -8.12564e-07
1.15407e-05 -8.12564e-07 0.0015487
0.00337784 -0.000173724 -6.569e-05
-0.000173724 0.00179162 -3.59636e-06
-6.569e-05 -3.59636e-06 0.00177591
0.000463726 -6.77892e-05 1.30798e-05
-6.77892e-05 -4.36176e-05 -1.28806e-05
1.30798e-05 -1.28806e-05 -0.000110234
0.00478006 0.000177197 0.00013517
0.000177197 0.00266879 -1.24019e-05
0.00013517 -1.24019e-05 0.00264631
0.00630001 0.000200104 -0.000307684
0.000200104 0.00352208 -2.47269e-05
-0.000307684 -2.47269e-05 0.00352995
0.00597184 8.29571e-05 -0.00028235
8.29571e-05 0.00331312 -1.13285e-05
-0.00028235 -1.13285e-05 0.00333122
0.000515886 9.49413e-05 -1.97577e-05
9.49413e-05 -0.000145586 -5.24641e-06
-1.97577e-05 -5.24641e-06 -0.000232294
0.000499319 4.25663e-05 -1.93127e-05
4.25663e-05 -0.000151225 -2.67205e-06
-1.93127e-05 -2.67205e-06 -0.000231955
0.00575446 -8.57453e-06 -0.000272078
-8.57453e-06 0.00318463 -2.10741e-06
-0.000272078 -2.10741e-06 0.00320502
0.00571019 1.18972e-05 -3.02479e-07
1.18972e-05 0.00315903 -7.88817e-07
-3.02479e-07 -7.88817e-07 0.00317929
0.000484813 7.70429e-07 -1.06304e-07
7.70429e-07 -0.000163117 8.52886e-08
-1.06304e-07 8.52886e-08 -0.000238742
0.00161417 3.66105e-05 5.71806e-05
3.66105e-05 0.000524452 2.38198e-06
5.71806e-05 2.38198e-06 0.000458279
0.00102328 5.28844e-05 -6.54539e-08
5.28844e-05 -4.78209e-05 -1.82492e-07
-6.54539e-08 -1.82492e-07 -0.000177764
0.000476606 8.05376e-05 -3.95686e-07
8.05376e-05 -0.000167445 -3.81279e-07
-3.95686e-07 -3.81279e-07 -0.000259519
0.00105442 0.000115754 -2.17945e-07
0.000115754 -3.91801e-05 -1.37186e-07
-2.17945e-07 -1.37186e-07 -0.000183994
0.000478877 -3.03847e-05 1.93754e-05
-3.03847e-05 -0.000168432 -7.54661e-07
1.93754e-05 -7.54661e-07 -0.000241636
0.00102242 2.07354e-05 1.21259e-05
2.07354e-05 -3.9221e-05 4.73703e-07
1.21259e-05 4.73703e-07 -0.000165347
0.0010619 8.16232e-05 1.19745e-05
8.16232e-05 -2.86146e-05 1.78417e-06
1.19745e-05 1.78417e-06 -0.000163926
0.00162433 8.25321e-05 -6.72884e-07
8.25321e-05 6.17966e-05 -9.88371e-08
-6.72884e-07 -9.88371e-08 -5.63973e-05
0.00111989 0.000145092 1.29033e-05
0.000145092 1.94785e-06 2.96433e-06
1.29033e-05 2.96433e-06 -0.000151882
0.00172093 0.000190594 1.07185e-06
0.000190594 0.000112139 -4.85156e-07
1.07185e-06 -4.85156e-07 -3.29e-05
0.0057305 -5.67706e-05 -0.000277339
-5.67706e-05 0.00317634 1.85195e-06
-0.000277339 1.85195e-06 0.00319372
0.00129525 -0.000147671 -5.44721e-05
-0.000147671 0.000471633 6.17474e-06
-5.44721e-05 6.17474e-06 0.000427794
-0.000266134 -4.24373e-06 -1.25331e-05
-4.24373e-06 -0.000613655 2.03161e-06
-1.25331e-05 2.03161e-06 -0.000703066
0.00181042 -5.76045e-05 -0.000116197
-5.76045e-05 0.000657635 7.48776e-06
-0.000116197 7.48776e-06 0.000592032
0.00582417 0.000322102 -5.62152e-06
0.000322102 0.00331273 5.48073e-06
-5.62152e-06 5.48073e-06 0.00324996
0.00286811 -0.000229215 -0.000125979
-0.000229215 0.00135753 2.31207e-05
-0.000125979 2.31207e-05 0.00126619
0.00185019 -0.00010655 -0.000117837
-0.00010655 0.000686287 1.4195e-05
-0.000117837 1.4195e-05 0.00061529
0.00185795 -0.000166935 -2.9245e-05
-0.000166935 0.000471523 5.51036e-06
-2.9245e-05 5.51036e-06 0.000327299
0.00200975 -0.000241366 -2.93189e-05
-0.000241366 0.000605795 8.9883e-06
-2.93189e-05 8.9883e-06 0.000439592
0.00201137 -0.000295278 -2.82224e-05
-0.000295278 0.000674687 1.14064e-05
-2.82224e-05 1.14064e-05 0.000483727
0.00152145 -0.000328105 -4.77729e-06
-0.000328105 0.000167738 1.17151e-06
-4.77729e-06 1.17151e-06 -5.37625e-05
0.000479477 5.92701e-06 -4.28438e-08
5.92701e-06 -0.000164928 1.73408e-07
-4.28438e-08 1.73408e-07 -0.000240224
0.00169675 -7.73752e-05 -3.17135e-05
-7.73752e-05 0.000596818 3.64207e-07
-3.17135e-05 3.64207e-07 0.000526856
0.00133609 -4.53538e-05 -9.08406e-06
-4.53538e-05 0.000151558 5.20288e-07
-9.08406e-06 5.20288e-07 2.90429e-05
0.00185039 -0.0001344 -7.24752e-06
-0.0001344 0.00046411 1.13808e-06
-7.24752e-06 1.13808e-06 0.00032779
0.00569213 0.000150006 1.73152e-06
0.000150006 0.00320781 3.61708e-07
1.73152e-06 3.61708e-07 0.00319178
0.00163957 -0.000145195 1.09062e-06
-0.000145195 0.000631917 3.71311e-07
1.09062e-06 3.71311e-07 0.000524707
0.00133275 -0.000249277 1.39737e-06
-0.000249277 0.000316705 -1.01431e-06
1.39737e-06 -1.01431e-06 0.000123774
0.00180832 -0.000202218 -7.44056e-06
-0.000202218 0.000456088 1.8032e-06
-7.44056e-06 1.8032e-06 0.000300648
0.00177754 -0.000235937 -1.52598e-06
-0.000235937 0.000203569 2.12104e-07
-1.52598e-06 2.12104e-07 4.10002e-05
0.00148498 -0.000357124 8.48453e-07
-0.000357124 0.000204906 -2.01371e-07
8.48453e-07 -2.01371e-07 -3.95768e-05
0.00164978 -0.000306949 5.24617e-07
-0.000306949 0.000201551 -1.77229e-07
5.24617e-07 -1.77229e-07 -1.81986e-06
0.00178412 -0.00040225 7.00904e-07
-0.00040225 0.000212053 7.88377e-08
7.00904e-07 7.88377e-08 -1.19312e-05
0.000528645 -0.000105093 1.8454e-07
-0.000105093 -1.88146e-05 6.13954e-07
1.8454e-07 6.13954e-07 -0.000102195
0.000651183 -0.000112592 2.023e-07
-0.000112592 9.01533e-05 -5.34366e-09
2.023e-07 -5.34366e-09 -9.6089e-05
0.00100494 -2.21566e-05 1.20954e-05
-2.21566e-05 -4.2732e-05 -7.98057e-07
1.20954e-05 -7.98057e-07 -0.000169149
0.00177967 -8.74834e-05 1.07798e-05
-8.74834e-05 0.000422849 -1.31671e-06
1.07798e-05 -1.31671e-06 0.000298187
0.00171332 -8.16752e-05 -5.46184e-07
-8.16752e-05 0.00013572 2.09248e-07
-5.46184e-07 2.09248e-07 1.33495e-05
0.00166735 -0.000187535 1.09114e-06
-0.000187535 0.000114067 5.53255e-07
1.09114e-06 5.53255e-07 -2.92818e-05
0.00173686 -0.00027922 1.89066e-06
-0.00027922 0.000215791 -1.68765e-07
1.89066e-06 -1.68765e-07 3.44435e-05
0.00191711 -0.000278163 2.84352e-07
-0.000278163 0.000163099 4.07816e-07
2.84352e-07 4.07816e-07 2.00549e-05
0.000459648 -0.000135472 1.93577e-05
-0.000135472 -7.96539e-05 -1.70753e-05
1.93577e-05 -1.70753e-05 -0.000171389
0.00180547 -0.000368256 9.42652e-07
-0.000368256 0.000177569 1.14703e-06
9.42652e-07 1.14703e-06 -1.63578e-05
0.000564111 -0.000197276 8.00425e-06
-0.000197276 -9.23769e-05 -7.66621e-06
8.00425e-06 -7.66621e-06 -0.00028392
0.00125809 -0.000351779 9.57507e-06
-0.000351779 0.000150443 -3.57374e-06
9.57507e-06 -3.57374e-06 -0.000109636
0.00191683 -0.00045552 2.34544e-06
-0.00045552 0.00034905 6.58673e-07
2.34544e-06 6.58673e-07 8.48213e-05
0.00210151 -0.000437597 -2.56481e-06
-0.000437597 0.000350177 3.50511e-06
-2.56481e-06 3.50511e-06 0.000149884
0.000698354 -0.000180978 1.07782e-06
-0.000180978 0.0001196 -5.65171e-06
1.07782e-06 -5.65171e-06 -9.98472e-05
0.000573363 -7.20048e-05 -3.62692e-07
-7.20048e-05 3.97456e-05 -4.83602e-06
-3.62692e-07 -4.83602e-06 -0.000104747
0.00113406 -0.00024138 -2.19543e-06
-0.00024138 0.000409347 7.42781e-08
-2.19543e-06 7.42781e-08 0.000143812
0.000463173 0.000102343 -1.79622e-05
0.000102343 -0.000168971 -8.85674e-06
-1.79622e-05 -8.85674e-06 -0.000265882
0.00427061 -0.000190389 -0.000107723
-0.000190389 0.00235111 -7.30926e-06
-0.000107723 -7.30926e-06 0.00233036
0.000398024 -1.15302e-05 -3.9104e-06
-1.15302e-05 -6.77559e-05 -1.11416e-05
-3.9104e-06 -1.11416e-05 -0.000123427
0.000418424 0.000153073 -1.98178e-05
0.000153073 -0.000159281 -1.45732e-05
-1.98178e-05 -1.45732e-05 -0.000267958
0.00098672 0.00019311 -1.52084e-05
0.00019311 -2.89285e-05 -5.78046e-06
-1.52084e-05 -5.78046e-06 -0.000202443
0.000462467 0.000127404 -2.1943e-05
0.000127404 -8.59641e-05 -1.55774e-05
-2.1943e-05 -1.55774e-05 -0.000166936
0.000671409 0.00019365 -9.74584e-06
0.00019365 -2.87543e-05 -6.97053e-06
-9.74584e-06 -6.97053e-06 -0.000219232
0.000917503 0.00020942 -1.36701e-05
0.00020942 2.15616e-05 -6.70816e-06
-1.36701e-05 -6.70816e-06 -0.000161143
0.00121282 0.000319262 -4.30417e-06
0.000319262 0.000155955 -1.44666e-06
-4.30417e-06 -1.44666e-06 -8.73937e-05
0.000498159 7.46831e-05 1.63528e-06
7.46831e-05 -2.99496e-05 8.8957e-07
1.63528e-06 8.8957e-07 -0.000102106
0.000476263 -4.73491e-05 7.26397e-09
-4.73491e-05 -2.00684e-05 4.08836e-07
7.26397e-09 4.08836e-07 -6.65045e-05
0.000645798 7.4319e-05 1.50571e-06
7.4319e-05 8.26415e-05 -4.64082e-08
1.50571e-06 -4.64082e-08 -6.8021e-05
0.00105367 0.000172622 -9.32819e-08
0.000172622 -2.18193e-05 -2.72318e-07
-9.32819e-08 -2.72318e-07 -0.000186426
0.000968237 0.000208559 3.52985e-07
0.000208559 -3.89642e-06 -2.0364e-07
3.52985e-07 -2.0364e-07 -0.000183622
0.00160547 0.000320669 -1.4684e-08
0.000320669 0.000156742 -7.55241e-08
-1.4684e-08 -7.55241e-08 -5.31982e-05
0.000751127 0.000204239 -6.56737e-07
0.000204239 9.07382e-05 -1.19595e-07
-6.56737e-07 -1.19595e-07 -0.000103489
0.00143057 0.000348129 -6.48147e-08
0.000348129 0.000205252 -1.46383e-07
-6.48147e-08 -1.46383e-07 -3.50204e-05
0.00107786 0.000288109 9.35608e-08
0.000288109 0.000137679 -6.7346e-07
9.35608e-08 -6.7346e-07 -0.000108718
0.00135597 0.000401213 -7.53421e-07
0.000401213 0.000156776 7.44996e-07
-7.53421e-07 7.44996e-07 -0.000113514
0.000544886 -4.97321e-05 -6.10562e-07
-4.97321e-05 1.35048e-05 7.87623e-06
-6.10562e-07 7.87623e-06 -2.22955e-05
0.000987464 0.000151694 5.33226e-06
0.000151694 0.000281486 4.27716e-06
5.33226e-06 4.27716e-06 9.47418e-05
0.000783011 3.99053e-05 1.47686e-06
3.99053e-05 0.000153407 5.86257e-06
1.47686e-06 5.86257e-06 4.15724e-05
0.000970778 0.000141983 9.53874e-07
0.000141983 0.000324444 1.99021e-07
9.53874e-07 1.99021e-07 9.28861e-05
0.00167938 0.000285741 2.76172e-06
0.000285741 0.000147548 -5.83046e-07
2.76172e-06 -5.83046e-07 -3.96549e-05
0.0015189 0.000343566 4.93875e-06
0.000343566 0.000176732 9.20958e-07
4.93875e-06 9.20958e-07 -5.20088e-05
0.00190373 0.000395894 1.02871e-06
0.000395894 0.000230892 -5.75083e-07
1.02871e-06 -5.75083e-07 2.18444e-05
0.00110331 0.000262483 5.26066e-06
0.000262483 0.000212809 2.08864e-06
5.26066e-06 2.08864e-06 -2.03264e-05
0.00198176 0.000481987 -2.44992e-06
0.000481987 0.000427003 -1.26975e-06
-2.44992e-06 -1.26975e-06 0.000162024
0.00140052 0.000386809 -3.13798e-06
0.000386809 0.00026755 -2.85875e-06
-3.13798e-06 -2.85875e-06 -2.57746e-05
0.00159416 0.000450245 -9.61355e-07
0.000450245 0.000198647 -1.07679e-06
-9.61355e-07 -1.07679e-06 -7.45565e-05
0.000575416 2.6755e-05 2.31365e-06
2.6755e-05 2.8286e-05 2.92309e-06
2.31365e-06 2.92309e-06 -3.16575e-05
0.000496296 -3.59905e-05 6.88233e-07
-3.59905e-05 -3.7708e-05 5.73373e-06
6.88233e-07 5.73373e-06 -6.11045e-05
0.00256356 -0.000116369 3.24181e-05
-0.000116369 0.00126081 3.55956e-06
3.24181e-05 3.55956e-06 0.00126194
0.00268555 -0.000133949 5.34528e-06
-0.000133949 0.00134518 -5.93385e-07
5.34528e-06 -5.93385e-07 0.00134136
0.00290347 -0.000156637 -4.08964e-05
-0.000156637 0.00148938 -3.26989e-06
-4.08964e-05 -3.26989e-06 0.00147888
0.000430553 -4.66998e-05 9.36557e-06
-4.66998e-05 -5.90906e-05 -1.10813e-05
9.36557e-06 -1.10813e-05 -0.000115045
0.00414334 0.000150488 0.000115899
0.000150488 0.00226603 -9.27733e-06
0.000115899 -9.27733e-06 0.00225272
0.000511257 -7.01561e-05 -1.20543e-06
-7.01561e-05 -1.78994e-05 2.51952e-07
-1.20543e-06 2.51952e-07 -8.75112e-05
0.00501052 0.000149925 -6.93721e-06
0.000149925 0.00279839 -9.88212e-07
-6.93721e-06 -9.88212e-07 0.00278289
0.000509135 0.000105891 -1.93387e-05
0.000105891 -0.000145463 -7.06483e-06
-1.93387e-05 -7.06483e-06 -0.000239321
0.000516678 3.39283e-05 -1.84282e-05
3.39283e-05 -0.00014582 -3.43636e-06
-1.84282e-05 -3.43636e-06 -0.000227435
0.00101828 0.000116601 -1.21268e-05
0.000116601 -6.24155e-05 -2.39033e-06
-1.21268e-05 -2.39033e-06 -0.000207995
0.000990464 5.4994e-05 -1.2098e-05
5.4994e-05 -6.93914e-05 -1.31464e-06
-1.2098e-05 -1.31464e-06 -0.000199812
0.000539462 -7.5992e-06 -1.95027e-05
-7.5992e-06 -0.000133187 -7.72607e-07
-1.95027e-05 -7.72607e-07 -0.000206894
0.00579676 -9.71101e-05 -0.000283786
-9.71101e-05 0.00322212 4.63961e-06
-0.000283786 4.63961e-06 0.0032369
0.000525192 -1.52668e-06 7.64696e-08
-1.52668e-06 -0.000140869 -6.00786e-07
7.64696e-08 -6.00786e-07 -0.000214112
0.00100602 2.57965e-05 -8.84557e-08
2.57965e-05 -5.01704e-05 -4.33842e-09
-8.84557e-08 -4.33842e-09 -0.000176632
0.00104626 8.36389e-05 -1.60325e-07
8.36389e-05 -4.04677e-05 -9.20054e-09
-1.60325e-07 -9.20054e-09 -0.000176439
0.00162082 8.14661e-05 -5.30826e-08
8.14661e-05 6.1013e-05 1.87457e-07
-5.30826e-08 1.87457e-07 -5.73431e-05
0.00106881 0.000146013 -2.53251e-07
0.000146013 -2.75759e-05 -2.78257e-07
-2.53251e-07 -2.78257e-07 -0.000182558
0.00169282 0.000189511 -1.34818e-07
0.000189511 9.59573e-05 2.71844e-08
-1.34818e-07 2.71844e-08 -4.9495e-05
0.00099489 -2.47493e-06 1.20354e-05
-2.47493e-06 -4.91894e-05 -2.20253e-07
1.20354e-05 -2.20253e-07 -0.000174781
0.00160582 3.9625e-05 -3.90561e-08
3.9625e-05 5.74742e-05 -4.239e-08
-3.90561e-08 -4.239e-08 -5.57578e-05
0.00164859 0.000132987 -5.0291e-07
0.000132987 6.85481e-05 -4.14469e-07
-5.0291e-07 -4.14469e-07 -6.01541e-05
0.0018622 0.000108795 6.55167e-07
0.000108795 4.84896e-05 -4.6455e-08
6.55167e-07 -4.6455e-08 -2.73723e-05
0.00172657 0.000243534 2.06915e-06
0.000243534 0.000133261 -3.63524e-07
2.06915e-06 -3.63524e-07 -3.21125e-05
0.00196934 0.000233867 1.15448e-06
0.000233867 0.000143829 -1.39178e-06
1.15448e-06 -1.39178e-06 2.55099e-05
0.000508374 -1.31687e-06 -1.86284e-05
-1.31687e-06 -0.000144508 9.52811e-07
-1.86284e-05 9.52811e-07 -0.000221899
0.00178758 -3.40871e-05 -0.00011487
-3.40871e-05 0.000644718 4.98258e-06
-0.00011487 4.98258e-06 0.000583116
0.000913582 -3.99983e-05 -1.61643e-05
-3.99983e-05 -0.000105325 1.78492e-06
-1.61643e-05 1.78492e-06 -0.000232596
0.00195039 -0.000134596 -2.65828e-05
-0.000134596 0.000524812 4.038e-06
-2.65828e-05 4.038e-06 0.000388773
0.00589043 0.000142051 -0.000201454
0.000142051 0.00333035 1.90998e-05
-0.000201454 1.90998e-05 0.00331267
0.00292962 -0.00021148 -0.000131635
-0.00021148 0.00141068 1.85661e-05
-0.000131635 1.85661e-05 0.0013296
0.00202009 -0.000300297 -2.35056e-05
-0.000300297 0.000737384 1.03076e-05
-2.35056e-05 1.03076e-05 0.000539002
0.00182919 -0.000202472 -2.86755e-05
-0.000202472 0.000468241 7.25287e-06
-2.86755e-05 7.25287e-06 0.000312785
0.00174231 -0.000237162 -4.05556e-06
-0.000237162 0.000177429 3.1051e-07
-4.05556e-06 3.1051e-07 1.775e-05
0.00180601 -0.000313703 -5.01017e-06
-0.000313703 0.000299276 1.38207e-06
-5.01017e-06 1.38207e-06 9.64647e-05
0.00146965 -0.00035545 -6.01112e-06
-0.00035545 0.000199235 1.40065e-06
-6.01112e-06 1.40065e-06 -4.43198e-05
0.00181931 -0.000403597 -9.16084e-07
-0.000403597 0.000236891 -1.35455e-06
-9.16084e-07 -1.35455e-06 1.32294e-05
0.000486355 -0.000117078 -1.72728e-05
-0.000117078 -4.21109e-05 1.55166e-05
-1.72728e-05 1.55166e-05 -0.000129936
0.000884458 -0.000145049 -7.57246e-07
-0.000145049 0.000229688 4.98851e-06
-7.57246e-07 4.98851e-06 4.1949e-05
0.000945717 -1.67504e-05 5.15045e-09
-1.67504e-05 -8.07173e-05 -6.00068e-08
5.15045e-09 -6.00068e-08 -0.000205954
0.00177805 -8.80321e-05 -7.62411e-06
-8.80321e-05 0.000420238 8.92453e-07
-7.62411e-06 8.92453e-07 0.000295743
0.00175698 -7.80859e-05 -7.30959e-07
-7.80859e-05 0.000160913 2.41933e-07
-7.30959e-07 2.41933e-07 4.29001e-05
0.00170776 -0.000188162 -1.49548e-06
-0.000188162 0.00014259 5.07738e-07
-1.49548e-06 5.07738e-07 -4.40933e-06
0.000478619 -0.000151583 5.28029e-07
-0.000151583 -7.00731e-05 2.14222e-07
5.28029e-07 2.14222e-07 -0.000163568
0.000794243 -0.000211188 -2.9243e-07
-0.000211188 4.49126e-05 -1.24649e-07
-2.9243e-07 -1.24649e-07 -0.000148586
0.00119868 -0.0003465 1.64384e-06
-0.0003465 0.000114237 -6.43266e-07
1.64384e-06 -6.43266e-07 -0.000145206
0.0017651 -0.000278839 -3.08898e-06
-0.000278839 0.000233219 8.36127e-07
-3.08898e-06 8.36127e-07 5.00504e-05
0.00196379 -0.000282424 1.66101e-06
-0.000282424 0.000185521 -4.52233e-07
1.66101e-06 -4.52233e-07 4.72474e-05
0.00196881 -0.000464361 -1.1034e-06
-0.000464361 0.000379566 -2.83758e-07
-1.1034e-06 -2.83758e-07 0.000114924
0.00183209 -0.000369794 5.12016e-07
-0.000369794 0.000193989 -7.72601e-09
5.12016e-07 -7.72601e-09 8.16327e-08
0.00198417 -0.000432296 8.17124e-07
-0.000432296 0.00027201 6.99576e-07
8.17124e-07 6.99576e-07 7.19243e-05
0.000691255 -0.000180181 1.38993e-07
-0.000180181 0.000109873 -2.87494e-07
1.38993e-07 -2.87494e-07 -0.000103588
0.000441964 -0.000149533 -9.26094e-07
-0.000149533 -3.24145e-05 -2.84278e-07
-9.26094e-07 -2.84278e-07 -0.000276732
0.000724564 -9.24457e-05 4.80111e-07
-9.24457e-05 0.000131316 1.33893e-07
4.80111e-07 1.33893e-07 -1.8177e-05
0.00168173 -3.48034e-05 -6.94496e-07
-3.48034e-05 0.000118494 8.16472e-08
-6.94496e-07 8.16472e-08 2.08056e-06
0.00182483 -0.000130187 -1.48048e-06
-0.000130187 0.000200634 1.00978e-06
-1.48048e-06 1.00978e-06 7.45552e-05
0.00183459 -0.000100509 1.64321e-06
-0.000100509 4.85081e-05 4.80089e-07
1.64321e-06 4.80089e-07 -3.69143e-05
0.00185836 -0.000227991 -1.71888e-06
-0.000227991 9.51619e-05 1.23396e-06
-1.71888e-06 1.23396e-06 -2.30606e-05
0.00173996 -0.000329165 -8.13026e-07
-0.000329165 8.99572e-05 2.06207e-06
-8.13026e-07 2.06207e-06 -7.36751e-05
0.00205559 -0.00030565 1.64721e-06
-0.00030565 0.00020012 -1.47527e-07
1.64721e-06 -1.47527e-07 8.73868e-05
0.000627156 -0.000210111 4.55879e-06
-0.000210111 1.06102e-05 -6.8243e-06
4.55879e-06 -6.8243e-06 -0.00019009
0.00185616 -0.00039863 -2.20846e-06
-0.00039863 0.000144728 1.70343e-06
-2.20846e-06 1.70343e-06 -2.47354e-05
0.00129105 -0.000327507 6.46612e-06
-0.000327507 0.000265205 -5.60003e-06
6.46612e-06 -5.60003e-06 1.11467e-05
0.00163984 -0.000494685 4.12618e-06
-0.000494685 0.0002813 6.30543e-07
4.12618e-06 6.30543e-07 -3.05241e-05
0.00205707 -0.000496898 1.42311e-06
-0.000496898 0.000375571 3.38617e-06
1.42311e-06 3.38617e-06 0.000119576
0.00215329 -0.0004557 -3.18979e-06
-0.0004557 0.000372547 2.6087e-06
-3.18979e-06 2.6087e-06 0.000187295
0.000648136 -6.43675e-05 5.03753e-09
-6.43675e-05 9.98509e-05 -4.68382e-06
5.03753e-09 -4.68382e-06 -2.41662e-05
0.000969278 -0.000243809 1.28817e-07
-0.000243809 0.000206165 -8.32704e-07
1.28817e-07 -8.32704e-07 -2.03859e-05
0.000320724 -0.000128091 -1.67694e-06
-0.000128091 -4.67188e-05 1.7783e-06
-1.67694e-06 1.7783e-06 -0.000296702
0.00164112 -0.000314106 -4.5015e-06
-0.000314106 0.000639856 1.57758e-06
-4.5015e-06 1.57758e-06 0.000376912
0.00101141 0.000172315 -1.43815e-05
0.000172315 -4.36827e-05 -4.64129e-06
-1.43815e-05 -4.64129e-06 -0.000209139
0.000395033 -5.74638e-05 3.35147e-06
-5.74638e-05 -6.34306e-05 -9.86346e-06
3.35147e-06 -9.86346e-06 -0.000112225
0.000449021 5.49214e-05 -1.37143e-05
5.49214e-05 -5.8227e-05 -1.3312e-05
-1.37143e-05 -1.3312e-05 -0.000125095
0.000169253 4.37484e-05 -9.95609e-07
4.37484e-05 -0.000205472 -5.6261e-06
-9.95609e-07 -5.6261e-06 -0.000349604
0.000948352 0.000206425 -1.48334e-05
0.000206425 -9.12202e-06 -6.65721e-06
-1.48334e-05 -6.65721e-06 -0.000188728
0.00159347 0.000320123 -4.5356e-06
0.000320123 0.000148188 -5.92226e-07
-4.5356e-06 -5.92226e-07 -6.21399e-05
0.000676736 0.000193969 -6.2241e-06
0.000193969 4.1284e-05 -4.1967e-06
-6.2241e-06 -4.1967e-06 -0.000150358
0.00127726 0.000304039 -6.04483e-06
0.000304039 0.000263666 -2.93279e-06
-6.04483e-06 -2.93279e-06 1.61001e-05
0.0014487 0.00034752 -3.87627e-06
0.00034752 0.000212805 -7.92623e-07
-3.87627e-06 -7.92623e-07 -2.77968e-05
0.00131745 0.00040894 1.83317e-06
0.00040894 0.000123396 2.88574e-06
1.83317e-06 2.88574e-06 -0.000148564
0.000461027 -5.61874e-05 -2.44082e-06
-5.61874e-05 -3.42914e-05 7.33584e-07
-2.44082e-06 7.33584e-07 -7.1555e-05
0.00070291 0.000163475 9.33229e-08
0.000163475 0.000120871 -7.7558e-07
9.33229e-08 -7.7558e-07 -7.12088e-05
0.000606329 1.96496e-05 6.03715e-07
1.96496e-05 4.91015e-05 4.42204e-07
6.03715e-07 4.42204e-07 -5.8081e-05
0.000777429 0.000128435 1.54409e-06
0.000128435 0.000204126 -5.1323e-07
1.54409e-06 -5.1323e-07 -2.35562e-05
0.00166547 0.00028468 -6.00971e-07
0.00028468 0.000139355 -7.02302e-07
-6.00971e-07 -7.02302e-07 -4.8119e-05
0.00150515 0.000343347 -1.2337e-08
0.000343347 0.000168036 -1.23965e-07
-1.2337e-08 -1.23965e-07 -6.12972e-05
0.00187669 0.000393294 2.91658e-07
0.000393294 0.000216438 2.30482e-07
2.91658e-07 2.30482e-07 7.69723e-06
0.00102314 0.000258061 1.80367e-06
0.000258061 0.000167665 4.80553e-08
1.80367e-06 4.80553e-08 -6.38064e-05
0.0018839 0.000465604 -7.7361e-07
0.000465604 0.000372989 4.1741e-08
-7.7361e-07 4.1741e-08 0.000110163
0.00132315 0.000381769 -5.91855e-08
0.000381769 0.00021872 -1.51182e-06
-5.91855e-08 -1.51182e-06 -7.51372e-05
0.0016802 0.000451252 -3.65474e-06
0.000451252 0.000253137 1.39135e-06
-3.65474e-06 1.39135e-06 -1.5668e-05
0.000502125 -4.49572e-05 2.18136e-07
-4.49572e-05 -2.50201e-05 6.48615e-06
2.18136e-07 6.48615e-06 -5.29499e-05
0.000675084 1.38889e-05 4.64699e-07
1.38889e-05 9.16708e-05 5.10266e-06
4.64699e-07 5.10266e-06 6.15056e-06
0.000860694 0.000223258 1.3665e-06
0.000223258 0.000154385 6.33635e-07
1.3665e-06 6.33635e-07 -6.46889e-05
0.00132313 0.000114053 -1.64564e-06
0.000114053 0.000552902 2.75114e-06
-1.64564e-06 2.75114e-06 0.000354088
0.0013149 0.000254327 -2.34027e-06
0.000254327 0.000486601 -1.27576e-06
-2.34027e-06 -1.27576e-06 0.000246895
0.0019581 0.000351516 4.46061e-07
0.000351516 0.000206078 -2.32372e-06
4.46061e-07 -2.32372e-06 2.84027e-05
0.0018565 0.00044024 3.381e-07
0.00044024 0.0002706 -5.95075e-07
3.381e-07 -5.95075e-07 3.02349e-05
0.00194151 0.000432033 -1.1162e-06
0.000432033 0.000225857 -7.2628e-07
-1.1162e-06 -7.2628e-07 2.49624e-05
0.000801391 0.000309081 1.74711e-06
0.000309081 -1.92422e-05 1.44144e-06
1.74711e-06 1.44144e-06 -0.000294546
0.00211322 0.000534523 -6.80377e-07
0.000534523 0.000449715 -7.60574e-07
-6.80377e-07 -7.60574e-07 0.000180452
0.00120618 0.000417726 4.52303e-06
0.000417726 8.86864e-05 -2.78521e-06
4.52303e-06 -2.78521e-06 -0.000209339
0.000593428 2.18398e-05 2.42338e-06
2.18398e-05 3.80198e-05 3.20266e-06
2.42338e-06 3.20266e-06 -2.53993e-05
0.000645759 6.61347e-05 -2.0919e-07
6.61347e-05 0.000103515 1.27355e-06
-2.0919e-07 1.27355e-06 -2.12628e-07
0.000597312 3.68526e-05 2.31427e-06
3.68526e-05 4.68902e-05 2.93795e-06
2.31427e-06 2.93795e-06 -1.1971e-05
0.000556124 -2.58584e-06 -5.76587e-07
-2.58584e-06 1.7642e-05 6.21174e-09
-5.76587e-07 6.21174e-09 -4.27164e-05
0.00125176 -4.69489e-05 8.13244e-07
-4.69489e-05 0.000424817 3.22932e-06
8.13244e-07 3.22932e-06 0.000407636
0.000887589 -4.60629e-05 4.79327e-07
-4.60629e-05 0.000204025 -1.52498e-07
4.79327e-07 -1.52498e-07 0.000182466
0.000853307 -5.31169e-05 2.59401e-05
-5.31169e-05 0.000191328 8.28988e-06
2.59401e-05 8.28988e-06 0.000191293
0.00252229 -0.000113895 5.45378e-06
-0.000113895 0.00123436 -5.15398e-07
5.45378e-06 -5.15398e-07 0.00123603
0.00261183 -0.000130407 -3.66531e-05
-0.000130407 0.00129911 -3.32719e-06
-3.66531e-05 -3.32719e-06 0.00129622
0.000367965 -1.92897e-05 4.2941e-06
-1.92897e-05 -8.98496e-05 -8.52286e-06
4.2941e-06 -8.52286e-06 -0.000133797
0.00367772 0.000145337 8.37175e-05
0.000145337 0.00196767 -5.42162e-06
8.37175e-05 -5.42162e-06 0.00195773
0.000476425 -4.69858e-05 -1.08394e-06
-4.69858e-05 -3.30208e-05 3.02678e-07
-1.08394e-06 3.02678e-07 -8.97291e-05
0.00438305 0.0001356 -9.78962e-06
0.0001356 0.00240873 -1.09015e-06
-9.78962e-06 -1.09015e-06 0.00239857
0.00052813 -7.19861e-05 -1.35908e-05
-7.19861e-05 -1.19392e-05 1.31387e-05
-1.35908e-05 1.31387e-05 -8.45125e-05
0.00528128 0.000137136 -0.000180087
0.000137136 0.00296064 1.62749e-05
-0.000180087 1.62749e-05 0.00294759
0.00102047 0.000146824 -1.3067e-05
0.000146824 -5.5384e-05 -3.46276e-06
-1.3067e-05 -3.46276e-06 -0.000211411
0.00101067 8.71727e-05 -1.20043e-05
8.71727e-05 -6.32451e-05 -1.76478e-06
-1.20043e-05 -1.76478e-06 -0.000200164
0.00169218 0.000185577 -2.13092e-06
0.000185577 9.76533e-05 4.46413e-07
-2.13092e-06 4.46413e-07 -4.75692e-05
0.00161593 8.06253e-05 -7.32498e-08
8.06253e-05 5.97339e-05 4.36612e-07
-7.32498e-08 4.36612e-07 -5.88117e-05
0.000995151 3.0151e-05 -1.20848e-05
3.0151e-05 -5.84791e-05 -5.12897e-07
-1.20848e-05 -5.12897e-07 -0.000185287
0.000486974 2.90193e-05 -1.93486e-05
2.90193e-05 -0.00016526 -4.71329e-07
-1.93486e-05 -4.71329e-07 -0.000237551
0.000994235 7.06069e-07 -2.09558e-08
7.06069e-07 -5.08158e-05 -9.71929e-08
-2.09558e-08 -9.71929e-08 -0.000176463
0.00159813 4.03417e-05 -7.61101e-08
4.03417e-05 5.50663e-05 7.31185e-08
-7.61101e-08 7.31185e-08 -5.82905e-05
0.00166747 0.000130922 -5.92323e-08
0.000130922 8.11911e-05 1.12109e-07
-5.92323e-08 1.12109e-07 -4.74782e-05
0.00190603 0.000107753 -1.55734e-07
0.000107753 7.30827e-05 3.57388e-07
-1.55734e-07 3.57388e-07 6.85719e-07
0.00169938 0.000241095 -3.52603e-07
0.000241095 0.000120469 -7.6562e-08
-3.52603e-07 -7.6562e-08 -4.49085e-05
0.0019393 0.000230933 -5.19835e-07
0.000230933 0.000127596 4.44312e-08
-5.19835e-07 4.44312e-08 9.54396e-06
0.00156776 1.11192e-07 2.23436e-07
1.11192e-07 4.09401e-05 1.73319e-08
2.23436e-07 1.73319e-08 -7.12302e-05
0.00192646 5.57534e-05 8.79753e-08
5.57534e-05 9.15699e-05 5.2484e-08
8.79753e-08 5.2484e-08 3.1259e-05
0.00192703 0.000170115 1.38389e-06
0.000170115 9.27098e-05 -1.04457e-06
1.38389e-06 -1.04457e-06 -1.28078e-06
0.00189826 0.00010928 6.46301e-06
0.00010928 1.66878e-05 6.79337e-07
6.46301e-06 6.79337e-07 -2.7347e-05
0.00198476 0.000297653 5.63657e-07
0.000297653 0.000187084 -1.58377e-06
5.63657e-07 -1.58377e-06 4.01849e-05
0.00185391 0.000246842 1.85471e-06
0.000246842 9.37337e-06 3.44061e-07
1.85471e-06 3.44061e-07 -8.17047e-05
0.000887766 -1.28054e-05 -1.22488e-05
-1.28054e-05 -0.000117962 6.26002e-07
-1.22488e-05 6.26002e-07 -0.000242102
0.00179928 -8.95073e-05 -2.58815e-05
-8.95073e-05 0.000431629 2.97278e-06
-2.58815e-05 2.97278e-06 0.000307234
0.00182892 -7.28301e-05 -2.85994e-06
-7.28301e-05 0.000202893 -1.95691e-07
-2.85994e-06 -1.95691e-07 8.95318e-05
0.00174889 -0.000188493 -3.12001e-06
-0.000188493 0.00017178 7.38427e-07
-3.12001e-06 7.38427e-07 2.11706e-05
0.000576545 -0.000167617 -2.26e-05
-0.000167617 -9.40197e-06 1.735e-05
-2.26e-05 1.735e-05 -0.000107214
0.000869255 -0.000216768 -1.03231e-05
-0.000216768 9.50353e-05 7.84643e-06
-1.03231e-05 7.84643e-06 -0.000100049
0.00116773 -0.000344293 -4.53696e-06
-0.000344293 9.44706e-05 2.46512e-06
-4.53696e-06 2.46512e-06 -0.00016506
0.00179311 -0.00027827 -6.43946e-06
-0.00027827 0.000250441 1.7099e-06
-6.43946e-06 1.7099e-06 6.54955e-05
0.00200965 -0.000286499 8.40723e-07
-0.000286499 0.000207223 -1.38949e-06
8.40723e-07 -1.38949e-06 7.37614e-05
0.00186075 -0.000371477 -4.15083e-07
-0.000371477 0.00021152 -1.03842e-06
-4.15083e-07 -1.03842e-06 1.76204e-05
0.0019927 -0.000470346 -3.11736e-06
-0.000470346 0.000394485 -2.02462e-06
-3.11736e-06 -2.02462e-06 0.00013001
0.00186465 -0.000425251 3.78986e-06
-0.000425251 0.000192878 -2.53513e-06
3.78986e-06 -2.53513e-06 -6.43825e-06
0.000794273 -0.000173415 -3.17374e-06
-0.000173415 0.000158705 6.02079e-06
-3.17374e-06 6.02079e-06 -4.51381e-05
0.000155868 -0.000117465 1.03802e-06
-0.000117465 -0.000205476 -1.02604e-06
1.03802e-06 -1.02604e-06 -0.000448379
0.000748643 -0.000113351 -7.7943e-07
-0.000113351 0.00014544 4.47872e-06
-7.7943e-07 4.47872e-06 -7.95476e-06
0.0016592 -3.17871e-05 -1.01964e-06
-3.17871e-05 0.000103061 1.53139e-07
-1.01964e-06 1.53139e-07 -1.18656e-05
0.00180409 -0.000137843 -2.9025e-06
-0.000137843 0.000186196 4.69529e-07
-2.9025e-06 4.69529e-07 5.87553e-05
0.00187824 -9.88158e-05 2.62189e-06
-9.88158e-05 7.30031e-05 -3.30976e-07
2.62189e-06 -3.30976e-07 -6.67953e-06
0.00187835 -0.000224031 -2.06395e-06
-0.000224031 0.000108447 5.9382e-07
-2.06395e-06 5.9382e-07 -1.16224e-05
0.000774571 -0.000219813 6.43668e-07
-0.000219813 0.000102656 -3.95697e-07
6.43668e-07 -3.95697e-07 -0.000100661
0.00115092 -0.000318922 -1.47972e-06
-0.000318922 0.000169665 -2.20241e-07
-1.47972e-06 -2.20241e-07 -8.35958e-05
0.00158303 -0.000483022 1.95508e-06
-0.000483022 0.00026144 9.95966e-08
1.95508e-06 9.95966e-08 -4.89304e-05
0.00175685 -0.000328582 -1.42215e-06
-0.000328582 0.000103919 8.92317e-07
-1.42215e-06 8.92317e-07 -6.45812e-05
0.00197826 -0.000303142 1.71762e-06
-0.000303142 0.000146755 -5.40378e-07
1.71762e-06 -5.40378e-07 3.75699e-05
0.0019411 -0.000495546 -5.84647e-07
-0.000495546 0.000297555 4.21795e-07
-5.84647e-07 4.21795e-07 3.93092e-05
0.00188255 -0.000398758 2.66457e-08
-0.000398758 0.000163133 5.09838e-07
2.66457e-08 5.09838e-07 -6.30196e-06
0.00211562 -0.000445655 1.92753e-06
-0.000445655 0.000341595 -5.0198e-07
1.92753e-06 -5.0198e-07 0.000161585
0.00108735 -0.000260212 -8.94181e-08
-0.000260212 0.000281948 4.63092e-07
-8.94181e-08 4.63092e-07 4.68987e-05
0.0011739 -0.000278744 -6.7772e-07
-0.000278744 0.000361648 1.06835e-07
-6.7772e-07 1.06835e-07 9.74922e-05
0.000631952 -7.71369e-05 -1.27229e-07
-7.71369e-05 8.68078e-05 6.19604e-08
-1.27229e-07 6.19604e-08 -3.91381e-05
0.000175432 -7.21917e-05 1.45155e-07
-7.21917e-05 -0.000154668 -1.25638e-06
1.45155e-07 -1.25638e-06 -0.000382748
0.00188026 -5.12891e-05 6.82585e-07
-5.12891e-05 7.34048e-05 4.38725e-07
6.82585e-07 4.38725e-07 4.0705e-06
0.00177887 -0.000162588 1.04962e-06
-0.000162588 1.93179e-05 3.65235e-07
1.04962e-06 3.65235e-07 -8.13371e-05
0.00195715 -0.0001043 6.00855e-06
-0.0001043 8.09316e-05 -5.94354e-07
6.00855e-06 -5.94354e-07 3.49332e-05
0.00191793 -0.000248709 -1.17665e-06
-0.000248709 6.1147e-05 -1.95775e-07
-1.17665e-06 -1.95775e-07 -1.59195e-05
0.00177272 -0.000351682 -2.91791e-06
-0.000351682 5.69213e-05 1.30265e-06
-2.91791e-06 1.30265e-06 -8.1456e-05
0.00201451 -0.000316221 4.03824e-06
-0.000316221 0.000145061 -1.77372e-06
4.03824e-06 -1.77372e-06 5.36274e-05
0.00121116 -0.000297601 3.22111e-06
-0.000297601 0.000276867 -4.11527e-06
3.22111e-06 -4.11527e-06 3.95472e-05
0.00180878 -0.000411499 -4.34102e-06
-0.000411499 0.000106891 8.28073e-07
-4.34102e-06 8.28073e-07 -4.21279e-05
0.00155812 -0.00046615 2.80162e-06
-0.00046615 0.000371289 -1.89307e-06
2.80162e-06 -1.89307e-06 4.91915e-05
0.00180822 -0.000558094 -4.99572e-07
-0.000558094 0.000330563 1.71429e-06
-4.99572e-07 1.71429e-06 3.44842e-06
0.00189506 -0.000503922 1.38215e-06
-0.000503922 0.000222474 4.07813e-06
1.38215e-06 4.07813e-06 -2.82475e-05
0.00221045 -0.000456999 -2.26607e-06
-0.000456999 0.000381085 -9.79779e-07
-2.26607e-06 -9.79779e-07 0.000199531
0.000510423 -6.20964e-05 -2.72346e-07
-6.20964e-05 1.61684e-05 -4.53621e-06
-2.72346e-07 -4.53621e-06 -8.90489e-05
0.00037325 -9.11022e-05 -3.39986e-06
-9.11022e-05 -1.86474e-05 -3.26332e-07
-3.39986e-06 -3.26332e-07 -0.000221643
0.00138535 -0.000335066 -1.52291e-06
-0.000335066 0.000400541 3.2642e-07
-1.52291e-06 3.2642e-07 0.000146361
0.000970702 -0.000202203 -2.92974e-06
-0.000202203 0.000329055 3.88596e-06
-2.92974e-06 3.88596e-06 7.09868e-05
0.00209435 -0.00040048 -8.85402e-06
-0.00040048 0.000898266 2.59993e-06
-8.85402e-06 2.59993e-06 0.000609313
0.000385502 -5.89241e-05 -2.50051e-07
-5.89241e-05 -7.85579e-05 -7.07331e-06
-2.50051e-07 -7.07331e-06 -0.00011607
0.00164861 0.000283264 -3.84744e-06
0.000283264 0.000129809 -7.04564e-07
-3.84744e-06 -7.04564e-07 -5.78845e-05
0.000480162 -3.2517e-06 7.45202e-07
-3.2517e-06 -2.17199e-05 -5.88702e-06
7.45202e-07 -5.88702e-06 -0.000126946
0.000515139 0.000164217 -3.93339e-06
0.000164217 -2.0493e-06 -2.97782e-06
-3.93339e-06 -2.97782e-06 -0.0001884
0.000493076 0.000115489 2.14771e-06
0.000115489 2.88737e-05 5.47923e-07
2.14771e-06 5.47923e-07 -0.000195477
0.00149354 0.000343465 -4.83028e-06
0.000343465 0.000160272 -9.85683e-07
-4.83028e-06 -9.85683e-07 -6.97366e-05
0.00184818 0.000390684 1.70406e-07
0.000390684 0.000200864 1.17968e-06
1.70406e-07 1.17968e-06 -7.59429e-06
0.00106674 0.000270608 -4.11052e-06
0.000270608 0.000197065 -3.21642e-06
-4.11052e-06 -3.21642e-06 -3.82351e-05
0.00146777 0.000404513 5.38265e-07
0.000404513 0.00029783 -6.19509e-07
5.38265e-07 -6.19509e-07 -2.95192e-06
0.00178211 0.000449324 3.32851e-07
0.000449324 0.000315549 1.62302e-06
3.32851e-07 1.62302e-06 5.48179e-05
0.00178186 0.000457268 9.0804e-07
0.000457268 0.000316629 7.08168e-06
9.0804e-07 7.08168e-06 5.053e-05
0.000494851 -3.98544e-05 1.19768e-07
-3.98544e-05 -3.10846e-05 5.92591e-08
1.19768e-07 5.92591e-08 -5.78261e-05
0.000606468 3.24829e-06 -6.07508e-07
3.24829e-06 5.39025e-05 4.92279e-07
-6.07508e-07 4.92279e-07 -3.15243e-05
0.00101343 0.000242808 5.45535e-07
0.000242808 0.000252267 7.59963e-07
5.45535e-07 7.59963e-07 2.89517e-05
0.000684155 6.04517e-05 -8.31117e-07
6.04517e-05 0.000154442 -2.72423e-07
-8.31117e-07 -2.72423e-07 -3.10119e-05
0.000652501 0.00017728 7.62591e-07
0.00017728 6.12915e-05 -1.06937e-07
7.62591e-07 -1.06937e-07 -0.000155747
0.00193117 0.000350859 -9.62462e-07
0.000350859 0.000188926 -1.35891e-06
-9.62462e-07 -1.35891e-06 1.10346e-05
0.0018178 0.00043744 5.61151e-07
0.00043744 0.000246765 1.61799e-07
5.61151e-07 1.61799e-07 6.66748e-06
0.00187846 0.000429094 1.62996e-06
0.000429094 0.000190104 2.68557e-07
1.62996e-06 2.68557e-07 -1.10326e-05
0.00131458 0.000358964 1.36984e-06
0.000358964 0.00030232 7.20632e-07
1.36984e-06 7.20632e-07 1.7159e-05
0.00196605 0.000519135 1.70045e-06
0.000519135 0.000345251 9.41659e-08
1.70045e-06 9.41659e-08 7.71414e-05
0.00163585 0.000458219 -2.28127e-06
0.000458219 0.000349466 -2.11766e-07
-2.28127e-06 -2.11766e-07 4.5201e-05
0.000676842 1.62233e-05 1.1464e-06
1.62233e-05 8.99341e-05 3.78299e-06
1.1464e-06 3.78299e-06 1.89297e-05
0.00114275 0.00012141 4.0324e-07
0.00012141 0.000421675 2.82637e-06
4.0324e-07 2.82637e-06 0.000276966
0.000837051 0.000269787 -2.40657e-06
0.000269787 6.90244e-05 -1.30208e-06
-2.40657e-06 -1.30208e-06 -0.000163793
0.00153852 0.000147188 -1.70745e-06
0.000147188 0.000687055 8.26326e-07
-1.70745e-06 8.26326e-07 0.000461631
0.00134578 0.000220719 -9.22825e-06
0.000220719 0.000425127 -5.66097e-06
-9.22825e-06 -5.66097e-06 0.000226348
0.00192761 0.000364844 -3.75224e-06
0.000364844 0.000162551 -2.77111e-06
-3.75224e-06 -2.77111e-06 2.12241e-06
0.00193583 0.000489406 -3.96814e-07
0.000489406 0.000273414 -5.50442e-08
-3.96814e-07 -5.50442e-08 3.36065e-05
0.0017147 0.000462212 4.45704e-06
0.000462212 5.60064e-05 -2.95676e-07
4.45704e-06 -2.95676e-07 -0.00014582
0.000588414 0.000335045 1.06376e-06
0.000335045 -0.000112862 -1.73441e-06
1.06376e-06 -1.73441e-06 -0.000417164
0.0014349 0.00047864 8.08935e-06
0.00047864 0.000132416 -7.77098e-07
8.08935e-06 -7.77098e-07 -0.00015226
0.000584389 1.48316e-05 -2.21574e-07
1.48316e-05 3.08107e-05 9.48261e-08
-2.21574e-07 9.48261e-08 -3.15804e-05
0.000479654 4.33407e-05 7.28502e-07
4.33407e-05 -1.04745e-05 1.90837e-06
7.28502e-07 1.90837e-06 -0.000108143
0.000475452 3.78493e-05 -6.26104e-07
3.78493e-05 -1.29735e-05 -2.07025e-07
-6.26104e-07 -2.07025e-07 -0.000106306
0.000936739 0.000123586 -7.14933e-07
0.000123586 0.000284036 -1.39033e-06
-7.14933e-07 -1.39033e-06 0.00016519
0.000665412 9.4875e-05 1.87767e-06
9.4875e-05 0.000117343 1.82432e-06
1.87767e-06 1.82432e-06 1.57375e-05
0.000558474 4.81686e-05 2.60475e-06
4.81686e-05 2.95184e-05 2.98894e-06
2.60475e-06 2.98894e-06 -2.99007e-05
0.000555714 4.18126e-06 -6.29199e-07
4.18126e-06 2.17551e-05 -1.29868e-08
-6.29199e-07 -1.29868e-08 -3.69744e-05
0.00123878 -3.24735e-05 7.92255e-07
-3.24735e-05 0.000414563 2.92273e-06
7.92255e-07 2.92273e-06 0.00039984
0.000568502 6.07884e-06 -1.47254e-06
6.07884e-06 2.16883e-05 -3.04635e-06
-1.47254e-06 -3.04635e-06 -3.63457e-05
0.00129934 -4.29652e-05 -6.5421e-06
-4.29652e-05 0.00045373 -1.47268e-06
-6.5421e-06 -1.47268e-06 0.000437413
0.000830156 -4.01632e-05 2.7189e-05
-4.01632e-05 0.000169156 8.20019e-06
2.7189e-05 8.20019e-06 0.000172929
0.00131952 -5.22993e-05 -1.0841e-05
-5.22993e-05 0.00047124 -4.55733e-06
-1.0841e-05 -4.55733e-06 0.000452283
0.00163051 -7.38804e-05 2.51704e-05
-7.38804e-05 0.000673308 1.68237e-06
2.51704e-05 1.68237e-06 0.000676211
0.00246855 -0.000110146 -3.24642e-05
-0.000110146 0.00119985 -3.8017e-06
-3.24642e-05 -3.8017e-06 0.00120236
0.000346334 7.75937e-05 -4.91385e-06
7.75937e-05 -8.33881e-05 -6.96873e-06
-4.91385e-06 -6.96873e-06 -0.000128049
0.000471764 -7.00158e-06 4.6232e-07
-7.00158e-06 -2.25864e-05 5.48425e-07
4.6232e-07 5.48425e-07 -7.09407e-05
0.00308661 0.00015644 1.98142e-05
0.00015644 0.00160099 -5.01558e-06
1.98142e-05 -5.01558e-06 0.00158846
0.00381487 0.000118433 -1.06481e-05
0.000118433 0.00204948 -8.00803e-07
-1.06481e-05 -8.00803e-07 0.00204573
0.000623201 -4.87933e-05 -9.78599e-06
-4.87933e-05 5.36848e-05 1.11766e-05
-9.78599e-06 1.11766e-05 -3.99684e-06
0.00461486 0.00011428 -0.000156146
0.00011428 0.00254453 1.32884e-05
-0.000156146 1.32884e-05 0.00253894
0.00167333 0.000239107 -2.87747e-06
0.000239107 0.000107553 2.42482e-07
-2.87747e-06 2.42482e-07 -5.79274e-05
0.0016563 0.000131303 -7.18658e-07
0.000131303 7.42569e-05 5.60302e-07
-7.18658e-07 5.60302e-07 -5.497e-05
0.00190044 0.000229029 -1.5504e-06
0.000229029 0.000105279 1.62654e-06
-1.5504e-06 1.62654e-06 -1.27649e-05
0.00194774 0.000106556 -1.00287e-06
0.000106556 9.53904e-05 1.14327e-06
-1.00287e-06 1.14327e-06 2.65264e-05
0.00159506 4.24567e-05 -5.08509e-08
4.24567e-05 5.6491e-05 1.84614e-07
-5.08509e-08 1.84614e-07 -5.69872e-05
0.00100222 5.4513e-06 -1.19116e-05
5.4513e-06 -4.68599e-05 -8.57911e-08
-1.19116e-05 -8.57911e-08 -0.000172465
0.00158743 3.68786e-06 5.40199e-08
3.68786e-06 5.55083e-05 1.27592e-07
5.40199e-08 1.27592e-07 -5.66247e-05
0.00190541 4.67268e-05 -1.05887e-06
4.67268e-05 7.89359e-05 -6.24703e-09
-1.05887e-06 -6.24703e-09 1.85779e-05
0.00191325 0.000167378 -5.48986e-07
0.000167378 8.73658e-05 7.67401e-08
-5.48986e-07 7.67401e-08 -6.15109e-06
0.00192075 0.000108241 1.3616e-06
0.000108241 2.5381e-05 2.20087e-07
1.3616e-06 2.20087e-07 -1.37145e-05
0.0019502 0.000297945 -3.6139e-07
0.000297945 0.000159887 -1.67933e-07
-3.6139e-07 -1.67933e-07 1.24509e-05
0.00189283 0.000243735 -2.11792e-07
0.000243735 3.24426e-05 6.26294e-07
-2.11792e-07 6.26294e-07 -5.36183e-05
0.00194696 -3.44102e-06 7.85005e-07
-3.44102e-06 0.000112273 2.05396e-07
7.85005e-07 2.05396e-07 5.15935e-05
0.00188752 4.96721e-05 6.37384e-06
4.96721e-05 1.63216e-05 1.16447e-07
6.37384e-06 1.16447e-07 -1.55406e-05
0.00187283 0.000170521 2.67082e-06
0.000170521 -1.88562e-06 3.67405e-07
2.67082e-06 3.67405e-07 -5.64519e-05
0.00197589 0.000108302 5.34736e-06
0.000108302 3.5146e-05 6.20142e-07
5.34736e-06 6.20142e-07 1.69264e-05
0.00185447 0.000292673 1.03482e-06
0.000292673 6.3118e-05 -1.63581e-06
1.03482e-06 -1.63581e-06 -5.82255e-05
0.00204468 0.000250728 3.93287e-06
0.000250728 8.26528e-05 1.26615e-06
3.93287e-06 1.26615e-06 1.84979e-05
0.00163174 -2.88212e-05 -1.49164e-06
-2.88212e-05 8.57867e-05 -4.53622e-08
-1.49164e-06 -4.53622e-08 -2.76191e-05
0.00180298 -0.000143618 -4.279e-06
-0.000143618 0.000183439 2.75371e-07
-4.279e-06 2.75371e-07 5.49581e-05
0.0019217 -9.84096e-05 1.15156e-06
-9.84096e-05 9.80251e-05 -1.40409e-06
1.15156e-06 -1.40409e-06 2.40319e-05
0.00188988 -0.000220497 -1.31067e-06
-0.000220497 0.000117128 -1.83824e-08
-1.31067e-06 -1.83824e-08 -4.89874e-06
0.000863375 -0.000231418 -7.2227e-06
-0.000231418 0.000158817 7.56154e-06
-7.2227e-06 7.56154e-06 -4.73856e-05
0.00110549 -0.000319061 -6.78867e-06
-0.000319061 0.000133345 4.21288e-06
-6.78867e-06 4.21288e-06 -0.000120655
0.00144258 -0.000462565 1.05711e-06
-0.000462565 0.000191373 -1.68348e-07
1.05711e-06 -1.68348e-07 -0.000116401
0.00177265 -0.000328043 -9.65147e-07
-0.000328043 0.00011708 3.90815e-08
-9.65147e-07 3.90815e-08 -5.63123e-05
0.00191086 -0.000300684 1.10402e-06
-0.000300684 0.000100083 -7.49574e-07
1.10402e-06 -7.49574e-07 -5.41478e-06
0.00190149 -0.000398388 2.30136e-06
-0.000398388 0.000177392 -6.33164e-07
2.30136e-06 -6.33164e-07 8.02276e-06
0.00186326 -0.000498957 -3.11134e-07
-0.000498957 0.000241713 -2.1951e-06
-3.11134e-07 -2.1951e-06 -1.98718e-05
0.00207152 -0.000437469 6.86104e-06
-0.000437469 0.000310023 -5.16743e-06
6.86104e-06 -5.16743e-06 0.000134526
0.000809856 -0.000235418 -2.65981e-07
-0.000235418 0.000115824 1.43151e-06
-2.65981e-07 1.43151e-06 -0.00011826
4.92291e-05 -0.000156869 1.23968e-06
-0.000156869 -0.00033546 1.04658e-06
1.23968e-06 1.04658e-06 -0.000580387
0.00074765 -8.9784e-05 -7.99988e-07
-8.9784e-05 0.000153653 3.88788e-06
-7.99988e-07 3.88788e-06 2.55188e-05
0.000100265 -4.31063e-05 3.04467e-06
-4.31063e-05 -0.000214662 -3.54035e-06
3.04467e-06 -3.54035e-06 -0.000423729
0.001871 -5.08535e-05 9.11107e-08
-5.08535e-05 6.84395e-05 2.74914e-07
9.11107e-08 2.74914e-07 -1.02444e-06
0.00184629 -0.000164159 1.81034e-06
-0.000164159 6.54656e-05 -6.51576e-07
1.81034e-06 -6.51576e-07 -3.65248e-05
0.00195062 -0.000104516 1.82577e-06
-0.000104516 7.61805e-05 -5.52857e-07
1.82577e-06 -5.52857e-07 3.12648e-05
0.00189228 -0.000245369 -1.92858e-06
-0.000245369 5.19339e-05 4.42681e-07
-1.92858e-06 4.42681e-07 -2.87824e-05
0.00103412 -0.000274611 -1.4364e-06
-0.000274611 0.000167141 4.83714e-07
-1.4364e-06 4.83714e-07 -6.55879e-05
0.00130671 -0.00043239 1.97378e-06
-0.00043239 0.00022822 -1.01358e-06
1.97378e-06 -1.01358e-06 -8.61398e-05
0.00173846 -0.000558698 -1.18757e-07
-0.000558698 0.000282925 3.58781e-07
-1.18757e-07 3.58781e-07 -4.77986e-05
0.00179017 -0.000350214 -1.48145e-06
-0.000350214 7.70758e-05 8.02756e-07
-1.48145e-06 8.02756e-07 -6.48211e-05
0.00195237 -0.000315433 1.3277e-06
-0.000315433 0.000109975 -7.54878e-07
1.3277e-06 -7.54878e-07 2.00631e-05
0.0018792 -0.00050661 -5.2112e-08
-0.00050661 0.000227781 5.04721e-07
-5.2112e-08 5.04721e-07 -2.51101e-05
0.00180254 -0.000412733 -8.70576e-07
-0.000412733 9.34199e-05 1.10812e-06
-8.70576e-07 1.10812e-06 -5.64131e-05
0.00206738 -0.000443517 3.98964e-06
-0.000443517 0.000288651 -5.60867e-06
3.98964e-06 -5.60867e-06 0.000113718
0.00109803 -0.000305319 3.54766e-07
-0.000305319 0.0002214 1.19606e-06
3.54766e-07 1.19606e-06 -2.69149e-05
0.00144721 -0.000330317 4.73076e-06
-0.000330317 0.000491308 1.17866e-06
4.73076e-06 1.17866e-06 0.000219384
0.000868794 -0.000175681 -1.6368e-07
-0.000175681 0.000263674 -4.15702e-09
-1.6368e-07 -4.15702e-09 5.47199e-06
0.000389709 -3.58368e-05 -2.05978e-06
-3.58368e-05 -5.92432e-05 5.54735e-07
-2.05978e-06 5.54735e-07 -0.000164837
0.000181758 -4.25444e-05 -4.15361e-07
-4.25444e-05 -0.000143827 -7.06478e-07
-4.15361e-07 -7.06478e-07 -0.000334211
0.0019103 -5.71303e-05 5.49661e-06
-5.71303e-05 3.19428e-05 -1.29229e-07
5.49661e-06 -1.29229e-07 3.64309e-06
0.00191574 -0.000153834 4.67633e-06
-0.000153834 4.42223e-05 -1.05588e-06
4.67633e-06 -1.05588e-06 -1.86746e-06
0.00196587 -0.000291516 2.24337e-06
-0.000291516 4.00633e-05 -1.28934e-06
2.24337e-06 -1.28934e-06 -1.63655e-05
0.0018828 -0.000357969 4.59498e-07
-0.000357969 8.83504e-05 -1.82123e-06
4.59498e-07 -1.82123e-06 -1.6042e-05
0.00167888 -0.000399057 -4.37206e-07
-0.000399057 0.000540559 -3.6394e-06
-4.37206e-07 -3.6394e-06 0.000253118
0.00212072 -0.000495644 -8.7071e-07
-0.000495644 0.000208192 -2.45657e-06
-8.7071e-07 -2.45657e-06 4.56518e-05
0.00125532 -0.00051117 -6.41388e-07
-0.00051117 0.000168064 5.51328e-07
-6.41388e-07 5.51328e-07 -0.000185975
0.00189573 -0.000621153 1.29148e-06
-0.000621153 0.000334068 2.68389e-07
1.29148e-06 2.68389e-07 -1.19858e-05
0.00186779 -0.000492389 -2.80704e-06
-0.000492389 0.000205283 2.63876e-06
-2.80704e-06 2.63876e-06 -3.89817e-05
7.21407e-05 -2.93812e-06 -1.16355e-06
-2.93812e-06 -0.000251616 -4.49815e-06
-1.16355e-06 -4.49815e-06 -0.000336722
0.000697711 -9.3023e-05 -1.47476e-06
-9.3023e-05 0.000182418 5.71664e-07
-1.47476e-06 5.71664e-07 1.13421e-05
0.00104025 -0.000130109 -2.38902e-06
-0.000130109 0.000382586 -8.96386e-07
-2.38902e-06 -8.96386e-07 0.000160876
0.00215555 -0.000440479 -9.35109e-06
-0.000440479 0.000852102 4.41918e-08
-9.35109e-06 4.41918e-08 0.000560584
0.000561303 -0.000162929 1.94178e-06
-0.000162929 4.13884e-05 5.26907e-06
1.94178e-06 5.26907e-06 -0.000231223
0.00129936 -0.000347419 -2.88744e-06
-0.000347419 0.000362428 2.73349e-06
-2.88744e-06 2.73349e-06 7.4918e-05
0.00048466 -4.38802e-05 -6.33265e-07
-4.38802e-05 -3.67613e-05 -5.9402e-06
-6.33265e-07 -5.9402e-06 -6.38319e-05
0.00055569 -1.4409e-06 -6.15956e-07
-1.4409e-06 2.69206e-05 -4.65751e-06
-6.15956e-07 -4.65751e-06 -5.85405e-05
0.00190428 0.0003502 -2.16159e-06
0.0003502 0.000171791 -3.20564e-07
-2.16159e-06 -3.20564e-07 -6.31533e-06
-6.2279e-05 -3.51064e-05 1.89589e-06
-3.51064e-05 -0.000299686 -2.52291e-06
1.89589e-06 -2.52291e-06 -0.000476756
0.00096844 0.000238403 -1.58116e-06
0.000238403 0.000230223 -8.48122e-08
-1.58116e-06 -8.48122e-08 9.67453e-06
5.35261e-05 0.000106756 3.40376e-06
0.000106756 -0.00032212 5.87315e-07
3.40376e-06 5.87315e-07 -0.000519769
0.00177981 0.00043432 6.0795e-07
0.00043432 0.000224359 9.00964e-07
6.0795e-07 9.00964e-07 -1.53566e-05
0.00181259 0.000425512 1.63815e-06
0.000425512 0.000154061 7.17932e-07
1.63815e-06 7.17932e-07 -4.71642e-05
0.00168318 0.000391984 8.90564e-07
0.000391984 0.000540396 3.41594e-07
8.90564e-07 3.41594e-07 0.0002479
0.00214557 0.000503721 -1.82566e-06
0.000503721 0.000658664 8.75597e-07
-1.82566e-06 8.75597e-07 0.000350094
0.00181096 0.000503111 -4.9068e-07
0.000503111 0.000236 1.35951e-06
-4.9068e-07 1.35951e-06 -3.08793e-05
0.000586914 1.67969e-05 -4.51316e-07
1.67969e-05 3.64643e-05 4.78654e-07
-4.51316e-07 4.78654e-07 -3.41092e-05
0.000727623 4.17083e-05 -8.94039e-07
4.17083e-05 0.00016409 3.43769e-07
-8.94039e-07 3.43769e-07 3.11145e-05
0.00117054 0.000304674 -3.23371e-07
0.000304674 0.000273998 -5.45686e-08
-3.23371e-07 -5.45686e-08 3.32993e-05
0.000890268 9.31864e-05 4.75121e-07
9.31864e-05 0.000282121 6.28881e-07
4.75121e-07 6.28881e-07 6.97949e-05
0.00079707 0.000211293 4.15869e-06
0.000211293 0.000110223 9.89567e-07
4.15869e-06 9.89567e-07 -9.22386e-05
0.00188608 0.000365452 -2.26995e-06
0.000365452 0.000139155 -1.66148e-06
-2.26995e-06 -1.66148e-06 -2.2199e-05
0.00191733 0.000486621 1.74767e-06
0.000486621 0.000262385 5.78165e-07
1.74767e-06 5.78165e-07 2.29419e-05
0.00180253 0.000462148 3.90742e-07
0.000462148 0.000110033 -1.62847e-07
3.90742e-07 -1.62847e-07 -9.04176e-05
0.00109562 0.000399517 2.49862e-06
0.000399517 0.000176896 2.61652e-06
2.49862e-06 2.61652e-06 -0.000136262
0.00168424 0.000504773 -2.72793e-06
0.000504773 0.00029457 -1.84694e-06
-2.72793e-06 -1.84694e-06 2.65298e-06
0.000848703 6.47081e-05 -1.21407e-08
6.47081e-05 0.000229974 2.34759e-06
-1.21407e-08 2.34759e-06 0.000115758
0.000133177 4.63689e-06 -2.25187e-06
4.63689e-06 -0.000171026 1.59015e-06
-2.25187e-06 1.59015e-06 -0.000334356
0.00107616 0.000322035 -5.26392e-06
0.000322035 0.000180288 -3.692e-06
-5.26392e-06 -3.692e-06 -7.13006e-05
0.000509169 0.000181788 -8.07569e-06
0.000181788 5.7514e-05 -3.21484e-06
-8.07569e-06 -3.21484e-06 -0.000166452
0.000916277 0.00027265 -3.83373e-06
0.00027265 0.000130167 -3.73761e-06
-3.83373e-06 -3.73761e-06 -7.75071e-05
0.00183276 0.000395513 -1.68523e-07
0.000395513 3.79532e-05 -1.45707e-06
-1.68523e-07 -1.45707e-06 -0.000105263
0.00202432 0.000538193 4.13604e-06
0.000538193 0.000304399 -1.67364e-06
4.13604e-06 -1.67364e-06 4.65457e-05
0.00171835 0.000481531 3.27921e-06
0.000481531 4.70282e-05 6.20196e-07
3.27921e-06 6.20196e-07 -0.000164179
0.00100898 0.000406549 4.2683e-06
0.000406549 8.82074e-05 3.63014e-06
4.2683e-06 3.63014e-06 -0.000231392
0.00185133 0.000559667 -1.85813e-06
0.000559667 0.000399528 -7.92233e-07
-1.85813e-06 -7.92233e-07 9.01884e-05
0.000556406 5.86358e-06 -1.59232e-06
5.86358e-06 1.31062e-05 -3.28835e-06
-1.59232e-06 -3.28835e-06 -4.8784e-05
0.00056232 4.90941e-05 1.21944e-06
4.90941e-05 4.20072e-05 4.1727e-07
1.21944e-06 4.1727e-07 -5.6657e-05
0.000428339 3.51587e-05 -6.85211e-07
3.51587e-05 -4.75291e-05 7.46476e-07
-6.85211e-07 7.46476e-07 -0.000144848
0.000326563 -2.15462e-05 -3.53671e-07
-2.15462e-05 -9.9922e-05 -1.80755e-06
-3.53671e-07 -1.80755e-06 -0.000194066
0.000619012 5.21094e-05 -3.18044e-07
5.21094e-05 8.84468e-05 1.91118e-08
-3.18044e-07 1.91118e-08 -1.12459e-05
0.00063666 7.4279e-05 -7.24394e-07
7.4279e-05 8.85422e-05 -1.92463e-07
-7.24394e-07 -1.92463e-07 -1.65175e-05
0.000758994 0.000109554 -2.88155e-06
0.000109554 0.000174922 -3.79354e-06
-2.88155e-06 -3.79354e-06 6.44291e-05
0.000378678 2.11072e-06 3.24248e-07
2.11072e-06 -4.98058e-05 -4.49684e-07
3.24248e-07 -4.49684e-07 -0.000167352
0.00067377 8.28663e-05 9.52657e-07
8.28663e-05 0.000116782 2.25641e-06
9.52657e-07 2.25641e-06 2.23948e-05
0.000586714 5.6623e-05 3.12666e-06
5.6623e-05 5.07499e-05 2.99759e-06
3.12666e-06 2.99759e-06 -1.08681e-05
0.000555026 1.35538e-05 -1.94566e-06
1.35538e-05 2.59371e-05 -6.64879e-09
-1.94566e-06 -6.64879e-09 -3.26779e-05
0.00123174 -1.86766e-05 1.08901e-06
-1.86766e-05 0.000411607 2.74933e-06
1.08901e-06 2.74933e-06 0.000397998
0.00049216 -5.54567e-05 1.05575e-06
-5.54567e-05 -1.18883e-05 -2.9853e-06
1.05575e-06 -2.9853e-06 -7.35656e-05
0.00128923 -2.84755e-05 -5.73875e-06
-2.84755e-05 0.000445207 -1.52149e-06
-5.73875e-06 -1.52149e-06 0.000431092
0.00080353 -3.0793e-05 2.34703e-05
-3.0793e-05 0.000148755 8.49318e-06
2.34703e-05 8.49318e-06 0.000154406
0.00133433 -4.01725e-05 -9.8266e-06
-4.01725e-05 0.000474873 -6.13012e-06
-9.8266e-06 -6.13012e-06 0.000459023
0.000779217 -4.23711e-05 8.78777e-06
-4.23711e-05 0.000137367 3.17069e-06
8.78777e-06 3.17069e-06 0.000139968
0.00237493 -0.000103377 -3.25706e-06
-0.000103377 0.00113427 -2.35422e-06
-3.25706e-06 -2.35422e-06 0.00113798
0.0003977 5.38295e-05 -2.30734e-06
5.38295e-05 -7.25877e-05 -4.36363e-06
-2.30734e-06 -4.36363e-06 -0.000100317
0.000442082 2.93757e-05 -2.73515e-06
2.93757e-05 -3.82629e-05 1.43506e-08
-2.73515e-06 1.43506e-08 -7.59909e-05
0.00265873 0.000124882 1.84051e-05
0.000124882 0.00132983 -4.28134e-06
1.84051e-05 -4.28134e-06 0.00132619
0.000598808 -3.22854e-05 -7.34005e-06
-3.22854e-05 4.73861e-05 8.98703e-06
-7.34005e-06 8.98703e-06 1.51774e-06
0.00328013 0.000130567 -2.95642e-05
0.000130567 0.00171496 -7.62058e-07
-2.95642e-05 -7.62058e-07 0.00170914
0.00396569 9.65911e-05 -0.000132815
9.65911e-05 0.00213769 1.03035e-05
-0.000132815 1.03035e-05 0.00213858
0.00191504 0.00029804 -2.35438e-06
0.00029804 0.000132665 1.06272e-06
-2.35438e-06 1.06272e-06 -1.52614e-05
0.00191342 0.000163883 -4.11248e-07
0.000163883 9.19998e-05 1.58268e-06
-4.11248e-07 1.58268e-06 -8.27186e-07
0.00193801 0.000240562 -8.72584e-07
0.000240562 5.91331e-05 1.82158e-06
-8.72584e-07 1.82158e-06 -2.18165e-05
0.00194658 0.000107444 -3.37544e-06
0.000107444 3.65607e-05 -2.09362e-07
-3.37544e-06 -2.09362e-07 2.3971e-06
0.00187933 3.96672e-05 -2.44505e-06
3.96672e-05 6.33164e-05 1.89983e-07
-2.44505e-06 1.89983e-07 2.62486e-06
0.00160688 6.53695e-06 6.01801e-08
6.53695e-06 6.84686e-05 2.37486e-07
6.01801e-08 2.37486e-07 -4.35852e-05
0.00188537 -2.98507e-06 -8.5612e-07
-2.98507e-06 7.51667e-05 8.33151e-08
-8.5612e-07 8.33151e-08 1.22431e-05
0.00189714 4.84447e-05 1.49979e-06
4.84447e-05 2.60721e-05 -2.44388e-08
1.49979e-06 -2.44388e-08 -8.05972e-06
0.00193994 0.000171253 -1.23681e-07
0.000171253 4.23126e-05 6.74312e-08
-1.23681e-07 6.74312e-08 -1.4103e-05
0.00195615 0.000109428 9.83696e-07
0.000109428 1.92972e-05 2.94223e-07
9.83696e-07 2.94223e-07 4.03644e-06
0.00188506 0.000291482 -7.8426e-07
0.000291482 9.05105e-05 -3.8403e-07
-7.8426e-07 -3.8403e-07 -3.03229e-05
0.00200724 0.000253963 3.25394e-06
0.000253963 5.74298e-05 8.18923e-07
3.25394e-06 8.18923e-07 -2.32606e-06
0.00191771 -8.24223e-06 6.04026e-06
-8.24223e-06 4.57779e-05 2.4397e-07
6.04026e-06 2.4397e-07 1.27745e-05
0.00194151 5.12002e-05 3.98847e-06
5.12002e-05 8.90562e-06 2.01648e-08
3.98847e-06 2.01648e-08 2.70426e-07
0.00200567 0.000173172 2.79092e-06
0.000173172 2.01923e-05 7.50385e-07
2.79092e-06 7.50385e-07 1.6253e-07
0.00202365 0.000329101 -1.82385e-07
0.000329101 7.8495e-05 4.63354e-07
-1.82385e-07 4.63354e-07 -5.32758e-06
0.0018551 -5.03185e-05 -1.37061e-06
-5.03185e-05 5.83685e-05 1.18614e-07
-1.37061e-06 1.18614e-07 -1.12593e-05
0.00189811 -0.00016649 1.82936e-06
-0.00016649 0.000101805 -1.26875e-06
1.82936e-06 -1.26875e-06 -1.75226e-06
0.00192375 -0.00010415 -2.27495e-06
-0.00010415 5.89602e-05 -2.13287e-07
-2.27495e-06 -2.13287e-07 1.48266e-05
0.00187292 -0.00024191 -4.0501e-06
-0.00024191 4.54603e-05 1.51045e-06
-4.0501e-06 1.51045e-06 -3.87787e-05
0.000990023 -0.000270518 -4.14804e-06
-0.000270518 0.000138767 4.43453e-06
-4.14804e-06 4.43453e-06 -9.45696e-05
0.00108045 -0.000401225 -4.34274e-07
-0.000401225 9.91208e-05 3.34303e-07
-4.34274e-07 3.34303e-07 -0.000207407
0.00170399 -0.000563919 1.36605e-06
-0.000563919 0.000257763 -1.11999e-06
1.36605e-06 -1.11999e-06 -7.78846e-05
0.00181876 -0.000349532 -1.00863e-06
-0.000349532 0.000104236 2.26836e-07
-1.00863e-06 2.26836e-07 -4.1299e-05
0.00187692 -0.000314279 -8.59429e-08
-0.000314279 6.67549e-05 1.20638e-06
-8.59429e-08 1.20638e-06 -2.15953e-05
0.00180732 -0.00041517 2.77549e-06
-0.00041517 8.47049e-05 1.27459e-06
2.77549e-06 1.27459e-06 -6.60624e-05
0.00185207 -0.000504347 -1.28131e-06
-0.000504347 0.000223823 -2.21757e-06
-1.28131e-06 -2.21757e-06 -2.966e-05
0.00191419 -0.000429509 4.50097e-06
-0.000429509 0.000183036 -8.37148e-06
4.50097e-06 -8.37148e-06 1.50406e-05
0.000958656 -0.000291687 2.32567e-06
-0.000291687 0.00013475 1.87297e-06
2.32567e-06 1.87297e-06 -0.000111531
0.000630916 -0.000242898 4.26333e-06
-0.000242898 -3.16865e-05 7.31556e-07
4.26333e-06 7.31556e-07 -0.000277711
0.000613071 -0.000148486 3.92276e-06
-0.000148486 0.000109285 -4.98413e-06
3.92276e-06 -4.98413e-06 -0.000151524
0.000207899 -1.64841e-05 -2.54436e-07
-1.64841e-05 -0.000171148 3.78527e-06
-2.54436e-07 3.78527e-06 -0.000278314
0.000197329 1.61865e-07 3.27605e-06
1.61865e-07 -0.000138873 -4.53104e-07
3.27605e-06 -4.53104e-07 -0.000322113
0.00191279 -6.48431e-05 -2.70347e-07
-6.48431e-05 3.0783e-05 -1.17435e-07
-2.70347e-07 -1.17435e-07 8.07194e-07
0.00190209 -0.00015301 1.25626e-06
-0.00015301 3.43151e-05 -2.59155e-07
1.25626e-06 -2.59155e-07 -1.28624e-05
0.00196999 -0.00028626 -1.14249e-06
-0.00028626 5.68403e-05 8.44542e-08
-1.14249e-06 8.44542e-08 -2.94953e-06
0.00129439 -0.000362012 -1.69823e-06
-0.000362012 0.000299153 -2.12162e-07
-1.69823e-06 -2.12162e-07 1.88344e-05
0.00129258 -0.000502305 2.7346e-06
-0.000502305 0.000192009 -9.48181e-07
2.7346e-06 -9.48181e-07 -0.000157499
0.00179152 -0.00061346 9.48884e-09
-0.00061346 0.000279689 -3.74207e-07
9.48884e-09 -3.74207e-07 -6.85759e-05
0.00186498 -0.000356112 4.37268e-07
-0.000356112 7.49035e-05 9.30237e-08
4.37268e-07 9.30237e-08 -3.03179e-05
0.00198441 -0.000508063 8.87544e-07
-0.000508063 0.000265147 -3.15266e-06
8.87544e-07 -3.15266e-06 2.49373e-05
0.00200283 -0.000479351 -7.34647e-07
-0.000479351 0.00016556 -7.17363e-07
-7.34647e-07 -7.17363e-07 5.4887e-06
0.000204948 4.49511e-05 -1.24232e-06
4.49511e-05 -0.00017796 -8.08891e-07
-1.24232e-06 -8.08891e-07 -0.00025732
0.00113878 -0.000334068 2.20209e-07
-0.000334068 0.000216168 6.03301e-07
2.20209e-07 6.03301e-07 -5.13084e-05
0.00113119 -0.0003281 6.99339e-07
-0.0003281 0.000264182 2.21618e-06
6.99339e-07 2.21618e-06 -8.1609e-06
0.00115611 -0.000237504 -2.79177e-07
-0.000237504 0.000419065 2.86607e-07
-2.79177e-07 2.86607e-07 0.000126956
0.00121885 -0.000136664 8.1503e-07
-0.000136664 0.000490904 -2.5893e-06
8.1503e-07 -2.5893e-06 0.000270278
0.000482552 -2.48434e-05 -6.92104e-07
-2.48434e-05 4.08237e-05 1.28057e-06
-6.92104e-07 1.28057e-06 -0.000123985
0.00193816 -7.86699e-05 4.03613e-06
-7.86699e-05 1.65912e-05 -3.00173e-07
4.03613e-06 -3.00173e-07 7.63697e-06
0.00205577 -0.000199381 1.86341e-06
-0.000199381 2.70697e-05 -6.8501e-07
1.86341e-06 -6.8501e-07 1.90212e-05
0.0020501 -0.000347149 1.5964e-06
-0.000347149 6.71114e-05 -1.47325e-06
1.5964e-06 -1.47325e-06 2.81895e-05
0.00210268 -0.0004325 1.81162e-06
-0.0004325 0.000125153 -2.49718e-06
1.81162e-06 -2.49718e-06 2.9037e-05
0.00186641 -0.000480361 -4.63021e-06
-0.000480361 0.000623967 -3.64685e-06
-4.63021e-06 -3.64685e-06 0.000295177
0.00196992 -0.000542647 3.89998e-06
-0.000542647 0.000186666 6.16629e-07
3.89998e-06 6.16629e-07 -2.18429e-05
0.00151698 -0.000595684 -6.71236e-06
-0.000595684 0.000284858 1.28146e-06
-6.71236e-06 1.28146e-06 -0.000106957
0.00212613 -0.000670215 -6.61449e-06
-0.000670215 0.000483543 1.10818e-06
-6.61449e-06 1.10818e-06 0.000113629
0.000177722 5.87342e-05 -3.36942e-06
5.87342e-05 -0.000199418 -1.63316e-06
-3.36942e-06 -1.63316e-06 -0.000261247
0.000655199 7.39902e-06 -1.53693e-06
7.39902e-06 0.000136907 -5.74377e-08
-1.53693e-06 -5.74377e-08 7.83546e-06
0.0011691 -0.000158563 -4.36606e-06
-0.000158563 0.000474872 2.62319e-06
-4.36606e-06 2.62319e-06 0.000279245
0.00093219 -5.1853e-05 -3.05814e-06
-5.1853e-05 0.000282419 2.01398e-06
-3.05814e-06 2.01398e-06 3.4591e-05
0.00137956 -0.000407574 -2.36428e-06
-0.000407574 0.000347406 -2.43667e-06
-2.36428e-06 -2.43667e-06 3.39504e-05
0.0014628 -0.000353664 -1.19127e-05
-0.000353664 0.000522002 1.07149e-05
-1.19127e-05 1.07149e-05 0.000176327
0.000482647 8.88267e-06 -1.66921e-06
8.88267e-06 -2.67959e-05 -3.508e-06
-1.66921e-06 -3.508e-06 -9.62283e-05
0.000370877 -6.17919e-06 1.82679e-06
-6.17919e-06 -6.81646e-05 -2.102e-06
1.82679e-06 -2.102e-06 -0.000184285
0.00185101 0.00036709 -2.05171e-06
0.00036709 0.000117804 -7.15959e-07
-2.05171e-06 -7.15959e-07 -4.46759e-05
0.000184178 3.70741e-05 1.34785e-06
3.70741e-05 -0.000160317 -8.79387e-08
1.34785e-06 -8.79387e-08 -0.000355423
0.00142469 0.00033071 1.14414e-06
0.00033071 0.000428571 8.08341e-07
1.14414e-06 8.08341e-07 0.000183258
-0.000134062 0.000101806 6.05245e-06
0.000101806 -0.000472829 1.70886e-06
6.05245e-06 1.70886e-06 -0.000644916
0.00190138 0.000484485 1.38849e-06
0.000484485 0.000250843 6.89287e-07
1.38849e-06 6.89287e-07 1.16063e-05
0.00192045 0.0004646 -3.73544e-06
0.0004646 0.000178743 5.57352e-07
-3.73544e-06 5.57352e-07 -2.08106e-05
0.00158564 0.000461435 -3.00597e-07
0.000461435 0.000460431 2.62141e-06
-3.00597e-07 2.62141e-06 0.000137228
0.00200099 0.000537055 -2.91473e-06
0.000537055 0.0004983 2.55682e-07
-2.91473e-06 2.55682e-07 0.000196982
0.000680545 3.35086e-05 -9.75507e-07
3.35086e-05 0.000122018 1.90615e-07
-9.75507e-07 1.90615e-07 1.4425e-05
0.000416661 4.91035e-05 8.46697e-07
4.91035e-05 4.46337e-06 4.01073e-07
8.46697e-07 4.01073e-07 -0.000167909
0.00152899 0.000368708 -1.40261e-06
0.000368708 0.000460762 -1.46392e-06
-1.40261e-06 -1.46392e-06 0.000198584
0.000395506 7.97275e-05 -1.55212e-06
7.97275e-05 -5.34827e-05 -5.76693e-08
-1.55212e-06 -5.76693e-08 -0.000239241
0.000668956 0.000238223 7.00111e-07
0.000238223 -3.1443e-05 -1.41223e-06
7.00111e-07 -1.41223e-06 -0.000221307
0.00202693 0.000408754 -2.96192e-06
0.000408754 0.000145807 -1.21459e-06
-2.96192e-06 -1.21459e-06 4.68729e-06
0.00213228 0.000538248 2.33956e-06
0.000538248 0.000372228 -2.74361e-07
2.33956e-06 -2.74361e-07 0.000119038
0.00192843 0.000504279 2.55461e-06
0.000504279 0.000160131 2.76266e-06
2.55461e-06 2.76266e-06 -5.60274e-05
0.00119735 0.000428189 4.31486e-06
0.000428189 0.000210982 2.84141e-06
4.31486e-06 2.84141e-06 -0.000114542
0.00172789 0.000562049 -4.2634e-06
0.000562049 0.000325921 -2.82683e-08
-4.2634e-06 -2.82683e-08 8.45158e-06
-8.12731e-05 2.24413e-06 -1.53419e-06
2.24413e-06 -0.00033538 2.96488e-06
-1.53419e-06 2.96488e-06 -0.00044375
-0.000146189 0.000116116 1.15454e-06
0.000116116 -0.000289293 1.66668e-06
1.15454e-06 1.66668e-06 -0.000508642
0.000850128 0.000309731 -2.1874e-07
0.000309731 3.96074e-05 2.08319e-07
-2.1874e-07 2.08319e-07 -0.000222509
-0.000300709 0.000137632 3.08647e-06
0.000137632 -0.00056706 2.36574e-09
3.08647e-06 2.36574e-09 -0.000758791
0.00204635 0.00041197 1.31797e-06
0.00041197 -8.22224e-05 1.56423e-06
1.31797e-06 1.56423e-06 -0.000109357
0.00264778 0.000517681 2.85802e-06
0.000517681 0.000517487 -4.68874e-08
2.85802e-06 -4.68874e-08 0.000339847
0.0019394 0.000590691 -5.10365e-06
0.000590691 0.000288825 -4.33311e-06
-5.10365e-06 -4.33311e-06 -9.61325e-06
0.0013487 0.000507031 3.98287e-07
0.000507031 0.000209459 4.28342e-07
3.98287e-07 4.28342e-07 -0.000139899
0.000635618 8.50243e-05 -6.50032e-07
8.50243e-05 9.23326e-05 -1.13854e-06
-6.50032e-07 -1.13854e-06 -1.01946e-05
0.000604081 6.60099e-05 -3.93025e-07
6.60099e-05 7.20337e-05 -5.24004e-08
-3.93025e-07 -5.24004e-08 -3.47593e-05
0.000980407 6.53094e-05 -5.02369e-06
6.53094e-05 0.000300085 -2.18842e-06
-5.02369e-06 -2.18842e-06 0.000205762
0.000603564 3.10318e-05 -1.28429e-06
3.10318e-05 6.16457e-05 -2.04846e-06
-1.28429e-06 -2.04846e-06 -2.56157e-05
0.000320592 2.34056e-05 -1.74692e-07
2.34056e-05 -0.000103236 1.65208e-08
-1.74692e-07 1.65208e-08 -0.000202848
0.000624977 4.23796e-05 -3.49379e-07
4.23796e-05 8.94078e-05 8.29722e-08
-3.49379e-07 8.29722e-08 -5.83327e-06
0.000616922 0.000107035 -1.14216e-06
0.000107035 0.000102481 3.14032e-07
-1.14216e-06 3.14032e-07 -1.06251e-05
0.000527082 3.92925e-05 1.04185e-06
3.92925e-05 4.51505e-05 1.62019e-07
1.04185e-06 1.62019e-07 -7.64638e-05
0.000696627 7.94193e-05 1.43897e-06
7.94193e-05 0.00012093 -2.14653e-06
1.43897e-06 -2.14653e-06 3.61309e-05
0.000719569 2.78001e-06 3.23418e-06
2.78001e-06 0.000157603 -3.95638e-06
3.23418e-06 -3.95638e-06 3.89246e-05
0.000391619 6.16383e-05 4.58337e-07
6.16383e-05 -3.62546e-05 1.87947e-06
4.58337e-07 1.87947e-06 -0.000159616
0.000662217 9.51912e-05 2.03039e-06
9.51912e-05 0.000115158 2.76246e-06
2.03039e-06 2.76246e-06 1.59251e-05
0.000504384 6.46765e-05 2.86761e-06
6.46765e-05 7.14763e-06 2.85661e-06
2.86761e-06 2.85661e-06 -5.98938e-05
0.000511388 6.65871e-06 -1.48363e-06
6.65871e-06 5.31713e-06 -1.75219e-07
-1.48363e-06 -1.75219e-07 -5.61602e-05
0.00121227 -2.48185e-06 1.22664e-06
-2.48185e-06 0.000403726 2.56887e-06
1.22664e-06 2.56887e-06 0.000390421
0.000507451 -4.68959e-05 1.16657e-07
-4.68959e-05 -1.57218e-06 -2.77372e-06
1.16657e-07 -2.77372e-06 -6.09511e-05
0.00128827 -1.42047e-05 -5.14224e-06
-1.42047e-05 0.000446365 -1.60763e-06
-5.14224e-06 -1.60763e-06 0.000433091
0.000796241 -2.14278e-05 2.07425e-05
-2.14278e-05 0.000144141 8.71089e-06
2.07425e-05 8.71089e-06 0.000150562
0.00133062 -2.55796e-05 -8.77191e-06
-2.55796e-05 0.000470848 -5.99013e-06
-8.77191e-06 -5.99013e-06 0.000456953
0.00076654 -3.25469e-05 7.48481e-06
-3.25469e-05 0.000125049 3.25339e-06
7.48481e-06 3.25339e-06 0.000129906
0.000722833 -4.17597e-05 -4.25118e-07
-4.17597e-05 0.000102227 -2.59603e-06
-4.25118e-07 -2.59603e-06 0.00010457
0.000448718 3.98048e-05 -2.42975e-07
3.98048e-05 -5.85036e-05 -3.17674e-06
-2.42975e-07 -3.17674e-06 -7.64553e-05
0.000450989 6.60074e-05 -1.10536e-07
6.60074e-05 -3.49881e-05 2.1871e-07
-1.10536e-07 2.1871e-07 -6.64527e-05
0.00234395 0.000100619 1.54373e-05
0.000100619 0.00112761 -3.98648e-06
1.54373e-05 -3.98648e-06 0.00113067
0.000529018 2.80287e-05 -3.95184e-06
2.80287e-05 1.75684e-05 7.38456e-06
-3.95184e-06 7.38456e-06 -2.25779e-05
0.002774 0.000130786 -5.29079e-06
0.000130786 0.00140114 -5.64142e-07
-5.29079e-06 -5.64142e-07 0.00139594
0.00339553 8.60476e-05 -0.000105876
8.60476e-05 0.00178115 7.59032e-06
-0.000105876 7.59032e-06 0.00178596
0.00191154 0.000289886 -6.16364e-07
0.000289886 0.000116457 1.60884e-06
-6.16364e-07 1.60884e-06 -3.86856e-06
0.00199969 0.0001719 -4.59659e-06
0.0001719 8.12634e-05 -6.31635e-07
-4.59659e-06 -6.31635e-07 2.30656e-05
0.00196934 0.00025726 -6.03978e-07
0.00025726 3.18144e-05 -4.77507e-07
-6.03978e-07 -4.77507e-07 -2.36351e-05
0.00193866 0.000110828 -3.65688e-06
0.000110828 4.25335e-06 -5.27567e-07
-3.65688e-06 -5.27567e-07 -7.95261e-06
0.00190746 4.75654e-05 -4.53144e-06
4.75654e-05 3.60394e-05 -1.36939e-07
-4.53144e-06 -1.36939e-07 -2.80724e-07
0.0018277 -5.16055e-06 -2.49399e-06
-5.16055e-06 4.08403e-05 1.94989e-07
-2.49399e-06 1.94989e-07 -2.4099e-05
0.00190192 -6.31995e-06 -5.4353e-07
-6.31995e-06 3.59e-05 -7.28446e-08
-5.4353e-07 -7.28446e-08 3.44735e-06
0.00194301 5.31678e-05 1.15053e-06
5.31678e-05 1.53507e-05 1.02276e-07
1.15053e-06 1.02276e-07 5.18328e-06
0.00201494 0.000178058 7.01938e-07
0.000178058 2.84105e-05 2.19891e-07
7.01938e-07 2.19891e-07 7.74412e-06
0.00206113 0.000325139 7.44296e-07
0.000325139 9.07129e-05 3.59414e-07
7.44296e-07 3.59414e-07 7.34397e-06
0.00192381 -1.23467e-05 2.89418e-06
-1.23467e-05 1.15764e-05 -3.39035e-09
2.89418e-06 -3.39035e-09 3.94902e-07
0.00206165 0.000102288 1.39374e-06
0.000102288 -9.66607e-06 4.85095e-09
1.39374e-06 4.85095e-09 1.17602e-05
0.00221584 0.000275063 2.2985e-06
0.000275063 6.53999e-05 1.18543e-06
2.2985e-06 1.18543e-06 4.33914e-05
0.00192042 -7.27347e-05 -4.80659e-06
-7.27347e-05 3.28106e-05 3.82509e-07
-4.80659e-06 3.82509e-07 1.2891e-06
0.00189275 -0.000152284 -2.06583e-06
-0.000152284 2.73366e-05 -4.68787e-08
-2.06583e-06 -4.68787e-08 -2.08007e-05
0.00196879 -0.000280875 -3.06884e-06
-0.000280875 7.12919e-05 1.4016e-06
-3.06884e-06 1.4016e-06 7.44057e-06
0.000864562 -0.000319607 -1.67457e-06
-0.000319607 2.97948e-05 2.42135e-06
-1.67457e-06 2.42135e-06 -0.000242135
0.0011872 -0.000476475 5.40049e-06
-0.000476475 0.000131954 -1.62044e-06
5.40049e-06 -1.62044e-06 -0.000208685
0.00165306 -0.000603575 2.9486e-07
-0.000603575 0.000206076 4.26512e-07
2.9486e-07 4.26512e-07 -0.000142956
0.00183354 -0.000353275 -7.6808e-07
-0.000353275 5.32225e-05 1.15863e-06
-7.6808e-07 1.15863e-06 -5.2865e-05
0.0018086 -0.000457073 2.84032e-07
-0.000457073 7.99612e-05 1.54866e-07
2.84032e-07 1.54866e-07 -7.74577e-05
0.0020581 -0.000520569 1.82941e-06
-0.000520569 0.000305352 -7.31732e-06
1.82941e-06 -7.31732e-06 6.93093e-05
0.000819765 -0.000301127 3.64051e-06
-0.000301127 1.55077e-05 4.2709e-06
3.64051e-06 4.2709e-06 -0.00024485
0.000579818 -0.000269744 -1.14949e-05
-0.000269744 -6.55296e-05 4.68885e-06
-1.14949e-05 4.68885e-06 -0.000314729
0.0020426 -0.000336333 1.7941e-06
-0.000336333 0.000984818 -1.11816e-06
1.7941e-06 -1.11816e-06 0.000662791
0.000369119 4.46644e-05 1.85879e-06
4.46644e-05 -7.98376e-05 7.83223e-07
1.85879e-06 7.83223e-07 -0.000156844
0.000997883 -0.000140981 3.61302e-06
-0.000140981 0.000343645 5.24196e-07
3.61302e-06 5.24196e-07 0.000139497
0.000184315 3.56748e-05 4.67239e-06
3.56748e-05 -0.000150874 9.46229e-07
4.67239e-06 9.46229e-07 -0.000308324
0.00193602 -7.87639e-05 -5.23091e-07
-7.87639e-05 1.4545e-05 8.13943e-08
-5.23091e-07 8.13943e-08 3.57697e-06
0.00201307 -0.000205037 2.17412e-07
-0.000205037 -2.02415e-06 -3.46913e-08
2.17412e-07 -3.46913e-08 -8.94846e-06
0.00202033 -0.000341797 -4.44853e-07
-0.000341797 5.66553e-05 3.8839e-07
-4.44853e-07 3.8839e-07 1.36495e-05
0.00144794 -0.000435226 -2.09312e-06
-0.000435226 0.000373816 -5.85485e-07
-2.09312e-06 -5.85485e-07 5.50628e-05
0.00144661 -0.000583898 1.66581e-06
-0.000583898 0.000243867 -1.00867e-06
1.66581e-06 -1.00867e-06 -0.000143473
0.00221767 -0.00067085 -5.10085e-06
-0.00067085 0.000533092 9.78285e-07
-5.10085e-06 9.78285e-07 0.000172716
0.00204392 -0.000436293 5.71716e-07
-0.000436293 9.24412e-05 -3.93672e-07
5.71716e-07 -3.93672e-07 -8.60904e-06
0.00183332 -0.00052779 1.42142e-06
-0.00052779 0.000107084 -3.17281e-06
1.42142e-06 -3.17281e-06 -9.84168e-05
0.00038437 5.80232e-05 -9.74293e-07
5.80232e-05 -7.65135e-05 -1.04416e-06
-9.74293e-07 -1.04416e-06 -0.000133798
0.000669073 -1.35864e-05 -7.54462e-07
-1.35864e-05 0.000141272 4.31111e-07
-7.54462e-07 4.31111e-07 1.48874e-05
0.00052538 -0.000318955 -4.86365e-06
-0.000318955 -0.000168257 3.56162e-06
-4.86365e-06 3.56162e-06 -0.00045717
0.00159893 -0.000338587 4.83783e-06
-0.000338587 0.000633764 -1.34633e-06
4.83783e-06 -1.34633e-06 0.000284618
0.00122335 -0.000112908 -2.26073e-07
-0.000112908 0.00047325 -2.17994e-06
-2.26073e-07 -2.17994e-06 0.00021996
0.000829961 -0.000117155 -6.16252e-07
-0.000117155 0.000263546 1.02318e-06
-6.16252e-07 1.02318e-06 7.12136e-05
0.00200913 -0.000107244 -1.23042e-07
-0.000107244 -1.64378e-05 -1.89807e-07
-1.23042e-07 -1.89807e-07 2.73763e-06
0.00211673 -0.000293932 -8.10776e-07
-0.000293932 -2.61447e-05 7.83183e-08
-8.10776e-07 7.83183e-08 3.53997e-06
0.0020894 -0.000391733 1.40521e-06
-0.000391733 6.05477e-05 -1.24384e-06
1.40521e-06 -1.24384e-06 2.89494e-05
0.00214516 -0.000576531 6.15247e-06
-0.000576531 0.000135689 -2.82911e-06
6.15247e-06 -2.82911e-06 -2.77976e-06
0.000799298 -0.000428908 1.12523e-08
-0.000428908 -3.22612e-05 -4.73616e-06
1.12523e-08 -4.73616e-06 -0.000383228
0.00222453 -0.000697095 -9.43888e-07
-0.000697095 0.000470128 1.21379e-05
-9.43888e-07 1.21379e-05 0.000129406
0.00234175 -0.000729575 -6.87429e-06
-0.000729575 0.000719415 -3.02992e-06
-6.87429e-06 -3.02992e-06 0.000281881
0.000595936 5.06724e-05 6.96965e-07
5.06724e-05 3.81039e-05 -8.73572e-07
6.96965e-07 -8.73572e-07 -6.70836e-06
0.000659171 -0.000126763 4.22642e-06
-0.000126763 0.000124922 -2.49387e-06
4.22642e-06 -2.49387e-06 3.19247e-05
0.000364552 7.38214e-05 -4.78464e-06
7.38214e-05 -5.53093e-05 1.08725e-06
-4.78464e-06 1.08725e-06 -0.00015168
0.000759067 -4.71003e-05 -3.51977e-06
-4.71003e-05 0.000217975 5.0026e-06
-3.51977e-06 5.0026e-06 5.20559e-05
0.000360353 -6.63639e-05 1.51994e-06
-6.63639e-05 -6.40714e-05 -1.16047e-06
1.51994e-06 -1.16047e-06 -0.000254826
-0.000806047 -2.29738e-06 7.17262e-07
-2.29738e-06 -0.000726234 -8.05133e-08
7.17262e-07 -8.05133e-08 -0.00102981
0.00118537 -0.000412543 -1.34246e-05
-0.000412543 0.000229445 4.23326e-06
-1.34246e-05 4.23326e-06 -7.60318e-05
0.00287057 -0.000482519 -1.61209e-05
-0.000482519 0.00149489 7.22772e-06
-1.61209e-05 7.22772e-06 0.000989468
0.000609136 8.09871e-06 -3.55687e-07
8.09871e-06 7.17364e-05 -1.28734e-06
-3.55687e-07 -1.28734e-06 -2.82574e-05
0.000756366 9.86496e-05 7.05199e-07
9.86496e-05 0.000217453 -8.71697e-07
7.05199e-07 -8.71697e-07 3.3624e-05
0.00221535 0.000421337 -2.02527e-06
0.000421337 0.000251327 -1.21471e-06
-2.02527e-06 -1.21471e-06 0.000112441
0.000703949 0.000124093 -1.1245e-06
0.000124093 0.000147806 2.27958e-06
-1.1245e-06 2.27958e-06 -5.12847e-05
0.00197719 0.000415686 1.06236e-06
0.000415686 0.000738843 2.0024e-06
1.06236e-06 2.0024e-06 0.00046464
0.000247901 0.000185079 -9.47716e-07
0.000185079 -0.000296582 2.20196e-07
-9.47716e-07 2.20196e-07 -0.00046582
0.0021966 0.000532707 -2.7522e-06
0.000532707 0.000418209 -3.10594e-07
-2.7522e-06 -3.10594e-07 0.000171032
0.00207892 0.000522269 -5.2499e-06
0.000522269 0.000240037 5.31006e-06
-5.2499e-06 5.31006e-06 1.99861e-05
0.00170639 0.000490195 -4.26224e-07
0.000490195 0.000518877 8.80405e-07
-4.26224e-07 8.80405e-07 0.000181423
0.00151335 0.000556689 6.91729e-07
0.000556689 0.000195999 3.00025e-07
6.91729e-07 3.00025e-07 -0.000127581
0.000163262 3.25729e-05 -1.09856e-07
3.25729e-05 -0.00018026 1.13285e-06
-1.09856e-07 1.13285e-06 -0.000298295
0.000285535 0.000151351 -9.56053e-07
0.000151351 -2.89867e-05 -3.06688e-06
-9.56053e-07 -3.06688e-06 -0.000251006
0.0015259 0.000388325 3.43222e-06
0.000388325 0.000441428 -3.68037e-07
3.43222e-06 -3.68037e-07 0.00016422
0.000691463 0.000217087 -2.89361e-06
0.000217087 3.38574e-05 -1.86864e-06
-2.89361e-06 -1.86864e-06 -0.000167164
0.00215443 0.000402494 8.90166e-07
0.000402494 -2.37299e-05 -8.13125e-07
8.90166e-07 -8.13125e-07 -4.99551e-05
0.00238224 0.000510103 3.19511e-06
0.000510103 0.000367651 5.49918e-07
3.19511e-06 5.49918e-07 0.000185999
0.0019583 0.000582381 -4.17085e-07
0.000582381 0.000297333 5.64586e-07
-4.17085e-07 5.64586e-07 4.00875e-06
0.00147393 0.00052018 6.24706e-07
0.00052018 0.000267021 5.16427e-07
6.24706e-07 5.16427e-07 -8.05978e-05
0.000111426 4.81267e-05 -1.76472e-06
4.81267e-05 -0.00021727 4.14559e-06
-1.76472e-06 4.14559e-06 -0.000341151
0.00209336 0.000323203 4.73888e-06
0.000323203 -0.000124021 3.98245e-06
4.73888e-06 3.98245e-06 -8.25756e-05
0.00184844 0.000360882 4.93097e-06
0.000360882 0.00087077 7.42933e-06
4.93097e-06 7.42933e-06 0.000599976
0.00141101 0.000396148 5.29641e-06
0.000396148 0.000340115 5.64812e-07
5.29641e-06 5.64812e-07 6.37879e-05
0.00249856 0.000501711 -1.75703e-05
0.000501711 0.000298293 -7.14239e-06
-1.75703e-05 -7.14239e-06 0.000191639
0.00102126 0.000535125 -9.89598e-06
0.000535125 -0.000335241 -9.19974e-06
-9.89598e-06 -9.19974e-06 -0.000610963
0.00210314 0.000614271 -3.52919e-06
0.000614271 0.000575444 2.34404e-06
-3.52919e-06 2.34404e-06 0.000203833
0.000730049 8.32915e-05 -9.93989e-07
8.32915e-05 0.000148195 -7.86015e-07
-9.93989e-07 -7.86015e-07 4.14789e-05
0.000661595 7.83306e-05 -2.50637e-06
7.83306e-05 0.000115496 -6.44168e-07
-2.50637e-06 -6.44168e-07 1.61955e-05
0.00126906 7.67284e-05 -3.70433e-06
7.67284e-05 0.00049035 -1.10915e-06
-3.70433e-06 -1.10915e-06 0.000409038
0.000556624 2.51431e-06 1.89332e-07
2.51431e-06 5.07548e-05 -2.90897e-06
1.89332e-07 -2.90897e-06 -4.626e-05
0.000675824 6.97705e-05 1.53085e-06
6.97705e-05 0.000138964 1.40334e-07
1.53085e-06 1.40334e-07 1.42896e-05
0.000185199 5.31902e-05 -1.02553e-06
5.31902e-05 -0.000145824 3.88662e-06
-1.02553e-06 3.88662e-06 -0.000253503
0.000587588 1.37344e-05 -9.50856e-07
1.37344e-05 7.73608e-05 1.74346e-08
-9.50856e-07 1.74346e-08 -2.62247e-05
0.000369348 -1.51787e-05 -8.04873e-07
-1.51787e-05 -3.87809e-05 2.37709e-07
-8.04873e-07 2.37709e-07 -0.000166786
0.000301027 3.17033e-05 5.81426e-07
3.17033e-05 -0.000107284 5.87834e-07
5.81426e-07 5.87834e-07 -0.000184605
0.000751672 7.13346e-05 8.81026e-07
7.13346e-05 0.000191443 -8.2195e-07
8.81026e-07 -8.2195e-07 6.04969e-05
0.0014162 9.06425e-05 -6.10036e-07
9.06425e-05 0.000545944 -2.94785e-06
-6.10036e-07 -2.94785e-06 0.000488648
0.00056256 9.30801e-06 6.0076e-06
9.30801e-06 5.03999e-05 -4.94844e-06
6.0076e-06 -4.94844e-06 -3.82927e-05
0.000508643 7.68799e-05 2.40378e-07
7.68799e-05 5.19849e-05 1.97574e-06
2.40378e-07 1.97574e-06 -9.19805e-05
0.000612771 4.31397e-05 2.53393e-06
4.31397e-05 0.000109492 2.16384e-06
2.53393e-06 2.16384e-06 -3.28297e-05
0.000610792 3.29241e-05 2.15153e-06
3.29241e-05 8.51558e-05 2.55121e-06
2.15153e-06 2.55121e-06 -1.86981e-05
0.000504104 -4.5103e-05 -9.26723e-08
-4.5103e-05 6.10118e-06 2.73835e-06
-9.26723e-08 2.73835e-06 -6.21994e-05
0.000527007 1.7596e-06 -2.50666e-07
1.7596e-06 1.62406e-05 -1.88206e-07
-2.50666e-07 -1.88206e-07 -4.71024e-05
0.00127591 1.3019e-05 2.00732e-06
1.3019e-05 0.000449059 2.56455e-06
2.00732e-06 2.56455e-06 0.000434098
0.000527812 -1.35747e-05 4.97695e-07
-1.35747e-05 1.05129e-05 -2.87909e-06
4.97695e-07 -2.87909e-06 -4.74679e-05
0.00129173 2.65855e-06 -3.94538e-06
2.65855e-06 0.000452995 -1.61527e-06
-3.94538e-06 -1.61527e-06 0.000439481
0.000762953 -1.30014e-05 1.59739e-05
-1.30014e-05 0.00012624 8.55301e-06
1.59739e-05 8.55301e-06 0.000133081
0.00135191 -9.61956e-06 -7.26147e-06
-9.61956e-06 0.000485694 -6.12298e-06
-7.26147e-06 -6.12298e-06 0.000472352
0.000788246 -2.36328e-05 5.36687e-06
-2.36328e-05 0.00013703 3.34654e-06
5.36687e-06 3.34654e-06 0.000142825
0.000749125 -3.25496e-05 -2.69934e-07
-3.25496e-05 0.000112493 -2.49436e-06
-2.69934e-07 -2.49436e-06 0.000117249
0.000643589 2.12092e-06 1.84921e-06
2.12092e-06 6.51239e-05 -1.74347e-06
1.84921e-06 -1.74347e-06 2.26625e-05
0.000483568 2.87464e-05 5.25878e-07
2.87464e-05 -4.7786e-05 -3.36027e-06
5.25878e-07 -3.36027e-06 -6.05059e-05
0.000492775 4.21942e-05 3.33692e-07
4.21942e-05 -3.00547e-05 2.02862e-07
3.33692e-07 2.02862e-07 -4.88713e-05
0.00212422 7.86317e-05 1.56219e-05
7.86317e-05 0.000982308 -3.95865e-06
1.56219e-05 -3.95865e-06 0.000991234
0.000512445 6.56485e-05 5.02073e-06
6.56485e-05 2.37789e-06 6.0208e-06
5.02073e-06 6.0208e-06 -2.97048e-05
0.00245735 0.000105842 -5.47078e-06
0.000105842 0.00119805 -5.16563e-07
-5.47078e-06 -5.16563e-07 0.00119987
0.00294161 0.000121826 -2.98765e-05
0.000121826 0.00150082 4.74903e-06
-2.98765e-05 4.74903e-06 0.00149727
0.00209765 0.000321617 -5.89421e-08
0.000321617 0.000101832 1.30246e-07
-5.89421e-08 1.30246e-07 1.89685e-05
0.00202405 0.000182669 -2.92615e-06
0.000182669 3.76286e-05 -8.50169e-07
-2.92615e-06 -8.50169e-07 1.59118e-05
0.00194232 5.65264e-05 -3.75335e-06
5.65264e-05 2.09609e-05 -2.35892e-07
-3.75335e-06 -2.35892e-07 9.26307e-06
0.00188457 -4.25093e-06 -5.00907e-06
-4.25093e-06 2.52336e-05 -1.22408e-07
-5.00907e-06 -1.22408e-07 -6.83384e-06
0.00192559 -7.40672e-06 -8.73324e-07
-7.40672e-06 9.95571e-06 2.93006e-08
-8.73324e-07 2.93006e-08 1.85828e-06
0.00204277 9.54754e-05 -7.05261e-08
9.54754e-05 -1.25116e-05 1.24222e-07
-7.05261e-08 1.24222e-07 5.86662e-06
0.00214409 0.000278446 -9.88862e-07
0.000278446 2.48633e-05 -1.30721e-07
-9.88862e-07 -1.30721e-07 5.13348e-06
0.00201529 -9.66406e-06 2.72694e-07
-9.66406e-06 -2.93086e-05 -5.34745e-07
2.72694e-07 -5.34745e-07 -1.82858e-06
0.00220598 0.000148535 4.31885e-06
0.000148535 -1.78384e-05 4.26515e-08
4.31885e-06 4.26515e-08 1.08854e-05
0.0023909 0.000100086 3.07657e-06
0.000100086 0.000158611 1.12869e-05
3.07657e-06 1.12869e-05 0.000224281
0.00193369 -7.8949e-05 -4.13283e-06
-7.8949e-05 1.23984e-05 4.06008e-07
-4.13283e-06 4.06008e-07 -6.89958e-07
0.00197996 -0.000211959 -2.38511e-06
-0.000211959 -2.65588e-05 5.03374e-07
-2.38511e-06 5.03374e-07 -3.19979e-05
0.00199943 -0.000336565 -1.78068e-06
-0.000336565 5.09507e-05 7.98058e-07
-1.78068e-06 7.98058e-07 5.10248e-06
0.000821792 -0.000369964 3.06684e-07
-0.000369964 -9.00683e-06 1.94218e-06
3.06684e-07 1.94218e-06 -0.000314039
0.00160599 -0.000596142 3.65327e-06
-0.000596142 0.000336141 1.79138e-07
3.65327e-06 1.79138e-07 -5.25842e-05
0.0020783 -0.000643663 -5.35113e-07
-0.000643663 0.000460391 1.70517e-08
-5.35113e-07 1.70517e-08 0.000113845
0.00197417 -0.000438847 3.47501e-07
-0.000438847 5.32313e-05 2.2649e-06
3.47501e-07 2.2649e-06 -5.20192e-05
0.00183024 -0.000522837 -6.21877e-06
-0.000522837 0.0001062 -4.02386e-06
-6.21877e-06 -4.02386e-06 -9.72251e-05
0.000638976 -0.000325218 -6.92435e-06
-0.000325218 -9.53773e-05 2.4189e-06
-6.92435e-06 2.4189e-06 -0.00038203
0.00207107 -0.000364859 1.40414e-05
-0.000364859 0.000955751 -5.54967e-06
1.40414e-05 -5.54967e-06 0.000595998
0.000978659 -5.72157e-05 4.54416e-07
-5.72157e-05 0.000310813 1.01055e-06
4.54416e-07 1.01055e-06 7.55571e-05
0.000457868 1.71286e-05 1.0278e-06
1.71286e-05 -3.43631e-05 -3.88219e-07
1.0278e-06 -3.88219e-07 -8.70857e-05
0.000825965 3.53608e-05 4.51472e-06
3.53608e-05 0.000232462 4.91751e-07
4.51472e-06 4.91751e-07 0.000104929
0.000676782 -7.96047e-05 1.15742e-06
-7.96047e-05 0.000165449 1.99686e-06
1.15742e-06 1.99686e-06 -2.70658e-05
0.0020182 -0.000109784 5.30706e-07
-0.000109784 -1.89565e-05 1.93192e-08
5.30706e-07 1.93192e-08 2.36451e-06
0.000526447 1.57988e-05 1.29946e-06
1.57988e-05 -3.62892e-06 2.28445e-07
1.29946e-06 2.28445e-07 -4.80434e-05
0.000461959 -6.15357e-05 -1.85336e-06
-6.15357e-05 -2.11602e-05 -1.93285e-07
-1.85336e-06 -1.93285e-07 -9.79797e-05
0.00210658 -0.000283972 -2.4397e-07
-0.000283972 -1.39285e-05 1.7398e-07
-2.4397e-07 1.7398e-07 1.11179e-05
0.00204436 -0.000384735 -1.37863e-06
-0.000384735 3.45973e-05 1.31836e-07
-1.37863e-06 1.31836e-07 8.37099e-06
0.00151773 -0.000510353 -2.37828e-06
-0.000510353 0.00038112 6.69969e-07
-2.37828e-06 6.69969e-07 1.43096e-05
0.00183033 -0.000672886 1.15187e-06
-0.000672886 0.000442202 1.1871e-06
1.15187e-06 1.1871e-06 7.94475e-06
0.00175186 -0.000649303 4.68929e-06
-0.000649303 0.000198324 -2.83254e-06
4.68929e-06 -2.83254e-06 -0.000130538
0.00217015 -0.000574512 2.69259e-06
-0.000574512 0.000160317 -7.27253e-07
2.69259e-06 -7.27253e-07 2.2081e-05
0.000714557 -2.16412e-06 1.9268e-07
-2.16412e-06 0.00016578 -1.4101e-06
1.9268e-07 -1.4101e-06 6.60794e-05
0.000680861 -3.59465e-05 1.7063e-07
-3.59465e-05 0.000169419 1.64391e-06
1.7063e-07 1.64391e-06 3.29408e-06
0.00152562 -0.000430473 2.47908e-06
-0.000430473 0.000429347 -1.62257e-07
2.47908e-06 -1.62257e-07 0.000113649
0.00165963 -0.000350691 1.69064e-05
-0.000350691 0.000762254 -4.28122e-06
1.69064e-05 -4.28122e-06 0.000333806
0.000407963 -5.50999e-05 -3.85536e-06
-5.50999e-05 -2.50154e-05 -1.27158e-06
-3.85536e-06 -1.27158e-06 -0.000299643
0.000599513 -4.37819e-05 9.73762e-07
-4.37819e-05 9.5386e-05 -1.33193e-06
9.73762e-07 -1.33193e-06 -0.000107802
0.0020564 -0.000128173 2.51694e-06
-0.000128173 -9.67268e-05 -1.18066e-06
2.51694e-06 -1.18066e-06 -6.69393e-05
0.00206499 -0.000358015 -8.9406e-07
-0.000358015 -0.000157905 1.26248e-06
-8.9406e-07 1.26248e-06 -1.96134e-05
0.00215366 -0.000518575 -5.67742e-06
-0.000518575 3.35354e-05 -2.60173e-07
-5.67742e-06 -2.60173e-07 -1.80779e-05
0.00165877 -0.000669914 4.49003e-06
-0.000669914 -2.03895e-05 -3.05037e-06
4.49003e-06 -3.05037e-06 -0.000206735
0.00116344 -0.000488611 -1.72295e-06
-0.000488611 0.000201956 -7.74789e-06
-1.72295e-06 -7.74789e-06 -0.000173046
0.00240253 -0.000798974 -1.13162e-05
-0.000798974 0.000698548 1.04607e-05
-1.13162e-05 1.04607e-05 0.000230414
0.000259101 4.8748e-05 -1.19613e-06
4.8748e-05 -0.000133129 -2.81587e-06
-1.19613e-06 -2.81587e-06 -0.000217454
0.000621901 -5.85341e-05 4.97479e-06
-5.85341e-05 7.3453e-05 -5.82241e-07
4.97479e-06 -5.82241e-07 -2.42174e-07
0.000978566 -0.00012491 1.67459e-06
-0.00012491 0.000297843 4.40114e-06
1.67459e-06 4.40114e-06 0.000195208
0.000522427 2.50975e-05 -3.91079e-06
2.50975e-05 5.71065e-05 8.93056e-06
-3.91079e-06 8.93056e-06 -8.3582e-05
0.000791698 -8.68373e-05 -5.04877e-06
-8.68373e-05 0.000212727 7.71022e-06
-5.04877e-06 7.71022e-06 4.45517e-05
0.00157245 -4.91066e-05 4.96359e-06
-4.91066e-05 0.000609642 -1.68928e-06
4.96359e-06 -1.68928e-06 0.000406682
-0.00102135 -0.000163108 7.67083e-06
-0.000163108 -0.000563311 -2.9977e-07
7.67083e-06 -2.9977e-07 -0.00117034
-0.000221658 -0.000387005 -3.05749e-05
-0.000387005 -0.000628699 3.33316e-06
-3.05749e-05 3.33316e-06 -0.000926147
0.000366295 5.64931e-05 -5.66741e-08
5.64931e-05 -4.7645e-05 -7.40823e-07
-5.66741e-08 -7.40823e-07 -0.000178664
0.00102477 0.00019672 -7.84034e-06
0.00019672 0.00041061 -5.44188e-06
-7.84034e-06 -5.44188e-06 0.000187379
0.00222827 0.000391625 -5.74642e-06
0.000391625 2.09525e-05 -3.23403e-06
-5.74642e-06 -3.23403e-06 -5.875e-06
0.00217766 0.000505774 -2.95743e-06
0.000505774 0.000254167 6.40838e-07
-2.95743e-06 6.40838e-07 6.79273e-05
0.00184515 0.000289205 -6.93531e-06
0.000289205 0.000717645 -1.05991e-06
-6.93531e-06 -1.05991e-06 0.000514375
0.00182242 0.00042223 -4.31543e-06
0.00042223 0.000617893 -3.58225e-06
-4.31543e-06 -3.58225e-06 0.000333964
0.00199661 0.000576625 2.63163e-06
0.000576625 0.000315123 2.4081e-06
2.63163e-06 2.4081e-06 2.58648e-05
0.00174616 0.000546285 -2.45313e-07
0.000546285 0.000412686 -3.07377e-07
-2.45313e-07 -3.07377e-07 6.44507e-05
0.000478886 8.58764e-05 7.32034e-07
8.58764e-05 2.1469e-05 -9.53456e-07
7.32034e-07 -9.53456e-07 -0.00012139
0.0022374 0.000307517 -1.79232e-06
0.000307517 -3.61266e-05 -1.48262e-06
-1.79232e-06 -1.48262e-06 8.98036e-06
0.00139578 0.000274653 1.53506e-06
0.000274653 0.000577068 1.70792e-06
1.53506e-06 1.70792e-06 0.000331361
0.00147671 0.000403088 1.27089e-06
0.000403088 0.000390648 7.4219e-07
1.27089e-06 7.4219e-07 0.000108731
0.00243323 0.000498648 1.82302e-06
0.000498648 0.000266673 4.81865e-07
1.82302e-06 4.81865e-07 0.00016179
0.00161799 0.000579576 -1.84332e-06
0.000579576 4.25943e-06 -4.43586e-06
-1.84332e-06 -4.43586e-06 -0.000274246
0.00189976 0.000589021 4.43867e-07
0.000589021 0.000467366 4.39582e-07
4.43867e-07 4.39582e-07 9.94096e-05
0.00110882 0.000209583 -4.38389e-06
0.000209583 0.000436991 4.66068e-06
-4.38389e-06 4.66068e-06 0.00023981
0.00281994 0.000391423 -6.454e-05
0.000391423 0.00035918 -1.8437e-05
-6.454e-05 -1.8437e-05 0.000422892
0.00187727 0.000433926 -5.02919e-06
0.000433926 0.000771693 2.55016e-06
-5.02919e-06 2.55016e-06 0.000493884
0.00155381 0.000481396 -3.34821e-06
0.000481396 0.000351954 -5.09165e-06
-3.34821e-06 -5.09165e-06 1.76913e-05
0.00234157 0.00064948 -3.46696e-05
0.00064948 0.000286013 -1.73763e-05
-3.46696e-05 -1.73763e-05 8.6458e-05
0.000962713 0.000521528 -2.54047e-05
0.000521528 -0.000117479 -3.43573e-06
-2.54047e-05 -3.43573e-06 -0.000462066
0.000552319 0.000554598 3.2288e-05
0.000554598 -0.00110665 -3.26879e-05
3.2288e-05 -3.26879e-05 -0.00115048
0.000282518 9.06238e-05 2.28547e-06
9.06238e-05 -9.87647e-05 -3.37893e-07
2.28547e-06 -3.37893e-07 -0.000204142
0.00056126 8.12246e-05 -5.18585e-07
8.12246e-05 8.91057e-05 1.02318e-06
-5.18585e-07 1.02318e-06 2.46604e-06
0.00168202 0.000124784 3.87045e-07
0.000124784 0.000730914 -1.92919e-06
3.87045e-07 -1.92919e-06 0.000647679
0.000500218 -6.42454e-05 6.42e-07
-6.42454e-05 3.26237e-05 -3.3824e-06
6.42e-07 -3.3824e-06 -7.4935e-05
0.000446408 -4.03724e-05 -1.17799e-06
-4.03724e-05 3.85792e-06 -4.61554e-07
-1.17799e-06 -4.61554e-07 -0.000120209
0.000929061 0.000158829 1.04632e-07
0.000158829 0.0003024 1.49289e-06
1.04632e-07 1.49289e-06 0.000162538
3.2515e-05 1.3731e-05 -2.6281e-06
1.3731e-05 -0.000253894 9.47472e-06
-2.6281e-06 9.47472e-06 -0.000330845
0.000570324 -1.77599e-05 -4.95517e-07
-1.77599e-05 7.49251e-05 -3.13406e-08
-4.95517e-07 -3.13406e-08 -3.72732e-05
0.000542056 5.604e-05 1.39217e-07
5.604e-05 4.92853e-05 -5.60852e-07
1.39217e-07 -5.60852e-07 -7.8945e-05
0.000956334 7.67811e-05 6.42815e-07
7.67811e-05 0.000268649 2.93881e-06
6.42815e-07 2.93881e-06 0.000207766
0.000647332 4.61131e-05 1.41123e-06
4.61131e-05 0.000120746 5.91999e-07
1.41123e-06 5.91999e-07 -1.46697e-05
0.000677194 3.33314e-05 -1.51751e-06
3.33314e-05 0.000114352 -1.30491e-06
-1.51751e-06 -1.30491e-06 2.03218e-05
0.00132742 9.13088e-05 6.19206e-08
9.13088e-05 0.000512516 -9.18894e-06
6.19206e-08 -9.18894e-06 0.000452226
0.000973145 9.17854e-05 -2.30942e-06
9.17854e-05 0.000299211 -2.20666e-06
-2.30942e-06 -2.20666e-06 0.000155351
0.000908935 0.000108274 1.04664e-06
0.000108274 0.000271978 9.17304e-07
1.04664e-06 9.17304e-07 0.000137602
0.000752695 6.29775e-05 3.93677e-07
6.29775e-05 0.000196419 1.34496e-06
3.93677e-07 1.34496e-06 4.35192e-05
0.000353428 -2.32173e-05 4.62081e-08
-2.32173e-05 -7.50419e-05 2.99203e-06
4.62081e-08 2.99203e-06 -0.00018493
0.000960329 -3.83882e-05 -6.04073e-08
-3.83882e-05 0.000352503 -1.37366e-06
-6.04073e-08 -1.37366e-06 0.000193678
0.000289819 -3.14517e-05 -1.69944e-06
-3.14517e-05 -0.000110132 2.65784e-06
-1.69944e-06 2.65784e-06 -0.000224527
0.000496454 3.37567e-06 -1.89478e-06
3.37567e-06 5.65108e-06 2.88331e-06
-1.89478e-06 2.88331e-06 -6.71224e-05
0.000515991 3.21075e-05 2.16776e-06
3.21075e-05 1.53732e-05 -1.30459e-07
2.16776e-06 -1.30459e-07 -5.50115e-05
0.000435076 2.15169e-05 1.21398e-06
2.15169e-05 -6.11062e-05 4.08535e-06
1.21398e-06 4.08535e-06 -8.11753e-05
0.000498387 5.81313e-06 -2.84095e-06
5.81313e-06 3.2236e-06 -2.92042e-06
-2.84095e-06 -2.92042e-06 -6.34061e-05
0.000902226 1.42175e-05 -2.9439e-06
1.42175e-05 0.000220524 -1.62521e-06
-2.9439e-06 -1.62521e-06 0.000203336
0.00251993 -1.02148e-05 1.28843e-05
-1.02148e-05 0.00120742 5.29332e-06
1.28843e-05 5.29332e-06 0.00122129
0.00137033 5.1297e-06 -6.0257e-06
5.1297e-06 0.000501772 -5.99e-06
-6.0257e-06 -5.99e-06 0.000487882
0.000777131 -1.41726e-05 3.92056e-06
-1.41726e-05 0.000131893 3.31007e-06
3.92056e-06 3.31007e-06 0.000138535
0.00077778 -2.30923e-05 2.59995e-07
-2.30923e-05 0.000128041 -2.44244e-06
2.59995e-07 -2.44244e-06 0.000133908
0.000534322 1.66487e-05 -1.16655e-06
1.66487e-05 3.28042e-06 -1.64263e-06
-1.16655e-06 -1.64263e-06 -3.9162e-05
0.000576238 -1.14158e-05 1.00278e-06
-1.14158e-05 2.50346e-05 -2.63943e-07
1.00278e-06 -2.63943e-07 -1.82553e-05
0.000532822 2.26546e-05 4.66149e-07
2.26546e-05 -2.01358e-05 -3.37164e-06
4.66149e-07 -3.37164e-06 -3.07846e-05
0.000815793 3.66077e-05 -2.13362e-07
3.66077e-05 0.000159045 8.62723e-08
-2.13362e-07 8.62723e-08 0.000147442
0.00210026 6.31472e-05 1.21929e-05
6.31472e-05 0.000959889 -4.19199e-06
1.21929e-05 -4.19199e-06 0.00097217
0.000506781 4.83503e-05 2.52546e-06
4.83503e-05 -1.8611e-05 4.06223e-06
2.52546e-06 4.06223e-06 -3.92537e-05
0.00225909 8.46019e-05 -2.95839e-06
8.46019e-05 0.00106679 -2.36329e-07
-2.95839e-06 -2.36329e-07 0.00107419
0.00256032 0.00011095 -1.22963e-05
0.00011095 0.00126202 4.76002e-06
-1.22963e-05 4.76002e-06 0.00126256
0.00207844 0.000282213 -2.72011e-06
0.000282213 -1.42405e-05 -1.36751e-06
-2.72011e-06 -1.36751e-06 -3.10308e-05
0.00202599 9.01013e-05 -9.52804e-08
9.01013e-05 -1.49884e-05 1.12565e-07
-9.52804e-08 1.12565e-07 1.03641e-06
0.00192629 -3.69351e-06 -3.38937e-06
-3.69351e-06 7.53326e-06 -1.10031e-07
-3.38937e-06 -1.10031e-07 2.56629e-06
0.00201148 -6.57953e-06 1.41639e-07
-6.57953e-06 -2.9819e-05 -1.8004e-07
1.41639e-07 -1.8004e-07 -2.67071e-06
0.00218415 0.000151364 -2.16913e-07
0.000151364 -1.47259e-05 2.6568e-07
-2.16913e-07 2.6568e-07 1.26349e-05
0.00209296 8.00481e-05 7.44431e-06
8.00481e-05 -3.83371e-05 -4.22987e-06
7.44431e-06 -4.22987e-06 2.20423e-05
0.00219609 -4.9758e-06 1.32178e-06
-4.9758e-06 -5.66698e-05 -8.17553e-07
1.32178e-06 -8.17553e-07 3.06465e-06
0.00383647 0.000548625 4.22563e-05
0.000548625 -0.000410234 8.42713e-06
4.22563e-05 8.42713e-06 7.4349e-05
0.00238898 5.79672e-05 -2.88317e-05
5.79672e-05 0.000300571 2.70923e-05
-2.88317e-05 2.70923e-05 0.000457086
0.000517587 9.72477e-05 -1.06914e-06
9.72477e-05 3.33909e-05 -2.38219e-08
-1.06914e-06 -2.38219e-08 -4.951e-05
0.00202635 -0.000111013 -6.84619e-07
-0.000111013 -2.1222e-05 1.29444e-07
-6.84619e-07 1.29444e-07 2.18103e-06
0.00208183 -0.000273735 1.09764e-06
-0.000273735 -1.01356e-05 1.65332e-07
1.09764e-06 1.65332e-07 8.89334e-06
0.00199734 -0.000379735 -1.3683e-07
-0.000379735 6.31178e-06 1.15337e-06
-1.3683e-07 1.15337e-06 -1.55389e-05
0.000810049 -0.000438634 -8.70675e-06
-0.000438634 -3.29678e-05 5.70094e-06
-8.70675e-06 5.70094e-06 -0.000383936
0.00222252 -0.000713655 4.89313e-06
-0.000713655 0.000660477 6.94206e-06
4.89313e-06 6.94206e-06 0.000218641
0.00168494 -0.000646597 -2.69064e-06
-0.000646597 0.000144191 -8.95252e-06
-2.69064e-06 -8.95252e-06 -0.000181485
0.00222158 -0.000574023 -3.53075e-06
-0.000574023 0.000202453 -7.03652e-07
-3.53075e-06 -7.03652e-07 6.32123e-05
0.0017798 -0.000440903 1.69767e-05
-0.000440903 0.000555088 -1.16974e-05
1.69767e-05 -1.16974e-05 0.000242396
0.00047125 -0.000215041 1.57281e-05
-0.000215041 4.94658e-05 -7.91888e-06
1.57281e-05 -7.91888e-06 -0.000313241
0.00137608 -8.9239e-05 2.57633e-06
-8.9239e-05 0.000533922 -1.86568e-07
2.57633e-06 -1.86568e-07 0.000285703
0.000533684 7.73988e-06 -1.20557e-07
7.73988e-06 2.75499e-06 1.23268e-06
-1.20557e-07 1.23268e-06 -4.15364e-05
0.000933327 -2.44361e-05 2.32253e-06
-2.44361e-05 0.000308159 1.17328e-06
2.32253e-06 1.17328e-06 9.45846e-05
0.000832117 -2.0105e-05 4.2326e-06
-2.0105e-05 0.000245624 -2.42803e-06
4.2326e-06 -2.42803e-06 0.000145453
0.000846207 -3.522e-05 2.43766e-06
-3.522e-05 0.000266462 -3.54349e-06
2.43766e-06 -3.54349e-06 9.95293e-05
0.000266301 -3.80747e-05 -3.879e-06
-3.80747e-05 -0.000148346 1.23854e-06
-3.879e-06 1.23854e-06 -0.000221721
0.00210132 -0.000144222 -4.82433e-07
-0.000144222 -9.80326e-05 -6.19141e-08
-4.82433e-07 -6.19141e-08 -4.75045e-05
0.000410858 3.22363e-05 -7.56759e-08
3.22363e-05 -3.08836e-05 -1.7702e-06
-7.56759e-08 -1.7702e-06 -0.000120036
0.000594678 -5.31327e-05 1.7827e-06
-5.31327e-05 7.44307e-05 8.0439e-07
1.7827e-06 8.0439e-07 -7.75065e-06
0.000820275 -9.78109e-05 1.60102e-06
-9.78109e-05 0.000197638 4.78203e-07
1.60102e-06 4.78203e-07 0.000100577
0.00209279 -0.000365458 1.5722e-06
-0.000365458 -0.000120279 -5.90039e-07
1.5722e-06 -5.90039e-07 -1.23772e-05
0.00217379 -0.000522833 6.13492e-07
-0.000522833 4.61364e-05 -8.65644e-07
6.13492e-07 -8.65644e-07 -6.41133e-06
0.000798102 -0.000415028 6.97827e-06
-0.000415028 -4.38707e-06 8.00096e-09
6.97827e-06 8.00096e-09 -0.000350324
0.00242305 -0.000804519 9.89847e-06
-0.000804519 0.000711927 -4.73681e-07
9.89847e-06 -4.73681e-07 0.000254246
0.00216068 -0.000710063 -2.32945e-06
-0.000710063 0.000279112 1.72665e-06
-2.32945e-06 1.72665e-06 7.31791e-05
0.000226158 -2.98775e-05 -5.72586e-07
-2.98775e-05 -0.000123382 -1.04193e-06
-5.72586e-07 -1.04193e-06 -0.000252906
0.000903093 -8.97323e-05 -1.37151e-06
-8.97323e-05 0.000293286 9.64485e-07
-1.37151e-06 9.64485e-07 0.000110519
0.00125075 -0.000544672 -6.49036e-06
-0.000544672 0.000226274 1.39378e-06
-6.49036e-06 1.39378e-06 -0.000131315
0.000427068 -0.000139267 4.22779e-07
-0.000139267 0.000130953 -2.99538e-06
4.22779e-07 -2.99538e-06 -0.000344404
0.000740495 -6.06461e-05 6.67543e-07
-6.06461e-05 0.000108451 1.69582e-06
6.67543e-07 1.69582e-06 -8.51033e-05
0.00251681 -0.000274283 -2.16512e-06
-0.000274283 0.00014001 -1.58206e-08
-2.16512e-06 -1.58206e-08 0.000194818
0.00189786 -0.000394411 -1.60996e-05
-0.000394411 -0.000227279 4.63437e-06
-1.60996e-05 4.63437e-06 -7.22306e-05
0.00213405 -0.000663263 -1.07306e-05
-0.000663263 0.000103052 9.42833e-07
-1.07306e-05 9.42833e-07 -5.1816e-05
0.00327266 -0.000866287 -2.12415e-05
-0.000866287 0.00102011 -1.24769e-06
-2.12415e-05 -1.24769e-06 0.000740458
0.000933901 -0.000522209 -2.45477e-05
-0.000522209 7.08708e-05 -2.85384e-06
-2.45477e-05 -2.85384e-06 -0.000301003
0.000244335 -1.67684e-05 1.93375e-06
-1.67684e-05 -0.000129218 8.36632e-07
1.93375e-06 8.36632e-07 -0.000231023
0.000422639 7.41731e-06 7.64276e-07
7.41731e-06 -6.52326e-05 3.784e-06
7.64276e-07 3.784e-06 -0.000159215
-0.000237106 -3.58453e-05 -8.36165e-07
-3.58453e-05 -0.000433668 -2.98502e-06
-8.36165e-07 -2.98502e-06 -0.000529571
0.00192723 -0.000244218 -1.11851e-05
-0.000244218 0.000941371 1.53044e-05
-1.11851e-05 1.53044e-05 0.000771175
0.000974824 -9.42263e-05 -5.44324e-06
-9.42263e-05 0.00030527 1.4819e-05
-5.44324e-06 1.4819e-05 0.000141982
-0.00105244 -8.93649e-05 2.39884e-06
-8.93649e-05 -0.000503668 4.61847e-06
2.39884e-06 4.61847e-06 -0.0010629
-0.000321104 -0.000648216 -5.1046e-06
-0.000648216 -0.000306502 -6.24363e-06
-5.1046e-06 -6.24363e-06 -0.000913898
0.00106708 0.000148907 -7.85178e-07
0.000148907 0.000391576 -5.53838e-06
-7.85178e-07 -5.53838e-06 0.000227178
0.000445087 0.000131347 -3.57236e-06
0.000131347 -2.29323e-05 -2.78938e-06
-3.57236e-06 -2.78938e-06 -0.000229929
0.0023716 0.000285893 6.46842e-06
0.000285893 3.71579e-05 1.44852e-07
6.46842e-06 1.44852e-07 9.45346e-05
0.00232846 0.000493747 1.60536e-05
0.000493747 0.000210468 5.38908e-06
1.60536e-05 5.38908e-06 0.000110442
0.00218556 0.000620211 1.8268e-05
0.000620211 0.000330983 4.879e-06
1.8268e-05 4.879e-06 5.05185e-05
0.00122272 0.000376224 -8.42113e-07
0.000376224 0.000247126 7.58413e-07
-8.42113e-07 7.58413e-07 -3.36853e-05
0.00166081 0.000560158 3.15755e-06
0.000560158 0.000339477 3.22731e-06
3.15755e-06 3.22731e-06 -2.30593e-05
0.00165851 0.000206384 1.0887e-07
0.000206384 0.000734198 -1.10064e-07
1.0887e-07 -1.10064e-07 0.000552503
0.00250715 0.000331621 -6.38559e-07
0.000331621 0.000214392 1.34414e-06
-6.38559e-07 1.34414e-06 0.000292353
0.00133414 0.000348047 -1.96269e-06
0.000348047 0.000425294 2.22692e-06
-1.96269e-06 2.22692e-06 0.000171916
0.00159945 0.000490263 2.03359e-06
0.000490263 0.000408906 -5.39757e-07
2.03359e-06 -5.39757e-07 6.28061e-05
0.00209161 0.000622698 -2.71994e-06
0.000622698 0.000150047 -3.241e-06
-2.71994e-06 -3.241e-06 -2.81516e-05
0.00163979 0.000594539 -4.39983e-06
0.000594539 0.000273886 4.86626e-06
-4.39983e-06 4.86626e-06 -8.72767e-05
0.00296151 0.000780102 5.63636e-05
0.000780102 -0.000134725 5.1517e-06
5.63636e-05 5.1517e-06 -0.000294433
0.00115483 0.000267708 -5.80577e-06
0.000267708 0.000461159 1.88655e-06
-5.80577e-06 1.88655e-06 0.000250204
0.00341457 0.000604185 -8.17706e-05
0.000604185 0.000859909 -3.2765e-05
-8.17706e-05 -3.2765e-05 0.000799387
0.000931079 0.000357776 -4.27026e-06
0.000357776 5.01391e-05 3.11571e-07
-4.27026e-06 3.11571e-07 -0.000219104
4.19804e-05 0.000356411 -3.06621e-06
0.000356411 -0.00049729 -1.33402e-05
-3.06621e-06 -1.33402e-05 -0.000824753
0.000655981 0.000596745 -3.46986e-05
0.000596745 -0.000435728 -8.10812e-06
-3.46986e-05 -8.10812e-06 -0.000640467
0.0130221 0.000375541 -0.000352835
0.000375541 0.00232328 -4.8614e-05
-0.000352835 -4.8614e-05 0.00156301
0.00531996 0.00127611 4.62885e-05
0.00127611 -0.000246934 -7.61413e-05
4.62885e-05 -7.61413e-05 0.000139076
-0.000682026 0.000821849 -2.43423e-06
0.000821849 -0.00126564 3.70908e-06
-2.43423e-06 3.70908e-06 -0.00157199
-0.00231719 -0.00142294 0.000931931
-0.00142294 0.00035767 0.000199443
0.000931931 0.000199443 -0.0021242
0.015529 -0.00553708 -1.53721e-05
-0.00553708 0.00486084 5.72095e-05
-1.53721e-05 5.72095e-05 0.00462914
0.000125492 8.2926e-05 6.93815e-06
8.2926e-05 -0.000153597 1.31509e-06
6.93815e-06 1.31509e-06 -0.000244447
0.00104946 9.12027e-05 6.77113e-07
9.12027e-05 0.000383168 -2.29294e-06
6.77113e-07 -2.29294e-06 0.000302509
0.00183965 0.000208204 -1.05143e-06
0.000208204 0.000881486 -9.95472e-07
-1.05143e-06 -9.95472e-07 0.000771402
0.000541762 -5.89339e-05 -8.15386e-07
-5.89339e-05 6.63193e-05 -2.43246e-06
-8.15386e-07 -2.43246e-06 -5.10006e-05
0.000506442 6.21969e-05 -1.09747e-06
6.21969e-05 2.99439e-05 -2.01611e-06
-1.09747e-06 -2.01611e-06 -0.000101574
0.00072159 -1.53195e-05 -6.39176e-08
-1.53195e-05 0.000166086 -8.70505e-07
-6.39176e-08 -8.70505e-07 2.95881e-05
0.000685812 5.50916e-05 -3.77881e-06
5.50916e-05 0.000114543 7.57238e-06
-3.77881e-06 7.57238e-06 1.5948e-05
0.000499536 5.82512e-05 2.3742e-06
5.82512e-05 -8.94418e-06 7.40225e-06
2.3742e-06 7.40225e-06 -7.23288e-05
0.000698353 0.000106233 -1.88676e-06
0.000106233 0.000163864 -4.83742e-07
-1.88676e-06 -4.83742e-07 1.30729e-05
0.000452373 -6.24148e-06 3.83439e-07
-6.24148e-06 -6.01968e-06 9.26452e-07
3.83439e-07 9.26452e-07 -0.000119863
0.000659237 3.24283e-05 -4.42219e-07
3.24283e-05 0.000133788 -3.47636e-08
-4.42219e-07 -3.47636e-08 -1.30532e-05
0.000573466 7.10146e-05 -1.68017e-07
7.10146e-05 4.60945e-05 -4.43122e-07
-1.68017e-07 -4.43122e-07 -1.45579e-05
0.000727319 9.08367e-05 -1.37531e-06
9.08367e-05 0.000156205 -3.75892e-07
-1.37531e-06 -3.75892e-07 1.65078e-05
0.00111056 0.000136689 -1.73513e-06
0.000136689 0.000407383 -1.00477e-06
-1.73513e-06 -1.00477e-06 0.00024799
0.000342578 8.57052e-05 6.99268e-07
8.57052e-05 -3.85355e-05 -2.85838e-06
6.99268e-07 -2.85838e-06 -0.000182921
0.000785991 9.49501e-05 2.52045e-06
9.49501e-05 0.000208293 5.3887e-07
2.52045e-06 5.3887e-07 6.38681e-05
0.000554711 -3.12266e-05 1.77238e-06
-3.12266e-05 5.57735e-05 6.65911e-07
1.77238e-06 6.65911e-07 -8.82642e-05
0.000373446 -6.44817e-05 -1.37993e-06
-6.44817e-05 -5.69761e-05 2.61482e-06
-1.37993e-06 2.61482e-06 -0.000174793
0.000735394 -1.70431e-05 -8.66953e-07
-1.70431e-05 0.000178296 8.27794e-08
-8.66953e-07 8.27794e-08 3.08383e-05
0.000993541 2.36101e-05 -1.62058e-07
2.36101e-05 0.000332029 -7.10437e-06
-1.62058e-07 -7.10437e-06 0.00019001
0.000543214 -3.01813e-05 -9.0788e-07
-3.01813e-05 8.49016e-05 -2.01846e-07
-9.0788e-07 -2.01846e-07 -5.32192e-05
0.000777114 -3.94923e-05 1.61314e-06
-3.94923e-05 0.000215614 -6.0817e-07
1.61314e-06 -6.0817e-07 7.29715e-05
0.000660516 -0.000107968 -2.6097e-06
-0.000107968 0.000124854 1.67753e-06
-2.6097e-06 1.67753e-06 8.92216e-06
0.000354489 -2.00538e-05 1.52896e-07
-2.00538e-05 -6.7201e-05 1.09594e-06
1.52896e-07 1.09594e-06 -0.000184676
0.000529295 -4.17786e-05 -2.22272e-06
-4.17786e-05 1.72866e-05 3.08825e-06
-2.22272e-06 3.08825e-06 -5.12336e-05
0.000530266 -3.05665e-05 1.64772e-06
-3.05665e-05 2.38838e-05 5.76694e-08
1.64772e-06 5.76694e-08 -4.7799e-05
0.000498229 4.7063e-06 1.56859e-06
4.7063e-06 -2.06737e-05 5.9785e-06
1.56859e-06 5.9785e-06 -4.15049e-05
0.000548831 3.88975e-05 -1.54635e-06
3.88975e-05 3.06866e-05 -2.98513e-06
-1.54635e-06 -2.98513e-06 -3.67075e-05
0.000459773 2.11186e-05 4.22413e-07
2.11186e-05 -4.54856e-05 5.69469e-08
4.22413e-07 5.69469e-08 -6.58625e-05
0.00245986 5.07223e-07 6.7805e-07
5.07223e-07 0.00117216 5.27824e-06
6.7805e-07 5.27824e-06 0.00118591
0.000523046 2.27669e-05 -2.28455e-06
2.27669e-05 -1.13078e-05 -6.39158e-06
-2.28455e-06 -6.39158e-06 -3.16683e-05
0.00166953 -8.27964e-06 -8.52529e-07
-8.27964e-06 0.000683643 1.12901e-07
-8.52529e-07 1.12901e-07 0.000693194
0.000784474 -1.34179e-05 5.27069e-07
-1.34179e-05 0.000133127 -2.24701e-06
5.27069e-07 -2.24701e-06 0.000139984
0.000517531 -8.53056e-06 6.9008e-07
-8.53056e-06 -6.66796e-06 -1.21227e-06
6.9008e-07 -1.21227e-06 -4.55514e-05
0.000575642 -3.20516e-05 2.64851e-07
-3.20516e-05 3.01812e-05 -4.68182e-08
2.64851e-07 -4.68182e-08 -1.38525e-05
0.000547008 1.34681e-05 9.02904e-07
1.34681e-05 -1.35404e-05 -3.02258e-06
9.02904e-07 -3.02258e-06 -2.20985e-05
0.000529457 -2.7347e-05 -1.95966e-06
-2.7347e-05 -4.47511e-06 1.21324e-06
-1.95966e-06 1.21324e-06 -4.75289e-05
0.000804047 2.67902e-05 -5.03691e-08
2.67902e-05 0.000147187 -7.32967e-07
-5.03691e-08 -7.32967e-07 0.000138619
0.00199064 4.69182e-05 8.60877e-06
4.69182e-05 0.000887109 -4.30202e-06
8.60877e-06 -4.30202e-06 0.000902393
0.000510814 3.25025e-05 -3.0506e-07
3.25025e-05 -2.78721e-05 3.32108e-06
-3.0506e-07 3.32108e-06 -4.17652e-05
0.00214415 6.60713e-05 -6.50887e-06
6.60713e-05 0.000989572 1.11768e-06
-6.50887e-06 1.11768e-06 0.00100106
0.00231409 8.89797e-05 -1.00709e-05
8.89797e-05 0.0011019 4.40727e-06
-1.00709e-05 4.40727e-06 0.00110827
0.00215352 0.000155213 -2.951e-06
0.000155213 -1.595e-05 -1.29623e-06
-2.951e-06 -1.29623e-06 1.03464e-05
0.00200476 -5.42379e-06 -6.77164e-08
-5.42379e-06 -3.21912e-05 1.13466e-07
-6.77164e-08 1.13466e-07 -5.55188e-06
0.00182673 5.85912e-05 1.75267e-06
5.85912e-05 -0.000223456 9.68685e-07
1.75267e-06 9.68685e-07 -0.000166957
0.00239387 0.000398993 6.41532e-05
0.000398993 -0.00098404 1.48267e-05
6.41532e-05 1.48267e-05 -0.000586698
0.00216594 -2.58842e-05 -1.67438e-06
-2.58842e-05 -5.71935e-05 -1.90544e-06
-1.67438e-06 -1.90544e-06 3.03547e-06
0.00207934 6.16719e-05 1.83026e-06
6.16719e-05 0.000130666 -7.53192e-06
1.83026e-06 -7.53192e-06 0.000243162
0.00320468 -2.96608e-05 -2.71049e-05
-2.96608e-05 0.000889899 3.83483e-06
-2.71049e-05 3.83483e-06 0.000885098
0.00256769 -2.03588e-05 3.10094e-06
-2.03588e-05 -0.00172443 -2.69463e-05
3.10094e-06 -2.69463e-05 -0.00104237
0.00260369 0.000152889 8.12721e-05
0.000152889 -0.000477249 4.98933e-05
8.12721e-05 4.98933e-05 -8.70158e-05
0.000589385 7.97625e-05 4.50987e-07
7.97625e-05 7.94254e-05 -1.77297e-07
4.50987e-07 -1.77297e-07 -5.30101e-06
0.000592378 -5.82069e-06 4.62402e-07
-5.82069e-06 8.66784e-05 -1.3393e-07
4.62402e-07 -1.3393e-07 -2.48695e-06
0.000504822 -0.000100277 -2.31527e-06
-0.000100277 3.71969e-05 1.44856e-06
-2.31527e-06 1.44856e-06 -6.66287e-05
0.000500549 -4.80579e-05 -1.54629e-06
-4.80579e-05 5.33213e-05 1.18781e-06
-1.54629e-06 1.18781e-06 -5.72904e-05
0.00215972 -0.00016037 -4.22373e-06
-0.00016037 -8.63458e-05 7.63186e-07
-4.22373e-06 7.63186e-07 -1.93309e-05
0.0021206 -0.000368048 1.44479e-06
-0.000368048 -7.74396e-05 -8.01528e-07
1.44479e-06 -8.01528e-07 2.61128e-06
0.0021771 -0.000522152 -1.71862e-06
-0.000522152 5.15904e-05 1.27057e-06
-1.71862e-06 1.27057e-06 -3.60933e-07
0.00291382 -0.000646792 1.05656e-05
-0.000646792 0.00119953 3.03331e-06
1.05656e-05 3.03331e-06 0.000820886
0.000714092 -0.00062949 9.64215e-06
-0.00062949 -0.000226884 -2.76046e-06
9.64215e-06 -2.76046e-06 -0.000651782
0.00238417 -0.000722727 5.35005e-06
-0.000722727 0.000424992 -2.95147e-06
5.35005e-06 -2.95147e-06 0.000207638
0.00182727 -0.000611668 -4.1975e-07
-0.000611668 0.000554396 -1.87777e-06
-4.1975e-07 -1.87777e-06 0.000159457
0.00264183 -0.000175964 3.17522e-06
-0.000175964 0.00127009 -6.54944e-07
3.17522e-06 -6.54944e-07 0.000928336
-0.000124181 -3.0709e-05 -7.91444e-07
-3.0709e-05 -0.000430138 3.26512e-07
-7.91444e-07 3.26512e-07 -0.000603264
0.000669612 -5.22299e-05 4.16004e-07
-5.22299e-05 0.000124871 7.16072e-07
4.16004e-07 7.16072e-07 4.21588e-05
0.000606751 -0.000109239 1.28228e-06
-0.000109239 0.000125688 -7.05074e-06
1.28228e-06 -7.05074e-06 -6.49014e-05
0.00077222 1.80795e-06 2.6304e-06
1.80795e-06 0.000221051 -4.65278e-06
2.6304e-06 -4.65278e-06 8.4119e-05
0.000621025 2.36015e-06 -7.14399e-08
2.36015e-06 0.000109844 1.51312e-07
-7.14399e-08 1.51312e-07 1.45095e-05
0.000538328 -3.50956e-05 -7.30197e-06
-3.50956e-05 1.80135e-05 3.15077e-06
-7.30197e-06 3.15077e-06 -6.94419e-05
0.00247414 -0.000257148 1.63991e-06
-0.000257148 0.000122147 1.11953e-06
1.63991e-06 1.11953e-06 0.000193767
0.00058656 -2.50631e-05 4.26076e-07
-2.50631e-05 9.44045e-05 5.04262e-07
4.26076e-07 5.04262e-07 -2.11059e-05
0.000807724 -1.802e-05 4.58099e-06
-1.802e-05 0.000189948 -7.50503e-07
4.58099e-06 -7.50503e-07 8.28357e-05
-3.44582e-05 -5.18213e-06 1.33592e-06
-5.18213e-06 -0.0003001 9.15292e-07
1.33592e-06 9.15292e-07 -0.000375249
0.0018527 -0.000398106 1.12659e-07
-0.000398106 -0.000281635 -1.28186e-06
1.12659e-07 -1.28186e-06 -0.000131228
0.0020782 -0.000653972 2.03605e-06
-0.000653972 7.68747e-05 -1.20639e-06
2.03605e-06 -1.20639e-06 -6.94152e-05
0.00174585 -0.000647625 -1.29837e-06
-0.000647625 0.000512914 -1.55955e-07
-1.29837e-06 -1.55955e-07 0.000122555
0.00224083 -0.000780172 -5.93342e-06
-0.000780172 0.000455792 1.42362e-06
-5.93342e-06 1.42362e-06 0.000184322
0.00126876 -0.000102246 -8.11784e-07
-0.000102246 0.000506578 1.12479e-06
-8.11784e-07 1.12479e-06 0.000354274
0.000367016 -5.51366e-05 3.3512e-06
-5.51366e-05 -7.47455e-05 8.37821e-07
3.3512e-06 8.37821e-07 -0.000238163
0.00146057 -0.000780512 4.3015e-06
-0.000780512 0.000700742 -1.28654e-06
4.3015e-06 -1.28654e-06 7.76676e-05
0.0011962 -0.000287676 -2.72945e-06
-0.000287676 0.000546725 -2.46114e-07
-2.72945e-06 -2.46114e-07 0.00012297
0.00288187 -0.000353732 -2.9062e-05
-0.000353732 0.000237461 -8.13346e-07
-2.9062e-05 -8.13346e-07 0.00045258
0.00236985 -0.000532063 -4.03496e-05
-0.000532063 0.00015931 1.10418e-05
-4.03496e-05 1.10418e-05 0.000199781
0.00237125 -0.000784759 -7.305e-06
-0.000784759 0.000374126 -2.36993e-06
-7.305e-06 -2.36993e-06 0.000115904
0.00226518 -0.000731409 -1.40007e-05
-0.000731409 0.000649217 3.07793e-07
-1.40007e-05 3.07793e-07 0.00038224
0.000359184 -4.14108e-05 -6.21855e-07
-4.14108e-05 -1.60277e-05 -2.73629e-06
-6.21855e-07 -2.73629e-06 -0.000137959
0.000239614 -8.23523e-05 -3.9142e-06
-8.23523e-05 -0.000120729 -9.40783e-06
-3.9142e-06 -9.40783e-06 -0.000265133
8.64654e-05 -0.000148168 -4.55112e-06
-0.000148168 -7.4034e-06 2.48646e-05
-4.55112e-06 2.48646e-05 -0.000268463
-0.000787341 -0.000479955 -5.18743e-06
-0.000479955 -0.00011459 -2.15839e-05
-5.18743e-06 -2.15839e-05 -0.000931451
0.00168275 -0.000495234 3.47357e-05
-0.000495234 -0.00434286 1.9817e-06
3.47357e-05 1.9817e-06 -0.00442126
0.00192143 0.000198068 -3.70176e-07
0.000198068 0.000876019 -4.75432e-06
-3.70176e-07 -4.75432e-06 0.000701025
0.000892009 0.000284531 -7.18173e-08
0.000284531 0.000155987 3.65751e-07
-7.18173e-08 3.65751e-07 -8.4726e-05
0.00207061 0.00028826 6.47926e-05
0.00028826 -1.94205e-05 1.67603e-05
6.47926e-05 1.67603e-05 7.09415e-05
0.00219431 0.000620427 2.75268e-05
0.000620427 0.000206676 9.69042e-06
2.75268e-05 9.69042e-06 4.18578e-05
0.00209023 0.000644163 1.36431e-05
0.000644163 0.000542089 1.16645e-05
1.36431e-05 1.16645e-05 0.000166626
0.00149527 0.000484068 7.04938e-06
0.000484068 0.000366741 7.15764e-06
7.04938e-06 7.15764e-06 1.33069e-05
0.00439172 0.000952639 0.000110023
0.000952639 0.000309679 4.22399e-05
0.000110023 4.22399e-05 -1.17574e-05
0.001358 0.000250999 4.51397e-06
0.000250999 0.000573652 1.50828e-07
4.51397e-06 1.50828e-07 0.000372378
0.00253393 0.000539474 -1.44382e-05
0.000539474 0.000354796 -1.12151e-07
-1.44382e-05 -1.12151e-07 0.000322146
0.00106099 0.000372453 -2.38397e-06
0.000372453 0.000157247 2.33519e-06
-2.38397e-06 2.33519e-06 -0.000118455
0.00137713 0.000518915 1.8287e-06
0.000518915 0.000263588 -4.47638e-06
1.8287e-06 -4.47638e-06 -9.21366e-05
0.00157269 0.000672426 -8.43438e-06
0.000672426 4.35297e-05 -2.99319e-07
-8.43438e-06 -2.99319e-07 -0.000180272
0.00375546 -0.000539667 -0.00015754
-0.000539667 -0.00374798 -5.33277e-05
-0.00015754 -5.33277e-05 -0.00477524
0.007063 0.00119701 -7.29394e-05
0.00119701 0.000474428 -6.43468e-05
-7.29394e-05 -6.43468e-05 0.000593892
0.00124186 0.000875623 -1.05145e-05
0.000875623 -0.000181559 8.16299e-06
-1.05145e-05 8.16299e-06 -0.000562529
-0.000957594 -0.00119017 0.000351774
-0.00119017 0.0020527 0.00014994
0.000351774 0.00014994 -0.000313385
0.00712877 -0.00550294 -0.000315917
-0.00550294 0.00255884 -0.000304628
-0.000315917 -0.000304628 0.00232663
0.0014138 0.000274153 -1.26142e-05
0.000274153 0.000553767 6.89905e-07
-1.26142e-05 6.89905e-07 0.000359874
0.000514016 0.000519604 0.000484872
0.000519604 0.00310788 4.97124e-05
0.000484872 4.97124e-05 0.00144143
0.00174242 -0.00171964 -0.000159261
-0.00171964 0.00410331 -0.000216553
-0.000159261 -0.000216553 0.000443947
0.00249702 0.000831288 -4.44022e-05
0.000831288 0.000376729 -1.11684e-05
-4.44022e-05 -1.11684e-05 0.000290569
0.000869098 0.000263348 -2.18175e-05
0.000263348 5.73719e-05 -6.93623e-06
-2.18175e-05 -6.93623e-06 -0.000178648
0.000697592 0.000538048 -3.23142e-05
0.000538048 -6.27061e-05 -2.38545e-05
-3.23142e-05 -2.38545e-05 -0.00036861
0.000271909 0.000860314 3.5973e-05
0.000860314 -0.000633865 8.76453e-05
3.5973e-05 8.76453e-05 -0.000924174
0.0121795 0.0016644 1.97521e-05
0.0016644 0.00209852 -5.09859e-05
1.97521e-05 -5.09859e-05 0.000608006
0.00281001 0.00163887 -7.15649e-06
0.00163887 1.23566e-05 -2.98725e-05
-7.15649e-06 -2.98725e-05 -0.000508045
0.00848867 -0.0047414 0.000734334
-0.0047414 0.00195811 0.000436654
0.000734334 0.000436654 0.000452578
0.00992374 -0.00225519 -4.98363e-05
-0.00225519 0.00148846 0.000449784
-4.98363e-05 0.000449784 0.00104036
0.000506389 7.59034e-05 6.60849e-06
7.59034e-05 8.48856e-05 -1.95564e-06
6.60849e-06 -1.95564e-06 4.35718e-06
0.000421273 0.00011833 7.41337e-06
0.00011833 3.52243e-05 3.42161e-07
7.41337e-06 3.42161e-07 -6.69799e-05
0.00178896 0.000245889 1.85665e-06
0.000245889 0.00086796 -3.24099e-06
1.85665e-06 -3.24099e-06 0.000715479
0.000594991 1.07828e-05 8.09243e-07
1.07828e-05 0.000103481 -7.38265e-07
8.09243e-07 -7.38265e-07 -2.4007e-05
0.00068715 5.57951e-05 -1.26415e-06
5.57951e-05 0.000148565 -1.62093e-06
-1.26415e-06 -1.62093e-06 5.44797e-06
0.000336164 1.37765e-05 -1.4858e-06
1.37765e-05 -7.02464e-05 6.26488e-07
-1.4858e-06 6.26488e-07 -0.000205607
0.000550121 8.38724e-05 -6.19045e-06
8.38724e-05 5.98418e-05 1.24365e-06
-6.19045e-06 1.24365e-06 -7.98776e-05
-0.000297997 4.80018e-05 -3.23159e-06
4.80018e-05 -0.000490964 1.25487e-06
-3.23159e-06 1.25487e-06 -0.000551529
0.000384148 -1.01835e-05 2.05358e-07
-1.01835e-05 -4.41364e-05 9.36471e-07
2.05358e-07 9.36471e-07 -0.000165491
0.00104691 8.80108e-05 1.34211e-06
8.80108e-05 0.000367105 -2.55813e-07
1.34211e-06 -2.55813e-07 0.000213933
0.000682219 4.5031e-05 6.0477e-07
4.5031e-05 0.000152319 3.19802e-07
6.0477e-07 3.19802e-07 3.26048e-06
0.000717025 2.44053e-05 1.13791e-06
2.44053e-05 0.000172729 -4.57476e-07
1.13791e-06 -4.57476e-07 1.64033e-05
0.00058112 9.66312e-05 -3.31166e-07
9.66312e-05 0.00010715 -1.82497e-06
-3.31166e-07 -1.82497e-06 -3.4826e-05
0.0011736 0.00010007 -2.06863e-06
0.00010007 0.000463926 -1.8522e-06
-2.06863e-06 -1.8522e-06 0.000308858
-0.000167364 3.81675e-05 -4.8775e-06
3.81675e-05 -0.000287526 -4.53941e-06
-4.8775e-06 -4.53941e-06 -0.000448303
0.000724056 -9.23819e-05 -1.40893e-07
-9.23819e-05 0.000170657 -1.66088e-07
-1.40893e-07 -1.66088e-07 2.06811e-05
0.000768685 -7.14838e-05 -5.85165e-07
-7.14838e-05 0.000213953 -1.86548e-09
-5.85165e-07 -1.86548e-09 5.57205e-05
0.000755144 -3.90347e-05 -1.47856e-07
-3.90347e-05 0.000202913 -3.18618e-07
-1.47856e-07 -3.18618e-07 4.63219e-05
0.000783846 -1.13871e-05 -2.37134e-06
-1.13871e-05 0.000191513 -1.1393e-07
-2.37134e-06 -1.1393e-07 6.16627e-05
0.000822494 2.08056e-05 -4.7328e-06
2.08056e-05 0.000255523 -3.67704e-06
-4.7328e-06 -3.67704e-06 8.44653e-05
0.00072371 -1.44907e-05 1.93885e-06
-1.44907e-05 0.000172775 -5.52478e-06
1.93885e-06 -5.52478e-06 4.19346e-05
-0.000523346 -2.20887e-05 -1.39549e-06
-2.20887e-05 -0.000603089 -4.90694e-06
-1.39549e-06 -4.90694e-06 -0.000712112
0.000618795 -3.33467e-05 1.52033e-06
-3.33467e-05 8.86672e-05 -9.53039e-07
1.52033e-06 -9.53039e-07 -4.60232e-05
0.000444597 -6.92949e-05 1.6814e-06
-6.92949e-05 -3.11489e-06 1.13004e-06
1.6814e-06 1.13004e-06 -0.000127583
0.000675731 -7.03838e-05 -9.73145e-07
-7.03838e-05 0.000158493 -2.99781e-07
-9.73145e-07 -2.99781e-07 2.15196e-05
0.000556447 -7.21539e-05 -2.14651e-06
-7.21539e-05 4.59475e-05 1.42941e-06
-2.14651e-06 1.42941e-06 -5.58751e-05
0.00051342 -5.65366e-05 2.56838e-06
-5.65366e-05 2.87097e-05 3.53964e-07
2.56838e-06 3.53964e-07 -9.73154e-05
0.000540725 -9.79677e-05 9.69327e-08
-9.79677e-05 4.83968e-05 2.55546e-07
9.69327e-08 2.55546e-07 -6.63403e-05
0.000567905 -4.08373e-05 -2.40274e-06
-4.08373e-05 3.89927e-05 3.42509e-06
-2.40274e-06 3.42509e-06 -3.0385e-05
0.000429843 -7.26312e-06 1.48328e-06
-7.26312e-06 -8.436e-06 -7.91967e-07
1.48328e-06 -7.91967e-07 -0.000135488
0.000527118 1.23392e-06 1.77622e-06
1.23392e-06 2.2727e-05 5.19323e-08
1.77622e-06 5.19323e-08 -4.96322e-05
0.00142366 -1.05151e-05 -5.75879e-06
-1.05151e-05 0.000542403 6.12463e-06
-5.75879e-06 6.12463e-06 0.00052562
0.000529033 5.44106e-05 -1.09417e-06
5.44106e-05 2.35052e-05 -2.96127e-06
-1.09417e-06 -2.96127e-06 -4.80161e-05
0.000900259 -7.24335e-06 -2.84393e-06
-7.24335e-06 0.00022571 7.53491e-07
-2.84393e-06 7.53491e-07 0.000207085
0.000780812 2.91783e-06 -3.83409e-06
2.91783e-06 0.000142488 4.82572e-06
-3.83409e-06 4.82572e-06 0.000148319
0.000460052 -4.58787e-06 1.87956e-06
-4.58787e-06 -4.51038e-05 -4.38092e-06
1.87956e-06 -4.38092e-06 -6.54462e-05
0.00247783 1.36999e-06 5.4621e-06
1.36999e-06 0.00118332 -1.43304e-08
5.4621e-06 -1.43304e-08 0.00119705
0.000876646 -6.32935e-07 -5.41589e-06
-6.32935e-07 0.000197313 -5.14506e-06
-5.41589e-06 -5.14506e-06 0.000202888
0.000531748 6.37439e-05 2.64487e-06
6.37439e-05 4.87743e-05 6.00645e-07
2.64487e-06 6.00645e-07 -4.2692e-05
0.000505887 4.25509e-05 -1.78573e-06
4.25509e-05 -4.94425e-06 -1.75133e-06
-1.78573e-06 -1.75133e-06 -4.76822e-05
0.000524399 -6.12143e-06 1.31197e-06
-6.12143e-06 4.7478e-06 3.35449e-08
1.31197e-06 3.35449e-08 -3.88323e-05
0.000533451 8.45323e-06 8.5759e-07
8.45323e-06 -2.14575e-05 -2.93764e-06
8.5759e-07 -2.93764e-06 -2.9337e-05
0.000571873 -4.9054e-05 -1.8664e-06
-4.9054e-05 3.16055e-05 1.59201e-06
-1.8664e-06 1.59201e-06 -1.51495e-05
0.000510642 1.37658e-05 6.33297e-08
1.37658e-05 -3.65537e-05 -7.50175e-07
6.33297e-08 -7.50175e-07 -4.47779e-05
0.00197685 3.20856e-05 5.91474e-06
3.20856e-05 0.00087474 -4.45312e-06
5.91474e-06 -4.45312e-06 0.000891847
0.00109501 3.404e-05 -6.54259e-07
3.404e-05 0.000327437 1.74717e-06
-6.54259e-07 1.74717e-06 0.000320123
0.00145217 4.07349e-05 -1.01557e-07
4.07349e-05 0.000555076 1.37912e-06
-1.01557e-07 1.37912e-06 0.00056608
0.000883943 4.4507e-05 -1.0676e-05
4.4507e-05 0.000210027 7.28117e-06
-1.0676e-05 7.28117e-06 0.000214649
0.00105567 0.000269772 8.8407e-05
0.000269772 -0.00156416 1.39988e-05
8.8407e-05 1.39988e-05 -0.00120077
0.00212819 -4.18224e-05 -1.69956e-06
-4.18224e-05 -5.32924e-05 3.19073e-06
-1.69956e-06 3.19073e-06 4.28525e-07
0.00203352 7.27262e-05 3.58249e-05
7.27262e-05 0.000124321 -1.49478e-05
3.58249e-05 -1.49478e-05 0.00022512
0.00204749 0.00024398 -3.85816e-05
0.00024398 -0.00153341 -2.76902e-05
-3.85816e-05 -2.76902e-05 -0.000639331
0.0019524 9.24783e-05 2.96976e-05
9.24783e-05 -0.000641275 -1.9516e-06
2.96976e-05 -1.9516e-06 -0.000357287
0.00242043 -3.68648e-05 2.75693e-06
-3.68648e-05 0.00034984 -6.61893e-06
2.75693e-06 -6.61893e-06 0.000361945
0.00387485 -0.000203537 -4.68661e-05
-0.000203537 0.000876942 -1.15496e-05
-4.68661e-05 -1.15496e-05 0.000857704
0.00262405 -0.000102255 2.69646e-05
-0.000102255 -1.19082e-05 2.46236e-05
2.69646e-05 2.46236e-05 0.000102397
0.012983 -0.000706425 7.95467e-06
-0.000706425 0.00255093 2.82469e-05
7.95467e-06 2.82469e-05 0.00111392
0.013431 0.00363274 0.000913354
0.00363274 0.00541968 -0.000368266
0.000913354 -0.000368266 0.00393994
0.0118573 0.00417611 -1.11439e-05
0.00417611 0.00806735 6.85603e-06
-1.11439e-05 6.85603e-06 0.0069255
0.000319036 -9.6282e-05 1.42649e-06
-9.6282e-05 -7.11458e-05 -2.66972e-07
1.42649e-06 -2.66972e-07 -0.000173603
0.000583642 -1.02441e-05 1.29371e-06
-1.02441e-05 7.79547e-05 -1.3858e-07
1.29371e-06 -1.3858e-07 -8.24445e-06
0.000665071 -8.6721e-05 -1.36008e-06
-8.6721e-05 0.000139193 1.45619e-06
-1.36008e-06 1.45619e-06 4.28829e-05
0.000581003 -4.45178e-05 1.11217e-07
-4.45178e-05 8.27837e-05 4.58398e-07
1.11217e-07 4.58398e-07 -2.20847e-05
0.000657461 7.00914e-05 -2.21574e-06
7.00914e-05 0.000155891 2.21852e-06
-2.21574e-06 2.21852e-06 3.42086e-05
0.000417563 0.000114448 2.07552e-06
0.000114448 -3.18388e-05 5.73558e-06
2.07552e-06 5.73558e-06 -0.000144482
0.000948505 -1.75017e-05 3.69949e-06
-1.75017e-05 0.000327408 1.84801e-06
3.69949e-06 1.84801e-06 0.000202739
0.000502197 -2.4972e-05 -1.47913e-06
-2.4972e-05 3.70819e-05 1.15444e-06
-1.47913e-06 1.15444e-06 -6.80317e-05
0.00240852 -0.000242973 5.80104e-06
-0.000242973 7.8055e-05 2.66743e-07
5.80104e-06 2.66743e-07 0.000174656
0.00185764 -0.000413693 1.39318e-05
-0.000413693 -0.000317318 -5.01879e-06
1.39318e-05 -5.01879e-06 -0.000175661
0.00207936 -0.000651096 5.88606e-06
-0.000651096 7.83056e-05 1.00412e-06
5.88606e-06 1.00412e-06 -6.29828e-05
0.00168648 -0.000635241 2.21296e-05
-0.000635241 0.000464887 8.03252e-07
2.21296e-05 8.03252e-07 8.31237e-05
0.00198454 -0.000773068 2.4829e-06
-0.000773068 0.000312371 5.63015e-06
2.4829e-06 5.63015e-06 3.80472e-05
0.00335948 -0.000925593 1.85469e-05
-0.000925593 0.00176386 2.97249e-07
1.85469e-05 2.97249e-07 0.00111404
0.00318084 -0.00047035 2.5878e-06
-0.00047035 0.00151609 -3.0728e-06
2.5878e-06 -3.0728e-06 0.00117593
0.00057442 -0.000141963 8.70538e-06
-0.000141963 7.48153e-05 -1.40628e-05
8.70538e-06 -1.40628e-05 -0.000120581
0.000545551 -5.07278e-05 -5.88749e-07
-5.07278e-05 2.9153e-05 3.9615e-06
-5.88749e-07 3.9615e-06 -6.86233e-05
0.000640409 -8.49373e-05 6.91262e-06
-8.49373e-05 9.88778e-05 -1.78646e-05
6.91262e-06 -1.78646e-05 -3.63631e-05
0.000950142 -3.31704e-05 1.94416e-06
-3.31704e-05 0.000316463 -2.49273e-07
1.94416e-06 -2.49273e-07 0.000195746
0.000569203 4.4792e-05 2.14869e-06
4.4792e-05 7.44007e-05 1.19081e-06
2.14869e-06 1.19081e-06 1.60347e-05
0.00219469 -0.000322905 -1.37417e-06
-0.000322905 -7.62296e-05 3.30302e-06
-1.37417e-06 3.30302e-06 0.000126053
0.000543173 -2.1598e-05 -2.06437e-06
-2.1598e-05 9.33062e-05 -1.01979e-06
-2.06437e-06 -1.01979e-06 -3.02793e-05
0.000950693 -0.000142587 -5.36319e-06
-0.000142587 0.000304545 5.53247e-06
-5.36319e-06 5.53247e-06 0.000171872
0.0017285 -0.000506705 4.86563e-06
-0.000506705 -0.000204545 -2.09371e-06
4.86563e-06 -2.09371e-06 -0.000149033
0.00169985 -0.000701085 5.71141e-07
-0.000701085 4.76738e-06 -8.3008e-07
5.71141e-07 -8.3008e-07 -0.000202123
0.000878953 -0.000591126 -5.2797e-07
-0.000591126 -0.000125673 -1.20339e-06
-5.2797e-07 -1.20339e-06 -0.000374268
0.00146618 -0.000254022 1.04404e-06
-0.000254022 0.000741726 -1.31598e-05
1.04404e-06 -1.31598e-05 0.000457526
0.00146835 -0.000523512 -2.00419e-06
-0.000523512 0.00103825 2.48715e-06
-2.00419e-06 2.48715e-06 0.000341415
0.00368358 -0.00054364 -4.04546e-05
-0.00054364 0.000635986 7.76441e-06
-4.04546e-05 7.76441e-06 0.000766774
0.00352143 -0.00076588 -4.84706e-05
-0.00076588 0.00098074 1.45729e-05
-4.84706e-05 1.45729e-05 0.000874138
0.00205711 -0.000798647 -8.27945e-06
-0.000798647 0.000291256 1.15986e-06
-8.27945e-06 1.15986e-06 7.84325e-05
-0.000165779 -0.000398943 -1.53991e-05
-0.000398943 -0.000464517 1.70128e-05
-1.53991e-05 1.70128e-05 -0.000649093
0.000493782 -0.000138323 1.91895e-06
-0.000138323 8.01741e-05 5.5763e-06
1.91895e-06 5.5763e-06 -9.28452e-05
0.000506397 -0.00014709 4.10263e-06
-0.00014709 0.000131203 3.87722e-07
4.10263e-06 3.87722e-07 -6.80202e-05
0.00157479 -0.000184258 -2.07598e-06
-0.000184258 0.00106583 -1.3373e-05
-2.07598e-06 -1.3373e-05 0.000518909
-0.00621514 -0.000233191 0.000390959
-0.000233191 -0.0045882 -1.2988e-06
0.000390959 -1.2988e-06 -0.00338904
0.0109222 -0.00023557 4.22767e-05
-0.00023557 0.0020696 4.88504e-06
4.22767e-05 4.88504e-06 0.00167897
0.00165006 0.000225181 7.71502e-06
0.000225181 0.000718434 -6.43768e-06
7.71502e-06 -6.43768e-06 0.000540161
0.0013526 0.000404039 -2.24169e-06
0.000404039 0.000363132 3.77339e-06
-2.24169e-06 3.77339e-06 7.67573e-05
0.00200879 0.000460002 7.54889e-05
0.000460002 8.54242e-05 3.38746e-05
7.54889e-05 3.38746e-05 7.46572e-05
0.00288136 0.000787466 2.64444e-05
0.000787466 0.000731902 8.80354e-06
2.64444e-05 8.80354e-06 0.000480569
0.0026618 0.000673194 1.69097e-05
0.000673194 0.000991872 5.35948e-06
1.69097e-05 5.35948e-06 0.000611626
0.0135551 0.000689474 7.06401e-05
0.000689474 0.00308807 -2.64366e-06
7.06401e-05 -2.64366e-06 0.00207527
0.00804312 0.00163807 -0.000193509
0.00163807 0.000160365 2.45407e-05
-0.000193509 2.45407e-05 0.000335383
0.00260134 0.000922631 4.78555e-06
0.000922631 0.000610136 -2.84956e-05
4.78555e-06 -2.84956e-05 0.000145839
0.0116254 -0.0027878 -0.000318298
-0.0027878 0.00499044 -2.00145e-05
-0.000318298 -2.00145e-05 0.00329935
-0.0026963 -0.00560797 -0.0016058
-0.00560797 6.15779e-05 -0.00111091
-0.0016058 -0.00111091 -0.000543363
0.000999 0.000270415 8.30328e-07
0.000270415 0.000346927 3.59979e-07
8.30328e-07 3.59979e-07 0.000137337
-0.00232946 -0.00162089 0.000298205
-0.00162089 -0.00268325 5.24527e-05
0.000298205 5.24527e-05 -0.00369319
-0.00333793 -0.00125183 -0.000319926
-0.00125183 0.00345377 -0.000152944
-0.000319926 -0.000152944 -0.000541751
0.00302913 0.000789168 -1.70795e-05
0.000789168 0.000645359 -5.89005e-07
-1.70795e-05 -5.89005e-07 0.000580229
0.00101455 0.000343785 -5.83367e-06
0.000343785 0.000179148 4.65518e-06
-5.83367e-06 4.65518e-06 -9.27502e-05
0.00144918 0.00064997 4.09756e-06
0.00064997 0.000344941 2.31068e-06
4.09756e-06 2.31068e-06 6.50756e-06
0.00152951 0.000828096 3.73942e-05
0.000828096 0.000206361 2.17881e-05
3.73942e-05 2.17881e-05 2.61618e-05
0.0131056 0.00154217 -0.000117021
0.00154217 0.00173423 -6.55571e-05
-0.000117021 -6.55571e-05 -0.000206746
0.00540432 0.00228256 -6.64297e-05
0.00228256 0.00049167 -4.57951e-05
-6.64297e-05 -4.57951e-05 0.000345607
0.0156434 -0.0034486 0.00033084
-0.0034486 0.00635142 -2.17783e-05
0.00033084 -2.17783e-05 0.00468749
0.0107334 -0.00296768 0.000198939
-0.00296768 0.000663242 0.000549988
0.000198939 0.000549988 0.000248958
0.00229486 0.000323181 -1.95836e-05
0.000323181 0.00110439 -1.22741e-05
-1.95836e-05 -1.22741e-05 0.000923837
-0.00953962 0.000839857 -0.000121368
0.000839857 0.00234434 -0.000110358
-0.000121368 -0.000110358 -0.00257668
0.00421589 0.000601141 -0.000281566
0.000601141 0.00297779 -0.000372473
-0.000281566 -0.000372473 -0.00114905
0.00233527 0.000638469 -2.60951e-05
0.000638469 0.000522208 8.73924e-06
-2.60951e-05 8.73924e-06 0.000521214
0.00189734 0.0005926 -6.37254e-05
0.0005926 0.000738652 -2.47786e-05
-6.37254e-05 -2.47786e-05 0.000444792
0.00160854 0.000643052 -6.75327e-05
0.000643052 0.00110843 -1.55047e-05
-6.75327e-05 -1.55047e-05 0.000501878
5.6472e-05 0.00142117 -6.20762e-05
0.00142117 -0.000276272 -3.42865e-05
-6.20762e-05 -3.42865e-05 -0.000455801
-0.00060821 0.00182453 0.000279742
0.00182453 -0.00157692 0.000131312
0.000279742 0.000131312 -0.00458086
0.0152765 -0.00414634 0.000236246
-0.00414634 0.00676526 0.000521779
0.000236246 0.000521779 0.00450702
0.00745563 -0.00125192 -0.000109499
-0.00125192 -0.002039 -0.000107652
-0.000109499 -0.000107652 -0.000877308
-0.000393366 0.000105112 2.75622e-06
0.000105112 -0.000421668 -5.85953e-06
2.75622e-06 -5.85953e-06 -0.000542537
0.00133012 0.000221955 9.70428e-06
0.000221955 0.000577629 3.58706e-06
9.70428e-06 3.58706e-06 0.000427534
-0.000228133 8.19354e-05 2.05021e-06
8.19354e-05 -0.000296663 -1.15384e-05
2.05021e-06 -1.15384e-05 -0.000440113
0.000365911 5.12472e-05 1.87214e-06
5.12472e-05 -5.4706e-05 -7.90026e-07
1.87214e-06 -7.90026e-07 -0.00017568
0.000835906 6.55437e-05 -8.85665e-07
6.55437e-05 0.000251897 -1.63804e-06
-8.85665e-07 -1.63804e-06 9.12054e-05
0.000651285 -5.21569e-07 -1.39351e-06
-5.21569e-07 0.000138539 1.74492e-06
-1.39351e-06 1.74492e-06 -1.55776e-05
0.000631455 4.12279e-05 4.6479e-06
4.12279e-05 0.000122767 1.35773e-06
4.6479e-06 1.35773e-06 -3.13458e-05
0.000190846 6.93789e-05 -2.99696e-06
6.93789e-05 -0.000123706 1.20166e-06
-2.99696e-06 1.20166e-06 -0.000259268
0.000748201 4.61291e-05 1.13514e-07
4.61291e-05 0.000202083 -9.04384e-07
1.13514e-07 -9.04384e-07 4.40577e-05
0.000773397 6.85952e-05 6.87932e-07
6.85952e-05 0.000212038 -1.57827e-07
6.87932e-07 -1.57827e-07 6.50911e-05
0.000801671 -5.30513e-05 -8.85236e-07
-5.30513e-05 0.000217733 1.39954e-06
-8.85236e-07 1.39954e-06 6.6068e-05
-0.000412876 2.96197e-05 1.79282e-06
2.96197e-05 -0.000409539 7.28043e-07
1.79282e-06 7.28043e-07 -0.00057648
-0.000710904 3.2379e-05 -1.71965e-06
3.2379e-05 -0.000345415 3.14637e-06
-1.71965e-06 3.14637e-06 -0.000631185
0.000799356 -1.37233e-05 -4.77906e-06
-1.37233e-05 0.000254627 -6.68481e-06
-4.77906e-06 -6.68481e-06 0.000106181
0.000919229 -1.02477e-05 1.84263e-07
-1.02477e-05 0.000313224 -7.69823e-07
1.84263e-07 -7.69823e-07 0.000139996
0.000790301 -6.81511e-05 -2.80908e-07
-6.81511e-05 0.000231129 -1.03632e-06
-2.80908e-07 -1.03632e-06 6.89051e-05
0.00072977 -6.06787e-05 2.02528e-06
-6.06787e-05 0.000149612 4.12136e-06
2.02528e-06 4.12136e-06 2.68985e-05
0.000793591 -6.04026e-05 9.62355e-07
-6.04026e-05 0.000225246 -1.2259e-06
9.62355e-07 -1.2259e-06 6.26406e-05
0.000734983 -1.90773e-05 -1.32327e-06
-1.90773e-05 0.000172357 8.15448e-08
-1.32327e-06 8.15448e-08 4.29606e-05
-1.3246e-05 -6.06792e-05 1.41657e-06
-6.06792e-05 -0.000279316 2.67016e-06
1.41657e-06 2.67016e-06 -0.000387346
0.000402642 -1.94073e-05 1.50552e-06
-1.94073e-05 -1.38515e-05 -2.03775e-07
1.50552e-06 -2.03775e-07 -0.000147559
0.00020099 -6.85533e-06 -5.41878e-06
-6.85533e-06 -0.000114467 -4.61545e-06
-5.41878e-06 -4.61545e-06 -0.000259023
0.000123819 -6.23645e-05 3.01025e-06
-6.23645e-05 -0.000163258 -3.44644e-06
3.01025e-06 -3.44644e-06 -0.000282116
0.000974823 -8.23133e-05 5.68469e-06
-8.23133e-05 0.00023872 -1.18442e-05
5.68469e-06 -1.18442e-05 0.000139823
-0.000408173 -2.02507e-05 5.08847e-07
-2.02507e-05 -0.000602006 2.18006e-06
5.08847e-07 2.18006e-06 -0.00073492
0.000109748 -3.18545e-05 -3.724e-06
-3.18545e-05 -0.000206363 -1.98712e-06
-3.724e-06 -1.98712e-06 -0.000341874
0.000737747 -5.11803e-05 5.80957e-07
-5.11803e-05 0.000157089 -4.98216e-07
5.80957e-07 -4.98216e-07 2.0692e-05
0.000378335 -3.66285e-05 4.10478e-07
-3.66285e-05 -5.07007e-05 -7.38526e-08
4.10478e-07 -7.38526e-08 -0.000182258
0.000708938 -7.474e-05 4.20618e-07
-7.474e-05 0.000177284 4.47528e-08
4.20618e-07 4.47528e-08 3.77384e-05
0.000500349 -1.43449e-05 2.92715e-07
-1.43449e-05 1.8659e-05 1.65412e-06
2.92715e-07 1.65412e-06 -8.84171e-05
0.00086769 -6.63817e-05 -1.43609e-06
-6.63817e-05 0.000272074 3.57582e-07
-1.43609e-06 3.57582e-07 0.000136016
0.000633019 -6.71129e-05 -8.98871e-07
-6.71129e-05 0.000104372 4.55408e-08
-8.98871e-07 4.55408e-08 -5.52054e-06
0.000472448 3.49582e-05 -8.39323e-07
3.49582e-05 -2.04738e-05 3.13018e-06
-8.39323e-07 3.13018e-06 -9.09576e-05
0.000482886 -8.89366e-05 2.09755e-06
-8.89366e-05 7.28782e-06 -8.44806e-07
2.09755e-06 -8.44806e-07 -0.00010484
0.000545178 -2.43969e-05 -3.56171e-07
-2.43969e-05 2.28136e-05 9.01227e-08
-3.56171e-07 9.01227e-08 -4.47384e-05
0.00141533 9.52515e-06 -6.16838e-06
9.52515e-06 0.000532706 6.47494e-06
-6.16838e-06 6.47494e-06 0.000515086
0.000530691 -4.66013e-05 1.51323e-06
-4.66013e-05 2.12128e-05 -2.80406e-06
1.51323e-06 -2.80406e-06 -4.86377e-05
0.000900459 -7.18462e-06 -4.29053e-06
-7.18462e-06 0.000221296 7.26785e-07
-4.29053e-06 7.26785e-07 0.000202539
0.000756546 1.36722e-05 6.51635e-07
1.36722e-05 0.000121049 2.08289e-06
6.51635e-07 2.08289e-06 0.000126432
0.00047108 -6.47551e-06 1.70549e-06
-6.47551e-06 -3.95838e-05 -4.22934e-06
1.70549e-06 -4.22934e-06 -5.96042e-05
0.00248254 1.38323e-05 5.94425e-06
1.38323e-05 0.00118636 4.97765e-08
5.94425e-06 4.97765e-08 0.00120005
0.00248757 2.17404e-06 -3.77504e-07
2.17404e-06 0.00118935 -5.09043e-06
-3.77504e-07 -5.09043e-06 0.00120304
0.000995542 7.45055e-05 -4.31806e-07
7.45055e-05 0.000329173 -5.08424e-08
-4.31806e-07 -5.08424e-08 0.000236909
0.000537734 5.15119e-05 -1.30982e-06
5.15119e-05 1.85409e-05 -2.12826e-06
-1.30982e-06 -2.12826e-06 -2.81439e-05
0.000579949 -1.30728e-05 3.15448e-07
-1.30728e-05 7.95257e-05 8.57563e-07
3.15448e-07 8.57563e-07 -1.17471e-05
0.000527722 5.04031e-06 8.8007e-07
5.04031e-06 -2.48855e-05 -3.19807e-06
8.8007e-07 -3.19807e-06 -3.25861e-05
0.000515171 -1.48447e-05 4.52505e-07
-1.48447e-05 7.82893e-07 -8.35461e-08
4.52505e-07 -8.35461e-08 -4.19279e-05
0.000564268 -4.92163e-05 -1.59592e-06
-4.92163e-05 3.09433e-05 1.34011e-06
-1.59592e-06 1.34011e-06 -1.41417e-05
0.000518992 7.46874e-06 -3.71403e-07
7.46874e-06 -3.05784e-05 -2.65805e-08
-3.71403e-07 -2.65805e-08 -3.83703e-05
0.00197283 1.86608e-05 1.05729e-06
1.86608e-05 0.000869795 -4.59728e-06
1.05729e-06 -4.59728e-06 0.000887891
0.00109438 2.20768e-05 -7.95207e-07
2.20768e-05 0.000324349 1.79106e-06
-7.95207e-07 1.79106e-06 0.000319195
0.00133492 2.67557e-05 -3.24699e-07
2.67557e-05 0.000477447 -1.77103e-08
-3.24699e-07 -1.77103e-08 0.000491278
0.000819938 3.1827e-05 -1.07613e-05
3.1827e-05 0.000164552 6.98596e-06
-1.07613e-05 6.98596e-06 0.000172737
-0.00933694 0.000801453 0.000334836
0.000801453 -0.00364308 -5.24894e-06
0.000334836 -5.24894e-06 -0.00558145
-0.00224324 -9.99117e-05 0.00063907
-9.99117e-05 0.0043318 -0.000150587
0.00063907 -0.000150587 0.00150999
0.00358972 0.000267218 -0.000197137
0.000267218 -0.00100157 -2.56123e-05
-0.000197137 -2.56123e-05 0.000111152
0.000919328 4.95625e-05 2.17549e-05
4.95625e-05 -0.00116021 -3.52413e-05
2.17549e-05 -3.52413e-05 -0.000872264
0.00157744 -5.44256e-05 1.04614e-05
-5.44256e-05 -0.000227774 8.56526e-06
1.04614e-05 8.56526e-06 -0.000214433
-0.000809849 5.53343e-05 -5.93062e-05
5.53343e-05 -0.00112716 -1.76279e-05
-5.93062e-05 -1.76279e-05 -0.000549319
0.00353684 -0.000252826 1.89107e-07
-0.000252826 0.00051357 4.73195e-06
1.89107e-07 4.73195e-06 0.000551197
0.0108891 9.90252e-06 0.000127401
9.90252e-06 0.000258274 -4.68897e-05
0.000127401 -4.68897e-05 -0.000703066
-0.00094036 0.00235668 -8.58963e-06
0.00235668 0.000167959 -4.29954e-05
-8.58963e-06 -4.29954e-05 -0.00230413
0.00531822 0.00466533 -0.000326724
0.00466533 0.00432725 0.00017592
-0.000326724 0.00017592 0.00363563
0.00225322 -0.000495965 6.90549e-05
-0.000495965 -0.00127889 -3.58582e-05
6.90549e-05 -3.58582e-05 -0.000645893
0.0144164 -0.00133194 0.000168922
-0.00133194 0.00249185 -5.99485e-05
0.000168922 -5.99485e-05 0.000864228
0.00932146 0.00450077 0.000305195
0.00450077 0.00225342 -0.000449291
0.000305195 -0.000449291 0.000938994
0.0134083 0.00296428 -0.000297608
0.00296428 0.00323038 0.000212839
-0.000297608 0.000212839 0.00219355
0.000796855 0.000125813 -1.99333e-06
0.000125813 0.000246915 2.98473e-06
-1.99333e-06 2.98473e-06 9.86012e-05
0.000411941 2.77963e-05 7.60456e-08
2.77963e-05 -2.37532e-05 -8.84577e-07
7.60456e-08 -8.84577e-07 -0.000120713
0.000597953 -9.33762e-05 -2.88032e-07
-9.33762e-05 9.38906e-05 6.37155e-07
-2.88032e-07 6.37155e-07 2.79398e-06
0.000580834 -1.68339e-06 2.72968e-06
-1.68339e-06 8.96115e-05 -1.15275e-06
2.72968e-06 -1.15275e-06 -1.97e-05
0.000621037 5.99434e-05 1.56394e-06
5.99434e-05 0.00014003 1.25008e-06
1.56394e-06 1.25008e-06 1.71441e-05
0.000633625 2.6363e-05 9.52565e-07
2.6363e-05 0.000142504 5.69227e-06
9.52565e-07 5.69227e-06 -5.3325e-06
0.000732213 9.34392e-05 1.20623e-06
9.34392e-05 0.000179606 2.38207e-06
1.20623e-06 2.38207e-06 5.34503e-05
0.000529508 4.35345e-05 5.04346e-06
4.35345e-05 4.00698e-05 9.62252e-07
5.04346e-06 9.62252e-07 -8.82028e-05
0.000727777 -3.36079e-05 2.23487e-06
-3.36079e-05 0.000192017 -1.07275e-06
2.23487e-06 -1.07275e-06 6.66557e-05
0.00049086 -7.6453e-06 3.02574e-08
-7.6453e-06 1.63121e-05 -1.3617e-06
3.02574e-08 -1.3617e-06 -8.29201e-05
0.0015984 -0.000288902 2.32723e-05
-0.000288902 -0.000326386 -1.6298e-06
2.32723e-05 -1.6298e-06 -0.000149104
0.00107403 -0.000466321 3.54383e-05
-0.000466321 -0.00056753 -8.83124e-06
3.54383e-05 -8.83124e-06 -0.000486004
0.000592748 -0.000575484 1.32065e-05
-0.000575484 -0.000604412 -1.27509e-06
1.32065e-05 -1.27509e-06 -0.000742871
-5.97358e-05 -0.000503831 5.8002e-06
-0.000503831 -0.000634028 1.65249e-06
5.8002e-06 1.65249e-06 -0.000868006
0.00309683 -0.000524381 6.12729e-06
-0.000524381 0.0018584 2.44916e-05
6.12729e-06 2.44916e-05 0.00126981
0.00043818 -0.000353578 6.2053e-06
-0.000353578 0.000114192 -3.59427e-06
6.2053e-06 -3.59427e-06 -0.000224249
0.00144235 -0.000178428 1.42999e-06
-0.000178428 0.000585543 -1.09834e-06
1.42999e-06 -1.09834e-06 0.000467537
0.000843658 -3.49888e-05 -2.68664e-06
-3.49888e-05 0.000274624 2.39533e-06
-2.68664e-06 2.39533e-06 0.000148953
0.00223144 -0.000433467 1.30818e-05
-0.000433467 -8.20285e-05 -6.74523e-06
1.30818e-05 -6.74523e-06 7.79331e-05
0.000516815 -6.42643e-05 -1.58982e-09
-6.42643e-05 9.81463e-05 3.21309e-07
-1.58982e-09 3.21309e-07 -8.4573e-05
-7.69087e-05 -0.000133259 6.5331e-07
-0.000133259 -0.000208861 -3.2104e-06
6.5331e-07 -3.2104e-06 -0.000408695
0.00197906 -0.000645395 1.19794e-05
-0.000645395 0.000132665 -1.78443e-06
1.19794e-05 -1.78443e-06 8.19496e-05
0.00180268 -0.000794384 1.13905e-07
-0.000794384 7.37506e-05 4.30024e-06
1.13905e-07 4.30024e-06 -8.34204e-05
0.00019209 -0.000501292 1.4395e-05
-0.000501292 -0.000250006 -8.8991e-06
1.4395e-05 -8.8991e-06 -0.00049214
0.00136238 -0.00025432 1.15416e-07
-0.00025432 0.000928458 -1.09552e-05
1.15416e-07 -1.09552e-05 0.000392012
0.00250622 -0.000681213 -6.26356e-05
-0.000681213 0.000528885 2.01522e-05
-6.26356e-05 2.01522e-05 0.000213504
0.00149517 -0.000618865 -4.40996e-05
-0.000618865 8.59837e-05 1.3225e-05
-4.40996e-05 1.3225e-05 2.34691e-05
0.00115067 -0.000502652 -6.89583e-05
-0.000502652 0.000571613 4.36561e-05
-6.89583e-05 4.36561e-05 0.000212526
-0.00170755 -0.00012988 -1.20587e-06
-0.00012988 -0.00122859 7.32332e-06
-1.20587e-06 7.32332e-06 -0.00141469
-0.000196908 -0.000108552 4.51192e-06
-0.000108552 -0.000276207 5.2903e-06
4.51192e-06 5.2903e-06 -0.000498154
0.000702362 -5.91877e-05 7.61423e-06
-5.91877e-05 0.000352943 -3.19624e-06
7.61423e-06 -3.19624e-06 2.9703e-05
-0.00151156 0.00080558 -0.000282049
0.00080558 0.00584001 1.42923e-05
-0.000282049 1.42923e-05 0.0023435
0.00103073 -0.000980052 2.64903e-07
-0.000980052 0.00175898 2.32121e-05
2.64903e-07 2.32121e-05 0.00149881
0.00161502 0.000985817 -8.3962e-05
0.000985817 -0.00430931 -3.33706e-05
-8.3962e-05 -3.33706e-05 -0.00461665
0.000199036 0.000197947 7.59232e-06
0.000197947 -0.000111557 -2.58768e-06
7.59232e-06 -2.58768e-06 -0.000312866
0.00126582 0.000440968 9.0759e-06
0.000440968 0.00035477 1.70231e-05
9.0759e-06 1.70231e-05 4.37271e-05
0.00384486 0.000745374 5.59699e-05
0.000745374 0.00109434 1.53801e-05
5.59699e-05 1.53801e-05 0.00102608
0.00168186 0.000695419 2.08956e-05
0.000695419 0.000480026 2.0413e-05
2.08956e-05 2.0413e-05 0.000120982
0.0102378 -0.00185366 0.000132986
-0.00185366 0.00345423 4.15293e-05
0.000132986 4.15293e-05 0.00335395
0.00379351 0.000673643 -0.000292652
0.000673643 -0.00313886 -3.23652e-05
-0.000292652 -3.23652e-05 -0.00508072
0.00432857 0.00210891 -2.32563e-05
0.00210891 -9.02412e-05 1.08086e-05
-2.32563e-05 1.08086e-05 -0.000112673
0.00242307 0.000708648 3.9814e-05
0.000708648 0.000928811 -2.59656e-05
3.9814e-05 -2.59656e-05 0.00079261
8.65307e-05 -0.00226932 -0.000296574
-0.00226932 0.00094146 -0.000276859
-0.000296574 -0.000276859 -0.000968626
-0.000811839 -0.00199556 -0.000370345
-0.00199556 0.0036717 -0.00012652
-0.000370345 -0.00012652 -0.000397807
0.0168622 -0.00372401 0.000447557
-0.00372401 0.003877 0.000277123
0.000447557 0.000277123 0.00348939
0.000593543 0.000197599 1.2678e-05
0.000197599 0.000120376 -3.49524e-06
1.2678e-05 -3.49524e-06 -5.80183e-05
-0.00365787 0.00031658 -0.00014439
0.00031658 0.00403279 -3.20678e-05
-0.00014439 -3.20678e-05 -9.46941e-05
0.00466284 0.000744574 -6.00404e-05
0.000744574 0.00266364 -0.000133675
-6.00404e-05 -0.000133675 -0.00175578
0.00170065 0.000636054 1.72601e-06
0.000636054 0.000264452 5.47989e-06
1.72601e-06 5.47989e-06 0.000204302
0.000473059 0.000439144 8.86802e-06
0.000439144 4.39117e-05 3.68466e-06
8.86802e-06 3.68466e-06 -0.000262162
2.92605e-05 0.000628073 -1.85151e-05
0.000628073 9.22813e-05 -5.20443e-05
-1.85151e-05 -5.20443e-05 -0.00036162
0.00356974 0.00216494 3.17211e-06
0.00216494 0.00109389 1.17995e-05
3.17211e-06 1.17995e-05 0.00075831
0.0159198 0.00244377 7.87822e-05
0.00244377 0.00457741 2.40568e-05
7.87822e-05 2.40568e-05 0.00247018
0.00605443 -0.00263443 6.63144e-05
-0.00263443 0.00130329 -6.5354e-05
6.63144e-05 -6.5354e-05 -0.00140811
0.0129084 -0.00192057 -3.12026e-06
-0.00192057 0.00175509 -5.83561e-05
-3.12026e-06 -5.83561e-05 0.00307092
0.00018842 0.000273264 -5.76264e-06
0.000273264 -6.80946e-05 -1.37528e-05
-5.76264e-06 -1.37528e-05 -0.000263553
0.0023938 0.00016944 -0.000234297
0.00016944 0.00160711 -4.81543e-05
-0.000234297 -4.81543e-05 -0.00176095
0.000297619 0.000370245 -6.47165e-05
0.000370245 -0.000152235 -0.000142675
-6.47165e-05 -0.000142675 -0.00167151
-0.000940654 0.000190401 -1.54745e-06
0.000190401 -0.00037268 -2.36065e-05
-1.54745e-06 -2.36065e-05 -0.000577347
-9.13936e-05 0.000383226 -0.000100034
0.000383226 0.00105786 1.36553e-05
-0.000100034 1.36553e-05 0.00025738
0.0126972 0.00303949 6.54595e-05
0.00303949 0.00446769 -1.40909e-05
6.54595e-05 -1.40909e-05 0.000759676
-0.00463239 -0.00373751 -1.44443e-05
-0.00373751 -0.00163151 0.000210311
-1.44443e-05 0.000210311 -0.00522422
0.0103494 0.000558326 4.52852e-05
0.000558326 -0.00142702 -0.000267747
4.52852e-05 -0.000267747 0.00114107
0.000936333 0.000170773 -1.24985e-06
0.000170773 0.000317156 1.29936e-05
-1.24985e-06 1.29936e-05 0.000181051
0.000921669 0.000194213 -8.93976e-06
0.000194213 0.000399893 -2.3839e-06
-8.93976e-06 -2.3839e-06 0.000235686
9.35133e-05 0.000114192 2.58496e-06
0.000114192 9.24703e-05 -5.59678e-06
2.58496e-06 -5.59678e-06 -0.000169388
0.000719555 8.29559e-05 -1.84367e-06
8.29559e-05 0.000170867 -1.98252e-06
-1.84367e-06 -1.98252e-06 2.26169e-05
0.000972605 -3.79992e-05 -7.90232e-07
-3.79992e-05 0.000327631 2.85939e-06
-7.90232e-07 2.85939e-06 0.000169354
0.000582992 6.54418e-05 2.73938e-06
6.54418e-05 8.73844e-05 1.85115e-06
2.73938e-06 1.85115e-06 -5.28846e-05
-0.000849799 1.43236e-05 2.4498e-06
1.43236e-05 -0.000646287 2.23744e-06
2.4498e-06 2.23744e-06 -0.000816602
0.000777647 -2.19351e-05 1.18406e-06
-2.19351e-05 0.000204567 1.57952e-07
1.18406e-06 1.57952e-07 4.85803e-05
0.00070234 1.71015e-05 -7.79242e-08
1.71015e-05 0.000199746 -2.08308e-06
-7.79242e-08 -2.08308e-06 4.72597e-05
-0.000179577 -6.57503e-06 5.84019e-07
-6.57503e-06 -2.71307e-05 2.47171e-06
5.84019e-07 2.47171e-06 -0.000314101
-0.000806469 2.27643e-05 -2.20852e-06
2.27643e-05 -0.000163589 6.59779e-06
-2.20852e-06 6.59779e-06 -0.000593855
8.46796e-05 7.27897e-06 -2.63995e-06
7.27897e-06 0.000146274 -3.62162e-06
-2.63995e-06 -3.62162e-06 -0.000153732
0.000811749 1.91267e-05 -1.32484e-06
1.91267e-05 0.000243521 -5.68992e-06
-1.32484e-06 -5.68992e-06 9.8562e-05
0.000830758 -0.000130783 1.25438e-06
-0.000130783 0.000233071 1.09022e-06
1.25438e-06 1.09022e-06 7.96329e-05
0.00061864 -9.2872e-06 -4.29053e-07
-9.2872e-06 9.2053e-05 1.11872e-06
-4.29053e-07 1.11872e-06 -3.26326e-05
0.000554442 -8.49736e-05 6.20035e-07
-8.49736e-05 7.55102e-05 8.46794e-06
6.20035e-07 8.46794e-06 -2.63949e-05
0.000347265 -3.37101e-05 2.04477e-06
-3.37101e-05 -4.12792e-05 2.8611e-06
2.04477e-06 2.8611e-06 -0.000174634
0.000650166 -2.84321e-05 5.79451e-07
-2.84321e-05 0.000132948 1.81151e-07
5.79451e-07 1.81151e-07 -3.60299e-07
0.00052802 -4.21742e-05 -3.49335e-08
-4.21742e-05 7.62906e-05 -1.51406e-06
-3.49335e-08 -1.51406e-06 -4.0358e-05
0.000702791 -4.64257e-05 -4.39837e-06
-4.64257e-05 0.000159184 -4.99757e-06
-4.39837e-06 -4.99757e-06 4.12579e-05
0.000296922 -5.09938e-05 5.73623e-06
-5.09938e-05 5.65596e-05 -6.57796e-06
5.73623e-06 -6.57796e-06 -8.60427e-05
0.000111361 -0.000123641 3.90989e-07
-0.000123641 -0.000356039 1.25318e-06
3.90989e-07 1.25318e-06 -0.000448318
0.000812533 -0.000119474 -6.81239e-06
-0.000119474 0.000156386 -6.55312e-07
-6.81239e-06 -6.55312e-07 4.90015e-05
0.000276195 -0.000130092 6.36659e-06
-0.000130092 -0.000165227 4.38272e-06
6.36659e-06 4.38272e-06 -0.000310951
0.0019092 -0.000405146 1.82478e-06
-0.000405146 0.000728343 1.3988e-05
1.82478e-06 1.3988e-05 0.000456614
0.00170659 -0.000187885 1.97686e-06
-0.000187885 0.000747087 -3.93314e-06
1.97686e-06 -3.93314e-06 0.000572975
-0.000100563 -6.26529e-05 -7.07843e-06
-6.26529e-05 -0.000376084 -4.4284e-06
-7.07843e-06 -4.4284e-06 -0.000507872
0.00056579 -5.17693e-05 -5.50285e-08
-5.17693e-05 4.94024e-05 1.42736e-07
-5.50285e-08 1.42736e-07 -8.56819e-05
7.5702e-05 -3.60991e-05 -5.58286e-07
-3.60991e-05 -0.000229603 -1.07682e-06
-5.58286e-07 -1.07682e-06 -0.000370299
0.000873544 -7.59845e-05 -1.22549e-06
-7.59845e-05 0.000234669 1.1628e-06
-1.22549e-06 1.1628e-06 9.69905e-05
0.000770693 -9.09519e-05 -7.83161e-07
-9.09519e-05 0.000201633 5.46691e-07
-7.83161e-07 5.46691e-07 5.71054e-05
0.000594123 -4.82041e-05 -2.97154e-07
-4.82041e-05 6.29542e-05 1.57993e-06
-2.97154e-07 1.57993e-06 -4.44893e-05
0.00114394 -0.00012603 -6.30807e-07
-0.00012603 0.000461253 -1.09827e-06
-6.30807e-07 -1.09827e-06 0.000302497
0.00065685 -8.22127e-05 -4.8037e-07
-8.22127e-05 0.000115267 -3.6892e-08
-4.8037e-07 -3.6892e-08 3.83673e-06
0.00052433 1.67653e-05 -2.18885e-06
1.67653e-05 8.45413e-06 2.67335e-06
-2.18885e-06 2.67335e-06 -6.28873e-05
0.00071798 -0.000112879 1.69053e-06
-0.000112879 0.000158025 -1.89716e-06
1.69053e-06 -1.89716e-06 4.40266e-05
0.000602502 -3.85485e-05 -2.31565e-07
-3.85485e-05 5.46985e-05 1.28255e-07
-2.31565e-07 1.28255e-07 -1.44223e-05
0.00143015 1.4819e-05 -1.06558e-05
1.4819e-05 0.000538523 6.69066e-06
-1.06558e-05 6.69066e-06 0.000519422
0.000560306 -5.46225e-05 2.39246e-06
-5.46225e-05 3.77023e-05 -2.96106e-06
2.39246e-06 -2.96106e-06 -3.36502e-05
0.000907535 -8.31368e-07 -5.29561e-06
-8.31368e-07 0.000221105 6.61923e-07
-5.29561e-06 6.61923e-07 0.000201043
0.000778578 2.28406e-05 6.50263e-07
2.28406e-05 0.000133511 2.50156e-06
6.50263e-07 2.50156e-06 0.000136931
0.000478599 -1.3044e-05 1.3389e-06
-1.3044e-05 -3.92795e-05 -4.45245e-06
1.3389e-06 -4.45245e-06 -6.00238e-05
0.00161866 2.31482e-05 7.88396e-06
2.31482e-05 0.000653855 -1.47793e-06
7.88396e-06 -1.47793e-06 0.000663244
0.00245798 1.51655e-05 6.90683e-06
1.51655e-05 0.00117088 -5.08687e-06
6.90683e-06 -5.08687e-06 0.0011846
0.000610593 3.30668e-05 2.07707e-06
3.30668e-05 7.80788e-05 -9.9804e-07
2.07707e-06 -9.9804e-07 -1.63683e-05
0.000607928 4.97095e-05 -6.89996e-07
4.97095e-05 5.73716e-05 -1.87544e-06
-6.89996e-07 -1.87544e-06 8.33153e-06
0.000634448 -1.43619e-06 1.18526e-06
-1.43619e-06 0.000103965 5.27281e-07
1.18526e-06 5.27281e-07 1.37113e-05
0.000514175 6.44569e-07 1.291e-06
6.44569e-07 -3.21062e-05 -3.51876e-06
1.291e-06 -3.51876e-06 -4.05557e-05
0.000530301 4.1348e-05 1.23933e-07
4.1348e-05 1.05294e-05 -7.69416e-08
1.23933e-07 -7.69416e-08 -3.40897e-05
0.000573324 -0.000104116 -3.60165e-06
-0.000104116 6.90628e-05 8.5207e-07
-3.60165e-06 8.5207e-07 -1.70594e-05
0.00198757 5.29717e-06 -3.92722e-06
5.29717e-06 0.000877181 -4.69924e-06
-3.92722e-06 -4.69924e-06 0.000895833
0.000509552 3.91361e-06 -2.24915e-07
3.91361e-06 -3.54896e-05 1.47565e-08
-2.24915e-07 1.47565e-08 -4.32057e-05
0.000536352 -1.81304e-05 -2.01708e-06
-1.81304e-05 1.181e-05 1.61476e-06
-2.01708e-06 1.61476e-06 -2.97676e-05
0.000499476 6.635e-06 -1.21559e-06
6.635e-06 -4.28689e-05 3.07298e-06
-1.21559e-06 3.07298e-06 -5.05864e-05
0.0019999 2.01485e-05 -4.72378e-06
2.01485e-05 0.000886652 -7.64954e-08
-4.72378e-06 -7.64954e-08 0.00090458
0.00195976 3.30787e-05 -7.41291e-06
3.30787e-05 0.000864205 4.33707e-06
-7.41291e-06 4.33707e-06 0.000881449
-0.00623346 -0.00110573 -0.000122045
-0.00110573 0.003765 4.18436e-05
-0.000122045 4.18436e-05 0.000373999
0.000739666 0.000893962 -0.000176496
0.000893962 1.45932e-05 4.95802e-05
-0.000176496 4.95802e-05 -0.00126096
0.00296155 -0.00076063 -0.000477967
-0.00076063 0.00116797 0.000222254
-0.000477967 0.000222254 -0.00297911
-0.00245537 0.000156179 0.000766163
0.000156179 0.00432204 -0.000281467
0.000766163 -0.000281467 0.00129097
0.000971355 0.000403854 -1.50092e-05
0.000403854 -0.00133698 -2.49255e-05
-1.50092e-05 -2.49255e-05 -0.000803377
0.00243988 -0.000316244 9.09385e-05
-0.000316244 -0.000213062 3.38137e-06
9.09385e-05 3.38137e-06 -0.000169645
0.000636572 -0.000364978 0.000171528
-0.000364978 -0.00365241 -6.8834e-05
0.000171528 -6.8834e-05 -0.0055963
0.0158259 0.0021839 -0.000437961
0.0021839 0.00726697 3.35793e-05
-0.000437961 3.35793e-05 0.00541565
-0.0022655 0.00537086 -0.00153321
0.00537086 -4.49961e-05 0.00109949
-0.00153321 0.00109949 -0.000582687
0.00374037 -0.000375748 9.20577e-06
-0.000375748 -0.000350849 7.61572e-06
9.20577e-06 7.61572e-06 7.52761e-06
0.00812538 -0.00130714 0.000107331
-0.00130714 -0.000507281 -9.59589e-05
0.000107331 -9.59589e-05 -0.00286016
0.0174345 0.00389927 -0.000208602
0.00389927 0.00513431 -9.74217e-05
-0.000208602 -9.74217e-05 0.00397961
0.00964503 0.00306096 -7.32966e-05
0.00306096 0.000695174 0.000296424
-7.32966e-05 0.000296424 -0.000557367
0.00167712 -0.00115677 -9.02829e-05
-0.00115677 -0.00229069 1.73395e-05
-9.02829e-05 1.73395e-05 -0.0016598
0.00387619 -0.0021694 0.0002841
-0.0021694 -0.00023527 -0.000191212
0.0002841 -0.000191212 -0.00409724
0.000182279 0.00250014 2.40965e-05
0.00250014 -0.00166459 -0.000585159
2.40965e-05 -0.000585159 -0.00370688
0.00711068 0.00116245 -0.0001763
0.00116245 -0.0027873 2.15262e-06
-0.0001763 2.15262e-06 -0.00153942
0.0015664 -6.48999e-05 2.39456e-06
-6.48999e-05 0.000759852 1.0266e-05
2.39456e-06 1.0266e-05 0.000558453
0.000581321 0.000108835 -1.77959e-06
0.000108835 0.00010194 -2.02993e-06
-1.77959e-06 -2.02993e-06 -3.07032e-05
0.000560305 8.76756e-05 2.08447e-07
8.76756e-05 5.99778e-05 -1.95383e-06
2.08447e-07 -1.95383e-06 -3.22212e-05
0.000542782 4.47732e-05 4.8187e-06
4.47732e-05 9.37645e-05 1.51977e-08
4.8187e-06 1.51977e-08 -2.62352e-05
0.000527417 7.43259e-05 3.62251e-06
7.43259e-05 6.14776e-05 2.5589e-06
3.62251e-06 2.5589e-06 -0.000105349
0.000604347 4.94974e-05 -1.03213e-07
4.94974e-05 0.000119932 1.97244e-06
-1.03213e-07 1.97244e-06 -1.88682e-05
0.000503385 4.47308e-05 3.97284e-07
4.47308e-05 4.17777e-05 -1.4493e-06
3.97284e-07 -1.4493e-06 -8.26596e-05
0.000877479 0.000153617 2.74931e-06
0.000153617 0.000278605 3.52584e-06
2.74931e-06 3.52584e-06 0.000123103
0.000841976 0.000108191 4.85183e-09
0.000108191 0.000262094 3.30207e-07
4.85183e-09 3.30207e-07 0.000112067
0.000416117 -1.46961e-05 -4.65313e-06
-1.46961e-05 -6.82724e-06 -3.75849e-06
-4.65313e-06 -3.75849e-06 -0.000128255
0.000584984 -0.000337633 6.12824e-05
-0.000337633 -0.000937234 -2.42769e-05
6.12824e-05 -2.42769e-05 -0.000754838
0.000488972 -0.000545832 3.43e-05
-0.000545832 -0.000689196 -1.09978e-05
3.43e-05 -1.09978e-05 -0.000706205
0.00147539 -0.000767987 7.52985e-06
-0.000767987 -0.000140163 5.46729e-06
7.52985e-06 5.46729e-06 -0.000254551
-0.000389292 -0.000506766 9.7676e-06
-0.000506766 -0.000558673 -1.35482e-05
9.7676e-06 -1.35482e-05 -0.000862483
0.00271394 -0.000319865 -9.68289e-06
-0.000319865 0.00158678 4.01862e-05
-9.68289e-06 4.01862e-05 0.00115725
0.000697775 -0.000129505 -2.91519e-06
-0.000129505 0.000264896 2.71066e-06
-2.91519e-06 2.71066e-06 5.40042e-05
0.000468578 9.67055e-05 -1.98844e-06
9.67055e-05 7.09752e-05 -1.00208e-05
-1.98844e-06 -1.00208e-05 -0.000115381
0.000626516 -9.35146e-05 -1.49139e-06
-9.35146e-05 0.000185553 6.98128e-06
-1.49139e-06 6.98128e-06 -3.18629e-05
0.00149206 -0.000568558 7.36356e-07
-0.000568558 -0.00014481 -4.40841e-06
7.36356e-07 -4.40841e-06 -0.000264656
0.000669051 -3.88459e-05 5.28888e-07
-3.88459e-05 0.000210231 3.56624e-06
5.28888e-07 3.56624e-06 9.71436e-07
0.00177548 -0.000210081 3.3176e-07
-0.000210081 0.000988997 -1.19618e-06
3.3176e-07 -1.19618e-06 0.000652358
0.00146528 -0.000624663 1.43252e-06
-0.000624663 4.43016e-05 3.97971e-06
1.43252e-06 3.97971e-06 -4.58278e-06
0.000774549 -0.000526888 -1.78587e-05
-0.000526888 0.000293495 6.39211e-06
-1.78587e-05 6.39211e-06 -4.81553e-05
0.00283556 -0.00108681 2.17206e-05
-0.00108681 0.000517694 -1.98625e-05
2.17206e-05 -1.98625e-05 0.00046985
-0.000189252 -0.000402118 -1.41662e-05
-0.000402118 -0.000405564 1.90922e-05
-1.41662e-05 1.90922e-05 -0.000493021
-0.000737077 -5.29729e-05 6.49516e-06
-5.29729e-05 -0.000309437 8.67162e-06
6.49516e-06 8.67162e-06 -0.00075588
0.000647184 1.02431e-05 -1.56334e-06
1.02431e-05 0.000159456 -1.14949e-06
-1.56334e-06 -1.14949e-06 -2.4048e-05
0.00104613 3.09607e-05 7.87773e-06
3.09607e-05 0.000529837 -5.6792e-06
7.87773e-06 -5.6792e-06 0.000271426
0.00144406 3.75583e-05 -2.40601e-05
3.75583e-05 0.00164588 -1.1933e-05
-2.40601e-05 -1.1933e-05 -0.00148257
-0.0049797 0.000288382 -0.000240875
0.000288382 0.00511914 -1.18812e-05
-0.000240875 -1.18812e-05 0.00113707
-0.0120407 -0.00153247 -0.000491489
-0.00153247 -0.00578161 -1.88057e-05
-0.000491489 -1.88057e-05 -0.00576502
-0.000650087 0.000131845 7.91565e-06
0.000131845 -0.000582312 -6.93982e-07
7.91565e-06 -6.93982e-07 -0.000775112
-0.000524028 0.000351668 -1.39352e-06
0.000351668 -0.000435142 1.11884e-05
-1.39352e-06 1.11884e-05 -0.000756951
0.00150122 0.000710187 3.1118e-05
0.000710187 0.000157957 1.34448e-05
3.1118e-05 1.34448e-05 7.39254e-05
-0.00513282 0.00124065 1.95287e-05
0.00124065 0.00406494 4.13177e-05
1.95287e-05 4.13177e-05 0.000343292
0.0037036 0.00205 -0.000173507
0.00205 1.21172e-05 -0.000138283
-0.000173507 -0.000138283 -0.00379079
0.00230722 0.00158124 0.000296647
0.00158124 0.000542642 9.12643e-05
0.000296647 9.12643e-05 0.000349135
-0.00031708 0.000605778 1.04075e-05
0.000605778 -0.000273577 -3.77511e-05
1.04075e-05 -3.77511e-05 -0.000423118
0.0190361 -0.00273725 -0.000111904
-0.00273725 0.00590195 -0.000243617
-0.000111904 -0.000243617 0.0041335
0.00508742 0.000898754 0.000329185
0.000898754 0.00261929 0.000122897
0.000329185 0.000122897 -0.00210962
0.0126716 -0.00168122 0.000108991
-0.00168122 0.00193503 2.81669e-05
0.000108991 2.81669e-05 0.00331461
0.000847313 0.000336743 3.772e-06
0.000336743 0.00037915 -2.32302e-06
3.772e-06 -2.32302e-06 0.000170625
0.00376764 0.000308106 5.17004e-06
0.000308106 0.00238156 1.37534e-05
5.17004e-06 1.37534e-05 -0.000146703
0.0010286 0.000370761 4.11731e-05
0.000370761 2.64714e-06 8.70001e-06
4.11731e-05 8.70001e-06 -0.00156644
-0.00065353 0.000341958 -2.03584e-06
0.000341958 -0.000322029 -2.65774e-06
-2.03584e-06 -2.65774e-06 -0.000583018
0.00101123 0.000862004 -9.45627e-05
0.000862004 0.00108092 -4.31846e-05
-9.45627e-05 -4.31846e-05 -5.0509e-05
0.00171417 0.00297022 0.000132011
0.00297022 0.000696937 8.2272e-05
0.000132011 8.2272e-05 -0.003169
0.00806135 0.000181759 -1.29894e-05
0.000181759 -0.00324226 -0.000180239
-1.29894e-05 -0.000180239 -0.000371699
0.00389231 -0.0021158 -5.39478e-05
-0.0021158 0.00204032 -0.000112277
-5.39478e-05 -0.000112277 -0.00136069
0.00114042 0.000279328 -3.81598e-06
0.000279328 0.000800034 -1.80743e-05
-3.81598e-06 -1.80743e-05 0.000552605
-0.0015961 4.5901e-05 5.43086e-06
4.5901e-05 -0.000157153 4.46795e-06
5.43086e-06 4.46795e-06 -0.000157994
0.00370784 -6.82859e-06 6.49887e-05
-6.82859e-06 -0.000189863 -0.000136032
6.49887e-05 -0.000136032 -0.00118949
0.00713971 0.00123202 0.000182939
0.00123202 -0.00257617 -1.36853e-05
0.000182939 -1.36853e-05 -0.00145654
-0.00170739 0.000107413 1.34107e-05
0.000107413 -6.85012e-05 -3.14777e-05
1.34107e-05 -3.14777e-05 -0.000756926
0.012081 0.00240648 0.000201343
0.00240648 0.00546784 5.67721e-05
0.000201343 5.67721e-05 0.000913831
-0.00444127 -0.000456349 8.66828e-05
-0.000456349 0.00103703 0.000333306
8.66828e-05 0.000333306 -0.00178492
0.00266547 0.000356648 2.17355e-05
0.000356648 0.00146372 1.72442e-05
2.17355e-05 1.72442e-05 0.00126536
0.000674105 0.000190154 -5.48787e-06
0.000190154 0.000448245 -1.80744e-06
-5.48787e-06 -1.80744e-06 0.000156014
-0.000147769 8.10644e-05 2.01915e-06
8.10644e-05 0.000198647 2.37746e-06
2.01915e-06 2.37746e-06 -0.000153386
0.000673855 0.000149914 8.52148e-07
0.000149914 0.000156639 8.12078e-07
8.52148e-07 8.12078e-07 -6.45187e-06
0.000426124 5.2e-05 2.05657e-06
5.2e-05 2.51785e-05 2.1723e-06
2.05657e-06 2.1723e-06 -0.000122253
0.00075797 -7.38024e-06 9.73831e-06
-7.38024e-06 0.000543086 5.25629e-07
9.73831e-06 5.25629e-07 0.000243323
0.000519617 3.34178e-05 2.14385e-07
3.34178e-05 5.94029e-05 -6.37335e-07
2.14385e-07 -6.37335e-07 -7.6574e-05
0.00076381 -1.79668e-05 -2.88856e-06
-1.79668e-05 0.000533291 -2.37343e-06
-2.88856e-06 -2.37343e-06 0.000244458
7.43892e-05 3.79228e-05 1.16579e-06
3.79228e-05 0.000329737 4.71113e-07
1.16579e-06 4.71113e-07 -8.49011e-05
-5.8982e-05 1.30029e-05 -9.55515e-06
1.30029e-05 0.000160647 -3.59943e-06
-9.55515e-06 -3.59943e-06 -0.000144038
0.000219392 -2.55776e-05 -5.37039e-07
-2.55776e-05 0.000159402 -6.73202e-06
-5.37039e-07 -6.73202e-06 -9.16911e-05
0.000363889 -6.2475e-05 1.48378e-06
-6.2475e-05 -4.66595e-05 7.44283e-06
1.48378e-06 7.44283e-06 -0.000167651
0.000838777 -3.70775e-05 -1.30966e-06
-3.70775e-05 0.000244845 1.06451e-06
-1.30966e-06 1.06451e-06 0.000111043
0.00106808 -4.37188e-05 -1.00784e-05
-4.37188e-05 0.000401664 8.19118e-06
-1.00784e-05 8.19118e-06 0.000284244
0.000722646 -6.7363e-05 3.06231e-06
-6.7363e-05 0.000289417 -3.21868e-07
3.06231e-06 -3.21868e-07 0.000155816
0.000652282 -4.48404e-05 -1.20163e-06
-4.48404e-05 0.000128616 -5.90189e-07
-1.20163e-06 -5.90189e-07 1.1621e-05
0.000396388 -0.00012346 1.3122e-06
-0.00012346 1.53828e-05 7.93422e-07
1.3122e-06 7.93422e-07 -0.000116744
0.000131733 -0.000114494 -7.37356e-06
-0.000114494 -0.000267547 -1.39171e-06
-7.37356e-06 -1.39171e-06 -0.000336403
-0.000906951 -0.000212681 9.15366e-06
-0.000212681 -0.000846382 9.39037e-06
9.15366e-06 9.39037e-06 -0.00107925
0.000635011 -0.000164243 2.96664e-06
-0.000164243 6.47818e-05 5.89062e-07
2.96664e-06 5.89062e-07 -4.99058e-05
0.00123464 -0.00023979 -1.57486e-06
-0.00023979 0.000401393 6.86227e-06
-1.57486e-06 6.86227e-06 0.000228994
0.0018385 -0.000435673 -7.99848e-06
-0.000435673 0.000691765 8.78153e-06
-7.99848e-06 8.78153e-06 0.000395314
0.00135599 -0.000375436 -5.39658e-06
-0.000375436 0.000292938 3.50092e-07
-5.39658e-06 3.50092e-07 3.47384e-06
0.00111124 -0.00026273 -2.47456e-06
-0.00026273 0.000374375 4.85385e-06
-2.47456e-06 4.85385e-06 0.000148512
0.000237341 -0.000214562 9.38546e-06
-0.000214562 -0.000276294 -2.8831e-06
9.38546e-06 -2.8831e-06 -0.000505056
0.00104692 -0.000126488 1.58939e-06
-0.000126488 0.000364796 -2.23033e-06
1.58939e-06 -2.23033e-06 0.000179419
0.00125978 -0.000179816 -4.91001e-06
-0.000179816 0.000503213 -3.97474e-07
-4.91001e-06 -3.97474e-07 0.000319176
0.000130354 -9.80772e-05 6.53593e-06
-9.80772e-05 -0.000200118 -1.26647e-05
6.53593e-06 -1.26647e-05 -0.000328089
0.00102787 -7.34424e-05 -1.07912e-07
-7.34424e-05 0.000309193 1.38771e-06
-1.07912e-07 1.38771e-06 0.000174379
0.000287666 -5.61189e-05 5.16009e-07
-5.61189e-05 -9.83267e-05 -4.62717e-07
5.16009e-07 -4.62717e-07 -0.000241948
0.000646873 -4.05127e-05 1.24223e-07
-4.05127e-05 8.5302e-05 7.05722e-07
1.24223e-07 7.05722e-07 -2.73582e-05
0.00102308 -0.000140678 -7.69028e-07
-0.000140678 0.000370367 1.08762e-07
-7.69028e-07 1.08762e-07 0.000213005
0.000661161 -6.8489e-05 -1.36086e-07
-6.8489e-05 0.000115099 2.5753e-08
-1.36086e-07 2.5753e-08 -2.07529e-06
0.000526876 2.05189e-05 8.33845e-07
2.05189e-05 1.78995e-05 3.13517e-06
8.33845e-07 3.13517e-06 -6.30011e-05
0.000759506 -0.0001046 3.34502e-07
-0.0001046 0.000189015 -2.2034e-06
3.34502e-07 -2.2034e-06 6.86926e-05
0.000540416 1.16784e-05 -1.65985e-06
1.16784e-05 2.27289e-05 -1.46173e-07
-1.65985e-06 -1.46173e-07 -5.20133e-05
0.00137806 2.86027e-05 -1.20114e-05
2.86027e-05 0.000507745 4.53043e-06
-1.20114e-05 4.53043e-06 0.00048758
0.000605421 -4.97121e-05 2.74946e-06
-4.97121e-05 5.90325e-05 -3.18192e-06
2.74946e-06 -3.18192e-06 -1.19866e-05
0.000910912 9.94082e-06 -6.33667e-06
9.94082e-06 0.000219569 6.32717e-07
-6.33667e-06 6.32717e-07 0.000198302
0.000822057 3.25743e-05 -1.09314e-07
3.25743e-05 0.000159915 2.716e-06
-1.09314e-07 2.716e-06 0.000161357
0.000484816 -4.37092e-06 1.38336e-06
-4.37092e-06 -4.0819e-05 -4.97422e-06
1.38336e-06 -4.97422e-06 -6.29526e-05
0.00166451 3.54187e-05 1.07948e-05
3.54187e-05 0.000681198 -1.30947e-06
1.07948e-05 -1.30947e-06 0.000689124
0.00247317 3.05339e-05 1.06473e-05
3.05339e-05 0.00117951 -5.27422e-06
1.06473e-05 -5.27422e-06 0.00119259
0.000349878 1.19377e-05 1.27011e-06
1.19377e-05 -7.02352e-05 -3.58381e-07
1.27011e-06 -3.58381e-07 -0.000186516
0.000239151 1.39323e-05 3.18116e-07
1.39323e-05 -0.000171073 -3.28158e-06
3.18116e-07 -3.28158e-06 -0.000228358
0.00066699 3.81105e-05 -2.44184e-09
3.81105e-05 0.000120979 1.19102e-07
-2.44184e-09 1.19102e-07 1.99285e-05
0.000512166 -1.52563e-06 1.14981e-06
-1.52563e-06 -3.39713e-05 -3.66697e-06
1.14981e-06 -3.66697e-06 -4.4032e-05
0.000375431 2.98317e-06 1.45951e-06
2.98317e-06 -8.89506e-05 -1.5741e-08
1.45951e-06 -1.5741e-08 -0.000136893
0.000349828 -9.20987e-05 -2.02849e-06
-9.20987e-05 -7.03321e-05 1.50523e-07
-2.02849e-06 1.50523e-07 -0.00016248
0.00205769 -8.45372e-06 -8.57992e-06
-8.45372e-06 0.000920005 -4.74441e-06
-8.57992e-06 -4.74441e-06 0.000938292
0.000508859 2.31706e-07 -5.05734e-08
2.31706e-07 -3.57989e-05 -4.87396e-08
-5.05734e-08 -4.87396e-08 -4.40945e-05
0.000493001 -1.86577e-05 -2.4158e-06
-1.86577e-05 -1.54278e-05 1.95146e-06
-2.4158e-06 1.95146e-06 -5.78962e-05
0.00201152 6.70317e-06 -4.33859e-06
6.70317e-06 0.000892255 1.51473e-08
-4.33859e-06 1.51473e-08 0.000910715
0.000494998 3.23562e-06 -1.13511e-06
3.23562e-06 -4.38681e-05 3.15687e-06
-1.13511e-06 3.15687e-06 -5.16235e-05
0.00198037 2.14096e-05 -7.35569e-07
2.14096e-05 0.000874646 4.54594e-06
-7.35569e-07 4.54594e-06 0.000892584
0.000149553 -0.000461978 -0.000178253
-0.000461978 -0.000220748 5.25491e-05
-0.000178253 5.25491e-05 -0.00254017
0.00131046 0.000321525 -6.56191e-05
0.000321525 0.00560214 4.06025e-06
-6.56191e-05 4.06025e-06 0.0028349
0.00134563 -0.000277161 -0.000521972
-0.000277161 0.00301751 7.80355e-05
-0.000521972 7.80355e-05 0.0015236
0.00071536 0.000106473 3.27986e-06
0.000106473 0.000150972 2.27883e-06
3.27986e-06 2.27883e-06 7.3848e-06
0.00403686 -0.0005594 -3.10263e-05
-0.0005594 0.0028246 0.000166043
-3.10263e-05 0.000166043 0.0011128
0.00384748 -0.000908965 -0.000204413
-0.000908965 0.00150426 1.57863e-05
-0.000204413 1.57863e-05 -0.0025603
0.00622825 0.00171001 0.000311647
0.00171001 0.00564026 -0.000242335
0.000311647 -0.000242335 0.00305634
0.00600899 -0.000593975 7.22699e-05
-0.000593975 0.000834103 -2.32748e-05
7.22699e-05 -2.32748e-05 0.000803655
0.012295 -0.00139558 0.000199471
-0.00139558 0.00161072 -8.41927e-05
0.000199471 -8.41927e-05 5.4071e-05
0.00246428 0.00339016 -0.000379327
0.00339016 -0.00213875 0.000312956
-0.000379327 0.000312956 -0.00318531
0.0101795 0.00312853 3.4339e-05
0.00312853 0.0024 0.00013868
3.4339e-05 0.00013868 0.000667179
0.00616915 -0.0014526 -0.000117877
-0.0014526 0.000231467 -6.29603e-06
-0.000117877 -6.29603e-06 0.000287742
0.015683 -0.00227322 4.70143e-05
-0.00227322 0.00459709 -2.36391e-05
4.70143e-05 -2.36391e-05 0.00231835
0.00816255 0.00205275 0.000134766
0.00205275 0.00152251 -0.000239994
0.000134766 -0.000239994 -0.000678769
0.00920923 0.00113447 1.38909e-05
0.00113447 -0.00114352 2.31916e-05
1.38909e-05 2.31916e-05 -0.000371055
0.00287527 -0.00185642 -2.08171e-05
-0.00185642 -0.000159993 3.14532e-05
-2.08171e-05 3.14532e-05 -0.000538137
0.0112125 -0.00285679 0.000135169
-0.00285679 0.00486397 -8.61961e-05
0.000135169 -8.61961e-05 0.000741111
0.00666871 -4.25457e-05 0.000119197
-4.25457e-05 0.00253449 -0.000337487
0.000119197 -0.000337487 0.000803739
0.0101263 0.000649281 -8.86201e-05
0.000649281 -0.00131382 0.000183178
-8.86201e-05 0.000183178 0.00101592
0.000761717 -1.05835e-05 3.70291e-06
-1.05835e-05 0.000249084 4.68376e-06
3.70291e-06 4.68376e-06 5.92845e-05
0.000818952 -0.00010332 -4.63888e-07
-0.00010332 0.000299712 3.40552e-07
-4.63888e-07 3.40552e-07 0.000101795
0.000694465 0.000128073 -3.60929e-07
0.000128073 0.000173544 -4.28229e-06
-3.60929e-07 -4.28229e-06 3.87373e-05
0.000661113 8.9266e-05 1.23849e-06
8.9266e-05 0.00010442 5.03179e-06
1.23849e-06 5.03179e-06 -3.34516e-05
0.000743129 0.000131828 -3.57931e-08
0.000131828 0.000206554 6.51789e-07
-3.57931e-08 6.51789e-07 3.65184e-05
0.000934747 7.57103e-05 -4.89765e-06
7.57103e-05 0.000324407 -2.5115e-06
-4.89765e-06 -2.5115e-06 0.000185756
0.0010137 0.000150954 -1.18073e-06
0.000150954 0.0003628 -7.11742e-09
-1.18073e-06 -7.11742e-09 0.000205932
0.00104453 0.000164419 4.20766e-07
0.000164419 0.00040184 1.99205e-06
4.20766e-07 1.99205e-06 0.000241647
-7.13833e-05 -0.000375713 7.77983e-05
-0.000375713 -0.00105125 -3.92554e-05
7.77983e-05 -3.92554e-05 -0.000982246
0.00190038 -0.000677504 7.25506e-06
-0.000677504 0.000233215 -1.42928e-05
7.25506e-06 -1.42928e-05 0.000200578
0.000935073 -0.000207316 -7.45797e-07
-0.000207316 0.000382167 -1.56722e-05
-7.45797e-07 -1.56722e-05 0.000149185
0.00136571 -0.000593657 2.28387e-05
-0.000593657 0.00059979 -2.33899e-05
2.28387e-05 -2.33899e-05 0.000265554
0.0023466 -0.000349914 -1.23007e-05
-0.000349914 0.00128939 7.99804e-06
-1.23007e-05 7.99804e-06 0.000960088
0.00120401 -0.000109325 -1.28678e-06
-0.000109325 0.000520854 -1.45507e-05
-1.28678e-06 -1.45507e-05 0.000309017
0.000268943 -4.17014e-05 1.47664e-06
-4.17014e-05 -6.64139e-05 4.41974e-06
1.47664e-06 4.41974e-06 -0.000248777
6.07808e-05 -0.000806258 1.74027e-07
-0.000806258 -0.000925997 -2.72382e-06
1.74027e-07 -2.72382e-06 -0.000893008
0.00122681 3.94655e-05 -6.62251e-07
3.94655e-05 0.000642776 1.19055e-06
-6.62251e-07 1.19055e-06 0.000372369
0.00089422 -0.000214669 3.86117e-06
-0.000214669 0.000539023 1.83897e-06
3.86117e-06 1.83897e-06 0.00015731
0.000510835 -0.000367265 1.43484e-05
-0.000367265 -2.49689e-05 3.48691e-06
1.43484e-05 3.48691e-06 -6.49395e-05
0.00135998 0.000120204 -1.07641e-07
0.000120204 0.000566707 -7.78537e-07
-1.07641e-07 -7.78537e-07 0.000417992
0.00144953 -0.000797441 -1.03105e-05
-0.000797441 0.000213544 -3.57392e-05
-1.03105e-05 -3.57392e-05 0.000153471
-0.000573454 -0.000336033 -1.7847e-05
-0.000336033 -0.000357314 2.45639e-05
-1.7847e-05 2.45639e-05 -0.000560361
-0.000452623 6.65351e-05 1.47898e-05
6.65351e-05 4.46067e-05 -5.87734e-06
1.47898e-05 -5.87734e-06 -0.000495855
0.0011426 0.000207939 1.76962e-06
0.000207939 0.000529737 -3.80048e-06
1.76962e-06 -3.80048e-06 0.00034077
-0.000635303 4.30817e-05 4.20656e-05
4.30817e-05 0.000939214 1.13841e-06
4.20656e-05 1.13841e-06 0.000291528
0.000827239 -3.46181e-05 0.000116259
-3.46181e-05 0.00123115 -2.51584e-05
0.000116259 -2.51584e-05 -0.00186567
-0.00873295 -0.00020914 -0.000197659
-0.00020914 0.00453059 1.80907e-05
-0.000197659 1.80907e-05 -4.67261e-05
0.00147126 0.000383856 1.56891e-05
0.000383856 0.000829155 4.58463e-06
1.56891e-05 4.58463e-06 0.000608789
-0.00132956 0.000453902 4.30643e-06
0.000453902 -0.000733431 1.40511e-05
4.30643e-06 1.40511e-05 -0.00108763
0.00499512 0.000366571 0.000188383
0.000366571 0.00298758 2.74024e-05
0.000188383 2.74024e-05 0.00126674
0.00939043 0.00227071 0.000238708
0.00227071 0.00364337 0.000138176
0.000238708 0.000138176 -0.000379788
0.00304496 0.00143768 -7.86549e-05
0.00143768 0.00185512 -7.90337e-05
-7.86549e-05 -7.90337e-05 0.00059947
0.00526771 -0.00165869 -0.000107217
-0.00165869 0.00295612 -0.000358045
-0.000107217 -0.000358045 0.000244349
0.00179835 0.000351413 9.26867e-05
0.000351413 0.000152215 0.000167567
9.26867e-05 0.000167567 -0.00138847
0.00596401 -0.000119748 -3.39507e-05
-0.000119748 -0.005097 -0.000200979
-3.39507e-05 -0.000200979 -0.0018161
0.000756821 0.00029934 3.27415e-06
0.00029934 0.000574137 -4.68709e-07
3.27415e-06 -4.68709e-07 0.000305692
-0.00140946 3.09252e-06 -1.06521e-06
3.09252e-06 -0.00013023 -6.67674e-07
-1.06521e-06 -6.67674e-07 -0.000218139
0.00356266 5.11329e-05 7.41922e-05
5.11329e-05 -0.000114914 2.25676e-05
7.41922e-05 2.25676e-05 -0.000543138
-0.00130468 0.000294106 -9.49237e-06
0.000294106 -0.000339203 -7.22334e-06
-9.49237e-06 -7.22334e-06 -0.000927755
0.00910959 0.00123892 -9.05253e-06
0.00123892 -0.00106728 -2.00841e-05
-9.05253e-06 -2.00841e-05 -0.000380982
0.00346229 0.0014004 0.000164644
0.0014004 0.00327193 0.000102925
0.000164644 0.000102925 -0.00167173
0.00521686 0.000634715 -0.000130883
0.000634715 0.00291453 2.56614e-06
-0.000130883 2.56614e-06 0.000409114
0.000463446 0.000312875 -1.00141e-05
0.000312875 0.000434908 -2.19779e-05
-1.00141e-05 -2.19779e-05 3.9292e-05
0.00130241 5.49177e-05 1.49803e-05
5.49177e-05 -0.000271686 -2.24054e-05
1.49803e-05 -2.24054e-05 -0.000107
0.00364497 -0.000573587 2.32002e-05
-0.000573587 0.00277636 -0.000169149
2.32002e-05 -0.000169149 0.00119345
0.0133247 0.00317763 0.000279664
0.00317763 0.00307417 -0.000213104
0.000279664 -0.000213104 0.00212571
0.00668601 -3.82876e-05 -9.67209e-05
-3.82876e-05 0.00266752 0.000343086
-9.67209e-05 0.000343086 0.000828572
0.000676713 0.000311603 -5.8228e-06
0.000311603 0.000434013 -0.000105253
-5.8228e-06 -0.000105253 3.72706e-05
0.00191926 0.00143797 0.000210032
0.00143797 0.00442411 4.26212e-05
0.000210032 4.26212e-05 -0.0026769
0.00179735 0.000326721 2.77453e-06
0.000326721 0.00105497 1.72509e-05
2.77453e-06 1.72509e-05 0.000771736
0.000715603 0.000190949 1.8753e-06
0.000190949 0.00066523 -7.4664e-07
1.8753e-06 -7.4664e-07 0.000330345
0.000106475 -2.37471e-05 -1.07936e-05
-2.37471e-05 0.000392013 -1.18107e-05
-1.07936e-05 -1.18107e-05 0.000129311
0.000139566 -4.09158e-05 8.98841e-07
-4.09158e-05 -0.000186497 5.70486e-06
8.98841e-07 5.70486e-06 -0.000309116
0.00126027 -1.05366e-06 4.35203e-06
-1.05366e-06 0.000808534 -3.13751e-08
4.35203e-06 -3.13751e-08 0.000532089
0.000536037 2.63569e-05 2.23268e-06
2.63569e-05 0.000568041 -2.41806e-06
2.23268e-06 -2.41806e-06 0.000173922
0.000444717 -3.98695e-05 8.7032e-07
-3.98695e-05 0.000244587 -1.53888e-07
8.7032e-07 -1.53888e-07 3.63042e-05
-9.06598e-05 -1.30673e-05 3.89456e-06
-1.30673e-05 0.000143041 1.37451e-06
3.89456e-06 1.37451e-06 -0.000169122
0.00114667 -0.000224944 1.42995e-06
-0.000224944 0.000701303 -1.24652e-05
1.42995e-06 -1.24652e-05 0.000440102
0.000909874 -7.95927e-05 -4.20051e-06
-7.95927e-05 0.000380429 7.52342e-06
-4.20051e-06 7.52342e-06 0.000256162
0.000457601 -1.3653e-05 -1.10919e-06
-1.3653e-05 1.11528e-05 2.5179e-06
-1.10919e-06 2.5179e-06 -0.000103817
0.00133332 -0.00020774 2.64593e-06
-0.00020774 0.000561206 3.56002e-06
2.64593e-06 3.56002e-06 0.000411376
-0.00130632 -0.000206349 1.37426e-05
-0.000206349 -0.000893419 6.47819e-06
1.37426e-05 6.47819e-06 -0.00117114
0.00011438 -0.000104386 -5.99461e-09
-0.000104386 -0.000208109 -2.36049e-07
-5.99461e-09 -2.36049e-07 -0.000253854
-0.000242578 -0.000247408 1.96555e-06
-0.000247408 -0.000476806 -2.92508e-06
1.96555e-06 -2.92508e-06 -0.000690268
0.00113884 -0.000412906 5.75861e-06
-0.000412906 0.00021949 -4.27458e-06
5.75861e-06 -4.27458e-06 -0.000128663
0.00150735 -0.000479929 -2.69639e-06
-0.000479929 0.000325642 -1.92102e-07
-2.69639e-06 -1.92102e-07 -2.34448e-05
0.00209513 -0.000341197 1.32523e-06
-0.000341197 0.000909206 -4.52176e-07
1.32523e-06 -4.52176e-07 0.000711201
0.00124712 -0.000371186 1.635e-06
-0.000371186 0.000312899 4.35667e-07
1.635e-06 4.35667e-07 1.95627e-05
0.00161001 -0.000406701 2.2754e-06
-0.000406701 0.000431724 -1.84353e-06
2.2754e-06 -1.84353e-06 0.000145298
0.000783156 -0.000269672 -3.19984e-06
-0.000269672 3.72205e-05 4.39527e-06
-3.19984e-06 4.39527e-06 -0.000207514
0.000793163 -0.000307093 7.65596e-07
-0.000307093 -4.03208e-05 -4.16137e-06
7.65596e-07 -4.16137e-06 -0.000310098
0.000447173 -0.000113914 1.23079e-06
-0.000113914 2.83149e-05 -2.41799e-06
1.23079e-06 -2.41799e-06 -0.000194921
0.00117603 -0.000295484 -6.12791e-06
-0.000295484 0.000428752 4.12028e-06
-6.12791e-06 4.12028e-06 0.000186348
-0.00145988 -2.02671e-05 -3.6746e-06
-2.02671e-05 -0.00129667 -6.04065e-06
-3.6746e-06 -6.04065e-06 -0.00148251
0.000438439 -3.73257e-05 8.53081e-07
-3.73257e-05 -4.12216e-05 8.05825e-07
8.53081e-07 8.05825e-07 -0.000165766
0.000604658 -0.000104064 -9.58588e-09
-0.000104064 0.000110292 -7.97547e-08
-9.58588e-09 -7.97547e-08 -7.29088e-05
0.00084867 -0.000174855 5.49957e-06
-0.000174855 0.000279482 -1.75655e-06
5.49957e-06 -1.75655e-06 8.49787e-05
0.000551032 -7.62734e-05 4.61988e-07
-7.62734e-05 6.3771e-05 8.3497e-07
4.61988e-07 8.3497e-07 -8.25913e-05
0.000700362 -5.87867e-05 -4.73362e-07
-5.87867e-05 0.000132351 1.63986e-07
-4.73362e-07 1.63986e-07 8.93987e-06
0.00051462 1.32069e-05 5.73483e-07
1.32069e-05 2.60759e-06 3.84876e-06
5.73483e-07 3.84876e-06 -8.29027e-05
0.000801425 -8.70827e-05 -1.44057e-08
-8.70827e-05 0.000211246 -1.19055e-06
-1.44057e-08 -1.19055e-06 8.46812e-05
0.000566434 1.08255e-05 -1.17562e-06
1.08255e-05 3.73677e-05 -2.35396e-07
-1.17562e-06 -2.35396e-07 -4.09873e-05
0.000465022 3.26451e-05 -5.55711e-07
3.26451e-05 -4.94031e-05 5.63264e-06
-5.55711e-07 5.63264e-06 -7.76654e-05
0.000677137 -4.43096e-05 2.18045e-06
-4.43096e-05 0.000100314 -3.09772e-06
2.18045e-06 -3.09772e-06 2.81154e-05
0.000491003 1.56758e-05 -1.19916e-07
1.56758e-05 -4.03833e-05 -3.68514e-08
-1.19916e-07 -3.68514e-08 -6.49788e-05
0.00246591 8.60715e-05 -3.01756e-06
8.60715e-05 0.00117994 2.33089e-06
-3.01756e-06 2.33089e-06 0.00118672
0.000495128 5.29365e-06 1.68013e-06
5.29365e-06 -3.76861e-05 -5.20027e-06
1.68013e-06 -5.20027e-06 -6.12583e-05
0.00169965 4.86078e-05 1.30591e-05
4.86078e-05 0.000703621 -1.09607e-06
1.30591e-05 -1.09607e-06 0.000709534
0.00253504 4.64879e-05 1.68996e-05
4.64879e-05 0.00121777 -5.35277e-06
1.68996e-05 -5.35277e-06 0.00122951
0.000317871 1.14541e-05 1.0532e-06
1.14541e-05 -0.00010573 -1.31664e-06
1.0532e-06 -1.31664e-06 -0.000214717
0.000250548 7.76849e-06 8.495e-07
7.76849e-06 -0.000167145 -3.01968e-06
8.495e-07 -3.01968e-06 -0.000232561
0.000515355 2.54603e-05 -4.85852e-07
2.54603e-05 3.04175e-05 -1.12318e-06
-4.85852e-07 -1.12318e-06 -8.27159e-05
0.000524229 -5.60448e-06 1.67685e-06
-5.60448e-06 -2.6999e-05 -4.05044e-06
1.67685e-06 -4.05044e-06 -3.96607e-05
0.000225755 1.13594e-05 -6.17897e-07
1.13594e-05 -0.000179643 -1.55147e-06
-6.17897e-07 -1.55147e-06 -0.000238231
0.000677435 4.64918e-05 -6.91139e-07
4.64918e-05 0.000137925 1.30875e-06
-6.91139e-07 1.30875e-06 3.00469e-05
0.00209586 -2.1812e-05 -1.38612e-05
-2.1812e-05 0.000943252 -4.64483e-06
-1.38612e-05 -4.64483e-06 0.000960975
0.000509864 -2.8888e-06 -4.13295e-07
-2.8888e-06 -3.58349e-05 -6.1113e-08
-4.13295e-07 -6.1113e-08 -4.56238e-05
0.00017279 1.02177e-05 7.60329e-07
1.02177e-05 -0.000210684 1.67173e-06
7.60329e-07 1.67173e-06 -0.000261975
0.00203163 -7.03394e-06 -3.90342e-06
-7.03394e-06 0.000903783 5.16988e-08
-3.90342e-06 5.16988e-08 0.000922284
0.000501102 -5.19654e-08 -1.25664e-06
-5.19654e-08 -4.0822e-05 3.41529e-06
-1.25664e-06 3.41529e-06 -4.89144e-05
0.00203506 8.2106e-06 4.3177e-06
8.2106e-06 0.000907067 4.70007e-06
4.3177e-06 4.70007e-06 0.000925282
0.000396393 -2.34772e-05 6.70619e-05
-2.34772e-05 0.00111355 1.56606e-05
6.70619e-05 1.56606e-05 0.000913433
6.35813e-05 -0.000268865 -2.53351e-05
-0.000268865 0.000166587 -1.47724e-05
-2.53351e-05 -1.47724e-05 -0.00263783
0.000491191 0.000275494 3.09795e-05
0.000275494 0.00532014 -3.08208e-05
3.09795e-05 -3.08208e-05 0.00262821
0.000760639 0.000114847 7.71878e-08
0.000114847 0.000171181 2.50017e-07
7.71878e-08 2.50017e-07 3.62879e-05
0.000499651 7.83187e-05 3.5078e-06
7.83187e-05 -4.45867e-06 1.20932e-06
3.5078e-06 1.20932e-06 -0.000128507
0.000984772 0.000163185 4.67624e-06
0.000163185 0.00030843 3.84175e-06
4.67624e-06 3.84175e-06 0.00016815
0.00421289 -0.000101857 -2.12495e-05
-0.000101857 -0.000371848 0.000216127
-2.12495e-05 0.000216127 -0.00109885
0.00398395 -0.000542194 5.32424e-05
-0.000542194 0.00264916 -5.09943e-06
5.32424e-05 -5.09943e-06 0.00132255
0.00441834 -0.00106384 0.000113781
-0.00106384 0.00184671 -0.000186907
0.000113781 -0.000186907 -0.00234823
0.00784817 -0.00180082 -6.4092e-05
-0.00180082 0.000781077 -1.79174e-05
-6.4092e-05 -1.79174e-05 0.00102076
0.000608035 -0.00192796 -0.000252152
-0.00192796 -0.00144987 0.000100658
-0.000252152 0.000100658 -0.00443149
0.0190674 0.00291338 0.000130541
0.00291338 0.00743335 0.00010301
0.000130541 0.00010301 0.00484852
0.00548313 0.000153851 0.000177119
0.000153851 -0.00308299 -0.000170454
0.000177119 -0.000170454 -0.00278457
0.00493221 -0.00210625 -3.28141e-05
-0.00210625 0.000628261 1.24389e-05
-3.28141e-05 1.24389e-05 0.000411881
0.00727632 -0.00247666 -7.44662e-05
-0.00247666 0.00294398 2.26091e-05
-7.44662e-05 2.26091e-05 -0.00110876
-0.00344856 0.0026448 -7.10688e-05
0.0026448 0.00192579 -0.0002321
-7.10688e-05 -0.0002321 -0.00158806
0.00805505 0.00024163 -4.25869e-05
0.00024163 -0.00334871 0.000104304
-4.25869e-05 0.000104304 -0.000420978
0.000898189 -0.00121121 -9.68973e-05
-0.00121121 0.000174884 2.60148e-05
-9.68973e-05 2.60148e-05 -0.00014027
0.0108816 -0.00229105 -0.000180252
-0.00229105 0.00522176 0.000122435
-0.000180252 0.000122435 0.000803405
-0.00485347 -3.2492e-06 3.64053e-05
-3.2492e-06 0.00119018 -0.000294433
3.64053e-05 -0.000294433 -0.00184799
0.00724604 -0.00125962 8.1457e-05
-0.00125962 -0.00199863 2.87571e-05
8.1457e-05 2.87571e-05 -0.00103101
0.000448614 8.20206e-05 2.64839e-06
8.20206e-05 2.53299e-06 9.87499e-06
2.64839e-06 9.87499e-06 -0.00013936
0.000739821 -1.7662e-05 2.46665e-06
-1.7662e-05 0.000225066 -1.97504e-06
2.46665e-06 -1.97504e-06 3.00717e-05
0.000893915 -0.000109216 -7.54996e-07
-0.000109216 0.000314768 -7.10378e-06
-7.54996e-07 -7.10378e-06 0.000124222
0.000694578 0.000105327 -1.50127e-06
0.000105327 0.000128197 3.85466e-07
-1.50127e-06 3.85466e-07 -1.45931e-05
0.000792146 0.000139064 1.4506e-07
0.000139064 0.000240353 -2.59809e-06
1.4506e-07 -2.59809e-06 7.70616e-05
0.00113989 0.000165667 -3.58999e-06
0.000165667 0.000444636 -1.71072e-06
-3.58999e-06 -1.71072e-06 0.000284097
-0.00120898 -0.000685961 1.89782e-05
-0.000685961 -0.00163447 -1.06116e-06
1.89782e-05 -1.06116e-06 -0.00157147
0.00028567 -0.000275433 2.71143e-05
-0.000275433 -0.000156263 -2.31618e-05
2.71143e-05 -2.31618e-05 -0.000142033
0.000109535 2.01094e-05 -2.56599e-06
2.01094e-05 -0.000156685 -7.65645e-06
-2.56599e-06 -7.65645e-06 -0.000344327
0.00131006 -0.000349015 4.58473e-05
-0.000349015 0.000709131 -2.69714e-05
4.58473e-05 -2.69714e-05 0.000360138
0.00138245 -4.01775e-05 -6.15768e-06
-4.01775e-05 0.000727924 -2.06064e-06
-6.15768e-06 -2.06064e-06 0.000461432
0.000630226 9.5925e-05 2.12399e-06
9.5925e-05 0.000153971 1.98304e-06
2.12399e-06 1.98304e-06 -5.88601e-06
0.000924372 0.00015309 -4.16496e-07
0.00015309 0.000389174 -2.38422e-06
-4.16496e-07 -2.38422e-06 0.000222171
0.000318239 -0.000829917 3.88754e-06
-0.000829917 -0.000421267 -4.04514e-06
3.88754e-06 -4.04514e-06 -0.000570324
0.000117648 8.83239e-06 -5.8338e-06
8.83239e-06 0.000323355 3.84568e-06
-5.8338e-06 3.84568e-06 -0.0001371
0.00135841 -0.000243455 9.87703e-06
-0.000243455 0.000682162 -6.95875e-06
9.87703e-06 -6.95875e-06 0.000453878
0.00116099 0.000154076 1.95043e-06
0.000154076 0.000519647 -5.80425e-06
1.95043e-06 -5.80425e-06 0.000370972
-0.00271264 -8.32618e-05 -0.000113116
-8.32618e-05 -0.000818178 -1.69457e-05
-0.000113116 -1.69457e-05 -0.00150524
8.9199e-05 -0.000126281 -1.66854e-05
-0.000126281 0.000299844 1.27656e-05
-1.66854e-05 1.27656e-05 2.14692e-05
0.000263119 0.000121872 4.02075e-06
0.000121872 0.000363775 8.10531e-06
4.02075e-06 8.10531e-06 -4.19156e-06
0.000145932 5.08935e-05 -2.34646e-06
5.08935e-05 -0.000545773 3.3089e-07
-2.34646e-06 3.3089e-07 -0.00108378
-0.00101967 5.36869e-05 1.10227e-05
5.36869e-05 0.000637653 -1.55726e-05
1.10227e-05 -1.55726e-05 9.18459e-05
9.80719e-05 -0.000107227 0.000253838
-0.000107227 0.000800096 8.00621e-06
0.000253838 8.00621e-06 -0.00230614
-0.000594742 0.000220281 -5.20568e-06
0.000220281 -0.000205309 1.99404e-05
-5.20568e-06 1.99404e-05 -0.000499737
0.000853513 0.000629433 -4.49044e-06
0.000629433 0.000341828 -4.7533e-06
-4.49044e-06 -4.7533e-06 -0.000134667
-0.00129075 -1.73116e-05 -1.46613e-06
-1.73116e-05 -0.000131289 -5.9518e-06
-1.46613e-06 -5.9518e-06 -0.000317046
-0.00377208 0.000644401 5.33937e-05
0.000644401 0.00149556 0.000134468
5.33937e-05 0.000134468 -0.00324994
-0.00618784 0.00108334 -0.000165794
0.00108334 -0.00294487 -0.000386038
-0.000165794 -0.000386038 -0.00622885
0.00311891 8.34442e-05 6.17256e-05
8.34442e-05 -7.87829e-05 9.53236e-05
6.17256e-05 9.53236e-05 -7.64701e-05
0.00536232 0.000226881 -0.000182508
0.000226881 -0.00290366 0.00017077
-0.000182508 0.00017077 -0.00274903
0.000446059 0.000261489 3.42428e-06
0.000261489 0.000463599 -1.22999e-06
3.42428e-06 -1.22999e-06 0.000125071
0.00104421 4.20379e-06 2.31124e-05
4.20379e-06 -0.000381393 -2.80714e-05
2.31124e-05 -2.80714e-05 -0.000188352
0.00360095 -0.000432689 -5.49686e-05
-0.000432689 0.00258325 7.03476e-06
-5.49686e-05 7.03476e-06 0.00126289
0.000588172 0.000444937 -8.19057e-05
0.000444937 0.000955048 -6.23569e-06
-8.19057e-05 -6.23569e-06 -7.39737e-05
0.00933833 0.00322422 7.1206e-05
0.00322422 0.000605013 -0.000290713
7.1206e-05 -0.000290713 -0.000539805
-0.00157337 0.00207901 6.14709e-05
0.00207901 0.00191922 0.00023183
6.14709e-05 0.00023183 -0.00134754
0.00622641 0.00030493 4.77594e-05
0.00030493 0.00605683 -2.40829e-05
4.77594e-05 -2.40829e-05 -0.000410786
0.00102852 -1.32418e-05 3.43036e-05
-1.32418e-05 0.00134824 -2.54618e-05
3.43036e-05 -2.54618e-05 0.000590712
0.000291911 -4.72193e-05 -5.56991e-05
-4.72193e-05 0.00106909 3.51601e-06
-5.56991e-05 3.51601e-06 0.000840442
0.0025879 -0.000706178 0.000509445
-0.000706178 0.000926164 -0.000213921
0.000509445 -0.000213921 -0.00327354
0.0115798 0.00443851 -1.6311e-05
0.00443851 0.0081556 8.60947e-06
-1.6311e-05 8.60947e-06 0.00696733
-0.000577359 0.00257566 -7.58312e-05
0.00257566 -0.0018047 0.000568842
-7.58312e-05 0.000568842 -0.0037848
0.0122015 -0.00240751 0.000197744
-0.00240751 0.00540035 -0.000169624
0.000197744 -0.000169624 0.000695894
0.00334288 -0.000645785 -5.97687e-05
-0.000645785 0.00224774 5.11257e-05
-5.97687e-05 5.11257e-05 0.00160224
0.00146665 0.000258853 7.94093e-06
0.000258853 0.00109095 5.50288e-06
7.94093e-06 5.50288e-06 0.000755968
-9.0504e-05 -2.22796e-05 -8.22949e-06
-2.22796e-05 0.000218532 -1.56012e-06
-8.22949e-06 -1.56012e-06 -5.19141e-05
0.00175784 -0.000379177 2.62406e-05
-0.000379177 0.00107953 -1.11798e-05
2.62406e-05 -1.11798e-05 0.000706854
0.00081494 -8.77247e-05 3.74988e-07
-8.77247e-05 0.000428656 4.29302e-06
3.74988e-07 4.29302e-06 0.000254692
0.000125978 -3.83843e-05 -4.60598e-06
-3.83843e-05 0.000259882 2.97592e-06
-4.60598e-06 2.97592e-06 -5.0166e-05
0.000278737 -0.000204793 -2.36794e-06
-0.000204793 0.000291745 -2.92883e-07
-2.36794e-06 -2.92883e-07 2.07765e-05
0.000822417 -0.000407613 2.63335e-05
-0.000407613 0.000296666 -2.16124e-05
2.63335e-05 -2.16124e-05 0.000106767
0.00237376 -0.000297381 -4.0129e-06
-0.000297381 0.00117769 3.58831e-06
-4.0129e-06 3.58831e-06 0.00100306
0.00218174 -0.000554579 1.04118e-05
-0.000554579 0.00099293 -2.54476e-06
1.04118e-05 -2.54476e-06 0.000676474
0.00194024 -0.000543957 1.31242e-05
-0.000543957 0.000822268 -1.60698e-06
1.31242e-05 -1.60698e-06 0.000335505
0.000401611 -0.00025742 -3.83559e-06
-0.00025742 -0.000124686 -2.02916e-06
-3.83559e-06 -2.02916e-06 -0.00030703
0.00152215 -0.000453869 -2.4229e-06
-0.000453869 0.000398836 7.12676e-07
-2.4229e-06 7.12676e-07 4.63206e-05
0.0021278 -0.000614502 4.48248e-07
-0.000614502 0.00068828 1.02721e-06
4.48248e-07 1.02721e-06 0.000236907
0.00171768 -0.000617496 -4.01438e-06
-0.000617496 0.000338267 1.62425e-06
-4.01438e-06 1.62425e-06 -5.42138e-05
0.00156599 -0.000488984 -1.26987e-06
-0.000488984 0.000371476 7.64646e-07
-1.26987e-06 7.64646e-07 3.53264e-05
0.00146985 -0.000479922 -4.01816e-06
-0.000479922 0.000298451 1.2592e-06
-4.01816e-06 1.2592e-06 -5.24232e-05
0.00110642 -0.000357597 -5.25062e-06
-0.000357597 0.000195336 -3.54453e-07
-5.25062e-06 -3.54453e-07 -0.000104018
0.00225397 -0.000447631 4.32591e-06
-0.000447631 0.000880279 1.30225e-06
4.32591e-06 1.30225e-06 0.00060385
0.00145301 -0.000392813 4.66397e-06
-0.000392813 0.000341949 -2.97708e-06
4.66397e-06 -2.97708e-06 5.71499e-05
0.000236725 -0.00014458 1.04783e-06
-0.00014458 -0.000194607 6.58127e-08
1.04783e-06 6.58127e-08 -0.00041729
0.000818257 -0.000284228 3.44406e-06
-0.000284228 7.6118e-05 -8.45059e-07
3.44406e-06 -8.45059e-07 -0.000172019
0.000302881 -0.000248178 2.49631e-08
-0.000248178 -0.000327362 -7.14882e-06
2.49631e-08 -7.14882e-06 -0.000579881
-0.00010738 -1.5513e-05 4.49665e-07
-1.5513e-05 -0.000336324 1.62236e-06
4.49665e-07 1.62236e-06 -0.000516656
0.0010605 -0.000170803 -2.67028e-07
-0.000170803 0.000402066 1.5043e-08
-2.67028e-07 1.5043e-08 0.000170228
0.000993925 -0.000301212 -8.27795e-07
-0.000301212 0.000332704 -1.74925e-06
-8.27795e-07 -1.74925e-06 7.91273e-05
0.000694603 -8.73914e-06 -9.4431e-07
-8.73914e-06 0.000109663 4.38716e-06
-9.4431e-07 4.38716e-06 1.44736e-05
0.000807276 -8.61652e-05 -1.97323e-07
-8.61652e-05 0.00018498 -2.29803e-07
-1.97323e-07 -2.29803e-07 5.1768e-05
0.000319955 -8.056e-05 -8.41182e-08
-8.056e-05 -5.35835e-05 1.02217e-06
-8.41182e-08 1.02217e-06 -0.000232587
0.000718906 -8.09923e-05 6.66454e-07
-8.09923e-05 0.000148899 -9.3996e-07
6.66454e-07 -9.3996e-07 1.971e-05
0.000613729 -2.85416e-05 -6.01951e-08
-2.85416e-05 5.88137e-05 -2.52575e-07
-6.01951e-08 -2.52575e-07 -2.57574e-05
0.000474453 3.59209e-05 3.51322e-07
3.59209e-05 -3.71388e-05 6.74272e-06
3.51322e-07 6.74272e-06 -7.01237e-05
0.000619432 -3.48462e-05 1.41008e-06
-3.48462e-05 6.5109e-05 -3.13213e-06
1.41008e-06 -3.13213e-06 -1.17768e-05
0.000508999 2.85441e-05 -1.17121e-06
2.85441e-05 -2.34948e-05 -1.5241e-07
-1.17121e-06 -1.5241e-07 -5.17085e-05
0.00258137 9.43088e-05 -3.07883e-05
9.43088e-05 0.00125778 4.33186e-06
-3.07883e-05 4.33186e-06 0.0012634
0.000525853 1.50232e-05 1.61603e-06
1.50232e-05 -1.94854e-05 -5.3017e-06
1.61603e-06 -5.3017e-06 -4.4176e-05
0.00167336 6.26212e-05 1.51649e-05
6.26212e-05 0.000690721 -8.57517e-07
1.51649e-05 -8.57517e-07 0.000694843
0.00256798 6.37521e-05 2.14863e-05
6.37521e-05 0.00124002 -5.02584e-06
2.14863e-05 -5.02584e-06 0.00125008
0.000706629 7.96387e-05 2.30476e-06
7.96387e-05 0.00014296 -4.37359e-07
2.30476e-06 -4.37359e-07 2.30334e-05
0.000547551 3.76891e-05 9.97366e-07
3.76891e-05 1.41214e-05 -2.61231e-06
9.97366e-07 -2.61231e-06 -5.52684e-05
0.000489239 4.46612e-05 -1.13005e-06
4.46612e-05 1.26056e-05 -1.19105e-06
-1.13005e-06 -1.19105e-06 -0.0001058
0.000511767 -5.91786e-06 9.70728e-07
-5.91786e-06 -3.42596e-05 -4.81335e-06
9.70728e-07 -4.81335e-06 -5.06115e-05
0.000376423 3.00976e-05 -1.97278e-06
3.00976e-05 -8.88248e-05 -1.54852e-06
-1.97278e-06 -1.54852e-06 -0.000153572
0.000710679 6.14019e-05 -9.20009e-07
6.14019e-05 0.000152425 -1.01938e-06
-9.20009e-07 -1.01938e-06 3.96922e-05
0.00217453 -3.64793e-05 -1.82217e-05
-3.64793e-05 0.000992307 -4.68047e-06
-1.82217e-05 -4.68047e-06 0.00100865
0.00050744 -7.22092e-06 -1.32469e-07
-7.22092e-06 -3.75108e-05 -9.89783e-08
-1.32469e-07 -9.89783e-08 -4.99014e-05
0.000176189 9.53867e-06 -1.61658e-06
9.53867e-06 -0.000210339 4.83603e-07
-1.61658e-06 4.83603e-07 -0.000269987
0.00211236 -2.09071e-05 -4.82641e-06
-2.09071e-05 0.000953381 1.11305e-07
-4.82641e-06 1.11305e-07 0.000971129
0.000504749 -4.73768e-06 -1.76968e-06
-4.73768e-06 -3.93039e-05 3.49114e-06
-1.76968e-06 3.49114e-06 -4.88761e-05
0.00206432 -5.56399e-06 9.16386e-06
-5.56399e-06 0.000923903 4.7339e-06
9.16386e-06 4.7339e-06 0.000942277
0.00120255 -0.000121321 -2.71713e-05
-0.000121321 -0.000314622 2.67458e-05
-2.71713e-05 2.67458e-05 -0.000186423
9.61124e-05 -0.000149096 3.54828e-05
-0.000149096 0.000954872 -2.28833e-06
3.54828e-05 -2.28833e-06 0.000743124
-8.8384e-05 -0.000283294 0.00013932
-0.000283294 0.000334088 -8.17057e-05
0.00013932 -8.17057e-05 -0.00267011
0.000376864 4.28598e-05 2.50775e-06
4.28598e-05 -8.64482e-05 1.22946e-06
2.50775e-06 1.22946e-06 -0.000210118
0.00158384 9.28681e-05 2.07175e-07
9.28681e-05 0.000634078 3.22509e-06
2.07175e-07 3.22509e-06 0.000490873
0.00075016 0.00012399 -1.40207e-06
0.00012399 0.000164433 -1.18323e-06
-1.40207e-06 -1.18323e-06 3.48899e-05
0.000511222 6.54227e-05 4.84459e-07
6.54227e-05 -8.07404e-06 6.7353e-07
4.84459e-07 6.7353e-07 -0.000124478
0.000567643 8.45522e-05 2.34229e-07
8.45522e-05 4.62923e-05 -1.41637e-07
2.34229e-07 -1.41637e-07 -8.00467e-05
0.000558998 7.421e-05 3.15542e-06
7.421e-05 3.08232e-05 5.93851e-08
3.15542e-06 5.93851e-08 -8.62783e-05
0.000608237 0.000163586 6.79547e-06
0.000163586 0.000109351 3.41931e-06
6.79547e-06 3.41931e-06 -3.32919e-05
0.000596869 0.000366586 0.000112138
0.000366586 -0.000384848 0.000221733
0.000112138 0.000221733 -0.00162854
0.00359537 -7.6791e-05 -2.56954e-05
-7.6791e-05 -0.000120082 5.70696e-05
-2.56954e-05 5.70696e-05 -0.000637466
0.00358416 -0.000417831 9.73158e-05
-0.000417831 0.00243302 -9.07945e-05
9.73158e-05 -9.07945e-05 0.00144423
0.00602038 -0.000123878 -6.82009e-06
-0.000123878 -0.00539264 0.000125854
-6.82009e-06 0.000125854 -0.00178578
0.00283178 -0.00174835 -9.20213e-05
-0.00174835 0.000510814 6.21902e-05
-9.20213e-05 6.21902e-05 0.000143205
-0.000352692 -0.00254342 -0.000113845
-0.00254342 0.000777713 8.64334e-05
-0.000113845 8.64334e-05 -0.00404383
0.0118133 0.00310563 8.47219e-05
0.00310563 0.00589117 -0.000107886
8.47219e-05 -0.000107886 0.00270334
0.00295667 -0.0015976 -3.50866e-05
-0.0015976 0.000593231 1.56043e-05
-3.50866e-05 1.56043e-05 0.000598851
-0.00119389 -0.000619277 -1.15712e-05
-0.000619277 0.00265042 4.26189e-05
-1.15712e-05 4.26189e-05 -0.00310065
0.00573652 0.000391885 0.00010932
0.000391885 0.00267218 -1.64694e-05
0.00010932 -1.64694e-05 0.000196417
0.0126708 -0.0019006 -5.20097e-05
-0.0019006 0.00166123 -2.98049e-05
-5.20097e-05 -2.98049e-05 0.00300909
-0.000683061 -0.000306274 -0.00010297
-0.000306274 -0.000236482 9.64045e-05
-0.00010297 9.64045e-05 -2.93983e-05
0.00247221 0.001916 -0.000126066
0.001916 0.00375994 -7.98261e-05
-0.000126066 -7.98261e-05 -0.00208217
-0.00425284 -0.00353806 4.41206e-05
-0.00353806 -0.0018084 -0.000206931
4.41206e-05 -0.000206931 -0.00532535
0.00990495 -0.00220396 7.95899e-05
-0.00220396 0.00135375 -0.000447316
7.95899e-05 -0.000447316 0.00106748
0.000907506 2.80495e-05 8.7647e-06
2.80495e-05 0.000346924 2.64023e-06
8.7647e-06 2.64023e-06 0.000193002
0.000668617 0.000125453 -9.92628e-07
0.000125453 0.000145512 -1.24583e-06
-9.92628e-07 -1.24583e-06 6.2538e-07
0.000712912 -1.55463e-05 -6.61279e-07
-1.55463e-05 0.000217565 -3.1538e-06
-6.61279e-07 -3.1538e-06 1.0192e-05
0.000868904 0.000103629 -2.82492e-06
0.000103629 0.000257465 -5.62061e-06
-2.82492e-06 -5.62061e-06 9.82803e-05
-0.000479261 -0.000603596 -3.24522e-06
-0.000603596 -0.000763724 4.1202e-05
-3.24522e-06 4.1202e-05 -0.000905202
0.00297237 -0.000266367 1.59715e-06
-0.000266367 0.00171169 -2.36006e-05
1.59715e-06 -2.36006e-05 0.00140862
0.000636683 6.80276e-05 -4.05658e-06
6.80276e-05 0.000139469 -7.23417e-06
-4.05658e-06 -7.23417e-06 -1.81871e-06
0.000734999 0.000192753 -2.51402e-06
0.000192753 0.000285581 -1.61518e-06
-2.51402e-06 -1.61518e-06 0.000113619
0.00133037 8.39844e-05 -3.96025e-06
8.39844e-05 0.000965166 -5.11875e-06
-3.96025e-06 -5.11875e-06 0.000602715
0.000650381 6.97677e-05 3.82938e-06
6.97677e-05 0.000174212 2.86387e-06
3.82938e-06 2.86387e-06 5.15013e-05
0.000240022 0.000131815 -6.96793e-07
0.000131815 0.000366424 1.07302e-06
-6.96793e-07 1.07302e-06 -1.55044e-05
0.00164531 -0.000325963 -4.94163e-06
-0.000325963 0.00135491 4.63144e-06
-4.94163e-06 4.63144e-06 0.000474765
-9.12866e-05 -9.9775e-05 1.9125e-05
-9.9775e-05 0.000344774 -3.71311e-07
1.9125e-05 -3.71311e-07 1.81067e-05
-3.22243e-05 0.000111104 4.03324e-06
0.000111104 4.11811e-05 -2.39696e-06
4.03324e-06 -2.39696e-06 -0.000185033
0.0014964 -8.71165e-05 -2.06158e-05
-8.71165e-05 0.00235183 -3.89599e-05
-2.06158e-05 -3.89599e-05 0.000936968
0.00140681 0.000267568 -3.17311e-06
0.000267568 0.00112022 1.75649e-05
-3.17311e-06 1.75649e-05 0.000686691
-0.000780861 4.82696e-05 -3.76783e-05
4.82696e-05 0.000974352 1.12552e-05
-3.76783e-05 1.12552e-05 0.000267333
0.000948078 2.48923e-07 3.35455e-06
2.48923e-07 -0.000212863 1.17979e-06
3.35455e-06 1.17979e-06 -0.000288349
-0.00135817 6.04163e-05 1.58122e-06
6.04163e-05 0.000334461 -3.52467e-05
1.58122e-06 -3.52467e-05 -6.21826e-05
0.000169716 0.000167079 -8.3388e-06
0.000167079 0.000396581 8.46367e-06
-8.3388e-06 8.46367e-06 0.000129648
-0.00124138 0.000551053 9.08525e-05
0.000551053 -0.000579776 8.25712e-05
9.08525e-05 8.25712e-05 -0.00109299
0.000856717 3.14322e-06 3.44857e-05
3.14322e-06 -0.000460217 -4.63279e-06
3.44857e-05 -4.63279e-06 -0.000139883
0.00381537 -0.00164991 0.000133867
-0.00164991 0.00445677 -0.00016254
0.000133867 -0.00016254 -0.00253011
0.0135992 0.00276337 -0.000131122
0.00276337 0.00613279 9.93967e-05
-0.000131122 9.93967e-05 0.00325808
0.00348419 -0.000324861 -9.5805e-05
-0.000324861 0.00227144 9.72997e-05
-9.5805e-05 9.72997e-05 0.0013728
0.00967561 0.00319621 -1.4577e-05
0.00319621 0.00240037 -0.000129232
-1.4577e-05 -0.000129232 0.000621713
0.00040257 0.000126947 -4.36404e-05
0.000126947 0.00090672 1.00193e-05
-4.36404e-05 1.00193e-05 0.000148082
0.000370929 -7.45544e-05 -4.13039e-05
-7.45544e-05 0.000908169 1.57546e-06
-4.13039e-05 1.57546e-06 0.000825366
0.0035574 -0.000906234 0.000202213
-0.000906234 0.00141616 -1.90322e-05
0.000202213 -1.90322e-05 -0.00263288
-0.00125692 -0.000178813 2.54535e-05
-0.000178813 -0.000374988 2.87836e-05
2.54535e-05 2.87836e-05 -0.000676368
0.00492131 0.00488374 0.000349301
0.00488374 0.00437305 -0.00017304
0.000349301 -0.00017304 0.00365227
0.00752238 0.00206204 -0.000131379
0.00206204 0.0013566 0.000242158
-0.000131379 0.000242158 -0.000724795
-0.00288429 -0.000974748 0.000103272
-0.000974748 0.00189943 -0.000109008
0.000103272 -0.000109008 -0.00434435
-0.000123903 -0.000311029 2.05817e-05
-0.000311029 0.0004642 -1.97903e-05
2.05817e-05 -1.97903e-05 -0.000278917
0.000211447 -0.000428212 0.0001813
-0.000428212 -0.000304436 -4.04472e-05
0.0001813 -4.04472e-05 -0.0025886
-0.00223635 -6.52073e-06 -0.000618664
-6.52073e-06 0.00441557 0.000162766
-0.000618664 0.000162766 0.00158669
0.00950766 0.00463222 -0.000431087
0.00463222 0.00225065 0.000466009
-0.000431087 0.000466009 0.000936797
0.00855355 -0.00211544 -6.95328e-05
-0.00211544 0.00358925 2.58905e-05
-6.95328e-05 2.58905e-05 -4.76526e-05
0.00278056 -0.000995905 -3.75156e-05
-0.000995905 0.00170322 2.50821e-05
-3.75156e-05 2.50821e-05 0.00118986
0.000397032 -4.73353e-05 7.03603e-06
-4.73353e-05 0.000434586 1.33493e-05
7.03603e-06 1.33493e-05 0.000177059
0.000337989 -0.00026609 4.55181e-06
-0.00026609 0.000369872 -5.42114e-07
4.55181e-06 -5.42114e-07 -5.60858e-06
0.00120866 -0.000541475 1.14865e-05
-0.000541475 0.000577014 -5.00396e-07
1.14865e-05 -5.00396e-07 0.000426201
-0.000447218 -0.000186688 -6.59031e-07
-0.000186688 -4.15064e-05 7.55665e-06
-6.59031e-07 7.55665e-06 -0.000316846
-0.000786252 -0.000260988 1.37419e-06
-0.000260988 -0.000485618 -1.51718e-06
1.37419e-06 -1.51718e-06 -0.000684069
0.00271736 -0.000660722 4.20672e-05
-0.000660722 0.00108161 -3.36052e-06
4.20672e-05 -3.36052e-06 0.000806586
0.00549455 -0.000908631 -1.40821e-05
-0.000908631 0.00278195 5.297e-06
-1.40821e-05 5.297e-06 0.0024187
0.00266961 -0.0006332 6.74142e-06
-0.0006332 0.00114169 2.09078e-07
6.74142e-06 2.09078e-07 0.000665617
0.00161228 -0.000606331 1.06731e-05
-0.000606331 0.000407935 -8.86921e-06
1.06731e-05 -8.86921e-06 -9.68172e-05
0.00153426 -0.000452841 -9.20602e-06
-0.000452841 0.000373336 -7.65078e-07
-9.20602e-06 -7.65078e-07 2.23486e-05
0.00226179 -0.00063984 2.36827e-06
-0.00063984 0.000735519 -2.58329e-07
2.36827e-06 -2.58329e-07 0.000276288
0.00229269 -0.00068474 3.42177e-06
-0.00068474 0.000694978 -8.80833e-06
3.42177e-06 -8.80833e-06 0.00023417
0.00203202 -0.00059986 -1.64624e-06
-0.00059986 0.000394619 -4.61058e-06
-1.64624e-06 -4.61058e-06 6.24583e-05
0.00202145 -0.000648523 -1.19594e-06
-0.000648523 0.000489279 1.2854e-06
-1.19594e-06 1.2854e-06 0.000117147
0.00192187 -0.000641482 -1.93042e-06
-0.000641482 0.000450722 -2.49242e-08
-1.93042e-06 -2.49242e-08 4.98843e-05
0.00204755 -0.000505535 7.31302e-06
-0.000505535 0.000696357 2.35325e-06
7.31302e-06 2.35325e-06 0.000382021
0.00125456 -0.000448089 1.39939e-06
-0.000448089 0.000191416 6.063e-08
1.39939e-06 6.063e-08 -0.00012983
0.00130103 -0.000463359 -4.76727e-07
-0.000463359 0.000198267 -7.37676e-08
-4.76727e-07 -7.37676e-08 -0.000151369
0.00160498 -0.000352971 3.71165e-06
-0.000352971 0.000521764 1.68655e-07
3.71165e-06 1.68655e-07 0.00027203
0.00151557 -0.000371329 -1.25185e-06
-0.000371329 0.00042729 -1.5836e-06
-1.25185e-06 -1.5836e-06 0.000163888
0.00120714 -0.00036909 1.04894e-05
-0.00036909 0.00019968 -5.55214e-06
1.04894e-05 -5.55214e-06 -8.11932e-05
0.00064593 -0.000162196 3.17812e-06
-0.000162196 0.000146087 5.28426e-07
3.17812e-06 5.28426e-07 -0.000106007
0.000701809 -0.00018814 -2.11685e-06
-0.00018814 0.000105036 1.47393e-06
-2.11685e-06 1.47393e-06 -0.000127998
0.00102866 -0.000318613 7.58496e-06
-0.000318613 0.000222127 -6.83077e-06
7.58496e-06 -6.83077e-06 -3.29932e-05
0.000382754 -1.40376e-05 6.71304e-07
-1.40376e-05 -8.42525e-05 4.94574e-06
6.71304e-07 4.94574e-06 -0.000192853
0.00068671 -5.92617e-05 -9.53035e-07
-5.92617e-05 0.00015102 -4.12303e-09
-9.53035e-07 -4.12303e-09 -3.97214e-05
0.00144493 -0.000231854 1.05939e-06
-0.000231854 0.000640914 1.66541e-07
1.05939e-06 1.66541e-07 0.000399711
0.000470533 2.58066e-05 -3.08292e-06
2.58066e-05 -3.83095e-05 9.77631e-06
-3.08292e-06 9.77631e-06 -7.41398e-05
0.000636716 -1.63111e-05 -3.54818e-07
-1.63111e-05 6.97513e-05 -1.55704e-07
-3.54818e-07 -1.55704e-07 -2.43261e-05
0.00115883 -0.000124029 1.08203e-07
-0.000124029 0.000407913 -1.11731e-06
1.08203e-07 -1.11731e-06 0.000262502
0.000658302 -2.875e-05 1.06367e-06
-2.875e-05 8.51595e-05 -3.52518e-06
1.06367e-06 -3.52518e-06 2.78554e-07
0.000499713 3.14366e-05 1.89714e-07
3.14366e-05 -2.31017e-05 -6.49513e-08
1.89714e-07 -6.49513e-08 -5.55785e-05
0.00268709 0.000115418 -3.22468e-05
0.000115418 0.00133148 4.08766e-06
-3.22468e-05 4.08766e-06 0.00133229
0.000547732 2.88184e-05 4.54695e-07
2.88184e-05 -1.03342e-06 -5.98452e-06
4.54695e-07 -5.98452e-06 -2.92354e-05
0.00260099 9.76789e-05 3.73764e-06
9.76789e-05 0.00127072 3.97076e-07
3.73764e-06 3.97076e-07 0.00127562
0.00254128 8.0481e-05 2.50575e-05
8.0481e-05 0.00122776 -4.58886e-06
2.50575e-05 -4.58886e-06 0.00123589
0.00066433 8.03363e-05 1.07603e-06
8.03363e-05 0.000153718 -1.42933e-06
1.07603e-06 -1.42933e-06 -7.98575e-06
0.000762017 0.000101425 3.68132e-06
0.000101425 0.000189313 -9.75994e-07
3.68132e-06 -9.75994e-07 4.7789e-05
0.000591329 2.98606e-05 1.62708e-06
2.98606e-05 4.02638e-05 -3.21986e-06
1.62708e-06 -3.21986e-06 -3.65478e-05
0.000646319 9.224e-05 1.53511e-07
9.224e-05 0.000102874 -1.89382e-07
1.53511e-07 -1.89382e-07 -1.55724e-05
0.000499101 -8.0809e-06 1.08181e-07
-8.0809e-06 -3.93369e-05 -5.77066e-06
1.08181e-07 -5.77066e-06 -6.01745e-05
0.000566883 4.06578e-05 2.16951e-07
4.06578e-05 2.6374e-05 -1.27469e-07
2.16951e-07 -1.27469e-07 -4.30858e-05
0.000596153 4.8557e-05 -3.17404e-06
4.8557e-05 6.60007e-05 -1.93243e-07
-3.17404e-06 -1.93243e-07 -4.36714e-05
0.00230316 -5.18988e-05 -2.37996e-05
-5.18988e-05 0.00107352 -4.72944e-06
-2.37996e-05 -4.72944e-06 0.00108761
0.000507718 -1.05898e-05 -5.75931e-07
-1.05898e-05 -3.6172e-05 -8.95192e-08
-5.75931e-07 -8.95192e-08 -5.24283e-05
0.000505403 4.62266e-05 -2.60844e-06
4.62266e-05 -8.59053e-06 8.48155e-07
-2.60844e-06 8.48155e-07 -7.25371e-05
0.00218511 -3.56359e-05 -4.50222e-06
-3.56359e-05 0.000998768 2.02258e-07
-4.50222e-06 2.02258e-07 0.0010152
0.000507107 -7.37773e-06 -1.87042e-06
-7.37773e-06 -3.78782e-05 3.78286e-06
-1.87042e-06 3.78286e-06 -5.00391e-05
0.00209619 -1.99077e-05 1.33633e-05
-1.99077e-05 0.000943152 4.65105e-06
1.33633e-05 4.65105e-06 0.000961048
-0.00122247 8.94415e-06 -9.94316e-06
8.94415e-06 -0.000118372 -5.15336e-06
-9.94316e-06 -5.15336e-06 -2.11088e-05
0.00119395 -0.000137833 -1.7325e-05
-0.000137833 -0.000336773 2.59685e-05
-1.7325e-05 2.59685e-05 -9.63278e-05
0.000288146 -0.000156696 7.52801e-06
-0.000156696 0.000914913 -2.50482e-05
7.52801e-06 -2.50482e-05 0.000708774
0.000760396 8.412e-05 -3.57914e-07
8.412e-05 0.000179517 4.38076e-07
-3.57914e-07 4.38076e-07 3.40712e-05
0.00055943 7.45254e-05 3.09397e-06
7.45254e-05 1.36909e-05 -9.15062e-07
3.09397e-06 -9.15062e-07 -0.000121072
-0.00117077 6.16293e-06 -4.23779e-06
6.16293e-06 -0.00102003 -6.89593e-06
-4.23779e-06 -6.89593e-06 -0.0011292
0.000201679 2.84197e-05 2.05728e-06
2.84197e-05 -0.000176732 7.28196e-06
2.05728e-06 7.28196e-06 -0.000305899
0.00239244 0.000301394 -1.26648e-06
0.000301394 0.00117949 4.9974e-07
-1.26648e-06 4.9974e-07 0.000979016
0.000711058 4.07973e-05 -3.75793e-06
4.07973e-05 0.000105003 -1.22727e-06
-3.75793e-06 -1.22727e-06 -8.89479e-06
0.000582627 7.82155e-05 -4.06947e-06
7.82155e-05 4.69365e-05 -4.77335e-06
-4.06947e-06 -4.77335e-06 -7.06534e-05
0.00073429 7.02568e-05 9.06539e-08
7.02568e-05 0.000140596 -3.19832e-07
9.06539e-08 -3.19832e-07 2.0027e-05
0.000959619 0.000133064 -6.04087e-08
0.000133064 0.000298337 -8.86509e-07
-6.04087e-08 -8.86509e-07 0.000169766
0.000768753 9.64808e-05 5.01275e-06
9.64808e-05 0.000259569 -6.11707e-06
5.01275e-06 -6.11707e-06 8.97625e-05
0.00429736 0.000552081 0.00027568
0.000552081 0.00296457 0.000365801
0.00027568 0.000365801 -0.0012001
0.00122659 0.000338229 1.42607e-05
0.000338229 -8.39589e-05 8.16968e-05
1.42607e-05 8.16968e-05 -0.0015617
0.00316184 -6.5682e-05 4.59783e-07
-6.5682e-05 4.24152e-05 -1.33973e-05
4.59783e-07 -1.33973e-05 -0.000217094
0.0126431 -0.00163465 -0.000174604
-0.00163465 0.00171921 -0.000135119
-0.000174604 -0.000135119 0.00337571
-0.00644196 0.00149455 3.21946e-05
0.00149455 -0.00264457 0.000362295
3.21946e-05 0.000362295 -0.00613897
0.00366631 -0.00170837 -9.40698e-05
-0.00170837 0.00116418 1.47427e-05
-9.40698e-05 1.47427e-05 0.00118563
0.0104435 -0.00158386 -0.000109498
-0.00158386 0.00522959 8.0826e-06
-0.000109498 8.0826e-06 0.00102963
0.000782051 -0.000404682 -2.12408e-05
-0.000404682 0.000221553 8.08782e-05
-2.12408e-05 8.08782e-05 9.46272e-05
0.0101011 -0.000285841 -7.73174e-05
-0.000285841 0.00593147 -7.59221e-06
-7.73174e-05 -7.59221e-06 0.000365934
0.00386302 -0.00207495 8.22457e-05
-0.00207495 0.00208287 0.00012898
8.22457e-05 0.00012898 -0.00121531
0.0105883 -0.00287358 -0.000178491
-0.00287358 0.000522148 -0.000529463
-0.000178491 -0.000529463 0.000165177
0.00341568 0.000101777 -0.00010378
0.000101777 0.00217933 7.91454e-05
-0.00010378 7.91454e-05 0.00150956
0.0118935 0.00192249 -0.000111506
0.00192249 0.005796 2.74361e-05
-0.000111506 2.74361e-05 0.00152779
0.0148014 -0.00414182 -0.000178827
-0.00414182 0.00635416 -0.000486927
-0.000178827 -0.000486927 0.00428047
0.0148065 -0.00516868 7.66986e-05
-0.00516868 0.00474846 -3.50892e-05
7.66986e-05 -3.50892e-05 0.00440618
0.000373728 0.000129489 1.05746e-05
0.000129489 0.000100686 7.45346e-07
1.05746e-05 7.45346e-07 -8.42918e-05
0.000496557 3.90942e-05 1.54349e-06
3.90942e-05 0.000137324 2.25727e-06
1.54349e-06 2.25727e-06 -4.0862e-05
0.00085912 0.000147549 -5.56091e-06
0.000147549 0.000269728 -7.82006e-06
-5.56091e-06 -7.82006e-06 0.000117463
0.00304959 -0.000332357 -5.65425e-05
-0.000332357 0.00164139 3.84752e-05
-5.65425e-05 3.84752e-05 0.000646809
0.000352965 -7.04774e-05 -1.11523e-05
-7.04774e-05 0.000656064 -3.65465e-05
-1.11523e-05 -3.65465e-05 0.000318877
0.000438806 1.08468e-06 -7.59897e-06
1.08468e-06 3.72672e-05 -1.10536e-06
-7.59897e-06 -1.10536e-06 -7.78918e-05
5.27268e-05 4.59941e-05 -8.20195e-07
4.59941e-05 0.000264073 -4.63471e-06
-8.20195e-07 -4.63471e-06 -0.000115598
0.000292469 9.85321e-05 1.25841e-06
9.85321e-05 0.000205171 -1.08032e-06
1.25841e-06 -1.08032e-06 -2.70926e-05
0.000523606 0.000234989 8.43603e-06
0.000234989 0.000578139 1.23462e-06
8.43603e-06 1.23462e-06 0.000144434
-0.00145231 -8.82537e-05 0.000195547
-8.82537e-05 0.000633163 -1.81706e-05
0.000195547 -1.81706e-05 -0.000910836
-0.00175506 0.000149968 -1.34625e-05
0.000149968 -0.000894217 1.31969e-05
-1.34625e-05 1.31969e-05 -0.00120385
0.0026447 0.000581417 -0.000114691
0.000581417 0.00190514 -6.86737e-05
-0.000114691 -6.86737e-05 0.000819009
0.00162688 0.000161389 0.000127335
0.000161389 0.00153753 3.89972e-05
0.000127335 3.89972e-05 -0.00159622
-0.00110196 6.26536e-05 -1.03828e-05
6.26536e-05 0.000689777 1.76442e-05
-1.03828e-05 1.76442e-05 6.06314e-05
0.00175552 -0.000127101 -6.81851e-06
-0.000127101 0.00015256 1.06466e-06
-6.81851e-06 1.06466e-06 0.000487458
-0.00114063 0.000394605 0.00011536
0.000394605 -1.50456e-05 1.2064e-05
0.00011536 1.2064e-05 -0.000868574
0.00175321 0.000250787 -6.04737e-05
0.000250787 0.00146483 5.4851e-05
-6.04737e-05 5.4851e-05 0.000369528
0.000272213 -0.000140225 -1.47681e-05
-0.000140225 0.000883118 8.28477e-06
-1.47681e-05 8.28477e-06 0.000684963
0.016053 -0.00283979 0.00015535
-0.00283979 0.00744617 -6.90791e-05
0.00015535 -6.90791e-05 0.00241561
0.0172774 0.00311648 -5.70471e-05
0.00311648 0.00711936 -9.29505e-05
-5.70471e-05 -9.29505e-05 0.00457071
0.0044768 -0.000985721 -0.000139122
-0.000985721 0.00201433 0.000178678
-0.000139122 0.000178678 -0.0020699
-0.00242022 0.00557207 0.00158813
0.00557207 1.75937e-05 -0.00112671
0.00158813 -0.00112671 -0.000513061
0.000773139 -0.000332212 2.1553e-05
-0.000332212 0.000977688 -6.20147e-06
2.1553e-05 -6.20147e-06 0.000154853
0.000127573 -0.000308964 2.15119e-05
-0.000308964 0.000102502 1.53156e-05
2.15119e-05 1.53156e-05 -0.00260795
-0.00235562 0.000272628 -0.000776084
0.000272628 0.00431755 0.000283788
-0.000776084 0.000283788 0.00136313
0.000947771 -0.000578333 -8.81117e-06
-0.000578333 0.000757322 3.41254e-05
-8.81117e-06 3.41254e-05 0.00030361
0.0172198 0.00413687 0.000216068
0.00413687 0.00499346 8.14135e-05
0.000216068 8.14135e-05 0.00382583
0.00782371 -0.0029601 0.000138658
-0.0029601 0.00289275 -6.43001e-05
0.000138658 -6.43001e-05 -0.000568899
0.00220938 -0.000896102 -1.25002e-05
-0.000896102 0.00113767 2.84287e-05
-1.25002e-05 2.84287e-05 0.000701374
-0.00614015 -0.00108357 8.83133e-05
-0.00108357 0.0035977 -4.80157e-05
8.83133e-05 -4.80157e-05 0.000389533
0.01335 0.00376529 -0.000953459
0.00376529 0.00539957 0.000413986
-0.000953459 0.000413986 0.00395015
0.00375612 -0.00204918 -0.000298416
-0.00204918 -0.000535884 0.000170831
-0.000298416 0.000170831 -0.00410567
0.00222522 -0.001483 0.000163004
-0.001483 0.000419306 -8.98309e-05
0.000163004 -8.98309e-05 0.00099638
-4.35127e-05 -0.000284387 -6.47169e-05
-0.000284387 0.000139812 2.19039e-05
-6.47169e-05 2.19039e-05 -0.000211799
0.000692821 -0.000470015 -8.65129e-06
-0.000470015 0.000351081 1.20644e-05
-8.65129e-06 1.20644e-05 0.000125098
0.00331058 -0.000716024 2.6898e-05
-0.000716024 0.00150606 1.42825e-06
2.6898e-05 1.42825e-06 0.00123514
-0.00251245 -0.000115633 1.29665e-06
-0.000115633 -0.00132181 1.16277e-05
1.29665e-06 1.16277e-05 -0.00152973
0.000859246 -0.00044922 5.90054e-06
-0.00044922 0.000117966 7.26973e-07
5.90054e-06 7.26973e-07 -0.000143486
0.00221074 -0.000700372 8.82754e-06
-0.000700372 0.000542522 -1.05309e-06
8.82754e-06 -1.05309e-06 0.000235908
0.00331774 -0.000711088 -2.37688e-05
-0.000711088 0.00141722 7.14611e-06
-2.37688e-05 7.14611e-06 0.000955395
0.00143813 -0.0005707 -1.28092e-06
-0.0005707 0.000291021 -2.1083e-06
-1.28092e-06 -2.1083e-06 -0.000190335
0.00177113 -0.00070552 5.77194e-06
-0.00070552 0.00024834 -9.57703e-06
5.77194e-06 -9.57703e-06 -0.000140212
0.00269297 -0.000696929 -4.3511e-06
-0.000696929 0.000948665 2.12045e-06
-4.3511e-06 2.12045e-06 0.000480393
0.00189494 -0.000647368 3.01103e-07
-0.000647368 0.000454685 -4.73159e-06
3.01103e-07 -4.73159e-06 1.22763e-05
0.00239442 -0.000638562 2.70044e-06
-0.000638562 0.000542279 -8.46417e-06
2.70044e-06 -8.46417e-06 0.000219126
0.0016753 -0.000445839 -4.11985e-06
-0.000445839 4.66002e-05 -3.39504e-06
-4.11985e-06 -3.39504e-06 -0.000183835
0.00173902 -0.00059008 1.10058e-06
-0.00059008 0.000188701 -1.15969e-06
1.10058e-06 -1.15969e-06 -0.000138957
0.00193639 -0.000589693 2.43819e-06
-0.000589693 0.000338555 -2.88456e-06
2.43819e-06 -2.88456e-06 1.04574e-05
0.00194603 -0.000566278 7.44628e-07
-0.000566278 0.000511765 -2.25904e-07
7.44628e-07 -2.25904e-07 0.000175788
0.00202842 -0.000648898 -2.17054e-06
-0.000648898 0.000507649 1.28243e-07
-2.17054e-06 1.28243e-07 0.000130605
0.00212362 -0.000667133 7.02647e-07
-0.000667133 0.000560304 -2.95441e-06
7.02647e-07 -2.95441e-06 0.000150995
0.00186932 -0.000421494 4.21045e-06
-0.000421494 0.000624605 2.29403e-06
4.21045e-06 2.29403e-06 0.000346334
0.00124022 -0.000417247 1.59627e-06
-0.000417247 0.000223095 9.56984e-07
1.59627e-06 9.56984e-07 -7.02607e-05
0.00102609 -0.000417644 3.09272e-06
-0.000417644 5.81439e-05 2.69736e-07
3.09272e-06 2.69736e-07 -0.000249837
0.0011043 -0.000293608 -1.06134e-06
-0.000293608 0.000311665 3.8287e-07
-1.06134e-06 3.8287e-07 6.78325e-05
0.00103831 -0.000290765 -6.17784e-07
-0.000290765 0.000182717 -8.77852e-07
-6.17784e-07 -8.77852e-07 -5.59623e-05
0.000908981 -0.000308168 -3.96708e-06
-0.000308168 5.63713e-05 -3.42192e-06
-3.96708e-06 -3.42192e-06 -0.000197144
-0.000104641 -4.05376e-05 -1.16849e-06
-4.05376e-05 -0.000367896 5.27572e-06
-1.16849e-06 5.27572e-06 -0.000521871
0.000755836 -0.000167901 2.36915e-06
-0.000167901 0.000209777 2.09074e-07
2.36915e-06 2.09074e-07 -4.15831e-05
0.00136309 -0.000239194 -1.79631e-06
-0.000239194 0.000524057 1.67364e-06
-1.79631e-06 1.67364e-06 0.000277229
0.00163971 6.36519e-05 -2.84295e-05
6.36519e-05 0.00069201 6.55567e-06
-2.84295e-05 6.55567e-06 0.000650842
0.000705082 -5.34469e-05 5.38504e-07
-5.34469e-05 0.000106337 -5.50149e-07
5.38504e-07 -5.50149e-07 -5.76747e-06
0.00147094 -0.000102501 -3.31561e-06
-0.000102501 0.000634781 -2.14454e-06
-3.31561e-06 -2.14454e-06 0.000432242
0.000775286 4.76624e-05 -3.83014e-05
4.76624e-05 0.000154373 4.66225e-06
-3.83014e-05 4.66225e-06 0.00014823
0.00102865 4.25316e-05 -1.22188e-05
4.25316e-05 0.000308268 -4.67731e-07
-1.22188e-05 -4.67731e-07 0.000272864
0.000622733 -2.45586e-05 1.07598e-06
-2.45586e-05 5.63854e-05 -4.48297e-06
1.07598e-06 -4.48297e-06 -3.65976e-05
0.000532192 3.11027e-05 1.29005e-06
3.11027e-05 -3.51213e-06 -7.0226e-06
1.29005e-06 -7.0226e-06 -3.62448e-05
0.00271421 0.000116643 6.24658e-06
0.000116643 0.00134878 5.78311e-07
6.24658e-06 5.78311e-07 0.00134943
0.00259114 9.92184e-05 2.76239e-05
9.92184e-05 0.00126543 -4.41685e-06
2.76239e-05 -4.41685e-06 0.00126999
0.00110581 0.000120391 5.41614e-06
0.000120391 0.000403442 3.68694e-06
5.41614e-06 3.68694e-06 0.000247728
0.0010106 0.000124227 2.47547e-06
0.000124227 0.000356047 -2.38165e-06
2.47547e-06 -2.38165e-06 0.000196786
0.000414763 6.64842e-05 -6.18633e-07
6.64842e-05 -2.491e-05 1.32164e-06
-6.18633e-07 1.32164e-06 -0.000167527
0.000636755 2.21469e-05 1.63357e-06
2.21469e-05 6.76125e-05 -4.22526e-06
1.63357e-06 -4.22526e-06 -1.812e-05
0.000763921 8.82667e-05 5.99177e-07
8.82667e-05 0.000181482 -9.56337e-09
5.99177e-07 -9.56337e-09 4.98879e-05
0.000495264 -4.91381e-06 -9.45462e-07
-4.91381e-06 -3.67778e-05 -6.68756e-06
-9.45462e-07 -6.68756e-06 -6.22393e-05
0.000565361 3.15922e-05 -6.17806e-08
3.15922e-05 2.59668e-05 -2.75533e-07
-6.17806e-08 -2.75533e-07 -5.14643e-05
0.00070505 6.71226e-05 -2.11222e-06
6.71226e-05 0.000158022 1.13085e-06
-2.11222e-06 1.13085e-06 2.49343e-05
0.00248107 -6.87152e-05 -3.1102e-05
-6.87152e-05 0.00118695 -4.6181e-06
-3.1102e-05 -4.6181e-06 0.00119812
0.000487317 -8.72272e-06 -7.71233e-07
-8.72272e-06 -4.62621e-05 -8.7528e-08
-7.71233e-07 -8.7528e-08 -6.68805e-05
0.000571766 4.51956e-05 -2.59797e-07
4.51956e-05 3.02218e-05 2.86468e-06
-2.59797e-07 2.86468e-06 -3.93857e-05
0.00231199 -5.16124e-05 -5.24042e-06
-5.16124e-05 0.00107887 3.07092e-07
-5.24042e-06 3.07092e-07 0.00109304
0.000488346 -1.381e-05 -2.65884e-06
-1.381e-05 -4.76384e-05 4.62394e-06
-2.65884e-06 4.62394e-06 -6.37918e-05
0.00218715 -3.42712e-05 1.87066e-05
-3.42712e-05 0.000999908 4.56445e-06
1.87066e-05 4.56445e-06 0.00101651
0.0059789 0.000336072 0.000207733
0.000336072 0.00290171 3.86331e-05
0.000207733 3.86331e-05 0.00125198
-0.00108686 -1.44958e-05 -8.49447e-07
-1.44958e-05 -0.000119872 -3.62408e-06
-8.49447e-07 -3.62408e-06 -0.000139813
0.000958075 -5.00991e-05 -2.37845e-05
-5.00991e-05 -0.000328674 9.56411e-07
-2.37845e-05 9.56411e-07 -3.06554e-05
-0.00016484 9.04232e-05 -6.63407e-06
9.04232e-05 -0.00040503 -1.96486e-06
-6.63407e-06 -1.96486e-06 -0.00053241
0.000711868 7.79148e-05 -3.75178e-06
7.79148e-05 0.000145377 -1.16907e-06
-3.75178e-06 -1.16907e-06 8.90629e-06
0.000205746 5.86748e-05 4.56187e-07
5.86748e-05 -0.000203804 -2.86101e-06
4.56187e-07 -2.86101e-06 -0.000331872
0.000936894 5.8061e-05 4.70922e-07
5.8061e-05 0.00025644 -4.06642e-07
4.70922e-07 -4.06642e-07 0.000122102
0.00036931 8.7774e-05 -1.42463e-06
8.7774e-05 -0.000101023 -4.53316e-08
-1.42463e-06 -4.53316e-08 -0.000218249
0.00172092 0.000233433 3.94971e-07
0.000233433 0.00076771 -2.57714e-06
3.94971e-07 -2.57714e-06 0.000600261
0.00104281 0.000186806 -3.36834e-06
0.000186806 0.000325309 -1.19647e-05
-3.36834e-06 -1.19647e-05 0.000103043
-0.000353964 4.51562e-05 2.37469e-06
4.51562e-05 -0.000377648 4.40775e-06
2.37469e-06 4.40775e-06 -0.000587783
0.000773683 0.000131125 -3.09197e-06
0.000131125 0.000183823 -1.15322e-06
-3.09197e-06 -1.15322e-06 5.04492e-05
0.000233669 4.18686e-05 -4.67107e-06
4.18686e-05 -0.000175908 -3.7394e-06
-4.67107e-06 -3.7394e-06 -0.00027476
0.000271528 5.35707e-05 1.37101e-07
5.35707e-05 -5.32387e-05 1.02631e-06
1.37101e-07 1.02631e-06 -0.00021235
0.00112011 0.000211604 1.39593e-05
0.000211604 0.000565276 6.25903e-06
1.39593e-05 6.25903e-06 0.000318799
0.00152662 -0.00173771 0.00014574
-0.00173771 0.0040327 0.000241705
0.00014574 0.000241705 0.000171193
0.00489561 0.00072804 6.33939e-05
0.00072804 0.00264313 0.000134951
6.33939e-05 0.000134951 -0.00174616
0.00174739 0.000255231 -2.76305e-05
0.000255231 0.000276658 -6.8928e-05
-2.76305e-05 -6.8928e-05 -0.00141485
0.0166743 -0.00355238 -0.000464349
-0.00355238 0.00371988 -0.000285238
-0.000464349 -0.000285238 0.00328775
0.00631583 -0.00129165 0.000169783
-0.00129165 0.00261027 0.000376839
0.000169783 0.000376839 0.000162608
0.00269018 -0.00113941 -0.000157474
-0.00113941 0.00372244 8.49356e-05
-0.000157474 8.49356e-05 -0.00221873
0.000960421 -0.000549684 4.86756e-05
-0.000549684 0.00113739 2.77237e-05
4.86756e-05 2.77237e-05 0.000414608
0.00125044 -0.00011058 1.48362e-05
-0.00011058 0.000982359 5.30823e-05
1.48362e-05 5.30823e-05 0.000631889
0.00677955 -0.00533055 0.000287605
-0.00533055 0.00243357 0.00027993
0.000287605 0.00027993 0.00201518
0.0030429 0.00126188 -5.6839e-05
0.00126188 0.00380579 -5.67985e-05
-5.6839e-05 -5.67985e-05 -0.00175267
0.00545353 -0.00251949 -8.48971e-05
-0.00251949 0.0011679 7.75991e-05
-8.48971e-05 7.75991e-05 -0.0013812
0.000424246 0.000471953 -2.27425e-05
0.000471953 0.000599143 6.04683e-05
-2.27425e-05 6.04683e-05 0.000435287
0.0102563 0.00236873 -8.48943e-05
0.00236873 0.00405927 -1.63972e-06
-8.48943e-05 -1.63972e-06 0.000580729
0.00943988 -0.0043959 -0.000560251
-0.0043959 0.00208055 -0.000390507
-0.000560251 -0.000390507 0.000588121
0.000174128 0.000377933 3.66986e-06
0.000377933 -0.000239218 -5.34016e-06
3.66986e-06 -5.34016e-06 -0.000398651
0.000477241 0.000107781 5.9683e-06
0.000107781 0.000148846 1.83491e-06
5.9683e-06 1.83491e-06 -2.08989e-05
0.000108743 4.62326e-05 -6.41457e-06
4.62326e-05 -9.37976e-05 -3.80528e-06
-6.41457e-06 -3.80528e-06 -0.000273372
-0.00243007 -0.000267611 -9.19172e-05
-0.000267611 0.000218878 -5.18211e-05
-9.19172e-05 -5.18211e-05 -0.00129777
-0.000771023 0.000173122 7.76395e-06
0.000173122 -0.000203497 -1.63839e-05
7.76395e-06 -1.63839e-05 -0.000637741
0.000380942 9.93843e-05 -8.78827e-06
9.93843e-05 0.000232922 1.43504e-06
-8.78827e-06 1.43504e-06 -6.26909e-06
0.000798417 0.000461622 1.43837e-05
0.000461622 0.000431281 3.43416e-06
1.43837e-05 3.43416e-06 9.23202e-05
-0.000250292 0.000322344 4.48257e-05
0.000322344 0.000480204 -2.79407e-05
4.48257e-05 -2.79407e-05 -0.000466993
0.000336237 0.000852085 4.1942e-05
0.000852085 -0.000203208 3.7921e-06
4.1942e-05 3.7921e-06 -0.000783406
-0.00412254 0.000757189 0.000244103
0.000757189 0.00449835 1.20946e-05
0.000244103 1.20946e-05 -0.000354252
0.00225043 -3.03501e-05 -5.37964e-06
-3.03501e-05 0.00172593 4.57732e-05
-5.37964e-06 4.57732e-05 -0.000547884
-0.0014494 -3.79772e-05 -6.53995e-06
-3.79772e-05 0.000313607 2.97612e-05
-6.53995e-06 2.97612e-05 -9.21631e-05
-0.000148844 -0.000193212 -5.93676e-05
-0.000193212 0.000609903 1.22957e-05
-5.93676e-05 1.22957e-05 -0.000231855
-0.00111898 -0.000241635 -6.03272e-05
-0.000241635 -0.000746111 3.66639e-05
-6.03272e-05 3.66639e-05 -0.000439279
0.000336429 -0.000239109 -0.000135329
-0.000239109 0.00029542 7.17118e-05
-0.000135329 7.17118e-05 -0.00251424
-0.00131821 -0.0024419 0.000157751
-0.0024419 0.00120358 -0.000100814
0.000157751 -0.000100814 -0.00368701
0.00268756 0.00357229 0.000428046
0.00357229 -0.00219141 -0.000338914
0.000428046 -0.000338914 -0.0033039
0.00581604 0.00178427 -0.000325712
0.00178427 0.00552269 0.000220923
-0.000325712 0.000220923 0.00299574
0.00131697 -0.000515736 -5.39099e-06
-0.000515736 0.000918518 -3.29324e-06
-5.39099e-06 -3.29324e-06 0.000514402
0.00135913 0.000312475 7.05884e-05
0.000312475 0.00542769 -4.58272e-06
7.05884e-05 -4.58272e-06 0.00279109
-0.00134236 0.00248559 1.62806e-05
0.00248559 2.53335e-05 4.22902e-05
1.62806e-05 4.22902e-05 -0.00245776
0.00266369 -0.00171749 7.62924e-05
-0.00171749 0.000826812 -2.75516e-05
7.62924e-05 -2.75516e-05 0.000712537
0.0157932 -0.0021719 2.60672e-05
-0.0021719 0.00413293 -1.17404e-05
2.60672e-05 -1.17404e-05 0.00222807
0.00301234 -0.0011063 -1.04898e-05
-0.0011063 0.00107971 2.38807e-05
-1.04898e-05 2.38807e-05 0.000947353
-0.00909694 0.000801992 -0.000356924
0.000801992 -0.00349527 3.46922e-05
-0.000356924 3.46922e-05 -0.00526625
0.0147425 -0.00139526 -0.00016855
-0.00139526 0.00268809 5.74707e-05
-0.00016855 5.74707e-05 0.00114778
0.00350423 -0.00197609 7.0231e-05
-0.00197609 -0.000194317 -5.63779e-05
7.0231e-05 -5.63779e-05 -0.000231225
-6.59343e-05 -0.000349736 -1.41171e-05
-0.000349736 1.61942e-05 1.52778e-05
-1.41171e-05 1.52778e-05 -0.000282266
0.0010937 -0.000573652 -3.16869e-06
-0.000573652 0.000196962 5.19991e-07
-3.16869e-06 5.19991e-07 5.33628e-05
0.00461082 -0.000784619 2.03092e-05
-0.000784619 0.00187226 -4.18819e-06
2.03092e-05 -4.18819e-06 0.00159502
-0.000780502 -0.00026748 -1.05303e-05
-0.00026748 -0.00071674 5.41286e-06
-1.05303e-05 5.41286e-06 -0.000974469
0.0013956 -0.000614201 -6.48432e-06
-0.000614201 0.00014521 -3.29614e-06
-6.48432e-06 -3.29614e-06 -0.00017902
0.00260728 -0.000799202 6.318e-06
-0.000799202 0.000562819 -7.63596e-06
6.318e-06 -7.63596e-06 0.000247564
0.00117481 -0.000527654 -1.60069e-05
-0.000527654 0.000127241 2.55325e-06
-1.60069e-05 2.55325e-06 -0.00033224
0.00171766 -0.000684443 -8.98949e-07
-0.000684443 0.000233297 -3.30255e-07
-8.98949e-07 -3.30255e-07 -0.000158573
0.00152461 -0.000570116 4.04398e-06
-0.000570116 -9.27489e-05 -5.47359e-06
4.04398e-06 -5.47359e-06 -0.000339535
0.00137798 -0.000598944 -7.45005e-06
-0.000598944 0.000147081 1.24491e-06
-7.45005e-06 1.24491e-06 -0.000277415
0.00178081 -0.000570377 -5.0246e-07
-0.000570377 0.000208966 1.21119e-06
-5.0246e-07 1.21119e-06 -0.000100603
0.00184132 -0.000448339 -3.64541e-07
-0.000448339 7.89912e-05 -4.728e-06
-3.64541e-07 -4.728e-06 -0.000109268
0.00173611 -0.000360821 -5.00907e-06
-0.000360821 5.71491e-05 -1.76229e-06
-5.00907e-06 -1.76229e-06 -0.000100065
0.00158682 -0.000445832 -4.65635e-06
-0.000445832 1.22994e-05 -2.10216e-06
-4.65635e-06 -2.10216e-06 -0.000225796
0.00169478 -0.00043929 1.24778e-06
-0.00043929 6.51741e-05 2.36218e-06
1.24778e-06 2.36218e-06 -0.000160252
0.00153935 -0.000507831 -3.30869e-06
-0.000507831 0.000125762 -1.84891e-06
-3.30869e-06 -1.84891e-06 -0.000172894
0.00188668 -0.000595055 2.21423e-06
-0.000595055 0.000288896 -5.0505e-07
2.21423e-06 -5.0505e-07 -3.52813e-05
0.0019136 -0.000585665 1.60959e-06
-0.000585665 0.000323981 1.01194e-06
1.60959e-06 1.01194e-06 -7.41053e-07
0.00149502 -0.000455923 -1.93841e-06
-0.000455923 0.000297466 1.08694e-06
-1.93841e-06 1.08694e-06 -7.28733e-06
0.00179279 -0.00055459 6.90669e-07
-0.00055459 0.000420761 -1.77597e-07
6.90669e-07 -1.77597e-07 8.54234e-05
0.00197174 -0.000641527 -3.7125e-06
-0.000641527 0.00048924 -7.74215e-07
-3.7125e-06 -7.74215e-07 0.000108374
0.00119403 -0.000291973 -3.3634e-06
-0.000291973 0.000239168 8.02256e-07
-3.3634e-06 8.02256e-07 1.35657e-05
0.00129736 -0.000365812 1.84416e-06
-0.000365812 0.000267475 3.58279e-07
1.84416e-06 3.58279e-07 4.38441e-07
0.000450214 -0.000329906 -7.0665e-07
-0.000329906 -0.000240853 -1.39398e-06
-7.0665e-07 -1.39398e-06 -0.000513486
0.000526692 -0.000158049 -3.04836e-06
-0.000158049 -1.38775e-06 3.34263e-06
-3.04836e-06 3.34263e-06 -0.000199592
0.00113382 -0.000294146 -1.61952e-07
-0.000294146 0.000316887 4.60634e-07
-1.61952e-07 4.60634e-07 7.85433e-05
0.000381558 -0.000223423 -5.31124e-06
-0.000223423 -0.000210851 -8.98017e-07
-5.31124e-06 -8.98017e-07 -0.000437394
0.000460152 2.12574e-07 -4.73849e-06
2.12574e-07 -3.43231e-05 1.10003e-05
-4.73849e-06 1.10003e-05 -9.22022e-05
0.000750185 -0.000109526 5.23885e-08
-0.000109526 0.000155979 1.87688e-07
5.23885e-08 1.87688e-07 -1.31487e-05
0.00108967 -0.000175054 9.56754e-07
-0.000175054 0.00040783 -1.06098e-06
9.56754e-07 -1.06098e-06 0.000157985
0.00308342 0.000180632 -2.13371e-06
0.000180632 0.00160158 3.34967e-06
-2.13371e-06 3.34967e-06 0.00158231
0.000438697 1.57323e-05 -1.04022e-07
1.57323e-05 -5.44244e-05 -9.99499e-08
-1.04022e-07 -9.99499e-08 -0.000100628
0.000906928 -8.25844e-05 2.78529e-06
-8.25844e-05 0.000229606 -5.82146e-06
2.78529e-06 -5.82146e-06 0.000110307
0.00288784 0.000133163 5.95205e-06
0.000133163 0.0014632 4.72003e-07
5.95205e-06 4.72003e-07 0.00146008
0.000550427 2.34129e-05 2.03976e-06
2.34129e-05 1.17288e-05 -8.03104e-06
2.03976e-06 -8.03104e-06 -2.62039e-05
0.00276434 0.000117258 3.78306e-05
0.000117258 0.00137999 -3.81543e-06
3.78306e-05 -3.81543e-06 0.00138066
0.00129723 0.000197738 5.7357e-06
0.000197738 0.000484624 5.28696e-06
5.7357e-06 5.28696e-06 0.000310474
0.000749755 0.000112381 5.90767e-07
0.000112381 0.000193732 -1.08263e-07
5.90767e-07 -1.08263e-07 3.30331e-05
0.00107689 0.000104689 1.25841e-06
0.000104689 0.000408941 -3.66243e-06
1.25841e-06 -3.66243e-06 0.000227175
0.000661523 2.70408e-05 1.32341e-06
2.70408e-05 9.17784e-05 -5.79641e-06
1.32341e-06 -5.79641e-06 -6.92061e-06
0.000708329 7.22562e-05 4.00036e-08
7.22562e-05 0.000157239 5.66739e-07
4.00036e-08 5.66739e-07 9.87366e-06
0.000422121 8.63018e-05 -2.53361e-07
8.63018e-05 -1.47633e-05 1.79258e-06
-2.53361e-07 1.79258e-06 -0.000163319
0.000514591 -6.58755e-06 -1.72303e-06
-6.58755e-06 -2.09192e-05 -7.80444e-06
-1.72303e-06 -7.80444e-06 -5.12768e-05
0.000595635 2.88755e-05 -5.94986e-08
2.88755e-05 4.72443e-05 -2.29675e-07
-5.94986e-08 -2.29675e-07 -3.99946e-05
0.000549227 7.51217e-05 -2.17056e-06
7.51217e-05 4.28304e-05 1.15867e-06
-2.17056e-06 1.15867e-06 -7.96227e-05
0.00262665 -8.46281e-05 -3.9556e-05
-8.46281e-05 0.00128192 -4.31429e-06
-3.9556e-05 -4.31429e-06 0.00129022
0.000463209 -1.86514e-05 1.75682e-06
-1.86514e-05 -5.59722e-05 -1.17975e-07
1.75682e-06 -1.17975e-07 -8.16291e-05
0.000558106 3.58857e-05 -1.17345e-06
3.58857e-05 2.24727e-05 3.27126e-06
-1.17345e-06 3.27126e-06 -5.54008e-05
0.00245937 -6.82949e-05 -5.63661e-06
-6.82949e-05 0.00117324 3.89869e-07
-5.63661e-06 3.89869e-07 0.0011845
0.000480921 -1.4445e-05 -2.04623e-06
-1.4445e-05 -4.98635e-05 5.5656e-06
-2.04623e-06 5.5656e-06 -7.04218e-05
0.00229805 -5.07089e-05 2.22042e-05
-5.07089e-05 0.00107015 4.53458e-06
2.22042e-05 4.53458e-06 0.00108452
-0.00877711 0.00074624 -4.91664e-05
0.00074624 0.00260061 7.45063e-05
-4.91664e-05 7.45063e-05 -0.00209467
0.00566399 0.000194046 -6.5352e-06
0.000194046 0.00298025 -2.77793e-06
-6.5352e-06 -2.77793e-06 0.00139849
-0.000899913 -3.92936e-05 6.0887e-06
-3.92936e-05 -0.000137732 -2.20384e-06
6.0887e-06 -2.20384e-06 -0.000286151
-4.6295e-05 7.26284e-05 -2.48365e-06
7.26284e-05 -0.000331541 2.40732e-06
-2.48365e-06 2.40732e-06 -0.000462937
0.00338151 0.000537546 6.11635e-06
0.000537546 0.00171458 8.22106e-06
6.11635e-06 8.22106e-06 0.00144139
0.00115114 0.000114507 -5.26541e-06
0.000114507 0.00041928 -2.51151e-07
-5.26541e-06 -2.51151e-07 0.000235845
0.000753412 6.25306e-05 -4.38733e-06
6.25306e-05 0.000140601 -7.64753e-06
-4.38733e-06 -7.64753e-06 5.73258e-06
0.0018192 0.000195527 2.50317e-06
0.000195527 0.000764962 -1.26803e-06
2.50317e-06 -1.26803e-06 0.000635009
-0.00013091 5.87162e-05 -6.45787e-06
5.87162e-05 -0.000364794 2.71941e-06
-6.45787e-06 2.71941e-06 -0.000486673
0.000348688 7.23541e-05 -1.24201e-06
7.23541e-05 2.00308e-05 3.51731e-06
-1.24201e-06 3.51731e-06 -0.000185458
0.000518583 0.000127677 -3.51395e-06
0.000127677 3.40631e-05 -4.50978e-06
-3.51395e-06 -4.50978e-06 -0.000181945
0.00140806 0.000287736 7.23813e-06
0.000287736 0.000617235 -1.38328e-05
7.23813e-06 -1.38328e-05 0.000313717
0.000407893 0.000364968 -7.70062e-06
0.000364968 -0.000115542 1.93153e-05
-7.70062e-06 1.93153e-05 -0.000261222
0.00126414 7.06607e-05 -6.08613e-06
7.06607e-05 0.000539684 5.36593e-06
-6.08613e-06 5.36593e-06 0.000374329
0.00109157 0.000184682 2.29687e-06
0.000184682 0.000557856 -1.41791e-06
2.29687e-06 -1.41791e-06 0.000315521
-0.00263334 -0.00153177 -0.000906131
-0.00153177 0.000417101 -0.000149057
-0.000906131 -0.000149057 -0.00208386
-0.00353673 -0.00127467 0.00033032
-0.00127467 0.00346383 0.000155025
0.00033032 0.000155025 -0.000691376
0.00548075 0.000872997 -0.000324163
0.000872997 0.00256993 -0.000117837
-0.000324163 -0.000117837 -0.00207776
-0.00308423 -0.0055569 0.00147357
-0.0055569 -2.90749e-05 0.00104009
0.00147357 0.00104009 -0.000883652
0.0198607 -0.00266138 1.30454e-05
-0.00266138 0.006387 0.000248786
1.30454e-05 0.000248786 0.0047907
-0.00203633 0.00144232 -1.3772e-06
0.00144232 0.00134426 -0.000146578
-1.3772e-06 -0.000146578 -0.00362981
-0.000714528 0.000172183 -0.000290966
0.000172183 0.00032665 -3.86232e-05
-0.000290966 -3.86232e-05 -0.000840135
0.00143962 0.000582287 4.89534e-05
0.000582287 0.00108491 4.11597e-05
4.89534e-05 4.11597e-05 0.000902043
0.0145324 -0.00323328 -0.000387613
-0.00323328 0.00620088 3.18097e-05
-0.000387613 3.18097e-05 0.00445892
-0.00153673 0.00194999 -6.02215e-05
0.00194999 0.000474744 -4.44263e-05
-6.02215e-05 -4.44263e-05 -0.0037237
0.00248439 0.00142207 -2.11204e-05
0.00142207 0.000679736 -6.14522e-05
-2.11204e-05 -6.14522e-05 0.00106754
0.00273375 0.00292488 -0.000261277
0.00292488 -0.00128618 -0.000122614
-0.000261277 -0.000122614 -0.00399424
0.00288765 0.000919626 1.76036e-05
0.000919626 0.000969072 -1.25948e-05
1.76036e-05 -1.25948e-05 0.000665721
0.00101544 0.000436965 -5.74117e-06
0.000436965 0.000288201 -4.50246e-07
-5.74117e-06 -4.50246e-07 0.000120865
0.000817448 0.000157025 -7.06197e-06
0.000157025 0.000350643 -8.05048e-07
-7.06197e-06 -8.05048e-07 0.000176159
-0.00170217 0.000211946 -6.17654e-05
0.000211946 -0.000341482 -5.88571e-05
-6.17654e-05 -5.88571e-05 -0.00116625
0.00224163 0.000650946 -3.08121e-05
0.000650946 0.00115392 -1.92787e-05
-3.08121e-05 -1.92787e-05 0.000799573
0.00148461 0.000984644 1.42124e-05
0.000984644 0.000303472 -5.90359e-06
1.42124e-05 -5.90359e-06 -0.000267718
0.000577133 0.00122482 0.000101673
0.00122482 -0.000929346 3.81179e-05
0.000101673 3.81179e-05 -0.00116852
-0.00555804 -0.000252146 -0.00040976
-0.000252146 -0.00458664 2.00004e-05
-0.00040976 2.00004e-05 -0.00344165
-0.00624654 0.00036323 0.000247527
0.00036323 0.00434488 9.27101e-06
0.000247527 9.27101e-06 -0.000405457
0.00283719 -0.000103593 -9.42377e-05
-0.000103593 0.00190385 3.29997e-05
-9.42377e-05 3.29997e-05 0.000346061
0.00192812 -0.000608173 -3.86497e-05
-0.000608173 0.000907162 -4.86519e-05
-3.86497e-05 -4.86519e-05 0.000518901
0.000453699 -0.00147233 -1.71386e-05
-0.00147233 -0.000441185 4.19572e-05
-1.71386e-05 4.19572e-05 -0.000417275
0.000777998 0.000332756 -5.36785e-06
0.000332756 0.00517189 2.88401e-05
-5.36785e-06 2.88401e-05 0.00258782
0.00155969 -0.00199236 0.000308209
-0.00199236 -0.00120255 -0.000135097
0.000308209 -0.000135097 -0.00388035
0.0158252 0.00225878 0.000441027
0.00225878 0.00707021 -6.40059e-05
0.000441027 -6.40059e-05 0.00527508
0.00222864 -0.00122494 -2.38062e-05
-0.00122494 0.000579937 7.40866e-06
-2.38062e-05 7.40866e-06 0.000182434
0.000746625 0.000914471 0.000167639
0.000914471 -8.64321e-05 -4.70085e-05
0.000167639 -4.70085e-05 -0.00126863
0.00758719 -0.0012508 -0.00010764
-0.0012508 -0.000873301 9.85893e-05
-0.00010764 9.85893e-05 -0.00316407
0.00502387 -0.00208954 -2.4151e-05
-0.00208954 0.000468141 2.29546e-05
-2.4151e-05 2.29546e-05 0.000408358
0.00282366 -0.00100072 7.79184e-05
-0.00100072 0.000572745 -1.01092e-05
7.79184e-05 -1.01092e-05 0.000393809
0.0134975 -0.000666405 -7.68296e-06
-0.000666405 0.0029422 7.8403e-07
-7.68296e-06 7.8403e-07 0.00144685
0.002198 -0.00118464 9.87515e-05
-0.00118464 -0.00229082 -7.58194e-05
9.87515e-05 -7.58194e-05 -0.00163895
-0.000441662 -0.000454133 -3.17916e-05
-0.000454133 -0.00072924 1.74735e-05
-3.17916e-05 1.74735e-05 -0.000758657
0.000188306 -0.00042814 -2.31567e-05
-0.00042814 -0.000567644 1.13436e-06
-2.31567e-05 1.13436e-06 -0.000670039
0.00467311 -0.000840379 5.16475e-05
-0.000840379 0.00152863 -2.14764e-05
5.16475e-05 -2.14764e-05 0.00140512
0.000483699 -0.000514163 -2.06009e-05
-0.000514163 -0.000313215 -5.22282e-06
-2.06009e-05 -5.22282e-06 -0.000642876
0.00192438 -0.000721271 -6.15191e-07
-0.000721271 0.000213831 -1.90816e-06
-6.15191e-07 -1.90816e-06 -8.17953e-05
0.00254422 -0.000669576 2.88505e-06
-0.000669576 0.000293717 -3.88952e-06
2.88505e-06 -3.88952e-06 0.000120422
0.00188709 -0.000686732 -6.13529e-06
-0.000686732 0.000332334 5.83196e-06
-6.13529e-06 5.83196e-06 -6.49174e-05
0.00194819 -0.000606509 -6.76842e-07
-0.000606509 0.000134977 1.55907e-06
-6.76842e-07 1.55907e-06 -0.000116836
0.00199819 -0.000462384 2.36891e-06
-0.000462384 5.91285e-05 -3.00256e-07
2.36891e-06 -3.00256e-07 -7.53285e-05
0.00121985 -0.000506923 2.91735e-06
-0.000506923 -9.65057e-05 6.68663e-06
2.91735e-06 6.68663e-06 -0.000393148
0.00183652 -0.000441277 -5.57244e-07
-0.000441277 8.10963e-05 1.61478e-06
-5.57244e-07 1.61478e-06 -0.000104738
0.00187947 -0.000391362 -2.39362e-06
-0.000391362 6.67377e-05 3.91759e-07
-2.39362e-06 3.91759e-07 -6.46498e-05
0.00206052 -0.000374587 -4.25148e-06
-0.000374587 0.000254871 5.10867e-07
-4.25148e-06 5.10867e-07 0.000121068
0.0018355 -0.000365872 -2.77377e-06
-0.000365872 0.000109579 3.33085e-06
-2.77377e-06 3.33085e-06 -4.38125e-05
0.00188991 -0.000384824 -2.46455e-06
-0.000384824 0.000177975 -4.7193e-06
-2.46455e-06 -4.7193e-06 5.22297e-06
0.00182802 -0.000460966 -5.12652e-06
-0.000460966 0.000188488 -2.21464e-06
-5.12652e-06 -2.21464e-06 -5.52989e-05
0.00178723 -0.000461735 1.55773e-06
-0.000461735 0.000135197 6.47467e-07
1.55773e-06 6.47467e-07 -0.000104275
0.00172182 -0.000433549 5.21585e-06
-0.000433549 8.68673e-05 7.06054e-06
5.21585e-06 7.06054e-06 -0.00013374
0.00167727 -0.000482153 -6.62521e-06
-0.000482153 0.000276523 -7.85107e-07
-6.62521e-06 -7.85107e-07 -1.68919e-05
0.00156504 -0.000514841 -6.79424e-07
-0.000514841 0.00013011 2.00622e-07
-6.79424e-07 2.00622e-07 -0.000171058
0.00201457 -0.000599561 4.03841e-06
-0.000599561 0.00037607 3.85243e-07
4.03841e-06 3.85243e-07 5.52149e-05
0.00135618 -0.000333698 -6.40148e-06
-0.000333698 0.000283347 4.8274e-06
-6.40148e-06 4.8274e-06 3.47143e-05
0.0015089 -0.00045433 2.10167e-07
-0.00045433 0.000307496 1.02694e-06
2.10167e-07 1.02694e-06 4.16794e-06
0.00158486 -0.000537934 1.15533e-06
-0.000537934 0.000294858 2.9739e-07
1.15533e-06 2.9739e-07 -3.84586e-05
0.000792536 -0.000204391 -6.52526e-06
-0.000204391 9.05006e-05 4.94828e-06
-6.52526e-06 4.94828e-06 -0.000102271
0.00106675 -0.00028316 1.45973e-07
-0.00028316 0.000161621 -7.92507e-07
1.45973e-07 -7.92507e-07 -6.48405e-05
0.000846867 -0.000322349 5.35937e-07
-0.000322349 -1.5806e-05 -1.34338e-06
5.35937e-07 -1.34338e-06 -0.000274244
0.000426591 -7.96576e-05 -1.50202e-05
-7.96576e-05 -7.9363e-05 1.36896e-05
-1.50202e-05 1.36896e-05 -0.000150886
0.000675338 -0.000157171 5.12964e-07
-0.000157171 9.71968e-05 9.64542e-07
5.12964e-07 9.64542e-07 -0.000106816
0.000979321 -0.000302736 1.69599e-06
-0.000302736 0.000211096 -1.39015e-07
1.69599e-06 -1.39015e-07 -2.46448e-05
0.00351604 0.000175757 -6.85439e-05
0.000175757 0.00187253 3.74191e-06
-6.85439e-05 3.74191e-06 0.00185633
0.000514206 -1.97697e-05 7.04634e-07
-1.97697e-05 -8.74408e-06 -5.38899e-07
7.04634e-07 -5.38899e-07 -6.78937e-05
0.00149601 -0.000156765 2.06761e-06
-0.000156765 0.000611981 -6.12674e-06
2.06761e-06 -6.12674e-06 0.000431043
0.00204425 0.000114609 3.64713e-05
0.000114609 0.000952356 1.05004e-06
3.64713e-05 1.05004e-06 0.000938629
0.000598431 1.02474e-05 4.89975e-06
1.02474e-05 4.01166e-05 -9.84568e-06
4.89975e-06 -9.84568e-06 -5.88777e-06
0.00296803 0.000127828 5.61482e-05
0.000127828 0.00151201 -3.5128e-06
5.61482e-05 -3.5128e-06 0.00151021
0.00115583 0.00022635 6.45934e-06
0.00022635 0.000330766 7.45133e-07
6.45934e-06 7.45133e-07 0.000156132
0.000504281 0.000106691 -9.68952e-07
0.000106691 -6.14536e-06 -4.53069e-07
-9.68952e-07 -4.53069e-07 -0.000157204
0.000604439 0.000117642 1.09428e-06
0.000117642 8.49548e-05 -2.36133e-06
1.09428e-06 -2.36133e-06 -8.26707e-05
0.000686451 0.000113263 -1.49752e-06
0.000113263 0.000155253 -3.00773e-07
-1.49752e-06 -3.00773e-07 -7.92346e-06
0.000642439 7.65178e-05 2.91538e-07
7.65178e-05 0.000115357 4.01837e-07
2.91538e-07 4.01837e-07 -4.3811e-05
0.000736851 5.46827e-05 -4.06661e-07
5.46827e-05 0.000136514 -6.6509e-06
-4.06661e-07 -6.6509e-06 2.34245e-05
0.00056622 3.89557e-06 -3.23549e-06
3.89557e-06 1.78266e-05 -9.60507e-06
-3.23549e-06 -9.60507e-06 -2.01278e-05
0.000625856 2.58684e-05 4.85415e-07
2.58684e-05 7.39465e-05 -1.67121e-07
4.85415e-07 -1.67121e-07 -2.61479e-05
0.000418062 3.97554e-05 -2.76979e-06
3.97554e-05 -4.6745e-05 2.70758e-06
-2.76979e-06 2.70758e-06 -0.000173699
0.00274197 -9.82041e-05 -5.13829e-05
-9.82041e-05 0.00135947 -4.14683e-06
-5.13829e-05 -4.14683e-06 0.00136524
0.000471822 -4.31584e-06 6.05345e-07
-4.31584e-06 -4.4495e-05 -1.83314e-07
6.05345e-07 -1.83314e-07 -7.53079e-05
0.000543625 2.89162e-05 -1.54494e-06
2.89162e-05 2.15588e-05 4.12032e-06
-1.54494e-06 4.12032e-06 -6.774e-05
0.00259954 -8.48155e-05 -6.11353e-06
-8.48155e-05 0.00126504 4.60294e-07
-6.11353e-06 4.60294e-07 0.00127315
0.000452463 -2.16766e-05 -1.82314e-07
-2.16766e-05 -6.10981e-05 6.47195e-06
-1.82314e-07 6.47195e-06 -8.7276e-05
0.00245682 -6.77116e-05 2.77626e-05
-6.77116e-05 0.00117134 4.58389e-06
2.77626e-05 4.58389e-06 0.00118266
0.000387285 0.000272215 -0.000502799
0.000272215 0.00288463 -2.06455e-05
-0.000502799 -2.06455e-05 0.00118303
-0.00479295 0.00014213 3.44706e-05
0.00014213 0.00340169 6.40428e-06
3.44706e-05 6.40428e-06 -0.00138529
0.00531131 7.20759e-05 -0.000142341
7.20759e-05 0.0029898 -3.52746e-05
-0.000142341 -3.52746e-05 0.00150551
0.00035735 5.23206e-05 2.18728e-07
5.23206e-05 -8.91035e-05 -4.97676e-06
2.18728e-07 -4.97676e-06 -0.000220654
0.000846036 7.2737e-05 4.80604e-06
7.2737e-05 0.000231445 3.35747e-06
4.80604e-06 3.35747e-06 3.35842e-05
0.00243747 0.000428727 -2.1818e-06
0.000428727 0.00116448 2.83466e-06
-2.1818e-06 2.83466e-06 0.000919817
0.00181179 0.000462365 6.57472e-06
0.000462365 0.000651205 -2.17628e-06
6.57472e-06 -2.17628e-06 0.000323579
0.000478767 0.000232513 -2.40571e-07
0.000232513 6.17395e-05 -2.59393e-06
-2.40571e-07 -2.59393e-06 -0.00019121
0.00051743 0.000108003 -3.3827e-06
0.000108003 0.000123753 4.35996e-06
-3.3827e-06 4.35996e-06 -9.095e-05
0.000712169 0.000146063 8.73456e-06
0.000146063 0.000175858 6.76272e-06
8.73456e-06 6.76272e-06 -3.67217e-05
0.000483589 0.000256658 -6.74675e-06
0.000256658 0.000100532 -3.45808e-06
-6.74675e-06 -3.45808e-06 -0.000207368
-0.000644541 0.000278816 6.67667e-06
0.000278816 -0.000773591 -3.71036e-06
6.67667e-06 -3.71036e-06 -0.00102677
0.00200784 0.000574253 2.99136e-06
0.000574253 0.000682211 1.36568e-05
2.99136e-06 1.36568e-05 0.000525833
0.00137646 0.000679124 1.90226e-05
0.000679124 3.35434e-05 -6.89683e-06
1.90226e-05 -6.89683e-06 -0.00014401
0.0012465 0.000457889 -9.03182e-06
0.000457889 0.00038348 -9.8464e-07
-9.03182e-06 -9.8464e-07 0.000202442
0.00138494 0.000194452 -6.90979e-06
0.000194452 0.000648281 7.93869e-06
-6.90979e-06 7.93869e-06 0.000435627
0.0133862 0.00167782 -8.35419e-05
0.00167782 0.00239226 6.01888e-05
-8.35419e-05 6.01888e-05 0.000983901
-6.83862e-05 -0.00127044 -0.000373002
-0.00127044 0.00282398 -0.000140846
-0.000373002 -0.000140846 0.000342772
-0.00108334 -0.00206265 0.000391384
-0.00206265 0.00371843 0.00010214
0.000391384 0.00010214 -0.00046418
0.00252048 -0.00191538 0.000159208
-0.00191538 0.00142354 0.000274743
0.000159208 0.000274743 -0.000269145
0.0120633 0.00278488 -5.12949e-05
0.00278488 0.00465799 -3.24996e-05
-5.12949e-05 -3.24996e-05 0.000849432
-0.00248848 0.000173799 -5.47616e-05
0.000173799 -0.000581944 -4.41921e-05
-5.47616e-05 -4.41921e-05 -0.000803552
0.00174016 0.00124067 -3.42252e-05
0.00124067 0.000422111 -1.20742e-05
-3.42252e-05 -1.20742e-05 0.000791161
0.0151919 0.00260432 2.29099e-05
0.00260432 0.00425885 3.17407e-05
2.29099e-05 3.17407e-05 0.00204878
0.00639083 0.00249428 -2.83311e-05
0.00249428 0.000638937 -8.16394e-05
-2.83311e-05 -8.16394e-05 0.000524994
0.00177344 0.000913971 9.90662e-06
0.000913971 0.000224169 -2.67456e-06
9.90662e-06 -2.67456e-06 1.74469e-05
0.0013055 0.000700061 6.44093e-06
0.000700061 0.000257233 -1.65799e-06
6.44093e-06 -1.65799e-06 -1.62476e-05
0.00147961 0.000443562 -2.12624e-05
0.000443562 0.000596639 6.42453e-06
-2.12624e-05 6.42453e-06 0.000431919
0.00255522 0.00115088 -5.38066e-05
0.00115088 0.000761447 -1.8822e-05
-5.38066e-05 -1.8822e-05 0.00020478
0.00190369 0.00135564 3.24222e-05
0.00135564 -0.000414202 2.25848e-05
3.24222e-05 2.25848e-05 -0.000680385
0.00137646 -0.000374606 -7.75516e-05
-0.000374606 -0.0040109 3.6191e-05
-7.75516e-05 3.6191e-05 -0.0043321
0.00140376 -0.00105711 6.23513e-06
-0.00105711 0.00155395 -1.80998e-05
6.23513e-06 -1.80998e-05 0.00128459
-0.00883661 -0.000117478 0.000231459
-0.000117478 0.00433311 -1.96573e-05
0.000231459 -1.96573e-05 -0.000305967
0.000523009 -0.00121946 -2.86618e-05
-0.00121946 -0.000463547 3.52861e-06
-2.86618e-05 3.52861e-06 -0.00104366
0.0035925 -0.00200921 3.24908e-05
-0.00200921 0.000208597 2.68579e-05
3.24908e-05 2.68579e-05 -0.000196605
0.00142346 -0.000243806 0.000543148
-0.000243806 0.00307175 -0.000109154
0.000543148 -0.000109154 0.00157466
0.0125478 -0.00149103 -0.00020803
-0.00149103 0.00183124 9.64112e-05
-0.00020803 9.64112e-05 0.000310361
0.0012883 -0.000954955 -3.20926e-05
-0.000954955 -0.00020537 -5.88485e-07
-3.20926e-05 -5.88485e-07 -0.000442654
0.0100726 -2.23132e-05 -0.000138968
-2.23132e-05 -5.22652e-06 3.9402e-05
-0.000138968 3.9402e-05 -0.00104679
0.00619787 -0.00137689 9.52698e-05
-0.00137689 -3.34681e-05 1.40134e-05
9.52698e-05 1.40134e-05 0.00020479
0.00495906 -0.000953445 7.79542e-05
-0.000953445 0.0014815 -1.9151e-05
7.79542e-05 -1.9151e-05 0.00115817
0.0029622 -0.000528067 -6.05676e-05
-0.000528067 -0.000969898 1.83693e-05
-6.05676e-05 1.83693e-05 -0.000382572
-0.00435553 -6.91966e-05 -6.41772e-06
-6.91966e-05 -0.00305927 4.13374e-06
-6.41772e-06 4.13374e-06 -0.00302243
0.00160103 -0.000605516 -7.58916e-06
-0.000605516 -0.000136613 2.07214e-07
-7.58916e-06 2.07214e-07 -0.000168899
0.00293675 -0.000582196 2.79436e-05
-0.000582196 0.000392599 -1.22941e-05
2.79436e-05 -1.22941e-05 0.000436515
0.00100722 -0.000626054 -7.13506e-06
-0.000626054 -0.000250195 8.43586e-06
-7.13506e-06 8.43586e-06 -0.000525589
0.00196195 -0.000616327 -2.42102e-06
-0.000616327 -6.55272e-07 2.50007e-06
-2.42102e-06 2.50007e-06 -0.000169757
0.00221759 -0.000495595 5.05291e-06
-0.000495595 2.03786e-05 2.10531e-07
5.05291e-06 2.10531e-07 -2.7846e-05
0.00223288 -0.000627411 -6.84437e-06
-0.000627411 0.000291281 8.73224e-06
-6.84437e-06 8.73224e-06 3.6567e-05
0.00198426 -0.000459866 1.4796e-07
-0.000459866 5.00975e-05 1.44451e-06
1.4796e-07 1.44451e-06 -8.00919e-05
0.00210152 -0.00043973 -3.29032e-07
-0.00043973 0.000113291 1.1053e-06
-3.29032e-07 1.1053e-06 2.56397e-05
0.00183876 -0.000434927 2.35174e-06
-0.000434927 8.74071e-05 6.13846e-06
2.35174e-06 6.13846e-06 -9.56381e-05
0.00190008 -0.000395288 -1.99603e-07
-0.000395288 7.6261e-05 1.43858e-06
-1.99603e-07 1.43858e-06 -5.48915e-05
0.00203509 -0.000416722 -2.02478e-06
-0.000416722 0.00016274 1.3041e-06
-2.02478e-06 1.3041e-06 3.82353e-05
0.0019578 -0.000373646 -4.10823e-06
-0.000373646 0.000184993 3.16488e-06
-4.10823e-06 3.16488e-06 5.28222e-05
0.00204275 -0.000379554 -5.18002e-07
-0.000379554 0.000266956 -2.1316e-06
-5.18002e-07 -2.1316e-06 0.000124532
0.00193142 -0.00037153 3.90804e-06
-0.00037153 0.000160326 7.23305e-06
3.90804e-06 7.23305e-06 1.05429e-05
0.00189906 -0.000385349 3.78517e-07
-0.000385349 0.000182407 -7.74719e-07
3.78517e-07 -7.74719e-07 9.41993e-06
0.00179754 -0.000394866 -2.32303e-06
-0.000394866 0.000134506 -3.46279e-06
-2.32303e-06 -3.46279e-06 -5.90834e-05
0.00182638 -0.000432978 -4.34286e-06
-0.000432978 0.000262956 -2.40861e-06
-4.34286e-06 -2.40861e-06 1.50216e-05
0.00188519 -0.000467293 -1.35766e-07
-0.000467293 0.000224522 -1.43629e-07
-1.35766e-07 -1.43629e-07 -2.14182e-05
0.00198859 -0.000477309 6.47025e-06
-0.000477309 0.000259716 3.49742e-06
6.47025e-06 3.49742e-06 1.89881e-05
0.00134184 -0.000357507 -8.57428e-06
-0.000357507 0.000176726 2.70695e-06
-8.57428e-06 2.70695e-06 -7.93903e-05
0.00159869 -0.000470537 -1.58824e-06
-0.000470537 0.000236929 -5.23899e-08
-1.58824e-06 -5.23899e-08 -5.53552e-05
0.00157858 -0.000519642 3.68652e-06
-0.000519642 0.000128189 1.22384e-06
3.68652e-06 1.22384e-06 -0.000175009
0.000657326 -0.000193723 -8.40308e-06
-0.000193723 -5.77196e-05 6.78553e-06
-8.40308e-06 6.78553e-06 -0.000246044
0.001182 -0.000322275 1.59272e-06
-0.000322275 0.000170774 4.68673e-07
1.59272e-06 4.68673e-07 -7.7069e-05
0.00135313 -0.000434456 3.86598e-06
-0.000434456 0.000217079 1.85858e-07
3.86598e-06 1.85858e-07 -8.10745e-05
0.000461816 -0.000147944 -2.08786e-05
-0.000147944 -8.6177e-05 1.63547e-05
-2.08786e-05 1.63547e-05 -0.000178165
0.000751485 -0.000211222 -6.77131e-07
-0.000211222 7.09143e-05 3.32661e-07
-6.77131e-07 3.32661e-07 -0.000124408
0.000880398 -0.000262368 2.58765e-06
-0.000262368 4.67196e-05 -2.25917e-06
2.58765e-06 -2.25917e-06 -0.000176743
0.00443123 0.000203719 -0.00010121
0.000203719 0.00244804 6.93272e-06
-0.00010121 6.93272e-06 0.0024236
0.000545065 -9.54934e-05 -1.59589e-07
-9.54934e-05 -5.40339e-06 -8.04151e-07
-1.59589e-07 -8.04151e-07 -8.40967e-05
0.00108586 -0.000187926 4.07178e-06
-0.000187926 0.000351627 -3.73953e-06
4.07178e-06 -3.73953e-06 0.000140856
0.00384421 0.000160857 1.40132e-05
0.000160857 0.00207072 3.41049e-07
1.40132e-05 3.41049e-07 0.00205925
0.000558732 -3.95095e-05 1.18253e-05
-3.95095e-05 1.19365e-05 -1.21075e-05
1.18253e-05 -1.21075e-05 -5.05045e-05
0.00334736 0.000129838 8.86569e-05
0.000129838 0.00175156 -3.68099e-06
8.86569e-05 -3.68099e-06 0.00174951
0.000737968 0.00028996 4.58806e-06
0.00028996 -1.35137e-05 -5.59562e-06
4.58806e-06 -5.59562e-06 -0.000262484
0.000870822 0.000213855 2.31045e-06
0.000213855 0.000157387 -8.84956e-07
2.31045e-06 -8.84956e-07 -1.85158e-05
8.42757e-05 0.000103007 3.63356e-06
0.000103007 -0.000255674 -8.08428e-07
3.63356e-06 -8.08428e-07 -0.000430881
-0.000450095 2.9243e-05 -3.43939e-06
2.9243e-05 -0.00057885 -2.48422e-06
-3.43939e-06 -2.48422e-06 -0.000717905
0.000417372 5.98135e-05 -3.22211e-08
5.98135e-05 -3.88094e-05 9.20469e-07
-3.22211e-08 9.20469e-07 -0.000200627
0.000741158 7.7809e-05 -9.08148e-07
7.7809e-05 0.000127515 -7.67118e-06
-9.08148e-07 -7.67118e-06 -4.0473e-07
0.000426528 4.08212e-05 -1.51539e-06
4.08212e-05 -3.29931e-05 2.92342e-06
-1.51539e-06 2.92342e-06 -0.000177584
0.000574121 3.84193e-05 -7.70244e-08
3.84193e-05 4.16512e-05 -7.32505e-08
-7.70244e-08 -7.32505e-08 -7.07525e-05
0.000623312 5.21293e-06 -4.81617e-06
5.21293e-06 5.34788e-05 -1.14021e-05
-4.81617e-06 -1.14021e-05 7.02244e-06
0.00301721 -0.00011217 -6.92351e-05
-0.00011217 0.00153764 -4.37087e-06
-6.92351e-05 -4.37087e-06 0.00154008
0.000463314 -5.16477e-06 9.71431e-07
-5.16477e-06 -4.31104e-05 -2.88466e-07
9.71431e-07 -2.88466e-07 -8.11764e-05
0.000513 2.59468e-05 -1.17801e-06
2.59468e-05 7.55468e-06 5.87601e-06
-1.17801e-06 5.87601e-06 -9.28097e-05
0.00275894 -0.000101959 -6.85053e-06
-0.000101959 0.00137033 5.68364e-07
-6.85053e-06 5.68364e-07 0.00137488
0.00039904 -3.92745e-05 -3.13585e-06
-3.92745e-05 -8.48322e-05 7.50108e-06
-3.13585e-06 7.50108e-06 -0.000117368
0.00259188 -8.4965e-05 3.43024e-05
-8.4965e-05 0.00125972 4.47382e-06
3.43024e-05 4.47382e-06 0.00126772
0.0133986 0.000516195 0.000353631
0.000516195 0.00240477 9.11396e-05
0.000353631 9.11396e-05 0.00167794
-0.00234923 -0.00182378 -0.000301656
-0.00182378 -0.00274866 -5.38535e-05
-0.000301656 -5.38535e-05 -0.0038341
-0.00806935 0.00098086 -0.000131946
0.00098086 0.00253442 -9.66038e-05
-0.000131946 -9.66038e-05 -0.00277837
0.000227873 2.59249e-05 1.72195e-05
2.59249e-05 -0.000140406 5.26934e-07
1.72195e-05 5.26934e-07 -0.000357343
0.00158348 0.0003249 -1.28102e-05
0.0003249 0.000656311 2.50979e-06
-1.28102e-05 2.50979e-06 0.000442802
0.00175292 0.000372128 -6.13196e-06
0.000372128 0.000801034 -2.63572e-06
-6.13196e-06 -2.63572e-06 0.000516432
0.00176999 0.000452381 -3.81532e-07
0.000452381 0.000650397 7.75098e-07
-3.81532e-07 7.75098e-07 0.000330249
0.00095967 0.000419536 1.03528e-05
0.000419536 1.1245e-05 1.02348e-05
1.03528e-05 1.02348e-05 -0.000310189
-0.000513053 0.000258909 1.47156e-05
0.000258909 -0.000715883 -7.24317e-07
1.47156e-05 -7.24317e-07 -0.000985105
8.92632e-06 0.000223549 -7.98194e-06
0.000223549 -0.000134962 -2.90824e-09
-7.98194e-06 -2.90824e-09 -0.000460624
0.000142202 0.000374609 5.41519e-06
0.000374609 -0.000350762 -1.91952e-07
5.41519e-06 -1.91952e-07 -0.000636039
0.00200272 0.000573418 2.24249e-06
0.000573418 0.000720279 2.83147e-06
2.24249e-06 2.83147e-06 0.0005206
8.05901e-05 0.000427359 8.25106e-06
0.000427359 -0.00050633 3.45692e-06
8.25106e-06 3.45692e-06 -0.000726446
0.00271422 0.000755772 2.84404e-06
0.000755772 0.00074036 3.75041e-06
2.84404e-06 3.75041e-06 0.000573479
0.00157891 0.000719713 1.28835e-05
0.000719713 0.000111675 3.87849e-07
1.28835e-05 3.87849e-07 -0.000108839
0.000884081 0.000619229 3.18355e-06
0.000619229 -0.000239253 -7.51027e-07
3.18355e-06 -7.51027e-07 -0.00038401
0.00076347 0.000399798 2.80146e-08
0.000399798 0.00012585 -2.23354e-05
2.80146e-08 -2.23354e-05 -5.57609e-05
0.0054189 0.00114797 5.16857e-06
0.00114797 -0.00046946 7.15541e-06
5.16857e-06 7.15541e-06 0.000333054
0.0120138 0.00170543 0.000195348
0.00170543 0.0016063 9.40034e-05
0.000195348 9.40034e-05 -0.000107844
0.00988605 -0.00269284 0.000269043
-0.00269284 0.00471754 -4.7696e-05
0.000269043 -4.7696e-05 0.00290343
0.00464933 0.00290131 0.000419886
0.00290131 -0.000490079 0.000241459
0.000419886 0.000241459 -0.00449275
0.000184332 0.000854572 -5.55517e-05
0.000854572 -6.04272e-06 -6.32006e-06
-5.55517e-05 -6.32006e-06 0.000411339
0.00344577 0.00182362 -0.000107605
0.00182362 -0.000328805 -4.23266e-05
-0.000107605 -4.23266e-05 -0.000181241
0.00543793 0.00160046 6.7435e-05
0.00160046 0.00113628 2.16596e-05
6.7435e-05 2.16596e-05 0.000948025
0.00361198 0.00114175 1.54991e-05
0.00114175 0.00103063 4.78972e-06
1.54991e-05 4.78972e-06 0.000792751
0.000381971 0.000564348 -1.81414e-05
0.000564348 -0.000175008 1.12815e-05
-1.81414e-05 1.12815e-05 -0.000416955
0.00529585 0.00170847 -0.000153374
0.00170847 0.00113379 -1.83949e-05
-0.000153374 -1.83949e-05 0.000804883
0.00284909 -0.000341805 2.83211e-06
-0.000341805 0.000175676 3.73894e-06
2.83211e-06 3.73894e-06 0.000262134
0.0107245 -0.000425772 -2.29105e-05
-0.000425772 0.00203098 3.53814e-06
-2.29105e-05 3.53814e-06 0.00155643
-0.0113913 -0.00159978 0.00051274
-0.00159978 -0.00570946 3.12282e-06
0.00051274 3.12282e-06 -0.00574254
-0.000141662 -0.000800732 -6.63679e-05
-0.000800732 -0.000952937 8.78938e-06
-6.63679e-05 8.78938e-06 -0.00115094
0.00845403 -0.00179348 5.9584e-05
-0.00179348 0.000709402 7.70522e-05
5.9584e-05 7.70522e-05 0.00120734
0.00105369 -0.000295165 -0.000178449
-0.000295165 -0.00337627 4.28228e-05
-0.000178449 4.28228e-05 -0.00539513
0.00190267 -0.000672781 1.2877e-05
-0.000672781 -0.000240469 2.72293e-06
1.2877e-05 2.72293e-06 -0.00029874
0.0041772 -0.000414331 -2.55331e-05
-0.000414331 -0.000257755 -3.7495e-06
-2.55331e-05 -3.7495e-06 0.000103743
0.00475128 -0.00062125 3.20889e-05
-0.00062125 0.000996367 -1.7556e-05
3.20889e-05 -1.7556e-05 0.00120375
0.00416026 -0.000244148 7.52939e-05
-0.000244148 0.000932111 5.92217e-06
7.52939e-05 5.92217e-06 0.000881832
-0.00188337 -0.000366137 -5.02939e-06
-0.000366137 -0.00206858 1.12861e-05
-5.02939e-06 1.12861e-05 -0.0019654
0.00197608 -0.000522251 -2.63792e-06
-0.000522251 -0.000142257 1.33175e-08
-2.63792e-06 1.33175e-08 -5.66048e-05
0.00202002 -0.000384887 1.87639e-05
-0.000384887 -0.000249688 -4.03209e-06
1.87639e-05 -4.03209e-06 -5.5747e-05
0.00171132 -0.000594699 -2.30179e-06
-0.000594699 -0.000131693 6.02886e-06
-2.30179e-06 6.02886e-06 -0.000301701
0.00217454 -0.000495713 1.52814e-06
-0.000495713 -2.79893e-07 8.64573e-07
1.52814e-06 8.64573e-07 -4.99455e-05
0.00214285 -0.000423465 1.37597e-06
-0.000423465 3.18872e-05 5.30411e-07
1.37597e-06 5.30411e-07 1.94799e-05
0.00199331 -0.00045922 -4.96308e-08
-0.00045922 5.35771e-05 3.69941e-06
-4.96308e-08 3.69941e-06 -7.29531e-05
0.00202692 -0.000429236 3.85808e-07
-0.000429236 8.09877e-05 3.45949e-07
3.85808e-07 3.45949e-07 -5.59606e-06
0.00201755 -0.000384841 -3.14055e-06
-0.000384841 7.14654e-05 7.7384e-07
-3.14055e-06 7.7384e-07 -7.00422e-06
0.00189954 -0.00039771 3.72209e-06
-0.00039771 7.316e-05 2.47246e-06
3.72209e-06 2.47246e-06 -5.81565e-05
0.00194956 -0.000409454 -8.06465e-08
-0.000409454 0.000127904 1.60124e-07
-8.06465e-08 1.60124e-07 3.86245e-06
0.00186368 -0.000373969 6.66203e-07
-0.000373969 0.00010847 -1.57734e-07
6.66203e-07 -1.57734e-07 -1.74836e-05
0.00185853 -0.000372726 -3.28857e-08
-0.000372726 0.000117653 4.00989e-06
-3.28857e-08 4.00989e-06 -1.28879e-05
0.001984 -0.000371886 -2.16972e-06
-0.000371886 0.000226111 4.10466e-07
-2.16972e-06 4.10466e-07 8.75646e-05
0.00198298 -0.000376239 -1.08478e-07
-0.000376239 0.000238019 -1.78376e-06
-1.08478e-07 -1.78376e-06 7.41287e-05
0.00190677 -0.000384807 4.03935e-06
-0.000384807 0.000186107 3.4881e-06
4.03935e-06 3.4881e-06 1.31883e-05
0.00185763 -0.000400302 1.59576e-07
-0.000400302 0.000172024 -4.12974e-07
1.59576e-07 -4.12974e-07 -2.31961e-05
0.00188111 -0.000384945 -1.43126e-06
-0.000384945 0.000249973 -2.25293e-06
-1.43126e-06 -2.25293e-06 3.98771e-05
0.00142386 -0.000347764 -8.84737e-06
-0.000347764 0.000133167 1.01189e-06
-8.84737e-06 1.01189e-06 -0.000103649
0.00179349 -0.000433762 -9.15086e-07
-0.000433762 0.000243887 -6.86544e-07
-9.15086e-07 -6.86544e-07 -7.41943e-06
0.00194168 -0.000473778 4.15383e-06
-0.000473778 0.000260716 1.75309e-06
4.15383e-06 1.75309e-06 1.25563e-05
0.000837977 -0.000211405 -1.2125e-05
-0.000211405 -1.11283e-05 7.06977e-06
-1.2125e-05 7.06977e-06 -0.000200115
0.00131388 -0.000354449 1.20112e-07
-0.000354449 0.000159272 4.19033e-07
1.20112e-07 4.19033e-07 -9.57645e-05
0.00152147 -0.000459582 3.0614e-06
-0.000459582 0.000196761 6.23352e-07
3.0614e-06 6.23352e-07 -9.4556e-05
0.000443428 -0.000163561 -2.08433e-05
-0.000163561 -0.000120057 1.67567e-05
-2.08433e-05 1.67567e-05 -0.000221767
0.000805742 -0.000206098 4.24988e-07
-0.000206098 3.25906e-05 3.3166e-07
4.24988e-07 3.3166e-07 -0.000158841
0.000965525 -0.000306677 7.16287e-06
-0.000306677 3.34733e-05 -2.5917e-06
7.16287e-06 -2.5917e-06 -0.000212848
0.00544405 0.000159732 -0.000167482
0.000159732 0.00304313 9.2845e-06
-0.000167482 9.2845e-06 0.00302996
0.000502083 -0.000155626 -7.35518e-07
-0.000155626 -6.22752e-05 -6.93148e-08
-7.35518e-07 -6.93148e-08 -0.000156578
0.000682446 -0.000215862 7.73129e-06
-0.000215862 3.171e-05 -5.58673e-06
7.73129e-06 -5.58673e-06 -0.000164156
0.00473535 0.00014372 9.06723e-06
0.00014372 0.00261521 1.08575e-07
9.06723e-06 1.08575e-07 0.00260545
0.000505242 -0.000106646 1.70513e-05
-0.000106646 -2.94561e-05 -1.46398e-05
1.70513e-05 -1.46398e-05 -0.000111098
0.00407808 0.000111172 0.000140409
0.000111172 0.00220479 -9.0153e-06
0.000140409 -9.0153e-06 0.00220441
0.000773638 0.0003458 -4.85385e-06
0.0003458 -7.65395e-05 -2.39002e-06
-4.85385e-06 -2.39002e-06 -0.000356678
0.00152416 0.000365105 -5.64844e-07
0.000365105 0.000473546 -9.43545e-07
-5.64844e-07 -9.43545e-07 0.000211959
0.000287415 0.000179923 -5.57764e-07
0.000179923 -0.00024934 -2.74783e-06
-5.57764e-07 -2.74783e-06 -0.000456487
0.000587022 0.00020459 -4.86801e-06
0.00020459 -1.91902e-06 -1.87313e-06
-4.86801e-06 -1.87313e-06 -0.000183066
-2.90857e-05 0.000104038 8.28271e-07
0.000104038 -0.000332757 -7.88153e-07
8.28271e-07 -7.88153e-07 -0.000510519
0.00117641 0.00019537 -3.20948e-06
0.00019537 0.000416331 -7.18011e-06
-3.20948e-06 -7.18011e-06 0.000236299
4.73245e-06 3.05189e-05 -1.16662e-06
3.05189e-05 -0.00029636 6.7347e-07
-1.16662e-06 6.7347e-07 -0.000453231
0.000742799 7.20932e-05 4.17098e-07
7.20932e-05 0.00013452 -4.22834e-07
4.17098e-07 -4.22834e-07 5.1307e-06
0.000613602 1.86364e-05 -7.3261e-06
1.86364e-05 4.58692e-05 -1.33239e-05
-7.3261e-06 -1.33239e-05 -9.1269e-06
0.000581374 2.52463e-05 -9.60203e-07
2.52463e-05 4.97796e-05 7.68781e-06
-9.60203e-07 7.68781e-06 -6.29792e-05
0.00049434 9.76703e-06 1.5115e-07
9.76703e-06 -2.2485e-05 -1.83144e-07
1.5115e-07 -1.83144e-07 -6.82536e-05
0.00332442 -0.000125934 -8.64951e-05
-0.000125934 0.00173618 -4.89968e-06
-8.64951e-05 -4.89968e-06 0.00173467
0.00296076 -0.000119411 -6.874e-06
-0.000119411 0.00150374 6.36051e-07
-6.874e-06 6.36051e-07 0.00150399
0.000399767 1.33776e-05 4.02597e-06
1.33776e-05 -8.20721e-05 9.30946e-06
4.02597e-06 9.30946e-06 -0.000118778
0.00270159 -0.00010137 4.19801e-05
-0.00010137 0.00133495 4.23614e-06
4.19801e-05 4.23614e-06 0.00133935
0.00399101 0.000113816 7.60114e-05
0.000113816 -0.000780577 1.82298e-05
7.60114e-05 1.82298e-05 0.000159961
0.00385025 -0.000796111 0.000114418
-0.000796111 -0.00338727 5.78702e-05
0.000114418 5.78702e-05 -0.00456268
0.0101832 -0.00195273 -0.000156298
-0.00195273 0.00377982 -7.40937e-05
-0.000156298 -7.40937e-05 0.00353381
0.00116375 0.000462234 8.71148e-06
0.000462234 -3.69625e-05 6.90281e-06
8.71148e-06 6.90281e-06 -0.00033143
0.0031703 0.000523603 -6.1549e-06
0.000523603 0.00162843 6.9096e-06
-6.1549e-06 6.9096e-06 0.00131156
0.00166741 0.000437719 -2.19184e-06
0.000437719 0.000609496 1.84042e-06
-2.19184e-06 1.84042e-06 0.000297905
0.00106485 0.000434219 3.24747e-06
0.000434219 0.00022167 1.87044e-06
3.24747e-06 1.87044e-06 -8.22657e-05
0.00134674 0.000459511 -2.42003e-06
0.000459511 0.000260326 1.48885e-06
-2.42003e-06 1.48885e-06 -7.53511e-05
0.00128769 0.00053785 1.63478e-05
0.00053785 0.000168648 1.29923e-05
1.63478e-05 1.29923e-05 -0.000128683
0.00155512 0.000529623 -2.49224e-05
0.000529623 0.000456331 -6.35527e-06
-2.49224e-05 -6.35527e-06 0.000124126
0.000874848 0.000484955 1.38102e-05
0.000484955 0.000103055 -1.34876e-05
1.38102e-05 -1.34876e-05 -0.000107925
0.00120499 0.00055478 2.26993e-06
0.00055478 0.000119233 -2.01663e-06
2.26993e-06 -2.01663e-06 -0.000123522
0.00154342 0.000644342 4.102e-06
0.000644342 5.31582e-05 1.73106e-06
4.102e-06 1.73106e-06 -4.31379e-05
0.00170235 0.000689144 1.12239e-05
0.000689144 0.000104996 3.68321e-07
1.12239e-05 3.68321e-07 -0.000133662
0.00160623 0.000634123 2.03381e-05
0.000634123 8.52585e-05 1.07849e-05
2.03381e-05 1.07849e-05 -8.20877e-05
0.00104428 0.00067019 -4.0246e-06
0.00067019 -0.000176783 -5.77345e-06
-4.0246e-06 -5.77345e-06 -0.000383094
0.000639033 0.000584537 -9.55384e-06
0.000584537 -0.000362162 -4.81947e-06
-9.55384e-06 -4.81947e-06 -0.000487585
0.00154948 0.000611142 4.18558e-05
0.000611142 -0.000605683 3.71838e-05
4.18558e-05 3.71838e-05 -0.000455518
0.00571688 0.00122321 -7.83959e-05
0.00122321 -0.000691255 -2.30497e-05
-7.83959e-05 -2.30497e-05 0.000185328
0.00352272 0.00110835 0.00041023
0.00110835 -0.00310076 6.1929e-05
0.00041023 6.1929e-05 -0.00500573
0.000395796 0.00134981 -9.25594e-05
0.00134981 -0.00143019 -3.3184e-05
-9.25594e-05 -3.3184e-05 -0.00115105
0.00396633 0.00129481 -3.24996e-05
0.00129481 0.000724623 -7.64642e-06
-3.24996e-05 -7.64642e-06 0.000581452
0.003512 0.00113655 -0.000107178
0.00113655 0.000929518 -3.11369e-05
-0.000107178 -3.11369e-05 0.000684979
0.00273511 -0.00025804 -4.36789e-05
-0.00025804 -0.000156428 -1.93126e-05
-4.36789e-05 -1.93126e-05 4.452e-05
0.000305922 -0.000175363 4.59657e-05
-0.000175363 -0.000387767 1.11794e-05
4.59657e-05 1.11794e-05 -0.000106745
0.00180222 0.000845127 0.000143145
0.000845127 -0.00427336 -6.22423e-06
0.000143145 -6.22423e-06 -0.00448688
-0.00129166 -0.00043292 -2.88827e-05
-0.00043292 -0.00191197 3.95826e-05
-2.88827e-05 3.95826e-05 -0.00177167
0.00581249 -0.000428245 -0.00010708
-0.000428245 0.000691565 3.53372e-05
-0.00010708 3.53372e-05 0.000663951
0.00249378 -0.000469308 -2.54078e-05
-0.000469308 -0.000185003 9.69402e-06
-2.54078e-05 9.69402e-06 7.97316e-05
0.00392257 -0.000283023 1.44895e-06
-0.000283023 0.000703193 -3.76053e-06
1.44895e-06 -3.76053e-06 0.000707454
0.00210778 -0.00027553 4.27072e-05
-0.00027553 -0.000304341 -5.36329e-06
4.27072e-05 -5.36329e-06 -2.06043e-05
0.00346292 -8.17711e-05 3.10657e-05
-8.17711e-05 0.00103595 -1.58024e-06
3.10657e-05 -1.58024e-06 0.00100245
0.000858151 -0.000443756 -2.52359e-05
-0.000443756 -0.000751507 1.20928e-05
-2.52359e-05 1.20928e-05 -0.000618813
0.00194071 -0.000396582 -6.92833e-07
-0.000396582 -0.000319845 2.1854e-06
-6.92833e-07 2.1854e-06 -0.000132952
0.00219862 -0.000358979 2.82937e-06
-0.000358979 -0.000139042 -7.08349e-07
2.82937e-06 -7.08349e-07 1.3001e-05
0.00211465 -0.000490079 -3.07524e-06
-0.000490079 -2.39942e-05 2.00771e-06
-3.07524e-06 2.00771e-06 -7.34028e-05
0.0021358 -0.000420794 3.03502e-07
-0.000420794 3.47186e-05 -1.47236e-07
3.03502e-07 -1.47236e-07 2.24426e-05
0.00210246 -0.000346275 -1.67953e-06
-0.000346275 3.02661e-05 -9.57336e-08
-1.67953e-06 -9.57336e-08 8.96424e-06
0.00194318 -0.000417603 -9.02996e-08
-0.000417603 4.35073e-05 6.20323e-07
-9.02996e-08 6.20323e-07 -4.08453e-05
0.00200493 -0.000390833 -6.88095e-07
-0.000390833 7.12262e-05 1.27454e-07
-6.88095e-07 1.27454e-07 -8.92282e-06
0.00193755 -0.000340879 -1.70473e-06
-0.000340879 9.42955e-05 1.01451e-06
-1.70473e-06 1.01451e-06 -7.433e-06
0.00186236 -0.000401862 6.44312e-07
-0.000401862 9.19062e-05 -3.88814e-07
6.44312e-07 -3.88814e-07 -3.15492e-05
0.00183966 -0.00037317 1.08703e-06
-0.00037317 8.98287e-05 -6.22495e-07
1.08703e-06 -6.22495e-07 -3.66185e-05
0.00186735 -0.000352025 1.02162e-06
-0.000352025 0.000124995 -1.64603e-06
1.02162e-06 -1.64603e-06 -1.42111e-05
0.00192491 -0.000364203 -2.93989e-06
-0.000364203 0.000185501 3.58198e-06
-2.93989e-06 3.58198e-06 5.08178e-05
0.00202256 -0.000375858 -1.83825e-06
-0.000375858 0.000257386 5.18561e-07
-1.83825e-06 5.18561e-07 9.76238e-05
0.00193544 -0.000359522 -1.07574e-06
-0.000359522 0.000248872 -1.74006e-06
-1.07574e-06 -1.74006e-06 6.36004e-05
0.00191994 -0.000406343 2.64688e-06
-0.000406343 0.000210663 2.38324e-06
2.64688e-06 2.38324e-06 1.36571e-05
0.00188344 -0.000387397 7.09e-07
-0.000387397 0.000252024 -5.50462e-07
7.09e-07 -5.50462e-07 4.14377e-05
0.00155147 -0.000315579 -6.85458e-06
-0.000315579 0.00016277 1.09287e-06
-6.85458e-06 1.09287e-06 -5.04079e-05
0.000908994 -0.000212305 -1.34537e-05
-0.000212305 -1.93431e-05 6.85098e-06
-1.34537e-05 6.85098e-06 -0.000202733
0.00141277 -0.000344557 -1.18611e-06
-0.000344557 0.000133472 -8.26443e-08
-1.18611e-06 -8.26443e-08 -0.000103863
0.00175765 -0.000434643 2.81175e-06
-0.000434643 0.000222585 5.23072e-07
2.81175e-06 5.23072e-07 -3.21618e-05
0.00046091 -0.000206505 -2.25584e-05
-0.000206505 -0.000111185 1.73957e-05
-2.25584e-05 1.73957e-05 -0.000229559
0.000837708 -0.000214123 5.35598e-07
-0.000214123 -1.44692e-05 1.23176e-07
5.35598e-07 1.23176e-07 -0.000204745
0.00133182 -0.000355508 7.86939e-06
-0.000355508 0.000169312 -1.56166e-06
7.86939e-06 -1.56166e-06 -8.52949e-05
0.00603431 0.000117728 -0.000210208
0.000117728 0.00338411 1.24666e-05
-0.000210208 1.24666e-05 0.0033783
0.00049056 -0.000206184 -1.14622e-06
-0.000206184 -8.60774e-05 4.2246e-07
-1.14622e-06 4.2246e-07 -0.000196328
0.000882126 -0.000218062 1.09898e-05
-0.000218062 8.04655e-05 -6.77095e-06
1.09898e-05 -6.77095e-06 -0.000114586
0.00567417 0.000136128 -1.94704e-06
0.000136128 0.00318271 -3.57387e-07
-1.94704e-06 -3.57387e-07 0.00317124
0.000613309 -0.000177011 2.23921e-05
-0.000177011 7.31312e-06 -1.68759e-05
2.23921e-05 -1.68759e-05 -9.2457e-05
0.005142 0.000121968 0.00018109
0.000121968 0.00286309 -1.54486e-05
0.00018109 -1.54486e-05 0.00285484
0.00133588 0.000420246 -2.62063e-06
0.000420246 0.000145485 2.70982e-06
-2.62063e-06 2.70982e-06 -0.000143179
0.00142641 0.000414828 -3.68436e-06
0.000414828 0.000315647 -1.26406e-06
-3.68436e-06 -1.26406e-06 2.06755e-05
0.000965734 0.000290536 -6.0397e-06
0.000290536 5.62149e-05 -1.57379e-06
-6.0397e-06 -1.57379e-06 -0.000182681
0.00264369 0.000473242 -6.98455e-07
0.000473242 0.00116606 3.88678e-06
-6.98455e-07 3.88678e-06 0.000885389
0.00084884 0.000236876 -1.88757e-06
0.000236876 0.000103654 -1.22006e-06
-1.88757e-06 -1.22006e-06 -0.000117638
0.00121665 0.000224238 -5.74663e-06
0.000224238 0.000405135 -4.00539e-06
-5.74663e-06 -4.00539e-06 0.000205229
-5.12167e-05 9.88443e-05 -2.60746e-06
9.88443e-05 -0.000357155 -9.17221e-07
-2.60746e-06 -9.17221e-07 -0.000537323
0.000665907 0.000111246 -5.60292e-07
0.000111246 9.11218e-05 -2.82565e-07
-5.60292e-07 -2.82565e-07 -7.2475e-05
0.000600275 5.15621e-05 -1.26162e-05
5.15621e-05 3.01275e-05 -1.44513e-05
-1.26162e-05 -1.44513e-05 -3.83552e-05
0.000448935 4.09147e-05 3.91705e-07
4.09147e-05 -4.34508e-05 8.16828e-06
3.91705e-07 8.16828e-06 -0.000168272
0.000472394 1.45501e-05 1.57925e-07
1.45501e-05 -3.6777e-05 -2.82167e-07
1.57925e-07 -2.82167e-07 -9.13416e-05
0.00377625 -0.000137506 -0.000111065
-0.000137506 0.00202436 -5.92661e-06
-0.000111065 -5.92661e-06 0.00201897
0.000338054 1.3187e-05 4.71424e-06
1.3187e-05 -0.00011549 1.13173e-05
4.71424e-06 1.13173e-05 -0.000160584
0.00328092 -0.000136415 -6.55581e-06
-0.000136415 0.00171084 6.56396e-07
-6.55581e-06 6.56396e-07 0.00170654
0.00292506 -0.000121396 5.13116e-05
-0.000121396 0.00148171 4.09173e-06
5.13116e-05 4.09173e-06 0.00148125
0.000522013 9.41733e-05 8.31655e-06
9.41733e-05 -0.00137049 1.57174e-05
8.31655e-06 1.57174e-05 -0.000996615
0.0052603 2.12412e-05 6.10941e-05
2.12412e-05 -8.17901e-06 8.59683e-06
6.10941e-05 8.59683e-06 0.000769933
0.0124128 0.000761522 -6.04145e-05
0.000761522 0.00272687 -3.84848e-06
-6.04145e-05 -3.84848e-06 0.00203562
0.0018545 0.000593893 3.79965e-06
0.000593893 0.000330892 3.96278e-06
3.79965e-06 3.96278e-06 3.83764e-05
0.00197463 0.000580253 1.57317e-06
0.000580253 0.000287939 2.77031e-06
1.57317e-06 2.77031e-06 1.75758e-05
0.00128891 0.000478788 4.55284e-07
0.000478788 5.14899e-05 -3.08651e-06
4.55284e-07 -3.08651e-06 -0.000243316
0.00233704 0.000577962 -5.29655e-06
0.000577962 0.000974511 6.39117e-06
-5.29655e-06 6.39117e-06 0.000643309
0.00175396 0.000498815 -4.32136e-06
0.000498815 0.000526748 -5.2839e-06
-4.32136e-06 -5.2839e-06 0.000176473
0.00168477 0.000582924 6.88791e-06
0.000582924 0.000375511 3.06695e-06
6.88791e-06 3.06695e-06 7.70335e-05
0.00162404 0.000632555 5.94542e-07
0.000632555 1.45901e-05 -2.04975e-06
5.94542e-07 -2.04975e-06 -0.000239443
0.00225981 0.000672277 -1.59213e-05
0.000672277 0.000689156 -5.5508e-07
-1.59213e-05 -5.5508e-07 0.000421302
0.00127435 0.000609984 3.59827e-07
0.000609984 -0.000129201 1.51705e-05
3.59827e-07 1.51705e-05 -0.000179211
0.00252199 0.000768287 -1.5042e-06
0.000768287 0.000562853 8.47853e-08
-1.5042e-06 8.47853e-08 0.000309758
0.00250088 0.000676817 -5.65444e-06
0.000676817 0.000385844 1.21848e-06
-5.65444e-06 1.21848e-06 0.000183641
0.000940983 0.000338113 2.32701e-05
0.000338113 -0.000424693 1.6007e-05
2.32701e-05 1.6007e-05 -0.000434875
0.000914209 0.000570861 1.07449e-05
0.000570861 -0.000260482 -2.14292e-06
1.07449e-05 -2.14292e-06 -0.00042253
0.0012543 0.000687601 -2.79087e-05
0.000687601 -6.73023e-05 2.86344e-06
-2.79087e-05 2.86344e-06 -0.000279727
0.00268188 0.000677353 3.71356e-06
0.000677353 -1.03631e-05 8.87878e-06
3.71356e-06 8.87878e-06 6.50852e-05
0.00555995 0.000834061 -5.148e-06
0.000834061 -0.000691797 -2.57095e-05
-5.148e-06 -2.57095e-05 -0.000227646
0.00362647 0.00108337 -1.88794e-05
0.00108337 0.000882273 -4.014e-05
-1.88794e-05 -4.014e-05 0.000786668
0.00137917 -5.52767e-05 2.65736e-05
-5.52767e-05 -0.000249929 8.90505e-07
2.65736e-05 8.90505e-07 -0.000188855
0.00228765 -0.000188035 -4.17238e-05
-0.000188035 -0.000284272 2.28122e-06
-4.17238e-05 2.28122e-06 -0.000166783
0.00205377 0.000257137 1.63589e-05
0.000257137 -0.000590514 -3.5252e-06
1.63589e-05 -3.5252e-06 -0.000457389
0.000236976 -0.000336547 -4.285e-05
-0.000336547 -0.0013613 3.34041e-05
-4.285e-05 3.34041e-05 -0.00108423
0.00340755 -0.000355157 -9.80073e-05
-0.000355157 0.000337949 -5.84435e-06
-9.80073e-05 -5.84435e-06 0.000380613
0.00226139 -0.000296442 7.04607e-06
-0.000296442 -0.000129074 -3.8392e-06
7.04607e-06 -3.8392e-06 0.00012762
0.00246489 -8.17152e-05 -1.03014e-05
-8.17152e-05 0.000395408 4.39398e-07
-1.03014e-05 4.39398e-07 0.000372699
0.00224491 -0.000218565 6.40826e-06
-0.000218565 -1.03499e-05 -1.85732e-07
6.40826e-06 -1.85732e-07 5.35002e-05
0.00216683 -1.17669e-05 6.41641e-06
-1.17669e-05 -1.2801e-05 6.48876e-07
6.41641e-06 6.48876e-07 -3.43229e-06
0.00191098 -0.000416253 -1.21719e-05
-0.000416253 -0.000370617 3.54042e-06
-1.21719e-05 3.54042e-06 -0.000192088
0.00222851 -0.000365518 -2.22917e-06
-0.000365518 -0.000106572 5.14923e-07
-2.22917e-06 5.14923e-07 1.51736e-05
0.00217405 -0.000262391 -4.38149e-07
-0.000262391 -3.50807e-05 -5.89301e-07
-4.38149e-07 -5.89301e-07 1.22614e-06
0.00212567 -0.000419482 -2.96798e-06
-0.000419482 3.35925e-05 2.6961e-08
-2.96798e-06 2.6961e-08 2.02577e-05
0.00209975 -0.000343275 -1.35483e-07
-0.000343275 3.9871e-05 6.18944e-08
-1.35483e-07 6.18944e-08 1.42681e-05
0.00201691 -0.000294497 -1.88527e-06
-0.000294497 4.56548e-05 5.9502e-07
-1.88527e-06 5.9502e-07 -1.05726e-05
0.0019949 -0.000397318 2.52751e-07
-0.000397318 7.24924e-05 -1.2637e-06
2.52751e-07 -1.2637e-06 -9.72406e-06
0.00191259 -0.000337827 6.41056e-07
-0.000337827 7.62247e-05 -2.51237e-07
6.41056e-07 -2.51237e-07 -2.58687e-05
0.00192302 -0.000312829 -3.52411e-07
-0.000312829 0.000115397 -2.80626e-07
-3.52411e-07 -2.80626e-07 1.16816e-07
0.00180632 -0.000372055 1.18246e-06
-0.000372055 6.56898e-05 -9.60001e-07
1.18246e-06 -9.60001e-07 -6.12296e-05
0.0019022 -0.000353903 2.22127e-07
-0.000353903 0.000145168 -4.42751e-07
2.22127e-07 -4.42751e-07 5.5139e-06
0.00185947 -0.000327985 -4.48264e-07
-0.000327985 0.000163022 -1.54193e-06
-4.48264e-07 -1.54193e-06 -8.46182e-07
0.00205844 -0.000375329 -1.8806e-06
-0.000375329 0.000274064 3.604e-06
-1.8806e-06 3.604e-06 0.000118452
0.00193135 -0.000359756 -5.65001e-07
-0.000359756 0.000247182 -1.28176e-07
-5.65001e-07 -1.28176e-07 6.30426e-05
0.00153543 -0.000287566 -5.60424e-06
-0.000287566 0.000118583 8.58703e-07
-5.60424e-06 8.58703e-07 -7.78875e-05
0.00188989 -0.000390023 3.35533e-06
-0.000390023 0.000256618 1.29321e-06
3.35533e-06 1.29321e-06 4.55224e-05
0.00157583 -0.00031861 -4.25655e-07
-0.00031861 0.000177845 6.20165e-09
-4.25655e-07 6.20165e-09 -3.48331e-05
0.000952187 -0.000198219 -1.42623e-05
-0.000198219 -2.6745e-05 6.5346e-06
-1.42623e-05 6.5346e-06 -0.000201445
0.000384782 -0.000184654 -2.00153e-05
-0.000184654 -0.000170636 1.62258e-05
-2.00153e-05 1.62258e-05 -0.000286584
0.000937747 -0.000215568 2.4496e-07
-0.000215568 -5.33332e-06 7.38768e-08
2.4496e-07 7.38768e-08 -0.000189561
0.00141227 -0.000342169 5.81224e-06
-0.000342169 0.000140091 -1.30975e-06
5.81224e-06 -1.30975e-06 -9.78981e-05
0.00627605 4.12325e-05 -0.000238492
4.12325e-05 0.0035089 1.48075e-05
-0.000238492 1.48075e-05 0.00351359
0.000469237 -0.000201916 -1.46245e-06
-0.000201916 -0.000113633 9.5972e-07
-1.46245e-06 9.5972e-07 -0.000227711
0.000884009 -0.000218786 1.22756e-05
-0.000218786 1.08281e-05 -6.48151e-06
1.22756e-05 -6.48151e-06 -0.000180954
0.00614228 9.30445e-05 -1.47254e-06
9.30445e-05 0.00344834 1.06407e-07
-1.47254e-06 1.06407e-07 0.00344349
0.000550406 -0.000210869 2.46786e-05
-0.000210869 -5.46774e-05 -1.73743e-05
2.46786e-05 -1.73743e-05 -0.000165333
0.00587167 0.000115582 0.000208033
0.000115582 0.00329954 -1.75602e-05
0.000208033 -1.75602e-05 0.00328949
0.00161146 0.000486496 -1.31015e-06
0.000486496 0.000182981 3.76918e-06
-1.31015e-06 3.76918e-06 -9.13587e-05
0.00139944 0.000434552 3.43545e-07
0.000434552 0.000181435 8.34387e-07
3.43545e-07 8.34387e-07 -0.00010957
0.00126979 0.000339157 -6.98107e-06
0.000339157 0.000163579 -8.44566e-07
-6.98107e-06 -8.44566e-07 -8.35592e-05
0.00174736 0.000449913 1.24278e-06
0.000449913 0.000505618 2.20591e-06
1.24278e-06 2.20591e-06 0.000202793
0.00112155 0.000298944 -1.52153e-06
0.000298944 0.000156018 1.4604e-07
-1.52153e-06 1.4604e-07 -8.16875e-05
0.0010002 0.000225713 -9.89475e-06
0.000225713 0.000198918 -3.41549e-06
-9.89475e-06 -3.41549e-06 3.21218e-06
0.00129703 0.000281612 -2.56648e-06
0.000281612 0.000383055 -1.23198e-07
-2.56648e-06 -1.23198e-07 0.000151395
0.000690258 0.000187713 5.89899e-07
0.000187713 9.18632e-05 6.07463e-07
5.89899e-07 6.07463e-07 -0.000106982
0.000633951 0.000127875 -2.15726e-05
0.000127875 3.58916e-05 -1.58076e-05
-2.15726e-05 -1.58076e-05 -4.9806e-05
0.000370207 5.70709e-05 3.76465e-07
5.70709e-05 -9.31426e-05 6.41107e-06
3.76465e-07 6.41107e-06 -0.000247263
0.000529686 4.18021e-05 -1.10181e-06
4.18021e-05 -8.66437e-06 -4.46584e-07
-1.10181e-06 -4.46584e-07 -7.38379e-05
0.00444043 -0.000146686 -0.000142382
-0.000146686 0.00244128 -8.8425e-06
-0.000142382 -8.8425e-06 0.00243103
0.000403873 1.37893e-05 6.38339e-06
1.37893e-05 -7.57976e-05 1.29382e-05
6.38339e-06 1.29382e-05 -0.000129923
0.00364301 -0.000155011 -6.62775e-06
-0.000155011 0.00194557 6.47923e-07
-6.62775e-06 6.47923e-07 0.00193554
0.00319606 -0.000142481 6.36724e-05
-0.000142481 0.00165963 4.15223e-06
6.36724e-05 4.15223e-06 0.00165331
0.000794786 0.000101661 2.16743e-05
0.000101661 -0.000590618 1.62437e-05
2.16743e-05 1.62437e-05 -0.000450971
0.00236933 0.00010134 -9.87642e-06
0.00010134 -0.000630252 -4.01286e-06
-9.87642e-06 -4.01286e-06 -0.000221697
0.00387274 0.000153759 0.000174415
0.000153759 -0.00127179 5.22525e-05
0.000174415 5.22525e-05 -9.40284e-06
0.00253739 0.000648096 -5.34622e-06
0.000648096 0.000549454 -3.09826e-07
-5.34622e-06 -3.09826e-07 0.000288704
0.00170319 0.000599161 -5.38106e-06
0.000599161 0.000226427 -4.45865e-06
-5.38106e-06 -4.45865e-06 -6.21732e-05
0.00204205 0.000486116 -7.47547e-07
0.000486116 0.000183667 3.97554e-06
-7.47547e-07 3.97554e-06 -2.45389e-05
0.00193886 0.000568463 1.05204e-06
0.000568463 0.000265479 3.37127e-07
1.05204e-06 3.37127e-07 -1.80699e-06
0.00139352 0.000493044 5.80816e-08
0.000493044 0.000125284 -9.64052e-06
5.80816e-08 -9.64052e-06 -0.000169336
0.00185635 0.000502881 -1.54856e-06
0.000502881 5.68012e-06 8.21001e-07
-1.54856e-06 8.21001e-07 -0.000182729
0.00227111 0.000648983 -7.59517e-06
0.000648983 0.000694079 -3.21456e-06
-7.59517e-06 -3.21456e-06 0.000391091
0.00207322 0.000661081 -2.22521e-08
0.000661081 0.000289202 -5.50779e-07
-2.22521e-08 -5.50779e-07 2.8977e-05
0.00197992 0.000377418 -9.38689e-06
0.000377418 -6.55943e-05 2.21557e-08
-9.38689e-06 2.21557e-08 -0.000126141
0.00291854 0.000815088 -4.43652e-06
0.000815088 0.000773773 6.38777e-06
-4.43652e-06 6.38777e-06 0.000520421
0.00224312 0.000658763 -8.61709e-07
0.000658763 0.000236737 -3.20541e-07
-8.61709e-07 -3.20541e-07 3.48177e-05
0.000771976 0.00033736 4.55339e-06
0.00033736 -0.000481689 3.09366e-06
4.55339e-06 3.09366e-06 -0.000497942
-0.000483504 0.000456084 -1.85963e-05
0.000456084 -0.000983284 -3.52028e-06
-1.85963e-05 -3.52028e-06 -0.00112492
0.00307096 0.000725666 -8.62425e-05
0.000725666 0.000169369 -3.16382e-05
-8.62425e-05 -3.16382e-05 0.00018163
0.00200476 6.04417e-05 -1.55613e-06
6.04417e-05 -0.000138225 -1.2201e-06
-1.55613e-06 -1.2201e-06 -8.97112e-05
0.00241928 -5.83809e-05 5.07746e-06
-5.83809e-05 0.000417564 2.20517e-07
5.07746e-06 2.20517e-07 0.000466293
0.00208201 -0.000155449 -6.85333e-05
-0.000155449 -0.000307176 7.34241e-06
-6.85333e-05 7.34241e-06 -0.000258482
0.00228237 -0.000313622 -4.95558e-05
-0.000313622 -3.11993e-05 6.80555e-06
-4.95558e-05 6.80555e-06 0.00018922
0.00146151 -9.34562e-05 -8.69455e-06
-9.34562e-05 -0.000244629 2.72947e-06
-8.69455e-06 2.72947e-06 -0.000256326
0.00220936 -0.000215639 2.62284e-08
-0.000215639 -3.91095e-05 -1.4563e-06
2.62284e-08 -1.4563e-06 4.22148e-05
0.00222445 -1.31262e-05 -2.0787e-06
-1.31262e-05 -4.87111e-06 1.4049e-06
-2.0787e-06 1.4049e-06 1.17045e-05
0.00223411 -7.33126e-05 -9.87812e-07
-7.33126e-05 -5.17984e-06 -1.30517e-07
-9.87812e-07 -1.30517e-07 3.05379e-05
0.0022529 -0.000368635 -4.78199e-06
-0.000368635 -7.29359e-05 1.14512e-07
-4.78199e-06 1.14512e-07 2.02749e-05
0.00214652 -0.000253021 4.47385e-07
-0.000253021 -3.51289e-05 -2.21757e-07
4.47385e-07 -2.21757e-07 -4.71979e-06
0.00209117 -0.000199627 -9.75351e-07
-0.000199627 9.87252e-06 -4.17384e-08
-9.75351e-07 -4.17384e-08 1.19543e-05
0.0021018 -0.000340451 8.89529e-07
-0.000340451 5.20818e-05 -2.59887e-07
8.89529e-07 -2.59887e-07 2.2798e-05
0.00201207 -0.000291249 1.69437e-07
-0.000291249 4.82286e-05 1.3692e-07
1.69437e-07 1.3692e-07 -8.28138e-06
0.00198987 -0.000251117 -1.53252e-06
-0.000251117 0.000106724 2.27116e-07
-1.53252e-06 2.27116e-07 2.18462e-05
0.00189572 -0.000335027 2.27176e-06
-0.000335027 6.26342e-05 -1.28056e-06
2.27176e-06 -1.28056e-06 -3.98235e-05
0.00190919 -0.000311907 3.20563e-07
-0.000311907 0.000104475 -2.3421e-07
3.20563e-07 -2.3421e-07 -1.11203e-05
0.00187422 -0.000285685 -6.62545e-08
-0.000285685 0.000127653 -1.30795e-06
-6.62545e-08 -1.30795e-06 -1.0625e-05
0.00193574 -0.00035575 6.4844e-08
-0.00035575 0.000164623 6.23651e-07
6.4844e-08 6.23651e-07 2.45153e-05
0.00188608 -0.000329009 -3.62497e-07
-0.000329009 0.000180715 -5.29254e-08
-3.62497e-07 -5.29254e-08 1.68832e-05
0.00158481 -0.000262241 -3.63987e-06
-0.000262241 0.00011277 4.94948e-07
-3.63987e-06 4.94948e-07 -6.80132e-05
0.00192702 -0.000359858 5.52908e-07
-0.000359858 0.000245201 1.62086e-06
5.52908e-07 1.62086e-06 6.22473e-05
0.00156776 -0.000289624 -3.91524e-07
-0.000289624 0.000137551 9.90318e-08
-3.91524e-07 9.90318e-08 -5.8695e-05
0.000975348 -0.000178879 -1.44141e-05
-0.000178879 -3.15317e-05 5.89524e-06
-1.44141e-05 5.89524e-06 -0.000198626
0.00159582 -0.000321342 5.8397e-06
-0.000321342 0.000190317 -7.61147e-07
5.8397e-06 -7.61147e-07 -2.18157e-05
0.000987737 -0.000199524 1.16733e-07
-0.000199524 -7.79248e-06 8.63319e-08
1.16733e-07 8.63319e-08 -0.000182264
0.00260968 -0.000153261 -4.09981e-05
-0.000153261 0.0011755 1.04117e-05
-4.09981e-05 1.04117e-05 0.00108391
0.00193665 -7.65852e-05 -0.000221585
-7.65852e-05 0.000838185 2.78048e-05
-0.000221585 2.78048e-05 0.000819855
0.00157172 -0.000181775 -9.97568e-06
-0.000181775 0.000550697 -3.06747e-07
-9.97568e-06 -3.06747e-07 0.000443653
0.00095478 -0.000218052 1.32903e-05
-0.000218052 2.03889e-06 -6.35502e-06
1.32903e-05 -6.35502e-06 -0.000182955
0.00633063 2.42716e-05 -6.83214e-06
2.42716e-05 0.00354912 3.77117e-07
-6.83214e-06 3.77117e-07 0.00355032
0.00049882 -0.000227927 2.47852e-05
-0.000227927 -9.62048e-05 -1.69809e-05
2.47852e-05 -1.69809e-05 -0.000212462
0.00622667 7.23963e-05 0.000231032
7.23963e-05 0.0035048 -2.06938e-05
0.000231032 -2.06938e-05 0.00349747
0.00205992 0.000373324 2.35175e-08
0.000373324 0.00017108 7.97097e-07
2.35175e-08 7.97097e-07 1.0567e-05
0.00191194 0.000474648 2.23143e-06
0.000474648 0.000246484 4.35882e-06
2.23143e-06 4.35882e-06 1.06068e-05
0.00187915 0.000510216 9.09935e-08
0.000510216 0.000337557 2.12384e-07
9.09935e-08 2.12384e-07 6.17031e-05
0.00141506 0.000369061 -6.07663e-06
0.000369061 0.00017741 1.10977e-07
-6.07663e-06 1.10977e-07 -6.80667e-05
0.00148071 0.000452154 4.64925e-06
0.000452154 0.000225799 -8.63746e-07
4.64925e-06 -8.63746e-07 -6.85196e-05
0.00123941 0.000335219 -4.34531e-07
0.000335219 0.000146259 3.04111e-07
-4.34531e-07 3.04111e-07 -0.000100331
0.000831356 0.000205978 -1.16271e-05
0.000205978 1.37749e-05 -5.31283e-06
-1.16271e-05 -5.31283e-06 -0.000170346
0.00126786 0.000306217 4.99385e-06
0.000306217 0.000251109 2.35587e-06
4.99385e-06 2.35587e-06 1.47512e-05
0.000752223 0.000201423 7.16584e-07
0.000201423 4.24411e-05 8.16918e-07
7.16584e-07 8.16918e-07 -0.000149135
0.000595055 0.000203322 -2.54237e-05
0.000203322 -5.44077e-06 -1.70242e-05
-2.54237e-05 -1.70242e-05 -0.000112081
0.00034468 0.00015087 2.24671e-06
0.00015087 -0.000117366 3.10667e-06
2.24671e-06 3.10667e-06 -0.000314724
0.000569588 0.000109738 -1.33436e-06
0.000109738 -2.32108e-06 -7.33693e-07
-1.33436e-06 -7.33693e-07 -8.50755e-05
0.00534638 -0.000144973 -0.000185664
-0.000144973 0.00300296 -1.52676e-05
-0.000185664 -1.52676e-05 0.00298586
0.000354663 3.24244e-05 9.31354e-06
3.24244e-05 -0.000110235 1.43359e-05
9.31354e-06 1.43359e-05 -0.000173646
0.00418345 -0.000174468 -8.55531e-06
-0.000174468 0.00228987 7.4595e-07
-8.55531e-06 7.4595e-07 0.00227311
0.00355475 -0.000163302 8.08874e-05
-0.000163302 0.00189224 4.41418e-06
8.08874e-05 4.41418e-06 0.00187999
0.00213365 0.000192805 -3.88471e-06
0.000192805 -8.27241e-05 -5.78823e-07
-3.88471e-06 -5.78823e-07 -3.16816e-05
0.00204174 7.16987e-05 2.35217e-05
7.16987e-05 5.09158e-05 -2.73682e-06
2.35217e-05 -2.73682e-06 0.000182818
0.00493532 0.000153947 -0.000108464
0.000153947 0.00050827 -1.34281e-05
-0.000108464 -1.34281e-05 0.000939028
0.00195778 0.000435765 -4.74772e-06
0.000435765 8.99323e-05 1.44625e-06
-4.74772e-06 1.44625e-06 -8.26964e-05
0.00210181 0.000603419 -3.15319e-06
0.000603419 0.000317122 -2.12345e-07
-3.15319e-06 -2.12345e-07 6.23995e-05
0.00162167 0.000610357 -6.73632e-06
0.000610357 0.000162234 -8.6135e-06
-6.73632e-06 -8.6135e-06 -0.000122819
0.00217126 0.000481075 3.04362e-06
0.000481075 0.00027889 1.30176e-06
3.04362e-06 1.30176e-06 7.35421e-05
0.00190071 0.00055752 -6.66346e-07
0.00055752 0.000242618 -3.70539e-06
-6.66346e-07 -3.70539e-06 -2.19999e-05
0.00228182 0.000362995 -7.30756e-07
0.000362995 0.000115919 8.47189e-08
-7.30756e-07 8.47189e-08 4.32146e-05
0.00183141 0.000502406 1.1557e-07
0.000502406 1.80515e-05 7.70939e-07
1.1557e-07 7.70939e-07 -0.000171231
0.00254819 0.000692782 -5.5295e-06
0.000692782 0.000578741 -1.07429e-06
-5.5295e-06 -1.07429e-06 0.000309743
0.00200469 0.000374079 -5.1882e-07
0.000374079 -4.30361e-05 -4.99574e-07
-5.1882e-07 -4.99574e-07 -0.000102535
0.00210153 0.000647448 1.26979e-05
0.000647448 0.00014509 1.78247e-06
1.26979e-05 1.78247e-06 -5.95703e-05
0.000937084 0.000338701 -3.65313e-05
0.000338701 -0.000366854 -1.43855e-05
-3.65313e-05 -1.43855e-05 -0.000390422
0.00219882 6.8382e-05 -3.69917e-07
6.8382e-05 -9.40941e-06 3.40769e-07
-3.69917e-07 3.40769e-07 2.65487e-05
0.00213829 7.17059e-05 -1.96786e-06
7.17059e-05 -4.14548e-05 2.59141e-07
-1.96786e-06 2.59141e-07 2.33209e-06
0.00311925 -5.22611e-05 -4.01126e-05
-5.22611e-05 0.000887833 3.03833e-06
-4.01126e-05 3.03833e-06 0.000922382
0.00214905 -0.000210034 -1.19293e-05
-0.000210034 -8.58351e-05 1.857e-06
-1.19293e-05 1.857e-06 1.18339e-05
0.00226797 -1.08439e-05 -3.04569e-06
-1.08439e-05 -1.03824e-05 -2.07763e-06
-3.04569e-06 -2.07763e-06 1.33012e-05
0.00219051 -7.88335e-05 -6.14034e-07
-7.88335e-05 -5.08263e-05 -9.86015e-08
-6.14034e-07 -9.86015e-08 -7.55882e-06
0.00199288 -6.35387e-05 -1.10834e-06
-6.35387e-05 -1.68281e-06 2.63606e-07
-1.10834e-06 2.63606e-07 2.05629e-07
0.00211108 -0.000242324 5.01378e-07
-0.000242324 -3.82472e-05 1.71472e-07
5.01378e-07 1.71472e-07 -1.39575e-05
0.00204709 -0.000203003 -1.54849e-07
-0.000203003 -7.44796e-06 2.24982e-09
-1.54849e-07 2.24982e-09 -1.06293e-05
0.00202098 -0.00017125 -1.04487e-06
-0.00017125 8.32815e-05 3.17465e-08
-1.04487e-06 3.17465e-08 3.16335e-05
0.00200972 -0.000288182 2.1317e-06
-0.000288182 5.26497e-05 -3.91476e-07
2.1317e-06 -3.91476e-07 -4.29069e-06
0.00193375 -0.000248226 1.67112e-07
-0.000248226 6.73825e-05 -1.90039e-07
1.67112e-07 -1.90039e-07 -1.76072e-05
0.0018724 -0.000229187 -3.52698e-07
-0.000229187 8.19014e-05 -9.54482e-07
-3.52698e-07 -9.54482e-07 -3.13282e-05
0.00189895 -0.00031111 1.47195e-06
-0.00031111 9.57275e-05 -1.67472e-07
1.47195e-06 -1.67472e-07 -2.01703e-05
0.00191028 -0.000287456 -3.07052e-07
-0.000287456 0.000149833 -5.10716e-08
-3.07052e-07 -5.10716e-08 1.13729e-05
0.00162909 -0.00022834 -2.38369e-06
-0.00022834 0.000105248 1.91901e-07
-2.38369e-06 1.91901e-07 -5.91074e-05
0.00191151 -0.000330024 2.66652e-07
-0.000330024 0.000197601 1.25657e-06
2.66652e-07 1.25657e-06 3.37945e-05
0.00161463 -0.00026404 -3.19751e-07
-0.00026404 0.000129587 4.9354e-08
-3.19751e-07 4.9354e-08 -5.09175e-05
0.000992088 -0.00015969 -1.38339e-05
-0.00015969 -3.71385e-05 4.95046e-06
-1.38339e-05 4.95046e-06 -0.000198361
0.00159983 -0.000291705 4.62281e-06
-0.000291705 0.00015633 -6.81711e-07
4.62281e-06 -6.81711e-07 -3.96973e-05
0.00101591 -0.000179679 1.28533e-08
-0.000179679 -1.05123e-05 1.46801e-07
1.28533e-08 1.46801e-07 -0.00017697
0.00262789 -0.000153251 -4.90463e-05
-0.000153251 0.00117573 9.84902e-06
-4.90463e-05 9.84902e-06 0.00109205
0.00102195 -0.000201114 1.42796e-05
-0.000201114 1.03515e-05 -6.23785e-06
1.42796e-05 -6.23785e-06 -0.00016397
0.00274936 -0.00019409 4.36565e-05
-0.00019409 0.00125978 -6.35065e-06
4.36565e-05 -6.35065e-06 0.00117502
0.00199836 -0.000115072 -0.000224119
-0.000115072 0.000882236 3.24936e-05
-0.000224119 3.24936e-05 0.000861842
0.00404511 -7.32965e-05 -0.000219564
-7.32965e-05 0.00214807 1.92611e-05
-0.000219564 1.92611e-05 0.00213957
0.00283841 -0.000249293 0.00014068
-0.000249293 0.00132708 -2.14817e-05
0.00014068 -2.14817e-05 0.00124263
0.00637569 9.08821e-06 0.000246559
9.08821e-06 0.00358558 -2.45548e-05
0.000246559 -2.45548e-05 0.00358265
0.00227265 0.000373091 -2.3906e-06
0.000373091 0.00029222 -1.61664e-07
-2.3906e-06 -1.61664e-07 0.00015475
0.00174683 0.00036509 2.82248e-06
0.00036509 9.37471e-05 1.65247e-06
2.82248e-06 1.65247e-06 -9.50397e-05
0.00204022 0.000365432 5.42941e-07
0.000365432 0.00016295 -1.76185e-06
5.42941e-07 -1.76185e-06 9.22041e-06
0.00157083 0.000364192 -5.00669e-06
0.000364192 0.000172524 7.49964e-07
-5.00669e-06 7.49964e-07 -5.54667e-05
0.0019938 0.000479906 5.55287e-07
0.000479906 0.000283248 4.23742e-07
5.55287e-07 4.23742e-07 4.66425e-05
0.00214915 0.000534704 1.50302e-06
0.000534704 0.000493402 -3.05187e-06
1.50302e-06 -3.05187e-06 0.000215852
0.0013971 0.000369821 1.4353e-07
0.000369821 0.000161201 3.16196e-07
1.4353e-07 3.16196e-07 -8.55841e-05
0.000904608 0.000224821 -1.34852e-05
0.000224821 -9.39854e-06 -5.62898e-06
-1.34852e-05 -5.62898e-06 -0.000194394
0.00127987 0.000337888 8.0725e-06
0.000337888 0.000172319 2.33465e-06
8.0725e-06 2.33465e-06 -7.50555e-05
0.00077708 0.000200603 -2.25514e-07
0.000200603 -2.08478e-05 -1.98906e-07
-2.25514e-07 -1.98906e-07 -0.000202477
0.000485541 0.000230807 -2.57732e-05
0.000230807 -8.77215e-05 -1.75988e-05
-2.57732e-05 -1.75988e-05 -0.000202833
0.000359429 0.000176251 6.59702e-06
0.000176251 -0.000199983 3.47383e-06
6.59702e-06 3.47383e-06 -0.000387418
0.000431405 0.000173597 1.99839e-06
0.000173597 -0.000108267 4.69338e-07
1.99839e-06 4.69338e-07 -0.000207725
0.00607557 -0.000116345 -0.000213091
-0.000116345 0.0034452 -2.11239e-05
-0.000213091 -2.11239e-05 0.00342435
0.000342163 7.73217e-05 1.56174e-05
7.73217e-05 -0.000137666 1.50536e-05
1.56174e-05 1.50536e-05 -0.000214479
0.00499146 -0.000177498 -7.60446e-06
-0.000177498 0.00278718 -6.82508e-08
-7.60446e-06 -6.82508e-08 0.00276706
0.00396029 -0.000187747 9.51865e-05
-0.000187747 0.0021562 5.42006e-06
9.51865e-05 5.42006e-06 0.00213591
0.00221651 0.000217539 -9.47299e-07
0.000217539 3.1564e-06 2.84588e-07
-9.47299e-07 2.84588e-07 1.86219e-05
0.00206818 0.000196998 1.2046e-06
0.000196998 -0.000113459 3.23902e-08
1.2046e-06 3.23902e-08 -6.37679e-05
0.00297423 4.75172e-05 -7.91981e-05
4.75172e-05 0.000523882 -1.2267e-05
-7.91981e-05 -1.2267e-05 0.000655496
0.00202112 0.000316115 -6.12413e-07
0.000316115 5.07213e-05 2.05484e-07
-6.12413e-07 2.05484e-07 -5.07936e-05
0.00199135 0.000436022 -1.22945e-07
0.000436022 0.000131053 4.48538e-07
-1.22945e-07 4.48538e-07 -4.20002e-05
0.00164245 0.000554767 3.15085e-06
0.000554767 7.18158e-05 -2.00715e-06
3.15085e-06 -2.00715e-06 -0.000175947
0.0023021 0.000475839 2.84471e-07
0.000475839 0.000375621 -2.98354e-06
2.84471e-07 -2.98354e-06 0.00017324
0.00218298 0.000350002 -6.71032e-07
0.000350002 6.57412e-05 3.0252e-08
-6.71032e-07 3.0252e-08 -5.00004e-06
0.001806 0.000501819 -3.40718e-06
0.000501819 3.08897e-05 2.70414e-07
-3.40718e-06 2.70414e-07 -0.000159229
0.00191515 0.000364235 1.0863e-05
0.000364235 -6.39331e-05 9.44605e-08
1.0863e-05 9.44605e-08 -0.000122018
0.00204214 5.75631e-05 6.28343e-07
5.75631e-05 3.45129e-07 5.11977e-07
6.28343e-07 5.11977e-07 1.14665e-05
0.00214898 6.57007e-05 8.27766e-08
6.57007e-05 -2.84215e-05 9.77985e-09
8.27766e-08 9.77985e-09 5.05013e-06
0.00225716 8.64706e-05 -7.54334e-06
8.64706e-05 4.91886e-05 -8.18977e-08
-7.54334e-06 -8.18977e-08 8.80333e-05
0.0019133 -1.17439e-05 -4.40631e-06
-1.17439e-05 9.95264e-06 5.22013e-07
-4.40631e-06 5.22013e-07 -4.51671e-06
0.00216144 -8.98668e-05 1.78784e-06
-8.98668e-05 -8.64146e-05 -5.90714e-07
1.78784e-06 -5.90714e-07 -3.57194e-05
0.00200733 -6.62497e-05 -8.20331e-07
-6.62497e-05 2.35199e-06 3.27416e-07
-8.20331e-07 3.27416e-07 5.36997e-06
0.00197583 -9.92033e-05 -3.97782e-06
-9.92033e-05 4.48357e-05 3.15604e-07
-3.97782e-06 3.15604e-07 1.14389e-05
0.00200552 -0.000206332 1.61955e-06
-0.000206332 -2.35168e-05 2.79052e-09
1.61955e-06 2.79052e-09 -3.2143e-05
0.00197026 -0.000168426 1.78188e-06
-0.000168426 5.07247e-05 -3.92609e-07
1.78188e-06 -3.92609e-07 -4.87127e-07
0.00191894 -0.000158687 1.9163e-06
-0.000158687 9.07982e-05 -1.62459e-06
1.9163e-06 -1.62459e-06 -7.01597e-07
0.00187648 -0.000244656 1.93067e-06
-0.000244656 2.72521e-05 -5.71993e-07
1.93067e-06 -5.71993e-07 -5.77389e-05
0.00193674 -0.000230223 -1.83952e-07
-0.000230223 0.000122564 -1.68305e-07
-1.83952e-07 -1.68305e-07 9.44161e-06
0.00166868 -0.00018128 -1.49099e-06
-0.00018128 0.00010426 -1.4675e-07
-1.49099e-06 -1.4675e-07 -4.25699e-05
0.00194602 -0.000289026 2.60507e-07
-0.000289026 0.000172462 9.94275e-07
2.60507e-07 9.94275e-07 3.38649e-05
0.00164999 -0.000228709 -2.57423e-07
-0.000228709 0.000116698 8.59851e-08
-2.57423e-07 8.59851e-08 -4.7165e-05
0.00101059 -0.000137634 -1.31031e-05
-0.000137634 -4.01238e-05 3.86588e-06
-1.31031e-05 3.86588e-06 -0.000194836
0.00164382 -0.000265698 2.81701e-06
-0.000265698 0.000146168 -4.05923e-07
2.81701e-06 -4.05923e-07 -3.40252e-05
0.00103376 -0.000159535 -1.22705e-07
-0.000159535 -1.55146e-05 2.25322e-07
-1.22705e-07 2.25322e-07 -0.000175795
0.00262469 -0.000153026 -5.67031e-05
-0.000153026 0.00117036 9.64929e-06
-5.67031e-05 9.64929e-06 0.00108968
0.00105709 -0.000180546 1.4334e-05
-0.000180546 1.06653e-05 -5.61293e-06
1.4334e-05 -5.61293e-06 -0.000155109
0.00271451 -0.000178384 3.99269e-05
-0.000178384 0.00122842 -5.08501e-06
3.99269e-05 -5.08501e-06 0.00115057
0.00203714 -9.895e-05 -0.000219188
-9.895e-05 0.000899063 2.86569e-05
-0.000219188 2.86569e-05 0.00088074
0.00286996 -0.000204562 0.000137353
-0.000204562 0.00132933 -2.28334e-05
0.000137353 -2.28334e-05 0.00125239
0.00170917 -5.37978e-05 -9.42534e-05
-5.37978e-05 0.000708118 1.26699e-05
-9.42534e-05 1.26699e-05 0.000676667
0.00602394 7.80217e-05 6.51475e-05
7.80217e-05 0.0033537 -2.77809e-06
6.51475e-05 -2.77809e-06 0.00333304
0.0019956 0.000310618 8.84759e-07
0.000310618 0.000103403 6.12936e-07
8.84759e-07 6.12936e-07 -1.76131e-05
0.00204622 0.000344459 3.05689e-07
0.000344459 0.000226568 -1.76456e-07
3.05689e-07 -1.76456e-07 6.54574e-05
0.0021357 0.000368002 -3.90795e-06
0.000368002 0.000199962 -7.62453e-08
-3.90795e-06 -7.62453e-08 5.97114e-05
0.00177199 0.000329256 -2.25239e-06
0.000329256 0.00023458 3.92505e-07
-2.25239e-06 3.92505e-07 3.23511e-05
0.00175044 0.000370981 -4.20987e-07
0.000370981 8.0922e-05 -1.87739e-06
-4.20987e-07 -1.87739e-06 -0.000104638
0.00202522 0.000357901 -3.77033e-06
0.000357901 0.000157669 -5.48264e-06
-3.77033e-06 -5.48264e-06 1.06881e-05
0.00101933 0.000224912 -1.46715e-05
0.000224912 1.45695e-06 -5.29593e-06
-1.46715e-05 -5.29593e-06 -0.000177992
0.00152253 0.000361464 5.03772e-07
0.000361464 0.000142163 3.56379e-07
5.03772e-07 3.56379e-07 -8.62989e-05
0.00207413 0.000484773 2.80764e-06
0.000484773 0.000318322 -3.06357e-06
2.80764e-06 -3.06357e-06 8.10911e-05
0.00136149 0.000368694 7.1055e-06
0.000368694 0.000135282 8.42033e-07
7.1055e-06 8.42033e-07 -0.000112444
0.000868484 0.000218312 -8.71343e-07
0.000218312 -2.53267e-05 3.00942e-08
-8.71343e-07 3.00942e-08 -0.000208257
0.000450053 0.000229131 -2.50647e-05
0.000229131 -0.000113802 -1.68163e-05
-2.50647e-05 -1.68163e-05 -0.000233202
0.000645492 0.000188488 1.13357e-05
0.000188488 -0.000101374 5.06799e-06
1.13357e-05 5.06799e-06 -0.000279457
0.000440911 0.000216505 2.21647e-06
0.000216505 -0.000109268 5.82579e-07
2.21647e-06 5.82579e-07 -0.000224916
0.0063672 -3.40234e-05 -0.000234487
-3.40234e-05 0.00360791 -2.65066e-05
-0.000234487 -2.65066e-05 0.00359206
0.000483749 0.000158272 2.27751e-05
0.000158272 -8.02659e-05 1.6881e-05
2.27751e-05 1.6881e-05 -0.000175592
0.00585562 -0.000148634 2.31384e-06
-0.000148634 0.00330606 -1.0423e-06
2.31384e-06 -1.0423e-06 0.0032873
0.00467574 -0.000224719 0.000115539
-0.000224719 0.00261121 7.81692e-06
0.000115539 7.81692e-06 0.00257867
0.00203476 0.000173059 -1.40981e-06
0.000173059 2.71077e-05 3.3122e-08
-1.40981e-06 3.3122e-08 -1.27624e-06
0.00220415 0.000220169 1.98409e-07
0.000220169 -1.25309e-05 5.56484e-07
1.98409e-07 5.56484e-07 5.35744e-06
0.00207527 0.000201761 3.92643e-06
0.000201761 -0.000114903 3.49576e-07
3.92643e-06 3.49576e-07 -6.60746e-05
0.00205402 0.000312944 -1.56996e-07
0.000312944 7.75567e-05 5.33226e-08
-1.56996e-07 5.33226e-08 -2.02285e-05
0.00200489 0.000434337 5.83117e-07
0.000434337 0.00016203 -6.5172e-07
5.83117e-07 -6.5172e-07 -1.11895e-05
0.00211538 0.000338789 1.18336e-06
0.000338789 2.99874e-05 -3.54607e-07
1.18336e-06 -3.54607e-07 -3.89595e-05
0.00196252 5.87724e-05 -2.34614e-06
5.87724e-05 1.78654e-05 3.79973e-07
-2.34614e-06 3.79973e-07 6.8138e-06
0.00203007 5.32665e-05 3.83825e-07
5.32665e-05 -2.28335e-06 -8.35512e-08
3.83825e-07 -8.35512e-08 5.94866e-06
0.00209786 6.32166e-05 4.41187e-07
6.32166e-05 -4.96998e-05 -3.4815e-07
4.41187e-07 -3.4815e-07 -1.80567e-05
0.00192308 -1.29557e-05 -1.3242e-06
-1.29557e-05 1.28659e-05 8.944e-08
-1.3242e-06 8.944e-08 -2.10999e-06
0.00187657 -3.9147e-05 -5.73641e-06
-3.9147e-05 2.8478e-06 4.95523e-07
-5.73641e-06 4.95523e-07 -3.6176e-05
0.00202127 -6.86963e-05 1.23682e-06
-6.86963e-05 5.70706e-06 -7.01289e-08
1.23682e-06 -7.01289e-08 1.00831e-05
0.00193747 -9.7691e-05 -1.44157e-06
-9.7691e-05 2.61123e-05 2.44454e-07
-1.44157e-06 2.44454e-07 -1.04422e-05
0.00196703 -9.93748e-05 -2.84559e-06
-9.93748e-05 0.000114974 7.14914e-08
-2.84559e-06 7.14914e-08 4.28518e-05
0.00192434 -0.000166117 4.3067e-06
-0.000166117 2.21102e-05 -7.46489e-07
4.3067e-06 -7.46489e-07 -2.8766e-05
0.00191921 -0.000160515 2.59741e-06
-0.000160515 8.72219e-05 -9.56099e-07
2.59741e-06 -9.56099e-07 -4.46969e-06
0.00167615 -0.00012934 9.68498e-07
-0.00012934 9.42207e-05 -7.04771e-07
9.68498e-07 -7.04771e-07 -3.78427e-05
0.00198638 -0.000232445 5.01221e-07
-0.000232445 0.000153315 5.16835e-07
5.01221e-07 5.16835e-07 3.99867e-05
0.00166735 -0.000181861 -1.90336e-07
-0.000181861 9.9378e-05 2.01778e-08
-1.90336e-07 2.01778e-08 -4.72688e-05
0.00102588 -0.00011003 -1.25699e-05
-0.00011003 -4.13415e-05 2.81342e-06
-1.25699e-05 2.81342e-06 -0.000188113
0.00167458 -0.000229418 1.61217e-06
-0.000229418 0.000129314 -1.39161e-08
1.61217e-06 -1.39161e-08 -3.40998e-05
0.00104502 -0.000136439 -2.47459e-07
-0.000136439 -2.18168e-05 2.76109e-07
-2.47459e-07 2.76109e-07 -0.000175561
0.0025796 -0.000158681 -5.96321e-05
-0.000158681 0.00114146 8.53358e-06
-5.96321e-05 8.53358e-06 0.00106211
0.00107543 -0.000159421 1.37669e-05
-0.000159421 5.88888e-06 -4.58774e-06
1.37669e-05 -4.58774e-06 -0.000153425
0.00268706 -0.000155878 3.83455e-05
-0.000155878 0.00120415 -3.86705e-06
3.83455e-05 -3.86705e-06 0.00113044
0.00206204 -8.33271e-05 -0.000218255
-8.33271e-05 0.000907482 2.43039e-05
-0.000218255 2.43039e-05 0.000890316
0.00280114 -0.000173258 0.000134732
-0.000173258 0.00127487 -1.95515e-05
0.000134732 -1.95515e-05 0.00120568
0.00170794 -6.08776e-05 -8.54795e-05
-6.08776e-05 0.000701852 1.03628e-05
-8.54795e-05 1.03628e-05 0.0006731
0.00146032 -5.08526e-05 4.93132e-05
-5.08526e-05 0.000563735 -7.50506e-06
4.93132e-05 -7.50506e-06 0.000519928
0.0020242 0.000197159 -4.27791e-07
0.000197159 9.89663e-05 1.04399e-06
-4.27791e-07 1.04399e-06 2.27859e-05
0.00199089 0.000285869 -6.30749e-07
0.000285869 0.000161166 7.59414e-07
-6.30749e-07 7.59414e-07 2.15865e-05
0.00199323 0.000311803 -1.59032e-07
0.000311803 8.69546e-05 1.44393e-07
-1.59032e-07 1.44393e-07 -2.96004e-05
0.0018741 0.0003011 -1.20299e-06
0.0003011 0.000248155 3.9064e-07
-1.20299e-06 3.9064e-07 6.93191e-05
0.00198169 0.000338957 -4.80288e-07
0.000338957 0.000195609 -2.8423e-07
-4.80288e-07 -2.8423e-07 3.28184e-05
0.00199407 0.000363035 3.45306e-07
0.000363035 0.000104967 -2.92047e-07
3.45306e-07 -2.92047e-07 -3.81574e-05
0.00108915 0.000206582 -1.52187e-05
0.000206582 1.54543e-05 -4.88326e-06
-1.52187e-05 -4.88326e-06 -0.000154503
0.00167991 0.000328361 2.79886e-06
0.000328361 0.000170806 2.57868e-07
2.79886e-06 2.57868e-07 -2.98157e-05
0.00176538 0.000377737 -8.22828e-07
0.000377737 7.53665e-05 -3.50447e-06
-8.22828e-07 -3.50447e-06 -0.000107085
0.000373026 0.000183922 -2.24634e-05
0.000183922 -0.000179878 -1.40535e-05
-2.24634e-05 -1.40535e-05 -0.000291328
0.000974349 0.000219794 -5.57525e-07
0.000219794 -2.08599e-05 9.11939e-08
-5.57525e-07 9.11939e-08 -0.000199278
0.00148132 0.000359632 6.70794e-06
0.000359632 0.000115323 1.77846e-07
6.70794e-06 1.77846e-07 -0.000113813
0.000868975 0.000214939 1.35897e-05
0.000214939 -1.94302e-05 6.31477e-06
1.35897e-05 6.31477e-06 -0.000200841
0.000440961 0.000213114 1.02533e-06
0.000213114 -0.000116354 8.50927e-07
1.02533e-06 8.50927e-07 -0.000236878
0.00651739 6.58e-05 -0.000249749
6.58e-05 0.00368027 -3.03219e-05
-0.000249749 -3.03219e-05 0.0036703
0.000419803 0.000201045 2.29261e-05
0.000201045 -0.000120476 1.67418e-05
2.29261e-05 1.67418e-05 -0.000234698
0.00625953 -6.06903e-05 6.65649e-06
-6.06903e-05 0.00352986 -5.14765e-07
6.65649e-06 -5.14765e-07 0.00352114
0.00555644 -0.000181363 0.000165062
-0.000181363 0.00312401 8.9e-06
0.000165062 8.9e-06 0.00310286
0.00198101 0.000118544 -4.66586e-06
0.000118544 5.65223e-05 -9.00363e-07
-4.66586e-06 -9.00363e-07 2.56502e-05
0.00202272 0.000175194 9.51679e-07
0.000175194 1.9638e-05 3.97456e-07
9.51679e-07 3.97456e-07 -7.79658e-06
0.00217647 0.000222796 2.11893e-07
0.000222796 -3.49195e-05 -5.67209e-07
2.11893e-07 -5.67209e-07 -1.50329e-05
0.00209496 0.000309514 3.25334e-06
0.000309514 0.000109511 -3.2334e-09
3.25334e-06 -3.2334e-09 1.5558e-05
0.00180533 7.39571e-06 -4.24753e-06
7.39571e-06 -1.52761e-05 3.49008e-07
-4.24753e-06 3.49008e-07 -6.35126e-05
0.00194347 4.93385e-05 1.37271e-07
4.93385e-05 6.70488e-06 7.6768e-08
1.37271e-07 7.6768e-08 -5.87973e-06
0.0020192 4.89312e-05 9.10131e-08
4.89312e-05 -3.25444e-06 -3.46266e-07
9.10131e-08 -3.46266e-07 1.47002e-06
0.00193596 -1.26484e-05 1.66946e-06
-1.26484e-05 1.79801e-05 -6.78479e-07
1.66946e-06 -6.78479e-07 2.33173e-06
0.00188868 -3.42233e-05 -1.15402e-06
-3.42233e-05 1.12119e-05 -9.30856e-08
-1.15402e-06 -9.30856e-08 -2.67945e-05
0.00186969 -4.33013e-05 -1.10271e-06
-4.33013e-05 6.05463e-05 7.16997e-08
-1.10271e-06 7.16997e-08 -1.32313e-05
0.00189558 -9.63009e-05 2.4137e-06
-9.63009e-05 4.72486e-06 2.02766e-08
2.4137e-06 2.02766e-08 -3.51098e-05
0.00188882 -9.91598e-05 -1.58984e-06
-9.91598e-05 6.78544e-05 6.88921e-07
-1.58984e-06 6.88921e-07 -1.11602e-05
0.00178707 -8.04478e-05 -6.88746e-07
-8.04478e-05 0.000158972 -1.59492e-07
-6.88746e-07 -1.59492e-07 4.47156e-05
0.00194061 -0.000161538 4.11568e-06
-0.000161538 9.64343e-05 -4.09355e-07
4.11568e-06 -4.09355e-07 4.85271e-06
0.00166187 -0.000126862 1.61185e-06
-0.000126862 8.35666e-05 -5.22487e-07
1.61185e-06 -5.22487e-07 -4.79045e-05
0.00101998 -7.9291e-05 -1.22307e-05
-7.9291e-05 -4.89241e-05 2.07937e-06
-1.22307e-05 2.07937e-06 -0.000188235
0.00167771 -0.000180457 1.11576e-06
-0.000180457 0.000103081 1.46441e-07
1.11576e-06 1.46441e-07 -4.29635e-05
0.001033 -0.000109022 -1.34721e-07
-0.000109022 -3.65532e-05 1.50999e-07
-1.34721e-07 1.50999e-07 -0.000182752
0.000492616 -8.66457e-05 -2.00054e-05
-8.66457e-05 -0.000155255 5.50715e-06
-2.00054e-05 5.50715e-06 -0.00024156
0.0010768 -0.00013504 1.30663e-05
-0.00013504 -4.75163e-06 -3.40809e-06
1.30663e-05 -3.40809e-06 -0.000157481
0.00158173 -0.000103039 5.58229e-05
-0.000103039 0.000517217 -3.98875e-06
5.58229e-05 -3.98875e-06 0.000440701
0.00611904 -0.000143947 -0.000287506
-0.000143947 0.00340545 1.99685e-05
-0.000287506 1.99685e-05 0.00341828
0.00276589 -0.000140431 0.000132906
-0.000140431 0.00124296 -1.56377e-05
0.000132906 -1.56377e-05 0.00117862
0.001718 -6.43831e-05 -7.72719e-05
-6.43831e-05 0.000705936 6.84069e-06
-7.72719e-05 6.84069e-06 0.000677131
0.00137788 -8.26433e-05 6.08604e-05
-8.26433e-05 0.000516744 -8.97933e-06
6.08604e-05 -8.97933e-06 0.000471779
0.00200467 0.000148524 -2.37919e-06
0.000148524 0.000114608 2.69163e-07
-2.37919e-06 2.69163e-07 5.17332e-05
0.00198281 0.000209814 3.57514e-07
0.000209814 0.000142754 1.55036e-06
3.57514e-07 1.55036e-06 3.19686e-05
0.00199912 0.00019283 9.77417e-07
0.00019283 8.80774e-05 5.22492e-07
9.77417e-07 5.22492e-07 9.65907e-06
0.00177142 0.000243089 -1.10024e-06
0.000243089 0.000154899 6.70225e-07
-1.10024e-06 6.70225e-07 -2.51114e-06
0.00195037 0.000281356 6.69481e-07
0.000281356 0.000139408 5.67342e-08
6.69481e-07 5.67342e-08 4.93284e-07
0.00199034 0.000313506 8.4678e-07
0.000313506 6.96015e-05 1.46079e-07
8.4678e-07 1.46079e-07 -4.25815e-05
0.00098916 0.000176409 -1.59926e-05
0.000176409 -6.95918e-05 -3.90583e-06
-1.59926e-05 -3.90583e-06 -0.000229556
0.00187787 0.000300562 2.54288e-06
0.000300562 0.000249977 6.48991e-07
2.54288e-06 6.48991e-07 7.15241e-05
0.00190548 0.000332535 -1.12282e-06
0.000332535 0.000157972 -1.26867e-06
-1.12282e-06 -1.26867e-06 -6.4024e-06
0.000375321 0.000131716 -1.94957e-05
0.000131716 -0.000202281 -1.0502e-05
-1.94957e-05 -1.0502e-05 -0.000301945
0.000951794 0.000199603 3.72832e-07
0.000199603 -6.95386e-05 3.56956e-07
3.72832e-07 3.56956e-07 -0.000239058
0.00157553 0.00032653 7.67289e-06
0.00032653 9.92494e-05 -1.4951e-07
7.67289e-06 -1.4951e-07 -9.95741e-05
0.00648109 0.000147678 -0.00026099
0.000147678 0.00363851 -3.00842e-05
-0.00026099 -3.00842e-05 0.00363614
0.000398377 0.000175057 5.26609e-07
0.000175057 -0.000165063 7.70841e-07
5.26609e-07 7.70841e-07 -0.000277405
0.000919707 0.000214139 1.47805e-05
0.000214139 -4.85994e-05 5.80284e-06
1.47805e-05 5.80284e-06 -0.000225926
0.00037561 0.00019665 2.10153e-05
0.00019665 -0.000152512 1.66306e-05
2.10153e-05 1.66306e-05 -0.000273911
0.00639428 5.48296e-05 9.85913e-06
5.48296e-05 0.00359697 3.58333e-07
9.85913e-06 3.58333e-07 0.00359393
0.00616067 -9.32938e-05 0.000218453
-9.32938e-05 0.00346142 1.25056e-05
0.000218453 1.25056e-05 0.00345646
0.00189264 6.40336e-05 -7.08751e-06
6.40336e-05 4.35473e-05 -2.00233e-07
-7.08751e-06 -2.00233e-07 -8.36467e-06
0.00196128 0.000115673 2.50471e-07
0.000115673 4.09974e-05 7.52654e-08
2.50471e-07 7.52654e-08 1.00929e-05
0.00200987 0.00017744 1.84562e-06
0.00017744 1.14845e-05 3.73105e-07
1.84562e-06 3.73105e-07 -1.46238e-05
0.00179777 1.37567e-06 -4.90934e-07
1.37567e-06 2.63836e-05 5.35261e-09
-4.90934e-07 5.35261e-09 -5.26194e-05
0.00186508 1.25467e-05 3.16951e-08
1.25467e-05 2.17348e-05 5.51361e-09
3.16951e-08 5.51361e-09 -2.31678e-05
0.00192486 3.87403e-05 1.81643e-06
3.87403e-05 -4.28461e-06 -4.41604e-07
1.81643e-06 -4.41604e-07 -1.832e-05
0.00191202 -3.01684e-05 2.59026e-06
-3.01684e-05 2.65766e-05 -3.53722e-07
2.59026e-06 -3.53722e-07 -1.00862e-05
0.00185585 -4.17409e-05 -7.66908e-07
-4.17409e-05 5.1544e-05 1.96128e-07
-7.66908e-07 1.96128e-07 -2.11632e-05
0.001847 -3.50611e-05 1.77218e-06
-3.50611e-05 0.000211773 -5.01065e-07
1.77218e-06 -5.01065e-07 0.000101374
0.00179506 -9.84332e-05 -1.29535e-06
-9.84332e-05 1.14403e-05 1.07294e-06
-1.29535e-06 1.07294e-06 -7.43499e-05
0.00173944 -8.07288e-05 4.44337e-07
-8.07288e-05 0.000133751 5.06725e-08
4.44337e-07 5.06725e-08 1.44664e-05
0.000946062 -4.4128e-05 -1.31611e-05
-4.4128e-05 -9.93203e-05 1.23744e-06
-1.31611e-05 1.23744e-06 -0.000230128
0.00163563 -0.000126311 1.9973e-06
-0.000126311 6.53146e-05 -3.50639e-07
1.9973e-06 -3.50639e-07 -6.59468e-05
0.00102146 -7.55899e-05 -5.45623e-08
-7.55899e-05 -4.78124e-05 9.31297e-08
-5.45623e-08 9.31297e-08 -0.000186415
0.00049468 -2.21486e-05 -1.85768e-05
-2.21486e-05 -0.000157663 3.42999e-06
-1.85768e-05 3.42999e-06 -0.000240047
0.00105918 -0.000107524 1.23534e-05
-0.000107524 -2.14371e-05 -2.52975e-06
1.23534e-05 -2.52975e-06 -0.000166873
0.000496021 -7.06924e-05 -1.89228e-07
-7.06924e-05 -0.000151533 3.85717e-07
-1.89228e-07 3.85717e-07 -0.000238809
0.00607366 -3.73492e-05 -0.000277706
-3.73492e-05 0.0033732 1.21738e-05
-0.000277706 1.21738e-05 0.00338976
0.000529809 -7.27037e-05 1.52539e-05
-7.27037e-05 -0.00013174 -7.38723e-06
1.52539e-05 -7.38723e-06 -0.000222802
0.00384201 -9.40844e-05 0.000124964
-9.40844e-05 0.00201178 -5.80089e-06
0.000124964 -5.80089e-06 0.00199597
0.00134312 -8.23487e-05 6.6977e-05
-8.23487e-05 0.000495933 -9.1316e-06
6.6977e-05 -9.1316e-06 0.00045046
0.00186616 0.000114127 -5.25307e-06
0.000114127 4.06501e-05 -1.74695e-07
-5.25307e-06 -1.74695e-07 -2.46831e-05
0.00194157 0.000151385 8.73673e-07
0.000151385 0.000120998 2.0977e-06
8.73673e-07 2.0977e-06 2.34777e-05
0.00195145 0.0001428 -3.1039e-07
0.0001428 7.8666e-05 2.60725e-08
-3.1039e-07 2.60725e-08 1.60664e-05
0.00169282 0.000179902 -4.34332e-07
0.000179902 9.59079e-05 7.68561e-07
-4.34332e-07 7.68561e-07 -4.83768e-05
0.00196194 0.000208904 4.52164e-07
0.000208904 0.000127049 1.15994e-07
4.52164e-07 1.15994e-07 1.47572e-05
0.00197551 0.000188238 2.11895e-06
0.000188238 7.808e-05 -1.10081e-07
2.11895e-06 -1.10081e-07 -2.60014e-06
0.000991469 0.000144457 -1.46066e-05
0.000144457 -8.00524e-05 -2.90554e-06
-1.46066e-05 -2.90554e-06 -0.00023031
0.00178695 0.000241628 8.48189e-07
0.000241628 0.000169726 4.63794e-07
8.48189e-07 4.63794e-07 9.53861e-06
0.0019111 0.00027683 -1.76779e-07
0.00027683 0.000118452 -9.88887e-07
-1.76779e-07 -9.88887e-07 -1.97511e-05
0.000400548 9.37346e-05 -1.81366e-05
9.37346e-05 -0.000204973 -7.52334e-06
-1.81366e-05 -7.52334e-06 -0.000296304
0.000926254 0.000172705 -1.88906e-06
0.000172705 -0.000106533 -7.15176e-08
-1.88906e-06 -7.15176e-08 -0.000266216
0.00188708 0.000300486 6.35163e-06
0.000300486 0.000255125 9.57734e-07
6.35163e-06 9.57734e-07 7.69692e-05
0.00635472 0.000213987 -0.000278234
0.000213987 0.00355561 -2.90597e-05
-0.000278234 -2.90597e-05 0.00355689
0.000406067 0.000129407 3.40439e-08
0.000129407 -0.000185041 4.20478e-07
3.40439e-08 4.20478e-07 -0.00028519
0.000822325 0.000193476 1.46047e-05
0.000193476 -0.000150066 4.85453e-06
1.46047e-05 4.85453e-06 -0.000319247
0.00640968 0.000163219 1.35014e-05
0.000163219 0.00360023 2.65655e-06
1.35014e-05 2.65655e-06 0.00359691
0.000412467 0.00016505 1.99275e-05
0.00016505 -0.000157121 1.38985e-05
1.99275e-05 1.38985e-05 -0.000270183
0.00628353 2.05198e-05 0.000244424
2.05198e-05 0.00351762 1.87251e-05
0.000244424 1.87251e-05 0.00352206
0.00184356 4.39041e-05 -1.66621e-06
4.39041e-05 4.27314e-05 1.05486e-08
-1.66621e-06 1.05486e-08 -3.6731e-05
0.00190149 6.5877e-05 -1.13686e-06
6.5877e-05 5.88654e-05 -6.9847e-08
-1.13686e-06 -6.9847e-08 5.50415e-06
0.00193558 0.000112721 4.04603e-06
0.000112721 2.19958e-05 5.11129e-07
4.04603e-06 5.11129e-07 -8.92034e-06
0.00181213 -4.07116e-06 2.19675e-06
-4.07116e-06 0.000189056 -4.25694e-07
2.19675e-06 -4.25694e-07 8.05699e-05
0.00180042 1.75623e-06 -1.29366e-06
1.75623e-06 2.53201e-05 1.81773e-07
-1.29366e-06 1.81773e-07 -5.12265e-05
0.00192098 1.90055e-05 6.31599e-06
1.90055e-05 5.61752e-05 -1.42428e-07
6.31599e-06 -1.42428e-07 1.45183e-05
0.00183176 -4.05879e-05 -6.83421e-07
-4.05879e-05 3.62848e-05 4.64405e-07
-6.83421e-07 4.64405e-07 -3.56552e-05
0.00182552 -3.39155e-05 3.18742e-06
-3.39155e-05 0.000197042 -2.36747e-07
3.18742e-06 -2.36747e-07 8.68955e-05
0.000929845 -1.64477e-05 -1.28786e-05
-1.64477e-05 -0.000104914 3.30708e-07
-1.28786e-05 3.30708e-07 -0.000231167
0.00169827 -8.13181e-05 3.63335e-07
-8.13181e-05 0.000112454 2.57463e-07
3.63335e-07 2.57463e-07 -1.19058e-05
0.000978273 -4.40189e-05 -1.21474e-06
-4.40189e-05 -7.81853e-05 9.78794e-08
-1.21474e-06 9.78794e-08 -0.00021008
0.000499662 -7.48994e-06 -1.883e-05
-7.48994e-06 -0.000156679 2.19553e-06
-1.883e-05 2.19553e-06 -0.000236762
0.00102494 -7.31319e-05 1.17068e-05
-7.31319e-05 -4.48356e-05 -1.88435e-06
1.17068e-05 -1.88435e-06 -0.000182869
0.00047559 -3.4164e-05 8.30782e-07
-3.4164e-05 -0.000169959 -1.75943e-07
8.30782e-07 -1.75943e-07 -0.00025143
0.00595362 -0.000134085 -0.000282627
-0.000134085 0.00331255 1.32537e-05
-0.000282627 1.32537e-05 0.00332427
0.000463982 -5.3972e-05 1.79824e-05
-5.3972e-05 -0.000170966 -4.27473e-06
1.79824e-05 -4.27473e-06 -0.000257859
0.00603046 -7.35207e-05 7.58832e-06
-7.35207e-05 0.00334889 -6.85261e-08
7.58832e-06 -6.85261e-08 0.0033652
0.00167967 -2.87184e-05 0.000221209
-2.87184e-05 0.000673588 -1.36491e-05
0.000221209 -1.36491e-05 0.00066255
0.00182077 0.000101631 -3.62801e-07
0.000101631 3.37352e-05 6.0759e-07
-3.62801e-07 6.0759e-07 -5.87484e-05
0.00188734 0.000118187 -3.37127e-06
0.000118187 5.05476e-05 -8.90286e-07
-3.37127e-06 -8.90286e-07 -1.20695e-05
0.00168279 0.00012313 4.23886e-07
0.00012313 8.57331e-05 9.20974e-07
4.23886e-07 9.20974e-07 -4.4003e-05
0.0019369 0.000150303 8.15711e-07
0.000150303 0.000115854 1.89826e-07
8.15711e-07 1.89826e-07 1.84952e-05
0.00190936 0.000137427 2.9118e-06
0.000137427 4.89568e-05 -6.75328e-07
2.9118e-06 -6.75328e-07 -1.33535e-05
0.00109372 0.000108834 -1.27086e-05
0.000108834 -1.29551e-05 -1.95048e-06
-1.27086e-05 -1.95048e-06 -0.00015498
0.00169085 0.000178891 1.53395e-07
0.000178891 9.77329e-05 1.01944e-07
1.53395e-07 1.01944e-07 -4.65808e-05
0.00193863 0.000207859 5.43924e-07
0.000207859 0.000110057 -1.3235e-06
5.43924e-07 -1.3235e-06 -3.74415e-06
0.000442315 6.82175e-05 -1.78062e-05
6.82175e-05 -0.000189652 -5.4074e-06
-1.78062e-05 -5.4074e-06 -0.000276642
0.00100077 0.000144994 -1.89483e-06
0.000144994 -7.09455e-05 -1.01313e-08
-1.89483e-06 -1.01313e-08 -0.000222318
0.00180694 0.000240171 2.82602e-06
0.000240171 0.000187695 4.58771e-07
2.82602e-06 4.58771e-07 2.47528e-05
0.00624028 0.000241317 -0.000295709
0.000241317 0.00349287 -2.75168e-05
-0.000295709 -2.75168e-05 0.00349301
0.000441371 9.55787e-05 -8.35372e-08
9.55787e-05 -0.00018156 1.6706e-07
-8.35372e-08 1.6706e-07 -0.000273285
0.000865191 0.000169069 1.07756e-05
0.000169069 -0.000142686 3.54693e-06
1.07756e-05 3.54693e-06 -0.000302008
0.00633527 0.000235951 1.10914e-05
0.000235951 0.00355531 4.09203e-06
1.10914e-05 4.09203e-06 0.00355119
0.000442777 0.000125533 1.87196e-05
0.000125533 -0.000164704 1.06227e-05
1.87196e-05 1.06227e-05 -0.000264946
0.00637174 0.000160597 0.000270776
0.000160597 0.00356701 2.69982e-05
0.000270776 2.69982e-05 0.00357051
0.00178205 3.64088e-05 3.28651e-06
3.64088e-05 0.000162279 2.10991e-07
3.28651e-06 2.10991e-07 5.19359e-05
0.00185046 4.19171e-05 -2.22836e-06
4.19171e-05 5.23401e-05 4.75354e-09
-2.22836e-06 4.75354e-09 -2.83176e-05
0.00193568 6.75807e-05 3.90657e-06
6.75807e-05 9.0141e-05 -5.9044e-08
3.90657e-06 -5.9044e-08 3.55546e-05
0.000923598 -8.27664e-06 -1.32255e-05
-8.27664e-06 -9.94597e-05 -1.60879e-07
-1.32255e-05 -1.60879e-07 -0.000223634
0.00181069 1.07628e-06 3.41552e-06
1.07628e-06 0.000188265 -8.01135e-08
3.41552e-06 -8.01135e-08 7.98639e-05
0.00181039 1.6759e-06 -9.95212e-07
1.6759e-06 2.89043e-05 2.73292e-07
-9.95212e-07 2.73292e-07 -4.50894e-05
0.00180336 -3.30253e-05 4.4726e-06
-3.30253e-05 0.000181833 1.53848e-07
4.4726e-06 1.53848e-07 7.19444e-05
0.000928049 -1.7232e-05 -8.96308e-07
-1.7232e-05 -0.000107438 3.65548e-08
-8.96308e-07 3.65548e-08 -0.000233973
0.000505386 -3.14561e-05 -1.93521e-05
-3.14561e-05 -0.000152788 9.61382e-07
-1.93521e-05 9.61382e-07 -0.000230045
0.000990533 -4.29756e-05 1.10357e-05
-4.29756e-05 -6.90559e-05 -1.26808e-06
1.10357e-05 -1.26808e-06 -0.000202066
0.000479181 3.77197e-06 3.52771e-07
3.77197e-06 -0.000169906 8.23161e-08
3.52771e-07 8.23161e-08 -0.000249025
0.00593518 -0.00010787 -0.000286742
-0.00010787 0.00329927 9.7381e-06
-0.000286742 9.7381e-06 0.00331378
0.000490203 -4.05404e-05 1.88245e-05
-4.05404e-05 -0.000158985 -2.9932e-06
1.88245e-05 -2.9932e-06 -0.000241602
0.0059698 -2.86305e-05 -3.02407e-06
-2.86305e-05 0.00331127 2.29242e-06
-3.02407e-06 2.29242e-06 0.00332976
0.00601381 -8.9058e-05 0.000282248
-8.9058e-05 0.00333873 -1.17145e-05
0.000282248 -1.17145e-05 0.00335573
0.00163617 7.3782e-05 6.00798e-07
7.3782e-05 6.06692e-05 5.05576e-07
6.00798e-07 5.05576e-07 -6.02246e-05
0.00187267 0.000102157 -2.71837e-06
0.000102157 6.20306e-05 -1.06741e-06
-2.71837e-06 -1.06741e-06 -2.49216e-05
0.00186572 0.000121708 1.57298e-07
0.000121708 3.42003e-05 -3.55086e-07
1.57298e-07 -3.55086e-07 -2.6052e-05
0.00108667 6.83353e-05 -1.22739e-05
6.83353e-05 -1.28707e-05 -1.39519e-06
-1.22739e-05 -1.39519e-06 -0.0001463
0.00167358 0.000121813 2.34111e-07
0.000121813 8.31216e-05 -2.77975e-08
2.34111e-07 -2.77975e-08 -4.68113e-05
0.00193308 0.000149115 -7.30551e-08
0.000149115 0.000111799 -1.896e-06
-7.30551e-08 -1.896e-06 1.46234e-05
0.000470694 4.489e-05 -1.74056e-05
4.489e-05 -0.000174787 -3.82694e-06
-1.74056e-05 -3.82694e-06 -0.000258701
0.0010565 0.000110063 3.29913e-07
0.000110063 -3.60418e-05 2.95174e-07
3.29913e-07 2.95174e-07 -0.000178957
0.00168866 0.000177893 1.07396e-06
0.000177893 9.91215e-05 -5.0162e-07
1.07396e-06 -5.0162e-07 -4.52406e-05
0.00611763 0.000211533 -0.000306078
0.000211533 0.0034188 -2.31085e-05
-0.000306078 -2.31085e-05 0.00342337
0.000473184 7.32168e-05 3.77025e-07
7.32168e-05 -0.000170778 1.57111e-07
3.77025e-07 1.57111e-07 -0.000258694
0.00100833 0.000145417 1.08048e-05
0.000145417 -6.31967e-05 2.97251e-06
1.08048e-05 2.97251e-06 -0.000215628
0.00625802 0.000255829 6.32498e-06
0.000255829 0.00350975 3.21938e-06
6.32498e-06 3.21938e-06 0.0035074
0.0004861 9.92936e-05 1.81141e-05
9.92936e-05 -0.000154726 8.09322e-06
1.81141e-05 8.09322e-06 -0.000247283
0.0063406 0.000264352 0.000288955
0.000264352 0.00356301 3.32336e-05
0.000288955 3.32336e-05 0.00355672
0.00101152 1.94732e-05 -1.26463e-05
1.94732e-05 -4.08327e-05 -5.89189e-07
-1.26463e-05 -5.89189e-07 -0.000167477
0.00173836 3.24613e-05 3.733e-06
3.24613e-05 0.000134662 1.10063e-07
3.733e-06 1.10063e-07 2.57538e-05
0.00183519 3.9407e-05 -3.74222e-06
3.9407e-05 4.78214e-05 -1.95036e-07
-3.74222e-06 -1.95036e-07 -3.43069e-05
0.000540044 3.1185e-05 -1.99162e-05
3.1185e-05 -0.000138982 -5.9431e-07
-1.99162e-05 -5.9431e-07 -0.000208534
0.000906466 -2.37605e-06 -1.05644e-06
-2.37605e-06 -0.000111333 -1.124e-08
-1.05644e-06 -1.124e-08 -0.000235683
0.001803 7.35806e-06 4.6552e-06
7.35806e-06 0.00018333 1.86957e-07
4.6552e-06 1.86957e-07 7.50005e-05
0.000926476 -1.7645e-05 1.12147e-05
-1.7645e-05 -0.000110078 -4.96884e-07
1.12147e-05 -4.96884e-07 -0.000236866
0.000500025 -5.27629e-06 3.71183e-07
-5.27629e-06 -0.000155911 3.72327e-07
3.71183e-07 3.72327e-07 -0.000233322
0.00586822 2.52791e-05 -0.00029074
2.52791e-05 0.00325229 5.32344e-07
-0.00029074 5.32344e-07 0.00327255
0.000458584 1.53344e-05 1.83682e-05
1.53344e-05 -0.000183922 -1.23955e-06
1.83682e-05 -1.23955e-06 -0.000261781
0.00590494 -0.000105947 -7.75898e-06
-0.000105947 0.00328199 1.80438e-06
-7.75898e-06 1.80438e-06 0.00329613
0.0059207 -1.00462e-05 0.000272037
-1.00462e-05 0.00328136 -5.79693e-06
0.000272037 -5.79693e-06 0.00329986
0.00104964 3.83727e-05 -1.2478e-05
3.83727e-05 -2.55108e-05 -1.18043e-06
-1.2478e-05 -1.18043e-06 -0.00015386
0.00166623 7.13981e-05 -2.35842e-07
7.13981e-05 8.02664e-05 -1.58346e-07
-2.35842e-07 -1.58346e-07 -3.70932e-05
0.00194733 0.000102979 -3.81531e-06
0.000102979 0.000104231 -2.36229e-06
-3.81531e-06 -2.36229e-06 2.3063e-05
0.00265453 5.85282e-05 -0.000135688
5.85282e-05 0.00116396 -4.54238e-06
-0.000135688 -4.54238e-06 0.00111348
0.00103985 6.99659e-05 3.48974e-07
6.99659e-05 -4.18443e-05 1.22377e-07
3.48974e-07 1.22377e-07 -0.00017598
0.00166686 0.000120481 9.43376e-07
0.000120481 8.19249e-05 -8.50069e-07
9.43376e-07 -8.50069e-07 -4.82108e-05
0.00599829 0.000157413 -0.00030573
0.000157413 0.00334095 -1.66998e-05
-0.00030573 -1.66998e-05 0.00335259
0.000505442 6.36549e-05 8.54032e-07
6.36549e-05 -0.000151448 4.23115e-07
8.54032e-07 4.23115e-07 -0.000237278
0.00102222 0.000111294 1.25521e-05
0.000111294 -5.72505e-05 2.44246e-06
1.25521e-05 2.44246e-06 -0.000201026
0.00618612 0.000225318 1.65731e-06
0.000225318 0.00346217 1.63393e-06
1.65731e-06 1.63393e-06 0.00346556
0.000514727 8.11202e-05 1.82952e-05
8.11202e-05 -0.00014423 6.37193e-06
1.82952e-05 6.37193e-06 -0.000233737
0.00626877 0.000287677 0.000299981
0.000287677 0.00352812 3.39929e-05
0.000299981 3.39929e-05 0.00351944
0.000597755 1.08366e-05 -1.61148e-05
1.08366e-05 -9.27745e-05 -1.80899e-06
-1.61148e-05 -1.80899e-06 -0.000171153
0.000953683 1.84494e-05 4.56783e-07
1.84494e-05 -7.9834e-05 2.18536e-07
4.56783e-07 2.18536e-07 -0.000205549
0.00169313 2.75266e-05 3.69382e-06
2.75266e-05 0.000105942 -8.2808e-08
3.69382e-06 -8.2808e-08 -1.48352e-06
0.00571381 -9.81957e-05 -0.000273656
-9.81957e-05 0.00317571 2.73797e-06
-0.000273656 2.73797e-06 0.00318539
0.000495603 8.72871e-06 -5.66249e-07
8.72871e-06 -0.000161527 -4.5345e-09
-5.66249e-07 -4.5345e-09 -0.000233671
0.000904098 2.47759e-06 1.10817e-05
2.47759e-06 -0.00011438 1.37046e-08
1.10817e-05 1.37046e-08 -0.000238855
0.000454435 2.09556e-05 1.86095e-05
2.09556e-05 -0.000184723 1.94165e-07
1.86095e-05 1.94165e-07 -0.000261186
0.00581196 -1.06463e-05 2.21145e-06
-1.06463e-05 0.00322347 -1.36039e-06
2.21145e-06 -1.36039e-06 0.00323959
0.00590338 -2.56965e-05 0.000279436
-2.56965e-05 0.00326998 -3.74323e-06
0.000279436 -3.74323e-06 0.00328968
0.00273017 1.30251e-05 -0.000130803
1.30251e-05 0.00120879 -2.65218e-06
-0.000130803 -2.65218e-06 0.0011608
0.00103149 4.15522e-05 9.60415e-08
4.15522e-05 -3.83792e-05 1.09789e-08
9.60415e-08 1.09789e-08 -0.000167256
0.00169254 6.91088e-05 1.03862e-06
6.91088e-05 9.788e-05 -8.23554e-07
1.03862e-06 -8.23554e-07 -1.59336e-05
0.00552929 -4.26719e-05 -0.00011222
-4.26719e-05 0.00306545 5.19507e-07
-0.00011222 5.19507e-07 0.00305314
0.000519027 5.58466e-05 6.00292e-08
5.58466e-05 -0.000142792 2.25703e-07
6.00292e-08 2.25703e-07 -0.000224159
0.00100976 7.22157e-05 1.21713e-05
7.22157e-05 -6.12449e-05 1.6319e-06
1.21713e-05 1.6319e-06 -0.000196032
0.00606626 0.000131453 -1.06533e-05
0.000131453 0.00337741 -1.60787e-06
-1.06533e-05 -1.60787e-06 0.0033905
0.000536321 8.67296e-05 1.96506e-05
8.67296e-05 -0.000132027 5.39715e-06
1.96506e-05 5.39715e-06 -0.000218772
0.00622442 0.000249299 0.000309436
0.000249299 0.00349263 2.97644e-05
0.000309436 2.97644e-05 0.00349285
0.00173336 -5.24754e-05 -0.000221422
-5.24754e-05 0.000705184 1.13603e-06
-0.000221422 1.13603e-06 0.000701552
0.00162115 2.91559e-05 -5.55745e-05
2.91559e-05 0.000527269 1.54074e-07
-5.55745e-05 1.54074e-07 0.000469022
0.000891549 2.0059e-05 1.24181e-05
2.0059e-05 -0.000121013 7.80892e-07
1.24181e-05 7.80892e-07 -0.000245874
0.00578323 -4.49499e-05 7.19189e-06
-4.49499e-05 0.003212 2.1576e-06
7.19189e-06 2.1576e-06 0.00322665
0.0005113 -1.2333e-05 1.92118e-05
-1.2333e-05 -0.000145689 7.20284e-07
1.92118e-05 7.20284e-07 -0.00022159
0.00584648 -7.54273e-05 0.000292239
-7.54273e-05 0.00324734 -3.75417e-06
0.000292239 -3.75417e-06 0.00326343
0.0013078 1.8821e-05 -5.34532e-05
1.8821e-05 0.000470113 -8.29993e-07
-5.34532e-05 -8.29993e-07 0.000433837
0.00161136 1.64354e-05 -5.61875e-05
1.64354e-05 0.000524255 -1.10395e-06
-5.61875e-05 -1.10395e-06 0.000462252
0.00100308 4.3323e-05 1.2293e-05
4.3323e-05 -5.73352e-05 1.23246e-06
1.2293e-05 1.23246e-06 -0.000186766
0.00365396 6.17649e-05 0.000108045
6.17649e-05 0.00189795 2.98433e-06
0.000108045 2.98433e-06 0.00188907
0.000530817 6.63962e-05 1.99546e-05
6.63962e-05 -0.000135689 4.08333e-06
1.99546e-05 4.08333e-06 -0.000217043
0.00614002 0.000119467 0.000295988
0.000119467 0.00341541 1.78567e-05
0.000295988 1.78567e-05 0.00343199
0.00573061 -2.04981e-05 -8.88936e-06
-2.04981e-05 0.00318293 -2.76123e-06
-8.88936e-06 -2.76123e-06 0.00319643
0.000510149 4.80059e-05 2.0736e-05
4.80059e-05 -0.000156585 2.21602e-06
2.0736e-05 2.21602e-06 -0.00022561
0.00569283 4.1955e-05 0.000279635
4.1955e-05 0.00315296 2.15955e-07
0.000279635 2.15955e-07 0.00317096
0.00355021 2.98461e-05 0.000120566
2.98461e-05 0.00183927 4.41721e-06
0.000120566 4.41721e-06 0.00183172
0.00054199 7.45566e-06 1.91384e-05
7.45566e-06 -0.000128618 2.56874e-06
1.91384e-05 2.56874e-06 -0.000205421
0.00595872 -8.48577e-06 0.000284779
-8.48577e-06 0.00330639 7.80369e-06
0.000284779 7.80369e-06 0.00332395
0.00577593 -0.00012136 0.000276768
-0.00012136 0.00321529 -3.87049e-06
0.000276768 -3.87049e-06 0.00322421
0.00578356 2.29527e-06 0.000278243
2.29527e-06 0.00319919 4.36397e-06
0.000278243 4.36397e-06 0.00321979
