# vtk DataFile Version 2.0
Wound Healing Simulation
ASCII
DATASET UNSTRUCTURED_GRID
POINTS 3012 float
69.9759 18.75 4
67.2507 60.3285 4
69.976 18.75 2
73.0099 25.446 4
71.1327 20.9142 4
68.6801 16.6661 4
67.8267 19.9167 3.99168
67.2507 60.3286 2
71.1327 54.0858 4
68.6801 58.3339 4
65.6939 62.2254 4
65.3132 59.0092 3.99277
74.6784 42.3946 4
73.7221 47.2057 4
69.9759 18.75 0
73.0099 25.446 2
68.6801 16.6661 2
71.1327 20.9142 2
67.8267 19.9164 2
74.6792 32.6053 4
73.7222 27.7943 4
72.1454 23.1494 4
70.6165 26.2149 3.98988
68.8873 21.9494 3.99106
67.2507 14.6715 4
66.6381 17.9627 3.99234
65.8045 21.0105 3.98721
67.2507 60.3285 0
71.1327 54.0858 2
68.6801 58.3339 2
65.694 62.2255 2
65.3132 59.0094 2
72.1454 51.8506 4
69.9759 56.25 4
68.8383 53.1217 3.9911
64.0165 64.0165 4
66.6117 57.1426 3.99243
63.8867 60.7726 3.99315
63.5049 57.789 3.98809
60.3285 67.2507 4
74.6792 42.3947 2
73.7222 47.2057 2
74.9194 39.9526 4
74.2788 44.8158 4
72.1712 42.0878 3.98944
73.0099 49.554 4
71.2522 46.6028 3.98999
73.0099 25.446 0
71.1327 20.9142 0
68.6801 16.6661 0
67.8267 19.9167 0.0083192
74.6792 32.6053 2
73.7222 27.7943 2
67.2508 14.6715 2
72.1455 23.1494 2
70.6165 26.2147 2
66.6381 17.9625 2
68.8873 21.9491 2
65.8045 21.0104 2
74.9197 35.0474 4
74.2794 30.1841 4
72.1875 32.94 3.98957
71.2807 28.4264 3.98951
69.8176 24.0522 3.99047
68.3559 26.9425 3.98592
66.7708 22.9206 3.98693
65.694 12.7746 4
65.3246 16.0953 3.99281
64.7198 19.178 3.98766
63.9006 22.0144 3.98552
71.1327 54.0858 0
65.6939 62.2254 0
68.6801 58.3339 0
65.3132 59.0092 0.00722721
72.1455 51.8506 2
69.9759 56.25 2
68.8383 53.122 2
64.0165 64.0165 2
66.6117 57.1429 2
63.8867 60.7728 2
63.505 57.7892 2
62.2254 65.694 4
58.8937 65.4181 3.99337
69.7713 50.9963 3.99054
67.7851 55.1765 3.99187
66.6585 52.2221 3.98706
62.3367 62.4329 3.99335
64.667 56.0479 3.98792
62.2057 59.4213 3.98862
61.832 56.7046 3.98631
58.3339 68.6801 4
60.3285 67.2508 2
73.7221 47.2057 0
74.6784 42.3946 0
74.9197 39.9526 2
74.2794 44.8159 2
72.1712 42.0878 2
73.0099 49.554 2
71.2522 46.603 2
75 37.5 4
72.4083 39.8029 3.98915
71.7855 44.3564 3.98979
69.8142 41.7929 3.98553
70.5779 48.8196 3.9902
68.9226 46.022 3.98604
74.6792 32.6053 0
73.7222 27.7943 0
67.2507 14.6715 0
72.1454 23.1494 0
70.6165 26.2149 0.0101193
68.8873 21.9494 0.00894269
66.6381 17.9627 0.00766328
65.8045 21.0105 0.0127931
74.9197 35.0474 2
74.2794 30.1841 2
72.1875 32.94 2
71.2807 28.4263 2
65.694 12.7745 2
65.3246 16.0951 2
69.8176 24.052 2
68.3559 26.9425 2
64.7198 19.1779 2
66.7708 22.9205 2
63.9006 22.0143 2
72.4161 35.222 3.98928
71.8065 30.6722 3.98961
69.8495 33.2642 3.98525
68.9753 29.0309 3.98537
67.6202 24.9013 3.98653
66.2108 27.6215 3.98417
64.0165 10.9835 4
64.7717 23.8115 3.9853
63.8908 14.3206 3.99304
63.5174 17.4291 3.98824
62.9185 20.2974 3.9858
62.1125 22.917 3.98472
60.6841 11.0929 3.99317
57.6123 11.4365 3.9888
72.1454 51.8506 0
69.9759 56.25 0
68.8383 53.1217 0.00889766
64.0165 64.0165 0
63.8867 60.7726 0.00685135
66.6117 57.1426 0.00756954
63.5049 57.789 0.0119088
62.2255 65.694 2
58.8937 65.4184 2
69.7713 50.9965 2
67.7852 55.1768 2
66.6585 52.2222 2
62.3367 62.4331 2
64.667 56.0481 2
62.2057 59.4216 2
61.8321 56.7048 2
60.6687 63.9817 3.99335
57.0241 66.7382 3.99342
57.5575 63.7009 3.9891
67.5173 50.1877 3.98666
65.7098 54.1882 3.98758
64.554 51.4046 3.98519
60.7744 60.9527 3.98907
62.8317 55.0907 3.98642
60.6646 58.182 3.98638
60.3404 55.814 3.98549
56.25 69.9759 4
58.3339 68.6801 2
60.3285 67.2507 0
58.921 9.6517 3.99321
62.2254 9.30607 4
73.0099 49.554 0
74.2788 44.8158 0
71.2522 46.6028 0.0100061
72.1712 42.0878 0.0105623
74.9194 39.9526 0
75 37.5 2
72.4083 39.8029 2
71.7855 44.3565 2
69.8142 41.7929 2
70.5779 48.8197 2
68.9226 46.022 2
72.4916 37.5113 3.98917
70.0509 39.6586 3.98507
69.4407 43.9128 3.98584
67.6155 41.5031 3.98378
68.2761 48.1162 3.98634
66.7282 45.451 3.98446
74.9197 35.0474 0
74.2794 30.1841 0
72.1875 32.94 0.0104281
71.2807 28.4264 0.0104874
65.694 12.7746 0
65.3246 16.0953 0.00718892
69.8176 24.0522 0.00953328
68.3559 26.9425 0.014084
66.7708 22.9206 0.0130677
64.7198 19.178 0.0123433
63.9006 22.0144 0.0144805
72.416 35.222 2
71.8065 30.6721 2
69.8494 33.2642 2
68.9753 29.0309 2
64.0165 10.9835 2
63.8908 14.3204 2
63.5175 17.4289 2
67.6202 24.9012 2
66.2107 27.6214 2
62.9185 20.2973 2
64.7716 23.8115 2
62.1124 22.9171 2
60.6841 11.0927 2
57.6124 11.4362 2
70.0674 35.3894 3.98519
69.4764 31.1437 3.98528
67.6724 33.5849 3.98341
66.7886 29.6121 3.98357
65.54 25.6834 3.98484
64.1698 28.2383 3.98352
62.3421 12.6495 3.99313
62.8787 24.6135 3.98466
62.2012 15.7678 3.98864
61.8222 18.6613 3.98631
61.2343 21.3137 3.98464
60.4511 23.6972 3.98454
59.2467 12.7659 3.98882
55.8739 10.2246 3.98888
56.4063 13.0985 3.98608
69.7713 50.9963 0.0094634
62.2254 65.694 0
58.8937 65.4181 0.00662503
67.7851 55.1765 0.00813041
66.6585 52.2221 0.0129375
62.3367 62.4329 0.00665241
62.2057 59.4213 0.0113842
64.667 56.0479 0.0120848
61.832 56.7046 0.0136895
60.6687 63.9819 2
57.0242 66.7385 2
57.5575 63.7013 2
67.5173 50.1877 2
65.7099 54.1883 2
64.554 51.4046 2
60.7744 60.953 2
62.8318 55.0908 2
60.6647 58.1822 2
60.3405 55.814 2
55.0697 67.9346 3.99348
59.2197 62.3783 3.98912
55.8034 64.9167 3.98913
56.3278 62.1024 3.98648
65.3494 49.425 3.98489
63.7204 53.3139 3.98594
62.4655 50.6766 3.98422
59.3369 59.5764 3.98668
61.093 54.337 3.98565
59.2981 57.0396 3.98509
59.257 55.214 3.9856
48.1019 68.5812 3.98948
50.9477 69.9333 3.99359
54.0858 71.1327 4
56.25 69.976 2
58.3339 68.6801 0
57.058 8.33212 3.99329
60.3285 7.74928 4
58.921 9.65152 2
62.2255 9.30602 2
70.5779 48.8196 0.00980485
71.7855 44.3564 0.0102051
68.9226 46.022 0.0139571
69.8142 41.7929 0.0144728
72.4083 39.8029 0.0108519
75 37.5 0
72.4916 37.5113 2
70.0508 39.6586 2
69.4407 43.9128 2
67.6154 41.5031 2
68.2761 48.1162 2
66.7281 45.4511 2
70.1388 37.5208 3.98501
67.852 39.5148 3.98347
67.242 43.4783 3.98411
65.5821 41.2173 3.98322
66.0869 47.4319 3.98473
64.6787 44.8631 3.98388
72.4161 35.222 0.0107244
71.8065 30.6722 0.0103921
69.8495 33.2642 0.0147478
68.9753 29.0309 0.0146315
64.0165 10.9835 0
63.8908 14.3206 0.00695709
63.5174 17.4291 0.0117618
67.6202 24.9013 0.013471
66.2108 27.6215 0.0158331
64.7717 23.8115 0.0147001
62.9185 20.2974 0.0142029
62.1125 22.917 0.015285
60.6841 11.0929 0.00683369
57.6123 11.4365 0.0112043
70.0673 35.3894 2
69.4764 31.1437 2
67.6723 33.5848 2
66.7885 29.612 2
62.3421 12.6493 2
62.2012 15.7676 2
61.8223 18.6612 2
65.5399 25.6833 2
64.1696 28.2382 2
61.2342 21.3138 2
62.8785 24.6135 2
60.4509 23.6974 2
59.2467 12.7657 2
56.4063 13.0983 2
55.874 10.2243 2
67.8878 35.5441 3.98357
67.2821 31.614 3.98348
65.7221 33.92 3.98281
64.6867 30.1783 3.98261
63.5611 26.3935 3.98421
62.2877 28.7571 3.98378
60.7762 14.2086 3.9888
61.0733 25.31 3.98453
60.6178 17.1061 3.98661
60.2348 19.7886 3.98516
59.6827 22.2268 3.98389
59.0085 24.2873 3.98488
54.0369 9.12887 3.9891
57.912 14.3149 3.98636
54.7871 12 3.98593
55.3144 14.6291 3.98492
67.5173 50.1877 0.0133376
57.0241 66.7382 0.00657608
60.6687 63.9817 0.00664509
57.5575 63.7009 0.0108986
65.7098 54.1882 0.0124204
64.554 51.4046 0.0148098
60.7744 60.9527 0.0109309
60.6646 58.182 0.0136222
62.8317 55.0907 0.0135761
60.3404 55.814 0.0145093
55.0697 67.9348 2
59.2197 62.3786 2
55.8035 64.917 2
56.3278 62.1026 2
65.3494 49.425 2
63.7205 53.3139 2
62.4655 50.6766 2
59.3369 59.5767 2
61.0931 54.337 2
59.2983 57.0397 2
59.2571 55.214 2
53.0417 69.0019 3.99354
53.9655 66.0178 3.98918
57.8827 60.886 3.98661
54.6836 63.216 3.98646
55.2133 60.6304 3.98514
63.22 48.6829 3.98418
61.7621 52.6019 3.98502
60.3049 50.0482 3.98365
58.0236 58.284 3.98542
59.346 53.9787 3.98501
58.1386 55.8437 3.98397
50.1082 67.8597 3.98937
47.4623 66.5843 3.98666
46.0559 69.1603 3.98958
48.1019 68.5816 2
48.8021 70.7243 3.99363
50.9478 69.9336 2
51.8506 72.1454 4
54.0858 71.1327 2
56.25 69.9759 0
55.1024 7.13713 3.99338
58.3339 6.31992 4
57.0581 8.33192 2
60.3286 7.74926 2
58.921 9.6517 0.00679124
62.2254 9.30607 0
68.2761 48.1162 0.0136603
69.4407 43.9128 0.0141591
66.7282 45.451 0.0155417
67.6155 41.5031 0.0162184
70.0509 39.6586 0.0149312
72.4916 37.5113 0.0108312
70.1387 37.5208 2
67.8519 39.5148 2
67.2419 43.4784 2
65.5819 41.2173 2
66.0869 47.432 2
64.6785 44.8632 2
67.9481 37.5214 3.98329
65.8133 39.3738 3.98319
65.2024 43.0365 3.98336
63.7895 40.9385 3.98325
63.992 46.735 3.98412
62.8415 44.2338 3.98406
70.0674 35.3894 0.0148112
69.4764 31.1437 0.0147167
67.6724 33.5849 0.0165926
66.7886 29.6121 0.0164257
62.3421 12.6495 0.00686667
62.2012 15.7678 0.0113613
61.8222 18.6613 0.013692
65.54 25.6834 0.0151625
64.1698 28.2383 0.0164833
62.8787 24.6135 0.015343
61.2343 21.3137 0.0153583
60.4511 23.6972 0.0154624
59.2467 12.7659 0.0111831
56.4063 13.0985 0.0139223
55.8739 10.2246 0.0111153
67.8877 35.544 2
67.282 31.6138 2
65.7219 33.9198 2
64.6865 30.1782 2
60.7763 14.2083 2
60.6178 17.106 2
60.2348 19.7887 2
63.5609 26.3935 2
62.2874 28.7571 2
59.6825 22.227 2
61.073 25.3101 2
59.0082 24.2875 2
57.912 14.3147 2
55.3144 14.629 2
54.0369 9.12853 2
54.7872 11.9997 2
65.9014 35.6628 3.98287
65.2105 32.1438 3.98246
64.3143 34.2421 3.98188
62.6264 30.6189 3.98269
61.6813 27.0477 3.98413
60.8863 29.1177 3.98482
59.3133 15.6497 3.98656
59.3651 25.7656 3.98534
59.1308 18.3303 3.98574
58.7561 20.8232 3.98412
58.3109 23.0582 3.98335
58.0013 24.6305 3.98581
52.1116 8.14803 3.9893
53.0579 11.0076 3.98608
56.6789 15.7229 3.98545
53.8107 13.667 3.98439
54.3785 15.9801 3.98456
55.0697 67.9346 0.0065195
65.3494 49.425 0.0151144
55.8034 64.9167 0.010872
59.2197 62.3783 0.0108812
56.3278 62.1024 0.0135229
63.7204 53.3139 0.0140637
62.4655 50.6766 0.0157809
59.3369 59.5764 0.0133211
59.2981 57.0396 0.0149146
61.093 54.337 0.014349
59.257 55.214 0.0144004
53.0417 69.0022 2
53.9655 66.0181 2
57.8827 60.8863 2
54.6836 63.2163 2
55.2133 60.6307 2
63.2199 48.6828 2
61.7621 52.6019 2
60.3047 50.0481 2
58.0237 58.2842 2
59.3461 53.9787 2
58.1388 55.8436 2
52.069 67.0034 3.98927
52.9525 64.2246 3.98644
56.6515 59.5073 3.98549
53.6817 61.6324 3.98503
54.2626 59.3373 3.98445
61.0282 47.9069 3.98382
59.7357 52.1361 3.98463
58.0635 49.6502 3.98425
56.7843 57.0143 3.98404
57.1394 54.1566 3.98357
50.1082 67.86 2
49.3359 65.9249 3.9865
47.4623 66.5846 2
46.8916 64.7396 3.98495
45.5575 67.1014 3.98681
43.9732 69.5927 3.98965
46.0559 69.1607 2
46.609 71.3686 3.99366
48.1019 68.5812 0.0105163
48.8022 70.7246 2
49.554 73.0099 4
50.9477 69.9333 0.00641082
51.8506 72.1455 2
54.0858 71.1327 0
53.0635 6.06894 3.9935
55.1024 7.13689 2
56.25 5.02411 4
58.3339 6.3199 2
57.058 8.33212 0.00670542
60.3285 7.74928 0
66.0869 47.4319 0.0152728
67.242 43.4783 0.0158869
64.6787 44.8631 0.0161212
65.5821 41.2173 0.0167809
67.852 39.5148 0.016527
70.1388 37.5208 0.0149882
67.948 37.5214 2
65.8132 39.3739 2
65.2022 43.0366 2
63.7892 40.9385 2
63.9918 46.735 2
62.8413 44.2338 2
65.9159 37.5015 3.9829
63.9338 39.2713 3.98326
63.3632 42.5632 3.98322
62.4716 40.7075 3.98261
62.0025 45.9412 3.98423
61.4926 43.7025 3.98505
67.8878 35.5441 0.0164341
67.2821 31.614 0.0165244
65.7221 33.92 0.0171934
64.6867 30.1783 0.0173938
60.7762 14.2086 0.0112001
60.6178 17.1061 0.0133853
60.2348 19.7886 0.0148417
63.5611 26.3935 0.0157911
62.2877 28.7571 0.0162185
61.0733 25.31 0.0154651
59.6827 22.2268 0.0161146
59.0085 24.2873 0.0151196
57.912 14.3149 0.0136434
55.3144 14.6291 0.015078
54.0369 9.12887 0.0109049
54.7871 12 0.0140732
65.9012 35.6627 2
65.2103 32.1436 2
64.314 34.2419 2
62.626 30.6188 2
59.3133 15.6496 2
59.1309 18.3302 2
58.7561 20.8233 2
61.681 27.0477 2
60.8859 29.1176 2
58.3106 23.0586 2
59.3647 25.7658 2
58.0009 24.6309 2
56.679 15.7228 2
54.3786 15.9801 2
53.8108 13.6668 2
52.1116 8.14765 2
53.058 11.0073 2
64.1229 35.6279 3.98224
62.9641 33.0346 3.98171
60.6539 30.592 3.98327
59.6111 27.8828 3.98482
57.9431 16.9612 3.98575
57.7776 25.6923 3.98649
57.7246 19.4484 3.98495
57.3908 21.8075 3.98287
57.2167 23.9121 3.98347
50.1118 7.28041 3.9896
51.2322 10.117 3.98634
52.1726 12.7861 3.98413
55.5403 16.9513 3.985
52.9792 15.2484 3.98361
53.7607 16.9617 3.98441
53.0417 69.0019 0.00645629
53.9655 66.0178 0.0108155
63.22 48.6829 0.0158183
54.6836 63.216 0.0135364
57.8827 60.886 0.0133872
55.2133 60.6304 0.0148603
61.7621 52.6019 0.0149849
60.3049 50.0482 0.0163549
58.0236 58.284 0.0145786
58.1386 55.8437 0.0160328
59.346 53.9787 0.0149871
52.0691 67.0037 2
52.9525 64.2249 2
56.6516 59.5075 2
53.6817 61.6327 2
54.2627 59.3375 2
61.028 47.9067 2
59.7358 52.136 2
58.0633 49.6499 2
56.7845 57.0144 2
57.1395 54.1564 2
51.1668 65.1324 3.98641
52.0458 62.5453 3.98476
55.4846 58.2702 3.98478
52.8358 60.1466 3.98437
53.6431 58.488 3.98429
58.353 46.8787 3.98545
57.5902 51.821 3.98366
56.2894 49.5888 3.98531
55.4822 55.8229 3.98293
55.3793 53.4167 3.98185
50.1082 67.8597 0.0106255
49.3359 65.9252 2
48.6173 64.1263 3.98481
47.4623 66.5843 0.0133367
45.5576 67.1019 2
46.8916 64.74 2
46.3811 63.0566 3.98373
45.1319 65.2011 3.98502
43.6309 67.4724 3.987
41.8607 69.8805 3.9897
43.9733 69.5931 2
44.3766 71.8635 3.9937
46.0559 69.1603 0.0104222
46.609 71.3689 2
47.2057 73.7222 4
48.8021 70.7243 0.00637323
49.554 73.0099 2
51.8506 72.1454 0
50.9533 5.12952 3.99367
53.0635 6.06868 2
54.0858 3.86728 4
55.1024 7.13713 0.00662469
56.25 5.02406 2
58.3339 6.31992 0
63.992 46.735 0.0158821
65.2024 43.0365 0.0166351
62.8415 44.2338 0.0159439
63.7895 40.9385 0.0167538
65.8133 39.3738 0.0168132
67.9481 37.5214 0.0167128
65.9157 37.5014 2
63.9336 39.2714 2
63.3629 42.5633 2
62.4713 40.7076 2
62.0023 45.9411 2
61.4923 43.7025 2
63.9939 37.457 3.98339
62.2014 39.3607 3.98307
61.2632 41.9736 3.98333
60.2947 44.7938 3.98576
65.9014 35.6628 0.0171307
65.2105 32.1438 0.0175351
64.3143 34.2421 0.018118
62.6264 30.6189 0.0173053
59.3133 15.6497 0.0134417
59.1308 18.3303 0.0142618
58.7561 20.8232 0.015879
61.6813 27.0477 0.0158691
60.8863 29.1177 0.0151791
59.3651 25.7656 0.0146589
58.3109 23.0582 0.0166534
58.0013 24.6305 0.0141876
56.6789 15.7229 0.0145467
54.3785 15.9801 0.0154405
53.8107 13.667 0.0156142
52.1116 8.14803 0.0106974
53.0579 11.0076 0.0139179
64.1228 35.6278 2
62.9638 33.0344 2
60.6535 30.5919 2
57.9432 16.9611 2
57.7247 19.4484 2
57.3907 21.8078 2
59.6107 27.8828 2
57.2163 23.9125 2
57.7772 25.6926 2
50.1119 7.28004 2
55.5404 16.9513 2
53.7608 16.9617 2
52.9793 15.2483 2
52.1727 12.7859 2
51.2323 10.1166 2
62.2313 35.3533 3.9822
60.3358 32.7307 3.98133
58.6698 30.0507 3.98425
57.3382 27.349 3.986
56.6409 18.1322 3.98526
56.3303 25.0669 3.98479
56.3699 20.4927 3.98379
56.134 22.8353 3.98162
48.0558 6.52394 3.98983
49.3241 9.32541 3.98658
50.4333 11.9853 3.98438
51.3788 14.4868 3.98272
54.4184 17.9002 3.98435
52.3632 17.0198 3.9832
52.069 67.0034 0.0107333
52.9525 64.2246 0.0135636
61.0282 47.9069 0.0161804
53.6817 61.6324 0.0149684
56.6515 59.5073 0.0145114
54.2626 59.3373 0.0155534
59.7357 52.1361 0.0153665
58.0635 49.6502 0.0157455
56.7843 57.0143 0.0159622
57.1394 54.1566 0.0164344
51.1668 65.1328 2
52.0459 62.5456 2
55.4847 58.2704 2
52.8358 60.1469 2
53.6432 58.4883 2
58.3526 46.8784 2
57.5902 51.8208 2
56.2891 49.5883 2
55.4824 55.823 2
55.3794 53.4164 2
50.3455 63.3852 3.98468
51.2444 60.9423 3.9835
54.2242 57.2852 3.98382
52.3148 58.6474 3.9837
56.7826 44.2102 3.987
55.546 47.9283 3.98508
55.1032 51.4247 3.98163
54.0193 54.5754 3.98108
49.3359 65.9249 0.0134953
48.6173 64.1266 2
47.9614 62.4779 3.98369
45.5575 67.1014 0.0131851
46.8916 64.7396 0.0150502
43.6309 67.4728 2
46.3811 63.0569 2
45.1319 65.2015 2
45.9866 61.5887 3.98286
44.7663 63.4577 3.98377
43.3558 65.5109 3.9851
41.6632 67.6917 3.98704
39.7026 70.0279 3.98969
41.8607 69.8808 2
42.1111 72.2084 3.99373
43.9732 69.5927 0.0103528
44.3766 71.8638 2
44.8159 74.2794 4
46.609 71.3686 0.00634002
47.2057 73.7222 2
49.554 73.0099 0
48.7839 4.32075 3.99378
50.9533 5.12926 2
51.8506 2.85458 4
53.0635 6.06894 0.00650088
54.0858 3.86728 2
56.25 5.02411 0
62.0025 45.9412 0.0157702
63.3632 42.5632 0.016784
61.4926 43.7025 0.0149477
62.4716 40.7075 0.0173905
63.9338 39.2713 0.0167359
65.9159 37.5015 0.0171016
63.9937 37.457 2
62.2012 39.3608 2
61.2629 41.9736 2
60.2944 44.7937 2
62.041 37.4445 3.98401
60.3039 39.8562 3.98255
59.0513 42.9401 3.98542
64.1229 35.6279 0.0177607
62.9641 33.0346 0.0182896
60.6539 30.592 0.0167254
57.9431 16.9612 0.0142459
57.7246 19.4484 0.0150508
57.3908 21.8075 0.0171345
59.6111 27.8828 0.0151753
57.7776 25.6923 0.0135063
57.2167 23.9121 0.0165339
55.5403 16.9513 0.0150007
53.7607 16.9617 0.0155914
52.9792 15.2484 0.0163931
50.1118 7.28041 0.0104033
52.1726 12.7861 0.0158671
51.2322 10.117 0.0136617
62.2311 35.3532 2
60.3354 32.7306 2
58.6693 30.0506 2
56.641 18.1322 2
56.3699 20.4929 2
56.1337 22.8357 2
57.3376 27.3491 2
56.3298 25.0675 2
48.0558 6.52358 2
49.3242 9.32502 2
54.4185 17.9002 2
52.3633 17.0199 2
51.3789 14.4867 2
50.4334 11.985 2
59.949 35.1119 3.98248
58.0512 32.2497 3.98203
56.6024 29.3095 3.98555
55.4969 26.5646 3.98714
55.3484 19.1663 3.98456
54.9629 24.0216 3.98142
55.0185 21.5332 3.98231
45.9619 5.87926 3.99006
43.3736 7.46893 3.98778
47.3547 8.61948 3.98709
48.5999 11.2876 3.98429
49.7147 13.7349 3.98321
50.6346 16.1214 3.98172
53.1288 18.6411 3.98379
51.3055 18.0346 3.98328
51.1668 65.1324 0.0135874
52.0458 62.5453 0.0152436
58.353 46.8787 0.0145452
52.8358 60.1466 0.0156331
55.4846 58.2702 0.0152223
53.6431 58.488 0.0157057
57.5902 51.821 0.0163404
56.2894 49.5888 0.0146905
55.4822 55.8229 0.0170687
55.3793 53.4167 0.0181494
50.3456 63.3855 2
51.2444 60.9425 2
54.2244 57.2855 2
52.3148 58.6477 2
56.782 44.2101 2
55.5456 47.9278 2
55.1031 51.4241 2
54.0196 54.5754 2
49.5914 61.7485 3.98347
55.7245 41.7276 3.9835
50.5678 59.3358 3.98233
52.1904 56.507 3.98248
54.26 45.5916 3.98648
53.3933 49.362 3.98219
52.6925 52.8837 3.97938
48.6173 64.1263 0.01519
47.9614 62.4782 2
47.3288 61.0119 3.98289
43.6309 67.4724 0.0130031
45.1319 65.2011 0.0149815
46.3811 63.0566 0.0162699
41.6633 67.6921 2
43.3559 65.5113 2
45.9866 61.5889 2
44.7664 63.458 2
45.7655 60.6324 3.98205
44.4824 61.838 3.98275
43.1456 63.7304 3.98375
41.5455 65.649 3.98495
39.6326 67.7718 3.98699
37.5263 70.0532 3.98968
39.7026 70.0282 2
39.818 72.4055 3.99372
41.8607 69.8805 0.0103033
42.1111 72.2086 2
42.3947 74.6792 4
44.3766 71.8635 0.00630197
44.8159 74.2794 2
47.2057 73.7222 0
43.8514 5.35631 3.9903
46.57 3.64544 3.99395
48.7839 4.32049 2
49.554 1.99015 4
50.9533 5.12952 0.00632529
51.8506 2.85453 2
54.0858 3.86728 0
60.2947 44.7938 0.0142365
61.2632 41.9736 0.016666
62.2014 39.3607 0.016929
63.9939 37.457 0.0166086
62.0408 37.4445 2
60.3035 39.8563 2
59.0508 42.9401 2
59.8265 37.5669 3.98495
58.073 40.6738 3.98358
55.2129 39.7327 3.98567
62.2313 35.3533 0.0178
60.3358 32.7307 0.0186661
58.6698 30.0507 0.0157475
56.6409 18.1322 0.0147387
56.3699 20.4927 0.0162105
56.134 22.8353 0.0183815
57.3382 27.349 0.0140046
56.3303 25.0669 0.0152111
54.4184 17.9002 0.0156487
52.3632 17.0198 0.0168048
51.3788 14.4868 0.0172793
48.0558 6.52394 0.0101667
49.3241 9.32541 0.0134179
50.4333 11.9853 0.0156195
59.9488 35.1119 2
45.9619 5.87886 2
43.3736 7.46853 2
58.0505 32.2494 2
56.6018 29.3095 2
55.3486 19.1663 2
55.0184 21.5335 2
54.9624 24.0223 2
55.4962 26.5651 2
47.3548 8.61909 2
48.6 11.2872 2
53.1289 18.6413 2
51.3056 18.0348 2
50.6347 16.1214 2
49.7148 13.7346 2
57.4702 34.7498 3.98161
55.7971 31.4917 3.98377
54.5777 28.3698 3.98913
53.8165 25.4618 3.98314
53.9767 20.1141 3.98387
53.604 22.6782 3.98024
41.3987 7.07425 3.98804
45.3595 7.99098 3.98751
42.8654 9.41057 3.98574
46.6663 10.6483 3.98498
47.7456 13.0964 3.98295
48.932 15.3932 3.98169
50.0076 17.6904 3.98093
51.6575 19.3121 3.98351
50.3455 63.3852 0.0153175
51.2444 60.9423 0.0164991
56.7826 44.2102 0.0130008
55.546 47.9283 0.0149215
52.3148 58.6474 0.0163003
54.2242 57.2852 0.0161757
55.1032 51.4247 0.0183716
54.0193 54.5754 0.0189172
49.5914 61.7488 2
55.7239 41.7277 2
50.5678 59.336 2
52.1906 56.5073 2
54.2593 45.5913 2
53.393 49.3611 2
52.6927 52.8835 2
48.8489 60.2054 3.98265
52.6392 42.6631 3.98686
49.7913 57.6355 3.98193
50.6087 54.4408 3.98054
51.8981 47.2975 3.98253
51.2563 50.9766 3.97734
48.3482 43.7293 3.97568
47.9614 62.4779 0.0163125
47.3287 61.0121 2
46.6182 59.7977 3.98222
41.6632 67.6917 0.0129606
43.3558 65.5109 0.0149004
44.7663 63.4577 0.0162346
45.9866 61.5887 0.0171437
39.6326 67.7723 2
41.5455 65.6494 2
45.7654 60.6326 2
43.1456 63.7308 2
44.4824 61.8382 2
44.6226 60.2941 3.9817
42.9496 62.0866 3.98235
41.599 63.8238 3.98357
39.6472 65.6175 3.98478
37.5635 67.7546 3.98698
31.6981 65.1368 3.98499
33.3929 67.4923 3.98703
35.3338 69.9634 3.98966
37.5263 70.0536 2
37.5097 72.4602 3.99369
39.7026 70.0279 0.0103069
39.818 72.4058 2
39.9526 74.9197 4
42.1111 72.2084 0.00626695
42.3947 74.6792 2
44.8159 74.2794 0
41.7361 4.96559 3.99041
43.8514 5.35593 2
44.3254 3.10877 3.99413
46.57 3.64517 2
47.2057 1.27793 4
48.7839 4.32075 0.00621596
49.554 1.99013 2
51.8506 2.85458 0
59.0513 42.9401 0.0145823
60.3039 39.8562 0.0174524
62.041 37.4445 0.0159931
59.8262 37.5669 2
58.0725 40.6738 2
55.2124 39.7329 2
56.9184 37.901 3.98472
49.8079 41.2961 3.98448
53.263 39.317 3.99085
39.4421 6.79768 3.98813
59.949 35.1119 0.0175189
58.0512 32.2497 0.0179744
56.6024 29.3095 0.0144544
55.3484 19.1663 0.0154383
55.0185 21.5332 0.0176909
54.9629 24.0216 0.0185787
55.4969 26.5646 0.0128634
53.1288 18.6411 0.0162077
51.3055 18.0346 0.0167183
50.6346 16.1214 0.0182769
45.9619 5.87926 0.00993731
49.7147 13.7349 0.0167896
47.3547 8.61948 0.0129067
48.5999 11.2876 0.015713
43.3736 7.46893 0.0122188
57.4698 34.7497 2
41.3987 7.07387 2
45.3596 7.99053 2
42.8654 9.41015 2
55.7963 31.4914 2
54.5767 28.37 2
53.9768 20.1142 2
53.6038 22.6787 2
53.8158 25.4626 2
46.6664 10.6479 2
47.7457 13.096 2
51.6576 19.3123 2
50.0077 17.6906 2
48.9322 15.3929 2
54.98 33.9526 3.98117
53.5793 30.4524 3.98898
52.6535 27.1641 3.98612
52.1782 24.0524 3.98106
52.4036 21.0515 3.98242
41.0135 9.04354 3.98627
44.7236 9.99085 3.98551
42.4682 10.8973 3.98453
46.0051 12.724 3.9828
47.6818 14.5784 3.98254
48.1139 16.9819 3.97944
49.8203 19.5859 3.98122
49.5914 61.7485 0.0165273
50.5678 59.3358 0.0176694
55.7245 41.7276 0.0165008
54.26 45.5916 0.0135223
53.3933 49.362 0.017807
52.1904 56.507 0.0175198
52.6925 52.8837 0.0206186
48.8488 60.2057 2
52.6382 42.6634 2
49.7914 57.6356 2
50.609 54.4411 2
51.8973 47.2963 2
51.2565 50.976 2
48.3459 43.7285 2
47.987 58.7467 3.98195
50.2271 45.2873 3.98187
48.6039 55.9247 3.98138
49.1554 52.6164 3.97964
49.7362 49.0725 3.97707
46.2036 39.913 3.92517
46.6004 42.7827 4.00016
46.6438 45.7223 3.97426
44.0595 41.2555 3.98584
42.0927 41.9931 3.99559
47.3288 61.0119 0.0171093
46.6181 59.7978 2
45.4678 58.7927 3.98095
39.6326 67.7718 0.0130074
41.5455 65.649 0.0150483
43.1456 63.7304 0.016254
44.4824 61.838 0.0172497
45.7655 60.6324 0.017949
41.599 63.8242 2
37.5635 67.755 2
39.6472 65.618 2
44.6225 60.2943 2
42.9496 62.0869 2
41.7526 62.4976 3.98251
42.48 59.9847 3.98133
39.8927 63.5586 3.98311
37.6422 65.517 3.98483
35.4639 67.6641 3.98698
33.5761 65.3504 3.98502
31.9604 63.3081 3.98348
29.8844 64.7274 3.98481
31.6981 65.1371 2
31.3777 67.2019 3.98694
33.3928 67.4927 2
33.1567 69.7567 3.98963
35.3337 69.9638 2
35.1952 72.3746 3.99367
37.5263 70.0532 0.0103248
37.5097 72.4604 2
37.5 75 4
39.818 72.4055 0.0062831
39.9526 74.9197 2
42.3947 74.6792 0
39.6238 4.71272 3.99054
41.7361 4.96523 2
42.0619 2.71647 3.99422
43.8514 5.35631 0.00969859
44.3254 3.1085 2
44.8158 0.721173 4
46.57 3.64544 0.00604688
47.2057 1.27779 2
49.554 1.99015 0
58.073 40.6738 0.0164169
59.8265 37.5669 0.0150452
55.2129 39.7327 0.0143343
49.8071 41.296 2
56.9182 37.9009 2
53.2627 39.3172 2
54.1148 36.6236 3.9845
47.7307 40.4668 4.00451
50.7607 38.4827 3.98902
37.516 6.66882 3.98834
39.4421 6.79729 2
39.2111 8.68605 3.9863
35.9414 8.48556 3.98672
57.4702 34.7498 0.0183869
55.7971 31.4917 0.0162254
54.5777 28.3698 0.010867
53.9767 20.1141 0.0161312
53.604 22.6782 0.0197568
53.8165 25.4618 0.0168594
51.6575 19.3121 0.0164886
50.0076 17.6904 0.0190706
48.932 15.3932 0.018312
45.3595 7.99098 0.0124938
47.7456 13.0964 0.0170493
46.6663 10.6483 0.0150222
41.3987 7.07425 0.0119628
42.8654 9.41057 0.014261
54.9796 33.9526 2
41.0135 9.04313 2
44.7236 9.99041 2
42.4682 10.8969 2
53.5782 30.4516 2
52.6524 27.165 2
52.4037 21.0517 2
52.1777 24.0533 2
46.0052 12.7236 2
47.6819 14.5781 2
49.8204 19.5863 2
48.114 16.9816 2
52.53 32.8432 3.98343
51.4319 29.1226 3.99099
50.8448 25.6899 3.97877
49.9533 22.1585 3.98179
40.5691 11.6005 3.9839
43.8579 11.9127 3.98345
45.8024 15.415 3.98136
47.5058 19.218 3.97789
46.5271 37.5078 3.92856
48.8489 60.2054 0.0173461
49.7913 57.6355 0.0180713
52.6392 42.6631 0.0131356
51.8981 47.2975 0.0174724
51.2563 50.9766 0.0226571
50.6087 54.4408 0.019455
48.3482 43.7293 0.0243223
47.987 58.7469 2
50.2256 45.2864 2
48.604 55.9249 2
49.1558 52.6169 2
49.736 49.0713 2
46.2004 39.9164 2
46.6044 42.7866 2
46.642 45.7184 2
44.0612 41.2536 2
42.0965 41.9966 2
46.8397 57.3478 3.98235
44.8169 39.5111 3.97513
42.4599 40.8696 3.99086
48.1895 47.2649 3.98183
47.1804 54.2557 3.98193
47.6309 50.7774 3.97765
44.9104 47.3377 3.97282
45.2774 42.0321 3.9286
45.0702 44.6689 3.99787
42.8535 42.7453 3.9846
40.9403 42.344 3.99225
46.6182 59.7977 0.0177846
45.4677 58.7928 2
43.8758 57.7147 3.98058
37.5635 67.7546 0.0130195
39.6472 65.6175 0.0152241
41.599 63.8238 0.0164293
42.9496 62.0866 0.0176452
44.6226 60.2941 0.0183033
35.4639 67.6645 2
41.7526 62.4979 2
39.8927 63.559 2
37.6422 65.5174 2
42.4799 59.9849 2
40.6222 61.6549 3.98244
40.4437 58.2127 3.98038
37.8364 63.2201 3.98288
35.5733 65.4394 3.98486
33.5761 65.3508 2
31.9604 63.3085 2
33.6297 63.348 3.98347
30.3794 62.8663 3.98334
32.1236 62.0133 3.98248
26.8686 61.5094 3.98272
28.0632 64.155 3.98458
29.8843 64.7277 2
29.4074 66.7653 3.98675
31.6981 65.1368 0.0150066
31.3777 67.2022 2
31.0142 69.4216 3.98958
33.3929 67.4923 0.0129693
33.1567 69.7571 2
32.8923 72.1488 3.99365
35.3338 69.9634 0.0103442
35.1952 72.3749 2
35.0474 74.9194 4
37.5097 72.4602 0.00631288
37.5 75 2
39.9526 74.9197 0
35.6205 6.71975 3.98827
37.523 4.61234 3.99055
39.6237 4.71237 2
39.7885 2.47295 3.99434
41.7361 4.96559 0.00958858
42.0619 2.71621 2
42.3946 0.32156 4
44.3254 3.10877 0.0058672
44.8159 0.72056 2
47.2057 1.27793 0
49.8079 41.2961 0.0155231
56.9184 37.901 0.0152795
53.263 39.317 0.00915161
47.7296 40.4628 2
50.7604 38.4833 2
54.1144 36.6237 2
51.5402 35.5653 3.97496
48.3973 37.765 4.00702
46.1836 35.1054 3.93118
44.0508 33.7594 3.98055
42.0867 33.0243 3.993
37.4577 8.52743 3.98661
37.516 6.66843 2
39.4421 6.79768 0.0118697
39.211 8.68564 2
38.976 10.1185 3.98568
35.8979 9.76493 3.98576
34.1497 8.8148 3.98654
35.9414 8.48517 2
54.98 33.9526 0.018832
53.5793 30.4524 0.0110211
52.6535 27.1641 0.0138808
52.4036 21.0515 0.017583
52.1782 24.0524 0.0189407
49.8203 19.5859 0.0187776
48.1139 16.9819 0.020565
47.6818 14.5784 0.0174623
44.7236 9.99085 0.0144889
46.0051 12.724 0.0172028
41.0135 9.04354 0.0137302
42.4682 10.8973 0.0154673
52.5294 32.8426 2
40.5691 11.6001 2
43.8579 11.9123 2
51.4304 29.1234 2
50.844 25.6912 2
49.9535 22.159 2
45.8025 15.4147 2
47.5059 19.2177 2
50.1439 31.3721 3.98349
49.3685 27.4458 3.97965
49.442 24.3718 3.97931
47.1944 21.9086 3.97707
38.3015 12.7255 3.98285
42.1005 14.2981 3.98165
44.8009 18.4538 3.97908
45.0873 37.511 3.97455
46.5263 37.5094 2
47.987 58.7467 0.0180531
48.6039 55.9247 0.018623
50.2271 45.2873 0.0181257
49.7362 49.0725 0.0229318
49.1554 52.6164 0.0203613
46.2036 39.913 0.0748349
46.6004 42.7827 -0.000155296
46.6438 45.7223 0.0257387
44.0595 41.2555 0.0141617
42.0927 41.9931 0.00440872
46.8397 57.3479 2
44.8161 39.5078 2
42.4604 40.8711 2
48.1884 47.2637 2
47.1806 54.2557 2
47.6309 50.7769 2
44.9102 47.3282 2
45.2771 42.0354 2
45.0785 44.6737 2
42.8602 42.7394 2
40.9433 42.3444 2
45.4008 55.9317 3.97995
42.7914 39.2664 3.98367
40.8929 40.8121 3.95615
46.1627 48.9427 3.98047
45.5693 52.5518 3.98428
43.5378 48.4769 3.94749
43.4581 46.216 4.01394
43.8156 43.8317 3.92893
41.3144 43.8922 3.98738
39.3073 42.6569 3.97346
45.4678 58.7927 0.0190472
43.8757 57.7147 2
42.1066 56.3367 3.98048
35.4639 67.6641 0.0130174
37.6422 65.517 0.0151707
39.8927 63.5586 0.0168904
41.7526 62.4976 0.0174912
42.48 59.9847 0.018668
35.5733 65.4398 2
40.6222 61.6552 2
37.8364 63.2205 2
40.4437 58.2126 2
38.9251 56.5028 3.97931
38.2498 60.3367 3.98139
35.6071 63.2141 3.98316
33.5761 65.3504 0.0149824
31.9604 63.3081 0.016525
33.6297 63.3483 2
30.3794 62.8666 2
32.1236 62.0135 2
28.6817 62.2112 3.98307
33.3461 61.5253 3.98179
31.0665 61.2295 3.98199
27.5667 59.6054 3.98253
23.788 59.1016 3.98504
25.0331 60.8846 3.98373
26.8686 61.5096 2
26.2296 63.4873 3.98434
28.0631 64.1554 2
27.4641 66.189 3.98654
29.8844 64.7274 0.0151889
29.4074 66.7657 2
28.9067 68.9471 3.9895
31.3777 67.2019 0.0130629
31.0141 69.422 2
30.6148 71.7799 3.99364
33.1567 69.7567 0.0103695
32.8923 72.1491 2
32.6054 74.6784 4
35.1952 72.3746 0.00632527
35.0474 74.9197 2
37.5 75 0
33.7231 6.97412 3.9881
35.4345 4.68266 3.99053
35.6205 6.71935 2
37.5141 2.38563 3.99434
37.523 4.61198 2
39.6238 4.71272 0.00945995
39.7885 2.47269 2
39.9526 0.0806499 4
42.0619 2.71647 0.00577844
42.3947 0.320817 2
44.8158 0.721173 0
44.8059 35.512 3.97582
42.4501 34.1509 3.99266
47.7307 40.4668 -0.00451416
50.7607 38.4827 0.010977
54.1148 36.6236 0.0155045
48.3975 37.7646 2
51.5395 35.5649 2
46.18 35.1045 2
44.0537 33.7614 2
42.0887 33.0243 2
48.5617 34.2375 4.00366
45.2694 32.983 3.92713
42.8529 32.2672 3.98499
40.9349 32.6775 3.98825
37.3099 10.6213 3.98489
37.4577 8.52705 2
37.516 6.66882 0.0116645
39.2111 8.68605 0.013701
38.976 10.1182 2
34.753 10.3705 3.985
35.8979 9.76455 2
32.3764 9.36124 3.98599
34.1497 8.81442 2
35.9414 8.48556 0.0132802
52.53 32.8432 0.0165705
51.4319 29.1226 0.00900683
50.8448 25.6899 0.0212294
49.9533 22.1585 0.0182149
47.5058 19.218 0.0221121
45.8024 15.415 0.0186403
43.8579 11.9127 0.0165521
40.5691 11.6005 0.0161018
50.1429 31.3723 2
38.3015 12.7253 2
42.1005 14.2977 2
49.367 27.4474 2
49.4416 24.3726 2
47.1945 21.9093 2
44.8009 18.4534 2
47.9257 29.5763 3.9734
47.145 25.0943 3.97988
44.2933 21.3111 3.97702
36.581 12.9217 3.9832
38.68 14.7967 3.98216
41.7495 17.8298 3.98011
42.9155 37.5028 3.98555
45.0887 37.5107 2
46.5271 37.5078 0.0714401
46.8397 57.3478 0.0176481
47.1804 54.2557 0.0180721
48.1895 47.2649 0.0181653
47.6309 50.7774 0.0223537
44.8169 39.5111 0.0248745
45.2774 42.0321 0.0714009
45.0702 44.6689 0.00212628
44.9104 47.3377 0.0271759
42.8535 42.7453 0.0154003
42.4599 40.8696 0.0091373
40.9403 42.344 0.0077525
45.4009 55.9318 2
42.7906 39.2668 2
40.8929 40.8142 2
46.1625 48.94 2
45.5697 52.5513 2
43.5378 48.474 2
43.4745 46.223 2
43.8152 43.8347 2
41.3157 43.884 2
39.3081 42.6601 2
43.7418 54.4386 3.98244
40.9738 39.1884 3.9489
39.2336 40.8862 3.9522
43.7546 50.5301 3.99175
42.0427 47.7388 4.02623
41.9626 45.2154 3.9193
39.5244 44.655 3.98873
37.5029 42.782 3.95754
43.8758 57.7147 0.0194164
42.1066 56.3366 2
40.4207 54.9387 3.97863
35.5733 65.4394 0.0151442
37.8364 63.2201 0.017124
40.6222 61.6549 0.0175606
40.4437 58.2127 0.019621
35.6071 63.2144 2
38.2498 60.3369 2
38.9249 56.5026 2
37.9998 55.255 3.97849
36.9338 57.6346 3.97945
35.3635 60.923 3.98184
33.6297 63.348 0.0165298
30.3794 62.8663 0.0166609
32.1236 62.0133 0.0175224
33.3461 61.5255 2
28.6817 62.2115 2
31.0665 61.2297 2
29.4022 60.2983 3.98149
32.3556 59.7548 3.98155
28.0185 58.384 3.98383
27.5667 59.6056 2
25.3752 58.6103 3.98329
22.7499 58.2635 3.98321
23.3979 60.3673 3.98455
23.7878 59.1018 2
25.033 60.8849 2
24.4316 62.781 3.98485
26.8686 61.5094 0.0172798
26.2295 63.4876 2
25.5482 65.4991 3.98634
28.0632 64.155 0.015423
27.4641 66.1894 2
26.8367 68.3355 3.98938
29.4074 66.7653 0.0132485
28.9067 68.9474 2
28.37 71.2651 3.99361
31.0142 69.4216 0.0104179
30.6148 71.7802 2
30.1842 74.2788 4
32.8923 72.1488 0.00634524
32.6053 74.6792 2
35.0474 74.9194 0
31.7875 7.41352 3.98783
33.3465 4.92164 3.99045
33.7231 6.97373 2
35.2444 2.46176 3.99431
35.4345 4.68229 2
35.6205 6.71975 0.0117262
37.5 0 4
37.5141 2.38538 2
37.523 4.61234 0.00945223
39.7885 2.47295 0.00565528
39.9526 0.0802889 2
42.3946 0.32156 0
42.7824 35.744 3.98705
44.8045 35.5135 2
40.8846 34.2126 3.95513
42.4515 34.1491 2
48.3973 37.765 -0.00701953
51.5402 35.5653 0.025042
46.1836 35.1054 0.0688195
44.0508 33.7594 0.0194469
42.0867 33.0243 0.0070015
48.5609 34.2376 2
45.2674 32.9797 2
42.8557 32.2711 2
40.936 32.6741 2
46.5176 31.4741 4.00232
43.8195 31.1816 3.92611
41.314 31.123 3.98224
39.299 32.3873 3.97285
35.6914 11.7659 3.98373
37.3099 10.621 2
37.4577 8.52743 0.0133853
38.976 10.1185 0.0143194
33.0968 11.207 3.98436
34.753 10.3702 2
35.8979 9.76493 0.0142362
30.4811 10.0091 3.98554
32.3763 9.36088 2
34.1497 8.8148 0.013462
50.1439 31.3721 0.0165097
49.3685 27.4458 0.0203453
49.442 24.3718 0.0206918
47.1944 21.9086 0.0229303
44.8009 18.4538 0.0209209
42.1005 14.2981 0.0183457
38.3015 12.7255 0.0171474
36.581 12.9214 2
47.9236 29.5782 2
38.68 14.7967 2
41.7495 17.8296 2
47.1445 25.0946 2
44.2933 21.3112 2
45.6649 27.7942 3.97439
43.8263 24.0328 3.9796
41.3442 20.7093 3.97881
35.7703 14.7471 3.98213
38.6805 17.5842 3.98109
41.0148 37.4975 3.94555
42.9166 37.5024 2
45.0873 37.511 0.0254473
45.4008 55.9317 0.0200484
45.5693 52.5518 0.0157217
46.1627 48.9427 0.0195299
42.7914 39.2664 0.016331
43.8156 43.8317 0.0710692
43.4581 46.216 -0.0139363
43.5378 48.4769 0.0525087
41.3144 43.8922 0.0126164
40.8929 40.8121 0.0438481
39.3073 42.6569 0.0265395
43.742 54.4388 2
40.973 39.1892 2
39.2334 40.8895 2
43.7543 50.5319 2
42.0424 47.7388 2
41.9681 45.216 2
37.5035 42.7873 2
39.5258 44.6586 2
41.89 53.0035 3.98005
39.2303 39.1849 3.94441
37.5056 40.9309 3.95325
35.6992 42.6778 3.9765
40.9985 49.7513 4.0041
39.8485 46.09 3.94332
37.4956 44.9539 3.96625
42.1066 56.3367 0.0195171
40.4205 54.9388 2
38.7307 53.8678 3.98051
35.6071 63.2141 0.0168352
38.2498 60.3367 0.0186096
38.9251 56.5028 0.0206929
35.3635 60.9233 2
36.9337 57.6347 2
37.9998 55.2544 2
36.3188 55.3881 3.97905
34.4867 58.5306 3.98056
33.3461 61.5253 0.0182083
28.6817 62.2112 0.0169329
31.0665 61.2295 0.0180056
32.3556 59.755 2
29.4022 60.2985 2
30.2944 57.825 3.9812
28.0184 58.3842 2
26.9362 56.8376 3.98203
27.5667 59.6054 0.0174698
25.3751 58.6105 2
23.8281 56.8293 3.98209
21.3242 57.4271 3.98446
21.9891 59.643 3.98514
22.7498 58.2636 2
22.7346 62.0343 3.98513
23.3978 60.3675 2
23.788 59.1016 0.0149587
25.0331 60.8846 0.0162671
24.4316 62.7813 2
23.6819 64.718 3.98641
26.2296 63.4873 0.015662
25.5481 65.4995 2
24.8092 67.5969 3.98928
27.4641 66.189 0.0134582
26.8366 68.3358 2
26.1654 70.606 3.99356
28.9067 68.9471 0.0105004
28.37 71.2654 2
27.7943 73.7221 4
30.6148 71.7799 0.00635964
30.1841 74.2794 2
32.6054 74.6784 0
29.8101 7.98648 3.98745
31.2517 5.32847 3.99029
31.7875 7.41313 2
32.9803 2.69979 3.99424
33.3465 4.92126 2
33.7231 6.97412 0.0118963
35.0474 0.080333 4
35.2444 2.4615 2
35.4345 4.68266 0.00946904
37.5 0 2
37.5141 2.38563 0.00565641
39.9526 0.0806499 0
40.9689 35.8172 3.94982
42.7811 35.7431 2
44.8059 35.512 0.024175
28.5421 10.6847 3.98485
39.2256 34.1613 3.95642
40.8846 34.2097 2
42.4501 34.1509 0.00733949
48.5617 34.2375 -0.00365977
45.2694 32.983 0.0728709
42.8529 32.2672 0.0150086
40.9349 32.6775 0.0117475
46.5202 31.4723 2
43.8165 31.1793 2
41.3196 31.124 2
39.3002 32.3812 2
44.5289 29.6516 3.99962
41.9654 29.8043 3.92638
39.5192 30.379 3.98257
37.4926 32.2767 3.95107
34.091 12.9235 3.98304
35.6914 11.7655 2
37.3099 10.6213 0.0151138
31.1849 11.9752 3.98388
33.0968 11.2066 2
34.753 10.3705 0.0149972
30.481 10.0087 2
32.3764 9.36124 0.014006
47.9257 29.5763 0.0265991
47.145 25.0943 0.0201173
36.581 12.9217 0.0167988
44.2933 21.3111 0.0229818
41.7495 17.8298 0.0198876
38.68 14.7967 0.0178363
35.7704 14.7468 2
45.6632 27.7979 2
38.6805 17.5846 2
41.344 20.7093 2
43.8259 24.0363 2
33.606 15.8647 3.98181
43.1332 26.4881 3.97908
40.9289 23.2838 3.98101
38.4226 20.3148 3.9791
35.8467 17.498 3.98098
39.2363 37.5058 3.94218
41.0151 37.497 2
42.9155 37.5028 0.0144503
43.7418 54.4386 0.0175591
43.7546 50.5301 0.00825153
40.9738 39.1884 0.0510987
41.9626 45.2154 0.0807005
42.0427 47.7388 -0.0262261
39.5244 44.655 0.011271
39.2336 40.8862 0.0478023
37.5029 42.782 0.0424648
41.8899 53.0041 2
39.23 39.1864 2
37.5054 40.9347 2
40.9982 49.7493 2
35.6996 42.6809 2
39.8495 46.0922 2
37.4959 44.9603 2
39.828 51.9158 3.97994
37.504 39.2019 3.94512
35.7806 40.9108 3.95003
34.0643 42.3758 3.98708
35.4624 44.6657 3.98216
38.7712 48.8554 4.03655
37.4964 46.3973 3.93544
40.4207 54.9387 0.0213709
38.7308 53.8665 2
36.7175 53.211 3.98238
35.3635 60.923 0.0181619
36.9338 57.6346 0.0205544
37.9998 55.255 0.0215085
34.4866 58.5307 2
36.3189 55.3878 2
33.2224 55.5074 3.97943
32.3556 59.7548 0.0184527
29.4022 60.2983 0.0185135
30.2944 57.8251 2
28.6736 55.3181 3.97928
28.0185 58.384 0.0161652
26.936 56.8378 2
25.2915 55.1669 3.98105
21.7898 55.3788 3.98253
25.3752 58.6103 0.0167112
23.8279 56.8294 2
20.207 57.0597 3.98526
20.6387 58.8044 3.9854
21.324 57.4272 2
21.1637 61.1872 3.9859
21.989 59.6432 2
22.7499 58.2635 0.0167902
21.8948 63.8474 3.98662
22.7346 62.0345 2
23.3979 60.3673 0.0154451
24.4316 62.781 0.0151505
23.6818 64.7184 2
22.8376 66.7411 3.98922
25.5482 65.4991 0.0136607
24.8091 67.5972 2
24.0099 69.8073 3.99353
26.8367 68.3355 0.0106174
26.1654 70.6062 2
25.446 73.0099 4
28.37 71.2651 0.00639032
27.7943 73.7222 2
30.1842 74.2788 0
27.8201 8.64594 3.98702
29.1538 5.87393 3.99004
29.8101 7.98606 2
30.7256 3.09679 3.99413
31.2517 5.32808 2
31.7875 7.41352 0.0121688
32.6053 0.320823 4
32.9803 2.69953 2
33.3465 4.92164 0.00955006
35.0474 0.0802903 2
35.2444 2.46176 0.00569177
37.5 0 0
39.2281 35.8386 3.94713
40.9676 35.8153 2
42.7824 35.744 0.0129536
28.5421 10.6843 2
26.6212 11.3799 3.98474
29.2239 12.6327 3.98354
37.4979 34.1331 3.95814
39.2255 34.1566 2
40.8846 34.2126 0.0448704
46.5176 31.4741 -0.00232226
43.8195 31.1816 0.073893
41.314 31.123 0.0177562
39.299 32.3873 0.0271541
44.5367 29.6465 2
41.9665 29.8024 2
39.5228 30.3729 2
37.494 32.2694 2
42.4095 28.348 4.01095
39.8462 28.934 3.93558
37.4863 30.0935 3.95866
35.6894 32.3865 3.97268
31.9126 14.4699 3.98242
34.091 12.9233 2
35.6914 11.7659 0.0162684
31.1849 11.9749 2
33.0968 11.207 0.0156361
30.4811 10.0091 0.0144607
45.6649 27.7942 0.0256086
43.8263 24.0328 0.0204009
35.7703 14.7471 0.0178727
41.3442 20.7093 0.0211887
38.6805 17.5842 0.018913
33.6061 15.8645 2
35.8468 17.4978 2
43.1323 26.4923 2
38.4226 20.3161 2
40.9289 23.285 2
33.5479 17.3751 3.98098
40.4936 25.6158 3.97858
38.0845 22.8503 3.98211
35.5826 20.0678 3.98038
37.5022 37.5218 3.94411
39.2366 37.5052 2
41.0148 37.4975 0.0544545
41.89 53.0035 0.0199465
40.9985 49.7513 -0.00410481
39.2303 39.1849 0.0555884
39.8485 46.09 0.0566839
37.4956 44.9539 0.0337517
37.5056 40.9309 0.0467519
35.6992 42.6778 0.0234994
39.8286 51.9144 2
37.5044 39.2036 2
35.7804 40.9136 2
38.7685 48.8575 2
34.0632 42.3769 2
35.462 44.6696 2
37.4925 46.4027 2
37.6614 51.033 3.97393
35.7824 39.213 3.94225
34.1276 40.8459 3.95243
32.9118 42.024 3.99462
33.6744 43.9252 3.98803
35.1591 46.1117 3.93133
36.89 48.4786 4.03807
38.7307 53.8678 0.0194927
36.7176 53.2106 2
34.3469 52.4794 3.98122
34.4867 58.5306 0.0194443
36.3188 55.3881 0.0209501
33.2224 55.5072 2
30.4969 53.4151 3.97893
30.2944 57.825 0.0187971
28.6733 55.3183 2
26.8523 53.4675 3.97871
26.9362 56.8376 0.0179748
25.2912 55.1669 2
23.5409 53.5166 3.97997
20.4347 53.2668 3.98202
19.9157 55.8654 3.98453
21.7895 55.3787 2
23.8281 56.8293 0.0179135
19.4292 57.9199 3.98528
20.2068 57.0597 2
19.7021 60.2239 3.98586
20.6386 58.8045 2
21.3242 57.4271 0.0155412
20.2063 62.8707 3.98704
21.1636 61.1874 2
21.9891 59.643 0.014865
20.9389 65.7711 3.98931
21.8947 63.8476 2
22.7346 62.0343 0.0148695
23.6819 64.718 0.0135902
22.8375 66.7414 2
21.9126 68.8747 3.9935
24.8092 67.5969 0.0107243
24.0098 69.8076 2
23.1494 72.1454 4
26.1654 70.606 0.00643532
25.446 73.0099 2
27.7943 73.7221 0
25.8595 9.37403 3.98661
27.0687 6.5377 3.98977
27.8201 8.64555 2
28.4879 3.64256 3.99397
29.1537 5.87353 2
29.8101 7.98648 0.0125458
30.1841 0.720592 4
30.7256 3.09653 2
31.2517 5.32847 0.00970744
32.6053 0.320817 2
32.9803 2.69979 0.00575902
35.0474 0.080333 0
37.5002 35.8479 3.94714
39.2274 35.836 2
40.9689 35.8172 0.0501815
24.776 12.0626 3.98488
23.7496 14.3466 3.98434
28.5421 10.6847 0.0151465
26.6212 11.3797 2
29.2239 12.6324 2
27.29 13.3656 3.98351
29.7787 14.1923 3.98321
35.7749 34.1576 3.95494
37.4982 34.128 2
39.2256 34.1613 0.0435759
37.4926 32.2767 0.0489264
44.5289 29.6516 0.000382919
41.9654 29.8043 0.0736176
39.5192 30.379 0.0174253
42.4127 28.3401 2
39.8455 28.9282 2
37.4883 30.0848 2
35.6908 32.3807 2
40.07 27.5212 4.02242
37.4868 28.6446 3.93303
35.4551 30.3796 3.98186
34.0609 32.6826 3.98923
30.9241 16.8285 3.98223
31.9127 14.4697 2
34.091 12.9235 0.0169634
31.1849 11.9752 0.0161157
43.1332 26.4881 0.0209199
40.9289 23.2838 0.0189862
33.606 15.8647 0.0181915
35.8467 17.498 0.0190197
38.4226 20.3148 0.0209031
33.5481 17.3749 2
35.5829 20.0678 2
40.4924 25.6183 2
38.0848 22.8527 2
32.8596 19.786 3.97823
37.787 25.1614 3.98296
35.2049 22.6288 3.9793
35.7711 37.5303 3.93983
37.5029 37.5213 2
39.2363 37.5058 0.0578196
39.828 51.9158 0.0200586
38.7712 48.8554 -0.0365522
37.504 39.2019 0.0548787
37.4964 46.3973 0.064563
35.4624 44.6657 0.0178428
35.7806 40.9108 0.0499739
34.0643 42.3758 0.0129242
37.6616 51.0359 2
35.7835 39.2143 2
34.127 40.8477 2
36.8878 48.4796 2
32.9095 42.0258 2
33.6736 43.9211 2
35.1565 46.1165 2
35.4068 50.2001 3.9781
34.0477 39.2249 3.94683
32.5514 40.8991 3.99108
32.1422 42.779 3.98519
33.0404 45.2447 3.92425
34.2591 47.5366 4.0254
36.7175 53.211 0.0176152
34.3469 52.4798 2
31.9593 51.2376 3.97967
33.2224 55.5074 0.0205723
30.4966 53.4158 2
28.3839 51.6578 3.97846
28.6736 55.3181 0.0207222
26.8519 53.4676 2
25.0321 51.8114 3.97746
25.2915 55.1669 0.0189457
23.5407 53.5164 2
21.9185 51.8559 3.98124
19.1588 51.68 3.98245
18.897 54.3455 3.98328
20.4347 53.2664 2
18.4347 56.7542 3.98549
19.9155 55.8654 2
21.7898 55.3788 0.0174662
18.3626 59.1345 3.98566
19.4291 57.9199 2
20.207 57.0597 0.0147412
18.6163 61.7807 3.98699
19.702 60.224 2
20.6387 58.8044 0.0146007
19.1274 64.6833 3.98949
20.2063 62.871 2
21.1637 61.1872 0.0140998
19.8867 67.8118 3.99352
20.9389 65.7714 2
21.8948 63.8474 0.0133827
22.8376 66.7411 0.0107781
21.9125 68.8749 2
20.9142 71.1327 4
24.0099 69.8073 0.00646858
23.1494 72.1455 2
25.446 73.0099 0
23.0953 12.7767 3.98494
23.9722 10.1604 3.98644
25.0228 7.30761 3.98946
25.8595 9.37371 2
26.2797 4.32663 3.99377
27.0687 6.53732 2
27.8201 8.64594 0.0129824
27.7943 1.27781 4
28.4878 3.64229 2
29.1538 5.87393 0.00995899
30.1841 0.720551 2
30.7256 3.09679 0.00587205
32.6053 0.320823 0
35.774 35.8499 3.94343
37.5003 35.845 2
39.2281 35.8386 0.0528688
24.776 12.0624 2
23.7497 14.3465 2
22.4779 15.022 3.98456
25.3561 13.8968 3.98406
24.0223 15.6083 3.98412
26.6212 11.3799 0.0152571
29.2239 12.6327 0.0164561
27.2901 13.3654 2
29.7787 14.1921 2
28.3547 15.9671 3.98303
34.1256 34.2181 3.95284
35.7754 34.1531 2
37.4979 34.1331 0.0418564
35.6894 32.3865 0.0273155
37.4863 30.0935 0.0413365
42.4095 28.348 -0.0109476
39.8462 28.934 0.0644197
40.0702 27.521 2
37.4885 28.6344 2
35.4554 30.3743 2
34.062 32.6799 2
37.6002 27.1974 4.02292
35.1173 28.9344 3.93496
33.6645 31.1311 3.98239
32.9128 33.0417 3.99039
30.2038 19.3324 3.98346
30.9242 16.8283 2
31.9126 14.4699 0.0175752
40.4936 25.6158 0.0214245
38.0845 22.8503 0.0178936
33.5479 17.3751 0.019018
35.5826 20.0678 0.0196156
32.8598 19.7861 2
35.2058 22.6292 2
37.7864 25.1671 2
32.3057 22.4058 3.97878
34.9327 25.158 3.97473
33.999 37.5331 3.94437
35.7722 37.5297 2
37.5022 37.5218 0.0558945
37.6614 51.033 0.026071
36.89 48.4786 -0.0380661
35.7824 39.213 0.0577537
35.1591 46.1117 0.0686749
33.6744 43.9252 0.0119653
34.1276 40.8459 0.0475685
32.9118 42.024 0.00537548
35.4067 50.1998 2
34.0491 39.2259 2
32.5499 40.9012 2
34.2553 47.5424 2
32.139 42.7732 2
33.0356 45.2475 2
33.1579 49.1734 3.97805
32.2217 39.301 3.98441
30.9435 41.2835 3.98202
31.1826 43.863 3.92704
32.1783 46.4828 4.00444
34.3469 52.4794 0.0187786
31.9592 51.2388 2
29.7805 49.7531 3.97983
30.4969 53.4151 0.0210678
28.3837 51.6574 2
26.4351 50.0491 3.9762
26.8523 53.4675 0.0212887
25.0319 51.8107 2
23.276 50.253 3.98216
23.5409 53.5166 0.0200333
21.9185 51.8552 2
20.4101 50.3656 3.98317
17.9429 50.3728 3.98411
17.8019 52.8311 3.98324
19.1591 51.6794 2
17.4193 55.373 3.98454
18.8969 54.3453 2
20.4347 53.2668 0.0179775
17.1265 57.8992 3.98602
18.4345 56.7542 2
19.9157 55.8654 0.0154693
17.1327 60.5666 3.98673
18.3625 59.1346 2
19.4292 57.9199 0.0147206
17.4072 63.4775 3.98956
18.6162 61.781 2
19.7021 60.2239 0.0141428
17.9428 66.6208 3.99357
19.1274 64.6835 2
20.2063 62.8707 0.0129612
18.75 69.9759 4
19.8866 67.812 2
20.9389 65.7711 0.0106908
21.9126 68.8747 0.00649957
20.9142 71.1327 2
23.1494 72.1454 0
21.5858 13.5959 3.98507
22.1904 11.0192 3.98631
23.0953 12.7765 2
23.041 8.17275 3.98926
23.9722 10.1601 2
24.1174 5.1412 3.99358
25.0227 7.30727 2
25.8595 9.37403 0.013386
25.446 1.99014 4
26.2796 4.32637 2
27.0687 6.5377 0.0102307
27.7943 1.27778 2
28.4879 3.64256 0.00603164
30.1841 0.720592 0
34.0376 35.8405 3.94443
35.7748 35.8472 2
37.5002 35.8479 0.052857
21.3023 15.816 3.98463
24.776 12.0626 0.0151234
23.7496 14.3466 0.0156626
25.3561 13.8966 2
22.4779 15.0219 2
24.0223 15.6081 2
23.2611 16.2388 3.98396
25.3777 16.0769 3.98375
27.29 13.3656 0.0164921
29.7787 14.1923 0.0167904
28.3548 15.9669 2
27.4353 18.7885 3.98356
32.5575 34.1747 3.99502
34.1258 34.2157 2
35.7749 34.1576 0.0450621
34.0609 32.6826 0.0107676
35.4551 30.3796 0.0181399
37.4868 28.6446 0.0669699
40.07 27.5212 -0.0224211
37.6003 27.1857 2
32.9126 33.0429 2
35.1234 28.929 2
33.6623 31.1329 2
35.0135 27.3282 4.01953
33.0028 29.8171 3.92713
32.1394 32.2847 3.98853
29.5653 21.9288 3.98532
30.204 19.3324 2
30.9241 16.8285 0.0177681
37.787 25.1614 0.017039
35.2049 22.6288 0.0207017
32.8596 19.786 0.0217696
32.3067 22.4063 2
34.9329 25.1624 2
31.6162 25.5964 3.97789
32.0921 37.5367 3.98473
34.0001 37.5327 2
35.7711 37.5303 0.0601726
35.4068 50.2001 0.0218955
34.2591 47.5366 -0.0254025
34.0477 39.2249 0.053167
33.0404 45.2447 0.0757461
32.1422 42.779 0.0148141
32.5514 40.8991 0.00892392
33.158 49.1647 2
32.2231 39.3016 2
30.9407 41.2815 2
32.1686 46.4909 2
31.1825 43.8638 2
31.022 47.9045 3.97527
30.188 39.5314 3.97519
29.7263 42.0567 3.92632
30.2724 45.0775 4.0003
31.9593 51.2376 0.0203293
29.7808 49.753 2
27.7646 48.2361 3.9796
28.3839 51.6578 0.0215393
26.4352 50.0471 2
24.557 48.5323 3.98472
25.0321 51.8114 0.0225363
23.2763 50.2518 2
21.5768 48.8464 3.98547
21.9185 51.8559 0.0187566
20.4106 50.3646 2
18.9759 49.1384 3.98584
16.8493 49.3701 3.98575
16.7387 51.4452 3.98394
17.9433 50.3723 2
16.3668 53.9044 3.98413
17.8021 52.8307 2
19.1588 51.68 0.017555
15.9653 56.5029 3.98566
17.4192 55.373 2
18.897 54.3455 0.0167223
15.7449 59.2299 3.98681
17.1263 57.8993 2
18.4347 56.7542 0.0145137
15.7871 62.1499 3.98934
17.1326 60.5668 2
18.3626 59.1345 0.0143423
16.0892 65.304 3.99363
17.4072 63.4778 2
18.6163 61.7807 0.0130119
16.6661 68.6801 4
17.9428 66.621 2
19.1274 64.6833 0.0105095
18.75 69.9759 2
19.8867 67.8118 0.00647825
20.9142 71.1327 0
20.2172 14.583 3.98509
21.5858 13.5957 2
20.5295 11.9882 3.98631
21.1442 9.14208 3.98914
22.1903 11.0189 2
23.0953 12.7767 0.015064
22.0165 6.08007 3.99344
23.041 8.17239 2
23.9722 10.1604 0.0135647
23.1494 2.85457 4
24.1173 5.14096 2
25.0228 7.30761 0.0105392
25.446 1.99012 2
26.2797 4.32663 0.00623109
27.7943 1.27781 0
32.2188 35.7721 3.98663
34.0388 35.8388 2
35.774 35.8499 0.0565741
21.3023 15.8158 2
20.2984 16.9473 3.98514
22.0937 16.6214 3.98437
25.3561 13.8968 0.0159353
22.4779 15.022 0.0154427
24.0223 15.6083 0.0158819
25.3777 16.0768 2
23.2611 16.2387 2
24.1996 18.4373 3.98341
27.0019 21.4476 3.98228
28.3547 15.9671 0.0169701
27.4354 18.7883 2
30.9549 33.7896 3.98167
32.556 34.1734 2
34.1256 34.2181 0.0471591
32.9128 33.0417 0.009607
33.6645 31.1311 0.0176094
35.1173 28.9344 0.0650401
37.6002 27.1974 -0.0229177
35.0134 27.3213 2
32.14 32.2901 2
33.0068 29.8174 2
32.4188 28.0568 4.01509
31.1648 31.2103 3.93326
28.738 24.3966 3.98531
29.5661 21.9287 2
30.2038 19.3324 0.0165436
34.9327 25.158 0.0252722
32.3057 22.4058 0.0212238
31.616 25.5945 2
29.5262 27.2175 3.99246
29.9132 37.5342 3.97443
32.0925 37.5368 2
33.999 37.5331 0.0556321
33.1579 49.1734 0.0219492
32.1783 46.4828 -0.00444397
32.2217 39.301 0.0155913
31.1826 43.863 0.0729591
30.9435 41.2835 0.0179817
31.0237 47.8961 2
30.1895 39.5304 2
29.7276 42.0602 2
30.2619 45.0835 2
29.0228 46.4695 3.97366
28.806 39.9317 3.92932
28.4566 43.2953 4.00319
29.7805 49.7531 0.0201728
27.7655 48.2336 2
25.8126 46.7186 3.98836
26.4351 50.0491 0.0238031
24.5578 48.5308 2
22.7011 47.1432 3.99089
23.276 50.253 0.0178384
21.5777 48.8449 2
19.9122 47.6675 3.98873
20.4101 50.3656 0.0168254
18.9764 49.138 2
17.6184 48.2185 3.98688
16.1005 48.7185 3.9865
16.8497 49.3698 2
15.8144 50.2056 3.98506
15.3529 52.4486 3.9843
16.7389 51.4449 2
17.9429 50.3728 0.0158892
14.8539 55.0053 3.98507
16.3668 53.9041 2
17.8019 52.8311 0.016759
14.4528 57.7604 3.98669
15.9651 56.503 2
17.4193 55.373 0.0154597
14.2647 60.7061 3.98907
15.7449 59.2301 2
17.1265 57.8992 0.0139758
14.3332 63.8637 3.99355
15.7871 62.1502 2
17.1327 60.5666 0.0132696
14.6715 67.2507 4
16.0892 65.3042 2
17.4072 63.4775 0.0104395
16.6661 68.6801 2
17.9428 66.6208 0.00643372
18.75 69.9759 0
18.93 15.7675 3.98535
20.2172 14.5828 2
18.9788 13.0975 3.98629
21.5858 13.5959 0.0149267
20.5295 11.9879 2
19.3436 10.2292 3.98907
19.9913 7.14451 3.99339
21.1442 9.14173 2
22.1904 11.0192 0.0136851
20.9142 3.86727 4
22.0165 6.07982 2
23.041 8.17275 0.0107353
23.1494 2.85451 2
24.1174 5.1412 0.00641907
25.446 1.99014 0
30.1912 35.5376 3.97784
32.2197 35.7714 2
34.0376 35.8405 0.0555699
21.3023 15.816 0.0153746
22.0938 16.6213 2
20.2985 16.9472 2
19.2357 18.3913 3.98507
21.7771 17.8351 3.9845
25.3777 16.0769 0.0162457
23.2611 16.2388 0.0160374
24.1996 18.4373 2
22.2677 19.8741 3.98431
24.5771 21.3053 3.98354
26.3702 23.7077 3.98609
27.0025 21.4474 2
27.4353 18.7885 0.0164435
29.7346 33.0149 3.93064
30.9522 33.7925 2
32.5575 34.1747 0.00498152
32.1394 32.2847 0.0114718
33.0028 29.8171 0.0728661
35.0135 27.3282 -0.019532
32.4177 28.0543 2
31.1702 31.2128 2
29.928 29.4932 4.00565
27.776 26.5276 3.97572
28.738 24.3963 2
29.5653 21.9288 0.014675
31.6162 25.5964 0.0221102
29.5257 27.2165 2
28.4714 37.5315 3.93135
29.9132 37.5351 2
32.0921 37.5367 0.0152737
31.022 47.9045 0.0247318
30.2724 45.0775 -0.000299391
30.188 39.5314 0.0248105
29.7263 42.0567 0.0736806
29.0252 46.466 2
28.8094 39.9321 2
28.4514 43.2978 2
27.0861 44.8401 3.9744
26.5596 40.68 4.00601
27.7646 48.2361 0.0204039
25.8143 46.7165 2
23.8384 45.2729 3.99045
24.557 48.5323 0.0152801
22.7024 47.141 2
20.8309 45.9492 3.99082
21.5768 48.8464 0.0145298
19.913 47.6671 2
18.2565 46.7779 3.988
18.9759 49.1384 0.0141569
17.619 48.2182 2
16.2872 47.7477 3.98633
16.1009 48.7183 2
15.1594 49.0478 3.98569
16.8493 49.3701 0.0142535
15.8147 50.2053 2
14.4645 51.0155 3.9848
13.8133 53.4614 3.98489
15.353 52.4484 2
16.7387 51.4452 0.016059
13.2461 56.1891 3.98626
14.8538 55.0052 2
16.3668 53.9044 0.0158734
12.8465 59.1409 3.98872
14.4527 57.7605 2
15.9653 56.5029 0.0143383
12.6783 62.3067 3.99337
14.2646 60.7064 2
15.7449 59.2299 0.0131884
12.7746 65.6939 4
14.3331 63.8639 2
15.7871 62.1499 0.010659
14.6714 67.2507 2
16.0892 65.304 0.0063655
16.6661 68.6801 0
17.6631 17.1404 3.98537
18.93 15.7673 2
17.5095 14.3596 3.98632
20.2172 14.583 0.0149073
18.9788 13.0972 2
17.6391 11.447 3.98899
20.5295 11.9882 0.0136925
19.3437 10.2289 2
18.0515 8.33701 3.99336
18.75 5.0241 4
19.9912 7.14427 2
21.1442 9.14208 0.010859
20.9142 3.86727 2
22.0165 6.08007 0.00656168
23.1494 2.85457 0
28.8004 35.1333 3.92909
30.1918 35.5413 2
32.2188 35.7721 0.0133693
22.0937 16.6214 0.0156309
20.2984 16.9473 0.0148583
21.7771 17.835 2
19.2358 18.3912 2
17.9683 19.9202 3.98518
20.8672 19.3593 3.98476
24.1996 18.4373 0.0165909
22.2679 19.874 2
24.5776 21.305 2
22.3387 21.6959 3.98465
24.6573 23.1495 3.98495
25.373 25.9329 3.9795
26.3702 23.7072 2
27.0019 21.4476 0.0177207
28.1118 32.2698 4.00258
29.7367 33.0138 2
30.9549 33.7896 0.0183261
31.1648 31.2103 0.0667427
32.4188 28.0568 -0.0150859
29.9262 29.4908 2
26.8777 29.1336 3.96368
27.7754 26.5265 2
28.738 24.3966 0.0146934
29.5262 27.2175 0.00754118
26.6754 37.3725 4.00485
28.4734 37.53 2
29.9132 37.5342 0.0255679
29.0228 46.4695 0.0263397
28.4566 43.2953 -0.00319361
28.806 39.9317 0.0706768
27.0885 44.8384 2
26.5604 40.6799 2
25.0546 43.2315 3.98572
23.8113 39.4509 3.97348
25.8126 46.7186 0.0116435
23.8399 45.2735 2
21.7957 43.9999 3.99027
22.7011 47.1432 0.00910707
20.8321 45.9492 2
18.9083 45.0089 3.9867
19.9122 47.6675 0.0112673
18.2573 46.7777 2
16.5719 46.2447 3.98553
17.6184 48.2185 0.0131174
16.2877 47.7475 2
14.8861 47.7 3.98541
16.1005 48.7185 0.0134955
15.1597 49.0477 2
13.7607 49.5741 3.9851
15.8144 50.2056 0.0149382
14.4647 51.0153 2
12.8783 51.899 3.98498
12.132 54.5476 3.98594
13.8133 53.4613 2
15.3529 52.4486 0.0157035
11.5302 57.4735 3.98815
13.246 56.1892 2
14.8539 55.0053 0.0149276
11.1329 60.6334 3.99318
12.8465 59.1411 2
14.4528 57.7604 0.0133083
10.9835 64.0165 4
12.6783 62.3069 2
14.2647 60.7061 0.0109273
12.7745 65.694 2
14.3332 63.8637 0.00644598
14.6715 67.2507 0
16.3937 18.6315 3.98557
17.6632 17.1402 2
16.0997 15.7666 3.98632
18.93 15.7675 0.0146535
17.5095 14.3593 2
16.0204 12.7989 3.98884
18.9788 13.0975 0.0137093
17.6391 11.4467 2
16.2027 9.65962 3.99331
19.3436 10.2292 0.0109314
18.0515 8.33678 2
16.6661 6.31991 4
18.75 5.02404 2
19.9913 7.14451 0.00661151
20.9142 3.86727 0
27.1866 34.7415 4.00291
28.8016 35.1318 2
30.1912 35.5376 0.0221565
16.6643 21.352 3.98438
21.7771 17.8351 0.015504
19.2357 18.3913 0.0149287
20.8673 19.3591 2
17.9684 19.92 2
19.7061 21.5484 3.98577
22.2677 19.8741 0.0156939
24.5771 21.3053 0.0164603
22.339 21.6956 2
24.6575 23.1492 2
22.7911 24.5784 3.98228
24.4285 28.5155 3.97536
25.3725 25.9326 2
26.3702 23.7077 0.0139095
25.9567 31.717 3.97377
28.1113 32.2678 2
29.7346 33.0149 0.069365
29.928 29.4932 -0.00565246
26.8768 29.1344 2
27.776 26.5276 0.024281
24.4929 36.8834 3.98123
26.6752 37.3734 2
28.4714 37.5315 0.068654
27.0861 44.8401 0.0256001
26.5596 40.68 -0.00600611
25.0554 43.2325 2
23.812 39.4528 2
22.8375 41.84 3.98357
21.572 38.512 3.98311
23.8384 45.2729 0.00955458
21.7968 44.0014 2
19.6509 42.9218 3.98485
20.8309 45.9492 0.00917544
18.9091 45.0091 2
16.8948 44.4084 3.98428
18.2565 46.7779 0.0120024
16.5725 46.2447 2
14.803 46.1174 3.98437
16.2872 47.7477 0.0136677
14.8865 47.7 2
13.2654 48.034 3.98475
15.1594 49.0478 0.014312
13.7609 49.574 2
12.0958 50.2755 3.98502
14.4645 51.0155 0.0152005
12.8784 51.8989 2
11.1263 52.8554 3.98575
10.3197 55.7252 3.98762
12.1319 54.5476 2
13.8133 53.4614 0.0151086
9.6995 58.8569 3.99284
11.5301 57.4738 2
13.2461 56.1891 0.013737
9.30605 62.2254 4
11.1328 60.6337 2
12.8465 59.1409 0.0112769
10.9835 64.0165 2
12.6783 62.3067 0.00662965
12.7746 65.6939 0
15.1358 20.1632 3.98516
16.3937 18.6313 2
14.7443 17.2872 3.98619
17.6631 17.1404 0.0146292
16.0998 15.7663 2
14.4825 14.2789 3.98864
17.5095 14.3596 0.0136799
16.0204 12.7985 2
14.4452 11.1103 3.99321
17.6391 11.447 0.01101
16.2026 9.65938 2
14.6715 7.74927 4
18.0515 8.33701 0.00664111
16.6661 6.31988 2
18.75 5.0241 0
25.1332 34.2914 3.9836
27.1861 34.7408 2
28.8004 35.1333 0.070911
17.8325 22.2967 3.98625
15.5047 22.8937 3.98352
16.6644 21.3518 2
20.8672 19.3593 0.0152411
17.9683 19.9202 0.0148206
19.7063 21.5481 2
19.62 24.354 3.98439
22.3387 21.6959 0.0153523
24.6573 23.1495 0.0150478
22.7909 24.578 2
21.8188 27.8024 3.97631
23.5871 31.1745 3.98143
24.4279 28.5157 2
25.373 25.9329 0.0205028
25.9568 31.719 2
28.1118 32.2698 -0.00258005
26.8777 29.1336 0.0363232
22.2785 36.2713 3.98899
24.4931 36.8849 2
26.6754 37.3725 -0.00485158
25.0546 43.2315 0.0142784
23.8113 39.4509 0.0265165
22.838 41.8413 2
21.5725 38.5123 2
20.5637 40.6534 3.98133
19.9395 37.7878 3.98525
21.7957 43.9999 0.00972717
19.6518 42.9221 2
17.284 42.1229 3.98281
18.9083 45.0089 0.0132999
16.8955 44.4086 2
14.8004 44.2233 3.98288
16.5719 46.2447 0.0144719
14.8034 46.1174 2
12.935 46.318 3.98383
14.8861 47.7 0.0145873
13.2657 48.034 2
11.4656 48.5702 3.98469
13.7607 49.5741 0.0149045
12.0959 50.2755 2
10.2509 51.0974 3.98559
12.8783 51.899 0.0150232
11.1263 52.8554 2
9.22777 53.9023 3.98734
8.38312 56.9906 3.99235
10.3197 55.7254 2
12.132 54.5476 0.0140636
7.74927 60.3285 4
9.69948 58.8571 2
11.5302 57.4735 0.0118488
9.306 62.2255 2
11.1329 60.6334 0.00682242
10.9835 64.0165 0
13.945 21.7283 3.9847
15.1358 20.163 2
13.4436 18.8825 3.98603
16.3937 18.6315 0.0144271
14.7444 17.287 2
13.0274 15.87 3.98832
16.0997 15.7666 0.0136774
14.4825 14.2785 2
12.7823 12.6831 3.99306
16.0204 12.7989 0.0111553
14.4452 11.11 2
12.7746 9.30605 4
16.2027 9.65962 0.00668796
14.6715 7.74924 2
16.6661 6.31991 0
22.8749 33.79 3.98807
25.1333 34.2929 2
27.1866 34.7415 -0.00290616
17.5922 24.0151 3.98464
17.8326 22.2965 2
14.2843 24.4261 3.98236
15.5047 22.8934 2
16.6643 21.352 0.0156167
18.9649 27.1771 3.9783
19.7061 21.5484 0.0142329
19.6199 24.3537 2
21.0448 30.6454 3.9794
22.7911 24.5784 0.0177248
21.8184 27.8024 2
23.587 31.1754 2
24.4285 28.5155 0.0246436
25.9567 31.717 0.0262305
20.052 35.9181 3.98745
22.2786 36.2718 2
24.4929 36.8834 0.0187657
22.8375 41.84 0.0164329
21.572 38.512 0.0168933
20.5642 40.6537 2
19.9397 37.7883 2
17.9451 39.0111 3.98378
19.6509 42.9218 0.0151483
17.2846 42.1233 2
14.7437 41.935 3.98215
16.8948 44.4084 0.0157157
14.8009 44.2235 2
12.6726 44.4106 3.98272
14.803 46.1174 0.0156308
12.9354 46.3181 2
10.9657 46.7515 3.98391
13.2654 48.034 0.0152506
11.4658 48.5703 2
9.51312 49.2554 3.98524
12.0958 50.2755 0.0149777
10.251 51.0974 2
8.26004 52.0139 3.98719
11.1263 52.8554 0.0142496
9.22777 53.9024 2
7.19205 55.0413 3.9918
6.31991 58.3339 4
8.38311 56.9908 2
10.3197 55.7252 0.0123766
7.74924 60.3285 2
9.6995 58.8569 0.00716006
9.30605 62.2254 0
13.2047 25.3414 3.98498
12.8098 23.2579 3.98404
13.945 21.728 2
12.2272 20.5305 3.98588
15.1358 20.1632 0.0148434
13.4436 18.8822 2
11.6565 17.5499 3.98802
14.7443 17.2872 0.0138092
13.0275 15.8696 2
11.2196 14.3673 3.99285
14.4825 14.2789 0.0113577
12.7824 12.6828 2
10.9835 10.9835 4
14.4452 11.1103 0.00678852
12.7745 9.306 2
14.6715 7.74927 0
20.4451 33.3811 3.98541
22.8749 33.7908 2
25.1332 34.2914 0.0164019
15.8595 26.3769 3.98073
17.5921 24.0148 2
17.8325 22.2967 0.0137479
14.2841 24.4258 2
15.5047 22.8937 0.0164815
18.2968 30.1526 3.97879
18.9646 27.177 2
19.62 24.354 0.0156065
21.0448 30.646 2
21.8188 27.8024 0.0236939
23.5871 31.1745 0.018573
17.5648 35.9606 3.98783
20.052 35.9187 2
22.2785 36.2713 0.0110075
20.5637 40.6534 0.0186745
19.9395 37.7878 0.0147517
17.9453 39.0115 2
14.2444 39.1845 3.98438
17.284 42.1229 0.0171941
14.7442 41.9352 2
12.3575 42.291 3.98284
14.8004 44.2233 0.0171224
12.6729 44.4108 2
10.5412 44.8175 3.98323
12.935 46.318 0.016174
10.9659 46.7516 2
8.8947 47.3324 3.98459
11.4656 48.5702 0.0153139
9.51323 49.2555 2
7.42641 50.0458 3.98692
10.2509 51.0974 0.0144129
8.26006 52.014 2
6.13243 53.0159 3.99125
9.22777 53.9023 0.0126606
7.19206 55.0416 2
5.0241 56.25 4
6.31988 58.3339 2
8.38312 56.9906 0.00764865
7.74927 60.3285 0
13.4376 26.7944 3.98182
11.922 24.7685 3.9833
13.2045 25.3412 2
11.1285 22.2157 3.98537
12.8097 23.2575 2
13.945 21.7283 0.0152977
12.2271 20.5302 2
10.3856 19.3044 3.98778
13.4436 18.8825 0.0139683
11.6565 17.5495 2
9.76048 16.1497 3.99263
13.0274 15.87 0.0116847
11.2196 14.367 2
9.30607 12.7746 4
12.7823 12.6831 0.0069352
10.9835 10.9835 2
12.7746 9.30605 0
17.7532 33.0981 3.98373
20.4451 33.3817 2
22.8749 33.79 0.0119303
15.4404 29.6185 3.98007
15.8593 26.3768 2
17.5922 24.0151 0.0153609
14.2843 24.4261 0.017641
18.2968 30.1529 2
18.9649 27.1771 0.0217045
21.0448 30.6454 0.0205986
14.8322 36.0162 3.98627
17.5647 35.9611 2
20.052 35.9181 0.0125532
12.5465 37.833 3.98395
17.9451 39.0111 0.0162243
14.2445 39.1848 2
11.8684 40.151 3.98452
14.7437 41.935 0.0178458
12.3578 42.2912 2
10.1392 42.7897 3.98279
12.6726 44.4106 0.0172805
10.5415 44.8177 2
8.37174 45.3323 3.98413
10.9657 46.7515 0.016085
8.89484 47.3326 2
6.71732 48.0097 3.98639
9.51312 49.2554 0.014758
7.42644 50.0459 2
5.20886 50.9184 3.99072
8.26004 52.0139 0.0128059
6.13245 53.0162 2
3.86727 54.0858 4
7.19205 55.0413 0.00819761
5.02404 56.25 2
6.31991 58.3339 0
12.8902 29.017 3.98009
11.3504 26.4708 3.98264
13.4375 26.7943 2
10.1868 23.9514 3.98427
11.9219 24.7683 2
13.2047 25.3414 0.0150239
9.23685 21.1241 3.98729
11.1285 22.2154 2
12.8098 23.2579 0.0159624
12.2272 20.5305 0.0141217
10.3857 19.304 2
8.41631 18.0197 3.99234
11.6565 17.5499 0.0119822
9.76052 16.1493 2
7.74928 14.6715 4
11.2196 14.3673 0.00715059
9.30602 12.7745 2
10.9835 10.9835 0
14.4264 32.8505 3.98306
17.7531 33.0986 2
20.4451 33.3811 0.0145917
15.4404 29.6187 2
15.8595 26.3769 0.019273
18.2968 30.1526 0.0212085
12.8329 36.2079 3.98451
14.8321 36.0166 2
17.5648 35.9606 0.0121745
12.5466 37.8333 2
11.2263 38.3154 3.98345
14.2444 39.1845 0.0156189
11.8685 40.1513 2
9.72337 40.763 3.98404
12.3575 42.291 0.0171578
10.1394 42.7899 2
7.92027 43.279 3.98368
10.5412 44.8175 0.0167672
8.37191 45.3325 2
6.12314 45.9135 3.98597
8.8947 47.3324 0.0154088
6.71737 48.0098 2
4.42011 48.7581 3.99027
7.42641 50.0458 0.0130827
5.20888 50.9186 2
2.85457 51.8506 4
6.13243 53.0159 0.00875318
3.86727 54.0858 2
5.0241 56.25 0
12.0286 31.2436 3.98331
10.7616 28.4013 3.98133
12.8901 29.017 2
9.40099 25.7843 3.98359
11.3502 26.4706 2
13.4376 26.7944 0.0181804
8.22343 23.011 3.98634
10.1867 23.9511 2
11.922 24.7685 0.0166996
7.1983 19.9692 3.99173
9.23683 21.1237 2
11.1285 22.2157 0.0146288
10.3856 19.3044 0.0122172
8.41635 18.0193 2
6.31992 16.6661 4
9.76048 16.1497 0.00736988
7.74926 14.6714 2
9.30607 12.7746 0
12.0415 34.2882 3.98235
14.4263 32.8508 2
17.7532 33.0981 0.0162705
15.4404 29.6185 0.0199326
10.7914 36.6117 3.98351
12.8328 36.2082 2
14.8322 36.0162 0.0137257
12.5465 37.833 0.0160459
11.2264 38.3157 2
9.318 38.8289 3.98411
11.8684 40.151 0.0154817
9.7235 40.7633 2
7.53104 41.218 3.98416
10.1392 42.7897 0.0172054
7.9204 43.2792 2
5.63474 43.7749 3.98568
8.37174 45.3323 0.0158666
6.12322 45.9136 2
3.76554 46.5428 3.99002
6.71732 48.0097 0.0136075
4.42014 48.7583 2
1.99014 49.554 4
5.20886 50.9184 0.00927825
2.85451 51.8506 2
3.86727 54.0858 0
10.8919 32.9099 3.98306
10.0733 30.3712 3.98264
12.0286 31.2436 2
8.70851 27.7207 3.9827
10.7615 28.4013 2
12.8902 29.017 0.0199055
7.34857 24.9721 3.98569
9.40085 25.784 2
11.3504 26.4708 0.0173642
6.11504 21.9935 3.99072
8.22338 23.0107 2
10.1868 23.9514 0.0157253
5.02411 18.75 4
7.19833 19.9688 2
9.23685 21.1241 0.0127057
8.41631 18.0197 0.00765541
6.3199 16.6661 2
7.74928 14.6715 0
10.4053 34.9966 3.98302
12.0414 34.2883 2
14.4264 32.8505 0.0169387
8.99199 36.9864 3.98324
10.7913 36.612 2
12.8329 36.2079 0.0154883
11.2263 38.3154 0.0165467
9.31801 38.8292 2
7.21137 39.1862 3.98451
9.72337 40.763 0.0159604
7.53113 41.2182 2
5.24994 41.6189 3.9856
7.92027 43.279 0.01632
5.63479 43.7751 2
3.24304 44.2869 3.98997
6.12314 45.9135 0.014034
3.76558 46.5431 2
1.27781 47.2057 4
4.42011 48.7581 0.00973181
1.99012 49.554 2
2.85457 51.8506 0
10.0604 33.8754 3.98261
9.36576 32.146 3.98343
10.8918 32.9099 2
8.05714 29.6866 3.98301
10.0732 30.3712 2
12.0286 31.2436 0.016691
6.59201 26.9999 3.98495
8.70842 27.7205 2
10.7616 28.4013 0.018672
5.17003 24.0877 3.98992
7.34847 24.9718 2
9.40099 25.7843 0.0164116
3.86728 20.9142 4
6.11504 21.9931 2
8.22343 23.011 0.0136616
5.02406 18.75 2
7.1983 19.9692 0.00827206
6.31992 16.6661 0
8.81958 35.2772 3.9833
10.4053 34.9967 2
12.0415 34.2882 0.0176538
6.99652 37.207 3.98379
8.99198 36.9866 2
10.7914 36.6117 0.0164892
9.318 38.8289 0.0158895
7.21137 39.1865 2
4.97759 39.4704 3.98576
7.53104 41.218 0.0158427
5.24997 41.6191 2
2.85347 42.0062 3.98962
5.63474 43.7749 0.0143163
3.24305 44.2872 2
0.720592 44.8159 4
3.76554 46.5428 0.00997711
1.27778 47.2057 2
1.99014 49.554 0
8.86232 33.6922 3.98327
10.0603 33.8755 2
7.49385 31.6023 3.98378
9.36568 32.146 2
10.8919 32.9099 0.0169424
5.93692 29.0628 3.98474
8.05705 29.6865 2
10.0733 30.3712 0.017356
4.3574 26.2416 3.98941
6.59192 26.9998 2
8.70851 27.7207 0.0173037
2.85458 23.1494 4
5.17 24.0873 2
7.34857 24.9721 0.0143135
3.86728 20.9142 2
6.11504 21.9935 0.0092821
5.02411 18.75 0
6.94751 35.3043 3.98367
8.81954 35.2773 2
10.4053 34.9966 0.0169819
4.8284 37.3407 3.98538
6.99653 37.2073 2
8.99199 36.9864 0.0167562
7.21137 39.1862 0.0154938
4.97757 39.4706 2
2.60145 39.7164 3.98942
5.24994 41.6189 0.0144003
2.85348 42.0065 2
0.320823 42.3947 4
3.24304 44.2869 0.0100332
0.720551 44.8159 2
1.27781 47.2057 0
7.10764 33.4565 3.98376
8.86226 33.6923 2
10.0604 33.8754 0.0173924
5.40724 31.1284 3.98519
7.49375 31.6023 2
9.36576 32.146 0.0165694
3.67895 28.4388 3.98931
5.93684 29.0627 2
8.05714 29.6866 0.0169935
1.99015 25.446 4
4.35736 26.2415 2
6.59201 26.9999 0.015048
2.85453 23.1494 2
5.17003 24.0877 0.0100754
3.86728 20.9142 0
4.84313 35.2504 3.98517
6.9475 35.3045 2
8.81958 35.2772 0.0166962
2.49301 37.4292 3.98921
4.82842 37.3409 2
6.99652 37.207 0.0162111
4.97759 39.4704 0.0142427
2.60142 39.7167 2
0.080333 39.9526 4
2.85347 42.0062 0.0103788
0.320817 42.3947 2
0.720592 44.8159 0
5.03656 33.187 3.98527
7.10758 33.4566 2
8.86232 33.6922 0.0167287
3.14303 30.6624 3.98957
5.40714 31.1284 2
7.49385 31.6023 0.0162212
1.27793 27.7943 4
3.67891 28.4387 2
5.93692 29.0628 0.015259
1.99013 25.446 2
4.3574 26.2416 0.0105858
2.85458 23.1494 0
2.54531 35.1579 3.98913
4.84311 35.2506 2
6.94751 35.3043 0.0163293
0 37.5 4
2.49303 37.4294 2
4.8284 37.3407 0.0146154
2.60145 39.7164 0.0105826
0.0802903 39.9526 2
0.320823 42.3947 0
2.76296 32.9031 3.98941
5.03649 33.1871 2
7.10764 33.4565 0.0162377
0.721173 30.1842 4
3.14298 30.6624 2
5.40724 31.1284 0.0148126
1.27779 27.7943 2
3.67895 28.4388 0.0106944
1.99015 25.446 0
0.0806499 35.0474 4
2.5453 35.1581 2
4.84313 35.2504 0.0148288
0 37.5 2
2.49301 37.4292 0.0107877
0.080333 39.9526 0
0.32156 32.6054 4
2.76292 32.9033 2
5.03656 33.187 0.014735
0.72056 30.1841 2
3.14303 30.6624 0.0104336
1.27793 27.7943 0
0.0802889 35.0474 2
2.54531 35.1579 0.0108662
0 37.5 0
0.320817 32.6053 2
2.76296 32.9031 0.0105867
0.721173 30.1842 0
0.0806499 35.0474 0
0.32156 32.6054 0
CELLS 1910 17190
8 18 6 25 56 2 0 5 16
8 57 23 6 18 17 4 0 2
8 78 36 9 29 31 11 1 7
8 31 11 1 7 79 37 10 30
8 110 57 18 50 48 17 2 14
8 50 18 56 111 14 2 16 49
8 116 62 22 55 52 20 3 15
8 56 25 67 118 16 5 24 53
8 119 63 23 57 54 21 4 17
8 55 22 63 119 15 3 21 54
8 58 26 68 121 18 6 25 56
8 122 65 26 58 57 23 6 18
8 73 31 7 27 142 79 30 71
8 143 78 29 72 73 31 7 27
8 83 147 76 34 32 74 28 8
8 84 148 78 36 33 75 29 9
8 76 34 8 28 148 84 33 75
8 37 79 150 86 10 30 77 35
8 151 87 36 78 80 38 11 31
8 80 38 11 31 152 88 37 79
8 175 100 42 94 96 44 12 40
8 44 96 176 101 12 40 95 43
8 101 176 98 46 43 95 41 13
8 46 98 178 103 13 41 97 45
8 178 103 45 97 147 83 32 74
8 189 116 55 109 106 52 15 47
8 111 56 118 191 49 16 53 107
8 192 119 57 110 108 54 17 48
8 109 55 119 192 47 15 54 108
8 194 122 58 112 110 57 18 50
8 112 58 121 195 50 18 56 111
8 115 61 19 51 197 124 59 113
8 115 61 125 198 51 19 60 114
8 198 125 62 116 114 60 20 52
8 200 127 64 120 116 62 22 55
8 118 67 132 202 53 24 66 117
8 121 68 133 203 56 25 67 118
8 120 64 128 204 55 22 63 119
8 204 128 65 122 119 63 23 57
8 206 134 68 121 123 69 26 58
8 123 69 26 58 207 131 65 122
8 226 147 74 138 140 76 28 70
8 229 148 75 139 143 78 29 72
8 140 76 28 70 229 148 75 139
8 142 79 30 71 231 150 77 141
8 144 80 31 73 232 152 79 142
8 233 151 78 143 144 80 31 73
8 150 86 35 77 235 154 81 145
8 235 154 81 145 146 82 39 91
8 146 82 39 91 236 155 90 165
8 238 157 83 147 149 85 34 76
8 239 158 84 148 151 87 36 78
8 149 85 34 76 239 158 84 148
8 152 88 37 79 241 160 86 150
8 242 161 87 151 153 89 38 80
8 153 89 38 80 243 162 88 152
8 171 98 41 92 265 178 97 169
8 265 178 97 169 226 147 74 138
8 172 96 40 93 266 176 95 170
8 266 176 95 170 171 98 41 92
8 269 175 94 173 172 96 40 93
8 271 180 99 174 175 100 42 94
8 197 124 59 113 271 180 99 174
8 272 181 100 175 177 102 44 96
8 273 182 101 176 179 104 46 98
8 177 102 44 96 273 182 101 176
8 179 104 46 98 275 184 103 178
8 275 184 103 178 238 157 83 147
8 188 115 51 105 283 197 113 186
8 188 115 198 284 105 51 114 187
8 284 198 116 189 187 114 52 106
8 286 200 120 193 189 116 55 109
8 191 118 202 288 107 53 117 190
8 195 121 203 289 111 56 118 191
8 193 120 204 290 109 55 119 192
8 290 204 122 194 192 119 57 110
8 196 123 58 112 292 207 122 194
8 293 206 121 195 196 123 58 112
8 199 126 61 115 297 211 124 197
8 298 212 127 200 198 125 62 116
8 199 126 212 298 115 61 125 198
8 205 129 64 120 300 214 127 200
8 301 217 130 201 202 132 66 117
8 209 136 168 264 301 217 130 201
8 302 219 132 202 203 133 67 118
8 303 220 133 203 206 134 68 121
8 205 129 215 304 120 64 128 204
8 304 215 131 207 204 128 65 122
8 306 221 134 206 208 135 69 123
8 208 135 69 123 307 218 131 207
8 210 137 167 263 309 223 136 209
8 328 238 147 226 230 149 76 140
8 228 146 91 166 329 236 165 260
8 231 150 77 141 330 235 145 227
8 330 235 145 227 228 146 91 166
8 332 239 148 229 233 151 78 143
8 230 149 76 140 332 239 148 229
8 232 152 79 142 334 241 150 231
8 234 153 80 144 335 243 152 232
8 336 242 151 233 234 153 80 144
8 236 155 90 165 338 245 164 259
8 241 160 86 150 339 246 154 235
8 339 246 154 235 237 156 82 146
8 237 156 82 146 340 247 155 236
8 342 249 157 238 240 159 85 149
8 343 250 158 239 242 161 87 151
8 240 159 85 149 343 250 158 239
8 243 162 88 152 345 252 160 241
8 244 163 253 346 153 89 161 242
8 244 163 89 153 347 254 162 243
8 311 224 261 371 210 137 167 263
8 263 167 262 372 209 136 168 264
8 267 179 98 171 375 275 178 265
8 375 275 178 265 328 238 147 226
8 376 273 176 266 267 179 98 171
8 268 177 96 172 376 273 176 266
8 379 272 175 269 268 177 96 172
8 380 271 174 270 269 175 94 173
8 283 197 113 186 380 271 174 270
8 381 277 180 271 272 181 100 175
8 297 211 124 197 381 277 180 271
8 382 278 181 272 274 183 102 177
8 274 183 102 177 383 279 182 273
8 383 279 182 273 276 185 104 179
8 385 281 184 275 342 249 157 238
8 276 185 104 179 385 281 184 275
8 285 199 115 188 393 297 197 283
8 394 298 200 286 284 198 116 189
8 285 199 298 394 188 115 198 284
8 291 205 120 193 396 300 200 286
8 397 301 201 287 288 202 117 190
8 295 209 264 374 397 301 201 287
8 398 302 202 288 289 203 118 191
8 399 303 203 289 293 206 121 195
8 291 205 304 400 193 120 204 290
8 400 304 207 292 290 204 122 194
8 294 208 123 196 402 307 207 292
8 403 306 206 293 294 208 123 196
8 296 210 263 373 405 309 209 295
8 408 312 213 299 297 211 126 199
8 299 213 313 409 199 126 212 298
8 409 313 214 300 298 212 127 200
8 305 216 129 205 411 315 214 300
8 412 318 217 301 302 219 132 202
8 309 223 136 209 412 318 217 301
8 413 320 219 302 303 220 133 203
8 306 221 321 414 206 134 220 303
8 307 218 131 207 415 316 215 304
8 305 216 316 415 205 129 215 304
8 417 322 221 306 308 222 135 208
8 308 222 135 208 418 319 218 307
8 310 225 137 210 420 325 223 309
8 423 326 224 311 310 225 137 210
8 329 236 165 260 441 338 259 368
8 442 342 238 328 333 240 149 230
8 331 237 146 228 443 340 236 329
8 334 241 150 231 444 339 235 330
8 444 339 235 330 331 237 146 228
8 446 343 239 332 336 242 151 233
8 333 240 149 230 446 343 239 332
8 335 243 152 232 448 345 241 334
8 337 244 153 234 449 347 243 335
8 337 244 346 450 234 153 242 336
8 338 245 164 259 452 349 258 367
8 340 247 155 236 453 350 245 338
8 345 252 160 241 454 351 246 339
8 454 351 246 339 341 248 156 237
8 341 248 156 237 455 352 247 340
8 240 159 251 344 342 249 354 457
8 242 161 253 346 343 250 355 458
8 343 250 355 458 240 159 251 344
8 347 254 162 243 460 357 252 345
8 348 255 358 461 244 163 253 346
8 348 255 163 244 462 359 254 347
8 473 360 257 365 363 256 364 482
8 452 349 258 367 365 257 366 485
8 422 324 369 488 311 224 261 371
8 371 261 370 490 263 167 262 372
8 407 311 371 491 296 210 263 373
8 373 263 372 492 295 209 264 374
8 493 385 275 375 442 342 238 328
8 377 276 179 267 493 385 275 375
8 378 274 177 268 494 383 273 376
8 494 383 273 376 377 276 179 267
8 497 382 272 379 378 274 177 268
8 498 381 271 380 379 272 175 269
8 393 297 197 283 498 381 271 380
8 499 387 277 381 382 278 181 272
8 408 312 211 297 499 387 277 381
8 500 388 278 382 384 280 183 274
8 501 389 279 383 386 282 185 276
8 384 280 183 274 501 389 279 383
8 386 282 185 276 503 391 281 385
8 503 391 281 385 457 354 249 342
8 511 408 299 395 393 297 199 285
8 395 299 409 512 285 199 298 394
8 512 409 300 396 394 298 200 286
8 401 305 205 291 514 411 300 396
8 515 412 301 397 398 302 202 288
8 405 309 209 295 515 412 301 397
8 516 413 302 398 399 303 203 289
8 403 306 414 517 293 206 303 399
8 402 307 207 292 518 415 304 400
8 401 305 415 518 291 205 304 400
8 404 308 208 294 520 418 307 402
8 521 417 306 403 404 308 208 294
8 406 310 210 296 523 420 309 405
8 526 423 311 407 406 310 210 296
8 410 314 213 299 527 424 312 408
8 528 425 315 411 409 313 214 300
8 410 314 425 528 299 213 313 409
8 416 317 216 305 530 427 315 411
8 531 430 318 412 413 320 219 302
8 420 325 223 309 531 430 318 412
8 532 432 320 413 414 321 220 303
8 417 322 433 533 306 221 321 414
8 418 319 218 307 534 428 316 415
8 416 317 428 534 305 216 316 415
8 419 323 434 536 308 222 322 417
8 419 323 222 308 537 431 319 418
8 421 327 225 310 539 438 325 420
8 421 327 439 541 310 225 326 423
8 543 437 324 422 423 326 224 311
8 441 338 259 368 559 452 367 486
8 443 340 236 329 560 453 338 441
8 333 240 344 447 442 342 457 561
8 445 341 237 331 562 455 340 443
8 448 345 241 334 563 454 339 444
8 563 454 339 444 445 341 237 331
8 336 242 346 450 446 343 458 565
8 446 343 458 565 333 240 344 447
8 449 347 243 335 567 460 345 448
8 451 348 244 337 568 462 347 449
8 451 348 461 569 337 244 346 450
8 570 463 349 452 473 360 257 365
8 453 350 245 338 570 463 349 452
8 455 352 247 340 571 464 350 453
8 460 357 252 345 572 465 351 454
8 572 465 351 454 456 353 248 341
8 456 353 248 341 573 466 352 455
8 344 251 356 459 457 354 468 575
8 458 355 469 576 344 251 356 459
8 346 253 358 461 458 355 469 576
8 462 359 254 347 578 471 357 460
8 348 255 359 462 461 358 472 579
8 591 474 360 473 475 361 256 363
8 475 361 256 363 594 477 362 479
8 363 256 364 482 479 362 480 603
8 590 473 365 484 481 363 482 605
8 482 364 257 365 606 483 366 485
8 559 452 367 486 484 365 485 607
8 542 436 487 609 422 324 369 488
8 525 422 488 611 407 311 371 491
8 488 369 489 612 371 261 370 490
8 491 371 490 613 373 263 372 492
8 495 386 276 377 614 503 385 493
8 614 503 385 493 561 457 342 442
8 615 501 383 494 495 386 276 377
8 496 384 274 378 615 501 383 494
8 618 500 382 497 496 384 274 378
8 619 499 381 498 497 382 272 379
8 511 408 297 393 619 499 381 498
8 620 505 387 499 500 388 278 382
8 527 424 312 408 620 505 387 499
8 502 390 506 621 384 280 388 500
8 622 507 389 501 504 392 282 386
8 502 390 280 384 622 507 389 501
8 504 392 282 386 624 509 391 503
8 624 509 391 503 575 468 354 457
8 513 410 299 395 630 527 408 511
8 631 528 411 514 512 409 300 396
8 513 410 528 631 395 299 409 512
8 519 416 305 401 633 530 411 514
8 634 531 412 515 516 413 302 398
8 523 420 309 405 634 531 412 515
8 635 532 413 516 517 414 303 399
8 521 417 533 636 403 306 414 517
8 520 418 307 402 637 534 415 518
8 519 416 534 637 401 305 415 518
8 522 419 308 404 639 537 418 520
8 522 419 536 640 404 308 417 521
8 524 421 310 406 642 539 420 523
8 524 421 541 644 406 310 423 526
8 646 543 422 525 526 423 311 407
8 529 426 314 410 647 544 424 527
8 528 425 545 648 411 315 427 530
8 529 426 545 648 410 314 425 528
8 535 429 317 416 649 546 427 530
8 650 548 430 531 532 432 320 413
8 539 438 325 420 650 548 430 531
8 533 433 550 651 414 321 432 532
8 536 434 551 652 417 322 433 533
8 537 431 319 418 653 547 428 534
8 535 429 547 653 416 317 428 534
8 538 435 552 654 419 323 434 536
8 538 435 323 419 655 549 431 537
8 540 440 327 421 657 556 438 539
8 540 440 557 659 421 327 439 541
8 541 439 555 660 423 326 437 543
8 661 554 436 542 543 437 324 422
8 676 570 452 559 590 473 365 484
8 560 453 338 441 676 570 452 559
8 562 455 340 443 677 571 453 560
8 447 344 459 566 561 457 575 678
8 564 456 341 445 679 573 455 562
8 567 460 345 448 680 572 454 563
8 680 572 454 563 564 456 341 445
8 565 458 576 682 447 344 459 566
8 450 346 461 569 565 458 576 682
8 568 462 347 449 684 578 460 567
8 451 348 462 568 569 461 579 685
8 686 580 463 570 591 474 360 473
8 571 464 350 453 686 580 463 570
8 573 466 352 455 687 581 464 571
8 572 465 582 688 460 357 471 578
8 574 467 582 688 456 353 465 572
8 574 467 353 456 689 583 466 573
8 459 356 470 577 575 468 585 691
8 576 469 586 692 459 356 470 577
8 461 358 472 579 576 469 586 692
8 462 359 471 578 579 472 588 694
8 704 591 473 590 593 475 363 481
8 595 476 592 705 475 361 474 591
8 593 475 363 481 707 594 479 602
8 594 477 362 479 709 598 478 600
8 595 476 361 475 711 597 477 594
8 479 362 480 603 600 478 601 720
8 481 363 482 605 602 479 603 722
8 603 480 364 482 723 604 483 606
8 605 482 365 484 724 606 485 607
8 656 553 608 726 542 436 487 609
8 645 542 609 728 525 422 488 611
8 609 487 610 729 488 369 489 612
8 611 488 612 730 491 371 490 613
8 616 504 386 495 731 624 503 614
8 731 624 503 614 678 575 457 561
8 732 622 501 615 616 504 386 495
8 617 502 384 496 732 622 501 615
8 617 502 621 735 496 384 500 618
8 736 620 499 619 618 500 382 497
8 630 527 408 511 736 620 499 619
8 621 506 626 737 500 388 505 620
8 647 544 424 527 737 626 505 620
8 623 508 627 738 502 390 506 621
8 623 508 390 502 739 628 507 622
8 625 510 628 739 504 392 507 622
8 740 629 509 624 691 585 468 575
8 625 510 392 504 740 629 509 624
8 632 529 410 513 744 647 527 630
8 631 528 648 745 514 411 530 633
8 632 529 648 745 513 410 528 631
8 638 535 416 519 746 649 530 633
8 747 650 531 634 635 532 413 516
8 642 539 420 523 747 650 531 634
8 636 533 651 748 517 414 532 635
8 640 536 652 749 521 417 533 636
8 639 537 418 520 750 653 534 637
8 638 535 653 750 519 416 534 637
8 641 538 419 522 751 655 537 639
8 641 538 654 752 522 419 536 640
8 643 540 421 524 753 657 539 642
8 643 540 659 755 524 421 541 644
8 644 541 660 757 526 423 543 646
8 758 661 542 645 646 543 422 525
8 529 426 544 647 648 545 662 759
8 530 427 545 648 649 546 663 760
8 535 429 546 649 653 547 664 761
8 762 666 548 650 651 550 432 532
8 657 556 438 539 762 666 548 650
8 652 551 668 763 533 433 550 651
8 654 552 669 764 536 434 551 652
8 655 549 431 537 765 665 547 653
8 538 435 549 655 654 552 667 766
8 661 554 671 768 542 436 553 656
8 658 558 440 540 769 674 556 657
8 658 558 675 770 540 440 557 659
8 659 557 673 771 541 439 555 660
8 660 555 672 772 543 437 554 661
8 788 686 570 676 704 591 473 590
8 677 571 453 560 788 686 570 676
8 679 573 455 562 789 687 571 677
8 566 459 577 683 678 575 691 790
8 681 574 456 564 791 689 573 679
8 680 572 688 792 567 460 578 684
8 681 574 688 792 564 456 572 680
8 682 576 692 794 566 459 577 683
8 569 461 579 685 682 576 692 794
8 568 462 578 684 685 579 694 796
8 687 581 464 571 798 696 580 686
8 798 696 580 686 705 592 474 591
8 689 583 466 573 799 697 581 687
8 688 582 698 800 578 471 588 694
8 690 584 698 800 574 467 582 688
8 690 584 467 574 801 699 583 689
8 693 587 701 803 577 470 585 691
8 693 587 470 577 804 702 586 692
8 695 589 702 804 579 472 586 692
8 695 589 472 579 805 703 588 694
8 708 595 705 813 593 475 591 704
8 710 596 706 814 595 476 592 705
8 707 594 479 602 816 709 600 719
8 708 595 475 593 817 711 594 707
8 709 598 478 600 819 715 599 717
8 711 597 477 594 820 714 598 709
8 710 596 476 595 822 713 597 711
8 600 478 601 720 717 599 718 832
8 602 479 603 722 719 600 720 834
8 720 601 480 603 835 721 604 723
8 722 603 482 605 836 723 606 724
8 767 670 725 839 656 553 608 726
8 756 656 726 841 645 542 609 728
8 726 608 727 842 609 487 610 729
8 728 609 729 843 611 488 612 730
8 844 740 624 731 790 691 575 678
8 733 625 504 616 844 740 624 731
8 734 623 502 617 845 739 622 732
8 733 625 739 845 616 504 622 732
8 734 623 738 846 617 502 621 735
8 735 621 737 847 618 500 620 736
8 744 647 527 630 847 737 620 736
8 621 506 627 738 737 626 741 848
8 647 544 626 737 759 662 741 848
8 623 508 628 739 738 627 742 849
8 740 629 585 691 850 743 700 802
8 625 510 629 740 739 628 743 850
8 632 529 647 744 745 648 759 854
8 633 530 648 745 746 649 760 855
8 638 535 649 746 750 653 761 856
8 857 762 650 747 748 651 532 635
8 753 657 539 642 857 762 650 747
8 749 652 763 858 636 533 651 748
8 752 654 764 859 640 536 652 749
8 751 655 537 639 860 765 653 750
8 641 538 655 751 752 654 766 861
8 754 658 540 643 862 769 657 753
8 754 658 770 863 643 540 659 755
8 755 659 771 864 644 541 660 757
8 758 661 768 866 645 542 656 756
8 757 660 772 867 646 543 661 758
8 759 662 773 868 648 545 663 760
8 649 546 663 760 761 664 774 871
8 765 665 547 653 872 775 664 761
8 873 777 666 762 763 668 550 651
8 769 674 556 657 873 777 666 762
8 764 669 779 874 652 551 668 763
8 654 552 667 766 764 669 778 875
8 655 549 665 765 766 667 776 876
8 768 671 782 877 656 553 670 767
8 772 672 783 878 661 554 671 768
8 658 558 674 769 770 675 786 879
8 659 557 675 770 771 673 785 881
8 882 784 672 772 771 673 555 660
8 789 687 571 677 897 798 686 788
8 897 798 686 788 813 705 591 704
8 791 689 573 679 898 799 687 789
8 795 693 803 900 683 577 691 790
8 793 690 574 681 901 801 689 791
8 792 688 800 902 684 578 694 796
8 793 690 800 902 681 574 688 792
8 795 693 577 683 903 804 692 794
8 797 695 804 903 685 579 692 794
8 797 695 579 685 904 805 694 796
8 905 806 697 799 798 696 581 687
8 814 706 806 905 705 592 696 798
8 689 583 697 799 801 699 808 907
8 800 698 809 908 694 588 703 805
8 690 584 699 801 800 698 809 908
8 803 701 810 909 691 585 700 802
8 693 587 702 804 803 701 811 910
8 695 589 703 805 804 702 812 911
8 818 710 814 919 708 595 705 813
8 821 712 815 920 710 596 706 814
8 816 709 600 719 922 819 717 831
8 817 711 594 707 923 820 709 816
8 818 710 595 708 924 822 711 817
8 819 715 599 717 926 827 716 829
8 820 714 598 709 927 826 715 819
8 929 825 713 822 820 714 597 711
8 821 712 596 710 930 824 713 822
8 717 599 718 832 829 716 830 942
8 719 600 720 834 831 717 832 944
8 832 718 601 720 945 833 721 835
8 834 720 603 722 946 835 723 836
8 869 780 838 950 767 670 725 839
8 865 767 839 952 756 656 726 841
8 839 725 840 953 726 608 727 842
8 841 726 842 954 728 609 729 843
8 844 740 691 790 955 850 802 899
8 733 625 740 844 845 739 850 955
8 734 623 739 845 846 738 849 956
8 735 621 738 846 847 737 848 957
8 744 647 737 847 854 759 848 957
8 738 627 742 849 848 741 851 958
8 848 741 851 958 759 662 773 868
8 850 743 700 802 959 852 807 906
8 849 742 628 739 959 852 743 850
8 854 759 868 965 745 648 760 855
8 746 649 760 855 856 761 871 966
8 860 765 653 750 967 872 761 856
8 968 873 762 857 858 763 651 748
8 862 769 657 753 968 873 762 857
8 859 764 874 969 749 652 763 858
8 752 654 766 861 859 764 875 970
8 751 655 765 860 861 766 876 971
8 754 658 769 862 863 770 879 972
8 755 659 770 863 864 771 881 974
8 976 882 772 867 864 771 660 757
8 866 768 877 977 756 656 767 865
8 867 772 878 978 758 661 768 866
8 760 663 773 868 871 774 883 980
8 870 781 837 948 982 890 780 869
8 982 890 780 869 877 782 670 767
8 761 664 774 871 872 775 884 984
8 876 776 665 765 985 885 775 872
8 873 777 668 763 986 887 779 874
8 769 674 777 873 879 786 887 986
8 764 669 778 875 874 779 888 987
8 766 667 776 876 875 778 886 988
8 878 783 892 989 768 671 782 877
8 878 783 672 772 990 893 784 882
8 880 787 675 770 991 896 786 879
8 880 787 895 992 770 675 785 881
8 881 785 894 993 771 673 784 882
8 1006 905 799 898 897 798 687 789
8 919 814 905 1006 813 705 798 897
8 791 689 799 898 901 801 907 1007
8 900 803 909 1009 790 691 802 899
8 795 693 804 903 900 803 910 1010
8 902 800 908 1011 796 694 805 904
8 793 690 801 901 902 800 908 1011
8 797 695 805 904 903 804 911 1012
8 799 697 806 905 907 808 912 1013
8 920 815 912 1013 814 706 806 905
8 802 700 810 909 906 807 913 1014
8 801 699 808 907 908 809 914 1015
8 805 703 809 908 911 812 915 1016
8 803 701 811 910 909 810 916 1017
8 911 812 917 1018 804 702 811 910
8 925 821 920 1030 818 710 814 919
8 928 823 921 1031 821 712 815 920
8 922 819 717 831 1033 926 829 941
8 923 820 709 816 1034 927 819 922
8 1035 929 822 924 923 820 711 817
8 925 821 710 818 1036 930 822 924
8 1038 933 825 929 927 826 714 820
8 926 827 716 829 1039 935 828 939
8 927 826 715 819 1040 934 827 926
8 928 823 712 821 1041 931 824 930
8 1042 932 824 930 929 825 713 822
8 829 716 830 942 939 828 940 1058
8 831 717 832 944 941 829 942 1060
8 942 830 718 832 1061 943 833 945
8 944 832 720 834 1062 945 835 946
8 981 889 947 1064 870 781 837 948
8 948 837 949 1067 869 780 838 950
8 975 869 950 1069 865 767 839 952
8 950 838 951 1070 839 725 840 953
8 952 839 953 1071 841 726 842 954
8 955 850 802 899 1072 959 906 1008
8 956 849 739 845 1072 959 850 955
8 846 738 849 956 957 848 958 1073
8 957 848 958 1073 854 759 868 965
8 849 742 852 959 958 851 961 1076
8 960 853 961 1076 906 807 852 959
8 958 851 961 1076 868 773 883 980
8 960 853 807 906 1077 963 913 1014
8 855 760 868 965 966 871 980 1085
8 856 761 871 966 967 872 984 1086
8 971 876 765 860 1087 985 872 967
8 968 873 763 858 1088 986 874 969
8 862 769 873 968 972 879 986 1088
8 859 764 875 970 969 874 987 1089
8 861 766 876 971 970 875 988 1090
8 973 880 770 863 1091 991 879 972
8 973 880 992 1092 863 770 881 974
8 974 881 993 1093 864 771 882 976
8 979 870 948 1066 1094 982 869 975
8 1094 982 869 975 977 877 767 865
8 978 878 772 867 1095 990 882 976
8 978 878 989 1096 866 768 877 977
8 871 774 883 980 984 884 994 1099
8 983 891 999 1100 870 781 889 981
8 1101 1000 890 982 989 892 782 877
8 983 891 781 870 1101 1000 890 982
8 872 775 884 984 985 885 995 1103
8 876 776 885 985 988 886 996 1104
8 986 887 779 874 1105 998 888 987
8 879 786 887 986 991 896 998 1105
8 875 778 886 988 987 888 997 1106
8 990 893 1002 1107 878 783 892 989
8 1108 1003 893 990 993 894 784 882
8 880 787 896 991 992 895 1005 1109
8 993 894 785 881 1110 1004 895 992
8 898 799 905 1006 1007 907 1013 1120
8 1030 920 1013 1120 919 814 905 1006
8 901 801 907 1007 1011 908 1015 1121
8 899 802 909 1009 1008 906 1014 1122
8 900 803 910 1010 1009 909 1017 1123
8 1012 911 1018 1124 903 804 910 1010
8 904 805 908 1011 1012 911 1016 1125
8 1013 912 1020 1127 907 808 914 1015
8 1031 921 1020 1127 920 815 912 1013
8 1019 918 962 1075 1128 1021 913 1014
8 1128 1021 913 1014 1017 916 810 909
8 1015 914 1022 1129 908 809 915 1016
8 1016 915 1023 1130 911 812 917 1018
8 1018 917 1024 1131 910 811 916 1017
8 1037 928 1031 1148 925 821 920 1030
8 928 823 931 1041 1031 921 1032 1149
8 1033 926 829 941 1151 1039 939 1057
8 1034 927 819 922 1152 1040 926 1033
8 1153 1038 929 1035 1034 927 820 923
8 1154 1042 930 1036 1035 929 822 924
8 1037 928 821 925 1155 1041 930 1036
8 1039 935 828 939 1156 1047 938 1055
8 1157 1043 932 1042 1038 933 825 929
8 1038 933 826 927 1158 1045 934 1040
8 1040 934 827 926 1159 1046 935 1039
8 930 824 932 1042 1041 931 1044 1160
8 1051 936 1048 1165 1175 1052 937 1053
8 1156 1047 938 1055 1053 937 1054 1178
8 939 828 940 1058 1055 938 1056 1181
8 941 829 942 1060 1057 939 1058 1183
8 942 830 943 1061 1058 940 1059 1184
8 1060 942 832 944 1185 1061 945 1062
8 1082 964 1063 1188 981 889 947 1064
8 1097 981 1064 1190 979 870 948 1066
8 1064 947 1065 1191 948 837 949 1067
8 1066 948 1067 1193 975 869 950 1069
8 1067 949 1068 1194 950 838 951 1070
8 1069 950 1070 1195 952 839 953 1071
8 956 849 959 1072 1073 958 1076 1197
8 1074 960 1076 1197 1008 906 959 1072
8 1073 958 1076 1197 965 868 980 1085
8 1074 960 906 1008 1198 1077 1014 1122
8 1133 1026 1079 1199 1019 918 962 1075
8 1077 963 913 1014 1200 1080 962 1075
8 960 853 963 1077 1076 961 1078 1201
8 980 883 961 1076 1099 994 1078 1201
8 1210 1083 964 1082 1100 999 889 981
8 966 871 980 1085 1086 984 1099 1215
8 967 872 984 1086 1087 985 1103 1216
8 971 876 985 1087 1090 988 1104 1217
8 1088 986 874 969 1218 1105 987 1089
8 972 879 986 1088 1091 991 1105 1218
8 970 875 988 1090 1089 987 1106 1219
8 973 880 991 1091 1092 992 1109 1220
8 1093 993 881 974 1221 1110 992 1092
8 1222 1108 990 1095 1093 993 882 976
8 1223 1101 982 1094 1096 989 877 977
8 1098 983 870 979 1223 1101 982 1094
8 1095 990 1107 1224 978 878 989 1096
8 1098 983 1100 1225 979 870 981 1097
8 984 884 994 1099 1103 995 1111 1227
8 1102 1001 1115 1228 983 891 999 1100
8 1101 1000 892 989 1229 1116 1002 1107
8 1102 1001 891 983 1229 1116 1000 1101
8 985 885 995 1103 1104 996 1112 1230
8 988 886 996 1104 1106 997 1113 1231
8 1105 998 888 987 1232 1114 997 1106
8 991 896 998 1105 1109 1005 1114 1232
8 1108 1003 1117 1233 990 893 1002 1107
8 1108 1003 894 993 1233 1117 1004 1110
8 992 895 1005 1109 1110 1004 1118 1234
8 1120 1013 1127 1244 1007 907 1015 1121
8 1148 1031 1127 1244 1030 920 1013 1120
8 1121 1015 1129 1245 1011 908 1016 1125
8 1126 1019 1075 1196 1246 1128 1014 1122
8 1246 1128 1014 1122 1123 1017 909 1009
8 1124 1018 1131 1247 1010 910 1017 1123
8 1125 1016 1130 1248 1012 911 1018 1124
8 1127 1020 1137 1254 1015 914 1022 1129
8 1031 921 1032 1149 1127 1020 1137 1254
8 1134 1027 918 1019 1257 1140 1021 1128
8 1257 1140 1021 1128 1131 1024 916 1017
8 1129 1022 1141 1258 1016 915 1023 1130
8 1130 1023 1142 1259 1018 917 1024 1131
8 1261 1144 1025 1132 1133 1026 1079 1199
8 1255 1138 1025 1132 1135 1028 1144 1261
8 1133 1026 918 1019 1262 1145 1027 1134
8 1136 1029 1139 1256 1263 1146 1028 1135
8 1037 928 1041 1155 1148 1031 1149 1275
8 1041 931 1044 1160 1149 1032 1150 1276
8 1151 1039 939 1057 1278 1156 1055 1180
8 1152 1040 926 1033 1279 1159 1039 1151
8 1153 1038 927 1034 1280 1158 1040 1152
8 1281 1157 1042 1154 1153 1038 929 1035
8 1036 930 1042 1154 1155 1041 1160 1282
8 1283 1164 1046 1159 1156 1047 935 1039
8 1165 1048 1164 1283 1053 937 1047 1156
8 1157 1043 933 1038 1284 1161 1045 1158
8 1157 1043 1161 1284 1042 932 1044 1160
8 1040 934 1046 1159 1158 1045 1163 1285
8 1166 1049 1167 1292 1051 936 1048 1165
8 1166 1049 936 1051 1293 1168 1050 1172
8 1051 936 1052 1175 1172 1050 1173 1306
8 1174 1051 1165 1290 1308 1175 1053 1177
8 1053 937 1054 1178 1175 1052 1176 1309
8 1278 1156 1055 1180 1177 1053 1178 1311
8 1055 938 1056 1181 1178 1054 1179 1312
8 1057 939 1058 1183 1180 1055 1181 1314
8 1058 940 1059 1184 1181 1056 1182 1315
8 1060 942 1061 1185 1183 1058 1184 1316
8 1208 1081 1187 1321 1082 964 1063 1188
8 1209 1082 1188 1322 1097 981 1064 1190
8 1188 1063 1189 1323 1064 947 1065 1191
8 1190 1064 1191 1325 1066 948 1067 1193
8 1191 1065 1192 1326 1067 949 1068 1194
8 1067 1193 1069 950 1194 1327 1195 1070
8 1250 1133 1199 1330 1126 1019 1075 1196
8 1198 1077 1014 1122 1331 1200 1075 1196
8 1074 960 1077 1198 1197 1076 1201 1332
8 1085 980 1076 1197 1215 1099 1201 1332
8 1199 1079 1203 1333 1075 962 1080 1200
8 1132 1025 1119 1243 1199 1079 1203 1333
8 1201 1078 963 1077 1334 1202 1080 1200
8 1099 994 1078 1201 1227 1111 1202 1334
8 1343 1207 1081 1208 1210 1083 964 1082
8 1214 1084 1186 1319 1343 1207 1081 1208
8 1345 1210 1082 1209 1225 1100 981 1097
8 1346 1211 1083 1210 1228 1115 999 1100
8 1086 984 1099 1215 1216 1103 1227 1352
8 1087 985 1103 1216 1217 1104 1230 1353
8 1090 988 1104 1217 1219 1106 1231 1354
8 1218 1105 987 1089 1355 1232 1106 1219
8 1091 991 1105 1218 1220 1109 1232 1355
8 1092 992 1109 1220 1221 1110 1234 1356
8 1222 1108 1233 1357 1095 990 1107 1224
8 1222 1108 993 1093 1357 1233 1110 1221
8 1223 1101 989 1096 1358 1229 1107 1224
8 1226 1102 983 1098 1358 1229 1101 1223
8 1226 1102 1228 1359 1098 983 1100 1225
8 1103 995 1111 1227 1230 1112 1235 1360
8 1107 1002 1117 1233 1229 1116 1240 1362
8 1102 1001 1116 1229 1228 1115 1240 1362
8 1104 996 1112 1230 1231 1113 1236 1363
8 1364 1237 1114 1232 1231 1113 997 1106
8 1109 1005 1114 1232 1234 1118 1238 1365
8 1110 1004 1118 1234 1233 1117 1241 1366
8 1242 1374 1255 1138 1119 1243 1132 1025
8 1244 1127 1254 1376 1121 1015 1129 1245
8 1148 1031 1149 1275 1244 1127 1254 1376
8 1245 1129 1258 1377 1125 1016 1130 1248
8 1251 1134 1019 1126 1378 1257 1128 1246
8 1378 1257 1128 1246 1247 1131 1017 1123
8 1248 1130 1259 1379 1124 1018 1131 1247
8 1261 1381 1250 1133 1132 1249 1330 1199
8 1255 1380 1252 1135 1132 1249 1381 1261
8 1250 1133 1019 1126 1382 1262 1134 1251
8 1253 1136 1256 1385 1384 1263 1135 1252
8 1254 1137 1265 1387 1129 1022 1141 1258
8 1149 1032 1150 1276 1254 1137 1265 1387
8 1028 1135 1255 1138 1139 1256 1388 1266
8 1136 1029 1147 1264 1256 1139 1267 1389
8 1390 1268 1140 1257 1259 1142 1024 1131
8 1260 1143 1027 1134 1390 1268 1140 1257
8 1258 1141 1269 1391 1130 1023 1142 1259
8 1262 1145 1027 1134 1393 1271 1143 1260
8 1261 1144 1026 1133 1394 1272 1145 1262
8 1135 1028 1144 1261 1263 1146 1272 1394
8 1136 1029 1146 1263 1264 1147 1273 1395
8 1155 1041 1160 1282 1275 1149 1276 1405
8 1276 1150 1044 1160 1406 1277 1162 1286
8 1408 1283 1159 1279 1278 1156 1039 1151
8 1290 1165 1283 1408 1177 1053 1156 1278
8 1152 1040 1159 1279 1280 1158 1285 1409
8 1281 1157 1038 1153 1410 1284 1158 1280
8 1281 1157 1284 1410 1154 1042 1160 1282
8 1159 1046 1164 1283 1285 1163 1289 1412
8 1292 1167 1289 1412 1165 1048 1164 1283
8 1158 1045 1163 1285 1284 1161 1288 1413
8 1284 1161 1288 1413 1160 1044 1162 1286
8 1291 1166 1292 1418 1174 1051 1165 1290
8 1291 1166 1051 1174 1419 1293 1172 1305
8 1294 1169 1296 1421 1166 1049 1167 1292
8 1293 1168 1050 1172 1422 1295 1171 1303
8 1294 1169 1049 1166 1423 1297 1168 1293
8 1422 1295 1171 1303 1301 1170 1302 1435
8 1172 1050 1173 1306 1303 1171 1304 1438
8 1174 1051 1175 1308 1305 1172 1306 1440
8 1175 1052 1176 1309 1306 1173 1307 1441
8 1177 1053 1178 1311 1308 1175 1309 1443
8 1178 1054 1179 1312 1309 1176 1310 1444
8 1180 1055 1181 1314 1311 1178 1312 1446
8 1056 1181 1312 1179 1182 1315 1447 1313
8 1183 1058 1184 1316 1314 1181 1315 1448
8 1319 1186 1084 1214 1451 1317 1213 1350
8 1319 1186 1318 1453 1208 1081 1187 1321
8 1321 1187 1320 1456 1188 1063 1189 1323
8 1344 1208 1321 1457 1209 1082 1188 1322
8 1322 1188 1323 1458 1190 1064 1191 1325
8 1323 1189 1324 1459 1191 1065 1192 1326
8 1191 1325 1193 1067 1326 1460 1327 1194
8 1242 1374 1243 1119 1328 1462 1335 1204
8 1330 1199 1333 1465 1196 1075 1200 1331
8 1132 1249 1330 1199 1243 1375 1465 1333
8 1332 1201 1077 1198 1466 1334 1200 1331
8 1215 1099 1201 1332 1352 1227 1334 1466
8 1119 1243 1333 1203 1204 1335 1470 1338
8 1333 1203 1338 1470 1200 1080 1202 1334
8 1227 1111 1202 1334 1360 1235 1338 1470
8 1328 1462 1335 1204 1205 1336 1471 1339
8 1337 1206 1340 1472 1464 1329 1205 1336
8 1346 1211 1342 1479 1210 1083 1207 1343
8 1346 1211 1115 1228 1479 1342 1239 1361
8 1348 1212 1084 1214 1479 1342 1207 1343
8 1480 1343 1208 1344 1345 1210 1082 1209
8 1351 1214 1319 1454 1480 1343 1208 1344
8 1481 1346 1210 1345 1359 1228 1100 1225
8 1348 1212 1347 1483 1214 1084 1213 1350
8 1216 1103 1227 1352 1353 1230 1360 1488
8 1217 1104 1230 1353 1354 1231 1363 1489
8 1490 1364 1232 1355 1354 1231 1106 1219
8 1220 1109 1232 1355 1356 1234 1365 1491
8 1221 1110 1234 1356 1357 1233 1366 1492
8 1224 1107 1233 1357 1358 1229 1362 1493
8 1226 1102 1229 1358 1359 1228 1362 1493
8 1230 1112 1235 1360 1363 1236 1367 1496
8 1361 1239 1115 1228 1497 1371 1240 1362
8 1366 1241 1372 1498 1233 1117 1240 1362
8 1364 1237 1113 1231 1499 1368 1236 1363
8 1364 1237 1368 1499 1232 1114 1238 1365
8 1234 1118 1238 1365 1366 1241 1369 1500
8 1507 1373 1242 1374 1388 1266 1138 1255
8 1508 1374 1243 1375 1380 1255 1132 1249
8 1376 1254 1387 1509 1245 1129 1258 1377
8 1275 1149 1276 1405 1376 1254 1387 1509
8 1377 1258 1391 1510 1248 1130 1259 1379
8 1511 1390 1257 1378 1379 1259 1131 1247
8 1383 1260 1134 1251 1511 1390 1257 1378
8 1252 1135 1256 1385 1380 1255 1388 1512
8 1261 1381 1513 1394 1133 1250 1382 1262
8 1135 1252 1384 1263 1261 1381 1513 1394
8 1382 1262 1134 1251 1514 1393 1260 1383
8 1253 1136 1263 1384 1386 1264 1395 1516
8 1253 1136 1264 1386 1385 1256 1389 1517
8 1387 1265 1397 1519 1258 1141 1269 1391
8 1276 1150 1277 1406 1387 1265 1397 1519
8 1256 1139 1267 1389 1388 1266 1398 1520
8 1264 1147 1274 1396 1389 1267 1399 1521
8 1392 1270 1143 1260 1522 1400 1268 1390
8 1390 1268 1142 1259 1522 1400 1269 1391
8 1392 1270 1401 1523 1260 1143 1271 1393
8 1272 1394 1524 1402 1145 1262 1393 1271
8 1395 1273 1146 1263 1524 1402 1272 1394
8 1273 1395 1264 1147 1403 1526 1396 1274
8 1405 1276 1160 1282 1534 1406 1286 1411
8 1414 1287 1407 1535 1286 1162 1277 1406
8 1279 1159 1283 1408 1409 1285 1412 1537
8 1418 1292 1412 1537 1290 1165 1283 1408
8 1280 1158 1285 1409 1410 1284 1413 1538
8 1410 1284 1413 1538 1282 1160 1286 1411
8 1285 1163 1289 1412 1413 1288 1417 1540
8 1421 1296 1417 1540 1292 1167 1289 1412
8 1414 1287 1162 1286 1541 1416 1288 1413
8 1420 1294 1421 1545 1291 1166 1292 1418
8 1419 1293 1172 1305 1546 1422 1303 1437
8 1420 1294 1166 1291 1547 1423 1293 1419
8 1294 1169 1297 1423 1421 1296 1425 1548
8 1423 1297 1168 1293 1549 1424 1295 1422
8 1301 1170 1298 1427 1422 1295 1424 1549
8 1432 1300 1428 1554 1301 1170 1298 1427
8 1431 1299 1428 1554 1560 1430 1300 1432
8 1563 1433 1300 1432 1435 1302 1170 1301
8 1546 1422 1303 1437 1434 1301 1435 1565
8 1303 1171 1304 1438 1435 1302 1436 1566
8 1305 1172 1306 1440 1437 1303 1438 1568
8 1306 1173 1307 1441 1438 1304 1439 1569
8 1308 1175 1309 1443 1440 1306 1441 1571
8 1309 1176 1310 1444 1441 1307 1442 1572
8 1311 1178 1312 1446 1443 1309 1444 1574
8 1179 1312 1444 1310 1313 1447 1575 1445
8 1314 1181 1315 1448 1446 1312 1447 1576
8 1350 1213 1349 1486 1451 1317 1449 1579
8 1451 1317 1450 1581 1319 1186 1318 1453
8 1454 1319 1214 1351 1582 1451 1350 1487
8 1453 1318 1452 1584 1321 1187 1320 1456
8 1454 1319 1453 1585 1344 1208 1321 1457
8 1456 1320 1455 1586 1323 1189 1324 1459
8 1457 1321 1456 1587 1322 1188 1323 1458
8 1458 1323 1459 1588 1325 1191 1326 1460
8 1205 1336 1464 1329 1328 1462 1590 1461
8 1507 1373 1461 1590 1374 1242 1328 1462
8 1508 1374 1462 1591 1375 1243 1335 1467
8 1337 1206 1329 1464 1473 1341 1463 1594
8 1375 1243 1335 1467 1465 1333 1470 1596
8 1465 1333 1470 1596 1331 1200 1334 1466
8 1352 1227 1334 1466 1488 1360 1470 1596
8 1591 1462 1336 1468 1467 1335 1471 1597
8 1469 1337 1472 1598 1595 1464 1336 1468
8 1471 1339 1474 1600 1335 1204 1338 1470
8 1600 1474 1367 1496 1470 1338 1235 1360
8 1336 1205 1340 1472 1471 1339 1475 1601
8 1337 1206 1341 1473 1472 1340 1476 1602
8 1495 1370 1478 1609 1361 1239 1342 1479
8 1348 1212 1342 1479 1483 1347 1478 1609
8 1481 1346 1479 1610 1345 1210 1343 1480
8 1481 1346 1228 1359 1610 1479 1361 1494
8 1484 1348 1214 1351 1610 1479 1343 1480
8 1483 1347 1482 1612 1350 1213 1349 1486
8 1484 1348 1483 1613 1351 1214 1350 1487
8 1353 1230 1360 1488 1489 1363 1496 1616
8 1490 1364 1231 1354 1617 1499 1363 1489
8 1490 1364 1499 1617 1355 1232 1365 1491
8 1356 1234 1365 1491 1492 1366 1500 1619
8 1492 1366 1498 1620 1357 1233 1362 1493
8 1494 1361 1228 1359 1621 1497 1362 1493
8 1495 1370 1239 1361 1622 1504 1371 1497
8 1363 1236 1367 1496 1499 1368 1501 1623
8 1497 1371 1240 1362 1624 1505 1372 1498
8 1625 1503 1372 1498 1500 1369 1241 1366
8 1365 1238 1368 1499 1500 1369 1502 1626
8 1520 1398 1506 1633 1388 1266 1373 1507
8 1634 1507 1374 1508 1512 1388 1255 1380
8 1509 1387 1519 1635 1377 1258 1391 1510
8 1405 1276 1406 1534 1509 1387 1519 1635
8 1515 1392 1260 1383 1636 1522 1390 1511
8 1511 1390 1259 1379 1636 1522 1391 1510
8 1385 1256 1389 1517 1512 1388 1520 1637
8 1513 1394 1262 1382 1638 1524 1393 1514
8 1395 1516 1638 1524 1263 1384 1513 1394
8 1515 1392 1523 1639 1383 1260 1393 1514
8 1516 1395 1526 1640 1386 1264 1396 1518
8 1386 1264 1396 1518 1517 1389 1521 1641
8 1519 1397 1527 1643 1391 1269 1400 1522
8 1535 1407 1527 1643 1406 1277 1397 1519
8 1389 1267 1399 1521 1520 1398 1528 1644
8 1645 1529 1399 1521 1525 1404 1274 1396
8 1392 1270 1400 1522 1523 1401 1531 1646
8 1524 1402 1271 1393 1648 1532 1401 1523
8 1403 1526 1648 1532 1273 1395 1524 1402
8 1525 1404 1274 1396 1649 1533 1403 1526
8 1539 1414 1535 1657 1411 1286 1406 1534
8 1542 1415 1536 1658 1414 1287 1407 1535
8 1409 1285 1412 1537 1538 1413 1540 1660
8 1545 1421 1540 1660 1418 1292 1412 1537
8 1539 1414 1286 1411 1661 1541 1413 1538
8 1540 1417 1544 1663 1413 1288 1416 1541
8 1421 1296 1425 1548 1540 1417 1544 1663
8 1542 1415 1287 1414 1664 1543 1416 1541
8 1420 1294 1423 1547 1545 1421 1548 1666
8 1547 1423 1293 1419 1667 1549 1422 1546
8 1434 1301 1427 1553 1546 1422 1549 1667
8 1423 1297 1424 1549 1548 1425 1550 1668
8 1551 1426 1550 1668 1427 1298 1424 1549
8 1551 1426 1298 1427 1671 1552 1428 1554
8 1562 1432 1554 1674 1434 1301 1427 1553
8 1431 1299 1429 1558 1554 1428 1555 1675
8 1431 1299 1430 1560 1558 1429 1557 1680
8 1560 1430 1300 1432 1683 1559 1433 1563
8 1561 1431 1554 1674 1684 1560 1432 1562
8 1685 1563 1432 1562 1565 1435 1301 1434
8 1435 1302 1436 1566 1563 1433 1564 1686
8 1437 1303 1438 1568 1565 1435 1566 1688
8 1438 1304 1439 1569 1566 1436 1567 1689
8 1440 1306 1441 1571 1568 1438 1569 1691
8 1441 1307 1442 1572 1569 1439 1570 1692
8 1443 1309 1444 1574 1571 1441 1572 1694
8 1310 1444 1572 1442 1445 1575 1695 1573
8 1446 1312 1447 1576 1574 1444 1575 1696
8 1486 1349 1485 1614 1579 1449 1577 1699
8 1451 1317 1449 1579 1581 1450 1578 1701
8 1487 1350 1486 1615 1582 1451 1579 1702
8 1581 1450 1580 1704 1453 1318 1452 1584
8 1582 1451 1581 1705 1454 1319 1453 1585
8 1584 1452 1583 1706 1456 1320 1455 1586
8 1585 1453 1584 1707 1457 1321 1456 1587
8 1587 1456 1586 1708 1458 1323 1459 1588
8 1633 1506 1589 1710 1507 1373 1461 1590
8 1464 1329 1461 1590 1594 1463 1589 1710
8 1468 1336 1462 1591 1595 1464 1590 1711
8 1634 1507 1590 1711 1508 1374 1462 1591
8 1473 1341 1463 1594 1603 1477 1593 1716
8 1469 1337 1464 1595 1599 1473 1594 1717
8 1471 1597 1467 1335 1600 1718 1596 1470
8 1718 1600 1496 1616 1596 1470 1360 1488
8 1336 1468 1597 1471 1472 1598 1719 1601
8 1469 1337 1473 1599 1598 1472 1602 1720
8 1722 1604 1501 1623 1600 1474 1367 1496
8 1475 1601 1471 1339 1604 1722 1600 1474
8 1602 1476 1605 1723 1472 1340 1475 1601
8 1476 1602 1724 1606 1341 1473 1603 1477
8 1483 1347 1478 1609 1612 1482 1608 1731
8 1495 1370 1504 1622 1609 1478 1608 1731
8 1618 1495 1609 1732 1494 1361 1479 1610
8 1484 1348 1479 1610 1613 1483 1609 1732
8 1486 1349 1482 1612 1614 1485 1611 1733
8 1613 1483 1612 1734 1487 1350 1486 1615
8 1489 1363 1496 1616 1617 1499 1623 1736
8 1491 1365 1499 1617 1619 1500 1626 1737
8 1618 1495 1361 1494 1738 1622 1497 1621
8 1739 1625 1498 1620 1619 1500 1366 1492
8 1621 1497 1362 1493 1740 1624 1498 1620
8 1742 1631 1504 1622 1624 1505 1371 1497
8 1743 1628 1502 1626 1623 1501 1368 1499
8 1744 1630 1505 1624 1625 1503 1372 1498
8 1745 1629 1503 1625 1626 1502 1369 1500
8 1520 1398 1528 1644 1633 1506 1632 1751
8 1637 1520 1633 1752 1512 1388 1507 1634
8 1635 1519 1643 1753 1510 1391 1522 1636
8 1657 1535 1643 1753 1534 1406 1519 1635
8 1515 1392 1522 1636 1639 1523 1646 1754
8 1517 1389 1521 1641 1637 1520 1644 1755
8 1524 1638 1756 1648 1393 1514 1639 1523
8 1640 1526 1395 1516 1756 1648 1524 1638
8 1642 1525 1396 1518 1757 1649 1526 1640
8 1758 1645 1521 1641 1642 1525 1396 1518
8 1646 1531 1400 1522 1760 1650 1527 1643
8 1535 1407 1536 1658 1643 1527 1650 1760
8 1521 1399 1529 1645 1644 1528 1651 1761
8 1647 1530 1652 1762 1525 1404 1529 1645
8 1401 1523 1648 1532 1531 1646 1763 1655
8 1525 1404 1533 1649 1647 1530 1654 1765
8 1533 1649 1766 1656 1403 1526 1648 1532
8 1662 1542 1658 1774 1539 1414 1535 1657
8 1542 1415 1543 1664 1658 1536 1659 1775
8 1660 1540 1663 1777 1538 1413 1541 1661
8 1545 1421 1548 1666 1660 1540 1663 1777
8 1662 1542 1414 1539 1778 1664 1541 1661
8 1664 1543 1416 1541 1779 1665 1544 1663
8 1548 1425 1550 1668 1663 1544 1665 1779
8 1547 1423 1549 1667 1666 1548 1668 1781
8 1670 1551 1668 1781 1553 1427 1549 1667
8 1551 1426 1552 1671 1668 1550 1669 1782
8 1670 1551 1427 1553 1784 1671 1554 1674
8 1675 1555 1672 1785 1554 1428 1552 1671
8 1678 1556 1673 1789 1558 1429 1555 1675
8 1561 1431 1558 1681 1674 1554 1675 1790
8 1794 1677 1556 1678 1680 1557 1429 1558
8 1560 1430 1559 1683 1680 1557 1679 1797
8 1561 1431 1560 1684 1681 1558 1680 1798
8 1563 1433 1564 1686 1683 1559 1682 1800
8 1684 1560 1432 1562 1801 1683 1563 1685
8 1565 1435 1566 1688 1685 1563 1686 1802
8 1566 1436 1567 1689 1686 1564 1687 1803
8 1568 1438 1569 1691 1688 1566 1689 1805
8 1569 1439 1570 1692 1689 1567 1690 1806
8 1571 1441 1572 1694 1691 1569 1692 1808
8 1442 1572 1692 1570 1573 1695 1809 1693
8 1574 1444 1575 1696 1694 1572 1695 1810
8 1614 1485 1592 1712 1699 1577 1697 1813
8 1579 1449 1577 1699 1701 1578 1698 1815
8 1615 1486 1614 1735 1702 1579 1699 1816
8 1701 1578 1700 1818 1581 1450 1580 1704
8 1582 1451 1579 1702 1705 1581 1701 1819
8 1704 1580 1703 1820 1584 1452 1583 1706
8 1705 1581 1704 1821 1585 1453 1584 1707
8 1707 1584 1706 1822 1587 1456 1586 1708
8 1710 1589 1506 1633 1824 1709 1632 1751
8 1594 1463 1589 1710 1716 1593 1709 1824
8 1752 1633 1710 1825 1634 1507 1590 1711
8 1595 1464 1590 1711 1717 1594 1710 1825
8 1830 1714 1592 1712 1733 1611 1485 1614
8 1603 1477 1593 1716 1725 1607 1715 1834
8 1599 1473 1594 1717 1721 1603 1716 1835
8 1837 1722 1623 1736 1718 1600 1496 1616
8 1719 1601 1722 1837 1597 1471 1600 1718
8 1602 1720 1598 1472 1723 1838 1719 1601
8 1720 1602 1473 1599 1839 1724 1603 1721
8 1723 1605 1726 1840 1601 1475 1604 1722
8 1840 1726 1628 1743 1722 1604 1501 1623
8 1724 1606 1727 1841 1602 1476 1605 1723
8 1725 1607 1728 1842 1603 1477 1606 1724
8 1612 1482 1608 1731 1733 1611 1730 1849
8 1741 1627 1730 1849 1622 1504 1608 1731
8 1613 1483 1609 1732 1734 1612 1731 1850
8 1618 1495 1622 1738 1732 1609 1731 1850
8 1615 1486 1612 1734 1735 1614 1733 1851
8 1852 1743 1626 1737 1736 1623 1499 1617
8 1853 1745 1625 1739 1737 1626 1500 1619
8 1855 1742 1622 1738 1740 1624 1497 1621
8 1856 1744 1624 1740 1739 1625 1498 1620
8 1741 1627 1504 1622 1857 1746 1631 1742
8 1742 1631 1505 1624 1858 1749 1630 1744
8 1859 1747 1629 1745 1743 1628 1502 1626
8 1860 1748 1630 1744 1745 1629 1503 1625
8 1644 1528 1651 1761 1751 1632 1750 1865
8 1637 1520 1644 1755 1752 1633 1751 1866
8 1754 1646 1522 1636 1867 1760 1643 1753
8 1657 1535 1658 1774 1753 1643 1760 1867
8 1639 1523 1646 1754 1756 1648 1763 1868
8 1641 1521 1645 1758 1755 1644 1761 1869
8 1757 1649 1526 1640 1870 1766 1648 1756
8 1642 1525 1649 1757 1759 1647 1765 1871
8 1759 1647 1762 1872 1642 1525 1645 1758
8 1760 1650 1767 1874 1646 1531 1655 1763
8 1658 1536 1659 1775 1760 1650 1767 1874
8 1762 1652 1768 1875 1645 1529 1651 1761
8 1764 1653 1769 1876 1647 1530 1652 1762
8 1656 1766 1877 1773 1532 1648 1763 1655
8 1771 1879 1765 1654 1653 1764 1647 1530
8 1533 1649 1765 1654 1656 1766 1880 1772
8 1662 1542 1664 1778 1774 1658 1775 1887
8 1664 1543 1665 1779 1775 1659 1776 1888
8 1778 1664 1541 1661 1890 1779 1663 1777
8 1666 1548 1668 1781 1777 1663 1779 1890
8 1782 1669 1780 1891 1668 1550 1665 1779
8 1670 1551 1671 1784 1781 1668 1782 1893
8 1671 1552 1672 1785 1782 1669 1783 1894
8 1790 1675 1785 1896 1674 1554 1671 1784
8 1675 1555 1673 1789 1785 1672 1786 1897
8 1792 1676 1788 1903 1678 1556 1673 1789
8 1795 1678 1789 1904 1681 1558 1675 1790
8 1792 1676 1556 1678 1906 1791 1677 1794
8 1680 1557 1679 1797 1794 1677 1793 1909
8 1910 1794 1678 1795 1798 1680 1558 1681
8 1683 1559 1682 1800 1797 1679 1796 1912
8 1684 1560 1683 1801 1798 1680 1797 1913
8 1686 1564 1687 1803 1800 1682 1799 1915
8 1685 1563 1686 1802 1801 1683 1800 1916
8 1688 1566 1689 1805 1802 1686 1803 1917
8 1689 1567 1690 1806 1803 1687 1804 1918
8 1691 1569 1692 1808 1805 1689 1806 1920
8 1692 1570 1693 1809 1806 1690 1807 1921
8 1694 1572 1695 1810 1808 1692 1809 1922
8 1829 1713 1811 1926 1712 1592 1697 1813
8 1813 1697 1812 1928 1699 1577 1698 1815
8 1735 1614 1712 1828 1816 1699 1813 1929
8 1815 1698 1814 1931 1701 1578 1700 1818
8 1702 1579 1699 1816 1819 1701 1815 1932
8 1818 1700 1817 1933 1704 1580 1703 1820
8 1819 1701 1818 1934 1705 1581 1704 1821
8 1821 1704 1820 1935 1707 1584 1706 1822
8 1824 1709 1632 1751 1937 1823 1750 1865
8 1716 1593 1709 1824 1834 1715 1823 1937
8 1825 1710 1633 1752 1938 1824 1751 1866
8 1717 1594 1710 1825 1835 1716 1824 1938
8 1945 1830 1712 1828 1851 1733 1614 1735
8 1830 1714 1831 1946 1712 1592 1713 1829
8 1947 1832 1714 1830 1849 1730 1611 1733
8 1843 1729 1607 1725 1950 1833 1715 1834
8 1721 1603 1716 1835 1836 1725 1834 1951
8 1836 1725 1842 1953 1721 1603 1724 1839
8 1723 1838 1719 1601 1840 1954 1837 1722
8 1954 1840 1743 1852 1837 1722 1623 1736
8 1724 1839 1720 1602 1841 1955 1838 1723
8 1841 1727 1844 1956 1723 1605 1726 1840
8 1956 1844 1747 1859 1840 1726 1628 1743
8 1728 1842 1724 1606 1845 1957 1841 1727
8 1725 1607 1729 1843 1842 1728 1846 1958
8 1741 1627 1746 1857 1849 1730 1848 1965
8 1734 1612 1731 1850 1851 1733 1849 1966
8 1854 1741 1849 1966 1738 1622 1731 1850
8 1967 1859 1745 1853 1852 1743 1626 1737
8 1968 1860 1744 1856 1853 1745 1625 1739
8 1854 1741 1622 1738 1969 1857 1742 1855
8 1855 1742 1624 1740 1970 1858 1744 1856
8 1857 1746 1631 1742 1971 1861 1749 1858
8 1858 1749 1630 1744 1972 1863 1748 1860
8 1859 1747 1862 1973 1745 1629 1748 1860
8 1875 1768 1864 1977 1761 1651 1750 1865
8 1755 1644 1761 1869 1866 1751 1865 1978
8 1867 1760 1874 1979 1754 1646 1763 1868
8 1774 1658 1775 1887 1867 1760 1874 1979
8 1870 1766 1648 1756 1980 1877 1763 1868
8 1872 1762 1875 1981 1758 1645 1761 1869
8 1757 1649 1766 1870 1871 1765 1880 1982
8 1983 1879 1764 1873 1871 1765 1647 1759
8 1873 1764 1876 1984 1759 1647 1762 1872
8 1877 1773 1655 1763 1986 1881 1767 1874
8 1775 1659 1776 1888 1874 1767 1881 1986
8 1876 1769 1882 1987 1762 1652 1768 1875
8 1878 1770 1883 1988 1764 1653 1769 1876
8 1880 1772 1656 1766 1989 1886 1773 1877
8 1878 1770 1653 1764 1990 1884 1771 1879
8 1765 1654 1772 1880 1879 1771 1885 1991
8 1778 1664 1779 1890 1887 1775 1888 1997
8 1998 1889 1776 1888 1891 1780 1665 1779
8 1893 1782 1891 2000 1781 1668 1779 1890
8 1894 1783 1892 2001 1782 1669 1780 1891
8 1784 1671 1785 1896 1893 1782 1894 2003
8 1897 1786 1895 2004 1785 1672 1783 1894
8 1790 1675 1789 1904 1896 1785 1897 2006
8 1901 1787 1898 2007 1789 1673 1786 1897
8 1903 1788 1900 2013 1789 1673 1787 1901
8 1792 1676 1791 1906 1903 1788 1902 2016
8 1907 1792 1903 2017 1795 1678 1789 1904
8 1906 1791 1677 1794 2019 1905 1793 1909
8 1907 1792 1678 1795 2020 1906 1794 1910
8 1797 1679 1796 1912 1909 1793 1908 2022
8 1798 1680 1797 1913 1910 1794 1909 2023
8 1800 1682 1799 1915 1912 1796 1911 2025
8 1801 1683 1800 1916 1913 1797 1912 2026
8 1803 1687 1804 1918 1915 1799 1914 2028
8 1802 1686 1803 1917 1916 1800 1915 2029
8 1805 1689 1806 1920 1917 1803 1918 2030
8 1806 1690 1807 1921 1918 1804 1919 2031
8 1808 1692 1809 1922 1920 1806 1921 2032
8 1939 1826 1924 2037 1829 1713 1811 1926
8 1926 1811 1925 2039 1813 1697 1812 1928
8 1944 1829 1926 2040 1828 1712 1813 1929
8 1928 1812 1927 2042 1815 1698 1814 1931
8 1929 1813 1928 2043 1816 1699 1815 1932
8 1931 1814 1930 2044 1818 1700 1817 1933
8 1932 1815 1931 2045 1819 1701 1818 1934
8 1934 1818 1933 2046 1821 1704 1820 1935
8 2048 1936 1823 1937 1977 1864 1750 1865
8 1950 1833 1715 1834 2048 1936 1823 1937
8 1938 1824 1751 1866 2049 1937 1865 1978
8 1835 1716 1824 1938 1951 1834 1937 2049
8 1939 1826 1713 1829 2053 1942 1831 1946
8 1940 1827 1923 2035 2053 1942 1826 1939
8 1945 1830 1946 2058 1828 1712 1829 1944
8 2059 1947 1830 1945 1966 1849 1733 1851
8 1947 1832 1730 1849 2060 1948 1848 1965
8 1947 1832 1948 2060 1830 1714 1831 1946
8 1959 1847 1729 1843 2063 1949 1833 1950
8 1952 1843 1725 1836 2064 1950 1834 1951
8 1836 1725 1843 1952 1953 1842 1958 2066
8 1953 1842 1957 2067 1839 1724 1841 1955
8 1841 1955 1838 1723 1956 2068 1954 1840
8 2068 1956 1859 1967 1954 1840 1743 1852
8 1956 1844 1960 2069 1859 1747 1862 1973
8 1845 1957 1841 1727 1960 2069 1956 1844
8 1728 1842 1957 1845 1846 1958 2071 1961
8 1962 2072 1959 1847 1846 1958 1843 1729
8 1971 1861 1964 2077 1857 1746 1848 1965
8 1854 1741 1857 1969 1966 1849 1965 2078
8 1967 1859 1973 2079 1853 1745 1860 1968
8 1970 1858 1744 1856 2080 1972 1860 1968
8 1969 1857 1742 1855 2081 1971 1858 1970
8 1971 1861 1749 1858 2082 1974 1863 1972
8 1973 1862 1975 2083 1860 1748 1863 1972
8 1987 1882 1976 2086 1875 1768 1864 1977
8 1981 1875 1977 2087 1869 1761 1865 1978
8 1980 1877 1763 1868 2088 1986 1874 1979
8 1887 1775 1888 1997 1979 1874 1986 2088
8 1880 1982 2089 1989 1766 1870 1980 1877
8 1984 1876 1987 2090 1872 1762 1875 1981
8 1765 1871 1983 1879 1880 1982 2091 1991
8 1985 1878 1764 1873 2092 1990 1879 1983
8 1985 1878 1988 2093 1873 1764 1876 1984
8 2094 1992 1881 1986 1998 1889 1776 1888
8 1986 1881 1992 2094 1877 1773 1886 1989
8 1988 1883 1993 2095 1876 1769 1882 1987
8 1878 1770 1884 1990 1988 1883 1994 2096
8 1991 1885 1772 1880 2097 1996 1886 1989
8 1879 1771 1885 1991 1990 1884 1995 2098
8 2103 1998 1888 1997 2000 1891 1779 1890
8 2104 1999 1889 1998 2001 1892 1780 1891
8 2003 1894 2001 2106 1893 1782 1891 2000
8 2004 1895 2002 2107 1894 1783 1892 2001
8 2006 1897 2004 2109 1896 1785 1894 2003
8 2007 1898 2005 2110 1897 1786 1895 2004
8 2014 1901 2007 2112 1904 1789 1897 2006
8 2011 1899 2008 2113 1901 1787 1898 2007
8 2119 2010 1899 2011 2013 1900 1787 1901
8 2016 1902 2012 2122 1903 1788 1900 2013
8 2017 1903 2013 2123 1904 1789 1901 2014
8 1906 1791 1905 2019 2016 1902 2015 2125
8 1907 1792 1906 2020 2017 1903 2016 2126
8 1909 1793 1908 2022 2019 1905 2018 2128
8 2020 1906 1794 1910 2129 2019 1909 2023
8 1912 1796 1911 2025 2022 1908 2021 2131
8 1913 1797 1912 2026 2023 1909 2022 2132
8 1915 1799 1914 2028 2025 1911 2024 2134
8 1916 1800 1915 2029 2026 1912 2025 2135
8 1918 1804 1919 2031 2028 1914 2027 2136
8 1917 1803 1918 2030 2029 1915 2028 2137
8 1920 1806 1921 2032 2030 1918 2031 2138
8 1940 1827 1941 2054 2035 1923 2033 2140
8 2035 1923 2034 2143 1939 1826 1924 2037
8 2037 1924 2036 2146 1926 1811 1925 2039
8 2051 1939 2037 2147 1944 1829 1926 2040
8 2039 1925 2038 2149 1928 1812 1927 2042
8 2040 1926 2039 2150 1929 1813 1928 2043
8 2042 1927 2041 2151 1931 1814 1930 2044
8 2043 1928 2042 2152 1932 1815 1931 2045
8 2045 1931 2044 2153 1934 1818 1933 2046
8 2155 2047 1936 2048 2086 1976 1864 1977
8 2063 1949 1833 1950 2155 2047 1936 2048
8 2156 2048 1937 2049 2087 1977 1865 1978
8 2064 1950 1834 1951 2156 2048 1937 2049
8 2051 1939 1829 1944 2160 2053 1946 2058
8 2052 1940 2035 2144 2160 2053 1939 2051
8 2053 1942 1831 1946 2163 2057 1948 2060
8 2055 1943 1827 1940 2163 2057 1942 2053
8 2055 1943 2056 2164 1940 1827 1941 2054
8 2059 1947 1849 1966 2167 2060 1965 2078
8 2059 1947 2060 2167 1945 1830 1946 2058
8 2077 1964 2061 2168 1965 1848 1948 2060
8 2070 1963 1847 1959 2170 2062 1949 2063
8 2065 1959 1843 1952 2171 2063 1950 2064
8 2173 2072 1958 2066 2065 1959 1843 1952
8 1953 1842 1958 2066 2067 1957 2071 2174
8 2068 1956 2069 2175 1967 1859 1973 2079
8 2067 1957 2069 2175 1955 1841 1956 2068
8 1845 1957 2069 1960 1961 2071 2176 2073
8 2069 1960 2073 2176 1973 1862 1975 2083
8 2070 1963 2075 2177 1959 1847 1962 2072
8 1846 1958 2071 1961 1962 2072 2178 2074
8 2077 1964 1861 1971 2182 2076 1974 2082
8 2081 1971 2077 2183 1969 1857 1965 2078
8 2079 1973 2083 2184 1968 1860 1972 2080
8 2081 1971 1858 1970 2185 2082 1972 2080
8 2083 1975 2084 2186 1972 1863 1974 2082
8 2086 1976 1882 1987 2189 2085 1993 2095
8 2090 1987 2086 2190 1981 1875 1977 2087
8 2191 2094 1986 2088 2103 1998 1888 1997
8 2088 1986 2094 2191 1980 1877 1989 2089
8 1991 2091 2192 2097 1880 1982 2089 1989
8 2093 1988 2095 2193 1984 1876 1987 2090
8 1879 1983 2092 1990 1991 2091 2194 2098
8 1985 1878 1990 2092 2093 1988 2096 2195
8 2097 1996 1886 1989 2196 2099 1992 2094
8 2196 2099 1992 2094 2104 1999 1889 1998
8 1994 2096 1988 1883 2100 2197 2095 1993
8 2096 1994 1884 1990 2198 2101 1995 2098
8 1995 2098 2199 2102 1885 1991 2097 1996
8 2203 2104 1998 2103 2106 2001 1891 2000
8 2107 2002 2105 2204 2001 1892 1999 2104
8 2109 2004 2107 2206 2003 1894 2001 2106
8 2110 2005 2108 2207 2004 1895 2002 2107
8 2112 2007 2110 2209 2006 1897 2004 2109
8 2113 2008 2111 2210 2007 1898 2005 2110
8 2120 2011 2113 2212 2014 1901 2007 2112
8 2117 2009 2114 2213 2011 1899 2008 2113
8 2219 2116 2009 2117 2119 2010 1899 2011
8 2222 2118 2010 2119 2122 2012 1900 2013
8 2223 2119 2011 2120 2123 2013 1901 2014
8 2016 1902 2015 2125 2122 2012 2121 2225
8 2126 2016 2122 2226 2017 1903 2013 2123
8 2019 1905 2018 2128 2125 2015 2124 2228
8 2020 1906 2019 2129 2126 2016 2125 2229
8 2022 1908 2021 2131 2128 2018 2127 2231
8 2023 1909 2022 2132 2129 2019 2128 2232
8 2025 1911 2024 2134 2131 2021 2130 2234
8 2026 1912 2025 2135 2132 2022 2131 2235
8 1914 2028 2134 2024 2027 2136 2236 2133
8 2029 1915 2028 2137 2135 2025 2134 2237
8 2030 1918 2031 2138 2137 2028 2136 2238
8 2157 2050 2139 2240 2054 1941 2033 2140
8 2052 1940 2054 2161 2144 2035 2140 2242
8 2140 2033 2141 2243 2035 1923 2034 2143
8 2143 2034 2142 2246 2037 1924 2036 2146
8 2144 2035 2143 2247 2051 1939 2037 2147
8 2146 2036 2145 2249 2039 1925 2038 2149
8 2147 2037 2146 2250 2040 1926 2039 2150
8 2149 2038 2148 2251 2042 1927 2041 2151
8 2150 2039 2149 2252 2043 1928 2042 2152
8 2152 2042 2151 2253 2045 1931 2044 2153
8 2255 2154 2047 2155 2189 2085 1976 2086
8 2170 2062 1949 2063 2255 2154 2047 2155
8 2256 2155 2048 2156 2190 2086 1977 2087
8 2171 2063 1950 2064 2256 2155 2048 2156
8 2258 2159 2050 2157 2164 2056 1941 2054
8 2160 2053 1946 2058 2262 2163 2060 2167
8 2162 2055 1940 2052 2262 2163 2053 2160
8 2162 2055 2164 2263 2052 1940 2054 2161
8 2163 2057 1948 2060 2264 2165 2061 2168
8 2055 1943 2057 2163 2164 2056 2165 2264
8 2182 2076 2166 2268 2077 1964 2061 2168
8 2183 2077 2168 2269 2078 1965 2060 2167
8 2070 1963 2062 2170 2177 2075 2169 2271
8 2172 2070 1959 2065 2272 2170 2063 2171
8 2172 2070 2177 2273 2065 1959 2072 2173
8 2066 1958 2072 2173 2174 2071 2178 2274
8 2067 1957 2071 2174 2175 2069 2176 2275
8 2175 2069 2176 2275 2079 1973 2083 2184
8 2071 1961 2074 2178 2176 2073 2179 2276
8 2176 2073 2179 2276 2083 1975 2084 2186
8 2072 1962 2075 2177 2178 2074 2180 2277
8 2182 2076 1974 2082 2280 2181 2084 2186
8 2183 2077 1971 2081 2281 2182 2082 2185
8 2184 2083 2186 2282 2080 1972 2082 2185
8 2189 2085 1993 2095 2285 2188 2100 2197
8 2190 2086 1987 2090 2286 2189 2095 2193
8 2192 2097 1989 2089 2287 2196 2094 2191
8 2287 2196 2094 2191 2203 2104 1998 2103
8 2194 2098 1991 2091 2288 2199 2097 2192
8 2195 2096 2197 2289 2093 1988 2095 2193
8 2096 2195 2290 2198 1990 2092 2194 2098
8 2097 1996 2099 2196 2199 2102 2200 2291
8 2196 2099 1999 2104 2291 2200 2105 2204
8 2100 2197 2292 2201 1994 2096 2198 2101
8 1995 2098 2198 2101 2102 2199 2293 2202
8 2206 2107 2204 2296 2106 2001 2104 2203
8 2207 2108 2205 2297 2107 2002 2105 2204
8 2209 2110 2207 2299 2109 2004 2107 2206
8 2210 2111 2208 2300 2110 2005 2108 2207
8 2212 2113 2210 2302 2112 2007 2110 2209
8 2213 2114 2211 2303 2113 2008 2111 2210
8 2220 2117 2213 2305 2120 2011 2113 2212
8 2216 2115 2214 2306 2117 2009 2114 2213
8 2216 2115 2009 2117 2311 2217 2116 2219
8 2219 2116 2010 2119 2314 2218 2118 2222
8 2315 2219 2117 2220 2223 2119 2011 2120
8 2122 2012 2121 2225 2222 2118 2221 2317
8 2318 2222 2119 2223 2226 2122 2013 2123
8 2125 2015 2124 2228 2225 2121 2224 2320
8 2126 2016 2125 2229 2226 2122 2225 2321
8 2128 2018 2127 2231 2228 2124 2227 2323
8 2129 2019 2128 2232 2229 2125 2228 2324
8 2131 2021 2130 2234 2231 2127 2230 2326
8 2132 2022 2131 2235 2232 2128 2231 2327
8 2134 2024 2133 2236 2234 2130 2233 2328
8 2135 2025 2134 2237 2235 2131 2234 2329
8 2137 2028 2136 2238 2237 2134 2236 2330
8 2157 2050 2158 2259 2240 2139 2239 2332
8 2257 2157 2240 2334 2161 2054 2140 2242
8 2240 2139 2241 2335 2140 2033 2141 2243
8 2242 2140 2243 2337 2144 2035 2143 2247
8 2243 2141 2244 2338 2143 2034 2142 2246
8 2246 2142 2245 2341 2146 2036 2145 2249
8 2247 2143 2246 2342 2147 2037 2146 2250
8 2249 2145 2248 2343 2149 2038 2148 2251
8 2250 2146 2249 2344 2150 2039 2149 2252
8 2252 2149 2251 2345 2152 2042 2151 2253
8 2169 2271 2347 2254 2062 2170 2255 2154
8 2189 2085 2188 2285 2255 2154 2254 2347
8 2348 2255 2155 2256 2286 2189 2086 2190
8 2272 2170 2063 2171 2348 2255 2155 2256
8 2349 2258 2157 2257 2263 2164 2054 2161
8 2258 2159 2261 2351 2157 2050 2158 2259
8 2258 2159 2056 2164 2351 2261 2165 2264
8 2262 2163 2060 2167 2355 2264 2168 2269
8 2162 2055 2163 2262 2263 2164 2264 2355
8 2357 2266 2165 2264 2268 2166 2061 2168
8 2268 2166 2076 2182 2361 2267 2181 2280
8 2281 2182 2268 2362 2183 2077 2168 2269
8 2271 2169 2270 2364 2177 2075 2180 2277
8 2172 2070 2170 2272 2273 2177 2271 2365
8 2072 2173 2274 2178 2177 2273 2366 2277
8 2071 2174 2275 2176 2178 2274 2367 2276
8 2275 2176 2276 2367 2184 2083 2186 2282
8 2283 2187 2084 2186 2368 2278 2179 2276
8 2178 2074 2180 2277 2276 2179 2278 2368
8 2283 2187 2279 2370 2186 2084 2181 2280
8 2281 2182 2082 2185 2371 2280 2186 2282
8 2188 2285 2374 2284 2100 2197 2292 2201
8 2286 2189 2095 2193 2375 2285 2197 2289
8 2192 2097 2196 2287 2288 2199 2291 2376
8 2287 2196 2104 2203 2376 2291 2204 2296
8 2194 2098 2199 2288 2290 2198 2293 2377
8 2289 2197 2096 2195 2378 2292 2198 2290
8 2291 2200 2105 2204 2379 2294 2205 2297
8 2199 2102 2200 2291 2293 2202 2294 2379
8 2198 2101 2202 2293 2292 2201 2295 2380
8 2299 2207 2297 2383 2206 2107 2204 2296
8 2300 2208 2298 2384 2207 2108 2205 2297
8 2302 2210 2300 2386 2209 2110 2207 2299
8 2303 2211 2301 2387 2210 2111 2208 2300
8 2305 2213 2303 2389 2212 2113 2210 2302
8 2306 2214 2304 2390 2213 2114 2211 2303
8 2310 2216 2306 2392 2220 2117 2213 2305
8 2308 2215 2307 2393 2216 2115 2214 2306
8 2308 2215 2115 2216 2396 2309 2217 2311
8 2310 2216 2117 2220 2398 2311 2219 2315
8 2311 2217 2116 2219 2399 2312 2218 2314
8 2314 2218 2118 2222 2402 2313 2221 2317
8 2315 2219 2119 2223 2403 2314 2222 2318
8 2225 2121 2224 2320 2317 2221 2316 2405
8 2226 2122 2225 2321 2318 2222 2317 2406
8 2228 2124 2227 2323 2320 2224 2319 2408
8 2229 2125 2228 2324 2321 2225 2320 2409
8 2231 2127 2230 2326 2323 2227 2322 2411
8 2232 2128 2231 2327 2324 2228 2323 2412
8 2234 2130 2233 2328 2326 2230 2325 2413
8 2235 2131 2234 2329 2327 2231 2326 2414
8 2237 2134 2236 2330 2329 2234 2328 2415
8 2259 2158 2260 2352 2332 2239 2331 2417
8 2257 2157 2259 2350 2334 2240 2332 2419
8 2240 2139 2239 2332 2335 2241 2333 2420
8 2334 2240 2335 2422 2242 2140 2243 2337
8 2335 2241 2336 2423 2243 2141 2244 2338
8 2337 2243 2338 2425 2247 2143 2246 2342
8 2338 2244 2339 2426 2246 2142 2245 2341
8 2341 2245 2340 2428 2249 2145 2248 2343
8 2342 2246 2341 2429 2250 2146 2249 2344
8 2344 2249 2343 2430 2252 2149 2251 2345
8 2188 2285 2347 2254 2284 2374 2432 2346
8 2347 2254 2346 2432 2271 2169 2270 2364
8 2365 2271 2170 2272 2433 2347 2255 2348
8 2286 2189 2285 2375 2348 2255 2347 2433
8 2349 2258 2351 2435 2257 2157 2259 2350
8 2349 2258 2164 2263 2435 2351 2264 2355
8 2259 2158 2261 2351 2352 2260 2354 2437
8 2356 2265 2354 2437 2264 2165 2261 2351
8 2441 2357 2264 2355 2362 2268 2168 2269
8 2356 2265 2165 2264 2442 2358 2266 2357
8 2443 2359 2266 2357 2361 2267 2166 2268
8 2370 2279 2360 2446 2280 2181 2267 2361
8 2362 2268 2182 2281 2447 2361 2280 2371
8 2180 2277 2368 2278 2270 2364 2449 2363
8 2271 2365 2273 2177 2364 2450 2366 2277
8 2372 2283 2186 2282 2451 2368 2276 2367
8 2178 2274 2367 2276 2277 2366 2451 2368
8 2283 2187 2278 2368 2370 2279 2369 2452
8 2372 2283 2370 2453 2282 2186 2280 2371
8 2284 2374 2455 2373 2201 2292 2380 2295
8 2375 2285 2197 2289 2456 2374 2292 2378
8 2376 2291 2204 2296 2457 2379 2297 2383
8 2288 2199 2291 2376 2377 2293 2379 2457
8 2198 2290 2378 2292 2293 2377 2458 2380
8 2293 2202 2294 2379 2380 2295 2381 2459
8 2384 2298 2381 2459 2297 2205 2294 2379
8 2386 2300 2384 2463 2299 2207 2297 2383
8 2387 2301 2385 2464 2300 2208 2298 2384
8 2389 2303 2387 2466 2302 2210 2300 2386
8 2390 2304 2388 2467 2303 2211 2301 2387
8 2392 2306 2390 2469 2305 2213 2303 2389
8 2393 2307 2391 2470 2306 2214 2304 2390
8 2395 2308 2393 2472 2310 2216 2306 2392
8 2308 2215 2309 2396 2393 2307 2394 2473
8 2395 2308 2216 2310 2475 2396 2311 2398
8 2396 2309 2217 2311 2476 2397 2312 2399
8 2398 2311 2219 2315 2478 2399 2314 2403
8 2399 2312 2218 2314 2479 2400 2313 2402
8 2317 2221 2316 2405 2402 2313 2401 2482
8 2403 2314 2222 2318 2483 2402 2317 2406
8 2320 2224 2319 2408 2405 2316 2404 2485
8 2321 2225 2320 2409 2406 2317 2405 2486
8 2323 2227 2322 2411 2408 2319 2407 2488
8 2324 2228 2323 2412 2409 2320 2408 2489
8 2326 2230 2325 2413 2411 2322 2410 2490
8 2327 2231 2326 2414 2412 2323 2411 2491
8 2329 2234 2328 2415 2414 2326 2413 2492
8 2417 2331 2260 2352 2494 2416 2353 2438
8 2350 2259 2352 2436 2419 2332 2417 2496
8 2332 2239 2331 2417 2420 2333 2418 2497
8 2334 2240 2332 2419 2422 2335 2420 2499
8 2420 2333 2421 2500 2335 2241 2336 2423
8 2422 2335 2423 2502 2337 2243 2338 2425
8 2423 2336 2424 2503 2338 2244 2339 2426
8 2425 2338 2426 2505 2342 2246 2341 2429
8 2426 2339 2427 2506 2341 2245 2340 2428
8 2429 2341 2428 2507 2344 2249 2343 2430
8 2432 2346 2284 2374 2509 2431 2373 2455
8 2432 2346 2431 2509 2364 2270 2363 2449
8 2375 2285 2374 2456 2433 2347 2432 2510
8 2347 2433 2365 2271 2432 2510 2450 2364
8 2350 2259 2351 2435 2436 2352 2437 2514
8 2440 2356 2437 2514 2355 2264 2351 2435
8 2352 2260 2354 2437 2438 2353 2439 2516
8 2356 2265 2358 2442 2437 2354 2439 2516
8 2440 2356 2264 2355 2518 2442 2357 2441
8 2519 2443 2357 2441 2447 2361 2268 2362
8 2443 2359 2444 2520 2357 2266 2358 2442
8 2443 2359 2267 2361 2520 2444 2360 2446
8 2446 2360 2279 2370 2523 2445 2369 2452
8 2453 2370 2446 2524 2371 2280 2361 2447
8 2449 2363 2448 2525 2368 2278 2369 2452
8 2366 2277 2364 2450 2451 2368 2449 2526
8 2372 2283 2368 2451 2453 2370 2452 2527
8 2455 2373 2295 2380 2529 2454 2382 2460
8 2456 2374 2292 2378 2530 2455 2380 2458
8 2377 2293 2379 2457 2458 2380 2459 2531
8 2463 2384 2459 2531 2383 2297 2379 2457
8 2533 2461 2382 2460 2459 2381 2295 2380
8 2464 2385 2461 2533 2384 2298 2381 2459
8 2466 2387 2464 2537 2386 2300 2384 2463
8 2467 2388 2465 2538 2387 2301 2385 2464
8 2469 2390 2467 2540 2389 2303 2387 2466
8 2470 2391 2468 2541 2390 2304 2388 2467
8 2472 2393 2470 2543 2392 2306 2390 2469
8 2393 2307 2394 2473 2470 2391 2471 2544
8 2395 2308 2396 2475 2472 2393 2473 2546
8 2396 2309 2397 2476 2473 2394 2474 2547
8 2475 2396 2311 2398 2549 2476 2399 2478
8 2476 2397 2312 2399 2550 2477 2400 2479
8 2478 2399 2314 2403 2552 2479 2402 2483
8 2479 2400 2313 2402 2553 2480 2401 2482
8 2405 2316 2404 2485 2482 2401 2481 2556
8 2406 2317 2405 2486 2483 2402 2482 2557
8 2408 2319 2407 2488 2485 2404 2484 2559
8 2409 2320 2408 2489 2486 2405 2485 2560
8 2411 2322 2410 2490 2488 2407 2487 2561
8 2412 2323 2411 2491 2489 2408 2488 2562
8 2414 2326 2413 2492 2491 2411 2490 2563
8 2513 2434 2493 2565 2438 2353 2416 2494
8 2496 2417 2352 2436 2567 2494 2438 2515
8 2494 2416 2495 2568 2417 2331 2418 2497
8 2419 2332 2417 2496 2499 2420 2497 2570
8 2497 2418 2498 2571 2420 2333 2421 2500
8 2499 2420 2500 2573 2422 2335 2423 2502
8 2500 2421 2501 2574 2423 2336 2424 2503
8 2502 2423 2503 2576 2425 2338 2426 2505
8 2503 2424 2504 2577 2426 2339 2427 2506
8 2505 2426 2506 2578 2429 2341 2428 2507
8 2509 2431 2373 2455 2580 2508 2454 2529
8 2509 2431 2508 2580 2449 2363 2448 2525
8 2432 2510 2581 2509 2374 2456 2530 2455
8 2432 2510 2450 2364 2509 2581 2526 2449
8 2583 2511 2434 2513 2516 2439 2353 2438
8 2436 2352 2437 2514 2515 2438 2516 2588
8 2440 2356 2442 2518 2514 2437 2516 2588
8 2442 2358 2444 2520 2516 2439 2517 2589
8 2519 2443 2520 2591 2441 2357 2442 2518
8 2519 2443 2361 2447 2591 2520 2446 2524
8 2446 2360 2445 2523 2520 2444 2521 2592
8 2525 2448 2522 2593 2452 2369 2445 2523
8 2524 2446 2370 2453 2594 2523 2452 2527
8 2526 2449 2525 2595 2451 2368 2452 2527
8 2534 2462 2528 2597 2460 2382 2454 2529
8 2530 2455 2380 2458 2598 2529 2460 2532
8 2599 2533 2460 2532 2531 2459 2380 2458
8 2537 2464 2533 2599 2463 2384 2459 2531
8 2534 2462 2382 2460 2601 2535 2461 2533
8 2538 2465 2535 2601 2464 2385 2461 2533
8 2540 2467 2538 2604 2466 2387 2464 2537
8 2541 2468 2539 2605 2467 2388 2465 2538
8 2543 2470 2541 2607 2469 2390 2467 2540
8 2470 2391 2471 2544 2541 2468 2542 2608
8 2472 2393 2473 2546 2543 2470 2544 2610
8 2473 2394 2474 2547 2544 2471 2545 2611
8 2475 2396 2476 2549 2546 2473 2547 2613
8 2476 2397 2477 2550 2547 2474 2548 2614
8 2549 2476 2399 2478 2616 2550 2479 2552
8 2479 2400 2480 2553 2550 2477 2551 2617
8 2552 2479 2402 2483 2619 2553 2482 2557
8 2482 2401 2481 2556 2553 2480 2554 2620
8 2485 2404 2484 2559 2556 2481 2555 2623
8 2486 2405 2485 2560 2557 2482 2556 2624
8 2488 2407 2487 2561 2559 2484 2558 2625
8 2489 2408 2488 2562 2560 2485 2559 2626
8 2491 2411 2490 2563 2562 2488 2561 2627
8 2513 2434 2512 2585 2565 2493 2564 2630
8 2586 2513 2565 2632 2515 2438 2494 2567
8 2565 2493 2566 2633 2494 2416 2495 2568
8 2567 2494 2568 2635 2496 2417 2497 2570
8 2568 2495 2569 2636 2497 2418 2498 2571
8 2570 2497 2571 2638 2499 2420 2500 2573
8 2571 2498 2572 2639 2500 2421 2501 2574
8 2573 2500 2574 2641 2502 2423 2503 2576
8 2574 2501 2575 2642 2503 2424 2504 2577
8 2576 2503 2577 2643 2505 2426 2506 2578
8 2597 2528 2579 2645 2529 2454 2508 2580
8 2580 2508 2579 2645 2525 2448 2522 2593
8 2581 2509 2455 2530 2646 2580 2529 2598
8 2581 2509 2580 2646 2526 2449 2525 2595
8 2583 2511 2582 2648 2513 2434 2512 2585
8 2583 2511 2439 2516 2648 2582 2517 2589
8 2649 2583 2513 2586 2588 2516 2438 2515
8 2589 2517 2444 2520 2653 2587 2521 2592
8 2518 2442 2520 2591 2588 2516 2589 2654
8 2593 2522 2590 2655 2523 2445 2521 2592
8 2524 2446 2523 2594 2591 2520 2592 2656
8 2595 2525 2593 2657 2527 2452 2523 2594
8 2602 2536 2596 2659 2534 2462 2528 2597
8 2600 2534 2597 2660 2532 2460 2529 2598
8 2600 2534 2460 2532 2661 2601 2533 2599
8 2604 2538 2601 2661 2537 2464 2533 2599
8 2602 2536 2462 2534 2663 2603 2535 2601
8 2601 2535 2465 2538 2663 2603 2539 2605
8 2607 2541 2605 2665 2540 2467 2538 2604
8 2608 2542 2606 2666 2541 2468 2539 2605
8 2543 2470 2544 2610 2607 2541 2608 2668
8 2544 2471 2545 2611 2608 2542 2609 2669
8 2546 2473 2547 2613 2610 2544 2611 2671
8 2547 2474 2548 2614 2611 2545 2612 2672
8 2549 2476 2550 2616 2613 2547 2614 2674
8 2550 2477 2551 2617 2614 2548 2615 2675
8 2552 2479 2553 2619 2616 2550 2617 2677
8 2553 2480 2554 2620 2617 2551 2618 2678
8 2557 2482 2556 2624 2619 2553 2620 2680
8 2556 2481 2555 2623 2620 2554 2621 2681
8 2559 2484 2558 2625 2623 2555 2622 2683
8 2560 2485 2559 2626 2624 2556 2623 2684
8 2562 2488 2561 2627 2626 2559 2625 2685
8 2690 2629 2564 2630 2650 2584 2512 2585
8 2586 2513 2585 2651 2632 2565 2630 2691
8 2630 2564 2631 2692 2565 2493 2566 2633
8 2632 2565 2633 2694 2567 2494 2568 2635
8 2633 2566 2634 2695 2568 2495 2569 2636
8 2635 2568 2636 2697 2570 2497 2571 2638
8 2636 2569 2637 2698 2571 2498 2572 2639
8 2638 2571 2639 2700 2573 2500 2574 2641
8 2639 2572 2640 2701 2574 2501 2575 2642
8 2641 2574 2642 2702 2576 2503 2577 2643
8 2597 2528 2596 2659 2645 2579 2644 2704
8 2645 2579 2644 2704 2593 2522 2590 2655
8 2660 2597 2645 2705 2598 2529 2580 2646
8 2646 2580 2645 2705 2595 2525 2593 2657
8 2650 2584 2512 2585 2707 2647 2582 2648
8 2648 2582 2517 2589 2707 2647 2587 2653
8 2649 2583 2648 2708 2586 2513 2585 2651
8 2649 2583 2516 2588 2708 2648 2589 2654
8 2655 2590 2652 2710 2592 2521 2587 2653
8 2654 2589 2520 2591 2711 2653 2592 2656
8 2657 2593 2655 2712 2594 2523 2592 2656
8 2602 2536 2603 2663 2659 2596 2658 2714
8 2662 2602 2659 2715 2600 2534 2597 2660
8 2662 2602 2534 2600 2717 2663 2601 2661
8 2661 2601 2538 2604 2717 2663 2605 2665
8 2666 2606 2664 2718 2605 2539 2603 2663
8 2668 2608 2666 2720 2607 2541 2605 2665
8 2608 2542 2609 2669 2666 2606 2667 2721
8 2610 2544 2611 2671 2668 2608 2669 2723
8 2611 2545 2612 2672 2669 2609 2670 2724
8 2613 2547 2614 2674 2671 2611 2672 2726
8 2614 2548 2615 2675 2672 2612 2673 2727
8 2616 2550 2617 2677 2674 2614 2675 2729
8 2617 2551 2618 2678 2675 2615 2676 2730
8 2619 2553 2620 2680 2677 2617 2678 2732
8 2620 2554 2621 2681 2678 2618 2679 2733
8 2624 2556 2623 2684 2680 2620 2681 2735
8 2681 2621 2555 2623 2736 2682 2622 2683
8 2626 2559 2625 2685 2684 2623 2683 2737
8 2688 2628 2584 2650 2740 2686 2647 2707
8 2688 2628 2687 2742 2650 2584 2629 2690
8 2690 2629 2689 2745 2630 2564 2631 2692
8 2746 2690 2630 2691 2709 2650 2585 2651
8 2691 2630 2692 2747 2632 2565 2633 2694
8 2692 2631 2693 2748 2633 2566 2634 2695
8 2694 2633 2695 2750 2635 2568 2636 2697
8 2695 2634 2696 2751 2636 2569 2637 2698
8 2697 2636 2698 2753 2638 2571 2639 2700
8 2698 2637 2699 2754 2639 2572 2640 2701
8 2700 2639 2701 2755 2641 2574 2642 2702
8 2659 2596 2658 2714 2704 2644 2703 2757
8 2704 2644 2703 2757 2655 2590 2652 2710
8 2660 2597 2659 2715 2705 2645 2704 2758
8 2705 2645 2704 2758 2657 2593 2655 2712
8 2759 2706 2647 2707 2710 2652 2587 2653
8 2709 2650 2585 2651 2760 2707 2648 2708
8 2708 2648 2589 2654 2760 2707 2653 2711
8 2712 2655 2710 2761 2656 2592 2653 2711
8 2763 2713 2658 2714 2718 2664 2603 2663
8 2662 2602 2663 2717 2715 2659 2714 2764
8 2720 2666 2718 2767 2665 2605 2663 2717
8 2768 2719 2664 2718 2721 2667 2606 2666
8 2668 2608 2669 2723 2720 2666 2721 2770
8 2669 2609 2670 2724 2721 2667 2722 2771
8 2671 2611 2672 2726 2723 2669 2724 2773
8 2672 2612 2673 2727 2724 2670 2725 2774
8 2674 2614 2675 2729 2726 2672 2727 2776
8 2675 2615 2676 2730 2727 2673 2728 2777
8 2677 2617 2678 2732 2729 2675 2730 2779
8 2678 2618 2679 2733 2730 2676 2731 2780
8 2680 2620 2681 2735 2732 2678 2733 2782
8 2733 2679 2621 2681 2783 2734 2682 2736
8 2735 2681 2623 2684 2784 2736 2683 2737
8 2740 2686 2647 2707 2787 2738 2706 2759
8 2688 2628 2686 2740 2742 2687 2739 2789
8 2743 2688 2650 2709 2790 2740 2707 2760
8 2742 2687 2741 2792 2690 2629 2689 2745
8 2743 2688 2742 2793 2709 2650 2690 2746
8 2745 2689 2744 2795 2692 2631 2693 2748
8 2746 2690 2745 2796 2691 2630 2692 2747
8 2747 2692 2748 2797 2694 2633 2695 2750
8 2748 2693 2749 2798 2695 2634 2696 2751
8 2750 2695 2751 2800 2697 2636 2698 2753
8 2751 2696 2752 2801 2698 2637 2699 2754
8 2753 2698 2754 2802 2700 2639 2701 2755
8 2763 2713 2756 2804 2714 2658 2703 2757
8 2759 2706 2652 2710 2804 2756 2703 2757
8 2715 2659 2714 2764 2758 2704 2757 2805
8 2758 2704 2757 2805 2712 2655 2710 2761
8 2806 2759 2707 2760 2761 2710 2653 2711
8 2765 2716 2762 2808 2718 2664 2713 2763
8 2809 2763 2714 2764 2767 2718 2663 2717
8 2765 2716 2664 2718 2811 2766 2719 2768
8 2813 2768 2718 2767 2770 2721 2666 2720
8 2814 2769 2719 2768 2771 2722 2667 2721
8 2723 2669 2724 2773 2770 2721 2771 2816
8 2724 2670 2725 2774 2771 2722 2772 2817
8 2726 2672 2727 2776 2773 2724 2774 2819
8 2727 2673 2728 2777 2774 2725 2775 2820
8 2729 2675 2730 2779 2776 2727 2777 2822
8 2730 2676 2731 2780 2777 2728 2778 2823
8 2732 2678 2733 2782 2779 2730 2780 2825
8 2780 2731 2679 2733 2826 2781 2734 2783
8 2782 2733 2681 2735 2827 2783 2736 2784
8 2830 2785 2738 2787 2804 2756 2706 2759
8 2789 2739 2686 2740 2832 2786 2738 2787
8 2790 2740 2707 2760 2833 2787 2759 2806
8 2742 2687 2739 2789 2792 2741 2788 2835
8 2743 2688 2740 2790 2793 2742 2789 2836
8 2792 2741 2791 2838 2745 2689 2744 2795
8 2793 2742 2792 2839 2746 2690 2745 2796
8 2795 2744 2794 2841 2748 2693 2749 2798
8 2796 2745 2795 2842 2747 2692 2748 2797
8 2797 2748 2798 2843 2750 2695 2751 2800
8 2798 2749 2799 2844 2751 2696 2752 2801
8 2800 2751 2801 2845 2753 2698 2754 2802
8 2808 2762 2803 2847 2763 2713 2756 2804
8 2809 2763 2804 2848 2764 2714 2757 2805
8 2806 2759 2710 2761 2848 2804 2757 2805
8 2765 2716 2766 2811 2808 2762 2807 2850
8 2810 2765 2808 2851 2767 2718 2763 2809
8 2810 2765 2718 2767 2852 2811 2768 2813
8 2811 2766 2719 2768 2853 2812 2769 2814
8 2855 2814 2768 2813 2816 2771 2721 2770
8 2856 2815 2769 2814 2817 2772 2722 2771
8 2773 2724 2774 2819 2816 2771 2817 2858
8 2774 2725 2775 2820 2817 2772 2818 2859
8 2776 2727 2777 2822 2819 2774 2820 2861
8 2777 2728 2778 2823 2820 2775 2821 2862
8 2779 2730 2780 2825 2822 2777 2823 2864
8 2823 2778 2731 2780 2865 2824 2781 2826
8 2825 2780 2733 2782 2866 2826 2783 2827
8 2869 2828 2785 2830 2847 2803 2756 2804
8 2871 2829 2786 2832 2830 2785 2738 2787
8 2872 2830 2787 2833 2848 2804 2759 2806
8 2789 2739 2786 2832 2835 2788 2831 2874
8 2836 2789 2740 2790 2875 2832 2787 2833
8 2792 2741 2788 2835 2838 2791 2834 2877
8 2793 2742 2789 2836 2839 2792 2835 2878
8 2838 2791 2837 2880 2795 2744 2794 2841
8 2839 2792 2838 2881 2796 2745 2795 2842
8 2841 2794 2840 2882 2798 2749 2799 2844
8 2842 2795 2841 2883 2797 2748 2798 2843
8 2843 2798 2844 2884 2800 2751 2801 2845
8 2886 2846 2803 2847 2850 2807 2762 2808
8 2851 2808 2847 2887 2809 2763 2804 2848
8 2850 2807 2766 2811 2889 2849 2812 2853
8 2810 2765 2811 2852 2851 2808 2850 2890
8 2852 2811 2768 2813 2891 2853 2814 2855
8 2853 2812 2769 2814 2892 2854 2815 2856
8 2894 2856 2814 2855 2858 2817 2771 2816
8 2817 2772 2818 2859 2856 2815 2857 2895
8 2819 2774 2820 2861 2858 2817 2859 2897
8 2820 2775 2821 2862 2859 2818 2860 2898
8 2822 2777 2823 2864 2861 2820 2862 2900
8 2823 2778 2824 2865 2862 2821 2863 2901
8 2864 2823 2780 2825 2902 2865 2826 2866
8 2904 2867 2828 2869 2886 2846 2803 2847
8 2869 2828 2868 2906 2830 2785 2829 2871
8 2907 2869 2830 2872 2887 2847 2804 2848
8 2871 2829 2870 2909 2832 2786 2831 2874
8 2910 2871 2832 2875 2872 2830 2787 2833
8 2835 2788 2831 2874 2877 2834 2873 2912
8 2836 2789 2832 2875 2878 2835 2874 2913
8 2877 2834 2876 2915 2838 2791 2837 2880
8 2839 2792 2835 2878 2881 2838 2877 2916
8 2880 2837 2879 2917 2841 2794 2840 2882
8 2881 2838 2880 2918 2842 2795 2841 2883
8 2883 2841 2882 2919 2843 2798 2844 2884
8 2921 2885 2846 2886 2889 2849 2807 2850
8 2922 2886 2847 2887 2890 2850 2808 2851
8 2889 2849 2812 2853 2924 2888 2854 2892
8 2890 2850 2811 2852 2925 2889 2853 2891
8 2891 2853 2814 2855 2926 2892 2856 2894
8 2892 2854 2815 2856 2927 2893 2857 2895
8 2858 2817 2859 2897 2894 2856 2895 2929
8 2859 2818 2860 2898 2895 2857 2896 2930
8 2861 2820 2862 2900 2897 2859 2898 2932
8 2862 2821 2863 2901 2898 2860 2899 2933
8 2864 2823 2865 2902 2900 2862 2901 2934
8 2904 2867 2846 2886 2936 2903 2885 2921
8 2904 2867 2903 2936 2869 2828 2868 2906
8 2937 2904 2869 2907 2922 2886 2847 2887
8 2906 2868 2905 2939 2871 2829 2870 2909
8 2907 2869 2906 2940 2872 2830 2871 2910
8 2909 2870 2908 2942 2874 2831 2873 2912
8 2910 2871 2909 2943 2875 2832 2874 2913
8 2912 2873 2911 2945 2877 2834 2876 2915
8 2878 2835 2874 2913 2916 2877 2912 2946
8 2915 2876 2914 2947 2880 2837 2879 2917
8 2916 2877 2915 2948 2881 2838 2880 2918
8 2918 2880 2917 2949 2883 2841 2882 2919
8 2921 2885 2849 2889 2951 2920 2888 2924
8 2952 2921 2886 2922 2925 2889 2850 2890
8 2924 2888 2854 2892 2954 2923 2893 2927
8 2925 2889 2853 2891 2955 2924 2892 2926
8 2926 2892 2856 2894 2956 2927 2895 2929
8 2895 2857 2896 2930 2927 2893 2928 2957
8 2897 2859 2898 2932 2929 2895 2930 2959
8 2898 2860 2899 2933 2930 2896 2931 2960
8 2900 2862 2901 2934 2932 2898 2933 2961
8 2936 2903 2885 2921 2963 2935 2920 2951
8 2936 2903 2935 2963 2906 2868 2905 2939
8 2937 2904 2886 2922 2964 2936 2921 2952
8 2937 2904 2936 2964 2907 2869 2906 2940
8 2939 2905 2938 2966 2909 2870 2908 2942
8 2940 2906 2939 2967 2910 2871 2909 2943
8 2942 2908 2941 2969 2912 2873 2911 2945
8 2943 2909 2942 2970 2913 2874 2912 2946
8 2945 2911 2944 2971 2915 2876 2914 2947
8 2946 2912 2945 2972 2916 2877 2915 2948
8 2948 2915 2947 2973 2918 2880 2917 2949
8 2951 2920 2888 2924 2975 2950 2923 2954
8 2952 2921 2889 2925 2976 2951 2924 2955
8 2927 2893 2928 2957 2954 2923 2953 2978
8 2955 2924 2892 2926 2979 2954 2927 2956
8 2929 2895 2930 2959 2956 2927 2957 2980
8 2930 2896 2931 2960 2957 2928 2958 2981
8 2932 2898 2933 2961 2959 2930 2960 2982
8 2951 2920 2950 2975 2963 2935 2962 2984
8 2963 2935 2962 2984 2939 2905 2938 2966
8 2964 2936 2921 2952 2985 2963 2951 2976
8 2964 2936 2963 2985 2940 2906 2939 2967
8 2966 2938 2965 2987 2942 2908 2941 2969
8 2967 2939 2966 2988 2943 2909 2942 2970
8 2969 2941 2968 2989 2945 2911 2944 2971
8 2970 2942 2969 2990 2946 2912 2945 2972
8 2972 2945 2971 2991 2948 2915 2947 2973
8 2954 2923 2953 2978 2975 2950 2974 2993
8 2976 2951 2924 2955 2994 2975 2954 2979
8 2957 2928 2958 2981 2978 2953 2977 2995
8 2956 2927 2957 2980 2979 2954 2978 2996
8 2959 2930 2960 2982 2980 2957 2981 2997
8 2984 2962 2983 2999 2966 2938 2965 2987
8 2975 2950 2974 2993 2984 2962 2983 2999
8 2976 2951 2975 2994 2985 2963 2984 3000
8 2985 2963 2984 3000 2967 2939 2966 2988
8 2987 2965 2986 3001 2969 2941 2968 2989
8 2988 2966 2987 3002 2970 2942 2969 2990
8 2990 2969 2989 3003 2972 2945 2971 2991
8 2978 2953 2977 2995 2993 2974 2992 3004
8 2979 2954 2978 2996 2994 2975 2993 3005
8 2980 2957 2981 2997 2996 2978 2995 3006
8 2974 2993 2999 2983 2992 3004 3007 2998
8 2983 2999 2987 2965 2998 3007 3001 2986
8 3000 2984 2999 3008 2988 2966 2987 3002
8 2994 2975 2993 3005 3000 2984 2999 3008
8 3002 2987 3001 3009 2990 2969 2989 3003
8 2996 2978 2995 3006 3005 2993 3004 3010
8 3005 2993 3004 3010 3008 2999 3007 3011
8 3008 2999 3007 3011 3002 2987 3001 3009

CELL_TYPES 1910
12
12
12
12
12
12
12
12
12
12
12
12
12
12
12
12
12
12
12
12
12
12
12
12
12
12
12
12
12
12
12
12
12
12
12
12
12
12
12
12
12
12
12
12
12
12
12
12
12
12
12
12
12
12
12
12
12
12
12
12
12
12
12
12
12
12
12
12
12
12
12
12
12
12
12
12
12
12
12
12
12
12
12
12
12
12
12
12
12
12
12
12
12
12
12
12
12
12
12
12
12
12
12
12
12
12
12
12
12
12
12
12
12
12
12
12
12
12
12
12
12
12
12
12
12
12
12
12
12
12
12
12
12
12
12
12
12
12
12
12
12
12
12
12
12
12
12
12
12
12
12
12
12
12
12
12
12
12
12
12
12
12
12
12
12
12
12
12
12
12
12
12
12
12
12
12
12
12
12
12
12
12
12
12
12
12
12
12
12
12
12
12
12
12
12
12
12
12
12
12
12
12
12
12
12
12
12
12
12
12
12
12
12
12
12
12
12
12
12
12
12
12
12
12
12
12
12
12
12
12
12
12
12
12
12
12
12
12
12
12
12
12
12
12
12
12
12
12
12
12
12
12
12
12
12
12
12
12
12
12
12
12
12
12
12
12
12
12
12
12
12
12
12
12
12
12
12
12
12
12
12
12
12
12
12
12
12
12
12
12
12
12
12
12
12
12
12
12
12
12
12
12
12
12
12
12
12
12
12
12
12
12
12
12
12
12
12
12
12
12
12
12
12
12
12
12
12
12
12
12
12
12
12
12
12
12
12
12
12
12
12
12
12
12
12
12
12
12
12
12
12
12
12
12
12
12
12
12
12
12
12
12
12
12
12
12
12
12
12
12
12
12
12
12
12
12
12
12
12
12
12
12
12
12
12
12
12
12
12
12
12
12
12
12
12
12
12
12
12
12
12
12
12
12
12
12
12
12
12
12
12
12
12
12
12
12
12
12
12
12
12
12
12
12
12
12
12
12
12
12
12
12
12
12
12
12
12
12
12
12
12
12
12
12
12
12
12
12
12
12
12
12
12
12
12
12
12
12
12
12
12
12
12
12
12
12
12
12
12
12
12
12
12
12
12
12
12
12
12
12
12
12
12
12
12
12
12
12
12
12
12
12
12
12
12
12
12
12
12
12
12
12
12
12
12
12
12
12
12
12
12
12
12
12
12
12
12
12
12
12
12
12
12
12
12
12
12
12
12
12
12
12
12
12
12
12
12
12
12
12
12
12
12
12
12
12
12
12
12
12
12
12
12
12
12
12
12
12
12
12
12
12
12
12
12
12
12
12
12
12
12
12
12
12
12
12
12
12
12
12
12
12
12
12
12
12
12
12
12
12
12
12
12
12
12
12
12
12
12
12
12
12
12
12
12
12
12
12
12
12
12
12
12
12
12
12
12
12
12
12
12
12
12
12
12
12
12
12
12
12
12
12
12
12
12
12
12
12
12
12
12
12
12
12
12
12
12
12
12
12
12
12
12
12
12
12
12
12
12
12
12
12
12
12
12
12
12
12
12
12
12
12
12
12
12
12
12
12
12
12
12
12
12
12
12
12
12
12
12
12
12
12
12
12
12
12
12
12
12
12
12
12
12
12
12
12
12
12
12
12
12
12
12
12
12
12
12
12
12
12
12
12
12
12
12
12
12
12
12
12
12
12
12
12
12
12
12
12
12
12
12
12
12
12
12
12
12
12
12
12
12
12
12
12
12
12
12
12
12
12
12
12
12
12
12
12
12
12
12
12
12
12
12
12
12
12
12
12
12
12
12
12
12
12
12
12
12
12
12
12
12
12
12
12
12
12
12
12
12
12
12
12
12
12
12
12
12
12
12
12
12
12
12
12
12
12
12
12
12
12
12
12
12
12
12
12
12
12
12
12
12
12
12
12
12
12
12
12
12
12
12
12
12
12
12
12
12
12
12
12
12
12
12
12
12
12
12
12
12
12
12
12
12
12
12
12
12
12
12
12
12
12
12
12
12
12
12
12
12
12
12
12
12
12
12
12
12
12
12
12
12
12
12
12
12
12
12
12
12
12
12
12
12
12
12
12
12
12
12
12
12
12
12
12
12
12
12
12
12
12
12
12
12
12
12
12
12
12
12
12
12
12
12
12
12
12
12
12
12
12
12
12
12
12
12
12
12
12
12
12
12
12
12
12
12
12
12
12
12
12
12
12
12
12
12
12
12
12
12
12
12
12
12
12
12
12
12
12
12
12
12
12
12
12
12
12
12
12
12
12
12
12
12
12
12
12
12
12
12
12
12
12
12
12
12
12
12
12
12
12
12
12
12
12
12
12
12
12
12
12
12
12
12
12
12
12
12
12
12
12
12
12
12
12
12
12
12
12
12
12
12
12
12
12
12
12
12
12
12
12
12
12
12
12
12
12
12
12
12
12
12
12
12
12
12
12
12
12
12
12
12
12
12
12
12
12
12
12
12
12
12
12
12
12
12
12
12
12
12
12
12
12
12
12
12
12
12
12
12
12
12
12
12
12
12
12
12
12
12
12
12
12
12
12
12
12
12
12
12
12
12
12
12
12
12
12
12
12
12
12
12
12
12
12
12
12
12
12
12
12
12
12
12
12
12
12
12
12
12
12
12
12
12
12
12
12
12
12
12
12
12
12
12
12
12
12
12
12
12
12
12
12
12
12
12
12
12
12
12
12
12
12
12
12
12
12
12
12
12
12
12
12
12
12
12
12
12
12
12
12
12
12
12
12
12
12
12
12
12
12
12
12
12
12
12
12
12
12
12
12
12
12
12
12
12
12
12
12
12
12
12
12
12
12
12
12
12
12
12
12
12
12
12
12
12
12
12
12
12
12
12
12
12
12
12
12
12
12
12
12
12
12
12
12
12
12
12
12
12
12
12
12
12
12
12
12
12
12
12
12
12
12
12
12
12
12
12
12
12
12
12
12
12
12
12
12
12
12
12
12
12
12
12
12
12
12
12
12
12
12
12
12
12
12
12
12
12
12
12
12
12
12
12
12
12
12
12
12
12
12
12
12
12
12
12
12
12
12
12
12
12
12
12
12
12
12
12
12
12
12
12
12
12
12
12
12
12
12
12
12
12
12
12
12
12
12
12
12
12
12
12
12
12
12
12
12
12
12
12
12
12
12
12
12
12
12
12
12
12
12
12
12
12
12
12
12
12
12
12
12
12
12
12
12
12
12
12
12
12
12
12
12
12
12
12
12
12
12
12
12
12
12
12
12
12
12
12
12
12
12
12
12
12
12
12
12
12
12
12
12
12
12
12
12
12
12
12
12
12
12
12
12
12
12
12
12
12
12
12
12
12
12
12
12
12
12
12
12
12
12
12
12
12
12
12
12
12
12
12
12
12
12
12
12
12
12
12
12
12
12
12
12
12
12
12
12
12
12
12
12
12
12
12
12
12
12
12
12
12
12
12
12
12
12
12
12
12
12
12
12
12
12
12
12
12
12
12
12
12
12
12
12
12
12
12
12
12
12
12
12
12
12
12
12
12
12
12
12
12
12
12
12
12
12
12
12
12
12
12
12
12
12
12
12
12
12
12
12
12
12
12
12
12
12
12
12
12
12
12
12
12
12
12
12
12
12
12
12
12
12
12
12
12
12
12
12
12
12
12
12
12
12
12
12
12
12
12
12
12
12
12
12
12
12
12
12
12
12
12
12
12
12
12
12
12
12
12
12
12
12
12
12
12
12
12
12
12
12
12
12
12
12
12
12
12
12
12
12
12
12
12
12
12
12
12
12
12
12
12
12
12
12
12
12
12
12
12
12
12
12
12
12
12
12
12
12
12
12
12
12
12
12
12
12
12
12
12
12
12
12
12
12
12
12
12
12
12
12
12
12
12
12
12
12
12
12
12
12
12
12
12
12
12
12
12
12
12
12
12
12
12
12
12
12
12
12
12
12
12
12
12
12
12
12
12
12
12
12
12
12
12
12
12
12
12
12
12
12
12
12
12
12
12
12
12
12
12
12
12
12
12
12
12
12
12
12
12
12
12
12
12
12
12
12
12
12
12
12
12
12
12
12
12
12
12
12
12
12
12
12
12
12
12
12
12
12
12
12
12
12
12
12
12
12
12
12
12
12
12
12
12
12
12
12
12
12
12
12
12
12
12
12
12
12
12
12
12
12
12
12
12
12
12
12
12
12
12
12
12
12
12
12
12
12
12
12
12
12
12
12
12
12
12
12
12
12
12
12
12
12
12
12
12
12
12
12
12
12
12
12
12
12
12
12
12
12
12
12
12
12
12
12
12
12
12
12
12
12
12
12
12
12
12
12
12
12
12
12
12
12
12
12
12
12
12
12
12
12
12
12

POINT_DATA 3012
SCALARS Jp_lamdaP float 4
LOOKUP_TABLE default
1 1 1 1
1 1 1 1
1 1 1 1
1 1 1 1
1 1 1 1
1 1 1 1
0.999996 1 1 0.999996
1 1 1 1
1 1 1 1
1 1 1 1
1 1 1 1
1 1 1 1
1 1 1 1
1 1 1 1
1 1 1 1
1 1 1 1
1 1 1 1
1 1 1 1
0.999996 1 1 0.999996
1 1 1 1
1 1 1 1
1 1 1 1
0.999989 1 1 0.999989
0.999994 1 1 0.999994
1 1 1 1
0.999998 1 1 0.999998
0.999978 1 1 0.999978
1 1 1 1
1 1 1 1
1 1 1 1
1 1 1 1
1 1 1 1
1 1 1 1
1 1 1 1
1 1 1 1
1 1 1 1
1 1 1 1
1 1 1 1
0.999988 1 1 0.999988
1 1 1 1
1 1 1 1
1 1 1 1
1 1 1 1
1 1 1 1
0.999993 1 1 0.999993
1 1 1 1
0.999997 1 1 0.999997
1 1 1 1
1 1 1 1
1 1 1 1
0.999997 1 1 0.999997
1 1 1 1
1 1 1 1
1 1 1 1
1 1 1 1
0.999989 1 1 0.999989
0.999998 1 1 0.999998
0.999995 1 1 0.999995
0.999977 1 1 0.999977
1 1 1 1
1 1 1 1
0.999993 1 1 0.999993
0.999985 1 1 0.999985
0.999992 1 1 0.999992
0.999956 1 1 0.999956
0.999967 1 1 0.999967
1 1 1 1
0.999999 1 1 0.999999
0.999985 1 1 0.999985
0.999934 1 1 0.999934
1 1 1 1
1 1 1 1
1 1 1 1
1 1 1 1
1 1 1 1
1 1 1 1
1 1 1 1
1 1 1 1
1 1 1 1
1 1 1 1
0.999988 1 1 0.999988
1 1 1 1
1 1 1 1
1 1 1 1
1 1 1 1
0.999963 1 1 0.999963
1 1 1 1
0.999982 1 1 0.999982
0.999992 1 1 0.999992
0.999951 1 1 0.999951
1 1 1 1
1 1 1 1
1 1 1 1
1 1 1 1
1 1 1 1
1 1 1 1
0.999994 1 1 0.999994
1 1 1 1
0.999998 1 1 0.999998
1 1 1 1
0.999992 1 1 0.999992
0.999995 1 1 0.999995
0.999939 1 1 0.999939
0.999999 1 1 0.999999
0.999945 1 1 0.999945
1 1 1 1
1 1 1 1
1 1 1 1
1 1 1 1
0.999989 1 1 0.999989
0.999995 1 1 0.999995
0.999998 1 1 0.999998
0.999976 1 1 0.999976
1 1 1 1
1 1 1 1
0.999988 1 1 0.999988
0.999986 1 1 0.999986
1 1 1 1
1 1 1 1
0.999992 1 1 0.999992
0.999953 1 1 0.999953
0.999984 1 1 0.999984
0.99997 1 1 0.99997
0.999934 1 1 0.999934
0.999992 1 1 0.999992
0.999984 1 1 0.999984
0.99994 1 1 0.99994
0.999945 1 1 0.999945
0.99996 1 1 0.99996
0.999914 1 1 0.999914
1 1 1 1
0.999929 1 1 0.999929
1 1 1 1
0.999989 1 1 0.999989
0.999939 1 1 0.999939
0.999915 1 1 0.999915
1 1 1 1
0.999995 1 1 0.999995
1 1 1 1
1 1 1 1
1 1 1 1
1 1 1 1
1 1 1 1
1 1 1 1
0.999989 1 1 0.999989
1 1 1 1
1 1 1 1
1 1 1 1
1 1 1 1
0.999963 1 1 0.999963
1 1 1 1
0.999983 1 1 0.999983
0.999992 1 1 0.999992
0.999949 1 1 0.999949
1 1 1 1
1 1 1 1
0.999996 1 1 0.999996
0.999955 1 1 0.999955
0.999973 1 1 0.999973
0.999922 1 1 0.999922
0.999995 1 1 0.999995
0.999942 1 1 0.999942
0.999955 1 1 0.999955
0.999932 1 1 0.999932
1 1 1 1
1 1 1 1
1 1 1 1
1 1 1 1
1 1 1 1
1 1 1 1
1 1 1 1
0.999998 1 1 0.999998
0.999994 1 1 0.999994
1 1 1 1
1 1 1 1
0.999992 1 1 0.999992
0.999996 1 1 0.999996
0.999939 1 1 0.999939
0.999999 1 1 0.999999
0.999945 1 1 0.999945
0.999992 1 1 0.999992
0.999939 1 1 0.999939
0.999941 1 1 0.999941
0.99991 1 1 0.99991
0.99995 1 1 0.99995
0.999912 1 1 0.999912
1 1 1 1
1 1 1 1
0.999982 1 1 0.999982
0.999986 1 1 0.999986
1 1 1 1
1 1 1 1
0.999993 1 1 0.999993
0.999951 1 1 0.999951
0.999972 1 1 0.999972
0.999983 1 1 0.999983
0.999934 1 1 0.999934
0.999992 1 1 0.999992
0.999984 1 1 0.999984
0.999935 1 1 0.999935
0.999947 1 1 0.999947
1 1 1 1
1 1 1 1
0.999989 1 1 0.999989
0.99996 1 1 0.99996
0.999911 1 1 0.999911
0.999938 1 1 0.999938
0.999931 1 1 0.999931
0.999915 1 1 0.999915
1 1 1 1
0.999995 1 1 0.999995
0.999937 1 1 0.999937
0.999941 1 1 0.999941
0.999905 1 1 0.999905
0.9999 1 1 0.9999
0.999925 1 1 0.999925
0.999896 1 1 0.999896
1 1 1 1
0.999912 1 1 0.999912
0.999993 1 1 0.999993
0.999945 1 1 0.999945
0.99992 1 1 0.99992
0.999909 1 1 0.999909
0.999994 1 1 0.999994
0.999995 1 1 0.999995
0.999958 1 1 0.999958
1 1 1 1
1 1 1 1
1 1 1 1
1 1 1 1
0.999963 1 1 0.999963
1 1 1 1
0.999993 1 1 0.999993
0.999983 1 1 0.999983
0.999948 1 1 0.999948
1 1 1 1
1 1 1 1
0.999996 1 1 0.999996
0.999955 1 1 0.999955
0.999974 1 1 0.999974
0.999922 1 1 0.999922
0.999995 1 1 0.999995
0.999943 1 1 0.999943
0.999955 1 1 0.999955
0.99993 1 1 0.99993
1 1 1 1
0.999996 1 1 0.999996
0.999996 1 1 0.999996
0.999963 1 1 0.999963
0.999917 1 1 0.999917
0.999933 1 1 0.999933
0.999903 1 1 0.999903
0.99996 1 1 0.99996
0.999923 1 1 0.999923
0.999928 1 1 0.999928
0.999917 1 1 0.999917
0.999997 1 1 0.999997
1 1 1 1
1 1 1 1
1 1 1 1
1 1 1 1
1 1 1 1
1 1 1 1
1 1 1 1
1 1 1 1
0.999999 1 1 0.999999
0.999996 1 1 0.999996
0.999945 1 1 0.999945
0.999939 1 1 0.999939
0.999992 1 1 0.999992
1 1 1 1
0.999992 1 1 0.999992
0.999939 1 1 0.999939
0.999941 1 1 0.999941
0.999909 1 1 0.999909
0.99995 1 1 0.99995
0.999912 1 1 0.999912
0.999939 1 1 0.999939
0.999913 1 1 0.999913
0.999909 1 1 0.999909
0.999898 1 1 0.999898
0.999915 1 1 0.999915
0.9999 1 1 0.9999
0.999992 1 1 0.999992
0.999984 1 1 0.999984
0.999929 1 1 0.999929
0.999949 1 1 0.999949
1 1 1 1
1 1 1 1
0.999988 1 1 0.999988
0.99996 1 1 0.99996
0.999907 1 1 0.999907
0.999933 1 1 0.999933
0.999938 1 1 0.999938
0.999915 1 1 0.999915
1 1 1 1
0.999995 1 1 0.999995
0.999935 1 1 0.999935
0.999941 1 1 0.999941
0.999905 1 1 0.999905
0.999904 1 1 0.999904
1 1 1 1
0.999992 1 1 0.999992
0.999947 1 1 0.999947
0.999925 1 1 0.999925
0.999895 1 1 0.999895
0.999917 1 1 0.999917
0.999912 1 1 0.999912
0.999909 1 1 0.999909
0.999994 1 1 0.999994
0.999957 1 1 0.999957
0.999995 1 1 0.999995
0.999911 1 1 0.999911
0.999902 1 1 0.999902
0.99989 1 1 0.99989
0.999886 1 1 0.999886
0.999907 1 1 0.999907
0.999894 1 1 0.999894
0.999994 1 1 0.999994
0.999908 1 1 0.999908
0.999955 1 1 0.999955
0.999921 1 1 0.999921
0.999906 1 1 0.999906
0.999914 1 1 0.999914
0.999996 1 1 0.999996
0.999959 1 1 0.999959
0.999954 1 1 0.999954
0.999936 1 1 0.999936
0.999954 1 1 0.999954
1 1 1 1
1 1 1 1
0.999996 1 1 0.999996
0.999974 1 1 0.999974
0.999922 1 1 0.999922
0.999995 1 1 0.999995
0.999955 1 1 0.999955
0.999944 1 1 0.999944
0.999928 1 1 0.999928
1 1 1 1
0.999996 1 1 0.999996
0.999996 1 1 0.999996
0.999963 1 1 0.999963
0.999916 1 1 0.999916
0.999933 1 1 0.999933
0.999903 1 1 0.999903
0.99996 1 1 0.99996
0.999925 1 1 0.999925
0.999927 1 1 0.999927
0.99992 1 1 0.99992
1 1 1 1
0.999996 1 1 0.999996
0.999962 1 1 0.999962
0.999963 1 1 0.999963
0.999933 1 1 0.999933
0.999902 1 1 0.999902
0.999912 1 1 0.999912
0.999897 1 1 0.999897
0.99993 1 1 0.99993
0.999913 1 1 0.999913
0.999903 1 1 0.999903
0.999997 1 1 0.999997
0.999968 1 1 0.999968
0.999998 1 1 0.999998
0.999997 1 1 0.999997
1 1 1 1
1 1 1 1
1 1 1 1
1 1 1 1
1 1 1 1
1 1 1 1
1 1 1 1
1 1 1 1
1 1 1 1
1 1 1 1
1 1 1 1
0.999949 1 1 0.999949
0.999941 1 1 0.999941
0.999912 1 1 0.999912
0.999909 1 1 0.999909
0.999939 1 1 0.999939
0.999991 1 1 0.999991
0.999939 1 1 0.999939
0.999913 1 1 0.999913
0.999909 1 1 0.999909
0.999899 1 1 0.999899
0.999915 1 1 0.999915
0.999901 1 1 0.999901
0.999912 1 1 0.999912
0.999905 1 1 0.999905
0.999897 1 1 0.999897
0.999894 1 1 0.999894
0.999903 1 1 0.999903
0.999902 1 1 0.999902
0.999933 1 1 0.999933
0.999941 1 1 0.999941
0.999905 1 1 0.999905
0.999908 1 1 0.999908
1 1 1 1
0.999992 1 1 0.999992
0.99995 1 1 0.99995
0.999925 1 1 0.999925
0.999894 1 1 0.999894
0.999912 1 1 0.999912
0.999915 1 1 0.999915
0.999909 1 1 0.999909
0.999994 1 1 0.999994
0.999955 1 1 0.999955
0.999995 1 1 0.999995
0.99991 1 1 0.99991
0.999901 1 1 0.999901
0.999888 1 1 0.999888
0.999887 1 1 0.999887
0.999994 1 1 0.999994
0.999955 1 1 0.999955
0.999924 1 1 0.999924
0.999908 1 1 0.999908
0.999895 1 1 0.999895
0.999905 1 1 0.999905
0.999908 1 1 0.999908
0.999915 1 1 0.999915
0.999959 1 1 0.999959
0.999933 1 1 0.999933
0.999996 1 1 0.999996
0.999954 1 1 0.999954
0.999895 1 1 0.999895
0.999883 1 1 0.999883
0.999879 1 1 0.999879
0.999884 1 1 0.999884
0.999905 1 1 0.999905
0.999898 1 1 0.999898
0.999959 1 1 0.999959
0.999915 1 1 0.999915
0.999929 1 1 0.999929
0.999906 1 1 0.999906
0.999901 1 1 0.999901
0.999918 1 1 0.999918
0.999996 1 1 0.999996
0.999954 1 1 0.999954
0.999934 1 1 0.999934
0.999929 1 1 0.999929
0.999921 1 1 0.999921
1 1 1 1
0.999916 1 1 0.999916
0.999996 1 1 0.999996
0.999996 1 1 0.999996
0.999963 1 1 0.999963
0.999933 1 1 0.999933
0.999903 1 1 0.999903
0.99996 1 1 0.99996
0.999927 1 1 0.999927
0.999926 1 1 0.999926
0.999922 1 1 0.999922
1 1 1 1
0.999996 1 1 0.999996
0.999962 1 1 0.999962
0.999963 1 1 0.999963
0.999932 1 1 0.999932
0.999902 1 1 0.999902
0.999912 1 1 0.999912
0.999897 1 1 0.999897
0.99993 1 1 0.99993
0.999914 1 1 0.999914
0.999905 1 1 0.999905
0.999996 1 1 0.999996
0.999964 1 1 0.999964
0.999931 1 1 0.999931
0.999932 1 1 0.999932
0.999919 1 1 0.999919
0.999902 1 1 0.999902
0.999904 1 1 0.999904
0.999909 1 1 0.999909
0.999907 1 1 0.999907
0.999893 1 1 0.999893
0.999997 1 1 0.999997
0.999961 1 1 0.999961
0.999965 1 1 0.999965
0.999939 1 1 0.999939
0.999969 1 1 0.999969
0.999998 1 1 0.999998
0.999998 1 1 0.999998
1 1 1 1
0.999997 1 1 0.999997
1 1 1 1
1 1 1 1
1 1 1 1
1 1 1 1
1 1 1 1
1 1 1 1
1 1 1 1
1 1 1 1
1 1 1 1
1 1 1 1
1 1 1 1
0.999914 1 1 0.999914
0.999909 1 1 0.999909
0.999901 1 1 0.999901
0.999899 1 1 0.999899
0.999913 1 1 0.999913
0.999939 1 1 0.999939
0.999912 1 1 0.999912
0.999906 1 1 0.999906
0.999897 1 1 0.999897
0.999893 1 1 0.999893
0.999903 1 1 0.999903
0.999901 1 1 0.999901
0.999905 1 1 0.999905
0.999904 1 1 0.999904
0.999892 1 1 0.999892
0.999887 1 1 0.999887
0.999906 1 1 0.999906
0.999904 1 1 0.999904
0.999908 1 1 0.999908
0.999901 1 1 0.999901
0.999886 1 1 0.999886
0.999888 1 1 0.999888
0.999994 1 1 0.999994
0.999955 1 1 0.999955
0.999926 1 1 0.999926
0.999909 1 1 0.999909
0.999895 1 1 0.999895
0.999908 1 1 0.999908
0.999903 1 1 0.999903
0.999916 1 1 0.999916
0.999959 1 1 0.999959
0.99993 1 1 0.99993
0.999995 1 1 0.999995
0.999954 1 1 0.999954
0.999895 1 1 0.999895
0.999884 1 1 0.999884
0.999878 1 1 0.999878
0.999885 1 1 0.999885
0.999959 1 1 0.999959
0.999931 1 1 0.999931
0.999906 1 1 0.999906
0.999905 1 1 0.999905
0.9999 1 1 0.9999
0.9999 1 1 0.9999
0.999915 1 1 0.999915
0.999921 1 1 0.999921
0.999935 1 1 0.999935
0.999919 1 1 0.999919
0.999929 1 1 0.999929
0.999993 1 1 0.999993
0.999954 1 1 0.999954
0.999889 1 1 0.999889
0.999874 1 1 0.999874
0.999889 1 1 0.999889
0.99991 1 1 0.99991
0.999935 1 1 0.999935
0.999928 1 1 0.999928
0.999914 1 1 0.999914
0.999891 1 1 0.999891
0.999898 1 1 0.999898
0.999991 1 1 0.999991
0.999961 1 1 0.999961
0.999926 1 1 0.999926
0.999921 1 1 0.999921
0.999909 1 1 0.999909
0.999909 1 1 0.999909
1 1 1 1
0.999996 1 1 0.999996
0.999901 1 1 0.999901
0.999963 1 1 0.999963
0.999962 1 1 0.999962
0.999931 1 1 0.999931
0.999912 1 1 0.999912
0.999896 1 1 0.999896
0.99993 1 1 0.99993
0.999906 1 1 0.999906
0.999915 1 1 0.999915
0.999997 1 1 0.999997
0.999964 1 1 0.999964
0.999933 1 1 0.999933
0.999932 1 1 0.999932
0.999917 1 1 0.999917
0.999901 1 1 0.999901
0.999903 1 1 0.999903
0.99991 1 1 0.99991
0.999906 1 1 0.999906
0.999891 1 1 0.999891
0.999964 1 1 0.999964
0.999928 1 1 0.999928
0.999912 1 1 0.999912
0.999912 1 1 0.999912
0.999907 1 1 0.999907
0.999925 1 1 0.999925
0.999895 1 1 0.999895
0.999909 1 1 0.999909
0.999892 1 1 0.999892
0.999873 1 1 0.999873
0.999997 1 1 0.999997
0.999963 1 1 0.999963
0.999929 1 1 0.999929
0.999963 1 1 0.999963
0.999969 1 1 0.999969
0.999935 1 1 0.999935
0.999915 1 1 0.999915
0.999933 1 1 0.999933
0.999969 1 1 0.999969
0.999998 1 1 0.999998
0.999998 1 1 0.999998
1 1 1 1
0.999998 1 1 0.999998
1 1 1 1
1 1 1 1
1 1 1 1
1 1 1 1
1 1 1 1
1 1 1 1
1 1 1 1
1 1 1 1
1 1 1 1
1 1 1 1
1 1 1 1
0.999903 1 1 0.999903
0.999897 1 1 0.999897
0.999901 1 1 0.999901
0.999891 1 1 0.999891
0.999907 1 1 0.999907
0.999913 1 1 0.999913
0.999905 1 1 0.999905
0.999904 1 1 0.999904
0.999892 1 1 0.999892
0.999884 1 1 0.999884
0.999906 1 1 0.999906
0.999904 1 1 0.999904
0.99991 1 1 0.99991
0.999898 1 1 0.999898
0.999886 1 1 0.999886
0.999923 1 1 0.999923
0.999896 1 1 0.999896
0.999884 1 1 0.999884
0.999876 1 1 0.999876
0.999885 1 1 0.999885
0.999959 1 1 0.999959
0.999932 1 1 0.999932
0.999906 1 1 0.999906
0.999904 1 1 0.999904
0.999901 1 1 0.999901
0.999915 1 1 0.999915
0.999899 1 1 0.999899
0.999924 1 1 0.999924
0.999935 1 1 0.999935
0.999917 1 1 0.999917
0.999928 1 1 0.999928
0.99999 1 1 0.99999
0.999954 1 1 0.999954
0.999886 1 1 0.999886
0.999875 1 1 0.999875
0.99989 1 1 0.99989
0.999935 1 1 0.999935
0.999916 1 1 0.999916
0.99989 1 1 0.99989
0.999909 1 1 0.999909
0.999901 1 1 0.999901
0.999928 1 1 0.999928
0.999991 1 1 0.999991
0.999921 1 1 0.999921
0.99991 1 1 0.99991
0.99991 1 1 0.99991
0.999928 1 1 0.999928
0.999958 1 1 0.999958
0.999883 1 1 0.999883
0.999874 1 1 0.999874
0.999901 1 1 0.999901
0.999926 1 1 0.999926
0.99992 1 1 0.99992
0.999915 1 1 0.999915
0.999896 1 1 0.999896
0.999881 1 1 0.999881
0.999993 1 1 0.999993
0.999962 1 1 0.999962
0.999931 1 1 0.999931
0.999901 1 1 0.999901
0.999908 1 1 0.999908
0.999898 1 1 0.999898
0.999997 1 1 0.999997
0.999964 1 1 0.999964
0.999901 1 1 0.999901
0.999932 1 1 0.999932
0.999934 1 1 0.999934
0.999915 1 1 0.999915
0.999902 1 1 0.999902
0.999911 1 1 0.999911
0.999905 1 1 0.999905
0.999889 1 1 0.999889
0.999964 1 1 0.999964
0.999929 1 1 0.999929
0.999915 1 1 0.999915
0.999913 1 1 0.999913
0.999907 1 1 0.999907
0.999927 1 1 0.999927
0.999895 1 1 0.999895
0.999915 1 1 0.999915
0.99989 1 1 0.99989
0.99987 1 1 0.99987
0.999927 1 1 0.999927
0.999904 1 1 0.999904
0.999898 1 1 0.999898
0.999898 1 1 0.999898
0.999929 1 1 0.999929
0.99993 1 1 0.99993
0.999877 1 1 0.999877
0.999864 1 1 0.999864
0.999965 1 1 0.999965
0.999931 1 1 0.999931
0.999911 1 1 0.999911
0.999969 1 1 0.999969
0.999932 1 1 0.999932
0.999969 1 1 0.999969
0.999913 1 1 0.999913
0.999934 1 1 0.999934
0.999898 1 1 0.999898
0.99991 1 1 0.99991
0.999933 1 1 0.999933
0.999968 1 1 0.999968
0.999998 1 1 0.999998
0.999998 1 1 0.999998
1 1 1 1
0.999998 1 1 0.999998
1 1 1 1
1 1 1 1
1 1 1 1
1 1 1 1
1 1 1 1
1 1 1 1
1 1 1 1
1 1 1 1
1 1 1 1
1 1 1 1
1 1 1 1
0.999907 1 1 0.999907
0.999892 1 1 0.999892
0.999903 1 1 0.999903
0.99988 1 1 0.99988
0.999904 1 1 0.999904
0.999905 1 1 0.999905
0.999907 1 1 0.999907
0.999898 1 1 0.999898
0.999889 1 1 0.999889
0.999921 1 1 0.999921
0.999904 1 1 0.999904
0.999895 1 1 0.999895
0.999908 1 1 0.999908
0.999883 1 1 0.999883
0.999877 1 1 0.999877
0.999891 1 1 0.999891
0.999935 1 1 0.999935
0.999918 1 1 0.999918
0.99989 1 1 0.99989
0.999908 1 1 0.999908
0.999927 1 1 0.999927
0.999905 1 1 0.999905
0.999921 1 1 0.999921
0.999911 1 1 0.999911
0.999912 1 1 0.999912
0.999991 1 1 0.999991
0.999929 1 1 0.999929
0.999956 1 1 0.999956
0.999887 1 1 0.999887
0.999873 1 1 0.999873
0.999899 1 1 0.999899
0.99992 1 1 0.99992
0.999898 1 1 0.999898
0.999883 1 1 0.999883
0.999928 1 1 0.999928
0.999914 1 1 0.999914
0.999996 1 1 0.999996
0.999962 1 1 0.999962
0.999908 1 1 0.999908
0.999898 1 1 0.999898
0.999903 1 1 0.999903
0.999929 1 1 0.999929
0.999893 1 1 0.999893
0.999875 1 1 0.999875
0.999928 1 1 0.999928
0.999936 1 1 0.999936
0.999905 1 1 0.999905
0.999884 1 1 0.999884
0.999883 1 1 0.999883
0.999999 1 1 0.999999
0.999973 1 1 0.999973
0.999962 1 1 0.999962
0.999926 1 1 0.999926
0.999902 1 1 0.999902
0.999888 1 1 0.999888
0.9999 1 1 0.9999
0.999889 1 1 0.999889
0.999964 1 1 0.999964
0.999931 1 1 0.999931
0.999928 1 1 0.999928
0.999915 1 1 0.999915
0.999917 1 1 0.999917
0.999908 1 1 0.999908
0.999896 1 1 0.999896
0.999921 1 1 0.999921
0.999889 1 1 0.999889
0.999867 1 1 0.999867
0.999927 1 1 0.999927
0.999906 1 1 0.999906
0.999899 1 1 0.999899
0.999899 1 1 0.999899
0.999928 1 1 0.999928
0.999928 1 1 0.999928
0.999879 1 1 0.999879
0.999863 1 1 0.999863
0.999908 1 1 0.999908
0.999918 1 1 0.999918
0.99989 1 1 0.99989
0.999881 1 1 0.999881
0.999948 1 1 0.999948
0.999875 1 1 0.999875
0.999852 1 1 0.999852
0.999934 1 1 0.999934
0.999911 1 1 0.999911
0.999896 1 1 0.999896
0.999969 1 1 0.999969
0.999936 1 1 0.999936
0.99991 1 1 0.99991
0.999968 1 1 0.999968
0.999933 1 1 0.999933
0.999896 1 1 0.999896
0.999913 1 1 0.999913
0.999887 1 1 0.999887
0.999893 1 1 0.999893
0.999914 1 1 0.999914
0.999934 1 1 0.999934
0.999967 1 1 0.999967
0.999998 1 1 0.999998
0.999998 1 1 0.999998
1 1 1 1
0.999998 1 1 0.999998
1 1 1 1
1 1 1 1
1 1 1 1
1 1 1 1
1 1 1 1
1 1 1 1
1 1 1 1
1 1 1 1
1 1 1 1
1 1 1 1
1 1 1 1
1 1 1 1
0.999919 1 1 0.999919
0.999892 1 1 0.999892
0.999897 1 1 0.999897
0.999904 1 1 0.999904
0.999907 1 1 0.999907
0.999893 1 1 0.999893
0.999912 1 1 0.999912
0.999904 1 1 0.999904
0.9999 1 1 0.9999
0.999941 1 1 0.999941
0.999891 1 1 0.999891
0.999872 1 1 0.999872
0.999897 1 1 0.999897
0.99992 1 1 0.99992
0.9999 1 1 0.9999
0.999884 1 1 0.999884
0.99993 1 1 0.99993
0.999914 1 1 0.999914
0.999908 1 1 0.999908
0.999899 1 1 0.999899
0.999904 1 1 0.999904
0.999998 1 1 0.999998
0.999962 1 1 0.999962
0.999927 1 1 0.999927
0.99989 1 1 0.99989
0.999999 1 1 0.999999
0.999971 1 1 0.999971
0.999877 1 1 0.999877
0.999923 1 1 0.999923
0.999905 1 1 0.999905
0.999882 1 1 0.999882
0.999885 1 1 0.999885
0.999935 1 1 0.999935
0.999967 1 1 0.999967
0.999925 1 1 0.999925
0.9999 1 1 0.9999
0.99989 1 1 0.99989
0.999885 1 1 0.999885
0.999902 1 1 0.999902
0.99987 1 1 0.99987
0.999902 1 1 0.999902
0.999961 1 1 0.999961
0.999906 1 1 0.999906
0.999895 1 1 0.999895
0.999871 1 1 0.999871
0.999972 1 1 0.999972
0.999971 1 1 0.999971
0.999943 1 1 0.999943
0.999922 1 1 0.999922
0.999903 1 1 0.999903
0.999876 1 1 0.999876
0.999872 1 1 0.999872
0.99989 1 1 0.99989
0.999927 1 1 0.999927
0.999909 1 1 0.999909
0.999927 1 1 0.999927
0.999927 1 1 0.999927
0.999901 1 1 0.999901
0.999901 1 1 0.999901
0.999881 1 1 0.999881
0.999863 1 1 0.999863
0.999908 1 1 0.999908
0.99993 1 1 0.99993
0.99989 1 1 0.99989
0.999879 1 1 0.999879
0.999945 1 1 0.999945
0.999876 1 1 0.999876
0.999851 1 1 0.999851
0.999891 1 1 0.999891
0.999951 1 1 0.999951
0.999879 1 1 0.999879
0.999856 1 1 0.999856
0.99988 1 1 0.99988
1.00034 1 1.00051 0.999836
0.983906 1.00206 0.98204 0.999839
0.999911 1 1 0.999911
0.999896 1 1 0.999896
0.999886 1 1 0.999886
0.999968 1 1 0.999968
0.999933 1 1 0.999933
0.999916 1 1 0.999916
0.999894 1 1 0.999894
0.999967 1 1 0.999967
0.999933 1 1 0.999933
0.999886 1 1 0.999886
0.999914 1 1 0.999914
0.999895 1 1 0.999895
0.99988 1 1 0.99988
0.999897 1 1 0.999897
0.999914 1 1 0.999914
0.999928 1 1 0.999928
0.999961 1 1 0.999961
0.999937 1 1 0.999937
0.999961 1 1 0.999961
0.999998 1 1 0.999998
0.999998 1 1 0.999998
1 1 1 1
0.999998 1 1 0.999998
1 1 1 1
1 1 1 1
1 1 1 1
1 1 1 1
1 1 1 1
1 1 1 1
1 1 1 1
1 1 1 1
1 1 1 1
1 1 1 1
1 1 1 1
1 1 1 1
1 1 1 1
0.999917 1 1 0.999917
0.999892 1 1 0.999892
0.99991 1 1 0.99991
0.999905 1 1 0.999905
0.9999 1 1 0.9999
0.999955 1 1 0.999955
0.999904 1 1 0.999904
0.996097 1.00007 0.996052 0.999979
0.999858 1 0.999861 0.999997
0.999981 1 1 0.999981
0.999886 1 1 0.999886
0.999878 1 1 0.999878
0.999918 1 1 0.999918
0.999906 1 1 0.999906
0.99988 1 1 0.99988
0.999886 1 1 0.999886
0.999935 1 1 0.999935
0.999901 1 1 0.999901
0.999891 1 1 0.999891
0.999883 1 1 0.999883
0.999999 1 1 0.999999
0.999903 1 1 0.999903
0.999972 1 1 0.999972
0.999925 1 1 0.999925
0.999969 1 1 0.999969
0.999865 1 1 0.999865
0.999975 1 1 0.999975
0.999971 1 1 0.999971
0.999939 1 1 0.999939
0.999902 1 1 0.999902
0.999941 1 0.999987 0.999954
0.999895 1 1 0.999895
0.99987 1 1 0.99987
0.999907 1 1 0.999907
0.999925 1 1 0.999925
0.999902 1 1 0.999902
0.99989 1 1 0.99989
0.999875 1 1 0.999875
0.999878 1 1 0.999878
0.999898 1 1.00004 0.999853
0.99839 1 0.998435 0.999955
0.999931 1 1 0.999931
0.999876 1 1 0.999876
0.999884 1 1 0.999884
0.999939 1 1 0.999939
0.999928 1 1 0.999928
0.999915 1 1 0.999915
0.999896 1 1 0.999896
0.999882 1 1 0.999882
0.99986 1 1 0.99986
1.0002 1 1.00033 0.999867
0.999908 1 1 0.999908
0.99989 1 1 0.99989
0.999941 1 1 0.999941
0.999943 1 1 0.999943
0.999877 1 1 0.999877
0.999876 1 1 0.999876
0.999849 1 1 0.999849
0.999892 1 1 0.999892
0.999957 1 1 0.999957
0.999878 1 1 0.999878
0.999855 1 1 0.999855
0.999888 1 1 0.999888
1.00071 1 1.00087 0.999834
0.987646 1.00401 0.983845 0.999851
0.99988 1 1 0.99988
0.999859 1 1 0.999859
0.999868 1 1 0.999868
1.00171 1 1.00189 0.99983
1.00049 1 1.00067 0.999816
0.969394 0.969842 1.00004 0.999499
0.988379 1.00182 0.986674 0.999906
0.982901 1.00575 0.977484 0.999792
0.974909 0.980736 0.994087 0.999972
0.982233 1.00203 0.980246 1
0.999896 1 1 0.999896
0.999886 1 1 0.999886
0.999879 1 1 0.999879
0.999967 1 1 0.999967
0.999931 1 1 0.999931
0.999914 1 1 0.999914
0.999898 1 1 0.999898
0.999886 1 1 0.999886
0.999911 1 1 0.999911
0.999964 1 1 0.999964
0.99993 1 1 0.99993
0.999882 1 1 0.999882
0.999896 1 1 0.999896
0.999897 1 1 0.999897
0.999882 1 1 0.999882
0.999905 1 1 0.999905
0.999926 1 1 0.999926
0.999961 1 1 0.999961
0.999933 1 1 0.999933
0.999911 1 1 0.999911
0.999931 1 1 0.999931
0.999933 1 1 0.999933
0.999966 1 1 0.999966
0.999961 1 1 0.999961
0.999998 1 1 0.999998
0.999998 1 1 0.999998
1 1 1 1
0.999998 1 1 0.999998
1 1 1 1
1 1 1 1
1 1 1 1
1 1 1 1
1 1 1 1
1 1 1 1
1 1 1 1
1 1 1 1
0.999999 1 1 0.999999
1 1 1 1
1 1 1 1
1 1 1 1
1 1 1 1
1 1 1 1
0.999901 1 1 0.999901
0.999905 1 1 0.999905
0.999968 1 1 0.999968
0.995816 1 0.995837 0.999979
0.999904 1 1 0.999904
0.999924 1 0.999943 0.999981
0.999926 1 1.00004 0.999888
0.98662 0.989676 0.9971 0.999811
0.999883 1 0.999885 0.999997
0.999983 1 1 0.999983
0.99998 1 1 0.99998
0.999947 1 1 0.999947
0.999955 1 1 0.999955
0.99986 1 1 0.99986
0.999903 1 1 0.999903
0.999947 1 1 0.999947
0.999895 1 1 0.999895
0.99987 1 1 0.99987
0.999908 1 1 0.999908
0.999889 1 1 0.999889
0.999878 1 1 0.999878
0.99988 1 1 0.99988
0.999971 1 1 0.999971
0.999901 1 1 0.999901
0.999928 1 1 0.999928
0.999978 1 1 0.999978
0.999934 1 1 0.999934
0.999892 1 1.00003 0.999857
0.999943 1 1 0.999943
0.999931 1 1 0.999931
0.999917 1 1 0.999917
0.99911 1 0.999157 0.999953
0.999931 1 1 0.999931
0.999884 1 1 0.999884
0.999877 1 1 0.999877
0.999897 1 1 0.999897
0.999884 1 1 0.999884
1.00001 1 1.00015 0.999868
0.99986 1 1 0.99986
0.999931 1 1.00003 0.999901
0.998525 1 0.998559 0.999966
0.999873 1 1 0.999873
0.999871 1 1 0.999871
0.999907 1 1 0.999907
0.9999 1 1 0.9999
0.999865 1 1 0.999865
1.00049 1 1.00065 0.99984
0.969542 0.971885 0.998058 0.99953
0.999893 1 1 0.999893
0.999877 1 1 0.999877
0.999962 1 1 0.999962
0.999896 1 1 0.999896
1.00109 1 1.00126 0.999832
0.999855 1 1 0.999855
0.99181 1.00601 0.986023 0.999863
0.999881 1 1 0.999881
0.999861 1 1 0.999861
0.999868 1 1 0.999868
1.00138 1 1.00155 0.99983
1.00021 1 1.00038 0.999825
0.970382 0.969804 1.00105 0.99955
0.986158 0.999951 0.986459 0.999744
0.984965 1.00712 0.97821 0.99979
0.97606 0.981987 0.994072 0.999892
0.9833 1.00195 0.981387 1
0.999878 1 1 0.999878
0.977141 0.979546 0.997714 0.99983
0.993628 1.00098 0.992651 1
0.999799 1 1 0.999799
1.0012 1 1.00134 0.999857
1.00597 1 1.00617 0.999804
0.998117 1.00675 0.991669 0.999758
0.981031 0.97695 1.00478 0.9994
0.986146 1.00596 0.980578 0.999717
0.972034 0.985114 0.986756 0.999966
0.993088 1.00213 0.990983 0.999999
0.999887 1 1 0.999887
0.999879 1 1 0.999879
0.999874 1 1 0.999874
0.999966 1 1 0.999966
0.999932 1 1 0.999932
0.999908 1 1 0.999908
0.999895 1 1 0.999895
0.999883 1 1 0.999883
0.999961 1 1 0.999961
0.999897 1 1 0.999897
0.999908 1 1 0.999908
0.999929 1 1 0.999929
0.99988 1 1 0.99988
0.999888 1 1 0.999888
0.999874 1 1 0.999874
0.999903 1 1 0.999903
0.999932 1 1 0.999932
0.999933 1 1 0.999933
0.999909 1 1 0.999909
0.999907 1 1 0.999907
0.999906 1 1 0.999906
0.999894 1 1 0.999894
0.999902 1 1 0.999902
0.999928 1 1 0.999928
0.999931 1 1 0.999931
0.999965 1 1 0.999965
0.999928 1 1 0.999928
0.999964 1 1 0.999964
0.999997 1 1 0.999997
0.999961 1 1 0.999961
0.999998 1 1 0.999998
1 1 1 1
0.999998 1 1 0.999998
1 1 1 1
1 1 1 1
1 1 1 1
1 1 1 1
1 1 1 1
0.999983 1 1 0.999983
1 1 1 1
1 1 1 1
1 1 1 1
1 1 1 1
1 1 1 1
1 1 1 1
1 1 1 1
1 1 1 1
1 1 1 1
0.9953 1 0.995321 0.999979
0.999905 1 1 0.999905
0.999965 1 1 0.999965
0.988148 0.990067 0.99816 0.999901
0.999985 1 0.999991 0.999995
0.999911 1 1.00003 0.999877
1.00146 1 1.00159 0.999872
0.995027 0.993588 1.00163 0.999822
0.973081 0.973597 1.00011 0.999357
0.974289 0.980749 0.993608 0.999803
0.987747 1.00084 0.986922 0.999999
0.999949 1 1 0.999949
0.999983 1 1 0.999983
0.99998 1 1 0.99998
0.999946 1 1 0.999946
0.999926 1 1 0.999926
0.999933 1 1 0.999933
0.999951 1 1 0.999951
0.999953 1 1 0.999953
0.999887 1 1.00003 0.999861
0.999736 1 0.999784 0.999952
0.999905 1 0.999974 0.999931
0.999884 1 1 0.999884
0.999879 1 1 0.999879
0.999868 1 1 0.999868
0.999861 1 1 0.999861
0.999886 1 1 0.999886
0.999934 1 1 0.999934
0.999898 1 1 0.999898
0.999948 1 1 0.999948
0.999918 1 1 0.999918
0.99953 1 0.999631 0.999899
0.999908 1 1 0.999908
0.999902 1 1 0.999902
0.998216 1 0.998252 0.999964
0.999877 1 1 0.999877
0.999975 1 1.00011 0.999866
0.999866 1 1 0.999866
1.00045 1 1.00061 0.999841
0.988267 1.00079 0.987546 0.999941
1.0016 1 1.00171 0.999892
0.99985 1 1 0.99985
1.00171 1 1.00188 0.99983
0.999886 1 1 0.999886
0.999875 1 1 0.999875
1.00017 1 1.00033 0.999838
0.974812 0.980813 0.993909 0.999973
0.972308 0.972872 0.999877 0.999542
0.999882 1 1 0.999882
0.999869 1 1 0.999869
0.999863 1 1 0.999863
0.999912 1 1.00008 0.999833
1.001 1 1.00117 0.999831
0.970666 0.971439 0.999863 0.999341
0.988814 0.999259 0.989613 0.999934
0.987242 1.00854 0.979085 0.999789
0.973546 0.981576 0.992016 0.999802
0.984141 1.00175 0.982419 1
0.999878 1 1 0.999878
0.975548 0.980324 0.995156 0.999971
0.993889 1.00123 0.992665 1
0.999799 1 1 0.999799
1.00051 1 1.00066 0.999859
1.0053 1 1.00549 0.999812
0.996872 1.00504 0.99212 0.999753
0.978902 0.976644 1.00302 0.999296
0.98102 1.0027 0.978455 0.999923
0.97276 0.985472 0.98732 0.999777
0.989693 1.00226 0.987466 1
0.999873 1 1 0.999873
0.998892 0.999955 0.998939 0.999999
0.999307 1.00002 0.999289 1
1.00848 1 1.00869 0.999792
1.00456 1 1.0047 0.999857
1.00315 1.00238 1.00091 0.999866
0.991268 1.00154 0.989797 0.999945
0.984224 0.981047 1.00391 0.999331
0.980665 0.994602 0.986237 0.999747
0.999221 1.00155 0.997676 0.999998
0.999879 1 1 0.999879
0.999873 1 1 0.999873
0.99987 1 1 0.99987
0.999961 1 1 0.999961
0.999932 1 1 0.999932
0.999911 1 1 0.999911
0.999897 1 1 0.999897
0.999879 1 1 0.999879
0.999932 1 1 0.999932
0.99989 1 1 0.99989
0.999903 1 1 0.999903
0.999873 1 1 0.999873
0.999866 1 1 0.999866
0.999881 1 1 0.999881
0.999904 1 1 0.999904
0.999933 1 1 0.999933
0.999906 1 1 0.999906
0.999907 1 1 0.999907
0.999906 1 1 0.999906
0.999894 1 1 0.999894
0.999902 1 1 0.999902
0.999889 1 1 0.999889
0.999887 1 1 0.999887
0.999893 1 1 0.999893
0.999907 1 1 0.999907
0.999907 1 1 0.999907
0.999902 1 1 0.999902
0.999927 1 1 0.999927
0.999928 1 1 0.999928
0.999963 1 1 0.999963
0.999931 1 1 0.999931
0.999965 1 1 0.999965
0.999997 1 1 0.999997
0.999961 1 1 0.999961
0.999997 1 1 0.999997
1 1 1 1
0.999998 1 1 0.999998
1 1 1 1
1 1 1 1
1 1 1 1
1 1 1 1
1 1 1 1
0.999984 1 1 0.999984
1 1 1 1
0.999983 1 1 0.999983
1 1 1 1
1 1 1 1
1 1 1 1
1 1 1 1
1 1 1 1
1 1 1 1
1 1 1 1
1 1 1 1
0.975819 0.979794 0.995966 0.999977
0.997222 1.0007 0.996522 1
0.989661 0.990282 0.999406 0.999967
1.00005 1 1.00005 0.999992
0.999895 1 1.00003 0.999867
0.994552 0.99259 1.00198 0.999992
1.00067 1 1.0008 0.999877
0.976146 0.97534 1.00133 0.999502
0.974861 0.980221 0.994558 0.999974
0.988103 1.00119 0.986931 1
1.00236 0.997332 1.00512 0.999924
0.980701 0.978625 1.00269 0.999438
0.973505 0.984842 0.988523 0.999965
0.9904 1.00251 0.987919 0.999998
0.999918 1 1 0.999918
0.999951 1 1 0.999951
0.999983 1 1 0.999983
0.999945 1 1 0.999945
0.999928 1 1 0.999928
0.999925 1 1 0.999925
0.999935 1 1 0.999935
0.999941 1 1 0.999941
0.999948 1 1 0.999948
0.999951 1 1 0.999951
0.999165 1 0.999267 0.999898
0.998037 1 0.998074 0.999963
0.999881 1 1 0.999881
1.00005 1 1.00019 0.99986
1.00037 1 1.00053 0.999842
0.999866 1 1 0.999866
0.999904 1 1 0.999904
0.99991 1 1 0.99991
0.991188 1.00033 0.990929 0.999934
0.999884 1 1 0.999884
0.999872 1 1 0.999872
1.00019 1 1.0003 0.999898
0.999848 1 1 0.999848
1.00116 1 1.00134 0.999826
1.00034 1 1.00051 0.999835
0.980525 1.00466 0.976086 0.999892
1.00496 1 1.00513 0.999829
1.00189 1 1.00208 0.999809
0.999884 1 1 0.999884
0.999866 1 1 0.999866
0.999848 1 1 0.999848
0.997454 0.999501 0.997954 0.999998
0.975789 0.980085 0.995777 0.99984
0.970278 0.97258 0.998115 0.999517
0.999878 1 1 0.999878
0.99986 1 1 0.99986
0.999798 1 1 0.999798
1.00472 1 1.0049 0.99982
0.974805 0.980683 0.99418 0.999825
0.976355 0.975863 1.00092 0.999588
0.981528 1.00398 0.977891 0.999738
0.99639 1.00349 0.993177 0.999748
0.973128 0.984742 0.98824 0.999966
0.993511 1.00157 0.991958 1
0.987933 1.00257 0.985398 0.999999
0.999873 1 1 0.999873
0.998352 1.00016 0.998198 0.999998
0.999407 1.00002 0.999384 1
1.00881 1 1.00902 0.999791
1.00465 1 1.00479 0.999857
1.00625 1.00198 1.0045 0.999763
0.988214 1.00146 0.987039 0.999728
0.983027 0.98131 1.00243 0.999326
0.985107 0.993632 0.991467 0.999953
0.996685 1.00132 0.995373 0.999996
0.999876 1 1 0.999876
0.999296 0.999294 1 1
0.999343 0.998932 1.00041 1
1.00631 1 1.0064 0.99991
1.00012 0.997479 1.00269 0.999959
0.991778 0.987443 1.00501 0.999379
0.98509 1.00226 0.982932 0.999933
0.998954 0.999226 0.999738 0.99999
0.999873 1 1 0.999873
0.99987 1 1 0.99987
0.999886 1 1.00002 0.999865
0.999932 1 1 0.999932
0.999903 1 1 0.999903
0.999891 1 1 0.999891
0.999871 1 1 0.999871
0.999904 1 1 0.999904
0.999881 1 1 0.999881
0.999866 1 1 0.999866
0.999871 1 1 0.999871
0.999864 1 1 0.999864
0.999884 1 1 0.999884
0.999906 1 1 0.999906
0.999906 1 1 0.999906
0.999895 1 1 0.999895
0.99989 1 1 0.99989
0.999903 1 1 0.999903
0.999887 1 1 0.999887
0.999884 1 1 0.999884
0.999878 1 1 0.999878
0.999884 1 1 0.999884
0.999892 1 1 0.999892
0.999897 1 1 0.999897
0.999902 1 1 0.999902
0.999923 1 1 0.999923
0.999911 1 1 0.999911
0.999909 1 1 0.999909
0.999927 1 1 0.999927
0.999902 1 1 0.999902
0.999927 1 1 0.999927
0.999962 1 1 0.999962
0.999928 1 1 0.999928
0.999963 1 1 0.999963
0.999997 1 1 0.999997
0.999965 1 1 0.999965
0.999997 1 1 0.999997
1 1 1 1
0.999997 1 1 0.999997
1 1 1 1
1 1 1 1
1 1 1 1
1 1 1 1
1 1 1 1
0.999975 1 1 0.999975
1 1 1 1
0.99998 1 1 0.99998
1 1 1 1
1 1 1 1
0.999983 1 1 0.999983
1 1 1 1
1 1 1 1
1 1 1 1
1 1 1 1
1 1 1 1
1 1 1 1
0.998982 0.999846 0.999136 1
0.974671 0.978677 0.996001 0.999905
0.999807 1.00036 0.999443 1
0.996795 1.00062 0.996181 1
0.991502 0.991074 1.00059 0.999839
0.999924 1 1.00004 0.999882
0.976307 0.974902 1.00178 0.999659
0.974412 0.980415 0.994066 0.99981
0.988607 1.00148 0.987149 1
0.999033 0.998304 1.00085 0.999877
0.980169 0.976731 1.00412 0.999402
0.974705 0.985177 0.989589 0.999779
0.990202 1.00236 0.987869 0.999999
0.996152 1.00244 0.993802 0.999926
0.984351 0.980509 1.00461 0.999311
0.983816 0.993943 0.989856 0.999955
0.998998 1.00063 0.998371 0.999999
0.999902 1 1 0.999902
0.999922 1 1 0.999922
0.999953 1 1 0.999953
0.999931 1 1 0.999931
0.999911 1 1 0.999911
0.999927 1 1 0.999927
0.999936 1 1 0.999936
0.999939 1 1 0.999939
0.999944 1 1 0.999944
0.999946 1 1 0.999946
0.994275 1 0.994348 0.999927
0.998802 1 0.998898 0.999904
0.999845 1 1 0.999845
1.00076 1 1.00093 0.999822
1.00055 1 1.00072 0.999832
0.99987 1 1 0.99987
0.999883 1 1 0.999883
0.999884 1 1 0.999884
0.983086 1.00293 0.980323 0.999888
0.999867 1 1 0.999867
0.999923 1 1.00008 0.999846
1.00469 1 1.00486 0.999831
1.00195 1 1.00214 0.99981
0.988316 1.00485 0.983694 0.999847
1.01007 1 1.01026 0.999818
1.00029 1 1.00047 0.999818
0.999869 1 1 0.999869
0.999847 1 1 0.999847
0.998945 0.998944 1 1
0.998307 0.999514 0.998794 0.999999
0.976065 0.980813 0.995184 0.999975
0.999873 1 1 0.999873
1.00461 1 1.00476 0.999856
1.009 1 1.00921 0.99979
0.999293 1.00035 0.998947 0.999999
0.983932 0.980847 1.00385 0.999292
0.985384 1.00174 0.983723 0.999945
1.00745 1.00111 1.00668 0.999659
0.977362 0.990343 0.987127 0.999763
0.999504 1.00002 0.999483 1
0.997821 1.0006 0.997232 0.999994
0.999878 1 1 0.999878
0.999196 0.999191 1 1
0.99917 0.998693 1.00048 1
1.00657 0.999985 1.00671 0.999877
0.999919 0.99799 1.00203 0.999903
0.994765 0.990384 1.00511 0.999321
1.00017 1.00001 1.00016 0.999993
0.991421 0.999662 0.991881 0.999874
0.999885 1 1 0.999885
0.999924 0.999885 1.00004 1
0.998757 0.998106 1.00065 1
0.997825 1.00061 0.997219 0.999999
1.00301 0.99868 1.00439 0.999948
0.997604 0.989623 1.00857 0.999502
0.984411 1.00183 0.982716 0.99989
0.999871 1 1 0.999871
0.999909 1 1.00004 0.999864
1.00102 1 1.00115 0.999872
0.999904 1 1 0.999904
0.999881 1 1 0.999881
0.999881 1 1.00002 0.999866
0.999885 1 1 0.999885
0.999863 1 1 0.999863
0.99988 1 1.00001 0.99987
0.999937 1 1.00007 0.999867
0.999868 1 1 0.999868
0.999891 1 1 0.999891
0.999903 1 1 0.999903
0.999888 1 1 0.999888
0.999879 1 1 0.999879
0.999884 1 1 0.999884
0.999874 1 1 0.999874
0.99989 1 1 0.99989
0.999871 1 1 0.999871
0.999892 1 1 0.999892
0.999897 1 1 0.999897
0.999884 1 1 0.999884
0.999906 1 1 0.999906
0.999924 1 1 0.999924
0.999902 1 1 0.999902
0.999936 1 1 0.999936
0.999922 1 1 0.999922
0.999914 1 1 0.999914
0.999911 1 1 0.999911
0.999928 1 1 0.999928
0.999963 1 1 0.999963
0.999927 1 1 0.999927
0.999962 1 1 0.999962
0.999997 1 1 0.999997
0.999963 1 1 0.999963
0.999997 1 1 0.999997
1 1 1 1
0.999997 1 1 0.999997
1 1 1 1
1 1 1 1
1 1 1 1
1 1 1 1
1 1 1 1
0.999966 1 1 0.999966
0.999996 1 1 0.999996
0.999975 1 1 0.999975
1 1 1 1
0.999998 1 1 0.999998
0.999976 1 1 0.999976
1 1 1 1
1 1 1 1
1 1 1 1
1 1 1 1
1 1 1 1
1 1 1 1
0.999606 0.999546 1.00006 1
0.997525 0.999777 0.997749 0.999998
0.976445 0.979073 0.997472 0.999843
0.999929 1 1 0.999929
0.999595 0.999288 1.00031 1
0.999869 1.00018 0.999691 1
0.995155 1.00054 0.994619 0.999999
0.995953 0.998854 0.997282 0.999813
0.982012 0.976562 1.0062 0.999388
0.976102 0.984985 0.991016 0.999966
0.992458 1.0027 0.989792 0.999997
0.993402 1.00403 0.989655 0.999753
0.985559 0.981624 1.00467 0.99934
0.982944 0.993345 0.989673 0.999855
0.998038 1.00156 0.996485 0.999996
0.981799 1.00062 0.981451 0.999738
0.991279 0.987576 1.00459 0.999159
0.993712 0.998242 0.995679 0.999782
0.99971 0.999683 1.00004 0.999986
0.999886 1 1 0.999886
0.9999 1 1 0.9999
0.999925 1 1 0.999925
0.999907 1 1 0.999907
0.999914 1 1 0.999914
0.999929 1 1 0.999929
0.99994 1 1 0.99994
0.999946 1 1 0.999946
0.985634 1.0012 0.984563 0.999884
1.00435 1 1.00452 0.999833
0.999884 1 1 0.999884
1.00194 1 1.00213 0.99981
0.999978 1 1.00013 0.999845
0.999869 1 1 0.999869
0.999869 1 1 0.999869
0.987121 1.00408 0.983262 0.999843
0.999846 1 1 0.999846
1.00071 1 1.00089 0.999817
1.01048 1 1.01066 0.999818
0.999866 1 1 0.999866
1.00251 1.00108 1.00157 0.999851
1.00786 1 1.00804 0.999824
0.99983 1 1 0.99983
0.999847 1 1 0.999847
0.999753 0.999753 1 1
0.999059 0.999058 1 1
0.998981 0.999527 0.999454 1
0.99988 1 1 0.99988
1.00713 0.999979 1.00731 0.999845
0.999097 0.999093 1 1
0.99236 0.985833 1.00733 0.9993
1.00061 0.999933 1.00092 0.99976
0.988592 0.998127 0.990618 0.999827
0.999017 0.998414 1.0006 1
1.00145 1.00079 1.00066 0.999996
0.999886 1 1 0.999886
0.999925 0.999879 1.00005 1
0.999113 0.998577 1.00054 1
1.00063 0.997742 1.00294 0.999962
0.997002 1.00145 0.995561 0.999998
0.996024 0.992986 1.00351 0.999555
0.984473 0.998603 0.986051 0.999797
1.0011 1 1.0012 0.999903
1.00014 1.00013 1.00001 1
0.999599 0.999202 1.0004 1
0.989349 1.00241 0.986974 0.999999
0.988997 0.994464 0.994704 0.999797
1.00184 0.996141 1.00569 1.00003
0.993646 0.990177 1.00393 0.999578
0.999868 1 1 0.999863
1.00062 1 1.00075 0.999869
1.00467 1 1.0048 0.999869
0.999886 1 1 0.999886
0.999863 1 1 0.999863
0.999869 1 1 0.999869
0.999868 1 1 0.999868
0.999909 1 1.00004 0.999868
1.00139 1 1.00153 0.999854
0.999879 1 1 0.999879
0.999884 1 1 0.999884
0.999975 1 1.0001 0.999873
1.00038 1 1.00052 0.999857
0.999896 1 1 0.999896
0.999873 1 1 0.999873
0.999861 1 1 0.999861
0.999883 1 1 0.999883
0.999897 1 1 0.999897
0.999883 1 1 0.999883
0.999913 1 1 0.999913
0.999923 1 1 0.999923
0.999908 1 1 0.999908
0.99994 1 1 0.99994
0.999924 1 1 0.999924
0.999902 1 1 0.999902
0.999965 1 1 0.999965
0.999935 1 1 0.999935
0.99992 1 1 0.99992
0.999929 1 1 0.999929
0.999963 1 1 0.999963
0.999996 1 1 0.999996
0.999962 1 1 0.999962
0.999997 1 1 0.999997
1 1 1 1
0.999997 1 1 0.999997
1 1 1 1
1 1 1 1
1 1 1 1
1 1 1 1
1 1 1 1
0.999961 1 1 0.999961
0.999994 1 1 0.999994
0.999967 1 1 0.999967
1 1 1 1
0.999996 1 1 0.999996
0.999975 1 1 0.999975
1 1 1 1
1 1 1 1
0.999997 1 1 0.999997
1 1 1 1
1 1 1 1
1 1 1 1
0.999792 0.999798 0.999994 1
0.999522 0.999482 1.00004 1
0.997575 0.999724 0.997853 0.999998
0.99993 1 1 0.99993
0.999926 1 1 0.999926
0.999909 1 1 0.999909
0.998651 0.998206 1.00044 1
0.999418 0.999116 1.0003 1
1.00001 0.999982 1.00003 1
0.995272 1.00633 0.98909 0.999922
0.985096 0.980934 1.00491 0.999339
0.98165 0.993959 0.987857 0.999757
1.00005 1.0015 0.998555 0.999996
0.982106 0.999708 0.982466 0.999925
0.994353 0.988602 1.00647 0.999357
0.996418 1.0031 0.993428 0.999911
1.00047 1.00024 1.00024 0.999991
0.986868 0.997864 0.989021 0.999959
0.993 0.99126 1.00234 0.999421
0.987176 1.00271 0.98465 0.999859
0.99996 1.00159 0.998376 0.999997
0.999883 1 1 0.999883
0.999886 1 1 0.999886
0.999898 1 1 0.999898
0.999907 1 1 0.999907
0.999917 1 1 0.999917
0.999941 1 1 0.999941
0.985741 1.0031 0.982857 0.999839
1.01082 1 1.011 0.999818
0.999869 1 1 0.999869
1.00108 1 1.00127 0.999817
0.999846 1 1 0.999846
0.999864 1 1 0.999864
0.999845 1 1 0.999845
0.999044 1.00144 0.997763 0.999846
0.99983 1 1 0.99983
1.00807 1 1.00825 0.99982
0.999844 1 1 0.999844
1.01205 1 1.01218 0.999866
1.00026 1 1.00044 0.999824
0.999828 1 1 0.999828
1.00016 1.00018 0.999978 1
0.999868 0.999869 0.999998 1
0.999175 0.999174 1 1
0.999888 1 1 0.999888
1.00157 0.997034 1.00458 0.999976
0.999924 0.999874 1.00005 1
0.997786 0.995164 1.00289 0.999745
0.982923 1.00208 0.98098 0.999905
0.999432 0.999073 1.00036 1
0.999544 1.00155 0.998 0.999997
1.00062 1 1.00071 0.999905
1.00015 1.00015 0.999992 1
0.999405 0.99901 1.00039 1
1.00438 0.996508 1.00797 0.999921
0.989438 1.00239 0.987083 1
0.99125 1.00096 0.990369 0.999933
0.985833 0.98913 0.997106 0.99956
1.00244 1 1.0025 0.999944
0.999766 0.999775 0.999991 1
0.999717 1.00047 0.999252 1
0.986271 1.0009 0.985389 1
0.981375 0.99151 0.989818 0.99996
0.997254 0.990189 1.00767 0.999467
0.997872 0.994597 1.00338 0.999909
1.00023 1 1.00036 0.999867
1.00502 1 1.00515 0.999869
1.00822 1 1.00837 0.999855
0.999868 1 1 0.999868
0.999875 1 1.00001 0.999869
1.00116 1 1.00131 0.999854
1.00444 1 1.00462 0.999826
1.00006 1 1.00019 0.999871
1.00059 1 1.00074 0.999854
1.00083 1 1.001 0.999836
0.999876 1 1 0.999876
0.99986 1 1 0.99986
0.999857 1 1 0.999857
0.999874 1 1 0.999874
0.999901 1 1 0.999901
0.999881 1 1 0.999881
0.999881 1 1 0.999881
0.999925 1 1 0.999925
0.999914 1 1 0.999914
0.999938 1 1 0.999938
0.999925 1 1 0.999925
0.99991 1 1 0.99991
0.999968 1 1 0.999968
0.99994 1 1 0.99994
0.999924 1 1 0.999924
0.999997 1 1 0.999997
0.999965 1 1 0.999965
0.999934 1 1 0.999934
0.999963 1 1 0.999963
0.999997 1 1 0.999997
1 1 1 1
0.999996 1 1 0.999996
1 1 1 1
1 1 1 1
1 1 1 1
1 1 1 1
1 1 1 1
0.999964 1 1 0.999964
0.999998 1 1 0.999998
0.999963 1 1 0.999963
1 1 1 1
0.999997 1 1 0.999997
0.999969 1 1 0.999969
1 1 1 1
1 1 1 1
0.999996 1 1 0.999996
1 1 1 1
1 1 1 1
1 1 1 1
1.00015 1.00014 1.00001 1
0.999797 0.9998 0.999997 1
0.999411 0.999402 1.00001 1
0.999929 1 1 0.999929
0.999921 1 1 0.999921
0.999932 1 1 0.999932
0.999926 1 1 0.999926
0.999907 1 1 0.999907
0.999908 1 1 0.999908
0.999894 1 1 0.999894
0.99932 0.998964 1.00036 1
0.999028 0.998704 1.00032 1
0.999243 0.998943 1.0003 1
1.00125 1.00084 1.00042 0.999996
0.987469 1.00421 0.983605 0.99972
0.995736 0.989353 1.00693 0.999528
0.984597 1.00062 0.984236 0.99975
0.989562 0.997275 0.992415 0.999849
0.99514 0.994137 1.00156 0.999453
0.98927 1.00069 0.988833 0.999754
0.998175 1.00182 0.996372 0.999992
0.999772 0.996485 1.00334 0.999963
0.992463 0.994019 0.998947 0.999487
0.988881 1.00354 0.985485 0.999909
0.994825 1.00184 0.992998 0.999998
0.999875 1 1 0.999875
0.999882 1 1 0.999882
0.999886 1 1 0.999886
0.999906 1 1 0.999906
0.994905 1.00187 0.993202 0.999841
1.00837 1 1.00855 0.999817
0.999862 1 1 0.999862
0.999844 1 1 0.999844
0.999829 1 1 0.999829
0.999848 1 1 0.999848
0.999827 1 1 0.999827
1.00714 0.99922 1.00805 0.999872
1.00027 1 1.00044 0.999827
0.999829 1 1 0.999829
1.01371 0.997898 1.01594 0.999916
1.00293 1 1.00313 0.999796
0.999758 0.999758 1 1
1.00011 1.00013 0.999984 1
0.999981 0.999985 0.999996 1
1.00019 1 1.00028 0.999908
1.00303 0.996141 1.0069 1.00002
1.00016 1.00018 0.999978 1
0.993116 0.988785 1.00483 0.999555
0.979678 0.99883 0.981055 0.999767
0.999219 0.998819 1.0004 1
0.991358 1.00279 0.988604 0.999999
1.00319 1 1.00325 0.999939
0.999775 0.999781 0.999993 1
0.999884 1.00026 0.999628 1
1.00375 0.996881 1.00685 1.00004
0.986702 1.00126 0.985462 1
0.980086 0.990896 0.98923 0.99986
0.995854 0.99008 1.00631 0.999523
0.997255 1 0.997304 0.999951
0.999632 0.999543 1.00009 1
0.996494 1.00083 0.995665 0.999999
0.971668 0.98326 0.988243 0.999967
0.990637 0.984493 1.0069 0.999348
0.99232 0.998995 0.993509 0.999808
1.00547 1 1.00561 0.999869
1.00819 1 1.00834 0.999854
1.01231 1 1.01249 0.999827
1.00095 1 1.00109 0.999855
1.00412 1 1.00429 0.999829
1.0045 1 1.0047 0.999803
1.00084 1 1.00099 0.999851
1.00093 1 1.0011 0.999832
1.00036 1 1.00053 0.999831
0.99986 1 1 0.99986
0.999855 1 1 0.999855
0.999862 1 1 0.999862
0.99988 1 1 0.99988
0.99989 1 1 0.99989
0.999873 1 1 0.999873
0.999917 1 1 0.999917
0.999903 1 1 0.999903
0.999878 1 1 0.999878
0.999937 1 1 0.999937
0.999924 1 1 0.999924
0.999915 1 1 0.999915
0.999967 1 1 0.999967
0.99994 1 1 0.99994
0.999927 1 1 0.999927
0.999997 1 1 0.999997
0.999968 1 1 0.999968
0.99994 1 1 0.99994
1 1 1 1
0.999997 1 1 0.999997
0.999966 1 1 0.999966
0.999997 1 1 0.999997
1 1 1 1
1 1 1 1
1 1 1 1
1 1 1 1
1 1 1 1
0.999934 1 1 0.999934
0.999964 1 1 0.999964
0.999997 1 1 0.999997
0.999964 1 1 0.999964
1 1 1 1
0.999998 1 1 0.999998
0.999965 1 1 0.999965
1 1 1 1
1 1 1 1
0.999999 1 1 0.999999
1 1 1 1
1 1 1 1
1 1 1 1
0.999927 0.999922 1 1
1.00015 1.00016 0.999996 1
0.999801 0.999803 0.999998 1
0.999931 1 1 0.999931
0.999919 1 1 0.999919
0.99992 1 1 0.99992
0.999914 1 1 0.999914
0.999912 1 1 0.999912
0.999926 1 1 0.999926
0.999904 1 1 0.999904
0.999908 1 1 0.999908
0.999895 1 1 0.999895
0.999897 1 1 0.999897
0.99963 0.999831 0.999799 1
0.99912 0.998742 1.00038 1
0.999401 0.999174 1.00023 1
0.999234 1.00098 0.998264 0.999991
0.986641 1.00264 0.98416 0.999877
0.993797 0.997243 0.996781 0.999763
0.993668 0.991396 1.0028 0.999493
1.00331 0.99595 1.00756 0.99983
0.985142 0.992229 0.993373 0.999481
0.994949 1.00092 0.994188 0.999844
0.992072 1.00207 0.990024 0.999999
1.01566 0.993848 1.02209 0.999863
0.994801 0.990697 1.00468 0.999469
0.982195 0.99469 0.987678 0.999758
0.987834 1.00151 0.986344 1
0.999889 1 1 0.999889
0.999878 1 1 0.999878
0.999882 1 1 0.999882
1.00296 0.998404 1.00468 0.999879
1.00024 1 1.00041 0.99983
0.999852 1 1 0.999852
0.999827 1 1 0.999827
0.999864 1 1.00003 0.999831
1.00324 1 1.00344 0.999796
1.01355 0.998635 1.01502 0.999915
1.00156 1 1.00174 0.999817
1.00711 0.999521 1.00773 0.999857
0.998961 0.998959 1 1
0.999871 0.999872 0.999999 1
1.00006 1.00007 0.999989 1
1.0039 1 1.00396 0.999934
1.00413 0.996894 1.00736 0.999902
0.999783 0.999788 0.999995 1
0.993687 0.986691 1.00774 0.999355
0.979774 0.991659 0.988254 0.999757
1.00008 1.00004 1.00005 1
0.987282 1.00154 0.985764 1
0.997232 1 0.997282 0.999949
0.999528 0.999467 1.00006 1
0.996175 1.00074 0.995436 1
0.990703 0.996435 0.994336 0.999912
0.973276 0.984007 0.989316 0.999776
0.993429 0.986213 1.00811 0.999215
0.990014 1 0.99011 0.999904
0.998858 0.999866 0.998993 0.999999
0.974246 0.981126 0.993186 0.999799
0.982939 0.979244 1.00448 0.999299
0.978242 1.00089 0.977443 0.999924
1.00798 1 1.00812 0.999854
1.01277 1 1.01294 0.999828
1.01043 1 1.01063 0.999803
1.00377 1 1.00394 0.999833
1.00451 1 1.00471 0.999805
1.00165 1 1.00183 0.999819
1.00104 1 1.00121 0.999829
1.00032 1 1.00048 0.999833
0.999868 1 1 0.999868
0.999853 1 1 0.999853
0.999864 1 1 0.999864
0.99989 1 1 0.99989
0.999898 1 1 0.999898
0.999886 1 1 0.999886
0.999881 1 1 0.999881
0.999906 1 1 0.999906
0.999888 1 1 0.999888
0.999871 1 1 0.999871
0.999935 1 1 0.999935
0.999919 1 1 0.999919
0.999905 1 1 0.999905
0.999964 1 1 0.999964
0.999936 1 1 0.999936
0.999922 1 1 0.999922
0.999998 1 1 0.999998
0.999967 1 1 0.999967
0.999941 1 1 0.999941
1 1 1 1
0.999997 1 1 0.999997
0.999968 1 1 0.999968
1 1 1 1
1 1 1 1
0.999997 1 1 0.999997
1 1 1 1
1 1 1 1
1 1 1 1
0.999934 1 1 0.999934
0.999964 1 1 0.999964
0.999933 1 1 0.999933
0.999996 1 1 0.999996
0.999964 1 1 0.999964
1 1 1 1
0.999997 1 1 0.999997
0.999964 1 1 0.999964
1 1 1 1
1 1 1 1
0.999998 1 1 0.999998
1 1 1 1
1 1 1 1
1 1 1 1
0.99928 0.999279 1 1
0.999925 0.999912 1.00001 1
1.00016 1.00018 0.999987 1
0.999924 1 1 0.999924
0.999932 1 1 0.999932
0.999918 1 1 0.999918
0.999916 1 1 0.999916
0.999922 1 1 0.999922
0.999912 1 1 0.999912
0.99991 1 1 0.99991
0.999905 1 1 0.999905
0.999909 1 1 0.999909
0.999896 1 1 0.999896
0.999897 1 1 0.999897
0.999897 1 1 0.999897
0.995598 1.00064 0.994965 1
0.999708 0.999865 0.999843 1
0.998913 0.998527 1.00038 1
0.991762 1.00269 0.989099 0.999997
0.993921 1.00056 0.993585 0.99978
0.991721 0.993294 0.998928 0.999488
1.00506 0.99479 1.01032 0.999999
1.01883 0.994262 1.02471 1
0.988991 1.00133 0.987681 1
0.993823 0.993699 1.00074 0.999385
0.983827 0.992919 0.990889 0.999953
1.00739 0.997055 1.01041 0.99996
0.993483 0.987476 1.00673 0.999358
0.97436 0.983984 0.990244 0.999975
0.999903 1 1 0.999903
0.99989 1 1 0.99989
0.999881 1 1 0.999881
1.01336 0.999374 1.01408 0.999915
1.00356 1 1.00377 0.999796
0.999882 1 1.00005 0.999832
1.00165 1 1.00183 0.999819
1.00661 0.999746 1.00701 0.999857
1.00157 1 1.00169 0.999877
0.996988 0.999341 0.997649 0.999997
0.999123 0.999121 1 1
0.999983 0.999986 0.999997 1
0.997099 1 0.997149 0.999949
0.990005 0.997772 0.992244 0.999972
0.999388 0.999378 1.00001 1
0.997195 0.9874 1.01036 0.999565
0.974252 0.983719 0.990411 0.999966
0.99459 1.00067 0.993922 0.999999
0.989684 1.00036 0.989417 0.999908
0.997214 0.999786 0.997429 0.999998
0.974329 0.980236 0.994 0.999974
0.978479 1.00131 0.977466 0.999725
0.984866 0.980926 1.00469 0.999329
0.980008 1.00478 0.97552 0.999824
0.976027 0.980427 0.995534 0.999978
0.980103 0.978132 1.00259 0.999427
0.978711 1.00442 0.974663 0.999733
1.01336 1 1.01353 0.999829
1.01041 1 1.01061 0.9998
1.00289 1 1.00305 0.99984
1.00454 1 1.00473 0.999808
1.00138 1 1.00156 0.999821
0.999896 1 1 0.999896
1.00025 1 1.00041 0.999834
0.99987 1 1 0.99987
0.999923 1 1 0.999923
0.999865 1 1 0.999865
0.999891 1 1 0.999891
0.999922 1 1 0.999922
0.999917 1 1 0.999917
0.999897 1 1 0.999897
0.9999 1 1 0.9999
0.999899 1 1 0.999899
0.999888 1 1 0.999888
0.999882 1 1 0.999882
0.999929 1 1 0.999929
0.999906 1 1 0.999906
0.999885 1 1 0.999885
0.99996 1 1 0.99996
0.999935 1 1 0.999935
0.999921 1 1 0.999921
0.999997 1 1 0.999997
0.999964 1 1 0.999964
0.999936 1 1 0.999936
1 1 1 1
0.999997 1 1 0.999997
0.999967 1 1 0.999967
1 1 1 1
1 1 1 1
0.999998 1 1 0.999998
1 1 1 1
1 1 1 1
1 1 1 1
0.999939 1 1 0.999939
0.999935 1 1 0.999935
0.999963 1 1 0.999963
0.999996 1 1 0.999996
0.999963 1 1 0.999963
0.999932 1 1 0.999932
1 1 1 1
0.999996 1 1 0.999996
0.999963 1 1 0.999963
1 1 1 1
1 1 1 1
0.999997 1 1 0.999997
1 1 1 1
1 1 1 1
1 1 1 1
0.99848 0.999702 0.998778 0.999999
0.999209 0.999207 1 1
0.999921 0.999905 1.00002 1
0.999922 1 1 0.999922
0.999923 1 1 0.999923
0.999915 1 1 0.999915
0.999918 1 1 0.999918
0.999924 1 1 0.999924
0.999912 1 1 0.999912
0.999906 1 1 0.999906
0.999911 1 1 0.999911
0.999902 1 1 0.999902
0.999905 1 1 0.999905
0.999897 1 1 0.999897
0.999896 1 1 0.999896
0.977484 0.981506 0.995927 0.999976
0.996219 1.00083 0.995391 1
0.999782 0.999883 0.999899 1
0.990193 1.00113 0.989072 1
0.977961 0.990645 0.987418 0.999776
0.998622 0.99575 1.00331 0.999575
1.01956 0.99432 1.02553 0.99986
1.00847 0.997054 1.01165 0.999804
0.974442 0.984305 0.99018 0.999797
0.995543 0.989725 1.0064 0.999478
1.00444 0.998336 1.00637 0.999752
0.987081 0.983618 1.00413 0.999395
1.00083 1 1.00094 0.999889
0.999913 1 1.00001 0.999904
0.99989 1 1 0.99989
1.00616 1 1.0063 0.999856
1.00174 1 1.00192 0.999821
1.00145 1 1.00157 0.999881
0.999588 1 0.999713 0.999876
0.974597 0.981479 0.993015 0.999974
0.998094 0.999496 0.9986 0.999998
0.999299 0.999297 1 1
0.989295 1.00054 0.988853 0.999912
0.977309 1.00018 0.977191 0.999946
0.997137 0.999719 0.99742 0.999998
0.983908 0.979945 1.00472 0.999327
0.97352 0.980143 0.993436 0.999805
0.979503 1.00428 0.975494 0.999829
0.974705 0.979215 0.995491 0.999903
0.980606 0.976956 1.00435 0.99939
0.977404 1.00384 0.973738 0.999927
0.976349 1.00788 0.968893 0.999819
0.972932 0.973318 1.00026 0.999347
0.992797 1.00241 0.990478 0.999932
1.01059 1 1.01079 0.999797
1.0026 1 1.00276 0.999839
0.999401 1 0.999473 0.999928
1.00109 1 1.00127 0.999823
0.999835 1 0.999937 0.999898
0.999768 1 0.999797 0.999971
0.999873 1 1 0.999873
0.999923 1 1 0.999923
0.999954 1 1 0.999954
0.999892 1 1 0.999892
0.999921 1 1 0.999921
0.999933 1 1 0.999933
0.999922 1 1 0.999922
0.999919 1 1 0.999919
0.999913 1 1 0.999913
0.999904 1 1 0.999904
0.999898 1 1 0.999898
0.999901 1 1 0.999901
0.999917 1 1 0.999917
0.999902 1 1 0.999902
0.99989 1 1 0.99989
0.999954 1 1 0.999954
0.999928 1 1 0.999928
0.999906 1 1 0.999906
0.999996 1 1 0.999996
0.99996 1 1 0.99996
0.999935 1 1 0.999935
1 1 1 1
0.999997 1 1 0.999997
0.999964 1 1 0.999964
1 1 1 1
1 1 1 1
0.999997 1 1 0.999997
1 1 1 1
1 1 1 1
1 1 1 1
0.999936 1 1 0.999936
0.999936 1 1 0.999936
0.999962 1 1 0.999962
0.999936 1 1 0.999936
0.999963 1 1 0.999963
0.999996 1 1 0.999996
1 1 1 1
0.999996 1 1 0.999996
0.999963 1 1 0.999963
1 1 1 1
1 1 1 1
0.999997 1 1 0.999997
1 1 1 1
1 1 1 1
1 1 1 1
0.978 0.980822 0.997287 0.999837
0.998006 0.999945 0.998062 0.999999
0.999133 0.999131 1 1
0.999921 1 1 0.999921
0.999915 1 1 0.999915
0.999924 1 1 0.999924
0.999923 1 1 0.999923
0.999914 1 1 0.999914
0.999907 1 1 0.999907
0.999912 1 1 0.999912
0.999902 1 1 0.999902
0.999908 1 1 0.999908
0.999899 1 1 0.999899
0.999904 1 1 0.999904
0.999902 1 1 0.999902
0.999896 1 1 0.999896
0.981259 0.981116 1.00086 0.999282
0.977973 0.982171 0.995827 0.999899
0.995789 1.00105 0.994745 1
0.974961 0.984374 0.990464 0.999973
0.992711 0.986903 1.00673 0.999161
1.00936 0.997737 1.0117 0.999957
1.00478 0.998463 1.00649 0.999842
0.986071 0.98292 1.00381 0.999399
1.00032 0.998821 1.00169 0.999807
1.00069 1 1.00086 0.999822
1.00126 1 1.00137 0.999886
0.999905 1 1 0.999905
1.00135 1 1.00146 0.999886
0.999614 1 0.999699 0.999915
0.970365 0.972868 0.997893 0.999534
0.976045 0.980944 0.995161 0.999845
0.999023 0.999635 0.999388 0.999999
0.978817 1.00401 0.97507 0.999834
0.980684 1.00784 0.97333 0.999718
0.976637 0.979727 0.997005 0.999841
0.982151 0.976489 1.00642 0.999379
0.97618 1.00678 0.969782 0.999814
0.97559 0.974628 1.00149 0.999497
0.989164 1.00397 0.985497 0.999752
0.973982 1.00548 0.96879 0.999884
1.00221 0.99617 1.00614 0.999931
1.0021 1 1.00226 0.999839
0.998278 1 0.998349 0.999928
0.997478 1 0.997493 0.999986
0.999661 1 0.999762 0.999899
0.999556 1 0.999586 0.99997
0.999581 1 0.999602 0.99998
0.999924 1 1 0.999924
0.999952 1 1 0.999952
0.999945 1 1 0.999945
0.999921 1 1 0.999921
0.999932 1 1 0.999932
0.999924 1 1 0.999924
0.999924 1 1 0.999924
0.999915 1 1 0.999915
0.99992 1 1 0.99992
0.999913 1 1 0.999913
0.999911 1 1 0.999911
0.999914 1 1 0.999914
0.999904 1 1 0.999904
0.999898 1 1 0.999898
0.999946 1 1 0.999946
0.999919 1 1 0.999919
0.999904 1 1 0.999904
0.999993 1 1 0.999993
0.999954 1 1 0.999954
0.999928 1 1 0.999928
1 1 1 1
0.999995 1 1 0.999995
0.99996 1 1 0.99996
1 1 1 1
1 1 1 1
0.999996 1 1 0.999996
1 1 1 1
1 1 1 1
1 1 1 1
0.999932 1 1 0.999932
0.999937 1 1 0.999937
0.999957 1 1 0.999957
0.999933 1 1 0.999933
0.99996 1 1 0.99996
0.999995 1 1 0.999995
0.999963 1 1 0.999963
0.999996 1 1 0.999996
1 1 1 1
1 1 1 1
1 1 1 1
0.999996 1 1 0.999996
1 1 1 1
1 1 1 1
1 1 1 1
0.976006 0.976181 1.00031 0.999513
0.977128 0.982381 0.994678 0.999974
0.998937 1.0002 0.998734 0.999999
0.999915 1 1 0.999915
0.999925 1 1 0.999925
0.999915 1 1 0.999915
0.999923 1 1 0.999923
0.99992 1 1 0.99992
0.999915 1 1 0.999915
0.999901 1 1 0.999901
0.999908 1 1 0.999908
0.9999 1 1 0.9999
0.999906 1 1 0.999906
0.999902 1 1 0.999902
0.999839 1 1 0.999839
0.999902 1 1 0.999902
0.9999 1 1 0.9999
0.993059 0.995522 0.997549 0.999977
0.978024 0.978464 1.0001 0.999453
0.975231 0.981001 0.994303 0.999815
0.986512 0.983494 1.00371 0.999361
1.00493 0.998499 1.00649 0.999948
1.00046 0.998642 1.00189 0.999934
0.999345 1 0.999546 0.999799
1.00118 1 1.00135 0.999826
1.00167 1 1.00179 0.999882
0.999645 1 0.99969 0.999955
0.995334 0.993087 1.00245 0.999816
0.973584 0.973679 1.00035 0.999551
0.976053 0.981479 0.994495 0.999977
0.975977 1.00548 0.970845 0.99981
0.990487 1.00633 0.984329 0.999926
0.976391 0.974104 1.00269 0.999657
0.976872 1.00366 0.973428 0.99988
0.997754 0.997024 1.00085 0.99988
0.984208 1.00069 0.98359 0.999941
1.00234 1 1.00249 0.999859
0.997233 1 0.997303 0.999929
0.997167 1 0.997182 0.999985
0.997998 1 0.998035 0.999963
0.999501 1 0.999532 0.99997
0.999705 1 0.999727 0.999978
0.999942 1 1 0.999942
0.99995 1 1 0.99995
0.999943 1 1 0.999943
0.999918 1 1 0.999918
0.999931 1 1 0.999931
0.999925 1 1 0.999925
0.99991 1 1 0.99991
0.999926 1 1 0.999926
0.999916 1 1 0.999916
0.99991 1 1 0.99991
0.999913 1 1 0.999913
0.99991 1 1 0.99991
0.999917 1 1 0.999917
0.999936 1 1 0.999936
0.999915 1 1 0.999915
0.999903 1 1 0.999903
0.999988 1 1 0.999988
0.999946 1 1 0.999946
0.999921 1 1 0.999921
1 1 1 1
0.999992 1 1 0.999992
0.999954 1 1 0.999954
1 1 1 1
1 1 1 1
0.999995 1 1 0.999995
1 1 1 1
1 1 1 1
1 1 1 1
0.99993 1 1 0.99993
0.999934 1 1 0.999934
0.999953 1 1 0.999953
0.999937 1 1 0.999937
0.999956 1 1 0.999956
0.999994 1 1 0.999994
0.999958 1 1 0.999958
0.999995 1 1 0.999995
1 1 1 1
0.999996 1 1 0.999996
1 1 1 1
1 1 1 1
1 1 1 1
1 1 1 1
1 1 1 1
0.990402 0.991819 0.998582 0.99999
0.972216 0.973772 0.998896 0.999507
0.976086 0.982428 0.99371 0.999834
0.999916 1 1 0.999916
0.999916 1 1 0.999916
0.999924 1 1 0.999924
0.999915 1 1 0.999915
0.99992 1 1 0.99992
0.999917 1 1 0.999917
0.999908 1 1 0.999908
0.999901 1 1 0.999901
0.999907 1 1 0.999907
0.999908 1 1 0.999908
0.999873 1 1 0.999873
0.999782 1 1 0.999782
0.999846 1 1 0.999846
0.9999 1 1 0.9999
0.997589 1 0.99777 0.999819
0.994242 0.997436 0.996917 0.999881
0.979187 0.978859 1.00072 0.999618
1.00034 0.999428 1.00115 0.999763
0.999674 1.00017 0.999746 0.999756
1.00168 1 1.00185 0.999831
0.999983 1 1.00002 0.999964
0.996564 0.992641 1.00397 0.999978
0.971234 0.973715 0.997922 0.99953
0.97972 1.00177 0.978107 0.999876
0.994113 0.997331 0.99696 0.999813
0.987835 1.00022 0.987678 0.999934
1.00128 1 1.00141 0.999877
0.999887 1 1 0.999887
0.999869 1 1 0.999869
0.996744 1 0.99676 0.999984
0.998738 1 0.998777 0.999961
0.999911 1 1 0.999911
0.999784 1 0.999808 0.999976
0.999941 1 1 0.999941
0.999906 1 1 0.999906
0.999942 1 1 0.999942
0.99992 1 1 0.99992
0.999896 1 1 0.999896
0.999925 1 1 0.999925
0.99991 1 1 0.99991
0.999903 1 1 0.999903
0.999918 1 1 0.999918
0.99991 1 1 0.99991
0.999912 1 1 0.999912
0.99991 1 1 0.99991
0.999915 1 1 0.999915
0.999933 1 1 0.999933
0.999981 1 1 0.999981
0.999938 1 1 0.999938
0.999917 1 1 0.999917
1 1 1 1
0.999987 1 1 0.999987
0.999946 1 1 0.999946
1 1 1 1
1 1 1 1
0.999992 1 1 0.999992
1 1 1 1
1 1 1 1
1 1 1 1
0.999925 1 1 0.999925
0.999931 1 1 0.999931
0.999952 1 1 0.999952
0.999936 1 1 0.999936
0.999955 1 1 0.999955
0.999993 1 1 0.999993
0.999956 1 1 0.999956
0.999995 1 1 0.999995
1 1 1 1
0.999996 1 1 0.999996
1 1 1 1
1 1 1 1
1 1 1 1
1 1 1 1
1 1 1 1
0.998159 1 0.998211 0.999947
0.99088 0.993031 0.998008 0.999826
0.974164 0.974944 0.999659 0.99954
0.999915 1 1 0.999915
0.999903 1 1 0.999903
0.999916 1 1 0.999916
0.999915 1 1 0.999915
0.99992 1 1 0.99992
0.999916 1 1 0.999916
0.999878 1 1 0.999878
0.999908 1 1 0.999908
0.999915 1 1 0.999915
0.999871 1 1 0.999871
0.999811 1 1 0.999811
0.999864 1 1 0.999864
0.999788 1 1 0.999788
0.999853 1 1 0.999853
0.998071 1.00014 0.998105 0.999824
0.993363 0.997117 0.996435 0.9998
0.999997 1.00028 1 0.999714
0.999972 1 1 0.999972
1.00113 1 1.00116 0.999965
0.994771 0.991977 1.00298 0.999837
0.991829 1 0.9919 0.999928
1.00024 1 1.00034 0.999895
0.999428 1 0.999537 0.999891
0.999879 1 1 0.999879
0.999873 1 1 0.999873
0.999935 1 1 0.999935
0.999512 1 0.999552 0.99996
0.999913 1 1 0.999913
0.999884 1 1 0.999884
0.99994 1 1 0.99994
0.999906 1 1 0.999906
0.999886 1 1 0.999886
0.999921 1 1 0.999921
0.999897 1 1 0.999897
0.999891 1 1 0.999891
0.99991 1 1 0.99991
0.999903 1 1 0.999903
0.999906 1 1 0.999906
0.999911 1 1 0.999911
0.999912 1 1 0.999912
0.999928 1 1 0.999928
0.999914 1 1 0.999914
0.999932 1 1 0.999932
0.999973 1 1 0.999973
1 1 1 1
0.99998 1 1 0.99998
0.99994 1 1 0.99994
1 1 1 1
1 1 1 1
0.999986 1 1 0.999986
1 1 1 1
1 1 1 1
1 1 1 1
0.999914 1 1 0.999914
0.999924 1 1 0.999924
0.999947 1 1 0.999947
0.999931 1 1 0.999931
0.999952 1 1 0.999952
0.99999 1 1 0.99999
0.999956 1 1 0.999956
0.999993 1 1 0.999993
1 1 1 1
0.999995 1 1 0.999995
1 1 1 1
1 1 1 1
1 1 1 1
1 1 1 1
1 1 1 1
0.999961 1 1 0.999961
0.998277 1 0.998327 0.99995
0.990144 0.991818 0.998319 0.999993
0.999891 1 1 0.999891
0.999919 1 1 0.999919
0.999878 1 1 0.999878
0.999902 1 1 0.999902
0.999916 1 1 0.999916
0.999837 1 1 0.999837
0.999915 1 1 0.999915
0.999879 1 1 0.999879
0.999845 1 1 0.999845
0.99987 1 1 0.99987
0.999803 1 1 0.999803
0.999861 1 1 0.999861
0.999794 1 1 0.999794
0.998549 1.00035 0.998376 0.999829
0.999975 1 1 0.999975
0.99997 1 1 0.99997
1.00221 1 1.00224 0.999967
0.998991 1 0.999096 0.999895
0.999888 1 1 0.999888
0.99987 1 1 0.99987
0.999936 1 1 0.999936
0.999921 1 1 0.999921
0.999915 1 1 0.999915
0.999886 1 1 0.999886
0.999886 1 1 0.999886
0.999905 1 1 0.999905
0.999884 1 1 0.999884
0.999883 1 1 0.999883
0.999897 1 1 0.999897
0.999891 1 1 0.999891
0.999896 1 1 0.999896
0.999903 1 1 0.999903
0.999906 1 1 0.999906
0.999921 1 1 0.999921
0.999912 1 1 0.999912
0.999928 1 1 0.999928
0.999966 1 1 0.999966
0.999931 1 1 0.999931
0.999973 1 1 0.999973
1 1 1 1
1 1 1 1
1 1 1 1
0.99998 1 1 0.99998
1 1 1 1
1 1 1 1
1 1 1 1
0.999881 1 1 0.999881
0.999901 1 1 0.999901
0.999912 1 1 0.999912
0.99994 1 1 0.99994
0.999922 1 1 0.999922
0.999947 1 1 0.999947
0.999986 1 1 0.999986
0.999952 1 1 0.999952
0.99999 1 1 0.99999
1 1 1 1
0.999993 1 1 0.999993
1 1 1 1
1 1 1 1
1 1 1 1
1 1 1 1
1 1 1 1
0.99993 1 1 0.99993
0.999957 1 1 0.999957
0.998405 1 0.998452 0.999953
0.999855 1 1 0.999855
0.999897 1 1 0.999897
0.999923 1 1 0.999923
0.99988 1 1 0.99988
0.999901 1 1 0.999901
0.999837 1 1 0.999837
0.999835 1 1 0.999835
0.99988 1 1 0.99988
0.999843 1 1 0.999843
0.999796 1 1 0.999796
0.999858 1 1 0.999858
0.999966 1 1 0.999966
0.999974 1 1 0.999974
0.999968 1 1 0.999968
0.999867 1 1 0.999867
0.999937 1 1 0.999937
0.99992 1 1 0.99992
0.99992 1 1 0.99992
0.999888 1 1 0.999888
0.999883 1 1 0.999883
0.999893 1 1 0.999893
0.999883 1 1 0.999883
0.999883 1 1 0.999883
0.999888 1 1 0.999888
0.999891 1 1 0.999891
0.999896 1 1 0.999896
0.999911 1 1 0.999911
0.999906 1 1 0.999906
0.999921 1 1 0.999921
0.999958 1 1 0.999958
0.999928 1 1 0.999928
0.999966 1 1 0.999966
1 1 1 1
0.999973 1 1 0.999973
1 1 1 1
1 1 1 1
1 1 1 1
1 1 1 1
1 1 1 1
0.99986 1 1 0.99986
0.999898 1 1 0.999898
0.999888 1 1 0.999888
0.999929 1 1 0.999929
0.999901 1 1 0.999901
0.99991 1 1 0.99991
0.99994 1 1 0.99994
0.999981 1 1 0.999981
0.999947 1 1 0.999947
0.999987 1 1 0.999987
1 1 1 1
0.999991 1 1 0.999991
1 1 1 1
1 1 1 1
1 1 1 1
1 1 1 1
1 1 1 1
0.999907 1 1 0.999907
0.999931 1 1 0.999931
0.999954 1 1 0.999954
0.999848 1 1 0.999848
0.999855 1 1 0.999855
0.999903 1 1 0.999903
0.999883 1 1 0.999883
0.999837 1 1 0.999837
0.999832 1 1 0.999832
0.99984 1 1 0.99984
0.999949 1 1 0.999949
0.999959 1 1 0.999959
0.999972 1 1 0.999972
0.999924 1 1 0.999924
0.999919 1 1 0.999919
0.999919 1 1 0.999919
0.999912 1 1 0.999912
0.99988 1 1 0.99988
0.999893 1 1 0.999893
0.999892 1 1 0.999892
0.999882 1 1 0.999882
0.999888 1 1 0.999888
0.999903 1 1 0.999903
0.999896 1 1 0.999896
0.999911 1 1 0.999911
0.999949 1 1 0.999949
0.999921 1 1 0.999921
0.999958 1 1 0.999958
1 1 1 1
0.999966 1 1 0.999966
1 1 1 1
1 1 1 1
1 1 1 1
1 1 1 1
1 1 1 1
0.999851 1 1 0.999851
0.999874 1 1 0.999874
0.999863 1 1 0.999863
0.999922 1 1 0.999922
0.999896 1 1 0.999896
0.999895 1 1 0.999895
0.999972 1 1 0.999972
0.999929 1 1 0.999929
0.999902 1 1 0.999902
0.99994 1 1 0.99994
0.999982 1 1 0.999982
1 1 1 1
0.999987 1 1 0.999987
1 1 1 1
1 1 1 1
1 1 1 1
1 1 1 1
1 1 1 1
0.999896 1 1 0.999896
0.999902 1 1 0.999902
0.999931 1 1 0.999931
0.999843 1 1 0.999843
0.999855 1 1 0.999855
0.999838 1 1 0.999838
0.999927 1 1 0.999927
0.999951 1 1 0.999951
0.999952 1 1 0.999952
0.999921 1 1 0.999921
0.999915 1 1 0.999915
0.999919 1 1 0.999919
0.999912 1 1 0.999912
0.999909 1 1 0.999909
0.999894 1 1 0.999894
0.999893 1 1 0.999893
0.999903 1 1 0.999903
0.999888 1 1 0.999888
0.999903 1 1 0.999903
0.99994 1 1 0.99994
0.999911 1 1 0.999911
0.999949 1 1 0.999949
0.999999 1 1 0.999999
0.999958 1 1 0.999958
1 1 1 1
1 1 1 1
1 1 1 1
1 1 1 1
1 1 1 1
0.999892 1 1 0.999892
0.999859 1 1 0.999859
0.99985 1 1 0.99985
0.999901 1 1 0.999901
0.999876 1 1 0.999876
0.999867 1 1 0.999867
0.99996 1 1 0.99996
0.999917 1 1 0.999917
0.999895 1 1 0.999895
1 1 1 1
0.999972 1 1 0.999972
0.999929 1 1 0.999929
0.999982 1 1 0.999982
1 1 1 1
1 1 1 1
1 1 1 1
1 1 1 1
1 1 1 1
0.999889 1 1 0.999889
0.999894 1 1 0.999894
0.999897 1 1 0.999897
0.999838 1 1 0.999838
0.999912 1 1 0.999912
0.999929 1 1 0.999929
0.999954 1 1 0.999954
0.999917 1 1 0.999917
0.999917 1 1 0.999917
0.999919 1 1 0.999919
0.999912 1 1 0.999912
0.999908 1 1 0.999908
0.999911 1 1 0.999911
0.999893 1 1 0.999893
0.999903 1 1 0.999903
0.999936 1 1 0.999936
0.999903 1 1 0.999903
0.99994 1 1 0.99994
0.999998 1 1 0.999998
0.999949 1 1 0.999949
0.999999 1 1 0.999999
1 1 1 1
1 1 1 1
1 1 1 1
1 1 1 1
0.999892 1 1 0.999892
0.999884 1 1 0.999884
0.999891 1 1 0.999891
0.999881 1 1 0.999881
0.999864 1 1 0.999864
0.999849 1 1 0.999849
0.999939 1 1 0.999939
0.999901 1 1 0.999901
0.999878 1 1 0.999878
0.999999 1 1 0.999999
0.999956 1 1 0.999956
0.999913 1 1 0.999913
1 1 1 1
1 1 1 1
0.999973 1 1 0.999973
1 1 1 1
1 1 1 1
1 1 1 1
0.999896 1 1 0.999896
0.999895 1 1 0.999895
0.999892 1 1 0.999892
0.999921 1 1 0.999921
0.999913 1 1 0.999913
0.999931 1 1 0.999931
0.999918 1 1 0.999918
0.999919 1 1 0.999919
0.999928 1 1 0.999928
0.999908 1 1 0.999908
0.999913 1 1 0.999913
0.999937 1 1 0.999937
0.999904 1 1 0.999904
0.999937 1 1 0.999937
0.999996 1 1 0.999996
0.99994 1 1 0.99994
0.999997 1 1 0.999997
1 1 1 1
0.999999 1 1 0.999999
1 1 1 1
1 1 1 1
0.999891 1 1 0.999891
0.999896 1 1 0.999896
0.999891 1 1 0.999891
0.999892 1 1 0.999892
0.999885 1 1 0.999885
0.99989 1 1 0.99989
0.999924 1 1 0.999924
0.999885 1 1 0.999885
0.999869 1 1 0.999869
0.999997 1 1 0.999997
0.999936 1 1 0.999936
0.999901 1 1 0.999901
1 1 1 1
1 1 1 1
0.999952 1 1 0.999952
1 1 1 1
1 1 1 1
1 1 1 1
0.999907 1 1 0.999907
0.999897 1 1 0.999897
0.999901 1 1 0.999901
0.999929 1 1 0.999929
0.99992 1 1 0.99992
0.999913 1 1 0.999913
0.99992 1 1 0.99992
0.999928 1 1 0.999928
0.999947 1 1 0.999947
0.999915 1 1 0.999915
0.999938 1 1 0.999938
0.999994 1 1 0.999994
0.999937 1 1 0.999937
0.999995 1 1 0.999995
1 1 1 1
0.999997 1 1 0.999997
1 1 1 1
1 1 1 1
0.999901 1 1 0.999901
0.999887 1 1 0.999887
0.999905 1 1 0.999905
0.999897 1 1 0.999897
0.99989 1 1 0.99989
0.999928 1 1 0.999928
0.999891 1 1 0.999891
0.999887 1 1 0.999887
0.999995 1 1 0.999995
0.999926 1 1 0.999926
0.999889 1 1 0.999889
1 1 1 1
0.999998 1 1 0.999998
0.999934 1 1 0.999934
1 1 1 1
1 1 1 1
1 1 1 1
0.99992 1 1 0.99992
0.999907 1 1 0.999907
0.999897 1 1 0.999897
0.999947 1 1 0.999947
0.999929 1 1 0.999929
0.999918 1 1 0.999918
0.999929 1 1 0.999929
0.999946 1 1 0.999946
0.999995 1 1 0.999995
0.999939 1 1 0.999939
0.999994 1 1 0.999994
1 1 1 1
0.999994 1 1 0.999994
1 1 1 1
1 1 1 1
0.999912 1 1 0.999912
0.999899 1 1 0.999899
0.999884 1 1 0.999884
0.999935 1 1 0.999935
0.999905 1 1 0.999905
0.999898 1 1 0.999898
0.999994 1 1 0.999994
0.999928 1 1 0.999928
0.999891 1 1 0.999891
1 1 1 1
0.999995 1 1 0.999995
0.999927 1 1 0.999927
1 1 1 1
0.999999 1 1 0.999999
1 1 1 1
0.999947 1 1 0.999947
0.999919 1 1 0.999919
0.999907 1 1 0.999907
0.999994 1 1 0.999994
0.999947 1 1 0.999947
0.99993 1 1 0.99993
0.999945 1 1 0.999945
0.999995 1 1 0.999995
1 1 1 1
0.999994 1 1 0.999994
1 1 1 1
1 1 1 1
0.999942 1 1 0.999942
0.999912 1 1 0.999912
0.999897 1 1 0.999897
0.999994 1 1 0.999994
0.999935 1 1 0.999935
0.999905 1 1 0.999905
1 1 1 1
0.999994 1 1 0.999994
0.999927 1 1 0.999927
1 1 1 1
0.999996 1 1 0.999996
1 1 1 1
0.999994 1 1 0.999994
0.999945 1 1 0.999945
0.999919 1 1 0.999919
1 1 1 1
0.999994 1 1 0.999994
0.999947 1 1 0.999947
0.999995 1 1 0.999995
1 1 1 1
1 1 1 1
0.999994 1 1 0.999994
0.999942 1 1 0.999942
0.999912 1 1 0.999912
1 1 1 1
0.999994 1 1 0.999994
0.999935 1 1 0.999935
1 1 1 1
0.999994 1 1 0.999994
1 1 1 1
1 1 1 1
0.999994 1 1 0.999994
0.999943 1 1 0.999943
1 1 1 1
0.999994 1 1 0.999994
1 1 1 1
1 1 1 1
0.999994 1 1 0.999994
0.999942 1 1 0.999942
1 1 1 1
0.999994 1 1 0.999994
1 1 1 1
1 1 1 1
0.999994 1 1 0.999994
1 1 1 1
1 1 1 1
0.999994 1 1 0.999994
1 1 1 1
1 1 1 1
1 1 1 1

VECTORS lamdaE float
0.999286 0.998245 0.997888
0.999421 0.997568 0.999218
0.999281 0.998216 0.997914
0.999008 0.999332 0.997443
0.999199 0.998606 0.997732
0.999351 0.997921 0.998051
0.999506 0.999306 0.996322
0.999435 0.99756 0.999229
0.999161 0.99848 0.999061
0.999353 0.997794 0.999196
0.999504 0.997336 0.998272
0.999581 0.99875 0.996521
0.998663 1.00022 0.99734
0.998804 0.999682 0.997503
0.999276 0.998187 0.997939
0.999004 0.99932 0.997466
0.999347 0.997895 0.998073
0.999197 0.998575 0.997757
0.999505 0.999325 0.996324
0.998725 0.999889 0.998876
0.998928 0.999605 0.997366
0.999098 0.998985 0.997582
0.999536 0.999907 0.995718
0.999507 0.999518 0.996129
0.999425 0.997634 0.998175
0.999505 0.999074 0.996532
1.00001 1.00057 0.994136
0.999449 0.997552 0.99924
0.999168 0.99855 0.998408
0.99936 0.997829 0.998635
0.999498 0.997329 0.999261
0.999578 0.998722 0.996526
0.999036 0.999033 0.997631
0.999256 0.998201 0.997948
0.999509 0.999516 0.996467
0.999572 0.997092 0.999294
0.999535 0.998986 0.996899
0.99963 0.99851 0.996656
0.999912 1.00037 0.994254
0.999701 0.996819 0.999293
0.998656 1.00001 0.998861
0.998791 0.999637 0.998207
0.998658 1.00011 0.998834
0.998697 0.999967 0.997452
0.999384 1.00054 0.995052
0.998919 0.999216 0.998964
0.999413 1.00015 0.996021
0.998999 0.999307 0.997489
0.999193 0.998542 0.997782
0.999344 0.997871 0.998096
0.999505 0.999346 0.996326
0.998721 0.999959 0.998126
0.998921 0.999606 0.997379
0.999422 0.99761 0.998191
0.999096 0.998959 0.997608
0.999538 0.999914 0.995722
0.999507 0.999088 0.996537
0.999508 0.999531 0.996131
1.00003 1.00057 0.994108
0.998697 1.00001 0.998858
0.998818 0.999832 0.997378
0.999452 1.00028 0.995839
0.999558 1.00003 0.995576
0.99951 0.999728 0.995929
1.00042 1.00049 0.993409
1.00012 1.0005 0.993827
0.999533 0.997383 0.998245
0.999545 0.998775 0.996735
0.999885 1.00057 0.994375
1.00045 1.00068 0.992873
0.999189 0.998459 0.999075
0.999517 0.997322 0.999273
0.999375 0.997808 0.9992
0.999574 0.998694 0.996532
0.999038 0.998899 0.998985
0.999254 0.998148 0.999117
0.999494 0.999576 0.995843
0.999581 0.997112 0.998805
0.999536 0.998978 0.996366
0.99963 0.998476 0.99692
0.999897 1.00041 0.994247
0.999637 0.996949 0.999291
0.999821 0.997963 0.996813
0.999494 0.999838 0.995544
0.999507 0.99931 0.996072
1.0001 1.00053 0.993705
0.9997 0.99825 0.99725
0.999947 1.00044 0.994112
0.999892 1.00024 0.994432
1.00014 1.00089 0.993274
0.999752 0.996711 0.999298
0.999711 0.996831 0.999295
0.998834 0.999491 0.998935
0.998661 0.999966 0.998879
0.998654 1.0001 0.998839
0.998693 0.999913 0.998164
0.999374 1.0005 0.995453
0.998929 0.999295 0.99825
0.999414 1.00019 0.99568
0.998671 1.00011 0.998838
0.999408 1.00057 0.994971
0.99938 1.00032 0.995932
1.00041 1.00067 0.992925
0.99947 0.999947 0.996126
1.00033 1.00056 0.993207
0.998726 1.00004 0.997361
0.998913 0.999608 0.997393
0.999419 0.997587 0.998206
0.999093 0.998931 0.997633
0.99954 0.999922 0.995726
0.999509 0.999546 0.996132
0.999509 0.9991 0.996542
1.00005 1.00057 0.99408
0.998693 1.00003 0.99885
0.998812 0.999827 0.997387
0.999461 1.00031 0.995307
0.999558 1.00003 0.995576
0.999513 0.997359 0.998752
0.999547 0.998773 0.996894
0.999512 0.999736 0.995933
1.00042 1.00048 0.99333
0.999913 1.00057 0.99434
1.00014 1.00051 0.99387
1.00045 1.00068 0.992878
0.999441 1.00046 0.995013
0.999508 1.00014 0.995574
1.00055 1.0005 0.992988
1.00054 1.00042 0.993094
1.00026 1.00049 0.993577
1.00093 1.00041 0.992312
0.999599 0.997164 0.999268
1.00059 1.0005 0.992773
0.999636 0.998486 0.996655
0.999832 1.00048 0.994286
1.00029 1.00093 0.992987
1.00068 1.00067 0.992446
0.999779 0.998124 0.996713
1.00001 0.99991 0.994501
0.99908 0.998828 0.999008
0.999285 0.998108 0.999146
0.999458 0.999609 0.995834
0.999592 0.997125 0.999288
0.999629 0.998443 0.996684
0.99952 0.998965 0.996354
0.999882 1.00044 0.994241
0.99965 0.996959 0.999292
0.999822 0.997951 0.996814
0.999478 0.999813 0.995919
0.999493 0.999286 0.996399
1.00009 1.00053 0.993702
0.999707 0.998232 0.996779
0.99993 1.00047 0.994108
0.999879 1.00026 0.99443
1.00015 1.00088 0.993242
0.999771 0.998076 0.996803
0.999859 0.997867 0.996832
1 0.999786 0.994649
1.0002 1.0005 0.993502
0.999995 1.00052 0.993933
1.00054 1.00059 0.992776
0.999926 1.00001 0.994592
1.00025 1.00072 0.993179
1.00007 1.00102 0.993323
1.00025 1.00115 0.992877
0.999793 0.996616 0.999305
0.999759 0.996722 0.9993
0.99972 0.996842 0.999296
0.999823 0.998016 0.996735
0.999667 0.997018 0.999273
0.998958 0.999178 0.998963
0.998727 0.99976 0.998911
0.999388 1.00026 0.995321
0.999357 1.00056 0.995084
0.998648 1.00008 0.998846
0.998669 1.0001 0.998834
0.999401 1.00058 0.994974
0.999375 1.00036 0.995585
1.00041 1.00067 0.992925
0.999458 1.00004 0.99543
1.00033 1.00056 0.993209
0.999428 1.00053 0.994957
1.00048 1.00068 0.992769
1.00036 1.00061 0.993082
1.00086 1.00066 0.992049
1.00028 1.00052 0.993342
1.00081 1.00048 0.992358
0.998689 1.00004 0.998842
0.998806 0.999822 0.997396
0.999465 1.00033 0.994781
0.999559 1.00004 0.995576
0.999491 0.997333 0.999262
0.99955 0.99877 0.997053
0.999515 0.999745 0.995937
1.00042 1.00047 0.993251
1.00015 1.00052 0.993913
0.999942 1.00057 0.994305
1.00044 1.00069 0.992883
0.999443 1.00045 0.995012
0.999513 1.00014 0.99557
1.00055 1.00049 0.992841
1.00055 1.00043 0.99314
0.999582 0.997161 0.999266
0.999632 0.998506 0.996896
0.999858 1.00044 0.994432
1.00026 1.00048 0.993576
1.00092 1.00039 0.992227
1.00026 1.00093 0.992969
1.0006 1.0005 0.992815
1.00067 1.00067 0.992454
0.999776 0.99814 0.996713
1.00001 0.999908 0.994505
1.00053 1.00058 0.992769
1.00057 1.00042 0.993013
1.00106 1.00047 0.992004
1.00106 1.00032 0.991934
1.00072 1.00043 0.992647
1.00117 1.00031 0.991883
0.999711 0.998279 0.996692
1.00083 1.00041 0.992394
0.99986 1.00029 0.994421
1.00009 1.00101 0.993146
1.00051 1.00108 0.992535
1.00079 1.00056 0.992352
0.999978 0.999972 0.994504
1.00003 0.999846 0.994538
1.00014 1.001 0.993185
0.999452 0.999867 0.99559
0.999663 0.996969 0.999292
0.999823 0.997939 0.996814
0.999473 0.99929 0.996119
1.00009 1.00054 0.9937
0.999702 0.998214 0.996777
0.999865 1.00029 0.994428
0.999914 1.00051 0.994103
1.00015 1.00088 0.993209
0.999772 0.998064 0.996803
0.99986 0.997855 0.996832
1 0.999787 0.994648
1.00021 1.0005 0.993499
0.999982 1.00054 0.993931
1.00054 1.0006 0.992775
0.999918 1.00002 0.994592
1.00025 1.00072 0.993211
1.00007 1.00102 0.993315
1.00025 1.00114 0.992835
0.99989 0.997779 0.996857
0.999974 0.999849 0.994649
1.00003 0.999734 0.994658
1.00013 1.00084 0.993363
1.00068 1.00048 0.992602
1.00037 1.00069 0.993038
1.00073 1.00066 0.992324
1.00009 1.00091 0.993395
1.00039 1.00088 0.992797
1.00015 1.00146 0.992737
1.00033 1.00122 0.992554
1.00007 0.999493 0.994811
0.999944 0.997616 0.996905
0.999829 0.996529 0.999312
0.999797 0.996625 0.999307
0.999765 0.996733 0.999302
0.999851 0.997923 0.996771
0.999715 0.996901 0.99928
0.99982 0.998031 0.996734
0.999654 0.997007 0.999272
0.999427 1.00008 0.995429
0.999354 1.00044 0.995215
1.00033 1.00056 0.993211
1.00042 1.00067 0.992926
0.999394 1.00058 0.994978
0.998668 1.0001 0.998832
0.999429 1.00053 0.994956
1.00048 1.00068 0.992771
1.00036 1.00061 0.993083
1.00087 1.00066 0.992045
1.00028 1.00052 0.993341
1.00081 1.00048 0.99236
1.00052 1.00065 0.992725
1.00091 1.00072 0.991908
1.00085 1.00055 0.992202
1.00107 1.00057 0.99176
1.00075 1.00044 0.992491
1.00102 1.00038 0.992038
0.999447 1.00045 0.99501
0.999519 1.00014 0.995565
1.00055 1.00048 0.992693
1.00055 1.00043 0.993185
0.999565 0.997157 0.999264
0.999628 0.998526 0.997136
0.999883 1.00041 0.994577
1.00027 1.00048 0.993575
1.00091 1.00038 0.992142
1.00061 1.0005 0.992858
1.00023 1.00093 0.992951
1.00066 1.00067 0.992463
0.999773 0.998155 0.996713
1.00001 0.999907 0.99451
1.00053 1.00058 0.992714
1.00058 1.00041 0.993015
1.00105 1.00044 0.991983
1.00106 1.00034 0.992028
0.999711 0.998296 0.996691
0.999876 1.00027 0.994422
1.00009 1.00101 0.993203
1.00073 1.00044 0.992654
1.00116 1.00027 0.991864
1.00048 1.00108 0.992474
1.00083 1.0004 0.992396
1.00078 1.00055 0.992342
0.999981 0.999969 0.994509
1.00015 1.00097 0.993142
1.00002 0.99985 0.99454
1.00099 1.00061 0.991993
1.00112 1.00033 0.991945
1.00127 1.0004 0.991541
1.00132 1.00024 0.991576
1.00093 1.00029 0.992246
1.00129 1.00001 0.991907
0.99992 1.0001 0.994496
1.00093 1.00024 0.992347
1.00008 1.00095 0.993366
1.00023 1.0013 0.992597
1.0006 1.00118 0.992165
1.00085 1.00038 0.992514
1.00003 0.999758 0.994622
1.00014 1.00091 0.993283
1.00013 1.00109 0.993001
1.00021 1.00147 0.992688
1.00022 1.0005 0.993496
0.999862 0.997843 0.996833
0.999772 0.998051 0.996804
1 0.999788 0.994646
0.99997 1.00056 0.99393
1.00054 1.0006 0.992775
0.999909 1.00003 0.994591
1.00007 1.00103 0.993308
1.00026 1.00072 0.993242
1.00024 1.00113 0.992793
0.999892 0.997767 0.996858
0.999971 0.999852 0.994647
1.00002 0.999735 0.994657
1.00013 1.00085 0.993359
1.00069 1.00048 0.992598
1.00036 1.00069 0.993043
1.00073 1.00066 0.992323
1.00008 1.00092 0.993394
1.00039 1.00088 0.99284
1.00015 1.00147 0.992723
1.00031 1.00118 0.992642
0.999919 0.997694 0.996883
1.00004 0.999677 0.994681
1.00013 1.0008 0.993406
1.00012 1.00088 0.993334
1.00018 1.00143 0.992676
1.00088 1.00045 0.992216
1.00052 1.00083 0.992595
1.0008 1.00072 0.992139
1.00015 1.00145 0.992747
1.00046 1.00103 0.992537
1.00022 1.00174 0.992166
1.00006 0.999556 0.994761
1.00011 1.00082 0.993432
1.00008 0.999434 0.994857
1.00007 0.99949 0.994813
0.999966 0.997527 0.997387
0.999943 0.997609 0.997139
0.999871 0.996477 0.998393
0.999831 0.996536 0.999314
0.999801 0.996635 0.999309
0.999875 0.997832 0.996818
0.999751 0.996795 0.999289
0.99985 0.997937 0.996768
0.999708 0.996889 0.999278
0.999817 0.998045 0.996734
0.999642 0.996997 0.99927
1.00029 1.00052 0.99334
1.00037 1.00061 0.993085
1.0008 1.00048 0.992362
1.00088 1.00066 0.992041
1.00048 1.00068 0.992773
0.999428 1.00053 0.994956
1.00052 1.00064 0.992725
1.00091 1.00072 0.991906
1.00085 1.00055 0.992204
1.00107 1.00056 0.991754
1.00076 1.00045 0.992488
1.00101 1.00039 0.992041
1.00095 1.0007 0.99185
1.00104 1.00066 0.991709
1.00107 1.00045 0.991863
1.0012 1.00041 0.991698
1.00096 1.00037 0.992171
1.00114 1.00007 0.992147
1.00052 1.00058 0.992658
1.00058 1.00039 0.993017
1.00103 1.00043 0.991962
1.00107 1.00035 0.992122
0.99971 0.998312 0.996689
0.999892 1.00025 0.994423
1.00009 1.00102 0.993259
1.00075 1.00044 0.992661
1.00115 1.00023 0.991844
1.00083 1.0004 0.992398
1.00046 1.00107 0.992412
1.00077 1.00053 0.992333
0.999982 0.999965 0.994513
1.00016 1.00095 0.9931
1.00002 0.999854 0.994541
1.00097 1.00061 0.991941
1.00112 1.00033 0.991943
1.00128 1.00039 0.991488
1.00133 1.00024 0.991595
0.999928 1.00009 0.994499
1.00009 1.00094 0.993366
1.00023 1.00131 0.992655
1.00094 1.00032 0.992269
1.00127 0.999947 0.991943
1.00058 1.00121 0.992106
1.00093 1.00024 0.992351
1.00084 1.0003 0.992551
1.00014 1.00089 0.99329
1.00022 1.00145 0.992631
1.00003 0.999764 0.99462
1.00014 1.00109 0.992998
1.00116 1.00061 0.991531
1.00145 1.00023 0.991427
1.00137 1.00041 0.991236
1.00145 0.999962 0.991549
1.00104 1.00005 0.992291
1.0014 0.999568 0.992131
1.0001 1.00089 0.993372
1.00097 0.999845 0.992651
1.00016 1.00123 0.992823
1.00031 1.00169 0.992166
1.00065 1.00127 0.991929
1.00094 1.00016 0.992589
1.00003 0.999682 0.99471
1.00012 1.0011 0.993004
1.00023 1.00123 0.992788
1.00017 1.0018 0.992385
1.00028 1.00159 0.992407
0.999893 0.997756 0.996859
1.00069 1.00048 0.992593
1.00002 0.999735 0.994655
0.999968 0.999855 0.994645
1.00012 1.00086 0.993356
1.00036 1.00069 0.993047
1.00073 1.00067 0.992321
1.00007 1.00093 0.993393
1.00016 1.00148 0.992709
1.0004 1.00089 0.992883
1.00029 1.00114 0.992729
0.999919 0.997686 0.996885
1.00004 0.999677 0.99468
1.00012 1.00082 0.993403
1.00012 1.00089 0.99333
1.00018 1.00142 0.992662
1.00089 1.00045 0.992209
1.00052 1.00083 0.992596
1.0008 1.00073 0.99212
1.00015 1.00145 0.992751
1.00046 1.00103 0.992567
1.00025 1.00171 0.992214
1.00006 0.999617 0.994716
1.00013 1.0009 0.993317
1.0002 1.00132 0.992723
1.00016 1.00155 0.992603
1.00021 1.00173 0.992382
1.00097 1.00034 0.992136
1.00058 1.00096 0.992342
1.00074 1.00065 0.992232
1.00018 1.00192 0.992204
1.00042 1.00175 0.991897
1.00006 0.999552 0.994762
1.00012 1.00087 0.993237
1.00011 1.00083 0.993367
1.00009 1.00173 0.992688
1.0001 1.00079 0.993493
1.00008 0.999385 0.994895
1.00008 0.999435 0.994859
0.999993 0.997453 0.997404
1.00007 0.999487 0.994814
0.999967 0.997537 0.99739
0.999909 0.996398 0.998405
0.999941 0.997604 0.997372
0.999867 0.99645 0.998857
0.999834 0.996542 0.999316
0.999899 0.997724 0.996881
0.999876 0.997842 0.996815
0.999785 0.99668 0.9993
0.999748 0.996785 0.999286
0.999849 0.997951 0.996766
0.999701 0.996877 0.999275
1.00076 1.00045 0.992486
1.00085 1.00055 0.992205
1.00101 1.00039 0.992044
1.00108 1.00056 0.991749
1.00091 1.00072 0.991905
1.00052 1.00064 0.992726
1.00095 1.00071 0.991853
1.00104 1.00067 0.991699
1.00107 1.00046 0.991864
1.0012 1.0004 0.991685
1.00096 1.00037 0.992166
1.00114 1.00005 0.992153
1.00108 1.00069 0.991626
1.00104 1.00064 0.991708
1.0012 1.00014 0.991841
1.00126 1.00041 0.991652
1.00107 1.00007 0.992209
1.00125 0.999716 0.992335
1.00096 1.0006 0.991888
1.00112 1.00033 0.991941
1.00129 1.00038 0.991434
1.00134 1.00023 0.991614
0.999936 1.00007 0.994502
1.0001 1.00093 0.993366
1.00022 1.00133 0.992713
1.00096 1.00035 0.992291
1.00126 0.999881 0.991979
1.00094 1.00023 0.992354
1.00055 1.00125 0.992047
1.00082 1.00023 0.992588
1.00015 1.00087 0.993296
1.00022 1.00142 0.992574
1.00002 0.99977 0.994619
1.00014 1.00109 0.992994
1.00116 1.00061 0.991543
1.00143 1.00023 0.99144
1.0014 1.00043 0.991188
1.00146 0.999972 0.991559
1.00011 1.00087 0.993376
1.00016 1.00123 0.992868
1.0003 1.00172 0.992161
1.00106 1.00009 0.992263
1.00134 0.999533 0.992235
1.00064 1.00132 0.991901
1.00097 0.999855 0.992656
1.0009 0.999997 0.992698
1.00023 1.00123 0.992789
1.00029 1.00155 0.99238
1.00017 1.00181 0.992371
1.00003 0.999678 0.994614
1.00012 1.00109 0.993015
1.00124 1.00062 0.991375
1.00159 1.0002 0.99107
1.00155 0.999535 0.991809
1.0012 0.999455 0.992543
1.00021 1.00115 0.99292
1.00113 0.999276 0.993002
1.00014 1.00159 0.99246
1.00038 1.00211 0.991637
1.00077 1.0012 0.991771
1.00004 0.999557 0.994626
1.0001 1.00102 0.993315
1.00012 1.00199 0.992267
1.0003 1.00134 0.992556
1.00025 1.00215 0.991883
1.00034 1.00163 0.992147
0.99992 0.997678 0.996886
1.00004 0.999676 0.994679
1.00091 1.00045 0.992201
1.00012 1.0009 0.993327
1.00012 1.00083 0.993401
1.00018 1.00141 0.992649
1.00051 1.00084 0.992597
1.0008 1.00074 0.992101
1.00014 1.00145 0.992755
1.00028 1.00167 0.992261
1.00046 1.00103 0.992598
1.00006 0.999616 0.994716
1.00012 1.0009 0.993314
1.00019 1.00131 0.992764
1.00016 1.00156 0.992597
1.0002 1.00173 0.992344
1.00097 1.00037 0.992124
1.00059 1.00095 0.992326
1.00076 1.00063 0.992258
1.00017 1.00191 0.992172
1.00043 1.00182 0.991831
1.00013 1.0009 0.993316
1.00015 1.00166 0.99242
1.00023 1.00172 0.992301
1.0002 1.00187 0.992137
1.00027 1.00187 0.992103
1.00112 0.999484 0.992686
1.00061 1.00142 0.991866
1.00083 1.00039 0.992065
1.00029 1.00226 0.991792
1.00042 1.00222 0.991143
1.00006 0.999548 0.994763
1.00012 1.00088 0.993291
1.00011 1.00176 0.992423
1.0001 1.00084 0.993302
1.0001 1.00079 0.993492
1.00009 1.00173 0.992586
1.00009 1.00233 0.992056
1.00008 1.00171 0.992516
1.00008 1.00076 0.993553
1.00009 0.999355 0.994916
1.00008 0.999389 0.994896
1.00002 0.99738 0.99742
1.00008 0.999435 0.994861
0.999992 0.997463 0.997406
0.999944 0.996314 0.998414
0.999967 0.997547 0.997393
0.999906 0.996366 0.998405
0.999861 0.99642 0.999322
0.999932 0.997586 0.996952
0.999902 0.997731 0.996877
0.999822 0.996543 0.999316
0.999876 0.997852 0.996811
0.999783 0.996679 0.999297
0.999744 0.996776 0.999283
1.00096 1.00038 0.992161
1.00107 1.00046 0.991865
1.00114 1.00002 0.992158
1.00121 1.0004 0.991673
1.00105 1.00068 0.991689
1.00094 1.00071 0.991856
1.00107 1.00071 0.991612
1.00105 1.00063 0.991711
1.00122 1.00015 0.991807
1.00124 1.00043 0.991593
1.00106 1.0001 0.99221
1.00123 0.999616 0.992414
1.00103 1.00067 0.991725
1.00102 1.00065 0.991747
1.00127 1.00003 0.991866
1.00121 0.999279 0.992791
1.00115 1.00061 0.991555
1.00142 1.00023 0.991454
1.00142 1.00046 0.99114
1.00146 0.999983 0.991569
1.00012 1.00085 0.993379
1.00017 1.00123 0.992912
1.0003 1.00175 0.992157
1.00108 1.00013 0.992235
1.00128 0.999497 0.99234
1.00097 0.999866 0.99266
1.00063 1.00137 0.991873
1.00087 0.999848 0.992808
1.00023 1.00123 0.992791
1.0003 1.00152 0.992354
1.00017 1.00182 0.992357
1.00003 0.999675 0.994519
1.00013 1.00109 0.993027
1.00126 1.0006 0.991328
1.00157 1.00021 0.991131
1.00152 0.99958 0.991842
1.00021 1.00115 0.992917
1.00017 1.00159 0.992524
1.00035 1.00216 0.991621
1.00122 0.999497 0.9925
1.00075 1.00108 0.991909
1.00109 0.999304 0.992971
1.00003 0.999541 0.994645
1.00029 1.00135 0.992551
1.00034 1.00159 0.992186
1.00025 1.00212 0.991923
1.00012 1.00201 0.992298
1.0001 1.00102 0.993216
1.00137 1.00053 0.991259
1.00166 1.00003 0.991107
1.00155 0.99902 0.992246
1.00144 0.99857 0.993036
1.00025 1.00136 0.992631
1.00105 1.00007 0.992318
1.00017 1.00214 0.991873
1.00045 1.00247 0.991224
1.00005 0.999371 0.994789
1.00009 1.00091 0.993435
1.00009 1.00199 0.992428
1.00016 1.0026 0.991548
1.00033 1.00152 0.992252
1.00034 1.00208 0.991727
1.00006 0.999614 0.994715
1.00012 1.00091 0.99331
1.00097 1.00041 0.992112
1.00016 1.00158 0.99259
1.00019 1.0013 0.992805
1.0002 1.00174 0.992305
1.0006 1.00095 0.992311
1.00079 1.0006 0.992284
1.00016 1.00191 0.992141
1.00043 1.0019 0.991766
1.00013 1.0009 0.993315
1.00016 1.00167 0.992459
1.00022 1.00171 0.992359
1.00019 1.00188 0.992186
1.00024 1.00185 0.992141
1.00114 0.999509 0.992746
1.00064 1.00137 0.991901
1.00079 1.00047 0.992244
1.00027 1.00228 0.99174
1.00045 1.00233 0.991122
1.00013 1.00175 0.992374
1.00019 1.00223 0.991817
1.00027 1.00207 0.991896
1.00025 1.00207 0.991814
1.00164 0.998383 0.992923
1.00126 0.999137 0.992659
1.00071 1.00195 0.991093
1.00027 1.00303 0.990769
1.00012 1.00089 0.993345
1.00011 1.00177 0.992478
1.0001 1.00235 0.991964
1.00009 1.00079 0.993492
1.00009 1.00173 0.992484
1.00008 1.00076 0.993552
1.00009 1.00233 0.991983
1.00008 1.00172 0.992556
1.00013 1.0027 0.991585
1.00009 1.00234 0.991901
1.00008 1.0017 0.992528
1.00006 1.00077 0.993574
1.00009 0.99935 0.994918
1.00009 0.99936 0.994916
1.00004 0.997314 0.997432
1.00008 0.999394 0.994897
1.00002 0.99739 0.997422
0.999979 0.996228 0.998425
0.999992 0.997473 0.997409
0.999942 0.99628 0.998414
0.999904 0.996333 0.998405
0.999969 0.997444 0.997021
0.999936 0.997594 0.996948
0.999865 0.996399 0.999332
0.999905 0.997739 0.996873
0.999819 0.996554 0.999311
0.99978 0.996677 0.999293
1.00105 1.00014 0.99221
1.00125 1.00017 0.991773
1.0012 0.999523 0.992493
1.00122 1.00044 0.991534
1.00106 1.00062 0.991714
1.00107 1.00072 0.991599
1.00105 1.00067 0.991686
1.00104 1.00064 0.991733
1.00126 1 0.991918
1.00121 0.999252 0.992758
1.00102 1.00066 0.991737
1.00103 1.00054 0.991896
1.00137 0.999247 0.992442
1.00128 1.00058 0.991281
1.00155 1.00022 0.991193
1.0015 0.999623 0.991874
1.00022 1.00114 0.992915
1.0002 1.00158 0.992589
1.00033 1.00221 0.991604
1.00124 0.999538 0.992456
1.00105 0.999331 0.992941
1.00073 1.00097 0.992047
1.00029 1.00137 0.992546
1.00034 1.00154 0.992225
1.00024 1.00209 0.991963
1.00003 0.999524 0.994664
1.00012 1.00203 0.992329
1.00011 1.00101 0.993118
1.0013 1.00053 0.991342
1.00169 0.999982 0.991079
1.00156 0.999106 0.992173
1.00026 1.00136 0.992625
1.00017 1.00212 0.991943
1.00044 1.00242 0.991277
1.00141 0.998613 0.993091
1.00105 1.00002 0.992309
1.00005 0.999359 0.994893
1.00009 1.00092 0.993436
1.00033 1.00154 0.992239
1.00034 1.00208 0.991741
1.00015 1.00258 0.991605
1.0001 1.00199 0.992373
1.0013 1.00034 0.991537
1.00176 0.999637 0.991319
1.00168 0.997885 0.993168
1.0015 0.998502 0.993148
1.00024 1.00173 0.992212
1.00064 1.00211 0.991164
1.00027 1.00271 0.991388
1.00007 0.999209 0.995104
1.00009 1.00037 0.993923
1.00007 1.0007 0.993489
1.00008 1.002 0.992372
1.0001 1.00265 0.991608
1.0002 1.00292 0.991189
1.00032 1.0018 0.991957
1.0003 1.00265 0.991419
1.00012 1.00091 0.993314
1.00016 1.00168 0.992499
1.00116 0.999534 0.992805
1.00019 1.00188 0.992236
1.00022 1.0017 0.992417
1.00022 1.00184 0.992178
1.00066 1.00131 0.991935
1.00075 1.00054 0.992422
1.00025 1.00229 0.991688
1.00046 1.00243 0.991101
1.00013 1.00176 0.992371
1.00019 1.00219 0.991887
1.00026 1.00205 0.99195
1.00026 1.00208 0.991858
1.00162 0.998309 0.992966
1.00119 0.999399 0.992608
1.00073 1.00193 0.99118
1.00031 1.00297 0.990762
1.00013 1.00238 0.991888
1.00154 0.998822 0.992513
1.00022 1.00265 0.99147
1.00025 1.00264 0.991366
1.00196 0.997504 0.993046
1.00109 1.00142 0.990787
1.00041 1.00359 0.990315
1.00011 1.00178 0.992533
1.0001 1.00235 0.991965
1.00011 1.00274 0.991547
1.00008 1.00077 0.993551
1.00008 1.00173 0.992596
1.0001 1.00233 0.99191
1.00006 1.00077 0.993571
1.00008 1.0017 0.992529
1.00013 1.00271 0.991525
1.00009 1.00235 0.991982
1.0002 1.00292 0.991218
1.00015 1.00275 0.991403
1.0001 1.00235 0.991953
1.00008 1.00176 0.992564
1.00006 1.00079 0.993562
1.00009 0.999357 0.99491
1.00009 0.999353 0.994918
1.00006 0.997274 0.99743
1.00009 0.999366 0.994916
1.00004 0.997327 0.997433
1.00001 0.996151 0.998432
1.00002 0.9974 0.997424
0.999977 0.996195 0.998424
0.99994 0.996247 0.998414
1.00009 0.999055 0.995208
1 0.997304 0.997095
0.999972 0.997453 0.997017
0.999908 0.996264 0.999347
0.999939 0.997603 0.996944
0.99986 0.996414 0.999327
0.999816 0.996563 0.999306
1.00122 0.999225 0.992726
1.00124 0.999971 0.99197
1.00106 1.00062 0.99172
1.00107 1.00067 0.991648
1.001 1.00067 0.991804
1.00103 1.00059 0.991831
1.00133 0.999199 0.992559
1.00096 1.00063 0.991928
1.00118 0.999979 0.992102
1.00125 0.998978 0.993064
1.00124 1.00053 0.991426
1.00172 0.999935 0.991052
1.00157 0.999191 0.9921
1.00026 1.00137 0.992619
1.00017 1.00209 0.992012
1.00043 1.00236 0.991331
1.00136 0.998653 0.993145
1.00105 0.999975 0.992299
1.00032 1.00156 0.992225
1.00034 1.00208 0.991755
1.00014 1.00256 0.991662
1.00005 0.999347 0.994998
1.00008 1.00093 0.993436
1.00011 1.00199 0.992318
1.00131 1.00033 0.991494
1.00007 0.999209 0.995102
1.00009 1.00037 0.993862
1.00178 0.99959 0.991345
1.00165 0.998063 0.993
1.00024 1.0017 0.992234
1.00026 1.00272 0.991313
1.00064 1.00196 0.9912
1.00146 0.998491 0.993112
1.00007 1.00069 0.99366
1.00008 1.00201 0.992363
1.00034 1.00181 0.99199
1.00029 1.00245 0.991511
1.00021 1.00297 0.991085
1.00011 1.00263 0.991631
1.00137 1.00035 0.99137
1.00181 0.998569 0.992324
1.00191 0.996706 0.994029
1.00107 1.00057 0.991846
1.00021 1.00216 0.991853
1.00036 1.00324 0.990759
1.00009 1.00023 0.993927
1.00007 1.00052 0.993797
1.00007 1.0014 0.993099
1.00004 1.00187 0.992415
1.0001 1.00263 0.991727
1.00014 1.00326 0.99084
1.00016 1.00361 0.990631
1.00023 1.00241 0.991562
1.00013 1.00177 0.992368
1.0002 1.00216 0.991957
1.0016 0.998236 0.993009
1.00112 0.99966 0.992558
1.00027 1.00209 0.991901
1.00025 1.00202 0.992005
1.00074 1.00192 0.991268
1.00035 1.00292 0.990756
1.00013 1.00237 0.991884
1.00149 0.99866 0.99269
1.00023 1.0026 0.99146
1.00026 1.00263 0.991269
1.00191 0.997596 0.993002
1.00114 1.00142 0.990796
1.00039 1.0036 0.99028
1.00012 1.00287 0.991435
1.00213 0.997057 0.992802
1.00027 1.0029 0.991177
1.0003 1.00364 0.990519
1.00191 0.999522 0.990895
1.00048 1.00358 0.989785
1.00397 0.996496 0.990354
1.00009 1.00235 0.991965
1.0001 1.00275 0.991549
1.00015 1.00302 0.991237
1.00006 1.00078 0.993569
1.00008 1.00171 0.99253
1.00009 1.00235 0.992064
1.00013 1.00271 0.991465
1.00006 1.00079 0.993561
1.00008 1.00177 0.992517
1.00021 1.00289 0.991197
1.0001 1.00236 0.991954
1.00014 1.00275 0.991475
1.00027 1.00301 0.990932
1.00015 1.00286 0.991424
1.0001 1.00243 0.991945
1.00008 1.00182 0.992394
1.00006 1.0008 0.993403
1.00006 1.00179 0.992702
1.00007 1.00077 0.993427
1.00009 0.999362 0.994901
1.00009 0.999356 0.99491
1.00008 0.997281 0.996967
1.00009 0.999355 0.994917
1.00007 0.997291 0.997202
1.00001 0.99607 0.999336
1.00004 0.99734 0.997433
1.00001 0.996119 0.998432
0.999976 0.996161 0.998423
1.00011 0.998946 0.995283
1.00009 0.999056 0.995206
1.00003 0.997174 0.997166
0.999999 0.997312 0.997308
0.999945 0.996134 0.999366
0.999976 0.997461 0.997014
0.999902 0.996278 0.999343
0.999856 0.996428 0.999323
1.0013 0.999151 0.992676
1.00104 1.00064 0.991767
1.00098 1.00067 0.991872
1.00096 1.00063 0.991936
1.00113 1.00001 0.992138
1.0011 0.999255 0.993014
1.00104 1.00019 0.992251
1.00321 0.9957 0.994922
1.001 0.997736 0.994364
1.0001 1.00014 0.99413
1.00131 1.00032 0.991451
1.00179 0.999543 0.991371
1.00162 0.998221 0.992833
1.00024 1.00166 0.992257
1.00025 1.00273 0.991239
1.00065 1.0018 0.991237
1.00143 0.998488 0.993076
1.00035 1.00182 0.992024
1.00029 1.00225 0.991603
1.00022 1.00301 0.990981
1.00007 0.999209 0.9951
1.00012 1.00262 0.991655
1.00007 1.00069 0.993831
1.00007 1.00203 0.992354
1.00008 1.00036 0.993801
1.00144 1.0003 0.991263
1.0001 1.00021 0.993999
1.00007 1.00053 0.993795
1.00006 1.00141 0.992973
1.00179 0.998576 0.992347
1.00189 0.996829 0.993796
1.00024 1.00212 0.991873
1.0003 1.00317 0.990728
1.00104 1.00046 0.99189
1.00004 1.00185 0.992503
1.00011 1.00264 0.991699
1.00023 1.00244 0.991557
1.00017 1.00344 0.990762
1.00014 1.00326 0.990908
1.00162 1.00002 0.991105
1.00219 0.996321 0.993832
1.00181 0.998346 0.992625
1.00053 1.0029 0.990818
1.00008 1.00285 0.991369
1.00006 1.00117 0.993031
1.00005 1.00162 0.992654
1.00005 1.00218 0.992289
1.00007 1.00271 0.991691
1.00013 1.00304 0.991146
1.00009 1.00403 0.99034
1.00007 1.00376 0.9906
1.00012 1.00236 0.991881
1.00023 1.00256 0.99145
1.00144 0.998497 0.992868
1.00185 0.997691 0.992958
1.0012 1.00144 0.990805
1.00027 1.00261 0.991172
1.00037 1.00359 0.990244
1.00012 1.00284 0.991466
1.0021 0.996926 0.992914
1.00026 1.00286 0.991152
1.00021 1.00362 0.990524
1.00201 0.999259 0.991066
1.00049 1.00375 0.989758
1.00406 0.996525 0.99117
1.00013 1.00316 0.991132
1.00252 0.998126 0.990583
1.00016 1.00344 0.990837
0.999955 1.00463 0.989966
1.00087 1.00257 0.989649
0.995777 1.00365 0.975921
1.00007 0.998951 0.993236
1.00377 0.997863 0.989716
0.996104 0.997635 0.989991
1.00285 0.989558 0.994085
1.00009 1.00276 0.99155
1.00015 1.00301 0.991236
1.00025 1.00316 0.990841
1.00006 1.00079 0.99356
1.00008 1.00177 0.99247
1.00009 1.00236 0.991955
1.00013 1.00276 0.991547
1.00021 1.00286 0.991176
1.0001 1.00243 0.991858
1.00006 1.0008 0.993478
1.00007 1.00183 0.99245
1.00025 1.003 0.990987
1.00015 1.00284 0.991401
1.00014 1.00285 0.991468
1.00018 1.00324 0.990928
1.00011 1.00254 0.991674
1.00008 1.00185 0.992363
1.00006 1.00078 0.993412
1.00007 1.00176 0.992625
1.00008 1.0025 0.991939
1.00007 1.00186 0.992492
1.00006 1.00179 0.992581
1.00007 1.00079 0.993523
1.00007 1.00077 0.993428
1.00009 0.999369 0.994889
1.00009 0.999358 0.994901
1.00008 0.997305 0.99696
1.00009 0.999356 0.99491
1.00008 0.997282 0.996967
1.00002 0.996056 0.999334
1.00007 0.997308 0.996975
1.00002 0.996069 0.998882
1.00001 0.996086 0.998432
1.00012 0.998875 0.995333
1.00011 0.998945 0.995282
1.00005 0.99708 0.99722
1.00009 0.999058 0.995204
1.00003 0.99717 0.997379
0.999976 0.99603 0.999381
1.00001 0.99733 0.997078
0.999939 0.996176 0.999357
0.999897 0.996294 0.999338
1.00108 1.00005 0.992173
1.00096 1.00062 0.991944
1.00098 0.999528 0.992963
1.00305 0.995652 0.994909
1.00101 1.00021 0.992218
1.00098 0.998098 0.993964
1.00118 0.999649 0.99193
0.999166 0.999639 0.98987
1.00131 0.997978 0.996259
1.0001 1.00008 0.994184
1.0001 1.00014 0.994128
1.00008 1.00105 0.993261
1.00008 1.0009 0.993409
1.00151 1.00025 0.991156
1.00178 0.998603 0.992369
1.00186 0.996967 0.993562
1.00026 1.00208 0.991893
1.00023 1.0031 0.990698
1.00101 1.00034 0.991933
1.00024 1.00246 0.991552
1.00018 1.00327 0.990894
1.00013 1.00326 0.990976
1.00007 1.00053 0.993792
1.00012 1.00266 0.99167
1.00004 1.00182 0.99259
1.0001 1.0002 0.99407
1.00006 1.00142 0.992848
1.00167 0.999904 0.991229
1.00006 1.00119 0.993156
1.00005 1.00159 0.992739
1.00005 1.0021 0.992304
1.00212 0.996419 0.99382
1.00175 0.998187 0.99265
1.00011 1.0029 0.991359
1.00049 1.00278 0.990857
1.00006 1.00273 0.991708
1.00014 1.00297 0.991211
1.00008 1.00373 0.990611
1.00008 1.00407 0.990341
1.00203 0.998113 0.991996
1.00259 0.996141 0.993372
1.00114 1.00175 0.990538
1.00007 1.00363 0.990776
1.00004 1.00226 0.992105
1.00006 1.00247 0.991865
1.00007 1.00357 0.990767
1.00004 1.00484 0.989654
0.995569 1.00255 0.974679
1.00012 1.00281 0.991497
1.00024 1.00282 0.991128
1.00207 0.996808 0.993026
1.00212 0.998984 0.991238
1.00049 1.0039 0.989731
1.00012 1.00362 0.990528
1.00413 0.99648 0.991984
1.00012 1.00314 0.991158
1.00265 0.998085 0.990588
1.00013 1.00341 0.990842
0.999951 1.0046 0.990005
1.00093 1.00248 0.989772
0.995457 1.00273 0.976875
0.999975 0.999158 0.989186
1.00381 0.997697 0.989745
0.996884 0.997831 0.987445
1.00167 0.990552 0.995197
1.00003 1.00347 0.990965
0.997594 0.998859 0.983651
1.00418 0.992701 0.992388
1.00168 1.00117 0.989631
1 1.00372 0.990647
0.999811 1.00519 0.990007
1.00348 0.9992 0.988645
0.995745 1.00266 0.976335
1.00019 0.998709 0.990553
0.996067 0.998302 0.990028
1.00989 0.986521 0.990054
1.00014 1.00299 0.991234
1.00025 1.00318 0.990851
1.00037 1.00329 0.990486
1.00006 1.0008 0.993554
1.00007 1.00184 0.992506
1.00011 1.00243 0.991771
1.00015 1.00281 0.991378
1.00023 1.003 0.991041
1.00006 1.00079 0.99341
1.00014 1.0028 0.991438
1.0001 1.00253 0.991764
1.00008 1.00185 0.992437
1.00019 1.00323 0.990861
1.00011 1.00308 0.99119
1.00007 1.00385 0.990484
1.0001 1.00267 0.991621
1.00007 1.00181 0.992559
1.00007 1.00176 0.992623
1.00009 1.00249 0.991843
1.00009 1.0025 0.991814
1.00008 1.00258 0.991759
1.00011 1.00296 0.991351
1.00011 1.00259 0.991661
1.00007 1.00195 0.992384
1.00007 1.00186 0.992492
1.00009 1.00085 0.993451
1.00006 1.00179 0.99246
1.00007 1.0008 0.993457
1.00009 0.999394 0.994865
1.00007 1.00077 0.993428
1.0001 0.999366 0.994889
1.00006 0.997332 0.997409
1.00009 0.999356 0.994902
1.00007 0.997299 0.997187
1.00004 0.99606 0.998418
1.00008 0.997284 0.996967
1.00002 0.996053 0.999333
1.00003 0.996067 0.998429
1.00011 1.00009 0.994176
1.00013 0.998841 0.995353
1.00012 0.998875 0.995332
1.00006 0.997022 0.997257
1.00011 0.998944 0.995281
1.00006 0.997077 0.997221
0.999998 0.995956 0.999394
1.00002 0.997178 0.997582
0.999981 0.996063 0.99895
0.999957 0.996203 0.998487
1.00292 0.995552 0.994895
1.00097 1.00024 0.992186
1.00094 0.99844 0.993564
0.999115 0.999441 0.992627
1.00116 0.998124 0.996281
1.00127 0.999686 0.991775
1.00141 1.00069 0.992899
0.997898 1.00135 0.990814
0.995097 1.00417 0.971799
0.996097 0.999271 0.984368
1.00137 0.992507 0.99335
1.00008 1.00095 0.993248
1.0001 1.00008 0.994181
1.0001 1.00015 0.994127
1.00007 1.00106 0.993229
1.00006 1.00177 0.99266
1.0001 1.00147 0.992861
1.00008 1.00101 0.993332
1.00008 1.00092 0.993359
1.00172 0.99978 0.991352
1.00206 0.996534 0.993809
1.00169 0.998035 0.992674
1.00015 1.00295 0.991349
1.00045 1.00267 0.990896
1.00008 1.0037 0.990622
1.00006 1.00411 0.990341
1.00014 1.00289 0.991276
1.00005 1.00156 0.992824
1.00006 1.00274 0.991725
1.00006 1.0012 0.993282
1.00004 1.00203 0.992318
1.00211 0.998247 0.991905
1.00005 1.00223 0.992147
1.00005 1.00249 0.991894
1.00252 0.996062 0.993369
1.00101 1.00151 0.990655
1.00012 1.00374 0.990576
1.00007 1.0036 0.990741
1.00004 1.00474 0.989693
1.00329 0.995586 0.991969
1.00163 1.00091 0.99087
1.00025 1.00341 0.990078
1.00011 1.00489 0.989544
1.00004 1.00269 0.991662
1.00005 1.00328 0.991131
1.00004 1.00467 0.989848
0.99826 0.997632 0.985436
0.995741 1.00349 0.976625
1.00012 1.00312 0.991184
1.0001 1.00336 0.990848
1.00279 0.998115 0.990593
1.001 1.00245 0.989896
0.999933 1.00457 0.990044
0.995901 1.00336 0.970456
0.999997 0.999147 0.995068
1.00386 0.997487 0.989765
0.996517 0.998246 0.98571
1.00027 0.991528 0.99631
1.00007 1.00341 0.990952
0.998116 0.997878 0.985881
1.00353 0.993269 0.993247
1.00169 1.0012 0.989618
0.999982 1.0039 0.990669
0.999704 1.00517 0.990151
1.00331 0.999845 0.988368
0.995011 1.00284 0.973575
1.00003 0.999284 0.995191
0.995806 0.998291 0.986547
1.00935 0.986123 0.991302
1.0003 1.00317 0.99061
1.00573 0.995093 0.990004
1.01583 0.990423 0.982559
1.0001 1.00415 0.989712
0.999772 1.00392 0.991362
1.0022 0.999386 0.994671
1.00005 0.997128 0.999912
0.994955 1.0027 0.975484
0.996518 0.998124 0.986255
1.01578 0.985256 0.985156
1.00024 1.0032 0.990861
1.00035 1.00331 0.990465
1.00015 1.0039 0.990246
1.00007 1.00079 0.993408
1.00007 1.00184 0.99251
1.0001 1.00253 0.991855
1.00014 1.00276 0.991409
1.0002 1.00322 0.990794
1.00007 1.00181 0.992555
1.00012 1.00302 0.991231
1.0001 1.00268 0.991626
1.00008 1.00391 0.990405
1.00003 1.00442 0.98991
1.00008 1.00354 0.990844
1.0001 1.0026 0.99172
1.00007 1.00176 0.99262
1.00009 1.00249 0.991748
1.00009 1.00251 0.991811
1.00008 1.00259 0.991755
1.00012 1.00291 0.991345
1.00006 1.00272 0.991632
1.00013 1.00307 0.991211
1.00009 1.00315 0.991092
1.00016 1.0027 0.99148
1.00008 1.00215 0.992045
1.00014 1.00224 0.991904
1.00012 1.00257 0.991673
1.0001 1.00192 0.992352
1.00007 1.00196 0.992383
1.0001 1.00092 0.993356
1.00006 1.00186 0.992492
1.00009 1.00085 0.99345
1.00009 0.999445 0.994823
1.00007 1.0008 0.993391
1.00009 0.999393 0.994863
1.00004 0.997376 0.997401
1.0001 0.999361 0.994889
1.00006 0.997328 0.997179
1.00003 0.996065 0.998413
1.00008 0.997291 0.996958
1.00002 0.99606 0.999332
1.00002 0.996051 0.999333
1.00011 1.00013 0.994284
1.00013 0.998859 0.995337
1.00011 1.00008 0.994176
1.00007 0.997008 0.997266
1.00013 0.998844 0.995351
1.00012 0.998875 0.99533
1.00006 0.997026 0.997256
1.00001 0.995913 0.999401
1.00004 0.997077 0.997635
1.00001 0.995964 0.998972
0.999996 0.99607 0.998534
0.996853 0.998486 0.9873
1.00422 0.993934 0.990546
0.999069 0.999381 0.995138
1.00098 0.998405 0.996302
1.00137 0.999746 0.991618
0.997842 1.00168 0.996479
1.00149 1.00027 0.99279
0.99527 1.00369 0.975999
0.996199 0.999191 0.988447
1.00097 0.992336 0.994334
0.999357 1.00144 0.99548
0.995233 1.004 0.976599
0.996036 0.998988 0.989529
1.00807 0.989092 0.990802
1.00005 1.00184 0.992486
1.00008 1.00096 0.993302
1.0001 1.00009 0.994178
1.00006 1.00107 0.993197
1.00006 1.00168 0.992725
1.00009 1.0017 0.99266
1.00009 1.00142 0.992883
1.00008 1.00129 0.993055
1.00008 1.00103 0.993265
1.00008 1.00094 0.993308
1.00218 0.998358 0.991817
1.00248 0.995919 0.993365
1.00088 1.00126 0.990772
1.00016 1.00387 0.990376
1.00004 1.00463 0.989731
1.00007 1.00363 0.990714
1.00005 1.00252 0.991924
1.00005 1.00219 0.99219
1.00321 0.995786 0.991698
1.00003 1.00272 0.991638
1.00006 1.0033 0.991052
1.00157 1.00057 0.9909
1.00029 1.00363 0.990012
1.00012 1.00498 0.989338
1.00006 1.0047 0.989747
1.00367 0.996872 0.989938
0.999994 1.00483 0.9898
1.00004 1.00527 0.989137
1.00007 1.00268 0.99163
1.00006 1.00323 0.99114
1.0001 1.00398 0.990374
1.00567 0.996672 0.986418
0.998236 0.998372 0.982658
0.995552 1.00261 0.974182
1.00011 1.00335 0.99094
0.999979 1.00406 0.99069
1.00168 1.00123 0.989604
0.999588 1.00515 0.990294
0.997756 0.998441 0.983069
0.99513 1.00227 0.980261
1.00007 0.998679 0.99074
1.00314 1.00023 0.988142
0.995627 0.998081 0.99086
1.00391 0.993996 0.993118
1.00775 0.988501 0.99146
1.00028 1.00339 0.990584
1.00533 0.995542 0.989024
1.01605 0.990083 0.98269
1.00007 1.00428 0.989741
0.999669 1.00381 0.991357
1.00308 1.00145 0.989022
1.00033 0.997833 0.993178
0.994988 1.00316 0.976368
0.997779 0.997617 0.990313
1.01395 0.985923 0.986338
1.00008 1.00313 0.991169
1.01655 0.995677 0.97918
1.02195 0.986594 0.978258
0.998669 1.00365 0.993242
0.99903 0.997928 1.00269
0.995272 1.00199 0.97817
1.00048 0.996604 0.987886
1.01618 0.98676 0.982709
1.00033 1.00332 0.990445
1.0002 1.00381 0.990296
1.00023 1.0044 0.990038
1.00007 1.00181 0.992551
1.0001 1.00268 0.991631
1.00012 1.00297 0.991272
1.00008 1.00396 0.990326
1.00009 1.0026 0.991719
1.00009 1.00351 0.990859
1.00001 1.00454 0.989854
0.999899 1.00473 0.989889
1.0001 1.00424 0.99003
1.00014 1.00325 0.991071
1.0001 1.00251 0.991807
1.00008 1.0026 0.991751
1.00012 1.00287 0.99134
1.00013 1.00304 0.991236
1.00006 1.00273 0.991639
1.0001 1.00312 0.991119
1.00011 1.00321 0.991065
1.00008 1.0035 0.990814
1.00015 1.00303 0.991187
1.00016 1.00273 0.991467
1.00011 1.00246 0.991695
1.00022 1.00209 0.991955
1.00016 1.00176 0.992477
1.00007 1.00207 0.992196
1.00015 1.00223 0.991949
1.00013 1.00173 0.992413
1.00013 1.00256 0.991684
1.0001 1.00192 0.992358
1.00011 1.00095 0.993291
1.00007 1.00196 0.992381
1.0001 1.00092 0.993354
1.00008 0.999511 0.994769
1.00008 1.00085 0.993448
1.00009 0.999446 0.994821
1.00002 0.997439 0.997388
1.0001 0.999392 0.994862
1.00005 0.997375 0.997169
1 0.99612 0.998409
1.00007 0.997319 0.99695
1.00002 0.996078 0.998872
1.00001 0.996064 0.999331
1.0001 1.00029 0.99402
1.00012 0.998906 0.995303
1.00011 1.00014 0.994145
1.00007 0.997031 0.99725
1.00012 0.99886 0.995338
1.00011 1.00008 0.994176
1.00001 0.995906 0.999401
1.00007 0.997007 0.997266
1.00013 0.998847 0.99535
1.00007 0.99703 0.997255
1.00001 0.995917 0.999399
0.999996 0.995964 0.99939
1.00476 0.996403 0.988432
0.997266 0.998972 0.985137
1.01478 0.991979 0.983027
1.00341 0.993705 0.991229
0.997826 1.00188 0.990959
1.00158 0.999825 0.992676
0.995148 1.00352 0.980473
0.996143 0.99984 0.984709
1.00051 0.992258 0.995318
0.999431 1.00114 0.993375
0.994895 1.00385 0.97493
0.996673 0.998439 0.985471
1.00808 0.988475 0.991612
1.00017 0.999572 0.995966
0.994653 1.00346 0.974833
0.998197 0.997739 0.98928
1.01565 0.986751 0.984464
1.00009 1.00225 0.992091
1.00006 1.00181 0.992564
1.00009 1.00096 0.993357
1.00005 1.00159 0.992791
1.0001 1.00201 0.992257
1.00009 1.00167 0.992707
1.00009 1.00138 0.992905
1.00008 1.00149 0.992933
1.00008 1.00127 0.993124
1.00008 1.00104 0.993197
1.00309 0.996015 0.991425
1.00149 1.00027 0.990932
1.00034 1.00387 0.989946
1.00013 1.00507 0.989132
1.00008 1.00472 0.989645
1.00006 1.00332 0.990973
1.00003 1.00275 0.991613
1.00006 1.00269 0.99165
1.00347 0.997027 0.989894
1.00005 1.00323 0.991192
1.0001 1.00409 0.990312
1.00001 1.00499 0.98969
1.00009 1.00521 0.989145
1.00277 0.999096 0.989567
0.999506 1.00559 0.989959
1.00017 1.00456 0.989621
1.00009 1.00308 0.991214
1.00016 1.00359 0.990604
1.01568 0.998735 0.977907
1.00564 0.996556 0.986845
0.998271 0.997363 0.986235
1.00025 1.00363 0.990559
0.999557 1.00375 0.991352
1.00007 1.0043 0.989767
1.00561 0.996076 0.988033
0.99467 1.00283 0.97492
1.00003 0.997436 0.998774
1.00405 1.00389 0.983324
0.997322 0.998461 0.986065
1.01627 0.989739 0.982821
1.01418 0.985931 0.985675
1.0001 1.00301 0.991226
1.01669 0.996085 0.978002
1.02213 0.986368 0.978022
0.998962 1.00333 0.992542
0.999324 0.998038 0.99934
0.995097 1.00255 0.975852
1.01677 0.987721 0.981911
0.999446 0.997158 0.987601
1.00003 1.00248 0.991862
1.02124 0.992825 0.973185
1.024 0.985232 0.977092
1.01599 0.984819 0.985748
0.997086 1.00097 0.998262
0.99477 0.999726 0.982287
1.00077 0.999596 0.98296
1.00025 1.00373 0.990347
1.0002 1.00434 0.989945
0.999842 1.00474 0.990058
1.00009 1.0026 0.991717
1.0001 1.00349 0.990874
0.999999 1.0047 0.989797
1.00013 1.00322 0.991099
1.00009 1.00433 0.990026
0.999953 1.00479 0.989745
0.999889 1.00468 0.99009
1.0001 1.00388 0.990404
1.00014 1.00301 0.991262
1.00006 1.00274 0.991647
1.00011 1.00309 0.991147
1.0001 1.00346 0.990825
1.0001 1.0032 0.991042
1.00001 1.00377 0.99073
1.0001 1.00287 0.991417
1.00009 1.00343 0.990828
1.00016 1.00275 0.991453
1.00016 1.0025 0.991699
1.00028 1.00246 0.991369
1.00018 1.00196 0.992181
1.00013 1.00165 0.99259
1.00019 1.0021 0.991959
1.00016 1.00143 0.992747
1.00016 1.00178 0.992444
1.00006 1.002 0.992348
1.00016 1.00222 0.991994
1.00013 1.00173 0.992446
1.00013 1.00089 0.993315
1.0001 1.00192 0.992363
1.00011 1.00094 0.993294
1.00007 0.999573 0.99472
1.0001 1.00092 0.993352
1.00008 0.999513 0.994766
0.99999 0.997503 0.997367
1.00009 0.999447 0.994818
1.00002 0.99744 0.997153
0.999973 0.996193 0.998401
1.00005 0.997367 0.996939
0.999998 0.996132 0.998869
1 0.9961 0.999329
1.0001 1.00048 0.993656
1.0001 0.999012 0.995053
1.00011 1.00029 0.994016
1.00006 0.997084 0.997217
1.00012 0.998912 0.995214
1.0001 1.00014 0.994005
1.00001 0.995922 0.999396
1.00007 0.997027 0.997251
1.00012 0.998861 0.995339
1.00001 0.995904 0.999401
1.00007 0.997007 0.997266
1.00001 0.99592 0.999397
1.01477 0.997091 0.979311
1.00461 0.9966 0.987833
0.997381 0.998979 0.983903
1.00012 1.00166 0.992569
1.02042 0.988245 0.978847
1.01505 0.991664 0.983178
1.0033 0.993935 0.990661
0.999489 1.00055 0.991108
0.995092 1.00428 0.976346
0.997037 0.998137 0.9898
1.00741 0.990443 0.99136
1.00025 0.999483 0.99052
0.995015 1.00304 0.976237
0.998666 0.997154 0.987108
1.01449 0.988327 0.985367
1.00014 0.997929 0.990817
0.994674 1.00237 0.972124
1.00018 0.998496 0.982018
1.01574 0.989633 0.98055
1.00014 1.00255 0.991612
1.00009 1.00229 0.992038
1.00007 1.00177 0.992642
1.0001 1.00217 0.992084
1.0001 1.00198 0.992337
1.00009 1.00163 0.992754
1.00009 1.00146 0.992968
1.00008 1.00125 0.993194
1.00331 0.997197 0.989846
1.00003 1.00513 0.989581
1.00006 1.00271 0.99167
1.00014 1.00515 0.989153
1.00009 1.00419 0.990249
1.00003 1.00324 0.991244
1.0001 1.00307 0.991226
1.00271 0.999367 0.98951
1.00016 1.0036 0.990553
1.00018 1.00453 0.989618
0.999518 1.00561 0.98994
1.00015 1.00311 0.991072
1.0017 1.00042 0.991062
0.99961 1.0051 0.990334
1.00026 1.00397 0.990086
1.00017 1.00351 0.990675
1.02059 0.995835 0.972145
1.01561 0.998278 0.977885
1.00561 0.996528 0.987273
1.00012 1.00285 0.991284
0.999246 1.00299 0.991844
1.01686 0.996469 0.976825
0.994707 1.00215 0.977256
1.00009 0.99959 0.992867
0.999827 0.996014 0.986329
1.02224 0.986076 0.977786
1.01741 0.988548 0.981114
1.00008 1.00271 0.991735
1.02116 0.992779 0.973174
1.02378 0.985557 0.976351
0.997274 1.00106 0.998983
1.01461 0.986848 0.986437
0.994716 0.998252 0.982454
1.00018 0.999523 0.981918
0.999157 1.00203 0.99358
1.02269 0.990715 0.973098
1.02193 0.987843 0.976756
1.00779 0.988945 0.991289
1.0004 0.997722 0.983151
0.997853 0.996962 1.00526
0.995287 0.998667 0.97878
1.00016 1.00433 0.989852
0.999929 1.00469 0.990005
0.999326 1.00533 0.989879
1.00013 1.00318 0.991127
1.00007 1.00441 0.990023
1.00001 1.00479 0.989601
1.0001 1.00387 0.990417
0.999889 1.00468 0.990055
0.999759 1.00487 0.990147
1.00012 1.00342 0.990835
1.0001 1.0032 0.991018
1.00003 1.00377 0.990704
0.999856 1.00445 0.990282
1.00005 1.00271 0.991646
1.00004 1.00341 0.990906
1.00019 1.00354 0.990597
1.00039 1.00223 0.991503
1.0002 1.00254 0.991702
1.00029 1.00254 0.99131
1.00018 1.00174 0.992483
1.00004 1.00172 0.992644
1.00018 1.00189 0.992245
1.00012 1.00132 0.992935
1.00014 1.00165 0.99258
1.00015 1.00211 0.991963
1.00014 1.00076 0.993429
1.00016 1.00143 0.992715
1.00016 1.00179 0.992412
1.00013 1.00173 0.992478
1.00013 1.00088 0.99332
1.00007 0.999602 0.994706
1.00012 1.00094 0.993297
1.00007 0.999573 0.99472
0.999968 0.997582 0.996884
1.00008 0.999515 0.994764
0.999998 0.99751 0.996901
0.999923 0.996277 0.99932
1.00003 0.997435 0.996922
0.999969 0.996203 0.998864
0.999981 0.996156 0.999326
1.00012 1.00066 0.993435
1.00009 0.999183 0.994906
1.00011 1.00049 0.99373
1.00004 0.997172 0.997162
1.0001 0.999025 0.995037
1.00011 1.0003 0.994011
0.999997 0.995964 0.999387
1.00006 0.997077 0.997219
1.00011 0.998919 0.995126
1.00001 0.995921 0.999398
1.00007 0.997024 0.997252
1.00001 0.995903 0.999402
1.02004 0.993926 0.974103
1.01487 0.996656 0.979366
1.0049 0.996193 0.987665
1.00012 1.00165 0.992612
1.00018 1.00164 0.992416
1.00013 1.00225 0.992047
1.02241 0.986307 0.978237
1.02066 0.988526 0.978584
1.01532 0.991416 0.983329
1.00037 0.99937 0.99554
0.995044 1.00368 0.974906
0.997588 0.998949 0.984769
1.01487 0.989382 0.984932
1.00011 0.998661 0.995594
0.995015 1.00174 0.977085
0.999784 0.998481 0.986426
1.01626 0.990425 0.980129
0.999169 0.995488 0.999371
0.994617 0.999965 0.980319
1.00146 1.00121 0.979949
1.01474 0.987447 0.984662
1.00015 1.00275 0.991439
1.00014 1.00256 0.991616
1.00009 1.00232 0.991985
1.00011 1.00219 0.992074
1.0001 1.00195 0.992417
1.00009 1.00143 0.993003
1.00264 0.999608 0.989452
0.999534 1.00562 0.989921
1.0001 1.00306 0.991238
1.00019 1.00451 0.989614
1.00016 1.00363 0.990502
1.00014 1.00315 0.991063
1.00018 1.00348 0.990628
1.00181 0.999833 0.990905
1.00028 1.00389 0.990102
0.999566 1.00516 0.990326
1.00016 1.00356 0.990476
0.999969 1.00332 0.99213
0.99989 1.00371 0.990677
1.0002 1.00383 0.990267
1.02207 0.992968 0.971891
1.02045 0.995242 0.972065
1.01552 0.997765 0.977863
1.00011 1.00293 0.991609
0.997453 0.999442 1.00011
1.02108 0.992736 0.973163
0.99501 0.999301 0.991317
1.00252 0.998851 0.983411
1.02358 0.985983 0.97561
1.01518 0.987458 0.986097
0.999509 1.00208 0.993265
1.02256 0.99096 0.972753
1.0222 0.988012 0.976543
0.99754 0.996945 0.998864
1.0081 0.988362 0.991932
0.998887 0.999486 0.987083
0.99451 0.999211 0.982747
1.00002 1.00181 0.99597
1.02094 0.994203 0.972325
1.01594 0.99155 0.981535
1.00106 0.992594 0.993326
0.997574 0.997647 0.990292
0.994836 1.00051 0.980529
0.998305 0.994464 0.998269
1.00004 1.00462 0.989953
0.999405 1.00534 0.989901
0.999015 1.00585 0.990095
1.0001 1.00385 0.99043
0.99989 1.00471 0.990019
0.999748 1.00489 0.990123
0.99964 1.00541 0.989741
1.00006 1.00378 0.990678
0.999914 1.00454 0.990205
1.00002 1.00486 0.989717
0.999995 1.00338 0.990984
1.0002 1.0036 0.990555
1.00043 1.00324 0.990562
1.00047 1.00232 0.991345
1.00024 1.00173 0.992156
1.00037 1.00229 0.991422
1.00031 1.00261 0.991251
1.00016 1.00147 0.992787
1.00016 1.00164 0.992548
1.00003 1.0014 0.992967
1.00005 1.0017 0.992694
1.00018 1.00182 0.992309
1.00011 1.00069 0.993558
1.00013 1.0013 0.992938
1.00014 1.00167 0.992571
1.00005 0.999588 0.994746
1.00014 1.00074 0.993435
1.00016 1.00143 0.992683
1.00014 1.00086 0.993326
1.00007 0.999597 0.994708
0.999939 0.99765 0.996874
1.00007 0.999572 0.994719
0.999969 0.997586 0.996883
0.999896 0.996392 0.999315
1 0.997512 0.996901
0.999934 0.996291 0.998855
0.999954 0.996228 0.999322
1.00014 1.00076 0.993425
1.00008 0.999343 0.994946
1.00011 1.00067 0.993493
1.00002 0.997296 0.997087
1.00009 0.999187 0.994989
1.00011 1.0005 0.993803
0.999978 0.996036 0.999373
1.00004 0.997163 0.997166
1.0001 0.999039 0.995022
1 0.995961 0.99939
1.00006 0.99707 0.997221
1.00001 0.995919 0.999399
1.02161 0.990911 0.974551
1.02006 0.993955 0.974137
1.015 0.996282 0.97942
1.0002 1.00154 0.992481
1.00022 1.00178 0.992288
1.00012 1.00163 0.992656
1.00017 1.00165 0.992415
1.00013 1.00227 0.991979
1.00018 1.00217 0.991966
1.00015 1.00257 0.99164
1.02031 0.988876 0.978586
1.02213 0.986787 0.977736
1.02089 0.988786 0.97832
1.01682 0.991163 0.979709
1.00028 0.998726 0.990751
0.994593 1.00177 0.981308
1.00006 0.99825 0.982719
0.999134 0.996789 0.996055
0.995159 0.999216 0.977475
1.00072 1.0002 0.979811
1.01344 0.987706 0.985338
0.997348 0.997165 1.00007
0.995895 0.998733 0.976146
1.00187 0.99755 0.985334
1.00901 0.989499 0.98868
1.00017 1.00293 0.991229
1.00015 1.00278 0.991427
1.00013 1.00257 0.991619
1.00011 1.00221 0.992065
1.0019 0.999585 0.990747
0.999499 1.00523 0.990317
1.00014 1.00318 0.991053
1.00019 1.00347 0.990582
1.0003 1.00378 0.990117
1.00015 1.00357 0.990559
1.00023 1.00379 0.990243
0.999537 1.00308 0.993532
0.999881 1.00367 0.990769
1.00018 1.00425 0.989965
0.997848 1.00546 0.996009
1.00009 1.00457 0.989614
1.02031 0.9971 0.971201
1.02196 0.99264 0.971929
1.02032 0.994676 0.971986
0.999914 1.00216 0.992948
0.99726 0.996663 1.00472
1.02238 0.991209 0.972408
0.995283 0.998986 0.977932
0.999407 0.998924 0.98363
1.02247 0.988171 0.976331
1.00719 0.990053 0.992026
0.99975 1.00183 0.995711
1.02096 0.99431 0.972333
1.01618 0.991344 0.981719
0.998364 0.994306 1.00548
1.00049 0.992553 0.99452
0.998072 0.997522 0.987824
0.99448 1.00083 0.979927
1.00027 1.00054 0.996578
1.01561 0.997311 0.977756
1.00478 0.993746 0.989774
0.995407 0.999172 0.989964
0.994552 1.00321 0.977243
0.999123 0.994386 0.994729
0.999476 1.00534 0.989922
0.999062 1.00588 0.990064
0.999376 1.0057 0.989708
0.999735 1.00492 0.9901
0.9996 1.00543 0.989788
0.999993 1.00527 0.989282
0.999979 1.00463 0.990128
1.00005 1.00489 0.989604
1.00043 1.00409 0.989678
1.00021 1.00366 0.990513
1.00045 1.00324 0.990483
1.00054 1.00264 0.990845
1.00064 1.00169 0.991534
1.00045 1.00184 0.991885
1.00046 1.00233 0.991306
1.00019 1.00138 0.992615
1.00025 1.00174 0.992213
1.00036 1.00235 0.99134
1.00011 1.0013 0.992978
1.00014 1.00148 0.992758
1.00014 1.00155 0.992612
1.00004 1.00079 0.993577
1.00004 1.00138 0.992991
1.00006 1.00168 0.992744
1.00002 0.999581 0.994814
1.00011 1.00068 0.993562
1.00014 1.00128 0.992942
0.999916 0.997719 0.996878
1.00005 0.999584 0.99475
1.00015 1.00073 0.993441
1.00007 0.999592 0.99471
0.999939 0.997655 0.996874
0.999862 0.996484 0.999312
0.99997 0.997591 0.996882
0.999893 0.996393 0.999314
0.999922 0.996309 0.999317
1.0002 1.0015 0.992577
1.00016 1.0008 0.99333
1.00006 0.999493 0.994813
1.00014 1.00077 0.993421
0.999992 0.997441 0.996998
1.00007 0.999342 0.99495
1.00011 1.00069 0.993551
0.99995 0.99614 0.999355
1.00002 0.997285 0.997091
1.00009 0.999191 0.995072
0.999981 0.996028 0.999378
1.00004 0.997153 0.997169
1 0.995958 0.999393
1.02012 0.994867 0.972916
1.02161 0.991198 0.974035
1.02008 0.993996 0.974171
1.00019 1.00156 0.992512
1.00022 1.00178 0.992256
1.00021 1.00171 0.992323
1.00022 1.00188 0.992126
1.00024 1.00195 0.992104
1.00017 1.00165 0.992415
1.00013 1.00228 0.99191
1.00019 1.00216 0.99197
1.00015 1.00253 0.991656
1.00018 1.00246 0.991727
1.01434 0.994281 0.981234
1.02045 0.988826 0.978274
1.02191 0.987267 0.977235
1.01347 0.987587 0.984643
1.00311 0.999674 0.981052
0.998887 0.996505 0.993943
0.99464 0.998712 0.980765
0.996817 0.997745 0.995372
0.994633 0.999513 0.980031
1.00071 0.997599 0.984982
1.00854 0.989073 0.989879
0.995378 1.0008 0.994946
0.994731 0.999892 0.980066
0.997378 0.998343 0.985569
1.00224 0.99169 0.993867
1.00006 1.00271 0.991639
1.00016 1.00292 0.991284
1.00015 1.00282 0.991415
0.999191 1.00251 0.994939
0.999864 1.00367 0.99086
1.00014 1.00358 0.990642
1.00026 1.00376 0.990219
1.00014 1.00429 0.99
0.999986 1.00463 0.989582
0.997715 1.0052 0.996005
0.999745 1.00497 0.989673
0.998633 1.00553 0.994016
1.0155 0.999983 0.977126
1.02017 0.996454 0.971203
1.02188 0.992339 0.971968
0.999413 1.00182 0.995479
0.998409 0.994489 0.99769
1.02097 0.994411 0.972341
0.99462 1.00053 0.974127
0.996926 0.999035 0.985993
1.01643 0.991039 0.981902
1.00003 0.992657 0.995714
1.00035 1.00063 0.99664
1.01571 0.996934 0.977786
1.00384 0.993511 0.990611
0.999114 0.993846 0.99838
0.996226 0.998849 0.986033
0.994728 1.00326 0.973262
1.00119 0.999367 0.994776
1.00535 0.996605 0.987321
0.996332 0.998963 0.984421
0.994561 1.00365 0.974961
1.00011 0.997214 0.994591
0.999106 1.0059 0.990032
0.999313 1.00578 0.989721
1.00009 1.0051 0.989639
0.999561 1.00542 0.989834
0.999934 1.00526 0.98935
1.0007 1.00337 0.989746
1.00008 1.00491 0.989491
1.00042 1.00391 0.989723
1.0008 1.00202 0.991052
1.00047 1.00322 0.990403
1.00055 1.0025 0.990905
1.0008 1.00107 0.991833
1.00089 1.00059 0.992096
1.00057 1.00154 0.991775
1.00066 1.00159 0.991564
1.00033 1.00151 0.992351
1.00041 1.00188 0.9918
1.00044 1.00234 0.991267
1.00017 1.00114 0.993005
1.00019 1.00137 0.992671
1.00025 1.00174 0.99227
1.00003 1.00089 0.993518
1.0001 1.0013 0.992972
1.00013 1.00148 0.99273
0.999963 0.99967 0.994831
1.00006 1.00078 0.993576
1.00005 1.00136 0.993016
0.999866 0.997756 0.997369
1.00002 0.999585 0.994816
1.00012 1.00066 0.993565
0.999839 0.996563 0.998378
0.999906 0.997715 0.997116
1.00005 0.99958 0.994754
0.999939 0.997659 0.996874
0.999858 0.996479 0.999311
0.999889 0.996393 0.999313
1.00019 1.00147 0.992591
1.00017 1.00084 0.993286
1.0002 1.00151 0.992557
1.00006 0.999595 0.994715
1.00016 1.00082 0.993327
0.999961 0.997585 0.996913
1.00007 0.999491 0.994815
1.00014 1.00078 0.993417
0.999917 0.996266 0.999334
0.999989 0.997431 0.997003
1.00007 0.999342 0.994953
0.999954 0.996128 0.99936
1.00002 0.997274 0.997095
0.999985 0.996021 0.999382
1.01552 0.999487 0.975367
1.02004 0.994831 0.972959
1.02157 0.991482 0.973518
1.00021 1.00163 0.992444
1.00018 1.00157 0.992542
1.00022 1.00179 0.992223
1.00022 1.00189 0.992167
1.00021 1.00172 0.992356
1.00023 1.00191 0.992116
1.00024 1.0019 0.992103
1.00021 1.0021 0.991945
1.00019 1.00215 0.991974
1.00015 1.00249 0.991673
1.00018 1.00244 0.991722
1.00025 1.00244 0.99174
1.00328 0.994287 0.992708
1.01443 0.994202 0.981429
1.02062 0.98879 0.977962
1.00745 0.991526 0.989882
1.00022 0.996483 0.983684
0.995794 0.998737 0.976192
0.996117 0.997624 1.0037
0.995177 1.00078 1.0014
1.00109 0.992709 0.994374
0.995092 0.999692 0.975776
0.997943 0.997757 0.989082
0.996105 1.0009 0.999764
0.994787 1.00169 0.978455
0.995218 0.998606 0.990881
0.999906 1.00264 0.992092
1.00013 1.00262 0.99165
1.00015 1.0029 0.99134
0.997581 1.00491 0.996005
0.999907 1.0047 0.989549
1.0001 1.00434 0.990035
0.999793 1.00504 0.989728
0.998635 1.00543 0.993983
0.999325 1.00296 0.993575
1.00547 0.996472 0.989228
1.01527 1.00005 0.975539
1.02003 0.995825 0.971206
1.00042 1.00073 0.996704
0.999201 0.994797 1.00035
1.01583 0.996595 0.977815
0.99462 1.00182 0.981381
0.996844 0.998336 0.990236
1.0037 0.993683 0.99031
1.00135 0.99924 0.995035
1.00517 0.996641 0.986905
0.996244 0.998977 0.988591
1.00024 0.997027 0.990812
0.994803 1.00337 0.976204
1.00297 0.998956 0.989906
0.997306 0.997781 0.987077
0.995307 1.00397 0.976475
1.00023 0.998429 0.990341
0.999278 1.00588 0.989735
0.999879 1.0051 0.98955
1.00077 1.00228 0.990578
0.999879 1.00525 0.989418
1.00074 1.00317 0.989783
1.0015 0.999547 0.992161
1.00041 1.00372 0.989767
1.00079 1.00172 0.991137
1.00114 0.999355 0.992889
1.00055 1.00235 0.990965
1.00083 1.00092 0.991866
1.00109 0.999411 0.992853
1.00096 0.999762 0.99278
1.0008 1.0008 0.992108
1.00088 1.00053 0.992154
1.00046 1.0013 0.992165
1.00057 1.00152 0.99184
1.00067 1.00148 0.991593
1.00022 1.00116 0.992884
1.00029 1.00151 0.992342
1.00038 1.00192 0.991715
1.00005 1.00088 0.993488
1.00017 1.00114 0.993
1.00019 1.00136 0.992727
0.999916 0.999848 0.994756
1.00004 1.00087 0.993523
1.00008 1.0013 0.992967
0.99982 0.99784 0.99692
0.999966 0.99968 0.994829
1.00007 1.00077 0.993576
0.99977 0.996619 0.99932
0.999869 0.997755 0.996909
1.00002 0.999588 0.994818
0.999824 0.996565 0.999311
0.999906 0.997713 0.996885
0.999853 0.996473 0.999311
1.00017 1.00145 0.99274
1.00019 1.00148 0.992612
1.00015 1.00089 0.993271
1.00005 0.999674 0.994656
1.00016 1.00085 0.993283
1.00019 1.00152 0.992538
0.999932 0.997697 0.996852
1.00006 0.999591 0.994716
1.00016 1.00082 0.993323
0.999882 0.996397 0.999315
0.999959 0.997574 0.996917
1.00007 0.999487 0.994817
0.999922 0.996252 0.99934
0.999986 0.99742 0.997007
0.999959 0.996116 0.999366
1.00506 0.99531 0.990832
1.01555 0.999521 0.975404
1.01996 0.994799 0.973001
1.00022 1.00164 0.992415
1.00018 1.0016 0.992574
1.00025 1.00171 0.992267
1.00021 1.00191 0.992208
1.00022 1.00172 0.992389
1.00023 1.00187 0.992127
1.00021 1.00209 0.991964
1.00024 1.00189 0.992125
1.00016 1.00225 0.991934
1.00024 1.00213 0.991941
1.00018 1.00241 0.991718
1.0002 1.00241 0.991746
0.995473 0.998486 0.990098
1.00262 0.994128 0.993656
1.01454 0.994118 0.981624
1.00009 0.993681 0.994881
0.997685 0.998347 0.985676
0.994718 0.999981 0.983467
0.995 1.00094 0.995137
0.996113 1.00114 0.993639
0.995639 0.998515 0.986648
0.995024 1.00136 0.979971
0.997579 0.999455 0.992387
0.994875 1.00203 0.977233
0.999786 1.00398 0.99166
0.999962 1.00242 0.992113
1.0002 1.00254 0.99166
0.998567 1.00532 0.993958
0.999839 1.00509 0.989783
0.999902 1.00268 0.993682
1.00079 1.00038 0.993967
0.998402 0.997276 0.985587
1.00546 0.996703 0.988129
1.01502 1.00006 0.973953
1.00146 0.999099 0.995271
1.00008 0.99716 0.997179
1.00551 0.996302 0.986668
0.994985 1.00345 0.975072
0.996308 0.999787 0.984846
1.00284 0.999103 0.990903
0.997787 0.998488 0.984755
0.994972 1.00356 0.974887
1.00022 0.998575 0.995352
1.00331 0.9983 0.989234
0.995335 1.00346 0.971665
1.00012 0.999218 0.996474
0.99964 1.00509 0.989461
1.00063 1.00261 0.990523
1.00197 0.997588 0.992787
1.00077 1.003 0.98982
1.00146 0.999295 0.992181
1.00177 0.996491 0.994556
1.00079 1.00146 0.991222
1.00118 0.999159 0.9929
1.00144 0.997598 0.993961
1.00085 1.00077 0.9919
1.00109 0.999391 0.992847
1.00114 0.998769 0.993358
1.001 0.999436 0.993075
1.00096 0.999692 0.992846
1.00087 1.00009 0.992655
1.0007 1.0008 0.992306
1.00078 1.00082 0.992122
1.00087 1.00047 0.992212
1.00035 1.00106 0.992614
1.00046 1.00132 0.992226
1.00056 1.00149 0.991904
1.00008 1.00089 0.993408
1.00022 1.00117 0.992878
1.00026 1.00152 0.992333
0.999889 1.00003 0.994635
1.00006 1.00086 0.993493
1.00018 1.00114 0.992995
0.99976 0.997993 0.996886
0.99992 0.999849 0.994756
1.00005 1.00085 0.993528
0.999729 0.996754 0.999319
0.999822 0.99785 0.996918
0.999969 0.99969 0.994827
0.999778 0.996624 0.998853
0.99987 0.997765 0.996909
0.999814 0.996548 0.999313
1.00014 1.00142 0.992815
1.00017 1.00145 0.992686
1.00012 1.00095 0.993267
1.00018 1.00149 0.992633
1.00015 1.0009 0.993268
1.00003 0.999756 0.994618
0.999904 0.997784 0.996819
1.00006 0.999664 0.994656
1.00016 1.00086 0.99328
0.999846 0.99651 0.999302
0.999931 0.997688 0.996855
1.00007 0.999587 0.994717
0.999886 0.996386 0.99932
0.999957 0.997564 0.996921
0.999926 0.996239 0.999346
0.9975 0.998328 0.984259
1.00477 0.995451 0.991026
1.01555 0.999554 0.97544
1.00022 1.00164 0.992386
1.00024 1.00172 0.992267
1.00017 1.00159 0.992595
1.00013 1.00161 0.992646
1.00019 1.00178 0.992349
1.00022 1.00208 0.991983
1.00024 1.00187 0.992147
1.00015 1.00223 0.99194
1.00008 1.00191 0.992258
1.00012 1.00234 0.991847
1.00014 1.00252 0.992008
1.0002 1.00228 0.991865
1.00016 1.00238 0.991751
0.995486 1.00246 0.972515
0.996041 0.999234 0.9877
1.0026 0.994344 0.993175
0.995688 0.998021 0.990848
0.994771 1.00216 0.972698
0.99619 1.00104 0.999744
0.998086 0.999534 0.995095
0.9949 1.0013 0.978592
1.00032 0.997992 0.993211
1.00065 1.00378 0.989662
0.999682 1.00377 0.991539
1.00001 1.00219 0.992133
1.00048 1.00235 0.993778
1.00073 0.99888 0.994556
0.995834 1.00145 0.975087
0.998329 0.997706 0.983076
1.00546 0.997009 0.987031
1.00275 0.999148 0.991922
1.00039 0.998728 0.990354
0.997926 0.998325 0.983382
0.995174 1.00392 0.976433
1.00332 0.998494 0.989168
0.995649 1.00305 0.975877
1.00016 0.99911 0.990876
1.00376 0.996018 0.990555
0.999388 1.00132 0.995838
1.00052 1.003 0.990467
1.00196 0.997757 0.992767
1.00245 0.995101 0.994505
1.00141 0.999024 0.992201
1.00167 0.996485 0.994521
1.00177 0.995997 0.994833
1.00122 0.998931 0.992911
1.00142 0.997659 0.993903
1.00137 0.997857 0.99381
1.00109 0.999374 0.992842
1.00114 0.998833 0.993317
1.00111 0.999024 0.993198
1.00097 0.999371 0.993144
1.00094 0.999794 0.992835
1.00097 0.99962 0.992912
1.00088 1.00009 0.992643
1.00082 1.00031 0.992543
1.00055 1.00075 0.992532
1.00069 1.00082 0.992292
1.00076 1.00085 0.992135
1.00018 1.00087 0.993235
1.00034 1.00109 0.992651
1.00046 1.00134 0.992288
0.99987 1.00023 0.994468
1.00009 1.00088 0.993408
1.00023 1.00117 0.992872
0.999701 0.998186 0.996809
0.999899 1.00001 0.994637
1.00007 1.00084 0.993497
0.999663 0.996895 0.999315
0.999763 0.998007 0.996883
0.999924 0.99985 0.994757
0.999717 0.996744 0.999318
0.999823 0.99786 0.996917
0.999765 0.996625 0.999318
1.0001 1.00148 0.992788
1.00013 1.00142 0.992818
1.00008 1.00103 0.993209
1.00018 1.00144 0.992632
1.00012 1.00096 0.993227
0.999997 0.99987 0.99458
1.00014 1.0009 0.993266
1.00004 0.999746 0.994618
0.999871 0.99787 0.996799
0.999808 0.996604 0.999296
0.999904 0.997773 0.996821
1.00006 0.999655 0.994656
0.99985 0.996509 0.999306
0.99993 0.997679 0.996857
0.99989 0.996376 0.999326
0.995674 1.00288 0.97704
0.997585 0.99814 0.98677
1.00502 0.995195 0.991387
1.00024 1.00173 0.992268
1.00016 1.00158 0.992616
1.00019 1.00178 0.992362
1.00013 1.00161 0.992649
1.00008 1.00174 0.992629
1.0001 1.00176 0.992471
1.00014 1.0022 0.991946
1.0001 1.00195 0.992252
1.00007 1.00242 0.991882
1.00008 1.00187 0.992282
1.00043 1.00222 0.992012
1.00079 1.0029 0.990094
1.00014 1.00231 0.991931
1.00015 1.00241 0.991789
0.999752 0.999771 0.995998
0.994773 1.00282 0.976866
0.995921 0.998799 0.985331
0.994681 1.00229 0.976975
0.998365 0.999092 0.998428
1.00026 0.998309 0.996081
1.0035 0.998947 0.989646
1.00051 1.00304 0.989918
0.999568 1.00356 0.991418
1.00068 0.99745 0.995147
0.99795 1.00257 0.990127
0.995971 1.00238 0.977152
0.99824 0.996988 0.986534
1.00332 0.998744 0.989105
1.00029 0.999085 0.995898
0.995487 1.0027 0.9803
1.00357 0.996191 0.990527
0.999433 1.00103 0.993585
1.00316 0.995196 0.992654
1.00148 1.00095 0.991955
1.00192 0.997908 0.99275
1.00241 0.995073 0.994527
1.00196 0.996286 0.994278
1.00158 0.996514 0.994485
1.00172 0.996218 0.994773
1.00161 0.997591 0.993602
1.00139 0.997747 0.993845
1.00134 0.997997 0.993758
1.00133 0.99885 0.992964
1.00115 0.998901 0.993275
1.00107 0.99909 0.993211
1.00102 0.999708 0.992716
1.00094 0.999314 0.993213
1.00093 0.999724 0.992883
1.0009 1.00012 0.992604
1.00089 1.00008 0.992631
1.00082 1.00031 0.992531
1.00071 1.00043 0.992651
1.00034 1.00068 0.99301
1.00054 1.00078 0.992568
1.00069 1.00084 0.992278
0.999884 1.00044 0.994238
1.00018 1.00087 0.993238
1.00034 1.00111 0.992689
0.999636 0.998414 0.996702
0.999889 1.0002 0.994469
1.0001 1.00087 0.993407
0.999592 0.997081 0.999299
0.999704 0.998203 0.996805
0.999909 0.999995 0.99464
0.999649 0.996896 0.99931
0.999765 0.998021 0.996879
0.999705 0.996735 0.999318
1.00008 1.00155 0.992791
1.00011 1.00147 0.992829
1.00003 1.00115 0.993204
1.00013 1.00143 0.992821
1.00007 1.00105 0.99321
0.99995 1.00003 0.99452
1.00011 1.00098 0.993186
0.999997 0.999864 0.994578
0.999828 0.997987 0.996772
1.00004 0.999737 0.994617
0.999873 0.997857 0.996801
0.999764 0.996698 0.999292
0.999814 0.996612 0.999298
0.999905 0.997762 0.996822
0.999854 0.996507 0.999309
0.998987 1.00018 0.994801
0.995354 1.00231 0.975232
0.997356 0.998577 0.983669
1.00017 1.0017 0.992514
1.00019 1.00178 0.992375
1.00013 1.0016 0.992652
1.00012 1.00178 0.992472
1.00007 1.00176 0.992617
1.00002 1.00164 0.992705
1.00013 1.00201 0.992245
1.00002 1.00251 0.991917
1.00013 1.00191 0.992314
1.00023 1.00213 0.992173
1.00069 1.00195 0.991201
1.00221 1.00167 0.988424
1.00068 1.0028 0.990263
1.00015 1.00212 0.991854
1.00366 0.997661 0.988894
0.999629 0.999807 0.99369
0.994843 1.00245 0.980959
1.00022 0.998658 0.99086
1.00346 0.999712 0.988081
1.00038 1.00221 0.99018
1.00119 1.00092 0.994249
0.997982 1.00256 0.995325
0.995798 1.00133 0.97501
1.00348 0.996402 0.990495
0.999455 1.00053 0.991195
1.00303 0.995534 0.99242
1.0015 1.00059 0.992384
1.00206 0.997835 0.99178
1.00117 1.00021 0.990949
1.0024 0.995023 0.99455
1.00192 0.996344 0.994278
1.00158 0.998611 0.992792
1.0017 0.996438 0.994713
1.0016 0.997733 0.99357
1.00151 0.999018 0.992449
1.00132 0.998139 0.993706
1.00127 0.998911 0.993026
1.00121 0.999753 0.992268
1.00104 0.999153 0.993224
1.00101 0.999715 0.992718
1.00096 1.00011 0.992431
1.00092 0.999652 0.99293
1.00089 1.00006 0.992624
1.00079 1.00029 0.992587
1.00082 1.00032 0.992519
1.0007 1.00043 0.992617
1.0005 1.00048 0.992975
0.999956 1.00052 0.994012
1.00033 1.0007 0.993054
1.00053 1.00081 0.992604
0.999577 0.998677 0.996543
0.999905 1.0004 0.99424
1.00018 1.00087 0.99324
0.999517 0.997297 0.999277
0.999641 0.998437 0.996695
0.999907 1.00017 0.994469
0.999578 0.997087 0.999293
0.999707 0.998219 0.9968
0.999637 0.996897 0.999306
1.00012 1.00153 0.992682
1.00008 1.00153 0.992794
1.00002 1.00123 0.993215
1.00012 1.00147 0.992869
1.00002 1.00117 0.993232
0.9999 1.00023 0.994426
1.00006 1.00108 0.99321
0.999947 1.00003 0.994518
0.999771 0.998154 0.996724
0.999997 0.999857 0.994577
0.99983 0.997972 0.996773
0.999706 0.99682 0.999284
0.999874 0.997844 0.996802
0.999772 0.99671 0.999293
0.999819 0.996621 0.999299
1.00248 0.997001 0.992278
0.998911 1.00083 0.990572
0.995752 1.00223 0.977016
1.00014 1.00151 0.992613
1.00047 1.00148 0.992137
1.00009 1.00172 0.992537
1.00013 1.0018 0.992473
1.00006 1.00178 0.992604
1.00007 1.00166 0.992685
1.00073 1.0015 0.991516
1.00017 1.00196 0.992346
1.00003 1.00203 0.992334
1.00066 1.00198 0.991162
1.0018 1.00125 0.989471
1.00253 0.998939 0.990508
1.00219 1.00155 0.988624
1.00056 1.0027 0.990433
1.00363 0.997685 0.989002
0.999462 1.00018 0.991148
1.00348 1.00054 0.986509
1.00078 0.999606 0.993047
1.00112 1.0004 0.994316
0.998033 1.00215 0.990087
1.00283 0.995843 0.992183
1.00153 1.0002 0.992806
1.00213 0.997897 0.991907
1.00128 1.00033 0.991232
1.0015 1.00004 0.991473
1.001 1.00005 0.992598
1.00187 0.996355 0.994279
1.00154 0.998555 0.992841
1.00154 0.999707 0.991722
1.00158 0.99783 0.993537
1.00148 0.99906 0.992454
1.0014 0.999768 0.99181
1.00121 0.998963 0.993088
1.00121 0.999757 0.992267
1.00113 1.00015 0.99204
1.001 0.999721 0.99272
1.00096 1.00011 0.99243
1.00086 1.00032 0.992417
1.00088 1 0.992644
1.00079 1.00027 0.992588
1.00059 1.00038 0.992894
1.0007 1.00042 0.992583
1.00049 1.00048 0.992955
1.00005 1.00048 0.993856
0.99955 0.998935 0.996362
0.99997 1.00048 0.994017
1.00032 1.00073 0.993097
0.999446 0.997533 0.999245
0.999584 0.998705 0.996534
0.999925 1.00036 0.994241
0.999504 0.997305 0.999268
0.999645 0.998459 0.996688
0.999564 0.997093 0.999287
1.00023 1.00149 0.992373
1.00011 1.00152 0.992643
1.00008 1.00121 0.993126
1.00008 1.00151 0.992797
1.00001 1.00124 0.993212
0.999864 1.00043 0.994298
1.00002 1.00118 0.993259
0.999891 1.00024 0.994424
0.999699 0.998378 0.996651
0.999944 1.00003 0.994516
0.999771 0.998139 0.996727
0.999633 0.996986 0.999272
0.999831 0.997957 0.996775
0.999718 0.996828 0.999287
0.99978 0.996722 0.999294
1.0018 0.998091 0.992898
1.00252 0.99745 0.992869
0.998822 1.00145 0.996401
1.0008 1.00121 0.991877
1.00008 1.00149 0.992776
1.00077 1.00122 0.991412
1.00047 1.00149 0.992104
1.00001 1.00173 0.992561
1.00167 1.00083 0.990316
1.00012 1.00167 0.992664
1.00075 1.00143 0.991548
1.00236 0.999228 0.990338
1.00063 1.00199 0.991123
1.00196 1.00123 0.989268
1.00258 0.998833 0.990429
1.00217 1.00141 0.988823
1.00354 0.997716 0.989112
1.00091 0.999381 0.993411
1.00071 0.999417 0.993077
1.00103 0.999877 0.994388
1.00219 0.997989 0.992036
1.00139 1.00046 0.991515
1.0016 0.999914 0.991439
1.001 0.999999 0.992612
1.00107 1.00006 0.992306
1.00151 0.998543 0.99289
1.00155 0.999615 0.991772
1.00146 0.999993 0.991586
1.00145 0.99911 0.99246
1.00141 0.999821 0.991785
1.00132 1.00016 0.991654
1.00121 0.999762 0.992267
1.00114 1.00015 0.992032
1.001 1.00034 0.992108
1.00096 1.0001 0.992428
1.00086 1.00032 0.992415
1.00067 1.00039 0.992722
1.00078 1.00025 0.992588
1.00059 1.00038 0.992895
1.00014 1.00042 0.99374
1.00047 1.00047 0.992934
1.00006 1.00045 0.993862
0.999531 0.999169 0.996717
0.999397 0.997829 0.998075
0.999555 0.998955 0.996621
0.999985 1.00044 0.994021
0.999435 0.997545 0.999232
0.999591 0.998732 0.996526
0.999491 0.997313 0.99926
1.00102 1.00074 0.99157
1.00042 1.00143 0.992044
1.00027 1.00149 0.992331
1.00016 1.00117 0.992993
1.00011 1.0015 0.992605
1.00007 1.00121 0.993128
0.999855 1.00058 0.994168
1 1.00125 0.993209
0.99985 1.00045 0.994297
0.999619 0.998638 0.996556
0.999883 1.00025 0.994422
0.999697 0.99836 0.996655
0.999546 0.997199 0.999253
0.999771 0.998122 0.99673
0.999649 0.996985 0.999276
0.999731 0.996836 0.999289
1.00176 0.998628 0.992336
1.00175 0.998126 0.992727
1.00256 0.997971 0.993458
1.00151 1.00066 0.990774
1.00067 1.00121 0.992059
1.00001 1.00146 0.99294
1.00089 1.00116 0.991503
1.00047 1.0015 0.992071
1.00217 0.999794 0.990252
1.00169 1.00088 0.990217
1.00076 1.00136 0.99158
1.00244 0.999217 0.990285
1.00212 1.00121 0.989065
1.00265 0.99873 0.99035
1.00065 0.9998 0.993189
1.00086 0.999437 0.993371
1.00065 0.999223 0.993107
1.00172 0.999786 0.991405
1.001 0.999957 0.992625
1.00109 1.00003 0.9923
1.00099 1.00025 0.992227
1.00155 0.999517 0.991822
1.0015 0.999935 0.991548
1.00134 1.00005 0.991697
1.00142 0.999872 0.99176
1.00132 1.00016 0.991646
1.00116 1.00035 0.991789
1.00114 1.00015 0.992024
1.00101 1.00034 0.992101
1.00078 1.00042 0.992468
1.00087 1.00031 0.992412
1.00067 1.00039 0.99272
1.00021 1.00041 0.993585
1.00059 1.00038 0.992896
1.00013 1.00041 0.993744
0.999512 0.999421 0.996528
1.00006 1.00043 0.993868
0.999537 0.99919 0.996688
0.999323 0.998143 0.997921
0.999384 0.997806 0.99863
0.999559 0.998976 0.996877
0.999425 0.997557 0.999219
1.00152 1.00039 0.990987
1.00075 1.00105 0.991993
1.00096 1.00063 0.991846
1.00028 1.00119 0.992722
1.00046 1.00145 0.992049
1.00031 1.00148 0.992289
1.00015 1.00118 0.992996
0.999862 1.00072 0.994018
1.00006 1.00121 0.993131
0.999837 1.00061 0.994166
0.999542 0.998906 0.996449
0.999836 1.00047 0.994295
0.999615 0.998619 0.996561
0.99945 0.997449 0.99923
0.999695 0.998343 0.996659
0.999565 0.997188 0.999259
0.999666 0.996984 0.99928
1.00158 0.999481 0.991831
1.00173 0.998634 0.992347
1.0017 0.998153 0.992556
1.00194 0.999846 0.990528
1.00152 1.00065 0.990786
1.00054 1.00122 0.992241
1.001 1.0011 0.991593
1.0022 0.999805 0.990245
1.0017 1.00093 0.990119
1.00251 0.999207 0.990232
1.00075 1.00019 0.992726
1.00076 0.999862 0.993017
1.00082 0.99949 0.993331
1.00088 1.00056 0.992174
1.00112 1.00001 0.992294
1.00099 1.00027 0.992204
1.0011 1.00022 0.992048
1.00154 0.999882 0.99151
1.00135 1.00005 0.991702
1.00119 1.00033 0.991739
1.00132 1.00016 0.991638
1.00116 1.00035 0.991789
1.00089 1.00044 0.992221
1.00101 1.00034 0.992094
1.00078 1.00042 0.992465
1.0003 1.00044 0.993375
1.00067 1.00039 0.992717
1.00021 1.00041 0.993585
0.999487 0.999663 0.996346
1.00013 1.0004 0.993749
0.999521 0.999424 0.996499
0.99923 0.998499 0.997782
0.999544 0.99921 0.996658
0.999318 0.998113 0.997943
0.99937 0.997782 0.99919
1.00185 1.00012 0.990677
1.00127 1.00055 0.991383
1.00147 1.00044 0.991092
1.00055 1.001 0.992518
1.00074 1.00102 0.991973
1.00089 1.00052 0.992121
0.999932 1.00084 0.993749
1.00028 1.0012 0.992722
1.00051 1.00147 0.992054
1.00014 1.00118 0.992999
0.999842 1.00075 0.994016
0.999482 0.99919 0.996292
0.999818 1.00064 0.994164
0.999534 0.998889 0.996453
0.999349 0.99772 0.999204
0.99961 0.9986 0.996566
0.99947 0.99743 0.999237
0.999585 0.997178 0.999265
1.00155 0.999763 0.991609
1.00166 0.999449 0.991711
1.00169 0.998639 0.992358
1.00206 0.999793 0.990431
1.00152 1.00064 0.990797
1.00225 0.999813 0.990239
1.00082 1.00059 0.992204
1.00071 1.00026 0.992756
1.00086 0.999926 0.992845
1.00088 1.00059 0.992139
1.0009 1.00073 0.991949
1.00099 1.00029 0.992181
1.00109 1.00022 0.992047
1.00108 1.00037 0.991998
1.00134 1.00005 0.991707
1.00119 1.00031 0.991752
1.00093 1.00048 0.992103
1.00116 1.00035 0.991788
1.0009 1.00044 0.992217
1.00038 1.00047 0.993181
1.00079 1.00042 0.992461
1.0003 1.00044 0.993372
0.99946 0.999883 0.996168
1.00021 1.00042 0.993585
0.999502 0.99966 0.996317
0.999113 0.998885 0.997652
0.999532 0.999429 0.99647
0.999226 0.998464 0.997805
0.999312 0.998086 0.997966
1.00171 0.999549 0.99153
1.00161 1.00027 0.990954
1.00188 1.00008 0.990641
1.00092 1.00065 0.992025
1.00125 1.00057 0.991439
1.00141 1.00049 0.991196
1.00011 1.00079 0.993417
1.00053 1.00099 0.992411
1.00073 1.00099 0.991952
0.999476 0.999488 0.996009
0.999915 1.00087 0.993748
1.00027 1.00121 0.992721
0.999822 1.00079 0.994013
0.999466 0.999179 0.996298
0.999255 0.99802 0.999159
0.999526 0.998873 0.996457
0.99937 0.997697 0.999212
0.999491 0.997412 0.999244
1.00125 1.00044 0.99153
1.00158 0.999743 0.99156
1.00175 0.999415 0.991592
1.00218 0.999746 0.990333
1.00091 1.00081 0.991804
1.00081 1.00059 0.992249
1.00066 1.00033 0.992787
1.00087 1.00061 0.992104
1.00089 1.00073 0.991968
1.00086 1.00069 0.992074
1.00108 1.00023 0.992046
1.00106 1.00037 0.992005
1.00088 1.00052 0.992167
1.00119 1.0003 0.991765
1.00093 1.00047 0.992112
1.00042 1.00054 0.99305
1.0009 1.00044 0.992214
1.00039 1.00047 0.993176
0.999448 1.0001 0.995349
1.0003 1.00045 0.993368
0.999483 0.999907 0.995796
0.998987 0.999102 0.998961
0.999517 0.999658 0.996287
0.999111 0.998854 0.997674
0.999222 0.998427 0.997828
1.00144 1.00008 0.99157
1.00158 0.999829 0.991433
1.00166 0.999607 0.991516
1.00118 1.00039 0.991526
1.00159 1.00024 0.991056
1.00191 1.00005 0.990604
1.00037 1.00058 0.992912
1.00092 1.00066 0.992021
1.00124 1.0006 0.991495
0.999542 0.99972 0.995629
1.00011 1.00079 0.993322
1.00052 1.00097 0.992304
0.999185 0.998361 0.999079
0.999446 0.99949 0.99602
0.999897 1.00089 0.993748
0.999449 0.999168 0.996303
0.999271 0.997991 0.999174
0.999391 0.997674 0.99922
1.00104 1.00069 0.991672
1.00121 1.0004 0.991628
1.00162 0.999724 0.991512
1.00092 1.00082 0.991819
1.00092 1.00083 0.991795
1.0008 1.0006 0.992294
1.00088 1.00072 0.991988
1.00086 1.00067 0.992078
1.00071 1.0007 0.992379
1.00104 1.00036 0.992012
1.00087 1.00053 0.992232
1.00039 1.00062 0.992911
1.00092 1.00047 0.99212
1.00041 1.00054 0.993053
0.999406 1.00027 0.995266
1.00039 1.00048 0.993172
0.999467 1.00009 0.995345
0.998903 0.999365 0.998942
0.999505 0.99993 0.995429
0.998978 0.999178 0.998265
0.999109 0.998822 0.997696
1.00123 1.00051 0.991616
1.00137 1.00001 0.991699
1.00141 1.00006 0.991561
1.00123 1.00019 0.991744
1.00154 0.999848 0.991469
1.0016 0.999665 0.991501
1.0006 1.00043 0.99258
1.0012 1.00041 0.991637
1.00156 1.00022 0.991158
0.999631 0.999853 0.995286
1.0004 1.00059 0.992864
1.00093 1.00066 0.992016
0.999138 0.998713 0.998984
0.999505 0.999739 0.995641
1.00011 1.0008 0.993228
0.999192 0.998322 0.999106
0.999416 0.999493 0.996031
0.999289 0.997961 0.999188
1.00099 1.00072 0.991753
1.00106 1.00067 0.991661
1.00117 1.00036 0.991726
1.00079 1.0008 0.992124
1.00092 1.00084 0.991821
1.00093 1.00085 0.991786
1.00087 1.00065 0.992083
1.00072 1.00068 0.992383
1.00033 1.00073 0.992911
1.00085 1.00054 0.992298
1.00039 1.00062 0.992964
0.999362 1.00047 0.995166
1.00041 1.00054 0.993056
0.999421 1.00025 0.995263
0.998791 0.999633 0.998923
0.999486 1.00007 0.99534
0.998876 0.999399 0.998936
0.998973 0.999259 0.997562
1.00115 1.00046 0.99178
1.00122 1.0005 0.991565
1.00111 1.00026 0.991946
1.00136 1.00001 0.99171
1.00139 1.00004 0.991552
1.00068 1.00035 0.992673
1.00125 1.00019 0.99173
1.0015 0.999867 0.991506
0.999679 0.999941 0.995072
1.00062 1.00043 0.992631
1.00123 1.00042 0.991747
0.999091 0.999032 0.998907
0.999597 0.999883 0.995296
1.00043 1.00059 0.992815
0.99914 0.998671 0.999013
0.999467 0.999761 0.995653
0.9992 0.998282 0.999131
1.00086 1.00072 0.992072
1.00099 1.00072 0.991764
1.00109 1.00066 0.99165
1.00039 1.00078 0.992746
1.00079 1.00081 0.992126
1.00092 1.00086 0.991823
1.00073 1.00066 0.992388
1.00033 1.00072 0.992922
0.999328 1.00063 0.995072
1.00039 1.00063 0.993017
0.99937 1.00045 0.995167
0.998698 0.999866 0.998899
0.999436 1.00024 0.995261
0.99877 0.999661 0.998916
0.99885 0.999434 0.998931
1.00095 1.00055 0.992018
1.00115 1.00045 0.991747
1.00122 1.00049 0.991513
1.0006 1.00043 0.992767
1.00111 1.00026 0.991945
1.00135 1.00001 0.99172
0.999646 1.00002 0.995026
1.00069 1.00035 0.992667
1.00127 1.00019 0.991717
0.999025 0.9993 0.998865
0.999655 0.999965 0.995078
1.00065 1.00044 0.992681
0.999096 0.998995 0.998929
0.999562 0.999914 0.995306
0.999143 0.998626 0.999042
1.00044 1.00075 0.992794
1.00086 1.00074 0.992014
1.001 1.00071 0.991774
0.999331 1.0007 0.994998
1.00038 1.00079 0.992767
1.00079 1.00082 0.992127
1.00034 1.00072 0.992933
0.999334 1.00062 0.995071
0.998633 1.00004 0.998869
0.999378 1.00044 0.995167
0.998683 0.99989 0.998889
0.998747 0.999688 0.998908
1.00048 1.00063 0.992812
1.00095 1.00054 0.992
1.00116 1.00044 0.991715
0.999541 1.00013 0.995813
1.0006 1.00044 0.992763
1.00111 1.00027 0.991944
0.998917 0.999524 0.998864
0.999639 1.00004 0.995024
1.0007 1.00035 0.99266
0.999038 0.99927 0.998876
0.999633 0.999989 0.995085
0.999101 0.998957 0.99895
0.999374 1.00064 0.994959
1.00044 1.00075 0.992746
1.00085 1.00075 0.991957
0.998606 1.00014 0.998848
0.999338 1.00069 0.994993
1.00037 1.00079 0.992787
0.999341 1.00061 0.995069
0.998629 1.00006 0.998862
0.998671 0.999912 0.998879
0.999436 1.00035 0.995785
1.00049 1.00063 0.99281
1.00095 1.00054 0.991982
0.998794 0.999716 0.998891
0.999546 1.00021 0.995064
1.00061 1.00044 0.992758
0.998946 0.9995 0.998862
0.999632 1.00006 0.995022
0.999051 0.99924 0.998887
0.998632 1.00031 0.997277
0.999381 1.00058 0.99536
1.00044 1.00076 0.992698
0.998612 1.00014 0.998842
0.999341 1.00069 0.99499
0.99862 1.00008 0.998855
0.99869 1.00008 0.997355
0.999444 1.00041 0.995419
1.0005 1.00063 0.992808
0.998814 0.999793 0.998121
0.999537 1.00023 0.995056
0.998974 0.999477 0.998861
0.998637 1.0001 0.998835
0.999375 1.00064 0.994974
0.998621 1.00014 0.998837
0.998689 1.00005 0.998097
0.999432 1.00047 0.995035
0.998853 0.999697 0.998867
0.998657 1.00007 0.998845
0.998733 0.999908 0.998866

TENSORS stress float
0.001184 2.58604e-05 1.5766e-05
2.58604e-05 0.000162045 -4.67837e-06
1.5766e-05 -4.67837e-06 0.00015879
0.00256931 -3.35008e-05 1.34533e-05
-3.35008e-05 0.000827285 2.99491e-06
1.34533e-05 2.99491e-06 0.000838055
0.00116635 2.70379e-05 5.79626e-06
2.70379e-05 0.000153603 -1.80266e-06
5.79626e-06 -1.80266e-06 0.000150642
0.00124804 2.55004e-05 1.92948e-05
2.55004e-05 0.000226451 -3.41948e-06
1.92948e-05 -3.41948e-06 0.000212466
0.001212 2.63031e-05 1.68904e-05
2.63031e-05 0.00018619 -4.34332e-06
1.68904e-05 -4.34332e-06 0.000179256
0.00115279 2.50649e-05 1.46337e-05
2.50649e-05 0.000138511 -4.89278e-06
1.46337e-05 -4.89278e-06 0.00013875
0.00115026 2.22065e-05 4.8808e-06
2.22065e-05 0.000132504 -1.98682e-06
4.8808e-06 -1.98682e-06 0.000110464
0.00261812 -3.38008e-05 1.93469e-07
-3.38008e-05 0.000849999 -9.4048e-08
1.93469e-07 -9.4048e-08 0.000860885
0.0028561 -4.15373e-05 6.6052e-06
-4.15373e-05 0.000998085 9.87784e-07
6.6052e-06 9.87784e-07 0.00100115
0.0026558 -3.75991e-05 5.99667e-06
-3.75991e-05 0.000877608 1.13445e-06
5.99667e-06 1.13445e-06 0.000886405
0.00110621 -2.34102e-05 1.12147e-05
-2.34102e-05 9.7442e-05 3.15008e-06
1.12147e-05 3.15008e-06 0.000103572
0.000867518 -2.08562e-05 4.82e-06
-2.08562e-05 -1.78661e-05 2.49933e-06
4.82e-06 2.49933e-06 -3.38488e-05
0.00130747 -1.99518e-05 2.03679e-05
-1.99518e-05 0.000294224 6.3998e-07
2.03679e-05 6.3998e-07 0.000274029
0.00120454 -2.82481e-05 5.21955e-06
-2.82481e-05 0.000226386 6.12395e-07
5.21955e-06 6.12395e-07 0.00021025
0.00114679 2.82848e-05 -4.3991e-06
2.82848e-05 0.000144318 1.10521e-06
-4.3991e-06 1.10521e-06 0.000141644
0.00125026 2.7385e-05 7.2024e-06
2.7385e-05 0.000227982 -1.35177e-06
7.2024e-06 -1.35177e-06 0.000214107
0.00113823 2.61809e-05 5.40598e-06
2.61809e-05 0.000131518 -1.83616e-06
5.40598e-06 -1.83616e-06 0.000132015
0.00119568 2.76377e-05 6.20206e-06
2.76377e-05 0.000178253 -1.68627e-06
6.20206e-06 -1.68627e-06 0.000171613
0.0011803 2.2673e-05 -1.91917e-06
2.2673e-05 0.000147447 3.00312e-07
-1.91917e-06 3.00312e-07 0.000125348
0.00327248 4.57676e-05 2.06946e-05
4.57676e-05 0.00125308 -7.41591e-07
2.06946e-05 -7.41591e-07 0.00124581
0.00128158 2.47327e-05 2.06622e-05
2.47327e-05 0.000252208 -2.62314e-06
2.06622e-05 -2.62314e-06 0.000235885
0.00122667 2.61426e-05 1.79811e-05
2.61426e-05 0.000205338 -3.95422e-06
1.79811e-05 -3.95422e-06 0.000194705
0.0012436 1.42033e-05 5.31557e-06
1.42033e-05 0.000179641 -1.34416e-06
5.31557e-06 -1.34416e-06 0.000148825
0.00118265 1.88726e-05 5.07967e-06
1.88726e-05 0.000149715 -1.69543e-06
5.07967e-06 -1.69543e-06 0.000124799
0.00114991 2.41592e-05 1.38996e-05
2.41592e-05 0.000128311 -5.00825e-06
1.38996e-05 -5.00825e-06 0.000131535
0.00111516 2.27534e-05 4.77395e-06
2.27534e-05 0.000113748 -2.2482e-06
4.77395e-06 -2.2482e-06 9.48982e-05
0.00139689 9.1437e-07 1.71261e-06
9.1437e-07 0.000216464 -7.14275e-07
1.71261e-06 -7.14275e-07 0.000169565
0.00266767 -3.4146e-05 -1.32332e-05
-3.4146e-05 0.000873059 -3.0257e-06
-1.32332e-05 -3.0257e-06 0.000884059
0.00202217 -3.39219e-05 -5.30087e-06
-3.39219e-05 0.000587506 -8.15167e-07
-5.30087e-06 -8.15167e-07 0.000585599
0.00190455 -3.1436e-05 -4.75247e-06
-3.1436e-05 0.000507242 -9.05495e-07
-4.75247e-06 -9.05495e-07 0.000512037
0.00252449 -3.15435e-05 1.35573e-07
-3.15435e-05 0.000796662 -7.19895e-08
1.35573e-07 -7.19895e-08 0.000809466
0.000821905 -2.04577e-05 1.00806e-07
-2.04577e-05 -4.01382e-05 -5.20653e-08
1.00806e-07 -5.20653e-08 -5.58985e-05
0.00117264 -2.60042e-05 1.45217e-05
-2.60042e-05 0.000184807 2.11588e-06
1.45217e-05 2.11588e-06 0.000174251
0.001115 -2.60157e-05 1.28363e-05
-2.60157e-05 0.000130485 2.66371e-06
1.28363e-05 2.66371e-06 0.000128023
0.00168537 -1.8446e-05 8.70821e-06
-1.8446e-05 0.000396643 1.80345e-06
8.70821e-06 1.80345e-06 0.000374852
0.00246066 -3.08846e-05 5.37222e-06
-3.08846e-05 0.000756993 1.3548e-06
5.37222e-06 1.3548e-06 0.000771629
0.00162261 -2.65724e-05 8.01094e-06
-2.65724e-05 0.00035995 2.17848e-06
8.01094e-06 2.17848e-06 0.000344842
0.000868384 -1.97356e-05 5.87597e-06
-1.97356e-05 -2.37404e-05 3.83482e-06
5.87597e-06 3.83482e-06 -3.70227e-05
0.000968708 4.16322e-07 2.55382e-06
4.16322e-07 1.32092e-05 1.25238e-06
2.55382e-06 1.25238e-06 -3.13723e-05
0.00247093 -2.4739e-05 1.20338e-05
-2.4739e-05 0.000748314 3.69498e-06
1.20338e-05 3.69498e-06 0.000765177
0.00321122 -4.40952e-05 6.85227e-07
-4.40952e-05 0.00123015 -1.42271e-07
6.85227e-07 -1.42271e-07 0.00122207
0.00212847 -3.47381e-05 -6.2505e-06
-3.47381e-05 0.000681835 -4.76141e-07
-6.2505e-06 -4.76141e-07 0.000671205
0.00333078 -3.46652e-05 2.29145e-05
-3.46652e-05 0.00128998 1.70268e-07
2.29145e-05 1.70268e-07 0.00128141
0.00120743 -2.76114e-05 5.34713e-06
-2.76114e-05 0.000239709 4.80508e-07
5.34713e-06 4.80508e-07 0.000221333
0.000722039 -1.67142e-05 7.45441e-06
-1.67142e-05 -5.88908e-05 1.23905e-06
7.45441e-06 1.23905e-06 -9.84257e-05
0.00302792 -4.44446e-05 7.27136e-06
-4.44446e-05 0.00110962 7.28188e-07
7.27136e-06 7.28188e-07 0.00110705
0.00166401 -1.81729e-05 1.13562e-05
-1.81729e-05 0.000399203 1.66628e-06
1.13562e-05 1.66628e-06 0.000369706
0.00125094 2.94754e-05 -5.3007e-06
2.94754e-05 0.000228773 7.93774e-07
-5.3007e-06 7.93774e-07 0.000214998
0.00117429 2.90198e-05 -4.69461e-06
2.90198e-05 0.000167906 9.99622e-07
-4.69461e-06 9.99622e-07 0.000161567
0.00112567 2.73887e-05 -4.08799e-06
2.73887e-05 0.000125557 1.15685e-06
-4.08799e-06 1.15685e-06 0.000126296
0.00121318 2.29024e-05 -8.85603e-06
2.29024e-05 0.00016374 2.63106e-06
-8.85603e-06 2.63106e-06 0.000141591
0.00225996 3.73107e-05 -5.92198e-06
3.73107e-05 0.00075578 -2.70943e-07
-5.92198e-06 -2.70943e-07 0.000742449
0.00127951 2.69001e-05 7.73819e-06
2.69001e-05 0.000252003 -1.08851e-06
7.73819e-06 -1.08851e-06 0.000235601
0.00112922 2.52161e-05 5.11817e-06
2.52161e-05 0.000118256 -1.86887e-06
5.11817e-06 -1.86887e-06 0.00012168
0.00122007 2.77289e-05 6.65076e-06
2.77289e-05 0.000202183 -1.52931e-06
6.65076e-06 -1.52931e-06 0.000191794
0.00126689 1.41032e-05 -2.55946e-06
1.41032e-05 0.000190902 2.69953e-07
-2.55946e-06 2.69953e-07 0.000160163
0.00114914 2.29683e-05 -1.74958e-06
2.29683e-05 0.000130319 2.45849e-07
-1.74958e-06 2.45849e-07 0.000111476
0.00120753 1.92938e-05 -2.11916e-06
1.92938e-05 0.000161895 3.51778e-07
-2.11916e-06 3.51778e-07 0.000136974
0.00142764 -8.82359e-07 -9.06161e-07
-8.82359e-07 0.00022973 5.47207e-07
-9.06161e-07 5.47207e-07 0.000182599
0.00334081 4.796e-05 2.06865e-05
4.796e-05 0.0012905 -3.35328e-07
2.06865e-05 -3.35328e-07 0.00128225
0.00128096 2.36702e-05 2.14696e-05
2.36702e-05 0.000263731 -1.93144e-06
2.14696e-05 -1.93144e-06 0.00024607
0.00170722 2.82903e-05 4.48259e-06
2.82903e-05 0.000418246 -4.12777e-07
4.48259e-06 -4.12777e-07 0.000386074
0.00128261 1.27231e-05 5.59648e-06
1.27231e-05 0.000197671 -9.95734e-07
5.59648e-06 -9.95734e-07 0.000164886
0.00120788 1.65225e-05 5.12056e-06
1.65225e-05 0.000163261 -1.51665e-06
5.12056e-06 -1.51665e-06 0.000135349
0.00151827 -1.02245e-05 1.60358e-06
-1.02245e-05 0.000237618 -5.51953e-07
1.60358e-06 -5.51953e-07 0.000185216
0.0012004 -2.11849e-06 2.10756e-06
-2.11849e-06 0.000109098 -8.28457e-07
2.10756e-06 -8.28457e-07 5.99178e-05
0.00122843 2.32113e-05 1.38123e-05
2.32113e-05 0.000155242 -5.18818e-06
1.38123e-05 -5.18818e-06 0.000160814
0.00110089 2.16343e-05 4.73872e-06
2.16343e-05 0.000100897 -2.31544e-06
4.73872e-06 -2.31544e-06 8.56944e-05
0.00136482 2.9026e-06 1.67238e-06
2.9026e-06 0.000211887 -8.47572e-07
1.67238e-06 -8.47572e-07 0.000167001
0.00113372 -2.26072e-05 1.32536e-06
-2.26072e-05 4.69469e-05 -7.52027e-07
1.32536e-06 -7.52027e-07 -1.18953e-05
0.00293382 -4.02429e-05 -1.48937e-05
-4.02429e-05 0.00103354 -2.48074e-06
-1.48937e-05 -2.48074e-06 0.00103702
0.00259384 -3.18727e-05 -1.28015e-05
-3.18727e-05 0.000829018 -3.18705e-06
-1.28015e-05 -3.18705e-06 0.000841928
0.00274987 -3.63195e-05 -1.38175e-05
-3.63195e-05 0.000921864 -2.84344e-06
-1.38175e-05 -2.84344e-06 0.000930741
0.000776633 -2.00907e-05 -4.69777e-06
-2.00907e-05 -6.22461e-05 -2.69922e-06
-4.69777e-06 -2.69922e-06 -7.77845e-05
0.00296802 -4.06018e-05 1.77527e-07
-4.06018e-05 0.00106707 -1.19744e-07
1.77527e-07 -1.19744e-07 0.00106701
0.00274459 -3.76224e-05 1.61364e-07
-3.76224e-05 0.000932493 -8.77646e-08
1.61364e-07 -8.77646e-08 0.000938442
0.000807767 -1.48828e-05 9.32853e-08
-1.48828e-05 -3.32702e-05 -8.21477e-08
9.32853e-08 -8.21477e-08 -5.99876e-05
0.00180391 -2.62612e-05 -4.34895e-06
-2.62612e-05 0.000432618 -1.04678e-06
-4.34895e-06 -1.04678e-06 0.00044391
0.000832833 -2.17786e-05 1.22022e-08
-2.17786e-05 -2.90188e-05 -2.71489e-08
1.22022e-08 -2.71489e-08 -4.7787e-05
0.00120628 -2.12768e-05 2.2474e-06
-2.12768e-05 0.000142446 4.89653e-07
2.2474e-06 4.89653e-07 0.000131203
0.000967348 -7.5016e-07 7.96301e-08
-7.5016e-07 1.41659e-05 -1.25234e-07
7.96301e-08 -1.25234e-07 -3.06888e-05
0.00245386 -2.70086e-05 1.22605e-05
-2.70086e-05 0.000746646 3.48819e-06
1.22605e-05 3.48819e-06 0.000762501
0.000903401 -1.57021e-05 3.94748e-06
-1.57021e-05 -2.81908e-05 3.04004e-06
3.94748e-06 3.04004e-06 -3.63775e-05
0.000755179 -7.96076e-06 6.91778e-06
-7.96076e-06 -5.74249e-05 2.57495e-06
6.91778e-06 2.57495e-06 -8.81422e-05
0.000795565 -1.80352e-05 6.32407e-06
-1.80352e-05 -4.23631e-05 3.22179e-06
6.32407e-06 3.22179e-06 -6.55388e-05
0.000984826 7.90023e-06 2.35208e-06
7.90023e-06 5.66383e-06 1.11725e-06
2.35208e-06 1.11725e-06 -4.4819e-05
0.00157864 -2.17513e-05 7.63796e-06
-2.17513e-05 0.000317788 2.68941e-06
7.63796e-06 2.68941e-06 0.000310454
0.000971903 4.03627e-06 2.46479e-06
4.03627e-06 1.23667e-05 1.18469e-06
2.46479e-06 1.18469e-06 -3.39837e-05
0.000975487 -4.00934e-06 2.41602e-06
-4.00934e-06 1.73244e-05 1.59615e-06
2.41602e-06 1.59615e-06 -2.48413e-05
0.001035 1.76335e-05 1.2033e-06
1.76335e-05 2.84852e-05 3.8185e-07
1.2033e-06 3.8185e-07 -2.80481e-05
0.00248026 -2.24466e-05 1.16298e-05
-2.24466e-05 0.000747534 3.86085e-06
1.16298e-05 3.86085e-06 0.000765263
0.00251968 -2.48209e-05 1.96332e-07
-2.48209e-05 0.000771536 -6.61717e-08
1.96332e-07 -6.61717e-08 0.000788312
0.00312238 -4.33237e-05 -1.74043e-05
-4.33237e-05 0.00116559 -1.54929e-06
-1.74043e-05 -1.54929e-06 0.00116125
0.00318755 -4.48363e-05 -1.91549e-05
-4.48363e-05 0.00121745 -7.86612e-07
-1.91549e-05 -7.86612e-07 0.00120968
0.00330366 -3.74082e-05 1.4e-06
-3.74082e-05 0.00127652 -1.73563e-07
1.4e-06 -1.73563e-07 0.00126809
0.00215934 -3.48835e-05 -6.63513e-06
-3.48835e-05 0.00070811 -3.43584e-07
-6.63513e-06 -3.43584e-07 0.000695391
0.00121115 -1.61248e-05 3.91772e-06
-1.61248e-05 0.000182212 8.77042e-09
3.91772e-06 8.77042e-09 0.000146135
0.00212756 -3.49138e-05 -5.94058e-06
-3.49138e-05 0.000666266 -6.09833e-07
-5.94058e-06 -6.09833e-07 0.000658183
0.00121764 -1.49617e-05 3.11654e-06
-1.49617e-05 0.00017985 1.50726e-07
3.11654e-06 1.50726e-07 0.000147549
0.00336394 4.75537e-06 2.06238e-05
4.75537e-06 0.00130466 9.86748e-08
2.06238e-05 9.86748e-08 0.00129627
0.000722481 -1.14033e-05 5.45339e-06
-1.14033e-05 -6.10842e-05 3.38867e-07
5.45339e-06 3.38867e-07 -0.000101251
0.00166844 -3.20221e-05 1.18409e-05
-3.20221e-05 0.000406126 1.36088e-06
1.18409e-05 1.36088e-06 0.000374427
0.00104367 -8.81334e-06 2.47995e-06
-8.81334e-06 5.62449e-06 5.86167e-07
2.47995e-06 5.86167e-07 -5.23116e-05
0.00169627 -1.44257e-05 9.2445e-06
-1.44257e-05 0.000408395 1.26549e-06
9.2445e-06 1.26549e-06 0.000381123
0.0010382 4.72637e-06 2.32882e-06
4.72637e-06 1.02364e-05 6.86154e-07
2.32882e-06 6.86154e-07 -4.45207e-05
0.0012651 2.22937e-05 -1.97736e-05
2.22937e-05 0.000266434 5.5665e-07
-1.97736e-05 5.5665e-07 0.000247453
0.00127933 2.93339e-05 -5.60625e-06
2.93339e-05 0.000252781 6.43657e-07
-5.60625e-06 6.43657e-07 0.000236267
0.00110962 2.63238e-05 -3.85901e-06
2.63238e-05 0.000108724 1.18349e-06
-3.85901e-06 1.18349e-06 0.000112346
0.00120878 2.94141e-05 -4.97471e-06
2.94141e-05 0.000196765 8.92208e-07
-4.97471e-06 8.92208e-07 0.000186625
0.00129064 1.38105e-05 -1.05597e-05
1.38105e-05 0.000202361 1.89931e-06
-1.05597e-05 1.89931e-06 0.000171708
0.00123685 1.96282e-05 -9.38123e-06
1.96282e-05 0.00017623 2.38201e-06
-9.38123e-06 2.38201e-06 0.000151295
0.00118226 2.31339e-05 -8.30263e-06
2.31339e-05 0.000146423 2.75896e-06
-8.30263e-06 2.75896e-06 0.000127597
0.00145858 -2.53201e-06 -3.53669e-06
-2.53201e-06 0.000243011 1.82506e-06
-3.53669e-06 1.82506e-06 0.000195648
0.00333544 4.67523e-05 -1.2372e-06
4.67523e-05 0.00128851 -1.69285e-07
-1.2372e-06 -1.69285e-07 0.00128022
0.0012711 2.61886e-05 8.09856e-06
2.61886e-05 0.000259466 -7.22223e-07
8.09856e-06 -7.22223e-07 0.000241695
0.000992664 2.00933e-05 -4.8802e-06
2.00933e-05 6.59868e-05 2.22792e-07
-4.8802e-06 2.22792e-07 2.95816e-05
0.00129669 1.23009e-05 -2.78579e-06
1.23009e-05 0.000204489 2.04605e-07
-2.78579e-06 2.04605e-07 0.000171746
0.00187153 2.737e-05 8.04071e-06
2.737e-05 0.0004738 -1.87099e-06
8.04071e-06 -1.87099e-06 0.000482943
0.00134001 2.32092e-05 -1.35684e-06
2.32092e-05 0.000218216 2.84741e-07
-1.35684e-06 2.84741e-07 0.000204392
0.00123308 1.67188e-05 -2.33981e-06
1.67188e-05 0.000175388 3.34108e-07
-2.33981e-06 3.34108e-07 0.00014754
0.00139863 -9.83694e-06 -9.92574e-07
-9.83694e-06 0.000178361 3.67934e-07
-9.92574e-07 3.67934e-07 0.000125246
0.00140322 1.78256e-06 -9.41853e-07
1.78256e-06 0.000228225 6.2052e-07
-9.41853e-07 6.2052e-07 0.000183037
0.00133318 -3.93918e-06 -4.75915e-07
-3.93918e-06 0.000172922 2.63636e-07
-4.75915e-07 2.63636e-07 0.000124163
0.00112109 -2.20938e-05 1.43459e-08
-2.20938e-05 4.13741e-05 -4.10326e-08
1.43459e-08 -4.10326e-08 -1.74219e-05
0.000715983 9.85346e-06 5.52422e-06
9.85346e-06 -6.78895e-05 -5.98275e-07
5.52422e-06 -5.98275e-07 -0.000106946
0.00128494 1.46535e-05 5.61137e-06
1.46535e-05 0.000204202 -6.8496e-07
5.61137e-06 -6.8496e-07 0.00017062
0.00134079 1.58174e-05 2.28335e-06
1.58174e-05 0.000138 -1.72997e-07
2.28335e-06 -1.72997e-07 8.14731e-05
0.00133866 -8.49086e-06 2.22021e-06
-8.49086e-06 0.000137812 -5.47405e-07
2.22021e-06 -5.47405e-07 8.29427e-05
0.00124743 -5.97024e-06 2.04494e-06
-5.97024e-06 0.000119427 -8.29299e-07
2.04494e-06 -8.29299e-07 6.82482e-05
0.00144007 -2.26252e-05 7.45777e-07
-2.26252e-05 0.000151501 -3.80797e-07
7.45777e-07 -3.80797e-07 8.95638e-05
0.00261421 2.94752e-05 1.27572e-05
2.94752e-05 0.000830464 -3.41422e-06
1.27572e-05 -3.41422e-06 0.000844539
0.00115068 -2.1576e-05 1.21388e-06
-2.1576e-05 4.15513e-05 -5.81005e-07
1.21388e-06 -5.81005e-07 -1.69945e-05
0.000848891 1.94342e-05 4.49449e-06
1.94342e-05 -3.40651e-05 -2.67658e-06
4.49449e-06 -2.67658e-06 -4.72107e-05
0.000929537 3.25855e-06 2.30331e-06
3.25855e-06 1.95078e-06 -1.5712e-06
2.30331e-06 -1.5712e-06 -4.30237e-05
0.00114371 -2.2717e-05 1.24907e-06
-2.2717e-05 6.83489e-05 -1.05323e-06
1.24907e-06 -1.05323e-06 9.01937e-06
0.00119816 -2.97066e-05 9.75437e-07
-2.97066e-05 5.80147e-05 -3.86792e-07
9.75437e-07 -3.86792e-07 -4.84748e-06
0.000858761 1.6325e-05 4.0886e-06
1.6325e-05 -4.50612e-05 -3.07139e-06
4.0886e-06 -3.07139e-06 -5.51382e-05
0.000979356 2.97598e-06 2.44695e-06
2.97598e-06 5.88981e-06 -2.04986e-06
2.44695e-06 -2.04986e-06 -3.34845e-05
0.00303291 -4.16163e-05 -1.5891e-05
-4.16163e-05 0.00109459 -2.23817e-06
-1.5891e-05 -2.23817e-06 0.00109512
0.0028294 -3.84038e-05 -1.42053e-05
-3.84038e-05 0.000971108 -2.65681e-06
-1.42053e-05 -2.65681e-06 0.000977492
0.000729109 -1.70286e-05 -4.67431e-06
-1.70286e-05 -6.83351e-05 -2.23736e-06
-4.67431e-06 -2.23736e-06 -9.538e-05
0.00256586 -2.95515e-05 -1.26881e-05
-2.95515e-05 0.000807061 -3.37927e-06
-1.26881e-05 -3.37927e-06 0.000821549
0.000807237 -1.94065e-05 -4.45446e-06
-1.94065e-05 -5.41899e-05 -2.76618e-06
-4.45446e-06 -2.76618e-06 -6.68327e-05
0.000743824 -2.08845e-05 -4.92958e-06
-2.08845e-05 -7.13723e-05 -2.47716e-06
-4.92958e-06 -2.47716e-06 -9.01453e-05
0.000965905 -1.86347e-06 -2.46677e-06
-1.86347e-06 1.51132e-05 -1.59522e-06
-2.46677e-06 -1.59522e-06 -3.00163e-05
0.00251114 -2.712e-05 1.84743e-07
-2.712e-05 0.000773714 -7.18701e-08
1.84743e-07 -7.18701e-08 0.00078949
0.000888975 -1.56014e-05 9.15011e-08
-1.56014e-05 -3.54591e-05 -3.9241e-08
9.15011e-08 -3.9241e-08 -4.35549e-05
0.00121712 -1.23056e-05 2.82285e-06
-1.23056e-05 0.00017116 2.6786e-07
2.82285e-06 2.6786e-07 0.000143337
0.00119612 -2.28878e-05 2.50661e-06
-2.28878e-05 0.000156004 4.34135e-07
2.50661e-06 4.34135e-07 0.000135251
0.000982016 8.76411e-06 -7.19195e-09
8.76411e-06 4.43369e-06 -9.13947e-08
-7.19195e-09 -9.13947e-08 -4.60597e-05
0.000884961 -1.85684e-05 4.87153e-09
-1.85684e-05 -2.4775e-05 -2.99745e-08
4.87153e-09 -2.99745e-08 -3.51962e-05
0.000967129 3.04277e-06 -9.92004e-08
3.04277e-06 1.17137e-05 -3.91322e-08
-9.92004e-08 -3.91322e-08 -3.48795e-05
0.000964684 -5.70757e-06 6.76054e-08
-5.70757e-06 1.34352e-05 -1.01856e-08
6.76054e-08 -1.01856e-08 -2.89036e-05
0.00099194 1.76182e-05 -3.61819e-08
1.76182e-05 6.75098e-06 -1.31155e-07
-3.61819e-08 -1.31155e-07 -5.00484e-05
0.000895812 -1.71459e-05 4.29415e-06
-1.71459e-05 -2.65165e-05 2.86189e-06
4.29415e-06 2.86189e-06 -3.56216e-05
0.000910407 -1.42788e-05 3.55897e-06
-1.42788e-05 -2.89705e-05 3.1941e-06
3.55897e-06 3.1941e-06 -3.63047e-05
0.000985877 -6.12445e-06 2.42964e-06
-6.12445e-06 9.07773e-06 1.76442e-06
2.42964e-06 1.76442e-06 -2.82843e-05
0.000996289 7.96105e-06 2.31131e-06
7.96105e-06 9.7821e-07 9.27087e-07
2.31131e-06 9.27087e-07 -5.09746e-05
0.000979648 6.67494e-06 2.34215e-06
6.67494e-06 1.24191e-05 1.25918e-06
2.34215e-06 1.25918e-06 -3.60622e-05
0.00113793 2.28758e-05 1.21969e-06
2.28758e-05 4.04217e-05 8.14479e-07
1.21969e-06 8.14479e-07 -1.88102e-05
0.000980505 -7.28565e-06 2.3857e-06
-7.28565e-06 1.50888e-05 1.66641e-06
2.3857e-06 1.66641e-06 -2.42372e-05
0.000985766 2.04213e-05 1.03044e-06
2.04213e-05 -6.69955e-06 4.75728e-07
1.03044e-06 4.75728e-07 -6.31569e-05
0.00106439 1.30634e-05 1.22457e-06
1.30634e-05 5.01509e-05 7.23341e-07
1.22457e-06 7.23341e-07 -6.6806e-06
0.00118723 2.98479e-05 6.17797e-08
2.98479e-05 9.47486e-05 -7.30722e-08
6.17797e-08 -7.30722e-08 3.2788e-05
0.00248173 -2.01661e-05 1.10466e-05
-2.01661e-05 0.000743891 3.98762e-06
1.10466e-05 3.98762e-06 0.000762387
0.00252002 -2.25166e-05 2.09958e-07
-2.25166e-05 0.000766628 -5.95679e-08
2.09958e-07 -5.95679e-08 0.000784272
0.00256947 -2.49234e-05 -1.21067e-05
-2.49234e-05 0.000795271 -3.75619e-06
-1.21067e-05 -3.75619e-06 0.000811956
0.000871095 1.4931e-05 3.68627e-06
1.4931e-05 -4.38354e-05 -3.24858e-06
3.68627e-06 -3.24858e-06 -5.2946e-05
0.00262392 2.71431e-05 1.25937e-05
2.71431e-05 0.000828085 -3.62447e-06
1.25937e-05 -3.62447e-06 0.000843295
0.00309452 -4.26064e-05 -1.67151e-05
-4.26064e-05 0.0011384 -1.91656e-06
-1.67151e-05 -1.91656e-06 0.0011363
0.00314222 -4.39661e-05 -1.81625e-05
-4.39661e-05 0.00118724 -1.16795e-06
-1.81625e-05 -1.16795e-06 0.001181
0.000712214 -6.04844e-06 -5.1278e-06
-6.04844e-06 -6.60396e-05 -1.34783e-06
-5.1278e-06 -1.34783e-06 -0.000101308
0.000707929 -4.59025e-06 -5.31864e-06
-4.59025e-06 -6.36389e-05 -1.00731e-06
-5.31864e-06 -1.00731e-06 -0.000102682
0.00327199 -4.57249e-05 -2.00756e-05
-4.57249e-05 0.00126158 -3.67929e-07
-2.00756e-05 -3.67929e-07 0.00125288
0.00335047 5.16696e-06 -4.35336e-07
5.16696e-06 0.00129884 -1.29966e-10
-4.35336e-07 -1.29966e-10 0.00129017
0.000712255 -7.18204e-06 3.3318e-08
-7.18204e-06 -6.54985e-05 -1.65655e-07
3.3318e-08 -1.65655e-07 -0.00010561
0.00121266 -1.65309e-05 3.42656e-06
-1.65309e-05 0.000182047 1.10827e-07
3.42656e-06 1.10827e-07 0.000147852
0.00105902 -6.77794e-06 5.36528e-08
-6.77794e-06 1.27319e-05 -9.17362e-09
5.36528e-08 -9.17362e-09 -4.51624e-05
0.000766542 -7.63487e-06 1.26241e-08
-7.63487e-06 -4.72101e-05 -9.95762e-08
1.26241e-08 -9.95762e-08 -8.01684e-05
0.00104523 4.75353e-06 -2.12335e-08
4.75353e-06 1.36661e-05 -4.27765e-08
-2.12335e-08 -4.27765e-08 -4.11008e-05
0.000702604 -5.35678e-06 5.54201e-06
-5.35678e-06 -7.28863e-05 -1.37416e-07
5.54201e-06 -1.37416e-07 -0.000112908
0.0010629 -7.00125e-06 2.51486e-06
-7.00125e-06 8.47643e-06 2.41952e-07
2.51486e-06 2.41952e-07 -5.08813e-05
0.00104446 -1.16368e-06 2.37798e-06
-1.16368e-06 1.03315e-05 6.3204e-07
2.37798e-06 6.3204e-07 -4.58618e-05
0.00119425 -9.72525e-06 1.24818e-06
-9.72525e-06 3.77727e-05 2.9428e-07
1.24818e-06 2.9428e-07 -2.79218e-05
0.00101667 6.41698e-06 2.27891e-06
6.41698e-06 4.12092e-06 8.04356e-07
2.27891e-06 8.04356e-07 -4.92403e-05
0.00120053 6.23991e-06 1.12539e-06
6.23991e-06 4.54015e-05 4.36228e-07
1.12539e-06 4.36228e-07 -1.63884e-05
0.00332934 4.45354e-05 -2.3064e-05
4.45354e-05 0.00128624 5.08096e-08
-2.3064e-05 5.08096e-08 0.00127793
0.00125939 2.8954e-05 -5.68388e-06
2.8954e-05 0.000254387 4.33874e-07
-5.68388e-06 4.33874e-07 0.000236481
0.000268035 1.26105e-05 -7.46884e-06
1.26105e-05 -0.000290999 1.07359e-06
-7.46884e-06 1.07359e-06 -0.000331699
0.00130853 1.16678e-05 -1.12647e-05
1.16678e-05 0.000210187 1.51795e-06
-1.12647e-05 1.51795e-06 0.000177505
0.00251251 3.29878e-05 -5.46354e-06
3.29878e-05 0.000791457 1.27724e-06
-5.46354e-06 1.27724e-06 0.000804092
0.0015767 2.48722e-05 -8.10042e-06
2.48722e-05 0.00033433 2.78148e-06
-8.10042e-06 2.78148e-06 0.000321887
0.00126161 1.67104e-05 -9.88723e-06
1.67104e-05 0.000189118 2.14094e-06
-9.88723e-06 2.14094e-06 0.000161331
0.00127718 -9.36154e-06 -3.53983e-06
-9.36154e-06 0.000118232 1.30061e-06
-3.53983e-06 1.30061e-06 6.44038e-05
0.00146678 -5.71377e-06 -3.02829e-06
-5.71377e-06 0.0002371 1.27261e-06
-3.02829e-06 1.27261e-06 0.000188765
0.00144299 7.06193e-07 -3.49583e-06
7.06193e-07 0.000245227 2.16855e-06
-3.49583e-06 2.16855e-06 0.000199736
0.00110839 -2.16326e-05 -1.17802e-06
-2.16326e-05 3.5778e-05 6.17224e-07
-1.17802e-06 6.17224e-07 -2.29743e-05
0.000716403 1.3086e-05 -7.07269e-08
1.3086e-05 -6.77881e-05 -1.30264e-07
-7.07269e-08 -1.30264e-07 -0.000106945
0.00129348 1.491e-05 -2.96954e-06
1.491e-05 0.000207807 1.70628e-07
-2.96954e-06 1.70628e-07 0.000174312
0.00111186 1.55509e-05 -4.26563e-07
1.55509e-05 2.5284e-05 5.25731e-08
-4.26563e-07 5.25731e-08 -3.25632e-05
0.00143819 -9.63158e-06 -4.9499e-07
-9.63158e-06 0.000186036 8.11542e-08
-4.9499e-07 8.11542e-08 0.000131628
0.00255325 2.93264e-05 -1.60911e-07
2.93264e-05 0.000801965 -7.37227e-08
-1.60911e-07 -7.37227e-08 0.00081606
0.00121943 2.17219e-05 4.25095e-07
2.17219e-05 0.000148959 -4.31201e-08
4.25095e-07 -4.31201e-08 0.00013731
0.00117124 3.42622e-06 9.98274e-08
3.42622e-06 0.00011819 7.49305e-09
9.98274e-08 7.49305e-09 7.46536e-05
0.00125921 -6.49751e-06 -4.81558e-07
-6.49751e-06 0.000124718 1.75072e-07
-4.81558e-07 1.75072e-07 7.35773e-05
0.00125601 -2.1162e-05 -4.80669e-07
-2.1162e-05 6.17467e-05 2.65702e-07
-4.80669e-07 2.65702e-07 -9.77039e-07
0.00102958 -2.10436e-05 -5.43984e-08
-2.10436e-05 1.48353e-05 -1.07258e-07
-5.43984e-08 -1.07258e-07 -4.47286e-05
0.00125588 -2.20393e-05 1.70351e-08
-2.20393e-05 9.22186e-05 5.65322e-08
1.70351e-08 5.65322e-08 3.41053e-05
0.00118823 -2.95137e-05 8.94111e-08
-2.95137e-05 5.36695e-05 3.93018e-09
8.94111e-08 3.93018e-09 -9.10284e-06
0.000872104 1.64592e-05 -6.3095e-08
1.64592e-05 -3.81318e-05 -5.03622e-08
-6.3095e-08 -5.03622e-08 -4.83219e-05
0.000980373 3.42332e-06 -1.03332e-07
3.42332e-06 6.45019e-06 -5.64769e-08
-1.03332e-07 -5.64769e-08 -3.28749e-05
0.00105554 1.04546e-05 2.63222e-06
1.04546e-05 1.8123e-07 -2.6582e-07
2.63222e-06 -2.6582e-07 -5.8653e-05
0.00133898 2.39446e-06 2.28086e-06
2.39446e-06 0.000134436 -3.25643e-07
2.28086e-06 -3.25643e-07 7.88191e-05
0.00147181 1.43082e-05 9.78832e-07
1.43082e-05 0.000155418 9.76574e-08
9.78832e-07 9.76574e-08 9.04718e-05
0.00114517 -1.42796e-05 1.74768e-06
-1.42796e-05 -5.81353e-06 -6.22474e-07
1.74768e-06 -6.22474e-07 -7.0704e-05
0.00127546 -2.18975e-05 8.70442e-07
-2.18975e-05 9.07029e-05 -6.04734e-07
8.70442e-07 -6.04734e-07 3.15117e-05
0.00140732 -2.2944e-05 2.4771e-07
-2.2944e-05 0.000112758 -2.67441e-07
2.4771e-07 -2.67441e-07 4.74786e-05
0.000838965 1.78498e-05 4.34208e-06
1.78498e-05 -4.73779e-05 -2.85544e-06
4.34208e-06 -2.85544e-06 -5.87483e-05
0.00121623 -2.74234e-05 6.57868e-07
-2.74234e-05 5.11734e-05 -3.15261e-07
6.57868e-07 -3.15261e-07 -1.03958e-05
0.000941686 6.15105e-06 2.42448e-06
6.15105e-06 4.04978e-06 -1.53676e-06
2.42448e-06 -1.53676e-06 -3.85595e-05
0.000862993 -1.69075e-05 1.32598e-06
-1.69075e-05 -5.10352e-05 -1.27093e-06
1.32598e-06 -1.27093e-06 -0.000109556
0.00141499 -3.44138e-05 6.2012e-07
-3.44138e-05 0.000182458 -6.32656e-07
6.2012e-07 -6.32656e-07 0.000117904
0.00126977 -3.25293e-05 5.42572e-07
-3.25293e-05 8.14491e-05 2.6614e-07
5.42572e-07 2.6614e-07 1.83583e-05
0.000965921 4.3176e-06 2.63731e-06
4.3176e-06 2.89763e-06 -1.81603e-06
2.63731e-06 -1.81603e-06 -3.68863e-05
0.00098415 2.56552e-06 2.10562e-06
2.56552e-06 6.54582e-06 -2.17317e-06
2.10562e-06 -2.17317e-06 -3.20931e-05
0.00106289 -1.32927e-05 1.45219e-06
-1.32927e-05 4.26709e-05 -1.02353e-06
1.45219e-06 -1.02353e-06 -1.51001e-05
0.000731363 -9.95794e-06 -5.02611e-06
-9.95794e-06 -6.50296e-05 -1.92322e-06
-5.02611e-06 -1.92322e-06 -9.55921e-05
0.00256877 -2.72431e-05 -1.24999e-05
-2.72431e-05 0.000800947 -3.58331e-06
-1.24999e-05 -3.58331e-06 0.000816643
0.000874863 -1.55028e-05 -3.72169e-06
-1.55028e-05 -4.25888e-05 -3.15408e-06
-3.72169e-06 -3.15408e-06 -5.05921e-05
0.000723991 -2.21759e-05 -4.71808e-06
-2.21759e-05 -7.42816e-05 -2.36321e-06
-4.71808e-06 -2.36321e-06 -9.71145e-05
0.000978551 9.66195e-06 -2.27162e-06
9.66195e-06 2.8375e-06 -1.24288e-06
-2.27162e-06 -1.24288e-06 -4.76632e-05
0.000839421 -1.82987e-05 -4.34638e-06
-1.82987e-05 -4.68063e-05 -2.80732e-06
-4.34638e-06 -2.80732e-06 -5.71187e-05
0.000954471 -7.24515e-06 -2.32017e-06
-7.24515e-06 9.86742e-06 -1.75837e-06
-2.32017e-06 -1.75837e-06 -3.26435e-05
0.000962406 1.94264e-06 -2.46726e-06
1.94264e-06 1.10936e-05 -1.21649e-06
-2.46726e-06 -1.21649e-06 -3.57418e-05
0.000948037 1.75816e-05 -1.24084e-06
1.75816e-05 -1.54275e-05 -6.3809e-07
-1.24084e-06 -6.3809e-07 -7.24882e-05
0.000879064 -1.70312e-05 6.70712e-08
-1.70312e-05 -3.48608e-05 -4.88671e-08
6.70712e-08 -4.88671e-08 -4.38731e-05
0.000897597 -1.41999e-05 9.66957e-08
-1.41999e-05 -3.54606e-05 -2.70855e-08
9.66957e-08 -2.70855e-08 -4.27016e-05
0.00098123 -5.7994e-06 7.73113e-08
-5.7994e-06 6.90918e-06 -4.23669e-08
7.73113e-08 -4.23669e-08 -3.04765e-05
0.00100572 8.77533e-06 -1.66252e-08
8.77533e-06 5.17045e-06 -5.64506e-08
-1.66252e-08 -5.64506e-08 -4.6792e-05
0.000967578 6.25301e-06 -7.96994e-08
6.25301e-06 7.74398e-06 -3.3474e-08
-7.96994e-08 -3.3474e-08 -4.08499e-05
0.00113748 2.31307e-05 7.0015e-08
2.31307e-05 4.03489e-05 3.26365e-08
7.0015e-08 3.26365e-08 -1.89169e-05
0.000967295 -8.18361e-06 -6.71413e-08
-8.18361e-06 9.48109e-06 4.87174e-08
-6.71413e-08 4.87174e-08 -2.99199e-05
0.00104429 2.1553e-05 -4.02018e-08
2.1553e-05 2.18025e-05 -5.1237e-08
-4.02018e-08 -5.1237e-08 -3.43654e-05
0.00105816 1.37908e-05 5.17656e-08
1.37908e-05 4.72498e-05 -1.35277e-07
5.17656e-08 -1.35277e-07 -9.65634e-06
0.00110197 2.90197e-05 -4.57671e-07
2.90197e-05 5.30164e-05 1.08005e-07
-4.57671e-07 1.08005e-07 -9.31506e-06
0.000916138 -1.28879e-05 3.16551e-06
-1.28879e-05 -2.96767e-05 3.30118e-06
3.16551e-06 3.30118e-06 -3.61659e-05
0.000981336 -7.33216e-06 2.52127e-06
-7.33216e-06 1.0068e-05 1.62131e-06
2.52127e-06 1.62131e-06 -2.77352e-05
0.000992229 -5.06459e-06 2.22166e-06
-5.06459e-06 9.75611e-06 1.91824e-06
2.22166e-06 1.91824e-06 -2.7172e-05
0.00105347 6.47782e-06 1.40923e-06
6.47782e-06 3.79925e-05 8.43648e-07
1.40923e-06 8.43648e-07 -1.70609e-05
0.0011428 1.75122e-05 1.38532e-06
1.75122e-05 2.93907e-05 5.84241e-07
1.38532e-06 5.84241e-07 -3.04657e-05
0.00111926 2.41296e-05 1.10928e-06
2.41296e-05 4.78269e-05 8.55276e-07
1.10928e-06 8.55276e-07 -9.74666e-06
0.00119279 2.70256e-05 6.87216e-07
2.70256e-05 4.95265e-05 8.44904e-07
6.87216e-07 8.44904e-07 -1.4315e-05
0.00107156 9.8657e-06 1.20843e-06
9.8657e-06 5.11617e-05 9.68751e-07
1.20843e-06 9.68751e-07 -4.28971e-06
0.00110384 2.91831e-05 2.51628e-07
2.91831e-05 3.91698e-05 4.56973e-07
2.51628e-07 4.56973e-07 -2.19204e-05
0.00110969 2.84121e-05 7.24731e-07
2.84121e-05 6.79104e-05 7.10288e-08
7.24731e-07 7.10288e-08 2.82632e-06
0.00106502 3.11459e-05 2.6193e-07
3.11459e-05 2.75246e-05 4.95826e-08
2.6193e-07 4.95826e-08 -3.79952e-05
0.0010013 -2.35954e-06 1.2564e-06
-2.35954e-06 8.50586e-06 2.12026e-06
1.2564e-06 2.12026e-06 -2.55524e-05
0.000920416 -1.01457e-05 2.39055e-06
-1.01457e-05 -3.37652e-05 3.41778e-06
2.39055e-06 3.41778e-06 -3.86778e-05
0.00247617 -1.78966e-05 1.02874e-05
-1.78966e-05 0.000737357 4.08619e-06
1.02874e-05 4.08619e-06 0.000756568
0.00251113 -2.02223e-05 2.33806e-07
-2.02223e-05 0.000758073 -5.31195e-08
2.33806e-07 -5.31195e-08 0.000776505
0.00255911 -2.25993e-05 -1.15328e-05
-2.25993e-05 0.000785408 -3.89371e-06
-1.15328e-05 -3.89371e-06 0.000802967
0.000879211 1.37409e-05 3.24171e-06
1.37409e-05 -4.31643e-05 -3.31122e-06
3.24171e-06 -3.31122e-06 -5.13282e-05
0.00261527 2.48036e-05 1.21548e-05
2.48036e-05 0.000818705 -3.78363e-06
1.21548e-05 -3.78363e-06 0.000834852
0.000881841 1.50258e-05 -1.07899e-07
1.50258e-05 -3.8164e-05 -4.1959e-08
-1.07899e-07 -4.1959e-08 -4.73868e-05
0.0025659 2.70287e-05 -1.74018e-07
2.70287e-05 0.000800592 -7.03327e-08
-1.74018e-07 -7.03327e-08 0.000815884
0.000722264 -6.94248e-06 -5.12811e-06
-6.94248e-06 -6.57828e-05 -1.61258e-06
-5.12811e-06 -1.61258e-06 -9.89966e-05
0.000710053 -5.08335e-06 -5.15871e-06
-5.08335e-06 -6.30153e-05 -1.15278e-06
-5.15871e-06 -1.15278e-06 -0.000100242
0.00105086 4.46159e-06 -2.30782e-06
4.46159e-06 1.64502e-05 -7.82706e-07
-2.30782e-06 -7.82706e-07 -3.83371e-05
0.00107909 -6.4217e-06 -2.40934e-06
-6.4217e-06 2.20985e-05 -6.24487e-07
-2.40934e-06 -6.24487e-07 -3.57753e-05
0.000702826 -1.32127e-06 -5.50417e-06
-1.32127e-06 -6.96602e-05 -6.66365e-07
-5.50417e-06 -6.66365e-07 -0.000109657
0.00334402 1.10314e-05 -2.18193e-05
1.10314e-05 0.00129583 6.99039e-08
-2.18193e-05 6.99039e-08 0.00128703
0.00070774 2.16064e-06 4.07285e-09
2.16064e-06 -7.07273e-05 -1.2995e-07
4.07285e-09 -1.2995e-07 -0.000110637
0.00107494 -4.23639e-06 -2.67861e-09
-4.23639e-06 1.40447e-05 -1.32102e-07
-2.67861e-09 -1.32102e-07 -4.52477e-05
0.00105336 -2.34365e-06 -1.81958e-08
-2.34365e-06 1.45318e-05 -1.25673e-08
-1.81958e-08 -1.25673e-08 -4.16814e-05
0.00121843 -1.09621e-05 2.38584e-08
-1.09621e-05 4.89966e-05 -2.49091e-08
2.38584e-08 -2.49091e-08 -1.67579e-05
0.00102768 7.22662e-06 -1.26856e-08
7.22662e-06 9.25211e-06 -2.72859e-08
-1.26856e-08 -2.72859e-08 -4.41186e-05
0.00120177 8.10207e-06 -1.14685e-08
8.10207e-06 4.61978e-05 1.54406e-08
-1.14685e-08 1.54406e-08 -1.56135e-05
0.00108115 1.77059e-06 2.62258e-06
1.77059e-06 1.33017e-05 -1.34602e-07
2.62258e-06 -1.34602e-07 -4.61833e-05
0.00121493 -2.89107e-06 1.15302e-06
-2.89107e-06 4.40543e-05 1.82239e-07
1.15302e-06 1.82239e-07 -2.3248e-05
0.0012057 -9.31862e-07 1.23697e-06
-9.31862e-07 4.47015e-05 3.77184e-07
1.23697e-06 3.77184e-07 -1.89498e-05
0.00129894 -1.60376e-05 7.36042e-07
-1.60376e-05 6.98625e-05 -4.37972e-08
7.36042e-07 -4.37972e-08 1.97861e-06
0.00117925 1.30586e-05 1.09492e-06
1.30586e-05 3.99078e-05 4.15745e-07
1.09492e-06 4.15745e-07 -2.05909e-05
0.00126117 7.73209e-06 4.95744e-07
7.73209e-06 5.49341e-05 4.11529e-07
4.95744e-07 4.11529e-07 -9.11504e-06
0.000721293 1.6024e-05 -5.46887e-06
1.6024e-05 -6.5615e-05 3.26316e-07
-5.46887e-06 3.26316e-07 -0.000104901
0.00130333 1.52927e-05 -1.16936e-05
1.52927e-05 0.000212052 1.04201e-06
-1.16936e-05 1.04201e-06 0.000178635
0.000883429 1.48768e-05 -3.15326e-06
1.48768e-05 -8.73615e-05 4.02974e-07
-3.15326e-06 4.02974e-07 -0.000146501
0.00154053 -1.06676e-05 -3.14958e-06
-1.06676e-05 0.000235634 7.75565e-07
-3.14958e-06 7.75565e-07 0.000181681
0.00249229 2.91573e-05 -1.24322e-05
2.91573e-05 0.000773444 3.30327e-06
-1.24322e-05 3.30327e-06 0.000787564
0.00158978 2.32569e-05 -7.69474e-06
2.32569e-05 0.00033183 2.51313e-06
-7.69474e-06 2.51313e-06 0.00032172
0.00141323 3.46651e-06 -2.73152e-06
3.46651e-06 0.000234658 1.50251e-06
-2.73152e-06 1.50251e-06 0.000192556
0.00126998 -6.90245e-06 -2.94144e-06
-6.90245e-06 0.000129525 1.14175e-06
-2.94144e-06 1.14175e-06 7.84216e-05
0.00107218 -1.97233e-05 -1.81876e-06
-1.97233e-05 -2.7893e-05 9.61565e-07
-1.81876e-06 9.61565e-07 -9.14055e-05
0.00135834 -2.25273e-05 -1.15026e-06
-2.25273e-05 0.000141578 6.06704e-07
-1.15026e-06 6.06704e-07 8.39006e-05
0.00090875 -1.92047e-05 -1.21482e-06
-1.92047e-05 -4.17794e-05 8.58905e-07
-1.21482e-06 8.58905e-07 -0.000101579
0.00117726 -2.93065e-05 -7.22e-07
-2.93065e-05 4.88401e-05 3.59897e-07
-7.22e-07 3.59897e-07 -1.38429e-05
0.000886127 1.65919e-05 -4.24945e-06
1.65919e-05 -3.08927e-05 2.93499e-06
-4.24945e-06 2.93499e-06 -4.11941e-05
0.000981326 3.88997e-06 -2.47665e-06
3.88997e-06 6.97402e-06 1.85255e-06
-2.47665e-06 1.85255e-06 -3.23008e-05
0.000974046 1.34647e-05 3.04229e-08
1.34647e-05 -3.98425e-05 1.72839e-08
3.04229e-08 1.72839e-08 -9.92828e-05
0.00133228 1.03026e-06 -4.75817e-07
1.03026e-06 0.000130733 7.3299e-08
-4.75817e-07 7.3299e-08 7.52191e-05
0.00136639 1.56486e-05 -5.17904e-07
1.56486e-05 0.000104629 5.95339e-08
-5.17904e-07 5.95339e-08 3.95461e-05
0.00132434 -1.57101e-05 2.64597e-07
-1.57101e-05 8.19325e-05 -2.3899e-07
2.64597e-07 -2.3899e-07 1.79319e-05
0.000860799 1.80241e-05 -1.99863e-08
1.80241e-05 -3.65212e-05 -4.64243e-08
-1.99863e-08 -4.64243e-08 -4.80165e-05
0.000961925 5.02286e-06 1.98637e-08
5.02286e-06 1.2382e-05 1.54567e-08
1.98637e-08 1.54567e-08 -3.00758e-05
0.000948687 -1.75202e-05 3.56789e-07
-1.75202e-05 -8.69403e-06 -2.597e-07
3.56789e-07 -2.597e-07 -6.66948e-05
0.00134063 -2.23647e-05 -2.87219e-07
-2.23647e-05 0.000121298 8.76912e-08
-2.87219e-07 8.76912e-08 6.22041e-05
0.00129242 -2.12003e-05 -1.75244e-07
-2.12003e-05 5.67971e-05 3.24212e-07
-1.75244e-07 3.24212e-07 -8.47467e-06
0.00122628 -3.20863e-05 -3.31458e-07
-3.20863e-05 9.21133e-05 9.63907e-08
-3.31458e-07 9.63907e-08 2.69405e-05
0.00121603 -2.7325e-05 6.15403e-08
-2.7325e-05 5.10422e-05 8.58414e-08
6.15403e-08 8.58414e-08 -1.04884e-05
0.00120401 -3.16204e-05 2.70313e-07
-3.16204e-05 4.97072e-05 2.53267e-07
2.70313e-07 2.53267e-07 -1.33882e-05
0.000973347 4.5786e-06 -1.85188e-08
4.5786e-06 6.31557e-06 -4.36979e-08
-1.85188e-08 -4.36979e-08 -3.34015e-05
0.00099645 -1.25544e-05 -3.06721e-09
-1.25544e-05 8.99622e-06 -8.59914e-08
-3.06721e-09 -8.59914e-08 -4.90452e-05
0.000984922 2.98521e-06 -1.29575e-07
2.98521e-06 7.14879e-06 -2.73944e-08
-1.29575e-07 -2.73944e-08 -3.15012e-05
0.00144174 1.89609e-05 1.00713e-06
1.89609e-05 0.000148064 6.76848e-08
1.00713e-06 6.76848e-08 8.21241e-05
0.00136534 2.11156e-06 1.50813e-06
2.11156e-06 9.67157e-05 3.38844e-10
1.50813e-06 3.38844e-10 3.20843e-05
0.00137468 1.83927e-05 1.14105e-06
1.83927e-05 8.75384e-05 2.4636e-07
1.14105e-06 2.4636e-07 1.8606e-05
0.0013432 -1.05384e-05 6.90377e-07
-1.05384e-05 6.61277e-05 -6.18477e-07
6.90377e-07 -6.18477e-07 -1.37337e-06
0.00114469 -2.49062e-05 5.55495e-07
-2.49062e-05 5.85224e-06 -5.98452e-07
5.55495e-07 -5.98452e-07 -5.62928e-05
0.00138727 -2.02709e-05 -2.85315e-07
-2.02709e-05 8.94846e-05 -2.69117e-08
-2.85315e-07 -2.69117e-08 2.63596e-05
0.000950631 6.15954e-06 2.57586e-06
6.15954e-06 1.64967e-06 -1.62156e-06
2.57586e-06 -1.62156e-06 -3.90463e-05
0.00122623 -2.88607e-05 1.32058e-07
-2.88607e-05 4.51988e-05 -1.45484e-07
1.32058e-07 -1.45484e-07 -1.58036e-05
0.00103964 -1.52532e-05 1.04902e-06
-1.52532e-05 3.72506e-05 -6.783e-07
1.04902e-06 -6.783e-07 -1.87844e-05
0.000938063 -2.88373e-05 1.05254e-06
-2.88373e-05 -2.52665e-05 -1.40316e-06
1.05254e-06 -1.40316e-06 -9.0854e-05
0.0012962 -3.57844e-05 1.12839e-06
-3.57844e-05 0.000115706 -1.06175e-07
1.12839e-06 -1.06175e-07 4.70726e-05
0.00144082 -3.53332e-05 -1.81017e-07
-3.53332e-05 0.00015779 9.80381e-07
-1.81017e-07 9.80381e-07 9.7434e-05
0.000990283 2.4274e-06 1.79064e-06
2.4274e-06 8.58952e-06 -2.13213e-06
1.79064e-06 -2.13213e-06 -2.87869e-05
0.0010562 -1.26394e-05 1.49549e-06
-1.26394e-05 3.96602e-05 -7.90824e-07
1.49549e-06 -7.90824e-07 -1.67571e-05
0.000902139 -1.09342e-05 1.74541e-06
-1.09342e-05 -3.49911e-05 -1.6325e-06
1.74541e-06 -1.6325e-06 -9.50288e-05
0.0012619 -2.95864e-05 4.70761e-07
-2.95864e-05 0.000137366 4.07081e-08
4.70761e-07 4.07081e-08 7.19537e-05
0.0010165 9.76128e-06 -2.39422e-06
9.76128e-06 9.98402e-06 -1.05874e-06
-2.39422e-06 -1.05874e-06 -4.19913e-05
0.000884864 -1.41211e-05 -3.33012e-06
-1.41211e-05 -4.1926e-05 -3.28234e-06
-3.33012e-06 -3.28234e-06 -4.90722e-05
0.000862403 -1.69134e-05 -4.08694e-06
-1.69134e-05 -4.31722e-05 -2.97558e-06
-4.08694e-06 -2.97558e-06 -5.20906e-05
0.000976629 -5.38859e-06 -2.37059e-06
-5.38859e-06 4.76148e-06 -1.87209e-06
-2.37059e-06 -1.87209e-06 -3.26467e-05
0.00095568 5.85883e-06 -2.20252e-06
5.85883e-06 3.10887e-06 -1.21595e-06
-2.20252e-06 -1.21595e-06 -4.55873e-05
0.00113518 2.32987e-05 -1.19458e-06
2.32987e-05 3.94259e-05 -7.92704e-07
-1.19458e-06 -7.92704e-07 -1.98738e-05
0.000953535 -9.28488e-06 -2.5256e-06
-9.28488e-06 3.66043e-06 -1.65539e-06
-2.5256e-06 -1.65539e-06 -3.58297e-05
0.00105355 1.44064e-05 -1.15319e-06
1.44064e-05 4.51327e-05 -9.56656e-07
-1.15319e-06 -9.56656e-07 -1.186e-05
0.00110967 2.27372e-05 -1.02358e-06
2.27372e-05 5.34839e-05 -5.38875e-07
-1.02358e-06 -5.38875e-07 -2.39073e-06
0.00101677 2.81872e-05 -1.2587e-06
2.81872e-05 1.13379e-05 -2.77013e-07
-1.2587e-06 -2.77013e-07 -5.13682e-05
0.00090537 -1.28177e-05 9.73842e-08
-1.28177e-05 -3.51711e-05 -1.96582e-08
9.73842e-08 -1.96582e-08 -4.15703e-05
0.000974493 -7.13603e-06 3.15928e-08
-7.13603e-06 6.99727e-06 -2.53315e-08
3.15928e-08 -2.53315e-08 -3.08462e-05
0.000987531 -4.75357e-06 7.7776e-08
-4.75357e-06 7.59308e-06 -2.90034e-08
7.7776e-08 -2.90034e-08 -2.93558e-05
0.00105141 5.99716e-06 5.47842e-08
5.99716e-06 3.7419e-05 -5.63429e-08
5.47842e-08 -5.63429e-08 -1.77307e-05
0.00116654 1.80209e-05 2.16543e-07
1.80209e-05 4.03566e-05 8.95965e-08
2.16543e-07 8.95965e-08 -1.95562e-05
0.00110543 2.43086e-05 4.56527e-08
2.43086e-05 4.16036e-05 9.74265e-09
4.56527e-08 9.74265e-09 -1.59468e-05
0.0011938 2.70241e-05 -3.72409e-09
2.70241e-05 5.00678e-05 1.95096e-07
-3.72409e-09 1.95096e-07 -1.38079e-05
0.00105779 9.50256e-06 -7.9107e-08
9.50256e-06 4.53503e-05 2.08963e-08
-7.9107e-08 2.08963e-08 -1.01509e-05
0.00119467 3.0237e-05 -2.76561e-07
3.0237e-05 8.34843e-05 -2.66671e-07
-2.76561e-07 -2.66671e-07 2.27711e-05
0.00111644 2.89413e-05 1.20589e-07
2.89413e-05 7.08173e-05 -2.30321e-07
1.20589e-07 -2.30321e-07 5.54097e-06
0.00106566 3.09328e-05 -8.52111e-07
3.09328e-05 2.95207e-05 -4.79379e-08
-8.52111e-07 -4.79379e-08 -3.49459e-05
0.000921925 -1.15039e-05 2.78028e-06
-1.15039e-05 -3.009e-05 3.37009e-06
2.78028e-06 3.37009e-06 -3.57519e-05
0.000996773 -3.88311e-06 2.00072e-06
-3.88311e-06 1.00484e-05 2.01465e-06
2.00072e-06 2.01465e-06 -2.6298e-05
0.00106238 8.71546e-06 1.41648e-06
8.71546e-06 4.22654e-05 8.00273e-07
1.41648e-06 8.00273e-07 -1.23095e-05
0.00105101 5.29173e-06 1.29517e-06
5.29173e-06 3.75324e-05 1.02576e-06
1.29517e-06 1.02576e-06 -1.79639e-05
0.00108323 1.97857e-05 8.93223e-07
1.97857e-05 5.15718e-05 2.12671e-07
8.93223e-07 2.12671e-07 -1.35188e-05
0.00119141 1.78757e-05 9.22678e-07
1.78757e-05 3.39985e-05 3.29934e-07
9.22678e-07 3.29934e-07 -2.91976e-05
0.00116398 3.00516e-05 5.87289e-07
3.00516e-05 5.60192e-05 8.33461e-07
5.87289e-07 8.33461e-07 -6.60153e-06
0.0012335 2.82635e-05 3.15961e-08
2.82635e-05 6.27514e-05 7.81716e-07
3.15961e-08 7.81716e-07 -3.1231e-06
0.00112239 2.62008e-05 1.21008e-06
2.62008e-05 7.36087e-05 1.12867e-06
1.21008e-06 1.12867e-06 8.79849e-06
0.00116416 3.26807e-05 8.11552e-07
3.26807e-05 6.2693e-05 5.70531e-07
8.11552e-07 5.70531e-07 -1.75124e-06
0.000921687 3.0365e-05 9.31035e-07
3.0365e-05 -3.00945e-05 -1.04668e-07
9.31035e-07 -1.04668e-07 -0.00010238
0.00100162 -2.38855e-06 1.55818e-06
-2.38855e-06 9.67369e-06 2.1301e-06
1.55818e-06 2.1301e-06 -2.52117e-05
0.00105697 8.79167e-06 7.57466e-07
8.79167e-06 4.13658e-05 1.27237e-06
7.57466e-07 1.27237e-06 -1.28939e-05
0.00100084 -1.99852e-06 9.78723e-07
-1.99852e-06 7.32272e-06 2.07849e-06
9.78723e-07 2.07849e-06 -2.59682e-05
0.00100046 -2.49155e-06 7.80642e-08
-2.49155e-06 8.04092e-06 6.99438e-09
7.80642e-08 6.99438e-09 -2.5986e-05
0.00156671 -1.05864e-05 1.97871e-06
-1.05864e-05 0.000282145 2.13156e-06
1.97871e-06 2.13156e-06 0.000281104
0.00124802 -1.10188e-05 4.11659e-07
-1.10188e-05 0.000127842 -3.94154e-09
4.11659e-07 -3.94154e-09 0.000124525
0.00118987 -1.20398e-05 9.35565e-06
-1.20398e-05 9.89666e-05 6.79363e-06
9.35565e-06 6.79363e-06 0.000112493
0.00249776 -1.79439e-05 2.7551e-07
-1.79439e-05 0.000747781 -4.6429e-08
2.7551e-07 -4.6429e-08 0.000766945
0.00254129 -2.02902e-05 -1.07944e-05
-2.02902e-05 0.000772645 -4.00275e-06
-1.07944e-05 -4.00275e-06 0.000791005
0.000888166 1.27169e-05 2.80545e-06
1.27169e-05 -4.15937e-05 -3.3177e-06
2.80545e-06 -3.3177e-06 -4.87395e-05
0.00258726 2.24898e-05 1.15052e-05
2.24898e-05 0.000800925 -3.89426e-06
1.15052e-05 -3.89426e-06 0.000817948
0.000891045 1.38057e-05 -1.08254e-07
1.38057e-05 -3.71031e-05 -2.27046e-08
-1.08254e-07 -2.27046e-08 -4.53826e-05
0.00257127 2.47073e-05 -1.9109e-07
2.47073e-05 0.000797573 -6.61524e-08
-1.9109e-07 -6.61524e-08 0.000813809
0.000893084 1.5127e-05 -3.92163e-06
1.5127e-05 -3.22763e-05 3.12626e-06
-3.92163e-06 3.12626e-06 -4.16089e-05
0.0025097 2.69278e-05 -1.23203e-05
2.69278e-05 0.000773985 3.52622e-06
-1.23203e-05 3.52622e-06 0.00078935
0.00104047 7.96326e-06 -2.36135e-06
7.96326e-06 1.52157e-05 -8.95482e-07
-2.36135e-06 -8.95482e-07 -3.81628e-05
0.00106049 -1.65787e-06 -2.30244e-06
-1.65787e-06 1.78414e-05 -6.58929e-07
-2.30244e-06 -6.58929e-07 -3.83589e-05
0.00120202 6.02407e-06 -1.11643e-06
6.02407e-06 4.66113e-05 -4.1461e-07
-1.11643e-06 -4.1461e-07 -1.52381e-05
0.00124159 -1.18701e-05 -1.31154e-06
-1.18701e-05 5.97279e-05 -3.54581e-07
-1.31154e-06 -3.54581e-07 -6.08046e-06
0.00108447 -2.6532e-06 -2.5803e-06
-2.6532e-06 1.84894e-05 -5.1023e-07
-2.5803e-06 -5.1023e-07 -4.07616e-05
0.000704743 7.30356e-06 -5.50185e-06
7.30356e-06 -7.20247e-05 -1.20133e-07
-5.50185e-06 -1.20133e-07 -0.000111992
0.00108118 2.05324e-06 2.97849e-08
2.05324e-06 1.3225e-05 -1.1497e-07
2.97849e-08 -1.1497e-07 -4.62561e-05
0.0012287 -2.11623e-06 -3.09767e-08
-2.11623e-06 5.05969e-05 -4.77562e-08
-3.09767e-08 -4.77562e-08 -1.67362e-05
0.00121062 -4.58986e-06 4.32777e-08
-4.58986e-06 4.71781e-05 -2.26915e-08
4.32777e-08 -2.26915e-08 -1.6501e-05
0.00129861 -1.67355e-05 -3.28151e-08
-1.67355e-05 6.9181e-05 -4.05133e-08
-3.28151e-08 -4.05133e-08 1.27446e-06
0.00118511 1.31387e-05 -5.01148e-08
1.31387e-05 4.26907e-05 1.32596e-08
-5.01148e-08 1.32596e-08 -1.78484e-05
0.00126545 6.91472e-06 -5.98162e-10
6.91472e-06 5.74263e-05 9.1972e-08
-5.98162e-10 9.1972e-08 -6.64183e-06
0.00124112 7.50794e-06 1.45887e-06
7.50794e-06 5.3127e-05 -1.2658e-07
1.45887e-06 -1.2658e-07 -1.45902e-05
0.00125055 -6.82009e-06 4.86217e-07
-6.82009e-06 4.92969e-05 9.14188e-08
4.86217e-07 9.14188e-08 -1.95347e-05
0.00126485 -3.05657e-06 6.99377e-07
-3.05657e-06 5.26535e-05 1.37987e-07
6.99377e-07 1.37987e-07 -1.34939e-05
0.00137736 -1.9931e-05 1.06076e-06
-1.9931e-05 9.53774e-05 -1.2298e-07
1.06076e-06 -1.2298e-07 2.78784e-05
0.00124091 1.05608e-05 4.09292e-07
1.05608e-05 5.07161e-05 2.05679e-07
4.09292e-07 2.05679e-07 -1.21031e-05
0.00133715 -4.82384e-07 -5.6497e-07
-4.82384e-07 7.89478e-05 6.14663e-07
-5.6497e-07 6.14663e-07 1.79255e-05
0.000891723 1.42588e-05 -2.6668e-06
1.42588e-05 -8.01985e-05 1.93479e-07
-2.6668e-06 1.93479e-07 -0.000140245
0.00132528 -1.98404e-06 -3.20724e-06
-1.98404e-06 0.000126804 5.12866e-07
-3.20724e-06 5.12866e-07 7.14448e-05
0.00126903 2.03491e-05 -2.03682e-06
2.03491e-05 5.77909e-05 -1.15656e-08
-2.03682e-06 -1.15656e-08 -7.513e-06
0.00150307 -1.71056e-05 -1.26518e-06
-1.71056e-05 0.000169473 1.80194e-07
-1.26518e-06 1.80194e-07 0.000106363
0.000882216 1.81904e-05 -4.4552e-06
1.81904e-05 -2.58692e-05 2.74381e-06
-4.4552e-06 2.74381e-06 -3.7488e-05
0.000981667 3.94918e-06 -2.36942e-06
3.94918e-06 2.05241e-05 1.49724e-06
-2.36942e-06 1.49724e-06 -2.17885e-05
0.00104498 -1.83118e-05 -7.12406e-07
-1.83118e-05 3.85532e-05 7.16156e-07
-7.12406e-07 7.16156e-07 -1.8926e-05
0.0014073 -2.2823e-05 -1.3911e-06
-2.2823e-05 0.000152626 7.21735e-07
-1.3911e-06 7.21735e-07 9.36261e-05
0.00117786 -1.94732e-05 -6.86029e-07
-1.94732e-05 9.86096e-07 8.65498e-07
-6.86029e-07 8.65498e-07 -6.42784e-05
0.00121506 -2.72207e-05 -5.49544e-07
-2.72207e-05 5.0552e-05 4.86971e-07
-5.49544e-07 4.86971e-07 -1.09401e-05
0.00103964 -2.9798e-05 -1.21933e-06
-2.9798e-05 2.73351e-06 8.63447e-07
-1.21933e-06 8.63447e-07 -6.30583e-05
0.00113435 -3.06629e-05 -2.27029e-07
-3.06629e-05 1.61098e-05 1.58446e-08
-2.27029e-07 1.58446e-08 -4.69851e-05
0.00098065 4.81206e-06 -2.53823e-06
4.81206e-06 9.68695e-06 1.65473e-06
-2.53823e-06 1.65473e-06 -2.99655e-05
0.000929594 -1.18115e-05 -1.54639e-06
-1.18115e-05 -2.48686e-05 8.58173e-07
-1.54639e-06 8.58173e-07 -8.31806e-05
0.000985458 3.37431e-06 -2.2064e-06
3.37431e-06 7.62632e-06 2.03506e-06
-2.2064e-06 2.03506e-06 -3.10324e-05
0.00131975 1.91278e-05 -4.88083e-07
1.91278e-05 8.91368e-05 1.15315e-07
-4.88083e-07 1.15315e-07 2.26343e-05
0.00136432 -3.54251e-06 -2.04108e-07
-3.54251e-06 9.5964e-05 2.37884e-08
-2.04108e-07 2.37884e-08 3.14244e-05
0.00130647 2.05437e-05 -3.14643e-07
2.05437e-05 5.31784e-05 -7.86319e-08
-3.14643e-07 -7.86319e-08 -1.62854e-05
0.0013971 -9.34669e-06 -2.43355e-08
-9.34669e-06 9.17983e-05 -2.6711e-07
-2.43355e-08 -2.6711e-07 2.45294e-05
0.000965969 5.7911e-06 1.72053e-08
5.7911e-06 8.30116e-06 -1.94959e-08
1.72053e-08 -1.94959e-08 -3.22847e-05
0.0010597 -1.52015e-05 7.33927e-08
-1.52015e-05 4.61378e-05 2.65508e-08
7.33927e-08 2.65508e-08 -9.85304e-06
0.00103049 -2.97685e-05 1.83037e-07
-2.97685e-05 2.07532e-05 -2.9104e-07
1.83037e-07 -2.9104e-07 -4.43478e-05
0.00126965 -2.59592e-05 -2.95889e-08
-2.59592e-05 6.61387e-05 -1.14338e-07
-2.95889e-08 -1.14338e-07 4.096e-06
0.00130444 -1.9863e-05 2.01281e-07
-1.9863e-05 4.93875e-05 5.12446e-07
2.01281e-07 5.12446e-07 -1.3043e-05
0.00118518 -3.46849e-05 6.44241e-08
-3.46849e-05 6.35551e-05 1.05511e-07
6.44241e-08 1.05511e-07 -5.91966e-06
0.00123384 -2.84678e-05 4.76419e-08
-2.84678e-05 4.85838e-05 1.34182e-07
4.76419e-08 1.34182e-07 -1.23287e-05
0.00133529 -3.39058e-05 4.48604e-07
-3.39058e-05 0.000106829 3.5915e-07
4.48604e-07 3.5915e-07 4.72247e-05
0.00106113 -1.30116e-05 6.90556e-08
-1.30116e-05 4.12464e-05 -5.94851e-08
6.90556e-08 -5.94851e-08 -1.4996e-05
0.00114899 -2.82146e-05 -3.48051e-07
-2.82146e-05 8.13347e-05 1.86473e-07
-3.48051e-07 1.86473e-07 1.55027e-05
0.000986821 2.36235e-06 -8.5264e-08
2.36235e-06 7.19815e-06 5.39128e-09
-8.5264e-08 5.39128e-09 -3.02251e-05
0.000907353 -1.08137e-05 3.99823e-07
-1.08137e-05 -3.28642e-05 -3.77144e-07
3.99823e-07 -3.77144e-07 -9.28973e-05
0.00133078 2.11486e-05 1.34784e-06
2.11486e-05 7.69327e-05 2.58639e-07
1.34784e-06 2.58639e-07 6.57138e-06
0.00150305 4.24885e-06 9.49564e-07
4.24885e-06 0.00013302 1.03807e-07
9.49564e-07 1.03807e-07 6.44113e-05
0.00125879 2.19385e-05 7.22386e-07
2.19385e-05 2.11622e-05 3.83121e-07
7.22386e-07 3.83121e-07 -5.08759e-05
0.00130185 -5.49528e-06 -1.75495e-08
-5.49528e-06 3.19193e-05 -1.0458e-06
-1.75495e-08 -1.0458e-06 -3.4081e-05
0.00121466 -2.54689e-05 -2.42383e-07
-2.54689e-05 2.75959e-05 -1.50383e-07
-2.42383e-07 -1.50383e-07 -3.25437e-05
0.00142288 -1.8415e-05 3.95301e-07
-1.8415e-05 9.30294e-05 -1.99537e-07
3.95301e-07 -1.99537e-07 3.49024e-05
0.00104675 -1.2525e-05 1.25654e-06
-1.2525e-05 3.81585e-05 -6.43855e-07
1.25654e-06 -6.43855e-07 -1.7416e-05
0.00121458 -2.83783e-05 -7.54491e-07
-2.83783e-05 3.25149e-05 2.37614e-07
-7.54491e-07 2.37614e-07 -2.31632e-05
0.00093478 -2.76854e-05 6.78883e-07
-2.76854e-05 -2.04735e-05 -9.54724e-07
6.78883e-07 -9.54724e-07 -8.35645e-05
0.00113791 -3.43963e-05 1.10745e-06
-3.43963e-05 6.75976e-05 -1.26675e-06
1.10745e-06 -1.26675e-06 -4.28774e-06
0.00123492 -3.76419e-05 1.42525e-06
-3.76419e-05 8.10456e-05 1.03327e-06
1.42525e-06 1.03327e-06 9.64197e-06
0.00148777 -3.60731e-05 4.64518e-07
-3.60731e-05 0.000170948 3.70045e-07
4.64518e-07 3.70045e-07 0.000112728
0.000989727 3.95319e-06 1.29923e-06
3.95319e-06 8.3304e-06 -2.1047e-06
1.29923e-06 -2.1047e-06 -2.78243e-05
0.000867019 -1.04264e-05 1.53547e-06
-1.04264e-05 -5.05793e-05 -1.94121e-06
1.53547e-06 -1.94121e-06 -0.00011068
0.00110521 -2.79538e-05 8.0291e-07
-2.79538e-05 5.72117e-05 -8.22048e-08
8.0291e-07 -8.22048e-08 -5.98025e-06
0.00114889 -2.74425e-05 9.96853e-07
-2.74425e-05 8.7836e-05 -2.93355e-07
9.96853e-07 -2.93355e-07 1.7756e-05
0.00123895 -3.29051e-05 5.0623e-07
-3.29051e-05 0.000120242 1.67573e-07
5.0623e-07 1.67573e-07 5.13861e-05
0.000895096 -1.27464e-05 -2.94595e-06
-1.27464e-05 -4.04313e-05 -3.36945e-06
-2.94595e-06 -3.36945e-06 -4.67403e-05
0.00118523 1.8489e-05 -9.84923e-07
1.8489e-05 4.90035e-05 -4.2567e-07
-9.84923e-07 -4.2567e-07 -1.09715e-05
0.000982363 -4.47155e-06 -2.15609e-06
-4.47155e-06 5.19268e-06 -2.00155e-06
-2.15609e-06 -2.00155e-06 -3.17749e-05
0.00096694 -7.06319e-06 -2.55211e-06
-7.06319e-06 3.59828e-06 -1.71888e-06
-2.55211e-06 -1.71888e-06 -3.42882e-05
0.00104977 5.52443e-06 -1.31455e-06
5.52443e-06 3.70457e-05 -9.93818e-07
-1.31455e-06 -9.93818e-07 -1.82009e-05
0.00109277 2.45359e-05 -1.07235e-06
2.45359e-05 3.59288e-05 -8.66838e-07
-1.07235e-06 -8.66838e-07 -2.16009e-05
0.00119452 2.70021e-05 -6.31484e-07
2.70021e-05 5.04815e-05 -4.41952e-07
-6.31484e-07 -4.41952e-07 -1.34295e-05
0.00104298 9.29265e-06 -1.23357e-06
9.29265e-06 3.90463e-05 -8.24234e-07
-1.23357e-06 -8.24234e-07 -1.6493e-05
0.00112604 2.94696e-05 -9.3081e-07
2.94696e-05 7.50814e-05 -8.21414e-07
-9.3081e-07 -8.21414e-07 9.61226e-06
0.00128403 3.12981e-05 -9.88185e-07
3.12981e-05 0.000127087 -7.35821e-07
-9.88185e-07 -7.35821e-07 6.67524e-05
0.00106793 3.07334e-05 -1.85847e-06
3.07334e-05 3.22464e-05 1.74528e-07
-1.85847e-06 1.74528e-07 -3.11627e-05
0.000913543 -1.14535e-05 1.01957e-07
-1.14535e-05 -3.43109e-05 -1.46493e-08
1.01957e-07 -1.46493e-08 -3.99025e-05
0.000992685 -3.4939e-06 5.79136e-08
-3.4939e-06 8.07954e-06 -1.96629e-08
5.79136e-08 -1.96629e-08 -2.82798e-05
0.00105702 7.72698e-06 -2.80632e-08
7.72698e-06 4.03821e-05 -2.63326e-08
-2.80632e-08 -2.63326e-08 -1.42843e-05
0.00105019 4.97693e-06 1.47278e-08
4.97693e-06 3.74826e-05 -2.41255e-08
1.47278e-08 -2.41255e-08 -1.81063e-05
0.00104646 1.89081e-05 5.83766e-08
1.89081e-05 3.34522e-05 -9.54985e-08
5.83766e-08 -9.54985e-08 -3.17097e-05
0.0012214 1.8502e-05 3.30915e-07
1.8502e-05 4.75372e-05 1.16844e-07
3.30915e-07 1.16844e-07 -1.57138e-05
0.00115723 3.01466e-05 8.57034e-08
3.01466e-05 5.31109e-05 -2.54182e-08
8.57034e-08 -2.54182e-08 -9.53653e-06
0.00121067 2.89485e-05 3.17973e-07
2.89485e-05 5.18198e-05 3.22381e-07
3.17973e-07 3.22381e-07 -1.43416e-05
0.00110926 2.68047e-05 3.59802e-07
2.68047e-05 6.78094e-05 3.29415e-07
3.59802e-07 3.29415e-07 2.99597e-06
0.00121064 3.29194e-05 9.88671e-08
3.29194e-05 8.56474e-05 -2.23767e-07
9.88671e-08 -2.23767e-07 2.15038e-05
0.00103166 3.17123e-05 -5.72407e-07
3.17123e-05 2.11479e-05 -3.52119e-07
-5.72407e-07 -3.52119e-07 -5.0431e-05
0.000999801 -2.69018e-06 1.82841e-06
-2.69018e-06 9.93056e-06 2.08666e-06
1.82841e-06 2.08666e-06 -2.57286e-05
0.00105343 6.32626e-06 1.24982e-06
6.32626e-06 3.87019e-05 1.12642e-06
1.24982e-06 1.12642e-06 -1.70123e-05
0.00105068 2.31617e-05 7.33161e-07
2.31617e-05 3.34152e-05 2.94401e-07
7.33161e-07 2.94401e-07 -3.08179e-05
0.00108563 1.64258e-05 7.52009e-07
1.64258e-05 5.52301e-05 3.81082e-07
7.52009e-07 3.81082e-07 -1.10695e-05
0.00118744 2.85826e-05 1.71667e-07
2.85826e-05 0.000102251 -2.18788e-07
1.71667e-07 -2.18788e-07 3.24169e-05
0.00120381 1.63682e-05 -3.37348e-07
1.63682e-05 3.00864e-05 -3.9089e-07
-3.37348e-07 -3.9089e-07 -3.30276e-05
0.00118513 3.36785e-05 6.93781e-07
3.36785e-05 6.06235e-05 7.75604e-07
6.93781e-07 7.75604e-07 -5.2028e-06
0.00107147 3.23622e-05 -1.97235e-07
3.23622e-05 -1.30145e-05 5.98435e-08
-1.97235e-07 5.98435e-08 -7.77483e-05
0.00111598 3.2697e-05 7.35921e-07
3.2697e-05 7.01441e-05 1.26841e-06
7.35921e-07 1.26841e-06 -2.68866e-06
0.001193 3.57896e-05 1.60171e-06
3.57896e-05 8.38609e-05 3.08508e-07
1.60171e-06 3.08508e-07 9.16743e-06
0.000998328 -2.60257e-06 9.32541e-08
-2.60257e-06 7.99585e-06 7.81108e-10
9.32541e-08 7.81108e-10 -2.68559e-05
0.000884306 6.61032e-06 1.2041e-06
6.61032e-06 -4.40756e-05 1.75231e-06
1.2041e-06 1.75231e-06 -0.00010051
0.000965575 7.47439e-06 -1.36299e-08
7.47439e-06 -3.28067e-06 1.87815e-08
-1.36299e-08 1.87815e-08 -5.8225e-05
0.00125493 1.93026e-05 3.1348e-07
1.93026e-05 0.000146204 2.92657e-07
3.1348e-07 2.92657e-07 7.96554e-05
0.00105622 8.08631e-06 5.95305e-07
8.08631e-06 4.2126e-05 1.24899e-06
5.95305e-07 1.24899e-06 -1.14027e-05
0.00100279 -1.31059e-06 7.24043e-07
-1.31059e-06 7.36632e-06 2.03235e-06
7.24043e-07 2.03235e-06 -2.52838e-05
0.00100396 -2.08027e-06 7.14891e-08
-2.08027e-06 8.87599e-06 8.6675e-09
7.14891e-08 8.6675e-09 -2.44042e-05
0.001567 -8.86485e-06 1.59119e-06
-8.86485e-06 0.000279269 2.12027e-06
1.59119e-06 2.12027e-06 0.000278904
0.000999897 -2.60295e-06 -1.08406e-06
-2.60295e-06 7.71669e-06 -2.11339e-06
-1.08406e-06 -2.11339e-06 -2.62807e-05
0.00158617 -1.01274e-05 -1.54374e-06
-1.01274e-05 0.000291764 -1.30984e-06
-1.54374e-06 -1.30984e-06 0.000290678
0.00120997 -1.0369e-05 8.20685e-06
-1.0369e-05 0.000104869 6.84843e-06
8.20685e-06 6.84843e-06 0.000119073
0.00157773 -1.1319e-05 -4.73366e-06
-1.1319e-05 0.000290477 -3.3587e-06
-4.73366e-06 -3.3587e-06 0.000288776
0.001815 -1.38954e-05 6.11964e-06
-1.38954e-05 0.000407378 2.48566e-06
6.11964e-06 2.48566e-06 0.000424175
0.0025184 -1.79948e-05 -9.88784e-06
-1.79948e-05 0.000757747 -4.09275e-06
-9.88784e-06 -4.09275e-06 0.000776867
0.000898684 1.19073e-05 2.30113e-06
1.19073e-05 -3.94574e-05 -3.29853e-06
2.30113e-06 -3.29853e-06 -4.53596e-05
0.000900954 1.27588e-05 -1.14843e-07
1.27588e-05 -3.53026e-05 -1.20318e-08
-1.14843e-07 -1.20318e-08 -4.25417e-05
0.00254207 2.02147e-05 1.06326e-05
2.02147e-05 0.000774834 -3.96037e-06
1.06326e-05 -3.96037e-06 0.000792808
0.0025584 2.24163e-05 -2.02115e-07
2.24163e-05 0.000786932 -5.8825e-08
-2.02115e-07 -5.8825e-08 0.00080402
0.000903185 1.38762e-05 -3.50158e-06
1.38762e-05 -3.09163e-05 3.25942e-06
-3.50158e-06 3.25942e-06 -3.9309e-05
0.00252753 2.46414e-05 -1.21208e-05
2.46414e-05 0.000776612 3.73159e-06
-1.21208e-05 3.73159e-06 0.00079293
0.00119182 1.3345e-05 -1.16408e-06
1.3345e-05 4.5874e-05 -3.98788e-07
-1.16408e-06 -3.98788e-07 -1.47073e-05
0.00121615 -4.74312e-06 -1.18142e-06
-4.74312e-06 4.98739e-05 -4.3008e-07
-1.18142e-06 -4.3008e-07 -1.3821e-05
0.00126819 7.04761e-06 -4.21058e-07
7.04761e-06 5.9159e-05 -2.32033e-07
-4.21058e-07 -2.32033e-07 -4.9168e-06
0.00129321 -1.74638e-05 -7.55846e-07
-1.74638e-05 6.61225e-05 -4.07966e-08
-7.55846e-07 -4.07966e-08 -1.80857e-06
0.00124674 4.60114e-07 -1.27994e-06
4.60114e-07 5.91558e-05 -2.76586e-07
-1.27994e-06 -2.76586e-07 -8.22961e-06
0.00107969 5.60794e-06 -2.56969e-06
5.60794e-06 1.24184e-05 -7.66819e-08
-2.56969e-06 -7.66819e-08 -4.70373e-05
0.00124248 1.1309e-05 5.70473e-08
1.1309e-05 5.40094e-05 -1.38434e-07
5.70473e-08 -1.38434e-07 -1.37281e-05
0.00126473 -1.33024e-05 -1.2117e-08
-1.33024e-05 5.59623e-05 1.35026e-08
-1.2117e-08 1.35026e-08 -1.30421e-05
0.001276 -4.36129e-06 5.63148e-08
-4.36129e-06 5.81229e-05 -1.10267e-07
5.63148e-08 -1.10267e-07 -8.0285e-06
0.0013727 -2.04492e-05 4.05749e-08
-2.04492e-05 9.24924e-05 -1.87016e-07
4.05749e-08 -1.87016e-07 2.48653e-05
0.00124384 1.1142e-05 -4.23758e-08
1.1142e-05 5.21766e-05 5.20338e-08
-4.23758e-08 5.20338e-08 -1.07325e-05
0.00132014 -6.34522e-07 -2.43712e-08
-6.34522e-07 7.02323e-05 4.57577e-07
-2.43712e-08 4.57577e-07 9.37806e-06
0.00132756 3.26655e-06 9.09119e-07
3.26655e-06 8.33292e-05 1.4012e-07
9.09119e-07 1.4012e-07 1.3489e-05
0.00124528 -6.23775e-06 6.55615e-07
-6.23775e-06 4.60457e-05 -3.14668e-07
6.55615e-07 -3.14668e-07 -2.2844e-05
0.00120188 -9.38238e-06 4.8737e-07
-9.38238e-06 7.1114e-06 8.31111e-07
4.8737e-07 8.31111e-07 -5.74125e-05
0.00151788 -2.46199e-05 7.69281e-07
-2.46199e-05 0.000158614 -9.58289e-08
7.69281e-07 -9.58289e-08 9.05855e-05
0.00122006 7.08627e-06 -4.9378e-07
7.08627e-06 2.72063e-05 -9.97112e-08
-4.9378e-07 -9.97112e-08 -3.33276e-05
0.00147032 -6.64013e-06 -1.56463e-07
-6.64013e-06 0.000130819 3.43507e-07
-1.56463e-07 3.43507e-07 7.38016e-05
0.00118894 1.84995e-05 -1.91144e-06
1.84995e-05 2.60532e-05 9.01238e-08
-1.91144e-06 9.01238e-08 -4.0996e-05
0.00136174 -5.82302e-06 -1.91537e-06
-5.82302e-06 9.45983e-05 1.65791e-07
-1.91537e-06 1.65791e-07 3.00795e-05
0.00124236 2.07959e-05 -1.48136e-06
2.07959e-05 2.07186e-05 -3.22133e-07
-1.48136e-06 -3.22133e-07 -4.92501e-05
0.00144769 -8.56464e-06 -8.6465e-07
-8.56464e-06 0.000115867 1.02737e-07
-8.6465e-07 1.02737e-07 4.88466e-05
0.000979907 5.37897e-06 -2.45869e-06
5.37897e-06 1.43146e-05 1.50415e-06
-2.45869e-06 1.50415e-06 -2.61657e-05
0.00107925 -1.53661e-05 -1.09087e-06
-1.53661e-05 5.47848e-05 8.52455e-07
-1.09087e-06 8.52455e-07 -1.16902e-06
0.00111404 -3.05606e-05 -4.95927e-07
-3.05606e-05 6.26823e-05 7.90663e-07
-4.95927e-07 7.90663e-07 -1.9381e-06
0.0013949 -2.6956e-05 -4.76294e-07
-2.6956e-05 0.000126573 3.79808e-07
-4.76294e-07 3.79808e-07 6.46336e-05
0.00122346 -1.94254e-05 1.72667e-07
-1.94254e-05 1.01628e-05 7.54875e-07
1.72667e-07 7.54875e-07 -5.15716e-05
0.00124296 -2.81026e-05 9.1358e-09
-2.81026e-05 5.26833e-05 3.84529e-07
9.1358e-09 3.84529e-07 -8.1404e-06
0.00107726 -3.36277e-05 -1.13471e-06
-3.36277e-05 1.28851e-05 5.6915e-07
-1.13471e-06 5.6915e-07 -5.74359e-05
0.00122777 -3.24768e-05 3.35838e-07
-3.24768e-05 5.4881e-05 -1.2222e-06
3.35838e-07 -1.2222e-06 -3.96442e-06
0.001065 -1.33761e-05 -1.38746e-06
-1.33761e-05 4.23181e-05 6.88601e-07
-1.38746e-06 6.88601e-07 -1.37457e-05
0.00103664 -2.68544e-05 -1.39694e-06
-2.68544e-05 2.55635e-05 3.56275e-07
-1.39694e-06 3.56275e-07 -4.06888e-05
0.000983945 2.88163e-06 -1.88919e-06
2.88163e-06 6.08255e-06 2.10184e-06
-1.88919e-06 2.10184e-06 -3.13854e-05
0.000912764 -1.07639e-05 -1.00258e-06
-1.07639e-05 -3.06124e-05 8.74897e-07
-1.00258e-06 8.74897e-07 -9.06518e-05
0.00132269 2.14411e-05 -4.71714e-08
2.14411e-05 7.36183e-05 -1.82059e-08
-4.71714e-08 -1.82059e-08 3.36571e-06
0.00147854 6.07534e-06 -1.62989e-07
6.07534e-06 0.000122374 9.04426e-08
-1.62989e-07 9.04426e-08 5.38506e-05
0.00130713 2.25701e-05 -4.55268e-07
2.25701e-05 4.25826e-05 -1.58948e-07
-4.55268e-07 -1.58948e-07 -3.00212e-05
0.00135623 -6.14499e-06 -1.43631e-07
-6.14499e-06 5.80819e-05 -1.52891e-07
-1.43631e-07 -1.52891e-07 -7.8417e-06
0.00105907 -1.3059e-05 7.6563e-08
-1.3059e-05 4.31618e-05 -3.57848e-08
7.6563e-08 -3.57848e-08 -1.22906e-05
0.00100184 -2.7876e-05 2.30777e-07
-2.7876e-05 1.24735e-05 -1.24576e-07
2.30777e-07 -1.24576e-07 -5.01492e-05
0.00114579 -3.44754e-05 3.55787e-09
-3.44754e-05 7.24169e-05 -9.97967e-08
3.55787e-09 -9.97967e-08 3.30247e-07
0.0012972 -2.58931e-05 -2.67806e-07
-2.58931e-05 6.69146e-05 -5.08121e-08
-2.67806e-07 -5.08121e-08 6.29945e-06
0.001331 -1.86885e-05 3.4617e-07
-1.86885e-05 5.32529e-05 4.2868e-07
3.4617e-07 4.2868e-07 -3.78429e-06
0.00124399 -3.76661e-05 -4.41241e-08
-3.76661e-05 8.65372e-05 3.61925e-07
-4.41241e-08 3.61925e-07 1.45568e-05
0.00123563 -2.82415e-05 1.93254e-08
-2.82415e-05 4.29599e-05 3.16845e-07
1.93254e-08 3.16845e-07 -1.27265e-05
0.00130188 -3.41631e-05 3.71847e-07
-3.41631e-05 8.1744e-05 -1.33487e-06
3.71847e-07 -1.33487e-06 2.54293e-05
0.00111315 -2.78871e-05 8.3306e-08
-2.78871e-05 6.09532e-05 -1.55942e-08
8.3306e-08 -1.55942e-08 -2.21295e-06
0.0011724 -3.21239e-05 -1.35921e-07
-3.21239e-05 8.66819e-05 7.345e-08
-1.35921e-07 7.345e-08 1.77313e-05
0.00114799 -2.77292e-05 -4.80214e-08
-2.77292e-05 8.74051e-05 2.17861e-07
-4.80214e-08 2.17861e-07 1.71164e-05
0.00084313 5.54131e-06 -2.75786e-07
5.54131e-06 -6.38346e-05 -1.06964e-08
-2.75786e-07 -1.06964e-08 -0.000100882
0.000885502 -9.6632e-06 3.60399e-07
-9.6632e-06 -4.19748e-05 -4.64448e-07
3.60399e-07 -4.64448e-07 -0.000101892
0.00135707 2.6536e-05 7.92136e-07
2.6536e-05 8.29358e-05 6.4124e-07
7.92136e-07 6.4124e-07 1.085e-05
0.00139873 1.75675e-05 7.9872e-07
1.75675e-05 6.79274e-05 4.03777e-07
7.9872e-07 4.03777e-07 -4.08207e-06
0.00137235 -7.36102e-06 3.49876e-07
-7.36102e-06 5.40582e-05 -1.50542e-06
3.49876e-07 -1.50542e-06 -6.66946e-06
0.00123703 -2.16616e-05 -1.15038e-07
-2.16616e-05 1.87666e-05 -5.51371e-07
-1.15038e-07 -5.51371e-07 -3.5093e-05
0.00110009 -2.85234e-05 6.1019e-07
-2.85234e-05 5.63627e-05 -2.01361e-07
6.1019e-07 -2.01361e-07 -5.20887e-06
0.00142026 -3.15535e-05 8.83304e-08
-3.15535e-05 0.00011319 1.40722e-07
8.83304e-08 1.40722e-07 6.45092e-05
0.000859393 -2.92904e-05 6.61961e-07
-2.92904e-05 -5.33146e-05 -1.50741e-06
6.61961e-07 -1.50741e-06 -0.000122076
0.00119159 -3.79633e-05 1.61932e-06
-3.79633e-05 8.99652e-05 -1.10154e-06
1.61932e-06 -1.10154e-06 1.0679e-05
0.00129866 -3.95912e-05 1.63835e-06
-3.95912e-05 9.95353e-05 1.1349e-06
1.63835e-06 1.1349e-06 2.71876e-05
0.00071652 8.24896e-06 1.07331e-06
8.24896e-06 -0.000127926 -2.77056e-06
1.07331e-06 -2.77056e-06 -0.000164222
0.00113798 -6.68747e-06 9.36445e-07
-6.68747e-06 8.41498e-05 -1.23995e-06
9.36445e-07 -1.23995e-06 2.73875e-05
0.00109787 -2.61454e-05 8.02043e-07
-2.61454e-05 6.83229e-05 -7.06524e-07
8.02043e-07 -7.06524e-07 -3.943e-06
0.00113518 -3.138e-05 5.6655e-07
-3.138e-05 6.6425e-05 -4.64239e-08
5.6655e-07 -4.64239e-08 3.08104e-07
0.00120337 -3.30654e-05 7.74306e-07
-3.30654e-05 0.000108754 2.89206e-08
7.74306e-07 2.89206e-08 3.18194e-05
0.00111027 -3.25843e-05 2.30519e-07
-3.25843e-05 5.15442e-05 -9.25141e-08
2.30519e-07 -9.25141e-08 -2.00965e-05
0.000905175 -1.14039e-05 -2.55577e-06
-1.14039e-05 -3.85275e-05 -3.41252e-06
-2.55577e-06 -3.41252e-06 -4.40487e-05
0.000989223 -3.44438e-06 -1.97734e-06
-3.44438e-06 6.40245e-06 -2.10083e-06
-1.97734e-06 -2.10083e-06 -2.99682e-05
0.00125227 1.92178e-05 -3.66867e-07
1.92178e-05 6.14615e-05 -1.32994e-07
-3.66867e-07 -1.32994e-07 -1.84276e-06
0.00104852 4.61515e-06 -1.28688e-06
4.61515e-06 3.70276e-05 -1.12923e-06
-1.28688e-06 -1.12923e-06 -1.86526e-05
0.00104962 6.73648e-06 -1.38706e-06
6.73648e-06 3.75247e-05 -8.23554e-07
-1.38706e-06 -8.23554e-07 -1.7229e-05
0.0010094 1.79124e-05 -6.46145e-07
1.79124e-05 1.51851e-05 -3.10801e-07
-6.46145e-07 -3.10801e-07 -5.00392e-05
0.00115009 3.01842e-05 -5.26073e-07
3.01842e-05 5.002e-05 -9.19954e-07
-5.26073e-07 -9.19954e-07 -1.26517e-05
0.00118682 2.9536e-05 2.75671e-09
2.9536e-05 4.03841e-05 -2.6386e-07
2.75671e-09 -2.6386e-07 -2.60577e-05
0.00109021 2.7328e-05 -4.10368e-07
2.7328e-05 5.91163e-05 -4.06548e-07
-4.10368e-07 -4.06548e-07 -5.68639e-06
0.00113454 3.29436e-05 -1.11899e-06
3.29436e-05 6.90581e-05 -4.01729e-07
-1.11899e-06 -4.01729e-07 -1.81176e-06
0.00125457 3.31351e-05 -1.22311e-06
3.31351e-05 0.000107466 -6.50458e-07
-1.22311e-06 -6.50458e-07 4.36175e-05
0.000996361 -2.73728e-06 8.95859e-08
-2.73728e-06 8.25785e-06 -1.36226e-08
8.95859e-08 -1.36226e-08 -2.73987e-05
0.00105375 6.2496e-06 -2.11321e-08
6.2496e-06 3.90196e-05 -3.56101e-08
-2.11321e-08 -3.56101e-08 -1.67757e-05
0.00107512 2.38691e-05 -9.39449e-08
2.38691e-05 4.59361e-05 -1.06982e-07
-9.39449e-08 -1.06982e-07 -1.78556e-05
0.00109223 1.74978e-05 -7.26019e-08
1.74978e-05 5.87025e-05 -1.87862e-08
-7.26019e-08 -1.87862e-08 -7.78374e-06
0.00111985 2.80987e-05 -2.88679e-07
2.80987e-05 6.93519e-05 -6.8407e-08
-2.88679e-07 -6.8407e-08 -8.92046e-07
0.00123521 1.77093e-05 -2.68541e-07
1.77093e-05 4.57626e-05 -2.27646e-07
-2.68541e-07 -2.27646e-07 -1.76817e-05
0.00118119 3.34826e-05 3.99627e-07
3.34826e-05 5.78199e-05 -4.41567e-08
3.99627e-07 -4.41567e-08 -8.10424e-06
0.00114959 3.23238e-05 1.17483e-07
3.23238e-05 2.32049e-05 3.4119e-07
1.17483e-07 3.4119e-07 -4.10913e-05
0.00103204 3.16732e-05 3.4943e-07
3.16732e-05 2.97909e-05 4.77529e-07
3.4943e-07 4.77529e-07 -4.33788e-05
0.00121258 3.61736e-05 1.66168e-09
3.61736e-05 9.34703e-05 -7.63973e-08
1.66168e-09 -7.63973e-08 1.77648e-05
0.00105938 8.07596e-06 1.23273e-06
8.07596e-06 4.13958e-05 1.24393e-06
1.23273e-06 1.24393e-06 -1.43326e-05
0.000952899 1.79999e-05 1.21626e-06
1.79999e-05 -8.65129e-06 8.12121e-07
1.21626e-06 8.12121e-07 -7.7445e-05
0.00111474 3.23661e-05 1.2413e-07
3.23661e-05 6.43629e-05 2.71054e-07
1.2413e-07 2.71054e-07 -6.39266e-06
0.00100953 2.67965e-05 5.31355e-07
2.67965e-05 1.60126e-05 -2.40818e-08
5.31355e-07 -2.40818e-08 -5.69722e-05
0.00117091 3.18134e-05 -5.23099e-08
3.18134e-05 8.93687e-05 -2.17117e-07
-5.23099e-08 -2.17117e-07 1.60194e-05
0.00121964 2.0042e-05 -2.57365e-07
2.0042e-05 1.7179e-05 -3.80613e-07
-2.57365e-07 -3.80613e-07 -3.53916e-05
0.0012631 3.84531e-05 8.88771e-07
3.84531e-05 9.78377e-05 1.82292e-07
8.88771e-07 1.82292e-07 2.48651e-05
0.000726243 3.25497e-05 7.48259e-07
3.25497e-05 -0.000192798 3.22668e-07
7.48259e-07 3.22668e-07 -0.000257776
0.00135666 3.76421e-05 1.54837e-06
3.76421e-05 0.000180426 1.74013e-06
1.54837e-06 1.74013e-06 0.000101873
0.000792694 3.42892e-05 5.48203e-07
3.42892e-05 -0.00011067 5.62716e-07
5.48203e-07 5.62716e-07 -0.000195609
0.000995262 -2.67781e-06 -1.37427e-06
-2.67781e-06 6.42168e-06 -2.15591e-06
-1.37427e-06 -2.15591e-06 -2.83962e-05
0.000969453 7.01837e-06 3.40118e-07
7.01837e-06 -1.96866e-06 4.3546e-07
3.40118e-07 4.3546e-07 -5.79155e-05
0.00096236 1.74163e-05 8.11064e-07
1.74163e-05 1.07208e-06 1.07642e-06
8.11064e-07 1.07642e-06 -6.82657e-05
0.000873768 4.70851e-06 -6.86265e-07
4.70851e-06 -4.81229e-05 -1.32522e-06
-6.86265e-07 -1.32522e-06 -0.000103741
0.00105188 9.27239e-06 6.36412e-08
9.27239e-06 4.01508e-05 2.01635e-08
6.36412e-08 2.01635e-08 -1.34095e-05
0.00110486 1.70272e-05 -2.30564e-07
1.70272e-05 7.23803e-05 -4.58618e-07
-2.30564e-07 -4.58618e-07 4.8566e-06
0.00121402 2.47983e-05 2.40904e-07
2.47983e-05 0.000129399 1.95619e-07
2.40904e-07 1.95619e-07 5.33972e-05
0.000943023 1.09453e-05 4.89379e-07
1.09453e-05 -6.57958e-06 1.15517e-06
4.89379e-07 1.15517e-06 -7.46052e-05
0.00104321 5.64306e-06 4.39108e-07
5.64306e-06 3.73371e-05 1.23127e-06
4.39108e-07 1.23127e-06 -1.54765e-05
0.00100783 -1.5684e-07 5.02793e-07
-1.5684e-07 9.1245e-06 1.98297e-06
5.02793e-07 1.98297e-06 -2.31422e-05
0.00100853 -2.1282e-06 5.63155e-08
-2.1282e-06 1.02934e-05 1.0341e-08
5.63155e-08 1.0341e-08 -2.23786e-05
0.00156539 -7.02801e-06 1.20148e-06
-7.02801e-06 0.000275499 2.10411e-06
1.20148e-06 2.10411e-06 0.000275803
0.00100676 -2.1608e-06 -8.14998e-07
-2.1608e-06 1.02786e-05 -2.04406e-06
-8.14998e-07 -2.04406e-06 -2.29908e-05
0.0015832 -8.45098e-06 -1.29524e-06
-8.45098e-06 0.000287392 -1.31653e-06
-1.29524e-06 -1.31653e-06 0.000286973
0.00121291 -8.67926e-06 6.8204e-06
-8.67926e-06 0.000102422 6.89406e-06
6.8204e-06 6.89406e-06 0.000117333
0.00160551 -9.77333e-06 -4.55791e-06
-9.77333e-06 0.000301332 -4.70035e-06
-4.55791e-06 -4.70035e-06 0.000300195
0.00115544 -1.07312e-05 2.69601e-06
-1.07312e-05 7.79917e-05 2.59906e-06
2.69601e-06 2.59906e-06 9.24069e-05
0.00243572 -1.69068e-05 -3.54518e-06
-1.69068e-05 0.000713654 -1.70675e-06
-3.54518e-06 -1.70675e-06 0.000733684
0.000908462 1.08809e-05 1.93776e-06
1.08809e-05 -3.87721e-05 -3.2571e-06
1.93776e-06 -3.2571e-06 -4.31497e-05
0.000913595 1.19084e-05 -1.49901e-07
1.19084e-05 -3.2352e-05 3.85226e-09
-1.49901e-07 3.85226e-09 -3.83262e-05
0.00248065 1.79944e-05 9.43489e-06
1.79944e-05 0.000740277 -3.98403e-06
9.43489e-06 -3.98403e-06 0.000759395
0.000913564 1.27982e-05 -3.08023e-06
1.27982e-05 -2.91121e-05 3.29628e-06
-3.08023e-06 3.29628e-06 -3.64418e-05
0.00252827 2.0157e-05 -2.35188e-07
2.0157e-05 0.000768208 -5.3e-08
-2.35188e-07 -5.3e-08 0.000786181
0.00252925 2.23608e-05 -1.17029e-05
2.23608e-05 0.000772843 3.88627e-06
-1.17029e-05 3.88627e-06 0.000789988
0.00124692 1.16779e-05 -6.12476e-07
1.16779e-05 5.37101e-05 -1.57467e-07
-6.12476e-07 -1.57467e-07 -9.28945e-06
0.00129092 -6.50088e-06 -5.17177e-07
-6.50088e-06 6.53967e-05 -3.53406e-07
-5.17177e-07 -3.53406e-07 -7.6759e-07
0.00130012 -7.64781e-07 6.69103e-07
-7.64781e-07 5.99592e-05 -1.41995e-07
6.69103e-07 -1.41995e-07 -7.07203e-07
0.00136624 -2.10432e-05 -8.31113e-07
-2.10432e-05 8.8815e-05 1.25833e-07
-8.31113e-07 1.25833e-07 2.10529e-05
0.00127848 -1.72051e-05 -5.83107e-07
-1.72051e-05 6.24264e-05 5.76941e-09
-5.83107e-07 5.76941e-09 -6.75065e-06
0.00124072 1.40889e-05 -1.22263e-06
1.40889e-05 5.34301e-05 -1.32244e-07
-1.22263e-06 -1.32244e-07 -1.43244e-05
0.00130236 6.47806e-06 2.05118e-08
6.47806e-06 7.1581e-05 4.0484e-08
2.05118e-08 4.0484e-08 1.57423e-06
0.00125873 -9.52482e-06 2.21721e-07
-9.52482e-06 5.19918e-05 8.03571e-09
2.21721e-07 8.03571e-09 -1.67857e-05
0.00124236 -1.03975e-05 -3.04973e-08
-1.03975e-05 2.49415e-05 1.85581e-08
-3.04973e-08 1.85581e-08 -3.99401e-05
0.0013927 -2.40478e-05 -3.31344e-07
-2.40478e-05 9.88694e-05 -4.7372e-08
-3.31344e-07 -4.7372e-08 3.0077e-05
0.00124195 7.13685e-06 -2.20292e-07
7.13685e-06 3.91657e-05 1.13214e-07
-2.20292e-07 1.13214e-07 -2.15731e-05
0.00135317 -5.63902e-06 1.04804e-06
-5.63902e-06 7.50197e-05 -3.88019e-07
1.04804e-06 -3.88019e-07 1.92828e-05
0.00126377 1.26291e-05 2.05412e-07
1.26291e-05 5.68313e-05 4.02899e-07
2.05412e-07 4.02899e-07 -1.2152e-05
0.00125282 -1.65464e-05 7.55218e-07
-1.65464e-05 5.16314e-05 -4.96181e-07
7.55218e-07 -4.96181e-07 -1.70594e-05
0.00131393 -1.75264e-05 -6.03547e-08
-1.75264e-05 5.4219e-05 9.76819e-07
-6.03547e-08 9.76819e-07 -9.48009e-06
0.00134901 4.80466e-06 -5.64316e-07
4.80466e-06 7.17872e-05 1.20231e-07
-5.64316e-07 1.20231e-07 2.17443e-05
0.00131444 2.16982e-05 -9.04251e-07
2.16982e-05 7.02269e-05 -2.97707e-07
-9.04251e-07 -2.97707e-07 8.44581e-08
0.00145528 6.25459e-06 -1.52316e-06
6.25459e-06 0.000112247 7.52615e-08
-1.52316e-06 7.52615e-08 4.3837e-05
0.00133474 2.29922e-05 -1.74381e-06
2.29922e-05 5.43367e-05 -5.19259e-07
-1.74381e-06 -5.19259e-07 -1.88416e-05
0.00141134 -6.43916e-06 -3.01827e-07
-6.43916e-06 8.45935e-05 4.45315e-07
-3.01827e-07 4.45315e-07 1.87369e-05
0.00106938 -1.33018e-05 -1.20442e-06
-1.33018e-05 4.71997e-05 6.49921e-07
-1.20442e-06 6.49921e-07 -8.11655e-06
0.00108042 -2.82081e-05 -2.076e-07
-2.82081e-05 5.07538e-05 5.48035e-07
-2.076e-07 5.48035e-07 -1.13941e-05
0.00115233 -3.45411e-05 -8.37149e-07
-3.45411e-05 7.66253e-05 1.41738e-06
-8.37149e-07 1.41738e-06 4.33561e-06
0.00137802 -2.62878e-05 -1.78466e-07
-2.62878e-05 0.000105389 2.97443e-07
-1.78466e-07 2.97443e-07 4.43035e-05
0.00123597 -1.89975e-05 2.89171e-07
-1.89975e-05 1.19735e-05 1.21276e-06
2.89171e-07 1.21276e-06 -4.39718e-05
0.00125225 -2.80536e-05 5.40037e-07
-2.80536e-05 5.13567e-05 4.33205e-07
5.40037e-07 4.33205e-07 -4.33946e-06
0.00125424 -3.76898e-05 -1.30175e-06
-3.76898e-05 9.25596e-05 1.90001e-08
-1.30175e-06 1.90001e-08 2.00053e-05
0.0011377 -3.2437e-05 -1.05128e-06
-3.2437e-05 2.99949e-06 -3.40623e-06
-1.05128e-06 -3.40623e-06 -5.14557e-05
0.00112105 -2.79411e-05 -7.39589e-07
-2.79411e-05 6.46671e-05 1.42269e-07
-7.39589e-07 1.42269e-07 1.52326e-06
0.00110662 -3.13546e-05 -1.16684e-06
-3.13546e-05 5.34455e-05 -1.57036e-08
-1.16684e-06 -1.57036e-08 -1.55958e-05
0.00114706 -2.78841e-05 -1.10617e-06
-2.78841e-05 8.69703e-05 7.31446e-07
-1.10617e-06 7.31446e-07 1.64785e-05
0.000698709 5.34124e-06 -1.58381e-06
5.34124e-06 -0.000134946 2.08387e-06
-1.58381e-06 2.08387e-06 -0.000172884
0.00090684 -9.01652e-06 -7.27836e-07
-9.01652e-06 -3.19955e-05 9.75621e-07
-7.27836e-07 9.75621e-07 -9.17203e-05
0.00131965 2.56946e-05 2.05322e-07
2.56946e-05 6.2618e-05 -3.44663e-07
2.05322e-07 -3.44663e-07 -9.79914e-06
0.00143694 1.71507e-05 -2.10651e-07
1.71507e-05 8.8814e-05 3.14958e-07
-2.10651e-07 3.14958e-07 1.73522e-05
0.00141044 -7.14858e-06 -3.04523e-07
-7.14858e-06 7.53888e-05 1.82405e-07
-3.04523e-07 1.82405e-07 1.46751e-05
0.00111761 -2.81937e-05 6.08405e-08
-2.81937e-05 6.43158e-05 5.13859e-08
6.08405e-08 5.13859e-08 2.76283e-06
0.00105128 -3.1636e-05 3.06849e-07
-3.1636e-05 3.79962e-05 -2.49962e-07
3.06849e-07 -2.49962e-07 -3.00242e-05
0.00116897 -3.76527e-05 -4.52691e-08
-3.76527e-05 8.11441e-05 2.1829e-09
-4.52691e-08 2.1829e-09 1.40969e-06
0.00128647 -2.18352e-05 7.89911e-08
-2.18352e-05 4.18842e-05 -2.21174e-07
7.89911e-08 -2.21174e-07 -1.26041e-05
0.00126614 -3.82361e-05 -7.47776e-08
-3.82361e-05 8.4869e-05 -5.12588e-07
-7.47776e-08 -5.12588e-07 1.44809e-05
0.00127823 -3.17756e-05 -3.6279e-07
-3.17756e-05 4.75415e-05 -4.73343e-07
-3.6279e-07 -4.73343e-07 -1.70472e-06
0.000709119 8.64215e-06 1.54643e-07
8.64215e-06 -0.000131333 -6.71829e-07
1.54643e-07 -6.71829e-07 -0.000167378
0.00114383 -3.15249e-05 1.81295e-08
-3.15249e-05 7.0927e-05 2.43482e-08
1.81295e-08 2.43482e-08 4.67901e-06
0.00110843 -3.25347e-05 -7.76724e-07
-3.25347e-05 5.01089e-05 3.32747e-08
-7.76724e-07 3.32747e-08 -2.09075e-05
0.00120708 -3.29163e-05 -4.18985e-07
-3.29163e-05 0.00011081 2.02205e-07
-4.18985e-07 2.02205e-07 3.44124e-05
0.00118872 -2.73203e-05 -1.19543e-07
-2.73203e-05 0.00011281 1.0737e-07
-1.19543e-07 1.0737e-07 4.07635e-05
0.00100959 -7.99958e-06 2.38933e-08
-7.99958e-06 2.01875e-05 2.14132e-07
2.38933e-08 2.14132e-07 -3.7423e-05
0.0014676 2.79631e-05 5.78787e-07
2.79631e-05 0.000124579 1.66557e-06
5.78787e-07 1.66557e-06 5.20042e-05
0.00144128 1.76192e-05 8.21656e-07
1.76192e-05 8.08282e-05 -2.82947e-08
8.21656e-07 -2.82947e-08 1.01971e-05
0.00126859 -1.08958e-05 2.81382e-07
-1.08958e-05 -1.50869e-06 -1.8372e-06
2.81382e-07 -1.8372e-06 -5.4917e-05
0.0014316 -2.66541e-05 1.50373e-07
-2.66541e-05 8.42157e-05 -7.29907e-07
1.50373e-07 -7.29907e-07 4.07853e-05
0.00112599 -3.16566e-05 5.56993e-07
-3.16566e-05 6.60943e-05 -3.59848e-07
5.56993e-07 -3.59848e-07 5.11231e-07
0.00133381 -3.84542e-05 1.83405e-06
-3.84542e-05 8.25511e-05 1.48515e-06
1.83405e-06 1.48515e-06 2.23929e-05
0.00093932 -3.31754e-05 7.44878e-07
-3.31754e-05 -1.48964e-05 -1.8605e-06
7.44878e-07 -1.8605e-06 -9.23255e-05
0.0013676 -4.24531e-05 1.38542e-06
-4.24531e-05 0.000170701 -2.32091e-07
1.38542e-06 -2.32091e-07 8.56026e-05
0.000711947 7.55841e-06 7.84923e-07
7.55841e-06 -0.000132399 -2.58759e-06
7.84923e-07 -2.58759e-06 -0.000166121
0.00115316 -2.99321e-06 8.18617e-07
-2.99321e-06 9.09772e-05 -1.31376e-06
8.18617e-07 -1.31376e-06 3.59192e-05
0.00126395 -2.62194e-05 -4.39458e-08
-2.62194e-05 0.000152186 -8.48143e-09
-4.39458e-08 -8.48143e-09 8.15688e-05
0.00110621 -3.06017e-05 8.39136e-07
-3.06017e-05 7.13647e-05 -1.06393e-06
8.39136e-07 -1.06393e-06 -1.12344e-05
0.00108098 -3.26116e-05 3.20297e-07
-3.26116e-05 3.7077e-05 -3.54897e-07
3.20297e-07 -3.54897e-07 -3.30252e-05
0.00114618 -3.40521e-05 1.01077e-06
-3.40521e-05 7.17514e-05 1.9054e-07
1.01077e-06 1.9054e-07 -6.3503e-06
0.000993122 -2.58635e-06 -1.69946e-06
-2.58635e-06 6.67437e-06 -2.16056e-06
-1.69946e-06 -2.16056e-06 -2.89788e-05
0.00105489 6.21443e-06 -1.28956e-06
6.21443e-06 3.9749e-05 -1.22733e-06
-1.28956e-06 -1.22733e-06 -1.61294e-05
0.00126782 1.91275e-05 -1.27043e-07
1.91275e-05 6.20481e-05 -8.84144e-08
-1.27043e-07 -8.84144e-08 -1.73475e-06
0.00109914 1.78846e-05 -9.61374e-07
1.78846e-05 6.23181e-05 -4.79316e-07
-9.61374e-07 -4.79316e-07 -4.33171e-06
0.00110242 2.46614e-05 -6.93717e-07
2.46614e-05 5.98951e-05 -3.50565e-07
-6.93717e-07 -3.50565e-07 -3.46795e-06
0.0010559 2.77429e-05 -6.68559e-07
2.77429e-05 3.82514e-05 -2.21335e-07
-6.68559e-07 -2.21335e-07 -3.2417e-05
0.00117964 3.3323e-05 -5.38279e-07
3.3323e-05 5.61297e-05 -9.70708e-07
-5.38279e-07 -9.70708e-07 -9.89205e-06
0.00123108 3.23953e-05 -7.27685e-08
3.23953e-05 6.08636e-05 8.1322e-09
-7.27685e-08 8.1322e-09 -2.98066e-06
0.000951786 3.07152e-05 -3.35129e-07
3.07152e-05 -8.79227e-06 -3.95417e-07
-3.35129e-07 -3.95417e-07 -8.23042e-05
0.00124647 3.67504e-05 -1.01229e-06
3.67504e-05 0.000110079 -5.84936e-07
-1.01229e-06 -5.84936e-07 3.33278e-05
0.00105632 7.93009e-06 4.51215e-08
7.93009e-06 4.02292e-05 -3.91966e-08
4.51215e-08 -3.91966e-08 -1.55559e-05
0.0010371 1.94857e-05 3.73824e-07
1.94857e-05 3.27304e-05 2.52238e-07
3.73824e-07 2.52238e-07 -3.57644e-05
0.00116392 3.29193e-05 -1.72123e-07
3.29193e-05 8.91364e-05 -3.30568e-07
-1.72123e-07 -3.30568e-07 1.89922e-05
0.00106729 2.68374e-05 -3.03087e-07
2.68374e-05 4.5178e-05 1.49772e-08
-3.03087e-07 1.49772e-08 -2.73226e-05
0.0011253 3.13218e-05 -6.11014e-07
3.13218e-05 6.91179e-05 -3.42741e-07
-6.11014e-07 -3.42741e-07 -3.83933e-06
0.00140869 2.02244e-05 -3.48213e-07
2.02244e-05 0.000108364 -4.09777e-07
-3.48213e-07 -4.09777e-07 5.62693e-05
0.00131506 3.89811e-05 5.44034e-07
3.89811e-05 0.00012075 -4.19183e-08
5.44034e-07 -4.19183e-08 4.84497e-05
0.000974168 3.41924e-05 -5.68328e-07
3.41924e-05 -6.68344e-05 7.46647e-07
-5.68328e-07 7.46647e-07 -0.000130445
0.0012446 3.6325e-05 7.17457e-07
3.6325e-05 0.000127098 5.90303e-07
7.17457e-07 5.90303e-07 4.78981e-05
0.000991544 3.65269e-05 -1.11105e-06
3.65269e-05 -1.42891e-05 -2.02402e-07
-1.11105e-06 -2.02402e-07 -9.99087e-05
0.000965552 2.08093e-05 1.08356e-06
2.08093e-05 2.06086e-07 1.07207e-06
1.08356e-06 1.07207e-06 -6.96666e-05
0.00101592 3.0341e-05 7.48737e-07
3.0341e-05 2.27875e-05 1.44375e-07
7.48737e-07 1.44375e-07 -5.53404e-05
0.00116598 3.44798e-05 2.48195e-07
3.44798e-05 8.7954e-05 5.16618e-07
2.48195e-07 5.16618e-07 1.13629e-05
0.000993167 3.12677e-05 9.71157e-07
3.12677e-05 4.27039e-06 -8.26332e-09
9.71157e-07 -8.26332e-09 -7.30957e-05
0.00163837 1.2593e-05 4.15053e-07
1.2593e-05 0.000164776 1.29365e-07
4.15053e-07 1.29365e-07 0.000122072
0.00113411 3.27936e-05 1.96592e-06
3.27936e-05 -4.2849e-05 1.39114e-07
1.96592e-06 1.39114e-07 -9.36172e-05
0.00122601 4.24883e-05 1.70845e-06
4.24883e-05 7.32346e-05 -3.04642e-07
1.70845e-06 -3.04642e-07 -1.02177e-05
0.00095154 3.58959e-05 8.86088e-07
3.58959e-05 -1.36672e-05 1.22403e-06
8.86088e-07 1.22403e-06 -0.000106584
0.0010553 7.60823e-06 -5.43414e-07
7.60823e-06 4.04645e-05 -8.79532e-07
-5.43414e-07 -8.79532e-07 -1.49954e-05
0.00105662 1.84858e-05 2.21715e-07
1.84858e-05 4.74797e-05 3.32099e-07
2.21715e-07 3.32099e-07 -2.13554e-05
0.00113635 2.73975e-05 4.15597e-07
2.73975e-05 9.05204e-05 4.37345e-07
4.15597e-07 4.37345e-07 1.33652e-05
0.0010494 9.82671e-06 -5.05307e-07
9.82671e-06 3.90729e-05 -1.29966e-06
-5.05307e-07 -1.29966e-06 -1.45121e-05
0.000954619 1.50467e-05 -6.61056e-07
1.50467e-05 -1.50226e-06 -1.24472e-06
-6.61056e-07 -1.24472e-06 -7.00132e-05
0.00104688 6.32622e-06 8.87432e-08
6.32622e-06 3.91516e-05 2.68058e-08
8.87432e-08 2.68058e-08 -1.36933e-05
0.00111353 2.23766e-05 -1.43966e-07
2.23766e-05 7.97543e-05 -3.53514e-07
-1.43966e-07 -3.53514e-07 3.03112e-06
0.00101609 1.30598e-05 1.88596e-07
1.30598e-05 2.95442e-05 3.42901e-07
1.88596e-07 3.42901e-07 -3.81875e-05
0.00119452 2.67145e-05 4.34444e-07
2.67145e-05 0.000118381 3.85382e-07
4.34444e-07 3.85382e-07 3.58069e-05
0.000985592 7.32133e-06 5.37234e-07
7.32133e-06 1.70727e-05 9.28786e-07
5.37234e-07 9.28786e-07 -6.02148e-05
0.000939111 2.03056e-05 5.92099e-07
2.03056e-05 -8.19221e-06 1.22582e-06
5.92099e-07 1.22582e-06 -7.63012e-05
0.00103503 -1.42493e-07 2.91069e-07
-1.42493e-07 3.46836e-05 1.23298e-06
2.91069e-07 1.23298e-06 -1.79467e-05
0.00101076 1.33722e-06 3.17901e-07
1.33722e-06 1.03268e-05 1.95088e-06
3.17901e-07 1.95088e-06 -2.18972e-05
0.00101317 -1.62544e-06 1.34094e-08
-1.62544e-06 1.18759e-05 1.30277e-08
1.34094e-08 1.30277e-08 -2.043e-05
0.00156239 -5.01001e-06 8.14456e-07
-5.01001e-06 0.000271342 2.08894e-06
8.14456e-07 2.08894e-06 0.000272223
0.00101454 -2.4162e-06 -5.1971e-07
-2.4162e-06 1.33465e-05 -1.99662e-06
-5.1971e-07 -1.99662e-06 -1.93436e-05
0.0015803 -6.67077e-06 -1.0097e-06
-6.67077e-06 0.000283033 -1.31222e-06
-1.0097e-06 -1.31222e-06 0.000283273
0.00121366 -6.8864e-06 5.27237e-06
-6.8864e-06 9.89236e-05 6.89114e-06
5.27237e-06 6.89114e-06 0.000114555
0.00159894 -8.15475e-06 -3.5763e-06
-8.15475e-06 0.000295292 -4.71075e-06
-3.5763e-06 -4.71075e-06 0.000294814
0.0011574 -8.95233e-06 2.09261e-06
-8.95233e-06 7.5011e-05 2.61835e-06
2.09261e-06 2.61835e-06 9.01497e-05
0.00110079 -1.08825e-05 -1.80701e-06
-1.08825e-05 5.10407e-05 -1.66077e-06
-1.80701e-06 -1.66077e-06 6.56797e-05
0.000916098 9.46384e-06 1.6093e-06
9.46384e-06 -3.94764e-05 -3.25384e-06
1.6093e-06 -3.25384e-06 -4.2312e-05
0.000926119 1.08821e-05 -8.79182e-08
1.08821e-05 -3.03746e-05 1.5035e-08
-8.79182e-08 1.5035e-08 -3.48279e-05
0.0024286 1.56498e-05 8.29955e-06
1.56498e-05 0.000709717 -4.01057e-06
8.29955e-06 -4.01057e-06 0.000730034
0.00092858 1.19111e-05 -2.62515e-06
1.19111e-05 -2.51955e-05 3.28371e-06
-2.62515e-06 3.28371e-06 -3.12451e-05
0.00248113 1.79288e-05 -3.20226e-07
1.79288e-05 0.00074083 -4.46556e-08
-3.20226e-07 -4.46556e-08 0.000759845
0.00251354 2.01166e-05 -1.1055e-05
2.01166e-05 0.000761152 3.98259e-06
-1.1055e-05 3.98259e-06 0.000779123
0.00126216 7.25201e-06 3.07173e-07
7.25201e-06 5.03388e-05 3.44169e-07
3.07173e-07 3.44169e-07 -1.06062e-05
0.00128756 -1.15062e-05 -3.57618e-07
-1.15062e-05 4.50499e-05 -3.55657e-07
-3.57618e-07 -3.55657e-07 -2.01989e-05
0.00125017 -4.76777e-06 1.7935e-06
-4.76777e-06 2.60871e-05 -1.62065e-06
1.7935e-06 -1.62065e-06 -2.84012e-05
0.00127417 -2.34998e-05 -1.24742e-06
-2.34998e-05 4.22298e-05 -8.21195e-08
-1.24742e-06 -8.21195e-08 -2.73248e-05
0.00126625 -1.16257e-05 -4.4616e-07
-1.16257e-05 5.5245e-05 2.43174e-07
-4.4616e-07 2.43174e-07 -1.34672e-05
0.00127989 5.77435e-06 -5.31375e-07
5.77435e-06 6.11307e-05 -2.04774e-07
-5.31375e-07 -2.04774e-07 -9.05688e-06
0.00127627 1.47824e-05 2.1672e-07
1.47824e-05 6.10566e-05 -5.25659e-08
2.1672e-07 -5.25659e-08 -8.27426e-06
0.00127959 -2.01694e-05 -2.40966e-07
-2.01694e-05 6.29172e-05 3.77929e-07
-2.40966e-07 3.77929e-07 -5.85258e-06
0.00129236 -1.67744e-05 3.62387e-07
-1.67744e-05 4.48788e-05 -1.10597e-07
3.62387e-07 -1.10597e-07 -1.81543e-05
0.00127816 3.32847e-06 2.49889e-07
3.32847e-06 3.63281e-05 -1.51483e-07
2.49889e-07 -1.51483e-07 -1.39013e-05
0.0012382 8.35989e-06 3.74827e-07
8.35989e-06 4.49369e-05 -7.91859e-08
3.74827e-07 -7.91859e-08 -2.40114e-05
0.00132555 -2.76862e-05 6.25076e-07
-2.76862e-05 8.58574e-05 -6.52987e-08
6.25076e-07 -6.52987e-08 1.89673e-05
0.00130463 -6.4971e-06 -5.67116e-07
-6.4971e-06 3.47773e-05 1.27489e-06
-5.67116e-07 1.27489e-06 -1.83485e-05
0.00129137 2.50152e-05 -1.05319e-06
2.50152e-05 4.65303e-05 -1.30896e-06
-1.05319e-06 -1.30896e-06 -2.62139e-05
0.00147338 1.68434e-05 -9.32187e-07
1.68434e-05 0.000108922 3.42734e-07
-9.32187e-07 3.42734e-07 3.80019e-05
0.0014467 -7.02606e-06 -1.76784e-07
-7.02606e-06 9.57414e-05 1.20003e-06
-1.76784e-07 1.20003e-06 3.50606e-05
0.00113151 -2.77148e-05 -5.74255e-07
-2.77148e-05 7.05494e-05 3.78109e-07
-5.74255e-07 3.78109e-07 9.02193e-06
0.00124724 -3.40319e-05 -2.2499e-07
-3.40319e-05 0.000131205 8.20239e-07
-2.2499e-07 8.20239e-07 6.39276e-05
0.00114418 -3.7323e-05 -1.25701e-06
-3.7323e-05 7.13212e-05 1.63372e-06
-1.25701e-06 1.63372e-06 -8.86423e-06
0.00134016 -2.20361e-05 2.71467e-08
-2.20361e-05 6.69682e-05 4.71938e-07
2.71467e-08 4.71938e-07 1.18538e-05
0.00113779 -3.19468e-05 -8.43155e-07
-3.19468e-05 -1.74484e-05 -4.67607e-07
-8.43155e-07 -4.67607e-07 -6.72498e-05
0.00123156 -3.69343e-05 -1.91364e-06
-3.69343e-05 6.91639e-05 -1.90697e-06
-1.91364e-06 -1.90697e-06 7.50649e-07
0.00115269 -3.16718e-05 -6.12822e-07
-3.16718e-05 7.55318e-05 1.75042e-07
-6.12822e-07 1.75042e-07 9.15248e-06
0.00110448 -3.24509e-05 -1.82354e-06
-3.24509e-05 4.77483e-05 2.94115e-07
-1.82354e-06 2.94115e-07 -2.265e-05
0.00121185 -3.27804e-05 -1.43936e-06
-3.27804e-05 0.000113412 2.51198e-07
-1.43936e-06 2.51198e-07 3.7547e-05
0.000700427 1.04805e-05 -7.66348e-07
1.04805e-05 -0.000135374 1.3864e-06
-7.66348e-07 1.3864e-06 -0.00017118
0.00128474 -2.87994e-05 -8.52222e-07
-2.87994e-05 0.000159845 1.11505e-06
-8.52222e-07 1.11505e-06 8.79973e-05
0.000881377 -8.9909e-06 -7.54275e-07
-8.9909e-06 -4.36546e-05 1.61014e-06
-7.54275e-07 1.61014e-06 -0.000102173
0.0013862 2.73371e-05 -4.89231e-08
2.73371e-05 9.02772e-05 3.59889e-07
-4.89231e-08 3.59889e-07 1.84479e-05
0.00142446 1.64631e-05 2.71267e-07
1.64631e-05 6.9216e-05 2.04144e-07
2.71267e-07 2.04144e-07 -1.33758e-06
0.00131583 -1.06386e-05 -1.99696e-07
-1.06386e-05 2.15801e-05 -2.02479e-07
-1.99696e-07 -2.02479e-07 -3.3027e-05
0.00114544 -3.19371e-05 6.6777e-08
-3.19371e-05 7.5078e-05 1.61448e-07
6.6777e-08 1.61448e-07 9.4173e-06
0.000997762 -3.38115e-05 -7.26755e-08
-3.38115e-05 1.38137e-05 8.30878e-08
-7.26755e-08 8.30878e-08 -6.2781e-05
0.00132468 -4.14184e-05 -6.22801e-07
-4.14184e-05 0.000150412 7.28435e-07
-6.22801e-07 7.28435e-07 6.61296e-05
0.00145015 -2.74544e-05 1.88883e-07
-2.74544e-05 9.72493e-05 9.7243e-08
1.88883e-07 9.7243e-08 5.39883e-05
0.00124967 -3.76244e-05 -5.02697e-08
-3.76244e-05 4.08241e-05 -5.87638e-07
-5.02697e-08 -5.87638e-07 -1.91579e-05
0.000852573 8.25878e-06 1.00225e-07
8.25878e-06 -6.34078e-05 -6.2187e-07
1.00225e-07 -6.2187e-07 -9.61022e-05
0.00114227 -6.54851e-07 -2.24759e-08
-6.54851e-07 8.6407e-05 1.15662e-07
-2.24759e-08 1.15662e-07 3.12893e-05
0.00107504 -3.25424e-05 -3.53626e-07
-3.25424e-05 3.46292e-05 1.39684e-07
-3.53626e-07 1.39684e-07 -3.5705e-05
0.00116703 -3.43443e-05 4.3655e-08
-3.43443e-05 8.20172e-05 5.17877e-08
4.3655e-08 5.17877e-08 4.04203e-06
0.00112118 -3.05655e-05 1.29788e-07
-3.05655e-05 7.97679e-05 -1.96116e-07
1.29788e-07 -1.96116e-07 -2.18072e-06
0.00121157 -2.7087e-05 -5.75269e-07
-2.7087e-05 0.000125684 7.98655e-07
-5.75269e-07 7.98655e-07 5.44668e-05
0.00137413 2.85411e-05 1.02008e-06
2.85411e-05 8.32122e-05 1.74408e-06
1.02008e-06 1.74408e-06 1.434e-05
0.00150232 1.18796e-05 7.00911e-07
1.18796e-05 9.79699e-05 -8.32798e-07
7.00911e-07 -8.32798e-07 3.19989e-05
0.00136579 -1.8453e-05 -6.61683e-07
-1.8453e-05 2.46016e-05 -1.51784e-06
-6.61683e-07 -1.51784e-06 -1.27154e-05
0.00166515 -3.77278e-05 7.28987e-07
-3.77278e-05 0.000191931 -3.67113e-08
7.28987e-07 -3.67113e-08 0.000149773
0.00102159 -3.26715e-05 2.74344e-07
-3.26715e-05 1.78602e-05 -6.12674e-07
2.74344e-07 -6.12674e-07 -5.39461e-05
0.00135132 -4.33257e-05 1.9538e-06
-4.33257e-05 0.000141933 1.76945e-06
1.9538e-06 1.76945e-06 5.85198e-05
0.00138206 -4.18208e-05 1.13827e-06
-4.18208e-05 0.000195915 -2.18072e-06
1.13827e-06 -2.18072e-06 0.000111005
0.00100328 6.67263e-06 6.42573e-07
6.67263e-06 7.82562e-06 -1.86988e-06
6.42573e-07 -1.86988e-06 -2.20444e-05
0.00105669 -8.36349e-06 3.27236e-07
-8.36349e-06 4.03868e-05 -1.22171e-06
3.27236e-07 -1.22171e-06 -6.98058e-06
0.000834488 5.17882e-06 1.82532e-07
5.17882e-06 -6.48413e-05 -1.85771e-06
1.82532e-07 -1.85771e-06 -0.000118227
0.00115563 -2.19278e-05 7.40351e-08
-2.19278e-05 9.98347e-05 -3.96356e-07
7.40351e-08 -3.96356e-07 2.86502e-05
0.00106894 -2.87397e-05 5.71252e-07
-2.87397e-05 5.88595e-05 -8.78741e-07
5.71252e-07 -8.78741e-07 -2.346e-05
0.00118029 -3.3079e-05 1.60147e-06
-3.3079e-05 0.000105317 -4.96082e-08
1.60147e-06 -4.96082e-08 1.75815e-05
0.00103111 -3.37485e-05 6.81766e-07
-3.37485e-05 1.45591e-05 -3.9049e-07
6.81766e-07 -3.9049e-07 -5.99824e-05
0.00141416 -3.92754e-05 3.68199e-07
-3.92754e-05 0.000210043 -6.06425e-08
3.68199e-07 -6.06425e-08 0.000125943
0.00105268 7.85052e-06 -1.07852e-06
7.85052e-06 3.87688e-05 -1.29691e-06
-1.07852e-06 -1.29691e-06 -1.70717e-05
0.0011215 2.17009e-05 -5.91654e-07
2.17009e-05 7.41946e-05 -3.96313e-07
-5.91654e-07 -3.96313e-07 5.97401e-06
0.00160117 2.04139e-05 1.03374e-07
2.04139e-05 0.000201171 -1.38205e-07
1.03374e-07 -1.38205e-07 0.000149549
0.00113224 2.79638e-05 -1.01324e-06
2.79638e-05 7.76575e-05 1.63688e-08
-1.01324e-06 1.63688e-08 5.60477e-06
0.00121484 3.34942e-05 -8.08663e-07
3.34942e-05 0.000114646 -9.33503e-07
-8.08663e-07 -9.33503e-07 4.51223e-05
0.0010637 3.03918e-05 -9.00998e-07
3.03918e-05 4.12507e-05 -4.54128e-07
-9.00998e-07 -4.54128e-07 -3.1287e-05
0.00135237 3.93419e-05 -2.20725e-07
3.93419e-05 0.000136577 -3.69202e-07
-2.20725e-07 -3.69202e-07 6.49732e-05
0.00121626 3.58087e-05 -9.01475e-07
3.58087e-05 5.6274e-05 1.43508e-06
-9.01475e-07 1.43508e-06 -5.95551e-06
0.00112468 3.48835e-05 -2.32015e-08
3.48835e-05 6.9982e-05 -3.19581e-07
-2.32015e-08 -3.19581e-07 -9.85265e-06
0.00115131 3.82481e-05 -2.47667e-06
3.82481e-05 6.32539e-05 -8.97497e-07
-2.47667e-06 -8.97497e-07 -2.29901e-05
0.000970415 2.04238e-05 3.16838e-07
2.04238e-05 2.60696e-06 3.23623e-07
3.16838e-07 3.23623e-07 -6.73103e-05
0.0010887 3.11302e-05 -3.28361e-07
3.11302e-05 5.79092e-05 -4.04002e-07
-3.28361e-07 -4.04002e-07 -1.93299e-05
0.00117851 3.45337e-05 -2.13577e-07
3.45337e-05 9.47795e-05 -4.50097e-07
-2.13577e-07 -4.50097e-07 1.88456e-05
0.00110432 3.20849e-05 -2.53941e-08
3.20849e-05 5.80989e-05 -1.98531e-07
-2.53941e-08 -1.98531e-07 -1.88256e-05
0.00151902 1.18423e-05 4.74547e-08
1.18423e-05 0.000107853 -9.38872e-07
4.74547e-08 -9.38872e-07 6.59486e-05
0.00121751 3.25554e-05 1.785e-07
3.25554e-05 7.12793e-06 1.86263e-07
1.785e-07 1.86263e-07 -4.58111e-05
0.00138468 4.4103e-05 -2.79308e-07
4.4103e-05 0.000149249 -1.50377e-07
-2.79308e-07 -1.50377e-07 6.68608e-05
0.000977543 3.6617e-05 1.60546e-07
3.6617e-05 -5.05005e-06 1.4526e-07
1.60546e-07 1.4526e-07 -9.76825e-05
0.00116191 3.07151e-05 2.22063e-07
3.07151e-05 0.000100971 1.78765e-07
2.22063e-07 1.78765e-07 2.27894e-05
0.00136687 -6.47296e-06 1.96364e-07
-6.47296e-06 4.41477e-05 9.61954e-07
1.96364e-07 9.61954e-07 -5.32868e-06
0.00125172 3.49537e-05 9.81752e-07
3.49537e-05 0.000137322 5.05937e-07
9.81752e-07 5.05937e-07 5.36355e-05
0.00117445 3.64022e-05 7.08508e-07
3.64022e-05 9.5986e-05 6.61558e-07
7.08508e-07 6.61558e-07 1.12116e-05
0.00147628 3.27952e-05 3.31508e-06
3.27952e-05 4.91847e-05 -9.39769e-07
3.31508e-06 -9.39769e-07 1.37203e-05
0.00121511 4.5892e-05 3.75979e-06
4.5892e-05 2.74412e-05 -7.50442e-07
3.75979e-06 -7.50442e-07 -5.58805e-05
0.00156936 4.71677e-05 9.13052e-07
4.71677e-05 0.000278667 1.76742e-06
9.13052e-07 1.76742e-06 0.000178851
0.00115042 1.92543e-05 -3.92976e-07
1.92543e-05 9.36329e-05 -4.29055e-07
-3.92976e-07 -4.29055e-07 2.53138e-05
0.00113044 2.72695e-05 -5.41798e-08
2.72695e-05 8.8007e-05 -6.57799e-08
-5.41798e-08 -6.57799e-08 1.08365e-05
0.0011412 3.04608e-05 5.66935e-07
3.04608e-05 9.41359e-05 3.91973e-07
5.66935e-07 3.91973e-07 1.07374e-05
0.00104879 8.55601e-06 -3.88384e-07
8.55601e-06 4.01534e-05 -1.2784e-06
-3.88384e-07 -1.2784e-06 -1.27561e-05
0.0010882 1.59722e-05 -1.00386e-07
1.59722e-05 6.51329e-05 -4.27211e-07
-1.00386e-07 -4.27211e-07 -2.28388e-06
0.00101349 1.94837e-05 -5.46862e-07
1.94837e-05 3.02848e-05 -9.67065e-07
-5.46862e-07 -9.67065e-07 -4.71447e-05
0.00104094 -1.02289e-06 1.16879e-07
-1.02289e-06 3.76788e-05 9.29129e-09
1.16879e-07 9.29129e-09 -1.50772e-05
0.000943031 1.37161e-05 6.15264e-08
1.37161e-05 -6.26941e-06 3.66585e-07
6.15264e-08 3.66585e-07 -7.42366e-05
0.00112361 2.31478e-05 -2.23893e-08
2.31478e-05 8.31868e-05 -3.47229e-07
-2.23893e-08 -3.47229e-07 -6.23836e-09
0.00111391 1.47998e-05 1.64218e-07
1.47998e-05 8.04945e-05 3.09321e-07
1.64218e-07 3.09321e-07 3.86748e-06
0.00120955 3.17005e-05 2.85479e-07
3.17005e-05 0.000120286 1.39791e-07
2.85479e-07 1.39791e-07 3.28723e-05
0.00105217 9.34916e-06 5.12743e-07
9.34916e-06 4.63065e-05 7.8429e-07
5.12743e-07 7.8429e-07 -3.78873e-05
0.00112365 2.24682e-05 3.72085e-07
2.24682e-05 8.44234e-05 7.92962e-07
3.72085e-07 7.92962e-07 7.31975e-06
0.00106728 1.21253e-05 4.88407e-07
1.21253e-05 5.55961e-05 8.77295e-07
4.88407e-07 8.77295e-07 -1.23345e-05
0.00104305 -4.37234e-06 1.26303e-07
-4.37234e-06 3.92106e-05 1.25427e-06
1.26303e-07 1.25427e-06 -1.37268e-05
0.00101024 2.61994e-06 1.52993e-07
2.61994e-06 1.00768e-05 1.92442e-06
1.52993e-07 1.92442e-06 -2.22553e-05
0.00101293 -4.86564e-07 2.29871e-09
-4.86564e-07 1.14652e-05 1.28857e-08
2.29871e-09 1.28857e-08 -2.07754e-05
0.00155604 -2.75599e-06 4.53358e-07
-2.75599e-06 0.000266271 2.07233e-06
4.53358e-07 2.07233e-06 0.000267441
0.00101809 -2.95863e-06 -3.09422e-07
-2.95863e-06 1.44132e-05 -1.9693e-06
-3.09422e-07 -1.9693e-06 -1.79296e-05
0.00157838 -4.71424e-06 -7.05833e-07
-4.71424e-06 0.000279442 -1.30204e-06
-7.05833e-07 -1.30204e-06 0.000280226
0.00121032 -4.94092e-06 3.6178e-06
-4.94092e-06 9.38245e-05 6.85741e-06
3.6178e-06 6.85741e-06 0.000110091
0.00159446 -6.44158e-06 -2.51872e-06
-6.44158e-06 0.00029022 -4.69963e-06
-2.51872e-06 -4.69963e-06 0.000290393
0.00115824 -7.06333e-06 1.4191e-06
-7.06333e-06 7.15272e-05 2.61827e-06
1.4191e-06 2.61827e-06 8.73956e-05
0.00110214 -8.98703e-06 -1.42625e-06
-8.98703e-06 4.77035e-05 -1.66651e-06
-1.42625e-06 -1.66651e-06 6.30817e-05
0.0010093 5.10904e-06 5.04057e-07
5.10904e-06 7.3519e-06 -1.85526e-06
5.04057e-07 -1.85526e-06 -2.06489e-05
0.000924066 7.94888e-06 1.23755e-06
7.94888e-06 -3.96709e-05 -3.23856e-06
1.23755e-06 -3.23856e-06 -4.09365e-05
0.000934983 9.48276e-06 -8.74187e-08
9.48276e-06 -3.04536e-05 5.19525e-09
-8.74187e-08 5.19525e-09 -3.33675e-05
0.00238927 1.31492e-05 7.19344e-06
1.31492e-05 0.000685444 -4.02128e-06
7.19344e-06 -4.02128e-06 0.000706897
0.000943865 1.08869e-05 -2.14199e-06
1.08869e-05 -2.18891e-05 3.27366e-06
-2.14199e-06 3.27366e-06 -2.64248e-05
0.00242888 1.56444e-05 -3.21967e-07
1.56444e-05 0.000710388 -3.41663e-08
-3.21967e-07 -3.41663e-08 0.000730573
0.0024785 1.78818e-05 -1.0159e-05
1.78818e-05 0.000739841 4.04437e-06
-1.0159e-05 4.04437e-06 0.000758767
0.00120689 1.89623e-06 8.02077e-07
1.89623e-06 6.15539e-07 -2.00315e-07
8.02077e-07 -2.00315e-07 -4.97924e-05
0.00126332 -1.597e-05 -8.07942e-08
-1.597e-05 3.20583e-05 -1.13454e-06
-8.07942e-08 -1.13454e-06 -3.03114e-05
0.00130425 -2.05285e-05 -8.31337e-07
-2.05285e-05 7.30436e-05 9.26127e-07
-8.31337e-07 9.26127e-07 4.30355e-06
0.00129602 1.71037e-05 -3.16483e-07
1.71037e-05 6.85864e-05 -7.59949e-07
-3.16483e-07 -7.59949e-07 -1.02993e-06
0.001282 8.21512e-06 1.0563e-07
8.21512e-06 6.82749e-05 -3.1081e-07
1.0563e-07 -3.1081e-07 -1.65723e-10
0.00131853 -2.72807e-05 -2.64196e-08
-2.72807e-05 8.23504e-05 2.83813e-07
-2.64196e-08 2.83813e-07 1.45571e-05
0.00129742 -6.27283e-06 -5.94518e-07
-6.27283e-06 3.40163e-05 2.61118e-07
-5.94518e-07 2.61118e-07 -1.77278e-05
0.00130523 8.90562e-07 1.10471e-06
8.90562e-07 8.26284e-05 -9.56746e-07
1.10471e-06 -9.56746e-07 1.53544e-05
0.00130645 -2.14068e-05 -7.79381e-08
-2.14068e-05 5.70245e-05 9.15714e-07
-7.79381e-08 9.15714e-07 -4.25266e-06
0.0012813 -1.95019e-05 -1.70619e-07
-1.95019e-05 4.10352e-05 -6.18351e-07
-1.70619e-07 -6.18351e-07 -4.80382e-06
0.00130901 2.67388e-05 -3.53569e-07
2.67388e-05 5.79237e-05 -6.48159e-07
-3.53569e-07 -6.48159e-07 -1.31583e-05
0.00142117 1.51186e-05 -7.54518e-07
1.51186e-05 6.41038e-05 3.41445e-07
-7.54518e-07 3.41445e-07 -6.38856e-06
0.0013633 -1.0414e-05 -4.73699e-07
-1.0414e-05 4.47406e-05 1.0278e-06
-4.73699e-07 1.0278e-06 -1.10617e-05
0.00116128 -3.2171e-05 -4.77403e-07
-3.2171e-05 8.23787e-05 7.13739e-07
-4.77403e-07 7.13739e-07 1.66385e-05
0.0010514 -3.43737e-05 -5.71527e-07
-3.43737e-05 4.01406e-05 1.97955e-06
-5.71527e-07 1.97955e-06 -3.56039e-05
0.00127398 -4.02552e-05 -1.58478e-06
-4.02552e-05 0.000126373 1.35316e-06
-1.58478e-06 1.35316e-06 4.29205e-05
0.00144095 -2.82177e-05 1.65495e-06
-2.82177e-05 9.72942e-05 5.74979e-07
1.65495e-06 5.74979e-07 5.42095e-05
0.00117585 -3.68863e-05 -2.59767e-06
-3.68863e-05 4.05417e-06 -1.92981e-06
-2.59767e-06 -1.92981e-06 -5.57721e-05
0.00106812 -3.24594e-05 -1.0182e-06
-3.24594e-05 3.1701e-05 3.01911e-07
-1.0182e-06 3.01911e-07 -3.88631e-05
0.00118621 -3.46191e-05 -1.25716e-06
-3.46191e-05 9.14335e-05 -3.20568e-08
-1.25716e-06 -3.20568e-08 1.35915e-05
0.00112488 -3.03444e-05 -4.1589e-07
-3.03444e-05 8.2801e-05 3.97398e-07
-4.1589e-07 3.97398e-07 1.51356e-06
0.000992229 8.83477e-06 -6.98392e-07
8.83477e-06 5.10454e-06 1.31091e-06
-6.98392e-07 1.31091e-06 -2.65567e-05
0.00113166 1.76908e-06 -5.49159e-07
1.76908e-06 8.20255e-05 1.61118e-06
-5.49159e-07 1.61118e-06 2.67964e-05
0.00114953 -2.66284e-05 -1.27909e-06
-2.66284e-05 9.44787e-05 1.70067e-06
-1.27909e-06 1.70067e-06 2.2721e-05
0.0013128 2.77787e-05 1.22537e-07
2.77787e-05 5.26408e-05 3.19173e-07
1.22537e-07 3.19173e-07 -1.66362e-05
0.00100599 6.67767e-06 -4.51401e-08
6.67767e-06 8.98007e-06 1.48026e-10
-4.51401e-08 1.48026e-10 -2.08972e-05
0.000947953 9.63568e-08 -3.02011e-07
9.63568e-08 -1.27739e-05 2.49924e-09
-3.02011e-07 2.49924e-09 -6.06939e-05
0.00151129 1.16183e-05 1.74286e-07
1.16183e-05 0.000100846 4.53466e-07
1.74286e-07 4.53466e-07 3.54353e-05
0.0012815 -1.90671e-05 -2.24163e-07
-1.90671e-05 -1.24181e-05 -3.27242e-07
-2.24163e-07 -3.27242e-07 -5.25584e-05
0.00100542 -3.2377e-05 -1.49071e-07
-3.2377e-05 9.58062e-06 4.80474e-07
-1.49071e-07 4.80474e-07 -6.18072e-05
0.00125859 -4.04318e-05 -2.04134e-07
-4.04318e-05 0.00013624 1.70474e-07
-2.04134e-07 1.70474e-07 5.04549e-05
0.00118277 -4.079e-05 5.15995e-07
-4.079e-05 5.81419e-05 6.38295e-07
5.15995e-07 6.38295e-07 -2.4145e-05
0.0014765 -3.72874e-05 9.97254e-09
-3.72874e-05 0.000102595 -9.53622e-07
9.97254e-09 -9.53622e-07 6.01927e-05
0.00108241 7.81471e-07 2.59887e-07
7.81471e-07 5.69427e-05 -5.03463e-07
2.59887e-07 -5.03463e-07 5.26001e-06
0.00114628 -1.79563e-05 -3.70562e-07
-1.79563e-05 9.58713e-05 5.13968e-07
-3.70562e-07 5.13968e-07 2.44711e-05
0.00114096 -3.50601e-05 3.62144e-07
-3.50601e-05 6.72873e-05 2.4072e-07
3.62144e-07 2.4072e-07 -6.93292e-06
0.00123832 -3.70277e-05 -8.85593e-07
-3.70277e-05 0.000122791 -3.16652e-07
-8.85593e-07 -3.16652e-07 4.05422e-05
0.00111277 -3.21484e-05 3.40306e-07
-3.21484e-05 7.19462e-05 2.63669e-07
3.40306e-07 2.63669e-07 -1.70916e-05
0.00109732 -2.90993e-05 3.10867e-07
-2.90993e-05 7.22144e-05 -3.4322e-07
3.10867e-07 -3.4322e-07 -9.75536e-06
0.00140035 2.99835e-05 1.48739e-06
2.99835e-05 8.7926e-05 1.36232e-06
1.48739e-06 1.36232e-06 1.71785e-05
0.00153916 2.85737e-06 3.68588e-08
2.85737e-06 0.000103878 -1.65305e-06
3.68588e-08 -1.65305e-06 5.43421e-05
0.00164593 -3.32687e-05 -1.68302e-06
-3.32687e-05 0.000129154 -5.81303e-07
-1.68302e-06 -5.81303e-07 0.000107736
0.00143978 -4.60526e-05 2.63176e-06
-4.60526e-05 0.000134253 2.07277e-06
2.63176e-06 2.07277e-06 6.67099e-05
0.00104002 -3.52345e-05 3.09364e-07
-3.52345e-05 3.14771e-05 -1.41881e-06
3.09364e-07 -1.41881e-06 -4.62053e-05
0.00152672 -4.78916e-05 9.31802e-07
-4.78916e-05 0.000261189 -1.38551e-06
9.31802e-07 -1.38551e-06 0.000167413
0.000849757 1.96425e-06 1.72222e-07
1.96425e-06 -6.24634e-05 -1.66578e-06
1.72222e-07 -1.66578e-06 -0.000109013
0.00104492 -7.17945e-06 5.34916e-07
-7.17945e-06 3.70762e-05 -1.2136e-06
5.34916e-07 -1.2136e-06 -1.23477e-05
0.00129355 -1.95883e-06 -1.57833e-07
-1.95883e-06 0.000165818 -3.95767e-07
-1.57833e-07 -3.95767e-07 0.000104735
0.000907886 -5.81514e-07 3.09939e-08
-5.81514e-07 -1.90942e-05 -1.07407e-06
3.09939e-08 -1.07407e-06 -8.94098e-05
0.00120743 -2.79165e-05 3.02427e-07
-2.79165e-05 0.000126776 -2.25652e-07
3.02427e-07 -2.25652e-07 4.59132e-05
0.000971251 -2.83872e-05 1.01344e-07
-2.83872e-05 1.00584e-05 -6.33392e-07
1.01344e-07 -6.33392e-07 -8.29824e-05
0.00125346 -3.5668e-05 1.78759e-06
-3.5668e-05 0.000148531 -2.93903e-07
1.78759e-06 -2.93903e-07 5.17424e-05
0.00105144 -3.73508e-05 4.63236e-07
-3.73508e-05 3.61975e-05 -7.51687e-07
4.63236e-07 -7.51687e-07 -4.56161e-05
0.000978142 2.04551e-05 -4.46921e-07
2.04551e-05 6.41726e-06 -4.58737e-07
-4.46921e-07 -4.58737e-07 -6.35709e-05
0.00115722 3.09071e-05 -1.47646e-06
3.09071e-05 9.10157e-05 -6.69666e-07
-1.47646e-06 -6.69666e-07 1.47077e-05
0.00139818 1.10707e-05 -1.51201e-06
1.10707e-05 5.02456e-05 -1.57461e-06
-1.51201e-06 -1.57461e-06 9.13381e-06
0.00130343 3.2337e-05 -1.27644e-06
3.2337e-05 5.81809e-05 6.82992e-07
-1.27644e-06 6.82992e-07 3.09653e-06
0.00122198 3.32294e-05 -1.0832e-06
3.32294e-05 0.000115013 -2.44313e-07
-1.0832e-06 -2.44313e-07 3.85115e-05
0.00119899 3.46144e-05 -8.34429e-07
3.46144e-05 0.00010543 -1.20096e-06
-8.34429e-07 -1.20096e-06 3.01449e-05
0.00155308 4.57833e-05 -1.32067e-06
4.57833e-05 0.000230185 -7.81714e-08
-1.32067e-06 -7.81714e-08 0.00014883
0.00102176 3.75797e-05 -9.49222e-07
3.75797e-05 1.25092e-05 -1.16538e-06
-9.49222e-07 -1.16538e-06 -7.98786e-05
0.00113784 3.08414e-05 -3.21892e-07
3.08414e-05 8.914e-05 -3.25587e-07
-3.21892e-07 -3.25587e-07 1.09486e-05
0.00119402 -5.64864e-06 4.76748e-07
-5.64864e-06 -3.56164e-05 5.85139e-07
4.76748e-07 5.85139e-07 -8.2433e-05
0.00117581 3.41035e-05 2.55322e-07
3.41035e-05 9.95674e-05 3.28246e-07
2.55322e-07 3.28246e-07 1.59839e-05
0.00104677 3.47549e-05 2.95196e-07
3.47549e-05 3.2409e-05 -8.72839e-08
2.95196e-07 -8.72839e-08 -5.33451e-05
0.00140055 3.00633e-05 5.27978e-07
3.00633e-05 1.74664e-05 -3.59238e-07
5.27978e-07 -3.59238e-07 -1.912e-05
0.00142248 4.93594e-05 7.70389e-07
4.93594e-05 0.000122836 -5.30679e-07
7.70389e-07 -5.30679e-07 3.99155e-05
0.00146541 4.61532e-05 2.11058e-07
4.61532e-05 0.000229617 5.41789e-07
2.11058e-07 5.41789e-07 0.000129277
0.0012032 3.23958e-05 3.52684e-07
3.23958e-05 0.000124172 3.64686e-07
3.52684e-07 3.64686e-07 3.8994e-05
0.00140017 2.2189e-05 2.86677e-06
2.2189e-05 -2.84124e-05 -1.93506e-06
2.86677e-06 -1.93506e-06 -6.26406e-05
0.00135714 3.72447e-05 5.42979e-07
3.72447e-05 0.000185547 1.2692e-07
5.42979e-07 1.2692e-07 9.77314e-05
0.00157215 4.43228e-05 -2.31242e-07
4.43228e-05 0.000291455 1.18482e-06
-2.31242e-07 1.18482e-06 0.000193454
0.00114313 5.46324e-05 4.88441e-06
5.46324e-05 -9.85639e-05 -4.17963e-07
4.88441e-06 -4.17963e-07 -0.000168493
0.000997486 4.67857e-05 1.49837e-07
4.67857e-05 -7.26807e-06 1.64429e-06
1.49837e-07 1.64429e-06 -0.000116631
0.00225707 -5.89e-05 -5.20034e-06
-5.89e-05 0.00010913 -7.62933e-06
-5.20034e-06 -7.62933e-06 0.000154232
0.00112559 2.73533e-05 -4.48193e-07
2.73533e-05 8.60021e-05 -5.91374e-07
-4.48193e-07 -5.91374e-07 8.80728e-06
0.00112663 3.02029e-05 -1.41779e-08
3.02029e-05 8.79955e-05 -8.40878e-09
-1.41779e-08 -8.40878e-09 4.53513e-06
0.00124092 3.22254e-05 5.24993e-07
3.22254e-05 0.000140525 1.84143e-07
5.24993e-07 1.84143e-07 5.27268e-05
0.00104719 -2.67602e-06 -4.02355e-09
-2.67602e-06 4.08001e-05 -1.27644e-06
-4.02355e-09 -1.27644e-06 -1.20531e-05
0.000948751 6.74928e-06 -2.50619e-07
6.74928e-06 -3.45548e-06 -4.45715e-07
-2.50619e-07 -4.45715e-07 -7.12813e-05
0.00124301 2.18402e-05 -2.12012e-07
2.18402e-05 0.00014431 -2.86444e-07
-2.12012e-07 -2.86444e-07 6.83341e-05
0.00105444 2.08474e-05 -7.0405e-07
2.08474e-05 4.88072e-05 -9.90558e-07
-7.0405e-07 -9.90558e-07 -3.50364e-05
0.00104246 -8.3179e-06 2.45689e-08
-8.3179e-06 3.90482e-05 1.01881e-08
2.45689e-08 1.01881e-08 -1.40076e-05
0.00100871 1.27207e-05 1.48548e-07
1.27207e-05 2.66912e-05 -1.36902e-08
1.48548e-07 -1.36902e-08 -4.17385e-05
0.00115186 3.07785e-05 -5.29267e-07
3.07785e-05 9.11591e-05 -6.8137e-07
-5.29267e-07 -6.8137e-07 3.68731e-06
0.00112085 1.67048e-05 4.1712e-08
1.67048e-05 8.32172e-05 2.41788e-08
4.1712e-08 2.41788e-08 6.22769e-06
0.00113655 1.16825e-05 1.24319e-08
1.16825e-05 8.88222e-05 -2.03713e-08
1.24319e-08 -2.03713e-08 5.23988e-06
0.00113737 2.07515e-05 3.73817e-07
2.07515e-05 7.86231e-05 8.72982e-07
3.73817e-07 8.72982e-07 -1.17114e-05
0.00124218 2.44333e-05 1.14981e-07
2.44333e-05 0.000140825 1.95414e-07
1.14981e-07 1.95414e-07 5.60705e-05
0.00123887 2.6445e-05 2.14997e-07
2.6445e-05 0.000141348 3.51787e-07
2.14997e-07 3.51787e-07 6.37347e-05
0.000904866 7.05624e-06 1.10255e-07
7.05624e-06 -2.42683e-05 9.12531e-07
1.10255e-07 9.12531e-07 -9.41381e-05
0.000828266 -3.39269e-07 -1.80515e-08
-3.39269e-07 -6.66034e-05 1.74167e-06
-1.80515e-08 1.74167e-06 -0.000121253
0.00127665 -1.02011e-06 9.62874e-08
-1.02011e-06 0.000159987 4.27593e-07
9.62874e-08 4.27593e-07 9.31165e-05
0.000838104 -4.81273e-06 -4.05831e-07
-4.81273e-06 -6.27489e-05 1.6648e-06
-4.05831e-07 1.6648e-06 -0.000116872
0.00101284 2.43226e-06 -2.36315e-08
2.43226e-06 1.1174e-05 1.90613e-06
-2.36315e-08 1.90613e-06 -2.12627e-05
0.00101019 1.56933e-07 -2.16835e-08
1.56933e-07 1.00477e-05 7.34816e-09
-2.16835e-08 7.34816e-09 -2.22783e-05
0.000954692 -3.32802e-07 1.07024e-07
-3.32802e-07 -3.21242e-05 3.3523e-06
1.07024e-07 3.3523e-06 -3.40695e-05
0.00101479 -2.72985e-06 -7.6739e-08
-2.72985e-06 1.24429e-05 -1.93488e-06
-7.6739e-08 -1.93488e-06 -1.98141e-05
0.00126568 -2.44282e-06 -4.01151e-07
-2.44282e-06 0.000122708 -1.31847e-06
-4.01151e-07 -1.31847e-06 0.000122246
0.0024063 -3.27276e-06 1.91237e-06
-3.27276e-06 0.000683276 4.24326e-06
1.91237e-06 4.24326e-06 0.000706134
0.00159431 -4.55029e-06 -1.46972e-06
-4.55029e-06 0.00028753 -4.66848e-06
-1.46972e-06 -4.66848e-06 0.000288211
0.00115801 -5.01907e-06 7.36555e-07
-5.01907e-06 6.79306e-05 2.60457e-06
7.36555e-07 2.60457e-06 8.44412e-05
0.0011038 -6.98207e-06 -1.02444e-06
-6.98207e-06 4.4574e-05 -1.66244e-06
-1.02444e-06 -1.66244e-06 6.06893e-05
0.00101381 3.56115e-06 3.37741e-07
3.56115e-06 7.10591e-06 -1.9143e-06
3.37741e-07 -1.9143e-06 -1.95493e-05
0.00101226 5.06434e-06 -3.27748e-08
5.06434e-06 8.69419e-06 -4.91485e-10
-3.27748e-08 -4.91485e-10 -1.93193e-05
0.000935393 6.15164e-06 9.40922e-07
6.15164e-06 -3.79205e-05 -3.23168e-06
9.40922e-07 -3.23168e-06 -3.77145e-05
0.00124074 8.43984e-06 -2.98258e-07
8.43984e-06 0.000116753 3.62128e-08
-2.98258e-07 3.62128e-08 0.000116837
0.00234639 1.05957e-05 5.86809e-06
1.05957e-05 0.000659936 -4.00858e-06
5.86809e-06 -4.00858e-06 0.000682501
0.000953616 9.49893e-06 -1.81072e-06
9.49893e-06 -2.15624e-05 3.24602e-06
-1.81072e-06 3.24602e-06 -2.45515e-05
0.00238621 1.31965e-05 -3.59203e-07
1.31965e-05 0.000684521 -3.16516e-08
-3.59203e-07 -3.16516e-08 0.000705849
0.00242959 1.56145e-05 -8.97633e-06
1.56145e-05 0.000711229 4.0663e-06
-8.97633e-06 4.0663e-06 0.000731286
0.00130003 -6.19057e-06 -4.49039e-07
-6.19057e-06 3.78227e-05 -1.10646e-06
-4.49039e-07 -1.10646e-06 -1.25387e-05
0.0013093 -2.63152e-05 -1.06872e-07
-2.63152e-05 7.76682e-05 8.29179e-07
-1.06872e-07 8.29179e-07 9.00826e-06
0.00132743 4.79874e-06 -4.19502e-07
4.79874e-06 9.24928e-05 -5.53488e-07
-4.19502e-07 -5.53488e-07 2.47918e-05
0.0013002 5.62701e-07 -3.23772e-07
5.62701e-07 8.02685e-05 -9.72505e-07
-3.23772e-07 -9.72505e-07 1.31558e-05
0.00125565 -2.08744e-05 -8.02635e-08
-2.08744e-05 3.68258e-05 4.01273e-07
-8.02635e-08 4.01273e-07 -2.4405e-05
0.0012363 -2.11849e-05 1.24895e-06
-2.11849e-05 2.9742e-05 5.43507e-07
1.24895e-06 5.43507e-07 -1.83864e-05
0.00139103 -5.13739e-07 -5.3881e-07
-5.13739e-07 0.000113487 4.5987e-07
-5.3881e-07 4.5987e-07 5.20142e-05
0.00179093 -4.90976e-05 -8.44669e-06
-4.90976e-05 0.000252996 -7.12855e-06
-8.44669e-06 -7.12855e-06 0.000242686
0.00111288 3.86285e-06 -1.06535e-06
3.86285e-06 -5.92434e-05 -9.2578e-07
-1.06535e-06 -9.2578e-07 -8.32585e-05
0.00104578 -4.32335e-06 -1.91645e-08
-4.32335e-06 3.23708e-05 -1.18562e-06
-1.91645e-08 -1.18562e-06 -1.16167e-05
0.00124211 2.69446e-05 -1.08695e-06
2.69446e-05 1.77003e-05 -8.86116e-07
-1.08695e-06 -8.86116e-07 -5.19837e-05
0.00151875 1.12271e-05 -2.12287e-07
1.12271e-05 0.000103095 9.04197e-07
-2.12287e-07 9.04197e-07 3.82358e-05
0.00117861 -1.96393e-05 6.27075e-07
-1.96393e-05 -5.90613e-05 1.34587e-06
6.27075e-07 1.34587e-06 -0.000101867
0.000996963 -3.21932e-05 -5.40748e-07
-3.21932e-05 5.09189e-06 1.25902e-06
-5.40748e-07 1.25902e-06 -6.58994e-05
0.00113433 -3.90315e-05 -8.97131e-07
-3.90315e-05 7.61513e-05 2.66377e-06
-8.97131e-07 2.66377e-06 -1.05069e-05
0.00101547 -3.83354e-05 -1.62583e-06
-3.83354e-05 -2.50091e-05 -7.59598e-08
-1.62583e-06 -7.59598e-08 -0.000106167
0.00131939 -3.68707e-05 -1.31624e-06
-3.68707e-05 2.82716e-05 -2.30035e-06
-1.31624e-06 -2.30035e-06 -1.44385e-05
0.00125271 -3.63918e-05 -1.73754e-07
-3.63918e-05 0.000120984 3.40995e-07
-1.73754e-07 3.40995e-07 4.70765e-05
0.00107514 -3.49459e-05 -2.79988e-06
-3.49459e-05 4.17687e-05 -7.0004e-07
-2.79988e-06 -7.0004e-07 -3.86559e-05
0.00104477 -3.12491e-05 -9.65771e-07
-3.12491e-05 3.82006e-05 7.53515e-07
-9.65771e-07 7.53515e-07 -5.21253e-05
0.00100917 6.71968e-06 -7.23815e-07
6.71968e-06 1.03771e-05 1.89072e-06
-7.23815e-07 1.89072e-06 -1.95123e-05
0.00113521 -2.96201e-05 2.12931e-08
-2.96201e-05 9.00553e-05 3.50958e-07
2.12931e-08 3.50958e-07 8.43151e-06
0.00132766 -3.32977e-06 -1.92982e-07
-3.32977e-06 0.00017746 7.63578e-07
-1.92982e-07 7.63578e-07 0.000127488
0.00113934 -1.34751e-05 -5.94275e-07
-1.34751e-05 9.28775e-05 1.41098e-06
-5.94275e-07 1.41098e-06 2.13804e-05
0.000838469 5.76227e-06 -3.17983e-07
5.76227e-06 -6.63516e-05 1.19082e-06
-3.17983e-07 1.19082e-06 -0.000114814
0.0013859 2.9332e-05 2.75881e-07
2.9332e-05 7.39856e-05 -6.70534e-09
2.75881e-07 -6.70534e-09 2.58442e-06
0.00095085 3.30024e-07 1.11615e-07
3.30024e-07 -1.32378e-05 -4.68309e-07
1.11615e-07 -4.68309e-07 -5.89945e-05
0.00104306 -5.14244e-06 -2.36672e-08
-5.14244e-06 3.61185e-05 2.69291e-08
-2.36672e-08 2.69291e-08 -1.32776e-05
0.00111646 1.41871e-06 -2.59042e-07
1.41871e-06 7.88889e-05 4.99582e-07
-2.59042e-07 4.99582e-07 1.6504e-05
0.0015496 2.83177e-06 5.63967e-07
2.83177e-06 0.00010967 7.62421e-07
5.63967e-07 7.62421e-07 6.02623e-05
0.00141477 -3.36567e-05 -5.92529e-07
-3.36567e-05 1.81146e-05 -1.30395e-06
-5.92529e-07 -1.30395e-06 -6.13337e-06
0.00110145 -3.59837e-05 -5.0601e-08
-3.59837e-05 5.87527e-05 2.42364e-07
-5.0601e-08 2.42364e-07 -1.84558e-05
0.0011747 -4.37382e-05 5.81361e-07
-4.37382e-05 9.38277e-05 -1.36942e-07
5.81361e-07 -1.36942e-07 -1.73353e-07
0.00124498 -4.37838e-05 5.44715e-09
-4.37838e-05 4.05651e-05 6.96605e-07
5.44715e-09 6.96605e-07 -2.58988e-05
0.000997627 -2.00814e-06 -3.42507e-08
-2.00814e-06 2.47803e-05 3.91498e-08
-3.42507e-08 3.91498e-08 -4.44064e-05
0.00121413 -2.68789e-05 1.91701e-07
-2.68789e-05 0.000129258 4.04462e-08
1.91701e-07 4.04462e-08 4.80823e-05
0.0011068 -3.79151e-05 -5.23812e-07
-3.79151e-05 6.30341e-05 2.36867e-08
-5.23812e-07 2.36867e-08 -1.89428e-05
0.00122398 -3.50155e-05 -1.56834e-08
-3.50155e-05 0.00013241 -1.99101e-07
-1.56834e-08 -1.99101e-07 3.77413e-05
0.00105948 -2.95624e-05 -6.36937e-07
-2.95624e-05 5.37634e-05 6.47964e-07
-6.36937e-07 6.47964e-07 -3.85607e-05
0.00132609 2.90897e-05 9.02641e-07
2.90897e-05 2.56729e-05 3.12626e-07
9.02641e-07 3.12626e-07 -4.5957e-05
0.00170443 -1.3651e-05 -9.22906e-07
-1.3651e-05 0.000116436 -2.93104e-06
-9.22906e-07 -2.93104e-06 0.000108721
0.00170447 -5.11227e-05 2.40803e-06
-5.11227e-05 0.000175534 2.13116e-06
2.40803e-06 2.13116e-06 0.000130055
0.0016544 -5.35322e-05 1.93932e-06
-5.35322e-05 0.000304276 -1.20131e-06
1.93932e-06 -1.20131e-06 0.000213096
0.000931852 -3.89365e-05 4.67372e-07
-3.89365e-05 -6.39093e-06 -2.03792e-06
4.67372e-07 -2.03792e-06 -9.27275e-05
0.000837349 1.51441e-05 -1.6113e-08
1.51441e-05 -5.95051e-05 -1.16944e-06
-1.6113e-08 -1.16944e-06 -0.000120138
0.000914365 2.94376e-06 2.58584e-07
2.94376e-06 -1.84707e-05 -9.24809e-07
2.58584e-07 -9.24809e-07 -8.5013e-05
0.0011883 1.44712e-05 5.11649e-08
1.44712e-05 0.000120198 5.99092e-08
5.11649e-08 5.99092e-08 4.69271e-05
0.00117233 -2.49573e-05 4.84589e-07
-2.49573e-05 0.000112686 -6.94228e-07
4.84589e-07 -6.94228e-07 3.1003e-05
0.00107099 -2.86352e-05 -2.03778e-07
-2.86352e-05 5.88972e-05 -9.41638e-09
-2.03778e-07 -9.41638e-09 -2.99476e-05
0.00123117 -3.24134e-05 1.53538e-06
-3.24134e-05 0.000145596 -1.39536e-06
1.53538e-06 -1.39536e-06 4.38726e-05
0.00113277 -3.86979e-05 2.04321e-06
-3.86979e-05 9.99677e-05 -4.30061e-07
2.04321e-06 -4.30061e-07 -7.34611e-07
0.00110892 3.05074e-05 -7.79552e-07
3.05074e-05 7.50681e-05 -8.62106e-07
-7.79552e-07 -8.62106e-07 -3.11828e-06
0.00109971 3.32646e-05 -4.54045e-07
3.32646e-05 6.17498e-05 5.20099e-08
-4.54045e-07 5.20099e-08 -2.17341e-05
0.000997602 -4.8613e-06 2.99e-07
-4.8613e-06 -0.000126219 9.20967e-07
2.99e-07 9.20967e-07 -0.000170377
0.0012718 2.72877e-05 -4.0807e-07
2.72877e-05 -3.83519e-05 -1.46248e-07
-4.0807e-07 -1.46248e-07 -7.61059e-05
0.00165079 5.31646e-05 -2.06771e-06
5.31646e-05 0.000228402 -3.19821e-07
-2.06771e-06 -3.19821e-07 0.00014585
0.000912346 3.30416e-05 -2.13509e-07
3.30416e-05 -3.45498e-05 -8.99827e-07
-2.13509e-07 -8.99827e-07 -0.00012126
0.0013447 4.491e-05 -6.88743e-07
4.491e-05 0.000171951 -4.28108e-07
-6.88743e-07 -4.28108e-07 7.11406e-05
0.00120294 3.24206e-05 3.46761e-08
3.24206e-05 0.000123846 5.51721e-08
3.46761e-08 5.51721e-08 3.91306e-05
0.00125646 2.19496e-05 -1.42696e-06
2.19496e-05 -9.58537e-05 6.39824e-08
-1.42696e-06 6.39824e-08 -0.000128177
0.00120842 3.53515e-05 -4.75334e-08
3.53515e-05 0.000113642 -5.93931e-08
-4.75334e-08 -5.93931e-08 2.57213e-05
0.00126194 3.98156e-05 -6.9298e-08
3.98156e-05 0.000147297 1.33297e-07
-6.9298e-08 1.33297e-07 4.91546e-05
0.00133369 5.48635e-05 1.89462e-06
5.48635e-05 -1.68118e-05 -1.22438e-06
1.89462e-06 -1.22438e-06 -8.32222e-05
0.00123015 5.07621e-05 -8.24333e-07
5.07621e-05 0.000109284 1.00378e-06
-8.24333e-07 1.00378e-06 -3.89109e-06
0.00207184 -4.50727e-05 -1.80472e-06
-4.50727e-05 0.000127885 6.22844e-07
-1.80472e-06 6.22844e-07 0.000148356
0.00121735 3.28646e-05 -7.97444e-08
3.28646e-05 0.000131495 -2.20002e-07
-7.97444e-08 -2.20002e-07 4.1877e-05
0.001082 6.59918e-05 8.89495e-06
6.59918e-05 -0.000224777 3.07364e-06
8.89495e-06 3.07364e-06 -0.000289482
0.00128045 3.67398e-05 -7.5512e-07
3.67398e-05 0.000160873 -2.66379e-08
-7.5512e-07 -2.66379e-08 6.68865e-05
0.00114647 4.48629e-05 -1.20417e-06
4.48629e-05 0.000129299 1.39252e-06
-1.20417e-06 1.39252e-06 6.75876e-06
0.000526425 6.56207e-05 7.77747e-07
6.56207e-05 -0.000281984 -5.23203e-07
7.77747e-07 -5.23203e-07 -0.00039098
0.00510944 -1.1444e-05 3.92589e-07
-1.1444e-05 0.00170414 -1.49555e-06
3.92589e-07 -1.49555e-06 0.00131491
0.00104526 -7.45915e-05 3.88522e-05
-7.45915e-05 0.000111301 1.36728e-05
3.88522e-05 1.36728e-05 -7.33434e-05
0.00263769 1.06256e-05 -8.62882e-06
1.06256e-05 0.000302746 -4.37831e-06
-8.62882e-06 -4.37831e-06 0.000360322
-0.00257607 -6.22621e-05 -4.97774e-05
-6.22621e-05 -0.00137175 -1.18857e-05
-4.97774e-05 -1.18857e-05 -0.00137205
0.0010241 -7.02732e-05 -2.01721e-06
-7.02732e-05 -2.61346e-05 1.15464e-06
-2.01721e-06 1.15464e-06 0.000240189
0.00111447 2.99783e-05 -4.43977e-07
2.99783e-05 8.29482e-05 -4.78657e-07
-4.43977e-07 -4.78657e-07 -5.70603e-07
0.00119678 3.15327e-05 -8.78942e-08
3.15327e-05 0.000119315 -8.61136e-08
-8.78942e-08 -8.61136e-08 3.15565e-05
0.00117063 2.88896e-05 5.58775e-07
2.88896e-05 9.77168e-05 5.58804e-07
5.58775e-07 5.58804e-07 5.50056e-06
0.00104187 -1.17005e-05 1.27855e-07
-1.17005e-05 3.88685e-05 -1.22932e-06
1.27855e-07 -1.22932e-06 -1.42948e-05
0.000949048 1.5939e-05 -2.82831e-07
1.5939e-05 -2.75086e-06 -9.18436e-07
-2.82831e-07 -9.18436e-07 -7.16676e-05
0.00111769 1.08424e-05 -2.98397e-07
1.08424e-05 8.17342e-05 -7.24562e-07
-2.98397e-07 -7.24562e-07 4.92996e-06
0.00122301 1.63089e-05 -5.44546e-07
1.63089e-05 0.000132232 -6.86081e-07
-5.44546e-07 -6.86081e-07 4.92892e-05
0.00109286 2.82314e-05 -1.31883e-06
2.82314e-05 6.1465e-05 -1.2859e-06
-1.31883e-06 -1.2859e-06 -2.59995e-05
0.00111758 2.31117e-05 -2.01123e-07
2.31117e-05 8.13013e-05 -3.90481e-07
-2.01123e-07 -3.90481e-07 2.88302e-06
0.000936884 -1.28609e-06 1.26098e-09
-1.28609e-06 -1.31512e-05 5.07567e-07
1.26098e-09 5.07567e-07 -6.70424e-05
0.000989809 5.2318e-06 5.56453e-08
5.2318e-06 1.79044e-05 4.26104e-09
5.56453e-08 4.26104e-09 -5.1464e-05
0.00115442 2.25901e-05 9.56068e-08
2.25901e-05 8.86085e-05 1.16268e-07
9.56068e-08 1.16268e-07 -1.15827e-06
0.00118335 2.32922e-05 -2.60452e-07
2.32922e-05 0.000111638 -4.61149e-07
-2.60452e-07 -4.61149e-07 2.67489e-05
0.00128698 3.17887e-05 -1.02785e-07
3.17887e-05 0.000163613 -1.4063e-07
-1.02785e-07 -1.4063e-07 7.90416e-05
0.00120294 2.59801e-05 1.77597e-07
2.59801e-05 0.000120195 6.37004e-07
1.77597e-07 6.37004e-07 2.85127e-05
0.00101295 2.35191e-05 3.88738e-07
2.35191e-05 3.02008e-05 1.12215e-06
3.88738e-07 1.12215e-06 -5.06459e-05
0.000900385 -2.59235e-06 2.97568e-08
-2.59235e-06 -2.61307e-05 4.96233e-07
2.97568e-08 4.96233e-07 -9.65488e-05
0.000827872 -1.12041e-05 -5.00141e-07
-1.12041e-05 -6.71584e-05 1.68801e-06
-5.00141e-07 1.68801e-06 -0.000121654
0.0011301 5.14234e-07 -8.64766e-08
5.14234e-07 8.71503e-05 7.80835e-07
-8.64766e-08 7.80835e-07 1.97461e-05
0.00126537 5.18899e-06 -2.27419e-08
5.18899e-06 0.000156143 4.36556e-07
-2.27419e-08 4.36556e-07 7.83115e-05
0.00107283 -1.22108e-05 -2.08265e-07
-1.22108e-05 5.98248e-05 9.16974e-07
-2.08265e-07 9.16974e-07 -9.45315e-06
0.0011014 -4.51892e-06 1.93664e-07
-4.51892e-06 7.35924e-05 -4.77472e-07
1.93664e-07 -4.77472e-07 5.5795e-06
0.00104093 -9.25127e-06 -3.70276e-07
-9.25127e-06 3.67231e-05 1.2215e-06
-3.70276e-07 1.2215e-06 -1.66688e-05
0.000840917 -6.80105e-07 -3.65043e-08
-6.80105e-07 -6.12936e-05 4.82178e-07
-3.65043e-08 4.82178e-07 -0.000115484
0.00101326 1.74032e-06 -3.05583e-07
1.74032e-06 1.12431e-05 1.90569e-06
-3.05583e-07 1.90569e-06 -2.13414e-05
0.0010103 -3.01836e-08 8.58677e-09
-3.01836e-08 9.84868e-06 1.36895e-09
8.58677e-09 1.36895e-09 -2.25614e-05
0.000977495 1.5734e-06 -4.07255e-07
1.5734e-06 -2.06871e-05 4.66735e-06
-4.07255e-07 4.66735e-06 -2.2869e-05
0.00101 -2.84554e-06 1.48066e-07
-2.84554e-06 9.95765e-06 -1.9059e-06
1.48066e-07 -1.9059e-06 -2.23668e-05
0.000956683 -3.51109e-07 9.24235e-08
-3.51109e-07 -3.11459e-05 3.69618e-09
9.24235e-08 3.69618e-09 -3.31042e-05
0.00241266 -7.54551e-07 3.29282e-08
-7.54551e-07 0.000685419 4.24713e-06
3.29282e-08 4.24713e-06 0.000708374
0.000974543 -2.26583e-06 -4.14184e-07
-2.26583e-06 -2.12513e-05 -4.68987e-06
-4.14184e-07 -4.68987e-06 -2.3349e-05
0.0017783 -2.95481e-06 -5.9884e-08
-2.95481e-06 0.00037244 4.37097e-08
-5.9884e-08 4.37097e-08 0.000392312
0.00110671 -4.83589e-06 -6.22365e-07
-4.83589e-06 4.24999e-05 -1.65547e-06
-6.22365e-07 -1.65547e-06 5.92617e-05
0.00101721 1.92985e-06 1.45281e-07
1.92985e-06 7.24491e-06 -1.91558e-06
1.45281e-07 -1.91558e-06 -1.85279e-05
0.00101553 3.48078e-06 -4.30246e-08
3.48078e-06 7.82509e-06 -1.25866e-08
-4.30246e-08 -1.25866e-08 -1.88271e-05
0.000943636 4.23801e-06 5.63656e-07
4.23801e-06 -3.6517e-05 -3.26248e-06
5.63656e-07 -3.26248e-06 -3.5219e-05
0.001016 5.04656e-06 -5.80196e-07
5.04656e-06 1.0436e-05 1.87595e-06
-5.80196e-07 1.87595e-06 -1.75955e-05
0.00123262 6.49793e-06 -3.8159e-08
6.49793e-06 0.000108917 -6.13848e-07
-3.8159e-08 -6.13848e-07 0.000110562
0.00231458 7.94878e-06 4.51346e-06
7.94878e-06 0.000640683 -4.01981e-06
4.51346e-06 -4.01981e-06 0.000664154
0.000949062 7.96812e-06 -1.45529e-06
7.96812e-06 -2.75146e-05 3.22536e-06
-1.45529e-06 3.22536e-06 -2.90801e-05
0.00237227 1.03949e-05 -2.13778e-06
1.03949e-05 0.000673647 1.18057e-06
-2.13778e-06 1.18057e-06 0.000695859
0.00238643 1.32268e-05 -7.78681e-06
1.32268e-05 0.000685225 4.069e-06
-7.78681e-06 4.069e-06 0.000706411
0.00121456 -2.03219e-05 -7.36128e-07
-2.03219e-05 2.10578e-05 1.73632e-07
-7.36128e-07 1.73632e-07 -4.0108e-05
0.00129607 -3.04944e-07 -9.23042e-07
-3.04944e-07 7.83542e-05 -1.14824e-06
-9.23042e-07 -1.14824e-06 1.13809e-05
0.00125848 -2.26202e-05 5.18455e-06
-2.26202e-05 4.90526e-05 1.98979e-06
5.18455e-06 1.98979e-06 -1.28313e-06
0.00124802 -4.3504e-05 -3.12089e-06
-4.3504e-05 -1.41473e-05 -2.66803e-06
-3.12089e-06 -2.66803e-06 -9.94645e-06
0.00123364 -1.55411e-06 -5.82104e-07
-1.55411e-06 4.13401e-05 -6.73854e-07
-5.82104e-07 -6.73854e-07 -2.06235e-05
0.00109574 4.01706e-06 -2.57162e-07
4.01706e-06 -6.75033e-05 -6.96298e-07
-2.57162e-07 -6.96298e-07 -9.88224e-05
0.00113546 2.32404e-05 -1.35686e-06
2.32404e-05 -5.94425e-05 2.92713e-06
-1.35686e-06 2.92713e-06 -0.000121996
0.00177548 -6.46253e-05 0.000110667
-6.46253e-05 0.00025387 3.26892e-05
0.000110667 3.26892e-05 9.70543e-05
0.00095187 -2.08496e-06 -7.45091e-06
-2.08496e-06 5.5463e-05 9.63696e-07
-7.45091e-06 9.63696e-07 4.21371e-05
0.00104538 -1.60223e-07 -2.49517e-08
-1.60223e-07 3.15269e-05 -1.11571e-06
-2.49517e-08 -1.11571e-06 -1.15904e-05
0.00105214 -6.43223e-06 -1.33685e-07
-6.43223e-06 3.56003e-05 5.1978e-09
-1.33685e-07 5.1978e-09 -8.47015e-06
0.00106083 1.69941e-05 -2.58899e-07
1.69941e-05 4.81091e-05 -6.48861e-07
-2.58899e-07 -6.48861e-07 -9.60918e-06
0.0010607 -4.31309e-06 -1.70671e-07
-4.31309e-06 4.67778e-05 -3.7014e-07
-1.70671e-07 -3.7014e-07 -8.5283e-06
0.00138303 2.88506e-05 -1.14307e-06
2.88506e-05 6.55263e-05 -5.50042e-07
-1.14307e-06 -5.50042e-07 -6.54084e-06
0.00158804 2.76805e-06 1.91768e-06
2.76805e-06 0.000129369 1.81504e-06
1.91768e-06 1.81504e-06 7.99394e-05
0.00120059 -3.4166e-05 -1.38403e-06
-3.4166e-05 -8.41629e-05 -1.24343e-06
-1.38403e-06 -1.24343e-06 -0.000111606
0.00116017 -3.67047e-05 -4.91823e-07
-3.67047e-05 8.47129e-05 1.86932e-06
-4.91823e-07 1.86932e-06 7.98438e-06
0.000815016 -3.94813e-05 -3.27396e-07
-3.94813e-05 -7.71782e-05 1.34764e-06
-3.27396e-07 1.34764e-06 -0.000171391
0.00105771 -4.1703e-05 -2.00543e-06
-4.1703e-05 -4.96364e-05 -1.27931e-06
-2.00543e-06 -1.27931e-06 -0.000114997
0.00115095 -3.83487e-05 -1.55179e-06
-3.83487e-05 8.43147e-05 7.29838e-07
-1.55179e-06 7.29838e-07 2.20506e-06
0.00118345 -3.41982e-05 -1.67286e-06
-3.41982e-05 0.000110786 1.92067e-07
-1.67286e-06 1.92067e-07 1.82747e-05
0.00115442 -3.07823e-05 -6.81879e-07
-3.07823e-05 0.000100861 1.7939e-06
-6.81879e-07 1.7939e-06 9.22783e-06
0.00104429 -3.54876e-07 -4.13002e-07
-3.54876e-07 3.66943e-05 1.20597e-06
-4.13002e-07 1.20597e-06 -1.26871e-05
0.00122197 -2.79202e-05 -3.68435e-07
-2.79202e-05 0.000132383 5.52877e-07
-3.68435e-07 5.52877e-07 5.08429e-05
0.001088 -5.22163e-06 -2.03713e-07
-5.22163e-06 6.90328e-05 1.12466e-06
-2.03713e-07 1.12466e-06 9.32355e-07
0.00105069 3.76952e-07 -1.2242e-07
3.76952e-07 3.54369e-05 6.71767e-07
-1.2242e-07 6.71767e-07 -9.55902e-06
0.000939269 4.91712e-06 -2.25172e-07
4.91712e-06 -8.13096e-06 1.55529e-06
-2.25172e-07 1.55529e-06 -7.18101e-05
0.00143099 2.89085e-05 1.78631e-07
2.89085e-05 7.44875e-05 1.11416e-06
1.78631e-07 1.11416e-06 5.06137e-06
0.00104885 1.74267e-05 -6.7984e-08
1.74267e-05 4.44363e-05 -4.92851e-07
-6.7984e-08 -4.92851e-07 -1.49854e-05
0.000994424 -3.95313e-06 2.52146e-07
-3.95313e-06 2.09238e-05 2.07989e-08
2.52146e-07 2.07989e-08 -4.46579e-05
0.00109579 1.05543e-05 1.1217e-07
1.05543e-05 7.40255e-05 9.71274e-07
1.1217e-07 9.71274e-07 1.52589e-06
0.00156966 -1.49146e-05 -1.12264e-06
-1.49146e-05 6.4972e-05 1.57719e-07
-1.12264e-06 1.57719e-07 5.10341e-05
0.00133105 -4.76143e-05 -6.57995e-07
-4.76143e-05 -3.79123e-06 -7.02421e-07
-6.57995e-07 -7.02421e-07 -4.8086e-05
0.00110069 -4.07943e-05 1.73839e-07
-4.07943e-05 7.35332e-05 -2.75057e-07
1.73839e-07 -2.75057e-07 -1.29834e-05
0.00141753 -5.09431e-05 2.97218e-07
-5.09431e-05 0.000191023 4.32739e-07
2.97218e-07 4.32739e-07 0.000100657
0.0012077 -2.44879e-05 -5.94484e-08
-2.44879e-05 0.000130517 2.75711e-08
-5.94484e-08 2.75711e-08 4.89724e-05
0.00107149 -2.87373e-05 -3.57146e-07
-2.87373e-05 5.82901e-05 9.24704e-07
-3.57146e-07 9.24704e-07 -2.95341e-05
0.00112134 -3.8532e-05 -1.36277e-07
-3.8532e-05 9.24319e-05 -1.60998e-07
-1.36277e-07 -1.60998e-07 -6.67009e-06
0.00123959 -3.23495e-05 5.47028e-07
-3.23495e-05 0.000151573 -4.21922e-07
5.47028e-07 -4.21922e-07 4.9657e-05
0.00112264 2.65688e-05 7.22339e-08
2.65688e-05 -0.000127704 -1.89488e-06
7.22339e-08 -1.89488e-06 -0.000177731
0.0019729 -5.22835e-05 3.64246e-06
-5.22835e-05 0.000205928 -2.31981e-06
3.64246e-06 -2.31981e-06 0.000194302
0.00154588 -5.97054e-05 4.72957e-06
-5.97054e-05 0.000181825 9.40664e-07
4.72957e-06 9.40664e-07 9.4395e-05
0.00120065 -5.06742e-05 1.27821e-06
-5.06742e-05 0.000128073 -1.75053e-06
1.27821e-06 -1.75053e-06 3.18529e-05
0.00102144 1.31481e-05 -3.11269e-07
1.31481e-05 3.85137e-05 -7.13192e-07
-3.11269e-07 -7.13192e-07 -3.66757e-05
0.0010314 -1.97837e-05 1.80606e-07
-1.97837e-05 4.30252e-05 -1.3943e-06
1.80606e-07 -1.3943e-06 -3.571e-05
0.00109847 -2.85572e-05 3.24387e-08
-2.85572e-05 8.05884e-05 -1.1351e-06
3.24387e-08 -1.1351e-06 -1.46997e-05
0.001248 -3.38208e-05 1.81912e-06
-3.38208e-05 0.000167167 -1.02676e-07
1.81912e-06 -1.02676e-07 4.95818e-05
0.00140561 2.35348e-05 1.09794e-05
2.35348e-05 -0.000232569 -1.98681e-06
1.09794e-05 -1.98681e-06 -0.000559859
0.00119701 3.23643e-05 -2.67602e-07
3.23643e-05 0.000120858 -3.59351e-07
-2.67602e-07 -3.59351e-07 3.66055e-05
0.00106179 3.34782e-05 -3.50099e-08
3.34782e-05 4.27491e-05 9.59915e-08
-3.50099e-08 9.59915e-08 -4.52804e-05
0.00117403 2.19098e-05 -3.4289e-06
2.19098e-05 -0.000135305 1.50504e-06
-3.4289e-06 1.50504e-06 -0.000165845
0.00153946 5.50144e-05 -3.03037e-06
5.50144e-05 7.13533e-05 -1.17046e-06
-3.03037e-06 -1.17046e-06 8.52754e-06
0.00144022 5.44956e-05 -1.8278e-06
5.44956e-05 0.000215279 2.88646e-07
-1.8278e-06 2.88646e-07 9.81346e-05
0.000983949 3.57542e-05 6.15248e-07
3.57542e-05 1.93148e-05 -4.31525e-07
6.15248e-07 -4.31525e-07 -7.90702e-05
0.00189206 -3.11692e-05 3.49336e-06
-3.11692e-05 0.000138011 7.37298e-06
3.49336e-06 7.37298e-06 0.000134313
0.00119784 3.25907e-05 8.02026e-09
3.25907e-05 0.000122652 -1.31627e-07
8.02026e-09 -1.31627e-07 3.33702e-05
0.0014418 6.7164e-05 1.95823e-06
6.7164e-05 -6.14674e-05 2.43192e-07
1.95823e-06 2.43192e-07 -0.000125251
0.00115666 3.49127e-05 1.35683e-07
3.49127e-05 0.000102419 1.28988e-07
1.35683e-07 1.28988e-07 8.54482e-06
0.00113646 4.38944e-05 -2.23092e-07
4.38944e-05 0.000122883 -1.28692e-07
-2.23092e-07 -1.28692e-07 2.91172e-06
0.000740816 6.60482e-05 -1.06691e-06
6.60482e-05 -0.0001853 -2.07287e-07
-1.06691e-06 -2.07287e-07 -0.000289209
0.000931212 -3.95936e-06 -1.36986e-05
-3.95936e-06 -0.000140374 -6.70643e-06
-1.36986e-05 -6.70643e-06 -0.000531273
0.0017519 -6.37094e-05 5.68362e-06
-6.37094e-05 0.000224562 -2.2559e-06
5.68362e-06 -2.2559e-06 -7.00146e-05
0.00251273 1.8089e-05 -2.5701e-06
1.8089e-05 0.000248897 -6.23517e-07
-2.5701e-06 -6.23517e-07 0.000297049
-0.000453855 -6.82519e-05 -1.04439e-05
-6.82519e-05 -0.000493595 -1.92945e-06
-1.04439e-05 -1.92945e-06 -0.000544518
0.000612651 -7.05229e-05 -2.67841e-06
-7.05229e-05 -0.000206749 -1.81959e-06
-2.67841e-06 -1.81959e-06 2.70214e-05
0.00112884 3.13696e-05 1.05596e-06
3.13696e-05 9.84652e-05 3.24502e-08
1.05596e-06 3.24502e-08 5.54945e-06
0.000448652 1.84293e-05 -7.16255e-05
1.84293e-05 -3.67885e-05 -9.68188e-06
-7.16255e-05 -9.68188e-06 -0.000185054
0.00196123 -3.69405e-05 6.31274e-06
-3.69405e-05 0.00077874 5.58608e-06
6.31274e-06 5.58608e-06 0.000860316
0.00153715 9.11886e-05 7.97635e-06
9.11886e-05 8.92075e-05 6.95083e-06
7.97635e-06 6.95083e-06 -5.70839e-06
0.000933477 2.88417e-05 6.16664e-09
2.88417e-05 1.30951e-05 -6.16991e-07
6.16664e-09 -6.16991e-07 -9.33618e-05
0.0015552 4.62983e-05 -3.15484e-06
4.62983e-05 0.00037185 1.36369e-06
-3.15484e-06 1.36369e-06 0.000214698
0.00207302 8.37e-06 -2.24362e-05
8.37e-06 0.000157997 -2.39634e-05
-2.24362e-05 -2.39634e-05 9.35796e-05
0.00556943 -6.23986e-05 -5.18749e-05
-6.23986e-05 0.00167012 -1.85279e-05
-5.18749e-05 -1.85279e-05 0.00115985
0.00125098 2.65161e-06 3.2228e-05
2.65161e-06 0.000252712 2.20569e-05
3.2228e-05 2.20569e-05 -0.000201416
8.26856e-05 -0.000122751 -4.9628e-05
-0.000122751 -0.000143915 -2.771e-05
-4.9628e-05 -2.771e-05 -6.58978e-05
-0.00108656 -3.61188e-05 3.84855e-06
-3.61188e-05 -0.00114869 2.97371e-06
3.84855e-06 2.97371e-06 -0.00103997
0.00114091 3.06592e-05 -8.40655e-07
3.06592e-05 9.2565e-05 -6.91498e-07
-8.40655e-07 -6.91498e-07 4.84974e-06
0.00120433 2.97472e-05 -3.92371e-07
2.97472e-05 0.000114605 1.51077e-07
-3.92371e-07 1.51077e-07 2.23884e-05
0.00123217 2.95776e-05 -8.12036e-08
2.95776e-05 0.000117326 2.04551e-07
-8.12036e-08 2.04551e-07 2.1106e-05
0.00104503 -1.73281e-06 5.77204e-08
-1.73281e-06 4.01481e-05 -6.92553e-07
5.77204e-08 -6.92553e-07 -1.30309e-05
0.00107469 6.40794e-07 1.03379e-07
6.40794e-07 6.00533e-05 -9.24687e-07
1.03379e-07 -9.24687e-07 -8.80791e-06
0.000993809 1.90373e-05 -5.73548e-07
1.90373e-05 2.00573e-05 -9.56688e-07
-5.73548e-07 -9.56688e-07 -5.91385e-05
0.00112117 2.32312e-05 -6.20284e-07
2.32312e-05 8.09721e-05 -1.04805e-06
-6.20284e-07 -1.04805e-06 -4.14216e-06
0.00116555 2.19462e-05 -5.63076e-07
2.19462e-05 9.58661e-05 -7.91021e-07
-5.63076e-07 -7.91021e-07 6.63884e-06
0.000832261 -3.90264e-06 5.02743e-08
-3.90264e-06 -6.49972e-05 5.09181e-07
5.02743e-08 5.09181e-07 -0.000119535
0.00117151 2.70444e-05 -2.39746e-07
2.70444e-05 0.000106547 -5.75528e-07
-2.39746e-07 -5.75528e-07 2.19945e-05
0.00112728 1.39255e-05 -1.40345e-09
1.39255e-05 8.65951e-05 3.77566e-07
-1.40345e-09 3.77566e-07 6.79754e-06
0.00100413 1.86632e-06 1.40854e-07
1.86632e-06 2.49514e-05 -4.2283e-07
1.40854e-07 -4.2283e-07 -4.47217e-05
0.00111355 2.51371e-05 3.33691e-08
2.51371e-05 7.55807e-05 2.30898e-07
3.33691e-08 2.30898e-07 -1.67523e-05
0.0011331 2.43473e-05 1.37374e-07
2.43473e-05 9.14008e-05 3.30403e-07
1.37374e-07 3.30403e-07 3.03055e-06
0.00111202 2.33302e-05 5.71474e-07
2.33302e-05 8.82929e-05 9.4966e-07
5.71474e-07 9.4966e-07 -1.07771e-05
0.00110984 -1.06347e-05 -3.23875e-07
-1.06347e-05 7.88156e-05 7.94985e-07
-3.23875e-07 7.94985e-07 -2.91038e-06
0.00112683 -1.05978e-05 -1.80225e-07
-1.05978e-05 8.54177e-05 3.65232e-07
-1.80225e-07 3.65232e-07 1.71359e-05
0.00112885 -6.24542e-06 -1.58881e-08
-6.24542e-06 8.64493e-05 -8.12672e-08
-1.58881e-08 -8.12672e-08 1.9066e-05
0.00113791 -5.95587e-06 -5.62816e-08
-5.95587e-06 9.29418e-05 -3.85353e-07
-5.62816e-08 -3.85353e-07 1.4131e-05
0.0011238 3.91185e-06 -1.37961e-07
3.91185e-06 8.58653e-05 9.66811e-07
-1.37961e-07 9.66811e-07 6.50055e-06
0.00110386 -1.5669e-05 -2.12799e-07
-1.5669e-05 7.78026e-05 8.23975e-07
-2.12799e-07 8.23975e-07 -2.32322e-06
0.00118581 -1.36573e-05 -6.87985e-08
-1.36573e-05 0.000116641 4.84436e-09
-6.87985e-08 4.84436e-09 3.05796e-05
0.00108274 -2.80589e-05 -1.05481e-06
-2.80589e-05 6.42845e-05 5.0265e-07
-1.05481e-06 5.0265e-07 -1.70809e-05
0.00107228 -1.80605e-05 -3.45135e-07
-1.80605e-05 5.94105e-05 8.97771e-07
-3.45135e-07 8.97771e-07 -1.13363e-05
0.00107555 -1.51636e-05 2.23329e-08
-1.51636e-05 6.12041e-05 4.15982e-09
2.23329e-08 4.15982e-09 -8.07264e-06
0.00104626 -1.03179e-05 -4.92568e-07
-1.03179e-05 3.88215e-05 1.25538e-06
-4.92568e-07 1.25538e-06 -1.55786e-05
0.000927197 -1.00452e-05 4.45531e-07
-1.00452e-05 -1.23821e-05 -1.4076e-06
4.45531e-07 -1.4076e-06 -8.14953e-05
0.000948731 -7.933e-06 6.55692e-08
-7.933e-06 -8.68564e-06 -1.87358e-08
6.55692e-08 -1.87358e-08 -6.27147e-05
0.00101209 6.96256e-07 -5.52202e-07
6.96256e-07 1.09328e-05 1.92399e-06
-5.52202e-07 1.92399e-06 -2.20176e-05
0.000846983 -2.87511e-06 1.861e-07
-2.87511e-06 -5.84106e-05 -6.75722e-07
1.861e-07 -6.75722e-07 -0.000112573
0.00101249 1.60041e-07 4.55427e-08
1.60041e-07 1.07175e-05 -3.12766e-09
4.55427e-08 -3.12766e-09 -2.18472e-05
0.0016023 3.72985e-06 -1.73588e-06
3.72985e-06 0.000289784 4.60613e-06
-1.73588e-06 4.60613e-06 0.000290361
0.00100882 -1.85577e-06 2.98675e-07
-1.85577e-06 9.05226e-06 -1.88638e-06
2.98675e-07 -1.88638e-06 -2.3337e-05
0.00128033 1.71003e-06 -4.86821e-07
1.71003e-06 0.000129252 6.45423e-07
-4.86821e-07 6.45423e-07 0.000128614
0.00116344 1.27192e-06 -1.22282e-06
1.27192e-06 6.69789e-05 4.14817e-06
-1.22282e-06 4.14817e-06 8.38502e-05
0.000958577 -3.70211e-07 8.16211e-08
-3.70211e-07 -3.02181e-05 -3.3386e-06
8.16211e-08 -3.3386e-06 -3.21885e-05
0.00240848 -6.3984e-07 6.39835e-07
-6.3984e-07 0.000683339 5.3446e-10
6.39835e-07 5.3446e-10 0.00070631
0.00115155 -2.32211e-06 -5.75081e-07
-2.32211e-06 6.22529e-05 -4.15501e-06
-5.75081e-07 -4.15501e-06 7.91469e-05
0.00105843 5.36453e-06 1.406e-08
5.36453e-06 3.77243e-05 -6.40757e-07
1.406e-08 -6.40757e-07 -5.547e-06
0.00101609 2.24929e-07 -1.64641e-08
2.24929e-07 5.82917e-06 -1.91714e-06
-1.64641e-08 -1.91714e-06 -1.95559e-05
0.00101853 1.84687e-06 -4.35599e-08
1.84687e-06 7.81424e-06 -9.67249e-09
-4.35599e-08 -9.67249e-09 -1.79667e-05
0.000949131 2.18356e-06 2.86566e-07
2.18356e-06 -3.5285e-05 -3.27274e-06
2.86566e-07 -3.27274e-06 -3.32906e-05
0.00101638 3.3961e-06 -4.36697e-07
3.3961e-06 8.11849e-06 1.91034e-06
-4.36697e-07 1.91034e-06 -1.85272e-05
0.000945262 4.23357e-06 2.30145e-08
4.23357e-06 -3.58922e-05 -6.34127e-07
2.30145e-08 -6.34127e-07 -3.4557e-05
0.00229144 5.32206e-06 2.90124e-06
5.32206e-06 0.000626788 -4.02265e-06
2.90124e-06 -4.02265e-06 0.000650911
0.00151735 7.15528e-06 -1.13074e-06
7.15528e-06 0.000250048 1.983e-06
-1.13074e-06 1.983e-06 0.000252966
0.0017467 7.28497e-06 3.27966e-08
7.28497e-06 0.000360407 1.22281e-06
3.27966e-08 1.22281e-06 0.000380793
0.00119924 8.75512e-06 -6.50308e-06
8.75512e-06 9.35884e-05 6.57604e-06
-6.50308e-06 6.57604e-06 0.000109867
0.00071771 -3.8573e-05 -1.06159e-06
-3.8573e-05 -0.000275618 1.7622e-06
-1.06159e-06 1.7622e-06 -0.000257731
0.00103193 -2.8871e-06 -3.50173e-07
-2.8871e-06 -5.11375e-05 -8.61362e-07
-3.50173e-07 -8.61362e-07 -0.000113634
0.00101472 3.93632e-06 -1.78045e-06
3.93632e-06 -0.000106311 -3.29838e-06
-1.78045e-06 -3.29838e-06 -0.000144561
0.000827768 -6.54471e-05 3.79903e-05
-6.54471e-05 -7.49249e-06 4.97716e-06
3.79903e-05 4.97716e-06 -0.000135133
0.000824726 -7.84915e-06 -2.38593e-06
-7.84915e-06 -6.26531e-06 -1.17199e-07
-2.38593e-06 -1.17199e-07 -1.17059e-05
0.00112936 2.574e-05 -1.04823e-06
2.574e-05 -6.41535e-05 -1.34503e-06
-1.04823e-06 -1.34503e-06 -0.000128334
0.00124973 4.17899e-05 -1.88823e-06
4.17899e-05 0.000154358 4.77201e-06
-1.88823e-06 4.77201e-06 0.000103598
0.000386769 -6.36737e-06 8.94606e-05
-6.36737e-06 -0.000285392 7.43271e-06
8.94606e-05 7.43271e-06 -0.000458606
0.00530285 -1.39839e-05 -9.96455e-06
-1.39839e-05 0.00149704 4.93346e-06
-9.96455e-06 4.93346e-06 0.00101887
0.00225808 9.39303e-05 -2.26541e-05
9.39303e-05 0.000846565 1.26885e-05
-2.26541e-05 1.26885e-05 0.000755189
0.000808028 4.99613e-05 -1.72265e-06
4.99613e-05 -3.08416e-05 -7.88866e-07
-1.72265e-06 -7.88866e-07 0.000139827
0.000874078 1.45575e-06 1.9915e-07
1.45575e-06 -4.42007e-05 -1.2593e-06
1.9915e-07 -1.2593e-06 -0.000101392
0.00104981 -8.05289e-07 2.56594e-08
-8.05289e-07 3.38037e-05 1.47585e-08
2.56594e-08 1.47585e-08 -9.38179e-06
0.00105792 -7.94457e-06 -3.77416e-07
-7.94457e-06 3.854e-05 1.15614e-06
-3.77416e-07 1.15614e-06 -5.61012e-06
0.00099525 1.69515e-05 -5.32541e-08
1.69515e-05 1.66191e-05 -2.25886e-08
-5.32541e-08 -2.25886e-08 -4.13888e-05
0.00117662 2.82619e-05 9.27332e-08
2.82619e-05 0.000110738 4.11094e-08
9.27332e-08 4.11094e-08 4.32231e-05
0.00114633 2.19664e-05 8.47123e-08
2.19664e-05 9.08873e-05 -1.19748e-08
8.47123e-08 -1.19748e-08 2.71366e-05
0.00110057 1.16845e-06 1.39279e-07
1.16845e-06 6.7579e-05 -1.49062e-06
1.39279e-07 -1.49062e-06 1.07769e-05
0.00100791 -7.46261e-06 -1.3406e-08
-7.46261e-06 2.10183e-05 4.53608e-07
-1.3406e-08 4.53608e-07 -3.48263e-05
0.0015359 2.86811e-05 -3.71991e-07
2.86811e-05 0.000123237 9.57613e-07
-3.71991e-07 9.57613e-07 5.60343e-05
0.00145475 -1.62513e-05 8.26201e-07
-1.62513e-05 2.30178e-05 1.03208e-06
8.26201e-07 1.03208e-06 3.33768e-06
0.000964453 -4.41292e-05 -5.29687e-06
-4.41292e-05 -0.000179845 -2.59394e-06
-5.29687e-06 -2.59394e-06 -0.000222767
0.0012751 -4.27106e-05 -2.42055e-08
-4.27106e-05 0.000156119 1.48862e-06
-2.42055e-08 1.48862e-06 6.94098e-05
0.00117451 -4.82691e-05 -1.04432e-06
-4.82691e-05 7.49968e-05 1.2395e-06
-1.04432e-06 1.2395e-06 -1.45771e-05
0.00111363 -3.84462e-05 -2.34398e-06
-3.84462e-05 8.69562e-05 5.17405e-07
-2.34398e-06 5.17405e-07 -1.08257e-05
0.00124539 -3.22743e-05 1.02411e-07
-3.22743e-05 0.000156309 6.61179e-07
1.02411e-07 6.61179e-07 5.41955e-05
0.00106421 -2.87413e-05 -5.07569e-07
-2.87413e-05 5.39554e-05 1.34187e-06
-5.07569e-07 1.34187e-06 -3.28383e-05
0.00107679 -8.79178e-06 -1.90106e-07
-8.79178e-06 6.14276e-05 1.04721e-06
-1.90106e-07 1.04721e-06 -3.2353e-06
0.0012446 -2.25251e-05 -1.21575e-07
-2.25251e-05 0.000149011 7.16437e-07
-1.21575e-07 7.16437e-07 6.76343e-05
0.00125823 1.79736e-05 -3.10321e-08
1.79736e-05 0.000147262 4.38288e-07
-3.10321e-08 4.38288e-07 8.91075e-05
0.00100337 6.25971e-06 1.3575e-07
6.25971e-06 2.79928e-05 1.79025e-06
1.3575e-07 1.79025e-06 -4.37556e-05
0.00166188 3.12963e-05 1.11863e-06
3.12963e-05 0.000115572 -1.15069e-06
1.11863e-06 -1.15069e-06 6.73759e-05
0.00105104 1.20267e-05 -1.39277e-07
1.20267e-05 5.25639e-05 2.48337e-07
-1.39277e-07 2.48337e-07 -2.21431e-05
0.00110454 -2.0386e-05 9.79722e-08
-2.0386e-05 7.95109e-05 -4.12531e-07
9.79722e-08 -4.12531e-07 9.17967e-07
0.00155434 -4.92004e-05 -3.28327e-06
-4.92004e-05 7.92148e-06 -1.35456e-06
-3.28327e-06 -1.35456e-06 1.41716e-06
0.000885841 -5.34384e-05 1.69882e-06
-5.34384e-05 -0.000127739 1.00075e-06
1.69882e-06 1.00075e-06 -0.000213012
0.00123481 -5.15851e-05 -4.34078e-07
-5.15851e-05 0.000141669 -1.79952e-07
-4.34078e-07 -1.79952e-07 4.20007e-05
0.00110876 -2.76678e-05 -1.07605e-07
-2.76678e-05 8.55848e-05 -3.59101e-07
-1.07605e-07 -3.59101e-07 -1.0061e-05
0.00115436 -3.22319e-05 8.16855e-07
-3.22319e-05 0.000120349 3.51991e-07
8.16855e-07 3.51991e-07 3.8691e-06
0.00194875 -6.61808e-06 -4.23247e-06
-6.61808e-06 1.90326e-05 7.88744e-06
-4.23247e-06 7.88744e-06 7.61789e-05
0.00223012 -9.20853e-05 8.68277e-06
-9.20853e-05 0.000468958 6.41305e-07
8.68277e-06 6.41305e-07 0.000379602
0.000339067 -5.37076e-05 1.32158e-06
-5.37076e-05 -0.000309961 -1.7526e-06
1.32158e-06 -1.7526e-06 -0.000412945
0.00134534 -4.46508e-05 1.52709e-06
-4.46508e-05 0.000217449 -3.40931e-07
1.52709e-06 -3.40931e-07 8.87582e-05
0.00101997 -1.88295e-05 -2.62199e-07
-1.88295e-05 3.96061e-05 -1.09889e-06
-2.62199e-07 -1.09889e-06 -4.22341e-05
0.00114449 -1.57512e-05 -2.4977e-08
-1.57512e-05 0.000102491 -1.00496e-06
-2.4977e-08 -1.00496e-06 1.27007e-05
0.00131066 -2.31516e-05 -4.4124e-07
-2.31516e-05 0.000193849 -1.0649e-06
-4.4124e-07 -1.0649e-06 8.18573e-05
-0.00134795 4.68621e-06 -6.34508e-05
4.68621e-06 -0.000669073 -8.29302e-07
-6.34508e-05 -8.29302e-07 -0.000642294
0.00503469 3.68287e-06 -2.39903e-05
3.68287e-06 0.00157371 -4.0114e-07
-2.39903e-05 -4.0114e-07 0.00122335
0.00118999 3.24929e-05 -1.39542e-07
3.24929e-05 0.000119182 -1.87999e-07
-1.39542e-07 -1.87999e-07 3.02469e-05
0.00101556 3.28273e-05 3.81794e-07
3.28273e-05 3.54581e-05 -4.8254e-07
3.81794e-07 -4.8254e-07 -5.82642e-05
0.00195146 6.86785e-05 -7.29618e-06
6.86785e-05 0.000174387 -5.20145e-07
-7.29618e-06 -5.20145e-07 0.000111148
0.0011059 6.77409e-05 -1.86041e-06
6.77409e-05 -1.66746e-05 -7.05575e-07
-1.86041e-06 -7.05575e-07 -0.000115459
0.00109059 4.22949e-05 8.20096e-07
4.22949e-05 0.000100044 -1.65618e-06
8.20096e-07 -1.65618e-06 -1.72635e-05
0.00526853 3.94573e-05 -7.59895e-06
3.94573e-05 0.00144121 -4.85177e-06
-7.59895e-06 -4.85177e-06 0.000954109
0.000159187 -7.22751e-05 -2.94095e-05
-7.22751e-05 -0.000108834 -1.08512e-05
-2.94095e-05 -1.08512e-05 -0.000324468
0.00233605 2.59289e-05 1.31145e-05
2.59289e-05 0.00016983 4.81932e-06
1.31145e-05 4.81932e-06 0.000206019
0.00273836 -0.000110296 2.33026e-05
-0.000110296 0.00111185 1.02763e-05
2.33026e-05 1.02763e-05 0.00104691
-3.28889e-05 -7.10218e-05 5.38861e-06
-7.10218e-05 -0.00053955 2.13005e-06
5.38861e-06 2.13005e-06 -0.000328458
0.001138 3.15893e-05 3.1795e-07
3.15893e-05 9.92315e-05 -1.89503e-07
3.1795e-07 -1.89503e-07 6.52032e-06
-0.00102145 4.70317e-07 -1.43539e-05
4.70317e-07 -0.000424467 -9.9495e-07
-1.43539e-05 -9.9495e-07 -0.000444925
0.00129534 -3.48752e-05 -2.24838e-07
-3.48752e-05 0.000420201 -2.26149e-07
-2.24838e-07 -2.26149e-07 0.000492977
0.00154229 9.24826e-05 2.06601e-06
9.24826e-05 9.21848e-05 2.05975e-06
2.06601e-06 2.05975e-06 -2.62977e-06
0.00117397 2.97918e-05 9.21059e-08
2.97918e-05 0.000130027 -9.87997e-07
9.21059e-08 -9.87997e-07 2.75847e-05
0.00136799 4.61697e-05 4.02054e-07
4.61697e-05 0.000287572 -6.21852e-08
4.02054e-07 -6.21852e-08 0.000134431
0.00208119 1.20297e-05 -2.34607e-05
1.20297e-05 0.000185601 -2.03522e-05
-2.34607e-05 -2.03522e-05 0.000117117
0.00372683 -4.75626e-06 1.00533e-05
-4.75626e-06 0.000746889 6.86928e-06
1.00533e-05 6.86928e-06 0.000155838
2.04155e-06 -1.97984e-05 -7.02087e-06
-1.97984e-05 -9.05117e-05 -1.19329e-05
-7.02087e-06 -1.19329e-05 -0.000312051
0.00174326 -0.000164054 8.38295e-07
-0.000164054 0.000281543 2.71097e-06
8.38295e-07 2.71097e-06 0.000262311
-0.000570714 -4.3046e-05 -1.01537e-06
-4.3046e-05 -0.000872533 -7.83093e-06
-1.01537e-06 -7.83093e-06 -0.000724622
0.0010137 2.0528e-05 -4.83081e-07
2.0528e-05 1.50577e-05 -3.81081e-07
-4.83081e-07 -3.81081e-07 -7.92725e-05
0.000326932 -7.75465e-06 9.29798e-06
-7.75465e-06 -6.61129e-05 2.48228e-06
9.29798e-06 2.48228e-06 -7.12904e-05
0.000500684 -8.89283e-06 8.52103e-06
-8.89283e-06 -5.44339e-05 1.53195e-05
8.52103e-06 1.53195e-05 -8.29619e-05
0.00111705 3.67293e-05 1.24971e-05
3.67293e-05 0.000118935 8.66004e-06
1.24971e-05 8.66004e-06 -7.35937e-05
0.00154076 1.98935e-05 -3.99818e-06
1.98935e-05 0.000356467 -1.55661e-06
-3.99818e-06 -1.55661e-06 0.000231494
0.00191971 -3.34629e-05 -6.11585e-06
-3.34629e-05 0.000499141 -3.84179e-06
-6.11585e-06 -3.84179e-06 0.000477677
9.49461e-05 6.66317e-05 -3.00314e-05
6.66317e-05 5.73333e-05 -7.77743e-06
-3.00314e-05 -7.77743e-06 -0.000157499
0.00318442 -8.59295e-05 3.96137e-05
-8.59295e-05 0.000341449 2.23288e-05
3.96137e-05 2.23288e-05 -0.000247908
0.00231964 -0.000184909 -2.24673e-05
-0.000184909 0.000422687 -2.317e-05
-2.24673e-05 -2.317e-05 0.000394286
-0.000269271 -1.57687e-05 3.23314e-06
-1.57687e-05 -0.000621509 3.61309e-06
3.23314e-06 3.61309e-06 -0.000603117
0.00124387 3.10239e-05 -7.17051e-07
3.10239e-05 0.000134475 3.53846e-07
-7.17051e-07 3.53846e-07 4.22196e-05
0.00116312 2.79087e-05 2.1745e-07
2.79087e-05 8.54462e-05 2.12854e-07
2.1745e-07 2.12854e-07 -1.10983e-05
0.0010842 2.80838e-05 1.32811e-06
2.80838e-05 6.77822e-05 5.03339e-07
1.32811e-06 5.03339e-07 -3.40514e-05
0.000836817 2.8412e-06 1.66167e-07
2.8412e-06 -6.27559e-05 -6.82748e-07
1.66167e-07 -6.82748e-07 -0.000117347
0.00110726 5.41102e-06 4.51222e-08
5.41102e-06 7.5751e-05 -1.35733e-06
4.51222e-08 -1.35733e-06 6.81347e-06
0.00124028 4.07689e-06 -8.3685e-08
4.07689e-06 0.000142413 -2.74867e-08
-8.3685e-08 -2.74867e-08 6.36492e-05
0.00106566 2.29786e-05 -5.34669e-08
2.29786e-05 5.40446e-05 -1.14633e-06
-5.34669e-08 -1.14633e-06 -3.05039e-05
0.00102588 2.49841e-05 -1.9573e-07
2.49841e-05 3.17685e-05 -3.34811e-07
-1.9573e-07 -3.34811e-07 -6.12406e-05
0.00111824 2.72569e-06 1.7249e-07
2.72569e-06 8.13653e-05 -5.04819e-07
1.7249e-07 -5.04819e-07 1.29621e-05
0.00111178 2.28672e-05 3.56139e-08
2.28672e-05 8.03906e-05 2.78689e-08
3.56139e-08 2.78689e-08 -7.23901e-06
0.00112581 -7.62218e-07 -5.6981e-08
-7.62218e-07 8.67538e-05 1.7053e-07
-5.6981e-08 1.7053e-07 4.94631e-06
0.00109549 2.38672e-05 1.25833e-07
2.38672e-05 8.00761e-05 2.25425e-07
1.25833e-07 2.25425e-07 -2.01066e-05
0.000988488 1.72469e-05 3.17896e-07
1.72469e-05 3.38055e-05 5.96357e-07
3.17896e-07 5.96357e-07 -7.36843e-05
0.00118875 1.50095e-05 9.81421e-08
1.50095e-05 0.000123826 1.06943e-06
9.81421e-08 1.06943e-06 3.00502e-05
0.00114728 5.45499e-06 5.07764e-08
5.45499e-06 9.69585e-05 6.69813e-07
5.07764e-08 6.69813e-07 1.64809e-05
0.00112471 -7.5799e-06 1.12431e-07
-7.5799e-06 8.44901e-05 -9.45069e-07
1.12431e-07 -9.45069e-07 1.70721e-05
0.00101147 -1.83018e-05 3.96673e-07
-1.83018e-05 3.0251e-05 -1.30584e-06
3.96673e-07 -1.30584e-06 -4.95595e-05
0.00112666 1.07717e-06 1.61843e-07
1.07717e-06 8.69153e-05 4.01288e-08
1.61843e-07 4.01288e-08 7.68185e-06
0.00110956 -1.72941e-05 -1.77763e-08
-1.72941e-05 8.06698e-05 2.22352e-08
-1.77763e-08 2.22352e-08 4.49584e-07
0.00112416 -1.91924e-05 2.51024e-07
-1.91924e-05 8.56478e-05 -6.61212e-07
2.51024e-07 -6.61212e-07 -2.92602e-07
0.00107193 -2.3336e-05 -5.64087e-07
-2.3336e-05 6.41516e-05 1.14344e-06
-5.64087e-07 1.14344e-06 -1.80263e-05
0.00120527 -4.66734e-06 -2.70437e-07
-4.66734e-06 0.000124664 2.32503e-07
-2.70437e-07 2.32503e-07 3.67597e-05
0.000997195 -2.66769e-05 -1.19083e-07
-2.66769e-05 2.75031e-05 4.06494e-07
-1.19083e-07 4.06494e-07 -6.23818e-05
0.0011345 -3.04949e-05 -3.82629e-07
-3.04949e-05 8.61091e-05 -9.70108e-07
-3.82629e-07 -9.70108e-07 2.31262e-06
0.000914802 -3.04321e-05 8.99208e-08
-3.04321e-05 -1.81575e-05 1.98494e-07
8.99208e-08 1.98494e-07 -9.39164e-05
0.00101551 -2.93055e-05 -8.87031e-07
-2.93055e-05 2.67481e-05 -3.12793e-07
-8.87031e-07 -3.12793e-07 -5.05714e-05
0.00110317 -2.79029e-05 -3.68112e-07
-2.79029e-05 7.36035e-05 1.92301e-07
-3.68112e-07 1.92301e-07 -7.55637e-06
0.00108375 -2.33474e-05 -1.07358e-06
-2.33474e-05 6.21592e-05 1.17952e-06
-1.07358e-06 1.17952e-06 -8.8365e-06
0.00108091 -1.97907e-05 7.64868e-09
-1.97907e-05 6.36915e-05 7.33617e-10
7.64868e-09 7.33617e-10 -7.13453e-06
0.00104632 -1.04685e-05 -6.41645e-07
-1.04685e-05 3.82503e-05 1.28468e-06
-6.41645e-07 1.28468e-06 -1.74154e-05
0.00107921 -1.67467e-05 4.29692e-07
-1.67467e-05 6.31503e-05 -8.73556e-07
4.29692e-07 -8.73556e-07 -6.20049e-06
0.00104901 -9.15316e-06 1.04154e-07
-9.15316e-06 4.01522e-05 -1.97934e-08
1.04154e-07 -1.97934e-08 -1.42479e-05
0.00100703 1.20898e-06 -7.71603e-07
1.20898e-06 9.31154e-06 1.96503e-06
-7.71603e-07 1.96503e-06 -2.43248e-05
0.000852958 -5.47153e-06 3.49355e-07
-5.47153e-06 -5.58104e-05 -1.21302e-06
3.49355e-07 -1.21302e-06 -0.00011048
0.00101079 1.15676e-06 5.18374e-08
1.15676e-06 1.01804e-05 -6.57506e-09
5.18374e-08 -6.57506e-09 -2.2774e-05
0.00160194 5.72959e-06 -2.70015e-06
5.72959e-06 0.000291481 4.59044e-06
-2.70015e-06 4.59044e-06 0.000291668
0.00100981 -5.25321e-07 4.77188e-07
-5.25321e-07 9.23474e-06 -1.90784e-06
4.77188e-07 -1.90784e-06 -2.33009e-05
0.00127801 3.75732e-06 -7.63026e-07
3.75732e-06 0.000129265 6.43551e-07
-7.63026e-07 6.43551e-07 0.000128353
0.00111549 4.01497e-06 -6.64219e-07
4.01497e-06 4.46978e-05 1.63994e-06
-6.64219e-07 1.63994e-06 6.14957e-05
0.000956617 1.6039e-06 4.11238e-07
1.6039e-06 -3.11291e-05 -3.33044e-06
4.11238e-07 -3.33044e-06 -3.3214e-05
0.00241599 2.06167e-06 5.90451e-07
2.06167e-06 0.000687051 4.58453e-09
5.90451e-07 4.58453e-09 0.000709963
0.00240495 -5.24038e-07 7.85111e-07
-5.24038e-07 0.000681581 -4.23421e-06
7.85111e-07 -4.23421e-06 0.000704563
0.00130186 7.15289e-06 -3.70638e-07
7.15289e-06 0.00015756 -9.50212e-07
-3.70638e-07 -9.50212e-07 0.000114909
0.00101788 -1.00651e-06 -2.5484e-07
-1.00651e-06 6.88221e-06 -1.91105e-06
-2.5484e-07 -1.91105e-06 -1.87486e-05
0.00105113 3.14e-06 8.21033e-08
3.14e-06 3.41321e-05 4.34616e-07
8.21033e-08 4.34616e-07 -9.10137e-06
0.000953981 1.10413e-07 -6.75431e-08
1.10413e-07 -3.33721e-05 -3.2777e-06
-6.75431e-08 -3.2777e-06 -3.12043e-05
0.00101914 1.3599e-07 -3.0692e-08
1.3599e-07 7.34261e-06 -7.73284e-10
-3.0692e-08 -7.73284e-10 -1.80731e-05
0.00101935 1.76422e-06 -2.4138e-07
1.76422e-06 8.13387e-06 1.93185e-06
-2.4138e-07 1.93185e-06 -1.76525e-05
0.000954406 2.22391e-06 -5.71804e-08
2.22391e-06 -3.26805e-05 2.28047e-09
-5.71804e-08 2.28047e-09 -3.07212e-05
0.00227717 2.66242e-06 1.30926e-06
2.66242e-06 0.000618376 -4.04585e-06
1.30926e-06 -4.04585e-06 0.00064288
0.0015139 4.92752e-06 -8.07791e-07
4.92752e-06 0.000245668 1.99968e-06
-8.07791e-07 1.99968e-06 0.000249713
0.00171413 4.99483e-06 7.50972e-07
4.99483e-06 0.000341283 2.56616e-08
7.50972e-07 2.56616e-08 0.000362586
0.00119556 6.56564e-06 -5.25303e-06
6.56564e-06 8.72697e-05 6.47991e-06
-5.25303e-06 6.47991e-06 0.000104892
-0.00367865 1.77572e-05 -3.48464e-05
1.77572e-05 -0.00189776 1.11579e-05
-3.48464e-05 1.11579e-05 -0.00191556
-0.00103096 2.34e-05 -1.74815e-06
2.34e-05 -0.000939748 8.82298e-09
-1.74815e-06 8.82298e-09 -0.00091816
0.000273888 -5.12751e-05 -3.90646e-05
-5.12751e-05 -0.000130149 -1.03413e-05
-3.90646e-05 -1.03413e-05 -0.000238974
0.000836137 -1.32704e-05 1.33866e-06
-1.32704e-05 3.48334e-06 1.8319e-07
1.33866e-06 1.8319e-07 4.63279e-06
0.00117577 2.90034e-05 -6.13711e-06
2.90034e-05 -4.34456e-05 -2.40527e-06
-6.13711e-06 -2.40527e-06 -0.00010935
0.000460354 -1.87227e-05 1.53884e-05
-1.87227e-05 6.09928e-05 6.00138e-08
1.53884e-05 6.00138e-08 -7.07504e-06
0.00129851 4.45534e-05 1.64747e-06
4.45534e-05 0.000144009 2.15125e-06
1.64747e-06 2.15125e-06 8.95729e-05
0.00327691 7.56031e-06 -1.57819e-05
7.56031e-06 0.000731719 3.19784e-07
-1.57819e-05 3.19784e-07 0.000307684
-0.00137936 4.86331e-05 1.08076e-05
4.86331e-05 -0.000680584 -4.07603e-06
1.08076e-05 -4.07603e-06 -0.000707127
0.000404736 5.36124e-05 -4.40169e-07
5.36124e-05 -0.000247091 2.05163e-06
-4.40169e-07 2.05163e-06 -8.57879e-05
0.000865862 3.21375e-05 1.75347e-05
3.21375e-05 0.000255306 -1.0717e-05
1.75347e-05 -1.0717e-05 0.000120607
0.00456075 6.0137e-05 -1.88085e-05
6.0137e-05 0.00131586 1.69162e-05
-1.88085e-05 1.69162e-05 0.00085574
0.000408161 0.000104708 -3.86878e-05
0.000104708 1.18029e-05 3.57265e-05
-3.86878e-05 3.57265e-05 7.821e-05
0.00131046 3.1308e-05 3.64147e-06
3.1308e-05 0.000272129 -4.03111e-06
3.64147e-06 -4.03111e-06 0.000404417
0.000989934 1.22006e-05 -2.37628e-07
1.22006e-05 2.00805e-05 -1.14918e-06
-2.37628e-07 -1.14918e-06 -4.93996e-05
0.000975889 4.50356e-06 1.82026e-08
4.50356e-06 5.44205e-06 -3.90393e-07
1.82026e-08 -3.90393e-07 -5.11771e-05
0.00105526 -3.41335e-06 -4.0266e-08
-3.41335e-06 3.66055e-05 1.16403e-06
-4.0266e-08 1.16403e-06 -6.65787e-06
0.000928996 1.69551e-05 -8.13931e-08
1.69551e-05 -1.50558e-05 8.41992e-07
-8.13931e-08 8.41992e-07 -7.33814e-05
0.00111369 2.72876e-05 4.26276e-07
2.72876e-05 8.0039e-05 9.06861e-07
4.26276e-07 9.06861e-07 1.36214e-05
0.00115682 1.50972e-05 -7.76159e-08
1.50972e-05 9.84891e-05 -5.89333e-07
-7.76159e-08 -5.89333e-07 3.1407e-05
0.00109534 9.42642e-06 3.43212e-07
9.42642e-06 6.58871e-05 9.30475e-07
3.43212e-07 9.30475e-07 2.62482e-06
0.00109415 1.95706e-06 1.65487e-07
1.95706e-06 6.59868e-05 -4.79782e-07
1.65487e-07 -4.79782e-07 5.08459e-06
0.00102879 -8.81501e-07 1.89881e-08
-8.81501e-07 3.21962e-05 -4.90753e-07
1.89881e-08 -4.90753e-07 -2.53381e-05
0.000952197 -1.03228e-05 -1.1097e-07
-1.03228e-05 -6.19394e-06 1.29732e-06
-1.1097e-07 1.29732e-06 -6.25612e-05
0.00214148 3.56535e-05 1.01662e-06
3.56535e-05 0.000330014 3.07611e-06
1.01662e-06 3.07611e-06 0.000283561
0.00112516 -4.64098e-05 -8.87287e-06
-4.64098e-05 -0.000197788 -1.0395e-06
-8.87287e-06 -1.0395e-06 -0.000199728
0.000180454 -4.68167e-05 -2.45115e-06
-4.68167e-05 -0.000458737 1.14622e-06
-2.45115e-06 1.14622e-06 -0.000541768
0.00125807 -5.22417e-05 -1.62299e-06
-5.22417e-05 0.00015029 1.83103e-06
-1.62299e-06 1.83103e-06 4.7354e-05
0.00105504 -3.06667e-05 -1.05154e-07
-3.06667e-05 7.0596e-05 7.79647e-07
-1.05154e-07 7.79647e-07 -4.44993e-05
0.00111935 -2.7532e-05 -7.96389e-08
-2.7532e-05 9.0808e-05 4.40999e-07
-7.96389e-08 4.40999e-07 -5.22567e-06
0.00117275 -2.28348e-05 6.68179e-08
-2.28348e-05 0.000113601 3.30871e-07
6.68179e-08 3.30871e-07 3.51999e-05
0.00107533 1.11282e-05 3.9424e-07
1.11282e-05 6.40284e-05 1.07299e-06
3.9424e-07 1.07299e-06 -1.01786e-05
0.0019536 -1.69915e-05 -3.01746e-06
-1.69915e-05 2.84618e-05 -4.72386e-09
-3.01746e-06 -4.72386e-09 6.19002e-05
0.00100404 -8.34504e-06 -8.63746e-09
-8.34504e-06 3.25579e-05 -1.83625e-07
-8.63746e-09 -1.83625e-07 -4.96414e-05
0.00106867 -1.94125e-05 1.60158e-07
-1.94125e-05 6.52184e-05 -4.67315e-07
1.60158e-07 -4.67315e-07 -2.5628e-05
0.0015429 -8.15798e-05 2.23837e-06
-8.15798e-05 0.000129034 1.10321e-06
2.23837e-06 1.10321e-06 5.41503e-05
0.000731603 -5.77369e-05 -9.48034e-07
-5.77369e-05 -0.000122561 3.89419e-07
-9.48034e-07 3.89419e-07 -0.00022693
0.00122773 -4.26008e-05 9.57044e-07
-4.26008e-05 0.000154428 5.75985e-08
9.57044e-07 5.75985e-08 2.70294e-05
0.00125634 -2.13783e-05 -1.95128e-07
-2.13783e-05 0.000166777 -3.38819e-07
-1.95128e-07 -3.38819e-07 5.22896e-05
0.00239204 -6.00376e-05 -1.92641e-06
-6.00376e-05 0.000108843 6.70184e-06
-1.92641e-06 6.70184e-06 0.000203663
0.00117901 -7.59697e-05 1.87813e-06
-7.59697e-05 0.000162508 -3.11606e-06
1.87813e-06 -3.11606e-06 1.27247e-05
0.00113059 -1.43443e-05 -9.59019e-07
-1.43443e-05 0.000120503 -2.91601e-07
-9.59019e-07 -2.91601e-07 -1.53984e-05
0.00102872 1.26581e-05 -4.95081e-08
1.26581e-05 4.1546e-05 2.04293e-08
-4.95081e-08 2.04293e-08 -4.05098e-05
0.00112323 -2.00936e-05 -2.82632e-07
-2.00936e-05 9.1006e-05 -8.09673e-07
-2.82632e-07 -8.09673e-07 1.32836e-06
0.00124166 -8.41933e-06 -4.33163e-07
-8.41933e-06 0.000148074 -8.86273e-07
-4.33163e-07 -8.86273e-07 4.76795e-05
0.000851159 5.11422e-07 1.25888e-05
5.11422e-07 0.000185201 2.20333e-07
1.25888e-05 2.20333e-07 0.00017104
0.00150993 7.55536e-06 1.7547e-06
7.55536e-06 0.000455999 -2.61333e-06
1.7547e-06 -2.61333e-06 0.0003646
0.00074366 6.84328e-05 -6.03302e-05
6.84328e-05 -0.000574124 8.06613e-06
-6.03302e-05 8.06613e-06 -0.000920179
0.00115374 3.19015e-05 -2.63385e-07
3.19015e-05 0.00010292 -4.44728e-07
-2.63385e-07 -4.44728e-07 1.04322e-05
0.00142787 3.07374e-05 1.49848e-06
3.07374e-05 0.000251854 -2.49867e-07
1.49848e-06 -2.49867e-07 0.000153597
0.00153233 9.36641e-05 -2.32882e-06
9.36641e-05 8.80823e-05 -2.50859e-06
-2.32882e-06 -2.50859e-06 -6.67539e-06
0.00115145 4.64114e-05 2.9987e-06
4.64114e-05 0.00019037 -1.88732e-06
2.9987e-06 -1.88732e-06 4.03647e-05
0.00293458 -5.31688e-05 1.9978e-05
-5.31688e-05 0.00116234 5.69794e-06
1.9978e-05 5.69794e-06 0.00108993
0.000675097 -8.2325e-05 5.62551e-05
-8.2325e-05 -0.000344231 3.59414e-05
5.62551e-05 3.59414e-05 -0.000670333
0.00141776 2.09811e-06 -7.28685e-05
2.09811e-06 0.000114896 -5.88788e-05
-7.28685e-05 -5.88788e-05 -0.000181565
0.00179351 1.02348e-05 6.44951e-06
1.02348e-05 7.96203e-05 -3.28654e-06
6.44951e-06 -3.28654e-06 2.8667e-06
-0.00180142 -0.00011661 4.38033e-05
-0.00011661 -0.00126046 3.22073e-05
4.38033e-05 3.22073e-05 -0.00119028
0.00316514 -3.21132e-05 -2.38449e-06
-3.21132e-05 0.00154631 -3.43451e-06
-2.38449e-06 -3.43451e-06 0.0016134
0.00138055 -5.29041e-05 -1.02198e-05
-5.29041e-05 0.000278642 -1.47077e-05
-1.02198e-05 -1.47077e-05 0.000440159
0.00122517 2.40264e-05 -1.00992e-07
2.40264e-05 0.000122212 4.53774e-07
-1.00992e-07 4.53774e-07 2.66385e-05
0.000739937 -1.0464e-05 4.2492e-06
-1.0464e-05 0.000147922 1.31392e-06
4.2492e-06 1.31392e-06 0.000146923
0.00053139 -7.93911e-06 2.03721e-06
-7.93911e-06 -3.59934e-05 4.23563e-06
2.03721e-06 4.23563e-06 -6.34434e-05
0.00121667 4.56344e-05 2.64627e-06
4.56344e-05 0.000175805 3.88622e-06
2.64627e-06 3.88622e-06 -1.89996e-05
0.00104003 1.40745e-05 4.65034e-08
1.40745e-05 0.000122888 -8.09796e-07
4.65034e-08 -8.09796e-07 -5.16347e-06
0.00205783 -2.48311e-05 5.1106e-06
-2.48311e-05 0.000406648 1.3153e-05
5.1106e-06 1.3153e-05 0.000269954
0.00196503 9.28824e-05 -1.43113e-05
9.28824e-05 0.00052719 -3.73172e-05
-1.43113e-05 -3.73172e-05 0.000142096
0.00502095 -0.000126843 7.86355e-06
-0.000126843 0.00122497 4.25168e-06
7.86355e-06 4.25168e-06 0.000715811
-0.000314148 -0.000140925 7.76909e-06
-0.000140925 -0.000490312 1.51232e-05
7.76909e-06 1.51232e-05 -0.000534641
0.000947339 -2.44291e-05 -1.80954e-06
-2.44291e-05 6.8301e-05 -1.63846e-06
-1.80954e-06 -1.63846e-06 0.000114546
0.00109612 2.38781e-05 5.09054e-07
2.38781e-05 7.42703e-05 -1.21299e-06
5.09054e-07 -1.21299e-06 -1.47266e-05
0.00191103 -1.06203e-06 1.06963e-05
-1.06203e-06 0.000859617 3.6489e-06
1.06963e-05 3.6489e-06 0.000799403
0.00101651 2.05932e-06 4.62631e-06
2.05932e-06 0.000169324 4.4811e-06
4.62631e-06 4.4811e-06 0.000134337
0.00043111 -7.44472e-06 2.79761e-06
-7.44472e-06 -7.8963e-05 7.86332e-06
2.79761e-06 7.86332e-06 -0.000201899
0.000543923 6.45244e-05 5.91218e-06
6.45244e-05 0.000318931 2.52347e-05
5.91218e-06 2.52347e-05 0.000225787
0.00584642 -9.39906e-05 -2.1943e-05
-9.39906e-05 0.00147158 -2.09668e-05
-2.1943e-05 -2.09668e-05 0.000881861
-0.0010381 -0.000115646 -1.5066e-05
-0.000115646 -0.00150223 -4.03939e-05
-1.5066e-05 -4.03939e-05 -0.00123707
0.00103642 -1.21898e-05 -6.44185e-07
-1.21898e-05 0.000139489 -5.20839e-07
-6.44185e-07 -5.20839e-07 0.000131253
0.00108137 2.69874e-05 -3.33865e-07
2.69874e-05 4.73479e-05 -6.23591e-07
-3.33865e-07 -6.23591e-07 -4.95429e-05
0.00118306 2.70831e-05 3.25864e-07
2.70831e-05 0.000111251 2.68489e-07
3.25864e-07 2.68489e-07 1.05474e-05
0.00177013 2.80141e-05 2.00715e-07
2.80141e-05 0.000399271 -3.211e-07
2.00715e-07 -3.211e-07 0.000293804
0.00111168 1.63881e-05 -1.6425e-08
1.63881e-05 7.8225e-05 -1.37554e-06
-1.6425e-08 -1.37554e-06 9.72035e-06
0.00114485 7.89954e-06 -8.46264e-08
7.89954e-06 9.60379e-05 -4.62151e-07
-8.46264e-08 -4.62151e-07 1.42048e-05
0.00109015 2.08731e-05 3.22989e-08
2.08731e-05 6.92229e-05 -5.23717e-07
3.22989e-08 -5.23717e-07 -1.76488e-05
0.00107102 2.32821e-05 -3.55157e-07
2.32821e-05 6.78749e-05 -6.5204e-07
-3.55157e-07 -6.5204e-07 -3.33449e-05
0.00113439 1.31833e-05 7.08393e-08
1.31833e-05 9.1048e-05 2.69306e-08
7.08393e-08 2.69306e-08 1.04905e-05
0.00121096 1.94057e-05 6.75357e-08
1.94057e-05 0.000133783 3.3792e-07
6.75357e-08 3.3792e-07 4.02156e-05
0.00102953 1.79491e-05 3.2955e-08
1.79491e-05 5.62394e-05 -4.91518e-07
3.2955e-08 -4.91518e-07 -5.23892e-05
0.0010017 1.17804e-05 -1.55296e-07
1.17804e-05 5.29703e-05 6.20884e-07
-1.55296e-07 6.20884e-07 -5.61263e-05
0.001097 3.10957e-06 8.38521e-08
3.10957e-06 8.03502e-05 1.31345e-06
8.38521e-08 1.31345e-06 -2.48911e-05
0.00128836 1.44975e-05 7.73106e-08
1.44975e-05 0.000165928 5.48353e-07
7.73106e-08 5.48353e-07 7.58946e-05
0.00113031 -2.36104e-06 2.85808e-07
-2.36104e-06 8.83675e-05 -8.52272e-07
2.85808e-07 -8.52272e-07 9.22691e-06
0.0011139 -1.74467e-05 2.71115e-07
-1.74467e-05 8.28243e-05 -8.35513e-07
2.71115e-07 -8.35513e-07 2.533e-06
0.00106284 -2.46428e-05 7.43172e-07
-2.46428e-05 5.48289e-05 -1.5984e-06
7.43172e-07 -1.5984e-06 -3.09737e-05
0.00120226 -5.3356e-06 -6.69131e-08
-5.3356e-06 0.000122888 -4.25345e-07
-6.69131e-08 -4.25345e-07 3.54115e-05
0.00109742 -2.05562e-05 -6.26876e-08
-2.05562e-05 7.6733e-05 2.23334e-07
-6.26876e-08 2.23334e-07 -5.37767e-06
0.00104171 -2.53993e-05 7.42547e-08
-2.53993e-05 4.78503e-05 -1.95534e-07
7.42547e-08 -1.95534e-07 -4.15045e-05
0.0011093 -2.83812e-05 -1.13675e-06
-2.83812e-05 8.11692e-05 3.13218e-09
-1.13675e-06 3.13218e-09 -9.22562e-06
0.00110788 -2.83752e-05 -5.47497e-08
-2.83752e-05 8.36986e-05 3.31545e-07
-5.47497e-08 3.31545e-07 -1.06466e-05
0.00116282 -3.35653e-05 3.00764e-08
-3.35653e-05 0.000102767 -5.6362e-08
3.00764e-08 -5.6362e-08 1.42716e-05
0.00115416 -3.08469e-05 -4.48136e-07
-3.08469e-05 9.56799e-05 -1.12756e-07
-4.48136e-07 -1.12756e-07 1.16304e-05
0.000957795 -3.17076e-05 -2.67164e-07
-3.17076e-05 1.7058e-06 5.02785e-07
-2.67164e-07 5.02785e-07 -7.90519e-05
0.00113607 -3.49543e-05 -1.08857e-06
-3.49543e-05 7.73495e-05 1.31503e-06
-1.08857e-06 1.31503e-06 1.19181e-06
0.00121186 -3.1235e-05 -2.9607e-07
-3.1235e-05 0.000119188 -5.45669e-07
-2.9607e-07 -5.45669e-07 4.99789e-05
0.000977121 -3.12678e-05 5.14079e-07
-3.12678e-05 1.33308e-05 -8.16384e-07
5.14079e-07 -8.16384e-07 -6.05561e-05
0.00110293 -3.02695e-05 3.99462e-07
-3.02695e-05 6.88496e-05 -1.76932e-07
3.99462e-07 -1.76932e-07 -7.96201e-06
0.000974968 -2.29288e-05 -1.05772e-06
-2.29288e-05 5.08239e-06 4.83949e-07
-1.05772e-06 4.83949e-07 -6.43428e-05
0.00112308 -2.78342e-05 2.10411e-07
-2.78342e-05 8.27084e-05 3.5498e-08
2.10411e-07 3.5498e-08 1.74716e-06
0.001085 -2.31022e-05 -2.25384e-07
-2.31022e-05 6.2826e-05 3.90981e-07
-2.25384e-07 3.90981e-07 -8.09e-06
0.00105653 -1.12078e-05 -8.68195e-07
-1.12078e-05 4.19909e-05 1.30837e-06
-8.68195e-07 1.30837e-06 -1.44362e-05
0.00108828 -2.09126e-05 4.63611e-07
-2.09126e-05 6.72871e-05 -9.00756e-07
4.63611e-07 -9.00756e-07 -3.57526e-06
0.00105181 -1.09905e-05 5.45623e-08
-1.09905e-05 4.08798e-05 -1.47333e-08
5.45623e-08 -1.47333e-08 -1.48084e-05
0.00100312 1.6816e-06 -1.02294e-06
1.6816e-06 8.45759e-06 2.01135e-06
-1.02294e-06 2.01135e-06 -2.60557e-05
0.0010524 -8.30576e-06 5.72225e-07
-8.30576e-06 4.17944e-05 -1.24458e-06
5.72225e-07 -1.24458e-06 -1.26083e-05
0.00100791 1.12962e-06 6.59744e-08
1.12962e-06 9.67886e-06 -7.97682e-09
6.59744e-08 -7.97682e-09 -2.39814e-05
0.001603 7.62281e-06 -3.61756e-06
7.62281e-06 0.00029455 4.57569e-06
-3.61756e-06 4.57569e-06 0.000294175
0.00101092 4.13249e-07 6.88334e-07
4.13249e-07 1.01347e-05 -1.95555e-06
6.88334e-07 -1.95555e-06 -2.28278e-05
0.00127592 5.65339e-06 -1.03186e-06
5.65339e-06 0.000130228 6.39161e-07
-1.03186e-06 6.39161e-07 0.000128894
0.00111338 6.27235e-06 -1.04525e-06
6.27235e-06 4.62848e-05 1.63143e-06
-1.04525e-06 1.63143e-06 6.26185e-05
0.000953923 3.51999e-06 7.73906e-07
3.51999e-06 -3.13354e-05 -3.32851e-06
7.73906e-07 -3.32851e-06 -3.36917e-05
0.00177596 4.59694e-06 1.61795e-06
4.59694e-06 0.000371343 -1.27725e-06
1.61795e-06 -1.27725e-06 0.000391082
0.00241308 2.26663e-06 2.38452e-06
2.26663e-06 0.000685882 -4.22261e-06
2.38452e-06 -4.22261e-06 0.00070876
0.00112016 -2.61069e-06 -9.80928e-08
-2.61069e-06 6.98429e-05 -1.0637e-06
-9.80928e-08 -1.0637e-06 2.37984e-05
0.00101742 -2.39155e-06 -4.38034e-07
-2.39155e-06 7.59668e-06 -1.88715e-06
-4.38034e-07 -1.88715e-06 -1.86206e-05
0.00108841 1.49803e-06 9.65879e-08
1.49803e-06 5.29382e-05 1.2199e-07
9.65879e-08 1.2199e-07 8.99374e-06
0.000956888 -1.80254e-06 -4.58079e-07
-1.80254e-06 -3.15552e-05 -3.26357e-06
-4.58079e-07 -3.26357e-06 -2.96701e-05
0.00101758 -1.08539e-06 -6.41211e-08
-1.08539e-06 6.82053e-06 7.90772e-09
-6.41211e-08 7.90772e-09 -1.88095e-05
0.00104421 3.17692e-06 7.90463e-08
3.17692e-06 3.0749e-05 1.57875e-06
7.90463e-08 1.57875e-06 -1.24589e-05
0.00227732 6.10161e-08 -5.12276e-07
6.10161e-08 0.000618084 -4.06887e-06
-5.12276e-07 -4.06887e-06 0.000642644
0.000953845 1.48113e-07 -9.88528e-08
1.48113e-07 -3.34548e-05 -7.47644e-09
-9.88528e-08 -7.47644e-09 -3.12835e-05
0.00102185 4.26177e-08 -5.90998e-08
4.26177e-08 8.68443e-06 1.94127e-06
-5.90998e-08 1.94127e-06 -1.67593e-05
0.000959847 2.2632e-06 -4.03048e-07
2.2632e-06 -2.99973e-05 3.25184e-06
-4.03048e-07 3.25184e-06 -2.80738e-05
0.00227554 2.74386e-06 -5.81169e-07
2.74386e-06 0.000617716 -5.44766e-09
-5.81169e-07 -5.44766e-09 0.000642184
0.00229186 5.26772e-06 -3.90622e-06
5.26772e-06 0.000627228 4.0309e-06
-3.90622e-06 4.0309e-06 0.000651272
-0.00118974 7.62258e-06 8.59379e-06
7.62258e-06 -0.000978078 -1.09574e-06
8.59379e-06 -1.09574e-06 -0.0009967
-0.000470793 1.80729e-05 1.99552e-05
1.80729e-05 -0.000259959 -4.6174e-06
1.99552e-05 -4.6174e-06 -0.000326574
0.0007957 -3.9682e-06 1.5032e-05
-3.9682e-06 0.0001552 -5.19414e-06
1.5032e-05 -5.19414e-06 0.000120734
-0.0012841 2.74527e-05 -7.88016e-06
2.74527e-05 -0.00110982 1.5662e-06
-7.88016e-06 1.5662e-06 -0.00107141
0.00138459 7.41391e-06 -4.8776e-05
7.41391e-06 0.000174345 -3.44781e-06
-4.8776e-05 -3.44781e-06 4.61586e-05
0.00119242 4.53969e-05 3.57794e-06
4.53969e-05 6.47922e-05 -1.55932e-06
3.57794e-06 -1.55932e-06 7.17544e-06
0.000912725 -5.04513e-05 -1.72964e-05
-5.04513e-05 -0.000102088 -1.3773e-06
-1.72964e-05 -1.3773e-06 -0.000440086
0.00259286 4.5553e-05 6.92877e-05
4.5553e-05 0.00116994 -2.52752e-05
6.92877e-05 -2.52752e-05 0.00106803
7.39189e-06 5.68026e-05 1.64371e-06
5.68026e-05 -0.00045974 -2.33995e-06
1.64371e-06 -2.33995e-06 -0.000305618
0.00106241 3.07906e-05 -4.02355e-06
3.07906e-05 0.000157888 2.59118e-06
-4.02355e-06 2.59118e-06 1.19061e-05
0.00235022 -1.55069e-05 6.70691e-06
-1.55069e-05 0.000250566 -5.9154e-06
6.70691e-06 -5.9154e-06 -0.000363961
0.00222152 0.000147568 2.40605e-06
0.000147568 0.000600065 4.69575e-06
2.40605e-06 4.69575e-06 0.000553085
0.000885395 2.29047e-05 -1.61555e-06
2.29047e-05 3.04697e-05 -1.29498e-06
-1.61555e-06 -1.29498e-06 0.000171863
0.000819427 1.4794e-05 6.58566e-06
1.4794e-05 0.000303104 -6.92633e-09
6.58566e-06 -6.92633e-09 6.85235e-05
0.0028172 5.91208e-05 4.66824e-05
5.91208e-05 0.000237454 -1.96565e-05
4.66824e-05 -1.96565e-05 -0.000426425
-0.00112767 0.000135707 -2.95184e-05
0.000135707 -0.0010499 4.49461e-05
-2.95184e-05 4.49461e-05 -0.00105212
9.82102e-05 -3.98001e-06 8.46139e-06
-3.98001e-06 -0.000380885 4.11892e-07
8.46139e-06 4.11892e-07 -0.000374893
0.00114097 -2.19351e-06 2.39136e-07
-2.19351e-06 9.32177e-05 -7.97031e-07
2.39136e-07 -7.97031e-07 1.77555e-05
0.00109128 1.54461e-05 -3.78332e-07
1.54461e-05 6.88723e-05 -2.30189e-07
-3.78332e-07 -2.30189e-07 3.37111e-07
0.00108175 7.20872e-06 1.79022e-07
7.20872e-06 5.70138e-05 4.61673e-07
1.79022e-07 4.61673e-07 9.5708e-07
0.00106307 2.65168e-05 6.03676e-07
2.65168e-05 5.52039e-05 1.56798e-06
6.03676e-07 1.56798e-06 -1.0129e-05
0.00106138 7.25794e-06 -1.24315e-07
7.25794e-06 5.18492e-05 -4.02736e-07
-1.24315e-07 -4.02736e-07 -2.06398e-05
0.00118779 1.21677e-05 9.77785e-08
1.21677e-05 0.000113084 4.36691e-07
9.77785e-08 4.36691e-07 4.66987e-05
0.00104638 -3.50076e-07 -1.71479e-07
-3.50076e-07 4.17499e-05 1.88228e-06
-1.71479e-07 1.88228e-06 -2.09768e-05
0.00122035 1.64034e-05 -2.46918e-07
1.64034e-05 0.00012908 -7.87281e-07
-2.46918e-07 -7.87281e-07 6.58327e-05
0.00117391 8.69656e-06 3.42184e-08
8.69656e-06 0.000105086 4.65581e-07
3.42184e-08 4.65581e-07 4.48554e-05
0.000956338 -3.85205e-06 -1.89633e-07
-3.85205e-06 -3.50392e-06 4.67671e-07
-1.89633e-07 4.67671e-07 -6.17646e-05
0.00183812 -2.71077e-05 -5.85432e-06
-2.71077e-05 -1.54285e-05 1.77186e-07
-5.85432e-06 1.77186e-07 -5.82452e-06
0.000872119 -7.12438e-05 -5.76852e-06
-7.12438e-05 -0.000201714 2.95693e-06
-5.76852e-06 2.95693e-06 -0.00026194
0.00120076 -6.26702e-05 -1.21336e-06
-6.26702e-05 0.000100944 2.96018e-06
-1.21336e-06 2.96018e-06 -4.87309e-06
0.00112125 -4.08185e-05 -5.22124e-07
-4.08185e-05 9.74039e-05 4.93312e-07
-5.22124e-07 4.93312e-07 -2.96246e-05
0.00119789 -1.92776e-05 3.2811e-07
-1.92776e-05 0.000137723 3.9576e-07
3.2811e-07 3.9576e-07 2.06205e-05
0.000997999 -2.28497e-05 2.84513e-07
-2.28497e-05 3.04639e-05 7.85932e-08
2.84513e-07 7.85932e-08 -6.14493e-05
0.000995943 8.75589e-07 8.27988e-08
8.75589e-07 2.91738e-05 5.2437e-07
8.27988e-08 5.2437e-07 -5.33604e-05
0.00106831 -7.27639e-06 -1.88281e-08
-7.27639e-06 6.13723e-05 6.97737e-07
-1.88281e-08 6.97737e-07 -2.06355e-05
0.00193261 -6.68872e-05 8.97461e-07
-6.68872e-05 -7.47433e-05 3.17252e-07
8.97461e-07 3.17252e-07 -3.39909e-06
0.00115043 -1.02985e-05 1.63771e-07
-1.02985e-05 0.000105609 -2.2777e-07
1.63771e-07 -2.2777e-07 1.65441e-05
0.00129823 -1.1738e-05 8.94012e-09
-1.1738e-05 0.000177489 1.24778e-07
8.94012e-09 1.24778e-07 7.53348e-05
0.00138632 -7.596e-05 5.27203e-07
-7.596e-05 0.000259286 -1.18582e-06
5.27203e-07 -1.18582e-06 0.000109172
0.00120648 -1.61305e-05 -3.01815e-07
-1.61305e-05 0.00015328 1.40518e-07
-3.01815e-07 1.40518e-07 1.76861e-05
0.00178563 -8.31736e-05 -1.1745e-05
-8.31736e-05 1.20272e-05 5.306e-06
-1.1745e-05 5.306e-06 3.32841e-06
0.00104141 -1.99583e-05 -2.43362e-07
-1.99583e-05 0.000186462 -3.24871e-06
-2.43362e-07 -3.24871e-06 -6.30229e-06
0.00120565 -4.98061e-06 -6.5794e-07
-4.98061e-06 0.00013034 -3.9175e-07
-6.5794e-07 -3.9175e-07 1.58063e-05
0.00109937 1.33846e-05 -2.21028e-07
1.33846e-05 7.5463e-05 -2.97639e-07
-2.21028e-07 -2.97639e-07 -1.25404e-05
0.0011724 7.79829e-06 -3.13874e-07
7.79829e-06 0.000107623 -1.42503e-06
-3.13874e-07 -1.42503e-06 1.10499e-05
0.00190616 -1.37029e-06 4.31804e-06
-1.37029e-06 0.000892696 8.17359e-07
4.31804e-06 8.17359e-07 0.000818455
-0.000230241 1.12182e-06 6.19905e-06
1.12182e-06 -0.000433405 -2.25379e-07
6.19905e-06 -2.25379e-07 -0.000455087
-0.00346402 2.76142e-06 6.29481e-05
2.76142e-06 -0.0018847 5.82793e-07
6.29481e-05 5.82793e-07 -0.00186997
0.00146525 2.77879e-05 4.55778e-08
2.77879e-05 0.000243768 1.16569e-06
4.55778e-08 1.16569e-06 0.000146853
0.000582504 1.05089e-05 1.73399e-06
1.05089e-05 -8.92694e-05 -1.08593e-06
1.73399e-06 -1.08593e-06 -0.000219774
0.00122216 5.38841e-05 1.37191e-06
5.38841e-05 0.000180555 -8.27131e-06
1.37191e-06 -8.27131e-06 -1.2173e-05
-0.00059727 -7.18792e-06 -2.46707e-06
-7.18792e-06 -0.000628504 -8.56606e-07
-2.46707e-06 -8.56606e-07 -0.00064684
0.00220079 -9.13402e-05 7.42978e-07
-9.13402e-05 -9.12421e-05 1.72751e-05
7.42978e-07 1.72751e-05 -0.000720825
0.000165431 5.61745e-05 -3.08383e-06
5.61745e-05 4.26936e-05 -3.10837e-05
-3.08383e-06 -3.10837e-05 -0.0001786
0.00305355 -2.21473e-05 6.18505e-05
-2.21473e-05 0.000687485 1.25406e-05
6.18505e-05 1.25406e-05 0.000448946
0.00354096 -0.000192844 4.79544e-05
-0.000192844 0.00116786 5.41012e-05
4.79544e-05 5.41012e-05 0.00107885
0.000568694 -7.51032e-06 -1.15856e-05
-7.51032e-06 -1.27669e-05 -6.82763e-06
-1.15856e-05 -6.82763e-06 -3.89909e-05
0.000577991 -2.06471e-05 -8.07224e-06
-2.06471e-05 -0.000139723 -6.76913e-06
-8.07224e-06 -6.76913e-06 -0.00011324
0.00105678 2.67295e-05 5.81373e-07
2.67295e-05 5.29025e-05 8.47671e-07
5.81373e-07 8.47671e-07 -3.50008e-05
0.00139701 -4.58985e-07 1.26092e-06
-4.58985e-07 0.000543653 1.11931e-06
1.26092e-06 1.11931e-06 0.000477328
0.000879863 1.58512e-06 3.47287e-07
1.58512e-06 7.94775e-05 -6.21112e-07
3.47287e-07 -6.21112e-07 4.4256e-05
-7.12656e-05 -3.23243e-06 9.81854e-06
-3.23243e-06 -0.000345287 1.96074e-06
9.81854e-06 1.96074e-06 -0.000491625
0.000968247 6.53e-05 -2.19782e-05
6.53e-05 0.000376531 -5.35085e-06
-2.19782e-05 -5.35085e-06 0.000168602
0.00477878 -2.18168e-05 1.24169e-05
-2.18168e-05 0.000674436 9.50613e-06
1.24169e-05 9.50613e-06 5.5025e-05
0.000796878 -1.03466e-05 -1.54945e-06
-1.03466e-05 2.74732e-05 1.91871e-06
-1.54945e-06 1.91871e-06 8.84679e-06
0.00123378 -0.000154235 3.48776e-06
-0.000154235 -0.000230742 1.47388e-05
3.48776e-06 1.47388e-05 -0.000163963
0.00105174 1.39288e-05 5.03219e-07
1.39288e-05 4.89697e-05 -6.68114e-06
5.03219e-07 -6.68114e-06 -3.00548e-05
0.000896724 3.15904e-06 1.06361e-06
3.15904e-06 0.000137874 2.52407e-06
1.06361e-06 2.52407e-06 5.71303e-05
0.00140518 -9.2225e-06 8.5404e-07
-9.2225e-06 0.000369289 4.44786e-06
8.5404e-07 4.44786e-06 0.000335887
7.61806e-05 -7.99797e-06 -8.52643e-06
-7.99797e-06 -0.000424299 3.98098e-06
-8.52643e-06 3.98098e-06 -0.000392793
-0.00120808 3.29575e-05 -6.35636e-06
3.29575e-05 -0.000757807 6.72188e-08
-6.35636e-06 6.72188e-08 -0.000822701
0.00663273 -4.76483e-05 -7.18335e-06
-4.76483e-05 0.00182198 1.23558e-05
-7.18335e-06 1.23558e-05 0.00121546
5.72833e-05 -7.5291e-06 7.83453e-06
-7.5291e-06 -0.0011733 -5.85236e-05
7.83453e-06 -5.85236e-05 -0.000814551
0.00129868 2.78686e-05 8.05815e-09
2.78686e-05 0.000162791 6.39423e-07
8.05815e-09 6.39423e-07 6.3149e-05
0.00145776 2.40285e-05 -6.78613e-07
2.40285e-05 0.000248433 -2.69933e-07
-6.78613e-07 -2.69933e-07 0.000141859
0.0011094 2.23266e-05 -4.28062e-07
2.23266e-05 0.000117292 5.54466e-07
-4.28062e-07 5.54466e-07 5.25124e-07
0.00111932 2.19086e-05 4.33469e-08
2.19086e-05 8.41444e-05 -6.38027e-07
4.33469e-08 -6.38027e-07 3.49293e-06
0.00122385 2.51536e-05 -8.53637e-09
2.51536e-05 0.000139399 -3.11237e-07
-8.53637e-09 -3.11237e-07 4.6007e-05
0.00113067 1.89139e-05 -6.07127e-07
1.89139e-05 0.000108143 -1.22983e-06
-6.07127e-07 -1.22983e-06 -1.83032e-06
0.00126279 1.28135e-05 -6.19936e-08
1.28135e-05 0.00015369 -1.68772e-07
-6.19936e-08 -1.68772e-07 6.40539e-05
0.00118993 2.27114e-06 6.37498e-08
2.27114e-06 0.000127438 3.02891e-07
6.37498e-08 3.02891e-07 2.17682e-05
0.00104672 1.42627e-05 3.65071e-07
1.42627e-05 7.10262e-05 4.21137e-07
3.65071e-07 4.21137e-07 -3.98106e-05
0.00105297 1.11453e-05 -4.10616e-07
1.11453e-05 8.59743e-05 2.37467e-07
-4.10616e-07 2.37467e-07 -2.12273e-05
0.00112305 -1.99316e-05 -6.07848e-07
-1.99316e-05 9.09996e-05 7.94022e-07
-6.07848e-07 7.94022e-07 -8.92709e-06
0.00120295 -5.67057e-06 -2.06374e-07
-5.67057e-06 0.000122908 -1.04235e-06
-2.06374e-07 -1.04235e-06 3.58585e-05
0.00112296 -1.80613e-05 1.33665e-07
-1.80613e-05 8.93884e-05 -3.60672e-07
1.33665e-07 -3.60672e-07 7.33368e-06
0.0010841 -2.43736e-05 1.74805e-07
-2.43736e-05 6.71976e-05 -6.67287e-07
1.74805e-07 -6.67287e-07 -2.16364e-05
0.00111412 -2.73781e-05 1.26486e-07
-2.73781e-05 8.50997e-05 -6.30609e-08
1.26486e-07 -6.30609e-08 -8.8759e-06
0.00105568 -2.6452e-05 -4.37248e-07
-2.6452e-05 5.49622e-05 2.41982e-07
-4.37248e-07 2.41982e-07 -3.56014e-05
0.0011394 -3.16847e-05 -6.63148e-07
-3.16847e-05 0.000107754 1.00495e-06
-6.63148e-07 1.00495e-06 1.10614e-05
0.00110711 -3.28361e-05 4.72423e-07
-3.28361e-05 7.89086e-05 -4.92699e-07
4.72423e-07 -4.92699e-07 -6.59583e-06
0.00104347 -3.52771e-05 2.51269e-07
-3.52771e-05 5.09291e-05 1.01451e-06
2.51269e-07 1.01451e-06 -4.34145e-05
0.00118663 -3.13147e-05 7.42133e-07
-3.13147e-05 0.000111144 7.19291e-08
7.42133e-07 7.19291e-08 2.68583e-05
0.00115541 -3.42816e-05 7.36408e-08
-3.42816e-05 9.52141e-05 6.73908e-07
7.36408e-08 6.73908e-07 1.43933e-05
0.00100342 -3.60112e-05 -2.73832e-07
-3.60112e-05 8.55983e-06 1.52062e-06
-2.73832e-07 1.52062e-06 -7.54217e-05
0.00111924 -3.38862e-05 -9.59544e-07
-3.38862e-05 7.26882e-05 5.36713e-07
-9.59544e-07 5.36713e-07 -6.43821e-07
0.00111989 -3.02106e-05 -1.15755e-06
-3.02106e-05 7.56099e-05 4.14309e-07
-1.15755e-06 4.14309e-07 8.03417e-06
0.00104529 -3.36657e-05 -4.89457e-07
-3.36657e-05 3.5915e-05 2.62937e-08
-4.89457e-07 2.62937e-08 -4.03267e-05
0.00110527 -2.44034e-05 -8.53374e-07
-2.44034e-05 6.5183e-05 3.29006e-07
-8.53374e-07 3.29006e-07 6.11394e-07
0.00117816 -3.11708e-05 -5.52593e-08
-3.11708e-05 0.000102703 -1.86775e-07
-5.52593e-08 -1.86775e-07 3.30899e-05
0.00104481 -3.21113e-05 5.12818e-07
-3.21113e-05 4.74213e-05 -1.33758e-06
5.12818e-07 -1.33758e-06 -2.46023e-05
0.00119496 -3.12765e-05 1.3843e-06
-3.12765e-05 0.00011306 -3.08139e-07
1.3843e-06 -3.08139e-07 3.6764e-05
0.00102284 -2.36972e-05 5.58317e-08
-2.36972e-05 2.85311e-05 -1.53057e-08
5.58317e-08 -1.53057e-08 -4.05591e-05
0.00106138 -1.11508e-05 -1.19119e-06
-1.11508e-05 4.22355e-05 1.20987e-06
-1.19119e-06 1.20987e-06 -1.36003e-05
0.00108287 -2.20474e-05 6.01187e-07
-2.20474e-05 6.18563e-05 -3.98735e-07
6.01187e-07 -3.98735e-07 -8.96643e-06
0.00105378 -1.06596e-05 8.78438e-08
-1.06596e-05 4.04188e-05 3.23563e-08
8.78438e-08 3.23563e-08 -1.59225e-05
0.00100161 2.33678e-06 -1.2941e-06
2.33678e-06 8.80109e-06 2.05734e-06
-1.2941e-06 2.05734e-06 -2.65284e-05
0.00105696 -1.10385e-05 7.54143e-07
-1.10385e-05 4.3364e-05 -1.27806e-06
7.54143e-07 -1.27806e-06 -1.23625e-05
0.00100369 1.59824e-06 6.76253e-08
1.59824e-06 8.70802e-06 -5.80294e-09
6.76253e-08 -5.80294e-09 -2.58346e-05
0.0015767 9.40976e-06 -3.89291e-06
9.40976e-06 0.000284719 3.26335e-06
-3.89291e-06 3.26335e-06 0.000283728
0.00100791 1.02741e-06 9.26707e-07
1.02741e-06 9.61099e-06 -1.99286e-06
9.26707e-07 -1.99286e-06 -2.40703e-05
0.00127395 7.43e-06 -1.26902e-06
7.43e-06 0.000131935 6.34258e-07
-1.26902e-06 6.34258e-07 0.000129998
0.00110855 8.42309e-06 -1.41246e-06
8.42309e-06 4.73478e-05 1.62332e-06
-1.41246e-06 1.62332e-06 6.30504e-05
0.000951746 5.31818e-06 1.14129e-06
5.31818e-06 -3.03604e-05 -3.32573e-06
1.14129e-06 -3.32573e-06 -3.31639e-05
0.0017828 7.09348e-06 2.15631e-06
7.09348e-06 0.000377059 -1.26534e-06
2.15631e-06 -1.26534e-06 0.000396357
0.00242326 5.01023e-06 3.96411e-06
5.01023e-06 0.000692323 -4.2039e-06
3.96411e-06 -4.2039e-06 0.00071491
0.000857897 -1.32724e-06 -2.7775e-07
-1.32724e-06 -5.77147e-05 -1.69089e-06
-2.7775e-07 -1.69089e-06 -0.000108251
0.000754714 -3.9368e-06 -5.89431e-07
-3.9368e-06 -0.000119354 -2.48214e-06
-5.89431e-07 -2.48214e-06 -0.000148451
0.0011276 -2.13483e-06 2.97186e-08
-2.13483e-06 7.33115e-05 1.17023e-07
2.97186e-08 1.17023e-07 2.71959e-05
0.000960061 -3.73324e-06 -7.96812e-07
-3.73324e-06 -2.88656e-05 -3.23583e-06
-7.96812e-07 -3.23583e-06 -2.76107e-05
0.000887326 -2.43352e-06 -6.39857e-09
-2.43352e-06 -5.60782e-05 1.72224e-09
-6.39857e-09 1.72224e-09 -8.31276e-05
0.000875044 -3.76242e-06 1.07287e-07
-3.76242e-06 -5.16349e-05 1.26222e-06
1.07287e-07 1.26222e-06 -9.68905e-05
0.00228193 -2.51961e-06 -2.31047e-06
-2.51961e-06 0.000620836 -4.06984e-06
-2.31047e-06 -4.06984e-06 0.00064524
0.000952601 -1.76916e-06 -1.03271e-07
-1.76916e-06 -3.36847e-05 -2.33447e-09
-1.03271e-07 -2.33447e-09 -3.17691e-05
0.0010174 -1.16458e-06 1.13342e-07
-1.16458e-06 6.81359e-06 1.88897e-06
1.13342e-07 1.88897e-06 -1.88162e-05
0.00227571 1.13454e-07 -6.83339e-07
1.13454e-07 0.000617276 6.4655e-10
-6.83339e-07 6.4655e-10 0.000641853
0.000953946 1.85246e-07 -1.32136e-07
1.85246e-07 -3.34167e-05 3.2772e-06
-1.32136e-07 3.2772e-06 -3.12433e-05
0.0022738 2.8218e-06 -2.11367e-06
2.8218e-06 0.000617006 4.05128e-06
-2.11367e-06 4.05128e-06 0.000641438
0.00104144 -6.62494e-06 8.86862e-06
-6.62494e-06 0.000354323 -1.40531e-06
8.86862e-06 -1.40531e-06 0.000287918
0.000816303 1.04682e-05 5.45231e-07
1.04682e-05 0.000171262 7.07493e-07
5.45231e-07 7.07493e-07 0.000166589
0.000745301 -5.19366e-06 8.80119e-05
-5.19366e-06 0.000103438 -1.41293e-05
8.80119e-05 -1.41293e-05 -3.39318e-05
0.00107445 1.54729e-05 -4.96359e-07
1.54729e-05 5.44448e-05 -8.17865e-07
-4.96359e-07 -8.17865e-07 -1.31831e-05
0.000692618 -1.95544e-05 9.97247e-07
-1.95544e-05 8.88612e-06 -6.33008e-06
9.97247e-07 -6.33008e-06 -2.86848e-05
0.000912319 -4.43586e-06 5.04042e-06
-4.43586e-06 0.000223678 -2.67928e-07
5.04042e-06 -2.67928e-07 0.00019251
0.000672313 3.28671e-05 -1.19052e-05
3.28671e-05 1.59035e-07 8.92843e-06
-1.19052e-05 8.92843e-06 6.4275e-05
0.000857984 2.26466e-05 -3.47824e-05
2.26466e-05 -0.000122385 9.53422e-06
-3.47824e-05 9.53422e-06 -0.000312755
0.00499896 6.19816e-05 -2.4277e-06
6.19816e-05 0.00165094 -5.85842e-06
-2.4277e-06 -5.85842e-06 0.00107219
-0.000664991 0.000103812 4.68009e-05
0.000103812 -0.000520313 -2.99828e-05
4.68009e-05 -2.99828e-05 -0.000509537
0.00222253 2.0014e-05 -4.77884e-06
2.0014e-05 0.000873942 3.38848e-06
-4.77884e-06 3.38848e-06 0.000985752
0.00181225 -1.38934e-05 -2.24097e-05
-1.38934e-05 0.000440734 8.41512e-06
-2.24097e-05 8.41512e-06 6.39577e-05
0.00447868 9.94309e-05 1.72506e-05
9.94309e-05 0.00102564 -2.29127e-05
1.72506e-05 -2.29127e-05 0.00044993
5.87293e-05 0.000146142 -5.70642e-06
0.000146142 -0.00068583 1.17802e-05
-5.70642e-06 1.17802e-05 -0.000695334
0.00165391 8.03032e-07 1.15314e-06
8.03032e-07 0.000553225 -3.88605e-06
1.15314e-06 -3.88605e-06 0.000575439
0.000804928 -6.98971e-05 2.86265e-05
-6.98971e-05 -7.2233e-05 -3.50127e-05
2.86265e-05 -3.50127e-05 -0.000484783
0.00671187 9.8752e-05 2.40889e-05
9.8752e-05 0.00144218 -2.82437e-05
2.40889e-05 -2.82437e-05 0.000717084
0.00143056 0.000143428 8.36121e-06
0.000143428 -0.000483036 5.7772e-05
8.36121e-06 5.7772e-05 -0.000493663
0.00104652 4.89574e-06 1.20109e-06
4.89574e-06 0.000171091 7.1725e-06
1.20109e-06 7.1725e-06 0.000135094
0.00104586 -8.18275e-07 -7.99521e-08
-8.18275e-07 4.25878e-05 -8.75989e-07
-7.99521e-08 -8.75989e-07 -3.887e-05
0.00111486 -7.23475e-06 1.09735e-07
-7.23475e-06 8.06322e-05 -2.73008e-08
1.09735e-07 -2.73008e-08 4.41072e-06
0.00118518 1.75684e-05 -3.43771e-08
1.75684e-05 0.000114232 8.01217e-07
-3.43771e-08 8.01217e-07 4.65748e-05
0.00106379 1.40016e-05 -2.10025e-07
1.40016e-05 5.2958e-05 -1.24874e-06
-2.10025e-07 -1.24874e-06 -2.1787e-05
0.00113995 1.59057e-05 -8.83888e-08
1.59057e-05 8.99859e-05 3.96202e-07
-8.83888e-08 3.96202e-07 1.84793e-05
0.00122009 6.56225e-06 2.9546e-07
6.56225e-06 0.000128404 1.49174e-06
2.9546e-07 1.49174e-06 6.26948e-05
0.00125183 1.60292e-05 -1.38675e-07
1.60292e-05 0.000143912 4.27513e-08
-1.38675e-07 4.27513e-08 8.11537e-05
0.0012559 1.63143e-05 2.91102e-07
1.63143e-05 0.000145114 1.42571e-06
2.91102e-07 1.42571e-06 8.56286e-05
0.00163888 -7.50633e-05 -6.04471e-07
-7.50633e-05 -0.000180765 -3.3798e-06
-6.04471e-07 -3.3798e-06 -0.000133937
0.00155063 -7.54174e-05 -2.11127e-06
-7.54174e-05 0.000335097 2.05682e-06
-2.11127e-06 2.05682e-06 0.000185223
0.00111852 -2.79614e-05 6.64322e-08
-2.79614e-05 8.65562e-05 1.05684e-06
6.64322e-08 1.05684e-06 4.47575e-06
0.00130722 -1.80823e-05 2.40746e-07
-1.80823e-05 0.000197361 5.20077e-07
2.40746e-07 5.20077e-07 6.26184e-05
0.00134258 -1.43302e-05 2.46972e-07
-1.43302e-05 0.000200513 7.06236e-07
2.46972e-07 7.06236e-07 9.68105e-05
0.00118575 -9.70718e-07 2.07417e-07
-9.70718e-07 0.000124275 3.97113e-07
2.07417e-07 3.97113e-07 3.57813e-05
0.0011138 1.14088e-05 -3.48521e-08
1.14088e-05 8.24068e-05 2.73781e-08
-3.48521e-08 2.73781e-08 -5.52934e-06
0.0018053 -7.89043e-05 4.48049e-07
-7.89043e-05 2.55593e-05 -7.29165e-07
4.48049e-07 -7.29165e-07 2.67153e-05
0.0011241 3.38198e-06 4.77428e-10
3.38198e-06 8.36901e-05 2.63657e-07
4.77428e-10 2.63657e-07 -1.35037e-05
0.00119712 -8.169e-06 2.2406e-07
-8.169e-06 0.000127926 -1.44629e-08
2.2406e-07 -1.44629e-08 1.04611e-05
0.00109162 -2.20478e-05 -2.54173e-07
-2.20478e-05 0.00021105 4.23954e-07
-2.54173e-07 4.23954e-07 1.6259e-05
0.00110299 2.00268e-05 -1.35944e-07
2.00268e-05 7.31117e-05 1.0128e-07
-1.35944e-07 1.0128e-07 -1.65148e-05
0.00212387 -6.36055e-05 -1.63817e-05
-6.36055e-05 0.000443224 1.17844e-05
-1.63817e-05 1.17844e-05 0.000313202
0.00124051 1.7661e-05 -9.3129e-07
1.7661e-05 0.000256068 -3.22297e-06
-9.3129e-07 -3.22297e-06 8.76417e-05
0.0012889 3.42872e-07 -4.46422e-07
3.42872e-07 0.000157801 -1.60013e-06
-4.46422e-07 -1.60013e-06 5.44379e-05
0.00121657 1.75948e-05 -2.48812e-07
1.75948e-05 0.000126871 -5.61425e-07
-2.48812e-07 -5.61425e-07 3.1439e-05
0.00143673 -2.80235e-06 1.0461e-06
-2.80235e-06 0.000500051 5.57087e-08
1.0461e-06 5.57087e-08 0.000406803
0.00156873 -9.7991e-07 -4.83924e-06
-9.7991e-07 0.000679486 3.34615e-07
-4.83924e-06 3.34615e-07 0.000605101
-0.0012735 1.67725e-06 8.20202e-07
1.67725e-06 -0.00102889 4.56658e-07
8.20202e-07 4.56658e-07 -0.0010566
0.000961063 2.6575e-05 -2.84792e-07
2.6575e-05 3.09025e-06 1.86673e-06
-2.84792e-07 1.86673e-06 -8.33631e-05
-0.000648993 -1.1347e-05 -3.51013e-06
-1.1347e-05 -0.0006378 2.3791e-06
-3.51013e-06 2.3791e-06 -0.000813536
0.000903039 2.04592e-07 -1.06939e-05
2.04592e-07 0.000239358 -1.54069e-06
-1.06939e-05 -1.54069e-06 0.000166941
0.0036773 -0.000136481 1.43429e-05
-0.000136481 0.000642167 8.47596e-06
1.43429e-05 8.47596e-06 -5.80969e-05
0.00397645 0.000103557 -1.59798e-05
0.000103557 0.00136178 -5.27775e-05
-1.59798e-05 -5.27775e-05 0.00105456
0.00238073 -0.000173106 -2.285e-06
-0.000173106 -8.30743e-05 7.28832e-05
-2.285e-06 7.28832e-05 9.06286e-05
0.000622166 1.40961e-06 -4.25386e-06
1.40961e-06 -8.53996e-05 -6.10601e-06
-4.25386e-06 -6.10601e-06 -0.000120459
0.00051741 -8.60387e-06 1.18583e-06
-8.60387e-06 -0.000110285 -2.95649e-07
1.18583e-06 -2.95649e-07 -0.00013935
0.00129214 1.71534e-05 -7.31175e-07
1.71534e-05 0.000167862 -8.55272e-07
-7.31175e-07 -8.55272e-07 8.65017e-05
0.000774953 2.93104e-06 1.51022e-07
2.93104e-06 6.35569e-05 9.66395e-07
1.51022e-07 9.66395e-07 -1.75214e-05
0.000927449 -9.86106e-06 -1.14723e-06
-9.86106e-06 7.65937e-05 -1.30086e-07
-1.14723e-06 -1.30086e-07 3.77626e-05
0.000304469 1.62809e-05 3.71737e-06
1.62809e-05 -3.19772e-05 -4.07783e-06
3.71737e-06 -4.07783e-06 -7.16789e-05
0.00153331 -3.34885e-06 -1.1284e-06
-3.34885e-06 0.000456698 2.80152e-06
-1.1284e-06 2.80152e-06 0.000500546
0.00317522 3.4035e-06 7.38395e-06
3.4035e-06 -4.8002e-05 1.05126e-05
7.38395e-06 1.05126e-05 -0.000430609
0.00302417 -5.77374e-06 1.79857e-06
-5.77374e-06 3.82478e-05 1.52472e-06
1.79857e-06 1.52472e-06 0.000437356
-0.000172162 1.65056e-05 1.2162e-06
1.65056e-05 -0.000452202 -6.32935e-06
1.2162e-06 -6.32935e-06 -0.000526432
0.00112377 -5.40041e-06 8.05177e-07
-5.40041e-06 0.000239751 2.24889e-06
8.05177e-07 2.24889e-06 0.00016521
0.000745404 -1.77e-05 -2.08503e-06
-1.77e-05 7.58803e-06 9.25859e-06
-2.08503e-06 9.25859e-06 -3.83726e-05
0.00125051 3.10848e-05 -6.17621e-06
3.10848e-05 0.000222655 7.77738e-06
-6.17621e-06 7.77738e-06 0.000373012
0.0020056 0.000165772 -3.98914e-06
0.000165772 -5.58094e-05 -5.61839e-05
-3.98914e-06 -5.61839e-05 -4.17251e-05
0.00140711 1.60042e-05 1.36809e-05
1.60042e-05 0.000744049 -1.09563e-05
1.36809e-05 -1.09563e-05 0.000668882
0.00381701 -5.48401e-05 3.29637e-05
-5.48401e-05 0.000541729 2.77511e-05
3.29637e-05 2.77511e-05 -0.000209575
0.00116323 1.94101e-05 -1.05609e-06
1.94101e-05 0.000107344 8.60004e-08
-1.05609e-06 8.60004e-08 -4.67418e-08
0.00116753 2.13809e-05 -3.99801e-07
2.13809e-05 0.000139195 -7.17858e-07
-3.99801e-07 -7.17858e-07 2.53265e-05
0.000660432 1.12045e-05 -9.73718e-07
1.12045e-05 -4.27102e-05 -1.49839e-06
-9.73718e-07 -1.49839e-06 -0.000206842
0.00123224 1.07005e-05 -4.18661e-08
1.07005e-05 0.000139007 -6.09054e-07
-4.18661e-08 -6.09054e-07 4.97758e-05
0.00127609 2.96892e-06 1.52996e-07
2.96892e-06 0.000171046 -6.38715e-07
1.52996e-07 -6.38715e-07 6.49918e-05
0.00101285 1.59796e-05 1.02685e-07
1.59796e-05 4.96954e-05 4.83617e-07
1.02685e-07 4.83617e-07 -6.25635e-05
0.00111337 -2.02962e-05 -1.71411e-07
-2.02962e-05 8.66266e-05 2.21664e-07
-1.71411e-07 2.21664e-07 -1.31498e-05
0.001015 4.30319e-06 4.71038e-08
4.30319e-06 6.6779e-05 8.59831e-07
4.71038e-08 8.59831e-07 -4.05957e-05
0.00102778 -2.00414e-05 2.00454e-07
-2.00414e-05 9.63786e-05 1.4387e-07
2.00454e-07 1.4387e-07 -2.35107e-05
0.0011213 -2.73726e-05 2.42485e-07
-2.73726e-05 8.70598e-05 -4.85436e-07
2.42485e-07 -4.85436e-07 -6.59924e-06
0.00100235 -2.44918e-05 1.21033e-07
-2.44918e-05 2.8978e-05 6.6339e-08
1.21033e-07 6.6339e-08 -6.17629e-05
0.00118744 -3.29003e-05 1.57649e-07
-3.29003e-05 0.000129429 4.66585e-07
1.57649e-07 4.66585e-07 3.17223e-05
0.00101534 -3.63053e-05 -7.51663e-07
-3.63053e-05 6.70382e-05 1.61362e-06
-7.51663e-07 1.61362e-06 -4.21755e-05
0.00102933 -3.17906e-05 6.47391e-07
-3.17906e-05 4.47397e-05 -2.13072e-08
6.47391e-07 -2.13072e-08 -3.7781e-05
0.000964211 -3.39448e-05 7.21477e-07
-3.39448e-05 1.63011e-05 -5.51101e-07
7.21477e-07 -5.51101e-07 -7.71956e-05
0.00118915 -4.11791e-05 -7.64769e-08
-4.11791e-05 0.000112898 1.46575e-06
-7.64769e-08 1.46575e-06 1.57888e-05
0.00121428 -3.92378e-05 -1.51984e-06
-3.92378e-05 0.000100314 1.62573e-06
-1.51984e-06 1.62573e-06 1.90333e-05
0.00134354 -3.67546e-05 4.32924e-07
-3.67546e-05 0.000184257 -8.88849e-08
4.32924e-07 -8.88849e-08 0.000103375
0.00108097 -3.72154e-05 -1.76832e-07
-3.72154e-05 4.54892e-05 -8.39e-08
-1.76832e-07 -8.39e-08 -3.93985e-05
0.00125729 -3.46161e-05 4.36037e-08
-3.46161e-05 0.000138931 3.00462e-07
4.36037e-08 3.00462e-07 6.97221e-05
0.00100201 -2.70542e-05 -6.86828e-07
-2.70542e-05 2.66298e-05 2.76584e-07
-6.86828e-07 2.76584e-07 -4.09082e-05
0.00111626 -3.36974e-05 4.56847e-07
-3.36974e-05 7.06854e-05 5.82213e-08
4.56847e-07 5.82213e-08 -1.66203e-06
0.00109779 -2.10009e-05 -1.02872e-06
-2.10009e-05 6.39515e-05 1.59205e-07
-1.02872e-06 1.59205e-07 1.82537e-06
0.00113308 -3.03507e-05 -6.20931e-07
-3.03507e-05 8.16829e-05 3.88263e-07
-6.20931e-07 3.88263e-07 1.39797e-05
0.000951244 -3.23482e-05 8.49355e-08
-3.23482e-05 -7.11309e-06 -7.14018e-07
8.49355e-08 -7.14018e-07 -8.34312e-05
0.00106434 -1.02243e-05 -1.38729e-06
-1.02243e-05 4.20192e-05 1.04245e-06
-1.38729e-06 1.04245e-06 -1.20291e-05
0.00106378 -2.40496e-05 5.60842e-08
-2.40496e-05 4.44734e-05 9.36106e-08
5.60842e-08 9.36106e-08 -2.04045e-05
0.00113985 -3.10667e-05 1.39633e-06
-3.10667e-05 8.40779e-05 -3.69854e-07
1.39633e-06 -3.69854e-07 1.40567e-05
0.00107024 -2.43958e-05 1.0332e-06
-2.43958e-05 5.18479e-05 -5.14248e-07
1.0332e-06 -5.14248e-07 -1.6916e-05
0.00105585 -1.06286e-05 6.06892e-08
-1.06286e-05 3.91864e-05 4.08816e-08
6.06892e-08 4.08816e-08 -1.64995e-05
0.0010012 2.9005e-06 -1.6294e-06
2.9005e-06 9.41466e-06 2.06521e-06
-1.6294e-06 2.06521e-06 -2.62293e-05
0.00105308 -1.08755e-05 1.01807e-06
-1.08755e-05 3.98358e-05 -1.15343e-06
1.01807e-06 -1.15343e-06 -1.64142e-05
0.000999817 2.50952e-06 8.45823e-08
2.50952e-06 7.90074e-06 5.7289e-09
8.45823e-08 5.7289e-09 -2.74246e-05
0.000916913 9.95975e-06 -2.05111e-06
9.95975e-06 -3.80169e-05 3.32428e-06
-2.05111e-06 3.32428e-06 -4.28313e-05
0.00100494 1.47923e-06 1.17876e-06
1.47923e-06 9.29196e-06 -2.02797e-06
1.17876e-06 -2.02797e-06 -2.52819e-05
0.000930188 8.5246e-06 1.04434e-07
8.5246e-06 -3.47922e-05 1.52776e-08
1.04434e-07 1.52776e-08 -3.89383e-05
0.00241896 1.38044e-05 -2.97152e-06
1.38044e-05 0.00069861 1.68106e-06
-2.97152e-06 1.68106e-06 0.000719738
0.000948012 6.98519e-06 1.52357e-06
6.98519e-06 -2.94315e-05 -3.32256e-06
1.52357e-06 -3.32256e-06 -3.2861e-05
0.00178935 9.50591e-06 2.64994e-06
9.50591e-06 0.000383446 -1.25041e-06
2.64994e-06 -1.25041e-06 0.000402151
0.00243311 7.68672e-06 5.44525e-06
7.68672e-06 0.000699507 -4.17929e-06
5.44525e-06 -4.17929e-06 0.000721655
0.000841819 -5.38276e-07 -4.59148e-07
-5.38276e-07 -6.569e-05 -1.82621e-06
-4.59148e-07 -1.82621e-06 -0.000119275
0.000739508 -5.25073e-06 -7.5579e-07
-5.25073e-06 -0.000124036 -2.51771e-06
-7.5579e-07 -2.51771e-06 -0.00015549
0.000999525 -2.29967e-06 -5.54382e-08
-2.29967e-06 1.15265e-05 -5.21521e-07
-5.54382e-08 -5.21521e-07 -3.83856e-05
0.000961642 -5.66345e-06 -1.09504e-06
-5.66345e-06 -2.59976e-05 -3.21746e-06
-1.09504e-06 -3.21746e-06 -2.57895e-05
0.000748675 -3.97626e-06 -9.8653e-08
-3.97626e-06 -0.000122115 -5.97094e-07
-9.8653e-08 -5.97094e-07 -0.000151437
0.00113473 -1.54107e-06 2.28785e-07
-1.54107e-06 7.66839e-05 1.29008e-06
2.28785e-07 1.29008e-06 3.04624e-05
0.00229224 -5.1422e-06 -3.88215e-06
-5.1422e-06 0.000627273 -4.05711e-06
-3.88215e-06 -4.05711e-06 0.000651303
0.00095115 -3.70699e-06 -8.29881e-08
-3.70699e-06 -3.32466e-05 -3.5582e-10
-8.29881e-08 -3.5582e-10 -3.1932e-05
0.000757577 -2.45877e-06 3.206e-07
-2.45877e-06 -0.000119574 1.8805e-06
3.206e-07 1.8805e-06 -0.000147457
0.00228602 -2.46452e-06 -6.57569e-07
-2.46452e-06 0.000622736 7.69107e-09
-6.57569e-07 7.69107e-09 0.000647158
0.000948223 -1.73477e-06 2.49303e-07
-1.73477e-06 -3.58565e-05 3.28438e-06
2.49303e-07 3.28438e-06 -3.39105e-05
0.00227455 1.68039e-07 -4.94685e-07
1.68039e-07 0.000616691 4.0439e-06
-4.94685e-07 4.0439e-06 0.000641284
0.000903929 -1.65131e-05 1.38849e-06
-1.65131e-05 0.000169742 -8.47187e-07
1.38849e-06 -8.47187e-07 9.05704e-05
0.000880769 -6.92049e-06 -7.60159e-08
-6.92049e-06 0.000251035 6.31789e-07
-7.60159e-08 6.31789e-07 0.000186249
0.000700895 8.83e-06 -7.65633e-06
8.83e-06 9.56602e-05 1.85376e-06
-7.65633e-06 1.85376e-06 8.98707e-05
0.00111722 2.11287e-05 -2.68299e-07
2.11287e-05 7.54246e-05 6.51881e-08
-2.68299e-07 6.51881e-08 8.32206e-06
0.000990974 2.40375e-05 -6.84133e-07
2.40375e-05 8.31238e-06 -7.50565e-07
-6.84133e-07 -7.50565e-07 -6.05917e-05
0.00120336 2.17862e-05 2.18228e-08
2.17862e-05 0.00012025 1.02585e-07
2.18228e-08 1.02585e-07 4.46517e-05
0.00108658 6.00287e-07 -3.35868e-06
6.00287e-07 0.000210033 1.63858e-07
-3.35868e-06 1.63858e-07 0.000177384
0.000902651 -1.9715e-05 8.45936e-08
-1.9715e-05 0.000138477 4.80035e-07
8.45936e-08 4.80035e-07 0.00010003
0.00107689 -4.97404e-06 -4.50186e-06
-4.97404e-06 0.000323766 5.91673e-06
-4.50186e-06 5.91673e-06 0.000295408
0.000345272 1.90758e-05 -2.21499e-05
1.90758e-05 0.000112256 1.10036e-05
-2.21499e-05 1.10036e-05 -0.000159814
0.00380994 4.12895e-05 -5.18811e-06
4.12895e-05 0.000728831 -1.5632e-05
-5.18811e-06 -1.5632e-05 6.15688e-05
0.00312223 0.000188243 1.89681e-05
0.000188243 0.000862033 -2.34549e-05
1.89681e-05 -2.34549e-05 0.000796338
0.00143144 -5.41488e-06 -5.13299e-06
-5.41488e-06 0.000478466 -1.02512e-06
-5.13299e-06 -1.02512e-06 0.000475056
0.000163825 -2.97956e-05 -1.41824e-05
-2.97956e-05 3.14241e-05 9.90659e-06
-1.41824e-05 9.90659e-06 -0.000241197
0.00546653 7.0594e-05 2.76405e-05
7.0594e-05 0.0011354 -4.47669e-05
2.76405e-05 -4.47669e-05 0.000472987
0.000325664 0.000108229 4.01443e-06
0.000108229 -0.000563395 1.03418e-05
4.01443e-06 1.03418e-05 -0.000534876
0.000851239 6.31154e-06 3.42623e-06
6.31154e-06 8.5962e-05 -7.14711e-07
3.42623e-06 -7.14711e-07 4.56008e-05
-0.000469897 -8.94703e-05 2.41157e-05
-8.94703e-05 -0.000470634 -3.98183e-05
2.41157e-05 -3.98183e-05 -0.000644598
0.00719352 9.16528e-05 2.31087e-05
9.16528e-05 0.00155994 -3.35965e-05
2.31087e-05 -3.35965e-05 0.00123557
0.000772044 6.39612e-06 -7.11199e-06
6.39612e-06 -0.000867624 5.91074e-05
-7.11199e-06 5.91074e-05 -0.000620127
-0.000314341 1.27512e-05 -4.17266e-06
1.27512e-05 -0.000613045 2.89157e-06
-4.17266e-06 2.89157e-06 -0.000610441
0.00112539 2.00358e-05 -4.34485e-07
2.00358e-05 8.19164e-05 -4.37587e-07
-4.34485e-07 -4.37587e-07 -2.3307e-06
0.00106059 -8.96874e-07 6.36538e-09
-8.96874e-07 5.03506e-05 -2.82435e-07
6.36538e-09 -2.82435e-07 -3.12054e-05
0.0010812 -1.07896e-05 1.77594e-07
-1.07896e-05 6.41765e-05 9.02549e-07
1.77594e-07 9.02549e-07 -1.26966e-05
0.00108783 1.61007e-05 -2.22634e-07
1.61007e-05 6.47082e-05 -7.34027e-07
-2.22634e-07 -7.34027e-07 -1.02797e-05
0.00121939 2.51656e-05 4.26769e-07
2.51656e-05 0.000128688 1.27024e-06
4.26769e-07 1.27024e-06 5.80838e-05
0.001282 1.58307e-05 -3.16799e-08
1.58307e-05 0.000158108 9.83598e-07
-3.16799e-08 9.83598e-07 9.58397e-05
0.00178432 -7.21304e-05 8.41261e-06
-7.21304e-05 1.6365e-05 -5.2195e-06
8.41261e-06 -5.2195e-06 2.96847e-05
0.00115345 -1.50281e-05 -7.78062e-07
-1.50281e-05 0.000239698 4.58206e-06
-7.78062e-07 4.58206e-06 4.40556e-05
0.00111922 1.08131e-05 1.96258e-07
1.08131e-05 8.48634e-05 5.8402e-07
1.96258e-07 5.8402e-07 -2.94895e-06
0.00118237 -1.14777e-05 9.90419e-07
-1.14777e-05 0.000122807 7.07787e-07
9.90419e-07 7.07787e-07 2.48788e-06
0.00110298 8.40726e-07 5.52665e-07
8.40726e-07 7.29866e-05 1.38146e-06
5.52665e-07 1.38146e-06 -2.49306e-05
0.0011278 1.81793e-05 1.78773e-07
1.81793e-05 8.55994e-05 3.8782e-07
1.78773e-07 3.8782e-07 -4.22898e-06
0.00114624 1.60591e-05 1.12103e-07
1.60591e-05 9.12166e-05 2.65039e-07
1.12103e-07 2.65039e-07 -4.58402e-06
0.00135559 -5.6928e-05 1.49868e-06
-5.6928e-05 2.97717e-05 9.42006e-07
1.49868e-06 9.42006e-07 -7.10664e-05
0.00123141 -3.33633e-06 1.13485e-07
-3.33633e-06 0.000128184 -7.69913e-07
1.13485e-07 -7.69913e-07 2.53466e-05
0.00133226 2.19903e-05 -3.41343e-07
2.19903e-05 0.000298249 -3.47922e-07
-3.41343e-07 -3.47922e-07 0.000127939
0.000972173 1.5187e-05 -7.30571e-07
1.5187e-05 7.83678e-06 -1.09992e-06
-7.30571e-07 -1.09992e-06 -9.01021e-05
0.00197004 -2.14503e-05 -9.35285e-06
-2.14503e-05 0.000613726 1.29409e-05
-9.35285e-06 1.29409e-05 0.000439837
0.000988221 9.18474e-06 -5.5547e-07
9.18474e-06 2.41915e-05 -3.66809e-06
-5.5547e-07 -3.66809e-06 -7.75454e-05
0.00110166 -3.36897e-08 -5.3051e-07
-3.36897e-08 7.30614e-05 -9.97945e-07
-5.3051e-07 -9.97945e-07 -2.78832e-05
0.00119656 -1.37368e-06 7.39376e-07
-1.37368e-06 0.000304023 -4.52381e-07
7.39376e-07 -4.52381e-07 0.000216209
0.000910943 -3.48378e-06 5.75314e-07
-3.48378e-06 0.000170015 3.81467e-07
5.75314e-07 3.81467e-07 7.64019e-05
0.00117114 -7.20146e-07 -1.44748e-05
-7.20146e-07 0.000428748 1.5608e-06
-1.44748e-05 1.5608e-06 0.000354342
0.001476 2.86366e-05 -1.72483e-07
2.86366e-05 0.000259989 4.12488e-06
-1.72483e-07 4.12488e-06 0.000176119
0.0010152 5.19087e-06 3.10098e-06
5.19087e-06 0.000268204 -2.14736e-06
3.10098e-06 -2.14736e-06 0.000232065
0.000649853 2.64951e-06 -9.62138e-07
2.64951e-06 -1.27187e-05 -5.66697e-07
-9.62138e-07 -5.66697e-07 -9.41584e-05
0.00397413 -2.98613e-05 -5.57667e-06
-2.98613e-05 0.000695447 -1.1456e-05
-5.57667e-06 -1.1456e-05 0.000631228
-4.92237e-05 5.43946e-07 -1.45809e-06
5.43946e-07 -0.00121643 5.87517e-05
-1.45809e-06 5.87517e-05 -0.000835833
0.000527681 -1.06759e-05 -5.54068e-07
-1.06759e-05 -0.000167481 -1.51625e-06
-5.54068e-07 -1.51625e-06 -0.000212011
0.00128413 -8.69268e-06 5.53712e-06
-8.69268e-06 0.000363937 -3.59961e-06
5.53712e-06 -3.59961e-06 0.000379547
0.000880274 7.53504e-06 3.55143e-06
7.53504e-06 1.2688e-05 1.58126e-06
3.55143e-06 1.58126e-06 -5.89185e-05
0.000954097 -6.42713e-06 4.58743e-07
-6.42713e-06 0.000135373 1.88441e-06
4.58743e-07 1.88441e-06 5.81926e-05
0.000956067 -1.89901e-05 -9.18939e-07
-1.89901e-05 0.000136265 -2.05492e-07
-9.18939e-07 -2.05492e-07 9.00827e-05
0.000624358 6.58466e-05 -3.94644e-06
6.58466e-05 0.000124443 -9.13437e-08
-3.94644e-06 -9.13437e-08 -0.0001946
0.00104427 2.4036e-05 1.31017e-06
2.4036e-05 0.000127564 -2.28789e-07
1.31017e-06 -2.28789e-07 0.000272535
-0.000450232 0.000121652 -1.44368e-06
0.000121652 -0.000829209 -1.15695e-05
-1.44368e-06 -1.15695e-05 -0.000744511
0.0067313 -2.62708e-05 8.47768e-06
-2.62708e-05 0.00125038 -2.49404e-05
8.47768e-06 -2.49404e-05 0.00140143
0.00108434 -4.12291e-06 2.03668e-06
-4.12291e-06 0.000396571 -1.17644e-05
2.03668e-06 -1.17644e-05 0.00025237
0.000932338 -1.26125e-05 -2.35557e-06
-1.26125e-05 0.000169497 1.28798e-06
-2.35557e-06 1.28798e-06 8.01234e-05
0.000818005 -6.3605e-07 -1.59399e-05
-6.3605e-07 0.000143337 7.36336e-06
-1.59399e-05 7.36336e-06 0.000104087
0.000562915 5.17645e-05 1.44317e-06
5.17645e-05 -0.000203795 2.34773e-06
1.44317e-06 2.34773e-06 -9.44492e-06
-0.00164391 0.000144725 2.64133e-05
0.000144725 -0.00117563 -4.4625e-05
2.64133e-05 -4.4625e-05 -0.00118462
0.00805487 0.000106269 -9.6095e-06
0.000106269 0.00224297 -5.59696e-06
-9.6095e-06 -5.59696e-06 0.00176847
-0.000259342 -2.70644e-05 -1.84768e-05
-2.70644e-05 -4.50746e-05 7.4396e-05
-1.84768e-05 7.4396e-05 -0.000649449
0.00125184 2.02006e-05 8.70084e-07
2.02006e-05 0.000171667 -1.32773e-06
8.70084e-07 -1.32773e-06 6.11762e-05
0.000888391 1.09597e-05 9.41408e-07
1.09597e-05 6.437e-05 -1.94294e-06
9.41408e-07 -1.94294e-06 -9.85993e-05
0.000824618 -3.64668e-06 2.46672e-08
-3.64668e-06 9.48214e-05 9.51742e-07
2.46672e-08 9.51742e-07 -0.000100725
0.00110448 -2.13802e-05 2.03941e-07
-2.13802e-05 8.23873e-05 -6.59195e-07
2.03941e-07 -6.59195e-07 -1.71845e-05
0.00100982 1.78932e-06 5.60377e-07
1.78932e-06 6.37051e-05 1.08993e-06
5.60377e-07 1.08993e-06 -4.3882e-05
0.00100208 -1.66841e-05 -1.53762e-07
-1.66841e-05 8.27643e-05 4.81501e-07
-1.53762e-07 4.81501e-07 -3.55741e-05
0.000880471 -3.47047e-05 8.17826e-07
-3.47047e-05 6.07885e-05 -8.86195e-07
8.17826e-07 -8.86195e-07 -9.23252e-05
0.00124335 -3.41784e-05 4.53822e-07
-3.41784e-05 0.00015477 -1.83063e-07
4.53822e-07 -1.83063e-07 5.61501e-05
0.00122037 -4.02915e-05 -3.73033e-07
-4.02915e-05 0.000163898 4.78978e-07
-3.73033e-07 4.78978e-07 5.2176e-05
0.00130968 -4.86248e-05 -1.73009e-07
-4.86248e-05 0.000200454 2.07238e-06
-1.73009e-07 2.07238e-06 7.99452e-05
0.000892175 -3.27111e-05 5.15679e-07
-3.27111e-05 -1.50099e-05 -1.38255e-06
5.15679e-07 -1.38255e-06 -0.000107652
0.00123935 -4.1633e-05 -1.63653e-07
-4.1633e-05 0.000136957 -2.16487e-08
-1.63653e-07 -2.16487e-08 3.92016e-05
0.00146659 -4.75665e-05 -1.77584e-06
-4.75665e-05 0.000224643 1.27013e-06
-1.77584e-06 1.27013e-06 0.000128875
0.00136931 -4.20233e-05 -1.30241e-06
-4.20233e-05 0.000169411 1.46275e-06
-1.30241e-06 1.46275e-06 8.61936e-05
0.000955027 -3.24893e-05 -4.66787e-07
-3.24893e-05 -1.54925e-05 1.44918e-06
-4.66787e-07 1.44918e-06 -8.79222e-05
0.00113719 -3.84567e-05 -1.61728e-07
-3.84567e-05 6.41485e-05 2.06413e-07
-1.61728e-07 2.06413e-07 -1.83331e-05
0.00115331 -3.83287e-05 1.5056e-07
-3.83287e-05 8.01039e-05 -8.62734e-07
1.5056e-07 -8.62734e-07 -5.70564e-06
0.00123423 -3.19637e-05 9.65293e-08
-3.19637e-05 0.000128414 4.22973e-08
9.65293e-08 4.22973e-08 6.36325e-05
0.00113576 -3.29092e-05 7.05084e-07
-3.29092e-05 8.08132e-05 -5.32671e-07
7.05084e-07 -5.32671e-07 1.26778e-05
0.000970677 -1.62421e-05 -4.91439e-07
-1.62421e-05 9.95773e-06 6.02879e-07
-4.91439e-07 6.02879e-07 -5.23213e-05
0.00108259 -2.78738e-05 1.55312e-07
-2.78738e-05 6.51121e-05 -1.08468e-07
1.55312e-07 -1.08468e-07 -1.7988e-06
0.00111156 -3.34798e-05 2.12232e-06
-3.34798e-05 6.78488e-05 -1.17636e-06
2.12232e-06 -1.17636e-06 -3.51258e-06
0.00104682 -4.88989e-06 -1.52651e-06
-4.88989e-06 3.60109e-05 8.84036e-07
-1.52651e-06 8.84036e-07 -1.65028e-05
0.00110724 -2.14522e-05 -2.61087e-07
-2.14522e-05 6.76612e-05 -4.55361e-08
-2.61087e-07 -4.55361e-08 5.65869e-06
0.00115204 -3.05678e-05 3.59401e-07
-3.05678e-05 9.05889e-05 -1.48368e-07
3.59401e-07 -1.48368e-07 2.27416e-05
0.00099478 4.3471e-06 -2.00381e-06
4.3471e-06 7.48287e-06 1.95684e-06
-2.00381e-06 1.95684e-06 -2.7773e-05
0.00105908 -1.0154e-05 8.28896e-08
-1.0154e-05 3.90072e-05 7.90159e-08
8.28896e-08 7.90159e-08 -1.48659e-05
0.00102768 -2.39482e-05 1.21771e-06
-2.39482e-05 2.63018e-05 -2.01554e-07
1.21771e-06 -2.01554e-07 -3.88901e-05
0.00105027 -1.02883e-05 1.27149e-06
-1.02883e-05 3.61001e-05 -1.06508e-06
1.27149e-06 -1.06508e-06 -1.94302e-05
0.000996055 3.26006e-06 1.18449e-07
3.26006e-06 6.88355e-06 3.06691e-08
1.18449e-07 3.06691e-08 -2.87135e-05
0.000908994 1.13265e-05 -2.43447e-06
1.13265e-05 -3.87298e-05 3.31275e-06
-2.43447e-06 3.31275e-06 -4.41334e-05
0.000998351 2.34607e-06 1.43618e-06
2.34607e-06 7.14463e-06 -2.01887e-06
1.43618e-06 -2.01887e-06 -2.81755e-05
0.000924963 9.99283e-06 9.41292e-08
9.99283e-06 -3.41263e-05 1.33148e-08
9.41292e-08 1.33148e-08 -3.8979e-05
0.00249549 1.52382e-05 -8.57746e-06
1.52382e-05 0.000739659 4.04839e-06
-8.57746e-06 4.04839e-06 0.000759909
0.000941726 8.52983e-06 1.90471e-06
8.52983e-06 -2.93428e-05 -3.31685e-06
1.90471e-06 -3.31685e-06 -3.35066e-05
0.00179166 1.18658e-05 3.0818e-06
1.18658e-05 0.000388514 -1.22771e-06
3.0818e-06 -1.22771e-06 0.000406486
0.00244485 1.02842e-05 6.81699e-06
1.02842e-05 0.000708315 -4.14778e-06
6.81699e-06 -4.14778e-06 0.000729889
0.00103677 9.13513e-06 -7.83266e-07
9.13513e-06 2.90395e-05 -1.21636e-06
-7.83266e-07 -1.21636e-06 -2.51089e-05
0.000995819 -7.34602e-06 -8.62997e-07
-7.34602e-06 4.38348e-06 -1.95836e-06
-8.62997e-07 -1.95836e-06 -2.76405e-05
0.000943425 4.0825e-06 -3.58498e-07
4.0825e-06 -1.53526e-05 -5.452e-07
-3.58498e-07 -5.452e-07 -6.85055e-05
0.000959445 -7.47426e-06 -1.40137e-06
-7.47426e-06 -2.40265e-05 -3.2147e-06
-1.40137e-06 -3.2147e-06 -2.52711e-05
0.000872586 -5.43301e-06 -1.74808e-07
-5.43301e-06 -5.86676e-05 -6.02861e-07
-1.74808e-07 -6.02861e-07 -8.93898e-05
0.00114087 -3.37952e-06 1.80845e-07
-3.37952e-06 8.06474e-05 6.94964e-07
1.80845e-07 6.94964e-07 3.13625e-05
0.00231457 -7.77879e-06 -5.26743e-06
-7.77879e-06 0.000640606 -4.04706e-06
-5.26743e-06 -4.04706e-06 0.000663993
0.000948372 -5.64903e-06 -7.37859e-08
-5.64903e-06 -3.24935e-05 -5.41846e-09
-7.37859e-08 -5.41846e-09 -3.21974e-05
0.000741612 -3.99838e-06 3.68797e-07
-3.99838e-06 -0.000125368 1.28612e-06
3.68797e-07 1.28612e-06 -0.000154914
0.00229967 -5.07647e-06 -5.64597e-07
-5.07647e-06 0.000630692 1.48142e-08
-5.64597e-07 1.48142e-08 0.000654758
0.000942373 -3.67859e-06 6.25287e-07
-3.67859e-06 -3.75624e-05 3.26524e-06
6.25287e-07 3.26524e-06 -3.61887e-05
0.0022895 -2.4102e-06 1.35695e-06
-2.4102e-06 0.000624327 4.05892e-06
1.35695e-06 4.05892e-06 0.00064877
0.000996311 -3.18655e-06 6.65857e-07
-3.18655e-06 0.000183813 -2.71392e-06
6.65857e-07 -2.71392e-06 0.000115902
0.000955283 -1.64025e-05 4.13502e-07
-1.64025e-05 0.000201333 -3.21945e-08
4.13502e-07 -3.21945e-08 0.00012313
0.000774402 -7.16881e-06 -9.43832e-06
-7.16881e-06 0.000181512 2.4807e-06
-9.43832e-06 2.4807e-06 0.000118433
0.00101066 2.35489e-05 -6.77982e-07
2.35489e-05 1.55682e-05 -5.20716e-07
-6.77982e-07 -5.20716e-07 -5.21223e-05
0.00116881 2.91643e-05 -2.58095e-07
2.91643e-05 9.23727e-05 7.21087e-08
-2.58095e-07 7.21087e-08 2.14106e-05
0.00116126 2.56407e-05 4.43733e-07
2.56407e-05 9.71218e-05 9.72069e-07
4.43733e-07 9.72069e-07 3.04814e-05
0.000988722 2.3849e-05 2.79319e-08
2.3849e-05 7.61039e-06 3.71101e-08
2.79319e-08 3.71101e-08 -6.13318e-05
0.0011327 2.21267e-05 1.15726e-07
2.21267e-05 8.54285e-05 3.78683e-07
1.15726e-07 3.78683e-07 9.02039e-06
0.00115325 2.90655e-05 -4.20587e-07
2.90655e-05 9.03287e-05 -1.98232e-07
-4.20587e-07 -1.98232e-07 1.41038e-05
0.00114708 2.88099e-05 -3.14024e-08
2.88099e-05 9.25787e-05 1.89269e-07
-3.14024e-08 1.89269e-07 1.10459e-05
0.000895014 1.77682e-05 -4.46252e-06
1.77682e-05 0.000136235 -4.51691e-06
-4.46252e-06 -4.51691e-06 9.4944e-05
0.000793852 -2.20119e-07 2.55203e-07
-2.20119e-07 3.46966e-05 7.03334e-07
2.55203e-07 7.03334e-07 -2.58568e-06
0.00109851 -1.99415e-05 -6.20683e-07
-1.99415e-05 0.000258601 -1.18823e-06
-6.20683e-07 -1.18823e-06 0.000219302
0.000656425 7.22861e-06 5.88504e-07
7.22861e-06 5.69775e-07 -3.79037e-06
5.88504e-07 -3.79037e-06 -4.42783e-05
0.00242678 -6.09296e-05 -6.31079e-05
-6.09296e-05 0.000764178 5.91546e-05
-6.31079e-05 5.91546e-05 0.000306403
0.00142915 7.54351e-05 3.83352e-05
7.54351e-05 -0.000367623 -5.47412e-05
3.83352e-05 -5.47412e-05 -0.000933817
0.0051936 0.000140644 4.60891e-06
0.000140644 0.00125008 -2.88065e-05
4.60891e-06 -2.88065e-05 0.00139604
0.000935488 -9.86647e-05 -3.20196e-05
-9.86647e-05 3.64021e-05 2.90625e-05
-3.20196e-05 2.90625e-05 -0.000239227
0.00349967 1.23923e-05 1.28232e-05
1.23923e-05 -0.000176183 -4.50444e-05
1.28232e-05 -4.50444e-05 -0.000652724
0.00343908 1.96219e-05 -6.368e-06
1.96219e-05 0.000124757 -4.62724e-07
-6.368e-06 -4.62724e-07 0.000419599
0.000926387 4.9896e-06 2.92263e-06
4.9896e-06 8.08397e-05 3.34425e-06
2.92263e-06 3.34425e-06 0.00010584
0.000996759 -8.72066e-05 2.06183e-05
-8.72066e-05 0.000224461 -1.57668e-05
2.06183e-05 -1.57668e-05 8.27978e-05
0.00369967 -7.92407e-05 -1.63064e-05
-7.92407e-05 -0.000123622 -0.000105992
-1.63064e-05 -0.000105992 -0.000648947
-0.000165348 -7.10369e-05 7.74716e-06
-7.10369e-05 -0.00101056 4.66057e-05
7.74716e-06 4.66057e-05 -0.000852289
-0.0010421 -1.74897e-05 -5.22866e-06
-1.74897e-05 -0.00106883 -1.22838e-07
-5.22866e-06 -1.22838e-07 -0.000995887
0.00114152 2.90485e-05 -2.18288e-06
2.90485e-05 8.94366e-05 -2.36749e-07
-2.18288e-06 -2.36749e-07 1.97725e-06
0.00116153 1.76698e-05 1.51467e-08
1.76698e-05 9.98337e-05 -1.27101e-07
1.51467e-08 -1.27101e-07 1.5311e-05
0.00107484 -3.25278e-07 3.37684e-08
-3.25278e-07 5.78201e-05 2.31028e-07
3.37684e-08 2.31028e-07 -2.38173e-05
0.00111106 1.56311e-05 -6.30216e-08
1.56311e-05 7.59291e-05 -6.92041e-08
-6.30216e-08 -6.92041e-08 7.85898e-07
0.00101223 -5.48103e-05 1.17133e-05
-5.48103e-05 -0.00017858 -6.58998e-06
1.17133e-05 -6.58998e-06 -0.00024596
0.00133712 1.78122e-05 5.22977e-07
1.78122e-05 0.000303728 3.87194e-06
5.22977e-07 3.87194e-06 0.000129271
0.001144 2.02204e-05 5.46401e-07
2.02204e-05 9.40197e-05 8.90691e-07
5.46401e-07 8.90691e-07 3.93727e-06
0.00107592 1.10335e-05 -2.32428e-07
1.10335e-05 5.58928e-05 7.57571e-07
-2.32428e-07 7.57571e-07 -4.02294e-05
0.00114693 -2.9549e-06 2.70465e-07
-2.9549e-06 8.49798e-05 1.13774e-06
2.70465e-07 1.13774e-06 -1.71465e-05
0.00107914 1.9016e-05 -7.19143e-07
1.9016e-05 6.13707e-05 -1.29632e-07
-7.19143e-07 -1.29632e-07 -3.57738e-05
0.00110082 3.77807e-08 -2.6518e-07
3.77807e-08 7.0103e-05 -1.02152e-07
-2.6518e-07 -1.02152e-07 -3.08441e-05
0.00101701 -1.0261e-05 1.10243e-05
-1.0261e-05 0.000224942 -2.39046e-06
1.10243e-05 -2.39046e-06 8.63859e-05
0.00100876 2.49589e-06 9.55535e-07
2.49589e-06 3.68394e-05 -3.16298e-07
9.55535e-07 -3.16298e-07 -6.35117e-05
0.00118636 1.2644e-05 -6.51076e-07
1.2644e-05 0.000120497 -9.29662e-07
-6.51076e-07 -9.29662e-07 1.41904e-05
0.000968398 1.49093e-05 1.08222e-05
1.49093e-05 0.000401931 1.54142e-05
1.08222e-05 1.54142e-05 0.000329789
0.00136239 -1.1755e-05 1.97564e-06
-1.1755e-05 0.000214201 -4.58529e-06
1.97564e-06 -4.58529e-06 7.62188e-05
0.00136002 4.2758e-07 -1.05737e-06
4.2758e-07 0.000461325 6.30922e-08
-1.05737e-06 6.30922e-08 0.000359352
0.000903974 -2.57204e-06 3.38915e-07
-2.57204e-06 0.000121021 -3.68402e-07
3.38915e-07 -3.68402e-07 3.37982e-05
0.000408428 -4.0562e-06 1.81147e-07
-4.0562e-06 -0.000145389 6.35499e-07
1.81147e-07 6.35499e-07 -0.000239401
0.00213944 -2.32521e-07 -4.50588e-06
-2.32521e-07 0.000575778 8.96755e-06
-4.50588e-06 8.96755e-06 0.0005059
-0.000107097 2.48621e-05 -2.26094e-07
2.48621e-05 -7.10119e-05 1.62703e-05
-2.26094e-07 1.62703e-05 -0.000101783
0.000730626 -7.35894e-06 5.71082e-07
-7.35894e-06 -1.64385e-06 -1.25691e-07
5.71082e-07 -1.25691e-07 -8.15551e-05
0.00321325 8.17243e-05 -1.2896e-06
8.17243e-05 0.000329543 -7.57076e-05
-1.2896e-06 -7.57076e-05 -0.000481319
0.0051826 0.000152758 -5.42349e-06
0.000152758 0.00132758 2.63549e-05
-5.42349e-06 2.63549e-05 0.00154327
0.00115669 -2.01895e-05 2.59255e-07
-2.01895e-05 0.000258454 -3.32123e-06
2.59255e-07 -3.32123e-06 0.000212083
0.00218824 1.96511e-05 5.12792e-06
1.96511e-05 0.000846239 -7.47456e-06
5.12792e-06 -7.47456e-06 0.000970577
0.000702869 -8.65707e-07 -6.26974e-06
-8.65707e-07 0.000167855 -8.55298e-07
-6.26974e-06 -8.55298e-07 4.92877e-05
0.00100839 -1.26631e-05 -1.20709e-06
-1.26631e-05 0.000216766 8.91868e-08
-1.20709e-06 8.91868e-08 0.000128211
0.000992732 -1.90024e-06 -4.83188e-06
-1.90024e-06 0.00024993 5.41057e-07
-4.83188e-06 5.41057e-07 0.000213465
0.00086014 -1.79472e-05 1.0254e-06
-1.79472e-05 0.000497713 1.19593e-05
1.0254e-06 1.19593e-05 0.000272402
0.000197626 5.49306e-05 7.70269e-07
5.49306e-05 -0.000391076 -3.92577e-06
7.70269e-07 -3.92577e-06 -0.000207245
-0.000112549 0.000155656 3.54288e-06
0.000155656 -0.00064196 -9.71534e-06
3.54288e-06 -9.71534e-06 -0.000662116
0.0020315 2.29816e-05 1.20404e-05
2.29816e-05 -0.00021994 -2.03959e-05
1.20404e-05 -2.03959e-05 -0.000839047
0.000310734 -1.47207e-05 2.99706e-06
-1.47207e-05 6.0834e-05 -2.16557e-05
2.99706e-06 -2.16557e-05 -0.00011263
0.00109782 -5.01576e-06 -9.56857e-06
-5.01576e-06 0.000373677 2.15996e-06
-9.56857e-06 2.15996e-06 0.000299409
-0.00104445 2.49984e-05 9.82798e-07
2.49984e-05 -0.000968786 1.61298e-06
9.82798e-07 1.61298e-06 -0.000940578
-3.31992e-06 0.000115492 4.24213e-05
0.000115492 -0.000160286 -3.22062e-05
4.24213e-05 -3.22062e-05 -8.32225e-05
0.00588513 0.000168895 1.92693e-05
0.000168895 0.0015977 -4.2139e-05
1.92693e-05 -4.2139e-05 0.000994785
0.00187312 -9.68941e-05 -3.58339e-05
-9.68941e-05 0.000307733 9.49972e-05
-3.58339e-05 9.49972e-05 -0.000218142
0.00107665 9.41621e-06 -3.24081e-08
9.41621e-06 0.000153854 -3.59163e-06
-3.24081e-08 -3.59163e-06 -9.20468e-06
0.000976753 -1.11579e-06 -1.1956e-07
-1.11579e-06 0.000162044 -5.81495e-07
-1.1956e-07 -5.81495e-07 -3.08731e-05
0.000946938 -3.7829e-05 3.07297e-07
-3.7829e-05 0.00015804 4.29176e-06
3.07297e-07 4.29176e-06 -6.89567e-05
0.000980451 -1.71334e-05 -2.64263e-07
-1.71334e-05 7.16063e-05 2.19395e-07
-2.64263e-07 2.19395e-07 -4.53192e-05
0.000837082 -3.28698e-05 2.28144e-07
-3.28698e-05 4.02461e-05 -9.92173e-08
2.28144e-07 -9.92173e-08 -0.000109349
0.0011828 -5.97839e-05 1.60554e-06
-5.97839e-05 0.000166707 1.46028e-06
1.60554e-06 1.46028e-06 1.12602e-05
0.00144313 -4.4674e-05 -3.11382e-07
-4.4674e-05 0.000269067 -4.87849e-07
-3.11382e-07 -4.87849e-07 0.00015467
0.00130651 -4.88874e-05 -3.44423e-07
-4.88874e-05 0.000196071 7.49386e-07
-3.44423e-07 7.49386e-07 7.37779e-05
0.00142991 -5.59836e-05 -2.16398e-06
-5.59836e-05 0.000212186 -2.49761e-07
-2.16398e-06 -2.49761e-07 9.90785e-05
0.00131777 -4.24987e-05 2.43311e-07
-4.24987e-05 0.000174587 -1.36075e-06
2.43311e-07 -1.36075e-06 7.61601e-05
0.00140455 -4.69689e-05 -3.85062e-07
-4.69689e-05 0.000192536 -4.47417e-08
-3.85062e-07 -4.47417e-08 9.59726e-05
0.00133718 -4.53055e-05 -9.60286e-07
-4.53055e-05 0.000148049 1.66474e-08
-9.60286e-07 1.66474e-08 5.82282e-05
0.00126715 -3.87222e-05 -1.15546e-06
-3.87222e-05 9.92928e-05 -2.31876e-07
-1.15546e-06 -2.31876e-07 2.15988e-05
0.0013745 -3.89653e-05 -1.245e-06
-3.89653e-05 0.000171861 1.71462e-06
-1.245e-06 1.71462e-06 9.65503e-05
0.00128839 -4.10901e-05 -1.21642e-07
-4.10901e-05 0.000130711 -4.28835e-09
-1.21642e-07 -4.28835e-09 4.70134e-05
0.000937775 -3.0167e-05 -2.07591e-07
-3.0167e-05 -2.05613e-05 4.34794e-07
-2.07591e-07 4.34794e-07 -8.664e-05
0.00106731 -3.37743e-05 4.8567e-07
-3.37743e-05 3.92281e-05 -1.27437e-07
4.8567e-07 -1.27437e-07 -3.26388e-05
0.00107855 -3.794e-05 6.98438e-07
-3.794e-05 3.65522e-05 -1.33407e-06
6.98438e-07 -1.33407e-06 -4.71214e-05
0.00112255 -2.3299e-05 -2.54265e-07
-2.3299e-05 7.65432e-05 3.88408e-07
-2.54265e-07 3.88408e-07 1.4766e-05
0.00115581 -3.09697e-05 6.5072e-08
-3.09697e-05 9.11002e-05 -1.53738e-07
6.5072e-08 -1.53738e-07 2.59845e-05
0.00101911 -3.12805e-05 1.23566e-06
-3.12805e-05 2.50855e-05 -9.69488e-07
1.23566e-06 -9.69488e-07 -4.19872e-05
0.00101776 1.29273e-06 -9.64632e-07
1.29273e-06 2.8229e-05 9.75685e-07
-9.64632e-07 9.75685e-07 -2.47659e-05
0.00101264 -1.57759e-05 -1.50039e-07
-1.57759e-05 2.96671e-05 1.15631e-07
-1.50039e-07 1.15631e-07 -3.22624e-05
0.00115994 -2.86315e-05 6.1175e-07
-2.86315e-05 0.000101982 -4.29562e-07
6.1175e-07 -4.29562e-07 3.57128e-05
0.000973835 9.37705e-06 -2.21528e-06
9.37705e-06 4.25456e-07 1.78689e-06
-2.21528e-06 1.78689e-06 -3.43179e-05
0.00105411 -5.1133e-06 -2.02108e-07
-5.1133e-06 3.88727e-05 -3.22941e-08
-2.02108e-07 -3.22941e-08 -1.35173e-05
0.00111445 -2.17851e-05 5.40574e-07
-2.17851e-05 7.02695e-05 -2.99646e-07
5.40574e-07 -2.99646e-07 8.40037e-06
0.000941275 1.27362e-05 -3.83426e-06
1.27362e-05 -2.01646e-05 4.43718e-06
-3.83426e-06 4.43718e-06 -2.60644e-05
0.000991573 5.35041e-06 9.06146e-08
5.35041e-06 5.98611e-06 5.24515e-08
9.06146e-08 5.24515e-08 -2.92195e-05
0.00105392 -9.95368e-06 1.52176e-06
-9.95368e-06 3.60371e-05 -8.66768e-07
1.52176e-06 -8.66768e-07 -1.76683e-05
0.000991542 3.80337e-06 1.78981e-06
3.80337e-06 4.65089e-06 -1.96552e-06
1.78981e-06 -1.96552e-06 -3.08993e-05
0.000915279 1.13812e-05 1.21329e-07
1.13812e-05 -3.5585e-05 2.78188e-08
1.21329e-07 2.78188e-08 -4.10218e-05
0.0025164 1.76751e-05 -9.54277e-06
1.76751e-05 0.000753741 3.97554e-06
-9.54277e-06 3.97554e-06 0.000773259
0.000932895 1.00266e-05 2.2632e-06
1.00266e-05 -3.02929e-05 -3.30287e-06
2.2632e-06 -3.30287e-06 -3.51843e-05
0.00248234 1.52515e-05 3.05214e-07
1.52515e-05 0.000733529 3.65608e-08
3.05214e-07 3.65608e-08 0.000753777
0.00245722 1.28063e-05 8.00888e-06
1.28063e-05 0.000717856 -4.09936e-06
8.00888e-06 -4.09936e-06 0.000738779
0.00108711 2.32711e-05 -7.02491e-07
2.32711e-05 5.29471e-05 -3.79743e-07
-7.02491e-07 -3.79743e-07 -1.35219e-05
0.00105186 6.983e-06 -8.95066e-07
6.983e-06 3.43457e-05 -1.1512e-06
-8.95066e-07 -1.1512e-06 -2.08597e-05
0.000982599 -6.57166e-06 -1.31489e-06
-6.57166e-06 4.18671e-08 -1.98972e-06
-1.31489e-06 -1.98972e-06 -3.40537e-05
0.0010506 9.33548e-06 -5.86016e-08
9.33548e-06 3.5803e-05 1.12632e-08
-5.86016e-08 1.12632e-08 -1.84538e-05
0.000952621 -9.04412e-06 -1.76991e-06
-9.04412e-06 -2.3704e-05 -3.24518e-06
-1.76991e-06 -3.24518e-06 -2.6652e-05
0.000998198 -7.15131e-06 -6.46381e-08
-7.15131e-06 5.60282e-06 -7.18149e-09
-6.46381e-08 -7.18149e-09 -2.63971e-05
0.00104642 9.87421e-06 1.73335e-07
9.87421e-06 3.55588e-05 8.15671e-07
1.73335e-07 8.15671e-07 -1.71038e-05
0.00235225 -1.03736e-05 -6.56897e-06
-1.03736e-05 0.000662421 -4.05393e-06
-6.56897e-06 -4.05393e-06 0.00068489
0.000942984 -7.47078e-06 -8.25935e-08
-7.47078e-06 -3.2005e-05 -1.31459e-08
-8.25935e-08 -1.31459e-08 -3.31519e-05
0.00100641 -5.63498e-06 4.99585e-07
-5.63498e-06 7.06702e-06 1.27674e-06
4.99585e-07 1.27674e-06 -2.29262e-05
0.0023216 -7.72061e-06 -4.86556e-07
-7.72061e-06 0.000643691 2.05904e-08
-4.86556e-07 2.05904e-08 0.000667154
0.000935272 -5.63269e-06 9.36719e-07
-5.63269e-06 -3.89073e-05 3.24163e-06
9.36719e-07 3.24163e-06 -3.85233e-05
0.00230715 -5.00781e-06 3.12411e-06
-5.00781e-06 0.000634136 4.04965e-06
3.12411e-06 4.04965e-06 0.000658238
0.000828867 7.69971e-06 4.4041e-07
7.69971e-06 0.000125455 -3.0319e-06
4.4041e-07 -3.0319e-06 3.70042e-05
0.000885137 -4.5271e-06 -8.91953e-08
-4.5271e-06 0.000113665 -2.45484e-06
-8.91953e-08 -2.45484e-06 4.21481e-05
0.00101413 -1.62994e-05 -5.12538e-07
-1.62994e-05 0.000237685 1.87746e-06
-5.12538e-07 1.87746e-06 0.0001604
0.00105373 2.3578e-05 8.35989e-08
2.3578e-05 3.748e-05 4.48041e-08
8.35989e-08 4.48041e-08 -2.99724e-05
0.00112256 2.84724e-05 2.67848e-07
2.84724e-05 6.96457e-05 1.30966e-07
2.67848e-07 1.30966e-07 -1.64724e-06
0.00107104 2.47282e-05 -6.05759e-07
2.47282e-05 4.47561e-05 -2.74887e-07
-6.05759e-07 -2.74887e-07 -2.53946e-05
0.00105895 2.79163e-05 -8.17418e-07
2.79163e-05 3.90515e-05 -3.24081e-07
-8.17418e-07 -3.24081e-07 -3.40215e-05
0.00117827 2.98808e-05 -4.13422e-08
2.98808e-05 9.67357e-05 1.21341e-07
-4.13422e-08 1.21341e-07 2.30932e-05
0.000985969 2.36511e-05 7.45053e-07
2.36511e-05 6.69532e-06 7.44875e-07
7.45053e-07 7.44875e-07 -6.22884e-05
0.00106074 2.31835e-05 3.441e-07
2.31835e-05 5.00186e-05 8.07058e-07
3.441e-07 8.07058e-07 -2.72327e-05
0.001146 2.90188e-05 7.42504e-09
2.90188e-05 8.65313e-05 5.96463e-09
7.42504e-09 5.96463e-09 1.04077e-05
0.00110701 2.7738e-05 2.9861e-07
2.7738e-05 7.27483e-05 3.48512e-07
2.9861e-07 3.48512e-07 -8.393e-06
0.00119548 3.01186e-05 -4.4549e-07
3.01186e-05 0.000113207 1.98599e-07
-4.4549e-07 1.98599e-07 3.31256e-05
0.000497881 -6.14313e-06 -8.07762e-06
-6.14313e-06 -1.08986e-05 -1.38468e-05
-8.07762e-06 -1.38468e-05 -5.90015e-05
0.000778815 1.6648e-05 -2.05916e-06
1.6648e-05 6.10201e-05 -1.00259e-06
-2.05916e-06 -1.00259e-06 1.82606e-05
0.000552344 -1.0315e-06 -5.45311e-07
-1.0315e-06 -0.000109671 -1.84306e-06
-5.45311e-07 -1.84306e-06 -0.000151473
0.00025833 8.50891e-06 1.11761e-05
8.50891e-06 -0.000314593 3.90558e-06
1.11761e-05 3.90558e-06 -0.000308878
0.00044036 1.38362e-05 -6.84631e-07
1.38362e-05 -0.00104159 -5.83786e-05
-6.84631e-07 -5.83786e-05 -0.00077405
0.00130289 -0.000123085 -4.495e-05
-0.000123085 6.97613e-05 0.000100685
-4.495e-05 0.000100685 -0.000321613
0.00650357 8.04048e-05 -3.59974e-07
8.04048e-05 0.00135583 -3.60744e-05
-3.59974e-07 -3.60744e-05 0.000992184
0.000588317 -0.000110141 -1.36809e-05
-0.000110141 -0.000141502 2.22e-05
-1.36809e-05 2.22e-05 -0.000507732
0.00673588 -7.85637e-06 -8.59031e-06
-7.85637e-06 0.000859459 3.97688e-06
-8.59031e-06 3.97688e-06 0.00103299
0.00208941 -0.000117799 2.9443e-06
-0.000117799 0.000122725 -1.73859e-05
2.9443e-06 -1.73859e-05 0.000104619
-0.000519361 -2.04904e-05 -1.80924e-07
-2.04904e-05 -0.000780838 6.16262e-06
-1.80924e-07 6.16262e-06 -0.000677234
0.000901599 -5.09838e-05 3.2889e-06
-5.09838e-05 0.000222324 -5.12638e-05
3.2889e-06 -5.12638e-05 -0.000214024
0.00672968 -0.000128105 -1.10522e-05
-0.000128105 0.00161396 4.0104e-05
-1.10522e-05 4.0104e-05 0.00113804
0.00319593 -0.000167385 7.09797e-06
-0.000167385 0.000875681 2.31803e-05
7.09797e-06 2.31803e-05 0.000856327
0.00145855 -5.6281e-05 -1.68662e-06
-5.6281e-05 0.000360883 -1.07942e-06
-1.68662e-06 -1.07942e-06 0.000532305
0.00108327 3.22705e-05 -1.1951e-06
3.22705e-05 6.87057e-05 4.90525e-07
-1.1951e-06 4.90525e-07 -1.38304e-05
0.0011646 2.92919e-05 -3.64772e-07
2.92919e-05 0.000101848 -1.38805e-08
-3.64772e-07 -1.38805e-08 1.5026e-05
0.00120193 1.44674e-05 3.21133e-07
1.44674e-05 0.000119837 1.47306e-07
3.21133e-07 1.47306e-07 3.50382e-05
0.000116554 7.05873e-07 3.0089e-06
7.05873e-07 -0.00015651 -1.10407e-05
3.0089e-06 -1.10407e-05 -0.000265743
0.0010709 -7.4859e-06 2.0459e-07
-7.4859e-06 7.02836e-05 4.19027e-06
2.0459e-07 4.19027e-06 -2.87826e-05
0.00118896 2.03732e-05 6.55656e-07
2.03732e-05 0.000116307 9.47282e-07
6.55656e-07 9.47282e-07 1.99903e-05
0.00110353 2.0522e-06 3.64714e-07
2.0522e-06 6.89411e-05 7.19435e-07
3.64714e-07 7.19435e-07 -3.20382e-05
0.00118129 1.14372e-05 6.50816e-07
1.14372e-05 0.000121478 5.20923e-09
6.50816e-07 5.20923e-09 1.5047e-05
0.00106583 -6.93084e-06 -6.64722e-08
-6.93084e-06 8.43144e-05 -7.14662e-07
-6.64722e-08 -7.14662e-07 -5.97757e-05
0.000262662 4.30047e-06 -5.10944e-06
4.30047e-06 8.26208e-05 6.8776e-06
-5.10944e-06 6.8776e-06 -3.29559e-06
0.000946806 2.59067e-05 -3.44949e-06
2.59067e-05 3.57603e-05 -7.31887e-07
-3.44949e-06 -7.31887e-07 -9.56036e-05
0.000672773 1.52152e-05 -5.07364e-06
1.52152e-05 0.00020878 1.8133e-05
-5.07364e-06 1.8133e-05 9.74118e-05
0.00203395 -3.4076e-06 -1.17298e-05
-3.4076e-06 0.00097762 1.18226e-07
-1.17298e-05 1.18226e-07 0.000896924
0.000850953 3.84684e-07 -7.93127e-07
3.84684e-07 0.000141657 -5.10585e-07
-7.93127e-07 -5.10585e-07 3.98258e-05
0.000664123 -3.75086e-06 3.11069e-07
-3.75086e-06 -2.93043e-05 -2.98755e-07
3.11069e-07 -2.98755e-07 -0.000116122
-9.56535e-05 1.6596e-05 8.08318e-06
1.6596e-05 -0.000248482 1.72993e-05
8.08318e-06 1.72993e-05 -0.000340378
0.000734968 1.88305e-05 7.78896e-06
1.88305e-05 0.000321134 -4.04947e-05
7.78896e-06 -4.04947e-05 -0.000382327
0.00108054 -1.27351e-05 -9.60625e-08
-1.27351e-05 0.000261563 -1.76506e-06
-9.60625e-08 -1.76506e-06 0.000173826
0.00725135 0.000108121 1.77934e-05
0.000108121 0.00190289 -2.48331e-05
1.77934e-05 -2.48331e-05 0.00104174
0.00303242 0.000198908 -1.75262e-05
0.000198908 0.000985988 2.17881e-05
-1.75262e-05 2.17881e-05 0.000879844
0.00111886 -3.15228e-06 5.88932e-06
-3.15228e-06 0.000326087 -9.50493e-06
5.88932e-06 -9.50493e-06 0.000292939
2.47823e-05 5.7588e-05 -9.49785e-07
5.7588e-05 -0.000451472 9.66717e-07
-9.49785e-07 9.66717e-07 -0.000285726
0.000498834 -1.22479e-06 1.40014e-06
-1.22479e-06 0.000154177 2.34363e-07
1.40014e-06 2.34363e-07 -1.1572e-05
0.000952759 -5.00954e-06 3.42334e-07
-5.00954e-06 0.000280261 -2.38272e-07
3.42334e-07 -2.38272e-07 0.00020735
-0.00133944 2.92265e-05 8.2774e-06
2.92265e-05 -0.0011633 -1.66262e-06
8.2774e-06 -1.66262e-06 -0.00111717
0.000963139 -6.11495e-05 -1.10812e-06
-6.11495e-05 0.00022146 3.67342e-05
-1.10812e-06 3.67342e-05 -0.000198633
0.00222114 0.000164198 -1.9611e-06
0.000164198 0.000685428 -4.30316e-06
-1.9611e-06 -4.30316e-06 0.000632225
0.00531616 8.87826e-05 1.22963e-05
8.87826e-05 0.00113574 -1.22834e-05
1.22963e-05 -1.22834e-05 0.000257888
0.000655236 -2.01784e-05 8.62826e-06
-2.01784e-05 2.37937e-06 -9.02416e-06
8.62826e-06 -9.02416e-06 -0.00012273
-0.0011579 7.05758e-06 -9.11785e-06
7.05758e-06 -0.000970084 1.03308e-06
-9.11785e-06 1.03308e-06 -0.000991584
0.00250051 0.00011112 2.4178e-05
0.00011112 0.000928989 -1.20162e-05
2.4178e-05 -1.20162e-05 0.000844982
0.00307427 0.000106995 -4.50218e-05
0.000106995 0.000394769 2.13876e-05
-4.50218e-05 2.13876e-05 -0.000264487
0.000421286 -2.95708e-05 -5.92435e-06
-2.95708e-05 -0.000209606 4.26977e-05
-5.92435e-06 4.26977e-05 -0.00041014
0.00113476 3.29724e-07 6.81221e-07
3.29724e-07 0.000228304 -3.63194e-07
6.81221e-07 -3.63194e-07 4.04555e-05
0.000882471 -3.70978e-05 -3.49673e-07
-3.70978e-05 0.000137496 2.75958e-07
-3.49673e-07 2.75958e-07 -9.57224e-05
0.00182056 -8.96583e-05 -9.32084e-07
-8.96583e-05 0.000494789 3.43353e-06
-9.32084e-07 3.43353e-06 0.000302038
0.000771448 -3.06274e-05 -4.23006e-07
-3.06274e-05 8.48646e-06 4.93072e-07
-4.23006e-07 4.93072e-07 -0.000137326
0.00105134 -5.56771e-05 5.8389e-07
-5.56771e-05 0.000109961 -3.27306e-07
5.8389e-07 -3.27306e-07 -4.56342e-05
0.00131395 -7.12628e-05 -2.80544e-06
-7.12628e-05 0.000130954 -1.56844e-06
-2.80544e-06 -1.56844e-06 1.13573e-05
0.00126638 -4.86173e-05 -3.79857e-07
-4.86173e-05 0.00017381 -9.56125e-07
-3.79857e-07 -9.56125e-07 4.97014e-05
0.00122373 -5.30198e-05 -7.313e-07
-5.30198e-05 0.0001101 -1.11375e-06
-7.313e-07 -1.11375e-06 -1.44467e-06
0.00156788 -5.37591e-05 -1.58319e-06
-5.37591e-05 0.000230509 -1.10468e-06
-1.58319e-06 -1.10468e-06 0.000146435
0.00132976 -4.61622e-05 5.22147e-07
-4.61622e-05 0.000154011 -1.57578e-06
5.22147e-07 -1.57578e-06 5.66845e-05
0.00123486 -4.36081e-05 4.5505e-07
-4.36081e-05 9.63838e-05 -5.33832e-07
4.5505e-07 -5.33832e-07 7.8587e-06
0.00131236 -3.93937e-05 -1.11196e-06
-3.93937e-05 0.000101952 -1.29295e-06
-1.11196e-06 -1.29295e-06 3.08804e-05
0.00127306 -3.44702e-05 -8.00663e-07
-3.44702e-05 7.18343e-05 -6.75997e-07
-8.00663e-07 -6.75997e-07 6.2435e-06
0.00118999 -3.6372e-05 -9.61175e-07
-3.6372e-05 6.72859e-05 6.22391e-07
-9.61175e-07 6.22391e-07 -7.36727e-06
0.00121195 -3.76886e-05 1.20523e-07
-3.76886e-05 7.01642e-05 -5.2247e-07
1.20523e-07 -5.2247e-07 -6.69465e-06
0.00120572 -3.43956e-05 -6.57056e-07
-3.43956e-05 9.78446e-05 1.33786e-06
-6.57056e-07 1.33786e-06 2.87675e-05
0.00119997 -3.7044e-05 -2.78551e-07
-3.7044e-05 8.94179e-05 2.22404e-07
-2.78551e-07 2.22404e-07 1.29566e-05
0.00119417 -3.99619e-05 6.6725e-07
-3.99619e-05 8.57714e-05 -1.14339e-06
6.6725e-07 -1.14339e-06 1.59264e-06
0.00108017 -2.75447e-05 -4.75332e-07
-2.75447e-05 5.02287e-05 1.72836e-07
-4.75332e-07 1.72836e-07 -1.05385e-05
0.00100701 -3.09267e-05 -7.6065e-08
-3.09267e-05 1.33251e-05 -3.59666e-07
-7.6065e-08 -3.59666e-07 -5.21335e-05
0.00118086 -3.5073e-05 1.16555e-06
-3.5073e-05 9.45024e-05 -1.62894e-06
1.16555e-06 -1.62894e-06 2.32022e-05
0.00102396 -1.39831e-06 -8.42095e-07
-1.39831e-06 3.32402e-05 9.72771e-07
-8.42095e-07 9.72771e-07 -2.09287e-05
0.0010588 -2.15519e-05 1.35213e-07
-2.15519e-05 4.66497e-05 1.52399e-07
1.35213e-07 1.52399e-07 -1.51751e-05
0.00107466 -2.99715e-05 5.1347e-07
-2.99715e-05 5.24655e-05 -2.97843e-07
5.1347e-07 -2.97843e-07 -1.29807e-05
0.000952006 1.4213e-05 -2.04175e-06
1.4213e-05 -4.47002e-06 1.71866e-06
-2.04175e-06 1.71866e-06 -3.97651e-05
0.00103848 -4.72624e-08 -6.2672e-08
-4.72624e-08 3.72953e-05 -2.81904e-08
-6.2672e-08 -2.81904e-08 -1.56406e-05
0.00105426 -1.56929e-05 1.21667e-07
-1.56929e-05 4.92217e-05 -2.67011e-07
1.21667e-07 -2.67011e-07 -1.23622e-05
0.00155535 1.62199e-05 -6.24436e-06
1.62199e-05 0.000287477 2.99906e-06
-6.24436e-06 2.99906e-06 0.000284598
0.00098177 9.6242e-06 -3.87046e-08
9.6242e-06 4.33426e-06 2.20537e-08
-3.87046e-08 2.20537e-08 -3.04043e-05
0.00105799 -5.35351e-06 1.09401e-06
-5.35351e-06 4.00831e-05 -8.988e-07
1.09401e-06 -8.988e-07 -1.21649e-05
0.00119123 1.47852e-05 -8.83214e-06
1.47852e-05 0.000103162 3.8424e-06
-8.83214e-06 3.8424e-06 0.000115877
0.00125113 1.37541e-05 -1.89316e-06
1.37541e-05 0.000133485 5.99912e-07
-1.89316e-06 5.99912e-07 0.000129216
0.000987275 5.82664e-06 2.03507e-06
5.82664e-06 3.92635e-06 -1.82096e-06
2.03507e-06 -1.82096e-06 -3.12129e-05
0.000921648 1.14388e-05 2.69284e-06
1.14388e-05 -3.24137e-05 -3.24775e-06
2.69284e-06 -3.24775e-06 -3.78818e-05
0.00249366 1.76544e-05 2.76218e-07
1.76544e-05 0.000742878 4.40722e-08
2.76218e-07 4.40722e-08 0.000762448
0.00246753 1.52574e-05 9.0182e-06
1.52574e-05 0.00072659 -4.0384e-06
9.0182e-06 -4.0384e-06 0.000746842
0.00104442 1.89056e-05 -8.39285e-07
1.89056e-05 3.21198e-05 -4.12861e-07
-8.39285e-07 -4.12861e-07 -3.39756e-05
0.00106108 3.84174e-06 -1.07996e-06
3.84174e-06 3.84806e-05 -1.03064e-06
-1.07996e-06 -1.03064e-06 -1.72831e-05
0.00106966 2.16927e-05 -1.98915e-08
2.16927e-05 4.45704e-05 5.21921e-08
-1.98915e-08 5.21921e-08 -2.21172e-05
0.000980606 -6.45976e-06 -1.62006e-06
-6.45976e-06 -4.84209e-09 -1.96586e-06
-1.62006e-06 -1.96586e-06 -3.55699e-05
0.00105612 7.08557e-06 -1.5348e-08
7.08557e-06 3.67053e-05 6.1224e-09
-1.5348e-08 6.1224e-09 -1.86183e-05
0.000939505 -1.03241e-05 -2.21195e-06
-1.03241e-05 -2.61832e-05 -3.25867e-06
-2.21195e-06 -3.25867e-06 -3.08002e-05
0.000990836 -6.89227e-06 -1.92094e-07
-6.89227e-06 3.8404e-06 3.13439e-09
-1.92094e-07 3.13439e-09 -3.02296e-05
0.00106357 9.52648e-06 7.16151e-07
9.52648e-06 4.21342e-05 1.38308e-06
7.16151e-07 1.38308e-06 -1.22275e-05
0.00240201 -1.28833e-05 -7.83724e-06
-1.28833e-05 0.000690842 -4.06395e-06
-7.83724e-06 -4.06395e-06 0.000712208
0.000934623 -9.03896e-06 -1.02472e-07
-9.03896e-06 -3.23354e-05 -1.37324e-08
-1.02472e-07 -1.37324e-08 -3.51894e-05
0.00100057 -6.9555e-06 7.87297e-07
-6.9555e-06 6.81732e-06 1.9189e-06
7.87297e-07 1.9189e-06 -2.51575e-05
0.00235747 -1.03413e-05 -4.31267e-07
-1.03413e-05 0.000664517 2.65237e-08
-4.31267e-07 2.65237e-08 0.0006871
0.000926073 -7.46555e-06 1.22313e-06
-7.46555e-06 -4.02047e-05 3.23188e-06
1.22313e-06 3.23188e-06 -4.12524e-05
0.00232922 -7.65172e-06 4.63167e-06
-7.65172e-06 0.000647062 4.02491e-06
4.63167e-06 4.02491e-06 0.000670599
0.000529447 -6.7524e-06 -1.27562e-05
-6.7524e-06 3.77981e-05 -3.63289e-06
-1.27562e-05 -3.63289e-06 -5.07652e-05
0.000742206 7.20456e-06 -1.41507e-07
7.20456e-06 7.33967e-05 -1.33021e-06
-1.41507e-07 -1.33021e-06 -1.51892e-05
0.000726126 -5.77948e-06 -9.94071e-07
-5.77948e-06 1.44238e-05 -1.1027e-07
-9.94071e-07 -1.1027e-07 -6.07607e-05
0.00113132 2.52571e-05 -3.6863e-07
2.52571e-05 7.41297e-05 2.67231e-07
-3.6863e-07 2.67231e-07 5.55946e-06
0.00109682 2.32301e-05 7.08627e-07
2.32301e-05 5.93621e-05 5.73305e-07
7.08627e-07 5.73305e-07 -7.83766e-06
0.00107428 2.77543e-05 6.75079e-07
2.77543e-05 4.59608e-05 2.25676e-07
6.75079e-07 2.25676e-07 -2.56625e-05
0.0011311 2.88597e-05 -2.05754e-07
2.88597e-05 7.50675e-05 -1.76366e-07
-2.05754e-07 -1.76366e-07 2.31075e-06
0.00113747 2.6006e-05 -2.20188e-07
2.6006e-05 7.73542e-05 -1.38131e-07
-2.20188e-07 -1.38131e-07 7.48571e-06
0.00113417 2.91736e-05 3.08416e-07
2.91736e-05 7.49375e-05 1.89472e-07
3.08416e-07 1.89472e-07 1.60355e-06
0.00111065 2.9503e-05 -5.12369e-07
2.9503e-05 6.32482e-05 -1.62228e-07
-5.12369e-07 -1.62228e-07 -1.0224e-05
0.00107516 2.88463e-05 -4.25294e-07
2.88463e-05 4.94202e-05 -3.03315e-08
-4.25294e-07 -3.03315e-08 -2.66507e-05
0.00113906 2.89718e-05 4.59428e-07
2.89718e-05 8.29008e-05 2.04835e-07
4.59428e-07 2.04835e-07 6.87646e-06
0.00106871 2.72349e-05 6.89249e-07
2.72349e-05 5.37977e-05 2.68917e-07
6.89249e-07 2.68917e-07 -2.69801e-05
0.00115929 2.9609e-05 -1.4843e-07
2.9609e-05 9.52043e-05 -2.51335e-08
-1.4843e-07 -2.51335e-08 1.51891e-05
0.00140639 3.34694e-05 3.06616e-07
3.34694e-05 0.000210281 2.40415e-07
3.06616e-07 2.40415e-07 0.000130571
0.0021435 -3.64998e-05 -6.51216e-06
-3.64998e-05 0.000941711 -3.13064e-06
-6.51216e-06 -3.13064e-06 0.000995072
0.000598223 -5.82801e-06 -2.03946e-06
-5.82801e-06 5.38304e-05 -3.38973e-06
-2.03946e-06 -3.38973e-06 6.43053e-06
0.000694024 1.54213e-05 1.33309e-06
1.54213e-05 5.22324e-06 2.93163e-06
1.33309e-06 2.93163e-06 -3.9074e-05
0.00190006 -3.02845e-05 1.2838e-05
-3.02845e-05 0.000682504 1.27404e-05
1.2838e-05 1.27404e-05 0.000773611
0.00116373 -0.000110919 3.78177e-06
-0.000110919 -0.000741173 -8.29522e-05
3.78177e-06 -8.29522e-05 -0.000678907
0.00343316 1.94311e-05 -3.09581e-06
1.94311e-05 -0.000216739 0.000105724
-3.09581e-06 0.000105724 -0.000735318
-2.73874e-05 -7.94144e-05 -3.87034e-05
-7.94144e-05 -4.52251e-05 3.87858e-05
-3.87034e-05 3.87858e-05 -0.000159321
0.000810443 -1.54816e-05 -8.71394e-06
-1.54816e-05 0.000439495 -5.9083e-06
-8.71394e-06 -5.9083e-06 0.000223786
0.000723174 -5.61578e-05 3.01431e-06
-5.61578e-05 -3.41241e-05 5.85703e-07
3.01431e-06 5.85703e-07 0.000113046
0.00575317 -5.32808e-05 1.21159e-05
-5.32808e-05 0.00070064 4.68348e-05
1.21159e-05 4.68348e-05 0.000235285
-0.000980863 -0.000121491 -5.74729e-06
-0.000121491 -0.000883186 -1.25866e-05
-5.74729e-06 -1.25866e-05 -0.00087654
0.000979446 5.66144e-05 -3.44451e-05
5.66144e-05 0.000353663 -3.82566e-05
-3.44451e-05 -3.82566e-05 0.000201012
0.005427 -0.000149798 6.96001e-06
-0.000149798 0.00129716 3.20505e-05
6.96001e-06 3.20505e-05 0.000681255
1.4004e-05 -0.000103756 3.77154e-05
-0.000103756 -0.000149319 2.16916e-05
3.77154e-05 2.16916e-05 -8.61656e-05
0.00115262 4.31839e-05 -2.73302e-06
4.31839e-05 0.000111612 4.77834e-07
-2.73302e-06 4.77834e-07 3.388e-05
0.00118208 3.25859e-05 1.80929e-06
3.25859e-05 0.000110794 2.15455e-07
1.80929e-06 2.15455e-07 2.89025e-05
0.00119422 2.96248e-05 3.55167e-07
2.96248e-05 0.000117234 -2.05782e-07
3.55167e-07 -2.05782e-07 3.10553e-05
-0.000496606 1.34168e-06 1.75276e-06
1.34168e-06 -0.000267957 -2.29392e-06
1.75276e-06 -2.29392e-06 -0.000364955
0.000861192 -1.81485e-06 7.50302e-07
-1.81485e-06 -3.48181e-06 2.90893e-06
7.50302e-07 2.90893e-06 -0.000153346
0.00116933 1.00902e-05 3.18636e-06
1.00902e-05 0.000119632 1.17712e-06
3.18636e-06 1.17712e-06 1.31287e-05
0.00122267 2.9067e-05 1.73974e-07
2.9067e-05 0.000168285 2.06134e-07
1.73974e-07 2.06134e-07 3.83505e-05
0.000561498 1.38136e-05 4.05095e-06
1.38136e-05 0.000161473 7.91288e-06
4.05095e-06 7.91288e-06 3.75705e-05
-0.00075653 5.32324e-05 -7.1952e-06
5.32324e-05 -0.000621155 1.08841e-05
-7.1952e-06 1.08841e-05 -0.000711827
0.00253023 -3.83977e-06 -1.15146e-05
-3.83977e-06 0.00122481 -4.82301e-07
-1.15146e-05 -4.82301e-07 0.00122887
0.000737488 -1.98328e-06 -9.48052e-07
-1.98328e-06 0.000175772 -4.50278e-07
-9.48052e-07 -4.50278e-07 8.52991e-05
0.000348138 3.85125e-07 2.39581e-07
3.85125e-07 -0.000173921 -9.95629e-07
2.39581e-07 -9.95629e-07 -0.000275609
0.000992019 -4.67699e-06 -9.50601e-06
-4.67699e-06 0.000384617 2.00838e-05
-9.50601e-06 2.00838e-05 0.00021924
0.00139689 -4.7974e-05 5.44759e-07
-4.7974e-05 0.000455582 -3.4027e-05
5.44759e-07 -3.4027e-05 0.000202182
0.000842911 -5.11851e-06 1.07129e-05
-5.11851e-06 0.000208768 -2.43271e-06
1.07129e-05 -2.43271e-06 0.000137292
0.00128467 9.51125e-05 -2.75448e-05
9.51125e-05 -0.000227255 3.93127e-05
-2.75448e-05 3.93127e-05 -0.000947196
-0.000570249 0.000115461 -4.69111e-05
0.000115461 -0.000399392 2.75222e-05
-4.69111e-05 2.75222e-05 -0.000388308
0.000719756 3.49805e-05 1.24475e-05
3.49805e-05 9.51437e-06 -1.00815e-05
1.24475e-05 -1.00815e-05 8.43339e-05
0.00135992 -2.23451e-05 1.84142e-06
-2.23451e-05 0.000354301 8.94885e-07
1.84142e-06 8.94885e-07 0.00020479
0.000839094 1.00915e-05 -3.93367e-07
1.00915e-05 0.000171505 -7.94327e-07
-3.93367e-07 -7.94327e-07 0.000166952
-0.0015825 5.74606e-05 -1.17013e-05
5.74606e-05 -0.000759006 4.1922e-06
-1.17013e-05 4.1922e-06 -0.00077661
0.00225274 -7.35255e-05 -1.41589e-05
-7.35255e-05 0.000531317 3.35892e-05
-1.41589e-05 3.35892e-05 1.05195e-05
0.00429911 0.000141173 -3.67511e-06
0.000141173 0.000998077 6.62723e-06
-3.67511e-06 6.62723e-06 0.000405382
0.00193861 -4.82297e-05 1.45122e-05
-4.82297e-05 5.04983e-05 -6.55001e-06
1.45122e-05 -6.55001e-06 0.000116366
-0.00365046 2.43325e-05 3.52742e-05
2.43325e-05 -0.00195838 -1.18094e-05
3.52742e-05 -1.18094e-05 -0.00196251
0.00482686 9.6209e-05 1.86301e-05
9.6209e-05 0.00143595 -1.49566e-05
1.86301e-05 -1.49566e-05 0.000967062
0.000979867 -1.97348e-05 -2.62434e-05
-1.97348e-05 6.10671e-05 2.96062e-05
-2.62434e-05 2.96062e-05 -0.000407758
0.00096872 -3.44265e-05 -7.29529e-07
-3.44265e-05 0.000186405 -2.42866e-06
-7.29529e-07 -2.42866e-06 -5.17047e-05
0.00118419 -7.82638e-05 1.00338e-07
-7.82638e-05 0.000207386 1.1548e-06
1.00338e-07 1.1548e-06 1.60719e-06
0.00114369 -0.000101818 -5.60211e-06
-0.000101818 2.72068e-05 2.76786e-06
-5.60211e-06 2.76786e-06 -8.63379e-05
0.00094938 -5.20965e-05 -6.09938e-07
-5.20965e-05 6.71256e-05 -9.65783e-07
-6.09938e-07 -9.65783e-07 -8.87234e-05
0.00121554 -6.9678e-05 -1.61242e-06
-6.9678e-05 7.56544e-05 -1.61313e-06
-1.61242e-06 -1.61313e-06 -4.00763e-05
0.00181248 -6.72221e-05 -3.25773e-06
-6.72221e-05 0.000261688 -1.94393e-06
-3.25773e-06 -1.94393e-06 0.000203271
0.000971964 -4.93836e-05 7.5077e-07
-4.93836e-05 -1.3843e-05 -2.08061e-06
7.5077e-07 -2.08061e-06 -0.000123678
0.00123366 -4.90204e-05 8.54203e-07
-4.90204e-05 6.53129e-05 -5.30069e-07
8.54203e-07 -5.30069e-07 -1.65357e-05
0.00142394 -4.03954e-05 -1.09654e-06
-4.03954e-05 0.000111536 -2.09047e-06
-1.09654e-06 -2.09047e-06 6.12344e-05
0.00111643 -4.16766e-05 1.49502e-06
-4.16766e-05 3.72158e-05 -7.6972e-07
1.49502e-06 -7.6972e-07 -5.00151e-05
0.00120912 -3.77861e-05 -1.89423e-08
-3.77861e-05 4.81206e-05 -4.43452e-07
-1.89423e-08 -4.43452e-07 -2.17577e-05
0.00128013 -3.18398e-05 -3.88162e-07
-3.18398e-05 4.8149e-05 -1.48055e-06
-3.88162e-07 -1.48055e-06 -2.86323e-06
0.00126531 -2.91362e-05 -5.27917e-07
-2.91362e-05 5.68331e-05 -6.24262e-07
-5.27917e-07 -6.24262e-07 2.8638e-06
0.0012929 -3.46797e-05 -1.03409e-06
-3.46797e-05 9.25923e-05 -1.88005e-07
-1.03409e-06 -1.88005e-07 2.57541e-05
0.00123163 -3.31751e-05 3.06395e-07
-3.31751e-05 5.2204e-05 3.48242e-07
3.06395e-07 3.48242e-07 -1.24809e-05
0.00101888 -3.20859e-05 -1.00608e-06
-3.20859e-05 -6.8832e-06 8.81795e-07
-1.00608e-06 8.81795e-07 -7.64913e-05
0.00122908 -3.65492e-05 4.79408e-07
-3.65492e-05 8.69797e-05 -3.31654e-07
4.79408e-07 -3.31654e-07 1.30999e-05
0.00114177 -3.64519e-05 1.08804e-06
-3.64519e-05 3.37948e-05 -5.39555e-07
1.08804e-06 -5.39555e-07 -4.2196e-05
0.0010989 -3.00718e-05 -4.38311e-07
-3.00718e-05 5.49069e-05 8.15464e-07
-4.38311e-07 8.15464e-07 -7.20948e-06
0.00107661 -3.28187e-05 1.10109e-07
-3.28187e-05 3.79875e-05 -9.17688e-08
1.10109e-07 -9.17688e-08 -3.12903e-05
0.00102432 -3.51125e-05 6.69825e-07
-3.51125e-05 6.44982e-06 -1.26226e-06
6.69825e-07 -1.26226e-06 -7.11621e-05
0.00103601 -8.72009e-06 -1.04006e-06
-8.72009e-06 3.72046e-05 6.7366e-07
-1.04006e-06 6.7366e-07 -1.7233e-05
0.0011025 -2.72521e-05 -1.03865e-07
-2.72521e-05 6.0457e-05 -1.32824e-07
-1.03865e-07 -1.32824e-07 -3.37366e-07
0.00108222 -3.17766e-05 1.87076e-07
-3.17766e-05 5.01484e-05 -1.04721e-06
1.87076e-07 -1.04721e-06 -1.47069e-05
0.000952236 1.53141e-05 -1.94123e-06
1.53141e-05 1.27933e-06 1.7629e-06
-1.94123e-06 1.7629e-06 -3.58116e-05
0.00103716 -2.23536e-06 1.15008e-07
-2.23536e-06 3.882e-05 1.12443e-07
1.15008e-07 1.12443e-07 -1.52326e-05
0.000995991 -1.95852e-05 5.96368e-07
-1.95852e-05 1.72151e-05 -1.73704e-07
5.96368e-07 -1.73704e-07 -4.46606e-05
0.000876117 1.59594e-05 -3.545e-06
1.59594e-05 -4.25025e-05 2.90793e-06
-3.545e-06 2.90793e-06 -4.90452e-05
0.000972508 1.44086e-05 -7.32405e-08
1.44086e-05 5.40856e-06 -1.84883e-08
-7.32405e-08 -1.84883e-08 -2.9954e-05
0.00106122 -1.26105e-06 8.85287e-07
-1.26105e-06 4.73707e-05 -9.9761e-07
8.85287e-07 -9.9761e-07 -5.51337e-06
0.00243438 2.37876e-05 -4.56769e-06
2.37876e-05 0.000722622 1.51081e-06
-4.56769e-06 1.51081e-06 0.000741051
0.000888524 1.43313e-05 8.12439e-08
1.43313e-05 -4.14885e-05 4.80282e-08
8.12439e-08 4.80282e-08 -4.7461e-05
0.000990244 1.06201e-05 2.02852e-06
1.06201e-05 8.51251e-06 -1.74516e-06
2.02852e-06 -1.74516e-06 -2.6233e-05
0.0025125 2.00579e-05 2.03662e-07
2.00579e-05 0.000755853 4.7918e-08
2.03662e-07 4.7918e-08 0.000774753
0.000911363 1.28614e-05 3.09309e-06
1.28614e-05 -3.40164e-05 -3.12547e-06
3.09309e-06 -3.12547e-06 -3.98267e-05
0.00247043 1.76514e-05 9.8817e-06
1.76514e-05 0.000731806 -3.94093e-06
9.8817e-06 -3.94093e-06 0.000751426
0.0011823 1.77393e-05 -4.19594e-07
1.77393e-05 0.000101347 1.4366e-07
-4.19594e-07 1.4366e-07 3.68532e-05
0.00107797 1.77362e-05 -1.3118e-07
1.77362e-05 4.9054e-05 -9.927e-08
-1.3118e-07 -9.927e-08 -1.68354e-05
0.00106255 1.17381e-06 -1.15519e-06
1.17381e-06 4.07475e-05 -9.24113e-07
-1.15519e-06 -9.24113e-07 -1.54262e-05
0.000985596 -6.54384e-06 -1.91852e-06
-6.54384e-06 3.60683e-06 -1.89717e-06
-1.91852e-06 -1.89717e-06 -3.29505e-05
0.00105619 4.58229e-06 -4.90311e-08
4.58229e-06 3.65555e-05 2.80221e-08
-4.90311e-08 2.80221e-08 -1.93311e-05
0.00105256 2.04462e-05 6.71037e-07
2.04462e-05 3.63688e-05 4.78798e-07
6.71037e-07 4.78798e-07 -3.05485e-05
0.000923571 -1.14169e-05 -2.68884e-06
-1.14169e-05 -3.05296e-05 -3.22467e-06
-2.68884e-06 -3.22467e-06 -3.64274e-05
0.000986189 -4.59395e-06 -1.15881e-07
-4.59395e-06 2.37295e-06 5.04003e-09
-1.15881e-07 5.04003e-09 -3.31442e-05
0.00105963 7.51121e-06 9.07276e-07
7.51121e-06 3.87048e-05 1.26558e-06
9.07276e-07 1.26558e-06 -1.67433e-05
0.00245516 -1.52977e-05 -9.04663e-06
-1.52977e-05 0.000721174 -4.04983e-06
-9.04663e-06 -4.04983e-06 0.000741411
0.000922719 -1.02948e-05 -1.21255e-07
-1.02948e-05 -3.43216e-05 -6.25202e-09
-1.21255e-07 -6.25202e-09 -3.88417e-05
0.000997434 -5.64099e-06 1.0627e-06
-5.64099e-06 6.79721e-06 2.00361e-06
1.0627e-06 2.00361e-06 -2.72249e-05
0.00240626 -1.28809e-05 -3.86346e-07
-1.28809e-05 0.000692428 3.36125e-08
-3.86346e-07 3.36125e-08 0.000713923
0.000915614 -9.03229e-06 1.54562e-06
-9.03229e-06 -4.14665e-05 3.25428e-06
1.54562e-06 3.25428e-06 -4.42226e-05
0.0023619 -1.02929e-05 5.94482e-06
-1.02929e-05 0.000666215 4.0012e-06
5.94482e-06 4.0012e-06 0.000688919
0.00019986 -1.44726e-05 -6.63253e-06
-1.44726e-05 -0.000133062 -3.56528e-06
-6.63253e-06 -3.56528e-06 -0.000133025
0.000569744 -3.73092e-06 1.68115e-07
-3.73092e-06 6.46435e-05 -1.48497e-06
1.68115e-07 -1.48497e-06 -2.36354e-05
0.000649862 6.74351e-06 6.62391e-07
6.74351e-06 1.79734e-05 2.71897e-07
6.62391e-07 2.71897e-07 -7.07894e-05
0.00111111 2.50763e-05 1.21131e-07
2.50763e-05 6.37222e-05 1.15739e-07
1.21131e-07 1.15739e-07 -5.14068e-06
0.00118263 2.77536e-05 -3.43875e-07
2.77536e-05 0.000101813 2.84674e-07
-3.43875e-07 2.84674e-07 3.45486e-05
0.00111559 3.02662e-05 -2.26517e-07
3.02662e-05 6.33944e-05 2.20352e-07
-2.26517e-07 2.20352e-07 -7.51734e-06
0.00120319 2.98034e-05 2.6702e-07
2.98034e-05 0.000111056 -9.79937e-08
2.6702e-07 -9.79937e-08 3.86153e-05
0.0012069 2.73027e-05 3.22561e-07
2.73027e-05 0.000111403 -4.31188e-09
3.22561e-07 -4.31188e-09 4.18124e-05
0.00109295 2.85092e-05 6.00904e-07
2.85092e-05 5.44908e-05 3.60386e-07
6.00904e-07 3.60386e-07 -1.85347e-05
0.00111313 2.92819e-05 -1.05319e-07
2.92819e-05 6.73641e-05 2.16303e-08
-1.05319e-07 2.16303e-08 -8.44949e-06
0.00113179 2.97859e-05 3.09657e-08
2.97859e-05 7.32483e-05 2.09054e-08
3.09657e-08 2.09054e-08 7.8105e-08
0.00111737 3.07335e-05 -6.84527e-07
3.07335e-05 7.55499e-05 2.64663e-08
-6.84527e-07 2.64663e-08 -1.53031e-06
0.00121567 3.30632e-05 -6.10289e-07
3.30632e-05 0.000115717 1.13081e-06
-6.10289e-07 1.13081e-06 3.93625e-05
0.00111582 2.89957e-05 1.57435e-07
2.89957e-05 7.38126e-05 -2.50865e-07
1.57435e-07 -2.50865e-07 -6.13963e-06
0.00122716 3.11698e-05 4.89732e-08
3.11698e-05 0.00012607 -2.06933e-07
4.89732e-08 -2.06933e-07 4.64494e-05
-0.00280157 -6.14253e-05 4.36781e-05
-6.14253e-05 -0.00145469 1.49224e-05
4.36781e-05 1.49224e-05 -0.00148129
0.00107692 -3.55025e-05 2.193e-07
-3.55025e-05 0.000326613 -2.89795e-07
2.193e-07 -2.89795e-07 0.000376365
0.000715397 -4.94442e-06 1.28834e-05
-4.94442e-06 0.000129732 6.40117e-06
1.28834e-05 6.40117e-06 8.3345e-05
0.000111517 -5.48352e-05 2.44034e-06
-5.48352e-05 -0.000350701 -1.26181e-07
2.44034e-06 -1.26181e-07 -0.000229965
0.00401699 -0.000174402 -2.0217e-05
-0.000174402 0.00128931 -5.26808e-05
-2.0217e-05 -5.26808e-05 0.00126085
0.00244206 -6.75933e-05 2.41234e-05
-6.75933e-05 -0.00033887 3.02273e-05
2.41234e-05 3.02273e-05 -0.000654689
3.45977e-05 -1.14283e-06 -1.34235e-06
-1.14283e-06 -0.000102411 4.35183e-05
-1.34235e-06 4.35183e-05 -0.00059403
0.00117031 6.79788e-05 -1.57998e-05
6.79788e-05 0.000208694 -3.34933e-05
-1.57998e-05 -3.34933e-05 -0.0001849
0.00175829 -0.000141188 1.08245e-06
-0.000141188 0.000337823 -4.46232e-06
1.08245e-06 -4.46232e-06 0.000317168
0.00394125 -6.41599e-05 2.51438e-05
-6.41599e-05 0.000564796 4.25121e-05
2.51438e-05 4.25121e-05 -2.5405e-06
0.000351541 8.82459e-05 -5.32202e-05
8.82459e-05 -0.000392586 -8.2833e-05
-5.32202e-05 -8.2833e-05 -0.000744078
0.0034865 -2.60979e-06 -3.47455e-06
-2.60979e-06 0.000452069 1.41304e-05
-3.47455e-06 1.41304e-05 -0.000115518
0.0020776 6.46989e-05 2.66768e-06
6.46989e-05 0.000586604 -9.79351e-07
2.66768e-06 -9.79351e-07 0.000492118
0.00099149 3.89703e-05 -9.11477e-08
3.89703e-05 2.96493e-05 -1.15626e-07
-9.11477e-08 -1.15626e-07 -4.67762e-05
0.00130307 3.32038e-05 2.51634e-06
3.32038e-05 0.000163308 -5.76766e-07
2.51634e-06 -5.76766e-07 8.20633e-05
0.000198054 9.55763e-06 -8.27139e-07
9.55763e-06 3.08865e-06 -1.56074e-06
-8.27139e-07 -1.56074e-06 -0.000133698
0.00150193 3.18008e-05 3.21805e-06
3.18008e-05 0.000301068 4.46269e-07
3.21805e-06 4.46269e-07 0.000172362
0.000955091 7.00488e-05 3.20567e-06
7.00488e-05 0.000149667 2.50947e-06
3.20567e-06 2.50947e-06 6.49452e-05
-0.000726991 6.2511e-05 4.45803e-06
6.2511e-05 -0.000691088 4.72211e-06
4.45803e-06 4.72211e-06 -0.000754972
-0.00122102 2.38051e-06 5.8193e-05
2.38051e-06 -0.000662962 -2.57947e-06
5.8193e-05 -2.57947e-06 -0.000611998
0.000629725 -3.23382e-06 -6.80323e-06
-3.23382e-06 0.000100205 3.13336e-07
-6.80323e-06 3.13336e-07 8.6619e-05
-0.000609147 -5.50276e-07 1.22331e-05
-5.50276e-07 -0.000657702 -1.74085e-06
1.22331e-05 -1.74085e-06 -0.000757983
0.00146166 -1.27259e-05 -1.13529e-05
-1.27259e-05 0.000417456 8.34637e-06
-1.13529e-05 8.34637e-06 0.000262049
0.000308961 -4.88218e-05 -1.92538e-05
-4.88218e-05 0.000175181 3.8999e-06
-1.92538e-05 3.8999e-06 -0.000238903
0.000775712 8.25463e-06 8.67615e-06
8.25463e-06 0.000126894 -2.05752e-06
8.67615e-06 -2.05752e-06 0.000121505
0.0037334 8.6512e-05 3.94678e-05
8.6512e-05 0.000675461 -2.94903e-05
3.94678e-05 -2.94903e-05 2.41019e-05
0.00294331 6.26437e-05 -7.20531e-05
6.26437e-05 0.00134219 2.40415e-05
-7.20531e-05 2.40415e-05 0.00124595
0.00162301 -5.31015e-05 5.74544e-07
-5.31015e-05 9.97908e-05 -5.03273e-08
5.74544e-07 -5.03273e-08 6.02044e-05
-0.000306804 2.65618e-05 -2.16944e-05
2.65618e-05 -0.000243917 4.62032e-06
-2.16944e-05 4.62032e-06 -0.000300066
0.002343 1.28363e-05 -9.10712e-06
1.28363e-05 0.000226715 6.30015e-06
-9.10712e-06 6.30015e-06 -0.000402122
4.41177e-05 1.74044e-05 3.99035e-06
1.74044e-05 1.89077e-05 1.9844e-06
3.99035e-06 1.9844e-06 -0.00031494
0.00168445 -4.93344e-05 1.032e-05
-4.93344e-05 -0.000191609 -4.53522e-06
1.032e-05 -4.53522e-06 -9.45673e-05
0.00503204 1.80358e-05 6.81612e-06
1.80358e-05 0.00134848 -3.21592e-06
6.81612e-06 -3.21592e-06 0.000864713
0.000951863 3.47079e-05 -4.98454e-06
3.47079e-05 0.000405844 -1.12238e-06
-4.98454e-06 -1.12238e-06 0.000139915
0.000385375 -6.55019e-05 2.25865e-06
-6.55019e-05 -0.000150252 -6.29136e-06
2.25865e-06 -6.29136e-06 -0.000374182
0.00113303 -9.97012e-05 -7.38192e-08
-9.97012e-05 3.57715e-05 -4.363e-07
-7.38192e-08 -4.363e-07 -7.91788e-05
0.0012418 -8.79922e-05 -1.33564e-05
-8.79922e-05 -8.66023e-05 5.12959e-06
-1.33564e-05 5.12959e-06 -0.000121239
0.00112018 -6.80043e-05 -1.27136e-07
-6.80043e-05 2.31899e-05 -1.76756e-06
-1.27136e-07 -1.76756e-06 -8.88882e-05
0.00133775 -6.22495e-05 -3.1513e-08
-6.22495e-05 3.13651e-05 6.19544e-07
-3.1513e-08 6.19544e-07 -2.47566e-05
0.00167109 -4.30743e-05 -1.58546e-06
-4.30743e-05 0.000148093 5.06618e-07
-1.58546e-06 5.06618e-07 0.000134068
0.00095735 -4.49995e-05 3.00478e-06
-4.49995e-05 -7.11971e-05 5.08845e-07
3.00478e-06 5.08845e-07 -0.000150978
0.00126621 -3.88011e-05 -6.61808e-08
-3.88011e-05 2.93189e-05 1.88019e-08
-6.61808e-08 1.88019e-08 -1.95845e-05
0.00134485 -2.98216e-05 4.68713e-07
-2.98216e-05 3.31384e-05 -5.22646e-07
4.68713e-07 -5.22646e-07 4.44304e-06
0.00109511 -3.61717e-05 1.31011e-06
-3.61717e-05 -1.07126e-05 4.25975e-07
1.31011e-06 4.25975e-07 -7.93834e-05
0.00123972 -3.13583e-05 2.0711e-07
-3.13583e-05 2.82052e-05 3.27907e-07
2.0711e-07 3.27907e-07 -2.27189e-05
0.00121257 -2.57094e-05 2.73336e-07
-2.57094e-05 6.93286e-06 -9.73862e-08
2.73336e-07 -9.73862e-08 -3.52209e-05
0.00133974 -2.55462e-05 -2.80151e-07
-2.55462e-05 8.79839e-05 1.74467e-10
-2.80151e-07 1.74467e-10 3.89016e-05
0.00126586 -2.86028e-05 -2.88538e-07
-2.86028e-05 5.64207e-05 8.67306e-07
-2.88538e-07 8.67306e-07 3.50104e-06
0.0012632 -2.96591e-05 -4.20132e-07
-2.96591e-05 6.73585e-05 -1.07498e-06
-4.20132e-07 -1.07498e-06 1.00896e-05
0.00125229 -3.24026e-05 -9.78227e-07
-3.24026e-05 8.26586e-05 8.81541e-08
-9.78227e-07 8.81541e-08 1.766e-05
0.00129072 -3.44123e-05 3.95929e-07
-3.44123e-05 9.33432e-05 -5.81247e-08
3.95929e-07 -5.81247e-08 2.6481e-05
0.0011933 -3.1959e-05 1.38261e-06
-3.1959e-05 3.41563e-05 1.25686e-06
1.38261e-06 1.25686e-06 -2.96414e-05
0.000979284 -2.92485e-05 -1.17068e-06
-2.92485e-05 -1.71485e-05 1.21321e-06
-1.17068e-06 1.21321e-06 -8.11627e-05
0.00115602 -3.35688e-05 8.46098e-08
-3.35688e-05 6.02664e-05 -4.50936e-08
8.46098e-08 -4.50936e-08 -8.82498e-06
0.00125409 -3.6548e-05 1.48658e-06
-3.6548e-05 9.98242e-05 -1.08753e-06
1.48658e-06 -1.08753e-06 2.67503e-05
0.00104144 -1.51644e-05 -8.72439e-07
-1.51644e-05 3.72604e-05 7.35002e-07
-8.72439e-07 7.35002e-07 -1.81069e-05
0.0011151 -2.98357e-05 4.36122e-08
-2.98357e-05 6.22278e-05 -5.31889e-08
4.36122e-08 -5.31889e-08 7.45896e-08
0.000964443 -3.14618e-05 5.39974e-07
-3.14618e-05 -1.40552e-05 -1.45673e-06
5.39974e-07 -1.45673e-06 -8.35206e-05
0.000954063 1.11494e-05 -2.19004e-06
1.11494e-05 5.71872e-06 1.64346e-06
-2.19004e-06 1.64346e-06 -3.34356e-05
0.00104765 -9.15366e-06 -3.74545e-08
-9.15366e-06 4.1902e-05 3.1504e-08
-3.74545e-08 3.1504e-08 -1.24275e-05
0.00112188 -2.68687e-05 4.92255e-07
-2.68687e-05 6.92846e-05 -5.92927e-07
4.92255e-07 -5.92927e-07 8.46713e-06
0.00086198 1.75454e-05 -3.72895e-06
1.75454e-05 -4.27645e-05 2.82494e-06
-3.72895e-06 2.82494e-06 -5.06913e-05
0.000967517 1.36477e-05 7.94278e-08
1.36477e-05 8.34793e-06 1.72041e-08
7.94278e-08 1.72041e-08 -2.86864e-05
0.00104921 -3.53988e-06 1.07357e-06
-3.53988e-06 4.38217e-05 -7.44172e-07
1.07357e-06 -7.44172e-07 -1.00958e-05
0.00250057 2.48998e-05 -1.13273e-05
2.48998e-05 0.000759868 3.53966e-06
-1.13273e-05 3.53966e-06 0.000777344
0.000893582 1.6074e-05 8.54346e-09
1.6074e-05 -3.39484e-05 2.44749e-08
8.54346e-09 2.44749e-08 -4.05782e-05
0.000992266 1.37703e-05 1.96422e-06
1.37703e-05 1.49118e-05 -1.76532e-06
1.96422e-06 -1.76532e-06 -2.04984e-05
0.00178358 2.04386e-05 4.09387e-06
2.04386e-05 0.000401168 -1.07075e-06
4.09387e-06 -1.07075e-06 0.000416514
0.000908102 1.44408e-05 3.44856e-06
1.44408e-05 -3.18858e-05 -2.97068e-06
3.44856e-06 -2.97068e-06 -3.79373e-05
0.00245738 2.00328e-05 1.05007e-05
2.00328e-05 0.000729492 -3.80057e-06
1.05007e-05 -3.80057e-06 0.000748545
0.00114414 1.59381e-05 -4.48475e-07
1.59381e-05 8.50746e-05 2.85278e-07
-4.48475e-07 2.85278e-07 2.14611e-05
0.0010994 1.5016e-05 2.08835e-07
1.5016e-05 6.0363e-05 3.10434e-07
2.08835e-07 3.10434e-07 -4.57483e-06
0.00104555 -1.3803e-06 -1.23459e-06
-1.3803e-06 3.56598e-05 -7.64628e-07
-1.23459e-06 -7.64628e-07 -2.09488e-05
0.00111068 1.65338e-05 4.72759e-07
1.65338e-05 6.55862e-05 1.81996e-07
4.72759e-07 1.81996e-07 -9.48351e-08
0.00105171 1.32542e-06 2.05206e-08
1.32542e-06 3.60455e-05 3.35085e-08
2.05206e-08 3.35085e-08 -2.02258e-05
0.000988908 -7.93075e-06 -2.13168e-06
-7.93075e-06 7.59161e-06 -1.79594e-06
-2.13168e-06 -1.79594e-06 -2.98209e-05
0.000912338 -1.26319e-05 -3.12124e-06
-1.26319e-05 -3.2796e-05 -3.15101e-06
-3.12124e-06 -3.15101e-06 -3.95861e-05
0.00098503 -5.26634e-06 -1.13418e-07
-5.26634e-06 2.9215e-06 1.39781e-08
-1.13418e-07 1.39781e-08 -3.35735e-05
0.00105194 4.9792e-06 1.02111e-06
4.9792e-06 3.49401e-05 1.15012e-06
1.02111e-06 1.15012e-06 -2.10614e-05
0.00248969 -1.76545e-05 -1.00218e-05
-1.76545e-05 0.000742208 -3.97782e-06
-1.00218e-05 -3.97782e-06 0.0007615
0.000910389 -1.1376e-05 -1.21787e-07
-1.1376e-05 -3.69796e-05 1.31975e-08
-1.21787e-07 1.31975e-08 -4.27963e-05
0.00099481 -3.67072e-06 1.53256e-06
-3.67072e-06 6.24949e-06 2.0019e-06
1.53256e-06 2.0019e-06 -2.92381e-05
0.00245957 -1.53095e-05 -3.42186e-07
-1.53095e-05 0.000722886 3.93588e-08
-3.42186e-07 3.93588e-08 0.000743234
0.000906683 -1.02687e-05 1.94251e-06
-1.02687e-05 -4.20701e-05 3.27745e-06
1.94251e-06 3.27745e-06 -4.64976e-05
0.00240945 -1.28676e-05 7.17984e-06
-1.28676e-05 0.000693498 3.99264e-06
7.17984e-06 3.99264e-06 0.000715126
0.000464536 1.98981e-05 7.18537e-05
1.98981e-05 -0.000102598 6.66608e-06
7.18537e-05 6.66608e-06 -0.000232902
0.00143653 -1.70551e-05 -1.21949e-07
-1.70551e-05 0.00058776 -1.18122e-06
-1.21949e-07 -1.18122e-06 0.000596197
0.000576981 -8.50981e-07 1.16066e-05
-8.50981e-07 7.12301e-05 3.81801e-07
1.16066e-05 3.81801e-07 -1.67662e-05
0.00108846 2.47482e-05 7.97176e-07
2.47482e-05 5.20829e-05 2.94032e-08
7.97176e-07 2.94032e-08 -1.70574e-05
0.00110469 3.00171e-05 5.74638e-07
3.00171e-05 5.8659e-05 7.53221e-08
5.74638e-07 7.53221e-08 -1.22828e-05
0.00115427 2.78289e-05 6.37241e-08
2.78289e-05 8.90672e-05 1.83365e-08
6.37241e-08 1.83365e-08 2.20195e-05
0.00115158 3.02348e-05 -1.05279e-07
3.02348e-05 9.11909e-05 2.01991e-07
-1.05279e-07 2.01991e-07 2.43088e-05
0.00113792 3.1012e-05 -7.44828e-07
3.1012e-05 8.02266e-05 2.27235e-07
-7.44828e-07 2.27235e-07 9.65474e-06
0.00115168 2.97237e-05 3.56331e-07
2.97237e-05 8.55367e-05 7.03613e-08
3.56331e-07 7.03613e-08 9.98539e-06
0.00114981 3.00184e-05 6.87481e-07
3.00184e-05 8.17679e-05 6.84575e-08
6.87481e-07 6.84575e-08 8.90174e-06
0.0010705 3.01997e-05 -2.17292e-07
3.01997e-05 5.31655e-05 -7.12453e-08
-2.17292e-07 -7.12453e-08 -2.37895e-05
0.000849646 2.91072e-05 -4.59096e-07
2.91072e-05 -5.11778e-05 4.24871e-07
-4.59096e-07 4.24871e-07 -0.000123635
0.00101712 3.4433e-05 -7.66766e-07
3.4433e-05 2.93212e-05 8.063e-07
-7.66766e-07 8.063e-07 -4.94217e-05
0.00159397 4.88152e-05 4.60764e-08
4.88152e-05 0.000308744 -1.43268e-07
4.60764e-08 -1.43268e-07 0.000230644
0.00119312 3.33224e-05 -4.94965e-07
3.33224e-05 0.000109018 1.03306e-07
-4.94965e-07 1.03306e-07 3.10955e-05
0.00105243 2.89596e-05 3.27496e-07
2.89596e-05 4.41628e-05 -2.71109e-07
3.27496e-07 -2.71109e-07 -3.53944e-05
0.00670775 -2.00772e-05 -1.55376e-05
-2.00772e-05 0.00168849 -4.60516e-06
-1.55376e-05 -4.60516e-06 0.00119358
4.68741e-06 -7.22855e-05 1.00099e-05
-7.22855e-05 -0.000282559 2.72555e-06
1.00099e-05 2.72555e-06 -0.00035543
0.00200986 -3.595e-05 2.40396e-06
-3.595e-05 0.00086134 4.22974e-06
2.40396e-06 4.22974e-06 0.00091431
-0.00186369 -0.000101478 -2.90517e-05
-0.000101478 -0.00125307 -3.23142e-05
-2.90517e-05 -3.23142e-05 -0.00119325
0.00649528 -0.000130226 4.47548e-05
-0.000130226 0.00148237 5.3516e-05
4.47548e-05 5.3516e-05 0.000670319
0.00111369 4.8028e-05 1.47997e-05
4.8028e-05 0.0004626 -4.7815e-06
1.47997e-05 -4.7815e-06 0.000288944
0.00122951 8.81553e-05 -1.9914e-05
8.81553e-05 0.000140754 -2.35104e-05
-1.9914e-05 -2.35104e-05 -9.54176e-05
0.00428874 -9.25962e-05 1.1619e-05
-9.25962e-05 0.000923836 1.4476e-05
1.1619e-05 1.4476e-05 0.000451802
0.00103395 5.5035e-05 -4.67037e-05
5.5035e-05 -4.17937e-05 -3.79811e-05
-4.67037e-05 -3.79811e-05 -0.000264565
0.00170363 7.03012e-05 1.18475e-05
7.03012e-05 0.000316641 -2.6703e-09
1.18475e-05 -2.6703e-09 0.000202831
0.00118327 5.45204e-05 -1.83262e-06
5.45204e-05 0.000167555 -2.18604e-06
-1.83262e-06 -2.18604e-06 6.69661e-05
0.000810248 3.42883e-05 2.1841e-06
3.42883e-05 -6.15958e-05 -4.81449e-07
2.1841e-06 -4.81449e-07 -0.00013663
0.00227277 8.39787e-05 -7.64237e-06
8.39787e-05 0.000746249 -9.06345e-06
-7.64237e-06 -9.06345e-06 0.000667523
2.66613e-05 7.60707e-05 -3.59913e-06
7.60707e-05 -0.000455229 -1.74706e-06
-3.59913e-06 -1.74706e-06 -0.000494349
0.0014096 5.98956e-05 -1.39954e-05
5.98956e-05 -0.000323942 -1.65235e-06
-1.39954e-05 -1.65235e-06 -0.000630252
0.00153976 1.28944e-05 3.35236e-07
1.28944e-05 0.000395851 3.51742e-06
3.35236e-07 3.51742e-06 0.000329855
-0.00123546 -2.84589e-06 6.7576e-07
-2.84589e-06 -0.00100284 4.75761e-07
6.7576e-07 4.75761e-07 -0.00103258
0.00153533 -6.09865e-05 -1.63111e-05
-6.09865e-05 0.000255829 3.31879e-06
-1.63111e-05 3.31879e-06 0.000101086
0.0019525 -1.24095e-05 2.62242e-05
-1.24095e-05 0.000620677 -2.11009e-05
2.62242e-05 -2.11009e-05 8.36967e-05
0.000546841 3.59951e-06 -8.95252e-05
3.59951e-06 -5.23106e-05 1.60332e-05
-8.95252e-05 1.60332e-05 -0.000182332
0.00507484 9.08852e-05 -1.51635e-06
9.08852e-05 0.00165178 4.48334e-06
-1.51635e-06 4.48334e-06 0.0010761
0.00187406 -4.87559e-05 1.33512e-06
-4.87559e-05 -0.000100594 -6.88021e-07
1.33512e-06 -6.88021e-07 -2.15748e-06
0.00358704 4.72608e-05 1.61621e-05
4.72608e-05 0.000844231 8.24165e-07
1.61621e-05 8.24165e-07 0.000417898
0.00155197 1.98174e-05 2.44571e-05
1.98174e-05 0.000357763 -9.52495e-06
2.44571e-05 -9.52495e-06 -5.4704e-05
0.00224665 -2.56887e-05 -1.6038e-06
-2.56887e-05 -1.89289e-05 -7.28311e-06
-1.6038e-06 -7.28311e-06 0.000133508
0.00102989 4.34965e-05 -1.88549e-05
4.34965e-05 0.000380113 1.20108e-05
-1.88549e-05 1.20108e-05 0.00022873
0.00129351 -9.87506e-05 8.0748e-06
-9.87506e-05 0.000124166 -4.88122e-06
8.0748e-06 -4.88122e-06 9.12568e-06
0.00146346 -8.7017e-05 -2.46138e-06
-8.7017e-05 1.28049e-05 1.30185e-06
-2.46138e-06 1.30185e-06 -1.18102e-05
0.00170878 -4.01628e-05 -4.09542e-06
-4.01628e-05 7.15754e-05 2.22453e-06
-4.09542e-06 2.22453e-06 8.62727e-05
0.000782862 -5.63938e-05 5.44161e-06
-5.63938e-05 -0.000237692 1.53143e-06
5.44161e-06 1.53143e-06 -0.000290309
0.00130426 -4.08867e-05 8.1428e-07
-4.08867e-05 -2.46346e-05 1.01759e-06
8.1428e-07 1.01759e-06 -3.68425e-05
0.00132498 -2.18777e-05 1.30749e-06
-2.18777e-05 -2.33112e-05 1.92828e-06
1.30749e-06 1.92828e-06 -2.95397e-05
0.00109193 -3.72675e-05 1.70949e-06
-3.72675e-05 -6.2195e-05 1.71974e-06
1.70949e-06 1.71974e-06 -0.00010944
0.00129125 -2.96603e-05 3.58086e-07
-2.96603e-05 9.05709e-06 1.2219e-06
3.58086e-07 1.2219e-06 -2.05208e-05
0.00127315 -2.04292e-05 1.31169e-06
-2.04292e-05 7.94613e-06 1.31216e-06
1.31169e-06 1.31216e-06 -2.37283e-05
0.00121766 -3.10324e-05 1.25721e-06
-3.10324e-05 1.69376e-05 1.85005e-06
1.25721e-06 1.85005e-06 -3.39229e-05
0.00127321 -2.66041e-05 1.28483e-07
-2.66041e-05 3.63915e-05 7.1565e-07
1.28483e-07 7.1565e-07 -6.53409e-06
0.0012596 -2.19215e-05 1.34759e-07
-2.19215e-05 3.53546e-05 5.24823e-07
1.34759e-07 5.24823e-07 -9.84038e-06
0.00125349 -2.53856e-05 -6.91032e-07
-2.53856e-05 4.77465e-05 5.45176e-07
-6.91032e-07 5.45176e-07 -3.68992e-07
0.00133712 -2.63188e-05 3.15525e-07
-2.63188e-05 9.48586e-05 -4.72341e-07
3.15525e-07 -4.72341e-07 4.12485e-05
0.0012668 -2.81011e-05 7.63557e-07
-2.81011e-05 5.61031e-05 1.79112e-06
7.63557e-07 1.79112e-06 4.24627e-06
0.00127174 -2.95782e-05 3.77815e-08
-2.95782e-05 7.06519e-05 -2.72399e-07
3.77815e-08 -2.72399e-07 1.33017e-05
0.00126573 -2.89072e-05 -4.14863e-07
-2.89072e-05 7.49758e-05 -3.32334e-07
-4.14863e-07 -3.32334e-07 1.5348e-05
0.00104897 -2.83585e-05 -1.22494e-06
-2.83585e-05 -3.38879e-06 6.59779e-07
-1.22494e-06 6.59779e-07 -6.6119e-05
0.00124664 -3.23662e-05 3.59703e-08
-3.23662e-05 8.05579e-05 -1.33122e-07
3.59703e-08 -1.33122e-07 1.52768e-05
0.00129936 -3.42806e-05 1.24401e-06
-3.42806e-05 9.94162e-05 1.32026e-07
1.24401e-06 1.32026e-07 3.24979e-05
0.00107235 -2.06873e-05 -9.94859e-07
-2.06873e-05 4.31922e-05 9.50366e-07
-9.94859e-07 9.50366e-07 -1.36519e-05
0.00104726 -3.00234e-05 -2.35996e-07
-3.00234e-05 1.7223e-05 2.56524e-07
-2.35996e-07 2.56524e-07 -4.65689e-05
0.00127218 -3.47662e-05 9.04557e-07
-3.47662e-05 0.000117662 -9.82867e-07
9.04557e-07 -9.82867e-07 4.90808e-05
0.000949765 7.9701e-06 -2.22391e-06
7.9701e-06 6.78919e-06 1.55609e-06
-2.22391e-06 1.55609e-06 -3.5044e-05
0.00105858 -1.52719e-05 -4.80651e-08
-1.52719e-05 4.47084e-05 -6.83765e-09
-4.80651e-08 -6.83765e-09 -1.06183e-05
0.00113303 -2.96031e-05 5.47438e-07
-2.96031e-05 7.0374e-05 -9.36144e-07
5.47438e-07 -9.36144e-07 8.18269e-06
0.000842038 1.86893e-05 -4.0042e-06
1.86893e-05 -4.56071e-05 2.73131e-06
-4.0042e-06 2.73131e-06 -5.55038e-05
0.000966447 1.03457e-05 5.68353e-08
1.03457e-05 1.07456e-05 1.08614e-08
5.68353e-08 1.08614e-08 -2.82657e-05
0.00105751 -9.24222e-06 1.0726e-06
-9.24222e-06 4.57805e-05 -7.07419e-07
1.0726e-06 -7.07419e-07 -8.45039e-06
0.00249139 2.73198e-05 -1.14853e-05
2.73198e-05 0.000762347 3.35652e-06
-1.14853e-05 3.35652e-06 0.000778719
0.000884494 1.7655e-05 4.07577e-08
1.7655e-05 -3.18127e-05 1.7433e-08
4.07577e-08 1.7433e-08 -3.98644e-05
0.000982664 1.28963e-05 2.12779e-06
1.28963e-05 1.542e-05 -1.63798e-06
2.12779e-06 -1.63798e-06 -2.15883e-05
0.00244729 2.48408e-05 1.53285e-07
2.48408e-05 0.000734673 5.47799e-08
1.53285e-07 5.47799e-08 0.000752229
0.000910928 1.61807e-05 3.66742e-06
1.61807e-05 -2.54854e-05 -2.87336e-06
3.66742e-06 -2.87336e-06 -3.21972e-05
0.00242416 2.24073e-05 1.08594e-05
2.24073e-05 0.000718082 -3.61564e-06
1.08594e-05 -3.61564e-06 0.000736563
0.00106676 1.97998e-05 -4.46185e-07
1.97998e-05 5.09986e-05 4.36004e-08
-4.46185e-07 4.36004e-08 -1.34402e-05
0.00113043 1.63953e-05 1.3895e-07
1.63953e-05 7.90835e-05 1.33402e-07
1.3895e-07 1.33402e-07 1.54433e-05
0.00093355 -3.74423e-06 -1.4161e-06
-3.74423e-06 -1.47717e-05 -7.38605e-07
-1.4161e-06 -7.38605e-07 -7.25221e-05
0.00101676 1.25303e-05 9.24315e-07
1.25303e-05 1.95011e-05 4.18342e-07
9.24315e-07 4.18342e-07 -4.58881e-05
0.000989057 -2.37757e-06 7.47239e-09
-2.37757e-06 8.49915e-06 7.84104e-08
7.47239e-09 7.84104e-08 -4.86064e-05
0.000986426 -9.63959e-06 -2.21925e-06
-9.63959e-06 1.04603e-05 -1.6469e-06
-2.21925e-06 -1.6469e-06 -2.80442e-05
0.0010405 1.44414e-06 1.19339e-06
1.44414e-06 3.11783e-05 1.00649e-06
1.19339e-06 1.00649e-06 -2.51929e-05
0.000981292 -7.22764e-06 -5.53186e-08
-7.22764e-06 3.59683e-06 2.40389e-08
-5.53186e-08 2.40389e-08 -3.37608e-05
0.00090557 -1.40929e-05 -3.48554e-06
-1.40929e-05 -3.24825e-05 -3.03716e-06
-3.48554e-06 -3.03716e-06 -4.00675e-05
0.00249851 -2.00126e-05 -1.07014e-05
-2.00126e-05 0.000750627 -3.86021e-06
-1.07014e-05 -3.86021e-06 0.000769156
0.000900581 -1.25531e-05 -9.96674e-08
-1.25531e-05 -3.87118e-05 2.74229e-08
-9.96674e-08 2.74229e-08 -4.54107e-05
0.000983525 -4.65553e-06 1.86305e-06
-4.65553e-06 1.77757e-06 1.96201e-06
1.86305e-06 1.96201e-06 -3.46539e-05
0.0025065 -1.76692e-05 -2.80074e-07
-1.76692e-05 0.000750109 4.68464e-08
-2.80074e-07 4.68464e-08 0.000769417
0.000897464 -1.13358e-05 2.40505e-06
-1.13358e-05 -4.32978e-05 3.26838e-06
2.40505e-06 3.26838e-06 -4.90357e-05
0.00246641 -1.53306e-05 8.40553e-06
-1.53306e-05 0.000725793 3.99206e-06
8.40553e-06 3.99206e-06 0.00074624
0.00534163 3.88237e-05 5.48705e-06
3.88237e-05 0.00153892 1.33147e-06
5.48705e-06 1.33147e-06 0.00117665
-0.000865121 -1.6724e-06 1.41076e-05
-1.6724e-06 -0.000397123 7.68152e-07
1.41076e-05 7.68152e-07 -0.000402742
0.00061647 -1.45803e-05 7.19279e-06
-1.45803e-05 0.000123667 1.55276e-06
7.19279e-06 1.55276e-06 0.000124606
0.0010992 2.98456e-05 1.1304e-06
2.98456e-05 5.65521e-05 -1.83646e-07
1.1304e-06 -1.83646e-07 -1.44324e-05
0.00113094 2.79602e-05 4.94154e-07
2.79602e-05 7.86892e-05 -1.15705e-07
4.94154e-07 -1.15705e-07 1.18565e-05
0.00116742 3.14327e-05 -1.79703e-09
3.14327e-05 9.45288e-05 2.81989e-09
-1.79703e-09 2.81989e-09 2.4079e-05
0.00114704 3.0502e-05 -3.22701e-08
3.0502e-05 8.90519e-05 -7.69753e-08
-3.22701e-08 -7.69753e-08 2.22092e-05
0.00115257 3.11315e-05 6.38586e-07
3.11315e-05 9.6908e-05 4.72934e-07
6.38586e-07 4.72934e-07 2.90761e-05
0.00101601 3.03552e-05 -6.81847e-07
3.03552e-05 2.79726e-05 4.45541e-07
-6.81847e-07 4.45541e-07 -4.1527e-05
0.00101278 2.95122e-05 5.12589e-07
2.95122e-05 2.55662e-05 -7.84709e-08
5.12589e-07 -7.84709e-08 -5.12488e-05
0.000988747 3.06347e-05 5.35721e-07
3.06347e-05 1.53419e-05 -1.61696e-07
5.35721e-07 -1.61696e-07 -5.73544e-05
0.00101403 3.45105e-05 5.43086e-07
3.45105e-05 3.29242e-05 4.50973e-08
5.43086e-07 4.50973e-08 -4.59167e-05
0.000818883 3.38389e-05 -1.83451e-07
3.38389e-05 -6.71737e-05 9.38577e-08
-1.83451e-07 9.38577e-08 -0.000139427
0.00212376 5.43075e-05 3.8347e-07
5.43075e-05 0.000539632 6.22434e-07
3.8347e-07 6.22434e-07 0.000463607
0.00151256 6.16564e-05 2.85276e-07
6.16564e-05 0.00020287 -2.85727e-06
2.85276e-07 -2.85727e-06 0.000103646
0.00118022 4.33234e-05 8.85253e-09
4.33234e-05 0.000104517 2.978e-07
8.85253e-09 2.978e-07 2.65954e-05
0.00113941 3.32229e-05 -1.94457e-07
3.32229e-05 8.72356e-05 -1.58728e-06
-1.94457e-07 -1.58728e-06 7.80334e-06
0.000384889 -1.06069e-05 -2.86207e-05
-1.06069e-05 -3.96024e-05 -1.04648e-05
-2.86207e-05 -1.04648e-05 -0.000115538
0.00321537 -2.29057e-05 -2.02301e-05
-2.29057e-05 0.000486552 -2.80994e-06
-2.02301e-05 -2.80994e-06 0.00010616
0.00203015 -8.72774e-05 -2.21625e-05
-8.72774e-05 0.0007963 -7.93744e-06
-2.21625e-05 -7.93744e-06 0.000710572
0.0035911 -3.23773e-05 4.66679e-05
-3.23773e-05 0.000430525 1.07704e-05
4.66679e-05 1.07704e-05 -0.000130077
0.0022339 9.01254e-05 1.92757e-05
9.01254e-05 0.000772046 3.03201e-05
1.92757e-05 3.03201e-05 0.000639843
0.000728701 4.33385e-05 -8.21632e-06
4.33385e-05 -9.86309e-06 -2.61352e-06
-8.21632e-06 -2.61352e-06 -0.000110859
0.00148434 2.04105e-05 1.86633e-05
2.04105e-05 1.65875e-05 6.59965e-06
1.86633e-05 6.59965e-06 -6.21034e-05
0.000671522 6.54276e-05 6.1213e-07
6.54276e-05 -0.00018298 2.48969e-06
6.1213e-07 2.48969e-06 -0.000296851
0.000251507 4.37448e-05 6.07557e-07
4.37448e-05 -0.000269522 3.39233e-07
6.07557e-07 3.39233e-07 -0.000375969
0.00108556 9.2846e-05 -1.98171e-05
9.2846e-05 -8.01531e-05 -2.07981e-05
-1.98171e-05 -2.07981e-05 -9.59089e-05
0.00122529 1.99429e-05 -8.91059e-05
1.99429e-05 0.000140766 -5.99664e-06
-8.91059e-05 -5.99664e-06 -5.4269e-05
0.00495403 4.96812e-05 1.77402e-05
4.96812e-05 0.0014662 -1.15789e-06
1.77402e-05 -1.15789e-06 0.00113027
-0.00344986 2.67606e-08 -5.84149e-05
2.67606e-08 -0.00194416 3.06205e-06
-5.84149e-05 3.06205e-06 -0.00190637
0.00210897 -4.73693e-05 -5.34198e-06
-4.73693e-05 1.62982e-05 4.06634e-06
-5.34198e-06 4.06634e-06 0.000113838
0.000399678 4.60673e-05 2.31507e-05
4.60673e-05 0.000172114 -1.07723e-05
2.31507e-05 -1.07723e-05 -0.000136742
0.000667107 -2.62207e-05 2.02012e-05
-2.62207e-05 -0.000216316 1.05699e-07
2.02012e-05 1.05699e-07 -0.000573346
0.00183335 -3.57547e-05 -2.79524e-06
-3.57547e-05 -0.000178426 1.91224e-06
-2.79524e-06 1.91224e-06 -5.04723e-05
0.000983055 5.98833e-05 4.61404e-06
5.98833e-05 0.000167955 -2.967e-06
4.61404e-06 -2.967e-06 8.51834e-06
0.00189445 1.49972e-05 5.44266e-06
1.49972e-05 -1.82e-05 -1.04278e-05
5.44266e-06 -1.04278e-05 7.12552e-05
0.000829121 5.12768e-05 2.87691e-06
5.12768e-05 -8.55752e-05 -3.93328e-06
2.87691e-06 -3.93328e-06 -0.000141163
0.0015543 -8.49144e-05 6.86476e-06
-8.49144e-05 5.21109e-05 -6.28187e-07
6.86476e-06 -6.28187e-07 3.69455e-05
0.0015148 -3.86405e-05 2.57231e-06
-3.86405e-05 -2.03706e-05 -2.68922e-07
2.57231e-06 -2.68922e-07 -2.58215e-07
0.00159598 5.02776e-06 6.99534e-07
5.02776e-06 8.00651e-05 2.11979e-06
6.99534e-07 2.11979e-06 8.02345e-05
0.00102417 -3.96541e-05 4.14962e-06
-3.96541e-05 -0.000154662 1.0837e-06
4.14962e-06 1.0837e-06 -0.000166617
0.00143183 -2.26641e-05 1.15416e-06
-2.26641e-05 3.53177e-05 6.29868e-07
1.15416e-06 6.29868e-07 2.61528e-05
0.00134529 -6.39371e-06 1.02259e-06
-6.39371e-06 1.89015e-05 1.55444e-06
1.02259e-06 1.55444e-06 -1.24303e-05
0.00124186 -2.94313e-05 1.33207e-06
-2.94313e-05 -1.16905e-05 1.86963e-06
1.33207e-06 1.86963e-06 -4.2374e-05
0.00132096 -2.09306e-05 2.03492e-07
-2.09306e-05 3.49602e-05 5.20552e-07
2.03492e-07 5.20552e-07 1.84587e-06
0.00135554 -1.41908e-05 1.2482e-07
-1.41908e-05 6.0838e-05 9.38592e-07
1.2482e-07 9.38592e-07 1.49832e-05
0.00133332 -2.7458e-05 1.56776e-07
-2.7458e-05 6.58101e-05 1.13033e-06
1.56776e-07 1.13033e-06 2.2083e-05
0.00126027 -2.29381e-05 -2.63857e-07
-2.29381e-05 3.9501e-05 -1.91002e-09
-2.63857e-07 -1.91002e-09 -6.06027e-06
0.00126056 -2.28202e-05 6.32457e-07
-2.28202e-05 5.00403e-05 4.67998e-07
6.32457e-07 4.67998e-07 -4.04344e-06
0.00118427 -2.53065e-05 -3.95418e-07
-2.53065e-05 1.57728e-05 8.04896e-07
-3.95418e-07 8.04896e-07 -3.14186e-05
0.00125937 -2.5362e-05 -4.18799e-07
-2.5362e-05 5.73608e-05 -3.12217e-07
-4.18799e-07 -3.12217e-07 4.597e-06
0.00132211 -2.64373e-05 -1.45889e-08
-2.64373e-05 9.46873e-05 -1.36808e-07
-1.45889e-08 -1.36808e-07 3.69088e-05
0.00128117 -2.94935e-05 5.66364e-07
-2.94935e-05 7.43583e-05 5.5211e-07
5.66364e-07 5.5211e-07 1.69268e-05
0.0012622 -2.88061e-05 9.14504e-08
-2.88061e-05 7.30851e-05 -2.19384e-07
9.14504e-08 -2.19384e-07 1.33124e-05
0.0012552 -2.7345e-05 -6.16893e-07
-2.7345e-05 8.15106e-05 1.11619e-07
-6.16893e-07 1.11619e-07 2.20932e-05
0.000951669 -2.09289e-05 -1.60186e-06
-2.09289e-05 -3.15595e-05 1.00388e-06
-1.60186e-06 1.00388e-06 -8.932e-05
0.00111911 -2.92222e-05 -2.11147e-07
-2.92222e-05 3.21355e-05 1.03643e-07
-2.11147e-07 1.03643e-07 -3.04332e-05
0.0012401 -3.23236e-05 9.59733e-07
-3.23236e-05 7.79962e-05 -4.59144e-07
9.59733e-07 -4.59144e-07 1.24382e-05
0.000963279 3.08661e-06 -2.16584e-06
3.08661e-06 1.35607e-05 1.60695e-06
-2.16584e-06 1.60695e-06 -3.15564e-05
0.0010734 -1.98288e-05 2.14373e-08
-1.98288e-05 4.38494e-05 6.73007e-08
2.14373e-08 6.73007e-08 -1.29736e-05
0.00112453 -3.09232e-05 5.17332e-07
-3.09232e-05 5.59375e-05 -6.61109e-07
5.17332e-07 -6.61109e-07 -7.63263e-06
0.000812659 1.95415e-05 -4.27093e-06
1.95415e-05 -5.23864e-05 2.60984e-06
-4.27093e-06 2.60984e-06 -6.47056e-05
0.000968181 6.35191e-06 3.66561e-09
6.35191e-06 1.38988e-05 -2.49301e-08
3.66561e-09 -2.49301e-08 -2.77437e-05
0.00107555 -1.52918e-05 9.99454e-07
-1.52918e-05 5.20877e-05 -8.89247e-07
9.99454e-07 -8.89247e-07 -3.20448e-06
0.00251556 2.96519e-05 -1.17956e-05
2.96519e-05 0.000781992 3.20095e-06
-1.17956e-05 3.20095e-06 0.000796857
0.000869297 1.88221e-05 6.50125e-08
1.88221e-05 -3.23688e-05 3.09419e-08
6.50125e-08 3.09419e-08 -4.24112e-05
0.000978234 9.49312e-06 2.22607e-06
9.49312e-06 1.55206e-05 -1.49104e-06
2.22607e-06 -1.49104e-06 -2.33481e-05
0.00244348 2.71945e-05 1.60462e-07
2.71945e-05 0.000739981 6.09578e-08
1.60462e-07 6.09578e-08 0.000756334
0.000907451 1.7769e-05 3.90669e-06
1.7769e-05 -2.06593e-05 -2.77665e-06
3.90669e-06 -2.77665e-06 -2.88348e-05
0.00239371 2.4752e-05 1.11116e-05
2.4752e-05 0.000709343 -3.45528e-06
1.11116e-05 -3.45528e-06 0.00072698
0.00110605 2.43017e-05 -5.53315e-07
2.43017e-05 7.26846e-05 -2.31844e-07
-5.53315e-07 -2.31844e-07 7.72857e-06
0.00114361 2.10222e-05 5.92545e-08
2.10222e-05 8.82289e-05 5.47739e-08
5.92545e-08 5.47739e-08 2.42074e-05
0.000949714 2.33754e-07 -1.23053e-06
2.33754e-07 -1.49921e-06 -5.92968e-07
-1.23053e-06 -5.92968e-07 -6.00809e-05
0.00111586 1.68485e-05 6.22407e-07
1.68485e-05 7.26749e-05 1.22905e-07
6.22407e-07 1.22905e-07 9.00987e-06
0.000938721 -3.20335e-06 -2.09508e-07
-3.20335e-06 -1.12507e-05 -1.28323e-07
-2.09508e-07 -1.28323e-07 -6.91227e-05
0.000979228 -1.06224e-05 -2.27764e-06
-1.06224e-05 1.23004e-05 -1.46578e-06
-2.27764e-06 -1.46578e-06 -2.77273e-05
0.00093244 -3.35479e-06 1.2054e-06
-3.35479e-06 -1.87083e-05 8.72114e-07
1.2054e-06 8.72114e-07 -7.63134e-05
0.000974805 -9.51145e-06 -9.17531e-09
-9.51145e-06 4.71689e-06 2.62767e-08
-9.17531e-09 2.62767e-08 -3.37647e-05
0.000900592 -1.57922e-05 -3.75921e-06
-1.57922e-05 -3.01337e-05 -2.89517e-06
-3.75921e-06 -2.89517e-06 -3.87936e-05
0.000974046 -6.56633e-06 2.14313e-06
-6.56633e-06 -2.17956e-07 1.88498e-06
2.14313e-06 1.88498e-06 -3.75249e-05
0.000893286 -1.39857e-05 -7.42272e-08
-1.39857e-05 -3.87467e-05 3.44285e-08
-7.42272e-08 3.44285e-08 -4.62273e-05
0.00248828 -2.24019e-05 -1.11266e-05
-2.24019e-05 0.000750309 -3.70999e-06
-1.11266e-05 -3.70999e-06 0.000768076
0.00253014 -2.00291e-05 -2.26741e-07
-2.00291e-05 0.000765774 5.28695e-08
-2.26741e-07 5.28695e-08 0.000784241
0.000888923 -1.24763e-05 2.8693e-06
-1.24763e-05 -4.45947e-05 3.20281e-06
2.8693e-06 3.20281e-06 -5.12002e-05
0.002521 -1.77009e-05 9.57644e-06
-1.77009e-05 0.000756876 3.96801e-06
9.57644e-06 3.96801e-06 0.000776209
0.000248987 -2.00771e-05 -3.99661e-05
-2.00771e-05 -0.000171648 -6.22672e-06
-3.99661e-05 -6.22672e-06 -0.00024706
0.00161741 3.13503e-05 -1.35656e-05
3.13503e-05 -0.000181013 -4.30294e-06
-1.35656e-05 -4.30294e-06 -0.000526316
0.00288712 -6.1109e-05 -2.14174e-05
-6.1109e-05 0.00106988 -3.6323e-06
-2.14174e-05 -3.6323e-06 0.0010155
0.00119792 3.36244e-05 1.25815e-06
3.36244e-05 0.000110912 3.99354e-07
1.25815e-06 3.99354e-07 4.21959e-05
0.00118804 3.17302e-05 6.38512e-07
3.17302e-05 0.000104752 -2.66973e-07
6.38512e-07 -2.66973e-07 3.44153e-05
0.00113576 3.0592e-05 3.62462e-07
3.0592e-05 8.36908e-05 -1.94318e-07
3.62462e-07 -1.94318e-07 1.69002e-05
0.00109932 3.14601e-05 9.31811e-09
3.14601e-05 6.78271e-05 9.05997e-10
9.31811e-09 9.05997e-10 -1.77482e-06
0.00112095 3.12002e-05 -1.72358e-07
3.12002e-05 8.27732e-05 -1.76411e-07
-1.72358e-07 -1.76411e-07 1.46606e-05
0.000933079 3.21061e-05 -7.6999e-07
3.21061e-05 -6.98296e-06 5.44976e-07
-7.6999e-07 5.44976e-07 -7.38595e-05
0.00115615 3.25353e-05 1.26308e-06
3.25353e-05 9.53725e-05 -7.09844e-07
1.26308e-06 -7.09844e-07 2.24053e-05
0.00104014 3.50156e-05 6.00467e-07
3.50156e-05 5.07888e-05 -1.53511e-06
6.00467e-07 -1.53511e-06 -2.82182e-05
0.00109184 3.70692e-05 -4.74225e-08
3.70692e-05 6.27058e-05 -4.20623e-08
-4.74225e-08 -4.20623e-08 -9.3486e-06
0.0015678 4.77112e-05 1.31634e-07
4.77112e-05 0.000285279 8.79732e-08
1.31634e-07 8.79732e-08 0.000210913
0.0013241 5.10653e-05 -1.94831e-08
5.10653e-05 0.000121556 -2.1635e-06
-1.94831e-08 -2.1635e-06 3.8742e-05
0.0016158 5.76256e-05 -6.53837e-06
5.76256e-05 0.000121329 -1.12516e-06
-6.53837e-06 -1.12516e-06 1.3638e-05
0.0012192 5.70113e-05 2.09487e-06
5.70113e-05 7.06925e-05 1.82519e-06
2.09487e-06 1.82519e-06 -2.64428e-05
0.000826644 3.85542e-05 -4.86426e-07
3.85542e-05 -7.11456e-05 1.34342e-06
-4.86426e-07 1.34342e-06 -0.000148944
0.00181002 -3.64884e-05 6.43065e-06
-3.64884e-05 -6.50578e-06 6.65298e-06
6.43065e-06 6.65298e-06 -7.30617e-05
0.000825978 9.55799e-06 2.775e-06
9.55799e-06 -5.37376e-05 1.16577e-06
2.775e-06 1.16577e-06 -0.000175805
0.000552748 -2.62402e-05 -2.88815e-05
-2.62402e-05 -0.000484298 -1.71898e-05
-2.88815e-05 -1.71898e-05 -0.000791117
0.00289028 8.56749e-05 1.51734e-05
8.56749e-05 0.000553318 2.73879e-05
1.51734e-05 2.73879e-05 0.000361923
0.00173782 3.15017e-05 7.77642e-06
3.15017e-05 7.07473e-05 1.2219e-06
7.77642e-06 1.2219e-06 -2.90748e-05
-0.000391249 6.01817e-05 1.85284e-07
6.01817e-05 -0.000700571 7.06628e-06
1.85284e-07 7.06628e-06 -0.000814151
0.00179799 2.16057e-06 7.72602e-06
2.16057e-06 0.000511036 -4.07385e-06
7.72602e-06 -4.07385e-06 0.000461625
0.00028539 7.28402e-06 -1.63229e-05
7.28402e-06 -1.00905e-06 -3.67815e-07
-1.63229e-05 -3.67815e-07 -0.00010203
0.00104807 0.000103441 6.03039e-05
0.000103441 -0.000543532 -5.4249e-06
6.03039e-05 -5.4249e-06 -0.000855747
0.00179292 -4.86717e-05 1.08908e-06
-4.86717e-05 -0.000163798 5.44967e-06
1.08908e-06 5.44967e-06 -6.17168e-05
0.000733205 4.48305e-05 3.70043e-05
4.48305e-05 -0.000119163 -1.21532e-05
3.70043e-05 -1.21532e-05 -0.000339386
0.0019934 2.83168e-06 3.4311e-06
2.83168e-06 4.38277e-05 2.77199e-07
3.4311e-06 2.77199e-07 0.000108166
0.001045 5.54814e-05 9.56224e-07
5.54814e-05 2.29943e-05 -2.80358e-06
9.56224e-07 -2.80358e-06 -3.54137e-05
0.00103997 4.60152e-05 -2.99979e-06
4.60152e-05 -0.000203979 6.82107e-07
-2.99979e-06 6.82107e-07 -0.000255364
0.000379808 3.43509e-05 -2.31873e-06
3.43509e-05 -0.000420751 -4.23419e-06
-2.31873e-06 -4.23419e-06 -0.000496752
0.00135321 -3.68274e-05 5.82966e-06
-3.68274e-05 -9.84952e-05 -2.13739e-07
5.82966e-06 -2.13739e-07 -7.23099e-05
0.00149334 3.31388e-06 1.11121e-06
3.31388e-06 4.27682e-05 3.92328e-07
1.11121e-06 3.92328e-07 3.62864e-05
0.00155086 1.96446e-05 -1.49984e-07
1.96446e-05 0.000131103 6.21205e-07
-1.49984e-07 6.21205e-07 8.51657e-05
0.00158963 -2.31849e-05 -3.57959e-07
-2.31849e-05 0.000117353 4.5475e-07
-3.57959e-07 4.5475e-07 0.000105447
0.00147085 -6.69018e-06 -3.87093e-07
-6.69018e-06 8.2857e-05 -7.6334e-08
-3.87093e-07 -7.6334e-08 5.01764e-05
0.0014271 4.69529e-07 3.51781e-07
4.69529e-07 8.03156e-05 1.12889e-06
3.51781e-07 1.12889e-06 2.88822e-05
0.00139534 -2.15369e-05 -1.09217e-06
-2.15369e-05 7.43309e-05 -5.40523e-08
-1.09217e-06 -5.40523e-08 3.9778e-05
0.00134887 -1.54136e-05 -7.48773e-07
-1.54136e-05 6.34752e-05 -5.04012e-07
-7.48773e-07 -5.04012e-07 1.77139e-05
0.00128452 -1.64097e-05 1.20531e-07
-1.64097e-05 4.4118e-05 1.10991e-06
1.20531e-07 1.10991e-06 -1.41144e-05
0.00125769 -2.38943e-05 -9.82072e-07
-2.38943e-05 4.19908e-05 -7.66856e-07
-9.82072e-07 -7.66856e-07 -3.91332e-06
0.00125441 -2.25316e-05 6.47882e-08
-2.25316e-05 4.7615e-05 -2.81325e-07
6.47882e-08 -2.81325e-07 -6.48557e-06
0.00125654 -2.41629e-05 2.82429e-08
-2.41629e-05 5.6636e-05 3.72368e-07
2.82429e-08 3.72368e-07 -2.6515e-06
0.00117819 -2.44455e-05 -6.70956e-07
-2.44455e-05 1.8193e-05 2.29944e-07
-6.70956e-07 2.29944e-07 -3.37166e-05
0.00124408 -2.52091e-05 -1.09302e-07
-2.52091e-05 5.64873e-05 -2.1155e-07
-1.09302e-07 -2.1155e-07 -7.67936e-07
0.00120587 -2.43232e-05 -5.84967e-07
-2.43232e-05 4.8891e-05 1.4026e-07
-5.84967e-07 1.4026e-07 -1.01392e-05
0.00125946 -2.87107e-05 6.66457e-07
-2.87107e-05 7.15711e-05 -1.6395e-08
6.66457e-07 -1.6395e-08 1.16529e-05
0.00118109 -2.66029e-05 1.26428e-07
-2.66029e-05 4.54546e-05 -1.35978e-07
1.26428e-07 -1.35978e-07 -1.42754e-05
0.00114633 -2.18627e-05 -1.24602e-06
-2.18627e-05 4.75191e-05 6.22568e-07
-1.24602e-06 6.22568e-07 -9.17143e-06
0.000982633 -2.07232e-06 -2.3218e-06
-2.07232e-06 1.73205e-05 1.49606e-06
-2.3218e-06 1.49606e-06 -3.03531e-05
0.00102096 -2.1228e-05 -3.44374e-07
-2.1228e-05 3.53909e-06 2.29091e-07
-3.44374e-07 2.29091e-07 -5.39256e-05
0.00118109 -2.99802e-05 7.12753e-07
-2.99802e-05 6.38413e-05 -5.00188e-07
7.12753e-07 -5.00188e-07 1.43566e-06
0.00077939 2.0264e-05 -4.42378e-06
2.0264e-05 -6.13452e-05 2.58709e-06
-4.42378e-06 2.58709e-06 -7.67022e-05
0.000971839 1.02104e-06 4.63975e-08
1.02104e-06 1.56906e-05 2.88883e-08
4.63975e-08 2.88883e-08 -2.92007e-05
0.00107707 -1.9097e-05 1.10719e-06
-1.9097e-05 4.57144e-05 -8.69829e-07
1.10719e-06 -8.69829e-07 -1.10875e-05
0.00256338 3.19127e-05 -1.21938e-05
3.19127e-05 0.00081377 3.04111e-06
-1.21938e-05 3.04111e-06 0.000826879
0.000850855 1.97688e-05 1.08745e-08
1.97688e-05 -3.38837e-05 7.72906e-09
1.08745e-08 7.72906e-09 -4.64008e-05
0.000984814 4.56363e-06 2.22946e-06
4.56363e-06 2.02028e-05 -1.51079e-06
2.22946e-06 -1.51079e-06 -2.12563e-05
0.00247183 2.94731e-05 1.75292e-07
2.94731e-05 0.000761769 7.06942e-08
1.75292e-07 7.06942e-08 0.000776563
0.000895874 1.89473e-05 4.21877e-06
1.89473e-05 -1.9461e-05 -2.64268e-06
4.21877e-06 -2.64268e-06 -2.96474e-05
0.00239753 2.70537e-05 1.14618e-05
2.70537e-05 0.000718547 -3.31962e-06
1.14618e-05 -3.31962e-06 0.000734878
0.00103768 2.79738e-05 -4.8191e-07
2.79738e-05 3.55484e-05 -3.42442e-07
-4.8191e-07 -3.42442e-07 -3.05059e-05
0.00108634 2.4312e-05 -7.56864e-08
2.4312e-05 6.29016e-05 -1.35019e-07
-7.56864e-08 -1.35019e-07 -1.94724e-06
0.00106578 8.31264e-06 -9.86356e-07
8.31264e-06 5.65721e-05 -3.58595e-07
-9.86356e-07 -3.58595e-07 -2.36842e-06
0.00122339 2.24092e-05 4.59718e-07
2.24092e-05 0.000126846 -8.93071e-08
4.59718e-07 -8.93071e-08 6.32343e-05
0.000996312 1.10853e-06 -2.11653e-07
1.10853e-06 2.18539e-05 -1.18471e-07
-2.11653e-07 -1.18471e-07 -3.64965e-05
0.0009751 -1.00449e-05 -2.26458e-06
-1.00449e-05 1.62311e-05 -1.32329e-06
-2.26458e-06 -1.32329e-06 -2.58761e-05
0.00094373 -2.87089e-06 9.03503e-07
-2.87089e-06 -7.78857e-06 4.39022e-07
9.03503e-07 4.39022e-07 -6.57891e-05
0.000966477 -1.10331e-05 -1.22657e-08
-1.10331e-05 6.35529e-06 2.73129e-08
-1.22657e-08 2.73129e-08 -3.37115e-05
0.000893772 -1.75499e-05 -3.99892e-06
-1.75499e-05 -2.69458e-05 -2.72706e-06
-3.99892e-06 -2.72706e-06 -3.71829e-05
0.000962991 -9.5342e-06 2.2616e-06
-9.5342e-06 -1.10837e-06 1.75912e-06
2.2616e-06 1.75912e-06 -3.95719e-05
0.000885559 -1.56597e-05 -4.16329e-08
-1.56597e-05 -3.77363e-05 3.27434e-08
-4.16329e-08 3.27434e-08 -4.62759e-05
0.00247339 -2.4804e-05 -1.14046e-05
-2.4804e-05 0.000749043 -3.54469e-06
-1.14046e-05 -3.54469e-06 0.000765828
0.000881104 -1.38783e-05 3.28179e-06
-1.38783e-05 -4.49811e-05 3.11347e-06
3.28179e-06 3.11347e-06 -5.23548e-05
0.00253389 -2.24368e-05 -1.93482e-07
-2.24368e-05 0.000772101 5.81317e-08
-1.93482e-07 5.81317e-08 0.00078978
0.00256199 -2.00662e-05 1.05395e-05
-2.00662e-05 0.000781055 3.89661e-06
1.05395e-05 3.89661e-06 0.000799453
0.00129057 -5.3138e-05 7.91427e-06
-5.3138e-05 -0.000114109 4.62694e-07
7.91427e-06 4.62694e-07 -0.000145588
0.00114278 4.67985e-06 -6.6674e-06
4.67985e-06 4.19665e-05 6.20237e-06
-6.6674e-06 6.20237e-06 -0.000117934
0.00437276 4.17032e-05 -4.90672e-05
4.17032e-05 0.00114816 -1.58761e-05
-4.90672e-05 -1.58761e-05 0.000802709
0.000980296 3.21831e-05 5.386e-07
3.21831e-05 4.59455e-06 4.11805e-07
5.386e-07 4.11805e-07 -6.22773e-05
0.00130698 3.76768e-05 7.81643e-07
3.76768e-05 0.000134218 -6.28854e-07
7.81643e-07 -6.28854e-07 6.3329e-05
0.000999094 3.16947e-05 2.60751e-07
3.16947e-05 2.05051e-05 -1.11792e-07
2.60751e-07 -1.11792e-07 -4.82224e-05
0.00118177 3.25693e-05 4.9511e-07
3.25693e-05 0.000107048 -5.5581e-07
4.9511e-07 -5.5581e-07 3.73717e-05
0.00109758 3.13952e-05 -8.10728e-08
3.13952e-05 7.24935e-05 -2.35651e-07
-8.10728e-08 -2.35651e-07 4.09816e-06
0.00108379 3.43492e-05 1.55366e-07
3.43492e-05 6.27444e-05 3.65271e-07
1.55366e-07 3.65271e-07 -4.35918e-06
0.00125856 4.50333e-05 -7.39414e-07
4.50333e-05 8.39677e-05 -1.27716e-06
-7.39414e-07 -1.27716e-06 6.75016e-06
0.00134573 4.00632e-05 1.00772e-06
4.00632e-05 0.000183596 -3.68743e-08
1.00772e-06 -3.68743e-08 0.000111748
0.00101365 4.11276e-05 -2.32327e-06
4.11276e-05 3.17064e-05 -4.33254e-07
-2.32327e-06 -4.33254e-07 -4.09907e-05
0.00121489 4.98549e-05 1.99977e-07
4.98549e-05 7.05807e-05 5.48859e-08
1.99977e-07 5.48859e-08 -1.29755e-05
0.00123297 4.77554e-05 -2.51473e-07
4.77554e-05 -2.82798e-05 -1.31547e-06
-2.51473e-07 -1.31547e-06 -0.000123404
0.00168058 1.15189e-05 -4.19905e-06
1.15189e-05 0.000107046 2.8228e-06
-4.19905e-06 2.8228e-06 3.76494e-05
0.00170046 5.617e-05 -2.05933e-06
5.617e-05 0.000162824 8.16378e-07
-2.05933e-06 8.16378e-07 5.80024e-05
0.0009022 5.22192e-05 1.16834e-06
5.22192e-05 -7.20324e-05 5.50276e-06
1.16834e-06 5.50276e-06 -0.000167105
0.00194934 -3.11224e-05 9.47886e-07
-3.11224e-05 6.3289e-05 3.3931e-08
9.47886e-07 3.3931e-08 -3.26308e-06
0.00135574 3.2075e-06 6.32136e-05
3.2075e-06 5.21365e-05 1.85879e-05
6.32136e-05 1.85879e-05 -0.000124473
0.0021793 4.32133e-05 -7.02724e-06
4.32133e-05 0.000218052 -3.29031e-07
-7.02724e-06 -3.29031e-07 9.61621e-05
0.00148995 1.35205e-05 -1.33637e-06
1.35205e-05 0.000146939 -3.44174e-06
-1.33637e-06 -3.44174e-06 9.64159e-05
0.00104752 -5.4776e-06 2.9613e-06
-5.4776e-06 0.000129684 -5.98511e-07
2.9613e-06 -5.98511e-07 9.22104e-05
0.000899114 3.72519e-05 4.01407e-05
3.72519e-05 -8.07067e-05 1.85086e-06
4.01407e-05 1.85086e-06 -0.000220698
0.00180297 -1.02542e-05 6.85092e-06
-1.02542e-05 -2.90242e-05 -3.1462e-07
6.85092e-06 -3.1462e-07 1.06724e-05
0.00106858 5.77996e-05 -4.15298e-06
5.77996e-05 4.48319e-05 5.26335e-07
-4.15298e-06 5.26335e-07 -1.50361e-05
0.00151998 4.91974e-05 -1.7983e-06
4.91974e-05 2.25911e-05 2.15452e-06
-1.7983e-06 2.15452e-06 -2.35462e-05
0.00114863 4.18838e-05 3.52713e-07
4.18838e-05 -4.35519e-05 1.26538e-06
3.52713e-07 1.26538e-06 -0.000116647
0.00135624 3.72451e-05 -1.92072e-06
3.72451e-05 5.81517e-05 -1.24268e-06
-1.92072e-06 -1.24268e-06 -9.81924e-06
0.00133896 3.41432e-05 -1.17321e-06
3.41432e-05 0.000101025 -2.12717e-06
-1.17321e-06 -2.12717e-06 4.35789e-05
0.00129986 1.44043e-06 1.00451e-06
1.44043e-06 -3.89162e-05 -1.18697e-06
1.00451e-06 -1.18697e-06 -5.17077e-05
0.00145755 1.81504e-05 -7.50365e-07
1.81504e-05 8.6746e-05 -1.39679e-06
-7.50365e-07 -1.39679e-06 4.15953e-05
0.00149041 2.43226e-05 -4.99294e-07
2.43226e-05 0.000112405 3.98943e-07
-4.99294e-07 3.98943e-07 4.94056e-05
0.0015038 -6.88963e-06 -2.69186e-06
-6.88963e-06 0.000101739 -1.23017e-06
-2.69186e-06 -1.23017e-06 6.80338e-05
0.0013999 5.18596e-07 -2.35845e-07
5.18596e-07 7.00751e-05 -2.22428e-07
-2.35845e-07 -2.22428e-07 1.83657e-05
0.0012593 3.75634e-07 -2.61512e-07
3.75634e-07 1.35076e-05 1.00832e-06
-2.61512e-07 1.00832e-06 -4.89061e-05
0.00132494 -1.64877e-05 -1.99547e-06
-1.64877e-05 5.76913e-05 -1.48918e-06
-1.99547e-06 -1.48918e-06 1.20795e-05
0.00129209 -1.59339e-05 1.29954e-07
-1.59339e-05 4.78305e-05 -9.2825e-08
1.29954e-07 -9.2825e-08 -1.04122e-05
0.00127975 -1.89705e-05 -2.4371e-07
-1.89705e-05 5.25883e-05 7.79655e-07
-2.4371e-07 7.79655e-07 -1.03509e-05
0.00124942 -2.22251e-05 -4.70957e-07
-2.22251e-05 4.57256e-05 -1.02934e-06
-4.70957e-07 -1.02934e-06 -8.39016e-06
0.0012551 -2.37602e-05 1.37259e-08
-2.37602e-05 5.57e-05 -1.94977e-07
1.37259e-08 -1.94977e-07 -3.56134e-06
0.00123191 -2.39029e-05 -5.16418e-07
-2.39029e-05 5.53751e-05 3.78315e-07
-5.16418e-07 3.78315e-07 -5.37587e-06
0.00116544 -2.40458e-05 2.71456e-08
-2.40458e-05 1.7991e-05 -1.27556e-07
2.71456e-08 -1.27556e-07 -3.87424e-05
0.00116817 -2.3855e-05 -1.05276e-07
-2.3855e-05 3.05181e-05 -9.98427e-08
-1.05276e-07 -9.98427e-08 -2.84032e-05
0.00116178 -2.04769e-05 -1.2427e-06
-2.04769e-05 4.62075e-05 4.98616e-07
-1.2427e-06 4.98616e-07 -1.05093e-05
0.00111003 -2.59061e-05 9.95537e-07
-2.59061e-05 1.08651e-05 -3.95346e-07
9.95537e-07 -3.95346e-07 -4.91837e-05
0.0010587 -2.05525e-05 -9.65593e-09
-2.05525e-05 5.81206e-06 1.63789e-08
-9.65593e-09 1.63789e-08 -5.10674e-05
0.000992379 -4.08942e-06 -2.38987e-06
-4.08942e-06 1.31302e-05 1.21755e-06
-2.38987e-06 1.21755e-06 -3.56603e-05
0.000806257 2.14271e-05 -4.62453e-06
2.14271e-05 -4.36553e-05 2.53693e-06
-4.62453e-06 2.53693e-06 -6.21624e-05
0.000977002 -3.31604e-06 4.46908e-09
-3.31604e-06 1.29801e-05 9.70064e-08
4.46908e-09 9.70064e-08 -3.44394e-05
0.00109694 -2.16299e-05 8.40617e-07
-2.16299e-05 4.17359e-05 -5.45347e-07
8.40617e-07 -5.45347e-07 -1.54311e-05
0.00263774 3.41915e-05 -1.25713e-05
3.41915e-05 0.000858448 2.88824e-06
-1.25713e-05 2.88824e-06 0.000869599
0.000829077 2.06515e-05 3.14162e-08
2.06515e-05 -3.73481e-05 -3.26048e-09
3.14162e-08 -3.26048e-09 -5.2942e-05
0.000982246 -8.55288e-07 2.31321e-06
-8.55288e-07 1.87234e-05 -1.48611e-06
2.31321e-06 -1.48611e-06 -2.59419e-05
0.00252287 3.17172e-05 1.49736e-07
3.17172e-05 0.000795061 7.25374e-08
1.49736e-07 7.25374e-08 0.000808067
0.000887592 1.99808e-05 4.39681e-06
1.99808e-05 -1.60706e-05 -2.57693e-06
4.39681e-06 -2.57693e-06 -2.87843e-05
0.00242793 2.92987e-05 1.18586e-05
2.92987e-05 0.000741434 -3.15824e-06
1.18586e-05 -3.15824e-06 0.000756162
0.000887933 2.96443e-05 -5.30466e-07
2.96443e-05 -4.87875e-05 -5.89725e-07
-5.30466e-07 -5.89725e-07 -0.000117673
0.000948173 2.72729e-05 -4.88279e-08
2.72729e-05 -8.1338e-06 -9.16717e-08
-4.88279e-08 -9.16717e-08 -7.45377e-05
0.00109406 1.56511e-05 -1.076e-06
1.56511e-05 6.47597e-05 -3.14545e-07
-1.076e-06 -3.14545e-07 5.05594e-06
0.00106541 2.42521e-05 2.42946e-07
2.42521e-05 5.25591e-05 -1.33705e-07
2.42946e-07 -1.33705e-07 -1.21825e-05
0.00103825 7.45932e-06 2.94799e-09
7.45932e-06 4.38986e-05 2.03195e-08
2.94799e-09 2.03195e-08 -1.50695e-05
0.000977152 -7.96228e-06 -2.3069e-06
-7.96228e-06 2.1855e-05 -1.15868e-06
-2.3069e-06 -1.15868e-06 -2.26313e-05
0.00104284 2.19595e-06 8.6173e-07
2.19595e-06 4.51625e-05 2.94366e-07
8.6173e-07 2.94366e-07 -1.29485e-05
0.000959241 -1.08331e-05 2.06889e-09
-1.08331e-05 9.31045e-06 8.22131e-09
2.06889e-09 8.22131e-09 -3.28977e-05
0.000885364 -1.92023e-05 -4.19107e-06
-1.92023e-05 -2.27738e-05 -2.56358e-06
-4.19107e-06 -2.56358e-06 -3.51625e-05
0.000953312 -1.13944e-05 2.30108e-06
-1.13944e-05 2.26315e-07 1.60332e-06
2.30108e-06 1.60332e-06 -3.98806e-05
0.000874632 -1.73935e-05 -3.52906e-08
-1.73935e-05 -3.64676e-05 3.21486e-08
-3.52906e-08 3.21486e-08 -4.65734e-05
0.0024667 -2.71585e-05 -1.1666e-05
-2.71585e-05 0.000753553 -3.36783e-06
-1.1666e-05 -3.36783e-06 0.000769
0.000870665 -1.55264e-05 3.61641e-06
-1.55264e-05 -4.52969e-05 2.98238e-06
3.61641e-06 2.98238e-06 -5.37131e-05
0.00252772 -2.4886e-05 -1.68945e-07
-2.4886e-05 0.000774718 6.21208e-08
-1.68945e-07 6.21208e-08 0.00079145
0.00257914 -2.24821e-05 1.11955e-05
-2.24821e-05 0.000793742 3.77198e-06
1.11955e-05 3.77198e-06 0.000811329
0.00161948 -1.68605e-05 4.30382e-08
-1.68605e-05 0.000138897 -2.26724e-07
4.30382e-08 -2.26724e-07 9.79703e-05
0.00122478 -4.84892e-05 -7.81887e-07
-4.84892e-05 -5.59009e-05 -2.13202e-06
-7.81887e-07 -2.13202e-06 -8.61902e-05
-0.000414505 -3.23503e-06 3.2836e-05
-3.23503e-06 -0.000241061 8.83691e-06
3.2836e-05 8.83691e-06 -0.000315007
0.00155862 4.16154e-05 7.74348e-07
4.16154e-05 0.000225472 -9.66941e-07
7.74348e-07 -9.66941e-07 0.000153921
0.000979203 3.2665e-05 -3.59364e-07
3.2665e-05 1.00435e-05 1.06256e-07
-3.59364e-07 1.06256e-07 -5.5275e-05
0.000819602 3.42709e-05 -1.16279e-06
3.42709e-05 -0.000135693 9.86742e-08
-1.16279e-06 9.86742e-08 -0.000212112
0.00126232 3.72314e-05 8.16073e-08
3.72314e-05 0.000112708 4.70848e-08
8.16073e-08 4.70848e-08 4.14241e-05
0.000802051 2.97565e-05 -3.95899e-07
2.97565e-05 -6.88767e-05 4.05069e-07
-3.95899e-07 4.05069e-07 -0.000137637
0.0015213 4.51263e-05 -1.05649e-06
4.51263e-05 0.000120658 -2.96489e-06
-1.05649e-06 -2.96489e-06 3.6523e-05
0.00123801 3.66103e-05 1.16045e-07
3.66103e-05 0.000134203 -2.7949e-07
1.16045e-07 -2.7949e-07 6.68648e-05
0.00124731 4.46262e-05 4.05999e-08
4.46262e-05 7.67704e-05 8.67961e-07
4.05999e-08 8.67961e-07 2.93766e-07
0.00140906 9.21611e-06 3.09793e-07
9.21611e-06 -1.13596e-05 3.04121e-06
3.09793e-07 3.04121e-06 -8.46568e-05
0.00109976 4.85127e-05 6.37832e-07
4.85127e-05 1.65444e-05 1.88607e-06
6.37832e-07 1.88607e-06 -6.77209e-05
0.00146943 5.06678e-05 -3.62003e-07
5.06678e-05 6.99197e-05 -5.09237e-07
-3.62003e-07 -5.09237e-07 -2.69815e-05
0.00158393 1.06654e-05 6.08945e-09
1.06654e-05 5.37383e-05 3.15555e-07
6.08945e-09 3.15555e-07 -1.58871e-05
0.00174553 5.41901e-05 8.87755e-07
5.41901e-05 0.000185312 1.68399e-06
8.87755e-07 1.68399e-06 8.33902e-05
0.00190234 -2.60716e-05 -1.11323e-05
-2.60716e-05 4.58191e-05 -8.73772e-06
-1.11323e-05 -8.73772e-06 -2.02456e-05
0.00149132 -1.98048e-06 -3.73969e-07
-1.98048e-06 0.000167299 -1.90922e-06
-3.73969e-07 -1.90922e-06 0.000121707
0.00100541 1.13157e-05 1.63806e-06
1.13157e-05 -8.35303e-05 5.15662e-07
1.63806e-06 5.15662e-07 -0.000133152
0.000237349 -1.09496e-05 -2.13194e-06
-1.09496e-05 -0.000277078 2.38929e-06
-2.13194e-06 2.38929e-06 -0.000303676
0.00202213 5.23771e-05 -2.29052e-06
5.23771e-05 0.000260473 -2.46641e-06
-2.29052e-06 -2.46641e-06 0.00021907
0.00189251 4.88989e-05 8.12177e-06
4.88989e-05 0.000322824 5.52004e-06
8.12177e-06 5.52004e-06 0.000252593
0.00148754 3.893e-05 -1.68685e-06
3.893e-05 0.000109838 -1.18381e-06
-1.68685e-06 -1.18381e-06 4.24389e-05
0.00140331 3.40018e-05 8.12724e-07
3.40018e-05 0.00012732 1.83121e-06
8.12724e-07 1.83121e-06 7.03371e-05
0.00136255 3.25874e-05 -2.07546e-06
3.25874e-05 9.57582e-05 -2.86586e-06
-2.07546e-06 -2.86586e-06 3.55071e-05
0.0014191 1.66433e-05 -2.08641e-06
1.66433e-05 6.99704e-05 -1.91407e-06
-2.08641e-06 -1.91407e-06 2.52771e-05
0.00144383 2.3117e-05 -1.35472e-08
2.3117e-05 8.83993e-05 -3.22993e-07
-1.35472e-08 -3.22993e-07 2.64581e-05
0.001438 2.41474e-05 -1.54488e-06
2.41474e-05 9.72801e-05 -8.76533e-07
-1.54488e-06 -8.76533e-07 3.11947e-05
0.00138542 4.51965e-07 -9.3983e-07
4.51965e-07 6.61473e-05 -1.39192e-06
-9.3983e-07 -1.39192e-06 1.41056e-05
0.00131965 9.45655e-07 2.10987e-07
9.45655e-07 4.30307e-05 1.58472e-07
2.10987e-07 1.58472e-07 -1.99084e-05
0.00133566 -2.19946e-07 -6.82012e-07
-2.19946e-07 6.23862e-05 5.38631e-07
-6.82012e-07 5.38631e-07 -3.95992e-06
0.00129829 -1.53889e-05 -1.61642e-07
-1.53889e-05 5.0911e-05 -1.26348e-06
-1.61642e-07 -1.26348e-06 -7.34293e-06
0.0012891 -1.83974e-05 9.57346e-08
-1.83974e-05 5.64223e-05 -4.82357e-08
9.57346e-08 -4.82357e-08 -6.55068e-06
0.00125192 -2.04562e-05 -6.94372e-07
-2.04562e-05 5.23787e-05 5.73904e-07
-6.94372e-07 5.73904e-07 -1.11877e-05
0.00125399 -2.3401e-05 3.44609e-08
-2.3401e-05 5.49205e-05 -7.55678e-07
3.44609e-08 -7.55678e-07 -4.31544e-06
0.00123085 -2.36766e-05 -1.10461e-08
-2.36766e-05 5.45728e-05 -1.1968e-07
-1.10461e-08 -1.1968e-07 -6.16022e-06
0.00116833 -2.01283e-05 -1.18543e-06
-2.01283e-05 4.25337e-05 5.19738e-07
-1.18543e-06 5.19738e-07 -1.58011e-05
0.00112818 -2.3326e-05 5.48883e-07
-2.3326e-05 1.10352e-05 -3.58397e-07
5.48883e-07 -3.58397e-07 -4.7771e-05
0.00114863 -1.99281e-05 -9.60085e-09
-1.99281e-05 4.00443e-05 -3.67071e-08
-9.60085e-09 -3.67071e-08 -1.66465e-05
0.000998289 -5.64206e-06 -2.34749e-06
-5.64206e-06 7.85379e-06 9.73286e-07
-2.34749e-06 9.73286e-07 -4.15021e-05
0.000965955 -1.91533e-05 1.18241e-06
-1.91533e-05 -3.82769e-05 -5.40273e-07
1.18241e-06 -5.40273e-07 -9.53451e-05
0.000980452 -4.68952e-06 -6.17614e-08
-4.68952e-06 6.70658e-06 1.03212e-07
-6.17614e-08 1.03212e-07 -4.1908e-05
0.00161022 2.83276e-05 -4.23206e-06
2.83276e-05 0.000355677 1.37684e-06
-4.23206e-06 1.37684e-06 0.000337805
0.00120014 2.56523e-05 -1.43614e-05
2.56523e-05 0.000156916 4.66848e-06
-1.43614e-05 4.66848e-06 0.000157947
0.00122961 2.45298e-05 -3.79809e-07
2.45298e-05 0.000164491 3.51874e-08
-3.79809e-07 3.51874e-08 0.00014761
0.00097261 -4.54052e-06 2.43188e-06
-4.54052e-06 9.22605e-06 -1.30574e-06
2.43188e-06 -1.30574e-06 -3.79391e-05
0.0026029 3.39346e-05 1.49138e-07
3.39346e-05 0.0008423 7.88987e-08
1.49138e-07 7.88987e-08 0.0008533
0.000878692 2.10611e-05 4.48252e-06
2.10611e-05 -1.33785e-05 -2.52771e-06
4.48252e-06 -2.52771e-06 -2.92102e-05
0.00248079 3.14808e-05 1.23176e-05
3.14808e-05 0.000775591 -3.02013e-06
1.23176e-05 -3.02013e-06 0.000788499
0.00112797 3.54798e-05 2.17027e-08
3.54798e-05 -9.95461e-06 4.82009e-08
2.17027e-08 4.82009e-08 -8.16198e-05
0.000906607 3.17917e-05 2.55488e-07
3.17917e-05 -5.75474e-05 -2.4989e-08
2.55488e-07 -2.4989e-08 -0.000129156
0.000939723 3.05629e-05 -4.42462e-08
3.05629e-05 -2.6949e-05 -2.58648e-08
-4.42462e-08 -2.58648e-08 -9.61651e-05
0.00111295 2.10694e-05 -1.06334e-06
2.10694e-05 6.62462e-05 -4.7148e-07
-1.06334e-06 -4.7148e-07 5.45571e-06
0.00085692 2.65366e-05 3.14542e-07
2.65366e-05 -5.26977e-05 2.64572e-07
3.14542e-07 2.64572e-07 -0.000119442
0.00105841 1.45077e-05 -3.10373e-08
1.45077e-05 4.83656e-05 2.45915e-08
-3.10373e-08 2.45915e-08 -1.12984e-05
0.000983236 -4.70586e-06 -2.36034e-06
-4.70586e-06 2.67221e-05 -9.73586e-07
-2.36034e-06 -9.73586e-07 -1.98567e-05
0.00101156 6.59247e-06 9.64185e-07
6.59247e-06 3.16085e-05 3.64206e-07
9.64185e-07 3.64206e-07 -2.73865e-05
0.000956158 -9.00232e-06 -3.38573e-08
-9.00232e-06 1.29701e-05 2.54781e-08
-3.38573e-08 2.54781e-08 -3.16622e-05
0.000875562 -2.06463e-05 -4.3931e-06
-2.06463e-05 -1.83267e-05 -2.3715e-06
-4.3931e-06 -2.3715e-06 -3.32669e-05
0.000943356 -1.15361e-05 2.31357e-06
-1.15361e-05 2.39002e-06 1.42508e-06
2.31357e-06 1.42508e-06 -3.99193e-05
0.00085908 -1.89889e-05 -1.73934e-08
-1.89889e-05 -3.56268e-05 2.32544e-08
-1.73934e-08 2.32544e-08 -4.78687e-05
0.00247678 -2.94067e-05 -1.19924e-05
-2.94067e-05 0.000767932 -3.19257e-06
-1.19924e-05 -3.19257e-06 0.000781664
0.000855383 -1.72368e-05 3.86877e-06
-1.72368e-05 -4.60599e-05 2.82627e-06
3.86877e-06 2.82627e-06 -5.60315e-05
0.00252354 -2.7302e-05 -1.65508e-07
-2.7302e-05 0.000780018 6.63586e-08
-1.65508e-07 6.63586e-08 0.000795484
0.00258245 -2.4958e-05 1.15919e-05
-2.4958e-05 0.00080061 3.6132e-06
1.15919e-05 3.6132e-06 0.000817284
0.00152567 -2.65913e-05 1.14855e-06
-2.65913e-05 9.73546e-05 1.11399e-06
1.14855e-06 1.11399e-06 4.7105e-05
0.00149663 -1.65296e-05 2.30331e-06
-1.65296e-05 7.11713e-05 -1.24944e-06
2.30331e-06 -1.24944e-06 2.8207e-05
0.00142508 -4.52363e-05 -8.15959e-06
-4.52363e-05 0.00012421 -5.79907e-06
-8.15959e-06 -5.79907e-06 9.46063e-05
0.001416 3.96147e-05 -1.06939e-06
3.96147e-05 8.46662e-05 -1.53254e-06
-1.06939e-06 -1.53254e-06 6.14909e-06
0.00141293 3.99008e-05 -8.21284e-08
3.99008e-05 0.000166077 2.4965e-07
-8.21284e-08 2.4965e-07 9.60947e-05
0.000963436 3.30134e-05 -1.68179e-06
3.30134e-05 8.51177e-06 -1.96647e-07
-1.68179e-06 -1.96647e-07 -5.52429e-05
0.00122615 3.82817e-05 4.34756e-07
3.82817e-05 5.31831e-05 5.90485e-07
4.34756e-07 5.90485e-07 -2.17084e-05
0.00121138 3.67282e-05 -6.67735e-07
3.67282e-05 8.80673e-05 7.04845e-07
-6.67735e-07 7.04845e-07 1.64128e-05
0.00147005 1.01018e-05 -5.33834e-07
1.01018e-05 4.33987e-05 1.1323e-06
-5.33834e-07 1.1323e-06 -3.43374e-05
0.00149326 4.52685e-05 -9.29845e-07
4.52685e-05 0.000105901 -1.08616e-06
-9.29845e-07 -1.08616e-06 2.04692e-05
0.00122761 4.41576e-05 7.95754e-07
4.41576e-05 6.56979e-05 2.96926e-06
7.95754e-07 2.96926e-06 -1.00494e-05
0.00155307 9.53052e-06 3.92773e-08
9.53052e-06 5.20838e-05 6.74323e-07
3.92773e-08 6.74323e-07 -2.15282e-05
0.00169143 5.34617e-05 -4.72401e-07
5.34617e-05 0.000161371 5.84536e-07
-4.72401e-07 5.84536e-07 6.27023e-05
0.00153118 1.02858e-05 4.90551e-06
1.02858e-05 2.06517e-05 -1.97373e-06
4.90551e-06 -1.97373e-06 -4.91747e-05
0.000935631 6.26621e-07 -3.65463e-07
6.26621e-07 -7.68872e-05 -7.35435e-07
-3.65463e-07 -7.35435e-07 -0.000127503
0.00129147 -6.58045e-07 -5.01011e-07
-6.58045e-07 7.74041e-05 -4.93169e-07
-5.01011e-07 -4.93169e-07 3.1011e-05
0.000509838 9.03598e-06 4.58246e-06
9.03598e-06 -0.00031948 4.91594e-06
4.58246e-06 4.91594e-06 -0.000368166
0.00164657 4.09029e-05 2.71796e-06
4.09029e-05 0.00017452 -1.04527e-06
2.71796e-06 -1.04527e-06 0.000107739
0.00144197 3.38049e-05 3.67166e-06
3.38049e-05 0.000141802 5.22108e-06
3.67166e-06 5.22108e-06 8.52308e-05
0.00139088 3.2766e-05 -8.47418e-07
3.2766e-05 0.00010723 -1.99881e-07
-8.47418e-07 -1.99881e-07 4.71003e-05
0.00126943 2.82663e-05 -4.84608e-07
2.82663e-05 5.99772e-05 -1.47013e-06
-4.84608e-07 -1.47013e-06 -2.03454e-06
0.00139122 2.17834e-05 3.30998e-07
2.17834e-05 6.13452e-05 -1.93329e-07
3.30998e-07 -1.93329e-07 4.97376e-07
0.00142044 2.27979e-05 -3.73281e-07
2.27979e-05 8.46143e-05 -1.33839e-07
-3.73281e-07 -1.33839e-07 1.8568e-05
0.00131989 1.8474e-05 -1.5371e-06
1.8474e-05 5.07933e-05 -1.53603e-06
-1.5371e-06 -1.53603e-06 -1.44929e-05
0.00137624 1.37266e-06 2.01479e-07
1.37266e-06 7.07037e-05 -4.96872e-07
2.01479e-07 -4.96872e-07 7.25023e-06
0.00133051 -6.21857e-07 3.01949e-08
-6.21857e-07 5.96317e-05 3.07079e-07
3.01949e-08 3.07079e-07 -6.78042e-06
0.00129073 -6.31602e-06 -1.0052e-06
-6.31602e-06 5.65307e-05 3.46098e-07
-1.0052e-06 3.46098e-07 -9.70517e-06
0.00129814 -1.77437e-05 4.79516e-07
-1.77437e-05 6.01121e-05 -8.63687e-07
4.79516e-07 -8.63687e-07 -2.89318e-06
0.00126033 -2.02765e-05 5.0857e-08
-2.02765e-05 5.58513e-05 1.99145e-08
5.0857e-08 1.99145e-08 -7.74979e-06
0.00118774 -1.88206e-05 -1.29631e-06
-1.88206e-05 4.2112e-05 5.7518e-07
-1.29631e-06 5.7518e-07 -1.86456e-05
0.00123004 -2.34891e-05 5.46052e-07
-2.34891e-05 5.3894e-05 -6.18e-07
5.46052e-07 -6.18e-07 -6.82261e-06
0.00116689 -1.97942e-05 2.27746e-09
-1.97942e-05 4.15494e-05 -7.0528e-08
2.27746e-09 -7.0528e-08 -1.67706e-05
0.00101051 -7.90701e-06 -2.28584e-06
-7.90701e-06 6.67953e-06 8.83571e-07
-2.28584e-06 8.83571e-07 -4.39646e-05
0.00113479 -1.93963e-05 1.13047e-06
-1.93963e-05 3.35681e-05 -5.24091e-07
1.13047e-06 -5.24091e-07 -2.30984e-05
0.000988026 -5.34006e-06 -6.77071e-08
-5.34006e-06 2.99187e-06 4.85183e-08
-6.77071e-08 4.85183e-08 -4.63209e-05
0.00164296 2.65828e-05 -4.21397e-06
2.65828e-05 0.000375194 1.15299e-06
-4.21397e-06 1.15299e-06 0.000354246
0.000969217 -5.10312e-06 2.43349e-06
-5.10312e-06 5.95629e-07 -1.08356e-06
2.43349e-06 -1.08356e-06 -4.78495e-05
0.00161815 2.68363e-05 2.84818e-06
2.68363e-05 0.000359051 -8.35287e-07
2.84818e-06 -8.35287e-07 0.000340915
0.00120126 2.63988e-05 -1.5494e-05
2.63988e-05 0.000166343 4.51829e-06
-1.5494e-05 4.51829e-06 0.000164029
0.00194115 3.08316e-05 -8.59684e-06
3.08316e-05 0.000522817 1.66321e-06
-8.59684e-06 1.66321e-06 0.000527804
0.00165122 2.67924e-05 7.88703e-06
2.67924e-05 0.000371737 -2.22452e-06
7.88703e-06 -2.22452e-06 0.000356534
0.00256745 3.36369e-05 1.29814e-05
3.36369e-05 0.000825876 -2.91511e-06
1.29814e-05 -2.91511e-06 0.000836725
0.0013562 3.53378e-05 -9.03322e-07
3.53378e-05 5.38084e-05 -1.62543e-06
-9.03322e-07 -1.62543e-06 -2.09535e-05
0.00134331 3.60708e-05 1.09663e-06
3.60708e-05 0.000124073 -4.8807e-08
1.09663e-06 -4.8807e-08 5.45992e-05
0.00115989 3.58802e-05 7.24372e-07
3.58802e-05 1.13432e-05 4.9738e-07
7.24372e-07 4.9738e-07 -5.70997e-05
0.0011163 2.55822e-05 -9.25656e-07
2.55822e-05 5.70205e-05 -8.10068e-07
-9.25656e-07 -8.10068e-07 -6.43504e-06
0.00109969 3.4351e-05 -1.85982e-07
3.4351e-05 3.31671e-05 9.75989e-08
-1.85982e-07 9.75989e-08 -3.84123e-05
0.000988694 3.1449e-05 5.13409e-07
3.1449e-05 -6.35654e-06 6.28902e-07
5.13409e-07 6.28902e-07 -7.59126e-05
0.00108909 2.05931e-05 1.43812e-09
2.05931e-05 5.55496e-05 -5.89444e-08
1.43812e-09 -5.89444e-08 -5.24116e-06
0.000987812 -1.00151e-07 -2.2628e-06
-1.00151e-07 2.93256e-05 -9.72147e-07
-2.2628e-06 -9.72147e-07 -1.94576e-05
0.0010233 1.33532e-05 8.35364e-07
1.33532e-05 3.22027e-05 2.55503e-07
8.35364e-07 2.55503e-07 -2.74193e-05
0.000961266 -5.85813e-06 -3.43661e-08
-5.85813e-06 1.7821e-05 3.94866e-08
-3.43661e-08 3.94866e-08 -2.8958e-05
0.00086529 -2.19044e-05 -4.51405e-06
-2.19044e-05 -1.42265e-05 -2.16664e-06
-4.51405e-06 -2.16664e-06 -3.18568e-05
0.000935708 -9.95306e-06 2.27902e-06
-9.95306e-06 4.35558e-06 1.28059e-06
2.27902e-06 1.28059e-06 -4.04239e-05
0.000840675 -2.0339e-05 -3.19072e-08
-2.0339e-05 -3.51998e-05 3.00972e-08
-3.19072e-08 3.00972e-08 -4.99849e-05
0.00250344 -3.15016e-05 -1.24129e-05
-3.15016e-05 0.000791573 -3.00462e-06
-1.24129e-05 -3.00462e-06 0.00080332
0.000832516 -1.87733e-05 4.09224e-06
-1.87733e-05 -4.86233e-05 2.65012e-06
4.09224e-06 2.65012e-06 -6.07165e-05
0.00253105 -2.96179e-05 -1.54802e-07
-2.96179e-05 0.000792786 6.92792e-08
-1.54802e-07 6.92792e-08 0.00080662
0.00258109 -2.74323e-05 1.18221e-05
-2.74323e-05 0.000806835 3.43526e-06
1.18221e-05 3.43526e-06 0.000822319
0.00143557 -2.28247e-05 -9.36775e-07
-2.28247e-05 7.95148e-05 2.50086e-06
-9.36775e-07 2.50086e-06 1.89792e-05
0.00145006 -2.56801e-05 2.91434e-07
-2.56801e-05 6.31798e-05 -8.03234e-07
2.91434e-07 -8.03234e-07 1.29929e-05
0.0013908 -1.64884e-05 4.70277e-06
-1.64884e-05 1.05181e-05 -9.01324e-07
4.70277e-06 -9.01324e-07 -3.44497e-05
0.00121535 1.3804e-05 -8.65948e-07
1.3804e-05 -5.88481e-05 6.18808e-07
-8.65948e-07 6.18808e-07 -0.00013427
0.00143477 3.93943e-05 6.50527e-08
3.93943e-05 9.35789e-05 -5.64647e-07
6.50527e-08 -5.64647e-07 1.521e-05
0.00128527 3.83649e-05 -7.52104e-07
3.83649e-05 0.00011528 1.22998e-06
-7.52104e-07 1.22998e-06 4.68501e-05
0.00163715 4.23332e-05 3.60327e-07
4.23332e-05 0.000244248 3.54478e-07
3.60327e-07 3.54478e-07 0.000170873
0.00159952 1.15208e-05 3.26655e-08
1.15208e-05 0.000103447 1.90644e-08
3.26655e-08 1.90644e-08 2.57098e-05
0.00146105 4.53503e-05 -3.825e-08
4.53503e-05 8.93551e-05 5.99916e-07
-3.825e-08 5.99916e-07 2.60867e-06
0.00169833 9.88588e-06 -1.80293e-07
9.88588e-06 0.000116213 -1.65321e-06
-1.80293e-07 -1.65321e-06 4.22761e-05
0.00113464 7.87852e-07 1.05628e-06
7.87852e-07 1.55274e-05 -6.795e-08
1.05628e-06 -6.795e-08 -4.15618e-05
0.0011144 1.69894e-06 -6.89682e-08
1.69894e-06 1.5891e-06 -1.12232e-07
-6.89682e-08 -1.12232e-07 -5.08648e-05
0.00110731 1.14948e-06 -3.58724e-07
1.14948e-06 -5.22954e-06 1.48915e-06
-3.58724e-07 1.48915e-06 -5.24118e-05
0.00129002 2.93858e-05 1.95375e-07
2.93858e-05 8.32098e-05 -6.47741e-07
1.95375e-07 -6.47741e-07 1.8777e-05
0.00144081 3.3221e-05 1.74089e-06
3.3221e-05 0.000128828 1.8496e-06
1.74089e-06 1.8496e-06 6.88176e-05
0.00127115 2.84328e-05 3.37263e-07
2.84328e-05 6.06496e-05 7.50028e-08
3.37263e-07 7.50028e-08 -1.70303e-06
0.00130931 2.61807e-05 -3.46498e-07
2.61807e-05 6.93016e-05 -5.58165e-07
-3.46498e-07 -5.58165e-07 5.97447e-06
0.00142109 2.16509e-05 7.69163e-07
2.16509e-05 8.06075e-05 6.49712e-07
7.69163e-07 6.49712e-07 1.45803e-05
0.00132976 1.83327e-05 -5.4073e-07
1.83327e-05 5.57171e-05 -3.73139e-07
-5.4073e-07 -3.73139e-07 -9.52043e-06
0.00130576 1.56653e-05 -1.51936e-06
1.56653e-05 6.02468e-05 -9.41393e-07
-1.51936e-06 -9.41393e-07 -6.40417e-06
0.00132631 -4.55144e-07 1.20317e-06
-4.55144e-07 5.73341e-05 4.07452e-08
1.20317e-06 4.07452e-08 -9.15208e-06
0.0012876 -5.12025e-06 2.46967e-08
-5.12025e-06 5.50831e-05 8.93209e-08
2.46967e-08 8.93209e-08 -1.11931e-05
0.00121564 -1.23127e-05 -1.50361e-06
-1.23127e-05 4.48361e-05 3.31679e-07
-1.50361e-06 3.31679e-07 -1.80731e-05
0.00126914 -2.00362e-05 8.97728e-07
-2.00362e-05 5.95055e-05 -5.41016e-07
8.97728e-07 -5.41016e-07 -4.1279e-06
0.00119167 -1.85407e-05 2.42512e-08
-1.85407e-05 4.36008e-05 5.43131e-08
2.42512e-08 5.43131e-08 -1.716e-05
0.00103424 -9.30948e-06 -2.36959e-06
-9.30948e-06 1.00429e-05 8.53138e-07
-2.36959e-06 8.53138e-07 -4.25985e-05
0.00116498 -1.93937e-05 1.18414e-06
-1.93937e-05 4.03412e-05 -6.44545e-07
1.18414e-06 -6.44545e-07 -1.79631e-05
0.00100378 -7.28936e-06 -2.83881e-08
-7.28936e-06 3.64435e-06 -5.81585e-09
-2.83881e-08 -5.81585e-09 -4.70311e-05
0.00165403 2.17409e-05 -4.20824e-06
2.17409e-05 0.000384378 9.29925e-07
-4.20824e-06 9.29925e-07 0.000360513
0.000976768 -5.28723e-06 2.38037e-06
-5.28723e-06 -2.40589e-06 -9.46708e-07
2.38037e-06 -9.46708e-07 -5.16569e-05
0.00163637 2.39548e-05 2.97835e-06
2.39548e-05 0.000370972 -7.77832e-07
2.97835e-06 -7.77832e-07 0.000349885
0.00122413 2.7078e-05 -1.64416e-05
2.7078e-05 0.000188575 4.15483e-06
-1.64416e-05 4.15483e-06 0.000182732
0.00162694 2.49198e-05 9.7883e-06
2.49198e-05 0.000362787 -2.98487e-06
9.7883e-06 -2.98487e-06 0.000344395
0.00117453 2.74725e-05 -5.67495e-06
2.74725e-05 0.000153534 1.73825e-06
-5.67495e-06 1.73825e-06 0.0001515
0.00268306 3.7754e-05 5.85623e-06
3.7754e-05 0.000889304 -1.12186e-06
5.85623e-06 -1.12186e-06 0.000898142
0.00156236 1.81079e-05 -1.0109e-06
1.81079e-05 0.000122131 -3.91357e-07
-1.0109e-06 -3.91357e-07 4.68e-05
0.00136866 3.3931e-05 -5.56972e-09
3.3931e-05 8.47092e-05 -1.45226e-06
-5.56972e-09 -1.45226e-06 1.27958e-05
0.0014037 3.60271e-05 -8.07681e-07
3.60271e-05 8.25387e-05 7.72891e-07
-8.07681e-07 7.72891e-07 8.48014e-06
0.00138151 3.04454e-05 -5.24085e-07
3.04454e-05 0.000162019 -2.58372e-07
-5.24085e-07 -2.58372e-07 9.79404e-05
0.00123321 3.53419e-05 4.15248e-07
3.53419e-05 7.06241e-05 -4.62611e-07
4.15248e-07 -4.62611e-07 1.06776e-06
0.00118181 3.61565e-05 1.12353e-06
3.61565e-05 2.77321e-05 8.10652e-07
1.12353e-06 8.10652e-07 -3.74666e-05
0.000997423 6.85868e-06 -2.19679e-06
6.85868e-06 2.84933e-05 -1.2027e-06
-2.19679e-06 -1.2027e-06 -2.34771e-05
0.00111644 2.58514e-05 -2.74174e-08
2.58514e-05 5.7483e-05 -1.17944e-07
-2.74174e-08 -1.17944e-07 -6.03227e-06
0.00129768 3.69748e-05 8.06806e-07
3.69748e-05 0.00012614 7.19947e-07
8.06806e-07 7.19947e-07 5.45941e-05
0.00106421 2.02221e-05 9.10292e-07
2.02221e-05 4.43465e-05 2.77406e-07
9.10292e-07 2.77406e-07 -1.64435e-05
0.000967149 -1.65818e-06 3.81265e-08
-1.65818e-06 2.11736e-05 -1.00978e-08
3.81265e-08 -1.00978e-08 -2.78216e-05
0.000861398 -2.31369e-05 -4.38239e-06
-2.31369e-05 -8.47027e-06 -2.09253e-06
-4.38239e-06 -2.09253e-06 -2.92648e-05
0.000939441 -7.02817e-06 2.29662e-06
-7.02817e-06 9.00141e-06 1.08264e-06
2.29662e-06 1.08264e-06 -3.79796e-05
0.000821096 -2.14517e-05 -2.79349e-08
-2.14517e-05 -3.53403e-05 2.11476e-08
-2.79349e-08 2.11476e-08 -5.28381e-05
0.00254223 -3.34153e-05 -1.29321e-05
-3.34153e-05 0.000821719 -2.81994e-06
-1.29321e-05 -2.81994e-06 0.000831323
0.000805942 -2.00361e-05 4.27435e-06
-2.00361e-05 -5.20037e-05 2.47621e-06
4.27435e-06 2.47621e-06 -6.66328e-05
0.00255278 -3.17702e-05 -1.56175e-07
-3.17702e-05 0.000813813 7.47288e-08
-1.56175e-07 7.47288e-08 0.000825721
0.00258556 -2.98032e-05 1.20441e-05
-2.98032e-05 0.000817765 3.24913e-06
1.20441e-05 3.24913e-06 0.0008317
0.00141931 -1.71276e-05 -3.69307e-08
-1.71276e-05 7.80098e-05 1.29153e-06
-3.69307e-08 1.29153e-06 1.39124e-05
0.00149285 -2.25875e-05 -9.75799e-08
-2.25875e-05 9.92469e-05 6.44812e-07
-9.75799e-08 6.44812e-07 3.78913e-05
0.00137187 -2.47678e-05 -5.61424e-07
-2.47678e-05 2.77991e-05 -2.67356e-06
-5.61424e-07 -2.67356e-06 -2.23243e-05
0.00138151 1.36085e-05 -2.04354e-08
1.36085e-05 1.09346e-05 -1.92864e-07
-2.04354e-08 -1.92864e-07 -6.49193e-05
0.00144276 3.90843e-05 3.46281e-07
3.90843e-05 9.72422e-05 4.41673e-07
3.46281e-07 4.41673e-07 1.90413e-05
0.00173511 1.30557e-05 7.35505e-07
1.30557e-05 0.000166151 -1.20757e-06
7.35505e-07 -1.20757e-06 8.84465e-05
0.00119067 -1.57242e-06 3.83317e-07
-1.57242e-06 3.89508e-05 1.47802e-07
3.83317e-07 1.47802e-07 -2.53352e-05
0.00114999 1.34198e-06 5.25461e-07
1.34198e-06 2.76254e-05 -8.4767e-08
5.25461e-07 -8.4767e-08 -2.96402e-05
0.00128182 2.45498e-06 5.31296e-07
2.45498e-06 7.48971e-05 6.7378e-07
5.31296e-07 6.7378e-07 2.05863e-05
0.0012808 2.36196e-05 -4.67448e-07
2.36196e-05 7.8682e-05 1.0519e-07
-4.67448e-07 1.0519e-07 1.39167e-05
0.00128027 2.25824e-05 2.70121e-07
2.25824e-05 7.71703e-05 -3.01937e-07
2.70121e-07 -3.01937e-07 9.78593e-06
0.00126496 2.86042e-05 7.54671e-07
2.86042e-05 5.77461e-05 1.17437e-06
7.54671e-07 1.17437e-06 -4.96569e-06
0.00128225 2.57815e-05 2.71562e-07
2.57815e-05 5.70084e-05 4.11036e-07
2.71562e-07 4.11036e-07 -6.36689e-06
0.00139014 2.56572e-05 -2.23743e-07
2.56572e-05 0.000112182 -4.78203e-07
-2.23743e-07 -4.78203e-07 4.75413e-05
0.00133684 1.75939e-05 9.31129e-07
1.75939e-05 5.93588e-05 7.34759e-07
9.31129e-07 7.34759e-07 -5.82441e-06
0.00129582 1.41388e-05 -3.83181e-07
1.41388e-05 5.55222e-05 -1.85304e-07
-3.83181e-07 -1.85304e-07 -1.0922e-05
0.00122691 8.35378e-06 -1.96168e-06
8.35378e-06 4.70162e-05 -1.16895e-07
-1.96168e-06 -1.16895e-07 -1.72902e-05
0.00128363 -5.38104e-06 9.67216e-07
-5.38104e-06 5.31724e-05 -1.45894e-07
9.67216e-07 -1.45894e-07 -1.31131e-05
0.00121758 -1.15539e-05 1.36846e-08
-1.15539e-05 4.55203e-05 1.93222e-08
1.36846e-08 1.93222e-08 -1.74001e-05
0.00105019 -6.51656e-06 -2.54178e-06
-6.51656e-06 1.04268e-05 6.13533e-07
-2.54178e-06 6.13533e-07 -4.40551e-05
0.00119654 -1.82196e-05 1.41882e-06
-1.82196e-05 4.55256e-05 -4.69926e-07
1.41882e-06 -4.69926e-07 -1.52364e-05
0.00102671 -8.70504e-06 2.62087e-08
-8.70504e-06 6.56316e-06 5.4162e-08
2.62087e-08 5.4162e-08 -4.61356e-05
0.00162971 1.63473e-05 -4.20789e-06
1.63473e-05 0.000376335 7.33524e-07
-4.20789e-06 7.33524e-07 0.000349662
0.000997376 -6.76495e-06 2.35217e-06
-6.76495e-06 7.38106e-07 -9.18548e-07
2.35217e-06 -9.18548e-07 -4.99665e-05
0.00165369 1.94269e-05 3.14064e-06
1.94269e-05 0.000382733 -6.93398e-07
3.14064e-06 -6.93398e-07 0.000358729
0.00123001 2.70804e-05 -1.73161e-05
2.70804e-05 0.0002048 3.68799e-06
-1.73161e-05 3.68799e-06 0.000195339
0.00163295 2.17583e-05 1.01481e-05
2.17583e-05 0.000368291 -2.65914e-06
1.01481e-05 -2.65914e-06 0.000347046
0.00119573 2.82453e-05 -5.99786e-06
2.82453e-05 0.000174736 1.6257e-06
-5.99786e-06 1.6257e-06 0.000169203
0.00114873 2.86159e-05 4.31517e-06
2.86159e-05 0.000141277 -1.06082e-06
4.31517e-06 -1.06082e-06 0.000139505
0.00150452 -9.01995e-06 -1.62835e-07
-9.01995e-06 0.00010335 8.86855e-07
-1.62835e-07 8.86855e-07 4.01282e-05
0.00140996 2.04154e-05 -1.13945e-06
2.04154e-05 7.16774e-05 -2.93068e-07
-1.13945e-06 -2.93068e-07 -2.12038e-06
0.00154056 1.76391e-05 -4.74654e-07
1.76391e-05 0.000108523 -4.87815e-07
-4.74654e-07 -4.87815e-07 3.30311e-05
0.00133955 3.02042e-05 -8.88001e-07
3.02042e-05 0.000104469 -6.97628e-07
-8.88001e-07 -6.97628e-07 3.79675e-05
0.00142889 3.43808e-05 4.4148e-07
3.43808e-05 0.000116321 4.50914e-07
4.4148e-07 4.50914e-07 4.48171e-05
0.00145647 3.68013e-05 1.2434e-06
3.68013e-05 0.00011387 1.72628e-06
1.2434e-06 1.72628e-06 4.05023e-05
0.000976339 1.239e-05 -2.36486e-06
1.239e-05 1.91954e-06 -1.01935e-06
-2.36486e-06 -1.01935e-06 -5.26465e-05
0.00116313 2.86938e-05 5.34409e-07
2.86938e-05 5.5606e-05 4.55729e-07
5.34409e-07 4.55729e-07 -9.50889e-06
0.0011246 3.46527e-05 5.86843e-07
3.46527e-05 1.7992e-05 1.0108e-06
5.86843e-07 1.0108e-06 -5.16625e-05
0.00086713 -1.83925e-05 -4.65113e-06
-1.83925e-05 -3.12203e-06 -2.16345e-06
-4.65113e-06 -2.16345e-06 -2.79824e-05
0.000974772 5.26166e-06 -2.27045e-09
5.26166e-06 1.90385e-05 -5.42473e-08
-2.27045e-09 -5.42473e-08 -3.30504e-05
0.00111565 2.60302e-05 9.38723e-07
2.60302e-05 5.75248e-05 6.02501e-07
9.38723e-07 6.02501e-07 -6.04854e-06
0.000946738 -3.25866e-06 2.24101e-06
-3.25866e-06 1.31572e-05 9.31477e-07
2.24101e-06 9.31477e-07 -3.60522e-05
0.000802124 -2.24658e-05 2.51786e-09
-2.24658e-05 -3.62245e-05 -4.15377e-08
2.51786e-09 -4.15377e-08 -5.69156e-05
0.00261915 -3.52008e-05 -1.37629e-05
-3.52008e-05 0.000870174 -2.71697e-06
-1.37629e-05 -2.71697e-06 0.000877351
0.00077757 -2.10079e-05 4.47299e-06
-2.10079e-05 -5.6135e-05 2.27946e-06
4.47299e-06 2.27946e-06 -7.35008e-05
0.00258733 -3.37448e-05 -1.52842e-07
-3.37448e-05 0.000841843 7.75214e-08
-1.52842e-07 7.75214e-08 0.000851643
0.00260335 -3.20262e-05 1.23162e-05
-3.20262e-05 0.000836638 3.05974e-06
1.23162e-05 3.05974e-06 0.000848707
0.00135404 -2.28385e-05 6.31707e-07
-2.28385e-05 7.82406e-05 -4.84611e-07
6.31707e-07 -4.84611e-07 8.85666e-06
0.00142927 -1.6878e-05 -2.12961e-07
-1.6878e-05 7.93893e-05 3.49843e-07
-2.12961e-07 3.49843e-07 1.49345e-05
0.00154397 -2.23445e-05 1.22305e-08
-2.23445e-05 0.000116003 -1.42377e-06
1.22305e-08 -1.42377e-06 5.38308e-05
0.00155677 1.34226e-05 1.11324e-06
1.34226e-05 8.52052e-05 -4.49429e-07
1.11324e-06 -4.49429e-07 8.88668e-06
0.00121782 -2.66327e-06 2.86028e-08
-2.66327e-06 4.54624e-05 -2.41557e-08
2.86028e-08 -2.41557e-08 -2.35608e-05
0.0012314 -1.8156e-06 -2.50486e-07
-1.8156e-06 5.9961e-05 -6.19498e-08
-2.50486e-07 -6.19498e-08 -3.91113e-06
0.00116585 1.88672e-06 -4.66926e-07
1.88672e-06 3.97492e-05 2.50935e-07
-4.66926e-07 2.50935e-07 -1.76648e-05
0.00125229 2.05549e-05 -9.97116e-07
2.05549e-05 6.50936e-05 1.01735e-06
-9.97116e-07 1.01735e-06 -1.14712e-07
0.00126011 2.54795e-05 1.73168e-07
2.54795e-05 6.85409e-05 4.95525e-08
1.73168e-07 4.95525e-08 1.26559e-06
0.0012567 2.40064e-05 -6.21248e-07
2.40064e-05 6.92615e-05 -2.87467e-07
-6.21248e-07 -2.87467e-07 3.30524e-06
0.00125507 2.53569e-05 1.02902e-06
2.53569e-05 4.45403e-05 1.4997e-06
1.02902e-06 1.4997e-06 -1.88675e-05
0.00133696 2.53605e-05 2.78558e-07
2.53605e-05 8.78113e-05 3.06461e-07
2.78558e-07 3.06461e-07 2.31995e-05
0.0012231 2.4815e-05 -1.31037e-06
2.4815e-05 4.9934e-05 -6.12497e-07
-1.31037e-06 -6.12497e-07 -1.42609e-05
0.00128266 1.4042e-05 6.93653e-07
1.4042e-05 4.93758e-05 5.85606e-07
6.93653e-07 5.85606e-07 -1.6895e-05
0.00121907 9.71198e-06 -2.06873e-07
9.71198e-06 4.34795e-05 1.12666e-07
-2.06873e-07 1.12666e-07 -2.07177e-05
0.00106275 7.49742e-06 -2.65135e-06
7.49742e-06 1.42288e-05 3.23213e-07
-2.65135e-06 3.23213e-07 -4.19962e-05
0.00121776 -8.60237e-06 1.49665e-06
-8.60237e-06 4.54216e-05 -2.86948e-07
1.49665e-06 -2.86948e-07 -1.75128e-05
0.00105012 -7.35684e-06 3.12864e-08
-7.35684e-06 1.03303e-05 5.23107e-08
3.12864e-08 5.23107e-08 -4.42121e-05
0.000712624 5.35345e-06 -5.10216e-06
5.35345e-06 -7.22868e-05 1.08988e-06
-5.10216e-06 1.08988e-06 -0.00010634
0.00102071 -8.13536e-06 2.46043e-06
-8.13536e-06 3.804e-06 -7.29859e-07
2.46043e-06 -7.29859e-07 -4.89543e-05
0.00119381 1.11735e-05 3.83886e-06
1.11735e-05 0.000159868 -5.73549e-07
3.83886e-06 -5.73549e-07 0.000130425
0.00307152 4.31197e-05 -1.65557e-05
4.31197e-05 0.00112391 1.89787e-06
-1.65557e-05 1.89787e-06 0.00112228
0.00165398 1.73044e-05 1.05583e-05
1.73044e-05 0.000381412 -2.32605e-06
1.05583e-05 -2.32605e-06 0.000357267
0.00121129 2.84576e-05 -6.35416e-06
2.84576e-05 0.000195646 1.46117e-06
-6.35416e-06 1.46117e-06 0.000186442
0.00116389 2.94421e-05 4.56273e-06
2.94421e-05 0.000159289 -9.50895e-07
4.56273e-06 -9.50895e-07 0.000154069
0.00148015 -1.78438e-05 5.28218e-07
-1.78438e-05 0.000120827 -6.06449e-07
5.28218e-07 -6.06449e-07 5.43209e-05
0.00136193 -2.52703e-06 -6.60844e-07
-2.52703e-06 4.76494e-05 7.20783e-07
-6.60844e-07 7.20783e-07 -1.84512e-05
0.00139718 -8.68031e-06 1.61206e-07
-8.68031e-06 5.60585e-05 1.97814e-09
1.61206e-07 1.97814e-09 -7.76687e-06
0.00103818 2.10005e-05 -1.62933e-06
2.10005e-05 -6.95738e-05 -5.72575e-07
-1.62933e-06 -5.72575e-07 -0.000139035
0.00144529 2.03913e-05 1.27092e-07
2.03913e-05 9.09648e-05 3.06524e-09
1.27092e-07 3.06524e-09 1.83477e-05
0.00151815 1.72043e-05 6.50754e-07
1.72043e-05 9.45357e-05 -5.47731e-07
6.50754e-07 -5.47731e-07 1.88975e-05
0.00076891 1.38854e-05 -3.11033e-06
1.38854e-05 -0.000125611 -1.38539e-06
-3.11033e-06 -1.38539e-06 -0.000183562
0.00134337 3.03898e-05 3.17194e-07
3.03898e-05 0.000106141 1.46519e-08
3.17194e-07 1.46519e-08 3.95781e-05
0.00149348 3.4916e-05 8.54221e-07
3.4916e-05 0.000149835 1.3453e-06
8.54221e-07 1.3453e-06 7.87576e-05
0.000859294 -9.86212e-06 -5.17881e-06
-9.86212e-06 -1.14428e-05 -2.0119e-06
-5.17881e-06 -2.0119e-06 -4.06767e-05
0.000848978 1.1154e-05 -4.77706e-08
1.1154e-05 -6.09399e-05 9.25578e-08
-4.77706e-08 9.25578e-08 -0.000116428
0.00094578 2.69052e-05 1.5538e-06
2.69052e-05 -5.0291e-05 1.29406e-06
1.5538e-06 1.29406e-06 -0.000116446
0.00278431 -3.70043e-05 -1.5264e-05
-3.70043e-05 0.000959993 -2.69216e-06
-1.5264e-05 -2.69216e-06 0.000964273
0.000790452 -1.97878e-05 -1.3033e-07
-1.97878e-05 -3.79881e-05 -8.28192e-08
-1.3033e-07 -8.28192e-08 -6.28328e-05
0.000950833 3.61463e-06 2.02515e-06
3.61463e-06 8.96329e-06 1.04149e-06
2.02515e-06 1.04149e-06 -4.32346e-05
0.000741401 -2.17726e-05 4.56105e-06
-2.17726e-05 -6.46485e-05 2.13968e-06
4.56105e-06 2.13968e-06 -8.52351e-05
0.00265036 -3.56181e-05 -1.36699e-07
-3.56181e-05 0.000883826 7.50875e-08
-1.36699e-07 7.50875e-08 0.000891276
0.00263346 -3.40568e-05 1.27065e-05
-3.40568e-05 0.000862425 2.86635e-06
1.27065e-05 2.86635e-06 0.000872423
0.00124437 -2.17101e-05 -1.31048e-07
-2.17101e-05 4.58992e-05 4.7994e-08
-1.31048e-07 4.7994e-08 -2.37774e-05
0.00130775 -2.21825e-05 -2.61562e-07
-2.21825e-05 5.90256e-05 -5.95792e-07
-2.61562e-07 -5.95792e-07 -9.21236e-06
0.00143879 -1.65766e-05 1.923e-08
-1.65766e-05 8.06133e-05 -7.76429e-07
1.923e-08 -7.76429e-07 1.57984e-05
0.0012721 1.11134e-05 -1.2234e-07
1.11134e-05 7.15054e-05 -4.88414e-08
-1.2234e-07 -4.88414e-08 2.81842e-06
0.0012752 1.87955e-07 -1.45749e-07
1.87955e-07 7.25695e-05 3.28687e-08
-1.45749e-07 3.28687e-08 3.36488e-06
0.00127871 -4.292e-06 -1.14708e-06
-4.292e-06 8.39824e-05 1.23706e-07
-1.14708e-06 1.23706e-07 2.06191e-05
0.00124756 2.74113e-05 -2.95442e-08
2.74113e-05 6.34442e-05 2.17095e-08
-2.95442e-08 2.17095e-08 -3.66648e-06
0.00125553 2.49605e-05 1.45082e-07
2.49605e-05 6.8037e-05 2.04255e-07
1.45082e-07 2.04255e-07 2.19977e-06
0.00127659 2.01952e-05 -7.43747e-07
2.01952e-05 9.2309e-05 -1.67117e-07
-7.43747e-07 -1.67117e-07 2.91132e-05
0.00128802 2.50987e-05 1.13335e-06
2.50987e-05 6.54314e-05 1.42399e-06
1.13335e-06 1.42399e-06 8.47268e-07
0.0012844 2.60685e-05 4.43397e-08
2.60685e-05 8.17928e-05 4.48618e-08
4.43397e-08 4.48618e-08 1.81105e-05
0.000911148 2.12615e-05 -2.99389e-06
2.12615e-05 -5.78977e-05 -9.53787e-08
-2.99389e-06 -9.53787e-08 -0.000116193
0.00120518 8.72101e-06 1.37592e-06
8.72101e-06 3.71069e-05 3.65812e-07
1.37592e-06 3.65812e-07 -2.69862e-05
0.00105363 8.4096e-06 -2.59661e-08
8.4096e-06 1.00221e-05 8.41015e-08
-2.59661e-08 8.41015e-08 -4.61868e-05
0.000706309 6.92026e-06 -5.13285e-06
6.92026e-06 -7.05313e-05 7.44848e-07
-5.13285e-06 7.44848e-07 -0.000106364
0.00104895 -7.01362e-06 2.61336e-06
-7.01362e-06 9.71578e-06 -4.89923e-07
2.61336e-06 -4.89923e-07 -4.48883e-05
0.00074131 8.22645e-06 -2.63412e-08
8.22645e-06 -6.00671e-05 1.10724e-07
-2.63412e-08 1.10724e-07 -9.40817e-05
0.00316563 4.48221e-05 -1.72295e-05
4.48221e-05 0.00117965 1.47828e-06
-1.72295e-05 1.47828e-06 0.00117612
0.000754408 7.03163e-06 7.01102e-06
7.03163e-06 -5.81647e-05 -2.02379e-06
7.01102e-06 -2.02379e-06 -9.0438e-05
0.00213481 3.62436e-05 4.04296e-06
3.62436e-05 0.000664464 2.68354e-07
4.04296e-06 2.68354e-07 0.000657258
0.00118975 2.99074e-05 4.79808e-06
2.99074e-05 0.000185136 -8.15759e-07
4.79808e-06 -8.15759e-07 0.000176191
0.00150099 -2.5078e-05 2.56143e-08
-2.5078e-05 0.00015359 -1.7315e-07
2.56143e-08 -1.7315e-07 8.46581e-05
0.00134714 -1.38173e-05 -3.56178e-07
-1.38173e-05 6.16613e-05 -2.38445e-07
-3.56178e-07 -2.38445e-07 -3.21084e-06
0.00135565 -1.71334e-05 -3.48632e-07
-1.71334e-05 6.16095e-05 1.63875e-08
-3.48632e-07 1.63875e-08 -4.92419e-06
0.00123034 4.04094e-06 -1.31869e-06
4.04094e-06 1.86626e-05 4.4805e-07
-1.31869e-06 4.4805e-07 -4.70241e-05
0.00132122 -2.9872e-06 3.93618e-07
-2.9872e-06 3.14012e-05 -2.41259e-07
3.93618e-07 -2.41259e-07 -3.44994e-05
0.00129132 -8.39703e-06 5.30359e-07
-8.39703e-06 9.45367e-06 -5.41143e-07
5.30359e-07 -5.41143e-07 -5.49755e-05
0.000797126 1.30882e-05 -3.33528e-06
1.30882e-05 -0.00013446 -1.1426e-06
-3.33528e-06 -1.1426e-06 -0.000194368
0.00130572 2.3519e-05 -4.2423e-07
2.3519e-05 5.9872e-05 2.00483e-08
-4.2423e-07 2.00483e-08 -8.48071e-06
0.00147412 2.02825e-05 1.25196e-06
2.02825e-05 0.000107275 -3.35913e-07
1.25196e-06 -3.35913e-07 3.58275e-05
0.000835554 -2.9575e-06 -5.68006e-06
-2.9575e-06 -3.02226e-05 -1.82564e-06
-5.68006e-06 -1.82564e-06 -6.30645e-05
0.000795555 1.47748e-05 -7.1085e-07
1.47748e-05 -0.000115191 -3.85776e-07
-7.1085e-07 -3.85776e-07 -0.000173591
0.0013471 3.06148e-05 1.48888e-06
3.06148e-05 0.000107766 8.67393e-07
1.48888e-06 8.67393e-07 4.11415e-05
0.00301434 -3.88867e-05 -1.71408e-05
-3.88867e-05 0.00107967 -2.54335e-06
-1.71408e-05 -2.54335e-06 0.00108093
0.00078821 -1.1918e-05 -2.39782e-07
-1.1918e-05 -4.27942e-05 3.84243e-08
-2.39782e-07 3.84243e-08 -7.21088e-05
0.000720755 9.95503e-06 2.073e-06
9.95503e-06 -0.000124242 1.24705e-06
2.073e-06 1.24705e-06 -0.000180651
0.00278741 -3.75491e-05 -1.35553e-07
-3.75491e-05 0.000960637 8.47766e-08
-1.35553e-07 8.47766e-08 0.000965317
0.000713051 -2.13941e-05 4.44898e-06
-2.13941e-05 -7.31169e-05 2.18514e-06
4.44898e-06 2.18514e-06 -9.79801e-05
0.00268361 -3.5965e-05 1.31664e-05
-3.5965e-05 0.000898375 2.68181e-06
1.31664e-05 2.68181e-06 0.000906105
0.00124852 -7.56674e-06 -3.52853e-07
-7.56674e-06 5.31051e-05 -8.17572e-09
-3.52853e-07 -8.17572e-09 -1.58046e-05
0.00129001 -2.10873e-05 3.93487e-07
-2.10873e-05 6.58994e-05 -2.69035e-07
3.93487e-07 -2.69035e-07 -3.72829e-06
0.00126393 -2.14648e-05 -7.96111e-07
-2.14648e-05 4.09435e-05 -8.36611e-07
-7.96111e-07 -8.36611e-07 -2.61419e-05
0.00128874 1.0971e-06 -7.99234e-07
1.0971e-06 9.12311e-05 -1.26251e-08
-7.99234e-07 -1.26251e-08 2.54157e-05
0.00130387 1.14271e-05 4.64463e-08
1.14271e-05 8.7224e-05 -8.98627e-08
4.64463e-08 -8.98627e-08 1.84351e-05
0.00132942 4.71454e-06 9.2873e-08
4.71454e-06 9.83716e-05 2.976e-07
9.2873e-08 2.976e-07 2.88739e-05
0.00125616 2.49324e-05 5.05415e-07
2.49324e-05 6.76523e-05 1.06442e-07
5.05415e-07 1.06442e-07 1.97084e-06
0.00127148 2.00556e-05 2.60223e-07
2.00556e-05 8.90154e-05 -1.38808e-08
2.60223e-07 -1.38808e-08 2.60085e-05
0.000873058 1.55676e-05 -2.64198e-06
1.55676e-05 -7.07579e-05 -2.36195e-08
-2.64198e-06 -2.36195e-08 -0.000129546
0.00135222 2.74027e-05 1.39647e-06
2.74027e-05 0.000116672 7.13199e-07
1.39647e-06 7.13199e-07 5.35075e-05
0.000988582 2.27787e-05 -4.67257e-07
2.27787e-05 -1.96194e-05 8.75292e-08
-4.67257e-07 8.75292e-08 -7.74454e-05
0.000710663 1.44853e-05 -5.30185e-06
1.44853e-05 -6.28382e-05 5.87709e-07
-5.30185e-06 5.87709e-07 -0.000100962
0.00104424 7.41354e-06 2.50905e-06
7.41354e-06 5.62636e-06 -1.3023e-07
2.50905e-06 -1.3023e-07 -5.05253e-05
0.000722784 1.24752e-05 4.74405e-08
1.24752e-05 -6.3715e-05 2.78485e-08
4.74405e-08 2.78485e-08 -9.96071e-05
0.00317576 4.5479e-05 -1.80866e-05
4.5479e-05 0.00119694 1.06331e-06
-1.80866e-05 1.06331e-06 0.00119155
0.000768701 1.04592e-05 5.10131e-06
1.04592e-05 -4.84667e-05 -8.65642e-07
5.10131e-06 -8.65642e-07 -8.24322e-05
0.00311914 4.39349e-05 1.55574e-07
4.39349e-05 0.00115968 1.25022e-07
1.55574e-07 1.25022e-07 0.00115593
0.00120462 2.66491e-05 1.50795e-05
2.66491e-05 0.000207894 -1.64744e-06
1.50795e-05 -1.64744e-06 0.00019528
0.00143715 -2.00637e-05 -5.49201e-07
-2.00637e-05 0.000129206 -9.96956e-08
-5.49201e-07 -9.96956e-08 6.22056e-05
0.001402 -2.46779e-05 3.12371e-07
-2.46779e-05 0.000105388 3.95415e-08
3.12371e-07 3.95415e-08 3.58997e-05
0.00124113 -1.32813e-05 -9.43392e-07
-1.32813e-05 3.57845e-05 -4.19458e-08
-9.43392e-07 -4.19458e-08 -2.8441e-05
0.00132551 -1.41581e-05 1.74968e-07
-1.41581e-05 5.18929e-05 -2.44484e-07
1.74968e-07 -2.44484e-07 -1.28792e-05
0.00123165 -1.64276e-05 1.08194e-07
-1.64276e-05 2.69364e-06 6.23295e-07
1.08194e-07 6.23295e-07 -6.38761e-05
0.00107133 3.99784e-06 -2.76994e-06
3.99784e-06 -7.41708e-06 -2.37576e-07
-2.76994e-06 -2.37576e-07 -6.56253e-05
0.00126799 4.14999e-06 2.41616e-08
4.14999e-06 3.54972e-05 1.39675e-07
2.41616e-08 1.39675e-07 -3.02891e-05
0.00127964 -3.39583e-06 4.83556e-07
-3.39583e-06 1.47333e-05 -1.04741e-06
4.83556e-07 -1.04741e-06 -5.09672e-05
0.000800199 -1.81577e-08 -5.95311e-06
-1.81577e-08 -5.1245e-05 -1.53928e-06
-5.95311e-06 -1.53928e-06 -8.64346e-05
0.000954689 1.49162e-05 -8.52065e-07
1.49162e-05 -5.89551e-05 -2.23056e-07
-8.52065e-07 -2.23056e-07 -0.000118339
0.00157277 2.59393e-05 1.19002e-06
2.59393e-05 0.000189062 4.3873e-07
1.19002e-06 4.3873e-07 0.000121826
0.0032209 -4.05931e-05 -1.88969e-05
-4.05931e-05 0.00118761 -2.2678e-06
-1.88969e-05 -2.2678e-06 0.00118624
0.000784217 -3.77047e-06 -1.3876e-07
-3.77047e-06 -5.20827e-05 7.89809e-08
-1.3876e-07 7.89809e-08 -8.50375e-05
0.000824646 1.57247e-05 1.7883e-06
1.57247e-05 -0.00010364 7.57947e-07
1.7883e-06 7.57947e-07 -0.000162489
0.00299962 -3.94788e-05 -1.85211e-07
-3.94788e-05 0.00107201 1.2579e-07
-1.85211e-07 1.2579e-07 0.0010737
0.000717771 -1.37987e-05 4.5971e-06
-1.37987e-05 -7.3769e-05 2.2667e-06
4.5971e-06 2.2667e-06 -0.00010316
0.00279127 -3.79284e-05 1.38321e-05
-3.79284e-05 0.000961553 2.55827e-06
1.38321e-05 2.55827e-06 0.000966649
0.00132088 -3.27256e-06 -6.91275e-07
-3.27256e-06 0.000100428 -1.9756e-07
-6.91275e-07 -1.9756e-07 3.45883e-05
0.00127809 -9.90915e-06 1.79581e-08
-9.90915e-06 6.70719e-05 -4.71857e-09
1.79581e-08 -4.71857e-09 -1.64074e-06
0.00133654 -2.08124e-05 4.81298e-07
-2.08124e-05 8.64237e-05 -3.27973e-07
4.81298e-07 -3.27973e-07 1.68243e-05
0.000893918 -7.5414e-06 -2.69953e-06
-7.5414e-06 -6.55954e-05 7.9405e-08
-2.69953e-06 7.9405e-08 -0.00012609
0.00129311 7.15582e-06 2.71483e-07
7.15582e-06 9.36438e-05 7.06114e-08
2.71483e-07 7.06114e-08 2.78425e-05
0.00133469 1.20883e-05 4.90726e-07
1.20883e-05 0.000102467 -2.41219e-08
4.90726e-07 -2.41219e-08 3.35861e-05
0.00126596 1.94426e-05 1.18773e-06
1.94426e-05 8.55221e-05 2.88263e-07
1.18773e-06 2.88263e-07 2.27064e-05
0.000888674 1.49363e-05 -4.05212e-07
1.49363e-05 -6.34213e-05 3.08635e-09
-4.05212e-07 3.08635e-09 -0.000122043
0.000706941 1.65675e-05 -5.35075e-06
1.65675e-05 -6.07926e-05 2.41406e-07
-5.35075e-06 2.41406e-07 -0.000100704
0.00106168 2.50461e-05 2.10036e-06
2.50461e-05 1.67162e-05 2.16214e-07
2.10036e-06 2.16214e-07 -4.06813e-05
0.000716441 1.95911e-05 1.31054e-07
1.95911e-05 -6.07609e-05 1.06757e-07
1.31054e-07 1.06757e-07 -9.89188e-05
0.00318752 4.63087e-05 -1.8982e-05
4.63087e-05 0.00121325 6.80578e-07
-1.8982e-05 6.80578e-07 0.00120619
0.000742949 1.90674e-05 5.06475e-06
1.90674e-05 -5.5201e-05 -6.60914e-07
5.06475e-06 -6.60914e-07 -9.11296e-05
0.00313812 4.46528e-05 2.3379e-07
4.46528e-05 0.00118075 1.08631e-07
2.3379e-07 1.08631e-07 0.00117517
0.00308159 4.3026e-05 1.81602e-05
4.3026e-05 0.00114387 -1.23248e-06
1.81602e-05 -1.23248e-06 0.0011399
0.0012844 -1.67521e-05 -1.00718e-06
-1.67521e-05 7.31549e-05 -2.40578e-07
-1.00718e-06 -2.40578e-07 7.78965e-06
0.00137443 -2.07578e-05 6.9979e-08
-2.07578e-05 9.80451e-05 2.77056e-07
6.9979e-08 2.77056e-07 3.07419e-05
0.0012993 -2.41676e-05 2.47522e-07
-2.41676e-05 5.53251e-05 3.14233e-07
2.47522e-07 3.14233e-07 -1.47013e-05
0.00106789 -1.14674e-05 -2.4652e-06
-1.14674e-05 -8.1845e-07 -4.10452e-07
-2.4652e-06 -4.10452e-07 -5.87806e-05
0.00125025 -1.36318e-05 1.84847e-07
-1.36318e-05 4.01183e-05 -1.82798e-07
1.84847e-07 -1.82798e-07 -2.41389e-05
0.00130462 -1.4491e-05 1.36493e-07
-1.4491e-05 4.24415e-05 -4.21133e-07
1.36493e-07 -4.21133e-07 -2.22269e-05
0.000752895 -3.39098e-06 -5.83709e-06
-3.39098e-06 -7.09957e-05 -1.13107e-06
-5.83709e-06 -1.13107e-06 -0.000107129
0.00109936 3.70502e-06 -7.37236e-09
3.70502e-06 5.51959e-06 1.84654e-07
-7.37236e-09 1.84654e-07 -5.27926e-05
0.00130526 4.20593e-06 1.41575e-06
4.20593e-06 5.21499e-05 -1.27513e-07
1.41575e-06 -1.27513e-07 -1.37371e-05
0.00334419 -4.20096e-05 -2.01855e-05
-4.20096e-05 0.00125602 -1.8755e-06
-2.01855e-05 -1.8755e-06 0.00125262
0.000771054 -1.83689e-07 -5.09115e-08
-1.83689e-07 -6.32497e-05 1.51611e-07
-5.09115e-08 1.51611e-07 -9.85332e-05
0.00111202 1.68362e-05 2.08088e-06
1.68362e-05 1.64669e-05 7.63749e-07
2.08088e-06 7.63749e-07 -4.23996e-05
0.00321525 -4.1282e-05 -1.61941e-07
-4.1282e-05 0.00118407 1.42783e-07
-1.61941e-07 1.42783e-07 0.00118304
0.000732423 -4.88021e-06 5.24397e-06
-4.88021e-06 -7.41415e-05 2.06904e-06
5.24397e-06 2.06904e-06 -0.000107202
0.00298531 -4.00162e-05 1.51314e-05
-4.00162e-05 0.00106445 2.48562e-06
1.51314e-05 2.48562e-06 0.00106659
0.00107196 -7.29643e-06 -2.31507e-06
-7.29643e-06 1.72445e-05 -2.64384e-07
-2.31507e-06 -2.64384e-07 -4.24224e-05
0.00123887 -7.35603e-06 2.09955e-07
-7.35603e-06 6.06115e-05 -2.20427e-08
2.09955e-07 -2.20427e-08 -5.88215e-06
0.00130384 -1.32503e-05 7.72122e-07
-1.32503e-05 7.91335e-05 1.99425e-07
7.72122e-07 1.99425e-07 1.06159e-05
0.000699705 3.18814e-06 -5.31217e-06
3.18814e-06 -6.47744e-05 -3.89083e-08
-5.31217e-06 -3.89083e-08 -0.00010537
0.000900982 -1.36611e-06 -3.75513e-07
-1.36611e-06 -6.13881e-05 1.81999e-07
-3.75513e-07 1.81999e-07 -0.000121632
0.00130064 1.28218e-05 1.25869e-06
1.28218e-05 9.76255e-05 -6.25595e-08
1.25869e-06 -6.25595e-08 3.18171e-05
0.000907208 1.51212e-05 1.82037e-06
1.51212e-05 -5.47463e-05 1.98091e-07
1.82037e-06 1.98091e-07 -0.000113209
0.000708248 1.75025e-05 4.6137e-08
1.75025e-05 -6.06775e-05 7.34453e-08
4.6137e-08 7.34453e-08 -0.000100586
0.0032007 4.71202e-05 -1.9554e-05
4.71202e-05 0.0012275 2.71823e-07
-1.9554e-05 2.71823e-07 0.00121909
0.000719765 2.41647e-05 5.27573e-06
2.41647e-05 -5.97857e-05 -3.29371e-07
5.27573e-06 -3.29371e-07 -9.80107e-05
0.00315826 4.54107e-05 4.95021e-07
4.54107e-05 0.00120064 1.39594e-07
4.95021e-07 1.39594e-07 0.00119342
0.00309558 4.34879e-05 1.94277e-05
4.34879e-05 0.00116223 -8.56086e-07
1.94277e-05 -8.56086e-07 0.00115648
0.00106642 -1.50731e-05 -2.46483e-06
-1.50731e-05 9.92577e-06 -5.50138e-07
-2.46483e-06 -5.50138e-07 -4.88947e-05
0.00123917 -1.78633e-05 -2.71947e-08
-1.78633e-05 5.11833e-05 2.11016e-08
-2.71947e-08 2.11016e-08 -1.43867e-05
0.0013151 -2.15582e-05 5.4699e-07
-2.15582e-05 6.85874e-05 2.92843e-07
5.4699e-07 2.92843e-07 9.64741e-07
0.00172783 -1.93046e-05 -1.08227e-05
-1.93046e-05 0.000418857 -8.74498e-07
-1.08227e-05 -8.74498e-07 0.000387868
0.00109137 -1.19427e-05 1.58854e-07
-1.19427e-05 1.02071e-05 -4.80892e-08
1.58854e-07 -4.80892e-08 -4.7853e-05
0.00126151 -1.41997e-05 1.13075e-06
-1.41997e-05 4.54719e-05 -3.29042e-07
1.13075e-06 -3.29042e-07 -1.88252e-05
0.0033302 -4.30215e-05 -2.06238e-05
-4.30215e-05 0.00126061 -1.39821e-06
-2.06238e-05 -1.39821e-06 0.00125572
0.000752979 -2.52006e-06 3.37814e-08
-2.52006e-06 -7.0136e-05 1.85398e-07
3.37814e-08 1.85398e-07 -0.000106383
0.00112843 2.97845e-06 2.95908e-06
2.97845e-06 1.89657e-05 6.80821e-07
2.95908e-06 6.80821e-07 -3.94653e-05
0.00335857 -4.2705e-05 -1.51377e-07
-4.2705e-05 0.0012616 1.56077e-07
-1.51377e-07 1.56077e-07 0.00125843
0.000744059 -1.72045e-07 5.69159e-06
-1.72045e-07 -7.42896e-05 1.84389e-06
5.69159e-06 1.84389e-06 -0.000109662
0.00320375 -4.18684e-05 1.70574e-05
-4.18684e-05 0.00117776 2.33597e-06
1.70574e-05 2.33597e-06 0.00117708
0.00069306 -6.89932e-06 -7.70661e-06
-6.89932e-06 -7.22815e-05 -7.7202e-07
-7.70661e-06 -7.7202e-07 -0.00011291
0.00100083 -9.97408e-06 9.31297e-08
-9.97408e-06 -1.77079e-05 1.34892e-07
9.31297e-08 1.34892e-07 -7.78419e-05
0.00115325 -1.11737e-05 1.2823e-06
-1.11737e-05 1.89714e-05 2.67359e-07
1.2823e-06 2.67359e-07 -4.81256e-05
0.00322232 -5.4417e-06 -1.8799e-05
-5.4417e-06 0.0012418 -1.30519e-07
-1.8799e-05 -1.30519e-07 0.0012327
0.00071144 4.67275e-06 5.69364e-08
4.67275e-06 -5.96192e-05 1.34524e-07
5.69364e-08 1.34524e-07 -0.000100267
0.000903232 4.87743e-06 1.84225e-06
4.87743e-06 -5.95412e-05 2.02556e-07
1.84225e-06 2.02556e-07 -0.00011951
0.000715279 1.74694e-05 5.28439e-06
1.74694e-05 -5.80324e-05 -8.40619e-08
5.28439e-06 -8.40619e-08 -9.78922e-05
0.00320159 4.65828e-05 1.1235e-06
4.65828e-05 0.00122865 1.56913e-07
1.1235e-06 1.56913e-07 0.00122015
0.00313792 4.45807e-05 2.07716e-05
4.45807e-05 0.00119217 -4.3114e-07
2.07716e-05 -4.3114e-07 0.00118479
0.00168351 -2.60867e-05 -1.33272e-05
-2.60867e-05 0.000408305 -1.14742e-06
-1.33272e-05 -1.14742e-06 0.000375451
0.00108128 -1.41227e-05 2.08436e-08
-1.41227e-05 1.6689e-05 2.24308e-08
2.08436e-08 2.24308e-08 -4.2117e-05
0.00119366 -1.88767e-05 8.844e-07
-1.88767e-05 2.90724e-05 2.73885e-07
8.844e-07 2.73885e-07 -3.66978e-05
0.00326157 -4.86824e-05 -8.41073e-06
-4.86824e-05 0.00123974 -4.56571e-07
-8.41073e-06 -4.56571e-07 0.00123332
0.000756193 -1.11763e-05 4.02539e-08
-1.11763e-05 -5.89678e-05 4.61039e-08
4.02539e-08 4.61039e-08 -9.60951e-05
0.0011147 -1.16933e-05 2.71589e-06
-1.16933e-05 2.11223e-05 3.21108e-07
2.71589e-06 3.21108e-07 -3.70126e-05
0.00338254 -4.36677e-05 -1.76917e-07
-4.36677e-05 0.0012835 1.57982e-07
-1.76917e-07 1.57982e-07 0.00127872
0.000751824 -1.01338e-06 5.98518e-06
-1.01338e-06 -6.98839e-05 1.48123e-06
5.98518e-06 1.48123e-06 -0.000106239
0.00337115 -4.34237e-05 1.88051e-05
-4.34237e-05 0.00126641 2.0633e-06
1.88051e-05 2.0633e-06 0.00126345
0.00124678 -1.50111e-05 -1.97119e-05
-1.50111e-05 0.000267956 -3.44785e-07
-1.97119e-05 -3.44785e-07 0.000246807
0.00122679 -1.06821e-05 -4.1254e-06
-1.06821e-05 0.000189444 1.70637e-07
-4.1254e-06 1.70637e-07 0.000152264
0.000933493 -9.52401e-06 2.41524e-06
-9.52401e-06 -5.08348e-05 5.25115e-07
2.41524e-06 5.25115e-07 -0.000111381
0.00322944 2.68079e-06 7.69586e-07
2.68079e-06 0.00124474 -1.15204e-08
7.69586e-07 -1.15204e-08 0.00123577
0.000713271 6.64728e-06 5.39693e-06
6.64728e-06 -5.89201e-05 2.98793e-07
5.39693e-06 2.98793e-07 -9.96601e-05
0.00318431 4.48934e-05 2.04674e-05
4.48934e-05 0.00122146 -2.07356e-08
2.04674e-05 -2.07356e-08 0.00121286
0.00121229 -2.7964e-05 -5.51162e-06
-2.7964e-05 0.000243877 -4.73192e-07
-5.51162e-06 -4.73192e-07 0.000223979
0.00125761 -1.69815e-05 -3.91033e-06
-1.69815e-05 0.000197988 1.38689e-09
-3.91033e-06 1.38689e-09 0.000162249
0.00109653 -1.53703e-05 2.36468e-06
-1.53703e-05 2.37304e-05 5.80506e-07
2.36468e-06 5.80506e-07 -3.51443e-05
0.00230677 -3.61654e-05 7.24482e-06
-3.61654e-05 0.000768619 3.28214e-07
7.24482e-06 3.28214e-07 0.000756376
0.000746447 -6.90717e-06 5.88578e-06
-6.90717e-06 -6.29086e-05 1.12857e-06
5.88578e-06 1.12857e-06 -0.0001001
0.0034387 -4.45202e-05 2.01855e-05
-4.45202e-05 0.00130821 1.67511e-06
2.01855e-05 1.67511e-06 0.00130355
0.00324433 -4.52013e-05 -1.10442e-06
-4.52013e-05 0.00124932 1.81458e-07
-1.10442e-06 1.81458e-07 0.0012405
0.000725082 -5.82763e-06 5.63184e-06
-5.82763e-06 -5.66507e-05 8.57133e-07
5.63184e-06 8.57133e-07 -9.70689e-05
0.00324885 7.37449e-06 2.06522e-05
7.37449e-06 0.00125348 -4.24442e-08
2.06522e-05 -4.24442e-08 0.0012444
0.00224562 -3.62894e-05 7.36235e-06
-3.62894e-05 0.000752134 1.89843e-07
7.36235e-06 1.89843e-07 0.00073806
0.000734816 -9.28015e-06 5.6114e-06
-9.28015e-06 -5.77626e-05 1.12506e-06
5.6114e-06 1.12506e-06 -9.66523e-05
0.00338466 -4.51862e-05 2.06909e-05
-4.51862e-05 0.00129446 1.22933e-06
2.06909e-05 1.22933e-06 0.00128839
0.00327774 -4.67766e-05 2.03369e-05
-4.67766e-05 0.00126347 4.15636e-07
2.03369e-05 4.15636e-07 0.0012548
0.00331137 -4.61567e-05 2.04752e-05
-4.61567e-05 0.00127134 8.34492e-07
2.04752e-05 8.34492e-07 0.00126387
