# vtk DataFile Version 2.0
Wound Healing Simulation
ASCII
DATASET UNSTRUCTURED_GRID
POINTS 3012 float
69.9759 18.75 4
67.2507 60.3285 4
69.976 18.75 2
73.0099 25.446 4
71.1327 20.9142 4
68.6801 16.6661 4
67.8277 19.9244 3.98797
67.2507 60.3286 2
71.1327 54.0858 4
68.6801 58.3339 4
65.6939 62.2254 4
65.3141 59.0044 3.98912
74.6784 42.3946 4
73.7221 47.2057 4
69.9759 18.75 0
73.0099 25.446 2
68.6801 16.6661 2
71.1327 20.9142 2
67.8282 19.9253 2
74.6792 32.6053 4
73.7222 27.7943 4
72.1454 23.1494 4
70.616 26.2226 3.9866
68.888 21.9579 3.98768
67.2507 14.6715 4
66.6391 17.9689 3.98856
65.8037 21.0208 3.98317
67.2507 60.3285 0
71.1327 54.0858 2
68.6801 58.3339 2
65.694 62.2255 2
65.3144 59.0042 2
72.1454 51.8506 4
69.9759 56.25 4
68.8389 53.1131 3.98743
64.0165 64.0165 4
66.6129 57.1363 3.98875
63.8874 60.7692 3.99036
63.5057 57.7794 3.98459
60.3285 67.2507 4
74.6792 42.3947 2
73.7222 47.2057 2
74.9194 39.9526 4
74.2788 44.8158 4
72.1693 42.0852 3.9852
73.0099 49.554 4
71.251 46.5968 3.98656
73.0099 25.446 0
71.1327 20.9142 0
68.6801 16.6661 0
67.8277 19.9244 0.0120301
74.6792 32.6053 2
73.7222 27.7943 2
67.2508 14.6715 2
72.1455 23.1494 2
70.6161 26.2234 2
66.6396 17.9693 2
68.8884 21.9592 2
65.8039 21.0201 2
74.9197 35.0474 4
74.2794 30.1841 4
72.1858 32.9434 3.98535
71.2797 28.4326 3.98628
69.8178 24.0608 3.98724
68.3515 26.9518 3.97914
66.7689 22.9309 3.98211
65.694 12.7746 4
65.3255 16.0997 3.98956
64.72 19.1879 3.98424
63.8973 22.0273 3.98038
71.1327 54.0858 0
65.6939 62.2254 0
68.6801 58.3339 0
65.3141 59.0044 0.0108811
72.1455 51.8506 2
69.9759 56.25 2
68.8392 53.1119 2
64.0165 64.0165 2
66.6133 57.1357 2
63.8876 60.7691 2
63.5057 57.78 2
62.2254 65.694 4
58.8946 65.4162 3.99264
69.7713 50.9877 3.98701
67.7862 55.1688 3.98819
66.6563 52.2115 3.98181
62.3374 62.4302 3.99153
64.6673 56.0378 3.98463
62.2067 59.4129 3.98492
61.8316 56.6928 3.98226
58.3339 68.6801 4
60.3285 67.2508 2
73.7221 47.2057 0
74.6784 42.3946 0
74.9197 39.9526 2
74.2794 44.8159 2
72.1693 42.0857 2
73.0099 49.554 2
71.251 46.5968 2
75 37.5 4
72.4061 39.8019 3.98422
71.784 44.3521 3.98607
69.8076 41.789 3.97796
70.5772 48.812 3.98683
68.9172 46.0143 3.97883
74.6792 32.6053 0
73.7222 27.7943 0
67.2507 14.6715 0
72.1454 23.1494 0
70.616 26.2226 0.0133978
68.888 21.9579 0.0123231
66.6391 17.9689 0.0114401
65.8037 21.0208 0.0168303
74.9197 35.0474 2
74.2794 30.1841 2
72.1858 32.9434 2
71.2797 28.433 2
65.694 12.7745 2
65.3258 16.0997 2
69.818 24.0619 2
68.3515 26.9517 2
64.7203 19.187 2
66.769 22.9304 2
63.8976 22.0266 2
72.4139 35.2241 3.98422
71.8052 30.6769 3.98609
69.8432 33.2687 3.97802
68.9703 29.0388 3.97861
67.617 24.9112 3.9806
66.2014 27.6331 3.97622
64.0165 10.9835 4
64.7664 23.8246 3.97932
63.8914 14.3236 3.99059
63.5183 17.438 3.98534
62.9169 20.3097 3.98131
62.1061 22.9321 3.97894
60.6847 11.095 3.99197
57.6131 11.4396 3.98708
72.1454 51.8506 0
69.9759 56.25 0
68.8389 53.1131 0.0125735
64.0165 64.0165 0
63.8874 60.7692 0.0096383
66.6129 57.1363 0.0112513
63.5057 57.7794 0.0154128
62.2255 65.694 2
58.8948 65.4163 2
69.7714 50.9867 2
67.7866 55.1678 2
66.6562 52.2119 2
62.3376 62.43 2
64.6674 56.0386 2
62.2067 59.4133 2
61.8316 56.6935 2
60.6694 63.9793 3.99214
57.0251 66.7369 3.99315
57.5586 63.6975 3.98747
67.5136 50.1775 3.98036
65.7091 54.1776 3.98349
64.5482 51.3906 3.97856
60.7756 60.9458 3.98574
62.8306 55.0781 3.98249
60.6647 58.1715 3.98228
60.3389 55.8002 3.9813
56.25 69.9759 4
58.3339 68.6801 2
60.3285 67.2507 0
58.9217 9.65336 3.99247
62.2254 9.30607 4
73.0099 49.554 0
74.2788 44.8158 0
71.251 46.5968 0.0134392
72.1693 42.0852 0.0148047
74.9194 39.9526 0
75 37.5 2
72.4061 39.8024 2
71.784 44.3525 2
69.8077 41.7892 2
70.5773 48.8115 2
68.9171 46.0144 2
72.4893 37.5119 3.98368
70.0435 39.6568 3.97662
69.4347 43.9069 3.97864
67.6029 41.4978 3.97495
68.2714 48.1071 3.97944
66.7173 45.441 3.97609
74.9197 35.0474 0
74.2794 30.1841 0
72.1858 32.9434 0.014646
71.2797 28.4326 0.0137174
65.694 12.7746 0
65.3255 16.0997 0.010444
69.8178 24.0608 0.0127582
68.3515 26.9518 0.0208571
66.7689 22.9309 0.0178946
64.72 19.1879 0.0157587
63.8973 22.0273 0.0196155
72.414 35.2241 2
71.8053 30.677 2
69.8434 33.2688 2
68.9704 29.0388 2
64.0165 10.9835 2
63.8916 14.3236 2
63.5186 17.4372 2
67.6169 24.9111 2
66.2014 27.6327 2
62.9173 20.3088 2
64.7666 23.824 2
62.1064 22.9315 2
60.6849 11.095 2
57.6131 11.439 2
70.0601 35.3921 3.97688
69.471 31.15 3.97858
67.6606 33.5903 3.97495
66.7784 29.6217 3.97558
65.5325 25.6961 3.97762
64.1548 28.2517 3.97529
62.3426 12.652 3.99137
62.8694 24.6289 3.97806
62.2023 15.7757 3.98563
61.8219 18.6721 3.98262
61.2303 21.328 3.97943
60.4412 23.7138 3.97854
59.2475 12.7708 3.98593
55.8749 10.2263 3.98846
56.4065 13.102 3.98399
69.7713 50.9877 0.0129937
62.2254 65.694 0
58.8946 65.4162 0.00735791
67.7862 55.1688 0.0118071
66.6563 52.2115 0.0181893
62.3374 62.4302 0.00846951
62.2067 59.4129 0.0150783
64.6673 56.0378 0.0153664
61.8316 56.6928 0.0177398
60.6697 63.9793 2
57.0253 66.737 2
57.5585 63.698 2
67.5134 50.1778 2
65.7092 54.1783 2
64.5481 51.3914 2
60.7755 60.9465 2
62.8307 55.079 2
60.6646 58.1722 2
60.339 55.8008 2
55.0705 67.9338 3.99344
59.2208 62.3731 3.98632
55.8048 64.9148 3.98877
56.3285 62.0986 3.98445
65.3411 49.4116 3.97714
63.7172 53.3003 3.98066
62.4552 50.6602 3.97694
59.3375 59.5683 3.98361
61.0903 54.3223 3.98158
59.2974 57.0273 3.98043
59.2546 55.1989 3.98167
48.1029 68.5818 3.99025
50.9483 69.9332 3.99386
54.0858 71.1327 4
56.25 69.976 2
58.3339 68.6801 0
57.0587 8.33326 3.99298
60.3285 7.74928 4
58.9219 9.65327 2
62.2255 9.30602 2
70.5772 48.812 0.0131728
71.784 44.3521 0.0139261
68.9172 46.0143 0.0211693
69.8076 41.789 0.0220356
72.4061 39.8019 0.015784
75 37.5 0
72.4893 37.5122 2
70.0437 39.657 2
69.4347 43.9069 2
67.6031 41.4981 2
68.2713 48.1072 2
66.7173 45.4414 2
70.131 37.5213 3.97603
67.8382 39.5122 3.97362
67.2304 43.4706 3.97577
65.5634 41.2113 3.97407
66.0771 47.42 3.97663
64.6619 44.8514 3.97521
72.4139 35.2241 0.0157803
71.8052 30.6769 0.0139093
69.8432 33.2687 0.0219766
68.9703 29.0388 0.0213939
64.0165 10.9835 0
63.8914 14.3236 0.00940815
63.5183 17.438 0.0146585
67.617 24.9112 0.0193953
66.2014 27.6331 0.0237758
64.7664 23.8246 0.0206835
62.9169 20.3097 0.0186869
62.1061 22.9321 0.0210557
60.6847 11.095 0.00803406
57.6131 11.4396 0.0129229
70.0604 35.3922 2
69.4711 31.15 2
67.6608 33.5901 2
66.7785 29.6215 2
62.3428 12.652 2
62.2024 15.7751 2
61.8223 18.6712 2
65.5325 25.6956 2
64.1549 28.2513 2
61.2308 21.3273 2
62.8697 24.6283 2
60.4416 23.7132 2
59.2475 12.7701 2
56.4065 13.1012 2
55.8749 10.2256 2
67.8743 35.5472 3.974
67.2714 31.6214 3.9757
65.7044 33.9255 3.97375
64.6707 30.1891 3.9744
63.5486 26.4085 3.97629
62.2673 28.7718 3.97577
60.7772 14.2151 3.98554
61.0597 25.3268 3.97765
60.6182 17.1152 3.98365
60.233 19.8011 3.98091
59.6758 22.2424 3.97814
58.9953 24.3046 3.97873
54.0378 9.1299 3.98911
57.9123 14.3205 3.98382
54.7875 12.0012 3.98509
55.3142 14.6324 3.98272
67.5136 50.1775 0.0196449
57.0251 66.7369 0.00684822
60.6694 63.9793 0.00786332
57.5586 63.6975 0.0125253
65.7091 54.1776 0.0165064
64.5482 51.3906 0.0214407
60.7756 60.9458 0.0142573
60.6647 58.1715 0.0177193
62.8306 55.0781 0.0175095
60.3389 55.8002 0.0187033
55.0707 67.9338 2
59.2207 62.3738 2
55.8047 64.9152 2
56.3284 62.0991 2
65.341 49.4122 2
63.7173 53.3012 2
62.4552 50.6609 2
59.3374 59.569 2
61.0904 54.323 2
59.2974 57.0278 2
59.2546 55.1995 2
53.0424 69.0015 3.99367
53.9669 66.0167 3.9894
57.8833 60.88 3.984
54.6845 63.2145 3.98551
55.2137 60.6267 3.98292
63.2061 48.6669 3.97571
61.7558 52.586 3.97924
60.2895 50.0301 3.97603
58.0238 58.2746 3.9817
59.3419 53.9625 3.98077
58.1368 55.8291 3.97864
50.1094 67.8598 3.99003
47.4634 66.5862 3.98799
46.0567 69.1614 3.9905
48.103 68.5822 2
48.8025 70.7244 3.99404
50.9485 69.9332 2
51.8506 72.1454 4
54.0858 71.1327 2
56.25 69.9759 0
55.103 7.13787 3.99323
58.3339 6.31992 4
57.059 8.3331 2
60.3286 7.74926 2
58.9217 9.65336 0.00753315
62.2254 9.30607 0
68.2714 48.1071 0.0205637
69.4347 43.9069 0.0213572
66.7173 45.441 0.0239127
67.6029 41.4978 0.0250503
70.0435 39.6568 0.0233811
72.4893 37.5119 0.0163213
70.1312 37.5214 2
67.8385 39.5124 2
67.2305 43.4709 2
65.5636 41.2117 2
66.077 47.4204 2
64.6619 44.8519 2
67.9336 37.5217 3.97276
65.7927 39.3708 3.97275
65.1849 43.0277 3.97488
63.7648 40.9323 3.97375
63.9763 46.7209 3.97558
62.8187 44.2214 3.97593
70.0601 35.3921 0.0231152
69.471 31.15 0.0214188
67.6606 33.5903 0.0250471
66.7784 29.6217 0.0244179
62.3426 12.652 0.00863442
62.2023 15.7757 0.0143679
61.8219 18.6721 0.0173823
65.5325 25.6961 0.0223761
64.1548 28.2517 0.0247088
62.8694 24.6289 0.0219406
61.2303 21.328 0.0205683
60.4412 23.7138 0.0214603
59.2475 12.7708 0.0140659
56.4065 13.102 0.016008
55.8749 10.2263 0.0115402
67.8746 35.5471 2
67.2716 31.6212 2
65.7048 33.9252 2
64.6709 30.1887 2
60.7772 14.2145 2
60.6183 17.1144 2
60.2335 19.8002 2
63.5487 26.408 2
62.2674 28.7714 2
59.6763 22.2418 2
61.0599 25.3263 2
58.9957 24.3041 2
57.9122 14.3198 2
55.3142 14.6316 2
54.0378 9.1293 2
54.7876 12.0003 2
65.8815 35.6659 3.97296
65.194 32.1514 3.97447
64.292 34.2478 3.9738
62.6042 30.6307 3.97415
61.6633 27.0643 3.97565
60.8616 29.1323 3.97761
59.3137 15.6572 3.98391
59.3474 25.7832 3.97902
59.1305 18.3405 3.98264
58.7521 20.8367 3.97911
58.3007 23.0746 3.9769
57.9858 24.6481 3.97927
52.1124 8.14865 3.9895
53.0583 11.0078 3.9861
56.679 15.7286 3.98302
53.8106 13.6674 3.98338
54.3785 15.9832 3.98249
55.0705 67.9338 0.00656091
65.3411 49.4116 0.0228615
55.8048 64.9148 0.0112288
59.2208 62.3731 0.0136822
56.3285 62.0986 0.0155519
63.7172 53.3003 0.0193402
62.4552 50.6602 0.0230557
59.3375 59.5683 0.0163863
59.2974 57.0273 0.0195723
61.0903 54.3223 0.0184218
59.2546 55.1989 0.0183342
53.0426 69.0015 2
53.9669 66.0171 2
57.8832 60.8805 2
54.6844 63.2151 2
55.2135 60.6273 2
63.2061 48.6675 2
61.7559 52.5868 2
60.2895 50.0309 2
58.0237 58.2753 2
59.342 53.9632 2
58.1367 55.8296 2
52.0704 67.003 3.98978
52.9535 64.2245 3.98652
56.6519 59.5008 3.98282
53.6823 61.6315 3.98379
54.2631 59.3332 3.98174
61.0078 47.8889 3.97492
59.7264 52.1187 3.97895
58.0434 49.6313 3.97763
56.7838 57.0034 3.97906
57.1348 54.1393 3.97843
50.1094 67.8602 2
49.3371 65.9264 3.98771
47.4633 66.5867 2
46.8923 64.7436 3.98635
45.5586 67.1039 3.98793
43.9737 69.5939 3.99059
46.0567 69.1618 2
46.6092 71.3689 3.99426
48.1029 68.5818 0.00974595
48.8027 70.7245 2
49.554 73.0099 4
50.9483 69.9332 0.00614122
51.8506 72.1455 2
54.0858 71.1327 0
53.064 6.06947 3.99345
55.1032 7.13772 2
56.25 5.02411 4
58.3339 6.3199 2
57.0587 8.33326 0.0070216
60.3285 7.74928 0
66.0771 47.42 0.0233708
67.2304 43.4706 0.02423
64.6619 44.8514 0.0247912
65.5634 41.2113 0.0259294
67.8382 39.5122 0.0263829
70.131 37.5213 0.02397
67.9338 37.5218 2
65.7931 39.371 2
65.185 43.0281 2
63.7651 40.9327 2
63.9763 46.7214 2
62.8188 44.2219 2
65.8943 37.5016 3.97135
63.9066 39.2679 3.97265
63.3397 42.5543 3.97471
62.4423 40.7007 3.97422
61.9805 45.9257 3.97584
61.4652 43.6898 3.97617
67.8743 35.5472 0.0260007
67.2714 31.6214 0.0243042
65.7044 33.9255 0.0262489
64.6707 30.1891 0.0256046
60.7772 14.2151 0.0144644
60.6182 17.1152 0.016354
60.233 19.8011 0.0190865
63.5486 26.4085 0.0237076
62.2673 28.7718 0.0242335
61.0597 25.3268 0.0223483
59.6758 22.2424 0.0218635
58.9953 24.3046 0.0212729
57.9123 14.3205 0.0161809
55.3142 14.6324 0.0172786
54.0378 9.1299 0.0108874
54.7875 12.0012 0.0149071
65.882 35.6658 2
65.1943 32.1511 2
64.2924 34.2475 2
62.6044 30.6303 2
59.3137 15.6564 2
59.1308 18.3396 2
58.7527 20.8359 2
61.6634 27.0639 2
60.8618 29.1319 2
58.3013 23.0741 2
59.3478 25.7828 2
57.9863 24.6477 2
56.6789 15.7279 2
54.3783 15.9824 2
53.8106 13.6664 2
52.1124 8.14808 2
53.0583 11.0071 2
64.0973 35.6311 3.97266
62.9406 33.0426 3.97352
60.6261 30.6045 3.97404
59.5859 27.8999 3.97668
57.9433 16.9693 3.98315
57.7581 25.7104 3.98046
57.723 19.4591 3.98136
57.3839 21.8216 3.97687
57.2029 23.9291 3.97649
50.1125 7.28087 3.98973
51.2326 10.1165 3.9868
52.1726 12.7848 3.9846
55.5404 16.9568 3.98298
52.9791 15.2483 3.98174
53.7607 16.9645 3.98282
53.0424 69.0015 0.00633145
53.9669 66.0167 0.0105983
63.2061 48.6669 0.0242928
54.6845 63.2145 0.0144853
57.8833 60.88 0.0159975
55.2137 60.6267 0.0170786
61.7558 52.586 0.0207648
60.2895 50.0301 0.0239748
58.0238 58.2746 0.0183005
58.1368 55.8291 0.0213566
59.3419 53.9625 0.0192259
52.0704 67.0033 2
52.9533 64.225 2
56.6518 59.5014 2
53.6821 61.632 2
54.2629 59.334 2
61.0078 47.8895 2
59.7265 52.1195 2
58.0434 49.632 2
56.7838 57.0041 2
57.1348 54.1398 2
51.1679 65.1333 3.98723
52.0465 62.5464 3.98469
55.4851 58.2633 3.98228
52.8364 60.1459 3.98245
53.6438 58.4837 3.98113
58.3235 46.8609 3.97787
57.5781 51.8025 3.97813
56.2667 49.5687 3.98102
55.4804 55.8102 3.97749
55.3715 53.3996 3.97439
50.1094 67.8598 0.00997227
49.3369 65.9268 2
48.618 64.1297 3.98593
47.4634 66.5862 0.0120084
45.5585 67.1043 2
46.8921 64.744 2
46.3817 63.0623 3.98507
45.1325 65.2052 3.98648
43.6318 67.4749 3.98811
41.8609 69.8814 3.99057
43.9738 69.5943 2
44.3766 71.8637 3.99427
46.0567 69.1614 0.00950446
46.6094 71.369 2
47.2057 73.7222 4
48.8025 70.7244 0.00595659
49.554 73.0099 2
51.8506 72.1454 0
50.9537 5.12996 3.99364
53.0642 6.06929 2
54.0858 3.86728 4
55.103 7.13787 0.00677023
56.25 5.02406 2
58.3339 6.31992 0
63.9763 46.7209 0.0244224
65.1849 43.0277 0.02512
62.8187 44.2214 0.0240737
63.7648 40.9323 0.0262526
65.7927 39.3708 0.0272501
67.9336 37.5217 0.0272416
65.8946 37.5017 2
63.9071 39.2682 2
63.34 42.5547 2
62.4427 40.7011 2
61.9806 45.9262 2
61.4654 43.6903 2
63.9649 37.4568 3.97103
62.1683 39.3568 3.97351
61.2328 41.9633 3.97462
60.2656 44.7789 3.97671
65.8815 35.6659 0.0270389
65.194 32.1514 0.0255304
64.292 34.2478 0.026205
62.6042 30.6307 0.0258525
59.3137 15.6572 0.0160921
59.1305 18.3405 0.0173589
58.7521 20.8367 0.0208915
61.6633 27.0643 0.024345
60.8616 29.1323 0.0223884
59.3474 25.7832 0.0209795
58.3007 23.0746 0.0231037
57.9858 24.6481 0.0207328
56.679 15.7286 0.0169806
54.3785 15.9832 0.0175072
53.8106 13.6674 0.016623
52.1124 8.14865 0.010505
53.0583 11.0078 0.0139023
64.0979 35.6309 2
62.9409 33.0422 2
60.6263 30.604 2
57.9434 16.9684 2
57.7236 19.4581 2
57.3846 21.8209 2
59.586 27.8995 2
57.2034 23.9288 2
57.7585 25.71 2
50.1124 7.28036 2
55.5404 16.956 2
53.7607 16.9635 2
52.979 15.2474 2
52.1725 12.7841 2
51.2325 10.1159 2
62.1999 35.3574 3.97214
60.3054 32.7407 3.97294
58.6368 30.0657 3.974
57.3102 27.3662 3.97866
56.6406 18.1403 3.98302
56.3113 25.0852 3.97642
56.3663 20.5036 3.97899
56.1232 22.8501 3.97369
48.0562 6.52409 3.98999
49.3244 9.3248 3.98726
50.4332 11.9834 3.98493
51.3787 14.4838 3.98305
54.4183 17.9049 3.9829
52.3633 17.0201 3.98166
52.0704 67.003 0.0102176
52.9535 64.2245 0.0134841
61.0078 47.8889 0.0250774
53.6823 61.6315 0.0162147
56.6519 59.5008 0.0171836
54.2631 59.3332 0.0182599
59.7264 52.1187 0.0210525
58.0434 49.6313 0.0223741
56.7838 57.0034 0.0209421
57.1348 54.1393 0.0215713
51.1677 65.1337 2
52.0463 62.5469 2
55.4849 58.2641 2
52.8361 60.1464 2
53.6436 58.4844 2
58.3237 46.8616 2
57.5781 51.8031 2
56.2667 49.5694 2
55.4805 55.8109 2
55.3715 53.4002 2
50.3462 63.3878 3.98546
51.245 60.9444 3.98302
54.225 57.2783 3.98102
52.3155 58.6459 3.98097
56.7418 44.1963 3.97449
55.5148 47.9113 3.98057
55.0877 51.4037 3.97497
54.015 54.5621 3.97557
49.3371 65.9264 0.01229
48.6178 64.1301 2
47.962 62.483 3.98473
45.5586 67.1039 0.0120717
46.8923 64.7436 0.0136493
43.6317 67.4754 2
46.3814 63.0626 2
45.1324 65.2057 2
45.987 61.5958 3.984
44.7669 63.4636 3.98558
43.3565 65.5153 3.98669
41.6638 67.6941 3.98808
39.7026 70.0286 3.99044
41.861 69.8819 2
42.1111 72.2085 3.99421
43.9737 69.5939 0.00941476
44.3768 71.8639 2
44.8159 74.2794 4
46.6092 71.3689 0.00573953
47.2057 73.7222 2
49.554 73.0099 0
48.7842 4.32104 3.99386
50.9539 5.12976 2
51.8506 2.85458 4
53.064 6.06947 0.00654814
54.0858 3.86728 2
56.25 5.02411 0
61.9805 45.9257 0.0241645
63.3397 42.5543 0.0252914
61.4652 43.6898 0.0238344
62.4423 40.7007 0.0257829
63.9066 39.2679 0.0273525
65.8943 37.5016 0.0286462
63.9653 37.4569 2
62.1689 39.3571 2
61.2331 41.9637 2
60.2658 44.7795 2
62.0041 37.4446 3.97138
60.2655 39.8509 3.9747
59.0153 42.9259 3.97437
64.0973 35.6311 0.0273425
62.9406 33.0426 0.0264834
60.6261 30.6045 0.0259562
57.9433 16.9693 0.0168544
57.723 19.4591 0.0186362
57.3839 21.8216 0.0231313
59.5859 27.8999 0.0233191
57.7581 25.7104 0.0195388
57.2029 23.9291 0.0235056
55.5404 16.9568 0.0170165
53.7607 16.9645 0.0171803
52.9791 15.2483 0.0182613
50.1125 7.28087 0.0102715
52.1726 12.7848 0.0154043
51.2326 10.1165 0.0131974
62.2007 35.3573 2
60.3058 32.7403 2
58.637 30.0654 2
56.6409 18.1393 2
56.3671 20.5025 2
56.124 22.8498 2
57.3104 27.3657 2
56.3118 25.0852 2
48.0562 6.52364 2
49.3243 9.32426 2
54.4184 17.9038 2
52.3632 17.0191 2
51.3787 14.483 2
50.4331 11.9827 2
59.9103 35.1176 3.97217
58.0148 32.2635 3.97264
56.5644 29.3257 3.97218
55.4694 26.5843 3.97912
55.3473 19.1733 3.98268
54.9467 24.0382 3.97253
55.0117 21.5442 3.97683
45.9621 5.87921 3.99031
43.3733 7.46831 3.98837
47.3547 8.6188 3.9875
48.5998 11.2852 3.98564
49.7143 13.7314 3.98381
50.635 16.1173 3.98119
53.1283 18.6439 3.98134
51.3052 18.0329 3.98451
51.1679 65.1333 0.0127739
52.0465 62.5464 0.0153088
58.3235 46.8609 0.0221342
52.8364 60.1459 0.0175546
55.4851 58.2633 0.0177202
53.6438 58.4837 0.0188672
57.5781 51.8025 0.0218706
56.2667 49.5687 0.0189829
55.4804 55.8102 0.0225125
55.3715 53.3996 0.0256072
50.346 63.3882 2
51.2448 60.945 2
54.2249 57.279 2
52.3153 58.6465 2
56.7422 44.197 2
55.5149 47.9121 2
55.0876 51.4042 2
54.015 54.5629 2
49.592 61.7528 3.98417
55.6764 41.7153 3.97609
50.5687 59.3386 3.98108
52.1912 56.5023 3.97822
54.214 45.5833 3.97696
53.365 49.3414 3.97582
52.6829 52.8661 3.97358
48.618 64.1297 0.0140742
47.9617 62.4833 2
47.3292 61.0185 3.9835
43.6318 67.4749 0.0118945
45.1325 65.2052 0.0135217
46.3817 63.0623 0.0149329
41.6637 67.6946 2
43.3564 65.5157 2
45.9867 61.5961 2
44.7667 63.464 2
45.7661 60.6403 3.98323
44.4828 61.8457 3.98429
43.1462 63.7365 3.98541
41.546 65.6534 3.98673
39.6328 67.774 3.98799
37.526 70.0538 3.99038
39.7026 70.0291 2
39.8179 72.4056 3.99411
41.8609 69.8814 0.00942592
42.1112 72.2088 2
42.3947 74.6792 4
44.3766 71.8637 0.00572917
44.8159 74.2794 2
47.2057 73.7222 0
43.8514 5.35633 3.99054
46.5702 3.64565 3.99409
48.7844 4.32083 2
49.554 1.99015 4
50.9537 5.12996 0.00636287
51.8506 2.85453 2
54.0858 3.86728 0
60.2656 44.7789 0.0232929
61.2328 41.9633 0.0253773
62.1683 39.3568 0.0264899
63.9649 37.4568 0.0289677
62.0046 37.4448 2
60.2661 39.851 2
59.0157 42.9263 2
59.7802 37.5684 3.97239
58.0288 40.6621 3.97415
55.1541 39.7277 3.97615
62.1999 35.3574 0.0278629
60.3054 32.7407 0.0270563
58.6368 30.0657 0.0260039
56.6406 18.1403 0.0169848
56.3663 20.5036 0.0210091
56.1232 22.8501 0.0263109
57.3102 27.3662 0.0213401
56.3113 25.0852 0.0235788
54.4183 17.9049 0.0171027
52.3633 17.0201 0.0183378
51.3787 14.4838 0.0169483
48.0562 6.52409 0.0100103
49.3244 9.3248 0.012736
50.4332 11.9834 0.0150655
59.9113 35.1176 2
45.9621 5.87874 2
43.3733 7.46784 2
58.0151 32.2631 2
56.5646 29.3253 2
55.3478 19.1723 2
55.0129 21.5431 2
54.9474 24.0387 2
55.4696 26.5843 2
47.3547 8.61835 2
48.5997 11.2846 2
53.1285 18.6428 2
51.3053 18.0319 2
50.6348 16.1164 2
49.7142 13.7306 2
57.4241 34.7577 3.97524
55.7539 31.5098 3.97086
54.536 28.3884 3.97795
53.793 25.4814 3.97473
53.975 20.1203 3.98284
53.5934 22.6899 3.97303
41.3983 7.07351 3.98856
45.3594 7.99024 3.98782
42.8649 9.40881 3.98686
46.666 10.6463 3.98577
47.7452 13.0919 3.98409
48.9322 15.3883 3.98297
50.008 17.6863 3.97927
51.6556 19.3099 3.98601
50.3462 63.3878 0.0145394
51.245 60.9444 0.0169757
56.7418 44.1963 0.02551
55.5148 47.9113 0.0194282
52.3155 58.6459 0.0190268
54.225 57.2783 0.0189832
55.0877 51.4037 0.0250325
54.015 54.5621 0.024434
49.5917 61.7532 2
55.6774 41.7153 2
50.5683 59.3392 2
52.1911 56.5031 2
54.2145 45.5843 2
53.3648 49.3416 2
52.683 52.8663 2
48.8496 60.2113 3.98274
52.5865 42.6597 3.97511
49.7926 57.6386 3.98036
50.604 54.4385 3.97604
51.8516 47.2857 3.98007
51.2359 50.9595 3.97177
48.245 43.8002 3.98718
47.962 62.483 0.0152743
47.3289 61.0188 2
46.6191 59.8054 3.98267
41.6638 67.6941 0.0119187
43.3565 65.5153 0.0133138
44.7669 63.4636 0.0144213
45.987 61.5958 0.0159969
39.6328 67.7744 2
41.546 65.6538 2
45.7658 60.6405 2
43.146 63.7368 2
44.4825 61.846 2
44.6235 60.303 3.98349
42.95 62.0946 3.98486
41.5995 63.8302 3.98537
39.6476 65.6219 3.98666
37.5633 67.7565 3.98794
31.6972 65.1407 3.98673
33.392 67.4941 3.98787
35.3333 69.9639 3.99035
37.526 70.0543 2
37.5096 72.4601 3.99404
39.7026 70.0286 0.0095567
39.8179 72.4059 2
39.9526 74.9197 4
42.1111 72.2085 0.0057943
42.3947 74.6792 2
44.8159 74.2794 0
41.736 4.96544 3.99078
43.8514 5.35588 2
44.3255 3.10899 3.9942
46.5704 3.64541 2
47.2057 1.27793 4
48.7842 4.32104 0.00613991
49.554 1.99013 2
51.8506 2.85458 0
59.0153 42.9259 0.0256336
60.2655 39.8509 0.0253007
62.0041 37.4446 0.0286243
59.7807 37.5685 2
58.0295 40.6621 2
55.1548 39.7276 2
56.8593 37.8976 3.97515
49.6919 41.3361 3.98
53.1952 39.3125 3.97512
39.4416 6.79698 3.98875
59.9103 35.1176 0.0278275
58.0148 32.2635 0.0273642
56.5644 29.3257 0.0278182
55.3473 19.1733 0.0173226
55.0117 21.5442 0.0231729
54.9467 24.0382 0.0274712
55.4694 26.5843 0.020885
53.1283 18.6439 0.0186624
51.3052 18.0329 0.0154926
50.635 16.1173 0.0188096
45.9621 5.87921 0.00968548
49.7143 13.7314 0.0161907
47.3547 8.6188 0.0125011
48.5998 11.2852 0.0143556
43.3733 7.46831 0.0116279
57.4253 34.7579 2
41.3984 7.07299 2
45.3594 7.9898 2
42.8649 9.40831 2
55.7541 31.5095 2
54.5361 28.3886 2
53.9757 20.1188 2
53.5942 22.6863 2
53.7934 25.4818 2
46.6659 10.646 2
47.745 13.0913 2
51.656 19.3089 2
50.008 17.6854 2
48.932 15.3874 2
54.9295 33.968 3.97622
53.5267 30.4714 3.97417
52.6156 27.1842 3.97604
52.1609 24.0742 3.97348
52.3989 21.0484 3.9803
41.0129 9.04202 3.98693
44.7231 9.98918 3.98621
42.4675 10.8944 3.9852
46.0046 12.7201 3.98454
47.6818 14.5732 3.98363
48.1149 16.9753 3.98134
49.8201 19.5857 3.97757
49.592 61.7528 0.015834
50.5687 59.3386 0.018917
55.6764 41.7153 0.0239083
54.214 45.5833 0.0230433
53.365 49.3414 0.0241773
52.1912 56.5023 0.0217763
52.6829 52.8661 0.0264232
48.8493 60.2117 2
52.5879 42.6595 2
49.7924 57.639 2
50.6039 54.4393 2
51.8515 47.2858 2
51.2358 50.959 2
48.2403 43.8023 2
47.9883 58.7537 3.98179
50.1609 45.3014 3.97583
48.6038 55.9307 3.98171
49.1437 52.6129 3.97638
49.7003 49.0612 3.97292
46.1098 39.8911 3.91213
46.4981 42.7101 3.9584
46.5546 45.8452 3.9888
43.9507 41.1962 3.92866
42.1015 42.0077 3.90846
47.3292 61.0185 0.016497
46.6187 59.8055 2
45.4689 58.8021 3.98253
39.6328 67.774 0.0120141
41.546 65.6534 0.0132749
43.1462 63.7365 0.0145928
44.4828 61.8457 0.0157095
45.7661 60.6403 0.0167708
41.5994 63.8305 2
37.5633 67.757 2
39.6476 65.6223 2
44.6232 60.3032 2
42.9498 62.0949 2
41.7531 62.5056 3.98536
42.4814 59.9956 3.98423
39.8931 63.5659 3.9854
37.6422 65.5211 3.98621
35.4634 67.6659 3.98791
33.5754 65.3542 3.98656
31.9597 63.3144 3.98579
29.8833 64.7315 3.98672
31.6973 65.1411 2
31.3766 67.2037 3.98796
33.3921 67.4945 2
33.1561 69.7572 3.99035
35.3333 69.9644 2
35.195 72.3746 3.99402
37.526 70.0538 0.00962159
37.5095 72.4604 2
37.5 75 4
39.8179 72.4056 0.00588734
39.9526 74.9197 2
42.3947 74.6792 0
39.6235 4.71258 3.99092
41.736 4.96498 2
42.0619 2.71662 3.99436
43.8514 5.35633 0.00945703
44.3257 3.10873 2
44.8158 0.721173 4
46.5702 3.64565 0.0059089
47.2057 1.27779 2
49.554 1.99015 0
58.0288 40.6621 0.0258472
59.7802 37.5684 0.0276132
55.1541 39.7277 0.0238469
49.6938 41.3378 2
56.8598 37.8977 2
53.1958 39.3122 2
54.0443 36.6259 3.97667
47.6251 40.44 3.97195
50.6628 38.5082 3.97924
37.5154 6.66803 3.98876
39.4417 6.79644 2
39.2104 8.68451 3.98713
35.9408 8.48437 3.98737
57.4241 34.7577 0.0247634
55.7539 31.5098 0.0291383
54.536 28.3884 0.0220475
53.975 20.1203 0.0171633
53.5934 22.6899 0.026972
53.793 25.4814 0.0252715
51.6556 19.3099 0.0139898
50.008 17.6863 0.0207339
48.9322 15.3883 0.0170291
45.3594 7.99024 0.0121835
47.7452 13.0919 0.0159093
46.666 10.6463 0.0142273
41.3983 7.07351 0.0114385
42.8649 9.40881 0.0131382
54.931 33.9683 2
41.0129 9.04143 2
44.7231 9.98881 2
42.4674 10.8939 2
53.5266 30.4699 2
52.6162 27.1861 2
52.3998 21.0471 2
52.162 24.0747 2
46.0043 12.7198 2
47.6816 14.5725 2
49.8205 19.5844 2
48.1149 16.9742 2
52.477 32.8646 3.97609
51.3729 29.1422 3.9738
50.8149 25.7092 3.97198
49.9475 22.1644 3.97871
40.5682 11.5975 3.98485
43.8573 11.9094 3.98513
45.803 15.4081 3.98372
47.5061 19.2072 3.97982
46.4519 37.5057 3.91575
48.8496 60.2113 0.0172622
49.7926 57.6386 0.0196443
52.5865 42.6597 0.024888
51.8516 47.2857 0.0199319
51.2359 50.9595 0.028233
50.604 54.4385 0.0239629
48.245 43.8002 0.0128174
47.988 58.754 2
50.162 45.3042 2
48.6035 55.9311 2
49.1434 52.6161 2
49.6997 49.0609 2
46.1194 39.8957 2
46.5064 42.7193 2
46.5509 45.8401 2
43.9612 41.2015 2
42.1067 42.0093 2
46.8408 57.3571 3.98266
44.7175 39.4766 3.92126
42.4844 40.8796 3.9213
48.1331 47.2578 3.97784
47.1769 54.2666 3.98147
47.6091 50.7686 3.97643
44.8477 47.3965 3.99464
45.1759 41.9869 3.91512
44.9729 44.6162 3.95944
42.7571 42.713 3.93084
40.9562 42.3422 3.93286
46.6191 59.8054 0.0173329
45.4685 58.8022 2
43.8771 57.7269 3.98318
37.5633 67.7565 0.0120594
39.6476 65.6219 0.0133429
41.5995 63.8302 0.0146281
42.95 62.0946 0.0151442
44.6235 60.303 0.0165053
35.4634 67.6664 2
41.7529 62.5058 2
39.8929 63.5661 2
37.6422 65.5215 2
42.4811 59.9959 2
40.623 61.6647 3.98459
40.4455 58.2294 3.98353
37.8366 63.2276 3.98576
35.573 65.4434 3.98628
33.5755 65.3545 2
31.9598 63.3148 2
33.6292 63.3545 3.98565
30.3788 62.8729 3.98573
32.1234 62.0217 3.98494
26.8681 61.5161 3.98457
28.0621 64.1593 3.98652
29.8834 64.7319 2
29.406 66.7672 3.98799
31.6972 65.1407 0.0132658
31.3766 67.2041 2
31.0133 69.4222 3.99032
33.392 67.4941 0.0121266
33.156 69.7577 2
32.892 72.1488 3.99403
35.3333 69.9639 0.00965382
35.1949 72.3748 2
35.0474 74.9194 4
37.5096 72.4601 0.00595921
37.5 75 2
39.9526 74.9197 0
35.6198 6.71912 3.98876
37.5226 4.61206 3.99104
39.6235 4.71213 2
39.7884 2.47308 3.99447
41.736 4.96544 0.00921541
42.0621 2.71634 2
42.3946 0.32156 4
44.3255 3.10899 0.00579841
44.8159 0.72056 2
47.2057 1.27793 0
49.6919 41.3361 0.0200011
56.8593 37.8976 0.0248536
53.1952 39.3125 0.0248765
47.6276 40.441 2
50.6619 38.509 2
54.0448 36.626 2
51.4487 35.58 3.96625
48.2987 37.7719 3.97887
46.1133 35.1249 3.91508
43.9526 33.807 3.92629
42.0966 33.0013 3.90794
37.4571 8.52618 3.98729
37.5154 6.66752 2
39.4416 6.79698 0.0112498
39.2104 8.68387 2
38.9753 10.1164 3.98675
35.8973 9.76345 3.98628
34.1492 8.81385 3.98716
35.9408 8.48373 2
54.9295 33.968 0.0237758
53.5267 30.4714 0.0258303
52.6156 27.1842 0.0239591
52.3989 21.0484 0.0197014
52.1609 24.0742 0.0265181
49.8201 19.5857 0.0224318
48.1149 16.9753 0.0186577
47.6818 14.5732 0.0163663
44.7231 9.98918 0.0137858
46.0046 12.7201 0.0154581
41.0129 9.04202 0.0130691
42.4675 10.8944 0.0148019
52.4787 32.864 2
40.5681 11.5969 2
43.8571 11.909 2
51.3739 29.1444 2
50.8161 25.7108 2
49.9485 22.163 2
45.8027 15.4076 2
47.5064 19.2061 2
50.0706 31.4011 3.96746
49.3201 27.4595 3.97135
49.4233 24.3765 3.98195
47.1906 21.9076 3.9793
38.3007 12.7219 3.98437
42.1006 14.2922 3.98319
44.802 18.4407 3.9831
45.0038 37.5083 3.92198
46.4672 37.5086 2
47.9883 58.7537 0.0182135
48.6038 55.9307 0.0182916
50.1609 45.3014 0.0241654
49.7003 49.0612 0.0270795
49.1437 52.6129 0.0236159
46.1098 39.8911 0.0878721
46.4981 42.7101 0.0415988
46.5546 45.8452 0.0111993
43.9507 41.1962 0.0713434
42.1015 42.0077 0.0915444
46.8406 57.3573 2
44.73 39.4798 2
42.4852 40.8791 2
48.1318 47.257 2
47.1765 54.2664 2
47.609 50.7701 2
44.8475 47.3927 2
45.1827 41.9935 2
44.9826 44.6276 2
42.7734 42.7193 2
40.9616 42.3421 2
45.4008 55.9442 3.98225
42.8246 39.2666 3.93489
40.9296 40.7996 3.96576
46.127 48.9335 3.98226
45.5586 52.5641 3.98308
43.4898 48.4791 3.98919
43.3808 46.187 3.96565
43.7347 43.8021 3.91094
41.2368 43.8759 3.93298
39.3212 42.6712 3.93707
45.4689 58.8021 0.0174661
43.8767 57.7269 2
42.1079 56.3533 3.98371
35.4634 67.6659 0.0120902
37.6422 65.5211 0.0137858
39.8931 63.5659 0.0145956
41.7531 62.5056 0.0146382
42.4814 59.9956 0.0157709
35.573 65.4437 2
40.6226 61.6648 2
37.8365 63.2277 2
40.4452 58.2295 2
38.9265 56.524 3.98572
38.2505 60.3501 3.98493
35.607 63.2211 3.98543
33.5754 65.3542 0.0134443
31.9597 63.3144 0.0142115
33.6293 63.3547 2
30.3789 62.8732 2
32.1234 62.0219 2
28.6811 62.2182 3.98546
33.3461 61.5348 3.98511
31.0662 61.239 3.98473
27.5661 59.6145 3.98302
23.7878 59.1017 3.98326
25.033 60.8888 3.98364
26.8683 61.5164 2
26.2286 63.4914 3.9861
28.0623 64.1596 2
27.4626 66.1909 3.98796
29.8833 64.7315 0.0132793
29.4061 66.7677 2
28.9056 68.9476 3.99029
31.3766 67.2037 0.0120394
31.0132 69.4226 2
30.6145 71.7799 3.99405
33.1561 69.7572 0.00965195
32.8919 72.1491 2
32.6054 74.6784 4
35.195 72.3746 0.00598
35.0474 74.9197 2
37.5 75 0
33.7223 6.9738 3.98852
35.4339 4.68249 3.99097
35.6197 6.71854 2
37.514 2.38571 3.99454
37.5226 4.61163 2
39.6235 4.71258 0.00907662
39.7885 2.47279 2
39.9526 0.0806499 4
42.0619 2.71662 0.00564041
42.3947 0.320817 2
44.8158 0.721173 0
44.7281 35.5261 3.92091
42.4854 34.122 3.9205
47.6251 40.44 0.0280506
50.6628 38.5082 0.0207645
54.0443 36.6259 0.0233284
48.2991 37.77 2
51.4495 35.5791 2
46.1203 35.1221 2
43.9678 33.7972 2
42.0999 33.0017 2
48.4618 34.2734 4.00017
45.1727 33.0197 3.9064
42.7556 32.2959 3.93018
40.9483 32.6636 3.932
37.3093 10.6193 3.9858
37.4571 8.52554 2
37.5154 6.66803 0.0112448
39.2104 8.68451 0.0128698
38.9753 10.1156 2
34.7524 10.3689 3.98573
35.8972 9.76275 2
32.3759 9.36048 3.9864
34.1491 8.81309 2
35.9408 8.48437 0.0126285
52.477 32.8646 0.0239144
51.3729 29.1422 0.0261986
50.8149 25.7092 0.0280163
49.9475 22.1644 0.0212905
47.5061 19.2072 0.0201777
45.803 15.4081 0.0162823
43.8573 11.9094 0.014867
40.5682 11.5975 0.015153
50.0702 31.401 2
38.3004 12.7211 2
42.1001 14.2917 2
49.3212 27.4608 2
49.4244 24.3752 2
47.1916 21.9082 2
44.802 18.4398 2
47.853 29.5868 3.97201
47.126 25.0946 3.98507
44.2913 21.2897 3.98188
36.5804 12.9185 3.98395
38.68 14.7911 3.98283
41.7501 17.8203 3.98072
42.9644 37.4909 3.93116
45.0217 37.5079 2
46.4519 37.5057 0.08425
46.8408 57.3571 0.0173369
47.1769 54.2666 0.0185278
48.1331 47.2578 0.0221569
47.6091 50.7686 0.0235668
44.7175 39.4766 0.0787415
45.1759 41.9869 0.0848798
44.9729 44.6162 0.040563
44.8477 47.3965 0.00535892
42.7571 42.713 0.0691592
42.4844 40.8796 0.0786971
40.9562 42.3422 0.0671369
45.4006 55.9442 2
42.8273 39.2654 2
40.9289 40.7975 2
46.1268 48.932 2
45.5585 52.5631 2
43.4885 48.4863 2
43.4077 46.1981 2
43.7468 43.8092 2
41.2483 43.8759 2
39.3243 42.6719 2
43.7404 54.4552 3.98758
41.0125 39.1708 3.97139
39.2529 40.8792 3.97184
43.7318 50.5364 3.98833
41.9919 47.7199 3.99162
41.9059 45.1988 3.90502
39.4661 44.6288 3.93776
37.4979 42.8056 3.93525
43.8771 57.7269 0.0168247
42.1075 56.3534 2
40.4212 54.9603 3.9833
35.573 65.4434 0.0137223
37.8366 63.2276 0.014242
40.623 61.6647 0.0154053
40.4455 58.2294 0.016471
35.607 63.2213 2
38.2502 60.3499 2
38.926 56.525 2
38.0003 55.282 3.9852
36.9354 57.6553 3.98429
35.3636 60.9341 3.98511
33.6292 63.3545 0.0143545
30.3788 62.8729 0.0142652
32.1234 62.0217 0.0150587
33.3461 61.535 2
28.6813 62.2183 2
31.0663 61.239 2
29.4018 60.3086 3.98419
32.3556 59.7676 3.98407
28.0175 58.3941 3.98332
27.5663 59.6147 2
25.3747 58.6141 3.98197
22.7499 58.2605 3.98014
23.3979 60.3681 3.98265
23.788 59.1021 2
25.0332 60.8891 2
24.4309 62.7839 3.98543
26.8681 61.5161 0.0154274
26.2288 63.4917 2
25.5466 65.5008 3.98783
28.0621 64.1593 0.013482
27.4627 66.1913 2
26.8352 68.3359 3.99023
29.406 66.7672 0.0120137
28.9055 68.948 2
28.3696 71.2651 3.99405
31.0133 69.4222 0.00967945
30.6143 71.7801 2
30.1842 74.2788 4
32.892 72.1488 0.0059734
32.6053 74.6792 2
35.0474 74.9194 0
31.7867 7.41358 3.98824
33.3458 4.92168 3.9908
33.7222 6.97311 2
35.2442 2.46187 3.99449
35.434 4.68198 2
35.6198 6.71912 0.0112355
37.5 0 4
37.514 2.38542 2
37.5226 4.61206 0.00896308
39.7884 2.47308 0.00552866
39.9526 0.0802889 2
42.3946 0.32156 0
42.8342 35.7235 3.93259
44.7374 35.525 2
40.9312 34.2027 3.96463
42.4867 34.1225 2
48.2987 37.7719 0.0211295
51.4487 35.58 0.0337475
46.1133 35.1249 0.0849159
43.9526 33.807 0.0737133
42.0966 33.0013 0.0920646
48.4659 34.2707 2
45.1822 33.0137 2
42.7696 32.2911 2
40.9506 32.6621 2
46.3981 31.5393 3.97593
43.7271 31.2111 3.91384
41.2379 31.1249 3.92753
39.311 32.3345 3.93721
35.6906 11.7636 3.98424
37.3093 10.6185 2
37.4571 8.52618 0.012707
38.9753 10.1164 0.0132534
33.0963 11.2056 3.9845
34.7523 10.3681 2
35.8973 9.76345 0.0137193
30.4806 10.0087 3.9858
32.3758 9.35968 2
34.1492 8.81385 0.0128379
50.0706 31.4011 0.0325404
49.3201 27.4595 0.0286492
49.4233 24.3765 0.0180465
47.1906 21.9076 0.0206982
44.802 18.4407 0.0168951
42.1006 14.2922 0.0168109
38.3007 12.7219 0.0156273
36.5801 12.9178 2
47.851 29.5834 2
38.6795 14.7903 2
41.7498 17.8195 2
47.1275 25.0948 2
44.2919 21.2881 2
45.607 27.759 3.97939
43.8165 24.019 3.98433
41.3425 20.6975 3.9804
35.7701 14.7432 3.98313
38.6805 17.5773 3.98105
41.0613 37.4834 3.96937
42.968 37.4917 2
45.0038 37.5083 0.0780174
45.4008 55.9442 0.0177473
45.5586 52.5641 0.016919
46.127 48.9335 0.0177397
42.8246 39.2666 0.0651148
43.7347 43.8021 0.089057
43.3808 46.187 0.0343549
43.4898 48.4791 0.010814
41.2368 43.8759 0.0670247
40.9296 40.7996 0.0342366
39.3212 42.6712 0.0629322
43.7404 54.4556 2
41.0131 39.1697 2
39.2517 40.8799 2
43.7307 50.5399 2
41.9941 47.7282 2
41.9235 45.2044 2
37.4994 42.8071 2
39.4801 44.6237 2
41.8882 53.0279 3.99144
39.2407 39.1679 3.95634
37.4985 40.9212 3.9578
35.6805 42.6749 3.93711
40.9688 49.7679 4.00026
39.8113 46.0826 3.90335
37.5018 44.8836 3.93991
42.1079 56.3533 0.0162907
40.4205 54.9603 2
38.7296 53.8937 3.98608
35.607 63.2211 0.0145744
38.2505 60.3501 0.015067
38.9265 56.524 0.0142804
35.3635 60.9341 2
36.9349 57.6545 2
37.9995 55.2812 2
36.3191 55.4182 3.98715
34.4872 58.5468 3.98461
33.3461 61.5348 0.0148869
28.6811 62.2182 0.0145396
31.0662 61.239 0.0152708
32.3556 59.7675 2
29.402 60.3086 2
30.2933 57.8404 3.98421
28.0177 58.394 2
26.9351 56.8439 3.98122
27.5661 59.6145 0.0169835
25.3749 58.6143 2
23.8285 56.8263 3.97758
21.3245 57.4198 3.98018
21.9892 59.6405 3.98256
22.75 58.2609 2
22.7342 62.0349 3.98449
23.3981 60.3685 2
23.7878 59.1017 0.0167408
25.033 60.8888 0.0163563
24.4311 62.7842 2
23.6804 64.7192 3.98738
26.2286 63.4914 0.0138968
25.5468 65.5012 2
24.8075 67.597 3.99016
27.4626 66.1909 0.0120357
26.8352 68.3362 2
26.1648 70.6059 3.99402
28.9056 68.9476 0.00970505
28.3694 71.2652 2
27.7943 73.7221 4
30.6145 71.7799 0.00594701
30.1841 74.2794 2
32.6054 74.6784 0
29.8092 7.98688 3.98771
31.2509 5.32883 3.9905
31.7866 7.4128 2
32.98 2.69999 3.99438
33.3458 4.9211 2
33.7223 6.9738 0.0114833
35.0474 0.080333 4
35.2442 2.46156 2
35.4339 4.68249 0.00903148
37.5 0 2
37.514 2.38571 0.0054632
39.9526 0.0806499 0
41.0217 35.8075 3.9698
42.8355 35.725 2
44.7281 35.5261 0.079095
28.5414 10.6841 3.98561
39.2514 34.1254 3.9711
40.9299 34.2046 2
42.4854 34.122 0.0794971
48.4618 34.2734 -0.000168561
45.1727 33.0197 0.0936018
42.7556 32.2959 0.0698246
40.9483 32.6636 0.0680016
46.4104 31.536 2
43.7324 31.2046 2
41.2505 31.1204 2
39.3136 32.3344 2
44.4271 29.7138 3.96944
41.9044 29.8082 3.90596
39.4634 30.3784 3.93778
37.4858 32.1966 3.93693
34.0904 12.9216 3.98358
35.6905 11.7628 2
37.3093 10.6193 0.014199
31.1843 11.9739 3.98469
33.0962 11.2048 2
34.7524 10.3689 0.0142701
30.4805 10.0079 2
32.3759 9.36048 0.0136004
47.853 29.5868 0.0279903
47.126 25.0946 0.0149293
36.5804 12.9185 0.0160495
44.2913 21.2897 0.0181166
41.7501 17.8203 0.0192828
38.68 14.7911 0.0171696
35.7696 14.7427 2
45.6055 27.7523 2
38.6801 17.5761 2
41.3424 20.6958 2
43.8182 24.0218 2
33.6053 15.8601 3.98301
43.0899 26.5053 3.99378
40.9232 23.2711 3.98147
38.4215 20.3053 3.98257
35.8463 17.4906 3.98248
39.2496 37.4834 3.94455
41.0612 37.4832 2
42.9644 37.4909 0.0688356
43.7404 54.4552 0.0124173
43.7318 50.5364 0.0116748
41.0125 39.1708 0.0286126
41.9059 45.1988 0.0949824
41.9919 47.7199 0.00837545
39.4661 44.6288 0.0622376
39.2529 40.8792 0.0281614
37.4979 42.8056 0.0647497
41.8877 53.0293 2
39.2411 39.1683 2
37.498 40.9224 2
40.9674 49.768 2
35.6776 42.6763 2
39.8317 46.0981 2
37.4999 44.8801 2
39.83 51.9523 3.99789
37.4968 39.1759 3.92456
35.7461 40.8876 3.97196
34.0433 42.3417 3.93348
35.5219 44.6302 3.93571
38.7591 48.7617 4.01526
37.5067 46.399 3.90239
40.4212 54.9603 0.0167
38.7288 53.8921 2
36.7164 53.253 3.99581
35.3636 60.9341 0.0148906
36.9354 57.6553 0.015706
38.0003 55.282 0.0148009
34.4871 58.5464 2
36.3186 55.4161 2
33.2217 55.5334 3.98572
32.3556 59.7676 0.0159327
29.4018 60.3086 0.0158052
30.2935 57.8401 2
28.674 55.3337 3.98142
28.0175 58.3941 0.0166763
26.9354 56.844 2
25.2932 55.1644 3.97835
21.7916 55.3681 3.97724
25.3747 58.6141 0.0180323
23.8286 56.8266 2
20.2077 57.05 3.98218
20.6388 58.7986 3.98185
21.3246 57.4203 2
21.1636 61.1849 3.98406
21.9894 59.6409 2
22.7499 58.2605 0.0198622
21.8936 63.847 3.9866
22.7344 62.0353 2
23.3979 60.3681 0.0173526
24.4309 62.7839 0.0145732
23.6806 64.7197 2
22.8358 66.7408 3.99006
25.5466 65.5008 0.0121731
24.8075 67.5973 2
24.0091 69.807 3.99395
26.8352 68.3359 0.00976673
26.1646 70.606 2
25.446 73.0099 4
28.3696 71.2651 0.00594759
27.7943 73.7222 2
30.1842 74.2788 0
27.8191 8.64656 3.98739
29.1529 5.87461 3.99009
29.8091 7.98617 2
30.7252 3.09713 3.99418
31.2508 5.32819 2
31.7867 7.41358 0.0117583
32.6053 0.320823 4
32.9799 2.69966 2
33.3458 4.92168 0.00920304
35.0474 0.0802903 2
35.2442 2.46187 0.00551113
37.5 0 0
39.2477 35.8118 3.95555
41.0218 35.8084 2
42.8342 35.7235 0.0674127
28.5413 10.6835 2
26.6203 11.3794 3.98529
29.2231 12.6305 3.98468
37.4941 34.0815 3.95582
39.2499 34.1251 2
40.9312 34.2027 0.0353664
46.3981 31.5393 0.0240661
43.7271 31.2111 0.0861613
41.2379 31.1249 0.0724666
39.311 32.3345 0.0627855
44.4395 29.7062 2
41.9225 29.7985 2
39.4753 30.3817 2
37.4862 32.1936 2
42.3486 28.3507 3.95802
39.8204 28.9232 3.90992
37.4894 30.1142 3.94024
35.6671 32.3235 3.93743
31.9118 14.4667 3.98362
34.0903 12.9208 2
35.6906 11.7636 0.0157564
31.1842 11.9731 2
33.0963 11.2056 0.0154975
30.4806 10.0087 0.0142037
45.607 27.759 0.0206068
43.8165 24.019 0.0156654
35.7701 14.7432 0.0168667
41.3425 20.6975 0.0196018
38.6805 17.5773 0.0189478
33.605 15.8599 2
35.8459 17.4903 2
43.0891 26.5068 2
38.4212 20.3043 2
40.9242 23.2675 2
33.5472 17.3679 3.98414
40.4666 25.6176 4.01125
38.0803 22.8329 3.98993
35.582 20.0572 3.98367
37.4984 37.492 3.91689
39.2496 37.4838 2
41.0613 37.4834 0.0306336
41.8882 53.0279 0.00855936
40.9688 49.7679 -0.000259755
39.2407 39.1679 0.0436581
39.8113 46.0826 0.0966537
37.5018 44.8836 0.0600851
37.4985 40.9212 0.0422026
35.6805 42.6749 0.0628895
39.8298 51.9519 2
37.497 39.1765 2
35.7461 40.8897 2
38.7546 48.7875 2
34.0393 42.3434 2
35.514 44.6297 2
37.5025 46.4178 2
37.6699 51.0531 4.00557
35.7574 39.1815 3.95609
34.0741 40.8072 3.96393
32.8947 42.0045 3.909
33.7495 43.8722 3.93165
35.1875 46.0851 3.90903
36.8885 48.4103 3.99887
38.7296 53.8937 0.0139185
36.7161 53.2497 2
34.3508 52.5121 3.98888
34.4872 58.5468 0.015388
36.3191 55.4182 0.0128496
33.2217 55.5324 2
30.4999 53.4359 3.98462
30.2933 57.8404 0.0157854
28.6743 55.3331 2
26.8576 53.4677 3.97797
26.9351 56.8439 0.0187801
25.2935 55.1645 2
23.5473 53.5068 3.97511
20.4422 53.2497 3.97429
19.9172 55.8539 3.98119
21.7916 55.3686 2
23.8285 56.8263 0.0224202
19.4297 57.9107 3.9816
20.2077 57.0505 2
19.7022 60.2189 3.98308
20.6389 58.799 2
21.3245 57.4198 0.0198184
20.2056 62.8683 3.98577
21.1638 61.1854 2
21.9892 59.6405 0.0174362
20.9372 65.7698 3.98961
21.8938 63.8475 2
22.7342 62.0349 0.0155091
23.6804 64.7192 0.012618
22.8358 66.7412 2
21.9116 68.8742 3.99386
24.8075 67.597 0.00984063
24.0089 69.8071 2
23.1494 72.1454 4
26.1648 70.6059 0.00597829
25.446 73.0099 2
27.7943 73.7221 0
25.8584 9.37459 3.98694
27.0676 6.53871 3.98971
27.8191 8.64592 2
28.4874 3.64303 3.99393
29.1527 5.87403 2
29.8092 7.98688 0.012286
30.1841 0.720592 4
30.725 3.09681 2
31.2509 5.32883 0.00950228
32.6053 0.320817 2
32.98 2.69999 0.00562306
35.0474 0.080333 0
37.4993 35.814 3.9227
39.2474 35.8119 2
41.0217 35.8075 0.0302003
24.7751 12.0623 3.98528
23.7489 14.3463 3.98427
28.5414 10.6841 0.0143857
26.6203 11.3789 2
29.2231 12.6299 2
27.2892 13.3636 3.98457
29.7777 14.1891 3.98375
35.7423 34.1105 3.97107
37.4933 34.0796 2
39.2514 34.1254 0.0288953
37.4858 32.1966 0.0630724
44.4271 29.7138 0.0305642
41.9044 29.8082 0.0940376
39.4634 30.3784 0.0622165
42.359 28.3382 2
39.8384 28.9109 2
37.4888 30.1201 2
35.6648 32.3229 2
40.0307 27.5244 3.97525
37.4959 28.5929 3.9053
35.5066 30.3676 3.93651
34.0364 32.6484 3.9308
30.9229 16.8228 3.98332
31.9118 14.466 2
34.0904 12.9216 0.0164162
31.1843 11.9739 0.0153118
43.0899 26.5053 0.00621718
40.9232 23.2711 0.0185277
33.6053 15.8601 0.0169898
35.8463 17.4906 0.0175164
38.4215 20.3053 0.0174312
33.5468 17.3681 2
35.5816 20.0564 2
40.4644 25.6174 2
38.0804 22.8327 2
32.8598 19.7728 3.98405
37.792 25.1302 4.02827
35.202 22.6147 3.98144
35.7502 37.4959 3.94428
37.4986 37.492 2
39.2496 37.4834 0.0554543
39.83 51.9523 0.00211086
38.7591 48.7617 -0.0152608
37.4968 39.1759 0.0754418
37.5067 46.399 0.0976091
35.5219 44.6302 0.0642862
35.7461 40.8876 0.0280393
34.0433 42.3417 0.0665179
37.6697 51.0597 2
35.7577 39.1827 2
34.0741 40.8048 2
36.8855 48.4193 2
32.89 42.0045 2
33.7401 43.8786 2
35.1637 46.0955 2
35.4278 50.1906 4.00577
33.9911 39.1846 3.96796
32.5097 40.8795 3.92077
32.2333 42.7058 3.92981
33.1057 45.1838 3.91409
34.2824 47.4747 3.9747
36.7164 53.253 0.00418633
34.3507 52.5114 2
31.9702 51.2415 3.9886
33.2217 55.5334 0.0142789
30.5004 53.4364 2
28.3951 51.6534 3.98001
28.674 55.3337 0.0185752
26.858 53.4689 2
25.0439 51.7918 3.97362
25.2932 55.1644 0.0216527
23.5475 53.5074 2
21.931 51.8346 3.97309
19.1714 51.6585 3.97359
18.9015 54.3306 3.97741
20.4423 53.2501 2
18.4354 56.7431 3.98234
19.9171 55.8544 2
21.7916 55.3681 0.022759
18.3628 59.1265 3.98178
19.4298 57.9112 2
20.2077 57.05 0.017824
18.6159 61.7762 3.98476
19.7023 60.2194 2
20.6388 58.7986 0.0181503
19.126 64.6807 3.98889
20.2058 62.8689 2
21.1636 61.1849 0.0159374
19.8857 67.8109 3.99359
20.9373 65.7702 2
21.8936 63.847 0.0133971
22.8358 66.7408 0.00994208
21.9114 68.8743 2
20.9142 71.1327 4
24.0091 69.807 0.00605251
23.1494 72.1455 2
25.446 73.0099 0
23.0943 12.777 3.98493
23.971 10.1611 3.98671
25.0215 7.30874 3.98951
25.8584 9.37401 2
26.2791 4.32723 3.99367
27.0675 6.53817 2
27.8191 8.64656 0.0126064
27.7943 1.27781 4
28.4872 3.64277 2
29.1529 5.87461 0.00990571
30.1841 0.720551 2
30.7252 3.09713 0.00581942
32.6053 0.320823 0
35.7536 35.8122 3.95523
37.4991 35.8132 2
39.2477 35.8118 0.0444481
24.7752 12.0619 2
23.7491 14.3462 2
22.4772 15.0226 3.98385
25.3553 13.8956 3.9842
24.0215 15.6079 3.98357
26.6203 11.3794 0.0147111
29.2231 12.6305 0.0153193
27.2893 13.3633 2
29.7777 14.1885 2
28.3533 15.963 3.98397
34.077 34.1917 3.96422
35.7426 34.1106 2
37.4941 34.0815 0.0441796
35.6671 32.3235 0.0625738
37.4894 30.1142 0.0597575
42.3486 28.3507 0.0419817
39.8204 28.9232 0.0900844
40.0359 27.5155 2
37.4959 28.5772 2
35.4953 30.3697 2
34.0365 32.6444 2
37.6238 27.2113 3.97996
35.1514 28.9073 3.90897
33.7311 31.117 3.93007
32.8927 32.9884 3.90939
30.2033 19.3254 3.98462
30.9228 16.8223 2
31.9118 14.4667 0.0163799
40.4666 25.6176 -0.0112524
38.0803 22.8329 0.0100696
33.5472 17.3679 0.0158641
35.582 20.0572 0.0163294
32.8591 19.7734 2
35.2017 22.6124 2
37.7925 25.1329 2
32.3048 22.3854 3.98351
34.9485 25.1431 4.0037
33.9444 37.497 3.96746
35.7507 37.4967 2
37.4984 37.492 0.0831121
37.6699 51.0531 -0.00557004
36.8885 48.4103 0.00113228
35.7574 39.1815 0.0439074
35.1875 46.0851 0.0909697
33.7495 43.8722 0.0683526
34.0741 40.8072 0.0360666
32.8947 42.0045 0.0909971
35.4266 50.1955 2
33.9917 39.183 2
32.5076 40.8777 2
34.2767 47.5027 2
32.2197 42.707 2
33.0888 45.1991 2
33.191 49.1816 4.00521
32.1671 39.2722 3.93436
31.0391 41.1872 3.9282
31.2649 43.7877 3.91198
32.2329 46.4016 3.97088
34.3508 52.5121 0.0111237
31.9704 51.2424 2
29.8037 49.7599 3.98298
30.4999 53.4359 0.0153849
28.3956 51.6513 2
26.4572 50.0335 3.97384
26.8576 53.4677 0.0220298
25.0443 51.7915 2
23.2967 50.2282 3.97233
23.5473 53.5068 0.0248869
21.9311 51.8346 2
20.4288 50.3402 3.97325
17.9592 50.3493 3.97549
17.8102 52.8125 3.97576
19.1718 51.6587 2
17.4216 55.3593 3.97981
18.9014 54.3311 2
20.4422 53.2497 0.0257052
17.1267 57.889 3.98271
18.4354 56.7436 2
19.9172 55.8539 0.0188061
17.1325 60.5599 3.9835
18.3629 59.127 2
19.4297 57.9107 0.0184005
17.4061 63.4736 3.98779
18.616 61.7768 2
19.7022 60.2189 0.0169196
17.9418 66.6193 3.99323
19.1261 64.6812 2
20.2056 62.8683 0.0142292
18.75 69.9759 4
19.8854 67.8109 2
20.9372 65.7698 0.0103864
21.9116 68.8742 0.00613556
20.9142 71.1327 2
23.1494 72.1454 0
21.5848 13.5968 3.98461
22.1891 11.0203 3.9862
23.0945 12.7768 2
23.0396 8.17408 3.98934
23.9711 10.1607 2
24.1168 5.14188 3.99351
25.0214 7.30829 2
25.8584 9.37459 0.013058
25.446 1.99014 4
26.2788 4.32703 2
27.0676 6.53871 0.0102876
27.7943 1.27778 2
28.4874 3.64303 0.00606691
30.1841 0.720592 0
33.9842 35.8108 3.96853
35.7534 35.8127 2
37.4993 35.814 0.0773044
21.3019 15.8182 3.98325
24.7751 12.0623 0.0147198
23.7489 14.3463 0.0157287
25.3554 13.8953 2
22.4775 15.0225 2
24.0219 15.6078 2
23.2603 16.2392 3.98323
25.3768 16.0756 3.98405
27.2892 13.3636 0.0154292
29.7777 14.1891 0.0162468
28.3536 15.9628 2
27.4349 18.7841 3.98443
32.5221 34.1132 3.92206
34.0783 34.1913 2
35.7423 34.1105 0.0289283
34.0364 32.6484 0.0691994
35.5066 30.3676 0.0634878
37.4959 28.5929 0.0947018
40.0307 27.5244 0.0247522
37.6192 27.1806 2
32.8926 32.9891 2
35.1307 28.8924 2
33.7178 31.1061 2
35.0598 27.3282 3.98194
33.0704 29.8033 3.91082
32.2196 32.2762 3.92741
29.5658 21.9196 3.99085
30.2032 19.3254 2
30.9229 16.8228 0.0166826
37.792 25.1302 -0.0282737
35.202 22.6147 0.0185619
32.8598 19.7728 0.0159487
32.3044 22.3865 2
34.9515 25.1486 2
31.6484 25.6015 3.99297
32.0365 37.4977 3.93224
33.9456 37.496 2
35.7502 37.4959 0.0557213
35.4278 50.1906 -0.00576798
34.2824 47.4747 0.0253013
33.9911 39.1846 0.0320386
33.1057 45.1838 0.0859113
32.2333 42.7058 0.0701903
32.5097 40.8795 0.0792269
33.1906 49.1645 2
32.1654 39.2699 2
31.024 41.1924 2
32.2177 46.4174 2
31.2561 43.7947 2
31.0735 47.9914 4.00125
30.2668 39.4639 3.92125
29.8198 41.979 3.90893
30.3604 44.9826 3.97145
31.9702 51.2415 0.0113962
29.804 49.7551 2
27.8011 48.2312 3.97819
28.3951 51.6534 0.0199856
26.4577 50.0319 2
24.5911 48.505 3.97439
25.0439 51.7918 0.0263787
23.2973 50.228 2
21.6049 48.8171 3.97473
21.931 51.8346 0.026913
20.4293 50.34 2
18.9984 49.1123 3.97695
16.8679 49.3465 3.97828
16.7504 51.4243 3.97613
17.9598 50.3495 2
16.3717 53.8877 3.97802
17.8103 52.8128 2
19.1714 51.6585 0.0264138
15.9661 56.4906 3.98161
17.4214 55.3598 2
18.9015 54.3306 0.0225925
15.7448 59.221 3.9834
17.1267 57.8895 2
18.4354 56.7431 0.0176643
15.7862 62.1442 3.98638
17.1327 60.5605 2
18.3628 59.1265 0.0182241
16.0883 65.3019 3.99288
17.4061 63.4741 2
18.6159 61.7762 0.0152409
16.6661 68.6801 4
17.9415 66.6193 2
19.126 64.6807 0.0111095
18.75 69.9759 2
19.8857 67.8109 0.00640798
20.9142 71.1327 0
20.2165 14.5855 3.98395
21.5851 13.5968 2
20.5282 11.9898 3.98573
21.1427 9.14366 3.98918
22.1892 11.0199 2
23.0943 12.777 0.0150695
22.0158 6.08085 3.99336
23.0395 8.17371 2
23.971 10.1611 0.0132909
23.1494 2.85457 4
24.1164 5.14176 2
25.0215 7.30874 0.0104896
25.446 1.99012 2
26.2791 4.32723 0.00632926
27.7943 1.27781 0
32.1708 35.7202 3.93389
33.9849 35.8104 2
35.7536 35.8122 0.0447746
21.3021 15.8178 2
20.2985 16.9518 3.98367
22.0933 16.6234 3.9825
25.3553 13.8956 0.0157975
22.4772 15.0226 0.0161517
24.0215 15.6079 0.0164307
25.3771 16.0754 2
23.2607 16.2392 2
24.1991 18.4376 3.98203
27.0026 21.4422 3.98409
28.3533 15.963 0.0160312
27.4349 18.7842 2
31.0448 33.7982 3.92511
32.5204 34.116 2
34.077 34.1917 0.0357833
32.8927 32.9884 0.0906139
33.7311 31.117 0.0699251
35.1514 28.9073 0.0910299
37.6238 27.2113 0.0200397
35.0499 27.3119 2
32.2169 32.2809 2
33.0557 29.789 2
32.4864 28.0521 3.98921
31.2363 31.2016 3.91237
28.7643 24.3847 3.9871
29.5653 21.9205 2
30.2033 19.3254 0.0153784
34.9485 25.1431 -0.003695
32.3048 22.3854 0.0164883
31.6497 25.59 2
29.5826 27.2901 3.97849
29.9866 37.4866 3.92135
32.0358 37.4972 2
33.9444 37.497 0.0325415
33.191 49.1816 -0.00520588
32.2329 46.4016 0.0291163
32.1671 39.2722 0.065636
31.2649 43.7877 0.0880165
31.0391 41.1872 0.0717983
31.0751 47.9892 2
30.2554 39.4708 2
29.8101 41.9862 2
30.3463 44.9935 2
29.0917 46.5363 3.99024
28.879 39.8713 3.90985
28.5613 43.1973 3.96807
29.8037 49.7599 0.0170153
27.8019 48.2273 2
25.8659 46.6945 3.98143
26.4572 50.0335 0.0261566
24.5921 48.5047 2
22.7441 47.1118 3.979
23.2967 50.2282 0.0276721
21.6059 48.8167 2
19.9443 47.6398 3.97928
20.4288 50.3402 0.0267512
18.9991 49.1125 2
17.6428 48.1938 3.97986
16.1203 48.6959 3.98025
16.8685 49.3469 2
15.829 50.1837 3.97751
15.3607 52.4297 3.97739
16.7507 51.4246 2
17.9592 50.3493 0.0245133
14.8562 54.9906 3.97984
16.3716 53.888 2
17.8102 52.8125 0.0242405
14.4527 57.7499 3.98297
15.966 56.4911 2
17.4216 55.3593 0.020192
14.2637 60.6987 3.98545
15.7449 59.2216 2
17.1267 57.889 0.0172858
14.3324 63.8611 3.99225
15.7862 62.1448 2
17.1325 60.5599 0.0165039
14.6715 67.2507 4
16.0881 65.3019 2
17.4061 63.4736 0.0122111
16.6661 68.6801 2
17.9418 66.6193 0.00676598
18.75 69.9759 0
18.9298 15.7723 3.98345
20.2167 14.5853 2
18.9776 13.1005 3.98503
21.5848 13.5968 0.0153854
20.5284 11.9896 2
19.342 10.2312 3.98887
19.9904 7.14545 3.9933
21.1427 9.14333 2
22.1891 11.0203 0.0138
20.9142 3.86727 4
22.0155 6.08082 2
23.0396 8.17408 0.0106599
23.1494 2.85451 2
24.1168 5.14188 0.0064864
25.446 1.99014 0
30.2748 35.5276 3.9245
32.1685 35.7215 2
33.9842 35.8108 0.0314693
21.3019 15.8182 0.0167463
22.0935 16.6231 2
20.2985 16.9512 2
19.2365 18.3981 3.98303
21.7769 17.8391 3.9828
25.3768 16.0756 0.0159503
23.2603 16.2392 0.0167725
24.1993 18.4377 2
22.269 19.8796 3.98125
24.5791 21.3079 3.98292
26.3889 23.7076 3.9811
27.003 21.4428 2
27.4349 18.7841 0.0155657
29.8171 33.0018 3.91022
31.0307 33.7843 2
32.5221 34.1132 0.0779423
32.2196 32.2762 0.0725891
33.0704 29.8033 0.089181
35.0598 27.3282 0.0180642
32.4729 28.0468 2
31.2413 31.2014 2
30.0339 29.5044 3.98079
27.8242 26.5274 3.97226
28.7647 24.3894 2
29.5658 21.9196 0.00915061
31.6484 25.6015 0.00703145
29.5748 27.2542 2
28.5369 37.4906 3.91717
29.9764 37.4892 2
32.0365 37.4977 0.0677607
31.0735 47.9914 -0.00125004
30.3604 44.9826 0.0285492
30.2668 39.4639 0.0787462
29.8198 41.979 0.0910654
29.0953 46.5545 2
28.8692 39.8745 2
28.5486 43.2082 2
27.1693 44.8354 3.97689
26.659 40.6308 3.99851
27.8011 48.2312 0.0218148
25.8673 46.6927 2
23.9064 45.2419 3.97284
24.5911 48.505 0.025612
22.7453 47.1111 2
20.8772 45.9215 3.9786
21.6049 48.8171 0.025273
19.9453 47.6402 2
18.2894 46.7541 3.98006
18.9984 49.1123 0.0230494
17.6434 48.1943 2
16.311 47.7255 3.97992
16.1208 48.6964 2
15.1766 49.0263 3.97876
16.8679 49.3465 0.0217228
15.8295 50.1841 2
14.4752 50.9955 3.97757
13.8178 53.4448 3.9788
15.3609 52.4301 2
16.7504 51.4243 0.0238691
13.2467 56.1769 3.98179
14.8561 54.9911 2
16.3717 53.8877 0.0219823
12.8454 59.1323 3.98533
14.4527 57.7504 2
15.9661 56.4906 0.0183917
12.6777 62.3038 3.9913
14.2638 60.699 2
15.7448 59.221 0.0165996
12.7746 65.6939 4
14.3322 63.8611 2
15.7862 62.1442 0.0136151
14.6714 67.2507 2
16.0883 65.3019 0.00711817
16.6661 68.6801 0
17.6632 17.1476 3.98295
18.9299 15.7719 2
17.5088 14.3648 3.98433
20.2165 14.5855 0.016053
18.9779 13.1002 2
17.6376 11.4501 3.98806
20.5282 11.9898 0.0142729
19.3422 10.2309 2
18.0505 8.33825 3.9932
18.75 5.0241 4
19.9901 7.1455 2
21.1427 9.14366 0.0108166
20.9142 3.86727 2
22.0158 6.08085 0.00664469
23.1494 2.85457 0
28.8784 35.1021 3.91134
30.2622 35.5245 2
32.1708 35.7202 0.0661114
22.0933 16.6234 0.0174961
20.2985 16.9518 0.0163345
21.777 17.8385 2
19.2365 18.3975 2
17.9706 19.9298 3.98219
20.8681 19.3663 3.98288
24.1991 18.4376 0.0179743
22.2693 19.8789 2
24.5796 21.3083 2
22.3429 21.7041 3.98268
24.6717 23.1528 3.98115
25.412 25.9357 3.97256
26.3899 23.7071 2
27.0026 21.4422 0.0159076
28.2022 32.275 3.96155
29.8094 33.0007 2
31.0448 33.7982 0.0748883
31.2363 31.2016 0.0876298
32.4864 28.0521 0.010789
30.0094 29.4948 2
26.9347 29.1194 3.98259
27.8199 26.5247 2
28.7643 24.3847 0.0129021
29.5826 27.2901 0.0215147
26.7641 37.3503 3.97358
28.5286 37.4891 2
29.9866 37.4866 0.0786547
29.0917 46.5363 0.00976115
28.5613 43.1973 0.0319327
28.879 39.8713 0.0901505
27.1736 44.8369 2
26.6545 40.6361 2
25.1451 43.1931 3.96755
23.9008 39.4258 3.96698
25.8659 46.6945 0.0185746
23.9068 45.2427 2
21.8485 43.9711 3.9759
22.7441 47.1118 0.0210046
20.8785 45.9221 2
18.9495 44.9859 3.9744
19.9443 47.6398 0.0207245
18.2901 46.7549 2
16.6026 46.2243 3.97725
17.6428 48.1938 0.0201391
16.3115 47.7261 2
14.9073 47.6792 3.97811
16.1203 48.6959 0.0197538
15.177 49.0268 2
13.7741 49.5542 3.9779
15.829 50.1837 0.0224893
14.4755 50.9959 2
12.8851 51.8814 3.97829
12.1339 54.5338 3.98072
13.8178 53.4453 2
15.3607 52.4297 0.0226064
11.5294 57.4638 3.98466
13.2466 56.1774 2
14.8562 54.9906 0.0201605
11.1321 60.6299 3.99044
12.8455 59.1326 2
14.4527 57.7499 0.0170336
10.9835 64.0165 4
12.6776 62.3036 2
14.2637 60.6987 0.0145517
12.7745 65.694 2
14.3324 63.8611 0.0077482
14.6715 67.2507 0
16.3945 18.6412 3.98279
17.6632 17.147 2
16.0994 15.7736 3.98412
18.9298 15.7723 0.0165533
17.509 14.3642 2
16.0192 12.8035 3.98667
18.9776 13.1005 0.0149715
17.6378 11.4496 2
16.2017 9.66136 3.99291
19.342 10.2312 0.0111281
18.0503 8.33835 2
16.6661 6.31991 4
18.75 5.02404 2
19.9904 7.14545 0.00670481
20.9142 3.86727 0
27.2734 34.7352 3.96085
28.8669 35.0995 2
30.2748 35.5276 0.0755037
16.6693 21.3655 3.97963
21.7769 17.8391 0.0171973
19.2365 18.3981 0.0169703
20.8682 19.3655 2
17.9707 19.9292 2
19.7106 21.5586 3.98458
22.269 19.8796 0.0187486
24.5791 21.3079 0.0170793
22.3434 21.7027 2
24.6718 23.1528 2
22.8157 24.5873 3.97656
24.4792 28.5121 3.96924
25.4094 25.9336 2
26.3889 23.7076 0.018898
26.0437 31.6904 3.98887
28.193 32.2673 2
29.8171 33.0018 0.0897767
30.0339 29.5044 0.0192065
26.9397 29.1197 2
27.8242 26.5274 0.0277448
24.5803 36.8503 3.98132
26.7614 37.3551 2
28.5369 37.4906 0.0828335
27.1693 44.8354 0.023115
26.659 40.6308 0.00148846
25.1437 43.1952 2
23.8992 39.4279 2
22.8934 41.8094 3.97799
21.6464 38.4952 3.97269
23.9064 45.2419 0.0271572
21.8493 43.9732 2
19.6954 42.8968 3.97219
20.8772 45.9215 0.0213994
18.9501 44.9868 2
16.9302 44.3894 3.97265
18.2894 46.7541 0.0199422
16.6031 46.225 2
14.8294 46.098 3.9752
16.311 47.7255 0.0200761
14.9077 47.6799 2
13.2823 48.0147 3.97698
15.1766 49.0263 0.021237
13.7745 49.5547 2
12.105 50.2578 3.97797
14.4752 50.9955 0.0224254
12.8853 51.8819 2
11.1298 52.8408 3.97986
10.3197 55.7145 3.98365
12.1338 54.5344 2
13.8178 53.4448 0.0211962
9.69857 58.852 3.98933
11.5293 57.4644 2
13.2467 56.1769 0.0182088
9.30605 62.2254 4
11.1319 60.6299 2
12.8454 59.1323 0.0146727
10.9835 64.0165 2
12.6777 62.3038 0.00869755
12.7746 65.6939 0
15.1383 20.1754 3.98099
16.3946 18.6406 2
14.7443 17.2962 3.98334
17.6632 17.1476 0.0170467
16.0994 15.7729 2
14.4814 14.2854 3.98577
17.5088 14.3648 0.0156672
16.0193 12.8028 2
14.4443 11.1125 3.99241
17.6376 11.4501 0.0119427
16.2015 9.66139 2
14.6715 7.74927 4
18.0505 8.33825 0.00679699
16.6661 6.31988 2
18.75 5.0241 0
25.2226 34.2529 3.98715
27.2677 34.7349 2
28.8784 35.1021 0.0886636
17.8406 22.3099 3.98536
15.5134 22.9094 3.97747
16.6692 21.3646 2
20.8681 19.3663 0.017124
17.9706 19.9298 0.0178055
19.7107 21.5577 2
19.6396 24.364 3.97881
22.3429 21.7041 0.0173206
24.6717 23.1528 0.0188475
22.8138 24.5853 2
21.8607 27.806 3.97071
23.6423 31.1704 3.97149
24.4814 28.5116 2
25.412 25.9357 0.0274392
26.0483 31.6861 2
28.2022 32.275 0.0384509
26.9347 29.1194 0.0174109
22.358 36.2638 3.97992
24.5795 36.851 2
26.7641 37.3503 0.0264216
25.1451 43.1931 0.0324523
23.9008 39.4258 0.0330193
22.8919 41.8108 2
21.646 38.4958 2
20.6194 40.6305 3.97477
20.0057 37.7758 3.97474
21.8485 43.9711 0.024102
19.6955 42.8978 2
17.3224 42.1049 3.97385
18.9495 44.9859 0.0255969
16.9305 44.3903 2
14.8295 44.206 3.97326
16.6026 46.2243 0.022751
14.8298 46.0987 2
12.956 46.3 3.97471
14.9073 47.6792 0.0218893
13.2827 48.0154 2
11.4776 48.553 3.97689
13.7741 49.5542 0.0221046
12.1053 50.2584 2
10.2562 51.0826 3.9791
12.8851 51.8814 0.0217129
11.1299 52.8414 2
9.22866 53.8912 3.9828
8.38205 56.984 3.98832
10.3196 55.7151 2
12.1339 54.5338 0.0192787
7.74927 60.3285 4
9.69828 58.852 2
11.5294 57.4638 0.0153412
9.306 62.2255 2
11.1321 60.6299 0.00956262
10.9835 64.0165 0
13.9498 21.7423 3.97935
15.1383 20.1746 2
13.4443 18.8931 3.98224
16.3945 18.6412 0.017212
14.7444 17.2955 2
13.0264 15.878 3.98519
16.0994 15.7736 0.0158798
14.4815 14.2846 2
12.7816 12.6857 3.99165
16.0192 12.8035 0.0133329
14.4442 11.1125 2
12.7746 9.30605 4
16.2017 9.66136 0.0070943
14.6715 7.74924 2
16.6661 6.31991 0
22.952 33.7867 3.9746
25.2181 34.2518 2
27.2734 34.7352 0.0391543
17.6075 24.0287 3.97919
17.8403 22.3088 2
14.2961 24.4423 3.97574
15.5127 22.9082 2
16.6693 21.3655 0.0203654
18.9968 27.1862 3.96913
19.7106 21.5586 0.0154231
19.6381 24.3633 2
21.0913 30.6453 3.97237
22.8157 24.5873 0.023442
21.8616 27.8054 2
23.6392 31.1703 2
24.4792 28.5121 0.0307631
26.0437 31.6904 0.0111344
20.1239 35.9116 3.97778
22.3566 36.265 2
24.5803 36.8503 0.0186824
22.8934 41.8094 0.0220094
21.6464 38.4952 0.0273066
20.6182 40.6308 2
20.0042 37.7761 2
17.9989 38.9994 3.97426
19.6954 42.8968 0.0278108
17.3222 42.1057 2
14.7754 41.921 3.97374
16.9302 44.3894 0.0273498
14.8297 44.2069 2
12.6953 44.3953 3.97389
14.8294 46.098 0.0247996
12.9563 46.3007 2
10.9808 46.7355 3.97502
13.2823 48.0147 0.0230245
11.478 48.5537 2
9.52044 49.2409 3.97793
12.105 50.2578 0.0220263
10.2564 51.0832 2
8.26197 52.0027 3.98196
11.1298 52.8408 0.0201447
9.22864 53.8917 2
7.19103 55.0332 3.98773
6.31991 58.3339 4
8.38164 56.9835 2
10.3197 55.7145 0.0163534
7.74924 60.3285 2
9.69857 58.852 0.0106714
9.30605 62.2254 0
13.2176 25.356 3.98095
12.8171 23.2726 3.97788
13.9494 21.7412 2
12.2291 20.5426 3.98133
15.1383 20.1754 0.01901
13.4443 18.8923 2
11.6557 17.5589 3.98493
14.7443 17.2962 0.0166638
13.0265 15.8774 2
11.219 14.3704 3.99061
14.4814 14.2854 0.0142251
12.7815 12.6857 2
10.9835 10.9835 4
14.4443 11.1125 0.00758865
12.7745 9.306 2
14.6715 7.74927 0
20.5106 33.3798 3.97359
22.9494 33.7878 2
25.2226 34.2529 0.0128457
15.8811 26.3914 3.97293
17.6065 24.0276 2
17.8406 22.3099 0.0146447
14.2957 24.4418 2
15.5134 22.9094 0.0225306
18.3341 30.158 3.97156
18.9971 27.1857 2
19.6396 24.364 0.0211875
21.0895 30.6445 2
21.8607 27.806 0.0292878
23.6423 31.1704 0.0285103
17.6268 35.9562 3.97457
20.1228 35.912 2
22.358 36.2638 0.020083
20.6194 40.6305 0.0252346
20.0057 37.7758 0.0252589
17.9976 38.9995 2
14.2841 39.1751 3.9732
17.3224 42.1049 0.0261455
14.7752 41.9218 2
12.3816 42.2789 3.97365
14.8295 44.206 0.026743
12.6954 44.396 2
10.5577 44.8038 3.97465
12.956 46.3 0.0252941
10.981 46.7361 2
8.90409 47.319 3.97632
11.4776 48.553 0.0231131
9.52073 49.2415 2
7.42955 50.0349 3.98076
10.2562 51.0826 0.0209021
8.26213 52.0031 2
6.13168 53.0068 3.98747
9.22866 53.8912 0.0171956
7.19063 55.0322 2
5.0241 56.25 4
6.31988 58.3339 2
8.38205 56.984 0.0116836
7.74927 60.3285 0
13.4547 26.8071 3.97453
11.9316 24.7829 3.97706
13.2174 25.3555 2
11.1323 22.2286 3.97989
12.8168 23.2718 2
13.9498 21.7423 0.02065
12.2289 20.5415 2
10.3856 19.3143 3.98436
13.4443 18.8931 0.0177641
11.6557 17.5581 2
9.75969 16.1539 3.98954
13.0264 15.878 0.0148082
11.2188 14.3704 2
9.30607 12.7746 4
12.7816 12.6857 0.00835064
10.9835 10.9835 2
12.7746 9.30605 0
17.8036 33.0997 3.97275
20.5084 33.38 2
22.952 33.7867 0.0253978
15.469 29.6275 3.97302
15.881 26.3911 2
17.6075 24.0287 0.0208053
14.2961 24.4423 0.0242635
18.3331 30.1578 2
18.9968 27.1862 0.0308678
21.0913 30.6453 0.0276312
14.8816 36.0128 3.97263
17.6255 35.9561 2
20.1239 35.9116 0.0222189
12.5828 37.8271 3.97372
17.9989 38.9994 0.0257435
14.2832 39.1756 2
11.8967 40.141 3.97307
14.7754 41.921 0.0262623
12.3815 42.2796 2
10.1565 42.7789 3.97431
12.6953 44.3953 0.026109
10.5578 44.8044 2
8.38221 45.3207 3.97592
10.9808 46.7355 0.0249753
8.90433 47.3195 2
6.72168 47.9992 3.97934
9.52044 49.2409 0.022073
7.4298 50.0351 2
5.20863 50.9091 3.98721
8.26197 52.0027 0.0180357
6.13143 53.0056 2
3.86727 54.0858 4
7.19103 55.0332 0.012266
5.02404 56.25 2
6.31991 58.3339 0
12.9107 29.0272 3.97134
11.3623 26.4837 3.97584
13.4546 26.8066 2
10.1925 23.9642 3.9781
11.9315 24.7822 2
13.2176 25.356 0.0190546
9.23786 21.1344 3.98303
11.1321 22.2276 2
12.8171 23.2726 0.0221186
12.2291 20.5426 0.0186678
10.3854 19.3132 2
8.41542 18.0254 3.98868
11.6557 17.5589 0.0150661
9.75944 16.1538 2
7.74928 14.6715 4
11.219 14.3704 0.00939349
9.30602 12.7745 2
10.9835 10.9835 0
14.4619 32.855 3.97286
17.8039 33.0994 2
20.5106 33.3798 0.0264096
15.4685 29.6272 2
15.8811 26.3914 0.0270679
18.3341 30.158 0.0284421
12.8732 36.2059 3.9719
14.8806 36.0126 2
17.6268 35.9562 0.0254264
12.5821 37.8272 2
11.2568 38.3085 3.97274
14.2841 39.1751 0.0268032
11.8962 40.1416 2
9.74338 40.7546 3.97364
12.3816 42.2789 0.0263465
10.1564 42.7795 2
7.93133 43.2696 3.9756
10.5577 44.8038 0.0253485
8.38236 45.3212 2
6.12822 45.9042 3.97883
8.90409 47.319 0.0236787
6.7219 47.9994 2
4.42055 48.7494 3.9868
7.42955 50.0349 0.0192369
5.20856 50.908 2
2.85457 51.8506 4
6.13168 53.0068 0.012533
3.86727 54.0858 2
5.0241 56.25 0
12.0519 31.2516 3.9731
10.7757 28.4119 3.97379
12.9102 29.0268 2
9.40816 25.796 3.97703
11.3622 26.4832 2
13.4547 26.8071 0.0254681
8.22564 23.0213 3.98112
10.1925 23.9635 2
11.9316 24.7829 0.0229365
7.1975 19.9763 3.98791
9.23776 21.1336 2
11.1323 22.2286 0.0201125
10.3856 19.3143 0.0156404
8.41501 18.0257 2
6.31992 16.6661 4
9.75969 16.1539 0.0104616
7.74926 14.6714 2
9.30607 12.7746 0
12.0731 34.2914 3.9722
14.4624 32.8548 2
17.8036 33.0997 0.0272527
15.469 29.6275 0.0269842
10.8222 36.6091 3.97126
12.8724 36.2055 2
14.8816 36.0128 0.0273726
12.5828 37.8271 0.0262789
11.2563 38.3087 2
9.34077 38.8228 3.97254
11.8967 40.141 0.0269308
9.74309 40.7551 2
7.54376 41.2106 3.97481
10.1565 42.7789 0.025687
7.93133 43.2701 2
5.64028 43.7673 3.9789
8.38221 45.3207 0.024079
6.12837 45.9043 2
3.76648 46.5356 3.98659
6.72168 47.9992 0.0206626
4.42055 48.7489 2
1.99014 49.554 4
5.20863 50.9091 0.012786
2.85451 51.8506 2
3.86727 54.0858 0
10.9161 32.9161 3.97336
10.0892 30.3793 3.97389
12.052 31.2517 2
8.71704 27.7306 3.97577
10.7753 28.4115 2
12.9107 29.0272 0.0286579
7.35167 24.9816 3.98
9.40817 25.7955 2
11.3623 26.4837 0.0241586
6.11459 22.0014 3.98703
8.2257 23.0208 2
10.1925 23.9642 0.0218987
5.02411 18.75 4
7.19708 19.9772 2
9.23786 21.1344 0.016974
8.41542 18.0254 0.011315
6.3199 16.6661 2
7.74928 14.6715 0
10.4324 34.9978 3.97249
12.0731 34.2909 2
14.4619 32.855 0.0271374
9.0152 36.9835 3.97097
10.8218 36.6088 2
12.8732 36.2059 0.028098
11.2568 38.3085 0.0272574
9.34044 38.823 2
7.22642 39.181 3.97375
9.74338 40.7546 0.0263607
7.54362 41.211 2
5.25638 41.6131 3.97803
7.93133 43.2696 0.0243996
5.64031 43.7674 2
3.24437 44.2812 3.9864
6.12822 45.9042 0.0211704
3.76653 46.5355 2
1.27781 47.2057 4
4.42055 48.7494 0.0132
1.99012 49.554 2
2.85457 51.8506 0
10.0839 33.8792 3.97365
9.38377 32.1522 3.97395
10.916 32.9158 2
8.06696 29.6944 3.9753
10.0892 30.3792 2
12.0519 31.2516 0.0268996
6.59591 27.0083 3.97904
8.71684 27.7302 2
10.7757 28.4119 0.0262108
5.16998 24.0955 3.98674
7.35178 24.9814 2
9.40816 25.796 0.0229739
3.86728 20.9142 4
6.11433 22.0025 2
8.22564 23.0213 0.0188804
5.02406 18.75 2
7.1975 19.9763 0.0120877
6.31992 16.6661 0
8.84124 35.2778 3.97251
10.4323 34.9974 2
12.0731 34.2914 0.0278042
7.01215 37.2048 3.97244
9.01496 36.9834 2
10.8222 36.6091 0.0287396
9.34077 38.8228 0.0274641
7.22624 39.1812 2
4.98555 39.4665 3.97661
7.54376 41.2106 0.0251881
5.25633 41.6132 2
2.85519 42.0019 3.98558
5.64028 43.7673 0.0211031
3.2444 44.2814 2
0.720592 44.8159 4
3.76648 46.5356 0.0134138
1.27778 47.2057 2
1.99014 49.554 0
8.88158 33.696 3.97365
10.0838 33.8789 2
7.50562 31.6084 3.97498
9.38369 32.152 2
10.9161 32.9161 0.0266369
5.94159 29.0697 3.9784
8.06693 29.6943 2
10.0892 30.3793 0.0261086
4.35786 26.2485 3.98655
6.59584 27.0082 2
8.71704 27.7306 0.024226
2.85458 23.1494 4
5.16987 24.0964 2
7.35167 24.9816 0.0199958
3.86728 20.9142 2
6.11459 22.0014 0.0129727
5.02411 18.75 0
6.96249 35.3053 3.97291
8.84108 35.2776 2
10.4324 34.9978 0.027511
4.8368 37.3392 3.97572
7.01201 37.2049 2
9.0152 36.9835 0.0290293
7.22642 39.181 0.0262537
4.98545 39.4666 2
2.60378 39.7138 3.98415
5.25638 41.6131 0.0219667
2.85522 42.0025 2
0.320823 42.3947 4
3.24437 44.2812 0.0135991
0.720551 44.8159 2
1.27781 47.2057 0
7.12099 33.4602 3.97423
8.88146 33.6957 2
10.0839 33.8792 0.0263491
5.41326 31.1338 3.97787
7.50551 31.6082 2
9.38377 32.1522 0.0260501
3.67987 28.4443 3.98618
5.94159 29.0698 2
8.06696 29.6944 0.0247013
1.99015 25.446 4
4.35773 26.2491 2
6.59591 27.0083 0.0209642
2.85453 23.1494 2
5.16998 24.0955 0.0132571
3.86728 20.9142 0
4.85127 35.2514 3.97583
6.96237 35.3052 2
8.84124 35.2778 0.0274899
2.49553 37.4284 3.98351
4.83674 37.3393 2
7.01215 37.2048 0.027556
4.98555 39.4665 0.0233903
2.60377 39.7144 2
0.080333 39.9526 4
2.85519 42.0019 0.0144163
0.320817 42.3947 2
0.720592 44.8159 0
5.04374 33.1904 3.97701
7.12087 33.4601 2
8.88158 33.696 0.0263491
3.14457 30.6666 3.98538
5.41315 31.1339 2
7.50562 31.6084 0.0250248
1.27793 27.7943 4
3.67984 28.4446 2
5.94159 29.0697 0.0215969
1.99013 25.446 2
4.35786 26.2485 0.0134488
2.85458 23.1494 0
2.54775 35.1591 3.98343
4.85119 35.2515 2
6.96249 35.3053 0.0270914
0 37.5 4
2.49558 37.429 2
4.8368 37.3392 0.024279
2.60378 39.7138 0.0158507
0.0802903 39.9526 2
0.320823 42.3947 0
2.76502 32.9059 3.9843
5.04362 33.1905 2
7.12099 33.4602 0.0257723
0.721173 30.1842 4
3.14452 30.6667 2
5.41326 31.1338 0.0221285
1.27779 27.7943 2
3.67987 28.4443 0.0138157
1.99015 25.446 0
0.0806499 35.0474 4
2.54775 35.1595 2
4.85127 35.2514 0.0241743
0 37.5 2
2.49553 37.4284 0.0164903
0.080333 39.9526 0
0.32156 32.6054 4
2.76499 32.9061 2
5.04374 33.1904 0.0229933
0.72056 30.1841 2
3.14457 30.6666 0.0146172
1.27793 27.7943 0
0.0802889 35.0474 2
2.54775 35.1591 0.01657
0 37.5 0
0.320817 32.6053 2
2.76502 32.9059 0.0156978
0.721173 30.1842 0
0.0806499 35.0474 0
0.32156 32.6054 0
CELLS 1910 17190
8 18 6 25 56 2 0 5 16
8 57 23 6 18 17 4 0 2
8 78 36 9 29 31 11 1 7
8 31 11 1 7 79 37 10 30
8 110 57 18 50 48 17 2 14
8 50 18 56 111 14 2 16 49
8 116 62 22 55 52 20 3 15
8 56 25 67 118 16 5 24 53
8 119 63 23 57 54 21 4 17
8 55 22 63 119 15 3 21 54
8 58 26 68 121 18 6 25 56
8 122 65 26 58 57 23 6 18
8 73 31 7 27 142 79 30 71
8 143 78 29 72 73 31 7 27
8 83 147 76 34 32 74 28 8
8 84 148 78 36 33 75 29 9
8 76 34 8 28 148 84 33 75
8 37 79 150 86 10 30 77 35
8 151 87 36 78 80 38 11 31
8 80 38 11 31 152 88 37 79
8 175 100 42 94 96 44 12 40
8 44 96 176 101 12 40 95 43
8 101 176 98 46 43 95 41 13
8 46 98 178 103 13 41 97 45
8 178 103 45 97 147 83 32 74
8 189 116 55 109 106 52 15 47
8 111 56 118 191 49 16 53 107
8 192 119 57 110 108 54 17 48
8 109 55 119 192 47 15 54 108
8 194 122 58 112 110 57 18 50
8 112 58 121 195 50 18 56 111
8 115 61 19 51 197 124 59 113
8 115 61 125 198 51 19 60 114
8 198 125 62 116 114 60 20 52
8 200 127 64 120 116 62 22 55
8 118 67 132 202 53 24 66 117
8 121 68 133 203 56 25 67 118
8 120 64 128 204 55 22 63 119
8 204 128 65 122 119 63 23 57
8 206 134 68 121 123 69 26 58
8 123 69 26 58 207 131 65 122
8 226 147 74 138 140 76 28 70
8 229 148 75 139 143 78 29 72
8 140 76 28 70 229 148 75 139
8 142 79 30 71 231 150 77 141
8 144 80 31 73 232 152 79 142
8 233 151 78 143 144 80 31 73
8 150 86 35 77 235 154 81 145
8 235 154 81 145 146 82 39 91
8 146 82 39 91 236 155 90 165
8 238 157 83 147 149 85 34 76
8 239 158 84 148 151 87 36 78
8 149 85 34 76 239 158 84 148
8 152 88 37 79 241 160 86 150
8 242 161 87 151 153 89 38 80
8 153 89 38 80 243 162 88 152
8 171 98 41 92 265 178 97 169
8 265 178 97 169 226 147 74 138
8 172 96 40 93 266 176 95 170
8 266 176 95 170 171 98 41 92
8 269 175 94 173 172 96 40 93
8 271 180 99 174 175 100 42 94
8 197 124 59 113 271 180 99 174
8 272 181 100 175 177 102 44 96
8 273 182 101 176 179 104 46 98
8 177 102 44 96 273 182 101 176
8 179 104 46 98 275 184 103 178
8 275 184 103 178 238 157 83 147
8 188 115 51 105 283 197 113 186
8 188 115 198 284 105 51 114 187
8 284 198 116 189 187 114 52 106
8 286 200 120 193 189 116 55 109
8 191 118 202 288 107 53 117 190
8 195 121 203 289 111 56 118 191
8 193 120 204 290 109 55 119 192
8 290 204 122 194 192 119 57 110
8 196 123 58 112 292 207 122 194
8 293 206 121 195 196 123 58 112
8 199 126 61 115 297 211 124 197
8 298 212 127 200 198 125 62 116
8 199 126 212 298 115 61 125 198
8 205 129 64 120 300 214 127 200
8 301 217 130 201 202 132 66 117
8 209 136 168 264 301 217 130 201
8 302 219 132 202 203 133 67 118
8 303 220 133 203 206 134 68 121
8 205 129 215 304 120 64 128 204
8 304 215 131 207 204 128 65 122
8 306 221 134 206 208 135 69 123
8 208 135 69 123 307 218 131 207
8 210 137 167 263 309 223 136 209
8 328 238 147 226 230 149 76 140
8 228 146 91 166 329 236 165 260
8 231 150 77 141 330 235 145 227
8 330 235 145 227 228 146 91 166
8 332 239 148 229 233 151 78 143
8 230 149 76 140 332 239 148 229
8 232 152 79 142 334 241 150 231
8 234 153 80 144 335 243 152 232
8 336 242 151 233 234 153 80 144
8 236 155 90 165 338 245 164 259
8 241 160 86 150 339 246 154 235
8 339 246 154 235 237 156 82 146
8 237 156 82 146 340 247 155 236
8 342 249 157 238 240 159 85 149
8 343 250 158 239 242 161 87 151
8 240 159 85 149 343 250 158 239
8 243 162 88 152 345 252 160 241
8 244 163 253 346 153 89 161 242
8 244 163 89 153 347 254 162 243
8 311 224 261 371 210 137 167 263
8 263 167 262 372 209 136 168 264
8 267 179 98 171 375 275 178 265
8 375 275 178 265 328 238 147 226
8 376 273 176 266 267 179 98 171
8 268 177 96 172 376 273 176 266
8 379 272 175 269 268 177 96 172
8 380 271 174 270 269 175 94 173
8 283 197 113 186 380 271 174 270
8 381 277 180 271 272 181 100 175
8 297 211 124 197 381 277 180 271
8 382 278 181 272 274 183 102 177
8 274 183 102 177 383 279 182 273
8 383 279 182 273 276 185 104 179
8 385 281 184 275 342 249 157 238
8 276 185 104 179 385 281 184 275
8 285 199 115 188 393 297 197 283
8 394 298 200 286 284 198 116 189
8 285 199 298 394 188 115 198 284
8 291 205 120 193 396 300 200 286
8 397 301 201 287 288 202 117 190
8 295 209 264 374 397 301 201 287
8 398 302 202 288 289 203 118 191
8 399 303 203 289 293 206 121 195
8 291 205 304 400 193 120 204 290
8 400 304 207 292 290 204 122 194
8 294 208 123 196 402 307 207 292
8 403 306 206 293 294 208 123 196
8 296 210 263 373 405 309 209 295
8 408 312 213 299 297 211 126 199
8 299 213 313 409 199 126 212 298
8 409 313 214 300 298 212 127 200
8 305 216 129 205 411 315 214 300
8 412 318 217 301 302 219 132 202
8 309 223 136 209 412 318 217 301
8 413 320 219 302 303 220 133 203
8 306 221 321 414 206 134 220 303
8 307 218 131 207 415 316 215 304
8 305 216 316 415 205 129 215 304
8 417 322 221 306 308 222 135 208
8 308 222 135 208 418 319 218 307
8 310 225 137 210 420 325 223 309
8 423 326 224 311 310 225 137 210
8 329 236 165 260 441 338 259 368
8 442 342 238 328 333 240 149 230
8 331 237 146 228 443 340 236 329
8 334 241 150 231 444 339 235 330
8 444 339 235 330 331 237 146 228
8 446 343 239 332 336 242 151 233
8 333 240 149 230 446 343 239 332
8 335 243 152 232 448 345 241 334
8 337 244 153 234 449 347 243 335
8 337 244 346 450 234 153 242 336
8 338 245 164 259 452 349 258 367
8 340 247 155 236 453 350 245 338
8 345 252 160 241 454 351 246 339
8 454 351 246 339 341 248 156 237
8 341 248 156 237 455 352 247 340
8 240 159 251 344 342 249 354 457
8 242 161 253 346 343 250 355 458
8 343 250 355 458 240 159 251 344
8 347 254 162 243 460 357 252 345
8 348 255 358 461 244 163 253 346
8 348 255 163 244 462 359 254 347
8 473 360 257 365 363 256 364 482
8 452 349 258 367 365 257 366 485
8 422 324 369 488 311 224 261 371
8 371 261 370 490 263 167 262 372
8 407 311 371 491 296 210 263 373
8 373 263 372 492 295 209 264 374
8 493 385 275 375 442 342 238 328
8 377 276 179 267 493 385 275 375
8 378 274 177 268 494 383 273 376
8 494 383 273 376 377 276 179 267
8 497 382 272 379 378 274 177 268
8 498 381 271 380 379 272 175 269
8 393 297 197 283 498 381 271 380
8 499 387 277 381 382 278 181 272
8 408 312 211 297 499 387 277 381
8 500 388 278 382 384 280 183 274
8 501 389 279 383 386 282 185 276
8 384 280 183 274 501 389 279 383
8 386 282 185 276 503 391 281 385
8 503 391 281 385 457 354 249 342
8 511 408 299 395 393 297 199 285
8 395 299 409 512 285 199 298 394
8 512 409 300 396 394 298 200 286
8 401 305 205 291 514 411 300 396
8 515 412 301 397 398 302 202 288
8 405 309 209 295 515 412 301 397
8 516 413 302 398 399 303 203 289
8 403 306 414 517 293 206 303 399
8 402 307 207 292 518 415 304 400
8 401 305 415 518 291 205 304 400
8 404 308 208 294 520 418 307 402
8 521 417 306 403 404 308 208 294
8 406 310 210 296 523 420 309 405
8 526 423 311 407 406 310 210 296
8 410 314 213 299 527 424 312 408
8 528 425 315 411 409 313 214 300
8 410 314 425 528 299 213 313 409
8 416 317 216 305 530 427 315 411
8 531 430 318 412 413 320 219 302
8 420 325 223 309 531 430 318 412
8 532 432 320 413 414 321 220 303
8 417 322 433 533 306 221 321 414
8 418 319 218 307 534 428 316 415
8 416 317 428 534 305 216 316 415
8 419 323 434 536 308 222 322 417
8 419 323 222 308 537 431 319 418
8 421 327 225 310 539 438 325 420
8 421 327 439 541 310 225 326 423
8 543 437 324 422 423 326 224 311
8 441 338 259 368 559 452 367 486
8 443 340 236 329 560 453 338 441
8 333 240 344 447 442 342 457 561
8 445 341 237 331 562 455 340 443
8 448 345 241 334 563 454 339 444
8 563 454 339 444 445 341 237 331
8 336 242 346 450 446 343 458 565
8 446 343 458 565 333 240 344 447
8 449 347 243 335 567 460 345 448
8 451 348 244 337 568 462 347 449
8 451 348 461 569 337 244 346 450
8 570 463 349 452 473 360 257 365
8 453 350 245 338 570 463 349 452
8 455 352 247 340 571 464 350 453
8 460 357 252 345 572 465 351 454
8 572 465 351 454 456 353 248 341
8 456 353 248 341 573 466 352 455
8 344 251 356 459 457 354 468 575
8 458 355 469 576 344 251 356 459
8 346 253 358 461 458 355 469 576
8 462 359 254 347 578 471 357 460
8 348 255 359 462 461 358 472 579
8 591 474 360 473 475 361 256 363
8 475 361 256 363 594 477 362 479
8 363 256 364 482 479 362 480 603
8 590 473 365 484 481 363 482 605
8 482 364 257 365 606 483 366 485
8 559 452 367 486 484 365 485 607
8 542 436 487 609 422 324 369 488
8 525 422 488 611 407 311 371 491
8 488 369 489 612 371 261 370 490
8 491 371 490 613 373 263 372 492
8 495 386 276 377 614 503 385 493
8 614 503 385 493 561 457 342 442
8 615 501 383 494 495 386 276 377
8 496 384 274 378 615 501 383 494
8 618 500 382 497 496 384 274 378
8 619 499 381 498 497 382 272 379
8 511 408 297 393 619 499 381 498
8 620 505 387 499 500 388 278 382
8 527 424 312 408 620 505 387 499
8 502 390 506 621 384 280 388 500
8 622 507 389 501 504 392 282 386
8 502 390 280 384 622 507 389 501
8 504 392 282 386 624 509 391 503
8 624 509 391 503 575 468 354 457
8 513 410 299 395 630 527 408 511
8 631 528 411 514 512 409 300 396
8 513 410 528 631 395 299 409 512
8 519 416 305 401 633 530 411 514
8 634 531 412 515 516 413 302 398
8 523 420 309 405 634 531 412 515
8 635 532 413 516 517 414 303 399
8 521 417 533 636 403 306 414 517
8 520 418 307 402 637 534 415 518
8 519 416 534 637 401 305 415 518
8 522 419 308 404 639 537 418 520
8 522 419 536 640 404 308 417 521
8 524 421 310 406 642 539 420 523
8 524 421 541 644 406 310 423 526
8 646 543 422 525 526 423 311 407
8 529 426 314 410 647 544 424 527
8 528 425 545 648 411 315 427 530
8 529 426 545 648 410 314 425 528
8 535 429 317 416 649 546 427 530
8 650 548 430 531 532 432 320 413
8 539 438 325 420 650 548 430 531
8 533 433 550 651 414 321 432 532
8 536 434 551 652 417 322 433 533
8 537 431 319 418 653 547 428 534
8 535 429 547 653 416 317 428 534
8 538 435 552 654 419 323 434 536
8 538 435 323 419 655 549 431 537
8 540 440 327 421 657 556 438 539
8 540 440 557 659 421 327 439 541
8 541 439 555 660 423 326 437 543
8 661 554 436 542 543 437 324 422
8 676 570 452 559 590 473 365 484
8 560 453 338 441 676 570 452 559
8 562 455 340 443 677 571 453 560
8 447 344 459 566 561 457 575 678
8 564 456 341 445 679 573 455 562
8 567 460 345 448 680 572 454 563
8 680 572 454 563 564 456 341 445
8 565 458 576 682 447 344 459 566
8 450 346 461 569 565 458 576 682
8 568 462 347 449 684 578 460 567
8 451 348 462 568 569 461 579 685
8 686 580 463 570 591 474 360 473
8 571 464 350 453 686 580 463 570
8 573 466 352 455 687 581 464 571
8 572 465 582 688 460 357 471 578
8 574 467 582 688 456 353 465 572
8 574 467 353 456 689 583 466 573
8 459 356 470 577 575 468 585 691
8 576 469 586 692 459 356 470 577
8 461 358 472 579 576 469 586 692
8 462 359 471 578 579 472 588 694
8 704 591 473 590 593 475 363 481
8 595 476 592 705 475 361 474 591
8 593 475 363 481 707 594 479 602
8 594 477 362 479 709 598 478 600
8 595 476 361 475 711 597 477 594
8 479 362 480 603 600 478 601 720
8 481 363 482 605 602 479 603 722
8 603 480 364 482 723 604 483 606
8 605 482 365 484 724 606 485 607
8 656 553 608 726 542 436 487 609
8 645 542 609 728 525 422 488 611
8 609 487 610 729 488 369 489 612
8 611 488 612 730 491 371 490 613
8 616 504 386 495 731 624 503 614
8 731 624 503 614 678 575 457 561
8 732 622 501 615 616 504 386 495
8 617 502 384 496 732 622 501 615
8 617 502 621 735 496 384 500 618
8 736 620 499 619 618 500 382 497
8 630 527 408 511 736 620 499 619
8 621 506 626 737 500 388 505 620
8 647 544 424 527 737 626 505 620
8 623 508 627 738 502 390 506 621
8 623 508 390 502 739 628 507 622
8 625 510 628 739 504 392 507 622
8 740 629 509 624 691 585 468 575
8 625 510 392 504 740 629 509 624
8 632 529 410 513 744 647 527 630
8 631 528 648 745 514 411 530 633
8 632 529 648 745 513 410 528 631
8 638 535 416 519 746 649 530 633
8 747 650 531 634 635 532 413 516
8 642 539 420 523 747 650 531 634
8 636 533 651 748 517 414 532 635
8 640 536 652 749 521 417 533 636
8 639 537 418 520 750 653 534 637
8 638 535 653 750 519 416 534 637
8 641 538 419 522 751 655 537 639
8 641 538 654 752 522 419 536 640
8 643 540 421 524 753 657 539 642
8 643 540 659 755 524 421 541 644
8 644 541 660 757 526 423 543 646
8 758 661 542 645 646 543 422 525
8 529 426 544 647 648 545 662 759
8 530 427 545 648 649 546 663 760
8 535 429 546 649 653 547 664 761
8 762 666 548 650 651 550 432 532
8 657 556 438 539 762 666 548 650
8 652 551 668 763 533 433 550 651
8 654 552 669 764 536 434 551 652
8 655 549 431 537 765 665 547 653
8 538 435 549 655 654 552 667 766
8 661 554 671 768 542 436 553 656
8 658 558 440 540 769 674 556 657
8 658 558 675 770 540 440 557 659
8 659 557 673 771 541 439 555 660
8 660 555 672 772 543 437 554 661
8 788 686 570 676 704 591 473 590
8 677 571 453 560 788 686 570 676
8 679 573 455 562 789 687 571 677
8 566 459 577 683 678 575 691 790
8 681 574 456 564 791 689 573 679
8 680 572 688 792 567 460 578 684
8 681 574 688 792 564 456 572 680
8 682 576 692 794 566 459 577 683
8 569 461 579 685 682 576 692 794
8 568 462 578 684 685 579 694 796
8 687 581 464 571 798 696 580 686
8 798 696 580 686 705 592 474 591
8 689 583 466 573 799 697 581 687
8 688 582 698 800 578 471 588 694
8 690 584 698 800 574 467 582 688
8 690 584 467 574 801 699 583 689
8 693 587 701 803 577 470 585 691
8 693 587 470 577 804 702 586 692
8 695 589 702 804 579 472 586 692
8 695 589 472 579 805 703 588 694
8 708 595 705 813 593 475 591 704
8 710 596 706 814 595 476 592 705
8 707 594 479 602 816 709 600 719
8 708 595 475 593 817 711 594 707
8 709 598 478 600 819 715 599 717
8 711 597 477 594 820 714 598 709
8 710 596 476 595 822 713 597 711
8 600 478 601 720 717 599 718 832
8 602 479 603 722 719 600 720 834
8 720 601 480 603 835 721 604 723
8 722 603 482 605 836 723 606 724
8 767 670 725 839 656 553 608 726
8 756 656 726 841 645 542 609 728
8 726 608 727 842 609 487 610 729
8 728 609 729 843 611 488 612 730
8 844 740 624 731 790 691 575 678
8 733 625 504 616 844 740 624 731
8 734 623 502 617 845 739 622 732
8 733 625 739 845 616 504 622 732
8 734 623 738 846 617 502 621 735
8 735 621 737 847 618 500 620 736
8 744 647 527 630 847 737 620 736
8 621 506 627 738 737 626 741 848
8 647 544 626 737 759 662 741 848
8 623 508 628 739 738 627 742 849
8 740 629 585 691 850 743 700 802
8 625 510 629 740 739 628 743 850
8 632 529 647 744 745 648 759 854
8 633 530 648 745 746 649 760 855
8 638 535 649 746 750 653 761 856
8 857 762 650 747 748 651 532 635
8 753 657 539 642 857 762 650 747
8 749 652 763 858 636 533 651 748
8 752 654 764 859 640 536 652 749
8 751 655 537 639 860 765 653 750
8 641 538 655 751 752 654 766 861
8 754 658 540 643 862 769 657 753
8 754 658 770 863 643 540 659 755
8 755 659 771 864 644 541 660 757
8 758 661 768 866 645 542 656 756
8 757 660 772 867 646 543 661 758
8 759 662 773 868 648 545 663 760
8 649 546 663 760 761 664 774 871
8 765 665 547 653 872 775 664 761
8 873 777 666 762 763 668 550 651
8 769 674 556 657 873 777 666 762
8 764 669 779 874 652 551 668 763
8 654 552 667 766 764 669 778 875
8 655 549 665 765 766 667 776 876
8 768 671 782 877 656 553 670 767
8 772 672 783 878 661 554 671 768
8 658 558 674 769 770 675 786 879
8 659 557 675 770 771 673 785 881
8 882 784 672 772 771 673 555 660
8 789 687 571 677 897 798 686 788
8 897 798 686 788 813 705 591 704
8 791 689 573 679 898 799 687 789
8 795 693 803 900 683 577 691 790
8 793 690 574 681 901 801 689 791
8 792 688 800 902 684 578 694 796
8 793 690 800 902 681 574 688 792
8 795 693 577 683 903 804 692 794
8 797 695 804 903 685 579 692 794
8 797 695 579 685 904 805 694 796
8 905 806 697 799 798 696 581 687
8 814 706 806 905 705 592 696 798
8 689 583 697 799 801 699 808 907
8 800 698 809 908 694 588 703 805
8 690 584 699 801 800 698 809 908
8 803 701 810 909 691 585 700 802
8 693 587 702 804 803 701 811 910
8 695 589 703 805 804 702 812 911
8 818 710 814 919 708 595 705 813
8 821 712 815 920 710 596 706 814
8 816 709 600 719 922 819 717 831
8 817 711 594 707 923 820 709 816
8 818 710 595 708 924 822 711 817
8 819 715 599 717 926 827 716 829
8 820 714 598 709 927 826 715 819
8 929 825 713 822 820 714 597 711
8 821 712 596 710 930 824 713 822
8 717 599 718 832 829 716 830 942
8 719 600 720 834 831 717 832 944
8 832 718 601 720 945 833 721 835
8 834 720 603 722 946 835 723 836
8 869 780 838 950 767 670 725 839
8 865 767 839 952 756 656 726 841
8 839 725 840 953 726 608 727 842
8 841 726 842 954 728 609 729 843
8 844 740 691 790 955 850 802 899
8 733 625 740 844 845 739 850 955
8 734 623 739 845 846 738 849 956
8 735 621 738 846 847 737 848 957
8 744 647 737 847 854 759 848 957
8 738 627 742 849 848 741 851 958
8 848 741 851 958 759 662 773 868
8 850 743 700 802 959 852 807 906
8 849 742 628 739 959 852 743 850
8 854 759 868 965 745 648 760 855
8 746 649 760 855 856 761 871 966
8 860 765 653 750 967 872 761 856
8 968 873 762 857 858 763 651 748
8 862 769 657 753 968 873 762 857
8 859 764 874 969 749 652 763 858
8 752 654 766 861 859 764 875 970
8 751 655 765 860 861 766 876 971
8 754 658 769 862 863 770 879 972
8 755 659 770 863 864 771 881 974
8 976 882 772 867 864 771 660 757
8 866 768 877 977 756 656 767 865
8 867 772 878 978 758 661 768 866
8 760 663 773 868 871 774 883 980
8 870 781 837 948 982 890 780 869
8 982 890 780 869 877 782 670 767
8 761 664 774 871 872 775 884 984
8 876 776 665 765 985 885 775 872
8 873 777 668 763 986 887 779 874
8 769 674 777 873 879 786 887 986
8 764 669 778 875 874 779 888 987
8 766 667 776 876 875 778 886 988
8 878 783 892 989 768 671 782 877
8 878 783 672 772 990 893 784 882
8 880 787 675 770 991 896 786 879
8 880 787 895 992 770 675 785 881
8 881 785 894 993 771 673 784 882
8 1006 905 799 898 897 798 687 789
8 919 814 905 1006 813 705 798 897
8 791 689 799 898 901 801 907 1007
8 900 803 909 1009 790 691 802 899
8 795 693 804 903 900 803 910 1010
8 902 800 908 1011 796 694 805 904
8 793 690 801 901 902 800 908 1011
8 797 695 805 904 903 804 911 1012
8 799 697 806 905 907 808 912 1013
8 920 815 912 1013 814 706 806 905
8 802 700 810 909 906 807 913 1014
8 801 699 808 907 908 809 914 1015
8 805 703 809 908 911 812 915 1016
8 803 701 811 910 909 810 916 1017
8 911 812 917 1018 804 702 811 910
8 925 821 920 1030 818 710 814 919
8 928 823 921 1031 821 712 815 920
8 922 819 717 831 1033 926 829 941
8 923 820 709 816 1034 927 819 922
8 1035 929 822 924 923 820 711 817
8 925 821 710 818 1036 930 822 924
8 1038 933 825 929 927 826 714 820
8 926 827 716 829 1039 935 828 939
8 927 826 715 819 1040 934 827 926
8 928 823 712 821 1041 931 824 930
8 1042 932 824 930 929 825 713 822
8 829 716 830 942 939 828 940 1058
8 831 717 832 944 941 829 942 1060
8 942 830 718 832 1061 943 833 945
8 944 832 720 834 1062 945 835 946
8 981 889 947 1064 870 781 837 948
8 948 837 949 1067 869 780 838 950
8 975 869 950 1069 865 767 839 952
8 950 838 951 1070 839 725 840 953
8 952 839 953 1071 841 726 842 954
8 955 850 802 899 1072 959 906 1008
8 956 849 739 845 1072 959 850 955
8 846 738 849 956 957 848 958 1073
8 957 848 958 1073 854 759 868 965
8 849 742 852 959 958 851 961 1076
8 960 853 961 1076 906 807 852 959
8 958 851 961 1076 868 773 883 980
8 960 853 807 906 1077 963 913 1014
8 855 760 868 965 966 871 980 1085
8 856 761 871 966 967 872 984 1086
8 971 876 765 860 1087 985 872 967
8 968 873 763 858 1088 986 874 969
8 862 769 873 968 972 879 986 1088
8 859 764 875 970 969 874 987 1089
8 861 766 876 971 970 875 988 1090
8 973 880 770 863 1091 991 879 972
8 973 880 992 1092 863 770 881 974
8 974 881 993 1093 864 771 882 976
8 979 870 948 1066 1094 982 869 975
8 1094 982 869 975 977 877 767 865
8 978 878 772 867 1095 990 882 976
8 978 878 989 1096 866 768 877 977
8 871 774 883 980 984 884 994 1099
8 983 891 999 1100 870 781 889 981
8 1101 1000 890 982 989 892 782 877
8 983 891 781 870 1101 1000 890 982
8 872 775 884 984 985 885 995 1103
8 876 776 885 985 988 886 996 1104
8 986 887 779 874 1105 998 888 987
8 879 786 887 986 991 896 998 1105
8 875 778 886 988 987 888 997 1106
8 990 893 1002 1107 878 783 892 989
8 1108 1003 893 990 993 894 784 882
8 880 787 896 991 992 895 1005 1109
8 993 894 785 881 1110 1004 895 992
8 898 799 905 1006 1007 907 1013 1120
8 1030 920 1013 1120 919 814 905 1006
8 901 801 907 1007 1011 908 1015 1121
8 899 802 909 1009 1008 906 1014 1122
8 900 803 910 1010 1009 909 1017 1123
8 1012 911 1018 1124 903 804 910 1010
8 904 805 908 1011 1012 911 1016 1125
8 1013 912 1020 1127 907 808 914 1015
8 1031 921 1020 1127 920 815 912 1013
8 1019 918 962 1075 1128 1021 913 1014
8 1128 1021 913 1014 1017 916 810 909
8 1015 914 1022 1129 908 809 915 1016
8 1016 915 1023 1130 911 812 917 1018
8 1018 917 1024 1131 910 811 916 1017
8 1037 928 1031 1148 925 821 920 1030
8 928 823 931 1041 1031 921 1032 1149
8 1033 926 829 941 1151 1039 939 1057
8 1034 927 819 922 1152 1040 926 1033
8 1153 1038 929 1035 1034 927 820 923
8 1154 1042 930 1036 1035 929 822 924
8 1037 928 821 925 1155 1041 930 1036
8 1039 935 828 939 1156 1047 938 1055
8 1157 1043 932 1042 1038 933 825 929
8 1038 933 826 927 1158 1045 934 1040
8 1040 934 827 926 1159 1046 935 1039
8 930 824 932 1042 1041 931 1044 1160
8 1051 936 1048 1165 1175 1052 937 1053
8 1156 1047 938 1055 1053 937 1054 1178
8 939 828 940 1058 1055 938 1056 1181
8 941 829 942 1060 1057 939 1058 1183
8 942 830 943 1061 1058 940 1059 1184
8 1060 942 832 944 1185 1061 945 1062
8 1082 964 1063 1188 981 889 947 1064
8 1097 981 1064 1190 979 870 948 1066
8 1064 947 1065 1191 948 837 949 1067
8 1066 948 1067 1193 975 869 950 1069
8 1067 949 1068 1194 950 838 951 1070
8 1069 950 1070 1195 952 839 953 1071
8 956 849 959 1072 1073 958 1076 1197
8 1074 960 1076 1197 1008 906 959 1072
8 1073 958 1076 1197 965 868 980 1085
8 1074 960 906 1008 1198 1077 1014 1122
8 1133 1026 1079 1199 1019 918 962 1075
8 1077 963 913 1014 1200 1080 962 1075
8 960 853 963 1077 1076 961 1078 1201
8 980 883 961 1076 1099 994 1078 1201
8 1210 1083 964 1082 1100 999 889 981
8 966 871 980 1085 1086 984 1099 1215
8 967 872 984 1086 1087 985 1103 1216
8 971 876 985 1087 1090 988 1104 1217
8 1088 986 874 969 1218 1105 987 1089
8 972 879 986 1088 1091 991 1105 1218
8 970 875 988 1090 1089 987 1106 1219
8 973 880 991 1091 1092 992 1109 1220
8 1093 993 881 974 1221 1110 992 1092
8 1222 1108 990 1095 1093 993 882 976
8 1223 1101 982 1094 1096 989 877 977
8 1098 983 870 979 1223 1101 982 1094
8 1095 990 1107 1224 978 878 989 1096
8 1098 983 1100 1225 979 870 981 1097
8 984 884 994 1099 1103 995 1111 1227
8 1102 1001 1115 1228 983 891 999 1100
8 1101 1000 892 989 1229 1116 1002 1107
8 1102 1001 891 983 1229 1116 1000 1101
8 985 885 995 1103 1104 996 1112 1230
8 988 886 996 1104 1106 997 1113 1231
8 1105 998 888 987 1232 1114 997 1106
8 991 896 998 1105 1109 1005 1114 1232
8 1108 1003 1117 1233 990 893 1002 1107
8 1108 1003 894 993 1233 1117 1004 1110
8 992 895 1005 1109 1110 1004 1118 1234
8 1120 1013 1127 1244 1007 907 1015 1121
8 1148 1031 1127 1244 1030 920 1013 1120
8 1121 1015 1129 1245 1011 908 1016 1125
8 1126 1019 1075 1196 1246 1128 1014 1122
8 1246 1128 1014 1122 1123 1017 909 1009
8 1124 1018 1131 1247 1010 910 1017 1123
8 1125 1016 1130 1248 1012 911 1018 1124
8 1127 1020 1137 1254 1015 914 1022 1129
8 1031 921 1032 1149 1127 1020 1137 1254
8 1134 1027 918 1019 1257 1140 1021 1128
8 1257 1140 1021 1128 1131 1024 916 1017
8 1129 1022 1141 1258 1016 915 1023 1130
8 1130 1023 1142 1259 1018 917 1024 1131
8 1261 1144 1025 1132 1133 1026 1079 1199
8 1255 1138 1025 1132 1135 1028 1144 1261
8 1133 1026 918 1019 1262 1145 1027 1134
8 1136 1029 1139 1256 1263 1146 1028 1135
8 1037 928 1041 1155 1148 1031 1149 1275
8 1041 931 1044 1160 1149 1032 1150 1276
8 1151 1039 939 1057 1278 1156 1055 1180
8 1152 1040 926 1033 1279 1159 1039 1151
8 1153 1038 927 1034 1280 1158 1040 1152
8 1281 1157 1042 1154 1153 1038 929 1035
8 1036 930 1042 1154 1155 1041 1160 1282
8 1283 1164 1046 1159 1156 1047 935 1039
8 1165 1048 1164 1283 1053 937 1047 1156
8 1157 1043 933 1038 1284 1161 1045 1158
8 1157 1043 1161 1284 1042 932 1044 1160
8 1040 934 1046 1159 1158 1045 1163 1285
8 1166 1049 1167 1292 1051 936 1048 1165
8 1166 1049 936 1051 1293 1168 1050 1172
8 1051 936 1052 1175 1172 1050 1173 1306
8 1174 1051 1165 1290 1308 1175 1053 1177
8 1053 937 1054 1178 1175 1052 1176 1309
8 1278 1156 1055 1180 1177 1053 1178 1311
8 1055 938 1056 1181 1178 1054 1179 1312
8 1057 939 1058 1183 1180 1055 1181 1314
8 1058 940 1059 1184 1181 1056 1182 1315
8 1060 942 1061 1185 1183 1058 1184 1316
8 1208 1081 1187 1321 1082 964 1063 1188
8 1209 1082 1188 1322 1097 981 1064 1190
8 1188 1063 1189 1323 1064 947 1065 1191
8 1190 1064 1191 1325 1066 948 1067 1193
8 1191 1065 1192 1326 1067 949 1068 1194
8 1067 1193 1069 950 1194 1327 1195 1070
8 1250 1133 1199 1330 1126 1019 1075 1196
8 1198 1077 1014 1122 1331 1200 1075 1196
8 1074 960 1077 1198 1197 1076 1201 1332
8 1085 980 1076 1197 1215 1099 1201 1332
8 1199 1079 1203 1333 1075 962 1080 1200
8 1132 1025 1119 1243 1199 1079 1203 1333
8 1201 1078 963 1077 1334 1202 1080 1200
8 1099 994 1078 1201 1227 1111 1202 1334
8 1343 1207 1081 1208 1210 1083 964 1082
8 1214 1084 1186 1319 1343 1207 1081 1208
8 1345 1210 1082 1209 1225 1100 981 1097
8 1346 1211 1083 1210 1228 1115 999 1100
8 1086 984 1099 1215 1216 1103 1227 1352
8 1087 985 1103 1216 1217 1104 1230 1353
8 1090 988 1104 1217 1219 1106 1231 1354
8 1218 1105 987 1089 1355 1232 1106 1219
8 1091 991 1105 1218 1220 1109 1232 1355
8 1092 992 1109 1220 1221 1110 1234 1356
8 1222 1108 1233 1357 1095 990 1107 1224
8 1222 1108 993 1093 1357 1233 1110 1221
8 1223 1101 989 1096 1358 1229 1107 1224
8 1226 1102 983 1098 1358 1229 1101 1223
8 1226 1102 1228 1359 1098 983 1100 1225
8 1103 995 1111 1227 1230 1112 1235 1360
8 1107 1002 1117 1233 1229 1116 1240 1362
8 1102 1001 1116 1229 1228 1115 1240 1362
8 1104 996 1112 1230 1231 1113 1236 1363
8 1364 1237 1114 1232 1231 1113 997 1106
8 1109 1005 1114 1232 1234 1118 1238 1365
8 1110 1004 1118 1234 1233 1117 1241 1366
8 1242 1374 1255 1138 1119 1243 1132 1025
8 1244 1127 1254 1376 1121 1015 1129 1245
8 1148 1031 1149 1275 1244 1127 1254 1376
8 1245 1129 1258 1377 1125 1016 1130 1248
8 1251 1134 1019 1126 1378 1257 1128 1246
8 1378 1257 1128 1246 1247 1131 1017 1123
8 1248 1130 1259 1379 1124 1018 1131 1247
8 1261 1381 1250 1133 1132 1249 1330 1199
8 1255 1380 1252 1135 1132 1249 1381 1261
8 1250 1133 1019 1126 1382 1262 1134 1251
8 1253 1136 1256 1385 1384 1263 1135 1252
8 1254 1137 1265 1387 1129 1022 1141 1258
8 1149 1032 1150 1276 1254 1137 1265 1387
8 1028 1135 1255 1138 1139 1256 1388 1266
8 1136 1029 1147 1264 1256 1139 1267 1389
8 1390 1268 1140 1257 1259 1142 1024 1131
8 1260 1143 1027 1134 1390 1268 1140 1257
8 1258 1141 1269 1391 1130 1023 1142 1259
8 1262 1145 1027 1134 1393 1271 1143 1260
8 1261 1144 1026 1133 1394 1272 1145 1262
8 1135 1028 1144 1261 1263 1146 1272 1394
8 1136 1029 1146 1263 1264 1147 1273 1395
8 1155 1041 1160 1282 1275 1149 1276 1405
8 1276 1150 1044 1160 1406 1277 1162 1286
8 1408 1283 1159 1279 1278 1156 1039 1151
8 1290 1165 1283 1408 1177 1053 1156 1278
8 1152 1040 1159 1279 1280 1158 1285 1409
8 1281 1157 1038 1153 1410 1284 1158 1280
8 1281 1157 1284 1410 1154 1042 1160 1282
8 1159 1046 1164 1283 1285 1163 1289 1412
8 1292 1167 1289 1412 1165 1048 1164 1283
8 1158 1045 1163 1285 1284 1161 1288 1413
8 1284 1161 1288 1413 1160 1044 1162 1286
8 1291 1166 1292 1418 1174 1051 1165 1290
8 1291 1166 1051 1174 1419 1293 1172 1305
8 1294 1169 1296 1421 1166 1049 1167 1292
8 1293 1168 1050 1172 1422 1295 1171 1303
8 1294 1169 1049 1166 1423 1297 1168 1293
8 1422 1295 1171 1303 1301 1170 1302 1435
8 1172 1050 1173 1306 1303 1171 1304 1438
8 1174 1051 1175 1308 1305 1172 1306 1440
8 1175 1052 1176 1309 1306 1173 1307 1441
8 1177 1053 1178 1311 1308 1175 1309 1443
8 1178 1054 1179 1312 1309 1176 1310 1444
8 1180 1055 1181 1314 1311 1178 1312 1446
8 1056 1181 1312 1179 1182 1315 1447 1313
8 1183 1058 1184 1316 1314 1181 1315 1448
8 1319 1186 1084 1214 1451 1317 1213 1350
8 1319 1186 1318 1453 1208 1081 1187 1321
8 1321 1187 1320 1456 1188 1063 1189 1323
8 1344 1208 1321 1457 1209 1082 1188 1322
8 1322 1188 1323 1458 1190 1064 1191 1325
8 1323 1189 1324 1459 1191 1065 1192 1326
8 1191 1325 1193 1067 1326 1460 1327 1194
8 1242 1374 1243 1119 1328 1462 1335 1204
8 1330 1199 1333 1465 1196 1075 1200 1331
8 1132 1249 1330 1199 1243 1375 1465 1333
8 1332 1201 1077 1198 1466 1334 1200 1331
8 1215 1099 1201 1332 1352 1227 1334 1466
8 1119 1243 1333 1203 1204 1335 1470 1338
8 1333 1203 1338 1470 1200 1080 1202 1334
8 1227 1111 1202 1334 1360 1235 1338 1470
8 1328 1462 1335 1204 1205 1336 1471 1339
8 1337 1206 1340 1472 1464 1329 1205 1336
8 1346 1211 1342 1479 1210 1083 1207 1343
8 1346 1211 1115 1228 1479 1342 1239 1361
8 1348 1212 1084 1214 1479 1342 1207 1343
8 1480 1343 1208 1344 1345 1210 1082 1209
8 1351 1214 1319 1454 1480 1343 1208 1344
8 1481 1346 1210 1345 1359 1228 1100 1225
8 1348 1212 1347 1483 1214 1084 1213 1350
8 1216 1103 1227 1352 1353 1230 1360 1488
8 1217 1104 1230 1353 1354 1231 1363 1489
8 1490 1364 1232 1355 1354 1231 1106 1219
8 1220 1109 1232 1355 1356 1234 1365 1491
8 1221 1110 1234 1356 1357 1233 1366 1492
8 1224 1107 1233 1357 1358 1229 1362 1493
8 1226 1102 1229 1358 1359 1228 1362 1493
8 1230 1112 1235 1360 1363 1236 1367 1496
8 1361 1239 1115 1228 1497 1371 1240 1362
8 1366 1241 1372 1498 1233 1117 1240 1362
8 1364 1237 1113 1231 1499 1368 1236 1363
8 1364 1237 1368 1499 1232 1114 1238 1365
8 1234 1118 1238 1365 1366 1241 1369 1500
8 1507 1373 1242 1374 1388 1266 1138 1255
8 1508 1374 1243 1375 1380 1255 1132 1249
8 1376 1254 1387 1509 1245 1129 1258 1377
8 1275 1149 1276 1405 1376 1254 1387 1509
8 1377 1258 1391 1510 1248 1130 1259 1379
8 1511 1390 1257 1378 1379 1259 1131 1247
8 1383 1260 1134 1251 1511 1390 1257 1378
8 1252 1135 1256 1385 1380 1255 1388 1512
8 1261 1381 1513 1394 1133 1250 1382 1262
8 1135 1252 1384 1263 1261 1381 1513 1394
8 1382 1262 1134 1251 1514 1393 1260 1383
8 1253 1136 1263 1384 1386 1264 1395 1516
8 1253 1136 1264 1386 1385 1256 1389 1517
8 1387 1265 1397 1519 1258 1141 1269 1391
8 1276 1150 1277 1406 1387 1265 1397 1519
8 1256 1139 1267 1389 1388 1266 1398 1520
8 1264 1147 1274 1396 1389 1267 1399 1521
8 1392 1270 1143 1260 1522 1400 1268 1390
8 1390 1268 1142 1259 1522 1400 1269 1391
8 1392 1270 1401 1523 1260 1143 1271 1393
8 1272 1394 1524 1402 1145 1262 1393 1271
8 1395 1273 1146 1263 1524 1402 1272 1394
8 1273 1395 1264 1147 1403 1526 1396 1274
8 1405 1276 1160 1282 1534 1406 1286 1411
8 1414 1287 1407 1535 1286 1162 1277 1406
8 1279 1159 1283 1408 1409 1285 1412 1537
8 1418 1292 1412 1537 1290 1165 1283 1408
8 1280 1158 1285 1409 1410 1284 1413 1538
8 1410 1284 1413 1538 1282 1160 1286 1411
8 1285 1163 1289 1412 1413 1288 1417 1540
8 1421 1296 1417 1540 1292 1167 1289 1412
8 1414 1287 1162 1286 1541 1416 1288 1413
8 1420 1294 1421 1545 1291 1166 1292 1418
8 1419 1293 1172 1305 1546 1422 1303 1437
8 1420 1294 1166 1291 1547 1423 1293 1419
8 1294 1169 1297 1423 1421 1296 1425 1548
8 1423 1297 1168 1293 1549 1424 1295 1422
8 1301 1170 1298 1427 1422 1295 1424 1549
8 1432 1300 1428 1554 1301 1170 1298 1427
8 1431 1299 1428 1554 1560 1430 1300 1432
8 1563 1433 1300 1432 1435 1302 1170 1301
8 1546 1422 1303 1437 1434 1301 1435 1565
8 1303 1171 1304 1438 1435 1302 1436 1566
8 1305 1172 1306 1440 1437 1303 1438 1568
8 1306 1173 1307 1441 1438 1304 1439 1569
8 1308 1175 1309 1443 1440 1306 1441 1571
8 1309 1176 1310 1444 1441 1307 1442 1572
8 1311 1178 1312 1446 1443 1309 1444 1574
8 1179 1312 1444 1310 1313 1447 1575 1445
8 1314 1181 1315 1448 1446 1312 1447 1576
8 1350 1213 1349 1486 1451 1317 1449 1579
8 1451 1317 1450 1581 1319 1186 1318 1453
8 1454 1319 1214 1351 1582 1451 1350 1487
8 1453 1318 1452 1584 1321 1187 1320 1456
8 1454 1319 1453 1585 1344 1208 1321 1457
8 1456 1320 1455 1586 1323 1189 1324 1459
8 1457 1321 1456 1587 1322 1188 1323 1458
8 1458 1323 1459 1588 1325 1191 1326 1460
8 1205 1336 1464 1329 1328 1462 1590 1461
8 1507 1373 1461 1590 1374 1242 1328 1462
8 1508 1374 1462 1591 1375 1243 1335 1467
8 1337 1206 1329 1464 1473 1341 1463 1594
8 1375 1243 1335 1467 1465 1333 1470 1596
8 1465 1333 1470 1596 1331 1200 1334 1466
8 1352 1227 1334 1466 1488 1360 1470 1596
8 1591 1462 1336 1468 1467 1335 1471 1597
8 1469 1337 1472 1598 1595 1464 1336 1468
8 1471 1339 1474 1600 1335 1204 1338 1470
8 1600 1474 1367 1496 1470 1338 1235 1360
8 1336 1205 1340 1472 1471 1339 1475 1601
8 1337 1206 1341 1473 1472 1340 1476 1602
8 1495 1370 1478 1609 1361 1239 1342 1479
8 1348 1212 1342 1479 1483 1347 1478 1609
8 1481 1346 1479 1610 1345 1210 1343 1480
8 1481 1346 1228 1359 1610 1479 1361 1494
8 1484 1348 1214 1351 1610 1479 1343 1480
8 1483 1347 1482 1612 1350 1213 1349 1486
8 1484 1348 1483 1613 1351 1214 1350 1487
8 1353 1230 1360 1488 1489 1363 1496 1616
8 1490 1364 1231 1354 1617 1499 1363 1489
8 1490 1364 1499 1617 1355 1232 1365 1491
8 1356 1234 1365 1491 1492 1366 1500 1619
8 1492 1366 1498 1620 1357 1233 1362 1493
8 1494 1361 1228 1359 1621 1497 1362 1493
8 1495 1370 1239 1361 1622 1504 1371 1497
8 1363 1236 1367 1496 1499 1368 1501 1623
8 1497 1371 1240 1362 1624 1505 1372 1498
8 1625 1503 1372 1498 1500 1369 1241 1366
8 1365 1238 1368 1499 1500 1369 1502 1626
8 1520 1398 1506 1633 1388 1266 1373 1507
8 1634 1507 1374 1508 1512 1388 1255 1380
8 1509 1387 1519 1635 1377 1258 1391 1510
8 1405 1276 1406 1534 1509 1387 1519 1635
8 1515 1392 1260 1383 1636 1522 1390 1511
8 1511 1390 1259 1379 1636 1522 1391 1510
8 1385 1256 1389 1517 1512 1388 1520 1637
8 1513 1394 1262 1382 1638 1524 1393 1514
8 1395 1516 1638 1524 1263 1384 1513 1394
8 1515 1392 1523 1639 1383 1260 1393 1514
8 1516 1395 1526 1640 1386 1264 1396 1518
8 1386 1264 1396 1518 1517 1389 1521 1641
8 1519 1397 1527 1643 1391 1269 1400 1522
8 1535 1407 1527 1643 1406 1277 1397 1519
8 1389 1267 1399 1521 1520 1398 1528 1644
8 1645 1529 1399 1521 1525 1404 1274 1396
8 1392 1270 1400 1522 1523 1401 1531 1646
8 1524 1402 1271 1393 1648 1532 1401 1523
8 1403 1526 1648 1532 1273 1395 1524 1402
8 1525 1404 1274 1396 1649 1533 1403 1526
8 1539 1414 1535 1657 1411 1286 1406 1534
8 1542 1415 1536 1658 1414 1287 1407 1535
8 1409 1285 1412 1537 1538 1413 1540 1660
8 1545 1421 1540 1660 1418 1292 1412 1537
8 1539 1414 1286 1411 1661 1541 1413 1538
8 1540 1417 1544 1663 1413 1288 1416 1541
8 1421 1296 1425 1548 1540 1417 1544 1663
8 1542 1415 1287 1414 1664 1543 1416 1541
8 1420 1294 1423 1547 1545 1421 1548 1666
8 1547 1423 1293 1419 1667 1549 1422 1546
8 1434 1301 1427 1553 1546 1422 1549 1667
8 1423 1297 1424 1549 1548 1425 1550 1668
8 1551 1426 1550 1668 1427 1298 1424 1549
8 1551 1426 1298 1427 1671 1552 1428 1554
8 1562 1432 1554 1674 1434 1301 1427 1553
8 1431 1299 1429 1558 1554 1428 1555 1675
8 1431 1299 1430 1560 1558 1429 1557 1680
8 1560 1430 1300 1432 1683 1559 1433 1563
8 1561 1431 1554 1674 1684 1560 1432 1562
8 1685 1563 1432 1562 1565 1435 1301 1434
8 1435 1302 1436 1566 1563 1433 1564 1686
8 1437 1303 1438 1568 1565 1435 1566 1688
8 1438 1304 1439 1569 1566 1436 1567 1689
8 1440 1306 1441 1571 1568 1438 1569 1691
8 1441 1307 1442 1572 1569 1439 1570 1692
8 1443 1309 1444 1574 1571 1441 1572 1694
8 1310 1444 1572 1442 1445 1575 1695 1573
8 1446 1312 1447 1576 1574 1444 1575 1696
8 1486 1349 1485 1614 1579 1449 1577 1699
8 1451 1317 1449 1579 1581 1450 1578 1701
8 1487 1350 1486 1615 1582 1451 1579 1702
8 1581 1450 1580 1704 1453 1318 1452 1584
8 1582 1451 1581 1705 1454 1319 1453 1585
8 1584 1452 1583 1706 1456 1320 1455 1586
8 1585 1453 1584 1707 1457 1321 1456 1587
8 1587 1456 1586 1708 1458 1323 1459 1588
8 1633 1506 1589 1710 1507 1373 1461 1590
8 1464 1329 1461 1590 1594 1463 1589 1710
8 1468 1336 1462 1591 1595 1464 1590 1711
8 1634 1507 1590 1711 1508 1374 1462 1591
8 1473 1341 1463 1594 1603 1477 1593 1716
8 1469 1337 1464 1595 1599 1473 1594 1717
8 1471 1597 1467 1335 1600 1718 1596 1470
8 1718 1600 1496 1616 1596 1470 1360 1488
8 1336 1468 1597 1471 1472 1598 1719 1601
8 1469 1337 1473 1599 1598 1472 1602 1720
8 1722 1604 1501 1623 1600 1474 1367 1496
8 1475 1601 1471 1339 1604 1722 1600 1474
8 1602 1476 1605 1723 1472 1340 1475 1601
8 1476 1602 1724 1606 1341 1473 1603 1477
8 1483 1347 1478 1609 1612 1482 1608 1731
8 1495 1370 1504 1622 1609 1478 1608 1731
8 1618 1495 1609 1732 1494 1361 1479 1610
8 1484 1348 1479 1610 1613 1483 1609 1732
8 1486 1349 1482 1612 1614 1485 1611 1733
8 1613 1483 1612 1734 1487 1350 1486 1615
8 1489 1363 1496 1616 1617 1499 1623 1736
8 1491 1365 1499 1617 1619 1500 1626 1737
8 1618 1495 1361 1494 1738 1622 1497 1621
8 1739 1625 1498 1620 1619 1500 1366 1492
8 1621 1497 1362 1493 1740 1624 1498 1620
8 1742 1631 1504 1622 1624 1505 1371 1497
8 1743 1628 1502 1626 1623 1501 1368 1499
8 1744 1630 1505 1624 1625 1503 1372 1498
8 1745 1629 1503 1625 1626 1502 1369 1500
8 1520 1398 1528 1644 1633 1506 1632 1751
8 1637 1520 1633 1752 1512 1388 1507 1634
8 1635 1519 1643 1753 1510 1391 1522 1636
8 1657 1535 1643 1753 1534 1406 1519 1635
8 1515 1392 1522 1636 1639 1523 1646 1754
8 1517 1389 1521 1641 1637 1520 1644 1755
8 1524 1638 1756 1648 1393 1514 1639 1523
8 1640 1526 1395 1516 1756 1648 1524 1638
8 1642 1525 1396 1518 1757 1649 1526 1640
8 1758 1645 1521 1641 1642 1525 1396 1518
8 1646 1531 1400 1522 1760 1650 1527 1643
8 1535 1407 1536 1658 1643 1527 1650 1760
8 1521 1399 1529 1645 1644 1528 1651 1761
8 1647 1530 1652 1762 1525 1404 1529 1645
8 1401 1523 1648 1532 1531 1646 1763 1655
8 1525 1404 1533 1649 1647 1530 1654 1765
8 1533 1649 1766 1656 1403 1526 1648 1532
8 1662 1542 1658 1774 1539 1414 1535 1657
8 1542 1415 1543 1664 1658 1536 1659 1775
8 1660 1540 1663 1777 1538 1413 1541 1661
8 1545 1421 1548 1666 1660 1540 1663 1777
8 1662 1542 1414 1539 1778 1664 1541 1661
8 1664 1543 1416 1541 1779 1665 1544 1663
8 1548 1425 1550 1668 1663 1544 1665 1779
8 1547 1423 1549 1667 1666 1548 1668 1781
8 1670 1551 1668 1781 1553 1427 1549 1667
8 1551 1426 1552 1671 1668 1550 1669 1782
8 1670 1551 1427 1553 1784 1671 1554 1674
8 1675 1555 1672 1785 1554 1428 1552 1671
8 1678 1556 1673 1789 1558 1429 1555 1675
8 1561 1431 1558 1681 1674 1554 1675 1790
8 1794 1677 1556 1678 1680 1557 1429 1558
8 1560 1430 1559 1683 1680 1557 1679 1797
8 1561 1431 1560 1684 1681 1558 1680 1798
8 1563 1433 1564 1686 1683 1559 1682 1800
8 1684 1560 1432 1562 1801 1683 1563 1685
8 1565 1435 1566 1688 1685 1563 1686 1802
8 1566 1436 1567 1689 1686 1564 1687 1803
8 1568 1438 1569 1691 1688 1566 1689 1805
8 1569 1439 1570 1692 1689 1567 1690 1806
8 1571 1441 1572 1694 1691 1569 1692 1808
8 1442 1572 1692 1570 1573 1695 1809 1693
8 1574 1444 1575 1696 1694 1572 1695 1810
8 1614 1485 1592 1712 1699 1577 1697 1813
8 1579 1449 1577 1699 1701 1578 1698 1815
8 1615 1486 1614 1735 1702 1579 1699 1816
8 1701 1578 1700 1818 1581 1450 1580 1704
8 1582 1451 1579 1702 1705 1581 1701 1819
8 1704 1580 1703 1820 1584 1452 1583 1706
8 1705 1581 1704 1821 1585 1453 1584 1707
8 1707 1584 1706 1822 1587 1456 1586 1708
8 1710 1589 1506 1633 1824 1709 1632 1751
8 1594 1463 1589 1710 1716 1593 1709 1824
8 1752 1633 1710 1825 1634 1507 1590 1711
8 1595 1464 1590 1711 1717 1594 1710 1825
8 1830 1714 1592 1712 1733 1611 1485 1614
8 1603 1477 1593 1716 1725 1607 1715 1834
8 1599 1473 1594 1717 1721 1603 1716 1835
8 1837 1722 1623 1736 1718 1600 1496 1616
8 1719 1601 1722 1837 1597 1471 1600 1718
8 1602 1720 1598 1472 1723 1838 1719 1601
8 1720 1602 1473 1599 1839 1724 1603 1721
8 1723 1605 1726 1840 1601 1475 1604 1722
8 1840 1726 1628 1743 1722 1604 1501 1623
8 1724 1606 1727 1841 1602 1476 1605 1723
8 1725 1607 1728 1842 1603 1477 1606 1724
8 1612 1482 1608 1731 1733 1611 1730 1849
8 1741 1627 1730 1849 1622 1504 1608 1731
8 1613 1483 1609 1732 1734 1612 1731 1850
8 1618 1495 1622 1738 1732 1609 1731 1850
8 1615 1486 1612 1734 1735 1614 1733 1851
8 1852 1743 1626 1737 1736 1623 1499 1617
8 1853 1745 1625 1739 1737 1626 1500 1619
8 1855 1742 1622 1738 1740 1624 1497 1621
8 1856 1744 1624 1740 1739 1625 1498 1620
8 1741 1627 1504 1622 1857 1746 1631 1742
8 1742 1631 1505 1624 1858 1749 1630 1744
8 1859 1747 1629 1745 1743 1628 1502 1626
8 1860 1748 1630 1744 1745 1629 1503 1625
8 1644 1528 1651 1761 1751 1632 1750 1865
8 1637 1520 1644 1755 1752 1633 1751 1866
8 1754 1646 1522 1636 1867 1760 1643 1753
8 1657 1535 1658 1774 1753 1643 1760 1867
8 1639 1523 1646 1754 1756 1648 1763 1868
8 1641 1521 1645 1758 1755 1644 1761 1869
8 1757 1649 1526 1640 1870 1766 1648 1756
8 1642 1525 1649 1757 1759 1647 1765 1871
8 1759 1647 1762 1872 1642 1525 1645 1758
8 1760 1650 1767 1874 1646 1531 1655 1763
8 1658 1536 1659 1775 1760 1650 1767 1874
8 1762 1652 1768 1875 1645 1529 1651 1761
8 1764 1653 1769 1876 1647 1530 1652 1762
8 1656 1766 1877 1773 1532 1648 1763 1655
8 1771 1879 1765 1654 1653 1764 1647 1530
8 1533 1649 1765 1654 1656 1766 1880 1772
8 1662 1542 1664 1778 1774 1658 1775 1887
8 1664 1543 1665 1779 1775 1659 1776 1888
8 1778 1664 1541 1661 1890 1779 1663 1777
8 1666 1548 1668 1781 1777 1663 1779 1890
8 1782 1669 1780 1891 1668 1550 1665 1779
8 1670 1551 1671 1784 1781 1668 1782 1893
8 1671 1552 1672 1785 1782 1669 1783 1894
8 1790 1675 1785 1896 1674 1554 1671 1784
8 1675 1555 1673 1789 1785 1672 1786 1897
8 1792 1676 1788 1903 1678 1556 1673 1789
8 1795 1678 1789 1904 1681 1558 1675 1790
8 1792 1676 1556 1678 1906 1791 1677 1794
8 1680 1557 1679 1797 1794 1677 1793 1909
8 1910 1794 1678 1795 1798 1680 1558 1681
8 1683 1559 1682 1800 1797 1679 1796 1912
8 1684 1560 1683 1801 1798 1680 1797 1913
8 1686 1564 1687 1803 1800 1682 1799 1915
8 1685 1563 1686 1802 1801 1683 1800 1916
8 1688 1566 1689 1805 1802 1686 1803 1917
8 1689 1567 1690 1806 1803 1687 1804 1918
8 1691 1569 1692 1808 1805 1689 1806 1920
8 1692 1570 1693 1809 1806 1690 1807 1921
8 1694 1572 1695 1810 1808 1692 1809 1922
8 1829 1713 1811 1926 1712 1592 1697 1813
8 1813 1697 1812 1928 1699 1577 1698 1815
8 1735 1614 1712 1828 1816 1699 1813 1929
8 1815 1698 1814 1931 1701 1578 1700 1818
8 1702 1579 1699 1816 1819 1701 1815 1932
8 1818 1700 1817 1933 1704 1580 1703 1820
8 1819 1701 1818 1934 1705 1581 1704 1821
8 1821 1704 1820 1935 1707 1584 1706 1822
8 1824 1709 1632 1751 1937 1823 1750 1865
8 1716 1593 1709 1824 1834 1715 1823 1937
8 1825 1710 1633 1752 1938 1824 1751 1866
8 1717 1594 1710 1825 1835 1716 1824 1938
8 1945 1830 1712 1828 1851 1733 1614 1735
8 1830 1714 1831 1946 1712 1592 1713 1829
8 1947 1832 1714 1830 1849 1730 1611 1733
8 1843 1729 1607 1725 1950 1833 1715 1834
8 1721 1603 1716 1835 1836 1725 1834 1951
8 1836 1725 1842 1953 1721 1603 1724 1839
8 1723 1838 1719 1601 1840 1954 1837 1722
8 1954 1840 1743 1852 1837 1722 1623 1736
8 1724 1839 1720 1602 1841 1955 1838 1723
8 1841 1727 1844 1956 1723 1605 1726 1840
8 1956 1844 1747 1859 1840 1726 1628 1743
8 1728 1842 1724 1606 1845 1957 1841 1727
8 1725 1607 1729 1843 1842 1728 1846 1958
8 1741 1627 1746 1857 1849 1730 1848 1965
8 1734 1612 1731 1850 1851 1733 1849 1966
8 1854 1741 1849 1966 1738 1622 1731 1850
8 1967 1859 1745 1853 1852 1743 1626 1737
8 1968 1860 1744 1856 1853 1745 1625 1739
8 1854 1741 1622 1738 1969 1857 1742 1855
8 1855 1742 1624 1740 1970 1858 1744 1856
8 1857 1746 1631 1742 1971 1861 1749 1858
8 1858 1749 1630 1744 1972 1863 1748 1860
8 1859 1747 1862 1973 1745 1629 1748 1860
8 1875 1768 1864 1977 1761 1651 1750 1865
8 1755 1644 1761 1869 1866 1751 1865 1978
8 1867 1760 1874 1979 1754 1646 1763 1868
8 1774 1658 1775 1887 1867 1760 1874 1979
8 1870 1766 1648 1756 1980 1877 1763 1868
8 1872 1762 1875 1981 1758 1645 1761 1869
8 1757 1649 1766 1870 1871 1765 1880 1982
8 1983 1879 1764 1873 1871 1765 1647 1759
8 1873 1764 1876 1984 1759 1647 1762 1872
8 1877 1773 1655 1763 1986 1881 1767 1874
8 1775 1659 1776 1888 1874 1767 1881 1986
8 1876 1769 1882 1987 1762 1652 1768 1875
8 1878 1770 1883 1988 1764 1653 1769 1876
8 1880 1772 1656 1766 1989 1886 1773 1877
8 1878 1770 1653 1764 1990 1884 1771 1879
8 1765 1654 1772 1880 1879 1771 1885 1991
8 1778 1664 1779 1890 1887 1775 1888 1997
8 1998 1889 1776 1888 1891 1780 1665 1779
8 1893 1782 1891 2000 1781 1668 1779 1890
8 1894 1783 1892 2001 1782 1669 1780 1891
8 1784 1671 1785 1896 1893 1782 1894 2003
8 1897 1786 1895 2004 1785 1672 1783 1894
8 1790 1675 1789 1904 1896 1785 1897 2006
8 1901 1787 1898 2007 1789 1673 1786 1897
8 1903 1788 1900 2013 1789 1673 1787 1901
8 1792 1676 1791 1906 1903 1788 1902 2016
8 1907 1792 1903 2017 1795 1678 1789 1904
8 1906 1791 1677 1794 2019 1905 1793 1909
8 1907 1792 1678 1795 2020 1906 1794 1910
8 1797 1679 1796 1912 1909 1793 1908 2022
8 1798 1680 1797 1913 1910 1794 1909 2023
8 1800 1682 1799 1915 1912 1796 1911 2025
8 1801 1683 1800 1916 1913 1797 1912 2026
8 1803 1687 1804 1918 1915 1799 1914 2028
8 1802 1686 1803 1917 1916 1800 1915 2029
8 1805 1689 1806 1920 1917 1803 1918 2030
8 1806 1690 1807 1921 1918 1804 1919 2031
8 1808 1692 1809 1922 1920 1806 1921 2032
8 1939 1826 1924 2037 1829 1713 1811 1926
8 1926 1811 1925 2039 1813 1697 1812 1928
8 1944 1829 1926 2040 1828 1712 1813 1929
8 1928 1812 1927 2042 1815 1698 1814 1931
8 1929 1813 1928 2043 1816 1699 1815 1932
8 1931 1814 1930 2044 1818 1700 1817 1933
8 1932 1815 1931 2045 1819 1701 1818 1934
8 1934 1818 1933 2046 1821 1704 1820 1935
8 2048 1936 1823 1937 1977 1864 1750 1865
8 1950 1833 1715 1834 2048 1936 1823 1937
8 1938 1824 1751 1866 2049 1937 1865 1978
8 1835 1716 1824 1938 1951 1834 1937 2049
8 1939 1826 1713 1829 2053 1942 1831 1946
8 1940 1827 1923 2035 2053 1942 1826 1939
8 1945 1830 1946 2058 1828 1712 1829 1944
8 2059 1947 1830 1945 1966 1849 1733 1851
8 1947 1832 1730 1849 2060 1948 1848 1965
8 1947 1832 1948 2060 1830 1714 1831 1946
8 1959 1847 1729 1843 2063 1949 1833 1950
8 1952 1843 1725 1836 2064 1950 1834 1951
8 1836 1725 1843 1952 1953 1842 1958 2066
8 1953 1842 1957 2067 1839 1724 1841 1955
8 1841 1955 1838 1723 1956 2068 1954 1840
8 2068 1956 1859 1967 1954 1840 1743 1852
8 1956 1844 1960 2069 1859 1747 1862 1973
8 1845 1957 1841 1727 1960 2069 1956 1844
8 1728 1842 1957 1845 1846 1958 2071 1961
8 1962 2072 1959 1847 1846 1958 1843 1729
8 1971 1861 1964 2077 1857 1746 1848 1965
8 1854 1741 1857 1969 1966 1849 1965 2078
8 1967 1859 1973 2079 1853 1745 1860 1968
8 1970 1858 1744 1856 2080 1972 1860 1968
8 1969 1857 1742 1855 2081 1971 1858 1970
8 1971 1861 1749 1858 2082 1974 1863 1972
8 1973 1862 1975 2083 1860 1748 1863 1972
8 1987 1882 1976 2086 1875 1768 1864 1977
8 1981 1875 1977 2087 1869 1761 1865 1978
8 1980 1877 1763 1868 2088 1986 1874 1979
8 1887 1775 1888 1997 1979 1874 1986 2088
8 1880 1982 2089 1989 1766 1870 1980 1877
8 1984 1876 1987 2090 1872 1762 1875 1981
8 1765 1871 1983 1879 1880 1982 2091 1991
8 1985 1878 1764 1873 2092 1990 1879 1983
8 1985 1878 1988 2093 1873 1764 1876 1984
8 2094 1992 1881 1986 1998 1889 1776 1888
8 1986 1881 1992 2094 1877 1773 1886 1989
8 1988 1883 1993 2095 1876 1769 1882 1987
8 1878 1770 1884 1990 1988 1883 1994 2096
8 1991 1885 1772 1880 2097 1996 1886 1989
8 1879 1771 1885 1991 1990 1884 1995 2098
8 2103 1998 1888 1997 2000 1891 1779 1890
8 2104 1999 1889 1998 2001 1892 1780 1891
8 2003 1894 2001 2106 1893 1782 1891 2000
8 2004 1895 2002 2107 1894 1783 1892 2001
8 2006 1897 2004 2109 1896 1785 1894 2003
8 2007 1898 2005 2110 1897 1786 1895 2004
8 2014 1901 2007 2112 1904 1789 1897 2006
8 2011 1899 2008 2113 1901 1787 1898 2007
8 2119 2010 1899 2011 2013 1900 1787 1901
8 2016 1902 2012 2122 1903 1788 1900 2013
8 2017 1903 2013 2123 1904 1789 1901 2014
8 1906 1791 1905 2019 2016 1902 2015 2125
8 1907 1792 1906 2020 2017 1903 2016 2126
8 1909 1793 1908 2022 2019 1905 2018 2128
8 2020 1906 1794 1910 2129 2019 1909 2023
8 1912 1796 1911 2025 2022 1908 2021 2131
8 1913 1797 1912 2026 2023 1909 2022 2132
8 1915 1799 1914 2028 2025 1911 2024 2134
8 1916 1800 1915 2029 2026 1912 2025 2135
8 1918 1804 1919 2031 2028 1914 2027 2136
8 1917 1803 1918 2030 2029 1915 2028 2137
8 1920 1806 1921 2032 2030 1918 2031 2138
8 1940 1827 1941 2054 2035 1923 2033 2140
8 2035 1923 2034 2143 1939 1826 1924 2037
8 2037 1924 2036 2146 1926 1811 1925 2039
8 2051 1939 2037 2147 1944 1829 1926 2040
8 2039 1925 2038 2149 1928 1812 1927 2042
8 2040 1926 2039 2150 1929 1813 1928 2043
8 2042 1927 2041 2151 1931 1814 1930 2044
8 2043 1928 2042 2152 1932 1815 1931 2045
8 2045 1931 2044 2153 1934 1818 1933 2046
8 2155 2047 1936 2048 2086 1976 1864 1977
8 2063 1949 1833 1950 2155 2047 1936 2048
8 2156 2048 1937 2049 2087 1977 1865 1978
8 2064 1950 1834 1951 2156 2048 1937 2049
8 2051 1939 1829 1944 2160 2053 1946 2058
8 2052 1940 2035 2144 2160 2053 1939 2051
8 2053 1942 1831 1946 2163 2057 1948 2060
8 2055 1943 1827 1940 2163 2057 1942 2053
8 2055 1943 2056 2164 1940 1827 1941 2054
8 2059 1947 1849 1966 2167 2060 1965 2078
8 2059 1947 2060 2167 1945 1830 1946 2058
8 2077 1964 2061 2168 1965 1848 1948 2060
8 2070 1963 1847 1959 2170 2062 1949 2063
8 2065 1959 1843 1952 2171 2063 1950 2064
8 2173 2072 1958 2066 2065 1959 1843 1952
8 1953 1842 1958 2066 2067 1957 2071 2174
8 2068 1956 2069 2175 1967 1859 1973 2079
8 2067 1957 2069 2175 1955 1841 1956 2068
8 1845 1957 2069 1960 1961 2071 2176 2073
8 2069 1960 2073 2176 1973 1862 1975 2083
8 2070 1963 2075 2177 1959 1847 1962 2072
8 1846 1958 2071 1961 1962 2072 2178 2074
8 2077 1964 1861 1971 2182 2076 1974 2082
8 2081 1971 2077 2183 1969 1857 1965 2078
8 2079 1973 2083 2184 1968 1860 1972 2080
8 2081 1971 1858 1970 2185 2082 1972 2080
8 2083 1975 2084 2186 1972 1863 1974 2082
8 2086 1976 1882 1987 2189 2085 1993 2095
8 2090 1987 2086 2190 1981 1875 1977 2087
8 2191 2094 1986 2088 2103 1998 1888 1997
8 2088 1986 2094 2191 1980 1877 1989 2089
8 1991 2091 2192 2097 1880 1982 2089 1989
8 2093 1988 2095 2193 1984 1876 1987 2090
8 1879 1983 2092 1990 1991 2091 2194 2098
8 1985 1878 1990 2092 2093 1988 2096 2195
8 2097 1996 1886 1989 2196 2099 1992 2094
8 2196 2099 1992 2094 2104 1999 1889 1998
8 1994 2096 1988 1883 2100 2197 2095 1993
8 2096 1994 1884 1990 2198 2101 1995 2098
8 1995 2098 2199 2102 1885 1991 2097 1996
8 2203 2104 1998 2103 2106 2001 1891 2000
8 2107 2002 2105 2204 2001 1892 1999 2104
8 2109 2004 2107 2206 2003 1894 2001 2106
8 2110 2005 2108 2207 2004 1895 2002 2107
8 2112 2007 2110 2209 2006 1897 2004 2109
8 2113 2008 2111 2210 2007 1898 2005 2110
8 2120 2011 2113 2212 2014 1901 2007 2112
8 2117 2009 2114 2213 2011 1899 2008 2113
8 2219 2116 2009 2117 2119 2010 1899 2011
8 2222 2118 2010 2119 2122 2012 1900 2013
8 2223 2119 2011 2120 2123 2013 1901 2014
8 2016 1902 2015 2125 2122 2012 2121 2225
8 2126 2016 2122 2226 2017 1903 2013 2123
8 2019 1905 2018 2128 2125 2015 2124 2228
8 2020 1906 2019 2129 2126 2016 2125 2229
8 2022 1908 2021 2131 2128 2018 2127 2231
8 2023 1909 2022 2132 2129 2019 2128 2232
8 2025 1911 2024 2134 2131 2021 2130 2234
8 2026 1912 2025 2135 2132 2022 2131 2235
8 1914 2028 2134 2024 2027 2136 2236 2133
8 2029 1915 2028 2137 2135 2025 2134 2237
8 2030 1918 2031 2138 2137 2028 2136 2238
8 2157 2050 2139 2240 2054 1941 2033 2140
8 2052 1940 2054 2161 2144 2035 2140 2242
8 2140 2033 2141 2243 2035 1923 2034 2143
8 2143 2034 2142 2246 2037 1924 2036 2146
8 2144 2035 2143 2247 2051 1939 2037 2147
8 2146 2036 2145 2249 2039 1925 2038 2149
8 2147 2037 2146 2250 2040 1926 2039 2150
8 2149 2038 2148 2251 2042 1927 2041 2151
8 2150 2039 2149 2252 2043 1928 2042 2152
8 2152 2042 2151 2253 2045 1931 2044 2153
8 2255 2154 2047 2155 2189 2085 1976 2086
8 2170 2062 1949 2063 2255 2154 2047 2155
8 2256 2155 2048 2156 2190 2086 1977 2087
8 2171 2063 1950 2064 2256 2155 2048 2156
8 2258 2159 2050 2157 2164 2056 1941 2054
8 2160 2053 1946 2058 2262 2163 2060 2167
8 2162 2055 1940 2052 2262 2163 2053 2160
8 2162 2055 2164 2263 2052 1940 2054 2161
8 2163 2057 1948 2060 2264 2165 2061 2168
8 2055 1943 2057 2163 2164 2056 2165 2264
8 2182 2076 2166 2268 2077 1964 2061 2168
8 2183 2077 2168 2269 2078 1965 2060 2167
8 2070 1963 2062 2170 2177 2075 2169 2271
8 2172 2070 1959 2065 2272 2170 2063 2171
8 2172 2070 2177 2273 2065 1959 2072 2173
8 2066 1958 2072 2173 2174 2071 2178 2274
8 2067 1957 2071 2174 2175 2069 2176 2275
8 2175 2069 2176 2275 2079 1973 2083 2184
8 2071 1961 2074 2178 2176 2073 2179 2276
8 2176 2073 2179 2276 2083 1975 2084 2186
8 2072 1962 2075 2177 2178 2074 2180 2277
8 2182 2076 1974 2082 2280 2181 2084 2186
8 2183 2077 1971 2081 2281 2182 2082 2185
8 2184 2083 2186 2282 2080 1972 2082 2185
8 2189 2085 1993 2095 2285 2188 2100 2197
8 2190 2086 1987 2090 2286 2189 2095 2193
8 2192 2097 1989 2089 2287 2196 2094 2191
8 2287 2196 2094 2191 2203 2104 1998 2103
8 2194 2098 1991 2091 2288 2199 2097 2192
8 2195 2096 2197 2289 2093 1988 2095 2193
8 2096 2195 2290 2198 1990 2092 2194 2098
8 2097 1996 2099 2196 2199 2102 2200 2291
8 2196 2099 1999 2104 2291 2200 2105 2204
8 2100 2197 2292 2201 1994 2096 2198 2101
8 1995 2098 2198 2101 2102 2199 2293 2202
8 2206 2107 2204 2296 2106 2001 2104 2203
8 2207 2108 2205 2297 2107 2002 2105 2204
8 2209 2110 2207 2299 2109 2004 2107 2206
8 2210 2111 2208 2300 2110 2005 2108 2207
8 2212 2113 2210 2302 2112 2007 2110 2209
8 2213 2114 2211 2303 2113 2008 2111 2210
8 2220 2117 2213 2305 2120 2011 2113 2212
8 2216 2115 2214 2306 2117 2009 2114 2213
8 2216 2115 2009 2117 2311 2217 2116 2219
8 2219 2116 2010 2119 2314 2218 2118 2222
8 2315 2219 2117 2220 2223 2119 2011 2120
8 2122 2012 2121 2225 2222 2118 2221 2317
8 2318 2222 2119 2223 2226 2122 2013 2123
8 2125 2015 2124 2228 2225 2121 2224 2320
8 2126 2016 2125 2229 2226 2122 2225 2321
8 2128 2018 2127 2231 2228 2124 2227 2323
8 2129 2019 2128 2232 2229 2125 2228 2324
8 2131 2021 2130 2234 2231 2127 2230 2326
8 2132 2022 2131 2235 2232 2128 2231 2327
8 2134 2024 2133 2236 2234 2130 2233 2328
8 2135 2025 2134 2237 2235 2131 2234 2329
8 2137 2028 2136 2238 2237 2134 2236 2330
8 2157 2050 2158 2259 2240 2139 2239 2332
8 2257 2157 2240 2334 2161 2054 2140 2242
8 2240 2139 2241 2335 2140 2033 2141 2243
8 2242 2140 2243 2337 2144 2035 2143 2247
8 2243 2141 2244 2338 2143 2034 2142 2246
8 2246 2142 2245 2341 2146 2036 2145 2249
8 2247 2143 2246 2342 2147 2037 2146 2250
8 2249 2145 2248 2343 2149 2038 2148 2251
8 2250 2146 2249 2344 2150 2039 2149 2252
8 2252 2149 2251 2345 2152 2042 2151 2253
8 2169 2271 2347 2254 2062 2170 2255 2154
8 2189 2085 2188 2285 2255 2154 2254 2347
8 2348 2255 2155 2256 2286 2189 2086 2190
8 2272 2170 2063 2171 2348 2255 2155 2256
8 2349 2258 2157 2257 2263 2164 2054 2161
8 2258 2159 2261 2351 2157 2050 2158 2259
8 2258 2159 2056 2164 2351 2261 2165 2264
8 2262 2163 2060 2167 2355 2264 2168 2269
8 2162 2055 2163 2262 2263 2164 2264 2355
8 2357 2266 2165 2264 2268 2166 2061 2168
8 2268 2166 2076 2182 2361 2267 2181 2280
8 2281 2182 2268 2362 2183 2077 2168 2269
8 2271 2169 2270 2364 2177 2075 2180 2277
8 2172 2070 2170 2272 2273 2177 2271 2365
8 2072 2173 2274 2178 2177 2273 2366 2277
8 2071 2174 2275 2176 2178 2274 2367 2276
8 2275 2176 2276 2367 2184 2083 2186 2282
8 2283 2187 2084 2186 2368 2278 2179 2276
8 2178 2074 2180 2277 2276 2179 2278 2368
8 2283 2187 2279 2370 2186 2084 2181 2280
8 2281 2182 2082 2185 2371 2280 2186 2282
8 2188 2285 2374 2284 2100 2197 2292 2201
8 2286 2189 2095 2193 2375 2285 2197 2289
8 2192 2097 2196 2287 2288 2199 2291 2376
8 2287 2196 2104 2203 2376 2291 2204 2296
8 2194 2098 2199 2288 2290 2198 2293 2377
8 2289 2197 2096 2195 2378 2292 2198 2290
8 2291 2200 2105 2204 2379 2294 2205 2297
8 2199 2102 2200 2291 2293 2202 2294 2379
8 2198 2101 2202 2293 2292 2201 2295 2380
8 2299 2207 2297 2383 2206 2107 2204 2296
8 2300 2208 2298 2384 2207 2108 2205 2297
8 2302 2210 2300 2386 2209 2110 2207 2299
8 2303 2211 2301 2387 2210 2111 2208 2300
8 2305 2213 2303 2389 2212 2113 2210 2302
8 2306 2214 2304 2390 2213 2114 2211 2303
8 2310 2216 2306 2392 2220 2117 2213 2305
8 2308 2215 2307 2393 2216 2115 2214 2306
8 2308 2215 2115 2216 2396 2309 2217 2311
8 2310 2216 2117 2220 2398 2311 2219 2315
8 2311 2217 2116 2219 2399 2312 2218 2314
8 2314 2218 2118 2222 2402 2313 2221 2317
8 2315 2219 2119 2223 2403 2314 2222 2318
8 2225 2121 2224 2320 2317 2221 2316 2405
8 2226 2122 2225 2321 2318 2222 2317 2406
8 2228 2124 2227 2323 2320 2224 2319 2408
8 2229 2125 2228 2324 2321 2225 2320 2409
8 2231 2127 2230 2326 2323 2227 2322 2411
8 2232 2128 2231 2327 2324 2228 2323 2412
8 2234 2130 2233 2328 2326 2230 2325 2413
8 2235 2131 2234 2329 2327 2231 2326 2414
8 2237 2134 2236 2330 2329 2234 2328 2415
8 2259 2158 2260 2352 2332 2239 2331 2417
8 2257 2157 2259 2350 2334 2240 2332 2419
8 2240 2139 2239 2332 2335 2241 2333 2420
8 2334 2240 2335 2422 2242 2140 2243 2337
8 2335 2241 2336 2423 2243 2141 2244 2338
8 2337 2243 2338 2425 2247 2143 2246 2342
8 2338 2244 2339 2426 2246 2142 2245 2341
8 2341 2245 2340 2428 2249 2145 2248 2343
8 2342 2246 2341 2429 2250 2146 2249 2344
8 2344 2249 2343 2430 2252 2149 2251 2345
8 2188 2285 2347 2254 2284 2374 2432 2346
8 2347 2254 2346 2432 2271 2169 2270 2364
8 2365 2271 2170 2272 2433 2347 2255 2348
8 2286 2189 2285 2375 2348 2255 2347 2433
8 2349 2258 2351 2435 2257 2157 2259 2350
8 2349 2258 2164 2263 2435 2351 2264 2355
8 2259 2158 2261 2351 2352 2260 2354 2437
8 2356 2265 2354 2437 2264 2165 2261 2351
8 2441 2357 2264 2355 2362 2268 2168 2269
8 2356 2265 2165 2264 2442 2358 2266 2357
8 2443 2359 2266 2357 2361 2267 2166 2268
8 2370 2279 2360 2446 2280 2181 2267 2361
8 2362 2268 2182 2281 2447 2361 2280 2371
8 2180 2277 2368 2278 2270 2364 2449 2363
8 2271 2365 2273 2177 2364 2450 2366 2277
8 2372 2283 2186 2282 2451 2368 2276 2367
8 2178 2274 2367 2276 2277 2366 2451 2368
8 2283 2187 2278 2368 2370 2279 2369 2452
8 2372 2283 2370 2453 2282 2186 2280 2371
8 2284 2374 2455 2373 2201 2292 2380 2295
8 2375 2285 2197 2289 2456 2374 2292 2378
8 2376 2291 2204 2296 2457 2379 2297 2383
8 2288 2199 2291 2376 2377 2293 2379 2457
8 2198 2290 2378 2292 2293 2377 2458 2380
8 2293 2202 2294 2379 2380 2295 2381 2459
8 2384 2298 2381 2459 2297 2205 2294 2379
8 2386 2300 2384 2463 2299 2207 2297 2383
8 2387 2301 2385 2464 2300 2208 2298 2384
8 2389 2303 2387 2466 2302 2210 2300 2386
8 2390 2304 2388 2467 2303 2211 2301 2387
8 2392 2306 2390 2469 2305 2213 2303 2389
8 2393 2307 2391 2470 2306 2214 2304 2390
8 2395 2308 2393 2472 2310 2216 2306 2392
8 2308 2215 2309 2396 2393 2307 2394 2473
8 2395 2308 2216 2310 2475 2396 2311 2398
8 2396 2309 2217 2311 2476 2397 2312 2399
8 2398 2311 2219 2315 2478 2399 2314 2403
8 2399 2312 2218 2314 2479 2400 2313 2402
8 2317 2221 2316 2405 2402 2313 2401 2482
8 2403 2314 2222 2318 2483 2402 2317 2406
8 2320 2224 2319 2408 2405 2316 2404 2485
8 2321 2225 2320 2409 2406 2317 2405 2486
8 2323 2227 2322 2411 2408 2319 2407 2488
8 2324 2228 2323 2412 2409 2320 2408 2489
8 2326 2230 2325 2413 2411 2322 2410 2490
8 2327 2231 2326 2414 2412 2323 2411 2491
8 2329 2234 2328 2415 2414 2326 2413 2492
8 2417 2331 2260 2352 2494 2416 2353 2438
8 2350 2259 2352 2436 2419 2332 2417 2496
8 2332 2239 2331 2417 2420 2333 2418 2497
8 2334 2240 2332 2419 2422 2335 2420 2499
8 2420 2333 2421 2500 2335 2241 2336 2423
8 2422 2335 2423 2502 2337 2243 2338 2425
8 2423 2336 2424 2503 2338 2244 2339 2426
8 2425 2338 2426 2505 2342 2246 2341 2429
8 2426 2339 2427 2506 2341 2245 2340 2428
8 2429 2341 2428 2507 2344 2249 2343 2430
8 2432 2346 2284 2374 2509 2431 2373 2455
8 2432 2346 2431 2509 2364 2270 2363 2449
8 2375 2285 2374 2456 2433 2347 2432 2510
8 2347 2433 2365 2271 2432 2510 2450 2364
8 2350 2259 2351 2435 2436 2352 2437 2514
8 2440 2356 2437 2514 2355 2264 2351 2435
8 2352 2260 2354 2437 2438 2353 2439 2516
8 2356 2265 2358 2442 2437 2354 2439 2516
8 2440 2356 2264 2355 2518 2442 2357 2441
8 2519 2443 2357 2441 2447 2361 2268 2362
8 2443 2359 2444 2520 2357 2266 2358 2442
8 2443 2359 2267 2361 2520 2444 2360 2446
8 2446 2360 2279 2370 2523 2445 2369 2452
8 2453 2370 2446 2524 2371 2280 2361 2447
8 2449 2363 2448 2525 2368 2278 2369 2452
8 2366 2277 2364 2450 2451 2368 2449 2526
8 2372 2283 2368 2451 2453 2370 2452 2527
8 2455 2373 2295 2380 2529 2454 2382 2460
8 2456 2374 2292 2378 2530 2455 2380 2458
8 2377 2293 2379 2457 2458 2380 2459 2531
8 2463 2384 2459 2531 2383 2297 2379 2457
8 2533 2461 2382 2460 2459 2381 2295 2380
8 2464 2385 2461 2533 2384 2298 2381 2459
8 2466 2387 2464 2537 2386 2300 2384 2463
8 2467 2388 2465 2538 2387 2301 2385 2464
8 2469 2390 2467 2540 2389 2303 2387 2466
8 2470 2391 2468 2541 2390 2304 2388 2467
8 2472 2393 2470 2543 2392 2306 2390 2469
8 2393 2307 2394 2473 2470 2391 2471 2544
8 2395 2308 2396 2475 2472 2393 2473 2546
8 2396 2309 2397 2476 2473 2394 2474 2547
8 2475 2396 2311 2398 2549 2476 2399 2478
8 2476 2397 2312 2399 2550 2477 2400 2479
8 2478 2399 2314 2403 2552 2479 2402 2483
8 2479 2400 2313 2402 2553 2480 2401 2482
8 2405 2316 2404 2485 2482 2401 2481 2556
8 2406 2317 2405 2486 2483 2402 2482 2557
8 2408 2319 2407 2488 2485 2404 2484 2559
8 2409 2320 2408 2489 2486 2405 2485 2560
8 2411 2322 2410 2490 2488 2407 2487 2561
8 2412 2323 2411 2491 2489 2408 2488 2562
8 2414 2326 2413 2492 2491 2411 2490 2563
8 2513 2434 2493 2565 2438 2353 2416 2494
8 2496 2417 2352 2436 2567 2494 2438 2515
8 2494 2416 2495 2568 2417 2331 2418 2497
8 2419 2332 2417 2496 2499 2420 2497 2570
8 2497 2418 2498 2571 2420 2333 2421 2500
8 2499 2420 2500 2573 2422 2335 2423 2502
8 2500 2421 2501 2574 2423 2336 2424 2503
8 2502 2423 2503 2576 2425 2338 2426 2505
8 2503 2424 2504 2577 2426 2339 2427 2506
8 2505 2426 2506 2578 2429 2341 2428 2507
8 2509 2431 2373 2455 2580 2508 2454 2529
8 2509 2431 2508 2580 2449 2363 2448 2525
8 2432 2510 2581 2509 2374 2456 2530 2455
8 2432 2510 2450 2364 2509 2581 2526 2449
8 2583 2511 2434 2513 2516 2439 2353 2438
8 2436 2352 2437 2514 2515 2438 2516 2588
8 2440 2356 2442 2518 2514 2437 2516 2588
8 2442 2358 2444 2520 2516 2439 2517 2589
8 2519 2443 2520 2591 2441 2357 2442 2518
8 2519 2443 2361 2447 2591 2520 2446 2524
8 2446 2360 2445 2523 2520 2444 2521 2592
8 2525 2448 2522 2593 2452 2369 2445 2523
8 2524 2446 2370 2453 2594 2523 2452 2527
8 2526 2449 2525 2595 2451 2368 2452 2527
8 2534 2462 2528 2597 2460 2382 2454 2529
8 2530 2455 2380 2458 2598 2529 2460 2532
8 2599 2533 2460 2532 2531 2459 2380 2458
8 2537 2464 2533 2599 2463 2384 2459 2531
8 2534 2462 2382 2460 2601 2535 2461 2533
8 2538 2465 2535 2601 2464 2385 2461 2533
8 2540 2467 2538 2604 2466 2387 2464 2537
8 2541 2468 2539 2605 2467 2388 2465 2538
8 2543 2470 2541 2607 2469 2390 2467 2540
8 2470 2391 2471 2544 2541 2468 2542 2608
8 2472 2393 2473 2546 2543 2470 2544 2610
8 2473 2394 2474 2547 2544 2471 2545 2611
8 2475 2396 2476 2549 2546 2473 2547 2613
8 2476 2397 2477 2550 2547 2474 2548 2614
8 2549 2476 2399 2478 2616 2550 2479 2552
8 2479 2400 2480 2553 2550 2477 2551 2617
8 2552 2479 2402 2483 2619 2553 2482 2557
8 2482 2401 2481 2556 2553 2480 2554 2620
8 2485 2404 2484 2559 2556 2481 2555 2623
8 2486 2405 2485 2560 2557 2482 2556 2624
8 2488 2407 2487 2561 2559 2484 2558 2625
8 2489 2408 2488 2562 2560 2485 2559 2626
8 2491 2411 2490 2563 2562 2488 2561 2627
8 2513 2434 2512 2585 2565 2493 2564 2630
8 2586 2513 2565 2632 2515 2438 2494 2567
8 2565 2493 2566 2633 2494 2416 2495 2568
8 2567 2494 2568 2635 2496 2417 2497 2570
8 2568 2495 2569 2636 2497 2418 2498 2571
8 2570 2497 2571 2638 2499 2420 2500 2573
8 2571 2498 2572 2639 2500 2421 2501 2574
8 2573 2500 2574 2641 2502 2423 2503 2576
8 2574 2501 2575 2642 2503 2424 2504 2577
8 2576 2503 2577 2643 2505 2426 2506 2578
8 2597 2528 2579 2645 2529 2454 2508 2580
8 2580 2508 2579 2645 2525 2448 2522 2593
8 2581 2509 2455 2530 2646 2580 2529 2598
8 2581 2509 2580 2646 2526 2449 2525 2595
8 2583 2511 2582 2648 2513 2434 2512 2585
8 2583 2511 2439 2516 2648 2582 2517 2589
8 2649 2583 2513 2586 2588 2516 2438 2515
8 2589 2517 2444 2520 2653 2587 2521 2592
8 2518 2442 2520 2591 2588 2516 2589 2654
8 2593 2522 2590 2655 2523 2445 2521 2592
8 2524 2446 2523 2594 2591 2520 2592 2656
8 2595 2525 2593 2657 2527 2452 2523 2594
8 2602 2536 2596 2659 2534 2462 2528 2597
8 2600 2534 2597 2660 2532 2460 2529 2598
8 2600 2534 2460 2532 2661 2601 2533 2599
8 2604 2538 2601 2661 2537 2464 2533 2599
8 2602 2536 2462 2534 2663 2603 2535 2601
8 2601 2535 2465 2538 2663 2603 2539 2605
8 2607 2541 2605 2665 2540 2467 2538 2604
8 2608 2542 2606 2666 2541 2468 2539 2605
8 2543 2470 2544 2610 2607 2541 2608 2668
8 2544 2471 2545 2611 2608 2542 2609 2669
8 2546 2473 2547 2613 2610 2544 2611 2671
8 2547 2474 2548 2614 2611 2545 2612 2672
8 2549 2476 2550 2616 2613 2547 2614 2674
8 2550 2477 2551 2617 2614 2548 2615 2675
8 2552 2479 2553 2619 2616 2550 2617 2677
8 2553 2480 2554 2620 2617 2551 2618 2678
8 2557 2482 2556 2624 2619 2553 2620 2680
8 2556 2481 2555 2623 2620 2554 2621 2681
8 2559 2484 2558 2625 2623 2555 2622 2683
8 2560 2485 2559 2626 2624 2556 2623 2684
8 2562 2488 2561 2627 2626 2559 2625 2685
8 2690 2629 2564 2630 2650 2584 2512 2585
8 2586 2513 2585 2651 2632 2565 2630 2691
8 2630 2564 2631 2692 2565 2493 2566 2633
8 2632 2565 2633 2694 2567 2494 2568 2635
8 2633 2566 2634 2695 2568 2495 2569 2636
8 2635 2568 2636 2697 2570 2497 2571 2638
8 2636 2569 2637 2698 2571 2498 2572 2639
8 2638 2571 2639 2700 2573 2500 2574 2641
8 2639 2572 2640 2701 2574 2501 2575 2642
8 2641 2574 2642 2702 2576 2503 2577 2643
8 2597 2528 2596 2659 2645 2579 2644 2704
8 2645 2579 2644 2704 2593 2522 2590 2655
8 2660 2597 2645 2705 2598 2529 2580 2646
8 2646 2580 2645 2705 2595 2525 2593 2657
8 2650 2584 2512 2585 2707 2647 2582 2648
8 2648 2582 2517 2589 2707 2647 2587 2653
8 2649 2583 2648 2708 2586 2513 2585 2651
8 2649 2583 2516 2588 2708 2648 2589 2654
8 2655 2590 2652 2710 2592 2521 2587 2653
8 2654 2589 2520 2591 2711 2653 2592 2656
8 2657 2593 2655 2712 2594 2523 2592 2656
8 2602 2536 2603 2663 2659 2596 2658 2714
8 2662 2602 2659 2715 2600 2534 2597 2660
8 2662 2602 2534 2600 2717 2663 2601 2661
8 2661 2601 2538 2604 2717 2663 2605 2665
8 2666 2606 2664 2718 2605 2539 2603 2663
8 2668 2608 2666 2720 2607 2541 2605 2665
8 2608 2542 2609 2669 2666 2606 2667 2721
8 2610 2544 2611 2671 2668 2608 2669 2723
8 2611 2545 2612 2672 2669 2609 2670 2724
8 2613 2547 2614 2674 2671 2611 2672 2726
8 2614 2548 2615 2675 2672 2612 2673 2727
8 2616 2550 2617 2677 2674 2614 2675 2729
8 2617 2551 2618 2678 2675 2615 2676 2730
8 2619 2553 2620 2680 2677 2617 2678 2732
8 2620 2554 2621 2681 2678 2618 2679 2733
8 2624 2556 2623 2684 2680 2620 2681 2735
8 2681 2621 2555 2623 2736 2682 2622 2683
8 2626 2559 2625 2685 2684 2623 2683 2737
8 2688 2628 2584 2650 2740 2686 2647 2707
8 2688 2628 2687 2742 2650 2584 2629 2690
8 2690 2629 2689 2745 2630 2564 2631 2692
8 2746 2690 2630 2691 2709 2650 2585 2651
8 2691 2630 2692 2747 2632 2565 2633 2694
8 2692 2631 2693 2748 2633 2566 2634 2695
8 2694 2633 2695 2750 2635 2568 2636 2697
8 2695 2634 2696 2751 2636 2569 2637 2698
8 2697 2636 2698 2753 2638 2571 2639 2700
8 2698 2637 2699 2754 2639 2572 2640 2701
8 2700 2639 2701 2755 2641 2574 2642 2702
8 2659 2596 2658 2714 2704 2644 2703 2757
8 2704 2644 2703 2757 2655 2590 2652 2710
8 2660 2597 2659 2715 2705 2645 2704 2758
8 2705 2645 2704 2758 2657 2593 2655 2712
8 2759 2706 2647 2707 2710 2652 2587 2653
8 2709 2650 2585 2651 2760 2707 2648 2708
8 2708 2648 2589 2654 2760 2707 2653 2711
8 2712 2655 2710 2761 2656 2592 2653 2711
8 2763 2713 2658 2714 2718 2664 2603 2663
8 2662 2602 2663 2717 2715 2659 2714 2764
8 2720 2666 2718 2767 2665 2605 2663 2717
8 2768 2719 2664 2718 2721 2667 2606 2666
8 2668 2608 2669 2723 2720 2666 2721 2770
8 2669 2609 2670 2724 2721 2667 2722 2771
8 2671 2611 2672 2726 2723 2669 2724 2773
8 2672 2612 2673 2727 2724 2670 2725 2774
8 2674 2614 2675 2729 2726 2672 2727 2776
8 2675 2615 2676 2730 2727 2673 2728 2777
8 2677 2617 2678 2732 2729 2675 2730 2779
8 2678 2618 2679 2733 2730 2676 2731 2780
8 2680 2620 2681 2735 2732 2678 2733 2782
8 2733 2679 2621 2681 2783 2734 2682 2736
8 2735 2681 2623 2684 2784 2736 2683 2737
8 2740 2686 2647 2707 2787 2738 2706 2759
8 2688 2628 2686 2740 2742 2687 2739 2789
8 2743 2688 2650 2709 2790 2740 2707 2760
8 2742 2687 2741 2792 2690 2629 2689 2745
8 2743 2688 2742 2793 2709 2650 2690 2746
8 2745 2689 2744 2795 2692 2631 2693 2748
8 2746 2690 2745 2796 2691 2630 2692 2747
8 2747 2692 2748 2797 2694 2633 2695 2750
8 2748 2693 2749 2798 2695 2634 2696 2751
8 2750 2695 2751 2800 2697 2636 2698 2753
8 2751 2696 2752 2801 2698 2637 2699 2754
8 2753 2698 2754 2802 2700 2639 2701 2755
8 2763 2713 2756 2804 2714 2658 2703 2757
8 2759 2706 2652 2710 2804 2756 2703 2757
8 2715 2659 2714 2764 2758 2704 2757 2805
8 2758 2704 2757 2805 2712 2655 2710 2761
8 2806 2759 2707 2760 2761 2710 2653 2711
8 2765 2716 2762 2808 2718 2664 2713 2763
8 2809 2763 2714 2764 2767 2718 2663 2717
8 2765 2716 2664 2718 2811 2766 2719 2768
8 2813 2768 2718 2767 2770 2721 2666 2720
8 2814 2769 2719 2768 2771 2722 2667 2721
8 2723 2669 2724 2773 2770 2721 2771 2816
8 2724 2670 2725 2774 2771 2722 2772 2817
8 2726 2672 2727 2776 2773 2724 2774 2819
8 2727 2673 2728 2777 2774 2725 2775 2820
8 2729 2675 2730 2779 2776 2727 2777 2822
8 2730 2676 2731 2780 2777 2728 2778 2823
8 2732 2678 2733 2782 2779 2730 2780 2825
8 2780 2731 2679 2733 2826 2781 2734 2783
8 2782 2733 2681 2735 2827 2783 2736 2784
8 2830 2785 2738 2787 2804 2756 2706 2759
8 2789 2739 2686 2740 2832 2786 2738 2787
8 2790 2740 2707 2760 2833 2787 2759 2806
8 2742 2687 2739 2789 2792 2741 2788 2835
8 2743 2688 2740 2790 2793 2742 2789 2836
8 2792 2741 2791 2838 2745 2689 2744 2795
8 2793 2742 2792 2839 2746 2690 2745 2796
8 2795 2744 2794 2841 2748 2693 2749 2798
8 2796 2745 2795 2842 2747 2692 2748 2797
8 2797 2748 2798 2843 2750 2695 2751 2800
8 2798 2749 2799 2844 2751 2696 2752 2801
8 2800 2751 2801 2845 2753 2698 2754 2802
8 2808 2762 2803 2847 2763 2713 2756 2804
8 2809 2763 2804 2848 2764 2714 2757 2805
8 2806 2759 2710 2761 2848 2804 2757 2805
8 2765 2716 2766 2811 2808 2762 2807 2850
8 2810 2765 2808 2851 2767 2718 2763 2809
8 2810 2765 2718 2767 2852 2811 2768 2813
8 2811 2766 2719 2768 2853 2812 2769 2814
8 2855 2814 2768 2813 2816 2771 2721 2770
8 2856 2815 2769 2814 2817 2772 2722 2771
8 2773 2724 2774 2819 2816 2771 2817 2858
8 2774 2725 2775 2820 2817 2772 2818 2859
8 2776 2727 2777 2822 2819 2774 2820 2861
8 2777 2728 2778 2823 2820 2775 2821 2862
8 2779 2730 2780 2825 2822 2777 2823 2864
8 2823 2778 2731 2780 2865 2824 2781 2826
8 2825 2780 2733 2782 2866 2826 2783 2827
8 2869 2828 2785 2830 2847 2803 2756 2804
8 2871 2829 2786 2832 2830 2785 2738 2787
8 2872 2830 2787 2833 2848 2804 2759 2806
8 2789 2739 2786 2832 2835 2788 2831 2874
8 2836 2789 2740 2790 2875 2832 2787 2833
8 2792 2741 2788 2835 2838 2791 2834 2877
8 2793 2742 2789 2836 2839 2792 2835 2878
8 2838 2791 2837 2880 2795 2744 2794 2841
8 2839 2792 2838 2881 2796 2745 2795 2842
8 2841 2794 2840 2882 2798 2749 2799 2844
8 2842 2795 2841 2883 2797 2748 2798 2843
8 2843 2798 2844 2884 2800 2751 2801 2845
8 2886 2846 2803 2847 2850 2807 2762 2808
8 2851 2808 2847 2887 2809 2763 2804 2848
8 2850 2807 2766 2811 2889 2849 2812 2853
8 2810 2765 2811 2852 2851 2808 2850 2890
8 2852 2811 2768 2813 2891 2853 2814 2855
8 2853 2812 2769 2814 2892 2854 2815 2856
8 2894 2856 2814 2855 2858 2817 2771 2816
8 2817 2772 2818 2859 2856 2815 2857 2895
8 2819 2774 2820 2861 2858 2817 2859 2897
8 2820 2775 2821 2862 2859 2818 2860 2898
8 2822 2777 2823 2864 2861 2820 2862 2900
8 2823 2778 2824 2865 2862 2821 2863 2901
8 2864 2823 2780 2825 2902 2865 2826 2866
8 2904 2867 2828 2869 2886 2846 2803 2847
8 2869 2828 2868 2906 2830 2785 2829 2871
8 2907 2869 2830 2872 2887 2847 2804 2848
8 2871 2829 2870 2909 2832 2786 2831 2874
8 2910 2871 2832 2875 2872 2830 2787 2833
8 2835 2788 2831 2874 2877 2834 2873 2912
8 2836 2789 2832 2875 2878 2835 2874 2913
8 2877 2834 2876 2915 2838 2791 2837 2880
8 2839 2792 2835 2878 2881 2838 2877 2916
8 2880 2837 2879 2917 2841 2794 2840 2882
8 2881 2838 2880 2918 2842 2795 2841 2883
8 2883 2841 2882 2919 2843 2798 2844 2884
8 2921 2885 2846 2886 2889 2849 2807 2850
8 2922 2886 2847 2887 2890 2850 2808 2851
8 2889 2849 2812 2853 2924 2888 2854 2892
8 2890 2850 2811 2852 2925 2889 2853 2891
8 2891 2853 2814 2855 2926 2892 2856 2894
8 2892 2854 2815 2856 2927 2893 2857 2895
8 2858 2817 2859 2897 2894 2856 2895 2929
8 2859 2818 2860 2898 2895 2857 2896 2930
8 2861 2820 2862 2900 2897 2859 2898 2932
8 2862 2821 2863 2901 2898 2860 2899 2933
8 2864 2823 2865 2902 2900 2862 2901 2934
8 2904 2867 2846 2886 2936 2903 2885 2921
8 2904 2867 2903 2936 2869 2828 2868 2906
8 2937 2904 2869 2907 2922 2886 2847 2887
8 2906 2868 2905 2939 2871 2829 2870 2909
8 2907 2869 2906 2940 2872 2830 2871 2910
8 2909 2870 2908 2942 2874 2831 2873 2912
8 2910 2871 2909 2943 2875 2832 2874 2913
8 2912 2873 2911 2945 2877 2834 2876 2915
8 2878 2835 2874 2913 2916 2877 2912 2946
8 2915 2876 2914 2947 2880 2837 2879 2917
8 2916 2877 2915 2948 2881 2838 2880 2918
8 2918 2880 2917 2949 2883 2841 2882 2919
8 2921 2885 2849 2889 2951 2920 2888 2924
8 2952 2921 2886 2922 2925 2889 2850 2890
8 2924 2888 2854 2892 2954 2923 2893 2927
8 2925 2889 2853 2891 2955 2924 2892 2926
8 2926 2892 2856 2894 2956 2927 2895 2929
8 2895 2857 2896 2930 2927 2893 2928 2957
8 2897 2859 2898 2932 2929 2895 2930 2959
8 2898 2860 2899 2933 2930 2896 2931 2960
8 2900 2862 2901 2934 2932 2898 2933 2961
8 2936 2903 2885 2921 2963 2935 2920 2951
8 2936 2903 2935 2963 2906 2868 2905 2939
8 2937 2904 2886 2922 2964 2936 2921 2952
8 2937 2904 2936 2964 2907 2869 2906 2940
8 2939 2905 2938 2966 2909 2870 2908 2942
8 2940 2906 2939 2967 2910 2871 2909 2943
8 2942 2908 2941 2969 2912 2873 2911 2945
8 2943 2909 2942 2970 2913 2874 2912 2946
8 2945 2911 2944 2971 2915 2876 2914 2947
8 2946 2912 2945 2972 2916 2877 2915 2948
8 2948 2915 2947 2973 2918 2880 2917 2949
8 2951 2920 2888 2924 2975 2950 2923 2954
8 2952 2921 2889 2925 2976 2951 2924 2955
8 2927 2893 2928 2957 2954 2923 2953 2978
8 2955 2924 2892 2926 2979 2954 2927 2956
8 2929 2895 2930 2959 2956 2927 2957 2980
8 2930 2896 2931 2960 2957 2928 2958 2981
8 2932 2898 2933 2961 2959 2930 2960 2982
8 2951 2920 2950 2975 2963 2935 2962 2984
8 2963 2935 2962 2984 2939 2905 2938 2966
8 2964 2936 2921 2952 2985 2963 2951 2976
8 2964 2936 2963 2985 2940 2906 2939 2967
8 2966 2938 2965 2987 2942 2908 2941 2969
8 2967 2939 2966 2988 2943 2909 2942 2970
8 2969 2941 2968 2989 2945 2911 2944 2971
8 2970 2942 2969 2990 2946 2912 2945 2972
8 2972 2945 2971 2991 2948 2915 2947 2973
8 2954 2923 2953 2978 2975 2950 2974 2993
8 2976 2951 2924 2955 2994 2975 2954 2979
8 2957 2928 2958 2981 2978 2953 2977 2995
8 2956 2927 2957 2980 2979 2954 2978 2996
8 2959 2930 2960 2982 2980 2957 2981 2997
8 2984 2962 2983 2999 2966 2938 2965 2987
8 2975 2950 2974 2993 2984 2962 2983 2999
8 2976 2951 2975 2994 2985 2963 2984 3000
8 2985 2963 2984 3000 2967 2939 2966 2988
8 2987 2965 2986 3001 2969 2941 2968 2989
8 2988 2966 2987 3002 2970 2942 2969 2990
8 2990 2969 2989 3003 2972 2945 2971 2991
8 2978 2953 2977 2995 2993 2974 2992 3004
8 2979 2954 2978 2996 2994 2975 2993 3005
8 2980 2957 2981 2997 2996 2978 2995 3006
8 2974 2993 2999 2983 2992 3004 3007 2998
8 2983 2999 2987 2965 2998 3007 3001 2986
8 3000 2984 2999 3008 2988 2966 2987 3002
8 2994 2975 2993 3005 3000 2984 2999 3008
8 3002 2987 3001 3009 2990 2969 2989 3003
8 2996 2978 2995 3006 3005 2993 3004 3010
8 3005 2993 3004 3010 3008 2999 3007 3011
8 3008 2999 3007 3011 3002 2987 3001 3009

CELL_TYPES 1910
12
12
12
12
12
12
12
12
12
12
12
12
12
12
12
12
12
12
12
12
12
12
12
12
12
12
12
12
12
12
12
12
12
12
12
12
12
12
12
12
12
12
12
12
12
12
12
12
12
12
12
12
12
12
12
12
12
12
12
12
12
12
12
12
12
12
12
12
12
12
12
12
12
12
12
12
12
12
12
12
12
12
12
12
12
12
12
12
12
12
12
12
12
12
12
12
12
12
12
12
12
12
12
12
12
12
12
12
12
12
12
12
12
12
12
12
12
12
12
12
12
12
12
12
12
12
12
12
12
12
12
12
12
12
12
12
12
12
12
12
12
12
12
12
12
12
12
12
12
12
12
12
12
12
12
12
12
12
12
12
12
12
12
12
12
12
12
12
12
12
12
12
12
12
12
12
12
12
12
12
12
12
12
12
12
12
12
12
12
12
12
12
12
12
12
12
12
12
12
12
12
12
12
12
12
12
12
12
12
12
12
12
12
12
12
12
12
12
12
12
12
12
12
12
12
12
12
12
12
12
12
12
12
12
12
12
12
12
12
12
12
12
12
12
12
12
12
12
12
12
12
12
12
12
12
12
12
12
12
12
12
12
12
12
12
12
12
12
12
12
12
12
12
12
12
12
12
12
12
12
12
12
12
12
12
12
12
12
12
12
12
12
12
12
12
12
12
12
12
12
12
12
12
12
12
12
12
12
12
12
12
12
12
12
12
12
12
12
12
12
12
12
12
12
12
12
12
12
12
12
12
12
12
12
12
12
12
12
12
12
12
12
12
12
12
12
12
12
12
12
12
12
12
12
12
12
12
12
12
12
12
12
12
12
12
12
12
12
12
12
12
12
12
12
12
12
12
12
12
12
12
12
12
12
12
12
12
12
12
12
12
12
12
12
12
12
12
12
12
12
12
12
12
12
12
12
12
12
12
12
12
12
12
12
12
12
12
12
12
12
12
12
12
12
12
12
12
12
12
12
12
12
12
12
12
12
12
12
12
12
12
12
12
12
12
12
12
12
12
12
12
12
12
12
12
12
12
12
12
12
12
12
12
12
12
12
12
12
12
12
12
12
12
12
12
12
12
12
12
12
12
12
12
12
12
12
12
12
12
12
12
12
12
12
12
12
12
12
12
12
12
12
12
12
12
12
12
12
12
12
12
12
12
12
12
12
12
12
12
12
12
12
12
12
12
12
12
12
12
12
12
12
12
12
12
12
12
12
12
12
12
12
12
12
12
12
12
12
12
12
12
12
12
12
12
12
12
12
12
12
12
12
12
12
12
12
12
12
12
12
12
12
12
12
12
12
12
12
12
12
12
12
12
12
12
12
12
12
12
12
12
12
12
12
12
12
12
12
12
12
12
12
12
12
12
12
12
12
12
12
12
12
12
12
12
12
12
12
12
12
12
12
12
12
12
12
12
12
12
12
12
12
12
12
12
12
12
12
12
12
12
12
12
12
12
12
12
12
12
12
12
12
12
12
12
12
12
12
12
12
12
12
12
12
12
12
12
12
12
12
12
12
12
12
12
12
12
12
12
12
12
12
12
12
12
12
12
12
12
12
12
12
12
12
12
12
12
12
12
12
12
12
12
12
12
12
12
12
12
12
12
12
12
12
12
12
12
12
12
12
12
12
12
12
12
12
12
12
12
12
12
12
12
12
12
12
12
12
12
12
12
12
12
12
12
12
12
12
12
12
12
12
12
12
12
12
12
12
12
12
12
12
12
12
12
12
12
12
12
12
12
12
12
12
12
12
12
12
12
12
12
12
12
12
12
12
12
12
12
12
12
12
12
12
12
12
12
12
12
12
12
12
12
12
12
12
12
12
12
12
12
12
12
12
12
12
12
12
12
12
12
12
12
12
12
12
12
12
12
12
12
12
12
12
12
12
12
12
12
12
12
12
12
12
12
12
12
12
12
12
12
12
12
12
12
12
12
12
12
12
12
12
12
12
12
12
12
12
12
12
12
12
12
12
12
12
12
12
12
12
12
12
12
12
12
12
12
12
12
12
12
12
12
12
12
12
12
12
12
12
12
12
12
12
12
12
12
12
12
12
12
12
12
12
12
12
12
12
12
12
12
12
12
12
12
12
12
12
12
12
12
12
12
12
12
12
12
12
12
12
12
12
12
12
12
12
12
12
12
12
12
12
12
12
12
12
12
12
12
12
12
12
12
12
12
12
12
12
12
12
12
12
12
12
12
12
12
12
12
12
12
12
12
12
12
12
12
12
12
12
12
12
12
12
12
12
12
12
12
12
12
12
12
12
12
12
12
12
12
12
12
12
12
12
12
12
12
12
12
12
12
12
12
12
12
12
12
12
12
12
12
12
12
12
12
12
12
12
12
12
12
12
12
12
12
12
12
12
12
12
12
12
12
12
12
12
12
12
12
12
12
12
12
12
12
12
12
12
12
12
12
12
12
12
12
12
12
12
12
12
12
12
12
12
12
12
12
12
12
12
12
12
12
12
12
12
12
12
12
12
12
12
12
12
12
12
12
12
12
12
12
12
12
12
12
12
12
12
12
12
12
12
12
12
12
12
12
12
12
12
12
12
12
12
12
12
12
12
12
12
12
12
12
12
12
12
12
12
12
12
12
12
12
12
12
12
12
12
12
12
12
12
12
12
12
12
12
12
12
12
12
12
12
12
12
12
12
12
12
12
12
12
12
12
12
12
12
12
12
12
12
12
12
12
12
12
12
12
12
12
12
12
12
12
12
12
12
12
12
12
12
12
12
12
12
12
12
12
12
12
12
12
12
12
12
12
12
12
12
12
12
12
12
12
12
12
12
12
12
12
12
12
12
12
12
12
12
12
12
12
12
12
12
12
12
12
12
12
12
12
12
12
12
12
12
12
12
12
12
12
12
12
12
12
12
12
12
12
12
12
12
12
12
12
12
12
12
12
12
12
12
12
12
12
12
12
12
12
12
12
12
12
12
12
12
12
12
12
12
12
12
12
12
12
12
12
12
12
12
12
12
12
12
12
12
12
12
12
12
12
12
12
12
12
12
12
12
12
12
12
12
12
12
12
12
12
12
12
12
12
12
12
12
12
12
12
12
12
12
12
12
12
12
12
12
12
12
12
12
12
12
12
12
12
12
12
12
12
12
12
12
12
12
12
12
12
12
12
12
12
12
12
12
12
12
12
12
12
12
12
12
12
12
12
12
12
12
12
12
12
12
12
12
12
12
12
12
12
12
12
12
12
12
12
12
12
12
12
12
12
12
12
12
12
12
12
12
12
12
12
12
12
12
12
12
12
12
12
12
12
12
12
12
12
12
12
12
12
12
12
12
12
12
12
12
12
12
12
12
12
12
12
12
12
12
12
12
12
12
12
12
12
12
12
12
12
12
12
12
12
12
12
12
12
12
12
12
12
12
12
12
12
12
12
12
12
12
12
12
12
12
12
12
12
12
12
12
12
12
12
12
12
12
12
12
12
12
12
12
12
12
12
12
12
12
12
12
12
12
12
12
12
12
12
12
12
12
12
12
12
12
12
12
12
12
12
12
12
12
12
12
12
12
12
12
12
12
12
12
12
12
12
12
12
12
12
12
12
12
12
12
12
12
12
12
12
12
12
12
12
12
12
12
12
12
12
12
12
12
12
12
12
12
12
12
12
12
12
12
12
12
12
12
12
12
12
12
12
12
12
12
12
12
12
12
12
12
12
12
12
12
12
12
12
12
12
12
12
12
12
12
12
12
12
12
12
12
12
12
12
12
12
12
12
12
12
12
12
12
12
12
12
12
12
12
12
12
12
12
12
12
12
12
12
12
12
12
12
12
12
12
12
12
12
12
12
12
12
12
12
12
12
12
12
12
12
12
12
12
12
12
12
12
12
12
12
12
12
12
12
12
12
12
12
12
12
12
12
12
12
12
12
12
12
12
12
12
12
12
12
12
12
12
12
12
12
12
12
12
12
12
12
12
12
12
12
12
12
12
12
12
12
12
12
12
12
12
12
12
12
12
12
12
12
12
12
12
12
12
12
12
12
12
12
12
12
12
12
12
12
12
12
12
12
12
12
12
12
12
12
12
12
12
12
12
12
12
12
12
12
12
12
12
12
12
12
12
12
12
12
12
12
12
12
12
12
12
12
12
12
12
12
12
12
12
12
12
12
12
12
12
12
12
12
12
12
12
12
12
12
12
12
12
12
12
12
12
12
12
12
12
12
12
12
12
12
12
12
12
12
12
12
12
12
12
12
12
12
12
12
12
12
12
12
12
12
12
12
12
12
12
12
12
12
12
12
12
12
12
12
12
12
12
12
12
12
12
12
12
12
12
12
12
12
12
12
12
12
12
12

POINT_DATA 3012
SCALARS Jp_lamdaP float 4
LOOKUP_TABLE default
1 1 1 1
1 1 1 1
1 1 1 1
0.999998 1 1 0.999998
1 1 1 1
1 1 1 1
0.999927 1 1 0.999927
1 1 1 1
1 1 1 1
1 1 1 1
1 1 1 1
0.999985 1 1 0.999985
0.99999 1 1 0.99999
0.999999 1 1 0.999999
1 1 1 1
0.999999 1 1 0.999999
1 1 1 1
1 1 1 1
0.999928 1 1 0.999928
1 1 1 1
0.999996 1 1 0.999996
1 1 1 1
0.999871 1 1 0.999871
0.999912 1 1 0.999912
1 1 1 1
0.999945 1 1 0.999945
0.999782 1 1 0.999782
1 1 1 1
1 1 1 1
1 1 1 1
1 1 1 1
0.999987 1 1 0.999987
1 1 1 1
1 1 1 1
0.999947 1 1 0.999947
1 1 1 1
0.999976 1 1 0.999976
0.999993 1 1 0.999993
0.999816 1 1 0.999816
1 1 1 1
1 1 1 1
0.999999 1 1 0.999999
1 1 1 1
0.999996 1 1 0.999996
0.999878 1 1 0.999878
1 1 1 1
0.999917 1 1 0.999917
0.999999 1 1 0.999999
1 1 1 1
1 1 1 1
0.999929 1 1 0.999929
0.999995 1 1 0.999995
0.999997 1 1 0.999997
1 1 1 1
1 1 1 1
0.999873 1 1 0.999873
0.999945 1 1 0.999945
0.999913 1 1 0.999913
0.999777 1 1 0.999777
1 1 1 1
0.999994 1 1 0.999994
0.99989 1 1 0.99989
0.999858 1 1 0.999858
0.999893 1 1 0.999893
0.999645 1 1 0.999645
0.999726 1 1 0.999726
1 1 1 1
0.999964 1 1 0.999964
0.999822 1 1 0.999822
0.999589 1 1 0.999589
1 1 1 1
1 1 1 1
1 1 1 1
0.99999 1 1 0.99999
1 1 1 1
1 1 1 1
0.999951 1 1 0.999951
1 1 1 1
0.999979 1 1 0.999979
0.999995 1 1 0.999995
0.999815 1 1 0.999815
1 1 1 1
1 1 1 1
0.999934 1 1 0.999934
0.999962 1 1 0.999962
0.999704 1 1 0.999704
0.999999 1 1 0.999999
0.999798 1 1 0.999798
0.999835 1 1 0.999835
0.999673 1 1 0.999673
1 1 1 1
1 1 1 1
1 1 1 1
1 1 1 1
1 1 1 1
0.999997 1 1 0.999997
0.999885 1 1 0.999885
1 1 1 1
0.999919 1 1 0.999919
1 1 1 1
0.999859 1 1 0.999859
0.999904 1 1 0.999904
0.999528 1 1 0.999528
0.999926 1 1 0.999926
0.999582 1 1 0.999582
0.999992 1 1 0.999992
0.999997 1 1 0.999997
1 1 1 1
1 1 1 1
0.999874 1 1 0.999874
0.999914 1 1 0.999914
0.999946 1 1 0.999946
0.999772 1 1 0.999772
1 1 1 1
0.999995 1 1 0.999995
0.999861 1 1 0.999861
0.999858 1 1 0.999858
1 1 1 1
0.999978 1 1 0.999978
0.999894 1 1 0.999894
0.999632 1 1 0.999632
0.999816 1 1 0.999816
0.999735 1 1 0.999735
0.99959 1 1 0.99959
0.999867 1 1 0.999867
0.999853 1 1 0.999853
0.99956 1 1 0.99956
0.999596 1 1 0.999596
0.999675 1 1 0.999675
0.999455 1 1 0.999455
1 1 1 1
0.999561 1 1 0.999561
0.999999 1 1 0.999999
0.99983 1 1 0.99983
0.999619 1 1 0.999619
0.999513 1 1 0.999513
1 1 1 1
0.999888 1 1 0.999888
1 1 1 1
1 1 1 1
0.999956 1 1 0.999956
1 1 1 1
0.999997 1 1 0.999997
0.999981 1 1 0.999981
0.999814 1 1 0.999814
1 1 1 1
1 1 1 1
0.999937 1 1 0.999937
0.999967 1 1 0.999967
0.999705 1 1 0.999705
1 1 1 1
0.999799 1 1 0.999799
0.999835 1 1 0.999835
0.999669 1 1 0.999669
1 1 1 1
1 1 1 1
0.999899 1 1 0.999899
0.999653 1 1 0.999653
0.99976 1 1 0.99976
0.999542 1 1 0.999542
0.99986 1 1 0.99986
0.999653 1 1 0.999653
0.999683 1 1 0.999683
0.999611 1 1 0.999611
1 1 1 1
1 1 1 1
1 1 1 1
1 1 1 1
1 1 1 1
1 1 1 1
1 1 1 1
0.99992 1 1 0.99992
0.999886 1 1 0.999886
1 1 1 1
1 1 1 1
0.999861 1 1 0.999861
0.999907 1 1 0.999907
0.999528 1 1 0.999528
0.999928 1 1 0.999928
0.999583 1 1 0.999583
0.999853 1 1 0.999853
0.999497 1 1 0.999497
0.999558 1 1 0.999558
0.999369 1 1 0.999369
0.999613 1 1 0.999613
0.999428 1 1 0.999428
1 1 1 1
0.999996 1 1 0.999996
0.99983 1 1 0.99983
0.999859 1 1 0.999859
1 1 1 1
0.999991 1 1 0.999991
0.999896 1 1 0.999896
0.99962 1 1 0.99962
0.999743 1 1 0.999743
0.99981 1 1 0.99981
0.999591 1 1 0.999591
0.999865 1 1 0.999865
0.999853 1 1 0.999853
0.999535 1 1 0.999535
0.999604 1 1 0.999604
1 1 1 1
0.999997 1 1 0.999997
0.999841 1 1 0.999841
0.999677 1 1 0.999677
0.999441 1 1 0.999441
0.999616 1 1 0.999616
0.999567 1 1 0.999567
0.999514 1 1 0.999514
1 1 1 1
0.999888 1 1 0.999888
0.999503 1 1 0.999503
0.999581 1 1 0.999581
0.999389 1 1 0.999389
0.999393 1 1 0.999393
0.999523 1 1 0.999523
0.999384 1 1 0.999384
1 1 1 1
0.999489 1 1 0.999489
0.999847 1 1 0.999847
0.999658 1 1 0.999658
0.999539 1 1 0.999539
0.999492 1 1 0.999492
0.999866 1 1 0.999866
0.999921 1 1 0.999921
0.999706 1 1 0.999706
0.999941 1 1 0.999941
1 1 1 1
1 1 1 1
0.999971 1 1 0.999971
0.999706 1 1 0.999706
1 1 1 1
0.999835 1 1 0.999835
0.999799 1 1 0.999799
0.999664 1 1 0.999664
1 1 1 1
1 1 1 1
0.999899 1 1 0.999899
0.999653 1 1 0.999653
0.999761 1 1 0.999761
0.999542 1 1 0.999542
0.99986 1 1 0.99986
0.999658 1 1 0.999658
0.999682 1 1 0.999682
0.999605 1 1 0.999605
1 1 1 1
0.999879 1 1 0.999879
0.999924 1 1 0.999924
0.99973 1 1 0.99973
0.999491 1 1 0.999491
0.99961 1 1 0.99961
0.999461 1 1 0.999461
0.999705 1 1 0.999705
0.999592 1 1 0.999592
0.99959 1 1 0.99959
0.999558 1 1 0.999558
0.999979 1 1 0.999979
1 1 1 1
1 1 1 1
1 1 1 1
1 1 1 1
1 1 1 1
1 1 1 1
1 1 1 1
1 1 1 1
0.99993 1 1 0.99993
0.999907 1 1 0.999907
0.999583 1 1 0.999583
0.999528 1 1 0.999528
0.999862 1 1 0.999862
1 1 1 1
0.999852 1 1 0.999852
0.999498 1 1 0.999498
0.999558 1 1 0.999558
0.999369 1 1 0.999369
0.999613 1 1 0.999613
0.999428 1 1 0.999428
0.999489 1 1 0.999489
0.999338 1 1 0.999338
0.9994 1 1 0.9994
0.999322 1 1 0.999322
0.999458 1 1 0.999458
0.999375 1 1 0.999375
0.999863 1 1 0.999863
0.999854 1 1 0.999854
0.99951 1 1 0.99951
0.999612 1 1 0.999612
1 1 1 1
0.999996 1 1 0.999996
0.999851 1 1 0.999851
0.999678 1 1 0.999678
0.999426 1 1 0.999426
0.999573 1 1 0.999573
0.999613 1 1 0.999613
0.999515 1 1 0.999515
1 1 1 1
0.999889 1 1 0.999889
0.999494 1 1 0.999494
0.999581 1 1 0.999581
0.999384 1 1 0.999384
0.999408 1 1 0.999408
1 1 1 1
0.999847 1 1 0.999847
0.999668 1 1 0.999668
0.999523 1 1 0.999523
0.999381 1 1 0.999381
0.999528 1 1 0.999528
0.999489 1 1 0.999489
0.999491 1 1 0.999491
0.999867 1 1 0.999867
0.999703 1 1 0.999703
0.999921 1 1 0.999921
0.999366 1 1 0.999366
0.999395 1 1 0.999395
0.999308 1 1 0.999308
0.999336 1 1 0.999336
0.999449 1 1 0.999449
0.999387 1 1 0.999387
0.999856 1 1 0.999856
0.999476 1 1 0.999476
0.999705 1 1 0.999705
0.999565 1 1 0.999565
0.999473 1 1 0.999473
0.999514 1 1 0.999514
0.999952 1 1 0.999952
0.99971 1 1 0.99971
0.999706 1 1 0.999706
0.999635 1 1 0.999635
0.999654 1 1 0.999654
1 1 1 1
1 1 1 1
0.999899 1 1 0.999899
0.999762 1 1 0.999762
0.999542 1 1 0.999542
0.99986 1 1 0.99986
0.999681 1 1 0.999681
0.999664 1 1 0.999664
0.999598 1 1 0.999598
1 1 1 1
0.999879 1 1 0.999879
0.999925 1 1 0.999925
0.999729 1 1 0.999729
0.999491 1 1 0.999491
0.999611 1 1 0.999611
0.999461 1 1 0.999461
0.999705 1 1 0.999705
0.999598 1 1 0.999598
0.999588 1 1 0.999588
0.999573 1 1 0.999573
1 1 1 1
0.999946 1 1 0.999946
0.999721 1 1 0.999721
0.999748 1 1 0.999748
0.999631 1 1 0.999631
0.99942 1 1 0.99942
0.999534 1 1 0.999534
0.999432 1 1 0.999432
0.999604 1 1 0.999604
0.999551 1 1 0.999551
0.999493 1 1 0.999493
0.999971 1 1 0.999971
0.999842 1 1 0.999842
0.999986 1 1 0.999986
0.999981 1 1 0.999981
1 1 1 1
1 1 1 1
1 1 1 1
1 1 1 1
1 1 1 1
1 1 1 1
1 1 1 1
1 1 1 1
1 1 1 1
1 1 1 1
1 1 1 1
0.999613 1 1 0.999613
0.999558 1 1 0.999558
0.999428 1 1 0.999428
0.999369 1 1 0.999369
0.999498 1 1 0.999498
0.999852 1 1 0.999852
0.999488 1 1 0.999488
0.999338 1 1 0.999338
0.9994 1 1 0.9994
0.999319 1 1 0.999319
0.999457 1 1 0.999457
0.999375 1 1 0.999375
0.999328 1 1 0.999328
0.999294 1 1 0.999294
0.999344 1 1 0.999344
0.999311 1 1 0.999311
0.9994 1 1 0.9994
0.999396 1 1 0.999396
0.999486 1 1 0.999486
0.999581 1 1 0.999581
0.999378 1 1 0.999378
0.999424 1 1 0.999424
1 1 1 1
0.999847 1 1 0.999847
0.999677 1 1 0.999677
0.999523 1 1 0.999523
0.999377 1 1 0.999377
0.999489 1 1 0.999489
0.999518 1 1 0.999518
0.99949 1 1 0.99949
0.999868 1 1 0.999868
0.999699 1 1 0.999699
0.99992 1 1 0.99992
0.999355 1 1 0.999355
0.999395 1 1 0.999395
0.999301 1 1 0.999301
0.999339 1 1 0.999339
0.999857 1 1 0.999857
0.999704 1 1 0.999704
0.999576 1 1 0.999576
0.999453 1 1 0.999453
0.999392 1 1 0.999392
0.999464 1 1 0.999464
0.999477 1 1 0.999477
0.999518 1 1 0.999518
0.999711 1 1 0.999711
0.999626 1 1 0.999626
0.99995 1 1 0.99995
0.99971 1 1 0.99971
0.999283 1 1 0.999283
0.999313 1 1 0.999313
0.999267 1 1 0.999267
0.999328 1 1 0.999328
0.999451 1 1 0.999451
0.999415 1 1 0.999415
0.999715 1 1 0.999715
0.999523 1 1 0.999523
0.999619 1 1 0.999619
0.99949 1 1 0.99949
0.999428 1 1 0.999428
0.999518 1 1 0.999518
0.999968 1 1 0.999968
0.999739 1 1 0.999739
0.99964 1 1 0.99964
0.999615 1 1 0.999615
0.999598 1 1 0.999598
1 1 1 1
0.99949 1 1 0.99949
0.999925 1 1 0.999925
0.999879 1 1 0.999879
0.999728 1 1 0.999728
0.999612 1 1 0.999612
0.999461 1 1 0.999461
0.999706 1 1 0.999706
0.999585 1 1 0.999585
0.999605 1 1 0.999605
0.999588 1 1 0.999588
1 1 1 1
0.999947 1 1 0.999947
0.99972 1 1 0.99972
0.999748 1 1 0.999748
0.999628 1 1 0.999628
0.999419 1 1 0.999419
0.999535 1 1 0.999535
0.999429 1 1 0.999429
0.999605 1 1 0.999605
0.999556 1 1 0.999556
0.9995 1 1 0.9995
0.999961 1 1 0.999961
0.999772 1 1 0.999772
0.999621 1 1 0.999621
0.999641 1 1 0.999641
0.999585 1 1 0.999585
0.999404 1 1 0.999404
0.999497 1 1 0.999497
0.999463 1 1 0.999463
0.999515 1 1 0.999515
0.999445 1 1 0.999445
0.999974 1 1 0.999974
0.999801 1 1 0.999801
0.999831 1 1 0.999831
0.999736 1 1 0.999736
0.999852 1 1 0.999852
0.99999 1 1 0.99999
0.999987 1 1 0.999987
1 1 1 1
0.999983 1 1 0.999983
1 1 1 1
1 1 1 1
1 1 1 1
1 1 1 1
1 1 1 1
1 1 1 1
1 1 1 1
1 1 1 1
1 1 1 1
1 1 1 1
1 1 1 1
0.999457 1 1 0.999457
0.9994 1 1 0.9994
0.999375 1 1 0.999375
0.999317 1 1 0.999317
0.999338 1 1 0.999338
0.999488 1 1 0.999488
0.999328 1 1 0.999328
0.99929 1 1 0.99929
0.999345 1 1 0.999345
0.99931 1 1 0.99931
0.999399 1 1 0.999399
0.999396 1 1 0.999396
0.999274 1 1 0.999274
0.999281 1 1 0.999281
0.999342 1 1 0.999342
0.999302 1 1 0.999302
0.999405 1 1 0.999405
0.999417 1 1 0.999417
0.999343 1 1 0.999343
0.999395 1 1 0.999395
0.999294 1 1 0.999294
0.999342 1 1 0.999342
0.999857 1 1 0.999857
0.999703 1 1 0.999703
0.999587 1 1 0.999587
0.999458 1 1 0.999458
0.999398 1 1 0.999398
0.999477 1 1 0.999477
0.999455 1 1 0.999455
0.999523 1 1 0.999523
0.999712 1 1 0.999712
0.999618 1 1 0.999618
0.999948 1 1 0.999948
0.999715 1 1 0.999715
0.999284 1 1 0.999284
0.999315 1 1 0.999315
0.999266 1 1 0.999266
0.99933 1 1 0.99933
0.999715 1 1 0.999715
0.999627 1 1 0.999627
0.999489 1 1 0.999489
0.999447 1 1 0.999447
0.999436 1 1 0.999436
0.999423 1 1 0.999423
0.999524 1 1 0.999524
0.999533 1 1 0.999533
0.999641 1 1 0.999641
0.999595 1 1 0.999595
0.999613 1 1 0.999613
0.999953 1 1 0.999953
0.999744 1 1 0.999744
0.999252 1 1 0.999252
0.999256 1 1 0.999256
0.999352 1 1 0.999352
0.999486 1 1 0.999486
0.99965 1 1 0.99965
0.999572 1 1 0.999572
0.99956 1 1 0.99956
0.999392 1 1 0.999392
0.99939 1 1 0.99939
0.999954 1 1 0.999954
0.999798 1 1 0.999798
0.999641 1 1 0.999641
0.999614 1 1 0.999614
0.999546 1 1 0.999546
0.999568 1 1 0.999568
1 1 1 1
0.999949 1 1 0.999949
0.999418 1 1 0.999418
0.999747 1 1 0.999747
0.99972 1 1 0.99972
0.999626 1 1 0.999626
0.999535 1 1 0.999535
0.999426 1 1 0.999426
0.999607 1 1 0.999607
0.999508 1 1 0.999508
0.99956 1 1 0.99956
0.999963 1 1 0.999963
0.999772 1 1 0.999772
0.999627 1 1 0.999627
0.99964 1 1 0.99964
0.999578 1 1 0.999578
0.999402 1 1 0.999402
0.999494 1 1 0.999494
0.999467 1 1 0.999467
0.99951 1 1 0.99951
0.999432 1 1 0.999432
0.999796 1 1 0.999796
0.999641 1 1 0.999641
0.999556 1 1 0.999556
0.999565 1 1 0.999565
0.99954 1 1 0.99954
0.999503 1 1 0.999503
0.999425 1 1 0.999425
0.999452 1 1 0.999452
0.999447 1 1 0.999447
0.999325 1 1 0.999325
0.999976 1 1 0.999976
0.999809 1 1 0.999809
0.999684 1 1 0.999684
0.999821 1 1 0.999821
0.999852 1 1 0.999852
0.999721 1 1 0.999721
0.999642 1 1 0.999642
0.999717 1 1 0.999717
0.999862 1 1 0.999862
0.999992 1 1 0.999992
0.999991 1 1 0.999991
1 1 1 1
0.999988 1 1 0.999988
1 1 1 1
1 1 1 1
1 1 1 1
1 1 1 1
1 1 1 1
1 1 1 1
1 1 1 1
1 1 1 1
1 1 1 1
1 1 1 1
1 1 1 1
0.999397 1 1 0.999397
0.999345 1 1 0.999345
0.999396 1 1 0.999396
0.999308 1 1 0.999308
0.999286 1 1 0.999286
0.999328 1 1 0.999328
0.999272 1 1 0.999272
0.999283 1 1 0.999283
0.999337 1 1 0.999337
0.999296 1 1 0.999296
0.999405 1 1 0.999405
0.999432 1 1 0.999432
0.999265 1 1 0.999265
0.999288 1 1 0.999288
0.999341 1 1 0.999341
0.999479 1 1 0.999479
0.999284 1 1 0.999284
0.999317 1 1 0.999317
0.999265 1 1 0.999265
0.999331 1 1 0.999331
0.999715 1 1 0.999715
0.999636 1 1 0.999636
0.999488 1 1 0.999488
0.999443 1 1 0.999443
0.999458 1 1 0.999458
0.999526 1 1 0.999526
0.999419 1 1 0.999419
0.999548 1 1 0.999548
0.999641 1 1 0.999641
0.999592 1 1 0.999592
0.999611 1 1 0.999611
0.999938 1 1 0.999938
0.999749 1 1 0.999749
0.999252 1 1 0.999252
0.999262 1 1 0.999262
0.99936 1 1 0.99936
0.999649 1 1 0.999649
0.999571 1 1 0.999571
0.99939 1 1 0.99939
0.999477 1 1 0.999477
0.999412 1 1 0.999412
0.999568 1 1 0.999568
0.999954 1 1 0.999954
0.999613 1 1 0.999613
0.999575 1 1 0.999575
0.999546 1 1 0.999546
0.999645 1 1 0.999645
0.999787 1 1 0.999787
0.999245 1 1 0.999245
0.999249 1 1 0.999249
0.999403 1 1 0.999403
0.999552 1 1 0.999552
0.99961 1 1 0.99961
0.999456 1 1 0.999456
0.999456 1 1 0.999456
0.999316 1 1 0.999316
0.999966 1 1 0.999966
0.999828 1 1 0.999828
0.99968 1 1 0.99968
0.999533 1 1 0.999533
0.999577 1 1 0.999577
0.99952 1 1 0.99952
0.999965 1 1 0.999965
0.999772 1 1 0.999772
0.999401 1 1 0.999401
0.999639 1 1 0.999639
0.999632 1 1 0.999632
0.999572 1 1 0.999572
0.999491 1 1 0.999491
0.999471 1 1 0.999471
0.999504 1 1 0.999504
0.99942 1 1 0.99942
0.999796 1 1 0.999796
0.999646 1 1 0.999646
0.999565 1 1 0.999565
0.99957 1 1 0.99957
0.999545 1 1 0.999545
0.999504 1 1 0.999504
0.999429 1 1 0.999429
0.999483 1 1 0.999483
0.999439 1 1 0.999439
0.999311 1 1 0.999311
0.999663 1 1 0.999663
0.99955 1 1 0.99955
0.999493 1 1 0.999493
0.999503 1 1 0.999503
0.999554 1.00007 1 0.999485
0.999467 1.00007 0.999872 0.999524
0.999315 1 1 0.999315
1.00013 1 1.00084 0.999292
0.999816 1 1 0.999816
0.999691 1 1 0.999691
0.999612 1 1 0.999612
0.999852 1 1 0.999852
0.999706 1 1 0.999706
0.999861 1 1 0.999861
0.999631 1 1 0.999631
0.999723 1 1 0.999723
0.999569 1 1 0.999569
0.999629 1 1 0.999629
0.999726 1 1 0.999726
0.999867 1 1 0.999867
0.999993 1 1 0.999993
0.999992 1 1 0.999992
1 1 1 1
0.999991 1 1 0.999991
1 1 1 1
1 1 1 1
1 1 1 1
1 1 1 1
1 1 1 1
1 1 1 1
1 1 1 1
1 1 1 1
1 1 1 1
1 1 1 1
1 1 1 1
0.999405 1 1 0.999405
0.999332 1 1 0.999332
0.999446 1 1 0.999446
0.99929 1 1 0.99929
0.999285 1 1 0.999285
0.99927 1 1 0.99927
0.999266 1 1 0.999266
0.999288 1 1 0.999288
0.999347 1 1 0.999347
0.999474 1 1 0.999474
0.999274 1 1 0.999274
0.99933 1.00001 1 0.999318
0.999406 1 1 0.999406
0.999252 1 1 0.999252
0.999267 1 1 0.999267
0.999368 1 1 0.999368
0.999648 1 1 0.999648
0.999582 1 1 0.999582
0.999388 1 1 0.999388
0.999468 1 1 0.999468
0.999565 1 1 0.999565
0.999434 1 1 0.999434
0.999612 1 1 0.999612
0.999582 1 1 0.999582
0.999546 1 1 0.999546
0.999954 1 1 0.999954
0.99965 1 1 0.99965
0.999775 1 1 0.999775
0.999249 1 1 0.999249
0.999246 1 1 0.999246
0.999391 1 1 0.999391
0.999608 1 1 0.999608
0.999472 1 1 0.999472
0.99936 1 1.00004 0.999321
0.999588 1.00003 1 0.99956
0.999455 1 1 0.999455
0.999976 1 1 0.999976
0.999829 1 1 0.999829
0.999576 1 1 0.999576
0.999524 1 1 0.999524
0.999538 1 1 0.999538
0.999671 1 1 0.999671
0.999267 1 1 0.999267
0.99929 1.00002 1 0.999265
0.999595 1.00017 0.999905 0.999518
0.999757 1.00019 1 0.999566
0.99955 1 1 0.99955
1.00054 1 1.00127 0.999276
0.999378 1 1 0.999378
0.999996 1 1 0.999996
0.99989 1 1 0.99989
0.999833 1 1 0.999833
0.99969 1 1 0.99969
0.999567 1 1 0.999567
0.999466 1 1 0.999466
0.999555 1 1 0.999555
0.999494 1 1 0.999494
0.999796 1 1 0.999796
0.99965 1 1 0.99965
0.999505 1 1 0.999505
0.999575 1 1 0.999575
0.999574 1 1 0.999574
0.999549 1 1 0.999549
0.999433 1 1 0.999433
0.999515 1 1 0.999515
0.999432 1 1 0.999432
0.999297 1 1 0.999297
0.99966 1 1 0.99966
0.999558 1 1 0.999558
0.999501 1 1 0.999501
0.999509 1 1 0.999509
0.99951 1.00003 1 0.999482
0.9995 1.00003 0.999949 0.999521
0.999331 1 1 0.999331
0.999868 1 1.00058 0.999286
0.999588 1 1 0.999588
0.999401 1 1 0.999401
0.999496 1 1 0.999496
0.999464 1 1.00004 0.99942
0.999987 1.00075 0.999722 0.999516
0.999339 1.00004 1 0.999297
1.00065 1 1.00143 0.999224
0.999698 1 1 0.999698
0.999613 1 1 0.999613
0.999547 1 1 0.999547
0.999861 1 1 0.999861
0.999728 1 1 0.999728
0.999619 1 1 0.999619
0.999867 1 1 0.999867
0.999725 1 1 0.999725
0.99956 1 1 0.99956
0.99964 1 1 0.99964
0.999516 1 1 0.999516
0.999556 1 1 0.999556
0.99965 1 1 0.99965
0.999743 1 1 0.999743
0.999867 1 1 0.999867
0.999992 1 1 0.999992
0.999992 1 1 0.999992
1 1 1 1
0.999993 1 1 0.999993
1 1 1 1
1 1 1 1
1 1 1 1
1 1 1 1
1 1 1 1
0.999999 1 1 0.999999
1 1 1 1
1 1 1 1
1 1 1 1
1 1 1 1
1 1 1 1
1 1 1 1
0.999469 1 1 0.999469
0.999353 1 1 0.999353
0.999288 1 1 0.999288
0.999268 1 1 0.999268
0.99928 1 1 0.99928
0.999317 1.00001 1 0.999311
0.99942 1 1 0.99942
0.999319 1.00001 1 0.999307
0.999339 1 1 0.999339
0.999419 1 1 0.999419
0.999253 1 1 0.999253
0.999244 1 1 0.999244
0.999379 1 1 0.999379
0.999606 1 1 0.999606
0.999489 1 1 0.999489
0.999327 1 1 0.999327
0.999616 1.00005 1 0.999568
0.999453 1 1 0.999453
0.999576 1 1 0.999576
0.999528 1 1 0.999528
0.999543 1 1 0.999543
0.999987 1 1 0.999987
0.999829 1 1 0.999829
0.999662 1 1 0.999662
0.999269 1 1 0.999269
0.999994 1 1 0.999994
0.999882 1 1 0.999882
0.999323 1.00006 1 0.999266
0.999606 1.00011 1 0.999497
0.999559 1 1 0.999559
0.999515 1 1.00016 0.999359
0.999857 1 1.00058 0.999282
0.999653 1.00009 1 0.999564
0.999854 1 1 0.999854
0.999689 1 1 0.999689
0.999553 1 1 0.999553
0.999514 1 1 0.999514
0.999454 1 1 0.999454
0.999568 1 1 0.999568
0.999353 1.00006 1 0.999289
0.999713 1.00036 1 0.999349
0.999898 1.00066 0.999601 0.999636
0.999383 1 1 0.999383
0.999541 1 1.00003 0.999509
1.00161 1 1.00237 0.999244
0.999889 1 1 0.999889
0.999872 1 1 0.999872
0.999783 1 1 0.999783
0.999696 1 1 0.999696
0.999599 1 1 0.999599
0.999476 1 1 0.999476
0.999399 1 1 0.999399
0.999516 1 1 0.999516
0.999657 1 1 0.999657
0.999566 1 1 0.999566
0.999478 1 1 0.999478
0.999517 1 1 0.999517
0.999516 1 1 0.999516
0.999509 1 1 0.999509
0.999346 1 1 0.999346
0.999656 1 1.00038 0.999279
0.999588 1 1 0.999588
0.999416 1 1 0.999416
0.999496 1 1 0.999496
0.999571 1 1.00016 0.999407
0.999694 1.00038 0.999802 0.999509
0.999452 1.00015 1 0.999301
1.00052 1 1.0013 0.999222
0.999514 1 1 0.999514
1.00466 1.00577 0.999451 0.999445
0.999446 1 1 0.999446
1.0002 1 1.0009 0.999303
0.997303 1.00076 0.997229 0.999315
1.00076 1 1.00158 0.999178
1.0056 1.00777 0.998552 0.999301
0.999613 1 1 0.999613
0.999547 1 1 0.999547
0.999502 1 1 0.999502
0.999867 1 1 0.999867
0.999724 1 1 0.999724
0.999652 1 1 0.999652
0.999551 1 1 0.999551
0.999867 1 1 0.999867
0.999735 1 1 0.999735
0.999513 1 1 0.999513
0.99965 1 1 0.99965
0.999566 1 1 0.999566
0.999494 1 1 0.999494
0.999587 1 1 0.999587
0.999658 1 1 0.999658
0.999726 1 1 0.999726
0.999846 1 1 0.999846
0.99976 1 1 0.99976
0.999846 1 1 0.999846
0.999992 1 1 0.999992
0.999992 1 1 0.999992
1 1 1 1
0.999992 1 1 0.999992
1 1 1 1
1 1 1 1
1 1 1 1
1 1 1 1
1 1 1 1
1 1 1 1
0.999998 1 1 0.999998
1 1 1 1
1 1 1 1
1 1 1 1
1 1 1 1
1 1 1 1
1 1 1 1
0.999434 1 1 0.999434
0.999304 1 1 0.999304
0.999285 1 1 0.999285
0.999313 1.00001 1 0.999307
0.999356 1.00001 1 0.999347
0.999425 1 1 0.999425
0.999558 1.0002 1 0.999361
1.00188 1.00708 0.995308 0.999532
1.00317 1.00395 0.999705 0.999516
0.999917 1 1 0.999917
0.999271 1 1 0.999271
0.999367 1.0001 1 0.999267
0.999536 1.00006 1 0.999476
0.999567 1 1 0.999567
0.999917 1 1.00058 0.999341
0.999406 1 1.00012 0.999288
0.999562 1 1 0.999562
0.999551 1 1 0.999551
0.999534 1 1 0.999534
0.999441 1 1 0.999441
0.999993 1 1 0.999993
0.99957 1 1 0.99957
0.999875 1 1 0.999875
0.999689 1 1 0.999689
0.999874 1 1 0.999874
0.999314 1.00003 1 0.999284
0.999898 1 1 0.999898
0.999872 1 1 0.999872
0.999767 1 1 0.999767
0.999855 1.0005 1 0.999353
0.999438 1.00036 0.999469 0.999609
0.999593 1 1.00008 0.999514
1.0018 1 1.00257 0.999236
0.99955 1 1.00016 0.999388
0.999708 1 1 0.999708
0.999594 1 1 0.999594
0.999508 1 1 0.999508
0.99945 1 1.00004 0.999412
0.999485 1 1 0.999485
1.00015 1.00083 1.00004 0.999276
0.998421 1.00155 0.997374 0.999497
0.999619 1.00044 0.999716 0.99946
1.00084 1 1.00158 0.999262
1.00122 1 1.0018 0.999428
0.999768 1 1 0.999768
0.999727 1 1 0.999727
0.999676 1 1 0.999676
0.999606 1 1 0.999606
0.999524 1 1 0.999524
0.999424 1 1 0.999424
1.00099 1 1.00161 0.999376
0.999587 1 1 0.999587
0.999496 1 1 0.999496
0.999431 1 1 0.999431
0.999356 1.00001 0.999845 0.999502
0.999556 1.00025 1 0.999305
0.999664 1 1.00027 0.999394
1.00026 1 1.00103 0.999221
0.999521 1 1 0.999521
1.00467 1.00587 0.999355 0.999452
0.999448 1 1 0.999448
1.00016 1 1.00086 0.999303
0.99836 1.00114 0.997882 0.99934
1.00134 1 1.00217 0.999174
1.00733 1.01006 0.997981 0.999311
0.999471 1 1 0.999471
0.998701 1.00509 0.994316 0.999329
0.999432 1 1.00002 0.99941
1.00349 1 1.00425 0.99924
1.00045 1.00019 1.00109 0.999184
0.959832 0.963823 0.998908 0.996948
1.00261 1.00115 1.00256 0.998892
0.987655 1.00964 0.978861 0.999354
0.93355 0.947391 0.986381 0.998997
0.943573 0.974025 0.969352 0.999364
0.999547 1 1 0.999547
0.999504 1 1 0.999504
0.999472 1 1 0.999472
0.999867 1 1 0.999867
0.999728 1 1 0.999728
0.99965 1 1 0.99965
0.999575 1 1 0.999575
0.999511 1 1 0.999511
0.999647 1 1 0.999647
0.999855 1 1 0.999855
0.999734 1 1 0.999734
0.9995 1 1 0.9995
0.999583 1 1 0.999583
0.999595 1 1 0.999595
0.999518 1 1 0.999518
0.999628 1 1 0.999628
0.999725 1 1 0.999725
0.999845 1 1 0.999845
0.999749 1 1 0.999749
0.999663 1 1 0.999663
0.999733 1 1 0.999733
0.999745 1 1 0.999745
0.999861 1 1 0.999861
0.999846 1 1 0.999846
0.999991 1 1 0.999991
0.999991 1 1 0.999991
1 1 1 1
0.999992 1 1 0.999992
1 1 1 1
1 1 1 1
1 1 1 1
1 1 1 1
1 1 1 1
1 1 1 1
1 1 1 1
1 1 1 1
0.999998 1 1 0.999998
1 1 1 1
1 1 1 1
1 1 1 1
1 1 1 1
1 1 1 1
0.999371 1.00002 1 0.999354
0.999307 1 1 0.999307
0.999431 1 1 0.999431
1.00317 1.00699 0.996674 0.999538
0.999593 1.00024 1 0.999357
1.00305 1.0037 0.999863 0.999483
1.00199 1.00268 1.00004 0.999268
0.979177 0.984914 0.995565 0.998604
1.00282 1.00387 0.999342 0.999617
0.999922 1 1 0.999922
0.999916 1 1 0.999916
0.999801 1 1 0.999801
0.999814 1 1 0.999814
0.999278 1 1 0.999278
1.00001 1.00065 1 0.999356
0.999071 1.00001 0.999481 0.999581
0.99952 1 1 0.99952
1.00142 1 1.00219 0.999228
0.999524 1 1.00013 0.999393
0.999499 1 1 0.999499
0.999523 1 1.0001 0.999424
0.999494 1 1 0.999494
0.999871 1 1 0.999871
0.999589 1 1 0.999589
0.99972 1 1 0.99972
0.999908 1 1 0.999908
0.99975 1 1 0.99975
0.999957 1.00063 1.00003 0.999291
0.999785 1 1 0.999785
0.999737 1 1 0.999737
0.999676 1 1 0.999676
0.999406 1.0016 0.998305 0.9995
0.999217 1.00022 0.999541 0.999461
1.00103 1 1.0016 0.999427
1.00093 1 1.00168 0.999258
0.99961 1 1 0.99961
0.999528 1 1 0.999528
1.00039 1 1.00101 0.999377
0.999465 1 1.00005 0.999415
1.00261 1.00332 0.999954 0.999343
0.999082 1.00193 0.997704 0.999453
1.00004 1.00011 1.00073 0.999208
1.00095 1 1.00161 0.999346
0.999644 1 1 0.999644
0.999628 1 1 0.999628
0.999489 1 1 0.999489
1.00144 1 1.00212 0.999318
0.956545 0.963719 0.995705 0.996838
0.999527 1 1 0.999527
0.99945 1 1 0.99945
1.00473 1.0059 0.999373 0.999458
0.999499 1.00147 0.998663 0.999365
1.00206 1 1.00289 0.999171
1.00032 1 1.00102 0.999303
1.00924 1.01219 0.997763 0.999321
0.999476 1 1 0.999476
0.998756 1.00548 0.993988 0.999322
0.999478 1 1.00007 0.999412
1.00323 1 1.00399 0.999245
0.999816 1.00029 1.00033 0.999195
0.95914 0.964303 0.997475 0.997163
0.996855 0.997626 1.00091 0.998317
0.991351 1.01144 0.980754 0.999377
0.939291 0.950065 0.989951 0.998697
0.937608 0.969782 0.967463 0.999338
0.999472 1 1 0.999472
0.943699 0.951273 0.993663 0.998365
0.956764 0.973445 0.983402 0.999453
0.980851 1.00161 0.97996 0.999304
1.00177 1 1.00238 0.999395
1.0087 1 1.00943 0.999272
0.997346 1.01017 0.98793 0.99937
0.971151 0.971153 1.00328 0.996725
1.00385 1.00437 1.00129 0.998191
0.93538 0.955241 0.980276 0.998911
0.98283 1.0046 0.978728 0.999593
0.999506 1 1 0.999506
0.999473 1 1 0.999473
0.999453 1 1 0.999453
0.999864 1 1 0.999864
0.999742 1 1 0.999742
0.999636 1 1 0.999636
0.99958 1 1 0.99958
0.999506 1 1 0.999506
0.999845 1 1 0.999845
0.999594 1 1 0.999594
0.999641 1 1 0.999641
0.999734 1 1 0.999734
0.999508 1 1 0.999508
0.999557 1 1 0.999557
0.999666 1 1.0002 0.999469
0.999642 1 1 0.999642
0.999743 1 1 0.999743
0.999748 1 1 0.999748
0.999651 1 1 0.999651
0.999653 1 1 0.999653
0.999637 1 1 0.999637
0.99959 1 1 0.99959
0.999586 1 1 0.999586
0.999713 1 1 0.999713
0.999733 1 1 0.999733
0.999854 1 1 0.999854
0.99973 1 1 0.99973
0.999853 1 1 0.999853
0.999989 1 1 0.999989
0.999846 1 1 0.999846
0.99999 1 1 0.99999
1 1 1 1
0.999991 1 1 0.999991
1 1 1 1
1 1 1 1
1 1 1 1
1 1 1 1
1 1 1 1
0.999919 1 1 0.999919
1 1 1 1
1 1 1 1
1 1 1 1
1 1 1 1
1 1 1 1
1 1 1 1
1 1 1 1
1 1 1 1
1 1 1 1
1.00453 1.00725 0.997746 0.999543
0.999627 1.00027 1 0.999352
1.00287 1.00342 1 0.99945
0.980736 0.98446 0.997251 0.998963
1.00306 1.00369 0.999752 0.999623
1.00212 1.00284 1.00003 0.999252
1.00434 1.0034 1.00159 0.999344
0.986691 0.986526 1.00136 0.998805
0.963259 0.967083 0.999804 0.996242
0.9281 0.947712 0.981051 0.998221
0.938857 0.965734 0.972787 0.999365
0.999796 1 1 0.999796
0.999922 1 1 0.999922
0.999916 1 1 0.999916
0.999796 1 1 0.999796
0.999719 1 1 0.999719
0.999738 1 1 0.999738
0.9998 1 1 0.9998
0.999807 1 1 0.999807
0.999757 1.00042 1.00003 0.999306
1.00032 1.00169 0.999126 0.999504
0.998778 1 0.999317 0.999461
1.0011 1 1.00167 0.999425
1.00147 1 1.00222 0.999254
0.999823 1 1.00045 0.999377
0.999483 1 1.00008 0.999406
0.999531 1 1 0.999531
0.999747 1 1 0.999747
0.999614 1 1 0.999614
0.999802 1 1 0.999802
0.999676 1 1 0.999676
1.00244 1.00365 0.999465 0.999327
0.99965 1 1 0.99965
0.99963 1 1 0.99963
0.998314 1.00158 0.997283 0.99945
0.99968 1.00004 1.0004 0.999234
1.00145 1 1.00213 0.999326
0.999485 1 1 0.999485
1.00141 1 1.00209 0.999322
0.994878 1.00774 0.987923 0.999305
1.00228 1.00059 1.00244 0.999249
1.00028 1 1.00103 0.999246
1.00438 1 1.0051 0.999288
0.999577 1 1 0.999577
0.99952 1 1 0.99952
0.999919 1 1.00054 0.999376
0.940971 0.95428 0.98727 0.998767
0.961765 0.965575 0.999072 0.99698
0.99948 1 1 0.99948
0.999414 1 1 0.999414
0.998995 1.0061 0.993617 0.999315
0.999083 1.00044 0.999438 0.999207
1.00274 1 1.00349 0.999249
0.959923 0.964993 0.998518 0.996223
0.997281 0.998094 1.00024 0.998942
0.995314 1.01367 0.982479 0.999399
0.933998 0.949633 0.98518 0.998331
0.930939 0.965108 0.96526 0.999312
0.99947 1 1 0.99947
0.938492 0.953223 0.985688 0.998842
0.958457 0.97163 0.986965 0.99947
0.983479 1.0018 0.9824 0.999296
1.0011 1 1.00171 0.999398
1.00797 1 1.00869 0.999284
0.993056 1.0076 0.986203 0.999352
0.972356 0.972922 1.00298 0.996452
0.998912 0.999841 1.00026 0.998808
0.937094 0.955593 0.98233 0.998281
0.976594 1.00223 0.974844 0.999563
0.999446 1 1 0.999446
0.975278 0.977893 0.997702 0.999623
1.01534 1.01769 0.997914 0.999782
0.99751 1 0.998121 0.999388
1.00681 1 1.00731 0.999501
1.00777 1.00361 1.00452 0.999633
0.994289 0.99705 0.997931 0.999299
0.976558 0.974049 1.006 0.996592
0.954493 0.975767 0.979913 0.998249
0.99976 1.01867 0.981749 0.999678
0.999474 1 1 0.999474
0.999447 1 1 0.999447
0.999863 1 1.00042 0.999442
0.999845 1 1 0.999845
0.999743 1 1 0.999743
0.999653 1 1 0.999653
0.999594 1 1 0.999594
0.999498 1 1 0.999498
0.999743 1 1 0.999743
0.999565 1 1 0.999565
0.999642 1 1 0.999642
0.999708 1 1.00024 0.999463
0.999991 1 1.00055 0.999437
0.999623 1 1.00009 0.999536
0.999647 1 1 0.999647
0.999748 1 1 0.999748
0.999639 1 1 0.999639
0.999653 1 1 0.999653
0.999637 1 1 0.999637
0.999588 1 1 0.999588
0.999612 1 1 0.999612
0.999583 1 1 0.999583
0.999549 1 1 0.999549
0.999527 1 1 0.999527
0.999542 1 1 0.999542
0.999575 1 1 0.999575
0.999587 1 1 0.999587
0.999689 1 1 0.999689
0.999712 1 1 0.999712
0.999841 1 1 0.999841
0.999732 1 1 0.999732
0.999854 1 1 0.999854
0.999987 1 1 0.999987
0.999845 1 1 0.999845
0.999989 1 1 0.999989
1 1 1 1
0.99999 1 1 0.99999
1 1 1 1
1 1 1 1
1 1 1 1
1 1 1 1
1 1 1 1
0.999925 1 1 0.999925
1 1 1 1
0.999919 1 1 0.999919
1 1 1 1
1 1 1 1
1 1 1 1
1 1 1 1
1 1 1 1
1 1 1 1
1 1 1 1
1 1 1 1
0.937774 0.950416 0.987741 0.998944
0.96121 0.973575 0.987726 0.999568
0.983602 0.98512 0.999207 0.999252
1.00316 1.00354 0.999984 0.999629
1.00228 1.00302 1.00003 0.999236
0.986207 0.985026 1.00173 0.99947
1.00356 1.00342 1.0008 0.999353
0.966376 0.969293 1.00005 0.996943
0.935 0.948856 0.986441 0.998942
0.935502 0.966211 0.968852 0.999344
0.999808 0.996382 1.00387 0.999575
0.972491 0.972805 1.00283 0.996857
0.934156 0.954446 0.979815 0.998905
0.976424 0.999092 0.977813 0.999488
0.999688 1 1 0.999688
0.999803 1 1 0.999803
0.999922 1 1 0.999922
0.999791 1 1 0.999791
0.999727 1 1 0.999727
0.999704 1 1 0.999704
0.99974 1 1 0.99974
0.999756 1 1 0.999756
0.99979 1 1 0.99979
0.9998 1 1 0.9998
1.00219 1.00386 0.999025 0.999311
0.997756 1.00125 0.997063 0.999447
0.999392 1 1.00013 0.99926
1.00172 1 1.00241 0.999307
1.0013 1 1.00198 0.999325
0.999481 1 1 0.999481
0.999632 1 1 0.999632
0.999656 1 1 0.999656
0.996888 1.00701 0.990662 0.999277
0.999572 1 1 0.999572
0.999508 1 1 0.999508
1.00046 1.00044 1.0008 0.999228
1.00061 1 1.00133 0.999273
1.00343 1 1.00416 0.999276
1.00049 1 1.00112 0.999368
0.99544 1.01266 0.983848 0.999138
1.00816 1 1.00887 0.999302
1.00404 1 1.00476 0.999283
0.999567 1 1 0.999567
0.999493 1 1 0.999493
0.999406 1 1 0.999406
0.975408 0.979534 0.996243 0.999543
0.942731 0.953357 0.990574 0.998264
0.959284 0.965399 0.996831 0.996826
0.999469 1 1 0.999469
1.00053 1 1.00113 0.999402
0.985984 1.00189 0.984826 0.999287
1.00743 1 1.00814 0.999296
0.935708 0.951888 0.984724 0.998252
0.970344 0.97207 1.00081 0.997414
1.00019 1.00076 1.0012 0.998238
0.989214 1.00518 0.984765 0.999341
0.940472 0.955583 0.985186 0.998985
0.959971 0.973245 0.986926 0.999429
0.968685 0.996205 0.972861 0.9995
0.999444 1 1 0.999444
0.971858 0.977327 0.994829 0.999573
1.01479 1.01723 0.997815 0.999783
0.997709 1 0.998312 0.999396
1.00703 1 1.00753 0.999503
1.00887 1.00315 1.00645 0.999248
0.994607 0.996967 0.999187 0.998444
0.975312 0.975419 1.0034 0.996501
0.961302 0.978792 0.983057 0.999058
0.99389 1.01358 0.980947 0.999621
0.999785 1 1.00021 0.999576
1.0201 1.02047 0.999791 0.999846
1.02252 1.02532 0.997399 0.999871
1.00797 1 1.00825 0.999722
0.997512 0.992423 1.00543 0.999699
0.982629 0.980463 1.00566 0.99657
0.979109 0.994082 0.985823 0.999102
0.994972 1.01523 0.980436 0.9996
0.999442 1 1 0.999442
0.99981 1 1.00036 0.999455
1.00079 1 1.0013 0.999491
0.999743 1 1 0.999743
0.999641 1 1 0.999641
0.999573 1 1 0.999573
0.999739 1 1.00028 0.999457
0.999647 1 1 0.999647
0.999568 1 1.00003 0.999537
1.00037 1 1.00093 0.999437
1.00034 1 1.00086 0.999481
0.999667 1 1.00021 0.999455
0.999571 1 1 0.999571
0.999653 1 1 0.999653
0.999636 1 1 0.999636
0.999585 1 1 0.999585
0.999584 1 1 0.999584
0.999612 1 1 0.999612
0.999553 1 1 0.999553
0.999528 1 1 0.999528
0.999523 1 1 0.999523
0.999497 1 1 0.999497
0.999529 1 1 0.999529
0.99952 1 1 0.99952
0.999498 1 1 0.999498
0.999609 1 1 0.999609
0.999568 1 1 0.999568
0.999584 1 1 0.999584
0.999657 1 1 0.999657
0.999588 1 1 0.999588
0.999689 1 1 0.999689
0.999822 1 1 0.999822
0.999712 1 1 0.999712
0.999841 1 1 0.999841
0.999984 1 1 0.999984
0.999854 1 1 0.999854
0.999986 1 1 0.999986
1 1 1 1
0.999988 1 1 0.999988
1 1 1 1
1 1 1 1
1 1 1 1
1 1 1 1
1 1 1 1
0.999887 1 1 0.999887
1 1 1 1
0.999909 1 1 0.999909
1 1 1 1
1 1 1 1
0.999919 1 1 0.999919
1 1 1 1
1 1 1 1
1 1 1 1
1 1 1 1
1 1 1 1
1 1 1 1
0.975502 0.978176 0.997612 0.999654
0.939635 0.951176 0.989274 0.998578
1.01309 1.01784 0.995556 0.999779
0.958158 0.971011 0.987218 0.999539
0.982804 0.983685 1.00037 0.998733
1.00291 1.00351 1.00004 0.999364
0.966987 0.969125 1.00012 0.997671
0.932384 0.949381 0.983812 0.998257
0.932511 0.966875 0.965112 0.999324
0.996876 0.997757 0.999817 0.9993
0.971672 0.970836 1.00416 0.996717
0.936368 0.957787 0.97935 0.998251
0.976186 0.99976 0.976915 0.999493
0.998565 1.00424 0.994905 0.999445
0.972922 0.971386 1.00503 0.99657
0.964178 0.981632 0.983182 0.99902
0.997393 1.0171 0.980978 0.999642
0.999626 1 1 0.999626
0.999699 1 1 0.999699
0.999811 1 1 0.999811
0.999736 1 1 0.999736
0.999645 1 1 0.999645
0.999712 1 1 0.999712
0.999743 1 1 0.999743
0.999743 1 1 0.999743
0.999765 1 1 0.999765
0.99978 1 1 0.99978
0.99903 1.00664 0.993186 0.999249
0.998571 1.00022 0.999148 0.999207
1.00089 1 1.00159 0.9993
1.00275 1 1.00349 0.999264
1.00112 1 1.00176 0.999359
0.999496 1 1 0.999496
0.999567 1 1 0.999567
0.999568 1 1 0.999568
0.995411 1.0103 0.986104 0.999149
0.9995 1 1 0.9995
0.999493 1 1.00009 0.999403
1.00758 1 1.00831 0.999277
1.0039 1 1.00462 0.999284
0.996536 1.01062 0.986821 0.999234
1.01732 1 1.01794 0.99939
1.00013 1 1.00078 0.999348
0.99951 1 1 0.99951
0.999409 1 1 0.999409
1.02086 1.02123 0.999768 0.999865
0.976244 0.979185 0.997388 0.999607
0.942153 0.954014 0.988648 0.998907
0.999442 1 1 0.999442
1.00707 1 1.00757 0.999504
0.997554 1 0.99815 0.999404
0.976353 0.978913 0.997742 0.999642
0.975045 0.973183 1.00547 0.996465
0.995842 0.996668 1 0.999171
1.00914 1.002 1.0083 0.998837
0.956285 0.975218 0.982303 0.998251
1.01447 1.01702 0.997703 0.999785
0.993251 1.01226 0.98159 0.999624
0.999724 1 1.00014 0.999588
1.02035 1.02057 0.999921 0.999865
1.02394 1.02707 0.997088 0.999872
1.00862 0.999985 1.00902 0.99962
0.998536 0.994384 1.00475 0.999431
0.985695 0.982487 1.00681 0.996479
0.997953 1.01851 0.980163 0.999651
0.973049 0.988994 0.985124 0.998736
0.999975 1 1.00026 0.999711
1.02129 1.02303 0.998346 0.999953
1.02599 1.02873 0.997446 0.999888
0.998459 1.016 0.983089 0.999645
1.00608 0.994438 1.01185 0.999863
0.983007 0.98074 1.0055 0.996826
0.968375 0.985724 0.983397 0.998986
0.999735 1 1.00027 0.999467
1.00055 1 1.00109 0.999458
1.00313 1 1.00355 0.999578
0.999647 1 1 0.999647
0.999538 1 1 0.999538
1.00081 1 1.00138 0.999436
0.999574 1 1 0.999574
0.999779 1 1.00033 0.999453
1.00072 1 1.00126 0.99946
0.999875 1 1.00035 0.999521
0.999487 1 1 0.999487
0.999586 1 1 0.999586
0.999612 1 1 0.999612
0.999557 1 1 0.999557
0.999524 1 1 0.999524
0.99953 1 1 0.99953
0.999499 1 1 0.999499
0.999518 1 1 0.999518
0.999747 1 1.00034 0.999407
0.999531 1 1 0.999531
0.999518 1 1 0.999518
0.999418 1 1 0.999418
0.999512 1 1 0.999512
0.999602 1 1 0.999602
0.9995 1 1 0.9995
0.999663 1 1 0.999663
0.999603 1 1 0.999603
0.999595 1 1 0.999595
0.999593 1 1 0.999593
0.999665 1 1 0.999665
0.999799 1 1 0.999799
0.999689 1 1 0.999689
0.999821 1 1 0.999821
0.999978 1 1 0.999978
0.99984 1 1 0.99984
0.999982 1 1 0.999982
1 1 1 1
0.999985 1 1 0.999985
1 1 1 1
1 1 1 1
1 1 1 1
1 1 1 1
1 1 1 1
0.999838 1 1 0.999838
0.999978 1 1 0.999978
0.999886 1 1 0.999886
1 1 1 1
0.999991 1 1 0.999991
0.999893 1 1 0.999893
1 1 1 1
1 1 1 1
1 1 1 1
1 1 1 1
1 1 1 1
1 1 1 1
1.01965 1.02014 0.999662 0.999855
0.97043 0.977045 0.993694 0.999532
0.942426 0.951239 0.9924 0.998322
0.999703 1 1 0.999703
1.02566 1.02842 0.997425 0.999897
1.01438 1.01822 0.996449 0.999781
0.954687 0.971585 0.983152 0.999447
0.994281 0.998667 0.996611 0.998994
0.973188 0.971501 1.00495 0.996806
0.94001 0.96046 0.979735 0.998953
0.974536 0.99736 0.977657 0.999446
0.998401 1.00776 0.992033 0.998672
0.973975 0.972275 1.00512 0.996642
0.963461 0.981554 0.982862 0.998682
0.99437 1.01563 0.979462 0.999599
0.987122 0.999072 0.989579 0.998444
0.977892 0.975768 1.00631 0.99589
0.973716 0.991363 0.983818 0.998355
0.995837 1.01738 0.979227 0.999584
0.999562 1 1 0.999562
0.999619 1 1 0.999619
0.99971 1 1 0.99971
0.99963 1 1 0.99963
0.999657 1 1 0.999657
0.999719 1 1 0.999719
0.999746 1 1 0.999746
0.999775 1 1 0.999775
0.995224 1.00777 0.988379 0.99916
1.0065 1 1.00725 0.999253
0.999569 1 1 0.999569
1.00366 1 1.00438 0.999284
0.999567 1 1.00017 0.9994
0.999506 1 1 0.999506
0.999512 1 1 0.999512
0.998029 1.00979 0.989109 0.999241
0.999416 1 1 0.999416
1.00095 1 1.0016 0.999342
1.01699 1 1.01763 0.999376
0.99951 1 1 0.99951
1.00339 1.00289 1.00094 0.99956
1.0131 1 1.01363 0.99948
0.99941 1 1 0.99941
0.999452 1 1 0.999452
1.0205 1.02124 0.999312 0.999959
1.01998 1.0204 0.999723 0.999868
0.976976 0.978709 0.998555 0.999673
0.999601 1 1 0.999601
1.00947 0.999979 1.00997 0.999519
1.02056 1.02068 0.999995 0.999884
0.981678 0.977303 1.00797 0.996535
1.00119 0.99688 1.00566 0.998674
0.97144 0.989466 0.983358 0.998398
1.0251 1.02851 0.996807 0.999874
1.00124 1.02222 0.979769 0.999701
1.00015 1 1.00047 0.999682
1.02226 1.02407 0.998278 0.999953
1.02555 1.02807 0.997638 0.999906
1.00691 0.995321 1.01171 0.999931
0.995108 1.01439 0.981388 0.999601
0.981098 0.982178 1.0019 0.997004
0.968152 0.986958 0.98262 0.998297
1.00647 0.998125 1.0086 0.999772
1.01538 1.0173 0.998146 0.999971
1.02655 1.02868 0.998035 0.999894
0.976542 0.99855 0.978454 0.999495
0.972623 0.989517 0.984537 0.998365
1.00423 0.992594 1.01157 1.00016
0.977259 0.976797 1.00373 0.996754
1.00032 1 1.00089 0.999425
1.00224 1 1.00268 0.999565
1.0122 1 1.01262 0.999581
0.999576 1 1 0.999576
0.999818 1 1.00037 0.999452
1.00098 1 1.00154 0.999438
0.999488 1 1 0.999488
0.999951 1 1.00043 0.999518
1.00285 1 1.00337 0.999475
0.999524 1 1 0.999524
0.999532 1 1 0.999532
0.99967 1 1.00018 0.999491
1.00128 1 1.00189 0.999395
0.99954 1 1 0.99954
0.999613 1 1.00019 0.999424
0.999909 1 1.00059 0.999323
0.999393 1 1 0.999393
0.999516 1 1 0.999516
0.999403 1 1 0.999403
0.999559 1 1 0.999559
0.999591 1 1 0.999591
0.999525 1 1 0.999525
0.999666 1 1 0.999666
0.9996 1 1 0.9996
0.999502 1 1 0.999502
0.999781 1 1 0.999781
0.999659 1 1 0.999659
0.999597 1 1 0.999597
0.999674 1 1 0.999674
0.999799 1 1 0.999799
0.99997 1 1 0.99997
0.999821 1 1 0.999821
0.999977 1 1 0.999977
1 1 1 1
0.999981 1 1 0.999981
1 1 1 1
1 1 1 1
1 1 1 1
1 1 1 1
1 1 1 1
0.999814 1 1 0.999814
0.999964 1 1 0.999964
0.999848 1 1 0.999848
1 1 1 1
0.999977 1 1 0.999977
0.999885 1 1 0.999885
1 1 1 1
1 1 1 1
0.999982 1 1 0.999982
1 1 1 1
1 1 1 1
1 1 1 1
1.02175 1.0227 0.999119 0.999952
1.0197 1.02038 0.999473 0.999857
0.972163 0.977495 0.99501 0.999533
0.999707 1 1 0.999707
0.999679 1 1 0.999679
0.999632 1 1 0.999632
1.02505 1.02792 0.997318 0.999889
1.0266 1.029 0.997777 0.999897
1.01633 1.01862 0.997973 0.999782
1.00338 1.01157 0.992546 0.999353
0.97422 0.971371 1.00634 0.996612
0.960232 0.978116 0.983428 0.998259
0.995977 1.01756 0.97915 0.999628
0.984734 0.997492 0.98805 0.99915
0.979561 0.976317 1.00671 0.996634
0.975427 0.992074 0.98419 0.999014
0.99799 1.02 0.978777 0.999641
0.979047 0.991007 0.988649 0.999274
0.98075 0.978066 1.00601 0.996758
0.973608 0.98983 0.984676 0.998919
0.998246 1.01748 0.981419 0.999675
0.999545 1 1 0.999545
0.999562 1 1 0.999562
0.999612 1 1 0.999612
0.999629 1 1 0.999629
0.999669 1 1 0.999669
0.99975 1 1 0.99975
1.00031 1.00883 0.9923 0.999247
1.01685 1 1.0175 0.999362
0.999513 1 1 0.999513
1.00165 1 1.00231 0.999337
0.999422 1 1 0.999422
0.999507 1 1 0.999507
0.999448 1 1 0.999448
1.00336 1.0039 0.999913 0.999552
0.999423 1 1 0.999423
1.01328 0.999668 1.01412 0.999503
0.999474 1 1 0.999474
1.01861 0.997617 1.02129 0.999754
0.999242 0.999177 1.00044 0.999629
0.99942 1 1 0.99942
1.01079 1.01177 0.999041 0.999982
1.01896 1.0198 0.999211 0.999963
1.01908 1.01957 0.99965 0.99987
1.00036 1 1.00071 0.999653
1.00331 0.995071 1.00829 0.999986
1.02321 1.02508 0.998226 0.999953
0.98758 0.985624 1.00382 0.99817
0.975906 0.991857 0.984847 0.999057
1.02538 1.0275 0.998015 0.999925
0.996797 1.01633 0.981148 0.99963
1.00556 0.998908 1.00687 0.999788
1.01416 1.01572 0.998495 0.999974
1.02766 1.02927 0.998548 0.999894
1.00573 0.991644 1.01484 0.999367
0.976949 0.99946 0.977967 0.999498
0.974042 0.990358 0.984487 0.999022
0.979353 0.978472 1.00401 0.996898
1.02562 1 1.02574 0.999889
1.02173 1.02247 0.999325 0.99995
1.01473 1.01821 0.996799 0.999775
0.937881 0.96457 0.972945 0.999369
0.962344 0.979694 0.983233 0.999042
0.987992 0.98243 1.00889 0.996805
0.985605 0.990301 0.996135 0.99912
1.00122 1 1.00167 0.999552
1.01334 1 1.01376 0.999586
1.01951 1 1.01998 0.999537
0.999488 1 1 0.999488
1.00007 1 1.00055 0.999515
1.00229 1 1.00281 0.999481
1.01004 1 1.01067 0.999372
0.999803 1 1.00032 0.999484
1.00153 1 1.00215 0.999377
1.00441 1 1.00517 0.99925
0.999441 1 1 0.999441
1.00031 1 1.00099 0.99932
1.00077 1 1.00152 0.999252
0.99932 1 1 0.99932
0.999505 1 1 0.999505
0.999418 1 1.00004 0.999381
0.999389 1 1 0.999389
0.999608 1 1 0.999608
0.999573 1 1 0.999573
0.999646 1 1 0.999646
0.999599 1 1 0.999599
0.999537 1 1 0.999537
0.999769 1 1 0.999769
0.999667 1 1 0.999667
0.999599 1 1 0.999599
0.999958 1 1 0.999958
0.999782 1 1 0.999782
0.999656 1 1 0.999656
0.999799 1 1 0.999799
0.999968 1 1 0.999968
1 1 1 1
0.999975 1 1 0.999975
1 1 1 1
1 1 1 1
1 1 1 1
1 1 1 1
1 1 1 1
0.999811 1 1 0.999811
0.999976 1 1 0.999976
0.999822 1 1 0.999822
1 1 1 1
0.999976 1 1 0.999976
0.999857 1 1 0.999857
1 1 1 1
1 1 1 1
0.999976 1 1 0.999976
1 1 1 1
1 1 1 1
1 1 1 1
1.01567 1.01726 0.998468 0.99997
1.02215 1.02318 0.999037 0.999952
1.01963 1.02061 0.999175 0.999859
0.99967 1 1 0.99967
0.999621 1 1 0.999621
0.999712 1 1 0.999712
0.999678 1 1 0.999678
0.999621 1 1 0.999621
0.999613 1 1 0.999613
0.99957 1 1 0.99957
1.02131 1.02372 0.997775 0.999871
1.02484 1.02759 0.997419 0.999907
1.02719 1.02958 0.997777 0.999898
1.00103 1.02315 0.978671 0.999698
0.987834 1.00208 0.987314 0.998453
0.981488 0.977053 1.00723 0.997327
0.97394 0.988704 0.986777 0.998267
0.982142 0.991332 0.991859 0.998861
0.983317 0.980872 1.00582 0.996687
0.973204 0.991057 0.983684 0.998272
0.993811 1.01405 0.98043 0.9996
0.980867 0.98504 0.996242 0.99952
0.974896 0.981864 0.996267 0.996624
0.984423 0.998381 0.986978 0.999028
0.983603 1.00371 0.98037 0.999586
0.999525 1 1 0.999525
0.999543 1 1 0.999543
0.999562 1 1 0.999562
0.999628 1 1 0.999628
1.0021 1.00489 0.997673 0.999543
1.01373 0.999244 1.01497 0.999526
0.999505 1 1 0.999505
0.999444 1 1 0.999444
0.999435 1 1 0.999435
0.999477 1 1 0.999477
0.999413 1 1 0.999413
1.00952 0.99557 1.01424 0.999767
0.999652 0.999548 1.00044 0.999667
0.999427 1 1 0.999427
1.02134 0.991287 1.03038 0.999933
1.00339 1 1.00395 0.999442
1.02087 1.02127 0.999645 0.999957
1.00841 1.00924 0.999192 0.999986
1.0175 1.01834 0.999201 0.999968
1.00455 0.999639 1.00511 0.999805
1.00676 0.991379 1.0154 1.00011
1.01292 1.01416 0.998797 0.999977
0.977327 0.976657 1.00395 0.996748
0.971694 0.986725 0.986459 0.998284
1.02832 1.02985 0.998619 0.999895
0.975429 0.996883 0.979012 0.999456
1.02771 0.999136 1.02872 0.999873
1.02204 1.02292 0.999189 0.999951
1.01589 1.01859 0.997571 0.999777
0.990331 0.992932 0.99737 1.00001
0.9345 0.96495 0.969077 0.999347
0.960821 0.978728 0.982982 0.9987
0.989694 0.982217 1.0106 0.997044
1.01499 0.999327 1.01584 0.999835
1.02007 1.02019 1.00004 0.999851
0.96189 0.973043 0.988963 0.99957
0.932444 0.95269 0.979817 0.99891
0.981326 0.977015 1.00778 0.996654
0.986179 0.993933 0.99341 0.99878
1.01466 1 1.01507 0.99959
1.02019 1 1.02066 0.999534
1.01661 1 1.01717 0.999446
1.00178 1 1.0023 0.999488
1.0105 1 1.01112 0.999387
1.00767 1 1.00844 0.999237
1.00196 1 1.0026 0.999359
1.0044 1 1.00517 0.999235
1.00276 1 1.0036 0.999163
1.00078 1 1.00147 0.999317
1.00081 1 1.00158 0.999236
1.00057 1 1.00136 0.999221
0.999309 1 1 0.999309
0.999422 1 1 0.999422
0.999363 1 1.00006 0.999307
0.999578 1 1 0.999578
0.999514 1 1 0.999514
0.999458 1 1.00009 0.999368
0.999634 1 1 0.999634
0.999604 1 1 0.999604
0.999586 1 1 0.999586
0.999747 1 1 0.999747
0.999652 1 1 0.999652
0.999608 1 1 0.999608
0.999941 1 1 0.999941
0.99977 1 1 0.99977
0.999668 1 1 0.999668
1 1 1 1
0.999956 1 1 0.999956
0.999783 1 1 0.999783
0.999966 1 1 0.999966
1 1 1 1
1 1 1 1
1 1 1 1
1 1 1 1
1 1 1 1
0.999671 1 1 0.999671
0.999791 1 1 0.999791
0.999968 1 1 0.999968
0.999811 1 1 0.999811
1 1 1 1
0.999979 1 1 0.999979
0.999831 1 1 0.999831
1 1 1 1
1 1 1 1
0.999988 1 1 0.999988
1 1 1 1
1 1 1 1
1 1 1 1
1.02173 1.02245 0.999336 0.999952
1.01454 1.01574 0.998853 0.999974
1.02257 1.02367 0.998978 0.999952
0.999674 1 1 0.999674
0.999615 1 1 0.999615
0.999604 1 1 0.999604
0.999609 1 1 0.999609
0.999586 1 1 0.999586
0.999676 1 1 0.999676
0.999611 1 1 0.999611
0.999614 1 1 0.999614
0.999569 1 1 0.999569
0.999568 1 1 0.999568
1.01477 1.01583 0.999178 0.999776
1.02264 1.02535 0.997493 0.999872
1.02432 1.027 0.997465 0.999925
0.993108 1.01266 0.98108 0.999605
0.978963 0.99401 0.985836 0.999012
0.983619 0.990434 0.994605 0.998505
0.978216 0.981204 1.00018 0.996777
0.984736 0.984997 1.00099 0.998743
0.978522 0.980082 1.00169 0.996729
0.977435 0.993308 0.985327 0.998674
0.978143 1.00147 0.97714 0.999557
1.00296 0.983459 1.02095 0.998902
0.979189 0.982488 0.999807 0.996834
0.955212 0.976783 0.979606 0.998275
0.94526 0.974721 0.970386 0.999371
0.99959 1 1 0.99959
0.999527 1 1 0.999527
0.999541 1 1 0.999541
1.00157 0.994006 1.00784 0.999779
1.00011 1 1.00041 0.999705
0.99948 1 1 0.99948
0.999406 1 1 0.999406
0.999467 1 1.00003 0.999434
1.00388 1 1.00444 0.99944
1.02155 0.993154 1.02866 0.999934
1.00381 1 1.00435 0.99946
1.01215 0.998427 1.01406 0.999696
1.02019 1.02033 1 0.999858
1.01928 1.01973 0.999595 0.999962
1.00601 1.00674 0.999285 0.99999
1.02979 0.998525 1.03146 0.999855
0.989299 0.992073 0.998201 0.999001
1.0224 1.02337 0.999098 0.999951
0.981953 0.980773 1.00523 0.995993
0.958774 0.976286 0.983744 0.998291
1.01768 1.01898 0.998948 0.999779
0.931937 0.965735 0.965654 0.999325
1.01525 0.999656 1.01576 0.999838
1.02022 1.02047 0.999899 0.999853
0.958234 0.97019 0.988129 0.999542
0.982523 0.99229 0.990929 0.999221
0.935134 0.956506 0.979352 0.998268
0.982707 0.978323 1.00828 0.99623
0.997916 0.999369 0.998871 0.999675
0.975582 0.978136 0.997734 0.999654
0.928589 0.947176 0.982117 0.998227
0.975501 0.973433 1.00556 0.996587
0.998543 0.998984 1.00035 0.999209
1.02043 1 1.02091 0.999532
1.01893 1 1.01949 0.999444
1.00164 1 1.00232 0.999323
1.01076 1 1.01137 0.999403
1.00724 1 1.008 0.999248
1.0016 1 1.00242 0.999186
1.00415 1 1.00493 0.999219
1.00226 1 1.0031 0.999165
0.999279 1 1.00003 0.999245
1.00078 1 1.00156 0.999221
1.00019 1 1.00096 0.999227
0.999325 1 1 0.999325
0.999386 1 1 0.999386
0.999377 1 1 0.999377
0.999314 1 1 0.999314
0.999513 1 1 0.999513
0.999405 1 1 0.999405
0.999386 1 1.00009 0.999293
0.999638 1 1 0.999638
0.999589 1 1 0.999589
0.999524 1 1 0.999524
0.999722 1 1 0.999722
0.999635 1 1 0.999635
0.9996 1 1 0.9996
0.999917 1 1 0.999917
0.999747 1 1 0.999747
0.999658 1 1 0.999658
1 1 1 1
0.999941 1 1 0.999941
0.99977 1 1 0.99977
1 1 1 1
1 1 1 1
0.999955 1 1 0.999955
1 1 1 1
1 1 1 1
1 1 1 1
0.999652 1 1 0.999652
0.999771 1 1 0.999771
0.999666 1 1 0.999666
0.99996 1 1 0.99996
0.999791 1 1 0.999791
1 1 1 1
0.99997 1 1 0.99997
0.999811 1 1 0.999811
1 1 1 1
1 1 1 1
0.999982 1 1 0.999982
1 1 1 1
1 1 1 1
1 1 1 1
1.01916 1.01929 1 0.999874
1.02291 1.02367 0.999312 0.999952
1.01341 1.01426 0.999183 0.999977
0.999612 1 1 0.999612
0.999678 1 1 0.999678
0.999609 1 1 0.999609
0.999616 1 1 0.999616
0.99961 1 1 0.99961
0.999585 1 1 0.999585
0.99957 1 1 0.99957
0.999569 1 1 0.999569
0.999614 1 1 0.999614
0.999568 1 1 0.999568
0.999567 1 1 0.999567
0.999556 1 1 0.999556
0.959397 0.974182 0.985369 0.999446
1.0138 1.01497 0.99907 0.999777
1.02431 1.02721 0.997295 0.999874
0.972145 0.996805 0.975767 0.999481
0.977691 0.994863 0.984368 0.998346
0.973904 0.981144 0.995973 0.996634
0.987583 0.981676 1.00642 0.9996
1.002 0.982364 1.02027 0.999727
0.940036 0.970407 0.969331 0.999352
0.982376 0.982161 1.00389 0.996348
0.957662 0.976982 0.981192 0.999013
0.997094 0.991239 1.00622 0.99969
0.97936 0.977084 1.00543 0.99692
0.933108 0.952867 0.980301 0.998941
1.0001 1 1.00041 0.999693
0.999591 1 1 0.999591
0.999529 1 1 0.999529
1.02147 0.994893 1.02678 0.999933
1.0045 1 1.00506 0.999438
0.999492 1 1.00005 0.999441
1.00411 1 1.00465 0.999462
1.01135 0.999148 1.01251 0.999704
1.00908 1 1.00939 0.999697
0.974973 0.978951 0.996426 0.999508
1.01959 1.01973 0.999986 0.999879
1.01776 1.01818 0.99962 0.999968
1.01535 0.999872 1.01564 0.999843
0.983755 0.994062 0.990093 0.999534
1.02027 1.02076 0.999666 0.999854
0.985571 0.979506 1.00885 0.997365
0.938603 0.959097 0.979654 0.998958
0.953922 0.970688 0.98327 0.999449
0.997332 1.00013 0.997514 0.999687
0.970015 0.97687 0.993449 0.999532
0.93584 0.947959 0.988254 0.998949
0.99938 0.998147 1.00275 0.998493
0.977179 0.975711 1.00488 0.99664
0.996388 1.00777 0.989238 0.999467
0.93768 0.950618 0.987425 0.998952
0.973659 0.973214 1.00367 0.996797
0.999278 1.0044 0.996485 0.998409
1.02202 1 1.02259 0.999442
0.999917 1 1.00059 0.999332
0.995502 1.0001 0.996078 0.999324
1.00706 1 1.0078 0.999259
1.00157 1 1.00238 0.999189
0.999381 1.00002 1 0.999359
1.00188 1 1.00272 0.999168
0.99951 1 1.00026 0.999255
0.999451 1 1 0.999451
0.99984 1 1.00061 0.999234
0.99933 1 1 0.99933
0.999486 1 1 0.999486
0.999505 1 1 0.999505
0.99941 1 1 0.99941
0.999398 1 1 0.999398
0.999459 1 1 0.999459
0.999388 1 1 0.999388
0.999319 1 1 0.999319
0.999608 1 1 0.999608
0.999512 1 1 0.999512
0.999389 1 1 0.999389
0.99971 1 1 0.99971
0.999637 1 1 0.999637
0.9996 1 1 0.9996
0.999888 1 1 0.999888
0.999723 1 1 0.999723
0.999636 1 1 0.999636
1 1 1 1
0.999917 1 1 0.999917
0.999747 1 1 0.999747
1 1 1 1
1 1 1 1
0.99994 1 1 0.99994
1 1 1 1
1 1 1 1
1 1 1 1
0.99966 1 1 0.99966
0.999654 1 1 0.999654
0.999752 1 1 0.999752
0.999949 1 1 0.999949
0.999771 1 1 0.999771
0.999661 1 1 0.999661
1 1 1 1
0.999962 1 1 0.999962
0.999791 1 1 0.999791
1 1 1 1
1 1 1 1
0.999973 1 1 0.999973
1 1 1 1
1 1 1 1
1 1 1 1
0.974629 0.977446 0.997492 0.999624
1.01926 1.01938 1 0.999876
1.02407 1.02483 0.999304 0.999952
0.999608 1 1 0.999608
0.999623 1 1 0.999623
0.999584 1 1 0.999584
0.999623 1 1 0.999623
0.999615 1 1 0.999615
0.999585 1 1 0.999585
0.999571 1 1 0.999571
0.999572 1 1 0.999572
0.999542 1 1 0.999542
0.999563 1 1 0.999563
0.999567 1 1 0.999567
0.999557 1 1 0.999557
0.935741 0.949304 0.986721 0.998978
0.959269 0.972459 0.986958 0.999471
1.01309 1.01426 0.99907 0.999778
0.9349 0.966561 0.967889 0.999333
0.954533 0.974031 0.981667 0.998284
0.98936 0.986912 1.00495 0.997546
1.0085 0.982748 1.02736 0.998867
0.997344 0.99128 1.00725 0.99887
0.935869 0.954902 0.981719 0.998318
0.983568 0.980739 1.0057 0.997205
0.996504 0.991984 1.00568 0.998885
0.977425 0.976012 1.00461 0.996855
1.00773 1 1.00819 0.99955
0.999957 1 1.00027 0.99969
0.999592 1 1 0.999592
1.01029 0.999684 1.0109 0.999712
1.0044 1 1.00494 0.999464
1.00885 1 1.00918 0.999679
1.00164 1.00065 1.00146 0.999525
0.939712 0.955102 0.985074 0.998795
0.975865 0.978686 0.997529 0.999588
1.01888 1.01907 0.999918 0.9999
0.995928 1.00056 0.995672 0.999699
1.00048 0.997024 1.00425 0.999224
0.971802 0.977513 0.994623 0.999533
0.977477 0.974242 1.00672 0.996625
0.932197 0.948317 0.984716 0.998259
0.997027 1.00714 0.990481 0.999471
0.939577 0.951513 0.988871 0.998569
0.974092 0.972148 1.00533 0.996691
1.00016 1.00237 0.998681 0.999121
1.00926 1.01227 0.997752 0.999276
0.963673 0.967187 1.00015 0.996218
0.99727 1.00177 0.996168 0.999335
0.998267 1 0.998925 0.999342
0.99678 1.00004 0.997423 0.999313
0.996719 1.0005 0.996824 0.999397
1.00145 1 1.00226 0.999191
0.999309 1.00005 0.999906 0.999357
0.999728 1.00071 0.999403 0.999615
0.999726 1 1.00046 0.999264
0.999453 1 1 0.999453
0.99968 1.00005 1 0.999625
0.999335 1 1 0.999335
0.999486 1 1 0.999486
0.999591 1 1 0.999591
0.999566 1 1 0.999566
0.999518 1 1 0.999518
0.999493 1 1 0.999493
0.999458 1 1 0.999458
0.999412 1 1 0.999412
0.99941 1 1 0.99941
0.999542 1 1 0.999542
0.999471 1 1 0.999471
0.999399 1 1 0.999399
0.999691 1 1 0.999691
0.999606 1 1 0.999606
0.999511 1 1 0.999511
0.999862 1 1 0.999862
0.999711 1 1 0.999711
0.999636 1 1 0.999636
1 1 1 1
0.999888 1 1 0.999888
0.999724 1 1 0.999724
1 1 1 1
1 1 1 1
0.999916 1 1 0.999916
1 1 1 1
1 1 1 1
1 1 1 1
0.999657 1 1 0.999657
0.999652 1 1 0.999652
0.999736 1 1 0.999736
0.999656 1 1 0.999656
0.999752 1 1 0.999752
0.999931 1 1 0.999931
1 1 1 1
0.99995 1 1 0.99995
0.999771 1 1 0.999771
1 1 1 1
1 1 1 1
0.999964 1 1 0.999964
1 1 1 1
1 1 1 1
1 1 1 1
0.945006 0.953049 0.993156 0.998394
0.97255 0.977332 0.995546 0.999559
1.01938 1.01951 1 0.999877
0.999603 1 1 0.999603
0.999582 1 1 0.999582
0.999627 1 1 0.999627
0.999626 1 1 0.999626
0.999589 1 1 0.999589
0.999573 1 1 0.999573
0.999574 1 1 0.999574
0.999544 1 1 0.999544
0.999571 1 1 0.999571
0.999535 1 1 0.999535
0.99971 1 1.00026 0.999453
0.999559 1 1 0.999559
0.999558 1 1 0.999558
0.973522 0.97684 1.00038 0.996229
0.940471 0.951712 0.989498 0.998677
0.959534 0.97284 0.986891 0.999424
0.937856 0.955775 0.982235 0.998999
0.979711 0.976883 1.00685 0.996071
1.00051 0.992182 1.00869 0.999706
0.997988 0.993882 1.00482 0.999309
0.978095 0.977375 1.00379 0.996954
0.992201 0.999055 0.994196 0.998938
1.00618 1.00131 1.0057 0.999168
1.0062 1 1.00666 0.999539
0.999687 1 1 0.999687
1.0077 1 1.00804 0.999664
1.00066 1.00091 1.00017 0.999578
0.957666 0.965271 0.995235 0.996872
0.942538 0.954309 0.989334 0.998315
0.977101 0.978493 0.998909 0.999668
0.997458 1.00689 0.99115 0.999475
1.00537 1.00681 1.00015 0.998418
0.942912 0.951524 0.992629 0.998308
0.974848 0.971796 1.00638 0.99678
1.00345 1.01102 0.99324 0.99927
0.966437 0.968876 1.00057 0.996914
0.997449 1.00419 0.994664 0.998615
0.998131 1.01015 0.988936 0.999154
0.997993 0.994118 1.00435 0.999548
0.996991 1 0.997689 0.999301
0.996535 1.00043 0.996713 0.999387
0.999031 1.00356 0.995987 0.999493
0.999128 1.00003 0.999738 0.999355
0.999105 1.00035 0.999144 0.999611
0.999679 1.00093 0.99908 0.999675
0.999455 1 1 0.999455
0.999654 1.00004 0.999994 0.999617
0.999713 1.00009 0.999987 0.999638
0.999487 1 1 0.999487
0.999585 1 1 0.999585
0.999581 1 1 0.999581
0.99958 1 1 0.99958
0.999531 1 1 0.999531
0.999531 1 1 0.999531
0.999491 1 1 0.999491
0.999485 1 1 0.999485
0.999508 1 1 0.999508
0.999455 1 1 0.999455
0.999414 1 1 0.999414
0.999652 1 1 0.999652
0.99955 1 1 0.99955
0.999484 1 1 0.999484
0.99984 1 1 0.99984
0.999691 1 1 0.999691
0.999605 1 1 0.999605
1 1 1 1
0.999862 1 1 0.999862
0.999711 1 1 0.999711
1 1 1 1
1 1 1 1
0.999887 1 1 0.999887
1 1 1 1
1 1 1 1
1 1 1 1
0.999642 1 1 0.999642
0.999657 1 1 0.999657
0.999712 1 1 0.999712
0.999644 1 1 0.999644
0.999729 1 1 0.999729
0.999905 1 1 0.999905
0.999751 1 1 0.999751
0.999931 1 1 0.999931
1 1 1 1
1 1 1 1
1 1 1 1
0.999951 1 1 0.999951
1 1 1 1
1 1 1 1
1 1 1 1
0.967625 0.970669 0.999932 0.996931
0.941468 0.955381 0.986534 0.998888
0.975422 0.978382 0.997366 0.999608
0.999579 1 1 0.999579
0.999631 1 1 0.999631
0.999592 1 1 0.999592
0.999626 1 1 0.999626
0.999606 1 1 0.999606
0.999605 1 1 0.999605
0.999547 1 1 0.999547
0.999563 1 1 0.999563
0.999534 1 1 0.999534
0.99955 1 1 0.99955
0.999478 1 1 0.999478
0.999302 1 1.00011 0.999188
0.999516 1 1.00006 0.999459
0.999555 1 1 0.999555
0.990454 0.994079 0.997124 0.999228
0.971539 0.973864 1.00079 0.996828
0.935139 0.951098 0.984914 0.998281
0.975954 0.975211 1.00399 0.996783
0.99487 0.99276 1.0024 0.999727
0.992937 0.997044 0.996317 0.999563
0.99717 1.00461 0.993324 0.999265
1.00322 1.00062 1.00337 0.999226
1.00515 1 1.00563 0.999529
0.998576 1.00102 0.997932 0.999626
0.987572 0.986386 1.00245 0.998759
0.963711 0.966874 0.999711 0.997017
0.940963 0.954562 0.9868 0.99894
1.00003 1.00962 0.991229 0.999265
1.00334 1.00773 0.996406 0.999233
0.967319 0.96849 1.00116 0.997635
0.996312 1.008 0.989224 0.99917
0.99449 0.994814 1.00041 0.999266
0.993718 1.0077 0.98682 0.999291
1.00461 1.00286 1.00249 0.999257
0.996974 1.00026 0.99734 0.999376
0.998788 1.00325 0.996056 0.999494
0.999805 1.00301 0.997308 0.999499
0.998701 1.00005 0.999038 0.999607
0.999594 1.00071 0.999214 0.999668
0.999683 1.00035 0.999799 0.999537
0.999608 1 1 0.999608
0.999657 1.00003 1 0.99963
0.999517 1 1 0.999517
0.999579 1 1 0.999579
0.999585 1 1 0.999585
0.999504 1 1 0.999504
0.999595 1 1 0.999595
0.999538 1 1 0.999538
0.999493 1 1 0.999493
0.999488 1 1 0.999488
0.999483 1 1 0.999483
0.999513 1 1 0.999513
0.999599 1 1 0.999599
0.999516 1 1 0.999516
0.999453 1 1 0.999453
0.999809 1 1 0.999809
0.999652 1 1 0.999652
0.999559 1 1 0.999559
0.999998 1 1 0.999998
0.99984 1 1 0.99984
0.99969 1 1 0.99969
1 1 1 1
1 1 1 1
0.999863 1 1 0.999863
1 1 1 1
1 1 1 1
1 1 1 1
0.999627 1 1 0.999627
0.999647 1 1 0.999647
0.9997 1 1 0.9997
0.999658 1 1 0.999658
0.999711 1 1 0.999711
0.999878 1 1 0.999878
0.999722 1 1 0.999722
0.999905 1 1 0.999905
1 1 1 1
0.999932 1 1 0.999932
1 1 1 1
1 1 1 1
1 1 1 1
1 1 1 1
1 1 1 1
0.984042 0.986272 0.998582 0.999156
0.962003 0.967849 0.99706 0.996891
0.938795 0.954448 0.985283 0.998291
0.999566 1 1 0.999566
0.999595 1 1 0.999595
0.999626 1 1 0.999626
0.999604 1 1 0.999604
0.999604 1 1 0.999604
0.999635 1 1 0.999635
0.999554 1 1 0.999554
0.999533 1 1 0.999533
0.999561 1 1 0.999561
0.999503 1 1 0.999503
0.999317 1 1 0.999317
1.00108 1.0021 1 0.998985
0.999321 1 1.00013 0.999192
0.999465 1 1 0.999465
0.998391 1.00303 0.996052 0.999324
0.991242 0.995444 0.996869 0.998906
0.973158 0.974818 1.00082 0.997478
0.995855 0.99855 0.998425 0.998874
1.00132 1.00547 0.996689 0.99919
1.00164 1.00005 1.00231 0.999285
0.999564 1 1.00002 0.999544
0.988627 0.985341 1.00397 0.999363
0.960814 0.966694 0.997001 0.996907
0.99314 1.00578 0.988234 0.999184
0.99161 0.995057 0.997585 0.998949
0.995724 1.00749 0.989037 0.999271
1.00311 1.00242 1.00136 0.999335
1.00448 1.00574 0.999492 0.999257
1.00062 1.00142 1 0.999207
0.99846 1.00303 0.995951 0.999495
1.00083 1.0032 0.998138 0.999504
0.999568 1.00019 1 0.999381
0.999499 1.00045 0.999384 0.999661
0.99988 1.00039 0.999957 0.999535
0.999394 1 1 0.999394
0.999623 1 1 0.999623
0.999532 1 1 0.999532
0.999415 1 1 0.999415
0.999589 1 1 0.999589
0.999505 1 1 0.999505
0.999455 1 1 0.999455
0.999546 1 1 0.999546
0.999496 1 1 0.999496
0.999493 1 1 0.999493
0.99948 1 1 0.99948
0.999507 1 1 0.999507
0.999578 1 1 0.999578
0.999771 1 1 0.999771
0.999608 1 1 0.999608
0.999524 1 1 0.999524
0.99999 1 1 0.99999
0.999809 1 1 0.999809
0.999652 1 1 0.999652
1 1 1 1
0.999996 1 1 0.999996
0.99984 1 1 0.99984
1 1 1 1
0.999999 1 1 0.999999
1 1 1 1
0.99959 1 1 0.99959
0.999628 1 1 0.999628
0.999689 1 1 0.999689
0.999653 1 1 0.999653
0.999704 1 1 0.999704
0.999854 1 1 0.999854
0.999709 1 1 0.999709
0.999878 1 1 0.999878
1 1 1 1
0.999906 1 1 0.999906
1 1 1 1
1 1 1 1
1 1 1 1
1 1 1 1
1 1 1 1
0.999369 1.00272 0.997097 0.99956
0.983787 0.987573 0.997613 0.99855
0.964831 0.968098 0.999659 0.996966
0.999587 1 1 0.999587
0.999476 1 1 0.999476
0.999572 1 1 0.999572
0.999603 1 1 0.999603
0.999601 1 1 0.999601
0.999625 1 1 0.999625
0.999383 1 1 0.999383
0.999572 1 1 0.999572
0.999528 1 1 0.999528
0.999325 1 1 0.999325
0.999354 1.00027 1 0.99908
1.00184 1.00313 0.999519 0.999195
1.00067 1.00168 1 0.998998
0.999197 1 1 0.999197
1.00028 1.00469 0.996257 0.999349
0.989426 0.994916 0.995947 0.998528
1.00384 1.00604 0.998694 0.999116
0.999605 1.00005 1 0.999551
1.00073 1 1.00116 0.999567
0.986721 0.98512 1.00298 0.998649
0.998189 1.0076 0.991406 0.999251
1.00166 1.00198 1.00027 0.999416
1.00462 1.00617 0.999187 0.999272
1.001 1.00176 1 0.999242
1.00019 1.0009 1 0.999282
0.99986 1.00043 1 0.999428
1.00183 1.00338 0.998947 0.999508
0.999664 1.00028 1 0.999387
0.999291 1 1 0.999291
0.999988 1.00046 1 0.999533
0.999429 1.00003 1 0.999403
0.999328 1 1 0.999328
0.999547 1 1 0.999547
0.999414 1 1 0.999414
0.999378 1 1 0.999378
0.999505 1 1 0.999505
0.999455 1 1 0.999455
0.999454 1 1 0.999454
0.999499 1 1 0.999499
0.999493 1 1 0.999493
0.999552 1 1 0.999552
0.999501 1 1 0.999501
0.999575 1 1 0.999575
0.999737 1 1 0.999737
0.999977 1 1 0.999977
0.999771 1 1 0.999771
0.999617 1 1 0.999617
1 1 1 1
0.999986 1 1 0.999986
0.999808 1 1 0.999808
1 1 1 1
0.999994 1 1 0.999994
1 1 1 1
0.999517 1 1 0.999517
0.999582 1 1 0.999582
0.999659 1 1 0.999659
0.999628 1 1 0.999628
0.999689 1 1 0.999689
0.999832 1 1 0.999832
0.999708 1 1 0.999708
0.999854 1 1 0.999854
1 1 1 1
0.999878 1 1 0.999878
1 1 1 1
1 1 1 1
1 1 1 1
1 1 1 1
1 1 1 1
0.999596 1.00074 0.999381 0.999478
0.998327 1.00169 0.997086 0.999558
0.983472 0.986214 0.9981 0.999117
0.999433 1 1 0.999433
0.999626 1 1 0.999626
0.999354 1 1 0.999354
0.99947 1 1 0.99947
0.999579 1 1 0.999579
0.999228 1.00005 1 0.999173
0.999616 1 1 0.999616
0.999379 1 1 0.999379
0.999505 1.00034 1 0.999162
0.999333 1 1 0.999333
0.99937 1.00031 1 0.999061
1.00164 1.00278 0.999671 0.999189
1.00003 1.00102 1 0.99901
1.00187 1.00592 0.9966 0.999373
0.999707 1.00015 1 0.999553
0.999593 1.00005 1 0.999547
1.00183 1 1.00224 0.99959
1.00477 1.00659 0.998911 0.999286
1.00148 1.00221 1 0.999275
1.00041 1.00114 1 0.999276
1.00012 1.00069 1 0.999426
0.999439 1.00006 1 0.999382
0.999788 1.00039 1 0.999393
0.999297 1 1 0.999297
0.999291 1 1 0.999291
0.999452 1.00004 1 0.999411
0.999324 1 1 0.999324
0.999311 1 1 0.999311
0.999413 1 1 0.999413
0.999377 1 1 0.999377
0.99939 1 1 0.99939
0.999455 1 1 0.999455
0.999453 1 1 0.999453
0.999509 1 1 0.999509
0.999494 1 1 0.999494
0.999553 1 1 0.999553
0.999703 1 1 0.999703
0.999572 1 1 0.999572
0.999736 1 1 0.999736
0.999963 1 1 0.999963
1 1 1 1
0.999973 1 1 0.999973
0.999771 1 1 0.999771
1 1 1 1
0.999983 1 1 0.999983
1 1 1 1
0.999378 1 1 0.999378
0.999455 1 1 0.999455
0.999508 1 1 0.999508
0.999621 1 1 0.999621
0.999574 1 1 0.999574
0.99966 1 1 0.99966
0.999813 1 1 0.999813
0.999689 1 1 0.999689
0.999832 1 1 0.999832
0.999996 1 1 0.999996
0.999854 1 1 0.999854
1 1 1 1
1 1 1 1
1 1 1 1
1 1 1 1
1 1 1 1
0.999662 1.00026 1 0.999402
1.0006 1.00155 0.999567 0.999488
0.997945 1.00131 0.997081 0.999554
0.999251 1.00001 1 0.999245
0.999468 1 1 0.999468
0.999665 1 1 0.999665
0.999369 1 1 0.999369
0.999464 1 1 0.999464
0.999403 1.00027 1 0.999132
0.999261 1.00011 1 0.999156
0.999374 1 1 0.999374
0.999591 1.00044 1 0.999156
0.999434 1.00039 1 0.999041
1.00195 1.00298 0.99979 0.999183
0.99949 1.00001 1 0.999479
0.999681 1.00014 1 0.999542
0.999544 1 1 0.999544
1.00057 1.0013 1 0.99927
1.00031 1.00088 1 0.999424
0.999549 1.00017 1 0.999382
0.999355 1 1 0.999355
0.999302 1 1 0.999302
0.999287 1 1 0.999287
0.999305 1 1 0.999305
0.999321 1 1 0.999321
0.99931 1 1 0.99931
0.999337 1 1 0.999337
0.999375 1 1 0.999375
0.999389 1 1 0.999389
0.999453 1 1 0.999453
0.999453 1 1 0.999453
0.999509 1 1 0.999509
0.99966 1 1 0.99966
0.999553 1 1 0.999553
0.999703 1 1 0.999703
0.999951 1 1 0.999951
0.999736 1 1 0.999736
0.999959 1 1 0.999959
1 1 1 1
1 1 1 1
0.999968 1 1 0.999968
1 1 1 1
0.999271 1 1 0.999271
0.999444 1 1 0.999444
0.999429 1 1 0.999429
0.999565 1 1 0.999565
0.999454 1 1 0.999454
0.999499 1 1 0.999499
0.999622 1 1 0.999622
0.999785 1 1 0.999785
0.999661 1 1 0.999661
0.999813 1 1 0.999813
0.999987 1 1 0.999987
0.999833 1 1 0.999833
0.999997 1 1 0.999997
1 1 1 1
1 1 1 1
1 1 1 1
1 1 1 1
0.999564 1.00025 1 0.999311
0.999577 1.00018 1 0.999401
1.0014 1.00211 0.999796 0.999498
0.999275 1.0001 1 0.999174
0.999253 1.00001 1 0.999247
0.999503 1 1 0.999503
0.999384 1 1 0.999384
0.999406 1.00027 1 0.999132
0.999342 1.0002 1 0.999138
0.999571 1.00042 1 0.999149
0.999472 1.00007 1 0.999401
0.999533 1.00008 1 0.999456
0.999585 1.00005 1 0.999531
0.999338 1 1 0.999338
0.999683 1.0003 1 0.999382
0.999354 1 1 0.999354
0.999336 1 1 0.999336
0.999283 1 1 0.999283
0.999306 1 1 0.999306
0.999323 1 1 0.999323
0.999308 1 1 0.999308
0.999336 1 1 0.999336
0.999409 1 1 0.999409
0.999388 1 1 0.999388
0.999453 1 1 0.999453
0.999611 1 1 0.999611
0.999508 1 1 0.999508
0.999659 1 1 0.999659
0.999941 1 1 0.999941
0.999702 1 1 0.999702
0.999948 1 1 0.999948
1 1 1 1
0.999956 1 1 0.999956
1 1 1 1
1 1 1 1
0.999204 1 1 0.999204
0.999337 1 1 0.999337
0.999289 1 1 0.999289
0.999525 1 1 0.999525
0.999442 1 1 0.999442
0.999479 1 1 0.999479
0.999732 1 1 0.999732
0.999565 1 1 0.999565
0.999453 1 1 0.999453
0.999623 1 1 0.999623
0.999785 1 1 0.999785
0.999974 1 1 0.999974
0.999813 1 1 0.999813
0.999989 1 1 0.999989
1 1 1 1
0.999998 1 1 0.999998
1 1 1 1
1 1 1 1
0.999464 1.00018 1 0.999282
0.999697 1.0004 1 0.999293
0.999621 1.00022 1 0.999399
0.999239 1.00007 1 0.999168
0.99925 1 1 0.999248
0.999416 1.00028 1 0.999133
0.999406 1.00007 1 0.999334
0.999462 1.00006 1 0.999402
0.999672 1.00024 1 0.999433
0.999338 1 1 0.999338
0.999319 1 1 0.999319
0.999352 1 1 0.999352
0.999336 1 1 0.999336
0.99934 1 1 0.99934
0.999306 1 1 0.999306
0.999325 1 1 0.999325
0.999388 1 1 0.999388
0.999336 1 1 0.999336
0.999408 1 1 0.999408
0.999575 1 1 0.999575
0.999452 1 1 0.999452
0.99961 1 1 0.99961
0.999929 1 1 0.999929
0.999658 1 1 0.999658
0.999938 1 1 0.999938
1 1 1 1
0.999945 1 1 0.999945
1 1 1 1
1 1 1 1
0.999282 1 1 0.999282
0.999257 1 1 0.999257
0.999199 1 1 0.999199
0.99944 1 1 0.99944
0.999346 1 1 0.999346
0.999308 1 1 0.999308
0.999671 1 1 0.999671
0.999508 1 1 0.999508
0.99944 1 1 0.99944
0.999954 1 1 0.999954
0.999733 1 1 0.999733
0.999564 1 1 0.999564
0.999786 1 1 0.999786
0.999978 1 1 0.999978
1 1 1 1
0.999992 1 1 0.999992
1 1 1 1
1 1 1 1
0.999294 1.00001 1 0.99928
0.999432 1.00016 1 0.999277
0.999686 1.00041 1 0.999275
0.999207 1.00005 1 0.999162
0.999409 1.00012 1 0.999294
0.999469 1.00013 1 0.999339
0.999454 1.00005 1 0.999403
0.999337 1 1 0.999337
0.999319 1 1 0.999319
0.999337 1 1 0.999337
0.999337 1 1 0.999337
0.999344 1 1 0.999344
0.999383 1 1 0.999383
0.999326 1 1 0.999326
0.999389 1 1 0.999389
0.999556 1 1 0.999556
0.999408 1 1 0.999408
0.999574 1 1 0.999574
0.999919 1 1 0.999919
0.999609 1 1 0.999609
0.999926 1 1 0.999926
1 1 1 1
0.999935 1 1 0.999935
1 1 1 1
1 1 1 1
0.999299 1 1 0.999299
0.999294 1 1 0.999294
0.999283 1 1 0.999283
0.99935 1 1 0.99935
0.999269 1 1 0.999269
0.999193 1 1 0.999193
0.999584 1 1 0.999584
0.99944 1 1 0.99944
0.999355 1 1 0.999355
0.999932 1 1 0.999932
0.999656 1 1 0.999656
0.999491 1 1 0.999491
1 1 1 1
0.99996 1 1 0.99996
0.999734 1 1 0.999734
0.999982 1 1 0.999982
1 1 1 1
1 1 1 1
0.999382 1.00009 1 0.999291
0.999367 1.00008 1 0.999289
0.999391 1.00012 1 0.999272
0.999329 1.00003 1 0.999296
0.999363 1.00007 1 0.999291
0.999518 1.00017 1 0.999344
0.999321 1 1 0.999319
0.999338 1 1 0.999338
0.999396 1 1 0.999396
0.999347 1 1 0.999347
0.999396 1 1 0.999396
0.999523 1 1 0.999523
0.99939 1 1 0.99939
0.999556 1 1 0.999556
0.99991 1 1 0.99991
0.999573 1 1 0.999573
0.999917 1 1 0.999917
1 1 1 1
0.999923 1 1 0.999923
1 1 1 1
1 1 1 1
0.999308 1 1 0.999308
0.999326 1 1 0.999326
0.9993 1 1 0.9993
0.999365 1 1 0.999365
0.999298 1 1 0.999298
0.999285 1 1 0.999285
0.999528 1 1 0.999528
0.999369 1 1 0.999369
0.999281 1 1 0.999281
0.999916 1 1 0.999916
0.999577 1 1 0.999577
0.999439 1 1 0.999439
1 1 1 1
0.999938 1 1 0.999938
0.999641 1 1 0.999641
1 1 1 1
0.999966 1 1 0.999966
1 1 1 1
0.999323 1.00002 1 0.999304
0.999366 1.00007 1 0.999291
0.99946 1.00016 1 0.999297
0.999358 1 1 0.999358
0.999307 1.00001 1 0.999298
0.999322 1.00003 1 0.999287
0.999338 1 1 0.999338
0.999397 1 1 0.999397
0.999505 1 1 0.999505
0.99941 1 1 0.99941
0.999535 1 1 0.999535
0.999894 1 1 0.999894
0.999557 1 1 0.999557
0.999908 1 1 0.999908
1 1 1 1
0.999916 1 1 0.999916
1 1 1 1
0.999999 1 1 0.999999
0.999333 1 1 0.999333
0.999305 1 1 0.999305
0.999375 1 1 0.999375
0.999326 1 1 0.999326
0.9993 1 1 0.9993
0.999533 1 1 0.999533
0.999364 1 1 0.999364
0.999303 1 1 0.999303
0.999905 1 1 0.999905
0.999537 1 1 0.999537
0.999388 1 1 0.999388
1 1 1 1
0.999919 1 1 0.999919
0.999569 1 1 0.999569
1 1 1 1
0.999944 1 1 0.999944
1 1 1 1
0.999368 1 1 0.999368
0.999323 1.00002 1 0.999307
0.999343 1.00005 1 0.999292
0.99948 1 1 0.99948
0.999358 1 1 0.999358
0.9993 1 1 0.9993
0.999397 1 1 0.999397
0.999508 1 1 0.999508
0.999873 1 1 0.999873
0.999546 1 1 0.999546
0.999892 1 1 0.999892
1 1 1 1
0.999907 1 1 0.999907
1 1 1 1
1 1 1 1
0.999373 1 1 0.999373
0.999328 1 1 0.999328
0.999302 1 1 0.999302
0.999529 1 1 0.999529
0.999375 1 1 0.999375
0.999326 1 1 0.999326
0.999898 1 1 0.999898
0.999532 1 1 0.999532
0.999362 1 1 0.999362
1 1 1 1
0.999907 1 1 0.999907
0.999546 1 1 0.999546
1 1 1 1
0.999923 1 1 0.999923
1 1 1 1
0.999504 1 1 0.999504
0.999355 1 1 0.999355
0.999309 1 1 0.999309
0.999859 1 1 0.999859
0.999483 1 1 0.999483
0.999358 1 1 0.999358
0.999512 1 1 0.999512
0.999872 1 1 0.999872
1 1 1 1
0.999891 1 1 0.999891
1 1 1 1
1 1 1 1
0.999519 1 1 0.999519
0.999369 1 1 0.999369
0.999324 1 1 0.999324
0.999894 1 1 0.999894
0.999528 1 1 0.999528
0.999374 1 1 0.999374
1 1 1 1
0.999898 1 1 0.999898
0.999531 1 1 0.999531
1 1 1 1
0.999909 1 1 0.999909
1 1 1 1
0.999855 1 1 0.999855
0.999494 1 1 0.999494
0.999343 1 1 0.999343
1 1 1 1
0.999858 1 1 0.999858
0.999485 1 1 0.999485
0.99987 1 1 0.99987
1 1 1 1
1 1 1 1
0.999878 1 1 0.999878
0.999519 1 1 0.999519
0.999364 1 1 0.999364
1 1 1 1
0.999889 1 1 0.999889
0.999527 1 1 0.999527
1 1 1 1
0.999898 1 1 0.999898
1 1 1 1
0.999978 1 1 0.999978
0.999864 1 1 0.999864
0.999484 1 1 0.999484
1 1 1 1
0.999857 1 1 0.999857
1 1 1 1
0.999985 1 1 0.999985
0.999877 1 1 0.999877
0.999519 1 1 0.999519
0.999995 1 1 0.999995
0.999888 1 1 0.999888
1 1 1 1
1 1 1 1
0.999859 1 1 0.999859
1 1 1 1
0.999991 1 1 0.999991
0.999874 1 1 0.999874
1 1 1 1
1 1 1 1
1 1 1 1

VECTORS lamdaE float
0.998941 1.00003 0.99691
0.999152 0.999055 0.998786
0.998875 1.00012 0.996958
0.999216 1.00009 0.996526
0.998914 1.00023 0.996818
0.999064 0.999605 0.997062
0.999578 1.00064 0.994949
0.999184 0.998937 0.998819
0.998818 1.00025 0.998675
0.998921 0.999488 0.998805
0.999331 0.998567 0.997538
0.999603 1.0003 0.994991
0.999519 0.999973 0.99617
0.999163 0.999947 0.996641
0.998805 1.00022 0.997013
0.999131 1.00013 0.996598
0.999012 0.999648 0.997113
0.998845 1.00031 0.996873
0.999627 1.00061 0.994947
0.999469 0.999985 0.998325
0.999351 0.999976 0.996436
0.999024 1.00022 0.996685
1.00033 1.00012 0.994166
0.99976 1.00055 0.994736
0.999249 0.998996 0.997308
0.99945 1.00058 0.995216
1.00074 1.00115 0.992322
0.999217 0.99881 0.998853
0.998865 1.00023 0.997726
0.998981 0.999582 0.997953
0.999317 0.998439 0.998919
0.99955 1.00037 0.994992
0.999057 1.00032 0.99667
0.998935 1.00022 0.996959
0.999944 1.00051 0.995015
0.999396 0.99797 0.999095
0.999642 1.00043 0.995518
0.999569 1 0.995323
1.00018 1.00158 0.992657
0.999525 0.997515 0.999181
0.999494 1 0.998294
0.999233 0.999991 0.997539
0.999642 0.999997 0.998178
0.999245 0.999913 0.996527
1.00076 0.999996 0.992996
0.999069 1.00015 0.9986
1.0005 0.999997 0.994535
0.999046 1.00017 0.99667
0.998766 1.00044 0.996927
0.998961 0.99968 0.997173
0.999677 1.00056 0.994943
0.999448 0.999964 0.997307
0.999271 0.999977 0.996507
0.999216 0.998971 0.997361
0.998943 1.00029 0.996754
1.00036 1.00011 0.994154
0.999492 1.00055 0.995218
0.999811 1.00051 0.994735
1.0008 1.00117 0.992259
0.999559 0.999998 0.998247
0.99941 0.999951 0.996357
1.00071 0.999964 0.994127
1.00051 0.999937 0.994031
1.00003 1.00036 0.994457
1.0022 1.00009 0.990732
1.00116 1.00074 0.99171
0.999466 0.998328 0.997595
0.999384 1.00028 0.995633
1.0003 1.00149 0.992769
1.00142 1.00122 0.990645
0.99889 1.00011 0.998623
0.999352 0.998306 0.99898
0.999035 0.999349 0.998763
0.999495 1.00045 0.994993
0.999062 1.00023 0.998537
0.998899 0.99998 0.998664
0.99984 1.00058 0.994173
0.999417 0.99802 0.998444
0.999568 1.00057 0.994748
0.999545 0.999958 0.995731
1.00017 1.00157 0.992645
0.999477 0.997749 0.999117
0.999691 0.998701 0.996418
1.00017 1.00032 0.993873
0.99973 1.00064 0.994421
1.00128 1.00077 0.991338
0.999567 0.999476 0.99645
1.00041 1.00133 0.992468
1.00002 1.00169 0.992845
1.00061 1.00182 0.991541
0.999581 0.997247 0.999238
0.999525 0.997471 0.9992
0.999243 1.00005 0.998485
0.999432 1.00001 0.998345
0.999604 1 0.998206
0.999317 0.99998 0.997437
1.00074 0.999998 0.993568
0.999107 1.0001 0.997601
1.00046 0.999974 0.994099
0.999662 0.999995 0.998168
1.00092 0.999962 0.992694
1.00062 0.999987 0.994338
1.0027 0.999768 0.989591
1.00035 1.0001 0.994678
1.00232 0.999964 0.990128
0.999518 0.999938 0.996198
0.999189 0.99997 0.996578
0.999178 0.998918 0.997418
0.998861 1.00039 0.99682
1.00039 1.0001 0.994144
0.999867 1.00044 0.994735
0.999535 1.00052 0.995215
1.00087 1.00119 0.992196
0.999605 0.999995 0.998212
0.999331 0.99993 0.996437
1.00075 0.999934 0.993321
1.00054 0.999932 0.994007
0.999411 0.99828 0.998282
0.999448 1.00024 0.995744
1.00007 1.00033 0.994456
1.00219 1.00009 0.990622
1.00037 1.00153 0.992699
1.0012 1.00076 0.991778
1.00142 1.00121 0.99065
1.00088 0.999976 0.992741
1.00057 0.999897 0.993953
1.00271 0.999711 0.989874
1.00242 0.999788 0.990348
1.00172 1.00038 0.991066
1.00313 0.999892 0.98896
0.999499 0.997867 0.999073
1.00186 1.00076 0.990215
0.999557 0.999795 0.995558
0.99997 1.00161 0.992915
1.00097 1.00177 0.991042
1.00185 1.00111 0.98994
0.9997 0.998947 0.996097
1.00008 1.00059 0.99381
0.998997 1.0002 0.998556
0.998893 0.999813 0.9987
0.9998 1.00061 0.994184
0.999434 0.997949 0.999087
0.999511 0.99999 0.99541
0.999494 1.00068 0.994738
1.00017 1.00157 0.992632
0.999479 0.997722 0.999138
0.999697 0.998654 0.996436
1.00013 1.00029 0.994364
0.999657 1.00064 0.994877
1.00127 1.00076 0.991355
0.999581 0.999438 0.995879
1.0004 1.00132 0.992473
1.00001 1.0017 0.992837
1.00061 1.00181 0.991509
0.999626 0.999071 0.996158
0.999764 0.99833 0.996659
1.00002 1.00051 0.993968
1.00176 1.0004 0.990756
1.00076 1.00112 0.992002
1.002 1.00085 0.9899
1.00003 1.00134 0.993161
1.00091 1.00145 0.991326
1.00036 1.00229 0.991665
1.00075 1.00209 0.991079
0.999653 0.996984 0.999281
0.999587 0.9972 0.999252
0.999527 0.997424 0.999218
0.999749 0.998606 0.996368
0.99954 0.997631 0.99914
0.999129 1.00014 0.998518
0.99933 1.00001 0.998432
1.00044 0.999941 0.993632
1.0007 0.999995 0.993086
0.999561 1.00001 0.99824
0.999664 0.999997 0.998162
1.0009 0.999971 0.992709
1.00057 0.999984 0.993904
1.00269 0.999772 0.989593
1.00029 1.00007 0.993777
1.00232 0.999977 0.990128
1.00099 0.999951 0.992547
1.00298 0.999687 0.989126
1.00248 0.999843 0.989937
1.00363 0.999473 0.988143
1.00211 1.00013 0.990364
1.00322 0.99967 0.988736
0.999642 0.999991 0.99818
0.99925 0.999895 0.99652
1.00077 0.999908 0.992558
1.00057 0.999936 0.993983
0.999334 0.998214 0.998999
0.999509 1.00022 0.995854
1.00011 1.00028 0.994456
1.00219 1.00009 0.990513
1.00124 1.00081 0.991845
1.00044 1.00157 0.99263
1.00142 1.00121 0.990655
1.0009 0.999963 0.992729
1.0006 0.999888 0.993927
1.0027 0.999699 0.989671
1.00243 0.999835 0.990424
0.999479 0.997903 0.999049
0.999554 0.99978 0.995874
1.00004 1.00163 0.993016
1.00171 1.00041 0.991078
1.00312 0.999839 0.988828
1.00092 1.00177 0.991028
1.00192 1.00076 0.99025
1.00184 1.0011 0.98995
0.999682 0.999008 0.996086
1.00008 1.00058 0.993807
1.00299 0.999658 0.989121
1.00251 0.999718 0.990251
1.00364 0.999472 0.988385
1.00341 0.999409 0.988491
1.00245 1.00032 0.989633
1.00363 0.999435 0.988341
0.999628 0.999333 0.995819
1.00239 1.00052 0.989472
0.999973 1.00147 0.99307
1.00043 1.00202 0.991555
1.00139 1.0019 0.990346
1.00216 1.00088 0.989675
1.00008 1.00103 0.993375
1.00009 1.00008 0.994303
1.00025 1.00168 0.992401
1.00008 1.00032 0.993937
0.999479 0.997689 0.999158
0.999701 0.998614 0.996455
0.99957 1.00076 0.99449
1.00126 1.00075 0.991372
0.999578 0.999393 0.995855
0.99999 1.00169 0.99283
1.00039 1.00131 0.992478
1.00062 1.00181 0.991477
0.999636 0.999017 0.996171
0.99976 0.998309 0.996673
1.00003 1.00052 0.993973
1.00176 1.0004 0.990766
1.00074 1.0011 0.99202
1.00199 1.00085 0.989903
1 1.00139 0.99316
1.00092 1.00145 0.99137
1.00036 1.00228 0.991661
1.00073 1.0021 0.991032
0.999831 0.998028 0.996834
1.00006 1.0009 0.993523
1.00003 1.00004 0.994441
1.0002 1.00155 0.992656
1.00258 1.00034 0.989285
1.00136 1.00126 0.990743
1.00241 1.00077 0.989175
1.00027 1.00214 0.992005
1.00116 1.00153 0.990872
1.00038 1.00297 0.990927
1.00087 1.00207 0.990668
1.00014 0.999074 0.995227
0.999936 0.997621 0.997036
0.99973 0.996759 0.999311
0.999664 0.996947 0.999291
0.999595 0.997154 0.999267
0.9998 0.998289 0.9966
0.999579 0.997385 0.9992
0.999744 0.998649 0.996348
0.999538 0.99766 0.99912
1.0003 1.00005 0.993781
1.00055 0.999957 0.993413
1.0023 0.999989 0.990129
1.00268 0.999778 0.989596
1.00089 0.99998 0.992722
0.99966 1 0.998164
1.00099 0.999955 0.992545
1.00297 0.999687 0.989131
1.00247 0.999857 0.989935
1.00363 0.999481 0.988144
1.0021 1.00015 0.990368
1.00322 0.999667 0.988735
1.0031 0.999633 0.988934
1.00394 0.999382 0.987624
1.00341 0.999519 0.988518
1.00402 0.999107 0.987768
1.00296 0.999939 0.988948
1.00371 0.999176 0.988294
1.00092 0.999952 0.992714
1.00064 0.999892 0.9939
1.00268 0.999679 0.989468
1.00245 0.999876 0.990501
0.999463 0.997946 0.999025
0.999565 0.999778 0.996177
1.00011 1.00163 0.993116
1.00169 1.00045 0.991089
1.0031 0.999784 0.988697
1.00198 1.00077 0.990286
1.00086 1.00177 0.991014
1.00184 1.0011 0.98996
0.999666 0.999068 0.996074
1.00008 1.00056 0.993805
1.00297 0.999644 0.98906
1.00252 0.999719 0.990246
1.00365 0.999443 0.988313
1.00341 0.999478 0.988625
0.999619 0.99939 0.995817
1 1.00148 0.993073
1.00043 1.00199 0.991643
1.0025 1.00035 0.989617
1.00363 0.999358 0.988308
1.00134 1.00192 0.990249
1.0024 1.00051 0.989471
1.00211 1.00087 0.989673
1.0001 1.00098 0.993382
1.00026 1.00164 0.992409
1.00008 1.00009 0.994293
1.0039 0.999423 0.987902
1.00349 0.9994 0.988612
1.0041 0.999212 0.98764
1.00396 0.998978 0.98803
1.00294 0.999908 0.988875
1.00391 0.998801 0.988342
1.00003 1.00132 0.993165
1.00264 1.00021 0.989277
1.00032 1.00188 0.992086
1.00064 1.00242 0.990776
1.00161 1.00195 0.989715
1.00232 1.00062 0.989795
1.00012 0.999676 0.99464
1.00032 1.00169 0.992286
1.00024 1.00132 0.99272
1.00025 1.00223 0.991935
1.00175 1.0004 0.990776
0.999755 0.998287 0.996688
0.999649 0.998962 0.996184
1.00003 1.00052 0.993976
1.00072 1.00109 0.992039
1.00198 1.00086 0.989906
0.999973 1.00143 0.993159
1.00035 1.00228 0.991656
1.00094 1.00146 0.991415
1.00071 1.00211 0.990985
0.999825 0.99802 0.996842
1.00005 1.00094 0.993521
1.00003 1.00003 0.99445
1.0002 1.00157 0.992645
1.00258 1.00035 0.989278
1.00134 1.00126 0.990756
1.00241 1.00077 0.989179
1.00024 1.00215 0.992012
1.00117 1.00155 0.990919
1.0004 1.00298 0.9909
1.00084 1.00206 0.990818
0.999888 0.997803 0.996952
1.00006 0.999651 0.994777
1.00026 1.00178 0.992342
1.00019 1.00114 0.993075
1.00018 1.00233 0.991952
1.00305 1.0001 0.988622
1.00166 1.00128 0.99012
1.00261 1.00065 0.988936
1.00023 1.00303 0.991198
1.00129 1.00154 0.990587
1.00051 1.00324 0.990077
1.00011 0.999229 0.995115
1.00017 1.00009 0.99417
1.00016 0.998953 0.995311
1.00013 0.999093 0.995223
0.999967 0.997421 0.997556
0.999927 0.9976 0.997265
0.999842 0.996582 0.998455
0.999741 0.996727 0.999319
0.999675 0.996909 0.999301
0.999858 0.998026 0.996755
0.999638 0.997132 0.999247
0.999804 0.998309 0.996584
0.999579 0.997424 0.999181
0.999738 0.998693 0.996329
0.999536 0.997689 0.9991
1.00209 1.00016 0.990372
1.00247 0.999866 0.989933
1.00322 0.999671 0.988734
1.00363 0.999487 0.988146
1.00297 0.999687 0.989136
1.00099 0.999959 0.992544
1.0031 0.999631 0.988932
1.00394 0.999385 0.98763
1.00341 0.999531 0.98852
1.00405 0.999094 0.987714
1.00297 0.99994 0.988941
1.00371 0.999185 0.988296
1.00409 0.99932 0.987406
1.00431 0.999078 0.987194
1.0039 0.999032 0.988067
1.00425 0.998843 0.987673
1.00343 0.999554 0.988432
1.00396 0.998514 0.988476
1.00295 0.999633 0.988999
1.00253 0.999711 0.99024
1.00367 0.999419 0.988241
1.00341 0.999548 0.988758
0.999611 0.999436 0.995814
1.00002 1.00147 0.993078
1.00044 1.00196 0.991731
1.00255 1.00039 0.989601
1.00362 0.99928 0.988276
1.0024 1.00051 0.989469
1.00128 1.00193 0.990153
1.00206 1.00085 0.989672
1.00011 1.00093 0.993389
1.00027 1.00161 0.992416
1.00008 1.0001 0.994283
1.00393 0.999397 0.987768
1.0035 0.999366 0.988612
1.0041 0.999169 0.987596
1.00395 0.999014 0.98806
1.00006 1.00127 0.993174
1.00036 1.00187 0.992071
1.00061 1.00242 0.990885
1.00296 0.999989 0.988928
1.00392 0.998681 0.988385
1.00154 1.00201 0.989647
1.00265 1.0002 0.989281
1.00228 1.00055 0.989814
1.00032 1.0017 0.992299
1.00026 1.00225 0.99188
1.00011 0.999695 0.994633
1.00025 1.00125 0.992789
1.00433 0.999141 0.987141
1.00401 0.999053 0.987935
1.00432 0.998937 0.987409
1.00423 0.998557 0.987902
1.00329 0.999392 0.988804
1.00418 0.998188 0.988428
1.00031 1.00174 0.992247
1.00274 0.99962 0.989654
1.00033 1.00234 0.991466
1.00088 1.00282 0.990079
1.00175 1.00202 0.989231
1.00243 1.00052 0.989723
1.00013 0.999484 0.994813
1.00025 1.00081 0.993191
1.00033 1.00209 0.991883
1.0002 1.0021 0.992133
1.00026 1.00239 0.991734
0.999818 0.998011 0.99685
1.00258 1.00036 0.989271
1.00004 1.00002 0.99446
1.00003 1.00099 0.993519
1.00019 1.00159 0.992635
1.00132 1.00127 0.990769
1.00241 1.00076 0.989182
1.00022 1.00216 0.992019
1.00041 1.00299 0.990872
1.00119 1.00156 0.990966
1.00081 1.00205 0.990968
0.999882 0.997795 0.996957
1.00006 0.999643 0.994785
1.00025 1.00179 0.992338
1.00018 1.00115 0.993074
1.00017 1.00235 0.991908
1.00305 1.00011 0.98861
1.00166 1.00128 0.990126
1.0026 1.00066 0.988914
1.00021 1.00303 0.991212
1.0013 1.00156 0.990614
1.00058 1.00322 0.990146
1.00009 0.999409 0.994977
1.00019 1.0007 0.993502
1.00026 1.00255 0.991607
1.00014 1.00206 0.992277
1.00012 1.00292 0.991496
1.00332 0.999722 0.988445
1.00184 1.00117 0.989863
1.00247 1.00015 0.989517
1.00015 1.00389 0.990407
1.00116 1.00271 0.989684
1.00011 0.999235 0.995115
1.00016 1.00023 0.99393
1.00017 1.00011 0.994109
1.00014 1.00089 0.99357
1.00018 1.00005 0.994192
1.00018 0.998868 0.995351
1.00016 0.998959 0.995309
1.00002 0.997246 0.997626
1.00012 0.99911 0.99522
0.999973 0.997409 0.997567
0.999913 0.996385 0.998511
0.999919 0.997586 0.997491
0.999822 0.996552 0.9989
0.999752 0.996695 0.999327
0.999906 0.997828 0.996861
0.999862 0.998038 0.996747
0.99971 0.996911 0.999279
0.999633 0.997174 0.999233
0.999809 0.998329 0.996569
0.999579 0.997462 0.999163
1.00298 0.999941 0.988934
1.00341 0.999536 0.988522
1.00371 0.999192 0.988298
1.00407 0.999082 0.98766
1.00394 0.999386 0.987636
1.00311 0.99963 0.988929
1.00409 0.99932 0.987406
1.00434 0.999099 0.987104
1.0039 0.999039 0.988075
1.00425 0.998787 0.987681
1.00344 0.99956 0.988417
1.00399 0.998482 0.988446
1.00452 0.999066 0.986795
1.00456 0.998882 0.986997
1.00416 0.99854 0.988035
1.00434 0.998603 0.987696
1.00374 0.998879 0.988453
1.00421 0.998205 0.988421
1.00395 0.999369 0.987635
1.00351 0.999337 0.988613
1.0041 0.999127 0.987553
1.00395 0.999049 0.988089
1.00008 1.00121 0.993183
1.00039 1.00186 0.992057
1.00058 1.00242 0.990995
1.00297 1.00007 0.988981
1.00393 0.99856 0.988428
1.00265 1.00019 0.989286
1.00146 1.00206 0.989579
1.00223 1.00046 0.989834
1.00032 1.00169 0.992313
1.00027 1.00225 0.991825
1.0001 0.999712 0.994626
1.00025 1.00118 0.992859
1.00434 0.99914 0.987136
1.00401 0.999041 0.987957
1.00429 0.998903 0.987469
1.00424 0.998546 0.987906
1.00034 1.00173 0.992246
1.00033 1.00229 0.991554
1.00086 1.00287 0.990071
1.0033 0.999491 0.988775
1.00407 0.99807 0.988675
1.00174 1.00208 0.989189
1.00273 0.999635 0.989671
1.00238 1.00031 0.989823
1.00035 1.00208 0.991887
1.00027 1.00239 0.991725
1.0002 1.00211 0.992123
1.00013 0.99948 0.994737
1.00026 1.00076 0.993241
1.00459 0.998877 0.986893
1.00438 0.99868 0.987487
1.00447 0.998184 0.987773
1.00359 0.99854 0.989014
1.00033 1.00208 0.991876
1.00301 0.999152 0.989879
1.00024 1.00275 0.991019
1.00113 1.00334 0.989092
1.00208 1.00201 0.988729
1.00015 0.999335 0.994789
1.00025 1.00052 0.993653
1.00021 1.0016 0.992643
1.00033 1.00215 0.991825
1.00019 1.00263 0.991681
1.00032 1.00234 0.991616
0.999877 0.997786 0.996962
1.00007 0.999636 0.994792
1.00305 1.00012 0.988598
1.00018 1.00117 0.993074
1.00024 1.00178 0.992335
1.00017 1.00238 0.991864
1.00166 1.00128 0.990131
1.00259 1.00067 0.988892
1.00019 1.00302 0.991225
1.00066 1.00321 0.990214
1.00132 1.00158 0.990641
1.00009 0.99941 0.994981
1.0002 1.00069 0.993507
1.00024 1.00254 0.991641
1.00014 1.00206 0.992272
1.00011 1.00295 0.991429
1.0033 0.999766 0.988444
1.00186 1.00116 0.989836
1.00253 1.00003 0.98956
1.00013 1.00388 0.990363
1.00115 1.00286 0.989558
1.00017 1.00042 0.993825
1.00017 1.00162 0.992585
1.00016 1.00336 0.991042
1.00011 1.0028 0.991539
1.00019 1.00321 0.991047
1.00359 0.998286 0.989402
1.00195 1.00162 0.989391
1.00261 0.999222 0.98964
1.00041 1.00429 0.989861
1.00098 1.00332 0.988673
1.0001 0.999241 0.995116
1.00017 1.00023 0.993978
1.00016 1.00101 0.993216
1.00017 1.00013 0.994049
1.00017 1.00006 0.994193
1.00014 1.00087 0.993484
1.0001 1.00146 0.993027
1.00012 1.00082 0.993479
1.00019 1 0.994222
1.00019 0.998851 0.995342
1.00018 0.998866 0.995352
1.00006 0.997134 0.997651
1.00015 0.998966 0.995307
1.00002 0.997241 0.997633
0.999965 0.996223 0.998559
0.999979 0.997394 0.997578
0.999905 0.996364 0.998509
0.9998 0.996516 0.99935
0.999953 0.997646 0.996956
0.999911 0.997836 0.996856
0.999776 0.996716 0.999304
0.999867 0.99805 0.996739
0.9997 0.996941 0.99927
0.999629 0.997211 0.999219
1.00345 0.999567 0.988403
1.0039 0.999049 0.988082
1.00401 0.998455 0.988416
1.00426 0.998729 0.98769
1.00438 0.999117 0.987014
1.00409 0.999322 0.987406
1.00455 0.999088 0.986757
1.00453 0.998908 0.987029
1.00417 0.998547 0.988001
1.00436 0.998507 0.987729
1.00375 0.998889 0.988462
1.00416 0.998142 0.988478
1.00482 0.998905 0.986445
1.0046 0.998543 0.987243
1.00437 0.99818 0.988001
1.00411 0.998218 0.98859
1.00434 0.999139 0.987131
1.00402 0.999026 0.987979
1.00426 0.998867 0.987529
1.00425 0.998539 0.987909
1.00036 1.00173 0.992245
1.00034 1.00224 0.991642
1.00083 1.00293 0.990064
1.0033 0.999587 0.988746
1.00396 0.997955 0.98892
1.00272 0.99965 0.989687
1.00172 1.00213 0.989147
1.00233 1.00011 0.989922
1.00037 1.00207 0.991891
1.00029 1.00237 0.991715
1.00019 1.00213 0.992113
1.00013 0.999478 0.994661
1.00027 1.00072 0.993292
1.00455 0.998854 0.986985
1.00439 0.998719 0.987477
1.00445 0.998192 0.987882
1.00037 1.00207 0.991865
1.00034 1.00271 0.991118
1.00108 1.00342 0.989072
1.00366 0.998585 0.98891
1.00205 1.00184 0.988899
1.0029 0.999107 0.989891
1.00015 0.999311 0.994808
1.00034 1.00216 0.991822
1.00031 1.00232 0.991672
1.00018 1.00268 0.991636
1.00021 1.00158 0.992678
1.00025 1.0005 0.99359
1.00466 0.998722 0.986996
1.00467 0.998325 0.987258
1.00438 0.9982 0.98773
1.00405 0.997674 0.989064
1.00033 1.00228 0.99169
1.00271 1.00056 0.988857
1.00043 1.00361 0.989952
1.00135 1.00383 0.988312
1.00016 0.99918 0.994931
1.00023 1.00032 0.993892
1.00021 1.00131 0.992967
1.00016 1.00235 0.991957
1.00036 1.00226 0.991687
1.00028 1.00262 0.991441
1.00008 0.999409 0.994985
1.0002 1.00069 0.993512
1.00329 0.999811 0.988442
1.00014 1.00205 0.992267
1.00021 1.00254 0.991675
1.00011 1.00299 0.991363
1.00189 1.00115 0.98981
1.0026 0.999903 0.989603
1.0001 1.00388 0.990319
1.00115 1.00301 0.989431
1.00018 1.0004 0.99383
1.00017 1.00163 0.992608
1.00012 1.00334 0.991117
1.0001 1.00282 0.99156
1.00015 1.00327 0.991037
1.00369 0.998287 0.989282
1.00201 1.00147 0.989418
1.00259 0.99923 0.989997
1.00034 1.00428 0.9898
1.00111 1.00363 0.988465
1.00017 1.00119 0.993014
1.00014 1.00242 0.991843
1.00011 1.00392 0.990525
1.00011 1.00341 0.990782
1.00452 0.997627 0.988579
1.00381 0.997114 0.989896
1.00205 1.00213 0.988471
1.00043 1.00471 0.988645
1.00017 1.00022 0.994026
1.00016 1.00102 0.993255
1.00013 1.00163 0.992738
1.00017 1.00006 0.994193
1.00014 1.00085 0.993397
1.00019 0.999995 0.994223
1.00011 1.00146 0.992954
1.00012 1.00081 0.993506
1.00009 1.00194 0.992539
1.00009 1.00135 0.992996
1.00012 1.00077 0.993524
1.00021 0.999975 0.994222
1.00019 0.998886 0.9953
1.00019 0.998849 0.995342
1.00008 0.997095 0.997636
1.00018 0.998861 0.995353
1.00006 0.997144 0.99765
1.00001 0.996135 0.998562
1.00002 0.997237 0.99764
0.999959 0.996202 0.998558
0.999896 0.996346 0.998505
0.999998 0.997462 0.997056
0.999957 0.997653 0.996952
0.999838 0.996532 0.999328
0.999916 0.997843 0.996851
0.999768 0.996744 0.999296
0.999692 0.996975 0.999261
1.00376 0.998899 0.988471
1.00418 0.998552 0.987966
1.00411 0.998074 0.988535
1.00437 0.998411 0.987763
1.0045 0.998933 0.987062
1.00456 0.999113 0.98672
1.00475 0.998907 0.98658
1.00459 0.998559 0.98724
1.00435 0.998189 0.988018
1.00409 0.99813 0.988567
1.00478 0.998699 0.986765
1.00467 0.997933 0.987686
1.00442 0.99802 0.988107
1.00451 0.998832 0.987077
1.00439 0.998758 0.987467
1.00442 0.998196 0.987991
1.0004 1.00207 0.991855
1.00043 1.00266 0.991217
1.00103 1.00353 0.989053
1.00372 0.998629 0.988806
1.0028 0.999062 0.989902
1.00204 1.00168 0.989069
1.00036 1.00216 0.991818
1.00028 1.0023 0.991729
1.00017 1.00273 0.991592
1.00015 0.999286 0.994826
1.00021 1.00156 0.992714
1.00025 1.00049 0.993528
1.00466 0.998736 0.986922
1.00466 0.998356 0.987252
1.00448 0.998175 0.987677
1.00036 1.00229 0.991665
1.00038 1.00356 0.990164
1.00139 1.00383 0.988309
1.00398 0.997785 0.989119
1.00272 1.00046 0.988846
1.00016 0.999163 0.995018
1.00023 1.00031 0.993895
1.00032 1.00225 0.991678
1.00029 1.00254 0.991525
1.00017 1.00234 0.991939
1.00021 1.00134 0.992915
1.00476 0.998455 0.987
1.00486 0.998117 0.987103
1.00474 0.997412 0.98794
1.00392 0.998026 0.989131
1.00013 1.00287 0.991356
1.00184 1.00341 0.987665
1.00067 1.00434 0.989231
1.00017 0.999008 0.995225
1.00017 0.999971 0.994277
1.0002 1.00024 0.993864
1.00019 1.00114 0.993122
1.00014 1.00202 0.992315
1.00009 1.00308 0.991312
1.00044 1.00182 0.991801
1.00023 1.00297 0.99165
1.00018 1.00039 0.993834
1.00017 1.00163 0.99263
1.00379 0.998285 0.989162
1.0001 1.00283 0.99158
1.00008 1.00332 0.991191
1.0001 1.00332 0.991028
1.00207 1.00132 0.989445
1.00257 0.999237 0.990353
1.00026 1.00428 0.989739
1.00123 1.00392 0.988256
1.00017 1.00123 0.99297
1.00013 1.00243 0.991869
1.00009 1.00392 0.990578
1.00015 1.00343 0.990836
1.00453 0.997664 0.988391
1.00371 0.99726 0.98997
1.00215 1.00199 0.988646
1.00057 1.00472 0.988544
1.00014 1.0019 0.992453
1.0045 0.9975 0.988349
1.00009 1.00322 0.991302
1.00028 1.00418 0.989924
1.00488 0.99644 0.988876
1.00341 0.999443 0.988488
1.00127 1.00444 0.988028
1.00016 1.00104 0.993294
1.00013 1.00163 0.992735
1.0001 1.00218 0.992239
1.00019 0.999993 0.994224
1.00012 1.00081 0.993533
1.00012 1.00146 0.992882
1.00021 0.999967 0.994223
1.00012 1.00078 0.99352
1.0001 1.00195 0.992477
1.00009 1.00136 0.993062
1.0001 1.00227 0.992166
1.00009 1.00182 0.992547
1.00009 1.0013 0.993149
1.00014 1.00072 0.993609
1.00021 0.999997 0.994188
1.00019 0.99893 0.995266
1.00019 0.998887 0.995301
1.0001 0.997103 0.997601
1.00019 0.998848 0.995342
1.00008 0.997116 0.997632
1.00003 0.996097 0.998547
1.00006 0.997155 0.99765
1.00001 0.996108 0.998565
0.999954 0.996182 0.998556
1.00018 0.998855 0.995352
1.00004 0.997289 0.997149
1 0.997472 0.997051
0.999893 0.99636 0.999354
0.99996 0.997662 0.996948
0.99983 0.996561 0.999321
0.999759 0.996771 0.999289
1.00408 0.998045 0.988545
1.00434 0.998196 0.988035
1.00458 0.998572 0.987237
1.00469 0.998911 0.986715
1.00477 0.9987 0.98675
1.00469 0.997908 0.987683
1.0044 0.998023 0.98809
1.00479 0.998181 0.987222
1.00467 0.997744 0.987946
1.00456 0.997172 0.988348
1.00468 0.998751 0.986848
1.00466 0.998394 0.987246
1.00457 0.998157 0.987623
1.00038 1.0023 0.99164
1.00033 1.00349 0.990376
1.00143 1.00377 0.988307
1.00391 0.997892 0.989175
1.00273 1.00034 0.988835
1.00028 1.00224 0.991669
1.00031 1.00247 0.991607
1.00017 1.00233 0.991921
1.00016 0.999144 0.995106
1.00022 1.00031 0.993897
1.0002 1.00137 0.992864
1.00475 0.998409 0.987121
1.00017 0.999002 0.995223
1.00017 0.999973 0.994234
1.00489 0.998152 0.987056
1.0047 0.997538 0.987848
1.0001 1.00281 0.991477
1.00067 1.00445 0.989054
1.00182 1.00331 0.987704
1.00384 0.99802 0.989182
1.0002 1.00024 0.993993
1.00018 1.00114 0.993123
1.00051 1.00189 0.991682
1.00016 1.00254 0.991949
1.00007 1.00315 0.991228
1.00015 1.002 0.992319
1.00481 0.997273 0.987985
1.00496 0.998148 0.986989
1.00491 0.996199 0.988715
1.00296 1.00048 0.988247
1.00021 1.00307 0.991235
1.00108 1.00489 0.988
1.00016 0.999869 0.994306
1.00018 1.00012 0.994112
1.00011 1.00083 0.993675
1.00016 1.00108 0.993135
1.00012 1.00185 0.992609
0.999997 1.00267 0.991793
0.999943 1.00393 0.990904
1.00017 1.00219 0.992011
1.00017 1.00127 0.992925
1.00013 1.00244 0.991894
1.00454 0.997708 0.988202
1.0036 0.997439 0.990043
1.00018 1.00346 0.99089
1.00007 1.0039 0.990631
1.00224 1.00187 0.988822
1.00071 1.0047 0.988443
1.00013 1.00192 0.992445
1.0045 0.997565 0.988321
1.00007 1.00317 0.991318
1.00027 1.00414 0.98988
1.00474 0.996325 0.988907
1.00349 0.99943 0.988555
1.00119 1.0045 0.988085
1.00007 1.00273 0.991761
1.00494 0.99684 0.988968
1.00036 1.00345 0.990772
1.00059 1.00468 0.989275
1.00469 0.99637 0.989026
1.00182 1.00282 0.987935
1.00165 0.999962 0.991293
1.00013 1.00164 0.992732
1.0001 1.00219 0.992235
1.00016 1.00246 0.99187
1.00021 0.999959 0.994224
1.00011 1.00079 0.993516
1.00009 1.00137 0.993128
1.00012 1.00196 0.992416
1.00021 0.999989 0.994186
1.00014 1.00071 0.993568
1.0001 1.00226 0.992148
1.0001 1.0013 0.993143
1.00009 1.00183 0.992604
1.00012 1.00218 0.992195
1.00005 1.00165 0.992881
1.00014 1.00121 0.993189
1.00018 1.00068 0.993491
1.00022 1.00002 0.994048
1.00017 1.00065 0.993701
1.00021 1.00002 0.994066
1.00018 0.998953 0.995251
1.00019 0.99893 0.995266
1.00012 0.997144 0.997148
1.00019 0.998888 0.995301
1.00011 0.997125 0.997385
1.00002 0.996051 0.999378
1.00008 0.997136 0.997627
1.00004 0.996064 0.99855
1 0.996081 0.998567
1.00019 0.998748 0.995454
1.00019 0.998854 0.995349
1.00008 0.997152 0.997222
1.00003 0.997297 0.997357
0.99994 0.996214 0.999375
1 0.997482 0.997047
0.999886 0.996387 0.999346
0.999822 0.996589 0.999313
1.00437 0.998024 0.988073
1.0047 0.997887 0.98768
1.00476 0.998705 0.986736
1.0048 0.998175 0.987204
1.00466 0.997727 0.987933
1.0046 0.997238 0.988426
1.00479 0.997199 0.988144
1.00273 1.00002 0.988778
1.00498 0.99634 0.988611
1.00017 0.999806 0.994469
1.00473 0.998361 0.987241
1.0049 0.998178 0.98701
1.00465 0.997691 0.987757
1.00008 1.00279 0.991597
1.00066 1.00452 0.988877
1.0018 1.00322 0.987743
1.00375 0.998059 0.989233
1.00058 1.00198 0.991563
1.00007 1.0021 0.992249
1.00005 1.00322 0.991143
1.00018 0.999 0.99522
1.00017 1.00196 0.992322
1.0002 1.00024 0.994122
1.00018 1.00113 0.993124
1.00016 0.999972 0.99419
1.00478 0.997332 0.988051
1.00016 0.999859 0.994361
1.00018 1.00013 0.994108
1.00011 1.00081 0.993577
1.00501 0.99795 0.987009
1.00486 0.996562 0.988605
1.00028 1.00272 0.991299
1.00089 1.00489 0.987914
1.00295 1.00052 0.988261
1.00016 1.00108 0.993204
1.00012 1.00184 0.992581
1.00014 1.00237 0.991837
0.999936 1.00381 0.990995
1.00002 1.00267 0.991859
1.00478 0.997114 0.988288
1.00508 0.997709 0.98721
1.00441 0.997656 0.98819
1.00166 1.00328 0.988265
1.00022 1.00361 0.990615
1.00011 1.00069 0.993586
1.00012 1.00098 0.993341
1.00013 1.00139 0.99308
1.00008 1.00171 0.992746
1.00007 1.00231 0.992242
0.999894 1.00321 0.991537
0.999813 1.00413 0.990745
1.00011 1.00194 0.992436
1.00005 1.00312 0.991334
1.0045 0.997625 0.988292
1.00462 0.996198 0.988938
1.00358 0.999391 0.988622
1.00025 1.00409 0.989836
1.00109 1.00456 0.988142
1.00006 1.00269 0.99184
1.00492 0.996436 0.988923
1.00024 1.00344 0.990827
1.0004 1.00467 0.989326
1.00467 0.996035 0.989277
1.00183 1.00308 0.987903
1.00168 0.999984 0.990415
1.00016 1.00297 0.991384
1.00511 0.994854 0.990457
1.00013 1.00375 0.990806
1.00029 1.00495 0.989043
1.00262 0.999864 0.988612
1.00023 0.995086 0.967274
0.997102 1.00143 0.981668
1.00129 1.00017 0.992219
0.997467 0.997479 0.963175
0.995281 0.997325 0.96431
1.0001 1.0022 0.992231
1.00013 1.00247 0.991914
1.00022 1.0023 0.991932
1.00021 0.999983 0.994184
1.00014 1.0007 0.993527
1.0001 1.00129 0.993137
1.00008 1.00185 0.992661
1.0001 1.00225 0.992131
1.00014 1.00121 0.993142
1.00022 1.00003 0.994099
1.00019 1.00067 0.993536
1.0001 1.00218 0.992211
1.00006 1.00163 0.992868
1.00007 1.00153 0.992914
1.00009 1.00186 0.992603
1.00019 1.00112 0.993063
1.00022 1.00068 0.993426
1.00021 1.00003 0.994037
1.00021 1.00064 0.993579
1.00017 1.00106 0.993289
1.00013 1.00071 0.993621
1.00017 1.00066 0.993636
1.00021 1.00001 0.994176
1.00021 1.00003 0.994062
1.00018 0.998961 0.995246
1.00018 0.998951 0.995251
1.00011 0.997183 0.997135
1.00019 0.99893 0.995266
1.00012 0.997146 0.997147
1.00002 0.996054 0.999373
1.00011 0.997148 0.99717
1.00004 0.996053 0.998954
1.00004 0.996033 0.998553
1.00019 0.998668 0.995529
1.00019 0.998742 0.995453
1.0001 0.997046 0.997286
1.00019 0.998852 0.995346
1.00007 0.997146 0.99743
0.999979 0.9961 0.999392
1.00004 0.997314 0.997134
0.999933 0.996258 0.999366
0.999879 0.996416 0.999338
1.00466 0.997708 0.987919
1.00481 0.998169 0.987185
1.00463 0.9973 0.988504
1.00254 0.998845 0.988935
1.00481 0.997169 0.988189
1.00498 0.996609 0.988601
1.0051 0.997098 0.987774
0.998752 0.999129 0.980293
1.00388 0.996879 0.989117
1.00016 0.999782 0.994497
1.00017 0.999801 0.994469
1.0001 1.00061 0.993795
1.00008 1.00059 0.993863
1.00475 0.997389 0.988117
1.00505 0.997825 0.987028
1.00485 0.996865 0.988494
1.00034 1.00237 0.991364
1.0007 1.00498 0.987829
1.00295 1.00056 0.988276
1.00012 1.00257 0.991662
0.999938 1.00369 0.991086
1.00004 1.00267 0.991925
1.00018 1.00013 0.994104
1.00011 1.00184 0.992553
1.00016 1.00108 0.993272
1.00017 0.99985 0.994417
1.00011 1.0008 0.993478
1.00469 0.99712 0.988352
1.00012 1.00069 0.993686
1.00012 1.00095 0.99339
1.00012 1.00135 0.993038
1.00508 0.997408 0.987302
1.00439 0.997738 0.988168
1.00027 1.00343 0.990613
1.00166 1.00354 0.98808
1.00008 1.00172 0.99276
1.00004 1.00231 0.992254
0.999831 1.00414 0.99073
0.999926 1.0034 0.991392
1.00506 0.996974 0.987927
1.0051 0.997386 0.987178
1.00267 1.00182 0.987783
1.00015 1.00419 0.990157
1.0001 1.0015 0.992866
1.00006 1.00159 0.992881
1.00003 1.0023 0.992248
0.999965 1.00389 0.990761
0.999342 0.99512 0.964769
1.00005 1.00264 0.99192
1.00013 1.00342 0.990882
1.0049 0.995977 0.988879
1.00465 0.995701 0.989529
1.00182 1.00335 0.98787
1.00021 1.00463 0.989376
1.00161 1.00003 0.989536
1.0001 1.003 0.991432
1.0051 0.994883 0.990364
1.00006 1.00371 0.990822
1.00026 1.005 0.989054
1.00282 0.999753 0.988622
1.00006 0.995573 0.965551
0.996903 1.00122 0.978514
1.00118 1.00013 0.992465
0.997041 0.997859 0.962922
0.995168 0.99741 0.961638
1.00011 1.00282 0.99168
0.998336 0.994954 0.963137
0.995966 0.998393 0.964841
1.00406 0.996288 0.990715
0.999917 1.00392 0.990884
1.00034 1.00423 0.989839
1.00099 0.999803 0.994127
0.998127 0.998805 0.966299
0.995816 1.00197 0.977386
0.99608 0.999527 0.964444
0.996958 0.996101 0.970241
1.0001 1.00247 0.991958
1.00019 1.00233 0.991935
1.0002 1.00211 0.992258
1.00021 1.00003 0.99415
1.00019 1.00066 0.99358
1.00014 1.00121 0.993095
1.00008 1.00161 0.992855
1.00009 1.00219 0.992227
1.00022 1.00004 0.994037
1.00006 1.0015 0.99296
1.00019 1.00114 0.993114
1.00023 1.00066 0.993488
1.0001 1.00187 0.992557
1.00017 1.00147 0.992766
1.00012 1.00182 0.992603
1.00022 1.00102 0.993182
1.00024 1.00067 0.993504
1.00022 1.00064 0.993577
1.00017 1.00105 0.993237
1.00022 1.00098 0.993204
1.00012 1.00115 0.993202
1.00021 1.00128 0.992985
1.00003 1.00181 0.992698
1.00012 1.00081 0.993542
1.00013 1.00071 0.993619
1.00019 1.00004 0.994187
1.00017 1.00066 0.993572
1.00021 1.00002 0.994137
1.00018 0.998974 0.995242
1.00021 1.00004 0.994057
1.00018 0.998958 0.995246
1.00008 0.99721 0.997566
1.00018 0.99895 0.99525
1.0001 0.997177 0.997351
1.00006 0.996074 0.998506
1.00012 0.997149 0.997146
1.00002 0.996057 0.999372
1.00006 0.996055 0.998529
1.00016 0.999801 0.994476
1.00019 0.998641 0.995563
1.00019 0.998666 0.995529
1.00011 0.996972 0.997337
1.00019 0.998737 0.995453
1.0001 0.99704 0.997287
1.00001 0.99601 0.999407
1.00006 0.997158 0.997626
0.999988 0.996141 0.998965
0.999964 0.996287 0.998513
1.00225 0.997758 0.989089
1.00484 0.997148 0.988234
1.00498 0.996859 0.988592
0.998307 0.998565 0.982348
1.00379 0.997472 0.989318
1.0051 0.996702 0.987842
1.00482 0.997373 0.989216
0.999312 0.997081 0.98354
0.998997 0.995715 0.964592
0.997514 0.997465 0.962003
0.995733 0.995793 0.963755
1.00007 1.00059 0.993764
1.00016 0.999785 0.994496
1.00017 0.999798 0.994468
1.0001 1.00061 0.99377
1.00004 1.00118 0.993334
1.00007 1.00107 0.993404
1.00009 1.00069 0.993772
1.00008 1.0006 0.993816
1.00461 0.997116 0.988416
1.00512 0.997001 0.987396
1.00436 0.997846 0.988145
1.00033 1.00323 0.99061
1.00166 1.00369 0.987895
0.999849 1.00414 0.990714
0.999958 1.0036 0.991247
1 1.00229 0.992266
1.00011 1.00092 0.993438
1.00009 1.00173 0.992774
1.00012 1.00069 0.993787
1.00012 1.00132 0.992996
1.005 0.997112 0.987784
1.00008 1.00149 0.992918
1.00007 1.00159 0.992856
1.00502 0.997415 0.987167
1.00232 1.00162 0.988095
1.00022 1.00421 0.990079
1.00006 1.00232 0.99217
0.999982 1.0039 0.990767
1.00457 0.999845 0.987066
1.0038 0.999209 0.988338
1.00005 1.00396 0.989999
0.999958 1.00361 0.991201
1.00004 1.0019 0.992531
1.00011 1.00221 0.992208
1.00011 1.0029 0.991555
0.998297 0.994796 0.962153
0.999864 0.995331 0.968628
1.00006 1.00303 0.991479
0.999999 1.00369 0.990838
1.00509 0.994895 0.99027
1.00306 0.99971 0.988633
1.00024 1.00506 0.989066
1.00008 0.995271 0.96378
0.997089 1.0013 0.979952
1.00103 1.0001 0.992715
0.99697 0.997466 0.963504
0.995045 0.99757 0.958961
1.0001 1.00278 0.991676
0.998478 0.99499 0.962208
0.995731 0.998757 0.963943
1.00422 0.996547 0.990636
0.999817 1.00407 0.990914
1.00018 1.0041 0.989905
1.00099 0.998709 0.994477
0.998053 0.998849 0.964129
0.995912 1.00327 0.980186
0.995985 0.99973 0.963148
0.996929 0.996178 0.969081
1.0002 1.00246 0.991869
0.996023 0.998557 0.968291
1.00021 0.997418 0.977665
1.00158 0.998945 0.99287
0.999588 1.00405 0.991891
0.9998 1.00256 0.99519
0.996938 1.00224 0.984029
0.995745 1.00147 0.964076
0.995585 0.999656 0.964595
1.00061 0.99613 0.972666
1.00016 1.00235 0.991938
1.0002 1.00211 0.992187
0.999932 1.00194 0.992583
1.00022 1.00005 0.994036
1.00023 1.00064 0.993551
1.00019 1.00116 0.993165
1.00005 1.00147 0.993006
1.0001 1.00189 0.992511
1.00023 1.00067 0.993504
1.00015 1.0015 0.992816
1.00022 1.001 0.993175
1.00008 1.00183 0.992638
1.00017 1.00152 0.992962
1.00024 1.00126 0.992885
1.00024 1.00102 0.993144
1.00022 1.00063 0.993574
1.00017 1.00104 0.993186
1.00022 1.00098 0.993209
1.00012 1.00116 0.993199
1.00023 1.00123 0.992958
1.00008 1.00138 0.993041
1.00022 1.00122 0.992986
1.00021 1.00144 0.992751
1.00006 1.00246 0.992
0.99988 1.00338 0.991359
0.999994 1.00227 0.99224
1.00003 1.00185 0.992689
1.00011 1.00102 0.99335
1.00012 1.00083 0.993535
1.00017 1.00008 0.994173
1.00013 1.00072 0.993616
1.00019 1.00004 0.994186
1.00016 0.999019 0.995232
1.0002 1.00002 0.994098
1.00018 0.998971 0.995243
1.00006 0.99725 0.99757
1.00019 0.998954 0.995247
1.00009 0.997205 0.997351
1.00004 0.996084 0.998508
1.00011 0.997168 0.997135
1.00002 0.996073 0.999369
1.00002 0.996059 0.99937
1.00016 0.999879 0.994558
1.00018 0.998682 0.995539
1.00016 0.999813 0.994476
1.00012 0.996949 0.997359
1.00019 0.99864 0.995563
1.00019 0.998662 0.995529
1.00011 0.996975 0.997335
1.00002 0.995952 0.999417
1.00008 0.99704 0.99769
1.00002 0.996024 0.998993
1.00001 0.99615 0.998553
0.998365 0.995416 0.962872
0.996128 0.997393 0.966807
0.998516 0.99765 0.983693
1.00372 0.998186 0.989516
1.0051 0.996352 0.987908
0.999289 0.996948 0.986413
1.00481 0.997665 0.989134
0.999719 0.995305 0.967355
0.997085 0.997436 0.962674
0.995544 0.996521 0.961173
1.00058 0.996724 0.989967
0.998185 0.998122 0.967312
0.996026 0.999742 0.963976
0.997382 0.996757 0.96721
1.00006 1.00133 0.993132
1.00008 1.00058 0.993803
1.00016 0.999782 0.994494
1.00009 1.00061 0.993744
1.00003 1.00115 0.99341
1.00006 1.00135 0.99316
1.00008 1.00105 0.993401
1.0001 1.00096 0.993426
1.00009 1.00069 0.993715
1.00008 1.00061 0.99377
1.00494 0.997249 0.987644
1.0049 0.997348 0.987154
1.00193 1.00139 0.988408
1.00027 1.00427 0.990001
1 1.00388 0.990774
1.0001 1.00234 0.992092
1.00007 1.00159 0.99283
1.00006 1.00149 0.99297
1.00471 0.999161 0.987002
1.00005 1.00193 0.992498
1.00013 1.00221 0.992111
1.0034 0.999888 0.987852
0.999887 1.00394 0.990476
1.00007 1.00344 0.991089
1.00017 1.00274 0.991605
1.00247 1.00372 0.987437
1.00089 1.00125 0.992285
1.00003 1.00323 0.991308
1.00003 1.0021 0.992404
1.00017 1.00229 0.99194
1.0003 1.00266 0.991416
0.997222 0.997571 0.970006
0.998283 0.995195 0.962451
0.999614 0.995157 0.964437
1.00011 1.00274 0.991673
0.999727 1.00419 0.990946
1.00443 0.99669 0.990557
1.00001 1.00399 0.989967
0.998741 0.994878 0.962398
0.997773 0.998839 0.966904
0.996157 1.00305 0.977336
1.00102 0.998217 0.994809
0.996036 0.999866 0.963484
0.995466 0.999034 0.963974
0.997347 0.996154 0.968284
1.00013 1.00253 0.99187
0.996145 0.998419 0.968478
1.00017 0.997688 0.977719
1.00165 0.998965 0.992913
0.999351 1.00391 0.991916
1.00049 1.00106 0.995572
0.997059 1.00248 0.979998
0.995851 1.00276 0.965884
0.996151 0.999161 0.965872
0.999369 0.996367 0.972722
0.999575 1.00236 0.993427
1.00199 0.998489 0.979238
1.00564 0.998293 0.978555
0.998349 1.00306 0.994815
0.997659 1.00259 0.989616
0.995547 1.0022 0.965292
0.99608 0.999896 0.967451
1.00041 0.998363 0.970044
1.00018 1.0021 0.992118
1.00004 1.00188 0.992676
0.999926 1.00092 0.993604
1.00024 1.00066 0.993505
1.00023 1.00099 0.993169
1.00013 1.00152 0.992865
1.00005 1.00183 0.992673
1.00024 1.00102 0.993145
1.00023 1.00129 0.992876
1.00013 1.00137 0.993032
1.00004 1.00102 0.993705
1.00033 1.00099 0.992992
1.00023 1.00116 0.992978
1.00021 1.00099 0.993213
1.00011 1.00117 0.993195
1.00025 1.00119 0.992932
1.00022 1.00121 0.992985
1.00007 1.00142 0.993032
1.00022 1.00139 0.992772
1.00012 1.00181 0.992522
1.00029 1.00131 0.992716
1.00001 1.00265 0.991925
1.00008 1.00244 0.992038
0.99984 1.00332 0.991493
1.00014 1.00365 0.990702
1.00005 1.00262 0.991978
0.999856 1.00327 0.991533
1 1.00226 0.992337
1.00011 1.00139 0.992908
1.00002 1.00189 0.99268
1.00011 1.00104 0.99334
1.00016 1.00017 0.994096
1.00011 1.00085 0.993528
1.00017 1.00009 0.99417
1.00013 0.999096 0.99521
1.00019 1.00004 0.994185
1.00016 0.999013 0.995233
1.00002 0.997317 0.997569
1.00018 0.998968 0.995244
1.00006 0.99725 0.997356
1 0.996145 0.998513
1.0001 0.997194 0.997136
1.00002 0.996095 0.998937
1.00002 0.996079 0.999368
1.00016 1.00004 0.994284
1.00017 0.998771 0.995473
1.00015 0.999886 0.994439
1.00011 0.996987 0.99734
1.00018 0.99868 0.995539
1.00016 0.999827 0.994475
1.00002 0.995937 0.99942
1.00012 0.996947 0.997359
1.00019 0.998638 0.995563
1.00011 0.996979 0.997333
1.00002 0.99596 0.999414
1 0.996021 0.999402
0.996674 0.997858 0.970118
0.998152 0.995126 0.962376
1.00018 0.998717 0.976389
0.996169 0.997389 0.965801
0.999612 0.996944 0.982267
1.0048 0.997941 0.989002
0.999194 0.995229 0.970132
0.997449 0.998086 0.962565
0.995326 0.997231 0.958591
1.00002 0.99781 0.988091
0.998885 0.997454 0.963582
0.996113 0.999557 0.962438
0.997234 0.997537 0.966275
0.998373 0.998177 0.986779
0.996794 1.00033 0.96405
0.995463 0.999572 0.964527
1.00014 0.99747 0.970133
1.00008 1.00181 0.992685
1.00005 1.00132 0.993192
1.00009 1.00058 0.993842
1.00001 1.00111 0.993487
1.0001 1.00164 0.99273
1.00006 1.00132 0.993214
1.00008 1.00104 0.993398
1.00014 1.00105 0.99334
1.00011 1.00094 0.993492
1.00009 1.0007 0.993658
1.00482 0.998651 0.986942
1.00302 1.00053 0.987368
0.999747 1.00391 0.990951
1.00019 1.00326 0.990977
1.00021 1.00259 0.991654
1.00014 1.00222 0.992014
1.00006 1.00197 0.992464
1.00005 1.00211 0.992402
1.00275 1.00277 0.987743
1.00014 1.00235 0.99199
1.00031 1.00263 0.991464
1.0009 1.00111 0.991661
1.00019 1.00299 0.991342
1.00087 1.00216 0.990437
1.00028 1.00141 0.993158
1.00023 1.0024 0.991524
1.00018 1.00217 0.992067
1.00032 1.00263 0.99133
1.00359 0.998404 0.979
0.997187 0.998063 0.970188
0.998214 0.995541 0.962736
1.00006 1.00263 0.991871
0.999116 1.00385 0.991943
1.00166 0.999033 0.992961
0.996077 0.998312 0.969878
0.996187 1.00156 0.963513
0.997013 1.00232 0.982253
1.00123 0.998462 0.995994
0.995613 0.99955 0.964613
0.999946 0.99797 0.977772
0.998822 0.996468 0.972988
0.999539 1.00222 0.993427
1.00168 0.998105 0.980923
1.00505 0.998619 0.978928
0.998427 1.00262 0.995079
0.997543 1.0017 0.989216
0.995785 1.00237 0.963057
1.00128 0.997718 0.970904
0.995494 0.999543 0.9668
0.998674 1.00185 0.995434
1.01078 0.998185 0.977594
1.00706 0.999762 0.97663
1.00051 0.997257 0.969995
0.995533 1.00331 0.996294
0.995386 0.999543 0.96905
0.994561 0.999984 0.968515
1.00015 1.0018 0.992769
1.00008 1.00109 0.993253
0.999916 0.999636 0.995171
1.00024 1.00103 0.993147
1.00021 1.00132 0.992867
1.00011 1.00119 0.993102
1.00024 1.00117 0.992977
1.00033 1.00093 0.992985
1.00013 1.00086 0.993554
0.999738 1.00039 0.994599
1.0004 1.00097 0.992835
1.00022 1.00121 0.992983
1.00006 1.00146 0.993024
1.00023 1.00135 0.992793
1.00029 1.00133 0.992706
1.00014 1.00176 0.992571
0.999962 1.00211 0.992521
0.999965 1.00266 0.991971
0.999828 1.00394 0.990969
1.00009 1.00244 0.992077
0.999946 1.00331 0.99145
1.00006 1.00403 0.990178
1.00013 1.00371 0.990616
1.00006 1.0029 0.991612
1.0001 1.00366 0.990709
1.00011 1.00179 0.992583
1.00006 1.00264 0.991902
0.999833 1.00314 0.991708
1.00001 1.00226 0.992433
1.0001 1.00136 0.992993
1.00015 1.00039 0.993896
1.00011 1.00106 0.993331
1.00016 1.00019 0.994089
1.0001 0.999191 0.995174
1.00017 1.0001 0.994167
1.00014 0.999087 0.995211
0.999968 0.997424 0.997552
1.00017 0.999007 0.995234
1.00003 0.997325 0.997352
0.999957 0.996232 0.998512
1.00007 0.997242 0.99714
0.99999 0.996152 0.99894
0.999996 0.996117 0.999369
1.00017 1.00024 0.993916
1.00014 0.998939 0.995197
1.00016 1.00005 0.99428
1.00009 0.997081 0.997283
1.00016 0.998781 0.995391
1.00014 0.999896 0.994321
1.00001 0.99597 0.999413
1.00011 0.996979 0.997342
1.00018 0.998677 0.99554
1.00002 0.995936 0.99942
1.00012 0.996947 0.997358
1.00002 0.995968 0.999412
1.00336 0.998477 0.978058
0.996792 0.997426 0.969287
0.998211 0.994975 0.96259
1.0002 1.00106 0.993139
1.00491 0.998199 0.980183
1 0.998462 0.976436
0.996157 0.997395 0.965614
0.999933 0.998875 0.985954
0.998585 0.998073 0.967354
0.996006 0.999698 0.962686
0.997442 0.997142 0.965598
0.997667 0.999369 0.98228
0.99616 1.00107 0.966813
0.996399 1.00013 0.964572
0.999936 0.997365 0.969869
0.996815 1.00224 0.978682
0.995579 1.00109 0.962642
0.995259 0.999622 0.966041
1.00017 0.998179 0.970364
1.00015 1.00197 0.992318
1.00007 1.00183 0.992651
1.00005 1.00131 0.993253
1.00015 1.0016 0.992709
1.00009 1.00163 0.992818
1.00006 1.00127 0.993268
1.00015 1.00105 0.993358
1.00012 1.00094 0.993559
1.00303 1.00185 0.988044
1.00091 1.00135 0.991036
1.00006 1.0021 0.992399
1.00034 1.00282 0.991376
1.00034 1.00256 0.991511
1.00013 1.00239 0.99204
1.00017 1.00222 0.992079
1.00148 1.00214 0.99066
1.00029 1.0026 0.991462
1.00031 1.00259 0.99147
1.00033 1.00092 0.992934
1.00024 1.00201 0.992208
0.999536 0.999151 0.995661
0.999186 1.00301 0.993454
1.0003 1.00196 0.991812
1.00027 1.00223 0.99191
1.01316 0.997635 0.975533
1.00409 0.998614 0.978335
0.997151 0.998539 0.970379
0.999482 1.00209 0.99343
0.998503 1.00226 0.995325
1.00139 0.997714 0.982602
0.995671 1.0009 0.965924
0.997555 1.00238 0.984435
0.995188 0.999767 0.965958
1.00456 0.998915 0.979302
1.00219 0.997255 0.971763
0.998752 1.0021 0.994983
1.01062 0.998261 0.977933
1.00795 0.999881 0.976681
0.995773 1.0041 0.998689
1.00025 0.996895 0.969826
0.995012 0.999689 0.967168
0.99533 0.999829 0.966247
0.99777 1.00107 0.998264
1.01722 0.997039 0.970899
1.00489 0.997816 0.980542
0.997402 0.996287 0.967892
0.995179 0.999229 0.966201
0.995261 0.999785 0.999586
0.995067 1.00023 0.964245
1.00022 1.00132 0.992903
0.999946 0.999813 0.995004
0.99875 0.998957 0.997937
1.00025 1.00119 0.992975
1.00032 1.00091 0.992979
1.0002 1.00081 0.993403
1.00037 1.00108 0.992811
0.999876 1.00012 0.994579
0.999674 1.00156 0.993468
1.00028 1.00135 0.992695
1.00016 1.0017 0.99262
1.00006 1.00208 0.992468
0.999531 1.00383 0.991569
0.99993 1.00267 0.992016
0.99974 1.00382 0.991145
1.00002 1.00479 0.989786
1.0006 1.00396 0.989517
1.00005 1.0033 0.991406
1.00017 1.00417 0.989966
1.00027 1.00331 0.990988
0.999942 1.00329 0.99129
1.00013 1.00359 0.990737
1.00012 1.00209 0.9923
1.00009 1.00288 0.991601
1.00005 1.00368 0.990717
1.00015 1.00074 0.993566
1.00012 1.00177 0.992559
1.00006 1.00266 0.991826
1.0001 1.00134 0.993079
1.00015 1.00041 0.993888
1.00006 0.999361 0.995085
1.00016 1.0002 0.994083
1.0001 0.999185 0.995173
0.999928 0.997563 0.997093
1.00014 0.999079 0.995212
0.999985 0.99743 0.997121
0.999865 0.996343 0.999367
1.00004 0.997319 0.997137
0.999947 0.996235 0.99894
0.999964 0.996178 0.999369
1.00021 1.00032 0.993767
1.00013 0.999154 0.994993
1.00018 1.00024 0.99398
1.00006 0.997228 0.997191
1.00014 0.998955 0.995174
1.00016 1.00006 0.994276
0.999991 0.996048 0.999398
1.00009 0.997071 0.997286
1.00016 0.99879 0.995308
1.00002 0.995961 0.999416
1.00011 0.996972 0.997344
1.00002 0.995937 0.99942
1.01265 0.99708 0.97557
1.00309 0.998609 0.978338
0.996758 0.9971 0.969512
1.0002 1.00108 0.993161
1.00023 1.00112 0.992996
1.00015 1.0016 0.992769
1.00707 1.00007 0.976197
1.00448 0.998295 0.980578
0.999815 0.998104 0.976485
0.997169 1.00026 0.985123
0.996605 1.00027 0.964035
0.995604 0.999851 0.963584
1.00003 0.996791 0.970021
0.996224 1.0014 0.982627
0.995807 1.00176 0.96412
0.995056 0.999944 0.968039
1.00103 0.997956 0.97115
0.99642 1.00206 0.981546
0.9951 1.00084 0.966922
0.994576 0.999971 0.968946
1.00034 0.996403 0.972527
1.00022 1.00192 0.992277
1.00015 1.002 0.992308
1.00007 1.00186 0.992617
1.00015 1.00161 0.992702
1.00009 1.00161 0.992906
1.00016 1.00105 0.993376
1.00213 1.00181 0.990885
1.00027 1.00031 0.992714
1.00016 1.00228 0.992092
1.00039 1.00264 0.991418
1.00026 1.00263 0.991594
1.00026 1.00196 0.992155
1.00025 1.00222 0.991934
0.999783 1.00009 0.995607
1.00029 1.00203 0.991983
0.998817 1.00263 0.994681
1.00022 1.00176 0.992441
0.997369 0.999404 0.999138
0.998414 1.00058 0.997765
1.00015 1.00203 0.992179
1.02097 0.996007 0.967415
1.0148 0.99734 0.97372
1.00459 0.998861 0.977671
0.998855 1.0023 0.994529
0.996092 1.00168 0.998437
1.01047 0.998322 0.978273
0.995155 1.00081 0.974748
0.995906 0.999897 0.967959
1.00883 0.999896 0.976733
1.00047 0.996557 0.96996
0.997901 1.00107 0.99813
1.01826 0.997094 0.969625
1.00445 0.998043 0.980885
0.995052 1.00093 0.993003
0.997259 0.996697 0.966933
0.995197 0.999888 0.967562
0.995021 1.0002 0.968535
0.99666 1.00134 1.00195
1.01261 0.997086 0.975682
1.00035 0.998491 0.976402
0.995655 0.995519 0.964142
0.995339 0.998963 0.965531
0.995043 1.00005 0.967837
0.995163 0.999886 0.989843
0.999971 1.00001 0.994839
0.998874 0.998666 0.997874
0.998635 1.00062 0.996798
1.00033 1.00116 0.992787
1.00002 0.99981 0.994558
0.999557 1.00172 0.993601
0.999505 1.00277 0.992751
1.00016 1.00207 0.992415
0.999783 1.00378 0.991375
0.999961 1.00486 0.989796
0.999645 1.00371 0.991322
1.00007 1.00476 0.989764
1.00077 1.00483 0.988582
1.00104 1.00436 0.988407
1.00035 1.00322 0.990531
1.00059 1.00403 0.989422
1.00027 1.0043 0.989755
1.00024 1.00291 0.99135
1.0002 1.00317 0.991124
1.00002 1.00266 0.991803
0.999983 1.00324 0.991368
1.00013 1.00348 0.990857
1.00016 1.00113 0.993156
1.00012 1.00208 0.992308
1.00012 1.00287 0.991591
1.00002 0.999637 0.994878
1.00015 1.00074 0.993563
1.00012 1.00175 0.992534
1.00014 1.00042 0.99388
1.00006 0.999361 0.99508
0.999861 0.997746 0.997035
1.00011 0.999179 0.995172
0.999931 0.997566 0.997092
0.999818 0.996485 0.999357
0.99999 0.99743 0.997121
0.999887 0.996357 0.998933
0.99992 0.996263 0.999366
1.00022 1.00042 0.993733
1.00014 0.999305 0.994981
1.0002 1.00033 0.993814
1.00002 0.997418 0.997077
1.00013 0.999167 0.995052
1.00019 1.00025 0.994044
0.999958 0.996169 0.999375
1.00006 0.997217 0.997197
1.00014 0.998974 0.995151
0.999995 0.996033 0.999403
1.00009 0.99706 0.99729
1.00002 0.995952 0.999418
1.01739 0.997248 0.970251
1.01222 0.99756 0.975903
1.00283 0.998721 0.978623
1.00023 1.00122 0.992886
1.00018 1.00177 0.992541
1.00019 1.0011 0.993182
1.00023 1.00114 0.992982
1.00016 1.00159 0.992714
1.00017 1.00162 0.992675
1.00015 1.00187 0.992452
1.00566 0.998567 0.978147
1.00799 1.00023 0.976159
1.00406 0.998423 0.980973
1.00188 0.997519 0.971937
0.995573 1.00064 0.97935
0.995705 1.00246 0.965724
0.994869 1.00006 0.966173
0.995915 1.00057 0.979797
0.995205 1.00015 0.964382
0.995301 0.999796 0.966898
0.999259 0.996851 0.972442
0.995702 0.998293 0.987537
0.994925 1.00024 0.964569
0.996326 1.00002 0.967357
0.997138 0.996256 0.969628
1.00024 1.00183 0.992393
1.00022 1.00188 0.992269
1.00013 1.00201 0.992297
1.00015 1.00162 0.992696
1.00004 1.00157 0.995541
0.998531 1.00221 0.995903
1.00028 1.00189 0.992102
1.00024 1.0022 0.991959
1.00027 1.00214 0.992154
1.00023 1.00176 0.992394
1.00013 1.00208 0.992113
0.996835 1.0008 0.998721
0.998459 1.00039 0.998101
1.00002 1.00196 0.992514
0.995826 0.997525 1.00192
0.999026 1.00259 0.995071
1.01336 0.997838 0.975129
1.02324 0.995263 0.964796
1.01646 0.996989 0.971906
0.998056 1.00104 0.998011
0.995282 0.999738 0.999785
1.01931 0.997162 0.968351
0.995044 1.00025 0.964611
0.994694 0.999985 0.96623
1.00401 0.998297 0.981228
0.997614 0.996863 0.966159
0.996808 1.00101 1.00204
1.01217 0.997551 0.976021
1.00017 0.998233 0.976448
0.995097 0.999905 0.994805
0.995429 0.996318 0.96159
0.996041 0.999502 0.965686
0.995136 1.0001 0.966663
0.996627 1.00231 0.999737
1.00341 0.998671 0.977871
0.996254 0.997346 0.967008
0.996201 0.999329 0.964138
0.995596 1.00001 0.967933
0.995034 1.00006 0.984707
0.999092 0.998339 0.997807
0.998559 1.00086 0.996784
1.00026 0.999042 0.99621
0.999426 1.00188 0.993734
0.999223 1.0028 0.992948
1.00024 1.00385 0.990329
1.00004 1.00371 0.991181
1.00008 1.0049 0.989646
1.00085 1.00478 0.988137
1.00012 1.00475 0.989742
1.00083 1.00482 0.98843
1.00127 1.00452 0.987595
1.00167 1.00358 0.987864
1.00103 1.00355 0.989376
1.00108 1.00443 0.988216
1.00033 1.00267 0.991093
1.00037 1.00321 0.990602
1.00058 1.00409 0.989326
1.00022 1.00273 0.99149
1.00022 1.00296 0.991329
1.00012 1.00303 0.991261
1.00015 1.0016 0.992667
1.00005 1.0026 0.991883
1.00002 1.0032 0.991447
1.00001 0.999982 0.994537
1.00016 1.00111 0.993159
1.00013 1.00207 0.992315
0.999805 0.997965 0.996939
1.00002 0.999642 0.994872
1.00014 1.00073 0.993561
1.00006 0.99936 0.995076
0.999866 0.997753 0.997031
0.999745 0.996656 0.999344
0.999936 0.99757 0.99709
0.999809 0.996506 0.999353
0.999865 0.99638 0.99936
1.00022 1.00132 0.992851
1.00024 1.00052 0.993594
1.00012 0.999441 0.994866
1.00023 1.00041 0.993733
0.999977 0.997607 0.996968
1.00013 0.999317 0.994981
1.00019 1.00034 0.99386
0.999914 0.996327 0.999347
1.00002 0.997405 0.997083
1.00014 0.999177 0.995112
0.999962 0.996149 0.999382
1.00006 0.997206 0.997202
0.999998 0.996016 0.999408
1.01099 0.998342 0.977095
1.01841 0.99739 0.969031
1.01178 0.99804 0.976237
1.00023 1.00123 0.992912
1.00018 1.00177 0.992498
1.00014 1.00206 0.992223
1.00016 1.00171 0.992531
1.00014 1.00212 0.992272
1.00022 1.00115 0.992967
1.00017 1.00158 0.992658
1.00015 1.00163 0.992679
1.00018 1.00184 0.992412
1.00011 1.00195 0.992486
1.00062 0.997541 0.976877
1.00509 0.998898 0.978542
1.00895 1.00049 0.976121
0.998548 0.996767 0.972817
0.995872 0.999909 0.968546
0.995357 1.00022 0.978033
0.995084 1.00013 0.966956
0.995587 0.997057 0.982382
0.994946 1.00016 0.967378
0.995317 0.999772 0.966939
0.997063 0.9966 0.968391
0.994979 0.994957 0.987377
0.995043 1.00007 0.968022
0.995782 0.999937 0.964357
0.995465 0.996983 0.963626
0.999912 1.00159 0.993141
1.0002 1.0019 0.99237
1.00022 1.00186 0.992261
0.99627 1.00179 0.998309
0.998485 1.00007 0.998463
1.00024 1.00177 0.992345
1.00011 1.00216 0.992048
1.00001 1.00191 0.992572
0.998872 1.00255 0.994787
0.995897 0.997129 1.00199
0.998779 1.00294 0.993878
0.997261 1.00152 0.997079
1.00331 0.999089 0.978563
1.01495 0.997431 0.973391
1.02546 0.994616 0.962178
0.996729 1.00072 1.00211
0.995071 0.999923 0.987682
1.01173 0.998041 0.97636
0.995225 1.00009 0.96337
0.995502 0.998961 0.96533
0.99999 0.997856 0.976497
0.995181 0.997077 0.959041
0.996659 1.00228 0.999961
1.00315 0.998769 0.978166
0.996303 0.997189 0.965978
0.995008 1.00006 0.987064
0.996067 0.999272 0.962924
0.995754 0.99923 0.964958
0.998111 1.00078 0.997008
0.996627 0.997882 0.970407
0.997137 0.997524 0.962371
0.996959 0.999802 0.964757
0.994901 1.00013 0.986934
0.99852 1.00105 0.996768
1.00005 0.998837 0.996202
1.00198 0.998629 0.992361
0.998947 1.00283 0.993144
0.999974 1.00384 0.990587
1.00134 1.00317 0.988722
1.0002 1.00493 0.989496
1.00088 1.00472 0.988132
1.00197 1.00349 0.987452
1.00089 1.00479 0.988278
1.00128 1.0045 0.987624
1.00221 1.00261 0.987755
1.00235 1.00174 0.988336
1.00137 1.00318 0.98871
1.00168 1.00346 0.987898
1.00079 1.00296 0.990265
1.00096 1.00364 0.989205
1.00111 1.0045 0.988026
1.00037 1.00239 0.991493
1.00032 1.00264 0.991199
1.00038 1.00319 0.990674
1.00021 1.00197 0.992222
1.00021 1.00271 0.991528
1.00019 1.003 0.991307
1.00001 1.00047 0.994059
1.00016 1.0016 0.992669
1.00007 1.00253 0.991962
0.999731 0.998246 0.99723
1.00001 0.999994 0.994529
1.00016 1.0011 0.993162
0.999684 0.996895 0.998384
0.9998 0.997996 0.997142
1.00002 0.999647 0.994866
0.999872 0.99776 0.997027
0.999735 0.996688 0.999337
0.999799 0.996529 0.99935
1.00019 1.00161 0.992579
1.00025 1.00068 0.993419
1.00022 1.00135 0.992814
1.0001 0.999581 0.994778
1.00024 1.00053 0.993595
0.999928 0.997781 0.996885
1.00012 0.999455 0.994866
1.00023 1.00042 0.993733
0.999862 0.996494 0.999321
0.999973 0.997599 0.996973
1.00013 0.999333 0.994981
0.999919 0.9963 0.999355
1.00002 0.997394 0.997089
0.999966 0.996125 0.999389
1.00251 0.998243 0.980924
1.01085 0.998384 0.977416
1.01944 0.997577 0.96781
1.00009 1.00231 0.992137
1.00022 1.00125 0.992938
1.00019 1.00177 0.992456
1.00016 1.00172 0.99257
1.00016 1.00204 0.992267
1.00015 1.00208 0.992255
1.00013 1.00236 0.992008
1.00008 1.00214 0.992244
1.00014 1.00164 0.992683
1.00021 1.00182 0.992371
1.0001 1.00196 0.992468
1.00009 1.0023 0.992475
0.996245 0.997964 0.964544
1.00046 0.997899 0.976925
1.00456 0.999152 0.978936
0.997289 0.996269 0.967623
0.995468 0.999876 0.966344
0.994917 1.00023 0.964616
0.995412 0.995802 0.985841
0.994901 0.994971 0.991702
0.995367 0.99704 0.961271
0.994894 1.00014 0.964329
0.995858 0.999768 0.965141
0.995629 0.997546 0.990063
0.995679 0.999436 0.969066
0.996187 0.999862 0.963158
0.999406 1.00141 0.994191
1.00002 1.00154 0.993145
1.00015 1.00197 0.992347
0.995985 0.996743 1.00201
0.998861 1.00242 0.994511
0.999962 1.00187 0.992629
0.999116 1.00287 0.993745
0.996881 1.00169 0.997198
0.998486 1.00121 0.994927
0.996962 0.998346 0.96739
1.00408 0.9989 0.979124
1.01656 0.996988 0.971652
0.996734 1.00229 1.00024
0.994908 1.00002 0.988794
1.00288 0.998923 0.978466
0.995846 0.998559 0.968529
0.996063 0.999513 0.96301
0.996281 0.997062 0.965899
0.997869 1.00064 0.997136
0.996753 0.997471 0.969481
0.996775 0.997642 0.963222
0.994939 1.00034 0.982535
0.996382 0.999846 0.967361
0.999088 1 0.996339
0.998294 0.995392 0.963119
0.997549 0.999981 0.966695
0.995631 1.00059 0.980151
0.999793 0.998729 0.996197
1.00168 0.998526 0.993079
1.00292 0.997407 0.991163
0.999716 1.00381 0.990845
1.00138 1.00299 0.988751
1.0031 1.00007 0.988433
1.00092 1.00464 0.988127
1.00196 1.00325 0.987496
1.00326 1.00014 0.988243
1.00128 1.00448 0.987654
1.00221 1.00248 0.987794
1.00305 0.999842 0.988909
1.00276 0.999964 0.989384
1.00201 1.00196 0.988764
1.00234 1.00163 0.988463
1.00106 1.00272 0.989564
1.0014 1.00315 0.988806
1.00168 1.00333 0.987932
1.00053 1.00246 0.991125
1.00069 1.00297 0.99027
1.00089 1.00373 0.989034
1.00032 1.00199 0.992003
1.0004 1.00238 0.991484
1.00032 1.00262 0.991305
1 1.00106 0.993517
1.00022 1.00196 0.992235
1.00019 1.00269 0.991565
0.999685 0.99857 0.996533
1.00001 1.00047 0.99405
1.00017 1.0016 0.992671
0.999566 0.997151 0.999284
0.999741 0.998288 0.996728
1 1 0.994521
0.999662 0.996891 0.999314
0.999807 0.998012 0.996902
0.999724 0.996721 0.999331
1.00013 1.00192 0.992468
1.0002 1.0016 0.99259
1.00022 1.00096 0.993185
1.00007 0.999729 0.99468
1.00025 1.00068 0.99342
1.00022 1.00137 0.992777
0.999879 0.997937 0.996823
1.0001 0.999579 0.99478
1.00024 1.00053 0.993595
0.999803 0.99666 0.999301
0.999924 0.997776 0.996888
1.00012 0.999464 0.994867
0.999868 0.99647 0.999329
0.99997 0.997591 0.996978
0.999924 0.996274 0.999364
0.996617 0.99838 0.967924
1.00227 0.998248 0.981208
1.01071 0.998409 0.977738
1.00009 1.00235 0.992096
1.00008 1.00255 0.991996
1.00009 1.00254 0.991918
1.00017 1.00173 0.992609
1.00016 1.00201 0.992312
1.00014 1.00205 0.992238
1.00009 1.00215 0.992232
1.00012 1.00237 0.991997
0.999974 1.00291 0.9918
1.00009 1.00202 0.9923
1.0001 1.00197 0.99245
1.00003 1.00218 0.992488
0.997431 0.997851 0.962326
0.996055 0.998364 0.963722
1.00023 0.998139 0.976975
0.995328 0.99712 0.958908
0.995179 0.999956 0.9642
0.995386 1.00016 0.969558
0.994942 0.994983 0.987051
0.995366 0.997638 0.986097
0.996105 0.999072 0.962342
0.995457 0.999876 0.967338
0.997141 0.996406 0.985449
0.996819 1.00072 0.964238
1.00058 1.0016 0.992555
0.999593 1.00122 0.994101
1.00011 1.00149 0.993151
0.996311 1.00195 0.997314
0.999411 1.00281 0.99361
0.999162 1.00147 0.994496
1.00169 0.999401 0.991478
0.998333 0.9948 0.962185
0.996872 0.998544 0.968956
1.00487 0.998663 0.979682
0.997676 1.00039 0.997271
0.994921 1.00019 0.98498
0.996719 0.997094 0.969728
0.996379 1.00014 0.964329
0.997337 0.998772 0.962992
0.999102 0.999994 0.995928
0.998155 0.995328 0.962419
0.998451 0.998529 0.963501
0.995403 1.0008 0.984062
1.00025 1.0009 0.994059
0.998955 0.997101 0.963801
0.997734 0.998962 0.985089
1.00137 0.998453 0.993797
1.0028 0.997758 0.991034
1.00437 0.995917 0.989855
1.00141 1.00285 0.988779
1.00312 0.999983 0.988384
1.00446 0.996603 0.98911
1.00195 1.00305 0.98754
1.00324 0.999953 0.988244
1.00423 0.996898 0.989504
1.00221 1.00235 0.987833
1.00304 0.999741 0.988913
1.00342 0.997988 0.989975
1.00305 0.998961 0.989987
1.00275 0.99983 0.989513
1.00245 1.00052 0.989381
1.00178 1.00189 0.989318
1.00202 1.002 0.988783
1.00233 1.00151 0.98859
1.00086 1.00241 0.990345
1.0011 1.00272 0.989689
1.00143 1.00312 0.988902
1.00042 1.002 0.991769
1.00055 1.00247 0.991105
1.0006 1.00298 0.990275
1.00003 1.00136 0.99313
1.00034 1.00196 0.992009
1.00043 1.00238 0.991476
0.999633 0.998958 0.996215
1.00002 1.001 0.993519
1.00023 1.00194 0.992249
0.999527 0.997375 0.999237
0.999683 0.998608 0.996514
1.00001 1.00046 0.99404
0.999586 0.997168 0.998793
0.999749 0.998298 0.996724
0.999649 0.996956 0.999297
1.00013 1.00219 0.99219
1.00013 1.00195 0.99242
1.00015 1.00136 0.99293
1.00021 1.0016 0.992601
1.00022 1.00097 0.993184
1.00001 0.999998 0.994506
0.999829 0.998082 0.996774
1.00007 0.999721 0.994686
1.00024 1.0007 0.993422
0.999738 0.996821 0.999285
0.999874 0.997933 0.996825
1.0001 0.99958 0.994782
0.99981 0.99664 0.999307
0.99992 0.997772 0.996891
0.999873 0.996444 0.999336
0.998048 0.99597 0.96285
0.996409 0.998713 0.967027
1.00204 0.998259 0.981489
1.00008 1.0024 0.992056
1.00007 1.00262 0.99185
1.00003 1.00253 0.992045
1.00014 1.00257 0.991855
0.999997 1.00286 0.991793
1.00011 1.00216 0.99222
1.00012 1.00237 0.991987
0.999946 1.00282 0.991833
0.999831 1.00288 0.991658
1.00006 1.00254 0.991834
1.00128 1.0022 0.990391
0.999942 1.00235 0.992361
1.00001 1.00207 0.992502
0.998959 0.998769 0.962828
0.997049 0.998233 0.962235
0.995776 0.998781 0.96367
0.996439 0.999236 0.962523
0.995455 1.00053 0.964211
0.995116 0.997655 0.990865
0.997313 0.996646 0.987864
0.996893 0.998754 0.967843
1.00028 0.997369 0.982903
1.00287 0.999854 0.989434
1.00017 1.00144 0.992519
0.999737 1.00104 0.994009
0.999684 1.00168 0.994071
1.00237 0.999476 0.990888
0.999212 0.995861 0.964161
0.998341 0.995172 0.962701
0.996786 0.998817 0.970528
0.99915 0.999981 0.995501
0.995081 1.00127 0.980461
0.998277 0.995049 0.962389
0.997906 0.999279 0.966994
1.00064 1.00039 0.994055
0.99985 0.996012 0.966312
0.997268 0.999904 0.981613
1.00246 1.00243 0.989508
1.00052 0.996869 0.988846
1.00267 0.998073 0.9909
1.00408 0.996498 0.98965
1.00513 0.996202 0.98833
1.00314 0.999864 0.988337
1.00442 0.996874 0.989019
1.00498 0.995704 0.989046
1.00324 0.999754 0.988245
1.00413 0.997035 0.989426
1.00432 0.996466 0.989787
1.00303 0.999649 0.988917
1.00339 0.998059 0.989929
1.00353 0.997841 0.990001
1.00297 0.998807 0.990131
1.00291 0.999525 0.98968
1.00274 0.999707 0.989642
1.00246 1.00054 0.989351
1.00228 1.00084 0.989409
1.00142 1.00186 0.989851
1.00177 1.00192 0.989295
1.00203 1.00204 0.988802
1.00064 1.00205 0.991312
1.00085 1.00241 0.990432
1.00113 1.00272 0.989815
1.00005 1.0015 0.992898
1.00046 1.002 0.991754
1.00058 1.00247 0.991086
0.999607 0.999369 0.995826
1.00005 1.00132 0.993139
1.00037 1.00194 0.992015
0.999484 0.997639 0.999175
0.999624 0.999016 0.996198
1.00003 1.00095 0.993521
0.999527 0.997417 0.99922
0.999679 0.99865 0.996495
0.999581 0.997204 0.999256
1.0002 1.00236 0.991892
1.00012 1.00217 0.992194
1.00014 1.00172 0.992545
1.00013 1.00196 0.992371
1.00015 1.00141 0.992868
0.999976 1.00042 0.994155
1.00022 1.00096 0.993184
1.00003 0.999979 0.994512
0.99976 0.998296 0.996694
0.999663 0.996987 0.999274
0.999823 0.998081 0.996778
1.00007 0.999711 0.994691
0.999746 0.996804 0.99929
0.99987 0.997928 0.996828
0.999816 0.996619 0.999313
1.00012 0.996822 0.965792
0.997885 0.995914 0.962825
0.996038 0.999035 0.967173
1.00005 1.00271 0.991783
0.999987 1.00251 0.992095
1 1.00286 0.991822
1.00012 1.00257 0.991854
1.0002 1.00285 0.991473
0.999926 1.00276 0.991836
0.999921 1.00271 0.991867
0.999943 1.00304 0.991494
0.999962 1.0028 0.991755
1.00029 1.0023 0.991295
1.00154 1.00202 0.990659
1.00288 1.00073 0.988404
1.00106 1.00207 0.99057
0.999784 1.00269 0.992422
1.0002 0.997379 0.981743
0.998504 0.998907 0.964265
0.997151 0.998047 0.962274
0.997434 1.00031 0.964233
0.997467 0.996659 0.990242
1.00037 0.9973 0.987004
1.00386 0.997014 0.990451
1.00292 0.99946 0.989856
1.00002 1.00131 0.992478
1.00347 0.999726 0.990285
0.999031 0.998996 0.982592
0.999799 0.996071 0.967856
0.998246 0.995481 0.963069
1.00089 1.00005 0.994048
0.997013 1.00079 0.983735
0.999409 0.995776 0.968951
1.00252 1.00142 0.989732
1.00001 0.998032 0.986955
1.00435 1.00019 0.987636
1.00468 0.997825 0.988614
1.00386 0.99702 0.989447
1.00497 0.996274 0.988309
1.00505 0.997199 0.987708
1.00435 0.99711 0.988926
1.00492 0.995971 0.989006
1.00489 0.997051 0.988105
1.00405 0.997177 0.989349
1.00422 0.996691 0.989726
1.00424 0.997562 0.98893
1.00337 0.998133 0.989884
1.00341 0.997912 0.990074
1.00331 0.998893 0.989308
1.00289 0.998651 0.990274
1.00287 0.999416 0.989749
1.00276 1.00011 0.989379
1.00247 1.00055 0.989321
1.00228 1.00087 0.989385
1.00204 1.00107 0.989728
1.00102 1.00173 0.990704
1.0014 1.00187 0.989939
1.00176 1.00196 0.989273
1.00014 1.00166 0.992583
1.00066 1.00204 0.991304
1.00084 1.00241 0.99052
0.999552 0.999896 0.995427
1.00007 1.00152 0.992901
1.00049 1.002 0.991739
0.99946 0.997912 0.999084
0.999602 0.999429 0.995818
1.00007 1.00127 0.993149
0.999489 0.99768 0.999148
0.999617 0.99907 0.99618
0.999528 0.997456 0.999203
1.00027 1.00258 0.991562
1.00021 1.00235 0.991923
1.00018 1.002 0.992262
1.00011 1.00216 0.992199
1.00014 1.00177 0.992503
0.999975 1.00088 0.993689
1.00015 1.00146 0.992806
0.999979 1.00042 0.99416
0.999684 0.99861 0.996526
1.00004 0.99996 0.994517
0.999758 0.998279 0.996703
0.999585 0.997195 0.999253
0.999675 0.99697 0.999277
0.999818 0.998078 0.996782
0.999754 0.996788 0.999295
0.999706 0.997902 0.982028
0.999872 0.996506 0.963204
0.998202 0.995896 0.962315
1.00065 1.00256 0.990876
1 1.00286 0.991852
1.0001 1.00257 0.991854
0.999967 1.00284 0.99182
1.00015 1.00291 0.991444
1.00015 1.0021 0.992008
1.00006 1.00323 0.991329
0.999931 1.00307 0.991677
1.00043 1.0023 0.991419
1.00126 1.00199 0.990757
1.00248 1.00075 0.989078
1.00468 0.99839 0.986879
1.00281 1.00057 0.988371
1.0009 1.00186 0.990749
1.00361 0.996329 0.992016
1.00005 0.997853 0.980152
0.998553 0.998845 0.966132
1.00024 0.997084 0.98391
1.00392 0.996608 0.990985
1.00263 0.998936 0.990291
1.00331 0.998842 0.989446
0.998893 0.998191 0.985185
0.999521 0.99579 0.964083
1.0027 1.00018 0.989945
1.00003 0.999122 0.984899
1.00436 0.999292 0.987686
1.00465 0.997976 0.989016
1.005 0.99711 0.987622
1.00512 0.997639 0.987462
1.00477 0.996421 0.988288
1.00505 0.996931 0.987792
1.00476 0.997957 0.98754
1.00492 0.996218 0.988967
1.00491 0.997023 0.988107
1.00465 0.998272 0.987397
1.0041 0.996909 0.989665
1.00408 0.997599 0.989146
1.00389 0.998638 0.988381
1.00329 0.997976 0.990146
1.0033 0.998902 0.98931
1.00316 0.999602 0.988913
1.00283 0.999309 0.989818
1.00274 1.00003 0.989396
1.00247 1.00049 0.989422
1.00228 1.0009 0.989361
1.002 1.00108 0.989679
1.0016 1.00122 0.990368
1.00045 1.00151 0.992169
1.00101 1.00173 0.990793
1.00137 1.00189 0.990027
0.999498 1.00043 0.995004
1.00016 1.00166 0.992582
1.00069 1.00203 0.991296
0.99938 0.99825 0.998979
0.999581 0.999871 0.995422
1.00009 1.00151 0.992904
0.999447 0.997956 0.999052
0.999597 0.999474 0.995808
0.999491 0.997717 0.99912
1.0005 1.00252 0.991024
1.00026 1.00255 0.991573
1.00029 1.00213 0.991989
1.00022 1.00233 0.991954
1.00017 1.002 0.992282
0.999982 1.00129 0.993281
1.00013 1.00182 0.992461
0.999962 1.00092 0.993687
0.999605 0.999011 0.996264
0.999981 1.00042 0.994164
0.999686 0.998573 0.996542
0.999517 0.997437 0.999211
0.999758 0.998264 0.996712
0.999597 0.997162 0.99926
0.999685 0.996954 0.999281
1.0035 0.996858 0.9912
0.999696 0.998211 0.978693
0.999595 0.996959 0.966226
1.00073 1.00183 0.991191
1.00166 1.00171 0.989787
1.00047 1.0026 0.990973
1.00002 1.00288 0.991803
1.00011 1.00298 0.991413
1.00034 1.00205 0.991879
1.00248 1.00062 0.989379
1.00053 1.0023 0.991543
1.00085 1.00197 0.990853
1.00246 1.00071 0.989148
1.0043 0.998961 0.986978
1.00507 0.996853 0.987495
1.00469 0.99846 0.986921
1.00283 1.00049 0.988336
1.00384 0.996286 0.992191
0.999949 0.99848 0.977877
1.00423 0.996352 0.991504
1.00468 0.996786 0.98957
1.00303 0.998535 0.989723
0.999256 0.997603 0.981153
1.00438 0.998511 0.987747
1.00463 0.998154 0.98937
1.00491 0.997064 0.987794
1.00513 0.997278 0.987535
1.00472 0.997551 0.987855
1.0049 0.996708 0.988133
1.00509 0.996582 0.987878
1.00482 0.997765 0.98755
1.00458 0.998281 0.987436
1.0049 0.997077 0.988109
1.0046 0.998197 0.987585
1.0043 0.998645 0.987602
1.00393 0.997643 0.989361
1.00394 0.998641 0.98835
1.00376 0.999144 0.988206
1.0033 0.998911 0.989311
1.00317 0.999597 0.988909
1.0029 1.00009 0.988946
1.00271 0.999957 0.989413
1.00243 1.00046 0.989431
1.00198 1.00077 0.990023
1.00195 1.0011 0.98963
1.00155 1.00121 0.990347
1.00086 1.00112 0.991778
0.999543 1.00067 0.994638
1.00046 1.00152 0.992166
1.00101 1.00173 0.990882
0.999226 0.998744 0.998867
0.999563 1.00035 0.994994
1.00019 1.00167 0.992582
0.99935 0.998343 0.998945
0.999606 0.999869 0.995417
0.999437 0.998017 0.99902
1.00098 1.00226 0.990144
1.0005 1.00251 0.990937
1.00056 1.00207 0.99153
1.00025 1.00252 0.991584
1.00026 1.00212 0.991997
0.999999 1.0016 0.99298
1.00016 1.00199 0.992302
0.999955 1.00136 0.993275
0.99955 0.999452 0.995918
0.99995 1.00096 0.993685
0.999614 0.998957 0.996281
0.999464 0.997701 0.999145
0.999689 0.998536 0.996559
0.999524 0.997397 0.999226
0.999609 0.997135 0.999268
1.00497 0.996157 0.988316
1.00349 0.996846 0.990784
0.999866 0.997701 0.980402
1.00248 1.00071 0.989463
1.00055 1.00172 0.991681
1.00252 1.00063 0.988676
1.00169 1.00173 0.989722
1.00027 1.00266 0.991072
1.00425 0.999257 0.987297
1.00053 1.002 0.991753
1.00252 1.00056 0.989249
1.005 0.997971 0.986888
1.00246 1.00064 0.989217
1.00448 0.998959 0.98683
1.00501 0.997021 0.987484
1.00454 0.998573 0.986961
1.00392 0.996143 0.992362
1.00462 0.996926 0.988627
1.00448 0.996758 0.989664
1.00274 0.998179 0.989995
1.0048 0.996975 0.987966
1.00515 0.996986 0.987605
1.00467 0.997465 0.987894
1.00496 0.996861 0.98807
1.00477 0.9978 0.987683
1.00483 0.997618 0.987561
1.00458 0.998345 0.987427
1.0044 0.998547 0.987505
1.00455 0.998112 0.987772
1.00435 0.998628 0.987581
1.00416 0.998864 0.987728
1.00398 0.998644 0.988319
1.00377 0.999146 0.988188
1.00345 0.999608 0.988357
1.00317 0.999593 0.988904
1.0029 1.00009 0.988943
1.00244 1.00042 0.98949
1.00239 1.00044 0.989439
1.00198 1.00076 0.990027
1.00125 1.00076 0.991383
1.0015 1.0012 0.990325
1.00086 1.00114 0.991772
0.999615 1.00067 0.995224
0.999125 0.999454 0.997041
0.999608 1.00057 0.995037
1.00047 1.00153 0.992163
0.999198 0.998875 0.998828
0.999624 1.00028 0.994985
0.999325 0.998426 0.998909
1.00306 0.99961 0.988915
1.00165 1.00162 0.989523
1.0011 1.00224 0.990041
1.0009 1.00189 0.991026
1.00051 1.00249 0.99085
1.00052 1.00206 0.991549
1.00009 1.0017 0.992726
1.00024 1.00211 0.992005
0.999974 1.00162 0.992978
0.99954 0.999896 0.995508
0.999927 1.00143 0.993269
0.999555 0.999404 0.99593
0.999406 0.998001 0.99905
0.999622 0.998905 0.996298
0.999466 0.99766 0.999167
0.999533 0.997356 0.99924
1.00479 0.997398 0.987766
1.00496 0.996387 0.988883
1.00353 0.997031 0.990373
1.00393 0.999262 0.987717
1.00219 1.00076 0.989834
1.00036 1.0016 0.992167
1.00271 1.00055 0.988815
1.00171 1.00176 0.989657
1.00502 0.998194 0.986786
1.00421 0.999332 0.987109
1.00257 1.00052 0.989118
1.005 0.998006 0.986881
1.00469 0.998949 0.986683
1.00499 0.997162 0.987478
1.00483 0.997685 0.98768
1.00471 0.996867 0.988568
1.00427 0.996703 0.989759
1.00464 0.997375 0.987935
1.00503 0.996992 0.988007
1.00472 0.997815 0.987729
1.00454 0.998586 0.987286
1.00458 0.998398 0.987419
1.00439 0.998601 0.987504
1.00424 0.998949 0.987493
1.00439 0.998612 0.987561
1.00416 0.998863 0.987724
1.00382 0.99923 0.988023
1.00379 0.999148 0.988169
1.00346 0.999609 0.98835
1.00294 1.00001 0.988944
1.00291 1.00008 0.988941
1.00244 1.00041 0.989488
1.00164 1.0005 0.990891
1.00198 1.00076 0.990032
1.00126 1.00077 0.991372
0.999775 1.00056 0.995078
1.00086 1.00116 0.991766
0.99971 1.00064 0.995178
0.99898 1.00002 0.996852
0.999067 0.999483 0.997872
0.999689 1.00049 0.995408
0.999174 0.998994 0.998784
1.00399 0.998933 0.987935
1.00245 1.00058 0.989414
1.00292 0.999374 0.989459
1.00133 1.00164 0.990409
1.00176 1.00165 0.989494
1.00121 1.00222 0.989938
1.00086 1.00193 0.991034
1.0003 1.00165 0.992374
1.00048 1.00206 0.991568
1.00007 1.00169 0.992728
0.999556 1.00029 0.995097
0.999948 1.00163 0.992977
0.999522 0.999884 0.995515
0.999305 0.998408 0.998933
0.99956 0.99935 0.99594
0.999413 0.997951 0.999081
0.999469 0.997614 0.999189
1.00503 0.997676 0.987227
1.00488 0.997377 0.987726
1.00488 0.996538 0.989443
1.00481 0.998264 0.98699
1.00393 0.9993 0.987756
1.00192 1.00081 0.990206
1.00289 1.00046 0.988957
1.00502 0.998178 0.986764
1.00417 0.99941 0.986922
1.00497 0.998053 0.986873
1.0049 0.998052 0.987106
1.00483 0.997706 0.987591
1.00479 0.99682 0.988508
1.00465 0.998709 0.987028
1.00465 0.997847 0.987776
1.00453 0.998577 0.987316
1.00425 0.999096 0.987305
1.00438 0.998661 0.987503
1.00424 0.998955 0.9875
1.00393 0.999251 0.987812
1.00417 0.998862 0.987719
1.00382 0.999234 0.98802
1.00327 0.999664 0.988649
1.00346 0.999609 0.988342
1.00294 1.00001 0.988942
1.00203 1.00025 0.990403
1.00245 1.00041 0.989485
1.00166 1.00049 0.990876
0.999984 1.00036 0.99494
1.00126 1.00077 0.991362
0.999864 1.00055 0.995032
0.998936 1.00023 0.996774
0.999809 1.0006 0.995129
0.998922 1.00009 0.9969
0.998968 0.999472 0.998766
1.00447 0.998862 0.987255
1.00348 0.999467 0.988469
1.00389 0.999029 0.98811
1.00199 1.00098 0.990005
1.00244 1.00047 0.989425
1.0028 0.999152 0.989996
1.00069 1.00146 0.991795
1.00133 1.00165 0.990402
1.00188 1.00168 0.989464
1.00081 1.00197 0.991043
1.00028 1.00165 0.992379
0.999596 1.00061 0.994716
1.00005 1.00166 0.992728
0.999505 1.00035 0.995101
0.999149 0.998946 0.998818
0.999505 0.999868 0.99552
0.999326 0.998323 0.998971
0.99942 0.9979 0.999112
1.00498 0.997895 0.987098
1.00505 0.99765 0.987161
1.00498 0.997351 0.987686
1.00483 0.998159 0.987085
1.00392 0.999342 0.987793
1.00501 0.998144 0.986742
1.00497 0.998239 0.986808
1.00491 0.99813 0.987028
1.00482 0.997722 0.987502
1.00463 0.998567 0.987163
1.00449 0.999014 0.987017
1.00452 0.99857 0.987346
1.00426 0.99913 0.987309
1.00397 0.999402 0.987503
1.00423 0.998959 0.987506
1.00392 0.999258 0.987813
1.0034 0.999628 0.988449
1.00383 0.999235 0.988018
1.00327 0.999664 0.988647
1.00229 0.999995 0.990147
1.00294 1.00001 0.988941
1.00205 1.00023 0.990394
1.00025 1.00012 0.99476
1.00167 1.00049 0.990861
1.00007 1.00037 0.994884
0.999005 1.00024 0.996688
0.999961 1.00052 0.994987
0.998879 1.0003 0.996824
0.998861 1.00019 0.996953
1.00466 0.998298 0.987235
1.00402 0.999141 0.987726
1.00447 0.998819 0.987215
1.00278 1.00009 0.989286
1.00346 0.999528 0.988543
1.00378 0.999119 0.98829
1.00123 1.00095 0.991198
1.00197 1.00092 0.989866
1.00244 1.00036 0.989436
0.999704 1.00078 0.994336
1.00068 1.00145 0.991806
1.00132 1.00167 0.990395
1.00026 1.00165 0.992385
0.999514 1.00072 0.994728
0.99899 0.999555 0.99871
0.999449 1.00043 0.995106
0.999178 0.998834 0.998857
0.999353 0.998243 0.999008
1.00492 0.998181 0.986979
1.00499 0.997887 0.98711
1.00509 0.997633 0.987096
1.00486 0.99805 0.98718
1.00487 0.99862 0.986673
1.00494 0.998286 0.986839
1.00492 0.998212 0.986949
1.00461 0.998416 0.987299
1.00454 0.998963 0.986984
1.0043 0.999321 0.987073
1.00427 0.999164 0.987314
1.00398 0.99943 0.987558
1.0035 0.999674 0.988076
1.00391 0.999267 0.987814
1.0034 0.999629 0.988446
1.00241 0.999907 0.99
1.00327 0.999668 0.988645
1.0023 0.99998 0.990146
1.00041 0.999956 0.993668
1.00206 1.00021 0.990384
1.00029 1.00013 0.994236
0.999144 1.00017 0.998514
1.00015 1.00036 0.994829
0.99894 1.0003 0.99675
0.998813 1.00041 0.996875
1.00466 0.998337 0.987261
1.00414 0.998912 0.987593
1.00465 0.998385 0.987261
1.00332 0.999504 0.988485
1.00399 0.999151 0.987786
1.00446 0.998795 0.987175
1.00181 1.00029 0.990465
1.00278 1.00008 0.989277
1.00343 0.999594 0.988617
0.999923 1.00066 0.993992
1.00124 1.00092 0.991077
1.00196 1.00086 0.989727
0.998939 1.00005 0.99861
0.999619 1.00086 0.994355
1.00067 1.00144 0.991817
0.999432 1.00082 0.994738
0.999011 0.999418 0.998749
0.999212 0.998708 0.998892
1.00487 0.998368 0.986856
1.00495 0.998122 0.986971
1.00499 0.997883 0.987123
1.00477 0.999025 0.986529
1.0049 0.998601 0.986621
1.00491 0.998325 0.98687
1.00458 0.998917 0.98695
1.0043 0.999343 0.987068
1.0039 0.99956 0.987668
1.00399 0.999457 0.987614
1.0035 0.999703 0.98822
1.00259 0.999892 0.989415
1.00339 0.999626 0.988444
1.00242 0.9999 0.989999
1.00049 0.999951 0.993524
1.00231 0.999966 0.990144
1.00041 0.999966 0.993666
0.999218 1.00008 0.998491
1.00031 1.00014 0.993746
0.999115 1.00018 0.997599
0.998876 1.00038 0.996808
1.00464 0.998438 0.987284
1.00425 0.99878 0.987636
1.00465 0.998341 0.987268
1.00354 0.999354 0.988391
1.00417 0.998875 0.987624
1.00462 0.99845 0.987287
1.00228 0.999859 0.990005
1.00334 0.999578 0.988643
1.00398 0.999156 0.987845
1.00019 1.00032 0.993778
1.00186 1.00028 0.990409
1.00279 1.00008 0.989268
0.999005 1.00029 0.998535
0.99987 1.0007 0.994011
1.00125 1.00089 0.990957
0.998915 0.999933 0.998645
0.999543 1.00093 0.994373
0.999024 0.999277 0.998785
1.0047 0.998763 0.986887
1.00487 0.998379 0.986888
1.00497 0.998073 0.986962
1.00429 0.999282 0.987187
1.00472 0.999013 0.986584
1.00492 0.99858 0.986568
1.00429 0.999365 0.987064
1.00389 0.999573 0.98767
1.00299 0.999755 0.988789
1.00351 0.999733 0.988365
1.00257 0.999909 0.989569
1.00063 1.00001 0.993188
1.00243 0.999888 0.989998
1.0005 0.999951 0.993519
0.999291 1.00002 0.998458
1.0004 0.99998 0.993663
0.999241 1.00007 0.998482
0.99915 1.00017 0.996613
1.00437 0.998786 0.987536
1.00461 0.998381 0.98735
1.00373 0.999233 0.988161
1.00426 0.99878 0.987623
1.00465 0.998342 0.987274
1.00254 0.999743 0.989915
1.00357 0.999333 0.988383
1.00419 0.998844 0.987656
1.00041 1.00001 0.993636
1.0023 0.999907 0.990084
1.00336 0.999652 0.9888
0.999131 1.00026 0.998495
1.00016 1.00033 0.993794
1.0019 1.00028 0.990352
0.998959 1.00021 0.998557
0.999814 1.00073 0.994035
0.998893 0.999813 0.998684
1.00419 0.999156 0.987529
1.00467 0.998778 0.986932
1.00487 0.998381 0.98692
1.00327 0.999567 0.988435
1.00428 0.999315 0.987181
1.00467 0.999001 0.986639
1.00388 0.999584 0.987672
1.00294 0.999772 0.988868
1.00087 1.00001 0.99272
1.00254 0.999922 0.989723
1.00065 1.00001 0.993172
0.99938 1.00001 0.998385
1.0005 0.999954 0.993515
0.999319 1.00001 0.998439
0.999271 1.00006 0.998471
1.00392 0.999187 0.987874
1.00438 0.998722 0.987513
1.00458 0.998337 0.987417
1.00274 0.999665 0.989605
1.00374 0.999237 0.988153
1.00428 0.998777 0.987611
1.00058 0.99987 0.993437
1.00254 0.99975 0.989913
1.0036 0.999312 0.988375
0.99927 1.00012 0.998456
1.0004 1.00001 0.993648
1.00231 0.999953 0.990163
0.999083 1.00024 0.998505
1.00013 1.00033 0.993808
0.998904 1.00015 0.998586
1.00322 0.999575 0.988782
1.00421 0.999142 0.987379
1.00464 0.998794 0.986976
1.00105 0.99996 0.992408
1.00324 0.999579 0.988462
1.00427 0.999352 0.987175
1.00288 0.999787 0.988947
1.00089 1.00001 0.992705
0.99954 1.00001 0.998257
1.00067 1.00001 0.993156
0.999434 1.00001 0.998341
0.999351 1 0.998415
1.00299 0.999617 0.989176
1.00394 0.999154 0.987808
1.00438 0.998656 0.987489
1.0008 0.999883 0.994135
1.00274 0.999679 0.989599
1.00376 0.999242 0.988144
0.999403 1 0.998389
1.00058 0.999861 0.993446
1.00254 0.999757 0.98991
0.999227 1.00013 0.99847
1.00038 1.00001 0.993661
0.999036 1.00023 0.998516
1.00112 0.999941 0.992336
1.00321 0.999546 0.988684
1.00423 0.999123 0.987229
0.99969 1 0.99815
1.00107 0.999957 0.9924
1.00322 0.999593 0.988488
1.00091 1 0.992687
0.9996 1.00001 0.998213
0.999494 0.999999 0.998296
1.00103 0.999931 0.993709
1.00299 0.999617 0.989177
1.00397 0.999119 0.987742
0.999358 0.999975 0.998442
1.00073 0.999884 0.99315
1.00274 0.999687 0.989594
0.999356 1.00002 0.998415
1.00057 0.999856 0.993456
0.999181 1.00014 0.998481
0.999722 1.00001 0.995775
1.00111 0.999945 0.992964
1.00321 0.999523 0.988587
0.999711 0.999997 0.998131
1.00107 0.999952 0.992397
0.99965 1 0.998173
0.99947 0.999967 0.996122
1.00095 0.999948 0.993259
1.00299 0.999617 0.989178
0.999416 0.999971 0.997318
1.00073 0.999896 0.993131
0.999322 1.00004 0.998438
0.99973 0.999993 0.998117
1.00106 0.999945 0.992421
0.999732 0.999993 0.998116
0.99956 0.999994 0.997124
1.00091 0.999956 0.992726
0.999439 0.999991 0.998361
0.999689 0.999989 0.998152
0.999569 0.999989 0.998253

TENSORS stress float
0.00118281 1.15948e-05 5.78175e-05
1.15948e-05 0.000274722 -6.94706e-06
5.78175e-05 -6.94706e-06 0.000255051
0.00310992 -7.87522e-05 5.24191e-05
-7.87522e-05 0.00126777 3.24901e-06
5.24191e-05 3.24901e-06 0.00126458
0.00118572 3.6058e-05 2.65804e-05
3.6058e-05 0.000283584 -2.23707e-06
2.65804e-05 -2.23707e-06 0.000260412
0.00151596 -5.82576e-06 7.44066e-05
-5.82576e-06 0.000428608 -5.59865e-06
7.44066e-05 -5.59865e-06 0.000406921
0.0012582 -1.56577e-06 6.39383e-05
-1.56577e-06 0.000316862 -6.94544e-06
6.39383e-05 -6.94544e-06 0.000296091
0.00113961 3.32877e-05 4.77869e-05
3.32877e-05 0.000241411 -6.66049e-06
4.77869e-05 -6.66049e-06 0.000223641
0.00110225 8.1856e-07 8.52946e-06
8.1856e-07 0.000189945 -3.43724e-06
8.52946e-06 -3.43724e-06 0.000144765
0.00307974 -8.54983e-05 1.5348e-06
-8.54983e-05 0.00124917 -2.40425e-07
1.5348e-06 -2.40425e-07 0.00124601
0.00372166 -0.00015478 3.32089e-06
-0.00015478 0.00162967 1.87003e-06
3.32089e-06 1.87003e-06 0.00160832
0.00309767 -0.000113593 1.26724e-05
-0.000113593 0.00128425 1.40372e-06
1.26724e-05 1.40372e-06 0.00127284
0.0011054 -3.73408e-05 3.99862e-05
-3.73408e-05 0.000196174 4.0797e-06
3.99862e-05 4.0797e-06 0.000188605
0.000752227 9.66192e-06 6.99325e-06
9.66192e-06 -2.52108e-06 4.03815e-06
6.99325e-06 4.03815e-06 -4.12675e-05
0.0017162 -7.92797e-06 8.99636e-05
-7.92797e-06 0.000512224 4.93827e-07
8.99636e-05 4.93827e-07 0.000489907
0.00132544 -3.67402e-06 1.36202e-05
-3.67402e-06 0.000330462 1.06808e-06
1.36202e-05 1.06808e-06 0.00030674
0.00121347 6.69682e-05 -5.094e-06
6.69682e-05 0.000306629 2.44765e-06
-5.094e-06 2.44765e-06 0.00027911
0.00143647 1.50316e-05 3.32683e-05
1.50316e-05 0.000393407 -1.93644e-06
3.32683e-05 -1.93644e-06 0.000369603
0.00112823 4.35049e-05 2.18828e-05
4.35049e-05 0.000240122 -2.27903e-06
2.18828e-05 -2.27903e-06 0.000220651
0.00125972 3.1702e-05 3.05029e-05
3.1702e-05 0.000325886 -2.07088e-06
3.05029e-05 -2.07088e-06 0.000300995
0.00119601 -5.94257e-06 -1.11136e-05
-5.94257e-06 0.000234451 3.77055e-07
-1.11136e-05 3.77055e-07 0.000190946
0.00475241 5.06643e-06 9.14294e-05
5.06643e-06 0.00210792 -8.88891e-07
9.14294e-05 -8.88891e-07 0.00210205
0.00161626 -2.30159e-06 7.89837e-05
-2.30159e-06 0.000470371 -4.26043e-06
7.89837e-05 -4.26043e-06 0.000449078
0.00137201 -4.8916e-06 6.87462e-05
-4.8916e-06 0.000368443 -6.57628e-06
6.87462e-05 -6.57628e-06 0.000346854
0.00140448 -1.28154e-05 1.44762e-05
-1.28154e-05 0.000285828 -3.30744e-06
1.44762e-05 -3.30744e-06 0.000238444
0.0011878 -5.5866e-07 8.75551e-06
-5.5866e-07 0.000221523 -3.94093e-06
8.75551e-06 -3.94093e-06 0.00017453
0.0011535 4.18035e-05 3.99734e-05
4.18035e-05 0.00023067 -6.65011e-06
3.99734e-05 -6.65011e-06 0.000217701
0.00102988 7.71967e-06 7.99558e-06
7.71967e-06 0.000159565 -2.95548e-06
7.99558e-06 -2.95548e-06 0.000117995
0.00145905 -7.23683e-05 3.26619e-06
-7.23683e-05 0.000291875 -1.0889e-06
3.26619e-06 -1.0889e-06 0.000220523
0.00303948 -8.83176e-05 -4.34681e-05
-8.83176e-05 0.00122478 -3.22148e-06
-4.34681e-05 -3.22148e-06 0.0012221
0.0024461 -6.56289e-05 -2.74193e-05
-6.56289e-05 0.000948709 -6.84843e-07
-2.74193e-05 -6.84843e-07 0.000928796
0.00216525 -7.31978e-05 -2.05911e-05
-7.31978e-05 0.000788565 -5.94034e-07
-2.05911e-05 -5.94034e-07 0.000773995
0.00288706 -7.92249e-05 8.81124e-07
-7.92249e-05 0.0011341 -1.30137e-07
8.81124e-07 -1.30137e-07 0.00113507
0.000701216 1.76515e-06 -8.98409e-08
1.76515e-06 -2.43133e-05 -1.22872e-07
-8.98409e-08 -1.22872e-07 -6.37489e-05
0.00161076 1.43855e-05 6.99025e-05
1.43855e-05 0.000491003 4.13598e-06
6.99025e-05 4.13598e-06 0.000469538
0.00151961 -5.46083e-06 5.94175e-05
-5.46083e-06 0.00045293 4.63231e-06
5.94175e-05 4.63231e-06 0.000432807
0.00208889 5.11386e-05 3.72104e-05
5.11386e-05 0.000679193 4.29874e-06
3.72104e-05 4.29874e-06 0.000638747
0.00269123 -8.13689e-05 1.35849e-05
-8.13689e-05 0.0010219 1.41725e-06
1.35849e-05 1.41725e-06 0.00102565
0.00182434 1.37416e-05 2.84916e-05
1.37416e-05 0.00056036 3.32046e-06
2.84916e-05 3.32046e-06 0.000524831
0.000697841 -2.47039e-05 7.09977e-06
-2.47039e-05 -2.80681e-05 6.13432e-06
7.09977e-06 6.13432e-06 -6.3709e-05
0.000908526 4.61854e-05 3.51595e-06
4.61854e-05 4.96633e-05 7.83262e-07
3.51595e-06 7.83262e-07 -2.13443e-05
0.00252526 -5.78125e-05 3.45662e-05
-5.78125e-05 0.000920991 3.51712e-06
3.45662e-05 3.51712e-06 0.000931287
0.00480428 -1.55688e-05 2.19482e-06
-1.55688e-05 0.00213379 -3.62435e-07
2.19482e-06 -3.62435e-07 0.00212779
0.00291302 -8.47046e-06 -3.5234e-05
-8.47046e-06 0.00115877 -7.21092e-07
-3.5234e-05 -7.21092e-07 0.00114371
0.00506258 -5.2626e-06 9.91155e-05
-5.2626e-06 0.00225918 2.20197e-07
9.91155e-05 2.20197e-07 0.00225323
0.00134837 2.46957e-06 1.28985e-05
2.46957e-06 0.000336573 6.29068e-07
1.28985e-05 6.29068e-07 0.000312109
0.00079677 -5.69821e-06 1.37142e-05
-5.69821e-06 -7.07914e-05 1.63829e-06
1.37142e-05 1.63829e-06 -0.000123963
0.00422675 -5.58416e-05 1.95393e-05
-5.58416e-05 0.0018602 9.18517e-07
1.95393e-05 9.18517e-07 0.00184914
0.0022855 3.0259e-06 4.63888e-05
3.0259e-06 0.000731808 2.68275e-06
4.63888e-05 2.68275e-06 0.000693466
0.00135785 1.57514e-05 -1.27509e-05
1.57514e-05 0.000357542 1.8886e-06
-1.27509e-05 1.8886e-06 0.000332418
0.00128949 7.20014e-05 -2.76876e-06
7.20014e-05 0.00035191 2.71576e-06
-2.76876e-06 2.71576e-06 0.000321719
0.00111407 6.12606e-05 -6.97721e-06
6.12606e-05 0.000238019 2.04901e-06
-6.97721e-06 2.04901e-06 0.000215956
0.00125836 -1.59104e-05 -3.09228e-05
-1.59104e-05 0.000262008 4.17307e-06
-3.09228e-05 4.17307e-06 0.000220629
0.00316256 4.19913e-05 -3.6919e-05
4.19913e-05 0.00127682 -1.01038e-06
-3.6919e-05 -1.01038e-06 0.00125919
0.00148801 9.53968e-06 3.3499e-05
9.53968e-06 0.000408588 -1.45051e-06
3.3499e-05 -1.45051e-06 0.000385636
0.00109879 4.83095e-05 1.67386e-05
4.83095e-05 0.000204537 -2.34644e-06
1.67386e-05 -2.34644e-06 0.00019089
0.00134401 2.88444e-05 3.34693e-05
2.88444e-05 0.0003623 -1.99886e-06
3.34693e-05 -1.99886e-06 0.000336989
0.00146733 -2.25167e-05 -1.20202e-05
-2.25167e-05 0.000315749 1.47696e-07
-1.20202e-05 1.47696e-07 0.000270061
0.00111138 5.97543e-06 -8.43843e-06
5.97543e-06 0.000198665 3.77106e-07
-8.43843e-06 3.77106e-07 0.000158222
0.00128179 -1.09247e-05 -1.28576e-05
-1.09247e-05 0.000265622 2.94485e-07
-1.28576e-05 2.94485e-07 0.00022069
0.00157523 -7.71039e-05 -1.95657e-06
-7.71039e-05 0.000348567 6.73967e-07
-1.95657e-06 6.73967e-07 0.000276338
0.00491993 3.90213e-05 9.05577e-05
3.90213e-05 0.00219058 1.39278e-07
9.05577e-05 1.39278e-07 0.00218384
0.00163626 5.19595e-06 8.21132e-05
5.19595e-06 0.000476701 -3.07585e-06
8.21132e-05 -3.07585e-06 0.000455183
0.00224654 3.58212e-05 1.17732e-05
3.58212e-05 0.00069659 -1.04676e-06
1.17732e-05 -1.04676e-06 0.00065127
0.00147234 -1.45499e-05 1.68643e-05
-1.45499e-05 0.000305115 -2.35468e-06
1.68643e-05 -2.35468e-06 0.000258593
0.00128916 -7.61674e-07 1.00991e-05
-7.61674e-07 0.000253032 -4.04397e-06
1.00991e-05 -4.04397e-06 0.000204903
0.00189366 -6.7708e-05 5.4786e-06
-6.7708e-05 0.000398145 -1.83481e-06
5.4786e-06 -1.83481e-06 0.000319838
0.00120068 -6.60886e-05 4.767e-06
-6.60886e-05 0.000121229 -2.21335e-06
4.767e-06 -2.21335e-06 4.66303e-05
0.00123482 4.29511e-05 3.75368e-05
4.29511e-05 0.000251789 -6.4893e-06
3.75368e-05 -6.4893e-06 0.000245431
0.00100495 3.29011e-05 6.17676e-06
3.29011e-05 0.000148412 -2.72804e-06
6.17676e-06 -2.72804e-06 0.000112943
0.00130142 -6.02738e-05 2.49708e-06
-6.02738e-05 0.000244138 -7.43006e-07
2.49708e-06 -7.43006e-07 0.000175471
0.00111701 -8.23613e-05 2.23254e-06
-8.23613e-05 6.06512e-05 -4.78753e-07
2.23254e-06 -4.78753e-07 -2.96974e-05
0.00365508 -9.38456e-05 -5.43758e-05
-9.38456e-05 0.00158323 -3.41718e-06
-5.43758e-05 -3.41718e-06 0.00157032
0.00288412 -8.02933e-05 -4.00205e-05
-8.02933e-05 0.00112902 -3.26699e-06
-4.00205e-05 -3.26699e-06 0.00113104
0.00316658 -9.38312e-05 -4.75284e-05
-9.38312e-05 0.00130957 -3.03019e-06
-4.75284e-05 -3.03019e-06 0.00130252
0.000655474 2.10018e-06 -5.89596e-06
2.10018e-06 -4.45627e-05 -4.65185e-06
-5.89596e-06 -4.65185e-06 -8.38288e-05
0.00422688 -5.4239e-05 -2.79076e-06
-5.4239e-05 0.00186569 -1.02383e-07
-2.79076e-06 -1.02383e-07 0.00185546
0.00354854 -8.6297e-05 1.92863e-06
-8.6297e-05 0.00152471 -1.75962e-07
1.92863e-06 -1.75962e-07 0.00151382
0.000646241 5.3859e-05 -2.75376e-07
5.3859e-05 -7.08753e-05 -1.41972e-07
-2.75376e-07 -1.41972e-07 -0.000119254
0.00187566 -5.90589e-05 -1.53812e-05
-5.90589e-05 0.000591126 -8.10089e-07
-1.53812e-05 -8.10089e-07 0.000591614
0.000679228 2.40079e-05 -2.12141e-07
2.40079e-05 -3.5359e-05 -7.94091e-08
-2.12141e-07 -7.94091e-08 -7.81603e-05
0.00115322 -3.00667e-05 8.43004e-06
-3.00667e-05 0.000211486 4.98865e-07
8.43004e-06 4.98865e-07 0.000180322
0.000867812 4.60509e-05 1.42586e-07
4.60509e-05 2.74761e-05 -2.27295e-07
1.42586e-07 -2.27295e-07 -4.28821e-05
0.00263536 -6.41222e-05 3.74293e-05
-6.41222e-05 0.000984281 3.472e-06
3.74293e-05 3.472e-06 0.000992237
0.00074553 -4.48371e-05 2.51358e-06
-4.48371e-05 -2.06977e-05 4.14015e-06
2.51358e-06 4.14015e-06 -3.9172e-05
0.000786364 5.21513e-05 1.31838e-05
5.21513e-05 -2.30593e-05 5.56364e-06
1.31838e-05 5.56364e-06 -7.26099e-05
0.000787786 4.45729e-05 1.10145e-05
4.45729e-05 1.1621e-05 6.41081e-06
1.10145e-05 6.41081e-06 -3.52226e-05
0.00103675 6.70056e-05 5.40226e-06
6.70056e-05 2.65804e-05 2.06188e-06
5.40226e-06 2.06188e-06 -5.18556e-05
0.0015622 -5.26027e-05 1.8257e-05
-5.26027e-05 0.000423203 3.62115e-06
1.8257e-05 3.62115e-06 0.000399931
0.000954211 6.16548e-05 3.67277e-06
6.16548e-05 5.44888e-05 1.12364e-06
3.67277e-06 1.12364e-06 -1.68226e-05
0.000888887 3.19461e-05 3.39443e-06
3.19461e-05 5.10174e-05 1.66228e-06
3.39443e-06 1.66228e-06 -1.85356e-05
0.000899892 7.57609e-05 2.01527e-06
7.57609e-05 1.54446e-05 -4.75389e-07
2.01527e-06 -4.75389e-07 -7.00299e-05
0.00237846 -5.16357e-05 3.07073e-05
-5.16357e-05 0.00083763 3.5843e-06
3.07073e-05 3.5843e-06 0.000850396
0.00248699 -5.7936e-05 6.16577e-07
-5.7936e-05 0.000900635 -9.379e-08
6.16577e-07 -9.379e-08 0.000911209
0.00441919 -8.56323e-06 -8.10798e-05
-8.56323e-06 0.00194833 -2.26613e-06
-8.10798e-05 -2.26613e-06 0.00194218
0.00470377 -1.56972e-05 -8.69491e-05
-1.56972e-05 0.00208524 -8.2434e-07
-8.69491e-05 -8.2434e-07 0.00207914
0.00499836 3.97023e-06 3.66906e-06
3.97023e-06 0.00222903 -4.58929e-07
3.66906e-06 -4.58929e-07 0.00222249
0.00299225 -9.53772e-06 -3.61034e-05
-9.53772e-06 0.00119462 -5.26193e-07
-3.61034e-05 -5.26193e-07 0.00117905
0.00159243 5.84018e-06 2.02931e-05
5.84018e-06 0.000348708 1.61295e-07
2.02931e-05 1.61295e-07 0.000301289
0.00278689 -2.66672e-05 -3.56696e-05
-2.66672e-05 0.00110356 -7.35997e-07
-3.56696e-05 -7.35997e-07 0.00108719
0.00148508 2.06553e-05 1.77157e-05
2.06553e-05 0.000316065 2.78508e-07
1.77157e-05 2.78508e-07 0.000272664
0.00510249 6.42266e-05 9.26889e-05
6.42266e-05 0.00228084 1.20315e-06
9.26889e-05 1.20315e-06 0.00227307
0.000786513 -4.96435e-07 1.2177e-05
-4.96435e-07 -8.95116e-05 1.98246e-07
1.2177e-05 1.98246e-07 -0.000145061
0.00232238 -1.87107e-05 4.86232e-05
-1.87107e-05 0.000742258 1.75517e-06
4.86232e-05 1.75517e-06 0.000702312
0.0012454 1.3113e-05 7.17627e-06
1.3113e-05 1.03286e-05 1.31128e-06
7.17627e-06 1.31128e-06 -7.52378e-05
0.00219372 4.30096e-05 4.3238e-05
4.30096e-05 0.00069854 3.07755e-06
4.3238e-05 3.07755e-06 0.00065945
0.00118955 4.07876e-05 7.15103e-06
4.07876e-05 1.55966e-05 1.27896e-06
7.15103e-06 1.27896e-06 -6.68626e-05
0.00170305 1.7135e-05 -8.83992e-05
1.7135e-05 0.0005052 3.97436e-07
-8.83992e-05 3.97436e-07 0.000482998
0.0013448 2.9613e-06 -1.46922e-05
2.9613e-06 0.000338765 1.40048e-06
-1.46922e-05 1.40048e-06 0.000314433
0.000994594 5.52996e-05 -7.79484e-06
5.52996e-05 0.000152909 1.74582e-06
-7.79484e-06 1.74582e-06 0.000138498
0.00134123 3.85183e-05 -8.17411e-06
3.85183e-05 0.000365521 2.29426e-06
-8.17411e-06 2.29426e-06 0.000338965
0.00153134 -2.19561e-05 -4.07592e-05
-2.19561e-05 0.000346845 3.69639e-06
-4.07592e-05 3.69639e-06 0.000302429
0.00133744 -2.39352e-05 -3.43121e-05
-2.39352e-05 0.000288429 4.36513e-06
-3.43121e-05 4.36513e-06 0.000246269
0.00119178 -7.77035e-08 -2.65269e-05
-7.77035e-08 0.000236746 3.73478e-06
-2.65269e-05 3.73478e-06 0.000197885
0.0017169 -8.21089e-05 -7.63126e-06
-8.21089e-05 0.000418375 2.65415e-06
-7.63126e-06 2.65415e-06 0.000345229
0.00500039 2.18771e-05 -3.30604e-06
2.18771e-05 0.00222922 -4.32689e-07
-3.30604e-06 -4.32689e-07 0.00222284
0.00149386 8.44523e-06 3.47136e-05
8.44523e-06 0.0004072 -8.82279e-07
3.47136e-05 -8.82279e-07 0.000384183
0.0011633 9.38268e-06 -2.22946e-05
9.38268e-06 0.000122958 2.87106e-07
-2.22946e-05 2.87106e-07 7.31325e-05
0.00151329 -1.82057e-05 -1.23899e-05
-1.82057e-05 0.000324381 1.50384e-07
-1.23899e-05 1.50384e-07 0.000279052
0.00200461 6.00498e-05 2.8914e-05
6.00498e-05 0.000661019 -1.66869e-06
2.8914e-05 -1.66869e-06 0.000659184
0.00129399 3.02424e-05 -5.706e-06
3.02424e-05 0.000296028 3.72698e-07
-5.706e-06 3.72698e-07 0.000261715
0.00137408 -1.96539e-05 -1.22361e-05
-1.96539e-05 0.000291589 2.26774e-07
-1.22361e-05 2.26774e-07 0.000246491
0.00172662 -6.31255e-05 -3.8109e-06
-6.31255e-05 0.000310242 6.76405e-07
-3.8109e-06 6.76405e-07 0.000230793
0.00146134 -6.8208e-05 -1.5842e-06
-6.8208e-05 0.000323494 6.9738e-07
-1.5842e-06 6.9738e-07 0.000253592
0.00144966 -7.23986e-05 -8.92506e-07
-7.23986e-05 0.000249447 1.12009e-07
-8.92506e-07 1.12009e-07 0.000175392
0.00112383 -8.20563e-05 -3.08151e-08
-8.20563e-05 6.39274e-05 1.17378e-08
-3.08151e-08 1.17378e-08 -2.62629e-05
0.000761195 2.97966e-06 1.20782e-05
2.97966e-06 -9.90745e-05 -1.67093e-06
1.20782e-05 -1.67093e-06 -0.000154294
0.00147772 -8.45625e-06 1.67728e-05
-8.45625e-06 0.000302108 -1.81793e-06
1.67728e-05 -1.81793e-06 0.000255746
0.00162722 -6.29093e-07 6.61013e-06
-6.29093e-07 0.000209502 -1.28122e-06
6.61013e-06 -1.28122e-06 0.000127279
0.00154886 -4.64779e-05 6.75427e-06
-4.64779e-05 0.000195396 -1.2301e-06
6.75427e-06 -1.2301e-06 0.000115899
0.00140356 -6.74702e-05 5.90832e-06
-6.74702e-05 0.000181349 -2.61049e-06
5.90832e-06 -2.61049e-06 0.00010319
0.00181048 -7.74495e-05 1.93134e-06
-7.74495e-05 0.000276208 -5.56543e-07
1.93134e-06 -5.56543e-07 0.000180219
0.00280916 7.23147e-05 3.85768e-05
7.23147e-05 0.00107489 -3.21138e-06
3.85768e-05 -3.21138e-06 0.0010811
0.00113305 -7.85931e-05 2.20665e-06
-7.85931e-05 3.0073e-05 -7.03258e-07
2.20665e-06 -7.03258e-07 -6.08819e-05
0.00069923 6.05264e-05 2.21874e-06
6.05264e-05 -2.4583e-05 -4.20565e-06
2.21874e-06 -4.20565e-06 -5.90584e-05
0.000720467 -3.96084e-05 2.47045e-06
-3.96084e-05 -3.55141e-05 -9.05105e-07
2.47045e-06 -9.05105e-07 -0.000102987
0.00120259 -8.89646e-05 2.16044e-06
-8.89646e-05 0.000144981 -7.27831e-07
2.16044e-06 -7.27831e-07 5.42508e-05
0.00123075 -9.20929e-05 9.67199e-07
-9.20929e-05 8.33235e-05 1.07773e-07
9.67199e-07 1.07773e-07 -1.4361e-05
0.000664525 4.71837e-05 3.25469e-06
4.71837e-05 -6.10375e-05 -4.18462e-06
3.25469e-06 -4.18462e-06 -8.40012e-05
0.000843501 2.43287e-05 1.26753e-06
2.43287e-05 1.34065e-05 -2.37611e-06
1.26753e-06 -2.37611e-06 -3.78662e-05
0.00400553 -5.29041e-05 -6.61965e-05
-5.29041e-05 0.00175291 -3.1184e-06
-6.61965e-05 -3.1184e-06 0.00174365
0.00333623 -9.58029e-05 -5.07132e-05
-9.58029e-05 0.00141319 -3.02836e-06
-5.07132e-05 -3.02836e-06 0.00140273
0.000597698 4.75426e-05 -8.9367e-06
4.75426e-05 -9.39261e-05 -5.02956e-06
-8.9367e-06 -5.02956e-06 -0.000142131
0.0027591 -7.21119e-05 -3.79704e-05
-7.21119e-05 0.00105426 -3.26449e-06
-3.79704e-05 -3.26449e-06 0.00105996
0.000630713 -4.64224e-05 -2.18438e-06
-4.64224e-05 -5.78748e-05 -4.8878e-06
-2.18438e-06 -4.8878e-06 -9.32305e-05
0.00061697 2.11032e-05 -7.07181e-06
2.11032e-05 -6.2057e-05 -4.36094e-06
-7.07181e-06 -4.36094e-06 -0.000105481
0.000838425 4.55866e-05 -3.40947e-06
4.55866e-05 1.13332e-05 -1.17844e-06
-3.40947e-06 -1.17844e-06 -5.86781e-05
0.00263173 -6.44787e-05 5.38789e-07
-6.44787e-05 0.000982092 -1.15675e-07
5.38789e-07 -1.15675e-07 0.000990232
0.000721655 -4.23273e-05 1.46366e-07
-4.23273e-05 -3.43491e-05 5.53983e-08
1.46366e-07 5.53983e-08 -5.21509e-05
0.00137026 5.15264e-05 1.52545e-05
5.15264e-05 0.00028543 1.40734e-07
1.52545e-05 1.40734e-07 0.000240925
0.00122745 3.52824e-05 1.25978e-05
3.52824e-05 0.000247591 2.28214e-07
1.25978e-05 2.28214e-07 0.000205314
0.00101643 6.69889e-05 3.16005e-07
6.69889e-05 1.69008e-05 -2.04441e-08
3.16005e-07 -2.04441e-08 -6.14008e-05
0.000713263 -5.61372e-05 4.90765e-08
-5.61372e-05 -2.21918e-05 6.88603e-08
4.90765e-08 6.88603e-08 -5.1159e-05
0.000904271 5.8988e-05 4.39163e-08
5.8988e-05 2.88297e-05 2.44101e-07
4.39163e-08 2.44101e-07 -4.21505e-05
0.000849545 2.65496e-05 2.038e-07
2.65496e-05 3.12713e-05 -2.73712e-07
2.038e-07 -2.73712e-07 -3.82505e-05
0.000858422 7.40808e-05 -6.64731e-08
7.40808e-05 -6.74495e-06 -1.72968e-07
-6.64731e-08 -1.72968e-07 -9.24418e-05
0.000717385 -5.11166e-05 2.32563e-06
-5.11166e-05 -2.6869e-05 4.29189e-06
2.32563e-06 4.29189e-06 -5.05616e-05
0.000772715 -3.7722e-05 2.84774e-06
-3.7722e-05 -1.61112e-05 3.86931e-06
2.84774e-06 3.86931e-06 -2.94914e-05
0.000791835 -4.95632e-06 2.56049e-06
-4.95632e-06 -8.83164e-06 2.32787e-06
2.56049e-06 2.32787e-06 -5.92516e-05
0.00108453 6.07333e-05 6.21827e-06
6.07333e-05 1.00994e-05 1.93779e-06
6.21827e-06 1.93779e-06 -7.07114e-05
0.000999299 6.76886e-05 4.41457e-06
6.76886e-05 4.95782e-05 1.78439e-06
4.41457e-06 1.78439e-06 -2.50926e-05
0.00121674 8.55249e-05 3.00535e-06
8.55249e-05 6.42222e-05 9.62432e-07
3.00535e-06 9.62432e-07 -3.10958e-05
0.000867196 1.88919e-05 2.89507e-06
1.88919e-05 3.70406e-05 2.06976e-06
2.89507e-06 2.06976e-06 -2.73655e-05
0.000935311 7.87864e-05 1.60122e-06
7.87864e-05 7.92176e-06 -1.09628e-07
1.60122e-06 -1.09628e-07 -7.75295e-05
0.00105275 7.74658e-05 2.1743e-06
7.74658e-05 0.000116804 1.82706e-07
2.1743e-06 1.82706e-07 2.98844e-05
0.00105796 9.02646e-05 -5.32186e-08
9.02646e-05 8.90455e-05 -1.29765e-06
-5.32186e-08 -1.29765e-06 -4.38133e-06
0.00226818 -4.59557e-05 2.7136e-05
-4.59557e-05 0.000772197 3.62457e-06
2.7136e-05 3.62457e-06 0.000787315
0.00234991 -5.18362e-05 5.77343e-07
-5.18362e-05 0.000821822 -7.65188e-08
5.77343e-07 -7.65188e-08 0.000834884
0.00245109 -5.80399e-05 -3.10425e-05
-5.80399e-05 0.000881336 -3.39533e-06
-3.10425e-05 -3.39533e-06 0.000892216
0.000704474 3.91289e-05 3.22423e-06
3.91289e-05 -4.79513e-05 -3.85549e-06
3.22423e-06 -3.85549e-06 -6.56414e-05
0.0026828 6.52548e-05 3.553e-05
6.52548e-05 0.00100351 -3.31987e-06
3.553e-05 -3.31987e-06 0.00101216
0.00425528 -2.16051e-05 -7.55787e-05
-2.16051e-05 0.00187126 -2.77566e-06
-7.55787e-05 -2.77566e-06 0.00186415
0.00454025 -3.18518e-06 -8.43417e-05
-3.18518e-06 0.00200584 -1.61121e-06
-8.43417e-05 -1.61121e-06 0.00199995
0.000696994 2.84828e-05 -1.11545e-05
2.84828e-05 -9.62585e-05 -2.60064e-06
-1.11545e-05 -2.60064e-06 -0.000144125
0.000737099 1.74019e-05 -1.17647e-05
1.74019e-05 -9.64389e-05 -1.30226e-06
-1.17647e-05 -1.30226e-06 -0.000149039
0.00492559 -2.00202e-05 -8.99241e-05
-2.00202e-05 0.00219321 -8.51168e-08
-8.99241e-05 -8.51168e-08 0.00218689
0.00510385 1.64263e-05 -1.03893e-06
1.64263e-05 0.00227987 4.42636e-07
-1.03893e-06 4.42636e-07 0.00227343
0.000768179 1.3082e-06 -2.68746e-08
1.3082e-06 -9.75472e-05 -2.74274e-07
-2.68746e-08 -2.74274e-07 -0.000153069
0.00154302 4.68891e-06 1.90118e-05
4.68891e-06 0.000336759 3.0669e-07
1.90118e-05 3.0669e-07 0.000292191
0.00123629 1.66959e-05 1.28884e-07
1.66959e-05 6.28378e-06 7.32994e-08
1.28884e-07 7.32994e-08 -7.93364e-05
0.00066261 3.84796e-05 1.49873e-08
3.84796e-05 -0.000100888 -6.79327e-08
1.49873e-08 -6.79327e-08 -0.000148752
0.00118806 4.23374e-05 5.06116e-08
4.23374e-05 1.56558e-05 -1.84424e-07
5.06116e-08 -1.84424e-07 -6.70112e-05
0.000763969 -4.89705e-06 1.23778e-05
-4.89705e-06 -0.000106836 -9.14805e-07
1.23778e-05 -9.14805e-07 -0.000163673
0.00129154 6.4331e-06 7.39616e-06
6.4331e-06 1.0793e-05 6.38531e-07
7.39616e-06 6.38531e-07 -7.88682e-05
0.00121851 2.6803e-05 7.14742e-06
2.6803e-05 1.53569e-05 1.16248e-06
7.14742e-06 1.16248e-06 -6.75958e-05
0.00148665 1.51554e-05 3.01103e-06
1.51554e-05 5.81418e-05 9.85656e-07
3.01103e-06 9.85656e-07 -4.07594e-05
0.00114183 5.13519e-05 6.78429e-06
5.13519e-05 1.00946e-05 1.7391e-06
6.78429e-06 1.7391e-06 -7.18903e-05
0.00141959 4.675e-05 3.04557e-06
4.675e-05 6.01172e-05 7.37549e-08
3.04557e-06 7.37549e-08 -3.52053e-05
0.00505581 2.8536e-05 -0.000100463
2.8536e-05 0.00225597 -7.43556e-07
-0.000100463 -7.43556e-07 0.00224966
0.00132874 -3.16245e-06 -1.35848e-05
-3.16245e-06 0.000325662 9.72333e-07
-1.35848e-05 9.72333e-07 0.000301302
3.37315e-05 8.75361e-07 -1.25481e-05
8.75361e-07 -0.000471397 2.43372e-06
-1.25481e-05 2.43372e-06 -0.000528982
0.00157237 -1.32865e-05 -4.28668e-05
-1.32865e-05 0.000353324 2.646e-06
-4.28668e-05 2.646e-06 0.000308963
0.00272378 8.80593e-05 -1.41286e-05
8.80593e-05 0.00104569 1.30608e-06
-1.41286e-05 1.30608e-06 0.0010465
0.00161649 2.09261e-05 -2.15987e-05
2.09261e-05 0.000458238 3.65881e-06
-2.15987e-05 3.65881e-06 0.000427146
0.0014368 -2.60173e-05 -3.76139e-05
-2.60173e-05 0.000320356 4.28462e-06
-3.76139e-05 4.28462e-06 0.000277095
0.00155748 -5.8868e-05 -1.21777e-05
-5.8868e-05 0.000221233 3.06516e-06
-1.21777e-05 3.06516e-06 0.000140657
0.00172084 -7.94612e-05 -7.50497e-06
-7.94612e-05 0.000389471 2.53664e-06
-7.50497e-06 2.53664e-06 0.000315845
0.00162709 -7.5675e-05 -6.40106e-06
-7.5675e-05 0.000406057 2.30857e-06
-6.40106e-06 2.30857e-06 0.000334895
0.00113239 -8.18632e-05 -1.81629e-06
-8.18632e-05 6.81153e-05 3.83484e-07
-1.81629e-06 3.83484e-07 -2.19305e-05
0.00076783 4.67092e-06 -8.47019e-08
4.67092e-06 -9.69831e-05 -2.58127e-07
-8.47019e-08 -2.58127e-07 -0.000152223
0.00152611 -7.34363e-06 -1.34569e-05
-7.34363e-06 0.000325116 7.8627e-08
-1.34569e-05 7.8627e-08 0.000279834
0.00125438 -1.2072e-06 -2.47733e-06
-1.2072e-06 1.52902e-05 7.87975e-08
-2.47733e-06 7.87975e-08 -6.91335e-05
0.0017709 -4.85227e-05 -1.97895e-06
-4.85227e-05 0.000310888 2.24094e-07
-1.97895e-06 2.24094e-07 0.000232224
0.00276965 7.1489e-05 -5.36832e-07
7.1489e-05 0.00105582 -1.28961e-07
-5.36832e-07 -1.28961e-07 0.00106175
0.00113037 4.30538e-05 1.48434e-06
4.30538e-05 0.000198227 1.48624e-07
1.48434e-06 1.48624e-07 0.000168454
0.0010961 -3.90832e-05 7.46855e-08
-3.90832e-05 0.000157704 -7.70076e-08
7.46855e-08 -7.70076e-08 9.01638e-05
0.00141236 -6.68964e-05 -1.6569e-06
-6.68964e-05 0.000187222 1.74383e-07
-1.6569e-06 1.74383e-07 0.000109114
0.00150356 -7.11421e-05 -1.56923e-06
-7.11421e-05 0.000115557 5.20439e-07
-1.56923e-06 5.20439e-07 1.83192e-05
0.00100795 -8.13891e-05 -2.89233e-07
-8.13891e-05 4.65958e-05 -1.42037e-07
-2.89233e-07 -1.42037e-07 -4.39422e-05
0.00137558 -8.41433e-05 1.09554e-07
-8.41433e-05 0.000152678 9.30806e-08
1.09554e-07 9.30806e-08 6.21516e-05
0.00122339 -9.13714e-05 1.06222e-07
-9.13714e-05 7.97201e-05 7.48119e-08
1.06222e-07 7.48119e-08 -1.77606e-05
0.000682807 4.96712e-05 -1.76063e-07
4.96712e-05 -4.94719e-05 3.24452e-08
-1.76063e-07 3.24452e-08 -7.31847e-05
0.000818574 2.2301e-05 -3.11544e-07
2.2301e-05 -1.87609e-08 8.32533e-08
-3.11544e-07 8.32533e-08 -5.11897e-05
0.00127135 -5.39263e-07 7.06733e-06
-5.39263e-07 -4.47284e-07 -1.59091e-06
7.06733e-06 -1.59091e-06 -8.9821e-05
0.00156487 -1.81934e-05 6.50338e-06
-1.81934e-05 0.000194108 -1.05862e-06
6.50338e-06 -1.05862e-06 0.000115372
0.00186482 -5.00683e-06 2.02085e-06
-5.00683e-06 0.000255712 -5.11621e-07
2.02085e-06 -5.11621e-07 0.000160007
0.0012572 -4.8278e-05 3.81857e-06
-4.8278e-05 -4.23087e-05 -5.05924e-07
3.81857e-06 -5.05924e-07 -0.000139157
0.00139578 -8.13518e-05 2.11308e-06
-8.13518e-05 0.000117537 -1.03534e-06
2.11308e-06 -1.03534e-06 2.41403e-05
0.00176588 -7.65738e-05 1.24086e-07
-7.65738e-05 0.000204918 1.10465e-07
1.24086e-07 1.10465e-07 0.000105294
0.000610601 5.39724e-05 2.47637e-06
5.39724e-05 -7.98681e-05 -4.35554e-06
2.47637e-06 -4.35554e-06 -0.000108513
0.00129983 -8.84857e-05 5.33503e-07
-8.84857e-05 7.09777e-05 -3.36564e-07
5.33503e-07 -3.36564e-07 -2.66669e-05
0.000743337 -1.23556e-05 2.07489e-06
-1.23556e-05 -2.22501e-05 -9.41884e-07
2.07489e-06 -9.41884e-07 -8.85758e-05
0.000680583 -6.66735e-05 1.73936e-06
-6.66735e-05 -8.54252e-05 -1.05566e-06
1.73936e-06 -1.05566e-06 -0.000171796
0.00162131 -0.000112829 5.63744e-07
-0.000112829 0.000331989 7.99861e-08
5.63744e-07 7.99861e-08 0.00023173
0.00146139 -0.000102274 -4.52386e-07
-0.000102274 0.000173829 1.11224e-06
-4.52386e-07 1.11224e-06 7.45825e-05
0.000872013 1.23998e-06 2.11815e-06
1.23998e-06 3.26204e-05 -2.17382e-06
2.11815e-06 -2.17382e-06 -2.66673e-05
0.0008328 3.10068e-05 9.77767e-07
3.10068e-05 4.5376e-06 -1.93697e-06
9.77767e-07 -1.93697e-06 -3.92791e-05
0.000901213 -2.76955e-05 7.11046e-07
-2.76955e-05 4.11319e-05 -7.72716e-07
7.11046e-07 -7.72716e-07 -3.36184e-05
0.000624949 4.90673e-05 -9.9996e-06
4.90673e-05 -0.000101545 -4.54887e-06
-9.9996e-06 -4.54887e-06 -0.000150366
0.00261047 -6.47126e-05 -3.48414e-05
-6.47126e-05 0.000970758 -3.32366e-06
-3.48414e-05 -3.32366e-06 0.000979115
0.000703099 -3.97092e-05 -3.32892e-06
-3.97092e-05 -4.50511e-05 -3.92329e-06
-3.32892e-06 -3.92329e-06 -6.22243e-05
0.00059197 3.3623e-05 -7.44856e-06
3.3623e-05 -7.95645e-05 -4.76498e-06
-7.44856e-06 -4.76498e-06 -0.000125881
0.000993878 6.69858e-05 -5.21512e-06
6.69858e-05 6.30313e-06 -2.23934e-06
-5.21512e-06 -2.23934e-06 -7.18996e-05
0.000603395 -5.31689e-05 -2.47628e-06
-5.31689e-05 -7.96558e-05 -4.58021e-06
-2.47628e-06 -4.58021e-06 -0.000108385
0.000773362 2.19842e-05 -2.38591e-06
2.19842e-05 -7.9933e-06 -1.92919e-06
-2.38591e-06 -1.92919e-06 -7.70626e-05
0.000865024 5.62399e-05 -3.4739e-06
5.62399e-05 8.70691e-06 -6.87717e-07
-3.4739e-06 -6.87717e-07 -6.19509e-05
0.000812904 7.22701e-05 -2.42168e-06
7.22701e-05 -3.11236e-05 1.54717e-07
-2.42168e-06 1.54717e-07 -0.000117018
0.000686114 -4.93744e-05 1.59302e-07
-4.93744e-05 -4.43997e-05 5.07561e-08
1.59302e-07 5.07561e-08 -6.75188e-05
0.000750771 -3.59157e-05 3.9011e-08
-3.59157e-05 -2.76909e-05 7.40724e-08
3.9011e-08 7.40724e-08 -4.07043e-05
0.000818204 -2.2859e-05 1.27742e-07
-2.2859e-05 3.47947e-06 1.02519e-07
1.27742e-07 1.02519e-07 -4.58958e-05
0.00109025 6.1738e-05 3.41326e-07
6.1738e-05 1.37696e-05 -1.25975e-07
3.41326e-07 -1.25975e-07 -6.70869e-05
0.000947994 6.56259e-05 2.24387e-07
6.56259e-05 2.40827e-05 1.60373e-07
2.24387e-07 1.60373e-07 -5.02619e-05
0.0012041 8.56787e-05 1.99811e-07
8.56787e-05 5.84136e-05 5.76046e-08
1.99811e-07 5.76046e-08 -3.69825e-05
0.000840031 1.60169e-05 -2.80334e-07
1.60169e-05 2.5366e-05 -7.56679e-10
-2.80334e-07 -7.56679e-10 -3.92399e-05
0.00104626 8.32465e-05 -8.72127e-08
8.32465e-05 6.58466e-05 -9.87953e-08
-8.72127e-08 -9.87953e-08 -1.94526e-05
0.00101716 7.60979e-05 2.1521e-07
7.60979e-05 9.85412e-05 -2.92942e-07
2.1521e-07 -2.92942e-07 1.16945e-05
0.000948472 8.6441e-05 -6.20746e-07
8.6441e-05 3.27961e-05 2.84241e-07
-6.20746e-07 2.84241e-07 -6.10393e-05
0.00078711 -3.21437e-05 2.86056e-06
-3.21437e-05 -1.69088e-05 3.584e-06
2.86056e-06 3.584e-06 -2.64103e-05
0.000813237 -7.93574e-07 2.86351e-06
-7.93574e-07 2.38764e-06 1.90876e-06
2.86351e-06 1.90876e-06 -5.45176e-05
0.000800099 -2.49981e-05 1.39511e-06
-2.49981e-05 -9.05821e-06 2.41637e-06
1.39511e-06 2.41637e-06 -5.12369e-05
0.000919192 1.93729e-05 1.17347e-06
1.93729e-05 5.3334e-05 9.42002e-07
1.17347e-06 9.42002e-07 -1.76963e-05
0.00129197 7.49519e-05 3.78512e-06
7.49519e-05 5.25155e-05 6.80026e-07
3.78512e-06 6.80026e-07 -4.4109e-05
0.00114428 8.80893e-05 2.31891e-06
8.80893e-05 8.08337e-05 9.70505e-07
2.31891e-06 9.70505e-07 -9.50834e-06
0.0013006 9.35381e-05 1.43846e-06
9.35381e-05 7.15683e-05 8.28641e-07
1.43846e-06 8.28641e-07 -3.15253e-05
0.0010573 5.35305e-05 1.99058e-06
5.35305e-05 0.000125045 9.74028e-07
1.99058e-06 9.74028e-07 4.31412e-05
0.00115369 9.38051e-05 4.03647e-07
9.38051e-05 0.000102057 -4.49787e-07
4.03647e-07 -4.49787e-07 1.01241e-05
0.00104794 8.95829e-05 1.1823e-06
8.95829e-05 0.0001162 -9.50969e-07
1.1823e-06 -9.50969e-07 1.60563e-05
0.000805827 8.22991e-05 7.06852e-07
8.22991e-05 -5.58689e-05 -1.22991e-06
7.06852e-07 -1.22991e-06 -0.000153185
0.00085536 -1.44689e-05 9.23702e-07
-1.44689e-05 4.05684e-06 1.79545e-06
9.23702e-07 1.79545e-06 -2.42962e-05
0.00079576 -2.44804e-05 2.00097e-06
-2.44804e-05 -2.45927e-05 3.4526e-06
2.00097e-06 3.4526e-06 -2.92281e-05
0.00220829 -4.06974e-05 2.4027e-05
-4.06974e-05 0.000733156 3.71047e-06
2.4027e-05 3.71047e-06 0.000750256
0.00225944 -4.61769e-05 7.23888e-07
-4.61769e-05 0.000766555 -7.39447e-08
7.23888e-07 -7.39447e-08 0.000781898
0.00232536 -5.18214e-05 -2.79343e-05
-5.18214e-05 0.000808064 -3.47785e-06
-2.79343e-05 -3.47785e-06 0.000821449
0.000731169 3.40987e-05 3.05381e-06
3.40987e-05 -4.13358e-05 -3.49792e-06
3.05381e-06 -3.49792e-06 -5.46338e-05
0.00252201 5.89025e-05 3.1355e-05
5.89025e-05 0.000914316 -3.38868e-06
3.1355e-05 -3.38868e-06 0.000925319
0.000723275 4.22601e-05 -2.50132e-07
4.22601e-05 -3.69456e-05 3.24324e-08
-2.50132e-07 3.24324e-08 -5.53362e-05
0.00268962 6.48263e-05 -4.8716e-07
6.48263e-05 0.0010074 -1.10392e-07
-4.8716e-07 -1.10392e-07 0.00101587
0.000657565 4.17596e-05 -1.06789e-05
4.17596e-05 -0.000103597 -3.59761e-06
-1.06789e-05 -3.59761e-06 -0.000151684
0.000732753 2.61395e-05 -1.15012e-05
2.61395e-05 -8.68747e-05 -1.79498e-06
-1.15012e-05 -1.79498e-06 -0.000136597
0.00117157 4.26344e-05 -7.03189e-06
4.26344e-05 8.09613e-06 -1.52435e-06
-7.03189e-06 -1.52435e-06 -7.47305e-05
0.00122763 1.82449e-05 -6.98676e-06
1.82449e-05 2.48879e-06 -1.12971e-06
-6.98676e-06 -1.12971e-06 -8.31629e-05
0.000747944 5.38954e-06 -1.22511e-05
5.38954e-06 -0.000106629 -7.9448e-07
-1.22511e-05 -7.9448e-07 -0.000162084
0.00510151 -8.25239e-06 -9.63363e-05
-8.25239e-06 0.00227872 7.0611e-07
-9.63363e-05 7.0611e-07 0.00227245
0.000773621 -1.73218e-07 6.7637e-08
-1.73218e-07 -0.000102038 -4.26691e-07
6.7637e-08 -4.26691e-07 -0.000158842
0.00128465 1.02664e-05 7.50589e-08
1.02664e-05 7.66174e-06 -2.64242e-07
7.50589e-08 -2.64242e-07 -8.19433e-05
0.00120344 2.67714e-05 -3.64332e-08
2.67714e-05 8.48371e-06 9.31445e-09
-3.64332e-08 9.31445e-09 -7.46092e-05
0.00150261 1.46908e-05 9.41753e-08
1.46908e-05 6.64173e-05 1.19855e-07
9.41753e-08 1.19855e-07 -3.2478e-05
0.00114592 5.30732e-05 2.10895e-07
5.30732e-05 1.33326e-05 -1.07498e-07
2.10895e-07 -1.07498e-07 -6.88811e-05
0.00142954 4.91033e-05 3.18764e-08
4.91033e-05 6.51319e-05 -8.90112e-08
3.18764e-08 -8.90112e-08 -3.03234e-05
0.00130438 1.04164e-06 7.36873e-06
1.04164e-06 7.16405e-06 -8.75822e-07
7.36873e-06 -8.75822e-07 -8.39569e-05
0.00154576 1.33329e-05 3.20301e-06
1.33329e-05 6.23821e-05 8.01532e-07
3.20301e-06 8.01532e-07 -4.13609e-05
0.00146344 3.04373e-05 3.05918e-06
3.04373e-05 6.4791e-05 4.50701e-07
3.05918e-06 4.50701e-07 -3.09898e-05
0.00161515 1.05352e-05 8.36154e-07
1.05352e-05 8.76853e-05 6.72647e-07
8.36154e-07 6.72647e-07 -1.27209e-05
0.00135718 6.27187e-05 2.99875e-06
6.27187e-05 5.17798e-05 1.50245e-07
2.99875e-06 1.50245e-07 -4.43205e-05
0.00153462 5.07966e-05 7.48761e-07
5.07966e-05 7.39707e-05 -4.4148e-07
7.48761e-07 -4.4148e-07 -2.29331e-05
0.000782445 8.61406e-06 -1.19725e-05
8.61406e-06 -9.068e-05 1.10883e-06
-1.19725e-05 1.10883e-06 -0.000146114
0.00159553 2.05764e-06 -4.42178e-05
2.05764e-06 0.000359376 1.71847e-06
-4.42178e-05 1.71847e-06 0.000315013
0.000870211 -2.89906e-07 -7.65958e-06
-2.89906e-07 -0.000184794 1.56954e-06
-7.65958e-06 1.56954e-06 -0.000271464
0.00198104 -4.96547e-05 -1.14024e-05
-4.96547e-05 0.000420078 1.92537e-06
-1.14024e-05 1.92537e-06 0.000342354
0.00274732 7.09451e-05 -3.93537e-05
7.09451e-05 0.00104567 3.3565e-06
-3.93537e-05 3.3565e-06 0.00105124
0.00160079 4.21022e-05 -1.96792e-05
4.21022e-05 0.000445604 2.99211e-06
-1.96792e-05 2.99211e-06 0.000417999
0.00146602 -5.05087e-05 -4.57834e-06
-5.05087e-05 0.000346555 1.46527e-06
-4.57834e-06 1.46527e-06 0.000279694
0.00142842 -6.67743e-05 -9.07441e-06
-6.67743e-05 0.000196951 2.96613e-06
-9.07441e-06 2.96613e-06 0.000118858
0.00119316 -6.47323e-05 -4.25033e-06
-6.47323e-05 -4.68843e-05 1.31074e-06
-4.25033e-06 1.31074e-06 -0.000145363
0.00161621 -8.96995e-05 -2.73767e-06
-8.96995e-05 0.000274304 1.03083e-06
-2.73767e-06 1.03083e-06 0.000184204
0.000805837 -7.33986e-05 -1.75902e-06
-7.33986e-05 -5.5477e-05 4.34284e-07
-1.75902e-06 4.34284e-07 -0.000145799
0.00121447 -9.05865e-05 -3.44647e-07
-9.05865e-05 7.53216e-05 -3.40613e-08
-3.44647e-07 -3.40613e-08 -2.19507e-05
0.000708999 5.15876e-05 -2.20511e-06
5.15876e-05 -3.40608e-05 4.21553e-06
-2.20511e-06 4.21553e-06 -5.84141e-05
0.000792024 1.75757e-05 -2.04444e-06
1.75757e-05 -1.41917e-05 2.00605e-06
-2.04444e-06 2.00605e-06 -6.5363e-05
0.00110118 3.00392e-06 -3.24948e-07
3.00392e-06 -8.80492e-05 -1.01203e-07
-3.24948e-07 -1.01203e-07 -0.000178283
0.00159927 -2.07045e-05 -2.16792e-06
-2.07045e-05 0.000211154 2.67608e-07
-2.16792e-06 2.67608e-07 0.000132331
0.00176997 -2.48943e-06 -1.6218e-06
-2.48943e-06 0.000204319 3.27894e-07
-1.6218e-06 3.27894e-07 0.000107916
0.00154724 -5.18346e-05 8.11266e-07
-5.18346e-05 0.000110274 -3.49511e-07
8.11266e-07 -3.49511e-07 1.47763e-05
0.000665237 5.5452e-05 -6.91245e-08
5.5452e-05 -5.04321e-05 5.01044e-08
-6.91245e-08 5.01044e-08 -7.95312e-05
0.000839054 -2.30725e-05 -4.33032e-09
-2.30725e-05 2.56711e-05 -1.13263e-07
-4.33032e-09 -1.13263e-07 -4.04339e-05
0.000785985 -7.0804e-05 6.78606e-07
-7.0804e-05 -3.03701e-05 -4.97197e-07
6.78606e-07 -4.97197e-07 -0.00011588
0.00157133 -8.47409e-05 -6.61758e-07
-8.47409e-05 0.000205827 8.88521e-08
-6.61758e-07 8.88521e-08 0.000112244
0.00158558 -7.18267e-05 -4.90787e-07
-7.18267e-05 0.000110146 5.8255e-07
-4.90787e-07 5.8255e-07 1.06176e-05
0.00134759 -0.000102375 -8.85776e-07
-0.000102375 0.000191902 3.58842e-07
-8.85776e-07 3.58842e-07 9.09558e-05
0.00130687 -8.82261e-05 4.06793e-08
-8.82261e-05 7.41279e-05 2.37491e-07
4.06793e-08 2.37491e-07 -2.34423e-05
0.00129429 -9.63466e-05 3.39201e-07
-9.63466e-05 8.97908e-05 5.05558e-07
3.39201e-07 5.05558e-07 -9.25528e-06
0.000836041 -3.18331e-07 -2.478e-07
-3.18331e-07 1.24896e-05 -6.05221e-08
-2.478e-07 -6.05221e-08 -4.64203e-05
0.000874374 -1.31165e-05 -3.54532e-07
-1.31165e-05 2.39967e-05 -2.32263e-07
-3.54532e-07 -2.32263e-07 -4.88784e-05
0.000817851 2.92891e-05 -4.32374e-08
2.92891e-05 -3.35024e-06 1.94787e-07
-4.32374e-08 1.94787e-07 -4.71944e-05
0.00188964 7.16821e-06 2.06636e-06
7.16821e-06 0.000246251 -8.00037e-07
2.06636e-06 -8.00037e-07 0.000145931
0.00164672 -2.33982e-05 2.86981e-06
-2.33982e-05 0.000153704 -3.22268e-07
2.86981e-06 -3.22268e-07 6.00183e-05
0.00180392 -4.83403e-07 5.78803e-07
-4.83403e-07 0.000181796 -8.85904e-08
5.78803e-07 -8.85904e-08 7.96245e-05
0.00160509 -4.58278e-05 1.02553e-06
-4.58278e-05 8.89078e-05 -1.79448e-07
1.02553e-06 -1.79448e-07 -9.44012e-06
0.00117949 -8.05976e-05 9.38269e-07
-8.05976e-05 -4.17464e-05 -9.7395e-07
9.38269e-07 -9.7395e-07 -0.000140831
0.00170113 -6.98676e-05 -1.8518e-06
-6.98676e-05 0.000139173 9.11724e-07
-1.8518e-06 9.11724e-07 4.42524e-05
0.000838066 -1.20909e-05 2.58552e-06
-1.20909e-05 2.24195e-05 -1.51443e-06
2.58552e-06 -1.51443e-06 -4.20466e-05
0.00133647 -9.22112e-05 -1.00263e-06
-9.22112e-05 6.36986e-05 -9.83053e-08
-1.00263e-06 -9.83053e-08 -3.41607e-05
0.00094269 -7.19489e-05 1.08546e-06
-7.19489e-05 6.02459e-05 2.96463e-07
1.08546e-06 2.96463e-07 -1.99631e-05
0.000777225 -8.13197e-05 1.34871e-06
-8.13197e-05 -4.88913e-05 -1.46836e-06
1.34871e-06 -1.46836e-06 -0.000147354
0.00147105 -0.000111821 1.17671e-06
-0.000111821 0.000231146 7.18822e-07
1.17671e-06 7.18822e-07 0.000123879
0.00176709 -0.00011335 -2.03493e-06
-0.00011335 0.000314384 2.38639e-06
-2.03493e-06 2.38639e-06 0.000217899
0.00083465 2.83462e-05 1.2954e-06
2.83462e-05 2.09549e-07 -1.65109e-06
1.2954e-06 -1.65109e-06 -3.77869e-05
0.000934853 -3.78371e-05 1.32907e-06
-3.78371e-05 5.36327e-05 3.8559e-08
1.32907e-06 3.8559e-08 -2.16845e-05
0.000800834 -7.31681e-06 8.75259e-07
-7.31681e-06 -1.44823e-05 -1.45276e-06
8.75259e-07 -1.45276e-06 -8.3079e-05
0.00102286 -7.08813e-05 2.06194e-08
-7.08813e-05 0.00010934 9.45159e-07
2.06194e-08 9.45159e-07 2.51937e-05
0.0010894 6.28301e-05 -6.40294e-06
6.28301e-05 1.41935e-05 -2.29263e-06
-6.40294e-06 -2.29263e-06 -6.67348e-05
0.000726998 -3.44155e-05 -3.1445e-06
-3.44155e-05 -4.01647e-05 -3.65492e-06
-3.1445e-06 -3.65492e-06 -5.28405e-05
0.000661853 -4.70044e-05 -3.25322e-06
-4.70044e-05 -5.86444e-05 -4.22636e-06
-3.25322e-06 -4.22636e-06 -8.10768e-05
0.000831602 -2.9083e-05 -1.33157e-06
-2.9083e-05 1.07859e-05 -2.5534e-06
-1.33157e-06 -2.5534e-06 -3.87277e-05
0.000903804 6.37972e-05 -3.82017e-06
6.37972e-05 2.40369e-06 -1.55208e-06
-3.82017e-06 -1.55208e-06 -7.16571e-05
0.00119208 8.58413e-05 -2.95692e-06
8.58413e-05 5.29486e-05 -9.44463e-07
-2.95692e-06 -9.44463e-07 -4.25297e-05
0.000821698 1.20545e-05 -2.64306e-06
1.20545e-05 1.82191e-05 -1.96298e-06
-2.64306e-06 -1.96298e-06 -4.66097e-05
0.000984709 7.46629e-05 -2.15115e-06
7.46629e-05 8.20009e-05 -9.7619e-07
-2.15115e-06 -9.7619e-07 -4.78731e-06
0.00115357 8.75576e-05 -1.76594e-06
8.75576e-05 0.000121882 -2.07823e-09
-1.76594e-06 -2.07823e-09 3.67516e-05
0.000834544 8.24197e-05 -2.25513e-06
8.24197e-05 -2.56543e-05 9.13785e-07
-2.25513e-06 9.13785e-07 -0.000119892
0.000766168 -3.12795e-05 1.03765e-07
-3.12795e-05 -2.75422e-05 3.09437e-08
1.03765e-07 3.09437e-08 -3.69009e-05
0.00083054 4.50243e-06 1.80068e-08
4.50243e-06 1.37393e-05 -3.21137e-08
1.80068e-08 -3.21137e-08 -4.40771e-05
0.000817377 -2.88708e-05 -5.63331e-08
-2.88708e-05 -1.40672e-07 1.76938e-07
-5.63331e-08 1.76938e-07 -4.23077e-05
0.000930372 1.32501e-05 2.17206e-07
1.32501e-05 5.86472e-05 -2.08798e-07
2.17206e-07 -2.08798e-07 -1.19881e-05
0.00129756 7.566e-05 7.40321e-07
7.566e-05 5.55891e-05 2.61478e-07
7.40321e-07 2.61478e-07 -4.12391e-05
0.00110945 8.73804e-05 8.72913e-08
8.73804e-05 6.43931e-05 4.85567e-08
8.72913e-08 4.85567e-08 -2.59172e-05
0.00129965 9.36276e-05 3.01157e-08
9.36276e-05 7.11309e-05 2.93889e-07
3.01157e-08 2.93889e-07 -3.19193e-05
0.000997747 5.42138e-05 1.9602e-07
5.42138e-05 9.50119e-05 1.91945e-07
1.9602e-07 1.91945e-07 1.36468e-05
0.00129409 9.91536e-05 -4.54156e-07
9.91536e-05 0.000175241 -7.65769e-07
-4.54156e-07 -7.65769e-07 8.34323e-05
0.00106571 9.06884e-05 2.29288e-07
9.06884e-05 0.000124741 -6.09213e-07
2.29288e-07 -6.09213e-07 2.41433e-05
0.000909451 8.64119e-05 -1.61223e-06
8.64119e-05 1.40321e-06 3.36982e-08
-1.61223e-06 3.36982e-08 -9.45055e-05
0.000796664 -2.81472e-05 2.45532e-06
-2.81472e-05 -1.85256e-05 3.48942e-06
2.45532e-06 3.48942e-06 -2.52915e-05
0.000819606 -2.72942e-05 1.18158e-06
-2.72942e-05 -3.83781e-06 2.18349e-06
1.18158e-06 2.18349e-06 -4.05288e-05
0.00100105 2.95822e-05 1.60294e-06
2.95822e-05 9.31996e-05 6.36747e-07
1.60294e-06 6.36747e-07 1.76173e-05
0.000895926 1.17875e-06 8.55906e-07
1.17875e-06 3.77846e-05 1.45928e-06
8.55906e-07 1.45928e-06 -2.5624e-05
0.000981445 5.90424e-05 1.19118e-06
5.90424e-05 9.21511e-05 9.13578e-08
1.19118e-06 9.13578e-08 8.41405e-06
0.00139473 7.90741e-05 2.04153e-06
7.90741e-05 6.35384e-05 1.09057e-07
2.04153e-06 1.09057e-07 -3.87009e-05
0.00118312 9.58327e-05 8.87836e-07
9.58327e-05 7.43822e-05 9.63327e-07
8.87836e-07 9.63327e-07 -2.33897e-05
0.00139507 9.98598e-05 -3.84512e-07
9.98598e-05 9.8913e-05 4.8954e-07
-3.84512e-07 4.8954e-07 -6.36557e-06
0.00109441 8.75198e-05 2.51116e-06
8.75198e-05 0.00015281 2.0304e-06
2.51116e-06 2.0304e-06 5.53518e-05
0.00117137 9.88055e-05 1.83085e-06
9.88055e-05 9.72182e-05 -3.73779e-07
1.83085e-06 -3.73779e-07 1.70007e-06
0.000581047 7.41043e-05 1.95683e-06
7.41043e-05 -0.000139494 -1.51597e-06
1.95683e-06 -1.51597e-06 -0.000249594
0.000848747 -1.82349e-05 1.08221e-06
-1.82349e-05 3.88497e-06 1.91113e-06
1.08221e-06 1.91113e-06 -2.66115e-05
0.000879505 6.63452e-06 3.48086e-07
6.63452e-06 2.47535e-05 9.22238e-07
3.48086e-07 9.22238e-07 -2.15579e-05
0.000866941 -9.80305e-06 7.27611e-07
-9.80305e-06 7.25075e-06 1.78098e-06
7.27611e-07 1.78098e-06 -1.94378e-05
0.000856435 -1.27695e-05 1.25566e-07
-1.27695e-05 5.27178e-06 4.95789e-09
1.25566e-07 4.95789e-09 -2.31981e-05
0.00134859 -2.62942e-05 2.08451e-06
-2.62942e-05 0.00026264 2.07686e-06
2.08451e-06 2.07686e-06 0.000263013
0.00106878 -2.68351e-05 7.86039e-07
-2.68351e-05 0.000119953 -2.7886e-08
7.86039e-07 -2.7886e-08 0.000116938
0.00104102 -2.43666e-05 1.98319e-05
-2.43666e-05 0.000107856 6.41634e-06
1.98319e-05 6.41634e-06 0.00012093
0.00220442 -4.08571e-05 8.74003e-07
-4.08571e-05 0.000730094 -6.79072e-08
8.74003e-07 -6.79072e-08 0.000747392
0.00224951 -4.62643e-05 -2.50801e-05
-4.62643e-05 0.000760293 -3.57592e-06
-2.50801e-05 -3.57592e-06 0.000775883
0.000748459 3.06049e-05 2.64797e-06
3.06049e-05 -3.94532e-05 -3.36366e-06
2.64797e-06 -3.36366e-06 -4.94709e-05
0.00239243 5.28853e-05 2.80174e-05
5.28853e-05 0.000839898 -3.46996e-06
2.80174e-05 -3.46996e-06 0.000853248
0.000752193 3.55028e-05 -4.91955e-08
3.55028e-05 -3.02771e-05 7.17002e-08
-4.91955e-08 7.17002e-08 -4.39045e-05
0.00255215 5.85209e-05 -6.74139e-07
5.85209e-05 0.000930353 -9.81378e-08
-6.74139e-07 -9.81378e-08 0.000941132
0.000742878 4.50224e-05 -2.31822e-06
4.50224e-05 -2.55363e-05 4.09531e-06
-2.31822e-06 4.09531e-06 -4.46195e-05
0.00269448 6.45913e-05 -3.77309e-05
6.45913e-05 0.00101032 3.44068e-06
-3.77309e-05 3.44068e-06 0.00101858
0.00115506 5.49001e-05 -6.99312e-06
5.49001e-05 1.90033e-05 -1.94755e-06
-6.99312e-06 -1.94755e-06 -6.34208e-05
0.00119714 2.97454e-05 -6.94458e-06
2.97454e-05 5.8692e-06 -1.0223e-06
-6.94458e-06 -1.0223e-06 -7.73884e-05
0.00143213 4.74096e-05 -3.05391e-06
4.74096e-05 6.6538e-05 -2.55225e-07
-3.05391e-06 -2.55225e-07 -2.89132e-05
0.00151949 1.44887e-05 -3.03198e-06
1.44887e-05 7.51202e-05 -7.16001e-07
-3.03198e-06 -7.16001e-07 -2.37654e-05
0.00127556 1.27939e-05 -7.32252e-06
1.27939e-05 3.47556e-06 -1.19563e-06
-7.32252e-06 -1.19563e-06 -8.61106e-05
0.000777218 3.83754e-06 -1.23636e-05
3.83754e-06 -0.000100094 7.30849e-08
-1.23636e-05 7.30849e-08 -0.000156959
0.00130134 2.88251e-06 1.0365e-08
2.88251e-06 5.49336e-06 -4.86174e-07
1.0365e-08 -4.86174e-07 -8.56945e-05
0.00155225 1.501e-05 3.35184e-08
1.501e-05 6.60212e-05 -1.63496e-07
3.35184e-08 -1.63496e-07 -3.76872e-05
0.00146423 2.72918e-05 8.41199e-08
2.72918e-05 6.55976e-05 1.10726e-07
8.41199e-08 1.10726e-07 -3.01149e-05
0.0015947 9.77361e-06 -3.05554e-08
9.77361e-06 7.46655e-05 1.43308e-07
-3.05554e-08 1.43308e-07 -2.62603e-05
0.00137377 6.33601e-05 -7.10002e-08
6.33601e-05 5.98501e-05 -2.99325e-08
-7.10002e-08 -2.99325e-08 -3.63494e-05
0.00154874 5.05018e-05 -1.82871e-08
5.05018e-05 8.1404e-05 2.83756e-08
-1.82871e-08 2.83756e-08 -1.55045e-05
0.00156887 7.95196e-06 3.49753e-06
7.95196e-06 6.23594e-05 -9.84611e-07
3.49753e-06 -9.84611e-07 -4.31647e-05
0.00160015 1.15793e-05 6.31698e-07
1.15793e-05 5.64993e-05 1.45142e-06
6.31698e-07 1.45142e-06 -4.99431e-05
0.00156523 2.98625e-05 9.12815e-07
2.98625e-05 7.20477e-05 7.01311e-08
9.12815e-07 7.01311e-08 -2.5408e-05
0.00178492 4.44365e-06 -1.44362e-07
4.44365e-06 0.000153375 9.475e-08
-1.44362e-07 9.475e-08 5.39894e-05
0.0014759 6.30806e-05 5.4751e-07
6.30806e-05 6.90821e-05 -7.5046e-07
5.4751e-07 -7.5046e-07 -2.97888e-05
0.00161733 4.07428e-05 -1.72962e-06
4.07428e-05 8.64255e-05 -1.03438e-07
-1.72962e-06 -1.03438e-07 -3.38328e-06
0.000932848 4.50312e-06 -7.12727e-06
4.50312e-06 -0.000174602 1.1887e-06
-7.12727e-06 1.1887e-06 -0.000265728
0.00162531 -2.51405e-05 -1.09958e-05
-2.51405e-05 0.000223548 1.39432e-06
-1.09958e-05 1.39432e-06 0.000144731
0.00167564 3.86023e-06 -4.92219e-06
3.86023e-06 0.000153365 1.27959e-06
-4.92219e-06 1.27959e-06 5.62798e-05
0.00183966 -5.55353e-05 -3.28594e-06
-5.55353e-05 0.0002641 7.90111e-08
-3.28594e-06 7.90111e-08 0.000169941
0.000705512 4.48236e-05 -3.60773e-06
4.48236e-05 -3.06355e-05 3.97149e-06
-3.60773e-06 3.97149e-06 -5.87473e-05
0.000895029 -2.44033e-05 -2.70311e-06
-2.44033e-05 5.43821e-05 1.20903e-06
-2.70311e-06 1.20903e-06 -1.21989e-05
0.000902024 -7.55343e-05 -6.84779e-07
-7.55343e-05 2.97929e-05 1.20899e-08
-6.84779e-07 1.20899e-08 -5.48717e-05
0.00175252 -8.82792e-05 -3.79045e-06
-8.82792e-05 0.000297079 1.48623e-06
-3.79045e-06 1.48623e-06 0.000203291
0.00140575 -6.70383e-05 -1.23224e-06
-6.70383e-05 1.55591e-05 6.34678e-07
-1.23224e-06 6.34678e-07 -8.38629e-05
0.00131207 -8.79287e-05 -4.73852e-07
-8.79287e-05 7.63771e-05 8.24114e-07
-4.73852e-07 8.24114e-07 -2.11208e-05
0.00107233 -9.18919e-05 -1.27772e-06
-9.18919e-05 5.10201e-05 5.76389e-07
-1.27772e-06 5.76389e-07 -5.06105e-05
0.00111809 -9.00718e-05 1.41536e-06
-9.00718e-05 1.15318e-06 -6.71299e-07
1.41536e-06 -6.71299e-07 -9.76684e-05
0.000807279 7.98299e-07 -2.71409e-06
7.98299e-07 -3.93006e-06 1.65112e-06
-2.71409e-06 1.65112e-06 -6.23945e-05
0.000854688 -1.00382e-05 -1.26116e-06
-1.00382e-05 1.29331e-05 2.69978e-07
-1.26116e-06 2.69978e-07 -5.95982e-05
0.000802387 2.83487e-05 -1.12755e-06
2.83487e-05 -1.13402e-05 2.0735e-06
-1.12755e-06 2.0735e-06 -5.52896e-05
0.00173997 7.70368e-06 -1.6691e-06
7.70368e-06 0.000165436 4.28377e-07
-1.6691e-06 4.28377e-07 6.36202e-05
0.0016432 -2.84768e-05 -7.53883e-07
-2.84768e-05 0.000150461 1.02169e-07
-7.53883e-07 1.02169e-07 5.69242e-05
0.00167561 2.1295e-06 -6.62718e-07
2.1295e-06 0.000114312 4.89921e-07
-6.62718e-07 4.89921e-07 1.17357e-05
0.00169565 -4.44147e-05 1.68896e-07
-4.44147e-05 0.000136578 -3.38148e-07
1.68896e-07 -3.38148e-07 3.85394e-05
0.000839524 -1.47275e-05 1.62521e-07
-1.47275e-05 2.09765e-05 -1.88489e-07
1.62521e-07 -1.88489e-07 -4.30368e-05
0.00101536 -7.53541e-05 -9.87154e-08
-7.53541e-05 9.57998e-05 2.3172e-07
-9.87154e-08 2.3172e-07 1.53077e-05
0.000859545 -8.37685e-05 5.07333e-07
-8.37685e-05 -3.77231e-06 -7.21578e-07
5.07333e-07 -7.21578e-07 -0.000101151
0.00141062 -8.55791e-05 1.14524e-07
-8.55791e-05 7.90541e-05 -5.61953e-07
1.14524e-07 -5.61953e-07 -1.9852e-05
0.00160898 -6.7953e-05 3.43671e-07
-6.7953e-05 8.91276e-05 1.08684e-06
3.43671e-07 1.08684e-06 -4.56338e-06
0.00122729 -0.000103 1.99713e-08
-0.000103 0.000109263 1.48561e-07
1.99713e-08 1.48561e-07 1.16406e-06
0.00134277 -9.12926e-05 -6.14305e-08
-9.12926e-05 6.63426e-05 3.90717e-07
-6.14305e-08 3.90717e-07 -3.12687e-05
0.00155295 -0.000106253 6.78855e-07
-0.000106253 0.000205112 5.19585e-07
6.78855e-07 5.19585e-07 0.00010949
0.000968086 -4.21458e-05 -1.22485e-07
-4.21458e-05 7.18177e-05 -1.91018e-07
-1.22485e-07 -1.91018e-07 -3.94287e-06
0.000994396 -7.45614e-05 -3.11813e-07
-7.45614e-05 9.46265e-05 3.47289e-07
-3.11813e-07 3.47289e-07 9.19435e-06
0.000826954 2.90835e-05 3.4105e-08
2.90835e-05 -3.20868e-06 8.50415e-08
3.4105e-08 8.50415e-08 -4.14221e-05
0.000815811 6.56801e-06 -3.11978e-08
6.56801e-06 -9.46557e-06 -5.29019e-07
-3.11978e-08 -5.29019e-07 -7.5605e-05
0.00167649 6.02932e-06 1.12558e-06
6.02932e-06 9.5489e-05 -9.54369e-07
1.12558e-06 -9.54369e-07 -1.17748e-05
0.0017246 -2.0973e-05 1.03341e-06
-2.0973e-05 0.000146528 3.69712e-07
1.03341e-06 3.69712e-07 4.79726e-05
0.00172397 4.17847e-06 3.59328e-08
4.17847e-06 0.000118659 1.54364e-07
3.59328e-08 1.54364e-07 1.54894e-05
0.00163121 -3.74059e-05 -1.00346e-06
-3.74059e-05 7.39183e-05 -8.45088e-07
-1.00346e-06 -8.45088e-07 -2.24946e-05
0.00138083 -8.49794e-05 -1.64019e-06
-8.49794e-05 2.72973e-05 -1.24775e-08
-1.64019e-06 -1.24775e-08 -6.8826e-05
0.00177357 -6.70484e-05 4.44633e-07
-6.70484e-05 0.000144552 1.73156e-07
4.44633e-07 1.73156e-07 5.53321e-05
0.000945878 -6.87359e-05 1.27169e-06
-6.87359e-05 6.20184e-05 5.2137e-07
1.27169e-06 5.2137e-07 -1.54255e-05
0.00134212 -9.24192e-05 -2.85971e-06
-9.24192e-05 4.93606e-05 9.62947e-07
-2.85971e-06 9.62947e-07 -4.04593e-05
0.000740021 -7.55992e-05 4.91349e-08
-7.55992e-05 -4.38033e-05 -3.819e-07
4.91349e-08 -3.819e-07 -0.000134494
0.00109798 -9.88456e-05 1.51066e-06
-9.88456e-05 0.000100596 -1.09546e-06
1.51066e-06 -1.09546e-06 -8.55454e-06
0.00130216 -0.000110833 1.14832e-06
-0.000110833 0.000127717 2.24538e-06
1.14832e-06 2.24538e-06 1.47016e-05
0.00188599 -0.000117447 -7.01941e-07
-0.000117447 0.000361334 1.84031e-06
-7.01941e-07 1.84031e-06 0.000264791
0.000841 1.99255e-05 1.49156e-06
1.99255e-05 5.88433e-07 -1.58407e-06
1.49156e-06 -1.58407e-06 -3.41792e-05
0.000763608 1.1593e-06 6.0155e-07
1.1593e-06 -3.70315e-05 -1.41025e-06
6.0155e-07 -1.41025e-06 -9.8342e-05
0.000985624 -8.15276e-05 4.03386e-07
-8.15276e-05 8.51759e-05 1.21274e-06
4.03386e-07 1.21274e-06 2.53241e-08
0.000988878 -5.97185e-05 9.03048e-07
-5.97185e-05 9.15812e-05 3.05148e-08
9.03048e-07 3.05148e-08 1.09264e-05
0.00101024 -8.29774e-05 -2.41476e-07
-8.29774e-05 0.000104114 1.96938e-06
-2.41476e-07 1.96938e-06 1.53532e-05
0.000745377 -3.05008e-05 -2.72689e-06
-3.05008e-05 -3.81097e-05 -3.54248e-06
-2.72689e-06 -3.54248e-06 -4.73297e-05
0.00131419 7.66745e-05 -2.52003e-06
7.66745e-05 6.42315e-05 -2.0059e-07
-2.52003e-06 -2.0059e-07 -3.28135e-05
0.000831327 -3.20131e-05 -1.15743e-06
-3.20131e-05 7.11024e-06 -2.26939e-06
-1.15743e-06 -2.26939e-06 -3.50906e-05
0.000870437 -3.13402e-06 -2.00137e-06
-3.13402e-06 3.53087e-05 -2.27465e-06
-2.00137e-06 -2.27465e-06 -2.22893e-05
0.000937728 8.36295e-06 -6.51487e-07
8.36295e-06 6.20034e-05 -1.24409e-06
-6.51487e-07 -1.24409e-06 -8.26991e-06
0.00106993 8.65745e-05 -2.37222e-06
8.65745e-05 4.56323e-05 -9.68505e-07
-2.37222e-06 -9.68505e-07 -4.46513e-05
0.00129769 9.36741e-05 -1.32697e-06
9.36741e-05 7.02066e-05 -2.43358e-07
-1.32697e-06 -2.43358e-07 -3.2803e-05
0.00094814 6.71085e-05 -1.71508e-06
6.71085e-05 7.16358e-05 -5.33467e-07
-1.71508e-06 -5.33467e-07 -1.00943e-05
0.00109411 9.22506e-05 -2.08007e-06
9.22506e-05 0.000138721 -9.07842e-07
-2.08007e-06 -9.07842e-07 3.76297e-05
0.00143457 0.000104509 -1.72407e-06
0.000104509 0.000248428 -7.62134e-07
-1.72407e-06 -7.62134e-07 0.000156747
0.00101626 9.0597e-05 -3.53913e-06
9.0597e-05 6.01443e-05 1.94441e-06
-3.53913e-06 1.94441e-06 -3.43383e-05
0.000775745 -2.75496e-05 1.09685e-07
-2.75496e-05 -2.9231e-05 2.40184e-08
1.09685e-07 2.40184e-08 -3.58934e-05
0.000827548 -2.777e-05 -4.0716e-08
-2.777e-05 2.39914e-07 7.16575e-08
-4.0716e-08 7.16575e-08 -3.63617e-05
0.000966279 3.53157e-05 2.40123e-07
3.53157e-05 7.60024e-05 -8.74461e-08
2.40123e-07 -8.74461e-08 2.55177e-07
0.000903582 -4.5523e-06 1.24288e-07
-4.5523e-06 4.12559e-05 3.52228e-08
1.24288e-07 3.52228e-08 -2.16437e-05
0.000936673 5.14157e-05 3.26506e-07
5.14157e-05 6.78237e-05 -2.7549e-07
3.26506e-07 -2.7549e-07 -1.55814e-05
0.00140174 7.96694e-05 9.01985e-07
7.96694e-05 6.70856e-05 5.54254e-07
9.01985e-07 5.54254e-07 -3.53922e-05
0.00118819 9.66155e-05 1.17134e-07
9.66155e-05 7.73319e-05 4.44937e-08
1.17134e-07 4.44937e-08 -2.04858e-05
0.00135636 9.98931e-05 9.07001e-07
9.98931e-05 7.94664e-05 5.76496e-07
9.07001e-07 5.76496e-07 -2.6267e-05
0.0010341 8.53249e-05 6.92169e-07
8.53249e-05 0.000123181 7.75967e-07
6.92169e-07 7.75967e-07 2.59098e-05
0.00127801 0.000102269 3.39749e-07
0.000102269 0.000152772 -6.6353e-07
3.39749e-07 -6.6353e-07 5.73345e-05
0.000894171 8.73762e-05 -1.24553e-06
8.73762e-05 1.92991e-05 -6.91206e-07
-1.24553e-06 -6.91206e-07 -9.06024e-05
0.000836889 -2.29478e-05 1.11943e-06
-2.29478e-05 1.25554e-06 2.02889e-06
1.11943e-06 2.02889e-06 -3.18378e-05
0.000887149 -1.29004e-05 4.73731e-07
-1.29004e-05 2.80419e-05 1.3791e-06
4.73731e-07 1.3791e-06 -2.7235e-05
0.00105022 8.14792e-05 8.79825e-07
8.14792e-05 0.000125544 -1.80296e-08
8.79825e-07 -1.80296e-08 3.54247e-05
0.000958377 2.35969e-05 7.14047e-07
2.35969e-05 7.65574e-05 7.13078e-07
7.14047e-07 7.13078e-07 4.97517e-07
0.00103892 5.34407e-05 6.69739e-07
5.34407e-05 0.000127034 -6.06324e-07
6.69739e-07 -6.06324e-07 3.62641e-05
0.00144248 7.88981e-05 -1.66262e-06
7.88981e-05 5.89917e-05 -1.38549e-06
-1.66262e-06 -1.38549e-06 -4.24662e-05
0.00122574 0.000103913 1.20315e-06
0.000103913 7.58461e-05 6.32671e-07
1.20315e-06 6.32671e-07 -2.48071e-05
0.00113401 0.000102602 -2.07413e-06
0.000102602 -3.57437e-05 -1.23368e-06
-2.07413e-06 -1.23368e-06 -0.000133097
0.00097814 8.73796e-05 1.18841e-06
8.73796e-05 0.000100754 2.31129e-06
1.18841e-06 2.31129e-06 -1.00996e-05
0.00121186 0.000106948 3.71222e-06
0.000106948 0.000134996 -9.0439e-07
3.71222e-06 -9.0439e-07 2.21242e-05
0.000847145 -1.69431e-05 7.89744e-08
-1.69431e-05 3.337e-06 4.78293e-09
7.89744e-08 4.78293e-09 -2.71565e-05
0.000731308 -1.71611e-05 4.01328e-07
-1.71611e-05 -5.4257e-05 1.61545e-06
4.01328e-07 1.61545e-06 -0.000102584
0.000821119 -6.93502e-06 -5.99922e-07
-6.93502e-06 -6.61182e-06 4.42406e-09
-5.99922e-07 4.42406e-09 -5.31606e-05
0.00109879 1.28164e-05 8.27272e-07
1.28164e-05 0.000145863 2.47599e-07
8.27272e-07 2.47599e-07 8.83732e-05
0.000882533 7.84424e-06 1.37251e-06
7.84424e-06 2.5646e-05 9.99058e-07
1.37251e-06 9.99058e-07 -2.0295e-05
0.000876302 -3.48574e-06 6.74749e-07
-3.48574e-06 9.3813e-06 1.77174e-06
6.74749e-07 1.77174e-06 -1.631e-05
0.000866375 -1.03721e-05 6.71633e-08
-1.03721e-05 7.20507e-06 2.04261e-08
6.71633e-08 2.04261e-08 -1.95538e-05
0.0013382 -2.14971e-05 1.53378e-06
-2.14971e-05 0.000251786 2.01292e-06
1.53378e-06 2.01292e-06 0.000254121
0.00085829 -1.16032e-05 -9.84058e-07
-1.16032e-05 6.84324e-06 -1.87134e-06
-9.84058e-07 -1.87134e-06 -2.17504e-05
0.00136248 -2.47607e-05 -3.49283e-06
-2.47607e-05 0.00026953 -1.1912e-06
-3.49283e-06 -1.1912e-06 0.000270193
0.00104335 -2.09761e-05 1.6839e-05
-2.09761e-05 0.000102074 6.28799e-06
1.6839e-05 6.28799e-06 0.00011705
0.00135211 -2.74214e-05 -8.69876e-06
-2.74214e-05 0.000269945 -3.24125e-06
-8.69876e-06 -3.24125e-06 0.00026872
0.00158413 -3.01778e-05 1.5087e-05
-3.01778e-05 0.00039548 2.12833e-06
1.5087e-05 2.12833e-06 0.000411513
0.00220129 -4.09415e-05 -2.21992e-05
-4.09415e-05 0.000727423 -3.66858e-06
-2.21992e-05 -3.66858e-06 0.000744926
0.000755112 2.77341e-05 2.23678e-06
2.77341e-05 -4.16374e-05 -3.30636e-06
2.23678e-06 -3.30636e-06 -4.92688e-05
0.000765333 3.11504e-05 -1.37807e-07
3.11504e-05 -3.07262e-05 2.67596e-08
-1.37807e-07 2.67596e-08 -4.08924e-05
0.00232359 4.75248e-05 2.49643e-05
4.75248e-05 0.000796604 -3.56749e-06
2.49643e-05 -3.56749e-06 0.000811956
0.00241987 5.27852e-05 -6.62834e-07
5.27852e-05 0.000854915 -7.8739e-08
-6.62834e-07 -7.8739e-08 0.000867989
0.000770295 3.7337e-05 -2.69739e-06
3.7337e-05 -2.06972e-05 3.7481e-06
-2.69739e-06 3.7481e-06 -3.46937e-05
0.00258062 5.82018e-05 -3.48977e-05
5.82018e-05 0.000945537 3.51728e-06
-3.48977e-05 3.51728e-06 0.000956083
0.00139104 6.41502e-05 -3.22995e-06
6.41502e-05 6.82689e-05 -2.24228e-07
-3.22995e-06 -2.24228e-07 -2.80424e-05
0.00146907 2.78453e-05 -3.02675e-06
2.78453e-05 6.83821e-05 -2.06665e-07
-3.02675e-06 -2.06665e-07 -2.73941e-05
0.00156289 5.13768e-05 -5.52673e-07
5.13768e-05 8.88349e-05 5.27505e-07
-5.52673e-07 5.27505e-07 -8.11538e-06
0.00157051 8.95118e-06 -7.26926e-07
8.95118e-06 5.98697e-05 -4.05202e-07
-7.26926e-07 -4.05202e-07 -4.159e-05
0.00156368 1.8392e-05 -3.0648e-06
1.8392e-05 7.21348e-05 -1.09931e-06
-3.0648e-06 -1.09931e-06 -3.15721e-05
0.0013086 7.71573e-06 -7.3605e-06
7.71573e-06 8.8785e-06 -1.59265e-07
-7.3605e-06 -1.59265e-07 -8.23094e-05
0.0015821 1.23517e-05 6.83756e-08
1.23517e-05 6.90555e-05 -7.02926e-07
6.83756e-08 -7.02926e-07 -3.65465e-05
0.00159049 3.53825e-06 2.13328e-07
3.53825e-06 4.90071e-05 5.23118e-07
2.13328e-07 5.23118e-07 -5.84774e-05
0.00158636 2.91708e-05 1.85967e-08
2.91708e-05 8.30607e-05 1.21395e-07
1.85967e-08 1.21395e-07 -1.42695e-05
0.00172552 3.84441e-06 -6.34365e-08
3.84441e-06 0.000121454 -3.17377e-07
-6.34365e-08 -3.17377e-07 2.24241e-05
0.00148746 6.43926e-05 -1.19048e-07
6.43926e-05 7.46373e-05 5.21765e-08
-1.19048e-07 5.21765e-08 -2.45018e-05
0.00160595 4.05056e-05 -5.32942e-08
4.05056e-05 7.78543e-05 4.99072e-07
-5.32942e-08 4.99072e-07 -1.20225e-05
0.00162993 2.20202e-06 1.60121e-06
2.20202e-06 5.50348e-05 -6.3521e-07
1.60121e-06 -6.3521e-07 -5.55431e-05
0.00176943 1.16857e-05 -5.67433e-07
1.16857e-05 0.000122567 6.09999e-07
-5.67433e-07 6.09999e-07 1.54352e-05
0.00159823 2.07006e-05 -6.35236e-07
2.07006e-05 6.01753e-05 7.20788e-07
-6.35236e-07 7.20788e-07 -3.39377e-05
0.00175179 -7.49512e-07 -4.62124e-07
-7.49512e-07 0.000125281 -3.18082e-07
-4.62124e-07 -3.18082e-07 2.76475e-05
0.00145334 5.74059e-05 -1.32296e-06
5.74059e-05 2.27729e-05 -1.44385e-06
-1.32296e-06 -1.44385e-06 -7.09974e-05
0.00187516 3.34694e-05 -5.83936e-07
3.34694e-05 0.000192645 -5.92215e-07
-5.83936e-07 -5.92215e-07 0.000105397
0.00157898 7.54875e-06 -4.68203e-06
7.54875e-06 7.88758e-05 1.62432e-06
-4.68203e-06 1.62432e-06 -2.44334e-05
0.00163296 -3.02643e-05 -4.41395e-06
-3.02643e-05 0.000144038 3.9258e-07
-4.41395e-06 3.9258e-07 5.06526e-05
0.00156002 2.62047e-06 -1.72248e-06
2.62047e-06 5.32029e-05 7.46796e-07
-1.72248e-06 7.46796e-07 -4.97886e-05
0.00178201 -4.36042e-05 -1.38374e-06
-4.36042e-05 0.000182108 -3.83555e-07
-1.38374e-06 -3.83555e-07 8.43737e-05
0.000855088 -1.73463e-05 -2.7312e-06
-1.73463e-05 2.6806e-05 1.25528e-06
-2.7312e-06 1.25528e-06 -3.68078e-05
0.00108342 -7.85169e-05 -1.42614e-06
-7.85169e-05 0.000129221 1.96366e-07
-1.42614e-06 1.96366e-07 4.84322e-05
0.000934546 -8.57598e-05 -2.7624e-07
-8.57598e-05 3.78038e-05 1.27202e-08
-2.7624e-07 1.27202e-08 -5.84715e-05
0.00164581 -9.05963e-05 -8.58224e-07
-9.05963e-05 0.000201922 2.46193e-07
-8.58224e-07 2.46193e-07 0.000103193
0.00151809 -6.60798e-05 9.19247e-07
-6.60798e-05 3.97346e-05 3.79029e-07
9.19247e-07 3.79029e-07 -5.27225e-05
0.00134981 -9.04516e-05 1.54684e-06
-9.04516e-05 6.94016e-05 7.27812e-07
1.54684e-06 7.27812e-07 -2.79725e-05
0.000987935 -9.43487e-05 -7.88533e-07
-9.43487e-05 -1.0439e-05 -1.66321e-07
-7.88533e-07 -1.66321e-07 -0.000119378
0.00133507 -9.90443e-05 2.68434e-06
-9.90443e-05 9.37052e-05 -2.61096e-06
2.68434e-06 -2.61096e-06 -1.01811e-06
0.000987862 -3.57852e-05 -1.36761e-06
-3.57852e-05 8.1502e-05 -3.05937e-07
-1.36761e-06 -3.05937e-07 6.22831e-06
0.00097578 -6.56707e-05 -8.87582e-07
-6.56707e-05 8.19833e-05 -5.8984e-07
-8.87582e-07 -5.8984e-07 -2.93546e-06
0.000816506 2.9256e-05 -1.0185e-06
2.9256e-05 -8.0672e-06 1.8344e-06
-1.0185e-06 1.8344e-06 -4.64661e-05
0.00083834 1.45782e-05 -2.65815e-07
1.45782e-05 8.87238e-07 4.00547e-07
-2.65815e-07 4.00547e-07 -6.38372e-05
0.00168398 6.66777e-06 -1.49802e-07
6.66777e-06 9.89454e-05 2.0044e-07
-1.49802e-07 2.0044e-07 -8.34711e-06
0.00175667 -1.84671e-05 -5.2196e-07
-1.84671e-05 0.000162703 5.2192e-08
-5.2196e-07 5.2192e-08 6.45828e-05
0.00168822 3.71324e-06 -8.21752e-07
3.71324e-06 0.000101726 6.51054e-07
-8.21752e-07 6.51054e-07 -6.59619e-07
0.0016547 -3.81945e-05 -1.0387e-07
-3.81945e-05 8.52614e-05 -4.75882e-07
-1.0387e-07 -4.75882e-07 -1.10272e-05
0.000996587 -5.81558e-05 -1.37392e-07
-5.81558e-05 8.60524e-05 4.49821e-08
-1.37392e-07 4.49821e-08 9.24096e-06
0.000811525 -7.77026e-05 4.52654e-07
-7.77026e-05 -6.85491e-06 -3.47178e-07
4.52654e-07 -3.47178e-07 -9.63932e-05
0.00109455 -9.82533e-05 9.57926e-08
-9.82533e-05 0.00010042 -1.79078e-07
9.57926e-08 -1.79078e-07 -8.99449e-06
0.00150404 -8.71746e-05 -7.95015e-07
-8.71746e-05 9.21486e-05 -4.72499e-07
-7.95015e-07 -4.72499e-07 -4.82281e-06
0.00162302 -6.56268e-05 -1.40272e-07
-6.56268e-05 7.46457e-05 9.4914e-07
-1.40272e-07 9.4914e-07 -1.13296e-05
0.0012916 -0.00010947 -1.95879e-07
-0.00010947 0.000123213 5.84514e-07
-1.95879e-07 5.84514e-07 9.48837e-06
0.0013632 -9.19909e-05 -2.56985e-08
-9.19909e-05 6.09575e-05 7.75666e-07
-2.56985e-08 7.75666e-07 -2.87082e-05
0.00155595 -0.000106949 9.61533e-07
-0.000106949 0.000192058 -1.41095e-06
9.61533e-07 -1.41095e-06 9.82324e-05
0.00103032 -8.33891e-05 6.81769e-08
-8.33891e-05 0.000107292 -3.34769e-08
6.81769e-08 -3.34769e-08 2.21582e-05
0.00101961 -8.23033e-05 6.80513e-08
-8.23033e-05 0.000107783 1.9275e-07
6.80513e-08 1.9275e-07 1.91394e-05
0.000982346 -4.50248e-05 -3.20495e-07
-4.50248e-05 8.66443e-05 -1.60335e-09
-3.20495e-07 -1.60335e-09 7.08091e-06
0.000718972 2.51997e-05 -2.34899e-07
2.51997e-05 -6.30503e-05 9.87689e-09
-2.34899e-07 9.87689e-09 -9.89106e-05
0.000796107 1.55653e-05 7.901e-08
1.55653e-05 -2.28635e-05 -3.67566e-07
7.901e-08 -3.67566e-07 -8.21028e-05
0.00170363 1.04396e-05 9.06807e-08
1.04396e-05 8.51995e-05 -8.02291e-07
9.06807e-08 -8.02291e-07 -2.31571e-05
0.0016753 -2.77245e-06 1.00396e-06
-2.77245e-06 8.42322e-05 5.59604e-08
1.00396e-06 5.59604e-08 -1.66137e-05
0.001664 -4.26891e-05 8.40817e-07
-4.26891e-05 6.34221e-05 -1.70009e-06
8.40817e-07 -1.70009e-06 -3.15737e-05
0.00138966 -7.68401e-05 -7.24494e-08
-7.68401e-05 -5.91457e-06 -1.22607e-06
-7.24494e-08 -1.22607e-06 -9.29614e-05
0.000963643 -8.19871e-05 1.75014e-08
-8.19871e-05 7.32874e-05 1.21711e-06
1.75014e-08 1.21711e-06 -1.19556e-05
0.0018699 -0.00010792 -1.23932e-06
-0.00010792 0.000289128 1.73003e-06
-1.23932e-06 1.73003e-06 0.000204913
0.00045129 -6.57549e-05 -1.12294e-07
-6.57549e-05 -0.000188801 -1.53326e-06
-1.12294e-07 -1.53326e-06 -0.000286305
0.00117635 -0.000108224 2.82123e-06
-0.000108224 0.000121209 -1.03973e-06
2.82123e-06 -1.03973e-06 -2.02039e-06
0.00158111 -0.000122822 1.59721e-06
-0.000122822 0.000241041 2.39383e-06
1.59721e-06 2.39383e-06 0.000122688
0.000631044 1.85594e-05 1.16631e-06
1.85594e-05 -0.000111996 -2.19703e-06
1.16631e-06 -2.19703e-06 -0.000146309
0.000990809 1.6949e-07 1.23263e-06
1.6949e-07 8.11477e-05 -7.22227e-07
1.23263e-06 -7.22227e-07 2.63553e-05
0.00100798 -2.76546e-05 1.93771e-07
-2.76546e-05 9.48941e-05 -2.63496e-07
1.93771e-07 -2.63496e-07 2.4629e-05
0.000996957 -8.26855e-05 -3.04152e-07
-8.26855e-05 9.06694e-05 2.00601e-06
-3.04152e-07 2.00601e-06 4.27386e-06
0.00108819 -6.46935e-05 4.95606e-07
-6.46935e-05 0.000145776 1.42651e-06
4.95606e-07 1.42651e-06 5.74942e-05
0.000943671 -8.01929e-05 -9.04968e-08
-8.01929e-05 6.34213e-05 1.82961e-06
-9.04968e-08 1.82961e-06 -2.61708e-05
0.000755614 -2.70061e-05 -2.25824e-06
-2.70061e-05 -3.95248e-05 -3.50645e-06
-2.25824e-06 -3.50645e-06 -4.60875e-05
0.000836776 -2.77435e-05 -1.37326e-06
-2.77435e-05 5.02183e-06 -1.99523e-06
-1.37326e-06 -1.99523e-06 -3.15132e-05
0.00141183 8.04037e-05 -6.16089e-07
8.04037e-05 7.21283e-05 9.13171e-07
-6.16089e-07 9.13171e-07 -3.05873e-05
0.000920138 -1.24941e-05 -4.12027e-07
-1.24941e-05 4.92137e-05 -1.46898e-06
-4.12027e-07 -1.46898e-06 -1.3122e-05
0.000916281 2.94028e-05 -1.29162e-06
2.94028e-05 4.93858e-05 -5.71908e-07
-1.29162e-06 -5.71908e-07 -2.56026e-05
0.000895188 4.58944e-05 -4.37956e-07
4.58944e-05 4.53394e-05 -3.67687e-07
-4.37956e-07 -3.67687e-07 -3.78348e-05
0.0011914 9.7295e-05 -1.16365e-06
9.7295e-05 7.93668e-05 -1.00814e-06
-1.16365e-06 -1.00814e-06 -1.84899e-05
0.00131145 9.96831e-05 4.88568e-07
9.96831e-05 5.69353e-05 3.42611e-07
4.88568e-07 3.42611e-07 -4.924e-05
0.000969642 8.29078e-05 -7.58006e-07
8.29078e-05 9.11157e-05 -3.25253e-07
-7.58006e-07 -3.25253e-07 -5.90442e-06
0.00120017 0.000100268 -2.18745e-06
0.000100268 0.000174417 6.36287e-07
-2.18745e-06 6.36287e-07 6.47511e-05
0.00138407 0.000105748 -2.65841e-06
0.000105748 0.000208161 -5.08755e-07
-2.65841e-06 -5.08755e-07 0.000112788
0.000839069 -2.22295e-05 5.04876e-08
-2.22295e-05 2.57581e-06 2.6055e-08
5.04876e-08 2.6055e-08 -3.04839e-05
0.000890889 -1.5424e-05 -4.64148e-08
-1.5424e-05 2.99485e-05 1.22749e-07
-4.64148e-08 1.22749e-07 -2.52861e-05
0.00102017 8.03453e-05 -3.51716e-07
8.03453e-05 0.000111664 -2.43708e-07
-3.51716e-07 -2.43708e-07 2.19506e-05
0.000948771 2.08328e-05 1.20507e-07
2.08328e-05 7.02811e-05 -1.77048e-08
1.20507e-07 -1.77048e-08 -5.16202e-06
0.000959007 5.77281e-05 4.84959e-08
5.77281e-05 8.69808e-05 -4.87473e-07
4.84959e-08 -4.87473e-07 -5.30553e-06
0.00145187 8.11149e-05 -7.29589e-07
8.11149e-05 6.5628e-05 -1.1605e-07
-7.29589e-07 -1.1605e-07 -3.63689e-05
0.0012466 0.000104495 9.03808e-07
0.000104495 8.51974e-05 -3.91345e-08
9.03808e-07 -3.91345e-08 -1.56773e-05
0.00122929 0.000104288 3.78987e-07
0.000104288 7.28002e-06 6.33887e-07
3.78987e-07 6.33887e-07 -8.86542e-05
0.0008237 8.10195e-05 5.10954e-07
8.10195e-05 2.16871e-05 1.25705e-06
5.10954e-07 1.25705e-06 -8.93812e-05
0.0012211 0.000107243 -2.85584e-07
0.000107243 0.000141082 -5.88037e-07
-2.85584e-07 -5.88037e-07 2.59792e-05
0.000881555 -1.32758e-05 5.61812e-07
-1.32758e-05 2.47568e-05 1.25341e-06
5.61812e-07 1.25341e-06 -2.55131e-05
0.000839551 4.24183e-06 3.66918e-07
4.24183e-06 7.75951e-06 1.44535e-06
3.66918e-07 1.44535e-06 -6.15258e-05
0.00112212 9.08201e-05 5.23161e-07
9.08201e-05 0.000175003 -3.41587e-07
5.23161e-07 -3.41587e-07 7.34269e-05
0.000874714 3.82649e-05 4.7465e-07
3.82649e-05 3.89914e-05 4.67079e-07
4.7465e-07 4.67079e-07 -4.9355e-05
0.0010187 6.65595e-05 3.98285e-07
6.65595e-05 0.000114252 -7.90125e-07
3.98285e-07 -7.90125e-07 1.59401e-05
0.00159789 8.11644e-05 -2.71151e-06
8.11644e-05 9.7437e-05 -3.8813e-07
-2.71151e-06 -3.8813e-07 1.59766e-05
0.00157311 0.000125911 1.3183e-06
0.000125911 0.000246275 -1.42678e-06
1.3183e-06 -1.42678e-06 0.000136233
0.000439915 8.58691e-05 6.75073e-07
8.58691e-05 -0.000420703 -2.13551e-06
6.75073e-07 -2.13551e-06 -0.000510896
0.0015429 0.000113968 3.8817e-06
0.000113968 0.000377679 3.13226e-06
3.8817e-06 3.13226e-06 0.000257662
0.000107168 6.85255e-05 9.83719e-07
6.85255e-05 -0.000428983 -7.01814e-07
9.83719e-07 -7.01814e-07 -0.000555742
0.000845976 -1.48051e-05 -1.2515e-06
-1.48051e-05 2.99331e-06 -1.86304e-06
-1.2515e-06 -1.86304e-06 -2.74767e-05
0.000814139 -1.16457e-05 1.32648e-07
-1.16457e-05 -1.08719e-05 5.48296e-07
1.32648e-07 5.48296e-07 -5.88393e-05
0.000814857 -1.19214e-05 3.31912e-07
-1.19214e-05 -6.93759e-06 1.21621e-06
3.31912e-07 1.21621e-06 -6.69256e-05
0.000774603 -2.1017e-05 -6.16698e-07
-2.1017e-05 -3.18925e-05 -8.92458e-07
-6.16698e-07 -8.92458e-07 -7.86173e-05
0.00089742 5.36302e-07 2.29796e-07
5.36302e-07 3.22952e-05 -3.9366e-08
2.29796e-07 -3.9366e-08 -1.28515e-05
0.000948984 -1.31605e-05 1.5228e-07
-1.31605e-05 6.4844e-05 -4.05023e-07
1.5228e-07 -4.05023e-07 8.01672e-06
0.0010566 5.31086e-06 3.3262e-07
5.31086e-06 0.000125387 2.63228e-07
3.3262e-07 2.63228e-07 6.05945e-05
0.000827058 -2.88508e-05 5.89956e-08
-2.88508e-05 2.58826e-06 8.2043e-07
5.89956e-08 8.2043e-07 -5.4627e-05
0.000907614 -1.95868e-05 7.83626e-09
-1.95868e-05 3.47781e-05 9.04753e-07
7.83626e-09 9.04753e-07 -8.91507e-06
0.000870033 2.49488e-06 7.31872e-07
2.49488e-06 5.08575e-06 1.6502e-06
7.31872e-07 1.6502e-06 -2.05466e-05
0.000870053 -7.88617e-06 -1.40471e-07
-7.88617e-06 6.30301e-06 2.32688e-08
-1.40471e-07 2.32688e-08 -1.94267e-05
0.00133288 -1.61296e-05 1.2414e-06
-1.61296e-05 0.000244643 1.94487e-06
1.2414e-06 1.94487e-06 0.000248137
0.000866051 -1.06945e-05 -5.80005e-07
-1.06945e-05 7.28926e-06 -1.83422e-06
-5.80005e-07 -1.83422e-06 -1.95289e-05
0.00135157 -2.01669e-05 -2.87418e-06
-2.01669e-05 0.000258593 -1.16176e-06
-2.87418e-06 -1.16176e-06 0.000261091
0.00103234 -1.74314e-05 1.35183e-05
-1.74314e-05 9.09189e-05 6.17156e-06
1.35183e-05 6.17156e-06 0.000107464
0.00137294 -2.36197e-05 -7.50554e-06
-2.36197e-05 0.000274588 -4.42683e-06
-7.50554e-06 -4.42683e-06 0.000275491
0.000989054 -2.2209e-05 5.53163e-06
-2.2209e-05 7.3698e-05 2.38513e-06
5.53163e-06 2.38513e-06 8.85116e-05
0.00211675 -3.9514e-05 -6.12018e-06
-3.9514e-05 0.000677529 -1.58641e-06
-6.12018e-06 -1.58641e-06 0.000696148
0.000766968 2.48988e-05 1.74961e-06
2.48988e-05 -4.09233e-05 -3.28414e-06
1.74961e-06 -3.28414e-06 -4.6376e-05
0.000772784 2.80298e-05 -1.13444e-07
2.80298e-05 -3.26147e-05 2.49504e-08
-1.13444e-07 2.49504e-08 -4.03252e-05
0.00227102 4.20592e-05 2.20153e-05
4.20592e-05 0.000762354 -3.65862e-06
2.20153e-05 -3.65862e-06 0.00077948
0.000783809 3.18126e-05 -2.88093e-06
3.18126e-05 -2.1159e-05 3.41419e-06
-2.88093e-06 3.41419e-06 -3.14818e-05
0.00232837 4.72624e-05 -8.71903e-07
4.72624e-05 0.0008 -7.58657e-08
-8.71903e-07 -7.58657e-08 0.000815174
0.0024393 5.22865e-05 -3.09837e-05
5.22865e-05 0.000865703 3.57545e-06
-3.09837e-05 3.57545e-06 0.000878579
0.0014987 6.56265e-05 -1.33341e-06
6.56265e-05 8.00304e-05 7.3045e-07
-1.33341e-06 7.3045e-07 -1.93751e-05
0.00161108 2.75425e-05 -3.98367e-07
2.75425e-05 9.58884e-05 2.6765e-07
-3.98367e-07 2.6765e-07 -1.28256e-06
0.00159811 4.02947e-05 1.92843e-06
4.02947e-05 7.11571e-05 9.61747e-07
1.92843e-06 9.61747e-07 -1.88045e-05
0.00166494 3.15784e-06 2.79058e-08
3.15784e-06 8.89053e-05 -7.81283e-07
2.79058e-08 -7.81283e-07 -9.76406e-06
0.00158891 -1.13176e-06 -6.05542e-07
-1.13176e-06 4.54787e-05 -7.06303e-07
-6.05542e-07 -7.06303e-07 -6.30609e-05
0.00159267 1.59068e-05 -3.19856e-06
1.59068e-05 7.44342e-05 -3.80057e-07
-3.19856e-06 -3.80057e-07 -3.12163e-05
0.00167221 5.9498e-06 3.07315e-07
5.9498e-06 7.55977e-05 -4.78743e-07
3.07315e-07 -4.78743e-07 -3.54785e-05
0.00176231 7.6551e-06 1.86579e-08
7.6551e-06 0.000121562 -5.51881e-07
1.86579e-08 -5.51881e-07 1.46794e-05
0.00159046 1.89427e-05 6.15088e-08
1.89427e-05 5.5276e-05 4.03614e-07
6.15088e-08 4.03614e-07 -3.92249e-05
0.00170922 -9.03722e-07 1.81958e-07
-9.03722e-07 0.000100978 -6.15136e-07
1.81958e-07 -6.15136e-07 4.20888e-06
0.00151433 5.91106e-05 -4.92975e-07
5.91106e-05 5.38386e-05 5.67203e-08
-4.92975e-07 5.67203e-08 -3.98927e-05
0.00171311 3.27398e-05 1.17537e-06
3.27398e-05 0.000111735 -5.42706e-07
1.17537e-06 -5.42706e-07 2.54076e-05
0.00177144 1.36422e-05 -2.03979e-07
1.36422e-05 0.000102899 -2.38919e-08
-2.03979e-07 -2.38919e-08 -1.03187e-05
0.00175661 1.44412e-06 -9.28761e-07
1.44412e-06 0.000109004 5.28232e-07
-9.28761e-07 5.28232e-07 6.8566e-06
0.00168018 1.22754e-05 -1.57875e-07
1.22754e-05 7.8981e-05 7.42449e-08
-1.57875e-07 7.42449e-08 -1.26105e-05
0.00185023 5.31154e-05 -1.4597e-06
5.31154e-05 0.000185822 -9.34105e-07
-1.4597e-06 -9.34105e-07 9.9528e-05
0.00168733 7.26986e-06 -1.19801e-06
7.26986e-06 0.000100355 1.38401e-06
-1.19801e-06 1.38401e-06 -6.97342e-06
0.00179116 -1.77213e-05 -2.4543e-06
-1.77213e-05 0.000179949 1.54189e-08
-2.4543e-06 1.54189e-08 8.22538e-05
0.00161939 3.10889e-06 -1.50468e-06
3.10889e-06 6.83394e-05 8.63569e-07
-1.50468e-06 8.63569e-07 -3.33064e-05
0.00168318 -3.84229e-05 -1.61112e-07
-3.84229e-05 9.91577e-05 -1.74356e-07
-1.61112e-07 -1.74356e-07 2.99178e-06
0.00104716 -5.78842e-05 -1.36401e-06
-5.78842e-05 0.000111439 -4.20169e-07
-1.36401e-06 -4.20169e-07 3.44129e-05
0.000900849 -8.07284e-05 4.22775e-07
-8.07284e-05 3.90226e-05 -4.23348e-07
4.22775e-07 -4.23348e-07 -4.94259e-05
0.00109217 -9.76813e-05 -8.21078e-07
-9.76813e-05 0.000100886 1.19898e-06
-8.21078e-07 1.19898e-06 -8.80251e-06
0.00162503 -8.92905e-05 3.03441e-07
-8.92905e-05 0.000155821 -1.8658e-07
3.03441e-07 -1.8658e-07 5.80117e-05
0.00148175 -6.4438e-05 3.52365e-07
-6.4438e-05 9.43728e-06 1.93075e-06
3.52365e-07 1.93075e-06 -7.33269e-05
0.00137855 -9.14428e-05 2.63377e-06
-9.14428e-05 6.97577e-05 6.02433e-07
2.63377e-06 6.02433e-07 -1.97532e-05
0.00126165 -0.000107416 -1.09146e-06
-0.000107416 0.000108803 -9.17825e-07
-1.09146e-06 -9.17825e-07 -5.58239e-06
0.00125245 -9.71913e-05 -7.86808e-08
-9.71913e-05 3.66692e-05 -5.8712e-06
-7.86808e-08 -5.8712e-06 -5.45647e-05
0.0010729 -8.52308e-05 -3.52529e-07
-8.52308e-05 0.000128499 -1.20117e-06
-3.52529e-07 -1.20117e-06 4.33542e-05
0.00103845 -8.38638e-05 -4.77721e-07
-8.38638e-05 0.000116539 -1.89974e-06
-4.77721e-07 -1.89974e-06 2.76943e-05
0.000968965 -3.1364e-05 -1.61435e-07
-3.1364e-05 7.88316e-05 2.06073e-07
-1.61435e-07 2.06073e-07 9.45208e-08
0.0006018 2.67397e-05 -9.75161e-07
2.67397e-05 -0.00012445 1.68557e-06
-9.75161e-07 1.68557e-06 -0.000161241
0.000831839 2.66905e-05 -1.19347e-07
2.66905e-05 -6.14381e-06 4.41104e-07
-1.19347e-07 4.41104e-07 -6.39351e-05
0.00167606 9.53222e-06 -4.63126e-07
9.53222e-06 7.41414e-05 4.26929e-07
-4.63126e-07 4.26929e-07 -3.31385e-05
0.00172864 -3.84632e-06 -1.7729e-07
-3.84632e-06 0.000112242 -1.86092e-07
-1.7729e-07 -1.86092e-07 1.11329e-05
0.00176687 -4.41846e-05 -1.42109e-06
-4.41846e-05 0.00011906 1.08362e-07
-1.42109e-06 1.08362e-07 2.52222e-05
0.00103927 -8.4791e-05 4.04024e-09
-8.4791e-05 0.000110516 1.70533e-07
4.04024e-09 1.70533e-07 2.51178e-05
0.000810343 -8.03684e-05 9.52654e-07
-8.03684e-05 -7.29702e-06 -8.36635e-07
9.52654e-07 -8.36635e-07 -0.00010415
0.00114035 -0.000106124 -8.96251e-08
-0.000106124 0.00010602 -2.69247e-07
-8.96251e-08 -2.69247e-07 -1.77551e-05
0.00149743 -7.83904e-05 5.91086e-07
-7.83904e-05 4.54464e-05 -7.23754e-07
5.91086e-07 -7.23754e-07 -4.28928e-05
0.00148214 -0.000116802 -2.07848e-07
-0.000116802 0.000191462 -2.45475e-07
-2.07848e-07 -2.45475e-07 7.63428e-05
0.00149177 -0.000100896 -8.41168e-07
-0.000100896 0.000101339 -5.46441e-07
-8.41168e-07 -5.46441e-07 1.72648e-05
0.000622644 2.19098e-05 5.1484e-08
2.19098e-05 -0.000116552 -5.85063e-07
5.1484e-08 -5.85063e-07 -0.000150594
0.00103666 -8.43849e-05 3.11271e-08
-8.43849e-05 0.000110583 8.59581e-08
3.11271e-08 8.59581e-08 2.40362e-05
0.000957016 -8.05059e-05 -6.0846e-07
-8.05059e-05 7.10296e-05 7.09826e-08
-6.0846e-07 7.09826e-08 -1.78307e-05
0.00107566 -6.57918e-05 -3.49182e-07
-6.57918e-05 0.00014109 7.86062e-07
-3.49182e-07 7.86062e-07 5.15012e-05
0.00103928 -2.73389e-05 2.17908e-09
-2.73389e-05 0.000111808 -6.63349e-09
2.17908e-09 -6.63349e-09 4.14238e-05
0.000885997 9.97594e-06 -1.71123e-07
9.97594e-06 2.42534e-05 1.81587e-07
-1.71123e-07 1.81587e-07 -3.00027e-05
0.00184204 1.12852e-05 4.4794e-07
1.12852e-05 0.000149394 -8.9729e-07
4.4794e-07 -8.9729e-07 4.33371e-05
0.00169788 -5.49661e-06 2.63632e-07
-5.49661e-06 6.7004e-05 1.56847e-07
2.63632e-07 1.56847e-07 -3.39045e-05
0.00140853 -5.13067e-05 2.29862e-06
-5.13067e-05 -6.70861e-05 -2.62529e-06
2.29862e-06 -2.62529e-06 -0.000163149
0.00168197 -9.40149e-05 2.37337e-07
-9.40149e-05 8.89362e-05 -1.30148e-06
2.37337e-07 -1.30148e-06 8.36661e-06
0.000983875 -8.39834e-05 -4.96417e-07
-8.39834e-05 8.3941e-05 1.26268e-06
-4.96417e-07 1.26268e-06 -4.70524e-06
0.00154822 -0.000117061 2.64713e-06
-0.000117061 0.000154773 3.37684e-06
2.64713e-06 3.37684e-06 4.83233e-05
0.000752054 -8.35857e-05 -5.51116e-07
-8.35857e-05 -4.3337e-05 -2.35554e-06
-5.51116e-07 -2.35554e-06 -0.00015788
0.00145482 -0.000123127 1.21517e-06
-0.000123127 0.000247404 9.4421e-07
1.21517e-06 9.4421e-07 0.000112501
0.000635817 1.80699e-05 8.1184e-07
1.80699e-05 -0.000111795 -2.28188e-06
8.1184e-07 -2.28188e-06 -0.000143673
0.00100554 -6.12903e-07 1.01207e-06
-6.12903e-07 8.80164e-05 -6.96526e-07
1.01207e-06 -6.96526e-07 3.74126e-05
0.00107749 -2.56109e-05 2.08124e-07
-2.56109e-05 0.000131176 6.22106e-07
2.08124e-07 6.22106e-07 6.48189e-05
0.00100294 -3.49513e-05 4.86221e-07
-3.49513e-05 9.82932e-05 -7.73844e-07
4.86221e-07 -7.73844e-07 1.58503e-05
0.00104866 -8.52283e-05 -1.92507e-07
-8.52283e-05 0.000114973 1.95003e-06
-1.92507e-07 1.95003e-06 2.62394e-05
0.000981705 -8.28537e-05 -3.42051e-07
-8.28537e-05 8.67452e-05 2.71542e-06
-3.42051e-07 2.71542e-06 -6.6613e-06
0.000838527 -2.11816e-05 -1.37625e-06
-2.11816e-05 2.39433e-06 -1.90295e-06
-1.37625e-06 -1.90295e-06 -3.05781e-05
0.000891609 -1.69673e-05 -4.53716e-07
-1.69673e-05 3.0348e-05 -1.31708e-06
-4.53716e-07 -1.31708e-06 -2.48608e-05
0.0014687 8.35533e-05 4.10634e-07
8.35533e-05 7.59888e-05 1.40232e-06
4.10634e-07 1.40232e-06 -2.65566e-05
0.000943803 1.5275e-05 -4.98628e-07
1.5275e-05 6.62796e-05 -7.93013e-07
-4.98628e-07 -7.93013e-07 -8.43431e-06
0.000982845 7.89768e-05 -6.67064e-07
7.89768e-05 9.42747e-05 -2.70841e-07
-6.67064e-07 -2.70841e-07 4.95314e-06
0.000891509 5.07612e-05 -9.14746e-07
5.07612e-05 5.09573e-05 -3.72068e-07
-9.14746e-07 -3.72068e-07 -4.12768e-05
0.00126782 0.000105091 -1.13272e-06
0.000105091 9.47044e-05 -1.02547e-06
-1.13272e-06 -1.02547e-06 -6.38865e-06
0.00131691 0.00010571 1.11891e-06
0.00010571 4.62127e-05 1.42439e-06
1.11891e-06 1.42439e-06 -4.82548e-05
0.000671739 7.48331e-05 -7.34025e-07
7.48331e-05 -5.5964e-05 3.97594e-08
-7.34025e-07 3.97594e-08 -0.000167287
0.00124089 0.000108063 -2.19574e-06
0.000108063 0.000152714 4.76576e-07
-2.19574e-06 4.76576e-07 3.53133e-05
0.000882173 -1.5457e-05 -7.47077e-08
-1.5457e-05 2.48638e-05 9.33202e-08
-7.47077e-08 9.33202e-08 -2.53962e-05
0.000883009 8.29359e-06 1.18628e-07
8.29359e-06 3.05126e-05 5.32696e-07
1.18628e-07 5.32696e-07 -3.86683e-05
0.00109322 8.93965e-05 -9.72724e-08
8.93965e-05 0.000162863 -8.14864e-07
-9.72724e-08 -8.14864e-07 6.21612e-05
0.000923186 2.60309e-05 -1.2352e-07
2.60309e-05 6.22014e-05 -1.81834e-08
-1.2352e-07 -1.81834e-08 -2.42744e-05
0.000952464 6.25653e-05 -1.08194e-06
6.25653e-05 8.27267e-05 -7.42176e-07
-1.08194e-06 -7.42176e-07 -1.55801e-05
0.00174236 8.28362e-05 -1.5621e-06
8.28362e-05 0.000163484 5.93831e-08
-1.5621e-06 5.93831e-08 8.10628e-05
0.00156469 0.00012499 1.24061e-06
0.00012499 0.000236426 6.61793e-08
1.24061e-06 6.61793e-08 0.000127658
0.000879328 9.90012e-05 -7.60745e-07
9.90012e-05 -0.000188847 1.05539e-06
-7.60745e-07 1.05539e-06 -0.000275578
0.00123255 0.000101395 1.26244e-06
0.000101395 0.000220409 1.40047e-06
1.26244e-06 1.40047e-06 0.000100176
0.000646353 9.0786e-05 -1.35735e-06
9.0786e-05 -0.000154731 -5.33055e-07
-1.35735e-06 -5.33055e-07 -0.0002862
0.000838428 -7.70274e-07 4.66185e-07
-7.70274e-07 4.74288e-06 1.31825e-06
4.66185e-07 1.31825e-06 -5.80827e-05
0.000845894 3.69848e-05 5.19662e-07
3.69848e-05 1.93875e-05 3.74239e-07
5.19662e-07 3.74239e-07 -6.41964e-05
0.00108701 9.01307e-05 1.19653e-06
9.01307e-05 0.000161366 9.85583e-08
1.19653e-06 9.85583e-08 5.13367e-05
0.000678638 4.92641e-05 7.10048e-07
4.92641e-05 -5.93345e-05 5.85461e-07
7.10048e-07 5.85461e-07 -0.000160141
0.00225123 6.02113e-05 -4.7844e-07
6.02113e-05 0.000345638 8.30492e-07
-4.7844e-07 8.30492e-07 0.000263596
0.00134587 9.9592e-05 2.17283e-06
9.9592e-05 -7.18307e-05 -1.61778e-06
2.17283e-06 -1.61778e-06 -0.000140995
0.00132202 0.000124719 2.08627e-06
0.000124719 0.00010559 -2.86934e-06
2.08627e-06 -2.86934e-06 -1.81716e-05
0.000490132 7.64942e-05 1.39201e-06
7.64942e-05 -0.000171549 1.6483e-06
1.39201e-06 1.6483e-06 -0.000313933
0.000888693 4.90718e-06 -4.57299e-07
4.90718e-06 3.0167e-05 -6.52568e-07
-4.57299e-07 -6.52568e-07 -1.86938e-05
0.000903596 1.22543e-06 -3.11899e-08
1.22543e-06 4.04826e-05 3.79251e-07
-3.11899e-08 3.79251e-07 -1.98037e-05
0.000976602 4.337e-07 3.73524e-07
4.337e-07 8.07045e-05 8.86132e-07
3.73524e-07 8.86132e-07 1.26944e-05
0.000896684 -7.80927e-06 -5.87066e-07
-7.80927e-06 3.06983e-05 -9.08832e-07
-5.87066e-07 -9.08832e-07 -1.36017e-05
0.000793727 -2.14681e-05 2.83193e-08
-2.14681e-05 -1.69269e-05 -1.05551e-06
2.83193e-08 -1.05551e-06 -7.44839e-05
0.000900979 -1.10474e-05 1.49305e-07
-1.10474e-05 3.10252e-05 2.93601e-08
1.49305e-07 2.93601e-08 -1.24736e-05
0.000977866 1.52397e-05 -8.89736e-08
1.52397e-05 8.58617e-05 -3.40605e-07
-8.89736e-08 -3.40605e-07 1.86491e-05
0.000853447 -1.0905e-05 1.68117e-07
-1.0905e-05 1.80868e-05 3.19412e-07
1.68117e-07 3.19412e-07 -3.98975e-05
0.00101804 6.40695e-06 4.19202e-07
6.40695e-06 0.000106616 4.45602e-07
4.19202e-07 4.45602e-07 3.45566e-05
0.00082524 -2.95494e-05 -2.12915e-07
-2.95494e-05 5.66058e-06 9.14295e-07
-2.12915e-07 9.14295e-07 -5.99732e-05
0.000802669 2.13682e-05 3.98788e-07
2.13682e-05 -7.75897e-06 9.96639e-07
3.98788e-07 9.96639e-07 -6.56501e-05
0.000916739 -5.35657e-06 5.22201e-08
-5.35657e-06 3.76828e-05 8.18512e-07
5.22201e-08 8.18512e-07 -5.4263e-06
0.00085961 5.94705e-06 6.34546e-07
5.94705e-06 -3.85813e-08 1.60122e-06
6.34546e-07 1.60122e-06 -2.62543e-05
0.000866125 -4.59104e-06 -2.67211e-07
-4.59104e-06 3.11766e-06 1.30876e-08
-2.67211e-07 1.30876e-08 -2.25512e-05
0.00133484 -1.05936e-05 1.01947e-06
-1.05936e-05 0.000243042 1.8683e-06
1.01947e-06 1.8683e-06 0.000246839
0.000860792 -1.30497e-05 -2.19206e-07
-1.30497e-05 1.59122e-06 -1.74733e-06
-2.19206e-07 -1.74733e-06 -2.41616e-05
0.00135105 -1.49904e-05 -2.26488e-06
-1.49904e-05 0.000254257 -1.17911e-06
-2.26488e-06 -1.17911e-06 0.000257719
0.00103027 -1.3514e-05 1.05505e-05
-1.3514e-05 8.58699e-05 6.18523e-06
1.05505e-05 6.18523e-06 0.000103136
0.00136685 -1.92474e-05 -5.66778e-06
-1.92474e-05 0.000266417 -4.3179e-06
-5.66778e-06 -4.3179e-06 0.000269012
0.00098506 -1.83454e-05 4.09825e-06
-1.83454e-05 6.60487e-05 2.35789e-06
4.09825e-06 2.35789e-06 8.25423e-05
0.000931645 -2.25889e-05 -2.34293e-06
-2.25889e-05 4.37759e-05 -1.62456e-06
-2.34293e-06 -1.62456e-06 5.85636e-05
0.000777473 2.16391e-05 1.30748e-06
2.16391e-05 -4.07093e-05 -3.24029e-06
1.30748e-06 -3.24029e-06 -4.39343e-05
0.000781952 2.50603e-05 -1.52732e-07
2.50603e-05 -3.32204e-05 2.13662e-08
-1.52732e-07 2.13662e-08 -3.87404e-05
0.00221818 3.63941e-05 1.88242e-05
3.63941e-05 0.000728429 -3.72787e-06
1.88242e-05 -3.72787e-06 0.00074723
0.000791777 2.83561e-05 -2.48322e-06
2.83561e-05 -2.29337e-05 3.30018e-06
-2.48322e-06 3.30018e-06 -3.07245e-05
0.0022762 4.19814e-05 -9.71414e-07
4.19814e-05 0.000765899 -7.01738e-08
-9.71414e-07 -7.01738e-08 0.000782847
0.00233989 4.69599e-05 -2.73095e-05
4.69599e-05 0.000806896 3.60672e-06
-2.73095e-05 3.60672e-06 0.000821886
0.00157276 6.08621e-05 1.5233e-06
6.08621e-05 8.35982e-05 2.03269e-06
1.5233e-06 2.03269e-06 -1.00973e-05
0.00157924 1.71285e-05 3.02962e-07
1.71285e-05 4.85881e-05 4.5094e-08
3.02962e-07 4.5094e-08 -4.62886e-05
0.00154616 3.2006e-05 2.13991e-06
3.2006e-05 2.81249e-05 -9.37359e-07
2.13991e-06 -9.37359e-07 -5.72476e-05
0.00166083 -9.84879e-07 7.69575e-07
-9.84879e-07 7.37571e-05 -5.36703e-07
7.69575e-07 -5.36703e-07 -2.21488e-05
0.00176018 4.80508e-06 6.71745e-07
4.80508e-06 0.000123082 -1.73707e-06
6.71745e-07 -1.73707e-06 1.63929e-05
0.00170535 4.6241e-06 -9.29616e-07
4.6241e-06 9.16316e-05 -3.21209e-07
-9.29616e-07 -3.21209e-07 -1.9915e-05
0.00178011 1.51908e-05 -1.06085e-07
1.51908e-05 0.000112759 5.17539e-10
-1.06085e-07 5.17539e-10 9.78298e-07
0.00173536 -2.68091e-06 3.14006e-07
-2.68091e-06 9.9104e-05 -7.70922e-07
3.14006e-07 -7.70922e-07 -3.18334e-06
0.0016819 1.24824e-05 4.63912e-07
1.24824e-05 8.09765e-05 3.78671e-08
4.63912e-07 3.78671e-08 -1.0485e-05
0.00164746 4.82377e-05 -3.84826e-08
4.82377e-05 8.07738e-05 -3.67163e-07
-3.84826e-08 -3.67163e-07 -5.21156e-06
0.00183977 8.89047e-06 -1.16144e-06
8.89047e-06 0.00013914 9.63663e-07
-1.16144e-06 9.63663e-07 3.08975e-05
0.00178398 -6.35181e-06 -6.94287e-07
-6.35181e-06 0.000106529 1.08625e-07
-6.94287e-07 1.08625e-07 1.34599e-05
0.00179013 2.95677e-05 3.30871e-07
2.95677e-05 0.000125899 7.51791e-07
3.30871e-07 7.51791e-07 3.66752e-05
0.00167339 8.81077e-06 -9.88551e-07
8.81077e-06 7.53833e-05 1.57264e-06
-9.88551e-07 1.57264e-06 -3.0775e-05
0.00177336 -5.00003e-06 -8.93257e-07
-5.00003e-06 0.000135972 2.01307e-07
-8.93257e-07 2.01307e-07 3.45899e-05
0.00186315 -4.57534e-05 -1.07693e-06
-4.57534e-05 0.000171244 1.0517e-06
-1.07693e-06 1.0517e-06 7.85889e-05
0.00110495 -8.70477e-05 -3.53408e-07
-8.70477e-05 0.000142569 -6.48942e-07
-3.53408e-07 -6.48942e-07 5.70811e-05
0.00117916 -9.54555e-05 2.42138e-07
-9.54555e-05 0.000179049 1.64257e-08
2.42138e-07 1.64257e-08 8.28214e-05
0.00111768 -0.000104428 -1.4981e-06
-0.000104428 9.81535e-05 1.67417e-06
-1.4981e-06 1.67417e-06 -2.625e-05
0.0016043 -7.98794e-05 -3.42005e-07
-7.98794e-05 9.63616e-05 3.63118e-07
-3.42005e-07 3.63118e-07 6.74274e-06
0.00112817 -9.40596e-05 -2.21064e-06
-9.40596e-05 -7.94856e-05 -1.17199e-06
-2.21064e-06 -1.17199e-06 -0.000163416
0.00143809 -0.000113094 -2.16711e-06
-0.000113094 0.000169657 -3.30298e-06
-2.16711e-06 -3.30298e-06 5.76477e-05
0.00106865 -8.57423e-05 4.78121e-08
-8.57423e-05 0.000126491 -1.62042e-06
4.78121e-08 -1.62042e-06 3.98302e-05
0.000928755 -7.89025e-05 -1.59525e-06
-7.89025e-05 5.79072e-05 -2.0578e-06
-1.59525e-06 -2.0578e-06 -3.01354e-05
0.00105431 -6.95172e-05 9.38916e-08
-6.95172e-05 0.000132133 -1.18193e-07
9.38916e-08 -1.18193e-07 4.10902e-05
0.00060695 2.33125e-05 -9.24203e-07
2.33125e-05 -0.000124774 1.01422e-06
-9.24203e-07 1.01422e-06 -0.000158562
0.00106663 -2.08901e-05 -1.26824e-07
-2.08901e-05 0.000125194 2.80724e-07
-1.26824e-07 2.80724e-07 5.56717e-05
0.000771514 2.16312e-05 -3.90718e-08
2.16312e-05 -3.71557e-05 1.04817e-06
-3.90718e-08 1.04817e-06 -9.11441e-05
0.00177115 1.11513e-05 6.22098e-08
1.11513e-05 0.000112114 -4.30482e-07
6.22098e-08 -4.30482e-07 5.10006e-06
0.00171344 -7.30446e-06 6.31462e-07
-7.30446e-06 7.56396e-05 -3.39899e-07
6.31462e-07 -3.39899e-07 -2.55535e-05
0.00156924 -5.28141e-05 3.12229e-07
-5.28141e-05 9.05132e-06 -7.06278e-07
3.12229e-07 -7.06278e-07 -8.72378e-05
0.00104725 -8.65795e-05 5.88498e-09
-8.65795e-05 0.000114965 5.50889e-07
5.88498e-09 5.50889e-07 2.59288e-05
0.000825117 -8.5868e-05 -1.1758e-07
-8.5868e-05 -1.28073e-06 2.04867e-07
-1.1758e-07 2.04867e-07 -0.000113417
0.00156155 -0.00012697 -1.71376e-06
-0.00012697 0.00030021 1.39881e-06
-1.71376e-06 1.39881e-06 0.000165061
0.00171679 -9.69196e-05 -1.44998e-06
-9.69196e-05 0.000112444 1.24578e-06
-1.44998e-06 1.24578e-06 3.14101e-05
0.00143507 -0.000113548 1.1113e-06
-0.000113548 9.41937e-05 -7.28598e-07
1.1113e-06 -7.28598e-07 -1.16113e-05
0.000741673 1.81276e-05 1.38123e-07
1.81276e-05 -5.64272e-05 -5.70488e-07
1.38123e-07 -5.70488e-07 -8.72985e-05
0.000990112 1.13252e-05 -3.21946e-07
1.13252e-05 7.97349e-05 1.45863e-07
-3.21946e-07 1.45863e-07 2.94869e-05
0.000901633 -7.90774e-05 -8.28034e-07
-7.90774e-05 4.02786e-05 1.72435e-07
-8.28034e-07 1.72435e-07 -4.81686e-05
0.00101851 -8.40786e-05 8.26718e-07
-8.40786e-05 0.000105143 4.41049e-07
8.26718e-07 4.41049e-07 1.29113e-05
0.000966053 -3.40309e-05 -8.07282e-08
-3.40309e-05 7.93904e-05 -2.70849e-07
-8.07282e-08 -2.70849e-07 -3.46169e-06
0.00101592 -2.35489e-05 -5.30601e-07
-2.35489e-05 9.91959e-05 8.82707e-07
-5.30601e-07 8.82707e-07 3.24404e-05
0.00176795 1.49403e-05 -2.32727e-06
1.49403e-05 9.88227e-05 -8.59858e-08
-2.32727e-06 -8.59858e-08 -5.43152e-06
0.00177299 -1.88698e-05 2.95482e-07
-1.88698e-05 8.47114e-05 1.21671e-06
2.95482e-07 1.21671e-06 -1.63278e-05
0.00174938 -7.46067e-05 3.00398e-06
-7.46067e-05 5.88164e-05 -4.18524e-06
3.00398e-06 -4.18524e-06 -2.85793e-05
0.00199798 -0.000124924 1.11923e-06
-0.000124924 0.000250188 -2.17397e-07
1.11923e-06 -2.17397e-07 0.000165598
0.00077956 -7.67584e-05 -1.33121e-06
-7.67584e-05 -7.14934e-06 1.00073e-06
-1.33121e-06 1.00073e-06 -0.000102537
0.00139742 -0.00012572 3.76275e-07
-0.00012572 0.000175535 3.58626e-06
3.76275e-07 3.58626e-06 2.62338e-05
0.00150853 -0.000119001 5.54819e-07
-0.000119001 0.000334874 -2.69757e-06
5.54819e-07 -2.69757e-06 0.000207102
0.000862964 1.46002e-05 6.24826e-07
1.46002e-05 4.39371e-06 -1.63082e-06
6.24826e-07 -1.63082e-06 -2.34012e-05
0.000879236 -3.79034e-05 8.62732e-07
-3.79034e-05 2.6253e-05 -8.6347e-07
8.62732e-07 -8.6347e-07 -1.96671e-05
0.000758212 1.16005e-05 3.53726e-07
1.16005e-05 -3.94124e-05 -1.44941e-06
3.53726e-07 -1.44941e-06 -9.0223e-05
0.000974796 -2.64455e-05 7.32575e-07
-2.64455e-05 7.88885e-05 -3.59732e-09
7.32575e-07 -3.59732e-09 1.4746e-05
0.000967023 1.66041e-06 -1.64496e-07
1.66041e-06 7.64585e-05 -1.87166e-07
-1.64496e-07 -1.87166e-07 1.92752e-06
0.000898228 -8.10519e-05 2.02983e-06
-8.10519e-05 5.92652e-05 1.64603e-06
2.02983e-06 1.64603e-06 -3.86453e-05
0.00081117 -7.55063e-05 -1.3399e-06
-7.55063e-05 -2.0648e-05 2.1874e-06
-1.3399e-06 2.1874e-06 -0.000105243
0.00168254 -0.000115029 -8.97255e-07
-0.000115029 0.00045892 2.60883e-06
-8.97255e-07 2.60883e-06 0.000363307
0.000891034 -1.79341e-05 -4.31174e-07
-1.79341e-05 2.93062e-05 -1.20398e-06
-4.31174e-07 -1.20398e-06 -2.09736e-05
0.000926619 1.25096e-05 -4.2518e-07
1.25096e-05 5.32989e-05 -3.74425e-07
-4.2518e-07 -3.74425e-07 -1.57605e-05
0.00186505 8.4064e-05 7.00376e-07
8.4064e-05 0.000218623 6.04389e-07
7.00376e-07 6.04389e-07 0.000135264
0.000963588 2.68863e-05 -6.46799e-07
2.68863e-05 8.35692e-05 -5.90334e-07
-6.46799e-07 -5.90334e-07 -2.6996e-06
0.00106969 8.82152e-05 -9.89301e-07
8.82152e-05 0.000153444 -1.91227e-06
-9.89301e-07 -1.91227e-06 5.36e-05
0.000876954 5.8958e-05 -1.8654e-06
5.8958e-05 4.65975e-05 -3.89208e-07
-1.8654e-06 -3.89208e-07 -5.17438e-05
0.00155721 0.00012403 -3.17371e-07
0.00012403 0.000226851 8.19562e-07
-3.17371e-07 8.19562e-07 0.000119391
0.00135863 0.000113406 1.57458e-06
0.000113406 6.26502e-05 5.07311e-06
1.57458e-06 5.07311e-06 -2.06375e-05
0.000924169 8.87962e-05 -4.04676e-07
8.87962e-05 6.42036e-05 2.64036e-07
-4.04676e-07 2.64036e-07 -5.62402e-05
0.00114839 0.000111467 -4.36567e-06
0.000111467 0.000100194 -6.26585e-07
-4.36567e-06 -6.26585e-07 -3.5815e-05
0.000835263 8.50048e-06 2.22373e-07
8.50048e-06 4.68151e-06 4.74091e-07
2.22373e-07 4.74091e-07 -5.97903e-05
0.000886112 4.22156e-05 -1.59593e-07
4.22156e-05 4.13517e-05 -6.97995e-07
-1.59593e-07 -6.97995e-07 -4.23191e-05
0.00108441 9.00389e-05 -4.56986e-07
9.00389e-05 0.000161779 -1.00137e-06
-4.56986e-07 -1.00137e-06 5.23225e-05
0.000901943 5.59215e-05 -2.35042e-07
5.59215e-05 5.51843e-05 -2.22279e-07
-2.35042e-07 -2.22279e-07 -4.53357e-05
0.00207789 5.5106e-05 -2.83086e-07
5.5106e-05 0.000255425 9.93841e-07
-2.83086e-07 9.93841e-07 0.000171264
0.00135554 9.91213e-05 1.51945e-06
9.91213e-05 -5.45256e-05 -1.39085e-06
1.51945e-06 -1.39085e-06 -0.00012463
0.00166412 0.000136185 -1.77192e-06
0.000136185 0.000274283 -1.14801e-07
-1.77192e-06 -1.14801e-07 0.000153114
0.00075938 8.999e-05 7.85052e-07
8.999e-05 -4.32159e-05 4.70337e-07
7.85052e-07 4.70337e-07 -0.000184718
0.00097167 1.32118e-05 4.06811e-07
1.32118e-05 7.90773e-05 4.34654e-07
4.06811e-07 4.34654e-07 6.6421e-06
0.00159845 2.13175e-05 -1.35458e-06
2.13175e-05 1.46282e-05 -7.03294e-07
-1.35458e-06 -7.03294e-07 -6.8631e-05
0.00111662 7.75241e-05 4.63241e-07
7.75241e-05 0.00017304 1.38568e-06
4.63241e-07 1.38568e-06 7.5703e-05
0.00109219 9.23419e-05 9.19714e-07
9.23419e-05 0.000150839 1.31704e-06
9.19714e-07 1.31704e-06 3.25585e-05
0.0023413 8.80435e-05 1.65822e-06
8.80435e-05 0.000319365 4.60959e-07
1.65822e-06 4.60959e-07 0.000249338
0.0015426 0.000133567 4.50352e-06
0.000133567 7.8473e-05 -4.10882e-06
4.50352e-06 -4.10882e-06 -2.76555e-05
0.00174256 0.000137181 1.30405e-06
0.000137181 0.000414578 1.54605e-06
1.30405e-06 1.54605e-06 0.000260609
0.000991798 2.73603e-06 -9.06186e-07
2.73603e-06 8.56155e-05 -4.30171e-07
-9.06186e-07 -4.30171e-07 2.63113e-05
0.000980293 2.47382e-09 -1.35598e-08
2.47382e-09 8.25555e-05 5.27838e-08
-1.35598e-08 5.27838e-08 1.45424e-05
0.000982291 6.39761e-06 4.83008e-07
6.39761e-06 8.74312e-05 9.29413e-07
4.83008e-07 9.29413e-07 1.13636e-05
0.000898323 -8.82196e-06 -9.3821e-08
-8.82196e-06 3.02277e-05 -8.67924e-07
-9.3821e-08 -8.67924e-07 -1.36177e-05
0.000894703 -2.50713e-06 8.55989e-08
-2.50713e-06 4.04781e-05 -1.40347e-07
8.55989e-08 -1.40347e-07 -1.77332e-05
0.000895797 9.76582e-06 -3.9715e-07
9.76582e-06 4.27738e-05 -1.19102e-06
-3.9715e-07 -1.19102e-06 -2.56146e-05
0.000905303 -1.84396e-05 -6.71604e-08
-1.84396e-05 3.29891e-05 2.23296e-08
-6.71604e-08 2.23296e-08 -1.09341e-05
0.000810539 -1.179e-05 -4.07563e-07
-1.179e-05 -4.97151e-06 3.97522e-07
-4.07563e-07 3.97522e-07 -6.2016e-05
0.000984022 -3.8709e-06 1.93284e-07
-3.8709e-06 8.79202e-05 -3.95551e-07
1.93284e-07 -3.95551e-07 1.51388e-05
0.000933995 3.25056e-06 6.42476e-08
3.25056e-06 6.46371e-05 4.56541e-07
6.42476e-08 4.56541e-07 -1.68548e-06
0.000990693 1.18876e-05 4.5045e-07
1.18876e-05 9.2689e-05 6.95955e-08
4.5045e-07 6.95955e-08 1.51118e-05
0.000864394 -2.1498e-05 9.64138e-08
-2.1498e-05 2.64266e-05 7.57383e-07
9.64138e-08 7.57383e-07 -4.56566e-05
0.000979719 1.08873e-05 2.21322e-07
1.08873e-05 8.64737e-05 1.78932e-07
2.21322e-07 1.78932e-07 2.2734e-05
0.000910687 8.18486e-06 8.90554e-07
8.18486e-06 4.782e-05 6.26608e-07
8.90554e-07 6.26608e-07 -9.37487e-06
0.000915231 6.98907e-07 1.10909e-07
6.98907e-07 3.66599e-05 7.63329e-07
1.10909e-07 7.63329e-07 -6.83322e-06
0.000855119 9.41185e-06 3.75955e-07
9.41185e-06 -1.48183e-06 1.57516e-06
3.75955e-07 1.57516e-06 -2.83248e-05
0.000861254 -1.19711e-06 -1.68031e-07
-1.19711e-06 8.36213e-07 4.34064e-09
-1.68031e-07 4.34064e-09 -2.53843e-05
0.00134087 -5.18982e-06 7.56178e-07
-5.18982e-06 0.000244984 1.83005e-06
7.56178e-07 1.83005e-06 0.000248549
0.000865252 -1.14845e-05 -1.81108e-07
-1.14845e-05 2.73572e-06 -1.62616e-06
-1.81108e-07 -1.62616e-06 -2.29698e-05
0.00135797 -9.63427e-06 -1.66283e-06
-9.63427e-06 0.000255531 -1.19656e-06
-1.66283e-06 -1.19656e-06 0.000259164
0.00103555 -9.36785e-06 7.74067e-06
-9.36785e-06 8.60983e-05 6.25034e-06
7.74067e-06 6.25034e-06 0.000103566
0.00137203 -1.42272e-05 -4.17054e-06
-1.42272e-05 0.000265332 -4.2446e-06
-4.17054e-06 -4.2446e-06 0.000268711
0.000992484 -1.41015e-05 2.85883e-06
-1.41015e-05 6.55731e-05 2.36617e-06
2.85883e-06 2.36617e-06 8.29356e-05
0.000937289 -1.84766e-05 -1.7271e-06
-1.84766e-05 4.08904e-05 -1.56717e-06
-1.7271e-06 -1.56717e-06 5.74506e-05
0.000860306 1.09734e-05 3.51621e-07
1.09734e-05 4.47521e-07 -1.59243e-06
3.51621e-07 -1.59243e-06 -2.51758e-05
0.000788781 1.7725e-05 1.04124e-06
1.7725e-05 -3.98157e-05 -3.15031e-06
1.04124e-06 -3.15031e-06 -4.09433e-05
0.00079351 2.18765e-05 -1.27338e-07
2.18765e-05 -3.23824e-05 2.71847e-08
-1.27338e-07 2.71847e-08 -3.57037e-05
0.00216393 3.04326e-05 1.56791e-05
3.04326e-05 0.000694337 -3.76518e-06
1.56791e-05 -3.76518e-06 0.000714746
0.000798255 2.52572e-05 -2.06788e-06
2.52572e-05 -2.47892e-05 3.24428e-06
-2.06788e-06 3.24428e-06 -3.03874e-05
0.00222637 3.64336e-05 -1.17849e-06
3.64336e-05 0.000733537 -6.29936e-08
-1.17849e-06 -6.29936e-08 0.000752141
0.00227868 4.17593e-05 -2.39827e-05
4.17593e-05 0.000768047 3.70058e-06
-2.39827e-05 3.70058e-06 0.000784842
0.00145069 4.33841e-05 6.834e-07
4.33841e-05 -2.11443e-05 -2.82604e-07
6.834e-07 -2.82604e-07 -0.000106837
0.00168481 1.26104e-05 7.25013e-07
1.26104e-05 8.3534e-05 -1.54918e-08
7.25013e-07 -1.54918e-08 -7.79053e-06
0.00172625 -3.00112e-06 1.01074e-06
-3.00112e-06 9.49877e-05 -1.92827e-06
1.01074e-06 -1.92827e-06 -7.35206e-06
0.00177757 1.71599e-05 2.10313e-07
1.71599e-05 0.000117028 -1.49414e-07
2.10313e-07 -1.49414e-07 6.72006e-06
0.00178984 9.31797e-06 -2.51054e-08
9.31797e-06 0.000113796 6.0089e-07
-2.51054e-08 6.0089e-07 5.44344e-06
0.00178458 -5.80321e-06 -6.85534e-08
-5.80321e-06 0.000105872 -5.07703e-07
-6.85534e-08 -5.07703e-07 1.29077e-05
0.00170747 2.98235e-05 3.91216e-07
2.98235e-05 8.46238e-05 4.34655e-07
3.91216e-07 4.34655e-07 -4.81072e-06
0.00178931 2.12835e-06 -1.23344e-06
2.12835e-06 0.000105152 1.36069e-06
-1.23344e-06 1.36069e-06 5.41136e-06
0.00184888 3.4258e-06 -1.59793e-06
3.4258e-06 0.000138312 -9.11119e-08
-1.59793e-06 -9.11119e-08 4.95385e-05
0.0016029 5.98615e-08 -6.93893e-07
5.98615e-08 -3.45009e-06 2.14723e-07
-6.93893e-07 2.14723e-07 -8.42157e-05
0.00172566 1.12713e-05 4.9057e-07
1.12713e-05 8.74327e-05 5.85796e-07
4.9057e-07 5.85796e-07 -2.05013e-05
0.0017548 -9.26917e-06 -3.09104e-07
-9.26917e-06 9.73967e-05 -1.3327e-07
-3.09104e-07 -1.3327e-07 -4.0952e-06
0.0017491 -5.46451e-05 -2.12635e-06
-5.46451e-05 9.48626e-05 8.14907e-08
-2.12635e-06 8.14907e-08 -1.6819e-06
0.00110748 -8.90436e-05 -1.19134e-07
-8.90436e-05 0.000144524 8.12547e-08
-1.19134e-07 8.12547e-08 5.50889e-05
0.000868134 -8.70589e-05 6.07149e-07
-8.70589e-05 2.47337e-05 2.55778e-06
6.07149e-07 2.55778e-06 -8.48388e-05
0.00158866 -0.000127508 -2.34318e-06
-0.000127508 0.000311033 2.76028e-06
-2.34318e-06 2.76028e-06 0.000176575
0.00172951 -9.94263e-05 2.39289e-06
-9.94263e-05 0.00012527 3.63397e-06
2.39289e-06 3.63397e-06 4.38017e-05
0.00126698 -0.000108054 -2.53105e-06
-0.000108054 5.62952e-06 -3.09716e-06
-2.53105e-06 -3.09716e-06 -9.93725e-05
0.000756857 -7.31095e-05 -1.11865e-06
-7.31095e-05 -3.35379e-05 -1.15126e-06
-1.11865e-06 -1.15126e-06 -0.000121679
0.00108595 -8.64557e-05 1.50088e-06
-8.64557e-05 0.000138915 -2.68504e-06
1.50088e-06 -2.68504e-06 4.78112e-05
0.000931002 -5.09991e-06 -3.34659e-08
-5.09991e-06 5.72061e-05 -3.78217e-07
-3.34659e-08 -3.78217e-07 -2.31093e-05
0.000850025 1.78078e-05 -7.90185e-07
1.78078e-05 8.88764e-08 1.10106e-06
-7.90185e-07 1.10106e-06 -2.9755e-05
0.000978353 2.60442e-05 -5.38514e-07
2.60442e-05 7.36981e-05 9.27266e-07
-5.38514e-07 9.27266e-07 2.3568e-05
0.000958191 -1.41118e-05 -6.59287e-07
-1.41118e-05 6.94264e-05 1.2024e-06
-6.59287e-07 1.2024e-06 2.11699e-06
0.0018449 1.5945e-05 2.71828e-07
1.5945e-05 0.00013957 2.91491e-07
2.71828e-07 2.91491e-07 3.69752e-05
0.000862411 1.389e-05 1.22163e-08
1.389e-05 3.75614e-06 1.54533e-08
1.22163e-08 1.54533e-08 -2.40051e-05
0.000807466 -2.61779e-06 -3.86219e-07
-2.61779e-06 -1.38968e-05 5.93599e-08
-3.86219e-07 5.93599e-08 -5.85346e-05
0.00184017 -1.93845e-05 -9.41199e-08
-1.93845e-05 0.000116902 -8.14208e-07
-9.41199e-08 -8.14208e-07 1.52223e-05
0.00165833 -7.454e-05 1.05869e-07
-7.454e-05 1.88017e-05 -1.19914e-06
1.05869e-07 -1.19914e-06 -7.16352e-05
0.000806178 -7.74785e-05 1.58207e-07
-7.74785e-05 8.25815e-06 1.44453e-06
1.58207e-07 1.44453e-06 -8.56632e-05
0.0014047 -0.000114931 -8.28247e-07
-0.000114931 0.000282026 4.88442e-07
-8.28247e-07 4.88442e-07 0.000150592
0.00124993 -0.000117851 8.81197e-07
-0.000117851 9.55121e-05 1.23088e-06
8.81197e-07 1.23088e-06 -4.68361e-05
0.00181065 -0.000121024 3.20998e-07
-0.000121024 0.000162313 -7.70263e-08
3.20998e-07 -7.70263e-08 7.82403e-05
0.000941159 -8.09323e-06 9.04462e-07
-8.09323e-06 5.67166e-05 -4.80135e-07
9.04462e-07 -4.80135e-07 7.2932e-06
0.000955994 -1.39539e-05 -4.70125e-07
-1.39539e-05 7.02962e-05 4.38916e-07
-4.70125e-07 4.38916e-07 5.54365e-06
0.000947227 -8.11761e-05 3.32313e-07
-8.11761e-05 4.64907e-05 6.00048e-07
3.32313e-07 6.00048e-07 -3.99539e-05
0.00125795 -9.70525e-05 2.69037e-07
-9.70525e-05 0.000239369 -8.46782e-07
2.69037e-07 -8.46782e-07 0.000149902
0.000840017 -5.97239e-05 4.98723e-08
-5.97239e-05 2.77372e-05 2.93708e-07
4.98723e-08 2.93708e-07 -6.97602e-05
0.000964096 -6.95352e-07 7.40952e-08
-6.95352e-07 7.54895e-05 -2.45459e-07
7.40952e-08 -2.45459e-07 1.41909e-07
0.00163179 1.28615e-05 -2.81931e-06
1.28615e-05 1.09227e-05 -1.62914e-07
-2.81931e-06 -1.62914e-07 -7.49645e-05
0.00201355 -2.90361e-05 6.23314e-07
-2.90361e-05 0.000192703 2.29763e-06
6.23314e-07 2.29763e-06 9.0922e-05
0.00177939 -0.000109777 -2.94107e-06
-0.000109777 2.27092e-05 -4.64529e-06
-2.94107e-06 -4.64529e-06 -4.72458e-05
0.00139971 -0.000130717 1.58982e-06
-0.000130717 4.34558e-05 2.24603e-06
1.58982e-06 2.24603e-06 -7.13463e-05
0.00115128 -8.57852e-05 -2.02979e-06
-8.57852e-05 0.000180191 -2.64222e-07
-2.02979e-06 -2.64222e-07 8.25418e-05
0.001787 -0.00014523 -5.92269e-07
-0.00014523 0.000456419 -1.04685e-06
-5.92269e-07 -1.04685e-06 0.000292461
0.000726518 3.10384e-05 -8.83319e-07
3.10384e-05 -5.57321e-05 -1.23529e-06
-8.83319e-07 -1.23529e-06 -9.93825e-05
0.000876718 -1.63298e-05 6.3002e-07
-1.63298e-05 2.18957e-05 -9.83214e-07
6.3002e-07 -9.83214e-07 -2.41477e-05
0.00109308 -2.87119e-05 4.09271e-07
-2.87119e-05 0.000147691 -3.41833e-07
4.09271e-07 -3.41833e-07 9.00748e-05
0.000811273 1.97047e-05 -6.80671e-07
1.97047e-05 -7.62273e-07 -7.38495e-07
-6.80671e-07 -7.38495e-07 -6.69344e-05
0.00108822 -7.80351e-06 2.09086e-08
-7.80351e-06 0.000142166 7.47659e-08
2.09086e-08 7.47659e-08 7.04671e-05
0.000734174 -1.39135e-05 8.0511e-08
-1.39135e-05 -2.91775e-05 6.81931e-07
8.0511e-08 6.81931e-07 -0.000115199
0.00116103 -6.58187e-05 3.94794e-06
-6.58187e-05 0.000206779 3.90609e-07
3.94794e-06 3.90609e-07 0.000101065
0.00088238 -8.56475e-05 -4.17722e-06
-8.56475e-05 3.59891e-05 2.13254e-06
-4.17722e-06 2.13254e-06 -5.06433e-05
0.000829914 1.87132e-05 -3.61738e-07
1.87132e-05 3.44158e-06 -3.98319e-07
-3.61738e-07 -3.98319e-07 -6.2693e-05
0.000923282 4.4455e-05 -1.25094e-06
4.4455e-05 6.14248e-05 -1.5676e-06
-1.25094e-06 -1.5676e-06 -2.2078e-05
0.00188783 4.97537e-05 6.02305e-07
4.97537e-05 0.000157374 6.7794e-07
6.02305e-07 6.7794e-07 7.10255e-05
0.00138778 9.89595e-05 -5.68135e-07
9.89595e-05 -2.50207e-05 4.76505e-07
-5.68135e-07 4.76505e-07 -9.60861e-05
0.0011264 6.16733e-05 -1.77875e-06
6.16733e-05 0.000170253 -8.25419e-07
-1.77875e-06 -8.25419e-07 7.00801e-05
0.00107666 8.96226e-05 -2.0141e-06
8.96226e-05 0.000159306 -2.25536e-06
-2.0141e-06 -2.25536e-06 5.04802e-05
0.00203481 0.000148855 -2.43816e-06
0.000148855 0.000458142 2.07633e-06
-2.43816e-06 2.07633e-06 0.000339394
0.000999857 0.000102349 -1.70083e-06
0.000102349 7.02907e-05 -8.8822e-07
-1.70083e-06 -8.8822e-07 -7.06285e-05
0.000958474 2.37519e-05 5.08189e-09
2.37519e-05 7.46045e-05 -4.83289e-07
5.08189e-09 -4.83289e-07 9.23056e-07
0.00172383 2.00757e-05 -2.96984e-07
2.00757e-05 7.64208e-05 4.72591e-08
-2.96984e-07 4.72591e-08 -7.3914e-06
0.0010024 6.71732e-05 1.97672e-07
6.71732e-05 0.000112965 7.15164e-07
1.97672e-07 7.15164e-07 1.70842e-05
0.000914842 8.41503e-05 1.04052e-08
8.41503e-05 6.01271e-05 -1.632e-07
1.04052e-08 -1.632e-07 -5.9297e-05
0.00179193 7.82455e-05 9.54847e-07
7.82455e-05 5.15225e-05 -2.73462e-07
9.54847e-07 -2.73462e-07 -1.81579e-05
0.00187746 0.000146057 9.03865e-07
0.000146057 0.000241206 -4.9685e-07
9.03865e-07 -4.9685e-07 0.000135679
0.0016529 0.000134603 2.56547e-07
0.000134603 0.00037382 6.98135e-07
2.56547e-07 6.98135e-07 0.000221309
0.00101379 3.56718e-05 1.25668e-07
3.56718e-05 0.000111631 8.87467e-07
1.25668e-07 8.87467e-07 2.55378e-05
0.00239535 4.75866e-05 -1.16534e-06
4.75866e-05 0.000365096 -2.24789e-07
-1.16534e-06 -2.24789e-07 0.000294828
0.00147455 9.28021e-05 -7.24274e-07
9.28021e-05 0.000340936 2.4148e-07
-7.24274e-07 2.4148e-07 0.000236275
0.00184442 0.000131185 -1.5199e-06
0.000131185 0.000522887 1.60113e-06
-1.5199e-06 1.60113e-06 0.000387191
0.00209844 0.000150459 5.55355e-06
0.000150459 0.000169194 -2.13411e-06
5.55355e-06 -2.13411e-06 0.000114886
0.00090931 0.000113523 -7.68913e-08
0.000113523 -8.36903e-05 -1.62627e-07
-7.68913e-08 -1.62627e-07 -0.00023096
0.000727308 5.26212e-05 1.30231e-05
5.26212e-05 -0.00026247 1.32094e-06
1.30231e-05 1.32094e-06 -0.000336143
0.000989261 4.27384e-07 -3.631e-07
4.27384e-07 8.70807e-05 -7.87704e-07
-3.631e-07 -7.87704e-07 1.90542e-05
0.000979181 7.26511e-06 1.81032e-08
7.26511e-06 8.61271e-05 -4.9901e-08
1.81032e-08 -4.9901e-08 9.94494e-06
0.00102455 2.48682e-05 2.6578e-07
2.48682e-05 0.000107931 2.39575e-07
2.6578e-07 2.39575e-07 2.55697e-05
0.000893713 -2.37059e-05 9.51232e-08
-2.37059e-05 2.76174e-05 -8.17214e-07
9.51232e-08 -8.17214e-07 -1.67395e-05
0.000813296 -3.6876e-05 -3.22426e-07
-3.6876e-05 -3.14889e-06 -1.98506e-07
-3.22426e-07 -1.98506e-07 -6.04281e-05
0.00103817 3.79672e-05 -7.44066e-07
3.79672e-05 0.000121672 -1.33791e-07
-7.44066e-07 -1.33791e-07 5.44508e-05
0.000952807 -6.39544e-06 -8.73408e-08
-6.39544e-06 7.10131e-05 -1.13227e-06
-8.73408e-08 -1.13227e-06 -2.71945e-06
0.000896741 -1.57469e-05 -2.24788e-07
-1.57469e-05 2.94943e-05 3.51401e-08
-2.24788e-07 3.51401e-08 -1.56373e-05
0.000846108 -4.08566e-06 1.88302e-07
-4.08566e-06 1.09681e-05 1.82142e-08
1.88302e-07 1.82142e-08 -4.47749e-05
0.000959329 8.11573e-06 1.54699e-07
8.11573e-06 7.60142e-05 -5.91939e-07
1.54699e-07 -5.91939e-07 -1.64465e-06
0.000979116 -9.67018e-06 -2.26123e-07
-9.67018e-06 8.58725e-05 -1.89616e-07
-2.26123e-07 -1.89616e-07 2.19731e-05
0.000953162 -1.58103e-05 1.77381e-07
-1.58103e-05 7.31607e-05 -1.02893e-08
1.77381e-07 -1.02893e-08 1.69947e-06
0.000956596 2.85161e-06 -8.43128e-08
2.85161e-06 7.32147e-05 4.82861e-07
-8.43128e-08 4.82861e-07 -3.94937e-06
0.000969756 4.69545e-06 3.51785e-07
4.69545e-06 8.35723e-05 -3.57071e-08
3.51785e-07 -3.57071e-08 1.60575e-05
0.00102234 9.23644e-06 4.57679e-07
9.23644e-06 0.000103819 -1.72546e-07
4.57679e-07 -1.72546e-07 4.18929e-05
0.000822083 5.03693e-06 -2.85609e-07
5.03693e-06 -2.45944e-06 6.20717e-07
-2.85609e-07 6.20717e-07 -6.04871e-05
0.000769374 7.86214e-06 3.73347e-07
7.86214e-06 -4.00399e-05 1.21318e-06
3.73347e-07 1.21318e-06 -8.53342e-05
0.00105127 -4.74596e-06 2.64242e-07
-4.74596e-06 0.000122915 1.63587e-08
2.64242e-07 1.63587e-08 6.43546e-05
0.000760479 3.49775e-06 -4.52465e-07
3.49775e-06 -4.28242e-05 1.1583e-06
-4.52465e-07 1.1583e-06 -8.8582e-05
0.000857725 1.18683e-05 2.28766e-07
1.18683e-05 3.98672e-07 1.58309e-06
2.28766e-07 1.58309e-06 -2.67638e-05
0.000855552 1.53792e-06 -2.39214e-07
1.53792e-06 -1.27459e-06 4.14524e-09
-2.39214e-07 4.14524e-09 -2.80906e-05
0.000805127 4.66893e-07 2.25346e-07
4.66893e-07 -3.88265e-05 3.0337e-06
2.25346e-07 3.0337e-06 -3.85328e-05
0.000863205 -8.56788e-06 1.06194e-07
-8.56788e-06 1.88593e-06 -1.5712e-06
1.06194e-07 -1.5712e-06 -2.43429e-05
0.00108689 -4.13507e-06 -1.02699e-06
-4.13507e-06 0.000110642 -1.23809e-06
-1.02699e-06 -1.23809e-06 0.000112631
0.00211891 -6.4691e-06 4.70144e-06
-6.4691e-06 0.000658282 3.93286e-06
4.70144e-06 3.93286e-06 0.000681545
0.00138065 -9.02792e-06 -2.62402e-06
-9.02792e-06 0.000267751 -4.22609e-06
-2.62402e-06 -4.22609e-06 0.000271196
0.00100132 -9.64603e-06 1.55202e-06
-9.64603e-06 6.7344e-05 2.3962e-06
1.55202e-06 2.3962e-06 8.50138e-05
0.000951885 -1.39577e-05 -1.24134e-06
-1.39577e-05 4.38525e-05 -1.53237e-06
-1.24134e-06 -1.53237e-06 6.13989e-05
0.00086829 7.3692e-06 2.63581e-07
7.3692e-06 3.11466e-06 -1.57689e-06
2.63581e-07 -1.57689e-06 -2.08968e-05
0.000865327 1.0431e-05 -3.79458e-08
1.0431e-05 2.79224e-06 9.04055e-09
-3.79458e-08 9.04055e-09 -2.28361e-05
0.000797774 1.35241e-05 6.14127e-07
1.35241e-05 -3.91867e-05 -3.10448e-06
6.14127e-07 -3.10448e-06 -3.86381e-05
0.00108127 1.96769e-05 -4.70066e-07
1.96769e-05 0.000115004 3.46185e-08
-4.70066e-07 3.46185e-08 0.000115173
0.00212107 2.42558e-05 1.28184e-05
2.42558e-05 0.000666996 -3.81874e-06
1.28184e-05 -3.81874e-06 0.000688779
0.000809529 2.21226e-05 -1.55559e-06
2.21226e-05 -2.40509e-05 3.22045e-06
-1.55559e-06 3.22045e-06 -2.74688e-05
0.00217116 3.06168e-05 -1.25121e-06
3.06168e-05 0.000698884 -5.52429e-08
-1.25121e-06 -5.52429e-08 0.000719085
0.00223358 3.63942e-05 -2.08101e-05
3.63942e-05 0.000738116 3.7707e-06
-2.08101e-05 3.7707e-06 0.000756538
0.00160721 3.01021e-05 -2.27432e-07
3.01021e-05 3.45848e-05 5.04518e-07
-2.27432e-07 5.04518e-07 -5.50768e-05
0.00179164 -4.50118e-06 5.97942e-07
-4.50118e-06 0.000108527 -1.03232e-06
5.97942e-07 -1.03232e-06 1.56671e-05
0.00172499 5.77672e-06 7.52277e-07
5.77672e-06 8.13091e-05 1.25397e-07
7.52277e-07 1.25397e-07 -2.72502e-05
0.00179115 5.59326e-06 4.65975e-07
5.59326e-06 0.000105258 5.56226e-07
4.65975e-07 5.56226e-07 5.3359e-06
0.00178778 3.25145e-06 -2.36174e-07
3.25145e-06 0.000107135 -8.29297e-08
-2.36174e-07 -8.29297e-08 1.82456e-05
0.00173319 -2.88085e-06 1.31608e-06
-2.88085e-06 7.25512e-05 -3.37137e-08
1.31608e-06 -3.37137e-08 -7.42487e-06
0.0016521 9.23734e-06 -1.39999e-06
9.23734e-06 2.4919e-05 -2.46255e-07
-1.39999e-06 -2.46255e-07 -5.83197e-05
0.00373069 -7.63408e-05 2.77873e-06
-7.63408e-05 0.00100394 -2.96068e-06
2.77873e-06 -2.96068e-06 0.000953409
0.00143313 -2.72005e-06 -2.01623e-07
-2.72005e-06 -0.000133317 1.16033e-08
-2.01623e-07 1.16033e-08 -0.000202816
0.00090038 1.39385e-05 1.37955e-07
1.39385e-05 3.25126e-05 -7.19573e-07
1.37955e-07 -7.19573e-07 -7.69823e-06
0.00190077 1.67797e-05 1.58676e-06
1.67797e-05 0.000169725 -3.14512e-07
1.58676e-06 -3.14512e-07 6.8779e-05
0.00185017 -1.9947e-05 -1.17488e-06
-1.9947e-05 0.000120392 -1.43398e-06
-1.17488e-06 -1.43398e-06 1.80457e-05
0.00159139 -7.45356e-05 1.35288e-06
-7.45356e-05 -9.33118e-06 1.91171e-06
1.35288e-06 1.91171e-06 -0.000102199
0.000881877 -8.01344e-05 1.37804e-06
-8.01344e-05 4.9213e-05 4.68097e-07
1.37804e-06 4.68097e-07 -4.34545e-05
0.00123946 -0.000108194 -2.0608e-08
-0.000108194 0.000198778 3.02695e-06
-2.0608e-08 3.02695e-06 6.17359e-05
0.001107 -0.00011069 6.07502e-07
-0.00011069 1.98983e-05 -9.64041e-07
6.07502e-07 -9.64041e-07 -0.000117563
0.00166196 -0.000118221 -1.4663e-06
-0.000118221 9.48806e-05 -1.27594e-06
-1.4663e-06 -1.27594e-06 1.10057e-05
0.00108667 -8.70031e-05 2.73433e-06
-8.70031e-05 0.000115766 -2.82148e-06
2.73433e-06 -2.82148e-06 2.74122e-05
0.00077858 -7.6946e-05 -2.7243e-06
-7.6946e-05 -8.13855e-06 -6.22063e-06
-2.7243e-06 -6.22063e-06 -9.13149e-05
0.000750004 -5.63366e-05 2.73164e-07
-5.63366e-05 -1.76813e-05 3.39307e-07
2.73164e-07 3.39307e-07 -0.000116214
0.000864649 1.33639e-05 -7.35508e-07
1.33639e-05 4.66911e-06 1.68427e-06
-7.35508e-07 1.68427e-06 -2.3084e-05
0.000963023 -9.45175e-06 -3.22643e-08
-9.45175e-06 7.52412e-05 -5.52798e-07
-3.22643e-08 -5.52798e-07 -8.99989e-07
0.00112624 -3.17895e-05 -4.37447e-07
-3.17895e-05 0.000155361 4.94174e-07
-4.37447e-07 4.94174e-07 0.000106368
0.00094266 -5.12105e-07 -3.66068e-07
-5.12105e-07 6.43627e-05 9.87007e-07
-3.66068e-07 9.87007e-07 -9.42087e-07
0.000730466 8.19835e-06 1.822e-07
8.19835e-06 -5.66489e-05 8.19543e-07
1.822e-07 8.19543e-07 -0.000100102
0.00173871 1.2192e-05 -5.90236e-07
1.2192e-05 6.92758e-05 -1.4262e-07
-5.90236e-07 -1.4262e-07 -1.62362e-05
0.000813149 1.07407e-05 2.33454e-07
1.07407e-05 -1.0705e-05 -4.79034e-07
2.33454e-07 -4.79034e-07 -5.37852e-05
0.000883676 -2.05897e-05 -3.93676e-07
-2.05897e-05 2.7092e-05 2.64912e-08
-3.93676e-07 2.64912e-08 -2.01909e-05
0.000927674 -9.80383e-06 -7.14162e-07
-9.80383e-06 6.12829e-05 4.65412e-07
-7.14162e-07 4.65412e-07 2.29753e-06
0.00190864 -2.92576e-05 1.77086e-06
-2.92576e-05 0.000130655 4.61995e-07
1.77086e-06 4.61995e-07 3.03823e-05
0.00197934 -0.000114704 -1.5973e-06
-0.000114704 0.000135503 -4.30867e-07
-1.5973e-06 -4.30867e-07 6.24371e-05
0.000936377 -8.01185e-05 -8.62358e-07
-8.01185e-05 6.03361e-05 5.47238e-07
-8.62358e-07 5.47238e-07 -3.50098e-05
0.00107953 -0.00011357 4.15911e-07
-0.00011357 0.000108176 -7.96056e-07
4.15911e-07 -7.96056e-07 -5.94767e-05
0.00143594 -0.000134546 5.57078e-07
-0.000134546 6.38804e-05 6.51314e-07
5.57078e-07 6.51314e-07 -5.2028e-05
0.000911054 1.06828e-05 -1.74656e-07
1.06828e-05 5.11944e-05 3.79868e-08
-1.74656e-07 3.79868e-08 -1.40117e-05
0.00101162 -1.96587e-05 -1.57755e-07
-1.96587e-05 0.000105587 4.07602e-09
-1.57755e-07 4.07602e-09 3.17185e-05
0.000810937 -8.27749e-05 -3.17019e-06
-8.27749e-05 1.58366e-06 7.40731e-07
-3.17019e-06 7.40731e-07 -8.76225e-05
0.00108756 -5.12974e-05 4.20663e-07
-5.12974e-05 0.00016733 -4.63012e-07
4.20663e-07 -4.63012e-07 6.40978e-05
0.000901241 -2.70748e-05 1.57646e-07
-2.70748e-05 5.74939e-05 7.21635e-07
1.57646e-07 7.21635e-07 -2.85144e-05
0.00188475 2.02548e-06 -2.11439e-06
2.02548e-06 0.000126445 9.4316e-07
-2.11439e-06 9.4316e-07 4.49127e-05
0.0023363 -6.67016e-05 -7.46482e-07
-6.67016e-05 0.000290724 -7.40605e-07
-7.46482e-07 -7.40605e-07 0.000214464
0.00167981 -0.000145856 3.57716e-06
-0.000145856 1.95847e-05 -2.79934e-06
3.57716e-06 -2.79934e-06 -7.2614e-05
0.00158781 -0.000143952 -3.68923e-06
-0.000143952 0.000282593 1.25737e-07
-3.68923e-06 1.25737e-07 0.000136372
0.00108462 -9.58192e-05 2.47143e-07
-9.58192e-05 0.000160057 -1.50908e-06
2.47143e-07 -1.50908e-06 3.33013e-05
0.000741524 1.06281e-05 8.30976e-08
1.06281e-05 -3.67741e-05 -7.00266e-07
8.30976e-08 -7.00266e-07 -9.47495e-05
0.000848542 3.16668e-05 4.12077e-08
3.16668e-05 2.09628e-05 -8.76074e-07
4.12077e-08 -8.76074e-07 -4.22702e-05
0.00109381 1.19205e-05 4.61362e-07
1.19205e-05 0.000148044 3.82732e-07
4.61362e-07 3.82732e-07 8.09824e-05
0.000949262 -3.62285e-05 8.47819e-07
-3.62285e-05 7.75957e-05 -2.24405e-07
8.47819e-07 -2.24405e-07 4.28764e-06
0.00108447 1.203e-06 3.91781e-07
1.203e-06 0.000143923 8.10683e-07
3.91781e-07 8.10683e-07 6.67901e-05
0.000876301 -1.91923e-05 -7.1637e-07
-1.91923e-05 5.34493e-05 -8.03265e-07
-7.1637e-07 -8.03265e-07 -3.82917e-05
0.000842806 -6.09376e-05 5.41393e-06
-6.09376e-05 6.00076e-05 1.20395e-06
5.41393e-06 1.20395e-06 -6.21823e-05
0.000942558 3.37613e-05 -6.1962e-07
3.37613e-05 6.87845e-05 -1.48575e-06
-6.1962e-07 -1.48575e-06 -6.12199e-06
0.000892472 5.81913e-05 -1.57932e-07
5.81913e-05 5.53836e-05 -2.55979e-07
-1.57932e-07 -2.55979e-07 -3.92125e-05
0.00185454 1.83007e-05 1.3997e-06
1.83007e-05 0.000140607 2.15699e-07
1.3997e-06 2.15699e-07 5.62827e-05
0.00126945 6.91545e-05 3.81992e-07
6.91545e-05 -0.000203723 -5.46329e-07
3.81992e-07 -5.46329e-07 -0.000272678
0.00221973 0.000158599 -1.68405e-06
0.000158599 0.000406141 1.49042e-06
-1.68405e-06 1.49042e-06 0.00030135
0.000747688 7.65446e-05 -4.55581e-07
7.65446e-05 -2.53256e-05 -9.30385e-07
-4.55581e-07 -9.30385e-07 -0.000145844
0.00154642 0.000131187 -1.01837e-06
0.000131187 0.000324218 4.88202e-07
-1.01837e-06 4.88202e-07 0.000174074
0.00102362 2.876e-05 -1.7548e-08
2.876e-05 0.000116134 7.84803e-08
-1.7548e-08 7.84803e-08 3.20641e-05
0.00174936 4.09273e-05 -1.69738e-06
4.09273e-05 1.99779e-05 -3.5212e-07
-1.69738e-06 -3.5212e-07 -4.59802e-05
0.00120018 8.42855e-05 -5.8032e-07
8.42855e-05 0.000205708 1.69289e-08
-5.8032e-07 1.69289e-08 0.00010193
0.00132432 0.000107084 -6.64434e-07
0.000107084 0.000266848 8.28522e-07
-6.64434e-07 8.28522e-07 0.000131962
0.00191642 0.000137189 1.26833e-06
0.000137189 7.76525e-05 -8.64869e-07
1.26833e-06 -8.64869e-07 2.3542e-05
0.00126865 0.000128503 -9.53962e-07
0.000128503 0.000105184 1.4589e-06
-9.53962e-07 1.4589e-06 -4.85241e-05
0.00178531 4.03625e-05 2.01215e-06
4.03625e-05 0.000107062 -1.17832e-06
2.01215e-06 -1.17832e-06 3.41618e-05
0.00106062 4.82395e-05 -3.47723e-07
4.82395e-05 0.00013208 -3.4078e-07
-3.47723e-07 -3.4078e-07 4.00536e-05
0.00207782 0.000104448 -2.31518e-07
0.000104448 0.000121499 -5.97526e-06
-2.31518e-07 -5.97526e-06 0.000113621
0.00129884 0.000101292 -1.33339e-06
0.000101292 0.000266949 -3.80905e-07
-1.33339e-06 -3.80905e-07 0.000158919
0.00102588 0.000101305 -1.63721e-06
0.000101305 0.000129914 -1.3899e-08
-1.63721e-06 -1.3899e-08 -3.41084e-05
0.000340827 0.000136377 -7.43029e-07
0.000136377 -0.000498799 -2.16091e-06
-7.43029e-07 -2.16091e-06 -0.000623213
0.00625184 -9.57028e-05 -3.09998e-05
-9.57028e-05 0.00200874 -8.22213e-06
-3.09998e-05 -8.22213e-06 0.00143419
0.00234818 -2.78299e-05 6.80181e-05
-2.78299e-05 -8.7297e-05 3.41871e-06
6.80181e-05 3.41871e-06 -0.000469663
0.00117421 0.000146026 1.29297e-05
0.000146026 -0.00016841 1.01838e-05
1.29297e-05 1.01838e-05 -0.000135016
-0.00238027 -0.000254551 -2.11918e-05
-0.000254551 -0.00116928 -1.6571e-05
-2.11918e-05 -1.6571e-05 -0.00108841
0.00239157 -0.000368621 -2.09033e-05
-0.000368621 0.000198248 -3.94214e-06
-2.09033e-05 -3.94214e-06 0.00106344
0.000981045 7.63904e-06 -4.30031e-07
7.63904e-06 8.73096e-05 -1.04243e-06
-4.30031e-07 -1.04243e-06 1.10219e-05
0.00101693 1.82585e-05 1.56592e-07
1.82585e-05 0.000105037 -2.31926e-07
1.56592e-07 -2.31926e-07 2.36448e-05
0.00106927 4.0217e-05 -1.58116e-08
4.0217e-05 0.000128093 2.65729e-07
-1.58116e-08 2.65729e-07 4.54518e-05
0.000880717 -3.50099e-05 2.71056e-07
-3.50099e-05 2.35377e-05 -8.82226e-07
2.71056e-07 -8.82226e-07 -2.31828e-05
0.000781568 1.41174e-05 -3.02388e-07
1.41174e-05 -2.24215e-05 -5.83196e-07
-3.02388e-07 -5.83196e-07 -7.90569e-05
0.000975463 -3.17382e-05 -7.12202e-08
-3.17382e-05 8.28895e-05 -5.43559e-07
-7.12202e-08 -5.43559e-07 1.93965e-05
0.00103558 -8.85262e-06 -2.85494e-07
-8.85262e-06 0.000116558 -4.56542e-07
-2.85494e-07 -4.56542e-07 4.58852e-05
0.000926864 3.14776e-06 1.25828e-07
3.14776e-06 5.86869e-05 -1.44521e-06
1.25828e-07 -1.44521e-06 -1.9065e-05
0.000955372 1.62811e-05 -4.66008e-07
1.62811e-05 7.00504e-05 -3.5003e-07
-4.66008e-07 -3.5003e-07 6.67644e-06
0.000828764 3.73291e-06 9.33294e-08
3.73291e-06 -6.08022e-06 4.41073e-07
9.33294e-08 4.41073e-07 -5.23011e-05
0.000881493 4.13884e-06 -2.28709e-07
4.13884e-06 2.90776e-05 -1.98036e-08
-2.28709e-07 -1.98036e-08 -2.88202e-05
0.0009478 3.79527e-06 -2.48862e-08
3.79527e-06 6.95079e-05 1.50519e-07
-2.48862e-08 1.50519e-07 -7.39794e-06
0.000962022 4.74367e-07 1.00416e-07
4.74367e-07 7.84699e-05 -7.38924e-08
1.00416e-07 -7.38924e-08 1.09453e-05
0.000900727 1.69301e-05 4.67173e-07
1.69301e-05 4.52839e-05 -2.07703e-07
4.67173e-07 -2.07703e-07 -2.10917e-05
0.00100663 2.07226e-05 4.89888e-07
2.07226e-05 0.000100182 3.40701e-07
4.89888e-07 3.40701e-07 2.8151e-05
0.000851613 6.03969e-06 4.72206e-07
6.03969e-06 9.88486e-06 5.68547e-07
4.72206e-07 5.68547e-07 -5.28551e-05
0.000839762 1.33869e-06 7.04146e-07
1.33869e-06 3.7867e-06 2.30941e-07
7.04146e-07 2.30941e-07 -5.46947e-05
0.000739474 -3.07518e-05 -1.22505e-06
-3.07518e-05 -5.26488e-05 1.29689e-06
-1.22505e-06 1.29689e-06 -9.96058e-05
0.00096227 6.94238e-06 -2.67587e-07
6.94238e-06 7.08643e-05 3.20569e-07
-2.67587e-07 3.20569e-07 1.29248e-05
0.00103305 6.29738e-05 7.78288e-08
6.29738e-05 0.00011243 1.96132e-07
7.78288e-08 1.96132e-07 4.82595e-05
0.00090084 3.64018e-06 -4.99474e-07
3.64018e-06 4.3544e-05 4.39177e-07
-4.99474e-07 4.39177e-07 -1.40668e-05
0.000956291 1.01946e-05 4.12417e-07
1.01946e-05 6.96549e-05 -3.35031e-07
4.12417e-07 -3.35031e-07 1.26673e-05
0.000895228 -1.93675e-05 -1.13296e-06
-1.93675e-05 2.86744e-05 7.60473e-07
-1.13296e-06 7.60473e-07 -1.62811e-05
0.000768099 4.25708e-06 1.07564e-07
4.25708e-06 -3.6756e-05 3.6569e-07
1.07564e-07 3.6569e-07 -8.39589e-05
0.00086062 1.23228e-05 -8.61749e-08
1.23228e-05 1.95853e-06 1.63771e-06
-8.61749e-08 1.63771e-06 -2.52908e-05
0.000854163 3.81352e-06 -1.78608e-07
3.81352e-06 -1.59976e-06 8.22497e-10
-1.78608e-07 8.22497e-10 -2.86771e-05
0.000819685 4.52556e-06 -3.01057e-07
4.52556e-06 -3.01875e-05 4.28627e-06
-3.01057e-07 4.28627e-06 -3.02959e-05
0.000855181 -6.58096e-06 3.08945e-07
-6.58096e-06 -1.49409e-06 -1.55779e-06
3.08945e-07 -1.55779e-06 -2.82709e-05
0.000807716 4.81198e-07 1.36017e-07
4.81198e-07 -3.74764e-05 -1.84166e-09
1.36017e-07 -1.84166e-09 -3.72003e-05
0.00213011 -9.64176e-07 1.16927e-07
-9.64176e-07 0.00066378 3.97049e-06
1.16927e-07 3.97049e-06 0.000686984
0.000824896 -3.49457e-06 -5.36825e-07
-3.49457e-06 -2.78444e-05 -4.26344e-06
-5.36825e-07 -4.26344e-06 -2.74481e-05
0.00156102 -5.52007e-06 -2.32063e-07
-5.52007e-06 0.000362511 2.07618e-08
-2.32063e-07 2.07618e-08 0.000382955
0.000964734 -9.20663e-06 -7.63256e-07
-9.20663e-06 4.74114e-05 -1.51093e-06
-7.63256e-07 -1.51093e-06 6.53431e-05
0.000871608 3.43125e-06 3.66852e-08
3.43125e-06 3.75162e-06 -1.6242e-06
3.66852e-08 -1.6242e-06 -1.9068e-05
0.000866936 6.77773e-06 2.87365e-08
6.77773e-06 2.13909e-06 1.34531e-09
2.87365e-08 1.34531e-09 -2.18278e-05
0.000804557 9.11787e-06 3.78767e-07
9.11787e-06 -3.84274e-05 -3.0674e-06
3.78767e-07 -3.0674e-06 -3.65459e-05
0.000868133 9.90934e-06 -5.58321e-07
9.90934e-06 3.96125e-06 1.63428e-06
-5.58321e-07 1.63428e-06 -2.16617e-05
0.00107255 1.48769e-05 -2.24015e-07
1.48769e-05 0.000106153 -6.05943e-07
-2.24015e-07 -6.05943e-07 0.000108098
0.00209057 1.81592e-05 9.50789e-06
1.81592e-05 0.000647142 -3.8603e-06
9.50789e-06 -3.8603e-06 0.000669987
0.000808398 1.8201e-05 -1.14772e-06
1.8201e-05 -2.93619e-05 3.17142e-06
-1.14772e-06 3.17142e-06 -3.0769e-05
0.00214996 2.38687e-05 -5.21246e-06
2.38687e-05 0.000683304 1.09578e-06
-5.21246e-06 1.09578e-06 0.000704807
0.0021818 3.07424e-05 -1.74133e-05
3.07424e-05 0.000705226 3.83248e-06
-1.74133e-05 3.83248e-06 0.00072521
0.0017225 3.4272e-06 1.11831e-06
3.4272e-06 7.38431e-05 2.4129e-07
1.11831e-06 2.4129e-07 -1.51525e-05
0.00178618 8.26402e-06 1.13769e-06
8.26402e-06 0.000102021 -1.66926e-07
1.13769e-06 -1.66926e-07 1.89438e-06
0.00183672 -4.78812e-06 3.41943e-06
-4.78812e-06 0.000135091 -5.35602e-07
3.41943e-06 -5.35602e-07 5.58863e-05
0.00161929 -3.85666e-05 1.13327e-06
-3.85666e-05 -5.69655e-05 7.45791e-07
1.13327e-06 7.45791e-07 -0.000110728
0.00179217 8.1298e-06 -4.47699e-07
8.1298e-06 9.24612e-05 2.68565e-07
-4.47699e-07 2.68565e-07 9.9976e-06
0.00171728 4.04049e-06 9.67771e-07
4.04049e-06 2.38504e-05 2.12626e-07
9.67771e-07 2.12626e-07 -4.82508e-05
0.00211787 2.34566e-05 5.33743e-07
2.34566e-05 0.000206446 1.03297e-06
5.33743e-07 1.03297e-06 0.00011959
0.00310225 -0.000150534 0.000137515
-0.000150534 0.000576158 2.32377e-05
0.000137515 2.32377e-05 0.000353524
0.00114442 -4.87611e-05 -5.06507e-06
-4.87611e-05 -0.000276402 2.17199e-07
-5.06507e-06 2.17199e-07 -0.000341543
0.000900455 1.68078e-05 -5.99297e-07
1.68078e-05 3.33796e-05 -7.73936e-07
-5.99297e-07 -7.73936e-07 -6.98183e-06
0.000897799 -1.38093e-05 5.45884e-07
-1.38093e-05 3.29218e-05 -3.34487e-08
5.45884e-07 -3.34487e-08 -8.56603e-06
0.000901113 -2.84426e-05 -2.02255e-07
-2.84426e-05 4.33645e-05 1.22917e-08
-2.02255e-07 1.22917e-08 -9.2457e-06
0.000902553 -2.60857e-05 -7.59486e-07
-2.60857e-05 5.26825e-05 8.42408e-08
-7.59486e-07 8.42408e-08 -3.53327e-06
0.0018438 1.12932e-05 2.97722e-06
1.12932e-05 0.000126594 -1.25246e-06
2.97722e-06 -1.25246e-06 4.14671e-05
0.00187176 -3.00833e-05 3.33322e-06
-3.00833e-05 0.000105471 -7.29471e-07
3.33322e-06 -7.29471e-07 6.23892e-06
0.00221612 -0.00012088 -3.2568e-06
-0.00012088 0.000264887 1.42899e-06
-3.2568e-06 1.42899e-06 0.000187846
0.000695345 -7.28747e-05 1.33819e-06
-7.28747e-05 -7.3508e-05 2.46611e-06
1.33819e-06 2.46611e-06 -0.000165508
0.00052433 -8.81125e-05 2.32378e-06
-8.81125e-05 -0.000165345 -4.89045e-07
2.32378e-06 -4.89045e-07 -0.000332215
0.00153739 -0.000140592 -3.0471e-07
-0.000140592 0.000116177 -1.04794e-06
-3.0471e-07 -1.04794e-06 6.1754e-07
0.000778452 -8.13701e-05 -5.02113e-06
-8.13701e-05 -1.28025e-05 1.15483e-07
-5.02113e-06 1.15483e-07 -0.000104748
0.00104613 -3.87189e-05 -6.93294e-07
-3.87189e-05 0.000144269 -6.68703e-07
-6.93294e-07 -6.68703e-07 4.32202e-05
0.00107254 -4.15137e-05 -6.66902e-07
-4.15137e-05 0.000146563 8.51478e-07
-6.66902e-07 8.51478e-07 6.05026e-05
0.000893996 -1.34471e-06 -9.26006e-07
-1.34471e-06 3.25023e-05 1.01872e-06
-9.26006e-07 1.01872e-06 -1.50242e-05
0.000936671 -3.33732e-05 -1.56964e-07
-3.33732e-05 6.96404e-05 1.24231e-08
-1.56964e-07 1.24231e-08 -6.22323e-06
0.00100196 8.64104e-06 -6.81996e-07
8.64104e-06 9.7227e-05 6.57435e-07
-6.81996e-07 6.57435e-07 3.39436e-05
0.000900485 -4.09187e-06 -4.65844e-09
-4.09187e-06 3.54215e-05 3.0505e-07
-4.65844e-09 3.0505e-07 -7.54754e-06
0.000757061 1.71992e-05 1.6321e-07
1.71992e-05 -2.72571e-05 1.03338e-06
1.6321e-07 1.03338e-06 -8.78581e-05
0.00172513 3.3155e-06 -8.40686e-07
3.3155e-06 5.29006e-05 8.75009e-07
-8.40686e-07 8.75009e-07 -2.81738e-05
0.00090717 9.11132e-06 4.28797e-07
9.11132e-06 4.86802e-05 -4.83571e-07
4.28797e-07 -4.83571e-07 -7.51439e-06
0.000870615 1.68644e-05 5.19898e-07
1.68644e-05 3.21754e-05 5.79099e-09
5.19898e-07 5.79099e-09 -3.00119e-05
0.000976059 3.75508e-05 -2.72706e-07
3.75508e-05 8.69385e-05 7.98729e-07
-2.72706e-07 7.98729e-07 1.9385e-05
0.00205889 -6.45748e-05 -4.05518e-06
-6.45748e-05 0.000149415 6.39186e-07
-4.05518e-06 6.39186e-07 6.9006e-05
0.00165786 -0.000139922 2.39848e-07
-0.000139922 1.47251e-05 -5.50894e-07
2.39848e-07 -5.50894e-07 -7.67193e-05
0.000986642 -9.41041e-05 -1.58171e-07
-9.41041e-05 9.79248e-05 -4.35408e-07
-1.58171e-07 -4.35408e-07 -2.4508e-05
0.00171003 -0.000149252 -2.7623e-07
-0.000149252 0.000347817 -1.12915e-06
-2.7623e-07 -1.12915e-06 0.000195851
0.000989788 -1.35649e-05 -3.80952e-07
-1.35649e-05 9.58184e-05 1.09382e-07
-3.80952e-07 1.09382e-07 2.44654e-05
0.00098708 -9.70242e-06 1.54606e-07
-9.70242e-06 9.75057e-05 6.53963e-07
1.54606e-07 6.53963e-07 1.92794e-05
0.00089193 -6.32067e-05 2.96496e-06
-6.32067e-05 7.93786e-05 -8.40151e-07
2.96496e-06 -8.40151e-07 -3.81186e-05
0.00104203 -4.05775e-05 1.46278e-07
-4.05775e-05 0.000141347 -7.59087e-07
1.46278e-07 -7.59087e-07 4.50594e-05
0.00163887 1.72363e-06 -5.56383e-07
1.72363e-06 -3.29488e-05 2.14847e-06
-5.56383e-07 2.14847e-06 -0.000115965
0.00240225 -0.000142935 8.06455e-06
-0.000142935 0.000265291 -3.95349e-06
8.06455e-06 -3.95349e-06 0.000181508
0.00184759 -0.000156105 -5.52165e-07
-0.000156105 0.000297334 -3.84243e-06
-5.52165e-07 -3.84243e-06 0.000161993
0.00112436 -0.000113624 -2.08438e-06
-0.000113624 0.000175361 1.67607e-07
-2.08438e-06 1.67607e-07 4.01632e-05
0.000878125 2.01096e-05 -7.55924e-07
2.01096e-05 4.01328e-05 -8.74377e-08
-7.55924e-07 -8.74377e-08 -3.19905e-05
0.00091454 -3.82129e-05 9.25143e-07
-3.82129e-05 6.16817e-05 -7.28529e-07
9.25143e-07 -7.28529e-07 -1.04125e-05
0.000974191 -3.14205e-05 4.38234e-07
-3.14205e-05 9.02964e-05 -1.31329e-08
4.38234e-07 -1.31329e-08 1.11502e-05
0.000964379 -1.18958e-05 -1.93148e-06
-1.18958e-05 0.000110907 7.84072e-07
-1.93148e-06 7.84072e-07 -1.01273e-05
0.000355291 -3.20064e-05 -2.73886e-06
-3.20064e-05 -0.000789341 -5.80543e-06
-2.73886e-06 -5.80543e-06 -0.00126517
0.00102485 2.32345e-05 -1.56813e-07
2.32345e-05 0.000116511 -9.10434e-07
-1.56813e-07 -9.10434e-07 3.43324e-05
0.000910824 7.17601e-05 7.78726e-07
7.17601e-05 6.20663e-05 2.46301e-07
7.78726e-07 2.46301e-07 -4.02917e-05
0.00106694 3.42605e-05 2.22081e-06
3.42605e-05 -0.000347522 5.48588e-07
2.22081e-06 5.48588e-07 -0.000409706
0.00168418 0.000121779 -2.38504e-06
0.000121779 -3.67733e-05 1.8173e-06
-2.38504e-06 1.8173e-06 -9.15982e-05
0.00159958 0.000142799 -2.20107e-06
0.000142799 0.000282532 2.51723e-06
-2.20107e-06 2.51723e-06 0.000120936
0.000766612 8.17319e-05 1.03311e-06
8.17319e-05 -8.2414e-06 -4.01506e-08
1.03311e-06 -4.01506e-08 -0.000143462
0.00266937 3.18118e-05 -6.61246e-06
3.18118e-05 0.000404478 5.14272e-07
-6.61246e-06 5.14272e-07 0.000323878
0.00101848 4.74464e-05 3.22321e-07
4.74464e-05 0.000114096 -2.59672e-07
3.22321e-07 -2.59672e-07 2.24141e-05
0.0019637 0.000103114 -2.85283e-06
0.000103114 6.16014e-05 -1.98754e-06
-2.85283e-06 -1.98754e-06 5.61107e-05
0.00106648 9.11544e-05 8.33079e-07
9.11544e-05 0.000150423 -3.5853e-07
8.33079e-07 -3.5853e-07 4.28561e-05
0.00103007 0.000103707 -2.01141e-07
0.000103707 0.000135825 1.47221e-07
-2.01141e-07 1.47221e-07 -2.8131e-05
0.000821541 0.00015247 -3.05887e-06
0.00015247 -0.00028321 3.18578e-07
-3.05887e-06 3.18578e-07 -0.000399345
0.00185083 -0.000158973 -2.52221e-05
-0.000158973 -5.25793e-05 -8.32663e-06
-2.52221e-05 -8.32663e-06 -0.000579843
0.00310344 -9.76803e-05 8.08257e-06
-9.76803e-05 0.000171386 -1.10557e-05
8.08257e-06 -1.10557e-05 -0.000280875
0.00100739 0.00013879 3.66632e-06
0.00013879 -0.000253474 1.19816e-06
3.66632e-06 1.19816e-06 -0.000217184
-0.00136249 -0.000245824 1.08221e-05
-0.000245824 -0.000594009 1.73573e-06
1.08221e-05 1.73573e-06 -0.000708345
0.000526775 -0.000399445 9.77095e-06
-0.000399445 -0.000858025 1.06211e-06
9.77095e-06 1.06211e-06 0.000117802
0.00112427 6.78332e-05 2.44701e-07
6.78332e-05 0.00017032 -2.49679e-07
2.44701e-07 -2.49679e-07 7.98559e-05
0.00032252 5.06653e-05 -8.80371e-05
5.06653e-05 0.000165435 -1.95267e-05
-8.80371e-05 -1.95267e-05 -5.30446e-05
0.00165833 -0.000232107 -2.76639e-05
-0.000232107 0.000506006 -1.76311e-05
-2.76639e-05 -1.76311e-05 0.000859383
0.00128035 0.000127802 -1.27337e-06
0.000127802 -0.000208718 -2.03774e-06
-1.27337e-06 -2.03774e-06 -0.000181354
0.00103024 4.69711e-05 -8.15362e-07
4.69711e-05 0.000147194 -5.55891e-07
-8.15362e-07 -5.55891e-07 2.77645e-05
0.00137347 0.000111774 -5.13004e-06
0.000111774 0.0003199 -8.52788e-07
-5.13004e-06 -8.52788e-07 0.000125371
0.00166166 0.000179096 5.08408e-06
0.000179096 0.000160481 1.60761e-05
5.08408e-06 1.60761e-05 0.000194066
0.006383 -0.000272142 -5.71297e-05
-0.000272142 0.00202624 -1.70481e-05
-5.71297e-05 -1.70481e-05 0.0011199
0.00158195 3.11744e-05 1.53613e-05
3.11744e-05 -0.000644258 2.19047e-05
1.53613e-05 2.19047e-05 -0.00125447
-0.000124946 -0.000372117 -4.65908e-05
-0.000372117 -0.000308592 -1.7548e-05
-4.65908e-05 -1.7548e-05 -4.33159e-05
7.15022e-06 -0.000181839 -2.48754e-05
-0.000181839 -0.00159598 -2.00001e-07
-2.48754e-05 -2.00001e-07 -0.00103413
0.00100207 1.30179e-05 -3.15524e-07
1.30179e-05 9.90743e-05 -9.74981e-07
-3.15524e-07 -9.74981e-07 1.83699e-05
0.00102148 3.45441e-05 -3.37179e-07
3.45441e-05 0.000104293 1.27226e-07
-3.37179e-07 1.27226e-07 2.22367e-05
0.00118505 6.10803e-05 -3.69002e-07
6.10803e-05 0.00019135 -2.83104e-07
-3.69002e-07 -2.83104e-07 0.000111369
0.000885689 1.91458e-06 -3.83656e-08
1.91458e-06 2.73409e-05 -4.44363e-07
-3.83656e-08 -4.44363e-07 -2.0318e-05
0.000938706 -6.70482e-06 -3.02578e-07
-6.70482e-06 5.86844e-05 -5.28903e-07
-3.02578e-07 -5.28903e-07 1.41198e-06
0.00089896 -1.0755e-05 -1.74051e-07
-1.0755e-05 3.82946e-05 -8.25706e-07
-1.74051e-07 -8.25706e-07 -2.43141e-05
0.00096551 -2.90124e-06 -1.53966e-08
-2.90124e-06 7.89439e-05 -4.34162e-07
-1.53966e-08 -4.34162e-07 1.13867e-05
0.000943664 1.32928e-06 -7.33726e-08
1.32928e-06 6.83471e-05 -4.09659e-07
-7.33726e-08 -4.09659e-07 -8.44189e-06
0.000759717 -6.18628e-06 3.44029e-07
-6.18628e-06 -4.15359e-05 4.01628e-07
3.44029e-07 4.01628e-07 -8.90158e-05
0.000904472 6.94946e-06 -1.34674e-07
6.94946e-06 4.76587e-05 -3.10541e-07
-1.34674e-07 -3.10541e-07 -1.81837e-05
0.000967588 -1.45443e-05 -2.09829e-07
-1.45443e-05 7.21975e-05 3.5923e-07
-2.09829e-07 3.5923e-07 8.81623e-06
0.000916707 1.83778e-05 3.18917e-07
1.83778e-05 4.56779e-05 -1.90436e-07
3.18917e-07 -1.90436e-07 -1.33214e-05
0.000969749 2.22081e-05 -8.03336e-09
2.22081e-05 8.07777e-05 7.51615e-08
-8.03336e-09 7.51615e-08 8.04756e-06
0.000892836 3.39008e-06 4.68106e-07
3.39008e-06 3.25461e-05 3.40527e-07
4.68106e-07 3.40527e-07 -3.51032e-05
0.00105897 3.81144e-05 -2.28681e-07
3.81144e-05 0.000126413 -1.52624e-07
-2.28681e-07 -1.52624e-07 5.11281e-05
0.000975982 -4.90545e-05 2.04638e-08
-4.90545e-05 7.54783e-05 2.53272e-07
2.04638e-08 2.53272e-07 1.22514e-05
0.00098495 -3.47759e-05 -4.52049e-07
-3.47759e-05 8.14063e-05 4.83864e-08
-4.52049e-07 4.83864e-08 2.22276e-05
0.000975279 -3.10844e-06 -3.28647e-07
-3.10844e-06 7.66493e-05 -7.41085e-08
-3.28647e-07 -7.41085e-08 1.90942e-05
0.000956468 4.42298e-05 -2.46977e-07
4.42298e-05 6.89966e-05 -2.80075e-07
-2.46977e-07 -2.80075e-07 6.28567e-06
0.000958689 2.29533e-05 -8.11184e-09
2.29533e-05 6.97847e-05 2.06995e-07
-8.11184e-09 2.06995e-07 4.78664e-06
0.000927666 3.58527e-05 1.14011e-07
3.58527e-05 5.60942e-05 6.04383e-07
1.14011e-07 6.04383e-07 -6.70553e-06
0.00106343 4.60047e-05 -9.96468e-08
4.60047e-05 0.000121557 9.31347e-08
-9.96468e-08 9.31347e-08 5.50856e-05
0.000887089 6.42925e-06 4.93355e-07
6.42925e-06 4.13383e-05 1.55378e-06
4.93355e-07 1.55378e-06 -2.8426e-05
0.000893891 1.46058e-05 -1.65708e-07
1.46058e-05 3.65402e-05 5.61985e-07
-1.65708e-07 5.61985e-07 -1.94856e-05
0.000901553 1.40016e-06 -2.56407e-08
1.40016e-06 4.23309e-05 -2.27552e-08
-2.56407e-08 -2.27552e-08 -1.42544e-05
0.000888557 3.25717e-06 -8.73885e-07
3.25717e-06 2.59921e-05 7.20326e-07
-8.73885e-07 7.20326e-07 -1.85403e-05
0.000861336 1.49327e-05 2.84008e-07
1.49327e-05 1.61463e-05 -6.56276e-07
2.84008e-07 -6.56276e-07 -3.9105e-05
0.000841005 -1.08705e-05 8.94038e-08
-1.08705e-05 1.62246e-07 1.82116e-08
8.94038e-08 1.82116e-08 -4.51475e-05
0.000862251 1.22589e-05 -3.94131e-07
1.22589e-05 3.20336e-06 1.69426e-06
-3.94131e-07 1.69426e-06 -2.41789e-05
0.000781084 5.23917e-06 3.56119e-07
5.23917e-06 -2.91875e-05 -4.60498e-07
3.56119e-07 -4.60498e-07 -7.70378e-05
0.000857958 5.48536e-06 -1.53474e-07
5.48536e-06 3.83615e-07 -4.40698e-09
-1.53474e-07 -4.40698e-09 -2.67761e-05
0.00138912 9.75293e-06 -2.70751e-06
9.75293e-06 0.000273035 4.25508e-06
-2.70751e-06 4.25508e-06 0.000275501
0.000851719 -4.19906e-06 5.29421e-07
-4.19906e-06 -2.954e-06 -1.58818e-06
5.29421e-07 -1.58818e-06 -2.99818e-05
0.00109917 5.0762e-06 -1.15123e-06
5.0762e-06 0.000117845 6.1212e-07
-1.15123e-06 6.1212e-07 0.000119206
0.00101339 2.74436e-06 -2.44139e-06
2.74436e-06 7.21447e-05 3.88181e-06
-2.44139e-06 3.88181e-06 8.95038e-05
0.000811314 4.89849e-07 -7.78849e-09
4.89849e-07 -3.55737e-05 -3.02409e-06
-7.78849e-09 -3.02409e-06 -3.53233e-05
0.00213228 -5.89783e-07 1.79718e-06
-5.89783e-07 0.000664938 3.02841e-10
1.79718e-06 3.02841e-10 0.000688114
0.00101889 -3.56969e-06 -1.53761e-06
-3.56969e-06 7.49146e-05 -3.86558e-06
-1.53761e-06 -3.86558e-06 9.25747e-05
0.000888282 3.48503e-05 2.77256e-07
3.48503e-05 2.95453e-05 -1.96592e-07
2.77256e-07 -1.96592e-07 -1.25839e-05
0.000872999 -4.82719e-07 -2.68953e-09
-4.82719e-07 4.46352e-06 -1.61005e-06
-2.68953e-09 -1.61005e-06 -1.78853e-05
0.000871637 2.81745e-06 -5.21002e-08
2.81745e-06 3.66376e-06 -7.6401e-10
-5.21002e-08 -7.6401e-10 -1.91374e-05
0.000812569 4.47041e-06 9.49516e-08
4.47041e-06 -3.60161e-05 -3.03987e-06
9.49516e-08 -3.03987e-06 -3.315e-05
0.000866126 6.22442e-06 -2.89583e-07
6.22442e-06 1.44995e-06 1.56049e-06
-2.89583e-07 1.56049e-06 -2.24752e-05
0.000805552 9.25435e-06 5.64652e-08
9.25435e-06 -3.81983e-05 -6.18949e-07
5.64652e-08 -6.18949e-07 -3.62453e-05
0.00205814 1.19554e-05 6.29047e-06
1.19554e-05 0.00062738 -3.88406e-06
6.29047e-06 -3.88406e-06 0.000651083
0.0013389 1.72182e-05 -1.28705e-06
1.72182e-05 0.000247692 1.89971e-06
-1.28705e-06 1.89971e-06 0.000250802
0.00156268 1.57948e-05 3.21528e-07
1.57948e-05 0.000368249 1.20638e-06
3.21528e-07 1.20638e-06 0.000387994
0.0010546 1.79166e-05 -1.33516e-05
1.79166e-05 0.000103215 6.30554e-06
-1.33516e-05 6.30554e-06 0.000118934
-0.000734546 1.08955e-05 3.5116e-06
1.08955e-05 -0.00123749 2.57835e-06
3.5116e-06 2.57835e-06 -0.00128897
0.00196685 6.61283e-06 2.14917e-06
6.61283e-06 0.000177611 1.38319e-07
2.14917e-06 1.38319e-07 9.58953e-05
0.00197193 1.09076e-05 -2.45014e-06
1.09076e-05 0.000166134 -1.74822e-06
-2.45014e-06 -1.74822e-06 9.15554e-05
0.00105713 -7.42653e-05 2.8647e-05
-7.42653e-05 -0.000237388 1.82967e-06
2.8647e-05 1.82967e-06 -0.000450554
0.00169903 -4.36256e-05 -2.17134e-06
-4.36256e-05 5.26629e-05 -4.18967e-07
-2.17134e-06 -4.18967e-07 -2.44838e-05
0.00176116 2.16834e-05 -3.54291e-06
2.16834e-05 8.53987e-06 -2.02846e-06
-3.54291e-06 -2.02846e-06 -7.59751e-05
0.00179882 3.7592e-05 -8.90802e-06
3.7592e-05 0.000158594 9.91193e-07
-8.90802e-06 9.91193e-07 8.01956e-05
0.0016544 -7.36268e-05 0.000124242
-7.36268e-05 7.06405e-05 1.00454e-07
0.000124242 1.00454e-07 -0.000221316
0.00545739 0.000108026 -1.50429e-05
0.000108026 0.00156192 -4.84656e-08
-1.50429e-05 -4.84656e-08 0.000804919
0.00411602 0.000476477 -2.43328e-05
0.000476477 0.00174015 7.83754e-06
-2.43328e-05 7.83754e-06 0.00193342
0.00147961 0.000398697 -1.53732e-05
0.000398697 4.18096e-05 6.08349e-06
-1.53732e-05 6.08349e-06 0.000821423
0.00074632 -3.26963e-05 1.13015e-06
-3.26963e-05 -3.33503e-05 -6.264e-07
1.13015e-06 -6.264e-07 -8.77738e-05
0.000903261 -9.56231e-06 1.68881e-07
-9.56231e-06 3.54528e-05 -2.36896e-08
1.68881e-07 -2.36896e-08 -5.33653e-06
0.000898875 -4.06234e-05 -7.97885e-07
-4.06234e-05 3.53378e-05 8.10077e-07
-7.97885e-07 8.10077e-07 -7.50394e-06
0.00085933 -7.90901e-06 -2.84509e-07
-7.90901e-06 2.31283e-05 2.46242e-08
-2.84509e-07 2.46242e-08 -3.07623e-05
0.000912791 3.90308e-05 7.51669e-08
3.90308e-05 6.07632e-05 7.37947e-07
7.51669e-08 7.37947e-07 -3.627e-06
0.000941779 4.40101e-05 1.42386e-07
4.40101e-05 7.09703e-05 6.77877e-07
1.42386e-07 6.77877e-07 9.85913e-06
0.000942616 -2.26514e-05 6.98294e-07
-2.26514e-05 7.02285e-05 -8.4868e-07
6.98294e-07 -8.4868e-07 1.46576e-05
0.000851996 -4.17282e-05 -5.12143e-07
-4.17282e-05 2.32909e-05 4.76263e-07
-5.12143e-07 4.76263e-07 -3.15833e-05
0.00155676 5.07895e-06 1.32947e-06
5.07895e-06 -2.5198e-05 -9.71952e-07
1.32947e-06 -9.71952e-07 -0.000105757
0.00171805 -6.13594e-05 -1.15378e-06
-6.13594e-05 -2.93572e-05 2.18427e-07
-1.15378e-06 2.18427e-07 -0.000112267
0.00166594 -0.000135179 -5.63974e-06
-0.000135179 2.49661e-05 2.12478e-06
-5.63974e-06 2.12478e-06 -6.54124e-05
0.000873765 -9.20483e-05 9.75012e-07
-9.20483e-05 2.95903e-05 1.03803e-06
9.75012e-07 1.03803e-06 -9.06279e-05
0.00166282 -0.00014844 9.26495e-07
-0.00014844 0.000328433 6.39968e-07
9.26495e-07 6.39968e-07 0.000167706
0.000928963 -6.39101e-05 5.07506e-07
-6.39101e-05 9.27963e-05 -9.33605e-07
5.07506e-07 -9.33605e-07 -2.02113e-05
0.00121293 -6.14407e-05 3.4393e-07
-6.14407e-05 0.000231787 -5.30607e-07
3.4393e-07 -5.30607e-07 0.000131135
0.000884405 -2.02583e-05 -4.04646e-07
-2.02583e-05 4.80605e-05 1.04493e-07
-4.04646e-07 1.04493e-07 -3.11626e-05
0.000893433 5.69553e-06 3.92249e-07
5.69553e-06 4.4067e-05 5.97062e-07
3.92249e-07 5.97062e-07 -1.72945e-05
0.00104415 5.7482e-07 -7.28122e-07
5.7482e-07 0.00012172 2.4622e-07
-7.28122e-07 2.4622e-07 5.18809e-05
0.00108469 1.9149e-06 2.74815e-07
1.9149e-06 0.000139362 -1.07449e-08
2.74815e-07 -1.07449e-08 8.54229e-05
0.000861182 6.18639e-05 1.06446e-06
6.18639e-05 2.72751e-05 1.37562e-06
1.06446e-06 1.37562e-06 -4.08091e-05
0.00163686 7.38272e-06 1.34318e-06
7.38272e-06 -4.28755e-05 -3.16766e-06
1.34318e-06 -3.16766e-06 -0.000124102
0.000889585 2.07658e-05 -3.82545e-07
2.07658e-05 4.68898e-05 3.87011e-07
-3.82545e-07 3.87011e-07 -2.41077e-05
0.000901985 -2.62483e-05 -2.79065e-07
-2.62483e-05 5.26872e-05 -3.14477e-07
-2.79065e-07 -3.14477e-07 -1.83534e-05
0.00222072 -0.000139236 -2.2705e-06
-0.000139236 0.00017851 -3.41247e-08
-2.2705e-06 -3.41247e-08 9.88833e-05
0.00104937 -0.000126508 3.23209e-07
-0.000126508 -9.03201e-05 1.47065e-06
3.23209e-07 1.47065e-06 -0.000218893
0.00122906 -0.000119045 1.14413e-06
-0.000119045 0.000227341 -8.6862e-07
1.14413e-06 -8.6862e-07 8.75823e-05
0.000972416 -3.23479e-05 1.36414e-07
-3.23479e-05 8.89247e-05 -1.30517e-07
1.36414e-07 -1.30517e-07 7.78339e-06
0.00104534 -2.40327e-05 -2.21027e-08
-2.40327e-05 0.00015321 2.72152e-07
-2.21027e-08 2.72152e-07 3.14996e-05
0.00266604 -7.98839e-05 -7.34683e-06
-7.98839e-05 0.000502653 1.02822e-05
-7.34683e-06 1.02822e-05 0.000439195
0.00277129 -0.000218473 3.83081e-06
-0.000218473 0.00060088 -5.16802e-06
3.83081e-06 -5.16802e-06 0.000473067
0.000499712 -0.000105691 -3.55647e-06
-0.000105691 -0.000170077 -1.22302e-06
-3.55647e-06 -1.22302e-06 -0.000302109
0.001325 -7.94711e-05 -3.10761e-06
-7.94711e-05 0.000305898 2.28994e-06
-3.10761e-06 2.28994e-06 0.000159289
0.000789426 -5.69473e-05 7.95863e-07
-5.69473e-05 -2.72344e-06 -1.02573e-07
7.95863e-07 -1.02573e-07 -7.92272e-05
0.000990452 -4.27869e-05 1.72668e-06
-4.27869e-05 9.65326e-05 -2.2897e-07
1.72668e-06 -2.2897e-07 1.57193e-05
0.00110342 -1.86666e-05 -9.73762e-07
-1.86666e-05 0.000156576 5.74673e-07
-9.73762e-07 5.74673e-07 6.2119e-05
-0.00223874 -1.61146e-05 -3.12963e-05
-1.61146e-05 -0.00113206 -8.37902e-07
-3.12963e-05 -8.37902e-07 -0.00100634
0.00653334 -2.06663e-05 -2.27373e-05
-2.06663e-05 0.00220851 -1.4694e-06
-2.27373e-05 -1.4694e-06 0.0016583
0.000988844 4.79712e-05 5.85201e-07
4.79712e-05 0.000102476 -4.5439e-07
5.85201e-07 -4.5439e-07 1.09877e-05
0.000863904 8.18642e-05 1.48235e-06
8.18642e-05 4.92657e-05 -1.52012e-06
1.48235e-06 -1.52012e-06 -5.72235e-05
0.00183529 0.0001011 -6.20826e-06
0.0001011 -9.3639e-06 3.17323e-06
-6.20826e-06 3.17323e-06 -1.06817e-05
0.00150838 0.000175835 -2.24927e-06
0.000175835 3.27563e-05 2.1886e-06
-2.24927e-06 2.1886e-06 -7.43006e-05
0.00106055 0.000106487 1.41995e-06
0.000106487 0.000153409 -1.47945e-08
1.41995e-06 -1.47945e-08 -8.40143e-06
0.00552298 -1.08276e-05 2.88608e-05
-1.08276e-05 0.001572 -6.74458e-06
2.88608e-05 -6.74458e-06 0.000899531
0.00334492 -0.000103132 -6.51907e-05
-0.000103132 0.000289553 -1.64346e-05
-6.51907e-05 -1.64346e-05 -6.47856e-05
0.000690178 0.000116528 -5.81681e-06
0.000116528 -0.000424591 -9.81248e-06
-5.81681e-06 -9.81248e-06 -0.000374506
0.00307652 -0.000376675 2.82765e-05
-0.000376675 0.00146781 1.57954e-05
2.82765e-05 1.57954e-05 0.00149176
-0.00132885 -0.000437086 1.75912e-05
-0.000437086 -0.00189912 -8.65536e-06
1.75912e-05 -8.65536e-06 -0.000798347
0.00104011 7.58164e-05 -1.3815e-07
7.58164e-05 0.000128843 -2.32843e-07
-1.3815e-07 -2.32843e-07 3.72186e-05
-0.00194838 -9.34692e-05 -2.11539e-06
-9.34692e-05 -0.00102892 -1.4627e-06
-2.11539e-06 -1.4627e-06 -0.000877335
0.000412714 -0.000217402 -9.55765e-06
-0.000217402 -5.16802e-05 -1.35051e-06
-9.55765e-06 -1.35051e-06 0.000157949
0.00207034 0.000146676 -1.13304e-06
0.000146676 0.000175318 -8.87129e-07
-1.13304e-06 -8.87129e-07 0.000200526
0.000996857 6.04719e-05 -1.63162e-07
6.04719e-05 0.000139183 -9.77919e-07
-1.63162e-07 -9.77919e-07 2.15292e-05
0.000854557 9.74457e-05 1.60453e-08
9.74457e-05 5.99553e-05 4.57981e-07
1.60453e-08 4.57981e-07 -0.000133892
-1.60449e-05 0.000114577 1.35724e-05
0.000114577 -0.000653546 5.62032e-06
1.35724e-05 5.62032e-06 -0.000602685
0.00471786 -0.000187291 2.17438e-06
-0.000187291 0.00111547 1.69711e-06
2.17438e-06 1.69711e-06 0.000154666
0.00355633 9.33715e-05 -2.44376e-05
9.33715e-05 0.000447148 -1.46712e-05
-2.44376e-05 -1.46712e-05 8.11082e-05
0.00357278 -0.000516528 1.05892e-05
-0.000516528 0.0012267 -1.51634e-06
1.05892e-05 -1.51634e-06 0.00132608
0.000431096 -0.000232167 6.66442e-06
-0.000232167 -0.00150612 1.83787e-05
6.66442e-06 1.83787e-05 -0.000763802
0.00112627 3.73451e-05 -2.126e-06
3.73451e-05 0.000162648 -8.62201e-07
-2.126e-06 -8.62201e-07 7.75346e-05
-0.000587522 -6.24525e-05 -3.3068e-05
-6.24525e-05 -0.000357714 -6.12029e-06
-3.3068e-05 -6.12029e-06 -0.000488063
0.00139019 -1.98939e-05 -2.55149e-05
-1.98939e-05 -4.15053e-05 -2.35381e-05
-2.55149e-05 -2.35381e-05 -0.000105556
0.000659568 0.000125257 -4.42996e-06
0.000125257 -0.000199533 -6.0874e-06
-4.42996e-06 -6.0874e-06 -0.000269515
0.00172905 9.23775e-05 -8.12594e-06
9.23775e-05 0.000571794 -7.30661e-07
-8.12594e-06 -7.30661e-07 0.000423004
0.00197307 -7.32794e-06 -3.42653e-06
-7.32794e-06 0.000718038 -3.04271e-06
-3.42653e-06 -3.04271e-06 0.000669672
0.0023512 0.000296185 -8.65139e-05
0.000296185 0.000174717 1.2415e-05
-8.65139e-05 1.2415e-05 -0.00016011
0.000552869 -0.000272456 1.71399e-05
-0.000272456 -0.000534756 1.9302e-05
1.71399e-05 1.9302e-05 -0.00174363
0.00576022 -0.000513069 -5.05764e-05
-0.000513069 0.00153491 -6.69108e-06
-5.05764e-05 -6.69108e-06 0.00170073
0.000788283 -0.000100481 -4.10551e-06
-0.000100481 -0.00112009 -1.04215e-05
-4.10551e-06 -1.04215e-05 -0.000717429
0.00097585 3.9008e-05 2.44296e-07
3.9008e-05 8.365e-05 4.13044e-07
2.44296e-07 4.13044e-07 8.03086e-07
0.00107929 5.84444e-05 1.00279e-06
5.84444e-05 0.000136149 5.66463e-07
1.00279e-06 5.66463e-07 5.5431e-05
0.000626783 5.45128e-05 1.10802e-06
5.45128e-05 -7.85085e-05 -1.25605e-06
1.10802e-06 -1.25605e-06 -0.000159726
0.00077735 1.97409e-05 2.08512e-07
1.97409e-05 -3.23366e-05 -4.69917e-07
2.08512e-07 -4.69917e-07 -7.99441e-05
0.000988086 2.6116e-05 -3.57286e-07
2.6116e-05 8.46697e-05 -4.89175e-07
-3.57286e-07 -4.89175e-07 2.52883e-05
0.00108493 -3.40148e-05 2.54347e-08
-3.40148e-05 0.000134382 -5.76547e-08
2.54347e-08 -5.76547e-08 7.0977e-05
0.000888056 1.82347e-06 -6.03084e-07
1.82347e-06 4.00616e-05 -4.86772e-07
-6.03084e-07 -4.86772e-07 -2.53542e-05
0.000944342 1.85234e-05 -4.37848e-07
1.85234e-05 6.64448e-05 1.83421e-08
-4.37848e-07 1.83421e-08 -6.40398e-06
0.00096472 1.30525e-05 3.4318e-07
1.30525e-05 7.15238e-05 -3.91878e-07
3.4318e-07 -3.91878e-07 1.20842e-05
0.000948863 2.03042e-07 -5.9412e-08
2.03042e-07 6.41111e-05 -1.46139e-07
-5.9412e-08 -1.46139e-07 -3.45376e-06
0.000953435 -3.42529e-05 1.67591e-07
-3.42529e-05 6.38687e-05 -6.99861e-09
1.67591e-07 -6.99861e-09 3.6893e-07
0.00100941 2.40215e-05 -4.72492e-08
2.40215e-05 0.000102524 3.26089e-07
-4.72492e-08 3.26089e-07 2.79245e-05
0.00127199 -2.13595e-05 3.82657e-07
-2.13595e-05 0.000233725 -1.65187e-08
3.82657e-07 -1.65187e-08 0.000160001
0.000972135 -9.43353e-06 -2.35999e-07
-9.43353e-06 7.04744e-05 4.04834e-07
-2.35999e-07 4.04834e-07 2.26371e-06
0.000970834 3.61252e-06 1.41258e-07
3.61252e-06 7.57189e-05 2.16413e-07
1.41258e-07 2.16413e-07 9.48091e-06
0.000977915 -2.32289e-05 1.78554e-07
-2.32289e-05 7.963e-05 -5.25972e-07
1.78554e-07 -5.25972e-07 2.08172e-05
0.000873869 2.09516e-05 -2.04664e-07
2.09516e-05 2.25158e-05 -7.72583e-07
-2.04664e-07 -7.72583e-07 -3.86708e-05
0.000948313 9.61389e-07 2.82486e-07
9.61389e-07 6.45932e-05 -8.28661e-08
2.82486e-07 -8.28661e-08 -1.96342e-07
0.000914903 3.41488e-05 -2.91494e-08
3.41488e-05 4.96306e-05 -1.55797e-08
-2.91494e-08 -1.55797e-08 -1.30911e-05
0.000997807 3.32349e-05 -5.14997e-07
3.32349e-05 8.45659e-05 -5.84971e-07
-5.14997e-07 -5.84971e-07 1.89916e-05
0.00088777 2.26654e-05 3.98909e-07
2.26654e-05 3.73419e-05 1.14393e-06
3.98909e-07 1.14393e-06 -2.72011e-05
0.00100215 3.1469e-05 3.51539e-07
3.1469e-05 9.08733e-05 2.81003e-07
3.51539e-07 2.81003e-07 2.29331e-05
0.000936667 1.92427e-05 -8.06128e-08
1.92427e-05 5.29038e-05 5.95846e-07
-8.06128e-08 5.95846e-07 -1.49375e-05
0.000905182 -5.71979e-06 6.72875e-07
-5.71979e-06 5.21457e-05 5.53966e-07
6.72875e-07 5.53966e-07 -2.83442e-05
0.000810743 -5.00272e-05 -2.53389e-07
-5.00272e-05 2.60833e-05 4.98175e-07
-2.53389e-07 4.98175e-07 -6.91107e-05
0.00078783 -5.88652e-06 -5.02975e-07
-5.88652e-06 -5.26634e-06 3.97908e-07
-5.02975e-07 3.97908e-07 -8.18659e-05
0.000915906 6.25165e-06 1.43392e-07
6.25165e-06 5.7128e-05 3.80624e-07
1.43392e-07 3.80624e-07 -1.29445e-05
0.000900204 1.1197e-05 6.41843e-08
1.1197e-05 4.02902e-05 1.20009e-06
6.41843e-08 1.20009e-06 -1.83975e-05
0.000908102 1.02873e-05 -1.30742e-07
1.02873e-05 4.47984e-05 -7.0209e-08
-1.30742e-07 -7.0209e-08 -1.17474e-05
0.000886111 2.03812e-05 -4.07435e-07
2.03812e-05 2.61744e-05 7.759e-07
-4.07435e-07 7.759e-07 -1.88976e-05
0.000908841 1.37016e-05 3.53134e-07
1.37016e-05 4.46628e-05 -3.96193e-07
3.53134e-07 -3.96193e-07 -1.09369e-05
0.000895181 6.21343e-06 -3.869e-08
6.21343e-06 2.91686e-05 1.32192e-08
-3.869e-08 1.32192e-08 -1.53438e-05
0.000858361 1.52152e-05 -7.15238e-07
1.52152e-05 3.10395e-06 1.67942e-06
-7.15238e-07 1.67942e-06 -2.47883e-05
0.000781375 6.89094e-06 3.65622e-07
6.89094e-06 -3.23105e-05 -7.37374e-07
3.65622e-07 -7.37374e-07 -7.71892e-05
0.000861714 7.77986e-06 -7.83519e-08
7.77986e-06 2.78851e-06 -5.41685e-09
-7.83519e-08 -5.41685e-09 -2.45349e-05
0.00138507 1.47003e-05 -4.32914e-06
1.47003e-05 0.000273154 4.25264e-06
-4.32914e-06 4.25264e-06 0.000275278
0.000855552 -3.45785e-07 6.47826e-07
-3.45785e-07 -1.06197e-06 -1.62196e-06
6.47826e-07 -1.62196e-06 -2.81449e-05
0.00109636 9.72297e-06 -1.7973e-06
9.72297e-06 0.000117868 6.03427e-07
-1.7973e-06 6.03427e-07 0.000118972
0.000970124 8.72897e-06 -6.97275e-07
8.72897e-06 5.06604e-05 1.53813e-06
-6.97275e-07 1.53813e-06 6.78873e-05
0.000807686 4.67396e-06 2.95208e-07
4.67396e-06 -3.69267e-05 -3.03755e-06
2.95208e-07 -3.03755e-06 -3.69203e-05
0.00213867 5.51435e-06 1.66876e-06
5.51435e-06 0.000668774 1.16322e-08
1.66876e-06 1.16322e-08 0.000691801
0.00213427 -2.12718e-07 1.06785e-06
-2.12718e-07 0.00066599 -3.97683e-06
1.06785e-06 -3.97683e-06 0.000689137
0.00112979 2.15683e-05 -8.1193e-07
2.15683e-05 0.000155187 -3.75644e-07
-8.1193e-07 -3.75644e-07 0.000114278
0.000873151 -3.74436e-06 -1.71633e-07
-3.74436e-06 5.5681e-06 -1.52795e-06
-1.71633e-07 -1.52795e-06 -1.72625e-05
0.000896172 3.02721e-06 6.27368e-07
3.02721e-06 3.34437e-05 4.53192e-07
6.27368e-07 4.53192e-07 -8.38615e-06
0.000819142 -2.99553e-07 -6.11368e-08
-2.99553e-07 -3.29889e-05 -3.01926e-06
-6.11368e-08 -3.01926e-06 -2.97769e-05
0.000872846 -9.29532e-07 3.36009e-08
-9.29532e-07 4.34093e-06 -6.69087e-10
3.36009e-08 -6.69087e-10 -1.80043e-05
0.000868666 2.23483e-06 -2.20326e-07
2.23483e-06 1.97282e-06 1.58642e-06
-2.20326e-07 1.58642e-06 -2.0796e-05
0.000815663 4.63893e-06 -1.24737e-07
4.63893e-06 -3.43879e-05 8.08639e-09
-1.24737e-07 8.08639e-09 -3.15565e-05
0.0020315 5.81729e-06 2.73814e-06
5.81729e-06 0.000611775 -3.89659e-06
2.73814e-06 -3.89659e-06 0.000636043
0.00133212 1.17056e-05 -7.99388e-07
1.17056e-05 0.000241019 1.865e-06
-7.99388e-07 1.865e-06 0.000245579
0.00152257 1.07672e-05 1.82824e-06
1.07672e-05 0.000343717 2.67176e-08
1.82824e-06 2.67176e-08 0.000364599
0.00104746 1.32896e-05 -1.10623e-05
1.32896e-05 9.48159e-05 6.27477e-06
-1.10623e-05 6.27477e-06 0.000111921
-0.00377286 0.000110182 -2.64127e-05
0.000110182 -0.00198113 8.39926e-06
-2.64127e-05 8.39926e-06 -0.0018969
-0.00122053 0.000193357 -8.12005e-06
0.000193357 -0.000981595 1.16359e-05
-8.12005e-06 1.16359e-05 -0.000760877
0.000388886 -2.83884e-05 -8.32845e-05
-2.83884e-05 -0.000588736 -8.65257e-06
-8.32845e-05 -8.65257e-06 -0.000794774
0.00247696 -4.39945e-05 2.38899e-07
-4.39945e-05 0.000494157 -2.28755e-07
2.38899e-07 -2.28755e-07 0.000406879
0.00145899 2.02926e-05 -1.01924e-05
2.02926e-05 -0.000160183 -1.43774e-07
-1.01924e-05 -1.43774e-07 -0.000242465
0.00110009 -2.87096e-05 2.38478e-05
-2.87096e-05 -3.3828e-05 -2.31392e-06
2.38478e-05 -2.31392e-06 -0.000247143
0.00201349 4.24422e-05 8.62787e-07
4.24422e-05 0.000274574 1.38835e-06
8.62787e-07 1.38835e-06 0.000194426
0.00522496 0.000252213 -2.38077e-05
0.000252213 0.00137984 -3.44328e-06
-2.38077e-05 -3.44328e-06 0.00073235
-0.00306475 0.000231932 -6.98212e-06
0.000231932 -0.00134825 -3.03255e-06
-6.98212e-06 -3.03255e-06 -0.0012935
0.000180254 0.000423992 4.43769e-06
0.000423992 -0.00091169 -5.99036e-06
4.43769e-06 -5.99036e-06 3.05946e-05
0.00114336 6.34739e-06 4.33261e-05
6.34739e-06 1.05671e-05 -9.37267e-06
4.33261e-05 -9.37267e-06 -0.000218089
0.0063363 0.000404236 -6.32475e-06
0.000404236 0.00187162 -6.23402e-06
-6.32475e-06 -6.23402e-06 0.00102901
-0.000108948 0.00039094 -4.47518e-05
0.00039094 -0.000276458 1.77095e-05
-4.47518e-05 1.77095e-05 1.57168e-05
0.00271615 0.000229602 -3.2647e-05
0.000229602 -3.79158e-06 1.83409e-05
-3.2647e-05 1.83409e-05 0.000569828
0.000869306 3.0344e-05 -5.51434e-07
3.0344e-05 3.84774e-05 -2.53891e-07
-5.51434e-07 -2.53891e-07 -2.95543e-05
0.000815501 -1.01084e-05 1.11849e-07
-1.01084e-05 1.94644e-06 -3.75041e-07
1.11849e-07 -3.75041e-07 -5.17314e-05
0.000896273 -3.78956e-05 -7.64095e-07
-3.78956e-05 3.33573e-05 8.12552e-07
-7.64095e-07 8.12552e-07 -8.47116e-06
0.000804594 7.57218e-06 1.14454e-07
7.57218e-06 -4.45489e-06 2.55804e-07
1.14454e-07 2.55804e-07 -5.90903e-05
0.000918596 4.38409e-05 6.92242e-07
4.38409e-05 6.52975e-05 8.09214e-07
6.92242e-07 8.09214e-07 1.64515e-06
0.00095898 2.99355e-05 -5.20241e-07
2.99355e-05 8.53415e-05 1.55022e-07
-5.20241e-07 1.55022e-07 1.78662e-05
0.000911937 3.19629e-05 1.06152e-06
3.19629e-05 5.93216e-05 1.01117e-06
1.06152e-06 1.01117e-06 -4.46607e-06
0.000884375 -9.41612e-06 7.18441e-07
-9.41612e-06 3.97313e-05 1.4661e-07
7.18441e-07 1.4661e-07 -2.12165e-05
0.000876695 -2.3368e-05 3.26908e-07
-2.3368e-05 3.65894e-05 -5.39466e-07
3.26908e-07 -5.39466e-07 -2.04535e-05
0.000794542 -3.46952e-05 -3.24729e-07
-3.46952e-05 -6.26527e-06 6.05574e-07
-3.24729e-07 6.05574e-07 -6.19948e-05
0.00165771 1.42972e-05 -9.13075e-07
1.42972e-05 -4.10457e-05 -1.13327e-07
-9.13075e-07 -1.13327e-07 -0.00012105
0.00178374 -0.000129023 -8.19538e-06
-0.000129023 -3.5305e-05 3.25218e-06
-8.19538e-06 3.25218e-06 -0.000110448
8.31032e-05 -9.15327e-05 3.46086e-06
-9.15327e-05 -0.000560918 4.52241e-06
3.46086e-06 4.52241e-06 -0.000682481
0.00135886 -0.000125667 1.89174e-06
-0.000125667 0.000292142 -7.6699e-08
1.89174e-06 -7.6699e-08 0.000149587
0.001089 -3.73283e-05 2.24988e-06
-3.73283e-05 0.000175087 -9.69819e-07
2.24988e-06 -9.69819e-07 5.34686e-05
0.00098438 -3.96026e-05 -2.35076e-07
-3.96026e-05 9.32692e-05 -4.93228e-07
-2.35076e-07 -4.93228e-07 1.08505e-05
0.000876363 -2.0235e-05 -8.91739e-07
-2.0235e-05 3.69607e-05 5.49512e-08
-8.91739e-07 5.49512e-08 -3.29259e-05
0.000904743 2.18109e-05 -4.90018e-07
2.18109e-05 5.56345e-05 2.98547e-07
-4.90018e-07 2.98547e-07 -1.42821e-05
0.00188085 -6.32607e-05 -5.1172e-06
-6.32607e-05 9.13174e-05 1.93325e-06
-5.1172e-06 1.93325e-06 2.7739e-05
0.000826213 -2.70226e-05 -1.61797e-07
-2.70226e-05 1.5859e-05 6.26366e-08
-1.61797e-07 6.26366e-08 -6.12332e-05
0.000918804 -4.59773e-05 6.23114e-07
-4.59773e-05 5.76314e-05 -4.03524e-07
6.23114e-07 -4.03524e-07 -2.43777e-05
0.00200754 -0.000187999 1.42336e-06
-0.000187999 0.000234569 -7.09208e-07
1.42336e-06 -7.09208e-07 0.000111212
0.000550705 -0.000103409 1.7306e-06
-0.000103409 -0.000123304 2.51964e-06
1.7306e-06 2.51964e-06 -0.000251099
0.00116031 -7.34679e-05 8.34042e-07
-7.34679e-05 0.000210249 7.15162e-08
8.34042e-07 7.15162e-08 7.1129e-05
0.00109899 -2.99601e-05 -5.45351e-07
-2.99601e-05 0.000154245 -2.55252e-07
-5.45351e-07 -2.55252e-07 5.59096e-05
0.00237643 -0.000164896 2.90773e-06
-0.000164896 0.000432201 1.72652e-06
2.90773e-06 1.72652e-06 0.000394155
0.00273131 -0.000218498 -4.08716e-06
-0.000218498 0.000860245 -2.98108e-06
-4.08716e-06 -2.98108e-06 0.000730235
0.000934548 -8.2028e-06 -2.21106e-06
-8.2028e-06 0.000108158 2.4358e-06
-2.21106e-06 2.4358e-06 -2.60611e-05
0.000891961 2.99361e-05 4.75812e-07
2.99361e-05 5.13891e-05 9.269e-07
4.75812e-07 9.269e-07 -2.68369e-05
0.000898666 -7.24968e-05 1.1787e-06
-7.24968e-05 4.75597e-05 5.47742e-08
1.1787e-06 5.47742e-08 -3.86072e-05
0.00109518 -3.26525e-05 3.6767e-07
-3.26525e-05 0.00013324 1.30233e-06
3.6767e-07 1.30233e-06 4.44612e-05
0.00112541 -2.17041e-06 -3.32321e-05
-2.17041e-06 0.000644228 8.26556e-07
-3.32321e-05 8.26556e-07 0.000586108
0.00133395 -8.68716e-06 1.18846e-05
-8.68716e-06 0.000575079 1.4318e-06
1.18846e-05 1.4318e-06 0.000505331
0.000342621 0.000134286 -4.45434e-05
0.000134286 -0.000863261 1.28889e-05
-4.45434e-05 1.28889e-05 -0.0014051
0.000985033 7.55058e-05 1.44757e-07
7.55058e-05 0.000100195 2.93992e-07
1.44757e-07 2.93992e-07 8.65064e-06
0.000955293 7.33549e-05 2.2058e-06
7.33549e-05 0.000125977 -3.76279e-07
2.2058e-06 -3.76279e-07 9.58674e-06
0.00281716 0.000163595 -5.13803e-07
0.000163595 0.000541688 6.21228e-08
-5.13803e-07 6.21228e-08 0.000558871
0.000320727 8.49504e-05 3.2114e-06
8.49504e-05 -0.000205083 -3.53815e-07
3.2114e-06 -3.53815e-07 -0.000401081
0.00327343 -0.000250831 4.56562e-05
-0.000250831 0.00135749 8.91512e-06
4.56562e-05 8.91512e-06 0.00149101
0.00100593 -0.000263181 1.32798e-05
-0.000263181 -0.000579608 2.17989e-05
1.32798e-05 2.17989e-05 -0.00127666
0.00463113 0.00011479 -7.63233e-05
0.00011479 0.000748846 -5.44551e-05
-7.63233e-05 -5.44551e-05 0.000235153
-0.000784659 9.91261e-05 2.34856e-06
9.91261e-05 -0.000982703 2.16468e-06
2.34856e-06 2.16468e-06 -0.000936503
-0.002147 -0.000310461 5.54951e-05
-0.000310461 -0.00126781 2.72376e-05
5.54951e-05 2.72376e-05 -0.00118666
0.00174307 -0.000214647 2.80796e-05
-0.000214647 0.000598554 1.49652e-05
2.80796e-05 1.49652e-05 0.00080143
0.00302227 -0.000282863 3.23609e-05
-0.000282863 5.41946e-05 1.79991e-05
3.23609e-05 1.79991e-05 0.000887163
0.00103487 5.01989e-05 8.46069e-08
5.01989e-05 0.000120137 -7.28565e-08
8.46069e-08 -7.28565e-08 3.38069e-05
0.000223137 -8.16304e-05 -1.29402e-05
-8.16304e-05 4.44236e-05 -2.67649e-06
-1.29402e-05 -2.67649e-06 2.19315e-05
0.00166712 -1.87387e-05 -2.5327e-06
-1.87387e-05 0.00011841 -7.18988e-06
-2.5327e-06 -7.18988e-06 5.55746e-05
0.00101291 0.000117199 -1.61093e-06
0.000117199 -4.22145e-07 -2.68481e-07
-1.61093e-06 -2.68481e-07 -9.94793e-05
0.000832705 5.29097e-05 -9.53504e-07
5.29097e-05 0.000133673 -2.55288e-07
-9.53504e-07 -2.55288e-07 -2.24971e-05
0.0013859 3.73771e-05 1.0505e-05
3.73771e-05 0.000421337 -6.49355e-06
1.0505e-05 -6.49355e-06 0.000370316
0.00518167 0.000415624 -3.43085e-05
0.000415624 0.00138002 -1.54249e-05
-3.43085e-05 -1.54249e-05 0.000832882
0.00746056 -0.00033489 4.78764e-06
-0.00033489 0.00237248 4.36125e-06
4.78764e-06 4.36125e-06 0.00134899
0.00014802 -0.000303057 5.72904e-06
-0.000303057 -0.000995317 1.08118e-05
5.72904e-06 1.08118e-05 -0.000853897
0.00281341 -0.000135594 1.09157e-06
-0.000135594 0.000115661 4.86534e-07
1.09157e-06 4.86534e-07 0.000579157
0.00144806 9.66451e-05 -2.60636e-06
9.66451e-05 0.000375871 -3.9382e-06
-2.60636e-06 -3.9382e-06 0.000300115
0.0018723 2.97851e-06 -1.33523e-05
2.97851e-06 0.000413119 -1.98113e-06
-1.33523e-05 -1.98113e-06 0.00031854
0.00144125 -1.27048e-06 -1.4745e-06
-1.27048e-06 0.000162158 -1.12962e-05
-1.4745e-06 -1.12962e-05 0.000103572
0.000384688 -4.17106e-05 -1.15913e-05
-4.17106e-05 8.46632e-06 -5.08426e-06
-1.15913e-05 -5.08426e-06 -0.000118755
0.00259272 0.000224397 -9.53454e-06
0.000224397 0.000931937 4.7226e-05
-9.53454e-06 4.7226e-05 0.000579775
0.00803917 -0.000197382 7.59443e-06
-0.000197382 0.00231381 -1.33275e-05
7.59443e-06 -1.33275e-05 0.00108313
-0.0012842 -0.000164841 -4.26397e-05
-0.000164841 -0.00192179 -3.6171e-05
-4.26397e-05 -3.6171e-05 -0.00193207
0.00338379 2.99468e-05 4.9348e-08
2.99468e-05 0.000475676 -1.31709e-05
4.9348e-08 -1.31709e-05 0.000904342
0.000929264 5.75037e-05 1.19406e-07
5.75037e-05 5.8557e-05 9.14887e-08
1.19406e-07 9.14887e-08 -2.29972e-05
0.000982235 6.81811e-05 -2.91656e-08
6.81811e-05 9.96672e-05 -4.50924e-07
-2.91656e-08 -4.50924e-07 1.98561e-05
0.000625438 4.07103e-05 1.55883e-07
4.07103e-05 -8.18271e-05 -1.59343e-06
1.55883e-07 -1.59343e-06 -0.000153834
0.00096176 4.71696e-05 -7.58793e-07
4.71696e-05 6.85914e-05 -8.59698e-07
-7.58793e-07 -8.59698e-07 1.00222e-05
0.000934618 -1.98757e-05 1.8677e-07
-1.98757e-05 5.52223e-05 -2.17898e-07
1.8677e-07 -2.17898e-07 -9.34271e-06
0.000999791 -2.59181e-06 -6.25145e-07
-2.59181e-06 9.27479e-05 -8.39013e-08
-6.25145e-07 -8.39013e-08 2.53896e-05
0.000946156 1.06734e-05 -8.51122e-08
1.06734e-05 7.14715e-05 6.98586e-08
-8.51122e-08 6.98586e-08 -2.6208e-06
0.000979579 9.59443e-06 3.16772e-07
9.59443e-06 7.7499e-05 3.81173e-10
3.16772e-07 3.81173e-10 1.31727e-05
0.000967245 -5.31619e-06 -1.98758e-07
-5.31619e-06 6.81532e-05 1.88649e-07
-1.98758e-07 1.88649e-07 3.43086e-07
0.00102882 -1.11005e-05 2.90739e-07
-1.11005e-05 0.000111786 1.91971e-07
2.90739e-07 1.91971e-07 3.6471e-05
0.00127637 -3.14716e-05 -4.61756e-07
-3.14716e-05 0.000240751 9.18455e-07
-4.61756e-07 9.18455e-07 0.000174982
0.00102225 -4.27748e-05 7.04935e-07
-4.27748e-05 8.59187e-05 4.26488e-07
7.04935e-07 4.26488e-07 1.87344e-05
0.000920962 3.12247e-05 8.96456e-07
3.12247e-05 4.79257e-05 5.13205e-07
8.96456e-07 5.13205e-07 -2.0229e-05
0.000947863 -1.30935e-05 7.97647e-07
-1.30935e-05 6.31968e-05 -3.69683e-07
7.97647e-07 -3.69683e-07 -5.67059e-07
0.000900669 3.36435e-05 -7.43595e-08
3.36435e-05 4.26267e-05 -6.12935e-07
-7.43595e-08 -6.12935e-07 -2.01587e-05
0.000949732 2.73425e-05 -7.93802e-07
2.73425e-05 5.66337e-05 -1.07037e-06
-7.93802e-07 -1.07037e-06 -8.15305e-06
0.000996802 3.05132e-05 -2.27803e-07
3.05132e-05 8.66213e-05 -2.18797e-07
-2.27803e-07 -2.18797e-07 1.97065e-05
0.000905629 2.58887e-05 2.36469e-07
2.58887e-05 4.83346e-05 3.2643e-07
2.36469e-07 3.2643e-07 -1.69215e-05
0.000937897 2.86008e-05 4.9433e-08
2.86008e-05 5.3125e-05 -1.61956e-07
4.9433e-08 -1.61956e-07 -1.45992e-05
0.000914004 9.76599e-06 8.1992e-07
9.76599e-06 4.82134e-05 1.2333e-06
8.1992e-07 1.2333e-06 -2.38105e-05
0.000969168 1.58108e-05 1.41347e-07
1.58108e-05 6.16599e-05 7.16402e-07
1.41347e-07 7.16402e-07 -5.66474e-06
0.00094781 -4.33617e-05 1.46898e-08
-4.33617e-05 8.24621e-05 5.03372e-07
1.46898e-08 5.03372e-07 -2.89789e-06
0.000997033 -1.09144e-05 -1.54216e-07
-1.09144e-05 9.91971e-05 -9.11748e-10
-1.54216e-07 -9.11748e-10 1.88309e-05
0.000791875 -4.16622e-05 -2.28149e-07
-4.16622e-05 1.68312e-05 2.16364e-06
-2.28149e-07 2.16364e-06 -7.58364e-05
0.00103823 -8.60932e-05 -1.879e-06
-8.60932e-05 0.000129945 2.77546e-06
-1.879e-06 2.77546e-06 2.35579e-05
0.00107613 -3.69902e-05 2.54871e-07
-3.69902e-05 0.000147267 -3.54471e-07
2.54871e-07 -3.54471e-07 6.46245e-05
0.000823209 -5.29865e-05 3.93435e-07
-5.29865e-05 3.41577e-05 -1.69204e-06
3.93435e-07 -1.69204e-06 -5.87546e-05
0.000940977 -7.23425e-06 -1.72638e-07
-7.23425e-06 7.42623e-05 -6.18087e-07
-1.72638e-07 -6.18087e-07 -1.18295e-06
0.000789915 4.65318e-06 2.63352e-08
4.65318e-06 -1.5621e-05 1.14907e-06
2.63352e-08 1.14907e-06 -8.0535e-05
0.000943771 5.83765e-06 -1.5588e-07
5.83765e-06 7.24639e-05 -6.07706e-07
-1.5588e-07 -6.07706e-07 2.09271e-06
0.000914109 8.12728e-06 8.7612e-08
8.12728e-06 4.78572e-05 3.7173e-07
8.7612e-08 3.7173e-07 -1.10687e-05
0.000879995 2.10752e-05 -4.60692e-07
2.10752e-05 2.36562e-05 9.22096e-07
-4.60692e-07 9.22096e-07 -2.27544e-05
0.000912071 -4.54e-06 1.88344e-07
-4.54e-06 4.84769e-05 -6.91057e-07
1.88344e-07 -6.91057e-07 -9.08514e-06
0.000886 6.53961e-06 -2.6525e-07
6.53961e-06 2.62161e-05 1.28508e-09
-2.6525e-07 1.28508e-09 -1.89704e-05
0.000853418 1.79895e-05 -9.09619e-07
1.79895e-05 3.57601e-06 1.68718e-06
-9.09619e-07 1.68718e-06 -2.51587e-05
0.000904388 -1.08874e-06 8.66714e-07
-1.08874e-06 3.39437e-05 -7.70653e-07
8.66714e-07 -7.70653e-07 -1.07163e-05
0.000861324 1.07051e-05 -1.49211e-07
1.07051e-05 4.26899e-06 1.21194e-10
-1.49211e-07 1.21194e-10 -2.35101e-05
0.00137977 1.96427e-05 -5.93788e-06
1.96427e-05 0.000273774 4.24418e-06
-5.93788e-06 4.24418e-06 0.000275278
0.000859831 2.48474e-06 9.55227e-07
2.48474e-06 1.63978e-06 -1.6471e-06
9.55227e-07 -1.6471e-06 -2.56008e-05
0.0010919 1.43545e-05 -2.4066e-06
1.43545e-05 0.000118029 5.80054e-07
-2.4066e-06 5.80054e-07 0.000118742
0.000965855 1.34943e-05 -1.2258e-06
1.34943e-05 5.16029e-05 1.54832e-06
-1.2258e-06 1.54832e-06 6.82991e-05
0.000804437 8.96926e-06 5.60669e-07
8.96926e-06 -3.71781e-05 -3.07446e-06
5.60669e-07 -3.07446e-06 -3.74237e-05
0.00155557 1.08303e-05 3.69638e-06
1.08303e-05 0.000361003 -1.18207e-06
3.69638e-06 -1.18207e-06 0.000380999
0.00213794 6.15608e-06 4.45861e-06
6.15608e-06 0.000668655 -3.94986e-06
4.45861e-06 -3.94986e-06 0.000691643
0.000951407 -2.07e-05 6.37562e-07
-2.07e-05 6.24665e-05 -4.49888e-07
6.37562e-07 -4.49888e-07 1.81809e-05
0.000869426 -6.90117e-06 -2.53999e-07
-6.90117e-06 5.43646e-06 -1.42127e-06
-2.53999e-07 -1.42127e-06 -1.856e-05
0.000934927 -6.07608e-06 4.42244e-07
-6.07608e-06 5.3568e-05 1.39184e-07
4.42244e-07 1.39184e-07 1.15511e-05
0.000823017 -4.91346e-06 -3.33106e-07
-4.91346e-06 -2.99885e-05 -2.99823e-06
-3.33106e-07 -2.99823e-06 -2.7204e-05
0.00087216 -4.25845e-06 -4.33728e-08
-4.25845e-06 4.97757e-06 -8.54009e-09
-4.33728e-08 -8.54009e-09 -1.78412e-05
0.000907963 -2.23452e-05 -8.22353e-07
-2.23452e-05 3.7789e-05 1.0584e-06
-8.22353e-07 1.0584e-06 -2.72254e-06
0.00202266 -3.00684e-07 -7.59426e-07
-3.00684e-07 0.000606809 -3.91022e-06
-7.59426e-07 -3.91022e-06 0.000631227
0.000817152 -9.04696e-08 -7.1873e-08
-9.04696e-08 -3.40854e-05 -1.99814e-09
-7.1873e-08 -1.99814e-09 -3.08615e-05
0.00087186 -1.40925e-06 -9.4096e-09
-1.40925e-06 3.76307e-06 1.59069e-06
-9.4096e-09 1.59069e-06 -1.85696e-05
0.00081903 4.80697e-06 -2.71925e-07
4.80697e-06 -3.26066e-05 3.03247e-06
-2.71925e-07 3.03247e-06 -2.98139e-05
0.00203483 6.13077e-06 -1.78181e-06
6.13077e-06 0.000613717 -1.26601e-08
-1.78181e-06 -1.26601e-08 0.000637915
0.00206245 1.1968e-05 -8.25659e-06
1.1968e-05 0.000629829 3.87438e-06
-8.25659e-06 3.87438e-06 0.000653484
-0.00107251 5.96323e-05 -1.73209e-05
5.96323e-05 -0.000603302 1.71327e-06
-1.73209e-05 1.71327e-06 -0.000710006
-0.000957818 0.000205489 1.33217e-05
0.000205489 -0.00044231 1.57447e-06
1.33217e-05 1.57447e-06 -0.000459167
0.0014646 4.0174e-05 -3.21609e-05
4.0174e-05 -6.66319e-05 1.7817e-05
-3.21609e-05 1.7817e-05 -8.74e-05
-0.00127522 0.00021805 2.06212e-05
0.00021805 -0.000938096 -6.71664e-06
2.06212e-05 -6.71664e-06 -0.000696136
0.00185363 2.04003e-05 -7.59963e-05
2.04003e-05 0.000226211 -1.25841e-06
-7.59963e-05 -1.25841e-06 -6.93039e-05
0.00187633 3.90446e-05 2.27159e-05
3.90446e-05 0.000220101 -3.31953e-06
2.27159e-05 -3.31953e-06 0.000139626
0.0012477 -4.44988e-05 -4.47951e-05
-4.44988e-05 -0.000377286 -6.49222e-07
-4.47951e-05 -6.49222e-07 -0.000903942
0.00487965 0.000363077 8.40335e-05
0.000363077 0.00232499 -2.81195e-05
8.40335e-05 -2.81195e-05 0.00242202
-0.00115807 0.000450971 1.45835e-05
0.000450971 -0.00189092 9.49963e-06
1.45835e-05 9.49963e-06 -0.000785344
0.00138083 7.32922e-05 -1.38395e-06
7.32922e-05 -5.63512e-06 3.54721e-06
-1.38395e-06 3.54721e-06 -0.000203211
0.0028235 0.000279854 6.43388e-06
0.000279854 0.000288535 -1.33576e-05
6.43388e-06 -1.33576e-05 -0.000749818
0.00371329 0.00055341 -3.59572e-06
0.00055341 0.0010439 -3.54361e-06
-3.59572e-06 -3.54361e-06 0.0012937
0.0021197 0.000231455 -2.55703e-06
0.000231455 -0.000391317 3.63246e-06
-2.55703e-06 3.63246e-06 0.000187491
0.00165106 3.2321e-05 -1.30001e-05
3.2321e-05 -0.000209677 -4.23632e-07
-1.30001e-05 -4.23632e-07 -0.000411413
0.00324303 0.000376456 4.37792e-05
0.000376456 0.000663711 -2.81101e-05
4.37792e-05 -2.81101e-05 -0.000493046
-0.00338091 0.000250317 -7.34908e-05
0.000250317 -0.00277527 3.12068e-05
-7.34908e-05 3.12068e-05 -0.0026387
0.00104678 0.000116007 -8.06822e-06
0.000116007 -0.00103562 1.21857e-05
-8.06822e-06 1.21857e-05 -0.000635489
0.00100021 -1.06767e-05 1.07583e-06
-1.06767e-05 0.000108116 9.34383e-08
1.07583e-06 9.34383e-08 3.20708e-05
0.000939076 2.99387e-05 -1.15979e-06
2.99387e-05 7.46145e-05 -3.54575e-07
-1.15979e-06 -3.54575e-07 7.80666e-06
0.000896331 4.62339e-06 6.67591e-07
4.62339e-06 4.39054e-05 -1.48691e-07
6.67591e-07 -1.48691e-07 -9.50085e-06
0.000930696 4.82803e-05 1.56563e-06
4.82803e-05 7.29769e-05 8.1963e-07
1.56563e-06 8.1963e-07 1.00614e-05
0.000865608 1.0307e-05 -1.41358e-07
1.0307e-05 3.62203e-05 4.7821e-07
-1.41358e-07 4.7821e-07 -3.84059e-05
0.000987253 3.00754e-05 1.58835e-07
3.00754e-05 0.000100716 5.13177e-07
1.58835e-07 5.13177e-07 3.35181e-05
0.000891435 -2.76138e-06 -3.78463e-07
-2.76138e-06 4.6283e-05 1.22416e-06
-3.78463e-07 1.22416e-06 -1.59718e-05
0.00100762 5.00371e-05 -7.89549e-07
5.00371e-05 0.000106905 8.62858e-08
-7.89549e-07 8.62858e-08 4.12307e-05
0.000986642 2.02658e-05 -3.13148e-07
2.02658e-05 9.62267e-05 3.87331e-07
-3.13148e-07 3.87331e-07 3.38122e-05
0.000813057 -2.26431e-05 -8.30583e-07
-2.26431e-05 4.55709e-06 -2.54771e-07
-8.30583e-07 -2.54771e-07 -5.43121e-05
0.00125982 -5.51004e-05 1.79958e-06
-5.51004e-05 -0.000228374 -2.37408e-06
1.79958e-06 -2.37408e-06 -0.000296233
0.00123872 -0.000153495 -1.88106e-07
-0.000153495 -0.000128241 5.15886e-06
-1.88106e-07 5.15886e-06 -0.000249874
0.000671498 -0.000104422 9.65784e-06
-0.000104422 -4.31996e-05 1.75307e-06
9.65784e-06 1.75307e-06 -0.000166851
0.00100767 -6.62283e-05 3.19228e-06
-6.62283e-05 0.000122223 -1.46024e-06
3.19228e-06 -1.46024e-06 -1.18757e-05
0.00106715 -2.1008e-05 1.07595e-07
-2.1008e-05 0.000139852 -1.25266e-06
1.07595e-07 -1.25266e-06 3.69901e-05
0.000830629 -4.93278e-05 -5.92373e-07
-4.93278e-05 1.29079e-05 -3.62094e-07
-5.92373e-07 -3.62094e-07 -7.18262e-05
0.000865673 3.36616e-05 -1.46436e-07
3.36616e-05 3.60058e-05 -1.60048e-07
-1.46436e-07 -1.60048e-07 -4.16992e-05
0.000938174 -1.76614e-05 7.83448e-08
-1.76614e-05 7.59474e-05 6.12996e-07
7.83448e-08 6.12996e-07 -3.21804e-06
0.00177047 -0.000158599 2.34508e-06
-0.000158599 0.000134598 -1.25702e-07
2.34508e-06 -1.25702e-07 0.000103761
0.000997434 -3.78502e-06 -1.81248e-07
-3.78502e-06 9.99759e-05 -3.5991e-07
-1.81248e-07 -3.5991e-07 1.47691e-05
0.00113403 -3.35546e-05 -5.48624e-07
-3.35546e-05 0.000155781 -1.11234e-07
-5.48624e-07 -1.11234e-07 6.515e-05
0.0014808 -0.000167229 -1.07722e-06
-0.000167229 0.000258468 -2.46534e-06
-1.07722e-06 -2.46534e-06 0.000106155
0.00110368 -2.30245e-05 -4.95405e-07
-2.30245e-05 0.000181074 4.62899e-07
-4.95405e-07 4.62899e-07 5.00067e-05
-0.000446629 -0.000150752 -4.44215e-06
-0.000150752 -0.000932471 -6.6287e-06
-4.44215e-06 -6.6287e-06 -0.000902137
0.0020624 -8.40096e-05 -1.04142e-06
-8.40096e-05 0.000666196 8.15367e-06
-1.04142e-06 8.15367e-06 0.000483423
0.000656754 2.24715e-05 -1.71728e-06
2.24715e-05 -8.73605e-05 4.31079e-06
-1.71728e-06 4.31079e-06 -0.000180686
0.000949612 1.31178e-05 3.76187e-07
1.31178e-05 6.734e-05 4.60882e-07
3.76187e-07 4.60882e-07 -1.29488e-05
0.000955742 2.08132e-05 -5.0506e-07
2.08132e-05 6.35223e-05 1.13492e-06
-5.0506e-07 1.13492e-06 -2.80621e-05
0.00155372 -5.23729e-06 -4.02195e-07
-5.23729e-06 0.000265065 8.16779e-07
-4.02195e-07 8.16779e-07 0.000173582
4.55028e-05 -5.91898e-06 -7.30235e-07
-5.91898e-06 5.63079e-05 -6.45461e-07
-7.30235e-07 -6.45461e-07 -4.24382e-05
-0.0043508 -4.03388e-05 2.4167e-05
-4.03388e-05 -0.00236195 3.21182e-06
2.4167e-05 3.21182e-06 -0.00228372
0.000989376 6.44195e-05 1.50134e-06
6.44195e-05 0.000102105 5.63871e-07
1.50134e-06 5.63871e-07 1.43049e-05
4.92953e-05 1.83231e-05 2.32344e-06
1.83231e-05 -0.000247182 -5.6202e-07
2.32344e-06 -5.6202e-07 -0.000409036
0.00127119 9.72688e-05 4.57992e-06
9.72688e-05 0.000140356 -1.97528e-07
4.57992e-06 -1.97528e-07 2.86506e-05
-0.00124776 -4.24194e-05 1.30265e-05
-4.24194e-05 -0.000750144 2.59393e-06
1.30265e-05 2.59393e-06 -0.000868848
0.00265818 -0.000362492 1.75428e-05
-0.000362492 0.000320071 1.03035e-05
1.75428e-05 1.03035e-05 -0.000882868
0.00458554 0.000368133 7.68353e-05
0.000368133 0.00116564 -3.25932e-05
7.68353e-05 -3.25932e-05 0.000773771
-0.000314758 2.89502e-05 -5.77429e-06
2.89502e-05 -0.000477749 6.81605e-06
-5.77429e-06 6.81605e-06 -0.000522452
0.0049718 -0.0004834 4.44689e-05
-0.0004834 0.00139393 4.52044e-05
4.44689e-05 4.52044e-05 0.00144061
0.00178938 -1.70116e-05 1.73498e-05
-1.70116e-05 0.000178371 8.16117e-06
1.73498e-05 8.16117e-06 0.000116215
0.00225382 -0.000116931 1.15072e-05
-0.000116931 -0.00013745 9.49094e-06
1.15072e-05 9.49094e-06 0.000302598
0.0011172 8.50434e-05 8.82504e-07
8.50434e-05 0.000207709 -8.06312e-07
8.82504e-07 -8.06312e-07 0.000133645
0.00146144 4.04125e-06 -1.10585e-06
4.04125e-06 0.00019164 -1.65618e-06
-1.10585e-06 -1.65618e-06 0.000108478
0.00129861 -2.00381e-06 -3.84623e-06
-2.00381e-06 5.48123e-05 -3.03172e-06
-3.84623e-06 -3.03172e-06 -8.51468e-07
-6.06971e-05 1.90681e-06 2.87277e-06
1.90681e-06 -0.000213527 3.5881e-08
2.87277e-06 3.5881e-08 -0.000345276
0.00276265 0.000280349 -2.52324e-05
0.000280349 0.000729514 -2.22036e-05
-2.52324e-05 -2.22036e-05 0.000435327
0.00477295 6.35961e-05 3.08819e-05
6.35961e-05 0.000856371 7.14317e-06
3.08819e-05 7.14317e-06 -0.000482704
0.00210195 1.55461e-05 1.58913e-06
1.55461e-05 -0.000308416 -6.47788e-06
1.58913e-06 -6.47788e-06 0.000113113
0.00125008 -0.000220656 -7.18316e-06
-0.000220656 -0.000587665 2.21436e-05
-7.18316e-06 2.21436e-05 -0.000593698
0.000987447 3.74869e-05 -2.52855e-06
3.74869e-05 0.00019878 -7.55291e-06
-2.52855e-06 -7.55291e-06 0.000147385
0.000844676 8.7335e-06 8.50524e-06
8.7335e-06 3.00571e-05 7.77618e-06
8.50524e-06 7.77618e-06 -4.28666e-05
0.0013483 2.41739e-06 -5.27885e-06
2.41739e-06 0.000134156 -2.86812e-06
-5.27885e-06 -2.86812e-06 5.23772e-05
0.00113276 0.000107052 7.07147e-06
0.000107052 -0.000897707 -1.4424e-05
7.07147e-06 -1.4424e-05 -0.000562091
-0.00133387 6.36985e-05 6.50961e-06
6.36985e-05 -0.000693467 -4.91398e-06
6.50961e-06 -4.91398e-06 -0.000907362
0.00725234 -2.43563e-05 3.72653e-05
-2.43563e-05 0.00198211 7.90425e-06
3.72653e-05 7.90425e-06 0.000906518
-0.000400124 -1.03786e-05 8.36707e-06
-1.03786e-05 -0.00103546 -6.26677e-05
8.36707e-06 -6.26677e-05 -0.000899878
0.00133098 8.88831e-05 1.94452e-06
8.88831e-05 0.000274616 2.42503e-06
1.94452e-06 2.42503e-06 0.000195633
0.000812459 5.64985e-05 -8.4847e-07
5.64985e-05 5.71603e-06 1.42458e-06
-8.4847e-07 1.42458e-06 -6.97594e-05
0.000983791 3.4181e-05 -1.68909e-06
3.4181e-05 0.000106369 -2.93342e-06
-1.68909e-06 -2.93342e-06 3.90322e-05
0.000979133 5.45065e-05 -1.51199e-07
5.45065e-05 7.80727e-05 -2.56162e-07
-1.51199e-07 -2.56162e-07 1.33262e-05
0.000958489 5.71942e-06 -3.57863e-07
5.71942e-06 6.32689e-05 -4.86872e-07
-3.57863e-07 -4.86872e-07 -3.63338e-06
0.000802681 -2.16013e-05 -5.15435e-07
-2.16013e-05 -2.42959e-06 1.13928e-06
-5.15435e-07 1.13928e-06 -7.99263e-05
0.000977658 3.43766e-05 1.06807e-07
3.43766e-05 7.47116e-05 -2.97038e-10
1.06807e-07 -2.97038e-10 7.86082e-06
0.000911872 -4.78314e-05 -1.00626e-07
-4.78314e-05 3.0746e-05 -2.20541e-07
-1.00626e-07 -2.20541e-07 -3.79725e-05
0.00108511 -5.1338e-05 2.36912e-06
-5.1338e-05 0.000137995 1.19912e-06
2.36912e-06 1.19912e-06 6.72768e-05
0.000842936 -1.16247e-05 1.0228e-07
-1.16247e-05 2.81016e-05 1.33714e-06
1.0228e-07 1.33714e-06 -2.36449e-05
0.000957979 -1.37998e-05 2.4144e-07
-1.37998e-05 4.66531e-05 2.31196e-07
2.4144e-07 2.31196e-07 -1.89367e-05
0.000984668 3.02073e-05 -6.44649e-07
3.02073e-05 7.87105e-05 -5.59744e-07
-6.44649e-07 -5.59744e-07 1.2941e-05
0.000923055 2.92198e-05 -4.04629e-08
2.92198e-05 5.89296e-05 -4.65487e-07
-4.04629e-08 -4.65487e-07 -6.99953e-06
0.000933108 3.20226e-05 -3.80981e-07
3.20226e-05 5.00457e-05 -1.05538e-06
-3.80981e-07 -1.05538e-06 -1.74393e-05
0.000955019 1.07511e-05 3.02234e-08
1.07511e-05 5.48012e-05 2.27668e-07
3.02234e-08 2.27668e-07 -1.26573e-05
0.000960477 1.09169e-05 4.49528e-07
1.09169e-05 7.11049e-05 3.86237e-07
4.49528e-07 3.86237e-07 -2.88496e-07
0.000883379 -4.20791e-05 1.21066e-07
-4.20791e-05 4.82986e-05 1.18576e-06
1.21066e-07 1.18576e-06 -2.86152e-05
0.000896117 -3.20672e-05 -1.28843e-07
-3.20672e-05 5.6827e-05 -6.38041e-07
-1.28843e-07 -6.38041e-07 -2.66529e-05
0.000933507 -5.1201e-05 6.97297e-07
-5.1201e-05 9.55907e-05 1.43196e-06
6.97297e-07 1.43196e-06 -9.16764e-06
0.00108885 -1.55097e-05 -4.48249e-07
-1.55097e-05 0.000146322 -9.96099e-07
-4.48249e-07 -9.96099e-07 6.61525e-05
0.00103686 -5.1527e-05 -2.27947e-07
-5.1527e-05 0.00013741 7.49452e-07
-2.27947e-07 7.49452e-07 4.38896e-05
0.000607551 -7.07134e-05 -1.49826e-06
-7.07134e-05 -8.92871e-05 2.60819e-06
-1.49826e-06 2.60819e-06 -0.00020319
0.000961441 -8.3449e-05 -2.87082e-06
-8.3449e-05 9.17491e-05 4.12417e-07
-2.87082e-06 4.12417e-07 -1.56225e-05
0.000992551 -6.51718e-05 -1.12717e-06
-6.51718e-05 0.000108028 1.14499e-06
-1.12717e-06 1.14499e-06 1.76622e-05
0.000928933 -8.10205e-05 -3.18817e-08
-8.10205e-05 7.61368e-05 9.23002e-08
-3.18817e-08 9.23002e-08 -2.99789e-05
0.000933087 -1.13404e-05 -1.17484e-07
-1.13404e-05 6.1543e-05 1.13821e-06
-1.17484e-07 1.13821e-06 -8.66858e-06
0.00101938 -3.86027e-05 -4.8157e-07
-3.86027e-05 0.000117195 -4.96192e-07
-4.8157e-07 -4.96192e-07 3.34791e-05
0.000827798 -5.5084e-05 8.48319e-07
-5.5084e-05 3.80584e-05 -2.71157e-06
8.48319e-07 -2.71157e-06 -5.25032e-05
0.00109604 -8.8051e-06 -3.34694e-07
-8.8051e-06 0.000154856 -1.462e-06
-3.34694e-07 -1.462e-06 8.05489e-05
0.000873128 4.22203e-06 3.65781e-08
4.22203e-06 2.80112e-05 -2.88142e-08
3.65781e-08 -2.88142e-08 -3.58448e-05
0.000889298 2.19455e-05 -2.86136e-07
2.19455e-05 3.05463e-05 1.1495e-06
-2.86136e-07 1.1495e-06 -1.92322e-05
0.000933722 3.22173e-06 2.22366e-07
3.22173e-06 5.88472e-05 -4.98263e-07
2.22366e-07 -4.98263e-07 -6.50227e-07
0.000887526 1.59567e-05 -2.44348e-07
1.59567e-05 2.77613e-05 -7.43156e-08
-2.44348e-07 -7.43156e-08 -1.87445e-05
0.000847671 2.19929e-05 -1.10791e-06
2.19929e-05 4.02293e-06 1.69789e-06
-1.10791e-06 1.69789e-06 -2.58751e-05
0.000892114 7.64088e-07 7.00677e-07
7.64088e-07 2.9285e-05 -8.80711e-07
7.00677e-07 -8.80711e-07 -1.59034e-05
0.000855041 1.69517e-05 -7.76122e-08
1.69517e-05 3.96024e-06 2.87226e-09
-7.76122e-08 2.87226e-09 -2.46929e-05
0.00135014 2.44736e-05 -6.68067e-06
2.44736e-05 0.00026348 3.0552e-06
-6.68067e-06 3.0552e-06 0.000263934
0.000862431 6.91808e-06 1.02876e-06
6.91808e-06 4.44907e-06 -1.64115e-06
1.02876e-06 -1.64115e-06 -2.32183e-05
0.0010885 1.89775e-05 -2.97903e-06
1.89775e-05 0.000119885 5.52707e-07
-2.97903e-06 5.52707e-07 0.000119898
0.000956383 1.80598e-05 -1.76788e-06
1.80598e-05 5.09452e-05 1.55363e-06
-1.76788e-06 1.55363e-06 6.68272e-05
0.000803026 1.33249e-05 8.60632e-07
1.33249e-05 -3.53274e-05 -3.10625e-06
8.60632e-07 -3.10625e-06 -3.59988e-05
0.0015513 1.63153e-05 4.92505e-06
1.63153e-05 0.000361692 -1.13513e-06
4.92505e-06 -1.13513e-06 0.000381194
0.00213489 1.24562e-05 7.67503e-06
1.24562e-05 0.000668939 -3.89111e-06
7.67503e-06 -3.89111e-06 0.000691615
0.000740993 -1.0888e-06 -3.23492e-07
-1.0888e-06 -4.44345e-05 -1.09719e-06
-3.23492e-07 -1.09719e-06 -9.57036e-05
0.000636744 -1.08068e-05 -2.00614e-07
-1.08068e-05 -0.000113036 -1.85678e-06
-2.00614e-07 -1.85678e-06 -0.000140741
0.000968649 -8.78339e-06 -3.82674e-08
-8.78339e-06 7.26134e-05 1.93111e-08
-3.82674e-08 1.93111e-08 2.73897e-05
0.000823376 -9.40581e-06 -4.91028e-07
-9.40581e-06 -2.753e-05 -2.99209e-06
-4.91028e-07 -2.99209e-06 -2.59044e-05
0.000749324 -7.41424e-06 3.42792e-08
-7.41424e-06 -5.71349e-05 9.08407e-09
3.42792e-08 9.08407e-09 -8.20011e-05
0.000747001 -3.11514e-05 1.16398e-08
-3.11514e-05 -4.38278e-05 6.33026e-07
1.16398e-08 6.33026e-07 -8.73875e-05
0.00203221 -6.32142e-06 -4.44909e-06
-6.32142e-06 0.000612802 -3.91189e-06
-4.44909e-06 -3.91189e-06 0.000636927
0.000816411 -4.73982e-06 -1.48415e-07
-4.73982e-06 -3.35815e-05 -1.27724e-08
-1.48415e-07 -1.27724e-08 -3.07303e-05
0.000870748 -4.84133e-06 -6.86619e-09
-4.84133e-06 4.16979e-06 1.54253e-06
-6.86619e-09 1.54253e-06 -1.86354e-05
0.00202123 1.84034e-08 -1.74847e-06
1.84034e-08 0.000606037 -5.22272e-10
-1.74847e-06 -5.22272e-10 0.000630464
0.000817049 1.13834e-07 -1.92648e-09
1.13834e-07 -3.41794e-05 3.0225e-06
-1.92648e-09 3.0225e-06 -3.09541e-05
0.00203746 6.43742e-06 -4.19901e-06
6.43742e-06 0.000615274 3.91438e-06
-4.19901e-06 3.91438e-06 0.000639402
0.00117465 -2.28106e-06 -1.37306e-05
-2.28106e-06 1.80031e-05 4.57745e-06
-1.37306e-05 4.57745e-06 -8.20504e-05
0.0011424 9.68725e-05 1.53944e-06
9.68725e-05 0.000603466 -2.06603e-06
1.53944e-06 -2.06603e-06 0.000634376
0.000484081 1.69071e-05 7.15286e-05
1.69071e-05 0.00019677 -1.43934e-05
7.15286e-05 -1.43934e-05 3.7862e-05
0.000926376 1.82338e-05 -1.30347e-07
1.82338e-05 5.73533e-05 -9.78235e-08
-1.30347e-07 -9.78235e-08 -9.15027e-06
0.00131466 2.00792e-05 3.27835e-09
2.00792e-05 7.59605e-05 8.04599e-06
3.27835e-09 8.04599e-06 2.564e-05
0.00129342 3.21182e-05 -1.0745e-05
3.21182e-05 -0.00016065 4.48878e-06
-1.0745e-05 4.48878e-06 -0.000208302
0.00126033 0.000252465 3.67699e-05
0.000252465 0.000343808 -2.07491e-05
3.67699e-05 -2.07491e-05 0.000738094
0.00324674 8.58151e-05 -3.95123e-05
8.58151e-05 0.000702483 9.58413e-06
-3.95123e-05 9.58413e-06 0.00048634
0.00777239 0.000471585 1.91072e-05
0.000471585 0.00264984 -1.11626e-05
1.91072e-05 -1.11626e-05 0.00169417
-0.0022793 0.000363751 4.88571e-05
0.000363751 -0.00177521 -1.69757e-05
4.88571e-05 -1.69757e-05 -0.00143612
0.00294382 0.000241304 2.27251e-05
0.000241304 0.000166991 -1.72967e-05
2.27251e-05 -1.72967e-05 0.000706058
0.00211014 4.9448e-05 -3.76483e-05
4.9448e-05 -0.000322499 4.2061e-06
-3.76483e-05 4.2061e-06 -0.000615812
0.00656281 0.00035575 3.45854e-05
0.00035575 0.00220088 -1.38061e-05
3.45854e-05 -1.38061e-05 0.0011214
0.00307559 0.000387597 -4.57744e-06
0.000387597 1.85081e-05 5.35152e-06
-4.57744e-06 5.35152e-06 0.000140866
0.00277084 0.000130226 -2.8989e-06
0.000130226 -6.2849e-05 1.7127e-06
-2.8989e-06 1.7127e-06 0.000385323
0.00475437 -0.000164434 3.86352e-05
-0.000164434 0.000919156 -2.87662e-05
3.86352e-05 -2.87662e-05 0.000566245
0.00724464 0.000384897 2.46289e-05
0.000384897 0.00227158 -5.35621e-06
2.46289e-05 -5.35621e-06 0.000865556
0.00196429 0.000292686 8.45994e-06
0.000292686 -0.000585017 5.12129e-05
8.45994e-06 5.12129e-05 -0.000585908
0.00334258 4.37727e-05 2.83161e-07
4.37727e-05 0.000345756 6.99651e-06
2.83161e-07 6.99651e-06 0.000812809
0.000925803 -1.53654e-05 4.26519e-07
-1.53654e-05 6.22606e-05 1.58115e-07
4.26519e-07 1.58115e-07 -1.73268e-05
0.000967265 -2.54949e-05 4.17237e-07
-2.54949e-05 9.19353e-05 4.94987e-09
4.17237e-07 4.94987e-09 1.4864e-05
0.00100417 3.59993e-05 -8.52326e-07
3.59993e-05 0.000109963 1.19676e-07
-8.52326e-07 1.19676e-07 4.31815e-05
0.000930881 -5.54228e-06 -2.03483e-07
-5.54228e-06 6.12713e-05 -2.37644e-07
-2.03483e-07 -2.37644e-07 -1.0078e-05
0.000960227 3.60404e-05 -4.74806e-07
3.60404e-05 8.58033e-05 3.36722e-07
-4.74806e-07 3.36722e-07 1.24172e-05
0.00101111 1.54352e-05 4.23873e-07
1.54352e-05 0.000113548 1.00972e-06
4.23873e-07 1.00972e-06 4.67115e-05
0.00105827 4.84654e-05 -4.67143e-07
4.84654e-05 0.000132769 1.21769e-07
-4.67143e-07 1.21769e-07 6.74415e-05
0.00109102 5.13807e-05 7.12213e-07
5.13807e-05 0.000152513 8.85696e-07
7.12213e-07 8.85696e-07 8.95421e-05
0.00126908 -0.000157436 7.95945e-06
-0.000157436 -0.000126869 -8.58738e-06
7.95945e-06 -8.58738e-06 -0.000143357
0.000788727 -0.000135854 2.41979e-06
-0.000135854 -7.31966e-05 -1.22013e-07
2.41979e-06 -1.22013e-07 -0.000238034
0.000947276 -8.41597e-05 -1.94564e-06
-8.41597e-05 8.44582e-05 1.55485e-07
-1.94564e-06 1.55485e-07 2.37666e-06
0.00138545 -4.04123e-05 1.36869e-06
-4.04123e-05 0.000311507 -1.87318e-06
1.36869e-06 -1.87318e-06 0.000184863
0.00117473 -4.45166e-05 -1.41618e-06
-4.45166e-05 0.000176085 -8.79729e-07
-1.41618e-06 -8.79729e-07 8.4976e-05
0.0010837 -8.99365e-06 -8.79365e-07
-8.99365e-06 0.000142535 -6.28944e-07
-8.79365e-07 -6.28944e-07 6.02294e-05
0.00100324 1.47171e-05 2.82621e-08
1.47171e-05 9.85399e-05 1.72367e-08
2.82621e-08 1.72367e-08 1.66523e-05
0.00148711 -0.000225765 -3.60579e-06
-0.000225765 -6.01568e-06 -9.03022e-07
-3.60579e-06 -9.03022e-07 1.9711e-05
0.00102127 9.01708e-06 1.01935e-07
9.01708e-06 0.000103136 -6.86217e-07
1.01935e-07 -6.86217e-07 1.09408e-05
0.0010846 -1.7358e-05 -1.05687e-06
-1.7358e-05 0.000135638 6.95592e-08
-1.05687e-06 6.95592e-08 3.56397e-05
0.00113274 -6.39221e-05 -1.02857e-06
-6.39221e-05 0.000207217 7.4776e-07
-1.02857e-06 7.4776e-07 1.17324e-05
0.0011158 5.58498e-06 1.46205e-07
5.58498e-06 0.000146728 7.1449e-07
1.46205e-07 7.1449e-07 6.99657e-05
-0.00117969 -0.000199407 -6.10382e-06
-0.000199407 -0.00100266 -9.4799e-06
-6.10382e-06 -9.4799e-06 -0.0010402
0.00133233 4.13173e-05 -4.55764e-06
4.13173e-05 0.000427582 1.29473e-05
-4.55764e-06 1.29473e-05 0.000254352
0.00064478 7.53697e-06 -9.42717e-07
7.53697e-06 -0.000104707 3.24636e-06
-9.42717e-07 3.24636e-06 -0.000186859
0.00103121 7.02679e-05 1.48701e-07
7.02679e-05 0.000109257 1.03843e-06
1.48701e-07 1.03843e-06 2.39032e-05
0.00115603 -1.47956e-06 1.63765e-05
-1.47956e-06 0.000231426 3.3505e-06
1.63765e-05 3.3505e-06 0.00014365
0.00142272 -6.7898e-06 6.80096e-06
-6.7898e-06 0.000201568 2.7171e-07
6.80096e-06 2.7171e-07 0.000105789
-0.00105655 -5.68749e-06 1.51107e-05
-5.68749e-06 -0.000546544 -1.69136e-07
1.51107e-05 -1.69136e-07 -0.000687373
0.000728889 6.81276e-05 4.05846e-06
6.81276e-05 1.0194e-05 1.00062e-06
4.05846e-06 1.00062e-06 -6.11914e-05
-0.000469555 2.52556e-05 -3.30222e-06
2.52556e-05 -0.000403353 3.41253e-06
-3.30222e-06 3.41253e-06 -0.000540901
0.00106864 4.17698e-06 8.67903e-06
4.17698e-06 -2.18316e-05 -1.59023e-06
8.67903e-06 -1.59023e-06 -9.21179e-05
0.00531691 -0.000427081 5.86789e-05
-0.000427081 0.00138908 1.85412e-05
5.86789e-05 1.85412e-05 8.47455e-05
0.00561998 0.000398623 -2.53554e-05
0.000398623 0.0018155 -6.78924e-05
-2.53554e-05 -6.78924e-05 0.00125762
0.00293439 -0.000320628 1.0133e-05
-0.000320628 -0.00013391 8.01115e-05
1.0133e-05 8.01115e-05 -9.25582e-05
0.00122946 -3.45751e-06 -5.78734e-06
-3.45751e-06 1.42336e-06 5.45162e-06
-5.78734e-06 5.45162e-06 -5.24882e-05
0.00097721 1.23954e-05 -4.75204e-07
1.23954e-05 -0.0010138 2.7626e-06
-4.75204e-07 2.7626e-06 -0.000597477
0.000933677 5.51725e-05 -5.6796e-07
5.51725e-05 0.000167801 -1.72078e-07
-5.6796e-07 -1.72078e-07 0.000107925
0.000905448 8.49098e-06 -1.19954e-06
8.49098e-06 7.32351e-05 5.50163e-07
-1.19954e-06 5.50163e-07 1.72423e-06
0.00123168 5.12218e-07 -3.36396e-06
5.12218e-07 0.000122603 -2.15139e-07
-3.36396e-06 -2.15139e-07 4.07168e-05
-0.000419436 6.94086e-05 3.89153e-06
6.94086e-05 -0.000152635 -1.63981e-06
3.89153e-06 -1.63981e-06 -0.00029657
0.00271034 0.000125646 1.87495e-06
0.000125646 -2.80212e-05 -1.14968e-06
1.87495e-06 -1.14968e-06 0.000372554
0.00523229 0.000181682 3.36754e-05
0.000181682 0.000761003 -1.53622e-06
3.36754e-05 -1.53622e-06 -0.000108755
0.00333695 0.000107369 -4.1002e-05
0.000107369 0.000482301 -3.38246e-06
-4.1002e-05 -3.38246e-06 0.000511028
9.83142e-05 5.61994e-05 -2.79414e-07
5.61994e-05 -8.88212e-05 -1.1182e-05
-2.79414e-07 -1.1182e-05 -0.000170749
0.00106719 -1.52865e-06 -7.49279e-06
-1.52865e-06 0.000168416 1.27312e-05
-7.49279e-06 1.27312e-05 6.37266e-05
0.00127516 1.21906e-05 2.0156e-06
1.21906e-05 5.59313e-05 -8.24006e-06
2.0156e-06 -8.24006e-06 -8.26495e-08
0.00277927 0.000234798 3.20411e-05
0.000234798 7.00446e-05 -1.84454e-05
3.20411e-05 -1.84454e-05 0.000631924
0.0015969 0.000332083 -6.46405e-06
0.000332083 -0.000669741 -5.49226e-05
-6.46405e-06 -5.49226e-05 -0.000682793
0.00138895 0.000187105 1.63722e-05
0.000187105 0.00039589 -1.22524e-05
1.63722e-05 -1.22524e-05 0.000426349
0.00296032 -0.000182679 8.17088e-05
-0.000182679 0.000252061 7.15858e-06
8.17088e-05 7.15858e-06 -0.000805024
0.00101832 7.39188e-05 -6.07946e-07
7.39188e-05 0.00010512 4.91371e-06
-6.07946e-07 4.91371e-06 2.58752e-05
0.00111139 2.14779e-05 1.01244e-06
2.14779e-05 0.000166692 2.34165e-06
1.01244e-06 2.34165e-06 0.000104065
0.000326437 -2.57397e-05 2.65042e-06
-2.57397e-05 -6.93412e-05 -5.46838e-06
2.65042e-06 -5.46838e-06 -0.000181182
0.00104624 1.44782e-05 -4.49619e-07
1.44782e-05 0.000107098 -4.34979e-07
-4.49619e-07 -4.34979e-07 4.20383e-05
0.000849418 -5.02806e-05 -5.69222e-07
-5.02806e-05 -4.72818e-07 -9.58714e-08
-5.69222e-07 -9.58714e-08 -6.98407e-05
0.000967918 -4.8582e-05 1.63481e-08
-4.8582e-05 7.42967e-05 7.13433e-07
1.63481e-08 7.13433e-07 5.76445e-08
0.000987217 -2.62261e-05 7.92925e-08
-2.62261e-05 6.55748e-05 -2.21928e-07
7.92925e-08 -2.21928e-07 -1.24515e-06
0.000819146 -2.19581e-05 -7.24366e-07
-2.19581e-05 3.13305e-06 1.92387e-06
-7.24366e-07 1.92387e-06 -4.72838e-05
0.000696664 -4.05411e-05 1.30588e-06
-4.05411e-05 -4.32757e-06 -3.73013e-07
1.30588e-06 -3.73013e-07 -0.000104002
0.000939889 4.5897e-06 -2.39342e-07
4.5897e-06 4.80135e-05 -3.31613e-07
-2.39342e-07 -3.31613e-07 -1.9825e-05
0.00101896 2.28748e-05 -4.45602e-09
2.28748e-05 9.988e-05 -3.72277e-07
-4.45602e-09 -3.72277e-07 2.91418e-05
0.00105775 -3.99005e-05 1.28111e-07
-3.99005e-05 0.000132634 2.18116e-07
1.28111e-07 2.18116e-07 5.42588e-05
0.00075041 -5.13413e-05 1.6266e-06
-5.13413e-05 3.54019e-05 1.74783e-06
1.6266e-06 1.74783e-06 -7.81726e-05
0.00086721 -2.28856e-05 -1.42163e-06
-2.28856e-05 4.2983e-05 -1.29426e-06
-1.42163e-06 -1.29426e-06 -3.88749e-05
0.000753401 -5.25901e-05 2.45243e-07
-5.25901e-05 7.74542e-06 -2.49233e-08
2.45243e-07 -2.49233e-08 -9.42882e-05
0.00103357 -9.31987e-05 7.50109e-07
-9.31987e-05 0.000141707 1.18319e-06
7.50109e-07 1.18319e-06 1.34308e-05
0.0011241 -9.76701e-05 -3.54465e-06
-9.76701e-05 0.000138722 2.37284e-06
-3.54465e-06 2.37284e-06 1.73997e-05
0.00128067 -6.22894e-05 -1.02371e-07
-6.22894e-05 0.000257417 -1.0816e-06
-1.02371e-07 -1.0816e-06 0.000162955
0.000804394 -7.94388e-05 -6.86714e-07
-7.94388e-05 6.45223e-06 3.28248e-07
-6.86714e-07 3.28248e-07 -0.000110601
0.00131938 -0.000100049 -4.90877e-07
-0.000100049 0.000269022 -5.26267e-07
-4.90877e-07 -5.26267e-07 0.000166717
0.000750117 -6.48143e-05 -1.5092e-06
-6.48143e-05 -7.24476e-06 2.86548e-07
-1.5092e-06 2.86548e-07 -0.000103597
0.000956754 -8.2855e-05 3.00498e-07
-8.2855e-05 8.90735e-05 -2.42398e-07
3.00498e-07 -2.42398e-07 -1.63659e-05
0.000969001 -1.85691e-05 -7.45405e-07
-1.85691e-05 8.21449e-05 8.51705e-07
-7.45405e-07 8.51705e-07 7.57151e-06
0.00104877 -6.56006e-05 -1.03188e-06
-6.56006e-05 0.000134998 7.8992e-07
-1.03188e-06 7.8992e-07 4.45808e-05
0.000817066 -7.58551e-05 4.75714e-07
-7.58551e-05 2.11435e-05 -1.54556e-06
4.75714e-07 -1.54556e-06 -8.47132e-05
0.000913955 1.77457e-05 -3.81991e-07
1.77457e-05 4.59378e-05 1.34486e-06
-3.81991e-07 1.34486e-06 -9.1983e-06
0.000872544 -9.8238e-06 3.22314e-07
-9.8238e-06 2.96679e-05 9.84527e-08
3.22314e-07 9.84527e-08 -4.07221e-05
0.000965459 -4.01247e-05 1.29767e-06
-4.01247e-05 8.85285e-05 -1.67717e-06
1.29767e-06 -1.67717e-06 3.73716e-06
0.000953932 4.17853e-06 5.71753e-08
4.17853e-06 7.03624e-05 -1.10383e-06
5.71753e-08 -1.10383e-06 7.57438e-06
0.000887963 2.04184e-05 -4.50177e-08
2.04184e-05 2.99442e-05 -1.1659e-07
-4.50177e-08 -1.1659e-07 -1.9877e-05
0.000843466 2.6943e-05 -1.13006e-06
2.6943e-05 6.67951e-06 1.75377e-06
-1.13006e-06 1.75377e-06 -2.54317e-05
0.000888118 1.09894e-05 3.86792e-07
1.09894e-05 2.82766e-05 -1.07813e-06
3.86792e-07 -1.07813e-06 -1.83222e-05
0.000848389 2.30099e-05 3.65851e-09
2.30099e-05 4.15889e-06 -2.17437e-09
3.65851e-09 -2.17437e-09 -2.57782e-05
0.000772286 2.51838e-05 -1.655e-06
2.51838e-05 -3.68476e-05 3.23823e-06
-1.655e-06 3.23823e-06 -4.07307e-05
0.000858952 1.5361e-05 9.60796e-07
1.5361e-05 5.53141e-06 -1.67274e-06
9.60796e-07 -1.67274e-06 -2.30287e-05
0.000789082 2.16087e-05 1.37811e-07
2.16087e-05 -3.38398e-05 1.5191e-08
1.37811e-07 1.5191e-08 -3.63505e-05
0.00207774 3.29483e-05 -4.77953e-06
3.29483e-05 0.000650581 1.52987e-06
-4.77953e-06 1.52987e-06 0.000670904
0.000802534 1.76479e-05 1.14683e-06
1.76479e-05 -3.19162e-05 -3.13424e-06
1.14683e-06 -3.13424e-06 -3.33114e-05
0.0015452 2.16316e-05 6.04117e-06
2.16316e-05 0.000362527 -1.08496e-06
6.04117e-06 -1.08496e-06 0.000381287
0.00212884 1.85752e-05 1.07975e-05
1.85752e-05 0.000668777 -3.8138e-06
1.07975e-05 -3.8138e-06 0.000690943
0.000759393 -2.13263e-05 9.90844e-08
-2.13263e-05 -4.0013e-05 -1.0518e-06
9.90844e-08 -1.0518e-06 -9.14104e-05
0.000609629 -1.36804e-05 -3.22726e-07
-1.36804e-05 -0.000124055 -1.95676e-06
-3.22726e-07 -1.95676e-06 -0.000155067
0.000867321 -2.76694e-06 -2.07971e-07
-2.76694e-06 2.10931e-05 -5.47912e-07
-2.07971e-07 -5.47912e-07 -2.94602e-05
0.000820892 -1.39703e-05 -5.86484e-07
-1.39703e-05 -2.52344e-05 -3.05509e-06
-5.86484e-07 -3.05509e-06 -2.54415e-05
0.000623207 -1.09131e-05 5.76545e-09
-1.09131e-05 -0.000119929 -5.81699e-07
5.76545e-09 -5.81699e-07 -0.000147966
0.000983836 -5.00333e-07 -1.06349e-07
-5.00333e-07 8.20383e-05 5.29794e-07
-1.06349e-07 5.29794e-07 3.56124e-05
0.00206034 -1.24267e-05 -7.77227e-06
-1.24267e-05 0.000629839 -3.91293e-06
-7.77227e-06 -3.91293e-06 0.00065324
0.000813018 -9.24661e-06 -1.15136e-07
-9.24661e-06 -3.30458e-05 -1.92329e-08
-1.15136e-07 -1.92329e-08 -3.13264e-05
0.000623517 -7.76099e-06 1.0279e-07
-7.76099e-06 -0.000122576 1.38324e-06
1.0279e-07 1.38324e-06 -0.000148309
0.00202853 -6.04692e-06 -1.86765e-06
-6.04692e-06 0.000610661 1.19555e-08
-1.86765e-06 1.19555e-08 0.000634863
0.000810794 -4.5723e-06 1.37763e-07
-4.5723e-06 -3.66356e-05 3.00396e-06
1.37763e-07 3.00396e-06 -3.37254e-05
0.00202228 3.4305e-07 -6.12172e-07
3.4305e-07 0.000606574 3.90971e-06
-6.12172e-07 3.90971e-06 0.000630993
0.00111419 -6.23791e-06 9.91324e-06
-6.23791e-06 0.000150009 -3.73226e-06
9.91324e-06 -3.73226e-06 6.24593e-05
0.00116296 -4.11027e-06 -2.59578e-06
-4.11027e-06 1.20016e-05 1.13323e-06
-2.59578e-06 1.13323e-06 -8.46735e-05
0.000977424 7.16264e-05 2.6899e-05
7.16264e-05 0.00056327 -4.29257e-06
2.6899e-05 -4.29257e-06 0.000547146
0.000955099 2.05532e-05 1.12249e-07
2.05532e-05 7.11699e-05 6.42338e-08
1.12249e-07 6.42338e-08 6.1824e-06
0.000879937 -1.54854e-07 1.15516e-08
-1.54854e-07 2.64153e-05 -1.27312e-07
1.15516e-08 -1.27312e-07 -3.86944e-05
0.00102294 3.08402e-05 -2.96528e-07
3.08402e-05 0.000110946 5.59661e-07
-2.96528e-07 5.59661e-07 3.90763e-05
0.00130106 1.29251e-05 5.63062e-06
1.29251e-05 0.000104846 6.60388e-06
5.63062e-06 6.60388e-06 2.60026e-05
0.00119354 1.51897e-05 -3.54679e-06
1.51897e-05 5.46159e-06 3.36743e-06
-3.54679e-06 3.36743e-06 -4.94641e-05
0.00104275 2.4254e-05 1.10871e-05
2.4254e-05 -0.000295925 -1.31798e-05
1.10871e-05 -1.31798e-05 -0.000381175
0.00234814 3.73882e-05 -4.41682e-05
3.73882e-05 -0.00017536 1.14885e-05
-4.41682e-05 1.14885e-05 -0.000351397
0.00140712 0.000299699 6.00161e-06
0.000299699 -2.34443e-06 3.00876e-06
6.00161e-06 3.00876e-06 -0.00122132
0.00449643 0.000473567 5.27343e-05
0.000473567 0.00103706 -2.67191e-05
5.27343e-05 -2.67191e-05 0.00106279
0.00142213 0.000101195 4.7415e-06
0.000101195 -0.000907531 -1.23332e-05
4.7415e-06 -1.23332e-05 -0.000456994
0.00212654 -9.66681e-05 -2.25671e-06
-9.66681e-05 -0.000202495 6.71041e-06
-2.25671e-06 6.71041e-06 -0.000250344
0.00543905 0.000179557 3.42641e-05
0.000179557 0.00144573 -3.53587e-05
3.42641e-05 -3.53587e-05 0.000156105
0.000901127 0.000104561 -7.85863e-06
0.000104561 -0.000771306 9.59182e-06
-7.85863e-06 9.59182e-06 -0.000654153
0.00222842 3.07749e-05 -4.41022e-07
3.07749e-05 -0.000303516 2.3887e-06
-4.41022e-07 2.3887e-06 0.000151665
0.00570575 -0.000410486 5.66379e-06
-0.000410486 0.00149819 -5.99372e-05
5.66379e-06 -5.99372e-05 0.00131338
0.00813352 0.000210858 3.83634e-05
0.000210858 0.00267706 -2.38906e-05
3.83634e-05 -2.38906e-05 0.00145891
-2.34971e-05 3.89798e-05 1.09449e-05
3.89798e-05 -0.000941969 5.31987e-05
1.09449e-05 5.31987e-05 -0.000876566
0.00069782 -7.58823e-05 4.75188e-06
-7.58823e-05 -0.00116302 5.91188e-06
4.75188e-06 5.91188e-06 -0.000750947
0.000994199 -3.27183e-07 -9.167e-09
-3.27183e-07 8.96594e-05 6.82427e-07
-9.167e-09 6.82427e-07 1.15141e-05
0.000926237 -1.00841e-05 -4.40793e-08
-1.00841e-05 6.43048e-05 -1.69657e-07
-4.40793e-08 -1.69657e-07 -1.64097e-05
0.000957548 -3.40363e-05 -3.83297e-07
-3.40363e-05 8.6863e-05 -1.88726e-08
-3.83297e-07 -1.88726e-08 9.37368e-06
0.000934762 1.18774e-05 -3.59275e-07
1.18774e-05 6.3666e-05 -4.74579e-07
-3.59275e-07 -4.74579e-07 -8.03575e-06
0.0010545 6.73157e-05 1.14151e-06
6.73157e-05 0.000135216 2.44777e-07
1.14151e-06 2.44777e-07 6.30929e-05
0.00110521 4.98413e-05 4.18343e-08
4.98413e-05 0.000157502 3.03123e-07
4.18343e-08 3.03123e-07 9.19929e-05
0.00304993 -0.000284608 1.47478e-06
-0.000284608 0.000758479 -4.21535e-06
1.47478e-06 -4.21535e-06 0.000757754
-0.000284435 -2.18208e-05 3.34099e-06
-2.18208e-05 -0.000479657 -2.60775e-07
3.34099e-06 -2.60775e-07 -0.000699853
0.00108697 3.52122e-05 2.63062e-07
3.52122e-05 0.00014579 -3.33972e-07
2.63062e-07 -3.33972e-07 6.21259e-05
0.00132628 -5.66895e-05 8.83796e-07
-5.66895e-05 0.000261973 -3.34396e-06
8.83796e-07 -3.34396e-06 0.00015511
0.00114783 -2.81596e-07 5.35612e-09
-2.81596e-07 0.000171047 -1.72135e-06
5.35612e-09 -1.72135e-06 8.0872e-05
0.00100824 -1.527e-06 4.61638e-07
-1.527e-06 8.92877e-05 -9.09798e-08
4.61638e-07 -9.09798e-08 1.21095e-05
0.00100727 3.58129e-05 2.40568e-07
3.58129e-05 9.55595e-05 -1.72737e-07
2.40568e-07 -1.72737e-07 1.21115e-05
0.000735398 -0.000209693 -5.11195e-06
-0.000209693 -7.30356e-05 3.00668e-06
-5.11195e-06 3.00668e-06 -0.000107481
0.00103275 -1.69674e-05 8.46593e-07
-1.69674e-05 9.64037e-05 -1.05997e-06
8.46593e-07 -1.05997e-06 1.50876e-05
0.000904502 3.00461e-05 -2.32061e-06
3.00461e-05 0.000259513 -1.4917e-06
-2.32061e-06 -1.4917e-06 9.87245e-05
0.000958376 -6.03869e-07 8.06641e-07
-6.03869e-07 6.75721e-05 3.38971e-07
8.06641e-07 3.38971e-07 -6.63376e-06
-0.00132283 -8.16816e-05 3.7967e-08
-8.16816e-05 -0.00066657 -1.13469e-05
3.7967e-08 -1.13469e-05 -0.000886024
0.000436745 -1.08993e-06 -3.04352e-06
-1.08993e-06 -1.99069e-05 2.04866e-05
-3.04352e-06 2.04866e-05 -5.52369e-05
0.00101598 -1.76677e-05 3.02909e-07
-1.76677e-05 9.31179e-05 1.95598e-06
3.02909e-07 1.95598e-06 1.34787e-05
0.00111317 1.25864e-06 -2.25654e-07
1.25864e-06 0.000207259 4.02789e-07
-2.25654e-07 4.02789e-07 8.44516e-05
0.000989182 -7.52319e-07 3.86313e-06
-7.52319e-07 0.000131191 1.7253e-06
3.86313e-06 1.7253e-06 3.55481e-05
0.00131722 -7.73892e-06 1.55404e-05
-7.73892e-06 0.000155112 1.47153e-06
1.55404e-05 1.47153e-06 5.44183e-05
0.000879292 7.13843e-05 4.37552e-06
7.13843e-05 0.000134188 4.94548e-06
4.37552e-06 4.94548e-06 6.5774e-05
0.000501083 0.000125312 1.21941e-05
0.000125312 0.000146078 -1.45791e-05
1.21941e-05 -1.45791e-05 1.57501e-05
0.000961404 8.34728e-06 -1.30544e-05
8.34728e-06 0.000113002 -6.21683e-06
-1.30544e-05 -6.21683e-06 4.28108e-05
0.00339839 6.27282e-05 -2.6011e-05
6.27282e-05 0.000438583 -3.76171e-06
-2.6011e-05 -3.76171e-06 -0.00039367
-0.00225953 3.28847e-05 -1.29538e-05
3.28847e-05 -0.00222957 6.59449e-05
-1.29538e-05 6.59449e-05 -0.00219731
0.00105041 -6.13956e-07 -7.30747e-06
-6.13956e-07 6.7041e-05 4.20861e-07
-7.30747e-06 4.20861e-07 -1.68311e-05
0.00159803 9.48807e-05 -4.13374e-06
9.48807e-05 -0.000718128 1.36905e-05
-4.13374e-06 1.36905e-05 -0.000325964
0.000505804 4.17685e-05 -4.49685e-06
4.17685e-05 9.51341e-05 -2.66533e-06
-4.49685e-06 -2.66533e-06 2.20804e-05
0.00104759 -1.61123e-06 -4.78735e-06
-1.61123e-06 0.000165643 5.75129e-06
-4.78735e-06 5.75129e-06 5.27616e-05
0.00117875 7.32483e-06 3.57346e-06
7.32483e-06 3.18948e-06 -3.18151e-06
3.57346e-06 -3.18151e-06 -5.93791e-05
0.00141155 0.000241143 4.32642e-05
0.000241143 0.000108242 1.59955e-06
4.32642e-05 1.59955e-06 -3.6959e-07
0.00196408 0.000232565 2.55366e-06
0.000232565 -0.000462846 -3.66516e-06
2.55366e-06 -3.66516e-06 0.000104211
0.000945014 0.00014396 7.11694e-06
0.00014396 -0.000723597 -1.01595e-05
7.11694e-06 -1.01595e-05 -0.000602035
0.00736632 0.000117321 9.3089e-06
0.000117321 0.00241662 -1.92814e-05
9.3089e-06 -1.92814e-05 0.00137779
-0.000581544 2.89925e-06 -2.87915e-05
2.89925e-06 -0.000121742 -1.49611e-05
-2.87915e-05 -1.49611e-05 -0.000254938
0.00110438 -9.16257e-06 -8.87031e-06
-9.16257e-06 0.0001494 3.73911e-06
-8.87031e-06 3.73911e-06 6.14347e-05
0.00145681 3.41308e-05 3.26181e-05
3.41308e-05 -5.39015e-05 -1.63467e-05
3.26181e-05 -1.63467e-05 -0.000101651
0.00131235 0.00041097 1.6919e-05
0.00041097 -2.11276e-05 -2.95179e-06
1.6919e-05 -2.95179e-06 0.000761838
-0.00367633 0.000290872 6.38524e-05
0.000290872 -0.00277469 -3.0322e-05
6.38524e-05 -3.0322e-05 -0.00263636
0.00805731 0.000265205 1.92754e-05
0.000265205 0.00251832 -3.72941e-05
1.92754e-05 -3.72941e-05 0.00116755
0.0020916 -5.40854e-05 -2.12411e-06
-5.40854e-05 0.00031701 9.73703e-05
-2.12411e-06 9.73703e-05 0.000159016
0.00125655 1.02769e-05 4.75795e-07
1.02769e-05 0.000237455 7.93378e-06
4.75795e-07 7.93378e-06 0.000180075
0.00023599 -2.7451e-05 -4.26149e-07
-2.7451e-05 -0.000111647 6.03229e-07
-4.26149e-07 6.03229e-07 -0.000240369
0.000290033 -5.16055e-05 3.5176e-06
-5.16055e-05 7.72129e-06 -5.02464e-06
3.5176e-06 -5.02464e-06 -0.00017897
0.000960883 -3.46771e-05 1.02843e-07
-3.46771e-05 5.55319e-05 -9.39097e-07
1.02843e-07 -9.39097e-07 -1.25914e-05
0.000753422 -2.67738e-05 3.56125e-07
-2.67738e-05 -4.35977e-05 2.69924e-06
3.56125e-07 2.69924e-06 -9.28375e-05
0.000771166 -1.37602e-05 7.97887e-08
-1.37602e-05 3.54889e-05 1.19127e-07
7.97887e-08 1.19127e-07 -5.52517e-05
0.000996996 -9.39621e-05 4.50584e-06
-9.39621e-05 0.000219287 -1.6463e-07
4.50584e-06 -1.6463e-07 4.40597e-05
0.00125135 -4.19684e-05 -5.40989e-07
-4.19684e-05 0.000226264 -5.04196e-07
-5.40989e-07 -5.04196e-07 0.000146956
0.00115692 -8.00189e-05 5.19824e-07
-8.00189e-05 0.000227624 2.99145e-07
5.19824e-07 2.99145e-07 0.000110263
0.000981614 -9.44222e-05 1.68659e-06
-9.44222e-05 0.000151831 2.13166e-06
1.68659e-06 2.13166e-06 -1.73425e-05
0.000554778 -4.77719e-05 -1.85449e-07
-4.77719e-05 -9.09655e-05 -1.58636e-06
-1.85449e-07 -1.58636e-06 -0.000188986
0.00110843 -9.55873e-05 -4.08861e-07
-9.55873e-05 0.000178156 -1.23438e-07
-4.08861e-07 -1.23438e-07 4.70056e-05
0.00162075 -0.000128048 -1.26116e-06
-0.000128048 0.000393121 1.74049e-06
-1.26116e-06 1.74049e-06 0.000242414
0.00145289 -0.000121158 -3.50988e-06
-0.000121158 0.000274601 2.77346e-06
-3.50988e-06 2.77346e-06 0.000137863
0.000754892 -8.00919e-05 -1.41367e-06
-8.00919e-05 -3.59775e-05 1.83447e-06
-1.41367e-06 1.83447e-06 -0.000141916
0.0010682 -9.62978e-05 -9.57411e-07
-9.62978e-05 0.000110052 7.87952e-07
-9.57411e-07 7.87952e-07 -1.3024e-05
0.000988159 -8.76675e-05 -2.2222e-07
-8.76675e-05 9.52677e-05 -1.01919e-06
-2.2222e-07 -1.01919e-06 -2.48784e-05
0.00116559 -9.15061e-05 3.07429e-07
-9.15061e-05 0.000189474 -1.05074e-06
3.07429e-07 -1.05074e-06 9.37372e-05
0.00108355 -8.92787e-05 1.61225e-06
-8.92787e-05 0.000149966 -6.69303e-07
1.61225e-06 -6.69303e-07 5.04184e-05
0.000812686 -3.97603e-05 -5.23248e-07
-3.97603e-05 1.30901e-05 1.19283e-06
-5.23248e-07 1.19283e-06 -7.16841e-05
0.000918149 -6.8991e-05 3.8663e-07
-6.8991e-05 7.77121e-05 -1.17943e-07
3.8663e-07 -1.17943e-07 -1.77048e-05
0.00096059 -8.2602e-05 3.59057e-06
-8.2602e-05 9.06381e-05 -1.77499e-06
3.59057e-06 -1.77499e-06 -1.28774e-05
0.000917355 2.03918e-05 -6.52663e-07
2.03918e-05 5.02235e-05 1.35541e-06
-6.52663e-07 1.35541e-06 -1.16375e-05
0.000978944 -2.562e-05 -1.35122e-07
-2.562e-05 8.8313e-05 -3.54485e-08
-1.35122e-07 -3.54485e-08 1.29633e-05
0.0010977 -6.58078e-05 4.84756e-07
-6.58078e-05 0.000158138 -5.06337e-07
4.84756e-07 -5.06337e-07 6.77717e-05
0.000835295 2.97625e-05 -1.07228e-06
2.97625e-05 7.48609e-06 1.95634e-06
-1.07228e-06 1.95634e-06 -2.8395e-05
0.000895754 1.67685e-05 9.86059e-08
1.67685e-05 3.62452e-05 -6.09535e-08
9.86059e-08 -6.09535e-08 -1.86586e-05
0.000814597 -9.09623e-06 7.69261e-07
-9.09623e-06 -8.24296e-07 -9.9457e-07
7.69261e-07 -9.9457e-07 -7.14166e-05
0.000888597 1.86179e-05 4.0218e-07
1.86179e-05 3.03581e-05 -1.31281e-06
4.0218e-07 -1.31281e-06 -1.94859e-05
0.000840432 2.9264e-05 2.77711e-08
2.9264e-05 5.20146e-06 -4.48768e-08
2.77711e-08 -4.48768e-08 -2.71131e-05
0.000757674 2.89529e-05 -1.98135e-06
2.89529e-05 -3.74968e-05 3.26855e-06
-1.98135e-06 3.26855e-06 -4.336e-05
0.000849429 2.41785e-05 8.9533e-07
2.41785e-05 4.43131e-06 -1.77786e-06
8.9533e-07 -1.77786e-06 -2.55373e-05
0.000785954 2.55442e-05 9.42411e-08
2.55442e-05 -2.99032e-05 1.84652e-09
9.42411e-08 1.84652e-09 -3.38186e-05
0.00213214 3.55561e-05 -1.79013e-05
3.55561e-05 0.000684304 3.56391e-06
-1.79013e-05 3.56391e-06 0.000703659
0.000803012 2.18556e-05 1.48209e-06
2.18556e-05 -2.6912e-05 -3.16949e-06
1.48209e-06 -3.16949e-06 -2.94135e-05
0.00153849 2.69327e-05 7.1314e-06
2.69327e-05 0.000364646 -1.02001e-06
7.1314e-06 -1.02001e-06 0.00038228
0.00212152 2.45036e-05 1.36835e-05
2.45036e-05 0.000669033 -3.72763e-06
1.36835e-05 -3.72763e-06 0.000690454
0.000888022 1.48422e-05 -5.98613e-07
1.48422e-05 2.81537e-05 -6.80785e-07
-5.98613e-07 -6.80785e-07 -2.47782e-05
0.000834941 -1.57325e-05 -6.99394e-07
-1.57325e-05 -4.77092e-06 -1.53499e-06
-6.99394e-07 -1.53499e-06 -3.66995e-05
0.000812734 8.51608e-06 -6.18669e-07
8.51608e-06 -8.92909e-06 -5.15646e-07
-6.18669e-07 -5.15646e-07 -6.13877e-05
0.000814273 -1.83917e-05 -7.07421e-07
-1.83917e-05 -2.38028e-05 -3.17679e-06
-7.07421e-07 -3.17679e-06 -2.63552e-05
0.000731728 -1.39218e-05 -1.42658e-07
-1.39218e-05 -6.02475e-05 -6.03854e-07
-1.42658e-07 -6.03854e-07 -9.07036e-05
0.000995452 -4.07201e-06 3.78339e-08
-4.07201e-06 8.76264e-05 7.12884e-08
3.78339e-08 7.12884e-08 3.77917e-05
0.00210559 -1.86013e-05 -1.08845e-05
-1.86013e-05 0.000657091 -3.92317e-06
-1.08845e-05 -3.92317e-06 0.000679364
0.000806434 -1.37571e-05 -1.10773e-07
-1.37571e-05 -3.2767e-05 -2.34172e-08
-1.10773e-07 -2.34172e-08 -3.28669e-05
0.000614358 -1.09711e-05 4.97987e-08
-1.09711e-05 -0.000124364 7.53416e-07
4.97987e-08 7.53416e-07 -0.000152748
0.00205428 -1.21388e-05 -1.696e-06
-1.21388e-05 0.000626295 2.58044e-08
-1.696e-06 2.58044e-08 0.000649832
0.000802298 -9.0908e-06 3.81147e-07
-9.0908e-06 -3.87401e-05 2.99859e-06
3.81147e-07 2.99859e-06 -3.69288e-05
0.00202465 -5.7614e-06 2.87653e-06
-5.7614e-06 0.000608391 3.89277e-06
2.87653e-06 3.89277e-06 0.000632669
0.000989097 6.85577e-08 8.00608e-06
6.85577e-08 0.00011588 -1.25891e-05
8.00608e-06 -1.25891e-05 5.26048e-06
0.0011291 -6.5934e-06 -3.01404e-06
-6.5934e-06 0.000170572 4.6743e-07
-3.01404e-06 4.6743e-07 8.44511e-05
0.00114632 -7.05412e-06 8.78274e-06
-7.05412e-06 1.43669e-06 3.31611e-06
8.78274e-06 3.31611e-06 -8.97816e-05
0.000868338 -2.29441e-05 4.40965e-08
-2.29441e-05 1.74155e-05 -4.01082e-07
4.40965e-08 -4.01082e-07 -4.70214e-05
0.00101469 -4.7656e-06 -1.02783e-07
-4.7656e-06 9.91688e-05 -2.98956e-07
-1.02783e-07 -2.98956e-07 2.87442e-05
0.00098707 1.84321e-05 1.03052e-06
1.84321e-05 8.65283e-05 1.38585e-07
1.03052e-06 1.38585e-07 2.31672e-05
0.0008732 -9.81166e-06 2.58778e-08
-9.81166e-06 2.13542e-05 2.42916e-08
2.58778e-08 2.42916e-08 -4.27091e-05
0.000962997 1.24322e-05 7.77055e-08
1.24322e-05 7.6792e-05 3.30647e-07
7.77055e-08 3.30647e-07 5.57434e-06
0.000978614 9.67668e-06 -5.53346e-07
9.67668e-06 8.259e-05 1.51199e-07
-5.53346e-07 1.51199e-07 1.2083e-05
0.00095054 7.66694e-05 9.04249e-08
7.66694e-05 7.68535e-05 7.74369e-07
9.04249e-08 7.74369e-07 -2.06388e-06
0.00140783 5.64662e-06 6.32668e-08
5.64662e-06 0.000156564 1.61853e-05
6.32668e-08 1.61853e-05 9.48793e-05
0.0011859 1.0459e-05 2.28811e-06
1.0459e-05 9.1251e-05 4.17953e-06
2.28811e-06 4.17953e-06 9.95916e-06
0.00109463 1.02481e-05 -6.68152e-06
1.02481e-05 -5.42733e-05 -3.56601e-06
-6.68152e-06 -3.56601e-06 -0.000109246
0.000996573 2.09094e-05 3.01644e-06
2.09094e-05 -0.00104454 -7.06604e-06
3.01644e-06 -7.06604e-06 -0.000604461
-0.000101118 -6.12638e-05 -5.43468e-05
-6.12638e-05 -0.00161401 5.80678e-05
-5.43468e-05 5.80678e-05 -0.00176343
0.00230869 0.000105455 4.54731e-05
0.000105455 0.000194429 -4.54827e-05
4.54731e-05 -4.54827e-05 -0.00101365
0.00540319 0.000353023 2.74168e-05
0.000353023 0.00140598 -2.33801e-05
2.74168e-05 -2.33801e-05 0.00128148
0.00212601 -0.000283074 -1.98422e-05
-0.000283074 -0.000255144 1.02896e-05
-1.98422e-05 1.02896e-05 -0.000589716
0.00257503 -8.04829e-05 3.13882e-05
-8.04829e-05 -4.88208e-05 -4.27303e-05
3.13882e-05 -4.27303e-05 -0.00127455
0.00358669 9.54252e-06 -1.56154e-05
9.54252e-06 0.000474324 2.23375e-06
-1.56154e-05 2.23375e-06 0.000439197
0.00298958 -0.000106422 -6.64709e-07
-0.000106422 0.000192356 -6.26787e-06
-6.64709e-07 -6.26787e-06 0.000660369
0.00384342 -0.000259248 8.69532e-06
-0.000259248 0.00102098 -1.51978e-05
8.69532e-06 -1.51978e-05 0.000908253
0.0031925 -0.000367379 -2.34796e-06
-0.000367379 -0.000561939 -9.44494e-05
-2.34796e-06 -9.44494e-05 -0.00103334
-0.000332765 -0.000146184 3.6371e-05
-0.000146184 -0.00160223 3.51084e-05
3.6371e-05 3.51084e-05 -0.0016611
1.52089e-05 -0.000160619 1.92964e-05
-0.000160619 -0.00153973 5.96231e-06
1.92964e-05 5.96231e-06 -0.00102272
0.00109182 -2.90322e-05 -1.6066e-07
-2.90322e-05 0.000133697 1.25112e-06
-1.6066e-07 1.25112e-06 6.00637e-05
0.000912084 2.23638e-06 7.50769e-08
2.23638e-06 4.7723e-05 -8.74463e-08
7.50769e-08 -8.74463e-08 -3.08379e-05
0.000893382 -2.1164e-06 -3.68042e-07
-2.1164e-06 4.92557e-05 -9.27706e-07
-3.68042e-07 -9.27706e-07 -3.24548e-05
0.000940954 2.18519e-05 -7.79475e-08
2.18519e-05 6.75205e-05 -1.02698e-06
-7.79475e-08 -1.02698e-06 -4.69503e-06
0.00346048 -0.000247145 1.22687e-05
-0.000247145 0.00125949 3.28656e-06
1.22687e-05 3.28656e-06 0.00124042
0.000665319 9.76343e-06 5.21346e-06
9.76343e-06 0.000184045 -6.88268e-06
5.21346e-06 -6.88268e-06 3.76663e-05
0.000887721 -1.49409e-05 3.82723e-08
-1.49409e-05 2.33374e-05 -1.05745e-06
3.82723e-08 -1.05745e-06 -5.33677e-05
0.000956735 3.31228e-05 5.42894e-07
3.31228e-05 7.19334e-05 -1.11728e-06
5.42894e-07 -1.11728e-06 -1.2348e-05
0.00146906 -7.66402e-06 1.20713e-06
-7.66402e-06 0.000326189 -4.73156e-06
1.20713e-06 -4.73156e-06 0.000244073
0.000934568 5.62247e-06 -1.97248e-07
5.62247e-06 5.35254e-05 4.45211e-08
-1.97248e-07 4.45211e-08 -2.07072e-05
0.000924835 -7.16019e-06 -1.41557e-06
-7.16019e-06 4.92878e-05 3.37514e-07
-1.41557e-06 3.37514e-07 -3.25962e-05
0.000321205 -0.000107013 -1.1305e-06
-0.000107013 0.000165012 -4.47106e-06
-1.1305e-06 -4.47106e-06 -2.99087e-05
0.000888993 -5.64985e-06 4.03696e-06
-5.64985e-06 0.000209022 6.74634e-06
4.03696e-06 6.74634e-06 0.000179514
0.000979987 -1.14883e-05 8.03994e-07
-1.14883e-05 8.54732e-05 -6.68836e-07
8.03994e-07 -6.68836e-07 8.6398e-06
-0.000223158 2.83198e-05 -2.10017e-06
2.83198e-05 0.000351628 -1.66822e-05
-2.10017e-06 -1.66822e-05 -0.000224344
0.00151377 -3.77031e-05 5.1365e-06
-3.77031e-05 0.000517559 1.06157e-05
5.1365e-06 1.06157e-05 0.000430373
0.00121202 -5.60625e-07 -1.6137e-05
-5.60625e-07 0.000267757 -3.21343e-06
-1.6137e-05 -3.21343e-06 0.000176025
0.00110581 1.43708e-07 3.41242e-08
1.43708e-07 0.000173299 4.38212e-07
3.41242e-08 4.38212e-07 3.7613e-05
0.000806372 2.15479e-08 -1.1298e-05
2.15479e-08 2.06257e-05 1.29417e-06
-1.1298e-05 1.29417e-06 -8.30534e-05
0.00100956 3.10508e-05 1.49088e-06
3.10508e-05 0.000321648 4.87149e-06
1.49088e-06 4.87149e-06 0.000258116
0.00149305 0.000143838 -5.75948e-05
0.000143838 0.000453003 1.25577e-05
-5.75948e-05 1.25577e-05 0.00049041
0.00105143 -1.80413e-06 -5.1145e-06
-1.80413e-06 0.000178363 -5.96947e-06
-5.1145e-06 -5.96947e-06 5.77823e-05
0.0031917 0.000220626 3.72782e-05
0.000220626 0.000329679 -7.83046e-05
3.72782e-05 -7.83046e-05 -0.000730657
0.00513888 0.000373218 -3.21092e-05
0.000373218 0.0013086 2.81953e-05
-3.21092e-05 2.81953e-05 0.00121083
0.001105 2.33815e-06 5.07331e-06
2.33815e-06 -3.98115e-05 4.78972e-06
5.07331e-06 4.78972e-06 -0.000102829
0.00318648 0.000236893 -2.29271e-05
0.000236893 0.000378278 1.65808e-05
-2.29271e-05 1.65808e-05 0.000875331
-0.000155813 -1.79715e-05 2.09014e-05
-1.79715e-05 5.59204e-05 -2.40226e-06
2.09014e-05 -2.40226e-06 -7.35421e-05
0.00110891 -8.61149e-06 3.14262e-06
-8.61149e-06 0.000163599 -5.98641e-07
3.14262e-06 -5.98641e-07 7.7108e-05
0.00127618 2.55715e-05 1.01321e-05
2.55715e-05 -0.00015565 -4.57392e-06
1.01321e-05 -4.57392e-06 -0.000227301
0.00176319 -3.89804e-05 -1.00668e-05
-3.89804e-05 0.000272647 2.09076e-05
-1.00668e-05 2.09076e-05 0.00026224
3.99276e-05 0.00043201 -4.34675e-06
0.00043201 -0.000946901 3.8993e-06
-4.34675e-06 3.8993e-06 -2.34183e-06
0.00259224 0.00042969 3.30244e-06
0.00042969 -8.17204e-05 -3.33017e-06
3.30244e-06 -3.33017e-06 5.8054e-05
0.00287218 4.68891e-06 3.23262e-05
4.68891e-06 0.000294686 -1.52441e-05
3.23262e-05 -1.52441e-05 -0.00115289
0.000469203 -6.46599e-05 2.24896e-05
-6.46599e-05 0.000229122 -8.87131e-06
2.24896e-05 -8.87131e-06 0.000125221
0.0011474 -6.12421e-06 1.24093e-05
-6.12421e-06 7.79539e-06 -4.19471e-06
1.24093e-05 -4.19471e-06 -9.94914e-05
-0.00115328 0.000195656 9.02996e-06
0.000195656 -0.000877247 -1.01178e-05
9.02996e-06 -1.01178e-05 -0.000695461
-0.000145488 0.000411403 4.85022e-05
0.000411403 -0.000254565 -9.14897e-06
4.85022e-05 -9.14897e-06 4.29199e-05
0.00834301 0.000539292 2.51696e-05
0.000539292 0.00270373 -5.07189e-05
2.51696e-05 -5.07189e-05 0.00148612
0.00305388 -0.000261263 -6.0423e-05
-0.000261263 0.000421324 9.2311e-05
-6.0423e-05 9.2311e-05 -6.85547e-05
0.000369965 -3.30643e-05 -1.97553e-06
-3.30643e-05 -5.1472e-05 6.58663e-06
-1.97553e-06 6.58663e-06 -0.000192178
0.000448613 -2.78037e-05 8.29222e-07
-2.78037e-05 9.13896e-05 -7.96649e-07
8.29222e-07 -7.96649e-07 -9.43603e-05
0.001675 -0.000156743 1.00838e-05
-0.000156743 0.000543794 -2.43333e-06
1.00838e-05 -2.43333e-06 0.000401772
0.000807356 5.70676e-06 -1.91177e-06
5.70676e-06 5.82395e-05 -1.00637e-06
-1.91177e-06 -1.00637e-06 -2.48335e-05
0.000471173 -5.85966e-05 7.99615e-07
-5.85966e-05 -2.28639e-05 -3.01004e-07
7.99615e-07 -3.01004e-07 -0.000204746
0.0012033 -0.000117734 4.0289e-06
-0.000117734 0.000243982 4.52029e-06
4.0289e-06 4.52029e-06 6.02768e-05
0.00154815 -0.000112327 -1.18687e-06
-0.000112327 0.000412915 -5.13106e-07
-1.18687e-06 -5.13106e-07 0.000289797
0.00119001 -0.000102445 1.37993e-07
-0.000102445 0.000246187 6.89942e-07
1.37993e-07 6.89942e-07 7.78306e-05
0.00114869 -0.00011965 1.07231e-08
-0.00011965 0.00014439 1.11839e-06
1.07231e-08 1.11839e-06 -2.96864e-05
0.00122237 -9.95409e-05 -6.61181e-07
-9.95409e-05 0.000235139 -1.06059e-06
-6.61181e-07 -1.06059e-06 0.000100424
0.00155918 -0.000126206 -6.44196e-09
-0.000126206 0.000354235 6.00913e-07
-6.44196e-09 6.00913e-07 0.000202404
0.00123165 -0.000120421 -9.39009e-07
-0.000120421 0.000143466 2.8224e-07
-9.39009e-07 2.8224e-07 -1.4705e-05
0.00138217 -0.000120195 -2.78213e-06
-0.000120195 0.000181559 -1.00436e-06
-2.78213e-06 -1.00436e-06 4.39881e-05
0.00162369 -0.000122418 -3.86555e-06
-0.000122418 0.000365178 3.58511e-06
-3.86555e-06 3.58511e-06 0.000243636
0.00138389 -0.000119544 -6.68729e-07
-0.000119544 0.000235906 6.77024e-07
-6.68729e-07 6.77024e-07 9.63583e-05
0.000681938 -7.43374e-05 -1.59566e-07
-7.43374e-05 -7.37538e-05 -6.00991e-07
-1.59566e-07 -6.00991e-07 -0.000170148
0.000889368 -8.52268e-05 1.30049e-06
-8.52268e-05 3.3106e-05 -4.25968e-07
1.30049e-06 -4.25968e-07 -7.21634e-05
0.00101259 -9.49695e-05 1.55649e-06
-9.49695e-05 8.15352e-05 -1.45612e-06
1.55649e-06 -1.45612e-06 -4.34065e-05
0.00104008 -8.08601e-05 -3.70725e-07
-8.08601e-05 0.000123416 2.54126e-07
-3.70725e-07 2.54126e-07 3.13672e-05
0.00112437 -8.93282e-05 -1.09459e-07
-8.93282e-05 0.000169576 -3.08694e-07
-1.09459e-07 -3.08694e-07 7.3523e-05
0.00084122 -7.82551e-05 3.1194e-06
-7.82551e-05 2.77342e-05 1.56719e-07
3.1194e-06 1.56719e-07 -6.90563e-05
0.000875498 9.525e-06 -1.47223e-07
9.525e-06 3.41475e-05 1.31383e-06
-1.47223e-07 1.31383e-06 -3.71127e-05
0.000895774 -4.16247e-05 3.7749e-08
-4.16247e-05 5.52698e-05 4.25253e-07
3.7749e-08 4.25253e-07 -2.87784e-05
0.00109004 -7.33143e-05 1.24047e-06
-7.33143e-05 0.000164797 -9.05668e-07
1.24047e-06 -9.05668e-07 7.02149e-05
0.000818848 3.74922e-05 -1.24328e-06
3.74922e-05 2.92821e-06 2.1839e-06
-1.24328e-06 2.1839e-06 -3.88683e-05
0.000895936 1.18706e-05 -1.59348e-07
1.18706e-05 4.00194e-05 -5.68618e-08
-1.59348e-07 -5.68618e-08 -2.24216e-05
0.000986476 -3.01911e-05 5.63157e-07
-3.01911e-05 9.29017e-05 -8.73997e-07
5.63157e-07 -8.73997e-07 1.6971e-05
0.000771333 3.26398e-05 -3.29489e-06
3.26398e-05 -2.37822e-05 4.57878e-06
-3.29489e-06 4.57878e-06 -3.21411e-05
0.000826927 3.43063e-05 2.15002e-07
3.43063e-05 3.82006e-06 -6.62746e-08
2.15002e-07 -6.62746e-08 -3.25532e-05
0.000876495 1.62402e-05 6.89115e-07
1.62402e-05 2.60724e-05 -1.30712e-06
6.89115e-07 -1.30712e-06 -2.8652e-05
0.0008361 3.15412e-05 7.24093e-07
3.15412e-05 2.99911e-06 -1.95641e-06
7.24093e-07 -1.95641e-06 -2.94887e-05
0.000777799 2.95329e-05 4.57431e-08
2.95329e-05 -2.72348e-05 -3.25788e-08
4.57431e-08 -3.25788e-08 -3.3186e-05
0.0021478 4.11022e-05 -2.02701e-05
4.11022e-05 0.000699532 3.45535e-06
-2.02701e-05 3.45535e-06 0.00071735
0.000800934 2.5937e-05 1.80902e-06
2.5937e-05 -2.22824e-05 -3.20061e-06
1.80902e-06 -3.20061e-06 -2.62337e-05
0.00212991 3.57007e-05 9.48345e-07
3.57007e-05 0.000684024 5.87012e-08
9.48345e-07 5.87012e-08 0.000703242
0.00212031 3.02341e-05 1.64518e-05
3.02341e-05 0.000673609 -3.64128e-06
1.64518e-05 -3.64128e-06 0.000694002
0.0009409 1.09515e-05 -2.27629e-07
1.09515e-05 5.89355e-05 -5.52662e-07
-2.27629e-07 -5.52662e-07 -8.05896e-06
0.000891952 2.06033e-05 -8.35565e-07
2.06033e-05 3.15392e-05 -1.01344e-06
-8.35565e-07 -1.01344e-06 -2.48626e-05
0.000828699 -2.25334e-05 -7.23287e-07
-2.25334e-05 -5.44717e-06 -1.69126e-06
-7.23287e-07 -1.69126e-06 -3.95642e-05
0.000893811 9.68739e-06 -1.36067e-07
9.68739e-06 3.02544e-05 -4.57636e-08
-1.36067e-07 -4.57636e-08 -2.22141e-05
0.000799957 -2.20317e-05 -1.16668e-06
-2.20317e-05 -2.59847e-05 -3.28075e-06
-1.16668e-06 -3.28075e-06 -3.08445e-05
0.000843053 -1.72256e-05 -9.50124e-08
-1.72256e-05 -1.03799e-07 6.48497e-09
-9.50124e-08 6.48497e-09 -3.2148e-05
0.000863397 9.40982e-06 1.57918e-07
9.40982e-06 1.53573e-05 1.62642e-07
1.57918e-07 1.62642e-07 -3.45777e-05
0.00216676 -2.47405e-05 -1.39776e-05
-2.47405e-05 0.000693791 -3.93371e-06
-1.39776e-05 -3.93371e-06 0.000714607
0.00079594 -1.80922e-05 -1.18476e-07
-1.80922e-05 -3.33344e-05 -2.42115e-08
-1.18476e-07 -2.42115e-08 -3.57648e-05
0.000852859 -1.43675e-05 8.53902e-08
-1.43675e-05 2.94661e-06 9.04948e-07
8.53902e-08 9.04948e-07 -2.69412e-05
0.00209838 -1.83442e-05 -1.55316e-06
-1.83442e-05 0.000652833 4.07827e-08
-1.55316e-06 4.07827e-08 0.000675284
0.000790498 -1.35383e-05 4.84193e-07
-1.35383e-05 -4.10585e-05 3.04701e-06
4.84193e-07 3.04701e-06 -4.10494e-05
0.00204732 -1.18236e-05 6.50436e-06
-1.18236e-05 0.000622244 3.87739e-06
6.50436e-06 3.87739e-06 0.000645924
0.000851405 8.31585e-06 -8.41478e-06
8.31585e-06 4.10706e-05 -8.4579e-06
-8.41478e-06 -8.4579e-06 -4.09188e-05
0.00103793 1.67e-07 4.91422e-06
1.67e-07 0.000157915 -5.87982e-06
4.91422e-06 -5.87982e-06 3.93024e-05
0.00113861 -6.97567e-06 -1.52405e-05
-6.97567e-06 0.00018767 1.01966e-05
-1.52405e-05 1.01966e-05 0.000102545
0.000904336 2.80601e-06 -2.05401e-07
2.80601e-06 3.97825e-05 3.31704e-09
-2.05401e-07 3.31704e-09 -2.64979e-05
0.000968469 -6.70662e-06 -2.88092e-08
-6.70662e-06 7.46798e-05 2.23984e-07
-2.88092e-08 2.23984e-07 3.76346e-06
0.000895679 -1.7593e-06 -5.64805e-08
-1.7593e-06 4.05305e-05 -1.3092e-06
-5.64805e-08 -1.3092e-06 -3.46054e-05
0.000867778 -1.08779e-05 -5.82182e-08
-1.08779e-05 2.33401e-05 -5.72188e-07
-5.82182e-08 -5.72188e-07 -4.72461e-05
0.00103859 2.93975e-05 -4.08783e-07
2.93975e-05 0.000119255 -1.45383e-07
-4.08783e-07 -1.45383e-07 4.15231e-05
0.000857353 -1.39326e-05 -1.02278e-07
-1.39326e-05 1.22091e-05 2.51718e-07
-1.02278e-07 2.51718e-07 -5.13265e-05
0.000897047 -4.97047e-06 1.45753e-07
-4.97047e-06 3.94325e-05 -1.1433e-07
1.45753e-07 -1.1433e-07 -3.10609e-05
0.000949265 2.18359e-05 -1.78613e-07
2.18359e-05 6.96006e-05 -3.89476e-08
-1.78613e-07 -3.89476e-08 -1.65624e-06
0.00096926 2.53086e-05 3.41932e-07
2.53086e-05 7.89108e-05 4.00142e-07
3.41932e-07 4.00142e-07 3.02625e-06
0.00102525 2.08889e-05 -2.01962e-07
2.08889e-05 0.00011364 3.42192e-07
-2.01962e-07 3.42192e-07 3.80792e-05
0.00136079 -2.29379e-05 2.15658e-05
-2.29379e-05 2.36868e-06 2.59987e-05
2.15658e-05 2.59987e-05 -9.72726e-05
0.00129848 5.10217e-06 2.87044e-06
5.10217e-06 7.55438e-05 8.93134e-06
2.87044e-06 8.93134e-06 1.70904e-05
0.00115831 8.59884e-06 4.9257e-06
8.59884e-06 0.0001363 4.20607e-06
4.9257e-06 4.20607e-06 5.38087e-05
0.00222076 -9.33473e-05 -9.11368e-06
-9.33473e-05 -0.000206779 -1.74472e-05
-9.11368e-06 -1.74472e-05 0.000250506
-0.00188368 7.33034e-05 -6.12989e-06
7.33034e-05 -0.0020777 -5.60247e-05
-6.12989e-06 -5.60247e-05 -0.00210867
0.000997742 -0.000277452 -0.000100064
-0.000277452 -0.000914448 8.68332e-05
-0.000100064 8.68332e-05 -0.00133787
0.00788571 0.0002106 -2.86132e-05
0.0002106 0.00202301 -4.3047e-05
-2.86132e-05 -4.3047e-05 0.00126054
0.00224419 -0.000270067 -3.56792e-05
-0.000270067 4.04956e-05 3.89329e-05
-3.56792e-05 3.89329e-05 -0.000382203
0.00806734 -0.000131296 4.23825e-05
-0.000131296 0.00240771 -7.24737e-07
4.23825e-05 -7.24737e-07 0.00145816
0.00107491 -0.000195345 1.37352e-05
-0.000195345 -0.000784015 -1.67134e-05
1.37352e-05 -1.67134e-05 -0.000798097
0.000506719 -0.000194881 -5.93028e-06
-0.000194881 -0.00136921 -1.80097e-05
-5.93028e-06 -1.80097e-05 -0.000711297
0.00203879 -5.75452e-05 -6.46489e-05
-5.75452e-05 0.000237362 -5.11477e-05
-6.46489e-05 -5.11477e-05 -0.000227219
0.00810027 -0.000417032 -2.75936e-05
-0.000417032 0.00205288 4.9702e-05
-2.75936e-05 4.9702e-05 0.0013382
0.00730425 -0.000552511 2.85329e-05
-0.000552511 0.00214742 1.62872e-05
2.85329e-05 1.62872e-05 0.00237065
0.00218145 -0.000332327 1.09002e-05
-0.000332327 9.34316e-05 2.03485e-06
1.09002e-05 2.03485e-06 0.000933698
0.000861604 1.82617e-05 2.37067e-07
1.82617e-05 3.98207e-05 1.47254e-06
2.37067e-07 1.47254e-06 -2.83472e-05
0.00103248 -2.0751e-05 -1.43816e-07
-2.0751e-05 0.000107237 2.27413e-07
-1.43816e-07 2.27413e-07 3.22739e-05
0.000875193 2.70398e-06 2.12259e-07
2.70398e-06 2.80873e-05 -7.94341e-07
2.12259e-07 -7.94341e-07 -5.04788e-05
0.00143881 -0.000106583 2.10419e-05
-0.000106583 0.000707149 -1.21891e-06
2.10419e-05 -1.21891e-06 0.000552779
0.00113446 -2.16855e-05 -4.56504e-06
-2.16855e-05 0.000334669 -6.41534e-06
-4.56504e-06 -6.41534e-06 0.000309442
0.000907564 -3.40373e-06 -3.90605e-07
-3.40373e-06 3.82541e-05 -1.46583e-07
-3.90605e-07 -1.46583e-07 -3.62779e-05
0.000899605 -3.82141e-05 -1.16444e-06
-3.82141e-05 3.56554e-05 -1.0204e-06
-1.16444e-06 -1.0204e-06 -4.58243e-05
0.000918298 -1.46728e-05 -3.83601e-07
-1.46728e-05 5.59271e-05 -1.18446e-07
-3.83601e-07 -1.18446e-07 -2.03622e-05
0.000619963 -3.80565e-05 1.00241e-06
-3.80565e-05 6.95299e-05 4.26852e-06
1.00241e-06 4.26852e-06 -2.19164e-05
-0.000420854 1.01718e-05 1.35808e-05
1.01718e-05 0.000151742 -1.90787e-05
1.35808e-05 -1.90787e-05 -0.000403687
1.31183e-05 -9.2077e-06 -1.16355e-06
-9.2077e-06 -0.000247629 5.12913e-06
-1.16355e-06 5.12913e-06 -0.000356445
0.00161368 0.000116392 2.04235e-05
0.000116392 0.000695205 -4.83203e-06
2.04235e-05 -4.83203e-06 0.000429002
0.00151447 -2.11318e-06 5.22433e-06
-2.11318e-06 0.000263463 -9.76986e-09
5.22433e-06 -9.76986e-09 0.000161986
0.000980046 5.18793e-07 -3.70478e-06
5.18793e-07 0.000126079 -1.61856e-06
-3.70478e-06 -1.61856e-06 2.68166e-05
0.00110042 -8.31526e-07 1.68984e-07
-8.31526e-07 0.000141929 -1.48279e-07
1.68984e-07 -1.48279e-07 -6.77745e-06
-0.000956635 -1.61927e-05 -1.37145e-05
-1.61927e-05 -0.000311358 1.29629e-05
-1.37145e-05 1.29629e-05 -0.000455607
0.00108297 2.55758e-05 3.25752e-05
2.55758e-05 -0.000243523 -4.49927e-05
3.25752e-05 -4.49927e-05 -0.000542135
0.00112515 -8.06701e-06 1.45238e-05
-8.06701e-06 0.000185765 -9.98748e-06
1.45238e-05 -9.98748e-06 0.000100166
0.00908302 0.000241551 5.12391e-05
0.000241551 0.00272235 3.39484e-06
5.12391e-05 3.39484e-06 0.00139571
0.00496778 0.000570343 -4.59465e-05
0.000570343 0.00132087 3.14408e-05
-4.59465e-05 3.14408e-05 0.00135202
0.00102072 1.65427e-05 -1.29401e-05
1.65427e-05 -0.000298238 1.26222e-05
-1.29401e-05 1.26222e-05 -0.000402369
-0.00127388 0.000454881 -1.85024e-05
0.000454881 -0.00189938 -1.09549e-05
-1.85024e-05 -1.09549e-05 -0.000803826
-7.47412e-07 -3.67196e-05 -5.82991e-06
-3.67196e-05 4.13457e-05 -6.32769e-07
-5.82991e-06 -6.32769e-07 -7.66312e-05
0.00112844 -7.94879e-06 2.19868e-06
-7.94879e-06 -2.34171e-06 -1.17416e-06
2.19868e-06 -1.17416e-06 -0.000106763
-0.00130868 0.000222175 -1.98828e-05
0.000222175 -0.000896267 5.79487e-06
-1.98828e-05 5.79487e-06 -0.000680788
0.0021623 -0.000227726 -4.36e-06
-0.000227726 0.000189809 2.97551e-05
-4.36e-06 2.97551e-05 -0.000138752
0.00360181 0.000580308 5.48528e-06
0.000580308 0.00101376 3.79412e-06
5.48528e-06 3.79412e-06 0.00126748
0.00548138 0.000171028 3.2142e-05
0.000171028 0.00132083 -1.73806e-05
3.2142e-05 -1.73806e-05 -0.000117211
0.00260026 -0.000177543 2.4962e-05
-0.000177543 0.000814444 8.44129e-06
2.4962e-05 8.44129e-06 0.000877887
-0.00106112 5.68927e-05 1.66331e-05
5.68927e-05 -0.00058876 -1.64875e-06
1.66331e-05 -1.64875e-06 -0.000694609
0.00311423 0.000430292 2.7815e-05
0.000430292 0.0013776 -8.64279e-06
2.7815e-05 -8.64279e-06 0.00151865
0.00445077 0.000444933 -3.81785e-05
0.000444933 0.000975328 3.7179e-05
-3.81785e-05 3.7179e-05 -0.000186401
0.00171963 -0.000276548 -1.6686e-05
-0.000276548 -3.20759e-05 2.93693e-05
-1.6686e-05 2.93693e-05 -0.000494353
0.000696728 -4.65046e-06 -3.76053e-06
-4.65046e-06 0.00021301 5.62126e-06
-3.76053e-06 5.62126e-06 3.18569e-05
0.000748708 -0.000120803 1.43841e-06
-0.000120803 0.00010786 -2.80316e-06
1.43841e-06 -2.80316e-06 -6.49054e-05
0.00188807 -0.000163453 7.58908e-06
-0.000163453 0.000344913 6.81672e-07
7.58908e-06 6.81672e-07 0.000260422
-2.95401e-05 -2.20196e-05 -1.25392e-06
-2.20196e-05 -0.000254692 1.00738e-07
-1.25392e-06 1.00738e-07 -0.000440719
0.000839457 -0.000101014 2.25111e-06
-0.000101014 7.401e-05 1.04258e-07
2.25111e-06 1.04258e-07 -0.000108037
0.00127748 -0.000142545 8.87625e-07
-0.000142545 0.000127861 1.28606e-06
8.87625e-07 1.28606e-06 -2.34613e-05
0.00137456 -0.00010902 -1.3836e-06
-0.00010902 0.000327628 -1.75921e-07
-1.3836e-06 -1.75921e-07 0.000161943
0.00116592 -0.000118584 -4.13395e-07
-0.000118584 0.000146144 -5.36602e-07
-4.13395e-07 -5.36602e-07 -2.30633e-05
0.00166349 -0.000145223 -1.68094e-06
-0.000145223 0.000281313 -1.29911e-06
-1.68094e-06 -1.29911e-06 0.000137412
0.00149748 -0.000124285 6.09907e-07
-0.000124285 0.000314876 -9.84454e-07
6.09907e-07 -9.84454e-07 0.000162475
0.00126742 -0.000119686 3.92422e-07
-0.000119686 0.000158965 -6.92513e-07
3.92422e-07 -6.92513e-07 4.84627e-06
0.00145811 -0.00012436 -2.54722e-06
-0.00012436 0.000164185 -2.73423e-06
-2.54722e-06 -2.73423e-06 3.14794e-05
0.00139564 -0.000112439 -2.29678e-06
-0.000112439 0.000120946 -2.42942e-06
-2.29678e-06 -2.42942e-06 1.11747e-06
0.00112202 -0.000104586 -2.466e-06
-0.000104586 7.11642e-05 4.13255e-07
-2.466e-06 4.13255e-07 -5.43762e-05
0.00127288 -0.000114967 3.10868e-07
-0.000114967 0.000123351 -8.75423e-07
3.10868e-07 -8.75423e-07 -1.2899e-05
0.0012991 -0.000103866 -1.8248e-06
-0.000103866 0.000214316 2.13937e-06
-1.8248e-06 2.13937e-06 0.000106483
0.00128362 -0.000109318 -2.16486e-07
-0.000109318 0.000192615 7.10678e-07
-2.16486e-07 7.10678e-07 6.92187e-05
0.00131346 -0.00011774 1.54894e-06
-0.00011774 0.000196677 -9.94445e-07
1.54894e-06 -9.94445e-07 5.44571e-05
0.000968386 -8.26356e-05 -6.87118e-07
-8.26356e-05 7.36351e-05 -8.43059e-07
-6.87118e-07 -8.43059e-07 -1.6967e-05
0.00078829 -7.82334e-05 -2.49346e-07
-7.82334e-05 -1.77218e-05 -1.05548e-06
-2.49346e-07 -1.05548e-06 -0.000113034
0.00102791 -9.05733e-05 4.03328e-06
-9.05733e-05 0.000104186 -2.53006e-06
4.03328e-06 -2.53006e-06 -4.23428e-07
0.000923587 -3.59017e-05 -5.05432e-07
-3.59017e-05 5.86812e-05 1.12928e-06
-5.05432e-07 1.12928e-06 -1.99794e-05
0.00102044 -7.58785e-05 2.10239e-07
-7.58785e-05 0.000113412 4.64219e-07
2.10239e-07 4.64219e-07 2.23581e-05
0.00108026 -8.70484e-05 9.62229e-07
-8.70484e-05 0.000148133 9.051e-07
9.62229e-07 9.051e-07 5.17795e-05
0.00082771 5.41895e-05 -8.70051e-07
5.41895e-05 1.3297e-05 2.46643e-06
-8.70051e-07 2.46643e-06 -3.75753e-05
0.000906877 1.86008e-06 -9.34808e-09
1.86008e-06 5.13068e-05 -1.58276e-08
-9.34808e-09 -1.58276e-08 -2.08555e-05
0.000979185 -4.69944e-05 2.55062e-07
-4.69944e-05 9.81286e-05 -3.75229e-07
2.55062e-07 -3.75229e-07 1.45379e-05
0.00138256 4.21813e-05 -1.22432e-05
4.21813e-05 0.000306809 3.14529e-06
-1.22432e-05 3.14529e-06 0.000298223
0.000809505 3.64389e-05 4.013e-08
3.64389e-05 -2.03104e-06 -1.39197e-07
4.013e-08 -1.39197e-07 -4.3743e-05
0.000879141 4.31539e-06 7.19643e-07
4.31539e-06 3.21521e-05 -1.38938e-06
7.19643e-07 -1.38938e-06 -3.08211e-05
0.000933044 2.86726e-05 -1.8929e-05
2.86726e-05 6.56682e-05 3.54083e-06
-1.8929e-05 3.54083e-06 7.55653e-05
0.00109462 3.65265e-05 -4.96224e-06
3.65265e-05 0.000147313 3.88823e-07
-4.96224e-06 3.88823e-07 0.000140132
0.000817781 3.88156e-05 7.04235e-07
3.88156e-05 -3.99904e-07 -2.1082e-06
7.04235e-07 -2.1082e-06 -3.71666e-05
0.000798401 3.01762e-05 2.01039e-06
3.01762e-05 -1.67343e-05 -3.29059e-06
2.01039e-06 -3.29059e-06 -2.2776e-05
0.0021552 4.12421e-05 7.51773e-07
4.12421e-05 0.000704429 5.94075e-08
7.51773e-07 5.94075e-08 0.000722017
0.00212881 3.57801e-05 1.90629e-05
3.57801e-05 0.000684368 -3.54003e-06
1.90629e-05 -3.54003e-06 0.000703447
0.000884347 -3.79036e-06 -1.2579e-07
-3.79036e-06 3.01485e-05 -1.1789e-06
-1.2579e-07 -1.1789e-06 -3.92335e-05
0.000901104 -7.08972e-08 -4.36851e-07
-7.08972e-08 3.50424e-05 -1.2815e-06
-4.36851e-07 -1.2815e-06 -2.3282e-05
0.00093424 -3.90911e-06 -4.74807e-08
-3.90911e-06 5.40202e-05 -1.12108e-08
-4.74807e-08 -1.12108e-08 -1.24882e-05
0.000822953 -3.24505e-05 -6.10724e-07
-3.24505e-05 -4.32407e-06 -1.93385e-06
-6.10724e-07 -1.93385e-06 -4.07881e-05
0.00090501 4.35635e-07 4.35134e-07
4.35635e-07 3.70235e-05 -8.68277e-08
4.35134e-07 -8.68277e-08 -1.83739e-05
0.000786928 -2.52981e-05 -1.55188e-06
-2.52981e-05 -2.7273e-05 -3.38452e-06
-1.55188e-06 -3.38452e-06 -3.41712e-05
0.000838459 -1.87703e-05 -2.03961e-07
-1.87703e-05 -6.42447e-08 9.50648e-09
-2.03961e-07 9.50648e-09 -3.41588e-05
0.000909365 2.70624e-05 9.46743e-07
2.70624e-05 4.17667e-05 8.60061e-07
9.46743e-07 8.60061e-07 -1.30487e-05
0.00222346 -3.05537e-05 -1.74254e-05
-3.05537e-05 0.000728825 -3.88599e-06
-1.74254e-05 -3.88599e-06 0.000748132
0.000784619 -2.17442e-05 -2.28207e-07
-2.17442e-05 -3.38725e-05 -4.52521e-09
-2.28207e-07 -4.52521e-09 -3.86524e-05
0.000855346 -1.6922e-05 4.11556e-07
-1.6922e-05 6.70966e-06 1.54126e-06
4.11556e-07 1.54126e-06 -2.54081e-05
0.00215473 -2.45515e-05 -1.39473e-06
-2.45515e-05 0.000686894 5.34436e-08
-1.39473e-06 5.34436e-08 0.000707929
0.000778575 -1.78134e-05 5.9276e-07
-1.78134e-05 -4.23415e-05 3.16658e-06
5.9276e-07 3.16658e-06 -4.46571e-05
0.0020867 -1.80224e-05 9.65007e-06
-1.80224e-05 0.000646188 3.85971e-06
9.65007e-06 3.85971e-06 0.000668845
0.00121805 2.99002e-06 1.09911e-05
2.99002e-06 0.000113805 2.77065e-06
1.09911e-05 2.77065e-06 3.26478e-05
0.000890056 8.58151e-06 1.08674e-06
8.58151e-06 6.81501e-05 -8.28319e-07
1.08674e-06 -8.28319e-07 -1.2486e-05
0.00111843 1.65086e-07 5.00056e-06
1.65086e-07 0.000220768 5.76889e-06
5.00056e-06 5.76889e-06 9.48042e-05
0.000971909 3.53804e-05 -7.13803e-07
3.53804e-05 8.96516e-05 6.2891e-09
-7.13803e-07 6.2891e-09 9.9509e-06
0.000965568 -4.3122e-07 1.337e-07
-4.3122e-07 7.19746e-05 3.83996e-07
1.337e-07 3.83996e-07 6.06808e-06
0.000949718 -7.11588e-06 9.63709e-08
-7.11588e-06 6.40957e-05 5.16716e-07
9.63709e-08 5.16716e-07 -7.35571e-06
0.000961185 -1.22996e-05 9.98542e-08
-1.22996e-05 7.19242e-05 -1.80355e-07
9.98542e-08 -1.80355e-07 1.72054e-06
0.000964584 1.36909e-05 4.75491e-08
1.36909e-05 7.70578e-05 -3.18309e-07
4.75491e-08 -3.18309e-07 1.51191e-06
0.000978382 2.23647e-05 -2.60644e-08
2.23647e-05 8.60731e-05 4.39234e-07
-2.60644e-08 4.39234e-07 9.20976e-06
0.000984671 3.25848e-05 -4.64141e-07
3.25848e-05 9.24186e-05 -1.12021e-06
-4.64141e-07 -1.12021e-06 1.11937e-05
0.000844778 8.92073e-06 2.92862e-08
8.92073e-06 1.90628e-05 -1.42812e-07
2.92862e-08 -1.42812e-07 -5.70593e-05
0.000923163 3.9054e-05 3.71618e-07
3.9054e-05 5.87957e-05 -1.14576e-07
3.71618e-07 -1.14576e-07 -1.35206e-05
0.000955673 -2.52093e-05 3.17914e-07
-2.52093e-05 6.55735e-05 -2.40804e-07
3.17914e-07 -2.40804e-07 -7.80856e-06
0.000983466 1.4841e-05 -9.89732e-08
1.4841e-05 9.13888e-05 6.61669e-08
-9.89732e-08 6.61669e-08 1.62805e-05
0.00144505 1.86509e-05 2.33034e-06
1.86509e-05 0.000335635 4.32426e-07
2.33034e-06 4.32426e-07 0.000258822
0.0015618 -0.000215199 2.77696e-05
-0.000215199 0.000485374 1.95944e-05
2.77696e-05 1.95944e-05 0.00076534
0.00156935 -2.02284e-05 2.97185e-06
-2.02284e-05 0.000125699 7.53674e-06
2.97185e-06 7.53674e-06 2.74093e-05
0.00117594 3.77919e-06 4.9151e-06
3.77919e-06 -1.73751e-05 1.75882e-06
4.9151e-06 1.75882e-06 -7.40349e-05
0.00281312 -0.000243818 -2.57617e-05
-0.000243818 -5.90973e-06 -2.36573e-05
-2.57617e-05 -2.36573e-05 0.000729405
0.00394339 -0.000320718 3.2908e-06
-0.000320718 0.000159725 -7.09462e-05
3.2908e-06 -7.09462e-05 0.000153609
0.00308023 3.0361e-05 -7.52934e-05
3.0361e-05 -0.000584347 9.63689e-05
-7.52934e-05 9.63689e-05 -0.00103242
0.00184791 -0.000266802 -5.71134e-05
-0.000266802 0.000116032 8.72274e-05
-5.71134e-05 8.72274e-05 -0.00028089
0.00286028 -0.000123421 -1.49585e-05
-0.000123421 0.000794535 1.36912e-05
-1.49585e-05 1.36912e-05 0.000512033
0.00048301 -0.000356911 -1.09168e-05
-0.000356911 -0.000826743 -3.18726e-06
-1.09168e-05 -3.18726e-06 8.08235e-05
0.00501666 -0.000123905 1.45012e-05
-0.000123905 0.00087791 4.87474e-05
1.45012e-05 4.87474e-05 -0.000218183
-0.000309458 -0.000292921 -3.99097e-06
-0.000292921 -0.0011824 -5.10947e-06
-3.99097e-06 -5.10947e-06 -0.000953327
0.00317308 0.000169088 -6.86513e-05
0.000169088 0.000723987 -4.45269e-05
-6.86513e-05 -4.45269e-05 0.00049512
0.00822136 -0.000379888 2.9249e-06
-0.000379888 0.00264563 3.66736e-05
2.9249e-06 3.66736e-05 0.0015961
-7.66288e-05 -0.000341123 1.74423e-05
-0.000341123 -0.000183817 -1.00964e-06
1.74423e-05 -1.00964e-06 9.27262e-05
0.00068475 9.34766e-05 -1.94091e-06
9.34766e-05 -3.15914e-05 -5.42597e-07
-1.94091e-06 -5.42597e-07 -9.72063e-05
0.00109125 1.83194e-05 2.11064e-06
1.83194e-05 0.000152546 1.35806e-07
2.11064e-06 1.35806e-07 8.57465e-05
0.000967737 -3.01878e-06 -4.80224e-07
-3.01878e-06 7.85155e-05 -7.32184e-07
-4.80224e-07 -7.32184e-07 1.98745e-06
-0.000589105 -2.37417e-06 -1.69754e-05
-2.37417e-06 -3.71286e-05 -2.27341e-05
-1.69754e-05 -2.27341e-05 -0.000566574
2.92094e-05 -2.28591e-05 -1.04769e-06
-2.28591e-05 -0.000232932 -3.79334e-06
-1.04769e-06 -3.79334e-06 -0.000329498
0.00079353 3.58627e-06 1.29305e-06
3.58627e-06 -4.17414e-06 1.21137e-06
1.29305e-06 1.21137e-06 -8.03178e-05
0.000827919 3.86493e-05 1.10526e-06
3.86493e-05 0.00013546 5.15031e-07
1.10526e-06 5.15031e-07 2.61319e-05
0.000775427 7.11961e-05 1.23454e-06
7.11961e-05 0.0002392 -1.02378e-05
1.23454e-06 -1.02378e-05 2.48508e-05
-0.000781174 7.42614e-05 9.28693e-06
7.42614e-05 -0.000667457 1.25631e-05
9.28693e-06 1.25631e-05 -0.000808366
0.00163404 -8.79991e-06 2.86259e-05
-8.79991e-06 0.000911865 -1.15428e-06
2.86259e-05 -1.15428e-06 0.000827221
0.00108096 -1.45302e-06 -5.27687e-07
-1.45302e-06 4.9935e-05 -4.54594e-07
-5.27687e-07 -4.54594e-07 -4.27977e-05
0.000740172 1.68628e-06 1.14908e-05
1.68628e-06 -2.08432e-05 -1.30886e-06
1.14908e-05 -1.30886e-06 -0.000127802
0.000371307 -4.34504e-05 -9.10044e-07
-4.34504e-05 0.000243415 6.90548e-06
-9.10044e-07 6.90548e-06 0.000118508
0.00139108 -0.000201568 2.70355e-05
-0.000201568 -0.000152974 -3.67972e-05
2.70355e-05 -3.67972e-05 -0.000389253
0.00114072 -1.00731e-05 -7.84832e-06
-1.00731e-05 7.50796e-06 -4.01103e-06
-7.84832e-06 -4.01103e-06 -9.26893e-05
0.00200191 0.000184073 -6.26282e-06
0.000184073 -0.000155823 2.09065e-05
-6.26282e-06 2.09065e-05 -0.00140011
-0.00227281 0.000382759 -4.89992e-05
0.000382759 -0.0017224 1.24867e-05
-4.89992e-05 1.24867e-05 -0.00137953
0.00120059 0.000261765 -3.73369e-05
0.000261765 0.000335884 1.80665e-05
-3.73369e-05 1.80665e-05 0.000733392
0.00164044 -0.000146728 -6.83631e-06
-0.000146728 0.000303471 4.3085e-06
-6.83631e-06 4.3085e-06 0.00041206
0.00110798 9.51662e-05 -2.43453e-06
9.51662e-05 0.000583341 2.27424e-06
-2.43453e-06 2.27424e-06 0.0006294
-0.00334836 0.000214024 5.92338e-06
0.000214024 -0.0013345 1.6963e-06
5.92338e-06 1.6963e-06 -0.00136131
0.00311729 -0.000313491 -6.23453e-06
-0.000313491 0.000513873 1.7437e-05
-6.23453e-06 1.7437e-05 -0.000201945
0.00693839 0.000381718 -1.6072e-05
0.000381718 0.00209154 3.06044e-06
-1.6072e-05 3.06044e-06 0.00103537
0.000181396 -0.000152724 -2.65412e-06
-0.000152724 -0.000460899 5.39121e-06
-2.65412e-06 5.39121e-06 -0.000413585
-0.00397313 0.000106996 2.64156e-05
0.000106996 -0.00209354 -1.26639e-05
2.64156e-05 -1.26639e-05 -0.00200252
0.0064933 0.000353834 4.64768e-06
0.000353834 0.00205777 2.11632e-06
4.64768e-06 2.11632e-06 0.00112834
0.00298074 -0.000100944 -2.04914e-05
-0.000100944 -0.000121339 2.86771e-05
-2.04914e-05 2.86771e-05 -0.000554267
-0.000163473 -8.27591e-05 -6.36519e-06
-8.27591e-05 -0.000305982 -2.2895e-06
-6.36519e-06 -2.2895e-06 -0.000519685
0.00139566 -0.000146881 -1.38132e-06
-0.000146881 0.000137654 -7.78358e-08
-1.38132e-06 -7.78358e-08 6.41124e-05
0.0015687 -0.000157668 3.22649e-06
-0.000157668 2.23034e-05 -2.63914e-06
3.22649e-06 -2.63914e-06 -2.10399e-05
0.000458731 -8.37591e-05 -1.58005e-06
-8.37591e-05 -0.000102977 -3.62481e-06
-1.58005e-06 -3.62481e-06 -0.000285725
0.00118717 -0.000137337 -5.97737e-07
-0.000137337 7.65237e-05 -1.44711e-06
-5.97737e-07 -1.44711e-06 -7.34485e-05
0.00165627 -0.000156063 -3.44152e-06
-0.000156063 0.000130362 -2.29837e-06
-3.44152e-06 -2.29837e-06 1.85898e-05
0.00113502 -0.000115929 -4.44891e-07
-0.000115929 0.000123943 -1.84331e-06
-4.44891e-07 -1.84331e-06 -4.12121e-05
0.00133633 -0.000131804 3.44836e-07
-0.000131804 0.000114846 -1.08631e-06
3.44836e-07 -1.08631e-06 -2.89637e-05
0.00177723 -0.000134823 -3.14101e-06
-0.000134823 0.00021112 -3.7923e-06
-3.14101e-06 -3.7923e-06 0.000100817
0.00128163 -0.000118088 9.16959e-07
-0.000118088 0.000164083 -1.26095e-06
9.16959e-07 -1.26095e-06 1.37482e-05
0.0013362 -0.000118285 -3.41815e-07
-0.000118285 9.97471e-05 -1.02569e-06
-3.41815e-07 -1.02569e-06 -3.1425e-05
0.00160739 -0.000113422 -2.51556e-06
-0.000113422 0.000150883 -4.0095e-06
-2.51556e-06 -4.0095e-06 5.08221e-05
0.0015568 -0.000104776 -2.02722e-06
-0.000104776 0.000157791 -2.95068e-06
-2.02722e-06 -2.95068e-06 6.23384e-05
0.0013172 -0.000108501 -2.70585e-06
-0.000108501 0.000113759 -1.27851e-06
-2.70585e-06 -1.27851e-06 -3.01169e-06
0.00138553 -0.00010957 8.32608e-07
-0.00010957 0.000116334 8.8382e-08
8.32608e-07 8.8382e-08 -1.16903e-06
0.000715065 -8.38563e-05 -2.16015e-06
-8.38563e-05 -0.000116081 1.27247e-06
-2.16015e-06 1.27247e-06 -0.000228973
0.00129928 -0.00011034 1.02357e-06
-0.00011034 0.000161566 -1.04239e-06
1.02357e-06 -1.04239e-06 3.72086e-05
0.00115967 -0.000109601 2.51482e-06
-0.000109601 6.32467e-05 -5.63413e-07
2.51482e-06 -5.63413e-07 -7.16707e-05
0.00101883 -8.83733e-05 -7.37257e-07
-8.83733e-05 8.78953e-05 7.88185e-07
-7.37257e-07 7.88185e-07 -7.37639e-06
0.00101506 -9.20908e-05 3.98636e-07
-9.20908e-05 7.26395e-05 -1.96419e-07
3.98636e-07 -1.96419e-07 -3.47003e-05
0.000939803 -9.6015e-05 1.94363e-06
-9.6015e-05 1.81178e-05 -1.83703e-06
1.94363e-06 -1.83703e-06 -0.000107118
0.000981581 -6.78324e-05 -1.72414e-06
-6.78324e-05 8.04619e-05 2.61588e-07
-1.72414e-06 2.61588e-07 -3.68286e-07
0.00104515 -8.53696e-05 -2.25881e-07
-8.53696e-05 0.000111541 -4.00514e-07
-2.25881e-07 -4.00514e-07 2.08004e-05
0.0008977 -8.22657e-05 4.64466e-07
-8.22657e-05 3.98784e-05 -1.30832e-06
4.64466e-07 -1.30832e-06 -5.43621e-05
0.000883616 1.522e-05 -1.08623e-06
1.522e-05 4.48898e-05 2.6081e-06
-1.08623e-06 2.6081e-06 -1.33823e-05
0.000961909 -3.29227e-05 6.41308e-07
-3.29227e-05 7.78702e-05 3.39918e-07
6.41308e-07 3.39918e-07 -5.81032e-07
0.000999626 -6.9689e-05 1.09319e-06
-6.9689e-05 0.000102639 6.48749e-07
1.09319e-06 6.48749e-07 1.26634e-05
0.000707324 4.0294e-05 -3.25199e-06
4.0294e-05 -4.21207e-05 3.73821e-06
-3.25199e-06 3.73821e-06 -5.84569e-05
0.000809994 2.55075e-05 -2.2209e-07
2.55075e-05 1.47865e-06 -1.76322e-07
-2.2209e-07 -1.76322e-07 -4.78148e-05
0.00093171 -6.74712e-06 4.71445e-07
-6.74712e-06 6.50334e-05 -1.44254e-06
4.71445e-07 -1.44254e-06 -7.99029e-06
0.00226036 5.77969e-05 -9.24641e-06
5.77969e-05 0.000776021 1.41145e-06
-9.24641e-06 1.41145e-06 0.000788471
0.000746989 3.67829e-05 1.65779e-07
3.67829e-05 -2.8494e-05 -1.16077e-09
1.65779e-07 -1.16077e-09 -4.10284e-05
0.000799364 3.53449e-05 1.25227e-06
3.53449e-05 -6.98563e-06 -2.24751e-06
1.25227e-06 -2.24751e-06 -4.8897e-05
0.00220528 4.64622e-05 7.88304e-07
4.64622e-05 0.000737865 5.46471e-08
7.88304e-07 5.46471e-08 0.000753635
0.000792142 3.42604e-05 2.42666e-06
3.42604e-05 -1.25145e-05 -3.4422e-06
2.42666e-06 -3.4422e-06 -2.15548e-05
0.00216362 4.12414e-05 2.17855e-05
4.12414e-05 0.000709862 -3.48532e-06
2.17855e-05 -3.48532e-06 0.000727234
0.00100915 3.2893e-05 -4.45407e-07
3.2893e-05 0.000104462 -1.80796e-07
-4.45407e-07 -1.80796e-07 3.04107e-05
0.000902885 4.53078e-06 5.01706e-08
4.53078e-06 4.04273e-05 -3.09248e-07
5.01706e-08 -3.09248e-07 -2.95265e-05
0.000897423 -8.20767e-06 -4.4869e-07
-8.20767e-06 3.73282e-05 -1.51181e-06
-4.4869e-07 -1.51181e-06 -2.54577e-05
0.000814783 -3.61204e-05 -9.09571e-07
-3.61204e-05 -5.2314e-06 -2.16984e-06
-9.09571e-07 -2.16984e-06 -4.38457e-05
0.000886809 -8.9597e-06 4.02589e-07
-8.9597e-06 2.8344e-05 -3.34286e-08
4.02589e-07 -3.34286e-08 -3.01282e-05
0.000895005 8.42058e-06 4.98222e-07
8.42058e-06 3.57424e-05 7.24984e-07
4.98222e-07 7.24984e-07 -3.24992e-05
0.000780223 -2.82823e-05 -2.19714e-06
-2.82823e-05 -2.54604e-05 -3.47161e-06
-2.19714e-06 -3.47161e-06 -3.41114e-05
0.000828494 -2.5528e-05 -2.19703e-07
-2.5528e-05 -2.09548e-06 4.35581e-09
-2.19703e-07 4.35581e-09 -3.81307e-05
0.000895579 -6.84444e-06 8.80347e-07
-6.84444e-06 3.20621e-05 1.01545e-06
8.80347e-07 1.01545e-06 -2.32021e-05
0.00226408 -3.61344e-05 -2.04842e-05
-3.61344e-05 0.000755946 -3.81596e-06
-2.04842e-05 -3.81596e-06 0.000773774
0.000771683 -2.48965e-05 -1.44129e-07
-2.48965e-05 -3.50672e-05 -2.33581e-09
-1.44129e-07 -2.33581e-09 -4.19059e-05
0.000846849 -1.756e-05 8.57525e-07
-1.756e-05 4.37818e-06 1.6399e-06
8.57525e-07 1.6399e-06 -2.96459e-05
0.00221465 -3.04875e-05 -1.44253e-06
-3.04875e-05 0.000723598 6.54158e-08
-1.44253e-06 6.54158e-08 0.00074308
0.000767678 -2.14428e-05 8.2569e-07
-2.14428e-05 -4.25853e-05 3.31087e-06
8.2569e-07 3.31087e-06 -4.7282e-05
0.00214321 -2.4281e-05 1.25823e-05
-2.4281e-05 0.000680264 3.85539e-06
1.25823e-05 3.85539e-06 0.000701523
-0.000572386 -7.52142e-05 2.13306e-05
-7.52142e-05 -0.000343647 6.26183e-06
2.13306e-05 6.26183e-06 -0.000467154
0.00117268 1.03649e-06 2.27449e-06
1.03649e-06 7.60045e-05 1.33399e-06
2.27449e-06 1.33399e-06 -3.3449e-06
0.000924592 8.83203e-06 1.29397e-05
8.83203e-06 9.18733e-05 6.42384e-06
1.29397e-05 6.42384e-06 1.25126e-05
0.000963286 2.41966e-05 -4.05498e-07
2.41966e-05 8.40439e-05 5.10212e-07
-4.05498e-07 5.10212e-07 4.82025e-06
0.00109489 7.48336e-05 -2.92195e-07
7.48336e-05 0.000161553 9.63904e-07
-2.92195e-07 9.63904e-07 7.55937e-05
0.000978522 4.15068e-05 -4.71524e-07
4.15068e-05 9.48913e-05 2.65871e-07
-4.71524e-07 2.65871e-07 1.13362e-05
0.0010449 -1.65941e-05 3.50756e-08
-1.65941e-05 0.000115411 -2.60008e-07
3.50756e-08 -2.60008e-07 4.56691e-05
0.00100795 1.59934e-05 3.65444e-07
1.59934e-05 9.80112e-05 4.89876e-07
3.65444e-07 4.89876e-07 2.38972e-05
0.000881155 -1.93351e-06 -4.4763e-07
-1.93351e-06 3.30339e-05 1.15288e-06
-4.4763e-07 1.15288e-06 -4.20543e-05
0.000878506 1.62967e-05 -3.85357e-07
1.62967e-05 3.79982e-05 2.80753e-08
-3.85357e-07 2.80753e-08 -3.97858e-05
0.000943022 2.02318e-05 1.67496e-07
2.02318e-05 6.99705e-05 -1.13726e-08
1.67496e-07 -1.13726e-08 -1.03507e-05
0.00102862 4.64376e-05 2.22918e-07
4.64376e-05 0.000131266 -9.19179e-07
2.22918e-07 -9.19179e-07 4.283e-05
0.000825241 4.3614e-05 1.28347e-06
4.3614e-05 9.17669e-06 -1.63759e-06
1.28347e-06 -1.63759e-06 -7.0872e-05
0.000951074 3.67115e-05 -5.3294e-08
3.67115e-05 7.72471e-05 -4.64157e-07
-5.3294e-08 -4.64157e-07 3.21322e-07
0.00112239 2.96936e-05 4.37609e-07
2.96936e-05 0.000171625 1.94357e-07
4.37609e-07 1.94357e-07 9.45821e-05
-0.00253874 -0.000236294 1.99232e-05
-0.000236294 -0.00130006 2.49292e-05
1.99232e-05 2.49292e-05 -0.00125068
0.000454949 -0.000210902 7.28516e-06
-0.000210902 -6.07804e-05 1.73659e-06
7.28516e-06 1.73659e-06 0.000150286
0.00165274 -1.67006e-05 -1.46753e-05
-1.67006e-05 0.000169166 -1.01222e-05
-1.46753e-05 -1.01222e-05 7.09479e-05
-0.00113216 -0.000377081 -9.86463e-06
-0.000377081 -0.0017223 6.43238e-06
-9.86463e-06 6.43238e-06 -0.000732112
0.0043765 -0.00045324 -2.15158e-05
-0.00045324 0.00118896 -4.55186e-05
-2.15158e-05 -4.55186e-05 0.00129668
0.00445931 -5.53996e-05 5.44384e-05
-5.53996e-05 0.000707221 2.52696e-05
5.44384e-05 2.52696e-05 -0.00028192
0.00157487 -0.000112103 -6.40975e-05
-0.000112103 0.000131286 7.86254e-05
-6.40975e-05 7.86254e-05 -0.000498022
0.00260932 0.000126302 -4.58004e-05
0.000126302 0.000299835 -1.92778e-05
-4.58004e-05 -1.92778e-05 -6.42116e-05
0.00301306 -0.000464478 -6.70335e-06
-0.000464478 0.000963277 6.24458e-06
-6.70335e-06 6.24458e-06 0.00110851
0.00267251 -8.80964e-05 2.67942e-05
-8.80964e-05 3.98379e-05 3.77001e-05
2.67942e-05 3.77001e-05 -0.00106143
0.00162384 0.000209448 -8.29596e-05
0.000209448 -4.27021e-05 -8.83972e-05
-8.29596e-05 -8.83972e-05 -0.00061638
0.00334021 5.82501e-05 -7.92964e-05
5.82501e-05 0.000620346 -2.4679e-05
-7.92964e-05 -2.4679e-05 -0.000488142
0.00238356 0.000217902 1.06475e-05
0.000217902 0.000716532 -6.09635e-06
1.06475e-05 -6.09635e-06 0.000588924
0.000879696 9.17342e-05 -9.08739e-07
9.17342e-05 5.69205e-05 -2.193e-07
-9.08739e-07 -2.193e-07 -6.50166e-06
0.00127342 2.18002e-05 4.03926e-07
2.18002e-05 0.000242577 -1.89263e-06
4.03926e-07 -1.89263e-06 0.000175911
-0.000461399 1.80108e-05 -1.82416e-05
1.80108e-05 -0.000402579 -1.36576e-05
-1.82416e-05 -1.36576e-05 -0.000568703
0.00158532 7.75958e-05 -9.59799e-07
7.75958e-05 0.000486842 -4.52305e-06
-9.59799e-07 -4.52305e-06 0.000377867
0.00101496 0.000148387 9.24146e-06
0.000148387 0.000151104 3.07573e-07
9.24146e-06 3.07573e-07 3.35558e-05
0.000494793 0.000167272 3.15597e-05
0.000167272 -0.000371025 2.31765e-05
3.15597e-05 2.31765e-05 -0.000444046
-0.00216579 -1.42309e-05 1.57597e-05
-1.42309e-05 -0.00124163 -8.07912e-06
1.57597e-05 -8.07912e-06 -0.00101436
0.000248168 -6.21325e-07 1.23166e-06
-6.21325e-07 0.000157678 8.5578e-07
1.23166e-06 8.5578e-07 4.53874e-05
0.000625799 -1.01263e-06 -4.46752e-06
-1.01263e-06 -0.000177855 -2.40078e-06
-4.46752e-06 -2.40078e-06 -0.000261389
0.000412686 -0.000126041 -2.80719e-05
-0.000126041 -0.000292809 -5.32348e-06
-2.80719e-05 -5.32348e-06 -0.000198221
0.00301788 -0.000334534 -4.5955e-05
-0.000334534 0.000510496 -2.73662e-06
-4.5955e-05 -2.73662e-06 -1.80486e-05
0.000946962 7.45277e-05 -2.60663e-05
7.45277e-05 0.000525286 5.40333e-06
-2.60663e-05 5.40333e-06 0.000529777
0.00122139 0.000284239 1.97721e-05
0.000284239 -0.000286137 -4.38421e-05
1.97721e-05 -4.38421e-05 -0.00152329
0.00566634 0.000385578 -9.37344e-05
0.000385578 0.00277673 1.79341e-05
-9.37344e-05 1.79341e-05 0.00283458
0.00121886 -0.000203237 9.10668e-06
-0.000203237 -8.44618e-06 -2.22932e-07
9.10668e-06 -2.22932e-07 2.13092e-05
-0.00086027 0.000179214 -2.13566e-05
0.000179214 -0.000438124 -7.91397e-07
-2.13566e-05 -7.91397e-07 -0.000448251
0.00267539 0.000235583 -5.46415e-06
0.000235583 0.000276387 1.15865e-05
-5.46415e-06 1.15865e-05 -0.000844398
0.00349493 -8.94053e-05 5.59437e-07
-8.94053e-05 0.000463649 4.75968e-06
5.59437e-07 4.75968e-06 0.00016427
0.000598302 -0.000126263 -2.68702e-06
-0.000126263 -0.000247226 -5.21766e-06
-2.68702e-06 -5.21766e-06 -0.000288356
0.00592032 9.42129e-05 2.46442e-05
9.42129e-05 0.001823 1.946e-06
2.46442e-05 1.946e-06 0.00101336
0.00128747 6.31912e-05 2.99931e-06
6.31912e-05 -0.000483997 -8.19181e-06
2.99931e-06 -8.19181e-06 -0.00073133
0.000888418 -0.000134575 -4.11826e-06
-0.000134575 -7.53929e-05 -1.94585e-06
-4.11826e-06 -1.94585e-06 -0.000139476
0.00151686 -0.000162798 -2.03854e-07
-0.000162798 1.63185e-05 -2.89643e-07
-2.03854e-07 -2.89643e-07 -4.00183e-05
0.00204833 -0.000180126 -8.53998e-06
-0.000180126 0.000119202 3.93229e-06
-8.53998e-06 3.93229e-06 7.25017e-05
0.00114348 -0.000133443 -2.69565e-06
-0.000133443 4.91031e-05 -2.88391e-06
-2.69565e-06 -2.88391e-06 -9.88174e-05
0.00151445 -0.000148165 -2.90845e-06
-0.000148165 5.63757e-05 6.59916e-07
-2.90845e-06 6.59916e-07 -5.39621e-05
0.00166872 -0.000134257 -7.4964e-06
-0.000134257 -8.50293e-06 1.21531e-06
-7.4964e-06 1.21531e-06 -7.84769e-05
0.00105337 -0.000120123 1.35752e-06
-0.000120123 -2.86818e-05 -3.538e-07
1.35752e-06 -3.538e-07 -0.000172462
0.00146155 -0.000123517 -9.64608e-07
-0.000123517 4.74117e-05 -2.47223e-08
-9.64608e-07 -2.47223e-08 -6.12779e-05
0.00180832 -0.000114033 -3.06001e-06
-0.000114033 0.000116966 -1.3264e-06
-3.06001e-06 -1.3264e-06 4.55695e-05
0.00119619 -0.000111803 1.91259e-06
-0.000111803 2.60295e-05 8.50518e-07
1.91259e-06 8.50518e-07 -0.000103552
0.00143429 -0.000107788 -1.62979e-07
-0.000107788 6.12145e-05 2.45561e-07
-1.62979e-07 2.45561e-07 -3.7998e-05
0.00154242 -9.87015e-05 -1.48834e-06
-9.87015e-05 7.20008e-05 -1.54646e-06
-1.48834e-06 -1.54646e-06 -2.57881e-06
0.00181609 -9.90119e-05 -6.81916e-07
-9.90119e-05 0.000262279 -1.73893e-06
-6.81916e-07 -1.73893e-06 0.000181214
0.00150951 -0.000101405 -9.55255e-07
-0.000101405 0.000133355 1.37835e-06
-9.55255e-07 1.37835e-06 4.03586e-05
0.00140258 -0.000100403 -1.14673e-06
-0.000100403 0.000112337 -3.32915e-06
-1.14673e-06 -3.32915e-06 1.30008e-05
0.00130624 -0.000103376 -2.5544e-06
-0.000103376 0.000130531 -1.27146e-07
-2.5544e-06 -1.27146e-07 2.0409e-05
0.00142966 -0.000111222 9.82838e-07
-0.000111222 0.000172285 -4.14738e-07
9.82838e-07 -4.14738e-07 5.5515e-05
0.00136932 -0.000106669 3.12733e-06
-0.000106669 0.000108445 2.46583e-06
3.12733e-06 2.46583e-06 -6.70317e-06
0.000796378 -8.26049e-05 -2.3222e-06
-8.26049e-05 -5.64972e-05 1.93938e-06
-2.3222e-06 1.93938e-06 -0.000159102
0.00103172 -9.49067e-05 1.28198e-07
-9.49067e-05 4.65864e-05 -5.02797e-08
1.28198e-07 -5.02797e-08 -6.52288e-05
0.00147226 -0.000115914 3.80333e-06
-0.000115914 0.000249863 -2.27167e-06
3.80333e-06 -2.27167e-06 0.000126701
0.000955619 -7.3484e-05 -1.4923e-06
-7.3484e-05 5.99268e-05 4.65794e-07
-1.4923e-06 4.65794e-07 -2.40765e-05
0.00107371 -8.99858e-05 1.08115e-07
-8.99858e-05 0.0001144 -2.12946e-07
1.08115e-07 -2.12946e-07 1.89642e-05
0.000769848 -8.19676e-05 1.12327e-06
-8.19676e-05 -4.95291e-05 -2.43455e-06
1.12327e-06 -2.43455e-06 -0.00015647
0.000844806 -1.15723e-05 -2.54029e-06
-1.15723e-05 2.51969e-05 2.28617e-06
-2.54029e-06 2.28617e-06 -3.92805e-05
0.00101846 -6.98285e-05 -2.96957e-08
-6.98285e-05 9.81866e-05 -2.3128e-08
-2.96957e-08 -2.3128e-08 1.73984e-05
0.0011142 -8.77286e-05 1.03659e-06
-8.77286e-05 0.000145482 -3.52954e-07
1.03659e-06 -3.52954e-07 5.46389e-05
0.000655368 4.75299e-05 -2.76326e-06
4.75299e-05 -6.10032e-05 4.22241e-06
-2.76326e-06 4.22241e-06 -8.32456e-05
0.000836083 7.08767e-06 -2.48826e-08
7.08767e-06 1.97935e-05 2.89086e-08
-2.48826e-08 2.89086e-08 -3.90402e-05
0.000999626 -3.65842e-05 1.59442e-06
-3.65842e-05 9.72627e-05 -4.10524e-07
1.59442e-06 -4.10524e-07 1.86025e-05
0.00240668 5.85353e-05 -2.89899e-05
5.85353e-05 0.00085773 3.2194e-06
-2.89899e-05 3.2194e-06 0.000868942
0.000727285 4.25492e-05 -7.47467e-08
4.25492e-05 -3.08654e-05 -8.47414e-08
-7.47467e-08 -8.47414e-08 -4.77819e-05
0.000789749 9.14334e-06 2.35249e-06
9.14334e-06 -9.53595e-06 -2.49031e-06
2.35249e-06 -2.49031e-06 -5.87543e-05
0.00163552 4.55532e-05 1.11121e-05
4.55532e-05 0.000445285 -8.14485e-07
1.11121e-05 -8.14485e-07 0.000455122
0.00077677 3.83631e-05 2.89836e-06
3.83631e-05 -1.31752e-05 -3.66487e-06
2.89836e-06 -3.66487e-06 -2.5883e-05
0.0022384 4.67443e-05 2.50115e-05
4.67443e-05 0.000756689 -3.44777e-06
2.50115e-05 -3.44777e-06 0.000771955
0.000985069 4.79977e-05 1.27421e-08
4.79977e-05 9.44643e-05 7.34647e-07
1.27421e-08 7.34647e-07 1.55741e-05
0.00097194 1.32228e-05 -9.31388e-08
1.32228e-05 8.23284e-05 4.96568e-07
-9.31388e-08 4.96568e-07 9.52159e-06
0.000914437 -2.04562e-05 -5.71435e-07
-2.04562e-05 5.20353e-05 -1.2461e-06
-5.71435e-07 -1.2461e-06 -1.4685e-05
0.000947806 1.64857e-05 3.41809e-07
1.64857e-05 6.46358e-05 5.85624e-07
3.41809e-07 5.85624e-07 -6.1644e-06
0.000897867 -2.47597e-05 1.06123e-07
-2.47597e-05 3.57251e-05 -3.25499e-08
1.06123e-07 -3.25499e-08 -2.57257e-05
0.000799313 -3.35195e-05 -1.3153e-06
-3.35195e-05 -8.27528e-06 -2.33404e-06
-1.3153e-06 -2.33404e-06 -5.00386e-05
0.00077275 -3.18217e-05 -2.66485e-06
-3.18217e-05 -2.39293e-05 -3.56036e-06
-2.66485e-06 -3.56036e-06 -3.42316e-05
0.000819091 -3.22828e-05 -1.74608e-07
-3.22828e-05 -3.51905e-06 -1.70848e-08
-1.74608e-07 -1.70848e-08 -4.17551e-05
0.000894625 -3.38685e-05 1.28209e-08
-3.38685e-05 3.11282e-05 1.34154e-06
1.28209e-08 1.34154e-06 -2.60901e-05
0.00228466 -4.1424e-05 -2.32601e-05
-4.1424e-05 0.000773047 -3.68583e-06
-2.32601e-05 -3.68583e-06 0.00078945
0.000762705 -2.78368e-05 -2.06985e-07
-2.78368e-05 -3.43328e-05 1.79274e-08
-2.06985e-07 1.79274e-08 -4.29312e-05
0.000836346 -1.77926e-05 1.4887e-06
-1.77926e-05 1.42603e-06 1.82744e-06
1.4887e-06 1.82744e-06 -3.42146e-05
0.00226278 -3.61595e-05 -1.12352e-06
-3.61595e-05 0.000754615 7.17481e-08
-1.12352e-06 7.17481e-08 0.000772565
0.000757262 -2.45456e-05 1.34662e-06
-2.45456e-05 -4.23791e-05 3.41638e-06
1.34662e-06 3.41638e-06 -4.91715e-05
0.00220415 -3.03941e-05 1.55258e-05
-3.03941e-05 0.000717471 3.84727e-06
1.55258e-05 3.84727e-06 0.000737136
0.000666525 7.4885e-05 9.70139e-05
7.4885e-05 0.000238839 2.24414e-05
9.70139e-05 2.24414e-05 1.77603e-05
0.000628941 -8.84701e-05 5.77137e-06
-8.84701e-05 0.000276255 2.58244e-06
5.77137e-06 2.58244e-06 0.000212058
0.00113838 -6.39105e-07 -6.97958e-06
-6.39105e-07 4.46193e-05 -2.15932e-07
-6.97958e-06 -2.15932e-07 -3.30133e-05
0.000957751 1.66962e-05 5.38257e-07
1.66962e-05 8.05663e-05 5.20628e-07
5.38257e-07 5.20628e-07 1.49511e-06
0.000947383 2.64581e-05 2.18589e-07
2.64581e-05 7.83324e-05 3.42752e-07
2.18589e-07 3.42752e-07 -5.01322e-06
0.000995546 7.54302e-05 -9.21677e-08
7.54302e-05 0.000113498 1.86902e-08
-9.21677e-08 1.86902e-08 2.77133e-05
0.00109995 9.00457e-05 4.7059e-07
9.00457e-05 0.000161687 9.63949e-07
4.7059e-07 9.63949e-07 7.23539e-05
0.00101469 6.66507e-05 -1.08475e-06
6.66507e-05 0.000126165 5.30933e-07
-1.08475e-06 5.30933e-07 3.66512e-05
0.000919041 2.07686e-05 1.30908e-07
2.07686e-05 5.84938e-05 7.5542e-07
1.30908e-07 7.5542e-07 -1.96092e-05
0.00091803 1.88305e-05 3.98499e-07
1.88305e-05 5.65213e-05 7.46484e-07
3.98499e-07 7.46484e-07 -2.34204e-05
0.000861802 4.91102e-05 -4.75806e-07
4.91102e-05 4.57495e-05 -5.46656e-07
-4.75806e-07 -5.46656e-07 -4.17875e-05
0.000352112 5.81538e-05 -5.91555e-07
5.81538e-05 -0.000208869 1.23574e-06
-5.91555e-07 1.23574e-06 -0.000300552
0.000822627 7.47e-05 -2.52201e-07
7.47e-05 9.19141e-06 -1.29933e-06
-2.52201e-07 -1.29933e-06 -8.03674e-05
0.00190372 0.000154658 2.60337e-06
0.000154658 0.000464588 -3.93265e-06
2.60337e-06 -3.93265e-06 0.000356094
0.000947799 5.07984e-05 -1.69472e-06
5.07984e-05 8.65816e-05 -2.33335e-07
-1.69472e-06 -2.33335e-07 4.66013e-06
0.000904696 1.73156e-05 8.15192e-09
1.73156e-05 5.70988e-05 -1.52825e-07
8.15192e-09 -1.52825e-07 -1.81168e-05
0.00879503 -0.000146818 -2.38721e-05
-0.000146818 0.00261719 -1.2306e-05
-2.38721e-05 -1.2306e-05 0.00174313
-0.00121372 -0.000251098 -1.07737e-05
-0.000251098 -0.000635769 2.9216e-06
-1.07737e-05 2.9216e-06 -0.000738939
0.0017623 -0.000214465 -2.66046e-05
-0.000214465 0.000637245 -1.63177e-05
-2.66046e-05 -1.63177e-05 0.000841095
-0.00221468 -0.000285608 -2.8775e-05
-0.000285608 -0.00145809 -1.2876e-05
-2.8775e-05 -1.2876e-05 -0.00124256
0.0088083 -0.000350687 5.7525e-05
-0.000350687 0.00282637 3.20211e-05
5.7525e-05 3.20211e-05 0.00144447
0.00205024 9.37028e-05 2.10926e-05
9.37028e-05 0.000240993 1.47544e-05
2.10926e-05 1.47544e-05 3.27316e-05
0.0019446 0.000218022 -3.5126e-05
0.000218022 7.6297e-05 -2.38388e-05
-3.5126e-05 -2.38388e-05 -0.000367974
0.00607948 -0.000256254 3.99289e-05
-0.000256254 0.00159276 1.78409e-05
3.99289e-05 1.78409e-05 0.000658121
0.00212278 0.000136369 -1.89994e-05
0.000136369 -4.71429e-05 -4.41616e-05
-1.89994e-05 -4.41616e-05 -0.000429834
0.00222792 0.000248519 1.68567e-05
0.000248519 0.000421477 1.05866e-05
1.68567e-05 1.05866e-05 0.000275944
0.000877248 0.000142214 3.54101e-07
0.000142214 2.79603e-05 -4.63544e-06
3.54101e-07 -4.63544e-06 -0.000113831
0.000930859 7.23297e-05 -1.42707e-06
7.23297e-05 7.47821e-05 1.57781e-06
-1.42707e-06 1.57781e-06 1.56514e-05
0.00196106 0.000192865 -3.3505e-05
0.000192865 0.000591607 -1.89625e-05
-3.3505e-05 -1.89625e-05 0.000482978
0.000352506 0.000174687 -9.62791e-06
0.000174687 -0.000440941 1.30803e-05
-9.62791e-06 1.30803e-05 -0.000521344
0.000195396 -5.27176e-06 -1.38626e-06
-5.27176e-06 -0.000976721 -8.16538e-06
-1.38626e-06 -8.16538e-06 -0.00144726
0.00161608 1.503e-05 -3.81758e-06
1.503e-05 0.000601125 1.09506e-06
-3.81758e-06 1.09506e-06 0.000590335
-0.00110455 5.08799e-06 -1.25782e-05
5.08799e-06 -0.000569149 2.15436e-07
-1.25782e-05 2.15436e-07 -0.000720037
0.0024345 -0.000246446 -3.67498e-05
-0.000246446 0.000524073 8.97997e-06
-3.67498e-05 8.97997e-06 0.000560562
0.00290282 -0.000120282 4.1322e-06
-0.000120282 -2.94255e-05 -2.31051e-05
4.1322e-06 -2.31051e-05 -0.000574913
0.00018334 3.87036e-06 -8.49927e-05
3.87036e-06 3.52351e-05 2.51948e-05
-8.49927e-05 2.51948e-05 -0.000146034
0.00713435 0.000402848 -2.74637e-05
0.000402848 0.00248289 1.64386e-05
-2.74637e-05 1.64386e-05 0.00142331
0.000876805 -0.000133455 2.3808e-06
-0.000133455 -0.00014464 -2.04644e-06
2.3808e-06 -2.04644e-06 -0.00015079
0.00506484 0.000196579 2.43919e-05
0.000196579 0.00135477 6.41752e-06
2.43919e-05 6.41752e-06 0.000650566
0.00302605 7.70817e-05 3.73981e-05
7.70817e-05 0.000119366 -3.19104e-06
3.73981e-05 -3.19104e-06 -0.000250706
0.00318475 -0.000138616 -5.78344e-06
-0.000138616 0.000918384 1.23674e-06
-5.78344e-06 1.23674e-06 0.000863786
0.00120768 4.24061e-05 -4.75684e-05
4.24061e-05 4.67318e-05 -3.58163e-07
-4.75684e-05 -3.58163e-07 -0.000223662
0.00138806 -0.000160524 5.6437e-06
-0.000160524 -3.49425e-05 -3.61886e-06
5.6437e-06 -3.61886e-06 -9.6149e-05
0.00176686 -0.000170758 -1.26839e-06
-0.000170758 3.17417e-06 2.8883e-06
-1.26839e-06 2.8883e-06 -4.70964e-05
0.00237077 -0.000124044 -1.18993e-05
-0.000124044 0.000215866 1.56428e-06
-1.18993e-05 1.56428e-06 0.000169507
0.00132958 -0.000138889 3.465e-06
-0.000138889 -3.89307e-05 8.21238e-07
3.465e-06 8.21238e-07 -0.000147012
0.00176677 -0.000132367 8.09805e-08
-0.000132367 5.30673e-05 1.30328e-06
8.09805e-08 1.30328e-06 -1.74675e-05
0.00175652 -9.36594e-05 -2.66485e-06
-9.36594e-05 -5.20805e-06 3.33899e-06
-2.66485e-06 3.33899e-06 -6.2285e-05
0.00116621 -0.000113027 3.10376e-06
-0.000113027 -0.00010673 2.44007e-06
3.10376e-06 2.44007e-06 -0.000213726
0.00159881 -0.000110122 -3.55793e-07
-0.000110122 1.94878e-05 1.83815e-06
-3.55793e-07 1.83815e-06 -5.36666e-05
0.00181197 -9.3637e-05 -4.3003e-07
-9.3637e-05 0.000114472 2.55969e-06
-4.3003e-07 2.55969e-06 5.11194e-05
0.00127845 -0.00010273 3.52014e-06
-0.00010273 -1.9564e-05 3.68177e-06
3.52014e-06 3.68177e-06 -0.000117989
0.00150709 -9.8705e-05 8.20675e-08
-9.8705e-05 5.66797e-05 1.26476e-06
8.20675e-08 1.26476e-06 -1.8961e-05
0.00167561 -9.01836e-05 2.6732e-07
-9.01836e-05 0.000135732 -3.7698e-07
2.6732e-07 -3.7698e-07 6.3473e-05
0.0015559 -9.36846e-05 -1.89867e-06
-9.36846e-05 0.00013199 1.12272e-06
-1.89867e-06 1.12272e-06 5.33357e-05
0.00172871 -9.66369e-05 1.38642e-06
-9.66369e-05 0.000238321 -2.41108e-06
1.38642e-06 -2.41108e-06 0.000150186
0.00147801 -9.8552e-05 2.07455e-06
-9.8552e-05 0.000117271 4.67601e-06
2.07455e-06 4.67601e-06 2.66501e-05
0.00140413 -9.94662e-05 2.0384e-07
-9.94662e-05 0.000112669 -5.70074e-07
2.0384e-07 -5.70074e-07 1.29666e-05
0.00138435 -9.70372e-05 -1.26915e-06
-9.70372e-05 0.000123353 -1.42882e-06
-1.26915e-06 -1.42882e-06 2.23375e-05
0.000923002 -8.61558e-05 -2.75207e-06
-8.61558e-05 -3.85362e-05 9.81389e-07
-2.75207e-06 9.81389e-07 -0.000142277
0.00129358 -0.000102079 6.07745e-08
-0.000102079 0.000124725 -1.71442e-07
6.07745e-08 -1.71442e-07 1.42467e-05
0.00154565 -0.000114138 3.37687e-06
-0.000114138 0.000232669 2.25495e-07
3.37687e-06 2.25495e-07 0.000115874
0.000994328 -8.05814e-05 -2.02003e-06
-8.05814e-05 6.40964e-05 1.05419e-06
-2.02003e-06 1.05419e-06 -2.53624e-05
0.000889134 -8.55785e-05 -5.74399e-07
-8.55785e-05 -7.10589e-06 6.77599e-07
-5.74399e-07 6.77599e-07 -0.000108835
0.00131062 -0.00010437 2.58988e-06
-0.00010437 0.000190317 -1.57819e-06
2.58988e-06 -1.57819e-06 7.96567e-05
0.00076322 -2.20431e-05 -2.42853e-06
-2.20431e-05 -1.87538e-05 1.64917e-06
-2.42853e-06 1.64917e-06 -8.58992e-05
0.00103385 -7.71071e-05 4.4416e-08
-7.71071e-05 9.84926e-05 -1.86114e-07
4.4416e-08 -1.86114e-07 1.41579e-05
0.00113599 -9.19514e-05 1.30388e-06
-9.19514e-05 0.000144762 -1.28026e-06
1.30388e-06 -1.28026e-06 4.91218e-05
0.000611264 5.36844e-05 -2.0277e-06
5.36844e-05 -7.79107e-05 4.61207e-06
-2.0277e-06 4.61207e-06 -0.000106727
0.000850348 -1.434e-05 -3.08726e-08
-1.434e-05 2.64662e-05 2.15763e-07
-3.08726e-08 2.15763e-07 -3.76953e-05
0.00106112 -6.56122e-05 1.71793e-06
-6.56122e-05 0.000118485 -2.88648e-07
1.71793e-06 -2.88648e-07 3.811e-05
0.00257769 6.61101e-05 -3.17078e-05
6.61101e-05 0.000952922 3.16064e-06
-3.17078e-05 3.16064e-06 0.000961464
0.000687689 4.98589e-05 1.64507e-08
4.98589e-05 -4.27652e-05 -1.14182e-07
1.64507e-08 -1.14182e-07 -6.57276e-05
0.000802911 -1.3201e-05 2.42513e-06
-1.3201e-05 3.7899e-08 -2.23285e-06
2.42513e-06 -2.23285e-06 -5.77712e-05
0.00244303 5.89024e-05 4.0537e-07
5.89024e-05 0.000877124 8.17254e-08
4.0537e-07 8.17254e-08 0.000887996
0.000752003 4.48146e-05 2.29853e-06
4.48146e-05 -1.70704e-05 -4.0345e-06
2.29853e-06 -4.0345e-06 -3.45992e-05
0.0023408 5.2543e-05 2.83156e-05
5.2543e-05 0.000817608 -3.36309e-06
2.83156e-05 -3.36309e-06 0.000830616
0.00102493 7.91267e-05 -3.40624e-08
7.91267e-05 0.000115306 5.07519e-07
-3.40624e-08 5.07519e-07 2.91846e-05
0.000942512 5.51218e-05 3.43224e-07
5.51218e-05 7.38128e-05 1.42667e-07
3.43224e-07 1.42667e-07 -5.68541e-06
0.000843242 -1.1226e-05 -9.7937e-07
-1.1226e-05 1.83964e-05 -5.94395e-07
-9.7937e-07 -5.94395e-07 -5.47295e-05
0.000920877 4.52126e-06 3.4135e-07
4.52126e-06 5.50965e-05 9.49434e-07
3.4135e-07 9.49434e-07 -1.80137e-05
0.000883424 -2.57784e-05 -5.1407e-08
-2.57784e-05 3.56578e-05 1.37843e-07
-5.1407e-08 1.37843e-07 -3.15272e-05
0.000793498 -2.9428e-05 -1.5525e-06
-2.9428e-05 -6.39149e-06 -2.23221e-06
-1.5525e-06 -2.23221e-06 -5.37549e-05
0.000880102 -3.08335e-05 3.19512e-07
-3.08335e-05 2.64719e-05 1.4805e-06
3.19512e-07 1.4805e-06 -3.48594e-05
0.000812636 -3.33242e-05 -2.93065e-08
-3.33242e-05 -2.13621e-06 -9.95502e-08
-2.93065e-08 -9.95502e-08 -4.36891e-05
0.000764534 -3.71776e-05 -2.82882e-06
-3.71776e-05 -2.0526e-05 -3.68715e-06
-2.82882e-06 -3.68715e-06 -3.33703e-05
0.00229141 -4.66129e-05 -2.54361e-05
-4.66129e-05 0.000783595 -3.51567e-06
-2.54361e-05 -3.51567e-06 0.000798519
0.000758608 -3.11138e-05 -6.28197e-08
-3.11138e-05 -3.09582e-05 1.78871e-08
-6.28197e-08 1.78871e-08 -4.11957e-05
0.000820559 -2.84045e-05 1.47459e-06
-2.84045e-05 -3.30047e-06 2.02518e-06
1.47459e-06 2.02518e-06 -4.11748e-05
0.00229237 -4.15027e-05 -1.00822e-06
-4.15027e-05 0.000776318 8.06181e-08
-1.00822e-06 8.06181e-08 0.000792806
0.000746925 -2.7392e-05 1.80169e-06
-2.7392e-05 -4.23442e-05 3.52083e-06
1.80169e-06 3.52083e-06 -5.08875e-05
0.00225868 -3.60997e-05 1.89137e-05
-3.60997e-05 0.000751844 3.80136e-06
1.89137e-05 3.80136e-06 0.000769932
0.00686875 9.53736e-07 4.15048e-05
9.53736e-07 0.00202463 4.90687e-06
4.15048e-05 4.90687e-06 0.00134085
-0.00179143 -6.56918e-05 3.95742e-06
-6.56918e-05 -0.000959318 1.28522e-06
3.95742e-06 1.28522e-06 -0.000849405
-0.000581651 -5.77036e-05 -1.95448e-05
-5.77036e-05 -0.000415954 -2.01385e-06
-1.95448e-05 -2.01385e-06 -0.000548833
0.000928845 1.16253e-05 6.37143e-07
1.16253e-05 6.86589e-05 4.37457e-07
6.37143e-07 4.37457e-07 -1.46024e-05
0.000892762 7.02519e-05 5.47396e-08
7.02519e-05 6.21528e-05 -3.97032e-07
5.47396e-08 -3.97032e-07 -2.24681e-05
0.00106445 7.01642e-05 3.26738e-07
7.01642e-05 0.000152177 -4.27443e-08
3.26738e-07 -4.27443e-08 6.27158e-05
0.00103287 8.73113e-05 -6.45851e-07
8.73113e-05 0.000128002 -1.84995e-07
-6.45851e-07 -1.84995e-07 3.88003e-05
0.00113702 9.39457e-05 4.68255e-06
9.39457e-05 0.000176546 1.69792e-06
4.68255e-06 1.69792e-06 8.1651e-05
0.00071632 7.41179e-05 -1.08602e-06
7.41179e-05 -2.40854e-05 1.3834e-06
-1.08602e-06 1.3834e-06 -0.000114086
0.000677554 5.0398e-05 1.08948e-07
5.0398e-05 -4.79625e-05 1.34011e-08
1.08948e-07 1.34011e-08 -0.000135295
0.00067858 7.26706e-05 5.2199e-07
7.26706e-05 -4.45429e-05 -1.07324e-09
5.2199e-07 -1.07324e-09 -0.000139479
0.000800242 6.65492e-05 4.34589e-07
6.65492e-05 5.89601e-06 6.96543e-08
4.34589e-07 6.96543e-08 -8.53457e-05
0.000371417 7.42567e-05 1.09976e-06
7.42567e-05 -0.00024211 7.68971e-07
1.09976e-06 7.68971e-07 -0.000335917
0.00279446 0.000181276 9.81125e-07
0.000181276 0.000905858 -2.67087e-07
9.81125e-07 -2.67087e-07 0.000802403
0.00187391 0.000169734 2.22125e-06
0.000169734 0.000283152 -1.06717e-06
2.22125e-06 -1.06717e-06 0.000162089
0.00130936 0.000131893 1.19048e-06
0.000131893 0.000175772 -5.38547e-07
1.19048e-06 -5.38547e-07 7.11442e-05
0.00107049 4.97339e-05 -2.71037e-06
4.97339e-05 0.000161669 9.54577e-07
-2.71037e-06 9.54577e-07 7.88095e-05
0.00201999 -7.97008e-05 -1.77477e-05
-7.97008e-05 -0.000207441 -1.42188e-05
-1.77477e-05 -1.42188e-05 -0.000404571
0.00432043 -0.000154097 1.91941e-06
-0.000154097 0.000823516 -3.40727e-07
1.91941e-06 -3.40727e-07 1.89896e-05
0.00375402 -0.00036801 -3.70214e-05
-0.00036801 0.00170559 -2.40909e-05
-3.70214e-05 -2.40909e-05 0.0017476
0.00615602 -0.000132553 0.000154801
-0.000132553 0.0016793 4.74666e-05
0.000154801 4.74666e-05 0.000606034
0.00320911 0.000242877 4.4361e-05
0.000242877 0.00073802 4.85959e-05
4.4361e-05 4.85959e-05 0.000514559
0.00168136 8.71373e-05 -3.58969e-05
8.71373e-05 -3.3573e-05 -1.19454e-05
-3.58969e-05 -1.19454e-05 -0.0002477
0.00153251 0.000152603 2.41439e-05
0.000152603 -5.49599e-05 1.53284e-05
2.41439e-05 1.53284e-05 -8.14657e-05
0.00192214 0.000238709 -1.47628e-06
0.000238709 0.000273946 5.31013e-06
-1.47628e-06 5.31013e-06 0.000147119
0.000209784 0.000105141 -2.42365e-06
0.000105141 -0.000292658 3.14061e-06
-2.42365e-06 3.14061e-06 -0.00043113
0.00182109 0.000247849 -6.44819e-05
0.000247849 0.000222104 -4.94093e-05
-6.44819e-05 -4.94093e-05 0.000164555
0.00304554 -4.94264e-05 -0.000131246
-4.94264e-05 0.000814675 -2.96167e-06
-0.000131246 -2.96167e-06 0.000461582
0.00652548 4.22907e-05 9.58433e-06
4.22907e-05 0.00217863 -3.7029e-06
9.58433e-06 -3.7029e-06 0.00158115
-0.0041424 -4.31228e-05 -1.19507e-05
-4.31228e-05 -0.00237528 5.47612e-06
-1.19507e-05 5.47612e-06 -0.00220809
0.000955998 -0.000139311 -8.29153e-07
-0.000139311 -0.000127743 8.68776e-06
-8.29153e-07 8.68776e-06 -0.000120416
0.00373506 6.59937e-05 5.53993e-05
6.59937e-05 0.000507368 2.97664e-06
5.53993e-05 2.97664e-06 0.000207173
0.0010386 -6.33929e-05 4.30373e-05
-6.33929e-05 -0.000404061 7.58082e-06
4.30373e-05 7.58082e-06 -0.00100803
0.00160002 -0.00010852 3.36479e-06
-0.00010852 0.000132552 1.55934e-06
3.36479e-06 1.55934e-06 9.95022e-05
0.00147432 9.84031e-05 -1.41154e-06
9.84031e-05 5.99432e-05 -3.9514e-06
-1.41154e-06 -3.9514e-06 -0.000179917
0.00314423 -3.67491e-05 1.31331e-06
-3.67491e-05 0.000758815 -1.08052e-05
1.31331e-06 -1.08052e-05 0.000706312
0.00129679 6.69584e-05 1.50428e-05
6.69584e-05 -8.65935e-05 -3.15502e-06
1.50428e-05 -3.15502e-06 -0.000185233
0.00159841 -0.000167689 5.96572e-06
-0.000167689 -5.40417e-05 -1.54601e-06
5.96572e-06 -1.54601e-06 -0.000114988
0.00201417 -0.000114631 1.00611e-07
-0.000114631 5.04765e-05 -2.22496e-06
1.00611e-07 -2.22496e-06 2.60784e-06
0.00221017 -3.14495e-05 2.10419e-07
-3.14495e-05 0.000214365 -1.63232e-06
2.10419e-07 -1.63232e-06 0.000149839
0.00172228 -0.000128898 9.59993e-06
-0.000128898 4.24733e-05 4.01292e-07
9.59993e-06 4.01292e-07 -2.94601e-05
0.00188314 -9.51717e-05 2.73954e-06
-9.51717e-05 7.17709e-05 3.95647e-08
2.73954e-06 3.95647e-08 1.1281e-05
0.00190732 -5.67233e-05 -1.17108e-06
-5.67233e-05 0.000120952 2.04505e-06
-1.17108e-06 2.04505e-06 4.02142e-05
0.00146659 -0.000107303 5.3674e-06
-0.000107303 -3.98156e-05 2.84474e-06
5.3674e-06 2.84474e-06 -0.000114868
0.00175993 -9.32606e-05 1.17622e-06
-9.32606e-05 9.94242e-05 9.34875e-07
1.17622e-06 9.34875e-07 3.35232e-05
0.00184874 -7.51904e-05 -4.12861e-07
-7.51904e-05 0.000162316 1.49449e-06
-4.12861e-07 1.49449e-06 8.28433e-05
0.001486 -9.88256e-05 2.61302e-06
-9.88256e-05 4.84157e-05 3.20762e-06
2.61302e-06 3.20762e-06 -2.83092e-05
0.0015252 -8.97244e-05 4.96982e-08
-8.97244e-05 6.81213e-05 -4.16709e-07
4.96982e-08 -4.16709e-07 -4.26303e-06
0.0014788 -8.44766e-05 2.08935e-06
-8.44766e-05 6.8555e-05 -7.18152e-08
2.08935e-06 -7.18152e-08 -1.8446e-05
0.00129993 -8.83869e-05 -3.62633e-07
-8.83869e-05 3.6471e-06 3.73674e-06
-3.62633e-07 3.73674e-06 -7.25917e-05
0.00155444 -9.18666e-05 -1.09622e-06
-9.18666e-05 0.000149175 -8.88454e-07
-1.09622e-06 -8.88454e-07 6.25165e-05
0.00168751 -9.45931e-05 5.64462e-08
-9.45931e-05 0.000238001 -1.28569e-06
5.64462e-08 -1.28569e-06 0.000142874
0.00140467 -9.85101e-05 1.49158e-06
-9.85101e-05 0.000112357 2.01554e-06
1.49158e-06 2.01554e-06 1.23101e-05
0.00138321 -9.61548e-05 2.55398e-07
-9.61548e-05 0.000123077 -3.71178e-07
2.55398e-07 -3.71178e-07 2.16924e-05
0.00144081 -9.58224e-05 -1.67483e-06
-9.58224e-05 0.000178179 -4.19156e-07
-1.67483e-06 -4.19156e-07 7.91367e-05
0.000762695 -7.3499e-05 -3.31946e-06
-7.3499e-05 -8.99077e-05 1.39386e-06
-3.31946e-06 1.39386e-06 -0.00018311
0.00101407 -8.84549e-05 -4.5398e-07
-8.84549e-05 1.1042e-05 4.52259e-07
-4.5398e-07 4.52259e-07 -9.19192e-05
0.001281 -0.000100797 2.34992e-06
-0.000100797 0.000118964 -4.21604e-07
2.34992e-06 -4.21604e-07 8.12988e-06
0.000824656 -4.52729e-05 -2.97676e-06
-4.52729e-05 6.57487e-06 1.60094e-06
-2.97676e-06 1.60094e-06 -6.44055e-05
0.00104563 -8.21542e-05 1.02551e-07
-8.21542e-05 8.90504e-05 1.29945e-08
1.02551e-07 1.29945e-08 -4.42769e-07
0.000999294 -8.92271e-05 9.71026e-07
-8.92271e-05 5.09287e-05 -5.365e-07
9.71026e-07 -5.365e-07 -4.99477e-05
0.000640457 5.29864e-05 -2.80965e-06
5.29864e-05 -5.53171e-05 4.40051e-06
-2.80965e-06 4.40051e-06 -9.06568e-05
0.00086275 -2.53975e-05 7.96559e-08
-2.53975e-05 3.25603e-05 5.84413e-08
7.96559e-08 5.84413e-08 -3.52262e-05
0.00110426 -8.02127e-05 1.9861e-06
-8.02127e-05 0.000133184 -9.88565e-07
1.9861e-06 -9.88565e-07 4.85441e-05
0.00277671 7.41099e-05 -3.53821e-05
7.41099e-05 0.00106132 3.15573e-06
-3.53821e-05 3.15573e-06 0.00106697
0.000673783 5.05788e-05 5.10136e-07
5.05788e-05 -4.55386e-05 -1.11998e-08
5.10136e-07 -1.11998e-08 -7.42424e-05
0.000860532 -1.67502e-05 2.84655e-06
-1.67502e-05 3.00277e-05 -1.88328e-06
2.84655e-06 -1.88328e-06 -3.38282e-05
0.00261357 6.60897e-05 4.30123e-07
6.60897e-05 0.000971645 9.95354e-08
4.30123e-07 9.95354e-08 0.00097985
0.000722464 5.14822e-05 1.72776e-06
5.14822e-05 -2.36518e-05 -4.38178e-06
1.72776e-06 -4.38178e-06 -4.72029e-05
0.00247827 5.8928e-05 3.16528e-05
5.8928e-05 0.000895841 -3.32784e-06
3.16528e-05 -3.32784e-06 0.000906434
0.00108573 8.71132e-05 -4.55328e-07
8.71132e-05 0.000142638 -5.3452e-07
-4.55328e-07 -5.3452e-07 5.12159e-05
0.00107141 8.13601e-05 2.16153e-07
8.13601e-05 0.000139375 1.30327e-07
2.16153e-07 1.30327e-07 5.3503e-05
0.000952852 3.66862e-05 -1.27781e-06
3.66862e-05 7.51825e-05 -1.99612e-07
-1.27781e-06 -1.99612e-07 -2.96596e-06
0.00091243 7.00601e-05 4.10919e-07
7.00601e-05 6.11829e-05 -9.29701e-08
4.10919e-07 -9.29701e-08 -1.99808e-05
0.000847067 -7.68898e-07 -3.89162e-07
-7.68898e-07 2.12036e-05 -5.53907e-08
-3.89162e-07 -5.53907e-08 -5.28936e-05
0.000790362 -7.13182e-06 -2.35832e-06
-7.13182e-06 -3.82174e-06 -1.69414e-06
-2.35832e-06 -1.69414e-06 -5.92206e-05
0.000857721 -3.13923e-05 3.69989e-07
-3.13923e-05 2.26908e-05 1.25073e-06
3.69989e-07 1.25073e-06 -4.55302e-05
0.000806128 -3.10329e-05 6.59682e-08
-3.10329e-05 3.1871e-07 -1.81526e-07
6.59682e-08 -1.81526e-07 -4.71111e-05
0.000750117 -4.44929e-05 -2.52856e-06
-4.44929e-05 -1.86436e-05 -3.86194e-06
-2.52856e-06 -3.86194e-06 -3.56611e-05
0.000825962 -3.36959e-05 1.30467e-06
-3.36959e-05 4.10251e-06 2.25308e-06
1.30467e-06 2.25308e-06 -3.7286e-05
0.000746602 -3.56727e-05 2.50533e-08
-3.56727e-05 -3.01143e-05 -2.34185e-08
2.50533e-08 -2.34185e-08 -4.26789e-05
0.00233713 -5.21337e-05 -2.78391e-05
-5.21337e-05 0.000815162 -3.35323e-06
-2.78391e-05 -3.35323e-06 0.000828209
0.00230759 -4.67562e-05 -5.85324e-07
-4.67562e-05 0.000791056 7.97182e-08
-5.85324e-07 7.97182e-08 0.000806063
0.000743746 -3.04202e-05 2.50972e-06
-3.04202e-05 -3.84463e-05 3.55699e-06
2.50972e-06 3.55699e-06 -4.86081e-05
0.00229829 -4.16335e-05 2.181e-05
-4.16335e-05 0.000778739 3.70816e-06
2.181e-05 3.70816e-06 0.000795299
0.00081393 -6.0203e-05 -5.70602e-05
-6.0203e-05 -0.000467636 -2.93961e-06
-5.70602e-05 -2.93961e-06 -0.000685635
0.00173155 -0.000112973 -1.07202e-06
-0.000112973 -0.000360934 -2.16967e-06
-1.07202e-06 -2.16967e-06 -0.000950572
0.00304331 -0.000273753 -4.19004e-05
-0.000273753 0.00121298 -8.10435e-06
-4.19004e-05 -8.10435e-06 0.00132184
0.00118701 9.95414e-05 5.14268e-06
9.95414e-05 0.00016449 1.67426e-06
5.14268e-06 1.67426e-06 6.51482e-05
0.00111955 7.19383e-05 5.54006e-07
7.19383e-05 0.000180967 -7.1835e-07
5.54006e-07 -7.1835e-07 9.167e-05
0.000958692 8.41856e-05 -3.85769e-07
8.41856e-05 9.0795e-05 -6.30751e-07
-3.85769e-07 -6.30751e-07 1.75163e-06
0.000925802 8.33757e-05 1.3818e-07
8.33757e-05 8.36086e-05 2.79794e-07
1.3818e-07 2.79794e-07 -7.5262e-06
0.00103526 9.00598e-05 -1.20755e-07
9.00598e-05 0.000127418 -6.02865e-07
-1.20755e-07 -6.02865e-07 3.19789e-05
0.000689732 8.0701e-05 -4.93644e-07
8.0701e-05 -6.43068e-05 1.66573e-06
-4.93644e-07 1.66573e-06 -0.000149356
0.00107071 9.05603e-05 8.71826e-07
9.05603e-05 0.000154426 -1.53854e-06
8.71826e-07 -1.53854e-06 5.57777e-05
0.00100217 6.59136e-05 -7.90152e-07
6.59136e-05 0.000114233 1.06595e-06
-7.90152e-07 1.06595e-06 2.08475e-05
0.000979508 9.9357e-05 7.86391e-08
9.9357e-05 6.36988e-05 -1.1723e-07
7.86391e-08 -1.1723e-07 -2.99743e-05
0.00207137 0.000154091 5.48322e-07
0.000154091 0.000553683 1.81734e-06
5.48322e-07 1.81734e-06 0.000452336
0.00157214 0.000144448 1.30588e-06
0.000144448 0.000177203 -1.0738e-06
1.30588e-06 -1.0738e-06 6.62262e-05
0.0019007 0.000135195 3.87507e-06
0.000135195 0.000106943 5.34557e-06
3.87507e-06 5.34557e-06 -1.11545e-05
0.00136334 0.000150642 1.36809e-06
0.000150642 2.86531e-05 4.38395e-07
1.36809e-06 4.38395e-07 -9.16739e-05
0.000799285 0.000110017 -1.20592e-06
0.000110017 -7.75048e-05 3.23798e-06
-1.20592e-06 3.23798e-06 -0.000178018
0.000668716 1.58159e-05 -9.46457e-06
1.58159e-05 -0.000356331 2.59764e-06
-9.46457e-06 2.59764e-06 -0.000366399
0.0034227 -7.20873e-05 -8.57047e-06
-7.20873e-05 0.000285707 8.7926e-07
-8.57047e-06 8.7926e-07 3.00866e-05
0.00142562 -0.000178466 4.15239e-06
-0.000178466 -0.000492474 9.6231e-07
4.15239e-06 9.6231e-07 -0.00120082
0.0027754 0.000172247 3.96264e-05
0.000172247 0.000213847 2.28848e-05
3.96264e-05 2.28848e-05 -0.000129266
0.0012527 0.000134609 -4.13951e-06
0.000134609 -0.00014782 8.66237e-07
-4.13951e-06 8.66237e-07 -0.0001836
0.000349372 0.000171297 -1.55899e-05
0.000171297 -0.000437849 -1.04547e-05
-1.55899e-05 -1.04547e-05 -0.00057316
0.0028415 -6.21371e-05 9.75985e-06
-6.21371e-05 0.000702285 -7.05038e-06
9.75985e-06 -7.05038e-06 0.000617894
0.00106234 -1.14229e-05 -2.22598e-05
-1.14229e-05 2.11233e-06 2.86643e-06
-2.22598e-05 2.86643e-06 -0.00030441
0.000699656 0.000176925 5.03561e-05
0.000176925 -0.000783445 -5.32406e-06
5.03561e-05 -5.32406e-06 -0.00134504
2.98181e-05 -7.00092e-05 -6.5902e-06
-7.00092e-05 -0.000659439 1.23133e-05
-6.5902e-06 1.23133e-05 -0.000658796
0.0035674 0.000157376 4.07385e-05
0.000157376 0.000920601 -6.34839e-06
4.07385e-05 -6.34839e-06 0.000642161
0.00174812 -2.069e-05 5.57434e-06
-2.069e-05 4.03908e-05 -1.95487e-06
5.57434e-06 -1.95487e-06 -3.79614e-06
0.00210252 8.32235e-05 1.78526e-06
8.32235e-05 0.000331492 -4.10741e-06
1.78526e-06 -4.10741e-06 0.000240385
0.00103789 3.86007e-05 1.04049e-06
3.86007e-05 -0.000351606 -3.51856e-06
1.04049e-06 -3.51856e-06 -0.000438792
0.00238612 5.85041e-05 -2.35014e-06
5.85041e-05 0.000362553 -5.03868e-06
-2.35014e-06 -5.03868e-06 0.000268191
0.00166786 -0.000104676 5.04322e-06
-0.000104676 -0.000109164 -2.22902e-06
5.04322e-06 -2.22902e-06 -0.000155754
0.00197219 -3.06726e-05 4.24244e-06
-3.06726e-05 9.12498e-05 8.98589e-08
4.24244e-06 8.98589e-08 2.26308e-05
0.00192022 -3.84911e-06 -3.68427e-07
-3.84911e-06 0.000160179 -2.63064e-06
-3.68427e-07 -2.63064e-06 6.59354e-05
0.00213986 -9.92491e-05 3.16282e-06
-9.92491e-05 0.000211944 4.22399e-07
3.16282e-06 4.22399e-07 0.000147773
0.0019349 -5.89439e-05 -2.66938e-07
-5.89439e-05 0.000134193 -6.91438e-07
-2.66938e-07 -6.91438e-07 5.23652e-05
0.00184054 -3.95367e-05 -1.41671e-06
-3.95367e-05 0.000134258 3.25417e-07
-1.41671e-06 3.25417e-07 3.56325e-05
0.00160126 -9.11557e-05 1.56827e-06
-9.11557e-05 3.17096e-05 -1.32257e-07
1.56827e-06 -1.32257e-07 -3.66191e-05
0.00173524 -7.60755e-05 -2.06983e-07
-7.60755e-05 0.000117531 -1.59509e-06
-2.06983e-07 -1.59509e-06 3.97129e-05
0.00149643 -6.68728e-05 3.87278e-07
-6.68728e-05 2.77471e-05 1.81338e-06
3.87278e-07 1.81338e-06 -6.57721e-05
0.00136459 -8.90162e-05 -6.42772e-07
-8.90162e-05 -4.76973e-06 -8.39165e-07
-6.42772e-07 -8.39165e-07 -7.72304e-05
0.00147003 -8.38721e-05 3.87185e-07
-8.38721e-05 6.47129e-05 -8.7551e-07
3.87185e-07 -8.7551e-07 -2.22998e-05
0.00145487 -8.40318e-05 3.0677e-07
-8.40318e-05 7.95814e-05 -7.36363e-09
3.0677e-07 -7.36363e-09 -1.65371e-05
0.00138118 -8.71687e-05 -2.17469e-06
-8.71687e-05 6.05856e-05 1.85949e-06
-2.17469e-06 1.85949e-06 -2.46125e-05
0.00151969 -8.93855e-05 -2.57551e-07
-8.93855e-05 0.000151434 -6.16523e-07
-2.57551e-07 -6.16523e-07 5.70657e-05
0.00141751 -8.58016e-05 -1.49257e-06
-8.58016e-05 0.000126247 -3.82365e-07
-1.49257e-06 -3.82365e-07 2.9176e-05
0.00138313 -9.52985e-05 1.73285e-06
-9.52985e-05 0.000123303 6.62959e-07
1.73285e-06 6.62959e-07 2.15529e-05
0.00125316 -8.97979e-05 3.63815e-07
-8.97979e-05 8.29885e-05 -2.13312e-07
3.63815e-07 -2.13312e-07 -1.6542e-05
0.00126173 -8.49717e-05 -3.11687e-06
-8.49717e-05 0.0001226 6.26937e-07
-3.11687e-06 6.26937e-07 2.98247e-05
0.000897313 -5.76022e-05 -3.62507e-06
-5.76022e-05 2.13809e-05 1.64649e-06
-3.62507e-06 1.64649e-06 -5.33788e-05
0.000879241 -7.72016e-05 -7.43108e-07
-7.72016e-05 -2.82493e-05 5.38415e-07
-7.43108e-07 5.38415e-07 -0.000120617
0.00108766 -9.00319e-05 1.62417e-06
-9.00319e-05 5.18473e-05 -1.78866e-07
1.62417e-06 -1.78866e-07 -5.02953e-05
0.000650444 -5.52693e-08 -5.4551e-06
-5.52693e-08 -4.76259e-05 4.35666e-06
-5.4551e-06 4.35666e-06 -8.65981e-05
0.000879886 -4.69542e-05 1.36943e-07
-4.69542e-05 3.49146e-05 1.7008e-09
1.36943e-07 1.7008e-09 -3.65868e-05
0.0010959 -8.38359e-05 2.34401e-06
-8.38359e-05 0.000113277 -1.09115e-06
2.34401e-06 -1.09115e-06 2.37613e-05
0.00288561 8.08856e-05 -3.88113e-05
8.08856e-05 0.00112714 3.11304e-06
-3.88113e-05 3.11304e-06 0.0011294
0.00068402 2.26507e-05 -1.06333e-07
2.26507e-05 -3.85944e-05 -1.23845e-07
-1.06333e-07 -1.23845e-07 -7.15e-05
0.000917333 -3.0752e-05 3.21986e-06
-3.0752e-05 5.99229e-05 -1.9033e-06
3.21986e-06 -1.9033e-06 -7.92107e-06
0.00275474 7.27401e-05 7.27416e-07
7.27401e-05 0.00105107 1.2811e-07
7.27416e-07 1.2811e-07 0.00105643
0.000713198 3.76257e-05 4.29696e-06
3.76257e-05 -2.60008e-05 -4.2028e-06
4.29696e-06 -4.2028e-06 -5.40133e-05
0.0026336 6.54901e-05 3.51867e-05
6.54901e-05 0.000982211 -3.41263e-06
3.51867e-05 -3.41263e-06 0.000990158
0.000888654 8.48463e-05 -4.12214e-07
8.48463e-05 2.01158e-05 -5.04749e-07
-4.12214e-07 -5.04749e-07 -7.65349e-05
0.00101602 8.38385e-05 -1.92481e-08
8.38385e-05 0.00010677 -4.49867e-07
-1.92481e-08 -4.49867e-07 1.5828e-05
0.00107762 7.2716e-05 -9.79819e-07
7.2716e-05 0.000133294 -1.04289e-07
-9.79819e-07 -1.04289e-07 5.10353e-05
0.00111215 8.34706e-05 6.66295e-08
8.34706e-05 0.000160411 -6.24433e-07
6.66295e-08 -6.24433e-07 7.48014e-05
0.000945193 3.93876e-05 -6.12025e-07
3.93876e-05 7.14602e-05 -2.45575e-07
-6.12025e-07 -2.45575e-07 -6.14874e-06
0.00082171 5.11345e-06 -2.3557e-06
5.11345e-06 1.51594e-05 -1.32903e-06
-2.3557e-06 -1.32903e-06 -4.70351e-05
0.000848199 1.11037e-05 3.57787e-07
1.11037e-05 2.18996e-05 1.00156e-07
3.57787e-07 1.00156e-07 -5.26062e-05
0.000810721 -2.53015e-05 -1.1071e-07
-2.53015e-05 7.22435e-06 8.21658e-09
-1.1071e-07 8.21658e-09 -4.78226e-05
0.000721768 -5.18208e-05 -2.07213e-06
-5.18208e-05 -2.33199e-05 -3.94273e-06
-2.07213e-06 -3.94273e-06 -4.59265e-05
0.000817775 -3.33096e-05 1.47247e-06
-3.33096e-05 6.6975e-06 2.32731e-06
1.47247e-06 2.32731e-06 -4.08333e-05
0.0007276 -4.21353e-05 1.44535e-08
-4.21353e-05 -3.12472e-05 -5.89088e-08
1.44535e-08 -5.89088e-08 -4.76807e-05
0.00243211 -5.8204e-05 -3.06862e-05
-5.8204e-05 0.000872106 -3.20627e-06
-3.06862e-05 -3.20627e-06 0.000882883
0.000735689 -3.44937e-05 3.00678e-06
-3.44937e-05 -3.60851e-05 3.58647e-06
3.00678e-06 3.58647e-06 -4.84003e-05
0.00233387 -5.21944e-05 -3.8579e-07
-5.21944e-05 0.000812334 7.26326e-08
-3.8579e-07 7.26326e-08 0.000825593
0.00231998 -4.67891e-05 2.46583e-05
-4.67891e-05 0.000796699 3.57457e-06
2.46583e-05 3.57457e-06 0.000811788
0.000573633 -4.42898e-05 -2.64485e-06
-4.42898e-05 -0.000413443 9.23924e-07
-2.64485e-06 9.23924e-07 -0.000443774
0.00298429 -4.60239e-05 9.18142e-08
-4.60239e-05 0.000341504 1.01064e-05
9.18142e-08 1.01064e-05 4.70295e-05
0.00542335 7.67953e-05 -7.32816e-05
7.67953e-05 0.00158543 -8.87208e-06
-7.32816e-05 -8.87208e-06 0.000924742
0.000818375 8.29444e-05 2.68336e-06
8.29444e-05 -4.30892e-05 1.42546e-06
2.68336e-06 1.42546e-06 -0.000133912
0.00137223 0.000110786 3.60361e-06
0.000110786 0.000172586 -1.12559e-06
3.60361e-06 -1.12559e-06 6.71025e-05
0.000839609 8.66665e-05 2.00058e-07
8.66665e-05 -3.91085e-06 -6.26394e-07
2.00058e-07 -6.26394e-07 -0.000102123
0.00110876 9.14815e-05 -4.09153e-07
9.14815e-05 0.000176695 -1.83757e-06
-4.09153e-07 -1.83757e-06 8.46668e-05
0.00096533 8.75161e-05 -6.81644e-07
8.75161e-05 9.42038e-05 -1.05127e-06
-6.81644e-07 -1.05127e-06 -1.86884e-06
0.000995422 9.46811e-05 1.88085e-06
9.46811e-05 8.13888e-05 1.14787e-06
1.88085e-06 1.14787e-06 -5.49213e-06
0.0017299 0.00013819 -2.09096e-06
0.00013819 0.000267996 -2.83107e-06
-2.09096e-06 -2.83107e-06 0.000162235
0.00146433 0.00011924 1.19016e-06
0.00011924 0.000309173 -4.24507e-07
1.19016e-06 -4.24507e-07 0.000215762
0.000930899 0.000110827 -1.50925e-06
0.000110827 -3.85721e-06 4.60026e-06
-1.50925e-06 4.60026e-06 -0.000102604
0.00154155 0.000143115 -1.23548e-06
0.000143115 0.0001642 -6.25239e-08
-1.23548e-06 -6.25239e-08 5.395e-05
0.0014497 0.000117145 -1.83546e-06
0.000117145 -5.55731e-05 -2.19653e-07
-1.83546e-06 -2.19653e-07 -0.000174734
0.00164311 3.23051e-05 5.81394e-06
3.23051e-05 -7.62452e-05 4.2676e-06
5.81394e-06 4.2676e-06 -0.000163842
0.00207243 0.000137951 3.15899e-06
0.000137951 0.000198085 1.62026e-06
3.15899e-06 1.62026e-06 8.04812e-05
0.00123365 0.000143479 -3.0966e-06
0.000143479 -3.72332e-05 1.76118e-06
-3.0966e-06 1.76118e-06 -0.000156459
0.00125761 1.16872e-05 1.08429e-06
1.16872e-05 -6.64817e-05 -4.93938e-07
1.08429e-06 -4.93938e-07 -7.97763e-05
0.00443071 -0.000141453 4.69366e-05
-0.000141453 0.00066023 2.27736e-05
4.69366e-05 2.27736e-05 0.000365872
0.0018934 0.000135545 -2.79018e-07
0.000135545 0.000207845 -6.94509e-06
-2.79018e-07 -6.94509e-06 0.000163516
0.00199049 -3.32251e-06 3.1398e-06
-3.32251e-06 0.000240896 -3.69942e-06
3.1398e-06 -3.69942e-06 0.00017673
0.00166918 -4.24891e-05 -6.99341e-07
-4.24891e-05 0.000147679 6.29621e-07
-6.99341e-07 6.29621e-07 4.96356e-05
0.000744342 6.44139e-05 5.85538e-05
6.44139e-05 -0.000357813 1.75707e-06
5.85538e-05 1.75707e-06 -0.000727826
0.000468347 -1.5525e-05 -3.55259e-06
-1.5525e-05 -0.000606539 1.94459e-06
-3.55259e-06 1.94459e-06 -0.000647614
0.00259889 8.82758e-05 -2.32002e-05
8.82758e-05 0.000602138 4.14659e-06
-2.32002e-05 4.14659e-06 0.000521145
0.00114627 3.84291e-05 -5.50805e-07
3.84291e-05 -0.000305976 4.7758e-06
-5.50805e-07 4.7758e-06 -0.000386855
0.00216735 5.2628e-05 1.9962e-06
5.2628e-05 0.000234044 6.92117e-07
1.9962e-06 6.92117e-07 0.00014238
0.00183205 2.20055e-05 -1.21942e-06
2.20055e-05 0.000100738 1.98842e-07
-1.21942e-06 1.98842e-07 1.13737e-05
0.00154483 2.96342e-05 1.09439e-06
2.96342e-05 -6.34941e-05 -2.15363e-06
1.09439e-06 -2.15363e-06 -0.000143666
0.0017431 -2.89235e-05 6.95544e-06
-2.89235e-05 -3.13751e-05 2.00143e-06
6.95544e-06 2.00143e-06 -0.000103398
0.00183234 -3.92656e-06 -2.09722e-06
-3.92656e-06 0.000107071 2.29503e-07
-2.09722e-06 2.29503e-07 1.43415e-05
0.0016573 3.06957e-07 -1.60921e-08
3.06957e-07 4.82394e-05 -2.8217e-06
-1.60921e-08 -2.8217e-06 -5.01697e-05
0.0019832 -6.09e-05 -1.66804e-06
-6.09e-05 0.000160509 -1.45416e-06
-1.66804e-06 -1.45416e-06 7.78632e-05
0.00183289 -3.99038e-05 -3.36628e-09
-3.99038e-05 0.000134207 -4.59474e-07
-3.36628e-09 -4.59474e-07 3.8011e-05
0.00156868 -2.9824e-05 -5.93375e-07
-2.9824e-05 3.25189e-05 3.21102e-08
-5.93375e-07 3.21102e-08 -6.74039e-05
0.0016324 -7.69792e-05 -2.62122e-06
-7.69792e-05 7.81399e-05 -3.60963e-06
-2.62122e-06 -3.60963e-06 1.9351e-06
0.00158687 -6.73673e-05 4.81239e-07
-6.73673e-05 7.12552e-05 3.29562e-07
4.81239e-07 3.29562e-07 -2.24312e-05
0.00152479 -6.90715e-05 -3.38402e-07
-6.90715e-05 6.3598e-05 8.28991e-07
-3.38402e-07 8.28991e-07 -3.55149e-05
0.0014622 -8.32755e-05 -1.27022e-06
-8.32755e-05 6.13417e-05 -1.67295e-06
-1.27022e-06 -1.67295e-06 -2.56808e-05
0.00145885 -8.32063e-05 1.39645e-07
-8.32063e-05 8.10961e-05 -4.9338e-07
1.39645e-07 -4.9338e-07 -1.49373e-05
0.00140133 -8.16189e-05 -1.26324e-06
-8.16189e-05 8.06659e-05 2.53892e-07
-1.26324e-06 2.53892e-07 -1.8312e-05
0.0013499 -8.41873e-05 -1.3506e-07
-8.41873e-05 6.38692e-05 6.12715e-07
-1.3506e-07 6.12715e-07 -2.97461e-05
0.00127314 -8.17743e-05 -1.82473e-07
-8.17743e-05 5.33722e-05 -2.47678e-07
-1.82473e-07 -2.47678e-07 -4.3452e-05
0.00122338 -7.75171e-05 -3.2202e-06
-7.75171e-05 6.8186e-05 5.03318e-07
-3.2202e-06 5.03318e-07 -2.42145e-05
0.00106236 -8.37108e-05 2.26723e-06
-8.37108e-05 -1.37213e-05 -6.43503e-08
2.26723e-06 -6.43503e-08 -0.000113753
0.00106302 -7.82258e-05 1.86507e-07
-7.82258e-05 2.18258e-05 3.29612e-08
1.86507e-07 3.29612e-08 -7.09418e-05
0.000959925 -6.1328e-05 -4.46591e-06
-6.1328e-05 2.10256e-05 1.67288e-06
-4.46591e-06 1.67288e-06 -5.51433e-05
0.00059867 -2.09356e-05 -6.62773e-06
-2.09356e-05 -7.56044e-05 4.56253e-06
-6.62773e-06 4.56253e-06 -0.000119612
0.000925711 -5.99374e-05 1.47555e-07
-5.99374e-05 3.61718e-05 3.37954e-08
1.47555e-07 3.37954e-08 -3.88729e-05
0.00100607 -8.13524e-05 1.63194e-06
-8.13524e-05 3.85732e-05 -2.79179e-07
1.63194e-06 -2.79179e-07 -5.29863e-05
0.00299033 8.8956e-05 -4.03328e-05
8.8956e-05 0.00119776 3.0221e-06
-4.03328e-05 3.0221e-06 0.00119534
0.000709665 6.1577e-06 -2.81875e-07
6.1577e-06 -2.00629e-05 -7.09751e-08
-2.81875e-07 -7.09751e-08 -5.99467e-05
0.000953148 -4.65796e-05 3.48561e-06
-4.65796e-05 7.30254e-05 -1.72392e-06
3.48561e-06 -1.72392e-06 5.56004e-07
0.00288135 8.03247e-05 7.09875e-07
8.03247e-05 0.00112786 1.39519e-07
7.09875e-07 1.39519e-07 0.00112942
0.000747579 2.36166e-05 5.54333e-06
2.36166e-05 -6.73299e-06 -4.09423e-06
5.54333e-06 -4.09423e-06 -4.01244e-05
0.00276819 7.22712e-05 3.83545e-05
7.22712e-05 0.00105925 -3.37344e-06
3.83545e-05 -3.37344e-06 0.00106414
0.000653637 8.14437e-05 -1.04178e-07
8.14437e-05 -0.000144523 -4.23572e-07
-1.04178e-07 -4.23572e-07 -0.000248653
0.00074478 7.92517e-05 -8.00002e-09
7.92517e-05 -5.55903e-05 -9.41664e-08
-8.00002e-09 -9.41664e-08 -0.00015283
0.00112067 8.25386e-05 -1.44873e-06
8.25386e-05 0.000135419 -1.75941e-07
-1.44873e-06 -1.75941e-07 4.80921e-05
0.000948343 8.06344e-05 -9.52075e-08
8.06344e-05 7.18599e-05 -6.09372e-07
-9.52075e-08 -6.09372e-07 -1.85913e-05
0.000995859 6.86278e-05 -1.47069e-07
6.86278e-05 9.19835e-05 -1.6627e-07
-1.47069e-07 -1.6627e-07 1.01597e-05
0.000891887 2.02338e-05 -2.57235e-06
2.02338e-05 5.39703e-05 -1.11897e-06
-2.57235e-06 -1.11897e-06 -1.40609e-05
0.000939943 4.15538e-05 4.33695e-07
4.15538e-05 6.90509e-05 -4.82268e-07
4.33695e-07 -4.82268e-07 -8.07295e-06
0.000826245 1.70225e-07 6.2143e-08
1.70225e-07 2.05115e-05 8.4676e-08
6.2143e-08 8.4676e-08 -4.24519e-05
0.000703448 -5.31294e-05 -2.42444e-06
-5.31294e-05 -2.58294e-05 -3.92817e-06
-2.42444e-06 -3.92817e-06 -5.41874e-05
0.000826653 -3.37461e-05 1.62598e-06
-3.37461e-05 1.70104e-05 2.14716e-06
1.62598e-06 2.14716e-06 -3.83802e-05
0.000694656 -5.00098e-05 -2.24255e-08
-5.00098e-05 -3.87205e-05 -7.78038e-08
-2.24255e-08 -7.78038e-08 -6.06939e-05
0.00256566 -6.50102e-05 -3.3817e-05
-6.50102e-05 0.000948381 -3.12326e-06
-3.3817e-05 -3.12326e-06 0.000956545
0.000705885 -3.98665e-05 3.26496e-06
-3.98665e-05 -4.34375e-05 3.63951e-06
3.26496e-06 3.63951e-06 -5.93044e-05
0.0024136 -5.82119e-05 -3.78425e-07
-5.82119e-05 0.000861584 7.45114e-08
-3.78425e-07 7.45114e-08 0.000872646
0.00234172 -5.22206e-05 2.66565e-05
-5.22206e-05 0.000815366 3.3874e-06
2.66565e-05 3.3874e-06 0.000828805
0.00149325 -3.16898e-05 9.28459e-06
-3.16898e-05 -0.000133419 1.98859e-06
9.28459e-06 1.98859e-06 -0.000202369
0.00101035 -6.01838e-05 1.17962e-06
-6.01838e-05 -0.000236766 1.55502e-06
1.17962e-06 1.55502e-06 -0.000275793
0.00200998 -9.48155e-05 6.01571e-05
-9.48155e-05 -4.08385e-05 1.69813e-05
6.01571e-05 1.69813e-05 -0.000272891
0.0018999 0.000126084 1.76239e-06
0.000126084 0.000371813 -2.44702e-06
1.76239e-06 -2.44702e-06 0.00026931
0.000835888 8.58575e-05 -1.20703e-06
8.58575e-05 -2.04387e-05 5.68347e-07
-1.20703e-06 5.68347e-07 -0.000106313
0.000746262 9.20387e-05 -2.64408e-06
9.20387e-05 -0.00023602 1.14409e-06
-2.64408e-06 1.14409e-06 -0.000345979
0.00138353 0.000111343 3.86763e-07
0.000111343 0.000177443 1.45729e-07
3.86763e-07 1.45729e-07 7.11041e-05
0.000496467 7.37603e-05 -2.51287e-06
7.37603e-05 -0.000169378 4.77335e-07
-2.51287e-06 4.77335e-07 -0.00026654
0.00200715 0.000121193 -2.4125e-06
0.000121193 0.00025738 -3.37097e-06
-2.4125e-06 -3.37097e-06 0.000142268
0.00128522 0.000107843 -8.96132e-07
0.000107843 0.000219249 -8.16726e-07
-8.96132e-07 -8.16726e-07 0.00013065
0.00157425 0.000131329 -5.51756e-08
0.000131329 0.00018554 3.91443e-07
-5.51756e-08 3.91443e-07 7.92363e-05
0.00176902 5.3243e-05 2.72253e-06
5.3243e-05 5.59943e-05 2.06445e-06
2.72253e-06 2.06445e-06 -4.92407e-05
0.0015331 0.000142979 1.0631e-06
0.000142979 0.000161153 2.47088e-06
1.0631e-06 2.47088e-06 5.16973e-05
0.0017029 0.000125191 -1.10105e-06
0.000125191 6.25874e-05 -9.81841e-07
-1.10105e-06 -9.81841e-07 -5.80866e-05
0.00173731 3.89065e-05 -2.00594e-07
3.89065e-05 -1.87224e-05 -1.17716e-07
-2.00594e-07 -1.17716e-07 -0.000108818
0.00181119 0.000125605 1.57529e-07
0.000125605 8.46613e-05 -1.14375e-06
1.57529e-07 -1.14375e-06 -3.27787e-05
0.00127135 1.46049e-05 -4.27241e-06
1.46049e-05 -6.03579e-05 -7.32119e-06
-4.27241e-06 -7.32119e-06 -7.41875e-05
0.00153359 6.69887e-07 3.36582e-06
6.69887e-07 -3.17575e-05 -1.55836e-06
3.36582e-06 -1.55836e-06 -0.000107073
0.00173278 -2.36161e-06 -2.09222e-07
-2.36161e-06 0.000110939 -2.92726e-07
-2.09222e-07 -2.92726e-07 4.76241e-05
0.000420514 -1.45786e-05 -4.19128e-06
-1.45786e-05 -0.000448039 3.66724e-06
-4.19128e-06 3.66724e-06 -0.000558573
0.00124268 3.93703e-05 2.02614e-07
3.93703e-05 -0.000271108 2.6411e-06
2.02614e-07 2.6411e-06 -0.000345711
0.00203873 4.75343e-05 9.56268e-06
4.75343e-05 0.000153035 4.29354e-06
9.56268e-06 4.29354e-06 6.38869e-05
0.00163836 2.11908e-05 -3.25277e-06
2.11908e-05 1.2484e-07 2.79175e-07
-3.25277e-06 2.79175e-07 -8.86788e-05
0.00172189 2.82526e-05 4.86314e-07
2.82526e-05 3.02843e-05 1.80225e-06
4.86314e-07 1.80225e-06 -5.11398e-05
0.00187935 2.00149e-05 1.10589e-06
2.00149e-05 0.000145084 -7.61636e-07
1.10589e-06 -7.61636e-07 5.35103e-05
0.00166667 -4.35051e-06 -3.46824e-06
-4.35051e-06 1.76472e-05 1.37338e-06
-3.46824e-06 1.37338e-06 -7.4064e-05
0.00173364 1.17738e-06 -1.29548e-07
1.17738e-06 8.82316e-05 3.61489e-09
-1.29548e-07 3.61489e-09 -1.05849e-05
0.00159712 5.98385e-06 -4.36827e-07
5.98385e-06 3.7044e-05 -1.58286e-06
-4.36827e-07 -1.58286e-06 -6.26083e-05
0.00184715 -4.07445e-05 -1.26711e-08
-4.07445e-05 0.000144606 -1.12785e-06
-1.26711e-08 -1.12785e-06 5.09059e-05
0.00164922 -3.08398e-05 -1.282e-08
-3.08398e-05 7.06968e-05 8.72945e-07
-1.282e-08 8.72945e-07 -2.92115e-05
0.00160886 -3.22384e-05 -1.27815e-06
-3.22384e-05 7.11691e-05 -6.65155e-07
-1.27815e-06 -6.65155e-07 -2.90948e-05
0.00167574 -6.77826e-05 6.7101e-07
-6.77826e-05 0.000114012 -1.05469e-06
6.7101e-07 -1.05469e-06 2.01582e-05
0.00155876 -6.85107e-05 2.71962e-07
-6.85107e-05 7.96476e-05 4.56254e-07
2.71962e-07 4.56254e-07 -1.95479e-05
0.00148916 -7.02676e-05 -1.61538e-06
-7.02676e-05 7.70652e-05 5.20004e-07
-1.61538e-06 5.20004e-07 -2.37008e-05
0.00146452 -8.24924e-05 6.88605e-08
-8.24924e-05 8.34689e-05 -9.73307e-07
6.88605e-08 -9.73307e-07 -1.24858e-05
0.00140491 -8.10661e-05 6.68824e-08
-8.10661e-05 8.19616e-05 -2.4359e-07
6.68824e-08 -2.4359e-07 -1.69353e-05
0.0012874 -7.45554e-05 -3.12465e-06
-7.45554e-05 6.25189e-05 7.68047e-07
-3.12465e-06 7.68047e-07 -3.24437e-05
0.00113204 -7.78039e-05 1.26327e-06
-7.78039e-05 -1.79092e-05 8.59599e-10
1.26327e-06 8.59599e-10 -0.000114475
0.00121601 -7.67238e-05 2.19905e-08
-7.67238e-05 6.43687e-05 -9.08985e-08
2.19905e-08 -9.08985e-08 -2.78803e-05
0.00101824 -6.00684e-05 -5.3514e-06
-6.00684e-05 1.83288e-05 1.87819e-06
-5.3514e-06 1.87819e-06 -5.89094e-05
0.000861721 -7.13298e-05 2.73271e-06
-7.13298e-05 -8.02305e-05 -4.20792e-07
2.73271e-06 -4.20792e-07 -0.00017298
0.000972281 -6.2185e-05 1.93206e-07
-6.2185e-05 2.75642e-05 -1.13645e-08
1.93206e-07 -1.13645e-08 -4.87805e-05
0.00166297 -3.67685e-06 -7.6698e-06
-3.67685e-06 0.000481026 2.96298e-06
-7.6698e-06 2.96298e-06 0.000438887
0.00106721 3.76541e-05 -4.25896e-05
3.76541e-05 0.000197897 6.57518e-06
-4.25896e-05 6.57518e-06 0.00018013
0.00122624 -9.0846e-06 -1.39851e-06
-9.0846e-06 0.000249514 -5.18776e-08
-1.39851e-06 -5.18776e-08 0.000208001
0.000967932 -6.2424e-05 3.9335e-06
-6.2424e-05 5.81215e-05 -1.46261e-06
3.9335e-06 -1.46261e-06 -1.7241e-05
0.00304621 8.78689e-05 1.42813e-06
8.78689e-05 0.00123007 2.0235e-07
1.42813e-06 2.0235e-07 0.00122689
0.000773075 -7.82062e-06 6.7048e-06
-7.82062e-06 6.58545e-06 -4.16895e-06
6.7048e-06 -4.16895e-06 -3.20368e-05
0.00287812 7.81806e-05 4.21555e-05
7.81806e-05 0.00112857 -3.2568e-06
4.21555e-05 -3.2568e-06 0.0011297
0.00122236 9.66212e-05 -3.75568e-07
9.66212e-05 -3.84848e-05 4.74575e-07
-3.75568e-07 4.74575e-07 -0.00013785
0.00080305 8.96183e-05 1.88264e-06
8.96183e-05 -0.000124032 1.28978e-06
1.88264e-06 1.28978e-06 -0.000231042
0.000821671 8.84613e-05 -1.86349e-07
8.84613e-05 -6.48156e-05 -1.00679e-07
-1.86349e-07 -1.00679e-07 -0.000170238
0.0011382 8.82624e-05 -1.64978e-06
8.82624e-05 0.000116863 -4.06637e-07
-1.64978e-06 -4.06637e-07 2.51247e-05
0.000596392 7.34788e-05 -8.66699e-08
7.34788e-05 -0.000133606 3.38567e-07
-8.66699e-08 3.38567e-07 -0.000231424
0.00102972 7.77209e-05 -2.74387e-07
7.77209e-05 9.03148e-05 -6.58114e-08
-2.74387e-07 -6.58114e-08 3.51668e-06
0.00094415 3.93641e-05 -3.01473e-06
3.93641e-05 7.40991e-05 -8.48835e-07
-3.01473e-06 -8.48835e-07 3.39698e-06
0.00092302 6.48323e-05 9.81333e-07
6.48323e-05 5.53084e-05 -4.58589e-08
9.81333e-07 -4.58589e-08 -2.61127e-05
0.000836767 1.70875e-05 9.34518e-09
1.70875e-05 2.65064e-05 1.75374e-07
9.34518e-09 1.75374e-07 -4.12579e-05
0.000727159 -3.37144e-05 -4.66792e-06
-3.37144e-05 -1.15596e-05 -3.74162e-06
-4.66792e-06 -3.74162e-06 -4.50491e-05
0.000843482 -1.35805e-05 1.7066e-06
-1.35805e-05 3.1488e-05 1.51493e-06
1.7066e-06 1.51493e-06 -3.15689e-05
0.000661299 -5.60296e-05 -5.79858e-08
-5.60296e-05 -4.75211e-05 -1.06669e-07
-5.79858e-08 -1.06669e-07 -7.60217e-05
0.00269543 -7.21556e-05 -3.67699e-05
-7.21556e-05 0.00102339 -3.12795e-06
-3.67699e-05 -3.12795e-06 0.00102847
0.000666714 -4.74401e-05 3.10044e-06
-4.74401e-05 -5.4627e-05 3.79e-06
3.10044e-06 3.79e-06 -7.58705e-05
0.00254332 -6.51288e-05 -3.9159e-07
-6.51288e-05 0.000936221 8.83871e-08
-3.9159e-07 8.83871e-08 0.000944691
0.00239985 -5.81396e-05 2.86785e-05
-5.81396e-05 0.00085342 3.19045e-06
2.86785e-05 3.19045e-06 0.000864788
0.00155319 -6.7773e-06 5.41323e-06
-6.7773e-06 -4.17527e-05 2.78861e-06
5.41323e-06 2.78861e-06 -0.000130176
0.00208361 -3.26828e-05 -1.72704e-06
-3.26828e-05 0.000198331 -9.73772e-07
-1.72704e-06 -9.73772e-07 0.000132376
0.00204718 -9.10376e-05 7.01623e-07
-9.10376e-05 0.000236817 -4.20376e-07
7.01623e-07 -4.20376e-07 0.000185875
0.00160736 0.00010582 -5.00229e-06
0.00010582 8.42598e-05 -2.3159e-06
-5.00229e-06 -2.3159e-06 -2.54014e-05
0.00162483 0.000117086 -4.1271e-07
0.000117086 0.000253794 5.04181e-07
-4.1271e-07 5.04181e-07 0.000154789
0.000789297 8.68789e-05 -6.89944e-06
8.68789e-05 -3.09024e-05 3.52411e-07
-6.89944e-06 3.52411e-07 -0.000111692
0.00141983 0.000112392 1.7946e-06
0.000112392 0.000100125 1.37103e-06
1.7946e-06 1.37103e-06 -7.87197e-06
0.00141855 0.000112696 -2.66295e-06
0.000112696 0.000194433 4.24702e-07
-2.66295e-06 4.24702e-07 8.71813e-05
0.00196974 5.44075e-05 4.14412e-07
5.44075e-05 0.000168154 1.53759e-06
4.14412e-07 1.53759e-06 6.01621e-05
0.00173695 0.000115436 -2.08926e-06
0.000115436 0.000119707 -1.51509e-06
-2.08926e-06 -1.51509e-06 1.57337e-06
0.00145452 0.00012613 1.17504e-06
0.00012613 0.000121201 4.69929e-06
1.17504e-06 4.69929e-06 1.41107e-05
0.00178325 5.2924e-05 -5.24986e-07
5.2924e-05 6.35682e-05 -4.15799e-08
-5.24986e-07 -4.15799e-08 -4.20662e-05
0.00204662 0.000136158 1.63861e-06
0.000136158 0.000223848 -9.8036e-07
1.63861e-06 -9.8036e-07 0.00010174
0.00190716 4.28265e-05 -6.93737e-06
4.28265e-05 6.9767e-05 -4.21732e-06
-6.93737e-06 -4.21732e-06 -2.21038e-05
0.00187123 -1.00489e-06 2.41271e-06
-1.00489e-06 0.000137305 3.10109e-07
2.41271e-06 3.10109e-07 4.71058e-05
0.00175177 5.61266e-07 -8.9246e-07
5.61266e-07 6.80368e-05 -9.96498e-07
-8.9246e-07 -9.96498e-07 -7.57313e-06
0.00141065 -4.12273e-06 -2.67766e-06
-4.12273e-06 -5.23318e-05 3.26279e-06
-2.67766e-06 3.26279e-06 -0.000114697
0.00148086 2.04647e-05 -1.57929e-06
2.04647e-05 -8.20152e-05 2.15391e-06
-1.57929e-06 2.15391e-06 -0.000170158
0.00192533 2.75857e-05 3.21447e-06
2.75857e-05 0.00013626 5.15004e-06
3.21447e-06 5.15004e-06 5.37694e-05
0.00180516 1.989e-05 -5.96076e-07
1.989e-05 0.000110404 -4.25249e-07
-5.96076e-07 -4.25249e-07 1.90503e-05
0.00172006 1.73621e-05 1.4051e-06
1.73621e-05 9.34449e-05 -7.06627e-07
1.4051e-06 -7.06627e-07 -8.05891e-06
0.00181388 1.87902e-06 9.82309e-07
1.87902e-06 0.000129608 1.45989e-06
9.82309e-07 1.45989e-06 3.04701e-05
0.00163137 4.40708e-06 -5.99439e-07
4.40708e-06 5.62295e-05 6.42473e-08
-5.99439e-07 6.42473e-08 -4.37625e-05
0.00164808 -8.8771e-07 -1.7461e-06
-8.8771e-07 8.33974e-05 -7.99103e-07
-1.7461e-06 -7.99103e-07 -1.8816e-05
0.00172334 -3.20252e-05 1.21794e-06
-3.20252e-05 0.000105739 1.55905e-06
1.21794e-06 1.55905e-06 5.82236e-06
0.00162802 -3.27012e-05 3.2009e-08
-3.27012e-05 8.03328e-05 2.21575e-07
3.2009e-08 2.21575e-07 -1.99345e-05
0.00156014 -4.082e-05 -2.1576e-06
-4.082e-05 7.87296e-05 -7.1362e-07
-2.1576e-06 -7.1362e-07 -2.1117e-05
0.00159411 -6.7858e-05 1.3712e-06
-6.7858e-05 9.63772e-05 7.0184e-08
1.3712e-06 7.0184e-08 -2.88969e-06
0.0014972 -6.98022e-05 1.4768e-07
-6.98022e-05 8.06441e-05 4.38368e-07
1.4768e-07 4.38368e-07 -2.01356e-05
0.00137538 -6.63473e-05 -3.40016e-06
-6.63473e-05 6.49885e-05 8.21871e-07
-3.40016e-06 8.21871e-07 -3.20128e-05
0.00140862 -8.05704e-05 1.43639e-06
-8.05704e-05 8.33377e-05 -7.24899e-07
1.43639e-06 -7.24899e-07 -1.54852e-05
0.00129194 -7.40775e-05 6.3433e-08
-7.40775e-05 6.43406e-05 -1.07483e-07
6.3433e-08 -1.07483e-07 -3.05438e-05
0.00107367 -5.81309e-05 -6.07998e-06
-5.81309e-05 1.47534e-05 2.17571e-06
-6.07998e-06 2.17571e-06 -6.51994e-05
0.00120785 -7.59173e-05 2.85609e-06
-7.59173e-05 6.01762e-05 -5.76354e-07
2.85609e-06 -5.76354e-07 -3.19261e-05
0.00102437 -6.01852e-05 2.51659e-07
-6.01852e-05 2.10578e-05 -9.28062e-08
2.51659e-07 -9.28062e-08 -5.62764e-05
0.00175684 -6.68726e-06 -7.58066e-06
-6.68726e-06 0.000518931 3.1767e-06
-7.58066e-06 3.1767e-06 0.000475603
0.000990241 -6.33539e-05 4.55038e-06
-6.33539e-05 3.71393e-05 -1.51835e-06
4.55038e-06 -1.51835e-06 -3.94282e-05
0.00183694 -1.60074e-05 1.26206e-05
-1.60074e-05 0.00056475 -9.7166e-07
1.26206e-05 -9.7166e-07 0.000523523
0.00119085 1.31419e-05 -5.73176e-05
1.31419e-05 0.000275748 6.93803e-06
-5.73176e-05 6.93803e-06 0.000255597
0.00215436 5.62436e-05 -4.08833e-05
5.62436e-05 0.000774235 1.30933e-06
-4.08833e-05 1.30933e-06 0.000762331
0.00188555 -1.3302e-05 2.85114e-05
-1.3302e-05 0.000589168 -3.43026e-06
2.85114e-05 -3.43026e-06 0.000552319
0.00308302 7.96092e-05 5.03227e-05
7.96092e-05 0.00125152 -3.18561e-06
5.03227e-05 -3.18561e-06 0.00124849
0.00158788 9.58833e-05 -3.37189e-06
9.58833e-05 7.07763e-05 -2.93695e-06
-3.37189e-06 -2.93695e-06 -3.30158e-05
0.00149952 0.000105966 3.42325e-06
0.000105966 0.000169427 5.93926e-07
3.42325e-06 5.93926e-07 6.87141e-05
0.001244 9.82873e-05 1.48074e-06
9.82873e-05 -1.70121e-05 8.40685e-07
1.48074e-06 8.40685e-07 -0.000109247
0.00115411 9.30405e-05 -1.79898e-06
9.30405e-05 8.84836e-05 -7.27248e-07
-1.79898e-06 -7.27248e-07 -8.32053e-06
0.00115109 0.000103222 -5.48999e-07
0.000103222 4.92869e-05 3.05862e-07
-5.48999e-07 3.05862e-07 -5.86094e-05
0.000993098 9.59151e-05 1.03121e-07
9.59151e-05 1.639e-05 3.89014e-07
1.03121e-07 3.89014e-07 -9.03326e-05
0.00108619 8.6156e-05 -1.45702e-07
8.6156e-05 9.30228e-05 -1.42789e-07
-1.45702e-07 -1.42789e-07 1.17712e-06
0.0009797 5.81791e-05 -3.09689e-06
5.81791e-05 7.5795e-05 -1.01885e-06
-3.09689e-06 -1.01885e-06 2.08339e-06
0.000936447 7.28557e-05 8.56879e-07
7.28557e-05 4.39369e-05 6.12882e-09
8.56879e-07 6.12882e-09 -4.232e-05
0.00086194 3.39808e-05 -2.48426e-07
3.39808e-05 3.20751e-05 5.73579e-08
-2.48426e-07 5.73579e-08 -3.82783e-05
0.000756163 -1.08347e-05 -5.7155e-06
-1.08347e-05 3.22116e-06 -3.63835e-06
-5.7155e-06 -3.63835e-06 -3.50511e-05
0.00077 1.05417e-05 1.90955e-06
1.05417e-05 -6.38073e-06 1.10397e-06
1.90955e-06 1.10397e-06 -7.43024e-05
0.00066251 -4.59198e-05 -2.2522e-07
-4.59198e-05 -4.33781e-05 -6.99187e-08
-2.2522e-07 -6.99187e-08 -7.70551e-05
0.00282576 -7.95176e-05 -4.02678e-05
-7.95176e-05 0.00110282 -3.04541e-06
-4.02678e-05 -3.04541e-06 0.00110397
0.000610333 -5.42477e-05 2.37593e-06
-5.42477e-05 -7.47751e-05 4.06974e-06
2.37593e-06 4.06974e-06 -0.000102738
0.00269118 -7.27302e-05 -5.00971e-07
-7.27302e-05 0.00102023 1.12475e-07
-5.00971e-07 1.12475e-07 0.00102568
0.00251953 -6.49925e-05 3.12084e-05
-6.49925e-05 0.000923116 3.02241e-06
3.12084e-05 3.02241e-06 0.000931955
0.00184292 -3.98732e-06 1.02646e-06
-3.98732e-06 9.91604e-05 1.42048e-06
1.02646e-06 1.42048e-06 3.04884e-06
0.00171137 -7.57697e-06 6.8529e-07
-7.57697e-06 3.44166e-05 7.13925e-07
6.8529e-07 7.13925e-07 -5.41112e-05
0.00237956 -3.19377e-05 -1.4701e-05
-3.19377e-05 0.000383984 -3.04723e-06
-1.4701e-05 -3.04723e-06 0.000320914
0.00169878 5.52319e-05 -4.80108e-07
5.52319e-05 5.01804e-05 9.94092e-07
-4.80108e-07 9.94092e-07 -5.62982e-05
0.00171475 0.000108665 2.02359e-07
0.000108665 0.000141206 -1.05048e-06
2.02359e-07 -1.05048e-06 3.1638e-05
0.001424 0.000110345 -2.7392e-06
0.000110345 0.000172182 1.82373e-06
-2.7392e-06 1.82373e-06 7.67265e-05
0.00203444 0.000130859 1.68311e-06
0.000130859 0.000406213 2.3334e-07
1.68311e-06 2.3334e-07 0.000300308
0.0019187 5.46112e-05 -5.86286e-07
5.46112e-05 0.000141123 -1.23924e-07
-5.86286e-07 -1.23924e-07 3.28687e-05
0.0014592 0.000108972 8.79511e-07
0.000108972 -2.12809e-05 -1.50653e-08
8.79511e-07 -1.50653e-08 -0.000142403
0.00176961 5.34168e-05 -1.82586e-06
5.34168e-05 5.91696e-05 -2.14593e-06
-1.82586e-06 -2.14593e-06 -4.70467e-05
0.00175719 -1.53245e-06 2.9439e-06
-1.53245e-06 7.74291e-05 8.61299e-07
2.9439e-06 8.61299e-07 -2.19106e-05
0.0017722 -6.20378e-07 -1.52968e-07
-6.20378e-07 8.53666e-05 -4.47107e-07
-1.52968e-07 -4.47107e-07 -6.16913e-06
0.00194068 4.90143e-07 -4.37529e-06
4.90143e-07 0.00015479 8.14834e-07
-4.37529e-06 8.14834e-07 7.87684e-05
0.00181843 2.11822e-05 1.66089e-06
2.11822e-05 0.000140669 1.50429e-07
1.66089e-06 1.50429e-07 3.56021e-05
0.00171433 1.96977e-05 -1.82806e-06
1.96977e-05 6.8163e-05 1.14421e-06
-1.82806e-06 1.14421e-06 -2.31223e-05
0.00172598 1.7755e-05 -2.18657e-08
1.7755e-05 9.70763e-05 4.19452e-07
-2.18657e-08 4.19452e-07 -4.07329e-06
0.00161951 1.24608e-05 7.34324e-07
1.24608e-05 6.96039e-05 -1.21794e-06
7.34324e-07 -1.21794e-06 -3.53416e-05
0.00170221 3.11506e-06 3.32987e-07
3.11506e-06 9.38583e-05 1.91587e-06
3.32987e-07 1.91587e-06 -6.47286e-06
0.00165775 -4.21639e-07 -6.2537e-07
-4.21639e-07 8.88132e-05 2.31257e-07
-6.2537e-07 2.31257e-07 -1.33622e-05
0.00159043 -7.0472e-06 -2.82073e-06
-7.0472e-06 8.43544e-05 -2.14589e-07
-2.82073e-06 -2.14589e-07 -1.6585e-05
0.00164995 -3.25423e-05 1.75426e-06
-3.25423e-05 9.08905e-05 1.11166e-06
1.75426e-06 1.11166e-06 -9.36918e-06
0.00156145 -3.92557e-05 -2.0962e-08
-3.92557e-05 7.94016e-05 4.50301e-08
-2.0962e-08 4.50301e-08 -2.04753e-05
0.00144042 -4.67781e-05 -3.79292e-06
-4.67781e-05 6.72716e-05 -1.33576e-07
-3.79292e-06 -1.33576e-07 -2.90306e-05
0.00150866 -6.93271e-05 2.26452e-06
-6.93271e-05 8.59072e-05 3.32493e-07
2.26452e-06 3.32493e-07 -1.4876e-05
0.00137478 -6.57635e-05 1.05919e-07
-6.57635e-05 6.44184e-05 3.54689e-07
1.05919e-07 3.54689e-07 -3.2535e-05
0.00114385 -5.30769e-05 -6.81303e-06
-5.30769e-05 1.83781e-05 2.10211e-06
-6.81303e-06 2.10211e-06 -6.41781e-05
0.00129646 -7.35545e-05 3.21033e-06
-7.35545e-05 6.61791e-05 -9.55557e-07
3.21033e-06 -9.55557e-07 -2.86267e-05
0.00108538 -5.76697e-05 3.32846e-07
-5.76697e-05 1.94322e-05 -6.21225e-08
3.32846e-07 -6.21225e-08 -6.05235e-05
0.0018753 -6.58728e-06 -8.11875e-06
-6.58728e-06 0.000564146 3.03529e-06
-8.11875e-06 3.03529e-06 0.000520975
0.00102901 -6.02285e-05 5.26856e-06
-6.02285e-05 2.3216e-05 -1.89524e-06
5.26856e-06 -1.89524e-06 -5.42351e-05
0.00194039 -2.2007e-05 1.44606e-05
-2.2007e-05 0.000607872 -9.64179e-07
1.44606e-05 -9.64179e-07 0.00056573
0.00125681 1.38369e-06 -6.26793e-05
1.38369e-06 0.000314301 6.6735e-06
-6.26793e-05 6.6735e-06 0.000293018
0.00199697 -3.11405e-05 3.47548e-05
-3.11405e-05 0.0006404 -5.4151e-06
3.47548e-05 -5.4151e-06 0.00060054
0.0012036 3.71708e-05 -2.59177e-05
3.71708e-05 0.000289099 2.24335e-06
-2.59177e-05 2.24335e-06 0.000265583
0.00315323 0.00011393 1.28496e-05
0.00011393 0.00130944 -1.41027e-06
1.28496e-05 -1.41027e-06 0.00129796
0.00192571 6.87459e-05 -1.4842e-06
6.87459e-05 0.000205891 -1.22188e-06
-1.4842e-06 -1.22188e-06 9.82611e-05
0.00158153 9.32222e-05 -5.88285e-07
9.32222e-05 0.000118639 -2.62566e-06
-5.88285e-07 -2.62566e-06 1.72899e-05
0.00167514 9.96722e-05 -2.58983e-06
9.96722e-05 0.000126047 1.44923e-06
-2.58983e-06 1.44923e-06 2.3268e-05
0.00155316 0.00010237 -1.23304e-06
0.00010237 0.000240921 2.18366e-08
-1.23304e-06 2.18366e-08 0.000144491
0.00134316 0.000103212 5.47564e-07
0.000103212 8.68467e-05 -1.40274e-06
5.47564e-07 -1.40274e-06 -1.32748e-05
0.0013256 0.000101486 2.87702e-06
0.000101486 3.44237e-05 1.28678e-06
2.87702e-06 1.28678e-06 -5.07828e-05
0.00101068 6.99511e-05 -3.84578e-06
6.99511e-05 6.11553e-05 -1.73912e-06
-3.84578e-06 -1.73912e-06 -1.79074e-05
0.00115147 9.32705e-05 -1.34498e-07
9.32705e-05 8.77441e-05 -6.59764e-08
-1.34498e-07 -6.59764e-08 -9.29837e-06
0.00149294 0.00011637 1.63972e-06
0.00011637 0.000219828 6.70419e-07
1.63972e-06 6.70419e-07 0.000111025
0.00102134 8.35168e-05 1.21696e-06
8.35168e-05 6.26213e-05 4.32726e-08
1.21696e-06 4.32726e-08 -2.92869e-05
0.000912493 5.51925e-05 -1.7646e-07
5.51925e-05 4.18413e-05 -1.59044e-07
-1.7646e-07 -1.59044e-07 -3.15486e-05
0.000787787 2.22702e-05 -6.94221e-06
2.22702e-05 1.90403e-05 -4.05184e-06
-6.94221e-06 -4.05184e-06 -2.43493e-05
0.000772611 3.21454e-05 2.15208e-06
3.21454e-05 -1.46158e-05 6.82136e-07
2.15208e-06 6.82136e-07 -8.40846e-05
0.000694554 -1.32619e-05 6.10807e-08
-1.32619e-05 -2.42048e-05 -5.4027e-08
6.10807e-08 -5.4027e-08 -6.30948e-05
0.0029901 -8.46367e-05 -4.65628e-05
-8.46367e-05 0.00120516 -2.81822e-06
-4.65628e-05 -2.81822e-06 0.00120195
0.000597346 -5.85458e-05 1.96067e-06
-5.85458e-05 -7.32792e-05 4.19948e-06
1.96067e-06 4.19948e-06 -0.000108615
0.00281844 -8.06345e-05 -7.35997e-07
-8.06345e-05 0.00109674 1.45074e-07
-7.35997e-07 1.45074e-07 0.00109844
0.00268378 -7.3054e-05 3.39783e-05
-7.3054e-05 0.00101539 2.91645e-06
3.39783e-05 2.91645e-06 0.00102127
0.00181228 7.0964e-06 -6.65916e-07
7.0964e-06 9.25469e-05 3.21906e-07
-6.65916e-07 3.21906e-07 -6.61305e-06
0.00176278 -2.00628e-06 -3.642e-07
-2.00628e-06 5.4186e-05 4.71547e-07
-3.642e-07 4.71547e-07 -4.26847e-05
0.00193724 -8.29382e-06 -4.37382e-06
-8.29382e-06 0.000142318 -1.44223e-06
-4.37382e-06 -1.44223e-06 5.38382e-05
0.0017516 5.62451e-05 1.06465e-06
5.62451e-05 7.461e-05 -1.73219e-07
1.06465e-06 -1.73219e-07 -3.00987e-05
0.00181825 0.000111753 1.00072e-06
0.000111753 0.000196529 -3.19969e-07
1.00072e-06 -3.19969e-07 8.69754e-05
0.00179179 5.38174e-05 -2.02214e-08
5.38174e-05 7.58558e-05 -1.74949e-06
-2.02214e-08 -1.74949e-06 -3.26394e-05
0.0018084 2.67929e-06 1.40772e-06
2.67929e-06 0.000101572 1.56514e-06
1.40772e-06 1.56514e-06 -2.5657e-06
0.0017888 1.86422e-06 3.13543e-07
1.86422e-06 9.4187e-05 -1.77168e-07
3.13543e-07 -1.77168e-07 -6.4221e-06
0.00164186 1.07908e-06 -2.41632e-06
1.07908e-06 1.70388e-05 -6.08722e-07
-2.41632e-06 -6.08722e-07 -7.58334e-05
0.00176461 1.17895e-05 -7.15959e-07
1.17895e-05 0.000112519 -4.85743e-07
-7.15959e-07 -4.85743e-07 9.8401e-06
0.00178466 9.12342e-06 1.90892e-06
9.12342e-06 0.000138649 -1.26022e-08
1.90892e-06 -1.26022e-08 3.1344e-05
0.00172148 1.81655e-05 -1.23747e-06
1.81655e-05 9.56492e-05 4.22018e-07
-1.23747e-06 4.22018e-07 -5.17156e-06
0.00170465 1.31401e-05 4.0386e-07
1.31401e-05 0.000113727 -1.90553e-07
4.0386e-07 -1.90553e-07 8.73248e-06
0.00150741 7.42914e-06 -8.6678e-08
7.42914e-06 3.80427e-05 -5.11138e-07
-8.6678e-08 -5.11138e-07 -6.69546e-05
0.00166302 -6.36724e-07 5.52167e-07
-6.36724e-07 9.20699e-05 1.26445e-06
5.52167e-07 1.26445e-06 -1.00838e-05
0.00158823 -7.77346e-06 -9.03162e-07
-7.77346e-06 8.37127e-05 3.77703e-07
-9.03162e-07 3.77703e-07 -1.73238e-05
0.00146954 -1.58489e-05 -4.43179e-06
-1.58489e-05 7.01509e-05 1.33473e-07
-4.43179e-06 1.33473e-07 -2.67778e-05
0.00156474 -3.92163e-05 2.1711e-06
-3.92163e-05 8.09784e-05 7.89474e-07
2.1711e-06 7.89474e-07 -1.89399e-05
0.00143675 -4.57597e-05 5.93247e-08
-4.57597e-05 6.52499e-05 5.5664e-08
5.93247e-08 5.5664e-08 -3.10183e-05
0.00117535 -3.90695e-05 -7.29966e-06
-3.90695e-05 1.08232e-05 1.18828e-06
-7.29966e-06 1.18828e-06 -7.16853e-05
0.00137381 -6.51127e-05 3.72631e-06
-6.51127e-05 6.36512e-05 -1.13857e-07
3.72631e-06 -1.13857e-07 -3.32517e-05
0.00114445 -5.17491e-05 2.956e-07
-5.17491e-05 1.73089e-05 2.67147e-07
2.956e-07 2.67147e-07 -6.51011e-05
0.00203917 -1.58986e-05 -1.17392e-05
-1.58986e-05 0.000625474 2.33143e-06
-1.17392e-05 2.33143e-06 0.000584163
0.00109074 -5.71756e-05 6.1671e-06
-5.71756e-05 2.09385e-05 -2.21971e-06
6.1671e-06 -2.21971e-06 -5.90294e-05
0.00205006 -3.02406e-05 1.43269e-05
-3.02406e-05 0.000647464 -1.00987e-06
1.43269e-05 -1.00987e-06 0.000606316
0.00135234 -1.04269e-06 -6.64584e-05
-1.04269e-06 0.000359473 6.02472e-06
-6.64584e-05 6.02472e-06 0.000337575
0.00211389 -4.07263e-05 3.82139e-05
-4.07263e-05 0.000690283 -5.36682e-06
3.82139e-05 -5.36682e-06 0.000649858
0.00127201 3.37865e-05 -2.93146e-05
3.37865e-05 0.0003295 2.03962e-06
-2.93146e-05 2.03962e-06 0.000304219
0.00124227 6.70652e-05 5.82743e-06
6.70652e-05 0.000317132 -2.45108e-06
5.82743e-06 -2.45108e-06 0.000289453
0.00162549 2.13259e-05 -1.49536e-06
2.13259e-05 2.72896e-05 2.99741e-07
-1.49536e-06 2.99741e-07 -7.37225e-05
0.00163247 6.96931e-05 -2.50724e-06
6.96931e-05 9.60789e-05 -8.93002e-07
-2.50724e-06 -8.93002e-07 -8.74067e-06
0.00179591 6.71914e-05 -1.76364e-06
6.71914e-05 0.000137578 -1.01479e-06
-1.76364e-06 -1.01479e-06 2.95004e-05
0.00153859 9.14248e-05 -2.53383e-06
9.14248e-05 0.000162297 -9.25443e-07
-2.53383e-06 -9.25443e-07 6.56015e-05
0.0016991 9.66618e-05 1.08209e-06
9.66618e-05 0.000183243 7.69148e-07
1.08209e-06 7.69148e-07 8.22863e-05
0.00173374 0.000102645 4.08422e-06
0.000102645 0.00016723 2.92014e-06
4.08422e-06 2.92014e-06 6.55168e-05
0.000973252 7.12549e-05 -4.93111e-06
7.12549e-05 -3.26385e-06 -1.80506e-06
-4.93111e-06 -1.80506e-06 -8.5129e-05
0.00121749 9.34341e-05 1.48873e-06
9.34341e-05 6.54457e-05 8.15357e-07
1.48873e-06 8.15357e-07 -3.2091e-05
0.00118137 0.000100352 9.20885e-07
0.000100352 1.20666e-06 9.04675e-07
9.20885e-07 9.04675e-07 -9.82681e-05
0.000793259 4.70821e-05 -8.97905e-06
4.70821e-05 1.64862e-05 -4.87979e-06
-8.97905e-06 -4.87979e-06 -3.19095e-05
0.000966535 6.71564e-05 -3.2912e-07
6.71564e-05 3.87572e-05 -1.94935e-07
-3.2912e-07 -1.94935e-07 -3.99169e-05
0.00115348 9.36893e-05 1.93785e-06
9.36893e-05 8.94273e-05 7.21053e-07
1.93785e-06 7.21053e-07 -7.87525e-06
0.000856439 5.19728e-05 2.72274e-06
5.19728e-05 1.36574e-05 7.65881e-07
2.72274e-06 7.65881e-07 -5.94182e-05
0.000709441 1.78384e-05 -1.10825e-08
1.78384e-05 -1.54677e-05 -1.32827e-08
-1.10825e-08 -1.32827e-08 -5.91645e-05
0.0032581 -7.08973e-05 -5.7843e-05
-7.08973e-05 0.00136128 -3.38259e-06
-5.7843e-05 -3.38259e-06 0.00135484
0.000650141 -2.18361e-05 3.64963e-06
-2.18361e-05 -4.32512e-05 3.99508e-06
3.64963e-06 3.99508e-06 -8.21686e-05
0.00296642 -8.93447e-05 -1.25746e-06
-8.93447e-05 0.00118995 2.0082e-07
-1.25746e-06 2.0082e-07 0.0011869
0.00283561 -8.15039e-05 3.69149e-05
-8.15039e-05 0.00110308 2.86429e-06
3.69149e-05 2.86429e-06 0.00110538
0.00184097 -1.92858e-06 -6.74538e-07
-1.92858e-06 0.000119343 1.47146e-08
-6.74538e-07 1.47146e-08 1.70782e-05
0.00182397 6.56032e-06 -2.02578e-07
6.56032e-06 9.8437e-05 1.58081e-08
-2.02578e-07 1.58081e-08 -5.79008e-07
0.00178281 -7.62526e-07 -1.10537e-06
-7.62526e-07 6.00397e-05 -1.18572e-06
-1.10537e-06 -1.18572e-06 -3.75024e-05
0.00182159 5.74904e-05 8.43142e-07
5.74904e-05 0.000107271 -6.40611e-07
8.43142e-07 -6.40611e-07 4.39473e-06
0.001851 -3.37235e-06 9.81082e-07
-3.37235e-06 0.000136519 1.18157e-08
9.81082e-07 1.18157e-08 2.81696e-05
0.00181857 1.83595e-06 2.19899e-07
1.83595e-06 0.000109565 -1.35639e-07
2.19899e-07 -1.35639e-07 5.45224e-06
0.00182472 4.98272e-06 -2.80132e-06
4.98272e-06 0.000113232 -5.37448e-07
-2.80132e-06 -5.37448e-07 1.13296e-05
0.00167647 5.93831e-06 -2.92229e-06
5.93831e-06 6.71159e-05 -1.25666e-06
-2.92229e-06 -1.25666e-06 -3.32724e-05
0.00178375 1.47753e-05 -2.87246e-07
1.47753e-05 0.000134424 -7.71239e-07
-2.87246e-07 -7.71239e-07 2.70365e-05
0.00173626 1.03899e-05 6.69441e-08
1.03899e-05 0.000131838 9.51702e-07
6.69441e-08 9.51702e-07 2.32235e-05
0.00179368 1.38619e-05 3.0588e-07
1.38619e-05 0.000159762 3.05921e-07
3.0588e-07 3.05921e-07 5.47257e-05
0.00164645 8.84729e-06 5.98837e-07
8.84729e-06 0.000110525 -2.35501e-07
5.98837e-07 -2.35501e-07 6.15939e-06
0.00129877 5.349e-06 -3.02154e-06
5.349e-06 -2.80209e-05 4.46653e-07
-3.02154e-06 4.46653e-07 -0.000128905
0.00157552 -6.97126e-06 8.25151e-07
-6.97126e-06 7.79463e-05 9.73209e-07
8.25151e-07 9.73209e-07 -2.3189e-05
0.00146458 -1.33986e-05 -5.44555e-07
-1.33986e-05 6.74973e-05 1.491e-07
-5.44555e-07 1.491e-07 -2.93739e-05
0.00118072 -1.72012e-05 -7.19857e-06
-1.72012e-05 2.05942e-06 7.09497e-07
-7.19857e-06 7.09497e-07 -8.05439e-05
0.00143043 -4.25401e-05 3.71934e-06
-4.25401e-05 6.19439e-05 2.73443e-07
3.71934e-06 2.73443e-07 -3.42185e-05
0.00118356 -3.943e-05 6.9429e-08
-3.943e-05 1.41272e-05 2.12943e-07
6.9429e-08 2.12943e-07 -6.82854e-05
0.000683979 -2.30572e-05 -1.1e-05
-2.30572e-05 -0.000100953 2.55603e-06
-1.1e-05 2.55603e-06 -0.000148327
0.00114624 -5.06376e-05 6.99282e-06
-5.06376e-05 1.67783e-05 -1.58722e-06
6.99282e-06 -1.58722e-06 -6.54903e-05
0.00142034 -3.71466e-05 1.70378e-05
-3.71466e-05 0.000296899 -6.1256e-07
1.70378e-05 -6.1256e-07 0.000253286
0.00434615 3.32614e-05 -7.68172e-05
3.32614e-05 0.0019185 2.59533e-06
-7.68172e-05 2.59533e-06 0.00191075
0.00221555 -4.17465e-05 4.14295e-05
-4.17465e-05 0.000727773 -4.91615e-06
4.14295e-05 -4.91615e-06 0.000687418
0.001344 3.22335e-05 -3.18124e-05
3.22335e-05 0.000362537 1.85622e-06
-3.18124e-05 1.85622e-06 0.000336894
0.0013138 7.20386e-05 3.84171e-06
7.20386e-05 0.000360721 -2.59933e-06
3.84171e-06 -2.59933e-06 0.000330378
0.00170703 8.58342e-06 -3.24497e-07
8.58342e-06 7.18739e-05 2.17802e-07
-3.24497e-07 2.17802e-07 -2.86347e-05
0.00145945 3.22506e-05 -1.63197e-06
3.22506e-05 -7.89338e-06 7.55185e-08
-1.63197e-06 7.55185e-08 -0.000110056
0.00173785 2.15869e-05 -1.64876e-07
2.15869e-05 8.83387e-05 4.92745e-08
-1.64876e-07 4.92745e-08 -1.28072e-05
0.00114152 6.46521e-05 -3.76385e-06
6.46521e-05 -9.64387e-05 -1.45392e-06
-3.76385e-06 -1.45392e-06 -0.000196066
0.0016503 7.00685e-05 5.78353e-08
7.00685e-05 0.000108176 -5.6253e-08
5.78353e-08 -5.6253e-08 3.95948e-06
0.00168154 6.566e-05 -5.93041e-08
6.566e-05 7.77885e-05 -3.75012e-07
-5.93041e-08 -3.75012e-07 -3.08527e-05
0.000663843 5.73183e-05 -7.32084e-06
5.73183e-05 -0.000216888 -2.5687e-06
-7.32084e-06 -2.5687e-06 -0.000301196
0.00153871 9.27607e-05 8.43635e-07
9.27607e-05 0.000162058 2.30959e-08
8.43635e-07 2.30959e-08 6.51488e-05
0.00181465 0.000100188 2.72408e-06
0.000100188 0.000247131 1.88574e-06
2.72408e-06 1.88574e-06 0.000146513
0.000752727 6.18715e-05 -1.07642e-05
6.18715e-05 -2.06355e-05 -5.0019e-06
-1.07642e-05 -5.0019e-06 -7.16022e-05
0.000783847 6.5351e-05 -1.41407e-07
6.5351e-05 -0.000103903 1.34162e-07
-1.41407e-07 1.34162e-07 -0.000186727
0.000881887 8.45457e-05 3.67212e-06
8.45457e-05 -0.000110037 1.70293e-06
3.67212e-06 1.70293e-06 -0.000208679
0.00368992 -6.50591e-05 -6.53589e-05
-6.50591e-05 0.00159555 -4.10529e-06
-6.53589e-05 -4.10529e-06 0.00158517
0.000689431 4.06281e-05 -8.54754e-08
4.06281e-05 -3.15452e-05 1.15292e-08
-8.54754e-08 1.15292e-08 -7.99639e-05
0.000930437 6.46332e-05 3.48462e-06
6.46332e-05 2.07607e-05 1.56396e-06
3.48462e-06 1.56396e-06 -5.75831e-05
0.000628471 1.39246e-05 5.79708e-06
1.39246e-05 -5.16026e-05 4.09588e-06
5.79708e-06 4.09588e-06 -9.55326e-05
0.00317552 -9.37147e-05 -3.39673e-06
-9.37147e-05 0.00131712 2.00847e-07
-3.39673e-06 2.00847e-07 0.0013096
0.00293443 -8.9698e-05 3.92705e-05
-8.9698e-05 0.00116953 2.79706e-06
3.92705e-05 2.79706e-06 0.00116731
0.00176404 -5.48306e-06 -7.69742e-07
-5.48306e-06 8.6474e-05 -4.03554e-07
-7.69742e-07 -4.03554e-07 -1.84097e-05
0.00183947 -1.78658e-06 -3.44974e-07
-1.78658e-06 0.000114824 -2.08791e-07
-3.44974e-07 -2.08791e-07 1.29292e-05
0.0018534 6.1662e-06 2.35828e-07
6.1662e-06 0.000113354 -7.25081e-07
2.35828e-07 -7.25081e-07 1.44889e-05
0.0019198 9.3713e-06 -3.3453e-07
9.3713e-06 0.000186114 1.33836e-07
-3.3453e-07 1.33836e-07 7.37266e-05
0.00183429 7.64363e-07 -4.40244e-07
7.64363e-07 0.000125564 -2.83761e-07
-4.40244e-07 -2.83761e-07 1.67404e-05
0.00184513 -1.89469e-06 -2.68009e-06
-1.89469e-06 0.000125397 -7.21387e-07
-2.68009e-06 -7.21387e-07 2.14583e-05
0.00179906 1.89655e-05 -1.8073e-06
1.89655e-05 0.000138381 -1.22773e-06
-1.8073e-06 -1.22773e-06 3.09773e-05
0.00174933 1.28502e-05 6.87697e-07
1.28502e-05 0.000139133 -1.85742e-07
6.87697e-07 -1.85742e-07 3.03226e-05
0.00172926 8.01432e-06 -2.37312e-06
8.01432e-06 0.000164436 1.15959e-06
-2.37312e-06 1.15959e-06 6.07384e-05
0.00179141 1.02959e-05 1.83881e-06
1.02959e-05 0.000185923 -2.08018e-07
1.83881e-06 -2.08018e-07 8.22002e-05
0.00156 8.28277e-06 -4.73155e-08
8.28277e-06 0.000108797 5.57365e-08
-4.73155e-08 5.57365e-08 9.65341e-06
0.000849361 1.1083e-06 -8.16955e-06
1.1083e-06 -0.000187228 1.49896e-06
-8.16955e-06 1.49896e-06 -0.000275705
0.00144756 -1.34365e-05 2.9073e-06
-1.34365e-05 5.88541e-05 1.82613e-07
2.9073e-06 1.82613e-07 -3.80671e-05
0.00119286 -1.48871e-05 -6.8265e-08
-1.48871e-05 7.55149e-06 -1.08251e-07
-6.8265e-08 -1.08251e-07 -7.49162e-05
0.000709597 -1.24198e-05 -1.1079e-05
-1.24198e-05 -9.515e-05 1.54559e-06
-1.1079e-05 1.54559e-06 -0.000143205
0.0011853 -3.81495e-05 7.47469e-06
-3.81495e-05 1.41315e-05 -8.80643e-07
7.47469e-06 -8.80643e-07 -6.81132e-05
0.000689162 -2.00738e-05 -2.56727e-08
-2.00738e-05 -9.81519e-05 1.70105e-07
-2.56727e-08 1.70105e-07 -0.000145523
0.00439062 2.67435e-05 -7.91028e-05
2.67435e-05 0.00193532 1.84117e-06
-7.91028e-05 1.84117e-06 0.00192858
0.000781498 -3.90482e-05 1.30978e-05
-3.90482e-05 -3.98376e-05 -4.39628e-06
1.30978e-05 -4.39628e-06 -8.83356e-05
0.00292921 3.65876e-05 2.93801e-05
3.65876e-05 0.00117753 7.6998e-07
2.93801e-05 7.6998e-07 0.00116063
0.0013568 4.15309e-05 8.55062e-06
4.15309e-05 0.000372809 -2.10255e-06
8.55062e-06 -2.10255e-06 0.00034594
0.00181094 -1.01309e-06 -2.63873e-07
-1.01309e-06 0.000130732 1.77001e-07
-2.63873e-07 1.77001e-07 3.01032e-05
0.00164064 1.48393e-05 -9.12192e-07
1.48393e-05 7.73384e-05 -8.11812e-08
-9.12192e-07 -8.11812e-08 -2.2264e-05
0.00169123 7.83605e-06 3.44979e-07
7.83605e-06 6.45068e-05 4.13794e-07
3.44979e-07 4.13794e-07 -3.59813e-05
0.00144174 4.12784e-05 -3.15257e-06
4.12784e-05 3.97717e-05 -5.60746e-07
-3.15257e-06 -5.60746e-07 -5.72123e-05
0.00153857 3.23981e-05 4.16816e-07
3.23981e-05 3.07892e-05 -1.71491e-07
4.16816e-07 -1.71491e-07 -7.05801e-05
0.00180213 2.17328e-05 1.06444e-06
2.17328e-05 0.000124676 -3.85989e-07
1.06444e-06 -3.85989e-07 2.34603e-05
0.000759173 4.89046e-05 -8.08378e-06
4.89046e-05 -0.000208495 -2.55101e-06
-8.08378e-06 -2.55101e-06 -0.000293616
0.00153923 7.3824e-05 -1.20819e-06
7.3824e-05 0.000110962 -3.31412e-07
-1.20819e-06 -3.31412e-07 1.27684e-05
0.00169268 7.07894e-05 2.89021e-06
7.07894e-05 0.000132124 2.55434e-07
2.89021e-06 2.55434e-07 2.85886e-05
0.000717144 6.09685e-05 -1.17406e-05
6.09685e-05 -6.19788e-05 -4.54182e-06
-1.17406e-05 -4.54182e-06 -0.000112085
0.000709098 5.90266e-05 -1.93912e-06
5.90266e-05 -0.000196544 -6.88959e-07
-1.93912e-06 -6.88959e-07 -0.000281482
0.00154031 9.41418e-05 4.07183e-06
9.41418e-05 0.000162568 1.19581e-06
4.07183e-06 1.19581e-06 6.54427e-05
0.00413009 -7.18756e-05 -6.88927e-05
-7.18756e-05 0.00182441 -4.26208e-06
-6.88927e-05 -4.26208e-06 0.00181107
0.000682757 5.59405e-05 2.92935e-07
5.59405e-05 -5.39608e-05 2.00952e-07
2.92935e-07 2.00952e-07 -0.00010463
0.00058794 5.91812e-05 4.78234e-06
5.91812e-05 -0.000207677 2.26984e-06
4.78234e-06 2.26984e-06 -0.00029147
0.00350114 -8.29779e-05 -3.53137e-06
-8.29779e-05 0.00149853 2.1872e-07
-3.53137e-06 2.1872e-07 0.00148795
0.000595623 3.43546e-05 6.95478e-06
3.43546e-05 -7.51653e-05 4.67831e-06
6.95478e-06 4.67831e-06 -0.000123576
0.00306084 -9.87083e-05 4.13186e-05
-9.87083e-05 0.00125519 2.69044e-06
4.13186e-05 2.69044e-06 0.0012478
0.00187008 5.54381e-06 -5.69287e-07
5.54381e-06 0.000162415 -7.44776e-07
-5.69287e-07 -7.44776e-07 5.54353e-05
0.00182059 -4.44694e-06 6.05117e-08
-4.44694e-06 0.000116535 5.3505e-07
6.05117e-08 5.3505e-07 1.20208e-05
0.00181992 -1.55399e-06 -3.71168e-07
-1.55399e-06 0.000101779 -1.4664e-07
-3.71168e-07 -1.4664e-07 1.44136e-07
0.00180531 -2.80295e-06 -3.14188e-06
-2.80295e-06 0.000169391 1.16238e-07
-3.14188e-06 1.16238e-07 6.23507e-05
0.00184056 8.76353e-06 6.87654e-07
8.76353e-06 0.000148875 5.60421e-08
6.87654e-07 5.60421e-08 3.7e-05
0.00178652 7.4796e-06 -5.02016e-07
7.4796e-06 9.92705e-05 -1.1072e-06
-5.02016e-07 -1.1072e-06 -1.01763e-05
0.00176424 1.39314e-05 9.56666e-07
1.39314e-05 0.000147307 -9.34137e-07
9.56666e-07 -9.34137e-07 3.83298e-05
0.0017304 8.14677e-06 8.76826e-07
8.14677e-06 0.00016553 -7.35335e-08
8.76826e-07 -7.35335e-08 6.18388e-05
0.000929635 2.09006e-06 -8.12399e-06
2.09006e-06 -0.000178326 1.73445e-06
-8.12399e-06 1.73445e-06 -0.000272221
0.0018389 1.11994e-05 3.7467e-06
1.11994e-05 0.000254444 -5.03629e-07
3.7467e-06 -5.03629e-07 0.000157071
0.00103013 3.52868e-06 -1.60428e-06
3.52868e-06 -9.05839e-05 4.08232e-07
-1.60428e-06 4.08232e-07 -0.000177322
0.000716341 -3.87984e-06 -1.13631e-05
-3.87984e-06 -0.000101943 1.25437e-06
-1.13631e-05 1.25437e-06 -0.000153581
0.00121215 -1.43857e-05 7.09783e-06
-1.43857e-05 1.64815e-05 -1.04346e-06
7.09783e-06 -1.04346e-06 -6.5885e-05
0.00071182 -3.55925e-06 2.38095e-07
-3.55925e-06 -9.40404e-05 -7.66439e-08
2.38095e-07 -7.66439e-08 -0.000142316
0.00447263 2.71363e-05 -8.16782e-05
2.71363e-05 0.00197325 1.07136e-06
-8.16782e-05 1.07136e-06 0.00196698
0.000685357 -1.50653e-05 1.06601e-05
-1.50653e-05 -9.99598e-05 -2.16055e-06
1.06601e-05 -2.16055e-06 -0.000147109
0.00443282 3.37519e-05 2.4297e-07
3.37519e-05 0.00195636 2.89323e-07
2.4297e-07 2.89323e-07 0.00194957
0.00156495 -3.05185e-06 7.14368e-05
-3.05185e-06 0.000459773 -2.89534e-06
7.14368e-05 -2.89534e-06 0.000438551
0.00186474 3.97735e-06 -4.83104e-07
3.97735e-06 0.000186024 -4.07394e-07
-4.83104e-07 -4.07394e-07 8.59503e-05
0.00172172 -1.40675e-06 6.59123e-07
-1.40675e-06 8.63871e-05 6.3993e-07
6.59123e-07 6.3993e-07 -1.33343e-05
0.00148917 1.45214e-05 -2.77159e-06
1.45214e-05 4.76846e-05 -7.68316e-07
-2.77159e-06 -7.68316e-07 -4.94058e-05
0.00166107 1.43034e-05 3.01091e-07
1.43034e-05 8.68689e-05 -7.99313e-08
3.01091e-07 -7.99313e-08 -1.28066e-05
0.00168675 7.14868e-06 1.62263e-06
7.14868e-06 6.25792e-05 1.47586e-07
1.62263e-06 1.47586e-07 -3.78491e-05
0.00121627 3.6659e-05 -7.20509e-06
3.6659e-05 8.53972e-06 -1.81124e-06
-7.20509e-06 -1.81124e-06 -7.47416e-05
0.00147806 4.18911e-05 -2.96048e-08
4.18911e-05 5.63857e-05 6.58979e-08
-2.96048e-08 6.58979e-08 -4.05084e-05
0.0016034 3.233e-05 1.76837e-06
3.233e-05 6.27168e-05 -1.752e-08
1.76837e-06 -1.752e-08 -3.79288e-05
0.000711059 4.592e-05 -1.19657e-05
4.592e-05 -8.50156e-05 -3.83374e-06
-1.19657e-05 -3.83374e-06 -0.000133933
0.000984241 5.44519e-05 -2.29827e-06
5.44519e-05 -9.09524e-05 -5.17265e-07
-2.29827e-06 -5.17265e-07 -0.000175484
0.00193389 8.28756e-05 3.1821e-06
8.28756e-05 0.00031692 7.10056e-07
3.1821e-06 7.10056e-07 0.000220154
0.00441295 -5.26816e-05 -7.61358e-05
-5.26816e-05 0.00195882 -3.64433e-06
-7.61358e-05 -3.64433e-06 0.00194836
0.000675912 5.58208e-05 2.14599e-07
5.58208e-05 -8.14464e-05 1.64122e-07
2.14599e-07 1.64122e-07 -0.000131747
0.000748623 6.07614e-05 4.39151e-06
6.07614e-05 -0.000179042 1.56346e-06
4.39151e-06 1.56346e-06 -0.000264632
0.00391512 -6.51156e-05 -6.09303e-07
-6.51156e-05 0.00171221 1.94746e-07
-6.09303e-07 1.94746e-07 0.00170093
0.000593421 5.01423e-05 8.99487e-06
5.01423e-05 -9.70485e-05 5.09066e-06
8.99487e-06 5.09066e-06 -0.000147495
0.00331189 -0.000101925 4.74388e-05
-0.000101925 0.00140149 2.81305e-06
4.74388e-05 2.81305e-06 0.00139016
0.00180712 9.7711e-06 -2.12983e-06
9.7711e-06 0.000177622 -8.9253e-07
-2.12983e-06 -8.9253e-07 7.50684e-05
0.0018588 3.17368e-06 2.94492e-07
3.17368e-06 0.000159455 3.49793e-07
2.94492e-07 3.49793e-07 5.28974e-05
0.00187662 -3.87919e-06 1.39729e-06
-3.87919e-06 0.000145959 1.21896e-06
1.39729e-06 1.21896e-06 4.18787e-05
0.000973508 -1.34994e-05 -8.96544e-06
-1.34994e-05 -0.000179108 5.3372e-07
-8.96544e-06 5.3372e-07 -0.000275683
0.00181605 4.14409e-06 9.12564e-07
4.14409e-06 0.000176097 1.15797e-07
9.12564e-07 1.15797e-07 6.87745e-05
0.00175159 8.44544e-06 1.6923e-06
8.44544e-06 0.000106677 -7.08066e-07
1.6923e-06 -7.08066e-07 -4.69801e-06
0.00172967 7.97949e-06 3.95537e-06
7.97949e-06 0.000165621 -9.14146e-07
3.95537e-06 -9.14146e-07 6.1941e-05
0.000910919 1.49147e-06 -1.17655e-06
1.49147e-06 -0.000183858 4.51357e-07
-1.17655e-06 4.51357e-07 -0.00027705
0.000741582 4.36728e-06 -1.19662e-05
4.36728e-06 -0.000108016 8.49375e-07
-1.19662e-05 8.49375e-07 -0.000163636
0.00119841 6.72342e-06 5.40343e-06
6.72342e-06 -3.81144e-07 -8.56489e-07
5.40343e-06 -8.56489e-07 -8.5369e-05
0.000744957 5.56265e-06 3.04601e-07
5.56265e-06 -8.86798e-05 -5.50801e-08
3.04601e-07 -5.50801e-08 -0.000140361
0.004613 2.74629e-05 -8.44108e-05
2.74629e-05 0.00204112 3.29116e-07
-8.44108e-05 3.29116e-07 0.00203475
0.000720254 5.5973e-06 1.07699e-05
5.5973e-06 -9.00464e-05 -1.46893e-06
1.07699e-05 -1.46893e-06 -0.000138281
0.00451627 4.42276e-05 2.42518e-06
4.42276e-05 0.00199542 2.2127e-07
2.42518e-06 2.2127e-07 0.00198862
0.00448992 3.78076e-05 8.39524e-05
3.78076e-05 0.00198437 -1.23342e-06
8.39524e-05 -1.23342e-06 0.00197778
0.00156446 5.42271e-06 -2.81053e-06
5.42271e-06 7.20464e-05 -1.16191e-06
-2.81053e-06 -1.16191e-06 -2.73724e-05
0.00174381 2.82265e-06 3.9322e-07
2.82265e-06 0.000121888 7.52034e-08
3.9322e-07 7.52034e-08 2.17703e-05
0.0016635 -1.80611e-06 1.23707e-06
-1.80611e-06 5.80069e-05 1.0371e-06
1.23707e-06 1.0371e-06 -4.08499e-05
0.00124203 1.18892e-05 -7.05179e-06
1.18892e-05 4.45684e-06 -1.77474e-06
-7.05179e-06 -1.77474e-06 -8.02266e-05
0.00151727 1.45913e-05 1.2854e-07
1.45913e-05 6.14137e-05 -8.74851e-08
1.2854e-07 -8.74851e-08 -3.57497e-05
0.00168263 1.37206e-05 1.16934e-06
1.37206e-05 9.68461e-05 -1.14549e-08
1.16934e-06 -1.14549e-08 -2.88326e-06
0.000726931 2.75159e-05 -1.18126e-05
2.75159e-05 -9.2538e-05 -3.17455e-06
-1.18126e-05 -3.17455e-06 -0.00014149
0.00121826 3.73265e-05 -5.57249e-08
3.73265e-05 9.826e-06 1.17815e-07
-5.57249e-08 1.17815e-07 -7.36009e-05
0.00152009 4.25335e-05 3.50303e-06
4.25335e-05 7.58063e-05 7.61027e-07
3.50303e-06 7.61027e-07 -2.09914e-05
0.00455273 -2.01538e-05 -8.6424e-05
-2.01538e-05 0.00201688 -2.83975e-06
-8.6424e-05 -2.83975e-06 0.00201026
0.000690199 4.44346e-05 1.26138e-08
4.44346e-05 -9.48668e-05 1.17254e-07
1.26138e-08 1.17254e-07 -0.000143894
0.00120675 6.01425e-05 5.13783e-06
6.01425e-05 2.5294e-05 1.66811e-06
5.13783e-06 1.66811e-06 -5.86588e-05
0.00424734 -4.56815e-05 4.40961e-06
-4.56815e-05 0.00187561 9.3559e-08
4.40961e-06 9.3559e-08 0.00186515
0.000630028 5.06264e-05 1.02583e-05
5.06264e-05 -0.000103537 4.6111e-06
1.02583e-05 4.6111e-06 -0.000153885
0.00370608 -9.12712e-05 5.50575e-05
-9.12712e-05 0.00160953 3.61818e-06
5.50575e-05 3.61818e-06 0.00159628
0.00133305 2.34568e-06 -7.59173e-06
2.34568e-06 1.31475e-05 -6.79157e-07
-7.59173e-06 -6.79157e-07 -7.91408e-05
0.00163688 4.40645e-06 1.10186e-06
4.40645e-06 8.65981e-05 -1.92862e-07
1.10186e-06 -1.92862e-07 -1.7744e-05
0.0018609 -3.00538e-07 1.53925e-06
-3.00538e-07 0.000163296 1.6143e-06
1.53925e-06 1.6143e-06 5.71589e-05
0.000758549 1.30492e-05 -1.2753e-05
1.30492e-05 -0.000116231 -1.3904e-07
-1.2753e-05 -1.3904e-07 -0.000173146
0.000953076 -6.18506e-06 -1.48568e-06
-6.18506e-06 -0.000187774 3.79519e-07
-1.48568e-06 3.79519e-07 -0.00028411
0.00183528 1.08037e-05 4.83443e-06
1.08037e-05 0.00018726 -5.97014e-07
4.83443e-06 -5.97014e-07 7.96321e-05
0.000890924 1.39466e-06 5.27011e-06
1.39466e-06 -0.000190095 -5.42114e-07
5.27011e-06 -5.42114e-07 -0.000282574
0.000760835 7.47394e-06 1.84666e-07
7.47394e-06 -9.93586e-05 2.64373e-07
1.84666e-07 2.64373e-07 -0.000155122
0.00489632 2.82404e-05 -8.81735e-05
2.82404e-05 0.00217917 -4.23768e-07
-8.81735e-05 -4.23768e-07 0.00217234
0.000766533 1.4274e-05 1.12976e-05
1.4274e-05 -7.85699e-05 -1.13336e-06
1.12976e-05 -1.13336e-06 -0.000130504
0.00470272 3.11806e-05 1.55614e-06
3.11806e-05 0.00208472 3.12341e-07
1.55614e-06 3.12341e-07 0.00207836
0.00455724 3.6745e-05 8.83198e-05
3.6745e-05 0.00201423 -4.91133e-07
8.83198e-05 -4.91133e-07 0.00200814
0.0012908 2.75062e-06 -7.39194e-06
2.75062e-06 9.41245e-06 -1.76504e-06
-7.39194e-06 -1.76504e-06 -7.89906e-05
0.00149108 3.90279e-06 -4.80802e-08
3.90279e-06 3.13921e-05 -1.32696e-07
-4.80802e-08 -1.32696e-07 -6.86467e-05
0.00161279 1.65606e-06 1.08516e-06
1.65606e-06 5.26465e-05 7.25352e-07
1.08516e-06 7.25352e-07 -4.7515e-05
0.00241483 4.66004e-06 -4.98749e-05
4.66004e-06 0.000775795 -1.91535e-06
-4.98749e-05 -1.91535e-06 0.000734944
0.00124743 1.26801e-05 1.12023e-07
1.26801e-05 7.57543e-06 1.74233e-08
1.12023e-07 1.74233e-08 -7.73115e-05
0.00154772 1.44902e-05 3.1997e-06
1.44902e-05 7.63256e-05 6.56171e-07
3.1997e-06 6.56171e-07 -2.09114e-05
0.00467872 -1.22654e-05 -9.3628e-05
-1.22654e-05 0.00207238 -2.04438e-06
-9.3628e-05 -2.04438e-06 0.00206684
0.000719211 2.86433e-05 -4.20886e-08
2.86433e-05 -9.62501e-05 4.60174e-08
-4.20886e-08 4.60174e-08 -0.000145209
0.00122188 3.79052e-05 7.38731e-06
3.79052e-05 1.19162e-05 1.9924e-06
7.38731e-06 1.9924e-06 -7.16685e-05
0.00446755 -1.5221e-05 2.00538e-06
-1.5221e-05 0.00197566 3.24825e-07
2.00538e-06 3.24825e-07 0.00196868
0.000669768 4.32113e-05 1.10832e-05
4.32113e-05 -0.000104436 3.95249e-06
1.10832e-05 3.95249e-06 -0.000153524
0.00410683 -3.51735e-05 7.14463e-05
-3.51735e-05 0.00180224 3.44539e-06
7.14463e-05 3.44539e-06 0.00179377
0.000806423 6.47821e-06 -1.48646e-05
6.47821e-06 -9.4539e-05 -1.80218e-06
-1.48646e-05 -1.80218e-06 -0.000152938
0.00114113 -6.88474e-07 2.4901e-07
-6.88474e-07 -8.73234e-05 4.01425e-07
2.4901e-07 4.01425e-07 -0.000180719
0.00146479 -9.53235e-07 4.06065e-06
-9.53235e-07 -5.6287e-06 8.58499e-07
4.06065e-06 8.58499e-07 -0.000111688
0.00516306 -5.41408e-05 -8.91805e-05
-5.41408e-05 0.00231675 -1.52166e-06
-8.91805e-05 -1.52166e-06 0.00230462
0.000781748 9.00442e-06 1.90802e-08
9.00442e-06 -0.00010395 3.52954e-07
1.90802e-08 3.52954e-07 -0.00016168
0.000938962 7.22882e-07 5.73488e-06
7.22882e-07 -0.000193238 8.01133e-08
5.73488e-06 8.01133e-08 -0.000289342
0.00079008 1.49104e-05 1.20481e-05
1.49104e-05 -8.54007e-05 -2.19715e-07
1.20481e-05 -2.19715e-07 -0.000141509
0.00500151 6.37119e-05 4.0096e-06
6.37119e-05 0.00223275 4.16956e-07
4.0096e-06 4.16956e-07 0.00222441
0.00479931 6.18289e-05 9.34029e-05
6.18289e-05 0.0021331 2.88126e-07
9.34029e-05 2.88126e-07 0.00212567
0.00254239 -1.53106e-05 -5.47783e-05
-1.53106e-05 0.000824943 -2.03938e-06
-5.47783e-05 -2.03938e-06 0.000780338
0.00129037 4.3963e-06 -1.04844e-07
4.3963e-06 9.25903e-06 1.13806e-09
-1.04844e-07 1.13806e-09 -7.9143e-05
0.00140968 2.52863e-06 2.8323e-06
2.52863e-06 -1.33321e-05 9.0219e-07
2.8323e-06 9.0219e-07 -0.000113989
0.00458478 1.08072e-06 -2.67996e-05
1.08072e-06 0.00202546 -8.95319e-07
-2.67996e-05 -8.95319e-07 0.00201603
0.000767888 9.9285e-06 -1.47106e-07
9.9285e-06 -8.33721e-05 6.80166e-08
-1.47106e-07 6.80166e-08 -0.000134533
0.00125875 1.44066e-05 7.22513e-06
1.44066e-05 1.33989e-05 1.78955e-06
7.22513e-06 1.78955e-06 -7.16323e-05
0.00460563 -6.47732e-06 -3.55476e-07
-6.47732e-06 0.00203751 3.5324e-07
-3.55476e-07 3.5324e-07 0.00203174
0.000709872 3.05273e-05 1.18876e-05
3.05273e-05 -0.000100518 3.34967e-06
1.18876e-05 3.34967e-06 -0.000149506
0.00436183 -6.96085e-06 8.12791e-05
-6.96085e-06 0.00192305 3.21214e-06
8.12791e-05 3.21214e-06 0.00191627
0.00178801 -1.19133e-05 -9.42183e-05
-1.19133e-05 0.000535339 -1.81427e-07
-9.42183e-05 -1.81427e-07 0.000509511
0.00170078 4.99924e-06 -2.21739e-05
4.99924e-06 0.000375649 5.7138e-07
-2.21739e-05 5.7138e-07 0.000324264
0.00095645 -1.85726e-07 7.40489e-06
-1.85726e-07 -0.000183944 1.48978e-06
7.40489e-06 1.48978e-06 -0.000278457
0.00519118 -4.21845e-05 4.2329e-06
-4.21845e-05 0.00232761 -8.54658e-07
4.2329e-06 -8.54658e-07 0.0023173
0.000787727 7.0735e-06 1.29012e-05
7.0735e-06 -0.00010088 8.41512e-07
1.29012e-05 8.41512e-07 -0.000158945
0.00508696 3.30904e-05 9.95446e-05
3.30904e-05 0.00227176 1.00758e-06
9.95446e-05 1.00758e-06 0.00226505
0.00149472 -4.38912e-05 -9.64355e-06
-4.38912e-05 0.000399616 -8.15057e-07
-9.64355e-06 -8.15057e-07 0.000369906
0.00167811 3.00928e-06 -2.09491e-05
3.00928e-06 0.000376942 1.87841e-07
-2.09491e-05 1.87841e-07 0.000327463
0.00129112 3.71632e-06 7.06209e-06
3.71632e-06 9.81039e-06 1.80585e-06
7.06209e-06 1.80585e-06 -7.86282e-05
0.00309717 -2.32579e-06 3.78392e-05
-2.32579e-06 0.00124183 3.87823e-07
3.78392e-05 3.87823e-07 0.00122564
0.00075794 1.67617e-05 1.22929e-05
1.67617e-05 -8.84674e-05 2.92405e-06
1.22929e-05 2.92405e-06 -0.000139884
0.00455928 1.69616e-06 8.76261e-05
1.69616e-06 0.00201565 2.71181e-06
8.76261e-05 2.71181e-06 0.00200973
0.0052245 -6.39334e-05 -4.49991e-06
-6.39334e-05 0.00234144 4.80745e-07
-4.49991e-06 4.80745e-07 0.0023323
0.000780413 1.14418e-05 1.29493e-05
1.14418e-05 -0.00010471 1.98286e-06
1.29493e-05 1.98286e-06 -0.000161815
0.00523004 4.053e-05 9.68721e-05
4.053e-05 0.00234568 -9.93284e-07
9.68721e-05 -9.93284e-07 0.00233573
0.0032732 -5.90821e-06 4.03191e-05
-5.90821e-06 0.00132449 3.43378e-08
4.03191e-05 3.43378e-08 0.00130676
0.000781963 8.82824e-06 1.24304e-05
8.82824e-06 -9.00296e-05 2.59099e-06
1.24304e-05 2.59099e-06 -0.00014519
0.00472369 -1.29657e-06 9.01963e-05
-1.29657e-06 0.00209353 1.94552e-06
9.01963e-05 1.94552e-06 0.0020877
0.00514615 -0.000120741 8.98721e-05
-0.000120741 0.0023099 -6.16603e-08
8.98721e-05 -6.16603e-08 0.00229589
0.00494461 -5.70954e-05 8.95449e-05
-5.70954e-05 0.00220298 7.90226e-07
8.95449e-05 7.90226e-07 0.00219518
