# vtk DataFile Version 2.0
Wound Healing Simulation
ASCII
DATASET UNSTRUCTURED_GRID
POINTS 3012 float
69.9759 18.75 4
67.2507 60.3285 4
69.976 18.75 2
73.0099 25.446 4
71.1327 20.9142 4
68.6801 16.6661 4
67.8214 19.9262 3.97344
67.2507 60.3286 2
71.1327 54.0858 4
68.6801 58.3339 4
65.6939 62.2254 4
65.3081 58.9988 3.97209
74.6784 42.3946 4
73.7221 47.2057 4
69.9759 18.75 0
73.0099 25.446 2
68.6801 16.6661 2
71.1327 20.9142 2
67.822 19.9299 2
74.6792 32.6053 4
73.7222 27.7943 4
72.1454 23.1494 4
70.6113 26.2217 3.97343
68.8818 21.9578 3.97367
67.2507 14.6715 4
66.6327 17.9733 3.97226
65.755 21.0398 3.96231
67.2507 60.3285 0
71.1327 54.0858 2
68.6801 58.3339 2
65.694 62.2255 2
65.3096 58.9943 2
72.1454 51.8506 4
69.9759 56.25 4
68.8322 53.1143 3.97347
64.0165 64.0165 4
66.6064 57.1329 3.9733
63.8812 60.7619 3.96945
63.4847 57.761 3.96208
60.3285 67.2507 4
74.6792 42.3947 2
73.7222 47.2057 2
74.9194 39.9526 4
74.2788 44.8158 4
72.1659 42.0858 3.97485
73.0099 49.554 4
71.2465 46.5985 3.97339
73.0099 25.446 0
71.1327 20.9142 0
68.6801 16.6661 0
67.8214 19.9262 0.0265578
74.6792 32.6053 2
73.7222 27.7943 2
67.2508 14.6715 2
72.1455 23.1494 2
70.6106 26.2224 2
66.6338 17.9775 2
68.8819 21.9604 2
65.7533 21.0415 2
74.9197 35.0474 4
74.2794 30.1841 4
72.1827 32.9449 3.97535
71.2757 28.4327 3.97352
69.8121 24.0596 3.97351
68.3253 26.9595 3.96411
66.725 22.9456 3.96292
65.694 12.7746 4
65.3193 16.1065 3.97099
64.6729 19.2111 3.96143
63.7409 22.0924 3.96429
71.1327 54.0858 0
65.6939 62.2254 0
68.6801 58.3339 0
65.3081 58.9988 0.0279082
72.1455 51.8506 2
69.9759 56.25 2
68.8325 53.1112 2
64.0165 64.0165 2
66.6076 57.1283 2
63.8821 60.7572 2
63.4767 57.7591 2
62.2254 65.694 4
58.8909 65.4121 3.98067
69.7651 50.9902 3.97319
67.7793 55.1678 3.97359
66.6033 52.198 3.96297
62.3318 62.4241 3.97473
64.6261 56.0202 3.96245
62.192 59.3881 3.96267
61.7167 56.6314 3.96056
58.3339 68.6801 4
60.3285 67.2508 2
73.7221 47.2057 0
74.6784 42.3946 0
74.9197 39.9526 2
74.2794 44.8159 2
72.1649 42.0855 2
73.0099 49.554 2
71.2457 46.5975 2
75 37.5 4
72.4033 39.8027 3.97603
71.78 44.3531 3.97431
69.7966 41.7891 3.96598
70.5718 48.8145 3.97317
68.892 46.0105 3.96552
74.6792 32.6053 0
73.7222 27.7943 0
67.2507 14.6715 0
72.1454 23.1494 0
70.6113 26.2217 0.0265661
68.8818 21.9578 0.0263315
66.6327 17.9733 0.0277352
65.755 21.0398 0.0376857
74.9197 35.0474 2
74.2794 30.1841 2
72.1818 32.9447 2
71.2748 28.433 2
65.694 12.7745 2
65.3202 16.1111 2
69.8118 24.0612 2
68.329 26.9602 2
64.6671 19.2132 2
66.7258 22.947 2
63.7396 22.0931 2
72.4112 35.2254 3.97616
71.8016 30.678 3.97455
69.8339 33.2726 3.96605
68.9537 29.0445 3.96479
67.5802 24.9223 3.96345
66.0354 27.6778 3.97037
64.0165 10.9835 4
64.6032 23.8836 3.96659
63.8846 14.3322 3.96787
63.49 17.463 3.95999
62.7656 20.3817 3.96214
61.8322 23.0449 3.96996
60.6804 11.1027 3.97548
57.6048 11.4798 3.96684
72.1454 51.8506 0
69.9759 56.25 0
68.8322 53.1143 0.0265273
64.0165 64.0165 0
63.8812 60.7619 0.0305496
66.6064 57.1329 0.0267038
63.4847 57.761 0.0379246
62.2255 65.694 2
58.8932 65.4073 2
69.7649 50.988 2
67.7801 55.1638 2
66.6038 52.1965 2
62.3337 62.4182 2
64.6198 56.0181 2
62.1882 59.3881 2
61.7131 56.6314 2
60.6651 63.9728 3.97767
57.0214 66.7325 3.9827
57.5504 63.6674 3.97259
67.4645 50.1669 3.96363
65.6595 54.1619 3.96251
64.3606 51.3322 3.9666
60.7663 60.9145 3.96671
62.6862 55.0163 3.96331
60.5775 58.1099 3.95806
60.14 55.7007 3.96532
56.25 69.9759 4
58.3339 68.6801 2
60.3285 67.2507 0
58.9177 9.6598 3.97768
62.2254 9.30607 4
73.0099 49.554 0
74.2788 44.8158 0
71.2465 46.5985 0.0266111
72.1659 42.0858 0.0251504
74.9194 39.9526 0
75 37.5 2
72.403 39.8026 2
71.7794 44.3523 2
69.7965 41.7889 2
70.5713 48.813 2
68.8963 46.01 2
72.4867 37.5129 3.97574
70.035 39.6581 3.96649
69.4207 43.9056 3.96592
67.4661 41.4849 3.97507
68.2315 48.0998 3.96449
66.5413 45.4075 3.97322
74.9197 35.0474 0
74.2794 30.1841 0
72.1827 32.9449 0.0246488
71.2757 28.4327 0.0264807
65.694 12.7746 0
65.3193 16.1065 0.0290132
69.8121 24.0596 0.0264919
68.3253 26.9595 0.0358897
66.725 22.9456 0.0370751
64.6729 19.2111 0.0385698
63.7409 22.0924 0.0357128
72.4109 35.225 2
71.801 30.6781 2
69.8329 33.2731 2
68.9573 29.0449 2
64.0165 10.9835 2
63.8858 14.3376 2
63.4845 17.464 2
67.5827 24.9233 2
66.033 27.679 2
62.7659 20.3818 2
64.6009 23.8847 2
61.8303 23.0453 2
60.6825 11.1078 2
57.604 11.4728 2
70.0519 35.3952 3.96662
69.4594 31.1547 3.96514
67.5336 33.6079 3.97443
66.6254 29.6572 3.97263
65.3648 25.7485 3.9685
63.8417 28.3365 3.97599
62.3369 12.6596 3.97352
62.578 24.7332 3.97264
62.1856 15.8051 3.96237
61.6864 18.7492 3.95953
60.9693 21.4497 3.96615
60.0601 23.8709 3.97345
59.2377 12.8154 3.96308
55.8676 10.2648 3.97378
56.392 13.1804 3.96587
69.7651 50.9902 0.0268114
62.2254 65.694 0
58.8909 65.4121 0.0193252
67.7793 55.1678 0.0264123
66.6033 52.198 0.0370265
62.3318 62.4241 0.025269
62.192 59.3881 0.0373303
64.6261 56.0202 0.0375456
61.7167 56.6314 0.0394423
60.6676 63.9694 2
57.0244 66.7287 2
57.5513 63.6716 2
67.4662 50.1658 2
65.6572 54.1601 2
64.3587 51.3314 2
60.7631 60.9153 2
62.6863 55.0166 2
60.5741 58.1106 2
60.139 55.7008 2
55.0674 67.9301 3.98536
59.212 62.3318 3.96668
55.7967 64.8857 3.97253
56.3158 62.0389 3.97759
65.1451 49.3588 3.96862
63.5442 53.2383 3.96487
62.1207 50.5562 3.97125
59.2922 59.512 3.95866
60.8406 54.2186 3.96805
59.1052 56.9204 3.96045
58.985 55.0733 3.9686
48.0992 68.5718 3.98169
50.9451 69.9306 3.98803
54.0858 71.1327 4
56.25 69.976 2
58.3339 68.6801 0
57.0546 8.33924 3.97884
60.3285 7.74928 4
58.9203 9.6648 2
62.2255 9.30602 2
70.5718 48.8145 0.0268319
71.78 44.3531 0.0256872
68.892 46.0105 0.0344841
69.7966 41.7891 0.0340241
72.4033 39.8027 0.0239666
75 37.5 0
72.4859 37.5126 2
70.0346 39.658 2
69.4217 43.9052 2
67.4632 41.4844 2
68.2336 48.0988 2
66.5382 45.4064 2
70.1231 37.5235 3.96667
67.7122 39.5079 3.97491
67.0761 43.4479 3.97476
65.2561 41.1833 3.97665
65.8843 47.3758 3.97089
64.3198 44.7839 3.97598
72.4112 35.2254 0.0238416
71.8016 30.678 0.0254461
69.8339 33.2726 0.0339517
68.9537 29.0445 0.0352145
64.0165 10.9835 0
63.8846 14.3322 0.0321285
63.49 17.463 0.0400071
67.5802 24.9223 0.0365529
66.0354 27.6778 0.0296304
64.6032 23.8836 0.0334105
62.7656 20.3817 0.0378633
61.8322 23.0449 0.0300421
60.6804 11.1027 0.0245231
57.6048 11.4798 0.0331608
70.0516 35.3954 2
69.4599 31.155 2
67.5311 33.6084 2
66.624 29.6581 2
62.3388 12.6651 2
62.1829 15.8055 2
61.6862 18.7489 2
65.3624 25.7497 2
63.8391 28.3375 2
60.9687 21.4494 2
62.5758 24.7338 2
60.0598 23.8714 2
59.2365 12.8142 2
56.3909 13.1774 2
55.8683 10.2687 2
67.7529 35.5573 3.97459
67.138 31.6475 3.97416
65.4164 33.9587 3.97649
64.3549 30.2606 3.97571
63.247 26.5034 3.97493
61.8262 28.8912 3.97559
60.7662 14.2508 3.96423
60.6508 25.4775 3.97493
60.5323 17.1872 3.95751
59.979 19.9325 3.96203
59.3052 22.4102 3.969
58.5277 24.5013 3.97408
54.0314 9.15987 3.97025
57.8879 14.3897 3.96041
54.7756 12.073 3.97112
55.2824 14.7353 3.95874
67.4645 50.1669 0.0363663
57.0214 66.7325 0.0173015
60.6651 63.9728 0.0223345
57.5504 63.6674 0.0274142
65.6595 54.1619 0.037486
64.3606 51.3322 0.0334027
60.7663 60.9145 0.033286
60.5775 58.1099 0.0419383
62.6862 55.0163 0.036691
60.14 55.7007 0.0346802
55.0708 67.9271 2
59.2109 62.3354 2
55.7983 64.8851 2
56.3138 62.0394 2
65.1427 49.3578 2
63.5433 53.238 2
62.1195 50.5556 2
59.3011 59.5184 2
60.8414 54.2188 2
59.1137 56.9228 2
58.9919 55.0748 2
53.0392 68.9984 3.98624
53.9617 66.0013 3.97412
57.859 60.8242 3.96458
54.6657 63.153 3.96891
55.1873 60.5584 3.9753
62.8587 48.5721 3.97372
61.4598 52.4801 3.96963
59.8208 49.8816 3.97302
57.894 58.184 3.95844
59.0154 53.8267 3.97072
57.8278 55.6842 3.96292
50.1051 67.8479 3.97929
47.4589 66.566 3.976
46.0534 69.1517 3.98375
48.1007 68.571 2
48.7992 70.7223 3.98927
50.9479 69.9294 2
51.8506 72.1454 4
54.0858 71.1327 2
56.25 69.9759 0
55.0993 7.14361 3.98324
58.3339 6.31992 4
57.058 8.34479 2
60.3286 7.74926 2
58.9177 9.6598 0.0223213
62.2254 9.30607 0
68.2315 48.0998 0.035509
69.4207 43.9056 0.0340821
66.5413 45.4075 0.0267763
67.4661 41.4849 0.0249255
70.035 39.6581 0.0335061
72.4867 37.5129 0.0242629
70.1223 37.5236 2
67.7086 39.5077 2
67.0746 43.447 2
65.2539 41.183 2
65.8818 47.3746 2
64.3174 44.783 2
67.8138 37.5249 3.97472
65.4983 39.3591 3.97667
64.8636 42.9788 3.97622
63.333 40.8914 3.97669
63.6232 46.6376 3.97543
62.3398 44.1324 3.97579
70.0519 35.3952 0.0333763
69.4594 31.1547 0.0348561
67.5336 33.6079 0.0255698
66.6254 29.6572 0.0273714
62.3369 12.6596 0.0264765
62.1856 15.8051 0.0376304
61.6864 18.7492 0.0404738
65.3648 25.7485 0.0315046
63.8417 28.3365 0.0240059
62.578 24.7332 0.0273557
60.9693 21.4497 0.0338491
60.0601 23.8709 0.0265515
59.2377 12.8154 0.03692
56.392 13.1804 0.0341288
55.8676 10.2648 0.0262169
67.7499 35.5576 2
67.137 31.6482 2
65.4129 33.9592 2
64.3527 30.2615 2
60.764 14.2509 2
60.5225 17.1887 2
59.976 19.9322 2
63.2452 26.5042 2
61.8249 28.8913 2
59.3089 22.4098 2
60.6496 25.4784 2
58.5254 24.5038 2
57.8881 14.3893 2
55.2793 14.7294 2
54.0344 9.15687 2
54.7717 12.077 2
65.5976 35.6845 3.97648
64.8836 32.2025 3.97587
63.9085 34.288 3.97636
62.1452 30.7249 3.97564
61.2343 27.2017 3.97524
60.3269 29.275 3.97578
59.2634 15.7266 3.95707
58.8363 25.9792 3.97546
58.9415 18.465 3.95916
58.4031 21.0123 3.96355
57.8498 23.2803 3.97025
57.4756 24.87 3.97559
52.1083 8.16497 3.97289
53.0428 11.0767 3.96729
56.6242 15.8298 3.95708
53.7937 13.7588 3.97806
54.3094 16.1103 3.96038
55.0674 67.9301 0.0146434
65.1451 49.3588 0.0313779
55.7967 64.8857 0.0274672
59.212 62.3318 0.0333186
56.3158 62.0389 0.0224115
63.5442 53.2383 0.0351348
62.1207 50.5562 0.0287517
59.2922 59.512 0.0413361
59.1052 56.9204 0.0395457
60.8406 54.2186 0.0319494
58.985 55.0733 0.031404
53.0424 68.9964 2
53.9635 65.9997 2
57.8601 60.8269 2
54.6648 63.1546 2
55.1852 60.5581 2
62.8572 48.5712 2
61.4597 52.4799 2
59.8221 49.8813 2
57.8984 58.1868 2
59.0205 53.8275 2
57.8246 55.6829 2
52.0656 66.9888 3.9771
52.941 64.185 3.97378
56.5924 59.4271 3.95915
53.6484 61.546 3.9706
54.2082 59.2492 3.96448
60.4968 47.7458 3.97444
59.3172 51.9722 3.97136
57.4678 49.438 3.97459
56.5891 56.8795 3.96184
56.7205 53.9638 3.96652
50.107 67.8477 2
49.3306 65.9014 3.97517
47.4601 66.5641 2
46.8853 64.7046 3.97672
45.5559 67.0844 3.97909
43.9712 69.5842 3.98484
46.0552 69.1522 2
46.606 71.3666 3.9904
48.0992 68.5718 0.0183148
48.8017 70.7213 2
49.554 73.0099 4
50.9451 69.9306 0.0119692
51.8506 72.1455 2
54.0858 71.1327 0
53.0621 6.07426 3.98702
55.1033 7.14587 2
56.25 5.02411 4
58.3339 6.3199 2
57.0546 8.33924 0.0211609
60.3285 7.74928 0
65.8843 47.3758 0.0291079
67.0761 43.4479 0.025241
64.3198 44.7839 0.024025
65.2561 41.1833 0.0233515
67.7122 39.5079 0.0250854
70.1231 37.5235 0.0333261
67.8107 37.525 2
65.4954 39.359 2
64.8608 42.978 2
63.3332 40.8909 2
63.6213 46.6367 2
62.3391 44.1322 2
65.608 37.5054 3.97657
63.4848 39.2509 3.97664
62.8819 42.4949 3.97625
61.9121 40.653 3.97656
61.4801 45.8055 3.97557
60.8745 43.5893 3.97596
67.7529 35.5573 0.0254142
67.138 31.6475 0.0258374
65.4164 33.9587 0.0235087
64.3549 30.2606 0.0242941
60.7662 14.2508 0.0357736
60.5323 17.1872 0.0424866
59.979 19.9325 0.0379681
63.247 26.5034 0.0250739
61.8262 28.8912 0.0244144
60.6508 25.4775 0.0250745
59.3052 22.4102 0.0310013
58.5277 24.5013 0.0259174
57.8879 14.3897 0.0395923
55.2824 14.7353 0.0412615
54.0314 9.15987 0.0297524
54.7756 12.073 0.0288835
65.5945 35.6847 2
64.881 32.2029 2
63.9081 34.2883 2
62.1445 30.7249 2
59.2687 15.7226 2
58.945 18.4623 2
58.4032 21.0128 2
61.2328 27.202 2
60.3272 29.2752 2
57.8431 23.2838 2
58.8343 25.9799 2
57.4761 24.8724 2
56.6057 15.8314 2
54.3071 16.0989 2
53.7842 13.7551 2
52.1108 8.16669 2
53.0453 11.0732 2
63.6955 35.6562 3.97644
62.4702 33.1099 3.97614
60.0368 30.7371 3.97565
59.0124 28.0785 3.97554
57.8214 17.0828 3.9571
57.1728 25.9487 3.97555
57.4342 19.6294 3.9586
56.9397 22.0402 3.96401
56.671 24.1689 3.97222
50.109 7.29413 3.98011
51.2216 10.1592 3.97066
52.1451 12.8871 3.96567
55.4293 17.0886 3.9564
52.9334 15.3576 3.96044
53.6563 17.108 3.95824
53.0392 68.9984 0.0137552
53.9617 66.0013 0.0258827
62.8587 48.5721 0.0262788
54.6657 63.153 0.0310947
57.859 60.8242 0.0354155
55.1873 60.5584 0.0246994
61.4598 52.4801 0.0303723
59.8208 49.8816 0.0269828
57.894 58.184 0.0415587
57.8278 55.6842 0.0370787
59.0154 53.8267 0.0292776
52.0674 66.9878 2
52.941 64.1877 2
56.5909 59.4275 2
53.6466 61.5456 2
54.2031 59.2507 2
60.4966 47.7451 2
59.3196 51.9723 2
57.4691 49.4377 2
56.5852 56.8828 2
56.7179 53.9628 2
51.16 65.1084 3.97503
52.0208 62.4826 3.97076
55.3707 58.1638 3.96066
52.7767 60.04 3.9675
53.5575 58.3839 3.96141
57.625 46.659 3.97558
57.0776 51.6157 3.9713
55.602 49.3417 3.97339
55.2222 55.6589 3.96194
54.8969 53.2027 3.96206
50.1051 67.8479 0.0207055
49.3317 65.9031 2
48.6074 64.0951 3.97826
47.4589 66.566 0.0239986
45.5567 67.0865 2
46.8854 64.7062 2
46.3693 63.0121 3.98187
45.1278 65.1755 3.97853
43.6301 67.4575 3.98074
41.859 69.8711 3.98463
43.9724 69.5843 2
44.3737 71.8612 3.99074
46.0534 69.1517 0.0162523
46.608 71.3663 2
47.2057 73.7222 4
48.7992 70.7223 0.010728
49.554 73.0099 2
51.8506 72.1454 0
50.9533 5.13413 3.98951
53.0651 6.07588 2
54.0858 3.86728 4
55.0993 7.14361 0.0167641
56.25 5.02406 2
58.3339 6.31992 0
63.6232 46.6376 0.0245736
64.8636 42.9788 0.0237809
62.3398 44.1324 0.0242117
63.333 40.8914 0.0233118
65.4983 39.3591 0.0233254
67.8138 37.5249 0.025279
65.605 37.5055 2
63.4849 39.2509 2
62.8824 42.4942 2
61.9136 40.6528 2
61.4795 45.805 2
60.8752 43.5895 2
63.5493 37.4608 3.97651
61.6173 39.3297 3.97686
60.6184 41.8825 3.97673
59.6143 44.6351 3.97565
65.5976 35.6845 0.023523
64.8836 32.2025 0.0241313
63.9085 34.288 0.0236352
62.1452 30.7249 0.0243587
59.2634 15.7266 0.0429305
58.9415 18.465 0.0408436
58.4031 21.0123 0.0364491
61.2343 27.2017 0.0247589
60.3269 29.275 0.0242239
58.8363 25.9792 0.0245419
57.8498 23.2803 0.0297503
57.4756 24.87 0.0244069
56.6242 15.8298 0.0429153
54.3094 16.1103 0.0396151
53.7937 13.7588 0.0219365
52.1083 8.16497 0.02711
53.0428 11.0767 0.0327064
63.6957 35.6564 2
62.4716 33.1103 2
60.0377 30.737 2
57.8288 17.0784 2
57.4456 19.6259 2
56.9381 22.0431 2
59.0126 28.0781 2
56.678 24.1706 2
57.1743 25.9482 2
50.1119 7.29175 2
55.4262 17.0925 2
53.6605 17.1015 2
52.9236 15.3607 2
52.1494 12.8877 2
51.2235 10.157 2
61.6604 35.3941 3.97659
59.6485 32.8394 3.97595
57.929 30.2409 3.97547
56.638 27.6035 3.97591
56.4582 18.2899 3.95848
55.6907 25.3561 3.97494
56.0125 20.7111 3.95893
55.6041 23.1053 3.96475
48.0552 6.53361 3.98446
49.318 9.35277 3.97498
50.4124 12.0619 3.96914
51.3264 14.6043 3.96269
54.2648 18.0691 3.96036
52.2769 17.1809 3.95488
52.0656 66.9888 0.022902
52.941 64.185 0.0262228
60.4968 47.7458 0.0255559
53.6484 61.546 0.0294025
56.5924 59.4271 0.0408474
54.2082 59.2492 0.03552
59.3172 51.9722 0.0286383
57.4678 49.438 0.025413
56.5891 56.8795 0.0381613
56.7205 53.9638 0.0334798
51.1602 65.1071 2
52.0202 62.4857 2
55.3675 58.1641 2
52.775 60.0417 2
53.5543 58.3864 2
57.6254 46.6582 2
57.076 51.6149 2
55.6004 49.3408 2
55.2205 55.659 2
54.8957 53.2026 2
50.33 63.3524 3.97489
51.1948 60.854 3.97294
54.0727 57.1637 3.96578
52.1905 58.527 3.96445
55.8237 43.9954 3.97593
54.7296 47.6584 3.97548
54.4579 51.1745 3.96517
53.6773 54.3872 3.96436
49.3306 65.9014 0.0248251
48.6063 64.0959 2
47.9414 62.4418 3.98495
45.5559 67.0844 0.0209092
46.8853 64.7046 0.023284
43.6306 67.4577 2
46.3694 63.016 2
45.1291 65.1718 2
45.9661 61.5399 3.99202
44.759 63.4142 3.97638
43.3557 65.4886 3.97807
41.6629 67.6758 3.98008
39.7015 70.0174 3.98399
41.86 69.8716 2
42.1086 72.2053 3.99111
43.9712 69.5842 0.015157
44.3752 71.8608 2
44.8159 74.2794 4
46.606 71.3666 0.0096014
47.2057 73.7222 2
49.554 73.0099 0
48.7847 4.32439 3.99033
50.9555 5.13406 2
51.8506 2.85458 4
53.0621 6.07426 0.01298
54.0858 3.86728 2
56.25 5.02411 0
61.4801 45.8055 0.024435
62.8819 42.4949 0.0237511
60.8745 43.5893 0.0240396
61.9121 40.653 0.0234445
63.4848 39.2509 0.0233614
65.608 37.5054 0.0234282
63.5494 37.4608 2
61.6186 39.3295 2
60.6206 41.8826 2
59.6154 44.6352 2
61.4431 37.4477 3.97684
59.5582 39.8016 3.97676
58.2223 42.8008 3.97585
63.6955 35.6562 0.0235608
62.4702 33.1099 0.0238572
60.0368 30.7371 0.0243493
57.8214 17.0828 0.0428992
57.4342 19.6294 0.0414003
56.9397 22.0402 0.0359873
59.0124 28.0785 0.0244592
57.1728 25.9487 0.0244523
56.671 24.1689 0.0277813
55.4293 17.0886 0.0435972
53.6563 17.108 0.0417644
52.9334 15.3576 0.0395552
50.109 7.29413 0.0198928
52.1451 12.8871 0.0343331
51.2216 10.1592 0.0293381
61.662 35.3944 2
59.6492 32.8388 2
57.9303 30.2402 2
56.4577 18.2889 2
56.0359 20.7057 2
55.6127 23.1081 2
56.6397 27.6046 2
55.6983 25.359 2
48.0562 6.53425 2
49.3193 9.35226 2
54.272 18.0732 2
52.266 17.182 2
51.3258 14.6059 2
50.4155 12.063 2
59.1882 35.1677 3.97656
57.1874 32.3999 3.97538
55.7661 29.5559 3.97561
54.7285 26.8882 3.97498
55.1215 19.3528 3.96178
54.3799 24.3233 3.97219
54.5953 21.7891 3.9609
45.9618 5.88747 3.98652
43.3738 7.48282 3.982
47.3525 8.63633 3.97831
48.5854 11.337 3.97151
49.6716 13.818 3.96794
50.554 16.2621 3.96139
52.961 18.8501 3.96534
51.1954 18.2595 3.9586
51.16 65.1084 0.0249674
52.0208 62.4826 0.0292428
57.625 46.659 0.0244167
52.7767 60.04 0.0324968
55.3707 58.1638 0.0393399
53.5575 58.3839 0.0385858
57.0776 51.6157 0.0286982
55.602 49.3417 0.0266138
55.2222 55.6589 0.038063
54.8969 53.2027 0.0379381
50.3286 63.3522 2
51.1939 60.8549 2
54.0709 57.1648 2
52.1836 58.5285 2
55.826 43.9967 2
54.7292 47.6576 2
54.4541 51.1733 2
53.6713 54.3878 2
49.5581 61.7103 3.97447
54.5272 41.6013 3.97374
50.4761 59.2373 3.96558
51.9645 56.3621 3.96345
53.2058 45.2911 3.97392
52.5655 49.076 3.97012
52.1779 52.658 3.95902
48.6074 64.0951 0.0217443
47.9415 62.4399 2
47.2959 60.9697 3.99292
43.6301 67.4575 0.0192596
45.1278 65.1755 0.0214722
46.3693 63.0121 0.0181261
41.6638 67.6752 2
43.3581 65.4891 2
45.9662 61.5448 2
44.7592 63.4125 2
45.7313 60.5857 3.99376
44.4687 61.7858 3.9786
43.1418 63.693 3.97862
41.5463 65.6272 3.97494
39.6327 67.7534 3.97899
37.526 70.0417 3.98355
39.7023 70.0176 2
39.8162 72.4022 3.99134
41.859 69.8711 0.015372
42.1097 72.2056 2
42.3947 74.6792 4
44.3737 71.8612 0.00926492
44.8159 74.2794 2
47.2057 73.7222 0
43.8512 5.3639 3.98597
46.5709 3.64901 3.99108
48.7857 4.32499 2
49.554 1.99015 4
50.9533 5.13413 0.0104888
51.8506 2.85453 2
54.0858 3.86728 0
59.6143 44.6351 0.0243505
60.6184 41.8825 0.0232677
61.6173 39.3297 0.0231432
63.5493 37.4608 0.023486
61.4437 37.4478 2
59.5606 39.8006 2
58.2244 42.8016 2
59.0451 37.567 3.97739
57.1376 40.5766 3.97739
53.927 39.6262 3.97546
61.6604 35.3941 0.0234067
59.6485 32.8394 0.0240536
57.929 30.2409 0.0245308
56.4582 18.2899 0.041522
56.0125 20.7111 0.0410665
55.6041 23.1053 0.0352473
56.638 27.6035 0.0240943
55.6907 25.3561 0.0250624
54.2648 18.0691 0.0396437
52.2769 17.1809 0.0451172
51.3264 14.6043 0.0373066
48.0552 6.53361 0.0155373
49.318 9.35277 0.0250229
50.4124 12.0619 0.0308631
59.1901 35.168 2
45.9626 5.88693 2
43.3741 7.48117 2
57.1875 32.4005 2
55.7653 29.5546 2
55.1098 19.3577 2
54.6313 21.7859 2
54.3818 24.3288 2
54.7309 26.8879 2
47.353 8.63573 2
48.5877 11.3329 2
52.9571 18.8133 2
51.191 18.2542 2
50.5583 16.2651 2
49.6717 13.824 2
56.4982 34.833 3.97699
54.804 31.7028 3.97506
53.6687 28.673 3.97659
53.108 25.8056 3.97409
53.7094 20.3367 3.96371
53.1249 22.9806 3.96271
41.3999 7.08532 3.98264
45.359 8.00203 3.98647
42.866 9.43163 3.97195
46.6598 10.679 3.97777
47.7103 13.1496 3.96984
48.8642 15.4867 3.96777
49.8988 17.834 3.95947
51.4771 19.5476 3.9845
50.33 63.3524 0.025106
51.1948 60.854 0.0270627
55.8237 43.9954 0.0240714
54.7296 47.6584 0.0245193
52.1905 58.527 0.0355533
54.0727 57.1637 0.0342175
54.4579 51.1745 0.0348269
53.6773 54.3872 0.0356354
49.5579 61.7079 2
54.5255 41.5987 2
50.4731 59.2421 2
51.9708 56.3668 2
53.2012 45.2877 2
52.5631 49.0739 2
52.181 52.6583 2
48.7872 60.1593 3.98747
51.2387 42.4691 3.98351
49.6396 57.53 3.96382
50.2546 54.2761 3.96091
50.8731 46.9803 3.97597
50.5953 50.7237 3.95344
46.954 43.4713 3.96772
47.9414 62.4418 0.0150522
47.2968 60.9699 2
46.5688 59.7557 3.99324
41.6629 67.6758 0.0199155
43.3557 65.4886 0.0219344
44.759 63.4142 0.0236156
45.9661 61.5399 0.00798222
39.6338 67.754 2
41.5479 65.6247 2
45.7311 60.5904 2
43.1409 63.6913 2
44.4672 61.7879 2
44.5884 60.2399 3.99344
42.9386 62.0433 3.97592
41.5976 63.7947 3.97808
39.647 65.5922 3.97453
37.5638 67.7346 3.97743
31.6988 65.1101 3.97347
33.3939 67.4734 3.97792
35.3344 69.9527 3.98398
37.526 70.0436 2
37.5092 72.4563 3.99185
39.7015 70.0174 0.0160114
39.817 72.4022 2
39.9526 74.9197 4
42.1086 72.2053 0.00888559
42.3947 74.6792 2
44.8159 74.2794 0
41.7362 4.97149 3.9876
43.8518 5.36254 2
44.3266 3.11189 3.99194
46.5718 3.64905 2
47.2057 1.27793 4
48.7847 4.32439 0.00966745
49.554 1.99013 2
51.8506 2.85458 0
58.2223 42.8008 0.0241524
59.5582 39.8016 0.0232435
61.4431 37.4477 0.0231635
59.0457 37.5672 2
57.1429 40.5777 2
53.9263 39.6338 2
55.8534 37.8737 3.97717
48.2621 41.182 3.96829
51.816 39.2473 3.97982
39.4434 6.80891 3.98227
59.1882 35.1677 0.0234358
57.1874 32.3999 0.0246173
55.7661 29.5559 0.0243927
55.1215 19.3528 0.0382172
54.5953 21.7891 0.0390974
54.3799 24.3233 0.0278149
54.7285 26.8882 0.0250155
52.961 18.8501 0.0346613
51.1954 18.2595 0.0414044
50.554 16.2621 0.0386078
45.9618 5.88747 0.0134816
49.6716 13.818 0.0320618
47.3525 8.63633 0.0216939
48.5854 11.337 0.028493
43.3738 7.48282 0.0179986
56.5021 34.8304 2
41.4003 7.08599 2
45.3593 8.00146 2
42.8659 9.43109 2
54.8061 31.7037 2
53.6669 28.6764 2
53.7104 20.343 2
53.107 22.9849 2
53.1083 25.8042 2
46.6607 10.6744 2
47.713 13.1487 2
51.4832 19.5454 2
49.8954 17.8361 2
48.8644 15.5125 2
53.7451 34.0431 3.97501
52.4817 30.7716 3.97503
51.785 27.5392 3.97469
51.6149 24.43 3.97515
52.0952 21.3019 3.98138
41.013 9.05926 3.97632
44.7274 10.0041 3.98613
42.4538 10.918 4.00627
45.9723 12.751 3.96544
47.6291 14.6737 3.96621
48.0101 17.0785 3.96577
49.6988 19.9443 3.98491
49.5581 61.7103 0.0255313
50.4761 59.2373 0.0344248
54.5272 41.6013 0.0262646
53.2058 45.2911 0.0260779
52.5655 49.076 0.0298794
51.9645 56.3621 0.0365486
52.1779 52.658 0.0409847
48.7853 60.1553 2
51.2512 42.4885 2
49.6382 57.5282 2
50.2575 54.2796 2
50.8754 46.9807 2
50.6004 50.7236 2
46.9636 43.511 2
47.8945 58.6644 3.99042
48.9529 45.0172 3.98212
48.3754 55.8058 3.95517
48.691 52.4203 3.97831
48.9334 48.7929 3.96957
44.6591 39.7336 3.83468
45.1845 42.4007 3.87878
45.4906 45.4457 3.98316
42.5221 40.9666 3.6249
41.3973 41.6518 3.42268
47.2959 60.9697 0.00707989
46.566 59.7593 2
45.4051 58.7494 3.99558
39.6327 67.7534 0.0210054
41.5463 65.6272 0.025063
43.1418 63.693 0.0213759
44.4687 61.7858 0.0213977
45.7313 60.5857 0.00624107
41.5982 63.7905 2
37.5645 67.7371 2
39.6493 65.5928 2
44.5898 60.2425 2
42.9364 62.0453 2
41.7435 62.4505 3.97716
42.4523 59.9387 3.98647
39.8934 63.528 3.977
37.6418 65.4885 3.97393
35.4643 67.6447 3.97743
33.5766 65.321 3.97418
31.9623 63.2644 3.97787
29.8875 64.698 3.97911
31.6983 65.1097 2
31.3795 67.1839 3.97831
33.3931 67.475 2
33.1583 69.7464 3.98396
35.3337 69.9543 2
35.1963 72.3712 3.992
37.526 70.0417 0.0164531
37.5096 72.4569 2
37.5 75 4
39.8162 72.4022 0.00865626
39.9526 74.9197 2
42.3947 74.6792 0
39.6245 4.71904 3.98852
41.7364 4.97151 2
42.0633 2.71884 3.99245
43.8512 5.3639 0.0140342
44.327 3.11128 2
44.8158 0.721173 4
46.5709 3.64901 0.00891932
47.2057 1.27779 2
49.554 1.99015 0
57.1376 40.5766 0.0226078
59.0451 37.567 0.0226128
53.927 39.6262 0.024535
48.2864 41.1961 2
55.8579 37.8728 2
51.8113 39.2228 2
52.6722 36.6165 3.97705
46.1926 40.2623 3.88848
49.1885 38.4921 3.97896
37.5174 6.67743 3.98489
39.4443 6.80825 2
39.2109 8.70297 3.98018
35.9434 8.49929 3.98215
56.4982 34.833 0.0230089
54.804 31.7028 0.0249363
53.6687 28.673 0.0234095
53.7094 20.3367 0.0362903
53.1249 22.9806 0.037287
53.108 25.8056 0.0259089
51.4771 19.5476 0.0154997
49.8988 17.834 0.0405274
48.8642 15.4867 0.0322261
45.359 8.00203 0.0135264
47.7103 13.1496 0.0301601
46.6598 10.679 0.0222327
41.3999 7.08532 0.0173646
42.866 9.43163 0.0280531
53.74 34.033 2
41.0138 9.06198 2
44.7259 10.0036 2
42.4562 10.9217 2
52.4723 30.7696 2
51.7982 27.5386 2
52.0961 21.3066 2
51.5966 24.4314 2
45.9757 12.7473 2
47.623 14.6463 2
49.7147 19.9631 2
48.0062 17.0828 2
51.2119 32.992 3.97982
50.3126 29.5045 3.97609
50.0964 26.0288 3.97051
49.6565 22.5503 3.98283
40.5581 11.6199 3.98545
43.827 11.9155 3.96807
45.7502 15.5408 3.9906
47.4044 19.5672 3.98156
45.096 37.4864 3.83684
48.7872 60.1593 0.0125297
49.6396 57.53 0.036185
51.2387 42.4691 0.0164901
50.8731 46.9803 0.0240343
50.5953 50.7237 0.0465644
50.2546 54.2761 0.0390882
46.954 43.4713 0.0322781
47.8899 58.6692 2
48.9686 45.0295 2
48.3724 55.8075 2
48.6935 52.4259 2
48.9385 48.7961 2
44.7758 39.7608 2
45.2152 42.4211 2
45.5004 45.4665 2
42.5878 41.0239 2
41.4401 41.6771 2
46.7068 57.2678 3.98384
43.2049 39.3489 3.61787
41.7821 40.6182 3.4134
47.1764 47.033 3.98339
46.875 54.1002 3.95945
47.0474 50.5571 3.97735
44.0926 47.0759 3.98756
43.8408 41.7526 3.83547
44.002 44.1864 3.86778
41.6585 42.3053 3.67654
40.4776 41.9361 3.37266
46.5688 59.7557 0.00676246
45.4037 58.7489 2
43.8124 57.6193 3.98264
37.5638 67.7346 0.0225712
39.647 65.5922 0.02547
41.5976 63.7947 0.0219208
42.9386 62.0433 0.0240776
44.5884 60.2399 0.0065608
35.4642 67.6472 2
41.7411 62.4543 2
39.8926 63.5289 2
37.6432 65.4918 2
42.4546 59.9394 2
40.6136 61.5911 3.98519
40.4167 58.1099 3.98577
37.8371 63.1846 3.97243
35.573 65.4121 3.9761
33.5765 65.3209 2
31.9649 63.2665 2
33.6305 63.3125 3.97741
30.3831 62.8279 3.98178
32.1339 61.9672 3.98815
26.8901 61.4343 3.98532
28.0705 64.126 3.98164
29.8876 64.6972 2
29.4097 66.7475 3.97771
31.6988 65.1101 0.0265289
31.3786 67.1843 2
31.0163 69.4117 3.98351
33.3939 67.4734 0.0220797
33.1571 69.7476 2
32.8945 72.1456 3.99134
35.3344 69.9527 0.0160217
35.1958 72.372 2
35.0474 74.9194 4
37.5092 72.4563 0.00814871
37.5 75 2
39.9526 74.9197 0
35.6218 6.72935 3.98333
37.5245 4.61798 3.9892
39.6246 4.7182 2
39.7899 2.47539 3.99266
41.7362 4.97149 0.0123991
42.0632 2.71876 2
42.3946 0.32156 4
44.3266 3.11189 0.00806336
44.8159 0.72056 2
47.2057 1.27793 0
48.2621 41.182 0.0317127
55.8534 37.8737 0.0228331
51.816 39.2473 0.0201822
46.216 40.2686 2
49.1892 38.4784 2
52.7039 36.6351 2
50.001 35.5503 3.97614
46.8337 37.7347 3.88513
44.6878 35.2196 3.8359
42.5723 33.9737 3.62457
41.4365 33.2859 3.42169
37.4589 8.53766 3.98394
37.5183 6.67769 2
39.4434 6.80891 0.0177322
39.2126 8.70239 2
38.9731 10.1394 3.98887
35.899 9.78245 3.9805
34.1535 8.83173 3.97995
35.9448 8.49809 2
53.7451 34.0431 0.0249929
52.4817 30.7716 0.0249662
51.785 27.5392 0.0253054
52.0952 21.3019 0.0186173
51.6149 24.43 0.0248466
49.6988 19.9443 0.0150931
48.0101 17.0785 0.0342315
47.6291 14.6737 0.0337855
44.7274 10.0041 0.0138661
45.9723 12.751 0.0345582
41.013 9.05926 0.0236822
42.4538 10.918 -0.00627063
51.2244 32.9819 2
40.5637 11.6273 2
43.8286 11.9106 2
50.3249 29.5066 2
50.0957 26.0409 2
49.6393 22.5128 2
45.7347 15.4714 2
47.415 19.6033 2
48.8056 31.5792 3.98348
48.4421 27.8007 3.97438
48.8855 24.6625 3.98081
47.0049 22.352 3.99281
38.2972 12.7611 3.97818
42.0738 14.3597 3.98369
44.7251 18.6632 3.97688
43.6008 37.478 3.63384
45.1976 37.4808 2
47.8945 58.6644 0.0095826
48.3754 55.8058 0.0448268
48.9529 45.0172 0.0178784
48.9334 48.7929 0.0304333
48.691 52.4203 0.0216878
44.6591 39.7336 0.165322
45.1845 42.4007 0.121221
45.4906 45.4457 0.0168434
42.5221 40.9666 0.3751
41.3973 41.6518 0.577323
46.704 57.2737 2
43.2885 39.3728 2
41.7973 40.6305 2
47.1845 47.0347 2
46.8699 54.1043 2
47.0496 50.5688 2
44.1327 47.0811 2
43.9117 41.797 2
44.059 44.2185 2
41.7084 42.3809 2
40.5187 41.9564 2
45.2298 55.8328 4.00109
42.1208 39.1441 3.42355
40.3631 40.5136 3.51216
45.4422 48.6786 4.00204
45.1351 52.3511 3.98836
42.8822 48.0602 3.99072
42.745 45.702 3.86851
42.8235 43.5106 3.8242
40.6595 43.2527 3.64108
39.1478 42.2007 3.44316
45.4051 58.7494 0.00442331
43.8093 57.6316 2
42.0324 56.1863 3.99081
35.4643 67.6447 0.0225703
37.6418 65.4885 0.0260719
39.8934 63.528 0.0229986
41.7435 62.4505 0.022842
42.4523 59.9387 0.0135331
35.5742 65.416 2
40.6127 61.5898 2
37.8376 63.1829 2
40.4157 58.1172 2
38.8984 56.3223 3.99516
38.2426 60.2732 3.98434
35.6074 63.1793 3.97211
33.5766 65.321 0.0258156
31.9623 63.2644 0.0221348
33.6333 63.315 2
30.3849 62.8302 2
32.1365 61.9692 2
28.6913 62.1672 3.98021
33.3524 61.4749 3.98189
31.087 61.1968 3.99135
27.6142 59.5314 3.9785
23.8537 58.9977 3.98794
25.0651 60.7987 3.97777
26.891 61.4371 2
26.2416 63.4561 3.97384
28.0699 64.1238 2
27.4674 66.1667 3.9761
29.8875 64.698 0.0208927
29.4085 66.7449 2
28.9088 68.9373 3.98236
31.3795 67.1839 0.0216913
31.0148 69.4117 2
30.6177 71.7771 3.99054
33.1583 69.7464 0.0160411
32.8934 72.1461 2
32.6054 74.6784 4
35.1963 72.3712 0.0080042
35.0474 74.9197 2
37.5 75 0
33.7249 6.98578 3.98192
35.4367 4.688 3.98856
35.6228 6.72885 2
37.5157 2.38786 3.99282
37.5245 4.61766 2
39.6245 4.71904 0.0114819
39.7896 2.47493 2
39.9526 0.0806499 4
42.0633 2.71884 0.00755171
42.3947 0.320817 2
44.8158 0.721173 0
43.2313 35.6015 3.62448
41.8116 34.3144 3.39707
46.1926 40.2623 0.111523
49.1885 38.4921 0.0210373
52.6722 36.6165 0.0229451
46.8324 37.7189 2
50.0151 35.5556 2
44.7855 35.2018 2
42.6268 33.9139 2
41.4645 33.2613 2
47.0683 34.4017 3.93491
43.8963 33.1949 3.82955
41.7143 32.6361 3.67348
40.5047 33.0122 3.372
37.3101 10.6352 3.98124
37.4607 8.53901 2
37.5174 6.67743 0.0151071
39.2109 8.70297 0.0198248
38.9784 10.1397 2
34.7565 10.3937 3.97746
35.9036 9.77899 2
32.3811 9.37972 3.97539
34.1533 8.82837 2
35.9434 8.49929 0.0178475
51.2119 32.992 0.0201762
50.3126 29.5045 0.023914
50.0964 26.0288 0.0294898
49.6565 22.5503 0.0171664
47.4044 19.5672 0.0184419
45.7502 15.5408 0.00939669
43.827 11.9155 0.0319258
40.5581 11.6199 0.0145539
48.8226 31.5611 2
38.3005 12.7577 2
42.0812 14.372 2
48.4388 27.7996 2
48.883 24.667 2
46.9934 22.3496 2
44.7379 18.7338 2
46.7592 29.8078 3.98143
46.5712 25.3742 3.97764
44.1757 21.6742 3.98356
36.587 12.9767 3.97602
38.6724 14.8827 3.97723
41.7016 17.9907 3.97955
42.2948 37.4538 3.45667
43.6723 37.4795 2
45.096 37.4864 0.16316
46.7068 57.2678 0.0161592
46.875 54.1002 0.0405479
47.1764 47.033 0.0166055
47.0474 50.5571 0.0226475
43.2049 39.3489 0.382131
43.8408 41.7526 0.164532
44.002 44.1864 0.132221
44.0926 47.0759 0.012436
41.6585 42.3053 0.323459
41.7821 40.6182 0.586599
40.4776 41.9361 0.627341
45.2266 55.8372 2
42.1328 39.1522 2
40.4209 40.5035 2
45.4436 48.7005 2
45.1303 52.3538 2
42.9189 48.0793 2
42.8117 45.7629 2
42.8648 43.5446 2
40.7149 43.3316 2
39.136 42.2259 2
43.5484 54.2785 4.00113
40.4511 38.9889 3.53876
39.0441 40.5983 3.4856
43.2002 50.1571 4.00316
41.5453 47.1965 3.91921
41.4574 44.7947 3.82741
39.3622 43.9036 3.61294
37.51 42.3369 3.49783
43.8124 57.6193 0.017358
42.0399 56.1735 2
40.3425 54.7439 3.99433
35.573 65.4121 0.023902
37.8371 63.1846 0.0275743
40.6136 61.5911 0.0148099
40.4167 58.1099 0.014233
35.6094 63.1754 2
38.2392 60.2716 2
38.9012 56.3033 2
37.9726 55.0022 3.99525
36.9213 57.525 3.99263
35.3656 60.8741 3.98376
33.6305 63.3125 0.0225938
30.3831 62.8279 0.0182151
32.1339 61.9672 0.0118483
33.3546 61.4745 2
28.6924 62.1723 2
31.0894 61.2008 2
29.4362 60.2562 3.98091
32.3702 59.6678 3.99576
28.0933 58.3214 4.01757
27.6151 59.5306 2
25.4437 58.5214 3.97799
22.8492 58.1523 3.97073
23.4381 60.2647 3.97547
23.8551 58.9982 2
25.0665 60.799 2
24.4496 62.7288 3.97577
26.8901 61.4343 0.014678
26.2417 63.4541 2
25.5526 65.4763 3.97579
28.0705 64.126 0.0183636
27.4668 66.1677 2
26.839 68.323 3.98094
29.4097 66.7475 0.0222864
28.9077 68.9358 2
28.373 71.2627 3.98964
31.0163 69.4117 0.0164886
30.616 71.7768 2
30.1842 74.2788 4
32.8945 72.1456 0.00865953
32.6053 74.6792 2
35.0474 74.9194 0
31.7894 7.42613 3.97976
33.3492 4.9279 3.98736
33.7252 6.9839 2
35.2463 2.46365 3.99289
35.4365 4.68782 2
35.6218 6.72935 0.0166719
37.5 0 4
37.5151 2.38765 2
37.5245 4.61798 0.0107972
39.7899 2.47539 0.00734478
39.9526 0.0802889 2
42.3946 0.32156 0
42.1164 35.7608 3.39539
43.3243 35.5762 2
40.4157 34.4148 3.51566
41.8165 34.297 2
46.8337 37.7347 0.114869
50.001 35.5503 0.0238647
44.6878 35.2196 0.164097
42.5723 33.9737 0.375434
41.4365 33.2859 0.578307
47.1012 34.4109 2
43.954 33.1459 2
41.7651 32.5625 2
40.5403 32.9925 2
45.2155 31.8451 3.89048
42.882 31.4336 3.81562
40.7065 31.6913 3.64217
39.1592 32.7651 3.4398
35.6974 11.7927 3.97468
37.317 10.6367 2
37.4589 8.53766 0.0160628
38.9731 10.1394 0.0111286
33.1027 11.2342 3.97225
34.7583 10.3864 2
35.899 9.78245 0.0195022
30.4874 10.0319 3.97605
32.3807 9.37864 2
34.1535 8.83173 0.0200495
48.8056 31.5792 0.0165202
48.4421 27.8007 0.0256164
48.8855 24.6625 0.0191865
47.0049 22.352 0.00719334
44.7251 18.6632 0.0231215
42.0738 14.3597 0.0163067
38.2972 12.7611 0.0218183
36.5847 12.9569 2
46.7503 29.7492 2
38.6726 14.8659 2
41.6983 17.9921 2
46.5735 25.3589 2
44.1548 21.6521 2
44.7848 27.9481 3.99342
43.4716 24.312 4.02215
41.2574 21.0162 3.99462
35.7706 14.8173 3.9825
38.6462 17.7228 3.9862
40.5064 37.4257 3.56097
42.3125 37.459 2
43.6008 37.478 0.366158
45.2298 55.8328 -0.00108534
45.1351 52.3511 0.0116361
45.4422 48.6786 -0.002039
42.1208 39.1441 0.576446
42.8235 43.5106 0.175795
42.745 45.702 0.131488
42.8822 48.0602 0.00928115
40.6595 43.2527 0.358915
40.3631 40.5136 0.487836
39.1478 42.2007 0.556838
43.5442 54.2727 2
40.4775 38.9911 2
39.0361 40.5989 2
43.192 50.1764 2
41.5391 47.2255 2
41.4866 44.839 2
37.5048 42.3606 2
39.3797 43.9805 2
41.7012 52.7285 4.00021
39.0538 39.0426 3.48307
37.5083 40.647 3.53513
35.8744 42.2113 3.43913
40.7181 49.2941 3.99197
39.6563 45.4859 3.78992
37.504 44.18 3.65762
42.0324 56.1863 0.00919201
40.3448 54.7517 2
38.7071 53.5071 3.99675
35.6074 63.1793 0.0278922
38.2426 60.2732 0.0156569
38.8984 56.3223 0.00483752
35.3643 60.8588 2
36.9228 57.5351 2
37.9665 54.9953 2
36.3111 55.0937 3.99833
34.4944 58.4512 3.99452
33.3524 61.4749 0.0181061
28.6913 62.1672 0.0197877
31.087 61.1968 0.00864571
32.3686 59.6721 2
29.4378 60.2576 2
30.3561 57.7576 3.99122
28.0953 58.3197 2
27.0793 56.7603 3.96911
27.6142 59.5314 0.0215022
25.4453 58.5216 2
23.998 56.7039 3.96005
21.494 57.2853 3.95753
22.0422 59.541 3.97751
22.8503 58.1538 2
22.7589 61.9587 3.97275
23.4394 60.2651 2
23.8537 58.9977 0.0120568
25.0651 60.7987 0.0222252
24.4501 62.729 2
23.6892 64.6887 3.97299
26.2416 63.4561 0.0261579
25.5527 65.478 2
24.8114 67.5845 3.97987
27.4674 66.1667 0.0238963
26.8375 68.3249 2
26.1685 70.6028 3.98879
28.9088 68.9373 0.0176353
28.3713 71.2618 2
27.7943 73.7221 4
30.6177 71.7771 0.00945791
30.1841 74.2794 2
32.6054 74.6784 0
29.8124 8.00315 3.97772
31.2546 5.3351 3.98605
31.7892 7.42483 2
32.9824 2.70188 3.99234
33.3487 4.92695 2
33.7249 6.98578 0.0180753
35.0474 0.080333 4
35.2454 2.46369 2
35.4367 4.688 0.0114438
37.5 0 2
37.5157 2.38786 0.00717606
39.9526 0.0806499 0
40.5316 35.9004 3.55327
42.1357 35.76 2
43.2313 35.6015 0.375521
28.5482 10.7064 3.9767
39.0554 34.3701 3.4783
40.4297 34.4155 2
41.8116 34.3144 0.60293
47.0683 34.4017 0.0650898
43.8963 33.1949 0.170454
41.7143 32.6361 0.326518
40.5047 33.0122 0.627999
45.246 31.8298 2
42.9254 31.3948 2
40.7574 31.6125 2
39.1556 32.7355 2
43.6536 30.102 3.87584
41.4849 30.1414 3.82751
39.3826 31.0498 3.61416
37.53 32.6408 3.49559
34.1025 12.9578 3.9752
35.699 11.7811 2
37.3101 10.6352 0.0187554
31.1932 12.0052 3.97721
33.1051 11.2319 2
34.7565 10.3937 0.0225448
30.4849 10.0271 2
32.3811 9.37972 0.0246107
46.7592 29.8078 0.0185706
46.5712 25.3742 0.0223616
36.587 12.9767 0.0239796
44.1757 21.6742 0.0164372
41.7016 17.9907 0.0204501
38.6724 14.8827 0.0227743
35.773 14.8214 2
44.7812 27.952 2
38.6498 17.7174 2
41.2426 20.9958 2
43.462 24.2902 2
33.6221 15.9165 3.99123
42.6093 26.771 3.97721
40.7655 23.6428 3.9939
38.3713 20.5148 3.99316
35.8422 17.5982 3.98652
39.0752 37.4833 3.48647
40.5222 37.4326 2
42.2948 37.4538 0.543333
43.5484 54.2785 -0.00112846
43.2002 50.1571 -0.00316489
40.4511 38.9889 0.461239
41.4574 44.7947 0.172586
41.5453 47.1965 0.0807881
39.3622 43.9036 0.387057
39.0441 40.5983 0.514396
37.51 42.3369 0.502174
41.6866 52.7238 2
39.0409 39.0325 2
37.5016 40.644 2
40.6997 49.302 2
35.8826 42.2352 2
39.6814 45.5536 2
37.5015 44.2626 2
39.699 51.4992 4.00041
37.5132 39.0407 3.53117
35.9851 40.6157 3.48634
34.5391 41.9579 3.374
35.649 43.9214 3.6107
38.6339 48.1462 3.92733
37.5264 45.7828 3.82473
40.3425 54.7439 0.00566997
38.7052 53.5207 2
36.7758 52.8571 3.997
35.3656 60.8741 0.0162386
36.9213 57.525 0.00736625
37.9726 55.0022 0.00474696
34.4929 58.4608 2
36.313 55.0846 2
33.2881 55.2914 3.99355
32.3702 59.6678 0.00423843
29.4362 60.2562 0.0190901
30.3574 57.7539 2
28.8849 55.266 3.99341
28.0933 58.3214 -0.0175663
27.0818 56.7585 2
25.554 55.0324 3.95428
22.0856 55.2041 3.96041
25.4437 58.5214 0.0220069
23.9996 56.7054 2
20.3766 56.9147 3.96233
20.7154 58.691 3.96174
21.496 57.2872 2
21.1956 61.0914 3.97228
22.0429 59.5418 2
22.8492 58.1523 0.0292659
21.9066 63.8 3.97281
22.7599 61.9601 2
23.4381 60.2647 0.024526
24.4496 62.7288 0.0242277
23.6892 64.6908 2
22.84 66.7267 3.97691
25.5526 65.4763 0.0242143
24.8099 67.5847 2
24.0129 69.8046 3.98847
26.839 68.323 0.0190643
26.166 70.603 2
25.446 73.0099 4
28.373 71.2627 0.0103602
27.7943 73.7222 2
30.1842 74.2788 0
27.8224 8.66323 3.97843
29.1569 5.88242 3.98375
29.8111 7.99947 2
30.7279 3.09883 3.99189
31.2538 5.33383 2
31.7894 7.42613 0.0202381
32.6053 0.320823 4
32.9811 2.70168 2
33.3492 4.9279 0.0126426
35.0474 0.0802903 2
35.2463 2.46365 0.0071119
37.5 0 0
39.0133 35.9293 3.49573
40.5123 35.8972 2
42.1164 35.7608 0.604607
28.5455 10.7032 2
26.629 11.4058 3.97616
29.2344 12.6557 3.98081
37.5329 34.3351 3.53538
39.0794 34.384 2
40.4157 34.4148 0.484344
45.2155 31.8451 0.10952
42.882 31.4336 0.184377
40.7065 31.6913 0.357829
39.1592 32.7651 0.560198
43.6806 30.073 2
41.5224 30.099 2
39.3958 30.9731 2
37.5349 32.6124 2
41.9007 28.8156 3.85816
39.66 29.4534 3.81036
37.5253 30.789 3.66017
35.889 32.7696 3.44583
31.935 14.5021 3.98269
34.1034 12.9628 2
35.6974 11.7927 0.0253194
31.1935 11.9959 2
33.1027 11.2342 0.0277462
30.4874 10.0319 0.0239511
44.7848 27.9481 0.00658342
43.4716 24.312 -0.0221469
35.7706 14.8173 0.0175038
41.2574 21.0162 0.00538214
38.6462 17.7228 0.0137952
33.6119 15.9016 2
35.8374 17.5789 2
42.6794 26.7438 2
38.3591 20.5548 2
40.7539 23.6374 2
33.558 17.4608 3.98891
40.2082 26.1259 3.96574
38.0204 23.3862 3.99679
35.5348 20.298 3.99644
37.5247 37.4784 3.54784
39.0523 37.4734 2
40.5064 37.4257 0.439027
41.7012 52.7285 -0.000206278
40.7181 49.2941 0.00803368
39.0538 39.0426 0.516927
39.6563 45.4859 0.210084
37.504 44.18 0.342378
37.5083 40.647 0.464875
35.8744 42.2113 0.560872
39.6819 51.4942 2
37.5114 39.0407 2
35.9788 40.6008 2
38.6531 48.209 2
34.5048 41.9777 2
35.6348 43.9915 2
37.5121 45.8411 2
37.6827 50.4667 3.99099
36.0115 39.0543 3.49712
34.648 40.5445 3.51841
33.6111 41.6785 3.42528
34.369 43.2738 3.63342
35.3083 45.5286 3.81421
36.9198 47.7617 3.88885
38.7071 53.5071 0.0032484
36.7742 52.8085 2
34.4935 52.1719 4.00123
34.4944 58.4512 0.00547978
36.3111 55.0937 0.00167487
33.2893 55.2982 2
30.7355 53.2239 3.99957
30.3561 57.7576 0.00878035
28.8862 55.2616 2
27.2097 53.3057 3.95604
27.0793 56.7603 0.0308887
25.5564 55.0342 2
23.9591 53.3072 3.95371
20.9411 53.0312 3.95862
20.187 55.6938 3.96106
22.0848 55.2058 2
23.998 56.7039 0.0399521
19.5452 57.7909 3.96105
20.3728 56.9176 2
19.736 60.1256 3.97115
20.7104 58.6944 2
21.494 57.2853 0.0424709
20.2239 62.7986 3.97167
21.1972 61.0935 2
22.0422 59.541 0.0224943
20.9423 65.7523 3.97398
21.9069 63.8043 2
22.7589 61.9587 0.0272542
23.6892 64.6887 0.0270117
22.8389 66.7261 2
21.9155 68.872 3.98746
24.8114 67.5845 0.0201278
24.0097 69.8033 2
23.1494 72.1454 4
26.1685 70.6028 0.0112076
25.446 73.0099 2
27.7943 73.7221 0
25.8623 9.39367 3.97649
27.0717 6.54711 3.98218
27.8199 8.66095 2
28.4905 3.64481 3.9908
29.1554 5.88053 2
29.8124 8.00315 0.0222844
30.1841 0.720592 4
30.726 3.09868 2
31.2546 5.3351 0.0139458
32.6053 0.320817 2
32.9824 2.70188 0.00766459
35.0474 0.080333 0
37.5187 35.9221 3.52302
38.9943 35.9104 2
40.5316 35.9004 0.446733
24.7879 12.0869 3.9751
23.7761 14.4304 3.97977
28.5482 10.7064 0.023302
26.6247 11.4008 2
29.2343 12.6533 2
27.3019 13.3962 3.97441
29.803 14.2128 3.98692
35.9874 34.3702 3.49032
37.5436 34.3344 2
39.0554 34.3701 0.521697
37.53 32.6408 0.504409
43.6536 30.102 0.124157
41.4849 30.1414 0.172487
39.3826 31.0498 0.385839
41.9366 28.7412 2
39.684 29.3895 2
37.5275 30.7124 2
35.8992 32.7454 2
39.8294 28.0797 3.86123
37.4983 29.1804 3.81499
35.6763 31.0698 3.61596
34.5501 33.0289 3.37672
30.9592 16.8563 3.99778
31.9279 14.4894 2
34.1025 12.9578 0.0248006
31.1932 12.0052 0.0227897
42.6093 26.771 0.0227947
40.7655 23.6428 0.00610105
33.6221 15.9165 0.00877354
35.8422 17.5982 0.0134755
38.3713 20.5148 0.00683722
33.5465 17.4695 2
35.5387 20.3141 2
40.2586 26.0896 2
38.0208 23.3707 2
32.926 19.9015 3.99654
37.6945 25.7574 3.96216
35.305 23.0479 4.00762
35.9856 37.4736 3.49003
37.5106 37.4777 2
39.0752 37.4833 0.513533
39.699 51.4992 -0.000414028
38.6339 48.1462 0.0726706
37.5132 39.0407 0.468832
37.5264 45.7828 0.175273
35.649 43.9214 0.3893
35.9851 40.6157 0.513657
34.5391 41.9579 0.626002
37.6594 50.5073 2
36.0431 39.0412 2
34.597 40.5495 2
36.9208 47.8245 2
33.5689 41.7057 2
34.3086 43.3485 2
35.2867 45.5865 2
35.5708 49.671 3.98242
34.5417 39.0428 3.54891
33.2316 40.6529 3.40291
33.3483 42.329 3.68077
33.5975 44.8067 3.81589
34.5738 46.9254 3.86248
36.7758 52.8571 0.00299887
34.4758 52.1952 2
32.3093 50.9993 3.99809
33.2881 55.2914 0.00645302
30.7391 53.2218 2
28.8297 51.3914 3.98148
28.8849 55.266 0.00658687
27.2119 53.3059 2
25.5588 51.5392 3.95328
25.554 55.0324 0.0457218
23.9617 53.3133 2
22.5224 51.5888 3.95417
19.8327 51.4138 3.96303
19.3137 54.1401 3.96173
20.9463 53.0292 2
18.6443 56.604 3.96238
20.1855 55.6957 2
22.0856 55.2041 0.0395917
18.4155 59.0338 3.96093
19.544 57.7931 2
20.3766 56.9147 0.0376736
18.6376 61.698 3.9727
19.7364 60.1293 2
20.7154 58.691 0.0382598
19.1337 64.6547 3.97285
20.2246 62.8026 2
21.1956 61.0914 0.0277247
19.8898 67.8075 3.98459
20.9413 65.751 2
21.9066 63.8 0.0271899
22.84 66.7267 0.0230911
21.9118 68.8697 2
20.9142 71.1327 4
24.0129 69.8046 0.0115282
23.1494 72.1455 2
25.446 73.0099 0
23.1105 12.8423 3.97739
23.9752 10.1811 3.97479
25.0253 7.31854 3.98006
25.8586 9.39146 2
26.2824 4.32906 3.98975
27.0693 6.54634 2
27.8224 8.66323 0.0215689
27.7943 1.27781 4
28.4876 3.64509 2
29.1569 5.88242 0.0162505
30.1841 0.720551 2
30.7279 3.09883 0.00811288
32.6053 0.320823 0
35.9812 35.912 3.48566
37.5488 35.932 2
39.0133 35.9293 0.504266
24.7818 12.106 2
23.776 14.4359 2
22.516 15.1219 3.97751
25.3744 13.974 3.97272
24.0728 15.6874 3.99059
26.629 11.4058 0.023841
29.2344 12.6557 0.0191945
27.3071 13.3881 2
29.7953 14.2128 2
28.3983 15.9772 3.99019
34.6686 34.446 3.51157
35.9939 34.3695 2
37.5329 34.3351 0.464621
35.889 32.7696 0.554171
37.5253 30.789 0.339831
41.9007 28.8156 0.141838
39.66 29.4534 0.189643
39.872 28.0285 2
37.4984 29.1246 2
35.6597 30.9899 2
34.51 33.011 2
37.6225 27.812 3.86442
35.3715 29.4744 3.80973
34.364 31.7125 3.63954
33.6227 33.3091 3.42317
30.2679 19.5132 3.97816
30.9444 16.849 2
31.935 14.5021 0.017313
40.2082 26.1259 0.0342568
38.0204 23.3862 0.00321183
33.558 17.4608 0.0110945
35.5348 20.298 0.00356137
32.9311 19.9236 2
35.2809 23.0305 2
37.7135 25.7413 2
32.5181 22.6465 3.99949
35.1778 25.648 3.98499
34.5131 37.5044 3.56957
35.9826 37.4896 2
37.5247 37.4784 0.452158
37.6827 50.4667 0.00900839
36.9198 47.7617 0.11115
36.0115 39.0543 0.502883
35.3083 45.5286 0.185789
34.369 43.2738 0.366583
34.648 40.5445 0.481592
33.6111 41.6785 0.574719
35.5548 49.6825 2
34.5269 39.0453 2
33.2184 40.6636 2
34.5218 46.9919 2
33.3031 42.4047 2
33.5551 44.8537 2
33.4893 48.7915 3.97285
32.9086 39.1942 3.40109
32.469 40.9945 3.62553
32.1782 43.5346 3.82225
32.8078 45.9253 3.8608
34.4935 52.1719 -0.00122673
32.3297 50.9977 2
30.3991 49.5267 4.00465
30.7355 53.2239 0.000430769
28.8353 51.4002 2
27.1026 49.7575 3.97438
27.2097 53.3057 0.0439626
25.5615 51.5413 2
23.9929 49.9418 3.96675
23.9591 53.3072 0.0462876
22.5281 51.5854 2
21.178 50.0687 3.96578
18.5911 50.1247 3.97203
18.3563 52.6013 3.96532
19.8251 51.414 2
17.7605 55.1952 3.96261
19.3135 54.1399 2
20.9411 53.0312 0.0413781
17.2613 57.7816 3.96078
18.6432 56.6052 2
20.187 55.6938 0.0389374
17.1508 60.4935 3.96363
18.4156 59.0353 2
19.5452 57.7909 0.0389467
17.418 63.4278 3.9677
18.6389 61.7003 2
19.736 60.1256 0.0288463
17.9456 66.6155 3.98234
19.1329 64.6551 2
20.2239 62.7986 0.0283271
18.75 69.9759 4
19.886 67.804 2
20.9423 65.7523 0.0260245
21.9155 68.872 0.0125432
20.9142 71.1327 2
23.1494 72.1454 0
21.6086 13.6795 3.97117
22.1969 11.0557 3.97066
23.1093 12.8425 2
23.0422 8.18568 3.9765
23.9738 10.1866 2
24.1203 5.14387 3.98941
25.0216 7.31758 2
25.8623 9.39367 0.0235093
25.446 1.99014 4
26.2787 4.33017 2
27.0717 6.54711 0.017816
27.7943 1.27778 2
28.4905 3.64481 0.00919568
30.1841 0.720592 0
34.5871 35.9539 3.53912
35.9986 35.926 2
37.5187 35.9221 0.476985
21.3548 15.9235 3.96628
24.7879 12.0869 0.024902
23.7761 14.4304 0.0202292
25.3739 13.9492 2
22.5151 15.1124 2
24.0773 15.6945 2
23.3293 16.3298 3.96437
25.4309 16.1598 3.98802
27.3019 13.3962 0.0255917
29.803 14.2128 0.013079
28.3896 15.9987 2
27.5057 18.944 3.98169
33.2409 34.3418 3.4167
34.6109 34.4559 2
35.9874 34.3702 0.509681
34.5501 33.0289 0.623275
35.6763 31.0698 0.384043
37.4983 29.1804 0.185006
39.8294 28.0797 0.138767
37.5939 27.7735 2
33.5869 33.2836 2
35.3641 29.4085 2
34.3166 31.636 2
35.2544 27.9007 3.87683
33.5813 30.1666 3.82018
33.3572 32.6535 3.67908
29.8365 22.1244 4.00828
30.2708 19.5192 2
30.9592 16.8563 0.00221956
37.6945 25.7574 0.0378363
35.305 23.0479 -0.00762279
32.926 19.9015 0.00346279
32.511 22.624 2
35.2005 25.639 2
32.1276 25.9348 4.00944
32.7288 37.499 3.45257
34.5165 37.4967 2
35.9856 37.4736 0.509969
35.5708 49.671 0.0175798
34.5738 46.9254 0.137522
34.5417 39.0428 0.451091
33.5975 44.8067 0.184107
33.3483 42.329 0.319228
33.2316 40.6529 0.597088
33.485 48.7849 2
32.9122 39.2033 2
32.4123 41.0498 2
32.7916 45.9799 2
32.1323 43.5699 2
31.763 47.6247 3.98673
31.8071 39.3701 3.6249
31.1512 41.7814 3.83084
31.2816 44.5647 3.86842
32.3093 50.9993 0.00191377
30.4027 49.5598 2
28.6079 47.9293 3.97366
28.8297 51.3914 0.0185178
27.1013 49.7604 2
25.4372 48.1947 3.96957
25.5588 51.5392 0.0467235
23.9989 49.9392 2
22.4861 48.5086 3.97189
22.5224 51.5888 0.0458319
21.18 50.067 2
19.7297 48.8605 3.97446
17.4595 49.144 3.97585
17.2852 51.2285 3.97088
18.5924 50.1231 2
16.7835 53.7166 3.96643
18.3512 52.6017 2
19.8327 51.4138 0.0369698
16.1918 56.3676 3.96186
17.7601 55.1957 2
19.3137 54.1401 0.0382745
15.7866 59.1567 3.95947
17.2559 57.7838 2
18.6443 56.604 0.0376244
15.7932 62.0976 3.97077
17.1537 60.4947 2
18.4155 59.0338 0.0390665
16.0923 65.2953 3.97828
17.417 63.4317 2
18.6376 61.698 0.0272983
16.6661 68.6801 4
17.9424 66.6113 2
19.1337 64.6547 0.0271493
18.75 69.9759 2
19.8898 67.8075 0.0154122
20.9142 71.1327 0
20.246 14.6778 3.97118
21.6079 13.6836 2
20.5412 12.0539 3.97314
21.1453 9.15936 3.97491
22.1938 11.0608 2
23.1105 12.8423 0.0226136
22.0196 6.08232 3.98818
23.0394 8.1882 2
23.9752 10.1811 0.0252134
23.1494 2.85457 4
24.1155 5.14542 2
25.0253 7.31854 0.0199425
25.446 1.99012 2
26.2824 4.32906 0.0102486
27.7943 1.27781 0
32.8963 35.8129 3.42442
34.5541 35.9536 2
35.9812 35.912 0.514338
21.3591 15.9169 2
20.3834 17.0526 3.96318
22.1639 16.7251 3.96061
25.3744 13.974 0.0272759
22.516 15.1219 0.0224876
24.0728 15.6874 0.00940954
25.4334 16.1597 2
23.3355 16.3256 2
24.2912 18.6146 3.97705
27.2752 21.7397 3.993
28.3983 15.9772 0.00981484
27.5044 18.974 2
32.5002 33.9902 3.62099
33.2293 34.3279 2
34.6686 34.446 0.488434
33.6227 33.3091 0.576828
34.364 31.7125 0.360457
35.3715 29.4744 0.190273
37.6225 27.812 0.135578
35.2506 27.8552 2
33.2888 32.5814 2
33.5427 30.1207 2
33.044 28.539 3.88453
32.1775 31.4467 3.81326
29.2714 24.6025 4.01319
29.8131 22.1396 2
30.2679 19.5132 0.0218364
35.1778 25.648 0.0150104
32.5181 22.6465 0.000513709
32.116 25.9059 2
30.3292 27.6068 3.97666
31.4274 37.4857 3.62996
32.7272 37.4989 2
34.5131 37.5044 0.430428
33.4893 48.7915 0.0271458
32.8078 45.9253 0.139202
32.9086 39.1942 0.598909
32.1782 43.5346 0.177752
32.469 40.9945 0.374468
31.7045 47.6569 2
31.7183 39.3873 2
31.0891 41.8316 2
31.2298 44.6068 2
30.0543 46.2364 3.98745
30.3445 39.7594 3.83828
29.8334 42.8768 3.88519
30.3991 49.5267 -0.00464813
28.605 47.9328 2
26.878 46.358 3.98066
27.1026 49.7575 0.0256235
25.4375 48.1923 2
23.7608 46.7708 3.97371
23.9929 49.9418 0.03325
22.4868 48.5091 2
20.7637 47.3623 3.97593
21.178 50.0687 0.0342184
19.729 48.8591 2
18.3196 47.9704 3.9766
16.6953 48.5066 3.9765
17.4583 49.1433 2
16.3405 50.0061 3.97468
15.7825 52.2698 3.97084
17.2863 51.2276 2
18.5911 50.1247 0.0279721
15.1519 54.8609 3.96444
16.7833 53.7165 2
18.3563 52.6013 0.0346802
14.5515 57.6789 3.95904
16.1915 56.368 2
17.7605 55.1952 0.0373896
14.2751 60.6633 3.96493
15.7888 59.1575 2
17.2613 57.7816 0.0392177
14.3372 63.8537 3.97644
15.7948 62.0989 2
17.1508 60.4935 0.0363741
14.6715 67.2507 4
16.0894 65.2911 2
17.418 63.4278 0.0323018
16.6661 68.6801 2
17.9456 66.6155 0.0176604
18.75 69.9759 0
18.9745 15.8601 3.96784
20.2489 14.6729 2
18.9957 13.1763 3.9707
21.6086 13.6795 0.0288344
20.539 12.0533 2
19.3471 10.2542 3.97273
19.9944 7.14804 3.98593
21.1422 9.16103 2
22.1969 11.0557 0.0293365
20.9142 3.86727 4
22.0143 6.08584 2
23.0422 8.18568 0.0235031
23.1494 2.85451 2
24.1203 5.14387 0.0105874
25.446 1.99014 0
31.8329 35.616 3.61744
32.8945 35.8037 2
34.5871 35.9539 0.460879
21.3548 15.9235 0.0337156
22.1683 16.7186 2
20.387 17.05 2
19.4261 18.5357 3.95902
21.8689 17.9885 3.97959
25.4309 16.1598 0.0119803
23.3293 16.3298 0.035634
24.2814 18.6346 2
22.5185 20.0693 3.97594
24.8599 21.5891 3.98827
26.9004 23.892 3.984
27.2729 21.6476 2
27.5057 18.944 0.0183096
31.1972 33.206 3.83096
32.4477 33.9325 2
33.2409 34.3418 0.583301
33.3572 32.6535 0.320917
33.5813 30.1666 0.179818
35.2544 27.9007 0.123168
33.0066 28.5036 2
32.1246 31.3962 2
30.9665 29.9114 3.90765
28.6041 26.782 4.00111
29.2601 24.6041 2
29.8365 22.1244 -0.00827813
32.1276 25.9348 -0.00944431
30.32 27.5829 2
29.924 37.4793 3.83734
31.3473 37.4836 2
32.7288 37.499 0.547426
31.763 47.6247 0.0132687
31.2816 44.5647 0.131579
31.8071 39.3701 0.3751
31.1512 41.7814 0.169159
30.0558 46.2444 2
30.2532 39.7722 2
29.8021 42.9023 2
28.3734 44.5677 3.96635
28.094 40.462 3.92616
28.6079 47.9293 0.0263363
26.8763 46.3585 2
25.0892 44.884 3.98047
25.4372 48.1947 0.0304292
23.7588 46.7695 2
21.8135 45.6627 3.97763
22.4861 48.5086 0.0281069
20.7636 47.3612 2
19.0759 46.5302 3.97606
19.7297 48.8605 0.0255352
18.3195 47.9694 2
16.9495 47.5345 3.97584
16.6961 48.5059 2
15.6948 48.8579 3.97553
17.4595 49.144 0.0241468
16.342 50.0053 2
14.891 50.8505 3.97404
14.1154 53.3268 3.96802
15.7837 52.2691 2
17.2852 51.2285 0.0291165
13.4098 56.0991 3.96101
15.1515 54.8608 2
16.7835 53.7166 0.03357
12.8656 59.1039 3.96183
14.5526 57.6793 2
16.1918 56.3676 0.0381438
12.6833 62.2956 3.97297
14.2771 60.664 2
15.7866 59.1567 0.0405269
12.7746 65.6939 4
14.3347 63.8489 2
15.7932 62.0976 0.0292314
14.6714 67.2507 2
16.0923 65.2953 0.0217249
16.6661 68.6801 0
17.7808 17.2533 3.96077
18.976 15.8566 2
17.533 14.437 3.96908
20.246 14.6778 0.0288239
18.996 13.1778 2
17.6473 11.4892 3.97302
20.5412 12.0539 0.0268609
19.3437 10.2565 2
18.0544 8.34111 3.98352
18.75 5.0241 4
19.9887 7.15214 2
21.1453 9.15936 0.0250857
20.9142 3.86727 2
22.0196 6.08232 0.0118186
23.1494 2.85457 0
30.3652 35.2341 3.83555
31.7451 35.5933 2
32.8963 35.8129 0.575581
22.1639 16.7251 0.0393898
20.3834 17.0526 0.0368179
21.8703 17.9845 2
19.4201 18.5294 2
18.2971 20.0976 3.96253
21.095 19.5401 3.96819
24.2912 18.6146 0.0229477
22.5116 20.0705 2
24.8708 21.5682 2
22.7334 21.9241 3.97975
25.1945 23.2924 3.97785
26.2179 26.1605 3.97987
26.9029 23.8834 2
27.2752 21.7397 0.00699683
29.5975 32.562 3.88494
31.1172 33.1686 2
32.5002 33.9902 0.379007
32.1775 31.4467 0.186744
33.044 28.539 0.115468
30.9449 29.8984 2
28.0071 29.3789 4.01189
28.5898 26.7878 2
29.2714 24.6025 -0.0131899
30.3292 27.6068 0.0233409
28.273 37.3839 3.88068
29.8439 37.4814 2
31.4274 37.4857 0.370044
30.0543 46.2364 0.012551
29.8334 42.8768 0.114812
30.3445 39.7594 0.161717
28.3706 44.6213 2
28.0583 40.4651 2
26.4885 42.995 3.98089
25.3886 39.4354 3.97618
26.878 46.358 0.0193403
25.079 44.886 2
23.0194 43.6983 3.97537
23.7608 46.7708 0.0262852
21.8101 45.664 2
19.8768 44.7705 3.97554
20.7637 47.3623 0.0240719
19.0752 46.5308 2
17.3204 46.0368 3.97567
18.3196 47.9704 0.0233975
16.9498 47.5342 2
15.4702 47.518 3.97548
16.6953 48.5066 0.0235018
15.6963 48.8572 2
14.2054 49.4184 3.97504
16.3405 50.0061 0.0253173
14.8921 50.8498 2
13.1837 51.7758 3.97096
12.3092 54.4626 3.96325
14.1162 53.3262 2
15.7825 52.2698 0.0291573
11.5689 57.4386 3.96092
13.4096 56.0991 2
15.1519 54.8609 0.0355632
11.1395 60.6212 3.96778
12.8683 59.1032 2
14.5515 57.6789 0.0409613
10.9835 64.0165 4
12.6815 62.2905 2
14.2751 60.6633 0.035067
12.7745 65.694 2
14.3372 63.8537 0.0235612
14.6715 67.2507 0
16.6035 18.7645 3.96124
17.7748 17.2478 2
16.1379 15.8406 3.96016
18.9745 15.8601 0.0321627
17.5341 14.4331 2
16.0301 12.8529 3.96678
18.9957 13.1763 0.0293006
17.6442 11.4968 2
16.2055 9.66614 3.97984
19.3471 10.2542 0.0272658
18.0493 8.34783 2
16.6661 6.31991 4
18.75 5.02404 2
19.9944 7.14804 0.014071
20.9142 3.86727 0
28.7627 34.8729 3.8909
30.2631 35.1942 2
31.8329 35.616 0.382561
17.0448 21.5332 3.9689
21.8689 17.9885 0.0204118
19.4261 18.5357 0.0409817
21.0861 19.5349 2
18.2964 20.0946 2
20.1522 21.7708 3.97245
22.5185 20.0693 0.0240601
24.8599 21.5891 0.0117319
22.7343 21.9246 2
25.1791 23.3306 2
23.5282 24.8221 3.97185
25.569 28.7499 3.98423
26.2088 26.1678 2
26.9004 23.892 0.0160033
27.4594 31.9196 3.98096
29.5563 32.5383 2
31.1972 33.206 0.169037
30.9665 29.9114 0.092348
28.0209 29.3493 2
28.6041 26.782 -0.00111463
26.0934 36.8596 3.97051
28.2476 37.3858 2
29.924 37.4793 0.162658
28.3734 44.5677 0.0336491
28.094 40.462 0.0738381
26.4661 43.0199 2
25.3571 39.4371 2
24.2499 41.7091 3.97951
23.0972 38.5162 3.97634
25.0892 44.884 0.0195311
23.0174 43.7001 2
20.7708 42.7307 3.97507
21.8135 45.6627 0.0223667
19.8776 44.7706 2
17.7404 44.2244 3.97529
19.0759 46.5302 0.0239386
17.3204 46.0372 2
15.4385 45.9502 3.97532
16.9495 47.5345 0.0241617
15.4709 47.5176 2
13.7386 47.8862 3.97544
15.6948 48.8579 0.0244747
14.2068 49.4176 2
12.419 50.1611 3.97324
14.891 50.8505 0.0259592
13.1847 51.7749 2
11.3026 52.779 3.9653
10.3779 55.6919 3.96206
12.3091 54.4621 2
14.1154 53.3268 0.0319845
9.70509 58.8455 3.97128
11.5734 57.4369 2
13.4098 56.0991 0.0389884
9.30605 62.2254 4
11.1382 60.616 2
12.8656 59.1039 0.0381668
10.9835 64.0165 2
12.6833 62.2956 0.0270287
12.7746 65.6939 0
15.4104 20.3049 3.9645
16.6108 18.7634 2
14.8371 17.3707 3.95998
17.7808 17.2533 0.039228
16.1393 15.8374 2
14.4906 14.3289 3.96786
17.533 14.437 0.0309221
16.0309 12.8484 2
14.4486 11.1194 3.977
17.6473 11.4892 0.0269819
16.2011 9.67316 2
14.6715 7.74927 4
18.0544 8.34111 0.0164838
16.6661 6.31988 2
18.75 5.0241 0
26.7195 34.393 3.97287
28.7427 34.8793 2
30.3652 35.2341 0.164452
18.3249 22.5106 3.97518
15.9481 23.0744 3.97236
17.0463 21.5319 2
21.095 19.5401 0.0318063
18.2971 20.0976 0.037473
20.1477 21.7674 2
20.2952 24.6174 3.97203
22.7334 21.9241 0.0202463
25.1945 23.2924 0.0221546
23.5221 24.8206 2
22.9311 28.1047 3.97118
25.0253 31.441 3.98245
25.5753 28.7308 2
26.2179 26.1605 0.0201292
27.4278 31.8811 2
29.5975 32.562 0.115062
28.0071 29.3789 -0.0118901
23.8372 36.3236 3.97762
26.0685 36.8528 2
28.273 37.3839 0.119318
26.4885 42.995 0.0191066
25.3886 39.4354 0.0238227
24.2265 41.7091 2
23.0894 38.5162 2
21.9073 40.5603 3.97513
21.2293 37.7961 3.97745
23.0194 43.6983 0.0246326
20.7719 42.7295 2
18.223 41.9882 3.97568
19.8768 44.7705 0.024464
17.7406 44.2246 2
15.4887 44.0784 3.97534
17.3204 46.0368 0.0243309
15.4382 45.9502 2
13.4377 46.1858 3.9753
15.4702 47.518 0.0245229
13.7397 47.8857 2
11.8092 48.464 3.97501
14.2054 49.4184 0.0249567
12.4205 50.1601 2
10.4343 51.0277 3.9673
13.1837 51.7758 0.0290368
11.3033 52.7781 2
9.28661 53.8736 3.96277
8.38907 56.9803 3.97265
10.3801 55.6902 2
12.3092 54.4626 0.0367501
7.74927 60.3285 4
9.70386 58.8409 2
11.5689 57.4386 0.0390811
9.306 62.2255 2
11.1395 60.6212 0.0322177
10.9835 64.0165 0
14.2479 21.8652 3.96828
15.4105 20.3029 2
13.5775 18.9696 3.9613
16.6035 18.7645 0.0387616
14.8375 17.3683 2
13.0395 15.9134 3.96626
16.1379 15.8406 0.039841
14.4953 14.3262 2
12.7863 12.6934 3.97465
16.0301 12.8529 0.0332218
14.4453 11.127 2
12.7746 9.30605 4
16.2055 9.66614 0.020158
14.6715 7.74924 2
16.6661 6.31991 0
24.3927 33.9026 3.98094
26.6973 34.3921 2
28.7627 34.8729 0.109099
18.2031 24.2464 3.97321
18.3325 22.5107 2
14.7721 24.5984 3.97432
15.9484 23.0732 2
17.0448 21.5332 0.0311008
19.8561 27.4463 3.97351
20.1522 21.7708 0.0275459
20.2927 24.6148 2
22.3186 30.8897 3.97413
23.5282 24.8221 0.0281542
22.9309 28.1066 2
24.9835 31.4494 2
25.569 28.7499 0.0157735
27.4594 31.9196 0.0190414
21.3349 35.9697 3.97695
23.8309 36.3194 2
26.0934 36.8596 0.0294895
24.2499 41.7091 0.0204895
23.0972 38.5162 0.0236594
21.9117 40.5614 2
21.2333 37.7969 2
18.9927 38.9726 3.97712
20.7708 42.7307 0.0249261
18.2227 41.9883 2
15.4723 41.8412 3.97592
17.7404 44.2244 0.0247113
15.4878 44.0785 2
13.1994 44.3031 3.97539
15.4385 45.9502 0.0246775
13.4382 46.1857 2
11.3234 46.6553 3.97569
13.7386 47.8862 0.0245579
11.8112 48.4629 2
9.70624 49.1921 3.96926
12.419 50.1611 0.0267568
10.4355 51.0266 2
8.31397 51.9899 3.96343
11.3026 52.779 0.0347003
9.28654 53.872 2
7.19803 55.0326 3.97368
6.31991 58.3339 4
8.38783 56.9759 2
10.3779 55.6919 0.0379378
7.74924 60.3285 2
9.70509 58.8455 0.0287219
9.30605 62.2254 0
13.6278 25.486 3.97634
13.147 23.3877 3.972
14.2475 21.8637 2
12.4029 20.6182 3.96371
15.4104 20.3049 0.0354986
13.5774 18.9677 2
11.6759 17.5848 3.96175
14.8371 17.3707 0.0400176
13.0453 15.911 2
11.2245 14.381 3.96842
14.4906 14.3289 0.0321411
12.7847 12.7009 2
10.9835 10.9835 4
14.4486 11.1194 0.0229972
12.7745 9.306 2
14.6715 7.74927 0
21.6931 33.5346 3.97629
24.3956 33.883 2
26.7195 34.393 0.0271325
16.5248 26.5852 3.97433
18.2072 24.246 2
18.3249 22.5106 0.0248173
14.7708 24.5976 2
15.9481 23.0744 0.0276385
19.2587 30.3675 3.9745
19.8568 27.4474 2
20.2952 24.6174 0.027973
22.3418 30.8889 2
22.9311 28.1047 0.0288151
25.0253 31.441 0.0175474
18.579 36.0102 3.9779
21.3357 35.9716 2
23.8372 36.3236 0.022377
21.9073 40.5603 0.0248744
21.2293 37.7961 0.022552
18.9932 38.9712 2
14.9589 39.1517 3.97699
18.223 41.9882 0.0243158
15.4715 41.8406 2
12.8917 42.218 3.97607
15.4887 44.0784 0.0246608
13.1994 44.3028 2
10.9083 44.7371 3.97564
13.4377 46.1858 0.0247046
11.3259 46.6542 2
9.08975 47.2778 3.97128
11.8092 48.464 0.0249914
9.70812 49.191 2
7.47415 50.0259 3.96387
10.4343 51.0277 0.0327039
8.31247 51.9885 2
6.13859 53.0085 3.9737
9.28661 53.8736 0.0372291
7.19726 55.0287 2
5.0241 56.25 4
6.31988 58.3339 2
8.38907 56.9803 0.0273498
7.74927 60.3285 0
13.9209 26.942 3.97522
12.2535 24.8825 3.9749
13.6269 25.4852 2
11.3278 22.2986 3.96616
13.1482 23.3872 2
14.2479 21.8652 0.0317161
12.4018 20.6168 2
10.4385 19.34 3.96243
13.5775 18.9696 0.0386977
11.6869 17.5858 2
9.76564 16.1631 3.97097
13.0395 15.9134 0.0337355
11.2244 14.3865 2
9.30607 12.7746 4
12.7863 12.6934 0.025347
10.9835 10.9835 2
12.7746 9.30605 0
18.7462 33.2105 3.97582
21.689 33.5377 2
24.3927 33.9026 0.0190556
16.1538 29.7857 3.97513
16.5242 26.5848 2
18.2031 24.2464 0.026793
14.7721 24.5984 0.0256807
19.2565 30.3677 2
19.8561 27.4463 0.0264879
22.3186 30.8897 0.0258705
15.5985 36.0453 3.97746
18.5783 36.0113 2
21.3349 35.9697 0.0230497
13.1208 37.8285 3.97712
18.9927 38.9726 0.0228761
14.9589 39.1517 2
12.384 40.1099 3.97657
15.4723 41.8412 0.0240771
12.8911 42.2174 2
10.5045 42.7328 3.97595
13.1994 44.3031 0.0246064
10.9105 44.7363 2
8.55435 45.2891 3.9736
11.3234 46.6553 0.0243072
9.09177 47.2767 2
6.75461 47.9938 3.96444
9.70624 49.1921 0.0307401
7.47175 50.0248 2
5.21497 50.9119 3.97343
8.31397 51.9899 0.0365707
6.1383 53.0055 2
3.86727 54.0858 4
7.19803 55.0326 0.0263171
5.02404 56.25 2
6.31991 58.3339 0
13.3982 29.1363 3.97463
11.7018 26.5757 3.97539
13.9203 26.9418 2
10.3778 24.0223 3.96873
12.2563 24.8825 2
13.6278 25.486 0.0236588
9.30228 21.1563 3.96331
11.3277 22.298 2
13.147 23.3877 0.0280039
12.4029 20.6182 0.0362908
10.4492 19.3418 2
8.42147 18.0317 3.9725
11.6759 17.5848 0.0382538
9.76492 16.1671 2
7.74928 14.6715 4
11.2245 14.381 0.0315819
9.30602 12.7745 2
10.9835 10.9835 0
15.1328 32.9369 3.97622
18.7456 33.21 2
21.6931 33.5346 0.0237109
16.1534 29.7853 2
16.5248 26.5852 0.0256698
19.2587 30.3675 0.0255024
13.428 36.2255 3.97674
15.5982 36.0454 2
18.579 36.0102 0.0220997
13.1202 37.8286 2
11.7003 38.3036 3.97672
14.9589 39.1517 0.0230072
12.3836 40.1098 2
10.0759 40.7295 3.97644
12.8917 42.218 0.0239293
10.507 42.7323 2
8.08792 43.2476 3.97455
10.9083 44.7371 0.0243596
8.55677 45.288 2
6.15012 45.9012 3.96488
9.08975 47.2778 0.0287152
6.75181 47.993 2
4.42592 48.7522 3.97323
7.47415 50.0259 0.0361322
5.21507 50.9098 2
2.85457 51.8506 4
6.13859 53.0085 0.0262955
3.86727 54.0858 2
5.0241 56.25 0
12.5239 31.3248 3.97577
11.1098 28.4898 3.9753
13.3979 29.1358 2
9.59179 25.8452 3.97043
11.704 26.5757 2
13.9209 26.942 0.0247827
8.27967 23.0362 3.96401
10.3802 24.0226 2
12.2535 24.8825 0.0251027
7.20388 19.9793 3.97362
9.30772 21.1578 2
11.3278 22.2986 0.0338366
10.4385 19.34 0.0375675
8.42082 18.0356 2
6.31992 16.6661 4
9.76564 16.1631 0.0290299
7.74926 14.6714 2
9.30607 12.7746 0
12.5591 34.3347 3.97658
15.1323 32.9377 2
18.7462 33.2105 0.0241848
16.1538 29.7857 0.0248701
11.2299 36.6233 3.97654
13.4274 36.2255 2
15.5985 36.0453 0.0225352
13.1208 37.8285 0.0228804
11.7004 38.3034 2
9.65039 38.8155 3.97653
12.384 40.1099 0.0234339
10.0779 40.729 2
7.68969 41.1983 3.97466
10.5045 42.7328 0.0240542
8.08944 43.2468 2
5.65665 43.7654 3.96494
8.55435 45.2891 0.0264043
6.1468 45.9006 2
3.77117 46.5372 3.97314
6.75461 47.9938 0.0355595
4.42645 48.7508 2
1.99014 49.554 4
5.21497 50.9119 0.0265671
2.85451 51.8506 2
3.86727 54.0858 0
11.3155 32.9674 3.97637
10.4101 30.437 3.97543
12.5235 31.3254 2
8.8893 27.7703 3.9717
11.1118 28.4901 2
13.3982 29.1363 0.0253736
7.39333 24.9913 3.96447
9.59437 25.8458 2
11.7018 26.5757 0.0246054
6.12068 22.0013 3.97413
8.28093 23.0374 2
10.3778 24.0223 0.0312673
5.02411 18.75 4
7.20347 19.9826 2
9.30228 21.1563 0.0366859
8.42147 18.0317 0.0274958
6.3199 16.6661 2
7.74928 14.6715 0
10.8084 35.0236 3.97632
12.558 34.3346 2
15.1328 32.9369 0.02378
9.30289 36.9903 3.97647
11.23 36.6235 2
13.428 36.2255 0.0232585
11.7003 38.3036 0.0232819
9.65289 38.815 2
7.36101 39.1772 3.9743
10.0759 40.7295 0.0235584
7.69219 41.1979 2
5.26861 41.6121 3.96529
8.08792 43.2476 0.0254476
5.65501 43.765 2
3.24858 44.2816 3.9739
6.15012 45.9012 0.0351208
3.77196 46.5363 2
1.27781 47.2057 4
4.42592 48.7522 0.0267727
1.99012 49.554 2
2.85457 51.8506 0
10.4353 33.9128 3.97603
9.67676 32.193 3.97607
11.3159 32.9677 2
8.21819 29.7244 3.97304
10.4123 30.4382 2
12.5239 31.3248 0.0242301
6.62431 27.0143 3.96477
8.89238 27.7711 2
11.1098 28.4898 0.0246989
5.17559 24.0937 3.97392
7.39154 24.992 2
9.59179 25.8452 0.0295677
3.86728 20.9142 4
6.12064 22.0036 2
8.27967 23.0362 0.0359859
5.02406 18.75 2
7.20388 19.9793 0.0263767
6.31992 16.6661 0
9.11369 35.2958 3.97655
10.809 35.0236 2
12.5591 34.3347 0.0234204
7.13745 37.2076 3.97402
9.30568 36.99 2
11.2299 36.6233 0.0234633
9.65039 38.8155 0.0234675
7.36414 39.177 2
4.99427 39.4666 3.96609
7.68969 41.1983 0.0253433
5.26809 41.6119 2
2.85883 42.0017 3.97445
5.65665 43.7654 0.0350572
3.24918 44.2811 2
0.720592 44.8159 4
3.77117 46.5372 0.0268554
1.27778 47.2057 2
1.99014 49.554 0
9.15111 33.7235 3.97655
10.4368 33.913 2
7.64449 31.6298 3.97339
9.67932 32.1937 2
11.3155 32.9674 0.0236264
5.96072 29.0737 3.96495
8.22045 29.725 2
10.4101 30.437 0.0245653
4.3627 26.2467 3.97356
6.62095 27.0147 2
8.8893 27.7703 0.0282976
2.85458 23.1494 4
5.17592 24.0951 2
7.39333 24.9913 0.0355263
3.86728 20.9142 2
6.12068 22.0013 0.0258731
5.02411 18.75 0
7.08655 35.3136 3.97368
9.11717 35.2957 2
10.8084 35.0236 0.0236807
4.84428 37.3401 3.96668
7.14059 37.2076 2
9.30289 36.9903 0.0235305
7.36101 39.1772 0.0256989
4.99516 39.4665 2
2.6067 39.7135 3.97503
5.26861 41.6121 0.0347133
2.85967 42.0017 2
0.320823 42.3947 4
3.24858 44.2816 0.0261016
0.720551 44.8159 2
1.27781 47.2057 0
7.24994 33.4746 3.97356
9.15452 33.7238 2
10.4353 33.9128 0.0239687
5.42453 31.1365 3.96542
7.64588 31.6301 2
9.67676 32.193 0.0239321
3.68391 28.4434 3.97366
5.95694 29.0739 2
8.21819 29.7244 0.0269617
1.99015 25.446 4
4.3633 26.2475 2
6.62431 27.0143 0.035232
2.85453 23.1494 2
5.17559 24.0937 0.0260787
3.86728 20.9142 0
4.85837 35.2529 3.96658
7.0889 35.3138 2
9.11369 35.2958 0.0234546
2.49804 37.4283 3.9761
4.84449 37.3403 2
7.13745 37.2076 0.025984
4.99427 39.4666 0.0339062
2.60749 39.7139 2
0.080333 39.9526 4
2.85883 42.0017 0.0255494
0.320817 42.3947 2
0.720592 44.8159 0
5.05176 33.1922 3.96612
7.25213 33.4748 2
9.15111 33.7235 0.023451
3.14793 30.6666 3.9744
5.42338 31.1367 2
7.64449 31.6298 0.0266119
1.27793 27.7943 4
3.68478 28.4439 2
5.96072 29.0737 0.0350549
1.99013 25.446 2
4.3627 26.2467 0.0264408
2.85458 23.1494 0
2.55003 35.1591 3.97593
4.85923 35.2532 2
7.08655 35.3136 0.026321
0 37.5 4
2.49831 37.4287 2
4.84428 37.3401 0.0333236
2.6067 39.7135 0.0249679
0.0802903 39.9526 2
0.320823 42.3947 0
2.76781 32.906 3.97573
5.05245 33.1927 2
7.24994 33.4746 0.0264436
0.721173 30.1842 4
3.14875 30.6669 2
5.42453 31.1365 0.0345768
1.27779 27.7943 2
3.68391 28.4434 0.0263351
1.99015 25.446 0
0.0806499 35.0474 4
2.55094 35.1595 2
4.85837 35.2529 0.0334216
0 37.5 2
2.49804 37.4283 0.0239011
0.080333 39.9526 0
0.32156 32.6054 4
2.76818 32.9065 2
5.05176 33.1922 0.0338782
0.72056 30.1841 2
3.14793 30.6666 0.0256009
1.27793 27.7943 0
0.0802889 35.0474 2
2.55003 35.1591 0.024071
0 37.5 0
0.320817 32.6053 2
2.76781 32.906 0.0242741
0.721173 30.1842 0
0.0806499 35.0474 0
0.32156 32.6054 0
CELLS 1910 17190
8 18 6 25 56 2 0 5 16
8 57 23 6 18 17 4 0 2
8 78 36 9 29 31 11 1 7
8 31 11 1 7 79 37 10 30
8 110 57 18 50 48 17 2 14
8 50 18 56 111 14 2 16 49
8 116 62 22 55 52 20 3 15
8 56 25 67 118 16 5 24 53
8 119 63 23 57 54 21 4 17
8 55 22 63 119 15 3 21 54
8 58 26 68 121 18 6 25 56
8 122 65 26 58 57 23 6 18
8 73 31 7 27 142 79 30 71
8 143 78 29 72 73 31 7 27
8 83 147 76 34 32 74 28 8
8 84 148 78 36 33 75 29 9
8 76 34 8 28 148 84 33 75
8 37 79 150 86 10 30 77 35
8 151 87 36 78 80 38 11 31
8 80 38 11 31 152 88 37 79
8 175 100 42 94 96 44 12 40
8 44 96 176 101 12 40 95 43
8 101 176 98 46 43 95 41 13
8 46 98 178 103 13 41 97 45
8 178 103 45 97 147 83 32 74
8 189 116 55 109 106 52 15 47
8 111 56 118 191 49 16 53 107
8 192 119 57 110 108 54 17 48
8 109 55 119 192 47 15 54 108
8 194 122 58 112 110 57 18 50
8 112 58 121 195 50 18 56 111
8 115 61 19 51 197 124 59 113
8 115 61 125 198 51 19 60 114
8 198 125 62 116 114 60 20 52
8 200 127 64 120 116 62 22 55
8 118 67 132 202 53 24 66 117
8 121 68 133 203 56 25 67 118
8 120 64 128 204 55 22 63 119
8 204 128 65 122 119 63 23 57
8 206 134 68 121 123 69 26 58
8 123 69 26 58 207 131 65 122
8 226 147 74 138 140 76 28 70
8 229 148 75 139 143 78 29 72
8 140 76 28 70 229 148 75 139
8 142 79 30 71 231 150 77 141
8 144 80 31 73 232 152 79 142
8 233 151 78 143 144 80 31 73
8 150 86 35 77 235 154 81 145
8 235 154 81 145 146 82 39 91
8 146 82 39 91 236 155 90 165
8 238 157 83 147 149 85 34 76
8 239 158 84 148 151 87 36 78
8 149 85 34 76 239 158 84 148
8 152 88 37 79 241 160 86 150
8 242 161 87 151 153 89 38 80
8 153 89 38 80 243 162 88 152
8 171 98 41 92 265 178 97 169
8 265 178 97 169 226 147 74 138
8 172 96 40 93 266 176 95 170
8 266 176 95 170 171 98 41 92
8 269 175 94 173 172 96 40 93
8 271 180 99 174 175 100 42 94
8 197 124 59 113 271 180 99 174
8 272 181 100 175 177 102 44 96
8 273 182 101 176 179 104 46 98
8 177 102 44 96 273 182 101 176
8 179 104 46 98 275 184 103 178
8 275 184 103 178 238 157 83 147
8 188 115 51 105 283 197 113 186
8 188 115 198 284 105 51 114 187
8 284 198 116 189 187 114 52 106
8 286 200 120 193 189 116 55 109
8 191 118 202 288 107 53 117 190
8 195 121 203 289 111 56 118 191
8 193 120 204 290 109 55 119 192
8 290 204 122 194 192 119 57 110
8 196 123 58 112 292 207 122 194
8 293 206 121 195 196 123 58 112
8 199 126 61 115 297 211 124 197
8 298 212 127 200 198 125 62 116
8 199 126 212 298 115 61 125 198
8 205 129 64 120 300 214 127 200
8 301 217 130 201 202 132 66 117
8 209 136 168 264 301 217 130 201
8 302 219 132 202 203 133 67 118
8 303 220 133 203 206 134 68 121
8 205 129 215 304 120 64 128 204
8 304 215 131 207 204 128 65 122
8 306 221 134 206 208 135 69 123
8 208 135 69 123 307 218 131 207
8 210 137 167 263 309 223 136 209
8 328 238 147 226 230 149 76 140
8 228 146 91 166 329 236 165 260
8 231 150 77 141 330 235 145 227
8 330 235 145 227 228 146 91 166
8 332 239 148 229 233 151 78 143
8 230 149 76 140 332 239 148 229
8 232 152 79 142 334 241 150 231
8 234 153 80 144 335 243 152 232
8 336 242 151 233 234 153 80 144
8 236 155 90 165 338 245 164 259
8 241 160 86 150 339 246 154 235
8 339 246 154 235 237 156 82 146
8 237 156 82 146 340 247 155 236
8 342 249 157 238 240 159 85 149
8 343 250 158 239 242 161 87 151
8 240 159 85 149 343 250 158 239
8 243 162 88 152 345 252 160 241
8 244 163 253 346 153 89 161 242
8 244 163 89 153 347 254 162 243
8 311 224 261 371 210 137 167 263
8 263 167 262 372 209 136 168 264
8 267 179 98 171 375 275 178 265
8 375 275 178 265 328 238 147 226
8 376 273 176 266 267 179 98 171
8 268 177 96 172 376 273 176 266
8 379 272 175 269 268 177 96 172
8 380 271 174 270 269 175 94 173
8 283 197 113 186 380 271 174 270
8 381 277 180 271 272 181 100 175
8 297 211 124 197 381 277 180 271
8 382 278 181 272 274 183 102 177
8 274 183 102 177 383 279 182 273
8 383 279 182 273 276 185 104 179
8 385 281 184 275 342 249 157 238
8 276 185 104 179 385 281 184 275
8 285 199 115 188 393 297 197 283
8 394 298 200 286 284 198 116 189
8 285 199 298 394 188 115 198 284
8 291 205 120 193 396 300 200 286
8 397 301 201 287 288 202 117 190
8 295 209 264 374 397 301 201 287
8 398 302 202 288 289 203 118 191
8 399 303 203 289 293 206 121 195
8 291 205 304 400 193 120 204 290
8 400 304 207 292 290 204 122 194
8 294 208 123 196 402 307 207 292
8 403 306 206 293 294 208 123 196
8 296 210 263 373 405 309 209 295
8 408 312 213 299 297 211 126 199
8 299 213 313 409 199 126 212 298
8 409 313 214 300 298 212 127 200
8 305 216 129 205 411 315 214 300
8 412 318 217 301 302 219 132 202
8 309 223 136 209 412 318 217 301
8 413 320 219 302 303 220 133 203
8 306 221 321 414 206 134 220 303
8 307 218 131 207 415 316 215 304
8 305 216 316 415 205 129 215 304
8 417 322 221 306 308 222 135 208
8 308 222 135 208 418 319 218 307
8 310 225 137 210 420 325 223 309
8 423 326 224 311 310 225 137 210
8 329 236 165 260 441 338 259 368
8 442 342 238 328 333 240 149 230
8 331 237 146 228 443 340 236 329
8 334 241 150 231 444 339 235 330
8 444 339 235 330 331 237 146 228
8 446 343 239 332 336 242 151 233
8 333 240 149 230 446 343 239 332
8 335 243 152 232 448 345 241 334
8 337 244 153 234 449 347 243 335
8 337 244 346 450 234 153 242 336
8 338 245 164 259 452 349 258 367
8 340 247 155 236 453 350 245 338
8 345 252 160 241 454 351 246 339
8 454 351 246 339 341 248 156 237
8 341 248 156 237 455 352 247 340
8 240 159 251 344 342 249 354 457
8 242 161 253 346 343 250 355 458
8 343 250 355 458 240 159 251 344
8 347 254 162 243 460 357 252 345
8 348 255 358 461 244 163 253 346
8 348 255 163 244 462 359 254 347
8 473 360 257 365 363 256 364 482
8 452 349 258 367 365 257 366 485
8 422 324 369 488 311 224 261 371
8 371 261 370 490 263 167 262 372
8 407 311 371 491 296 210 263 373
8 373 263 372 492 295 209 264 374
8 493 385 275 375 442 342 238 328
8 377 276 179 267 493 385 275 375
8 378 274 177 268 494 383 273 376
8 494 383 273 376 377 276 179 267
8 497 382 272 379 378 274 177 268
8 498 381 271 380 379 272 175 269
8 393 297 197 283 498 381 271 380
8 499 387 277 381 382 278 181 272
8 408 312 211 297 499 387 277 381
8 500 388 278 382 384 280 183 274
8 501 389 279 383 386 282 185 276
8 384 280 183 274 501 389 279 383
8 386 282 185 276 503 391 281 385
8 503 391 281 385 457 354 249 342
8 511 408 299 395 393 297 199 285
8 395 299 409 512 285 199 298 394
8 512 409 300 396 394 298 200 286
8 401 305 205 291 514 411 300 396
8 515 412 301 397 398 302 202 288
8 405 309 209 295 515 412 301 397
8 516 413 302 398 399 303 203 289
8 403 306 414 517 293 206 303 399
8 402 307 207 292 518 415 304 400
8 401 305 415 518 291 205 304 400
8 404 308 208 294 520 418 307 402
8 521 417 306 403 404 308 208 294
8 406 310 210 296 523 420 309 405
8 526 423 311 407 406 310 210 296
8 410 314 213 299 527 424 312 408
8 528 425 315 411 409 313 214 300
8 410 314 425 528 299 213 313 409
8 416 317 216 305 530 427 315 411
8 531 430 318 412 413 320 219 302
8 420 325 223 309 531 430 318 412
8 532 432 320 413 414 321 220 303
8 417 322 433 533 306 221 321 414
8 418 319 218 307 534 428 316 415
8 416 317 428 534 305 216 316 415
8 419 323 434 536 308 222 322 417
8 419 323 222 308 537 431 319 418
8 421 327 225 310 539 438 325 420
8 421 327 439 541 310 225 326 423
8 543 437 324 422 423 326 224 311
8 441 338 259 368 559 452 367 486
8 443 340 236 329 560 453 338 441
8 333 240 344 447 442 342 457 561
8 445 341 237 331 562 455 340 443
8 448 345 241 334 563 454 339 444
8 563 454 339 444 445 341 237 331
8 336 242 346 450 446 343 458 565
8 446 343 458 565 333 240 344 447
8 449 347 243 335 567 460 345 448
8 451 348 244 337 568 462 347 449
8 451 348 461 569 337 244 346 450
8 570 463 349 452 473 360 257 365
8 453 350 245 338 570 463 349 452
8 455 352 247 340 571 464 350 453
8 460 357 252 345 572 465 351 454
8 572 465 351 454 456 353 248 341
8 456 353 248 341 573 466 352 455
8 344 251 356 459 457 354 468 575
8 458 355 469 576 344 251 356 459
8 346 253 358 461 458 355 469 576
8 462 359 254 347 578 471 357 460
8 348 255 359 462 461 358 472 579
8 591 474 360 473 475 361 256 363
8 475 361 256 363 594 477 362 479
8 363 256 364 482 479 362 480 603
8 590 473 365 484 481 363 482 605
8 482 364 257 365 606 483 366 485
8 559 452 367 486 484 365 485 607
8 542 436 487 609 422 324 369 488
8 525 422 488 611 407 311 371 491
8 488 369 489 612 371 261 370 490
8 491 371 490 613 373 263 372 492
8 495 386 276 377 614 503 385 493
8 614 503 385 493 561 457 342 442
8 615 501 383 494 495 386 276 377
8 496 384 274 378 615 501 383 494
8 618 500 382 497 496 384 274 378
8 619 499 381 498 497 382 272 379
8 511 408 297 393 619 499 381 498
8 620 505 387 499 500 388 278 382
8 527 424 312 408 620 505 387 499
8 502 390 506 621 384 280 388 500
8 622 507 389 501 504 392 282 386
8 502 390 280 384 622 507 389 501
8 504 392 282 386 624 509 391 503
8 624 509 391 503 575 468 354 457
8 513 410 299 395 630 527 408 511
8 631 528 411 514 512 409 300 396
8 513 410 528 631 395 299 409 512
8 519 416 305 401 633 530 411 514
8 634 531 412 515 516 413 302 398
8 523 420 309 405 634 531 412 515
8 635 532 413 516 517 414 303 399
8 521 417 533 636 403 306 414 517
8 520 418 307 402 637 534 415 518
8 519 416 534 637 401 305 415 518
8 522 419 308 404 639 537 418 520
8 522 419 536 640 404 308 417 521
8 524 421 310 406 642 539 420 523
8 524 421 541 644 406 310 423 526
8 646 543 422 525 526 423 311 407
8 529 426 314 410 647 544 424 527
8 528 425 545 648 411 315 427 530
8 529 426 545 648 410 314 425 528
8 535 429 317 416 649 546 427 530
8 650 548 430 531 532 432 320 413
8 539 438 325 420 650 548 430 531
8 533 433 550 651 414 321 432 532
8 536 434 551 652 417 322 433 533
8 537 431 319 418 653 547 428 534
8 535 429 547 653 416 317 428 534
8 538 435 552 654 419 323 434 536
8 538 435 323 419 655 549 431 537
8 540 440 327 421 657 556 438 539
8 540 440 557 659 421 327 439 541
8 541 439 555 660 423 326 437 543
8 661 554 436 542 543 437 324 422
8 676 570 452 559 590 473 365 484
8 560 453 338 441 676 570 452 559
8 562 455 340 443 677 571 453 560
8 447 344 459 566 561 457 575 678
8 564 456 341 445 679 573 455 562
8 567 460 345 448 680 572 454 563
8 680 572 454 563 564 456 341 445
8 565 458 576 682 447 344 459 566
8 450 346 461 569 565 458 576 682
8 568 462 347 449 684 578 460 567
8 451 348 462 568 569 461 579 685
8 686 580 463 570 591 474 360 473
8 571 464 350 453 686 580 463 570
8 573 466 352 455 687 581 464 571
8 572 465 582 688 460 357 471 578
8 574 467 582 688 456 353 465 572
8 574 467 353 456 689 583 466 573
8 459 356 470 577 575 468 585 691
8 576 469 586 692 459 356 470 577
8 461 358 472 579 576 469 586 692
8 462 359 471 578 579 472 588 694
8 704 591 473 590 593 475 363 481
8 595 476 592 705 475 361 474 591
8 593 475 363 481 707 594 479 602
8 594 477 362 479 709 598 478 600
8 595 476 361 475 711 597 477 594
8 479 362 480 603 600 478 601 720
8 481 363 482 605 602 479 603 722
8 603 480 364 482 723 604 483 606
8 605 482 365 484 724 606 485 607
8 656 553 608 726 542 436 487 609
8 645 542 609 728 525 422 488 611
8 609 487 610 729 488 369 489 612
8 611 488 612 730 491 371 490 613
8 616 504 386 495 731 624 503 614
8 731 624 503 614 678 575 457 561
8 732 622 501 615 616 504 386 495
8 617 502 384 496 732 622 501 615
8 617 502 621 735 496 384 500 618
8 736 620 499 619 618 500 382 497
8 630 527 408 511 736 620 499 619
8 621 506 626 737 500 388 505 620
8 647 544 424 527 737 626 505 620
8 623 508 627 738 502 390 506 621
8 623 508 390 502 739 628 507 622
8 625 510 628 739 504 392 507 622
8 740 629 509 624 691 585 468 575
8 625 510 392 504 740 629 509 624
8 632 529 410 513 744 647 527 630
8 631 528 648 745 514 411 530 633
8 632 529 648 745 513 410 528 631
8 638 535 416 519 746 649 530 633
8 747 650 531 634 635 532 413 516
8 642 539 420 523 747 650 531 634
8 636 533 651 748 517 414 532 635
8 640 536 652 749 521 417 533 636
8 639 537 418 520 750 653 534 637
8 638 535 653 750 519 416 534 637
8 641 538 419 522 751 655 537 639
8 641 538 654 752 522 419 536 640
8 643 540 421 524 753 657 539 642
8 643 540 659 755 524 421 541 644
8 644 541 660 757 526 423 543 646
8 758 661 542 645 646 543 422 525
8 529 426 544 647 648 545 662 759
8 530 427 545 648 649 546 663 760
8 535 429 546 649 653 547 664 761
8 762 666 548 650 651 550 432 532
8 657 556 438 539 762 666 548 650
8 652 551 668 763 533 433 550 651
8 654 552 669 764 536 434 551 652
8 655 549 431 537 765 665 547 653
8 538 435 549 655 654 552 667 766
8 661 554 671 768 542 436 553 656
8 658 558 440 540 769 674 556 657
8 658 558 675 770 540 440 557 659
8 659 557 673 771 541 439 555 660
8 660 555 672 772 543 437 554 661
8 788 686 570 676 704 591 473 590
8 677 571 453 560 788 686 570 676
8 679 573 455 562 789 687 571 677
8 566 459 577 683 678 575 691 790
8 681 574 456 564 791 689 573 679
8 680 572 688 792 567 460 578 684
8 681 574 688 792 564 456 572 680
8 682 576 692 794 566 459 577 683
8 569 461 579 685 682 576 692 794
8 568 462 578 684 685 579 694 796
8 687 581 464 571 798 696 580 686
8 798 696 580 686 705 592 474 591
8 689 583 466 573 799 697 581 687
8 688 582 698 800 578 471 588 694
8 690 584 698 800 574 467 582 688
8 690 584 467 574 801 699 583 689
8 693 587 701 803 577 470 585 691
8 693 587 470 577 804 702 586 692
8 695 589 702 804 579 472 586 692
8 695 589 472 579 805 703 588 694
8 708 595 705 813 593 475 591 704
8 710 596 706 814 595 476 592 705
8 707 594 479 602 816 709 600 719
8 708 595 475 593 817 711 594 707
8 709 598 478 600 819 715 599 717
8 711 597 477 594 820 714 598 709
8 710 596 476 595 822 713 597 711
8 600 478 601 720 717 599 718 832
8 602 479 603 722 719 600 720 834
8 720 601 480 603 835 721 604 723
8 722 603 482 605 836 723 606 724
8 767 670 725 839 656 553 608 726
8 756 656 726 841 645 542 609 728
8 726 608 727 842 609 487 610 729
8 728 609 729 843 611 488 612 730
8 844 740 624 731 790 691 575 678
8 733 625 504 616 844 740 624 731
8 734 623 502 617 845 739 622 732
8 733 625 739 845 616 504 622 732
8 734 623 738 846 617 502 621 735
8 735 621 737 847 618 500 620 736
8 744 647 527 630 847 737 620 736
8 621 506 627 738 737 626 741 848
8 647 544 626 737 759 662 741 848
8 623 508 628 739 738 627 742 849
8 740 629 585 691 850 743 700 802
8 625 510 629 740 739 628 743 850
8 632 529 647 744 745 648 759 854
8 633 530 648 745 746 649 760 855
8 638 535 649 746 750 653 761 856
8 857 762 650 747 748 651 532 635
8 753 657 539 642 857 762 650 747
8 749 652 763 858 636 533 651 748
8 752 654 764 859 640 536 652 749
8 751 655 537 639 860 765 653 750
8 641 538 655 751 752 654 766 861
8 754 658 540 643 862 769 657 753
8 754 658 770 863 643 540 659 755
8 755 659 771 864 644 541 660 757
8 758 661 768 866 645 542 656 756
8 757 660 772 867 646 543 661 758
8 759 662 773 868 648 545 663 760
8 649 546 663 760 761 664 774 871
8 765 665 547 653 872 775 664 761
8 873 777 666 762 763 668 550 651
8 769 674 556 657 873 777 666 762
8 764 669 779 874 652 551 668 763
8 654 552 667 766 764 669 778 875
8 655 549 665 765 766 667 776 876
8 768 671 782 877 656 553 670 767
8 772 672 783 878 661 554 671 768
8 658 558 674 769 770 675 786 879
8 659 557 675 770 771 673 785 881
8 882 784 672 772 771 673 555 660
8 789 687 571 677 897 798 686 788
8 897 798 686 788 813 705 591 704
8 791 689 573 679 898 799 687 789
8 795 693 803 900 683 577 691 790
8 793 690 574 681 901 801 689 791
8 792 688 800 902 684 578 694 796
8 793 690 800 902 681 574 688 792
8 795 693 577 683 903 804 692 794
8 797 695 804 903 685 579 692 794
8 797 695 579 685 904 805 694 796
8 905 806 697 799 798 696 581 687
8 814 706 806 905 705 592 696 798
8 689 583 697 799 801 699 808 907
8 800 698 809 908 694 588 703 805
8 690 584 699 801 800 698 809 908
8 803 701 810 909 691 585 700 802
8 693 587 702 804 803 701 811 910
8 695 589 703 805 804 702 812 911
8 818 710 814 919 708 595 705 813
8 821 712 815 920 710 596 706 814
8 816 709 600 719 922 819 717 831
8 817 711 594 707 923 820 709 816
8 818 710 595 708 924 822 711 817
8 819 715 599 717 926 827 716 829
8 820 714 598 709 927 826 715 819
8 929 825 713 822 820 714 597 711
8 821 712 596 710 930 824 713 822
8 717 599 718 832 829 716 830 942
8 719 600 720 834 831 717 832 944
8 832 718 601 720 945 833 721 835
8 834 720 603 722 946 835 723 836
8 869 780 838 950 767 670 725 839
8 865 767 839 952 756 656 726 841
8 839 725 840 953 726 608 727 842
8 841 726 842 954 728 609 729 843
8 844 740 691 790 955 850 802 899
8 733 625 740 844 845 739 850 955
8 734 623 739 845 846 738 849 956
8 735 621 738 846 847 737 848 957
8 744 647 737 847 854 759 848 957
8 738 627 742 849 848 741 851 958
8 848 741 851 958 759 662 773 868
8 850 743 700 802 959 852 807 906
8 849 742 628 739 959 852 743 850
8 854 759 868 965 745 648 760 855
8 746 649 760 855 856 761 871 966
8 860 765 653 750 967 872 761 856
8 968 873 762 857 858 763 651 748
8 862 769 657 753 968 873 762 857
8 859 764 874 969 749 652 763 858
8 752 654 766 861 859 764 875 970
8 751 655 765 860 861 766 876 971
8 754 658 769 862 863 770 879 972
8 755 659 770 863 864 771 881 974
8 976 882 772 867 864 771 660 757
8 866 768 877 977 756 656 767 865
8 867 772 878 978 758 661 768 866
8 760 663 773 868 871 774 883 980
8 870 781 837 948 982 890 780 869
8 982 890 780 869 877 782 670 767
8 761 664 774 871 872 775 884 984
8 876 776 665 765 985 885 775 872
8 873 777 668 763 986 887 779 874
8 769 674 777 873 879 786 887 986
8 764 669 778 875 874 779 888 987
8 766 667 776 876 875 778 886 988
8 878 783 892 989 768 671 782 877
8 878 783 672 772 990 893 784 882
8 880 787 675 770 991 896 786 879
8 880 787 895 992 770 675 785 881
8 881 785 894 993 771 673 784 882
8 1006 905 799 898 897 798 687 789
8 919 814 905 1006 813 705 798 897
8 791 689 799 898 901 801 907 1007
8 900 803 909 1009 790 691 802 899
8 795 693 804 903 900 803 910 1010
8 902 800 908 1011 796 694 805 904
8 793 690 801 901 902 800 908 1011
8 797 695 805 904 903 804 911 1012
8 799 697 806 905 907 808 912 1013
8 920 815 912 1013 814 706 806 905
8 802 700 810 909 906 807 913 1014
8 801 699 808 907 908 809 914 1015
8 805 703 809 908 911 812 915 1016
8 803 701 811 910 909 810 916 1017
8 911 812 917 1018 804 702 811 910
8 925 821 920 1030 818 710 814 919
8 928 823 921 1031 821 712 815 920
8 922 819 717 831 1033 926 829 941
8 923 820 709 816 1034 927 819 922
8 1035 929 822 924 923 820 711 817
8 925 821 710 818 1036 930 822 924
8 1038 933 825 929 927 826 714 820
8 926 827 716 829 1039 935 828 939
8 927 826 715 819 1040 934 827 926
8 928 823 712 821 1041 931 824 930
8 1042 932 824 930 929 825 713 822
8 829 716 830 942 939 828 940 1058
8 831 717 832 944 941 829 942 1060
8 942 830 718 832 1061 943 833 945
8 944 832 720 834 1062 945 835 946
8 981 889 947 1064 870 781 837 948
8 948 837 949 1067 869 780 838 950
8 975 869 950 1069 865 767 839 952
8 950 838 951 1070 839 725 840 953
8 952 839 953 1071 841 726 842 954
8 955 850 802 899 1072 959 906 1008
8 956 849 739 845 1072 959 850 955
8 846 738 849 956 957 848 958 1073
8 957 848 958 1073 854 759 868 965
8 849 742 852 959 958 851 961 1076
8 960 853 961 1076 906 807 852 959
8 958 851 961 1076 868 773 883 980
8 960 853 807 906 1077 963 913 1014
8 855 760 868 965 966 871 980 1085
8 856 761 871 966 967 872 984 1086
8 971 876 765 860 1087 985 872 967
8 968 873 763 858 1088 986 874 969
8 862 769 873 968 972 879 986 1088
8 859 764 875 970 969 874 987 1089
8 861 766 876 971 970 875 988 1090
8 973 880 770 863 1091 991 879 972
8 973 880 992 1092 863 770 881 974
8 974 881 993 1093 864 771 882 976
8 979 870 948 1066 1094 982 869 975
8 1094 982 869 975 977 877 767 865
8 978 878 772 867 1095 990 882 976
8 978 878 989 1096 866 768 877 977
8 871 774 883 980 984 884 994 1099
8 983 891 999 1100 870 781 889 981
8 1101 1000 890 982 989 892 782 877
8 983 891 781 870 1101 1000 890 982
8 872 775 884 984 985 885 995 1103
8 876 776 885 985 988 886 996 1104
8 986 887 779 874 1105 998 888 987
8 879 786 887 986 991 896 998 1105
8 875 778 886 988 987 888 997 1106
8 990 893 1002 1107 878 783 892 989
8 1108 1003 893 990 993 894 784 882
8 880 787 896 991 992 895 1005 1109
8 993 894 785 881 1110 1004 895 992
8 898 799 905 1006 1007 907 1013 1120
8 1030 920 1013 1120 919 814 905 1006
8 901 801 907 1007 1011 908 1015 1121
8 899 802 909 1009 1008 906 1014 1122
8 900 803 910 1010 1009 909 1017 1123
8 1012 911 1018 1124 903 804 910 1010
8 904 805 908 1011 1012 911 1016 1125
8 1013 912 1020 1127 907 808 914 1015
8 1031 921 1020 1127 920 815 912 1013
8 1019 918 962 1075 1128 1021 913 1014
8 1128 1021 913 1014 1017 916 810 909
8 1015 914 1022 1129 908 809 915 1016
8 1016 915 1023 1130 911 812 917 1018
8 1018 917 1024 1131 910 811 916 1017
8 1037 928 1031 1148 925 821 920 1030
8 928 823 931 1041 1031 921 1032 1149
8 1033 926 829 941 1151 1039 939 1057
8 1034 927 819 922 1152 1040 926 1033
8 1153 1038 929 1035 1034 927 820 923
8 1154 1042 930 1036 1035 929 822 924
8 1037 928 821 925 1155 1041 930 1036
8 1039 935 828 939 1156 1047 938 1055
8 1157 1043 932 1042 1038 933 825 929
8 1038 933 826 927 1158 1045 934 1040
8 1040 934 827 926 1159 1046 935 1039
8 930 824 932 1042 1041 931 1044 1160
8 1051 936 1048 1165 1175 1052 937 1053
8 1156 1047 938 1055 1053 937 1054 1178
8 939 828 940 1058 1055 938 1056 1181
8 941 829 942 1060 1057 939 1058 1183
8 942 830 943 1061 1058 940 1059 1184
8 1060 942 832 944 1185 1061 945 1062
8 1082 964 1063 1188 981 889 947 1064
8 1097 981 1064 1190 979 870 948 1066
8 1064 947 1065 1191 948 837 949 1067
8 1066 948 1067 1193 975 869 950 1069
8 1067 949 1068 1194 950 838 951 1070
8 1069 950 1070 1195 952 839 953 1071
8 956 849 959 1072 1073 958 1076 1197
8 1074 960 1076 1197 1008 906 959 1072
8 1073 958 1076 1197 965 868 980 1085
8 1074 960 906 1008 1198 1077 1014 1122
8 1133 1026 1079 1199 1019 918 962 1075
8 1077 963 913 1014 1200 1080 962 1075
8 960 853 963 1077 1076 961 1078 1201
8 980 883 961 1076 1099 994 1078 1201
8 1210 1083 964 1082 1100 999 889 981
8 966 871 980 1085 1086 984 1099 1215
8 967 872 984 1086 1087 985 1103 1216
8 971 876 985 1087 1090 988 1104 1217
8 1088 986 874 969 1218 1105 987 1089
8 972 879 986 1088 1091 991 1105 1218
8 970 875 988 1090 1089 987 1106 1219
8 973 880 991 1091 1092 992 1109 1220
8 1093 993 881 974 1221 1110 992 1092
8 1222 1108 990 1095 1093 993 882 976
8 1223 1101 982 1094 1096 989 877 977
8 1098 983 870 979 1223 1101 982 1094
8 1095 990 1107 1224 978 878 989 1096
8 1098 983 1100 1225 979 870 981 1097
8 984 884 994 1099 1103 995 1111 1227
8 1102 1001 1115 1228 983 891 999 1100
8 1101 1000 892 989 1229 1116 1002 1107
8 1102 1001 891 983 1229 1116 1000 1101
8 985 885 995 1103 1104 996 1112 1230
8 988 886 996 1104 1106 997 1113 1231
8 1105 998 888 987 1232 1114 997 1106
8 991 896 998 1105 1109 1005 1114 1232
8 1108 1003 1117 1233 990 893 1002 1107
8 1108 1003 894 993 1233 1117 1004 1110
8 992 895 1005 1109 1110 1004 1118 1234
8 1120 1013 1127 1244 1007 907 1015 1121
8 1148 1031 1127 1244 1030 920 1013 1120
8 1121 1015 1129 1245 1011 908 1016 1125
8 1126 1019 1075 1196 1246 1128 1014 1122
8 1246 1128 1014 1122 1123 1017 909 1009
8 1124 1018 1131 1247 1010 910 1017 1123
8 1125 1016 1130 1248 1012 911 1018 1124
8 1127 1020 1137 1254 1015 914 1022 1129
8 1031 921 1032 1149 1127 1020 1137 1254
8 1134 1027 918 1019 1257 1140 1021 1128
8 1257 1140 1021 1128 1131 1024 916 1017
8 1129 1022 1141 1258 1016 915 1023 1130
8 1130 1023 1142 1259 1018 917 1024 1131
8 1261 1144 1025 1132 1133 1026 1079 1199
8 1255 1138 1025 1132 1135 1028 1144 1261
8 1133 1026 918 1019 1262 1145 1027 1134
8 1136 1029 1139 1256 1263 1146 1028 1135
8 1037 928 1041 1155 1148 1031 1149 1275
8 1041 931 1044 1160 1149 1032 1150 1276
8 1151 1039 939 1057 1278 1156 1055 1180
8 1152 1040 926 1033 1279 1159 1039 1151
8 1153 1038 927 1034 1280 1158 1040 1152
8 1281 1157 1042 1154 1153 1038 929 1035
8 1036 930 1042 1154 1155 1041 1160 1282
8 1283 1164 1046 1159 1156 1047 935 1039
8 1165 1048 1164 1283 1053 937 1047 1156
8 1157 1043 933 1038 1284 1161 1045 1158
8 1157 1043 1161 1284 1042 932 1044 1160
8 1040 934 1046 1159 1158 1045 1163 1285
8 1166 1049 1167 1292 1051 936 1048 1165
8 1166 1049 936 1051 1293 1168 1050 1172
8 1051 936 1052 1175 1172 1050 1173 1306
8 1174 1051 1165 1290 1308 1175 1053 1177
8 1053 937 1054 1178 1175 1052 1176 1309
8 1278 1156 1055 1180 1177 1053 1178 1311
8 1055 938 1056 1181 1178 1054 1179 1312
8 1057 939 1058 1183 1180 1055 1181 1314
8 1058 940 1059 1184 1181 1056 1182 1315
8 1060 942 1061 1185 1183 1058 1184 1316
8 1208 1081 1187 1321 1082 964 1063 1188
8 1209 1082 1188 1322 1097 981 1064 1190
8 1188 1063 1189 1323 1064 947 1065 1191
8 1190 1064 1191 1325 1066 948 1067 1193
8 1191 1065 1192 1326 1067 949 1068 1194
8 1067 1193 1069 950 1194 1327 1195 1070
8 1250 1133 1199 1330 1126 1019 1075 1196
8 1198 1077 1014 1122 1331 1200 1075 1196
8 1074 960 1077 1198 1197 1076 1201 1332
8 1085 980 1076 1197 1215 1099 1201 1332
8 1199 1079 1203 1333 1075 962 1080 1200
8 1132 1025 1119 1243 1199 1079 1203 1333
8 1201 1078 963 1077 1334 1202 1080 1200
8 1099 994 1078 1201 1227 1111 1202 1334
8 1343 1207 1081 1208 1210 1083 964 1082
8 1214 1084 1186 1319 1343 1207 1081 1208
8 1345 1210 1082 1209 1225 1100 981 1097
8 1346 1211 1083 1210 1228 1115 999 1100
8 1086 984 1099 1215 1216 1103 1227 1352
8 1087 985 1103 1216 1217 1104 1230 1353
8 1090 988 1104 1217 1219 1106 1231 1354
8 1218 1105 987 1089 1355 1232 1106 1219
8 1091 991 1105 1218 1220 1109 1232 1355
8 1092 992 1109 1220 1221 1110 1234 1356
8 1222 1108 1233 1357 1095 990 1107 1224
8 1222 1108 993 1093 1357 1233 1110 1221
8 1223 1101 989 1096 1358 1229 1107 1224
8 1226 1102 983 1098 1358 1229 1101 1223
8 1226 1102 1228 1359 1098 983 1100 1225
8 1103 995 1111 1227 1230 1112 1235 1360
8 1107 1002 1117 1233 1229 1116 1240 1362
8 1102 1001 1116 1229 1228 1115 1240 1362
8 1104 996 1112 1230 1231 1113 1236 1363
8 1364 1237 1114 1232 1231 1113 997 1106
8 1109 1005 1114 1232 1234 1118 1238 1365
8 1110 1004 1118 1234 1233 1117 1241 1366
8 1242 1374 1255 1138 1119 1243 1132 1025
8 1244 1127 1254 1376 1121 1015 1129 1245
8 1148 1031 1149 1275 1244 1127 1254 1376
8 1245 1129 1258 1377 1125 1016 1130 1248
8 1251 1134 1019 1126 1378 1257 1128 1246
8 1378 1257 1128 1246 1247 1131 1017 1123
8 1248 1130 1259 1379 1124 1018 1131 1247
8 1261 1381 1250 1133 1132 1249 1330 1199
8 1255 1380 1252 1135 1132 1249 1381 1261
8 1250 1133 1019 1126 1382 1262 1134 1251
8 1253 1136 1256 1385 1384 1263 1135 1252
8 1254 1137 1265 1387 1129 1022 1141 1258
8 1149 1032 1150 1276 1254 1137 1265 1387
8 1028 1135 1255 1138 1139 1256 1388 1266
8 1136 1029 1147 1264 1256 1139 1267 1389
8 1390 1268 1140 1257 1259 1142 1024 1131
8 1260 1143 1027 1134 1390 1268 1140 1257
8 1258 1141 1269 1391 1130 1023 1142 1259
8 1262 1145 1027 1134 1393 1271 1143 1260
8 1261 1144 1026 1133 1394 1272 1145 1262
8 1135 1028 1144 1261 1263 1146 1272 1394
8 1136 1029 1146 1263 1264 1147 1273 1395
8 1155 1041 1160 1282 1275 1149 1276 1405
8 1276 1150 1044 1160 1406 1277 1162 1286
8 1408 1283 1159 1279 1278 1156 1039 1151
8 1290 1165 1283 1408 1177 1053 1156 1278
8 1152 1040 1159 1279 1280 1158 1285 1409
8 1281 1157 1038 1153 1410 1284 1158 1280
8 1281 1157 1284 1410 1154 1042 1160 1282
8 1159 1046 1164 1283 1285 1163 1289 1412
8 1292 1167 1289 1412 1165 1048 1164 1283
8 1158 1045 1163 1285 1284 1161 1288 1413
8 1284 1161 1288 1413 1160 1044 1162 1286
8 1291 1166 1292 1418 1174 1051 1165 1290
8 1291 1166 1051 1174 1419 1293 1172 1305
8 1294 1169 1296 1421 1166 1049 1167 1292
8 1293 1168 1050 1172 1422 1295 1171 1303
8 1294 1169 1049 1166 1423 1297 1168 1293
8 1422 1295 1171 1303 1301 1170 1302 1435
8 1172 1050 1173 1306 1303 1171 1304 1438
8 1174 1051 1175 1308 1305 1172 1306 1440
8 1175 1052 1176 1309 1306 1173 1307 1441
8 1177 1053 1178 1311 1308 1175 1309 1443
8 1178 1054 1179 1312 1309 1176 1310 1444
8 1180 1055 1181 1314 1311 1178 1312 1446
8 1056 1181 1312 1179 1182 1315 1447 1313
8 1183 1058 1184 1316 1314 1181 1315 1448
8 1319 1186 1084 1214 1451 1317 1213 1350
8 1319 1186 1318 1453 1208 1081 1187 1321
8 1321 1187 1320 1456 1188 1063 1189 1323
8 1344 1208 1321 1457 1209 1082 1188 1322
8 1322 1188 1323 1458 1190 1064 1191 1325
8 1323 1189 1324 1459 1191 1065 1192 1326
8 1191 1325 1193 1067 1326 1460 1327 1194
8 1242 1374 1243 1119 1328 1462 1335 1204
8 1330 1199 1333 1465 1196 1075 1200 1331
8 1132 1249 1330 1199 1243 1375 1465 1333
8 1332 1201 1077 1198 1466 1334 1200 1331
8 1215 1099 1201 1332 1352 1227 1334 1466
8 1119 1243 1333 1203 1204 1335 1470 1338
8 1333 1203 1338 1470 1200 1080 1202 1334
8 1227 1111 1202 1334 1360 1235 1338 1470
8 1328 1462 1335 1204 1205 1336 1471 1339
8 1337 1206 1340 1472 1464 1329 1205 1336
8 1346 1211 1342 1479 1210 1083 1207 1343
8 1346 1211 1115 1228 1479 1342 1239 1361
8 1348 1212 1084 1214 1479 1342 1207 1343
8 1480 1343 1208 1344 1345 1210 1082 1209
8 1351 1214 1319 1454 1480 1343 1208 1344
8 1481 1346 1210 1345 1359 1228 1100 1225
8 1348 1212 1347 1483 1214 1084 1213 1350
8 1216 1103 1227 1352 1353 1230 1360 1488
8 1217 1104 1230 1353 1354 1231 1363 1489
8 1490 1364 1232 1355 1354 1231 1106 1219
8 1220 1109 1232 1355 1356 1234 1365 1491
8 1221 1110 1234 1356 1357 1233 1366 1492
8 1224 1107 1233 1357 1358 1229 1362 1493
8 1226 1102 1229 1358 1359 1228 1362 1493
8 1230 1112 1235 1360 1363 1236 1367 1496
8 1361 1239 1115 1228 1497 1371 1240 1362
8 1366 1241 1372 1498 1233 1117 1240 1362
8 1364 1237 1113 1231 1499 1368 1236 1363
8 1364 1237 1368 1499 1232 1114 1238 1365
8 1234 1118 1238 1365 1366 1241 1369 1500
8 1507 1373 1242 1374 1388 1266 1138 1255
8 1508 1374 1243 1375 1380 1255 1132 1249
8 1376 1254 1387 1509 1245 1129 1258 1377
8 1275 1149 1276 1405 1376 1254 1387 1509
8 1377 1258 1391 1510 1248 1130 1259 1379
8 1511 1390 1257 1378 1379 1259 1131 1247
8 1383 1260 1134 1251 1511 1390 1257 1378
8 1252 1135 1256 1385 1380 1255 1388 1512
8 1261 1381 1513 1394 1133 1250 1382 1262
8 1135 1252 1384 1263 1261 1381 1513 1394
8 1382 1262 1134 1251 1514 1393 1260 1383
8 1253 1136 1263 1384 1386 1264 1395 1516
8 1253 1136 1264 1386 1385 1256 1389 1517
8 1387 1265 1397 1519 1258 1141 1269 1391
8 1276 1150 1277 1406 1387 1265 1397 1519
8 1256 1139 1267 1389 1388 1266 1398 1520
8 1264 1147 1274 1396 1389 1267 1399 1521
8 1392 1270 1143 1260 1522 1400 1268 1390
8 1390 1268 1142 1259 1522 1400 1269 1391
8 1392 1270 1401 1523 1260 1143 1271 1393
8 1272 1394 1524 1402 1145 1262 1393 1271
8 1395 1273 1146 1263 1524 1402 1272 1394
8 1273 1395 1264 1147 1403 1526 1396 1274
8 1405 1276 1160 1282 1534 1406 1286 1411
8 1414 1287 1407 1535 1286 1162 1277 1406
8 1279 1159 1283 1408 1409 1285 1412 1537
8 1418 1292 1412 1537 1290 1165 1283 1408
8 1280 1158 1285 1409 1410 1284 1413 1538
8 1410 1284 1413 1538 1282 1160 1286 1411
8 1285 1163 1289 1412 1413 1288 1417 1540
8 1421 1296 1417 1540 1292 1167 1289 1412
8 1414 1287 1162 1286 1541 1416 1288 1413
8 1420 1294 1421 1545 1291 1166 1292 1418
8 1419 1293 1172 1305 1546 1422 1303 1437
8 1420 1294 1166 1291 1547 1423 1293 1419
8 1294 1169 1297 1423 1421 1296 1425 1548
8 1423 1297 1168 1293 1549 1424 1295 1422
8 1301 1170 1298 1427 1422 1295 1424 1549
8 1432 1300 1428 1554 1301 1170 1298 1427
8 1431 1299 1428 1554 1560 1430 1300 1432
8 1563 1433 1300 1432 1435 1302 1170 1301
8 1546 1422 1303 1437 1434 1301 1435 1565
8 1303 1171 1304 1438 1435 1302 1436 1566
8 1305 1172 1306 1440 1437 1303 1438 1568
8 1306 1173 1307 1441 1438 1304 1439 1569
8 1308 1175 1309 1443 1440 1306 1441 1571
8 1309 1176 1310 1444 1441 1307 1442 1572
8 1311 1178 1312 1446 1443 1309 1444 1574
8 1179 1312 1444 1310 1313 1447 1575 1445
8 1314 1181 1315 1448 1446 1312 1447 1576
8 1350 1213 1349 1486 1451 1317 1449 1579
8 1451 1317 1450 1581 1319 1186 1318 1453
8 1454 1319 1214 1351 1582 1451 1350 1487
8 1453 1318 1452 1584 1321 1187 1320 1456
8 1454 1319 1453 1585 1344 1208 1321 1457
8 1456 1320 1455 1586 1323 1189 1324 1459
8 1457 1321 1456 1587 1322 1188 1323 1458
8 1458 1323 1459 1588 1325 1191 1326 1460
8 1205 1336 1464 1329 1328 1462 1590 1461
8 1507 1373 1461 1590 1374 1242 1328 1462
8 1508 1374 1462 1591 1375 1243 1335 1467
8 1337 1206 1329 1464 1473 1341 1463 1594
8 1375 1243 1335 1467 1465 1333 1470 1596
8 1465 1333 1470 1596 1331 1200 1334 1466
8 1352 1227 1334 1466 1488 1360 1470 1596
8 1591 1462 1336 1468 1467 1335 1471 1597
8 1469 1337 1472 1598 1595 1464 1336 1468
8 1471 1339 1474 1600 1335 1204 1338 1470
8 1600 1474 1367 1496 1470 1338 1235 1360
8 1336 1205 1340 1472 1471 1339 1475 1601
8 1337 1206 1341 1473 1472 1340 1476 1602
8 1495 1370 1478 1609 1361 1239 1342 1479
8 1348 1212 1342 1479 1483 1347 1478 1609
8 1481 1346 1479 1610 1345 1210 1343 1480
8 1481 1346 1228 1359 1610 1479 1361 1494
8 1484 1348 1214 1351 1610 1479 1343 1480
8 1483 1347 1482 1612 1350 1213 1349 1486
8 1484 1348 1483 1613 1351 1214 1350 1487
8 1353 1230 1360 1488 1489 1363 1496 1616
8 1490 1364 1231 1354 1617 1499 1363 1489
8 1490 1364 1499 1617 1355 1232 1365 1491
8 1356 1234 1365 1491 1492 1366 1500 1619
8 1492 1366 1498 1620 1357 1233 1362 1493
8 1494 1361 1228 1359 1621 1497 1362 1493
8 1495 1370 1239 1361 1622 1504 1371 1497
8 1363 1236 1367 1496 1499 1368 1501 1623
8 1497 1371 1240 1362 1624 1505 1372 1498
8 1625 1503 1372 1498 1500 1369 1241 1366
8 1365 1238 1368 1499 1500 1369 1502 1626
8 1520 1398 1506 1633 1388 1266 1373 1507
8 1634 1507 1374 1508 1512 1388 1255 1380
8 1509 1387 1519 1635 1377 1258 1391 1510
8 1405 1276 1406 1534 1509 1387 1519 1635
8 1515 1392 1260 1383 1636 1522 1390 1511
8 1511 1390 1259 1379 1636 1522 1391 1510
8 1385 1256 1389 1517 1512 1388 1520 1637
8 1513 1394 1262 1382 1638 1524 1393 1514
8 1395 1516 1638 1524 1263 1384 1513 1394
8 1515 1392 1523 1639 1383 1260 1393 1514
8 1516 1395 1526 1640 1386 1264 1396 1518
8 1386 1264 1396 1518 1517 1389 1521 1641
8 1519 1397 1527 1643 1391 1269 1400 1522
8 1535 1407 1527 1643 1406 1277 1397 1519
8 1389 1267 1399 1521 1520 1398 1528 1644
8 1645 1529 1399 1521 1525 1404 1274 1396
8 1392 1270 1400 1522 1523 1401 1531 1646
8 1524 1402 1271 1393 1648 1532 1401 1523
8 1403 1526 1648 1532 1273 1395 1524 1402
8 1525 1404 1274 1396 1649 1533 1403 1526
8 1539 1414 1535 1657 1411 1286 1406 1534
8 1542 1415 1536 1658 1414 1287 1407 1535
8 1409 1285 1412 1537 1538 1413 1540 1660
8 1545 1421 1540 1660 1418 1292 1412 1537
8 1539 1414 1286 1411 1661 1541 1413 1538
8 1540 1417 1544 1663 1413 1288 1416 1541
8 1421 1296 1425 1548 1540 1417 1544 1663
8 1542 1415 1287 1414 1664 1543 1416 1541
8 1420 1294 1423 1547 1545 1421 1548 1666
8 1547 1423 1293 1419 1667 1549 1422 1546
8 1434 1301 1427 1553 1546 1422 1549 1667
8 1423 1297 1424 1549 1548 1425 1550 1668
8 1551 1426 1550 1668 1427 1298 1424 1549
8 1551 1426 1298 1427 1671 1552 1428 1554
8 1562 1432 1554 1674 1434 1301 1427 1553
8 1431 1299 1429 1558 1554 1428 1555 1675
8 1431 1299 1430 1560 1558 1429 1557 1680
8 1560 1430 1300 1432 1683 1559 1433 1563
8 1561 1431 1554 1674 1684 1560 1432 1562
8 1685 1563 1432 1562 1565 1435 1301 1434
8 1435 1302 1436 1566 1563 1433 1564 1686
8 1437 1303 1438 1568 1565 1435 1566 1688
8 1438 1304 1439 1569 1566 1436 1567 1689
8 1440 1306 1441 1571 1568 1438 1569 1691
8 1441 1307 1442 1572 1569 1439 1570 1692
8 1443 1309 1444 1574 1571 1441 1572 1694
8 1310 1444 1572 1442 1445 1575 1695 1573
8 1446 1312 1447 1576 1574 1444 1575 1696
8 1486 1349 1485 1614 1579 1449 1577 1699
8 1451 1317 1449 1579 1581 1450 1578 1701
8 1487 1350 1486 1615 1582 1451 1579 1702
8 1581 1450 1580 1704 1453 1318 1452 1584
8 1582 1451 1581 1705 1454 1319 1453 1585
8 1584 1452 1583 1706 1456 1320 1455 1586
8 1585 1453 1584 1707 1457 1321 1456 1587
8 1587 1456 1586 1708 1458 1323 1459 1588
8 1633 1506 1589 1710 1507 1373 1461 1590
8 1464 1329 1461 1590 1594 1463 1589 1710
8 1468 1336 1462 1591 1595 1464 1590 1711
8 1634 1507 1590 1711 1508 1374 1462 1591
8 1473 1341 1463 1594 1603 1477 1593 1716
8 1469 1337 1464 1595 1599 1473 1594 1717
8 1471 1597 1467 1335 1600 1718 1596 1470
8 1718 1600 1496 1616 1596 1470 1360 1488
8 1336 1468 1597 1471 1472 1598 1719 1601
8 1469 1337 1473 1599 1598 1472 1602 1720
8 1722 1604 1501 1623 1600 1474 1367 1496
8 1475 1601 1471 1339 1604 1722 1600 1474
8 1602 1476 1605 1723 1472 1340 1475 1601
8 1476 1602 1724 1606 1341 1473 1603 1477
8 1483 1347 1478 1609 1612 1482 1608 1731
8 1495 1370 1504 1622 1609 1478 1608 1731
8 1618 1495 1609 1732 1494 1361 1479 1610
8 1484 1348 1479 1610 1613 1483 1609 1732
8 1486 1349 1482 1612 1614 1485 1611 1733
8 1613 1483 1612 1734 1487 1350 1486 1615
8 1489 1363 1496 1616 1617 1499 1623 1736
8 1491 1365 1499 1617 1619 1500 1626 1737
8 1618 1495 1361 1494 1738 1622 1497 1621
8 1739 1625 1498 1620 1619 1500 1366 1492
8 1621 1497 1362 1493 1740 1624 1498 1620
8 1742 1631 1504 1622 1624 1505 1371 1497
8 1743 1628 1502 1626 1623 1501 1368 1499
8 1744 1630 1505 1624 1625 1503 1372 1498
8 1745 1629 1503 1625 1626 1502 1369 1500
8 1520 1398 1528 1644 1633 1506 1632 1751
8 1637 1520 1633 1752 1512 1388 1507 1634
8 1635 1519 1643 1753 1510 1391 1522 1636
8 1657 1535 1643 1753 1534 1406 1519 1635
8 1515 1392 1522 1636 1639 1523 1646 1754
8 1517 1389 1521 1641 1637 1520 1644 1755
8 1524 1638 1756 1648 1393 1514 1639 1523
8 1640 1526 1395 1516 1756 1648 1524 1638
8 1642 1525 1396 1518 1757 1649 1526 1640
8 1758 1645 1521 1641 1642 1525 1396 1518
8 1646 1531 1400 1522 1760 1650 1527 1643
8 1535 1407 1536 1658 1643 1527 1650 1760
8 1521 1399 1529 1645 1644 1528 1651 1761
8 1647 1530 1652 1762 1525 1404 1529 1645
8 1401 1523 1648 1532 1531 1646 1763 1655
8 1525 1404 1533 1649 1647 1530 1654 1765
8 1533 1649 1766 1656 1403 1526 1648 1532
8 1662 1542 1658 1774 1539 1414 1535 1657
8 1542 1415 1543 1664 1658 1536 1659 1775
8 1660 1540 1663 1777 1538 1413 1541 1661
8 1545 1421 1548 1666 1660 1540 1663 1777
8 1662 1542 1414 1539 1778 1664 1541 1661
8 1664 1543 1416 1541 1779 1665 1544 1663
8 1548 1425 1550 1668 1663 1544 1665 1779
8 1547 1423 1549 1667 1666 1548 1668 1781
8 1670 1551 1668 1781 1553 1427 1549 1667
8 1551 1426 1552 1671 1668 1550 1669 1782
8 1670 1551 1427 1553 1784 1671 1554 1674
8 1675 1555 1672 1785 1554 1428 1552 1671
8 1678 1556 1673 1789 1558 1429 1555 1675
8 1561 1431 1558 1681 1674 1554 1675 1790
8 1794 1677 1556 1678 1680 1557 1429 1558
8 1560 1430 1559 1683 1680 1557 1679 1797
8 1561 1431 1560 1684 1681 1558 1680 1798
8 1563 1433 1564 1686 1683 1559 1682 1800
8 1684 1560 1432 1562 1801 1683 1563 1685
8 1565 1435 1566 1688 1685 1563 1686 1802
8 1566 1436 1567 1689 1686 1564 1687 1803
8 1568 1438 1569 1691 1688 1566 1689 1805
8 1569 1439 1570 1692 1689 1567 1690 1806
8 1571 1441 1572 1694 1691 1569 1692 1808
8 1442 1572 1692 1570 1573 1695 1809 1693
8 1574 1444 1575 1696 1694 1572 1695 1810
8 1614 1485 1592 1712 1699 1577 1697 1813
8 1579 1449 1577 1699 1701 1578 1698 1815
8 1615 1486 1614 1735 1702 1579 1699 1816
8 1701 1578 1700 1818 1581 1450 1580 1704
8 1582 1451 1579 1702 1705 1581 1701 1819
8 1704 1580 1703 1820 1584 1452 1583 1706
8 1705 1581 1704 1821 1585 1453 1584 1707
8 1707 1584 1706 1822 1587 1456 1586 1708
8 1710 1589 1506 1633 1824 1709 1632 1751
8 1594 1463 1589 1710 1716 1593 1709 1824
8 1752 1633 1710 1825 1634 1507 1590 1711
8 1595 1464 1590 1711 1717 1594 1710 1825
8 1830 1714 1592 1712 1733 1611 1485 1614
8 1603 1477 1593 1716 1725 1607 1715 1834
8 1599 1473 1594 1717 1721 1603 1716 1835
8 1837 1722 1623 1736 1718 1600 1496 1616
8 1719 1601 1722 1837 1597 1471 1600 1718
8 1602 1720 1598 1472 1723 1838 1719 1601
8 1720 1602 1473 1599 1839 1724 1603 1721
8 1723 1605 1726 1840 1601 1475 1604 1722
8 1840 1726 1628 1743 1722 1604 1501 1623
8 1724 1606 1727 1841 1602 1476 1605 1723
8 1725 1607 1728 1842 1603 1477 1606 1724
8 1612 1482 1608 1731 1733 1611 1730 1849
8 1741 1627 1730 1849 1622 1504 1608 1731
8 1613 1483 1609 1732 1734 1612 1731 1850
8 1618 1495 1622 1738 1732 1609 1731 1850
8 1615 1486 1612 1734 1735 1614 1733 1851
8 1852 1743 1626 1737 1736 1623 1499 1617
8 1853 1745 1625 1739 1737 1626 1500 1619
8 1855 1742 1622 1738 1740 1624 1497 1621
8 1856 1744 1624 1740 1739 1625 1498 1620
8 1741 1627 1504 1622 1857 1746 1631 1742
8 1742 1631 1505 1624 1858 1749 1630 1744
8 1859 1747 1629 1745 1743 1628 1502 1626
8 1860 1748 1630 1744 1745 1629 1503 1625
8 1644 1528 1651 1761 1751 1632 1750 1865
8 1637 1520 1644 1755 1752 1633 1751 1866
8 1754 1646 1522 1636 1867 1760 1643 1753
8 1657 1535 1658 1774 1753 1643 1760 1867
8 1639 1523 1646 1754 1756 1648 1763 1868
8 1641 1521 1645 1758 1755 1644 1761 1869
8 1757 1649 1526 1640 1870 1766 1648 1756
8 1642 1525 1649 1757 1759 1647 1765 1871
8 1759 1647 1762 1872 1642 1525 1645 1758
8 1760 1650 1767 1874 1646 1531 1655 1763
8 1658 1536 1659 1775 1760 1650 1767 1874
8 1762 1652 1768 1875 1645 1529 1651 1761
8 1764 1653 1769 1876 1647 1530 1652 1762
8 1656 1766 1877 1773 1532 1648 1763 1655
8 1771 1879 1765 1654 1653 1764 1647 1530
8 1533 1649 1765 1654 1656 1766 1880 1772
8 1662 1542 1664 1778 1774 1658 1775 1887
8 1664 1543 1665 1779 1775 1659 1776 1888
8 1778 1664 1541 1661 1890 1779 1663 1777
8 1666 1548 1668 1781 1777 1663 1779 1890
8 1782 1669 1780 1891 1668 1550 1665 1779
8 1670 1551 1671 1784 1781 1668 1782 1893
8 1671 1552 1672 1785 1782 1669 1783 1894
8 1790 1675 1785 1896 1674 1554 1671 1784
8 1675 1555 1673 1789 1785 1672 1786 1897
8 1792 1676 1788 1903 1678 1556 1673 1789
8 1795 1678 1789 1904 1681 1558 1675 1790
8 1792 1676 1556 1678 1906 1791 1677 1794
8 1680 1557 1679 1797 1794 1677 1793 1909
8 1910 1794 1678 1795 1798 1680 1558 1681
8 1683 1559 1682 1800 1797 1679 1796 1912
8 1684 1560 1683 1801 1798 1680 1797 1913
8 1686 1564 1687 1803 1800 1682 1799 1915
8 1685 1563 1686 1802 1801 1683 1800 1916
8 1688 1566 1689 1805 1802 1686 1803 1917
8 1689 1567 1690 1806 1803 1687 1804 1918
8 1691 1569 1692 1808 1805 1689 1806 1920
8 1692 1570 1693 1809 1806 1690 1807 1921
8 1694 1572 1695 1810 1808 1692 1809 1922
8 1829 1713 1811 1926 1712 1592 1697 1813
8 1813 1697 1812 1928 1699 1577 1698 1815
8 1735 1614 1712 1828 1816 1699 1813 1929
8 1815 1698 1814 1931 1701 1578 1700 1818
8 1702 1579 1699 1816 1819 1701 1815 1932
8 1818 1700 1817 1933 1704 1580 1703 1820
8 1819 1701 1818 1934 1705 1581 1704 1821
8 1821 1704 1820 1935 1707 1584 1706 1822
8 1824 1709 1632 1751 1937 1823 1750 1865
8 1716 1593 1709 1824 1834 1715 1823 1937
8 1825 1710 1633 1752 1938 1824 1751 1866
8 1717 1594 1710 1825 1835 1716 1824 1938
8 1945 1830 1712 1828 1851 1733 1614 1735
8 1830 1714 1831 1946 1712 1592 1713 1829
8 1947 1832 1714 1830 1849 1730 1611 1733
8 1843 1729 1607 1725 1950 1833 1715 1834
8 1721 1603 1716 1835 1836 1725 1834 1951
8 1836 1725 1842 1953 1721 1603 1724 1839
8 1723 1838 1719 1601 1840 1954 1837 1722
8 1954 1840 1743 1852 1837 1722 1623 1736
8 1724 1839 1720 1602 1841 1955 1838 1723
8 1841 1727 1844 1956 1723 1605 1726 1840
8 1956 1844 1747 1859 1840 1726 1628 1743
8 1728 1842 1724 1606 1845 1957 1841 1727
8 1725 1607 1729 1843 1842 1728 1846 1958
8 1741 1627 1746 1857 1849 1730 1848 1965
8 1734 1612 1731 1850 1851 1733 1849 1966
8 1854 1741 1849 1966 1738 1622 1731 1850
8 1967 1859 1745 1853 1852 1743 1626 1737
8 1968 1860 1744 1856 1853 1745 1625 1739
8 1854 1741 1622 1738 1969 1857 1742 1855
8 1855 1742 1624 1740 1970 1858 1744 1856
8 1857 1746 1631 1742 1971 1861 1749 1858
8 1858 1749 1630 1744 1972 1863 1748 1860
8 1859 1747 1862 1973 1745 1629 1748 1860
8 1875 1768 1864 1977 1761 1651 1750 1865
8 1755 1644 1761 1869 1866 1751 1865 1978
8 1867 1760 1874 1979 1754 1646 1763 1868
8 1774 1658 1775 1887 1867 1760 1874 1979
8 1870 1766 1648 1756 1980 1877 1763 1868
8 1872 1762 1875 1981 1758 1645 1761 1869
8 1757 1649 1766 1870 1871 1765 1880 1982
8 1983 1879 1764 1873 1871 1765 1647 1759
8 1873 1764 1876 1984 1759 1647 1762 1872
8 1877 1773 1655 1763 1986 1881 1767 1874
8 1775 1659 1776 1888 1874 1767 1881 1986
8 1876 1769 1882 1987 1762 1652 1768 1875
8 1878 1770 1883 1988 1764 1653 1769 1876
8 1880 1772 1656 1766 1989 1886 1773 1877
8 1878 1770 1653 1764 1990 1884 1771 1879
8 1765 1654 1772 1880 1879 1771 1885 1991
8 1778 1664 1779 1890 1887 1775 1888 1997
8 1998 1889 1776 1888 1891 1780 1665 1779
8 1893 1782 1891 2000 1781 1668 1779 1890
8 1894 1783 1892 2001 1782 1669 1780 1891
8 1784 1671 1785 1896 1893 1782 1894 2003
8 1897 1786 1895 2004 1785 1672 1783 1894
8 1790 1675 1789 1904 1896 1785 1897 2006
8 1901 1787 1898 2007 1789 1673 1786 1897
8 1903 1788 1900 2013 1789 1673 1787 1901
8 1792 1676 1791 1906 1903 1788 1902 2016
8 1907 1792 1903 2017 1795 1678 1789 1904
8 1906 1791 1677 1794 2019 1905 1793 1909
8 1907 1792 1678 1795 2020 1906 1794 1910
8 1797 1679 1796 1912 1909 1793 1908 2022
8 1798 1680 1797 1913 1910 1794 1909 2023
8 1800 1682 1799 1915 1912 1796 1911 2025
8 1801 1683 1800 1916 1913 1797 1912 2026
8 1803 1687 1804 1918 1915 1799 1914 2028
8 1802 1686 1803 1917 1916 1800 1915 2029
8 1805 1689 1806 1920 1917 1803 1918 2030
8 1806 1690 1807 1921 1918 1804 1919 2031
8 1808 1692 1809 1922 1920 1806 1921 2032
8 1939 1826 1924 2037 1829 1713 1811 1926
8 1926 1811 1925 2039 1813 1697 1812 1928
8 1944 1829 1926 2040 1828 1712 1813 1929
8 1928 1812 1927 2042 1815 1698 1814 1931
8 1929 1813 1928 2043 1816 1699 1815 1932
8 1931 1814 1930 2044 1818 1700 1817 1933
8 1932 1815 1931 2045 1819 1701 1818 1934
8 1934 1818 1933 2046 1821 1704 1820 1935
8 2048 1936 1823 1937 1977 1864 1750 1865
8 1950 1833 1715 1834 2048 1936 1823 1937
8 1938 1824 1751 1866 2049 1937 1865 1978
8 1835 1716 1824 1938 1951 1834 1937 2049
8 1939 1826 1713 1829 2053 1942 1831 1946
8 1940 1827 1923 2035 2053 1942 1826 1939
8 1945 1830 1946 2058 1828 1712 1829 1944
8 2059 1947 1830 1945 1966 1849 1733 1851
8 1947 1832 1730 1849 2060 1948 1848 1965
8 1947 1832 1948 2060 1830 1714 1831 1946
8 1959 1847 1729 1843 2063 1949 1833 1950
8 1952 1843 1725 1836 2064 1950 1834 1951
8 1836 1725 1843 1952 1953 1842 1958 2066
8 1953 1842 1957 2067 1839 1724 1841 1955
8 1841 1955 1838 1723 1956 2068 1954 1840
8 2068 1956 1859 1967 1954 1840 1743 1852
8 1956 1844 1960 2069 1859 1747 1862 1973
8 1845 1957 1841 1727 1960 2069 1956 1844
8 1728 1842 1957 1845 1846 1958 2071 1961
8 1962 2072 1959 1847 1846 1958 1843 1729
8 1971 1861 1964 2077 1857 1746 1848 1965
8 1854 1741 1857 1969 1966 1849 1965 2078
8 1967 1859 1973 2079 1853 1745 1860 1968
8 1970 1858 1744 1856 2080 1972 1860 1968
8 1969 1857 1742 1855 2081 1971 1858 1970
8 1971 1861 1749 1858 2082 1974 1863 1972
8 1973 1862 1975 2083 1860 1748 1863 1972
8 1987 1882 1976 2086 1875 1768 1864 1977
8 1981 1875 1977 2087 1869 1761 1865 1978
8 1980 1877 1763 1868 2088 1986 1874 1979
8 1887 1775 1888 1997 1979 1874 1986 2088
8 1880 1982 2089 1989 1766 1870 1980 1877
8 1984 1876 1987 2090 1872 1762 1875 1981
8 1765 1871 1983 1879 1880 1982 2091 1991
8 1985 1878 1764 1873 2092 1990 1879 1983
8 1985 1878 1988 2093 1873 1764 1876 1984
8 2094 1992 1881 1986 1998 1889 1776 1888
8 1986 1881 1992 2094 1877 1773 1886 1989
8 1988 1883 1993 2095 1876 1769 1882 1987
8 1878 1770 1884 1990 1988 1883 1994 2096
8 1991 1885 1772 1880 2097 1996 1886 1989
8 1879 1771 1885 1991 1990 1884 1995 2098
8 2103 1998 1888 1997 2000 1891 1779 1890
8 2104 1999 1889 1998 2001 1892 1780 1891
8 2003 1894 2001 2106 1893 1782 1891 2000
8 2004 1895 2002 2107 1894 1783 1892 2001
8 2006 1897 2004 2109 1896 1785 1894 2003
8 2007 1898 2005 2110 1897 1786 1895 2004
8 2014 1901 2007 2112 1904 1789 1897 2006
8 2011 1899 2008 2113 1901 1787 1898 2007
8 2119 2010 1899 2011 2013 1900 1787 1901
8 2016 1902 2012 2122 1903 1788 1900 2013
8 2017 1903 2013 2123 1904 1789 1901 2014
8 1906 1791 1905 2019 2016 1902 2015 2125
8 1907 1792 1906 2020 2017 1903 2016 2126
8 1909 1793 1908 2022 2019 1905 2018 2128
8 2020 1906 1794 1910 2129 2019 1909 2023
8 1912 1796 1911 2025 2022 1908 2021 2131
8 1913 1797 1912 2026 2023 1909 2022 2132
8 1915 1799 1914 2028 2025 1911 2024 2134
8 1916 1800 1915 2029 2026 1912 2025 2135
8 1918 1804 1919 2031 2028 1914 2027 2136
8 1917 1803 1918 2030 2029 1915 2028 2137
8 1920 1806 1921 2032 2030 1918 2031 2138
8 1940 1827 1941 2054 2035 1923 2033 2140
8 2035 1923 2034 2143 1939 1826 1924 2037
8 2037 1924 2036 2146 1926 1811 1925 2039
8 2051 1939 2037 2147 1944 1829 1926 2040
8 2039 1925 2038 2149 1928 1812 1927 2042
8 2040 1926 2039 2150 1929 1813 1928 2043
8 2042 1927 2041 2151 1931 1814 1930 2044
8 2043 1928 2042 2152 1932 1815 1931 2045
8 2045 1931 2044 2153 1934 1818 1933 2046
8 2155 2047 1936 2048 2086 1976 1864 1977
8 2063 1949 1833 1950 2155 2047 1936 2048
8 2156 2048 1937 2049 2087 1977 1865 1978
8 2064 1950 1834 1951 2156 2048 1937 2049
8 2051 1939 1829 1944 2160 2053 1946 2058
8 2052 1940 2035 2144 2160 2053 1939 2051
8 2053 1942 1831 1946 2163 2057 1948 2060
8 2055 1943 1827 1940 2163 2057 1942 2053
8 2055 1943 2056 2164 1940 1827 1941 2054
8 2059 1947 1849 1966 2167 2060 1965 2078
8 2059 1947 2060 2167 1945 1830 1946 2058
8 2077 1964 2061 2168 1965 1848 1948 2060
8 2070 1963 1847 1959 2170 2062 1949 2063
8 2065 1959 1843 1952 2171 2063 1950 2064
8 2173 2072 1958 2066 2065 1959 1843 1952
8 1953 1842 1958 2066 2067 1957 2071 2174
8 2068 1956 2069 2175 1967 1859 1973 2079
8 2067 1957 2069 2175 1955 1841 1956 2068
8 1845 1957 2069 1960 1961 2071 2176 2073
8 2069 1960 2073 2176 1973 1862 1975 2083
8 2070 1963 2075 2177 1959 1847 1962 2072
8 1846 1958 2071 1961 1962 2072 2178 2074
8 2077 1964 1861 1971 2182 2076 1974 2082
8 2081 1971 2077 2183 1969 1857 1965 2078
8 2079 1973 2083 2184 1968 1860 1972 2080
8 2081 1971 1858 1970 2185 2082 1972 2080
8 2083 1975 2084 2186 1972 1863 1974 2082
8 2086 1976 1882 1987 2189 2085 1993 2095
8 2090 1987 2086 2190 1981 1875 1977 2087
8 2191 2094 1986 2088 2103 1998 1888 1997
8 2088 1986 2094 2191 1980 1877 1989 2089
8 1991 2091 2192 2097 1880 1982 2089 1989
8 2093 1988 2095 2193 1984 1876 1987 2090
8 1879 1983 2092 1990 1991 2091 2194 2098
8 1985 1878 1990 2092 2093 1988 2096 2195
8 2097 1996 1886 1989 2196 2099 1992 2094
8 2196 2099 1992 2094 2104 1999 1889 1998
8 1994 2096 1988 1883 2100 2197 2095 1993
8 2096 1994 1884 1990 2198 2101 1995 2098
8 1995 2098 2199 2102 1885 1991 2097 1996
8 2203 2104 1998 2103 2106 2001 1891 2000
8 2107 2002 2105 2204 2001 1892 1999 2104
8 2109 2004 2107 2206 2003 1894 2001 2106
8 2110 2005 2108 2207 2004 1895 2002 2107
8 2112 2007 2110 2209 2006 1897 2004 2109
8 2113 2008 2111 2210 2007 1898 2005 2110
8 2120 2011 2113 2212 2014 1901 2007 2112
8 2117 2009 2114 2213 2011 1899 2008 2113
8 2219 2116 2009 2117 2119 2010 1899 2011
8 2222 2118 2010 2119 2122 2012 1900 2013
8 2223 2119 2011 2120 2123 2013 1901 2014
8 2016 1902 2015 2125 2122 2012 2121 2225
8 2126 2016 2122 2226 2017 1903 2013 2123
8 2019 1905 2018 2128 2125 2015 2124 2228
8 2020 1906 2019 2129 2126 2016 2125 2229
8 2022 1908 2021 2131 2128 2018 2127 2231
8 2023 1909 2022 2132 2129 2019 2128 2232
8 2025 1911 2024 2134 2131 2021 2130 2234
8 2026 1912 2025 2135 2132 2022 2131 2235
8 1914 2028 2134 2024 2027 2136 2236 2133
8 2029 1915 2028 2137 2135 2025 2134 2237
8 2030 1918 2031 2138 2137 2028 2136 2238
8 2157 2050 2139 2240 2054 1941 2033 2140
8 2052 1940 2054 2161 2144 2035 2140 2242
8 2140 2033 2141 2243 2035 1923 2034 2143
8 2143 2034 2142 2246 2037 1924 2036 2146
8 2144 2035 2143 2247 2051 1939 2037 2147
8 2146 2036 2145 2249 2039 1925 2038 2149
8 2147 2037 2146 2250 2040 1926 2039 2150
8 2149 2038 2148 2251 2042 1927 2041 2151
8 2150 2039 2149 2252 2043 1928 2042 2152
8 2152 2042 2151 2253 2045 1931 2044 2153
8 2255 2154 2047 2155 2189 2085 1976 2086
8 2170 2062 1949 2063 2255 2154 2047 2155
8 2256 2155 2048 2156 2190 2086 1977 2087
8 2171 2063 1950 2064 2256 2155 2048 2156
8 2258 2159 2050 2157 2164 2056 1941 2054
8 2160 2053 1946 2058 2262 2163 2060 2167
8 2162 2055 1940 2052 2262 2163 2053 2160
8 2162 2055 2164 2263 2052 1940 2054 2161
8 2163 2057 1948 2060 2264 2165 2061 2168
8 2055 1943 2057 2163 2164 2056 2165 2264
8 2182 2076 2166 2268 2077 1964 2061 2168
8 2183 2077 2168 2269 2078 1965 2060 2167
8 2070 1963 2062 2170 2177 2075 2169 2271
8 2172 2070 1959 2065 2272 2170 2063 2171
8 2172 2070 2177 2273 2065 1959 2072 2173
8 2066 1958 2072 2173 2174 2071 2178 2274
8 2067 1957 2071 2174 2175 2069 2176 2275
8 2175 2069 2176 2275 2079 1973 2083 2184
8 2071 1961 2074 2178 2176 2073 2179 2276
8 2176 2073 2179 2276 2083 1975 2084 2186
8 2072 1962 2075 2177 2178 2074 2180 2277
8 2182 2076 1974 2082 2280 2181 2084 2186
8 2183 2077 1971 2081 2281 2182 2082 2185
8 2184 2083 2186 2282 2080 1972 2082 2185
8 2189 2085 1993 2095 2285 2188 2100 2197
8 2190 2086 1987 2090 2286 2189 2095 2193
8 2192 2097 1989 2089 2287 2196 2094 2191
8 2287 2196 2094 2191 2203 2104 1998 2103
8 2194 2098 1991 2091 2288 2199 2097 2192
8 2195 2096 2197 2289 2093 1988 2095 2193
8 2096 2195 2290 2198 1990 2092 2194 2098
8 2097 1996 2099 2196 2199 2102 2200 2291
8 2196 2099 1999 2104 2291 2200 2105 2204
8 2100 2197 2292 2201 1994 2096 2198 2101
8 1995 2098 2198 2101 2102 2199 2293 2202
8 2206 2107 2204 2296 2106 2001 2104 2203
8 2207 2108 2205 2297 2107 2002 2105 2204
8 2209 2110 2207 2299 2109 2004 2107 2206
8 2210 2111 2208 2300 2110 2005 2108 2207
8 2212 2113 2210 2302 2112 2007 2110 2209
8 2213 2114 2211 2303 2113 2008 2111 2210
8 2220 2117 2213 2305 2120 2011 2113 2212
8 2216 2115 2214 2306 2117 2009 2114 2213
8 2216 2115 2009 2117 2311 2217 2116 2219
8 2219 2116 2010 2119 2314 2218 2118 2222
8 2315 2219 2117 2220 2223 2119 2011 2120
8 2122 2012 2121 2225 2222 2118 2221 2317
8 2318 2222 2119 2223 2226 2122 2013 2123
8 2125 2015 2124 2228 2225 2121 2224 2320
8 2126 2016 2125 2229 2226 2122 2225 2321
8 2128 2018 2127 2231 2228 2124 2227 2323
8 2129 2019 2128 2232 2229 2125 2228 2324
8 2131 2021 2130 2234 2231 2127 2230 2326
8 2132 2022 2131 2235 2232 2128 2231 2327
8 2134 2024 2133 2236 2234 2130 2233 2328
8 2135 2025 2134 2237 2235 2131 2234 2329
8 2137 2028 2136 2238 2237 2134 2236 2330
8 2157 2050 2158 2259 2240 2139 2239 2332
8 2257 2157 2240 2334 2161 2054 2140 2242
8 2240 2139 2241 2335 2140 2033 2141 2243
8 2242 2140 2243 2337 2144 2035 2143 2247
8 2243 2141 2244 2338 2143 2034 2142 2246
8 2246 2142 2245 2341 2146 2036 2145 2249
8 2247 2143 2246 2342 2147 2037 2146 2250
8 2249 2145 2248 2343 2149 2038 2148 2251
8 2250 2146 2249 2344 2150 2039 2149 2252
8 2252 2149 2251 2345 2152 2042 2151 2253
8 2169 2271 2347 2254 2062 2170 2255 2154
8 2189 2085 2188 2285 2255 2154 2254 2347
8 2348 2255 2155 2256 2286 2189 2086 2190
8 2272 2170 2063 2171 2348 2255 2155 2256
8 2349 2258 2157 2257 2263 2164 2054 2161
8 2258 2159 2261 2351 2157 2050 2158 2259
8 2258 2159 2056 2164 2351 2261 2165 2264
8 2262 2163 2060 2167 2355 2264 2168 2269
8 2162 2055 2163 2262 2263 2164 2264 2355
8 2357 2266 2165 2264 2268 2166 2061 2168
8 2268 2166 2076 2182 2361 2267 2181 2280
8 2281 2182 2268 2362 2183 2077 2168 2269
8 2271 2169 2270 2364 2177 2075 2180 2277
8 2172 2070 2170 2272 2273 2177 2271 2365
8 2072 2173 2274 2178 2177 2273 2366 2277
8 2071 2174 2275 2176 2178 2274 2367 2276
8 2275 2176 2276 2367 2184 2083 2186 2282
8 2283 2187 2084 2186 2368 2278 2179 2276
8 2178 2074 2180 2277 2276 2179 2278 2368
8 2283 2187 2279 2370 2186 2084 2181 2280
8 2281 2182 2082 2185 2371 2280 2186 2282
8 2188 2285 2374 2284 2100 2197 2292 2201
8 2286 2189 2095 2193 2375 2285 2197 2289
8 2192 2097 2196 2287 2288 2199 2291 2376
8 2287 2196 2104 2203 2376 2291 2204 2296
8 2194 2098 2199 2288 2290 2198 2293 2377
8 2289 2197 2096 2195 2378 2292 2198 2290
8 2291 2200 2105 2204 2379 2294 2205 2297
8 2199 2102 2200 2291 2293 2202 2294 2379
8 2198 2101 2202 2293 2292 2201 2295 2380
8 2299 2207 2297 2383 2206 2107 2204 2296
8 2300 2208 2298 2384 2207 2108 2205 2297
8 2302 2210 2300 2386 2209 2110 2207 2299
8 2303 2211 2301 2387 2210 2111 2208 2300
8 2305 2213 2303 2389 2212 2113 2210 2302
8 2306 2214 2304 2390 2213 2114 2211 2303
8 2310 2216 2306 2392 2220 2117 2213 2305
8 2308 2215 2307 2393 2216 2115 2214 2306
8 2308 2215 2115 2216 2396 2309 2217 2311
8 2310 2216 2117 2220 2398 2311 2219 2315
8 2311 2217 2116 2219 2399 2312 2218 2314
8 2314 2218 2118 2222 2402 2313 2221 2317
8 2315 2219 2119 2223 2403 2314 2222 2318
8 2225 2121 2224 2320 2317 2221 2316 2405
8 2226 2122 2225 2321 2318 2222 2317 2406
8 2228 2124 2227 2323 2320 2224 2319 2408
8 2229 2125 2228 2324 2321 2225 2320 2409
8 2231 2127 2230 2326 2323 2227 2322 2411
8 2232 2128 2231 2327 2324 2228 2323 2412
8 2234 2130 2233 2328 2326 2230 2325 2413
8 2235 2131 2234 2329 2327 2231 2326 2414
8 2237 2134 2236 2330 2329 2234 2328 2415
8 2259 2158 2260 2352 2332 2239 2331 2417
8 2257 2157 2259 2350 2334 2240 2332 2419
8 2240 2139 2239 2332 2335 2241 2333 2420
8 2334 2240 2335 2422 2242 2140 2243 2337
8 2335 2241 2336 2423 2243 2141 2244 2338
8 2337 2243 2338 2425 2247 2143 2246 2342
8 2338 2244 2339 2426 2246 2142 2245 2341
8 2341 2245 2340 2428 2249 2145 2248 2343
8 2342 2246 2341 2429 2250 2146 2249 2344
8 2344 2249 2343 2430 2252 2149 2251 2345
8 2188 2285 2347 2254 2284 2374 2432 2346
8 2347 2254 2346 2432 2271 2169 2270 2364
8 2365 2271 2170 2272 2433 2347 2255 2348
8 2286 2189 2285 2375 2348 2255 2347 2433
8 2349 2258 2351 2435 2257 2157 2259 2350
8 2349 2258 2164 2263 2435 2351 2264 2355
8 2259 2158 2261 2351 2352 2260 2354 2437
8 2356 2265 2354 2437 2264 2165 2261 2351
8 2441 2357 2264 2355 2362 2268 2168 2269
8 2356 2265 2165 2264 2442 2358 2266 2357
8 2443 2359 2266 2357 2361 2267 2166 2268
8 2370 2279 2360 2446 2280 2181 2267 2361
8 2362 2268 2182 2281 2447 2361 2280 2371
8 2180 2277 2368 2278 2270 2364 2449 2363
8 2271 2365 2273 2177 2364 2450 2366 2277
8 2372 2283 2186 2282 2451 2368 2276 2367
8 2178 2274 2367 2276 2277 2366 2451 2368
8 2283 2187 2278 2368 2370 2279 2369 2452
8 2372 2283 2370 2453 2282 2186 2280 2371
8 2284 2374 2455 2373 2201 2292 2380 2295
8 2375 2285 2197 2289 2456 2374 2292 2378
8 2376 2291 2204 2296 2457 2379 2297 2383
8 2288 2199 2291 2376 2377 2293 2379 2457
8 2198 2290 2378 2292 2293 2377 2458 2380
8 2293 2202 2294 2379 2380 2295 2381 2459
8 2384 2298 2381 2459 2297 2205 2294 2379
8 2386 2300 2384 2463 2299 2207 2297 2383
8 2387 2301 2385 2464 2300 2208 2298 2384
8 2389 2303 2387 2466 2302 2210 2300 2386
8 2390 2304 2388 2467 2303 2211 2301 2387
8 2392 2306 2390 2469 2305 2213 2303 2389
8 2393 2307 2391 2470 2306 2214 2304 2390
8 2395 2308 2393 2472 2310 2216 2306 2392
8 2308 2215 2309 2396 2393 2307 2394 2473
8 2395 2308 2216 2310 2475 2396 2311 2398
8 2396 2309 2217 2311 2476 2397 2312 2399
8 2398 2311 2219 2315 2478 2399 2314 2403
8 2399 2312 2218 2314 2479 2400 2313 2402
8 2317 2221 2316 2405 2402 2313 2401 2482
8 2403 2314 2222 2318 2483 2402 2317 2406
8 2320 2224 2319 2408 2405 2316 2404 2485
8 2321 2225 2320 2409 2406 2317 2405 2486
8 2323 2227 2322 2411 2408 2319 2407 2488
8 2324 2228 2323 2412 2409 2320 2408 2489
8 2326 2230 2325 2413 2411 2322 2410 2490
8 2327 2231 2326 2414 2412 2323 2411 2491
8 2329 2234 2328 2415 2414 2326 2413 2492
8 2417 2331 2260 2352 2494 2416 2353 2438
8 2350 2259 2352 2436 2419 2332 2417 2496
8 2332 2239 2331 2417 2420 2333 2418 2497
8 2334 2240 2332 2419 2422 2335 2420 2499
8 2420 2333 2421 2500 2335 2241 2336 2423
8 2422 2335 2423 2502 2337 2243 2338 2425
8 2423 2336 2424 2503 2338 2244 2339 2426
8 2425 2338 2426 2505 2342 2246 2341 2429
8 2426 2339 2427 2506 2341 2245 2340 2428
8 2429 2341 2428 2507 2344 2249 2343 2430
8 2432 2346 2284 2374 2509 2431 2373 2455
8 2432 2346 2431 2509 2364 2270 2363 2449
8 2375 2285 2374 2456 2433 2347 2432 2510
8 2347 2433 2365 2271 2432 2510 2450 2364
8 2350 2259 2351 2435 2436 2352 2437 2514
8 2440 2356 2437 2514 2355 2264 2351 2435
8 2352 2260 2354 2437 2438 2353 2439 2516
8 2356 2265 2358 2442 2437 2354 2439 2516
8 2440 2356 2264 2355 2518 2442 2357 2441
8 2519 2443 2357 2441 2447 2361 2268 2362
8 2443 2359 2444 2520 2357 2266 2358 2442
8 2443 2359 2267 2361 2520 2444 2360 2446
8 2446 2360 2279 2370 2523 2445 2369 2452
8 2453 2370 2446 2524 2371 2280 2361 2447
8 2449 2363 2448 2525 2368 2278 2369 2452
8 2366 2277 2364 2450 2451 2368 2449 2526
8 2372 2283 2368 2451 2453 2370 2452 2527
8 2455 2373 2295 2380 2529 2454 2382 2460
8 2456 2374 2292 2378 2530 2455 2380 2458
8 2377 2293 2379 2457 2458 2380 2459 2531
8 2463 2384 2459 2531 2383 2297 2379 2457
8 2533 2461 2382 2460 2459 2381 2295 2380
8 2464 2385 2461 2533 2384 2298 2381 2459
8 2466 2387 2464 2537 2386 2300 2384 2463
8 2467 2388 2465 2538 2387 2301 2385 2464
8 2469 2390 2467 2540 2389 2303 2387 2466
8 2470 2391 2468 2541 2390 2304 2388 2467
8 2472 2393 2470 2543 2392 2306 2390 2469
8 2393 2307 2394 2473 2470 2391 2471 2544
8 2395 2308 2396 2475 2472 2393 2473 2546
8 2396 2309 2397 2476 2473 2394 2474 2547
8 2475 2396 2311 2398 2549 2476 2399 2478
8 2476 2397 2312 2399 2550 2477 2400 2479
8 2478 2399 2314 2403 2552 2479 2402 2483
8 2479 2400 2313 2402 2553 2480 2401 2482
8 2405 2316 2404 2485 2482 2401 2481 2556
8 2406 2317 2405 2486 2483 2402 2482 2557
8 2408 2319 2407 2488 2485 2404 2484 2559
8 2409 2320 2408 2489 2486 2405 2485 2560
8 2411 2322 2410 2490 2488 2407 2487 2561
8 2412 2323 2411 2491 2489 2408 2488 2562
8 2414 2326 2413 2492 2491 2411 2490 2563
8 2513 2434 2493 2565 2438 2353 2416 2494
8 2496 2417 2352 2436 2567 2494 2438 2515
8 2494 2416 2495 2568 2417 2331 2418 2497
8 2419 2332 2417 2496 2499 2420 2497 2570
8 2497 2418 2498 2571 2420 2333 2421 2500
8 2499 2420 2500 2573 2422 2335 2423 2502
8 2500 2421 2501 2574 2423 2336 2424 2503
8 2502 2423 2503 2576 2425 2338 2426 2505
8 2503 2424 2504 2577 2426 2339 2427 2506
8 2505 2426 2506 2578 2429 2341 2428 2507
8 2509 2431 2373 2455 2580 2508 2454 2529
8 2509 2431 2508 2580 2449 2363 2448 2525
8 2432 2510 2581 2509 2374 2456 2530 2455
8 2432 2510 2450 2364 2509 2581 2526 2449
8 2583 2511 2434 2513 2516 2439 2353 2438
8 2436 2352 2437 2514 2515 2438 2516 2588
8 2440 2356 2442 2518 2514 2437 2516 2588
8 2442 2358 2444 2520 2516 2439 2517 2589
8 2519 2443 2520 2591 2441 2357 2442 2518
8 2519 2443 2361 2447 2591 2520 2446 2524
8 2446 2360 2445 2523 2520 2444 2521 2592
8 2525 2448 2522 2593 2452 2369 2445 2523
8 2524 2446 2370 2453 2594 2523 2452 2527
8 2526 2449 2525 2595 2451 2368 2452 2527
8 2534 2462 2528 2597 2460 2382 2454 2529
8 2530 2455 2380 2458 2598 2529 2460 2532
8 2599 2533 2460 2532 2531 2459 2380 2458
8 2537 2464 2533 2599 2463 2384 2459 2531
8 2534 2462 2382 2460 2601 2535 2461 2533
8 2538 2465 2535 2601 2464 2385 2461 2533
8 2540 2467 2538 2604 2466 2387 2464 2537
8 2541 2468 2539 2605 2467 2388 2465 2538
8 2543 2470 2541 2607 2469 2390 2467 2540
8 2470 2391 2471 2544 2541 2468 2542 2608
8 2472 2393 2473 2546 2543 2470 2544 2610
8 2473 2394 2474 2547 2544 2471 2545 2611
8 2475 2396 2476 2549 2546 2473 2547 2613
8 2476 2397 2477 2550 2547 2474 2548 2614
8 2549 2476 2399 2478 2616 2550 2479 2552
8 2479 2400 2480 2553 2550 2477 2551 2617
8 2552 2479 2402 2483 2619 2553 2482 2557
8 2482 2401 2481 2556 2553 2480 2554 2620
8 2485 2404 2484 2559 2556 2481 2555 2623
8 2486 2405 2485 2560 2557 2482 2556 2624
8 2488 2407 2487 2561 2559 2484 2558 2625
8 2489 2408 2488 2562 2560 2485 2559 2626
8 2491 2411 2490 2563 2562 2488 2561 2627
8 2513 2434 2512 2585 2565 2493 2564 2630
8 2586 2513 2565 2632 2515 2438 2494 2567
8 2565 2493 2566 2633 2494 2416 2495 2568
8 2567 2494 2568 2635 2496 2417 2497 2570
8 2568 2495 2569 2636 2497 2418 2498 2571
8 2570 2497 2571 2638 2499 2420 2500 2573
8 2571 2498 2572 2639 2500 2421 2501 2574
8 2573 2500 2574 2641 2502 2423 2503 2576
8 2574 2501 2575 2642 2503 2424 2504 2577
8 2576 2503 2577 2643 2505 2426 2506 2578
8 2597 2528 2579 2645 2529 2454 2508 2580
8 2580 2508 2579 2645 2525 2448 2522 2593
8 2581 2509 2455 2530 2646 2580 2529 2598
8 2581 2509 2580 2646 2526 2449 2525 2595
8 2583 2511 2582 2648 2513 2434 2512 2585
8 2583 2511 2439 2516 2648 2582 2517 2589
8 2649 2583 2513 2586 2588 2516 2438 2515
8 2589 2517 2444 2520 2653 2587 2521 2592
8 2518 2442 2520 2591 2588 2516 2589 2654
8 2593 2522 2590 2655 2523 2445 2521 2592
8 2524 2446 2523 2594 2591 2520 2592 2656
8 2595 2525 2593 2657 2527 2452 2523 2594
8 2602 2536 2596 2659 2534 2462 2528 2597
8 2600 2534 2597 2660 2532 2460 2529 2598
8 2600 2534 2460 2532 2661 2601 2533 2599
8 2604 2538 2601 2661 2537 2464 2533 2599
8 2602 2536 2462 2534 2663 2603 2535 2601
8 2601 2535 2465 2538 2663 2603 2539 2605
8 2607 2541 2605 2665 2540 2467 2538 2604
8 2608 2542 2606 2666 2541 2468 2539 2605
8 2543 2470 2544 2610 2607 2541 2608 2668
8 2544 2471 2545 2611 2608 2542 2609 2669
8 2546 2473 2547 2613 2610 2544 2611 2671
8 2547 2474 2548 2614 2611 2545 2612 2672
8 2549 2476 2550 2616 2613 2547 2614 2674
8 2550 2477 2551 2617 2614 2548 2615 2675
8 2552 2479 2553 2619 2616 2550 2617 2677
8 2553 2480 2554 2620 2617 2551 2618 2678
8 2557 2482 2556 2624 2619 2553 2620 2680
8 2556 2481 2555 2623 2620 2554 2621 2681
8 2559 2484 2558 2625 2623 2555 2622 2683
8 2560 2485 2559 2626 2624 2556 2623 2684
8 2562 2488 2561 2627 2626 2559 2625 2685
8 2690 2629 2564 2630 2650 2584 2512 2585
8 2586 2513 2585 2651 2632 2565 2630 2691
8 2630 2564 2631 2692 2565 2493 2566 2633
8 2632 2565 2633 2694 2567 2494 2568 2635
8 2633 2566 2634 2695 2568 2495 2569 2636
8 2635 2568 2636 2697 2570 2497 2571 2638
8 2636 2569 2637 2698 2571 2498 2572 2639
8 2638 2571 2639 2700 2573 2500 2574 2641
8 2639 2572 2640 2701 2574 2501 2575 2642
8 2641 2574 2642 2702 2576 2503 2577 2643
8 2597 2528 2596 2659 2645 2579 2644 2704
8 2645 2579 2644 2704 2593 2522 2590 2655
8 2660 2597 2645 2705 2598 2529 2580 2646
8 2646 2580 2645 2705 2595 2525 2593 2657
8 2650 2584 2512 2585 2707 2647 2582 2648
8 2648 2582 2517 2589 2707 2647 2587 2653
8 2649 2583 2648 2708 2586 2513 2585 2651
8 2649 2583 2516 2588 2708 2648 2589 2654
8 2655 2590 2652 2710 2592 2521 2587 2653
8 2654 2589 2520 2591 2711 2653 2592 2656
8 2657 2593 2655 2712 2594 2523 2592 2656
8 2602 2536 2603 2663 2659 2596 2658 2714
8 2662 2602 2659 2715 2600 2534 2597 2660
8 2662 2602 2534 2600 2717 2663 2601 2661
8 2661 2601 2538 2604 2717 2663 2605 2665
8 2666 2606 2664 2718 2605 2539 2603 2663
8 2668 2608 2666 2720 2607 2541 2605 2665
8 2608 2542 2609 2669 2666 2606 2667 2721
8 2610 2544 2611 2671 2668 2608 2669 2723
8 2611 2545 2612 2672 2669 2609 2670 2724
8 2613 2547 2614 2674 2671 2611 2672 2726
8 2614 2548 2615 2675 2672 2612 2673 2727
8 2616 2550 2617 2677 2674 2614 2675 2729
8 2617 2551 2618 2678 2675 2615 2676 2730
8 2619 2553 2620 2680 2677 2617 2678 2732
8 2620 2554 2621 2681 2678 2618 2679 2733
8 2624 2556 2623 2684 2680 2620 2681 2735
8 2681 2621 2555 2623 2736 2682 2622 2683
8 2626 2559 2625 2685 2684 2623 2683 2737
8 2688 2628 2584 2650 2740 2686 2647 2707
8 2688 2628 2687 2742 2650 2584 2629 2690
8 2690 2629 2689 2745 2630 2564 2631 2692
8 2746 2690 2630 2691 2709 2650 2585 2651
8 2691 2630 2692 2747 2632 2565 2633 2694
8 2692 2631 2693 2748 2633 2566 2634 2695
8 2694 2633 2695 2750 2635 2568 2636 2697
8 2695 2634 2696 2751 2636 2569 2637 2698
8 2697 2636 2698 2753 2638 2571 2639 2700
8 2698 2637 2699 2754 2639 2572 2640 2701
8 2700 2639 2701 2755 2641 2574 2642 2702
8 2659 2596 2658 2714 2704 2644 2703 2757
8 2704 2644 2703 2757 2655 2590 2652 2710
8 2660 2597 2659 2715 2705 2645 2704 2758
8 2705 2645 2704 2758 2657 2593 2655 2712
8 2759 2706 2647 2707 2710 2652 2587 2653
8 2709 2650 2585 2651 2760 2707 2648 2708
8 2708 2648 2589 2654 2760 2707 2653 2711
8 2712 2655 2710 2761 2656 2592 2653 2711
8 2763 2713 2658 2714 2718 2664 2603 2663
8 2662 2602 2663 2717 2715 2659 2714 2764
8 2720 2666 2718 2767 2665 2605 2663 2717
8 2768 2719 2664 2718 2721 2667 2606 2666
8 2668 2608 2669 2723 2720 2666 2721 2770
8 2669 2609 2670 2724 2721 2667 2722 2771
8 2671 2611 2672 2726 2723 2669 2724 2773
8 2672 2612 2673 2727 2724 2670 2725 2774
8 2674 2614 2675 2729 2726 2672 2727 2776
8 2675 2615 2676 2730 2727 2673 2728 2777
8 2677 2617 2678 2732 2729 2675 2730 2779
8 2678 2618 2679 2733 2730 2676 2731 2780
8 2680 2620 2681 2735 2732 2678 2733 2782
8 2733 2679 2621 2681 2783 2734 2682 2736
8 2735 2681 2623 2684 2784 2736 2683 2737
8 2740 2686 2647 2707 2787 2738 2706 2759
8 2688 2628 2686 2740 2742 2687 2739 2789
8 2743 2688 2650 2709 2790 2740 2707 2760
8 2742 2687 2741 2792 2690 2629 2689 2745
8 2743 2688 2742 2793 2709 2650 2690 2746
8 2745 2689 2744 2795 2692 2631 2693 2748
8 2746 2690 2745 2796 2691 2630 2692 2747
8 2747 2692 2748 2797 2694 2633 2695 2750
8 2748 2693 2749 2798 2695 2634 2696 2751
8 2750 2695 2751 2800 2697 2636 2698 2753
8 2751 2696 2752 2801 2698 2637 2699 2754
8 2753 2698 2754 2802 2700 2639 2701 2755
8 2763 2713 2756 2804 2714 2658 2703 2757
8 2759 2706 2652 2710 2804 2756 2703 2757
8 2715 2659 2714 2764 2758 2704 2757 2805
8 2758 2704 2757 2805 2712 2655 2710 2761
8 2806 2759 2707 2760 2761 2710 2653 2711
8 2765 2716 2762 2808 2718 2664 2713 2763
8 2809 2763 2714 2764 2767 2718 2663 2717
8 2765 2716 2664 2718 2811 2766 2719 2768
8 2813 2768 2718 2767 2770 2721 2666 2720
8 2814 2769 2719 2768 2771 2722 2667 2721
8 2723 2669 2724 2773 2770 2721 2771 2816
8 2724 2670 2725 2774 2771 2722 2772 2817
8 2726 2672 2727 2776 2773 2724 2774 2819
8 2727 2673 2728 2777 2774 2725 2775 2820
8 2729 2675 2730 2779 2776 2727 2777 2822
8 2730 2676 2731 2780 2777 2728 2778 2823
8 2732 2678 2733 2782 2779 2730 2780 2825
8 2780 2731 2679 2733 2826 2781 2734 2783
8 2782 2733 2681 2735 2827 2783 2736 2784
8 2830 2785 2738 2787 2804 2756 2706 2759
8 2789 2739 2686 2740 2832 2786 2738 2787
8 2790 2740 2707 2760 2833 2787 2759 2806
8 2742 2687 2739 2789 2792 2741 2788 2835
8 2743 2688 2740 2790 2793 2742 2789 2836
8 2792 2741 2791 2838 2745 2689 2744 2795
8 2793 2742 2792 2839 2746 2690 2745 2796
8 2795 2744 2794 2841 2748 2693 2749 2798
8 2796 2745 2795 2842 2747 2692 2748 2797
8 2797 2748 2798 2843 2750 2695 2751 2800
8 2798 2749 2799 2844 2751 2696 2752 2801
8 2800 2751 2801 2845 2753 2698 2754 2802
8 2808 2762 2803 2847 2763 2713 2756 2804
8 2809 2763 2804 2848 2764 2714 2757 2805
8 2806 2759 2710 2761 2848 2804 2757 2805
8 2765 2716 2766 2811 2808 2762 2807 2850
8 2810 2765 2808 2851 2767 2718 2763 2809
8 2810 2765 2718 2767 2852 2811 2768 2813
8 2811 2766 2719 2768 2853 2812 2769 2814
8 2855 2814 2768 2813 2816 2771 2721 2770
8 2856 2815 2769 2814 2817 2772 2722 2771
8 2773 2724 2774 2819 2816 2771 2817 2858
8 2774 2725 2775 2820 2817 2772 2818 2859
8 2776 2727 2777 2822 2819 2774 2820 2861
8 2777 2728 2778 2823 2820 2775 2821 2862
8 2779 2730 2780 2825 2822 2777 2823 2864
8 2823 2778 2731 2780 2865 2824 2781 2826
8 2825 2780 2733 2782 2866 2826 2783 2827
8 2869 2828 2785 2830 2847 2803 2756 2804
8 2871 2829 2786 2832 2830 2785 2738 2787
8 2872 2830 2787 2833 2848 2804 2759 2806
8 2789 2739 2786 2832 2835 2788 2831 2874
8 2836 2789 2740 2790 2875 2832 2787 2833
8 2792 2741 2788 2835 2838 2791 2834 2877
8 2793 2742 2789 2836 2839 2792 2835 2878
8 2838 2791 2837 2880 2795 2744 2794 2841
8 2839 2792 2838 2881 2796 2745 2795 2842
8 2841 2794 2840 2882 2798 2749 2799 2844
8 2842 2795 2841 2883 2797 2748 2798 2843
8 2843 2798 2844 2884 2800 2751 2801 2845
8 2886 2846 2803 2847 2850 2807 2762 2808
8 2851 2808 2847 2887 2809 2763 2804 2848
8 2850 2807 2766 2811 2889 2849 2812 2853
8 2810 2765 2811 2852 2851 2808 2850 2890
8 2852 2811 2768 2813 2891 2853 2814 2855
8 2853 2812 2769 2814 2892 2854 2815 2856
8 2894 2856 2814 2855 2858 2817 2771 2816
8 2817 2772 2818 2859 2856 2815 2857 2895
8 2819 2774 2820 2861 2858 2817 2859 2897
8 2820 2775 2821 2862 2859 2818 2860 2898
8 2822 2777 2823 2864 2861 2820 2862 2900
8 2823 2778 2824 2865 2862 2821 2863 2901
8 2864 2823 2780 2825 2902 2865 2826 2866
8 2904 2867 2828 2869 2886 2846 2803 2847
8 2869 2828 2868 2906 2830 2785 2829 2871
8 2907 2869 2830 2872 2887 2847 2804 2848
8 2871 2829 2870 2909 2832 2786 2831 2874
8 2910 2871 2832 2875 2872 2830 2787 2833
8 2835 2788 2831 2874 2877 2834 2873 2912
8 2836 2789 2832 2875 2878 2835 2874 2913
8 2877 2834 2876 2915 2838 2791 2837 2880
8 2839 2792 2835 2878 2881 2838 2877 2916
8 2880 2837 2879 2917 2841 2794 2840 2882
8 2881 2838 2880 2918 2842 2795 2841 2883
8 2883 2841 2882 2919 2843 2798 2844 2884
8 2921 2885 2846 2886 2889 2849 2807 2850
8 2922 2886 2847 2887 2890 2850 2808 2851
8 2889 2849 2812 2853 2924 2888 2854 2892
8 2890 2850 2811 2852 2925 2889 2853 2891
8 2891 2853 2814 2855 2926 2892 2856 2894
8 2892 2854 2815 2856 2927 2893 2857 2895
8 2858 2817 2859 2897 2894 2856 2895 2929
8 2859 2818 2860 2898 2895 2857 2896 2930
8 2861 2820 2862 2900 2897 2859 2898 2932
8 2862 2821 2863 2901 2898 2860 2899 2933
8 2864 2823 2865 2902 2900 2862 2901 2934
8 2904 2867 2846 2886 2936 2903 2885 2921
8 2904 2867 2903 2936 2869 2828 2868 2906
8 2937 2904 2869 2907 2922 2886 2847 2887
8 2906 2868 2905 2939 2871 2829 2870 2909
8 2907 2869 2906 2940 2872 2830 2871 2910
8 2909 2870 2908 2942 2874 2831 2873 2912
8 2910 2871 2909 2943 2875 2832 2874 2913
8 2912 2873 2911 2945 2877 2834 2876 2915
8 2878 2835 2874 2913 2916 2877 2912 2946
8 2915 2876 2914 2947 2880 2837 2879 2917
8 2916 2877 2915 2948 2881 2838 2880 2918
8 2918 2880 2917 2949 2883 2841 2882 2919
8 2921 2885 2849 2889 2951 2920 2888 2924
8 2952 2921 2886 2922 2925 2889 2850 2890
8 2924 2888 2854 2892 2954 2923 2893 2927
8 2925 2889 2853 2891 2955 2924 2892 2926
8 2926 2892 2856 2894 2956 2927 2895 2929
8 2895 2857 2896 2930 2927 2893 2928 2957
8 2897 2859 2898 2932 2929 2895 2930 2959
8 2898 2860 2899 2933 2930 2896 2931 2960
8 2900 2862 2901 2934 2932 2898 2933 2961
8 2936 2903 2885 2921 2963 2935 2920 2951
8 2936 2903 2935 2963 2906 2868 2905 2939
8 2937 2904 2886 2922 2964 2936 2921 2952
8 2937 2904 2936 2964 2907 2869 2906 2940
8 2939 2905 2938 2966 2909 2870 2908 2942
8 2940 2906 2939 2967 2910 2871 2909 2943
8 2942 2908 2941 2969 2912 2873 2911 2945
8 2943 2909 2942 2970 2913 2874 2912 2946
8 2945 2911 2944 2971 2915 2876 2914 2947
8 2946 2912 2945 2972 2916 2877 2915 2948
8 2948 2915 2947 2973 2918 2880 2917 2949
8 2951 2920 2888 2924 2975 2950 2923 2954
8 2952 2921 2889 2925 2976 2951 2924 2955
8 2927 2893 2928 2957 2954 2923 2953 2978
8 2955 2924 2892 2926 2979 2954 2927 2956
8 2929 2895 2930 2959 2956 2927 2957 2980
8 2930 2896 2931 2960 2957 2928 2958 2981
8 2932 2898 2933 2961 2959 2930 2960 2982
8 2951 2920 2950 2975 2963 2935 2962 2984
8 2963 2935 2962 2984 2939 2905 2938 2966
8 2964 2936 2921 2952 2985 2963 2951 2976
8 2964 2936 2963 2985 2940 2906 2939 2967
8 2966 2938 2965 2987 2942 2908 2941 2969
8 2967 2939 2966 2988 2943 2909 2942 2970
8 2969 2941 2968 2989 2945 2911 2944 2971
8 2970 2942 2969 2990 2946 2912 2945 2972
8 2972 2945 2971 2991 2948 2915 2947 2973
8 2954 2923 2953 2978 2975 2950 2974 2993
8 2976 2951 2924 2955 2994 2975 2954 2979
8 2957 2928 2958 2981 2978 2953 2977 2995
8 2956 2927 2957 2980 2979 2954 2978 2996
8 2959 2930 2960 2982 2980 2957 2981 2997
8 2984 2962 2983 2999 2966 2938 2965 2987
8 2975 2950 2974 2993 2984 2962 2983 2999
8 2976 2951 2975 2994 2985 2963 2984 3000
8 2985 2963 2984 3000 2967 2939 2966 2988
8 2987 2965 2986 3001 2969 2941 2968 2989
8 2988 2966 2987 3002 2970 2942 2969 2990
8 2990 2969 2989 3003 2972 2945 2971 2991
8 2978 2953 2977 2995 2993 2974 2992 3004
8 2979 2954 2978 2996 2994 2975 2993 3005
8 2980 2957 2981 2997 2996 2978 2995 3006
8 2974 2993 2999 2983 2992 3004 3007 2998
8 2983 2999 2987 2965 2998 3007 3001 2986
8 3000 2984 2999 3008 2988 2966 2987 3002
8 2994 2975 2993 3005 3000 2984 2999 3008
8 3002 2987 3001 3009 2990 2969 2989 3003
8 2996 2978 2995 3006 3005 2993 3004 3010
8 3005 2993 3004 3010 3008 2999 3007 3011
8 3008 2999 3007 3011 3002 2987 3001 3009

CELL_TYPES 1910
12
12
12
12
12
12
12
12
12
12
12
12
12
12
12
12
12
12
12
12
12
12
12
12
12
12
12
12
12
12
12
12
12
12
12
12
12
12
12
12
12
12
12
12
12
12
12
12
12
12
12
12
12
12
12
12
12
12
12
12
12
12
12
12
12
12
12
12
12
12
12
12
12
12
12
12
12
12
12
12
12
12
12
12
12
12
12
12
12
12
12
12
12
12
12
12
12
12
12
12
12
12
12
12
12
12
12
12
12
12
12
12
12
12
12
12
12
12
12
12
12
12
12
12
12
12
12
12
12
12
12
12
12
12
12
12
12
12
12
12
12
12
12
12
12
12
12
12
12
12
12
12
12
12
12
12
12
12
12
12
12
12
12
12
12
12
12
12
12
12
12
12
12
12
12
12
12
12
12
12
12
12
12
12
12
12
12
12
12
12
12
12
12
12
12
12
12
12
12
12
12
12
12
12
12
12
12
12
12
12
12
12
12
12
12
12
12
12
12
12
12
12
12
12
12
12
12
12
12
12
12
12
12
12
12
12
12
12
12
12
12
12
12
12
12
12
12
12
12
12
12
12
12
12
12
12
12
12
12
12
12
12
12
12
12
12
12
12
12
12
12
12
12
12
12
12
12
12
12
12
12
12
12
12
12
12
12
12
12
12
12
12
12
12
12
12
12
12
12
12
12
12
12
12
12
12
12
12
12
12
12
12
12
12
12
12
12
12
12
12
12
12
12
12
12
12
12
12
12
12
12
12
12
12
12
12
12
12
12
12
12
12
12
12
12
12
12
12
12
12
12
12
12
12
12
12
12
12
12
12
12
12
12
12
12
12
12
12
12
12
12
12
12
12
12
12
12
12
12
12
12
12
12
12
12
12
12
12
12
12
12
12
12
12
12
12
12
12
12
12
12
12
12
12
12
12
12
12
12
12
12
12
12
12
12
12
12
12
12
12
12
12
12
12
12
12
12
12
12
12
12
12
12
12
12
12
12
12
12
12
12
12
12
12
12
12
12
12
12
12
12
12
12
12
12
12
12
12
12
12
12
12
12
12
12
12
12
12
12
12
12
12
12
12
12
12
12
12
12
12
12
12
12
12
12
12
12
12
12
12
12
12
12
12
12
12
12
12
12
12
12
12
12
12
12
12
12
12
12
12
12
12
12
12
12
12
12
12
12
12
12
12
12
12
12
12
12
12
12
12
12
12
12
12
12
12
12
12
12
12
12
12
12
12
12
12
12
12
12
12
12
12
12
12
12
12
12
12
12
12
12
12
12
12
12
12
12
12
12
12
12
12
12
12
12
12
12
12
12
12
12
12
12
12
12
12
12
12
12
12
12
12
12
12
12
12
12
12
12
12
12
12
12
12
12
12
12
12
12
12
12
12
12
12
12
12
12
12
12
12
12
12
12
12
12
12
12
12
12
12
12
12
12
12
12
12
12
12
12
12
12
12
12
12
12
12
12
12
12
12
12
12
12
12
12
12
12
12
12
12
12
12
12
12
12
12
12
12
12
12
12
12
12
12
12
12
12
12
12
12
12
12
12
12
12
12
12
12
12
12
12
12
12
12
12
12
12
12
12
12
12
12
12
12
12
12
12
12
12
12
12
12
12
12
12
12
12
12
12
12
12
12
12
12
12
12
12
12
12
12
12
12
12
12
12
12
12
12
12
12
12
12
12
12
12
12
12
12
12
12
12
12
12
12
12
12
12
12
12
12
12
12
12
12
12
12
12
12
12
12
12
12
12
12
12
12
12
12
12
12
12
12
12
12
12
12
12
12
12
12
12
12
12
12
12
12
12
12
12
12
12
12
12
12
12
12
12
12
12
12
12
12
12
12
12
12
12
12
12
12
12
12
12
12
12
12
12
12
12
12
12
12
12
12
12
12
12
12
12
12
12
12
12
12
12
12
12
12
12
12
12
12
12
12
12
12
12
12
12
12
12
12
12
12
12
12
12
12
12
12
12
12
12
12
12
12
12
12
12
12
12
12
12
12
12
12
12
12
12
12
12
12
12
12
12
12
12
12
12
12
12
12
12
12
12
12
12
12
12
12
12
12
12
12
12
12
12
12
12
12
12
12
12
12
12
12
12
12
12
12
12
12
12
12
12
12
12
12
12
12
12
12
12
12
12
12
12
12
12
12
12
12
12
12
12
12
12
12
12
12
12
12
12
12
12
12
12
12
12
12
12
12
12
12
12
12
12
12
12
12
12
12
12
12
12
12
12
12
12
12
12
12
12
12
12
12
12
12
12
12
12
12
12
12
12
12
12
12
12
12
12
12
12
12
12
12
12
12
12
12
12
12
12
12
12
12
12
12
12
12
12
12
12
12
12
12
12
12
12
12
12
12
12
12
12
12
12
12
12
12
12
12
12
12
12
12
12
12
12
12
12
12
12
12
12
12
12
12
12
12
12
12
12
12
12
12
12
12
12
12
12
12
12
12
12
12
12
12
12
12
12
12
12
12
12
12
12
12
12
12
12
12
12
12
12
12
12
12
12
12
12
12
12
12
12
12
12
12
12
12
12
12
12
12
12
12
12
12
12
12
12
12
12
12
12
12
12
12
12
12
12
12
12
12
12
12
12
12
12
12
12
12
12
12
12
12
12
12
12
12
12
12
12
12
12
12
12
12
12
12
12
12
12
12
12
12
12
12
12
12
12
12
12
12
12
12
12
12
12
12
12
12
12
12
12
12
12
12
12
12
12
12
12
12
12
12
12
12
12
12
12
12
12
12
12
12
12
12
12
12
12
12
12
12
12
12
12
12
12
12
12
12
12
12
12
12
12
12
12
12
12
12
12
12
12
12
12
12
12
12
12
12
12
12
12
12
12
12
12
12
12
12
12
12
12
12
12
12
12
12
12
12
12
12
12
12
12
12
12
12
12
12
12
12
12
12
12
12
12
12
12
12
12
12
12
12
12
12
12
12
12
12
12
12
12
12
12
12
12
12
12
12
12
12
12
12
12
12
12
12
12
12
12
12
12
12
12
12
12
12
12
12
12
12
12
12
12
12
12
12
12
12
12
12
12
12
12
12
12
12
12
12
12
12
12
12
12
12
12
12
12
12
12
12
12
12
12
12
12
12
12
12
12
12
12
12
12
12
12
12
12
12
12
12
12
12
12
12
12
12
12
12
12
12
12
12
12
12
12
12
12
12
12
12
12
12
12
12
12
12
12
12
12
12
12
12
12
12
12
12
12
12
12
12
12
12
12
12
12
12
12
12
12
12
12
12
12
12
12
12
12
12
12
12
12
12
12
12
12
12
12
12
12
12
12
12
12
12
12
12
12
12
12
12
12
12
12
12
12
12
12
12
12
12
12
12
12
12
12
12
12
12
12
12
12
12
12
12
12
12
12
12
12
12
12
12
12
12
12
12
12
12
12
12
12
12
12
12
12
12
12
12
12
12
12
12
12
12
12
12
12
12
12
12
12
12
12
12
12
12
12
12
12
12
12
12
12
12
12
12
12
12
12
12
12
12
12
12
12
12
12
12
12
12
12
12
12
12
12
12
12
12
12
12
12
12
12
12
12
12
12
12
12
12
12
12
12
12
12
12
12
12
12
12
12
12
12
12
12
12
12
12
12
12
12
12
12
12
12
12
12
12
12
12
12
12
12
12
12
12
12
12
12
12
12
12
12
12
12
12
12
12
12
12
12
12
12
12
12
12
12
12
12
12
12
12
12
12
12
12
12
12
12
12
12
12
12
12
12
12
12
12
12
12
12
12
12
12
12
12
12
12
12
12
12
12
12
12
12
12
12
12
12
12
12
12
12
12
12
12
12
12
12
12
12
12
12
12
12
12
12
12
12
12
12
12
12
12
12
12
12
12
12
12
12
12
12
12
12
12
12
12
12
12
12
12
12
12
12
12
12
12
12
12
12
12
12
12
12
12
12
12
12
12
12
12
12
12
12
12
12
12
12
12
12
12
12
12
12
12
12
12
12
12
12
12
12
12
12
12
12
12
12
12
12
12
12
12
12
12
12
12
12
12
12
12
12
12
12
12
12
12
12
12
12
12
12
12
12
12
12
12
12
12
12
12
12
12
12
12
12
12
12
12
12
12
12
12
12
12
12
12
12
12
12
12
12
12
12
12
12
12
12
12
12
12
12
12
12
12
12
12
12
12
12
12
12
12
12
12
12
12
12
12
12
12
12
12
12
12
12
12
12
12
12
12
12
12
12
12
12
12
12
12
12
12
12
12
12
12
12
12
12
12
12
12
12
12
12
12
12
12
12
12
12
12
12
12
12
12
12
12
12
12
12
12
12
12
12
12
12
12
12
12
12
12
12
12
12
12

POINT_DATA 3012
SCALARS Jp_lamdaP float 4
LOOKUP_TABLE default
0.999541 1 1 0.999541
1 1 1 1
0.999555 1 1 0.999555
0.999483 1 1 0.999483
0.999543 1 1 0.999543
0.999515 1 1 0.999515
1.00558 1.00704 1 0.998545
1 1 1 1
1 1 1 1
1 1 1 1
0.999607 1 1 0.999607
1.00168 1.00309 1 0.998598
0.999508 1 1 0.999508
0.9995 1 1 0.9995
0.99956 1 1 0.99956
0.999516 1 1 0.999516
0.999523 1 1 0.999523
0.999566 1 1 0.999566
1.0056 1.00707 1 0.998544
1 1 1 1
0.999469 1 1 0.999469
0.999517 1 1 0.999517
1.00141 1.00297 1 0.998435
1.00471 1.00619 1 0.99853
0.999507 1 1 0.999507
1.00473 1.0062 1 0.998543
1.02805 1.03109 1 0.997055
1 1 1 1
0.999767 1 1 0.999767
0.999779 1 1 0.999779
1 1 1 1
1.0008 1.0022 1 0.998607
0.999524 1 1 0.999524
0.999554 1 1 0.999554
1.00603 1.0073 1 0.998732
1 1 1 1
1.00463 1.00584 1 0.998803
0.99924 1.00055 1 0.998688
1.01722 1.02028 1 0.997005
1 1 1 1
1 1 1 1
0.999752 1 1 0.999752
1 1 1 1
0.999516 1 1 0.999516
0.998382 1.00002 1 0.998367
1 1 1 1
1.00038 1.00174 1 0.998639
0.999545 1 1 0.999545
0.999582 1 1 0.999582
0.999525 1 1 0.999525
1.00565 1.00711 1 0.998548
0.999737 1 1 0.999737
0.999499 1 1 0.999499
0.999522 1 1 0.999522
0.999547 1 1 0.999547
1.00114 1.00271 1 0.998429
1.00482 1.00628 1 0.998544
1.00461 1.00609 1 0.998529
1.02823 1.03128 1 0.997043
1 1 1 1
0.999481 1 1 0.999481
0.998706 1 1 0.998706
0.999558 1.00114 1 0.998416
1.00333 1.00485 1 0.998484
1.03016 1.03342 1 0.99684
1.02865 1.03181 1 0.996936
0.999562 1 1 0.999562
1.00003 1.0014 1 0.998623
1.02597 1.02894 1 0.997121
1.04841 1.05243 1 0.996175
1 1 1 1
1 1 1 1
1 1 1 1
1.0002 1.00159 1 0.998616
1 1 1 1
1 1 1 1
1.00581 1.00733 1 0.998489
0.999848 1 1 0.999848
1.00356 1.00498 1 0.998581
0.999457 1.00052 1.00009 0.998851
1.01733 1.02039 1 0.997001
1 1 1 1
1.00183 1 1.00226 0.999579
1.00473 1.00633 1 0.998404
1.00571 1.00721 1 0.998518
1.03358 1.0371 1 0.996611
0.999688 1 1.00051 0.999174
1.02358 1.02676 1 0.996909
1.01242 1.01527 1.00003 0.997168
1.0341 1.03801 1 0.996239
1 1 1 1
1 1 1 1
1 1 1 1
1 1 1 1
1 1 1 1
0.999758 1 1 0.999758
0.998647 1.00012 1 0.998525
0.999751 1 1 0.999751
1.00108 1.00257 1 0.998514
1 1 1 1
0.9984 1 1 0.9984
0.99904 1.00039 1 0.998647
1.02391 1.02748 1 0.996522
1.00294 1.00428 1 0.99867
1.03243 1.03604 1 0.996519
0.999533 1 1 0.999533
0.999526 1 1 0.999526
0.999532 1 1 0.999532
0.999573 1 1 0.999573
1.00088 1.00246 1 0.998425
1.00453 1.00601 1 0.99853
1.00482 1.00628 1 0.998549
1.02846 1.03152 1 0.997032
1 1 1 1
0.999508 1 1 0.999508
0.998436 1 1 0.998435
0.99931 1.00091 1 0.998407
0.999784 1 1 0.999784
1.00084 1.00213 1 0.998713
1.00312 1.00465 1 0.998482
1.03017 1.03346 1 0.996815
1.02546 1.02844 1 0.997107
1.02926 1.03241 1 0.996956
1.04824 1.05226 1 0.996185
0.998424 1 1 0.998424
0.998665 1.00024 1 0.998428
1.02257 1.02584 1 0.996816
1.02741 1.03071 1 0.996792
1.03019 1.03344 1 0.996857
1.06151 1.06553 1 0.99623
1 1 1 1
1.05217 1.05619 1 0.996195
0.999366 1.00015 1.00043 0.998786
1.01699 1.01999 1 0.997058
1.04495 1.04898 1 0.996154
1.05292 1.05696 1 0.996173
1.0016 1 1.0024 0.999208
1.0065 1 1.00857 0.997948
1 1 1 1
1 1 1 1
1.00578 1.0073 1 0.998494
1 1 1 1
0.999381 1.00027 1.00034 0.998773
1.0028 1.00422 1 0.998588
1.01709 1.02015 1 0.996997
1 1 1 1
1.0017 1 1.0021 0.999603
1.00524 1.00669 1 0.998553
1.00554 1.00689 1 0.998655
1.03287 1.03638 1 0.99661
0.999995 1 1.00093 0.999065
1.02366 1.02683 1 0.996911
1.01025 1.01304 1.00007 0.997165
1.03527 1.03918 1 0.996237
1.00128 1 1.00196 0.999324
1.00137 1 1.0016 0.999763
1.00504 1.00027 1.00649 0.998294
1.03547 1.03908 1 0.996527
1.03014 1.03349 1 0.996757
1.05605 1.0602 1 0.996081
1.00609 1.00771 1.00091 0.997483
1.04267 1.04659 1 0.99626
1.02419 1.0274 1.00057 0.996305
1.04196 1.04601 1 0.996136
1 1 1 1
1 1 1 1
1 1 1 1
1.00177 1 1.00238 0.999391
1 1 1 1
1 1 1 1
1 1 1 1
1.00159 1.0032 1 0.998392
0.99861 1.00021 1 0.998404
1 1 1 1
1 1 1 1
0.9984 1 1 0.9984
0.99925 1.00073 1 0.998524
1.02457 1.02815 1 0.996522
1.0033 1.00491 1 0.998397
1.03184 1.03545 1 0.996517
0.998403 1 1 0.998403
1.02223 1.02582 1 0.996501
1.02731 1.03088 1 0.996534
1.06503 1.06947 0.999566 0.996285
1.0353 1.03893 1 0.996504
1.06807 1.07211 0.999998 0.996235
1 1 1 1
0.999536 1 1 0.999536
0.998135 1 1 0.998135
0.999088 1.00069 1 0.998399
1 1 1 1
1.00195 1.00315 1 0.998805
1.00292 1.00445 1 0.998481
1.03021 1.03353 1 0.996789
1.03002 1.03314 1 0.996976
1.02479 1.02778 1 0.997093
1.04802 1.05202 1 0.996194
0.998422 1 1 0.998422
0.998576 1.00016 1 0.998419
1.02251 1.02592 1 0.996675
1.02779 1.03109 1 0.996802
1 1 1 1
0.999831 1.00074 1.00022 0.998871
1.01829 1.0212 1 0.997152
1.03063 1.03389 1 0.99685
1.06163 1.06564 1 0.996238
1.04504 1.04908 1 0.996151
1.05229 1.05627 1 0.996227
1.05249 1.05652 1 0.996182
1.00141 1 1.00221 0.999195
1.00545 1.00009 1.00743 0.997949
1.02176 1.02533 1 0.996523
1.02346 1.02673 1 0.996814
1.06229 1.06635 0.999883 0.996309
1.06181 1.06675 0.999109 0.99626
1.05697 1.06092 1 0.996281
1.06217 1.06768 0.998382 0.99645
1.00044 1 1.00145 0.998997
1.05571 1.05961 1 0.99632
1.00947 1.01213 1.00011 0.997261
1.0395 1.04349 1 0.996177
1.05078 1.05497 1 0.996033
1.05224 1.05598 0.999995 0.996464
1.00368 1.00113 1.0049 0.997661
1.00635 1 1.00808 0.998287
1.00483 1.00191 1.00571 0.997225
1.00546 1.00703 1 0.998438
1 1 1 1
1.00135 1 1.00172 0.999627
1.00507 1.00652 1 0.998554
1.03228 1.03579 1 0.996608
1.0002 1 1.00114 0.999063
1.00883 1.01165 1.00004 0.997163
1.02336 1.02653 1 0.996912
1.03688 1.04079 1 0.996236
1.00138 1 1.00204 0.999347
1.00094 1 1.00116 0.999782
1.00567 1 1.00739 0.998293
1.03457 1.03817 1 0.996524
1.02944 1.03278 1 0.996759
1.05619 1.06035 1 0.996075
1.00422 1.00609 1.00066 0.997488
1.04326 1.04718 1 0.996259
1.02709 1.03042 1.00047 0.996296
1.04329 1.04733 1 0.996143
1.00073 1 1.00087 0.999868
1.00384 1.00229 1.0037 0.997855
1.00538 1 1.00665 0.998738
1.00718 1.00278 1.0068 0.997611
1.0604 1.06456 1 0.996093
1.05003 1.05408 1 0.996158
1.05769 1.0618 1 0.996129
1.01542 1.01832 1.00049 0.996659
1.04492 1.04884 1 0.996261
1.03918 1.04168 1.00158 0.996027
1.05239 1.05649 1 0.996119
0.999573 1 1.00007 0.999508
0.999954 1 1 0.999954
1 1 1 1
1 1 1 1
1 1 1 1
1.00156 1 1.00199 0.999571
1 1 1 1
1.00202 1 1.00265 0.999374
1 1 1 1
1.004 1.00561 1 0.998398
0.99955 1.00115 1 0.998401
1.03171 1.03532 1 0.996516
1.02525 1.02883 1 0.996523
0.998449 1.00005 1 0.998402
1 1 1 1
0.998402 1 1 0.998402
1.02262 1.02621 1 0.996502
1.02799 1.03157 1 0.996534
1.06436 1.06872 0.999632 0.996284
1.03451 1.03815 1 0.9965
1.06741 1.07145 0.999994 0.996233
1.02163 1.02521 1 0.996502
1.06288 1.06716 0.999723 0.996266
1.06781 1.07207 0.999743 0.996278
1.06556 1.07448 0.995046 0.996636
1.06515 1.06926 1 0.996163
1.06558 1.07287 0.996664 0.996523
0.99842 1 1 0.99842
0.998479 1.00007 1 0.99841
1.02246 1.02601 1 0.996535
1.02809 1.03137 1 0.996813
1 1 1 1
1.00005 1.00105 1.00004 0.998957
1.01925 1.02206 1 0.997246
1.03107 1.03433 1 0.996843
1.0617 1.0657 1 0.996246
1.05225 1.0562 1 0.996259
1.04541 1.04945 1 0.996149
1.05214 1.05616 1 0.996192
1.00134 1 1.00216 0.999182
1.00527 1.0004 1.00693 0.99795
1.0217 1.02527 1 0.996517
1.02372 1.027 1 0.996807
1.06182 1.06623 0.999525 0.996337
1.06289 1.06738 0.999536 0.996248
1.00005 1 1.00106 0.998987
1.01096 1.01359 1.00015 0.99726
1.03904 1.04301 1 0.996202
1.05676 1.06073 1 0.996256
1.06143 1.06729 0.997999 0.996503
1.05044 1.05463 1 0.996026
1.0558 1.0597 0.999998 0.996324
1.0523 1.05604 1 0.996456
1.00431 1.00201 1.00464 0.99766
1.00575 1.00244 1.0061 0.997221
1.007 1 1.00872 0.998287
1.0616 1.06565 0.999916 0.99629
1.06291 1.06755 0.999312 0.996337
1.06561 1.07294 0.996589 0.996564
1.06296 1.07062 0.996313 0.996521
1.05772 1.06259 0.998959 0.996451
1.05364 1.06474 0.992744 0.996809
1.00281 1.00468 1.00067 0.99747
1.05335 1.05885 0.99817 0.996634
1.02643 1.0301 1 0.996435
1.04265 1.04701 1 0.995834
1.04792 1.05205 1 0.996078
1.04526 1.04972 0.999016 0.996737
1.00682 1 1.00824 0.998589
1.00387 1.00615 1.0007 0.997036
1.00874 1.00036 1.01098 0.997428
1.00531 1.00558 1.00286 0.996893
1.03372 1.03733 1 0.99652
1.00056 1 1.00076 0.9998
1.00162 1 1.00225 0.999371
1.00715 1 1.00887 0.998293
1.02885 1.0322 1 0.996761
1.05624 1.06041 1 0.996069
1.00154 1.0036 1.00045 0.997493
1.02825 1.03174 1.00033 0.996288
1.04415 1.04808 1 0.996258
1.0432 1.04723 1 0.996149
1.0003 1 1.00042 0.999882
1.00385 1.00147 1.00453 0.997859
1.00557 1 1.00683 0.998746
1.00663 1.00201 1.00703 0.997606
1.0605 1.06466 1 0.996086
1.05024 1.05429 1 0.996155
1.05717 1.06128 1 0.996126
1.01314 1.01608 1.00045 0.996665
1.04447 1.0484 1 0.996249
1.03685 1.03921 1.00173 0.996014
1.05174 1.05574 1 0.996209
0.999926 1 1 0.999926
1.00297 1 1.0039 0.99908
1.00738 1.0083 1.00191 0.997177
1.00931 1.00112 1.01021 0.997993
1.00495 1.00438 1.00322 0.99736
1.06246 1.06667 0.999826 0.996232
1.05081 1.05487 1 0.996157
1.05214 1.05612 0.999919 0.996305
1.01729 1.01907 1.00199 0.996269
1.04478 1.04866 1 0.996303
1.03107 1.03447 1.00086 0.995857
0.999431 1 1 0.999431
1.00017 1 1.00132 0.998848
0.999574 1 1 0.999574
0.99951 1 1 0.99951
0.999971 1 1 0.999971
0.999959 1 1 0.999959
1 1 1 1
1 1 1 1
1 1 1 1
1.00061 1 1.00085 0.999757
1 1 1 1
1.00176 1 1.0022 0.999555
1 1 1 1
1.00181 1 1.00245 0.999357
1 1 1 1
1.03359 1.03722 1 0.996496
1.0284 1.03198 1 0.996533
1.06639 1.07042 1 0.99623
1.06361 1.0679 0.999699 0.996283
1.02302 1.02661 1 0.996502
0.998401 1 1 0.998401
1.02175 1.02534 1 0.996502
1.06263 1.06688 0.999754 0.996266
1.06647 1.0707 0.999779 0.996276
1.06531 1.07473 0.994558 0.996654
1.06463 1.06873 1 0.996158
1.06609 1.07326 0.996788 0.996522
1.06167 1.06583 0.999841 0.996256
1.06511 1.07407 0.994981 0.99666
1.06543 1.07439 0.99504 0.996602
1.05941 1.07081 0.992466 0.996869
1.06385 1.0691 0.998688 0.996391
1.05838 1.07303 0.989451 0.996865
1.02164 1.02522 1 0.996511
1.02401 1.0273 1 0.996801
1.06139 1.06612 0.99919 0.996366
1.06409 1.06811 1 0.996237
0.99968 1 1.0007 0.998977
1.01331 1.01595 1.00015 0.997261
1.03963 1.04357 1 0.996226
1.05654 1.06053 1 0.996231
1.0607 1.06693 0.997597 0.996555
1.05591 1.0598 0.999998 0.996329
1.04997 1.05416 1 0.99602
1.05243 1.05618 1 0.996447
1.00472 1.00292 1.00415 0.997659
1.00591 1.00241 1.00629 0.997216
1.00712 1 1.00885 0.998288
1.06152 1.06558 0.999903 0.996279
1.06271 1.06756 0.999116 0.996335
1.06503 1.07297 0.995978 0.996611
1.06295 1.07017 0.996742 0.996496
1.00525 1.00691 1.00088 0.997468
1.02625 1.02992 1 0.996434
1.04155 1.04585 1.00003 0.995865
1.05823 1.06279 0.999301 0.996407
1.05326 1.0651 0.991998 0.996858
1.04905 1.05322 1 0.996039
1.05353 1.05897 0.998222 0.996635
1.04643 1.05068 0.999183 0.996774
1.00531 1.00693 1.00136 0.997036
1.00508 1.00492 1.00332 0.996848
1.0062 1 1.00762 0.998587
1.00826 1.00021 1.01061 0.997469
1.06492 1.07277 0.996062 0.996611
1.06652 1.07444 0.996067 0.996545
1.05449 1.06641 0.992012 0.996785
1.05214 1.06712 0.98904 0.996886
1.05356 1.06227 0.995002 0.996784
1.05248 1.06691 0.989414 0.997032
1.01183 1.01512 1 0.996751
1.04533 1.05459 0.994196 0.997004
1.0288 1.03291 1 0.99602
1.03861 1.04293 1.00018 0.995678
1.04779 1.05191 1 0.996089
1.04893 1.05332 0.999023 0.996802
1.00249 1 1.00363 0.998863
1.01179 1.00062 1.01349 0.997711
1.00773 1.0111 1 0.996674
1.0076 1.00368 1.00681 0.997116
1.00811 1.00594 1.00548 0.996693
0.999953 1 1.00006 0.999895
1.06055 1.06472 1 0.99608
1.0055 1 1.00675 0.998753
1.0039 1.00078 1.00527 0.997863
1.00579 1.00117 1.00703 0.997601
1.05039 1.05445 1 0.996152
1.05671 1.06082 1 0.996123
1.01301 1.01588 1.00051 0.996671
1.03686 1.03901 1.00193 0.996001
1.04411 1.04806 1 0.996237
1.05197 1.05587 1 0.996299
0.999934 1 1 0.999934
1.00286 1 1.00377 0.99909
1.00513 1.00662 1.00134 0.997183
1.01032 1.00097 1.01137 0.997988
1.00461 1.00367 1.00363 0.997317
1.06219 1.06637 0.999852 0.996227
1.0506 1.05465 1 0.996155
1.05193 1.05597 0.999878 0.996293
1.01845 1.02009 1.00213 0.996269
1.04795 1.05186 1 0.996287
1.03127 1.03454 1.00096 0.995889
1.00029 1 1.00098 0.999305
1.00594 1 1.00758 0.99838
1.00297 1.00571 1.00048 0.9968
1.01137 1.00353 1.01021 0.997634
1.00661 1.00736 1.00203 0.997228
1.05887 1.0649 0.997861 0.996466
1.04605 1.04996 1 0.996271
1.04981 1.05449 0.999032 0.996523
1.00579 1.00589 1.00379 0.996121
1.0283 1.03257 1 0.995871
0.999495 1 1.00006 0.999434
0.998935 1 1.00018 0.998757
1.0003 1 1.00148 0.998823
1.00021 1 1.00164 0.99857
1.00001 1 1.00111 0.998905
0.999615 1 1 0.999615
0.999577 1 1 0.999577
0.999985 1 1 0.999985
0.999512 1 1 0.999512
0.999975 1 1 0.999975
1 1 1 1
0.999964 1 1 0.999964
1 1 1 1
1 1 1 1
0.999906 1 1 0.999904
1.00124 1 1.00151 0.999737
1 1 1 1
1 1 1 1
1.00234 1 1.00281 0.999538
1 1 1 1
1.0642 1.0683 1 0.996153
1.06549 1.06968 0.999804 0.996274
1.06673 1.07379 0.996897 0.996521
1.06515 1.0751 0.994058 0.996671
1.06232 1.06653 0.999785 0.996267
1.02184 1.02543 1 0.996502
1.0616 1.06575 0.999851 0.996257
1.0649 1.07375 0.995093 0.996655
1.06604 1.07505 0.995004 0.996603
1.05883 1.07078 0.991922 0.996898
1.0648 1.06996 0.998786 0.996386
1.05865 1.07316 0.989561 0.996887
1.06502 1.07341 0.995534 0.99663
1.05692 1.06965 0.991222 0.996848
1.05967 1.07228 0.991283 0.996935
1.05941 1.07517 0.988297 0.997018
1.05948 1.07066 0.992832 0.996699
1.05994 1.07753 0.986554 0.997088
1.06139 1.06548 0.999889 0.996269
1.06244 1.06752 0.998902 0.996333
1.06438 1.07295 0.995334 0.996658
1.06281 1.06963 0.997137 0.99647
1.00692 1.00835 1.00111 0.997466
1.02398 1.02765 1 0.996432
1.03982 1.04391 1.00018 0.995896
1.05878 1.06301 0.99966 0.996362
1.05293 1.06544 0.991321 0.996906
1.05371 1.05909 0.998273 0.996636
1.05003 1.05425 1 0.996
1.04727 1.05131 0.999338 0.996812
1.00745 1.00839 1.00203 0.997035
1.00496 1.00503 1.00314 0.996804
1.00604 1 1.00747 0.998585
1.00756 1.00012 1.00995 0.99751
1.065 1.07283 0.996076 0.99661
1.06614 1.074 0.996139 0.996527
1.05461 1.0667 0.991825 0.996816
1.0531 1.06722 0.989874 0.996869
1.01254 1.01575 1.0001 0.996744
1.02739 1.03142 1.00003 0.996056
1.03852 1.04264 1.00039 0.995667
1.05422 1.0623 0.995648 0.996733
1.05103 1.06591 0.988918 0.997088
1.04499 1.04911 1 0.996075
1.04646 1.05585 0.99409 0.997004
1.04932 1.05368 0.998993 0.996869
1.00682 1.01018 1 0.996677
1.00609 1.00607 1.00335 0.996681
1.00713 1.00266 1.00737 0.997112
1.00318 1 1.00435 0.998832
1.01117 1.00024 1.01321 0.997754
1.05576 1.06855 0.991169 0.996831
1.05592 1.06986 0.990088 0.996851
1.05155 1.07125 0.984497 0.997071
1.04654 1.06228 0.988056 0.997092
1.01456 1.01824 1 0.996392
1.05045 1.06024 0.993572 0.997176
1.0167 1.02071 1.00029 0.99579
1.03221 1.03634 1.00051 0.995507
1.042 1.0461 0.999993 0.996087
1.00019 1 1.00106 0.999131
1.00939 1 1.01127 0.998135
1.00748 1 1.01007 0.997433
1.00592 1.00895 1.00046 0.996534
1.00865 1.00471 1.0072 0.996741
1.00903 1.00683 1.00567 0.996522
0.999942 1 1 0.999942
1.0024 1 1.00331 0.999101
1.06188 1.06603 0.999881 0.996221
1.01159 1.0008 1.01283 0.997982
1.00203 1.00411 1.00074 0.99719
1.00431 1.00314 1.0039 0.997274
1.05027 1.05433 1 0.996153
1.05182 1.05591 0.999841 0.996282
1.0184 1.01988 1.00229 0.996268
1.03025 1.03367 1.00077 0.995921
1.05127 1.05521 1 0.996272
0.999832 1 1.00052 0.999311
1.00675 1 1.00838 0.998383
1.00537 1.0082 1.00041 0.99678
1.01165 1.00294 1.01108 0.997629
1.00695 1.008 1.00174 0.997218
1.05793 1.06387 0.997948 0.996461
1.0476 1.05154 1 0.996257
1.05073 1.05536 0.99906 0.996547
1.00744 1.00813 1.00324 0.996089
1.02657 1.0308 1.00006 0.995839
1.00147 1 1.0028 0.998666
1.01095 1.00004 1.01299 0.997945
1.00485 1.00625 1.002 0.996627
1.0128 1.00817 1.00726 0.997354
1.01804 1.02003 1.00101 0.997038
1.05026 1.06321 0.990834 0.996959
1.0488 1.05287 1 0.996141
1.05213 1.05658 0.999282 0.996507
1.00885 1.00851 1.00433 0.996022
1.01349 1.01793 1 0.995639
0.999436 1 1 0.999436
0.998859 1 1.00009 0.998773
0.99869 1 1.00016 0.998528
0.999721 1 1.00092 0.998797
0.999612 1 1.00071 0.998903
1.00081 1 1.00226 0.998548
0.999499 1 1.00097 0.998528
1.00138 1 1.00289 0.998491
0.999142 1 1.00019 0.998952
0.99961 1 1 0.99961
0.999615 1 1 0.999615
0.999995 1 1 0.999995
0.999579 1 1 0.999579
0.999988 1 1 0.999988
1 1 1 1
0.99998 1 1 0.99998
1 1 1 1
1 1 1 1
0.999975 1 1 0.999975
1.00008 1 1.0002 0.999882
1 1 1 1
1.00155 1 1.00184 0.999717
1 1 1 1
1 1 1 1
1.06575 1.07082 0.998883 0.99638
1.06639 1.07543 0.994978 0.996604
1.05887 1.07323 0.989675 0.99691
1.05825 1.0707 0.991416 0.996927
1.06474 1.07345 0.995223 0.99665
1.06158 1.06572 0.99986 0.996258
1.06506 1.07323 0.995767 0.996612
1.05751 1.06981 0.991636 0.996841
1.05905 1.07169 0.991258 0.99692
1.05803 1.07454 0.987569 0.997029
1.05911 1.07006 0.993041 0.996701
1.05756 1.07595 0.985742 0.997125
1.05782 1.06966 0.992082 0.996822
1.05896 1.07622 0.986902 0.997019
1.06011 1.07781 0.986433 0.997109
1.05241 1.07356 0.983102 0.997143
1.06511 1.07293 0.99609 0.99661
1.06587 1.07364 0.996235 0.996508
1.0548 1.06704 0.991648 0.996847
1.05412 1.06741 0.990666 0.996851
1.01411 1.0173 1.00013 0.996737
1.02642 1.03045 1 0.996092
1.03845 1.04238 1.00058 0.995655
1.05471 1.06221 0.996245 0.996682
1.04954 1.06494 0.988369 0.997143
1.04751 1.05699 0.994005 0.997004
1.04278 1.04691 1 0.99606
1.05048 1.05454 0.999213 0.996935
1.00356 1.00666 1.00024 0.996679
1.00561 1.00652 1.00244 0.996668
1.00783 1.00203 1.00871 0.997107
1.00343 1 1.00463 0.998801
1.01084 1.00002 1.01305 0.997797
1.0559 1.06864 0.991221 0.996833
1.05646 1.07045 0.990055 0.996847
1.05183 1.07049 0.985462 0.997064
1.01469 1.01837 1 0.99639
1.01681 1.02081 1.00026 0.995826
1.03067 1.03454 1.00076 0.995495
1.04684 1.06219 0.98844 0.997079
1.04508 1.04922 0.999851 0.996207
1.04664 1.05679 0.993237 0.997143
1.00043 1 1.00126 0.999179
1.0059 1.0075 1.00189 0.996529
1.00899 1.00536 1.007 0.996633
1.01171 1.00623 1.00874 0.996736
1.00945 1.00145 1.01057 0.997456
1.00958 1 1.0115 0.998101
1.05776 1.07438 0.987582 0.996905
1.0558 1.07818 0.982187 0.997008
1.04506 1.06899 0.980411 0.997149
1.042 1.06394 0.982038 0.997288
1.0098 1.01336 1.00027 0.996213
1.04169 1.04814 0.997094 0.996737
1.00703 1.01 1.00165 0.99542
1.01953 1.02322 1.00104 0.995357
0.999508 1 1 0.999508
1.0036 1 1.00508 0.998529
1.00856 1 1.0108 0.997777
1.01017 1.00213 1.01112 0.996937
1.00643 1.00491 1.00512 0.996414
1.01331 1.00529 1.01168 0.996349
0.999586 1 1.00027 0.999317
1.00763 1 1.00926 0.998387
1.05712 1.06297 0.998033 0.996456
1.0115 1.00215 1.01173 0.997624
1.00778 1.01078 1.00027 0.996759
1.00632 1.0076 1.00152 0.997206
1.04927 1.05322 1 0.996244
1.05154 1.05612 0.999086 0.99657
1.00954 1.01077 1.00273 0.996056
1.02472 1.02876 1.00027 0.995808
1.0014 1 1.00274 0.998669
1.01133 1.00001 1.01342 0.997923
1.00528 1.00668 1.00198 0.996634
1.01254 1.00852 1.00664 0.99736
1.01976 1.02224 1.00048 0.997096
1.05256 1.0653 0.991008 0.997006
1.04823 1.05225 1 0.996175
1.05294 1.05735 0.99924 0.996585
1.00953 1.00898 1.00458 0.995988
1.01309 1.01758 1.00003 0.995556
1.0026 1 1.00425 0.998358
1.01151 1.00193 1.01203 0.997562
1.01265 1.0123 1.00378 0.996574
1.01649 1.018 1.00161 0.996918
1.05009 1.08373 0.971629 0.997254
1.04948 1.05838 0.994561 0.997016
1.03438 1.03877 1 0.995773
1.01586 1.01601 1.00426 0.995612
0.998949 1 1.00016 0.998788
0.998757 1 1.00022 0.998534
0.99861 1 1.00003 0.998582
0.999814 1 1.00091 0.998901
1.00188 1 1.00335 0.998527
0.999217 1 1.00027 0.998949
0.999366 1 1.00082 0.998549
1.00189 1 1.0034 0.998499
0.998677 1 1 0.998677
1.00174 1 1.00338 0.998368
1.00085 1 1.00239 0.998458
0.998929 1 1 0.998929
0.99957 1 1 0.99957
0.999608 1 1 0.999608
0.999998 1 1 0.999998
0.999615 1 1 0.999615
0.999996 1 1 0.999996
1 1 1 1
0.999991 1 1 0.999991
1 1 1 1
1 1 1 1
0.999996 1 1 0.999996
0.999961 1 1 0.999961
1 1 1 1
1.00047 1 1.00061 0.999859
1 1 1 1
1 1 1 1
1.05866 1.06938 0.993246 0.996704
1.05853 1.07121 0.99123 0.996905
1.05528 1.07445 0.984954 0.997162
1.05659 1.07392 0.986787 0.997039
1.05808 1.06999 0.99201 0.996834
1.0651 1.07304 0.995995 0.996593
1.05758 1.06954 0.991966 0.996822
1.05875 1.07586 0.987041 0.997009
1.05861 1.07696 0.985813 0.997107
1.05323 1.07421 0.983269 0.997154
1.05992 1.07616 0.987912 0.996965
1.05985 1.08267 0.981709 0.997167
1.05994 1.08537 0.979299 0.997216
1.05603 1.0687 0.991276 0.996835
1.05694 1.07095 0.990037 0.996843
1.0522 1.06973 0.98652 0.997056
1.01675 1.02043 1 0.996388
1.01654 1.02058 1.00018 0.995862
1.02892 1.03271 1.00085 0.995483
1.04722 1.0622 0.988798 0.997065
1.04248 1.05348 0.992426 0.997109
1.04776 1.05209 0.999558 0.996327
1.00553 1.00617 1.00286 0.996523
1.00389 1.00202 1.00514 0.996745
1.01326 1.00726 1.00926 0.99673
1.00057 1 1.00135 0.999228
1.00984 1.00245 1.00992 0.997478
1.01002 1 1.01198 0.998066
1.05845 1.07477 0.987864 0.996914
1.05501 1.07789 0.98171 0.997013
1.04539 1.0689 0.98081 0.997141
1.00751 1.01125 1.00009 0.996206
1.00682 1.00996 1.0014 0.995495
1.01962 1.02335 1.0009 0.995453
1.04252 1.06373 0.982722 0.997291
1.03739 1.04468 0.996292 0.996715
0.999581 1 1 0.999581
1.00336 1 1.00484 0.998526
1.00334 1.00351 1.00339 0.996454
1.01592 1.00446 1.01494 0.996515
1.01072 1.00337 1.01036 0.996989
1.00858 1.0002 1.01067 0.997732
1.0578 1.08121 0.981206 0.997087
1.04556 1.08061 0.970376 0.997104
1.04197 1.06886 0.977447 0.997333
1.03111 1.04954 0.985119 0.997286
1.00213 1.00485 1.00133 0.995967
1.02094 1.0241 1.00111 0.995815
1.0076 1.00976 1.00264 0.99523
0.999779 1 1 0.999779
0.99922 1 1 0.99922
0.999749 1 1.00085 0.998902
1.00352 1 1.00552 0.998013
1.00955 1 1.01223 0.997361
1.01477 1.00319 1.0149 0.99669
1.00401 1.00192 1.00548 0.996625
1.0391 1.0024 1.03989 0.996854
1.00112 1 1.00245 0.998673
1.01195 1 1.01408 0.997901
1.05501 1.06747 0.991251 0.997053
1.01428 1.01059 1.0063 0.997367
1.00574 1.00696 1.00215 0.996642
1.02107 1.02395 1.00004 0.997155
1.04757 1.05155 1 0.99621
1.05372 1.05809 0.9992 0.996664
1.00996 1.0092 1.00482 0.995955
1.01248 1.01709 1 0.995473
1.00291 1 1.00461 0.998315
1.01002 1.00095 1.01153 0.997557
1.01603 1.01529 1.00415 0.996593
1.01647 1.01812 1.00142 0.996959
1.05152 1.08617 0.970754 0.997273
1.05213 1.06021 0.995399 0.996961
1.03289 1.03722 1 0.995828
1.01783 1.01852 1.00377 0.995561
1.00361 1 1.00547 0.998152
1.05837 1.09231 0.971569 0.997279
1.00558 1.00197 1.00644 0.99718
1.01609 1.01708 1.00268 0.996353
1.03714 1.06966 0.972134 0.997393
1.02847 1.03332 0.999388 0.995916
1.01271 1.01417 1.00323 0.99534
0.998731 1 1.00019 0.99854
0.998393 0.999628 1.00019 0.998573
0.999062 0.999452 1.00088 0.998728
0.999079 1 1.00013 0.998946
1.00187 1 1.00337 0.998507
0.999451 1 1.00088 0.998569
0.998925 1 1 0.998925
1.00101 1 1.00255 0.998464
0.998795 1 1.00009 0.998705
1.00105 1 1.00268 0.99838
0.998815 1 1 0.998815
0.999072 1 1.00053 0.998541
1.00163 1 1.00341 0.998227
0.998912 1 1.00054 0.998369
0.998842 1 1 0.998842
0.999523 1 1 0.999523
0.999566 1 1 0.999566
0.999999 1 1 0.999999
0.999606 1 1 0.999606
0.999999 1 1 0.999999
1 1 1 1
0.999997 1 1 0.999997
1 1 1 1
1 1 1 1
0.999811 1 1 0.999811
1 1 1 1
0.999992 1 1 0.999992
1 1 1 1
0.999946 1 1 0.999946
1 1 1 1
1 1 1 1
1.05406 1.07485 0.983446 0.997164
1.05714 1.07611 0.985223 0.997104
1.05859 1.07553 0.987215 0.997
1.05729 1.06937 0.991856 0.996823
1.05956 1.07617 0.987549 0.996984
1.05982 1.08231 0.982011 0.997158
1.05704 1.08248 0.979218 0.997222
1.05938 1.08286 0.981109 0.99715
1.0716 1.09775 0.978875 0.997252
1.07343 1.10192 0.976573 0.997517
1.05917 1.07518 0.988157 0.996923
1.054 1.0776 0.981026 0.997017
1.04577 1.06882 0.981252 0.997133
1.0062 1.00998 1.00006 0.996199
1.00768 1.01089 1.00126 0.995572
1.0215 1.02527 1.00078 0.995549
1.04326 1.06325 0.983855 0.997293
1.03295 1.0407 0.995845 0.996692
1.00483 1.00369 1.00466 0.996495
1.02088 1.00481 1.01938 0.996677
1.01258 1.00467 1.01087 0.997041
0.999654 1 1 0.999654
1.00314 1 1.00462 0.998523
1.00862 1.00012 1.01084 0.997687
1.05752 1.08154 0.980636 0.997096
0.999773 1 1 0.999773
0.999179 1 1 0.999179
1.04686 1.07961 0.972479 0.997106
1.04007 1.06725 0.977167 0.997303
1.00305 1.0051 1.00192 0.996049
1.00721 1.00869 1.00332 0.995237
1.01999 1.02429 0.999999 0.995802
1.03013 1.04942 0.984323 0.997258
0.999959 1 1.00097 0.998991
1.00381 1 1.00582 0.998002
1.00411 1.00187 1.00574 0.996515
1.03344 1.00222 1.03428 0.996977
1.01199 1.00226 1.01305 0.996707
1.00858 1 1.01123 0.997378
1.06862 1.09839 0.975624 0.997201
1.02731 1.0784 0.955265 0.997236
1.02708 1.05797 0.973254 0.997481
1.01298 1.02928 0.98715 0.996977
1.00547 1.0028 1.00648 0.996218
1.00757 1.00678 1.0055 0.995305
0.999126 1 1 0.999126
0.999195 1 1 0.999195
0.999052 1.00018 1 0.998869
0.999335 1 1.00108 0.998255
1.00862 1 1.01092 0.997727
1.00694 1.00036 1.00959 0.997011
1.05656 1.00014 1.05984 0.996763
0.996582 1.00049 0.998694 0.997394
1.00368 1 1.00541 0.998271
1.00796 1 1.01043 0.997553
1.05244 1.08772 0.970191 0.997292
1.05438 1.06168 0.996205 0.996907
1.01664 1.01852 1.00115 0.997
1.02017 1.01914 1.00441 0.996611
1.03177 1.036 1.00004 0.995883
1.02047 1.02164 1.00335 0.99551
1.00377 1 1.00565 0.998129
1.06128 1.09602 0.970877 0.997345
1.00572 1.00114 1.00738 0.997223
1.014 1.01505 1.00269 0.99629
1.03707 1.06922 0.972494 0.997368
1.02709 1.03191 0.999316 0.996006
1.0139 1.01509 1.00348 0.995354
1.00725 0.999558 1.00985 0.997868
1.01039 1.05481 0.960037 0.997764
1.00451 1.00255 1.00505 0.996924
1.00515 1.00557 1.00379 0.995808
1.0172 1.034 0.986801 0.996909
1.00281 1.00502 1.00221 0.995593
0.963329 1.00301 0.963496 0.99683
0.997898 0.998968 1.00037 0.998564
0.998968 0.998405 1.00184 0.998731
1.00049 0.999716 1.00211 0.998668
0.998922 1 1 0.998922
1.00183 1 1.00336 0.998471
1.00005 1 1.00166 0.998391
0.998906 1 1.00017 0.998735
0.998841 1 1 0.998841
0.999027 1 1.00066 0.998368
0.998781 1 1 0.998781
1.00148 1 1.00325 0.998228
0.998951 1 1.00044 0.998513
0.999661 1 1.00089 0.99877
0.998718 1 1.00067 0.998051
1.00219 1 1.004 0.998192
0.998501 1 1.00026 0.998239
0.998678 1 1 0.998678
1.00023 1 1.00181 0.99843
0.999041 1 1.0004 0.998644
0.999502 1 1 0.999502
0.99952 1 1 0.99952
1 1 1 1
0.999562 1 1 0.999562
0.999999 1 1 0.999999
1 1 1 1
0.999999 1 1 0.999999
1 1 1 1
1 1 1 1
0.999847 1 1 0.999847
0.999812 1 1 0.999812
1 1 1 1
0.999999 1 1 0.999999
1 1 1 1
0.999988 1 1 0.999988
1 1 1 1
1 1 1 1
1.05425 1.07981 0.979038 0.997229
1.0596 1.08186 0.982225 0.997149
1.0592 1.07618 0.987182 0.997002
1.0592 1.08265 0.981136 0.997148
1.06855 1.09481 0.978707 0.997247
1.0721 1.10034 0.97684 0.997434
1.0758 1.10708 0.974358 0.997317
0.962872 1.01605 0.952594 0.994818
1.02353 1.05964 0.967629 0.998233
0.999298 1 1 0.999298
1.05728 1.08181 0.980165 0.997106
1.04828 1.07885 0.974483 0.997108
1.03787 1.06588 0.976388 0.997273
1.00004 1.0031 1.00082 0.996128
1.00567 1.00644 1.00402 0.995242
1.01813 1.02309 0.999356 0.995789
1.02874 1.04922 0.9832 0.99723
0.9988 1.00199 1.00041 0.996409
1.02753 1.0015 1.02897 0.997106
1.00851 1.001 1.01082 0.996724
0.999768 1 1 0.999768
1.00898 1 1.01162 0.997394
0.999973 1 1.0009 0.999078
1.00411 1 1.00613 0.997992
0.999139 1 1 0.999139
1.06521 1.09867 0.972266 0.997208
0.999178 1 1 0.999178
0.999281 1 1.00009 0.999196
0.998838 1.00054 0.99947 0.998831
1.03166 1.07891 0.958861 0.997233
1.02646 1.05762 0.973032 0.997432
1.00185 1.00217 1.00344 0.996251
1.0123 1.01149 1.00538 0.995444
1.01159 1.02692 0.988078 0.996958
0.999301 1 1.00098 0.998319
1.00816 1 1.01051 0.997674
1.00746 1.00031 1.00993 0.997243
1.04545 1.00046 1.04834 0.996779
1.00684 1.00059 1.0092 0.997067
1.04096 1.0875 0.959784 0.997317
1.00612 1.06509 0.947101 0.997395
1.01851 1.03886 0.983243 0.997118
0.99364 1.01247 0.984623 0.996725
1.00311 1 1.00613 0.997005
0.998698 1 1 0.998698
0.999013 1.00033 1.00007 0.998614
1.00023 1 1.00163 0.998602
1.00976 1 1.01174 0.998045
1.01049 1 1.01291 0.997609
1.04158 0.999899 1.04464 0.997174
1.03153 1.00175 1.03242 0.997393
1.00372 1 1.00563 0.998105
1.00526 1 1.00801 0.997266
1.06299 1.10025 0.968652 0.997409
1.03752 1.06954 0.972643 0.997342
1.02598 1.03086 0.999163 0.996097
1.01074 1.01186 1.00268 0.996226
1.01456 1.01562 1.0036 0.99537
1.00734 0.99983 1.0096 0.997924
1.01135 1.05584 0.959961 0.997812
1.00152 1.00167 1.00292 0.996932
1.00406 1.00419 1.00408 0.995808
1.01559 1.03334 0.98575 0.997037
1.00352 1.00522 1.00273 0.995589
0.96421 1.00275 0.965711 0.995708
1.00733 0.999457 1.01009 0.997804
0.995831 1.02539 0.973352 0.997758
1.00085 1.00137 1.00277 0.996718
1.00423 1.00167 1.00644 0.99615
0.991961 1.00642 0.988797 0.996798
0.902001 0.974516 0.952661 0.971582
0.892493 0.963454 0.940239 0.985225
0.961656 0.98173 0.982432 0.997069
0.696788 0.822053 0.901211 0.940534
0.609536 0.770875 0.858019 0.921549
0.998993 0.997557 1.00271 0.998734
1.00128 0.998339 1.00423 0.998721
1.002 1 1.0033 0.998703
0.99884 1 1 0.99884
0.998921 1 1.00056 0.998365
1.00078 1 1.00255 0.998229
0.998906 1 1.00042 0.998484
0.998747 1 1 0.998747
1.00293 1 1.00477 0.998172
0.998716 1 1 0.998716
0.99847 1 1.00021 0.998259
0.999346 1 1.00063 0.998713
0.999215 1 1.00111 0.998109
1.00388 1 1.00577 0.998128
1.00556 1 1.00725 0.998322
1.00352 1 1.00541 0.998122
0.998977 1 1.00083 0.998145
0.998645 1 1 0.998645
0.999281 1 1.00103 0.998255
0.999913 1 1.0016 0.998312
0.999794 1 1.00131 0.998488
1.00014 1 1.00175 0.998392
0.998931 1 1.00016 0.998769
0.999156 1 1.00052 0.998641
0.999496 1 1 0.999496
0.999502 1 1 0.999502
1 1 1 1
0.999517 1 1 0.999517
1 1 1 1
1 1 1 1
1 1 1 1
1 1 1 1
1 1 1 1
0.999893 1 1 0.999893
0.999844 1 1 0.999844
1 1 1 1
0.999814 1 1 0.999814
1 1 1 1
1 1 1 1
0.999999 1 1 0.999999
1 1 1 1
1 1 1 1
1.06531 1.09174 0.978496 0.997242
1.05918 1.08256 0.981209 0.997146
1.07092 1.09808 0.977852 0.997353
0.964181 1.01582 0.954029 0.994905
1.07306 1.10465 0.974016 0.997316
1.03398 1.0625 0.975002 0.998101
1.0541 1.07847 0.979906 0.997448
0.917406 0.977175 0.953747 0.984365
0.985871 1.01963 0.970974 0.995792
0.999333 1 1 0.999333
0.999292 1 1 0.999292
0.998807 1 1 0.998807
0.998926 1 1 0.998926
1.06234 1.09846 0.969817 0.997215
1.03595 1.07859 0.963132 0.99723
1.02663 1.05734 0.973506 0.997383
1.00056 1.00122 1.00306 0.996284
1.01708 1.01695 1.00456 0.995584
1.01053 1.02486 0.989042 0.996939
1.01905 1 1.02202 0.997089
1.0355 1.00097 1.03783 0.996793
1.00609 1.00037 1.00862 0.997121
0.999551 1 1.00035 0.999197
1.0061 1 1.0085 0.997621
0.999276 1 1.0009 0.998382
0.99923 1 1 0.99923
0.998893 1.00093 0.999175 0.998792
1.03985 1.08728 0.958934 0.997332
0.998725 1 1 0.998725
0.998968 1.00055 0.999723 0.998691
0.999635 0.99963 1.00121 0.998802
1.01282 1.06841 0.950463 0.997384
1.01917 1.03882 0.983916 0.997118
1.0018 1.00081 1.00401 0.996988
0.996715 1.01189 0.988167 0.996803
1.00794 1 1.01 0.997957
1.01023 1 1.01279 0.997466
1.03686 1.00228 1.03723 0.997371
1.04134 1.0006 1.04377 0.997073
0.995667 1.05303 0.947876 0.997524
0.997032 1.04182 0.959513 0.99739
1.00788 1.01565 0.995558 0.996775
0.977793 1.00097 0.978989 0.997813
1.00287 1 1.00438 0.9985
1.00324 1 1.005 0.99825
1.01729 0.999516 1.01964 0.998179
1.06264 1.00084 1.06452 0.997394
0.88247 0.968179 0.942072 0.967521
1.00811 1 1.01015 0.99798
0.999625 1.00091 1.00178 0.996939
1.01295 1.05671 0.960643 0.997863
1.01373 1.03217 0.984932 0.997165
1.00412 1.00526 1.0033 0.995581
1.00351 1.00325 1.00447 0.995806
0.964677 1.00374 0.966348 0.994552
1.00569 0.999068 1.00879 0.997861
0.994423 1.02621 0.971224 0.997738
1.00072 1.00148 1.00252 0.996732
1.00476 1.00251 1.00611 0.996159
0.995266 1.00755 0.990994 0.996785
0.89648 0.979497 0.945917 0.967575
0.886561 0.959114 0.941135 0.98217
0.966004 0.982397 0.986162 0.997112
0.691449 0.816196 0.899337 0.941983
0.596363 0.762153 0.853933 0.916315
1.00246 0.99896 1.00553 0.997986
0.722455 0.834452 0.916162 0.945011
0.644029 0.78056 0.894725 0.922168
0.986851 1.00581 0.983308 0.99781
1.00869 1.00152 1.00983 0.997353
1.0143 1.00547 1.01158 0.997231
0.953698 0.971596 0.984062 0.997476
0.873135 0.95152 0.946364 0.969628
0.854135 0.929745 0.937237 0.980196
0.680773 0.808639 0.889612 0.94634
0.663364 0.828591 0.87177 0.918354
1.00203 0.997121 1.00616 0.998773
1.00159 0.998854 1.00407 0.998676
1.0097 1 1.01088 0.998837
0.998753 1 1 0.998753
0.998279 1 1 0.998279
1.00357 1 1.00543 0.998152
1.00014 1 1.00198 0.998167
0.998657 1 1 0.998657
0.998663 1 1.00002 0.998646
1.00438 1 1.00629 0.998106
1.00381 1 1.0057 0.998121
0.998504 1 1.00031 0.99819
1.00617 0.999953 1.00787 0.99836
1.00654 1 1.00829 0.998263
1.01961 1 1.02115 0.9985
1.002 1 1.00399 0.99802
0.999012 1 1.00079 0.998219
0.998865 1 1.00062 0.998249
1.00044 1 1.00211 0.998336
1.00036 1 1.00225 0.99811
0.999517 1 1.00112 0.998397
1.00345 1 1.00502 0.998434
1.00766 1 1.0095 0.998178
1.0002 1 1.00174 0.998459
0.999471 1 1.00098 0.99849
0.999017 1 1.00021 0.998805
0.99989 1 1.00154 0.998353
0.998889 1 1.00015 0.998737
0.999477 1 1 0.999477
0.999248 1 1.00061 0.998638
0.999498 1 1 0.999498
0.999998 1 1 0.999998
0.999503 1 1 0.999503
1 1 1 1
1 1 1 1
1 1 1 1
1 1 1 1
1 1 1 1
0.999278 1 1 0.999278
0.999905 1 1 0.999905
0.999889 1 1 0.999889
1 1 1 1
0.999841 1 1 0.999841
1 1 1 1
1 1 1 1
1 1 1 1
1 1 1 1
1 1 1 1
0.966342 1.01544 0.956435 0.994994
1.07159 1.10295 0.974183 0.997315
1.04262 1.06629 0.97979 0.997967
0.908083 0.972653 0.947293 0.98556
0.986145 1.01991 0.970776 0.995997
1.05177 1.0818 0.974776 0.997403
0.993666 1.03025 0.968047 0.996328
0.924103 0.975191 0.959979 0.987118
0.900184 0.976602 0.950969 0.969276
0.697049 0.819874 0.898289 0.946455
0.569031 0.724206 0.853534 0.920562
0.998875 1 1 0.998875
0.99933 1 1 0.99933
0.999286 1 1 0.999286
0.998811 1 1 0.998811
0.998866 1 1.00025 0.998611
0.998587 1 1 0.998587
0.998764 1 1 0.998764
0.99888 1 1 0.99888
1.03841 1.08856 0.956473 0.997346
1.01954 1.07283 0.95283 0.997372
1.01841 1.03843 0.983558 0.997117
1.002 1.00189 1.00315 0.996972
0.999531 1.01121 0.991545 0.99688
1.04548 1.00263 1.04551 0.997347
1.04202 1.00174 1.04337 0.996973
1.01048 1 1.01319 0.997323
0.99845 1.00074 0.99894 0.998767
1.00821 1 1.01036 0.997866
0.998754 1 1 0.998754
0.998497 0.999495 1 0.999002
0.993791 1.05397 0.945215 0.997554
1.00217 0.999848 1.00384 0.998494
1.00471 1 1.00638 0.998334
0.994269 1.0397 0.958835 0.997364
1.00501 1.01637 0.991866 0.996929
0.981362 1.00131 0.982359 0.997675
1.02773 1.00018 1.02971 0.997894
1.05799 1.00219 1.0584 0.997436
0.9724 1.02951 0.946955 0.997434
0.990743 1.01311 0.980496 0.997375
0.97394 1.00166 0.974809 0.997453
0.980296 1.00016 0.982103 0.997998
1.00701 1 1.00903 0.997998
1.01565 1 1.01756 0.998122
1.05391 1 1.05628 0.997751
0.733607 0.843941 0.917482 0.947445
0.89927 0.976371 0.946924 0.972657
1.00334 0.998923 1.00651 0.997919
1.00043 1.00132 1.00237 0.996748
0.99474 1.0273 0.97052 0.997718
0.99828 1.00898 0.9926 0.996773
1.00544 1.00358 1.00571 0.996172
0.896584 0.973887 0.949445 0.969644
0.890574 0.967727 0.936395 0.982784
0.967617 0.981532 0.988639 0.997153
0.701189 0.818073 0.90489 0.947212
0.584389 0.754492 0.850307 0.910902
1.00227 0.999403 1.00489 0.997989
0.727937 0.843464 0.912361 0.945933
0.625448 0.763494 0.891415 0.918979
0.98689 1.00692 0.982265 0.997802
1.00851 1.00207 1.00909 0.997364
1.01231 1.00363 1.0113 0.997381
0.947363 0.96556 0.983421 0.997694
0.884899 0.964452 0.949341 0.966476
0.85056 0.925581 0.935045 0.982784
0.688825 0.808601 0.902157 0.944261
0.664175 0.836485 0.865643 0.917246
1.00421 0.999718 1.00594 0.998563
0.670659 0.79294 0.916998 0.922343
0.740014 0.869263 0.915237 0.930155
0.985067 0.99213 0.994228 0.998645
1.01568 1.00255 1.01456 0.998561
0.957426 0.957866 1.00243 0.997115
0.865685 0.916049 0.960173 0.984219
0.829424 0.910687 0.944217 0.964575
0.696421 0.802356 0.918142 0.945355
0.722079 0.889046 0.880761 0.922152
1.00212 0.998652 1.00482 0.99865
1.00779 1 1.00901 0.998789
1.00881 0.999037 1.01072 0.999074
0.998647 1 1 0.998647
0.998235 1 1 0.998235
1.0047 1 1.00659 0.99812
1.00536 1 1.00729 0.998085
1.00623 0.999818 1.00803 0.998399
0.998826 1 1.00061 0.998216
1.00517 1 1.00696 0.998222
1.00201 1 1.004 0.998023
1.01848 0.99953 1.02043 0.998562
1.03703 0.997902 1.04015 0.999094
1.01151 1 1.01326 0.998272
1.001 1 1.00303 0.997978
0.998626 1 1.00038 0.998244
1.00094 1 1.00259 0.998359
1.0009 1 1.00281 0.998099
1.00008 1 1.0017 0.998381
1.0014 1 1.00285 0.998544
1.00421 1 1.00589 0.998333
1.00586 1 1.00758 0.998296
1.00356 0.998973 1.00602 0.998579
0.99957 1 1.00131 0.998263
0.999641 1.00114 1.00093 0.99758
1.00584 1 1.00779 0.998058
1.00639 1 1.00823 0.99818
1.00667 1 1.00838 0.998312
1.00138 1 1.00293 0.998458
0.9991 1 1.00032 0.998779
0.999468 1 1.00098 0.998493
0.999147 1 1.00034 0.998809
0.999454 1 1 0.999454
0.998933 1 1.00023 0.998706
0.99948 1 1 0.99948
0.999989 1 1 0.999989
0.9995 1 1 0.9995
0.999996 1 1 0.999996
1 1 1 1
1 1 1 1
1 1 1 1
1 1 1 1
0.999277 1 1 0.999277
0.999874 1 1 0.999874
0.99928 1 1 0.99928
1 1 1 1
0.999905 1 1 0.999905
0.999884 1 1 0.999884
1 1 1 1
1 1 1 1
1 1 1 1
1 1 1 1
1 1 1 1
0.719679 0.834682 0.91582 0.941474
0.630883 0.773543 0.886223 0.920283
0.907446 0.973198 0.945543 0.986139
0.987906 1.01998 0.97223 0.996214
1.04982 1.08329 0.971665 0.997359
0.908992 0.957984 0.959914 0.988483
0.994999 1.02997 0.969419 0.99652
0.91225 0.988213 0.951615 0.970068
0.689875 0.820335 0.892792 0.941952
0.575758 0.739922 0.850129 0.915312
0.935606 0.99543 0.948019 0.991438
0.893047 0.964906 0.953974 0.970181
0.684246 0.812804 0.890238 0.945628
0.65541 0.824517 0.865774 0.918139
1.00081 1 1.0024 0.998418
0.998915 1 1 0.998915
0.999328 1 1 0.999328
0.998814 1 1 0.998814
0.998923 1 1.00023 0.998691
0.999406 1 1.00109 0.998322
0.998561 1 1 0.998561
0.998541 1 1.00016 0.998384
0.998717 1 1 0.998717
0.998834 1 1 0.998834
0.991696 1.05364 0.943489 0.997584
0.991168 1.03705 0.958304 0.99734
1.00409 1.01776 0.98945 0.997084
0.983404 1.00177 0.984086 0.997536
1.04889 1.00343 1.04796 0.997478
1.03863 1.00069 1.0404 0.997612
1.00477 1 1.00636 0.998419
1.00159 0.999556 1.00355 0.998487
0.972361 1.0299 0.946467 0.997532
1.00835 1 1.01042 0.99795
1.01561 1 1.01757 0.998075
0.985084 1.01113 0.976867 0.997316
0.972134 1.0016 0.972956 0.997557
0.979365 1.00089 0.980512 0.997941
1.04683 0.999845 1.04941 0.997689
0.967794 1.00322 0.966936 0.997679
0.963715 0.998373 0.966946 0.998283
1.01296 0.999432 1.0154 0.99817
1.00985 1 1.012 0.997879
1.01272 1 1.01493 0.997827
1.02889 1 1.03109 0.997866
0.699476 0.808441 0.927455 0.932892
0.736881 0.842434 0.92282 0.94786
0.887571 0.973315 0.942366 0.967677
1.00141 0.998883 1.00455 0.99799
1.00831 1.00224 1.00871 0.997372
0.989211 1.00814 0.983394 0.997794
1.01084 1.00231 1.01101 0.997526
0.728277 0.838764 0.915429 0.948489
0.879715 0.960677 0.946413 0.967574
0.849091 0.922146 0.939277 0.980304
0.946252 0.961867 0.985837 0.9979
0.685364 0.812865 0.896895 0.940073
0.622285 0.761172 0.888194 0.920446
0.663366 0.83357 0.863667 0.921434
1.00425 0.999433 1.00629 0.998538
0.672743 0.793787 0.915125 0.926116
0.753775 0.882669 0.918428 0.929821
0.984275 0.990024 0.995441 0.998746
1.01587 1.00179 1.01556 0.998512
0.954466 0.955832 1.00084 0.99773
0.85632 0.921156 0.946949 0.981694
0.859339 0.925383 0.958736 0.968599
0.70907 0.818235 0.920846 0.941074
0.713893 0.880662 0.875967 0.925414
1.00769 0.998127 1.01016 0.999431
0.776126 0.889887 0.930288 0.937518
0.748639 0.885088 0.905635 0.93397
0.980124 0.964208 1.0168 0.999715
0.896365 0.919095 0.98604 0.989077
0.859519 0.905111 0.982107 0.966929
0.776126 0.87665 0.94361 0.93824
0.760156 0.925725 0.886825 0.92594
1.0072 1 1.00847 0.998741
1.01044 0.998565 1.01284 0.999061
1.02526 0.992147 1.03404 0.999354
0.999021 1 1.00081 0.998214
1.00205 1 1.00403 0.998026
1.00319 1 1.00502 0.998181
1.01781 0.999225 1.02 0.998625
1.00164 1 1.00367 0.997978
1.01081 1 1.01257 0.998261
1.04243 0.999087 1.04425 0.999173
1.0445 0.993964 1.05142 0.999446
1.04082 0.998807 1.04304 0.999068
1.0052 1 1.00703 0.998179
1.00109 1 1.003 0.998089
1.00042 1 1.00206 0.998365
0.999294 1 1.00064 0.998652
1.00532 1 1.00701 0.998318
1.00307 1 1.00475 0.998332
1.00555 0.999522 1.00744 0.998606
1.00343 0.999652 1.00541 0.998377
1.01173 0.998027 1.01479 0.998962
0.996631 1.00088 0.997339 0.998416
1.00006 1.00062 1.00117 0.998273
0.998593 1.00008 1.00069 0.997824
1.00367 1.00555 1.00153 0.996607
1.00357 1.0008 1.00486 0.997918
0.99921 1.00053 1.00079 0.997887
1.00588 1 1.00784 0.998061
1.01149 1 1.01339 0.998125
1.00471 1 1.00654 0.998182
1.00604 1 1.00774 0.998311
0.999769 1 1.00112 0.998652
1.00214 1 1.00369 0.998456
0.99883 1 1.00005 0.998776
0.999421 1 1 0.999421
0.998984 1 1.00017 0.998813
0.999454 1 1 0.999454
0.999973 1 1 0.999973
0.999483 1 1 0.999483
0.999984 1 1 0.999984
1 1 1 1
0.999994 1 1 0.999994
1 1 1 1
1 1 1 1
0.998996 1 1 0.998996
0.999819 1 1 0.999819
0.999195 1 1 0.999195
1 1 1 1
0.99988 1 1 0.99988
0.999282 1 1 0.999282
1 1 1 1
1 1 1 1
0.999906 1 1 0.999906
1 1 1 1
1 1 1 1
1 1 1 1
0.66084 0.788414 0.905703 0.925457
0.72688 0.841512 0.914502 0.944535
0.746599 0.880682 0.912346 0.929199
0.627795 0.772126 0.884918 0.918813
0.908568 0.966417 0.953651 0.985833
0.995079 1.03053 0.968776 0.996723
0.914302 0.985704 0.955702 0.970556
0.703986 0.823189 0.903516 0.946518
0.585065 0.758708 0.847427 0.90997
0.936896 0.989722 0.955735 0.990469
0.881912 0.961928 0.950541 0.964521
0.697683 0.82011 0.901564 0.943604
0.649494 0.821587 0.863878 0.915102
0.90319 0.969492 0.943565 0.987332
0.839914 0.909721 0.957977 0.963766
0.729319 0.847717 0.916899 0.938308
0.717388 0.88567 0.881102 0.919298
1.00289 1 1.00483 0.998071
0.999894 1 1.00143 0.99847
0.998955 1 1 0.998955
0.998771 1 1 0.998771
0.998481 1 1.00056 0.997925
0.998726 1 1.00035 0.998376
0.998537 1 1 0.998537
0.998357 1 1 0.998357
0.99848 1 1.00005 0.998426
0.998671 1 1 0.998671
0.972653 1.03093 0.94571 0.997629
0.98146 1.0094 0.974986 0.997261
0.968247 1.00129 0.969269 0.99766
0.981092 1.00204 0.981165 0.997887
1.03841 1 1.04088 0.997625
1.01556 1 1.01757 0.998029
1.00908 1 1.0112 0.997902
1.00947 1 1.01167 0.997827
0.966453 1.00343 0.965342 0.997727
1.01181 1 1.01404 0.997802
1.02892 1 1.03114 0.997842
0.963103 0.998952 0.96577 0.998285
1.00766 1.0008 1.00874 0.998127
0.948289 0.977842 0.971689 0.998033
0.970956 0.977872 0.993688 0.999235
1.04267 0.999089 1.04532 0.998379
1.00517 1 1.00732 0.99786
1.02312 1 1.02516 0.99801
0.788736 0.899782 0.930684 0.941873
0.697603 0.807064 0.927637 0.931799
0.727842 0.83832 0.919973 0.943739
1.00359 0.999306 1.00579 0.998514
1.01647 1.00081 1.01721 0.998462
0.9801 0.987658 0.993491 0.998849
0.671282 0.792695 0.913798 0.92672
0.842925 0.913935 0.956567 0.96418
0.861299 0.918156 0.954076 0.983228
0.944174 0.950008 0.995496 0.998356
0.71722 0.828522 0.915277 0.945792
0.76163 0.889105 0.921442 0.929658
0.716665 0.881467 0.878263 0.925732
1.00608 0.998328 1.00839 0.999376
0.774813 0.890045 0.926793 0.939295
0.747693 0.883615 0.905841 0.934132
0.981814 0.968069 1.01468 0.99953
0.909831 0.931 0.988209 0.988923
0.828016 0.897383 0.958644 0.962506
0.757476 0.923797 0.885359 0.926133
0.792951 0.883197 0.954771 0.94035
0.99893 0.972258 1.02773 0.999711
0.761061 0.878228 0.9172 0.944818
0.781563 0.915213 0.911608 0.936771
0.715405 0.883871 0.880218 0.919545
0.947964 0.937952 1.01359 0.997127
0.899532 0.926736 1.00235 0.968371
0.847091 0.931694 0.963968 0.943179
1.01238 0.998003 1.01537 0.999047
1.02572 0.993917 1.03275 0.99927
1.02924 0.982959 1.04754 0.999566
1.0018 1 1.00383 0.997978
1.00896 0.999981 1.01075 0.99825
1.04686 0.999306 1.04837 0.999251
1.00547 1 1.0073 0.998185
1.04097 0.998888 1.04309 0.999079
1.04755 0.994035 1.05444 0.999421
1.03819 0.988736 1.05056 0.999489
1.02567 0.997649 1.02906 0.999058
1.00439 1 1.00606 0.998343
1.00229 1 1.00396 0.998331
1.00769 0.999991 1.00908 0.998634
1.01097 0.99864 1.01343 0.998933
1.00331 0.999818 1.00512 0.998383
1.00336 0.999708 1.00483 0.998829
0.997395 1.0001 0.998566 0.998722
1.0032 1.00017 1.00571 0.997329
1.00046 1.00126 1.00091 0.99829
0.999699 1.00139 1.00059 0.997718
1.00019 1.00237 1.00154 0.996289
1.01551 1.01812 1.00129 0.99616
1.00418 1.0039 1.00276 0.997521
1.00189 1.00385 1.00138 0.996672
1.01082 1 1.01297 0.997884
1.00486 1.00145 1.00549 0.997929
0.998835 1 1.00065 0.998191
1.00627 1 1.00822 0.998065
1.01047 1 1.01233 0.998159
1.00384 1 1.00536 0.998484
1.00561 1 1.00731 0.998311
0.99999 1 1.00134 0.998652
0.999335 1 1 0.999335
0.998772 1 1 0.998772
0.999418 1 1 0.999418
0.999961 1 1 0.999961
0.999455 1 1 0.999455
0.99997 1 1 0.99997
1 1 1 1
0.99998 1 1 0.99998
1 1 1 1
1 1 1 1
0.998711 1 1 0.998711
0.999594 1 1 0.999594
0.998993 1 1 0.998993
1 1 1 1
0.999762 1 1 0.999762
0.999114 1 1 0.999114
1 1 1 1
1 1 1 1
0.999885 1 1 0.999885
1 1 1 1
1 1 1 1
1 1 1 1
0.777513 0.899222 0.921982 0.937817
0.664566 0.789008 0.906643 0.929009
0.719139 0.836033 0.911374 0.943828
0.99824 1 1 0.99824
0.754522 0.882898 0.912 0.937058
0.74571 0.880411 0.911704 0.929032
0.637047 0.783557 0.881474 0.922342
0.946264 0.993407 0.962865 0.989281
0.874499 0.950288 0.949247 0.969448
0.7003 0.834206 0.893824 0.939201
0.641641 0.805672 0.867988 0.917529
0.900599 0.964841 0.948461 0.984138
0.855146 0.919781 0.960301 0.968163
0.72667 0.836007 0.925692 0.938989
0.715039 0.8822 0.880635 0.920379
0.848212 0.91548 0.944934 0.980514
0.837294 0.894585 0.969845 0.965059
0.804656 0.891784 0.958786 0.941085
0.760676 0.924111 0.889017 0.925903
1.00144 1 1.00358 0.997877
1.00401 1 1.00599 0.998027
0.999293 1 1.00077 0.998521
0.998227 1 1.00017 0.998055
0.998722 1 1.00072 0.998003
0.99843 1 1 0.99843
0.99836 1 1 0.99836
0.998491 1 1.00003 0.998466
0.965309 1.00403 0.963589 0.99776
0.963053 1.00076 0.963964 0.998294
1.00937 1 1.01162 0.997774
1.0019 1.00206 1.00176 0.998082
1.03028 1 1.03253 0.997818
1.01163 1 1.01388 0.997777
1.00608 1 1.00823 0.997868
0.950729 0.97687 0.975025 0.99817
1.02073 1 1.02275 0.998023
1.03213 0.999941 1.03382 0.998423
0.970153 0.981038 0.989613 0.999283
1.00736 1 1.00931 0.998072
0.936501 0.953868 0.984063 0.997693
1.00039 0.977976 1.02345 0.999477
1.05831 0.996874 1.06319 0.998536
1.02616 0.999171 1.02885 0.998214
0.768191 0.87924 0.921295 0.948337
0.78848 0.900103 0.930416 0.941502
0.69712 0.805166 0.930298 0.93068
1.00346 0.998364 1.00579 0.999323
0.984918 0.971443 1.01453 0.999348
0.776512 0.893027 0.924035 0.941013
0.852129 0.894585 0.984151 0.967882
0.898872 0.929663 0.981322 0.985283
0.786834 0.877365 0.955408 0.938671
0.748711 0.884728 0.905817 0.934252
0.756425 0.923523 0.884207 0.926326
1.00414 0.980383 1.02457 0.999669
0.7626 0.879909 0.91732 0.944796
0.782781 0.913292 0.912766 0.939012
0.959807 0.945729 1.0157 0.999194
0.712811 0.880445 0.879505 0.920522
0.870687 0.907391 0.993933 0.965407
0.847492 0.932054 0.964507 0.942733
0.995822 0.966762 1.03035 0.999715
0.792044 0.90608 0.922094 0.947999
0.751986 0.878896 0.912684 0.937458
0.652359 0.822388 0.863794 0.918331
0.80257 0.890716 0.958074 0.94047
0.939691 0.940256 1.00609 0.99335
0.906376 0.924939 1.01969 0.961004
1.02436 0.996028 1.02929 0.999188
1.02918 0.981122 1.04947 0.999534
1.01743 0.967765 1.05176 0.999582
1.00687 1 1.00869 0.99819
1.04479 0.998916 1.04687 0.999091
1.05422 0.994846 1.06032 0.999396
1.02161 0.99801 1.02462 0.999045
1.03628 0.990558 1.04669 0.999488
1.00903 0.986377 1.02375 0.999235
1.01088 0.999305 1.0127 0.998903
1.00334 0.99998 1.00497 0.998389
1.00684 0.999853 1.00819 0.998806
1.01249 0.998823 1.01563 0.998085
0.998376 0.999348 1 0.999028
1.00008 1.00018 1.00236 0.997547
1.00441 1.0016 1.00702 0.995809
1.0053 1.00755 1.00229 0.995495
1.00075 1.00275 1.0004 0.997605
1.00062 1.00304 1.00152 0.996078
1.01725 1.02056 1.00053 0.996234
1.01124 1.01178 1.00261 0.996861
1.01418 1.01671 1.00125 0.996265
1.008 1.00071 1.00962 0.997687
1.00691 1.00608 1.00335 0.997486
0.99956 1.00155 1.00128 0.99674
1.01015 1 1.01191 0.998269
1.01013 1 1.01224 0.99791
1.00617 1.00209 1.00614 0.997939
1.00931 1 1.01114 0.998194
1.00388 1 1.0054 0.998485
0.999892 1 1.00072 0.999175
1.00015 1 1.0015 0.998653
0.999442 1 1.00011 0.99933
0.99995 1 1 0.99995
0.999415 1 1 0.999415
0.999959 1 1 0.999959
1 1 1 1
0.999966 1 1 0.999966
1 1 1 1
1 1 1 1
0.998621 1 1 0.998621
0.999414 1 1 0.999414
0.998764 1 1 0.998764
1 1 1 1
0.999575 1 1 0.999575
0.998991 1 1 0.998991
1 1 1 1
1 1 1 1
0.999705 1 1 0.999705
1 1 1 1
1 1 1 1
1 1 1 1
0.768146 0.88186 0.920114 0.946679
0.779413 0.898258 0.925219 0.937825
0.665611 0.788237 0.908808 0.929161
0.998281 1 1 0.998281
0.998918 1 1.00072 0.998194
0.998197 1 1 0.998197
0.78283 0.917617 0.911035 0.93642
0.751376 0.882614 0.908343 0.93721
0.743894 0.879861 0.910193 0.928888
0.907421 0.972151 0.946461 0.986218
0.8258 0.90683 0.944979 0.963667
0.725499 0.823674 0.931745 0.945332
0.722511 0.889662 0.884286 0.918389
0.852008 0.921269 0.94037 0.983465
0.852149 0.903078 0.977717 0.965111
0.789247 0.875643 0.95699 0.941843
0.757912 0.923839 0.885954 0.926
0.862616 0.914593 0.961497 0.980938
0.87553 0.910891 0.994545 0.966452
0.846318 0.928647 0.965847 0.943571
0.726553 0.892485 0.882709 0.922251
0.998676 1 1.00064 0.998034
1.00175 1 1.00392 0.997837
1.00371 1 1.00574 0.997983
0.998107 1 1.00007 0.998042
0.998465 1 1.00038 0.998082
0.998363 1 1 0.998363
0.949012 0.971613 0.9784 0.998302
0.968218 0.980533 0.988122 0.99931
1.0068 1 1.00894 0.997876
1.02388 1.0005 1.02494 0.998466
1.02074 1 1.02275 0.998036
1.00941 1 1.01135 0.998086
1.02152 0.996731 1.02666 0.998251
0.943641 0.953461 0.991892 0.99779
1.0541 0.995362 1.06041 0.998678
1.00403 0.972582 1.03303 0.999323
1.01354 0.995276 1.01996 0.998418
0.968945 0.952548 1.01985 0.997417
1.01299 0.972608 1.04228 0.999269
1.03565 0.978539 1.05965 0.998792
0.806417 0.913518 0.92888 0.950349
0.771382 0.880673 0.923175 0.948792
0.787715 0.900318 0.929655 0.941135
1.00993 0.988454 1.02211 0.999627
0.949043 0.943596 1.00813 0.997663
0.763383 0.880446 0.917723 0.944775
0.867756 0.895228 0.999714 0.969591
0.844623 0.932617 0.964024 0.939446
0.783818 0.912359 0.912738 0.941247
0.722561 0.888487 0.885241 0.918675
0.991056 0.962832 1.02956 0.999765
0.791925 0.904331 0.922902 0.948858
0.754218 0.883524 0.910439 0.937622
0.935151 0.936158 1.00985 0.989184
0.646532 0.818343 0.86301 0.915458
0.786337 0.874278 0.955929 0.940879
0.912757 0.930131 1.01476 0.967047
1.00494 0.953877 1.05514 0.998478
0.768936 0.880182 0.922598 0.946902
0.756981 0.887908 0.916983 0.929728
0.569366 0.722062 0.855887 0.921299
0.718012 0.837279 0.914116 0.938125
0.880233 0.910259 1.00138 0.965681
0.911396 0.929037 0.99496 0.985982
1.02641 0.980214 1.04765 0.999501
1.02359 0.976934 1.04819 0.999585
1.00976 0.979023 1.03192 0.999488
1.01562 0.998442 1.01819 0.999032
1.03167 0.992051 1.04047 0.999487
1.0125 0.982827 1.0309 0.999319
1.00597 0.996837 1.01041 0.998772
1.01023 1 1.01146 0.998781
1.00973 0.999437 1.01248 0.997844
1.02239 1.00094 1.02537 0.996166
0.996703 1.00005 0.99888 0.997769
1.00553 1.0016 1.00811 0.995849
1.00555 1.00255 1.0081 0.99494
1.00843 1.01147 1.00191 0.9951
1.01004 1.01314 1.00108 0.995867
1.00533 1.0074 1.00252 0.995437
1.00086 1.00361 1.0014 0.995869
1.0126 1.01498 1.0011 0.996563
1.01826 1.02152 1.00048 0.996324
1.00502 1.00318 1.00464 0.99721
1.01361 1.01395 1.00274 0.996943
1.0139 1.0164 1.00117 0.996371
1.0117 1 1.01378 0.997948
1.00837 1.00161 1.00909 0.997681
1.00984 1.00856 1.00383 0.997449
1.00243 1 1.00345 0.998979
1.0088 1 1.01055 0.998267
1.00941 1 1.01149 0.997937
1.00376 1 1.00529 0.998486
1.0003 1 1.00113 0.999171
0.999917 1 1 0.999917
0.999567 1 1.00024 0.999325
0.999944 1 1 0.999944
1 1 1 1
0.999957 1 1 0.999957
1 1 1 1
1 1 1 1
0.998566 1 1 0.998566
0.99938 1 1 0.99938
0.998651 1 1 0.998651
0.999992 1 1 0.999992
0.99946 1 1 0.99946
0.998817 1 1 0.998817
1 1 1 1
1 1 1 1
0.999555 1 1 0.999555
1 1 1 1
1 1 1 1
1 1 1 1
0.790371 0.905271 0.921281 0.947677
0.772135 0.882896 0.923817 0.946667
0.781538 0.897017 0.928978 0.937873
1.00701 1 1.00896 0.998064
1.00277 1 1.00481 0.997968
0.998323 1 1 0.998323
0.999447 1 1.00127 0.998177
0.998202 1 1 0.998202
1.00051 1 1.00234 0.998171
0.998239 1 1 0.998239
0.752206 0.890279 0.904781 0.933828
0.786067 0.916128 0.914068 0.938696
0.752379 0.880652 0.911428 0.937368
0.756453 0.923969 0.884014 0.926116
0.85276 0.923072 0.941848 0.980868
0.85314 0.899336 0.983057 0.964983
0.798741 0.890033 0.950256 0.944406
0.847701 0.915384 0.945033 0.979924
0.877382 0.905435 1.00749 0.961815
0.845263 0.929458 0.963916 0.943459
0.716066 0.883157 0.876071 0.925498
0.891163 0.925966 0.979143 0.982915
0.891882 0.915393 1.01324 0.961582
0.780369 0.879572 0.945136 0.938717
0.665284 0.832081 0.870772 0.918199
1.02617 0.999948 1.02789 0.998383
1.00029 1 1.00223 0.998061
1.00264 1 1.00486 0.997798
0.998029 1 1 0.998029
0.954187 0.956398 0.999769 0.997919
1.00571 0.970353 1.0373 0.999162
1.00894 1 1.01086 0.998101
1.01641 0.996123 1.02211 0.998289
1.04332 0.990382 1.0547 0.998821
1.0136 0.998279 1.01695 0.99842
1.03836 0.978399 1.06258 0.998779
0.968262 0.951992 1.02133 0.995853
1.01188 0.963815 1.05048 0.999427
1.01212 0.982116 1.03168 0.998906
0.953145 0.926432 1.03381 0.995187
1.00347 0.953993 1.05262 0.999283
0.770335 0.878885 0.924043 0.948539
0.803874 0.911528 0.926415 0.951947
0.77526 0.88216 0.925815 0.94924
0.98654 0.957165 1.03089 0.999805
0.940981 0.940063 1.00726 0.993765
0.789949 0.901926 0.922208 0.949728
0.914693 0.934679 1.01746 0.961819
0.790082 0.883221 0.948066 0.943548
0.758073 0.886034 0.912358 0.937768
0.640383 0.802948 0.868943 0.917827
1.00572 0.956041 1.05334 0.998696
0.771868 0.884645 0.921449 0.946896
0.750164 0.881849 0.915123 0.929572
0.913501 0.929357 0.994231 0.988642
0.577094 0.739648 0.85167 0.916115
0.715283 0.826158 0.922554 0.938476
0.876824 0.906977 1.00471 0.962222
0.992871 0.959971 1.03778 0.996625
0.780146 0.902536 0.921405 0.938125
0.630472 0.77082 0.888017 0.921067
0.68749 0.815678 0.890633 0.946343
0.829204 0.879642 0.975419 0.966416
0.869032 0.904814 0.978389 0.981668
1.03151 0.981816 1.05105 0.99959
1.01286 0.97643 1.03784 0.999494
0.979744 0.974412 1.00621 0.999267
1.01712 0.979604 1.03892 0.999402
1.0031 0.988584 1.01583 0.998878
1.00333 1.0008 1.00487 0.997664
1.00709 1.00003 1.00948 0.997604
1.02077 1.00095 1.02387 0.996023
1.01047 1.00095 1.01446 0.995123
1.00709 1.00186 1.00937 0.99589
1.00628 1.00236 1.00912 0.994847
1.00174 1.0026 1.00448 0.994684
1.03197 1.0368 1 0.995335
1.01867 1.02257 1.00077 0.995425
1.00878 1.0116 1.00218 0.995042
1.01042 1.01417 1.00013 0.996171
1.00859 1.01196 1.00074 0.99593
1.00542 1.00719 1.00287 0.995379
1.01056 1.01284 1.00112 0.996637
1.01202 1.01444 1.00108 0.996534
1.0188 1.02203 1.00043 0.996414
1.00659 1.00102 1.00806 0.997527
1.00603 1.0041 1.00463 0.997297
1.01524 1.01535 1.00288 0.997025
1.00784 1 1.00918 0.998674
1.01059 1.00003 1.01263 0.997955
1.00881 1.00264 1.0085 0.997676
0.999855 1 1 0.999855
1.00319 1 1.00422 0.998973
1.00777 1 1.00952 0.998266
1.00079 1 1.00163 0.999166
0.999906 1 1 0.999906
1 1 1 1
0.999937 1 1 0.999937
1 1 1 1
1 1 1 1
1.00812 1 1.01008 0.998064
1.0017 1 1.00332 0.998381
0.999224 1 1 0.999224
0.998852 1 1.00029 0.998562
0.999971 1 1 0.999971
0.999382 1 1 0.999382
0.99868 1 1 0.99868
1 1 1 1
0.999995 1 1 0.999995
0.999506 1 1 0.999506
1 1 1 1
1 1 1 1
1 1 1 1
0.762459 0.879393 0.917724 0.944759
0.787227 0.90186 0.920233 0.948557
0.772729 0.886008 0.921299 0.946649
1.00852 1 1.01047 0.998075
1.0051 1.00009 1.00704 0.997981
1.00035 1 1.00243 0.997927
1.00928 1 1.01131 0.997989
1.00794 1.00025 1.00975 0.997958
1.00093 1 1.00278 0.99816
0.998208 1 1 0.998208
1.00013 1 1.00196 0.998174
0.998255 1 1 0.998255
1.01598 1 1.0177 0.998315
0.74111 0.872176 0.913788 0.929893
0.751331 0.887371 0.906492 0.934033
0.787012 0.915727 0.913367 0.940958
0.717286 0.884075 0.876349 0.925819
0.84445 0.930393 0.965672 0.939892
0.842932 0.910862 0.945842 0.978412
0.882714 0.908734 1.00559 0.965964
0.88123 0.926474 0.971139 0.979433
0.898315 0.925945 1.00415 0.966147
0.796051 0.883034 0.957635 0.941377
0.666651 0.840256 0.865199 0.917003
0.896955 0.916045 0.997102 0.982007
0.883738 0.905314 1.00965 0.96684
0.703647 0.807312 0.922272 0.94505
0.609457 0.770484 0.858964 0.920882
1.02432 0.999707 1.0257 0.998952
1.02674 0.999655 1.02874 0.998396
1.00308 1 1.005 0.99809
0.968316 0.951734 1.02334 0.994214
1.01309 0.95758 1.0584 0.999587
1.0146 0.999938 1.01626 0.998422
1.04393 0.977978 1.06875 0.998767
1.01524 0.986327 1.03043 0.998912
1.00985 0.962147 1.05034 0.999277
0.955814 0.933274 1.02916 0.995132
1.0136 0.988602 1.02596 0.999345
0.966647 0.951814 1.0197 0.995963
0.789341 0.900639 0.930989 0.94139
0.776033 0.882754 0.926364 0.948984
0.800696 0.909138 0.923614 0.953558
1.00709 0.963835 1.04605 0.998877
0.908373 0.92631 0.996515 0.984066
0.77759 0.889273 0.923464 0.946882
0.879471 0.911071 1.00214 0.963252
0.712319 0.8118 0.928843 0.944677
0.741371 0.876242 0.910289 0.929463
0.584847 0.757127 0.848083 0.910825
0.990219 0.958705 1.03609 0.996895
0.779743 0.897984 0.925611 0.938111
0.628545 0.771221 0.886228 0.919627
0.881184 0.916857 0.977444 0.98327
0.698675 0.821315 0.90099 0.94416
0.828706 0.890843 0.965368 0.963622
0.945527 0.944753 1.00589 0.99496
0.662319 0.789494 0.905915 0.926043
0.698642 0.820341 0.899183 0.947136
0.83829 0.911203 0.954461 0.963875
0.846252 0.90576 0.949319 0.98418
1.01286 0.974389 1.04001 0.999501
0.982672 0.970498 1.01331 0.999242
0.993327 0.989246 1.00572 0.998416
0.999752 0.978624 1.02263 0.998979
1.00256 1.0003 1.00451 0.997758
0.998283 1.00254 0.999119 0.996634
1.01906 1.00073 1.02253 0.995877
1.0093 1.00131 1.01292 0.995123
0.999495 1.00267 1.00137 0.995469
1.00641 1.00201 1.00969 0.994755
1.00206 1.00367 1.0037 0.994722
1.02825 1.03282 1 0.995576
1.05751 1.06178 0.999937 0.996035
1.04299 1.04776 1.00002 0.995433
1.03222 1.03703 1 0.995367
1.02315 1.02756 1 0.995718
1.01746 1.02109 1.00107 0.995368
1.00983 1.01245 1.00244 0.994983
1.0165 1.02026 1 0.996315
1.00882 1.0126 1.00002 0.996245
1.00689 1.01062 1.00032 0.995994
1.0037 1.00458 1.00208 0.997056
1.00789 1.00993 1.0013 0.996683
1.01201 1.01445 1.0011 0.996505
1.0101 1.00011 1.01181 0.998195
1.00818 1.00192 1.00874 0.997528
1.00702 1.00484 1.0048 0.997383
1.00075 1 1.00099 0.999761
1.00726 1 1.00861 0.998667
1.00983 1.00013 1.01176 0.997963
0.999978 1 1 0.999978
1.00003 1 1.00019 0.99984
1.0037 1 1.00474 0.998968
0.999894 1 1 0.999894
1 1 1 1
1 1 1 1
1.00724 1.00079 1.00855 0.997916
1.00628 1 1.0081 0.998197
1.00921 1 1.0112 0.99804
0.999921 1 1.00087 0.999053
1.00126 1 1.00289 0.998377
0.999938 1 1 0.999938
0.999238 1 1.00001 0.999229
0.998655 1 1.0001 0.998557
1 1 1 1
0.999978 1 1 0.999978
0.999385 1 1 0.999385
1 1 1 1
0.999998 1 1 0.999998
1 1 1 1
0.77377 0.891619 0.921715 0.941535
0.766303 0.882553 0.91906 0.944748
0.787934 0.898001 0.92416 0.949436
0.999621 1.00135 1.00039 0.997884
1.00716 1 1.00909 0.998085
1.00364 1 1.00565 0.997996
1.00506 1 1.00711 0.997965
1.00041 1.00005 1.00241 0.997955
1.00445 1 1.00635 0.998108
1.01286 1.00031 1.0151 0.997481
1.01776 1 1.0197 0.998099
1.00018 1 1.00201 0.998178
0.99827 1 1 0.99827
1.01723 1 1.01897 0.998297
1.03253 1.0006 1.03344 0.99851
0.644096 0.779902 0.896033 0.921694
0.753918 0.884915 0.916517 0.92957
0.7521 0.886756 0.907896 0.93419
0.665627 0.837381 0.862958 0.921124
0.792446 0.881355 0.956321 0.940189
0.893899 0.917727 1.01286 0.961668
0.881753 0.921117 0.976641 0.980161
0.896976 0.917462 0.993478 0.984089
0.598164 0.764221 0.854745 0.915723
0.874726 0.906084 1.00256 0.962922
0.715408 0.822865 0.924295 0.940622
0.896587 0.925811 0.982473 0.98571
0.857549 0.90191 0.981907 0.968333
0.686602 0.813509 0.893184 0.944935
0.992106 1.00021 0.992365 0.999529
1.02414 1.00006 1.02514 0.998957
1.02671 0.99997 1.02838 0.998407
0.957174 0.936559 1.02698 0.995159
1.01692 0.971036 1.04801 0.999273
1.01782 0.991825 1.02732 0.998919
1.01232 0.98811 1.02517 0.999344
0.962688 0.950543 1.01683 0.99601
0.987704 0.982258 1.00819 0.997372
0.698775 0.807163 0.931724 0.929157
0.785921 0.899431 0.926211 0.943411
0.777671 0.885117 0.925429 0.949407
0.991405 0.958485 1.03739 0.997068
0.872347 0.913854 0.969947 0.984158
0.777614 0.893524 0.927639 0.938164
0.841763 0.886917 0.984284 0.964244
0.703823 0.837705 0.893891 0.939913
0.639623 0.783887 0.883965 0.923072
0.944812 0.939324 1.01087 0.995024
0.666228 0.789855 0.907432 0.929526
0.692399 0.821046 0.894619 0.942651
0.842297 0.907564 0.946554 0.980489
0.856338 0.924199 0.956956 0.96825
0.940423 0.95627 0.985763 0.997632
0.717881 0.831545 0.916602 0.941859
0.894931 0.96727 0.95369 0.970141
0.846757 0.919159 0.939832 0.980207
0.985906 0.968017 1.01927 0.999221
0.984291 0.9895 0.996229 0.998502
0.995083 1.0008 0.996838 0.997444
1.00271 1.00036 1.00451 0.997852
1.00072 1.00264 1.00149 0.996602
1.00125 1.0053 0.999428 0.996539
1.00831 1.00183 1.0114 0.995123
0.999315 1.00219 1.00167 0.995473
1.02991 1.03623 0.997399 0.996494
1.00234 1.00442 1.00319 0.994759
1.02675 1.0313 1 0.995586
1.05712 1.06264 0.998115 0.996678
1.05731 1.06186 0.998953 0.996766
1.05868 1.06298 1 0.99595
1.05833 1.06263 0.999867 0.996084
1.04496 1.04951 1 0.995662
1.04104 1.04575 1 0.995501
1.03122 1.03599 1 0.995399
1.03262 1.03674 1 0.996024
1.02389 1.02812 1.00014 0.995742
1.01625 1.01953 1.00148 0.995311
1.01162 1.01502 1 0.996649
1.01497 1.01873 1 0.996311
1.00699 1.01072 1 0.996318
1.00396 1.00101 1.00523 0.997725
1.00614 1.00676 1.00234 0.997049
1.00477 1.00661 1.00145 0.99673
1.00235 1 1.00279 0.99956
1.00847 1.00056 1.00973 0.998192
1.00898 1.00281 1.00864 0.997529
1 1 1 1
1.0014 1 1.00168 0.99972
1.0065 1 1.00785 0.998661
1 1 1 1
1.00034 1 1.00052 0.999823
1 1 1 1
1.00164 1.00206 1.00185 0.99774
1.00594 1.00045 1.00761 0.997893
1.00853 1 1.01051 0.998037
1.00286 1 1.00399 0.998875
1.00741 1 1.00923 0.998194
1.01163 1 1.01364 0.998017
0.999889 1 1 0.999889
0.999649 1 1.00059 0.999058
1.00168 1 1.00331 0.998373
1 1 1 1
0.999948 1 1 0.999948
0.999233 1 1 0.999233
1 1 1 1
0.999985 1 1 0.999985
1 1 1 1
0.670802 0.793145 0.916175 0.923132
0.777023 0.894881 0.922169 0.941581
0.77035 0.886128 0.92019 0.944743
1.00256 1.00075 1.00396 0.997857
1.00755 1.00406 1.00603 0.997467
1.01139 1.001 1.01273 0.997676
1.00573 1 1.00781 0.997941
1.00161 1.00119 1.00244 0.997982
1.00534 1 1.0071 0.998255
1.01703 1 1.01903 0.998038
1.01331 1.00082 1.01493 0.997588
1.018 1.0018 1.01865 0.997574
0.981955 1.00152 0.981481 0.998965
1.01597 1 1.01772 0.998279
1.02786 1.00021 1.0292 0.998489
0.695443 0.818429 0.904328 0.939625
0.625025 0.762581 0.89231 0.918536
0.762105 0.891921 0.919338 0.929423
0.587304 0.757517 0.851603 0.910402
0.723719 0.831305 0.92096 0.945299
0.861164 0.898732 0.993358 0.964606
0.901465 0.92136 0.997084 0.981268
0.884054 0.917696 0.979814 0.983186
0.691366 0.809387 0.905587 0.94324
0.837106 0.892358 0.972721 0.964391
0.865557 0.921893 0.95335 0.984833
0.830797 0.918139 0.938201 0.964474
0.998835 1 0.99981 0.999024
0.993109 1.00015 0.993479 0.999477
1.02453 0.999967 1.02563 0.998963
0.956298 0.946986 1.01382 0.996065
1.01055 0.986401 1.02516 0.999344
0.989157 0.984351 1.00758 0.997324
0.974091 0.988911 0.988689 0.996282
0.735886 0.846046 0.9182 0.947283
0.695845 0.804559 0.930467 0.929509
0.788054 0.90162 0.924549 0.945373
0.948187 0.946008 1.00713 0.995213
0.844868 0.90491 0.951812 0.980917
0.667424 0.789838 0.908981 0.929628
0.824954 0.908705 0.941627 0.964113
0.70829 0.826391 0.904823 0.947244
0.942625 0.959624 0.985892 0.996343
0.728429 0.841501 0.916078 0.944931
0.88476 0.964206 0.95104 0.964843
0.847606 0.920482 0.93682 0.98293
0.952384 0.980629 0.973683 0.997447
0.904365 0.977615 0.954263 0.969411
0.89921 0.967798 0.942483 0.985832
0.975157 0.988461 0.987955 0.998569
0.990274 1.00088 0.99197 0.997414
0.982478 1.00859 0.97679 0.99726
1.00215 1.00294 1.00265 0.996572
1.0006 1.00544 0.998648 0.996532
1.02473 1.04347 0.984778 0.997223
0.999146 1.00182 1.00186 0.995479
1.02804 1.03556 0.996248 0.996471
1.04424 1.06263 0.985357 0.997291
1.02614 1.03068 1 0.995595
1.05557 1.06202 0.997242 0.996669
1.05055 1.06285 0.991129 0.997277
1.05194 1.05959 0.995609 0.997158
1.0581 1.0631 0.998451 0.996842
1.05566 1.05933 0.999919 0.996615
1.0596 1.06384 1 0.996012
1.05879 1.06307 1 0.995973
1.05995 1.06428 0.999797 0.996133
1.04748 1.0518 1 0.995884
1.04672 1.05125 1 0.99569
1.03922 1.04385 1 0.99557
1.02894 1.03272 1 0.996338
1.03249 1.03661 1 0.996022
1.02453 1.02871 1.00017 0.995765
1.00107 1.00337 1.00032 0.997388
1.01316 1.01657 1 0.996646
1.01438 1.01814 1 0.996308
1.00218 1 1.00291 0.99927
1.00454 1.00164 1.00518 0.997724
1.00915 1.00912 1.003 0.997042
1 1 1 1
1.00277 1 1.00324 0.999534
1.00742 1.00078 1.00846 0.998189
0.99998 1 1 0.99998
1.00204 1 1.00234 0.999707
1 1 1 1
1.00063 1.00304 1 0.997595
1.00172 1.00107 1.00289 0.997758
1.00554 1 1.00768 0.997878
1.00375 1 1.0059 0.997869
1.00898 1 1.01096 0.998039
1.00609 1 1.00742 0.998678
1.00013 1 1.00031 0.999818
1.00199 1 1.00312 0.998877
1.00771 1 1.00954 0.998192
1 1 1 1
0.999904 1 1 0.999904
0.999369 1 1.00031 0.999063
1 1 1 1
0.999958 1 1 0.999958
1 1 1 1
0.722237 0.83457 0.916033 0.944726
0.673001 0.793548 0.9175 0.92435
0.777941 0.896363 0.921688 0.941627
1.00494 1.00009 1.00703 0.99783
1.0141 1.00043 1.01623 0.997481
1.00476 1.00303 1.0042 0.997537
1.00586 1.00776 1.00157 0.996542
1.01442 1.00223 1.01462 0.997574
1.01529 1 1.01734 0.997981
1.01118 1.00033 1.01319 0.997695
1.01921 1.00147 1.02008 0.997682
0.999739 1.00394 0.998474 0.997337
0.973615 1.0012 0.973923 0.998482
0.971618 1.00035 0.973534 0.997683
0.983942 1.00097 0.983981 0.998996
1.02305 1.00047 1.02414 0.998469
0.87486 0.953601 0.947869 0.967885
0.688425 0.812495 0.900107 0.94133
0.621238 0.759824 0.888754 0.919949
0.68922 0.816264 0.899188 0.939024
0.845968 0.902131 0.971523 0.96523
0.889314 0.914553 0.98645 0.985759
0.865244 0.920125 0.953023 0.986707
0.864153 0.92892 0.959687 0.969354
0.889002 0.960626 0.938756 0.985816
0.993119 1.00132 0.993582 0.998218
0.998169 1 0.999167 0.999001
0.993418 1 0.993989 0.999425
0.992141 0.988132 1.00675 0.997325
0.980073 0.991374 0.991905 0.996669
0.884446 0.96608 0.946225 0.967529
0.739241 0.844509 0.923506 0.947855
0.691639 0.79997 0.929748 0.92991
0.945693 0.965462 0.984474 0.994972
0.855512 0.931069 0.937194 0.980425
0.722499 0.837236 0.913918 0.944239
0.876629 0.951884 0.949946 0.969466
0.959681 0.980951 0.980728 0.997541
0.914014 0.987945 0.953838 0.969942
0.896788 0.964204 0.946083 0.983086
0.963124 1.00305 0.963182 0.996898
0.931566 0.99169 0.948679 0.99019
0.989381 1.0028 0.989182 0.997411
0.979777 1.00834 0.974389 0.997214
0.992361 1.03943 0.957042 0.997569
0.999606 1.00498 0.998123 0.996524
1.02713 1.0449 0.98576 0.997191
1.03972 1.06986 0.974172 0.997588
1.02584 1.03472 0.994957 0.996449
1.04422 1.06278 0.985229 0.997265
1.03705 1.0618 0.979125 0.997517
1.05329 1.06071 0.99633 0.996661
1.0503 1.06276 0.990989 0.997254
1.04717 1.06321 0.987521 0.997358
1.05105 1.05951 0.99478 0.997215
1.05089 1.05763 0.996648 0.996968
1.05847 1.06396 0.997916 0.996918
1.05554 1.05921 0.999932 0.996607
1.0566 1.06043 1 0.996387
1.0568 1.06104 1 0.996009
1.05934 1.06359 1 0.996
1.05879 1.06305 1 0.995997
1.04389 1.04792 1 0.996148
1.04781 1.05214 1 0.995885
1.04877 1.05328 1 0.995718
1.00859 1.0115 1 0.997126
1.02738 1.03115 1 0.996338
1.03193 1.03606 1 0.99602
1.0003 1 1.00136 0.998944
1.00346 1.00549 1.00059 0.99739
1.01416 1.01758 1 0.996644
1 1 1 1
1.00179 1 1.00255 0.999244
1.00494 1.00254 1.00469 0.997723
1 1 1 1
1.00302 1 1.00351 0.999509
1 1 1 1
1.01272 1.01566 1.00041 0.996687
1.00132 1.00371 1.00004 0.99758
1.0013 1.00142 1.00226 0.997622
1.00238 1 1.00461 0.997777
1.00483 1 1.00701 0.99784
1.00724 1 1.00885 0.998409
1.01061 1 1.0126 0.998041
1.00649 1 1.00783 0.998677
1.00156 1 1.00184 0.999718
1 1 1 1
0.999919 1 1.00009 0.999833
1.00128 1 1.0024 0.998878
1 1 1 1
0.999917 1 1 0.999917
1 1 1 1
0.904933 0.97718 0.953267 0.971465
0.728038 0.843081 0.913081 0.945748
0.673477 0.79414 0.919434 0.92237
1.01674 1.00006 1.01944 0.997285
1.00268 1.00269 1.00239 0.997608
1.01203 1.00224 1.01231 0.997493
1.00687 1.00864 1.00162 0.996641
1.02269 1.02639 1.00016 0.99623
1.00095 1.00386 1 0.997101
1.02174 1.00143 1.02254 0.997786
1.00073 1.00477 0.99882 0.997153
0.980543 1.00232 0.979775 0.998464
0.995939 1.00294 0.995604 0.997404
0.970912 1.00345 0.969824 0.997681
0.99278 1.00152 0.994045 0.997216
0.973022 1.00082 0.974381 0.997789
0.987872 1.00025 0.98859 0.999028
0.901069 0.970969 0.941429 0.985747
0.884901 0.963371 0.949295 0.967609
0.698799 0.813183 0.908061 0.946343
0.849001 0.922762 0.954523 0.9639
0.876312 0.922046 0.962195 0.987741
0.890236 0.952297 0.944522 0.98974
0.972959 1.00377 0.972208 0.997017
0.990791 1.0005 0.992138 0.998145
0.997086 0.999658 0.998447 0.998978
0.981652 0.992582 0.991926 0.997038
0.922524 0.973151 0.96118 0.986263
0.899 0.973334 0.949666 0.972583
0.728928 0.839759 0.919831 0.943674
0.957682 0.976387 0.983165 0.997638
0.901849 0.970393 0.943693 0.984817
0.914646 0.985823 0.956171 0.970328
0.957479 1.00108 0.959343 0.99698
0.933255 0.988044 0.954746 0.989319
0.959787 1.02486 0.93923 0.997103
0.978398 1.01924 0.964063 0.995708
0.975718 1.00808 0.970653 0.99716
0.989344 1.03703 0.956344 0.997566
1.00687 1.0693 0.943923 0.997549
1.03016 1.04695 0.986768 0.99716
1.03905 1.0694 0.973986 0.997566
1.04042 1.06821 0.976461 0.997467
1.04475 1.06321 0.985354 0.997239
1.03793 1.06141 0.980326 0.997497
1.05051 1.0701 0.984336 0.99732
1.05038 1.06292 0.990943 0.997232
1.04561 1.06092 0.988189 0.99735
1.0505 1.06277 0.991345 0.997079
1.05044 1.05967 0.994003 0.997271
1.05098 1.05764 0.99667 0.997015
1.05557 1.06008 0.99911 0.996634
1.05559 1.05924 0.999961 0.996598
1.05686 1.0607 1 0.996376
1.05765 1.06164 1 0.996241
1.05021 1.05431 1 0.996114
1.057 1.06125 1 0.995998
1.05902 1.06328 1 0.995987
1.02101 1.02417 1 0.996917
1.0424 1.04643 1 0.996154
1.04815 1.05248 1 0.995887
0.999509 1.00056 1.00027 0.998679
1.01097 1.01388 1.00001 0.997124
1.02597 1.02974 1 0.996339
1 1 1 1
0.999914 1.00002 1.00097 0.998926
1.00586 1.00765 1.00083 0.997391
1 1 1 1
1.00152 1 1.00231 0.99922
1 1 1 1
1.02645 1.03027 1 0.996299
1.01437 1.01753 1.00017 0.99672
1.01025 1.01258 1.00066 0.99704
1.00122 1.00362 1.00004 0.997566
1.00108 1.00132 1.0022 0.997566
1.00498 1.00181 1.00512 0.998056
1.00394 1 1.00615 0.997802
1.00773 1.00002 1.00932 0.998411
1.00336 1 1.00378 0.99958
1.00708 1 1.00842 0.998676
1.00116 1 1.00143 0.999729
1 1 1 1
1 1 1 1
0.999848 1 1 0.999848
1 1 1 1
0.91327 0.971447 0.952813 0.98667
0.8939 0.975357 0.947895 0.966863
0.725719 0.83612 0.915349 0.948229
1.04249 1.04647 1.00007 0.996137
1.00937 1.00188 1.01008 0.997413
1.00801 1.00975 1.00154 0.99674
1.00134 1.00425 1 0.997107
1.02133 1.02479 1.00042 0.99621
1.00797 1.01117 0.999751 0.997087
1.00119 1.00456 0.999676 0.996968
0.98371 1.00247 0.982812 0.998446
0.993794 1.00331 0.993078 0.997417
0.964664 1.00246 0.964681 0.997529
1.01077 1.01655 0.997594 0.996706
0.993554 1.00728 0.989066 0.997279
0.992766 1.00213 0.993445 0.99719
0.975444 1.00134 0.976198 0.997894
0.96812 1.00611 0.96461 0.997542
0.894079 0.966091 0.940234 0.984287
0.881807 0.96464 0.94464 0.967703
0.887108 0.945465 0.950282 0.987367
0.975833 1.00484 0.973154 0.997926
0.990783 1.0002 0.992507 0.998063
0.976452 1.00767 0.973869 0.99502
0.908172 0.956852 0.960945 0.987699
0.886556 0.970881 0.943653 0.967671
0.956442 0.998843 0.960373 0.99706
0.941447 0.990152 0.962147 0.988219
0.963526 1.02661 0.94114 0.99725
0.9827 1.01946 0.967779 0.996033
0.991169 1.04698 0.9492 0.997364
1.05281 1.07911 0.978334 0.997234
0.985789 1.03401 0.955691 0.997562
1.01267 1.0708 0.948049 0.997531
1.03193 1.08252 0.955827 0.997319
1.03775 1.0685 0.973608 0.997543
1.03705 1.06618 0.975155 0.997464
1.05092 1.07797 0.977641 0.997202
1.03844 1.06083 0.981367 0.997477
1.04826 1.06841 0.98376 0.997334
1.05344 1.06896 0.988421 0.997028
1.04393 1.05856 0.988806 0.997343
1.05087 1.06312 0.991371 0.997077
1.05628 1.06393 0.996031 0.996759
1.05095 1.05757 0.99667 0.997061
1.05603 1.06049 0.999114 0.99668
1.05989 1.06376 1 0.996359
1.0571 1.06096 1 0.996365
1.05737 1.06137 1 0.996229
1.05234 1.05638 1 0.996177
1.02897 1.03227 1 0.996804
1.05007 1.05416 1 0.99612
1.05715 1.06141 1 0.995987
1.00196 1.00343 1 0.998534
1.02125 1.02441 1 0.996916
1.04113 1.04514 1 0.99616
1 1 1 1
1.00007 1.0013 1.0001 0.998665
1.01345 1.01638 1 0.997124
1 1 1 1
0.999414 1.00003 1.00048 0.998908
1 1 1 1
1.04117 1.0453 1 0.996058
1.02785 1.03167 1 0.996293
1.02492 1.0284 1 0.996619
1.01643 1.01973 1.00001 0.996753
1.01137 1.01382 1.00056 0.997027
1.00717 1.00705 1.00241 0.997703
1.00062 1.00115 1.00196 0.997511
1.00492 1.00099 1.00588 0.998059
1.00231 1 1.00292 0.999393
1.00764 1 1.00924 0.998412
1.0025 1 1.00291 0.999593
1 1 1 1
1.00049 1 1.00075 0.99974
1 1 1 1
1 1 1 1
0.971287 1.01057 0.96388 0.997148
0.907719 0.969709 0.951487 0.983801
0.893368 0.968801 0.948878 0.971819
1.03332 1.03678 1.00001 0.996651
1.05235 1.05647 0.999785 0.996314
1.04055 1.04438 1.00012 0.996219
1.00216 1.00506 1 0.997111
1.01973 1.02289 1.00073 0.996189
1.01031 1.01441 0.998883 0.997073
1.03263 1.04043 0.995839 0.996645
0.993142 1.0045 0.991239 0.997431
0.961422 1.00189 0.962133 0.997377
1.0118 1.01885 0.996243 0.99682
1.02472 1.04246 0.986355 0.996578
0.996286 1.02738 0.972203 0.997462
0.998884 1.00958 0.992155 0.997224
0.993668 1.00268 0.993832 0.997162
0.971731 1.00762 0.966468 0.997847
0.899377 0.970095 0.943373 0.982754
0.976008 1.00466 0.97258 0.998866
1.03195 1.06111 0.974641 0.997818
0.974463 1.00634 0.97303 0.995163
0.911203 0.966784 0.956539 0.985332
0.966428 1.02877 0.941859 0.997389
0.986747 1.0198 0.971105 0.996375
0.986243 1.04742 0.943913 0.997537
1.0509 1.07911 0.976539 0.997257
1.04713 1.0914 0.962082 0.997247
1.08778 1.11512 0.978036 0.997394
1.01836 1.07313 0.951327 0.997513
1.03811 1.08477 0.959561 0.997318
1.05401 1.08767 0.971853 0.997113
1.03386 1.06428 0.973888 0.99746
1.05077 1.07712 0.978271 0.997202
1.05389 1.07465 0.983636 0.996995
1.04609 1.06676 0.983227 0.997348
1.05412 1.06962 0.988456 0.997025
1.05672 1.06814 0.992512 0.99677
1.05124 1.06348 0.991396 0.997075
1.05694 1.06458 0.996053 0.996757
1.06294 1.06715 0.999625 0.996421
1.05648 1.06089 0.999117 0.996726
1.05947 1.06333 1 0.996374
1.05624 1.06028 1 0.996195
1.05709 1.0611 1 0.996217
1.05225 1.05629 1 0.996181
1.03042 1.03377 1 0.996753
1.00544 1.00695 1 0.9985
1.02829 1.03158 1 0.996804
1.04999 1.05408 1 0.996126
1 1 1 1
1.00287 1.00435 1 0.998522
1.02115 1.02431 1 0.996916
1 1 1 1
1.00046 1.00181 1 0.99865
1 1 1 1
1.05013 1.05425 1 0.996095
1.04073 1.04485 1 0.996059
1.03719 1.041 1 0.996337
1.0284 1.03224 1 0.996286
1.02507 1.02855 1 0.996624
1.01279 1.01503 1.00039 0.997398
1.01192 1.01448 1.00046 0.997015
1.00541 1.00502 1.00268 0.997705
1.0005 1 1.00138 0.999123
1.00556 1.00029 1.00723 0.998062
1.00257 1 1.00316 0.999411
1 1 1 1
1.0021 1 1.0025 0.999605
1 1 1 1
1 1 1 1
1.00122 1.04687 0.958444 0.997865
0.968408 1.00952 0.962957 0.996177
0.90976 0.971639 0.951014 0.984544
1.04734 1.05241 0.998646 0.996541
1.03431 1.0376 0.999969 0.996862
1.06505 1.07037 0.998585 0.996442
1.05263 1.05701 0.999554 0.996296
1.03875 1.04246 1.00013 0.996303
1.0562 1.07108 0.989641 0.996439
1.01256 1.01765 0.997929 0.997059
1.03237 1.03964 0.996409 0.996583
1.04628 1.07881 0.973023 0.996737
1.01009 1.02093 0.992426 0.996934
1.02581 1.04317 0.98681 0.996503
0.997152 1.0308 0.969781 0.997502
1.00129 1.00994 0.994249 0.997165
0.976079 1.00921 0.968988 0.998121
1.07475 1.10599 0.974257 0.997428
1.03666 1.06201 0.978238 0.997843
0.973084 1.00515 0.972659 0.995307
0.982271 1.04726 0.940101 0.997708
1.04796 1.07847 0.974354 0.997281
1.04183 1.0892 0.959129 0.997271
1.09176 1.11894 0.978264 0.997386
1.07207 1.10258 0.97499 0.997273
1.04404 1.08662 0.963397 0.997318
1.05476 1.08686 0.973261 0.997123
1.05454 1.07913 0.980125 0.997031
1.05063 1.07625 0.978933 0.997203
1.05418 1.07463 0.983943 0.996975
1.05637 1.07065 0.989875 0.996759
1.05482 1.07028 0.988498 0.997022
1.05717 1.0686 0.99251 0.996765
1.06533 1.0711 0.998137 0.996465
1.05759 1.06521 0.996074 0.996755
1.06283 1.06706 0.999615 0.996423
1.06143 1.06548 1 0.996194
1.05909 1.06293 1 0.996388
1.05599 1.06001 1 0.996201
1.0311 1.03452 1 0.996696
1.05215 1.05617 1 0.996185
1.0309 1.03426 1 0.996753
1.00718 1.00841 1 0.998778
0.999501 1 1 0.999501
1.00608 1.00747 1 0.998617
1.02757 1.03086 1 0.996804
1 1 1 1
1.00409 1.00558 1 0.99851
1 1 1 1
1.06899 1.07419 0.998607 0.996548
1.05791 1.06185 1 0.996288
1.05084 1.05494 1 0.99611
1.04426 1.04821 1 0.996232
1.04093 1.04505 1 0.996061
1.03801 1.04183 1 0.996331
1.01684 1.01977 1 0.99713
1.02584 1.02931 1 0.996629
1.01028 1.01234 1.00056 0.997399
0.999334 1.0004 1.00012 0.998809
1.00349 1.00296 1.00282 0.997707
1.00091 1 1.00177 0.999142
1 1 1 1
1.00243 1 1.003 0.999429
1 1 1 1
1 1 1 1
1.06271 1.10177 0.967274 0.997173
1.00807 1.05584 0.956772 0.997895
0.965443 1.00962 0.960835 0.995224
1.06039 1.07105 0.993546 0.996481
1.04318 1.04839 0.998431 0.996587
1.03513 1.03821 0.999959 0.997072
1.06356 1.06868 0.998743 0.996456
1.05289 1.05754 0.999323 0.996277
1.06274 1.09132 0.977017 0.996716
1.05244 1.06769 0.989283 0.996398
1.03228 1.03889 0.997108 0.99652
1.04339 1.07566 0.973178 0.996735
1.03053 1.04672 0.988056 0.996428
1.00228 1.03925 0.966795 0.997551
1.07011 1.09593 0.979008 0.997378
1.07698 1.10823 0.974271 0.997466
1.0411 1.06326 0.981253 0.997869
1.03759 1.08802 0.956243 0.997292
1.09666 1.12327 0.978875 0.997379
1.07261 1.104 0.974219 0.997278
1.06109 1.08047 0.984876 0.997143
1.05547 1.086 0.974686 0.997133
1.05504 1.07898 0.98074 0.997017
1.05802 1.0726 0.989573 0.996801
1.05451 1.07467 0.984236 0.996956
1.05695 1.07122 0.989889 0.996758
1.06643 1.07473 0.99577 0.996489
1.05764 1.06908 0.992511 0.996761
1.06498 1.07076 0.998126 0.996465
1.0649 1.06898 1 0.996183
1.06275 1.06698 0.999606 0.996425
1.06117 1.06522 1 0.996198
1.03234 1.03584 1 0.996616
1.05571 1.05973 1 0.996208
1.03223 1.03566 1 0.996697
1.00644 1.00765 1 0.998794
1.03146 1.03482 1 0.996752
1.007 1.00824 1 0.998772
0.99953 1 1 0.99953
0.999762 1 1 0.999762
1.00674 1.008 1 0.998745
1 1 1 1
1.06148 1.07112 0.994421 0.996564
1.06226 1.06639 0.999752 0.996377
1.06743 1.07294 0.998179 0.996677
1.05398 1.05797 1 0.99622
1.05995 1.06391 1 0.996277
1.05149 1.05558 1 0.996126
1.04474 1.0487 1 0.996222
1.02431 1.02747 1 0.996924
1.03873 1.04256 1 0.996326
1.01688 1.01981 1 0.997131
1.00222 1.00363 1 0.998592
1.00794 1.01004 1.00052 0.997401
0.999725 1.00037 1.00053 0.998828
1 1 1 1
1.00143 1 1.00226 0.999162
1 1 1 1
1 1 1 1
1.06177 1.09061 0.976427 0.997061
1.05654 1.09501 0.967607 0.997172
1.01279 1.06134 0.956247 0.997917
1.06042 1.07982 0.985337 0.996643
1.05767 1.06843 0.993424 0.996479
1.0391 1.04444 0.998245 0.996635
1.06192 1.06687 0.998885 0.99647
1.06117 1.08923 0.977474 0.996692
1.04822 1.06382 0.988933 0.996357
1.03514 1.06659 0.973692 0.996733
1.06479 1.08296 0.985975 0.997207
1.06859 1.09408 0.979308 0.997337
1.07858 1.10998 0.974142 0.997503
1.05985 1.07446 0.989327 0.997046
1.07281 1.10518 0.973356 0.997283
1.06089 1.08036 0.984806 0.997128
1.05972 1.07313 0.990563 0.99691
1.05559 1.0788 0.981427 0.997002
1.05802 1.07264 0.989534 0.996804
1.06704 1.07637 0.994801 0.996512
1.05748 1.07174 0.989907 0.996757
1.06576 1.07403 0.995795 0.996489
1.06608 1.07019 0.999971 0.996186
1.06454 1.07034 0.998113 0.996464
1.06543 1.06951 1 0.996187
1.03241 1.036 1 0.996541
1.06086 1.06491 1 0.996203
1.03352 1.03703 1 0.996618
1.00501 1.00625 1 0.998767
1.03341 1.03683 1 0.996698
1.00605 1.00727 1 0.998781
0.999533 1 1 0.999533
1.00679 1.00804 1 0.998769
0.999542 1 1 0.999542
1 1 1 1
1.05896 1.07153 0.991767 0.996472
1.06378 1.06935 0.998415 0.996374
1.0631 1.07249 0.994662 0.996561
1.06076 1.06472 1 0.996276
1.06327 1.06769 0.999433 0.996424
1.06602 1.07185 0.997744 0.996806
1.03367 1.037 1 0.996783
1.05389 1.0579 1 0.996209
1.0621 1.06608 1 0.996265
1.04548 1.04945 1 0.996212
1.02505 1.02821 1 0.996925
1.0066 1.0081 1 0.998514
1.01653 1.01945 1 0.997132
1.00106 1.00246 1 0.998608
1 1 1 1
0.999822 1.00009 1.00089 0.998847
1 1 1 1
1 1 1 1
1.06014 1.07917 0.985374 0.996942
1.06214 1.09137 0.97611 0.997041
1.05365 1.09198 0.96763 0.997171
1.06017 1.07954 0.98535 0.99666
1.05465 1.06552 0.993301 0.996476
1.06111 1.08869 0.97793 0.996667
1.06179 1.076 0.98972 0.997045
1.06475 1.08293 0.985974 0.997201
1.06703 1.09226 0.979544 0.997296
1.06031 1.07461 0.989595 0.997067
1.05857 1.0701 0.992329 0.996867
1.06066 1.08026 0.984697 0.997114
1.06012 1.07312 0.990983 0.996871
1.06693 1.07609 0.994873 0.996602
1.05807 1.07273 0.989493 0.996806
1.06662 1.07597 0.994778 0.996514
1.066 1.07024 0.999852 0.996192
1.06518 1.07343 0.99581 0.996489
1.0675 1.07165 0.999939 0.996187
1.03048 1.0341 1 0.996499
1.06602 1.07009 1 0.99619
1.03313 1.03672 1 0.996543
1.00308 1.00437 1 0.998712
1.03475 1.03826 1 0.99662
1.00447 1.00573 1 0.998748
0.999507 1 1 0.999507
1.00564 1.00687 1 0.998771
0.999556 1 1 0.999556
0.999548 1 1 0.999548
1.06022 1.07324 0.991102 0.996733
1.06473 1.07192 0.996957 0.99632
1.05875 1.07242 0.990723 0.996498
1.0654 1.0694 1 0.996262
1.06346 1.0688 0.998642 0.996359
1.06472 1.07386 0.994912 0.996559
1.03601 1.03945 1 0.996694
1.06068 1.06465 1 0.996265
1.06419 1.06889 0.999133 0.99647
1.0079 1.0094 1 0.998512
1.03304 1.03637 1 0.996784
1.05387 1.05789 1 0.996197
1.02536 1.02852 1 0.996926
1.00526 1.00675 1 0.998526
1 1 1 1
1.00015 1.00152 1 0.998625
1 1 1 1
1 1 1 1
1.05905 1.07322 0.98983 0.996936
1.06054 1.07938 0.985564 0.996932
1.06166 1.09118 0.975858 0.997021
1.05993 1.0793 0.985334 0.996677
1.0593 1.06874 0.994322 0.996825
1.06181 1.0761 0.989636 0.997056
1.06481 1.08292 0.986047 0.997196
1.06077 1.07475 0.989875 0.997087
1.05875 1.07051 0.992116 0.996876
1.06718 1.0748 0.996315 0.996584
1.06052 1.0731 0.991409 0.996832
1.06761 1.07611 0.995535 0.996549
1.06469 1.06962 0.999125 0.996266
1.06622 1.07558 0.994762 0.996517
1.06671 1.07104 0.999762 0.996194
1.02731 1.03095 1 0.996472
1.06872 1.07291 0.999911 0.996188
1.03024 1.03386 1 0.9965
1.0007 1.00229 1 0.99841
1.03384 1.03742 1 0.996545
1.00231 1.00374 1 0.998575
1 1 1 1
1.00392 1.0052 1 0.99873
0.999537 1 1 0.999537
0.999572 1 1 0.999572
1.05923 1.0699 0.993173 0.99683
1.06483 1.07294 0.995973 0.996455
1.0606 1.0728 0.991878 0.996724
1.06652 1.07087 0.999763 0.996174
1.0641 1.0716 0.996671 0.996323
1.05857 1.07333 0.989686 0.996525
1.03516 1.03874 1 0.996556
1.06513 1.06923 0.999906 0.996263
1.06313 1.06827 0.998833 0.996345
1.00619 1.00768 1 0.998524
1.03492 1.03839 1 0.996662
1.06037 1.06435 1 0.996255
1 1 1 1
1.00785 1.00934 1 0.998522
1.03243 1.03576 1 0.996785
1.00411 1.00558 1 0.998538
1 1 1 1
1 1 1 1
1.05764 1.06677 0.994594 0.996833
1.05949 1.07333 0.990136 0.996942
1.06087 1.07958 0.985702 0.996922
1.06679 1.07326 0.997441 0.996524
1.05871 1.06857 0.993914 0.996836
1.06184 1.07622 0.98954 0.997067
1.05891 1.07092 0.991877 0.996886
1.06691 1.07465 0.996198 0.996585
1.06332 1.06797 0.999338 0.996303
1.06823 1.07606 0.996217 0.996495
1.065 1.06961 0.999444 0.996243
1.02491 1.02858 1 0.996431
1.06751 1.07194 0.999671 0.996196
1.02696 1.03059 1 0.996473
0.999359 1.00097 1 0.998386
1.03021 1.03383 1 0.996502
1.00028 1.00187 1 0.998409
1 1 1 1
1.00152 1.00311 1 0.998416
0.999744 1 1 0.999744
0.999562 1 1 0.999562
1.05646 1.06563 0.994583 0.996792
1.06617 1.07283 0.997253 0.996534
1.05891 1.0694 0.993329 0.996838
1.06639 1.0705 1 0.996165
1.06577 1.07372 0.996143 0.996441
1.06093 1.07231 0.992652 0.996716
1.03184 1.03549 1 0.996481
1.06598 1.07019 0.999889 0.996173
1.06353 1.0713 0.996409 0.996326
1.00356 1.00506 1 0.998501
1.03456 1.03815 1 0.996545
1.06486 1.06904 0.999826 0.996264
1 1 1 1
1.00684 1.00832 1 0.998533
1.03407 1.03757 1 0.996631
1 1 1 1
1.00776 1.00924 1 0.998533
1 1 1 1
1.06583 1.07213 0.997553 0.996565
1.05727 1.06645 0.994554 0.996819
1.05989 1.07336 0.990468 0.996949
1.06255 1.06705 0.999485 0.996299
1.06611 1.07295 0.997067 0.996544
1.05812 1.06839 0.993515 0.996848
1.06661 1.07449 0.996065 0.996585
1.06305 1.06779 0.999255 0.996304
1.02353 1.02719 1 0.996434
1.06535 1.06967 0.999744 0.99622
1.02494 1.0286 1 0.996439
0.998709 1.00035 1 0.998355
1.02649 1.03012 1 0.996474
0.999101 1.00072 1 0.998384
1 1 1 1
0.999764 1.00136 1 0.998406
1 1 1 1
0.999534 1 1 0.999534
1.06642 1.07261 0.997686 0.996541
1.05578 1.06559 0.993959 0.99681
1.06495 1.06899 1 0.996218
1.0665 1.07318 0.997231 0.996533
1.0586 1.06893 0.993474 0.996845
1.02853 1.03215 1 0.996496
1.06569 1.0698 1 0.996161
1.06671 1.0745 0.996304 0.996427
1.00114 1.0027 1 0.998447
1.03186 1.0355 1 0.996493
1.06533 1.06943 1 0.996172
1 1 1 1
1.00431 1.00581 1 0.998507
1.03402 1.03762 1 0.996533
1 1 1 1
1.00745 1.00892 1 0.998542
1 1 1 1
1.06269 1.06708 0.999573 0.99632
1.06571 1.07189 0.997665 0.996554
1.0569 1.06613 0.994523 0.996804
1.023 1.02665 1 0.996452
1.06229 1.06686 0.999414 0.9963
1.06538 1.07261 0.996677 0.996565
1.06281 1.06761 0.999199 0.996304
1.02371 1.02737 1 0.996431
0.998435 1.00009 1 0.998345
1.02499 1.02864 1 0.996447
0.998586 1.00023 1 0.998353
1 1 1 1
0.998875 1.00049 1 0.998382
1 1 1 1
1 1 1 1
1.06408 1.06809 1 0.996248
1.06588 1.07244 0.997288 0.99659
1.05513 1.0656 0.993319 0.996829
1.02593 1.02952 1 0.99651
1.06466 1.06871 1 0.996215
1.06681 1.07352 0.997208 0.996532
0.999368 1.00097 1 0.998404
1.02841 1.03203 1 0.996494
1.06489 1.06899 1 0.996158
1 1 1 1
1.00178 1.00334 1 0.99845
1.03195 1.03557 1 0.996504
1 1 1 1
1.00501 1.00651 1 0.998512
1 1 1 1
1.02368 1.02729 1 0.996492
1.06239 1.06688 0.999487 0.996305
1.06558 1.07169 0.997748 0.996542
0.998374 1 1 0.998374
1.02319 1.02684 1 0.996449
1.06204 1.06667 0.99935 0.9963
1.02383 1.0275 1 0.996428
0.998356 1.00001 1 0.998345
1 1 1 1
0.998425 1.00007 1 0.998351
1 1 1 1
1 1 1 1
1.02439 1.02798 1 0.996512
1.06356 1.06777 0.999781 0.996278
1.06536 1.07224 0.996936 0.996639
0.998778 1.00011 1 0.998672
1.02609 1.02968 1 0.996509
1.0645 1.06855 1 0.996212
1 1 1 1
0.999882 1.00148 1 0.998405
1.02852 1.03214 1 0.996491
1 1 1 1
1.00239 1.00394 1 0.998453
1 1 1 1
0.998358 1 1 0.998358
1.02384 1.02746 1 0.996481
1.06211 1.06668 0.99942 0.996291
1 1 1 1
0.998372 1 1 0.998372
1.02337 1.02702 1 0.996446
0.998345 1 1 0.998345
1 1 1 1
1 1 1 1
0.998645 1 1 0.998645
1.02477 1.02836 1 0.996513
1.06305 1.06749 0.999532 0.996307
1 1 1 1
0.998774 1.00038 1 0.998394
1.02616 1.02975 1 0.996508
1 1 1 1
1.00028 1.00187 1 0.998406
1 1 1 1
0.999511 1 1 0.999511
0.998517 1 1 0.998517
1.024 1.02763 1 0.99647
1 1 1 1
0.998374 1 1 0.998374
1 1 1 1
0.999521 1 1 0.999521
0.998523 1 1 0.998523
1.02503 1.02861 1 0.996513
0.999755 1 1 0.999755
0.999049 1.00065 1 0.998396
1 1 1 1
1 1 1 1
0.998396 1 1 0.998396
1 1 1 1
0.99976 1 1 0.99976
0.998499 1.0001 1 0.998403
1 1 1 1
1 1 1 1
1 1 1 1

VECTORS lamdaE float
1.00204 1.00001 0.992984
1.00161 1.00077 0.996465
1.00152 1.00021 0.993353
1.00197 1.00011 0.992916
1.0021 0.99992 0.992988
1.002 1.00025 0.992801
1.00318 1.00058 0.989996
1.00168 1.0008 0.996394
1.0014 1.00005 0.997092
1.00091 1.00087 0.99711
1.00141 1.00123 0.99249
1.0032 1.00124 0.988134
1.00148 0.999968 0.99358
1.00122 1.00003 0.99377
1.00105 1.00042 0.993694
1.00161 1.00008 0.993317
1.00141 1.0006 0.993139
1.00166 0.999968 0.993373
1.00342 1.00047 0.98981
1.00148 1.00002 0.996701
1.00188 1.00016 0.992961
1.00208 0.999988 0.992936
1.0032 1.00022 0.990362
1.00327 1.00031 0.990159
1.00199 1.00055 0.992516
1.0031 1.00107 0.989615
1.00528 1.00124 0.985442
1.0017 1.0008 0.996317
1.00166 0.999935 0.995147
1.00129 1.00057 0.995121
1.00162 1.00103 0.996308
1.00313 1.00137 0.988137
1.00191 0.99975 0.993133
1.00176 1.00001 0.993219
1.00359 1.00017 0.990423
1.00034 1.00149 0.997289
1.00343 1.00076 0.990176
1.00302 1.00208 0.987647
1.00511 1.0018 0.984482
1.00048 1.00012 0.997549
1.00152 0.999983 0.996671
1.00148 1.00001 0.995165
1.0014 0.999964 0.996757
1.00106 1.00005 0.993957
1.00322 0.999902 0.989654
1.0014 0.999943 0.997034
1.00357 1.00014 0.990519
1.00125 1.00001 0.993719
1.00124 1.00001 0.993744
1.00088 1.00096 0.993458
1.00363 1.00034 0.989639
1.00127 1.00004 0.995344
1.0015 1.00018 0.993369
1.00143 1.00099 0.992799
1.00169 0.999955 0.993327
1.00339 1.00018 0.990153
1.00338 1.0009 0.989434
1.00347 1.00024 0.989967
1.00529 1.0012 0.985512
1.00137 1 0.996758
1.00175 1.00009 0.993204
1.00288 0.999977 0.991541
1.00312 1.0002 0.990505
1.00328 1.00021 0.990245
1.00526 1.00007 0.986691
1.00529 1.00038 0.986235
1.00187 1.00073 0.992199
1.00301 1.00199 0.9889
1.00531 1.00182 0.98478
1.00529 0.999876 0.98607
1.002 0.999944 0.99655
1.00147 1.00091 0.996541
1.0017 1.0005 0.996504
1.0031 1.00148 0.988143
1.00199 0.999863 0.996495
1.00189 1.0001 0.996572
1.00345 1.00011 0.988916
1.00061 1.00119 0.995306
1.00321 1.00072 0.988665
1.00285 1.00227 0.988816
1.00521 1.00164 0.984477
1.0008 1.00048 0.997148
1.00077 1.00248 0.991144
1.00358 1.00008 0.988802
1.00351 1.00017 0.988819
1.00534 1.00043 0.985614
1.0021 1.00288 0.990449
1.00532 1.00121 0.98481
1.00422 1.00294 0.984728
1.00537 1.00156 0.984179
1.00026 0.999487 0.997921
1.00033 0.999905 0.997706
1.00182 0.999968 0.9965
1.00159 0.999984 0.996634
1.00145 0.999971 0.996747
1.00135 0.999995 0.995298
1.00324 0.999905 0.990377
1.00163 0.999945 0.995101
1.00345 1.00017 0.98981
1.00139 0.999982 0.996779
1.00301 0.999793 0.990026
1.00346 1.00006 0.990763
1.00524 0.998927 0.987391
1.00356 1.00012 0.990486
1.00523 0.999347 0.986977
1.00143 0.999985 0.993659
1.00111 1.00017 0.99378
1.00087 1.0014 0.993069
1.00131 0.999911 0.993716
1.00357 1.00017 0.989943
1.00367 1.00018 0.989782
1.00362 1.00074 0.989262
1.0053 1.00117 0.98558
1.00142 0.999982 0.996769
1.00137 1.0001 0.9936
1.00308 0.999915 0.990368
1.0033 1.00017 0.990294
1.00167 1.00125 0.99416
1.00332 1.00178 0.989085
1.00347 1.00017 0.990044
1.00525 0.999847 0.986946
1.0053 1.00181 0.984876
1.00529 1.00059 0.986082
1.00528 0.999877 0.986099
1.00295 0.999841 0.990069
1.00303 1.00004 0.99077
1.00507 0.998753 0.988409
1.0052 0.999383 0.987583
1.0053 0.999904 0.986756
1.00534 0.997609 0.988594
1.00098 1.00113 0.99682
1.00528 0.998959 0.986987
1.0026 1.00304 0.987215
1.00526 1.00233 0.983667
1.00529 1.00086 0.985144
1.00526 0.997272 0.988488
1.00138 1.00323 0.989266
1.00254 1.00434 0.98632
1.00202 0.999877 0.996511
1.00187 1.00016 0.996559
1.00346 1.00009 0.988893
1.00088 1.00083 0.997021
1.00238 1.00261 0.98802
1.00325 1.00064 0.988667
1.00532 1.00149 0.984467
1.00063 1.00051 0.997304
1.00071 1.0026 0.99116
1.0036 1.00012 0.989612
1.00355 1.00024 0.989571
1.00533 1.00045 0.985582
1.00161 1.00302 0.989048
1.00532 1.0012 0.984785
1.00447 1.00258 0.984697
1.00535 1.00142 0.984393
1.00116 1.00276 0.990121
1.00042 1.00221 0.992038
1.00231 1.0038 0.987792
1.00532 1.00004 0.986065
1.00534 1.00081 0.985195
1.00532 0.998696 0.98729
1.00342 1.00349 0.985471
1.00532 1.0002 0.985781
1.00531 1.00251 0.983505
1.00532 0.999933 0.985622
1.00014 0.999005 0.998245
1.00016 0.99942 0.998058
1.00025 0.999802 0.997856
1.00106 1.00302 0.99008
1.00056 1.0009 0.997163
1.00196 0.999906 0.996482
1.00168 0.999986 0.996551
1.00327 1.00021 0.989143
1.00309 0.999921 0.989736
1.00144 0.999969 0.996725
1.00138 0.999971 0.996774
1.00299 0.999808 0.990016
1.00334 1.00005 0.990059
1.00521 0.998948 0.987404
1.00341 1.00017 0.988966
1.00523 0.999358 0.986954
1.00293 0.999792 0.990128
1.00516 0.998859 0.987569
1.00524 0.999098 0.98723
1.0053 0.995668 0.990776
1.00528 0.999671 0.986544
1.00532 0.996306 0.989984
1.00139 0.999979 0.996769
1.00095 1.00016 0.993994
1.00311 0.999894 0.989358
1.00349 1.00016 0.990079
1.00085 1.00194 0.996673
1.00362 1.00135 0.989279
1.00365 1.00014 0.989845
1.00524 0.999619 0.987202
1.0053 1.00078 0.985925
1.00529 1.00177 0.984973
1.00527 0.99988 0.986128
1.00294 0.999833 0.990073
1.0032 1.00006 0.990564
1.00511 0.998702 0.988173
1.0052 0.999602 0.987302
1.00115 1.0012 0.996661
1.00274 1.00279 0.988311
1.00508 1.0026 0.984028
1.0053 0.99997 0.986714
1.00535 0.997185 0.989009
1.0053 1.00076 0.985217
1.00528 0.999138 0.9869
1.00526 0.997335 0.98849
1.00144 1.00314 0.989245
1.00267 1.00427 0.986259
1.00507 0.998976 0.987617
1.00515 0.999051 0.988021
1.00532 0.996353 0.989911
1.00533 0.996483 0.989816
1.0053 0.99803 0.987954
1.00527 0.995409 0.990739
1.00184 1.00329 0.988226
1.00524 0.996154 0.989723
1.00463 1.00327 0.983944
1.0053 1.00185 0.983943
1.0053 0.999002 0.98689
1.00526 0.995852 0.990056
1.0034 1.00419 0.984904
1.00233 1.00384 0.987572
1.00392 1.0037 0.985084
1.00346 1.00012 0.988896
1.0004 1.00034 0.997472
1.0006 1.00262 0.991179
1.00339 1.00022 0.98886
1.00533 1.00047 0.98555
1.00158 1.00312 0.988925
1.00468 1.00231 0.984673
1.00534 1.0012 0.984756
1.00536 1.00126 0.984604
1.00107 1.00286 0.99016
1.00029 1.0023 0.992031
1.00211 1.00375 0.987791
1.00532 1.00006 0.986033
1.00534 1.00082 0.985167
1.00532 0.998694 0.987273
1.00362 1.00325 0.985455
1.00532 1.00031 0.985679
1.00537 1.00249 0.983432
1.00533 0.999607 0.985878
1.00026 1.0016 0.992799
1.00306 1.0038 0.986496
1.00155 1.00425 0.988278
1.00306 1.00106 0.988238
1.00532 0.997862 0.988217
1.00532 0.999546 0.986395
1.00529 0.996409 0.989382
1.00494 1.00296 0.983584
1.00528 0.998079 0.987847
1.00534 1.00141 0.984563
1.00538 0.998458 0.987071
1.00011 1.00335 0.991421
1.00029 1.00034 0.994077
1.00014 0.998396 0.998469
1.00009 0.998884 0.998334
1.00008 0.999338 0.998178
1.0007 1.00278 0.990911
1.00041 1.00052 0.997417
1.00114 1.00296 0.990006
1.00072 1.00096 0.997046
1.00338 1.00021 0.988961
1.0032 1.00006 0.989417
1.00522 0.999368 0.986938
1.00517 0.998975 0.987416
1.003 0.999827 0.990015
1.00143 0.999958 0.99677
1.00295 0.999786 0.99013
1.00515 0.998867 0.987578
1.00521 0.999114 0.98723
1.00532 0.995635 0.990778
1.00528 0.999689 0.986514
1.00531 0.996305 0.989991
1.0051 0.998872 0.987659
1.00533 0.995649 0.990792
1.00528 0.995847 0.990559
1.00522 0.994961 0.991527
1.00533 0.997045 0.98914
1.00528 0.994914 0.991217
1.00295 0.999829 0.990083
1.00338 1.00003 0.990356
1.00514 0.998617 0.98794
1.0052 0.999804 0.987019
1.00137 1.00126 0.996453
1.00313 1.00264 0.989145
1.00488 1.00276 0.984382
1.0053 1.00003 0.986671
1.00535 0.996759 0.989422
1.00527 0.999319 0.986815
1.00531 1.00067 0.985291
1.00526 0.997392 0.988492
1.0015 1.00305 0.989225
1.00266 1.0041 0.986202
1.00508 0.998714 0.987896
1.00516 0.999014 0.988007
1.00532 0.996335 0.98997
1.00534 0.996772 0.989426
1.00192 1.00328 0.988232
1.00438 1.00337 0.983974
1.00532 1.00201 0.983773
1.00529 0.998266 0.987808
1.00528 0.995188 0.990871
1.00529 0.998777 0.987142
1.00525 0.996175 0.989701
1.00526 0.995827 0.989926
1.00338 1.00425 0.984866
1.00352 1.00371 0.985158
1.00196 1.00401 0.987602
1.00532 0.996251 0.990062
1.00534 0.996489 0.98977
1.00526 0.994962 0.991366
1.00531 0.994917 0.991168
1.00524 0.995398 0.990482
1.00527 0.994927 0.990982
1.00389 1.00382 0.984373
1.00529 0.995081 0.990595
1.00532 1.00319 0.982685
1.0053 1.00034 0.985255
1.00524 0.997431 0.988442
1.00529 0.995555 0.99023
1.00136 1.00491 0.987679
1.00476 1.00403 0.983375
1.00256 1.00193 0.987875
1.00486 1.00378 0.983738
1.00531 1.00008 0.986002
1.00022 1.00242 0.99202
1.00089 1.00311 0.990205
1.00169 1.00378 0.987786
1.00533 1.00083 0.985138
1.00532 0.998692 0.987256
1.00381 1.00284 0.98544
1.00539 1.00246 0.983355
1.00531 1.00043 0.985579
1.00532 0.999302 0.986134
1.00018 1.0017 0.992819
1.00278 1.00361 0.9866
1.00141 1.0043 0.988204
1.00331 1.00108 0.988287
1.00532 0.997853 0.988203
1.00532 0.999534 0.986377
1.00529 0.996385 0.98939
1.00513 1.00294 0.98354
1.00527 0.998292 0.987594
1.00531 1.00128 0.984543
1.00537 0.998313 0.987281
1.00034 1.00087 0.993479
1.00121 1.00476 0.988592
1.00364 1.00292 0.985806
1.00297 1.00228 0.988193
1.00386 1.0001 0.988418
1.00528 0.995596 0.990271
1.00528 0.997248 0.988466
1.00529 0.995413 0.990116
1.00519 1.0027 0.983499
1.00531 0.996944 0.988702
1.00522 0.999843 0.985925
1.00043 1.00371 0.990494
1.0002 1.00487 0.989796
1.00009 1.00255 0.992258
1.00011 1.00327 0.991431
1.00017 0.999831 0.995513
1.00025 1.00027 0.994566
1.0003 0.997811 0.996949
1.00013 0.998304 0.998523
1.00005 0.99876 0.998402
1.00005 1.00262 0.992071
1.00017 1.00017 0.997806
1.00074 1.00274 0.990899
1.00047 1.00066 0.997323
1.00121 1.0029 0.989932
1.00086 1.00103 0.996937
1.00528 0.999708 0.986484
1.00519 0.999126 0.987227
1.0053 0.996314 0.989999
1.00533 0.995599 0.99078
1.00515 0.998875 0.987587
1.00294 0.999774 0.990127
1.00509 0.998877 0.987663
1.00532 0.995629 0.990798
1.00531 0.995828 0.990559
1.00522 0.994957 0.991509
1.00532 0.997028 0.989142
1.00529 0.994914 0.991243
1.00533 0.995703 0.990745
1.00521 0.994962 0.991547
1.00526 0.994954 0.991397
1.00524 0.994948 0.991386
1.00527 0.995049 0.990908
1.00528 0.994926 0.991009
1.00509 0.998453 0.988175
1.00518 0.999003 0.987993
1.00532 0.996342 0.990028
1.00535 0.997047 0.989038
1.00202 1.00324 0.988248
1.00414 1.0037 0.984019
1.00534 1.00215 0.983605
1.00529 0.998499 0.987661
1.00528 0.994964 0.991003
1.00526 0.996201 0.989678
1.00527 0.998525 0.987393
1.00526 0.995811 0.989796
1.00344 1.00452 0.984825
1.00333 1.00373 0.98523
1.00176 1.00417 0.987629
1.00531 0.996012 0.990371
1.00533 0.99651 0.989778
1.00527 0.994959 0.991389
1.00531 0.994953 0.991084
1.00381 1.00403 0.984409
1.00529 1.00326 0.982758
1.00531 1.00054 0.985
1.00525 0.995613 0.990281
1.00527 0.994921 0.990934
1.00525 0.9973 0.988415
1.00528 0.995092 0.990568
1.00528 0.995455 0.990266
1.00437 1.00403 0.983382
1.00458 1.00384 0.983554
1.0016 1.00461 0.987748
1.00279 1.00205 0.987954
1.00526 0.994965 0.991508
1.00531 0.994945 0.991146
1.00525 0.994949 0.991363
1.00528 0.994925 0.990962
1.0053 0.9949 0.990803
1.00534 0.994901 0.990741
1.00519 1.00388 0.982446
1.00531 0.994901 0.99055
1.00529 1.0021 0.983521
1.00527 0.999547 0.985982
1.00519 0.996772 0.988958
1.00534 0.995218 0.990245
1.00111 1.00483 0.988175
1.00315 1.00317 0.986681
1.00519 1.00401 0.982179
1.00335 1.00078 0.987878
1.0045 1.00451 0.983108
1.0001 1.00179 0.992841
1.00532 0.997844 0.988189
1.00147 1.00417 0.98813
1.0025 1.00359 0.986705
1.00342 1.00093 0.988337
1.00532 0.999523 0.98636
1.00529 0.996361 0.989397
1.00529 1.00261 0.983495
1.00529 1.0012 0.984523
1.00527 0.998483 0.987341
1.00536 0.998181 0.98749
1.0003 1.00085 0.993512
1.00093 1.00482 0.988601
1.00385 1.00257 0.985879
1.0026 1.00234 0.988148
1.00413 0.99994 0.987691
1.00527 0.995574 0.99029
1.00528 0.997222 0.988475
1.00528 0.995416 0.990126
1.00519 1.00283 0.983424
1.00533 0.997053 0.988504
1.00521 0.999889 0.986152
1.00083 1.00419 0.989542
1.00175 1.00512 0.988062
1.00403 1.00298 0.984819
1.0039 1.00068 0.98798
1.00505 1.00188 0.985976
1.00532 0.994929 0.990669
1.00528 0.996046 0.989395
1.00522 0.995172 0.990248
1.00489 1.00162 0.984566
1.00522 0.99847 0.987014
1.00035 1.00389 0.990477
1.00047 1.0047 0.98941
0.999827 1.00493 0.989827
1.00052 1.00445 0.990209
1.00012 1.00437 0.990682
0.999957 1.00224 0.992742
0.99997 1.00267 0.99228
1.00013 0.99935 0.995949
1.00008 1.0033 0.991441
1.0002 0.999666 0.995586
1.00029 0.997339 0.997329
1.00022 1.00019 0.995042
1.0002 0.997881 0.997828
1.00012 0.998195 0.998576
0.999787 1.00156 0.993541
1.00019 1.00238 0.992101
0.99989 0.999424 0.998306
1.00032 1.00012 0.997636
1.00084 1.0026 0.990889
1.00056 1.00074 0.997223
1.00531 0.997009 0.989144
1.00533 0.995803 0.990559
1.00529 0.994914 0.991268
1.00521 0.994953 0.991491
1.00531 0.995608 0.990803
1.0051 0.998883 0.987666
1.00531 0.995696 0.990747
1.00522 0.994963 0.991547
1.00526 0.99495 0.991403
1.00523 0.994947 0.991361
1.00528 0.995033 0.990938
1.00529 0.994921 0.991013
1.00524 0.994963 0.991525
1.00524 0.994947 0.991458
1.00525 0.994958 0.991204
1.00527 0.994931 0.991302
1.0053 0.994855 0.990936
1.00533 0.994943 0.990892
1.0053 0.995772 0.990679
1.00532 0.996521 0.989786
1.00528 0.994952 0.991414
1.00531 0.995008 0.991
1.00368 1.0041 0.984444
1.00523 1.00328 0.982824
1.00531 1.00069 0.984744
1.00525 0.995828 0.99008
1.00527 0.994915 0.990886
1.00527 0.995085 0.990539
1.00525 0.997183 0.988389
1.00529 0.995342 0.990305
1.00408 1.00446 0.983394
1.0041 1.00419 0.98337
1.0017 1.0043 0.987816
1.00279 1.00174 0.988021
1.00526 0.994966 0.991507
1.00531 0.994945 0.991174
1.00525 0.994947 0.991335
1.00528 0.994927 0.990966
1.00504 1.00404 0.982473
1.00529 1.00226 0.983386
1.00527 0.99951 0.98596
1.0053 0.994908 0.990821
1.00534 0.994895 0.990711
1.00523 0.996652 0.988967
1.00532 0.994899 0.990538
1.0053 0.995182 0.99038
1.00517 1.00404 0.982231
1.00443 1.00461 0.982953
1.00365 1.00104 0.9879
1.00095 1.00474 0.988325
1.00267 1.00351 0.986553
1.00525 0.994948 0.99139
1.00528 0.99493 0.991184
1.00533 0.994887 0.990718
1.00532 0.994889 0.990646
1.00519 1.00371 0.982356
1.00531 0.994894 0.990504
1.0052 1.00153 0.983817
1.00522 0.998932 0.986569
1.00527 0.996042 0.989232
1.00008 1.00417 0.990224
1.00186 1.00506 0.987131
1.00417 1.00366 0.98597
1.00502 1.00432 0.982424
1.00461 1.0019 0.984984
1.00439 1.00481 0.982853
1.00027 1.00086 0.993543
1.00067 1.00491 0.98861
1.00527 0.995552 0.990308
1.00211 1.00252 0.988099
1.0043 1.0026 0.985953
1.00454 0.999983 0.986969
1.00528 0.997198 0.988484
1.00527 0.995421 0.990136
1.00518 1.00286 0.983358
1.00519 0.999943 0.986382
1.00535 0.997149 0.988305
1.0007 1.00429 0.989527
1.0011 1.00513 0.988056
1.00437 1.00314 0.984271
1.00378 1.00044 0.988082
1.00476 1.00138 0.985701
1.0053 0.994928 0.990698
1.0053 0.996073 0.98937
1.00525 0.995182 0.990178
1.00496 1.00158 0.984701
1.00519 0.998608 0.986942
1.00109 1.00487 0.988788
1.00118 1.0042 0.98809
1.00449 1.00296 0.984346
1.00381 1.00113 0.986294
1.00515 1.00205 0.984999
1.00531 0.994824 0.990634
1.00531 0.996449 0.98873
1.00536 0.995392 0.989515
1.00505 1.00052 0.985711
1.00511 0.999174 0.9866
1.00026 1.00402 0.990461
1.00055 1.00482 0.989269
0.999704 1.00408 0.990961
0.999711 1.00489 0.98985
0.999863 1.00446 0.990666
0.999731 1.00475 0.990409
1.00003 1.00304 0.991824
0.999553 1.00498 0.990481
0.999838 1.00402 0.991242
0.99997 1.00218 0.992774
0.999978 1.00217 0.992741
1.00004 0.999237 0.996185
0.999934 1.00258 0.992297
1.00014 0.999321 0.995997
1.00022 0.997188 0.997588
1.00023 0.999553 0.995665
1.00024 0.99744 0.997308
1.00005 0.997901 0.998729
0.999856 1.00028 0.994717
0.999869 1.00153 0.993496
0.999772 0.998674 0.998692
1.00036 1.00223 0.992132
1.00006 0.999606 0.998117
1.00041 1.00033 0.997495
1.00528 0.995016 0.990968
1.00526 0.994945 0.99141
1.00529 0.994915 0.991017
1.00523 0.994946 0.991335
1.00522 0.994965 0.991546
1.0053 0.995691 0.990749
1.00524 0.994964 0.99154
1.00523 0.994949 0.991463
1.00525 0.994961 0.991224
1.00527 0.994932 0.991274
1.00531 0.994851 0.990948
1.00532 0.994939 0.99085
1.00525 0.994948 0.991429
1.00527 0.994928 0.991366
1.00529 0.994928 0.99115
1.00535 0.994882 0.990668
1.00526 0.994968 0.991506
1.00531 0.994948 0.991202
1.00525 0.994947 0.991306
1.00527 0.99493 0.990969
1.0049 1.00397 0.982499
1.00528 1.00248 0.983251
1.00527 0.999528 0.985939
1.00529 0.994915 0.990838
1.00534 0.994888 0.990682
1.00532 0.994898 0.990525
1.00526 0.996533 0.988973
1.00527 0.99519 0.990514
1.00494 1.00431 0.982279
1.00427 1.00454 0.982798
1.00425 1.00116 0.987912
1.00088 1.00454 0.988491
1.00234 1.00403 0.986433
1.00524 0.994948 0.99138
1.00528 0.994933 0.991183
1.00533 0.994892 0.990733
1.00519 1.00379 0.982398
1.00515 1.00178 0.983728
1.00524 0.998801 0.986575
1.00533 0.994886 0.990655
1.00528 0.99595 0.989442
1.00531 0.994889 0.990497
1.00002 1.00384 0.990497
1.00465 1.00459 0.98247
1.00419 1.00502 0.982633
1.00448 1.00251 0.985005
1.00405 1.00295 0.98596
1.00155 1.00507 0.987165
1.00528 0.994931 0.991307
1.00531 0.994911 0.990969
1.00533 0.994875 0.990602
1.0053 0.994863 0.990534
1.00481 1.00394 0.982867
1.00525 0.995033 0.990366
1.00503 1.00112 0.984614
1.00521 0.998217 0.987001
0.999936 1.00231 0.99218
1.00058 1.00509 0.989164
1.00266 1.00484 0.986859
1.00357 1.00391 0.984661
1.00437 1.00435 0.984132
1.00484 1.00468 0.982275
1.00057 1.00444 0.98951
1.00055 1.00512 0.988052
1.00528 0.994927 0.990727
1.00372 1.00014 0.988177
1.00482 1.00323 0.983714
1.00412 1.00174 0.985425
1.00532 0.9961 0.989346
1.00528 0.99519 0.990107
1.00506 1.00162 0.984833
1.00517 0.998756 0.986871
1.0008 1.00496 0.988803
1.00158 1.00423 0.987928
1.00442 1.00309 0.984277
1.00429 1.00168 0.98633
1.00511 1.00236 0.984575
1.00532 0.994823 0.990631
1.00532 0.996315 0.988995
1.00535 0.995519 0.989607
1.00506 1.00042 0.985665
1.00506 0.999485 0.986342
0.999531 1.00475 0.989344
1.00079 1.00364 0.988128
1.00483 1.00148 0.985365
1.005 1.00144 0.985235
1.00539 0.994804 0.990423
1.00536 0.994909 0.990304
1.00527 0.998025 0.987135
1.00511 0.99989 0.985723
1.00083 1.00486 0.989129
0.999823 1.00439 0.990723
0.998626 1.00403 0.993536
0.999595 1.00474 0.990656
0.998918 1.00504 0.990607
0.999855 1.00401 0.991209
0.999626 1.00331 0.992237
0.999623 1.00504 0.990466
0.999747 1.00052 0.994797
0.999566 1.00465 0.991015
0.999496 1.0048 0.990482
1.00004 1.00385 0.99108
0.999947 1.00235 0.992589
0.99994 1.00218 0.992757
0.999939 0.99924 0.996306
0.999955 1.00216 0.992742
1.00006 0.999199 0.996202
1.00013 0.997207 0.997687
1.00014 0.999255 0.996045
1.0002 0.997216 0.997574
1.00019 0.997533 0.997276
1.00001 0.999408 0.99538
0.99987 1.00041 0.994643
0.999774 0.998022 0.998897
0.999897 1.00156 0.993448
0.999838 0.998801 0.998576
1.00024 0.999584 0.997905
1.00532 0.994847 0.99096
1.00524 0.994964 0.991243
1.00532 0.994935 0.990807
1.00527 0.994932 0.991247
1.00523 0.994951 0.991468
1.00525 0.994964 0.991555
1.00525 0.994947 0.991441
1.00527 0.994928 0.991355
1.00529 0.99493 0.991106
1.00534 0.994881 0.990682
1.00527 0.994926 0.991379
1.00527 0.994904 0.991288
1.00535 0.994905 0.990845
1.00524 0.994948 0.991369
1.00528 0.994933 0.991183
1.00533 0.994896 0.990747
1.00526 1.00369 0.982447
1.00517 1.002 0.983636
1.00525 0.998651 0.98658
1.00533 0.994882 0.990664
1.00531 0.994872 0.99049
1.00527 0.995853 0.989654
1.00435 1.00479 0.982515
1.00481 1.00468 0.982432
1.00455 1.00331 0.985041
1.00012 1.0037 0.990775
1.00407 1.0027 0.985951
1.00123 1.00509 0.987186
1.00527 0.99493 0.991325
1.00531 0.994908 0.990933
1.00533 0.994877 0.990607
1.00498 1.00372 0.982852
1.00501 1.00111 0.984608
1.00521 0.998012 0.987331
1.0053 0.994868 0.990503
1.00523 0.99507 0.990318
0.999927 1.00241 0.992397
1.00048 1.00509 0.989142
1.00407 1.00378 0.983972
1.00457 1.00454 0.982937
1.00403 1.00356 0.984858
1.00231 1.00498 0.986707
1.00529 0.994907 0.991244
1.00536 0.994853 0.990635
1.00534 0.99486 0.990509
1.00524 0.994891 0.990307
1.00406 1.00272 0.984575
1.00519 0.995838 0.989451
1.00492 1.00051 0.985531
1.00013 1.00141 0.993311
1.00022 1.00272 0.992043
0.999475 1.00424 0.991239
1.0013 1.00503 0.988028
1.002 1.005 0.986233
1.00407 1.00483 0.983584
1.00263 1.00423 0.986244
1.00343 1.00415 0.985959
1.00048 1.00494 0.988818
1.00209 1.00424 0.987766
1.00533 0.994823 0.990628
1.0047 1.00073 0.986368
1.00435 1.00323 0.984212
1.00521 1.00263 0.984159
1.00533 0.996167 0.989262
1.00535 0.995629 0.9897
1.00508 1.00025 0.985617
1.00499 0.999761 0.986085
1.00037 1.0046 0.989124
1.00184 1.0038 0.9878
1.00485 1.0015 0.985112
1.00506 1.00156 0.985279
1.00539 0.994803 0.990411
1.00539 0.994926 0.990253
1.0052 0.997901 0.987299
1.00512 1.00005 0.985777
0.998996 1.00481 0.990909
1.00544 0.99488 0.990454
1.00328 1.00309 0.987341
1.00501 1.00093 0.98532
1.00533 0.994674 0.990831
1.00507 0.99717 0.987278
1.00507 1.00078 0.985501
0.999795 1.00471 0.990486
0.998672 1.00348 0.993537
0.997507 1.00254 0.996362
0.999823 1.00387 0.991176
0.999587 1.00508 0.990448
0.998214 1.00442 0.992654
1.00006 1.00371 0.991063
0.999564 1.00485 0.99053
0.99848 1.00179 0.995212
0.999752 1.00452 0.990899
0.99913 0.999845 0.997382
0.998462 1.0033 0.99365
0.999473 1.00505 0.99062
1.00036 1.00468 0.989587
1.00026 1.00384 0.990625
0.999966 1.00245 0.992481
0.999896 1.00246 0.992567
0.999817 0.999372 0.996409
0.999885 1.0023 0.992742
0.999953 0.999269 0.996311
0.999999 0.997366 0.99778
1.00008 0.999161 0.996222
1.00013 0.997242 0.997683
1.00019 0.997259 0.997554
1.00009 1.0013 0.993516
1.00001 0.999015 0.995758
0.999975 0.999523 0.995335
0.999852 0.99771 0.998997
0.999886 1.00042 0.994571
0.999809 0.998215 0.998851
0.999956 0.998976 0.998437
1.00533 0.99488 0.990695
1.00529 0.994932 0.991062
1.00527 0.994928 0.991345
1.00524 0.994947 0.991454
1.00528 0.994925 0.991378
1.00528 0.994906 0.99129
1.00533 0.994899 0.990794
1.00528 0.994902 0.991331
1.00537 0.994864 0.991161
1.00558 0.994958 0.991003
1.00527 0.99493 0.991343
1.00532 0.994904 0.990897
1.00533 0.994882 0.990612
1.00484 1.00351 0.982842
1.00494 1.00122 0.984622
1.00522 0.997793 0.98765
1.00531 0.994874 0.990471
1.00522 0.995109 0.990271
1.00353 1.00465 0.983807
1.00404 1.00461 0.983555
1.00369 1.00291 0.985047
0.999954 1.00231 0.992614
1.00023 1.00508 0.989117
1.00217 1.00503 0.986553
1.00529 0.994902 0.991221
1.00015 1.00133 0.993298
1.00014 1.00267 0.991877
1.00536 0.994865 0.990644
1.00533 0.994869 0.990523
1.00436 1.00296 0.984553
1.00495 1.00009 0.985902
1.00518 0.995876 0.989383
1.00525 0.994879 0.990253
0.999674 1.00409 0.991369
1.00122 1.00505 0.987959
1.00266 1.00443 0.986069
1.00388 1.00358 0.984819
1.00392 1.00468 0.983691
1.00197 1.00473 0.986322
1.00539 0.994847 0.990989
1.00538 0.994879 0.990439
1.00531 0.994859 0.990416
1.00522 0.995112 0.990088
1.00307 1.00213 0.987117
1.00498 0.998402 0.988106
1.00016 1.00292 0.991522
0.999845 1.0027 0.992375
1.00196 1.00113 0.991434
1.00072 1.00405 0.989412
1.00173 1.0051 0.987245
1.0028 1.00366 0.986357
1.00198 1.00441 0.98503
1.00112 1.00083 0.992343
1.00078 1.00447 0.988907
1.00297 1.00415 0.987465
1.0054 0.994803 0.9904
1.00543 0.994954 0.990203
1.00507 1.00205 0.985318
1.00487 1.00159 0.984854
1.00514 0.997784 0.987462
1.00514 1.00023 0.985836
0.999663 1.00431 0.990786
1.00545 0.994869 0.990683
1.00245 1.00334 0.987929
1.00496 1.00098 0.985299
1.00534 0.994696 0.990858
1.00514 0.997286 0.987496
1.00495 1.00063 0.985464
0.998898 1.00509 0.992451
1.00497 0.994781 0.990613
1.00222 1.00286 0.988001
1.00444 1.00223 0.984493
1.00513 0.995619 0.990258
1.0036 1.001 0.986525
0.999099 0.994698 0.984532
0.998658 1.00335 0.993535
0.997585 1.00242 0.99638
0.997431 1.00178 0.997446
0.999995 1.00375 0.991045
0.999479 1.00496 0.990579
1.00031 1.00427 0.990786
0.997853 1.00203 0.995645
1.00018 1.00395 0.990626
1.00021 1.00466 0.989779
0.998818 0.999345 0.997642
0.99947 1.00499 0.990602
0.99896 1.00341 0.993187
0.997505 1.00231 0.997057
1.00016 1.00387 0.990888
0.999908 1.00492 0.990391
1.00078 1.00439 0.989444
1.00024 1.00414 0.990131
1.00044 1.00504 0.989699
1.00006 1.00431 0.990154
0.999914 1.00245 0.992504
0.999921 1.0025 0.992468
0.999698 0.999392 0.995893
0.999894 1.00242 0.992545
0.999799 0.999398 0.996092
0.99998 0.997436 0.999086
0.999962 0.999303 0.996318
1.00002 0.997339 0.997774
1.00015 0.997269 0.997673
0.999984 1.00103 0.993854
1.00013 1.00116 0.993555
1.00007 0.998677 0.996082
1.00002 0.999029 0.996062
0.999878 0.997449 0.999083
0.999931 0.999713 0.995289
0.999845 0.997746 0.998976
0.999846 0.998265 0.998793
1.00532 0.994895 0.990743
1.00528 0.994908 0.991292
1.00528 0.994923 0.991377
1.00528 0.994898 0.991334
1.00534 0.994869 0.991118
1.00561 0.995078 0.990842
1.00543 0.994854 0.991177
1.00108 0.994827 0.980674
1.00509 0.995201 0.991077
1.00019 1.00221 0.992381
1.00529 0.994899 0.991197
1.00537 0.994872 0.990654
1.00532 0.994875 0.990537
1.0045 1.00259 0.98451
1.00498 0.99969 0.986257
1.00515 0.995743 0.989299
1.00525 0.994879 0.9902
1.00314 1.00358 0.985952
1.00474 1.00349 0.983762
1.00425 1.00449 0.983791
1.00015 1.00133 0.993287
1.00243 1.00491 0.986404
0.99979 1.00408 0.991483
1.00112 1.00504 0.987892
1.00001 1.00268 0.991719
1.0054 0.994859 0.990978
1.00015 1.00281 0.991741
0.999872 1.00275 0.992434
1.0011 1.00155 0.991867
1.00538 0.994863 0.990428
1.00529 0.994853 0.990379
1.00258 1.00277 0.987228
1.00485 0.997707 0.988435
1.00522 0.995042 0.990064
1.00066 1.00399 0.989568
1.00185 1.005 0.987261
1.00201 1.00115 0.991094
1.00318 1.00487 0.984783
1.00323 1.00362 0.986492
1.00544 0.994746 0.990928
1.00532 0.99485 0.99054
1.00525 0.9949 0.990001
1.00508 0.996614 0.990405
1.00178 0.999687 0.991105
0.999658 1.00333 0.991697
1.00207 1.00122 0.99063
1.00053 1.00095 0.992132
1.0014 1.00422 0.989182
1.00119 1.00422 0.988885
1.00101 1.00349 0.988461
1.00139 0.999175 0.993466
1.00088 1.00372 0.990622
1.00144 1.00361 0.988532
1.00543 0.994933 0.990904
1.00536 0.994719 0.990874
1.00518 0.997374 0.987715
1.00493 1.00103 0.985279
1.00479 1.00048 0.985436
0.99902 1.0048 0.993006
1.00463 0.994803 0.99083
1.0023 1.003 0.987969
1.00459 1.00216 0.984483
1.00496 0.99551 0.990572
1.0039 1.00093 0.986603
0.99887 0.994886 0.982764
0.997805 1.00476 0.993757
1.00361 0.994709 0.990964
1.00274 1.00311 0.986073
1.00303 1.00085 0.98744
1.00351 0.997535 0.990689
0.999962 0.994893 0.939972
0.994945 0.994789 0.961893
0.996071 0.998148 0.987415
0.997627 0.994789 0.850843
0.994709 0.994887 0.810721
0.997936 1.00213 0.996401
0.997334 1.00207 0.997568
0.996755 1.00336 0.997295
1.00016 1.00398 0.990628
1.00015 1.00457 0.98997
0.999581 1.005 0.990585
0.999306 1.00367 0.992695
0.998598 0.999136 0.997891
0.999729 1.00497 0.990523
1.0003 1.00409 0.990202
1.00068 1.00449 0.989394
0.997958 1.00142 0.996725
0.999657 1.00423 0.991297
1.00035 1.00392 0.991588
0.998022 1.0041 0.993857
0.999573 1.00476 0.991053
1.00061 1.00466 0.988908
1.00016 1.00423 0.990223
1.00009 1.00489 0.989693
1.00038 1.00368 0.991101
0.99966 1.00503 0.990694
1.00017 1.00502 0.989757
1.00013 1.00436 0.990332
1.00009 1.0043 0.990162
0.999901 1.00254 0.992489
0.999925 1.00248 0.992513
0.999675 0.999409 0.995948
0.99987 1.00261 0.992453
0.999681 0.999435 0.995894
0.999935 0.997425 0.99912
0.999769 0.999444 0.995777
0.999937 0.997439 0.998469
1.00005 0.997318 0.997765
0.999875 1.00073 0.994284
0.999971 1.00108 0.993861
1.00008 0.998417 0.996347
1.00017 1.00101 0.993592
1.00006 0.998637 0.996385
0.999924 0.997102 0.999159
1.00005 0.999098 0.995687
0.999889 0.997559 0.999046
0.999853 0.997869 0.998957
1.00533 0.994875 0.991076
1.00527 0.994894 0.991337
1.00562 0.99489 0.990681
1.00027 0.994832 0.980838
1.00545 0.994859 0.99113
1.00506 0.994903 0.99105
1.00549 0.994772 0.99116
0.995819 0.994891 0.962686
1.00241 0.994862 0.981386
1.00025 1.00176 0.992798
1.00017 1.00234 0.992346
0.999475 1.00399 0.991575
0.999906 1.00271 0.992211
1.00539 0.994867 0.990967
1.00537 0.994857 0.990416
1.00528 0.994847 0.990343
1.0036 1.00307 0.987337
1.00484 0.996421 0.988804
1.00522 0.994952 0.990058
1.002 1.00067 0.989781
1.00447 1.00474 0.984533
1.00291 1.00277 0.986626
0.999879 1.00272 0.992494
1.00176 1.00459 0.987301
1.00066 1.00409 0.989724
1.00008 1.00284 0.991954
1.00036 1.00195 0.992296
1.00544 0.994761 0.990921
0.999969 1.00349 0.991363
1.00189 1.0008 0.991149
0.99815 1.00168 0.995252
1.00534 0.994861 0.990479
1.00525 0.994907 0.990006
1.00297 0.998794 0.991158
1.0048 0.996161 0.990363
1.00163 1.00449 0.988443
1.00113 1.00388 0.988121
1.00123 0.999772 0.993449
1.00255 1.00335 0.987914
1.00418 0.995814 0.990914
1.00522 0.995158 0.990596
1.00502 0.995939 0.989793
1.00362 0.995696 0.993452
0.997189 1.00495 0.994208
1.00231 1.00212 0.988945
0.998288 1.00403 0.99373
0.998981 1.00372 0.992779
1.00001 0.994927 0.925422
0.998768 1.00459 0.993588
1.00207 1.00328 0.98792
1.00419 0.994762 0.991081
1.00481 0.995425 0.99088
1.00417 1.00085 0.986653
1.00462 1.00217 0.984457
0.998789 0.995321 0.980807
0.998162 1.00446 0.993832
1.00331 0.995018 0.990834
1.00273 1.00378 0.986015
1.00366 1.00061 0.987585
1.00377 0.997826 0.990467
0.999835 0.994874 0.92593
0.99545 0.994825 0.958606
0.996132 0.997585 0.987797
0.997235 0.994766 0.855363
0.99473 0.994992 0.803834
0.998486 1.00454 0.992434
0.999382 0.994802 0.860784
0.994747 0.994835 0.801282
1.0009 0.997998 0.992688
1.00145 1.00168 0.990044
1.00146 0.999734 0.992835
0.994867 0.997004 0.991057
0.997427 0.994775 0.939533
0.994875 0.994776 0.954786
0.995379 0.994776 0.876582
0.99474 0.994839 0.789298
0.997022 1.00223 0.997695
0.996741 1.00315 0.997187
0.996553 1.00511 0.996325
1.00042 1.00399 0.990268
1.00064 1.00454 0.989346
0.999183 1.00504 0.990655
0.999313 1.0045 0.991705
0.998426 1.00057 0.996408
1.00028 1.00408 0.990207
1.00002 1.00418 0.991282
0.999488 1.00489 0.990736
1.00081 1.00468 0.98905
0.998017 1.00372 0.994093
0.99895 1.00374 0.993594
0.99672 1.00507 0.994815
0.99974 1.00502 0.989981
1.0005 1.00471 0.989482
1.00031 1.0049 0.989661
1.00011 1.00322 0.991538
0.999743 1.00486 0.990783
1.00034 1.0024 0.992202
0.999002 1.00177 0.993896
0.998343 1.00468 0.992383
0.999124 1.005 0.991024
0.999666 1.00489 0.990727
1.00005 1.00458 0.990134
0.999963 1.00499 0.989816
1.00022 1.00429 0.990242
0.999966 1.00266 0.992279
1.00017 1.00428 0.990171
0.999918 1.00248 0.992505
0.99989 0.999355 0.996385
0.999863 1.00254 0.99252
0.999739 0.999361 0.996207
0.999897 0.997378 0.997965
0.99967 0.99943 0.995893
0.999926 0.997442 0.999129
0.999922 0.997481 0.997847
1.00031 1.00186 0.992582
0.9999 1.00053 0.994479
0.99988 1.00079 0.994274
1.00003 0.99831 0.996502
0.999945 1.00115 0.993869
1.00008 0.998398 0.996342
0.999968 0.996944 0.999205
1.00006 0.998655 0.996631
0.999923 0.997275 0.998537
0.999902 0.997568 0.997774
0.999726 0.99482 0.980967
1.00549 0.994849 0.991079
1.005 0.994903 0.991019
0.996193 0.994824 0.963121
1.00249 0.99487 0.981784
1.00548 0.995153 0.991153
1.00357 0.995427 0.986044
0.997905 0.994802 0.964892
0.999781 0.994838 0.939336
0.996938 0.994797 0.877397
0.994676 0.994838 0.809067
0.999603 1.0028 0.99239
1.00024 1.00176 0.992781
1.00026 1.00227 0.992305
0.999769 1.00338 0.991895
0.998566 1.00479 0.992843
1.00048 1.00269 0.991508
1.0002 1.0036 0.991219
1.00021 1.00245 0.992115
1.00546 0.994797 0.990906
1.00535 0.99487 0.990425
1.00525 0.995071 0.99001
1.00296 0.999479 0.991218
1.00454 0.996368 0.990301
1.00113 0.99972 0.993427
1.00388 1.00344 0.987379
1.00248 1.00415 0.987356
1.0016 1.00051 0.991658
1.00183 1.00458 0.987653
1.00038 1.00351 0.991045
0.996362 1.00262 0.998211
1.00425 0.995175 0.991221
0.997595 1.00466 0.994045
1.00161 1.00222 0.990636
1.00499 0.99495 0.990565
1.00459 0.996383 0.990095
1.00309 0.995802 0.993319
0.999695 1.00422 0.991797
0.999992 1.0024 0.992977
1.00324 0.995533 0.99005
1.0034 0.99862 0.990673
1.00409 0.996532 0.991692
1.00095 0.997314 0.995269
0.998813 1.00499 0.991917
0.998165 1.00503 0.992754
0.998629 1.00475 0.99309
0.999806 0.994955 0.862212
1.00014 0.994879 0.940689
0.999068 1.00401 0.993917
1.00291 1.00431 0.985978
1.00301 0.995088 0.990687
1.00407 0.998116 0.99026
1.0041 1.00055 0.987768
0.999993 0.994853 0.937999
0.995826 0.994794 0.958155
0.996197 0.997654 0.988273
0.996908 0.994811 0.874869
0.994756 0.994853 0.796516
0.998824 1.00454 0.992394
0.999825 0.994853 0.858781
0.994714 0.99482 0.794674
1.00094 0.998103 0.992558
1.00142 1.00203 0.990074
1.00134 0.999883 0.993249
0.994866 0.998298 0.991882
0.997448 0.994773 0.932743
0.994891 0.994798 0.955166
0.994919 0.994789 0.876226
0.994759 0.994844 0.787329
0.997596 1.00491 0.994935
0.994738 0.994783 0.78926
0.994741 0.994772 0.793072
0.996829 1.00152 0.997213
0.999612 1.00179 0.995898
0.994893 0.999182 0.988389
0.99491 0.994812 0.958084
0.994888 0.994747 0.928358
0.994761 0.994874 0.879698
0.994845 0.994868 0.798064
0.996929 1.0027 0.997086
0.997264 1.00473 0.995897
0.99632 1.00398 0.996787
1.00036 1.00398 0.990189
1.00087 1.00466 0.989193
0.99964 1.00504 0.990415
0.999536 1.00444 0.990978
0.997764 1.00339 0.994329
1.00051 1.00475 0.989456
0.999035 1.00347 0.993068
1.00006 1.00499 0.989998
0.996319 1.00496 0.995085
0.996038 1.0051 0.997149
0.998213 1.00476 0.993288
1.00037 1.00498 0.990075
1.00054 1.00459 0.989631
0.999904 1.00275 0.991965
0.999678 1.0047 0.990745
1.00049 1.00208 0.992099
0.99861 1.00231 0.994266
0.99861 1.00396 0.992559
0.997786 1.0051 0.993084
0.998588 1.00118 0.995908
1.0001 1.00223 0.992811
1.00342 0.99944 0.990616
0.99867 1.00475 0.991611
0.998661 1.00465 0.992405
0.999315 1.00506 0.990055
0.999293 1.00504 0.991067
1.00019 1.00465 0.989826
0.99946 1.00503 0.990758
1.00008 1.00457 0.990212
1.00003 1.0029 0.991828
1.00029 1.0043 0.990151
0.999981 1.00262 0.992287
1.00002 0.999384 0.996122
0.999935 1.00245 0.992522
0.999872 0.999342 0.996022
1.00002 0.997275 0.997808
0.999734 0.999352 0.995918
0.999954 0.997352 0.999142
0.999922 0.997428 0.999139
1.00038 1.00234 0.992322
0.999947 1.00071 0.994277
1.00022 1.00198 0.992595
1.00003 0.998235 0.996572
0.999888 1.00055 0.994471
0.999861 1.00085 0.994264
1.00004 0.998311 0.99649
0.999991 0.996852 0.999229
1.00006 0.998436 0.996861
0.999973 0.99696 0.998642
0.999939 0.99725 0.997994
0.999529 0.994852 0.845931
0.99473 0.994814 0.788262
0.996212 0.994843 0.963635
1.00206 0.99486 0.982316
1.00542 0.994789 0.991163
0.997825 0.994867 0.96365
1.00343 0.994723 0.986609
0.999929 0.99486 0.93495
0.996941 0.994752 0.856219
0.99472 0.994887 0.802529
0.997671 0.994762 0.971709
0.997058 0.994805 0.940549
0.995783 0.994793 0.876265
0.994787 0.994865 0.798447
0.999863 1.00372 0.991837
0.999838 1.00253 0.992483
1.00015 1.00191 0.992771
0.999926 1.00295 0.99222
0.998215 1.00436 0.993592
1.00035 1.0041 0.990211
0.999975 1.00345 0.991575
1.00072 1.00382 0.989803
1.00018 1.00357 0.991088
0.999853 1.00303 0.992009
1.00407 0.994777 0.991511
1.00486 0.994871 0.990529
1.00388 0.996657 0.990401
1.0024 0.995829 0.993183
1.00044 1.00236 0.993151
0.999684 1.00452 0.989918
1.00053 1.00206 0.992497
0.997867 1.00435 0.993838
1.00227 0.9953 0.990601
0.998869 1.00509 0.991655
0.997907 1.00501 0.992937
1.00312 0.99849 0.990595
1.00372 0.996296 0.991893
1.00069 0.997543 0.995617
0.998671 1.00466 0.992836
0.999739 0.995603 0.989006
1.00074 0.999279 0.994862
0.997031 1.00248 0.99669
0.998585 1.00469 0.991077
0.997636 1.00515 0.992484
0.998103 1.00484 0.993469
0.994717 0.994814 0.811718
0.999803 0.994877 0.868208
1.00008 0.994882 0.925737
0.998918 1.00478 0.992332
1.00169 1.00223 0.990061
1.00095 0.997622 0.992423
1.00109 0.999796 0.993668
0.99983 0.994914 0.873307
0.997169 0.994805 0.926372
0.994873 0.994816 0.954814
0.994876 0.999027 0.992559
0.995371 0.994797 0.860343
0.994686 0.994804 0.801107
0.99481 0.995034 0.803188
0.997619 1.00429 0.994619
0.994723 0.994795 0.799089
0.994764 0.994777 0.792405
0.996956 0.999901 0.99786
0.999061 1.00168 0.995798
0.9949 0.997807 0.990294
0.995134 0.994792 0.956631
0.995366 0.994785 0.939986
0.994704 0.996074 0.860349
0.995133 0.99487 0.808062
0.996637 1.00382 0.998257
0.994763 0.994813 0.801085
0.99481 0.994815 0.791316
0.994838 1.00246 0.999914
0.994988 0.996733 0.966174
0.994779 0.994833 0.937424
0.9949 0.994913 0.854599
0.995781 0.994899 0.821851
0.997892 1.00366 0.995438
0.996721 1.00418 0.996939
0.995562 1.00398 0.998428
1.00036 1.0048 0.989426
1.00022 1.00504 0.990018
0.999125 1.00315 0.99254
0.996143 1.00477 0.99536
0.99983 1.00501 0.990092
0.997986 1.0049 0.993274
0.995526 1.00486 0.997414
0.994904 1.0043 0.998632
0.995627 1.00507 0.997458
0.998715 1.00513 0.992782
0.999765 1.00482 0.990699
1.00058 1.00159 0.992
0.998131 1.00288 0.994628
0.997886 1.00503 0.993162
0.999148 1.0037 0.992504
0.997994 1.00201 0.99594
0.99813 1.00359 0.994276
0.995627 1.0051 0.997512
1.00127 0.99884 0.994911
0.999639 1.00162 0.993761
1.00195 1.0003 0.991169
1.00474 1.00004 0.98772
1.00254 1.00135 0.990277
1.00248 0.998994 0.991902
0.999291 1.00454 0.991405
0.999524 1.00512 0.989524
0.999049 1.00456 0.992428
0.999884 1.00506 0.990059
1.00047 1.0047 0.989213
0.999783 1.00479 0.991105
1.00035 1.00463 0.989809
1.00009 1.00344 0.991271
1.00021 1.00445 0.990292
1.00011 1.00292 0.991825
1.00017 0.999501 0.995809
1.00009 1.00246 0.992296
1.00002 0.999405 0.99572
1.00011 0.997369 0.997606
0.999877 0.999312 0.995723
1.00001 0.997282 0.998476
0.999968 0.997307 0.999125
1.00034 1.00313 0.991174
1.00009 1.0009 0.993904
1.00028 1.00237 0.992117
1.00004 0.998282 0.996508
0.999965 1.00064 0.99429
1.00024 1.00186 0.992609
1.00002 0.996792 0.999243
1.00002 0.998241 0.996572
0.999889 1.0006 0.994465
1.00005 0.998304 0.996478
0.999993 0.996883 0.999223
0.999965 0.996956 0.999198
0.994709 0.994764 0.789458
0.999599 0.994844 0.859117
0.994766 0.994775 0.7909
0.994742 0.994803 0.788637
0.997894 0.994876 0.962383
1.0032 0.994765 0.987168
0.999719 0.994815 0.929781
0.99812 0.994798 0.87715
0.994765 0.994844 0.795904
0.998259 0.994805 0.970635
0.997306 0.994783 0.926049
0.995029 0.994791 0.875178
0.994731 0.994857 0.790838
0.994902 0.994797 0.962812
0.995713 0.994723 0.926645
0.994821 0.996792 0.852768
0.994832 0.99488 0.800005
1.00067 1.00476 0.990218
0.999329 1.00376 0.991984
1.00005 1.00228 0.992572
0.997601 1.00391 0.994351
1.00102 1.00372 0.989388
1.00023 1.00405 0.990433
0.999437 1.0038 0.991646
1.00123 1.00315 0.990017
1.00078 1.00408 0.989818
1.00032 1.00326 0.990958
1.00198 0.994804 0.991113
1.00277 0.998233 0.990536
1.00365 0.995965 0.992095
1.00022 0.997316 0.995965
1.00009 1.00458 0.992557
0.998176 1.00495 0.993126
0.998929 1.00511 0.991394
0.999642 1.00458 0.990871
0.999471 0.996516 0.989654
0.99858 1.00512 0.992194
0.998808 1.00475 0.993343
1.00041 0.999223 0.995159
0.998423 1.00121 0.996539
0.996067 1.0009 0.988673
0.996639 1.00026 1.00036
0.99507 1.0051 0.997126
0.998086 1.00477 0.993157
0.996823 1.00512 0.994805
0.994789 0.994801 0.807702
0.994714 0.994786 0.807118
0.999824 0.994934 0.849237
0.997789 1.00436 0.994366
0.99882 1.00115 0.995701
0.997187 0.999431 0.998505
0.994696 0.994781 0.796775
0.995448 0.994736 0.927982
0.995228 0.99479 0.956125
0.994878 0.996054 0.992603
0.994769 0.995332 0.880184
0.994774 0.994781 0.792665
0.995608 0.994866 0.809813
0.996709 1.00372 0.998389
0.994775 0.994818 0.803554
0.994797 0.994816 0.792478
0.994997 1.00216 0.998901
0.995086 0.995864 0.967962
0.994809 0.995257 0.925208
0.995497 0.99489 0.816977
0.995282 0.998153 0.86337
0.994845 1.00503 1.00025
0.994788 0.994833 0.791214
0.994863 0.994836 0.8044
0.994829 0.994869 0.79992
0.994787 0.999136 0.988893
0.994902 0.996326 0.9407
0.997744 0.994902 0.87486
0.997079 1.0049 0.997114
0.995722 1.00474 0.998146
0.995086 1.00525 0.998956
0.999715 1.00498 0.990113
0.997872 1.0051 0.993255
0.995165 1.00505 0.997674
0.998152 1.00512 0.99279
0.995769 1.00502 0.997441
0.99491 1.005 0.998537
0.994884 1.00499 0.998851
0.995418 1.00506 0.997578
0.997683 1.00501 0.993264
0.999608 1.00362 0.992446
0.997565 1.00278 0.995972
0.995642 1.00484 0.997421
0.99788 1.00384 0.994305
0.998289 1.00129 0.996944
0.99839 0.998777 0.998742
1.00197 1.00014 0.990334
0.999219 1.00107 0.994645
1.00234 1.00018 0.990827
1.00442 1.0015 0.986211
1.00473 1.00268 0.984499
1.00431 0.999249 0.98909
1.00381 1.00015 0.987839
1.00153 1.00395 0.988694
1.00165 1.00173 0.990595
1.00146 0.998598 0.993157
0.999916 1.00435 0.9912
0.999961 1.00511 0.989463
1.00049 1.00508 0.988504
1.00044 1.00506 0.990067
1.00064 1.00473 0.989199
1.00025 1.0038 0.990616
1.00051 1.00447 0.989791
1.00017 1.00328 0.991266
1.0002 0.999799 0.995478
1.00008 1.003 0.991821
1.00013 0.999573 0.995368
1.00022 0.997457 0.997383
1.00003 0.999415 0.995391
1.00011 0.997334 0.998337
1.00005 0.997278 0.999056
1.00071 1.0032 0.990324
1.00014 1.00136 0.993
1.00047 1.003 0.991179
1.00011 0.998381 0.996299
1.00008 1.0009 0.993723
1.00022 1.00241 0.991912
1.00004 0.996802 0.999224
1.00005 0.99825 0.996522
0.999991 1.00054 0.994303
1.00001 0.996823 0.999239
1.00001 0.998261 0.996571
0.999994 0.99687 0.999218
0.994816 0.99481 0.797822
0.994716 0.994807 0.803837
0.999507 0.994824 0.857791
1.00105 1.00296 0.990275
0.994797 0.994801 0.79721
0.994767 0.994777 0.790842
0.994775 0.994806 0.803075
0.99862 0.994817 0.970071
0.996997 0.994789 0.940225
0.995695 0.994848 0.857919
0.9947 0.994844 0.801479
0.995855 0.994807 0.960506
0.995522 0.994779 0.938732
0.994731 0.99521 0.856286
0.994849 0.994878 0.802823
0.994842 0.994794 0.954908
0.994769 0.994803 0.935305
0.996087 0.998535 0.866916
0.995412 0.9949 0.82206
0.999262 1.00453 0.991317
0.999938 1.00468 0.990323
0.999549 1.00353 0.992133
1.00117 1.00227 0.990666
1.00094 1.00404 0.989515
1.00013 1.00439 0.990654
1.00131 1.00324 0.989933
1.00081 1.00415 0.989833
0.998466 0.997357 0.990151
0.99971 0.999158 0.995374
0.999799 1.00458 0.990658
0.999818 0.999879 0.996397
0.999112 1.00457 0.993225
0.999229 1.00512 0.9919
0.998232 1.00444 0.993026
0.995667 1.00009 0.989038
0.997534 1.00504 0.994721
0.99633 1.00365 0.997395
0.995919 1.00064 1.00042
0.997413 1.00427 0.994956
0.994792 1.00088 0.986661
0.995231 1.0029 0.998792
0.995709 1.00499 0.997558
0.996889 1.00535 0.995824
0.994766 0.994812 0.795929
0.994788 0.994805 0.804582
0.994708 0.994764 0.802344
0.996799 1.00391 0.998498
0.995149 1.00114 0.997858
0.994791 0.994824 0.805821
0.994742 0.994823 0.938907
0.9953 0.995878 0.965018
0.995395 0.996848 0.861667
0.994793 0.994818 0.793389
0.99489 0.994885 0.812064
0.99509 1.00504 1.00007
0.99479 0.994829 0.791471
0.994868 0.99485 0.804063
0.994829 0.999749 0.992624
0.994851 0.994873 0.802805
0.994853 0.996659 0.932918
0.996406 0.997432 0.876588
0.995051 1.00368 0.997581
0.994841 0.994841 0.801221
0.994801 0.99481 0.798936
0.99479 0.994866 0.798131
0.996152 0.998529 0.866552
0.99488 1.00111 0.972195
0.99522 0.997264 0.925814
0.996154 1.00509 0.99788
0.99526 1.00521 0.998972
0.99482 1.0053 0.998243
0.997495 1.00514 0.992795
0.995143 1.00492 0.997431
0.994906 1.00509 0.998476
0.995275 1.00486 0.99755
0.994891 1.0049 0.99885
0.997496 1.00205 0.9987
0.995511 1.00466 0.997322
0.997336 1.00418 0.994371
0.997758 1.00158 0.997373
0.998029 1.00075 0.994846
0.995829 0.998764 1.00228
1.00159 0.999842 0.991637
1.00439 1.00444 0.982548
1.00433 1.00302 0.984364
1.00276 1.00001 0.99041
1.00424 1.00185 0.98571
1.00509 1.00241 0.983985
1.0051 1.00102 0.985801
1.00433 1.00248 0.984778
1.00325 1.00116 0.988502
1.0037 0.999833 0.988908
1.00308 1.00021 0.987985
1.00066 1.00513 0.988134
1.00101 1.00416 0.988872
1.00073 1.00209 0.990903
1.00042 1.0051 0.989401
1.00083 1.00508 0.988539
1.00039 1.00449 0.989625
1.00079 1.00495 0.989183
1.00035 1.00373 0.990608
1.00018 1.00012 0.994373
1.00038 1.00318 0.991263
1.00022 0.999848 0.994648
1.00014 0.997512 0.998822
1.0001 0.999719 0.995002
1.00018 0.99742 0.998177
1.00013 0.997305 0.998964
1.00061 1.00339 0.990314
1.00033 1.00192 0.992186
1.00065 1.00328 0.990518
1.0002 0.998604 0.995962
1.00024 1.00135 0.9929
1.00051 1.00298 0.991178
1.00008 0.996828 0.999175
1.00013 0.99834 0.996317
1.0001 1.00089 0.993543
1.00004 0.99679 0.999232
1.00006 0.998216 0.996536
1.00001 0.996853 0.999236
0.994792 0.994824 0.800147
0.994811 0.994809 0.798212
0.994707 0.994817 0.803286
1.00115 1.00292 0.990321
1.00033 1.00432 0.989819
1.00165 1.00136 0.991434
0.994868 0.994852 0.803371
0.994804 0.994802 0.798237
0.994769 0.994769 0.790929
0.996826 0.994799 0.960617
0.99485 0.994739 0.926651
0.994756 0.996378 0.878499
0.994836 0.994863 0.797056
0.994969 0.994785 0.95616
0.994788 0.996045 0.931165
0.996012 0.99737 0.864053
0.995249 0.994899 0.817009
0.994863 0.995164 0.954281
0.994861 0.996295 0.935108
0.997044 0.994915 0.875152
0.994843 0.994874 0.799598
0.999134 1.00248 0.993365
0.999932 1.00396 0.991098
0.99988 1.00445 0.990425
1.0012 1.00237 0.990593
1.00059 1.00449 0.989638
1.00136 1.00333 0.989848
0.99554 1.00011 0.989699
0.995727 1.00108 1.0006
0.998883 1.00358 0.9929
0.99803 1.00253 0.997567
0.99815 1.00464 0.994637
0.996892 1.0038 0.995604
0.996262 1.00507 0.995937
0.994767 1.00247 0.986587
0.995401 1.00514 0.997865
0.995013 1.00341 0.998121
0.996015 1.00478 0.997226
0.995452 0.99974 0.984982
0.995239 1.00517 0.994781
0.994809 1.00352 0.999214
0.994864 0.994843 0.79512
0.994773 0.994821 0.794952
0.994788 0.994804 0.801509
0.995143 1.00502 0.999836
0.99485 0.999921 0.988258
0.994784 0.994826 0.791739
0.994829 0.997087 0.932466
0.996324 0.994898 0.861632
0.994877 0.994847 0.803696
0.994835 0.994859 0.797197
0.99494 1.00348 0.998094
0.994826 0.99484 0.800811
0.994815 0.994803 0.800061
0.994913 1.00071 0.96951
0.99472 0.99486 0.790913
0.995818 0.997926 0.86338
0.99484 0.99597 0.939759
0.994966 1.00521 0.98902
0.994787 0.99483 0.801124
0.994772 0.99479 0.792353
0.994672 0.994848 0.810459
0.994823 0.996515 0.851705
0.994885 0.996943 0.935807
0.99484 1.00134 0.963683
0.995206 1.0052 0.998936
0.994913 1.00527 0.998171
0.995615 1.00474 0.997476
0.99562 1.00457 0.997525
0.994916 1.00493 0.998847
0.996046 1.00379 0.998596
0.99881 1.00018 0.998174
0.997256 1.00193 0.997776
1.00072 1.00039 0.993774
1.00213 1.00482 0.986378
1.00091 0.999648 0.993323
1.00422 1.00427 0.983483
1.00429 1.00396 0.98282
1.005 1.00094 0.984986
1.00509 1.00164 0.984602
1.00428 1.00306 0.984256
1.00423 1.00219 0.98522
1.00519 1.00192 0.984284
1.0051 1.00221 0.984124
1.00474 1.0007 0.986613
1.00461 1.0011 0.986011
1.00376 1.00232 0.985064
1.00146 1.00411 0.988076
1.00291 1.00177 0.988404
1.00296 1.00049 0.988709
1.00063 1.00502 0.988639
1.00107 1.00512 0.98814
1.00056 1.00432 0.989051
1.00115 1.00508 0.988577
1.00064 1.0043 0.989637
1.00015 1.00078 0.993774
1.00056 1.00352 0.9906
1.00023 1.00013 0.994352
1.00019 0.997709 0.99876
1.00024 0.999834 0.994657
1.00022 0.997552 0.998021
1.00018 0.997471 0.998866
1.00112 1.00341 0.98987
1.0005 1.00225 0.991829
1.00083 1.00313 0.990338
1.00027 0.998921 0.995508
1.00034 1.00192 0.992273
1.0006 1.0033 0.990717
1.00011 0.996924 0.999099
1.00021 0.998538 0.995984
1.00031 1.00133 0.992801
1.00008 0.996826 0.999191
1.00014 0.998302 0.996335
1.00004 0.996813 0.99924
0.99483 0.99484 0.799697
0.994793 0.994841 0.800441
0.994811 0.994815 0.798581
0.999688 1.00521 0.989668
1.00132 1.00334 0.991075
1.00099 1.00291 0.990375
1.0004 1.00417 0.989718
1.00071 1.00164 0.991802
1.00038 1.00271 0.991237
0.9994 1.00128 0.994099
0.994826 0.994822 0.792755
0.994869 0.994854 0.80307
0.994804 0.994829 0.799267
0.994889 0.994898 0.811953
0.995545 0.99479 0.954943
0.994793 0.996745 0.925621
0.995935 0.994903 0.877777
0.994887 0.995307 0.953729
0.994869 0.998383 0.921623
0.996293 0.9974 0.876209
0.995012 0.994871 0.809437
0.995311 0.996038 0.957873
0.994865 0.998249 0.924033
0.994904 0.994912 0.855159
0.994751 0.99484 0.790645
0.996637 1.00441 0.995855
0.998841 1.00298 0.993913
0.999913 1.00427 0.990877
1.0011 1.0028 0.990528
0.994781 1.00187 0.986418
0.994773 1.00384 0.997391
0.996489 1.00454 0.996254
0.996545 1.00505 0.996062
0.995193 1.00513 0.998295
0.995496 1.005 0.997229
0.995557 1.00377 0.999284
0.995418 1.00045 0.981831
0.99528 1.00519 0.99487
0.995675 1.00368 0.998703
0.995323 1.00236 0.978263
0.994712 1.00319 0.999329
0.994766 0.994825 0.797331
0.994849 0.994843 0.79913
0.994783 0.994837 0.793954
0.994843 1.00361 0.998593
0.994879 1.00081 0.973004
0.994815 0.994841 0.800435
0.994864 0.997806 0.927027
0.996088 0.994903 0.877325
0.994812 0.994832 0.801032
0.994687 0.99485 0.801312
0.994905 1.00502 0.990001
0.994799 0.994837 0.801455
0.994762 0.994792 0.792354
0.99483 1.00016 0.963797
0.994726 0.994853 0.803973
0.994721 0.99598 0.854746
0.994879 0.99727 0.923075
0.99485 1.00431 0.98418
0.994832 0.994813 0.79807
0.994717 0.994821 0.789802
0.995154 0.994785 0.878101
0.994762 0.99514 0.935432
0.994807 0.99997 0.958008
0.99493 1.00528 0.998547
0.995322 1.00464 0.997546
0.996695 1.00266 0.99726
0.995044 1.00498 0.998496
0.996888 1.00267 0.99851
1.00136 1.00098 0.992885
1.00333 0.999781 0.992713
1.00293 1.0049 0.985508
1.00433 1.00247 0.984312
1.00384 1.00409 0.984418
1.00446 1.00397 0.982761
1.00464 1.00247 0.984172
1.00525 0.998581 0.986739
1.00512 1.00033 0.985764
1.005 1.00109 0.984964
1.00514 1.00152 0.984661
1.00502 1.00151 0.984595
1.0042 1.00314 0.984146
1.00518 1.00197 0.984315
1.00519 1.00206 0.984241
1.00511 1.00204 0.984268
1.00361 1.00184 0.987511
1.00404 1.00108 0.98703
1.00429 1.00105 0.986226
1.001 1.00511 0.987737
1.00179 1.00397 0.988104
1.00243 1.00248 0.988306
1.00027 1.00142 0.992942
1.00084 1.00489 0.988675
1.00141 1.00511 0.988145
1.00077 1.00418 0.989648
1.00018 1.0008 0.993746
1.00016 0.997973 0.998656
1.00026 1.00016 0.994332
1.0002 0.997675 0.998739
1.00022 0.997497 0.998791
1.00036 1.00507 0.989956
1.00099 1.00507 0.988982
1.00077 1.00273 0.990934
1.00081 1.00385 0.989844
1.00027 0.999343 0.995077
1.0005 1.00228 0.991824
1.00093 1.00311 0.990364
1.00013 0.997152 0.998988
1.00026 0.998913 0.99553
1.00037 1.00195 0.992355
1.00011 0.996919 0.999122
1.00021 0.998504 0.996012
1.00008 0.996804 0.999207
0.994799 0.994844 0.792504
0.994824 0.994833 0.799316
0.994798 0.99483 0.800729
1.00008 1.00517 0.989611
1.00026 1.00271 0.991367
1.00159 1.00222 0.988287
0.998763 1.00403 0.991255
1.00172 1.00149 0.991693
1.00073 1.00421 0.989614
1.00021 1.00215 0.992172
1.00028 1.00359 0.991257
0.999896 1.00098 0.994385
0.998967 1.00366 0.994272
0.994755 0.99477 0.793961
0.994808 0.994827 0.794026
0.994872 0.99484 0.802729
0.99521 0.994866 0.811097
0.995874 0.994911 0.861749
0.994847 0.994885 0.952796
0.994816 0.996725 0.934243
0.995415 0.996151 0.953816
0.994872 0.996704 0.936436
0.995066 0.998276 0.864325
0.994767 0.994845 0.788694
0.99492 0.998164 0.956624
0.994836 0.997874 0.936129
0.994765 0.994894 0.880048
0.994709 0.994881 0.812418
0.998914 1.0004 0.99646
0.996314 1.00437 0.996369
0.998887 1.00273 0.994481
0.99525 1.00258 0.978344
0.995111 1.00517 0.994674
0.995209 1.00496 0.997204
0.994738 1.00435 0.999366
0.995652 1.00361 0.998591
0.994737 1.00239 0.999777
0.994864 1.00193 0.978256
0.996122 1.00126 1.00082
0.994892 1.00068 0.984819
0.994803 0.994818 0.807345
0.994789 0.994835 0.796322
0.994834 0.994835 0.803249
0.994953 1.00495 0.990309
0.994857 0.99994 0.961522
0.994817 0.994841 0.80179
0.994859 0.997257 0.935258
0.994749 0.996048 0.87585
0.994761 0.99477 0.792628
0.99477 0.994848 0.797324
0.995214 1.00481 0.984806
0.994817 0.994816 0.798288
0.994733 0.994815 0.790184
0.994955 0.998527 0.959095
0.994899 0.994786 0.876047
0.994803 0.996342 0.929002
0.99539 1.00252 0.981584
0.994709 0.994776 0.790293
0.997116 0.994801 0.878229
0.99539 0.99472 0.927025
0.994845 0.995263 0.959494
0.995489 1.00517 0.997651
0.995757 1.00388 0.997145
0.998239 1.00126 0.997013
0.994869 1.00516 0.998894
0.999934 1.00172 0.99406
1.00418 0.997662 0.990579
1.00384 1.00501 0.984618
1.00419 1.00258 0.984215
1.00464 0.999362 0.986877
1.00472 1.00406 0.982699
1.00473 1.00206 0.98425
1.00506 0.998526 0.98723
1.00534 0.995934 0.989098
1.00528 0.99814 0.986945
1.00525 0.998507 0.986793
1.00516 1.00032 0.985872
1.00512 1.00037 0.985696
1.00497 1.00118 0.984941
1.00517 1.00214 0.984142
1.00515 1.00142 0.98461
1.00497 1.0014 0.984587
1.00497 1.00157 0.985511
1.00481 1.00232 0.9846
1.0052 1.00226 0.984198
1.00199 1.004 0.987178
1.00324 1.00197 0.98744
1.00365 1.00135 0.987442
1.00037 1.00248 0.992843
1.00125 1.0051 0.987789
1.00206 1.00378 0.988133
1.00018 0.998617 0.996144
1.0003 1.00159 0.993347
1.00105 1.00478 0.988712
1.00023 1.00085 0.993714
1.00018 0.99808 0.998589
1.00021 0.997679 0.998714
1.00133 1.00373 0.988809
1.0015 1.00513 0.988223
0.999497 1.00508 0.989847
1.00074 1.00394 0.989843
1.00076 1.00479 0.988944
1.00021 0.99982 0.994685
1.00062 1.00297 0.990947
1.00061 1.00422 0.989811
1.00012 0.997451 0.998899
1.00028 0.999293 0.9951
1.00049 1.00228 0.991819
1.00012 0.997128 0.999022
1.00025 0.99887 0.99555
1.00011 0.996891 0.999146
0.994779 0.994821 0.80761
0.994802 0.994843 0.792814
0.994811 0.994851 0.798906
1.00336 1.00192 0.98662
0.999954 1.00499 0.989553
0.999708 1.00294 0.991711
1 1.00489 0.990804
1.00282 1.00204 0.988377
1.00071 1.00188 0.993115
1.00367 1.00213 0.987021
0.996753 1.00475 0.993961
0.999671 1.00389 0.991274
0.999854 0.999791 0.994674
0.997809 1.00338 0.994225
0.998229 1.0032 0.994569
0.994748 0.994839 0.802102
0.994774 0.994776 0.793344
0.994801 0.994831 0.795039
0.994809 0.995321 0.804231
0.995136 0.996959 0.862772
0.994859 0.998359 0.924096
0.995677 0.995089 0.953133
0.995125 0.997725 0.957077
0.994734 0.995194 0.805293
0.994861 0.996723 0.927473
0.994718 0.99669 0.860812
0.994885 0.996526 0.961844
0.994778 0.995732 0.938146
0.994976 0.994811 0.878164
1.00015 0.994967 1.00079
0.998694 1.00101 0.996318
0.995788 1.00441 0.996849
0.994917 1.00169 0.978216
0.995483 1.00119 1.00016
0.996082 1.00345 0.998523
0.996739 1.00028 1.00118
0.994946 0.99966 0.984945
0.995796 0.998869 0.992351
0.994713 0.994809 0.806503
0.994798 0.994815 0.808021
0.994806 0.994837 0.795164
0.994919 1.00444 0.984988
0.99488 0.999878 0.958352
0.9948 0.994825 0.798748
0.994832 0.996483 0.923427
0.995371 0.994785 0.859412
0.99477 0.994821 0.804208
0.995017 1.00496 0.98134
0.994717 0.994819 0.80437
0.996832 0.994752 0.857025
0.994872 0.995456 0.955107
0.995229 0.994779 0.939096
0.994891 1.00079 0.990116
0.999638 0.994869 0.845917
0.997105 0.994805 0.940687
0.994878 0.994814 0.953777
0.994864 1.00515 0.996978
0.997413 1.0018 0.996874
1.00063 0.999729 0.993639
0.998714 1.00173 0.995222
1.00378 0.997812 0.990326
1.00473 0.997443 0.989413
1.00403 1.00266 0.984118
1.00462 0.999312 0.986773
1.0051 0.996159 0.989133
1.00472 1.00156 0.984336
1.00495 0.998466 0.987186
1.00535 0.995315 0.98977
1.00528 0.995026 0.990608
1.00532 0.996141 0.98904
1.00535 0.995916 0.989157
1.0053 0.99811 0.987039
1.00528 0.998112 0.987141
1.00524 0.998465 0.986845
1.00523 1.00099 0.984946
1.00517 1.0002 0.985805
1.00512 1.00037 0.985626
1.00517 1.0027 0.983731
1.00511 1.0022 0.984191
1.00516 1.0013 0.984559
1.00304 1.00302 0.986794
1.00438 1.00217 0.985454
1.00423 1.00271 0.984886
1.00079 1.003 0.990517
1.00225 1.004 0.987173
1.00298 1.0024 0.987363
0.999888 0.999732 0.998115
1.00052 1.00239 0.991588
1.00154 1.00509 0.987842
1.00019 0.998598 0.998351
1.00036 1.0016 0.992779
1.0002 0.99816 0.998511
1.00411 1.00182 0.987484
1.00181 1.00336 0.988544
1.00169 1.00464 0.987975
1.00095 1.00467 0.988972
1.00104 1.00514 0.988228
0.999782 1.00515 0.989741
1.00006 1.00072 0.994093
1.00068 1.00396 0.989855
1.00073 1.00441 0.988902
1.0001 0.997654 0.998808
1.00019 0.999819 0.994704
1.00044 1.0032 0.990957
1.00011 0.997393 0.998922
1.00029 0.999269 0.995117
1.00011 0.99708 0.999056
0.994737 0.994784 0.791492
0.994796 0.994822 0.807981
0.994808 0.994838 0.793173
1.00334 1.00252 0.986466
1.00468 1.00305 0.985688
1.00248 1.00353 0.986753
0.999727 1.00487 0.990347
1.00383 1.00162 0.988479
0.998709 1.00109 0.994462
0.998237 1.0039 0.99345
1.00207 1.00263 0.988351
1.00164 1.00067 0.991439
0.998752 0.999854 0.996318
0.998563 1.00354 0.994151
0.998922 1.00351 0.994278
0.997723 0.994785 0.85091
0.994718 0.994818 0.795765
0.994782 0.994781 0.793589
0.994762 0.994871 0.79768
0.994769 0.996064 0.880454
0.994849 0.996397 0.923452
0.994864 0.996785 0.955576
0.994895 0.996811 0.95933
0.995274 0.994903 0.876178
0.9948 0.995681 0.925306
0.994849 0.997411 0.963201
0.995398 0.99471 0.927463
0.999262 0.995482 1.00362
0.999834 0.995288 1.00077
0.99832 1.00069 0.996312
0.99486 0.99933 0.985224
0.997062 0.999384 1.00153
0.99626 0.998991 0.991916
0.995831 0.996529 0.989951
0.999804 0.995144 0.860921
0.994706 0.994789 0.803334
0.994801 0.994818 0.808446
0.994836 1.0046 0.981805
0.994844 0.994877 0.953136
0.99471 0.994825 0.803626
0.99495 0.994735 0.927837
0.997495 0.994803 0.878138
0.994921 0.998698 0.986599
0.999627 0.994857 0.85924
0.997196 0.99479 0.926511
0.994859 0.994791 0.95477
0.996075 0.998216 0.987072
0.999764 0.994843 0.939466
0.995006 0.994834 0.961244
0.996339 1.00137 0.996759
0.99987 0.999563 0.993588
1.00331 0.998813 0.991609
1.00289 0.998784 0.990096
1.00443 0.997372 0.989331
1.00515 0.995758 0.989876
1.00464 0.999326 0.986671
1.00496 0.996587 0.989062
1.00532 0.99484 0.990177
1.00489 0.998441 0.987139
1.00535 0.99533 0.989714
1.00529 0.994852 0.990632
1.00532 0.99488 0.990737
1.00528 0.995011 0.990674
1.00525 0.99524 0.990614
1.0053 0.9966 0.988974
1.00532 0.99617 0.989189
1.00538 0.995872 0.989219
1.00531 0.999159 0.98644
1.0053 0.99817 0.986971
1.00528 0.998062 0.987336
1.0053 1.00228 0.983643
1.00524 1.00103 0.984967
1.00519 1.00011 0.985738
1.00392 1.003 0.985435
1.00503 1.00264 0.98381
1.00499 1.00226 0.984244
1.00116 1.00322 0.989652
1.00301 1.00305 0.986721
1.00392 1.00226 0.985404
1.00017 1.00011 0.997712
1.00094 1.00281 0.990528
1.00249 1.00393 0.987161
1.00008 0.999681 0.996791
1.00071 1.00226 0.991616
1.00022 0.998824 0.998202
1.00492 1.00187 0.985634
1.00328 1.00199 0.987363
1.00214 1.00339 0.987707
1.0019 1.00348 0.988279
1.00141 1.0048 0.988013
1.00103 1.00511 0.988471
1.00015 1.00145 0.993259
1.00076 1.00476 0.988948
1.00032 1.00512 0.988237
1.00008 0.998145 0.99862
1.00007 1.00056 0.99412
1.00069 1.00398 0.989868
1.00007 0.9977 0.998837
1.00016 0.999769 0.994742
1.0001 0.997363 0.998947
0.999312 0.994807 0.860136
0.994724 0.994793 0.797569
0.994805 0.994821 0.808444
1.00327 1.00273 0.986323
1.00304 1.00368 0.985784
1.00436 1.00345 0.985434
1.00466 1.00333 0.984205
1.00187 1.00266 0.989202
0.999448 1.00415 0.992986
1.00208 1.00306 0.989666
1.00132 1.00104 0.99187
1.0046 0.995678 0.99065
1.00201 0.998445 0.994103
1.00166 0.99733 0.99523
1.00033 0.998852 0.995969
0.999926 1.00182 0.993972
0.99743 0.994818 0.937269
0.997859 0.994755 0.855246
0.994696 0.994808 0.801945
0.995461 0.994802 0.861285
0.994784 0.995684 0.936272
0.995025 0.996245 0.960993
0.994836 0.996747 0.964869
0.995992 0.994761 0.940142
0.995743 0.994778 0.963194
0.998369 0.9967 1.00149
0.998283 0.996131 1.00371
0.99961 0.99654 1.00063
0.996487 0.998349 0.991599
0.996996 0.997 0.990223
1.00004 0.994956 0.925073
0.999806 0.994893 0.867264
0.994697 0.994771 0.800275
0.995039 0.998327 0.982705
0.994957 0.994773 0.954285
0.999624 0.994836 0.858133
0.997133 0.994805 0.940422
0.995923 0.997721 0.987323
0.999942 0.994862 0.934815
0.995619 0.994826 0.959063
1.00016 0.995079 0.985799
0.997662 0.994731 0.970346
0.999385 0.999013 0.993553
1.00243 0.997467 0.991622
1.00508 0.994825 0.99154
1.00445 0.997082 0.989237
1.0051 0.995597 0.989797
1.00528 0.994815 0.990488
1.00473 0.996943 0.988991
1.00532 0.994848 0.990135
1.00532 0.994814 0.990454
1.00533 0.995325 0.989658
1.00528 0.994857 0.990619
1.00534 0.994821 0.990609
1.00531 0.994866 0.990772
1.00533 0.994956 0.990711
1.00529 0.995003 0.990738
1.00526 0.995223 0.99062
1.00523 0.99568 0.990184
1.0053 0.99777 0.988023
1.0053 0.996649 0.988965
1.00532 0.996205 0.989338
1.00534 1.00128 0.984495
1.00533 0.999276 0.986254
1.0053 0.998232 0.986904
1.0048 1.0026 0.984235
1.0053 1.00227 0.983702
1.00524 1.00107 0.984988
1.00167 1.00329 0.988453
1.00359 1.00325 0.985463
1.00471 1.00281 0.983887
1.00046 1.0008 0.99728
1.00126 1.00308 0.989637
1.00296 1.00314 0.986655
1.00033 1.00032 0.997538
1.00103 1.00263 0.990543
1.00029 0.999691 0.9978
1.00508 1.0034 0.983841
1.00455 1.00159 0.985671
1.00328 1.00289 0.98654
1.00288 1.00185 0.987234
1.00201 1.00362 0.987655
1.00163 1.00467 0.987702
1.00102 1.00475 0.988045
1.00086 1.00512 0.988423
1.00036 1.0022 0.99224
1.00008 0.998684 0.998336
1.00002 1.00154 0.993268
1.0005 1.00491 0.988925
1.00004 0.998032 0.998691
1.00009 1.00049 0.994121
1.00005 0.997647 0.998863
0.999968 0.99488 0.939843
0.999832 0.994861 0.858372
0.994702 0.994774 0.791365
1.00297 1.00468 0.984804
1.00379 1.0035 0.985177
1.00308 1.00263 0.988176
1.00419 1.00325 0.984369
1.00519 1.00002 0.985757
1.00363 0.999083 0.988321
1.00074 1.00171 0.992269
1.00452 0.995459 0.990774
1.00197 0.998087 0.99414
1.00416 0.995942 0.990846
1.00279 0.998564 0.992939
1.00182 0.998736 0.993999
1.00119 0.997963 0.995218
1.00024 0.999449 0.995636
0.995327 0.99479 0.96176
0.997841 0.994895 0.932436
0.996837 0.994811 0.873953
0.995033 0.994704 0.927185
0.994854 0.996731 0.965181
0.995627 0.995683 0.968834
0.99912 0.9948 0.991257
0.999526 0.996062 1.00062
0.997756 0.996613 1.00382
0.99858 0.998789 0.990562
0.997555 0.99483 0.96381
1.00007 0.994888 0.940257
0.999821 0.995121 0.848219
0.995607 0.997807 0.987732
0.996164 0.994808 0.959124
0.999585 0.994825 0.929672
0.999417 0.996314 0.9863
0.997864 0.994785 0.969357
1.00279 0.996491 0.988096
1.00332 0.994718 0.985322
1.00149 0.996786 0.991621
1.00449 0.994881 0.991584
1.00525 0.994804 0.990835
1.00503 0.995567 0.98972
1.00527 0.994814 0.990437
1.00536 0.994856 0.990464
1.00532 0.994863 0.990092
1.00532 0.994827 0.990445
1.00536 0.994869 0.990488
1.00527 0.994862 0.990605
1.00534 0.994829 0.990633
1.00536 0.99485 0.990647
1.00529 0.994853 0.990807
1.00532 0.994947 0.990713
1.00528 0.995254 0.990655
1.00526 0.995206 0.990627
1.00523 0.99566 0.990199
1.00526 0.996955 0.98899
1.00531 0.999921 0.985937
1.0053 0.997985 0.987727
1.0053 0.996699 0.988956
1.00531 1.00176 0.9842
1.00534 1.00131 0.984535
1.00536 0.999395 0.986069
1.00266 1.0027 0.987453
1.00454 1.00286 0.984256
1.0053 1.00226 0.98376
1.00093 1.00112 0.996868
1.00189 1.00318 0.988389
1.0033 1.00354 0.985491
1.00065 1.00086 0.997138
1.00133 1.00296 0.989623
1.0005 1.00048 0.997371
1.00526 1.00141 0.984663
1.00498 1.00299 0.983855
1.00456 1.003 0.984328
1.00445 1.00188 0.985711
1.00347 1.00277 0.986255
1.00292 1.00347 0.98656
1.00187 1.00411 0.987609
1.00158 1.00467 0.987702
1.0008 1.00267 0.991002
1.0006 1.00511 0.988385
1.0002 1.00229 0.992243
1.00009 0.99956 0.997963
1.00004 0.998658 0.998445
0.999938 1.00156 0.993287
1.00002 0.998007 0.998753
0.996157 0.994929 0.96478
0.999786 0.994891 0.924571
0.999837 0.994949 0.872742
1.00526 0.997903 0.987499
1.00453 1.00271 0.98717
1.00375 1.00318 0.984531
1.00424 0.999068 0.988713
1.00518 1.0002 0.98575
1.00514 0.996645 0.989066
1.00481 0.996145 0.990895
1.00163 0.997675 0.994194
1.00466 0.995929 0.99088
1.0024 0.998529 0.992635
1.00406 0.997366 0.990094
1.00321 0.994825 0.994414
1.00173 0.997586 0.994161
1.00107 0.998118 0.995205
0.998506 0.99472 0.990031
0.995707 0.994786 0.96026
0.997697 0.99478 0.926191
0.995392 0.996093 0.969449
0.998834 0.994807 0.993957
0.999776 0.995614 0.999689
1.00234 0.994993 0.98025
0.997716 0.994895 0.962938
1.0001 0.994891 0.925179
0.998331 0.99684 0.986791
0.998011 0.994805 0.968783
1.00195 0.995578 0.988706
1.00302 0.994753 0.98583
1.0037 0.996428 0.990372
1.00553 0.994906 0.990744
1.00395 0.99484 0.991628
1.00521 0.994824 0.990801
1.00539 0.994873 0.990416
1.00527 0.994816 0.990388
1.00535 0.99485 0.990471
1.00538 0.994865 0.990472
1.00533 0.994837 0.990437
1.00535 0.994864 0.990495
1.00535 0.994887 0.990643
1.00534 0.994837 0.990657
1.00536 0.99485 0.99064
1.0053 0.994892 0.990863
1.00531 0.994942 0.990715
1.00528 0.995172 0.990689
1.00527 0.995927 0.990113
1.00524 0.995636 0.990213
1.00527 0.9968 0.989128
1.0053 0.999351 0.986708
1.00534 1.00122 0.984709
1.00532 1.00014 0.985706
1.0053 0.998199 0.987431
1.00323 1.00148 0.987789
1.0052 1.0019 0.9842
1.00533 1.00135 0.984575
1.00155 1.0012 0.996374
1.00286 1.00249 0.987426
1.00433 1.00305 0.984282
1.00114 1.0012 0.99666
1.00214 1.0031 0.988335
1.00081 1.00097 0.996987
1.00527 0.999637 0.986008
1.00524 1.00144 0.984607
1.0053 1.00205 0.983934
1.00487 1.00257 0.983872
1.00493 1.00279 0.98407
1.00341 1.0033 0.985931
1.0039 1.00229 0.985971
1.00275 1.00369 0.986591
1.00108 1.00307 0.989893
1.00147 1.00474 0.987673
1.00061 1.00283 0.99104
1.0002 1.00046 0.997538
1.00002 1.00239 0.992248
1.00003 0.999335 0.998108
0.999989 0.998499 0.99854
0.999756 0.995306 0.985997
0.996327 0.994898 0.960486
1.00001 0.994851 0.939571
1.00531 0.996178 0.989166
1.00529 0.995869 0.989489
1.00527 0.997576 0.987763
1.00483 0.998647 0.989103
1.00517 1.00039 0.985748
1.00516 0.996616 0.989243
1.00532 0.995121 0.989758
1.00488 0.99562 0.99092
1.00212 0.998423 0.992348
1.00397 0.99757 0.990615
1.00519 0.994802 0.990933
1.00366 0.994796 0.993066
1.0028 0.994875 0.994141
1.00201 0.996904 0.994332
0.999105 0.994692 0.990016
0.996059 0.994803 0.959102
0.998954 0.994796 0.996805
1.00496 0.994969 0.990233
1.00242 0.994983 0.980402
0.997853 0.994897 0.962036
1.00164 0.994757 0.989244
1.00271 0.994675 0.986353
1.00382 0.995614 0.990845
1.00548 0.994756 0.990792
1.00548 0.99474 0.990821
1.00557 0.994785 0.991042
1.00521 0.994851 0.990763
1.00541 0.994854 0.990415
1.00537 0.994853 0.990681
1.00533 0.99484 0.990477
1.00538 0.994865 0.990494
1.00533 0.994884 0.99072
1.00535 0.994859 0.990502
1.00536 0.994887 0.990643
1.00531 0.994899 0.990894
1.00536 0.994851 0.990634
1.0053 0.994892 0.990844
1.00528 0.995298 0.990685
1.00528 0.995085 0.990723
1.00527 0.995887 0.990081
1.00531 0.998566 0.987483
1.00527 0.996646 0.989266
1.0053 0.999221 0.98685
1.0053 1.00081 0.985236
1.00331 1.00072 0.988476
1.00533 1.00121 0.984726
1.00532 1.00036 0.985474
1.00189 1.0009 0.996221
1.00326 1.00148 0.987793
1.00501 1.00212 0.984192
1.00169 1.00118 0.996254
1.00306 1.00238 0.987384
1.00139 1.00128 0.996437
1.00531 0.997455 0.98801
1.00527 0.999445 0.986249
1.00537 1.00122 0.984716
1.00521 1.00144 0.984544
1.00532 1.00214 0.983854
1.00403 1.00273 0.985343
1.00525 1.00263 0.983813
1.00353 1.00294 0.985937
1.00153 1.00346 0.988753
1.00274 1.00368 0.986638
1.00103 1.0032 0.989915
1.00041 1.00116 0.997158
1.00042 1.003 0.991072
1.00008 1.00026 0.9977
0.999991 0.999233 0.998241
1.00407 0.995353 0.991859
0.999584 0.99518 0.983664
0.996404 0.9949 0.960681
1.00532 0.995244 0.990089
1.0053 0.995799 0.98945
1.00527 0.995084 0.990572
1.00529 0.995999 0.989444
1.00527 0.997242 0.988021
1.0054 0.994844 0.990256
1.00518 0.996772 0.989412
1.0053 0.995393 0.989752
1.00535 0.994781 0.990629
1.00397 0.997448 0.991131
1.00518 0.994872 0.990583
1.00319 0.994895 0.993323
1.00206 0.995199 0.993881
0.999361 0.994664 0.989733
1.00556 0.994822 0.99103
1.00509 0.995092 0.990205
1.00226 0.995034 0.980666
1.00382 0.994714 0.991308
1.00549 0.994737 0.990847
1.00547 0.994743 0.990823
1.0056 0.994827 0.991124
1.00537 0.994865 0.991203
1.00543 0.994841 0.990417
1.00537 0.994863 0.990687
1.00531 0.994899 0.990981
1.00539 0.994867 0.990515
1.00534 0.994888 0.990717
1.0053 0.994925 0.990986
1.00536 0.994888 0.990642
1.00531 0.994898 0.990892
1.00531 0.994977 0.991064
1.00531 0.994892 0.990826
1.00528 0.995313 0.990654
1.00532 0.997704 0.988397
1.00528 0.99585 0.99005
1.0053 0.99858 0.987499
1.0053 1.00043 0.985653
1.00529 0.999088 0.986993
1.00531 1.00079 0.985262
1.00327 1.00044 0.990622
1.0021 1.00007 0.992885
1.00331 1.00076 0.989373
1.00533 1.00121 0.984743
1.0018 1.00088 0.996319
1.00328 1.00134 0.987803
1.0017 1.00126 0.996218
1.00521 0.995091 0.990878
1.00526 0.996195 0.989596
1.00532 0.997424 0.98823
1.00533 1.00009 0.985795
1.00528 0.999243 0.986491
1.00535 1.00124 0.984637
1.00483 1.00192 0.984628
1.00534 1.00219 0.983773
1.00428 1.00226 0.985301
1.00243 1.00298 0.987664
1.00368 1.00258 0.985944
1.00148 1.00353 0.988737
1.00088 1.00174 0.996601
1.00096 1.00332 0.989951
1.00029 1.00098 0.997302
0.99998 1.00001 0.99786
1.00549 0.994834 0.990931
1.00392 0.995114 0.991447
0.999804 0.994899 0.98141
1.00532 0.994868 0.990647
1.00531 0.995289 0.990009
1.00529 0.995424 0.989745
1.00526 0.995212 0.990526
1.0053 0.996135 0.989398
1.00539 0.994848 0.990635
1.00539 0.994842 0.990231
1.00529 0.995564 0.989749
1.00532 0.99478 0.990681
1.00518 0.995008 0.990233
1.00295 0.994706 0.993569
1.0053 0.994875 0.99131
1.00554 0.994812 0.991051
1.00523 0.995152 0.990171
1.00543 0.994743 0.990811
1.0056 0.994856 0.991205
1.00539 0.994864 0.99116
1.00529 0.99491 0.991295
1.00537 0.994865 0.990692
1.00531 0.994899 0.990938
1.00526 0.994927 0.991176
1.00534 0.994891 0.990715
1.00529 0.994926 0.990989
1.0053 0.994918 0.991224
1.0053 0.994898 0.99089
1.0053 0.994978 0.991031
1.00532 0.996874 0.989312
1.00527 0.995326 0.990624
1.00533 0.997729 0.988403
1.0053 1.00009 0.986041
1.00529 0.998592 0.987515
1.00531 1.00041 0.985685
1.00334 1.00025 0.990712
1.00532 1.00076 0.985286
1.0035 1.00031 0.990476
1.00217 0.999735 0.993087
1.00177 1.00041 0.994776
1.00349 1.00077 0.990076
1.00174 1.00081 0.996399
1.00525 0.994896 0.990979
1.00524 0.995958 0.990034
1.0052 0.995068 0.990953
1.00528 0.998952 0.987008
1.00526 0.996206 0.989638
1.00532 0.997404 0.98845
1.00532 1.00008 0.98576
1.00528 1.00118 0.984826
1.00535 1.00128 0.984559
1.00506 1.00168 0.984636
1.00305 1.00174 0.987774
1.00449 1.00206 0.98527
1.00227 1.00312 0.987725
1.00133 1.00182 0.996273
1.00136 1.00355 0.988731
1.00067 1.00151 0.996841
1.00011 1.00086 0.997445
1.00534 0.994886 0.990945
1.00541 0.994841 0.990998
1.00357 0.995058 0.99104
1.00531 0.994886 0.990816
1.00532 0.994871 0.990595
1.0053 0.995319 0.989933
1.00525 0.995343 0.990479
1.00539 0.994853 0.990624
1.00536 0.994841 0.990206
1.00526 0.994782 0.990728
1.00528 0.994911 0.99134
1.0053 0.994878 0.99127
1.00552 0.994814 0.99107
1.00528 0.994924 0.991366
1.00542 0.994863 0.991116
1.00529 0.994911 0.991285
1.00525 0.994937 0.991327
1.00532 0.9949 0.990895
1.00527 0.994927 0.991181
1.00527 0.994946 0.991368
1.00529 0.994926 0.990993
1.00531 0.994916 0.991204
1.00532 0.996198 0.990093
1.0053 0.994979 0.990998
1.00534 0.996895 0.989306
1.00527 0.999821 0.986417
1.00533 0.997754 0.988409
1.00531 1.00007 0.986073
1.00333 1.00025 0.9907
1.00532 1.00038 0.985718
1.00354 1.00016 0.990534
1.00223 0.999692 0.993035
1.00372 1.00018 0.990337
1.00167 0.999912 0.993436
1.00108 1.00079 0.997044
1.00525 0.994907 0.991016
1.00527 0.995284 0.990654
1.00524 0.994903 0.991001
1.00532 0.998464 0.987554
1.00524 0.995668 0.990246
1.00519 0.995043 0.991029
1.00533 1.00048 0.985487
1.00529 0.99893 0.98698
1.00526 0.996211 0.98968
1.0053 1.00006 0.985724
1.00528 1.00117 0.984807
1.00312 1.00099 0.988508
1.0053 1.00139 0.984639
1.00298 1.00189 0.987798
1.00148 1.00133 0.996392
1.00223 1.0032 0.987761
1.00121 1.0017 0.996361
1.00052 1.00136 0.997038
1.0053 0.994922 0.99111
1.00535 0.994883 0.990884
1.00534 0.994845 0.991072
1.00532 0.994886 0.990819
1.00533 0.994872 0.990543
1.00541 0.994855 0.990614
1.00528 0.994932 0.991351
1.00527 0.994912 0.991358
1.00531 0.994882 0.991229
1.00527 0.994924 0.991379
1.00524 0.994949 0.991447
1.00528 0.994911 0.991276
1.00525 0.99494 0.991349
1.00523 0.994955 0.991453
1.00527 0.994928 0.991185
1.00527 0.994947 0.991366
1.00534 0.995785 0.990536
1.00531 0.994916 0.991185
1.00532 0.996223 0.99009
1.00522 0.999603 0.986729
1.00536 0.996917 0.9893
1.00527 0.999801 0.98645
1.00325 1.00032 0.990712
1.00532 1.00005 0.986106
1.00352 1.00018 0.990516
1.00219 0.999815 0.992954
1.00374 1.00008 0.990365
1.00178 0.999753 0.993413
1.00119 1.00011 0.993772
1.00526 0.994934 0.991139
1.00529 0.994927 0.991091
1.00525 0.994906 0.990984
1.00534 0.997251 0.98877
1.00527 0.995326 0.99065
1.00524 0.99491 0.991022
1.00533 1.00008 0.985963
1.00532 0.998009 0.987943
1.00525 0.995382 0.990457
1.00324 1.00038 0.988946
1.00532 1.00051 0.985457
1.0053 0.998915 0.986954
1.00532 1.00116 0.984784
1.00313 1.00098 0.988487
1.00157 1.00085 0.996536
1.00288 1.00214 0.987831
1.00151 1.00139 0.996327
1.00107 1.00159 0.996537
1.00528 0.994939 0.991281
1.0053 0.994922 0.991075
1.00536 0.99488 0.990822
1.00532 0.994889 0.990822
1.00525 0.994954 0.991422
1.00528 0.994929 0.99136
1.00527 0.994913 0.991375
1.00527 0.994925 0.991391
1.00525 0.994948 0.991444
1.00526 0.994961 0.991394
1.00525 0.994944 0.991372
1.00524 0.994956 0.991437
1.00533 0.995749 0.990733
1.00527 0.994947 0.991364
1.00531 0.995848 0.990537
1.00521 0.999401 0.986945
1.00532 0.996255 0.990087
1.00523 0.99958 0.986746
1.00326 1.00035 0.989019
1.00526 0.999782 0.986483
1.00343 1.00028 0.989682
1.00187 0.999922 0.996498
1.00371 1.00011 0.990333
1.00179 0.999807 0.993336
1.00136 0.999808 0.993775
1.00526 0.994947 0.991255
1.0053 0.99495 0.991161
1.00526 0.994935 0.991163
1.00532 0.99632 0.989827
1.00529 0.995064 0.990952
1.00525 0.994905 0.990951
1.00529 0.999339 0.986823
1.00533 0.997279 0.988769
1.00527 0.995369 0.990646
1.00335 1.00004 0.989129
1.00531 0.999854 0.98617
1.00532 0.997545 0.988332
1.00171 1.00036 0.996615
1.00327 1.00032 0.988929
1.00531 1.00053 0.985426
1.00313 1.00095 0.988472
1.00159 1.00088 0.99649
1.00148 1.00142 0.99626
1.00526 0.994955 0.991336
1.00528 0.994942 0.991275
1.0053 0.99492 0.991039
1.00528 0.994968 0.991385
1.00525 0.994951 0.991404
1.00528 0.994927 0.991369
1.00525 0.994947 0.991442
1.00526 0.994985 0.991389
1.00533 0.996327 0.990051
1.00525 0.994958 0.991421
1.00532 0.99603 0.990359
1.00519 0.998714 0.987846
1.00528 0.995903 0.990538
1.00523 0.999378 0.986941
1.00321 1.0002 0.989247
1.00523 0.999559 0.986766
1.00329 1.00032 0.989023
1.0018 1 0.996492
1.00347 1.00026 0.988816
1.0017 0.999955 0.994972
1.00139 0.999789 0.993716
1.00524 0.994953 0.991353
1.00529 0.994957 0.991313
1.00526 0.994947 0.991262
1.00529 0.996329 0.989932
1.0053 0.994947 0.991182
1.00526 0.994936 0.991186
1.00521 0.999103 0.987195
1.00531 0.99673 0.989444
1.00529 0.995196 0.990813
1.00337 1.00001 0.989129
1.00528 0.999287 0.986865
1.00533 0.997307 0.988769
1.00184 1.00001 0.996609
1.00337 1.00001 0.989118
1.0053 0.999627 0.986376
1.00173 1.00039 0.996589
1.00332 1.00025 0.988912
1.00159 1.00094 0.996452
1.00528 0.995016 0.991288
1.00526 0.994955 0.991349
1.00528 0.994944 0.991269
1.00531 0.99633 0.99005
1.00528 0.995006 0.991365
1.00525 0.994949 0.991387
1.00527 0.995017 0.991384
1.00533 0.996324 0.990062
1.00512 0.99858 0.988082
1.00531 0.996302 0.989985
1.00522 0.998934 0.987475
1.00314 1.00004 0.989527
1.00525 0.999353 0.986937
1.00321 1.0002 0.989249
1.0017 1.00002 0.996517
1.0033 1.00029 0.989022
1.00176 1.00002 0.996492
1.0018 0.999939 0.993115
1.00527 0.995064 0.991256
1.00524 0.994949 0.991292
1.0053 0.996173 0.990145
1.00529 0.994959 0.991316
1.00525 0.994947 0.991269
1.0052 0.999469 0.986849
1.00531 0.996347 0.989935
1.0053 0.994943 0.991203
1.00335 1.00011 0.989099
1.00522 0.999342 0.986933
1.00531 0.997147 0.989063
1.00187 0.999906 0.996545
1.00338 1.00002 0.989122
1.00528 0.999232 0.986908
1.00185 1.00005 0.996615
1.00339 0.999982 0.989106
1.00176 1.00042 0.996558
1.00531 0.996428 0.989946
1.00528 0.995045 0.991307
1.00526 0.994954 0.991362
1.00503 0.998577 0.988194
1.00531 0.996378 0.990054
1.00528 0.995054 0.991344
1.00532 0.996328 0.990073
1.00513 0.998546 0.988046
1.00302 0.999931 0.989841
1.00525 0.999165 0.987103
1.00314 1.00003 0.989537
1.00161 1.00002 0.996587
1.00322 1.0002 0.989254
1.00166 1.00005 0.996547
1.00173 1.00004 0.996505
1.00532 0.996158 0.990236
1.00527 0.995017 0.991303
1.00525 0.994944 0.991231
1.00519 0.9993 0.987055
1.00531 0.996193 0.990148
1.00528 0.994961 0.991318
1.00328 1.00015 0.989201
1.00519 0.999494 0.986844
1.00531 0.996376 0.989937
1.00182 0.999945 0.996493
1.00334 1.00014 0.989098
1.00521 0.999574 0.986671
1.00189 0.999926 0.996572
1.00338 1.00004 0.989114
1.00189 1.00006 0.996612
1.00504 0.999087 0.987558
1.00531 0.996221 0.990223
1.00529 0.995073 0.991326
1.00292 0.999863 0.990103
1.00504 0.998549 0.988183
1.00531 0.996411 0.990059
1.00516 0.998495 0.988009
1.00303 0.999905 0.989852
1.00152 1.00001 0.996647
1.00314 1.00002 0.989545
1.00158 1.00002 0.996603
1.0016 1.00007 0.996572
1.00509 0.999226 0.987335
1.00531 0.996108 0.990322
1.00527 0.99496 0.991351
1.00332 1.00005 0.990921
1.00516 0.999343 0.987069
1.00532 0.99621 0.990152
1.00172 0.999998 0.996514
1.00326 1.00018 0.989205
1.00517 0.999519 0.986843
1.00185 0.999943 0.996512
1.00333 1.00017 0.989095
1.00191 0.999934 0.996593
1.00302 0.999847 0.99002
1.00502 0.998866 0.987833
1.00531 0.996014 0.9905
1.0014 0.999984 0.99674
1.00292 0.99985 0.9901
1.00506 0.998527 0.988172
1.00303 0.999881 0.98986
1.00148 1 0.996681
1.00155 1.00004 0.996627
1.00324 0.999956 0.991184
1.00508 0.999212 0.987346
1.00531 0.996068 0.990408
1.00107 1.00003 0.997184
1.00315 1.00008 0.989483
1.00511 0.999385 0.987083
1.00175 0.999994 0.996509
1.00324 1.00021 0.989204
1.00188 0.999939 0.996533
1.00136 0.999936 0.993816
1.00305 0.999867 0.99072
1.00503 0.998642 0.988107
1.00141 0.999983 0.996756
1.00293 0.99984 0.990105
1.00148 0.99999 0.996709
1.00084 1 0.994282
1.00313 0.999933 0.990504
1.00508 0.999201 0.987354
1.00131 1.00002 0.995327
1.00311 1.00011 0.989515
1.00179 0.999984 0.99651
1.00138 0.999972 0.996758
1.00289 0.999872 0.990118
1.00136 0.99998 0.996759
1.00115 0.999969 0.995522
1.003 0.999922 0.989894
1.00164 1.00001 0.996557
1.00141 0.99998 0.996755
1.00148 0.999986 0.996668

TENSORS stress float
0.00245005 -0.000173511 0.000286867
-0.000173511 0.00123755 -5.1322e-05
0.000286867 -5.1322e-05 0.00121013
0.0075976 0.000120711 0.000344409
0.000120711 0.00453375 4.18462e-05
0.000344409 4.18462e-05 0.00454596
0.00207243 -0.000104032 0.000116563
-0.000104032 0.000991372 -1.99118e-05
0.000116563 -1.99118e-05 0.000950696
0.00234299 -9.68537e-05 0.000272287
-9.68537e-05 0.00114761 -2.91989e-05
0.000272287 -2.91989e-05 0.0011309
0.00246937 -0.000152229 0.00028065
-0.000152229 0.00123907 -4.51364e-05
0.00028065 -4.51364e-05 0.00121549
0.00246195 -0.000179685 0.000298629
-0.000179685 0.00124684 -5.34227e-05
0.000298629 -5.34227e-05 0.00121934
0.00200845 -0.000184443 5.76822e-05
-0.000184443 0.000824737 -1.49624e-05
5.76822e-05 -1.49624e-05 0.000692513
0.00768739 0.000113918 -9.05769e-06
0.000113918 0.00458168 -2.58093e-06
-9.05769e-06 -2.58093e-06 0.00459848
0.00695633 0.000253152 0.000170475
0.000253152 0.00413129 1.85781e-05
0.000170475 1.85781e-05 0.00410055
0.00705952 3.84678e-05 0.000107258
3.84678e-05 0.00416612 6.57057e-06
0.000107258 6.57057e-06 0.0041466
0.00202837 0.000239976 0.000318783
0.000239976 0.000981269 4.58942e-05
0.000318783 4.58942e-05 0.000964165
0.000253204 0.000270868 2.68355e-05
0.000270868 -0.000240601 2.14025e-05
2.68355e-05 2.14025e-05 -0.000403592
0.00190647 -3.26761e-05 0.000267145
-3.26761e-05 0.000864395 4.59587e-06
0.000267145 4.59587e-06 0.000868234
0.00165752 5.10344e-06 7.37752e-05
5.10344e-06 0.000729478 2.72328e-06
7.37752e-05 2.72328e-06 0.000679196
0.00177793 -0.000102962 -6.83898e-05
-0.000102962 0.00081534 1.23404e-05
-6.83898e-05 1.23404e-05 0.000753572
0.00199101 -9.53323e-05 8.76587e-05
-9.53323e-05 0.000940753 -5.69824e-06
8.76587e-05 -5.69824e-06 0.000903474
0.00210273 -9.41304e-05 0.000127188
-9.41304e-05 0.00101542 -2.20479e-05
0.000127188 -2.20479e-05 0.000971325
0.00206842 -0.00010843 0.00010448
-0.00010843 0.000984577 -1.51007e-05
0.00010448 -1.51007e-05 0.000946239
0.00212021 -0.000221539 -4.45687e-05
-0.000221539 0.000896581 7.21052e-06
-4.45687e-05 7.21052e-06 0.000773561
0.00649373 -0.000160399 0.000351222
-0.000160399 0.00384332 -1.67651e-05
0.000351222 -1.67651e-05 0.0038669
0.00224946 -7.27857e-05 0.000269074
-7.27857e-05 0.00108758 -2.16491e-05
0.000269074 -2.16491e-05 0.00107405
0.00244561 -0.000125341 0.000277284
-0.000125341 0.00121572 -3.73515e-05
0.000277284 -3.73515e-05 0.00119611
0.00194799 -0.000154575 7.42984e-05
-0.000154575 0.000805596 -1.16635e-05
7.42984e-05 -1.16635e-05 0.000698567
0.00201623 -0.000183112 6.56752e-05
-0.000183112 0.000827643 -1.46995e-05
6.56752e-05 -1.46995e-05 0.000706261
0.00246429 -0.000162794 0.000307631
-0.000162794 0.00124057 -5.06709e-05
0.000307631 -5.06709e-05 0.00121636
0.00202388 -0.000187287 5.28256e-05
-0.000187287 0.00085169 -1.54221e-05
5.28256e-05 -1.54221e-05 0.000703935
0.00209752 -0.000397365 1.92042e-05
-0.000397365 0.000600698 -7.21935e-06
1.92042e-05 -7.21935e-06 0.000346213
0.00764064 0.000104007 -0.000359046
0.000104007 0.00454079 -3.34796e-05
-0.000359046 -3.34796e-05 0.00456322
0.00457799 0.000185268 -0.000159272
0.000185268 0.00259743 -1.91218e-05
-0.000159272 -1.91218e-05 0.00257363
0.00461305 0.000113227 -0.000163741
0.000113227 0.00262314 -1.85203e-05
-0.000163741 -1.85203e-05 0.0026018
0.00774523 4.44926e-05 -2.91159e-06
4.44926e-05 0.00462438 -1.29564e-06
-2.91159e-06 -1.29564e-06 0.00463925
0.000295592 0.000258263 -8.35297e-07
0.000258263 -0.000209728 -1.38287e-06
-8.35297e-07 -1.38287e-06 -0.000372492
0.00199442 7.53357e-05 0.000276088
7.53357e-05 0.000919986 2.76212e-05
0.000276088 2.76212e-05 0.00090941
0.00215047 0.000168342 0.000287081
0.000168342 0.00105268 4.30475e-05
0.000287081 4.30475e-05 0.00102911
0.00293289 0.000240572 0.000169558
0.000240572 0.00140792 2.62346e-05
0.000169558 2.62346e-05 0.00131303
0.00684187 -0.000245915 3.78887e-05
-0.000245915 0.00410524 3.72203e-06
3.78887e-05 3.72203e-06 0.00405874
0.00304409 0.000327459 0.000180236
0.000327459 0.00153026 3.31974e-05
0.000180236 3.31974e-05 0.00141297
0.000328847 0.000254523 2.57975e-05
0.000254523 -0.000183311 2.99981e-05
2.57975e-05 2.99981e-05 -0.000350684
0.00102719 0.000360202 2.45334e-05
0.000360202 3.81334e-05 7.53593e-06
2.45334e-05 7.53593e-06 -0.00024374
0.00548989 -0.000122326 0.00020408
-0.000122326 0.00328178 2.55833e-05
0.00020408 2.55833e-05 0.00327113
0.00649958 8.84999e-05 3.37617e-06
8.84999e-05 0.0038303 -2.08859e-06
3.37617e-06 -2.08859e-06 0.00386269
0.00425716 9.97534e-05 -0.000133537
9.97534e-05 0.00239029 -6.37175e-06
-0.000133537 -6.37175e-06 0.00237962
0.00631996 5.72686e-05 0.000341338
5.72686e-05 0.00371906 4.84711e-06
0.000341338 4.84711e-06 0.00375235
0.00157661 9.22153e-05 7.61136e-05
9.22153e-05 0.000681364 5.42638e-06
7.61136e-05 5.42638e-06 0.00063534
0.000465472 1.33662e-05 1.41402e-05
1.33662e-05 -0.000160987 1.73508e-06
1.41402e-05 1.73508e-06 -0.00025465
0.00666755 0.000245044 0.000197092
0.000245044 0.00396946 1.98181e-05
0.000197092 1.98181e-05 0.00394355
0.00291259 8.61874e-05 0.000157166
8.61874e-05 0.00139008 1.11291e-05
0.000157166 1.11291e-05 0.00132731
0.00161763 -9.59298e-05 -8.83483e-05
-9.59298e-05 0.000721004 1.16143e-05
-8.83483e-05 1.16143e-05 0.000662598
0.00167793 -0.000126502 -8.15183e-05
-0.000126502 0.000760915 1.48068e-05
-8.15183e-05 1.48068e-05 0.000696531
0.00185292 -6.36353e-05 -5.62753e-05
-6.36353e-05 0.000856078 1.00903e-05
-5.62753e-05 1.00903e-05 0.000795089
0.00219261 -0.000224296 -0.000154466
-0.000224296 0.000933679 2.93878e-05
-0.000154466 2.93878e-05 0.000823763
0.00407685 -3.32812e-05 -0.000136446
-3.32812e-05 0.00228639 -1.0608e-06
-0.000136446 -1.0608e-06 0.00227624
0.00196092 -7.57965e-05 9.25642e-05
-7.57965e-05 0.000917987 -4.65071e-06
9.25642e-05 -4.65071e-06 0.000885072
0.00221909 -6.9913e-05 0.000133289
-6.9913e-05 0.00108684 -2.07208e-05
0.000133289 -2.07208e-05 0.00104045
0.00204058 -0.000102308 9.44503e-05
-0.000102308 0.000967602 -9.76578e-06
9.44503e-05 -9.76578e-06 0.000930108
0.00202943 -0.000132362 -3.61205e-05
-0.000132362 0.000845473 2.94415e-06
-3.61205e-05 2.94415e-06 0.000751985
0.00212761 -0.000233336 -5.1538e-05
-0.000233336 0.000916622 8.35121e-06
-5.1538e-05 8.35121e-06 0.000780557
0.00210604 -0.000198779 -3.93203e-05
-0.000198779 0.000883656 5.27518e-06
-3.93203e-05 5.27518e-06 0.000771847
0.00218271 -0.000404298 -1.03537e-05
-0.000404298 0.00065368 2.7526e-06
-1.03537e-05 2.7526e-06 0.000399639
0.00629986 -8.89113e-06 0.000337306
-8.89113e-06 0.00370425 -3.76098e-06
0.000337306 -3.76098e-06 0.00373872
0.00219317 -4.73253e-05 0.000265573
-4.73253e-05 0.00105374 -1.47652e-05
0.000265573 -1.47652e-05 0.00104543
0.00249429 -1.99753e-05 5.77196e-05
-1.99753e-05 0.0011576 -6.21169e-07
5.77196e-05 -6.21169e-07 0.00108473
0.00191961 -0.000124639 6.75108e-05
-0.000124639 0.000792703 -7.62004e-06
6.75108e-05 -7.62004e-06 0.000695773
0.0019916 -0.000170614 7.16488e-05
-0.000170614 0.000818542 -1.37255e-05
7.16488e-05 -1.37255e-05 0.000704701
0.00201005 -0.000252748 4.60511e-06
-0.000252748 0.000462438 -1.99515e-06
4.60511e-06 -1.99515e-06 0.000281812
0.00201194 -0.000351579 1.53925e-05
-0.000351579 0.000504476 -4.83981e-06
1.53925e-05 -4.83981e-06 0.000282151
0.00196331 -0.000123683 0.000283877
-0.000123683 0.000918663 -4.30912e-05
0.000283877 -4.30912e-05 0.000892643
0.00213977 -0.000156503 4.61277e-05
-0.000156503 0.000953975 -1.36804e-05
4.61277e-05 -1.36804e-05 0.000799541
0.00207463 -0.000445002 2.36097e-05
-0.000445002 0.000628218 -7.88998e-06
2.36097e-05 -7.88998e-06 0.000339198
0.00194366 -0.000530929 6.78283e-06
-0.000530929 0.000255748 9.12352e-07
6.78283e-06 9.12352e-07 -4.25853e-05
0.00740969 0.000308453 -0.000388734
0.000308453 0.00441729 -4.73874e-05
-0.000388734 -4.73874e-05 0.00442555
0.00756085 8.29461e-06 -0.000317014
8.29461e-06 0.00450964 -2.67263e-05
-0.000317014 -2.67263e-05 0.00452549
0.00748509 0.000175557 -0.000363183
0.000175557 0.00444333 -3.81163e-05
-0.000363183 -3.81163e-05 0.00446491
0.000389856 0.000252751 -2.658e-05
0.000252751 -0.000144019 -2.11258e-05
-2.658e-05 -2.11258e-05 -0.000309365
0.0071813 0.000263839 -1.79524e-06
0.000263839 0.00426538 -2.58099e-06
-1.79524e-06 -2.58099e-06 0.00428024
0.0074203 0.000268446 -8.37421e-06
0.000268446 0.00441429 -3.53735e-06
-8.37421e-06 -3.53735e-06 0.00442558
0.000348875 0.000154435 3.24272e-07
0.000154435 -0.00025062 -2.56099e-07
3.24272e-07 -2.56099e-07 -0.000382285
0.00416226 -5.38379e-05 -0.000137873
-5.38379e-05 0.00237948 -7.97586e-06
-0.000137873 -7.97586e-06 0.00234863
0.000296548 0.000230494 1.02297e-06
0.000230494 -0.00022738 -4.10221e-07
1.02297e-06 -4.10221e-07 -0.000382394
0.00191448 0.00027246 7.14188e-05
0.00027246 0.00083561 4.45164e-06
7.14188e-05 4.45164e-06 0.000697057
0.00101475 0.00036064 1.56812e-06
0.00036064 2.60145e-05 1.83191e-07
1.56812e-06 1.83191e-07 -0.00025532
0.0061913 -0.00010142 0.000244244
-0.00010142 0.00371374 3.0157e-05
0.000244244 3.0157e-05 0.00370533
0.000551645 0.000118958 2.45855e-05
0.000118958 1.22583e-05 1.50816e-05
2.45855e-05 1.50816e-05 -7.67085e-05
0.000448172 0.000120654 1.4275e-05
0.000120654 -0.000201276 1.18522e-05
1.4275e-05 1.18522e-05 -0.000323879
0.000454144 0.000185378 1.88626e-05
0.000185378 -0.000170586 1.99441e-05
1.88626e-05 1.99441e-05 -0.000311833
0.00137186 0.000326762 1.46295e-05
0.000326762 4.5734e-05 5.90251e-06
1.46295e-05 5.90251e-06 -0.000186506
0.00335552 0.000282489 0.000170306
0.000282489 0.00177185 2.65974e-05
0.000170306 2.65974e-05 0.00167358
0.00123334 0.000379833 2.48981e-05
0.000379833 9.09982e-05 8.56283e-06
2.48981e-05 8.56283e-06 -0.000183844
0.000795168 0.000328333 1.83463e-05
0.000328333 -8.60903e-06 6.71528e-06
1.83463e-05 6.71528e-06 -0.00028856
0.00161646 0.000583541 9.81131e-06
0.000583541 0.000244879 -2.93645e-06
9.81131e-06 -2.93645e-06 -0.000134466
0.00458102 -0.000141834 0.000139706
-0.000141834 0.00267908 1.27333e-05
0.000139706 1.27333e-05 0.00267047
0.00504147 -0.000165147 1.83466e-05
-0.000165147 0.00298721 1.21241e-06
1.83466e-05 1.21241e-06 0.00297113
0.00695623 7.4794e-05 -0.000360756
7.4794e-05 0.00410495 -1.94842e-05
-0.000360756 -1.94842e-05 0.00413537
0.0066087 8.02296e-05 -0.000354719
8.02296e-05 0.00389524 -1.19413e-05
-0.000354719 -1.19413e-05 0.00392882
0.00642467 8.3708e-05 2.42e-07
8.3708e-05 0.00379019 -4.25763e-06
2.42e-07 -4.25763e-06 0.00382073
0.00412971 4.0932e-05 -0.000145503
4.0932e-05 0.00230817 -8.30335e-06
-0.000145503 -8.30335e-06 0.00230334
0.00156932 4.15603e-05 6.9365e-05
4.15603e-05 0.000547248 2.11075e-06
6.9365e-05 2.11075e-06 0.000473615
0.00443467 0.000161957 -0.000136571
0.000161957 0.00250955 -8.47991e-06
-0.000136571 -8.47991e-06 0.00249039
0.00164125 0.000101071 6.98266e-05
0.000101071 0.000578966 3.81355e-06
6.98266e-05 3.81355e-06 0.000492076
0.00634402 0.000113228 0.00034333
0.000113228 0.00374766 7.41291e-06
0.00034333 7.41291e-06 0.00377353
0.000339896 1.02505e-05 1.77035e-05
1.02505e-05 -0.000234361 9.54168e-07
1.77035e-05 9.54168e-07 -0.000323682
0.00289454 4.7051e-05 0.000156449
4.7051e-05 0.00138614 7.37254e-06
0.000156449 7.37254e-06 0.00133037
0.00116387 8.09427e-05 9.16185e-06
8.09427e-05 -6.37554e-05 5.07904e-07
9.16185e-06 5.07904e-07 -0.000200028
0.00283544 0.00013737 0.00016211
0.00013737 0.00133449 1.47815e-05
0.00016211 1.47815e-05 0.00126272
0.00128735 0.000166704 4.64343e-06
0.000166704 -4.42285e-05 1.542e-06
4.64343e-06 1.542e-06 -0.00020418
0.0019317 4.00966e-05 -0.000265727
4.00966e-05 0.000878623 3.61736e-06
-0.000265727 3.61736e-06 0.000885492
0.00161647 -2.65304e-05 -7.52425e-05
-2.65304e-05 0.000710169 3.63826e-06
-7.52425e-05 3.63826e-06 0.000658708
0.00190711 -2.96688e-05 -5.01119e-05
-2.96688e-05 0.000885849 8.85372e-06
-5.01119e-05 8.85372e-06 0.000823004
0.00162109 -0.000113986 -8.97256e-05
-0.000113986 0.000724589 1.4343e-05
-8.97256e-05 1.4343e-05 0.000663344
0.00213825 -0.000109985 -0.000141678
-0.000109985 0.000903096 1.40005e-05
-0.000141678 1.40005e-05 0.000823227
0.00220636 -0.000184453 -0.00014916
-0.000184453 0.000934394 2.46861e-05
-0.00014916 2.46861e-05 0.000837529
0.00221204 -0.000255147 -0.000161498
-0.000255147 0.000968726 3.17302e-05
-0.000161498 3.17302e-05 0.000843761
0.00226975 -0.000411962 -3.63426e-05
-0.000411962 0.000708491 1.16757e-05
-3.63426e-05 1.16757e-05 0.000454761
0.00639078 -0.000116981 2.64156e-06
-0.000116981 0.00377652 -2.07369e-06
2.64156e-06 -2.07369e-06 0.00380237
0.00187285 2.01838e-05 0.000100004
2.01838e-05 0.000852111 -5.4443e-06
0.000100004 -5.4443e-06 0.000830045
0.00118636 -1.63279e-05 -7.18529e-05
-1.63279e-05 0.000309777 2.63487e-06
-7.18529e-05 2.63487e-06 0.000236563
0.00199078 -8.84372e-05 -3.90269e-05
-8.84372e-05 0.000829039 3.5503e-06
-3.90269e-05 3.5503e-06 0.000744061
0.00511072 -9.41249e-05 0.000298518
-9.41249e-05 0.00293874 -2.62395e-05
0.000298518 -2.62395e-05 0.00293285
0.00275873 -0.00023745 -4.99859e-05
-0.00023745 0.00134125 5.55365e-06
-4.99859e-05 5.55365e-06 0.00120348
0.0020809 -0.000166772 -3.64676e-05
-0.000166772 0.000868797 3.82722e-06
-3.64676e-05 3.82722e-06 0.000766861
0.00205597 -0.00025316 -9.10192e-06
-0.00025316 0.000488467 1.7943e-06
-9.10192e-06 1.7943e-06 0.000312872
0.00219615 -0.000458019 -9.22433e-06
-0.000458019 0.000713134 2.70566e-06
-9.22433e-06 2.70566e-06 0.000422722
0.00209607 -0.000355728 -1.00522e-05
-0.000355728 0.000558767 2.75947e-06
-1.00522e-05 2.75947e-06 0.00033402
0.0019672 -0.000532511 9.23654e-07
-0.000532511 0.000272771 -2.54986e-07
9.23654e-07 -2.54986e-07 -2.53103e-05
0.000347178 7.20119e-06 1.82817e-05
7.20119e-06 -0.000231606 -1.19928e-08
1.82817e-05 -1.19928e-08 -0.000317198
0.00183818 -1.53702e-05 5.97513e-05
-1.53702e-05 0.000731499 -2.35406e-06
5.97513e-05 -2.35406e-06 0.000649991
0.00196174 -8.83386e-05 7.38235e-06
-8.83386e-05 0.000463254 2.10775e-07
7.38235e-06 2.10775e-07 0.000344475
0.00207662 -0.000200948 4.40748e-06
-0.000200948 0.000517471 -3.66532e-07
4.40748e-06 -3.66532e-07 0.000365515
0.00204947 -0.000306126 9.95928e-06
-0.000306126 0.000496005 -2.89189e-06
9.95928e-06 -2.89189e-06 0.000300417
0.00212055 -0.000362654 -4.79604e-07
-0.000362654 0.000208333 4.88259e-08
-4.79604e-07 4.88259e-08 3.06551e-05
0.00712721 4.5331e-05 0.000269566
4.5331e-05 0.00425898 -2.3706e-05
0.000269566 -2.3706e-05 0.00426356
0.00187888 -0.000484214 5.7986e-06
-0.000484214 0.000154593 7.56271e-07
5.7986e-06 7.56271e-07 -0.000103783
0.000190333 -0.000217927 2.05126e-05
-0.000217927 -0.000295429 -2.49117e-05
2.05126e-05 -2.49117e-05 -0.000448324
0.00105148 -0.000383239 2.36452e-05
-0.000383239 5.45527e-05 -9.47569e-06
2.36452e-05 -9.47569e-06 -0.000250134
0.00207607 -0.000597745 8.41603e-06
-0.000597745 0.00040764 1.24358e-06
8.41603e-06 1.24358e-06 5.79649e-05
0.00204057 -0.00059735 2.60623e-06
-0.00059735 0.000214473 4.80869e-06
2.60623e-06 4.80869e-06 -6.08473e-05
0.000427913 -0.000178927 2.3642e-05
-0.000178927 -9.25893e-05 -2.05733e-05
2.3642e-05 -2.05733e-05 -0.000218206
0.000712528 -0.000161087 -3.99374e-07
-0.000161087 0.000140715 -3.76886e-06
-3.99374e-07 -3.76886e-06 -0.000124515
0.00730466 0.000290685 -0.000392634
0.000290685 0.00435002 -4.3518e-05
-0.000392634 -4.3518e-05 0.00436154
0.00745438 0.000260435 -0.000377265
0.000260435 0.00443444 -4.46903e-05
-0.000377265 -4.46903e-05 0.00444932
0.000316768 0.000152957 -1.77289e-05
0.000152957 -0.000272352 -1.45807e-05
-1.77289e-05 -1.45807e-05 -0.000404746
0.0067167 -7.37589e-05 -0.000254028
-7.37589e-05 0.00401049 -2.05995e-05
-0.000254028 -2.05995e-05 0.00401533
0.000124423 0.000215633 -2.14342e-05
0.000215633 -0.000307878 -2.35829e-05
-2.14342e-05 -2.35829e-05 -0.000457409
0.000275627 0.00021723 -2.12503e-05
0.00021723 -0.000239598 -2.02333e-05
-2.12503e-05 -2.02333e-05 -0.000394525
0.00103966 0.00036112 -2.64932e-05
0.00036112 3.78111e-05 -9.24448e-06
-2.64932e-05 -9.24448e-06 -0.000242333
0.0060678 -9.90025e-05 -1.14379e-05
-9.90025e-05 0.00362793 1.96253e-06
-1.14379e-05 1.96253e-06 0.00362401
0.000610384 9.78641e-05 4.23063e-07
9.78641e-05 5.36289e-05 5.60511e-07
4.23063e-07 5.60511e-07 -3.29297e-05
0.00171632 0.000167431 7.31565e-05
0.000167431 0.000614141 6.80335e-06
7.31565e-05 6.80335e-06 0.000508736
0.00170454 0.000236526 7.6241e-05
0.000236526 0.00063916 8.31085e-06
7.6241e-05 8.31085e-06 0.000513745
0.00133579 0.000324924 -1.02601e-07
0.000324924 2.82784e-05 -3.51081e-07
-1.02601e-07 -3.51081e-07 -0.000205009
0.000387487 0.000203002 -1.06982e-06
0.000203002 -0.00012174 -1.52554e-07
-1.06982e-06 -1.52554e-07 -0.000252721
0.00118399 0.000376014 8.87077e-07
0.000376014 5.87652e-05 1.55089e-07
8.87077e-07 1.55089e-07 -0.000216083
0.000793801 0.000316423 1.33515e-06
0.000316423 -6.65248e-06 -9.57149e-07
1.33515e-06 -9.57149e-07 -0.000280394
0.00172116 0.000600908 -1.81472e-06
0.000600908 0.00030089 -5.18568e-07
-1.81472e-06 -5.18568e-07 -8.01191e-05
0.000453644 0.000168086 2.06183e-05
0.000168086 -6.34718e-05 1.90187e-05
2.06183e-05 1.90187e-05 -0.000177358
0.000601348 6.35636e-05 1.55139e-05
6.35636e-05 6.95504e-05 1.40759e-05
1.55139e-05 1.40759e-05 -5.63166e-06
0.00142387 0.000296597 2.24058e-06
0.000296597 0.000615963 3.40046e-06
2.24058e-06 3.40046e-06 0.000374871
0.0013856 0.000280531 1.04448e-05
0.000280531 1.82961e-05 4.09767e-06
1.04448e-05 4.09767e-06 -0.000188581
0.00133248 0.000362285 2.00967e-05
0.000362285 7.40892e-05 7.6106e-06
2.00967e-05 7.6106e-06 -0.000181893
0.00210578 0.000516869 4.9425e-06
0.000516869 0.000272838 -4.35707e-07
4.9425e-06 -4.35707e-07 9.44775e-06
0.000550885 0.000263676 1.11313e-05
0.000263676 -5.62269e-05 6.51983e-06
1.11313e-05 6.51983e-06 -0.000317234
0.0021047 0.000627191 5.33671e-06
0.000627191 0.000436435 -2.19252e-06
5.33671e-06 -2.19252e-06 8.73794e-05
0.00159717 0.000591508 4.83399e-06
0.000591508 0.000379682 -4.55838e-06
4.83399e-06 -4.55838e-06 -3.6199e-05
0.00170167 0.000651522 -7.18357e-06
0.000651522 0.000191165 -6.79077e-06
-7.18357e-06 -6.79077e-06 -0.000189165
0.00409345 -0.000144188 9.92688e-05
-0.000144188 0.0023551 7.26931e-06
9.92688e-05 7.26931e-06 0.00234654
0.00446292 -0.000183488 2.02664e-05
-0.000183488 0.00261186 -1.49859e-06
2.02664e-05 -1.49859e-06 0.00259204
0.00491011 -0.000220682 -0.000113904
-0.000220682 0.0029141 -1.08146e-05
-0.000113904 -1.08146e-05 0.00288386
0.000494631 -0.000170136 2.3392e-05
-0.000170136 -2.92672e-05 -1.79645e-05
2.3392e-05 -1.79645e-05 -0.000137532
0.00628279 9.72711e-05 0.000220802
9.72711e-05 0.00375695 -2.25827e-05
0.000220802 -2.25827e-05 0.00375057
0.00716307 0.000237825 -0.000388028
0.000237825 0.00425281 -3.54144e-05
-0.000388028 -3.54144e-05 0.00427227
0.00671763 0.000107287 -0.000356217
0.000107287 0.003961 -1.68486e-05
-0.000356217 -1.68486e-05 0.00399215
0.000326593 0.000105063 -1.74047e-05
0.000105063 -0.000262178 -6.71705e-06
-1.74047e-05 -6.71705e-06 -0.000369245
0.000302589 4.48395e-05 -1.76739e-05
4.48395e-05 -0.000258858 -2.78185e-06
-1.76739e-05 -2.78185e-06 -0.000353554
0.00636478 -3.19268e-06 -0.000340167
-3.19268e-06 0.00374314 -3.28329e-06
-0.000340167 -3.28329e-06 0.0037778
0.00629028 -4.96559e-07 -5.55583e-08
-4.96559e-07 0.00369762 -1.24728e-06
-5.55583e-08 -1.24728e-06 0.00373244
0.00030972 1.0367e-06 -1.25314e-07
1.0367e-06 -0.000256253 2.29595e-07
-1.25314e-07 2.29595e-07 -0.00034389
0.00156766 4.53974e-05 6.97139e-05
4.53974e-05 0.000538418 3.37046e-06
6.97139e-05 3.37046e-06 0.000461167
0.00114051 8.41364e-05 9.74111e-09
8.41364e-05 -8.25525e-05 -1.64318e-07
9.74111e-09 -1.64318e-07 -0.000219822
0.00036689 9.79435e-05 -7.23819e-07
9.79435e-05 -0.000244712 -3.44437e-07
-7.23819e-07 -3.44437e-07 -0.000359697
0.00126314 0.000168703 -2.11797e-07
0.000168703 -5.26992e-05 4.60847e-09
-2.11797e-07 4.60847e-09 -0.00021413
0.000299231 -3.3288e-05 1.80892e-05
-3.3288e-05 -0.000263397 -5.61789e-07
1.80892e-05 -5.61789e-07 -0.00034794
0.00109015 3.60731e-05 9.98128e-06
3.60731e-05 -9.58816e-05 2.14671e-07
9.98128e-06 2.14671e-07 -0.00022607
0.00122129 0.000125075 6.53446e-06
0.000125075 -5.05058e-05 1.28376e-06
6.53446e-06 1.28376e-06 -0.000196665
0.00204727 0.000133874 1.6968e-06
0.000133874 8.01252e-05 4.52985e-07
1.6968e-06 4.52985e-07 -2.17994e-06
0.00135297 0.000222851 6.66511e-06
0.000222851 -1.59733e-05 2.40295e-06
6.66511e-06 2.40295e-06 -0.000197291
0.00211715 0.000291369 2.0792e-06
0.000291369 0.000128256 -2.315e-07
2.0792e-06 -2.315e-07 -3.56951e-06
0.00631078 -7.88779e-05 -0.000342673
-7.88779e-05 0.00371943 4.61035e-06
-0.000342673 4.61035e-06 0.00374934
0.00151743 -0.000165838 -7.52349e-05
-0.000165838 0.000668243 9.20938e-06
-7.52349e-05 9.20938e-06 0.00060966
-0.000231286 -9.77499e-06 -1.10739e-05
-9.77499e-06 -0.000592427 9.08628e-07
-1.10739e-05 9.08628e-07 -0.000694124
0.00210491 -7.87346e-05 -0.000140145
-7.87346e-05 0.00089442 9.69438e-06
-0.000140145 9.69438e-06 0.000820891
0.00785306 0.000207375 -6.05219e-05
0.000207375 0.00469801 3.31764e-06
-6.05219e-05 3.31764e-06 0.00465463
0.00308028 -0.00030301 -0.000166655
-0.00030301 0.00155385 3.19789e-05
-0.000166655 3.19789e-05 0.00142484
0.00218913 -0.000146602 -0.000145175
-0.000146602 0.000924463 1.91979e-05
-0.000145175 1.91979e-05 0.000837083
0.00208837 -0.000253128 -2.53827e-05
-0.000253128 0.000505381 4.71008e-06
-2.53827e-05 4.71008e-06 0.000334899
0.00215348 -0.000358241 -3.18991e-05
-0.000358241 0.000594317 1.01057e-05
-3.18991e-05 1.01057e-05 0.000367513
0.00227449 -0.000466393 -3.97287e-05
-0.000466393 0.000771059 1.26892e-05
-3.97287e-05 1.26892e-05 0.000480397
0.00198244 -0.000533127 -5.39951e-06
-0.000533127 0.000285123 -1.2457e-06
-5.39951e-06 -1.2457e-06 -1.25242e-05
0.000308874 2.4106e-06 1.25917e-07
2.4106e-06 -0.00025475 3.92613e-07
1.25917e-07 3.92613e-07 -0.000341236
0.00195329 -9.7351e-05 -3.81143e-05
-9.7351e-05 0.000813807 6.43704e-07
-3.81143e-05 6.43704e-07 0.000733844
0.00164718 -8.50679e-05 -1.27979e-05
-8.50679e-05 0.000260724 7.1902e-07
-1.27979e-05 7.1902e-07 0.000138209
0.00200038 -0.0001968 -1.14886e-05
-0.0001968 0.000461521 1.97703e-06
-1.14886e-05 1.97703e-06 0.000305844
0.00739385 4.14046e-05 3.37858e-06
4.14046e-05 0.00442966 3.00905e-07
3.37858e-06 3.00905e-07 0.00443303
0.00170988 -0.00022137 8.51249e-06
-0.00022137 0.00069473 1.10946e-07
8.51249e-06 1.10946e-07 0.000534924
0.00154588 -0.000411898 -1.145e-06
-0.000411898 0.000369425 -1.15793e-06
-1.145e-06 -1.15793e-06 6.66501e-05
0.00210183 -0.000311289 -1.00334e-05
-0.000311289 0.000526586 2.71501e-06
-1.00334e-05 2.71501e-06 0.000329669
0.00215072 -0.000369605 1.27357e-06
-0.000369605 0.000220569 -8.1547e-07
1.27357e-06 -8.1547e-07 4.89541e-05
0.00205564 -0.000595846 1.57597e-06
-0.000595846 0.000392367 4.7708e-08
1.57597e-06 4.7708e-08 4.44244e-05
0.00197551 -0.000486426 1.57332e-07
-0.000486426 0.000221852 -1.13411e-07
1.57332e-07 -1.13411e-07 -3.75046e-05
0.00211795 -0.000602702 9.19205e-07
-0.000602702 0.000269678 2.68718e-07
9.19205e-07 2.68718e-07 -6.81261e-06
0.000434036 -0.000197281 1.70712e-06
-0.000197281 -9.64904e-05 1.78046e-07
1.70712e-06 1.78046e-07 -0.000220684
0.000852592 -0.000231753 2.70978e-07
-0.000231753 0.000223405 6.47575e-07
2.70978e-07 6.47575e-07 -4.24734e-05
0.00110611 -4.20213e-05 1.05446e-05
-4.20213e-05 -7.66588e-05 -1.25167e-07
1.05446e-05 -1.25167e-07 -0.000206921
0.00204897 -0.000141092 4.89905e-06
-0.000141092 0.000515049 1.03125e-07
4.89905e-06 1.03125e-07 0.000383326
0.00185057 -0.000144981 2.99437e-06
-0.000144981 -2.40043e-05 -3.62839e-07
2.99437e-06 -3.62839e-07 -0.000125287
0.00216279 -0.000298165 -8.58719e-07
-0.000298165 0.000194923 1.324e-06
-8.58719e-07 1.324e-06 6.7563e-05
0.00187115 -0.000429867 -1.45802e-07
-0.000429867 9.09737e-05 8.74224e-07
-1.45802e-07 8.74224e-07 -0.000124722
0.00226826 -0.000413572 5.27427e-06
-0.000413572 0.000213531 -1.23735e-06
5.27427e-06 -1.23735e-06 7.9225e-05
0.000177003 -0.000198571 2.10785e-05
-0.000198571 -0.000272227 -2.37181e-05
2.10785e-05 -2.37181e-05 -0.000415663
0.00208799 -0.000546326 2.05212e-06
-0.000546326 0.000194911 2.85837e-06
2.05212e-06 2.85837e-06 -2.95247e-05
0.00113001 -0.000338383 1.64104e-05
-0.000338383 0.000205693 -8.6584e-06
1.64104e-05 -8.6584e-06 -8.25775e-05
0.00174554 -0.000647481 1.67333e-05
-0.000647481 0.00028384 1.02971e-06
1.67333e-05 1.02971e-06 -0.000129694
0.00237798 -0.000676406 2.324e-06
-0.000676406 0.000498954 4.11501e-06
2.324e-06 4.11501e-06 0.000155514
0.00238487 -0.00064184 -1.38641e-06
-0.00064184 0.000405127 4.70112e-06
-1.38641e-06 4.70112e-06 0.000152579
0.00062651 -0.000225365 3.9589e-06
-0.000225365 5.0293e-05 -3.53546e-06
3.9589e-06 -3.53546e-06 -0.000232713
0.00122935 -0.000196397 4.20648e-06
-0.000196397 0.000466976 -3.6988e-06
4.20648e-06 -3.6988e-06 0.000236401
0.00147212 -0.000357366 -6.7501e-07
-0.000357366 0.000635054 -1.82057e-06
-6.7501e-07 -1.82057e-06 0.00028905
0.000336491 0.000128301 -1.66064e-05
0.000128301 -0.000268762 -1.14119e-05
-1.66064e-05 -1.14119e-05 -0.000393612
0.00551131 -0.000135273 -0.000185315
-0.000135273 0.00327366 -1.4723e-05
-0.000185315 -1.4723e-05 0.00326602
0.000379839 8.65296e-05 -1.85824e-05
8.65296e-05 -9.15304e-05 -1.4344e-05
-1.85824e-05 -1.4344e-05 -0.000172024
0.00029293 0.000184973 -1.94868e-05
0.000184973 -0.000263816 -1.79664e-05
-1.94868e-05 -1.79664e-05 -0.000406464
0.00129839 0.000323513 -1.60411e-05
0.000323513 9.00068e-06 -6.47078e-06
-1.60411e-05 -6.47078e-06 -0.000225449
0.0002642 0.00019866 -2.32076e-05
0.00019866 -0.000207899 -2.22914e-05
-2.32076e-05 -2.22914e-05 -0.00033654
0.000838989 0.000313191 -1.73394e-05
0.000313191 2.39714e-05 -9.39739e-06
-1.73394e-05 -9.39739e-06 -0.000246129
0.00117412 0.000374157 -2.58062e-05
0.000374157 5.48454e-05 -8.96663e-06
-2.58062e-05 -8.96663e-06 -0.000220097
0.00185436 0.000623639 -1.02683e-05
0.000623639 0.000371285 2.09066e-06
-1.02683e-05 2.09066e-06 -1.28938e-05
0.000442858 0.000169995 -3.83372e-06
0.000169995 -7.80037e-05 1.70951e-06
-3.83372e-06 1.70951e-06 -0.000183308
0.000399591 3.62538e-05 1.3968e-06
3.62538e-05 -5.0066e-05 2.91188e-07
1.3968e-06 2.91188e-07 -0.000124619
0.000857028 0.000214235 8.57316e-07
0.000214235 0.000222449 7.90236e-07
8.57316e-07 7.90236e-07 9.16223e-06
0.00135089 0.000279126 -2.476e-07
0.000279126 3.41074e-06 -3.40037e-07
-2.476e-07 -3.40037e-07 -0.000204596
0.0012956 0.000358771 1.86005e-07
0.000358771 5.59213e-05 -3.15661e-07
1.86005e-07 -3.15661e-07 -0.000200332
0.00208601 0.000515186 -3.81718e-07
0.000515186 0.00025881 -1.59345e-07
-3.81718e-07 -1.59345e-07 -4.49216e-06
0.000633586 0.000254512 -5.61276e-07
0.000254512 -8.10611e-06 1.82704e-07
-5.61276e-07 1.82704e-07 -0.000260234
0.00209807 0.000622268 -1.08034e-06
0.000622268 0.00043294 -4.92683e-07
-1.08034e-06 -4.92683e-07 8.38498e-05
0.00163974 0.000606962 -5.76204e-07
0.000606962 0.000383924 -1.71533e-06
-5.76204e-07 -1.71533e-06 -3.80681e-05
0.00168397 0.000660941 -1.34828e-06
0.000660941 0.00015723 2.62237e-06
-1.34828e-06 2.62237e-06 -0.000221708
0.00039621 1.77446e-05 5.6962e-06
1.77446e-05 -4.60674e-05 1.34025e-05
5.6962e-06 1.34025e-05 -0.0001114
0.00142836 0.00026023 5.53241e-06
0.00026023 0.000570337 2.46555e-06
5.53241e-06 2.46555e-06 0.000318759
0.000930125 0.000142802 4.63873e-06
0.000142802 0.000284948 2.02525e-06
4.63873e-06 2.02525e-06 9.65656e-05
-5.72268e-05 0.000154985 -2.99778e-06
0.000154985 -0.000332951 4.14696e-06
-2.99778e-06 4.14696e-06 -0.00060252
0.00214046 0.000453411 2.37767e-06
0.000453411 0.000232586 -1.84856e-06
2.37767e-06 -1.84856e-06 1.52565e-05
0.00206377 0.000573446 5.05917e-06
0.000573446 0.000325502 -7.70677e-07
5.05917e-06 -7.70677e-07 1.57451e-05
0.002209 0.000580456 8.12446e-07
0.000580456 0.000256052 -1.36142e-06
8.12446e-07 -1.36142e-06 1.10136e-05
0.00116256 0.000472139 -1.7374e-06
0.000472139 0.000194598 -3.30723e-06
-1.7374e-06 -3.30723e-06 -0.000179159
0.00246103 0.000728037 -6.07133e-06
0.000728037 0.000567882 -3.68881e-06
-6.07133e-06 -3.68881e-06 0.000223043
0.00213977 0.000769089 -1.14487e-05
0.000769089 0.000588117 -1.19909e-05
-1.14487e-05 -1.19909e-05 0.000109114
0.00209603 0.000702267 -3.80318e-06
0.000702267 0.000312308 -3.49811e-06
-3.80318e-06 -3.49811e-06 -4.64921e-05
0.000619954 7.55932e-05 7.14635e-07
7.55932e-05 0.000132611 6.47142e-06
7.14635e-07 6.47142e-06 3.08794e-05
0.000475646 8.33559e-06 2.59972e-06
8.33559e-06 -1.73115e-06 1.00948e-05
2.59972e-06 1.00948e-05 -4.52082e-05
0.00352407 -0.00012917 6.84106e-05
-0.00012917 0.00197811 5.76725e-06
6.84106e-05 5.76725e-06 0.00197302
0.00391475 -0.00016641 1.16205e-05
-0.00016641 0.00224579 -1.13384e-06
1.16205e-05 -1.13384e-06 0.00223058
0.00431179 -0.000210697 -7.54653e-05
-0.000210697 0.00252078 -7.50604e-06
-7.54653e-05 -7.50604e-06 0.00249263
0.000464705 -0.000178647 2.71899e-05
-0.000178647 -3.13883e-05 -1.73233e-05
2.71899e-05 -1.73233e-05 -0.000124014
0.00571404 0.000127365 0.000185739
0.000127365 0.00340969 -2.09062e-05
0.000185739 -2.09062e-05 0.00339745
0.000506082 -0.000179775 2.42432e-06
-0.000179775 -2.91739e-05 7.98702e-07
2.42432e-06 7.98702e-07 -0.000139951
0.00658479 7.3291e-05 6.4179e-06
7.3291e-05 0.0039432 2.68315e-07
6.4179e-06 2.68315e-07 0.00394003
0.000349759 0.000123206 -1.74265e-05
0.000123206 -0.000255546 -9.05338e-06
-1.74265e-05 -9.05338e-06 -0.000373472
0.000307824 3.70439e-05 -1.61378e-05
3.70439e-05 -0.000265862 -3.77743e-06
-1.61378e-05 -3.77743e-06 -0.000364176
0.00124531 0.000170467 -5.55851e-06
0.000170467 -6.19151e-05 -1.51797e-06
-5.55851e-06 -1.51797e-06 -0.000224769
0.00111438 8.66231e-05 -9.04239e-06
8.66231e-05 -0.000102359 -7.79024e-07
-9.04239e-06 -7.79024e-07 -0.000240512
0.000354005 -7.33415e-06 -1.80254e-05
-7.33415e-06 -0.000230818 -7.72618e-07
-1.80254e-05 -7.72618e-07 -0.000316893
0.00639066 -0.000103621 -0.000350221
-0.000103621 0.00377449 6.32653e-06
-0.000350221 6.32653e-06 0.00380292
0.000354456 -3.37888e-06 -1.53295e-08
-3.37888e-06 -0.000229353 -7.2233e-07
-1.53295e-08 -7.2233e-07 -0.000313692
0.00109681 4.14356e-05 -1.1712e-08
4.14356e-05 -9.37777e-05 9.37491e-08
-1.1712e-08 9.37491e-08 -0.000224337
0.00119627 0.000126377 -1.2451e-07
0.000126377 -7.07481e-05 6.45935e-08
-1.2451e-07 6.45935e-08 -0.000218002
0.00202846 0.000132021 -3.40436e-08
0.000132021 7.2841e-05 2.14049e-07
-3.40436e-08 2.14049e-07 -9.79893e-06
0.0013343 0.000223215 -3.57105e-07
0.000223215 -2.06459e-05 -2.85186e-07
-3.57105e-07 -2.85186e-07 -0.000203328
0.00209161 0.000288167 -4.65604e-07
0.000288167 0.000117739 1.46412e-07
-4.65604e-07 1.46412e-07 -1.36829e-05
0.00106818 -4.8539e-06 1.03682e-05
-4.8539e-06 -0.000102871 -1.38962e-07
1.03682e-05 -1.38962e-07 -0.000231344
0.00206019 6.52906e-05 3.30572e-06
6.52906e-05 0.000102264 3.06373e-07
3.30572e-06 3.06373e-07 2.56192e-05
0.00201576 0.000205096 7.24772e-07
0.000205096 4.95732e-05 3.56379e-07
7.24772e-07 3.56379e-07 -5.05185e-05
0.00221462 0.000158281 5.62629e-06
0.000158281 8.13944e-05 8.55505e-07
5.62629e-06 8.55505e-07 5.36068e-05
0.00217959 0.000379689 2.93766e-06
0.000379689 0.000205217 -7.45133e-07
2.93766e-06 -7.45133e-07 3.26181e-05
0.00213244 0.000314639 4.57025e-06
0.000314639 5.27051e-05 1.17795e-06
4.57025e-06 1.17795e-06 -2.79802e-05
0.00034223 -4.65057e-06 -1.73282e-05
-4.65057e-06 -0.000230213 2.73274e-07
-1.73282e-05 2.73274e-07 -0.000318957
0.00206076 -5.29405e-05 -0.000139411
-5.29405e-05 0.000871548 6.25489e-06
-0.000139411 6.25489e-06 0.000804352
0.00127192 -8.04984e-05 -1.95204e-05
-8.04984e-05 1.89911e-05 1.29264e-06
-1.95204e-05 1.29264e-06 -0.000107657
0.00190855 -0.000192914 -2.29122e-05
-0.000192914 0.000395211 3.43268e-06
-2.29122e-05 3.43268e-06 0.000235799
0.00771317 9.94217e-06 -0.000320907
9.94217e-06 0.00462502 3.41806e-05
-0.000320907 3.41806e-05 0.00463151
0.0036174 -0.000310321 -0.000186552
-0.000310321 0.00190958 2.98105e-05
-0.000186552 2.98105e-05 0.00178539
0.00181004 -0.000446355 -3.25484e-05
-0.000446355 0.000552262 1.06205e-05
-3.25484e-05 1.06205e-05 0.000245178
0.00214236 -0.000315566 -2.9634e-05
-0.000315566 0.000549165 7.74358e-06
-2.9634e-05 7.74358e-06 0.000351136
0.0021796 -0.000376356 -2.01441e-06
-0.000376356 0.000232265 -1.27581e-06
-2.01441e-06 -1.27581e-06 6.67297e-05
0.00208049 -0.000489137 -3.64031e-06
-0.000489137 0.00029607 -2.04213e-07
-3.64031e-06 -2.04213e-07 3.56687e-05
0.00206963 -0.000597491 -6.6829e-06
-0.000597491 0.000397196 -2.02918e-06
-6.6829e-06 -2.02918e-06 5.02748e-05
0.00219072 -0.00060808 -1.1476e-06
-0.00060808 0.000320759 -4.01944e-06
-1.1476e-06 -4.01944e-06 4.30622e-05
0.000424539 -0.000209136 -2.34249e-05
-0.000209136 -0.000100905 2.11619e-05
-2.34249e-05 2.11619e-05 -0.000229714
0.000513974 -0.000229348 -1.29691e-06
-0.000229348 2.10971e-05 3.33785e-06
-1.29691e-06 3.33785e-06 -0.000252187
0.00115448 -3.73498e-05 4.92535e-07
-3.73498e-05 -4.61834e-05 1.29474e-08
4.92535e-07 1.29474e-08 -0.000171229
0.00201944 -0.000140624 -1.13509e-05
-0.000140624 0.000493456 1.49193e-06
-1.13509e-05 1.49193e-06 0.000362119
0.00191411 -0.000142512 1.71696e-06
-0.000142512 1.58624e-05 -2.39906e-07
1.71696e-06 -2.39906e-07 -8.02212e-05
0.00202345 -0.000294375 -2.23369e-06
-0.000294375 0.000103252 8.70005e-07
-2.23369e-06 8.70005e-07 -3.48244e-05
0.000361812 -0.00022238 8.31462e-07
-0.00022238 -0.00015416 6.78409e-07
8.31462e-07 6.78409e-07 -0.00029958
0.000729626 -0.000328595 -2.27331e-06
-0.000328595 -4.31612e-05 9.73319e-08
-2.27331e-06 9.73319e-08 -0.000336236
0.00176025 -0.000646121 1.88306e-06
-0.000646121 0.000298101 -4.71457e-08
1.88306e-06 -4.71457e-08 -0.000117096
0.00197024 -0.000432726 -2.43733e-06
-0.000432726 0.00016289 6.90169e-07
-2.43733e-06 6.90169e-07 -5.58739e-05
0.002189 -0.00041152 1.83707e-06
-0.00041152 0.000151863 -5.52059e-07
1.83707e-06 -5.52059e-07 2.46321e-05
0.00241618 -0.000682994 -3.79141e-07
-0.000682994 0.000519809 -1.0548e-06
-3.79141e-07 -1.0548e-06 0.000178671
0.00211793 -0.00054961 4.87913e-07
-0.00054961 0.000212646 1.7138e-07
4.87913e-07 1.7138e-07 -1.28249e-05
0.00219591 -0.000632623 5.45636e-07
-0.000632623 0.000277322 9.60094e-07
5.45636e-07 9.60094e-07 2.35258e-05
0.000601464 -0.000227434 -6.66643e-08
-0.000227434 3.77147e-05 -1.02711e-06
-6.66643e-08 -1.02711e-06 -0.000247503
0.000635067 -0.000235752 -1.37358e-06
-0.000235752 6.98626e-05 -1.45555e-06
-1.37358e-06 -1.45555e-06 -0.000242409
0.000642242 -0.000178742 3.02821e-06
-0.000178742 0.0001245 1.21365e-06
3.02821e-06 1.21365e-06 -0.000119008
0.00184063 -6.85458e-05 3.50033e-06
-6.85458e-05 -2.68771e-05 -2.2968e-07
3.50033e-06 -2.2968e-07 -0.000118256
0.00199971 -0.000213904 -4.12969e-07
-0.000213904 6.53254e-05 4.00658e-07
-4.12969e-07 4.00658e-07 -4.37703e-05
0.00206714 -0.000150419 8.05033e-06
-0.000150419 1.24481e-06 -6.78671e-07
8.05033e-06 -6.78671e-07 -4.24113e-05
0.00220494 -0.000336836 3.24691e-06
-0.000336836 0.000108579 -1.12627e-06
3.24691e-06 -1.12627e-06 2.61329e-05
0.00203681 -0.000490219 1.0079e-06
-0.000490219 0.000105143 1.99364e-06
1.0079e-06 1.99364e-06 -6.93144e-05
0.00228434 -0.000432221 3.55958e-06
-0.000432221 0.000144453 -4.20894e-07
3.55958e-06 -4.20894e-07 6.72247e-05
0.000611979 -0.000258118 1.02055e-05
-0.000258118 -2.19752e-05 -5.67639e-06
1.02055e-05 -5.67639e-06 -0.000291614
0.00217904 -0.000590629 6.74081e-07
-0.000590629 0.000194837 8.84357e-07
6.74081e-07 8.84357e-07 -4.73853e-06
0.00156835 -0.00062489 1.42124e-05
-0.00062489 0.000338946 -1.06121e-06
1.42124e-05 -1.06121e-06 -0.000103194
0.00209239 -0.000782533 9.77665e-06
-0.000782533 0.000398782 5.9759e-06
9.77665e-06 5.9759e-06 -4.5865e-05
0.0024652 -0.000704145 3.25978e-06
-0.000704145 0.000520482 5.034e-06
3.25978e-06 5.034e-06 0.000198633
0.00247328 -0.000674729 -2.81135e-07
-0.000674729 0.00045739 1.21758e-06
-2.81135e-07 1.21758e-06 0.000210873
0.000516905 -0.000143913 -2.26388e-07
-0.000143913 8.87422e-05 -5.81578e-06
-2.26388e-07 -5.81578e-06 -0.00014833
0.00173812 -0.000410402 1.22012e-06
-0.000410402 0.000664458 -2.65608e-06
1.22012e-06 -2.65608e-06 0.000330562
-0.000577177 -0.000122783 3.49648e-06
-0.000122783 -0.000591902 3.58085e-07
3.49648e-06 3.58085e-07 -0.000900335
0.00211479 -0.000513286 3.44823e-06
-0.000513286 0.000986976 1.98735e-06
3.44823e-06 1.98735e-06 0.0005887
0.00131315 0.000277883 -1.19513e-05
0.000277883 -1.39535e-05 -4.69191e-06
-1.19513e-05 -4.69191e-06 -0.000223124
0.000378175 9.71807e-06 -3.99269e-06
9.71807e-06 -5.22831e-05 -1.56525e-05
-3.99269e-06 -1.56525e-05 -0.000129693
0.000414091 0.000131703 -2.28987e-05
0.000131703 -8.56363e-05 -1.62121e-05
-2.28987e-05 -1.62121e-05 -0.000189532
-0.000119276 0.000152293 -5.74353e-06
0.000152293 -0.000380261 1.20184e-06
-5.74353e-06 1.20184e-06 -0.000596188
0.001241 0.000354569 -2.08957e-05
0.000354569 2.53415e-05 -8.18968e-06
-2.08957e-05 -8.18968e-06 -0.000231208
0.00206455 0.000513086 -4.79442e-06
0.000513086 0.000244242 5.11157e-07
-4.79442e-06 5.11157e-07 -1.88521e-05
0.000430002 0.000219005 -8.80008e-06
0.000219005 -0.000141494 -3.84201e-06
-8.80008e-06 -3.84201e-06 -0.000377997
0.00156219 0.000601572 -7.9873e-06
0.000601572 0.000321307 7.88426e-07
-7.9873e-06 7.88426e-07 -9.97426e-05
0.00209662 0.000618222 -4.95288e-06
0.000618222 0.000430927 1.92073e-06
-4.95288e-06 1.92073e-06 8.15448e-05
0.00165568 0.000664027 6.88887e-06
0.000664027 0.000127356 1.1084e-05
6.88887e-06 1.1084e-05 -0.00024791
0.000393758 -2.52543e-07 -3.85759e-06
-2.52543e-07 -4.01263e-05 8.09988e-07
-3.85759e-06 8.09988e-07 -0.000105915
0.000601999 0.000224302 3.38994e-08
0.000224302 7.14345e-05 -1.3328e-06
3.38994e-08 -1.3328e-06 -0.00018428
0.000529301 0.00012522 2.44826e-06
0.00012522 3.26526e-05 -1.45757e-06
2.44826e-06 -1.45757e-06 -0.00015387
0.000654335 0.000195091 -2.32459e-06
0.000195091 0.000106162 3.1005e-06
-2.32459e-06 3.1005e-06 -0.000165402
0.00211631 0.000451318 -1.76641e-06
0.000451318 0.000215797 -1.33393e-06
-1.76641e-06 -1.33393e-06 -1.35239e-06
0.00202425 0.000571091 -6.26743e-07
0.000571091 0.000298907 -2.85285e-07
-6.26743e-07 -2.85285e-07 -1.102e-05
0.00218592 0.000576545 1.3009e-07
0.000576545 0.00024569 2.19389e-07
1.3009e-07 2.19389e-07 1.85997e-06
0.00148429 0.000493878 3.04109e-06
0.000493878 0.000416308 2.70574e-08
3.04109e-06 2.70574e-08 4.08045e-05
0.00235093 0.000710856 1.00252e-06
0.000710856 0.000508682 7.70327e-07
1.00252e-06 7.70327e-07 0.000164086
0.0018812 0.000734977 -1.04748e-06
0.000734977 0.000434371 -2.1083e-06
-1.04748e-06 -2.1083e-06 -3.74034e-05
0.00212572 0.000687762 -6.1079e-06
0.000687762 0.000340715 2.61932e-06
-6.1079e-06 2.61932e-06 -6.06739e-06
0.000506963 5.26064e-06 3.74072e-06
5.26064e-06 1.79416e-05 1.17619e-05
3.74072e-06 1.17619e-05 -3.32636e-05
0.00120441 9.94473e-05 4.97756e-07
9.94473e-05 0.000489629 8.11048e-06
4.97756e-07 8.11048e-06 0.000319697
0.000768762 0.000327663 -5.21158e-06
0.000327663 9.00606e-05 5.86714e-07
-5.21158e-06 5.86714e-07 -0.000207413
0.00136675 0.000169437 4.07538e-06
0.000169437 0.000600488 -3.73998e-06
4.07538e-06 -3.73998e-06 0.000317996
0.000901775 0.000168054 -1.00261e-06
0.000168054 0.000163307 1.1194e-05
-1.00261e-06 1.1194e-05 -7.9742e-05
0.00221558 0.000505162 5.74254e-07
0.000505162 0.000189038 -2.79528e-06
5.74254e-07 -2.79528e-06 -2.10478e-06
0.00219858 0.000654338 -1.591e-06
0.000654338 0.000325083 -2.20661e-06
-1.591e-06 -2.20661e-06 2.535e-05
0.00215819 0.000626339 -3.67066e-06
0.000626339 0.000209963 -1.41242e-06
-3.67066e-06 -1.41242e-06 -3.4916e-05
0.00174622 0.000720239 -2.17794e-06
0.000720239 0.000563292 -5.80899e-06
-2.17794e-06 -5.80899e-06 5.7931e-05
0.00253034 0.000771252 -5.89469e-06
0.000771252 0.000550038 -3.38451e-06
-5.89469e-06 -3.38451e-06 0.000209244
0.00183224 0.000776585 5.16373e-06
0.000776585 0.000327031 -6.34542e-06
5.16373e-06 -6.34542e-06 -0.000128179
0.000539575 7.45897e-05 3.37576e-07
7.45897e-05 7.03943e-05 6.51397e-06
3.37576e-07 6.51397e-06 -4.1768e-05
0.000683768 0.000135557 -2.8034e-06
0.000135557 0.000239169 2.55953e-06
-2.8034e-06 2.55953e-06 6.21042e-05
0.000596298 6.99631e-05 4.55838e-07
6.99631e-05 0.000114515 5.48452e-06
4.55838e-07 5.48452e-06 2.51218e-05
0.000502808 2.39075e-05 -9.44934e-07
2.39075e-05 5.49469e-05 7.72457e-08
-9.44934e-07 7.72457e-08 -4.45838e-05
0.00151811 -1.87144e-05 1.99533e-06
-1.87144e-05 0.000671262 5.94608e-06
1.99533e-06 5.94608e-06 0.000638833
0.00096984 -6.13743e-06 1.14879e-07
-6.13743e-06 0.000318133 6.85834e-09
1.14879e-07 6.85834e-09 0.000277381
0.000902808 -3.86652e-05 5.03253e-05
-3.86652e-05 0.000273112 1.20275e-05
5.03253e-05 1.20275e-05 0.000267318
0.00345098 -0.000138079 1.10096e-05
-0.000138079 0.00193278 -1.0563e-06
1.10096e-05 -1.0563e-06 0.00192524
0.00374929 -0.000170635 -6.30736e-05
-0.000170635 0.00214113 -6.12999e-06
-6.30736e-05 -6.12999e-06 0.00212435
0.000343919 -0.000106187 1.56536e-05
-0.000106187 -7.08133e-05 -1.47663e-05
1.56536e-05 -1.47663e-05 -0.000148783
0.00518998 0.000183159 0.00012851
0.000183159 0.00309658 -1.67559e-05
0.00012851 -1.67559e-05 0.00306946
0.000484808 -0.000152568 1.095e-06
-0.000152568 -9.72705e-06 1.01083e-06
1.095e-06 1.01083e-06 -0.000110644
0.00592352 0.00012292 -2.07823e-07
0.00012292 0.00354984 1.12373e-06
-2.07823e-07 1.12373e-06 0.00353479
0.000504158 -0.000181681 -2.39216e-05
-0.000181681 -3.27199e-05 1.96064e-05
-2.39216e-05 1.96064e-05 -0.000146423
0.00685922 7.70669e-05 -0.000260991
7.70669e-05 0.00412126 3.03642e-05
-0.000260991 3.03642e-05 0.00411603
0.00130748 0.000222785 -7.9608e-06
0.000222785 -2.93642e-05 -2.91652e-06
-7.9608e-06 -2.91652e-06 -0.000213252
0.0011575 0.000128845 -6.90271e-06
0.000128845 -9.65757e-05 -1.12127e-06
-6.90271e-06 -1.12127e-06 -0.000245196
0.00209515 0.000282318 -2.07008e-06
0.000282318 0.000127622 9.91867e-07
-2.07008e-06 9.91867e-07 -2.59372e-06
0.00200338 0.000130184 -1.99407e-06
0.000130184 6.21224e-05 -2.21141e-08
-1.99407e-06 -2.21141e-08 -2.08929e-05
0.0011056 4.65542e-05 -1.01154e-05
4.65542e-05 -9.08183e-05 -7.52468e-08
-1.01154e-05 -7.52468e-08 -0.000221749
0.000309893 2.85169e-05 -1.81582e-05
2.85169e-05 -0.000260021 -1.02572e-06
-1.81582e-05 -1.02572e-06 -0.000342699
0.00106887 -7.90137e-07 6.67343e-09
-7.90137e-07 -0.000101972 2.79219e-09
6.67343e-09 2.79219e-09 -0.00023047
0.00200665 6.44176e-05 2.33591e-08
6.44176e-05 6.88701e-05 1.32252e-07
2.33591e-08 1.32252e-07 -8.16426e-06
0.00206208 0.000203251 -2.1777e-07
0.000203251 8.94559e-05 3.30999e-07
-2.1777e-07 3.30999e-07 -1.01544e-05
0.00218891 0.000152999 -4.05474e-07
0.000152999 5.51383e-05 1.84597e-07
-4.05474e-07 1.84597e-07 3.2776e-05
0.00212387 0.000374553 -7.62107e-07
0.000374553 0.000171608 -1.58173e-07
-7.62107e-07 -1.58173e-07 -1.65272e-07
0.00219094 0.000319366 1.26828e-07
0.000319366 9.06082e-05 2.22028e-07
1.26828e-07 2.22028e-07 8.3998e-06
0.00203206 -2.93545e-06 3.56549e-06
-2.93545e-06 9.36092e-05 9.75613e-08
3.56549e-06 9.75613e-08 1.70183e-05
0.00213668 7.25161e-05 4.76348e-06
7.25161e-05 2.95731e-05 4.03503e-07
4.76348e-06 4.03503e-07 1.24542e-05
0.00221062 0.000231206 5.66344e-06
0.000231206 8.30385e-05 1.07042e-06
5.66344e-06 1.07042e-06 4.09197e-05
0.00213509 0.000134115 3.94664e-06
0.000134115 1.15091e-05 1.04282e-06
3.94664e-06 1.04282e-06 1.25117e-05
0.00216792 0.000418802 2.62839e-06
0.000418802 0.000112859 3.70855e-07
2.62839e-06 3.70855e-07 -2.32007e-05
0.00222069 0.00033549 2.09075e-06
0.00033549 2.2497e-06 3.04316e-07
2.09075e-06 3.04316e-07 -1.36106e-05
0.0012109 -3.37218e-05 -1.13962e-05
-3.37218e-05 -1.05131e-05 4.37442e-07
-1.13962e-05 4.37442e-07 -0.000130381
0.00202412 -0.000140377 -2.66588e-05
-0.000140377 0.000494716 2.40409e-06
-2.66588e-05 2.40409e-06 0.000363792
0.00201624 -0.00013902 -1.17381e-06
-0.00013902 8.04019e-05 -3.61808e-07
-1.17381e-06 -3.61808e-07 -1.02921e-05
0.00186081 -0.000288977 -2.83701e-07
-0.000288977 -5.05928e-06 4.48506e-07
-2.83701e-07 4.48506e-07 -0.00015392
0.000577822 -0.000262817 -2.78598e-05
-0.000262817 -1.70932e-05 2.43171e-05
-2.78598e-05 2.43171e-05 -0.000164767
0.000755837 -0.000338534 -1.54555e-05
-0.000338534 -3.47319e-05 7.45058e-06
-1.54555e-05 7.45058e-06 -0.00033282
0.0017705 -0.000649531 -1.17828e-05
-0.000649531 0.000301104 1.06048e-08
-1.17828e-05 1.06048e-08 -0.000117815
0.00206075 -0.000434696 -4.04305e-06
-0.000434696 0.000229135 2.93901e-07
-4.04305e-06 2.93901e-07 7.50593e-06
0.00210815 -0.000408957 -9.83939e-07
-0.000408957 8.86381e-05 -1.10395e-07
-9.83939e-07 -1.10395e-07 -3.12044e-05
0.00215445 -0.000553618 -2.49062e-06
-0.000553618 0.000234561 -2.108e-06
-2.49062e-06 -2.108e-06 7.85e-06
0.00239921 -0.000683659 -1.00443e-06
-0.000683659 0.000506546 -7.61091e-06
-1.00443e-06 -7.61091e-06 0.000169111
0.00199351 -0.000619543 2.04491e-06
-0.000619543 0.000141707 -2.16383e-06
2.04491e-06 -2.16383e-06 -0.000112087
0.00106288 -0.000281184 -9.07668e-06
-0.000281184 0.000328271 3.72453e-06
-9.07668e-06 3.72453e-06 3.86047e-05
0.000274263 -0.000180941 -1.85818e-06
-0.000180941 -0.000162574 3.06344e-06
-1.85818e-06 3.06344e-06 -0.000461023
0.000442522 -0.000220983 -7.01206e-08
-0.000220983 5.45832e-06 5.30641e-06
-7.01206e-08 5.30641e-06 -0.000241341
0.00192379 -6.53394e-05 2.0634e-06
-6.53394e-05 2.67882e-05 -1.73632e-07
2.0634e-06 -1.73632e-07 -5.89223e-05
0.00201664 -0.000222311 1.27978e-09
-0.000222311 7.98065e-05 -2.351e-07
1.27978e-09 -2.351e-07 -2.93334e-05
0.00214052 -0.000148608 1.35108e-06
-0.000148608 4.179e-05 -1.24785e-07
1.35108e-06 -1.24785e-07 5.50646e-06
0.00210225 -0.000323269 -1.53879e-06
-0.000323269 4.66925e-05 2.70836e-07
-1.53879e-06 2.70836e-07 -3.8799e-05
0.000769675 -0.000286639 1.20613e-06
-0.000286639 7.68706e-05 -3.35922e-07
1.20613e-06 -3.35922e-07 -0.000204556
0.00168562 -0.000643946 -3.7187e-07
-0.000643946 0.000416967 -8.31271e-07
-3.7187e-07 -8.31271e-07 -3.00835e-05
0.0020005 -0.000770391 1.34589e-06
-0.000770391 0.000351837 1.1265e-06
1.34589e-06 1.1265e-06 -9.52954e-05
0.00203529 -0.000486241 -4.71563e-07
-0.000486241 0.000111399 7.32016e-07
-4.71563e-07 7.32016e-07 -6.95751e-05
0.0022281 -0.000433815 1.81523e-07
-0.000433815 9.40046e-05 -4.27831e-08
1.81523e-07 -4.27831e-08 2.3372e-05
0.00228894 -0.000695508 -7.96255e-07
-0.000695508 0.000392768 4.73311e-07
-7.96255e-07 4.73311e-07 7.07815e-05
0.00213035 -0.000586039 -6.21783e-07
-0.000586039 0.00016204 7.71109e-07
-6.21783e-07 7.71109e-07 -3.72517e-05
0.00234627 -0.000655675 1.13946e-06
-0.000655675 0.000370435 -5.9858e-07
1.13946e-06 -5.9858e-07 0.000129743
0.000822619 -0.000360011 -2.17279e-06
-0.000360011 0.000115573 5.36014e-07
-2.17279e-06 5.36014e-07 -0.000229462
0.00127128 -0.000417063 1.29667e-07
-0.000417063 0.000454156 1.99711e-06
1.29667e-07 1.99711e-06 6.8563e-05
0.000757762 -0.000173812 -1.55307e-06
-0.000173812 0.000223695 -1.84267e-06
-1.55307e-06 -1.84267e-06 -5.70559e-06
0.000291479 -0.000156074 1.72179e-06
-0.000156074 -9.53172e-05 1.76596e-06
1.72179e-06 1.76596e-06 -0.00037334
0.00218109 -8.12274e-05 7.40821e-06
-8.12274e-05 7.91831e-05 -5.24417e-07
7.40821e-06 -5.24417e-07 5.02868e-05
0.00204119 -0.000233567 4.27631e-06
-0.000233567 -4.16474e-05 -8.07548e-07
4.27631e-06 -8.07548e-07 -9.74298e-05
0.00210919 -0.00013758 5.22226e-06
-0.00013758 2.6016e-05 -8.44955e-07
5.22226e-06 -8.44955e-07 2.98951e-05
0.00222596 -0.000350993 1.75347e-07
-0.000350993 3.84595e-05 -2.97094e-08
1.75347e-07 -2.97094e-08 2.11577e-05
0.0021891 -0.000525039 1.86184e-07
-0.000525039 0.00012776 4.67526e-07
1.86184e-07 4.67526e-07 -7.17292e-06
0.00228758 -0.000460728 2.55631e-06
-0.000460728 6.86497e-05 -1.16745e-07
2.55631e-06 -1.16745e-07 1.61144e-05
0.00146832 -0.000536654 5.97978e-06
-0.000536654 0.00044043 -1.99346e-06
5.97978e-06 -1.99346e-06 2.56833e-05
0.00218075 -0.000628879 -1.50843e-06
-0.000628879 0.000147122 6.02152e-07
-1.50843e-06 6.02152e-07 -2.28459e-05
0.00180602 -0.000810019 -2.35762e-06
-0.000810019 0.000409767 8.49136e-06
-2.35762e-06 8.49136e-06 -0.000106972
0.00230183 -0.000835532 5.52199e-06
-0.000835532 0.000490729 5.02747e-06
5.52199e-06 5.02747e-06 4.15816e-05
0.00228677 -0.000703471 2.09616e-06
-0.000703471 0.000369354 3.83362e-06
2.09616e-06 3.83362e-06 5.64212e-05
0.0022256 -0.000691231 -4.51977e-06
-0.000691231 0.000237509 -1.5314e-06
-4.51977e-06 -1.5314e-06 -1.09203e-05
0.000470711 -0.000173236 -5.27687e-07
-0.000173236 4.21188e-05 -8.56979e-06
-5.27687e-07 -8.56979e-06 -0.0001467
0.000879947 -0.000193132 1.57874e-06
-0.000193132 0.000331366 7.09174e-07
1.57874e-06 7.09174e-07 -1.21738e-05
0.00136033 -0.00054639 1.27138e-05
-0.00054639 0.0004144 2.10458e-06
1.27138e-05 2.10458e-06 -2.20753e-05
-0.00015102 -0.000179173 1.72095e-05
-0.000179173 -0.000430579 -7.21566e-06
1.72095e-05 -7.21566e-06 -0.000709105
0.00159952 -0.000520961 -2.14245e-07
-0.000520961 0.000680055 9.40702e-06
-2.14245e-07 9.40702e-06 0.000217807
0.000349077 -1.16687e-05 -4.39782e-06
-1.16687e-05 -6.58385e-05 -1.30246e-05
-4.39782e-06 -1.30246e-05 -0.000128989
0.00209072 0.000448883 -5.16841e-06
0.000448883 0.000198562 -4.49662e-07
-5.16841e-06 -4.49662e-07 -1.83249e-05
0.000339186 6.0759e-05 1.88244e-07
6.0759e-05 -7.29007e-05 -4.56522e-06
1.88244e-07 -4.56522e-06 -0.000268137
7.31278e-05 0.000225754 -6.85189e-06
0.000225754 -0.00030092 6.04139e-07
-6.85189e-06 6.04139e-07 -0.000525247
0.000741478 0.000217027 -1.39906e-06
0.000217027 0.000164827 5.70082e-06
-1.39906e-06 5.70082e-06 -0.000109604
0.00199028 0.000569075 -4.77661e-06
0.000569075 0.000276475 7.3467e-07
-4.77661e-06 7.3467e-07 -3.36711e-05
0.00216021 0.000572532 3.77095e-07
0.000572532 0.000233353 1.99724e-06
3.77095e-07 1.99724e-06 -9.27895e-06
0.00128229 0.000504953 2.34353e-06
0.000504953 0.000310612 -3.67582e-07
2.34353e-06 -3.67582e-07 -7.84151e-05
0.00176819 0.000728677 5.69695e-06
0.000728677 0.00036022 7.64798e-06
5.69695e-06 7.64798e-06 -0.000113616
0.00221603 0.000690417 4.12149e-06
0.000690417 0.000432482 5.23279e-06
4.12149e-06 5.23279e-06 8.90786e-05
0.00219531 0.00068363 9.67416e-06
0.00068363 0.000390707 1.4169e-05
9.67416e-06 1.4169e-05 5.20519e-05
0.000434071 8.62421e-06 -4.23594e-07
8.62421e-06 -2.60164e-05 9.91092e-08
-4.23594e-07 9.91092e-08 -7.6841e-05
0.000640876 8.25353e-05 -1.04802e-06
8.25353e-05 0.000138888 2.1426e-08
-1.04802e-06 2.1426e-08 -2.91795e-05
0.000855913 0.000358199 4.02235e-06
0.000358199 0.000168731 3.67934e-07
4.02235e-06 3.67934e-07 -0.000134214
0.000467502 0.000117384 3.83339e-07
0.000117384 3.41192e-05 -3.03004e-06
3.83339e-07 -3.03004e-06 -0.000244873
0.00028488 0.000129256 9.325e-08
0.000129256 -0.000234426 3.13402e-06
9.325e-08 3.13402e-06 -0.000479119
0.00220892 0.000504515 -1.97834e-06
0.000504515 0.000187202 -1.86771e-06
-1.97834e-06 -1.86771e-06 -3.73107e-06
0.00217089 0.000650726 4.23558e-07
0.000650726 0.000310734 1.01915e-07
4.23558e-07 1.01915e-07 1.2134e-05
0.00215347 0.000627001 1.5106e-06
0.000627001 0.000211455 2.0112e-07
1.5106e-06 2.0112e-07 -3.38423e-05
0.00179701 0.00072818 1.33046e-06
0.00072818 0.000604877 -1.5312e-06
1.33046e-06 -1.5312e-06 9.25129e-05
0.00242438 0.000760101 3.05109e-06
0.000760101 0.000464144 4.37422e-07
3.05109e-06 4.37422e-07 0.000123219
0.00217745 0.000810685 -4.30476e-06
0.000810685 0.000559211 2.49714e-07
-4.30476e-06 2.49714e-07 0.000100613
0.000825578 9.87237e-05 1.0455e-06
9.87237e-05 0.000242542 6.91015e-06
1.0455e-06 6.91015e-06 0.000111855
0.00232851 0.000334445 5.51245e-09
0.000334445 0.00128323 9.48843e-07
5.51245e-09 9.48843e-07 0.00100777
0.000665582 0.000449182 -6.90175e-07
0.000449182 3.78811e-05 3.44813e-06
-6.90175e-07 3.44813e-06 -0.000340384
0.00116793 0.000144569 5.903e-06
0.000144569 0.000326608 7.59139e-07
5.903e-06 7.59139e-07 7.9847e-05
0.00318823 0.000549638 -1.30822e-06
0.000549638 0.00152292 -4.33113e-07
-1.30822e-06 -4.33113e-07 0.00117821
0.00218051 0.000533001 -3.90533e-06
0.000533001 0.000114714 -1.68907e-06
-3.90533e-06 -1.68907e-06 -5.49162e-05
0.00217765 0.000706556 -4.61557e-06
0.000706556 0.000281243 -1.44186e-06
-4.61557e-06 -1.44186e-06 -1.92655e-05
0.00214386 0.000689337 6.61572e-07
0.000689337 0.000165418 -8.43241e-07
6.61572e-07 -8.43241e-07 -8.93918e-05
0.00127621 0.000745409 8.91809e-06
0.000745409 0.000317682 -6.42083e-06
8.91809e-06 -6.42083e-06 -0.000216911
0.00190995 0.000800937 1.29855e-05
0.000800937 0.000273229 -2.90485e-06
1.29855e-05 -2.90485e-06 -0.0001427
0.00058464 6.82304e-05 -1.19458e-07
6.82304e-05 0.000100504 1.32427e-07
-1.19458e-07 1.32427e-07 -1.11332e-05
0.000534896 0.000144314 1.3018e-06
0.000144314 9.13803e-05 8.34524e-07
1.3018e-06 8.34524e-07 -6.11511e-05
-5.65154e-05 8.78217e-05 1.91484e-07
8.78217e-05 -0.000252916 -1.26056e-06
1.91484e-07 -1.26056e-06 -0.000410073
0.00145182 0.000238704 -2.97291e-06
0.000238704 0.00074542 -3.22573e-06
-2.97291e-06 -3.22573e-06 0.000541971
0.00105443 0.000174981 -9.91624e-07
0.000174981 0.000476117 2.45136e-06
-9.91624e-07 2.45136e-06 0.000310978
0.000537382 7.89572e-05 1.54278e-06
7.89572e-05 8.45803e-05 4.27779e-06
1.54278e-06 4.27779e-06 -1.12337e-06
0.00051998 2.6301e-05 -1.04333e-06
2.6301e-05 6.95947e-05 2.71151e-08
-1.04333e-06 2.71151e-08 -1.9478e-05
0.00135406 -3.35863e-06 1.75584e-06
-3.35863e-06 0.000564103 4.79329e-06
1.75584e-06 4.79329e-06 0.000538624
0.000498786 4.74173e-05 6.49452e-07
4.74173e-05 4.52112e-05 -6.28621e-06
6.49452e-07 -6.28621e-06 -4.93232e-05
0.0014387 -1.5064e-05 -1.11591e-05
-1.5064e-05 0.000618584 -1.81365e-06
-1.11591e-05 -1.81365e-06 0.000589506
0.000730721 -2.68371e-05 4.25548e-05
-2.68371e-05 0.000156924 1.08827e-05
4.25548e-05 1.08827e-05 0.000157732
0.00148072 -1.13529e-05 -2.19514e-05
-1.13529e-05 0.000649796 -7.8235e-06
-2.19514e-05 -7.8235e-06 0.000614133
0.00201927 -7.64738e-05 4.77035e-05
-7.64738e-05 0.000998144 1.33371e-06
4.77035e-05 1.33371e-06 0.000993981
0.00334765 -0.000137084 -5.16904e-05
-0.000137084 0.00186577 -5.85936e-06
-5.16904e-05 -5.85936e-06 0.00185818
0.000291408 5.09624e-05 -3.23367e-06
5.09624e-05 -7.99036e-05 -1.11603e-05
-3.23367e-06 -1.11603e-05 -0.000143449
0.000382244 -8.93571e-05 -1.68294e-06
-8.93571e-05 -4.54255e-05 4.10441e-07
-1.68294e-06 4.10441e-07 -0.00012991
0.00419977 0.000206854 2.71248e-05
0.000206854 0.00244897 -9.26827e-06
2.71248e-05 -9.26827e-06 0.00241655
0.00524325 0.000132958 -1.30172e-05
0.000132958 0.00312062 -1.09403e-06
-1.30172e-05 -1.09403e-06 0.00310479
0.000512912 -0.000155457 -2.17448e-05
-0.000155457 4.39081e-06 1.75088e-05
-2.17448e-05 1.75088e-05 -0.000100623
0.00612072 0.000118471 -0.000217044
0.000118471 0.00368494 3.07843e-05
-0.000217044 3.07843e-05 0.00366685
0.00206939 0.000369884 -3.01002e-06
0.000369884 0.000138142 9.75051e-07
-3.01002e-06 9.75051e-07 -3.29241e-05
0.00207714 0.000203689 -1.30979e-06
0.000203689 0.000107288 4.75388e-07
-1.30979e-06 4.75388e-07 7.4344e-06
0.00223827 0.00032453 -4.47983e-06
0.00032453 0.000120441 -8.36971e-07
-4.47983e-06 -8.36971e-07 3.66703e-05
0.00216275 0.000147766 -5.02659e-06
0.000147766 2.74741e-05 -4.4113e-07
-5.02659e-06 -4.4113e-07 1.0595e-05
0.0019593 6.47927e-05 -3.35247e-06
6.47927e-05 4.00837e-05 -3.93233e-08
-3.35247e-06 -3.93233e-08 -3.73387e-05
0.00109628 3.89925e-06 -1.00792e-05
3.89925e-06 -8.45973e-05 1.34557e-08
-1.00792e-05 1.34557e-08 -0.000212924
0.00199772 -5.93709e-07 1.06521e-07
-5.93709e-07 7.18214e-05 9.96433e-08
1.06521e-07 9.96433e-08 -5.04051e-06
0.00214359 6.41467e-05 -5.77506e-07
6.41467e-05 3.77905e-05 -2.65634e-08
-5.77506e-07 -2.65634e-08 2.0012e-05
0.00221116 0.000229951 3.91982e-09
0.000229951 7.68208e-05 3.19823e-08
3.91982e-09 3.19823e-08 3.55388e-05
0.0021047 0.00013458 -1.14525e-07
0.00013458 -1.60489e-05 7.17882e-08
-1.14525e-07 7.17882e-08 -9.83232e-06
0.00220091 0.000424432 -1.25375e-07
0.000424432 0.000129817 3.81554e-07
-1.25375e-07 3.81554e-07 -7.87996e-06
0.00220636 0.000325714 -5.10566e-08
0.000325714 -8.5374e-06 -5.42671e-08
-5.10566e-08 -5.42671e-08 -2.25911e-05
0.00212932 -7.76837e-06 5.74506e-06
-7.76837e-06 3.46457e-05 -4.64486e-08
5.74506e-06 -4.64486e-08 1.42435e-05
0.00212761 5.7398e-05 3.78284e-06
5.7398e-05 1.05057e-05 1.1132e-07
3.78284e-06 1.1132e-07 3.06201e-05
0.0021515 0.000210245 4.21126e-07
0.000210245 -1.26244e-05 2.05863e-07
4.21126e-07 2.05863e-07 -1.47171e-05
0.00222379 0.000139621 -7.95003e-07
0.000139621 -1.53259e-05 6.12199e-07
-7.95003e-07 6.12199e-07 2.42594e-05
0.00220292 0.000428949 6.53347e-07
0.000428949 3.98414e-05 4.17256e-07
6.53347e-07 4.17256e-07 -3.69692e-05
0.00236002 0.000326566 1.10026e-07
0.000326566 8.50929e-06 -8.03938e-08
1.10026e-07 -8.03938e-08 2.27093e-05
0.00200386 -6.21125e-05 -1.8936e-06
-6.21125e-05 7.87782e-05 -5.20577e-08
-1.8936e-06 -5.20577e-08 -1.24129e-06
0.00202937 -0.000229297 1.27288e-07
-0.000229297 8.88868e-05 -7.04566e-07
1.27288e-07 -7.04566e-07 -1.97687e-05
0.00220715 -0.000147319 -4.07005e-06
-0.000147319 7.86111e-05 2.64457e-07
-4.07005e-06 2.64457e-07 4.97986e-05
0.00203003 -0.000311442 -4.6123e-06
-0.000311442 7.07355e-06 9.36164e-07
-4.6123e-06 9.36164e-07 -8.14916e-05
0.000636055 -0.000288377 -1.19939e-05
-0.000288377 -7.3998e-06 7.5665e-06
-1.19939e-05 7.5665e-06 -0.000294191
0.00164932 -0.00063759 -1.51468e-05
-0.00063759 0.000410557 1.64001e-07
-1.51468e-05 1.64001e-07 -3.36241e-05
0.00182817 -0.000747081 -1.16306e-06
-0.000747081 0.000260571 -4.76056e-06
-1.16306e-06 -4.76056e-06 -0.000186627
0.00204002 -0.000482984 -3.24705e-06
-0.000482984 0.00012157 -2.82701e-07
-3.24705e-06 -2.82701e-07 -6.61563e-05
0.00216921 -0.000435128 -1.56179e-06
-0.000435128 4.26858e-05 -7.80264e-09
-1.56179e-06 -7.80264e-09 -2.19469e-05
0.00207887 -0.000580658 -6.95058e-07
-0.000580658 0.000127087 -1.07322e-07
-6.95058e-07 -1.07322e-07 -7.16137e-05
0.00216339 -0.000697201 -5.14978e-07
-0.000697201 0.000296973 -5.49534e-06
-5.14978e-07 -5.49534e-06 -2.84646e-05
0.00225081 -0.000645377 3.7174e-06
-0.000645377 0.000303056 -2.42179e-06
3.7174e-06 -2.42179e-06 6.55596e-05
0.000760198 -0.000359582 -4.51799e-07
-0.000359582 8.16461e-05 -6.78505e-08
-4.51799e-07 -6.78505e-08 -0.000272572
0.000387437 -0.00031 -8.34043e-06
-0.00031 -0.000128708 1.02966e-06
-8.34043e-06 1.02966e-06 -0.000487948
0.000662142 -0.000172607 -3.67258e-06
-0.000172607 0.000153615 4.67194e-06
-3.67258e-06 4.67194e-06 -7.21907e-05
-5.109e-05 -0.000171566 -1.77776e-06
-0.000171566 -0.000355645 4.47258e-07
-1.77776e-06 4.47258e-07 -0.000603757
0.00218582 -8.13984e-05 -1.35106e-07
-8.13984e-05 8.20827e-05 2.90444e-08
-1.35106e-07 2.90444e-08 5.29984e-05
0.00208405 -0.000238171 2.20301e-06
-0.000238171 -7.8656e-06 -4.70766e-07
2.20301e-06 -4.70766e-07 -6.4987e-05
0.00207949 -0.000136529 6.0453e-07
-0.000136529 -1.52212e-07 -2.56388e-07
6.0453e-07 -2.56388e-07 5.85472e-06
0.00219412 -0.00034872 -4.04134e-07
-0.00034872 2.70659e-05 1.13449e-07
-4.04134e-07 1.13449e-07 2.45246e-06
0.00142608 -0.00050763 -3.25417e-06
-0.00050763 0.000389243 1.54756e-07
-3.25417e-06 1.54756e-07 -9.29113e-06
0.0017767 -0.000803664 2.55797e-06
-0.000803664 0.000403084 6.6542e-08
2.55797e-06 6.6542e-08 -0.000114046
0.00222972 -0.000844337 -6.22625e-07
-0.000844337 0.00044158 5.8468e-07
-6.22625e-07 5.8468e-07 -1.55254e-05
0.00219867 -0.000521551 -1.16431e-06
-0.000521551 0.000143306 3.58308e-07
-1.16431e-06 3.58308e-07 2.88294e-06
0.00224365 -0.000458515 9.55364e-07
-0.000458515 4.14734e-05 -4.45412e-07
9.55364e-07 -4.45412e-07 -5.68345e-06
0.00226798 -0.000707106 -8.88515e-07
-0.000707106 0.000369058 8.20009e-07
-8.88515e-07 8.20009e-07 5.46055e-05
0.00218965 -0.000633817 -1.04497e-06
-0.000633817 0.000141745 7.937e-07
-1.04497e-06 7.937e-07 -2.8528e-05
0.00224226 -0.000693465 5.08678e-06
-0.000693465 0.00024428 -4.30851e-06
5.08678e-06 -4.30851e-06 -7.6058e-07
0.001412 -0.000560577 -2.5646e-07
-0.000560577 0.000455802 -1.58247e-06
-2.5646e-07 -1.58247e-06 1.3889e-05
0.0014049 -0.000509243 3.03347e-06
-0.000509243 0.000536667 2.61747e-06
3.03347e-06 2.61747e-06 9.32305e-05
0.000955178 -0.00023591 7.63592e-08
-0.00023591 0.000280959 -5.11507e-06
7.63592e-08 -5.11507e-06 -1.25859e-05
0.000174029 -0.000116715 -2.74585e-06
-0.000116715 -0.000141879 1.07495e-06
-2.74585e-06 1.07495e-06 -0.000332401
7.30668e-05 -0.000168625 -1.70008e-06
-0.000168625 -0.000190624 -4.58188e-07
-1.70008e-06 -4.58188e-07 -0.000516369
0.00207917 -8.15177e-05 2.47325e-06
-8.15177e-05 -1.69327e-05 -5.23337e-07
2.47325e-06 -5.23337e-07 1.5434e-06
0.00214654 -0.000209336 7.75495e-07
-0.000209336 -1.23082e-05 -4.95962e-07
7.75495e-07 -4.95962e-07 -2.95535e-06
0.00229023 -0.000419422 -6.34164e-07
-0.000419422 -2.35408e-05 2.94673e-07
-6.34164e-07 2.94673e-07 -1.54211e-05
0.00224882 -0.000546513 8.26717e-07
-0.000546513 6.60834e-05 3.36317e-07
8.26717e-07 3.36317e-07 -5.84105e-06
0.001538 -0.000698905 1.66223e-06
-0.000698905 0.000442361 4.51668e-06
1.66223e-06 4.51668e-06 -6.17643e-05
0.00247061 -0.000761944 -6.87077e-06
-0.000761944 0.000217642 -1.40975e-06
-6.87077e-06 -1.40975e-06 1.47256e-05
0.00150939 -0.00086357 -1.51884e-05
-0.00086357 0.000238836 8.38026e-06
-1.51884e-05 8.38026e-06 -0.000310348
0.00246418 -0.000916709 -1.07621e-06
-0.000916709 0.000555304 3.40963e-06
-1.07621e-06 3.40963e-06 8.41345e-05
0.00197049 -0.000676138 -8.81708e-06
-0.000676138 0.000169693 2.77998e-08
-8.81708e-06 2.77998e-08 -0.000126657
7.95392e-06 -5.66758e-05 -1.81278e-06
-5.66758e-05 -0.000236419 -7.89157e-06
-1.81278e-06 -7.89157e-06 -0.000374738
0.00111169 -0.00026333 -4.11207e-06
-0.00026333 0.000566552 -1.94705e-06
-4.11207e-06 -1.94705e-06 0.000227573
0.00313072 -0.000225068 -2.41144e-06
-0.000225068 0.00168744 -3.35091e-06
-2.41144e-06 -3.35091e-06 0.00136045
0.00200322 -0.00070051 -3.45489e-06
-0.00070051 0.000816031 2.12673e-06
-3.45489e-06 2.12673e-06 0.000317024
0.000637361 -0.000342017 1.47135e-05
-0.000342017 1.71232e-05 -3.73091e-06
1.47135e-05 -3.73091e-06 -0.000356923
0.00165876 -0.000598593 -2.10001e-06
-0.000598593 0.000686065 1.25907e-05
-2.10001e-06 1.25907e-05 0.000187083
0.000406473 1.06408e-05 -3.76373e-06
1.06408e-05 -4.19641e-05 -1.14674e-05
-3.76373e-06 -1.14674e-05 -9.25007e-05
0.000151507 6.95336e-05 -9.00955e-07
6.95336e-05 -0.000167367 -7.85245e-06
-9.00955e-07 -7.85245e-06 -0.00033104
0.00220203 0.000503824 -3.74488e-06
0.000503824 0.000185642 -7.71681e-07
-3.74488e-06 -7.71681e-07 -5.10236e-06
-0.000524168 2.76878e-05 -1.61301e-06
2.76878e-05 -0.000583771 1.34335e-06
-1.61301e-06 1.34335e-06 -0.000861844
0.00205566 0.000436188 8.28803e-06
0.000436188 0.000930457 -3.77721e-06
8.28803e-06 -3.77721e-06 0.00062722
0.00033088 0.00013955 -6.70948e-06
0.00013955 -0.00021635 -2.39024e-06
-6.70948e-06 -2.39024e-06 -0.00047661
0.00214336 0.00064672 2.43883e-06
0.00064672 0.000297357 2.34826e-06
2.43883e-06 2.34826e-06 4.4588e-08
0.00215752 0.000628493 3.64787e-06
0.000628493 0.00021755 1.13983e-06
3.64787e-06 1.13983e-06 -2.82928e-05
0.00170833 0.000714831 5.80421e-06
0.000714831 0.000560503 4.35473e-06
5.80421e-06 4.35473e-06 4.75048e-05
0.00248235 0.000832899 -4.01329e-06
0.000832899 0.000768666 6.2022e-06
-4.01329e-06 6.2022e-06 0.000312756
0.00231306 0.000750458 4.42018e-06
0.000750458 0.000372583 3.96837e-06
4.42018e-06 3.96837e-06 3.08675e-05
0.000654433 9.18871e-05 5.11205e-07
9.18871e-05 0.000134392 3.30299e-07
5.11205e-07 3.30299e-07 7.37033e-06
0.00075293 0.000163036 -1.38381e-06
0.000163036 0.000275646 9.27287e-08
-1.38381e-06 9.27287e-08 2.00871e-05
0.000956476 0.000492866 6.52018e-07
0.000492866 0.000204642 1.12551e-06
6.52018e-07 1.12551e-06 -0.000193108
0.000656583 7.78982e-05 1.84536e-07
7.78982e-05 1.48011e-05 -6.25278e-07
1.84536e-07 -6.25278e-07 -0.000232546
0.00140096 0.000356369 3.91e-06
0.000356369 0.000348422 -5.1667e-06
3.91e-06 -5.1667e-06 4.67386e-05
0.00217531 0.000534451 -2.27193e-06
0.000534451 0.000123906 -1.20462e-06
-2.27193e-06 -1.20462e-06 -4.76227e-05
0.0022421 0.000713401 2.45108e-06
0.000713401 0.000311209 7.1185e-07
2.45108e-06 7.1185e-07 9.24434e-06
0.00216478 0.000690038 1.24551e-06
0.000690038 0.000166466 1.37202e-07
1.24551e-06 1.37202e-07 -8.80871e-05
0.00161928 0.000803783 2.12037e-06
0.000803783 0.000503211 8.49641e-07
2.12037e-06 8.49641e-07 -4.03912e-05
0.00194087 0.000808557 -2.03926e-06
0.000808557 0.000319019 -2.29903e-06
-2.03926e-06 -2.29903e-06 -0.000104333
0.00137028 0.00023451 1.92459e-06
0.00023451 0.000645505 2.17537e-06
1.92459e-06 2.17537e-06 0.000444487
-0.000303396 7.5574e-05 -2.15866e-07
7.5574e-05 -0.000383266 -4.09113e-07
-2.15866e-07 -4.09113e-07 -0.000679799
0.00137581 0.000617909 1.63686e-06
0.000617909 0.000471797 -5.66718e-06
1.63686e-06 -5.66718e-06 8.46758e-06
-0.000500074 0.000177339 5.22363e-06
0.000177339 -0.000857218 3.17195e-06
5.22363e-06 3.17195e-06 -0.00110711
0.00261365 0.000676037 2.36221e-06
0.000676037 0.00105511 -4.4753e-06
2.36221e-06 -4.4753e-06 0.00065264
0.00234005 0.00061339 -3.0647e-06
0.00061339 0.000109781 -4.42747e-07
-3.0647e-06 -4.42747e-07 -1.13072e-05
0.00226794 0.000771681 8.72604e-06
0.000771681 0.000281499 -3.28492e-06
8.72604e-06 -3.28492e-06 -5.68106e-05
0.00216538 0.000715686 6.78355e-06
0.000715686 0.000104677 7.64419e-07
6.78355e-06 7.64419e-07 -0.000169117
0.00196737 0.000869885 1.50217e-05
0.000869885 0.000651192 7.3406e-07
1.50217e-05 7.3406e-07 0.000107108
0.00223114 0.000940949 7.54e-06
0.000940949 0.000526786 -2.62486e-07
7.54e-06 -2.62486e-07 4.3169e-05
0.000556178 5.49512e-05 3.83914e-07
5.49512e-05 8.23579e-05 -7.18582e-06
3.83914e-07 -7.18582e-06 -2.75732e-05
0.000698148 0.00013704 8.74893e-07
0.00013704 0.000201063 -1.12627e-06
8.74893e-07 -1.12627e-06 4.28272e-05
0.000100847 9.98176e-05 -2.26854e-06
9.98176e-05 -0.000181175 -5.29e-06
-2.26854e-06 -5.29e-06 -0.000309969
-0.000350842 -2.05012e-05 3.57573e-06
-2.05012e-05 -0.000453143 -2.41035e-06
3.57573e-06 -2.41035e-06 -0.000597688
0.000549242 8.85342e-05 -1.30897e-06
8.85342e-05 0.000140617 4.13898e-07
-1.30897e-06 4.13898e-07 -9.07441e-06
0.000313574 0.000105623 1.52326e-06
0.000105623 -5.07274e-06 -3.1371e-07
1.52326e-06 -3.1371e-07 -0.000171376
0.000578395 0.000168953 -1.71335e-06
0.000168953 0.000156217 -9.97978e-06
-1.71335e-06 -9.97978e-06 8.20255e-07
0.00032818 3.91074e-05 -4.17183e-06
3.91074e-05 2.45043e-05 1.15966e-06
-4.17183e-06 1.15966e-06 -0.000152908
0.000697005 0.000115963 -2.33885e-07
0.000115963 0.000215637 2.41929e-06
-2.33885e-07 2.41929e-06 8.69158e-05
0.000515947 8.37498e-05 2.58267e-06
8.37498e-05 7.16968e-05 4.37986e-06
2.58267e-06 4.37986e-06 -1.47123e-05
0.000475397 3.12461e-05 -2.81653e-06
3.12461e-05 3.98483e-05 1.01527e-07
-2.81653e-06 1.01527e-07 -4.30474e-05
0.00132064 7.06127e-06 2.42136e-06
7.06127e-06 0.000545456 4.13188e-06
2.42136e-06 4.13188e-06 0.000522713
0.00032412 -7.57185e-05 4.97101e-06
-7.57185e-05 -4.66679e-05 -4.87223e-06
4.97101e-06 -4.87223e-06 -0.000139912
0.00139131 -7.55165e-07 -9.47073e-06
-7.55165e-07 0.000587477 -1.76565e-06
-9.47073e-06 -1.76565e-06 0.000563919
0.000732709 -1.96069e-05 3.59457e-05
-1.96069e-05 0.00015751 9.88068e-06
3.59457e-05 9.88068e-06 0.000161241
0.00145287 -5.0363e-06 -1.72957e-05
-5.0363e-06 0.000625708 -9.20318e-06
-1.72957e-05 -9.20318e-06 0.000598798
0.000741783 -3.62879e-05 1.59228e-05
-3.62879e-05 0.000164595 3.92259e-06
1.59228e-05 3.92259e-06 0.000161246
0.00298748 -0.000130547 1.32694e-06
-0.000130547 0.00162582 -3.88457e-06
1.32694e-06 -3.88457e-06 0.00161888
0.000283067 7.48837e-05 -5.26759e-06
7.48837e-05 -8.24654e-05 -8.0016e-06
-5.26759e-06 -8.0016e-06 -0.000135682
0.000381603 -1.89786e-05 -3.96414e-06
-1.89786e-05 -3.25358e-05 5.13608e-07
-3.96414e-06 5.13608e-07 -9.49647e-05
0.00339005 0.000190406 -1.86917e-05
0.000190406 0.00192382 -1.0102e-05
-1.86917e-05 -1.0102e-05 0.00189991
0.000612997 -0.000123394 -1.59472e-05
-0.000123394 9.56193e-05 1.41051e-05
-1.59472e-05 1.41051e-05 8.64769e-06
0.00457886 0.000154671 -4.2356e-05
0.000154671 0.00268622 -3.96723e-08
-4.2356e-05 -3.96723e-08 0.00266744
0.00555573 0.000127597 -0.000180216
0.000127597 0.00332506 2.71002e-05
-0.000180216 2.71002e-05 0.00330774
0.00223595 0.000430103 -3.63032e-06
0.000430103 0.000148059 1.54988e-07
-3.63032e-06 1.54988e-07 8.73878e-06
0.0022187 0.000227921 -5.35903e-06
0.000227921 7.70287e-05 -9.16211e-07
-5.35903e-06 -9.16211e-07 3.6729e-05
0.00219494 0.00031597 -5.91948e-08
0.00031597 -1.70608e-05 -1.92756e-07
-5.91948e-08 -1.92756e-07 -2.94002e-05
0.00207266 0.000135244 -1.94178e-07
0.000135244 -4.4083e-05 -4.8661e-07
-1.94178e-07 -4.8661e-07 -3.30313e-05
0.00215243 5.70562e-05 -6.35084e-06
5.70562e-05 4.7549e-05 -1.16142e-07
-6.35084e-06 -1.16142e-07 2.88842e-05
0.00196641 1.07104e-06 -3.4108e-06
1.07104e-06 5.14496e-05 1.25565e-07
-3.4108e-06 1.25565e-07 -2.56095e-05
0.00215503 -9.42392e-06 1.30008e-07
-9.42392e-06 5.6848e-05 2.69979e-08
1.30008e-07 2.69979e-08 3.42046e-05
0.0021172 5.91412e-05 1.08579e-06
5.91412e-05 7.31253e-06 4.54146e-09
1.08579e-06 4.54146e-09 2.34688e-05
0.00217035 0.000210724 -3.20748e-07
0.000210724 4.71674e-06 -6.50575e-08
-3.20748e-07 -6.50575e-08 2.75556e-06
0.00219388 0.000140078 5.38881e-07
0.000140078 -3.98338e-05 9.86012e-08
5.38881e-07 9.86012e-08 6.77544e-06
0.00222429 0.000428907 -4.20584e-07
0.000428907 6.13868e-05 2.49304e-07
-4.20584e-07 2.49304e-07 -1.70842e-05
0.002314 0.00032886 2.35569e-06
0.00032886 -2.15443e-05 5.82341e-07
2.35569e-06 5.82341e-07 -5.42173e-07
0.00207336 -1.46386e-05 2.73246e-06
-1.46386e-05 -1.63563e-05 -1.27377e-07
2.73246e-06 -1.27377e-07 -3.28966e-06
0.00220101 6.78783e-05 -1.36596e-06
6.78783e-05 -4.48205e-05 9.6209e-08
-1.36596e-06 9.6209e-08 1.54484e-05
0.00228745 0.000215115 -3.6603e-06
0.000215115 -2.74029e-05 -3.41369e-07
-3.6603e-06 -3.41369e-07 1.74531e-05
0.00240967 0.000463971 -2.72961e-06
0.000463971 2.17091e-05 -5.79523e-07
-2.72961e-06 -5.79523e-07 2.75132e-05
0.00219063 -8.16655e-05 -7.62156e-06
-8.16655e-05 8.46117e-05 5.93664e-07
-7.62156e-06 5.93664e-07 5.53244e-05
0.00211657 -0.000243278 -3.01562e-06
-0.000243278 1.98859e-05 1.99097e-07
-3.01562e-06 1.99097e-07 -3.88936e-05
0.00205538 -0.000136184 -2.97823e-06
-0.000136184 -2.25615e-05 4.59464e-07
-2.97823e-06 4.59464e-07 -1.46543e-05
0.00216237 -0.000346466 -3.93095e-06
-0.000346466 1.40326e-05 4.42565e-07
-3.93095e-06 4.42565e-07 -1.75217e-05
0.00105584 -0.000475896 -5.39459e-06
-0.000475896 0.000141825 -6.94492e-07
-5.39459e-06 -6.94492e-07 -0.000250741
0.00181249 -0.000803702 7.94379e-06
-0.000803702 0.000435947 -8.45402e-06
7.94379e-06 -8.45402e-06 -8.24218e-05
0.0022189 -0.00086173 -2.47907e-06
-0.00086173 0.000429343 -4.7265e-06
-2.47907e-06 -4.7265e-06 -3.83341e-05
0.00219502 -0.00051711 -3.98207e-06
-0.00051711 0.00015078 5.62746e-07
-3.98207e-06 5.62746e-07 5.51679e-06
0.00219897 -0.000456708 9.51983e-07
-0.000456708 1.34679e-05 -1.31026e-07
9.51983e-07 -1.31026e-07 -2.79129e-05
0.00217528 -0.000636423 -9.49723e-07
-0.000636423 0.00012305 9.28368e-07
-9.49723e-07 9.28368e-07 -4.73356e-05
0.00220758 -0.000697267 -3.39823e-06
-0.000697267 0.000342059 -2.65762e-06
-3.39823e-06 -2.65762e-06 3.07702e-05
0.00231792 -0.00069675 1.00406e-05
-0.00069675 0.000291049 -3.58117e-06
1.00406e-05 -3.58117e-06 4.74659e-05
0.00129363 -0.000540406 -1.48609e-05
-0.000540406 0.000413908 -2.04412e-06
-1.48609e-05 -2.04412e-06 -2.56344e-05
0.000699524 -0.000437204 4.28708e-06
-0.000437204 6.68934e-05 -8.50863e-06
4.28708e-06 -8.50863e-06 -0.000357616
0.00256596 -0.000315697 -6.66737e-06
-0.000315697 0.00126272 -2.93262e-06
-6.66737e-06 -2.93262e-06 0.000975772
-3.56745e-05 -8.3214e-05 2.20707e-06
-8.3214e-05 -0.000275057 6.13639e-06
2.20707e-06 6.13639e-06 -0.000464888
-0.000161906 -0.000158843 3.37927e-06
-0.000158843 -0.000331215 -2.62471e-06
3.37927e-06 -2.62471e-06 -0.000652401
0.00206371 -8.9295e-05 9.30802e-08
-8.9295e-05 -2.79858e-05 -9.1113e-08
9.30802e-08 -9.1113e-08 -1.07171e-05
0.00215545 -0.000210046 1.7211e-06
-0.000210046 -1.0481e-05 -7.16465e-09
1.7211e-06 -7.16465e-09 -1.61429e-06
0.00227374 -0.000412043 -7.37396e-07
-0.000412043 -1.62326e-05 1.73423e-07
-7.37396e-07 1.73423e-07 -1.55664e-05
0.00174916 -0.000712291 -1.76325e-06
-0.000712291 0.0005706 -3.99408e-07
-1.76325e-06 -3.99408e-07 6.73964e-05
0.00155163 -0.000847325 4.42449e-06
-0.000847325 0.000269846 -5.66084e-07
4.42449e-06 -5.66084e-07 -0.000271541
0.00231492 -0.000915663 -1.27537e-06
-0.000915663 0.000467908 1.48472e-08
-1.27537e-06 1.48472e-08 -8.48374e-06
0.00225114 -0.000542366 5.00748e-07
-0.000542366 7.22209e-05 -1.52785e-07
5.00748e-07 -1.52785e-07 -1.96328e-06
0.00218985 -0.000718044 3.08241e-06
-0.000718044 0.000274222 -4.4151e-06
3.08241e-06 -4.4151e-06 -2.68261e-05
0.00240225 -0.000740646 -1.00153e-06
-0.000740646 0.000208199 -4.56421e-07
-1.00153e-06 -4.56421e-07 1.30898e-05
-0.00021608 2.48162e-05 -2.06089e-06
2.48162e-05 -0.00039544 -6.22714e-07
-2.06089e-06 -6.22714e-07 -0.000518861
0.00146796 -0.000618214 -4.1339e-07
-0.000618214 0.000516695 -1.57129e-06
-4.1339e-07 -1.57129e-06 2.77685e-05
0.00117938 -0.000547097 -4.92347e-06
-0.000547097 0.000395773 -1.145e-06
-4.92347e-06 -1.145e-06 -0.000116404
0.00116221 -0.000342977 -4.34052e-06
-0.000342977 0.000363022 3.59032e-06
-4.34052e-06 3.59032e-06 -2.29127e-05
0.00175842 -0.000409498 1.4354e-06
-0.000409498 0.000851217 -1.83331e-06
1.4354e-06 -1.83331e-06 0.000495204
0.000437573 -0.000135675 -4.87564e-07
-0.000135675 0.000121025 1.00943e-06
-4.87564e-07 1.00943e-06 -0.000200236
0.00216324 -0.000111775 -1.17032e-06
-0.000111775 -5.13506e-05 -3.19729e-07
-1.17032e-06 -3.19729e-07 -2.62589e-06
0.0023256 -0.000282735 -1.58246e-06
-0.000282735 -6.22919e-05 6.37064e-07
-1.58246e-06 6.37064e-07 6.16585e-06
0.00235504 -0.000508952 -9.87364e-08
-0.000508952 -1.69266e-05 5.42083e-07
-9.87364e-08 5.42083e-07 1.22795e-06
0.00239264 -0.00065498 -9.30068e-07
-0.00065498 5.28975e-05 -7.73619e-07
-9.30068e-07 -7.73619e-07 2.46581e-06
0.00194531 -0.000817352 -7.14482e-06
-0.000817352 0.00069075 4.60856e-06
-7.14482e-06 4.60856e-06 0.000142571
0.00242531 -0.000857198 -9.08286e-06
-0.000857198 0.000291856 -3.70723e-06
-9.08286e-06 -3.70723e-06 3.52432e-06
0.00195135 -0.000984702 -5.1041e-05
-0.000984702 0.000501648 9.5812e-06
-5.1041e-05 9.5812e-06 -8.9036e-05
0.00220306 -0.000950025 -2.76743e-05
-0.000950025 0.000420093 4.70464e-06
-2.76743e-05 4.70464e-06 -6.73595e-05
-0.000235814 4.46324e-05 -5.91298e-06
4.46324e-05 -0.000411234 -5.18435e-06
-5.91298e-06 -5.18435e-06 -0.000501567
0.00104611 -2.17277e-05 -3.04263e-06
-2.17277e-05 0.000492817 -1.74735e-06
-3.04263e-06 -1.74735e-06 0.00026057
0.00237435 -0.000444304 -9.4933e-06
-0.000444304 0.00137568 -7.93503e-07
-9.4933e-06 -7.93503e-07 0.00100184
0.00021708 -0.000249074 -1.39618e-06
-0.000249074 -0.000148156 -9.8252e-06
-1.39618e-06 -9.8252e-06 -0.000513351
0.00311907 -0.000854152 -9.64769e-06
-0.000854152 0.00151226 1.53664e-05
-9.64769e-06 1.53664e-05 0.000962759
0.00174052 -0.000620982 6.61651e-06
-0.000620982 0.000749095 1.20094e-05
6.61651e-06 1.20094e-05 0.000175355
0.000528653 7.8914e-05 -4.37951e-07
7.8914e-05 5.49812e-05 -7.6973e-06
-4.37951e-07 -7.6973e-06 -6.88759e-05
-0.000607109 5.07775e-05 9.70546e-07
5.07775e-05 -0.000589366 3.52305e-07
9.70546e-07 3.52305e-07 -0.000832412
0.0021698 0.000536281 -1.12659e-06
0.000536281 0.000131858 -8.84396e-07
-1.12659e-06 -8.84396e-07 -4.16895e-05
0.000168266 4.82617e-05 -4.57648e-06
4.82617e-05 -0.000279219 1.85637e-06
-4.57648e-06 1.85637e-06 -0.000528749
0.00138255 0.000553605 4.5644e-06
0.000553605 0.000457136 -4.87081e-06
4.5644e-06 -4.87081e-06 3.62193e-05
-5.20717e-05 0.000164636 -7.17396e-06
0.000164636 -0.000574696 -8.02857e-06
-7.17396e-06 -8.02857e-06 -0.000820003
0.00230246 0.000720079 5.00952e-06
0.000720079 0.000337821 1.89906e-06
5.00952e-06 1.89906e-06 3.43902e-05
0.00216843 0.000688443 -3.25928e-06
0.000688443 0.000157914 6.71298e-07
-3.25928e-06 6.71298e-07 -9.59111e-05
0.00213827 0.000883616 -4.8218e-06
0.000883616 0.000797486 5.0624e-06
-4.8218e-06 5.0624e-06 0.000239237
0.00200473 0.000818628 -8.0113e-06
0.000818628 0.000390163 2.10565e-06
-8.0113e-06 2.10565e-06 -4.22878e-05
0.000845127 0.00017511 -8.59476e-07
0.00017511 0.000304392 -2.54108e-07
-8.59476e-07 -2.54108e-07 0.000114996
0.000491037 0.000179637 2.16437e-06
0.000179637 0.000117401 -6.67279e-07
2.16437e-06 -6.67279e-07 -0.00019315
0.00126826 0.000594954 -3.31588e-06
0.000594954 0.000402884 -9.46499e-07
-3.31588e-06 -9.46499e-07 -5.27381e-05
0.00149592 0.000263218 -2.21999e-06
0.000263218 0.000395939 1.84118e-06
-2.21999e-06 1.84118e-06 0.00014349
0.0023923 0.000606358 9.58905e-08
0.000606358 0.000897635 -1.78042e-06
9.58905e-08 -1.78042e-06 0.000515655
0.00238678 0.00062348 -2.44774e-06
0.00062348 0.000120984 -7.04074e-07
-2.44774e-06 -7.04074e-07 -3.34661e-06
0.00243952 0.000769868 2.94317e-06
0.000769868 0.000394806 -7.74374e-07
2.94317e-06 -7.74374e-07 6.59428e-05
0.00246311 0.000747004 9.55224e-07
0.000747004 0.000285573 2.68768e-06
9.55224e-07 2.68768e-06 6.37068e-06
0.00183032 0.000863095 4.77525e-06
0.000863095 0.000564578 1.33368e-06
4.77525e-06 1.33368e-06 1.65631e-05
0.00219627 0.000973376 -4.91021e-06
0.000973376 0.000509212 8.49248e-07
-4.91021e-06 8.49248e-07 4.01038e-06
-0.00167535 3.09404e-05 -6.409e-06
3.09404e-05 -0.00127473 2.79737e-06
-6.409e-06 2.79737e-06 -0.001454
-0.0019839 0.000114303 -1.02009e-06
0.000114303 -0.00137316 -9.34965e-07
-1.02009e-06 -9.34965e-07 -0.0017223
0.00176541 0.000701194 6.7545e-06
0.000701194 0.000631421 -4.02436e-06
6.7545e-06 -4.02436e-06 0.00015201
0.00172082 0.000460068 5.8309e-06
0.000460068 0.00045098 -7.82501e-08
5.8309e-06 -7.82501e-08 0.000135392
0.00259278 0.000611486 2.40003e-07
0.000611486 -8.21735e-05 4.17333e-07
2.40003e-07 4.17333e-07 -1.56727e-05
0.00261715 0.000751723 5.9605e-06
0.000751723 0.000278629 9.11673e-07
5.9605e-06 9.11673e-07 7.4546e-05
0.00247634 0.000919046 8.46631e-06
0.000919046 0.00042425 -4.44238e-06
8.46631e-06 -4.44238e-06 -7.09955e-06
0.00173512 0.000952961 5.71677e-06
0.000952961 0.000350078 -8.6148e-07
5.71677e-06 -8.6148e-07 -0.000225135
0.00120178 0.000182764 1.12626e-06
0.000182764 0.000542685 -5.37691e-07
1.12626e-06 -5.37691e-07 0.000364304
0.000464641 0.000182302 -3.07258e-06
0.000182302 7.51538e-05 -3.07823e-07
-3.07258e-06 -3.07823e-07 -7.41276e-05
0.00118181 0.000142385 -9.79321e-06
0.000142385 0.000540711 -6.18514e-06
-9.79321e-06 -6.18514e-06 0.000430653
0.000335787 5.29136e-05 6.43483e-07
5.29136e-05 -2.13192e-05 -2.79446e-06
6.43483e-07 -2.79446e-06 -0.000149971
-0.00090234 5.58954e-05 4.53552e-07
5.58954e-05 -0.000756634 1.52784e-06
4.53552e-07 1.52784e-06 -0.000919427
0.000672192 6.86533e-05 -8.21889e-07
6.86533e-05 0.000201799 1.92125e-08
-8.21889e-07 1.92125e-08 7.11766e-05
0.000611076 0.000188612 1.75395e-06
0.000188612 0.000211446 1.25989e-06
1.75395e-06 1.25989e-06 4.88935e-05
0.000552448 9.29732e-05 7.65751e-07
9.29732e-05 0.000189248 1.25291e-06
7.65751e-07 1.25291e-06 -6.49548e-06
0.000604225 0.000147122 2.5246e-06
0.000147122 0.000117353 -9.95679e-06
2.5246e-06 -9.95679e-06 2.94847e-05
0.000671095 5.26021e-05 4.39249e-07
5.26021e-05 0.000252698 -6.34674e-06
4.39249e-07 -6.34674e-06 6.45519e-05
-6.50331e-05 7.45336e-05 -5.14324e-07
7.45336e-05 -0.000235906 2.89473e-06
-5.14324e-07 2.89473e-06 -0.000403026
0.000693898 0.000127915 2.18557e-06
0.000127915 0.000212086 4.23782e-06
2.18557e-06 4.23782e-06 7.89931e-05
0.000444168 8.85095e-05 2.70914e-06
8.85095e-05 3.18198e-05 4.18451e-06
2.70914e-06 4.18451e-06 -6.045e-05
0.000432771 2.05006e-05 -1.60109e-06
2.05006e-05 1.49732e-05 -4.20225e-07
-1.60109e-06 -4.20225e-07 -6.87552e-05
0.00125939 1.28642e-05 7.97201e-07
1.28642e-05 0.000511582 3.46072e-06
7.97201e-07 3.46072e-06 0.000489102
0.000415636 -4.19055e-05 1.28583e-06
-4.19055e-05 -2.40317e-06 -3.78649e-06
1.28583e-06 -3.78649e-06 -8.2182e-05
0.00133239 -5.36926e-07 -9.01854e-06
-5.36926e-07 0.000552684 -1.75339e-06
-9.01854e-06 -1.75339e-06 0.000531008
0.000680182 -9.73231e-06 3.29701e-05
-9.73231e-06 0.000126739 9.96008e-06
3.29701e-05 9.96008e-06 0.00013127
0.00136817 -2.51089e-05 -1.15677e-05
-2.51089e-05 0.000573252 -7.86861e-06
-1.15677e-05 -7.86861e-06 0.000550576
0.000731904 -2.57356e-05 1.37365e-05
-2.57356e-05 0.00015529 3.73361e-06
1.37365e-05 3.73361e-06 0.000156595
0.000739011 -4.04791e-05 1.82487e-06
-4.04791e-05 0.000162787 -4.20404e-06
1.82487e-06 -4.20404e-06 0.000157407
0.000336132 4.84072e-05 -2.56889e-06
4.84072e-05 -7.52954e-05 -6.10224e-06
-2.56889e-06 -6.10224e-06 -0.000109184
0.000404191 6.54278e-05 -1.3865e-06
6.54278e-05 -1.26556e-05 1.37012e-07
-1.3865e-06 1.37012e-07 -6.31379e-05
0.00274301 0.000139347 -5.16332e-06
0.000139347 0.00149042 -7.29937e-06
-5.16332e-06 -7.29937e-06 0.00148094
0.000426722 -2.47951e-05 -1.03286e-05
-2.47951e-05 -4.14713e-06 1.22319e-05
-1.03286e-05 1.22319e-05 -6.98229e-05
0.00356615 0.000165579 -2.45519e-05
0.000165579 0.00202722 -2.16655e-06
-2.45519e-05 -2.16655e-06 0.00200821
0.00465588 8.19145e-05 -0.000161186
8.19145e-05 0.00272727 2.05811e-05
-0.000161186 2.05811e-05 0.00272558
0.00224125 0.000428369 -4.6043e-07
0.000428369 8.07997e-05 1.26073e-07
-4.6043e-07 1.26073e-07 8.18294e-07
0.00219006 0.00021148 -1.9818e-06
0.00021148 2.16942e-05 -9.6181e-07
-1.9818e-06 -9.6181e-07 1.98858e-05
0.00226671 0.000330702 2.7011e-06
0.000330702 -5.27629e-05 1.61861e-06
2.7011e-06 1.61861e-06 -2.49873e-05
0.00215729 0.000140612 2.61242e-06
0.000140612 -6.9249e-05 -2.08119e-07
2.61242e-06 -2.08119e-07 -1.49841e-05
0.00210808 6.08926e-05 -2.90287e-06
6.08926e-05 4.39673e-06 -3.24234e-07
-2.90287e-06 -3.24234e-07 1.69831e-05
0.00218157 -1.26366e-05 -8.10402e-06
-1.26366e-05 7.92882e-05 2.73807e-07
-8.10402e-06 2.73807e-07 5.4513e-05
0.00208544 -1.33891e-05 2.88683e-07
-1.33891e-05 -7.46252e-06 -9.03642e-09
2.88683e-07 -9.03642e-09 6.5649e-06
0.00218179 7.09199e-05 9.39605e-07
7.09199e-05 -5.33587e-05 5.62934e-08
9.39605e-07 5.62934e-08 5.29076e-06
0.0022638 0.000221171 1.02203e-06
0.000221171 -4.59394e-05 2.06305e-07
1.02203e-06 2.06305e-07 2.91983e-06
0.00238472 0.00045056 4.95822e-07
0.00045056 -2.3482e-07 1.50583e-07
4.95822e-07 1.50583e-07 8.91414e-06
0.00214751 -1.6907e-05 -1.89084e-06
-1.6907e-05 -6.60867e-05 -1.8232e-07
-1.89084e-06 -1.8232e-07 -1.3146e-05
0.00230815 0.000120412 -5.92134e-06
0.000120412 -9.06139e-05 -5.76022e-08
-5.92134e-06 -5.76022e-08 1.37018e-05
0.00253685 0.000335679 -3.35723e-06
0.000335679 -2.07632e-05 -1.34384e-06
-3.35723e-06 -1.34384e-06 5.71902e-05
0.00204542 -9.69525e-05 -1.95307e-06
-9.69525e-05 -4.08001e-05 4.69344e-07
-1.95307e-06 4.69344e-07 -2.47385e-05
0.00216228 -0.000210231 -1.62348e-06
-0.000210231 -9.25501e-06 -2.78056e-08
-1.62348e-06 -2.78056e-08 -8.67359e-07
0.00225449 -0.000404344 -7.02474e-07
-0.000404344 -9.8495e-06 -2.40025e-07
-7.02474e-07 -2.40025e-07 -1.73852e-05
0.00189568 -0.000729004 -2.34725e-06
-0.000729004 0.000636909 -5.69543e-06
-2.34725e-06 -5.69543e-06 0.00013289
0.00174615 -0.000845805 1.82171e-05
-0.000845805 0.000392636 -8.97718e-06
1.82171e-05 -8.97718e-06 -0.000142863
0.00216667 -0.000912893 3.08909e-06
-0.000912893 0.000385594 -2.30888e-06
3.08909e-06 -2.30888e-06 -9.40626e-05
0.0022556 -0.000539075 -1.12025e-06
-0.000539075 7.84935e-05 -3.12878e-08
-1.12025e-06 -3.12878e-08 2.09923e-06
0.00231223 -0.0007191 6.60014e-06
-0.0007191 0.000178926 3.16624e-07
6.60014e-06 3.16624e-07 -4.12131e-06
0.00236425 -0.000760097 8.06821e-06
-0.000760097 0.000350322 -7.21036e-06
8.06821e-06 -7.21036e-06 4.48592e-05
0.00104175 -0.000549773 -4.71501e-06
-0.000549773 0.000269895 -4.04685e-06
-4.71501e-06 -4.04685e-06 -0.000209384
0.00201725 -0.000674749 3.58794e-07
-0.000674749 0.000895455 -1.35454e-05
3.58794e-07 -1.35454e-05 0.00037189
0.00248926 -0.000431803 -1.40592e-05
-0.000431803 0.00125256 1.55776e-05
-1.40592e-05 1.55776e-05 0.000818521
0.00021954 3.48802e-05 5.33331e-06
3.48802e-05 -0.000116989 4.17461e-06
5.33331e-06 4.17461e-06 -0.000239643
0.00145079 -0.000448598 1.07948e-06
-0.000448598 0.000652946 1.66287e-07
1.07948e-06 1.66287e-07 0.000296041
-0.000260944 -1.29646e-05 7.71973e-06
-1.29646e-05 -0.000339877 8.72012e-07
7.71973e-06 8.72012e-07 -0.000644254
0.0021704 -0.000107656 -4.76546e-07
-0.000107656 -4.59468e-05 6.20117e-08
-4.76546e-07 6.20117e-08 8.02532e-07
0.00230367 -0.000292958 3.94235e-07
-0.000292958 -8.03337e-05 2.54721e-08
3.94235e-07 2.54721e-08 -9.88766e-06
0.00235755 -0.000500778 -6.94073e-07
-0.000500778 -1.14405e-05 2.91207e-07
-6.94073e-07 2.91207e-07 5.3239e-06
0.00206136 -0.000834709 -1.29701e-06
-0.000834709 0.000755433 1.29552e-06
-1.29701e-06 1.29552e-06 0.000205831
0.00182783 -0.00095792 8.4817e-06
-0.00095792 0.000435511 -1.83507e-06
8.4817e-06 -1.83507e-06 -0.000144537
0.00235279 -0.000942895 -1.83111e-06
-0.000942895 0.000513862 -1.85324e-06
-1.83111e-06 -1.85324e-06 4.20233e-05
0.00239082 -0.000665645 2.52766e-07
-0.000665645 5.46644e-05 -1.17232e-07
2.52766e-07 -1.17232e-07 -6.42811e-06
0.00232357 -0.000828427 2.18074e-06
-0.000828427 0.000252542 -1.44561e-06
2.18074e-06 -1.44561e-06 -2.14059e-05
0.000205357 6.49474e-05 -2.47917e-06
6.49474e-05 -0.000126356 -1.77939e-06
-2.47917e-06 -1.77939e-06 -0.000215749
0.00075479 -5.78354e-05 -1.40032e-06
-5.78354e-05 0.000290942 7.06742e-07
-1.40032e-06 7.06742e-07 7.29559e-05
0.00122367 -0.000620737 -3.05842e-06
-0.000620737 0.000371802 6.7451e-07
-3.05842e-06 6.7451e-07 -0.000117197
0.00168996 -0.00057604 -4.7858e-06
-0.00057604 0.000756497 3.13025e-06
-4.7858e-06 3.13025e-06 0.000190646
0.00116278 -0.000217197 1.08766e-06
-0.000217197 0.000421634 -2.57029e-06
1.08766e-06 -2.57029e-06 5.72249e-05
0.00152287 -0.000327913 -9.23366e-07
-0.000327913 0.00082698 1.97126e-06
-9.23366e-07 1.97126e-06 0.00046463
0.00229491 -0.000143251 -4.59905e-06
-0.000143251 -8.95915e-05 7.57042e-07
-4.59905e-06 7.57042e-07 1.57072e-05
0.00247387 -0.000428601 -2.03718e-06
-0.000428601 -0.000128924 1.57811e-06
-2.03718e-06 1.57811e-06 1.11063e-05
0.00242865 -0.000626206 2.66487e-06
-0.000626206 -2.88542e-05 -1.01152e-06
2.66487e-06 -1.01152e-06 -1.51288e-05
0.00254632 -0.000847301 1.46609e-06
-0.000847301 0.000177025 -1.67147e-06
1.46609e-06 -1.67147e-06 1.84866e-05
0.000975881 -0.000725665 -7.07267e-06
-0.000725665 0.000119885 -2.87436e-06
-7.07267e-06 -2.87436e-06 -0.000395511
0.00246312 -0.00101958 -3.49935e-06
-0.00101958 0.000484717 1.5298e-07
-3.49935e-06 1.5298e-07 4.26195e-05
0.00235744 -0.00112546 -5.88331e-05
-0.00112546 0.000666496 5.86883e-06
-5.88331e-05 5.86883e-06 3.50345e-05
0.000558168 4.58034e-05 -3.94165e-07
4.58034e-05 8.00079e-05 -2.13625e-06
-3.94165e-07 -2.13625e-06 1.20413e-05
0.000797817 -0.000168541 3.85503e-06
-0.000168541 0.000310089 -4.43555e-06
3.85503e-06 -4.43555e-06 0.000171204
0.000152167 8.31012e-05 -8.35602e-06
8.31012e-05 -0.000108033 -2.66351e-06
-8.35602e-06 -2.66351e-06 -0.000248748
0.00104708 -9.5755e-05 -5.65776e-06
-9.5755e-05 0.000501326 1.33887e-06
-5.65776e-06 1.33887e-06 0.000221214
0.000200208 -0.000173209 -4.01083e-06
-0.000173209 -9.14841e-05 -1.34289e-05
-4.01083e-06 -1.34289e-05 -0.000414477
0.00130448 -0.000330123 4.20934e-07
-0.000330123 0.000626024 -1.04296e-05
4.20934e-07 -1.04296e-05 0.00015033
0.0012865 -0.000667804 -1.98073e-05
-0.000667804 0.000413646 3.7708e-05
-1.98073e-05 3.7708e-05 -8.12191e-05
0.00276939 -0.000662718 -1.86879e-05
-0.000662718 0.0015658 1.66869e-05
-1.86879e-05 1.66869e-05 0.000808697
8.6375e-05 7.75151e-05 6.42643e-07
7.75151e-05 -0.000202671 -1.64857e-08
6.42643e-07 -1.64857e-08 -0.000367189
0.00153637 0.00031121 1.3598e-07
0.00031121 0.000764602 2.03999e-06
1.3598e-07 2.03999e-06 0.000441834
0.00243459 0.000634591 -8.60941e-08
0.000634591 0.000132498 -8.77067e-07
-8.60941e-08 -8.77067e-07 4.13603e-06
0.00117565 0.00020246 -4.43802e-06
0.00020246 0.000169494 -2.96347e-06
-4.43802e-06 -2.96347e-06 -8.49941e-05
0.00117431 0.000572998 -1.52862e-06
0.000572998 0.000347827 -2.4598e-07
-1.52862e-06 -2.4598e-07 -0.000102486
0.002454 0.000577406 -4.23516e-06
0.000577406 0.000915877 4.77673e-06
-4.23516e-06 4.77673e-06 0.00054318
0.00260009 0.0007652 -5.06072e-06
0.0007652 0.000502473 3.78246e-07
-5.06072e-06 3.78246e-07 0.000184195
0.00274015 0.000777149 -6.55335e-06
0.000777149 0.000454183 6.94046e-06
-6.55335e-06 6.94046e-06 0.000169927
0.00163385 0.000851203 -4.74826e-06
0.000851203 0.000437291 1.72335e-06
-4.74826e-06 1.72335e-06 -0.000112612
0.00204695 0.000995212 -1.28609e-05
0.000995212 0.000423385 -4.81869e-07
-1.28609e-05 -4.81869e-07 -0.000100624
-0.000223459 8.9475e-05 1.64474e-06
8.9475e-05 -0.000328514 1.43754e-06
1.64474e-06 1.43754e-06 -0.000550274
0.000319926 0.000330143 4.49522e-06
0.000330143 8.56511e-05 -2.45325e-06
4.49522e-06 -2.45325e-06 -0.000289273
0.0015392 0.000689 8.29249e-07
0.000689 0.000460699 -2.52343e-07
8.29249e-07 -2.52343e-07 -2.48268e-05
0.00204512 0.00050257 -5.6887e-06
0.00050257 0.000693164 9.371e-07
-5.6887e-06 9.371e-07 0.000359337
0.00254648 0.000588192 2.41303e-07
0.000588192 -0.000142344 -9.70161e-07
2.41303e-07 -9.70161e-07 -5.49679e-05
0.00268777 0.00076645 3.2791e-06
0.00076645 0.000316359 -3.67725e-07
3.2791e-06 -3.67725e-07 9.7992e-05
0.00228965 0.00088 -3.126e-06
0.00088 0.000345924 1.65602e-08
-3.126e-06 1.65602e-08 -7.14011e-05
0.00209533 0.000985386 2.16488e-06
0.000985386 0.000545343 3.34273e-07
2.16488e-06 3.34273e-07 -2.70106e-05
-0.000633311 3.56599e-05 -5.06161e-06
3.56599e-05 -0.000566247 -2.43603e-07
-5.06161e-06 -2.43603e-07 -0.000755263
0.00246334 0.000423236 1.59145e-06
0.000423236 -0.00021677 -1.20498e-06
1.59145e-06 -1.20498e-06 -9.59568e-05
0.00235597 0.000602984 -2.5516e-06
0.000602984 0.00131433 9.22304e-06
-2.5516e-06 9.22304e-06 0.000880865
0.0017217 0.000696977 6.2651e-07
0.000696977 0.000493352 -4.36836e-06
6.2651e-07 -4.36836e-06 3.01002e-05
0.00263441 0.000748504 -1.52894e-05
0.000748504 6.22031e-05 -9.88735e-06
-1.52894e-05 -9.88735e-06 5.58922e-05
0.00130673 0.000810795 4.24829e-06
0.000810795 -0.00032313 -1.06905e-05
4.24829e-06 -1.06905e-05 -0.000707264
0.00303889 0.00112652 2.93401e-06
0.00112652 0.0010271 3.76685e-06
2.93401e-06 3.76685e-06 0.000425137
0.000508893 0.00015005 6.25205e-08
0.00015005 0.000121834 1.14467e-06
6.25205e-08 1.14467e-06 -3.67959e-05
0.000459361 0.000134216 -2.66479e-06
0.000134216 0.000102315 -1.11695e-06
-2.66479e-06 -1.11695e-06 -1.35389e-05
0.00036459 9.78809e-05 -3.62143e-06
9.78809e-05 6.87843e-05 -2.14982e-06
-3.62143e-06 -2.14982e-06 -1.32969e-05
0.000337818 8.59004e-06 1.59738e-06
8.59004e-06 -1.65527e-05 -3.69544e-06
1.59738e-06 -3.69544e-06 -0.000142339
0.000503871 9.68943e-05 2.78114e-06
9.68943e-05 0.000154355 -3.45062e-06
2.78114e-06 -3.45062e-06 -3.78938e-05
-0.000556425 0.000142841 -4.6075e-06
0.000142841 -0.000480685 1.15571e-05
-4.6075e-06 1.15571e-05 -0.000632007
0.000507253 2.83179e-05 -1.71122e-06
2.83179e-05 9.49849e-05 -7.10317e-08
-1.71122e-06 -7.10317e-08 -3.92878e-05
0.000229957 1.50337e-06 -6.01438e-07
1.50337e-06 -2.80306e-05 -4.67631e-07
-6.01438e-07 -4.67631e-07 -0.000209696
6.18351e-06 8.52136e-05 -4.70866e-06
8.52136e-05 -0.000223869 2.89947e-06
-4.70866e-06 2.89947e-06 -0.000297637
0.000740851 0.000142906 1.58354e-06
0.000142906 0.00030832 -1.33649e-06
1.58354e-06 -1.33649e-06 0.000110836
0.00187632 0.000195811 -1.24228e-06
0.000195811 0.000917447 -8.60103e-06
-1.24228e-06 -8.60103e-06 0.000859812
-0.000106265 2.37288e-05 1.24586e-05
2.37288e-05 -0.000280605 -1.2234e-05
1.24586e-05 -1.2234e-05 -0.000378407
0.000454406 0.000126956 6.71056e-07
0.000126956 0.000134346 2.69716e-06
6.71056e-07 2.69716e-06 -6.59592e-05
0.000502748 6.89981e-05 4.61242e-07
6.89981e-05 0.000122867 3.92686e-06
4.61242e-07 3.92686e-06 -6.50842e-05
0.000528528 2.34564e-05 2.13172e-06
2.34564e-05 9.35061e-05 3.4365e-06
2.13172e-06 3.4365e-06 -4.16855e-05
0.000485715 -7.23187e-05 -1.57385e-06
-7.23187e-05 5.04927e-05 3.08228e-06
-1.57385e-06 3.08228e-06 -3.97833e-05
0.000462012 1.57321e-05 7.11281e-07
1.57321e-05 3.0102e-05 -4.79124e-07
7.11281e-07 -4.79124e-07 -5.38505e-05
0.00131796 2.86589e-05 3.64737e-06
2.86589e-05 0.000554936 3.69613e-06
3.64737e-06 3.69613e-06 0.000531842
0.000461896 1.48773e-05 8.16223e-07
1.48773e-05 1.97024e-05 -3.99979e-06
8.16223e-07 -3.99979e-06 -5.49935e-05
0.00133828 1.9134e-05 -9.19643e-06
1.9134e-05 0.000563481 -1.91492e-06
-9.19643e-06 -1.91492e-06 0.000540538
0.000750398 -3.4394e-06 2.84625e-05
-3.4394e-06 0.0001773 9.45171e-06
2.84625e-05 9.45171e-06 0.000181038
0.00133556 -1.23122e-05 -9.81707e-06
-1.23122e-05 0.000554012 -7.55638e-06
-9.81707e-06 -7.55638e-06 0.000533412
0.000750532 -1.60902e-05 1.13433e-05
-1.60902e-05 0.000168978 3.72197e-06
1.13433e-05 3.72197e-06 0.000171476
0.000739812 -2.94914e-05 1.36241e-06
-2.94914e-05 0.000158462 -3.28959e-06
1.36241e-06 -3.28959e-06 0.000158511
0.000580556 -1.96564e-05 5.88127e-07
-1.96564e-05 8.7687e-05 -2.95832e-06
5.88127e-07 -2.95832e-06 2.67427e-05
0.000330327 2.94666e-05 -7.47807e-07
2.94666e-05 -8.8827e-05 -5.30619e-06
-7.47807e-07 -5.30619e-06 -0.000113986
0.0003667 4.47672e-05 7.46912e-07
4.47672e-05 -5.46181e-05 4.11637e-07
7.46912e-07 4.11637e-07 -8.92216e-05
0.00262217 0.000110722 4.36523e-06
0.000110722 0.00139974 -5.93534e-06
4.36523e-06 -5.93534e-06 0.00139837
0.000359925 3.87522e-05 2.75504e-06
3.87522e-05 -5.41286e-05 9.34927e-06
2.75504e-06 9.34927e-06 -9.89236e-05
0.00304122 0.000156038 -4.81739e-06
0.000156038 0.00168623 -5.68832e-07
-4.81739e-06 -5.68832e-07 0.00167295
0.00389962 0.000117986 -7.02293e-05
0.000117986 0.00222911 8.64739e-06
-7.02293e-05 8.64739e-06 0.0022204
0.00236071 0.000437722 2.94875e-06
0.000437722 -2.16e-05 1.00747e-06
2.94875e-06 1.00747e-06 -9.36806e-06
0.0022461 0.000227867 2.73263e-06
0.000227867 -6.00791e-05 4.21985e-07
2.73263e-06 4.21985e-07 -7.73885e-06
0.00216497 7.47483e-05 1.62334e-06
7.47483e-05 -5.97724e-05 -2.27794e-07
1.62334e-06 -2.27794e-07 -3.14235e-06
0.00209602 -1.19083e-05 -3.23828e-06
-1.19083e-05 9.26257e-07 1.07776e-07
-3.23828e-06 1.07776e-07 1.58964e-05
0.00216326 -1.17877e-05 -7.00623e-07
-1.17877e-05 -5.86387e-05 1.92439e-08
-7.00623e-07 1.92439e-08 -2.25503e-06
0.00229976 0.000114877 5.16607e-07
0.000114877 -8.80523e-05 6.44709e-07
5.16607e-07 6.44709e-07 1.37718e-05
0.002434 0.000344938 -8.78126e-07
0.000344938 -6.97156e-05 -3.35783e-07
-8.78126e-07 -3.35783e-07 8.16305e-06
0.00227153 -1.2848e-05 -4.53499e-06
-1.2848e-05 -0.000116052 2.06645e-07
-4.53499e-06 2.06645e-07 1.18546e-06
0.00260654 0.000167536 -5.67689e-06
0.000167536 -5.63989e-05 -2.51365e-06
-5.67689e-06 -2.51365e-06 6.93079e-05
0.00240963 0.000136994 1.55995e-06
0.000136994 -0.000158589 6.1819e-06
1.55995e-06 6.1819e-06 -2.98176e-05
0.00218813 -0.000103783 9.46525e-07
-0.000103783 -3.34284e-05 3.68157e-07
9.46525e-07 3.68157e-07 1.10999e-05
0.00228808 -0.000303602 6.31298e-07
-0.000303602 -9.63427e-05 -9.12271e-07
6.31298e-07 -9.12271e-07 -2.21606e-05
0.00235549 -0.000490996 5.99565e-07
-0.000490996 -7.55273e-06 -8.33891e-07
5.99565e-07 -8.33891e-07 7.79003e-06
0.0014141 -0.000759316 1.94439e-06
-0.000759316 0.000352457 -1.57964e-06
1.94439e-06 -1.57964e-06 -0.000178015
0.00177693 -0.000950489 3.51163e-05
-0.000950489 0.000399787 -5.58656e-06
3.51163e-05 -5.58656e-06 -0.000177248
0.00248201 -0.000939321 1.48433e-05
-0.000939321 0.000582683 -4.99771e-06
1.48433e-05 -4.99771e-06 0.000124314
0.00238232 -0.000672144 3.20309e-06
-0.000672144 5.8646e-05 3.17749e-07
3.20309e-06 3.17749e-07 -1.57799e-05
0.00227645 -0.00080099 1.19233e-05
-0.00080099 0.000252599 -1.4007e-08
1.19233e-05 -1.4007e-08 -9.28701e-06
0.000796156 -0.000556644 2.19515e-06
-0.000556644 0.00013993 -2.12944e-05
2.19515e-06 -2.12944e-05 -0.000356301
0.00118368 -0.000474526 3.37194e-06
-0.000474526 0.000511963 -1.88165e-05
3.37194e-06 -1.88165e-05 -5.1073e-05
-0.000357665 -0.000147335 -4.04109e-06
-0.000147335 -0.000571347 8.27128e-06
-4.04109e-06 8.27128e-06 -0.000912745
0.000445993 1.47422e-05 2.12413e-06
1.47422e-05 2.584e-05 3.56771e-06
2.12413e-06 3.56771e-06 -5.96832e-05
0.000139548 -3.80587e-06 7.5073e-06
-3.80587e-06 -0.000117199 1.83141e-06
7.5073e-06 1.83141e-06 -0.000317578
0.00104551 -0.000261447 7.02948e-07
-0.000261447 0.000515745 7.93368e-06
7.02948e-07 7.93368e-06 0.000157301
0.00229067 -0.000146207 3.23301e-07
-0.000146207 -0.000103949 3.7038e-07
3.23301e-07 3.7038e-07 5.54861e-06
0.00045344 1.84978e-06 1.92367e-06
1.84978e-06 1.14821e-05 3.63668e-07
1.92367e-06 3.63668e-07 -5.60967e-05
0.000310512 -8.6652e-05 -3.79653e-06
-8.6652e-05 -4.4344e-05 -1.13096e-06
-3.79653e-06 -1.13096e-06 -0.000157072
0.00244415 -0.000415354 -3.70444e-07
-0.000415354 -0.000118747 -2.38249e-07
-3.70444e-07 -2.38249e-07 4.71173e-06
0.00240653 -0.000609803 -1.95e-06
-0.000609803 -2.47395e-05 6.72001e-07
-1.95e-06 6.72001e-07 -4.91895e-06
0.00206567 -0.000888041 1.46289e-06
-0.000888041 0.000763336 1.91747e-06
1.46289e-06 1.91747e-06 0.000199971
0.00232468 -0.00112275 9.96478e-06
-0.00112275 0.000653216 -1.1276e-06
9.96478e-06 -1.1276e-06 2.26561e-05
0.00237354 -0.00100977 2.10298e-06
-0.00100977 0.000420802 -3.56866e-06
2.10298e-06 -3.56866e-06 -9.87489e-06
0.00247436 -0.000844013 2.30396e-06
-0.000844013 0.000131233 -6.2896e-07
2.30396e-06 -6.2896e-07 -2.03718e-05
0.000589241 9.26521e-06 -1.61667e-06
9.26521e-06 0.000181817 -1.10798e-06
-1.61667e-06 -1.10798e-06 3.25088e-05
0.000792332 -9.32592e-05 1.21224e-06
-9.32592e-05 0.000336144 1.94155e-06
1.21224e-06 1.94155e-06 5.96704e-05
0.00143885 -0.000663952 1.148e-05
-0.000663952 0.000546302 1.1735e-05
1.148e-05 1.1735e-05 5.32724e-05
0.00146885 -0.000524613 2.13352e-05
-0.000524613 0.000750417 -1.1893e-05
2.13352e-05 -1.1893e-05 7.64112e-05
0.000806503 -0.000219324 -3.24474e-06
-0.000219324 0.000273492 -1.90418e-07
-3.24474e-06 -1.90418e-07 -0.000148217
-0.000167264 -0.000187072 2.00239e-06
-0.000187072 -0.000307213 -2.23425e-06
2.00239e-06 -2.23425e-06 -0.000634853
0.00230926 -0.00016986 -4.95865e-06
-0.00016986 -0.000289586 5.39975e-06
-4.95865e-06 5.39975e-06 -0.000130982
0.00248924 -0.000543948 1.06347e-06
-0.000543948 -0.000251864 2.68014e-06
1.06347e-06 2.68014e-06 3.0802e-07
0.00277577 -0.000868716 -6.16833e-06
-0.000868716 0.000127216 -3.3536e-06
-6.16833e-06 -3.3536e-06 8.56025e-05
0.00275456 -0.00109587 9.97859e-06
-0.00109587 0.000392306 -1.15959e-06
9.97859e-06 -1.15959e-06 9.79043e-05
0.000992383 -0.00081918 -4.3154e-07
-0.00081918 0.000210006 -7.98894e-06
-4.3154e-07 -7.98894e-06 -0.000359022
0.0036148 -0.00138659 -1.00682e-05
-0.00138659 0.00123875 5.34136e-06
-1.00682e-05 5.34136e-06 0.000574547
0.00020952 6.50975e-05 -3.96077e-06
6.50975e-05 -0.000109954 -7.21723e-06
-3.96077e-06 -7.21723e-06 -0.000226989
0.000390528 -5.56278e-05 6.22984e-06
-5.56278e-05 9.52776e-06 -2.22088e-06
6.22984e-06 -2.22088e-06 -9.35597e-05
0.00184125 -0.000228116 -8.3487e-06
-0.000228116 0.000894095 1.62853e-05
-8.3487e-06 1.62853e-05 0.000742492
0.000221136 2.57429e-05 -4.80884e-06
2.57429e-05 -7.99144e-05 1.38189e-06
-4.80884e-06 1.38189e-06 -0.000270238
0.00108754 -0.000198455 -9.10302e-06
-0.000198455 0.000517402 7.97034e-06
-9.10302e-06 7.97034e-06 0.000197904
0.000302739 -7.20241e-05 5.09824e-06
-7.20241e-05 -0.000103048 -2.36596e-05
5.09824e-06 -2.36596e-05 -0.000383153
-0.00225371 -0.000230567 -3.85106e-06
-0.000230567 -0.00111242 -6.20737e-07
-3.85106e-06 -6.20737e-07 -0.00205223
0.00102806 -0.000834981 -5.0059e-05
-0.000834981 0.000164123 2.85215e-05
-5.0059e-05 2.85215e-05 -0.000226635
0.000210485 0.000196923 -2.52212e-07
0.000196923 -8.58548e-06 -7.62897e-07
-2.52212e-07 -7.62897e-07 -0.000277304
0.00313236 0.000520233 -1.61776e-05
0.000520233 0.00181647 -7.33123e-06
-1.61776e-05 -7.33123e-06 0.00144891
0.00250964 0.000562519 -3.4308e-06
0.000562519 -0.000187362 -2.69406e-07
-3.4308e-06 -2.69406e-07 -8.23514e-05
0.00278064 0.000781854 -5.42208e-06
0.000781854 0.000371055 -1.12639e-06
-5.42208e-06 -1.12639e-06 0.000138356
0.00279596 0.000538883 -6.58607e-06
0.000538883 0.00117871 2.05621e-06
-6.58607e-06 2.05621e-06 0.000847486
0.00137187 0.000684361 -9.38287e-06
0.000684361 0.000328602 -5.89688e-07
-9.38287e-06 -5.89688e-07 -0.000164896
0.0021568 0.000846351 -5.70553e-06
0.000846351 0.000297783 2.73326e-06
-5.70553e-06 2.73326e-06 -0.000106928
0.00251421 0.00102005 -1.0078e-05
0.00102005 0.000776141 -8.74084e-07
-1.0078e-05 -8.74084e-07 0.000206305
4.18511e-05 0.000166565 2.05977e-06
0.000166565 -9.38354e-05 -3.16264e-07
2.05977e-06 -3.16264e-07 -0.000338576
0.00252068 0.000407673 -1.19248e-06
0.000407673 -0.000180305 -2.65978e-06
-1.19248e-06 -2.65978e-06 -4.84781e-05
0.00150165 0.000446682 3.22195e-06
0.000446682 0.000782854 5.82158e-06
3.22195e-06 5.82158e-06 0.000408302
0.00157789 0.000666639 3.19688e-06
0.000666639 0.000432483 1.93008e-06
3.19688e-06 1.93008e-06 -2.2264e-05
0.00274884 0.000732633 8.87777e-07
0.000732633 0.000162291 -3.51141e-07
8.87777e-07 -3.51141e-07 0.00015008
0.00193076 0.000884837 -2.34454e-06
0.000884837 3.92462e-05 -5.8251e-06
-2.34454e-06 -5.8251e-06 -0.000357102
0.0024447 0.00102558 -9.4088e-07
0.00102558 0.000708387 -1.93766e-07
-9.4088e-07 -1.93766e-07 0.000130885
0.00175341 0.000402287 -5.04011e-06
0.000402287 0.00108892 -2.34114e-06
-5.04011e-06 -2.34114e-06 0.000760023
0.00394128 0.000685223 -9.374e-05
0.000685223 0.000611605 -3.36049e-05
-9.374e-05 -3.36049e-05 0.000855347
0.000680186 0.000523639 -1.1393e-05
0.000523639 0.00021904 8.17052e-06
-1.1393e-05 8.17052e-06 -0.000202931
0.00146164 0.000744277 -7.27253e-06
0.000744277 0.000319274 -1.07411e-05
-7.27253e-06 -1.07411e-05 -0.000195805
0.00318953 0.00102863 -4.06537e-05
0.00102863 0.000588113 -2.40808e-05
-4.06537e-05 -2.40808e-05 0.000322389
0.00113484 0.000869032 -3.0123e-05
0.000869032 -5.27694e-05 -4.34156e-06
-3.0123e-05 -4.34156e-06 -0.000566652
0.00133969 0.00127542 1.74252e-05
0.00127542 -0.0019731 -5.19567e-05
1.74252e-05 -5.19567e-05 -0.00116193
0.00019067 0.000170167 7.40624e-06
0.000170167 -2.58919e-05 4.28385e-06
7.40624e-06 4.28385e-06 -0.000158679
0.000367911 0.000131798 3.06416e-06
0.000131798 0.000106799 1.65909e-06
3.06416e-06 1.65909e-06 7.13703e-06
0.000582294 0.000130823 1.84945e-06
0.000130823 0.000215937 -4.53823e-06
1.84945e-06 -4.53823e-06 0.000127674
0.00036997 -6.56091e-05 1.57387e-06
-6.56091e-05 1.36493e-05 -4.89743e-06
1.57387e-06 -4.89743e-06 -0.000123253
0.000262166 -1.54933e-05 -1.23354e-07
-1.54933e-05 -9.08767e-06 -2.91e-06
-1.23354e-07 -2.91e-06 -0.00018989
0.00153102 0.00026254 -2.24627e-07
0.00026254 0.000813695 1.8494e-07
-2.24627e-07 1.8494e-07 0.000603038
-0.000533801 5.43589e-05 -7.71238e-06
5.43589e-05 -0.00053491 2.14921e-05
-7.71238e-06 2.14921e-05 -0.000604147
0.000488793 -1.69189e-05 -1.17432e-07
-1.69189e-05 8.69735e-05 -2.71763e-07
-1.17432e-07 -2.71763e-07 -5.81499e-05
0.000407107 8.6284e-05 1.4701e-07
8.6284e-05 3.62929e-05 -6.61385e-07
1.4701e-07 -6.61385e-07 -0.000129764
0.000758138 0.000143664 4.24843e-06
0.000143664 0.00022113 3.7105e-06
4.24843e-06 3.7105e-06 0.000174301
0.000338941 8.15766e-05 1.23768e-06
8.15766e-05 3.33243e-05 8.79585e-07
1.23768e-06 8.79585e-07 -0.000148948
0.000588394 8.40453e-05 7.82272e-08
8.40453e-05 0.00014857 -1.98611e-06
7.82272e-08 -1.98611e-06 3.69292e-05
0.00101238 0.000146421 -2.93316e-06
0.000146421 0.000445605 -1.60179e-05
-2.93316e-06 -1.60179e-05 0.000369993
0.000828791 0.000158411 -2.89241e-06
0.000158411 0.00027055 -6.27456e-06
-2.89241e-06 -6.27456e-06 0.000121032
0.000988833 0.00015011 1.84131e-06
0.00015011 0.000434811 3.19918e-06
1.84131e-06 3.19918e-06 0.000242149
0.000880859 0.000127368 -1.02232e-06
0.000127368 0.000354158 6.29208e-07
-1.02232e-06 6.29208e-07 0.000161178
0.000212859 -2.54704e-05 -2.02857e-06
-2.54704e-05 -0.000115775 1.265e-06
-2.02857e-06 1.265e-06 -0.000252454
0.001361 -0.000124579 1.12772e-06
-0.000124579 0.000734871 -2.14407e-06
1.12772e-06 -2.14407e-06 0.000498565
7.30472e-05 -5.17975e-05 -3.87045e-07
-5.17975e-05 -0.000195263 3.35325e-06
-3.87045e-07 3.35325e-06 -0.000336466
0.000403241 2.48587e-06 -2.04504e-06
2.48587e-06 4.67619e-06 2.92749e-06
-2.04504e-06 2.92749e-06 -8.89254e-05
0.000428965 4.26767e-05 2.48945e-06
4.26767e-05 1.96092e-05 -9.95949e-08
2.48945e-06 -9.95949e-08 -7.31867e-05
0.000339371 2.07808e-05 -1.51745e-06
2.07808e-05 -6.59605e-05 4.88873e-06
-1.51745e-06 4.88873e-06 -9.37119e-05
0.000369292 1.05218e-06 -1.48449e-06
1.05218e-06 -1.72409e-05 -4.27443e-06
-1.48449e-06 -4.27443e-06 -0.000108692
0.000860481 1.7125e-05 -4.2443e-06
1.7125e-05 0.000263429 -1.51722e-06
-4.2443e-06 -1.51722e-06 0.00023843
0.00265992 1.83313e-06 2.64872e-05
1.83313e-06 0.00140236 5.88284e-06
2.64872e-05 5.88284e-06 0.0014146
0.00141347 4.36421e-05 -1.51641e-05
4.36421e-05 0.00061388 -7.75968e-06
-1.51641e-05 -7.75968e-06 0.000589994
0.000765724 -6.85567e-06 1.06628e-05
-6.85567e-06 0.000183422 3.67811e-06
1.06628e-05 3.67811e-06 0.000186209
0.000833972 -1.97771e-05 1.25929e-06
-1.97771e-05 0.000218401 -3.10101e-06
1.25929e-06 -3.10101e-06 0.000220149
0.000431467 1.12622e-05 -2.64646e-06
1.12622e-05 1.72545e-06 -3.93794e-06
-2.64646e-06 -3.93794e-06 -5.89977e-05
0.000526543 -3.8144e-05 5.36472e-07
-3.8144e-05 5.82984e-05 -3.36915e-07
5.36472e-07 -3.36915e-07 -5.7281e-06
0.000445086 2.33929e-05 -2.64361e-07
2.33929e-05 -2.30278e-05 -4.47378e-06
-2.64361e-07 -4.47378e-06 -4.25392e-05
0.000788962 4.67861e-05 6.9847e-09
4.67861e-05 0.000208 1.26014e-07
6.9847e-09 1.26014e-07 0.000183283
0.00242878 8.52359e-05 3.79127e-06
8.52359e-05 0.00126711 -5.42155e-06
3.79127e-06 -5.42155e-06 0.00127185
0.000469713 6.81221e-05 6.4883e-06
6.81221e-05 2.33349e-05 7.84814e-06
6.4883e-06 7.84814e-06 -1.83595e-05
0.00262548 0.000115864 -2.4691e-06
0.000115864 0.00140405 -2.42467e-07
-2.4691e-06 -2.42467e-07 0.00140134
0.00311973 0.000142117 2.62119e-06
0.000142117 0.00173063 8.19745e-06
2.62119e-06 8.19745e-06 0.00171982
0.00232786 0.000353617 2.87155e-06
0.000353617 -0.00012372 1.54709e-06
2.87155e-06 1.54709e-06 -4.48387e-05
0.00229202 0.00011045 6.29218e-06
0.00011045 -8.49114e-05 -4.50389e-07
6.29218e-06 -4.50389e-07 1.52357e-05
0.0021712 -7.42325e-06 1.27153e-06
-7.42325e-06 -5.68505e-05 -8.71139e-09
1.27153e-06 -8.71139e-09 3.12081e-06
0.00226167 -6.6839e-06 -4.67365e-11
-6.6839e-06 -0.000120466 -4.18765e-07
-4.67365e-11 -4.18765e-07 -3.15659e-06
0.00251192 0.000175426 1.09431e-06
0.000175426 -0.000102065 2.07547e-07
1.09431e-06 2.07547e-07 2.26933e-05
0.00262507 0.000120782 6.33707e-06
0.000120782 -1.86385e-05 -5.01543e-06
6.33707e-06 -5.01543e-06 9.60985e-05
0.00264143 1.64735e-05 -1.28717e-05
1.64735e-05 -0.000125564 -2.29552e-06
-1.28717e-05 -2.29552e-06 5.14019e-05
0.00517091 0.00128467 8.01708e-05
0.00128467 -0.000883424 9.64797e-06
8.01708e-05 9.64797e-06 0.000284069
0.00303995 0.000110674 -2.87376e-05
0.000110674 0.00036871 2.39431e-05
-2.87376e-05 2.39431e-05 0.00064297
0.000480377 0.00012193 -4.07139e-06
0.00012193 7.2237e-05 -3.35076e-06
-4.07139e-06 -3.35076e-06 -3.95461e-05
0.00228143 -0.000149079 4.37013e-06
-0.000149079 -0.000119908 -1.75898e-06
4.37013e-06 -1.75898e-06 -7.19984e-06
0.00242104 -0.00040429 2.33132e-06
-0.00040429 -0.000107331 -7.03221e-07
2.33132e-06 -7.03221e-07 1.80269e-07
0.0023945 -0.000598066 7.15901e-08
-0.000598066 -2.16815e-05 3.30337e-07
7.15901e-08 3.30337e-07 7.60944e-06
0.00177522 -0.000874571 -4.77798e-06
-0.000874571 0.000596371 7.17128e-06
-4.77798e-06 7.17128e-06 3.64094e-05
0.00233754 -0.00109745 3.52329e-05
-0.00109745 0.000680956 3.53736e-06
3.52329e-05 3.53736e-06 6.54338e-05
0.00198347 -0.000959407 1.03719e-06
-0.000959407 0.000201092 -1.89807e-06
1.03719e-06 -1.89807e-06 -0.00021184
0.00243343 -0.000843906 2.19397e-06
-0.000843906 0.000102612 -1.39261e-06
2.19397e-06 -1.39261e-06 -4.08974e-05
0.00137366 -0.000628555 2.6086e-05
-0.000628555 0.000416397 -4.96331e-05
2.6086e-05 -4.96331e-05 -2.75832e-06
0.00199803 -0.00061741 1.12243e-05
-0.00061741 0.000993561 -5.25991e-05
1.12243e-05 -5.25991e-05 0.000347883
0.00144926 -0.000233741 7.46913e-06
-0.000233741 0.000643384 1.1456e-05
7.46913e-06 1.1456e-05 0.000255769
0.00043803 7.49485e-06 3.32033e-06
7.49485e-06 3.52438e-06 3.17594e-06
3.32033e-06 3.17594e-06 -6.5603e-05
0.00137463 -0.000239628 3.13053e-06
-0.000239628 0.000679645 1.33433e-05
3.13053e-06 1.33433e-05 0.000330157
0.000988291 -3.81883e-05 7.6876e-06
-3.81883e-05 0.000459831 1.08684e-06
7.6876e-06 1.08684e-06 0.000297461
0.000445346 -7.78093e-05 3.8282e-06
-7.78093e-05 9.55558e-05 -6.30034e-07
3.8282e-06 -6.30034e-07 -0.000167697
-0.000174661 -2.99847e-05 -4.35473e-06
-2.99847e-05 -0.000370878 1.49188e-06
-4.35473e-06 1.49188e-06 -0.000472616
0.00242631 -0.000195106 5.02248e-08
-0.000195106 -0.000240621 9.14791e-07
5.02248e-08 9.14791e-07 -5.76643e-05
0.000351489 4.29843e-05 6.8911e-07
4.29843e-05 -4.77914e-06 -2.90283e-06
6.8911e-07 -2.90283e-06 -0.000128003
0.000599279 -7.97468e-05 3.32395e-06
-7.97468e-05 0.000171148 1.54915e-06
3.32395e-06 1.54915e-06 4.99381e-05
0.00106361 -0.000146264 6.50427e-06
-0.000146264 0.000393107 -1.0363e-06
6.50427e-06 -1.0363e-06 0.000266933
0.00248585 -0.000559397 2.1648e-06
-0.000559397 -0.000239287 -8.0184e-07
2.1648e-06 -8.0184e-07 -2.51017e-05
0.00266142 -0.000854719 -2.75357e-07
-0.000854719 6.63782e-05 5.10951e-07
-2.75357e-07 5.10951e-07 3.20859e-05
0.000714926 -0.000691551 6.5496e-06
-0.000691551 1.39142e-05 2.82766e-08
6.5496e-06 2.82766e-08 -0.000465357
0.00262512 -0.00125456 1.67922e-05
-0.00125456 0.000685171 1.45942e-06
1.67922e-05 1.45942e-06 5.94871e-05
0.0026187 -0.00109127 -4.24478e-08
-0.00109127 0.000328414 1.49123e-06
-4.24478e-08 1.49123e-06 2.52185e-05
0.000224318 -1.37862e-05 -4.5158e-07
-1.37862e-05 -8.00956e-05 1.19975e-07
-4.5158e-07 1.19975e-07 -0.000263734
0.00128055 -0.000200706 2.21009e-06
-0.000200706 0.000660674 3.92795e-06
2.21009e-06 3.92795e-06 0.000320461
0.00214891 -0.000997518 -1.31814e-06
-0.000997518 0.00081692 3.99851e-06
-1.31814e-06 3.99851e-06 0.000293519
0.00118203 -0.00037328 -4.62861e-07
-0.00037328 0.000682011 6.61692e-06
-4.62861e-07 6.61692e-06 -1.79088e-05
0.0014905 -0.00018629 3.69609e-06
-0.00018629 0.000669336 9.75674e-06
3.69609e-06 9.75674e-06 0.000365755
0.00284414 -0.000389925 -1.1905e-05
-0.000389925 -3.63468e-05 1.37137e-05
-1.1905e-05 1.37137e-05 0.000187393
0.00222602 -0.000628202 -1.12497e-05
-0.000628202 -0.000371369 6.03181e-06
-1.12497e-05 6.03181e-06 -7.86279e-05
0.00250821 -0.00100715 -1.41651e-05
-0.00100715 0.000127826 -4.50689e-06
-1.41651e-05 -4.50689e-06 -8.46243e-05
0.00456439 -0.00146857 3.95241e-06
-0.00146857 0.00158254 7.43788e-06
3.95241e-06 7.43788e-06 0.00111914
-0.000265726 -0.000787925 -1.15067e-05
-0.000787925 -0.000643986 1.50846e-05
-1.15067e-05 1.50846e-05 -0.00113132
-8.36586e-05 -2.77781e-05 -7.08931e-07
-2.77781e-05 -0.000282449 1.73986e-06
-7.08931e-07 1.73986e-06 -0.000404505
0.00107014 9.39213e-06 -3.4955e-06
9.39213e-06 0.000352436 1.41949e-05
-3.4955e-06 1.41949e-05 0.000220182
-0.000764141 -0.000209305 -1.04538e-05
-0.000209305 -0.000746329 -1.9868e-06
-1.04538e-05 -1.9868e-06 -0.000867984
0.00186272 -0.000311198 -3.94337e-05
-0.000311198 0.000967377 3.14591e-05
-3.94337e-05 3.14591e-05 0.000689031
0.000876466 -0.000161787 -5.91416e-06
-0.000161787 0.000372659 2.71105e-05
-5.91416e-06 2.71105e-05 7.471e-05
-0.00177798 -0.000102779 7.70067e-06
-0.000102779 -0.000704952 2.51077e-06
7.70067e-06 2.51077e-06 -0.00149749
0.00112482 -0.00105702 -1.01285e-05
-0.00105702 0.000558835 -9.81511e-06
-1.01285e-05 -9.81511e-06 -0.000202319
0.00187809 0.000445907 2.18786e-07
0.000445907 0.00106506 -3.2165e-06
2.18786e-07 -3.2165e-06 0.000774549
0.000234854 0.000260663 -2.98275e-06
0.000260663 2.17025e-05 -1.31972e-06
-2.98275e-06 -1.31972e-06 -0.000293765
0.00260638 0.000385948 1.05625e-05
0.000385948 -0.000133484 6.43877e-06
1.05625e-05 6.43877e-06 1.72199e-05
0.00285649 0.000717706 1.50225e-05
0.000717706 0.000248744 9.73888e-06
1.50225e-05 9.73888e-06 0.000236158
0.00245079 0.000947338 7.13358e-06
0.000947338 0.000341961 4.48123e-06
7.13358e-06 4.48123e-06 -6.33363e-05
0.00145654 0.000637641 -2.06731e-06
0.000637641 0.000397197 3.10009e-06
-2.06731e-06 3.10009e-06 -4.96088e-05
0.00174467 0.000914346 1.79825e-06
0.000914346 0.000331331 4.50785e-06
1.79825e-06 4.50785e-06 -0.000220049
0.00244201 0.000454572 5.08784e-08
0.000454572 0.00145294 3.23037e-07
5.08784e-08 3.23037e-07 0.00116513
0.00301136 0.000546353 1.11661e-05
0.000546353 0.000108868 4.59791e-06
1.11661e-05 4.59791e-06 0.000409489
0.00101047 0.000486048 -5.88606e-06
0.000486048 0.000391694 5.49354e-06
-5.88606e-06 5.49354e-06 1.34789e-05
0.00170187 0.000785512 3.11571e-06
0.000785512 0.000504803 -2.17493e-06
3.11571e-06 -2.17493e-06 -3.38365e-05
0.00278852 0.000970268 -2.26062e-06
0.000970268 0.000397805 -4.20559e-06
-2.26062e-06 -4.20559e-06 0.000168261
0.00201248 0.00098834 -5.85777e-06
0.00098834 0.000434342 6.60492e-06
-5.85777e-06 6.60492e-06 -0.000109274
0.00295359 0.0015928 4.98971e-05
0.0015928 -0.00143969 1.03909e-05
4.98971e-05 1.03909e-05 -0.000797698
0.0004407 0.000339059 1.64278e-06
0.000339059 0.000334909 1.14171e-06
1.64278e-06 1.14171e-06 -3.24009e-06
0.00376883 0.00108148 -0.000107606
0.00108148 0.00061465 -4.62871e-05
-0.000107606 -4.62871e-05 0.000607557
0.000201511 0.000465086 -1.67202e-05
0.000465086 -0.000306709 5.22996e-06
-1.67202e-05 5.22996e-06 -0.000701179
0.000140593 0.000652259 -6.75846e-06
0.000652259 -0.000437014 -2.09306e-05
-6.75846e-06 -2.09306e-05 -0.000929121
0.00180698 0.0011005 -4.70903e-05
0.0011005 6.098e-05 -2.12979e-05
-4.70903e-05 -2.12979e-05 -0.000309629
0.0156977 0.000715651 -0.000701409
0.000715651 0.00152295 -0.000105335
-0.000701409 -0.000105335 0.00165204
0.00271843 0.00239601 -9.93044e-05
0.00239601 -0.00357864 -9.09394e-05
-9.93044e-05 -9.09394e-05 -0.00106265
0.00152771 0.00194621 1.83526e-05
0.00194621 -0.000631589 -3.55846e-06
1.83526e-05 -3.55846e-06 -0.000827335
0.00478339 -0.00373544 0.00242461
-0.00373544 0.00274135 0.000324613
0.00242461 0.000324613 -0.00238122
0.02859 -0.012685 -4.51765e-05
-0.012685 0.0142334 6.96352e-05
-4.51765e-05 6.96352e-05 0.00730705
0.000817695 0.000176259 6.75742e-06
0.000176259 0.000402273 8.34339e-06
6.75742e-06 8.34339e-06 0.000287528
0.000945167 0.000148644 -2.38513e-06
0.000148644 0.000480624 -1.69413e-06
-2.38513e-06 -1.69413e-06 0.000372639
0.000863599 0.000221953 7.52424e-06
0.000221953 0.000446801 -3.41991e-06
7.52424e-06 -3.41991e-06 0.000300957
0.000507836 -6.1045e-05 6.77969e-07
-6.1045e-05 0.000110361 -2.86807e-06
6.77969e-07 -2.86807e-06 -4.13361e-05
0.000402747 7.48295e-05 -2.62578e-08
7.48295e-05 4.0012e-05 -3.85096e-06
-2.62578e-08 -3.85096e-06 -0.000125776
0.000601975 -1.31335e-05 -3.6716e-07
-1.31335e-05 0.00019826 -1.30742e-06
-3.6716e-07 -1.30742e-06 1.70572e-05
0.00109627 0.000114459 5.05895e-07
0.000114459 0.000453517 1.29339e-05
5.05895e-07 1.29339e-05 0.000335768
0.000282281 0.000114435 2.99556e-06
0.000114435 -7.53028e-05 1.35261e-05
2.99556e-06 1.35261e-05 -0.000113991
0.000797091 0.000173401 -1.14708e-06
0.000173401 0.000358024 7.05971e-08
-1.14708e-06 7.05971e-08 0.000139443
0.000394556 -2.17178e-05 2.76099e-07
-2.17178e-05 1.09894e-05 1.12359e-06
2.76099e-07 1.12359e-06 -0.000132959
0.000695394 7.07262e-05 -8.6857e-07
7.07262e-05 0.000229903 1.72768e-07
-8.6857e-07 1.72768e-07 4.38396e-05
0.000335239 0.000113376 -2.70165e-06
0.000113376 3.2838e-06 -3.7255e-06
-2.70165e-06 -3.7255e-06 -6.44171e-05
0.000729198 0.00013802 -1.44814e-06
0.00013802 0.000230506 -4.75395e-07
-1.44814e-06 -4.75395e-07 8.17465e-05
0.00233398 0.000294299 -1.15287e-06
0.000294299 0.00129208 -1.95644e-06
-1.15287e-06 -1.95644e-06 0.00107529
0.000141284 0.000101917 -1.03334e-06
0.000101917 -3.28098e-06 -8.82496e-06
-1.03334e-06 -8.82496e-06 -0.000197085
0.000894724 0.000105643 3.53272e-06
0.000105643 0.000402157 -9.77682e-07
3.53272e-06 -9.77682e-07 0.00020443
9.94179e-05 9.77472e-06 -6.71284e-07
9.77472e-06 -0.000179896 -1.10249e-06
-6.71284e-07 -1.10249e-06 -0.000354406
0.000292069 -7.41733e-05 -5.58343e-07
-7.41733e-05 -5.12754e-05 -2.43045e-07
-5.58343e-07 -2.43045e-07 -0.000194606
0.000330491 -2.14181e-05 -3.34186e-07
-2.14181e-05 -5.84175e-06 -3.1972e-06
-3.34186e-07 -3.1972e-06 -0.000177545
0.00134707 -6.76161e-05 2.24642e-06
-6.76161e-05 0.000633124 -1.09427e-05
2.24642e-06 -1.09427e-05 0.000461681
0.000966363 -7.72216e-05 -2.40721e-06
-7.72216e-05 0.000460015 -1.49454e-06
-2.40721e-06 -1.49454e-06 0.000267246
0.000786441 -9.78829e-05 2.16063e-06
-9.78829e-05 0.000320405 -7.83463e-07
2.16063e-06 -7.83463e-07 0.000122014
0.000571455 -0.000129891 -1.23718e-06
-0.000129891 0.000142744 5.04398e-06
-1.23718e-06 5.04398e-06 -8.82539e-06
0.0001503 -2.79641e-05 9.31176e-08
-2.79641e-05 -0.000138325 1.0832e-06
9.31176e-08 1.0832e-06 -0.000285404
0.000487684 -6.9354e-05 -1.29643e-06
-6.9354e-05 4.86908e-05 3.91343e-06
-1.29643e-06 3.91343e-06 -3.90057e-05
0.000482549 -4.69566e-05 2.11076e-06
-4.69566e-05 5.31501e-05 1.26877e-07
2.11076e-06 1.26877e-07 -3.94389e-05
0.000382779 5.47832e-07 3.93511e-06
5.47832e-07 -3.38586e-05 6.72425e-06
3.93511e-06 6.72425e-06 -6.35335e-05
0.000463191 6.19697e-05 -1.47721e-06
6.19697e-05 3.39013e-05 -3.40916e-06
-1.47721e-06 -3.40916e-06 -5.36272e-05
0.000364293 3.09945e-05 5.07749e-07
3.09945e-05 -4.88744e-05 1.09621e-07
5.07749e-07 1.09621e-07 -7.70821e-05
0.00258903 1.00994e-05 1.24372e-05
1.00994e-05 0.00135852 5.57206e-06
1.24372e-05 5.57206e-06 0.00137011
0.000405289 5.72695e-05 -4.70527e-06
5.72695e-05 -2.24512e-05 -8.0797e-06
-4.70527e-06 -8.0797e-06 -5.37852e-05
0.00169552 -1.81389e-06 -7.76085e-06
-1.81389e-06 0.000783156 1.58749e-07
-7.76085e-06 1.58749e-07 0.000789964
0.000808831 -9.16003e-06 8.24323e-07
-9.16003e-06 0.000206056 -2.50168e-06
8.24323e-07 -2.50168e-06 0.000208628
0.000379947 1.8511e-05 -1.08032e-06
1.8511e-05 -4.10209e-05 -3.0342e-06
-1.08032e-06 -3.0342e-06 -8.89918e-05
0.000486513 -4.27245e-05 4.16923e-07
-4.27245e-05 4.03519e-05 1.15864e-07
4.16923e-07 1.15864e-07 -2.24681e-05
0.000484263 9.01058e-06 1.18405e-06
9.01058e-06 -2.3373e-06 -4.08617e-06
1.18405e-06 -4.08617e-06 -1.70596e-05
0.000464221 -5.10215e-05 -6.1133e-07
-5.10215e-05 1.97283e-05 1.2978e-06
-6.1133e-07 1.2978e-06 -4.54484e-05
0.000802896 2.83574e-05 -5.3747e-08
2.83574e-05 0.000207433 -8.56273e-07
-5.3747e-08 -8.56273e-07 0.000190162
0.00214269 6.11858e-05 2.21745e-06
6.11858e-05 0.00107541 -5.17318e-06
2.21745e-06 -5.17318e-06 0.00108584
0.000429653 3.38734e-05 1.4703e-06
3.38734e-05 -2.57892e-05 5.56782e-06
1.4703e-06 5.56782e-06 -5.22541e-05
0.00255846 9.33912e-05 -3.5512e-06
9.33912e-05 0.00135431 1.42368e-06
-3.5512e-06 1.42368e-06 0.00135712
0.0027957 0.00012775 1.46135e-05
0.00012775 0.0015176 8.30986e-06
1.46135e-05 8.30986e-06 0.00151232
0.00244284 0.000186407 5.66847e-06
0.000186407 -0.000126577 3.84068e-07
5.66847e-06 3.84068e-07 -3.32858e-06
0.00224886 -2.3961e-06 4.77453e-06
-2.3961e-06 -0.000127605 -5.94672e-07
4.77453e-06 -5.94672e-07 -1.04215e-05
0.00241497 8.82296e-05 4.12125e-06
8.82296e-05 -0.000176059 7.38756e-06
4.12125e-06 7.38756e-06 -6.09311e-05
0.00271102 0.000985118 0.000121938
0.000985118 -0.00215647 3.14706e-05
0.000121938 3.14706e-05 -0.000891214
0.00257862 -1.94828e-05 -1.51921e-06
-1.94828e-05 -0.000143841 -1.53193e-06
-1.51921e-06 -1.53193e-06 3.09238e-05
0.00254948 9.33195e-05 -5.55106e-06
9.33195e-05 5.5287e-05 -6.66265e-06
-5.55106e-06 -6.66265e-06 0.00026982
0.00244133 -5.00887e-05 -4.06448e-05
-5.00887e-05 5.42158e-05 -1.97882e-06
-4.06448e-05 -1.97882e-06 0.000163031
0.00328769 0.000562939 -7.41391e-05
0.000562939 -0.00249073 -4.62228e-05
-7.41391e-05 -4.62228e-05 -0.000812072
0.00279074 0.000315704 0.000156557
0.000315704 -0.00115136 6.50063e-05
0.000156557 6.50063e-05 -0.000414976
0.000566817 9.49257e-05 3.04171e-09
9.49257e-05 0.000129256 -2.86339e-06
3.04171e-09 -2.86339e-06 2.06101e-05
0.000561707 -3.85999e-06 -2.88259e-07
-3.85999e-06 0.000138124 -1.4262e-07
-2.88259e-07 -1.4262e-07 1.74638e-05
0.000279896 -9.74677e-05 -7.43466e-06
-9.74677e-05 -3.85839e-05 1.55755e-06
-7.43466e-06 1.55755e-06 -0.00016661
0.000314292 -6.10181e-05 -4.17986e-06
-6.10181e-05 -7.221e-06 6.08473e-07
-4.17986e-06 6.08473e-07 -0.000137983
0.00250206 -0.000214419 1.66465e-06
-0.000214419 -0.000210809 -7.75726e-06
1.66465e-06 -7.75726e-06 -1.09844e-05
0.00245971 -0.000566375 -1.48658e-06
-0.000566375 -0.000226725 -1.38948e-06
-1.48658e-06 -1.38948e-06 -5.46081e-05
0.00253429 -0.000840763 7.35058e-07
-0.000840763 5.5045e-08 1.30964e-06
7.35058e-07 1.30964e-06 -3.2233e-05
0.00420556 -0.00110184 2.46541e-05
-0.00110184 0.0020057 2.1789e-06
2.46541e-05 2.1789e-06 0.00144492
0.00121363 -0.00111309 -8.45356e-06
-0.00111309 -0.000138001 9.80314e-07
-8.45356e-06 9.80314e-07 -0.000725371
0.00246593 -0.00108907 -1.65754e-06
-0.00108907 0.000252784 -4.84862e-06
-1.65754e-06 -4.84862e-06 -5.94401e-05
-0.000407131 -0.000700591 2.10939e-06
-0.000700591 -0.000594881 -2.12859e-05
2.10939e-06 -2.12859e-05 -0.00118595
0.00414284 -0.000522868 1.31773e-05
-0.000522868 0.00214655 -6.39143e-06
1.31773e-05 -6.39143e-06 0.00168711
-0.000257059 -9.30307e-05 -8.56066e-07
-9.30307e-05 -0.000430192 1.06206e-05
-8.56066e-07 1.06206e-05 -0.000718678
0.000673707 -7.46758e-05 4.52771e-06
-7.46758e-05 0.00021737 1.35029e-06
4.52771e-06 1.35029e-06 9.50252e-05
0.000507546 -0.000127316 -7.74745e-06
-0.000127316 0.000191287 -1.05681e-05
-7.74745e-06 -1.05681e-05 -0.00015236
0.00057134 -5.48174e-05 5.42162e-06
-5.48174e-05 0.000141637 1.63243e-06
5.42162e-06 1.63243e-06 -4.12462e-05
0.000539516 -2.3905e-06 1.04468e-06
-2.3905e-06 0.000139571 3.7709e-06
1.04468e-06 3.7709e-06 4.78083e-06
0.000525269 -7.25788e-05 -1.03186e-05
-7.25788e-05 4.21345e-05 5.52369e-06
-1.03186e-05 5.52369e-06 -6.2004e-05
0.00274136 -0.000364588 2.34463e-06
-0.000364588 -8.35705e-05 9.57938e-07
2.34463e-06 9.57938e-07 0.000154029
0.000385946 -3.91947e-05 -7.62481e-07
-3.91947e-05 3.64228e-05 3.56563e-06
-7.62481e-07 3.56563e-06 -0.000107705
0.000818191 -7.49742e-05 8.88738e-06
-7.49742e-05 0.000200933 -1.60315e-06
8.88738e-06 -1.60315e-06 7.08491e-05
-0.000925791 -7.9899e-05 1.12696e-05
-7.9899e-05 -0.00077222 -2.24398e-07
1.12696e-05 -2.24398e-07 -0.000854745
0.00223659 -0.000648739 3.68284e-07
-0.000648739 -0.000378697 -1.04028e-06
3.68284e-07 -1.04028e-06 -0.000118118
0.00248883 -0.00101401 2.67126e-06
-0.00101401 0.000111598 -1.30587e-06
2.67126e-06 -1.30587e-06 -0.000103545
0.00188677 -0.00111074 -1.35456e-05
-0.00111074 0.000550661 6.96779e-07
-1.35456e-05 6.96779e-07 -9.79218e-06
0.00312997 -0.00132407 -3.95756e-06
-0.00132407 0.000788453 -1.32855e-07
-3.95756e-06 -1.32855e-07 0.000344321
0.00168718 -0.000202001 1.08112e-05
-0.000202001 0.000877371 -6.35561e-06
1.08112e-05 -6.35561e-06 0.000583739
-0.000848416 -3.55678e-05 8.57324e-06
-3.55678e-05 -0.000708021 8.48643e-06
8.57324e-06 8.48643e-06 -0.00102174
0.00146262 -0.00121316 -5.63842e-07
-0.00121316 0.000846086 -1.13819e-06
-5.63842e-07 -1.13819e-06 -6.59496e-06
0.00184774 -0.000548862 -1.1333e-05
-0.000548862 0.000991316 -1.84431e-06
-1.1333e-05 -1.84431e-06 0.000406526
0.00382333 -0.000543341 -5.19364e-05
-0.000543341 0.00054117 1.99736e-05
-5.19364e-05 1.99736e-05 0.000852776
0.00282948 -0.000851674 -3.50417e-05
-0.000851674 0.000186825 1.39837e-05
-3.50417e-05 1.39837e-05 0.000262917
0.00282194 -0.00117275 -3.31868e-06
-0.00117275 0.000547453 -1.70244e-05
-3.31868e-06 -1.70244e-05 0.000131629
0.00273721 -0.00129812 1.794e-05
-0.00129812 0.000795071 3.87397e-05
1.794e-05 3.87397e-05 0.000374783
3.95454e-07 -0.000139348 -7.37891e-06
-0.000139348 -5.85469e-05 -1.12405e-05
-7.37891e-06 -1.12405e-05 -0.000230834
0.000586624 -0.000207609 -1.76155e-05
-0.000207609 0.000147384 -7.65697e-06
-1.76155e-05 -7.65697e-06 -0.000120366
0.000342006 -0.000252831 -1.21277e-05
-0.000252831 0.000327016 7.28996e-05
-1.21277e-05 7.28996e-05 -5.60285e-05
-1.71352e-05 -0.00101055 -3.58658e-06
-0.00101055 0.000687935 -4.41243e-05
-3.58658e-06 -4.41243e-05 -0.000499554
0.00470038 -0.000458117 8.12296e-05
-0.000458117 -0.00610809 -7.60618e-07
8.12296e-05 -7.60618e-07 -0.00630798
0.00235149 0.000358061 1.04551e-05
0.000358061 0.00138673 -4.16519e-06
1.04551e-05 -4.16519e-06 0.00110738
0.000725212 0.000398642 9.58132e-07
0.000398642 0.000207884 -2.82558e-06
9.58132e-07 -2.82558e-06 -0.000136536
0.00184122 0.000429622 5.59847e-05
0.000429622 -0.000576225 2.62946e-05
5.59847e-05 2.62946e-05 -0.000213119
0.0024687 0.000923256 2.70655e-05
0.000923256 0.000249774 1.3416e-05
2.70655e-05 1.3416e-05 5.26304e-05
0.0027795 0.0010901 1.42317e-05
0.0010901 0.000863431 1.50927e-05
1.42317e-05 1.50927e-05 0.000293494
0.0017607 0.00080344 1.47053e-05
0.00080344 0.000569619 1.18008e-05
1.47053e-05 1.18008e-05 1.43736e-05
0.005221 0.00201909 0.000102109
0.00201909 -0.000630562 3.55326e-05
0.000102109 3.55326e-05 -0.000204856
0.00101677 0.000341875 3.76768e-06
0.000341875 0.000636441 -3.37137e-06
3.76768e-06 -3.37137e-06 0.000329427
0.0030038 0.000978653 -1.27941e-05
0.000978653 0.000171907 2.85852e-06
-1.27941e-05 2.85852e-06 0.000244705
0.000993668 0.00056723 -7.49253e-06
0.00056723 0.000223837 5.89454e-06
-7.49253e-06 5.89454e-06 -0.000208353
0.00170738 0.000885957 1.24059e-06
0.000885957 0.000454919 -8.37564e-06
1.24059e-06 -8.37564e-06 -8.98766e-05
0.00269583 0.00117075 -1.29504e-05
0.00117075 0.000556937 -1.55503e-07
-1.29504e-05 -1.55503e-07 0.00015488
0.00540018 -0.000450258 -0.000206689
-0.000450258 -0.00602813 -0.000138139
-0.000206689 -0.000138139 -0.00641239
0.00680828 0.00262523 -0.000184308
0.00262523 -0.00123405 -7.78143e-05
-0.000184308 -7.78143e-05 0.000795395
0.0012576 0.00183923 -4.23108e-06
0.00183923 -0.000713107 1.95146e-06
-4.23108e-06 1.95146e-06 -0.00100405
0.00475771 -0.00333474 0.000777925
-0.00333474 0.00414278 0.000266433
0.000777925 0.000266433 0.000221945
0.022187 -0.0135226 -0.000605276
-0.0135226 0.0128729 -0.000535785
-0.000605276 -0.000535785 0.00569365
0.000156963 0.000267275 -1.13591e-05
0.000267275 -6.53893e-05 -2.93728e-06
-1.13591e-05 -2.93728e-06 -0.00032915
0.00243224 0.000314567 0.00122937
0.000314567 0.00487167 8.73185e-05
0.00122937 8.73185e-05 0.00263192
0.00710154 -0.00569428 -9.82091e-05
-0.00569428 0.0086018 -0.000205133
-9.82091e-05 -0.000205133 0.000720384
0.00371134 0.0015979 -8.24746e-05
0.0015979 0.000737774 -2.96256e-05
-8.24746e-05 -2.96256e-05 0.00043646
0.000535046 0.00048701 -3.35995e-05
0.00048701 -9.83328e-05 -7.73313e-06
-3.35995e-05 -7.73313e-06 -0.000478942
0.00138696 0.000903091 -4.70972e-05
0.000903091 0.000300013 -3.79353e-05
-4.70972e-05 -3.79353e-05 -0.000168783
-8.27655e-05 0.00175188 0.000124647
0.00175188 -0.00103636 0.000118409
0.000124647 0.000118409 -0.00137509
0.0144911 0.0036587 0.000141516
0.0036587 0.000581234 -6.03334e-06
0.000141516 -6.03334e-06 0.000961022
0.00630092 0.00397157 -8.68434e-05
0.00397157 -0.000574904 -8.92307e-05
-8.68434e-05 -8.92307e-05 0.00101755
0.0216425 -0.00804535 0.00135834
-0.00804535 0.00853823 0.000462774
0.00135834 0.000462774 0.00188307
0.0166942 -0.00332443 -0.000246156
-0.00332443 0.00690376 0.000728564
-0.000246156 0.000728564 0.00342936
0.000603184 0.000120026 1.69435e-06
0.000120026 0.000308847 4.06292e-06
1.69435e-06 4.06292e-06 0.000186597
0.000359303 0.000185471 5.51405e-06
0.000185471 0.000166725 6.30738e-07
5.51405e-06 6.30738e-07 1.51461e-05
0.00122264 0.000288109 3.58766e-06
0.000288109 0.000730596 -4.82458e-06
3.58766e-06 -4.82458e-06 0.000487454
0.000603068 -2.58423e-06 2.09266e-06
-2.58423e-06 0.000173339 1.08877e-06
2.09266e-06 1.08877e-06 9.75349e-06
0.000624836 7.84262e-05 9.52188e-07
7.84262e-05 0.000174518 -1.58687e-06
9.52188e-07 -1.58687e-06 -3.84885e-06
-0.000183297 3.52949e-05 -1.44005e-06
3.52949e-05 -0.000295915 2.285e-06
-1.44005e-06 2.285e-06 -0.000481118
0.000879467 0.00014412 -4.89563e-06
0.00014412 0.000351958 5.02192e-06
-4.89563e-06 5.02192e-06 0.000194781
-0.000215036 8.27633e-05 -3.68179e-06
8.27633e-05 -0.000363206 6.69649e-06
-3.68179e-06 6.69649e-06 -0.000421015
0.000332179 -1.17189e-05 -4.78897e-07
-1.17189e-05 -2.09496e-05 6.87444e-07
-4.78897e-07 6.87444e-07 -0.00016997
0.00150505 0.000186877 3.18754e-06
0.000186877 0.000743653 1.21995e-06
3.18754e-06 1.21995e-06 0.000544808
0.000415343 6.49514e-05 -7.02581e-07
6.49514e-05 0.000108019 -8.65686e-07
-7.02581e-07 -8.65686e-07 -9.9571e-05
0.00078681 4.37867e-05 1.63981e-06
4.37867e-05 0.000301553 1.27377e-08
1.63981e-06 1.27377e-08 9.84805e-05
-6.46877e-05 8.35451e-05 -9.75986e-07
8.35451e-05 -0.000128621 -3.60332e-06
-9.75986e-07 -3.60332e-06 -0.00032458
0.00163302 0.000172218 -1.81666e-06
0.000172218 0.000858091 -6.47247e-06
-1.81666e-06 -6.47247e-06 0.000675778
-0.000352249 8.00497e-05 -6.97621e-06
8.00497e-05 -0.000107473 -6.03679e-06
-6.97621e-06 -6.03679e-06 -0.000436774
0.00012351 -4.16672e-05 2.03653e-07
-4.16672e-05 -0.00010903 1.39959e-06
2.03653e-07 1.39959e-06 -0.000303554
0.000711545 -8.21695e-05 -3.46645e-06
-8.21695e-05 0.000261556 -1.8792e-06
-3.46645e-06 -1.8792e-06 6.41173e-05
0.00079896 -6.35972e-05 -4.44444e-07
-6.35972e-05 0.000322652 -1.3939e-06
-4.44444e-07 -1.3939e-06 0.000127761
0.000656999 -6.82503e-05 -4.73785e-06
-6.82503e-05 0.000184128 1.60759e-06
-4.73785e-06 1.60759e-06 3.1518e-05
0.00101744 2.17498e-05 -8.42629e-06
2.17498e-05 0.000513254 -6.82645e-06
-8.42629e-06 -6.82645e-06 0.00029867
0.000993886 -0.000144308 4.82053e-06
-0.000144308 0.000368901 -1.34585e-05
4.82053e-06 -1.34585e-05 0.000238416
-0.000715237 -2.33089e-05 -4.81612e-06
-2.33089e-05 -0.000639877 -8.09584e-06
-4.81612e-06 -8.09584e-06 -0.000774132
-0.000248073 -2.90471e-05 2.19097e-06
-2.90471e-05 -0.000255356 -5.19159e-06
2.19097e-06 -5.19159e-06 -0.000483453
0.000143525 -7.31512e-05 6.84303e-07
-7.31512e-05 -0.000108844 -3.53606e-07
6.84303e-07 -3.53606e-07 -0.000258686
0.000834744 -0.000142223 -1.15639e-06
-0.000142223 0.000351856 1.07501e-06
-1.15639e-06 1.07501e-06 0.000175182
0.000419702 -9.28169e-05 5.54808e-08
-9.28169e-05 2.37171e-05 4.68801e-06
5.54808e-08 4.68801e-06 -0.000114529
0.000374548 -0.000101431 4.04227e-06
-0.000101431 1.44249e-05 -1.62268e-07
4.04227e-06 -1.62268e-07 -0.000150278
0.000541812 -0.000130753 -5.94487e-09
-0.000130753 0.000121088 1.27921e-07
-5.94487e-09 1.27921e-07 -3.19005e-05
0.000502183 -6.83329e-05 -1.47473e-06
-6.83329e-05 5.69567e-05 5.66732e-06
-1.47473e-06 5.66732e-06 -3.36645e-05
0.000296562 1.07687e-06 1.0976e-07
1.07687e-06 -2.52406e-05 -3.89221e-07
1.0976e-07 -3.89221e-07 -0.000186557
0.000454105 5.08004e-08 2.55907e-06
5.08004e-08 3.63958e-05 1.25822e-07
2.55907e-06 1.25822e-07 -5.69235e-05
0.00142079 -4.11707e-05 -1.32532e-05
-4.11707e-05 0.000621051 7.23959e-06
-1.32532e-05 7.23959e-06 0.000597241
0.000433188 7.81415e-05 -2.51885e-06
7.81415e-05 2.23965e-05 -3.0061e-06
-2.51885e-06 -3.0061e-06 -6.92335e-05
0.000828001 -2.5687e-05 -5.25435e-06
-2.5687e-05 0.00025026 7.55861e-07
-5.25435e-06 7.55861e-07 0.000222855
0.000817428 1.60993e-06 -5.77053e-06
1.60993e-06 0.000223346 4.75561e-06
-5.77053e-06 4.75561e-06 0.000227172
0.000327283 -3.51499e-05 5.08951e-06
-3.51499e-05 -7.26488e-05 -5.31943e-06
5.08951e-06 -5.31943e-06 -0.000100331
0.00260723 4.49616e-06 1.08187e-05
4.49616e-06 0.00137064 2.16515e-08
1.08187e-05 2.16515e-08 0.00138209
0.000853761 5.91911e-06 -1.32812e-05
5.91911e-06 0.000246511 -5.59876e-06
-1.32812e-05 -5.59876e-06 0.00024891
0.000547218 7.95884e-05 2.16819e-06
7.95884e-05 0.000123696 -7.92354e-07
2.16819e-06 -7.92354e-07 6.56835e-06
0.000418425 6.20042e-05 -2.73152e-06
6.20042e-05 -2.50359e-06 -3.60916e-06
-2.73152e-06 -3.60916e-06 -5.73588e-05
0.000446392 2.05312e-06 1.40478e-06
2.05312e-06 1.59519e-05 2.62867e-07
1.40478e-06 2.62867e-07 -4.11674e-05
0.00043723 1.02925e-05 1.0598e-06
1.02925e-05 -3.14792e-05 -3.78115e-06
1.0598e-06 -3.78115e-06 -4.42444e-05
0.000537654 -7.55887e-05 -1.48752e-06
-7.55887e-05 8.44265e-05 3.4791e-06
-1.48752e-06 3.4791e-06 1.512e-05
0.000459481 1.12471e-05 2.09378e-07
1.12471e-05 -1.85324e-05 -7.53381e-07
2.09378e-07 -7.53381e-07 -3.32437e-05
0.00208139 4.24977e-05 1.24004e-06
4.24977e-05 0.00103088 -5.09092e-06
1.24004e-06 -5.09092e-06 0.00104453
0.00116851 4.14833e-05 1.12101e-06
4.14833e-05 0.000444148 2.59403e-06
1.12101e-06 2.59403e-06 0.000427297
0.00151636 5.17396e-05 -8.00247e-07
5.17396e-05 0.000674 1.6122e-06
-8.00247e-07 1.6122e-06 0.000679258
0.000808291 5.40964e-05 1.54512e-06
5.40964e-05 0.00022564 1.03476e-05
1.54512e-06 1.03476e-05 0.000221837
0.000930348 0.000723674 8.29912e-05
0.000723674 -0.00299062 2.80665e-05
8.29912e-05 2.80665e-05 -0.00170035
0.00252506 -4.994e-05 1.2357e-05
-4.994e-05 -0.000155247 4.37643e-06
1.2357e-05 4.37643e-06 1.36908e-05
0.00233316 8.54042e-05 4.5083e-05
8.54042e-05 -4.94177e-05 -1.16584e-05
4.5083e-05 -1.16584e-05 0.000113467
0.00362851 0.000680502 -8.3708e-05
0.000680502 -0.00256772 -4.62242e-05
-8.3708e-05 -4.62242e-05 -0.000257959
0.00320599 0.000118297 7.62555e-05
0.000118297 -0.000793584 -3.61453e-06
7.62555e-05 -3.61453e-06 -6.39722e-05
0.00291816 -5.99622e-05 -7.08788e-06
-5.99622e-05 0.000307245 -6.53399e-06
-7.08788e-06 -6.53399e-06 0.000449731
0.00517785 -0.000572681 -7.27631e-05
-0.000572681 0.000753032 -1.89311e-05
-7.27631e-05 -1.89311e-05 0.00128838
0.00470793 -0.000672123 4.90243e-05
-0.000672123 -0.000903741 -5.04756e-07
4.90243e-05 -5.04756e-07 0.000639763
0.0203012 -0.00113407 0.000102454
-0.00113407 0.00296277 -6.99989e-05
0.000102454 -6.99989e-05 0.00256179
0.0186617 0.008341 0.00205915
0.008341 0.00752464 -0.000445067
0.00205915 -0.000445067 0.00228085
0.028201 0.0096736 0.000138333
0.0096736 0.0182056 5.82402e-05
0.000138333 5.82402e-05 0.0119453
3.1156e-06 -0.000107389 7.72421e-07
-0.000107389 -0.000202334 -2.41401e-06
7.72421e-07 -2.41401e-06 -0.000327927
0.000520436 -6.4641e-06 2.11002e-06
-6.4641e-06 9.94393e-05 3.73129e-08
2.11002e-06 3.73129e-08 -8.95115e-06
0.00060167 -9.64338e-05 -7.22227e-07
-9.64338e-05 0.000172267 5.48953e-06
-7.22227e-07 5.48953e-06 4.42453e-05
0.000540769 -4.02794e-05 2.04982e-06
-4.02794e-05 0.000117313 -1.59083e-08
2.04982e-06 -1.59083e-08 -7.3552e-06
0.0011153 0.00015835 -7.13846e-06
0.00015835 0.000573183 -2.07367e-06
-7.13846e-06 -2.07367e-06 0.00041643
0.000633194 0.000156231 -1.16473e-06
0.000156231 0.000176312 5.07161e-06
-1.16473e-06 5.07161e-06 3.32104e-05
0.000879209 1.80296e-05 2.03804e-06
1.80296e-05 0.000361169 1.78599e-06
2.03804e-06 1.78599e-06 0.000203129
0.0005311 -2.34283e-05 -1.46723e-06
-2.34283e-05 0.000115476 1.28424e-06
-1.46723e-06 1.28424e-06 -1.50173e-05
0.00273165 -0.000356204 1.49168e-05
-0.000356204 -9.53123e-05 -1.40392e-05
1.49168e-05 -1.40392e-05 0.000167742
0.00228727 -0.000679579 1.01503e-05
-0.000679579 -0.000376598 -5.45514e-06
1.01503e-05 -5.45514e-06 -0.00014403
0.00270673 -0.00103454 6.64544e-06
-0.00103454 0.000231312 6.01561e-06
6.64544e-06 6.01561e-06 1.79762e-05
0.00300231 -0.00123534 8.92521e-06
-0.00123534 0.00112147 -5.02489e-06
8.92521e-06 -5.02489e-06 0.000562155
0.00261362 -0.00126446 -3.2262e-05
-0.00126446 0.000528057 -3.54755e-06
-3.2262e-05 -3.54755e-06 6.69156e-05
0.00104239 -0.00119669 2.624e-05
-0.00119669 0.000609353 1.13096e-05
2.624e-05 1.13096e-05 -0.00028423
0.00500931 -0.000900631 8.53777e-06
-0.000900631 0.00260892 6.43846e-06
8.53777e-06 6.43846e-06 0.00210932
0.00171209 -0.000397896 2.11386e-05
-0.000397896 0.000982677 -5.40471e-05
2.11386e-05 -5.40471e-05 0.000552117
0.000459712 -0.000124345 -7.11045e-07
-0.000124345 -4.78088e-05 6.11799e-06
-7.11045e-07 6.11799e-06 -0.000150838
0.00114483 -9.41532e-05 1.56998e-05
-9.41532e-05 0.000500294 -2.18662e-05
1.56998e-05 -2.18662e-05 0.000221808
0.000946033 -6.62944e-05 5.30517e-06
-6.62944e-05 0.000389953 3.98464e-06
5.30517e-06 3.98464e-06 0.000233076
0.000489998 -5.22455e-06 1.01819e-05
-5.22455e-06 0.000145413 -4.28922e-06
1.01819e-05 -4.28922e-06 0.000111461
0.00261904 -0.000479031 -3.61072e-07
-0.000479031 -0.000170263 3.35734e-06
-3.61072e-07 3.35734e-06 0.000225089
0.000319435 -0.000113806 -5.89747e-06
-0.000113806 0.000110007 -4.28995e-07
-5.89747e-06 -4.28995e-07 -5.34256e-05
0.00150269 -0.000267622 -7.69977e-06
-0.000267622 0.000721955 6.11913e-06
-7.69977e-06 6.11913e-06 0.000490216
0.00174949 -0.000766756 8.67867e-06
-0.000766756 -0.000438338 -4.69082e-06
8.67867e-06 -4.69082e-06 -0.000296994
0.00240992 -0.00107992 1.78242e-06
-0.00107992 0.000332798 5.62782e-06
1.78242e-06 5.62782e-06 -1.37508e-05
0.00130122 -0.00110577 -3.20732e-06
-0.00110577 -5.93968e-05 -1.62909e-05
-3.20732e-06 -1.62909e-05 -0.000416961
0.00152165 -0.00041837 -3.05352e-06
-0.00041837 0.000949491 -3.37334e-05
-3.05352e-06 -3.37334e-05 0.000460217
0.00118206 -0.000772022 1.25168e-05
-0.000772022 0.00116103 2.51483e-06
1.25168e-05 2.51483e-06 0.000197611
0.00618299 -0.00112246 -5.2193e-05
-0.00112246 0.00159623 3.6347e-05
-5.2193e-05 3.6347e-05 0.00187599
0.00334445 -0.00113938 -4.01959e-05
-0.00113938 0.00083189 1.47098e-05
-4.01959e-05 1.47098e-05 0.00057506
0.00270195 -0.00129384 1.10323e-05
-0.00129384 0.000616773 1.87625e-05
1.10323e-05 1.87625e-05 0.000242285
-8.64974e-05 -0.000706963 -7.7847e-06
-0.000706963 -0.000483193 2.80624e-05
-7.7847e-06 2.80624e-05 -0.000638666
0.000617552 -0.000187169 4.15754e-07
-0.000187169 0.000358071 3.71985e-06
4.15754e-07 3.71985e-06 7.53631e-05
0.000223525 -0.000200136 3.94117e-06
-0.000200136 0.00019642 2.92078e-06
3.94117e-06 2.92078e-06 -0.000157273
0.00115417 -0.000343672 -1.81113e-05
-0.000343672 0.00113515 -2.00867e-05
-1.81113e-05 -2.00867e-05 0.000328199
-0.00775236 -0.0005939 0.000856968
-0.0005939 -0.00338423 -4.48459e-05
0.000856968 -4.48459e-05 -0.00482478
0.0121766 -0.000482988 8.25878e-05
-0.000482988 -0.000371436 4.73078e-05
8.25878e-05 4.73078e-05 0.000529357
0.00276999 0.000442205 1.03102e-05
0.000442205 0.00162134 -1.035e-05
1.03102e-05 -1.035e-05 0.00135302
0.00208135 0.00070726 9.46813e-07
0.00070726 0.000935677 7.84329e-06
9.46813e-07 7.84329e-06 0.000455328
0.00182131 0.000802226 0.000108478
0.000802226 -0.000466094 5.29609e-05
0.000108478 5.29609e-05 -0.000324033
0.00370696 0.00126378 3.30762e-05
0.00126378 0.00111459 1.82197e-05
3.30762e-05 1.82197e-05 0.000676237
0.00306389 0.00108316 2.62204e-05
0.00108316 0.00122148 8.093e-06
2.62204e-05 8.093e-06 0.000635825
0.018057 0.000864033 0.000105093
0.000864033 0.00214828 -0.000103112
0.000105093 -0.000103112 0.00212403
0.00864085 0.00323635 -0.000280933
0.00323635 -0.00173828 -3.71891e-05
-0.000280933 -3.71891e-05 0.000820964
0.00195088 0.0018467 5.03629e-06
0.0018467 -0.000226663 -3.45347e-05
5.03629e-06 -3.45347e-05 -0.000652309
0.0170473 -0.00651545 -0.000798635
-0.00651545 0.00756186 5.11831e-05
-0.000798635 5.11831e-05 0.00269221
0.0138498 -0.0147363 -0.00317153
-0.0147363 0.011502 -0.00178952
-0.00317153 -0.00178952 0.00390368
0.000761943 0.000369241 5.71115e-06
0.000369241 0.000373612 -2.8289e-06
5.71115e-06 -2.8289e-06 6.37004e-05
-1.17078e-05 -0.00383839 0.000774366
-0.00383839 -0.00191058 9.44948e-05
0.000774366 9.44948e-05 -0.00542795
0.000413634 -0.00449173 -0.000806071
-0.00449173 0.00902437 -0.000185078
-0.000806071 -0.000185078 0.00144152
0.00396229 0.00151542 -1.91835e-05
0.00151542 0.000821933 2.41108e-06
-1.91835e-05 2.41108e-06 0.000577087
0.000889859 0.000590204 -1.12947e-05
0.000590204 0.000173406 8.83772e-06
-1.12947e-05 8.83772e-06 -0.000260992
0.00187735 0.00104993 4.65461e-06
0.00104993 0.000567444 1.55718e-06
4.65461e-06 1.55718e-06 3.76104e-05
0.00189558 0.0017654 7.18432e-05
0.0017654 0.00034392 4.99581e-05
7.18432e-05 4.99581e-05 2.11719e-05
0.0142412 0.00399897 -0.000168575
0.00399897 -0.000525425 -0.000122032
-0.000168575 -0.000122032 -0.00134397
0.00323387 0.00375297 -1.47992e-05
0.00375297 -0.00136509 -4.35758e-05
-1.47992e-05 -4.35758e-05 0.00036114
0.0222566 -0.00679251 0.000750549
-0.00679251 0.00992694 -3.80263e-05
0.000750549 -3.80263e-05 0.00334736
0.0223963 -0.00560721 -1.37831e-05
-0.00560721 0.00671659 0.00088035
-1.37831e-05 0.00088035 0.00196745
0.00149411 0.000449869 -1.70595e-05
0.000449869 0.0007571 -1.8447e-05
-1.70595e-05 -1.8447e-05 0.00047235
-0.00875449 0.00127792 -7.90807e-05
0.00127792 0.00526638 -0.000156447
-7.90807e-05 -0.000156447 -0.00298517
0.00669273 0.00157918 -0.000554742
0.00157918 0.00543839 -0.000599145
-0.000554742 -0.000599145 8.33337e-05
0.00279672 0.00113612 -4.52573e-05
0.00113612 0.000666989 -2.1902e-05
-4.52573e-05 -2.1902e-05 0.000550654
0.00305801 0.00111406 -9.01221e-05
0.00111406 0.00137108 -3.41893e-05
-9.01221e-05 -3.41893e-05 0.000864406
0.00231002 0.00137216 -0.000101769
0.00137216 0.00140817 -3.39346e-05
-0.000101769 -3.39346e-05 0.000595263
-0.00329069 0.00248409 4.90522e-05
0.00248409 -0.00116096 -2.9037e-05
4.90522e-05 -2.9037e-05 -0.00120577
0.00419274 0.00562146 0.000710824
0.00562146 -0.00191257 0.000109719
0.000710824 0.000109719 -0.0032207
0.0241555 -0.00856934 -8.67626e-05
-0.00856934 0.0134695 0.000907352
-8.67626e-05 0.000907352 0.00609037
0.00931084 0.000192696 -0.000209614
0.000192696 -0.00180314 -0.000205726
-0.000209614 -0.000205726 -0.0014585
-1.98478e-05 0.000189639 -1.37836e-06
0.000189639 -3.18736e-05 -1.54893e-06
-1.37836e-06 -1.54893e-06 -0.000207149
0.00185918 0.000382583 8.33964e-06
0.000382583 0.00109866 2.25229e-06
8.33964e-06 2.25229e-06 0.000840107
-0.000576231 0.00012884 -6.85987e-06
0.00012884 -0.000332479 3.11589e-06
-6.85987e-06 3.11589e-06 -0.00054439
0.000346653 5.5849e-05 2.43745e-06
5.5849e-05 -1.33464e-05 2.26368e-06
2.43745e-06 2.26368e-06 -0.000163107
0.001104 8.70085e-05 4.67017e-07
8.70085e-05 0.000519438 -3.74584e-07
4.67017e-07 -3.74584e-07 0.000308194
0.000528356 3.74441e-05 -2.58131e-06
3.74441e-05 0.000184372 2.60771e-06
-2.58131e-06 2.60771e-06 -3.60148e-05
0.000270258 0.000112079 7.44794e-06
0.000112079 -6.85206e-06 9.24867e-06
7.44794e-06 9.24867e-06 -0.00021771
-0.000853268 2.34538e-05 -5.21363e-06
2.34538e-05 -0.000603963 4.01474e-06
-5.21363e-06 4.01474e-06 -0.000794777
0.000770689 3.65306e-05 3.65478e-07
3.65306e-05 0.000304128 -6.885e-07
3.65478e-07 -6.885e-07 0.000102952
0.000675837 0.000100744 3.74897e-07
0.000100744 0.000250292 -6.33652e-08
3.74897e-07 -6.33652e-08 7.51642e-05
0.000856543 -4.09657e-05 -1.24949e-06
-4.09657e-05 0.000380911 2.40366e-06
-1.24949e-06 2.40366e-06 0.00016335
-0.00114234 4.86696e-05 1.54504e-06
4.86696e-05 -0.000569658 1.28503e-06
1.54504e-06 1.28503e-06 -0.000898306
0.00126969 0.000100546 -3.6477e-07
0.000100546 0.000977634 6.75991e-06
-3.6477e-07 6.75991e-06 0.000588992
0.000823855 -1.20262e-05 2.20334e-08
-1.20262e-05 0.000484124 -6.86392e-06
2.20334e-08 -6.86392e-06 0.000229797
0.00164836 -1.78117e-05 -3.01755e-06
-1.78117e-05 0.000939044 3.45571e-06
-3.01755e-06 3.45571e-06 0.000683414
0.000869948 -9.55261e-05 -5.36997e-07
-9.55261e-05 0.000370393 -7.34612e-07
-5.36997e-07 -7.34612e-07 0.000169216
0.00010367 -0.000118156 3.75457e-06
-0.000118156 -0.000177145 1.33618e-05
3.75457e-06 1.33618e-05 -0.000316403
0.000591539 -9.35759e-05 6.19876e-07
-9.35759e-05 0.000215839 -4.91271e-07
6.19876e-07 -4.91271e-07 1.72032e-05
0.000745163 -0.00012624 -2.86634e-06
-0.00012624 0.000200462 -1.36416e-06
-2.86634e-06 -1.36416e-06 6.92892e-05
-0.000341761 -6.91221e-05 1.04006e-06
-6.91221e-05 -0.000396704 6.13923e-06
1.04006e-06 6.13923e-06 -0.000518666
-0.00040808 -4.71283e-05 5.43927e-07
-4.71283e-05 -0.000404129 -8.46971e-06
5.43927e-07 -8.46971e-06 -0.000580256
4.58163e-06 -4.84879e-05 -8.14483e-06
-4.84879e-05 -5.22037e-05 -2.11038e-06
-8.14483e-06 -2.11038e-06 -0.000267645
0.000253314 -0.000132555 1.99009e-06
-0.000132555 -1.2398e-05 -1.0973e-05
1.99009e-06 -1.0973e-05 -0.000141325
0.00118529 -0.000148549 2.46411e-05
-0.000148549 0.000450931 -1.79052e-05
2.46411e-05 -1.79052e-05 0.00033022
0.00238027 -0.000440193 -1.15142e-06
-0.000440193 0.00112673 2.89093e-06
-1.15142e-06 2.89093e-06 0.000881073
-0.000464863 -9.63756e-05 -4.15924e-06
-9.63756e-05 -0.000437661 -2.52376e-06
-4.15924e-06 -2.52376e-06 -0.000645121
0.00052219 -4.96041e-05 2.47052e-06
-4.96041e-05 0.000207648 -6.11242e-07
2.47052e-06 -6.11242e-07 -9.16802e-06
-0.000726278 -1.33245e-05 4.95146e-06
-1.33245e-05 -0.000607783 -9.95621e-07
4.95146e-06 -9.95621e-07 -0.000833297
0.000676894 -0.000176693 -1.65839e-06
-0.000176693 0.000251979 -9.36883e-07
-1.65839e-06 -9.36883e-07 7.41995e-05
0.00042628 -4.89219e-05 1.73797e-06
-4.89219e-05 2.6243e-05 9.32216e-07
1.73797e-06 9.32216e-07 -0.00011948
0.00060914 -0.000166214 1.43168e-06
-0.000166214 0.000190739 4.41939e-08
1.43168e-06 4.41939e-08 2.84267e-05
0.000588881 -9.8934e-05 -6.05241e-07
-9.8934e-05 0.000151035 9.98403e-08
-6.05241e-07 9.98403e-08 1.18491e-07
0.000338718 3.33176e-05 1.09904e-06
3.33176e-05 -4.92198e-05 5.61243e-06
1.09904e-06 5.61243e-06 -0.000144516
0.000597358 -0.000129925 -3.64942e-08
-0.000129925 0.000148338 -3.05792e-06
-3.64942e-08 -3.05792e-06 -2.93287e-06
0.000503108 -5.3414e-05 -6.17552e-07
-5.3414e-05 5.13037e-05 1.83807e-07
-6.17552e-07 1.83807e-07 -3.55543e-05
0.00139918 2.55834e-05 -8.38893e-06
2.55834e-05 0.00059865 7.91468e-06
-8.38893e-06 7.91468e-06 0.000575041
0.000478052 -7.60258e-05 7.54173e-07
-7.60258e-05 4.50196e-05 -3.46665e-06
7.54173e-07 -3.46665e-06 -4.43884e-05
0.000847056 -2.69604e-05 -1.00334e-05
-2.69604e-05 0.00025428 8.92643e-07
-1.00334e-05 8.92643e-07 0.000227564
0.000738823 1.06536e-05 1.71759e-06
1.06536e-05 0.000162495 2.23849e-06
1.71759e-06 2.23849e-06 0.000165629
0.000403907 -3.34794e-05 3.72775e-06
-3.34794e-05 -2.82479e-05 -4.8744e-06
3.72775e-06 -4.8744e-06 -5.46555e-05
0.00255779 8.39141e-06 7.07112e-06
8.39141e-06 0.00133724 -5.08712e-10
7.07112e-06 -5.08712e-10 0.00134952
0.00259015 -1.77058e-06 6.80167e-06
-1.77058e-06 0.00135943 -5.07294e-06
6.80167e-06 -5.07294e-06 0.00137097
0.00104324 8.10394e-05 -9.19943e-07
8.10394e-05 0.000440464 -7.06316e-07
-9.19943e-07 -7.06316e-07 0.000317713
0.000496055 7.22257e-05 -1.94099e-06
7.22257e-05 5.16711e-05 -3.92722e-06
-1.94099e-06 -3.92722e-06 -9.75638e-06
0.000523235 -1.86413e-05 -7.63808e-07
-1.86413e-05 0.000109821 8.61028e-07
-7.63808e-07 8.61028e-07 -6.45683e-06
0.000428763 1.04515e-05 1.2141e-06
1.04515e-05 -3.7415e-05 -4.00054e-06
1.2141e-06 -4.00054e-06 -4.91144e-05
0.000410764 -8.80606e-06 1.6594e-06
-8.80606e-06 -9.81587e-06 -2.30551e-07
1.6594e-06 -2.30551e-07 -6.30626e-05
0.000481352 -6.64445e-05 -2.01818e-06
-6.64445e-05 4.37765e-05 3.65117e-06
-2.01818e-06 3.65117e-06 -1.65985e-05
0.000443548 6.35075e-06 -6.44961e-07
6.35075e-06 -2.79057e-05 1.53843e-08
-6.44961e-07 1.53843e-08 -4.06314e-05
0.00203729 2.73914e-05 -4.08633e-06
2.73914e-05 0.000999639 -5.11133e-06
-4.08633e-06 -5.11133e-06 0.00101518
0.00118416 2.34139e-05 -6.62468e-07
2.34139e-05 0.000449389 2.75363e-06
-6.62468e-07 2.75363e-06 0.000437507
0.0013296 3.28887e-05 -3.2443e-06
3.28887e-05 0.000545868 3.05973e-08
-3.2443e-06 3.05973e-08 0.000555903
0.000755037 3.87289e-05 -3.97442e-06
3.87289e-05 0.000183064 8.50557e-06
-3.97442e-06 8.50557e-06 0.00018547
-0.00701449 0.00226266 0.000868787
0.00226266 -0.00213269 -0.000106627
0.000868787 -0.000106627 -0.0063892
0.0017663 0.00162964 0.0019405
0.00162964 0.00912931 -0.000378319
0.0019405 -0.000378319 0.00345859
0.00223217 0.000698843 -0.000161232
0.000698843 -0.00313359 -3.86692e-05
-0.000161232 -3.86692e-05 -0.000573638
0.00242885 -5.01735e-05 1.78093e-05
-5.01735e-05 -0.001211 -3.28637e-05
1.78093e-05 -3.28637e-05 -0.000396387
0.00228888 -8.23276e-05 4.86168e-05
-8.23276e-05 -0.000160814 1.57229e-05
4.86168e-05 1.57229e-05 3.84946e-06
-0.00138209 -9.64603e-05 -0.00013111
-9.64603e-05 -0.00264713 -3.65724e-05
-0.00013111 -3.65724e-05 -0.00079691
0.00405997 -0.000611142 2.06851e-06
-0.000611142 1.82095e-05 4.01419e-06
2.06851e-06 4.01419e-06 0.000468629
0.0124005 -0.000338954 0.00026549
-0.000338954 -0.00243228 -0.000114768
0.00026549 -0.000114768 -0.00260371
0.00489888 0.00554421 -6.01279e-06
0.00554421 0.00186828 -8.52677e-05
-6.01279e-06 -8.52677e-05 -0.00280081
0.02297 0.0117521 -0.000770114
0.0117521 0.0152115 0.000309166
-0.000770114 0.000309166 0.00852726
0.00200732 -0.001277 1.28228e-05
-0.001277 -0.00335266 -3.15459e-05
1.28228e-05 -3.15459e-05 -0.00122812
0.0156335 -0.00374891 0.00027713
-0.00374891 0.000510293 -7.13073e-05
0.00027713 -7.13073e-05 -0.000332928
0.0242628 0.00769809 0.000487599
0.00769809 0.00888829 -0.000518837
0.000487599 -0.000518837 0.00215598
0.0270287 0.00571011 -0.000363124
0.00571011 0.00988695 0.000354765
-0.000363124 0.000354765 0.00556316
0.00116899 0.000182955 -5.88416e-06
0.000182955 0.000612028 1.087e-07
-5.88416e-06 1.087e-07 0.000401358
0.00031322 4.04196e-05 9.0023e-07
4.04196e-05 -2.88489e-05 -7.94726e-07
9.0023e-07 -7.94726e-07 -0.000144078
0.000518531 -0.000102345 3.27446e-06
-0.000102345 0.000111399 3.31135e-06
3.27446e-06 3.31135e-06 -3.57477e-06
0.000740285 -2.97261e-06 7.44667e-06
-2.97261e-06 0.000254716 1.94661e-07
7.44667e-06 1.94661e-07 0.000123957
0.000756021 8.21679e-05 3.68043e-06
8.21679e-05 0.000336852 1.95666e-07
3.68043e-06 1.95666e-07 0.000203179
0.000571106 6.8104e-05 -8.99617e-07
6.8104e-05 0.000168466 6.90067e-06
-8.99617e-07 6.90067e-06 -1.85418e-05
0.000658369 8.54548e-05 -7.3462e-07
8.54548e-05 0.000217303 3.01747e-06
-7.3462e-07 3.01747e-06 6.83693e-05
0.000422214 9.88741e-05 4.14893e-06
9.88741e-05 2.03008e-05 3.36039e-06
4.14893e-06 3.36039e-06 -0.000137162
0.000609784 -5.74541e-06 1.89276e-06
-5.74541e-06 0.000186226 -1.19029e-06
1.89276e-06 -1.19029e-06 2.99798e-05
0.000389668 -2.88207e-05 3.11241e-06
-2.88207e-05 1.66281e-05 -7.24022e-07
3.11241e-06 -7.24022e-07 -0.000102173
0.00110812 -0.000384549 3.95409e-05
-0.000384549 -0.0010634 -1.98992e-05
3.95409e-05 -1.98992e-05 -0.000570841
0.00108873 -0.000705583 2.15115e-05
-0.000705583 -0.000791675 -9.08274e-06
2.15115e-05 -9.08274e-06 -0.000613649
0.00099674 -0.00088072 7.29211e-06
-0.00088072 -0.000446167 4.68998e-06
7.29211e-06 4.68998e-06 -0.000692416
-0.00075813 -0.000808373 -1.8594e-05
-0.000808373 -0.00119482 -1.33228e-05
-1.8594e-05 -1.33228e-05 -0.0014864
0.00271918 -0.000678172 9.1247e-06
-0.000678172 0.00185807 5.24088e-05
9.1247e-06 5.24088e-05 0.00107576
-0.000664385 -0.000694835 -7.41024e-06
-0.000694835 -0.00033732 -1.39546e-05
-7.41024e-06 -1.39546e-05 -0.0010211
0.0013615 -0.000326292 1.21912e-05
-0.000326292 0.000659675 -4.24724e-06
1.21912e-05 -4.24724e-06 0.000463082
0.000207928 -6.04147e-05 3.97651e-06
-6.04147e-05 7.97408e-06 4.95026e-06
3.97651e-06 4.95026e-06 -0.000139815
0.0027316 -0.000802151 1.52605e-05
-0.000802151 -0.000361342 -1.01807e-05
1.52605e-05 -1.01807e-05 0.000101712
0.0005198 -0.000108273 5.05705e-07
-0.000108273 0.000284158 2.54e-06
5.05705e-07 2.54e-06 -9.45171e-07
-0.000160012 -0.000241819 -5.33049e-06
-0.000241819 -3.78087e-05 -4.5335e-06
-5.33049e-06 -4.5335e-06 -0.000389001
0.00197313 -0.00096536 1.92804e-05
-0.00096536 6.10855e-05 -1.55885e-06
1.92804e-05 -1.55885e-06 -7.26246e-05
0.00183416 -0.00116569 -1.97564e-06
-0.00116569 7.95739e-05 -3.42395e-06
-1.97564e-06 -3.42395e-06 -0.000179554
2.00191e-05 -0.000799886 1.46317e-05
-0.000799886 -0.00037705 -1.90952e-05
1.46317e-05 -1.90952e-05 -0.000632938
0.000867907 -0.000441468 1.68967e-05
-0.000441468 0.000943802 -2.46052e-05
1.68967e-05 -2.46052e-05 0.000168478
0.00173875 -0.00122537 -5.22218e-05
-0.00122537 -0.000409995 4.65331e-05
-5.22218e-05 4.65331e-05 -0.000542828
0.00199055 -0.00104096 -3.71593e-05
-0.00104096 0.000316437 2.49633e-05
-3.71593e-05 2.49633e-05 0.000238457
-0.00100771 -0.000554252 -3.97863e-05
-0.000554252 -0.000472701 3.62017e-05
-3.97863e-05 3.62017e-05 -0.000891797
-0.00158661 -0.000142586 -1.00682e-05
-0.000142586 -0.00107383 1.10946e-05
-1.00682e-05 1.10946e-05 -0.00133928
-0.00122366 -4.60851e-06 -2.19186e-06
-4.60851e-06 -0.000718122 1.28858e-05
-2.19186e-06 1.28858e-05 -0.00104098
0.000878419 -8.19307e-05 1.79202e-06
-8.19307e-05 0.000617164 -1.08374e-05
1.79202e-06 -1.08374e-05 0.000219168
-0.00289286 0.00152369 -0.000589027
0.00152369 0.00805051 2.54572e-05
-0.000589027 2.54572e-05 0.0016779
-0.000235792 -0.00214104 -2.4311e-05
-0.00214104 0.00350059 -2.41634e-05
-2.4311e-05 -2.41634e-05 0.00169637
0.00488513 0.000873643 -0.000176293
0.000873643 -0.00644123 -3.86726e-05
-0.000176293 -3.86726e-05 -0.0065061
0.00111762 0.000426983 1.75835e-05
0.000426983 0.000653228 -5.75723e-06
1.75835e-05 -5.75723e-06 0.000314545
0.00180197 0.000775865 1.91248e-05
0.000775865 0.000762227 2.70067e-05
1.91248e-05 2.70067e-05 0.000252033
0.00329922 0.00131948 8.52717e-05
0.00131948 0.000435001 3.80097e-05
8.52717e-05 3.80097e-05 0.000265326
0.00156415 0.00109771 2.23131e-05
0.00109771 0.000439064 2.91687e-05
2.23131e-05 2.91687e-05 -0.000141925
0.0150793 -0.00455716 0.000330721
-0.00455716 0.00678792 9.82302e-05
0.000330721 9.82302e-05 0.00341846
0.00357859 0.0026499 -0.000497731
0.0026499 -0.00628739 -0.000126794
-0.000497731 -0.000126794 -0.00704089
0.00599323 0.00381487 4.95636e-05
0.00381487 0.000513589 3.07169e-05
4.95636e-05 3.07169e-05 0.00156765
0.00299187 0.00165249 8.27855e-05
0.00165249 0.00124499 6.73174e-06
8.27855e-05 6.73174e-06 0.000939119
0.0140958 -0.00389702 -0.000691594
-0.00389702 0.00602781 -0.000305097
-0.000691594 -0.000305097 0.000193955
0.00211892 -0.00583676 -0.00119948
-0.00583676 0.00994154 -0.000285384
-0.00119948 -0.000285384 0.00234215
0.0328057 -0.00796917 0.00112273
-0.00796917 0.0106534 0.000473867
0.00112273 0.000473867 0.00511463
0.000158983 0.000330778 1.54201e-05
0.000330778 -1.55374e-05 -5.55142e-06
1.54201e-05 -5.55142e-06 -0.000295268
-0.0031022 0.000272143 -0.000194712
0.000272143 0.00753388 -2.73087e-05
-0.000194712 -2.73087e-05 0.000332938
0.00731408 0.00209338 -0.000226831
0.00209338 0.00417903 -0.000200939
-0.000226831 -0.000200939 -0.00191082
0.00189737 0.00115787 1.0424e-05
0.00115787 0.000308788 3.2463e-06
1.0424e-05 3.2463e-06 0.000110669
0.000919163 0.000858976 1.80723e-05
0.000858976 0.000333764 7.70238e-06
1.80723e-05 7.70238e-06 -0.000178007
0.00116759 0.00141146 -9.84806e-05
0.00141146 0.000717989 -8.1316e-05
-9.84806e-05 -8.1316e-05 5.81006e-05
0.00371107 0.00433824 6.22238e-05
0.00433824 0.000873719 4.99205e-05
6.22238e-05 4.99205e-05 0.00102255
0.014126 0.00656151 -8.44141e-06
0.00656151 0.00149383 1.10118e-06
-8.44141e-06 1.10118e-06 -0.000642592
0.0109936 -0.00466708 0.000107193
-0.00466708 0.0075079 -0.000139063
0.000107193 -0.000139063 -0.000137404
0.0178527 -0.00216691 -3.78952e-05
-0.00216691 0.00267438 -6.76743e-05
-3.78952e-05 -6.76743e-05 0.00317388
0.0012488 0.000734894 -1.89082e-05
0.000734894 0.000597776 -8.80579e-06
-1.89082e-05 -8.80579e-06 0.000191155
0.00150185 0.000375665 -0.000496756
0.000375665 0.00308159 -0.000135527
-0.000496756 -0.000135527 -0.00316617
0.00197934 0.00139262 -0.000178143
0.00139262 0.000194921 -0.000198017
-0.000178143 -0.000198017 -0.00186281
-0.0008761 0.000454024 -5.54846e-06
0.000454024 -0.000162309 -2.57307e-05
-5.54846e-06 -2.57307e-05 -0.000523006
-0.00185942 0.000979858 -0.000182327
0.000979858 0.000740949 -5.90326e-07
-0.000182327 -5.90326e-07 -2.12497e-05
0.00967617 0.00654765 0.000180197
0.00654765 0.00354794 -2.44202e-05
0.000180197 -2.44202e-05 -0.00150904
0.00307289 -0.00667758 -2.08209e-05
-0.00667758 0.00116707 0.000229154
-2.08209e-05 0.000229154 -0.00537213
0.014608 -0.000292181 7.40993e-05
-0.000292181 -0.00118723 -0.000350095
7.40993e-05 -0.000350095 0.000690822
0.00127444 0.000292379 1.77066e-06
0.000292379 0.000684545 2.26315e-05
1.77066e-06 2.26315e-05 0.000471312
0.00100262 0.000299104 -8.66222e-06
0.000299104 0.000647272 -6.33803e-06
-8.66222e-06 -6.33803e-06 0.00038256
-0.00060897 0.000145342 1.37235e-06
0.000145342 -0.000111218 -8.6196e-07
1.37235e-06 -8.6196e-07 -0.000506897
0.000449634 8.41461e-05 2.29745e-07
8.41461e-05 7.28763e-05 -3.3567e-07
2.29745e-07 -3.3567e-07 -0.000108578
0.00131737 -2.76797e-05 -3.75538e-06
-2.76797e-05 0.000696782 4.79283e-06
-3.75538e-06 4.79283e-06 0.000461375
-0.000343039 7.87592e-05 2.7575e-06
7.87592e-05 -0.000397781 5.12615e-06
2.7575e-06 5.12615e-06 -0.000567489
-0.00149773 6.8012e-05 2.21113e-06
6.8012e-05 -0.000765282 1.88361e-06
2.21113e-06 1.88361e-06 -0.00110382
0.000456297 -2.1818e-05 1.7235e-06
-2.1818e-05 0.000127686 5.7969e-07
1.7235e-06 5.7969e-07 -8.33081e-05
0.000464667 9.24536e-05 8.24088e-07
9.24536e-05 0.000257058 -2.39282e-06
8.24088e-07 -2.39282e-06 7.46532e-06
-6.33097e-05 4.95901e-05 4.12847e-06
4.95901e-05 0.000301773 2.79016e-06
4.12847e-06 2.79016e-06 -0.000188382
-0.00147627 -2.5213e-06 -6.03456e-07
-2.5213e-06 -0.00038069 9.94447e-06
-6.03456e-07 9.94447e-06 -0.000960159
0.000868261 1.85256e-05 -1.14127e-06
1.85256e-05 0.000791755 -6.36944e-06
-1.14127e-06 -6.36944e-06 0.000371283
0.00184689 5.53087e-05 -1.99636e-06
5.53087e-05 0.00111923 1.86013e-06
-1.99636e-06 1.86013e-06 0.000877989
0.000902118 -0.000178387 4.34771e-06
-0.000178387 0.000418177 3.34267e-06
4.34771e-06 3.34267e-06 0.00021353
0.000131631 -9.06057e-05 7.21742e-07
-9.06057e-05 -0.000205369 7.52782e-06
7.21742e-07 7.52782e-06 -0.000328107
-0.000126391 -8.41458e-05 1.00878e-05
-8.41458e-05 -0.000263742 1.80868e-05
1.00878e-05 1.80868e-05 -0.000362712
0.00026425 -2.72621e-05 8.73912e-07
-2.72621e-05 9.57803e-05 1.38213e-06
8.73912e-07 1.38213e-06 -0.000107091
0.000448473 -4.38272e-05 -2.1714e-07
-4.38272e-05 0.000105529 1.78144e-06
-2.1714e-07 1.78144e-06 -6.17737e-05
0.000100493 -7.57495e-05 -3.6666e-06
-7.57495e-05 -7.36591e-05 -1.07539e-06
-3.6666e-06 -1.07539e-06 -0.000212581
0.000395859 -9.54855e-05 -3.30217e-06
-9.54855e-05 9.78064e-05 -6.33851e-06
-3.30217e-06 -6.33851e-06 -4.81086e-05
0.00108475 -0.000119177 9.40121e-06
-0.000119177 0.000729714 -1.14223e-05
9.40121e-06 -1.14223e-05 0.000523726
0.00230491 -0.000380398 6.51379e-06
-0.000380398 0.00108944 3.49889e-06
6.51379e-06 3.49889e-06 0.000968849
0.000612452 -0.000142874 -1.90229e-05
-0.000142874 0.000107935 1.55613e-07
-1.90229e-05 1.55613e-07 -9.44307e-06
0.000821653 -0.000318168 8.90244e-06
-0.000318168 0.000176736 4.61558e-06
8.90244e-06 4.61558e-06 -3.10104e-05
0.00265009 -0.000743689 -4.7494e-06
-0.000743689 0.00124691 2.05144e-05
-4.7494e-06 2.05144e-05 0.000820049
0.00223403 -0.000308109 8.95238e-06
-0.000308109 0.00107781 -8.90525e-06
8.95238e-06 -8.90525e-06 0.000860704
0.00118422 -0.000325838 -3.26014e-06
-0.000325838 0.000405988 -6.45297e-06
-3.26014e-06 -6.45297e-06 0.000206941
0.000448534 -0.000123133 -6.44912e-07
-0.000123133 0.000110694 -1.00231e-06
-6.44912e-07 -1.00231e-06 -9.94753e-05
-0.000926254 -6.2553e-05 1.55259e-07
-6.2553e-05 -0.000700488 -2.73216e-06
1.55259e-07 -2.73216e-06 -0.00098126
0.00137751 -5.47006e-05 2.00454e-06
-5.47006e-05 0.000728082 3.08256e-06
2.00454e-06 3.08256e-06 0.000519586
0.000674573 -0.000176193 1.71174e-06
-0.000176193 0.000260277 -1.06802e-06
1.71174e-06 -1.06802e-06 3.01099e-05
0.000288727 -7.1521e-05 7.7529e-07
-7.1521e-05 -8.29902e-05 -1.02543e-06
7.7529e-07 -1.02543e-06 -0.000233253
0.00154467 -0.000288669 -5.17152e-06
-0.000288669 0.000816646 1.07561e-06
-5.17152e-06 1.07561e-06 0.000612048
0.000733465 -0.000142008 -2.73726e-08
-0.000142008 0.000230542 2.07944e-07
-2.73726e-08 2.07944e-07 7.56697e-05
0.000492061 -6.29282e-06 -1.56533e-07
-6.29282e-06 3.96082e-05 4.37742e-06
-1.56533e-07 4.37742e-06 -5.80604e-05
0.000817314 -0.000153381 -1.12247e-06
-0.000153381 0.00030463 -2.66538e-06
-1.12247e-06 -2.66538e-06 0.000147629
0.000575057 -7.00503e-05 -2.9166e-07
-7.00503e-05 9.96161e-05 2.2654e-08
-2.9166e-07 2.2654e-08 3.5501e-06
0.00145079 4.97556e-06 -1.38811e-05
4.97556e-06 0.00062796 8.78345e-06
-1.38811e-05 8.78345e-06 0.000600927
0.000523031 -7.82429e-05 9.46274e-07
-7.82429e-05 7.20587e-05 -5.51043e-06
9.46274e-07 -5.51043e-06 -2.15672e-05
0.000842993 -1.78558e-05 -1.17146e-05
-1.78558e-05 0.000243765 8.33143e-07
-1.17146e-05 8.33143e-07 0.000216199
0.000784364 1.93019e-05 1.75872e-06
1.93019e-05 0.000189666 3.139e-06
1.75872e-06 3.139e-06 0.000190186
0.000401128 -4.56324e-05 3.19391e-06
-4.56324e-05 -3.38413e-05 -5.49007e-06
3.19391e-06 -5.49007e-06 -6.28101e-05
0.00166302 1.71361e-05 1.42286e-05
1.71361e-05 0.000759142 -1.55883e-06
1.42286e-05 -1.55883e-06 0.000767262
0.00250078 5.83592e-06 1.7467e-05
5.83592e-06 0.00129976 -5.22144e-06
1.7467e-05 -5.22144e-06 0.00131249
0.000465981 7.43314e-05 1.31812e-06
7.43314e-05 4.13718e-05 -1.6968e-06
1.31812e-06 -1.6968e-06 -7.7518e-05
0.000566483 7.4488e-05 -1.16223e-06
7.4488e-05 9.16279e-05 -3.4527e-06
-1.16223e-06 -3.4527e-06 2.5966e-05
0.000545949 1.3978e-05 5.15678e-07
1.3978e-05 0.000111035 8.08887e-07
5.15678e-07 8.08887e-07 -4.89211e-06
0.000431026 9.75161e-06 2.07032e-06
9.75161e-06 -3.57412e-05 -4.40348e-06
2.07032e-06 -4.40348e-06 -4.81756e-05
0.000460894 6.28579e-05 -8.9198e-08
6.28579e-05 2.32858e-05 -2.35001e-07
-8.9198e-08 -2.35001e-07 -3.44111e-05
0.00041937 -0.000115528 -2.63416e-06
-0.000115528 2.65589e-05 2.80995e-06
-2.63416e-06 2.80995e-06 -7.95737e-05
0.0020349 1.28924e-05 -9.08348e-06
1.28924e-05 0.000995798 -5.11386e-06
-9.08348e-06 -5.11386e-06 0.00101259
0.000417346 7.94621e-06 -2.75413e-07
7.94621e-06 -4.44656e-05 3.03863e-08
-2.75413e-07 3.03863e-08 -5.61294e-05
0.000479935 2.76259e-06 -6.49324e-07
2.76259e-06 2.61247e-05 3.37692e-06
-6.49324e-07 3.37692e-06 -2.21686e-05
0.000440182 2.89669e-06 -1.96198e-06
2.89669e-06 -3.08436e-05 4.06228e-06
-1.96198e-06 4.06228e-06 -4.35765e-05
0.00207792 2.87495e-05 -5.79948e-06
2.87495e-05 0.00102603 -1.44294e-07
-5.79948e-06 -1.44294e-07 0.00104124
0.00208147 4.39156e-05 -1.68878e-06
4.39156e-05 0.00103132 5.18597e-06
-1.68878e-06 5.18597e-06 0.00104473
-0.00429726 -0.00216673 -0.000299105
-0.00216673 0.00782585 7.12891e-05
-0.000299105 7.12891e-05 0.00290433
0.00439294 0.00245277 -0.000394921
0.00245277 0.00210001 0.00012721
-0.000394921 0.00012721 -0.0015314
0.00298224 -0.00118208 -0.000677876
-0.00118208 0.00140073 0.000301405
-0.000677876 0.000301405 -0.00363121
0.00375407 0.00236171 0.00146643
0.00236171 0.00890122 -0.000315666
0.00146643 -0.000315666 0.00265433
0.00468113 0.000899655 -5.17669e-05
0.000899655 -0.000640546 3.57414e-06
-5.17669e-05 3.57414e-06 0.000763676
0.0036057 -0.000672785 0.000106447
-0.000672785 -0.000205256 3.87795e-06
0.000106447 3.87795e-06 0.000149857
0.00191558 -0.000497428 0.000398927
-0.000497428 -0.00672408 -5.1344e-05
0.000398927 -5.1344e-05 -0.00732495
0.0271958 0.00488768 -0.00144953
0.00488768 0.0123252 3.97737e-05
-0.00144953 3.97737e-05 0.0072838
0.015503 0.0141096 -0.00301588
0.0141096 0.0110777 0.00179861
-0.00301588 0.00179861 0.00377615
0.00544931 -0.00104485 5.43249e-05
-0.00104485 -0.00103486 3.21713e-06
5.43249e-05 3.21713e-06 0.000400332
0.00784143 -0.00362984 0.00022295
-0.00362984 -0.00400306 -0.000187352
0.00022295 -0.000187352 -0.00546783
0.0236825 0.00749633 -0.00043512
0.00749633 0.0089527 -0.000154675
-0.00043512 -0.000154675 0.00219645
0.0198613 0.00542659 0.000160815
0.00542659 0.00669011 0.000484208
0.000160815 0.000484208 0.00234002
0.00168684 -0.00244698 -0.000105157
-0.00244698 -0.00418932 4.69988e-05
-0.000105157 4.69988e-05 -0.00191584
0.00717103 -0.00583973 0.000666403
-0.00583973 -0.000552439 -0.000272082
0.000666403 -0.000272082 -0.00353867
0.0140527 0.00399337 -7.37252e-05
0.00399337 0.0047989 -0.00104661
-7.37252e-05 -0.00104661 -0.00203
0.00990123 -7.70926e-05 -0.000398349
-7.70926e-05 -0.00100976 4.82813e-05
-0.000398349 4.82813e-05 -0.00115483
0.00232514 -4.86401e-05 3.67935e-07
-4.86401e-05 0.00138354 1.63185e-05
3.67935e-07 1.63185e-05 0.00108476
0.000186487 7.94519e-05 -1.6406e-06
7.94519e-05 -5.85146e-05 -2.16461e-06
-1.6406e-06 -2.16461e-06 -0.000216058
0.00057448 0.000119136 4.35357e-06
0.000119136 0.000127673 1.74726e-06
4.35357e-06 1.74726e-06 1.54205e-05
-0.000236194 -5.94453e-05 4.77897e-06
-5.94453e-05 -0.000342104 -2.38387e-06
4.77897e-06 -2.38387e-06 -0.000416863
0.000453109 0.000143036 1.28023e-06
0.000143036 6.25587e-05 8.41297e-06
1.28023e-06 8.41297e-06 -0.000135114
0.000512782 7.68739e-05 -7.44467e-08
7.68739e-05 0.000126976 1.34044e-06
-7.44467e-08 1.34044e-06 -4.88038e-05
1.64632e-05 1.35902e-05 2.79237e-06
1.35902e-05 -0.000196796 -6.98395e-07
2.79237e-06 -6.98395e-07 -0.000331025
0.000917765 0.000189637 5.77489e-06
0.000189637 0.000381808 1.00557e-05
5.77489e-06 1.00557e-05 0.000186758
0.000934381 0.000164702 7.03124e-08
0.000164702 0.000404374 -5.20028e-07
7.03124e-08 -5.20028e-07 0.000207684
0.000297872 1.2014e-05 -2.63369e-06
1.2014e-05 -2.9484e-05 -5.22424e-06
-2.63369e-06 -5.22424e-06 -0.000179586
0.000678831 -0.000647218 9.82002e-05
-0.000647218 -0.001516 -6.25919e-05
9.82002e-05 -6.25919e-05 -0.000964825
0.000259419 -0.000785315 2.32742e-06
-0.000785315 -0.000926929 -1.05913e-05
2.32742e-06 -1.05913e-05 -0.000938922
0.00159235 -0.00113525 -2.1891e-06
-0.00113525 -0.000108925 8.07691e-06
-2.1891e-06 8.07691e-06 -0.000269636
-0.00114592 -0.000808359 2.90511e-06
-0.000808359 -0.00103683 -1.00091e-05
2.90511e-06 -1.00091e-05 -0.00134054
0.0041571 -0.000617217 -4.1865e-05
-0.000617217 0.00265054 7.89805e-05
-4.1865e-05 7.89805e-05 0.00209325
0.000693159 -0.000266637 -1.55361e-06
-0.000266637 0.000506819 5.28738e-06
-1.55361e-06 5.28738e-06 0.00013539
0.000334897 9.81376e-05 -2.38106e-07
9.81376e-05 0.000139935 -1.35505e-05
-2.38106e-07 -1.35505e-05 -0.000132682
0.00056003 -1.00611e-05 -4.93479e-06
-1.00611e-05 0.000269024 7.77054e-06
-4.93479e-06 7.77054e-06 -2.96897e-05
0.00260885 -0.00122077 -2.43722e-05
-0.00122077 -8.42534e-06 1.43976e-06
-2.43722e-05 1.43976e-06 3.93918e-05
0.000645657 -5.27281e-05 2.05646e-06
-5.27281e-05 0.0003916 2.98877e-06
2.05646e-06 2.98877e-06 8.14725e-05
0.00233128 -0.000405466 7.18918e-06
-0.000405466 0.0014845 -3.95721e-06
7.18918e-06 -3.95721e-06 0.00106749
0.00156798 -0.000998246 1.61316e-05
-0.000998246 7.90641e-05 -5.04886e-06
1.61316e-05 -5.04886e-06 -5.82188e-06
0.000550118 -0.000723398 -3.74498e-05
-0.000723398 0.000352347 1.14819e-05
-3.74498e-05 1.14819e-05 -4.03679e-05
0.00248428 -0.00206669 5.94264e-05
-0.00206669 0.000247699 -3.35747e-05
5.94264e-05 -3.35747e-05 -0.000123233
0.00084587 -0.000752178 -1.51569e-05
-0.000752178 0.000330644 3.41075e-05
-1.51569e-05 3.41075e-05 0.000158865
-0.00182723 -0.000152655 9.49015e-06
-0.000152655 -0.000721416 5.53345e-06
9.49015e-06 5.53345e-06 -0.00126077
0.000356656 6.90761e-05 -3.55589e-06
6.90761e-05 0.000138952 8.30153e-06
-3.55589e-06 8.30153e-06 -7.25681e-05
8.29599e-05 -0.000111235 -2.65406e-07
-0.000111235 0.000157368 8.22066e-06
-2.65406e-07 8.22066e-06 -0.000202151
0.00161766 0.000268077 -9.34006e-05
0.000268077 0.00225918 -3.3923e-05
-9.34006e-05 -3.3923e-05 -0.00266455
-0.00775009 0.000430401 -0.000566499
0.000430401 0.00744183 -2.12847e-05
-0.000566499 -2.12847e-05 0.00142834
-0.0138923 -0.00364443 -0.00108068
-0.00364443 -0.00431747 -5.27554e-06
-0.00108068 -5.27554e-06 -0.00669182
0.000246037 0.000389393 1.75093e-05
0.000389393 0.000121509 -1.75866e-06
1.75093e-05 -1.75866e-06 -0.000210996
-0.000854989 0.00065453 -8.14576e-07
0.00065453 -0.000559161 1.0204e-05
-8.14576e-07 1.0204e-05 -0.00106543
0.00299038 0.00139553 5.19224e-05
0.00139553 0.000908127 4.42466e-05
5.19224e-05 4.42466e-05 0.000620185
-0.00437088 0.00241591 0.000145883
0.00241591 0.00848825 6.87752e-05
0.000145883 6.87752e-05 0.00297187
0.00669937 0.0057854 -0.000544501
0.0057854 -0.0010461 -0.00020923
-0.000544501 -0.00020923 -0.00365058
0.000438113 0.00279982 0.000505384
0.00279982 -0.000293071 0.000206122
0.000505384 0.000206122 -0.00012413
-0.00014483 0.00124772 -1.38587e-05
0.00124772 -1.4264e-06 -4.54279e-05
-1.38587e-05 -4.54279e-05 -0.000305749
0.0306152 -0.00448343 -6.32245e-05
-0.00448343 0.0114402 -0.000498006
-6.32245e-05 -0.000498006 0.00550931
0.00792481 0.00270035 0.000856358
0.00270035 0.00392152 0.000297227
0.000856358 0.000297227 -0.00276671
0.0141055 -0.00135755 0.000180396
-0.00135755 0.00274125 5.95637e-05
0.000180396 5.95637e-05 0.00390008
0.00138429 0.000732593 9.36714e-06
0.000732593 0.000757732 -1.18867e-06
9.36714e-06 -1.18867e-06 0.000356496
0.00390703 0.00109716 -4.88819e-05
0.00109716 0.00410332 3.40498e-06
-4.88819e-05 3.40498e-06 -0.000759488
0.00220215 0.00117495 0.000110627
0.00117495 0.000536331 -1.037e-05
0.000110627 -1.037e-05 -0.0014713
-0.000175771 0.000728896 -5.41124e-06
0.000728896 0.000109315 -5.8095e-06
-5.41124e-06 -5.8095e-06 -0.000344188
-0.000470056 0.00191353 -0.000148205
0.00191353 0.000547409 -8.22287e-05
-0.000148205 -8.22287e-05 -0.000803618
0.00263006 0.00665272 0.000340176
0.00665272 0.00146639 0.000128723
0.000340176 0.000128723 -0.00310107
0.0119237 -0.000434791 1.41927e-05
-0.000434791 -0.00316713 -0.000230394
1.41927e-05 -0.000230394 -0.000895025
0.00874825 -0.00291293 -0.000113085
-0.00291293 0.00490577 -0.000213415
-0.000113085 -0.000213415 -0.00153887
0.00109043 0.000623911 -2.75927e-06
0.000623911 0.000943968 -1.20233e-05
-2.75927e-06 -1.20233e-05 0.000452376
-0.00400088 0.000609245 4.0295e-05
0.000609245 0.000725999 5.98745e-05
4.0295e-05 5.98745e-05 -0.000738978
0.0068919 -0.00071858 0.000221367
-0.00071858 3.84878e-05 -0.000133341
0.000221367 -0.000133341 -0.00161814
0.00964853 7.91899e-05 0.000356933
7.91899e-05 -0.000964613 -1.35608e-05
0.000356933 -1.35608e-05 -0.000966885
-0.00291637 0.00029816 6.02082e-05
0.00029816 0.000133348 -1.52326e-05
6.02082e-05 -1.52326e-05 -0.000878596
0.0101093 0.0041507 0.000407859
0.0041507 0.0059809 0.000157626
0.000407859 0.000157626 -0.000486447
0.00513869 -0.000727224 -4.0877e-05
-0.000727224 0.00318892 0.000374828
-4.0877e-05 0.000374828 -0.00133447
0.00322628 0.000543307 2.81129e-05
0.000543307 0.0020381 1.08756e-05
2.81129e-05 1.08756e-05 0.00170445
0.000377307 0.000287145 -9.04073e-06
0.000287145 0.000489762 -2.09053e-06
-9.04073e-06 -2.09053e-06 4.58818e-05
0.000195815 0.000261702 9.23923e-07
0.000261702 0.000553041 -1.32264e-05
9.23923e-07 -1.32264e-05 -3.9369e-05
0.00016836 0.000113765 2.05339e-06
0.000113765 -4.72445e-05 -3.8999e-06
2.05339e-06 -3.8999e-06 -0.000260339
0.000450744 0.000130098 -1.51795e-07
0.000130098 0.000231589 2.67785e-07
-1.51795e-07 2.67785e-07 5.06552e-07
-0.000218546 1.44336e-05 4.63062e-06
1.44336e-05 0.000240018 -4.34133e-06
4.63062e-06 -4.34133e-06 -0.000268015
0.000514596 3.83302e-05 6.1844e-07
3.83302e-05 0.000251922 -5.67647e-07
6.1844e-07 -5.67647e-07 3.95011e-05
0.00106388 -4.15628e-05 -8.77815e-07
-4.15628e-05 0.000941335 -2.87584e-06
-8.77815e-07 -2.87584e-06 0.000499321
-0.000220605 2.50833e-05 2.94187e-06
2.50833e-05 0.000343054 7.6958e-07
2.94187e-06 7.6958e-07 -0.000207207
-4.7645e-05 -6.15141e-05 2.14904e-06
-6.15141e-05 0.000412111 1.61621e-05
2.14904e-06 1.61621e-05 -7.30267e-05
0.000585195 -4.77382e-05 1.20207e-06
-4.77382e-05 0.000587181 -1.37187e-05
1.20207e-06 -1.37187e-05 0.000241504
-9.90514e-05 -4.27604e-05 5.25683e-06
-4.27604e-05 -0.000168456 8.543e-06
5.25683e-06 8.543e-06 -0.000340733
0.00137023 -4.58709e-05 1.28123e-06
-4.58709e-05 0.000660905 5.94131e-06
1.28123e-06 5.94131e-06 0.000500001
0.000257778 -6.42929e-05 -1.0309e-05
-6.42929e-05 5.47558e-05 1.15648e-05
-1.0309e-05 1.15648e-05 -9.77899e-05
0.000634022 -9.2279e-05 1.40698e-06
-9.2279e-05 0.000440915 6.20631e-07
1.40698e-06 6.20631e-07 0.000244114
0.000157006 -4.90261e-05 -2.4349e-06
-4.90261e-05 -3.63498e-05 -1.82858e-06
-2.4349e-06 -1.82858e-06 -0.000182282
0.00118452 -0.000295031 2.97904e-06
-0.000295031 0.000580511 2.66893e-06
2.97904e-06 2.66893e-06 0.000429037
0.00052764 -0.000222864 -2.15716e-05
-0.000222864 0.000107156 2.41425e-07
-2.15716e-05 2.41425e-07 4.18053e-05
-0.000632675 -0.000324173 1.56175e-05
-0.000324173 -0.000552378 2.15177e-05
1.56175e-05 2.15177e-05 -0.000889925
9.71377e-05 -0.000122759 1.66167e-06
-0.000122759 -0.000188047 1.34672e-06
1.66167e-06 1.34672e-06 -0.000303036
0.00113697 -0.000353211 -5.94243e-06
-0.000353211 0.000357225 1.04492e-05
-5.94243e-06 1.04492e-05 0.000136862
0.002135 -0.000708236 -6.40822e-06
-0.000708236 0.00091433 1.20918e-05
-6.40822e-06 1.20918e-05 0.000462081
0.00201027 -0.000737728 -4.77204e-06
-0.000737728 0.000747471 -2.22708e-06
-4.77204e-06 -2.22708e-06 0.00025361
0.00192744 -0.00048196 2.64173e-06
-0.00048196 0.000851267 1.20429e-06
2.64173e-06 1.20429e-06 0.000553321
0.000624026 -0.000466303 1.10066e-05
-0.000466303 -8.98407e-06 -3.87227e-06
1.10066e-05 -3.87227e-06 -0.000357743
0.00110447 -0.000212758 3.36829e-06
-0.000212758 0.00050654 -4.32823e-06
3.36829e-06 -4.32823e-06 0.000198819
0.00107389 -0.000243819 -7.97069e-06
-0.000243819 0.000402191 1.86174e-06
-7.97069e-06 1.86174e-06 0.000173075
-0.000146137 -0.000196417 2.14961e-05
-0.000196417 -0.000410648 -1.56827e-05
2.14961e-05 -1.56827e-05 -0.00055851
0.0014218 -0.000151258 -5.24149e-06
-0.000151258 0.00069687 3.55125e-06
-5.24149e-06 3.55125e-06 0.000481507
4.18181e-05 -0.000117973 6.15033e-07
-0.000117973 -0.000109548 1.3219e-06
6.15033e-07 1.3219e-06 -0.000386241
-0.000119595 -4.53322e-05 1.28811e-06
-4.53322e-05 -0.000307318 -1.39831e-06
1.28811e-06 -1.39831e-06 -0.000508489
0.00204574 -0.000342732 -3.22181e-06
-0.000342732 0.00111963 -1.72158e-07
-3.22181e-06 -1.72158e-07 0.000875898
0.000712299 -0.00014432 -6.08382e-07
-0.00014432 0.000209027 -7.27981e-08
-6.08382e-07 -7.27981e-08 3.76257e-05
0.00042075 -3.57209e-06 3.24619e-06
-3.57209e-06 7.61265e-06 5.0457e-06
3.24619e-06 5.0457e-06 -0.000110255
0.000835854 -0.000180258 -2.52867e-07
-0.000180258 0.000309141 -2.10313e-06
-2.52867e-07 -2.10313e-06 0.000141743
0.000434727 1.28886e-06 -2.10159e-06
1.28886e-06 1.91981e-05 -2.17384e-07
-2.10159e-06 -2.17384e-07 -9.00266e-05
0.00148441 -9.72926e-06 -2.16447e-05
-9.72926e-06 0.000649706 6.40521e-06
-2.16447e-05 6.40521e-06 0.000619177
0.000599215 -8.18452e-05 1.07746e-06
-8.18452e-05 0.000124198 -6.01368e-06
1.07746e-06 -6.01368e-06 2.33443e-05
0.000842493 -1.74866e-05 -1.10244e-05
-1.74866e-05 0.00023861 5.25365e-07
-1.10244e-05 5.25365e-07 0.000208441
0.000859735 3.02055e-05 1.02506e-06
3.02055e-05 0.000234884 3.64845e-06
1.02506e-06 3.64845e-06 0.000232281
0.000430947 -3.95209e-05 3.39668e-06
-3.95209e-05 -2.23313e-05 -6.89526e-06
3.39668e-06 -6.89526e-06 -5.33239e-05
0.00175247 2.92574e-05 1.75012e-05
2.92574e-05 0.000813944 -1.29967e-06
1.75012e-05 -1.29967e-06 0.000820395
0.0025503 1.89251e-05 2.27668e-05
1.89251e-05 0.00132839 -5.61947e-06
2.27668e-05 -5.61947e-06 0.00134098
0.000202373 2.91023e-05 1.43699e-06
2.91023e-05 -0.000112418 2.4695e-06
1.43699e-06 2.4695e-06 -0.000260982
4.6098e-05 2.60381e-05 2.58898e-07
2.60381e-05 -0.000248877 -5.1984e-06
2.58898e-07 -5.1984e-06 -0.000322919
0.000574369 7.25104e-05 -1.35487e-07
7.25104e-05 0.000123982 4.54159e-07
-1.35487e-07 4.54159e-07 -6.05036e-06
0.00043841 1.10175e-05 1.96312e-06
1.10175e-05 -3.27545e-05 -4.67456e-06
1.96312e-06 -4.67456e-06 -4.74904e-05
0.000298409 9.20069e-06 1.75147e-06
9.20069e-06 -8.94376e-05 4.75868e-08
1.75147e-06 4.75868e-08 -0.000151278
0.000189358 -9.93834e-05 -2.08369e-07
-9.93834e-05 -0.000120017 1.15238e-06
-2.08369e-07 1.15238e-06 -0.00023567
0.00208192 -1.42925e-06 -1.3577e-05
-1.42925e-06 0.00102492 -5.19565e-06
-1.3577e-05 -5.19565e-06 0.00104185
0.000425304 7.18726e-06 7.50106e-08
7.18726e-06 -4.02842e-05 -7.74086e-08
7.50106e-08 -7.74086e-08 -5.23447e-05
0.00039505 -1.04928e-05 -3.28345e-06
-1.04928e-05 -2.56883e-05 3.61682e-06
-3.28345e-06 3.61682e-06 -7.9129e-05
0.00206528 1.41944e-05 -4.93778e-06
1.41944e-05 0.00101585 -7.39781e-09
-4.93778e-06 -7.39781e-09 0.00103231
0.000424785 6.59737e-06 -1.71855e-06
6.59737e-06 -3.91897e-05 3.91977e-06
-1.71855e-06 3.91977e-06 -5.09415e-05
0.00205506 2.97026e-05 4.24605e-06
2.97026e-05 0.00101134 5.31417e-06
4.24605e-06 5.31417e-06 0.00102645
-0.00076636 -0.00133867 -0.000328904
-0.00133867 -0.000137186 0.000141541
-0.000328904 0.000141541 -0.00423043
0.00336978 0.0014444 -0.000200523
0.0014444 0.00992688 5.13097e-05
-0.000200523 5.13097e-05 0.0040498
0.00419603 0.000556413 -0.00132898
0.000556413 0.00467642 0.000300392
-0.00132898 0.000300392 0.00240664
0.000599847 0.00012726 8.44687e-06
0.00012726 0.000149985 8.0755e-06
8.44687e-06 8.0755e-06 -1.96337e-05
0.00616298 -0.00134735 -0.000184441
-0.00134735 0.00385469 0.000314463
-0.000184441 0.000314463 0.00114258
0.00449682 -0.00158443 -0.000323502
-0.00158443 0.00212818 3.69107e-05
-0.000323502 3.69107e-05 -0.00297569
0.017263 0.00628892 0.00031763
0.00628892 0.0106686 -0.000478081
0.00031763 -0.000478081 0.00381453
0.00783528 -0.00161367 0.000149424
-0.00161367 6.88592e-05 -3.14162e-05
0.000149424 -3.14162e-05 0.0010261
0.0150641 -0.0034527 0.000355834
-0.0034527 0.000660501 -0.00021412
0.000355834 -0.00021412 0.000633678
0.0167406 0.00581822 -0.000964455
0.00581822 0.00428899 0.00043913
-0.000964455 0.00043913 -0.0021203
0.0158635 0.00480454 0.000232323
0.00480454 0.00829627 0.000278717
0.000232323 0.000278717 0.00448972
0.00779066 -0.00321097 -0.000101845
-0.00321097 -0.000565424 -5.70736e-06
-0.000101845 -5.70736e-06 0.000651148
0.0140583 -0.00619789 4.42731e-06
-0.00619789 0.00176772 -4.41956e-05
4.42731e-06 -4.41956e-05 -0.000638896
0.0107378 0.00297917 0.000129582
0.00297917 0.0060444 -0.000434132
0.000129582 -0.000434132 -0.000440256
0.0148008 0.00136288 -6.07334e-06
0.00136288 0.00108345 6.26153e-05
-6.07334e-06 6.26153e-05 -2.87726e-05
0.00358973 -0.00336705 -5.5872e-05
-0.00336705 0.000396817 7.02979e-05
-5.5872e-05 7.02979e-05 0.00107382
0.010819 -0.00611615 0.000263161
-0.00611615 0.00454197 -0.000158992
0.000263161 -0.000158992 0.000564082
0.00967659 -0.000221496 6.56563e-05
-0.000221496 0.00614363 -0.000501935
6.56563e-05 -0.000501935 0.00180769
0.0142717 -0.000172497 -0.000199705
-0.000172497 -0.000801894 0.000318015
-0.000199705 0.000318015 0.000612559
0.000193824 0.000152808 8.9227e-06
0.000152808 -5.27396e-06 1.59681e-05
8.9227e-06 1.59681e-05 -0.000224857
0.000573257 -0.000111296 4.38254e-07
-0.000111296 0.000258263 -2.93306e-08
4.38254e-07 -2.93306e-08 -4.93302e-06
0.000573223 8.00404e-05 5.28555e-06
8.00404e-05 0.000192855 -1.52218e-06
5.28555e-06 -1.52218e-06 3.28878e-05
0.000544409 0.000182625 3.01226e-06
0.000182625 6.62593e-05 1.75748e-05
3.01226e-06 1.75748e-05 -8.41645e-05
0.000878814 0.000245647 2.3032e-07
0.000245647 0.000364756 -5.92194e-07
2.3032e-07 -5.92194e-07 0.00014849
0.00108499 0.000137967 -1.29698e-06
0.000137967 0.000514929 -3.83222e-06
-1.29698e-06 -3.83222e-06 0.000329691
0.00111826 0.000205505 -1.89635e-06
0.000205505 0.000513871 -1.11163e-07
-1.89635e-06 -1.11163e-07 0.000312899
0.00112244 0.000228445 2.45432e-06
0.000228445 0.000545573 1.57484e-06
2.45432e-06 1.57484e-06 0.000334558
0.00100782 -0.000963084 0.000132844
-0.000963084 -0.000982436 -8.54344e-05
0.000132844 -8.54344e-05 -0.00065089
-9.16363e-05 -0.000819526 -3.23432e-05
-0.000819526 -0.000886619 -1.34051e-05
-3.23432e-05 -1.34051e-05 -0.000877031
0.0006126 -0.000188432 5.92182e-06
-0.000188432 0.000315868 -3.18446e-05
5.92182e-06 -3.18446e-05 4.43356e-06
0.00199239 -0.000829269 2.71968e-05
-0.000829269 0.00112982 -2.66588e-05
2.71968e-05 -2.66588e-05 0.000749831
0.00275027 -0.000569997 -2.15642e-05
-0.000569997 0.00167148 2.0969e-05
-2.15642e-05 2.0969e-05 0.00125927
0.00181318 -0.000192818 1.06936e-05
-0.000192818 0.00111206 -2.05553e-05
1.06936e-05 -2.05553e-05 0.000775165
5.81867e-05 4.14394e-05 3.44637e-06
4.14394e-05 -5.58154e-05 7.24446e-06
3.44637e-06 7.24446e-06 -0.000274949
0.000476284 -0.00171576 -1.17672e-05
-0.00171576 -0.000675932 -6.96844e-06
-1.17672e-05 -6.96844e-06 -0.000946485
0.00152903 -6.69062e-05 -1.60982e-06
-6.69062e-05 0.00105168 -1.98271e-06
-1.60982e-06 -1.98271e-06 0.000679764
-0.000246004 -0.000259778 -1.19825e-05
-0.000259778 9.72272e-05 9.5093e-06
-1.19825e-05 9.5093e-06 -0.000385643
-0.000565423 -0.000552047 3.12441e-05
-0.000552047 -0.000553169 -3.36641e-06
3.12441e-05 -3.36641e-06 -0.000559497
0.000612929 0.000112919 4.70665e-06
0.000112919 0.000311105 7.41359e-06
4.70665e-06 7.41359e-06 0.00012328
-0.000679634 -0.00170131 -0.000117131
-0.00170131 -0.000270295 -2.24776e-05
-0.000117131 -2.24776e-05 -0.000847482
-0.000947601 -0.000502716 -2.10238e-05
-0.000502716 -0.000281631 2.34769e-05
-2.10238e-05 2.34769e-05 -0.000713502
0.000442803 0.000137885 2.59556e-06
0.000137885 0.000649899 -1.23334e-05
2.59556e-06 -1.23334e-05 0.000114217
0.00190976 0.00030196 -4.00377e-06
0.00030196 0.00140581 4.13335e-06
-4.00377e-06 4.13335e-06 0.000981956
-0.000979838 0.000110669 0.000215855
0.000110669 0.00283644 5.30529e-05
0.000215855 5.30529e-05 0.0010682
7.77617e-05 2.56288e-05 0.000203678
2.56288e-05 0.00130702 -3.71638e-05
0.000203678 -3.71638e-05 -0.00378305
-0.0138037 -0.000512523 -0.000433606
-0.000512523 0.00680848 2.89299e-05
-0.000433606 2.89299e-05 0.000857556
0.00191065 0.000766855 2.18236e-05
0.000766855 0.00116378 -1.4601e-07
2.18236e-05 -1.4601e-07 0.000760076
-0.000672105 0.000943618 1.27673e-05
0.000943618 -0.000176679 1.12077e-05
1.27673e-05 1.12077e-05 -0.000771596
0.0059234 0.00149819 0.00049908
0.00149819 0.00455138 0.000118756
0.00049908 0.000118756 0.00092192
0.00682813 0.00498684 0.000266237
0.00498684 0.00301941 0.000224646
0.000266237 0.000224646 -0.00104281
0.00356492 0.00337708 -0.000162941
0.00337708 0.00207943 -0.000146683
-0.000162941 -0.000146683 0.000431518
0.00476755 -0.0023131 -0.000184994
-0.0023131 0.00530902 -0.000517184
-0.000184994 -0.000517184 0.000408012
0.00333907 0.000752494 0.000143104
0.000752494 0.000833964 0.000167589
0.000143104 0.000167589 -0.00114594
0.00940463 -0.000441849 -4.93191e-05
-0.000441849 -0.00547006 -0.000267814
-4.93191e-05 -0.000267814 -0.00266396
0.000988679 0.000713095 3.75591e-06
0.000713095 0.000833835 -4.55272e-07
3.75591e-06 -4.55272e-07 0.000297401
-0.00309524 0.000322087 -1.43482e-06
0.000322087 0.000915221 7.49878e-06
-1.43482e-06 7.49878e-06 -0.000720335
0.00575259 -0.000363489 0.000171105
-0.000363489 -1.03298e-05 1.52738e-05
0.000171105 1.52738e-05 -0.001274
-0.00191639 0.000690206 -1.99796e-05
0.000690206 -4.79916e-05 -1.23895e-05
-1.99796e-05 -1.23895e-05 -0.00098996
0.0149674 0.00159887 6.94955e-06
0.00159887 0.00104302 -6.66098e-05
6.94955e-06 -6.66098e-05 -3.01248e-05
0.00386818 0.00258402 0.000309539
0.00258402 0.00497965 0.00018728
0.000309539 0.00018728 -0.00135209
0.0109328 0.000675657 -0.000196575
0.000675657 0.00420343 1.45354e-05
-0.000196575 1.45354e-05 -0.000257759
0.000633867 0.00066326 7.77429e-07
0.00066326 0.000817452 -2.20999e-05
7.77429e-07 -2.20999e-05 0.00011668
0.00248168 -3.58244e-05 3.93569e-06
-3.58244e-05 0.00122414 8.80766e-06
3.93569e-06 8.80766e-06 -4.38565e-05
0.00410021 -0.00206707 0.0001896
-0.00206707 0.00372599 -0.000280694
0.0001896 -0.000280694 0.00145068
0.027334 0.00647893 0.000378746
0.00647893 0.009837 -0.000347409
0.000378746 -0.000347409 0.00529237
0.0102264 -0.000439781 -0.000147928
-0.000439781 0.00668058 0.000566964
-0.000147928 0.000566964 0.00216969
-0.00117699 0.000678454 -0.000101369
0.000678454 0.000724888 -0.000132045
-0.000101369 -0.000132045 -0.000253095
0.00360198 0.00126446 0.000269292
0.00126446 0.00658394 2.18272e-05
0.000269292 2.18272e-05 -0.00274428
0.00152963 0.000474972 1.26166e-05
0.000474972 0.0011368 1.12655e-05
1.26166e-05 1.12655e-05 0.000663558
0.000874385 0.000332646 5.61321e-06
0.000332646 0.000960767 6.98838e-06
5.61321e-06 6.98838e-06 0.000402134
0.000575274 -8.04632e-05 -7.8962e-06
-8.04632e-05 0.00104298 1.46558e-05
-7.8962e-06 1.46558e-05 0.000523609
-0.00103294 -8.54158e-06 2.47994e-06
-8.54158e-06 -0.000728284 -3.30655e-06
2.47994e-06 -3.30655e-06 -0.00093111
-0.000757864 -2.65476e-05 1.48111e-06
-2.65476e-05 -4.82958e-05 4.41287e-06
1.48111e-06 4.41287e-06 -0.000588981
1.53187e-05 3.34996e-05 -2.91934e-06
3.34996e-05 0.000511484 -8.52073e-06
-2.91934e-06 -8.52073e-06 -5.86209e-05
-9.59952e-05 -1.44041e-05 1.77698e-07
-1.44041e-05 0.00012218 3.05613e-07
1.77698e-07 3.05613e-07 -0.000180577
-0.000211532 -7.46885e-05 2.82864e-06
-7.46885e-05 0.000305998 1.80809e-06
2.82864e-06 1.80809e-06 -0.000180158
0.00208828 -0.000503163 1.18199e-05
-0.000503163 0.00137911 -1.21733e-05
1.18199e-05 -1.21733e-05 0.00101841
-7.43775e-05 -5.21861e-05 -3.94447e-06
-5.21861e-05 2.34053e-06 9.05448e-06
-3.94447e-06 9.05448e-06 -0.000190345
-0.00058049 2.3987e-05 1.01694e-06
2.3987e-05 -0.000472097 4.18014e-06
1.01694e-06 4.18014e-06 -0.000614947
0.00096954 -0.000325744 -1.50567e-06
-0.000325744 0.000461321 6.13218e-06
-1.50567e-06 6.13218e-06 0.000256496
-0.00415334 4.66646e-05 2.59906e-05
4.66646e-05 -0.00239686 2.35072e-05
2.59906e-05 2.35072e-05 -0.0027568
-0.000801405 -9.97948e-05 1.65953e-05
-9.97948e-05 -0.000624685 -6.17455e-07
1.65953e-05 -6.17455e-07 -0.000642936
-3.39902e-05 -0.000375826 -5.23641e-06
-0.000375826 -0.000247285 -5.46378e-06
-5.23641e-06 -5.46378e-06 -0.000544777
0.00163043 -0.000723995 9.75185e-07
-0.000723995 0.000574182 -1.07179e-06
9.75185e-07 -1.07179e-06 -1.06061e-05
0.00191934 -0.000854927 -9.81488e-06
-0.000854927 0.000627578 6.89151e-07
-9.81488e-06 6.89151e-07 7.32957e-05
0.00137421 -0.000386586 4.53198e-06
-0.000386586 0.000483939 -5.45032e-06
4.53198e-06 -5.45032e-06 0.000251866
0.0014865 -0.000627561 1.02088e-06
-0.000627561 0.000507194 1.09231e-06
1.02088e-06 1.09231e-06 6.65092e-05
0.00180122 -0.000753041 4.56064e-06
-0.000753041 0.000557601 -6.23124e-06
4.56064e-06 -6.23124e-06 6.24619e-05
0.001951 -0.000586759 1.11816e-06
-0.000586759 0.0007982 4.81827e-06
1.11816e-06 4.81827e-06 0.00039573
0.001053 -0.000609558 2.47981e-06
-0.000609558 0.000162606 -5.26447e-06
2.47981e-06 -5.26447e-06 -0.000292484
0.000987932 -0.000231603 1.11435e-06
-0.000231603 0.000316978 -5.89542e-06
1.11435e-06 -5.89542e-06 4.20747e-05
0.00106496 -0.000409183 -3.98732e-06
-0.000409183 0.000314183 1.94919e-06
-3.98732e-06 1.94919e-06 1.44194e-05
-0.000935899 -0.000245927 4.11358e-07
-0.000245927 -0.000965574 -8.87206e-06
4.11358e-07 -8.87206e-06 -0.00124989
-0.000187079 -8.39228e-05 5.98428e-07
-8.39228e-05 -0.000300888 -5.44327e-06
5.98428e-07 -5.44327e-06 -0.000573254
0.000388702 -0.000189675 5.41522e-07
-0.000189675 9.0345e-05 1.71227e-07
5.41522e-07 1.71227e-07 -0.000219811
-0.000229958 -0.000175207 8.87478e-06
-0.000175207 -0.000357448 1.09402e-06
8.87478e-06 1.09402e-06 -0.000600225
0.0010612 -0.000182308 -1.07559e-06
-0.000182308 0.000503159 1.79831e-06
-1.07559e-06 1.79831e-06 0.000238905
0.000726696 -0.000148168 4.30981e-07
-0.000148168 0.000235385 4.03505e-07
4.30981e-07 4.03505e-07 2.12905e-05
0.000355426 -3.27151e-05 1.44526e-06
-3.27151e-05 -5.22862e-05 6.97929e-06
1.44526e-06 6.97929e-06 -0.000178377
0.00135783 -0.000225579 -1.69023e-06
-0.000225579 0.000644023 4.93916e-07
-1.69023e-06 4.93916e-07 0.000450126
0.000572583 -3.50252e-05 -1.36548e-06
-3.50252e-05 8.56347e-05 -3.06855e-07
-1.36548e-06 -3.06855e-07 -2.38581e-05
0.000329288 4.77721e-05 3.33761e-06
4.77721e-05 -8.1585e-05 8.72507e-06
3.33761e-06 8.72507e-06 -0.000128322
0.000761649 -9.10952e-05 1.03237e-06
-9.10952e-05 0.000215619 -4.14832e-06
1.03237e-06 -4.14832e-06 0.000109119
0.000433278 -1.65364e-05 -1.6028e-06
-1.65364e-05 -2.68975e-05 -9.01212e-08
-1.6028e-06 -9.01212e-08 -6.47646e-05
0.00277338 9.50899e-05 -8.30402e-07
9.50899e-05 0.00147351 2.95928e-06
-8.30402e-07 2.95928e-06 0.00147532
0.000480495 -3.4249e-05 3.34273e-06
-3.4249e-05 6.8032e-06 -7.46809e-06
3.34273e-06 -7.46809e-06 -2.80093e-05
0.00181152 4.32196e-05 2.07134e-05
4.32196e-05 0.000851486 -9.92811e-07
2.07134e-05 -9.92811e-07 0.000855471
0.00264148 3.4723e-05 2.97474e-05
3.4723e-05 0.00138497 -6.014e-06
2.97474e-05 -6.014e-06 0.00139665
0.000242678 3.69586e-05 3.77402e-06
3.69586e-05 -0.000103131 2.15705e-06
3.77402e-06 2.15705e-06 -0.000240494
0.000128553 1.43303e-05 2.27041e-06
1.43303e-05 -0.000196719 -3.8098e-06
2.27041e-06 -3.8098e-06 -0.000285006
0.000453834 4.77601e-05 -3.86996e-07
4.77601e-05 4.82019e-05 -1.05316e-06
-3.86996e-07 -1.05316e-06 -9.6137e-05
0.000465819 1.44028e-05 1.58888e-06
1.44028e-05 -1.54026e-05 -5.38437e-06
1.58888e-06 -5.38437e-06 -3.44937e-05
0.000122908 2.40663e-05 -8.02968e-07
2.40663e-05 -0.000199679 -2.09299e-06
-8.02968e-07 -2.09299e-06 -0.000276811
0.000626602 7.55358e-05 2.68037e-07
7.55358e-05 0.000174462 2.47096e-06
2.68037e-07 2.47096e-06 3.30053e-05
0.0021359 -1.55005e-05 -1.8969e-05
-1.55005e-05 0.00105849 -5.18505e-06
-1.8969e-05 -5.18505e-06 0.00107501
0.000437989 8.0516e-06 -8.53941e-07
8.0516e-06 -3.39938e-05 -1.27463e-07
-8.53941e-07 -1.27463e-07 -4.81601e-05
3.8882e-05 1.7698e-05 1.7363e-06
1.7698e-05 -0.000252526 3.25457e-06
1.7363e-06 3.25457e-06 -0.000318684
0.00207233 -5.63224e-07 -4.09058e-06
-5.63224e-07 0.00101872 6.21067e-08
-4.09058e-06 6.21067e-08 0.00103571
0.00041506 6.46947e-06 -2.15887e-06
6.46947e-06 -4.73746e-05 4.13063e-06
-2.15887e-06 4.13063e-06 -5.90328e-05
0.00209735 1.54983e-05 9.6637e-06
1.54983e-05 0.00103693 5.30562e-06
9.6637e-06 5.30562e-06 0.00105299
0.000703488 -9.95003e-05 0.000214426
-9.95003e-05 0.00363634 0.000114958
0.000214426 0.000114958 0.00219533
-0.000517675 -0.000548647 -7.20808e-05
-0.000548647 0.000521854 -1.38611e-06
-7.20808e-05 -1.38611e-06 -0.00429084
0.000643015 0.00145549 -0.000188448
0.00145549 0.00941845 -8.11942e-05
-0.000188448 -8.11942e-05 0.00316501
0.000861373 0.000158929 1.11182e-06
0.000158929 0.000300851 1.18586e-07
1.11182e-06 1.18586e-07 0.000139298
0.000242034 0.000114947 8.0848e-06
0.000114947 -7.83185e-05 4.89225e-06
8.0848e-06 4.89225e-06 -0.000240322
0.00140379 0.000245358 1.28354e-05
0.000245358 0.000641022 1.29228e-05
1.28354e-05 1.29228e-05 0.000476285
0.00800698 -0.000855408 -0.000220424
-0.000855408 -4.99617e-05 0.000192796
-0.000220424 0.000192796 -0.00183166
0.00639073 -0.00188439 0.00014079
-0.00188439 0.00343184 2.71108e-05
0.00014079 2.71108e-05 0.0015876
0.00467313 -0.00285318 0.000303298
-0.00285318 0.00197268 -0.000327805
0.000303298 -0.000327805 -0.00304252
0.00975111 -0.00386382 -2.38868e-05
-0.00386382 -0.000300847 -4.15328e-05
-2.38868e-05 -4.15328e-05 0.00109008
0.00262131 -0.00537309 -0.000695325
-0.00537309 -0.00226393 6.53374e-05
-0.000695325 6.53374e-05 -0.0038392
0.0292507 0.00563758 0.000470414
0.00563758 0.0135325 0.000259947
0.000470414 0.000259947 0.00585618
0.00825618 -0.000719018 0.000408705
-0.000719018 -0.00193334 -0.000313542
0.000408705 -0.000313542 -0.00303727
0.00267558 -0.00349382 -1.99253e-05
-0.00349382 -0.000876635 1.83715e-05
-1.99253e-05 1.83715e-05 0.000395822
0.0067966 -0.00615131 -0.000205924
-0.00615131 0.00260171 1.35428e-05
-0.000205924 1.35428e-05 -0.00240441
0.00342938 0.00440905 -0.000113535
0.00440905 0.00621905 -0.000372997
-0.000113535 -0.000372997 7.54923e-05
0.0120716 -0.000230199 -0.000123478
-0.000230199 -0.00308292 0.000170946
-0.000123478 0.000170946 -0.000959004
-0.00118566 -0.00229408 -0.000166744
-0.00229408 0.0002344 8.48931e-05
-0.000166744 8.48931e-05 -0.000259252
0.00912527 -0.00356483 -0.000429187
-0.00356483 0.00595618 0.000245027
-0.000429187 0.000245027 0.000136
0.00291061 -0.000190629 5.48267e-05
-0.000190629 0.00295029 -0.000341883
5.48267e-05 -0.000341883 -0.00165899
0.00974046 7.65959e-05 0.000110935
7.65959e-05 -0.00164626 0.000136602
0.000110935 0.000136602 -0.00159011
-0.000144764 9.72371e-05 1.072e-05
9.72371e-05 -0.000275717 2.26095e-05
1.072e-05 2.26095e-05 -0.000413521
0.000671838 2.0919e-05 1.90825e-06
2.0919e-05 0.000278696 -2.50978e-06
1.90825e-06 -2.50978e-06 4.86537e-05
0.000299614 -0.000188841 6.8064e-06
-0.000188841 1.34581e-05 -1.11696e-05
6.8064e-06 -1.11696e-05 -0.000212031
0.000642905 0.00016621 -2.13314e-06
0.00016621 0.000142743 2.34952e-06
-2.13314e-06 2.34952e-06 -1.66504e-05
0.000891821 0.000187551 3.80597e-06
0.000187551 0.000383424 -8.62533e-06
3.80597e-06 -8.62533e-06 0.000173026
0.00124228 0.000233859 -5.48182e-06
0.000233859 0.000592881 -6.49644e-06
-5.48182e-06 -6.49644e-06 0.000389297
0.000964843 -0.00157543 6.82572e-05
-0.00157543 -0.000204055 -1.87228e-05
6.82572e-05 -1.87228e-05 -0.000462533
-6.76414e-05 -0.000474365 1.25068e-05
-0.000474365 -0.000315372 -2.8378e-05
1.25068e-05 -2.8378e-05 -0.000274826
0.000191412 0.000140461 -2.98082e-06
0.000140461 4.32119e-05 -2.07857e-05
-2.98082e-06 -2.07857e-05 -0.000202461
0.00287183 -0.000576489 8.4074e-05
-0.000576489 0.00182021 -4.11958e-05
8.4074e-05 -4.11958e-05 0.00137393
0.00234013 -0.000166811 7.79401e-06
-0.000166811 0.00148411 -5.92171e-06
7.79401e-06 -5.92171e-06 0.00114865
-0.000448364 9.60626e-05 7.97988e-06
9.60626e-05 -0.000284007 2.51422e-06
7.97988e-06 2.51422e-06 -0.000498377
0.000150787 5.86875e-05 3.31942e-06
5.86875e-05 0.000305579 1.55555e-06
3.31942e-06 1.55555e-06 -7.01428e-05
0.00190023 -0.00181663 -5.70583e-05
-0.00181663 0.000971626 1.87725e-06
-5.70583e-05 1.87725e-06 0.000290448
0.000136322 -4.30832e-05 -6.286e-06
-4.30832e-05 0.000553163 1.24549e-06
-6.286e-06 1.24549e-06 -4.44323e-05
0.000207495 -0.00043266 -1.40652e-05
-0.00043266 0.000527852 -2.20478e-06
-1.40652e-05 -2.20478e-06 -3.90021e-05
0.000941399 0.000220824 5.44297e-06
0.000220824 0.000756608 -1.12672e-05
5.44297e-06 -1.12672e-05 0.000445105
-0.00263026 -0.000429509 -3.51401e-05
-0.000429509 -0.000188721 -1.72052e-05
-3.51401e-05 -1.72052e-05 -0.00121631
0.000407699 -0.000217753 -1.77738e-05
-0.000217753 0.00103023 -6.17859e-06
-1.77738e-05 -6.17859e-06 0.000361548
-0.00199449 -4.77785e-05 -2.21983e-05
-4.77785e-05 -0.000462396 -1.57922e-07
-2.21983e-05 -1.57922e-07 -0.00108394
0.000317525 0.000405579 -1.04137e-05
0.000405579 -0.000403878 1.58495e-06
-1.04137e-05 1.58495e-06 -0.00286435
-0.00204754 0.000497117 0.000121497
0.000497117 0.00257175 -4.87962e-06
0.000121497 -4.87962e-06 0.000742049
-0.0010903 -0.000102201 0.000422244
-0.000102201 0.000526741 4.49591e-05
0.000422244 4.49591e-05 -0.00451717
0.000248711 0.000708759 8.7919e-06
0.000708759 0.000365319 1.94144e-05
8.7919e-06 1.94144e-05 -0.000201303
0.000151402 0.00110441 -2.06725e-05
0.00110441 0.000611275 -2.7244e-05
-2.06725e-05 -2.7244e-05 -0.000275694
-0.00269156 0.000285179 -0.000120678
0.000285179 0.00112892 -4.43532e-05
-0.000120678 -4.43532e-05 -0.000647307
-0.00448552 0.000863366 0.000131988
0.000863366 0.00347388 0.000224503
0.000131988 0.000224503 -0.00253353
0.00117635 0.000729362 -0.000156077
0.000729362 -0.00172786 -0.000491418
-0.000156077 -0.000491418 -0.00750985
0.00500504 -5.21628e-05 0.000109287
-5.21628e-05 -0.000204467 6.04206e-05
0.000109287 6.04206e-05 -0.000886671
0.00743957 -0.000456133 -0.000385028
-0.000456133 -0.00195856 0.000293208
-0.000385028 0.000293208 -0.0031383
0.000253295 0.000518592 -3.78647e-06
0.000518592 0.00066739 -3.62195e-07
-3.78647e-06 -3.62195e-07 5.29256e-05
0.00147557 0.000175498 4.69092e-05
0.000175498 0.00114013 1.46802e-05
4.69092e-05 1.46802e-05 -8.82569e-05
0.00529881 -0.00139955 -0.000130948
-0.00139955 0.00334839 -1.27379e-05
-0.000130948 -1.27379e-05 0.00153016
-0.000319086 0.000870755 -0.000151298
0.000870755 0.00190566 -1.43314e-05
-0.000151298 -1.43314e-05 4.2614e-05
0.0192062 0.00625589 -0.000142431
0.00625589 0.0068493 -0.00047574
-0.000142431 -0.00047574 0.00236014
0.00499315 0.00384667 9.86397e-05
0.00384667 0.00647938 0.000400541
9.86397e-05 0.000400541 -0.000189549
0.00560651 0.00137372 7.79785e-05
0.00137372 0.00664371 -1.08457e-05
7.79785e-05 -1.08457e-05 -0.00108284
0.000216471 3.86907e-05 2.81317e-05
3.86907e-05 0.00151042 -1.99164e-05
2.81317e-05 -1.99164e-05 0.000165234
0.000189906 -0.000124105 -0.00020121
-0.000124105 0.00408662 2.11427e-07
-0.00020121 2.11427e-07 0.00238548
0.00117543 -0.000955715 0.000852117
-0.000955715 0.000540449 -0.000278843
0.000852117 -0.000278843 -0.00495755
0.0269074 0.0104958 -0.000120702
0.0104958 0.018519 -4.79363e-05
-0.000120702 -4.79363e-05 0.0118119
0.0128509 0.00468921 0.000123295
0.00468921 0.00504288 0.00102232
0.000123295 0.00102232 -0.00175982
0.0123349 -0.00479637 0.000428443
-0.00479637 0.00700183 -0.000305856
0.000428443 -0.000305856 2.26428e-05
0.00213723 -0.00080837 -7.58747e-05
-0.00080837 0.00339093 4.67746e-05
-7.58747e-05 4.67746e-05 0.00213761
0.000924506 0.000288166 -4.81797e-06
0.000288166 0.00100134 3.48597e-06
-4.81797e-06 3.48597e-06 0.000492204
-1.12949e-06 -9.01116e-05 -8.67952e-07
-9.01116e-05 0.000593381 -5.42632e-06
-8.67952e-07 -5.42632e-06 1.31686e-05
0.00105969 -0.000602235 5.16114e-05
-0.000602235 0.000938237 -1.56896e-05
5.16114e-05 -1.56896e-05 0.000278201
0.000260934 -7.52407e-05 -3.91248e-06
-7.52407e-05 0.00029101 1.245e-05
-3.91248e-06 1.245e-05 3.71359e-05
-0.000107538 -0.000102463 -5.23594e-06
-0.000102463 0.000307373 -1.95622e-05
-5.23594e-06 -1.95622e-05 -0.000138781
0.000744083 -0.00033771 -5.09788e-06
-0.00033771 0.000727793 9.10311e-07
-5.09788e-06 9.10311e-07 0.000351794
0.00120985 -0.000768313 2.95888e-05
-0.000768313 0.000591017 -1.68721e-05
2.95888e-05 -1.68721e-05 0.000163728
0.000868144 -0.000384285 2.91842e-06
-0.000384285 0.000433163 7.94601e-07
2.91842e-06 7.94601e-07 0.000145592
0.00139313 -0.000693824 1.80498e-05
-0.000693824 0.00064151 -4.09425e-06
1.80498e-05 -4.09425e-06 0.00018031
0.00146503 -0.000774972 1.24181e-05
-0.000774972 0.000645238 -1.96601e-06
1.24181e-05 -1.96601e-06 -0.000114705
0.000507279 -0.000398113 -8.75165e-06
-0.000398113 3.92743e-05 -6.03596e-06
-8.75165e-06 -6.03596e-06 -0.000203936
0.00232877 -0.000815534 -3.66036e-06
-0.000815534 0.000947651 -1.66519e-06
-3.66036e-06 -1.66519e-06 0.000365369
0.00177779 -0.00094458 -1.4356e-05
-0.00094458 0.000479868 -1.65809e-06
-1.4356e-05 -1.65809e-06 -0.000203093
0.00236923 -0.00109883 -1.39835e-05
-0.00109883 0.00064335 8.89721e-07
-1.39835e-05 8.89721e-07 3.24936e-05
0.00214158 -0.000956412 -4.66999e-06
-0.000956412 0.000694712 -1.05087e-06
-4.66999e-06 -1.05087e-06 0.000126054
0.00172075 -0.000827519 -5.44446e-06
-0.000827519 0.000506072 7.96216e-07
-5.44446e-06 7.96216e-07 -4.545e-05
0.00127345 -0.000607616 8.24844e-08
-0.000607616 0.000351458 -7.0276e-06
8.24844e-08 -7.0276e-06 -9.07137e-05
0.00161418 -0.000701114 8.02104e-06
-0.000701114 0.000496977 -5.6408e-06
8.02104e-06 -5.6408e-06 2.40825e-05
0.0017636 -0.000760575 7.86426e-06
-0.000760575 0.000535182 -1.40746e-06
7.86426e-06 -1.40746e-06 3.89523e-05
0.00143403 -0.000354116 2.72576e-06
-0.000354116 0.000504063 1.30575e-07
2.72576e-06 1.30575e-07 0.000203561
0.00117355 -0.000514296 6.4549e-06
-0.000514296 0.000298565 -4.24314e-06
6.4549e-06 -4.24314e-06 -8.88902e-05
-0.000241266 -0.000440261 -1.14019e-05
-0.000440261 -0.000637101 -3.87333e-06
-1.14019e-05 -3.87333e-06 -0.00104423
0.000210349 -0.000127997 -9.88946e-09
-0.000127997 -8.85989e-05 -6.06269e-06
-9.88946e-09 -6.06269e-06 -0.000371673
0.000899558 -0.000277633 -7.99601e-07
-0.000277633 0.000285651 -7.10939e-07
-7.99601e-07 -7.10939e-07 -3.86075e-07
-5.23219e-05 -0.000314197 -6.82141e-06
-0.000314197 -0.000385378 -1.40301e-06
-6.82141e-06 -1.40301e-06 -0.000683119
0.000298597 -8.38294e-05 -5.3072e-07
-8.38294e-05 -7.6768e-05 6.89179e-06
-5.3072e-07 6.89179e-06 -0.00024068
0.000802138 -0.000151147 -1.4589e-08
-0.000151147 0.000311628 4.103e-07
-1.4589e-08 4.103e-07 4.25766e-05
-0.000236732 -0.000209514 -7.76258e-07
-0.000209514 -0.000285743 4.8311e-06
-7.76258e-07 4.8311e-06 -0.000588702
0.00155063 -0.000217889 -2.95056e-08
-0.000217889 0.000766296 2.09512e-06
-2.95056e-08 2.09512e-06 0.000540321
0.00069614 -8.8452e-05 -3.75742e-07
-8.8452e-05 0.000166274 -2.48991e-07
-3.75742e-07 -2.48991e-07 3.22047e-05
0.000339102 1.59406e-05 3.05203e-06
1.59406e-05 -7.23468e-05 1.18485e-05
3.05203e-06 1.18485e-05 -0.000127162
0.000734892 -8.8206e-05 4.50985e-07
-8.8206e-05 0.00018973 -4.94978e-06
4.50985e-07 -4.94978e-06 7.47235e-05
0.000444004 -1.43519e-07 -4.34129e-06
-1.43519e-07 -1.62086e-05 -3.49755e-07
-4.34129e-06 -3.49755e-07 -6.00638e-05
0.00307715 0.000100346 -4.66737e-05
0.000100346 0.00167621 5.44369e-06
-4.66737e-05 5.44369e-06 0.00167817
0.000480932 -2.67915e-05 3.00733e-06
-2.67915e-05 8.3603e-07 -7.53613e-06
3.00733e-06 -7.53613e-06 -3.64704e-05
0.00188793 6.22539e-05 2.58824e-05
6.22539e-05 0.000903272 -7.26942e-07
2.58824e-05 -7.26942e-07 0.000903372
0.00286176 5.58503e-05 3.77763e-05
5.58503e-05 0.00152767 -5.78199e-06
3.77763e-05 -5.78199e-06 0.00153673
0.000817365 0.000118346 6.11086e-06
0.000118346 0.000272831 -2.0879e-06
6.11086e-06 -2.0879e-06 0.000111683
0.000499859 6.07723e-05 3.97337e-06
6.07723e-05 4.33866e-05 -3.34433e-06
3.97337e-06 -3.34433e-06 -5.39928e-05
0.000403843 5.92886e-05 -4.0156e-07
5.92886e-05 1.55682e-05 -1.15866e-06
-4.0156e-07 -1.15866e-06 -0.000135258
0.00045371 1.52692e-05 1.37036e-06
1.52692e-05 -2.20905e-05 -6.72913e-06
1.37036e-06 -6.72913e-06 -4.72578e-05
0.00027392 4.5728e-05 -2.46913e-06
4.5728e-05 -0.000101085 -2.23522e-06
-2.46913e-06 -2.23522e-06 -0.000189616
0.000655781 9.70618e-05 -2.02221e-06
9.70618e-05 0.000183998 -3.01644e-06
-2.02221e-06 -3.01644e-06 3.91183e-05
0.00224246 -3.18424e-05 -2.2315e-05
-3.18424e-05 0.00112725 -5.40186e-06
-2.2315e-05 -5.40186e-06 0.00114214
0.000429763 -2.78165e-07 6.04264e-07
-2.78165e-07 -3.96507e-05 -2.08883e-07
6.04264e-07 -2.08883e-07 -5.77772e-05
0.000103907 2.04524e-05 -2.02693e-06
2.04524e-05 -0.000211812 1.08074e-06
-2.02693e-06 1.08074e-06 -0.00029127
0.0021497 -1.50626e-05 -5.89298e-06
-1.50626e-05 0.00106751 1.287e-07
-5.89298e-06 1.287e-07 0.00108404
0.000429947 2.60303e-06 -3.54135e-06
2.60303e-06 -3.99246e-05 4.43092e-06
-3.54135e-06 4.43092e-06 -5.35715e-05
0.00211885 8.8953e-07 1.45183e-05
8.8953e-07 0.00104886 5.24862e-06
1.45183e-05 5.24862e-06 0.00106561
0.00218086 -0.000361145 -0.000110972
-0.000361145 0.000996248 2.83128e-05
-0.000110972 2.83128e-05 -0.000300475
-0.00140589 -0.000152988 0.000110258
-0.000152988 0.00314871 -5.26772e-06
0.000110258 -5.26772e-06 0.00124463
-0.000922766 -0.000389918 0.000170607
-0.000389918 0.00113435 -0.00022953
0.000170607 -0.00022953 -0.0044118
-0.000189173 1.63173e-05 4.38949e-06
1.63173e-05 -0.000291019 2.71803e-07
4.38949e-06 2.71803e-07 -0.00051686
0.00307833 0.00020277 5.3947e-06
0.00020277 0.00172438 6.8498e-06
5.3947e-06 6.8498e-06 0.0015124
0.000539439 0.000156967 -4.82823e-06
0.000156967 9.87992e-05 -7.90684e-06
-4.82823e-06 -7.90684e-06 -6.00557e-05
4.63886e-05 7.2139e-05 1.19282e-06
7.2139e-05 -0.000219903 -8.96804e-07
1.19282e-06 -8.96804e-07 -0.000377415
0.000148693 9.11296e-05 1.66426e-07
9.11296e-05 -0.000184275 -1.75961e-06
1.66426e-07 -1.75961e-06 -0.000305907
0.000103078 9.15593e-05 6.40278e-06
9.15593e-05 -0.000175892 4.58937e-06
6.40278e-06 4.58937e-06 -0.000329338
-0.000185458 8.08965e-05 1.66825e-05
8.08965e-05 -0.00033894 4.85817e-06
1.66825e-05 4.85817e-06 -0.000442297
0.00322517 0.00167124 0.000282871
0.00167124 -0.000183634 0.000262454
0.000282871 0.000262454 -0.00197896
0.00657673 -0.000469317 -8.705e-05
-0.000469317 9.91007e-05 4.97786e-05
-8.705e-05 4.97786e-05 -0.00167664
0.00482182 -0.000965393 0.000365691
-0.000965393 0.00372442 -0.000130965
0.000365691 -0.000130965 0.00159533
0.00978452 -0.000120502 -9.80251e-06
-0.000120502 -0.00547739 0.000190663
-9.80251e-06 0.000190663 -0.00264303
0.00707802 -0.00449993 -0.000159052
-0.00449993 0.00109744 3.46805e-05
-0.000159052 3.46805e-05 0.00171746
0.001122 -0.00539242 -0.000390978
-0.00539242 0.00183999 0.000142551
-0.000390978 0.000142551 -0.00449285
0.0204942 0.00486782 0.000205234
0.00486782 0.00847301 -0.000232278
0.000205234 -0.000232278 0.00254533
0.002414 -0.00340071 -6.68979e-05
-0.00340071 0.00026397 3.69021e-05
-6.68979e-05 3.69021e-05 0.000787215
-0.00123363 -0.00124224 -8.42646e-05
-0.00124224 0.00493184 5.51759e-05
-8.42646e-05 5.51759e-05 -0.00315494
0.0122446 0.000397445 0.000284504
0.000397445 0.00467469 -4.04179e-05
0.000284504 -4.04179e-05 0.000243036
0.0178521 -0.00196088 -8.51876e-05
-0.00196088 0.00245189 -8.91833e-06
-8.51876e-05 -8.91833e-06 0.0031285
-0.00397571 -0.000557691 -0.000208241
-0.000557691 -0.000407856 0.00020269
-0.000208241 0.00020269 -0.000888647
0.00201488 0.00194912 -0.00025847
0.00194912 0.0056799 -0.000151561
-0.00025847 -0.000151561 -0.00248137
0.00293599 -0.00639051 -1.15704e-06
-0.00639051 0.00108672 -0.000251847
-1.15704e-06 -0.000251847 -0.00544502
0.0172112 -0.00307267 0.000262301
-0.00307267 0.00662651 -0.000731189
0.000262301 -0.000731189 0.0034591
0.000166145 -1.39912e-06 2.42339e-05
-1.39912e-06 0.000211551 -2.03227e-06
2.42339e-05 -2.03227e-06 -0.000119835
0.000695815 0.000196857 -2.27393e-06
0.000196857 0.00028104 -4.01535e-06
-2.27393e-06 -4.01535e-06 0.000125189
0.000766513 -1.53838e-06 -2.61476e-07
-1.53838e-06 0.000356621 -6.63976e-06
-2.61476e-07 -6.63976e-06 0.000103904
0.000918946 0.000178829 -3.28758e-06
0.000178829 0.000345291 -1.30793e-05
-3.28758e-06 -1.30793e-05 0.000168249
0.00101594 -0.0014733 0.000100108
-0.0014733 0.000476049 2.87674e-05
0.000100108 2.87674e-05 -0.000187359
0.00101864 -0.000413888 6.22267e-06
-0.000413888 0.00109766 -2.40829e-05
6.22267e-06 -2.40829e-05 0.000412271
0.000605616 0.000107302 -2.26366e-05
0.000107302 0.000363264 -2.30711e-05
-2.26366e-05 -2.30711e-05 0.000169101
0.000989875 -2.72408e-05 7.88279e-07
-2.72408e-05 0.000750615 -1.50332e-05
7.88279e-07 -1.50332e-05 0.000437212
0.000205605 -4.97027e-05 2.58999e-07
-4.97027e-05 0.0006051 8.23904e-06
2.58999e-07 8.23904e-06 8.5553e-05
0.000105775 9.45584e-05 2.11151e-06
9.45584e-05 0.000177175 3.74154e-06
2.11151e-06 3.74154e-06 -8.86163e-05
0.000492638 -4.20411e-05 8.27503e-07
-4.20411e-05 0.000866326 1.68994e-06
8.27503e-07 1.68994e-06 0.000314202
0.000255391 -0.000875336 3.53808e-06
-0.000875336 0.00119446 -3.7118e-06
3.53808e-06 -3.7118e-06 -0.000234082
0.000529722 -0.000146176 -4.14273e-06
-0.000146176 0.00123119 -1.16034e-05
-4.14273e-06 -1.16034e-05 0.000592489
7.28355e-05 0.000124686 2.31998e-06
0.000124686 0.000298546 -8.06905e-06
2.31998e-06 -8.06905e-06 -1.32223e-05
-0.000378237 0.000315043 -0.000184746
0.000315043 0.00279554 -1.8559e-05
-0.000184746 -1.8559e-05 0.000611313
0.000442967 0.000365472 -1.44158e-05
0.000365472 0.00107462 6.08377e-06
-1.44158e-05 6.08377e-06 0.000450067
-0.00280286 -1.32374e-05 -9.74674e-05
-1.32374e-05 0.00275703 -6.42082e-05
-9.74674e-05 -6.42082e-05 0.00099403
0.00153315 0.000153759 2.73054e-05
0.000153759 0.000449415 1.33768e-05
2.73054e-05 1.33768e-05 -0.000957806
-0.00386041 0.000768254 -6.18002e-05
0.000768254 0.00199115 -8.72822e-05
-6.18002e-05 -8.72822e-05 -8.04694e-05
0.000342939 0.0004153 -2.04454e-05
0.0004153 0.000828071 2.64326e-06
-2.04454e-05 2.64326e-06 0.000304524
-0.00133091 0.00105152 0.000206689
0.00105152 0.000639186 0.000115143
0.000206689 0.000115143 -0.000395527
0.000986721 6.74055e-05 9.26145e-05
6.74055e-05 0.00118334 -9.70137e-06
9.26145e-05 -9.70137e-06 0.000235015
0.00678881 -0.00242238 0.00034377
-0.00242238 0.00665492 -0.000201738
0.00034377 -0.000201738 -0.00246293
0.0220731 0.00437062 -0.000239281
0.00437062 0.00888933 0.000217767
-0.000239281 0.000217767 0.00278202
0.0031954 -0.000854349 -0.00032821
-0.000854349 0.00253169 0.000103032
-0.00032821 0.000103032 0.000616312
0.0148229 0.0053254 -0.000184415
0.0053254 0.00861768 -0.000277848
-0.000184415 -0.000277848 0.00440334
0.000456956 0.00025763 -5.20429e-05
0.00025763 0.00147573 9.57958e-06
-5.20429e-05 9.57958e-06 0.000191975
-0.000206669 -0.000394405 -0.000114634
-0.000394405 0.00312017 1.50682e-06
-0.000114634 1.50682e-06 0.00173025
0.00274474 -0.00189837 0.000307931
-0.00189837 0.00183671 -5.59749e-05
0.000307931 -5.59749e-05 -0.00350966
-0.00362747 -3.94684e-05 6.18478e-05
-3.94684e-05 -0.00011153 3.69407e-05
6.18478e-05 3.69407e-05 -0.000801409
0.0218739 0.0124131 0.000843828
0.0124131 0.0153709 -0.000302701
0.000843828 -0.000302701 0.00831154
0.0108733 0.00339339 -0.000170766
0.00339339 0.00648466 0.000435752
-0.000170766 0.000435752 -4.63354e-05
-0.0024106 -0.0015412 0.00023544
-0.0015412 0.00355821 -0.000178643
0.00023544 -0.000178643 -0.0048719
-0.00177526 -0.000535193 -2.31142e-05
-0.000535193 0.000434013 -3.18228e-05
-2.31142e-05 -3.18228e-05 -0.000888987
0.000950108 -0.00112235 0.000383363
-0.00112235 -1.96148e-05 -9.91628e-05
0.000383363 -9.91628e-05 -0.00410869
0.00139962 0.00195666 -0.0018288
0.00195666 0.00964902 0.000388283
-0.0018288 0.000388283 0.00382582
0.0232417 0.00848413 -0.000702791
0.00848413 0.00846741 0.00049136
-0.000702791 0.00049136 0.00160265
0.00635841 -0.00448821 -0.000230778
-0.00448821 0.0034411 0.000101689
-0.000230778 0.000101689 -8.58409e-05
0.00350548 -0.0022902 5.32506e-05
-0.0022902 0.00382873 1.57151e-05
5.32506e-05 1.57151e-05 0.00249232
8.1268e-05 -7.70101e-05 2.29788e-06
-7.70101e-05 0.000594474 -1.67049e-05
2.29788e-06 -1.67049e-05 -4.20758e-05
2.69725e-05 -0.000451243 4.64026e-06
-0.000451243 0.000463905 -2.05228e-06
4.64026e-06 -2.05228e-06 -0.000231855
0.00113988 -0.00109389 -1.85181e-06
-0.00109389 0.000759679 6.88828e-07
-1.85181e-06 6.88828e-07 0.000206292
-0.000214202 -0.000197076 -4.55652e-06
-0.000197076 0.00028727 8.55576e-06
-4.55652e-06 8.55576e-06 -9.6858e-05
0.000203689 -0.000546721 -1.97943e-06
-0.000546721 0.000188871 6.38798e-06
-1.97943e-06 6.38798e-06 -0.000186983
0.00262261 -0.00103767 4.04647e-05
-0.00103767 0.00106457 -3.12771e-05
4.04647e-05 -3.12771e-05 0.000559906
0.00634872 -0.00136784 -1.42461e-05
-0.00136784 0.00334164 1.71352e-07
-1.42461e-05 1.71352e-07 0.0027824
0.0027413 -0.000959575 1.07266e-05
-0.000959575 0.00126583 -3.99388e-06
1.07266e-05 -3.99388e-06 0.000511921
0.00234175 -0.00113275 3.25642e-06
-0.00113275 0.000700791 -2.0477e-05
3.25642e-06 -2.0477e-05 -5.04251e-05
0.00244127 -0.000824782 -1.32759e-05
-0.000824782 0.000981014 -7.00978e-06
-1.32759e-05 -7.00978e-06 0.00041694
0.00221367 -0.0010097 5.55066e-07
-0.0010097 0.000713188 -1.93883e-06
5.55066e-07 -1.93883e-06 1.16694e-05
0.00280556 -0.00118926 -8.62499e-06
-0.00118926 0.000900664 -1.02892e-05
-8.62499e-06 -1.02892e-05 0.000216555
0.00240377 -0.000900877 -1.78472e-06
-0.000900877 0.00044578 -5.97418e-06
-1.78472e-06 -5.97418e-06 -2.35833e-06
0.00279918 -0.00113461 -1.09675e-05
-0.00113461 0.000851861 2.2752e-07
-1.09675e-05 2.2752e-07 0.00026415
0.00262722 -0.00113288 -4.0605e-06
-0.00113288 0.000780627 -2.45632e-08
-4.0605e-06 -2.45632e-08 0.000159032
0.00195835 -0.000919423 6.25718e-06
-0.000919423 0.000600675 -5.91531e-06
6.25718e-06 -5.91531e-06 5.57383e-05
0.00170308 -0.000882282 3.24256e-06
-0.000882282 0.000444439 -1.34639e-06
3.24256e-06 -1.34639e-06 -9.79715e-05
0.00149789 -0.000795239 7.07436e-06
-0.000795239 0.00036417 -1.00413e-06
7.07436e-06 -1.00413e-06 -0.000182947
0.00148213 -0.000595481 8.02217e-06
-0.000595481 0.00045945 3.19714e-06
8.02217e-06 3.19714e-06 3.22195e-05
0.00175194 -0.000717402 -1.04109e-06
-0.000717402 0.00059242 -2.13045e-06
-1.04109e-06 -2.13045e-06 0.000113941
0.00173988 -0.000769916 4.3337e-06
-0.000769916 0.000521909 5.9819e-06
4.3337e-06 5.9819e-06 2.43917e-05
0.00142949 -0.000229559 2.34109e-07
-0.000229559 0.000537103 -5.12395e-06
2.34109e-07 -5.12395e-06 0.000286255
0.00086036 -0.00030761 -3.10229e-06
-0.00030761 0.000165641 2.53033e-06
-3.10229e-06 2.53033e-06 -0.000122804
0.0006443 -0.000459267 -5.04965e-06
-0.000459267 -4.83265e-05 -8.66832e-06
-5.04965e-06 -8.66832e-06 -0.000421319
1.20925e-05 -9.42193e-05 -1.70211e-06
-9.42193e-05 -0.000233474 3.05788e-06
-1.70211e-06 3.05788e-06 -0.000462834
0.000853056 -0.000239307 1.25092e-07
-0.000239307 0.000326074 9.33128e-07
1.25092e-07 9.33128e-07 3.02442e-05
0.0006074 -0.000291956 9.79391e-07
-0.000291956 0.00014582 1.47819e-06
9.79391e-07 1.47819e-06 -0.000161234
0.000364803 -3.93549e-05 -8.89855e-06
-3.93549e-05 -7.46342e-05 1.72753e-05
-8.89855e-06 1.72753e-05 -0.000131873
0.000672749 -0.000105832 5.61974e-07
-0.000105832 0.000150437 3.78708e-07
5.61974e-07 3.78708e-07 -1.42236e-05
0.00163706 -0.000244354 -6.50295e-07
-0.000244354 0.00082667 4.76031e-06
-6.50295e-07 4.76031e-06 0.000559699
0.000853951 -0.000102775 4.83973e-07
-0.000102775 0.000263176 -6.30317e-06
4.83973e-07 -6.30317e-06 0.000126333
0.000407981 -2.92408e-06 -8.82418e-07
-2.92408e-06 -3.69518e-05 -5.68271e-07
-8.82418e-07 -5.68271e-07 -8.83542e-05
0.00322208 0.0001299 -4.6412e-05
0.0001299 0.00177983 5.64268e-06
-4.6412e-05 5.64268e-06 0.00177485
0.000516557 -1.86159e-05 3.07967e-06
-1.86159e-05 2.30418e-05 -9.23275e-06
3.07967e-06 -9.23275e-06 -1.77895e-05
0.003014 0.000101497 5.93558e-06
0.000101497 0.00163512 7.55416e-07
5.93558e-06 7.55416e-07 0.0016371
0.00286957 7.68338e-05 4.14393e-05
7.68338e-05 0.00153505 -5.36576e-06
4.14393e-05 -5.36576e-06 0.00154171
0.00159595 0.000102876 6.47396e-06
0.000102876 0.000924084 -7.71229e-06
6.47396e-06 -7.71229e-06 0.000624818
0.00165163 0.000204255 8.24428e-06
0.000204255 0.000910976 -7.99589e-06
8.24428e-06 -7.99589e-06 0.000659548
0.000542234 4.79337e-05 6.32207e-06
4.79337e-05 6.2749e-05 -6.19671e-06
6.32207e-06 -6.19671e-06 -4.71453e-05
0.000693767 0.000135983 -1.61636e-07
0.000135983 0.000214253 5.89077e-07
-1.61636e-07 5.89077e-07 4.61578e-05
0.000425492 -7.94535e-06 4.11573e-06
-7.94535e-06 -3.70196e-05 -8.06525e-06
4.11573e-06 -8.06525e-06 -6.75213e-05
0.000523321 6.39082e-05 1.63976e-07
6.39082e-05 5.89429e-05 -2.94696e-07
1.63976e-07 -2.94696e-07 -3.85685e-05
0.000631263 6.55402e-05 -6.53043e-06
6.55402e-05 0.000149176 -2.89155e-06
-6.53043e-06 -2.89155e-06 4.24604e-06
0.00245409 -4.96482e-05 -2.89476e-05
-4.96482e-05 0.00126587 -5.73131e-06
-2.89476e-05 -5.73131e-06 0.00127784
0.000442451 6.91392e-06 -1.01735e-06
6.91392e-06 -2.85554e-05 -1.64131e-07
-1.01735e-06 -1.64131e-07 -5.31423e-05
0.000498722 6.85428e-05 -5.01986e-06
6.85428e-05 4.59041e-05 1.01645e-06
-5.01986e-06 1.01645e-06 -4.34027e-05
0.00225726 -3.1856e-05 -5.18579e-06
-3.1856e-05 0.00113684 2.84491e-07
-5.18579e-06 2.84491e-07 0.00115174
0.000440971 3.65176e-06 -3.60775e-06
3.65176e-06 -3.33201e-05 4.91791e-06
-3.60775e-06 4.91791e-06 -5.08999e-05
0.00214409 -1.48551e-05 1.7837e-05
-1.48551e-05 0.00106369 5.13427e-06
1.7837e-05 5.13427e-06 0.00108025
-0.00268871 0.000605801 -1.9137e-05
0.000605801 0.00132851 -9.641e-05
-1.9137e-05 -9.641e-05 -0.000194229
0.00264199 -0.000298636 -1.96682e-05
-0.000298636 0.00154523 -3.25096e-05
-1.96682e-05 -3.25096e-05 0.000466559
3.4694e-05 -0.000329065 2.38508e-05
-0.000329065 0.00296255 -5.42875e-05
2.38508e-05 -5.42875e-05 0.00142326
0.000582793 7.53515e-05 2.20414e-06
7.53515e-05 0.000270848 -5.35154e-06
2.20414e-06 -5.35154e-06 -1.73489e-05
5.4578e-05 0.000146805 6.89453e-06
0.000146805 -0.000169583 -3.44934e-06
6.89453e-06 -3.44934e-06 -0.000375649
-0.00191152 8.24132e-06 1.22585e-05
8.24132e-06 -0.00151161 -1.10767e-05
1.22585e-05 -1.10767e-05 -0.00169062
-0.00186286 -1.11823e-05 -4.81252e-06
-1.11823e-05 -0.00127083 1.85799e-05
-4.81252e-06 1.85799e-05 -0.00152981
0.00242586 0.000370327 3.27578e-06
0.000370327 0.00130444 -1.13117e-06
3.27578e-06 -1.13117e-06 0.00101874
0.000758228 4.94788e-05 -6.30997e-06
4.94788e-05 0.000229685 -2.07421e-06
-6.30997e-06 -2.07421e-06 5.70687e-05
0.000239794 0.000121093 -1.01862e-05
0.000121093 -0.000100615 -1.20275e-05
-1.01862e-05 -1.20275e-05 -0.00022425
0.00118118 2.42873e-05 3.59132e-06
2.42873e-05 0.000497338 5.88811e-07
3.59132e-06 5.88811e-07 0.000352432
0.000992245 0.00019213 -1.87611e-06
0.00019213 0.000410076 -4.87513e-06
-1.87611e-06 -4.87513e-06 0.00029063
0.00243313 0.000190227 5.38769e-07
0.000190227 0.00150512 -1.84622e-05
5.38769e-07 -1.84622e-05 0.00121538
0.00745524 0.00175237 0.000590367
0.00175237 0.00517449 0.000582835
0.000590367 0.000582835 5.41498e-05
0.00326426 0.00130471 2.50698e-05
0.00130471 0.000592127 8.90829e-05
2.50698e-05 8.90829e-05 -0.00145444
0.00604695 -0.000318479 0.000107907
-0.000318479 -0.000178321 -1.52244e-05
0.000107907 -1.52244e-05 -0.00125873
0.0144995 -0.00113182 -0.000304728
-0.00113182 0.0021255 -0.000145916
-0.000304728 -0.000145916 0.00384238
-0.0010805 0.000980694 0.000113711
0.000980694 -0.00215993 0.000427812
0.000113711 0.000427812 -0.00783987
0.00275508 -0.00354389 -4.48218e-05
-0.00354389 0.00089857 -2.82545e-05
-4.48218e-05 -2.82545e-05 0.00113791
0.00536764 -0.002104 -0.000263818
-0.002104 0.00555046 6.70569e-05
-0.000263818 6.70569e-05 -0.000571191
0.000701775 -0.00149272 -0.000141202
-0.00149272 0.00132295 0.000140386
-0.000141202 0.000140386 0.000711685
0.0108687 -0.000173524 -0.000264937
-0.000173524 0.00797188 -2.28531e-06
-0.000264937 -2.28531e-06 0.000628902
0.008233 -0.00289884 0.000121022
-0.00289884 0.00497678 0.000232224
0.000121022 0.000232224 -0.00124769
0.0227171 -0.00531296 1.29109e-05
-0.00531296 0.00643131 -0.000873641
1.29109e-05 -0.000873641 0.00191955
0.000700979 0.00037149 -0.000150246
0.00037149 0.00311107 0.000103384
-0.000150246 0.000103384 0.00148812
0.00892883 0.00267502 -0.000289979
0.00267502 0.00683911 -5.9604e-05
-0.000289979 -5.9604e-05 0.000622506
0.0237489 -0.00883702 0.000156851
-0.00883702 0.0131308 -0.000913347
0.000156851 -0.000913347 0.00560539
0.029132 -0.0121169 0.000105145
-0.0121169 0.0144038 -7.88685e-05
0.000105145 -7.88685e-05 0.00765372
0.000681229 0.000321598 2.72036e-05
0.000321598 0.000468783 1.31179e-06
2.72036e-05 1.31179e-06 5.47381e-05
-2.18907e-05 5.30596e-05 7.24205e-06
5.30596e-05 0.000176376 1.57825e-06
7.24205e-06 1.57825e-06 -0.000206973
0.00125319 0.00021539 -2.43628e-05
0.00021539 0.000655059 -1.83172e-05
-2.43628e-05 -1.83172e-05 0.000480597
0.00459536 -0.00147544 0.000128266
-0.00147544 0.00311882 -1.62522e-05
0.000128266 -1.62522e-05 0.00131451
-0.000562248 -0.000165567 8.13098e-05
-0.000165567 0.000826184 -4.52862e-06
8.13098e-05 -4.52862e-06 0.000113181
-0.000592299 6.09028e-05 -6.93088e-06
6.09028e-05 -0.000266466 -1.35174e-06
-6.93088e-06 -1.35174e-06 -0.000521406
-0.000493537 -0.000162957 2.25375e-05
-0.000162957 0.000360684 -8.63879e-06
2.25375e-05 -8.63879e-06 -0.00027806
-0.000264786 0.000129815 -3.27268e-06
0.000129815 7.68077e-05 -3.56337e-07
-3.27268e-06 -3.56337e-07 -0.0002393
-0.000163217 0.000308991 1.92624e-05
0.000308991 0.000553472 5.16404e-06
1.92624e-05 5.16404e-06 -0.000103394
-0.00235521 9.154e-05 0.000192023
9.154e-05 0.00131331 -4.49737e-05
0.000192023 -4.49737e-05 -0.000826728
0.000742824 0.000701075 2.65924e-05
0.000701075 0.000433025 3.30391e-05
2.65924e-05 3.30391e-05 -2.79252e-05
0.00130569 0.000968177 -0.000133744
0.000968177 0.00175316 -0.000106873
-0.000133744 -0.000106873 3.64772e-05
0.000680228 9.17824e-06 0.000256046
9.17824e-06 0.00180036 9.33476e-05
0.000256046 9.33476e-05 -0.00327881
-0.00291602 0.000387832 -0.000132469
0.000387832 0.00251488 5.89972e-06
-0.000132469 5.89972e-06 0.000365808
0.00355321 -0.000359882 -7.22306e-05
-0.000359882 0.00173709 -1.83682e-06
-7.22306e-05 -1.83682e-06 0.00130109
0.000223685 0.000607852 9.1162e-05
0.000607852 0.00107772 1.79606e-05
9.1162e-05 1.79606e-05 -0.000264676
0.00106217 0.000313004 -0.000113869
0.000313004 0.00309742 0.000108385
-0.000113869 0.000108385 0.00131442
-0.000825222 -0.000276126 -1.03308e-05
-0.000276126 0.00246923 -4.13053e-05
-1.03308e-05 -4.13053e-05 0.000773762
0.0156503 -0.0053057 0.000317043
-0.0053057 0.00914176 -0.000183395
0.000317043 -0.000183395 0.00166407
0.0260999 0.00653048 -0.000448644
0.00653048 0.0132976 -0.000253232
-0.000448644 -0.000253232 0.00555149
0.00580798 -0.00232128 -0.000437009
-0.00232128 0.00315832 0.000320951
-0.000437009 0.000320951 -0.00155357
0.0145602 0.0146903 0.00310432
0.0146903 0.0111955 -0.00183108
0.00310432 -0.00183108 0.00376517
0.000749934 -0.000686004 4.46381e-05
-0.000686004 0.00164998 -1.30395e-05
4.46381e-05 -1.30395e-05 0.00025733
-0.000287804 -0.000762088 7.03212e-05
-0.000762088 0.000790635 8.98518e-06
7.03212e-05 8.98518e-06 -0.00401215
0.00352372 0.00254282 -0.00151095
0.00254282 0.00911306 0.000308488
-0.00151095 0.000308488 0.0028352
3.95571e-05 -0.00120825 4.07574e-05
-0.00120825 0.00164063 2.60628e-05
4.07574e-05 2.60628e-05 0.000548272
0.0238507 0.0081731 0.000448474
0.0081731 0.00895077 0.000137207
0.000448474 0.000137207 0.00214069
0.0076396 -0.00695418 0.000314788
-0.00695418 0.0028896 -9.00586e-05
0.000314788 -9.00586e-05 -0.00141114
0.00045307 -0.00180133 -6.47677e-06
-0.00180133 0.000693159 4.03259e-05
-6.47677e-06 4.03259e-05 -0.000527633
-0.00420597 -0.00203275 0.000199717
-0.00203275 0.0077167 -0.000105966
0.000199717 -0.000105966 0.00289907
0.0194709 0.0085404 -0.0020618
0.0085404 0.00797556 0.000510484
-0.0020618 0.000510484 0.00260661
0.00680233 -0.00552127 -0.000610908
-0.00552127 -0.00102368 0.000225793
-0.000610908 0.000225793 -0.00351806
-0.000600349 -0.00235487 0.000192866
-0.00235487 -0.000330748 -0.000141809
0.000192866 -0.000141809 0.000634057
0.00135247 -0.000660718 -0.000117035
-0.000660718 0.00104963 3.99271e-05
-0.000117035 3.99271e-05 0.000398979
0.000419047 -0.000832074 -1.75999e-05
-0.000832074 0.000431341 1.1933e-05
-1.75999e-05 1.1933e-05 -0.00013373
0.0022698 -0.00107529 2.41018e-05
-0.00107529 0.00101493 -3.33551e-05
2.41018e-05 -3.33551e-05 0.000498749
-0.00100285 -0.000286664 9.68193e-06
-0.000286664 -0.000313606 3.38054e-06
9.68193e-06 3.38054e-06 -0.000641805
0.00119697 -0.000837542 -1.82658e-07
-0.000837542 0.000352667 -2.48789e-06
-1.82658e-07 -2.48789e-06 -0.000121206
0.00338329 -0.0012952 1.03388e-05
-0.0012952 0.00106997 -1.38752e-05
1.03388e-05 -1.38752e-05 0.000550013
0.00435255 -0.00119656 -3.34352e-05
-0.00119656 0.00206808 5.41037e-06
-3.34352e-05 5.41037e-06 0.00131725
0.00188139 -0.0010376 -3.0584e-06
-0.0010376 0.000446022 -1.0718e-06
-3.0584e-06 -1.0718e-06 -0.000277513
0.00262248 -0.00125343 -1.7821e-06
-0.00125343 0.000586242 -1.08831e-05
-1.7821e-06 -1.08831e-05 -6.97767e-06
0.00304929 -0.00112931 6.6702e-06
-0.00112931 0.00116204 6.46869e-06
6.6702e-06 6.46869e-06 0.000437391
0.00253743 -0.00115283 2.58945e-06
-0.00115283 0.000729753 -3.93155e-06
2.58945e-06 -3.93155e-06 6.78265e-05
0.00278117 -0.000972938 -4.46302e-06
-0.000972938 0.000614092 -7.58715e-06
-4.46302e-06 -7.58715e-06 0.00016378
0.0019144 -0.000595519 -8.60302e-07
-0.000595519 -3.46339e-06 -2.25473e-06
-8.60302e-07 -2.25473e-06 -0.000262211
0.00203751 -0.000880798 2.3579e-06
-0.000880798 0.000174175 -3.26936e-06
2.3579e-06 -3.26936e-06 -0.000269401
0.00238213 -0.000908881 3.48197e-06
-0.000908881 0.0004201 -2.51964e-06
3.48197e-06 -2.51964e-06 -2.95833e-05
0.00264333 -0.00100698 -4.96186e-06
-0.00100698 0.000825149 -1.90992e-06
-4.96186e-06 -1.90992e-06 0.000294783
0.0027921 -0.00113156 -3.60323e-06
-0.00113156 0.000855308 -1.56205e-07
-3.60323e-06 -1.56205e-07 0.000263118
0.00266552 -0.00114054 1.06676e-05
-0.00114054 0.000791596 -4.70116e-06
1.06676e-05 -4.70116e-06 0.000164283
0.00181687 -0.000798491 7.08048e-06
-0.000798491 0.000566165 -4.16968e-06
7.08048e-06 -4.16968e-06 6.08456e-05
0.00174111 -0.000884876 2.07579e-06
-0.000884876 0.000482806 -7.97099e-07
2.07579e-06 -7.97099e-07 -5.1383e-05
0.00135583 -0.000822633 3.85444e-06
-0.000822633 0.000248599 3.25501e-06
3.85444e-06 3.25501e-06 -0.000271214
0.00167581 -0.000358259 1.24376e-06
-0.000358259 0.00062183 4.00793e-06
1.24376e-06 4.00793e-06 0.000324108
0.00146571 -0.000572866 1.42491e-06
-0.000572866 0.000479147 1.1386e-06
1.42491e-06 1.1386e-06 6.36323e-05
0.00202941 -0.000746467 -4.70814e-06
-0.000746467 0.000777936 4.90718e-06
-4.70814e-06 4.90718e-06 0.000291203
5.16985e-05 -0.000147288 -3.71894e-06
-0.000147288 -0.000270735 -2.72461e-07
-3.71894e-06 -2.72461e-07 -0.000515011
0.000613818 -0.00025495 -3.03057e-06
-0.00025495 6.02011e-05 -2.34894e-06
-3.03057e-06 -2.34894e-06 -0.0002147
0.00086885 -0.000309307 -4.10611e-06
-0.000309307 0.000188019 9.57579e-07
-4.10611e-06 9.57579e-07 -9.87524e-05
0.00200895 -1.62202e-05 -5.92803e-05
-1.62202e-05 0.000986445 1.14514e-05
-5.92803e-05 1.14514e-05 0.000921455
0.000737146 -0.000173491 1.01672e-06
-0.000173491 0.000193558 1.66026e-07
1.01672e-06 1.66026e-07 -2.21342e-05
0.00129676 -0.000326872 2.12326e-06
-0.000326872 0.000611677 6.15765e-06
2.12326e-06 6.15765e-06 0.000305577
0.000624102 1.20776e-05 -6.72977e-05
1.20776e-05 0.000104086 7.62791e-06
-6.72977e-05 7.62791e-06 9.19149e-05
0.00127909 -2.10312e-05 -2.15735e-05
-2.10312e-05 0.000514497 -7.04995e-07
-2.15735e-05 -7.04995e-07 0.000459311
0.00106672 -0.00012625 3.20903e-06
-0.00012625 0.000391562 -5.5575e-06
3.20903e-06 -5.5575e-06 0.000226306
0.000557617 -2.01726e-05 4.23484e-06
-2.01726e-05 5.12993e-05 -1.1919e-05
4.23484e-06 -1.1919e-05 1.91105e-06
0.00332326 0.000129155 1.10043e-05
0.000129155 0.00184499 9.16759e-07
1.10043e-05 9.16759e-07 0.00184045
0.0030043 9.99807e-05 4.58622e-05
9.99807e-05 0.00162835 -5.50401e-06
4.58622e-05 -5.50401e-06 0.00163097
0.000381188 0.00016413 8.19809e-06
0.00016413 4.37633e-05 2.85447e-06
8.19809e-06 2.85447e-06 -0.0002256
0.00188187 0.000195697 5.53065e-06
0.000195697 0.00107302 -8.36868e-06
5.53065e-06 -8.36868e-06 0.000766529
-0.000584565 3.82477e-05 3.07111e-06
3.82477e-05 -0.000483921 -2.36819e-07
3.07111e-06 -2.36819e-07 -0.000752975
0.000682658 7.84609e-05 2.32202e-06
7.84609e-05 0.000160538 -9.95274e-06
2.32202e-06 -9.95274e-06 2.66301e-05
0.00066878 0.000135353 1.40217e-06
0.000135353 0.000231982 -1.51148e-07
1.40217e-06 -1.51148e-07 1.76592e-05
0.000414775 1.21471e-05 -8.23208e-07
1.21471e-05 -3.5477e-05 -1.11379e-05
-8.23208e-07 -1.11379e-05 -7.42293e-05
0.000558914 6.46264e-05 -7.29184e-08
6.46264e-05 8.34288e-05 -4.93624e-07
-7.29184e-08 -4.93624e-07 -2.94879e-05
0.000692382 6.52327e-05 -6.27637e-06
6.52327e-05 0.000238313 1.90288e-06
-6.27637e-06 1.90288e-06 5.99028e-05
0.00273286 -6.99144e-05 -3.81077e-05
-6.99144e-05 0.00145039 -5.61393e-06
-3.81077e-05 -5.61393e-06 0.00145888
0.000408045 5.75031e-06 -2.5262e-07
5.75031e-06 -4.65339e-05 -1.8941e-08
-2.5262e-07 -1.8941e-08 -7.75722e-05
0.000486074 6.9207e-05 -2.8121e-06
6.9207e-05 3.61723e-05 3.78825e-06
-2.8121e-06 3.78825e-06 -6.17149e-05
0.00244566 -5.07788e-05 -6.98808e-06
-5.07788e-05 0.0012606 4.57974e-07
-6.98808e-06 4.57974e-07 0.00127241
0.000385669 -1.5296e-05 -7.20259e-06
-1.5296e-05 -6.47184e-05 6.26287e-06
-7.20259e-06 6.26287e-06 -8.8627e-05
0.00224856 -3.03846e-05 2.32221e-05
-3.03846e-05 0.00113118 5.219e-06
2.32221e-05 5.219e-06 0.00114641
0.00689744 0.00112604 0.000493959
0.00112604 0.00476824 0.000121114
0.000493959 0.000121114 0.00165968
-0.00238276 0.000473304 -1.03549e-05
0.000473304 0.00116806 -1.24886e-05
-1.03549e-05 -1.24886e-05 -0.000685301
0.000463294 0.000565983 -8.73176e-06
0.000565983 0.00166734 -1.76526e-05
-8.73176e-06 -1.76526e-05 0.000206841
-0.000358845 0.00019746 -9.03544e-06
0.00019746 -0.000577841 8.51232e-06
-9.03544e-06 8.51232e-06 -0.00080768
-3.60072e-05 4.59969e-05 -8.1624e-06
4.59969e-05 -0.000195162 1.46292e-05
-8.1624e-06 1.46292e-05 -0.000428372
-0.000425877 6.43261e-05 -9.64318e-06
6.43261e-05 -0.000464629 -1.06094e-05
-9.64318e-06 -1.06094e-05 -0.000649799
0.00178053 0.000112279 6.36083e-06
0.000112279 0.000937722 3.67181e-07
6.36083e-06 3.67181e-07 0.000725765
0.000990782 0.000207354 -2.90558e-06
0.000207354 0.000293013 -7.88719e-06
-2.90558e-06 -7.88719e-06 9.39186e-05
0.00253455 0.000397309 -1.5886e-05
0.000397309 0.00138111 -6.03593e-06
-1.5886e-05 -6.03593e-06 0.00115634
0.00137367 0.000323957 1.80973e-06
0.000323957 0.000558061 -1.3396e-05
1.80973e-06 -1.3396e-05 0.000212679
-0.00193287 0.000168845 -5.83237e-06
0.000168845 -0.00101893 8.09075e-07
-5.83237e-06 8.09075e-07 -0.00142556
0.000166025 7.75903e-05 -5.79823e-06
7.75903e-05 -0.000103304 -7.5137e-06
-5.79823e-06 -7.5137e-06 -0.000259329
-0.000398701 5.70315e-05 -1.34746e-05
5.70315e-05 -0.000542111 -9.22243e-06
-1.34746e-05 -9.22243e-06 -0.000608998
-0.000887537 1.33854e-05 -3.38079e-06
1.33854e-05 -0.000530936 2.19969e-06
-3.38079e-06 2.19969e-06 -0.000832937
0.000353487 0.000336038 1.27203e-05
0.000336038 0.000379807 5.9074e-06
1.27203e-05 5.9074e-06 -0.000167945
0.00690143 -0.00557805 9.7213e-06
-0.00557805 0.00869142 0.000232945
9.7213e-06 0.000232945 0.000674737
0.00810505 0.00230076 0.000225928
0.00230076 0.00395348 0.000197016
0.000225928 0.000197016 -0.00182081
0.0040254 0.000694667 -3.87294e-06
0.000694667 0.00129407 -8.3021e-05
-3.87294e-06 -8.3021e-05 -0.00104663
0.0331171 -0.00755131 -0.00110427
-0.00755131 0.0103849 -0.000466751
-0.00110427 -0.000466751 0.00512439
0.00550087 -0.00161362 0.000327262
-0.00161362 0.00472906 0.000580904
0.000327262 0.000580904 0.000167787
0.00225167 -0.00157911 -0.000268214
-0.00157911 0.00570397 0.000140154
-0.000268214 0.000140154 -0.00243509
-0.000598199 -0.00143334 9.00053e-05
-0.00143334 0.00155559 5.18734e-05
9.00053e-05 5.18734e-05 0.000267089
-0.00153245 -4.77121e-05 0.00018084
-4.77121e-05 0.00149199 5.23682e-05
0.00018084 5.23682e-05 0.000399361
0.0233469 -0.0132833 0.000549157
-0.0132833 0.0130044 0.000526306
0.000549157 0.000526306 0.00580265
0.00328632 0.00214858 -0.000157552
0.00214858 0.00530013 -0.000111118
-0.000157552 -0.000111118 -0.00196131
0.0116246 -0.00466734 -0.000158579
-0.00466734 0.00759005 0.000156476
-0.000158579 0.000156476 -0.000243667
-0.000220215 0.000925927 -1.09144e-05
0.000925927 0.00142128 3.33625e-05
-1.09144e-05 3.33625e-05 0.000636349
0.00818994 0.00534904 -0.000164672
0.00534904 0.00309473 -3.38643e-06
-0.000164672 -3.38643e-06 -0.00105925
0.0219772 -0.00813942 -0.00102945
-0.00813942 0.00824151 -0.000473274
-0.00102945 -0.000473274 0.00113857
0.0012227 0.000785109 1.39501e-05
0.000785109 0.000354243 3.70416e-06
1.39501e-05 3.70416e-06 0.000138945
0.000768075 0.000302569 8.47948e-06
0.000302569 0.000548995 6.51182e-06
8.47948e-06 6.51182e-06 0.000127392
-0.000607132 1.36394e-05 -2.39087e-05
1.36394e-05 -0.000174986 -8.29681e-07
-2.39087e-05 -8.29681e-07 -0.000566647
-0.00295928 -0.000266026 -0.000130246
-0.000266026 0.000770934 -4.98048e-05
-0.000130246 -4.98048e-05 -0.00126439
0.000536416 0.000305428 -7.10068e-06
0.000305428 0.000581005 -1.82261e-05
-7.10068e-06 -1.82261e-05 2.12735e-06
0.00040032 0.000237626 -6.06033e-06
0.000237626 0.000450583 5.75141e-06
-6.06033e-06 5.75141e-06 9.16849e-05
0.00119404 0.000784637 1.37561e-05
0.000784637 0.000648789 3.04179e-06
1.37561e-05 3.04179e-06 0.000177045
-0.00023561 0.000778875 1.53865e-05
0.000778875 0.00103157 -4.21861e-05
1.53865e-05 -4.21861e-05 -0.000465118
0.00152647 0.00194123 9.22601e-05
0.00194123 0.000501282 1.02038e-05
9.22601e-05 1.02038e-05 -0.000665889
-0.0068433 0.00126031 0.000498188
0.00126031 0.00616667 -1.88881e-05
0.000498188 -1.88881e-05 -0.00242855
0.00219972 -0.000462526 -1.96765e-05
-0.000462526 0.00232889 8.77839e-05
-1.96765e-05 8.77839e-05 -0.00108541
-0.00317317 -4.99413e-06 -2.74514e-05
-4.99413e-06 0.00184242 8.74547e-05
-2.74514e-05 8.74547e-05 -7.91535e-05
-0.00104934 -0.00039 -5.27368e-05
-0.00039 0.000772413 1.1277e-05
-5.27368e-05 1.1277e-05 -0.000673407
-0.00167631 -0.000823921 -5.87186e-05
-0.000823921 0.000116996 4.89484e-05
-5.87186e-05 4.89484e-05 0.000122933
-0.00100795 -0.000805088 -0.000253
-0.000805088 0.00131602 0.000169193
-0.000253 0.000169193 -0.00392691
-0.00145349 -0.00522126 0.000261205
-0.00522126 0.00225517 -0.000144097
0.000261205 -0.000144097 -0.00450973
0.0173156 0.00647032 0.000923192
0.00647032 0.00417215 -0.000470371
0.000923192 -0.000470371 -0.00228108
0.0162612 0.00619806 -0.000458327
0.00619806 0.0106547 0.000452318
-0.000458327 0.000452318 0.00348569
0.000870458 -0.00124367 -3.67396e-05
-0.00124367 0.00154865 7.45001e-06
-3.67396e-05 7.45001e-06 0.000392144
0.0035814 0.00125044 0.000234345
0.00125044 0.00979978 -4.96547e-05
0.000234345 -4.96547e-05 0.00386744
0.00455036 0.00592235 2.18845e-05
0.00592235 0.00201616 9.62006e-05
2.18845e-05 9.62006e-05 -0.002919
0.00244209 -0.00378296 8.49381e-05
-0.00378296 0.000865142 -5.68986e-05
8.49381e-05 -5.68986e-05 0.0010965
0.0140559 -0.0060321 -1.5419e-06
-0.0060321 0.00106645 1.07056e-05
-1.5419e-06 1.07056e-05 -0.000741085
0.00339329 -0.00228225 1.14014e-05
-0.00228225 0.00148221 1.74607e-05
1.14014e-05 1.74607e-05 0.000868286
-0.0064631 0.00206162 -0.000911616
0.00206162 -0.00120736 0.000159513
-0.000911616 0.000159513 -0.00555843
0.0159689 -0.00387419 -0.000245202
-0.00387419 0.00069766 7.11497e-05
-0.000245202 7.11497e-05 -0.000125722
0.00437986 -0.0035917 0.000139508
-0.0035917 2.33671e-05 -8.25554e-05
0.000139508 -8.25554e-05 0.00116613
-0.000287569 -0.000578399 9.39291e-06
-0.000578399 0.000185681 -5.33265e-07
9.39291e-06 -5.33265e-07 -0.00039315
0.00201711 -0.00120192 1.49468e-05
-0.00120192 0.000707693 -8.69117e-06
1.49468e-05 -8.69117e-06 0.000292108
0.00294776 -0.0011411 2.36232e-05
-0.0011411 0.000852792 -1.97491e-05
2.36232e-05 -1.97491e-05 0.000452207
-0.000632724 -0.000606341 -6.00535e-06
-0.000606341 -0.000616222 1.70244e-05
-6.00535e-06 1.70244e-05 -0.0010424
0.00201805 -0.00114294 -4.9767e-06
-0.00114294 0.000344318 1.27724e-06
-4.9767e-06 1.27724e-06 -0.0001705
0.00353817 -0.00133903 6.88607e-06
-0.00133903 0.000935487 -6.23917e-06
6.88607e-06 -6.23917e-06 0.000433085
0.00137876 -0.000936373 -8.40507e-06
-0.000936373 0.000159977 1.17495e-05
-8.40507e-06 1.17495e-05 -0.000535837
0.00234638 -0.00121133 -8.98173e-07
-0.00121133 0.000442665 2.86189e-06
-8.98173e-07 2.86189e-06 -0.000147378
0.0023316 -0.000946704 -3.44198e-06
-0.000946704 0.000189655 -4.18087e-06
-3.44198e-06 -4.18087e-06 -0.000163128
0.00188058 -0.00106383 9.05436e-06
-0.00106383 0.000356268 3.4513e-06
9.05436e-06 3.4513e-06 -0.000275908
0.00226071 -0.000897453 -1.796e-06
-0.000897453 0.000331865 1.96453e-06
-1.796e-06 1.96453e-06 -9.95511e-05
0.00229658 -0.000650635 -7.84518e-07
-0.000650635 0.000147762 -1.86327e-06
-7.84518e-07 -1.86327e-06 -8.07388e-05
0.00210587 -0.000565119 -2.23123e-06
-0.000565119 0.000119594 5.26911e-07
-2.23123e-06 5.26911e-07 -7.37246e-05
0.00187976 -0.000610468 -2.65252e-06
-0.000610468 5.04252e-06 -2.01267e-06
-2.65252e-06 -2.01267e-06 -0.000267883
0.00196834 -0.000594802 1.6067e-06
-0.000594802 2.60599e-05 2.93602e-06
1.6067e-06 2.93602e-06 -0.000229001
0.00186083 -0.000763851 -3.48486e-06
-0.000763851 0.000140292 -4.31256e-06
-3.48486e-06 -4.31256e-06 -0.000255584
0.00222275 -0.000892172 2.74327e-06
-0.000892172 0.000310479 1.21227e-07
2.74327e-06 1.21227e-07 -0.000130604
0.00235532 -0.000910132 2.47671e-06
-0.000910132 0.000400835 2.86775e-06
2.47671e-06 2.86775e-06 -4.8084e-05
0.00203649 -0.000867249 8.14464e-07
-0.000867249 0.000495071 -3.3307e-06
8.14464e-07 -3.3307e-06 -6.0846e-06
0.00242828 -0.000989136 1.96936e-06
-0.000989136 0.000687053 -6.53378e-07
1.96936e-06 -6.53378e-07 0.000157164
0.00271301 -0.0011176 3.71907e-06
-0.0011176 0.000818463 -1.6829e-06
3.71907e-06 -1.6829e-06 0.000224249
0.00160593 -0.000554049 -6.96984e-06
-0.000554049 0.000498299 3.88857e-06
-6.96984e-06 3.88857e-06 0.000106
0.00181484 -0.000783717 7.16265e-07
-0.000783717 0.000570962 5.90961e-07
7.16265e-07 5.90961e-07 7.3917e-05
0.00147017 -0.000841781 -4.59473e-07
-0.000841781 0.000335253 3.4797e-06
-4.59473e-07 3.4797e-06 -0.000186081
0.000730166 -0.000242599 -5.85582e-06
-0.000242599 0.000105286 -9.37482e-07
-5.85582e-06 -9.37482e-07 -0.000134066
0.00103842 -0.000326856 3.20782e-06
-0.000326856 0.000225049 -6.16678e-07
3.20782e-06 -6.16678e-07 -7.38775e-05
0.000965861 -0.000508771 -5.98017e-06
-0.000508771 0.000202523 3.56144e-06
-5.98017e-06 3.56144e-06 -0.00019505
0.000446976 -0.000107091 -1.80614e-05
-0.000107091 -5.50543e-05 1.54131e-05
-1.80614e-05 1.54131e-05 -0.000149417
0.000690213 -0.000195895 6.60447e-07
-0.000195895 0.000153839 1.88695e-06
6.60447e-07 1.88695e-06 -0.000106941
0.000483446 -0.000304868 -3.62725e-06
-0.000304868 1.60982e-05 6.34999e-07
-3.62725e-06 6.34999e-07 -0.000284252
0.00436484 0.000283139 1.7765e-05
0.000283139 0.00257575 8.54751e-06
1.7765e-05 8.54751e-06 0.00252181
0.000423842 -7.01576e-05 1.37133e-07
-7.01576e-05 -4.35204e-05 -4.02873e-07
1.37133e-07 -4.02873e-07 -0.000125607
0.00150532 -0.000189706 1.19022e-06
-0.000189706 0.0006733 -3.67481e-06
1.19022e-06 -3.67481e-06 0.00045829
0.00376394 0.00014519 9.94871e-06
0.00014519 0.00213735 6.6454e-07
9.94871e-06 6.6454e-07 0.00212853
0.000608606 -4.07562e-05 8.22902e-06
-4.07562e-05 8.05396e-05 -1.37653e-05
8.22902e-06 -1.37653e-05 1.69713e-05
0.00338802 0.000114755 7.0813e-05
0.000114755 0.00188382 -6.29881e-06
7.0813e-05 -6.29881e-06 0.00188302
0.00249187 0.000433379 2.35415e-06
0.000433379 0.00126305 1.96754e-06
2.35415e-06 1.96754e-06 0.000981864
0.000599856 0.000210852 -2.11413e-07
0.000210852 0.000185695 -1.56984e-06
-2.11413e-07 -1.56984e-06 -9.75646e-05
0.00132883 0.000370523 -3.65098e-06
0.000370523 0.000682805 -3.6809e-06
-3.65098e-06 -3.6809e-06 0.000368085
0.00103645 0.000130267 7.01688e-07
0.000130267 0.000389243 -9.61075e-06
7.01688e-07 -9.61075e-06 0.000222143
0.000800614 0.000137422 3.54131e-08
0.000137422 0.000379468 1.00291e-06
3.54131e-08 1.00291e-06 8.0249e-05
2.91864e-05 0.000113325 -3.04895e-06
0.000113325 -5.63589e-05 6.43419e-06
-3.04895e-06 6.43419e-06 -0.000362635
0.000508814 1.72562e-06 -1.38054e-06
1.72562e-06 3.5652e-05 -1.37709e-05
-1.38054e-06 -1.37709e-05 -1.44039e-05
0.000575812 6.07549e-05 -3.4109e-07
6.07549e-05 9.7144e-05 8.18943e-08
-3.4109e-07 8.18943e-08 -3.6708e-05
-7.89404e-06 8.63154e-05 -5.09169e-06
8.63154e-05 -0.000226986 9.04004e-06
-5.09169e-06 9.04004e-06 -0.000424528
0.00283733 -8.61956e-05 -4.7417e-05
-8.61956e-05 0.00152369 -6.04536e-06
-4.7417e-05 -6.04536e-06 0.00152955
0.000393029 -2.6802e-05 2.42878e-06
-2.6802e-05 -4.58097e-05 -3.51264e-07
2.42878e-06 -3.51264e-07 -8.52714e-05
0.000471258 5.44739e-05 -4.7032e-06
5.44739e-05 3.62582e-05 6.14252e-06
-4.7032e-06 6.14252e-06 -7.80347e-05
0.00265716 -7.02901e-05 -7.86304e-06
-7.02901e-05 0.00140175 6.07521e-07
-7.86304e-06 6.07521e-07 0.00140993
0.000415102 1.00682e-05 -2.2541e-06
1.00682e-05 -4.27896e-05 7.8033e-06
-2.2541e-06 7.8033e-06 -7.29036e-05
0.00240386 -5.0387e-05 2.44123e-05
-5.0387e-05 0.00123367 5.39726e-06
2.44123e-05 5.39726e-06 0.0012457
-0.0080893 0.000986835 -0.00025444
0.000986835 0.00507528 7.62001e-05
-0.00025444 7.62001e-05 -0.00280936
0.00651011 0.000926714 3.65238e-05
0.000926714 0.00422092 1.22329e-07
3.65238e-05 1.22329e-07 0.00124863
-0.00168299 0.000452352 0.000122339
0.000452352 0.00118314 6.37429e-05
0.000122339 6.37429e-05 -0.000916532
0.000229209 0.000216751 -3.93365e-06
0.000216751 -0.000172507 7.9261e-06
-3.93365e-06 7.9261e-06 -0.000449604
0.0036013 0.000877198 1.98682e-05
0.000877198 0.00192213 2.06966e-05
1.98682e-05 2.06966e-05 0.00144244
-0.000148752 0.000193111 -1.08237e-05
0.000193111 -0.000186652 7.81844e-06
-1.08237e-05 7.81844e-06 -0.000610042
0.000399772 9.62449e-05 -7.84583e-06
9.62449e-05 8.60534e-05 -1.76416e-05
-7.84583e-06 -1.76416e-05 -0.000134931
0.00298756 0.000391746 -5.43183e-07
0.000391746 0.00152118 -4.42654e-06
-5.43183e-07 -4.42654e-06 0.00129931
-0.00164406 4.24671e-06 -1.3156e-05
4.24671e-06 -0.00120794 1.58638e-05
-1.3156e-05 1.58638e-05 -0.00135356
-0.000179191 0.000230762 -3.40908e-07
0.000230762 -9.36043e-05 7.3667e-06
-3.40908e-07 7.3667e-06 -0.000422623
-5.22804e-05 0.000131423 -5.12502e-06
0.000131423 -0.000229431 -5.4746e-06
-5.12502e-06 -5.4746e-06 -0.00057013
0.00100195 0.000723292 6.0732e-07
0.000723292 0.000473467 -1.98387e-05
6.0732e-07 -1.98387e-05 -7.58219e-05
-0.000933408 0.000581815 -2.6275e-05
0.000581815 -0.000883164 6.80642e-05
-2.6275e-05 6.80642e-05 -0.001067
0.00111078 6.36253e-05 -1.56642e-05
6.36253e-05 0.000623292 1.71179e-05
-1.56642e-05 1.71179e-05 0.000375309
0.00199489 0.000459064 1.03031e-05
0.000459064 0.00130383 -7.62084e-06
1.03031e-05 -7.62084e-06 0.000837402
0.00428886 -0.00369909 -0.00242611
-0.00369909 0.00309574 -0.00026123
-0.00242611 -0.00026123 -0.00255752
0.00071851 -0.00435458 0.000800932
-0.00435458 0.00913338 0.000180945
0.000800932 0.000180945 0.00143409
0.00881743 0.00287543 -0.000871262
0.00287543 0.00358592 -0.000287471
-0.000871262 -0.000287471 -0.00274153
0.0147939 -0.0144951 0.00306897
-0.0144951 0.0114986 0.00174756
0.00306897 0.00174756 0.00371856
0.0305808 -0.00461917 -3.72785e-05
-0.00461917 0.0116095 0.000484294
-3.72785e-05 0.000484294 0.00558758
-0.00302355 0.00150259 -7.57623e-05
0.00150259 0.00333018 -0.000210078
-7.57623e-05 -0.000210078 -0.00307562
-0.00245684 0.000268623 -0.000239342
0.000268623 0.00177448 -4.46815e-05
-0.000239342 -4.46815e-05 -0.000235501
0.00017996 0.000975203 7.30198e-05
0.000975203 0.001813 5.84868e-05
7.30198e-05 5.84868e-05 0.00114864
0.0234057 -0.00660588 -0.000857547
-0.00660588 0.0103251 4.6704e-05
-0.000857547 4.6704e-05 0.00345127
-0.0016837 0.00461945 -0.000212911
0.00461945 0.000761211 -4.71554e-05
-0.000212911 -4.71554e-05 -0.00410762
0.00346554 0.00309971 5.65221e-05
0.00309971 0.00123342 -8.33984e-05
5.65221e-05 -8.33984e-05 0.00199536
0.00653893 0.00771332 -0.00070432
0.00771332 -0.00164018 -0.000108444
-0.00070432 -0.000108444 -0.00374708
0.00383193 0.00154359 3.17569e-05
0.00154359 0.00154339 -6.97687e-06
3.17569e-05 -6.97687e-06 0.00107642
0.000966195 0.00071621 -5.7042e-06
0.00071621 0.000197125 -3.57813e-06
-5.7042e-06 -3.57813e-06 1.65667e-05
-0.000646849 0.000187901 -2.31529e-05
0.000187901 -0.000314028 2.4804e-06
-2.31529e-05 2.4804e-06 -0.000717418
-0.0010912 0.000671806 -0.000123524
0.000671806 0.000671185 -7.59661e-05
-0.000123524 -7.59661e-05 -0.000629045
0.00106402 0.000830881 -5.70916e-05
0.000830881 0.000492903 -3.97933e-05
-5.70916e-05 -3.97933e-05 2.85882e-05
0.00254522 0.00209738 5.13214e-06
0.00209738 0.000887273 -1.19172e-05
5.13214e-06 -1.19172e-05 -0.000259021
-0.00146678 0.00204807 0.000110915
0.00204807 -0.00209009 6.01244e-05
0.000110915 6.01244e-05 -0.00258683
-0.00700843 -0.000703078 -0.000862435
-0.000703078 -0.00320167 6.59913e-05
-0.000862435 6.59913e-05 -0.00496376
-0.0102183 0.000512748 0.000600255
0.000512748 0.00664154 1.67782e-05
0.000600255 1.67782e-05 -0.000762084
0.00271231 4.60448e-05 -0.0001839
4.60448e-05 0.00222671 3.5662e-05
-0.0001839 3.5662e-05 5.95348e-05
0.000772709 -0.00127817 -5.56816e-05
-0.00127817 0.00102477 -5.28205e-05
-5.56816e-05 -5.28205e-05 -8.86463e-05
-0.00122107 -0.00259929 0.000174299
-0.00259929 -0.000337394 1.34877e-05
0.000174299 1.34877e-05 -0.000140593
0.00142638 0.00141172 0.000228468
0.00141172 0.00937918 8.06911e-05
0.000228468 8.06911e-05 0.00316853
0.00519417 -0.00560313 0.000748634
-0.00560313 -0.00177592 -6.86443e-05
0.000748634 -6.86443e-05 -0.00292936
0.0254458 0.00529488 0.00139966
0.00529488 0.0116915 -7.71625e-05
0.00139966 -7.71625e-05 0.00653175
0.00191649 -0.00247799 -2.23465e-05
-0.00247799 0.000509441 3.62511e-06
-2.23465e-05 3.62511e-06 -0.000360733
0.00438279 0.0025181 0.000403493
0.0025181 0.00217368 -0.000118224
0.000403493 -0.000118224 -0.00166586
0.0076237 -0.00346878 -0.000215591
-0.00346878 -0.00409455 0.000192074
-0.000215591 0.000192074 -0.00551808
0.00257875 -0.00334959 -5.92391e-06
-0.00334959 -0.00123651 2.85478e-05
-5.92391e-06 2.85478e-05 0.000514386
0.00279227 -0.00200385 7.27016e-05
-0.00200385 0.000202454 -1.41498e-05
7.27016e-05 -1.41498e-05 -2.54248e-05
0.0195233 -0.0011733 -0.000117914
-0.0011733 0.00303945 8.56309e-05
-0.000117914 8.56309e-05 0.00240435
0.00274428 -0.00248575 0.00013607
-0.00248575 -0.00392465 -9.81652e-05
0.00013607 -9.81652e-05 -0.00150014
-0.000346469 -0.00100915 -4.04923e-05
-0.00100915 -0.000645255 4.79931e-05
-4.04923e-05 4.79931e-05 -0.00087271
0.000342365 -0.000841054 -3.44095e-05
-0.000841054 -0.000569342 4.01553e-06
-3.44095e-05 4.01553e-06 -0.000787071
0.00615531 -0.00141759 6.35453e-05
-0.00141759 0.00223028 -2.44635e-05
6.35453e-05 -2.44635e-05 0.0019363
0.000300653 -0.000919172 -1.36441e-05
-0.000919172 -0.000521154 1.28109e-05
-1.36441e-05 1.28109e-05 -0.00101345
0.00235194 -0.00117944 -1.60658e-06
-0.00117944 0.000329136 -1.75741e-06
-1.60658e-06 -1.75741e-06 -0.000131704
0.00304929 -0.00102238 3.40428e-06
-0.00102238 0.000391446 -3.56251e-06
3.40428e-06 -3.56251e-06 0.000172767
0.00231384 -0.00120191 1.02203e-05
-0.00120191 0.000424003 1.04114e-05
1.02203e-05 1.04114e-05 -0.000169187
0.00248334 -0.00095495 -2.55118e-06
-0.00095495 0.000272488 1.02535e-06
-2.55118e-06 1.02535e-06 -7.63053e-05
0.00236161 -0.000679521 5.5521e-07
-0.000679521 2.29827e-05 -8.2676e-07
5.5521e-07 -8.2676e-07 -7.47306e-05
0.00193948 -0.000850152 9.50144e-06
-0.000850152 0.000152618 6.40273e-06
9.50144e-06 6.40273e-06 -0.000266602
0.00220294 -0.000636292 -1.87224e-07
-0.000636292 8.78395e-05 2.57909e-06
-1.87224e-07 2.57909e-06 -0.000129669
0.00231391 -0.000637024 -9.50195e-07
-0.000637024 0.00010457 2.43329e-06
-9.50195e-07 2.43329e-06 -2.50264e-05
0.00222012 -0.000607732 -2.80304e-06
-0.000607732 0.000146417 1.50548e-06
-2.80304e-06 1.50548e-06 -1.60862e-05
0.00218284 -0.000572381 -3.22187e-06
-0.000572381 0.00015573 2.7178e-06
-3.22187e-06 2.7178e-06 -3.18014e-05
0.00222566 -0.000568292 -1.10149e-06
-0.000568292 0.000258549 -2.34286e-06
-1.10149e-06 -2.34286e-06 4.94819e-05
0.00221939 -0.000650345 -6.34413e-06
-0.000650345 0.000252681 -2.93977e-06
-6.34413e-06 -2.93977e-06 -3.4431e-05
0.00211105 -0.000627638 1.14447e-06
-0.000627638 0.000157136 1.30756e-06
1.14447e-06 1.30756e-06 -0.000116187
0.00202579 -0.000597628 1.89176e-06
-0.000597628 4.97264e-05 7.88296e-06
1.89176e-06 7.88296e-06 -0.000202659
0.0021298 -0.000769884 -5.76305e-06
-0.000769884 0.00036793 -4.52074e-06
-5.76305e-06 -4.52074e-06 -3.98956e-05
0.00184815 -0.000773611 -7.33551e-07
-0.000773611 0.000115852 2.01856e-07
-7.33551e-07 2.01856e-07 -0.000285178
0.00239762 -0.000905019 6.35022e-06
-0.000905019 0.000436626 3.26463e-06
6.35022e-06 3.26463e-06 -2.62441e-06
0.00163486 -0.000679273 -8.81836e-06
-0.000679273 0.000330302 1.2329e-06
-8.81836e-06 1.2329e-06 -0.000112003
0.00214403 -0.000881652 -2.66199e-07
-0.000881652 0.000556849 8.49345e-07
-2.66199e-07 8.49345e-07 5.23475e-05
0.0022798 -0.000980224 5.10411e-06
-0.000980224 0.000587435 1.91586e-06
5.10411e-06 1.91586e-06 5.6065e-05
0.00101762 -0.000295337 -9.03321e-06
-0.000295337 0.000236063 8.71797e-06
-9.03321e-06 8.71797e-06 -1.99307e-05
0.00131408 -0.000531273 1.76228e-06
-0.000531273 0.000301067 8.26041e-07
1.76228e-06 8.26041e-07 -8.70617e-05
0.00167404 -0.000757417 -3.50979e-06
-0.000757417 0.00048195 4.03067e-06
-3.50979e-06 4.03067e-06 -5.1747e-06
0.000444977 -0.000177554 -2.96071e-05
-0.000177554 -8.76019e-05 1.61889e-05
-2.96071e-05 1.61889e-05 -0.000199506
0.000598746 -0.000231786 -2.34571e-06
-0.000231786 3.84306e-05 -8.81083e-07
-2.34571e-06 -8.81083e-07 -0.000212954
2.07049e-05 -0.000307003 2.10184e-06
-0.000307003 -0.000415862 -2.2009e-06
2.10184e-06 -2.2009e-06 -0.000720519
0.00497626 0.000223813 -0.000107998
0.000223813 0.00295779 1.12838e-05
-0.000107998 1.12838e-05 0.00292373
0.000552417 -0.000132125 2.6347e-06
-0.000132125 5.13458e-06 1.99422e-07
2.6347e-06 1.99422e-07 -9.36818e-05
0.00117834 -0.000268371 5.92903e-06
-0.000268371 0.000452437 -1.3936e-06
5.92903e-06 -1.3936e-06 0.00019162
0.00284054 0.000144947 6.7533e-05
0.000144947 0.00156652 1.5785e-06
6.7533e-05 1.5785e-06 0.0015324
0.000749776 -7.69435e-05 1.45555e-05
-7.69435e-05 0.000157595 -1.57036e-05
1.45555e-05 -1.57036e-05 7.12637e-05
0.00395016 0.000133277 9.68523e-05
0.000133277 0.00225578 -8.14983e-06
9.68523e-05 -8.14983e-06 0.00224963
0.00211865 0.000452716 -2.52676e-07
0.000452716 0.000908572 8.47204e-07
-2.52676e-07 8.47204e-07 0.000613843
0.00057838 0.000216156 -4.37953e-06
0.000216156 1.5493e-05 3.81239e-07
-4.37953e-06 3.81239e-07 -0.00020946
0.000271686 0.000214099 -1.86195e-07
0.000214099 -6.60286e-05 -2.98908e-06
-1.86195e-07 -2.98908e-06 -0.000340634
0.000609524 0.000206081 -7.81099e-07
0.000206081 0.000176486 2.15884e-06
-7.81099e-07 2.15884e-06 -9.13758e-05
0.000944981 0.000128742 -2.65491e-07
0.000128742 0.000433788 9.17749e-08
-2.65491e-07 9.17749e-08 0.000132901
0.00118605 0.00015754 -1.82174e-06
0.00015754 0.000494381 -1.04656e-05
-1.82174e-06 -1.04656e-05 0.000290871
0.000584225 6.29915e-05 -9.27425e-06
6.29915e-05 7.9172e-05 -1.63199e-05
-9.27425e-06 -1.63199e-05 1.70794e-05
0.000665882 0.000111422 -2.11065e-07
0.000111422 0.000161107 2.16789e-07
-2.11065e-07 2.16789e-07 -3.81185e-06
-0.000904986 7.6269e-06 -7.46776e-06
7.6269e-06 -0.000747512 8.78881e-06
-7.46776e-06 8.78881e-06 -0.00100644
0.0032274 -0.000100085 -7.19554e-05
-0.000100085 0.00178435 -7.26515e-06
-7.19554e-05 -7.26515e-06 0.00178746
0.000342838 2.88948e-05 1.4417e-06
2.88948e-05 -6.96792e-05 -3.20306e-07
1.4417e-06 -3.20306e-07 -0.000119254
0.000647366 8.27154e-05 -3.90817e-06
8.27154e-05 0.00014767 1.0106e-05
-3.90817e-06 1.0106e-05 1.19677e-05
0.00289857 -9.13213e-05 -8.62557e-06
-9.13213e-05 0.00156468 7.87695e-07
-8.62557e-06 7.87695e-07 0.00156876
0.000300677 -1.1346e-05 -1.35088e-06
-1.1346e-05 -0.00010172 9.84268e-06
-1.35088e-06 9.84268e-06 -0.000141391
0.00263692 -7.085e-05 3.04266e-05
-7.085e-05 0.0013885 5.78623e-06
3.04266e-05 5.78623e-06 0.00139636
0.00240544 -0.000349336 -0.00136217
-0.000349336 0.00447398 -7.45164e-05
-0.00136217 -7.45164e-05 0.00197986
-0.00515608 -0.000154963 5.57162e-06
-0.000154963 0.0064162 -2.77746e-05
5.57162e-06 -2.77746e-05 -0.00183858
0.00648258 0.000484021 -0.000424652
0.000484021 0.00399046 -0.00011482
-0.000424652 -0.00011482 0.00119014
0.000126633 0.000124184 5.90049e-06
0.000124184 -0.000246534 3.23693e-07
5.90049e-06 3.23693e-07 -0.000515721
0.000122687 0.000146671 7.15492e-06
0.000146671 -0.00014005 3.50452e-06
7.15492e-06 3.50452e-06 -0.000522001
0.00294829 0.000767659 -3.44376e-06
0.000767659 0.00153561 2.26787e-06
-3.44376e-06 2.26787e-06 0.00107159
0.00238673 0.000917094 1.92515e-05
0.000917094 0.00102982 1.31368e-05
1.92515e-05 1.31368e-05 0.000450552
0.00102591 0.000645416 8.97301e-06
0.000645416 0.000547228 1.47309e-05
8.97301e-06 1.47309e-05 3.50371e-05
0.00248305 0.000337312 -5.89723e-06
0.000337312 0.00149742 6.09191e-06
-5.89723e-06 6.09191e-06 0.00119427
0.00242821 0.000344371 1.32374e-05
0.000344371 0.00135949 8.4425e-06
1.32374e-05 8.4425e-06 0.00102308
0.00126346 0.000678326 -4.48567e-06
0.000678326 0.000664337 1.57652e-06
-4.48567e-06 1.57652e-06 0.000132924
0.000553244 0.000894704 1.45782e-05
0.000894704 -0.000200355 -3.80558e-06
1.45782e-05 -3.80558e-06 -0.000645557
0.00286939 0.00111223 -5.84663e-06
0.00111223 0.00114277 3.3856e-05
-5.84663e-06 3.3856e-05 0.000821238
0.00153956 0.00114796 3.36326e-05
0.00114796 7.29344e-05 1.2195e-05
3.36326e-05 1.2195e-05 -0.000135178
0.00140697 0.000828316 3.91025e-06
0.000828316 0.000504556 -1.80658e-07
3.91025e-06 -1.80658e-07 0.000191305
0.00185946 0.000590734 -1.57465e-06
0.000590734 0.00113652 2.40903e-05
-1.57465e-06 2.40903e-05 0.000619738
0.015502 0.00394417 -0.000151619
0.00394417 0.00140151 5.25474e-05
-0.000151619 5.25474e-05 0.000686003
0.00650777 -0.00320139 -0.00078625
-0.00320139 0.00504965 -0.000250261
-0.00078625 -0.000250261 0.000889201
0.00251934 -0.00587261 0.00128465
-0.00587261 0.0101322 0.000260794
0.00128465 0.000260794 0.00235054
0.0156394 -0.0035004 0.000529296
-0.0035004 0.00622519 0.000275452
0.000529296 0.000275452 0.000152219
0.0126213 0.00689254 -0.00014586
0.00689254 0.00445054 -6.14386e-05
-0.00014586 -6.14386e-05 0.000204795
-0.00238094 0.000614719 -3.72868e-06
0.000614719 0.000950285 -1.1271e-05
-3.72868e-06 -1.1271e-05 0.000145203
0.00196321 0.00263888 -9.33171e-05
0.00263888 0.000543653 -3.9085e-05
-9.33171e-05 -3.9085e-05 0.00156115
0.0149516 0.00701106 1.68365e-05
0.00701106 0.00166059 4.21146e-05
1.68365e-05 4.21146e-05 -0.000898919
0.0071777 0.00498006 -0.000159308
0.00498006 -0.000620526 -0.000137844
-0.000159308 -0.000137844 0.000407203
0.00166742 0.00151881 7.99764e-06
0.00151881 0.000126523 -8.86469e-07
7.99764e-06 -8.86469e-07 -0.000244255
0.00157376 0.00117064 1.35995e-05
0.00117064 0.000442627 -3.44273e-06
1.35995e-05 -3.44273e-06 7.38656e-05
0.00196647 0.000750607 -3.77926e-05
0.000750607 0.00090904 -9.46011e-06
-3.77926e-05 -9.46011e-06 0.000724343
0.00208792 0.00212635 -8.23586e-05
0.00212635 0.000475261 -3.29002e-05
-8.23586e-05 -3.29002e-05 -0.000626705
0.0017609 0.00245905 0.000106978
0.00245905 -0.000654788 5.65447e-05
0.000106978 5.65447e-05 -0.00133023
0.00443706 -0.000315494 -0.000146925
-0.000315494 -0.00567763 4.22228e-05
-0.000146925 4.22228e-05 -0.00606993
0.000136827 -0.00234402 1.5341e-05
-0.00234402 0.00330259 4.73637e-05
1.5341e-05 4.73637e-05 0.00124994
-0.0139471 -0.000433402 0.00050712
-0.000433402 0.00755165 -1.58585e-05
0.00050712 -1.58585e-05 0.00146188
0.00215211 -0.00300748 -9.73531e-05
-0.00300748 0.000238633 4.66531e-05
-9.73531e-05 4.66531e-05 -0.000913013
0.00655025 -0.00454264 2.4788e-05
-0.00454264 -9.95776e-05 6.17185e-05
2.4788e-05 6.17185e-05 0.00108304
0.00453053 0.000581118 0.00142219
0.000581118 0.00495143 -0.000335953
0.00142219 -0.000335953 0.00244957
0.0156158 -0.00361504 -0.000402555
-0.00361504 0.000914548 0.000227811
-0.000402555 0.000227811 0.000861546
0.00189211 -0.00195893 -3.03577e-05
-0.00195893 -0.000232477 6.65295e-06
-3.03577e-05 6.65295e-06 -0.000579304
0.0123847 -0.000322288 -0.000273949
-0.000322288 -0.00223969 9.50416e-05
-0.000273949 9.50416e-05 -0.00259261
0.00728806 -0.00287435 0.000100018
-0.00287435 -0.00112795 1.09406e-05
0.000100018 1.09406e-05 0.000488931
0.0037561 -0.00165418 6.372e-05
-0.00165418 -2.87773e-06 -4.2061e-05
6.372e-05 -4.2061e-05 7.25532e-06
0.00266591 -0.00112619 3.1464e-05
-0.00112619 -0.00305836 -1.70021e-06
3.1464e-05 -1.70021e-06 -0.000876902
-0.00201844 -0.000613134 -8.15059e-06
-0.000613134 -0.00187617 2.24963e-05
-8.15059e-06 2.24963e-05 -0.00195316
0.00143411 -0.000951396 -2.26742e-05
-0.000951396 -0.000415539 4.58091e-06
-2.26742e-05 4.58091e-06 -0.000423292
0.00395832 -0.000969495 4.37286e-05
-0.000969495 0.000746341 -1.43066e-05
4.37286e-05 -1.43066e-05 0.000810346
0.00184014 -0.00111707 -1.44746e-05
-0.00111707 6.38354e-05 8.28309e-06
-1.44746e-05 8.28309e-06 -0.000377909
0.00251636 -0.000976559 -4.54621e-06
-0.000976559 9.64644e-05 2.6125e-06
-4.54621e-06 2.6125e-06 -0.000118053
0.00266569 -0.000774293 6.91412e-06
-0.000774293 -4.97613e-06 -6.11168e-07
6.91412e-06 -6.11168e-07 -3.39729e-06
0.00222939 -0.000907973 -3.01627e-06
-0.000907973 0.000144069 9.0649e-06
-3.01627e-06 9.0649e-06 -0.000186553
0.0022832 -0.00067343 8.62471e-08
-0.00067343 -2.69919e-05 1.24426e-06
8.62471e-08 1.24426e-06 -0.000122772
0.0024608 -0.000676645 4.96542e-07
-0.000676645 4.43198e-05 3.88575e-07
4.96542e-07 3.88575e-07 1.77259e-05
0.00203795 -0.000611709 3.10023e-06
-0.000611709 -1.00359e-05 5.18935e-06
3.10023e-06 5.18935e-06 -0.000213676
0.00225799 -0.000630061 -2.36928e-08
-0.000630061 7.34675e-05 9.58007e-07
-2.36928e-08 9.58007e-07 -5.4191e-05
0.00240848 -0.000664031 -1.01571e-06
-0.000664031 0.000113743 1.72353e-06
-1.01571e-06 1.72353e-06 1.28019e-05
0.00222788 -0.000615545 -4.8001e-06
-0.000615545 0.000142065 1.26385e-06
-4.8001e-06 1.26385e-06 -1.44601e-05
0.00224692 -0.000591302 -5.82849e-07
-0.000591302 0.000210478 1.27109e-07
-5.82849e-07 1.27109e-07 3.71806e-05
0.00226193 -0.000579836 1.28255e-07
-0.000579836 0.000196812 3.48195e-06
1.28255e-07 3.48195e-06 1.51411e-05
0.00223601 -0.000567389 8.26254e-07
-0.000567389 0.000263775 -4.56168e-07
8.26254e-07 -4.56168e-07 5.51797e-05
0.0021553 -0.000583229 -2.78823e-06
-0.000583229 0.000224472 -1.49075e-06
-2.78823e-06 -1.49075e-06 -4.60432e-06
0.00225699 -0.000641381 -3.08555e-06
-0.000641381 0.000350038 -5.23937e-06
-3.08555e-06 -5.23937e-06 4.54118e-05
0.00228537 -0.000659722 -6.13646e-07
-0.000659722 0.000297679 1.12373e-07
-6.13646e-07 1.12373e-07 7.28502e-06
0.00234498 -0.000643849 7.05875e-06
-0.000643849 0.000314231 4.80378e-06
7.05875e-06 4.80378e-06 4.08289e-05
0.00185863 -0.000681014 -8.98355e-06
-0.000681014 0.000298044 -2.62112e-07
-8.98355e-06 -2.62112e-07 -0.00011203
0.00206644 -0.000765595 -1.76871e-06
-0.000765595 0.000323545 -7.21542e-07
-1.76871e-06 -7.21542e-07 -8.72715e-05
0.00184043 -0.000783564 4.23616e-06
-0.000783564 9.28716e-05 3.62543e-06
4.23616e-06 3.62543e-06 -0.000313315
0.000999573 -0.000343411 -1.42382e-05
-0.000343411 0.000109845 8.64437e-06
-1.42382e-05 8.64437e-06 -0.00017395
0.001684 -0.000678971 5.45015e-07
-0.000678971 0.000372746 9.31056e-07
5.45015e-07 9.31056e-07 -6.737e-05
0.00224709 -0.00089309 5.48181e-07
-0.00089309 0.000619338 4.27219e-06
5.48181e-07 4.27219e-06 0.000112711
6.51584e-05 -0.000208255 -1.8249e-05
-0.000208255 -0.000324335 2.21752e-05
-1.8249e-05 2.21752e-05 -0.000471364
0.000654792 -0.000282671 1.00558e-06
-0.000282671 8.65389e-06 4.96354e-07
1.00558e-06 4.96354e-07 -0.000252343
0.000914594 -0.000491608 7.44195e-06
-0.000491608 4.42012e-05 -1.22684e-06
7.44195e-06 -1.22684e-06 -0.000334506
0.00605069 0.000128336 -0.000194991
0.000128336 0.00360795 1.32101e-05
-0.000194991 1.32101e-05 0.00360008
0.000480678 -0.000201478 -7.89089e-06
-0.000201478 -6.15902e-05 -1.25561e-06
-7.89089e-06 -1.25561e-06 -0.000179661
0.000498377 -0.00025754 4.59671e-06
-0.00025754 -1.60906e-06 -5.17784e-06
4.59671e-06 -5.17784e-06 -0.000269448
0.00541775 0.000168511 1.47043e-05
0.000168511 0.00322518 -1.22067e-06
1.47043e-05 -1.22067e-06 0.003207
0.000554332 -0.000161081 2.95439e-05
-0.000161081 4.37064e-06 -1.50285e-05
2.95439e-05 -1.50285e-05 -9.98966e-05
0.00478017 0.000140779 0.000148952
0.000140779 0.00280345 -1.20227e-05
0.000148952 -1.20227e-05 0.00279456
0.00273328 0.000837688 3.13861e-06
0.000837688 0.00124417 6.20743e-06
3.13861e-06 6.20743e-06 0.000725707
0.000855589 0.000373141 -2.89357e-06
0.000373141 0.000129466 -9.533e-07
-2.89357e-06 -9.533e-07 -0.000167268
0.000751442 0.000233239 6.37498e-06
0.000233239 0.000103165 -5.34152e-07
6.37498e-06 -5.34152e-07 -0.000132437
-0.000782624 8.95677e-05 -8.00261e-07
8.95677e-05 -0.000840547 -5.26198e-06
-8.00261e-07 -5.26198e-06 -0.00106109
0.000271617 0.000211676 2.95873e-06
0.000211676 -0.000112079 8.69079e-07
2.95873e-06 8.69079e-07 -0.000352932
0.000917951 0.0002299 -5.15621e-06
0.0002299 0.000286482 -9.35198e-06
-5.15621e-06 -9.35198e-06 6.47735e-05
-1.59495e-05 7.80104e-05 -2.91538e-06
7.80104e-05 -0.000181761 2.09447e-06
-2.91538e-06 2.09447e-06 -0.000477697
0.000712587 0.000130454 6.3501e-07
0.000130454 0.000209278 7.51837e-07
6.3501e-07 7.51837e-07 -1.37758e-06
0.00073155 8.79415e-05 -1.48124e-05
8.79415e-05 0.000166238 -1.87226e-05
-1.48124e-05 -1.87226e-05 8.5036e-05
0.00360352 -0.000109697 -9.8076e-05
-0.000109697 0.00203696 -1.03908e-05
-9.8076e-05 -1.03908e-05 0.00203709
0.000435717 3.53028e-05 1.98753e-06
3.53028e-05 -6.55066e-06 -5.03372e-07
1.98753e-06 -5.03372e-07 -6.91232e-05
0.000230045 7.17652e-05 -2.91438e-06
7.17652e-05 -0.000105721 1.09705e-05
-2.91438e-06 1.09705e-05 -0.000268863
0.00309044 -0.000112655 -1.06777e-05
-0.000112655 0.00169767 1.05045e-06
-1.06777e-05 1.05045e-06 0.00169681
0.000277053 -6.34218e-05 -9.88417e-06
-6.34218e-05 -0.000100491 1.3478e-05
-9.88417e-06 1.3478e-05 -0.000155642
0.00280132 -9.06693e-05 3.83395e-05
-9.06693e-05 0.00150253 5.97295e-06
3.83395e-05 5.97295e-06 0.00150622
0.0160205 0.000819837 0.000637326
0.000819837 0.00127405 0.000147652
0.000637326 0.000147652 0.00149588
0.000668987 -0.00424503 -0.000807281
-0.00424503 -0.0015166 -9.42535e-05
-0.000807281 -9.42535e-05 -0.00541007
-0.00893028 0.00173125 -0.000274353
0.00173125 0.00605456 -0.000127874
-0.000274353 -0.000127874 -0.00207282
-1.08004e-05 7.93551e-05 1.09919e-05
7.93551e-05 -0.000226626 -2.38566e-05
1.09919e-05 -2.38566e-05 -0.0006333
0.00116053 0.000545492 -7.70961e-06
0.000545492 0.000437032 -5.52635e-06
-7.70961e-06 -5.52635e-06 7.01323e-06
0.00265024 0.000806608 -1.18081e-05
0.000806608 0.00145129 -4.8232e-06
-1.18081e-05 -4.8232e-06 0.000901957
0.00128142 0.000768508 1.00103e-06
0.000768508 0.000360499 -6.31902e-07
1.00103e-06 -6.31902e-07 -0.000181529
0.00174628 0.000866896 1.5579e-05
0.000866896 0.000383471 2.30252e-05
1.5579e-05 2.30252e-05 -0.000124289
-0.000436523 0.000671252 3.40176e-05
0.000671252 -0.000725432 1.29612e-05
3.40176e-05 1.29612e-05 -0.00117119
0.00116916 0.000583494 -1.21636e-05
0.000583494 0.000656502 4.08202e-06
-1.21636e-05 4.08202e-06 0.000137322
0.000205913 0.000824913 7.20316e-06
0.000824913 -0.00040711 1.20126e-06
7.20316e-06 1.20126e-06 -0.00082839
0.00227189 0.00102925 1.94789e-05
0.00102925 0.000857021 4.41879e-06
1.94789e-05 4.41879e-06 0.00048613
0.000636173 0.000844598 8.50677e-06
0.000844598 -0.000282672 -1.55487e-06
8.50677e-06 -1.55487e-06 -0.000644975
0.00360261 0.0012716 8.01761e-06
0.0012716 0.0012158 9.95519e-06
8.01761e-06 9.95519e-06 0.000952916
0.00248934 0.00125664 2.18786e-05
0.00125664 0.000613932 7.87727e-06
2.18786e-05 7.87727e-06 0.000190143
0.000997636 0.00107023 9.36981e-06
0.00107023 -0.00023551 -1.71469e-06
9.36981e-06 -1.71469e-06 -0.000383703
0.00159208 0.000775272 -1.79415e-05
0.000775272 0.000615446 -7.70431e-05
-1.79415e-05 -7.70431e-05 0.000314265
0.00406756 0.00240989 2.98403e-05
0.00240989 -0.00315692 4.58394e-05
2.98403e-05 4.58394e-05 -0.000612359
0.0134216 0.00469253 0.000360164
0.00469253 -0.000701192 0.000209328
0.000360164 0.000209328 -0.00184655
0.014819 -0.00633493 0.000873117
-0.00633493 0.00730156 -9.40069e-05
0.000873117 -9.40069e-05 0.00200067
0.00574123 0.00744031 0.000815409
0.00744031 -0.00163054 0.000413611
0.000815409 0.000413611 -0.00544263
-0.000667343 0.00176956 -4.37039e-05
0.00176956 1.17812e-05 2.20993e-05
-4.37039e-05 2.20993e-05 0.000689405
0.00357469 0.0031169 -9.32066e-05
0.0031169 -0.00117277 -5.79898e-05
-9.32066e-05 -5.79898e-05 0.000374091
0.00681308 0.00282639 5.44853e-05
0.00282639 0.00108515 3.37115e-05
5.44853e-05 3.37115e-05 0.000883731
0.00546314 0.00214108 2.41402e-05
0.00214108 0.0018382 1.07321e-05
2.41402e-05 1.07321e-05 0.00131454
0.000727338 0.0010201 -3.57538e-05
0.0010201 -2.21226e-05 3.39219e-06
-3.57538e-05 3.39219e-06 -0.000320233
0.00863086 0.00341066 -0.000209582
0.00341066 0.00254027 -1.23382e-05
-0.000209582 -1.23382e-05 0.00156301
0.00421426 -0.000835557 -6.13365e-06
-0.000835557 -0.00141848 2.62485e-05
-6.13365e-06 2.62485e-05 0.000131018
0.0119165 -0.000626122 -6.31609e-05
-0.000626122 -0.000101477 -3.73574e-05
-6.31609e-05 -3.73574e-05 0.0005342
-0.0131291 -0.00390845 0.00111974
-0.00390845 -0.00406982 -9.27961e-06
0.00111974 -9.27961e-06 -0.00677733
0.0014554 -0.00175286 -0.000143705
-0.00175286 -0.000336686 4.39061e-05
-0.000143705 4.39061e-05 -0.00060014
0.00825997 -0.00345005 -5.34252e-05
-0.00345005 -0.00140628 0.000100781
-5.34252e-05 0.000100781 0.000449469
0.00182501 -0.000400732 -0.000401767
-0.000400732 -0.00667179 3.14488e-05
-0.000401767 3.14488e-05 -0.00737517
0.00345093 -0.00146737 3.90207e-05
-0.00146737 -0.000162151 1.50185e-06
3.90207e-05 1.50185e-06 0.000151807
0.00531095 -0.00111129 -7.08854e-05
-0.00111129 -0.0013369 -1.91625e-07
-7.08854e-05 -1.91625e-07 0.00025555
0.00707648 -0.00120486 6.4885e-05
-0.00120486 0.00173936 -3.97799e-05
6.4885e-05 -3.97799e-05 0.00220541
0.00595731 -0.000705121 0.000127499
-0.000705121 0.000797718 8.36386e-07
0.000127499 8.36386e-07 0.00149989
-0.00236976 -0.000600229 1.07807e-05
-0.000600229 -0.00264465 1.1512e-05
1.07807e-05 1.1512e-05 -0.00234374
0.00224664 -0.00082118 -9.91689e-06
-0.00082118 -0.000262695 3.00402e-06
-9.91689e-06 3.00402e-06 -4.44582e-05
0.00256729 -0.000616588 2.72597e-05
-0.000616588 -0.000258192 -6.473e-06
2.72597e-05 -6.473e-06 6.89019e-05
0.00211803 -0.000950188 -3.47055e-06
-0.000950188 -0.00013104 4.42138e-06
-3.47055e-06 4.42138e-06 -0.000347737
0.00259154 -0.000766467 1.0469e-06
-0.000766467 -4.05104e-05 1.65065e-06
1.0469e-06 1.65065e-06 -3.78727e-05
0.00262007 -0.000666438 1.47947e-06
-0.000666438 -1.95083e-06 -2.2562e-07
1.47947e-06 -2.2562e-07 2.0772e-05
0.00223074 -0.000672462 1.4359e-06
-0.000672462 -6.30857e-05 4.41771e-06
1.4359e-06 4.41771e-06 -0.000160404
0.0024304 -0.000672849 1.87115e-07
-0.000672849 4.07004e-05 4.66386e-07
1.87115e-07 4.66386e-07 4.95809e-06
0.0024124 -0.000585964 -1.19897e-06
-0.000585964 2.46801e-05 -5.4461e-08
-1.19897e-06 -5.4461e-08 -1.68668e-05
0.00221861 -0.000626055 1.5324e-06
-0.000626055 5.02312e-05 1.68215e-07
1.5324e-06 1.68215e-07 -7.69296e-05
0.00241506 -0.000661701 -8.22145e-09
-0.000661701 0.000146686 -5.18125e-08
-8.22145e-09 -5.18125e-08 3.95219e-05
0.00230102 -0.000578014 1.17972e-06
-0.000578014 0.000128609 5.55858e-07
1.17972e-06 5.55858e-07 1.42221e-05
0.00223453 -0.000623276 -3.31179e-06
-0.000623276 0.000135785 -1.80167e-07
-3.31179e-06 -1.80167e-07 -1.51325e-05
0.00220406 -0.000585422 -1.62498e-06
-0.000585422 0.000181665 6.62911e-08
-1.62498e-06 6.62911e-08 1.09921e-05
0.00231664 -0.000572166 -2.14798e-06
-0.000572166 0.000295542 4.38196e-07
-2.14798e-06 4.38196e-07 9.84537e-05
0.00223907 -0.0005642 3.19691e-06
-0.0005642 0.000263893 1.52347e-06
3.19691e-06 1.52347e-06 5.63395e-05
0.00217508 -0.000582655 -3.14924e-07
-0.000582655 0.00023391 4.65014e-08
-3.14924e-07 4.65014e-08 5.50334e-06
0.00221126 -0.0005825 -7.10775e-07
-0.0005825 0.000289567 -2.30385e-06
-7.10775e-07 -2.30385e-06 3.61956e-05
0.00194592 -0.000579858 -6.56214e-06
-0.000579858 0.000259675 -2.18904e-06
-6.56214e-06 -2.18904e-06 -6.63573e-05
0.00215644 -0.000639307 -3.82371e-07
-0.000639307 0.000283431 -1.53601e-06
-3.82371e-07 -1.53601e-06 -2.80631e-05
0.0023508 -0.000669491 4.37136e-06
-0.000669491 0.000342787 3.44824e-06
4.37136e-06 3.44824e-06 4.89215e-05
0.00118088 -0.000406177 -2.09109e-05
-0.000406177 8.59623e-05 8.83626e-06
-2.09109e-05 8.83626e-06 -0.000214051
0.00194456 -0.000681386 -9.83548e-07
-0.000681386 0.000364586 6.50692e-07
-9.83548e-07 6.50692e-07 -4.28711e-05
0.00201331 -0.000762378 8.7755e-07
-0.000762378 0.00028556 3.20404e-06
8.7755e-07 3.20404e-06 -0.00012848
0.000154275 -0.000219908 -1.70387e-05
-0.000219908 -0.000305737 2.40892e-05
-1.70387e-05 2.40892e-05 -0.00046499
0.000821248 -0.000342533 2.89218e-06
-0.000342533 -8.76663e-06 1.55801e-07
2.89218e-06 1.55801e-07 -0.000297495
0.00176316 -0.000682382 9.77852e-06
-0.000682382 0.000433061 2.68586e-07
9.77852e-06 2.68586e-07 -5.82396e-06
0.0070647 3.87567e-05 -0.000270949
3.87567e-05 0.00421933 1.98662e-05
-0.000270949 1.98662e-05 0.00422635
0.00035285 -0.000232912 -2.9863e-06
-0.000232912 -0.000147649 -4.67944e-07
-2.9863e-06 -4.67944e-07 -0.000297314
0.000433295 -0.000276494 8.75952e-06
-0.000276494 -0.000133117 -7.08262e-06
8.75952e-06 -7.08262e-06 -0.000399006
0.00639323 9.20155e-05 -1.21778e-05
9.20155e-05 0.00382954 -2.5199e-06
-1.21778e-05 -2.5199e-06 0.00382293
0.000465116 -0.000211053 2.36872e-05
-0.000211053 -6.77345e-05 -1.93366e-05
2.36872e-05 -1.93366e-05 -0.000190676
0.0058036 0.000132876 0.000202566
0.000132876 0.0034805 -2.43971e-05
0.000202566 -2.43971e-05 0.00346408
0.00202357 0.000813065 -8.3835e-06
0.000813065 0.000590222 9.08926e-06
-8.3835e-06 9.08926e-06 9.8379e-05
0.00189293 0.000729062 -1.29975e-06
0.000729062 0.000690927 -7.6861e-07
-1.29975e-06 -7.6861e-07 0.000207594
0.00120732 0.000479107 -4.10692e-06
0.000479107 0.000302403 1.57529e-06
-4.10692e-06 1.57529e-06 -6.39358e-05
0.00107396 0.000441103 -2.92604e-06
0.000441103 0.000307019 -3.43161e-06
-2.92604e-06 -3.43161e-06 -2.43907e-05
0.000627636 0.000239671 -4.74183e-07
0.000239671 3.66591e-05 -1.51377e-06
-4.74183e-07 -1.51377e-06 -0.00021079
0.000652693 0.000241129 -4.54878e-06
0.000241129 9.15342e-05 -4.62719e-06
-4.54878e-06 -4.62719e-06 -0.000164882
0.000583413 0.000135866 1.18833e-06
0.000135866 8.18348e-05 5.62183e-07
1.18833e-06 5.62183e-07 -0.000145905
0.000764533 0.000177407 1.71226e-06
0.000177407 0.000230154 -1.14676e-06
1.71226e-06 -1.14676e-06 -1.92312e-05
0.000688454 0.000129601 -2.28256e-05
0.000129601 0.000110349 -2.01736e-05
-2.28256e-05 -2.01736e-05 9.75656e-06
-1.80335e-05 0.00010334 -9.47552e-07
0.00010334 -0.000229712 1.16706e-05
-9.47552e-07 1.16706e-05 -0.000452999
0.000479614 8.70511e-05 6.45083e-08
8.70511e-05 1.11527e-05 -2.94864e-07
6.45083e-08 -2.94864e-07 -6.79293e-05
0.00436709 -0.000136897 -0.000126263
-0.000136897 0.0025453 -1.4662e-05
-0.000126263 -1.4662e-05 0.00253594
0.00363251 -0.000137591 -1.32333e-05
-0.000137591 0.00206079 1.24242e-06
-1.32333e-05 1.24242e-06 0.00205355
0.000286455 6.78679e-05 9.25789e-06
6.78679e-05 -0.000100084 1.65914e-05
9.25789e-06 1.65914e-05 -0.000160617
0.00309353 -0.000116361 4.61832e-05
-0.000116361 0.00170036 6.44643e-06
4.61832e-05 6.44643e-06 0.00169825
0.00315624 0.000337872 0.000106784
0.000337872 -0.00195851 3.68169e-05
0.000106784 3.68169e-05 3.30117e-05
0.00592302 -0.000771894 0.000244209
-0.000771894 -0.00543429 0.000125967
0.000244209 0.000125967 -0.00610944
0.0152815 -0.00469581 -0.000300102
-0.00469581 0.007325 -0.000129181
-0.000300102 -0.000129181 0.00379034
0.0017263 0.000788185 7.9083e-06
0.000788185 0.000149751 1.14879e-05
7.9083e-06 1.14879e-05 -0.000260261
0.00511596 0.00106021 -1.46362e-05
0.00106021 0.00282789 -9.52448e-06
-1.46362e-05 -9.52448e-06 0.00225539
0.000232215 0.000625659 -9.55308e-06
0.000625659 -0.000274164 -1.21894e-05
-9.55308e-06 -1.21894e-05 -0.000778654
0.00170605 0.000945138 1.89721e-06
0.000945138 0.000562208 -1.98372e-06
1.89721e-06 -1.98372e-06 4.84377e-05
0.0019605 0.000892164 -1.21009e-06
0.000892164 0.000539549 4.14264e-06
-1.21009e-06 4.14264e-06 1.96498e-05
0.00197013 0.000979926 2.76515e-05
0.000979926 0.000471423 1.77288e-05
2.76515e-05 1.77288e-05 9.98844e-06
0.00221662 0.00104576 -4.16864e-05
0.00104576 0.000803786 -5.6666e-06
-4.16864e-05 -5.6666e-06 0.000311143
0.00078331 0.000826354 8.1639e-06
0.000826354 5.00388e-05 -3.64898e-05
8.1639e-06 -3.64898e-05 -0.000303476
0.00200879 0.00109314 -6.85522e-07
0.00109314 0.000468785 -1.06135e-06
-6.85522e-07 -1.06135e-06 5.66184e-05
0.00199006 0.00109321 1.42876e-05
0.00109321 0.000258325 -2.19357e-05
1.42876e-05 -2.19357e-05 0.000143039
0.00224901 0.00109819 2.18435e-05
0.00109819 0.000347971 -3.65862e-06
2.18435e-05 -3.65862e-06 -7.45056e-05
0.0020758 0.000930028 3.22187e-05
0.000930028 0.00028657 2.80342e-05
3.22187e-05 2.80342e-05 7.90046e-05
0.000762504 0.00102894 -9.11506e-06
0.00102894 -0.000312661 -7.11744e-06
-9.11506e-06 -7.11744e-06 -0.000646696
0.000814495 0.00102003 -3.05892e-05
0.00102003 -0.000280266 -2.01937e-05
-3.05892e-05 -2.01937e-05 -0.000433128
0.00228973 0.00112571 5.4529e-05
0.00112571 -0.00114749 4.14343e-05
5.4529e-05 4.14343e-05 -0.000393343
0.00631548 0.00260919 -0.000108486
0.00260919 -0.00203516 -3.58302e-05
-0.000108486 -3.58302e-05 0.000325666
0.00458978 0.00335546 0.000726888
0.00335546 -0.0062152 0.00019751
0.000726888 0.00019751 -0.00717091
0.00338469 0.00273203 -0.000261753
0.00273203 -0.000226959 -0.000113055
-0.000261753 -0.000113055 0.000908915
0.00533355 0.00232429 -3.23408e-05
0.00232429 0.000801011 -9.4298e-06
-3.23408e-05 -9.4298e-06 0.00071967
0.0064896 0.00232863 -0.000189619
0.00232863 0.00222708 -5.38199e-05
-0.000189619 -5.38199e-05 0.00166148
0.00324012 -0.000238327 -5.12771e-05
-0.000238327 -0.000670542 -2.18994e-05
-5.12771e-05 -2.18994e-05 -0.000117662
-0.000540256 -0.000499135 0.000120312
-0.000499135 -0.00207631 2.89907e-05
0.000120312 2.89907e-05 -0.000413418
0.00572431 0.000512124 0.000301047
0.000512124 -0.00579904 -1.52024e-05
0.000301047 -1.52024e-05 -0.00599558
0.00112776 -0.0011485 -6.93267e-05
-0.0011485 -0.00129672 8.46019e-05
-6.93267e-05 8.46019e-05 -0.000767419
0.00688042 -0.00121963 -0.000206247
-0.00121963 -0.000546463 5.67174e-05
-0.000206247 5.67174e-05 0.000580534
0.00311072 -0.000912664 -2.94294e-05
-0.000912664 -0.000561335 1.16443e-05
-2.94294e-05 1.16443e-05 9.87146e-05
0.00463082 -0.000664286 -1.71327e-05
-0.000664286 0.000185005 -9.71065e-07
-1.71327e-05 -9.71065e-07 0.000732118
0.00426968 -0.000497902 8.77656e-05
-0.000497902 0.000694993 -1.44266e-05
8.77656e-05 -1.44266e-05 0.00104667
0.00297271 -0.000113676 4.79272e-05
-0.000113676 0.000332192 -1.27503e-06
4.79272e-05 -1.27503e-06 0.000436235
0.000479575 -0.000647916 -2.08205e-05
-0.000647916 -0.0012538 1.13424e-05
-2.08205e-05 1.13424e-05 -0.000893516
0.00247777 -0.000642555 -3.3049e-06
-0.000642555 -0.000316477 5.94556e-07
-3.3049e-06 5.94556e-07 -1.46608e-05
0.00261311 -0.000504 3.68391e-06
-0.000504 -0.000220472 -4.6995e-07
3.68391e-06 -4.6995e-07 3.21478e-05
0.00251255 -0.000753357 -3.29554e-06
-0.000753357 -7.26365e-05 2.76984e-06
-3.29554e-06 2.76984e-06 -6.64207e-05
0.00261741 -0.000645174 -1.40166e-07
-0.000645174 2.51311e-05 -5.24928e-07
-1.40166e-07 -5.24928e-07 5.83532e-05
0.00245508 -0.000492851 -1.01432e-06
-0.000492851 -6.94272e-05 -1.69419e-07
-1.01432e-06 -1.69419e-07 -1.79607e-05
0.00239061 -0.000666459 -1.28434e-06
-0.000666459 3.33732e-05 4.41652e-07
-1.28434e-06 4.41652e-07 -9.65419e-06
0.00240685 -0.000589419 -7.05241e-07
-0.000589419 3.38635e-05 4.42017e-08
-7.05241e-07 4.42017e-08 -5.16824e-06
0.00229808 -0.000491226 -1.41824e-07
-0.000491226 4.83218e-05 4.13748e-07
-1.41824e-07 4.13748e-07 -7.40519e-06
0.00242263 -0.000658545 -8.46783e-07
-0.000658545 0.000180959 -1.46681e-06
-8.46783e-07 -1.46681e-06 6.8161e-05
0.00228453 -0.000577851 1.02738e-06
-0.000577851 0.000116042 -2.60216e-07
1.02738e-06 -2.60216e-07 1.4306e-06
0.00219598 -0.000518885 -1.08285e-06
-0.000518885 0.000138162 3.78606e-07
-1.08285e-06 3.78606e-07 -4.13535e-06
0.00216542 -0.00058049 -2.42051e-06
-0.00058049 0.00015601 2.53533e-07
-2.42051e-06 2.53533e-07 -1.20989e-05
0.00225631 -0.000566665 -1.27644e-06
-0.000566665 0.000249332 6.86478e-07
-1.27644e-06 6.86478e-07 5.53332e-05
0.00232386 -0.000556595 -1.26481e-06
-0.000556595 0.000317572 -1.72303e-06
-1.26481e-06 -1.72303e-06 0.000103008
0.00219319 -0.000582371 2.63251e-06
-0.000582371 0.00024192 2.35854e-06
2.63251e-06 2.35854e-06 1.40689e-05
0.00220815 -0.000583644 -3.7323e-08
-0.000583644 0.000287178 -1.21417e-07
-3.7323e-08 -1.21417e-07 3.55932e-05
0.00207543 -0.000522843 -4.87967e-06
-0.000522843 0.000305048 -6.04525e-07
-4.87967e-06 -6.04525e-07 2.66713e-05
0.00124618 -0.000390199 -1.97641e-05
-0.000390199 3.80768e-05 7.82128e-06
-1.97641e-05 7.82128e-06 -0.000241065
0.00193696 -0.000578928 -6.27979e-07
-0.000578928 0.000258488 -9.99442e-07
-6.27979e-07 -9.99442e-07 -7.16485e-05
0.00205707 -0.000637534 1.49364e-06
-0.000637534 0.000217506 2.1709e-06
1.49364e-06 2.1709e-06 -0.000100976
0.000238173 -0.00024445 -2.21397e-05
-0.00024445 -0.000261283 1.97976e-05
-2.21397e-05 1.97976e-05 -0.000430426
0.00113379 -0.000402526 1.93583e-06
-0.000402526 5.75008e-05 -9.74269e-08
1.93583e-06 -9.74269e-08 -0.000242614
0.00202994 -0.000682478 7.16053e-06
-0.000682478 0.000429479 1.27329e-06
7.16053e-06 1.27329e-06 2.43406e-05
0.00795144 -8.50189e-06 -0.000320032
-8.50189e-06 0.00475119 2.63306e-05
-0.000320032 2.63306e-05 0.00476299
0.00026459 -0.000272504 -1.42683e-06
-0.000272504 -0.000225226 2.52021e-06
-1.42683e-06 2.52021e-06 -0.000397121
0.000660676 -0.000343863 1.46471e-05
-0.000343863 -0.000119601 -6.61953e-06
1.46471e-05 -6.61953e-06 -0.000413217
0.00736596 2.18758e-05 -6.673e-06
2.18758e-05 0.00441145 2.23823e-07
-6.673e-06 2.23823e-07 0.00441703
0.000773027 -0.000291785 2.61595e-05
-0.000291785 0.000116263 -2.46515e-05
2.61595e-05 -2.46515e-05 -3.99665e-05
0.006702 8.85013e-05 0.000255014
8.85013e-05 0.00403523 -3.10698e-05
0.000255014 -3.10698e-05 0.0040249
0.00177106 0.000730768 -4.10282e-06
0.000730768 0.000247549 9.45275e-06
-4.10282e-06 9.45275e-06 -0.000168557
0.0019215 0.000802307 -1.64778e-06
0.000802307 0.000521273 1.02013e-06
-1.64778e-06 1.02013e-06 3.07572e-05
0.00149165 0.000603103 -9.01804e-06
0.000603103 0.000306788 3.86999e-06
-9.01804e-06 3.86999e-06 -0.000101791
0.00103823 0.000620666 -4.24198e-06
0.000620666 0.000119284 -5.53741e-06
-4.24198e-06 -5.53741e-06 -0.000328992
0.0014275 0.000471782 -4.05115e-06
0.000471782 0.000403336 -2.18992e-06
-4.05115e-06 -2.18992e-06 4.62915e-05
0.000793155 0.000267687 -1.26943e-05
0.000267687 0.000119688 -1.73113e-06
-1.26943e-05 -1.73113e-06 -0.000141927
0.000573176 0.00021177 -8.6433e-07
0.00021177 -2.51492e-05 -4.66994e-06
-8.6433e-07 -4.66994e-06 -0.000267847
0.000628571 0.000212914 1.74155e-06
0.000212914 4.90396e-05 -3.71649e-07
1.74155e-06 -3.71649e-07 -0.000182039
0.000391027 0.000181349 -3.04399e-05
0.000181349 -0.000113807 -1.9565e-05
-3.04399e-05 -1.9565e-05 -0.000220555
0.000575446 0.000147941 1.67359e-06
0.000147941 9.76467e-05 9.6034e-06
1.67359e-06 9.6034e-06 -0.000140176
0.000516449 0.000121959 -1.30627e-06
0.000121959 7.96176e-06 -3.40547e-07
-1.30627e-06 -3.40547e-07 -8.70187e-05
0.00529754 -0.000163415 -0.000166702
-0.000163415 0.00316168 -1.93729e-05
-0.000166702 -1.93729e-05 0.00314145
0.000206631 9.19775e-05 1.50295e-05
9.19775e-05 -0.000157581 1.8895e-05
1.50295e-05 1.8895e-05 -0.000232239
0.0041008 -0.000159539 -1.33191e-05
-0.000159539 0.00238006 1.50049e-06
-1.33191e-05 1.50049e-06 0.0023646
0.0034236 -0.000146449 5.68443e-05
-0.000146449 0.00192685 7.59297e-06
5.68443e-05 7.59297e-06 0.00191632
0.00105453 0.000300497 4.50483e-06
0.000300497 -0.00196296 1.15329e-05
4.50483e-06 1.15329e-05 -0.000929872
0.00488667 0.000224874 7.20509e-05
0.000224874 -0.00139303 2.97954e-05
7.20509e-05 2.97954e-05 0.000559828
0.0162273 0.000868225 2.27493e-05
0.000868225 0.00149832 6.13634e-05
2.27493e-05 6.13634e-05 0.00196675
0.00217645 0.000908649 2.25727e-06
0.000908649 0.000375873 7.39896e-06
2.25727e-06 7.39896e-06 -2.99452e-05
0.00226378 0.00083509 9.15148e-07
0.00083509 0.000274606 6.0127e-06
9.15148e-07 6.0127e-06 -7.37784e-05
0.00171166 0.000788542 -5.87362e-07
0.000788542 0.000149554 -4.50897e-06
-5.87362e-07 -4.50897e-06 -0.000255904
0.00325753 0.00114695 -1.66875e-05
0.00114695 0.00148205 -2.99652e-06
-1.66875e-05 -2.99652e-06 0.000923534
0.0021937 0.000916939 -7.94163e-06
0.000916939 0.000709727 -1.24274e-05
-7.94163e-06 -1.24274e-05 0.000177952
0.00222925 0.00104324 7.43911e-06
0.00104324 0.000576013 3.57725e-06
7.43911e-06 3.57725e-06 0.000108084
0.0023397 0.00102453 -2.66836e-06
0.00102453 0.000227499 -9.05634e-07
-2.66836e-06 -9.05634e-07 -0.000137741
0.00218648 0.00116394 -1.519e-05
0.00116394 0.000505791 -1.42383e-06
-1.519e-05 -1.42383e-06 8.58168e-05
0.000534834 0.0009422 -2.81446e-05
0.0009422 -0.000601232 6.17924e-05
-2.81446e-05 6.17924e-05 -0.000603338
0.00289837 0.00118534 4.05488e-07
0.00118534 0.000712294 -4.52525e-07
4.05488e-07 -4.52525e-07 0.000269396
0.00294321 0.00100096 -4.71698e-06
0.00100096 0.000435647 8.23932e-06
-4.71698e-06 8.23932e-06 0.000198451
0.00164638 0.000472083 5.30209e-05
0.000472083 -0.00017797 1.45192e-05
5.30209e-05 1.45192e-05 -4.20011e-05
0.000386743 0.000760795 7.5377e-06
0.000760795 -0.000597437 -6.91707e-06
7.5377e-06 -6.91707e-06 -0.0007843
0.000744694 0.0010161 -3.98818e-05
0.0010161 -0.000318694 -5.47274e-06
-3.98818e-05 -5.47274e-06 -0.000646404
0.00371758 0.00126919 2.07055e-05
0.00126919 -0.000334479 1.15643e-05
2.07055e-05 1.15643e-05 0.000258218
0.00883926 0.00244395 -6.38427e-05
0.00244395 -0.000734718 -4.94185e-05
-6.38427e-05 -4.94185e-05 0.00113468
0.00522043 0.00196596 -6.59316e-05
0.00196596 0.00122771 -7.8334e-05
-6.59316e-05 -7.8334e-05 0.00122852
0.00292725 -7.98215e-05 5.94857e-05
-7.98215e-05 0.000199797 7.97029e-06
5.94857e-05 7.97029e-06 0.000462014
0.00326724 -0.000248007 -8.35085e-05
-0.000248007 -0.000709601 6.86724e-06
-8.35085e-05 6.86724e-06 6.14696e-06
0.00517588 0.000501419 1.25589e-05
0.000501419 -0.000135543 -2.05397e-05
1.25589e-05 -2.05397e-05 0.00104833
0.00058905 -0.000765742 -8.25218e-05
-0.000765742 -0.00203521 6.11287e-05
-8.25218e-05 6.11287e-05 -0.00126365
0.00305672 -0.000682517 -0.000105624
-0.000682517 -0.000574796 6.0344e-06
-0.000105624 6.0344e-06 -0.000176088
0.00307262 -0.000454926 2.8191e-06
-0.000454926 -3.70776e-05 -3.53841e-06
2.8191e-06 -3.53841e-06 0.000429975
0.00234399 -0.00010483 -1.41006e-05
-0.00010483 -8.40825e-05 -5.32843e-07
-1.41006e-05 -5.32843e-07 5.13843e-05
0.00254129 -0.000289274 1.12351e-05
-0.000289274 -0.000211094 -1.23735e-06
1.12351e-05 -1.23735e-06 2.1076e-05
0.00230103 5.46413e-05 6.65605e-06
5.46413e-05 -0.000341645 -4.60858e-07
6.65605e-06 -4.60858e-07 -0.000198655
0.00250303 -0.000677675 -2.03283e-05
-0.000677675 -0.000311627 4.83791e-06
-2.03283e-05 4.83791e-06 -3.94352e-05
0.00264796 -0.000528244 -2.83191e-06
-0.000528244 -0.000208268 6.91592e-07
-2.83191e-06 6.91592e-07 6.21022e-06
0.00251959 -0.000359748 -5.1726e-07
-0.000359748 -0.000144069 -8.6144e-08
-5.1726e-07 -8.6144e-08 2.17202e-06
0.00260418 -0.000624364 -3.98863e-06
-0.000624364 4.12963e-05 4.68968e-07
-3.98863e-06 4.68968e-07 8.57884e-05
0.00246859 -0.000492947 2.45741e-07
-0.000492947 -4.86689e-05 -1.73739e-07
2.45741e-07 -1.73739e-07 -3.42473e-06
0.00234697 -0.000403221 4.49882e-07
-0.000403221 -2.573e-05 1.32598e-07
4.49882e-07 1.32598e-07 -6.41569e-06
0.00240298 -0.000593313 -1.39232e-06
-0.000593313 4.32891e-05 -2.48566e-07
-1.39232e-06 -2.48566e-07 6.40334e-06
0.00230934 -0.000490392 3.77162e-07
-0.000490392 5.04701e-05 -3.30243e-08
3.77162e-07 -3.30243e-08 -5.06556e-06
0.00223234 -0.000438811 -1.86267e-06
-0.000438811 8.61529e-05 7.97662e-07
-1.86267e-06 7.97662e-07 6.60498e-06
0.00226991 -0.00057793 1.45035e-06
-0.00057793 0.000104498 -1.08338e-06
1.45035e-06 -1.08338e-06 -1.03562e-05
0.00219491 -0.000519064 7.28338e-07
-0.000519064 0.00013193 -4.2299e-07
7.28338e-07 -4.2299e-07 -1.0637e-05
0.00220195 -0.000491741 -2.04346e-06
-0.000491741 0.000193515 -5.21038e-07
-2.04346e-06 -5.21038e-07 1.7876e-05
0.00219044 -0.000560864 -3.42326e-07
-0.000560864 0.000199264 6.94914e-07
-3.42326e-07 6.94914e-07 8.41967e-06
0.00223294 -0.000551911 -1.48665e-07
-0.000551911 0.000258511 -1.44264e-07
-1.48665e-07 -1.44264e-07 4.41793e-05
0.00204327 -0.000485979 -3.983e-06
-0.000485979 0.000228023 -5.24189e-07
-3.983e-06 -5.24189e-07 -1.73302e-05
0.0022049 -0.000584727 1.39701e-06
-0.000584727 0.000284936 2.9336e-06
1.39701e-06 2.9336e-06 3.51542e-05
0.00209057 -0.000526714 -7.16107e-07
-0.000526714 0.000314212 -2.49105e-08
-7.16107e-07 -2.49105e-08 3.70165e-05
0.00128103 -0.00033829 -1.61486e-05
-0.00033829 2.72276e-05 7.18581e-06
-1.61486e-05 7.18581e-06 -0.000218782
0.00030006 -0.000228053 -1.94441e-05
-0.000228053 -0.000247008 1.96106e-05
-1.94441e-05 1.96106e-05 -0.000405894
0.00125611 -0.000388299 2.16703e-07
-0.000388299 4.90403e-05 3.38913e-08
2.16703e-07 3.38913e-08 -0.000228637
0.00191974 -0.000577407 4.83837e-06
-0.000577407 0.000251679 -3.25222e-08
4.83837e-06 -3.25222e-08 -8.24918e-05
0.00811279 -0.000106594 -0.000371716
-0.000106594 0.00483098 3.24253e-05
-0.000371716 3.24253e-05 0.00485281
0.000312946 -0.000252709 -1.36439e-06
-0.000252709 -0.000224343 1.19086e-06
-1.36439e-06 1.19086e-06 -0.000390685
0.000983053 -0.000391191 1.93531e-05
-0.000391191 -3.04105e-05 -7.17229e-06
1.93531e-05 -7.17229e-06 -0.00032975
0.00808856 -5.1373e-05 1.84096e-06
-5.1373e-05 0.00483575 1.28095e-06
1.84096e-06 1.28095e-06 0.00485065
0.000532581 -0.000289154 2.68579e-05
-0.000289154 -6.37939e-05 -2.28539e-05
2.68579e-05 -2.28539e-05 -0.000236932
0.0077492 -2.4945e-05 0.000333598
-2.4945e-05 0.00464394 -3.3969e-05
0.000333598 -3.3969e-05 0.00465438
0.00198529 0.00075775 1.10202e-06
0.00075775 0.000221672 9.47841e-06
1.10202e-06 9.47841e-06 -0.000144622
0.00185121 0.000745393 8.48668e-07
0.000745393 0.000303341 3.36668e-07
8.48668e-07 3.36668e-07 -0.000113418
0.00193355 0.000668058 -7.35294e-06
0.000668058 0.000435537 5.26886e-06
-7.35294e-06 5.26886e-06 3.30937e-05
0.00176585 0.000781531 5.17281e-06
0.000781531 0.000426631 -6.96794e-06
5.17281e-06 -6.96794e-06 -5.95671e-05
0.00153185 0.000605347 -6.06506e-07
0.000605347 0.000334008 6.73386e-07
-6.06506e-07 6.73386e-07 -7.60451e-05
0.000880586 0.000312133 -1.68201e-05
0.000312133 4.7165e-05 -3.24583e-06
-1.68201e-05 -3.24583e-06 -0.000219811
0.00158996 0.000461371 1.72931e-06
0.000461371 0.000479299 -2.62485e-06
1.72931e-06 -2.62485e-06 0.000130731
0.000573127 0.000230162 1.07138e-06
0.000230162 -2.8276e-05 5.10107e-07
1.07138e-06 5.10107e-07 -0.000277375
0.000441381 0.000237516 -3.10981e-05
0.000237516 -9.61711e-05 -2.22604e-05
-3.10981e-05 -2.22604e-05 -0.000224125
0.000644341 0.000158169 3.01925e-06
0.000158169 7.23307e-05 5.44524e-06
3.01925e-06 5.44524e-06 -0.000166822
0.000479996 0.000166013 1.34637e-06
0.000166013 -5.4125e-05 -9.59721e-07
1.34637e-06 -9.59721e-07 -0.000159677
0.00626888 -0.000192947 -0.000199671
-0.000192947 0.00380305 -2.66278e-05
-0.000199671 -2.66278e-05 0.00376736
0.000334782 0.000114942 1.95453e-05
0.000114942 -9.80961e-05 2.06177e-05
1.95453e-05 2.06177e-05 -0.0001919
0.00497452 -0.000199237 -1.41363e-05
-0.000199237 0.00296433 1.67958e-06
-1.41363e-05 1.67958e-06 0.00293435
0.00405395 -0.000182067 8.13054e-05
-0.000182067 0.00235367 1.03642e-05
8.13054e-05 1.03642e-05 0.00233254
0.00168525 0.00026695 4.28612e-05
0.00026695 -0.000393624 2.08335e-05
4.28612e-05 2.08335e-05 -5.31279e-05
0.00229508 0.000363989 -2.53976e-05
0.000363989 -0.00164776 -3.7651e-06
-2.53976e-05 -3.7651e-06 -0.000547333
0.00495971 0.000617708 0.000260895
0.000617708 -0.0016846 8.15802e-05
0.000260895 8.15802e-05 0.000638969
0.00263243 0.00089256 -8.99867e-06
0.00089256 0.000431912 8.09514e-07
-8.99867e-06 8.09514e-07 0.000100729
0.00207819 0.000921948 -8.12464e-06
0.000921948 0.000297477 -5.42262e-06
-8.12464e-06 -5.42262e-06 -0.000106334
0.00236517 0.000678399 2.32741e-06
0.000678399 0.000224982 5.60052e-06
2.32741e-06 5.60052e-06 -1.72552e-05
0.00235974 0.000833966 1.49709e-06
0.000833966 0.000338583 4.94504e-07
1.49709e-06 4.94504e-07 -6.9768e-06
0.00167708 0.000786778 6.85457e-07
0.000786778 0.000136502 -1.45943e-05
6.85457e-07 -1.45943e-05 -0.00026396
0.00258252 0.000794417 -5.01509e-06
0.000794417 0.000157008 1.16095e-06
-5.01509e-06 1.16095e-06 -3.59e-05
0.00273465 0.00113611 -1.02208e-05
0.00113611 0.000828485 -8.27761e-06
-1.02208e-05 -8.27761e-06 0.00034435
0.00266166 0.00102819 -3.02803e-07
0.00102819 0.000435841 -2.06252e-07
-3.02803e-07 -2.06252e-07 6.62984e-05
0.00220696 0.000494254 -1.80169e-05
0.000494254 -0.000252618 7.11057e-07
-1.80169e-05 7.11057e-07 -0.000177564
0.00335268 0.00126927 -9.04329e-06
0.00126927 0.000926182 1.35867e-05
-9.04329e-06 1.35867e-05 0.000499176
0.00262907 0.000967993 1.53449e-07
0.000967993 0.000262538 -1.16329e-06
1.53449e-07 -1.16329e-06 2.58081e-05
0.000617186 0.000456684 -8.20307e-06
0.000456684 -0.00080951 1.53809e-06
-8.20307e-06 1.53809e-06 -0.000622112
-0.00183257 0.000538109 -2.76915e-05
0.000538109 -0.00175791 -1.207e-05
-2.76915e-05 -1.207e-05 -0.00189794
0.00385014 0.00135654 -0.000148885
0.00135654 -0.000262704 -5.45458e-05
-0.000148885 -5.45458e-05 0.000209649
0.00253498 0.000162301 8.35915e-07
0.000162301 -0.000159077 -2.39831e-06
8.35915e-07 -2.39831e-06 3.30398e-07
0.00295529 -5.93448e-05 -1.90251e-06
-5.93448e-05 0.000311628 5.2196e-07
-1.90251e-06 5.2196e-07 0.000489416
0.00298733 -0.000297142 -0.000113854
-0.000297142 -0.000937097 -1.97461e-06
-0.000113854 -1.97461e-06 -6.1938e-05
0.00149962 -0.000394923 -8.05413e-05
-0.000394923 -0.000996107 1.33261e-05
-8.05413e-05 1.33261e-05 -0.00041348
0.00208533 -0.000111334 -1.90868e-05
-0.000111334 -0.000257355 1.68123e-06
-1.90868e-05 1.68123e-06 -9.72769e-05
0.00252473 -0.000294204 3.53793e-06
-0.000294204 -0.00023233 -8.25011e-07
3.53793e-06 -8.25011e-07 3.01095e-05
0.00261461 6.48466e-05 -3.47986e-06
6.48466e-05 -0.000145333 3.02054e-08
-3.47986e-06 3.02054e-08 -1.01948e-05
0.00255936 -6.88339e-05 -1.9647e-06
-6.88339e-05 -0.000145259 -6.01571e-07
-1.9647e-06 -6.01571e-07 2.47665e-05
0.00267754 -0.000548889 -3.9972e-06
-0.000548889 -0.000191344 -2.10555e-08
-3.9972e-06 -2.10555e-08 -1.53738e-05
0.00247325 -0.000345798 3.26514e-07
-0.000345798 -0.000153316 -2.92572e-07
3.26514e-07 -2.92572e-07 -1.68937e-05
0.00239 -0.000262082 8.59528e-07
-0.000262082 -5.65431e-05 2.61414e-08
8.59528e-07 2.61414e-08 3.42796e-05
0.00248774 -0.000493669 -2.97111e-07
-0.000493669 -2.29586e-05 1.93616e-07
-2.97111e-07 1.93616e-07 1.52743e-05
0.0023495 -0.000400849 1.86319e-07
-0.000400849 -2.05276e-05 8.68349e-08
1.86319e-07 8.68349e-08 -3.51313e-06
0.00223844 -0.000339189 -1.52911e-06
-0.000339189 3.37605e-05 6.5884e-07
-1.52911e-06 6.5884e-07 1.111e-05
0.00232009 -0.00048935 9.00774e-07
-0.00048935 5.22244e-05 -3.81234e-07
9.00774e-07 -3.81234e-07 -3.1064e-06
0.00222515 -0.000439586 4.46843e-07
-0.000439586 7.73342e-05 -4.17693e-08
4.46843e-07 -4.17693e-08 -2.22411e-06
0.00223863 -0.000415552 -3.39985e-06
-0.000415552 0.0001608 8.74588e-07
-3.39985e-06 8.74588e-07 3.41973e-05
0.00219199 -0.000519132 2.03855e-06
-0.000519132 0.000124638 -1.04503e-06
2.03855e-06 -1.04503e-06 -1.81704e-05
0.00216754 -0.000488808 -1.55968e-08
-0.000488808 0.000170258 -4.53815e-07
-1.55968e-08 -4.53815e-07 -5.27377e-06
0.00205608 -0.000434032 -2.60681e-06
-0.000434032 0.000179661 -5.6336e-07
-2.60681e-06 -5.6336e-07 -2.75354e-05
0.00214712 -0.000547503 1.04665e-06
-0.000547503 0.000202487 1.09247e-06
1.04665e-06 1.09247e-06 -1.16197e-05
0.00205964 -0.00048674 -6.87096e-07
-0.00048674 0.000241564 9.60636e-08
-6.87096e-07 9.60636e-08 -3.65439e-06
0.00125771 -0.000295592 -1.27007e-05
-0.000295592 -1.05124e-05 5.91104e-06
-1.27007e-05 5.91104e-06 -0.000232227
0.00210473 -0.000530338 3.91316e-06
-0.000530338 0.000322667 8.47795e-07
3.91316e-06 8.47795e-07 4.6753e-05
0.00130264 -0.000339786 1.16372e-07
-0.000339786 3.6321e-05 1.75968e-07
1.16372e-07 1.75968e-07 -0.000208921
0.00287347 -0.00022794 -5.56936e-05
-0.00022794 0.00137529 1.43505e-05
-5.56936e-05 1.43505e-05 0.00125126
0.00256566 -0.000128668 -0.000292323
-0.000128668 0.00128937 4.35784e-05
-0.000292323 4.35784e-05 0.00127114
0.00164578 -0.000247381 -1.63425e-05
-0.000247381 0.000608237 2.095e-07
-1.63425e-05 2.095e-07 0.000460276
0.00128222 -0.000387514 1.8483e-05
-0.000387514 7.1076e-05 -7.41091e-06
1.8483e-05 -7.41091e-06 -0.000205305
0.00799143 -0.000110215 -1.15807e-05
-0.000110215 0.00476494 2.48277e-06
-1.15807e-05 2.48277e-06 0.00478007
0.000157358 -0.000274784 2.38705e-05
-0.000274784 -0.000321309 -2.11185e-05
2.38705e-05 -2.11185e-05 -0.00049178
0.00815718 -6.27307e-05 0.000347004
-6.27307e-05 0.00488581 -3.67501e-05
0.000347004 -3.67501e-05 0.00489508
0.00220294 0.000524421 9.69131e-08
0.000524421 0.000130172 1.65519e-06
9.69131e-08 1.65519e-06 -4.44609e-05
0.00225501 0.000681276 3.70018e-06
0.000681276 0.000301538 7.67752e-06
3.70018e-06 7.67752e-06 1.34484e-05
0.00228485 0.000781046 6.17713e-07
0.000781046 0.000408705 7.84582e-08
6.17713e-07 7.84582e-08 4.27013e-05
0.00206006 0.000663181 -4.88652e-06
0.000663181 0.000395784 5.35379e-06
-4.88652e-06 5.35379e-06 2.89107e-05
0.00194663 0.000765152 6.7598e-06
0.000765152 0.000362414 -7.94187e-06
6.7598e-06 -7.94187e-06 -5.67947e-05
0.00181173 0.000659576 5.09325e-08
0.000659576 0.00034798 9.00221e-07
5.09325e-08 9.00221e-07 -5.46002e-05
0.0007751 0.000361739 -2.72759e-05
0.000361739 -0.000112457 -4.79663e-06
-2.72759e-05 -4.79663e-06 -0.000398185
0.0015245 0.000605973 9.61359e-06
0.000605973 0.000323642 -2.62202e-06
9.61359e-06 -2.62202e-06 -8.79064e-05
0.000693022 0.000304997 -8.16261e-07
0.000304997 -5.56049e-05 -3.36191e-07
-8.16261e-07 -3.36191e-07 -0.000319507
0.000335518 0.000293485 -3.02043e-05
0.000293485 -0.000169989 -2.2349e-05
-3.02043e-05 -2.2349e-05 -0.00033031
0.00040336 0.000203538 9.17368e-06
0.000203538 -0.000138442 -1.40563e-06
9.17368e-06 -1.40563e-06 -0.000377162
0.000387776 0.000212593 4.25351e-06
0.000212593 -0.000129943 -1.63112e-06
4.25351e-06 -1.63112e-06 -0.000256709
0.00746336 -7.54092e-05 -0.000288405
-7.54092e-05 0.00450436 -3.11321e-05
-0.000288405 -3.11321e-05 0.00449496
0.000520379 0.0001511 2.73352e-05
0.0001511 -2.40295e-05 1.99095e-05
2.73352e-05 1.99095e-05 -0.000126059
0.00593748 -0.000171866 4.19145e-06
-0.000171866 0.00356377 -2.24024e-06
4.19145e-06 -2.24024e-06 0.00354154
0.00460385 -0.000214899 0.000104552
-0.000214899 0.00273187 1.45361e-05
0.000104552 1.45361e-05 0.0026974
0.00248935 0.000239653 -7.06203e-06
0.000239653 -0.000234288 -2.78694e-07
-7.06203e-06 -2.78694e-07 -2.39268e-05
0.00179851 0.000214221 1.34409e-05
0.000214221 -0.00055408 -3.41269e-06
1.34409e-05 -3.41269e-06 -0.000110196
0.004408 0.000487206 -0.000137293
0.000487206 -0.000810956 -6.36836e-06
-0.000137293 -6.36836e-06 0.000338286
0.00242486 0.000631742 -2.71353e-06
0.000631742 0.000162496 1.54087e-06
-2.71353e-06 1.54087e-06 -3.10151e-06
0.00247438 0.000863994 -4.26431e-06
0.000863994 0.00037954 -4.9309e-07
-4.26431e-06 -4.9309e-07 5.55924e-05
0.00202505 0.000936777 -3.97111e-06
0.000936777 0.000247066 -1.13284e-05
-3.97111e-06 -1.13284e-05 -0.000153928
0.00239637 0.000666842 2.27099e-06
0.000666842 0.000261044 1.50801e-06
2.27099e-06 1.50801e-06 2.14947e-05
0.00245769 0.000833763 -9.11632e-07
0.000833763 0.000403958 -7.11488e-06
-9.11632e-07 -7.11488e-06 6.08037e-05
0.00263139 0.000499935 -1.79624e-07
0.000499935 -1.37193e-05 5.63088e-07
-1.79624e-07 5.63088e-07 3.41774e-05
0.002539 0.000793729 -7.60766e-07
0.000793729 0.000148359 -9.46935e-08
-7.60766e-07 -9.46935e-08 -4.27983e-05
0.00288066 0.00102319 -3.73141e-06
0.00102319 0.000582433 -4.25969e-06
-3.73141e-06 -4.25969e-06 0.000210207
0.0021924 0.000472627 1.09264e-07
0.000472627 -0.000219387 -2.01342e-07
1.09264e-07 -2.01342e-07 -0.000141157
0.00245144 0.000938376 1.62739e-05
0.000938376 0.000158508 -2.95002e-07
1.62739e-05 -2.95002e-07 -7.90064e-05
-0.000271488 0.000411536 -4.46532e-05
0.000411536 -0.00136113 -1.66547e-05
-4.46532e-05 -1.66547e-05 -0.00111832
0.00248661 0.000104185 1.52024e-07
0.000104185 -0.000106435 -4.36621e-07
1.52024e-07 -4.36621e-07 2.69723e-05
0.00240826 0.000163031 -9.28638e-07
0.000163031 -0.000251175 1.36029e-06
-9.28638e-07 1.36029e-06 -8.81532e-05
0.00297308 -4.39539e-05 -5.93655e-05
-4.39539e-05 0.000397886 -6.12754e-06
-5.93655e-05 -6.12754e-06 0.000504447
0.00240435 -0.000294406 -2.3255e-05
-0.000294406 -0.000330573 3.46931e-06
-2.3255e-05 3.46931e-06 -3.28644e-05
0.00282802 7.97933e-05 1.16415e-06
7.97933e-05 -2.40407e-05 1.88283e-06
1.16415e-06 1.88283e-06 0.000103611
0.00253836 -7.84426e-05 -6.53605e-07
-7.84426e-05 -0.000173353 -7.03231e-07
-6.53605e-07 -7.03231e-07 1.57e-06
0.00224638 -7.55496e-05 8.55088e-08
-7.55496e-05 -7.89262e-05 -7.834e-08
8.55088e-08 -7.834e-08 -4.88858e-07
0.00241352 -0.000330722 7.31651e-07
-0.000330722 -0.000171281 -7.15242e-07
7.31651e-07 -7.15242e-07 -4.39544e-05
0.00234324 -0.000269023 -6.86709e-09
-0.000269023 -8.16524e-05 6.17849e-10
-6.86709e-09 6.17849e-10 1.79297e-06
0.0021713 -0.000225207 -8.26341e-08
-0.000225207 -2.44128e-05 -2.0332e-08
-8.26341e-08 -2.0332e-08 -1.43114e-05
0.0023505 -0.000398427 -4.95023e-07
-0.000398427 -1.67523e-05 2.84277e-07
-4.95023e-07 2.84277e-07 -1.84073e-06
0.0022333 -0.000339177 5.73035e-08
-0.000339177 2.66681e-05 1.80653e-07
5.73035e-08 1.80653e-07 3.9913e-06
0.00226703 -0.000328232 -4.85378e-06
-0.000328232 0.000116047 1.33285e-06
-4.85378e-06 1.33285e-06 4.14125e-05
0.00222091 -0.000440631 2.4709e-06
-0.000440631 7.01374e-05 -8.33887e-07
2.4709e-06 -8.33887e-07 -9.49223e-06
0.00217848 -0.000410543 3.4637e-07
-0.000410543 0.000121886 -3.24194e-07
3.4637e-07 -3.24194e-07 -4.21447e-06
0.00204467 -0.000357264 -1.74028e-06
-0.000357264 0.000127753 -6.3711e-07
-1.74028e-06 -6.3711e-07 -3.70811e-05
0.00212778 -0.000485646 2.36507e-06
-0.000485646 0.000143294 -4.31579e-07
2.36507e-06 -4.31579e-07 -3.21246e-05
0.00210342 -0.000436946 -6.55659e-07
-0.000436946 0.000213792 7.67932e-08
-6.55659e-07 7.67932e-08 6.32452e-06
0.00126499 -0.000256683 -9.6805e-06
-0.000256683 -2.78604e-05 4.51828e-06
-9.6805e-06 4.51828e-06 -0.000229364
0.00207506 -0.000487352 3.0281e-06
-0.000487352 0.000254684 4.2134e-07
3.0281e-06 4.2134e-07 9.64001e-06
0.00130436 -0.000299385 -1.15994e-07
-0.000299385 1.00778e-05 2.10656e-07
-1.15994e-07 2.10656e-07 -0.000211166
0.00287637 -0.000214469 -6.34579e-05
-0.000214469 0.00137312 1.39627e-05
-6.34579e-05 1.39627e-05 0.00126006
0.00131682 -0.000341324 1.50809e-05
-0.000341324 4.02241e-05 -6.73194e-06
1.50809e-05 -6.73194e-06 -0.000204383
0.00301314 -0.000263577 5.4118e-05
-0.000263577 0.00146713 -9.10145e-06
5.4118e-05 -9.10145e-06 0.0013525
0.00251822 -0.000158613 -0.000287954
-0.000158613 0.00126722 4.80618e-05
-0.000287954 4.80618e-05 0.00124664
0.00500602 -0.00015969 -0.000283309
-0.00015969 0.00286873 3.32858e-05
-0.000283309 3.32858e-05 0.00286613
0.00309482 -0.000326978 0.000179767
-0.000326978 0.00154101 -3.132e-05
0.000179767 -3.132e-05 0.00142262
0.00788483 -0.0001246 0.000348461
-0.0001246 0.00470714 -4.05364e-05
0.000348461 -4.05364e-05 0.00471883
0.00230987 0.00050595 -1.62735e-06
0.00050595 0.000148273 -1.50143e-07
-1.62735e-06 -1.50143e-07 2.60414e-05
0.00215368 0.000541858 -2.76095e-07
0.000541858 0.00020487 2.55687e-06
-2.76095e-07 2.55687e-06 -1.00562e-05
0.00221703 0.000516508 3.17854e-07
0.000516508 0.000146782 -8.34745e-07
3.17854e-07 -8.34745e-07 -1.86841e-05
0.00206213 0.000586421 -3.51599e-06
0.000586421 0.000288747 4.65388e-06
-3.51599e-06 4.65388e-06 -1.51448e-05
0.00234025 0.00069078 4.17015e-07
0.00069078 0.000341469 1.33048e-07
4.17015e-07 1.33048e-07 5.27609e-05
0.0025912 0.000805613 -1.06447e-06
0.000805613 0.00060105 -8.4326e-06
-1.06447e-06 -8.4326e-06 0.000234934
0.00197239 0.000657689 8.79185e-07
0.000657689 0.000335496 3.99194e-07
8.79185e-07 3.99194e-07 -3.1688e-05
0.00126139 0.000419238 -3.05823e-05
0.000419238 9.64958e-05 -6.46685e-06
-3.05823e-05 -6.46685e-06 -0.000193419
0.00175948 0.00065709 9.59283e-06
0.00065709 0.000307506 -3.33749e-06
9.59283e-06 -3.33749e-06 -9.6432e-05
0.00100871 0.000378051 -3.34382e-06
0.000378051 2.67993e-05 1.10862e-07
-3.34382e-06 1.10862e-07 -0.000259139
0.000149595 0.000282784 -2.82311e-05
0.000282784 -0.000308839 -2.02867e-05
-2.82311e-05 -2.02867e-05 -0.000476874
0.0008176 0.000302928 1.7498e-05
0.000302928 3.45262e-05 3.4208e-06
1.7498e-05 3.4208e-06 -0.000225003
0.000241226 0.000248973 1.45821e-06
0.000248973 -0.000234109 1.44184e-06
1.45821e-06 1.44184e-06 -0.000387663
0.0082014 1.83491e-05 -0.000331296
1.83491e-05 0.00493768 -3.70254e-05
-0.000331296 -3.70254e-05 0.00493638
0.000121184 0.000174217 2.68353e-05
0.000174217 -0.000300604 2.11772e-05
2.68353e-05 2.11772e-05 -0.000421831
0.00697115 -0.000118401 6.19799e-06
-0.000118401 0.0041922 -2.65192e-06
6.19799e-06 -2.65192e-06 0.00417987
0.00556028 -0.000206222 0.000149435
-0.000206222 0.0033321 1.47319e-05
0.000149435 1.47319e-05 0.00330187
0.0025299 0.000287038 9.02264e-07
0.000287038 -8.66559e-05 5.14697e-07
9.02264e-07 5.14697e-07 3.27949e-05
0.00235551 0.000242128 2.22675e-06
0.000242128 -0.000263179 -7.13654e-07
2.22675e-06 -7.13654e-07 -5.36197e-05
0.00164071 0.000161652 -6.89906e-05
0.000161652 -0.000860497 -1.05371e-05
-6.89906e-05 -1.05371e-05 -0.000309425
0.00236909 0.00044422 1.771e-06
0.00044422 -1.98039e-07 8.4105e-07
1.771e-06 8.4105e-07 -1.40452e-05
0.00236125 0.000624228 -9.54076e-07
0.000624228 0.000140624 3.91756e-08
-9.54076e-07 3.91756e-08 -2.26806e-05
0.00226876 0.000830183 6.93017e-06
0.000830183 0.000298698 -3.46108e-06
6.93017e-06 -3.46108e-06 -1.701e-05
0.00243887 0.00065574 -9.77154e-07
0.00065574 0.000304299 -3.64109e-06
-9.77154e-07 -3.64109e-06 6.76237e-05
0.0025679 0.000481248 -1.2569e-06
0.000481248 -3.5969e-05 -1.3965e-07
-1.2569e-06 -1.3965e-07 1.31262e-05
0.00245412 0.000789458 -8.72331e-07
0.000789458 0.000117715 -3.92305e-07
-8.72331e-07 -3.92305e-07 -7.06265e-05
0.00205582 0.00045086 1.62777e-05
0.00045086 -0.000217901 -1.5311e-06
1.62777e-05 -1.5311e-06 -0.000138028
0.00229224 7.84616e-05 2.13698e-06
7.84616e-05 -5.79005e-05 1.06976e-07
2.13698e-06 1.06976e-07 1.07966e-05
0.00243945 0.000100614 2.36438e-07
0.000100614 -0.000120908 1.74419e-07
2.36438e-07 1.74419e-07 8.69868e-06
0.00231652 0.000169201 -8.44927e-06
0.000169201 -0.000314289 -9.23129e-07
-8.44927e-06 -9.23129e-07 -0.000148323
0.00214742 -1.30911e-05 -1.34545e-06
-1.30911e-05 -4.35152e-05 4.20622e-08
-1.34545e-06 4.20622e-08 -2.86209e-06
0.00255501 -9.40592e-05 2.72136e-06
-9.40592e-05 -0.000173387 2.59149e-07
2.72136e-06 2.59149e-07 5.90821e-06
0.00225313 -7.92578e-05 -3.45096e-07
-7.92578e-05 -7.65283e-05 4.19929e-07
-3.45096e-07 4.19929e-07 1.10574e-06
0.00211645 -0.000119051 -1.5247e-06
-0.000119051 -4.37412e-05 3.35088e-07
-1.5247e-06 3.35088e-07 -2.36758e-05
0.00229624 -0.000275901 -6.27192e-07
-0.000275901 -0.000106087 1.76674e-08
-6.27192e-07 1.76674e-08 -3.07333e-05
0.00218165 -0.000222093 8.76479e-07
-0.000222093 -1.74151e-05 -4.21091e-07
8.76479e-07 -4.21091e-07 -6.51334e-06
0.00226024 -0.000230275 -3.68111e-06
-0.000230275 8.53443e-05 3.43233e-07
-3.68111e-06 3.43233e-07 4.50444e-05
0.00222997 -0.000338809 1.83488e-06
-0.000338809 2.07898e-05 -4.95959e-07
1.83488e-06 -4.95959e-07 -1.8556e-06
0.00224252 -0.000324445 3.77414e-07
-0.000324445 0.00010451 -2.72282e-08
3.77414e-07 -2.72282e-08 3.01409e-05
0.0020476 -0.000274867 -1.13152e-06
-0.000274867 0.000101806 -6.13412e-07
-1.13152e-06 -6.13412e-07 -2.49342e-05
0.00211655 -0.00040513 3.69678e-06
-0.00040513 8.23821e-05 -1.40872e-06
3.69678e-06 -1.40872e-06 -4.31047e-05
0.0021068 -0.000361371 -6.26295e-07
-0.000361371 0.000165969 1.25097e-07
-6.26295e-07 1.25097e-07 6.70998e-07
0.00128217 -0.000212467 -7.10887e-06
-0.000212467 -2.76826e-05 3.05115e-06
-7.10887e-06 3.05115e-06 -0.000209658
0.00215086 -0.000439672 2.24625e-06
-0.000439672 0.000248453 2.85675e-07
2.24625e-06 2.85675e-07 4.07719e-05
0.00131174 -0.00025903 -3.15843e-07
-0.00025903 -8.29251e-06 2.74182e-07
-3.15843e-07 2.74182e-07 -0.000208845
0.00280228 -0.00019645 -6.95797e-05
-0.00019645 0.0013309 1.31726e-05
-6.95797e-05 1.31726e-05 0.00122506
0.00134466 -0.000303044 1.17647e-05
-0.000303044 2.62013e-05 -5.58361e-06
1.17647e-05 -5.58361e-06 -0.000194547
0.00295879 -0.000233062 4.9726e-05
-0.000233062 0.00142617 -7.11088e-06
4.9726e-05 -7.11088e-06 0.00132293
0.00252145 -0.000134542 -0.000281461
-0.000134542 0.00125965 4.18869e-05
-0.000281461 4.18869e-05 0.00124189
0.00313288 -0.000268925 0.000170405
-0.000268925 0.00153847 -3.15948e-05
0.000170405 -3.15948e-05 0.00143659
0.00211585 -9.48983e-05 -0.000113453
-9.48983e-05 0.00101034 1.77023e-05
-0.000113453 1.77023e-05 0.000974545
0.00725909 -6.18612e-05 0.000118107
-6.18612e-05 0.00429147 -7.44624e-06
0.000118107 -7.44624e-06 0.00427195
0.00229697 0.0004286 -8.52219e-07
0.0004286 9.77772e-05 1.31332e-07
-8.52219e-07 1.31332e-07 2.72723e-05
0.00220104 0.000479798 -3.70264e-06
0.000479798 0.000155252 -4.15921e-07
-3.70264e-06 -4.15921e-07 -6.77495e-06
0.00231949 0.000506463 -3.1188e-06
0.000506463 0.000151109 -3.38074e-09
-3.1188e-06 -3.38074e-09 2.67533e-05
0.00205598 0.000500448 -2.65903e-06
0.000500448 0.000217133 1.77313e-06
-2.65903e-06 1.77313e-06 -3.43816e-05
0.00210259 0.000547603 -1.31535e-06
0.000547603 0.000150405 -2.4898e-06
-1.31535e-06 -2.4898e-06 -5.92226e-05
0.00221734 0.000507242 -3.31722e-06
0.000507242 0.00015433 -3.5896e-06
-3.31722e-06 -3.5896e-06 -1.55191e-06
0.00137424 0.000383239 -2.47003e-05
0.000383239 6.25395e-05 -6.09295e-06
-2.47003e-05 -6.09295e-06 -0.0001951
0.00201858 0.000583109 1.41746e-06
0.000583109 0.0002604 4.0505e-07
1.41746e-06 4.0505e-07 -4.33994e-05
0.00241359 0.000698982 1.84205e-06
0.000698982 0.00037331 -6.93007e-06
1.84205e-06 -6.93007e-06 8.4265e-05
0.00185076 0.000650084 6.37386e-06
0.000650084 0.000251256 -4.64886e-06
6.37386e-06 -4.64886e-06 -0.000116051
0.00120964 0.000415858 -1.12416e-06
0.000415858 5.81028e-05 -6.90826e-08
-1.12416e-06 -6.90826e-08 -0.000231899
0.0002945 0.000269446 -2.53834e-05
0.000269446 -0.000236288 -1.864e-05
-2.53834e-05 -1.864e-05 -0.000401565
0.0011377 0.000386098 2.84271e-05
0.000386098 0.000100816 7.97137e-06
2.84271e-05 7.97137e-06 -0.000183421
0.000242818 0.000274716 1.02334e-06
0.000274716 -0.000244972 1.46551e-06
1.02334e-06 1.46551e-06 -0.000412792
0.00800783 0.00010891 -0.00033591
0.00010891 0.00480054 -4.31927e-05
-0.00033591 -4.31927e-05 0.0048001
0.000318029 0.00022444 2.42581e-05
0.00022444 -0.000190828 2.26809e-05
2.42581e-05 2.26809e-05 -0.000340658
0.00786848 -2.55731e-05 7.03023e-06
-2.55731e-05 0.00472212 1.17626e-07
7.03023e-06 1.17626e-07 0.00472338
0.0066746 -0.000149136 0.000213241
-0.000149136 0.00400154 1.47975e-05
0.000213241 1.47975e-05 0.00398875
0.00229365 0.000232271 9.31002e-07
0.000232271 -4.34224e-05 3.42236e-08
9.31002e-07 3.42236e-08 3.65596e-06
0.00249251 0.000293032 -7.15879e-07
0.000293032 -0.000124124 7.9548e-07
-7.15879e-07 7.9548e-07 -1.41673e-06
0.00229457 0.000241348 2.29952e-06
0.000241348 -0.000278967 6.17079e-08
2.29952e-06 6.17079e-08 -6.8137e-05
0.00236505 0.00043863 1.91737e-07
0.00043863 -1.73869e-06 2.45446e-07
1.91737e-07 2.45446e-07 -1.30563e-05
0.00230805 0.000617102 3.00941e-07
0.000617102 0.000127358 -1.4415e-06
3.00941e-07 -1.4415e-06 -3.37819e-05
0.00253738 0.000465105 2.57276e-06
0.000465105 -4.66337e-05 -4.18454e-07
2.57276e-06 -4.18454e-07 2.88671e-06
0.00219154 7.26482e-05 8.40096e-07
7.26482e-05 -2.57784e-05 1.17417e-07
8.40096e-07 1.17417e-07 7.5467e-06
0.00227835 7.64433e-05 3.86807e-07
7.64433e-05 -6.36241e-05 -2.13667e-07
3.86807e-07 -2.13667e-07 5.90751e-06
0.00237031 9.70513e-05 -7.10471e-07
9.70513e-05 -0.000151955 9.81022e-08
-7.10471e-07 9.81022e-08 -2.47639e-05
0.00215503 -1.05145e-05 -7.6661e-07
-1.05145e-05 -3.75779e-05 9.40112e-09
-7.6661e-07 9.40112e-09 9.37904e-07
0.00211672 -3.53483e-05 -4.14412e-06
-3.53483e-05 8.54767e-06 3.78224e-07
-4.14412e-06 3.78224e-07 1.93786e-05
0.00225867 -8.2554e-05 -5.45351e-07
-8.2554e-05 -7.55716e-05 1.52053e-07
-5.45351e-07 1.52053e-07 1.66788e-06
0.00213359 -0.000119421 -1.36677e-06
-0.000119421 -2.57847e-05 2.48759e-07
-1.36677e-06 2.48759e-07 -9.79926e-06
0.00216155 -0.000145558 -5.67642e-06
-0.000145558 2.34148e-05 7.74975e-07
-5.67642e-06 7.74975e-07 -1.40808e-06
0.00218901 -0.000219215 2.1734e-06
-0.000219215 -1.22352e-05 -8.83037e-07
2.1734e-06 -8.83037e-07 -5.91505e-07
0.00225306 -0.000231155 1.9708e-06
-0.000231155 8.50613e-05 -4.87956e-07
1.9708e-06 -4.87956e-07 4.45087e-05
0.00204636 -0.00020609 2.43863e-07
-0.00020609 7.96932e-05 -1.18886e-07
2.43863e-07 -1.18886e-07 -2.16954e-05
0.0022118 -0.000321649 4.8359e-06
-0.000321649 8.90888e-05 -1.31751e-06
4.8359e-06 -1.31751e-06 1.47844e-05
0.0020796 -0.000278427 -4.85245e-07
-0.000278427 0.000112043 -2.69431e-07
-4.85245e-07 -2.69431e-07 -1.5047e-05
0.00123844 -0.000168276 -5.91901e-06
-0.000168276 -5.08053e-05 2.02437e-06
-5.91901e-06 2.02437e-06 -0.000216339
0.00217646 -0.000365939 2.0372e-06
-0.000365939 0.000208901 3.62408e-07
2.0372e-06 3.62408e-07 4.30972e-05
0.00129829 -0.000211424 -3.70544e-07
-0.000211424 -2.50274e-05 1.92621e-07
-3.70544e-07 1.92621e-07 -0.000205606
0.00268961 -0.000185988 -7.09451e-05
-0.000185988 0.00126862 1.11651e-05
-7.09451e-05 1.11651e-05 0.00116879
0.00136067 -0.000261634 8.82278e-06
-0.000261634 1.22909e-05 -4.07761e-06
8.82278e-06 -4.07761e-06 -0.000187306
0.00287721 -0.000194517 4.72944e-05
-0.000194517 0.00137377 -5.46843e-06
4.72944e-05 -5.46843e-06 0.00127966
0.00248002 -0.000110068 -0.000276737
-0.000110068 0.00122808 3.47968e-05
-0.000276737 3.47968e-05 0.00121196
0.00304306 -0.000223243 0.000166102
-0.000223243 0.00147117 -2.68269e-05
0.000166102 -2.68269e-05 0.00138182
0.00210148 -9.31195e-05 -0.000103447
-9.31195e-05 0.000996922 1.39829e-05
-0.000103447 1.39829e-05 0.000963164
0.00177105 -9.04143e-05 7.21527e-05
-9.04143e-05 0.000804792 -1.22096e-05
7.21527e-05 -1.22096e-05 0.000747745
0.00220208 0.000268583 -3.35715e-07
0.000268583 4.49839e-06 -5.02618e-07
-3.35715e-07 -5.02618e-07 -1.11532e-05
0.00223409 0.000392956 -4.35818e-06
0.000392956 0.000126404 -3.67674e-07
-4.35818e-06 -3.67674e-07 1.73717e-05
0.00227786 0.000429184 -3.55702e-07
0.000429184 6.627e-05 -1.68376e-07
-3.55702e-07 -1.68376e-07 5.4028e-06
0.00211277 0.000451809 -2.86283e-07
0.000451809 0.000175114 1.35914e-06
-2.86283e-07 1.35914e-06 -2.99601e-05
0.00223826 0.000480456 -1.71587e-06
0.000480456 0.000188316 -6.06146e-07
-1.71587e-06 -6.06146e-07 2.40702e-05
0.00232833 0.000507931 2.06756e-06
0.000507931 0.000153227 -1.82473e-07
2.06756e-06 -1.82473e-07 2.63107e-05
0.00137638 0.000325443 -1.8175e-05
0.000325443 2.56064e-05 -5.15406e-06
-1.8175e-05 -5.15406e-06 -0.000199578
0.00200572 0.000503681 1.26297e-06
0.000503681 0.000175323 -7.00542e-07
1.26297e-06 -7.00542e-07 -7.07487e-05
0.00207722 0.000556052 -2.13471e-06
0.000556052 0.000112457 -6.19017e-06
-2.13471e-06 -6.19017e-06 -9.26565e-05
0.000320493 0.000215401 -2.23847e-05
0.000215401 -0.000249018 -1.58102e-05
-2.23847e-05 -1.58102e-05 -0.000396726
0.00132966 0.00037803 -2.69319e-07
0.00037803 3.93749e-05 1.34088e-07
-2.69319e-07 1.34088e-07 -0.000218041
0.00198038 0.000580302 5.4418e-06
0.000580302 0.000235386 -4.06299e-06
5.4418e-06 -4.06299e-06 -6.84355e-05
0.00122729 0.000417333 3.18072e-05
0.000417333 6.73181e-05 7.13268e-06
3.18072e-05 7.13268e-06 -0.000223414
0.000287101 0.000255374 3.51752e-07
0.000255374 -0.000236736 9.11875e-07
3.51752e-07 9.11875e-07 -0.000401593
0.00772596 0.00020668 -0.000339301
0.00020668 0.00461304 -4.76842e-05
-0.000339301 -4.76842e-05 0.00461252
0.000421859 0.00026362 2.59852e-05
0.00026362 -0.000128644 1.86282e-05
2.59852e-05 1.86282e-05 -0.000295362
0.00807325 8.62779e-05 8.61209e-06
8.62779e-05 0.00482965 1.14639e-06
8.61209e-06 1.14639e-06 0.00483797
0.00761886 -6.20182e-05 0.000278118
-6.20182e-05 0.0045591 1.98941e-05
0.000278118 1.98941e-05 0.0045607
0.00220889 0.000140577 -7.34904e-07
0.000140577 2.72593e-06 -2.05046e-07
-7.34904e-07 -2.05046e-07 2.72094e-05
0.00227195 0.000236786 6.64261e-07
0.000236786 -6.18019e-05 4.40832e-07
6.64261e-07 4.40832e-07 -1.7262e-05
0.00244967 0.000299274 1.06642e-07
0.000299274 -0.000158124 -7.17799e-07
1.06642e-07 -7.17799e-07 -3.30278e-05
0.00236264 0.000432146 2.44475e-07
0.000432146 -2.39017e-06 -1.01866e-06
2.44475e-07 -1.01866e-06 -1.06709e-05
0.00208389 2.87263e-05 -4.14918e-06
2.87263e-05 1.61371e-05 3.25037e-07
-4.14918e-06 3.25037e-07 7.86412e-06
0.00218913 6.38041e-05 -1.99398e-08
6.38041e-05 -2.79841e-05 -8.06134e-08
-1.99398e-08 -8.06134e-08 7.05901e-06
0.00226939 7.42178e-05 -1.45006e-06
7.42178e-05 -6.53726e-05 1.37453e-07
-1.45006e-06 1.37453e-07 4.18548e-06
0.00216122 -7.38959e-06 -1.60047e-06
-7.38959e-06 -3.20907e-05 -4.83941e-08
-1.60047e-06 -4.83941e-08 4.16176e-06
0.00212372 -2.96999e-05 -7.47278e-07
-2.96999e-05 7.58169e-06 -2.06747e-07
-7.47278e-07 -2.06747e-07 2.05949e-05
0.00201781 -6.26742e-05 -5.48826e-06
-6.26742e-05 -4.86966e-05 6.60766e-07
-5.48826e-06 6.60766e-07 -8.05023e-05
0.00215285 -0.000119989 1.81014e-06
-0.000119989 -6.29189e-06 -1.45823e-07
1.81014e-06 -1.45823e-07 5.53165e-06
0.00213788 -0.000147061 -1.80452e-06
-0.000147061 1.44521e-05 3.42777e-07
-1.80452e-06 3.42777e-07 -1.79505e-05
0.0022229 -0.000144548 -1.37807e-06
-0.000144548 0.000187685 2.19019e-07
-1.37807e-06 2.19019e-07 0.000108143
0.00225515 -0.000231276 7.50651e-06
-0.000231276 8.97884e-05 -1.33825e-06
7.50651e-06 -1.33825e-06 4.91568e-05
0.00207579 -0.000205205 9.91911e-07
-0.000205205 9.34159e-05 -3.81641e-07
9.91911e-07 -3.81641e-07 -6.95311e-06
0.00117952 -0.000125792 -6.6507e-06
-0.000125792 -7.42554e-05 1.39629e-06
-6.6507e-06 1.39629e-06 -0.000227033
0.00212774 -0.000280397 1.48798e-06
-0.000280397 0.00013351 -3.03827e-07
1.48798e-06 -3.03827e-07 6.55394e-06
0.00123054 -0.000165754 -1.69517e-07
-0.000165754 -5.56824e-05 -8.04569e-10
-1.69517e-07 -8.04569e-10 -0.000219994
0.00030831 -9.57278e-05 -1.80263e-05
-9.57278e-05 -0.000265904 6.5608e-06
-1.80263e-05 6.5608e-06 -0.000374023
0.00130538 -0.000209908 6.08385e-06
-0.000209908 -2.82054e-05 -2.72237e-06
6.08385e-06 -2.72237e-06 -0.00020734
0.00157501 -0.000124933 6.95608e-05
-0.000124933 0.00054081 -5.7289e-06
6.95608e-05 -5.7289e-06 0.000445942
0.00698005 -0.000180771 -0.000365879
-0.000180771 0.00412953 2.91944e-05
-0.000365879 2.91944e-05 0.00415359
0.00295756 -0.00017582 0.000161415
-0.00017582 0.00141449 -2.09823e-05
0.000161415 -2.09823e-05 0.00133449
0.00206697 -8.62284e-05 -9.34759e-05
-8.62284e-05 0.000975896 9.03505e-06
-9.34759e-05 9.03505e-06 0.000942091
0.00168921 -0.00010887 8.41744e-05
-0.00010887 0.000757833 -1.40327e-05
8.41744e-05 -1.40327e-05 0.000699672
0.00214556 0.000177513 -1.87566e-06
0.000177513 1.84359e-05 -8.42928e-07
-1.87566e-06 -8.42928e-07 4.69471e-06
0.00223253 0.000304279 -2.82071e-06
0.000304279 9.44872e-05 -4.49917e-07
-2.82071e-06 -4.49917e-07 2.31717e-05
0.00220306 0.000261036 -2.58611e-07
0.000261036 1.71136e-05 -7.98057e-08
-2.58611e-07 -7.98057e-08 -4.17633e-06
0.00210014 0.000359445 -1.13362e-06
0.000359445 0.000127338 1.30153e-06
-1.13362e-06 1.30153e-06 -2.50592e-05
0.00223115 0.000392752 5.62855e-07
0.000392752 0.00012584 1.81613e-08
5.62855e-07 1.81613e-08 1.71993e-05
0.00225766 0.000429707 -1.86679e-09
0.000429707 3.41551e-05 -7.27992e-07
-1.86679e-09 -7.27992e-07 -1.71953e-05
0.00141118 0.00028258 -1.26429e-05
0.00028258 3.06274e-05 -2.74305e-06
-1.26429e-05 -2.74305e-06 -0.000163933
0.00213291 0.000448875 1.56465e-06
0.000448875 0.000190476 1.57981e-07
1.56465e-06 1.57981e-07 -1.26134e-05
0.00226782 0.000479852 1.55723e-06
0.000479852 0.000216982 -1.57503e-06
1.55723e-06 -1.57503e-06 5.11393e-05
0.000337186 0.000154246 -1.91932e-05
0.000154246 -0.000256985 -1.21125e-05
-1.91932e-05 -1.21125e-05 -0.000385615
0.00131521 0.000321153 4.61639e-07
0.000321153 -9.09876e-06 5.44561e-07
4.61639e-07 5.44561e-07 -0.000230672
0.00193584 0.000504013 5.47616e-06
0.000504013 0.000121715 -4.00366e-06
5.47616e-06 -4.00366e-06 -0.000118124
0.00747354 0.000271407 -0.000344808
0.000271407 0.00444623 -4.7001e-05
-0.000344808 -4.7001e-05 0.00444806
0.000299925 0.000209669 -3.28385e-08
0.000209669 -0.000264625 7.19959e-07
-3.28385e-08 7.19959e-07 -0.000413077
0.0012645 0.000371564 2.60514e-05
0.000371564 2.95751e-06 6.58698e-06
2.60514e-05 6.58698e-06 -0.0002541
0.000222375 0.000238539 2.25353e-05
0.000238539 -0.000274699 1.83042e-05
2.25353e-05 1.83042e-05 -0.000438771
0.00776167 0.000199707 1.13105e-05
0.000199707 0.00463067 2.36741e-06
1.13105e-05 2.36741e-06 0.00463617
0.0079492 5.11292e-05 0.000334914
5.11292e-05 0.00473769 2.74275e-05
0.000334914 2.74275e-05 0.00475146
0.00207333 8.58061e-05 -5.64348e-06
8.58061e-05 1.63234e-05 -1.06603e-07
-5.64348e-06 -1.06603e-07 1.63527e-06
0.00219774 0.000135745 -1.30231e-08
0.000135745 -3.03212e-06 -3.71438e-08
-1.30231e-08 -3.71438e-08 1.92935e-05
0.00224803 0.000241129 -4.83378e-07
0.000241129 -8.22361e-05 -3.5452e-08
-4.83378e-07 -3.5452e-08 -3.96775e-05
0.00200281 8.00259e-06 -7.16771e-06
8.00259e-06 -3.44063e-05 3.34013e-07
-7.16771e-06 3.34013e-07 -7.57284e-05
0.0020707 3.43017e-05 7.47484e-07
3.43017e-05 3.25029e-06 -1.66136e-08
7.47484e-07 -1.66136e-08 -1.48717e-06
0.00218828 5.39928e-05 -1.27358e-06
5.39928e-05 -2.95842e-05 4.02532e-08
-1.27358e-06 4.02532e-08 7.32531e-06
0.00213037 -2.42803e-05 2.27239e-06
-2.42803e-05 5.86329e-06 -2.85007e-07
2.27239e-06 -2.85007e-07 2.13195e-05
0.00204737 -6.16114e-05 -8.48108e-07
-6.16114e-05 -2.7382e-05 2.2119e-08
-8.48108e-07 2.2119e-08 -5.80986e-05
0.00199618 -7.0979e-05 -2.2273e-06
-7.0979e-05 5.4687e-05 1.03698e-07
-2.2273e-06 1.03698e-07 -3.1091e-05
0.00211142 -0.000148584 3.8707e-06
-0.000148584 4.46953e-06 -4.44358e-07
3.8707e-06 -4.44358e-07 -3.56331e-05
0.00206438 -0.000144702 8.23938e-07
-0.000144702 8.60441e-05 -5.16829e-08
8.23938e-07 -5.16829e-08 -3.44107e-06
0.00141105 -8.12855e-05 -8.35161e-06
-8.12855e-05 8.94577e-05 2.90484e-07
-8.35161e-06 2.90484e-07 -4.03832e-05
0.00208303 -0.000205712 1.84476e-06
-0.000205712 9.26731e-05 -7.53806e-07
1.84476e-06 -7.53806e-07 -7.1551e-06
0.00118254 -0.00012129 6.48914e-09
-0.00012129 -7.17329e-05 1.17209e-07
6.48914e-09 1.17209e-07 -0.00022328
0.000299752 -2.69198e-05 -1.6797e-05
-2.69198e-05 -0.000270861 3.25978e-06
-1.6797e-05 3.25978e-06 -0.000370432
0.00123138 -0.00016228 4.98987e-06
-0.00016228 -5.75186e-05 -1.9847e-06
4.98987e-06 -1.9847e-06 -0.000220379
0.000327968 -8.01617e-05 -4.62426e-07
-8.01617e-05 -0.000251213 5.38236e-07
-4.62426e-07 5.38236e-07 -0.000359248
0.00693341 -7.13731e-05 -0.000356284
-7.13731e-05 0.00409255 1.84944e-05
-0.000356284 1.84944e-05 0.00412262
0.000409694 -8.56772e-05 1.29651e-05
-8.56772e-05 -0.000207279 -8.8834e-06
1.29651e-05 -8.8834e-06 -0.000321647
0.00443096 -0.00011834 0.000153544
-0.00011834 0.00249954 -8.75642e-06
0.000153544 -8.75642e-06 0.00248396
0.00164088 -9.61591e-05 8.9339e-05
-9.61591e-05 0.000726884 -1.32571e-05
8.9339e-05 -1.32571e-05 0.000670366
0.00212849 0.000144298 -7.1387e-06
0.000144298 6.1036e-05 -6.4887e-07
-7.1387e-06 -6.4887e-07 3.942e-05
0.00222817 0.000221278 -4.51393e-06
0.000221278 0.000106261 -5.82271e-07
-4.51393e-06 -5.82271e-07 4.50138e-05
0.00213637 0.000171439 -7.40075e-07
0.000171439 1.75559e-05 -1.95528e-07
-7.40075e-07 -1.95528e-07 3.65378e-06
0.0020478 0.000284002 -5.76851e-07
0.000284002 8.40727e-05 6.20326e-07
-5.76851e-07 6.20326e-07 -4.68593e-05
0.00225341 0.000303025 -1.27904e-07
0.000303025 0.000104064 -2.31614e-07
-1.27904e-07 -2.31614e-07 3.19935e-05
0.0022058 0.000253749 1.87971e-06
0.000253749 3.11731e-05 6.95419e-07
1.87971e-06 6.95419e-07 4.26037e-06
0.00133249 0.000219749 -7.69715e-06
0.000219749 -8.7084e-06 -1.43397e-06
-7.69715e-06 -1.43397e-06 -0.000178745
0.00208601 0.000355783 2.49986e-06
0.000355783 0.000131795 8.15105e-07
2.49986e-06 8.15105e-07 -2.82129e-05
0.00222112 0.000392427 3.37285e-06
0.000392427 0.000120042 -3.12836e-07
3.37285e-06 -3.12836e-07 1.16361e-05
0.000332354 0.000109031 -1.73013e-05
0.000109031 -0.000263083 -8.92096e-06
-1.73013e-05 -8.92096e-06 -0.000379521
0.00137201 0.000275728 4.59824e-07
0.000275728 1.07155e-05 8.56696e-07
4.59824e-07 8.56696e-07 -0.000181689
0.00215479 0.000446535 3.9966e-06
0.000446535 0.000207111 -8.04427e-07
3.9966e-06 -8.04427e-07 5.68498e-06
0.00722996 0.000310153 -0.000358065
0.000310153 0.00429892 -4.46647e-05
-0.000358065 -4.46647e-05 0.00430125
0.000331349 0.000155709 3.11293e-07
0.000155709 -0.000265055 4.28017e-07
3.11293e-07 4.28017e-07 -0.000395084
0.00125855 0.000318759 1.82368e-05
0.000318759 -4.2436e-05 4.81038e-06
1.82368e-05 4.81038e-06 -0.000260948
0.0075158 0.000291789 1.26897e-05
0.000291789 0.00448325 4.67363e-06
1.26897e-05 4.67363e-06 0.00448215
0.000301101 0.00020457 2.02256e-05
0.00020457 -0.000266775 1.60237e-05
2.02256e-05 1.60237e-05 -0.000416002
0.00778623 0.000172779 0.000355837
0.000172779 0.00463151 3.68333e-05
0.000355837 3.68333e-05 0.0046472
0.00199508 6.64807e-05 -7.32739e-06
6.64807e-05 -3.51917e-05 1.72811e-07
-7.32739e-06 1.72811e-07 -8.02228e-05
0.002077 9.23705e-05 -1.04458e-06
9.23705e-05 2.33511e-05 -1.77367e-07
-1.04458e-06 -1.77367e-07 8.36095e-06
0.00218653 0.000131367 7.12916e-07
0.000131367 -7.91949e-06 2.2026e-07
7.12916e-07 2.2026e-07 1.19631e-05
0.00192011 -1.02881e-05 -1.70089e-06
-1.02881e-05 1.26057e-05 -1.17139e-07
-1.70089e-06 -1.17139e-07 -7.24226e-05
0.00204004 9.56257e-06 -9.82533e-07
9.56257e-06 -9.39604e-06 1.32087e-08
-9.82533e-07 1.32087e-08 -4.7254e-05
0.00205722 4.07448e-05 4.2969e-06
4.07448e-05 -9.61936e-06 3.30449e-08
4.2969e-06 3.30449e-08 -1.09422e-05
0.00208813 -6.08395e-05 3.63822e-06
-6.08395e-05 1.98957e-06 -4.60916e-07
3.63822e-06 -4.60916e-07 -2.75086e-05
0.00199159 -7.07867e-05 2.00966e-07
-7.07867e-05 5.31293e-05 2.06041e-07
2.00966e-07 2.06041e-07 -3.16686e-05
0.001345 -3.67241e-05 -1.01238e-05
-3.67241e-05 5.84955e-05 -5.49409e-07
-1.01238e-05 -5.49409e-07 -6.3795e-05
0.00189153 -0.000144595 2.13858e-07
-0.000144595 -2.60343e-05 -6.3635e-08
2.13858e-07 -6.3635e-08 -0.000125324
0.00127706 -8.03332e-05 2.47021e-06
-8.03332e-05 -8.91432e-07 -3.07777e-07
2.47021e-06 -3.07777e-07 -0.000136555
0.000305862 -9.88995e-06 -1.73944e-05
-9.88995e-06 -0.000263978 1.62052e-06
-1.73944e-05 1.62052e-06 -0.000358763
0.00117893 -0.000118354 6.13108e-06
-0.000118354 -7.15568e-05 -1.14604e-06
6.13108e-06 -1.14604e-06 -0.000222135
0.000297283 -3.94249e-05 5.62292e-07
-3.94249e-05 -0.000271566 -3.01801e-07
5.62292e-07 -3.01801e-07 -0.000370565
0.00674564 -0.000167356 -0.000358624
-0.000167356 0.00399197 2.01956e-05
-0.000358624 2.01956e-05 0.00401505
0.00032231 -6.37736e-05 1.65564e-05
-6.37736e-05 -0.000253499 -4.98279e-06
1.65564e-05 -4.98279e-06 -0.000360493
0.00686508 -0.000108355 7.43858e-06
-0.000108355 0.00405338 9.0636e-08
7.43858e-06 9.0636e-08 0.00408246
0.00196767 -4.41407e-05 0.000273748
-4.41407e-05 0.000903685 -2.00879e-05
0.000273748 -2.00879e-05 0.000895561
0.00209265 0.000149814 -7.52977e-06
0.000149814 2.90659e-05 -5.40573e-07
-7.52977e-06 -5.40573e-07 -2.66532e-05
0.00207541 0.000145172 -1.5825e-06
0.000145172 1.52132e-05 -1.53925e-07
-1.5825e-06 -1.53925e-07 -9.44564e-07
0.00205906 0.00021288 7.86277e-07
0.00021288 8.8536e-05 6.81377e-07
7.86277e-07 6.81377e-07 -2.12423e-05
0.00223588 0.000220936 8.30106e-07
0.000220936 0.000108106 -2.69162e-09
8.30106e-07 -2.69162e-09 4.73963e-05
0.00211926 0.000164958 2.70014e-06
0.000164958 1.10704e-05 2.25691e-07
2.70014e-06 2.25691e-07 -2.8331e-06
0.00123103 0.000163566 -5.28419e-06
0.000163566 -5.3253e-05 -1.04182e-06
-5.28419e-06 -1.04182e-06 -0.000215053
0.00210861 0.000284575 3.62448e-07
0.000284575 0.000131319 -1.24186e-07
3.62448e-07 -1.24186e-07 5.889e-07
0.00228548 0.000301876 4.14005e-06
0.000301876 0.000121132 1.16073e-06
4.14005e-06 1.16073e-06 4.84366e-05
0.000336876 7.84569e-05 -1.65449e-05
7.84569e-05 -0.000254518 -6.39506e-06
-1.65449e-05 -6.39506e-06 -0.000364117
0.00129386 0.000217644 1.72567e-06
0.000217644 -2.8927e-05 7.80025e-07
1.72567e-06 7.80025e-07 -0.000203448
0.00209198 0.00035316 1.88706e-06
0.00035316 0.000150585 -1.42691e-07
1.88706e-06 -1.42691e-07 -1.6981e-05
0.00704365 0.000306435 -0.000372503
0.000306435 0.00419219 -4.07053e-05
-0.000372503 -4.07053e-05 0.00419578
0.000350231 0.000114603 5.00762e-07
0.000114603 -0.000255229 2.03232e-07
5.00762e-07 2.03232e-07 -0.000373365
0.00132728 0.000268313 1.0552e-05
0.000268313 -1.33713e-05 3.76951e-06
1.0552e-05 3.76951e-06 -0.000203405
0.00731605 0.00033673 9.39309e-06
0.00033673 0.00436602 5.37806e-06
9.39309e-06 5.37806e-06 0.00436265
0.000336848 0.000156503 1.78119e-05
0.000156503 -0.000266252 1.26814e-05
1.78119e-05 1.26814e-05 -0.000397485
0.00757891 0.000299136 0.000367101
0.000299136 0.00451711 4.71556e-05
0.000367101 4.71556e-05 0.00452073
0.00192355 6.30833e-05 -2.15124e-07
6.30833e-05 1.77727e-05 -2.80216e-08
-2.15124e-07 -2.80216e-08 -7.16439e-05
0.00204559 6.79883e-05 -3.00412e-06
6.79883e-05 6.0581e-06 -7.83945e-08
-3.00412e-06 -7.83945e-08 -4.00424e-05
0.00207842 9.84973e-05 5.75907e-06
9.84973e-05 2.89558e-05 1.13997e-07
5.75907e-06 1.13997e-07 1.36525e-05
0.00126665 -1.27025e-05 -1.04158e-05
-1.27025e-05 1.7304e-05 -5.69276e-07
-1.04158e-05 -5.69276e-07 -0.000102933
0.00198004 -7.07342e-06 7.12864e-07
-7.07342e-06 5.69506e-05 1.12484e-07
7.12864e-07 1.12484e-07 -2.73561e-05
0.00208923 1.05953e-05 3.83999e-06
1.05953e-05 2.4349e-05 -1.6283e-07
3.83999e-06 -1.6283e-07 -9.90194e-06
0.00199508 -7.111e-05 2.34295e-06
-7.111e-05 5.72326e-05 2.85949e-07
2.34295e-06 2.85949e-07 -2.6853e-05
0.00129241 -3.86764e-05 1.87313e-06
-3.86764e-05 2.06637e-05 -1.14484e-07
1.87313e-06 -1.14484e-07 -0.000102092
0.000308337 -3.24966e-05 -1.79935e-05
-3.24966e-05 -0.0002583 5.41421e-07
-1.79935e-05 5.41421e-07 -0.000348666
0.00113036 -7.87138e-05 9.86401e-06
-7.87138e-05 -9.82744e-05 -6.76805e-07
9.86401e-06 -6.76805e-07 -0.000239848
0.000295292 1.14703e-06 1.34268e-07
1.14703e-06 -0.000271932 1.00831e-07
1.34268e-07 1.00831e-07 -0.000365276
0.00663912 -0.000135503 -0.000358442
-0.000135503 0.00392322 1.52364e-05
-0.000358442 1.52364e-05 0.00395
0.000335579 -4.76846e-05 1.76993e-05
-4.76846e-05 -0.000244423 -3.06743e-06
1.76993e-05 -3.06743e-06 -0.000344413
0.00674312 -6.20333e-05 -2.87524e-06
-6.20333e-05 0.00397631 3.34647e-06
-2.87524e-06 3.34647e-06 0.00400811
0.00684285 -0.000122649 0.000357643
-0.000122649 0.00404118 -1.81912e-05
0.000357643 -1.81912e-05 0.00407018
0.00204009 0.000137665 3.25465e-09
0.000137665 8.71164e-05 2.57849e-07
3.25465e-09 2.57849e-07 -8.97272e-06
0.00212454 0.000148543 -2.37458e-06
0.000148543 4.41568e-05 -2.75424e-07
-2.37458e-06 -2.75424e-07 -5.90792e-06
0.00203123 0.000146576 5.08924e-06
0.000146576 -2.52705e-05 4.82632e-07
5.08924e-06 4.82632e-07 -3.59118e-05
0.00119433 0.000114319 -7.6744e-06
0.000114319 -6.05129e-05 -4.2505e-07
-7.6744e-06 -4.2505e-07 -0.000208427
0.00209607 0.000212659 1.49642e-07
0.000212659 0.000117209 -1.55608e-07
1.49642e-07 -1.55608e-07 7.44842e-06
0.00223199 0.000220097 4.50751e-06
0.000220097 0.000102234 2.92286e-07
4.50751e-06 2.92286e-07 4.20516e-05
0.000329396 5.29333e-05 -1.60939e-05
5.29333e-05 -0.000251527 -4.23434e-06
-1.60939e-05 -4.23434e-06 -0.000355376
0.00122815 0.000165912 1.88751e-07
0.000165912 -5.03642e-05 2.24239e-07
1.88751e-07 2.24239e-07 -0.000213501
0.00215848 0.000284712 1.01508e-06
0.000284712 0.000172402 -1.16969e-06
1.01508e-06 -1.16969e-06 4.17462e-05
0.00688728 0.000251742 -0.000380516
0.000251742 0.00409055 -3.29536e-05
-0.000380516 -3.29536e-05 0.00410405
0.000346356 8.61431e-05 8.2452e-07
8.61431e-05 -0.000250138 2.13444e-07
8.2452e-07 2.13444e-07 -0.000361746
0.00123708 0.000214289 5.93505e-06
0.000214289 -6.2308e-05 2.73139e-06
5.93505e-06 2.73139e-06 -0.000241112
0.00713735 0.000325278 4.88451e-06
0.000325278 0.00425664 3.49831e-06
4.88451e-06 3.49831e-06 0.00425795
0.000370571 0.000121989 1.67517e-05
0.000121989 -0.000244508 9.81582e-06
1.67517e-05 9.81582e-06 -0.000364933
0.00742004 0.000375886 0.000380512
0.000375886 0.00444396 5.35916e-05
0.000380512 5.35916e-05 0.00443477
0.00110571 3.35444e-05 -1.13192e-05
3.35444e-05 -8.97497e-05 -5.45343e-07
-1.13192e-05 -5.45343e-07 -0.000221778
0.00202421 6.05161e-05 6.73355e-07
6.05161e-05 8.45426e-05 -1.69081e-08
6.73355e-07 -1.69081e-08 8.56274e-07
0.00209819 6.99423e-05 3.66962e-06
6.99423e-05 4.80315e-05 -9.86144e-08
3.66962e-06 -9.86144e-08 1.09566e-06
0.00035815 3.21434e-05 -1.87379e-05
3.21434e-05 -0.000231954 -1.19319e-06
-1.87379e-05 -1.19319e-06 -0.000313047
0.00124581 -7.72479e-06 1.41264e-06
-7.72479e-06 3.12871e-07 -4.29338e-08
1.41264e-06 -4.29338e-08 -0.000119982
0.00202062 -2.34933e-06 2.87849e-06
-2.34933e-06 8.74535e-05 1.34544e-07
2.87849e-06 1.34544e-07 3.78607e-06
0.00123272 -3.99721e-05 1.2812e-05
-3.99721e-05 -2.27901e-05 -9.38079e-08
1.2812e-05 -9.38079e-08 -0.0001459
0.000324118 -5.95248e-06 3.66319e-07
-5.95248e-06 -0.00024868 4.31006e-07
3.66319e-07 4.31006e-07 -0.000338702
0.00649498 3.90885e-06 -0.00035911
3.90885e-06 0.00382308 2.90809e-06
-0.00035911 2.90809e-06 0.00385839
0.000305562 1.25635e-05 1.7384e-05
1.25635e-05 -0.000267801 -5.45011e-07
1.7384e-05 -5.45011e-07 -0.000359382
0.00659061 -0.000132778 -7.45807e-06
-0.000132778 0.00389444 2.22562e-06
-7.45807e-06 2.22562e-06 0.00392073
0.00667784 -4.44622e-05 0.000344453
-4.44622e-05 0.00393485 -1.01772e-05
0.000344453 -1.01772e-05 0.00396696
0.00115342 7.1605e-05 -1.03953e-05
7.1605e-05 -6.60343e-05 -6.54092e-07
-1.03953e-05 -6.54092e-07 -0.000203957
0.00209817 0.00013443 -3.55714e-07
0.00013443 0.000125786 -2.9853e-07
-3.55714e-07 -2.9853e-07 3.38722e-05
0.00214404 0.000146859 1.71774e-06
0.000146859 5.10144e-05 -3.4202e-07
1.71774e-06 -3.4202e-07 6.21329e-06
0.00275374 7.13811e-05 -0.000161331
7.13811e-05 0.00130331 -5.89088e-06
-0.000161331 -5.89088e-06 0.0012476
0.00119043 0.000115372 6.13403e-08
0.000115372 -6.17356e-05 1.67936e-07
6.13403e-08 1.67936e-07 -0.000210574
0.00214431 0.000212967 5.47469e-07
0.000212967 0.000152523 -7.83102e-07
5.47469e-07 -7.83102e-07 4.27737e-05
0.00675681 0.000183713 -0.000379258
0.000183713 0.00400058 -2.35894e-05
-0.000379258 -2.35894e-05 0.00402465
0.000344637 7.27954e-05 1.13352e-06
7.27954e-05 -0.000240982 5.32896e-07
1.13352e-06 5.32896e-07 -0.000347312
0.00123321 0.000168389 5.75356e-06
0.000168389 -4.43566e-05 1.41814e-06
5.75356e-06 1.41814e-06 -0.000208804
0.0069938 0.000268856 1.25417e-06
0.000268856 0.00415951 1.67185e-06
1.25417e-06 1.67185e-06 0.00417135
0.000362959 9.6202e-05 1.65453e-05
9.6202e-05 -0.000240019 7.60173e-06
1.65453e-05 7.60173e-06 -0.000354251
0.00723114 0.000361599 0.00038618
0.000361599 0.00433011 5.10875e-05
0.00038618 5.10875e-05 0.00432457
0.000456251 1.39758e-05 -1.4583e-05
1.39758e-05 -0.000158537 -1.93054e-06
-1.4583e-05 -1.93054e-06 -0.000248568
0.00116506 3.30835e-05 -2.70341e-07
3.30835e-05 -5.37915e-05 7.74503e-08
-2.70341e-07 7.74503e-08 -0.00018143
0.00212027 5.65467e-05 3.15855e-06
5.65467e-05 0.000148417 -1.55812e-07
3.15855e-06 -1.55812e-07 7.03256e-05
0.00629751 -0.000105064 -0.000340424
-0.000105064 0.00371729 5.31925e-06
-0.000340424 5.31925e-06 0.00374134
0.000319933 1.07649e-05 -6.78296e-07
1.07649e-05 -0.000252502 -2.17986e-07
-6.78296e-07 -2.17986e-07 -0.000336135
0.00125589 -4.08715e-06 1.32264e-05
-4.08715e-06 2.86391e-06 2.20934e-07
1.32264e-05 2.20934e-07 -0.00011736
0.00028777 2.03805e-05 1.76883e-05
2.03805e-05 -0.00027354 8.67025e-07
1.76883e-05 8.67025e-07 -0.00036214
0.00643802 -3.13576e-05 2.23567e-06
-3.13576e-05 0.00379404 -1.84754e-06
2.23567e-06 -1.84754e-06 0.00382416
0.00658142 -5.68277e-05 0.00034849
-5.68277e-05 0.00387538 -7.44632e-06
0.00034849 -7.44632e-06 0.00390832
0.00280121 2.19555e-05 -0.000154247
2.19555e-05 0.001336 -3.05843e-06
-0.000154247 -3.05843e-06 0.00128525
0.00114795 7.46473e-05 -1.7839e-08
7.46473e-05 -7.41058e-05 -7.05824e-08
-1.7839e-08 -7.05824e-08 -0.000212633
0.00217551 0.000131709 1.66298e-06
0.000131709 0.000177361 -6.10657e-07
1.66298e-06 -6.10657e-07 8.98969e-05
0.0062388 -2.19165e-05 -0.000158222
-2.19165e-05 0.0036834 -1.10692e-07
-0.000158222 -1.10692e-07 0.00367348
0.000316523 6.21564e-05 6.76589e-07
6.21564e-05 -0.000252988 3.20724e-07
6.76589e-07 3.20724e-07 -0.000351497
0.00116167 0.00011688 7.83351e-06
0.00011688 -7.70254e-05 6.70018e-07
7.83351e-06 6.70018e-07 -0.000226977
0.00681577 0.000160249 -9.93002e-06
0.000160249 0.00403191 -1.87444e-06
-9.93002e-06 -1.87444e-06 0.00405709
0.000347153 9.54144e-05 1.77898e-05
9.54144e-05 -0.000239336 6.07332e-06
1.77898e-05 6.07332e-06 -0.000347264
0.00707726 0.000292115 0.000389746
0.000292115 0.00421785 4.22523e-05
0.000389746 4.22523e-05 0.00422766
0.00191403 -5.33005e-05 -0.000263711
-5.33005e-05 0.000876315 1.80058e-06
-0.000263711 1.80058e-06 0.000879569
0.00155378 3.43499e-05 -6.69624e-05
3.43499e-05 0.000536733 -1.17636e-07
-6.69624e-05 -1.17636e-07 0.000471796
0.00125372 3.5607e-05 1.21594e-05
3.5607e-05 1.99516e-07 4.92912e-07
1.21594e-05 4.92912e-07 -0.000122931
0.00635496 -5.15838e-05 6.51271e-06
-5.15838e-05 0.00374738 3.16239e-06
6.51271e-06 3.16239e-06 0.00377713
0.000332146 -9.70688e-06 1.80457e-05
-9.70688e-06 -0.000238142 1.0284e-06
1.80457e-05 1.0284e-06 -0.00032571
0.00644975 -9.23482e-05 0.000357883
-9.23482e-05 0.00380713 -6.54949e-06
0.000357883 -6.54949e-06 0.00383633
0.00145449 2.61141e-05 -7.30085e-05
2.61141e-05 0.000612208 -1.2348e-06
-7.30085e-05 -1.2348e-06 0.00056978
0.0015416 2.35604e-05 -6.83572e-05
2.35604e-05 0.00053064 -1.84281e-06
-6.83572e-05 -1.84281e-06 0.00046024
0.00113256 7.5584e-05 1.08151e-05
7.5584e-05 -8.77106e-05 4.58431e-07
1.08151e-05 4.58431e-07 -0.000226782
0.00410697 7.7256e-05 0.000133724
7.7256e-05 0.00229789 4.62048e-06
0.000133724 4.62048e-06 0.00229202
0.000333951 7.26736e-05 1.84814e-05
7.26736e-05 -0.000242119 4.22492e-06
1.84814e-05 4.22492e-06 -0.000340734
0.00691345 0.000147772 0.00037252
0.000147772 0.00408521 2.55988e-05
0.00037252 2.55988e-05 0.00411425
0.00627964 -1.81325e-05 -8.32545e-06
-1.81325e-05 0.00370397 -3.65038e-06
-8.32545e-06 -3.65038e-06 0.00373198
0.00030773 5.26939e-05 1.96824e-05
5.26939e-05 -0.000262917 2.48681e-06
1.96824e-05 2.48681e-06 -0.00034347
0.00624844 3.19344e-05 0.000343727
3.19344e-05 0.00367509 1.88024e-07
0.000343727 1.88024e-07 0.00370846
0.00393223 3.73112e-05 0.000144628
3.73112e-05 0.00219257 6.20978e-06
0.000144628 6.20978e-06 0.00218975
0.000335814 1.24804e-05 1.77188e-05
1.24804e-05 -0.000238107 2.19374e-06
1.77188e-05 2.19374e-06 -0.000328559
0.00666012 1.50574e-05 0.000358064
1.50574e-05 0.00392484 1.17594e-05
0.000358064 1.17594e-05 0.00395688
0.00634606 -0.000111936 0.000343788
-0.000111936 0.00374928 -4.53072e-06
0.000343788 -4.53072e-06 0.00377352
0.00639991 1.98042e-05 0.000348351
1.98042e-05 0.00376147 7.02921e-06
0.000348351 7.02921e-06 0.00379658
