# vtk DataFile Version 2.0
Wound Healing Simulation
ASCII
DATASET UNSTRUCTURED_GRID
POINTS 3012 float
69.9759 18.75 4
67.2507 60.3285 4
69.976 18.75 2
73.0099 25.446 4
71.1327 20.9142 4
68.6801 16.6661 4
67.8273 19.9201 3.98995
67.2507 60.3286 2
71.1327 54.0858 4
68.6801 58.3339 4
65.6939 62.2254 4
65.3137 59.0072 3.99147
74.6784 42.3946 4
73.7221 47.2057 4
69.9759 18.75 0
73.0099 25.446 2
68.6801 16.6661 2
71.1327 20.9142 2
67.8274 19.9202 2
74.6792 32.6053 4
73.7222 27.7943 4
72.1454 23.1494 4
70.6168 26.2199 3.98861
68.8879 21.9535 3.98941
67.2507 14.6715 4
66.6386 17.9652 3.99074
65.8046 21.0152 3.98594
67.2507 60.3285 0
71.1327 54.0858 2
68.6801 58.3339 2
65.694 62.2255 2
65.3137 59.0073 2
72.1454 51.8506 4
69.9759 56.25 4
68.8389 53.1173 3.98946
64.0165 64.0165 4
66.6123 57.14 3.99092
63.887 60.7711 3.99211
63.5056 57.7844 3.98678
60.3285 67.2507 4
74.6792 42.3947 2
73.7222 47.2057 2
74.9194 39.9526 4
74.2788 44.8158 4
72.1705 42.0855 3.98839
73.0099 49.554 4
71.2521 46.5984 3.98882
73.0099 25.446 0
71.1327 20.9142 0
68.6801 16.6661 0
67.8273 19.9201 0.010053
74.6792 32.6053 2
73.7222 27.7943 2
67.2508 14.6715 2
72.1455 23.1494 2
70.6169 26.2205 2
66.6387 17.9652 2
68.888 21.9538 2
65.8046 21.0153 2
74.9197 35.0474 4
74.2794 30.1841 4
72.1871 32.9433 3.98861
71.2808 28.431 3.98855
69.8181 24.057 3.98898
68.3551 26.9473 3.98398
66.7707 22.9253 3.9855
65.694 12.7746 4
65.325 16.0971 3.99157
64.7202 19.1826 3.98647
63.9 22.02 3.98397
71.1327 54.0858 0
65.6939 62.2254 0
68.6801 58.3339 0
65.3137 59.0072 0.00852528
72.1455 51.8506 2
69.9759 56.25 2
68.839 53.1171 2
64.0165 64.0165 2
66.6124 57.14 2
63.8871 60.7711 2
63.5057 57.7844 2
62.2254 65.694 4
58.8939 65.4174 3.9927
69.7718 50.9914 3.98898
67.7858 55.173 3.99024
66.6583 52.2171 3.98568
62.337 62.4316 3.99247
64.6676 56.0431 3.98691
62.2064 59.4172 3.98711
61.8324 56.6991 3.98509
58.3339 68.6801 4
60.3285 67.2508 2
73.7221 47.2057 0
74.6784 42.3946 0
74.9197 39.9526 2
74.2794 44.8159 2
72.1704 42.085 2
73.0099 49.554 2
71.2521 46.5977 2
75 37.5 4
72.4075 39.8022 3.98813
71.7851 44.3529 3.98869
69.8117 41.7908 3.98307
70.578 48.8146 3.98883
68.9209 46.0179 3.9837
74.6792 32.6053 0
73.7222 27.7943 0
67.2507 14.6715 0
72.1454 23.1494 0
70.6168 26.2199 0.0113923
68.8879 21.9535 0.0105888
66.6386 17.9652 0.00926253
65.8046 21.0152 0.0140574
74.9197 35.0474 2
74.2794 30.1841 2
72.187 32.944 2
71.2808 28.4318 2
65.694 12.7745 2
65.3251 16.0971 2
69.8182 24.0575 2
68.355 26.9473 2
64.7203 19.1827 2
66.7707 22.9254 2
63.9 22.0202 2
72.4154 35.2241 3.98827
71.8064 30.6762 3.98874
69.8476 33.2674 3.98327
68.9742 29.0354 3.98339
67.6197 24.906 3.98485
66.2086 27.6268 3.98206
64.0165 10.9835 4
64.7706 23.8172 3.98363
63.8911 14.322 3.9921
63.5181 17.4334 3.987
62.9184 20.3029 3.98434
62.1111 22.9235 3.98305
60.6843 11.0939 3.99243
57.6127 11.4382 3.98767
72.1454 51.8506 0
69.9759 56.25 0
68.8389 53.1173 0.0105402
64.0165 64.0165 0
63.887 60.7711 0.00788894
66.6123 57.14 0.00908046
63.5056 57.7844 0.0132168
62.2255 65.694 2
58.894 65.4175 2
69.7719 50.991 2
67.7859 55.173 2
66.6584 52.217 2
62.3371 62.4317 2
64.6677 56.0431 2
62.2065 59.4173 2
61.8325 56.6991 2
60.669 63.9807 3.99256
57.0243 66.7377 3.99289
57.5579 63.6992 3.9879
67.5165 50.1828 3.98491
65.7101 54.1832 3.98651
64.5529 51.3985 3.98344
60.7752 60.9494 3.98762
62.8319 55.085 3.98535
60.6652 58.177 3.98505
60.3406 55.8078 3.98432
56.25 69.9759 4
58.3339 68.6801 2
60.3285 67.2507 0
58.9212 9.65245 3.99262
62.2254 9.30607 4
73.0099 49.554 0
74.2788 44.8158 0
71.2521 46.5984 0.0111848
72.1705 42.0855 0.0116115
74.9194 39.9526 0
75 37.5 2
72.4073 39.8019 2
71.7851 44.3522 2
69.8114 41.7906 2
70.5781 48.814 2
68.9208 46.0175 2
72.4908 37.512 3.98809
70.0481 39.6579 3.98237
69.4385 43.9094 3.98347
67.6107 41.5007 3.9808
68.2748 48.1116 3.98422
66.7245 45.4463 3.98184
74.9197 35.0474 0
74.2794 30.1841 0
72.1871 32.9433 0.0113869
71.2808 28.431 0.0114516
65.694 12.7746 0
65.325 16.0971 0.00843344
69.8181 24.057 0.0110213
68.3551 26.9473 0.0160208
66.7707 22.9253 0.0144993
64.7202 19.1826 0.0135289
63.9 22.02 0.0160259
72.4153 35.2247 2
71.8063 30.677 2
69.8473 33.2676 2
68.974 29.0355 2
64.0165 10.9835 2
63.8912 14.3219 2
63.5181 17.4334 2
67.6196 24.9061 2
66.2084 27.6267 2
62.9184 20.3031 2
64.7705 23.8173 2
62.1109 22.9237 2
60.6845 11.0939 2
57.6127 11.4379 2
70.0651 35.3916 3.98293
69.475 31.1478 3.98336
67.6687 33.5881 3.98096
66.786 29.6169 3.98138
65.5384 25.6889 3.98293
64.1661 28.2439 3.98141
62.3424 12.6507 3.99232
62.8766 24.6199 3.9829
62.2019 15.7717 3.98731
61.8224 18.6665 3.98502
61.2334 21.3201 3.98302
60.4487 23.7042 3.98289
59.2472 12.7684 3.98748
55.8742 10.2254 3.98822
56.4066 13.1006 3.98491
69.7718 50.9914 0.0110238
62.2254 65.694 0
58.8939 65.4174 0.0073033
67.7858 55.173 0.00975573
66.6583 52.2171 0.0143245
62.337 62.4316 0.00752792
62.2064 59.4172 0.012891
64.6676 56.0431 0.0130892
61.8324 56.6991 0.0149139
60.6691 63.9808 2
57.0244 66.7378 2
57.5579 63.6994 2
67.5166 50.1826 2
65.7103 54.1832 2
64.5529 51.3984 2
60.7752 60.9497 2
62.8321 55.085 2
60.6653 58.1771 2
60.3407 55.8077 2
55.0697 67.9342 3.9931
59.2203 62.3758 3.98774
55.8036 64.9155 3.98823
56.3282 62.0999 3.98531
65.3473 49.4191 3.98275
63.7201 53.3079 3.9846
62.4631 50.6698 3.98227
59.3376 59.5723 3.98547
61.0928 54.3305 3.9846
59.2985 57.0339 3.98371
59.2569 55.2074 3.98446
48.1018 68.5815 3.98976
50.9478 69.9333 3.99356
54.0858 71.1327 4
56.25 69.976 2
58.3339 68.6801 0
57.0582 8.33261 3.99296
60.3285 7.74928 4
58.9213 9.65241 2
62.2255 9.30602 2
70.578 48.8146 0.0111714
71.7851 44.3529 0.0113095
68.9209 46.0179 0.0162979
69.8117 41.7908 0.0169287
72.4075 39.8022 0.0118663
75 37.5 0
72.4906 37.5122 2
70.0477 39.6577 2
69.4383 43.9091 2
67.6103 41.5007 2
68.2749 48.1113 2
66.7243 45.4463 2
70.1361 37.5216 3.98234
67.8468 39.5139 3.98014
67.2377 43.4747 3.98136
65.575 41.2148 3.9801
66.084 47.4265 3.98229
64.6729 44.858 3.98116
72.4154 35.2241 0.0117287
71.8064 30.6762 0.0112642
69.8476 33.2674 0.0167337
68.9742 29.0354 0.0166099
64.0165 10.9835 0
63.8911 14.322 0.00790355
63.5181 17.4334 0.0130048
67.6197 24.906 0.0151512
66.2086 27.6268 0.0179371
64.7706 23.8172 0.016367
62.9184 20.3029 0.0156559
62.1111 22.9235 0.0169455
60.6843 11.0939 0.00757132
57.6127 11.4382 0.012332
70.0647 35.3916 2
69.4748 31.1479 2
67.6683 33.5879 2
66.7857 29.6168 2
62.3425 12.6507 2
62.202 15.7716 2
61.8225 18.6666 2
65.5382 25.6889 2
64.1656 28.2439 2
61.2334 21.3204 2
62.8763 24.6201 2
60.4484 23.7046 2
59.2472 12.7682 2
56.4066 13.1004 2
55.8742 10.2252 2
67.8834 35.5462 3.98076
67.279 31.618 3.98127
65.7165 33.923 3.98016
64.6824 30.1832 3.98035
63.5582 26.3996 3.98223
62.2825 28.763 3.98173
60.7769 14.2117 3.98742
61.07 25.3168 3.98281
60.6182 17.1107 3.98545
60.2345 19.7946 3.98374
59.681 22.2338 3.98214
59.0052 24.2947 3.98321
54.0371 9.12914 3.98896
57.9125 14.3179 3.98518
54.7873 12.001 3.985
55.3148 14.6315 3.98378
67.5165 50.1828 0.0150937
57.0243 66.7377 0.0071088
60.669 63.9807 0.0074369
57.5579 63.6992 0.0120957
65.7101 54.1832 0.0134869
64.5529 51.3985 0.0165624
60.7752 60.9494 0.0123842
60.6652 58.177 0.0149546
62.8319 55.085 0.0146543
60.3406 55.8078 0.0156822
55.0699 67.9344 2
59.2203 62.3761 2
55.8037 64.9158 2
56.3283 62.1002 2
65.3473 49.419 2
63.7202 53.3079 2
62.4631 50.6696 2
59.3377 59.5726 2
61.093 54.3304 2
59.2987 57.034 2
59.2571 55.2073 2
53.0417 69.0017 3.99333
53.9655 66.0171 3.98861
57.8833 60.8828 3.98543
54.6838 63.2144 3.98547
55.2139 60.6275 3.98412
63.2162 48.6762 3.98182
61.761 52.5952 3.98361
60.301 50.0408 3.98163
58.0242 58.2793 3.98426
59.3455 53.9717 3.98385
58.1387 55.8373 3.98247
50.1081 67.8597 3.98943
47.462 66.5852 3.98704
46.0558 69.1608 3.98999
48.102 68.5819 2
48.8021 70.7244 3.99374
50.9479 69.9334 2
51.8506 72.1454 4
54.0858 71.1327 2
56.25 69.9759 0
55.1025 7.13738 3.99327
58.3339 6.31992 4
57.0584 8.33252 2
60.3286 7.74926 2
58.9212 9.65245 0.00738187
62.2254 9.30607 0
68.2748 48.1116 0.0157771
69.4385 43.9094 0.0165292
66.7245 45.4463 0.0181632
67.6107 41.5007 0.0192022
70.0481 39.6579 0.0176272
72.4908 37.512 0.011907
70.1357 37.5215 2
67.8463 39.5138 2
67.2374 43.4746 2
65.5744 41.2148 2
66.0839 47.4264 2
64.6725 44.858 2
67.943 37.5221 3.97997
65.8056 39.3729 3.97962
65.1959 43.0326 3.98052
63.7801 40.9361 3.9802
63.9871 46.729 3.98148
62.8335 44.2284 3.98154
70.0651 35.3916 0.0170683
69.475 31.1478 0.0166396
67.6687 33.5881 0.0190395
66.786 29.6169 0.0186214
62.3424 12.6507 0.00767548
62.2019 15.7717 0.0126871
61.8224 18.6665 0.0149837
65.5384 25.6889 0.0170655
64.1661 28.2439 0.0185874
62.8766 24.6199 0.0170957
61.2334 21.3201 0.0169759
60.4487 23.7042 0.017109
59.2472 12.7684 0.0125211
56.4066 13.1006 0.0150866
55.8742 10.2254 0.0117772
67.8829 35.546 2
67.2786 31.6179 2
65.716 33.9228 2
64.6819 30.1831 2
60.777 14.2116 2
60.6184 17.1107 2
60.2346 19.7948 2
63.5579 26.3997 2
62.2819 28.7631 2
59.6808 22.2342 2
61.0696 25.3171 2
59.0047 24.2952 2
57.9125 14.3178 2
55.3149 14.6315 2
54.0372 9.12881 2
54.7874 12.0007 2
65.8949 35.6648 3.97991
65.2056 32.1476 3.98012
64.3072 34.2451 3.97951
62.6203 30.6239 3.98042
61.677 27.0542 3.98209
60.8799 29.1237 3.98319
59.3139 15.6536 3.98542
59.3608 25.7729 3.98376
59.1311 18.3355 3.98454
58.7551 20.8296 3.98248
58.3082 23.0656 3.98144
57.9974 24.6381 3.98406
52.1118 8.14791 3.98952
53.058 11.0077 3.98572
56.6795 15.7262 3.98443
53.811 13.6682 3.98329
54.3791 15.9828 3.98359
55.0697 67.9342 0.00690271
65.3473 49.4191 0.017245
55.8036 64.9155 0.011773
59.2203 62.3758 0.0122616
56.3282 62.0999 0.0146885
63.7201 53.3079 0.0153987
62.4631 50.6698 0.0177278
59.3376 59.5723 0.0145302
59.2985 57.0339 0.0162939
61.0928 54.3305 0.0153979
59.2569 55.2074 0.015541
53.0419 69.0019 2
53.9656 66.0173 2
57.8834 60.8831 2
54.6839 63.2147 2
55.214 60.6278 2
63.216 48.6761 2
61.7611 52.5951 2
60.3008 50.0404 2
58.0244 58.2795 2
59.3457 53.9716 2
58.1389 55.8372 2
52.069 67.0031 3.98902
52.9525 64.2237 3.98566
56.6522 59.5036 3.9845
53.6822 61.6304 3.98417
54.2634 59.3342 3.98352
61.0223 47.8995 3.98121
59.7339 52.1288 3.98326
58.0584 49.6418 3.98209
56.7848 57.0091 3.98268
57.1387 54.1494 3.98205
50.1083 67.8601 2
49.3356 65.9254 3.98646
47.462 66.5856 2
46.8913 64.7411 3.98503
45.5572 67.1027 3.9874
43.9731 69.5935 3.99015
46.0559 69.1612 2
46.609 71.3688 3.9939
48.1018 68.5815 0.0102367
48.8023 70.7246 2
49.554 73.0099 4
50.9478 69.9333 0.00644015
51.8506 72.1455 2
54.0858 71.1327 0
53.0637 6.06902 3.99358
55.1027 7.13725 2
56.25 5.02411 4
58.3339 6.3199 2
57.0582 8.33261 0.00703938
60.3285 7.74928 0
66.084 47.4265 0.0177073
67.2377 43.4747 0.0186416
64.6729 44.858 0.0188418
65.575 41.2148 0.0199047
67.8468 39.5139 0.0198571
70.1361 37.5216 0.0176553
67.9425 37.522 2
65.805 39.3728 2
65.1954 43.0326 2
63.7794 40.9361 2
63.9868 46.7289 2
62.833 44.2283 2
65.9083 37.5021 3.97925
63.9237 39.2704 3.97964
63.3544 42.5593 3.98046
62.4604 40.7054 3.97979
61.9954 45.9345 3.9815
61.4829 43.6971 3.98328
67.8834 35.5462 0.0192447
67.279 31.618 0.018735
65.7165 33.923 0.0198398
64.6824 30.1832 0.0196543
60.7769 14.2117 0.0125756
60.6182 17.1107 0.0145475
60.2345 19.7946 0.0162647
63.5582 26.3996 0.0177652
62.2825 28.763 0.0182702
61.07 25.3168 0.0171907
59.681 22.2338 0.0178594
59.0052 24.2947 0.0167908
57.9125 14.3179 0.0148206
55.3148 14.6315 0.0162202
54.0371 9.12914 0.0110412
54.7873 12.001 0.0150032
65.8943 35.6646 2
65.2051 32.1475 2
64.3065 34.2449 2
62.6195 30.6239 2
59.3139 15.6534 2
59.1312 18.3355 2
58.7551 20.83 2
61.6764 27.0544 2
60.8791 29.1237 2
58.3079 23.0662 2
59.3602 25.7734 2
57.9968 24.6389 2
56.6796 15.7262 2
54.3792 15.9828 2
53.8111 13.6681 2
52.1119 8.14756 2
53.058 11.0073 2
64.1146 35.6299 3.97931
62.9569 33.0384 3.97924
60.6463 30.5971 3.98107
59.6049 27.8896 3.98292
57.9436 16.9655 3.98469
57.7727 25.6999 3.98495
57.7244 19.4539 3.9836
57.389 21.8144 3.98094
57.2131 23.9197 3.98142
50.112 7.28028 3.98991
51.2322 10.1163 3.98631
52.1729 12.7859 3.98376
55.5409 16.9549 3.98418
52.9798 15.25 3.98233
53.7614 16.9645 3.98375
53.0417 69.0017 0.00667413
53.9655 66.0171 0.0113938
63.2162 48.6762 0.018182
54.6838 63.2144 0.0145349
57.8833 60.8828 0.0145746
55.2139 60.6275 0.0158783
61.761 52.5952 0.0163902
60.301 50.0408 0.0183726
58.0242 58.2793 0.0157449
58.1387 55.8373 0.0175287
59.3455 53.9717 0.0161531
52.0691 67.0033 2
52.9525 64.224 2
56.6524 59.5038 2
53.6822 61.6307 2
54.2635 59.3344 2
61.022 47.8992 2
59.734 52.1286 2
58.0581 49.6412 2
56.7851 57.0093 2
57.139 54.1492 2
51.1666 65.1323 3.98596
52.0461 62.5443 3.98404
55.4854 58.2662 3.98393
52.8365 60.1446 3.9836
53.6439 58.4849 3.98352
58.3444 46.8701 3.98315
57.5877 51.8132 3.98192
56.2835 49.5801 3.98309
55.4824 55.8174 3.9813
55.3778 53.4098 3.9796
50.1081 67.8597 0.0105688
49.3357 65.9257 2
48.6172 64.1271 3.98459
47.462 66.5852 0.0129622
45.5573 67.1031 2
46.8913 64.7415 2
46.3811 63.0585 3.98361
45.1315 65.203 3.9854
43.6306 67.4737 3.98759
41.8606 69.8812 3.99025
43.9732 69.5939 2
44.3765 71.8637 3.99404
46.0558 69.1608 0.0100141
46.6091 71.369 2
47.2057 73.7222 4
48.8021 70.7244 0.00625705
49.554 73.0099 2
51.8506 72.1454 0
50.9534 5.12958 3.99375
53.0638 6.06885 2
54.0858 3.86728 4
55.1025 7.13738 0.00672999
56.25 5.02406 2
58.3339 6.31992 0
63.9871 46.729 0.0185154
65.1959 43.0326 0.019485
62.8335 44.2284 0.0184556
63.7801 40.9361 0.0197974
65.8056 39.3729 0.0203806
67.943 37.5221 0.0200319
65.9077 37.502 2
63.923 39.2704 2
63.3538 42.5593 2
62.4597 40.7054 2
61.9949 45.9343 2
61.4822 43.6969 2
63.9838 37.4576 3.9795
62.1891 39.3599 3.97959
61.2516 41.97 3.98086
60.2849 44.7867 3.98352
65.8949 35.6648 0.0200864
65.2056 32.1476 0.0198801
64.3072 34.2451 0.0204921
62.6203 30.6239 0.0195778
59.3139 15.6536 0.0145849
59.1311 18.3355 0.0154637
58.7551 20.8296 0.0175185
61.677 27.0542 0.0179055
60.8799 29.1237 0.016814
59.3608 25.7729 0.0162434
58.3082 23.0656 0.0185601
57.9974 24.6381 0.0159405
56.6795 15.7262 0.0155681
54.3791 15.9828 0.0164074
53.811 13.6682 0.0167134
52.1118 8.14791 0.0104792
53.058 11.0077 0.0142841
64.1139 35.6297 2
62.9561 33.0382 2
60.6454 30.5971 2
57.9438 16.9655 2
57.7245 19.4542 2
57.3888 21.8149 2
59.6041 27.8899 2
57.2126 23.9206 2
57.772 25.7007 2
50.1121 7.27997 2
55.541 16.9549 2
53.7615 16.9645 2
52.9798 15.2499 2
52.1729 12.7856 2
51.2322 10.116 2
62.2211 35.3555 3.97904
60.3266 32.7348 3.97877
58.6611 30.0566 3.98196
57.3313 27.3563 3.98426
56.6412 18.1368 3.98421
56.3255 25.075 3.98276
56.369 20.4985 3.98203
56.131 22.8425 3.9792
48.0559 6.52377 3.99009
49.3241 9.3245 3.98707
50.4335 11.9843 3.98428
51.3794 14.4863 3.98201
54.4189 17.9037 3.98368
52.364 17.0219 3.98233
52.069 67.0031 0.0109776
52.9525 64.2237 0.0143414
61.0223 47.8995 0.0187905
53.6822 61.6304 0.0158259
56.6522 59.5036 0.0155016
54.2634 59.3342 0.0164825
59.7339 52.1288 0.0167363
58.0584 49.6418 0.0179119
56.7848 57.0091 0.0173168
57.1387 54.1494 0.0179531
51.1666 65.1326 2
52.0461 62.5445 2
55.4856 58.2664 2
52.8366 60.1449 2
53.644 58.4852 2
58.3438 46.8695 2
57.5878 51.8128 2
56.2833 49.5793 2
55.4826 55.8174 2
55.3781 53.4096 2
50.3456 63.3851 3.98418
51.245 60.9413 3.98285
54.2249 57.2813 3.98292
52.3156 58.6452 3.98287
56.7688 44.2033 3.98464
55.5372 47.9196 3.98229
55.0997 51.4166 3.97949
54.0186 54.57 3.97909
49.3356 65.9254 0.0135405
48.6172 64.1274 2
47.9616 62.479 3.98339
45.5572 67.1027 0.0126022
46.8913 64.7411 0.0149741
43.6307 67.4742 2
46.381 63.0588 2
45.1315 65.2034 2
45.9869 61.5907 3.98255
44.7662 63.46 3.98389
43.3555 65.5129 3.98559
41.663 67.6932 3.98776
39.7024 70.0285 3.99027
41.8606 69.8816 2
42.1111 72.2085 3.99407
43.9731 69.5935 0.00984733
44.3766 71.8639 2
44.8159 74.2794 4
46.609 71.3688 0.0060955
47.2057 73.7222 2
49.554 73.0099 0
48.784 4.32077 3.99391
50.9535 5.1294 2
51.8506 2.85458 4
53.0637 6.06902 0.00641634
54.0858 3.86728 2
56.25 5.02411 0
61.9954 45.9345 0.0184957
63.3544 42.5593 0.0195413
61.4829 43.6971 0.0167217
62.4604 40.7054 0.0202085
63.9237 39.2704 0.0203574
65.9083 37.5021 0.0207491
63.9831 37.4575 2
62.1882 39.3599 2
61.2508 41.9699 2
60.2843 44.7864 2
62.0283 37.4453 3.98003
60.2894 39.8552 3.97952
59.038 42.9343 3.9829
64.1146 35.6299 0.0206935
62.9569 33.0384 0.0207579
60.6463 30.5971 0.0189269
57.9436 16.9655 0.0153113
57.7244 19.4539 0.0164043
57.389 21.8144 0.0190646
59.6049 27.8896 0.0170823
57.7727 25.6999 0.0150504
57.2131 23.9197 0.0185761
55.5409 16.9549 0.0158241
53.7614 16.9645 0.0162503
52.9798 15.25 0.0176745
50.112 7.28028 0.0100868
52.1729 12.7859 0.0162402
51.2322 10.1163 0.0136946
62.2204 35.3554 2
60.3255 32.7346 2
58.6599 30.0568 2
56.6414 18.1369 2
56.3691 20.4989 2
56.1308 22.8433 2
57.3303 27.3569 2
56.3248 25.0761 2
48.056 6.52343 2
49.3241 9.32418 2
54.4191 17.9037 2
52.364 17.0219 2
51.3794 14.486 2
50.4334 11.984 2
59.9366 35.1145 3.97913
58.0403 32.2546 3.97953
56.5927 29.3162 3.98328
55.49 26.5727 3.98535
55.3484 19.1709 3.98332
54.9586 24.0295 3.97878
55.0167 21.5393 3.98031
45.962 5.87905 3.99032
43.3734 7.46834 3.98822
47.3546 8.61871 3.98751
48.6 11.2859 3.98484
49.715 13.7333 3.98298
50.6356 16.1211 3.98083
53.1293 18.6444 3.98292
51.3062 18.0362 3.98235
51.1666 65.1323 0.0140386
52.0461 62.5443 0.0159626
58.3444 46.8701 0.0168505
52.8365 60.1446 0.0164045
55.4854 58.2662 0.0160726
53.6439 58.4849 0.0164834
57.5877 51.8132 0.0180792
56.2835 49.5801 0.016906
55.4824 55.8174 0.0187022
55.3778 53.4098 0.0203951
50.3456 63.3854 2
51.245 60.9416 2
54.2252 57.2816 2
52.3157 58.6456 2
56.7677 44.2027 2
55.5367 47.9185 2
55.0998 51.416 2
54.0189 54.57 2
49.5918 61.7486 3.98301
55.7056 41.7238 3.98063
50.5686 59.3349 3.98177
52.191 56.5041 3.98143
54.246 45.5835 3.98385
53.386 49.3541 3.98021
52.6904 52.8773 3.97705
48.6172 64.1271 0.0154099
47.9615 62.4793 2
47.3292 61.0133 3.98252
43.6306 67.4737 0.0124106
45.1315 65.203 0.0145979
46.3811 63.0585 0.0163874
41.663 67.6936 2
43.3555 65.5134 2
45.9869 61.591 2
44.7662 63.4604 2
45.7659 60.6346 3.98177
44.4826 61.8406 3.98269
43.1454 63.7329 3.98418
41.5451 65.6512 3.98572
39.6324 67.7733 3.98787
37.526 70.0538 3.99024
39.7024 70.0289 2
39.8179 72.4057 3.99401
41.8606 69.8812 0.00974508
42.1111 72.2088 2
42.3947 74.6792 4
44.3765 71.8637 0.00595762
44.8159 74.2794 2
47.2057 73.7222 0
43.8515 5.35615 3.99053
46.5701 3.64544 3.99409
48.7841 4.32057 2
49.554 1.99015 4
50.9534 5.12958 0.00624995
51.8506 2.85453 2
54.0858 3.86728 0
60.2849 44.7867 0.0164839
61.2516 41.97 0.0191395
62.1891 39.3599 0.0204087
63.9838 37.4576 0.0204992
62.0275 37.4452 2
60.2884 39.8551 2
59.037 42.9341 2
59.8107 37.568 3.98105
58.0559 40.6702 3.97993
55.1917 39.7304 3.98134
62.2211 35.3555 0.0209567
60.3266 32.7348 0.0212334
58.6611 30.0566 0.0180384
56.6412 18.1368 0.015789
56.369 20.4985 0.0179681
56.131 22.8425 0.0208002
57.3313 27.3563 0.0157417
56.3255 25.075 0.0172388
54.4189 17.9037 0.0163246
52.364 17.0219 0.0176686
51.3794 14.4863 0.0179916
48.0559 6.52377 0.00990631
49.3241 9.3245 0.0129267
50.4335 11.9843 0.015717
59.9357 35.1144 2
45.962 5.87872 2
43.3735 7.46802 2
58.0388 32.2545 2
56.5914 29.3165 2
55.3486 19.171 2
55.0167 21.54 2
54.9581 24.0309 2
55.4888 26.5739 2
47.3546 8.61833 2
48.6 11.2856 2
53.1294 18.6444 2
51.3063 18.0362 2
50.6356 16.1209 2
49.715 13.7331 2
57.4556 34.7524 3.97965
55.7847 31.4975 3.98074
54.5677 28.3775 3.98699
53.8103 25.4703 3.98107
53.9762 20.1189 3.98265
53.6008 22.6847 3.97671
41.3986 7.0736 3.98836
45.3594 7.99023 3.98791
42.8653 9.40944 3.98634
46.6663 10.6469 3.9855
47.7457 13.0938 3.98307
48.9329 15.3911 3.98187
50.0085 17.6903 3.97951
51.6579 19.3146 3.9833
50.3456 63.3851 0.0158202
51.245 60.9413 0.0171479
56.7688 44.2033 0.0153568
55.5372 47.9196 0.0177087
52.3156 58.6452 0.017126
54.2249 57.2813 0.0170793
55.0997 51.4166 0.0205105
54.0186 54.57 0.0209116
49.5918 61.7489 2
55.7041 41.7233 2
50.5686 59.3351 2
52.1913 56.5045 2
54.2448 45.5822 2
53.3858 49.353 2
52.6909 52.8768 2
48.8495 60.2058 3.98231
52.6177 42.658 3.98329
49.7922 57.6349 3.98163
50.6081 54.4381 3.97852
51.8859 47.2905 3.97987
51.2515 50.9698 3.9758
48.3209 43.7323 3.97711
47.9616 62.479 0.0166124
47.3292 61.0135 2
46.6188 59.7994 3.98176
41.663 67.6932 0.0122374
43.3555 65.5129 0.0144115
44.7662 63.46 0.0161053
45.9869 61.5907 0.0174527
39.6324 67.7737 2
41.5451 65.6516 2
45.7659 60.6348 2
43.1453 63.7333 2
44.4825 61.8409 2
44.623 60.2969 3.98157
42.9497 62.0897 3.98277
41.5987 63.8267 3.98409
39.6469 65.6201 3.9859
37.5633 67.7559 3.98768
31.698 65.1385 3.98564
33.3926 67.4934 3.98761
35.3335 69.964 3.9902
37.526 70.0543 2
37.5096 72.4603 3.99399
39.7024 70.0285 0.00973159
39.8179 72.4059 2
39.9526 74.9197 4
42.1111 72.2085 0.00592762
42.3947 74.6792 2
44.8159 74.2794 0
41.7362 4.96528 3.99071
43.8515 5.35583 2
44.3255 3.10878 3.99423
46.5702 3.64524 2
47.2057 1.27793 4
48.784 4.32077 0.00608655
49.554 1.99013 2
51.8506 2.85458 0
59.038 42.9343 0.0171014
60.2894 39.8552 0.0204824
62.0283 37.4453 0.0199671
59.8098 37.5679 2
58.0546 40.6701 2
55.1902 39.7299 2
56.8987 37.8996 3.98178
49.7797 41.2988 3.97852
53.2386 39.3146 3.98501
39.4421 6.79719 3.9886
59.9366 35.1145 0.02087
58.0403 32.2546 0.0204677
56.5927 29.3162 0.0167172
55.3484 19.1709 0.016679
55.0167 21.5393 0.0196856
54.9586 24.0295 0.0212224
55.49 26.5727 0.0146533
53.1293 18.6444 0.017084
51.3062 18.0362 0.0176497
50.6356 16.1211 0.0191666
45.962 5.87905 0.00967713
49.715 13.7333 0.0170226
47.3546 8.61871 0.0124858
48.6 11.2859 0.0151587
43.3734 7.46834 0.0117794
57.4544 34.7523 2
41.3986 7.07326 2
45.3594 7.98995 2
42.8652 9.40916 2
55.7829 31.4972 2
54.5658 28.3784 2
53.9765 20.1191 2
53.6008 22.6858 2
53.8093 25.4721 2
46.6662 10.6466 2
47.7456 13.0936 2
51.6579 19.3145 2
50.0086 17.6903 2
48.933 15.391 2
54.9642 33.9568 3.97983
53.5656 30.4593 3.98537
52.6442 27.1725 3.98414
52.1733 24.0613 3.97814
52.4022 21.0553 3.98096
41.0134 9.0427 3.98656
44.7234 9.98959 3.98596
42.468 10.8957 3.98484
46.0051 12.7216 3.98368
47.6824 14.5757 3.98242
48.1152 16.9786 3.98031
49.8212 19.5879 3.97824
49.5918 61.7486 0.0169935
50.5686 59.3349 0.0182295
55.7056 41.7238 0.0193702
54.246 45.5835 0.0161451
53.386 49.3541 0.0197902
52.191 56.5041 0.0185695
52.6904 52.8773 0.0229529
48.8495 60.2061 2
52.6159 42.657 2
49.7922 57.635 2
50.6086 54.4386 2
51.8851 47.2892 2
51.2517 50.968 2
48.3147 43.7329 2
47.9878 58.7476 3.98155
50.2087 45.2819 3.97671
48.6043 55.9256 3.98116
49.1528 52.6148 3.97839
49.7269 49.0678 3.97552
46.1889 39.9096 3.91696
46.5712 42.7689 3.9851
46.6236 45.7284 3.98064
44.0389 41.2478 3.97076
42.1033 41.9915 3.97038
47.3292 61.0133 0.0174789
46.6187 59.7995 2
45.4683 58.7952 3.98046
39.6324 67.7733 0.0121321
41.5451 65.6512 0.0142773
43.1454 63.7329 0.0158245
44.4826 61.8406 0.01731
45.7659 60.6346 0.0182305
41.5987 63.827 2
37.5633 67.7564 2
39.6469 65.6205 2
44.623 60.2971 2
42.9496 62.0901 2
41.7525 62.501 3.9829
42.4803 59.9886 3.98128
39.8924 63.5621 3.98366
37.6419 65.5193 3.98577
35.4636 67.6653 3.98769
33.5759 65.3522 3.9857
31.96 63.3106 3.98402
29.8842 64.729 3.98532
31.698 65.139 2
31.3775 67.2028 3.9876
33.3926 67.4939 2
33.1564 69.7572 3.99012
35.3335 69.9644 2
35.1951 72.3747 3.99395
37.526 70.0538 0.00976008
37.5096 72.4606 2
37.5 75 4
39.8179 72.4057 0.00599458
39.9526 74.9197 2
42.3947 74.6792 0
39.6238 4.71254 3.99077
41.7362 4.96495 2
42.0619 2.71642 3.99439
43.8515 5.35615 0.009472
44.3255 3.10856 2
44.8158 0.721173 4
46.5701 3.64544 0.00591384
47.2057 1.27779 2
49.554 1.99015 0
58.0559 40.6702 0.020073
59.8107 37.568 0.0189461
55.1917 39.7304 0.0186599
49.778 41.3003 2
56.8975 37.8995 2
53.2368 39.3135 2
54.0927 36.6234 3.98108
47.7016 40.4559 3.99195
50.7321 38.4825 3.98297
37.5159 6.66838 3.9886
39.4421 6.79683 2
39.211 8.6852 3.98676
35.9414 8.48504 3.98685
57.4556 34.7524 0.0203503
55.7847 31.4975 0.0192641
54.5677 28.3775 0.0130134
53.9762 20.1189 0.0173543
53.6008 22.6847 0.0232881
53.8103 25.4703 0.0189263
51.6579 19.3146 0.0166971
50.0085 17.6903 0.0204916
48.9329 15.3911 0.0181311
45.3594 7.99023 0.0120929
47.7457 13.0938 0.016934
46.6663 10.6469 0.0145041
41.3986 7.0736 0.0116425
42.8653 9.40944 0.0136631
54.9627 33.9564 2
41.0133 9.04234 2
44.7234 9.98937 2
42.4679 10.8955 2
53.5632 30.4582 2
52.6425 27.1749 2
52.4025 21.0549 2
52.173 24.0628 2
46.005 12.7213 2
47.6824 14.5755 2
49.8214 19.5883 2
48.1152 16.9785 2
52.5137 32.8499 3.98245
51.4187 29.1318 3.98771
50.8368 25.6998 3.97589
49.9519 22.1655 3.97931
40.5688 11.5993 3.98419
43.8578 11.9107 3.98408
45.8032 15.4113 3.98188
47.5068 19.2123 3.97925
46.5192 37.5051 3.91567
48.8495 60.2058 0.0176857
49.7922 57.6349 0.0183656
52.6177 42.658 0.0167124
51.8859 47.2905 0.0201296
51.2515 50.9698 0.0242047
50.6081 54.4381 0.0214752
48.3209 43.7323 0.0228933
47.9878 58.7478 2
50.2066 45.2814 2
48.6044 55.9257 2
49.1532 52.6156 2
49.7264 49.0656 2
46.1929 39.912 2
46.5774 42.7718 2
46.6196 45.7247 2
44.0448 41.2455 2
42.1117 41.9941 2
46.8402 57.3498 3.98214
44.8028 39.5062 3.96644
42.4721 40.8667 3.9812
48.1762 47.2628 3.98109
47.1801 54.2581 3.98149
47.6254 50.7766 3.9781
44.8945 47.3404 3.97983
45.2555 42.0278 3.92344
45.0337 44.6603 3.97793
42.8312 42.7445 3.963
40.9569 42.3624 3.96958
46.6188 59.7994 0.0182358
45.4682 58.7952 2
43.8758 57.7184 3.98004
37.5633 67.7559 0.0123242
39.6469 65.6201 0.0141014
41.5987 63.8267 0.0159084
42.9497 62.0897 0.0172298
44.623 60.2969 0.0184269
35.4636 67.6658 2
41.7525 62.5013 2
39.8923 63.5625 2
37.642 65.5197 2
42.4803 59.9888 2
40.6222 61.6589 3.98271
40.4437 58.2173 3.97911
37.8361 63.2237 3.98401
35.5731 65.4416 3.98569
33.576 65.3527 2
31.9601 63.3109 2
33.6294 63.3506 3.98416
30.379 62.8686 3.98369
32.1232 62.0162 3.98273
26.8679 61.5107 3.98254
28.0629 64.1564 3.98488
29.8842 64.7294 2
29.4072 66.7662 3.98737
31.698 65.1385 0.0143552
31.3775 67.2033 2
31.0139 69.422 3.98998
33.3926 67.4934 0.0123915
33.1564 69.7576 2
32.8922 72.1489 3.99394
35.3335 69.964 0.00979928
35.195 72.375 2
35.0474 74.9194 4
37.5096 72.4603 0.00600872
37.5 75 2
39.9526 74.9197 0
35.6205 6.71938 3.98858
37.523 4.61208 3.9908
39.6238 4.71222 2
39.7885 2.47294 3.99444
41.7362 4.96528 0.00929397
42.062 2.71619 2
42.3946 0.32156 4
44.3255 3.10878 0.00577218
44.8159 0.72056 2
47.2057 1.27793 0
49.7797 41.2988 0.021484
56.8987 37.8996 0.018215
53.2386 39.3146 0.0149922
47.7002 40.4521 2
50.7294 38.4828 2
54.0914 36.6231 2
51.516 35.5654 3.97076
48.3641 37.7595 3.99662
46.1862 35.1018 3.91807
44.0297 33.7661 3.97259
42.0887 33.0322 3.97571
37.4577 8.52694 3.98684
37.5159 6.66794 2
39.4421 6.79719 0.0114049
39.211 8.68481 2
38.9759 10.1176 3.98587
35.8979 9.76439 3.98591
34.1498 8.81446 3.98664
35.9414 8.48465 2
54.9642 33.9568 0.0201663
53.5656 30.4593 0.01463
52.6442 27.1725 0.0158562
52.4022 21.0553 0.0190426
52.1733 24.0613 0.0218622
49.8212 19.5879 0.0217594
48.1152 16.9786 0.0196917
47.6824 14.5757 0.0175815
44.7234 9.98959 0.0140383
46.0051 12.7216 0.0163175
41.0134 9.0427 0.0134407
42.468 10.8957 0.0151574
52.5118 32.8491 2
40.5688 11.599 2
43.8577 11.9106 2
51.416 29.1343 2
50.8358 25.7019 2
49.9521 22.1663 2
45.8032 15.4111 2
47.5069 19.2122 2
50.1267 31.3829 3.97522
49.3572 27.4579 3.97654
49.4364 24.3801 3.9783
47.1941 21.915 3.97759
38.3014 12.7245 3.9832
42.1009 14.2956 3.98208
44.8023 18.4487 3.9798
45.077 37.5058 3.95935
46.5272 37.5064 2
47.9878 58.7476 0.0184528
48.6043 55.9256 0.0188352
50.2087 45.2819 0.0232927
49.7269 49.0678 0.0244838
49.1528 52.6148 0.0216138
46.1889 39.9096 0.0830424
46.5712 42.7689 0.0149047
46.6236 45.7284 0.0193581
44.0389 41.2478 0.0292425
42.1033 41.9915 0.0296246
46.8403 57.35 2
44.8091 39.5037 2
42.4745 40.8661 2
48.1747 47.2597 2
47.1802 54.258 2
47.6255 50.7763 2
44.8935 47.332 2
45.2588 42.0299 2
45.0445 44.6661 2
42.8431 42.7398 2
40.9652 42.3606 2
45.4008 55.9352 3.97958
42.8015 39.261 3.98705
40.9032 40.8152 3.95709
46.1534 48.9396 3.97962
45.5667 52.5572 3.98416
43.5256 48.4787 3.9501
43.4169 46.21 3.99644
43.7956 43.8305 3.91998
41.2979 43.9033 3.98112
39.3212 42.664 3.96102
45.4683 58.7952 0.0195359
43.8757 57.7182 2
42.1063 56.3404 3.97983
35.4636 67.6653 0.012314
37.6419 65.5193 0.0142328
39.8924 63.5621 0.0163429
41.7525 62.501 0.0170988
42.4803 59.9886 0.0187226
35.5732 65.442 2
40.6222 61.6591 2
37.836 63.224 2
40.4438 58.2174 2
38.9249 56.505 3.97958
38.2498 60.3421 3.98202
35.6068 63.2172 3.98393
33.5759 65.3522 0.0143006
31.96 63.3106 0.0159782
33.6294 63.351 2
30.379 62.8689 2
32.1233 62.0165 2
28.6812 62.2132 3.98332
33.3458 61.5287 3.98247
31.0659 61.2325 3.98224
27.5655 59.607 3.98186
23.787 59.0987 3.98472
25.0323 60.8838 3.98284
26.8679 61.511 2
26.2292 63.4881 3.98437
28.0629 64.1568 2
27.464 66.1897 3.98701
29.8842 64.729 0.0146834
29.4072 66.7667 2
28.9063 68.9473 3.98987
31.3775 67.2028 0.0123993
31.0138 69.4224 2
30.6147 71.7799 3.99387
33.1564 69.7572 0.0098776
32.8921 72.1492 2
32.6054 74.6784 4
35.1951 72.3747 0.00605055
35.0474 74.9197 2
37.5 75 0
33.7232 6.97392 3.98826
35.4344 4.68248 3.99073
35.6204 6.71899 2
37.5141 2.38559 3.99449
37.523 4.61172 2
39.6238 4.71254 0.00922981
39.7885 2.47271 2
39.9526 0.0806499 4
42.0619 2.71642 0.00560892
42.3947 0.320817 2
44.8158 0.721173 0
44.8068 35.5043 3.96537
42.4639 34.1533 3.98226
47.7016 40.4559 0.00804623
50.7321 38.4825 0.0170329
54.0927 36.6234 0.0189198
48.3617 37.759 2
51.5141 35.5653 2
46.1857 35.1002 2
44.0386 33.7652 2
42.0947 33.0316 2
48.5335 34.245 4.00569
45.2398 32.9863 3.92093
42.8195 32.2728 3.96643
40.9414 32.6684 3.97268
37.3099 10.6207 3.98513
37.4577 8.52644 2
37.5159 6.66838 0.0113964
39.211 8.6852 0.0132444
38.9759 10.1172 2
34.7531 10.37 3.98514
35.8978 9.76403 2
32.3765 9.36101 3.98607
34.1498 8.81409 2
35.9414 8.48504 0.0131485
52.5137 32.8499 0.0175488
51.4187 29.1318 0.0122873
50.8368 25.6998 0.024108
49.9519 22.1655 0.020691
47.5068 19.2123 0.0207488
45.8032 15.4113 0.0181197
43.8578 11.9107 0.0159215
40.5688 11.5993 0.0158071
50.1238 31.3834 2
38.3013 12.724 2
42.1007 14.2956 2
49.3552 27.46 2
49.4361 24.3812 2
47.1942 21.9168 2
44.8022 18.4486 2
47.9097 29.5908 3.97052
47.1391 25.1069 3.97824
44.2934 21.304 3.97807
36.581 12.9208 3.98339
38.6803 14.7953 3.98195
41.7505 17.8259 3.98023
42.9284 37.4989 3.99149
45.0869 37.5058 2
46.5192 37.5051 0.0843284
46.8402 57.3498 0.0178593
47.1801 54.2581 0.0185147
48.1762 47.2628 0.0189118
47.6254 50.7766 0.0219018
44.8028 39.5062 0.0335645
45.2555 42.0278 0.0765633
45.0337 44.6603 0.022071
44.8945 47.3404 0.0201676
42.8312 42.7445 0.0369959
42.4721 40.8667 0.0187993
40.9569 42.3624 0.0304241
45.401 55.9351 2
42.8039 39.2596 2
40.9038 40.8151 2
46.1535 48.9365 2
45.5672 52.5558 2
43.5246 48.478 2
43.4481 46.2203 2
43.8001 43.8335 2
41.3028 43.8954 2
39.3252 42.667 2
43.741 54.4435 3.98404
40.9762 39.1856 3.94413
39.2363 40.8766 3.92976
43.749 50.5327 3.98986
42.0269 47.7352 4.02681
41.9393 45.218 3.9206
39.5112 44.6597 3.97678
37.5029 42.7736 3.9639
43.8758 57.7184 0.0199615
42.1063 56.3399 2
40.4202 54.94 3.97829
35.5731 65.4416 0.0143122
37.8361 63.2237 0.0159862
40.6222 61.6589 0.0172936
40.4437 58.2173 0.0208877
35.6068 63.2176 2
38.2498 60.3423 2
38.9248 56.5061 2
37.9993 55.2578 3.9784
36.9342 57.641 3.97919
35.3633 60.9273 3.98256
33.6294 63.3506 0.0158428
30.379 62.8686 0.0163057
32.1232 62.0162 0.0172745
33.3458 61.529 2
28.6812 62.2135 2
31.066 61.2327 2
29.4014 60.3011 3.9816
32.3551 59.7589 3.98168
28.0172 58.3858 3.98318
27.5655 59.6072 2
25.374 58.6087 3.98246
22.7492 58.2595 3.9818
23.3971 60.3647 3.98349
23.787 59.099 2
25.0324 60.8841 2
24.4312 62.7804 3.98416
26.8679 61.5107 0.0174551
26.2292 63.4885 2
25.548 65.4995 3.98649
28.0629 64.1564 0.0151222
27.4639 66.1901 2
26.8362 68.3355 3.98969
29.4072 66.7662 0.012629
28.9063 68.9477 2
28.3699 71.2651 3.9938
31.0139 69.422 0.0100246
30.6146 71.7802 2
30.1842 74.2788 4
32.8922 72.1489 0.00606194
32.6053 74.6792 2
35.0474 74.9194 0
31.7876 7.41346 3.9879
33.3464 4.92159 3.99058
33.7231 6.9735 2
35.2444 2.46174 3.99441
35.4344 4.68212 2
35.6205 6.71938 0.0114169
37.5 0 4
37.5141 2.38535 2
37.523 4.61208 0.00920066
39.7885 2.47294 0.00556132
39.9526 0.0802889 2
42.3946 0.32156 0
42.8038 35.7449 3.98823
44.8089 35.5063 2
40.8957 34.2139 3.95899
42.4673 34.1522 2
48.3641 37.7595 0.00337842
51.516 35.5654 0.0292368
46.1862 35.1018 0.0819313
44.0297 33.7661 0.0274087
42.0887 33.0322 0.0242865
48.5316 34.2463 2
45.2433 32.9806 2
42.8286 32.2744 2
40.947 32.6666 2
46.4512 31.488 3.99423
43.7775 31.1831 3.92131
41.2889 31.127 3.97785
39.303 32.376 3.96536
35.6914 11.7652 3.98379
37.3098 10.6202 2
37.4577 8.52694 0.0131582
38.9759 10.1176 0.0141259
33.0969 11.2066 3.98433
34.753 10.3698 2
35.8979 9.76439 0.0140886
30.4812 10.009 3.98562
32.3764 9.36076 2
34.1498 8.81446 0.0133649
50.1267 31.3829 0.0247762
49.3572 27.4579 0.0234623
49.4364 24.3801 0.0217039
47.1941 21.915 0.0224104
44.8023 18.4487 0.0202009
42.1009 14.2956 0.0179185
38.3014 12.7245 0.0168001
36.5809 12.9207 2
47.9055 29.5929 2
38.6801 14.795 2
41.7503 17.8259 2
47.1387 25.1081 2
44.2932 21.3039 2
45.6514 27.8104 3.97342
43.824 24.0383 3.98042
41.3445 20.7042 3.97965
35.7705 14.7459 3.98229
38.6811 17.5825 3.98057
41.0207 37.4963 3.94063
42.933 37.499 2
45.077 37.5058 0.0406501
45.4008 55.9352 0.0204184
45.5667 52.5572 0.015844
46.1534 48.9396 0.0203779
42.8015 39.261 0.0129515
43.7956 43.8305 0.0800176
43.4169 46.21 0.00355961
43.5256 48.4787 0.0498957
41.2979 43.9033 0.0188757
40.9032 40.8152 0.0429111
39.3212 42.664 0.0389763
43.7415 54.4434 2
40.9767 39.1852 2
39.2363 40.88 2
43.7486 50.5341 2
42.0273 47.7371 2
41.9479 45.2181 2
37.5037 42.7773 2
39.5187 44.6629 2
41.8901 53.0081 3.98384
39.2307 39.1756 3.93772
37.5054 40.928 3.93851
35.6877 42.685 3.96392
40.9895 49.7527 3.99651
39.8241 46.0956 3.92292
37.4986 44.9298 3.96967
42.1063 56.3404 0.0201707
40.4201 54.9397 2
38.7296 53.8661 3.98245
35.6068 63.2172 0.0160654
38.2498 60.3421 0.0179795
38.9249 56.505 0.0204167
35.3633 60.9276 2
36.9341 57.6411 2
37.9991 55.2576 2
36.3183 55.3956 3.97869
34.4866 58.5361 3.98113
33.3458 61.5287 0.0175282
28.6812 62.2132 0.0166762
31.0659 61.2325 0.0177618
32.3551 59.7591 2
29.4014 60.3012 2
30.2932 57.8293 3.98159
28.0172 58.386 2
26.9352 56.8371 3.98107
27.5655 59.607 0.0181392
25.374 58.609 2
23.8277 56.8247 3.98041
21.3237 57.4219 3.98302
21.9883 59.6394 3.98411
22.749 58.2598 2
22.7341 62.0322 3.98411
23.3971 60.365 2
23.787 59.0987 0.0152797
25.0323 60.8838 0.0171582
24.4312 62.7807 2
23.6816 64.7176 3.98591
26.2292 63.4881 0.0156322
25.548 65.4999 2
24.8088 67.5967 3.98948
27.464 66.1897 0.0129944
26.8361 68.3359 2
26.1652 70.6059 3.99368
28.9063 68.9473 0.0101342
28.3697 71.2653 2
27.7943 73.7221 4
30.6147 71.7799 0.00613243
30.1841 74.2794 2
32.6054 74.6784 0
29.8102 7.98654 3.98746
31.2516 5.32855 3.99032
31.7875 7.41314 2
32.9802 2.69982 3.9943
33.3464 4.92119 2
33.7232 6.97392 0.0117351
35.0474 0.080333 4
35.2444 2.4615 2
35.4344 4.68248 0.00927444
37.5 0 2
37.5141 2.38559 0.00551216
39.9526 0.0806499 0
40.9807 35.8189 3.94513
42.8043 35.7453 2
44.8068 35.5043 0.034633
28.5421 10.6842 3.98514
39.2272 34.1598 3.93417
40.8966 34.2124 2
42.4639 34.1533 0.0177432
48.5335 34.245 -0.00569243
45.2398 32.9863 0.0790669
42.8195 32.2728 0.0335747
40.9414 32.6684 0.0273172
46.4587 31.4849 2
43.7778 31.1783 2
41.2964 31.1264 2
39.3069 32.3706 2
44.4602 29.6654 3.9911
41.9242 29.8111 3.92691
39.498 30.401 3.97157
37.4811 32.2833 3.97035
34.091 12.9231 3.9831
35.6913 11.7651 2
37.3099 10.6207 0.0148686
31.1849 11.9748 3.98408
33.0969 11.2065 2
34.7531 10.37 0.0148595
30.4812 10.0087 2
32.3765 9.36101 0.0139343
47.9097 29.5908 0.0294785
47.1391 25.1069 0.02176
36.581 12.9208 0.016609
44.2934 21.304 0.0219272
41.7505 17.8259 0.0197704
38.6803 14.7953 0.0180466
35.7704 14.7462 2
45.6485 27.8156 2
38.6808 17.5827 2
41.344 20.7038 2
43.8236 24.0433 2
33.6059 15.8632 3.9824
43.1229 26.5337 3.981
40.9275 23.2771 3.98093
38.4224 20.3113 3.98068
35.8468 17.4956 3.9809
39.2391 37.4989 3.93646
41.0222 37.4955 2
42.9284 37.4989 0.00851338
43.741 54.4435 0.0159606
43.749 50.5327 0.0101352
40.9762 39.1856 0.0558746
41.9393 45.218 0.0793954
42.0269 47.7352 -0.0268082
39.5112 44.6597 0.0232181
39.2363 40.8766 0.0702416
37.5029 42.7736 0.0360953
41.8903 53.0089 2
39.2309 39.1772 2
37.5054 40.9324 2
40.9881 49.7522 2
35.684 42.6873 2
39.8331 46.1009 2
37.502 44.9212 2
39.829 51.9237 3.98801
37.5016 39.1959 3.93263
35.7773 40.8986 3.926
34.0528 42.3828 3.97113
35.4801 44.6657 3.97026
38.7763 48.8156 4.03667
37.5059 46.4102 3.91581
40.4202 54.94 0.0217093
38.7295 53.8647 2
36.7174 53.2179 3.98282
35.3633 60.9273 0.0174373
36.9342 57.641 0.0208125
37.9993 55.2578 0.0216042
34.4865 58.5361 2
36.3182 55.3951 2
33.2214 55.5162 3.98118
32.3551 59.7589 0.0183233
29.4014 60.3011 0.0184049
30.2932 57.8294 2
28.6735 55.3213 3.97891
28.0172 58.3858 0.0168187
26.9349 56.8375 2
25.2918 55.1619 3.97931
21.7902 55.3723 3.98049
25.374 58.6087 0.0175404
23.8274 56.8249 2
20.2067 57.0539 3.98432
20.638 58.7998 3.98432
21.3234 57.4221 2
21.1631 61.1841 3.98489
21.9882 59.6397 2
22.7492 58.2595 0.0181981
21.8945 63.8458 3.98563
22.7341 62.0325 2
23.3971 60.3647 0.0165109
24.4312 62.7804 0.015838
23.6816 64.718 2
22.8372 66.7406 3.98912
25.548 65.4995 0.0135075
24.8087 67.5971 2
24.0096 69.8071 3.99357
26.8362 68.3355 0.0103086
26.1651 70.6061 2
25.446 73.0099 4
28.3699 71.2651 0.0062027
27.7943 73.7222 2
30.1842 74.2788 0
27.8201 8.64591 3.9872
29.1536 5.87412 3.99
29.8101 7.98618 2
30.7255 3.09688 3.99412
31.2515 5.32821 2
31.7876 7.41346 0.0120956
32.6053 0.320823 4
32.9802 2.69957 2
33.3464 4.92159 0.00942311
35.0474 0.0802903 2
35.2444 2.46174 0.00558819
37.5 0 0
39.2354 35.835 3.93834
40.9802 35.8176 2
42.8038 35.7449 0.0117696
28.5421 10.684 2
26.6211 11.3796 3.98483
29.2238 12.6316 3.98374
37.4942 34.1201 3.94979
39.2274 34.1558 2
40.8957 34.2139 0.0410108
46.4512 31.488 0.00576825
43.7775 31.1831 0.0786936
41.2889 31.127 0.0221478
39.303 32.376 0.0346384
44.4706 29.6578 2
41.9353 29.8067 2
39.5039 30.3981 2
37.4837 32.2763 2
42.3664 28.3563 3.99486
39.8178 28.9507 3.92205
37.4754 30.1381 3.9645
35.664 32.3701 3.96766
31.9125 14.4691 3.98259
34.0911 12.9231 2
35.6914 11.7652 0.0162121
31.185 11.9746 2
33.0969 11.2066 0.0156657
30.4812 10.009 0.0143768
45.6514 27.8104 0.0265776
43.824 24.0383 0.019576
35.7705 14.7459 0.0177054
41.3445 20.7042 0.0203533
38.6811 17.5825 0.0194267
33.6058 15.8637 2
35.8466 17.4962 2
43.121 26.54 2
38.422 20.3129 2
40.9274 23.277 2
33.5477 17.3723 3.98216
40.4898 25.6238 3.98892
38.0841 22.8413 3.9877
35.5823 20.0641 3.98167
37.5024 37.5104 3.93358
39.2403 37.4987 2
41.0207 37.4963 0.0593699
41.8901 53.0081 0.0161599
40.9895 49.7527 0.00348593
39.2307 39.1756 0.0622781
39.8241 46.0956 0.0770781
37.4986 44.9298 0.0303269
37.5054 40.928 0.0614855
35.6877 42.685 0.0360798
39.8298 51.9229 2
37.5023 39.1981 2
35.7772 40.9021 2
38.7707 48.8217 2
34.0454 42.3831 2
35.4791 44.6641 2
37.5018 46.422 2
37.6674 51.0024 3.976
35.7771 39.2002 3.93356
34.1166 40.8401 3.95664
32.9061 42.0162 3.97551
33.6931 43.9281 3.97586
35.1788 46.1094 3.92278
36.9031 48.4284 4.02602
38.7296 53.8661 0.0175485
36.7172 53.2168 2
34.348 52.4859 3.98278
34.4866 58.5361 0.0188726
36.3183 55.3956 0.0213085
33.2215 55.5156 2
30.4983 53.4163 3.98025
30.2932 57.8293 0.018411
28.6732 55.3215 2
26.8539 53.463 3.97779
26.9352 56.8371 0.0189338
25.2913 55.1622 2
23.5432 53.5087 3.97741
20.4372 53.2585 3.97949
19.9159 55.8591 3.98343
21.7897 55.3724 2
23.8277 56.8247 0.0195917
19.4288 57.9144 3.9841
20.2064 57.054 2
19.7014 60.2199 3.98471
20.6378 58.8 2
21.3237 57.4219 0.016978
20.2059 62.8683 3.98593
21.163 61.1844 2
21.9883 59.6394 0.0158902
20.9386 65.7699 3.98872
21.8945 63.8461 2
22.7341 62.0322 0.0158901
23.6816 64.7176 0.014088
22.8371 66.7409 2
21.9123 68.8744 3.99339
24.8088 67.5967 0.010517
24.0095 69.8073 2
23.1494 72.1454 4
26.1652 70.6059 0.00632437
25.446 73.0099 2
27.7943 73.7221 0
25.8595 9.37403 3.98665
27.0685 6.53797 3.98974
27.8201 8.64564 2
28.4878 3.64269 3.99393
29.1536 5.87377 2
29.8102 7.98654 0.0125378
30.1841 0.720592 4
30.7254 3.09666 2
31.2516 5.32855 0.00967983
32.6053 0.320817 2
32.9802 2.69982 0.00569932
35.0474 0.080333 0
37.5031 35.8323 3.93613
39.2347 35.8328 2
40.9807 35.8189 0.054872
24.7759 12.0627 3.98447
23.7493 14.3477 3.98323
28.5421 10.6842 0.0148649
26.6211 11.3794 2
29.2239 12.6316 2
27.2898 13.3648 3.98358
29.7784 14.1911 3.98299
35.7665 34.1502 3.9343
37.4946 34.1146 2
39.2272 34.1598 0.0658341
37.4811 32.2833 0.0296454
44.4602 29.6654 0.00889609
41.9242 29.8111 0.0730903
39.498 30.401 0.0284303
42.3735 28.3459 2
39.8275 28.9451 2
37.4772 30.131 2
35.6651 32.3667 2
40.0475 27.5401 4.00463
37.487 28.6522 3.91826
35.4512 30.4 3.96878
34.0347 32.6652 3.97164
30.9235 16.8268 3.98211
31.9125 14.4692 2
34.091 12.9231 0.0169041
31.1849 11.9748 0.0159238
43.1229 26.5337 0.0190008
40.9275 23.2771 0.0190718
33.6059 15.8632 0.0176044
35.8468 17.4956 0.0191019
38.4224 20.3113 0.0193236
33.5475 17.3729 2
35.5822 20.0647 2
40.4875 25.6313 2
38.0842 22.8453 2
32.8595 19.7805 3.98002
37.7879 25.1375 4.00214
35.2039 22.624 3.97761
35.7687 37.5192 3.93325
37.5039 37.5099 2
39.2391 37.4989 0.0635416
39.829 51.9237 0.0119892
38.7763 48.8156 -0.036675
37.5016 39.1959 0.0673671
37.5059 46.4102 0.0841928
35.4801 44.6657 0.0297415
35.7773 40.8986 0.0739987
34.0528 42.3828 0.0288666
37.6682 51.0099 2
35.7782 39.202 2
34.1157 40.8408 2
36.8991 48.4329 2
32.8992 42.0169 2
33.6898 43.9251 2
35.1691 46.113 2
35.4166 50.155 3.97961
34.0394 39.2157 3.9405
32.5391 40.8922 3.98163
32.1683 42.7711 3.96404
33.0733 45.2425 3.92389
34.2814 47.5301 4.00365
36.7174 53.2179 0.0171762
34.3478 52.4866 2
31.9634 51.2118 3.97958
33.2214 55.5162 0.0188234
30.4979 53.4184 2
28.3882 51.6443 3.97862
28.6735 55.3213 0.0210899
26.8534 53.4642 2
25.0362 51.8004 3.97553
25.2918 55.1619 0.0206893
23.5425 53.5087 2
21.9229 51.8462 3.97821
19.163 51.6707 3.97983
18.8983 54.3382 3.98139
20.4369 53.258 2
18.4344 56.7482 3.98456
19.9154 55.8591 2
21.7902 55.3723 0.0195089
18.362 59.1297 3.98434
19.4285 57.9145 2
20.2067 57.0539 0.0156816
18.6157 61.7776 3.9858
19.7014 60.2201 2
20.638 58.7998 0.0156843
19.127 64.6815 3.98856
20.2059 62.8686 2
21.1631 61.1841 0.0151136
19.8864 67.8112 3.99315
20.9385 65.7702 2
21.8945 63.8458 0.0143704
22.8372 66.7406 0.0108847
21.9121 68.8745 2
20.9142 71.1327 4
24.0096 69.8071 0.00643351
23.1494 72.1455 2
25.446 73.0099 0
23.095 12.7775 3.98415
23.9721 10.1606 3.98617
25.0226 7.30789 3.98945
25.8595 9.37376 2
26.2796 4.32679 3.99369
27.0684 6.53768 2
27.8201 8.64591 0.0127964
27.7943 1.27781 4
28.4877 3.64249 2
29.1536 5.87412 0.010002
30.1841 0.720551 2
30.7255 3.09688 0.00588112
32.6053 0.320823 0
35.7733 35.841 3.93578
37.5029 35.8292 2
39.2354 35.835 0.0616559
24.7759 12.0627 2
23.7494 14.3478 2
22.4774 15.0242 3.98332
25.3558 13.8969 3.98338
24.0217 15.6098 3.98295
26.6211 11.3796 0.0151664
29.2238 12.6316 0.0162634
27.2899 13.3647 2
29.7785 14.1911 2
28.354 15.9658 3.98248
34.1099 34.2119 3.95709
35.7669 34.1477 2
37.4942 34.1201 0.050205
35.664 32.3701 0.0323429
37.4754 30.1381 0.0355023
42.3664 28.3563 0.00513891
39.8178 28.9507 0.0779515
40.0487 27.5406 2
37.4863 28.6407 2
35.4507 30.3966 2
34.0349 32.6629 2
37.6122 27.2414 4.00548
35.136 28.9467 3.92256
33.6648 31.1292 3.9766
32.894 33.0405 3.97848
30.2028 19.3303 3.98313
30.9234 16.8273 2
31.9125 14.4691 0.0174119
40.4898 25.6238 0.0110765
38.0841 22.8413 0.0122997
33.5477 17.3723 0.0178356
35.5823 20.0641 0.0183309
32.8593 19.7818 2
35.2047 22.6245 2
37.7876 25.1461 2
32.3046 22.3973 3.98026
34.9349 25.1554 3.98263
33.9937 37.5256 3.93907
35.7706 37.5193 2
37.5024 37.5104 0.0664168
37.6674 51.0024 0.023998
36.9031 48.4284 -0.0260247
35.7771 39.2002 0.0664444
35.1788 46.1094 0.0772152
33.6931 43.9281 0.0241442
34.1166 40.8401 0.0433612
32.9061 42.0162 0.0244934
35.4168 50.1606 2
34.0402 39.2161 2
32.5358 40.8921 2
34.2736 47.54 2
32.1591 42.7656 2
33.0617 45.2459 2
33.1702 49.1341 3.98033
32.2044 39.2924 3.9876
30.9637 41.2716 3.97179
31.2114 43.8561 3.92141
32.2166 46.4722 3.98738
34.348 52.4859 0.0172188
31.9631 51.2157 2
29.7886 49.7375 3.97772
30.4983 53.4163 0.0197473
28.3877 51.6428 2
26.443 50.0367 3.97441
26.8539 53.463 0.0222076
25.0356 51.7987 2
23.2831 50.2415 3.97967
23.5432 53.5087 0.0225907
21.9226 51.8453 2
20.4163 50.3551 3.98036
17.9482 50.3633 3.9817
17.8046 52.8229 3.981
19.1631 51.6698 2
17.4198 55.3663 3.98312
18.898 54.338 2
20.4372 53.2585 0.0205092
17.126 57.8938 3.98501
18.4341 56.7483 2
19.9159 55.8591 0.0165718
17.1321 60.5628 3.9854
18.3618 59.1298 2
19.4288 57.9144 0.0158961
17.4067 63.4753 3.98838
18.6157 61.7778 2
19.7014 60.2199 0.015292
17.9425 66.62 3.99303
19.127 64.6818 2
20.2059 62.8683 0.014068
18.75 69.9759 4
19.8863 67.8113 2
20.9386 65.7699 0.0112808
21.9123 68.8744 0.00661487
20.9142 71.1327 2
23.1494 72.1454 0
21.5854 13.5978 3.98397
22.1901 11.0199 3.98564
23.0951 12.7776 2
23.0408 8.17309 3.98919
23.9721 10.1604 2
24.1173 5.14137 3.99352
25.0224 7.30762 2
25.8595 9.37403 0.0133502
25.446 1.99014 4
26.2794 4.32664 2
27.0685 6.53797 0.0102634
27.7943 1.27778 2
28.4878 3.64269 0.00607264
30.1841 0.720592 0
34.034 35.8357 3.94213
35.7734 35.8395 2
37.5031 35.8323 0.0638702
21.3017 15.8191 3.98348
24.7759 12.0627 0.0155309
23.7493 14.3477 0.0167679
25.3559 13.897 2
22.4776 15.0244 2
24.0219 15.6101 2
23.2603 16.2411 3.98278
25.377 16.0778 3.98284
27.2898 13.3648 0.016418
29.7784 14.1911 0.0170075
28.3542 15.966 2
27.4342 18.7884 3.98274
32.5419 34.1682 3.98395
34.109 34.2104 2
35.7665 34.1502 0.0657016
34.0347 32.6652 0.0283566
35.4512 30.4 0.0312242
37.487 28.6522 0.081738
40.0475 27.5401 -0.00462755
37.6112 27.2153 2
32.8935 33.0416 2
35.1257 28.9386 2
33.6616 31.1274 2
35.0375 27.3452 4.00798
33.0197 29.8163 3.92673
32.1487 32.282 3.97157
29.5647 21.926 3.98646
30.203 19.3319 2
30.9235 16.8268 0.0178859
37.7879 25.1375 -0.00213806
35.2039 22.624 0.0223932
32.8595 19.7805 0.0199806
32.3053 22.3994 2
34.9373 25.1661 2
31.6233 25.6138 3.98222
32.0801 37.5305 3.99049
33.9954 37.525 2
35.7687 37.5192 0.066753
35.4166 50.155 0.0203907
34.2814 47.5301 -0.00364806
34.0394 39.2157 0.0594994
33.0733 45.2425 0.0761141
32.1683 42.7711 0.0359606
32.5391 40.8922 0.0183717
33.1705 49.1218 2
32.2035 39.2921 2
30.9548 41.2702 2
32.1996 46.4824 2
31.2057 43.8584 2
31.0364 47.8891 3.9807
30.1927 39.5284 3.96514
29.7522 42.0472 3.92171
30.3188 45.0592 3.98725
31.9634 51.2118 0.0204222
29.7887 49.7352 2
27.7767 48.2221 3.97644
28.3882 51.6443 0.0213791
26.4428 50.0342 2
24.5683 48.5195 3.98157
25.0362 51.8004 0.0244683
23.283 50.2399 2
21.5861 48.835 3.98266
21.9229 51.8462 0.0217881
20.4166 50.3536 2
18.9831 49.1283 3.98352
16.8552 49.3611 3.98382
16.7424 51.4367 3.98172
17.9485 50.3625 2
16.3682 53.8969 3.98233
17.8046 52.8223 2
19.163 51.6707 0.0201659
15.9652 56.4969 3.98446
17.4195 55.3663 2
18.8983 54.3382 0.0186094
15.7444 59.2253 3.98559
17.1258 57.8939 2
18.4344 56.7482 0.015443
15.7865 62.1471 3.98798
17.132 60.5631 2
18.362 59.1297 0.0156568
16.0889 65.303 3.99298
17.4067 63.4756 2
18.6157 61.7776 0.0142024
16.6661 68.6801 4
17.9424 66.6201 2
19.127 64.6815 0.0114361
18.75 69.9759 2
19.8864 67.8112 0.0068547
20.9142 71.1327 0
20.2167 14.5859 3.9839
21.5856 13.5978 2
20.5292 11.9898 3.98525
21.1439 9.14268 3.98882
22.1902 11.0198 2
23.095 12.7775 0.0158496
22.0164 6.08027 3.99334
23.0407 8.17286 2
23.9721 10.1606 0.0138285
23.1494 2.85457 4
24.1171 5.14123 2
25.0226 7.30789 0.0105516
25.446 1.99012 2
26.2796 4.32679 0.00631139
27.7943 1.27781 0
32.208 35.7672 3.98788
34.0338 35.8344 2
35.7733 35.841 0.0642173
21.3019 15.8192 2
20.2976 16.9511 3.9844
22.0929 16.6246 3.98323
25.3558 13.8969 0.0166203
22.4774 15.0242 0.0166757
24.0217 15.6098 0.0170546
25.3772 16.0781 2
23.2606 16.2415 2
24.1983 18.4402 3.98193
27.0003 21.4487 3.98056
28.354 15.9658 0.0175247
27.4347 18.7891 2
30.9702 33.7877 3.96781
32.5377 34.1682 2
34.1099 34.2119 0.042911
32.894 33.0405 0.0215235
33.6648 31.1292 0.0233997
35.136 28.9467 0.0774395
37.6122 27.2414 -0.00548145
35.0295 27.3356 2
32.1497 32.2861 2
33.0203 29.8128 2
32.4523 28.0634 4.01119
31.1748 31.2049 3.92775
28.745 24.3904 3.98683
29.5651 21.9294 2
30.2028 19.3303 0.0168706
34.9349 25.1554 0.0173667
32.3046 22.3973 0.0197387
31.6253 25.6041 2
29.546 27.2759 3.98141
29.9238 37.5298 3.96096
32.0803 37.5304 2
33.9937 37.5256 0.060928
33.1702 49.1341 0.0196697
32.2166 46.4722 0.0126217
32.2044 39.2924 0.0124019
31.2114 43.8561 0.0785943
30.9637 41.2716 0.0282118
31.0393 47.8805 2
30.1889 39.5278 2
29.748 42.051 2
30.3037 45.067 2
29.0412 46.4563 3.97365
28.8097 39.9265 3.9158
28.5044 43.275 3.99205
29.7886 49.7375 0.0222822
27.7774 48.2186 2
25.8289 46.7031 3.98258
26.443 50.0367 0.0255878
24.5688 48.5175 2
22.7144 47.1311 3.98847
23.2831 50.2415 0.0203297
21.5869 48.8328 2
19.9224 47.6573 3.98649
20.4163 50.3551 0.0196406
18.9837 49.1272 2
17.6262 48.2093 3.98514
16.1067 48.7103 3.98518
16.8557 49.3605 2
15.8191 50.1972 3.98305
15.3554 52.4408 3.98234
16.7426 51.4361 2
17.9482 50.3633 0.0183018
14.8544 54.9986 3.98354
16.3681 53.8966 2
17.8046 52.8229 0.0190037
14.4524 57.7552 3.98548
15.9649 56.497 2
17.4198 55.3663 0.0168783
14.264 60.7025 3.98758
15.7443 59.2256 2
17.126 57.8938 0.0149852
14.3328 63.8625 3.99284
15.7865 62.1475 2
17.1321 60.5628 0.0145959
14.6715 67.2507 4
16.0888 65.3031 2
17.4067 63.4753 0.0116163
16.6661 68.6801 2
17.9425 66.62 0.00696679
18.75 69.9759 0
18.9293 15.7711 3.98434
20.2168 14.5859 2
18.9784 13.1 3.9851
21.5854 13.5978 0.0160302
20.5293 11.9897 2
19.3434 10.2304 3.98827
19.9911 7.14483 3.99318
21.1439 9.14249 2
22.1901 11.0199 0.0143632
20.9142 3.86727 4
22.0162 6.08018 2
23.0408 8.17309 0.0108086
23.1494 2.85451 2
24.1173 5.14137 0.00648136
25.446 1.99014 0
30.2054 35.5342 3.96793
32.2061 35.7668 2
34.034 35.8357 0.0578669
21.3017 15.8191 0.0165224
22.0933 16.6248 2
20.2978 16.9512 2
19.235 18.396 3.98421
21.776 17.8391 3.98353
25.377 16.0778 0.0171621
23.2603 16.2411 0.0172208
24.199 18.441 2
22.2667 19.8791 3.98302
24.5759 21.31 3.9828
26.3744 23.714 3.98338
27.0017 21.4503 2
27.4342 18.7884 0.0172639
29.7483 33.0096 3.92436
30.9613 33.7885 2
32.5419 34.1682 0.0160473
32.1487 32.282 0.0284259
33.0197 29.8163 0.073271
35.0375 27.3452 -0.00797556
32.4398 28.0594 2
31.1829 31.2093 2
29.9824 29.5004 4.00321
27.7924 26.5418 3.97026
28.7457 24.3978 2
29.5647 21.926 0.0135421
31.6233 25.6138 0.0177837
29.5415 27.2337 2
28.4799 37.5254 3.91988
29.9202 37.531 2
32.0801 37.5305 0.00951107
31.0364 47.8891 0.0192997
30.3188 45.0592 0.0127505
30.1927 39.5284 0.0348576
29.7522 42.0472 0.0782934
29.0447 46.4535 2
28.807 39.9269 2
28.4948 43.2778 2
27.1086 44.8222 3.96973
26.5895 40.667 4.00788
27.7767 48.2221 0.0235634
25.8308 46.7007 2
23.8565 45.2606 3.98544
24.5683 48.5195 0.018432
22.7159 47.1281 2
20.8451 45.9396 3.98825
21.5861 48.835 0.0173422
19.9234 47.656 2
18.2669 46.7693 3.98653
18.9831 49.1283 0.0164836
17.6268 48.2086 2
16.2946 47.7399 3.98496
16.1072 48.7098 2
15.1648 49.04 3.98407
16.8552 49.3611 0.0161818
15.8194 50.1967 2
14.4679 51.0077 3.98283
13.8146 53.4544 3.98314
15.3554 52.4404 2
16.7424 51.4367 0.0182832
13.246 56.1834 3.98488
14.8543 54.9985 2
16.3682 53.8969 0.0176666
12.8458 59.1366 3.98733
14.4522 57.7554 2
15.9652 56.4969 0.0155388
12.678 62.3053 3.9925
14.2639 60.7028 2
15.7444 59.2253 0.0144066
12.7746 65.6939 4
14.3327 63.8626 2
15.7865 62.1471 0.0120176
14.6714 67.2507 2
16.0889 65.303 0.00701577
16.6661 68.6801 0
17.6624 17.1449 3.98437
18.9294 15.7711 2
17.5089 14.3627 3.98518
20.2167 14.5859 0.0160977
18.9785 13.0999 2
17.6387 11.4489 3.9878
20.5292 11.9898 0.0147529
19.3434 10.2302 2
18.0513 8.33758 3.99292
18.75 5.0241 4
19.9909 7.1448 2
21.1439 9.14268 0.0111832
20.9142 3.86727 2
22.0164 6.08027 0.00665918
23.1494 2.85457 0
28.8147 35.1278 3.92232
30.2012 35.5377 2
32.208 35.7672 0.0121225
22.0929 16.6246 0.0167734
20.2976 16.9511 0.0156005
21.7764 17.8391 2
19.2353 18.3961 2
17.968 19.9258 3.98423
20.8663 19.3645 3.98398
24.1983 18.4402 0.0180705
22.2676 19.8789 2
24.5773 21.3112 2
22.3384 21.7024 3.98381
24.6608 23.1552 3.98302
25.386 25.9418 3.97513
26.3758 23.7146 2
27.0003 21.4487 0.0194418
28.1409 32.2757 3.99091
29.7447 33.0095 2
30.9702 33.7877 0.0321856
31.1748 31.2049 0.0722452
32.4523 28.0634 -0.0111918
29.9578 29.5024 2
26.8872 29.1414 3.97249
27.7878 26.5414 2
28.745 24.3904 0.0131708
29.546 27.2759 0.0185925
26.7093 37.3729 3.99401
28.4781 37.5238 2
29.9238 37.5298 0.0390421
29.0412 46.4563 0.026351
28.5044 43.275 0.00794579
28.8097 39.9265 0.0842029
27.113 44.8207 2
26.5911 40.6678 2
25.0778 43.2161 3.97435
23.837 39.4455 3.96901
25.8289 46.7031 0.0174205
23.8588 45.2598 2
21.814 43.9917 3.9864
22.7144 47.1311 0.0115284
20.8469 45.9384 2
18.9218 45.0017 3.98448
19.9224 47.6573 0.0135135
18.2679 46.7688 2
16.5816 46.238 3.98373
17.6262 48.2093 0.0148612
16.2952 47.7395 2
14.8927 47.693 3.9838
16.1067 48.7103 0.0148219
15.1652 49.0396 2
13.7649 49.5668 3.98326
15.8191 50.1972 0.0169476
14.468 51.0074 2
12.8803 51.892 3.9831
12.1323 54.5416 3.98437
13.8145 53.4541 2
15.3554 52.4408 0.0176644
11.5296 57.4688 3.98683
13.2459 56.1834 2
14.8544 54.9986 0.0164568
11.1325 60.6319 3.9922
12.8457 59.1369 2
14.4524 57.7552 0.0145165
10.9835 64.0165 4
12.6779 62.3054 2
14.264 60.7025 0.012418
12.7745 65.694 2
14.3328 63.8625 0.00715871
14.6715 67.2507 0
16.3931 18.6369 3.98458
17.6626 17.1448 2
16.099 15.7705 3.98523
18.9293 15.7711 0.0156633
17.5091 14.3626 2
16.0199 12.8014 3.98749
18.9784 13.1 0.0149037
17.6388 11.4487 2
16.2024 9.66043 3.99267
19.3434 10.2304 0.0117338
18.0512 8.33756 2
16.6661 6.31991 4
18.75 5.02404 2
19.9911 7.14483 0.00682206
20.9142 3.86727 0
27.2151 34.7454 3.98818
28.8105 35.1269 2
30.2054 35.5342 0.0320746
16.6649 21.359 3.98298
21.776 17.8391 0.0164707
19.235 18.396 0.0157897
20.8668 19.3643 2
17.9684 19.926 2
19.7062 21.5547 3.98552
22.2667 19.8791 0.0169802
24.5759 21.31 0.0171996
22.3395 21.7015 2
24.6613 23.1558 2
22.7988 24.5864 3.97926
24.4392 28.519 3.97424
25.3829 25.9401 2
26.3744 23.714 0.0166219
25.9778 31.717 3.97705
28.1322 32.2749 2
29.7483 33.0096 0.0756401
29.9824 29.5004 -0.00321412
26.8932 29.1415 2
27.7924 26.5418 0.0297378
24.5231 36.8799 3.97904
26.7104 37.3761 2
28.4799 37.5254 0.0801157
27.1086 44.8222 0.0302686
26.5895 40.667 -0.00787894
25.0801 43.2175 2
23.8386 39.4465 2
22.8582 41.8313 3.98113
21.5951 38.5097 3.97981
23.8565 45.2606 0.0145588
21.816 43.9926 2
19.6674 42.9158 3.98137
20.8451 45.9396 0.0117544
18.9233 45.0017 2
16.907 44.4031 3.9817
18.2669 46.7693 0.0134662
16.5824 46.2378 2
14.8114 46.1114 3.98225
16.2946 47.7399 0.0150433
14.8932 47.6927 2
13.2707 48.0274 3.98284
15.1648 49.04 0.0159292
13.7651 49.5665 2
12.0986 50.2688 3.98311
14.4679 51.0077 0.0171689
12.8804 51.8918 2
11.1272 52.8493 3.98402
10.3194 55.7203 3.98637
12.1322 54.5415 2
13.8146 53.4544 0.016858
9.6991 58.855 3.9916
11.5295 57.469 2
13.246 56.1834 0.0151175
9.30605 62.2254 4
11.1324 60.632 2
12.8458 59.1366 0.0126731
10.9835 64.0165 2
12.678 62.3053 0.00750254
12.7746 65.6939 0
15.1357 20.1695 3.98389
16.3934 18.6369 2
14.7437 17.292 3.98502
17.6624 17.1449 0.015626
16.0992 15.7703 2
14.4817 14.2822 3.98725
17.5089 14.3627 0.0148213
16.0199 12.8012 2
14.445 11.1113 3.99248
17.6387 11.4489 0.0122035
16.2023 9.66041 2
14.6715 7.74927 4
18.0513 8.33758 0.00708233
16.6661 6.31988 2
18.75 5.0241 0
25.1606 34.2876 3.98472
27.2152 34.7482 2
28.8147 35.1278 0.0776842
17.834 22.3039 3.98609
15.5066 22.9015 3.98178
16.6651 21.3589 2
20.8663 19.3645 0.0160167
17.968 19.9258 0.0157666
19.7069 21.5543 2
19.6256 24.3601 3.98228
22.3384 21.7024 0.0161927
24.6608 23.1552 0.0169845
22.7968 24.5849 2
21.8285 27.8074 3.97563
23.6028 31.1797 3.97576
24.4423 28.5223 2
25.386 25.9418 0.024869
25.9802 31.7152 2
28.1409 32.2757 0.00909143
26.8872 29.1414 0.0275129
22.3047 36.2732 3.98488
24.5249 36.8804 2
26.7093 37.3729 0.00599461
25.0778 43.2161 0.0256483
23.837 39.4455 0.0309943
22.8597 41.8321 2
21.5963 38.51 2
20.5831 40.6488 3.97925
19.961 37.787 3.9824
21.814 43.9917 0.0135969
19.6689 42.9159 2
17.2983 42.1192 3.97983
18.9218 45.0017 0.0155166
16.9082 44.4032 2
14.8106 44.2187 3.9802
16.5816 46.238 0.0162743
14.8121 46.1112 2
12.9417 46.3122 3.98143
14.8927 47.693 0.0162035
13.271 48.0273 2
11.4692 48.5641 3.98264
13.7649 49.5668 0.016741
12.0987 50.2686 2
10.2524 51.0915 3.98372
12.8803 51.892 0.0169027
11.1272 52.8492 2
9.2278 53.8974 3.98601
8.38265 56.988 3.99074
10.3193 55.7203 2
12.1323 54.5416 0.0156315
7.74927 60.3285 4
9.69903 58.8551 2
11.5296 57.4688 0.0131667
9.306 62.2255 2
11.1325 60.6319 0.00779685
10.9835 64.0165 0
13.9458 21.7353 3.98315
15.1359 20.1694 2
13.4431 18.888 3.98478
16.3931 18.6369 0.0154176
14.7439 17.2919 2
13.0266 15.874 3.98693
16.099 15.7705 0.0147724
14.4818 14.2819 2
12.782 12.6843 3.99225
16.0199 12.8014 0.0125056
14.4449 11.1113 2
12.7746 9.30605 4
16.2024 9.66043 0.0073285
14.6715 7.74924 2
16.6661 6.31991 0
22.8978 33.7947 3.98401
25.1607 34.2875 2
27.2151 34.7454 0.0118223
17.5961 24.0225 3.98301
17.834 22.3035 2
14.2869 24.4336 3.98052
15.5061 22.9008 2
16.6649 21.359 0.0170197
18.9727 27.1827 3.97579
19.7062 21.5547 0.0144806
19.6242 24.3603 2
21.0576 30.6489 3.97719
22.7988 24.5864 0.0207354
21.8307 27.8088 2
23.6047 31.1806 2
24.4392 28.519 0.0257588
25.9778 31.717 0.0229515
20.0751 35.9192 3.98412
22.3059 36.2741 2
24.5231 36.8799 0.0209613
22.8582 41.8313 0.0188723
21.5951 38.5097 0.0201881
20.5844 40.649 2
19.962 37.7874 2
17.9631 39.01 3.98068
19.6674 42.9158 0.0186294
17.2994 42.1195 2
14.7554 41.9321 3.97921
16.907 44.4031 0.0182959
14.8115 44.2187 2
12.6805 44.406 3.97996
14.8114 46.1114 0.0177546
12.9422 46.3122 2
10.9704 46.746 3.98148
13.2707 48.0274 0.0171591
11.4695 48.564 2
9.51528 49.2498 3.98321
12.0986 50.2688 0.0168904
10.2524 51.0914 2
8.26045 52.0091 3.98564
11.1272 52.8493 0.0159782
9.22772 53.8974 2
7.19152 55.0379 3.98999
6.31991 58.3339 4
8.38257 56.9881 2
10.3194 55.7203 0.0136326
7.74924 60.3285 2
9.6991 58.855 0.00840234
9.30605 62.2254 0
13.2076 25.3484 3.98399
12.8112 23.2648 3.98226
13.9455 21.7347 2
12.2271 20.5366 3.98449
15.1357 20.1695 0.0161103
13.4433 18.8877 2
11.6556 17.5545 3.98674
14.7437 17.292 0.0149783
13.0267 15.8738 2
11.2193 14.3687 3.99191
14.4817 14.2822 0.0127522
12.782 12.6842 2
10.9835 10.9835 4
14.445 11.1113 0.00751638
12.7745 9.306 2
14.6715 7.74927 0
20.4644 33.3841 3.98181
22.8982 33.7949 2
25.1606 34.2876 0.0152819
15.8646 26.3839 3.97861
17.5953 24.0221 2
17.834 22.3039 0.0139057
14.287 24.434 2
15.5066 22.9015 0.0182182
18.3068 30.1572 3.97664
18.9743 27.1837 2
19.6256 24.3601 0.0177229
21.059 30.6492 2
21.8285 27.8074 0.0243694
23.6028 31.1797 0.0242422
17.5845 35.9622 3.98347
20.0761 35.9196 2
22.3047 36.2732 0.0151153
20.5831 40.6488 0.0207509
19.961 37.787 0.0176019
17.9639 39.0103 2
14.2579 39.1838 3.98098
17.2983 42.1192 0.0201717
14.7562 41.9323 2
12.3663 42.2878 3.97978
14.8106 44.2187 0.0198007
12.6812 44.4061 2
10.5469 44.8129 3.98053
12.9417 46.3122 0.0185744
10.9708 46.746 2
8.89759 47.3274 3.98226
11.4692 48.5641 0.0173561
9.51535 49.2498 2
7.42724 50.0412 3.98505
10.2524 51.0915 0.0162766
8.26039 52.0091 2
6.1319 53.0117 3.98945
9.2278 53.8974 0.0139945
7.19144 55.0379 2
5.0241 56.25 4
6.31988 58.3339 2
8.38265 56.988 0.0092574
7.74927 60.3285 0
13.4417 26.801 3.97986
11.9241 24.7754 3.98159
13.2079 25.3486 2
11.129 22.2219 3.98374
12.8112 23.2648 2
13.9458 21.7353 0.0168538
12.227 20.5361 2
10.3851 19.3094 3.98663
13.4431 18.888 0.0152239
11.6558 17.5543 2
9.76003 16.1515 3.99146
13.0266 15.874 0.0130729
11.2193 14.3687 2
9.30607 12.7746 4
12.782 12.6843 0.00775392
10.9835 10.9835 2
12.7746 9.30605 0
17.7686 33.1016 3.98004
20.4648 33.3841 2
22.8978 33.7947 0.015992
15.4479 29.6241 3.9781
15.8655 26.3847 2
17.5961 24.0225 0.0169872
14.2869 24.4336 0.0194844
18.3077 30.1574 2
18.9727 27.1827 0.0242053
21.0576 30.6489 0.0228125
14.8479 36.0179 3.98197
17.5854 35.9624 2
20.0751 35.9192 0.0158821
12.5585 37.8331 3.98059
17.9631 39.01 0.0193196
14.2584 39.184 2
11.8782 40.1491 3.98104
14.7554 41.9321 0.0207903
12.3669 42.288 2
10.1455 42.7864 3.98003
12.6805 44.406 0.0200447
10.5474 44.813 2
8.3753 45.328 3.98157
10.9704 46.746 0.0185187
8.89774 47.3274 2
6.71857 48.0051 3.98418
9.51528 49.2498 0.0167929
7.42721 50.0411 2
5.20846 50.9135 3.98906
8.26045 52.0091 0.0143646
6.13182 53.0115 2
3.86727 54.0858 4
7.19152 55.0379 0.0100126
5.02404 56.25 2
6.31991 58.3339 0
12.8953 29.0228 3.97762
11.3531 26.4772 3.98084
13.4423 26.8009 2
10.1879 23.9577 3.9825
11.9242 24.7754 2
13.2076 25.3484 0.0160139
9.23661 21.1293 3.98598
11.1289 22.2218 2
12.8112 23.2648 0.0177421
12.2271 20.5366 0.0155062
10.385 19.309 2
8.4158 18.0222 3.99086
11.6556 17.5545 0.0132569
9.76007 16.1514 2
7.74928 14.6715 4
11.2193 14.3687 0.00809115
9.30602 12.7745 2
10.9835 10.9835 0
14.4376 32.8549 3.9798
17.769 33.1017 2
20.4644 33.3841 0.0181878
15.4486 29.6242 2
15.8646 26.3839 0.0213913
18.3068 30.1572 0.023359
12.8458 36.2093 3.98047
14.8486 36.018 2
17.5845 35.9622 0.01653
12.5591 37.8332 2
11.2366 38.3147 3.98011
14.2579 39.1838 0.0190188
11.8787 40.1494 2
9.73046 40.761 3.9808
12.3663 42.2878 0.0202175
10.1459 42.7866 2
7.92431 43.2756 3.98109
10.5469 44.8129 0.0194653
8.37558 45.328 2
6.12477 45.9092 3.98357
8.89759 47.3274 0.0177373
6.71859 48.0051 2
4.41994 48.7531 3.98883
7.42724 50.0412 0.014955
5.20838 50.9133 2
2.85457 51.8506 4
6.1319 53.0117 0.0105529
3.86727 54.0858 2
5.0241 56.25 0
12.0354 31.2489 3.98006
10.765 28.407 3.9794
12.8958 29.0226 2
9.40249 25.7902 3.9818
11.3534 26.4772 2
13.4417 26.801 0.0201403
8.22361 23.0163 3.98474
10.1879 23.9576 2
11.9241 24.7754 0.018415
7.19773 19.9726 3.99001
9.23654 21.129 2
11.129 22.2219 0.0162624
10.3851 19.3094 0.0133712
8.41576 18.0219 2
6.31992 16.6661 4
9.76003 16.1515 0.00854313
7.74926 14.6714 2
9.30607 12.7746 0
12.0515 34.2915 3.97953
14.4379 32.8549 2
17.7686 33.1016 0.0199559
15.4479 29.6241 0.0219015
10.8015 36.6124 3.9796
12.8464 36.2094 2
14.8479 36.0179 0.0180303
12.5585 37.8331 0.0194116
11.237 38.3149 2
9.32577 38.828 3.98065
11.8782 40.1491 0.0189646
9.73083 40.7612 2
7.53559 41.2157 3.98122
10.1455 42.7864 0.0199688
7.92456 43.2758 2
5.63674 43.7713 3.98346
8.3753 45.328 0.0184336
6.1249 45.9091 2
3.7656 46.5382 3.98876
6.71857 48.0051 0.0158196
4.41987 48.7527 2
1.99014 49.554 4
5.20846 50.9135 0.0109387
2.85451 51.8506 2
3.86727 54.0858 0
10.8994 32.9144 3.98029
10.0777 30.3761 3.98007
12.0357 31.2487 2
8.71043 27.726 3.98097
10.7653 28.4068 2
12.8953 29.0228 0.0223825
7.34902 24.9773 3.98399
9.40265 25.7901 2
11.3531 26.4772 0.0191607
6.11451 21.9976 3.98897
8.22352 23.0161 2
10.1879 23.9577 0.017499
5.02411 18.75 4
7.19765 19.9725 2
9.23661 21.1293 0.0140156
8.4158 18.0222 0.00914004
6.3199 16.6661 2
7.74928 14.6715 0
10.414 34.9989 3.98015
12.0519 34.2916 2
14.4376 32.8549 0.0201991
8.9997 36.9869 3.97944
10.802 36.6125 2
12.8458 36.2093 0.0195265
11.2366 38.3147 0.0198911
9.32617 38.8282 2
7.21659 39.1851 3.98125
9.73046 40.761 0.0192006
7.53586 41.2159 2
5.25225 41.6163 3.98331
7.92431 43.2756 0.018907
5.63685 43.7712 2
3.24339 44.2829 3.98874
6.12477 45.9092 0.0164347
3.7656 46.5378 2
1.27781 47.2057 4
4.41994 48.7531 0.0111698
1.99012 49.554 2
2.85457 51.8506 0
10.0678 33.8788 3.98018
9.37127 32.1503 3.98059
10.8997 32.9143 2
8.05971 29.6913 3.98091
10.078 30.3759 2
12.0354 31.2489 0.0199366
6.59269 27.0049 3.98335
8.71056 27.7258 2
10.765 28.407 0.0205974
5.16958 24.0923 3.9884
7.34904 24.9772 2
9.40249 25.7902 0.0182
3.86728 20.9142 4
6.11437 21.9978 2
8.22361 23.0163 0.0152608
5.02406 18.75 2
7.19773 19.9726 0.00999229
6.31992 16.6661 0
8.82651 35.2792 3.98011
10.4144 34.9989 2
12.0515 34.2915 0.0204674
7.00171 37.2074 3.98032
9.0002 36.9869 2
10.8015 36.6124 0.0204029
9.32577 38.828 0.0193547
7.21692 39.1853 2
4.98038 39.469 3.98308
7.53559 41.2157 0.0187769
5.25238 41.6163 2
2.85401 42.0032 3.9885
5.63674 43.7713 0.0165445
3.24338 44.2825 2
0.720592 44.8159 4
3.7656 46.5382 0.0112372
1.27778 47.2057 2
1.99014 49.554 0
8.86836 33.6955 3.98049
10.0682 33.8787 2
7.49737 31.6064 3.9812
9.37154 32.1502 2
10.8994 32.9144 0.0197088
5.93797 29.0673 3.98306
8.05984 29.6911 2
10.0777 30.3761 0.0199297
4.35709 26.2464 3.98827
6.59272 27.0048 2
8.71043 27.726 0.0190346
2.85458 23.1494 4
5.16946 24.0928 2
7.34902 24.9773 0.0160072
3.86728 20.9142 2
6.11451 21.9976 0.0110292
5.02411 18.75 0
6.95227 35.3061 3.98048
8.82694 35.2792 2
10.414 34.9989 0.0198452
4.83117 37.3408 3.98261
7.00217 37.2075 2
8.9997 36.9869 0.0205639
7.21659 39.1851 0.0187456
4.98061 39.469 2
2.60224 39.7147 3.98817
5.25225 41.6163 0.0166913
2.85404 42.0027 2
0.320823 42.3947 4
3.24339 44.2829 0.0112648
0.720551 44.8159 2
1.27781 47.2057 0
7.1118 33.4596 3.98101
8.8687 33.6954 2
10.0678 33.8788 0.0198165
5.40893 31.1323 3.98316
7.49755 31.6062 2
9.37127 32.1503 0.0194104
3.67886 28.4432 3.9884
5.93802 29.0673 2
8.05971 29.6913 0.0190873
1.99015 25.446 4
4.35698 26.2471 2
6.59269 27.0049 0.0166534
2.85453 23.1494 2
5.16958 24.0923 0.0115964
3.86728 20.9142 0
4.84566 35.2519 3.98262
6.95268 35.3062 2
8.82651 35.2792 0.0198909
2.49383 37.429 3.98821
4.83154 37.3409 2
7.00171 37.2074 0.0196785
4.98038 39.469 0.0169237
2.60234 39.7143 2
0.080333 39.9526 4
2.85401 42.0032 0.0115013
0.320817 42.3947 2
0.720592 44.8159 0
5.03874 33.1898 3.98304
7.11209 33.4595 2
8.86836 33.6955 0.0195067
3.14328 30.6662 3.98855
5.40903 31.1324 2
7.49737 31.6064 0.0187966
1.27793 27.7943 4
3.67879 28.4441 2
5.93797 29.0673 0.0169433
1.99013 25.446 2
4.35709 26.2464 0.011732
2.85458 23.1494 0
2.54603 35.1594 3.98826
4.846 35.2521 2
6.95227 35.3061 0.0195205
0 37.5 4
2.49401 37.4289 2
4.83117 37.3408 0.017389
2.60224 39.7147 0.0118304
0.0802903 39.9526 2
0.320823 42.3947 0
2.7635 32.906 3.98842
5.03896 33.1901 2
7.1118 33.4596 0.0189925
0.721173 30.1842 4
3.14326 30.6671 2
5.40893 31.1323 0.016839
1.27779 27.7943 2
3.67886 28.4432 0.0116041
1.99015 25.446 0
0.0806499 35.0474 4
2.54619 35.1598 2
4.84566 35.2519 0.0173841
0 37.5 2
2.49383 37.429 0.0117941
0.080333 39.9526 0
0.32156 32.6054 4
2.76358 32.9067 2
5.03874 33.1898 0.0169637
0.72056 30.1841 2
3.14328 30.6662 0.0114474
1.27793 27.7943 0
0.0802889 35.0474 2
2.54603 35.1594 0.0117411
0 37.5 0
0.320817 32.6053 2
2.7635 32.906 0.0115773
0.721173 30.1842 0
0.0806499 35.0474 0
0.32156 32.6054 0
CELLS 1910 17190
8 18 6 25 56 2 0 5 16
8 57 23 6 18 17 4 0 2
8 78 36 9 29 31 11 1 7
8 31 11 1 7 79 37 10 30
8 110 57 18 50 48 17 2 14
8 50 18 56 111 14 2 16 49
8 116 62 22 55 52 20 3 15
8 56 25 67 118 16 5 24 53
8 119 63 23 57 54 21 4 17
8 55 22 63 119 15 3 21 54
8 58 26 68 121 18 6 25 56
8 122 65 26 58 57 23 6 18
8 73 31 7 27 142 79 30 71
8 143 78 29 72 73 31 7 27
8 83 147 76 34 32 74 28 8
8 84 148 78 36 33 75 29 9
8 76 34 8 28 148 84 33 75
8 37 79 150 86 10 30 77 35
8 151 87 36 78 80 38 11 31
8 80 38 11 31 152 88 37 79
8 175 100 42 94 96 44 12 40
8 44 96 176 101 12 40 95 43
8 101 176 98 46 43 95 41 13
8 46 98 178 103 13 41 97 45
8 178 103 45 97 147 83 32 74
8 189 116 55 109 106 52 15 47
8 111 56 118 191 49 16 53 107
8 192 119 57 110 108 54 17 48
8 109 55 119 192 47 15 54 108
8 194 122 58 112 110 57 18 50
8 112 58 121 195 50 18 56 111
8 115 61 19 51 197 124 59 113
8 115 61 125 198 51 19 60 114
8 198 125 62 116 114 60 20 52
8 200 127 64 120 116 62 22 55
8 118 67 132 202 53 24 66 117
8 121 68 133 203 56 25 67 118
8 120 64 128 204 55 22 63 119
8 204 128 65 122 119 63 23 57
8 206 134 68 121 123 69 26 58
8 123 69 26 58 207 131 65 122
8 226 147 74 138 140 76 28 70
8 229 148 75 139 143 78 29 72
8 140 76 28 70 229 148 75 139
8 142 79 30 71 231 150 77 141
8 144 80 31 73 232 152 79 142
8 233 151 78 143 144 80 31 73
8 150 86 35 77 235 154 81 145
8 235 154 81 145 146 82 39 91
8 146 82 39 91 236 155 90 165
8 238 157 83 147 149 85 34 76
8 239 158 84 148 151 87 36 78
8 149 85 34 76 239 158 84 148
8 152 88 37 79 241 160 86 150
8 242 161 87 151 153 89 38 80
8 153 89 38 80 243 162 88 152
8 171 98 41 92 265 178 97 169
8 265 178 97 169 226 147 74 138
8 172 96 40 93 266 176 95 170
8 266 176 95 170 171 98 41 92
8 269 175 94 173 172 96 40 93
8 271 180 99 174 175 100 42 94
8 197 124 59 113 271 180 99 174
8 272 181 100 175 177 102 44 96
8 273 182 101 176 179 104 46 98
8 177 102 44 96 273 182 101 176
8 179 104 46 98 275 184 103 178
8 275 184 103 178 238 157 83 147
8 188 115 51 105 283 197 113 186
8 188 115 198 284 105 51 114 187
8 284 198 116 189 187 114 52 106
8 286 200 120 193 189 116 55 109
8 191 118 202 288 107 53 117 190
8 195 121 203 289 111 56 118 191
8 193 120 204 290 109 55 119 192
8 290 204 122 194 192 119 57 110
8 196 123 58 112 292 207 122 194
8 293 206 121 195 196 123 58 112
8 199 126 61 115 297 211 124 197
8 298 212 127 200 198 125 62 116
8 199 126 212 298 115 61 125 198
8 205 129 64 120 300 214 127 200
8 301 217 130 201 202 132 66 117
8 209 136 168 264 301 217 130 201
8 302 219 132 202 203 133 67 118
8 303 220 133 203 206 134 68 121
8 205 129 215 304 120 64 128 204
8 304 215 131 207 204 128 65 122
8 306 221 134 206 208 135 69 123
8 208 135 69 123 307 218 131 207
8 210 137 167 263 309 223 136 209
8 328 238 147 226 230 149 76 140
8 228 146 91 166 329 236 165 260
8 231 150 77 141 330 235 145 227
8 330 235 145 227 228 146 91 166
8 332 239 148 229 233 151 78 143
8 230 149 76 140 332 239 148 229
8 232 152 79 142 334 241 150 231
8 234 153 80 144 335 243 152 232
8 336 242 151 233 234 153 80 144
8 236 155 90 165 338 245 164 259
8 241 160 86 150 339 246 154 235
8 339 246 154 235 237 156 82 146
8 237 156 82 146 340 247 155 236
8 342 249 157 238 240 159 85 149
8 343 250 158 239 242 161 87 151
8 240 159 85 149 343 250 158 239
8 243 162 88 152 345 252 160 241
8 244 163 253 346 153 89 161 242
8 244 163 89 153 347 254 162 243
8 311 224 261 371 210 137 167 263
8 263 167 262 372 209 136 168 264
8 267 179 98 171 375 275 178 265
8 375 275 178 265 328 238 147 226
8 376 273 176 266 267 179 98 171
8 268 177 96 172 376 273 176 266
8 379 272 175 269 268 177 96 172
8 380 271 174 270 269 175 94 173
8 283 197 113 186 380 271 174 270
8 381 277 180 271 272 181 100 175
8 297 211 124 197 381 277 180 271
8 382 278 181 272 274 183 102 177
8 274 183 102 177 383 279 182 273
8 383 279 182 273 276 185 104 179
8 385 281 184 275 342 249 157 238
8 276 185 104 179 385 281 184 275
8 285 199 115 188 393 297 197 283
8 394 298 200 286 284 198 116 189
8 285 199 298 394 188 115 198 284
8 291 205 120 193 396 300 200 286
8 397 301 201 287 288 202 117 190
8 295 209 264 374 397 301 201 287
8 398 302 202 288 289 203 118 191
8 399 303 203 289 293 206 121 195
8 291 205 304 400 193 120 204 290
8 400 304 207 292 290 204 122 194
8 294 208 123 196 402 307 207 292
8 403 306 206 293 294 208 123 196
8 296 210 263 373 405 309 209 295
8 408 312 213 299 297 211 126 199
8 299 213 313 409 199 126 212 298
8 409 313 214 300 298 212 127 200
8 305 216 129 205 411 315 214 300
8 412 318 217 301 302 219 132 202
8 309 223 136 209 412 318 217 301
8 413 320 219 302 303 220 133 203
8 306 221 321 414 206 134 220 303
8 307 218 131 207 415 316 215 304
8 305 216 316 415 205 129 215 304
8 417 322 221 306 308 222 135 208
8 308 222 135 208 418 319 218 307
8 310 225 137 210 420 325 223 309
8 423 326 224 311 310 225 137 210
8 329 236 165 260 441 338 259 368
8 442 342 238 328 333 240 149 230
8 331 237 146 228 443 340 236 329
8 334 241 150 231 444 339 235 330
8 444 339 235 330 331 237 146 228
8 446 343 239 332 336 242 151 233
8 333 240 149 230 446 343 239 332
8 335 243 152 232 448 345 241 334
8 337 244 153 234 449 347 243 335
8 337 244 346 450 234 153 242 336
8 338 245 164 259 452 349 258 367
8 340 247 155 236 453 350 245 338
8 345 252 160 241 454 351 246 339
8 454 351 246 339 341 248 156 237
8 341 248 156 237 455 352 247 340
8 240 159 251 344 342 249 354 457
8 242 161 253 346 343 250 355 458
8 343 250 355 458 240 159 251 344
8 347 254 162 243 460 357 252 345
8 348 255 358 461 244 163 253 346
8 348 255 163 244 462 359 254 347
8 473 360 257 365 363 256 364 482
8 452 349 258 367 365 257 366 485
8 422 324 369 488 311 224 261 371
8 371 261 370 490 263 167 262 372
8 407 311 371 491 296 210 263 373
8 373 263 372 492 295 209 264 374
8 493 385 275 375 442 342 238 328
8 377 276 179 267 493 385 275 375
8 378 274 177 268 494 383 273 376
8 494 383 273 376 377 276 179 267
8 497 382 272 379 378 274 177 268
8 498 381 271 380 379 272 175 269
8 393 297 197 283 498 381 271 380
8 499 387 277 381 382 278 181 272
8 408 312 211 297 499 387 277 381
8 500 388 278 382 384 280 183 274
8 501 389 279 383 386 282 185 276
8 384 280 183 274 501 389 279 383
8 386 282 185 276 503 391 281 385
8 503 391 281 385 457 354 249 342
8 511 408 299 395 393 297 199 285
8 395 299 409 512 285 199 298 394
8 512 409 300 396 394 298 200 286
8 401 305 205 291 514 411 300 396
8 515 412 301 397 398 302 202 288
8 405 309 209 295 515 412 301 397
8 516 413 302 398 399 303 203 289
8 403 306 414 517 293 206 303 399
8 402 307 207 292 518 415 304 400
8 401 305 415 518 291 205 304 400
8 404 308 208 294 520 418 307 402
8 521 417 306 403 404 308 208 294
8 406 310 210 296 523 420 309 405
8 526 423 311 407 406 310 210 296
8 410 314 213 299 527 424 312 408
8 528 425 315 411 409 313 214 300
8 410 314 425 528 299 213 313 409
8 416 317 216 305 530 427 315 411
8 531 430 318 412 413 320 219 302
8 420 325 223 309 531 430 318 412
8 532 432 320 413 414 321 220 303
8 417 322 433 533 306 221 321 414
8 418 319 218 307 534 428 316 415
8 416 317 428 534 305 216 316 415
8 419 323 434 536 308 222 322 417
8 419 323 222 308 537 431 319 418
8 421 327 225 310 539 438 325 420
8 421 327 439 541 310 225 326 423
8 543 437 324 422 423 326 224 311
8 441 338 259 368 559 452 367 486
8 443 340 236 329 560 453 338 441
8 333 240 344 447 442 342 457 561
8 445 341 237 331 562 455 340 443
8 448 345 241 334 563 454 339 444
8 563 454 339 444 445 341 237 331
8 336 242 346 450 446 343 458 565
8 446 343 458 565 333 240 344 447
8 449 347 243 335 567 460 345 448
8 451 348 244 337 568 462 347 449
8 451 348 461 569 337 244 346 450
8 570 463 349 452 473 360 257 365
8 453 350 245 338 570 463 349 452
8 455 352 247 340 571 464 350 453
8 460 357 252 345 572 465 351 454
8 572 465 351 454 456 353 248 341
8 456 353 248 341 573 466 352 455
8 344 251 356 459 457 354 468 575
8 458 355 469 576 344 251 356 459
8 346 253 358 461 458 355 469 576
8 462 359 254 347 578 471 357 460
8 348 255 359 462 461 358 472 579
8 591 474 360 473 475 361 256 363
8 475 361 256 363 594 477 362 479
8 363 256 364 482 479 362 480 603
8 590 473 365 484 481 363 482 605
8 482 364 257 365 606 483 366 485
8 559 452 367 486 484 365 485 607
8 542 436 487 609 422 324 369 488
8 525 422 488 611 407 311 371 491
8 488 369 489 612 371 261 370 490
8 491 371 490 613 373 263 372 492
8 495 386 276 377 614 503 385 493
8 614 503 385 493 561 457 342 442
8 615 501 383 494 495 386 276 377
8 496 384 274 378 615 501 383 494
8 618 500 382 497 496 384 274 378
8 619 499 381 498 497 382 272 379
8 511 408 297 393 619 499 381 498
8 620 505 387 499 500 388 278 382
8 527 424 312 408 620 505 387 499
8 502 390 506 621 384 280 388 500
8 622 507 389 501 504 392 282 386
8 502 390 280 384 622 507 389 501
8 504 392 282 386 624 509 391 503
8 624 509 391 503 575 468 354 457
8 513 410 299 395 630 527 408 511
8 631 528 411 514 512 409 300 396
8 513 410 528 631 395 299 409 512
8 519 416 305 401 633 530 411 514
8 634 531 412 515 516 413 302 398
8 523 420 309 405 634 531 412 515
8 635 532 413 516 517 414 303 399
8 521 417 533 636 403 306 414 517
8 520 418 307 402 637 534 415 518
8 519 416 534 637 401 305 415 518
8 522 419 308 404 639 537 418 520
8 522 419 536 640 404 308 417 521
8 524 421 310 406 642 539 420 523
8 524 421 541 644 406 310 423 526
8 646 543 422 525 526 423 311 407
8 529 426 314 410 647 544 424 527
8 528 425 545 648 411 315 427 530
8 529 426 545 648 410 314 425 528
8 535 429 317 416 649 546 427 530
8 650 548 430 531 532 432 320 413
8 539 438 325 420 650 548 430 531
8 533 433 550 651 414 321 432 532
8 536 434 551 652 417 322 433 533
8 537 431 319 418 653 547 428 534
8 535 429 547 653 416 317 428 534
8 538 435 552 654 419 323 434 536
8 538 435 323 419 655 549 431 537
8 540 440 327 421 657 556 438 539
8 540 440 557 659 421 327 439 541
8 541 439 555 660 423 326 437 543
8 661 554 436 542 543 437 324 422
8 676 570 452 559 590 473 365 484
8 560 453 338 441 676 570 452 559
8 562 455 340 443 677 571 453 560
8 447 344 459 566 561 457 575 678
8 564 456 341 445 679 573 455 562
8 567 460 345 448 680 572 454 563
8 680 572 454 563 564 456 341 445
8 565 458 576 682 447 344 459 566
8 450 346 461 569 565 458 576 682
8 568 462 347 449 684 578 460 567
8 451 348 462 568 569 461 579 685
8 686 580 463 570 591 474 360 473
8 571 464 350 453 686 580 463 570
8 573 466 352 455 687 581 464 571
8 572 465 582 688 460 357 471 578
8 574 467 582 688 456 353 465 572
8 574 467 353 456 689 583 466 573
8 459 356 470 577 575 468 585 691
8 576 469 586 692 459 356 470 577
8 461 358 472 579 576 469 586 692
8 462 359 471 578 579 472 588 694
8 704 591 473 590 593 475 363 481
8 595 476 592 705 475 361 474 591
8 593 475 363 481 707 594 479 602
8 594 477 362 479 709 598 478 600
8 595 476 361 475 711 597 477 594
8 479 362 480 603 600 478 601 720
8 481 363 482 605 602 479 603 722
8 603 480 364 482 723 604 483 606
8 605 482 365 484 724 606 485 607
8 656 553 608 726 542 436 487 609
8 645 542 609 728 525 422 488 611
8 609 487 610 729 488 369 489 612
8 611 488 612 730 491 371 490 613
8 616 504 386 495 731 624 503 614
8 731 624 503 614 678 575 457 561
8 732 622 501 615 616 504 386 495
8 617 502 384 496 732 622 501 615
8 617 502 621 735 496 384 500 618
8 736 620 499 619 618 500 382 497
8 630 527 408 511 736 620 499 619
8 621 506 626 737 500 388 505 620
8 647 544 424 527 737 626 505 620
8 623 508 627 738 502 390 506 621
8 623 508 390 502 739 628 507 622
8 625 510 628 739 504 392 507 622
8 740 629 509 624 691 585 468 575
8 625 510 392 504 740 629 509 624
8 632 529 410 513 744 647 527 630
8 631 528 648 745 514 411 530 633
8 632 529 648 745 513 410 528 631
8 638 535 416 519 746 649 530 633
8 747 650 531 634 635 532 413 516
8 642 539 420 523 747 650 531 634
8 636 533 651 748 517 414 532 635
8 640 536 652 749 521 417 533 636
8 639 537 418 520 750 653 534 637
8 638 535 653 750 519 416 534 637
8 641 538 419 522 751 655 537 639
8 641 538 654 752 522 419 536 640
8 643 540 421 524 753 657 539 642
8 643 540 659 755 524 421 541 644
8 644 541 660 757 526 423 543 646
8 758 661 542 645 646 543 422 525
8 529 426 544 647 648 545 662 759
8 530 427 545 648 649 546 663 760
8 535 429 546 649 653 547 664 761
8 762 666 548 650 651 550 432 532
8 657 556 438 539 762 666 548 650
8 652 551 668 763 533 433 550 651
8 654 552 669 764 536 434 551 652
8 655 549 431 537 765 665 547 653
8 538 435 549 655 654 552 667 766
8 661 554 671 768 542 436 553 656
8 658 558 440 540 769 674 556 657
8 658 558 675 770 540 440 557 659
8 659 557 673 771 541 439 555 660
8 660 555 672 772 543 437 554 661
8 788 686 570 676 704 591 473 590
8 677 571 453 560 788 686 570 676
8 679 573 455 562 789 687 571 677
8 566 459 577 683 678 575 691 790
8 681 574 456 564 791 689 573 679
8 680 572 688 792 567 460 578 684
8 681 574 688 792 564 456 572 680
8 682 576 692 794 566 459 577 683
8 569 461 579 685 682 576 692 794
8 568 462 578 684 685 579 694 796
8 687 581 464 571 798 696 580 686
8 798 696 580 686 705 592 474 591
8 689 583 466 573 799 697 581 687
8 688 582 698 800 578 471 588 694
8 690 584 698 800 574 467 582 688
8 690 584 467 574 801 699 583 689
8 693 587 701 803 577 470 585 691
8 693 587 470 577 804 702 586 692
8 695 589 702 804 579 472 586 692
8 695 589 472 579 805 703 588 694
8 708 595 705 813 593 475 591 704
8 710 596 706 814 595 476 592 705
8 707 594 479 602 816 709 600 719
8 708 595 475 593 817 711 594 707
8 709 598 478 600 819 715 599 717
8 711 597 477 594 820 714 598 709
8 710 596 476 595 822 713 597 711
8 600 478 601 720 717 599 718 832
8 602 479 603 722 719 600 720 834
8 720 601 480 603 835 721 604 723
8 722 603 482 605 836 723 606 724
8 767 670 725 839 656 553 608 726
8 756 656 726 841 645 542 609 728
8 726 608 727 842 609 487 610 729
8 728 609 729 843 611 488 612 730
8 844 740 624 731 790 691 575 678
8 733 625 504 616 844 740 624 731
8 734 623 502 617 845 739 622 732
8 733 625 739 845 616 504 622 732
8 734 623 738 846 617 502 621 735
8 735 621 737 847 618 500 620 736
8 744 647 527 630 847 737 620 736
8 621 506 627 738 737 626 741 848
8 647 544 626 737 759 662 741 848
8 623 508 628 739 738 627 742 849
8 740 629 585 691 850 743 700 802
8 625 510 629 740 739 628 743 850
8 632 529 647 744 745 648 759 854
8 633 530 648 745 746 649 760 855
8 638 535 649 746 750 653 761 856
8 857 762 650 747 748 651 532 635
8 753 657 539 642 857 762 650 747
8 749 652 763 858 636 533 651 748
8 752 654 764 859 640 536 652 749
8 751 655 537 639 860 765 653 750
8 641 538 655 751 752 654 766 861
8 754 658 540 643 862 769 657 753
8 754 658 770 863 643 540 659 755
8 755 659 771 864 644 541 660 757
8 758 661 768 866 645 542 656 756
8 757 660 772 867 646 543 661 758
8 759 662 773 868 648 545 663 760
8 649 546 663 760 761 664 774 871
8 765 665 547 653 872 775 664 761
8 873 777 666 762 763 668 550 651
8 769 674 556 657 873 777 666 762
8 764 669 779 874 652 551 668 763
8 654 552 667 766 764 669 778 875
8 655 549 665 765 766 667 776 876
8 768 671 782 877 656 553 670 767
8 772 672 783 878 661 554 671 768
8 658 558 674 769 770 675 786 879
8 659 557 675 770 771 673 785 881
8 882 784 672 772 771 673 555 660
8 789 687 571 677 897 798 686 788
8 897 798 686 788 813 705 591 704
8 791 689 573 679 898 799 687 789
8 795 693 803 900 683 577 691 790
8 793 690 574 681 901 801 689 791
8 792 688 800 902 684 578 694 796
8 793 690 800 902 681 574 688 792
8 795 693 577 683 903 804 692 794
8 797 695 804 903 685 579 692 794
8 797 695 579 685 904 805 694 796
8 905 806 697 799 798 696 581 687
8 814 706 806 905 705 592 696 798
8 689 583 697 799 801 699 808 907
8 800 698 809 908 694 588 703 805
8 690 584 699 801 800 698 809 908
8 803 701 810 909 691 585 700 802
8 693 587 702 804 803 701 811 910
8 695 589 703 805 804 702 812 911
8 818 710 814 919 708 595 705 813
8 821 712 815 920 710 596 706 814
8 816 709 600 719 922 819 717 831
8 817 711 594 707 923 820 709 816
8 818 710 595 708 924 822 711 817
8 819 715 599 717 926 827 716 829
8 820 714 598 709 927 826 715 819
8 929 825 713 822 820 714 597 711
8 821 712 596 710 930 824 713 822
8 717 599 718 832 829 716 830 942
8 719 600 720 834 831 717 832 944
8 832 718 601 720 945 833 721 835
8 834 720 603 722 946 835 723 836
8 869 780 838 950 767 670 725 839
8 865 767 839 952 756 656 726 841
8 839 725 840 953 726 608 727 842
8 841 726 842 954 728 609 729 843
8 844 740 691 790 955 850 802 899
8 733 625 740 844 845 739 850 955
8 734 623 739 845 846 738 849 956
8 735 621 738 846 847 737 848 957
8 744 647 737 847 854 759 848 957
8 738 627 742 849 848 741 851 958
8 848 741 851 958 759 662 773 868
8 850 743 700 802 959 852 807 906
8 849 742 628 739 959 852 743 850
8 854 759 868 965 745 648 760 855
8 746 649 760 855 856 761 871 966
8 860 765 653 750 967 872 761 856
8 968 873 762 857 858 763 651 748
8 862 769 657 753 968 873 762 857
8 859 764 874 969 749 652 763 858
8 752 654 766 861 859 764 875 970
8 751 655 765 860 861 766 876 971
8 754 658 769 862 863 770 879 972
8 755 659 770 863 864 771 881 974
8 976 882 772 867 864 771 660 757
8 866 768 877 977 756 656 767 865
8 867 772 878 978 758 661 768 866
8 760 663 773 868 871 774 883 980
8 870 781 837 948 982 890 780 869
8 982 890 780 869 877 782 670 767
8 761 664 774 871 872 775 884 984
8 876 776 665 765 985 885 775 872
8 873 777 668 763 986 887 779 874
8 769 674 777 873 879 786 887 986
8 764 669 778 875 874 779 888 987
8 766 667 776 876 875 778 886 988
8 878 783 892 989 768 671 782 877
8 878 783 672 772 990 893 784 882
8 880 787 675 770 991 896 786 879
8 880 787 895 992 770 675 785 881
8 881 785 894 993 771 673 784 882
8 1006 905 799 898 897 798 687 789
8 919 814 905 1006 813 705 798 897
8 791 689 799 898 901 801 907 1007
8 900 803 909 1009 790 691 802 899
8 795 693 804 903 900 803 910 1010
8 902 800 908 1011 796 694 805 904
8 793 690 801 901 902 800 908 1011
8 797 695 805 904 903 804 911 1012
8 799 697 806 905 907 808 912 1013
8 920 815 912 1013 814 706 806 905
8 802 700 810 909 906 807 913 1014
8 801 699 808 907 908 809 914 1015
8 805 703 809 908 911 812 915 1016
8 803 701 811 910 909 810 916 1017
8 911 812 917 1018 804 702 811 910
8 925 821 920 1030 818 710 814 919
8 928 823 921 1031 821 712 815 920
8 922 819 717 831 1033 926 829 941
8 923 820 709 816 1034 927 819 922
8 1035 929 822 924 923 820 711 817
8 925 821 710 818 1036 930 822 924
8 1038 933 825 929 927 826 714 820
8 926 827 716 829 1039 935 828 939
8 927 826 715 819 1040 934 827 926
8 928 823 712 821 1041 931 824 930
8 1042 932 824 930 929 825 713 822
8 829 716 830 942 939 828 940 1058
8 831 717 832 944 941 829 942 1060
8 942 830 718 832 1061 943 833 945
8 944 832 720 834 1062 945 835 946
8 981 889 947 1064 870 781 837 948
8 948 837 949 1067 869 780 838 950
8 975 869 950 1069 865 767 839 952
8 950 838 951 1070 839 725 840 953
8 952 839 953 1071 841 726 842 954
8 955 850 802 899 1072 959 906 1008
8 956 849 739 845 1072 959 850 955
8 846 738 849 956 957 848 958 1073
8 957 848 958 1073 854 759 868 965
8 849 742 852 959 958 851 961 1076
8 960 853 961 1076 906 807 852 959
8 958 851 961 1076 868 773 883 980
8 960 853 807 906 1077 963 913 1014
8 855 760 868 965 966 871 980 1085
8 856 761 871 966 967 872 984 1086
8 971 876 765 860 1087 985 872 967
8 968 873 763 858 1088 986 874 969
8 862 769 873 968 972 879 986 1088
8 859 764 875 970 969 874 987 1089
8 861 766 876 971 970 875 988 1090
8 973 880 770 863 1091 991 879 972
8 973 880 992 1092 863 770 881 974
8 974 881 993 1093 864 771 882 976
8 979 870 948 1066 1094 982 869 975
8 1094 982 869 975 977 877 767 865
8 978 878 772 867 1095 990 882 976
8 978 878 989 1096 866 768 877 977
8 871 774 883 980 984 884 994 1099
8 983 891 999 1100 870 781 889 981
8 1101 1000 890 982 989 892 782 877
8 983 891 781 870 1101 1000 890 982
8 872 775 884 984 985 885 995 1103
8 876 776 885 985 988 886 996 1104
8 986 887 779 874 1105 998 888 987
8 879 786 887 986 991 896 998 1105
8 875 778 886 988 987 888 997 1106
8 990 893 1002 1107 878 783 892 989
8 1108 1003 893 990 993 894 784 882
8 880 787 896 991 992 895 1005 1109
8 993 894 785 881 1110 1004 895 992
8 898 799 905 1006 1007 907 1013 1120
8 1030 920 1013 1120 919 814 905 1006
8 901 801 907 1007 1011 908 1015 1121
8 899 802 909 1009 1008 906 1014 1122
8 900 803 910 1010 1009 909 1017 1123
8 1012 911 1018 1124 903 804 910 1010
8 904 805 908 1011 1012 911 1016 1125
8 1013 912 1020 1127 907 808 914 1015
8 1031 921 1020 1127 920 815 912 1013
8 1019 918 962 1075 1128 1021 913 1014
8 1128 1021 913 1014 1017 916 810 909
8 1015 914 1022 1129 908 809 915 1016
8 1016 915 1023 1130 911 812 917 1018
8 1018 917 1024 1131 910 811 916 1017
8 1037 928 1031 1148 925 821 920 1030
8 928 823 931 1041 1031 921 1032 1149
8 1033 926 829 941 1151 1039 939 1057
8 1034 927 819 922 1152 1040 926 1033
8 1153 1038 929 1035 1034 927 820 923
8 1154 1042 930 1036 1035 929 822 924
8 1037 928 821 925 1155 1041 930 1036
8 1039 935 828 939 1156 1047 938 1055
8 1157 1043 932 1042 1038 933 825 929
8 1038 933 826 927 1158 1045 934 1040
8 1040 934 827 926 1159 1046 935 1039
8 930 824 932 1042 1041 931 1044 1160
8 1051 936 1048 1165 1175 1052 937 1053
8 1156 1047 938 1055 1053 937 1054 1178
8 939 828 940 1058 1055 938 1056 1181
8 941 829 942 1060 1057 939 1058 1183
8 942 830 943 1061 1058 940 1059 1184
8 1060 942 832 944 1185 1061 945 1062
8 1082 964 1063 1188 981 889 947 1064
8 1097 981 1064 1190 979 870 948 1066
8 1064 947 1065 1191 948 837 949 1067
8 1066 948 1067 1193 975 869 950 1069
8 1067 949 1068 1194 950 838 951 1070
8 1069 950 1070 1195 952 839 953 1071
8 956 849 959 1072 1073 958 1076 1197
8 1074 960 1076 1197 1008 906 959 1072
8 1073 958 1076 1197 965 868 980 1085
8 1074 960 906 1008 1198 1077 1014 1122
8 1133 1026 1079 1199 1019 918 962 1075
8 1077 963 913 1014 1200 1080 962 1075
8 960 853 963 1077 1076 961 1078 1201
8 980 883 961 1076 1099 994 1078 1201
8 1210 1083 964 1082 1100 999 889 981
8 966 871 980 1085 1086 984 1099 1215
8 967 872 984 1086 1087 985 1103 1216
8 971 876 985 1087 1090 988 1104 1217
8 1088 986 874 969 1218 1105 987 1089
8 972 879 986 1088 1091 991 1105 1218
8 970 875 988 1090 1089 987 1106 1219
8 973 880 991 1091 1092 992 1109 1220
8 1093 993 881 974 1221 1110 992 1092
8 1222 1108 990 1095 1093 993 882 976
8 1223 1101 982 1094 1096 989 877 977
8 1098 983 870 979 1223 1101 982 1094
8 1095 990 1107 1224 978 878 989 1096
8 1098 983 1100 1225 979 870 981 1097
8 984 884 994 1099 1103 995 1111 1227
8 1102 1001 1115 1228 983 891 999 1100
8 1101 1000 892 989 1229 1116 1002 1107
8 1102 1001 891 983 1229 1116 1000 1101
8 985 885 995 1103 1104 996 1112 1230
8 988 886 996 1104 1106 997 1113 1231
8 1105 998 888 987 1232 1114 997 1106
8 991 896 998 1105 1109 1005 1114 1232
8 1108 1003 1117 1233 990 893 1002 1107
8 1108 1003 894 993 1233 1117 1004 1110
8 992 895 1005 1109 1110 1004 1118 1234
8 1120 1013 1127 1244 1007 907 1015 1121
8 1148 1031 1127 1244 1030 920 1013 1120
8 1121 1015 1129 1245 1011 908 1016 1125
8 1126 1019 1075 1196 1246 1128 1014 1122
8 1246 1128 1014 1122 1123 1017 909 1009
8 1124 1018 1131 1247 1010 910 1017 1123
8 1125 1016 1130 1248 1012 911 1018 1124
8 1127 1020 1137 1254 1015 914 1022 1129
8 1031 921 1032 1149 1127 1020 1137 1254
8 1134 1027 918 1019 1257 1140 1021 1128
8 1257 1140 1021 1128 1131 1024 916 1017
8 1129 1022 1141 1258 1016 915 1023 1130
8 1130 1023 1142 1259 1018 917 1024 1131
8 1261 1144 1025 1132 1133 1026 1079 1199
8 1255 1138 1025 1132 1135 1028 1144 1261
8 1133 1026 918 1019 1262 1145 1027 1134
8 1136 1029 1139 1256 1263 1146 1028 1135
8 1037 928 1041 1155 1148 1031 1149 1275
8 1041 931 1044 1160 1149 1032 1150 1276
8 1151 1039 939 1057 1278 1156 1055 1180
8 1152 1040 926 1033 1279 1159 1039 1151
8 1153 1038 927 1034 1280 1158 1040 1152
8 1281 1157 1042 1154 1153 1038 929 1035
8 1036 930 1042 1154 1155 1041 1160 1282
8 1283 1164 1046 1159 1156 1047 935 1039
8 1165 1048 1164 1283 1053 937 1047 1156
8 1157 1043 933 1038 1284 1161 1045 1158
8 1157 1043 1161 1284 1042 932 1044 1160
8 1040 934 1046 1159 1158 1045 1163 1285
8 1166 1049 1167 1292 1051 936 1048 1165
8 1166 1049 936 1051 1293 1168 1050 1172
8 1051 936 1052 1175 1172 1050 1173 1306
8 1174 1051 1165 1290 1308 1175 1053 1177
8 1053 937 1054 1178 1175 1052 1176 1309
8 1278 1156 1055 1180 1177 1053 1178 1311
8 1055 938 1056 1181 1178 1054 1179 1312
8 1057 939 1058 1183 1180 1055 1181 1314
8 1058 940 1059 1184 1181 1056 1182 1315
8 1060 942 1061 1185 1183 1058 1184 1316
8 1208 1081 1187 1321 1082 964 1063 1188
8 1209 1082 1188 1322 1097 981 1064 1190
8 1188 1063 1189 1323 1064 947 1065 1191
8 1190 1064 1191 1325 1066 948 1067 1193
8 1191 1065 1192 1326 1067 949 1068 1194
8 1067 1193 1069 950 1194 1327 1195 1070
8 1250 1133 1199 1330 1126 1019 1075 1196
8 1198 1077 1014 1122 1331 1200 1075 1196
8 1074 960 1077 1198 1197 1076 1201 1332
8 1085 980 1076 1197 1215 1099 1201 1332
8 1199 1079 1203 1333 1075 962 1080 1200
8 1132 1025 1119 1243 1199 1079 1203 1333
8 1201 1078 963 1077 1334 1202 1080 1200
8 1099 994 1078 1201 1227 1111 1202 1334
8 1343 1207 1081 1208 1210 1083 964 1082
8 1214 1084 1186 1319 1343 1207 1081 1208
8 1345 1210 1082 1209 1225 1100 981 1097
8 1346 1211 1083 1210 1228 1115 999 1100
8 1086 984 1099 1215 1216 1103 1227 1352
8 1087 985 1103 1216 1217 1104 1230 1353
8 1090 988 1104 1217 1219 1106 1231 1354
8 1218 1105 987 1089 1355 1232 1106 1219
8 1091 991 1105 1218 1220 1109 1232 1355
8 1092 992 1109 1220 1221 1110 1234 1356
8 1222 1108 1233 1357 1095 990 1107 1224
8 1222 1108 993 1093 1357 1233 1110 1221
8 1223 1101 989 1096 1358 1229 1107 1224
8 1226 1102 983 1098 1358 1229 1101 1223
8 1226 1102 1228 1359 1098 983 1100 1225
8 1103 995 1111 1227 1230 1112 1235 1360
8 1107 1002 1117 1233 1229 1116 1240 1362
8 1102 1001 1116 1229 1228 1115 1240 1362
8 1104 996 1112 1230 1231 1113 1236 1363
8 1364 1237 1114 1232 1231 1113 997 1106
8 1109 1005 1114 1232 1234 1118 1238 1365
8 1110 1004 1118 1234 1233 1117 1241 1366
8 1242 1374 1255 1138 1119 1243 1132 1025
8 1244 1127 1254 1376 1121 1015 1129 1245
8 1148 1031 1149 1275 1244 1127 1254 1376
8 1245 1129 1258 1377 1125 1016 1130 1248
8 1251 1134 1019 1126 1378 1257 1128 1246
8 1378 1257 1128 1246 1247 1131 1017 1123
8 1248 1130 1259 1379 1124 1018 1131 1247
8 1261 1381 1250 1133 1132 1249 1330 1199
8 1255 1380 1252 1135 1132 1249 1381 1261
8 1250 1133 1019 1126 1382 1262 1134 1251
8 1253 1136 1256 1385 1384 1263 1135 1252
8 1254 1137 1265 1387 1129 1022 1141 1258
8 1149 1032 1150 1276 1254 1137 1265 1387
8 1028 1135 1255 1138 1139 1256 1388 1266
8 1136 1029 1147 1264 1256 1139 1267 1389
8 1390 1268 1140 1257 1259 1142 1024 1131
8 1260 1143 1027 1134 1390 1268 1140 1257
8 1258 1141 1269 1391 1130 1023 1142 1259
8 1262 1145 1027 1134 1393 1271 1143 1260
8 1261 1144 1026 1133 1394 1272 1145 1262
8 1135 1028 1144 1261 1263 1146 1272 1394
8 1136 1029 1146 1263 1264 1147 1273 1395
8 1155 1041 1160 1282 1275 1149 1276 1405
8 1276 1150 1044 1160 1406 1277 1162 1286
8 1408 1283 1159 1279 1278 1156 1039 1151
8 1290 1165 1283 1408 1177 1053 1156 1278
8 1152 1040 1159 1279 1280 1158 1285 1409
8 1281 1157 1038 1153 1410 1284 1158 1280
8 1281 1157 1284 1410 1154 1042 1160 1282
8 1159 1046 1164 1283 1285 1163 1289 1412
8 1292 1167 1289 1412 1165 1048 1164 1283
8 1158 1045 1163 1285 1284 1161 1288 1413
8 1284 1161 1288 1413 1160 1044 1162 1286
8 1291 1166 1292 1418 1174 1051 1165 1290
8 1291 1166 1051 1174 1419 1293 1172 1305
8 1294 1169 1296 1421 1166 1049 1167 1292
8 1293 1168 1050 1172 1422 1295 1171 1303
8 1294 1169 1049 1166 1423 1297 1168 1293
8 1422 1295 1171 1303 1301 1170 1302 1435
8 1172 1050 1173 1306 1303 1171 1304 1438
8 1174 1051 1175 1308 1305 1172 1306 1440
8 1175 1052 1176 1309 1306 1173 1307 1441
8 1177 1053 1178 1311 1308 1175 1309 1443
8 1178 1054 1179 1312 1309 1176 1310 1444
8 1180 1055 1181 1314 1311 1178 1312 1446
8 1056 1181 1312 1179 1182 1315 1447 1313
8 1183 1058 1184 1316 1314 1181 1315 1448
8 1319 1186 1084 1214 1451 1317 1213 1350
8 1319 1186 1318 1453 1208 1081 1187 1321
8 1321 1187 1320 1456 1188 1063 1189 1323
8 1344 1208 1321 1457 1209 1082 1188 1322
8 1322 1188 1323 1458 1190 1064 1191 1325
8 1323 1189 1324 1459 1191 1065 1192 1326
8 1191 1325 1193 1067 1326 1460 1327 1194
8 1242 1374 1243 1119 1328 1462 1335 1204
8 1330 1199 1333 1465 1196 1075 1200 1331
8 1132 1249 1330 1199 1243 1375 1465 1333
8 1332 1201 1077 1198 1466 1334 1200 1331
8 1215 1099 1201 1332 1352 1227 1334 1466
8 1119 1243 1333 1203 1204 1335 1470 1338
8 1333 1203 1338 1470 1200 1080 1202 1334
8 1227 1111 1202 1334 1360 1235 1338 1470
8 1328 1462 1335 1204 1205 1336 1471 1339
8 1337 1206 1340 1472 1464 1329 1205 1336
8 1346 1211 1342 1479 1210 1083 1207 1343
8 1346 1211 1115 1228 1479 1342 1239 1361
8 1348 1212 1084 1214 1479 1342 1207 1343
8 1480 1343 1208 1344 1345 1210 1082 1209
8 1351 1214 1319 1454 1480 1343 1208 1344
8 1481 1346 1210 1345 1359 1228 1100 1225
8 1348 1212 1347 1483 1214 1084 1213 1350
8 1216 1103 1227 1352 1353 1230 1360 1488
8 1217 1104 1230 1353 1354 1231 1363 1489
8 1490 1364 1232 1355 1354 1231 1106 1219
8 1220 1109 1232 1355 1356 1234 1365 1491
8 1221 1110 1234 1356 1357 1233 1366 1492
8 1224 1107 1233 1357 1358 1229 1362 1493
8 1226 1102 1229 1358 1359 1228 1362 1493
8 1230 1112 1235 1360 1363 1236 1367 1496
8 1361 1239 1115 1228 1497 1371 1240 1362
8 1366 1241 1372 1498 1233 1117 1240 1362
8 1364 1237 1113 1231 1499 1368 1236 1363
8 1364 1237 1368 1499 1232 1114 1238 1365
8 1234 1118 1238 1365 1366 1241 1369 1500
8 1507 1373 1242 1374 1388 1266 1138 1255
8 1508 1374 1243 1375 1380 1255 1132 1249
8 1376 1254 1387 1509 1245 1129 1258 1377
8 1275 1149 1276 1405 1376 1254 1387 1509
8 1377 1258 1391 1510 1248 1130 1259 1379
8 1511 1390 1257 1378 1379 1259 1131 1247
8 1383 1260 1134 1251 1511 1390 1257 1378
8 1252 1135 1256 1385 1380 1255 1388 1512
8 1261 1381 1513 1394 1133 1250 1382 1262
8 1135 1252 1384 1263 1261 1381 1513 1394
8 1382 1262 1134 1251 1514 1393 1260 1383
8 1253 1136 1263 1384 1386 1264 1395 1516
8 1253 1136 1264 1386 1385 1256 1389 1517
8 1387 1265 1397 1519 1258 1141 1269 1391
8 1276 1150 1277 1406 1387 1265 1397 1519
8 1256 1139 1267 1389 1388 1266 1398 1520
8 1264 1147 1274 1396 1389 1267 1399 1521
8 1392 1270 1143 1260 1522 1400 1268 1390
8 1390 1268 1142 1259 1522 1400 1269 1391
8 1392 1270 1401 1523 1260 1143 1271 1393
8 1272 1394 1524 1402 1145 1262 1393 1271
8 1395 1273 1146 1263 1524 1402 1272 1394
8 1273 1395 1264 1147 1403 1526 1396 1274
8 1405 1276 1160 1282 1534 1406 1286 1411
8 1414 1287 1407 1535 1286 1162 1277 1406
8 1279 1159 1283 1408 1409 1285 1412 1537
8 1418 1292 1412 1537 1290 1165 1283 1408
8 1280 1158 1285 1409 1410 1284 1413 1538
8 1410 1284 1413 1538 1282 1160 1286 1411
8 1285 1163 1289 1412 1413 1288 1417 1540
8 1421 1296 1417 1540 1292 1167 1289 1412
8 1414 1287 1162 1286 1541 1416 1288 1413
8 1420 1294 1421 1545 1291 1166 1292 1418
8 1419 1293 1172 1305 1546 1422 1303 1437
8 1420 1294 1166 1291 1547 1423 1293 1419
8 1294 1169 1297 1423 1421 1296 1425 1548
8 1423 1297 1168 1293 1549 1424 1295 1422
8 1301 1170 1298 1427 1422 1295 1424 1549
8 1432 1300 1428 1554 1301 1170 1298 1427
8 1431 1299 1428 1554 1560 1430 1300 1432
8 1563 1433 1300 1432 1435 1302 1170 1301
8 1546 1422 1303 1437 1434 1301 1435 1565
8 1303 1171 1304 1438 1435 1302 1436 1566
8 1305 1172 1306 1440 1437 1303 1438 1568
8 1306 1173 1307 1441 1438 1304 1439 1569
8 1308 1175 1309 1443 1440 1306 1441 1571
8 1309 1176 1310 1444 1441 1307 1442 1572
8 1311 1178 1312 1446 1443 1309 1444 1574
8 1179 1312 1444 1310 1313 1447 1575 1445
8 1314 1181 1315 1448 1446 1312 1447 1576
8 1350 1213 1349 1486 1451 1317 1449 1579
8 1451 1317 1450 1581 1319 1186 1318 1453
8 1454 1319 1214 1351 1582 1451 1350 1487
8 1453 1318 1452 1584 1321 1187 1320 1456
8 1454 1319 1453 1585 1344 1208 1321 1457
8 1456 1320 1455 1586 1323 1189 1324 1459
8 1457 1321 1456 1587 1322 1188 1323 1458
8 1458 1323 1459 1588 1325 1191 1326 1460
8 1205 1336 1464 1329 1328 1462 1590 1461
8 1507 1373 1461 1590 1374 1242 1328 1462
8 1508 1374 1462 1591 1375 1243 1335 1467
8 1337 1206 1329 1464 1473 1341 1463 1594
8 1375 1243 1335 1467 1465 1333 1470 1596
8 1465 1333 1470 1596 1331 1200 1334 1466
8 1352 1227 1334 1466 1488 1360 1470 1596
8 1591 1462 1336 1468 1467 1335 1471 1597
8 1469 1337 1472 1598 1595 1464 1336 1468
8 1471 1339 1474 1600 1335 1204 1338 1470
8 1600 1474 1367 1496 1470 1338 1235 1360
8 1336 1205 1340 1472 1471 1339 1475 1601
8 1337 1206 1341 1473 1472 1340 1476 1602
8 1495 1370 1478 1609 1361 1239 1342 1479
8 1348 1212 1342 1479 1483 1347 1478 1609
8 1481 1346 1479 1610 1345 1210 1343 1480
8 1481 1346 1228 1359 1610 1479 1361 1494
8 1484 1348 1214 1351 1610 1479 1343 1480
8 1483 1347 1482 1612 1350 1213 1349 1486
8 1484 1348 1483 1613 1351 1214 1350 1487
8 1353 1230 1360 1488 1489 1363 1496 1616
8 1490 1364 1231 1354 1617 1499 1363 1489
8 1490 1364 1499 1617 1355 1232 1365 1491
8 1356 1234 1365 1491 1492 1366 1500 1619
8 1492 1366 1498 1620 1357 1233 1362 1493
8 1494 1361 1228 1359 1621 1497 1362 1493
8 1495 1370 1239 1361 1622 1504 1371 1497
8 1363 1236 1367 1496 1499 1368 1501 1623
8 1497 1371 1240 1362 1624 1505 1372 1498
8 1625 1503 1372 1498 1500 1369 1241 1366
8 1365 1238 1368 1499 1500 1369 1502 1626
8 1520 1398 1506 1633 1388 1266 1373 1507
8 1634 1507 1374 1508 1512 1388 1255 1380
8 1509 1387 1519 1635 1377 1258 1391 1510
8 1405 1276 1406 1534 1509 1387 1519 1635
8 1515 1392 1260 1383 1636 1522 1390 1511
8 1511 1390 1259 1379 1636 1522 1391 1510
8 1385 1256 1389 1517 1512 1388 1520 1637
8 1513 1394 1262 1382 1638 1524 1393 1514
8 1395 1516 1638 1524 1263 1384 1513 1394
8 1515 1392 1523 1639 1383 1260 1393 1514
8 1516 1395 1526 1640 1386 1264 1396 1518
8 1386 1264 1396 1518 1517 1389 1521 1641
8 1519 1397 1527 1643 1391 1269 1400 1522
8 1535 1407 1527 1643 1406 1277 1397 1519
8 1389 1267 1399 1521 1520 1398 1528 1644
8 1645 1529 1399 1521 1525 1404 1274 1396
8 1392 1270 1400 1522 1523 1401 1531 1646
8 1524 1402 1271 1393 1648 1532 1401 1523
8 1403 1526 1648 1532 1273 1395 1524 1402
8 1525 1404 1274 1396 1649 1533 1403 1526
8 1539 1414 1535 1657 1411 1286 1406 1534
8 1542 1415 1536 1658 1414 1287 1407 1535
8 1409 1285 1412 1537 1538 1413 1540 1660
8 1545 1421 1540 1660 1418 1292 1412 1537
8 1539 1414 1286 1411 1661 1541 1413 1538
8 1540 1417 1544 1663 1413 1288 1416 1541
8 1421 1296 1425 1548 1540 1417 1544 1663
8 1542 1415 1287 1414 1664 1543 1416 1541
8 1420 1294 1423 1547 1545 1421 1548 1666
8 1547 1423 1293 1419 1667 1549 1422 1546
8 1434 1301 1427 1553 1546 1422 1549 1667
8 1423 1297 1424 1549 1548 1425 1550 1668
8 1551 1426 1550 1668 1427 1298 1424 1549
8 1551 1426 1298 1427 1671 1552 1428 1554
8 1562 1432 1554 1674 1434 1301 1427 1553
8 1431 1299 1429 1558 1554 1428 1555 1675
8 1431 1299 1430 1560 1558 1429 1557 1680
8 1560 1430 1300 1432 1683 1559 1433 1563
8 1561 1431 1554 1674 1684 1560 1432 1562
8 1685 1563 1432 1562 1565 1435 1301 1434
8 1435 1302 1436 1566 1563 1433 1564 1686
8 1437 1303 1438 1568 1565 1435 1566 1688
8 1438 1304 1439 1569 1566 1436 1567 1689
8 1440 1306 1441 1571 1568 1438 1569 1691
8 1441 1307 1442 1572 1569 1439 1570 1692
8 1443 1309 1444 1574 1571 1441 1572 1694
8 1310 1444 1572 1442 1445 1575 1695 1573
8 1446 1312 1447 1576 1574 1444 1575 1696
8 1486 1349 1485 1614 1579 1449 1577 1699
8 1451 1317 1449 1579 1581 1450 1578 1701
8 1487 1350 1486 1615 1582 1451 1579 1702
8 1581 1450 1580 1704 1453 1318 1452 1584
8 1582 1451 1581 1705 1454 1319 1453 1585
8 1584 1452 1583 1706 1456 1320 1455 1586
8 1585 1453 1584 1707 1457 1321 1456 1587
8 1587 1456 1586 1708 1458 1323 1459 1588
8 1633 1506 1589 1710 1507 1373 1461 1590
8 1464 1329 1461 1590 1594 1463 1589 1710
8 1468 1336 1462 1591 1595 1464 1590 1711
8 1634 1507 1590 1711 1508 1374 1462 1591
8 1473 1341 1463 1594 1603 1477 1593 1716
8 1469 1337 1464 1595 1599 1473 1594 1717
8 1471 1597 1467 1335 1600 1718 1596 1470
8 1718 1600 1496 1616 1596 1470 1360 1488
8 1336 1468 1597 1471 1472 1598 1719 1601
8 1469 1337 1473 1599 1598 1472 1602 1720
8 1722 1604 1501 1623 1600 1474 1367 1496
8 1475 1601 1471 1339 1604 1722 1600 1474
8 1602 1476 1605 1723 1472 1340 1475 1601
8 1476 1602 1724 1606 1341 1473 1603 1477
8 1483 1347 1478 1609 1612 1482 1608 1731
8 1495 1370 1504 1622 1609 1478 1608 1731
8 1618 1495 1609 1732 1494 1361 1479 1610
8 1484 1348 1479 1610 1613 1483 1609 1732
8 1486 1349 1482 1612 1614 1485 1611 1733
8 1613 1483 1612 1734 1487 1350 1486 1615
8 1489 1363 1496 1616 1617 1499 1623 1736
8 1491 1365 1499 1617 1619 1500 1626 1737
8 1618 1495 1361 1494 1738 1622 1497 1621
8 1739 1625 1498 1620 1619 1500 1366 1492
8 1621 1497 1362 1493 1740 1624 1498 1620
8 1742 1631 1504 1622 1624 1505 1371 1497
8 1743 1628 1502 1626 1623 1501 1368 1499
8 1744 1630 1505 1624 1625 1503 1372 1498
8 1745 1629 1503 1625 1626 1502 1369 1500
8 1520 1398 1528 1644 1633 1506 1632 1751
8 1637 1520 1633 1752 1512 1388 1507 1634
8 1635 1519 1643 1753 1510 1391 1522 1636
8 1657 1535 1643 1753 1534 1406 1519 1635
8 1515 1392 1522 1636 1639 1523 1646 1754
8 1517 1389 1521 1641 1637 1520 1644 1755
8 1524 1638 1756 1648 1393 1514 1639 1523
8 1640 1526 1395 1516 1756 1648 1524 1638
8 1642 1525 1396 1518 1757 1649 1526 1640
8 1758 1645 1521 1641 1642 1525 1396 1518
8 1646 1531 1400 1522 1760 1650 1527 1643
8 1535 1407 1536 1658 1643 1527 1650 1760
8 1521 1399 1529 1645 1644 1528 1651 1761
8 1647 1530 1652 1762 1525 1404 1529 1645
8 1401 1523 1648 1532 1531 1646 1763 1655
8 1525 1404 1533 1649 1647 1530 1654 1765
8 1533 1649 1766 1656 1403 1526 1648 1532
8 1662 1542 1658 1774 1539 1414 1535 1657
8 1542 1415 1543 1664 1658 1536 1659 1775
8 1660 1540 1663 1777 1538 1413 1541 1661
8 1545 1421 1548 1666 1660 1540 1663 1777
8 1662 1542 1414 1539 1778 1664 1541 1661
8 1664 1543 1416 1541 1779 1665 1544 1663
8 1548 1425 1550 1668 1663 1544 1665 1779
8 1547 1423 1549 1667 1666 1548 1668 1781
8 1670 1551 1668 1781 1553 1427 1549 1667
8 1551 1426 1552 1671 1668 1550 1669 1782
8 1670 1551 1427 1553 1784 1671 1554 1674
8 1675 1555 1672 1785 1554 1428 1552 1671
8 1678 1556 1673 1789 1558 1429 1555 1675
8 1561 1431 1558 1681 1674 1554 1675 1790
8 1794 1677 1556 1678 1680 1557 1429 1558
8 1560 1430 1559 1683 1680 1557 1679 1797
8 1561 1431 1560 1684 1681 1558 1680 1798
8 1563 1433 1564 1686 1683 1559 1682 1800
8 1684 1560 1432 1562 1801 1683 1563 1685
8 1565 1435 1566 1688 1685 1563 1686 1802
8 1566 1436 1567 1689 1686 1564 1687 1803
8 1568 1438 1569 1691 1688 1566 1689 1805
8 1569 1439 1570 1692 1689 1567 1690 1806
8 1571 1441 1572 1694 1691 1569 1692 1808
8 1442 1572 1692 1570 1573 1695 1809 1693
8 1574 1444 1575 1696 1694 1572 1695 1810
8 1614 1485 1592 1712 1699 1577 1697 1813
8 1579 1449 1577 1699 1701 1578 1698 1815
8 1615 1486 1614 1735 1702 1579 1699 1816
8 1701 1578 1700 1818 1581 1450 1580 1704
8 1582 1451 1579 1702 1705 1581 1701 1819
8 1704 1580 1703 1820 1584 1452 1583 1706
8 1705 1581 1704 1821 1585 1453 1584 1707
8 1707 1584 1706 1822 1587 1456 1586 1708
8 1710 1589 1506 1633 1824 1709 1632 1751
8 1594 1463 1589 1710 1716 1593 1709 1824
8 1752 1633 1710 1825 1634 1507 1590 1711
8 1595 1464 1590 1711 1717 1594 1710 1825
8 1830 1714 1592 1712 1733 1611 1485 1614
8 1603 1477 1593 1716 1725 1607 1715 1834
8 1599 1473 1594 1717 1721 1603 1716 1835
8 1837 1722 1623 1736 1718 1600 1496 1616
8 1719 1601 1722 1837 1597 1471 1600 1718
8 1602 1720 1598 1472 1723 1838 1719 1601
8 1720 1602 1473 1599 1839 1724 1603 1721
8 1723 1605 1726 1840 1601 1475 1604 1722
8 1840 1726 1628 1743 1722 1604 1501 1623
8 1724 1606 1727 1841 1602 1476 1605 1723
8 1725 1607 1728 1842 1603 1477 1606 1724
8 1612 1482 1608 1731 1733 1611 1730 1849
8 1741 1627 1730 1849 1622 1504 1608 1731
8 1613 1483 1609 1732 1734 1612 1731 1850
8 1618 1495 1622 1738 1732 1609 1731 1850
8 1615 1486 1612 1734 1735 1614 1733 1851
8 1852 1743 1626 1737 1736 1623 1499 1617
8 1853 1745 1625 1739 1737 1626 1500 1619
8 1855 1742 1622 1738 1740 1624 1497 1621
8 1856 1744 1624 1740 1739 1625 1498 1620
8 1741 1627 1504 1622 1857 1746 1631 1742
8 1742 1631 1505 1624 1858 1749 1630 1744
8 1859 1747 1629 1745 1743 1628 1502 1626
8 1860 1748 1630 1744 1745 1629 1503 1625
8 1644 1528 1651 1761 1751 1632 1750 1865
8 1637 1520 1644 1755 1752 1633 1751 1866
8 1754 1646 1522 1636 1867 1760 1643 1753
8 1657 1535 1658 1774 1753 1643 1760 1867
8 1639 1523 1646 1754 1756 1648 1763 1868
8 1641 1521 1645 1758 1755 1644 1761 1869
8 1757 1649 1526 1640 1870 1766 1648 1756
8 1642 1525 1649 1757 1759 1647 1765 1871
8 1759 1647 1762 1872 1642 1525 1645 1758
8 1760 1650 1767 1874 1646 1531 1655 1763
8 1658 1536 1659 1775 1760 1650 1767 1874
8 1762 1652 1768 1875 1645 1529 1651 1761
8 1764 1653 1769 1876 1647 1530 1652 1762
8 1656 1766 1877 1773 1532 1648 1763 1655
8 1771 1879 1765 1654 1653 1764 1647 1530
8 1533 1649 1765 1654 1656 1766 1880 1772
8 1662 1542 1664 1778 1774 1658 1775 1887
8 1664 1543 1665 1779 1775 1659 1776 1888
8 1778 1664 1541 1661 1890 1779 1663 1777
8 1666 1548 1668 1781 1777 1663 1779 1890
8 1782 1669 1780 1891 1668 1550 1665 1779
8 1670 1551 1671 1784 1781 1668 1782 1893
8 1671 1552 1672 1785 1782 1669 1783 1894
8 1790 1675 1785 1896 1674 1554 1671 1784
8 1675 1555 1673 1789 1785 1672 1786 1897
8 1792 1676 1788 1903 1678 1556 1673 1789
8 1795 1678 1789 1904 1681 1558 1675 1790
8 1792 1676 1556 1678 1906 1791 1677 1794
8 1680 1557 1679 1797 1794 1677 1793 1909
8 1910 1794 1678 1795 1798 1680 1558 1681
8 1683 1559 1682 1800 1797 1679 1796 1912
8 1684 1560 1683 1801 1798 1680 1797 1913
8 1686 1564 1687 1803 1800 1682 1799 1915
8 1685 1563 1686 1802 1801 1683 1800 1916
8 1688 1566 1689 1805 1802 1686 1803 1917
8 1689 1567 1690 1806 1803 1687 1804 1918
8 1691 1569 1692 1808 1805 1689 1806 1920
8 1692 1570 1693 1809 1806 1690 1807 1921
8 1694 1572 1695 1810 1808 1692 1809 1922
8 1829 1713 1811 1926 1712 1592 1697 1813
8 1813 1697 1812 1928 1699 1577 1698 1815
8 1735 1614 1712 1828 1816 1699 1813 1929
8 1815 1698 1814 1931 1701 1578 1700 1818
8 1702 1579 1699 1816 1819 1701 1815 1932
8 1818 1700 1817 1933 1704 1580 1703 1820
8 1819 1701 1818 1934 1705 1581 1704 1821
8 1821 1704 1820 1935 1707 1584 1706 1822
8 1824 1709 1632 1751 1937 1823 1750 1865
8 1716 1593 1709 1824 1834 1715 1823 1937
8 1825 1710 1633 1752 1938 1824 1751 1866
8 1717 1594 1710 1825 1835 1716 1824 1938
8 1945 1830 1712 1828 1851 1733 1614 1735
8 1830 1714 1831 1946 1712 1592 1713 1829
8 1947 1832 1714 1830 1849 1730 1611 1733
8 1843 1729 1607 1725 1950 1833 1715 1834
8 1721 1603 1716 1835 1836 1725 1834 1951
8 1836 1725 1842 1953 1721 1603 1724 1839
8 1723 1838 1719 1601 1840 1954 1837 1722
8 1954 1840 1743 1852 1837 1722 1623 1736
8 1724 1839 1720 1602 1841 1955 1838 1723
8 1841 1727 1844 1956 1723 1605 1726 1840
8 1956 1844 1747 1859 1840 1726 1628 1743
8 1728 1842 1724 1606 1845 1957 1841 1727
8 1725 1607 1729 1843 1842 1728 1846 1958
8 1741 1627 1746 1857 1849 1730 1848 1965
8 1734 1612 1731 1850 1851 1733 1849 1966
8 1854 1741 1849 1966 1738 1622 1731 1850
8 1967 1859 1745 1853 1852 1743 1626 1737
8 1968 1860 1744 1856 1853 1745 1625 1739
8 1854 1741 1622 1738 1969 1857 1742 1855
8 1855 1742 1624 1740 1970 1858 1744 1856
8 1857 1746 1631 1742 1971 1861 1749 1858
8 1858 1749 1630 1744 1972 1863 1748 1860
8 1859 1747 1862 1973 1745 1629 1748 1860
8 1875 1768 1864 1977 1761 1651 1750 1865
8 1755 1644 1761 1869 1866 1751 1865 1978
8 1867 1760 1874 1979 1754 1646 1763 1868
8 1774 1658 1775 1887 1867 1760 1874 1979
8 1870 1766 1648 1756 1980 1877 1763 1868
8 1872 1762 1875 1981 1758 1645 1761 1869
8 1757 1649 1766 1870 1871 1765 1880 1982
8 1983 1879 1764 1873 1871 1765 1647 1759
8 1873 1764 1876 1984 1759 1647 1762 1872
8 1877 1773 1655 1763 1986 1881 1767 1874
8 1775 1659 1776 1888 1874 1767 1881 1986
8 1876 1769 1882 1987 1762 1652 1768 1875
8 1878 1770 1883 1988 1764 1653 1769 1876
8 1880 1772 1656 1766 1989 1886 1773 1877
8 1878 1770 1653 1764 1990 1884 1771 1879
8 1765 1654 1772 1880 1879 1771 1885 1991
8 1778 1664 1779 1890 1887 1775 1888 1997
8 1998 1889 1776 1888 1891 1780 1665 1779
8 1893 1782 1891 2000 1781 1668 1779 1890
8 1894 1783 1892 2001 1782 1669 1780 1891
8 1784 1671 1785 1896 1893 1782 1894 2003
8 1897 1786 1895 2004 1785 1672 1783 1894
8 1790 1675 1789 1904 1896 1785 1897 2006
8 1901 1787 1898 2007 1789 1673 1786 1897
8 1903 1788 1900 2013 1789 1673 1787 1901
8 1792 1676 1791 1906 1903 1788 1902 2016
8 1907 1792 1903 2017 1795 1678 1789 1904
8 1906 1791 1677 1794 2019 1905 1793 1909
8 1907 1792 1678 1795 2020 1906 1794 1910
8 1797 1679 1796 1912 1909 1793 1908 2022
8 1798 1680 1797 1913 1910 1794 1909 2023
8 1800 1682 1799 1915 1912 1796 1911 2025
8 1801 1683 1800 1916 1913 1797 1912 2026
8 1803 1687 1804 1918 1915 1799 1914 2028
8 1802 1686 1803 1917 1916 1800 1915 2029
8 1805 1689 1806 1920 1917 1803 1918 2030
8 1806 1690 1807 1921 1918 1804 1919 2031
8 1808 1692 1809 1922 1920 1806 1921 2032
8 1939 1826 1924 2037 1829 1713 1811 1926
8 1926 1811 1925 2039 1813 1697 1812 1928
8 1944 1829 1926 2040 1828 1712 1813 1929
8 1928 1812 1927 2042 1815 1698 1814 1931
8 1929 1813 1928 2043 1816 1699 1815 1932
8 1931 1814 1930 2044 1818 1700 1817 1933
8 1932 1815 1931 2045 1819 1701 1818 1934
8 1934 1818 1933 2046 1821 1704 1820 1935
8 2048 1936 1823 1937 1977 1864 1750 1865
8 1950 1833 1715 1834 2048 1936 1823 1937
8 1938 1824 1751 1866 2049 1937 1865 1978
8 1835 1716 1824 1938 1951 1834 1937 2049
8 1939 1826 1713 1829 2053 1942 1831 1946
8 1940 1827 1923 2035 2053 1942 1826 1939
8 1945 1830 1946 2058 1828 1712 1829 1944
8 2059 1947 1830 1945 1966 1849 1733 1851
8 1947 1832 1730 1849 2060 1948 1848 1965
8 1947 1832 1948 2060 1830 1714 1831 1946
8 1959 1847 1729 1843 2063 1949 1833 1950
8 1952 1843 1725 1836 2064 1950 1834 1951
8 1836 1725 1843 1952 1953 1842 1958 2066
8 1953 1842 1957 2067 1839 1724 1841 1955
8 1841 1955 1838 1723 1956 2068 1954 1840
8 2068 1956 1859 1967 1954 1840 1743 1852
8 1956 1844 1960 2069 1859 1747 1862 1973
8 1845 1957 1841 1727 1960 2069 1956 1844
8 1728 1842 1957 1845 1846 1958 2071 1961
8 1962 2072 1959 1847 1846 1958 1843 1729
8 1971 1861 1964 2077 1857 1746 1848 1965
8 1854 1741 1857 1969 1966 1849 1965 2078
8 1967 1859 1973 2079 1853 1745 1860 1968
8 1970 1858 1744 1856 2080 1972 1860 1968
8 1969 1857 1742 1855 2081 1971 1858 1970
8 1971 1861 1749 1858 2082 1974 1863 1972
8 1973 1862 1975 2083 1860 1748 1863 1972
8 1987 1882 1976 2086 1875 1768 1864 1977
8 1981 1875 1977 2087 1869 1761 1865 1978
8 1980 1877 1763 1868 2088 1986 1874 1979
8 1887 1775 1888 1997 1979 1874 1986 2088
8 1880 1982 2089 1989 1766 1870 1980 1877
8 1984 1876 1987 2090 1872 1762 1875 1981
8 1765 1871 1983 1879 1880 1982 2091 1991
8 1985 1878 1764 1873 2092 1990 1879 1983
8 1985 1878 1988 2093 1873 1764 1876 1984
8 2094 1992 1881 1986 1998 1889 1776 1888
8 1986 1881 1992 2094 1877 1773 1886 1989
8 1988 1883 1993 2095 1876 1769 1882 1987
8 1878 1770 1884 1990 1988 1883 1994 2096
8 1991 1885 1772 1880 2097 1996 1886 1989
8 1879 1771 1885 1991 1990 1884 1995 2098
8 2103 1998 1888 1997 2000 1891 1779 1890
8 2104 1999 1889 1998 2001 1892 1780 1891
8 2003 1894 2001 2106 1893 1782 1891 2000
8 2004 1895 2002 2107 1894 1783 1892 2001
8 2006 1897 2004 2109 1896 1785 1894 2003
8 2007 1898 2005 2110 1897 1786 1895 2004
8 2014 1901 2007 2112 1904 1789 1897 2006
8 2011 1899 2008 2113 1901 1787 1898 2007
8 2119 2010 1899 2011 2013 1900 1787 1901
8 2016 1902 2012 2122 1903 1788 1900 2013
8 2017 1903 2013 2123 1904 1789 1901 2014
8 1906 1791 1905 2019 2016 1902 2015 2125
8 1907 1792 1906 2020 2017 1903 2016 2126
8 1909 1793 1908 2022 2019 1905 2018 2128
8 2020 1906 1794 1910 2129 2019 1909 2023
8 1912 1796 1911 2025 2022 1908 2021 2131
8 1913 1797 1912 2026 2023 1909 2022 2132
8 1915 1799 1914 2028 2025 1911 2024 2134
8 1916 1800 1915 2029 2026 1912 2025 2135
8 1918 1804 1919 2031 2028 1914 2027 2136
8 1917 1803 1918 2030 2029 1915 2028 2137
8 1920 1806 1921 2032 2030 1918 2031 2138
8 1940 1827 1941 2054 2035 1923 2033 2140
8 2035 1923 2034 2143 1939 1826 1924 2037
8 2037 1924 2036 2146 1926 1811 1925 2039
8 2051 1939 2037 2147 1944 1829 1926 2040
8 2039 1925 2038 2149 1928 1812 1927 2042
8 2040 1926 2039 2150 1929 1813 1928 2043
8 2042 1927 2041 2151 1931 1814 1930 2044
8 2043 1928 2042 2152 1932 1815 1931 2045
8 2045 1931 2044 2153 1934 1818 1933 2046
8 2155 2047 1936 2048 2086 1976 1864 1977
8 2063 1949 1833 1950 2155 2047 1936 2048
8 2156 2048 1937 2049 2087 1977 1865 1978
8 2064 1950 1834 1951 2156 2048 1937 2049
8 2051 1939 1829 1944 2160 2053 1946 2058
8 2052 1940 2035 2144 2160 2053 1939 2051
8 2053 1942 1831 1946 2163 2057 1948 2060
8 2055 1943 1827 1940 2163 2057 1942 2053
8 2055 1943 2056 2164 1940 1827 1941 2054
8 2059 1947 1849 1966 2167 2060 1965 2078
8 2059 1947 2060 2167 1945 1830 1946 2058
8 2077 1964 2061 2168 1965 1848 1948 2060
8 2070 1963 1847 1959 2170 2062 1949 2063
8 2065 1959 1843 1952 2171 2063 1950 2064
8 2173 2072 1958 2066 2065 1959 1843 1952
8 1953 1842 1958 2066 2067 1957 2071 2174
8 2068 1956 2069 2175 1967 1859 1973 2079
8 2067 1957 2069 2175 1955 1841 1956 2068
8 1845 1957 2069 1960 1961 2071 2176 2073
8 2069 1960 2073 2176 1973 1862 1975 2083
8 2070 1963 2075 2177 1959 1847 1962 2072
8 1846 1958 2071 1961 1962 2072 2178 2074
8 2077 1964 1861 1971 2182 2076 1974 2082
8 2081 1971 2077 2183 1969 1857 1965 2078
8 2079 1973 2083 2184 1968 1860 1972 2080
8 2081 1971 1858 1970 2185 2082 1972 2080
8 2083 1975 2084 2186 1972 1863 1974 2082
8 2086 1976 1882 1987 2189 2085 1993 2095
8 2090 1987 2086 2190 1981 1875 1977 2087
8 2191 2094 1986 2088 2103 1998 1888 1997
8 2088 1986 2094 2191 1980 1877 1989 2089
8 1991 2091 2192 2097 1880 1982 2089 1989
8 2093 1988 2095 2193 1984 1876 1987 2090
8 1879 1983 2092 1990 1991 2091 2194 2098
8 1985 1878 1990 2092 2093 1988 2096 2195
8 2097 1996 1886 1989 2196 2099 1992 2094
8 2196 2099 1992 2094 2104 1999 1889 1998
8 1994 2096 1988 1883 2100 2197 2095 1993
8 2096 1994 1884 1990 2198 2101 1995 2098
8 1995 2098 2199 2102 1885 1991 2097 1996
8 2203 2104 1998 2103 2106 2001 1891 2000
8 2107 2002 2105 2204 2001 1892 1999 2104
8 2109 2004 2107 2206 2003 1894 2001 2106
8 2110 2005 2108 2207 2004 1895 2002 2107
8 2112 2007 2110 2209 2006 1897 2004 2109
8 2113 2008 2111 2210 2007 1898 2005 2110
8 2120 2011 2113 2212 2014 1901 2007 2112
8 2117 2009 2114 2213 2011 1899 2008 2113
8 2219 2116 2009 2117 2119 2010 1899 2011
8 2222 2118 2010 2119 2122 2012 1900 2013
8 2223 2119 2011 2120 2123 2013 1901 2014
8 2016 1902 2015 2125 2122 2012 2121 2225
8 2126 2016 2122 2226 2017 1903 2013 2123
8 2019 1905 2018 2128 2125 2015 2124 2228
8 2020 1906 2019 2129 2126 2016 2125 2229
8 2022 1908 2021 2131 2128 2018 2127 2231
8 2023 1909 2022 2132 2129 2019 2128 2232
8 2025 1911 2024 2134 2131 2021 2130 2234
8 2026 1912 2025 2135 2132 2022 2131 2235
8 1914 2028 2134 2024 2027 2136 2236 2133
8 2029 1915 2028 2137 2135 2025 2134 2237
8 2030 1918 2031 2138 2137 2028 2136 2238
8 2157 2050 2139 2240 2054 1941 2033 2140
8 2052 1940 2054 2161 2144 2035 2140 2242
8 2140 2033 2141 2243 2035 1923 2034 2143
8 2143 2034 2142 2246 2037 1924 2036 2146
8 2144 2035 2143 2247 2051 1939 2037 2147
8 2146 2036 2145 2249 2039 1925 2038 2149
8 2147 2037 2146 2250 2040 1926 2039 2150
8 2149 2038 2148 2251 2042 1927 2041 2151
8 2150 2039 2149 2252 2043 1928 2042 2152
8 2152 2042 2151 2253 2045 1931 2044 2153
8 2255 2154 2047 2155 2189 2085 1976 2086
8 2170 2062 1949 2063 2255 2154 2047 2155
8 2256 2155 2048 2156 2190 2086 1977 2087
8 2171 2063 1950 2064 2256 2155 2048 2156
8 2258 2159 2050 2157 2164 2056 1941 2054
8 2160 2053 1946 2058 2262 2163 2060 2167
8 2162 2055 1940 2052 2262 2163 2053 2160
8 2162 2055 2164 2263 2052 1940 2054 2161
8 2163 2057 1948 2060 2264 2165 2061 2168
8 2055 1943 2057 2163 2164 2056 2165 2264
8 2182 2076 2166 2268 2077 1964 2061 2168
8 2183 2077 2168 2269 2078 1965 2060 2167
8 2070 1963 2062 2170 2177 2075 2169 2271
8 2172 2070 1959 2065 2272 2170 2063 2171
8 2172 2070 2177 2273 2065 1959 2072 2173
8 2066 1958 2072 2173 2174 2071 2178 2274
8 2067 1957 2071 2174 2175 2069 2176 2275
8 2175 2069 2176 2275 2079 1973 2083 2184
8 2071 1961 2074 2178 2176 2073 2179 2276
8 2176 2073 2179 2276 2083 1975 2084 2186
8 2072 1962 2075 2177 2178 2074 2180 2277
8 2182 2076 1974 2082 2280 2181 2084 2186
8 2183 2077 1971 2081 2281 2182 2082 2185
8 2184 2083 2186 2282 2080 1972 2082 2185
8 2189 2085 1993 2095 2285 2188 2100 2197
8 2190 2086 1987 2090 2286 2189 2095 2193
8 2192 2097 1989 2089 2287 2196 2094 2191
8 2287 2196 2094 2191 2203 2104 1998 2103
8 2194 2098 1991 2091 2288 2199 2097 2192
8 2195 2096 2197 2289 2093 1988 2095 2193
8 2096 2195 2290 2198 1990 2092 2194 2098
8 2097 1996 2099 2196 2199 2102 2200 2291
8 2196 2099 1999 2104 2291 2200 2105 2204
8 2100 2197 2292 2201 1994 2096 2198 2101
8 1995 2098 2198 2101 2102 2199 2293 2202
8 2206 2107 2204 2296 2106 2001 2104 2203
8 2207 2108 2205 2297 2107 2002 2105 2204
8 2209 2110 2207 2299 2109 2004 2107 2206
8 2210 2111 2208 2300 2110 2005 2108 2207
8 2212 2113 2210 2302 2112 2007 2110 2209
8 2213 2114 2211 2303 2113 2008 2111 2210
8 2220 2117 2213 2305 2120 2011 2113 2212
8 2216 2115 2214 2306 2117 2009 2114 2213
8 2216 2115 2009 2117 2311 2217 2116 2219
8 2219 2116 2010 2119 2314 2218 2118 2222
8 2315 2219 2117 2220 2223 2119 2011 2120
8 2122 2012 2121 2225 2222 2118 2221 2317
8 2318 2222 2119 2223 2226 2122 2013 2123
8 2125 2015 2124 2228 2225 2121 2224 2320
8 2126 2016 2125 2229 2226 2122 2225 2321
8 2128 2018 2127 2231 2228 2124 2227 2323
8 2129 2019 2128 2232 2229 2125 2228 2324
8 2131 2021 2130 2234 2231 2127 2230 2326
8 2132 2022 2131 2235 2232 2128 2231 2327
8 2134 2024 2133 2236 2234 2130 2233 2328
8 2135 2025 2134 2237 2235 2131 2234 2329
8 2137 2028 2136 2238 2237 2134 2236 2330
8 2157 2050 2158 2259 2240 2139 2239 2332
8 2257 2157 2240 2334 2161 2054 2140 2242
8 2240 2139 2241 2335 2140 2033 2141 2243
8 2242 2140 2243 2337 2144 2035 2143 2247
8 2243 2141 2244 2338 2143 2034 2142 2246
8 2246 2142 2245 2341 2146 2036 2145 2249
8 2247 2143 2246 2342 2147 2037 2146 2250
8 2249 2145 2248 2343 2149 2038 2148 2251
8 2250 2146 2249 2344 2150 2039 2149 2252
8 2252 2149 2251 2345 2152 2042 2151 2253
8 2169 2271 2347 2254 2062 2170 2255 2154
8 2189 2085 2188 2285 2255 2154 2254 2347
8 2348 2255 2155 2256 2286 2189 2086 2190
8 2272 2170 2063 2171 2348 2255 2155 2256
8 2349 2258 2157 2257 2263 2164 2054 2161
8 2258 2159 2261 2351 2157 2050 2158 2259
8 2258 2159 2056 2164 2351 2261 2165 2264
8 2262 2163 2060 2167 2355 2264 2168 2269
8 2162 2055 2163 2262 2263 2164 2264 2355
8 2357 2266 2165 2264 2268 2166 2061 2168
8 2268 2166 2076 2182 2361 2267 2181 2280
8 2281 2182 2268 2362 2183 2077 2168 2269
8 2271 2169 2270 2364 2177 2075 2180 2277
8 2172 2070 2170 2272 2273 2177 2271 2365
8 2072 2173 2274 2178 2177 2273 2366 2277
8 2071 2174 2275 2176 2178 2274 2367 2276
8 2275 2176 2276 2367 2184 2083 2186 2282
8 2283 2187 2084 2186 2368 2278 2179 2276
8 2178 2074 2180 2277 2276 2179 2278 2368
8 2283 2187 2279 2370 2186 2084 2181 2280
8 2281 2182 2082 2185 2371 2280 2186 2282
8 2188 2285 2374 2284 2100 2197 2292 2201
8 2286 2189 2095 2193 2375 2285 2197 2289
8 2192 2097 2196 2287 2288 2199 2291 2376
8 2287 2196 2104 2203 2376 2291 2204 2296
8 2194 2098 2199 2288 2290 2198 2293 2377
8 2289 2197 2096 2195 2378 2292 2198 2290
8 2291 2200 2105 2204 2379 2294 2205 2297
8 2199 2102 2200 2291 2293 2202 2294 2379
8 2198 2101 2202 2293 2292 2201 2295 2380
8 2299 2207 2297 2383 2206 2107 2204 2296
8 2300 2208 2298 2384 2207 2108 2205 2297
8 2302 2210 2300 2386 2209 2110 2207 2299
8 2303 2211 2301 2387 2210 2111 2208 2300
8 2305 2213 2303 2389 2212 2113 2210 2302
8 2306 2214 2304 2390 2213 2114 2211 2303
8 2310 2216 2306 2392 2220 2117 2213 2305
8 2308 2215 2307 2393 2216 2115 2214 2306
8 2308 2215 2115 2216 2396 2309 2217 2311
8 2310 2216 2117 2220 2398 2311 2219 2315
8 2311 2217 2116 2219 2399 2312 2218 2314
8 2314 2218 2118 2222 2402 2313 2221 2317
8 2315 2219 2119 2223 2403 2314 2222 2318
8 2225 2121 2224 2320 2317 2221 2316 2405
8 2226 2122 2225 2321 2318 2222 2317 2406
8 2228 2124 2227 2323 2320 2224 2319 2408
8 2229 2125 2228 2324 2321 2225 2320 2409
8 2231 2127 2230 2326 2323 2227 2322 2411
8 2232 2128 2231 2327 2324 2228 2323 2412
8 2234 2130 2233 2328 2326 2230 2325 2413
8 2235 2131 2234 2329 2327 2231 2326 2414
8 2237 2134 2236 2330 2329 2234 2328 2415
8 2259 2158 2260 2352 2332 2239 2331 2417
8 2257 2157 2259 2350 2334 2240 2332 2419
8 2240 2139 2239 2332 2335 2241 2333 2420
8 2334 2240 2335 2422 2242 2140 2243 2337
8 2335 2241 2336 2423 2243 2141 2244 2338
8 2337 2243 2338 2425 2247 2143 2246 2342
8 2338 2244 2339 2426 2246 2142 2245 2341
8 2341 2245 2340 2428 2249 2145 2248 2343
8 2342 2246 2341 2429 2250 2146 2249 2344
8 2344 2249 2343 2430 2252 2149 2251 2345
8 2188 2285 2347 2254 2284 2374 2432 2346
8 2347 2254 2346 2432 2271 2169 2270 2364
8 2365 2271 2170 2272 2433 2347 2255 2348
8 2286 2189 2285 2375 2348 2255 2347 2433
8 2349 2258 2351 2435 2257 2157 2259 2350
8 2349 2258 2164 2263 2435 2351 2264 2355
8 2259 2158 2261 2351 2352 2260 2354 2437
8 2356 2265 2354 2437 2264 2165 2261 2351
8 2441 2357 2264 2355 2362 2268 2168 2269
8 2356 2265 2165 2264 2442 2358 2266 2357
8 2443 2359 2266 2357 2361 2267 2166 2268
8 2370 2279 2360 2446 2280 2181 2267 2361
8 2362 2268 2182 2281 2447 2361 2280 2371
8 2180 2277 2368 2278 2270 2364 2449 2363
8 2271 2365 2273 2177 2364 2450 2366 2277
8 2372 2283 2186 2282 2451 2368 2276 2367
8 2178 2274 2367 2276 2277 2366 2451 2368
8 2283 2187 2278 2368 2370 2279 2369 2452
8 2372 2283 2370 2453 2282 2186 2280 2371
8 2284 2374 2455 2373 2201 2292 2380 2295
8 2375 2285 2197 2289 2456 2374 2292 2378
8 2376 2291 2204 2296 2457 2379 2297 2383
8 2288 2199 2291 2376 2377 2293 2379 2457
8 2198 2290 2378 2292 2293 2377 2458 2380
8 2293 2202 2294 2379 2380 2295 2381 2459
8 2384 2298 2381 2459 2297 2205 2294 2379
8 2386 2300 2384 2463 2299 2207 2297 2383
8 2387 2301 2385 2464 2300 2208 2298 2384
8 2389 2303 2387 2466 2302 2210 2300 2386
8 2390 2304 2388 2467 2303 2211 2301 2387
8 2392 2306 2390 2469 2305 2213 2303 2389
8 2393 2307 2391 2470 2306 2214 2304 2390
8 2395 2308 2393 2472 2310 2216 2306 2392
8 2308 2215 2309 2396 2393 2307 2394 2473
8 2395 2308 2216 2310 2475 2396 2311 2398
8 2396 2309 2217 2311 2476 2397 2312 2399
8 2398 2311 2219 2315 2478 2399 2314 2403
8 2399 2312 2218 2314 2479 2400 2313 2402
8 2317 2221 2316 2405 2402 2313 2401 2482
8 2403 2314 2222 2318 2483 2402 2317 2406
8 2320 2224 2319 2408 2405 2316 2404 2485
8 2321 2225 2320 2409 2406 2317 2405 2486
8 2323 2227 2322 2411 2408 2319 2407 2488
8 2324 2228 2323 2412 2409 2320 2408 2489
8 2326 2230 2325 2413 2411 2322 2410 2490
8 2327 2231 2326 2414 2412 2323 2411 2491
8 2329 2234 2328 2415 2414 2326 2413 2492
8 2417 2331 2260 2352 2494 2416 2353 2438
8 2350 2259 2352 2436 2419 2332 2417 2496
8 2332 2239 2331 2417 2420 2333 2418 2497
8 2334 2240 2332 2419 2422 2335 2420 2499
8 2420 2333 2421 2500 2335 2241 2336 2423
8 2422 2335 2423 2502 2337 2243 2338 2425
8 2423 2336 2424 2503 2338 2244 2339 2426
8 2425 2338 2426 2505 2342 2246 2341 2429
8 2426 2339 2427 2506 2341 2245 2340 2428
8 2429 2341 2428 2507 2344 2249 2343 2430
8 2432 2346 2284 2374 2509 2431 2373 2455
8 2432 2346 2431 2509 2364 2270 2363 2449
8 2375 2285 2374 2456 2433 2347 2432 2510
8 2347 2433 2365 2271 2432 2510 2450 2364
8 2350 2259 2351 2435 2436 2352 2437 2514
8 2440 2356 2437 2514 2355 2264 2351 2435
8 2352 2260 2354 2437 2438 2353 2439 2516
8 2356 2265 2358 2442 2437 2354 2439 2516
8 2440 2356 2264 2355 2518 2442 2357 2441
8 2519 2443 2357 2441 2447 2361 2268 2362
8 2443 2359 2444 2520 2357 2266 2358 2442
8 2443 2359 2267 2361 2520 2444 2360 2446
8 2446 2360 2279 2370 2523 2445 2369 2452
8 2453 2370 2446 2524 2371 2280 2361 2447
8 2449 2363 2448 2525 2368 2278 2369 2452
8 2366 2277 2364 2450 2451 2368 2449 2526
8 2372 2283 2368 2451 2453 2370 2452 2527
8 2455 2373 2295 2380 2529 2454 2382 2460
8 2456 2374 2292 2378 2530 2455 2380 2458
8 2377 2293 2379 2457 2458 2380 2459 2531
8 2463 2384 2459 2531 2383 2297 2379 2457
8 2533 2461 2382 2460 2459 2381 2295 2380
8 2464 2385 2461 2533 2384 2298 2381 2459
8 2466 2387 2464 2537 2386 2300 2384 2463
8 2467 2388 2465 2538 2387 2301 2385 2464
8 2469 2390 2467 2540 2389 2303 2387 2466
8 2470 2391 2468 2541 2390 2304 2388 2467
8 2472 2393 2470 2543 2392 2306 2390 2469
8 2393 2307 2394 2473 2470 2391 2471 2544
8 2395 2308 2396 2475 2472 2393 2473 2546
8 2396 2309 2397 2476 2473 2394 2474 2547
8 2475 2396 2311 2398 2549 2476 2399 2478
8 2476 2397 2312 2399 2550 2477 2400 2479
8 2478 2399 2314 2403 2552 2479 2402 2483
8 2479 2400 2313 2402 2553 2480 2401 2482
8 2405 2316 2404 2485 2482 2401 2481 2556
8 2406 2317 2405 2486 2483 2402 2482 2557
8 2408 2319 2407 2488 2485 2404 2484 2559
8 2409 2320 2408 2489 2486 2405 2485 2560
8 2411 2322 2410 2490 2488 2407 2487 2561
8 2412 2323 2411 2491 2489 2408 2488 2562
8 2414 2326 2413 2492 2491 2411 2490 2563
8 2513 2434 2493 2565 2438 2353 2416 2494
8 2496 2417 2352 2436 2567 2494 2438 2515
8 2494 2416 2495 2568 2417 2331 2418 2497
8 2419 2332 2417 2496 2499 2420 2497 2570
8 2497 2418 2498 2571 2420 2333 2421 2500
8 2499 2420 2500 2573 2422 2335 2423 2502
8 2500 2421 2501 2574 2423 2336 2424 2503
8 2502 2423 2503 2576 2425 2338 2426 2505
8 2503 2424 2504 2577 2426 2339 2427 2506
8 2505 2426 2506 2578 2429 2341 2428 2507
8 2509 2431 2373 2455 2580 2508 2454 2529
8 2509 2431 2508 2580 2449 2363 2448 2525
8 2432 2510 2581 2509 2374 2456 2530 2455
8 2432 2510 2450 2364 2509 2581 2526 2449
8 2583 2511 2434 2513 2516 2439 2353 2438
8 2436 2352 2437 2514 2515 2438 2516 2588
8 2440 2356 2442 2518 2514 2437 2516 2588
8 2442 2358 2444 2520 2516 2439 2517 2589
8 2519 2443 2520 2591 2441 2357 2442 2518
8 2519 2443 2361 2447 2591 2520 2446 2524
8 2446 2360 2445 2523 2520 2444 2521 2592
8 2525 2448 2522 2593 2452 2369 2445 2523
8 2524 2446 2370 2453 2594 2523 2452 2527
8 2526 2449 2525 2595 2451 2368 2452 2527
8 2534 2462 2528 2597 2460 2382 2454 2529
8 2530 2455 2380 2458 2598 2529 2460 2532
8 2599 2533 2460 2532 2531 2459 2380 2458
8 2537 2464 2533 2599 2463 2384 2459 2531
8 2534 2462 2382 2460 2601 2535 2461 2533
8 2538 2465 2535 2601 2464 2385 2461 2533
8 2540 2467 2538 2604 2466 2387 2464 2537
8 2541 2468 2539 2605 2467 2388 2465 2538
8 2543 2470 2541 2607 2469 2390 2467 2540
8 2470 2391 2471 2544 2541 2468 2542 2608
8 2472 2393 2473 2546 2543 2470 2544 2610
8 2473 2394 2474 2547 2544 2471 2545 2611
8 2475 2396 2476 2549 2546 2473 2547 2613
8 2476 2397 2477 2550 2547 2474 2548 2614
8 2549 2476 2399 2478 2616 2550 2479 2552
8 2479 2400 2480 2553 2550 2477 2551 2617
8 2552 2479 2402 2483 2619 2553 2482 2557
8 2482 2401 2481 2556 2553 2480 2554 2620
8 2485 2404 2484 2559 2556 2481 2555 2623
8 2486 2405 2485 2560 2557 2482 2556 2624
8 2488 2407 2487 2561 2559 2484 2558 2625
8 2489 2408 2488 2562 2560 2485 2559 2626
8 2491 2411 2490 2563 2562 2488 2561 2627
8 2513 2434 2512 2585 2565 2493 2564 2630
8 2586 2513 2565 2632 2515 2438 2494 2567
8 2565 2493 2566 2633 2494 2416 2495 2568
8 2567 2494 2568 2635 2496 2417 2497 2570
8 2568 2495 2569 2636 2497 2418 2498 2571
8 2570 2497 2571 2638 2499 2420 2500 2573
8 2571 2498 2572 2639 2500 2421 2501 2574
8 2573 2500 2574 2641 2502 2423 2503 2576
8 2574 2501 2575 2642 2503 2424 2504 2577
8 2576 2503 2577 2643 2505 2426 2506 2578
8 2597 2528 2579 2645 2529 2454 2508 2580
8 2580 2508 2579 2645 2525 2448 2522 2593
8 2581 2509 2455 2530 2646 2580 2529 2598
8 2581 2509 2580 2646 2526 2449 2525 2595
8 2583 2511 2582 2648 2513 2434 2512 2585
8 2583 2511 2439 2516 2648 2582 2517 2589
8 2649 2583 2513 2586 2588 2516 2438 2515
8 2589 2517 2444 2520 2653 2587 2521 2592
8 2518 2442 2520 2591 2588 2516 2589 2654
8 2593 2522 2590 2655 2523 2445 2521 2592
8 2524 2446 2523 2594 2591 2520 2592 2656
8 2595 2525 2593 2657 2527 2452 2523 2594
8 2602 2536 2596 2659 2534 2462 2528 2597
8 2600 2534 2597 2660 2532 2460 2529 2598
8 2600 2534 2460 2532 2661 2601 2533 2599
8 2604 2538 2601 2661 2537 2464 2533 2599
8 2602 2536 2462 2534 2663 2603 2535 2601
8 2601 2535 2465 2538 2663 2603 2539 2605
8 2607 2541 2605 2665 2540 2467 2538 2604
8 2608 2542 2606 2666 2541 2468 2539 2605
8 2543 2470 2544 2610 2607 2541 2608 2668
8 2544 2471 2545 2611 2608 2542 2609 2669
8 2546 2473 2547 2613 2610 2544 2611 2671
8 2547 2474 2548 2614 2611 2545 2612 2672
8 2549 2476 2550 2616 2613 2547 2614 2674
8 2550 2477 2551 2617 2614 2548 2615 2675
8 2552 2479 2553 2619 2616 2550 2617 2677
8 2553 2480 2554 2620 2617 2551 2618 2678
8 2557 2482 2556 2624 2619 2553 2620 2680
8 2556 2481 2555 2623 2620 2554 2621 2681
8 2559 2484 2558 2625 2623 2555 2622 2683
8 2560 2485 2559 2626 2624 2556 2623 2684
8 2562 2488 2561 2627 2626 2559 2625 2685
8 2690 2629 2564 2630 2650 2584 2512 2585
8 2586 2513 2585 2651 2632 2565 2630 2691
8 2630 2564 2631 2692 2565 2493 2566 2633
8 2632 2565 2633 2694 2567 2494 2568 2635
8 2633 2566 2634 2695 2568 2495 2569 2636
8 2635 2568 2636 2697 2570 2497 2571 2638
8 2636 2569 2637 2698 2571 2498 2572 2639
8 2638 2571 2639 2700 2573 2500 2574 2641
8 2639 2572 2640 2701 2574 2501 2575 2642
8 2641 2574 2642 2702 2576 2503 2577 2643
8 2597 2528 2596 2659 2645 2579 2644 2704
8 2645 2579 2644 2704 2593 2522 2590 2655
8 2660 2597 2645 2705 2598 2529 2580 2646
8 2646 2580 2645 2705 2595 2525 2593 2657
8 2650 2584 2512 2585 2707 2647 2582 2648
8 2648 2582 2517 2589 2707 2647 2587 2653
8 2649 2583 2648 2708 2586 2513 2585 2651
8 2649 2583 2516 2588 2708 2648 2589 2654
8 2655 2590 2652 2710 2592 2521 2587 2653
8 2654 2589 2520 2591 2711 2653 2592 2656
8 2657 2593 2655 2712 2594 2523 2592 2656
8 2602 2536 2603 2663 2659 2596 2658 2714
8 2662 2602 2659 2715 2600 2534 2597 2660
8 2662 2602 2534 2600 2717 2663 2601 2661
8 2661 2601 2538 2604 2717 2663 2605 2665
8 2666 2606 2664 2718 2605 2539 2603 2663
8 2668 2608 2666 2720 2607 2541 2605 2665
8 2608 2542 2609 2669 2666 2606 2667 2721
8 2610 2544 2611 2671 2668 2608 2669 2723
8 2611 2545 2612 2672 2669 2609 2670 2724
8 2613 2547 2614 2674 2671 2611 2672 2726
8 2614 2548 2615 2675 2672 2612 2673 2727
8 2616 2550 2617 2677 2674 2614 2675 2729
8 2617 2551 2618 2678 2675 2615 2676 2730
8 2619 2553 2620 2680 2677 2617 2678 2732
8 2620 2554 2621 2681 2678 2618 2679 2733
8 2624 2556 2623 2684 2680 2620 2681 2735
8 2681 2621 2555 2623 2736 2682 2622 2683
8 2626 2559 2625 2685 2684 2623 2683 2737
8 2688 2628 2584 2650 2740 2686 2647 2707
8 2688 2628 2687 2742 2650 2584 2629 2690
8 2690 2629 2689 2745 2630 2564 2631 2692
8 2746 2690 2630 2691 2709 2650 2585 2651
8 2691 2630 2692 2747 2632 2565 2633 2694
8 2692 2631 2693 2748 2633 2566 2634 2695
8 2694 2633 2695 2750 2635 2568 2636 2697
8 2695 2634 2696 2751 2636 2569 2637 2698
8 2697 2636 2698 2753 2638 2571 2639 2700
8 2698 2637 2699 2754 2639 2572 2640 2701
8 2700 2639 2701 2755 2641 2574 2642 2702
8 2659 2596 2658 2714 2704 2644 2703 2757
8 2704 2644 2703 2757 2655 2590 2652 2710
8 2660 2597 2659 2715 2705 2645 2704 2758
8 2705 2645 2704 2758 2657 2593 2655 2712
8 2759 2706 2647 2707 2710 2652 2587 2653
8 2709 2650 2585 2651 2760 2707 2648 2708
8 2708 2648 2589 2654 2760 2707 2653 2711
8 2712 2655 2710 2761 2656 2592 2653 2711
8 2763 2713 2658 2714 2718 2664 2603 2663
8 2662 2602 2663 2717 2715 2659 2714 2764
8 2720 2666 2718 2767 2665 2605 2663 2717
8 2768 2719 2664 2718 2721 2667 2606 2666
8 2668 2608 2669 2723 2720 2666 2721 2770
8 2669 2609 2670 2724 2721 2667 2722 2771
8 2671 2611 2672 2726 2723 2669 2724 2773
8 2672 2612 2673 2727 2724 2670 2725 2774
8 2674 2614 2675 2729 2726 2672 2727 2776
8 2675 2615 2676 2730 2727 2673 2728 2777
8 2677 2617 2678 2732 2729 2675 2730 2779
8 2678 2618 2679 2733 2730 2676 2731 2780
8 2680 2620 2681 2735 2732 2678 2733 2782
8 2733 2679 2621 2681 2783 2734 2682 2736
8 2735 2681 2623 2684 2784 2736 2683 2737
8 2740 2686 2647 2707 2787 2738 2706 2759
8 2688 2628 2686 2740 2742 2687 2739 2789
8 2743 2688 2650 2709 2790 2740 2707 2760
8 2742 2687 2741 2792 2690 2629 2689 2745
8 2743 2688 2742 2793 2709 2650 2690 2746
8 2745 2689 2744 2795 2692 2631 2693 2748
8 2746 2690 2745 2796 2691 2630 2692 2747
8 2747 2692 2748 2797 2694 2633 2695 2750
8 2748 2693 2749 2798 2695 2634 2696 2751
8 2750 2695 2751 2800 2697 2636 2698 2753
8 2751 2696 2752 2801 2698 2637 2699 2754
8 2753 2698 2754 2802 2700 2639 2701 2755
8 2763 2713 2756 2804 2714 2658 2703 2757
8 2759 2706 2652 2710 2804 2756 2703 2757
8 2715 2659 2714 2764 2758 2704 2757 2805
8 2758 2704 2757 2805 2712 2655 2710 2761
8 2806 2759 2707 2760 2761 2710 2653 2711
8 2765 2716 2762 2808 2718 2664 2713 2763
8 2809 2763 2714 2764 2767 2718 2663 2717
8 2765 2716 2664 2718 2811 2766 2719 2768
8 2813 2768 2718 2767 2770 2721 2666 2720
8 2814 2769 2719 2768 2771 2722 2667 2721
8 2723 2669 2724 2773 2770 2721 2771 2816
8 2724 2670 2725 2774 2771 2722 2772 2817
8 2726 2672 2727 2776 2773 2724 2774 2819
8 2727 2673 2728 2777 2774 2725 2775 2820
8 2729 2675 2730 2779 2776 2727 2777 2822
8 2730 2676 2731 2780 2777 2728 2778 2823
8 2732 2678 2733 2782 2779 2730 2780 2825
8 2780 2731 2679 2733 2826 2781 2734 2783
8 2782 2733 2681 2735 2827 2783 2736 2784
8 2830 2785 2738 2787 2804 2756 2706 2759
8 2789 2739 2686 2740 2832 2786 2738 2787
8 2790 2740 2707 2760 2833 2787 2759 2806
8 2742 2687 2739 2789 2792 2741 2788 2835
8 2743 2688 2740 2790 2793 2742 2789 2836
8 2792 2741 2791 2838 2745 2689 2744 2795
8 2793 2742 2792 2839 2746 2690 2745 2796
8 2795 2744 2794 2841 2748 2693 2749 2798
8 2796 2745 2795 2842 2747 2692 2748 2797
8 2797 2748 2798 2843 2750 2695 2751 2800
8 2798 2749 2799 2844 2751 2696 2752 2801
8 2800 2751 2801 2845 2753 2698 2754 2802
8 2808 2762 2803 2847 2763 2713 2756 2804
8 2809 2763 2804 2848 2764 2714 2757 2805
8 2806 2759 2710 2761 2848 2804 2757 2805
8 2765 2716 2766 2811 2808 2762 2807 2850
8 2810 2765 2808 2851 2767 2718 2763 2809
8 2810 2765 2718 2767 2852 2811 2768 2813
8 2811 2766 2719 2768 2853 2812 2769 2814
8 2855 2814 2768 2813 2816 2771 2721 2770
8 2856 2815 2769 2814 2817 2772 2722 2771
8 2773 2724 2774 2819 2816 2771 2817 2858
8 2774 2725 2775 2820 2817 2772 2818 2859
8 2776 2727 2777 2822 2819 2774 2820 2861
8 2777 2728 2778 2823 2820 2775 2821 2862
8 2779 2730 2780 2825 2822 2777 2823 2864
8 2823 2778 2731 2780 2865 2824 2781 2826
8 2825 2780 2733 2782 2866 2826 2783 2827
8 2869 2828 2785 2830 2847 2803 2756 2804
8 2871 2829 2786 2832 2830 2785 2738 2787
8 2872 2830 2787 2833 2848 2804 2759 2806
8 2789 2739 2786 2832 2835 2788 2831 2874
8 2836 2789 2740 2790 2875 2832 2787 2833
8 2792 2741 2788 2835 2838 2791 2834 2877
8 2793 2742 2789 2836 2839 2792 2835 2878
8 2838 2791 2837 2880 2795 2744 2794 2841
8 2839 2792 2838 2881 2796 2745 2795 2842
8 2841 2794 2840 2882 2798 2749 2799 2844
8 2842 2795 2841 2883 2797 2748 2798 2843
8 2843 2798 2844 2884 2800 2751 2801 2845
8 2886 2846 2803 2847 2850 2807 2762 2808
8 2851 2808 2847 2887 2809 2763 2804 2848
8 2850 2807 2766 2811 2889 2849 2812 2853
8 2810 2765 2811 2852 2851 2808 2850 2890
8 2852 2811 2768 2813 2891 2853 2814 2855
8 2853 2812 2769 2814 2892 2854 2815 2856
8 2894 2856 2814 2855 2858 2817 2771 2816
8 2817 2772 2818 2859 2856 2815 2857 2895
8 2819 2774 2820 2861 2858 2817 2859 2897
8 2820 2775 2821 2862 2859 2818 2860 2898
8 2822 2777 2823 2864 2861 2820 2862 2900
8 2823 2778 2824 2865 2862 2821 2863 2901
8 2864 2823 2780 2825 2902 2865 2826 2866
8 2904 2867 2828 2869 2886 2846 2803 2847
8 2869 2828 2868 2906 2830 2785 2829 2871
8 2907 2869 2830 2872 2887 2847 2804 2848
8 2871 2829 2870 2909 2832 2786 2831 2874
8 2910 2871 2832 2875 2872 2830 2787 2833
8 2835 2788 2831 2874 2877 2834 2873 2912
8 2836 2789 2832 2875 2878 2835 2874 2913
8 2877 2834 2876 2915 2838 2791 2837 2880
8 2839 2792 2835 2878 2881 2838 2877 2916
8 2880 2837 2879 2917 2841 2794 2840 2882
8 2881 2838 2880 2918 2842 2795 2841 2883
8 2883 2841 2882 2919 2843 2798 2844 2884
8 2921 2885 2846 2886 2889 2849 2807 2850
8 2922 2886 2847 2887 2890 2850 2808 2851
8 2889 2849 2812 2853 2924 2888 2854 2892
8 2890 2850 2811 2852 2925 2889 2853 2891
8 2891 2853 2814 2855 2926 2892 2856 2894
8 2892 2854 2815 2856 2927 2893 2857 2895
8 2858 2817 2859 2897 2894 2856 2895 2929
8 2859 2818 2860 2898 2895 2857 2896 2930
8 2861 2820 2862 2900 2897 2859 2898 2932
8 2862 2821 2863 2901 2898 2860 2899 2933
8 2864 2823 2865 2902 2900 2862 2901 2934
8 2904 2867 2846 2886 2936 2903 2885 2921
8 2904 2867 2903 2936 2869 2828 2868 2906
8 2937 2904 2869 2907 2922 2886 2847 2887
8 2906 2868 2905 2939 2871 2829 2870 2909
8 2907 2869 2906 2940 2872 2830 2871 2910
8 2909 2870 2908 2942 2874 2831 2873 2912
8 2910 2871 2909 2943 2875 2832 2874 2913
8 2912 2873 2911 2945 2877 2834 2876 2915
8 2878 2835 2874 2913 2916 2877 2912 2946
8 2915 2876 2914 2947 2880 2837 2879 2917
8 2916 2877 2915 2948 2881 2838 2880 2918
8 2918 2880 2917 2949 2883 2841 2882 2919
8 2921 2885 2849 2889 2951 2920 2888 2924
8 2952 2921 2886 2922 2925 2889 2850 2890
8 2924 2888 2854 2892 2954 2923 2893 2927
8 2925 2889 2853 2891 2955 2924 2892 2926
8 2926 2892 2856 2894 2956 2927 2895 2929
8 2895 2857 2896 2930 2927 2893 2928 2957
8 2897 2859 2898 2932 2929 2895 2930 2959
8 2898 2860 2899 2933 2930 2896 2931 2960
8 2900 2862 2901 2934 2932 2898 2933 2961
8 2936 2903 2885 2921 2963 2935 2920 2951
8 2936 2903 2935 2963 2906 2868 2905 2939
8 2937 2904 2886 2922 2964 2936 2921 2952
8 2937 2904 2936 2964 2907 2869 2906 2940
8 2939 2905 2938 2966 2909 2870 2908 2942
8 2940 2906 2939 2967 2910 2871 2909 2943
8 2942 2908 2941 2969 2912 2873 2911 2945
8 2943 2909 2942 2970 2913 2874 2912 2946
8 2945 2911 2944 2971 2915 2876 2914 2947
8 2946 2912 2945 2972 2916 2877 2915 2948
8 2948 2915 2947 2973 2918 2880 2917 2949
8 2951 2920 2888 2924 2975 2950 2923 2954
8 2952 2921 2889 2925 2976 2951 2924 2955
8 2927 2893 2928 2957 2954 2923 2953 2978
8 2955 2924 2892 2926 2979 2954 2927 2956
8 2929 2895 2930 2959 2956 2927 2957 2980
8 2930 2896 2931 2960 2957 2928 2958 2981
8 2932 2898 2933 2961 2959 2930 2960 2982
8 2951 2920 2950 2975 2963 2935 2962 2984
8 2963 2935 2962 2984 2939 2905 2938 2966
8 2964 2936 2921 2952 2985 2963 2951 2976
8 2964 2936 2963 2985 2940 2906 2939 2967
8 2966 2938 2965 2987 2942 2908 2941 2969
8 2967 2939 2966 2988 2943 2909 2942 2970
8 2969 2941 2968 2989 2945 2911 2944 2971
8 2970 2942 2969 2990 2946 2912 2945 2972
8 2972 2945 2971 2991 2948 2915 2947 2973
8 2954 2923 2953 2978 2975 2950 2974 2993
8 2976 2951 2924 2955 2994 2975 2954 2979
8 2957 2928 2958 2981 2978 2953 2977 2995
8 2956 2927 2957 2980 2979 2954 2978 2996
8 2959 2930 2960 2982 2980 2957 2981 2997
8 2984 2962 2983 2999 2966 2938 2965 2987
8 2975 2950 2974 2993 2984 2962 2983 2999
8 2976 2951 2975 2994 2985 2963 2984 3000
8 2985 2963 2984 3000 2967 2939 2966 2988
8 2987 2965 2986 3001 2969 2941 2968 2989
8 2988 2966 2987 3002 2970 2942 2969 2990
8 2990 2969 2989 3003 2972 2945 2971 2991
8 2978 2953 2977 2995 2993 2974 2992 3004
8 2979 2954 2978 2996 2994 2975 2993 3005
8 2980 2957 2981 2997 2996 2978 2995 3006
8 2974 2993 2999 2983 2992 3004 3007 2998
8 2983 2999 2987 2965 2998 3007 3001 2986
8 3000 2984 2999 3008 2988 2966 2987 3002
8 2994 2975 2993 3005 3000 2984 2999 3008
8 3002 2987 3001 3009 2990 2969 2989 3003
8 2996 2978 2995 3006 3005 2993 3004 3010
8 3005 2993 3004 3010 3008 2999 3007 3011
8 3008 2999 3007 3011 3002 2987 3001 3009

CELL_TYPES 1910
12
12
12
12
12
12
12
12
12
12
12
12
12
12
12
12
12
12
12
12
12
12
12
12
12
12
12
12
12
12
12
12
12
12
12
12
12
12
12
12
12
12
12
12
12
12
12
12
12
12
12
12
12
12
12
12
12
12
12
12
12
12
12
12
12
12
12
12
12
12
12
12
12
12
12
12
12
12
12
12
12
12
12
12
12
12
12
12
12
12
12
12
12
12
12
12
12
12
12
12
12
12
12
12
12
12
12
12
12
12
12
12
12
12
12
12
12
12
12
12
12
12
12
12
12
12
12
12
12
12
12
12
12
12
12
12
12
12
12
12
12
12
12
12
12
12
12
12
12
12
12
12
12
12
12
12
12
12
12
12
12
12
12
12
12
12
12
12
12
12
12
12
12
12
12
12
12
12
12
12
12
12
12
12
12
12
12
12
12
12
12
12
12
12
12
12
12
12
12
12
12
12
12
12
12
12
12
12
12
12
12
12
12
12
12
12
12
12
12
12
12
12
12
12
12
12
12
12
12
12
12
12
12
12
12
12
12
12
12
12
12
12
12
12
12
12
12
12
12
12
12
12
12
12
12
12
12
12
12
12
12
12
12
12
12
12
12
12
12
12
12
12
12
12
12
12
12
12
12
12
12
12
12
12
12
12
12
12
12
12
12
12
12
12
12
12
12
12
12
12
12
12
12
12
12
12
12
12
12
12
12
12
12
12
12
12
12
12
12
12
12
12
12
12
12
12
12
12
12
12
12
12
12
12
12
12
12
12
12
12
12
12
12
12
12
12
12
12
12
12
12
12
12
12
12
12
12
12
12
12
12
12
12
12
12
12
12
12
12
12
12
12
12
12
12
12
12
12
12
12
12
12
12
12
12
12
12
12
12
12
12
12
12
12
12
12
12
12
12
12
12
12
12
12
12
12
12
12
12
12
12
12
12
12
12
12
12
12
12
12
12
12
12
12
12
12
12
12
12
12
12
12
12
12
12
12
12
12
12
12
12
12
12
12
12
12
12
12
12
12
12
12
12
12
12
12
12
12
12
12
12
12
12
12
12
12
12
12
12
12
12
12
12
12
12
12
12
12
12
12
12
12
12
12
12
12
12
12
12
12
12
12
12
12
12
12
12
12
12
12
12
12
12
12
12
12
12
12
12
12
12
12
12
12
12
12
12
12
12
12
12
12
12
12
12
12
12
12
12
12
12
12
12
12
12
12
12
12
12
12
12
12
12
12
12
12
12
12
12
12
12
12
12
12
12
12
12
12
12
12
12
12
12
12
12
12
12
12
12
12
12
12
12
12
12
12
12
12
12
12
12
12
12
12
12
12
12
12
12
12
12
12
12
12
12
12
12
12
12
12
12
12
12
12
12
12
12
12
12
12
12
12
12
12
12
12
12
12
12
12
12
12
12
12
12
12
12
12
12
12
12
12
12
12
12
12
12
12
12
12
12
12
12
12
12
12
12
12
12
12
12
12
12
12
12
12
12
12
12
12
12
12
12
12
12
12
12
12
12
12
12
12
12
12
12
12
12
12
12
12
12
12
12
12
12
12
12
12
12
12
12
12
12
12
12
12
12
12
12
12
12
12
12
12
12
12
12
12
12
12
12
12
12
12
12
12
12
12
12
12
12
12
12
12
12
12
12
12
12
12
12
12
12
12
12
12
12
12
12
12
12
12
12
12
12
12
12
12
12
12
12
12
12
12
12
12
12
12
12
12
12
12
12
12
12
12
12
12
12
12
12
12
12
12
12
12
12
12
12
12
12
12
12
12
12
12
12
12
12
12
12
12
12
12
12
12
12
12
12
12
12
12
12
12
12
12
12
12
12
12
12
12
12
12
12
12
12
12
12
12
12
12
12
12
12
12
12
12
12
12
12
12
12
12
12
12
12
12
12
12
12
12
12
12
12
12
12
12
12
12
12
12
12
12
12
12
12
12
12
12
12
12
12
12
12
12
12
12
12
12
12
12
12
12
12
12
12
12
12
12
12
12
12
12
12
12
12
12
12
12
12
12
12
12
12
12
12
12
12
12
12
12
12
12
12
12
12
12
12
12
12
12
12
12
12
12
12
12
12
12
12
12
12
12
12
12
12
12
12
12
12
12
12
12
12
12
12
12
12
12
12
12
12
12
12
12
12
12
12
12
12
12
12
12
12
12
12
12
12
12
12
12
12
12
12
12
12
12
12
12
12
12
12
12
12
12
12
12
12
12
12
12
12
12
12
12
12
12
12
12
12
12
12
12
12
12
12
12
12
12
12
12
12
12
12
12
12
12
12
12
12
12
12
12
12
12
12
12
12
12
12
12
12
12
12
12
12
12
12
12
12
12
12
12
12
12
12
12
12
12
12
12
12
12
12
12
12
12
12
12
12
12
12
12
12
12
12
12
12
12
12
12
12
12
12
12
12
12
12
12
12
12
12
12
12
12
12
12
12
12
12
12
12
12
12
12
12
12
12
12
12
12
12
12
12
12
12
12
12
12
12
12
12
12
12
12
12
12
12
12
12
12
12
12
12
12
12
12
12
12
12
12
12
12
12
12
12
12
12
12
12
12
12
12
12
12
12
12
12
12
12
12
12
12
12
12
12
12
12
12
12
12
12
12
12
12
12
12
12
12
12
12
12
12
12
12
12
12
12
12
12
12
12
12
12
12
12
12
12
12
12
12
12
12
12
12
12
12
12
12
12
12
12
12
12
12
12
12
12
12
12
12
12
12
12
12
12
12
12
12
12
12
12
12
12
12
12
12
12
12
12
12
12
12
12
12
12
12
12
12
12
12
12
12
12
12
12
12
12
12
12
12
12
12
12
12
12
12
12
12
12
12
12
12
12
12
12
12
12
12
12
12
12
12
12
12
12
12
12
12
12
12
12
12
12
12
12
12
12
12
12
12
12
12
12
12
12
12
12
12
12
12
12
12
12
12
12
12
12
12
12
12
12
12
12
12
12
12
12
12
12
12
12
12
12
12
12
12
12
12
12
12
12
12
12
12
12
12
12
12
12
12
12
12
12
12
12
12
12
12
12
12
12
12
12
12
12
12
12
12
12
12
12
12
12
12
12
12
12
12
12
12
12
12
12
12
12
12
12
12
12
12
12
12
12
12
12
12
12
12
12
12
12
12
12
12
12
12
12
12
12
12
12
12
12
12
12
12
12
12
12
12
12
12
12
12
12
12
12
12
12
12
12
12
12
12
12
12
12
12
12
12
12
12
12
12
12
12
12
12
12
12
12
12
12
12
12
12
12
12
12
12
12
12
12
12
12
12
12
12
12
12
12
12
12
12
12
12
12
12
12
12
12
12
12
12
12
12
12
12
12
12
12
12
12
12
12
12
12
12
12
12
12
12
12
12
12
12
12
12
12
12
12
12
12
12
12
12
12
12
12
12
12
12
12
12
12
12
12
12
12
12
12
12
12
12
12
12
12
12
12
12
12
12
12
12
12
12
12
12
12
12
12
12
12
12
12
12
12
12
12
12
12
12
12
12
12
12
12
12
12
12
12
12
12
12
12
12
12
12
12
12
12
12
12
12
12
12
12
12
12
12
12
12
12
12
12
12
12
12
12
12
12
12
12
12
12
12
12
12
12
12
12
12
12
12
12
12
12
12
12
12
12
12
12
12
12
12
12
12
12
12
12
12
12
12
12
12
12
12
12
12
12
12
12
12
12
12
12
12
12
12
12
12
12
12
12
12
12
12
12
12
12
12
12
12
12
12
12
12
12
12
12
12
12
12
12
12
12
12
12
12
12
12
12
12
12
12
12
12
12
12
12
12
12
12
12
12
12
12
12
12
12
12
12
12
12
12
12
12
12
12
12
12
12
12
12
12
12
12
12
12
12
12
12
12
12
12
12
12
12
12
12
12
12
12
12
12
12
12
12
12
12
12
12
12
12
12
12
12
12
12
12
12
12
12
12
12
12
12
12
12
12
12
12
12
12
12
12
12
12
12
12
12
12
12
12
12
12
12
12
12
12
12
12
12
12
12
12
12
12
12
12
12
12
12
12
12
12
12
12
12
12
12
12
12
12
12
12
12
12
12
12
12
12
12
12
12
12
12
12
12
12
12
12
12
12
12
12
12
12
12
12
12
12
12
12
12
12
12
12
12
12
12
12
12
12
12
12
12
12
12
12
12
12
12
12
12
12
12
12
12
12
12
12
12
12
12
12
12
12
12
12
12
12
12
12
12
12
12
12
12
12
12
12
12
12
12
12
12
12
12
12
12
12
12
12
12
12
12
12
12
12
12
12
12
12
12
12
12
12
12
12
12
12
12
12
12
12
12
12
12
12
12
12
12
12
12
12
12

POINT_DATA 3012
SCALARS Jp_lamdaP float 4
LOOKUP_TABLE default
1 1 1 1
1 1 1 1
1 1 1 1
1 1 1 1
1 1 1 1
1 1 1 1
0.999984 1 1 0.999984
1 1 1 1
1 1 1 1
1 1 1 1
1 1 1 1
1 1 1 1
1 1 1 1
1 1 1 1
1 1 1 1
1 1 1 1
1 1 1 1
1 1 1 1
0.999985 1 1 0.999985
1 1 1 1
1 1 1 1
1 1 1 1
0.999964 1 1 0.999964
0.999979 1 1 0.999979
1 1 1 1
0.999989 1 1 0.999989
0.999937 1 1 0.999937
1 1 1 1
1 1 1 1
1 1 1 1
1 1 1 1
1 1 1 1
1 1 1 1
1 1 1 1
0.999994 1 1 0.999994
1 1 1 1
1 1 1 1
1 1 1 1
0.999952 1 1 0.999952
1 1 1 1
1 1 1 1
1 1 1 1
1 1 1 1
1 1 1 1
0.999976 1 1 0.999976
1 1 1 1
0.999984 1 1 0.999984
1 1 1 1
1 1 1 1
1 1 1 1
0.999985 1 1 0.999985
1 1 1 1
1 1 1 1
1 1 1 1
1 1 1 1
0.999965 1 1 0.999965
0.99999 1 1 0.99999
0.99998 1 1 0.99998
0.999935 1 1 0.999935
1 1 1 1
1 1 1 1
0.999977 1 1 0.999977
0.999958 1 1 0.999958
0.999973 1 1 0.999973
0.999887 1 1 0.999887
0.999915 1 1 0.999915
1 1 1 1
0.999993 1 1 0.999993
0.99995 1 1 0.99995
0.99985 1 1 0.99985
1 1 1 1
1 1 1 1
1 1 1 1
1 1 1 1
1 1 1 1
1 1 1 1
0.999995 1 1 0.999995
1 1 1 1
1 1 1 1
1 1 1 1
0.999952 1 1 0.999952
1 1 1 1
1 1 1 1
0.99999 1 1 0.99999
0.999998 1 1 0.999998
0.999908 1 1 0.999908
1 1 1 1
0.999943 1 1 0.999943
0.999961 1 1 0.999961
0.999883 1 1 0.999883
1 1 1 1
1 1 1 1
1 1 1 1
1 1 1 1
1 1 1 1
1 1 1 1
0.999977 1 1 0.999977
1 1 1 1
0.999985 1 1 0.999985
1 1 1 1
0.999973 1 1 0.999973
0.99998 1 1 0.99998
0.999851 1 1 0.999851
0.999987 1 1 0.999987
0.999868 1 1 0.999868
1 1 1 1
1 1 1 1
1 1 1 1
1 1 1 1
0.999965 1 1 0.999965
0.99998 1 1 0.99998
0.99999 1 1 0.99999
0.999933 1 1 0.999933
1 1 1 1
1 1 1 1
0.999965 1 1 0.999965
0.999958 1 1 0.999958
1 1 1 1
0.999996 1 1 0.999996
0.999973 1 1 0.999973
0.999882 1 1 0.999882
0.999948 1 1 0.999948
0.999919 1 1 0.999919
0.99985 1 1 0.99985
0.999975 1 1 0.999975
0.999957 1 1 0.999957
0.999857 1 1 0.999857
0.999866 1 1 0.999866
0.999898 1 1 0.999898
0.999806 1 1 0.999806
1 1 1 1
0.999841 1 1 0.999841
1 1 1 1
0.999955 1 1 0.999955
0.99986 1 1 0.99986
0.999815 1 1 0.999815
1 1 1 1
0.999968 1 1 0.999968
1 1 1 1
1 1 1 1
0.999996 1 1 0.999996
1 1 1 1
1 1 1 1
1 1 1 1
0.999952 1 1 0.999952
1 1 1 1
1 1 1 1
0.999991 1 1 0.999991
0.999999 1 1 0.999999
0.999908 1 1 0.999908
1 1 1 1
0.999943 1 1 0.999943
0.999961 1 1 0.999961
0.99988 1 1 0.99988
1 1 1 1
1 1 1 1
0.999974 1 1 0.999974
0.999891 1 1 0.999891
0.999928 1 1 0.999928
0.999834 1 1 0.999834
0.999969 1 1 0.999969
0.999871 1 1 0.999871
0.999888 1 1 0.999888
0.999851 1 1 0.999851
1 1 1 1
1 1 1 1
1 1 1 1
1 1 1 1
1 1 1 1
1 1 1 1
1 1 1 1
0.999986 1 1 0.999986
0.999979 1 1 0.999979
1 1 1 1
1 1 1 1
0.999974 1 1 0.999974
0.999982 1 1 0.999982
0.99985 1 1 0.99985
0.999988 1 1 0.999988
0.999868 1 1 0.999868
0.999973 1 1 0.999973
0.999844 1 1 0.999844
0.999859 1 1 0.999859
0.999787 1 1 0.999787
0.999878 1 1 0.999878
0.999803 1 1 0.999803
1 1 1 1
1 1 1 1
0.999954 1 1 0.999954
0.999959 1 1 0.999959
1 1 1 1
1 1 1 1
0.999974 1 1 0.999974
0.999876 1 1 0.999876
0.999923 1 1 0.999923
0.999946 1 1 0.999946
0.999851 1 1 0.999851
0.999974 1 1 0.999974
0.999957 1 1 0.999957
0.999846 1 1 0.999846
0.999869 1 1 0.999869
1 1 1 1
1 1 1 1
0.999957 1 1 0.999957
0.999898 1 1 0.999898
0.9998 1 1 0.9998
0.999858 1 1 0.999858
0.999844 1 1 0.999844
0.999816 1 1 0.999816
1 1 1 1
0.999968 1 1 0.999968
0.999843 1 1 0.999843
0.999859 1 1 0.999859
0.999784 1 1 0.999784
0.999779 1 1 0.999779
0.99983 1 1 0.99983
0.999773 1 1 0.999773
1 1 1 1
0.99981 1 1 0.99981
0.999962 1 1 0.999962
0.999872 1 1 0.999872
0.999824 1 1 0.999824
0.999806 1 1 0.999806
0.999966 1 1 0.999966
0.999972 1 1 0.999972
0.999886 1 1 0.999886
0.999992 1 1 0.999992
1 1 1 1
1 1 1 1
0.999999 1 1 0.999999
0.999908 1 1 0.999908
1 1 1 1
0.999962 1 1 0.999962
0.999944 1 1 0.999944
0.999878 1 1 0.999878
1 1 1 1
1 1 1 1
0.999974 1 1 0.999974
0.999891 1 1 0.999891
0.999928 1 1 0.999928
0.999834 1 1 0.999834
0.999969 1 1 0.999969
0.999874 1 1 0.999874
0.999888 1 1 0.999888
0.999847 1 1 0.999847
1 1 1 1
0.999973 1 1 0.999973
0.999976 1 1 0.999976
0.999898 1 1 0.999898
0.99982 1 1 0.99982
0.999857 1 1 0.999857
0.999798 1 1 0.999798
0.999895 1 1 0.999895
0.999839 1 1 0.999839
0.999841 1 1 0.999841
0.999825 1 1 0.999825
0.999988 1 1 0.999988
1 1 1 1
1 1 1 1
1 1 1 1
1 1 1 1
1 1 1 1
1 1 1 1
1 1 1 1
1 1 1 1
0.999988 1 1 0.999988
0.999983 1 1 0.999983
0.999868 1 1 0.999868
0.99985 1 1 0.99985
0.999975 1 1 0.999975
1 1 1 1
0.999973 1 1 0.999973
0.999844 1 1 0.999844
0.999859 1 1 0.999859
0.999786 1 1 0.999786
0.999878 1 1 0.999878
0.999803 1 1 0.999803
0.999842 1 1 0.999842
0.999783 1 1 0.999783
0.999793 1 1 0.999793
0.999765 1 1 0.999765
0.999812 1 1 0.999812
0.99978 1 1 0.99978
0.999974 1 1 0.999974
0.999957 1 1 0.999957
0.999835 1 1 0.999835
0.999873 1 1 0.999873
1 1 1 1
1 1 1 1
0.999959 1 1 0.999959
0.999899 1 1 0.999899
0.999793 1 1 0.999793
0.999848 1 1 0.999848
0.999857 1 1 0.999857
0.999817 1 1 0.999817
1 1 1 1
0.999968 1 1 0.999968
0.999839 1 1 0.999839
0.999859 1 1 0.999859
0.999783 1 1 0.999783
0.999786 1 1 0.999786
1 1 1 1
0.999962 1 1 0.999962
0.999876 1 1 0.999876
0.999831 1 1 0.999831
0.999772 1 1 0.999772
0.99982 1 1 0.99982
0.99981 1 1 0.99981
0.999806 1 1 0.999806
0.999967 1 1 0.999967
0.999883 1 1 0.999883
0.999972 1 1 0.999972
0.999787 1 1 0.999787
0.99978 1 1 0.99978
0.999752 1 1 0.999752
0.999752 1 1 0.999752
0.999798 1 1 0.999798
0.999773 1 1 0.999773
0.999966 1 1 0.999966
0.999804 1 1 0.999804
0.99989 1 1 0.99989
0.999828 1 1 0.999828
0.999797 1 1 0.999797
0.999816 1 1 0.999816
0.999979 1 1 0.999979
0.999891 1 1 0.999891
0.999876 1 1 0.999876
0.999847 1 1 0.999847
0.99989 1 1 0.99989
1 1 1 1
1 1 1 1
0.999974 1 1 0.999974
0.999929 1 1 0.999929
0.999834 1 1 0.999834
0.99997 1 1 0.99997
0.999887 1 1 0.999887
0.999876 1 1 0.999876
0.999844 1 1 0.999844
1 1 1 1
0.999973 1 1 0.999973
0.999976 1 1 0.999976
0.999898 1 1 0.999898
0.999819 1 1 0.999819
0.999857 1 1 0.999857
0.999798 1 1 0.999798
0.999895 1 1 0.999895
0.999843 1 1 0.999843
0.99984 1 1 0.99984
0.999831 1 1 0.999831
1 1 1 1
0.999979 1 1 0.999979
0.999899 1 1 0.999899
0.999899 1 1 0.999899
0.999846 1 1 0.999846
0.999791 1 1 0.999791
0.99982 1 1 0.99982
0.999786 1 1 0.999786
0.999844 1 1 0.999844
0.99982 1 1 0.99982
0.999797 1 1 0.999797
0.999985 1 1 0.999985
0.999915 1 1 0.999915
0.99999 1 1 0.99999
0.999988 1 1 0.999988
1 1 1 1
1 1 1 1
1 1 1 1
1 1 1 1
1 1 1 1
1 1 1 1
1 1 1 1
1 1 1 1
1 1 1 1
1 1 1 1
1 1 1 1
0.999878 1 1 0.999878
0.999859 1 1 0.999859
0.999803 1 1 0.999803
0.999786 1 1 0.999786
0.999844 1 1 0.999844
0.999973 1 1 0.999973
0.999842 1 1 0.999842
0.999783 1 1 0.999783
0.999793 1 1 0.999793
0.999765 1 1 0.999765
0.999812 1 1 0.999812
0.99978 1 1 0.99978
0.99978 1 1 0.99978
0.999766 1 1 0.999766
0.999769 1 1 0.999769
0.999759 1 1 0.999759
0.999788 1 1 0.999788
0.999786 1 1 0.999786
0.999835 1 1 0.999835
0.999859 1 1 0.999859
0.999782 1 1 0.999782
0.999793 1 1 0.999793
1 1 1 1
0.999961 1 1 0.999961
0.999881 1 1 0.999881
0.999832 1 1 0.999832
0.99977 1 1 0.99977
0.99981 1 1 0.99981
0.999815 1 1 0.999815
0.999805 1 1 0.999805
0.999967 1 1 0.999967
0.99988 1 1 0.99988
0.999972 1 1 0.999972
0.999783 1 1 0.999783
0.99978 1 1 0.99978
0.999748 1 1 0.999748
0.999753 1 1 0.999753
0.999966 1 1 0.999966
0.99989 1 1 0.99989
0.999833 1 1 0.999833
0.9998 1 1 0.9998
0.999775 1 1 0.999775
0.999793 1 1 0.999793
0.999804 1 1 0.999804
0.999818 1 1 0.999818
0.999891 1 1 0.999891
0.999843 1 1 0.999843
0.999979 1 1 0.999979
0.999876 1 1 0.999876
0.999753 1 1 0.999753
0.999743 1 1 0.999743
0.99973 1 1 0.99973
0.99975 1 1 0.99975
0.999798 1 1 0.999798
0.999786 1 1 0.999786
0.999894 1 1 0.999894
0.999822 1 1 0.999822
0.999845 1 1 0.999845
0.999798 1 1 0.999798
0.999782 1 1 0.999782
0.999821 1 1 0.999821
0.999985 1 1 0.999985
0.99988 1 1 0.99988
0.99985 1 1 0.99985
0.99983 1 1 0.99983
0.999824 1 1 0.999824
1 1 1 1
0.999819 1 1 0.999819
0.999976 1 1 0.999976
0.999973 1 1 0.999973
0.999898 1 1 0.999898
0.999857 1 1 0.999857
0.999798 1 1 0.999798
0.999896 1 1 0.999896
0.999839 1 1 0.999839
0.999846 1 1 0.999846
0.999837 1 1 0.999837
1 1 1 1
0.999979 1 1 0.999979
0.999899 1 1 0.999899
0.999898 1 1 0.999898
0.999845 1 1 0.999845
0.99979 1 1 0.99979
0.99982 1 1 0.99982
0.999784 1 1 0.999784
0.999845 1 1 0.999845
0.999823 1 1 0.999823
0.9998 1 1 0.9998
0.999982 1 1 0.999982
0.9999 1 1 0.9999
0.999846 1 1 0.999846
0.999844 1 1 0.999844
0.999823 1 1 0.999823
0.999786 1 1 0.999786
0.999802 1 1 0.999802
0.999799 1 1 0.999799
0.999803 1 1 0.999803
0.999776 1 1 0.999776
0.999986 1 1 0.999986
0.999899 1 1 0.999899
0.99991 1 1 0.99991
0.99986 1 1 0.99986
0.99992 1 1 0.99992
0.999992 1 1 0.999992
0.999991 1 1 0.999991
1 1 1 1
0.999989 1 1 0.999989
1 1 1 1
1 1 1 1
1 1 1 1
1 1 1 1
1 1 1 1
1 1 1 1
1 1 1 1
1 1 1 1
1 1 1 1
1 1 1 1
1 1 1 1
0.999811 1 1 0.999811
0.999793 1 1 0.999793
0.99978 1 1 0.99978
0.999765 1 1 0.999765
0.999783 1 1 0.999783
0.999842 1 1 0.999842
0.999781 1 1 0.999781
0.999766 1 1 0.999766
0.999769 1 1 0.999769
0.999757 1 1 0.999757
0.999788 1 1 0.999788
0.999786 1 1 0.999786
0.999762 1 1 0.999762
0.999763 1 1 0.999763
0.999765 1 1 0.999765
0.999751 1 1 0.999751
0.999792 1 1 0.999792
0.999796 1 1 0.999796
0.99978 1 1 0.99978
0.999779 1 1 0.999779
0.999744 1 1 0.999744
0.999755 1 1 0.999755
0.999966 1 1 0.999966
0.99989 1 1 0.99989
0.999837 1 1 0.999837
0.999802 1 1 0.999802
0.999777 1 1 0.999777
0.999804 1 1 0.999804
0.999789 1 1 0.999789
0.999821 1 1 0.999821
0.999891 1 1 0.999891
0.999838 1 1 0.999838
0.999978 1 1 0.999978
0.999876 1 1 0.999876
0.999754 1 1 0.999754
0.999744 1 1 0.999744
0.999727 1 1 0.999727
0.99975 1 1 0.99975
0.999894 1 1 0.999894
0.999849 1 1 0.999849
0.999797 1 1 0.999797
0.999797 1 1 0.999797
0.999792 1 1 0.999792
0.99978 1 1 0.99978
0.999822 1 1 0.999822
0.999828 1 1 0.999828
0.99985 1 1 0.99985
0.999822 1 1 0.999822
0.999829 1 1 0.999829
0.999978 1 1 0.999978
0.999881 1 1 0.999881
0.99974 1 1 0.99974
0.99972 1 1 0.99972
0.999764 1 1 0.999764
0.999813 1 1 0.999813
0.999856 1 1 0.999856
0.999845 1 1 0.999845
0.999817 1 1 0.999817
0.999762 1 1 0.999762
0.999772 1 1 0.999772
0.999977 1 1 0.999977
0.999902 1 1 0.999902
0.999827 1 1 0.999827
0.999831 1 1 0.999831
0.999792 1 1 0.999792
0.999804 1 1 0.999804
1 1 1 1
0.999979 1 1 0.999979
0.999789 1 1 0.999789
0.999898 1 1 0.999898
0.999898 1 1 0.999898
0.999844 1 1 0.999844
0.99982 1 1 0.99982
0.999783 1 1 0.999783
0.999845 1 1 0.999845
0.999803 1 1 0.999803
0.999825 1 1 0.999825
0.999983 1 1 0.999983
0.9999 1 1 0.9999
0.999849 1 1 0.999849
0.999844 1 1 0.999844
0.99982 1 1 0.99982
0.999785 1 1 0.999785
0.999801 1 1 0.999801
0.999801 1 1 0.999801
0.9998 1 1 0.9998
0.999771 1 1 0.999771
0.999903 1 1 0.999903
0.999834 1 1 0.999834
0.999813 1 1 0.999813
0.999809 1 1 0.999809
0.999802 1 1 0.999802
0.999828 1 1 0.999828
0.999774 1 1 0.999774
0.999791 1 1 0.999791
0.999773 1 1 0.999773
0.999727 1 1 0.999727
0.999987 1 1 0.999987
0.999903 1 1 0.999903
0.999839 1 1 0.999839
0.999905 1 1 0.999905
0.99992 1 1 0.99992
0.999853 1 1 0.999853
0.999814 1 1 0.999814
0.999849 1 1 0.999849
0.999924 1 1 0.999924
0.999993 1 1 0.999993
0.999992 1 1 0.999992
1 1 1 1
0.999991 1 1 0.999991
1 1 1 1
1 1 1 1
1 1 1 1
1 1 1 1
1 1 1 1
1 1 1 1
1 1 1 1
1 1 1 1
1 1 1 1
1 1 1 1
1 1 1 1
0.999788 1 1 0.999788
0.999769 1 1 0.999769
0.999786 1 1 0.999786
0.999755 1 1 0.999755
0.999766 1 1 0.999766
0.999781 1 1 0.999781
0.999762 1 1 0.999762
0.999764 1 1 0.999764
0.999763 1 1 0.999763
0.999746 1 1 0.999746
0.999792 1 1 0.999792
0.9998 1 1 0.9998
0.999768 1 1 0.999768
0.999761 1 1 0.999761
0.999761 1 1 0.999761
0.99983 1 1 0.99983
0.999754 1 1 0.999754
0.999745 1 1 0.999745
0.999724 1 1 0.999724
0.999751 1 1 0.999751
0.999894 1 1 0.999894
0.999852 1 1 0.999852
0.999797 1 1 0.999797
0.999796 1 1 0.999796
0.999798 1 1 0.999798
0.999823 1 1 0.999823
0.999778 1 1 0.999778
0.999835 1 1 0.999835
0.999851 1 1 0.999851
0.999819 1 1 0.999819
0.999828 1 1 0.999828
0.999971 1 1 0.999971
0.999882 1 1 0.999882
0.999736 1 1 0.999736
0.999723 1 1 0.999723
0.999767 1 1 0.999767
0.999856 1 1 0.999856
0.999822 1 1 0.999822
0.999761 1 1 0.999761
0.99981 1 1 0.99981
0.999781 1 1 0.999781
0.999844 1 1 0.999844
0.999977 1 1 0.999977
0.99983 1 1 0.99983
0.999807 1 1 0.999807
0.999795 1 1 0.999795
0.999829 1 1 0.999829
0.999896 1 1 0.999896
0.999731 1 1 0.999731
0.99972 1 1 0.99972
0.999792 1 1 0.999792
0.999844 1 1 0.999844
0.999832 1 1 0.999832
0.999807 1 1 0.999807
0.999775 1 1 0.999775
0.999735 1 1 0.999735
0.999983 1 1 0.999983
0.999912 1 1 0.999912
0.999841 1 1 0.999841
0.999775 1 1 0.999775
0.999807 1 1 0.999807
0.999777 1 1 0.999777
0.999983 1 1 0.999983
0.9999 1 1 0.9999
0.999785 1 1 0.999785
0.999843 1 1 0.999843
0.999852 1 1 0.999852
0.999817 1 1 0.999817
0.9998 1 1 0.9998
0.999803 1 1 0.999803
0.999798 1 1 0.999798
0.999767 1 1 0.999767
0.999903 1 1 0.999903
0.999837 1 1 0.999837
0.999818 1 1 0.999818
0.999812 1 1 0.999812
0.999804 1 1 0.999804
0.999831 1 1 0.999831
0.999776 1 1 0.999776
0.999804 1 1 0.999804
0.999769 1 1 0.999769
0.999722 1 1 0.999722
0.999834 1 1 0.999834
0.999791 1 1 0.999791
0.999784 1 1 0.999784
0.999783 1 1 0.999783
0.999839 1 1 0.999839
0.99983 1 1 0.99983
0.999727 1 1 0.999727
0.999715 1 1.00001 0.999705
0.999907 1 1 0.999907
0.999843 1 1 0.999843
0.999805 1 1 0.999805
0.99992 1 1 0.99992
0.999845 1 1 0.999845
0.999924 1 1 0.999924
0.999808 1 1 0.999808
0.999852 1 1 0.999852
0.99978 1 1 0.99978
0.999804 1 1 0.999804
0.999852 1 1 0.999852
0.999926 1 1 0.999926
0.999993 1 1 0.999993
0.999993 1 1 0.999993
1 1 1 1
0.999992 1 1 0.999992
1 1 1 1
1 1 1 1
1 1 1 1
1 1 1 1
1 1 1 1
1 1 1 1
1 1 1 1
1 1 1 1
1 1 1 1
1 1 1 1
1 1 1 1
0.999792 1 1 0.999792
0.999761 1 1 0.999761
0.999804 1 1 0.999804
0.99974 1 1 0.99974
0.999764 1 1 0.999764
0.999762 1 1 0.999762
0.999765 1 1 0.999765
0.99976 1 1 0.99976
0.999765 1 1 0.999765
0.999827 1 1 0.999827
0.999765 1 1 0.999765
0.999765 1 1 0.999765
0.999802 1 1 0.999802
0.999733 1 1 0.999733
0.999727 1 1 0.999727
0.999769 1 1 0.999769
0.999855 1 1 0.999855
0.999826 1 1 0.999826
0.99976 1 1 0.99976
0.999807 1 1 0.999807
0.999842 1 1 0.999842
0.999789 1 1 0.999789
0.99983 1 1 0.99983
0.99981 1 1 0.99981
0.999797 1 1 0.999797
0.999977 1 1 0.999977
0.999832 1 1 0.999832
0.99989 1 1 0.99989
0.999737 1 1 0.999737
0.999718 1 1 0.999718
0.999787 1 1 0.999787
0.999831 1 1 0.999831
0.99978 1 1 0.99978
0.999739 1 1 0.999739
0.999848 1 1 0.999848
0.999806 1 1 0.999806
0.999988 1 1 0.999988
0.999912 1 1 0.999912
0.999807 1 1 0.999807
0.999778 1 1 0.999778
0.999779 1 1 0.999779
0.999837 1 1 0.999837
0.999748 1 1 0.999748
0.99973 1 1 0.99973
0.99985 1 1 0.99985
0.999856 1 1 0.999856
0.9998 1 1 0.9998
0.999734 1 1 0.999734
0.999744 1 1 0.999744
0.999997 1 1 0.999997
0.999941 1 1 0.999941
0.999915 1 1 0.999915
0.999839 1 1 0.999839
0.999783 1 1 0.999783
0.999748 1 1 0.999748
0.999788 1 1 0.999788
0.999755 1 1 0.999755
0.999902 1 1 0.999902
0.99984 1 1 0.99984
0.999835 1 1 0.999835
0.999815 1 1 0.999815
0.999822 1 1 0.999822
0.999806 1 1 0.999806
0.999778 1 1 0.999778
0.999817 1 1 0.999817
0.999766 1 1 0.999766
0.999718 1 1 0.999718
0.999834 1 1 0.999834
0.999796 1 1 0.999796
0.999788 1 1 0.999788
0.999786 1 1 0.999786
0.99984 1 1 0.99984
0.999827 1 1 0.999827
0.999732 1 1 0.999732
0.999704 1 1 0.999704
0.999799 1 1 0.999799
0.999811 1 1 0.999811
0.999767 1 1 0.999767
0.99975 1 1 0.99975
0.999857 1 1 0.999857
0.999715 1 1 0.999715
0.999818 1 1.00014 0.999676
0.999847 1 1 0.999847
0.999805 1 1 0.999805
0.999776 1 1 0.999776
0.999924 1 1 0.999924
0.999855 1 1 0.999855
0.999803 1 1 0.999803
0.999926 1 1 0.999926
0.999852 1 1 0.999852
0.999776 1 1 0.999776
0.99981 1 1 0.99981
0.999755 1 1 0.999755
0.999769 1 1 0.999769
0.999811 1 1 0.999811
0.999857 1 1 0.999857
0.999925 1 1 0.999925
0.999993 1 1 0.999993
0.999993 1 1 0.999993
1 1 1 1
0.999993 1 1 0.999993
1 1 1 1
1 1 1 1
1 1 1 1
1 1 1 1
1 1 1 1
0.999999 1 1 0.999999
1 1 1 1
1 1 1 1
1 1 1 1
1 1 1 1
1 1 1 1
1 1 1 1
0.999824 1 1 0.999824
0.99977 1 1 0.99977
0.999759 1 1 0.999759
0.999761 1 1 0.999761
0.999769 1 1 0.999769
0.999761 1 1 0.999761
0.99981 1 1 0.99981
0.999773 1 1 0.999773
0.999777 1 1 0.999777
0.999844 1 1 0.999844
0.999743 1 1 0.999743
0.999717 1 1 0.999717
0.999782 1 1 0.999782
0.999831 1 1 0.999831
0.999785 1 1 0.999785
0.999743 1 1 0.999743
0.999852 1 1 0.999852
0.999805 1 1 0.999805
0.999807 1 1 0.999807
0.999779 1 1 0.999779
0.999782 1 1 0.999782
0.999993 1 1 0.999993
0.999912 1 1 0.999912
0.999833 1 1 0.999833
0.999745 1 1 0.999745
0.999996 1 1 0.999996
0.999937 1 1 0.999937
0.999732 1 1 0.999732
0.999839 1 1 0.999839
0.999802 1 1 0.999802
0.999739 1 1 0.999739
0.999736 1 1 0.999736
0.999854 1 1 0.999854
0.999926 1 1 0.999926
0.999838 1 1 0.999838
0.99979 1 1 0.99979
0.99976 1 1 0.99976
0.999742 1 1 0.999742
0.999785 1 1 0.999785
0.999727 1 1 0.999727
0.99979 1 1 0.99979
0.999907 1 1 0.999907
0.99978 1 1 0.99978
0.999776 1 1 0.999776
0.999862 1 1.00016 0.999705
0.999939 1 1 0.999939
0.999934 1 1 0.999934
0.999884 1 1 0.999884
0.99984 1 1 0.99984
0.999793 1 1 0.999793
0.999735 1 1 0.999735
0.999714 1 1 0.999714
0.999759 1 1 0.999759
0.999833 1 1 0.999833
0.9998 1 1 0.9998
0.999841 1 1 0.999841
0.999824 1 1 0.999824
0.999789 1 1 0.999789
0.999792 1 1 0.999792
0.999738 1 1 0.999738
0.999703 1 1 0.999703
0.999799 1 1 0.999799
0.999827 1 1 0.999827
0.999766 1 1 0.999766
0.999744 1 1 0.999744
0.999854 1 1 0.999854
0.999716 1 1 0.999716
0.999794 1 1.00012 0.999673
0.999767 1 1 0.999767
0.999674 1 0.999828 0.999846
0.999745 1 1 0.999745
0.999925 1 1.00023 0.999693
0.999717 1 1 0.999717
1.00043 1 1.00079 0.999646
0.984646 1.00314 0.981895 0.999659
0.999805 1 1 0.999805
0.999776 1 1 0.999776
0.999755 1 1 0.999755
0.999926 1 1 0.999926
0.999852 1 1 0.999852
0.999816 1 1 0.999816
0.999772 1 1 0.999772
0.999925 1 1 0.999925
0.999853 1 1 0.999853
0.999754 1 1 0.999754
0.999811 1 1 0.999811
0.999774 1 1 0.999774
0.999739 1 1 0.999739
0.999775 1 1 0.999775
0.999812 1 1 0.999812
0.999846 1 1 0.999846
0.999913 1 1 0.999913
0.999863 1 1 0.999863
0.999913 1 1 0.999913
0.999992 1 1 0.999992
0.999993 1 1 0.999993
1 1 1 1
0.999993 1 1 0.999993
1 1 1 1
1 1 1 1
1 1 1 1
1 1 1 1
1 1 1 1
1 1 1 1
0.999999 1 1 0.999999
1 1 1 1
1 1 1 1
1 1 1 1
1 1 1 1
1 1 1 1
1 1 1 1
0.999819 1 1 0.999819
0.999757 1 1 0.999757
0.999774 1 1 0.999774
0.999773 1 1 0.999773
0.999779 1 1 0.999779
0.999854 1 1 0.999854
0.999786 1 1 0.999786
0.995818 1.00031 0.995607 0.999906
0.999636 1 0.999705 0.99993
0.999954 1 1 0.999954
0.999741 1 1 0.999741
0.999734 1 1 0.999734
0.999829 1 1 0.999829
0.999804 1 1 0.999804
0.999734 1 1 0.999734
0.999738 1 1 0.999738
0.999852 1 1 0.999852
0.999792 1 1 0.999792
0.999765 1 1 0.999765
0.999736 1 1 0.999736
0.999996 1 1 0.999996
0.999786 1 1 0.999786
0.999937 1 1 0.999937
0.999838 1 1 0.999838
0.999932 1 1 0.999932
0.99972 1 1 0.99972
0.999945 1 1 0.999945
0.999934 1 1 0.999934
0.999875 1 1 0.999875
0.999792 1 1 0.999792
0.99978 1 0.999887 0.999893
0.999777 1 1 0.999777
0.999739 1 1.00004 0.999703
0.999783 1 1 0.999783
0.999846 1 1 0.999846
0.99979 1 1 0.99979
0.999758 1 1 0.999758
0.999725 1 1.00001 0.99972
0.999739 1 1 0.999739
0.99975 1 1.00004 0.999706
0.997709 1 0.997819 0.999889
0.99983 1 1 0.99983
0.999779 1 1.00007 0.999712
0.999873 1 1.00013 0.999744
0.999876 1 1 0.999876
0.999854 1 1 0.999854
0.999828 1 1 0.999828
0.999789 1 1 0.999789
0.999752 1 1 0.999752
0.999705 1 1 0.999705
1.00123 1 1.00153 0.999705
0.999798 1 1 0.999798
0.999765 1 1 0.999765
0.999842 1 1 0.999842
0.99985 1 1 0.99985
0.999718 1 1 0.999718
0.999737 1 1 0.999737
0.999705 1 1.00003 0.999671
0.999769 1 1 0.999769
0.999709 1 0.999854 0.999855
0.999744 1 1 0.999744
0.99978 1 1.00009 0.999692
0.99973 1 1 0.99973
1.00094 1 1.00129 0.999644
0.989018 1.00575 0.983674 0.999688
0.999746 1 1 0.999746
0.999722 1.00003 1 0.999687
0.999721 1 1 0.999721
1.00207 1 1.00242 0.999651
1.00047 1 1.00084 0.999626
0.962737 0.963872 1.00004 0.998783
0.9876 1.00131 0.986562 0.999748
0.98474 1.00805 0.977252 0.999613
0.967414 0.974104 0.993282 0.999848
0.973166 0.996774 0.976358 0.999957
0.999776 1 1 0.999776
0.999755 1 1 0.999755
0.999732 1 1 0.999732
0.999925 1 1 0.999925
0.99985 1 1 0.99985
0.999811 1 1 0.999811
0.999779 1 1 0.999779
0.999753 1 1 0.999753
0.999806 1 1 0.999806
0.999918 1 1 0.999918
0.99985 1 1 0.99985
0.999742 1 1 0.999742
0.999773 1 1 0.999773
0.999778 1 1 0.999778
0.999739 1 1 0.999739
0.999794 1 1 0.999794
0.999844 1 1 0.999844
0.999913 1 1 0.999913
0.999857 1 1 0.999857
0.99981 1 1 0.99981
0.999848 1 1 0.999848
0.999854 1 1 0.999854
0.99992 1 1 0.99992
0.999913 1 1 0.999913
0.999992 1 1 0.999992
0.999992 1 1 0.999992
1 1 1 1
0.999993 1 1 0.999993
1 1 1 1
1 1 1 1
1 1 1 1
1 1 1 1
1 1 1 1
1 1 1 1
1 1 1 1
1 1 1 1
0.999998 1 1 0.999998
1 1 1 1
1 1 1 1
1 1 1 1
1 1 1 1
1 1 1 1
0.999782 1 1 0.999782
0.999774 1 1 0.999774
0.999864 1 1 0.999864
0.995469 1 0.995563 0.999902
0.999785 1 1 0.999785
0.999766 1 0.999863 0.999903
0.99979 1 1.00004 0.999752
0.981413 0.984914 0.99692 0.999524
0.999676 1 0.999727 0.999949
0.999958 1 1 0.999958
0.999954 1 1 0.999954
0.999892 1 1 0.999892
0.999902 1 1 0.999902
0.999712 1 1 0.999712
0.999793 1 1 0.999793
0.999783 1 0.999904 0.999879
0.999778 1 1 0.999778
0.999702 1 1 0.999702
0.999785 1 1 0.999785
0.999758 1 1 0.999758
0.999727 1 1 0.999727
0.999743 1 1 0.999743
0.999934 1 1 0.999934
0.999788 1 1 0.999788
0.999852 1 1 0.999852
0.99995 1 1 0.99995
0.999866 1 1 0.999866
0.999749 1 1.00003 0.999714
0.999884 1 1 0.999884
0.99986 1 1 0.99986
0.999829 1 1 0.999829
0.998638 1 0.99875 0.999888
0.999783 1 0.999952 0.999831
0.999908 1 1.00016 0.999744
0.999794 1 1.00008 0.999715
0.999791 1 1 0.999791
0.999755 1 1 0.999755
1.00063 1 1.00092 0.999706
0.999704 1 1 0.999704
0.999802 1 1.00003 0.999772
0.997995 1 0.998114 0.99988
0.999702 1 1 0.999702
1.00006 1 1.00035 0.999709
0.999813 1 1 0.999813
0.9998 1 1 0.9998
0.999726 1 1 0.999726
1.00165 1 1.00199 0.999662
0.960927 0.963973 0.998058 0.998779
0.999772 1 1 0.999772
0.999743 1 1 0.999743
0.999816 1 0.999953 0.999863
0.999742 1 1 0.999742
1.00152 1 1.00188 0.999641
0.999692 1 1 0.999692
0.993722 1.00827 0.98585 0.999718
0.999748 1 1 0.999748
0.99993 1.00024 1 0.999688
0.999722 1 1 0.999722
1.00172 1 1.00207 0.999653
1.0002 1 1.00056 0.999636
0.964274 0.964322 1.00105 0.998906
0.984051 0.998265 0.986318 0.999436
0.987344 1.00998 0.977968 0.999614
0.970026 0.976388 0.993797 0.999685
0.972826 0.994444 0.9783 0.999961
0.999737 1 1 0.999737
0.974242 0.976948 0.997714 0.999515
0.989572 0.998798 0.990792 0.99997
0.999618 1 1 0.999618
1.00118 1 1.00148 0.999705
1.00711 1 1.00747 0.999638
1.00136 1.01017 0.991723 0.99955
0.976216 0.972847 1.00478 0.998689
0.986501 1.00688 0.980333 0.999415
0.963397 0.976986 0.986262 0.999826
0.991061 1.00539 0.98578 0.99997
0.999755 1 1 0.999755
0.999733 1 1 0.999733
0.999712 1 1 0.999712
0.999923 1 1 0.999923
0.999854 1 1 0.999854
0.9998 1 1 0.9998
0.999772 1 1 0.999772
0.999746 1 1 0.999746
0.999913 1 1 0.999913
0.999776 1 1 0.999776
0.9998 1 1 0.9998
0.999849 1 1 0.999849
0.999735 1 1 0.999735
0.999757 1 1 0.999757
0.999908 1 1.0002 0.99971
0.999794 1 1 0.999794
0.999855 1 1 0.999855
0.999857 1 1 0.999857
0.999804 1 1 0.999804
0.999803 1 1 0.999803
0.999797 1 1 0.999797
0.999771 1 1 0.999771
0.999785 1 1 0.999785
0.999839 1 1 0.999839
0.999848 1 1 0.999848
0.999916 1 1 0.999916
0.999846 1 1 0.999846
0.999916 1 1 0.999916
0.999991 1 1 0.999991
0.999913 1 1 0.999913
0.999992 1 1 0.999992
1 1 1 1
0.999992 1 1 0.999992
1 1 1 1
1 1 1 1
1 1 1 1
1 1 1 1
1 1 1 1
0.999957 1 1 0.999957
1 1 1 1
1 1 1 1
1 1 1 1
1 1 1 1
1 1 1 1
1 1 1 1
1 1 1 1
1 1 1 1
1 1 1 1
0.995033 1 0.995134 0.999899
0.999784 1 1 0.999784
0.999876 1 1 0.999876
0.982346 0.984577 0.998027 0.999706
0.99983 1 0.999883 0.999947
0.999771 1 1.00003 0.999737
1.00133 1 1.00159 0.999741
0.987792 0.986615 1.00163 0.999567
0.965925 0.967295 1.00011 0.99847
0.966153 0.973811 0.992639 0.999493
0.97794 0.993435 0.984438 0.999964
0.999891 1 1 0.999891
0.999958 1 1 0.999958
0.999954 1 1 0.999954
0.99989 1 1 0.99989
0.99985 1 1 0.99985
0.999862 1 1 0.999862
0.999896 1 1 0.999896
0.999899 1 1 0.999899
0.999749 1 1.00003 0.999722
0.999432 1 0.999545 0.999887
0.999605 1 0.999774 0.999832
0.999916 1 1.00017 0.999743
0.999725 1 1.00001 0.999719
1.0001 1 1.00039 0.999706
0.999714 1 1.00001 0.999704
0.999758 1 1 0.999758
0.999866 1 1 0.999866
0.999792 1 1 0.999792
0.999893 1 1 0.999893
0.999831 1 1 0.999831
0.999242 1 0.999476 0.999766
0.999815 1 1 0.999815
0.999802 1 1 0.999802
0.997594 1 0.997715 0.999879
0.999709 1 1 0.999709
1.00051 1 1.00081 0.999698
0.999726 1 1 0.999726
1.00168 1 1.00202 0.999664
0.989994 1.00402 0.986234 0.999794
1.00179 1 1.00206 0.999729
0.999667 1 1 0.999667
1.00458 1 1.00494 0.999644
0.999776 1 1 0.999776
0.999748 1 1 0.999748
1.00022 1 1.00054 0.999673
0.972678 0.978858 0.993909 0.999777
0.964504 0.965755 0.99988 0.998825
0.99975 1 1 0.99975
0.999723 1 1 0.999723
1.00018 1.00054 0.999956 0.999689
0.99991 1 1.00026 0.999646
1.00128 1 1.00162 0.999655
0.963549 0.9652 0.999863 0.998427
0.987487 0.998181 0.989468 0.999817
0.99047 1.01227 0.978839 0.999615
0.966765 0.975516 0.991513 0.999512
0.972088 0.991899 0.980062 0.999965
0.999736 1 1 0.999736
0.972835 0.977945 0.994976 0.999798
0.989494 0.998013 0.991488 0.999976
0.999619 1 1 0.999616
1.00044 1 1.00073 0.999707
1.00636 1 1.00672 0.999648
0.999183 1.0076 0.992104 0.999536
0.975043 0.973559 1.00302 0.998511
0.980424 1.00242 0.978272 0.999786
0.963315 0.976846 0.986655 0.999486
0.986813 1.00558 0.981368 0.99997
0.999718 1 1 0.999718
1.00108 1.00257 0.998533 0.999983
1.00452 1.00632 0.998236 0.999982
1.00941 1 1.0098 0.999618
1.00517 1 1.00544 0.999737
1.00439 1.00361 1.00103 0.999751
0.991059 1.0015 0.989656 0.999922
0.979158 0.976704 1.00391 0.998609
0.973062 0.988962 0.984457 0.999457
1.00003 1.00859 0.991539 0.999974
0.999733 1 1 0.999733
0.99971 1 1 0.99971
1.00012 1 1.00042 0.999699
0.999913 1 1 0.999913
0.999854 1 1 0.999854
0.999807 1 1 0.999807
0.999774 1 1 0.999774
0.99973 1 1 0.99973
0.999855 1 1 0.999855
0.999761 1 1 0.999761
0.999794 1 1 0.999794
0.999951 1 1.00024 0.999707
1.00024 1 1.00055 0.999685
0.999826 1 1.00009 0.999739
0.999798 1 1 0.999798
0.999857 1 1 0.999857
0.999797 1 1 0.999797
0.999803 1 1 0.999803
0.999797 1 1 0.999797
0.999771 1 1 0.999771
0.999787 1 1 0.999787
0.999764 1 1 0.999764
0.999753 1 1 0.999753
0.999768 1 1 0.999768
0.999799 1 1 0.999799
0.999795 1 1 0.999795
0.999785 1 1 0.999785
0.999834 1 1 0.999834
0.999839 1 1 0.999839
0.999909 1 1 0.999909
0.999848 1 1 0.999848
0.999916 1 1 0.999916
0.99999 1 1 0.99999
0.999911 1 1 0.999911
0.999991 1 1 0.999991
1 1 1 1
0.999992 1 1 0.999992
1 1 1 1
1 1 1 1
1 1 1 1
1 1 1 1
1 1 1 1
0.999961 1 1 0.999961
1 1 1 1
0.999957 1 1 0.999957
1 1 1 1
1 1 1 1
1 1 1 1
1 1 1 1
1 1 1 1
1 1 1 1
1 1 1 1
1 1 1 1
0.971152 0.976095 0.995109 0.999826
0.993273 0.999612 0.993674 0.999984
0.984358 0.985168 0.999319 0.999859
0.999928 1 0.999984 0.999945
0.999752 1 1.00003 0.999723
0.987041 0.985186 1.00196 0.999928
1.00054 1 1.0008 0.99975
0.969584 0.969438 1.00136 0.998796
0.968335 0.974503 0.993824 0.999845
0.976901 0.993135 0.983685 0.999968
0.999724 0.995232 1.00465 0.999862
0.974757 0.973353 1.00269 0.998755
0.963735 0.975444 0.98816 0.999833
0.986216 1.00552 0.980838 0.999967
0.999836 1 1 0.999836
0.999895 1 1 0.999895
0.999958 1 1 0.999958
0.999887 1 1 0.999887
0.999854 1 1 0.999854
0.999847 1 1 0.999847
0.999864 1 1 0.999864
0.999876 1 1 0.999876
0.999891 1 1 0.999891
0.999895 1 1 0.999895
0.998787 1 0.999025 0.999761
0.997421 1 0.997543 0.999877
0.999716 1 1 0.999716
1.00095 1 1.00126 0.999688
1.00159 1 1.00193 0.999666
0.999726 1 1 0.999726
0.999805 1 1 0.999805
0.999818 1 1 0.999818
0.991981 1.00247 0.98976 0.999778
0.999773 1 1 0.999773
0.999743 1 1 0.999743
1.00021 1 1.00048 0.999733
0.999891 1 1.00023 0.999661
1.00362 1 1.00398 0.999636
1.00079 1 1.00112 0.999667
0.984542 1.01166 0.973502 0.999686
1.00815 1 1.0085 0.999647
1.00435 1 1.00473 0.999621
0.999773 1 1 0.999773
0.999737 1 1 0.999737
0.999695 1 1 0.999695
0.998603 1.00125 0.997391 0.999961
0.973325 0.978176 0.995542 0.999497
0.962462 0.965477 0.998115 0.998759
0.999736 1 1 0.999736
0.999709 1 1 0.999709
0.999615 1 1 0.999615
1.00572 1 1.00606 0.999659
0.970313 0.976841 0.993824 0.99949
0.972213 0.972248 1.00092 0.999048
0.980603 1.00344 0.977761 0.999464
0.997743 1.00518 0.993072 0.999526
0.96358 0.975989 0.98744 0.999845
0.990504 0.999221 0.991307 0.999969
0.987094 1.00557 0.981661 0.999966
0.999717 1 1 0.999717
0.999112 1.00143 0.997707 0.999974
1.0056 1.00752 0.998114 0.999981
1.00971 1 1.01009 0.99962
1.00528 1 1.00555 0.999736
1.0073 1.00315 1.00462 0.999511
0.987635 1.00149 0.986686 0.999472
0.978964 0.977962 1.00243 0.998602
0.977199 0.988545 0.988667 0.999854
0.996399 1.00715 0.989355 0.999967
0.999749 1 1 0.999749
1.00428 1.0045 0.999791 0.999991
1.00163 1.00288 0.998762 0.999995
1.00675 1 1.00691 0.999838
0.997996 0.99536 1.00269 0.999956
0.988351 0.984674 1.00501 0.998727
0.986933 1.00112 0.986003 0.999819
0.998226 1.00738 0.990956 0.999956
0.999709 1 1 0.999709
1.00006 1 1.00036 0.999704
1.001 1 1.0013 0.9997
0.999854 1 1 0.999854
0.999794 1 1 0.999794
0.999764 1 1 0.999764
0.999984 1 1.00028 0.999703
0.999798 1 1 0.999798
0.999771 1 1.00003 0.99974
1.00062 1 1.00093 0.999683
1.00055 1 1.00086 0.999693
0.999904 1 1.00021 0.999691
0.999755 1 1 0.999755
0.999803 1 1 0.999803
0.999797 1 1 0.999797
0.999771 1 1 0.999771
0.999765 1 1 0.999765
0.999787 1 1 0.999787
0.999755 1 1 0.999755
0.999749 1 1 0.999749
0.999736 1 1 0.999736
0.999751 1 1 0.999751
0.999768 1 1 0.999768
0.999778 1 1 0.999778
0.999789 1 1 0.999789
0.999829 1 1 0.999829
0.999809 1 1 0.999809
0.999799 1 1 0.999799
0.999832 1 1 0.999832
0.999786 1 1 0.999786
0.999834 1 1 0.999834
0.999902 1 1 0.999902
0.999839 1 1 0.999839
0.999909 1 1 0.999909
0.999988 1 1 0.999988
0.999916 1 1 0.999916
0.999989 1 1 0.999989
1 1 1 1
0.999991 1 1 0.999991
1 1 1 1
1 1 1 1
1 1 1 1
1 1 1 1
1 1 1 1
0.999943 1 1 0.999943
1 1 1 1
0.999952 1 1 0.999952
1 1 1 1
1 1 1 1
0.999957 1 1 0.999957
1 1 1 1
1 1 1 1
1 1 1 1
1 1 1 1
1 1 1 1
1 1 1 1
0.999914 1.0014 0.998529 0.999986
0.971648 0.976425 0.995443 0.999664
1.00386 1.00643 0.997469 0.999986
0.991273 0.997325 0.99395 0.999982
0.984003 0.983897 1.00054 0.999569
0.999802 1 1.00004 0.999759
0.970083 0.969188 1.00178 0.999142
0.967202 0.974428 0.993073 0.999509
0.976217 0.993037 0.983089 0.999972
0.996928 0.996821 1.00037 0.999742
0.974002 0.971274 1.00412 0.998692
0.965974 0.977465 0.988752 0.999486
0.983875 1.00453 0.979468 0.99997
0.996497 1.00426 0.992388 0.999875
0.976168 0.973056 1.00461 0.998595
0.975003 0.989986 0.985019 0.999844
0.99467 1.00974 0.985099 0.999977
0.999806 1 1 0.999806
0.999841 1 1 0.999841
0.999899 1 1 0.999899
0.999858 1 1 0.999858
0.999819 1 1 0.999819
0.999851 1 1 0.999851
0.999866 1 1 0.999866
0.99987 1 1 0.99987
0.999881 1 1 0.999881
0.999886 1 1 0.999886
0.994086 1.00106 0.993268 0.999761
0.998645 1 0.998908 0.999737
1.00003 1 1.00038 0.999654
1.00292 1 1.00329 0.999628
1.00142 1 1.00176 0.999661
0.999738 1 1 0.999738
0.999771 1 1 0.999771
0.999773 1 1 0.999773
0.986308 1.00868 0.978128 0.999683
0.99974 1 1 0.99974
0.999783 1 1.00009 0.999692
1.00741 1 1.00776 0.999645
1.00417 1 1.00456 0.999621
0.987603 1.01062 0.977574 0.999645
1.01749 1 1.01784 0.999654
1.00043 1 1.00078 0.999649
0.999744 1 1 0.999744
0.999701 1 1 0.999701
1.0023 1.00252 0.99978 0.999996
0.999325 1.00128 0.998075 0.999974
0.973546 0.978931 0.994694 0.999805
0.999716 1 1 0.999716
1.00525 1 1.00552 0.999736
1.00982 1 1.0102 0.999621
1.00059 1.00204 0.998573 0.999984
0.978759 0.976409 1.00385 0.998557
0.983704 1.00021 0.983587 0.999911
1.00823 1.002 1.00696 0.999262
0.971166 0.986471 0.985003 0.999475
1.00689 1.00894 0.997988 0.99998
0.997847 1.00676 0.991181 0.999963
0.999754 1 1 0.999754
1.00423 1.00432 0.999921 0.999991
1.00177 1.00316 0.998619 0.999996
1.00704 0.999985 1.00729 0.999767
0.997079 0.996569 1.0007 0.999813
0.990901 0.987228 1.00511 0.998621
1.00189 1.00823 0.993746 0.999965
0.987275 0.997528 0.990039 0.999679
0.999786 1 1 0.999786
0.999414 0.999253 1.00016 1
0.999312 1.00036 0.998951 1
0.997213 1.00919 0.98816 0.999975
1.003 0.997186 1.00591 0.999921
0.985239 0.983376 1.00304 0.998857
0.988151 0.999405 0.989002 0.999733
0.999975 1 1.00027 0.999708
1.00079 1 1.00109 0.999694
1.00316 1 1.00344 0.999719
0.999798 1 1 0.999798
0.99974 1 1 0.99974
1.00106 1 1.00138 0.999682
0.999756 1 1 0.999756
1.00002 1 1.00033 0.999691
1.00095 1 1.00126 0.999686
1.00006 1 1.00035 0.999702
0.999712 1 1 0.999712
0.999767 1 1 0.999767
0.999788 1 1 0.999788
0.999757 1 1 0.999757
0.999737 1 1 0.999737
0.999748 1 1 0.999748
0.99973 1 1 0.99973
0.999764 1 1 0.999764
0.999819 1 1.0001 0.999723
0.999767 1 1 0.999767
0.999778 1 1 0.999778
0.999749 1 1 0.999749
0.999799 1 1 0.999799
0.999834 1 1 0.999834
0.999789 1 1 0.999789
0.999851 1 1 0.999851
0.999827 1 1 0.999827
0.99982 1 1 0.99982
0.999802 1 1 0.999802
0.999835 1 1 0.999835
0.999899 1 1 0.999899
0.999834 1 1 0.999834
0.999902 1 1 0.999902
0.999985 1 1 0.999985
0.999908 1 1 0.999908
0.999987 1 1 0.999987
1 1 1 1
0.999989 1 1 0.999989
1 1 1 1
1 1 1 1
1 1 1 1
1 1 1 1
1 1 1 1
0.999921 1 1 0.999921
0.999988 1 1 0.999988
0.999942 1 1 0.999942
1 1 1 1
0.999995 1 1 0.999995
0.999944 1 1 0.999944
1 1 1 1
1 1 1 1
1 1 1 1
1 1 1 1
1 1 1 1
1 1 1 1
1.00353 1.00368 0.999857 0.999993
0.997516 1.00046 0.997094 0.999965
0.973619 0.976749 0.997271 0.999522
0.999848 1 1 0.999848
1.00188 1.00216 0.999728 0.999996
1.0047 1.00667 0.998047 0.999986
0.989847 0.996977 0.992882 0.999966
0.994298 0.997995 0.99669 0.999604
0.976474 0.971711 1.0062 0.998707
0.968875 0.978538 0.99028 0.999843
0.984971 1.00378 0.981293 0.999966
0.995018 1.00767 0.987928 0.999507
0.977974 0.97475 1.00467 0.998641
0.972287 0.988787 0.983646 0.999661
0.995876 1.0106 0.985459 0.999969
0.978736 1.00078 0.978478 0.999485
0.982532 0.979716 1.00459 0.998288
0.984228 0.995176 0.989514 0.999479
0.996247 1.00804 0.988358 0.999948
0.999773 1 1 0.999773
0.999802 1 1 0.999802
0.999847 1 1 0.999847
0.999809 1 1 0.999809
0.999825 1 1 0.999825
0.999854 1 1 0.999854
0.999872 1 1 0.999872
0.999886 1 1 0.999886
0.988048 1.00564 0.982819 0.99968
1.00655 1 1.00691 0.999642
0.999774 1 1 0.999774
1.00389 1 1.00427 0.999621
0.999856 1 1.00017 0.999689
0.999743 1 1 0.999743
0.999745 1 1 0.999745
0.988694 1.00978 0.97947 0.999641
0.9997 1 1 0.9997
1.00125 1 1.0016 0.999647
1.01765 1 1.018 0.999652
0.999738 1 1 0.999738
1.00378 1.00289 1.00118 0.999715
1.01331 1 1.01363 0.999681
0.999681 1 1 0.999681
0.999707 1 1 0.999707
0.999151 0.999097 1.00005 1
1.00238 1.00256 0.999816 0.999996
0.999873 1.00133 0.998555 0.999987
0.999758 1 1 0.999758
1.0076 0.999979 1.00793 0.999696
1.00415 1.00416 0.999995 0.999991
0.987502 0.981671 1.00733 0.998625
1.0011 1.00071 1.00091 0.999489
0.981637 0.994219 0.987794 0.999545
1.00169 1.00316 0.998543 0.999996
1.00534 1.00885 0.996546 0.999975
0.999783 1 1 0.999783
0.999185 0.99895 1.00023 1
0.999071 0.999392 0.999678 1
1.00048 0.996148 1.00441 0.999945
0.998193 1.01009 0.988253 0.999968
0.986058 0.987039 1.00004 0.998966
0.983841 0.995526 0.988788 0.999469
1.00248 0.998784 1.00388 0.99982
0.999071 0.998618 1.00045 1
1.00226 1.00216 1.0001 0.999996
0.987881 1.00514 0.982858 0.999966
0.983999 0.992787 0.991651 0.999492
0.994661 0.993087 1.00147 1.00012
0.97931 0.982743 0.997611 0.998894
1.00058 1 1.00089 0.999688
1.00232 1 1.00261 0.999715
1.0117 1 1.01201 0.999697
0.999758 1 1 0.999758
1.00006 1 1.00037 0.99969
1.00122 1 1.00154 0.999679
0.999713 1 1 0.999713
1.00013 1 1.00043 0.9997
1.00301 1 1.00331 0.9997
0.999737 1 1 0.999737
0.999747 1 1 0.999747
0.999906 1 1.00018 0.999728
1.0012 1 1.00151 0.999696
0.999778 1 1 0.999778
0.999795 1 1.00007 0.999729
0.999791 1 1.00009 0.9997
0.999749 1 1 0.999749
0.999778 1 1 0.999778
0.999746 1 1 0.999746
0.999818 1 1 0.999818
0.999834 1 1 0.999834
0.999804 1 1 0.999804
0.999861 1 1 0.999861
0.999833 1 1 0.999833
0.999789 1 1 0.999789
0.999903 1 1 0.999903
0.999849 1 1 0.999849
0.999824 1 1 0.999824
0.999838 1 1 0.999838
0.9999 1 1 0.9999
0.999983 1 1 0.999983
0.999902 1 1 0.999902
0.999985 1 1 0.999985
1 1 1 1
0.999987 1 1 0.999987
1 1 1 1
1 1 1 1
1 1 1 1
1 1 1 1
1 1 1 1
0.999909 1 1 0.999909
0.999983 1 1 0.999983
0.999925 1 1 0.999925
1 1 1 1
0.999988 1 1 0.999988
0.999942 1 1 0.999942
1 1 1 1
1 1 1 1
0.999991 1 1 0.999991
1 1 1 1
1 1 1 1
1 1 1 1
0.999942 0.999808 1.00013 1
1.00342 1.00358 0.999849 0.999994
0.99867 1.00117 0.997541 0.999963
0.999851 1 1 0.999851
0.999837 1 1 0.999837
0.999809 1 1 0.999809
0.998691 1.00032 0.998368 1
1.00163 1.00195 0.999676 0.999997
1.00574 1.00696 0.998808 0.999986
0.998255 1.01152 0.987022 0.999865
0.976953 0.973301 1.00514 0.998623
0.972009 0.988772 0.983562 0.999476
1.00027 1.01162 0.988811 0.999971
0.976765 0.998718 0.978172 0.999843
0.986347 0.981609 1.00615 0.998684
0.987866 1.00142 0.986684 0.999774
0.999952 1.00873 0.991333 0.999961
0.976476 0.994572 0.981874 0.99993
0.98445 0.98353 1.00218 0.998761
0.989941 1.00238 0.98792 0.99967
0.995149 1.00813 0.987147 0.999977
0.999763 1 1 0.999763
0.999774 1 1 0.999774
0.999798 1 1 0.999798
0.999809 1 1 0.999809
0.999831 1 1 0.999831
0.999874 1 1 0.999874
0.989619 1.0088 0.981345 0.999638
1.01755 1 1.01791 0.999651
0.999745 1 1 0.999745
1.00196 1 1.00231 0.999646
0.999699 1 1 0.999699
0.999737 1 1 0.999737
0.999704 1 1 0.999704
1.00066 1.0039 0.997063 0.999706
0.999683 1 1 0.999683
1.0138 1 1.01412 0.999687
0.999703 1 1 0.999703
1.02125 1 1.02147 0.999787
1.00017 1 1.00044 0.999733
0.999677 1 1 0.999677
0.999471 0.999427 1.00004 1
0.999216 0.999169 1.00005 1
1.0025 1.00261 0.999903 0.999996
0.99978 1 1 0.99978
1.00049 0.995452 1.00508 0.999986
0.998941 0.998644 1.0003 1
0.990522 0.990219 1.0009 0.999407
0.989107 1.00195 0.987416 0.999761
0.99886 0.998493 1.00037 1
1.00201 1.01122 0.99092 0.99997
1.00218 0.99937 1.00298 0.999828
0.999213 0.998894 1.00032 1
1.00199 1.00195 1.00004 0.999996
0.994608 0.993267 1.00152 0.999833
0.985894 1.00428 0.981723 0.999969
0.987125 0.998836 0.988483 0.999791
0.979373 0.982047 0.998386 0.998889
1.01099 1 1.01109 0.999902
0.999821 0.99974 1.00008 1
1.0046 1.00674 0.997884 0.999985
0.97763 0.993434 0.98413 0.999961
0.976345 0.98828 0.988077 0.999845
0.991682 0.986386 1.00658 0.998793
0.980633 0.991792 0.989 0.999746
1.00138 1 1.00167 0.99971
1.01268 1 1.01299 0.9997
1.01908 1 1.01939 0.999698
0.999713 1 1 0.999713
1.00025 1 1.00055 0.999699
1.00245 1 1.00275 0.9997
1.00981 1 1.01016 0.999655
1.00004 1 1.00032 0.999726
1.00155 1 1.00186 0.999689
1.00296 1 1.00332 0.999649
0.999734 1 1 0.999734
0.999991 1 1.00029 0.999698
0.999688 1 1 0.999688
0.999734 1 1 0.999734
0.999794 1 1 0.999794
0.999744 1 1 0.999744
0.999742 1 1 0.999742
0.999842 1 1 0.999842
0.999822 1 1 0.999822
0.99986 1 1 0.99986
0.999838 1 1 0.999838
0.999809 1 1 0.999809
0.999909 1 1 0.999909
0.999862 1 1 0.999862
0.999832 1 1 0.999832
0.999981 1 1 0.999981
0.999904 1 1 0.999904
0.999846 1 1 0.999846
0.9999 1 1 0.9999
0.999982 1 1 0.999982
1 1 1 1
0.999984 1 1 0.999984
1 1 1 1
1 1 1 1
1 1 1 1
1 1 1 1
1 1 1 1
0.99991 1 1 0.99991
0.99999 1 1 0.99999
0.999913 1 1 0.999913
1 1 1 1
0.999989 1 1 0.999989
0.999929 1 1 0.999929
1 1 1 1
1 1 1 1
0.999988 1 1 0.999988
1 1 1 1
1 1 1 1
1 1 1 1
0.99923 0.998675 1.00055 1
0.999749 0.999582 1.00017 1
1.00318 1.00343 0.999758 0.999994
0.999837 1 1 0.999837
0.999818 1 1 0.999818
0.999853 1 1 0.999853
0.999836 1 1 0.999836
0.999804 1 1 0.999804
0.999801 1 1 0.999801
0.999777 1 1 0.999777
1.00091 1.00245 0.998464 0.999996
0.998786 0.999473 0.999311 1
1.00136 1.00173 0.999628 0.999997
1.0036 1.00942 0.99426 0.999974
0.981692 1.00431 0.978012 0.99946
0.987154 0.981309 1.00693 0.999036
0.979987 0.999254 0.981276 0.999432
0.98025 0.994025 0.986433 0.999705
0.98911 0.987852 1.00252 0.998756
0.9873 0.999119 0.988747 0.999417
0.992194 1.00746 0.984889 0.999962
0.990993 0.991803 0.999225 0.999958
0.982425 0.988008 0.995593 0.998751
0.98596 1.00393 0.982321 0.999771
0.989441 1.00453 0.985002 0.999973
0.999747 1 1 0.999747
0.999762 1 1 0.999762
0.999774 1 1 0.999774
0.999808 1 1 0.999808
0.996734 1.00489 0.992182 0.999697
1.01466 1 1.01497 0.999693
0.999736 1 1 0.999736
0.999701 1 1 0.999701
0.999686 1 1 0.999686
0.999708 1 1 0.999708
0.999674 1 1 0.999674
1.01242 0.998403 1.01424 0.999796
1.00018 1 1.00044 0.999747
0.999672 1 1 0.999672
1.02544 0.995251 1.03044 0.999898
1.00358 1 1.00395 0.999635
0.999097 0.999081 1.00001 1
0.999668 0.999657 1.00001 1
0.999264 0.999237 1.00003 1
1.00213 1 1.0023 0.999835
0.994788 0.992442 1.00227 1.00009
0.999372 0.999174 1.0002 1
0.979957 0.982503 0.998552 0.998855
0.980948 0.997069 0.984373 0.99945
1.0017 1.00173 0.999982 0.999997
0.987384 1.00344 0.98403 0.999965
1.01153 0.999678 1.01196 0.999889
0.999619 0.99951 1.00011 1
1.00555 1.00697 0.998606 0.999984
0.984403 0.994315 0.989947 1.00008
0.976659 0.992823 0.983753 0.999965
0.972485 0.986299 0.98633 0.999659
0.993054 0.985484 1.00878 0.998913
1.0034 1 1.00351 0.999891
1.00389 1.00383 1.00006 0.999993
0.994005 0.999937 0.994086 0.999981
0.96315 0.974391 0.988636 0.999824
0.984498 0.978992 1.00698 0.998656
0.976446 0.997261 0.979545 0.999574
1.01383 1 1.01414 0.999702
1.01958 1 1.01989 0.999696
1.01986 1 1.02021 0.999654
1.00195 1 1.00225 0.9997
1.01015 1 1.0105 0.999661
1.00746 1 1.00785 0.999607
1.00209 1 1.00241 0.999683
1.0032 1 1.00356 0.999641
1.00183 1 1.0022 0.999636
1.0003 1 1.00061 0.999695
0.99986 1 1.00018 0.999682
0.999771 1 1.00007 0.9997
0.999745 1 1 0.999745
0.999771 1 1 0.999771
0.99973 1 1 0.99973
0.999827 1 1 0.999827
0.999798 1 1 0.999798
0.999739 1 1 0.999739
0.999859 1 1 0.999859
0.999839 1 1 0.999839
0.999826 1 1 0.999826
0.999909 1 1 0.999909
0.999863 1 1 0.999863
0.999842 1 1 0.999842
0.999982 1 1 0.999982
0.99991 1 1 0.99991
0.999862 1 1 0.999862
1 1 1 1
0.999981 1 1 0.999981
0.999904 1 1 0.999904
0.999982 1 1 0.999982
1 1 1 1
1 1 1 1
1 1 1 1
1 1 1 1
1 1 1 1
0.999843 1 1 0.999843
0.999902 1 1 0.999902
0.999986 1 1 0.999986
0.999909 1 1 0.999909
1 1 1 1
0.999991 1 1 0.999991
0.999917 1 1 0.999917
1 1 1 1
1 1 1 1
0.999995 1 1 0.999995
1 1 1 1
1 1 1 1
1 1 1 1
0.999373 0.999262 1.00011 1
0.999343 0.998929 1.00041 1
0.999557 0.999356 1.0002 1
0.99984 1 1 0.99984
0.999815 1 1 0.999815
0.999818 1 1 0.999818
0.999807 1 1 0.999807
0.999802 1 1 0.999802
0.999836 1 1 0.999836
0.999799 1 1 0.999799
0.999801 1 1 0.999801
0.999778 1 1 0.999778
0.999778 1 1 0.999778
1.00428 1.00496 0.999334 0.999983
1.00094 1.00271 0.998238 0.999997
0.998774 0.998583 1.00019 1
0.992544 1.00674 0.985942 0.999959
0.990804 1.00471 0.986445 0.999713
0.985285 0.994155 0.991553 0.999521
0.983204 0.984283 1.00008 0.998826
0.995037 0.990879 1.00458 0.999613
0.980285 0.984654 0.996775 0.998783
0.986482 1.00021 0.986645 0.999627
0.987596 1.00467 0.983034 0.999973
1.01626 0.98807 1.02889 0.999649
0.988117 0.986273 1.00307 0.998807
0.972182 0.988842 0.98367 0.999473
0.978135 0.996112 0.981985 0.999967
0.99977 1 1 0.99977
0.99975 1 1 0.99975
0.999761 1 1 0.999761
1.00445 0.996833 1.00784 0.999804
1.00017 1 1.00041 0.999761
0.999713 1 1 0.999713
0.999672 1 1 0.999672
0.999708 1 1.00003 0.999675
1.00407 1 1.00444 0.999632
1.02522 0.996596 1.02882 0.999898
1.004 1 1.00435 0.999654
1.01281 0.999015 1.01406 0.99976
1.00241 1.00242 1 0.999995
0.999175 0.999162 1.00001 1
0.999881 0.999887 0.999994 1
1.01187 0.999305 1.01269 0.999878
0.98709 0.9935 0.993804 0.999743
0.999416 0.999278 1.00014 1
0.984412 0.982428 1.00355 0.998471
0.973628 0.987217 0.986755 0.999472
1.00657 1.00725 0.999335 0.999984
0.976501 0.992674 0.983737 0.99997
1.0044 1 1.0045 0.999896
1.00378 1.00372 1.00007 0.999993
0.992017 0.997739 0.994285 0.99998
0.972524 0.994406 0.978206 0.999784
0.965762 0.976862 0.989151 0.99948
0.987645 0.981194 1.00817 0.998418
0.985052 1.00028 0.984974 0.999798
1.00054 1.00178 0.998783 0.999984
0.966714 0.974329 0.992694 0.999487
0.976973 0.974004 1.00448 0.998578
0.972437 1.00053 0.972095 0.999825
1.01965 1 1.01996 0.999695
1.02113 1 1.02148 0.999654
1.01171 1 1.0121 0.999616
1.01028 1 1.01061 0.999668
1.00704 1 1.00743 0.999611
1.00181 1 1.00218 0.999629
1.00318 1 1.00355 0.999633
1.00126 1 1.00163 0.999639
0.999716 1 1 0.999716
0.999878 1 1.0002 0.999676
0.999704 1 1 0.999704
0.999765 1 1 0.999765
0.999783 1 1 0.999783
0.999762 1 1 0.999762
0.999747 1 1 0.999747
0.999806 1 1 0.999806
0.999765 1 1 0.999765
0.999727 1 1 0.999727
0.999859 1 1 0.999859
0.999832 1 1 0.999832
0.999802 1 1 0.999802
0.999903 1 1 0.999903
0.999858 1 1 0.999858
0.999837 1 1 0.999837
0.999981 1 1 0.999981
0.999909 1 1 0.999909
0.999865 1 1 0.999865
1 1 1 1
0.999982 1 1 0.999982
0.99991 1 1 0.99991
1 1 1 1
1 1 1 1
0.999982 1 1 0.999982
1 1 1 1
1 1 1 1
1 1 1 1
0.999841 1 1 0.999841
0.999897 1 1 0.999897
0.999841 1 1 0.999841
0.999983 1 1 0.999983
0.999902 1 1 0.999902
1 1 1 1
0.999987 1 1 0.999987
0.999909 1 1 0.999909
1 1 1 1
1 1 1 1
0.999992 1 1 0.999992
1 1 1 1
1 1 1 1
1 1 1 1
1.0026 1.00261 1 0.999992
0.999153 0.998988 1.00016 1
0.999474 0.999186 1.00029 1
0.999826 1 1 0.999826
0.999842 1 1 0.999842
0.999813 1 1 0.999813
0.99981 1 1 0.99981
0.999821 1 1 0.999821
0.999803 1 1 0.999803
0.9998 1 1 0.9998
0.999791 1 1 0.999791
0.999802 1 1 0.999802
0.999778 1 1 0.999778
0.999778 1 1 0.999778
0.999775 1 1 0.999775
0.990557 0.997553 0.993014 0.999973
1.00516 1.00594 0.999236 0.999982
1.00102 1.00299 0.998036 0.999997
0.98941 1.00497 0.984549 0.999965
0.982842 0.997763 0.985563 0.999475
0.980753 0.986548 0.995366 0.998754
0.997777 0.988119 1.00978 0.999997
1.01793 0.988488 1.02978 1.00001
0.978116 0.993887 0.98416 0.999972
0.989956 0.988808 1.00257 0.998595
0.971559 0.986518 0.984992 0.999843
1.00727 0.994847 1.01255 0.999944
0.986955 0.981949 1.00637 0.998732
0.964072 0.973947 0.99 0.999859
1.00021 1 1.00041 0.999804
0.999771 1 1 0.999771
0.999753 1 1 0.999753
1.02506 0.998107 1.02711 0.999898
1.00469 1 1.00506 0.999629
0.999728 1 1.00005 0.999677
1.00429 1 1.00464 0.999658
1.01185 0.999584 1.01251 0.999762
1.00717 1 1.00739 0.999778
0.998984 1.00162 0.997409 0.999962
1.00188 1.00188 1 0.999995
0.999244 0.999241 1 1
1.00533 1 1.00543 0.999902
0.972627 0.996093 0.976513 0.999927
1.00357 1.00356 1.00002 0.999993
0.99171 0.982475 1.01036 0.99905
0.968485 0.977917 0.990517 0.999837
0.990088 0.997217 0.992887 0.999964
0.983475 1.00103 0.982657 0.9998
0.998034 1.00085 0.997227 0.999963
0.968421 0.974577 0.993841 0.999842
0.973158 1.00119 0.972533 0.999457
0.979777 0.976549 1.00469 0.998622
0.977438 1.00817 0.969851 0.999653
0.971827 0.976956 0.994922 0.999828
0.974581 0.97329 1.00259 0.99874
0.977002 1.00501 0.97265 0.999463
1.02295 1 1.02331 0.999654
1.01126 1 1.01165 0.999612
1.00272 1 1.00305 0.99967
1.00685 1 1.00723 0.999615
1.00171 1 1.00208 0.999632
0.99978 1 1 0.99978
1.00081 1 1.00117 0.999642
0.999722 1 1 0.999722
0.999833 1 1 0.999833
0.999708 1 1 0.999708
0.999767 1 1 0.999767
0.999832 1 1 0.999832
0.999828 1 1 0.999828
0.999784 1 1 0.999784
0.999786 1 1 0.999786
0.999791 1 1 0.999791
0.999766 1 1 0.999766
0.999749 1 1 0.999749
0.999848 1 1 0.999848
0.999805 1 1 0.999805
0.999759 1 1 0.999759
0.999899 1 1 0.999899
0.999859 1 1 0.999859
0.999836 1 1 0.999836
0.999977 1 1 0.999977
0.999903 1 1 0.999903
0.999858 1 1 0.999858
1 1 1 1
0.999981 1 1 0.999981
0.999909 1 1 0.999909
1 1 1 1
1 1 1 1
0.999982 1 1 0.999982
1 1 1 1
1 1 1 1
1 1 1 1
0.999851 1 1 0.999851
0.999843 1 1 0.999843
0.999894 1 1 0.999894
0.999979 1 1 0.999979
0.999897 1 1 0.999897
0.999839 1 1 0.999839
1 1 1 1
0.999983 1 1 0.999983
0.999902 1 1 0.999902
1 1 1 1
1 1 1 1
0.999988 1 1 0.999988
1 1 1 1
1 1 1 1
1 1 1 1
0.999341 1.00109 0.998265 0.999988
1.00302 1.00302 1 0.999992
0.998915 0.99871 1.0002 1
0.999824 1 1 0.999824
0.999833 1 1 0.999833
0.999811 1 1 0.999811
0.999814 1 1 0.999814
0.999824 1 1 0.999824
0.999804 1 1 0.999804
0.999792 1 1 0.999792
0.999802 1 1 0.999802
0.999786 1 1 0.999786
0.999787 1 1 0.999787
0.999778 1 1 0.999778
0.999775 1 1 0.999775
0.969353 0.974171 0.995198 0.999855
0.990343 0.996781 0.993559 0.999982
1.00623 1.00709 0.999163 0.999981
0.978597 0.992046 0.986467 0.999976
0.967706 0.985696 0.982247 0.999493
0.993327 0.990895 1.00336 0.999094
1.02316 0.988853 1.03506 0.999644
1.00776 0.994912 1.01333 0.999582
0.964159 0.975255 0.989091 0.999526
0.990361 0.985219 1.00631 0.998919
1.00056 0.994865 1.00619 0.999538
0.980255 0.977451 1.00413 0.998747
1.00636 1 1.00659 0.999766
1.00007 1 1.00027 0.999805
0.999771 1 1 0.999771
1.01066 1 1.0109 0.999765
1.00459 1 1.00493 0.999662
1.00633 1 1.00655 0.999784
1.00075 1.00008 1.00092 0.999754
0.972377 0.979425 0.993015 0.999787
0.999658 1.00144 0.998242 0.999974
1.00138 1.00138 1 0.999996
0.981209 1.00122 0.980207 0.999802
0.972394 0.999871 0.972638 0.999879
0.99886 1.00148 0.99742 0.999961
0.978419 0.974816 1.0051 0.998608
0.967244 0.974558 0.992991 0.999501
0.977166 1.00739 0.970316 0.999672
0.972056 0.977048 0.995231 0.999658
0.975136 0.972193 1.00435 0.998678
0.974952 1.00383 0.971388 0.999834
0.977541 1.01242 0.96592 0.999617
0.966079 0.967317 1.00026 0.998463
0.990553 1.00178 0.988919 0.999875
1.01088 1 1.01128 0.999608
1.00246 1 1.00279 0.999667
0.9992 1 0.999383 0.999817
1.00156 1 1.00192 0.999635
0.999711 1 0.999929 0.999782
0.999584 1 0.999651 0.999933
0.999727 1 1 0.999727
0.999834 1 1 0.999834
0.999902 1 1 0.999902
0.999769 1 1 0.999769
0.999832 1 1 0.999832
0.999864 1 1 0.999864
0.999846 1 1 0.999846
0.999832 1 1 0.999832
0.99982 1 1 0.99982
0.999799 1 1 0.999799
0.999785 1 1 0.999785
0.99979 1 1 0.99979
0.999826 1 1 0.999826
0.999796 1 1 0.999796
0.999771 1 1 0.999771
0.999891 1 1 0.999891
0.999847 1 1 0.999847
0.999805 1 1 0.999805
0.999972 1 1 0.999972
0.999899 1 1 0.999899
0.999858 1 1 0.999858
1 1 1 1
0.999977 1 1 0.999977
0.999904 1 1 0.999904
1 1 1 1
1 1 1 1
0.999981 1 1 0.999981
1 1 1 1
1 1 1 1
1 1 1 1
0.999853 1 1 0.999853
0.999846 1 1 0.999846
0.999892 1 1 0.999892
0.999844 1 1 0.999844
0.999894 1 1 0.999894
0.999974 1 1 0.999974
1 1 1 1
0.999979 1 1 0.999979
0.999897 1 1 0.999897
1 1 1 1
1 1 1 1
0.999984 1 1 0.999984
1 1 1 1
1 1 1 1
1 1 1 1
0.974806 0.977919 0.997277 0.999537
0.998177 1.00068 0.997522 0.999979
1.00336 1.00336 1 0.999992
0.999821 1 1 0.999821
0.999812 1 1 0.999812
0.999834 1 1 0.999834
0.999836 1 1 0.999836
0.999815 1 1 0.999815
0.999794 1 1 0.999794
0.999804 1 1 0.999804
0.999787 1 1 0.999787
0.999806 1 1 0.999806
0.99978 1 1 0.99978
1.00003 1 1.00026 0.999775
0.999782 1 1 0.999782
0.999775 1 1 0.999775
0.976197 0.976872 1.00086 0.998448
0.971348 0.976118 0.995416 0.999695
0.990333 0.997229 0.993111 0.999973
0.96394 0.975506 0.988274 0.999867
0.986457 0.981667 1.00655 0.998336
1.01058 0.995653 1.01504 0.999951
1.00115 0.995498 1.00595 0.999729
0.9806 0.978072 1.00381 0.99878
0.996269 0.998516 0.998127 0.999622
1.00415 1.00063 1.00391 0.999617
1.00525 1 1.00549 0.99976
0.999806 1 1 0.999806
1.00422 1 1.00443 0.999791
1.00021 1.00042 0.999972 0.999825
0.96224 0.965425 0.997893 0.998805
0.973492 0.978808 0.995047 0.999519
1.00014 1.00125 0.998909 0.999986
0.976923 1.00691 0.970524 0.99969
0.978594 1.00876 0.970625 0.999451
0.974061 0.97746 0.997005 0.999516
0.976794 0.971822 1.00642 0.9987
0.977361 1.01103 0.967073 0.999612
0.969226 0.96895 1.00149 0.998792
0.987469 1.00424 0.983784 0.999506
0.975289 1.00953 0.966381 0.999691
0.998441 0.993069 1.00554 0.999869
1.00196 1 1.00229 0.999664
0.998054 1 0.998239 0.999816
0.996871 1 0.996943 0.999928
0.999545 1 0.999761 0.999784
0.999323 1 0.999392 0.999931
0.999425 1 0.999472 0.999953
0.999834 1 1 0.999834
0.999898 1 1 0.999898
0.999891 1 1 0.999891
0.999831 1 1 0.999831
0.999861 1 1 0.999861
0.999852 1 1 0.999852
0.99985 1 1 0.99985
0.99983 1 1 0.99983
0.999836 1 1 0.999836
0.999819 1 1 0.999819
0.999814 1 1 0.999814
0.999818 1 1 0.999818
0.999798 1 1 0.999798
0.999786 1 1 0.999786
0.999876 1 1 0.999876
0.999829 1 1 0.999829
0.9998 1 1 0.9998
0.999964 1 1 0.999964
0.999891 1 1 0.999891
0.999847 1 1 0.999847
1 1 1 1
0.999972 1 1 0.999972
0.999899 1 1 0.999899
1 1 1 1
1 1 1 1
0.999977 1 1 0.999977
1 1 1 1
1 1 1 1
1 1 1 1
0.999848 1 1 0.999848
0.999853 1 1 0.999853
0.999885 1 1 0.999885
0.999842 1 1 0.999842
0.999889 1 1 0.999889
0.99997 1 1 0.99997
0.999894 1 1 0.999894
0.999974 1 1 0.999974
1 1 1 1
1 1 1 1
1 1 1 1
0.999979 1 1 0.999979
1 1 1 1
1 1 1 1
1 1 1 1
0.969854 0.970684 1.00031 0.998837
0.97398 0.979371 0.994678 0.999816
0.999915 1.00179 0.998138 0.999987
0.999812 1 1 0.999812
0.999836 1 1 0.999836
0.999816 1 1 0.999816
0.999836 1 1 0.999836
0.999832 1 1 0.999832
0.999822 1 1 0.999822
0.999787 1 1 0.999787
0.999805 1 1 0.999805
0.999782 1 1 0.999782
0.999803 1 1 0.999803
0.99978 1 1 0.99978
0.999763 1 1.00011 0.999649
0.999829 1 1.00006 0.999773
0.999778 1 1 0.999778
0.990986 0.993547 0.997521 0.999902
0.972854 0.973892 1.00016 0.998779
0.968644 0.974743 0.99422 0.999521
0.978334 0.97598 1.00371 0.998706
1.00173 0.995693 1.00613 0.999934
0.995734 0.996834 0.999001 0.999896
0.998894 1.00347 0.995839 0.999602
1.0033 1.00003 1.00364 0.999634
1.00479 1 1.00504 0.999753
0.997655 1 0.997759 0.999896
0.988403 0.986426 1.00245 0.999558
0.966196 0.966958 1.00035 0.998861
0.973473 0.979265 0.994268 0.999817
0.977188 1.00946 0.968412 0.999606
0.989989 1.00781 0.982456 0.999864
0.970278 0.96851 1.00269 0.999136
0.977563 1.00679 0.971272 0.999689
0.993997 0.994046 1.00021 0.999742
0.983875 1.00248 0.981634 0.999804
1.00218 1 1.00249 0.999692
0.99688 1 0.997066 0.999814
0.99644 1 0.996512 0.999928
0.997349 1 0.997441 0.999908
0.999169 1 0.999239 0.99993
0.999414 1 0.999464 0.999949
0.999773 1 0.999896 0.999877
0.999894 1 1 0.999894
0.999888 1 1 0.999888
0.999836 1 1 0.999836
0.999859 1 1 0.999859
0.999853 1 1 0.999853
0.99982 1 1 0.99982
0.999855 1 1 0.999855
0.999833 1 1 0.999833
0.999816 1 1 0.999816
0.999818 1 1 0.999818
0.999813 1 1 0.999813
0.999824 1 1 0.999824
0.999857 1 1 0.999857
0.999821 1 1 0.999821
0.999797 1 1 0.999797
0.999951 1 1 0.999951
0.999876 1 1 0.999876
0.999832 1 1 0.999832
1 1 1 1
0.999963 1 1 0.999963
0.999891 1 1 0.999891
1 1 1 1
1 1 1 1
0.999971 1 1 0.999971
1 1 1 1
1 1 1 1
1 1 1 1
0.999846 1 1 0.999846
0.999851 1 1 0.999851
0.999882 1 1 0.999882
0.999854 1 1 0.999854
0.999885 1 1 0.999885
0.999966 1 1 0.999966
0.999885 1 1 0.999885
0.99997 1 1 0.99997
1 1 1 1
0.999974 1 1 0.999974
1 1 1 1
1 1 1 1
1 1 1 1
1 1 1 1
1 1 1 1
0.984764 0.986274 0.998582 0.999887
0.965632 0.967856 0.998896 0.998806
0.971538 0.978159 0.99371 0.999518
0.999822 1 1 0.999822
0.999818 1 1 0.999818
0.999837 1 1 0.999837
0.999822 1 1 0.999822
0.999831 1 1 0.999831
0.999834 1 1 0.999834
0.999804 1 1 0.999804
0.999783 1 1 0.999783
0.999806 1 1 0.999806
0.999792 1 1 0.999792
0.999721 1 1 0.999721
0.999545 1 1 0.999545
0.999786 1 1.00013 0.999658
0.99977 1 1 0.99977
0.997336 1.00023 0.997487 0.999616
0.991761 0.995108 0.996907 0.999729
0.974654 0.974821 1.00072 0.999111
0.998218 0.998304 1.00036 0.999553
1.00178 1.00347 0.99879 0.999527
1.00473 1 1.00508 0.999651
0.999893 1 1.00002 0.999874
0.989268 0.985457 1.00397 0.999893
0.963604 0.966761 0.997922 0.99881
0.979869 1.00405 0.976221 0.999686
0.990484 0.994619 0.996243 0.999598
0.98727 1.0013 0.986191 0.99979
1.00114 1 1.00141 0.999733
0.999332 1 0.999591 0.999741
0.999705 1 1 0.999705
0.996054 1 0.996125 0.999928
0.998203 1 0.998295 0.999907
0.999814 1 1 0.999814
0.999496 1 0.99955 0.999946
0.999875 1 1 0.999875
0.999802 1 1 0.999802
0.999884 1 1 0.999884
0.99984 1 1 0.99984
0.999789 1 1 0.999789
0.999854 1 1 0.999854
0.99982 1 1 0.99982
0.999802 1 1 0.999802
0.999836 1 1 0.999836
0.999817 1 1 0.999817
0.999817 1 1 0.999817
0.999812 1 1 0.999812
0.999822 1 1 0.999822
0.999852 1 1 0.999852
0.999937 1 1 0.999937
0.999861 1 1 0.999861
0.999824 1 1 0.999824
1 1 1 1
0.999951 1 1 0.999951
0.999877 1 1 0.999877
1 1 1 1
1 1 1 1
0.999963 1 1 0.999963
1 1 1 1
1 1 1 1
1 1 1 1
0.999836 1 1 0.999836
0.999847 1 1 0.999847
0.999881 1 1 0.999881
0.999855 1 1 0.999855
0.999884 1 1 0.999884
0.999961 1 1 0.999961
0.999885 1 1 0.999885
0.999966 1 1 0.999966
1 1 1 1
0.99997 1 1 0.99997
1 1 1 1
1 1 1 1
1 1 1 1
1 1 1 1
1 1 1 1
0.998045 1 0.998211 0.999833
0.985239 0.987637 0.998008 0.999563
0.966783 0.968219 0.999659 0.998858
0.999826 1 1 0.999826
0.999793 1 1 0.999793
0.999823 1 1 0.999823
0.999822 1 1 0.999822
0.99983 1 1 0.99983
0.999832 1 1 0.999832
0.999745 1 1 0.999745
0.99981 1 1 0.99981
0.999804 1 1 0.999804
0.99972 1 1 0.99972
0.999608 1 1 0.999608
0.999686 1 1 0.999686
0.999556 1 1 0.999556
0.999666 1 1 0.999666
0.99897 1.00154 0.997812 0.999626
0.990753 0.994741 0.996435 0.999555
1.00213 1.00301 0.999678 0.999453
0.999874 1 1 0.999874
1.00104 1 1.00116 0.999877
0.987747 0.98525 1.00298 0.999556
0.99088 1.00032 0.990786 0.999776
1.00012 1 1.00034 0.999775
0.998937 1 0.999187 0.99975
0.999725 1 1 0.999725
0.999733 1 1 0.999733
0.999826 1 1 0.999826
0.999041 1 0.999134 0.999907
0.999817 1 1 0.999817
0.99975 1 1 0.99975
0.999873 1 1 0.999873
0.999802 1 1 0.999802
0.999758 1 1 0.999758
0.999844 1 1 0.999844
0.999789 1 1 0.999789
0.999774 1 1 0.999774
0.999821 1 1 0.999821
0.999802 1 1 0.999802
0.999804 1 1 0.999804
0.999818 1 1 0.999818
0.999817 1 1 0.999817
0.999844 1 1 0.999844
0.999819 1 1 0.999819
0.999851 1 1 0.999851
0.999924 1 1 0.999924
1 1 1 1
0.999937 1 1 0.999937
0.999864 1 1 0.999864
1 1 1 1
1 1 1 1
0.99995 1 1 0.99995
1 1 1 1
1 1 1 1
1 1 1 1
0.999812 1 1 0.999812
0.999833 1 1 0.999833
0.999872 1 1 0.999872
0.999847 1 1 0.999847
0.999881 1 1 0.999881
0.999954 1 1 0.999954
0.999887 1 1 0.999887
0.999961 1 1 0.999961
1 1 1 1
0.999967 1 1 0.999967
1 1 1 1
1 1 1 1
1 1 1 1
1 1 1 1
1 1 1 1
0.999856 1 1 0.999856
0.998171 1 0.998327 0.999843
0.984478 0.986226 0.998319 0.999908
0.999772 1 1 0.999772
0.999837 1 1 0.999837
0.999742 1 1 0.999742
0.99979 1 1 0.99979
0.999825 1 1 0.999825
0.999661 1 1 0.999661
0.99983 1 1 0.99983
0.999746 1 1 0.999746
0.999668 1 1 0.999668
0.99972 1 1 0.99972
0.999595 1 1 0.999595
0.999681 1 1 0.999681
0.999566 1 1 0.999566
1.00062 1.00286 0.998131 0.999636
0.999892 1 1 0.999892
0.999872 1 1 0.999872
1.00212 1 1.00224 0.99988
0.998671 1 0.998911 0.999759
0.999745 1 1 0.999745
0.999729 1 1 0.999729
0.999829 1 1 0.999829
0.999803 1 1 0.999803
0.999821 1 1 0.999821
0.999754 1 1 0.999754
0.999746 1 1 0.999746
0.999803 1 1 0.999803
0.999757 1 1 0.999757
0.999749 1 1 0.999749
0.999789 1 1 0.999789
0.999773 1 1 0.999773
0.999781 1 1 0.999781
0.999802 1 1 0.999802
0.999803 1 1 0.999803
0.999829 1 1 0.999829
0.999817 1 1 0.999817
0.999844 1 1 0.999844
0.999912 1 1 0.999912
0.999849 1 1 0.999849
0.999924 1 1 0.999924
0.999999 1 1 0.999999
1 1 1 1
1 1 1 1
0.999936 1 1 0.999936
1 1 1 1
1 1 1 1
1 1 1 1
0.999751 1 1 0.999751
0.999787 1 1 0.999787
0.999809 1 1 0.999809
0.99986 1 1 0.99986
0.99983 1 1 0.99983
0.999873 1 1 0.999873
0.999947 1 1 0.999947
0.999881 1 1 0.999881
0.999955 1 1 0.999955
1 1 1 1
0.999962 1 1 0.999962
1 1 1 1
1 1 1 1
1 1 1 1
1 1 1 1
1 1 1 1
0.999813 1 1 0.999813
0.999849 1 1 0.999849
0.99867 1.00038 0.998441 0.999853
0.999696 1 1 0.999696
0.999785 1 1 0.999785
0.999849 1 1 0.999849
0.999748 1 1 0.999748
0.999788 1 1 0.999788
0.999657 1 1 0.999657
0.999655 1 1 0.999655
0.999747 1 1 0.999747
0.999664 1 1 0.999664
0.999583 1 1 0.999583
0.999676 1 1 0.999676
0.999872 1 1 0.999872
0.999889 1 1 0.999889
0.99987 1 1 0.99987
0.999725 1 1 0.999725
0.999832 1 1 0.999832
0.999802 1 1 0.999802
0.999798 1 1 0.999798
0.999758 1 1 0.999758
0.999743 1 1 0.999743
0.999757 1 1 0.999757
0.999755 1 1 0.999755
0.999748 1 1 0.999748
0.999759 1 1 0.999759
0.999773 1 1 0.999773
0.99978 1 1 0.99978
0.999809 1 1 0.999809
0.999803 1 1 0.999803
0.999829 1 1 0.999829
0.999897 1 1 0.999897
0.999844 1 1 0.999844
0.999912 1 1 0.999912
0.999997 1 1 0.999997
0.999924 1 1 0.999924
0.999998 1 1 0.999998
1 1 1 1
1 1 1 1
0.999999 1 1 0.999999
1 1 1 1
0.999708 1 1 0.999708
0.999783 1 1 0.999783
0.999769 1 1 0.999769
0.999839 1 1 0.999839
0.999788 1 1 0.999788
0.999806 1 1 0.999806
0.999861 1 1 0.999861
0.999937 1 1 0.999937
0.999873 1 1 0.999873
0.999947 1 1 0.999947
1 1 1 1
0.999955 1 1 0.999955
1 1 1 1
1 1 1 1
1 1 1 1
1 1 1 1
1 1 1 1
0.999772 1 1 0.999772
0.999813 1 1 0.999813
0.999842 1 1 0.999842
0.999677 1 1 0.999677
0.999696 1 1 0.999696
0.999798 1 1 0.999798
0.999754 1 1 0.999754
0.999657 1 1 0.999657
0.999648 1 1 0.999648
0.99966 1 1 0.99966
0.999839 1 1 0.999839
0.99986 1 1 0.99986
0.999886 1 1 0.999886
0.999799 1 1 0.999799
0.999801 1 1 0.999801
0.999797 1 1 0.999797
0.999786 1 1 0.999786
0.999739 1 1 0.999739
0.999757 1 1 0.999757
0.999759 1 1 0.999759
0.999748 1 1 0.999748
0.999759 1 1 0.999759
0.99979 1 1 0.99979
0.99978 1 1 0.99978
0.999808 1 1 0.999808
0.999878 1 1 0.999878
0.999829 1 1 0.999829
0.999897 1 1 0.999897
0.999993 1 1 0.999993
0.999912 1 1 0.999912
0.999996 1 1 0.999996
1 1 1 1
0.999998 1 1 0.999998
1 1 1 1
1 1 1 1
0.999688 1 1 0.999688
0.999737 1 1 0.999737
0.999716 1 1 0.999716
0.999824 1 1 0.999824
0.999781 1 1 0.999781
0.999788 1 1 0.999788
0.999918 1 1 0.999918
0.999839 1 1 0.999839
0.999788 1 1 0.999788
0.999861 1 1 0.999861
0.999937 1 1 0.999937
0.999999 1 1 0.999999
0.999948 1 1 0.999948
1 1 1 1
1 1 1 1
1 1 1 1
1 1 1 1
1 1 1 1
0.999756 1 1 0.999756
0.999764 1 1 0.999764
0.999814 1 1 0.999814
0.99967 1 1 0.99967
0.999697 1 1 0.999697
0.999657 1 1 0.999657
0.999802 1 1 0.999802
0.999843 1 1 0.999843
0.999847 1 1 0.999847
0.999795 1 1 0.999795
0.999784 1 1 0.999784
0.999795 1 1 0.999795
0.999786 1 1 0.999786
0.999781 1 1 0.999781
0.999758 1 1 0.999758
0.99976 1 1 0.99976
0.999784 1 1 0.999784
0.999759 1 1 0.999759
0.99979 1 1 0.99979
0.999862 1 1 0.999862
0.999808 1 1 0.999808
0.999878 1 1 0.999878
0.99999 1 1 0.99999
0.999897 1 1 0.999897
0.999992 1 1 0.999992
1 1 1 1
0.999995 1 1 0.999995
1 1 1 1
1 1 1 1
0.999751 1 1 0.999751
0.999707 1 1 0.999707
0.999685 1 1 0.999685
0.999786 1 1 0.999786
0.999741 1 1 0.999741
0.999723 1 1 0.999723
0.999893 1 1 0.999893
0.999816 1 1 0.999816
0.999779 1 1 0.999779
0.999996 1 1 0.999996
0.999918 1 1 0.999918
0.999839 1 1 0.999839
0.999938 1 1 0.999938
1 1 1 1
1 1 1 1
1 1 1 1
1 1 1 1
1 1 1 1
0.999749 1 1 0.999749
0.999752 1 1 0.999752
0.999755 1 1 0.999755
0.999663 1 1 0.999663
0.999776 1 1 0.999776
0.999805 1 1 0.999805
0.999846 1 1 0.999846
0.999791 1 1 0.999791
0.999786 1 1 0.999786
0.999793 1 1 0.999793
0.999786 1 1 0.999786
0.999782 1 1 0.999782
0.999792 1 1 0.999792
0.999761 1 1 0.999761
0.999785 1 1 0.999785
0.999853 1 1 0.999853
0.99979 1 1 0.99979
0.999862 1 1 0.999862
0.999986 1 1 0.999986
0.999878 1 1 0.999878
0.999988 1 1 0.999988
1 1 1 1
0.999991 1 1 0.999991
1 1 1 1
1 1 1 1
0.999754 1 1 0.999754
0.999743 1 1 0.999743
0.99975 1 1 0.99975
0.999749 1 1 0.999749
0.999715 1 1 0.999715
0.999683 1 1 0.999683
0.999854 1 1 0.999854
0.999786 1 1 0.999786
0.999746 1 1 0.999746
0.999989 1 1 0.999989
0.999886 1 1 0.999886
0.999808 1 1 0.999808
1 1 1 1
0.999997 1 1 0.999997
0.999919 1 1 0.999919
1 1 1 1
1 1 1 1
1 1 1 1
0.999758 1 1 0.999758
0.999757 1 1 0.999757
0.999749 1 1 0.999749
0.999784 1 1 0.999784
0.999775 1 1 0.999775
0.999809 1 1 0.999809
0.999788 1 1 0.999788
0.999793 1 1 0.999793
0.999814 1 1 0.999814
0.999782 1 1 0.999782
0.999797 1 1 0.999797
0.999847 1 1 0.999847
0.999785 1 1 0.999785
0.999853 1 1 0.999853
0.999982 1 1 0.999982
0.999862 1 1 0.999862
0.999985 1 1 0.999985
1 1 1 1
0.999987 1 1 0.999987
1 1 1 1
1 1 1 1
0.999755 1 1 0.999755
0.999763 1 1 0.999763
0.999753 1 1 0.999753
0.999765 1 1 0.999765
0.999746 1 1 0.999746
0.999749 1 1 0.999749
0.999829 1 1 0.999829
0.999757 1 1 0.999757
0.999722 1 1 0.999722
0.999982 1 1 0.999982
0.99985 1 1 0.99985
0.999786 1 1 0.999786
1 1 1 1
0.999991 1 1 0.999991
0.999879 1 1 0.999879
1 1 1 1
0.999998 1 1 0.999998
1 1 1 1
0.999771 1 1 0.999771
0.999759 1 1 0.999759
0.999765 1 1 0.999765
0.999805 1 1 0.999805
0.999783 1 1 0.999783
0.999775 1 1 0.999775
0.999793 1 1 0.999793
0.999814 1 1 0.999814
0.999854 1 1 0.999854
0.999801 1 1 0.999801
0.999851 1 1 0.999851
0.999979 1 1 0.999979
0.999854 1 1 0.999854
0.999981 1 1 0.999981
1 1 1 1
0.999984 1 1 0.999984
1 1 1 1
1 1 1 1
0.99977 1 1 0.99977
0.99975 1 1 0.99975
0.999782 1 1 0.999782
0.999764 1 1 0.999764
0.999752 1 1 0.999752
0.999836 1 1 0.999836
0.999764 1 1 0.999764
0.999748 1 1 0.999748
0.999977 1 1 0.999977
0.999833 1 1 0.999833
0.999766 1 1 0.999766
1 1 1 1
0.999984 1 1 0.999984
0.999847 1 1 0.999847
1 1 1 1
0.999993 1 1 0.999993
1 1 1 1
0.999797 1 1 0.999797
0.999772 1 1 0.999772
0.999759 1 1 0.999759
0.999849 1 1 0.999849
0.999805 1 1 0.999805
0.999782 1 1 0.999782
0.999814 1 1 0.999814
0.999854 1 1 0.999854
0.999978 1 1 0.999978
0.999854 1 1 0.999854
0.999979 1 1 0.999979
1 1 1 1
0.99998 1 1 0.99998
1 1 1 1
1 1 1 1
0.99979 1 1 0.99979
0.999767 1 1 0.999767
0.999746 1 1 0.999746
0.999844 1 1 0.999844
0.999782 1 1 0.999782
0.999765 1 1 0.999765
0.999976 1 1 0.999976
0.999836 1 1 0.999836
0.999763 1 1 0.999763
1 1 1 1
0.999978 1 1 0.999978
0.999836 1 1 0.999836
1 1 1 1
0.999985 1 1 0.999985
1 1 1 1
0.999853 1 1 0.999853
0.999794 1 1 0.999794
0.999772 1 1 0.999772
0.999976 1 1 0.999976
0.99985 1 1 0.99985
0.999805 1 1 0.999805
0.999854 1 1 0.999854
0.999977 1 1 0.999977
1 1 1 1
0.999978 1 1 0.999978
1 1 1 1
1 1 1 1
0.999851 1 1 0.999851
0.999789 1 1 0.999789
0.999764 1 1 0.999764
0.999977 1 1 0.999977
0.999844 1 1 0.999844
0.999782 1 1 0.999782
1 1 1 1
0.999976 1 1 0.999976
0.999835 1 1 0.999835
1 1 1 1
0.999979 1 1 0.999979
1 1 1 1
0.999975 1 1 0.999975
0.999849 1 1 0.999849
0.99979 1 1 0.99979
1 1 1 1
0.999976 1 1 0.999976
0.99985 1 1 0.99985
0.999977 1 1 0.999977
1 1 1 1
1 1 1 1
0.999976 1 1 0.999976
0.999851 1 1 0.999851
0.999787 1 1 0.999787
1 1 1 1
0.999977 1 1 0.999977
0.999844 1 1 0.999844
1 1 1 1
0.999976 1 1 0.999976
1 1 1 1
1 1 1 1
0.999976 1 1 0.999976
0.999845 1 1 0.999845
1 1 1 1
0.999975 1 1 0.999975
1 1 1 1
1 1 1 1
0.999977 1 1 0.999977
0.99985 1 1 0.99985
1 1 1 1
0.999977 1 1 0.999977
1 1 1 1
1 1 1 1
0.999976 1 1 0.999976
1 1 1 1
1 1 1 1
0.999977 1 1 0.999977
1 1 1 1
1 1 1 1
1 1 1 1

VECTORS lamdaE float
0.999113 0.999086 0.997443
0.999285 0.998174 0.999063
0.999094 0.999089 0.997477
0.998885 0.999959 0.997111
0.998999 0.999481 0.997307
0.999225 0.998639 0.997635
0.99948 0.999978 0.995743
0.999307 0.998124 0.999082
0.998912 0.99937 0.998886
0.999167 0.998486 0.999036
0.999406 0.997864 0.997999
0.999499 0.999505 0.995948
0.998952 1.00006 0.997048
0.998788 1.00011 0.997201
0.999075 0.999088 0.997512
0.998858 1.00001 0.997137
0.99921 0.998623 0.997671
0.998978 0.9995 0.997337
0.99949 0.999981 0.995744
0.998901 1.00001 0.998749
0.998882 1.00001 0.997098
0.998914 0.999786 0.997196
0.999672 1.00022 0.995183
0.999521 1.00011 0.99555
0.999336 0.998193 0.997841
0.999437 0.999784 0.995995
1.00021 1.00089 0.993475
0.999332 0.998072 0.999102
0.998935 0.999453 0.998112
0.999186 0.99857 0.99836
0.999399 0.997809 0.999137
0.99948 0.999504 0.99595
0.998879 0.999932 0.997224
0.999053 0.999152 0.997531
0.999563 1.00012 0.995865
0.999485 0.997502 0.9992
0.999484 0.999702 0.996362
0.999534 0.99923 0.996151
0.99991 1.001 0.993657
0.99966 0.997118 0.999212
0.998946 1.00002 0.998722
0.998816 1.00004 0.997986
0.999018 0.999995 0.998694
0.998818 1.0001 0.997173
0.9999 1.00006 0.994519
0.998796 0.99992 0.998818
0.99975 1.00016 0.995516
0.998829 1.00007 0.997164
0.998957 0.999516 0.997368
0.999194 0.998601 0.997708
0.999501 0.999988 0.995744
0.998897 1.00003 0.997941
0.998854 1.00006 0.997119
0.999324 0.998166 0.997871
0.998891 0.999822 0.997225
0.999691 1.00021 0.995184
0.999447 0.999791 0.995997
0.999537 1.0001 0.995551
1.00024 1.00089 0.993441
0.998952 0.999993 0.998726
0.998869 1.00002 0.997128
0.999853 1.00003 0.995437
0.999751 1.00016 0.995108
0.999577 1.00021 0.995362
1.00092 1.00042 0.992585
1.00041 1.00068 0.99311
0.999471 0.997799 0.997992
0.999435 0.999471 0.996291
0.999978 1.00104 0.993753
1.00074 1.00084 0.992186
0.998961 0.999279 0.998889
0.999426 0.997758 0.999159
0.999215 0.998443 0.999036
0.999461 0.999506 0.995952
0.998872 0.999725 0.998805
0.999038 0.998982 0.998932
0.999515 1.00024 0.995131
0.999503 0.99753 0.998641
0.999464 0.999776 0.995724
0.999528 0.99918 0.996458
0.999899 1.00103 0.993646
0.999577 0.997312 0.999198
0.999803 0.998354 0.996483
0.999629 1.00029 0.994852
0.999498 1.00005 0.99537
1.00038 1.00069 0.993023
0.999613 0.998864 0.996882
0.999996 1.00091 0.99358
0.99987 1.00097 0.993774
1.00024 1.00128 0.99272
0.999726 0.996943 0.999232
0.999673 0.997106 0.999218
0.998826 0.999964 0.998781
0.998907 1.00001 0.99874
0.999002 0.999992 0.998699
0.998852 1.00005 0.997956
0.999892 1.00004 0.994952
0.998819 0.999945 0.997998
0.999723 1.00016 0.995129
0.999017 0.999975 0.998699
0.99998 0.999947 0.994437
0.999818 1.00011 0.995451
1.00131 1.00004 0.991808
0.999688 1.00021 0.995568
1.00103 1.00025 0.992173
0.998923 1.00004 0.997095
0.998824 1.00012 0.99714
0.999311 0.998138 0.997903
0.998866 0.999859 0.997256
0.999711 1.00019 0.995185
0.999554 1.00009 0.995551
0.999457 0.999805 0.995998
1.00027 1.00089 0.993406
0.998974 0.999998 0.998714
0.998848 1.00005 0.99715
0.999862 1.00004 0.99483
0.99977 1.00015 0.995102
0.999438 0.997782 0.998571
0.999453 0.999468 0.996437
0.999598 1.00019 0.995365
1.00092 1.0004 0.992506
1.00002 1.00105 0.993712
1.00043 1.00069 0.99316
1.00074 1.00085 0.992192
0.999932 0.999962 0.994513
0.999775 1.00009 0.995134
1.00128 1.00002 0.992122
1.00108 1.00021 0.992284
1.00066 1.00053 0.992789
1.00153 1.00027 0.991389
0.999537 0.997511 0.999177
1.00095 1.00058 0.992037
0.999544 0.999117 0.996211
0.999828 1.00108 0.993693
1.00051 1.00121 0.992341
1.00103 1.00075 0.991711
0.999738 0.998569 0.996362
1.00005 1.00036 0.994019
0.998882 0.999621 0.998825
0.999077 0.998862 0.998967
0.999464 1.00032 0.995129
0.999521 0.997499 0.99919
0.999519 0.999155 0.996186
0.99942 0.999833 0.995707
0.999888 1.00106 0.993635
0.999594 0.997298 0.999202
0.999808 0.998329 0.996487
0.999597 1.00027 0.995281
0.999459 1.00004 0.995762
1.00039 1.00067 0.993027
0.999624 0.998838 0.996353
0.999988 1.00092 0.993574
0.999849 1.00101 0.993768
1.00024 1.00127 0.992697
0.999719 0.998587 0.996419
0.999865 0.998142 0.996569
1.00006 1.00025 0.994115
1.00065 1.00051 0.992674
1.00014 1.00084 0.99337
1.00092 1.00069 0.991998
0.999921 1.00071 0.993934
1.00041 1.00098 0.992664
1.00011 1.00156 0.992742
1.00035 1.00151 0.992348
0.999778 0.996789 0.999255
0.999735 0.996935 0.999239
0.999686 0.997096 0.999224
0.999803 0.99835 0.996461
0.999617 0.997321 0.999194
0.998837 0.999846 0.998793
0.998848 1.00001 0.998768
0.999708 1.00021 0.994737
0.999877 1.00004 0.994554
0.998986 0.999988 0.998708
0.999021 0.999979 0.998694
0.99998 0.999936 0.994442
0.999789 1.00011 0.995067
1.00131 1.00004 0.991813
0.999656 1.00027 0.994784
1.00103 1.00025 0.992179
0.999997 0.999897 0.99443
1.00145 0.999971 0.991597
1.00117 1.00013 0.992014
1.00192 0.999982 0.99068
1.00086 1.00037 0.992385
1.00163 1.0001 0.991172
0.998996 1 0.998703
0.998824 1.00008 0.997173
0.999857 1.00005 0.994241
0.999789 1.00014 0.995097
0.999402 0.997759 0.999159
0.999471 0.999467 0.996583
0.999619 1.00017 0.995367
1.00092 1.00037 0.992428
1.00046 1.0007 0.993209
1.00005 1.00107 0.993671
1.00073 1.00085 0.992198
0.999934 0.999971 0.994507
0.999797 1.00008 0.995124
1.00126 1.00001 0.991952
1.0011 1.00022 0.992336
0.999518 0.997527 0.999171
0.999542 0.999137 0.996482
0.999867 1.00106 0.993834
1.00066 1.00053 0.992794
1.00152 1.00023 0.991298
1.00047 1.00121 0.992323
1.00097 1.00059 0.992079
1.00103 1.00075 0.991721
0.99973 0.998602 0.99636
1.00006 1.00034 0.994024
1.00138 0.99996 0.991738
1.00118 1.00008 0.992218
1.00191 0.999974 0.990938
1.00171 1.00002 0.99097
1.00117 1.00041 0.991828
1.00185 1.00002 0.990944
0.999638 0.998825 0.996294
1.00127 1.00038 0.991608
0.999837 1.00097 0.993815
1.0002 1.00141 0.992559
1.00079 1.00133 0.991839
1.0012 1.00057 0.991614
1 1.00055 0.99392
1.00006 1.00011 0.994246
1.00019 1.00146 0.992685
0.999555 1.00036 0.994904
0.999612 0.997283 0.999206
0.999813 0.998303 0.996491
0.999407 1.00013 0.995429
1.00039 1.00066 0.993031
0.999618 0.998813 0.996347
0.999829 1.00105 0.993763
0.99998 1.00093 0.993568
1.00025 1.00125 0.992673
0.999723 0.99856 0.996421
0.999868 0.998121 0.996575
1.00005 1.00027 0.994113
1.00065 1.0005 0.992678
1.00013 1.00083 0.993373
1.00091 1.0007 0.992
0.999901 1.00074 0.993933
1.00041 1.00098 0.992701
1.00011 1.00157 0.992736
1.00034 1.0015 0.992307
0.999907 0.997958 0.996671
1 1.00044 0.994035
1.00009 1.00006 0.994244
1.00018 1.0013 0.992871
1.0012 1.00045 0.99165
1.00061 1.00089 0.992431
1.00118 1.0007 0.991471
1.00011 1.00149 0.992831
1.00056 1.00111 0.992295
1.00017 1.00201 0.992182
1.00044 1.00156 0.992015
1.00011 0.999325 0.994942
0.999963 0.99764 0.996879
0.99982 0.996645 0.99928
0.999783 0.99678 0.999263
0.999743 0.996927 0.999246
0.999842 0.998131 0.996609
0.999671 0.997143 0.999221
0.999795 0.998381 0.996455
0.999602 0.99733 0.999189
0.999637 1.0003 0.994792
0.999781 1.00013 0.994665
1.00103 1.00025 0.992185
1.00131 1.00004 0.991819
0.999979 0.999925 0.994447
0.999028 0.999981 0.998692
1 0.999901 0.994425
1.00145 0.99997 0.991601
1.00116 1.00013 0.992018
1.00193 0.999988 0.990679
1.00086 1.00037 0.992391
1.00163 1.0001 0.991174
1.00147 0.999943 0.991585
1.00206 0.999962 0.990433
1.00179 1 0.99094
1.0022 0.999803 0.990351
1.00144 1.00025 0.991399
1.00194 0.99986 0.990806
0.999937 0.999981 0.994501
0.99982 1.00007 0.995114
1.00125 1.00001 0.991782
1.00111 1.00024 0.992389
0.999498 0.997542 0.999165
0.999542 0.999157 0.996748
0.999906 1.00104 0.993975
1.00066 1.00053 0.992799
1.0015 1.0002 0.991208
1.00099 1.00059 0.99212
1.00043 1.00122 0.992304
1.00102 1.00075 0.991731
0.999722 0.998635 0.996358
1.00006 1.00033 0.994029
1.00138 0.999962 0.99167
1.00119 1.00007 0.992221
1.0019 0.999952 0.9909
1.00172 1.00005 0.991071
0.999636 0.998855 0.996293
0.999859 1.00094 0.993818
1.00019 1.00141 0.992621
1.0012 1.00043 0.991827
1.00183 0.999972 0.990925
1.00075 1.00133 0.99177
1.00127 1.00038 0.99161
1.00118 1.00056 0.991602
1.00001 1.00052 0.993926
1.0002 1.00143 0.992656
1.00006 1.00011 0.994245
1.00199 0.999974 0.990752
1.00184 0.999958 0.990966
1.0022 0.999878 0.990366
1.00206 0.999823 0.990597
1.00145 1.00014 0.991387
1.00201 0.999611 0.990989
0.999911 1.00076 0.993884
1.00141 1.00012 0.991563
1.00013 1.00142 0.992831
1.00036 1.00171 0.991961
1.00092 1.00139 0.991415
1.00129 1.00037 0.991773
1.00006 0.99981 0.994543
1.00018 1.00138 0.992765
1.00017 1.00146 0.992607
1.00023 1.00196 0.992228
1.00066 1.00049 0.992682
0.999873 0.9981 0.99658
0.999728 0.998533 0.996424
1.00004 1.00028 0.994111
1.00013 1.00082 0.993376
1.0009 1.0007 0.992002
0.99988 1.00078 0.993932
1.00011 1.00158 0.992729
1.00042 1.00098 0.992739
1.00034 1.0015 0.992266
0.999909 0.99794 0.996677
0.99999 1.00047 0.994032
1.00008 1.00006 0.994244
1.00017 1.00131 0.992865
1.00121 1.00045 0.991645
1.00059 1.00089 0.992439
1.00117 1.0007 0.991473
1.0001 1.0015 0.992832
1.00057 1.00111 0.992338
1.00018 1.00202 0.992166
1.00042 1.00152 0.992116
0.999937 0.997792 0.996781
1.0001 0.999867 0.99441
1.00017 1.00132 0.992875
1.00018 1.00124 0.992919
1.00019 1.00186 0.992272
1.00149 1.00035 0.991166
1.0008 1.00098 0.991961
1.00126 1.00076 0.991251
1.00014 1.00204 0.992232
1.00064 1.00126 0.992007
1.00026 1.00227 0.991559
1.0001 0.999495 0.994779
1.00013 1.0006 0.993655
1.00011 0.999201 0.995063
1.00011 0.999325 0.994945
0.999982 0.997479 0.997429
0.999959 0.997624 0.997121
0.999876 0.996531 0.998382
0.999824 0.996633 0.999288
0.999789 0.996771 0.99927
0.999871 0.99792 0.99677
0.999713 0.996958 0.999257
0.999839 0.998156 0.996599
0.999663 0.997154 0.999212
0.999788 0.998411 0.996449
0.999587 0.99734 0.999184
1.00086 1.00037 0.992397
1.00116 1.00013 0.992023
1.00163 1.0001 0.991175
1.00194 0.999993 0.990678
1.00145 0.999968 0.991605
1 0.999909 0.994422
1.00147 0.99994 0.991582
1.00206 0.999966 0.990434
1.00179 1.00001 0.990944
1.00221 0.999792 0.990333
1.00144 1.00025 0.991395
1.00193 0.999869 0.990807
1.00208 0.99996 0.990403
1.00228 0.999833 0.99012
1.0021 0.999768 0.990557
1.00239 0.999524 0.990319
1.00173 1.00007 0.991003
1.0021 0.999366 0.990997
1.00137 0.999966 0.991602
1.00119 1.00006 0.992223
1.00189 0.999934 0.990863
1.00174 1.00009 0.991172
0.999635 0.998884 0.996292
0.999882 1.00091 0.993821
1.0002 1.00142 0.992683
1.00122 1.00044 0.991827
1.00181 0.999924 0.990906
1.00127 1.00038 0.991612
1.00071 1.00133 0.991701
1.00116 1.00055 0.99159
1.00002 1.0005 0.993932
1.00021 1.0014 0.992626
1.00006 1.00011 0.994243
1.00199 0.999974 0.990667
1.00185 0.99994 0.990967
1.00219 0.999861 0.990312
1.00208 0.999827 0.990613
0.999931 1.00073 0.993889
1.00014 1.00141 0.992827
1.00035 1.00173 0.992029
1.00148 1.00018 0.991412
1.00199 0.99953 0.991035
1.00088 1.00143 0.991349
1.00142 1.00012 0.991566
1.00127 1.00029 0.991806
1.0002 1.00136 0.992773
1.00023 1.00194 0.992177
1.00006 0.999821 0.994538
1.00017 1.00144 0.992633
1.00223 0.999938 0.990163
1.00223 0.999778 0.990399
1.00235 0.999809 0.990057
1.00223 0.999465 0.990564
1.00162 0.999785 0.99144
1.00218 0.999057 0.991238
1.00014 1.00138 0.992853
1.00147 0.999671 0.991894
1.0002 1.00172 0.992281
1.00049 1.0021 0.991454
1.00099 1.00147 0.991109
1.00139 1.00018 0.991801
1.00006 0.999575 0.994777
1.00015 1.00124 0.99285
1.00024 1.00171 0.992343
1.00016 1.00226 0.99197
1.00028 1.00204 0.992022
0.999911 0.997923 0.996684
1.00122 1.00045 0.99164
1.00008 1.00007 0.994243
0.999977 1.00049 0.994029
1.00016 1.00133 0.992859
1.00058 1.00089 0.992447
1.00117 1.00071 0.991475
1.00008 1.00152 0.992834
1.00019 1.00203 0.992151
1.00058 1.00112 0.99238
1.0004 1.00148 0.992216
0.999937 0.997778 0.996788
1.0001 0.999862 0.99441
1.00016 1.00134 0.992872
1.00017 1.00125 0.992913
1.00019 1.00185 0.992262
1.00151 1.00035 0.991159
1.00079 1.00098 0.991964
1.00126 1.00077 0.99123
1.00013 1.00204 0.99224
1.00065 1.00125 0.992039
1.0003 1.00224 0.991613
1.0001 0.999681 0.994593
1.00019 1.00112 0.993019
1.0002 1.00182 0.992288
1.00018 1.00191 0.992258
1.00021 1.00211 0.99203
1.00161 1.00023 0.991031
1.00087 1.00109 0.991689
1.00117 1.00075 0.991307
1.00016 1.00252 0.991676
1.00059 1.00214 0.99123
1.0001 0.999488 0.994784
1.00016 1.00082 0.993258
1.00014 1.00062 0.99357
1.00011 1.00158 0.99285
1.0001 1.00051 0.993788
1.00011 0.99912 0.995145
1.00011 0.999209 0.995064
1.00001 0.997348 0.997496
1.00011 0.999325 0.994949
0.999983 0.997477 0.997439
0.999917 0.996388 0.998436
0.999956 0.997611 0.997362
0.999866 0.996501 0.998849
0.999828 0.996621 0.999296
0.999901 0.997728 0.996906
0.999873 0.997936 0.99676
0.999755 0.996768 0.999292
0.99971 0.996975 0.999246
0.999836 0.99818 0.996589
0.999655 0.997167 0.999203
1.00144 1.00025 0.991391
1.00179 1.00001 0.990947
1.00193 0.999876 0.990808
1.00223 0.999781 0.990316
1.00207 0.999969 0.990435
1.00148 0.999938 0.991578
1.00208 0.99996 0.990405
1.00229 0.99985 0.99009
1.0021 0.999777 0.99056
1.00239 0.99951 0.990317
1.00173 1.00007 0.990994
1.00211 0.999327 0.991013
1.0023 0.999912 0.990032
1.00235 0.999775 0.990057
1.00228 0.99925 0.99062
1.0025 0.999436 0.990291
1.00189 0.999665 0.991037
1.0023 0.998805 0.991268
1.00198 0.99997 0.990583
1.00185 0.999927 0.990967
1.00219 0.999845 0.990259
1.0021 0.999829 0.990629
0.999949 1.00069 0.993893
1.00016 1.00141 0.992823
1.00034 1.00174 0.992097
1.0015 1.00022 0.991436
1.00197 0.999448 0.991081
1.00142 1.00012 0.99157
1.00084 1.00147 0.991282
1.00124 1.00021 0.991838
1.00021 1.00134 0.992782
1.00023 1.00192 0.992126
1.00005 0.99983 0.994533
1.00018 1.00142 0.992659
1.00223 0.999935 0.990169
1.00222 0.999779 0.99041
1.00233 0.999825 0.990049
1.00224 0.999473 0.990576
1.00016 1.00136 0.992855
1.00019 1.00172 0.992335
1.00048 1.00214 0.991448
1.00164 0.999846 0.991408
1.00208 0.999003 0.99139
1.00098 1.00152 0.991077
1.00146 0.999687 0.991902
1.00134 1 0.99191
1.00024 1.00171 0.992344
1.00028 1.00201 0.99201
1.00016 1.00228 0.991953
1.00006 0.999577 0.994681
1.00016 1.00119 0.992893
1.00237 0.999915 0.989943
1.00248 0.999632 0.989971
1.00238 0.998949 0.990829
1.00185 0.999065 0.99171
1.00021 1.00165 0.992456
1.00167 0.999113 0.992223
1.00017 1.0021 0.991865
1.00061 1.00254 0.990796
1.00116 1.00142 0.990864
1.00008 0.999364 0.994786
1.00014 1.00092 0.993359
1.00011 1.00216 0.992143
1.00028 1.00179 0.99219
1.0002 1.00268 0.991507
1.00033 1.00205 0.991835
0.999937 0.997765 0.996794
1.0001 0.999857 0.994411
1.00153 1.00035 0.991152
1.00017 1.00126 0.992907
1.00014 1.00136 0.992869
1.00019 1.00185 0.992253
1.00078 1.00098 0.991966
1.00125 1.00077 0.991208
1.00012 1.00204 0.992248
1.00034 1.0022 0.991666
1.00065 1.00125 0.992071
1.0001 0.999674 0.994596
1.00018 1.00113 0.993014
1.0002 1.00181 0.992327
1.00018 1.00192 0.992251
1.0002 1.00212 0.991999
1.00162 1.00027 0.991015
1.00089 1.00108 0.991672
1.00121 1.00073 0.991315
1.00015 1.00252 0.991636
1.0006 1.00223 0.991142
1.00018 1.00098 0.99317
1.00019 1.00191 0.99217
1.00022 1.00221 0.991895
1.00021 1.0022 0.991846
1.00028 1.00221 0.991773
1.00184 0.999176 0.991596
1.00093 1.00169 0.991059
1.00124 1.00055 0.991041
1.00034 1.00284 0.991198
1.00058 1.00268 0.990315
1.00011 0.999481 0.994788
1.00016 1.00083 0.993304
1.00014 1.00177 0.992401
1.00014 1.00064 0.993486
1.0001 1.00051 0.99379
1.00012 1.00159 0.992736
1.00011 1.00226 0.992133
1.0001 1.00148 0.992748
1.00007 1.00046 0.993896
1.00011 0.999074 0.995191
1.00011 0.999125 0.995146
1.00004 0.997232 0.997547
1.00011 0.999215 0.995066
1.00001 0.997349 0.997504
0.999954 0.996264 0.998477
0.999985 0.997474 0.99745
0.999912 0.99636 0.998433
0.999854 0.996465 0.999318
0.999937 0.997561 0.997003
0.999906 0.997737 0.996899
0.999803 0.996585 0.99932
0.999874 0.997951 0.99675
0.999752 0.996789 0.999281
0.999706 0.996991 0.999235
1.00174 1.00008 0.990984
1.0021 0.999788 0.990562
1.00212 0.999284 0.991029
1.00239 0.999496 0.990315
1.00231 0.999867 0.990061
1.00208 0.99996 0.990407
1.0023 0.999921 0.990021
1.00235 0.999778 0.990064
1.00232 0.999272 0.990566
1.00246 0.99943 0.990259
1.00188 0.999714 0.99103
1.00224 0.998655 0.991424
1.00233 0.999888 0.98999
1.00234 0.999754 0.990125
1.00245 0.998918 0.990724
1.00213 0.998563 0.991722
1.00222 0.999932 0.990176
1.00221 0.999779 0.990422
1.00231 0.99984 0.990041
1.00225 0.99948 0.990588
1.00017 1.00134 0.992857
1.0002 1.00172 0.992389
1.00046 1.00217 0.991441
1.00167 0.999906 0.991375
1.00198 0.998952 0.991542
1.00146 0.999702 0.991909
1.00097 1.00157 0.991045
1.00129 0.999834 0.992018
1.00025 1.00171 0.992344
1.00028 1.00197 0.991999
1.00015 1.00231 0.991936
1.00006 0.999581 0.994585
1.00017 1.00115 0.992937
1.00235 0.999895 0.989948
1.00246 0.999644 0.990018
1.00235 0.999005 0.990874
1.00023 1.00164 0.992449
1.00021 1.00209 0.991944
1.00058 1.00259 0.990777
1.00187 0.999111 0.991658
1.00114 1.00128 0.991021
1.0016 0.999135 0.992192
1.00008 0.999346 0.99481
1.00028 1.00181 0.99218
1.00031 1.00199 0.991896
1.0002 1.00267 0.991512
1.00012 1.00217 0.992173
1.00015 1.00091 0.993271
1.00243 0.999854 0.989891
1.00262 0.999371 0.989943
1.00235 0.998462 0.991255
1.00214 0.998136 0.992183
1.00024 1.00187 0.992182
1.00153 1.0001 0.991409
1.00027 1.00273 0.991118
1.00074 1.00296 0.990247
1.00008 0.9992 0.994948
1.00014 1.00062 0.993685
1.00012 1.00191 0.992484
1.00013 1.00295 0.991326
1.00028 1.00202 0.991922
1.00028 1.00256 0.991406
1.00011 0.999664 0.994598
1.00018 1.00114 0.993008
1.00162 1.00031 0.990999
1.00018 1.00194 0.992243
1.00019 1.0018 0.992366
1.00019 1.00214 0.991967
1.0009 1.00107 0.991655
1.00125 1.00072 0.991322
1.00014 1.00252 0.991596
1.0006 1.00233 0.991055
1.00018 1.00099 0.993168
1.00019 1.00193 0.992196
1.00022 1.00219 0.991951
1.0002 1.00221 0.991888
1.00024 1.00221 0.991822
1.00188 0.999215 0.991644
1.00096 1.00162 0.991097
1.00125 1.0006 0.99122
1.00031 1.00285 0.991142
1.00063 1.00283 0.990254
1.00017 1.00188 0.992246
1.0002 1.00245 0.991615
1.00028 1.00256 0.991464
1.00025 1.00239 0.991515
1.00277 0.997482 0.991722
1.00191 0.999031 0.991489
1.00103 1.00227 0.99018
1.00032 1.00375 0.989997
1.00015 1.00084 0.993349
1.00013 1.00179 0.992452
1.00012 1.00239 0.991918
1.00011 1.00051 0.993791
1.00012 1.00159 0.992622
1.00008 1.00046 0.993896
1.00012 1.00226 0.99205
1.0001 1.00149 0.992792
1.00015 1.00269 0.991598
1.00011 1.00217 0.992048
1.00008 1.0014 0.992873
1.00006 1.00042 0.99397
1.00011 0.999063 0.995204
1.00011 0.999071 0.995194
1.00006 0.997159 0.997568
1.00011 0.999129 0.995147
1.00004 0.997239 0.997552
0.999989 0.996152 0.998509
1.00001 0.997349 0.997513
0.999951 0.996234 0.998474
0.999907 0.996334 0.99843
0.999972 0.997413 0.997081
0.999942 0.997566 0.996999
0.999853 0.996425 0.999341
0.99991 0.997745 0.996891
0.999798 0.996607 0.999312
0.999749 0.99681 0.999271
1.00188 0.999762 0.991024
1.00236 0.999297 0.990512
1.00219 0.998512 0.991579
1.00241 0.999428 0.990226
1.00235 0.999781 0.99007
1.0023 0.99993 0.99001
1.00233 0.999893 0.99
1.00233 0.999742 0.990134
1.00244 0.99891 0.99075
1.00215 0.998521 0.991701
1.00229 0.999905 0.990061
1.00239 0.999446 0.990417
1.00252 0.998218 0.991227
1.00234 0.999875 0.989953
1.00244 0.999659 0.990065
1.00231 0.999057 0.99092
1.00024 1.00164 0.992443
1.00026 1.00209 0.992024
1.00055 1.00265 0.990759
1.0019 0.999155 0.991607
1.00154 0.999158 0.992162
1.00111 1.00114 0.991178
1.00028 1.00182 0.992171
1.0003 1.00193 0.991958
1.0002 1.00266 0.991517
1.00007 0.999326 0.994833
1.00012 1.00218 0.992204
1.00016 1.0009 0.993183
1.0024 0.999849 0.989919
1.00264 0.999344 0.98993
1.00238 0.998549 0.991171
1.00026 1.00187 0.992169
1.00026 1.00269 0.991219
1.00073 1.00289 0.990308
1.00209 0.998197 0.992239
1.00153 1.00004 0.991397
1.00008 0.999188 0.995042
1.00013 1.00062 0.99369
1.00026 1.00202 0.991924
1.00028 1.00256 0.991416
1.00012 1.00292 0.991389
1.00012 1.00193 0.992413
1.00243 0.999673 0.990044
1.00273 0.99892 0.990201
1.00252 0.997302 0.992137
1.00216 0.998198 0.99226
1.00021 1.00236 0.991669
1.001 1.00266 0.990001
1.00044 1.00335 0.990506
1.0001 0.999054 0.995235
1.0001 1.00016 0.994162
1.00011 1.00042 0.993749
1.00012 1.00169 0.992647
1.00009 1.00267 0.991646
1.00014 1.00338 0.99089
1.00024 1.0022 0.991686
1.00024 1.00336 0.991065
1.00017 1.00099 0.993166
1.00019 1.00195 0.992223
1.00193 0.999254 0.991692
1.0002 1.00223 0.99193
1.00021 1.00217 0.992006
1.0002 1.00221 0.99187
1.00099 1.00154 0.991135
1.00124 1.00063 0.991398
1.00028 1.00287 0.991086
1.00067 1.00297 0.990193
1.00016 1.00191 0.992225
1.00021 1.00242 0.991675
1.00026 1.00253 0.991525
1.00027 1.00241 0.991555
1.00275 0.997401 0.99177
1.00185 0.999297 0.991454
1.00107 1.00225 0.990272
1.00038 1.00365 0.989961
1.00014 1.00252 0.991769
1.00276 0.997853 0.991116
1.00023 1.00283 0.991311
1.00025 1.00309 0.990955
1.00297 0.996916 0.991683
1.00159 1.00139 0.989921
1.00063 1.00415 0.989429
1.00012 1.00181 0.992503
1.00011 1.0024 0.991923
1.00013 1.00281 0.991484
1.00008 1.00046 0.993897
1.00009 1.00149 0.992835
1.00012 1.00227 0.991967
1.00006 1.00041 0.993972
1.00008 1.00141 0.992862
1.00016 1.00269 0.991533
1.0001 1.00218 0.992139
1.00026 1.00289 0.991201
1.00019 1.00263 0.991484
1.00011 1.00206 0.992265
1.00005 1.00138 0.993036
1.00006 1.00039 0.993997
1.0001 0.999086 0.995192
1.00011 0.999065 0.995204
1.00007 0.997134 0.997558
1.00011 0.999069 0.995196
1.00006 0.997173 0.997568
1.00002 0.99608 0.998514
1.00003 0.997245 0.997558
0.999987 0.996121 0.998507
0.999948 0.996205 0.998471
1.00011 0.998927 0.995335
1.00001 0.997266 0.997156
0.999976 0.99742 0.997078
0.999899 0.996278 0.99936
0.999946 0.997573 0.996994
0.999847 0.996442 0.999335
0.999794 0.996627 0.999304
1.00216 0.998474 0.99168
1.00242 0.998901 0.990776
1.00233 0.999728 0.990142
1.00233 0.999898 0.990009
1.00227 0.999914 0.9901
1.00238 0.999489 0.990343
1.00248 0.998177 0.991365
1.00222 0.999805 0.990326
1.00252 0.998983 0.99056
1.0025 0.998238 0.99121
1.00238 0.999843 0.989947
1.00266 0.99932 0.989918
1.00241 0.998635 0.991086
1.00027 1.00187 0.992156
1.00024 1.00264 0.99132
1.00072 1.00281 0.990369
1.00201 0.998253 0.992296
1.00154 0.999979 0.991385
1.00025 1.00202 0.991926
1.00028 1.00255 0.991426
1.00011 1.00288 0.991453
1.00009 0.999174 0.995136
1.00013 1.00061 0.993695
1.00013 1.00195 0.992342
1.00242 0.999649 0.990068
1.0001 0.999051 0.995232
1.00009 1.00015 0.994103
1.00275 0.998888 0.990211
1.00247 0.997499 0.991979
1.0002 1.00231 0.991726
1.00042 1.00342 0.990388
1.00101 1.00242 0.990045
1.00209 0.998194 0.992228
1.00011 1.00041 0.993906
1.00011 1.00169 0.992644
1.00027 1.00225 0.991705
1.00022 1.00306 0.991165
1.00012 1.00345 0.990797
1.00011 1.00264 0.991659
1.00247 0.99931 0.990291
1.0028 0.997989 0.991048
1.00272 0.996216 0.992972
1.00159 1.00059 0.990843
1.00022 1.0028 0.991289
1.00057 1.00413 0.989538
1.00008 1.00006 0.994146
1.0001 1.00027 0.994037
1.00006 1.00116 0.993398
1.00009 1.00148 0.992778
1.00012 1.00242 0.991944
1.00008 1.00324 0.991043
1.00006 1.00409 0.9904
1.00007 1.0032 0.99116
1.00016 1.00193 0.992204
1.00021 1.00239 0.991735
1.00272 0.997316 0.991817
1.00178 0.999562 0.991419
1.0003 1.00243 0.991595
1.00025 1.0025 0.991586
1.0011 1.00226 0.990364
1.00044 1.00356 0.989925
1.00013 1.00251 0.991768
1.00276 0.99771 0.99122
1.00023 1.00279 0.991311
1.00027 1.00306 0.990838
1.00289 0.997023 0.991668
1.00167 1.00133 0.989922
1.00058 1.0042 0.989411
1.00013 1.00298 0.991344
1.00356 0.996244 0.991053
1.00033 1.00302 0.991021
1.00038 1.00404 0.989979
1.00264 0.999225 0.989683
1.00083 1.00359 0.98914
1.0039 0.998059 0.989607
1.0001 1.00241 0.991927
1.00011 1.00282 0.991487
1.00023 1.00299 0.99117
1.00006 1.00041 0.993973
1.00008 1.00142 0.992851
1.0001 1.00219 0.99223
1.00016 1.00268 0.991469
1.00006 1.00039 0.993997
1.00006 1.00139 0.992973
1.00025 1.00286 0.991183
1.00011 1.00206 0.992266
1.00017 1.00263 0.991564
1.00034 1.00289 0.990964
1.00017 1.00256 0.991712
1.00011 1.00206 0.992331
1.00006 1.00137 0.99291
1.00006 1.00041 0.993841
1.00006 1.00145 0.993081
1.00007 1.00046 0.993784
1.0001 0.999115 0.995169
1.0001 0.999089 0.995191
1.00009 0.997152 0.997113
1.00011 0.999066 0.995204
1.00008 0.997153 0.99734
1.00001 0.996018 0.999367
1.00006 0.997187 0.997568
1.00002 0.996049 0.998515
0.999986 0.996091 0.998505
1.00013 0.998824 0.995414
1.00012 0.998921 0.995334
1.00004 0.997135 0.997228
1.00001 0.997274 0.997365
0.999941 0.996146 0.999378
0.99998 0.997426 0.997074
0.999894 0.996296 0.999354
0.999842 0.996461 0.999329
1.00244 0.998136 0.991503
1.00238 0.999529 0.990269
1.00226 0.999923 0.990138
1.00222 0.999803 0.990323
1.00244 0.998983 0.990652
1.00244 0.998549 0.991103
1.0023 0.999221 0.990784
1.00421 0.996394 0.991584
1.00264 0.997324 0.991752
1.00009 0.999998 0.994338
1.00241 0.999625 0.990092
1.00277 0.998854 0.99022
1.00244 0.997657 0.991822
1.00019 1.00226 0.991782
1.0004 1.00347 0.990269
1.00103 1.0022 0.990089
1.00204 0.998216 0.992197
1.00031 1.00226 0.991723
1.0002 1.0028 0.991264
1.0001 1.00354 0.990704
1.0001 0.999053 0.99523
1.00013 1.00261 0.991672
1.0001 1.00042 0.994063
1.0001 1.00169 0.99264
1.00009 1.00015 0.994044
1.00251 0.99926 0.990259
1.00009 1.00006 0.994211
1.00009 1.00028 0.994035
1.00006 1.00115 0.993275
1.00281 0.997926 0.991063
1.00268 0.996397 0.992756
1.00024 1.00269 0.991325
1.00048 1.00413 0.989483
1.00156 1.00048 0.990879
1.00009 1.00146 0.992862
1.00013 1.00243 0.991903
1.00009 1.00317 0.991121
1.00005 1.00403 0.990471
1.00009 1.00321 0.991102
1.00269 0.998682 0.990351
1.00308 0.996287 0.992242
1.00249 0.998152 0.991561
1.00086 1.00342 0.989671
1.00002 1.00375 0.990649
1.00004 1.00104 0.993265
1.00007 1.0013 0.992992
1.00006 1.0019 0.992603
1.0001 1.00229 0.99209
1.00013 1.00288 0.991398
1.00001 1.00385 0.990695
0.999925 1.0045 0.990171
1.00013 1.0025 0.991767
1.00022 1.00275 0.991312
1.00276 0.997552 0.991324
1.00281 0.997124 0.991652
1.00175 1.00126 0.989922
1.00029 1.00303 0.99072
1.00053 1.00423 0.989394
1.00013 1.00295 0.991383
1.00355 0.996115 0.991108
1.0003 1.00296 0.991037
1.00026 1.00412 0.989965
1.00281 0.998929 0.989783
1.00084 1.00368 0.989136
1.00385 0.997966 0.989919
1.0002 1.00312 0.991083
1.00385 0.996884 0.989535
1.00024 1.0035 0.990658
1.00007 1.00478 0.989608
1.00128 1.0021 0.98926
0.996727 1.00218 0.971892
0.999159 1.00062 0.987865
1.00317 0.999184 0.990441
0.994436 0.998798 0.983113
0.996898 0.996573 0.985472
1.0001 1.00283 0.99149
1.00022 1.00299 0.991172
1.00038 1.00298 0.990814
1.00006 1.00039 0.993998
1.00006 1.0014 0.99291
1.0001 1.00207 0.992267
1.00016 1.00264 0.991644
1.00025 1.00284 0.991164
1.00012 1.00207 0.992233
1.00006 1.00041 0.993905
1.00005 1.00138 0.992984
1.00031 1.00289 0.991018
1.00018 1.00254 0.991677
1.00017 1.00251 0.991778
1.00024 1.00306 0.991046
1.00013 1.00211 0.992073
1.00006 1.00138 0.992921
1.00006 1.00044 0.993805
1.00007 1.00139 0.993033
1.0001 1.00214 0.992295
1.00007 1.00156 0.99282
1.00006 1.00145 0.99296
1.00007 1.00048 0.993876
1.00007 1.00046 0.993788
1.00011 0.999146 0.995131
1.0001 0.999113 0.995169
1.00009 0.997187 0.9971
1.0001 0.999092 0.99519
1.00009 0.997156 0.997112
1.00002 0.996005 0.999365
1.00008 0.997172 0.997123
1.00003 0.996016 0.998935
1.00002 0.996018 0.998516
1.00014 0.998762 0.995459
1.00013 0.998819 0.995412
1.00006 0.997033 0.997286
1.00012 0.998915 0.995334
1.00004 0.997132 0.997436
0.999974 0.996033 0.999395
1.00001 0.997292 0.997142
0.999934 0.996183 0.999369
0.999888 0.996315 0.999348
1.00235 0.998987 0.990744
1.00223 0.999801 0.990321
1.00237 0.998865 0.990996
1.00405 0.996228 0.991614
1.00229 0.99923 0.990728
1.00255 0.997534 0.991502
1.0027 0.998592 0.990143
0.999578 0.999697 0.985173
1.00298 0.99765 0.992897
1.00009 0.999977 0.994362
1.00009 1 0.994336
1.00005 1.00093 0.993502
1.00006 1.00086 0.993545
1.00256 0.999222 0.990226
1.00282 0.997919 0.991079
1.00263 0.996529 0.992539
1.00026 1.00263 0.991362
1.00038 1.0041 0.989428
1.00153 1.00035 0.990915
1.0001 1.00316 0.991082
1.00005 1.00393 0.990542
1.0001 1.00318 0.991161
1.00009 1.00029 0.994032
1.00014 1.00243 0.991863
1.00008 1.00144 0.992946
1.0001 1.00006 0.994276
1.00006 1.00114 0.993152
1.0027 0.998681 0.990472
1.00004 1.00105 0.99339
1.00007 1.00128 0.993067
1.00006 1.00182 0.992598
1.00303 0.996261 0.992285
1.00245 0.997954 0.991572
1.00005 1.00381 0.990631
1.00079 1.00336 0.989692
1.00009 1.00229 0.992131
1.00014 1.00283 0.99141
0.999928 1.00449 0.990181
1.00002 1.00394 0.990622
1.0033 0.996792 0.99072
1.00341 0.996242 0.991748
1.0016 1.00206 0.989447
1.00002 1.00456 0.989955
1.00004 1.00205 0.99235
1.00006 1.00211 0.992257
1.00009 1.00316 0.991171
0.999981 1.00471 0.989894
0.996493 1.00213 0.969124
1.00012 1.00292 0.991421
1.00026 1.0029 0.991052
1.00351 0.995934 0.991162
1.00299 0.998674 0.989885
1.00084 1.00377 0.989132
1.00013 1.00422 0.989951
1.00367 0.997892 0.990233
1.00019 1.00312 0.991106
1.00402 0.996835 0.989455
1.00019 1.00351 0.990666
1.00005 1.00476 0.98964
1.00129 1.00219 0.989279
0.996461 1.00157 0.972555
0.99908 1.00075 0.984168
1.00305 0.999032 0.990603
0.994504 0.999333 0.981939
0.996344 0.997092 0.985416
1.00016 1.00328 0.99095
0.995024 0.998784 0.979799
0.999096 0.995534 0.987753
1.00253 0.999429 0.990084
1.00011 1.00361 0.990544
0.999938 1.0049 0.990108
1.00294 0.999835 0.989898
0.996105 1.00206 0.97207
0.998943 1.00102 0.984595
0.994499 1.00174 0.980939
1.00349 0.996025 0.982565
1.00019 1.00299 0.991174
1.00037 1.00301 0.990825
1.00049 1.00315 0.990464
1.00006 1.00041 0.993969
1.00004 1.00139 0.993058
1.00013 1.00207 0.992134
1.00018 1.00252 0.991642
1.00029 1.00289 0.991071
1.00006 1.00044 0.993808
1.00017 1.00246 0.991752
1.00012 1.00213 0.992183
1.00006 1.00136 0.992987
1.00025 1.00305 0.990941
1.00018 1.00275 0.991423
1.00011 1.00397 0.990439
1.00011 1.00213 0.992187
1.00007 1.00139 0.993026
1.00006 1.0014 0.993032
1.00011 1.00214 0.992193
1.00011 1.00206 0.992252
1.0001 1.00228 0.992052
1.00017 1.00256 0.991689
1.00008 1.00271 0.991649
1.00008 1.00174 0.992617
1.00007 1.00157 0.992819
1.00009 1.00054 0.99378
1.00006 1.00145 0.99284
1.00007 1.00048 0.993811
1.00011 0.999194 0.995078
1.00007 1.00046 0.993791
1.00011 0.999142 0.995132
1.00006 0.997226 0.997524
1.0001 0.999111 0.995169
1.00008 0.997183 0.997317
1.00005 0.996016 0.998489
1.00009 0.997159 0.997112
1.00002 0.996005 0.999364
1.00004 0.996014 0.998504
1.00009 1.00001 0.994323
1.00014 0.998747 0.995466
1.00014 0.998758 0.995458
1.00008 0.996974 0.99732
1.00013 0.998813 0.995411
1.00007 0.997028 0.997289
0.999998 0.995951 0.999407
1.00003 0.997145 0.997632
0.99998 0.996071 0.998969
0.999956 0.996208 0.998518
1.0038 0.996095 0.991645
1.00229 0.999247 0.990673
1.00244 0.997746 0.991253
0.9995 0.999341 0.98767
1.0029 0.997629 0.993031
1.00274 0.998515 0.990064
1.0032 0.998775 0.991536
0.999081 1.00001 0.98707
0.996138 1.00242 0.96742
0.995048 0.998043 0.979453
0.996171 0.996563 0.986763
1.00005 1.00086 0.993433
1.00009 0.999982 0.994361
1.00009 1.00001 0.994335
1.00004 1.00094 0.993457
1.00004 1.00164 0.992886
1.00006 1.00144 0.993011
1.00006 1.00097 0.993452
1.00006 1.00087 0.993496
1.00271 0.998674 0.990592
1.00298 0.996186 0.992328
1.00241 0.997847 0.991582
1.00008 1.00381 0.990613
1.00073 1.00337 0.989712
0.999932 1.00446 0.990191
1.00003 1.00404 0.990549
1.00014 1.00278 0.991422
1.00006 1.00126 0.993141
1.00008 1.00229 0.992172
1.00004 1.00106 0.993514
1.00006 1.00175 0.992594
1.00337 0.997109 0.99059
1.00004 1.00203 0.992394
1.00006 1.00213 0.992272
1.00327 0.996153 0.991754
1.00144 1.00178 0.989598
1.00008 1.00455 0.989832
1.00011 1.00317 0.991147
0.999993 1.00465 0.98992
1.00426 0.995925 0.989784
1.00236 1.00068 0.989685
1.00033 1.00418 0.989244
1.00006 1.00496 0.989536
1.00002 1.00255 0.991872
1.00008 1.0029 0.991448
1.00008 1.00409 0.990376
0.996173 0.998013 0.979638
0.996928 1.00255 0.971471
1.00018 1.00312 0.991128
1.00014 1.00351 0.990673
1.0042 0.996802 0.989374
1.00134 1.00228 0.989297
1.00003 1.00477 0.989673
0.99675 1.00233 0.966563
0.999094 1.00035 0.988903
1.00304 0.998742 0.990749
0.994474 0.999452 0.979959
0.995757 0.997675 0.985362
1.0002 1.0032 0.990939
0.995654 0.99748 0.981571
0.99853 0.995842 0.988022
1.00252 0.999453 0.990051
1.00005 1.00391 0.99056
0.999845 1.00488 0.990146
1.00291 1.00032 0.989669
0.995564 1.00239 0.969863
0.999008 1.00184 0.987863
0.994252 1.00063 0.979579
1.00266 0.997122 0.983325
1.0005 1.00286 0.990612
0.99958 0.995579 0.990155
1.01117 0.997045 0.978494
1.00065 1.00257 0.990369
0.999811 1.00382 0.991586
1.00212 1.00072 0.994891
0.999429 0.998356 0.994798
0.995253 1.0027 0.970741
0.994637 0.999231 0.980989
1.01129 0.993573 0.978217
1.00036 1.00304 0.990836
1.00047 1.00317 0.990425
1.00021 1.00369 0.99025
1.00007 1.00044 0.993811
1.00006 1.00135 0.993054
1.00011 1.00214 0.992293
1.00018 1.00242 0.991725
1.00027 1.00303 0.990836
1.00007 1.00139 0.993024
1.00017 1.0027 0.991492
1.00011 1.00213 0.992187
1.00009 1.00398 0.990367
1.00001 1.00457 0.990009
1.00011 1.00322 0.991158
1.00011 1.00211 0.99222
1.00006 1.0014 0.993031
1.00012 1.00214 0.99209
1.00011 1.00207 0.99225
1.00009 1.00229 0.99205
1.00018 1.00251 0.99166
1.00007 1.00252 0.991831
1.00019 1.00256 0.991643
1.00018 1.00276 0.991334
1.00015 1.00293 0.991304
0.999987 1.00276 0.991658
1.00006 1.00267 0.991669
1.00008 1.0027 0.99166
1.00009 1.00195 0.992404
1.00008 1.00175 0.992615
1.00011 1.00067 0.993611
1.00006 1.00157 0.992818
1.00009 1.00055 0.993777
1.00011 0.999262 0.995013
1.00007 1.00049 0.993745
1.00011 0.999186 0.995078
1.00004 0.997294 0.9975
1.00011 0.999138 0.995132
1.00007 0.997227 0.9973
1.00003 0.996033 0.998482
1.00009 0.997176 0.997098
1.00002 0.996017 0.999362
1.00002 0.996004 0.999364
1.00011 1.00007 0.994392
1.00014 0.998779 0.995431
1.00009 1.00001 0.994323
1.00008 0.996962 0.997326
1.00014 0.998747 0.995466
1.00014 0.998753 0.995456
1.00008 0.996976 0.997319
1.00001 0.995907 0.999414
1.00005 0.99703 0.99769
1.00001 0.995962 0.998997
0.999997 0.996077 0.998561
0.99583 0.996387 0.983243
0.999265 0.995167 0.987551
0.999616 0.998818 0.990012
1.00284 0.997743 0.993165
1.00279 0.998452 0.989983
0.999092 1.00003 0.991955
1.0033 0.998497 0.991416
0.996893 1.00161 0.971746
0.9943 0.998496 0.983665
0.99574 0.996553 0.987099
1.00042 0.999047 0.993938
0.995648 1.00221 0.973262
0.9941 1.00091 0.98228
1.00025 0.995888 0.985235
1.00002 1.00175 0.992672
1.00005 1.00087 0.993481
1.00009 0.999983 0.994361
1.00003 1.00094 0.993413
1.00002 1.00157 0.992935
1.00004 1.0017 0.992785
1.00006 1.00139 0.993031
1.00007 1.00124 0.993151
1.00006 1.00099 0.993382
1.00005 1.00089 0.993446
1.0034 0.997373 0.990461
1.00318 0.996017 0.991754
1.00127 1.0015 0.989749
1.00012 1.00455 0.98971
1 1.0046 0.989945
1.00012 1.00319 0.991122
1.00006 1.00215 0.992287
1.00004 1.00201 0.992438
1.00441 0.995892 0.989555
1.00002 1.00257 0.991843
1.0001 1.00292 0.99136
1.00221 1.00048 0.989601
1.00036 1.00422 0.989317
1.00009 1.00496 0.989479
1.00011 1.00408 0.990292
1.00391 0.998836 0.988119
1.0003 1.00464 0.989469
1.00005 1.00462 0.989724
1.00004 1.00259 0.991822
1.00012 1.00302 0.991261
1.00023 1.00343 0.990637
1.0013 0.996143 0.985322
0.9958 0.998544 0.978331
0.996519 1.00227 0.968965
1.00025 1.00312 0.990927
1.00001 1.00416 0.990576
1.0025 0.999556 0.990019
0.999725 1.00488 0.990182
0.996186 0.998253 0.978276
0.995531 1.00184 0.97539
0.998986 1.00119 0.984685
1.00284 1.00071 0.989539
0.994086 1.00047 0.982539
0.998411 0.996055 0.987661
1.00002 0.998154 0.984431
1.00045 1.0031 0.990586
1.00018 0.995633 0.987763
1.01087 0.997072 0.978799
1.00069 1.00263 0.990423
0.999637 1.00368 0.991609
1.00297 1.00259 0.989756
0.999389 0.999336 0.988952
0.995635 1.00245 0.971711
0.995933 0.998647 0.984797
1.00909 0.99398 0.979628
1.00006 1.00284 0.991699
1.01402 0.996512 0.977985
1.02127 0.99225 0.970866
0.998777 1.00374 0.99302
0.998973 0.998051 1.00028
0.995521 0.999127 0.974542
0.997551 0.998596 0.983685
1.0112 0.99075 0.981344
1.00045 1.00318 0.990386
1.00028 1.00359 0.990379
1.0003 1.00342 0.990766
1.00007 1.00138 0.993023
1.00011 1.00212 0.992186
1.00016 1.00264 0.991561
1.00008 1.00402 0.990295
1.00011 1.00211 0.992216
1.00012 1.00317 0.991172
0.99999 1.00454 0.98999
0.99987 1.0047 0.990259
1.00012 1.00405 0.990256
1.00018 1.00271 0.991537
1.00011 1.00207 0.992249
1.00009 1.0023 0.992047
1.0002 1.00247 0.991631
1.00019 1.00254 0.991654
1.00007 1.00254 0.991835
1.00019 1.00273 0.991368
1.00016 1.00298 0.991206
1.00025 1.00288 0.991136
1.00016 1.00312 0.991096
1.00015 1.00294 0.991322
0.999987 1.00303 0.991393
1.0002 1.00274 0.991413
1.00013 1.00226 0.992089
0.999954 1.00263 0.991895
1.00008 1.00265 0.991716
1.00009 1.00207 0.992195
1.00009 1.00269 0.991671
1.00009 1.00194 0.992408
1.00013 1.00086 0.993386
1.00008 1.00176 0.992613
1.00011 1.00068 0.993607
1.0001 0.99936 0.994926
1.00009 1.00056 0.993773
1.00011 0.999257 0.99501
1.00001 0.997386 0.997467
1.00012 0.999178 0.995077
1.00005 0.9973 0.997272
0.999999 0.996111 0.998465
1.00008 0.99722 0.997079
1.00002 0.996043 0.998921
1.00001 0.996023 0.999361
1.00012 1.00024 0.994083
1.00014 0.998851 0.995368
1.0001 1.00008 0.994256
1.00008 0.996997 0.9973
1.00014 0.998781 0.995433
1.00009 1.00001 0.994323
1.00002 0.995897 0.999414
1.00008 0.996961 0.997327
1.00014 0.998745 0.995466
1.00008 0.996979 0.997318
1.00001 0.99591 0.999412
0.999996 0.995955 0.999406
1.00085 0.99566 0.987359
0.995547 0.997379 0.981026
1.01218 0.994696 0.979466
0.998924 0.995172 0.987396
0.999119 1.00068 0.986378
1.00343 0.998218 0.991275
0.996419 1.00054 0.976412
0.994858 0.999208 0.979895
0.995342 0.996612 0.987436
1.00048 0.999221 0.991446
0.995632 1.00192 0.971634
0.994014 1.00085 0.980251
1.00151 0.995602 0.98558
0.999958 0.998896 0.993195
0.995098 1.00136 0.972202
0.99448 0.99867 0.984428
1.00982 0.991427 0.982646
1.00006 1.0022 0.992245
1.00003 1.00173 0.992745
1.00006 1.00087 0.993529
1.00001 1.00151 0.992984
1.00008 1.00197 0.992375
1.00005 1.00165 0.992836
1.00006 1.00134 0.993051
1.0001 1.00135 0.993058
1.00007 1.00122 0.99322
1.00006 1.00102 0.993312
1.00463 0.995927 0.989326
1.00201 1.00028 0.989521
1.0004 1.00434 0.98939
1.00012 1.00496 0.989423
1.00014 1.00408 0.990209
1.00012 1.00295 0.991271
1.00002 1.0026 0.991815
1.00005 1.00257 0.991846
1.00408 0.998566 0.988168
1.0001 1.00304 0.991307
1.00023 1.00354 0.990603
1.00027 1.00475 0.98936
1.00013 1.00464 0.989711
1.00266 1.00072 0.988774
0.999679 1.00484 0.990418
1.0003 1.00354 0.990347
1.00015 1.0028 0.991413
1.00032 1.00322 0.990663
1.01543 0.997072 0.976646
1.00122 0.995892 0.986463
0.995941 0.997601 0.982124
1.0004 1.00338 0.990559
0.999459 1.0036 0.991634
1.00075 1.00254 0.990469
1.00068 0.996227 0.986952
0.995372 1.00182 0.970648
0.999326 0.999006 0.992644
1.00384 1.00456 0.984479
0.994894 0.99901 0.981019
1.01056 0.997102 0.979105
1.00916 0.994178 0.979409
1.00004 1.00264 0.991796
1.01471 0.996909 0.976467
1.02141 0.992224 0.97091
0.999016 1.00347 0.992475
0.999197 0.998895 0.996705
0.995357 1.0009 0.972907
1.01252 0.990372 0.979989
0.996962 0.998098 0.982566
0.999775 1.00204 0.992849
1.02415 0.992433 0.968323
1.02532 0.989249 0.970631
1.00952 0.993559 0.981077
0.996671 1.00178 0.997625
0.995352 0.998281 0.977192
0.997178 0.999472 0.98234
1.00037 1.00346 0.990509
1.00035 1.00354 0.990458
0.999831 1.00367 0.991556
1.00011 1.00211 0.992212
1.00012 1.00313 0.991187
0.999974 1.00449 0.989971
1.00019 1.00268 0.991565
1.00013 1.00402 0.990251
0.999936 1.0046 0.99006
0.999861 1.00442 0.990418
1.00031 1.00318 0.990736
1.0002 1.00253 0.991665
1.00007 1.00257 0.991839
1.00021 1.00269 0.991402
1.00026 1.00286 0.991137
1.00017 1.00295 0.991212
1.00004 1.00343 0.991016
1.00009 1.00303 0.99129
1.00005 1.00396 0.990499
1.00017 1.00295 0.99134
1.00006 1.00306 0.991382
1.00019 1.00319 0.990751
1.00017 1.00258 0.99159
1.00011 1.00217 0.992157
1.00015 1.00275 0.991433
1.00014 1.00192 0.992337
1.00012 1.00229 0.992068
0.99992 1.00251 0.992132
1.0001 1.00263 0.991762
1.0001 1.00205 0.992245
1.00014 1.00107 0.99316
1.00009 1.00194 0.992412
1.00013 1.00086 0.993385
1.00009 0.999504 0.994802
1.00011 1.00069 0.993603
1.0001 0.999361 0.994922
0.999978 0.997496 0.997418
1.00011 0.999251 0.995008
1.00002 0.997396 0.997235
0.999961 0.996209 0.998445
1.00005 0.997293 0.997051
0.999991 0.996117 0.998911
0.999998 0.996073 0.999356
1.00013 1.0004 0.993722
1.00012 0.998983 0.995086
1.00012 1.00025 0.99408
1.00007 0.997076 0.997243
1.00013 0.998863 0.995281
1.0001 1.00009 0.994121
1.00001 0.995927 0.999405
1.00008 0.996991 0.997302
1.00014 0.998784 0.995434
1.00002 0.995897 0.999414
1.00008 0.996959 0.997327
1.00001 0.995914 0.999411
1.01476 0.99589 0.977186
1.00096 0.995715 0.985852
0.995734 0.997493 0.979802
1.00016 1.00145 0.992761
1.02193 0.990312 0.973118
1.0121 0.994888 0.979768
0.998987 0.99521 0.986585
1.00048 0.998759 0.98903
0.995658 1.00233 0.973667
0.994173 1.00128 0.98315
1.00124 0.995043 0.98581
0.99977 0.998944 0.98793
0.994925 1.00177 0.973565
0.995746 0.998852 0.98294
1.00825 0.992603 0.98335
0.999644 0.998382 0.986986
0.994934 1.00004 0.970126
0.998541 0.997572 0.979561
1.01216 0.988439 0.982915
1.00015 1.00239 0.991786
1.00006 1.00223 0.992198
1.00003 1.00171 0.992819
1.00013 1.002 0.99224
1.00008 1.00193 0.992458
1.00006 1.0016 0.992886
1.00011 1.00133 0.993085
1.00007 1.00121 0.993289
1.0042 0.998262 0.988213
1.00025 1.00484 0.989252
1.00005 1.00255 0.99187
1.00022 1.00468 0.989698
1.00024 1.0036 0.99057
1.00008 1.00307 0.991354
1.00015 1.00281 0.991422
1.00284 1.00082 0.988805
1.0003 1.00319 0.99072
1.00031 1.00367 0.990299
0.999657 1.00482 0.990317
1.00025 1.00269 0.991412
1.00151 1.00107 0.991645
0.999527 1.00418 0.991369
1.00039 1.00285 0.990843
1.00029 1.00307 0.990982
1.02294 0.994599 0.968947
1.01526 0.996705 0.976582
1.00107 0.995734 0.987606
1.00002 1.0024 0.991894
0.999267 1.00315 0.991927
1.01537 0.997269 0.974952
0.99532 0.999407 0.974468
0.999615 0.999345 0.98973
0.997921 0.998323 0.980122
1.02143 0.992128 0.970954
1.01396 0.990261 0.978635
0.99983 1.00237 0.992605
1.02415 0.992339 0.968235
1.02595 0.98766 0.969569
0.996789 1.00322 0.997985
1.00792 0.994437 0.981887
0.995067 0.998257 0.976708
0.998145 0.999074 0.978817
0.998715 1.00277 0.994838
1.02597 0.991981 0.966898
1.02234 0.992655 0.969832
1.00011 0.997139 0.984328
0.998389 0.998197 0.979358
0.996407 0.99941 1.0039
0.994861 1.00004 0.9725
1.00038 1.0037 0.990149
0.999941 1.00342 0.991398
0.999214 1.00483 0.990482
1.00019 1.00264 0.991592
1.00014 1.00399 0.990247
1.00001 1.00454 0.989861
1.00029 1.00318 0.990754
0.999885 1.00438 0.990348
0.999734 1.00421 0.990836
1.00026 1.00285 0.991139
1.00018 1.00292 0.991218
1.0001 1.00342 0.990977
0.999832 1.00452 0.990318
1.00002 1.00295 0.991483
0.999975 1.00385 0.990614
1.0001 1.00442 0.989929
1.00048 1.00291 0.990698
1.00013 1.00309 0.991371
1.00023 1.00329 0.990668
1.00021 1.00228 0.991973
0.99999 1.00231 0.992156
1.00018 1.00249 0.991679
1.00011 1.00184 0.992484
1.00012 1.00218 0.992141
1.00011 1.00276 0.991454
1.00016 1.00114 0.993056
1.00015 1.00191 0.992317
1.00012 1.00231 0.992046
1.0001 1.00203 0.992295
1.00015 1.00106 0.993163
1.00007 0.999704 0.994635
1.00013 1.00086 0.993383
1.00009 0.999511 0.994797
0.999952 0.997632 0.996902
1.0001 0.999361 0.994917
0.99999 0.997507 0.996958
0.999898 0.996323 0.999332
1.00003 0.997391 0.99701
0.999957 0.996213 0.998897
0.999972 0.996149 0.999348
1.00016 1.00052 0.993543
1.00012 0.999159 0.994914
1.00014 1.0004 0.993797
1.00005 0.997195 0.997163
1.00012 0.999006 0.995065
1.00012 1.00025 0.994078
0.999997 0.995987 0.999391
1.00007 0.997069 0.997246
1.00012 0.998877 0.995194
1.00001 0.99592 0.999408
1.00008 0.996986 0.997304
1.00002 0.995895 0.999415
1.02281 0.993272 0.96987
1.01483 0.995455 0.977241
1.0009 0.995721 0.986009
1.00016 1.00145 0.992786
1.0002 1.00153 0.992539
1.00016 1.00208 0.992221
1.02466 0.986356 0.974648
1.02224 0.989489 0.973168
1.01198 0.995061 0.980072
0.999569 0.999135 0.992218
0.995101 1.00208 0.971773
0.994549 0.998151 0.982074
1.00837 0.992916 0.9831
0.999277 0.9985 0.991503
0.994918 0.999686 0.974566
0.997048 0.998786 0.982952
1.01299 0.98774 0.982047
0.998706 0.996804 0.99339
0.99492 1.00009 0.975318
0.998226 0.999234 0.980923
1.01067 0.991564 0.980449
1.0002 1.00252 0.991622
1.00014 1.00243 0.991783
1.00005 1.00227 0.992152
1.00013 1.00203 0.992234
1.00009 1.0019 0.992542
1.00012 1.00132 0.993113
1.003 1.00094 0.988836
0.999652 1.00477 0.990216
1.00015 1.00282 0.991431
1.00032 1.00376 0.990251
1.00029 1.00321 0.990778
1.00024 1.00264 0.991428
1.0003 1.00303 0.990938
1.00158 1.00068 0.991575
1.00042 1.0028 0.990969
0.999448 1.00408 0.991854
1.00026 1.00277 0.991137
0.99909 1.00285 0.99414
0.999714 1.00109 0.993824
1.00028 1.00316 0.990731
1.0246 0.993598 0.967367
1.02294 0.994285 0.968644
1.01508 0.996256 0.976518
0.999865 1.0027 0.992362
0.996771 1.0005 0.99902
1.02418 0.992258 0.968147
0.995169 0.998696 0.9863
0.998725 0.999127 0.981777
1.02668 0.986111 0.968508
1.00802 0.99472 0.98176
0.998825 1.00241 0.9945
1.02557 0.992137 0.966901
1.02265 0.992143 0.969836
0.996402 1.00053 0.996096
1.00133 0.996815 0.984761
0.996971 0.998925 0.982696
0.994926 1 0.976265
0.998455 1.00448 0.99644
1.02296 0.995107 0.967704
1.01227 0.996008 0.977858
0.996152 0.997762 0.986099
0.994586 0.999077 0.983538
0.995175 0.999513 0.975469
0.997854 0.997588 0.994046
1.00005 1.00315 0.991241
0.999275 1.00485 0.990565
0.999165 1.00488 0.990948
1.00027 1.00318 0.990772
0.999903 1.00434 0.990277
0.999685 1.00426 0.990822
0.999633 1.005 0.990186
1.00017 1.0034 0.990937
0.999959 1.00454 0.990196
1.00008 1.00504 0.989355
0.999902 1.00375 0.990729
1.00013 1.00437 0.989921
1.00053 1.00424 0.989584
1.00066 1.00302 0.990326
1.00028 1.00224 0.991577
1.00046 1.00301 0.990603
1.00027 1.0034 0.990586
1.00018 1.00197 0.99231
1.00017 1.00215 0.992072
0.999995 1.002 0.992472
1.00001 1.00227 0.992211
1.00018 1.00239 0.991768
1.00013 1.00117 0.993076
1.00013 1.00181 0.992489
1.00013 1.00219 0.992124
1.00007 0.99987 0.994479
1.00017 1.00112 0.993065
1.00015 1.0019 0.992298
1.00015 1.00105 0.993167
1.00007 0.99971 0.994632
0.999913 0.997791 0.996815
1.00008 0.999517 0.994791
0.999954 0.997639 0.996898
0.999865 0.996461 0.999319
0.999994 0.997508 0.996959
0.999912 0.996336 0.998875
0.999938 0.996246 0.999338
1.00018 1.00067 0.993473
1.00011 0.999308 0.994944
1.00015 1.00053 0.993602
1.00003 0.99734 0.997068
1.00012 0.999172 0.994988
1.00015 1.00041 0.993872
0.999974 0.996082 0.999371
1.00005 0.997184 0.997167
1.00012 0.999026 0.995044
1 0.99598 0.999395
1.00007 0.997061 0.997249
1.00001 0.995914 0.999411
1.0256 0.990505 0.969213
1.02309 0.992801 0.969854
1.01495 0.995079 0.977292
1.00021 1.00168 0.992357
1.00022 1.00223 0.991914
1.00016 1.00145 0.99281
1.00019 1.00156 0.992515
1.00017 1.00208 0.992141
1.00019 1.00214 0.992012
1.00018 1.00247 0.99172
1.02034 0.991982 0.972661
1.02536 0.984607 0.973485
1.02256 0.988624 0.973218
1.01394 0.986982 0.98118
0.99886 0.998707 0.987099
0.994944 0.99897 0.978812
0.996425 0.999744 0.97986
0.998271 0.996939 0.991014
0.994924 0.999232 0.97279
0.998702 0.998414 0.97851
1.00944 0.99271 0.980739
0.996513 0.997824 0.995179
0.994941 1.0003 0.971449
0.998387 0.998736 0.982532
1.00284 0.995587 0.983728
1.00028 1.00256 0.991445
1.0002 1.00252 0.99161
1.00013 1.00246 0.99178
1.00013 1.00205 0.992228
1.00166 1.00079 0.991505
0.999289 1.00408 0.99234
1.00023 1.00259 0.991443
1.0003 1.003 0.990895
1.00046 1.00275 0.991095
1.00026 1.0028 0.991152
1.00031 1.00315 0.990664
0.998783 1.00305 0.994871
0.999685 1.00101 0.994158
1.00026 1.00338 0.99073
0.997375 1.00247 0.998662
1.00007 1.00379 0.991
1.02271 0.996295 0.967729
1.02417 0.993955 0.967196
1.02293 0.994021 0.968342
0.999008 1.00204 0.99418
0.996416 0.999463 1.00333
1.02515 0.992265 0.966905
0.994844 1.00001 0.972492
0.99624 0.999536 0.979837
1.02297 0.991528 0.969841
1.00101 0.996169 0.985068
0.998407 1.00466 0.99625
1.02324 0.994784 0.967607
1.01218 0.996292 0.978183
0.997802 0.997534 1.00079
0.99569 0.997315 0.986591
0.995845 0.999469 0.982062
0.9952 0.99947 0.97512
0.999874 1.00257 0.995534
1.01489 0.997414 0.975506
0.99922 0.99596 0.986993
0.994339 1.00135 0.981397
0.995214 1.00061 0.973794
0.998472 0.996715 0.989198
0.999381 1.00485 0.990647
0.999145 1.00488 0.990928
0.999925 1.00451 0.990362
0.999634 1.00433 0.990807
0.999474 1.00502 0.990301
1.0002 1.00499 0.989223
1.00009 1.00455 0.990074
1.00015 1.00504 0.989241
1.00062 1.0044 0.988951
1.00016 1.0043 0.989913
1.00054 1.00419 0.989462
1.00077 1.00349 0.989623
1.00097 1.00224 0.990399
1.00062 1.00243 0.991074
1.00066 1.00306 0.990249
1.00021 1.00183 0.992129
1.00029 1.00225 0.991644
1.00044 1.00311 0.990508
1.00012 1.00189 0.992446
1.00016 1.00199 0.992287
1.00013 1.00203 0.992171
1.00006 1.00132 0.993037
1.00001 1.00196 0.992499
1.00003 1.00224 0.992266
1.00004 0.999998 0.994387
1.00014 1.00114 0.993083
1.00014 1.00178 0.992494
0.999891 0.997949 0.996725
1.00006 0.999873 0.994481
1.00017 1.00109 0.993074
1.00006 0.999715 0.994628
0.999915 0.997803 0.996809
0.999819 0.996609 0.999301
0.999957 0.997647 0.996893
0.99986 0.996477 0.999314
0.999899 0.99636 0.999325
1.00021 1.00182 0.992296
1.00021 1.00084 0.993246
1.0001 0.999466 0.994804
1.00018 1.00067 0.993474
0.999996 0.997495 0.996971
1.00011 0.999311 0.994946
1.00015 1.00054 0.993661
0.999943 0.996204 0.999348
1.00002 0.99733 0.997073
1.00012 0.999185 0.995063
0.999978 0.996069 0.999377
1.00005 0.997174 0.997172
1 0.995969 0.9994
1.02336 0.993768 0.968166
1.02527 0.990585 0.968885
1.02338 0.992356 0.969837
1.00021 1.0017 0.992378
1.00022 1.00223 0.991871
1.00021 1.00226 0.991835
1.00022 1.00218 0.991857
1.00021 1.0025 0.991665
1.00019 1.00158 0.992491
1.00018 1.00208 0.99206
1.00019 1.00214 0.992016
1.00019 1.00242 0.991716
1.00019 1.00257 0.991613
1.01043 0.997869 0.978861
1.02041 0.992155 0.972697
1.02605 0.982917 0.972322
1.00941 0.992813 0.980533
0.998913 0.99872 0.981524
0.997925 0.99668 0.989134
0.994969 0.999407 0.974691
0.996279 0.997905 0.990158
0.994901 1.00023 0.974204
0.99788 0.998188 0.981027
1.00218 0.996688 0.984526
0.995336 0.999431 0.991629
0.994919 0.999001 0.975671
0.994897 0.999482 0.981184
0.996729 0.994991 0.987411
1.00008 1.0025 0.991835
1.00023 1.00264 0.991443
1.0002 1.00252 0.991598
0.99866 1.00276 0.995598
0.99964 1.00088 0.994494
1.00026 1.00282 0.991166
1.00034 1.00316 0.990598
1.00021 1.00334 0.990786
0.999842 1.00395 0.990859
0.99731 1.00185 0.998706
0.999462 1.00433 0.99089
0.998619 1.0044 0.994651
1.01499 0.998525 0.9759
1.02268 0.995931 0.967509
1.02373 0.994373 0.967026
0.998333 1.00476 0.996071
0.997786 0.997449 0.992261
1.02352 0.994498 0.967511
0.995222 0.999292 0.969404
0.994774 0.998827 0.981083
1.01205 0.99661 0.978508
0.995323 0.996835 0.987083
0.999835 1.00267 0.99574
1.01498 0.996952 0.97552
0.998889 0.995801 0.986849
0.998744 0.996634 0.992306
0.994147 1.00137 0.979658
0.995115 1.00071 0.971081
1.00112 1.0012 0.992938
1.00088 0.996456 0.986642
0.995045 0.998181 0.979118
0.995257 1.00194 0.971519
0.998953 0.999242 0.989884
0.999138 1.00489 0.990909
0.999812 1.00449 0.990334
1.00085 1.00381 0.989338
0.999331 1.00504 0.990415
1.00009 1.005 0.989251
1.00105 1.00347 0.989019
1.00023 1.00504 0.989128
1.00061 1.00431 0.98898
1.00119 1.00236 0.989956
1.00055 1.00419 0.98934
1.00078 1.00332 0.989679
1.00125 1.00148 0.990603
1.00135 1.00083 0.991013
1.00081 1.00206 0.99082
1.00098 1.00213 0.990435
1.00045 1.002 0.991708
1.00057 1.00249 0.990954
1.00065 1.00309 0.990173
1.00018 1.00164 0.992512
1.00021 1.00181 0.992204
1.0003 1.00226 0.991712
1.00004 1.00147 0.992941
1.0001 1.00188 0.992452
1.00014 1.00201 0.992264
0.999984 1.0002 0.994293
1.00008 1.00132 0.993037
1.00002 1.00193 0.992526
0.999839 0.998081 0.997154
1.00004 1 0.994389
1.00016 1.00112 0.99309
0.999789 0.996773 0.998285
0.99988 0.997963 0.996962
1.00006 0.999875 0.994484
0.999917 0.997814 0.996803
0.999815 0.996627 0.999293
0.999855 0.996493 0.999309
1.00021 1.00194 0.992146
1.0002 1.00107 0.993027
1.00021 1.00184 0.992255
1.00009 0.999639 0.994655
1.0002 1.00085 0.993246
0.999964 0.997644 0.996881
1.0001 0.999464 0.994808
1.00018 1.00067 0.993475
0.999907 0.996341 0.999325
0.999993 0.997486 0.996975
1.00011 0.999314 0.994948
0.999948 0.996189 0.999355
1.00002 0.99732 0.997077
0.999981 0.996057 0.999383
1.01451 0.998917 0.9742
1.02345 0.993656 0.968152
1.02494 0.990633 0.968557
1.00023 1.0021 0.99197
1.0002 1.00172 0.992399
1.00022 1.00223 0.991827
1.00021 1.0022 0.991915
1.00021 1.00226 0.991871
1.00021 1.00245 0.991666
1.00022 1.00247 0.991611
1.00018 1.00256 0.991558
1.00018 1.00214 0.992019
1.00021 1.00238 0.991712
1.00017 1.00258 0.991617
1.00028 1.00284 0.991405
0.998989 0.995159 0.988457
1.01008 0.998064 0.979177
1.02058 0.992306 0.972732
1.00033 0.997458 0.985285
0.998524 0.998393 0.979136
0.995028 1.0003 0.971408
0.995794 0.997987 0.996639
0.995124 0.999412 0.997339
0.995895 0.995515 0.987979
0.994874 0.999893 0.971148
0.995738 0.998426 0.984535
0.996211 0.999509 0.996376
0.994921 0.998509 0.977415
0.994046 0.999303 0.983978
0.999704 1.00245 0.992594
1.00019 1.0024 0.991834
1.00019 1.00273 0.991441
0.997272 1.00121 0.998761
0.999723 1.00403 0.990715
1.00016 1.00333 0.990841
0.99959 1.00437 0.990907
0.998448 1.0044 0.994746
0.999233 1.00221 0.994042
1.00004 0.996035 0.988792
1.01543 0.998641 0.973897
1.02266 0.995576 0.967289
0.999738 1.00279 0.995972
0.998744 0.997005 0.994199
1.01512 0.996581 0.97553
0.995117 0.999415 0.977264
0.994338 1.00147 0.982485
0.998915 0.995849 0.986054
1.00109 1.00117 0.993214
1.00101 0.996364 0.985163
0.994314 0.998792 0.983276
0.998848 0.999215 0.986343
0.995082 1.00223 0.972788
1.00207 1.00118 0.990062
0.995871 0.99637 0.983209
0.995659 1.00239 0.972936
0.999037 1.00022 0.98551
0.999718 1.00449 0.990305
1.00063 1.00368 0.989381
1.0015 1.00198 0.98932
0.99996 1.00501 0.989279
1.00109 1.00331 0.989039
1.00209 0.999826 0.990857
1.00058 1.00425 0.989008
1.00115 1.00218 0.990035
1.00177 0.999418 0.991672
1.00079 1.00312 0.989734
1.00128 1.00131 0.990635
1.0017 0.999351 0.991789
1.00155 0.999589 0.991877
1.00118 1.00107 0.991131
1.00134 1.00074 0.991095
1.00064 1.00172 0.991374
1.00082 1.00202 0.990901
1.00099 1.00201 0.990471
1.00027 1.00165 0.992343
1.00039 1.00201 0.991699
1.00051 1.00255 0.990834
1.00008 1.00144 0.992922
1.0002 1.00164 0.992504
1.00021 1.0018 0.992278
0.999912 1.00052 0.994137
1.00006 1.00145 0.992949
1.00007 1.00188 0.992458
0.999786 0.998244 0.99661
0.99999 1.0002 0.99429
1.00009 1.00132 0.993038
0.999707 0.996907 0.999263
0.99984 0.998099 0.996649
1.00004 1 0.994391
0.999773 0.996777 0.999273
0.999879 0.997974 0.996711
0.99981 0.996645 0.999286
1.00021 1.0019 0.992253
1.0002 1.00196 0.99216
1.00019 1.00128 0.992853
1.00007 0.999861 0.994471
1.0002 1.00108 0.993024
1.00021 1.00187 0.992215
0.999932 0.99779 0.996797
1.00009 0.999628 0.99466
1.0002 1.00086 0.993247
0.999865 0.996479 0.999304
0.999961 0.997635 0.996886
1.0001 0.999458 0.994812
0.999911 0.996324 0.999332
0.99999 0.997475 0.996979
0.999952 0.996171 0.999362
0.999469 0.995595 0.990548
1.0146 0.998945 0.974258
1.02351 0.993559 0.968138
1.00023 1.00211 0.991943
1.00018 1.00205 0.992211
1.00027 1.00217 0.991812
1.0002 1.00221 0.991972
1.00021 1.00227 0.991907
1.00021 1.0024 0.991666
1.00019 1.00256 0.991579
1.00023 1.00246 0.991631
1.00012 1.00287 0.991432
1.00016 1.00273 0.991398
1.00017 1.00259 0.991621
1.0002 1.00283 0.991433
0.994284 0.998106 0.983971
0.99835 0.994969 0.989116
1.00976 0.998235 0.979492
0.995172 0.995915 0.98855
0.994846 0.998568 0.981564
0.994948 0.999872 0.979
0.994904 0.999475 0.991471
0.996132 0.99951 0.990801
0.993922 0.998748 0.981529
0.994932 0.998902 0.977471
0.998053 0.996212 0.991294
0.995045 1.0002 0.974089
0.999886 1.00378 0.991417
0.999857 1.00216 0.992581
1.00029 1.00229 0.991834
0.998094 1.00446 0.994861
0.999694 1.00441 0.990924
0.999935 1.00227 0.993874
1.00199 0.99957 0.992941
0.996219 0.997296 0.980356
1.00045 0.996182 0.987939
1.01585 0.998654 0.971896
1.00126 1.00109 0.993443
0.998822 0.999362 0.990648
1.00094 0.996461 0.985338
0.995066 1.00232 0.971314
0.995008 0.999577 0.979488
1.0021 1.00124 0.990485
0.995671 0.997341 0.980814
0.995832 1.00186 0.971444
0.998746 1.00025 0.989895
1.00237 1.00178 0.988532
0.996281 1.00207 0.967441
0.999697 0.998966 0.99269
1.00039 1.00346 0.989423
1.00134 1.00234 0.989216
1.0029 0.997694 0.990616
1.00113 1.00314 0.989059
1.00204 0.999577 0.990869
1.00258 0.996418 0.993141
1.0011 1.00198 0.990114
1.0018 0.999208 0.991682
1.00225 0.997129 0.992904
1.0013 1.00113 0.990668
1.00171 0.999288 0.991788
1.00187 0.998205 0.99253
1.00167 0.99898 0.992345
1.00154 0.999488 0.991975
1.00139 1.00001 0.991773
1.00105 1.00103 0.991435
1.00118 1.00109 0.991147
1.00134 1.00065 0.991177
1.00049 1.00148 0.99193
1.00065 1.00174 0.991457
1.00083 1.00198 0.990983
1.00014 1.00139 0.992842
1.00028 1.00165 0.992331
1.00034 1.00202 0.991691
0.999871 1.00076 0.993979
1.00009 1.00141 0.992927
1.00021 1.00164 0.992497
0.999699 0.998492 0.996526
0.999927 1.00049 0.994139
1.00007 1.00143 0.992957
0.999668 0.997061 0.999249
0.999782 0.998266 0.996605
0.999995 1.00021 0.994288
0.999719 0.996915 0.998759
0.99984 0.998111 0.99665
0.999764 0.996793 0.999265
1.00016 1.00184 0.992397
1.00021 1.00189 0.992203
1.00018 1.00138 0.992764
1.00019 1.00198 0.992173
1.00018 1.00129 0.992847
1.00006 1.0001 0.994256
0.999894 0.99796 0.996699
1.00008 0.999845 0.994475
1.0002 1.0011 0.993021
0.99982 0.996621 0.999285
0.999928 0.997782 0.996802
1.0001 0.99962 0.994664
0.99987 0.996466 0.99931
0.999958 0.997627 0.99689
0.999916 0.996309 0.999338
0.994996 0.998218 0.980458
0.9995 0.995671 0.989727
1.01468 0.998975 0.974315
1.00023 1.00212 0.991916
1.00025 1.0022 0.991809
1.00015 1.00203 0.99224
1.0001 1.00209 0.992306
1.00016 1.00228 0.991963
1.00019 1.00255 0.9916
1.00023 1.00244 0.991651
1.0001 1.00283 0.991463
1.00001 1.00239 0.991853
1.00004 1.00292 0.991347
1.00041 1.00341 0.990776
1.00012 1.00298 0.991352
1.00013 1.00283 0.99146
0.996047 1.00087 0.969727
0.994374 0.999059 0.982435
0.997978 0.995123 0.988791
0.993836 0.998385 0.984819
0.994902 0.998939 0.971673
0.996134 0.999482 0.996813
0.998209 0.996507 0.994034
0.995156 0.999329 0.976314
1.00086 0.996029 0.991175
1.0019 1.00274 0.988365
0.999694 1.00364 0.991376
1 1.00185 0.992568
1.00045 1.0023 0.993684
1.00206 0.998955 0.992294
0.996706 1.00089 0.96986
0.995951 0.997642 0.979015
1.00085 0.996489 0.987084
1.00216 1.00128 0.990929
0.998424 1.00057 0.98572
0.995862 0.997534 0.979556
0.995602 1.00206 0.973514
1.00264 1.00171 0.988536
0.997083 1.00122 0.971701
0.999464 0.999343 0.98747
1.00374 0.999482 0.987867
1.00043 0.998833 0.993915
1.00119 1.00275 0.989108
1.00286 0.998014 0.990518
1.00362 0.995213 0.992075
1.00196 0.999346 0.990881
1.00247 0.996422 0.99312
1.00278 0.995293 0.993562
1.00183 0.998979 0.991692
1.00224 0.997152 0.992841
1.0023 0.996945 0.992962
1.00172 0.999227 0.991788
1.00187 0.998273 0.992486
1.00189 0.998276 0.992484
1.00162 0.998862 0.992451
1.00158 0.999413 0.992081
1.00154 0.999395 0.992072
1.00139 1.00002 0.991755
1.0013 1.00029 0.991674
1.00083 1.00101 0.991742
1.00104 1.00106 0.991417
1.00117 1.00111 0.991164
1.00031 1.00129 0.992615
1.00048 1.00151 0.991982
1.00066 1.00176 0.99154
0.999851 1.00094 0.993824
1.00016 1.00138 0.992837
1.00029 1.00165 0.99232
0.999618 0.998772 0.996395
0.999891 1.00072 0.993985
1.00011 1.00139 0.992933
0.999591 0.997242 0.999235
0.999698 0.998519 0.99652
0.99994 1.00046 0.994142
0.999654 0.997068 0.999246
0.999778 0.998291 0.996601
0.999709 0.996924 0.999253
1.0001 1.00196 0.992385
1.00015 1.00185 0.992401
1.00013 1.00147 0.992712
1.00021 1.00189 0.992153
1.00018 1.0014 0.992724
1.00004 1.00032 0.994065
1.00018 1.00131 0.992841
1.00006 1.0001 0.994256
0.999852 0.998158 0.99658
0.999772 0.996777 0.999262
0.999893 0.997945 0.996706
1.00008 0.999829 0.994479
0.999826 0.996611 0.999291
0.999925 0.997774 0.996807
0.999875 0.996453 0.999316
0.996411 1.00151 0.973164
0.995276 0.997866 0.982254
0.999281 0.995504 0.990497
1.00022 1.00226 0.991806
1.00013 1.00201 0.992268
1.00017 1.00228 0.991976
1.0001 1.00208 0.992301
1.00005 1.00224 0.992239
1.00002 1.00224 0.992151
1.00008 1.00277 0.991493
1.00004 1.00251 0.991807
0.999977 1.0031 0.991345
1.00009 1.00227 0.991772
1.00077 1.00287 0.99106
1.00132 1.00307 0.989052
1.00032 1.00318 0.9908
1.00007 1.00324 0.991306
1.0001 0.998052 0.991936
0.995428 1.00144 0.973159
0.994764 0.998371 0.979939
0.995059 1.00015 0.974227
0.998538 0.996657 0.996814
1.00085 0.996122 0.99444
1.00402 0.997512 0.990088
1.00177 1.00213 0.988908
0.999566 1.00359 0.991332
1.00299 0.998333 0.991657
0.998982 1.00098 0.986759
0.997028 1.00135 0.972316
0.995976 0.996856 0.982707
1.00293 1.00173 0.988546
0.999248 0.999569 0.991356
0.996683 1.00007 0.976185
1.00408 0.998993 0.987969
1.00044 0.999182 0.991325
1.00438 0.996384 0.989393
1.00341 0.998813 0.990526
1.00278 0.998386 0.990424
1.00349 0.995265 0.992108
1.00312 0.996086 0.992292
1.00235 0.996438 0.993097
1.00273 0.995577 0.993505
1.00272 0.996629 0.992442
1.00222 0.997187 0.992778
1.00225 0.997104 0.992904
1.00228 0.997929 0.992097
1.00188 0.998349 0.992441
1.00183 0.998349 0.992506
1.00175 0.999104 0.991932
1.00158 0.998753 0.992557
1.00156 0.999317 0.992141
1.0015 0.999875 0.991767
1.0014 1.00002 0.991736
1.0013 1.00031 0.991657
1.00115 1.00049 0.991815
1.00055 1.00097 0.992302
1.00082 1.00105 0.991789
1.00103 1.00109 0.991399
0.999902 1.00105 0.993612
1.00031 1.0013 0.992612
1.00047 1.00154 0.992033
0.999539 0.999082 0.996225
0.99988 1.0009 0.993826
1.00017 1.00137 0.992832
0.999515 0.997468 0.999206
0.999618 0.998803 0.996389
0.99991 1.00068 0.99399
0.999579 0.997262 0.999227
0.999698 0.998544 0.996514
0.999641 0.997077 0.999242
1.00008 1.00205 0.992336
1.00011 1.00195 0.992415
1.00006 1.00164 0.992713
1.00014 1.00185 0.992406
1.00012 1.0015 0.992714
0.999995 1.00055 0.99393
1.00017 1.00142 0.992684
1.00004 1.00033 0.994063
0.999798 0.998376 0.996465
1.00006 1.00009 0.994256
0.999854 0.998136 0.996588
0.99972 0.996947 0.999234
0.999779 0.996765 0.999269
0.999893 0.997929 0.996713
0.999831 0.9966 0.999297
0.99933 0.999609 0.990209
0.996149 1.00116 0.971314
0.995734 0.998304 0.978997
1.00026 1.00207 0.992015
1.00017 1.00228 0.99199
1.00009 1.00207 0.992296
1.00005 1.00229 0.992145
1.00004 1.00226 0.99222
0.999985 1.00194 0.992457
1.00007 1.00269 0.991762
0.999987 1.0033 0.991342
1.00019 1.00229 0.991852
1.0005 1.00279 0.991246
1.00134 1.00192 0.990051
1.00288 1.00089 0.987848
1.00136 1.0027 0.989022
1.00029 1.00285 0.990824
1.00439 0.996308 0.989898
0.999951 0.998319 0.989887
0.995362 1.00124 0.97687
1.00075 0.996104 0.98922
1.00406 0.997586 0.989403
1.00111 1.00163 0.98946
1.00277 0.999699 0.991949
0.999025 1.00056 0.991199
0.996712 1.00087 0.970225
1.00434 0.998544 0.988061
1.00044 0.998811 0.988829
1.00453 0.99618 0.9892
1.00339 0.998536 0.991026
1.0036 0.996933 0.989681
1.00266 0.998736 0.989523
1.00342 0.995295 0.99214
1.00307 0.996061 0.99236
1.0028 0.997823 0.991277
1.00269 0.995817 0.993448
1.00271 0.996752 0.992415
1.00257 0.998173 0.991304
1.00221 0.997268 0.992847
1.00218 0.998005 0.992193
1.00209 0.999029 0.99131
1.00177 0.998419 0.992529
1.00174 0.999116 0.991935
1.00166 0.999687 0.991534
1.00153 0.99922 0.992202
1.00149 0.9998 0.991794
1.00133 1.00017 0.991716
1.0013 1.00032 0.991639
1.00113 1.0005 0.991776
1.00085 1.00065 0.992193
1.00007 1.00095 0.99338
1.00054 1.001 0.992354
1.0008 1.00109 0.991837
0.999482 0.999443 0.995971
0.999923 1.00102 0.993615
1.00031 1.0013 0.992609
0.999434 0.997721 0.999167
0.999549 0.999106 0.996219
0.999908 1.00085 0.993828
0.9995 0.997492 0.999195
0.999618 0.998833 0.996384
0.999565 0.99728 0.999218
1.00017 1.00198 0.992147
1.00008 1.00203 0.992342
1.00007 1.00173 0.992692
1.00012 1.00195 0.992444
1.00006 1.00166 0.992737
0.999914 1.00084 0.993811
1.00011 1.00153 0.992717
0.999985 1.00058 0.993926
0.999719 0.998636 0.996364
1.00004 1.00034 0.99406
0.999804 0.998349 0.996471
0.999656 0.997128 0.999209
0.999857 0.998114 0.996596
0.999728 0.996934 0.999243
0.999785 0.996755 0.999276
1.00344 0.996579 0.991601
0.999324 1.00007 0.986229
0.996469 1.00124 0.972756
1.00029 1.00167 0.99219
1.00077 1.00163 0.991444
1.00014 1.00209 0.992066
1.00008 1.0023 0.992139
1.00003 1.00229 0.992201
1.0001 1.00193 0.992394
1.00122 1.00138 0.990743
1.00024 1.00233 0.991931
1.00008 1.0027 0.991431
1.00127 1.00187 0.990143
1.00259 1.00041 0.988684
1.00358 0.998031 0.989124
1.00296 1.0007 0.987895
1.00149 1.00229 0.988992
1.00421 0.996356 0.990072
0.999812 0.998978 0.987103
1.00412 0.99794 0.9887
1.00231 0.998408 0.991511
1.00272 0.999062 0.992137
0.999111 1.00063 0.985973
1.00479 0.995977 0.989008
1.00342 0.998279 0.991503
1.00368 0.996996 0.989802
1.00276 0.998819 0.989815
1.00271 0.998869 0.990257
1.00234 0.998739 0.991095
1.00303 0.995911 0.992428
1.00278 0.997705 0.99132
1.00268 0.998881 0.990353
1.00268 0.996888 0.992387
1.00252 0.998199 0.991338
1.00241 0.999009 0.990641
1.00209 0.998076 0.992289
1.00209 0.99904 0.991307
1.00197 0.999605 0.990985
1.00173 0.999128 0.991938
1.00166 0.999685 0.991532
1.00151 1.00006 0.991472
1.00147 0.999725 0.991821
1.00132 1.00015 0.991721
1.00103 1.00042 0.992051
1.00111 1.0005 0.991738
1.00083 1.00064 0.992174
1.00029 1.00072 0.99318
0.999492 0.999741 0.995686
1.00007 1.00094 0.993385
1.00053 1.00103 0.992405
0.999345 0.99802 0.999112
0.999506 0.999445 0.995964
0.999944 1.00099 0.993618
0.999417 0.997752 0.999153
0.999558 0.999128 0.996213
0.999486 0.997517 0.999185
1.00039 1.00184 0.991705
1.00017 1.00195 0.992098
1.00018 1.00164 0.99256
1.00009 1.002 0.992348
1.00005 1.00173 0.992692
0.999856 1.00109 0.993685
1.00005 1.00167 0.992761
0.999897 1.00087 0.993807
0.99962 0.998952 0.996251
0.999974 1.0006 0.993921
0.999725 0.998606 0.996369
0.999574 0.997337 0.999185
0.999809 0.998322 0.996477
0.999669 0.997114 0.999216
0.999737 0.996921 0.999251
1.00302 0.997142 0.991133
1.00341 0.996878 0.991865
0.999452 1.00022 0.990563
1.0013 1.00109 0.991164
1.00017 1.00165 0.992468
1.00125 1.00106 0.990645
1.00078 1.00164 0.991402
1.00001 1.00214 0.992117
1.00241 1.00035 0.989419
1.00022 1.0019 0.992332
1.00129 1.00127 0.990719
1.00324 0.998727 0.989285
1.00123 1.00184 0.990236
1.00269 1.00048 0.98861
1.00355 0.998189 0.989083
1.00294 1.00063 0.987941
1.0041 0.99639 0.990243
1.00221 0.998557 0.991754
1.00226 0.99818 0.991467
1.00265 0.998443 0.992333
1.00372 0.997024 0.989924
1.00287 0.998953 0.990105
1.00282 0.998789 0.990217
1.00233 0.998806 0.991159
1.0023 0.999168 0.990778
1.00276 0.99766 0.991363
1.0027 0.99879 0.990395
1.00257 0.99922 0.990208
1.00247 0.998235 0.991373
1.00242 0.999062 0.990621
1.0023 0.999523 0.990429
1.00209 0.99905 0.991304
1.00198 0.999604 0.990974
1.00178 0.999944 0.99103
1.00166 0.999683 0.991531
1.00151 1.00005 0.991469
1.00122 1.00029 0.991787
1.0013 1.00013 0.991726
1.00103 1.00041 0.992054
1.00049 1.00052 0.992981
1.0008 1.00063 0.992156
1.00028 1.00073 0.993185
0.999515 0.999916 0.99608
0.999284 0.998499 0.997666
0.999518 0.999698 0.995998
1.00008 1.00093 0.993391
0.999329 0.998069 0.999089
0.999529 0.999448 0.995956
0.999402 0.997783 0.999138
1.00161 1.00036 0.990844
1.0007 1.0016 0.991315
1.00045 1.00182 0.991647
1.00035 1.00148 0.992365
1.00018 1.00192 0.992049
1.00016 1.00163 0.992568
0.99985 1.00122 0.993578
1.00004 1.00173 0.992692
0.999835 1.00112 0.993682
0.999529 0.99929 0.996103
0.999879 1.00091 0.993804
0.999622 0.99892 0.996255
0.999475 0.997592 0.999155
0.99973 0.998576 0.996373
0.999593 0.997318 0.999192
0.999683 0.997101 0.999224
1.00279 0.998182 0.990806
1.00299 0.997295 0.991135
1.0034 0.997168 0.992127
1.00222 1.00017 0.989924
1.00109 1.00111 0.9914
1.00002 1.0016 0.992745
1.00138 1.00101 0.990752
1.0008 1.00165 0.991359
1.00306 0.999244 0.989166
1.00243 1.00041 0.989292
1.00133 1.00119 0.990695
1.00327 0.998757 0.989247
1.00284 1.00049 0.988535
1.00347 0.998338 0.989041
1.00201 0.999067 0.991333
1.00217 0.998531 0.991708
1.00218 0.997892 0.991423
1.00295 0.998706 0.99018
1.00231 0.998851 0.991223
1.00233 0.999144 0.9908
1.00221 0.999494 0.990638
1.00272 0.998697 0.990437
1.0026 0.999177 0.990194
1.0024 0.999419 0.990304
1.00242 0.999113 0.9906
1.0023 0.999524 0.990418
1.00207 0.999808 0.990597
1.00199 0.999604 0.990964
1.00179 0.999943 0.991021
1.00146 1.00018 0.991416
1.00151 1.00005 0.991467
1.00122 1.00029 0.991785
1.00068 1.00041 0.992715
1.00102 1.00041 0.992058
1.00048 1.00053 0.992982
0.999553 1.00006 0.995876
1.00027 1.00073 0.99319
0.999552 0.999898 0.996041
0.999167 0.998979 0.997454
0.999257 0.998468 0.998337
0.999547 0.999663 0.996304
0.999314 0.998117 0.999064
1.00224 0.9999 0.990151
1.00121 1.00094 0.991264
1.00149 1.00024 0.991207
1.00053 1.00145 0.992019
1.0008 1.00158 0.991308
1.00053 1.0018 0.991589
1.00032 1.00153 0.992371
0.999914 1.00124 0.993428
1.00015 1.00162 0.992577
0.999834 1.00123 0.993573
0.999461 0.999621 0.995912
0.999815 1.00115 0.993679
0.999522 0.999266 0.996106
0.999361 0.997894 0.999113
0.999624 0.998887 0.996259
0.999498 0.997561 0.999165
0.999611 0.997299 0.999199
1.00266 0.998903 0.990292
1.00278 0.998239 0.990788
1.00298 0.99748 0.991136
1.00279 0.999344 0.989461
1.00221 1.00021 0.989933
1.00092 1.00113 0.991636
1.00151 1.00094 0.990859
1.00308 0.999255 0.98917
1.00247 1.00044 0.989166
1.0033 0.998781 0.989209
1.00211 0.999432 0.990872
1.00209 0.999114 0.991191
1.00214 0.998523 0.991662
1.00214 0.999814 0.990494
1.00236 0.999116 0.990821
1.00222 0.99951 0.990608
1.00225 0.999569 0.990513
1.00262 0.999137 0.990181
1.00241 0.999412 0.990308
1.00217 0.999745 0.990438
1.0023 0.999526 0.990406
1.00207 0.999814 0.990594
1.00171 1.00004 0.991082
1.0018 0.999942 0.991012
1.00147 1.00018 0.991412
1.00088 1.00034 0.992395
1.00123 1.00029 0.991784
1.00068 1.00042 0.992709
0.9996 1.00014 0.99572
1.00047 1.00054 0.992983
0.999593 1.00004 0.995843
0.999054 0.999367 0.997319
0.99959 0.999882 0.996002
0.999149 0.99897 0.997487
0.999222 0.998427 0.99902
1.00258 0.999768 0.989708
1.00191 1.00017 0.990603
1.00216 0.999982 0.990277
1.00093 1.00108 0.99177
1.00119 1.00089 0.991258
1.00138 1.00015 0.991569
1.00007 1.00126 0.993098
1.00054 1.00144 0.992016
1.00088 1.00158 0.991301
1.00028 1.00157 0.992378
0.999893 1.00127 0.993425
0.999438 0.999934 0.995648
0.999819 1.00125 0.993569
0.999442 0.999619 0.995914
0.999234 0.99826 0.999058
0.999516 0.999241 0.99611
0.999388 0.99785 0.999127
0.999521 0.997531 0.999174
1.00262 0.999149 0.990154
1.00275 0.998889 0.990182
1.00275 0.998291 0.99077
1.00288 0.999294 0.989437
1.0022 1.00028 0.989942
1.00311 0.999269 0.989175
1.00217 0.999729 0.990464
1.00208 0.999478 0.990875
1.00217 0.99916 0.991049
1.00212 0.999819 0.990495
1.00211 1.00001 0.990361
1.00222 0.999527 0.990577
1.00223 0.999581 0.990515
1.00214 0.999781 0.990542
1.00242 0.999404 0.990312
1.00218 0.999728 0.990448
1.00182 0.99998 0.990901
1.00206 0.999817 0.99059
1.0017 1.00004 0.991076
1.00106 1.00022 0.992149
1.00147 1.00018 0.991407
1.00088 1.00033 0.992385
0.99967 1.00015 0.995601
1.00067 1.00042 0.992702
0.999641 1.00012 0.995689
0.998963 0.999668 0.997224
0.999634 1.00001 0.995809
0.999036 0.999372 0.997348
0.999131 0.998957 0.99752
1.00258 0.999224 0.990153
1.00227 0.999905 0.990097
1.00261 0.999712 0.989664
1.00143 1.00049 0.991261
1.00187 1.00022 0.990662
1.00206 1.00005 0.990405
1.00038 1.001 0.992693
1.00091 1.00104 0.991659
1.00118 1.00082 0.991251
0.999473 1.00024 0.995279
1.00007 1.00125 0.993099
1.00054 1.00143 0.992014
0.999869 1.00129 0.993422
0.999396 0.999977 0.995654
0.999101 0.998693 0.998983
0.999423 0.999618 0.995917
0.999259 0.998197 0.999076
0.999415 0.997807 0.99914
1.00244 0.9995 0.990187
1.00265 0.999142 0.99012
1.00282 0.998874 0.990072
1.00296 0.999237 0.989412
1.00222 0.999919 0.990181
1.00218 0.999718 0.990491
1.00206 0.99952 0.990878
1.00211 0.999822 0.990496
1.00211 0.999989 0.990358
1.00202 1.00003 0.990498
1.00222 0.999592 0.990518
1.00212 0.999791 0.990565
1.00184 0.999968 0.990843
1.00219 0.999712 0.990458
1.00182 0.999973 0.990904
1.00116 1.00013 0.992029
1.0017 1.00005 0.991071
1.00106 1.00022 0.992141
0.999747 1.00014 0.994725
1.00089 1.00033 0.992375
0.999703 1.00017 0.995174
0.998901 0.999767 0.998789
0.999682 1.00011 0.995657
0.998943 0.999692 0.99725
0.999017 0.999375 0.997378
1.00243 0.999447 0.990285
1.00231 0.999577 0.990285
1.00255 0.999266 0.990169
1.00176 1.00009 0.990724
1.00225 0.999896 0.990168
1.00263 0.99966 0.989621
1.00075 1.00058 0.992155
1.00143 1.00049 0.991255
1.00184 1.00027 0.99072
0.999588 1.00037 0.994888
1.00039 1.00098 0.992596
1.00089 1.001 0.991549
0.999003 0.999171 0.998882
0.999418 1.00029 0.995292
1.00006 1.00124 0.993099
0.99935 1.00003 0.99566
0.999125 0.998619 0.999008
0.999291 0.998135 0.999094
1.00231 0.999688 0.99025
1.00242 0.999497 0.990223
1.00268 0.99914 0.990086
1.00221 1.00002 0.990138
1.00224 0.999933 0.990154
1.00218 0.999712 0.990518
1.0021 0.999972 0.990355
1.00203 1.00001 0.990502
1.00182 1.00005 0.990915
1.00209 0.999801 0.990587
1.00183 0.999983 0.990935
1.00121 1.00009 0.991805
1.00182 0.999964 0.990907
1.00116 1.00012 0.992028
0.999785 1.00011 0.994677
1.00106 1.00022 0.992133
0.999755 1.00013 0.99472
0.998885 0.999853 0.998781
0.999731 1.00018 0.994757
0.998897 0.999846 0.997996
0.998922 0.999716 0.997276
1.00231 0.999677 0.990369
1.00223 0.999596 0.990475
1.00242 0.99941 0.990294
1.00189 0.999897 0.990805
1.00229 0.999595 0.990315
1.00253 0.999308 0.990185
1.00108 1.00025 0.991849
1.0018 1.00012 0.990845
1.00223 0.999886 0.990238
0.999716 1.00034 0.994627
1.0008 1.00055 0.992113
1.00144 1.00048 0.991249
0.998951 0.999579 0.998787
0.999533 1.00043 0.994902
1.0004 1.00095 0.992498
0.999009 0.99908 0.998915
0.999361 1.00035 0.995305
0.999147 0.998536 0.999031
1.00222 0.999879 0.990276
1.00231 0.999694 0.990245
1.0024 0.999489 0.990258
1.00199 1.00004 0.990589
1.00219 1.00004 0.990161
1.00225 0.999946 0.990127
1.00204 0.999995 0.990505
1.00182 1.00004 0.99092
1.00128 1.00008 0.991677
1.00182 1 0.991027
1.00121 1.00009 0.991887
0.999828 1.00011 0.994591
1.00116 1.00012 0.992027
0.99979 1.0001 0.994676
0.998877 0.999932 0.998771
0.999763 1.00012 0.994716
0.998887 0.999875 0.998777
0.998906 0.999939 0.99718
1.00217 0.999792 0.990515
1.00229 0.999634 0.990366
1.00191 0.999862 0.990833
1.00224 0.999595 0.990473
1.0024 0.999375 0.990304
1.00124 1.00009 0.991901
1.00191 0.999898 0.990795
1.00228 0.99961 0.990346
0.999808 1.00022 0.994534
1.0011 1.00025 0.991912
1.00183 1.00015 0.990966
0.998929 0.999845 0.998735
0.999679 1.00039 0.994636
1.00085 1.00053 0.992071
0.998947 0.999497 0.998816
0.999478 1.0005 0.994915
0.999019 0.998988 0.998947
1.00196 0.999989 0.990714
1.0022 0.999891 0.990297
1.00232 0.999704 0.99024
1.00137 1.00006 0.991493
1.00198 1.00006 0.990589
1.00217 1.00007 0.990184
1.00183 1.00003 0.990925
1.00127 1.00008 0.991701
0.99989 1.00007 0.994497
1.00121 1.00009 0.991969
0.999829 1.00011 0.994589
0.99889 0.999982 0.998751
0.999796 1.00009 0.994675
0.998886 0.999944 0.998765
0.998893 0.999898 0.998773
1.0019 0.999959 0.990788
1.00217 0.999755 0.990492
1.00228 0.999585 0.990363
1.00127 1.00003 0.991883
1.00191 0.999865 0.990829
1.00224 0.999594 0.990472
0.999845 1.00011 0.994553
1.00124 1.00009 0.991902
1.00193 0.9999 0.990786
0.998918 0.999972 0.998724
0.999786 1.00025 0.99454
1.00113 1.00027 0.991975
0.998921 0.999787 0.998749
0.999645 1.00043 0.994645
0.99894 0.999414 0.998846
1.00136 1.00006 0.991685
1.00196 1.00001 0.990618
1.00218 0.9999 0.990318
0.999934 0.999998 0.994464
1.00137 1.00006 0.991507
1.00198 1.00008 0.990589
1.00126 1.00007 0.991725
0.99989 1.00008 0.994493
0.998935 1 0.998719
0.999832 1.00011 0.994586
0.998907 0.999991 0.998738
0.998894 0.999955 0.998757
1.00131 1.00005 0.991805
1.00191 0.999946 0.990753
1.00217 0.99972 0.990468
0.999876 1.00004 0.995392
1.00128 1.00004 0.991882
1.00192 0.99987 0.990826
0.998911 1.00001 0.998734
0.999842 1.00012 0.994554
1.00124 1.0001 0.991903
0.998912 0.99994 0.998726
0.999766 1.00028 0.994547
0.998914 0.999731 0.998764
0.999936 1.00001 0.994475
1.00137 1.00005 0.991612
1.00197 1.00001 0.990522
0.998978 0.999995 0.998705
0.999938 1.00001 0.994459
1.00137 1.00006 0.991521
0.99989 1.00009 0.994488
0.998952 1.00001 0.998711
0.998923 1 0.998725
0.999921 1.00002 0.995352
1.00131 1.00005 0.991808
1.00191 0.999934 0.990718
0.998861 1.00003 0.998784
0.99986 1.00005 0.994585
1.00128 1.00004 0.991882
0.998907 0.999994 0.998731
0.999838 1.00013 0.994557
0.998902 0.99991 0.998729
0.998977 0.99999 0.997018
0.999943 0.999993 0.994899
1.00137 1.00005 0.99154
0.998979 0.999999 0.998703
0.999936 1.00002 0.994458
0.998964 1.00002 0.998705
0.998896 1.00002 0.997108
0.999903 1.00001 0.994959
1.00131 1.00005 0.991812
0.998888 1.00002 0.997932
0.999868 1.00004 0.994582
0.998901 0.999981 0.998728
0.998981 0.999997 0.998708
0.999935 0.999979 0.994492
0.998986 1 0.998703
0.998927 1 0.997912
0.999897 1.00001 0.994553
0.998905 0.999999 0.998739
0.998967 0.999992 0.998717
0.998929 0.999999 0.998735

TENSORS stress float
0.00117363 3.04323e-05 2.54928e-05
3.04323e-05 0.000202287 -5.63631e-06
2.54928e-05 -5.63631e-06 0.00018984
0.00273932 -4.90583e-05 2.33903e-05
-4.90583e-05 0.000969078 3.34665e-06
2.33903e-05 3.34665e-06 0.000974127
0.00117083 3.37646e-05 9.83924e-06
3.37646e-05 0.00020257 -2.04084e-06
9.83924e-06 -2.04084e-06 0.000189985
0.00126422 2.34891e-05 3.35974e-05
2.34891e-05 0.000273124 -4.09328e-06
3.35974e-05 -4.09328e-06 0.000253022
0.00120049 2.92756e-05 2.76852e-05
2.92756e-05 0.000228296 -5.21511e-06
2.76852e-05 -5.21511e-06 0.000212289
0.0011465 3.08903e-05 2.32998e-05
3.08903e-05 0.000175921 -5.92109e-06
2.32998e-05 -5.92109e-06 0.000167891
0.00113893 1.42813e-05 6.5693e-06
1.42813e-05 0.000158459 -2.40453e-06
6.5693e-06 -2.40453e-06 0.000127119
0.00276375 -4.96477e-05 2.91587e-07
-4.96477e-05 0.000979106 -1.1566e-07
2.91587e-07 -1.1566e-07 0.000984583
0.00308641 -6.54207e-05 1.04826e-05
-6.54207e-05 0.00118363 1.13834e-06
1.04826e-05 1.13834e-06 0.00117834
0.00279662 -5.70199e-05 9.79044e-06
-5.70199e-05 0.00101021 1.28535e-06
9.79044e-06 1.28535e-06 0.00101217
0.00110268 -2.94489e-05 1.89072e-05
-2.94489e-05 0.000132831 3.68936e-06
1.89072e-05 3.68936e-06 0.000133032
0.000807386 -2.4215e-05 5.13163e-06
-2.4215e-05 -1.33652e-05 3.08025e-06
5.13163e-06 3.08025e-06 -3.90913e-05
0.00152982 -1.28975e-05 4.13992e-05
-1.28975e-05 0.000402466 9.87193e-07
4.13992e-05 9.87193e-07 0.000382362
0.00132394 -4.19739e-05 6.48482e-06
-4.19739e-05 0.00031369 1.29407e-06
6.48482e-06 1.29407e-06 0.000291466
0.00116146 3.7477e-05 -6.51537e-06
3.7477e-05 0.000199655 1.57669e-06
-6.51537e-06 1.57669e-06 0.0001869
0.00129577 3.14926e-05 1.36909e-05
3.14926e-05 0.000292035 -1.31133e-06
1.36909e-05 -1.31133e-06 0.000271017
0.00113073 3.3539e-05 8.91924e-06
3.3539e-05 0.000169214 -2.15465e-06
8.91924e-06 -2.15465e-06 0.000161257
0.0012092 3.35162e-05 1.08049e-05
3.35162e-05 0.000234701 -1.80384e-06
1.08049e-05 -1.80384e-06 0.000218341
0.001176 1.42769e-05 -3.56177e-06
1.42769e-05 0.000176132 4.52791e-07
-3.56177e-06 4.52791e-07 0.000144983
0.00379784 6.72445e-05 3.97228e-05
6.72445e-05 0.00154801 -6.19751e-07
3.97228e-05 -6.19751e-07 0.00153876
0.00131333 2.05569e-05 3.63837e-05
2.05569e-05 0.000298363 -3.28326e-06
3.63837e-05 -3.28326e-06 0.000278127
0.00122309 2.70598e-05 3.02559e-05
2.70598e-05 0.000248992 -4.74233e-06
3.02559e-05 -4.74233e-06 0.000230336
0.00127398 7.94429e-06 7.7295e-06
7.94429e-06 0.000212216 -2.30217e-06
7.7295e-06 -2.30217e-06 0.000174236
0.00118215 1.10074e-05 6.88349e-06
1.10074e-05 0.000177871 -2.30743e-06
6.88349e-06 -2.30743e-06 0.000143925
0.00113574 3.05052e-05 2.16832e-05
3.05052e-05 0.000157854 -5.99918e-06
2.16832e-05 -5.99918e-06 0.000154461
0.00109138 2.09897e-05 5.84911e-06
2.09897e-05 0.000136836 -2.60129e-06
5.84911e-06 -2.60129e-06 0.000108867
0.00142253 -2.36844e-05 2.25446e-06
-2.36844e-05 0.000244094 -1.17071e-06
2.25446e-06 -1.17071e-06 0.0001891
0.00279184 -5.03187e-05 -2.25305e-05
-5.03187e-05 0.000990803 -3.33067e-06
-2.25305e-05 -3.33067e-06 0.000996715
0.00214444 -4.75624e-05 -1.02954e-05
-4.75624e-05 0.000708473 -6.69874e-07
-1.02954e-05 -6.69874e-07 0.000697709
0.0019879 -4.40548e-05 -8.79423e-06
-4.40548e-05 0.000602191 -9.07013e-07
-8.79423e-06 -9.07013e-07 0.000599282
0.00266421 -4.63136e-05 2.0023e-07
-4.63136e-05 0.000919143 -7.97964e-08
2.0023e-07 -7.97964e-08 0.000927283
0.000750914 -2.36638e-05 2.25804e-07
-2.36638e-05 -4.02066e-05 -3.94271e-08
2.25804e-07 -3.94271e-08 -6.58527e-05
0.00137376 -2.76152e-05 2.86318e-05
-2.76152e-05 0.000328694 2.58305e-06
2.86318e-05 2.58305e-06 0.000309464
0.00121378 -3.13382e-05 2.29343e-05
-3.13382e-05 0.000228113 3.11155e-06
2.29343e-05 3.11155e-06 0.000215954
0.00178354 -3.6935e-06 1.46973e-05
-3.6935e-06 0.000476419 2.429e-06
1.46973e-05 2.429e-06 0.000445798
0.00257233 -4.6484e-05 8.55265e-06
-4.6484e-05 0.000863573 1.49917e-06
8.55265e-06 1.49917e-06 0.000873949
0.00165574 -2.1825e-05 1.26399e-05
-2.1825e-05 0.000415622 2.52022e-06
1.26399e-05 2.52022e-06 0.000391786
0.000808053 -2.84063e-05 5.94133e-06
-2.84063e-05 -1.78706e-05 4.70271e-06
5.94133e-06 4.70271e-06 -4.02553e-05
0.000915376 1.29232e-05 2.69445e-06
1.29232e-05 1.66808e-05 1.41466e-06
2.69445e-06 1.41466e-06 -3.77974e-05
0.00256586 -3.60063e-05 2.00907e-05
-3.60063e-05 0.000842572 3.98469e-06
2.00907e-05 3.98469e-06 0.000856515
0.00391611 -6.76827e-05 9.36575e-07
-6.76827e-05 0.00160425 -1.58903e-07
9.36575e-07 -1.58903e-07 0.00159476
0.00245255 -5.33693e-05 -1.38629e-05
-5.33693e-05 0.000878338 -1.20421e-07
-1.38629e-05 -1.20421e-07 0.000862732
0.00405507 -5.31784e-05 4.38117e-05
-5.31784e-05 0.00166819 1.60759e-07
4.38117e-05 1.60759e-07 0.00165931
0.00135789 -4.44591e-05 6.17558e-06
-4.44591e-05 0.000328629 1.14668e-06
6.17558e-06 1.14668e-06 0.000306081
0.000765013 -1.41185e-05 9.92801e-06
-1.41185e-05 -6.52362e-05 2.19527e-06
9.92801e-06 2.19527e-06 -0.000106058
0.00343641 -7.74214e-05 1.05027e-05
-7.74214e-05 0.00137388 8.82228e-07
1.05027e-05 8.82228e-07 0.00136399
0.00192192 -2.37802e-05 2.0508e-05
-2.37802e-05 0.00053027 2.65727e-06
2.0508e-05 2.65727e-06 0.00049687
0.00133215 4.08249e-05 -7.04127e-06
4.08249e-05 0.00031363 1.51665e-06
-7.04127e-06 1.51665e-06 0.000291537
0.00121427 3.83891e-05 -6.79781e-06
3.83891e-05 0.000239365 1.55032e-06
-6.79781e-06 1.55032e-06 0.000222592
0.0011044 3.63629e-05 -6.05301e-06
3.63629e-05 0.000157323 1.57661e-06
-6.05301e-06 1.57661e-06 0.000149439
0.00122015 1.38536e-05 -1.40102e-05
1.38536e-05 0.000197303 3.32798e-06
-1.40102e-05 3.32798e-06 0.000166351
0.00262122 5.73885e-05 -1.44703e-05
5.73885e-05 0.000957004 -7.32203e-07
-1.44703e-05 -7.32203e-07 0.000941118
0.00132971 3.10803e-05 1.49544e-05
3.10803e-05 0.000309891 -9.80635e-07
1.49544e-05 -9.80635e-07 0.000288488
0.00110563 3.2736e-05 8.20185e-06
3.2736e-05 0.000143596 -2.1526e-06
8.20185e-06 -2.1526e-06 0.000140342
0.00124904 3.26556e-05 1.21075e-05
3.26556e-05 0.000264435 -1.55734e-06
1.21075e-05 -1.55734e-06 0.000245196
0.00131516 6.11685e-06 -5.1502e-06
6.11685e-06 0.000230978 1.97195e-07
-5.1502e-06 1.97195e-07 0.000193477
0.00113292 2.14937e-05 -3.22791e-06
2.14937e-05 0.000156897 4.30259e-07
-3.22791e-06 4.30259e-07 0.000129055
0.00121848 1.06384e-05 -4.00727e-06
1.06384e-05 0.0001945 4.28549e-07
-4.00727e-06 4.28549e-07 0.000160869
0.001465 -2.59866e-05 -1.17372e-06
-2.59866e-05 0.000263207 5.37866e-07
-1.17372e-06 5.37866e-07 0.000207852
0.00389341 6.85944e-05 3.99832e-05
6.85944e-05 0.00159199 -1.04841e-07
3.99832e-05 -1.04841e-07 0.00158277
0.00133231 1.96122e-05 3.81428e-05
1.96122e-05 0.000309192 -2.56627e-06
3.81428e-05 -2.56627e-06 0.000289266
0.00193302 3.63576e-05 6.84788e-06
3.63576e-05 0.000526849 -1.31846e-06
6.84788e-06 -1.31846e-06 0.000492483
0.00131745 1.08644e-05 8.30861e-06
1.08644e-05 0.000226884 -1.98705e-06
8.30861e-06 -1.98705e-06 0.000188647
0.00122169 8.9094e-06 7.16852e-06
8.9094e-06 0.000193788 -2.35975e-06
7.16852e-06 -2.35975e-06 0.000157537
0.00164115 -3.08788e-05 2.60342e-06
-3.08788e-05 0.000289689 -1.30485e-06
2.60342e-06 -1.30485e-06 0.000229704
0.00120275 -2.36939e-05 2.83515e-06
-2.36939e-05 0.00011505 -1.4807e-06
2.83515e-06 -1.4807e-06 5.79311e-05
0.00119743 2.95533e-05 2.13118e-05
2.95533e-05 0.000174408 -5.98806e-06
2.13118e-05 -5.98806e-06 0.00017497
0.00105593 3.21137e-05 4.93867e-06
3.21137e-05 0.000117698 -2.77345e-06
4.93867e-06 -2.77345e-06 9.37272e-05
0.00133352 -1.33132e-05 1.97013e-06
-1.33132e-05 0.0002203 -1.22295e-06
1.97013e-06 -1.22295e-06 0.000166714
0.0011277 -4.25777e-05 1.93102e-06
-4.25777e-05 5.03684e-05 -1.25382e-06
1.93102e-06 -1.25382e-06 -1.72373e-05
0.00310584 -5.99434e-05 -2.58222e-05
-5.99434e-05 0.00118839 -2.69878e-06
-2.58222e-05 -2.69878e-06 0.00118443
0.00270667 -4.68293e-05 -2.16079e-05
-4.68293e-05 0.000937813 -3.47071e-06
-2.16079e-05 -3.47071e-06 0.000946414
0.00287837 -5.34469e-05 -2.37216e-05
-5.34469e-05 0.00104676 -3.14943e-06
-2.37216e-05 -3.14943e-06 0.00104959
0.000698009 -2.82853e-05 -4.34375e-06
-2.82853e-05 -6.46731e-05 -3.44919e-06
-4.34375e-06 -3.44919e-06 -9.05859e-05
0.00336554 -6.26255e-05 4.93706e-07
-6.26255e-05 0.00132963 -1.5282e-07
4.93706e-07 -1.5282e-07 0.00132235
0.00297057 -5.59326e-05 2.49892e-07
-5.59326e-05 0.00111186 -1.21858e-07
2.49892e-07 -1.21858e-07 0.00111032
0.000740174 5.5745e-06 8.07263e-10
5.5745e-06 -4.32877e-05 -1.28163e-07
8.07263e-10 -1.28163e-07 -8.01004e-05
0.00185081 -3.68758e-05 -7.82995e-06
-3.68758e-05 0.000498894 -1.04143e-06
-7.82995e-06 -1.04143e-06 0.000505589
0.000769703 -1.56582e-05 -1.20134e-08
-1.56582e-05 -2.77658e-05 -3.63665e-08
-1.20134e-08 -3.63665e-08 -5.67649e-05
0.00116649 -3.45494e-05 3.99732e-06
-3.45494e-05 0.000163037 5.15894e-07
3.99732e-06 5.15894e-07 0.000142952
0.000909982 1.05076e-05 3.69862e-08
1.05076e-05 1.4978e-05 -2.18409e-07
3.69862e-08 -2.18409e-07 -3.97358e-05
0.00257299 -3.94477e-05 2.06463e-05
-3.94477e-05 0.000854604 3.78213e-06
2.06463e-05 3.78213e-06 0.000866941
0.00084344 -2.36586e-05 4.26941e-06
-2.36586e-05 -3.00371e-05 3.66421e-06
4.26941e-06 3.66421e-06 -4.37168e-05
0.000755821 1.44598e-05 8.29909e-06
1.44598e-05 -4.44261e-05 3.88873e-06
8.29909e-06 3.88873e-06 -8.39235e-05
0.000760835 -1.78009e-06 7.49655e-06
-1.78009e-06 -3.29791e-05 4.13038e-06
7.49655e-06 4.13038e-06 -6.65502e-05
0.00099988 2.81555e-05 2.85192e-06
2.81555e-05 1.64097e-05 1.74062e-06
2.85192e-06 1.74062e-06 -4.18466e-05
0.00158762 -3.56709e-05 1.08271e-05
-3.56709e-05 0.0003651 3.20689e-06
1.08271e-05 3.20689e-06 0.000350368
0.000937567 1.93475e-05 2.6182e-06
1.93475e-05 2.0141e-05 1.4679e-06
2.6182e-06 1.4679e-06 -3.46125e-05
0.000921655 6.41736e-06 2.58071e-06
6.41736e-06 2.26295e-05 1.84688e-06
2.58071e-06 1.84688e-06 -3.04529e-05
0.000974609 3.75072e-05 1.38151e-06
3.75072e-05 2.04051e-05 4.04552e-07
1.38151e-06 4.04552e-07 -4.48992e-05
0.00254378 -3.24994e-05 1.92078e-05
-3.24994e-05 0.000824576 4.1189e-06
1.92078e-05 4.1189e-06 0.000840014
0.00259866 -3.61448e-05 2.96447e-07
-3.61448e-05 0.000857844 -8.07086e-08
2.96447e-07 -8.07086e-08 0.000871889
0.00354007 -6.78705e-05 -3.27835e-05
-6.78705e-05 0.00142354 -1.5314e-06
-3.27835e-05 -1.5314e-06 0.00141439
0.00380467 -6.7077e-05 -3.75707e-05
-6.7077e-05 0.00155087 -6.55276e-07
-3.75707e-05 -6.55276e-07 0.00154152
0.00400751 -4.14499e-05 1.34471e-06
-4.14499e-05 0.00164412 -1.8306e-07
1.34471e-06 -1.8306e-07 0.0016361
0.00253943 -5.56468e-05 -1.50071e-05
-5.56468e-05 0.000919592 1.10187e-09
-1.50071e-05 1.10187e-09 0.000903595
0.00134436 -7.24272e-06 8.842e-06
-7.24272e-06 0.000226371 -1.41312e-07
8.842e-06 -1.41312e-07 0.000189518
0.00234166 -5.05184e-05 -1.27e-05
-5.05184e-05 0.000821214 -2.8923e-07
-1.27e-05 -2.8923e-07 0.000806404
0.0012694 -3.78816e-06 7.08395e-06
-3.78816e-06 0.000204845 -2.5585e-08
7.08395e-06 -2.5585e-08 0.000168257
0.00402825 1.93657e-05 4.09548e-05
1.93657e-05 0.00165239 4.25429e-07
4.09548e-05 4.25429e-07 0.00164492
0.000732048 -2.54811e-06 8.0808e-06
-2.54811e-06 -9.0235e-05 7.55672e-07
8.0808e-06 7.55672e-07 -0.000130546
0.00195772 -3.82659e-05 2.23082e-05
-3.82659e-05 0.000542985 2.24938e-06
2.23082e-05 2.24938e-06 0.000508835
0.00113478 -1.13132e-06 4.72311e-06
-1.13132e-06 -2.44351e-06 1.41185e-06
4.72311e-06 1.41185e-06 -6.676e-05
0.00186695 1.45499e-06 1.75628e-05
1.45499e-06 0.00050853 2.19406e-06
1.75628e-05 2.19406e-06 0.000475117
0.00111476 1.77927e-05 3.85961e-06
1.77927e-05 1.42238e-05 1.559e-06
3.85961e-06 1.559e-06 -4.82824e-05
0.00148104 1.98842e-05 -3.91788e-05
1.98842e-05 0.000380429 9.20696e-07
-3.91788e-05 9.20696e-07 0.000360447
0.00135667 4.21214e-05 -7.05598e-06
4.21214e-05 0.000327002 1.38449e-06
-7.05598e-06 1.38449e-06 0.000304282
0.00107025 3.50524e-05 -5.64696e-06
3.50524e-05 0.000126855 1.5617e-06
-5.64696e-06 1.5617e-06 0.000123727
0.00127404 3.94749e-05 -6.94213e-06
3.94749e-05 0.000279595 1.54347e-06
-6.94213e-06 1.54347e-06 0.000259653
0.00134817 3.88536e-06 -1.83498e-05
3.88536e-06 0.000245479 2.74155e-06
-1.83498e-05 2.74155e-06 0.000208562
0.00125761 9.82128e-06 -1.51524e-05
9.82128e-06 0.000212493 3.1097e-06
-1.51524e-05 3.1097e-06 0.000179201
0.00118739 2.1697e-05 -1.27558e-05
2.1697e-05 0.000183346 3.45313e-06
-1.27558e-05 3.45313e-06 0.000155634
0.00150698 -2.81666e-05 -4.60787e-06
-2.81666e-05 0.000282027 2.21877e-06
-4.60787e-06 2.21877e-06 0.000226315
0.00395133 7.17034e-05 -1.55402e-06
7.17034e-05 0.00162002 -2.02217e-07
-1.55402e-06 -2.02217e-07 0.00161058
0.00133739 3.12983e-05 1.58418e-05
3.12983e-05 0.000314441 -6.36938e-07
1.58418e-05 -6.36938e-07 0.000293382
0.00107557 1.77927e-05 -9.64615e-06
1.77927e-05 9.43368e-05 1.19787e-07
-9.64615e-06 1.19787e-07 5.59634e-05
0.00135502 8.51703e-06 -5.64838e-06
8.51703e-06 0.000243804 1.24113e-07
-5.64838e-06 1.24113e-07 0.000206054
0.00191846 3.7954e-05 1.42623e-05
3.7954e-05 0.000540091 -1.90791e-06
1.42623e-05 -1.90791e-06 0.000544611
0.0013226 3.39366e-05 -3.15491e-06
3.39366e-05 0.000250038 3.93307e-07
-3.15491e-06 3.93307e-07 0.000227555
0.00126197 7.96672e-06 -4.53186e-06
7.96672e-06 0.000211993 3.25422e-07
-4.53186e-06 3.25422e-07 0.000176176
0.00148773 -2.86116e-05 -1.59212e-06
-2.86116e-05 0.000212405 3.9022e-07
-1.59212e-06 3.9022e-07 0.000151752
0.00141419 -1.73299e-05 -9.75903e-07
-1.73299e-05 0.000257738 6.21492e-07
-9.75903e-07 6.21492e-07 0.000203722
0.00136203 -2.68922e-05 -5.29146e-07
-2.68922e-05 0.000193382 1.87536e-07
-5.29146e-07 1.87536e-07 0.000136711
0.00111999 -4.20975e-05 1.5622e-08
-4.20975e-05 4.70051e-05 -3.74855e-08
1.5622e-08 -3.74855e-08 -2.05282e-05
0.000716641 6.15529e-06 7.7995e-06
6.15529e-06 -9.34831e-05 -1.48507e-06
7.7995e-06 -1.48507e-06 -0.0001333
0.00133018 1.93634e-05 8.31201e-06
1.93634e-05 0.000230676 -1.68645e-06
8.31201e-06 -1.68645e-06 0.000193097
0.0014691 1.48026e-05 4.2069e-06
1.48026e-05 0.000168842 -8.75417e-07
4.2069e-06 -8.75417e-07 0.000107202
0.00138277 -2.11337e-05 3.60852e-06
-2.11337e-05 0.000144164 -1.24948e-06
3.60852e-06 -1.24948e-06 8.27168e-05
0.00128277 -2.67735e-05 2.95961e-06
-2.67735e-05 0.000133231 -1.59548e-06
2.95961e-06 -1.59548e-06 7.40963e-05
0.00156612 -3.96188e-05 1.43287e-06
-3.96188e-05 0.000197309 -7.00289e-07
1.43287e-06 -7.00289e-07 0.000126667
0.00271488 4.33687e-05 2.14328e-05
4.33687e-05 0.000930616 -3.64488e-06
2.14328e-05 -3.64488e-06 0.000941226
0.00114378 -4.0172e-05 1.79926e-06
-4.0172e-05 3.89958e-05 -1.0783e-06
1.79926e-06 -1.0783e-06 -2.81313e-05
0.000761272 3.09515e-05 4.40033e-06
3.09515e-05 -4.2765e-05 -3.39198e-06
4.40033e-06 -3.39198e-06 -6.41699e-05
0.00083186 -6.48898e-06 2.28038e-06
-6.48898e-06 -1.82263e-05 -1.87484e-06
2.28038e-06 -1.87484e-06 -7.27662e-05
0.00116409 -4.47882e-05 1.85527e-06
-4.47882e-05 9.14307e-05 -1.5992e-06
1.85527e-06 -1.5992e-06 2.28896e-05
0.00120841 -4.98667e-05 1.49387e-06
-4.98667e-05 6.43952e-05 -8.68952e-07
1.49387e-06 -8.68952e-07 -7.55266e-06
0.000781162 2.45476e-05 4.48526e-06
2.45476e-05 -5.39039e-05 -3.73342e-06
4.48526e-06 -3.73342e-06 -7.00593e-05
0.000948272 -6.10086e-06 2.84226e-06
-6.10086e-06 1.61687e-05 -2.55028e-06
2.84226e-06 -2.55028e-06 -3.06965e-05
0.00327428 -6.32037e-05 -2.81317e-05
-6.32037e-05 0.00128211 -2.37568e-06
-2.81317e-05 -2.37568e-06 0.00127547
0.00296458 -5.65622e-05 -2.44458e-05
-5.65622e-05 0.00110469 -2.93299e-06
-2.44458e-05 -2.93299e-06 0.00110411
0.000697731 3.31929e-06 -5.56556e-06
3.31929e-06 -5.98675e-05 -3.11863e-06
-5.56556e-06 -3.11863e-06 -9.71106e-05
0.00266567 -4.32525e-05 -2.13035e-05
-4.32525e-05 0.000907285 -3.64962e-06
-2.13035e-05 -3.64962e-06 0.00091807
0.000704988 -3.00458e-05 -4.39675e-06
-3.00458e-05 -6.85971e-05 -3.5245e-06
-4.39675e-06 -3.5245e-06 -9.04368e-05
0.000690679 -1.61778e-05 -5.2468e-06
-1.61778e-05 -6.32191e-05 -3.12553e-06
-5.2468e-06 -3.12553e-06 -9.27133e-05
0.000898802 8.39259e-06 -2.44311e-06
8.39259e-06 1.03273e-05 -1.75742e-06
-2.44311e-06 -1.75742e-06 -4.45752e-05
0.0026135 -3.96153e-05 2.60947e-07
-3.96153e-05 0.000873362 -8.74568e-08
2.60947e-07 -8.74568e-08 0.000885809
0.000827621 -2.31318e-05 1.25328e-07
-2.31318e-05 -3.85818e-05 -2.48009e-08
1.25328e-07 -2.48009e-08 -5.20557e-05
0.0012488 7.10478e-06 5.7515e-06
7.10478e-06 0.000205984 1.01782e-07
5.7515e-06 1.01782e-07 0.000169927
0.00119758 -9.57083e-06 4.62585e-06
-9.57083e-06 0.000189784 3.96774e-07
4.62585e-06 3.96774e-07 0.000159233
0.000987772 2.85979e-05 6.73475e-08
2.85979e-05 1.00754e-05 -3.61814e-08
6.73475e-08 -3.61814e-08 -4.80584e-05
0.000809019 -2.88677e-05 -5.00455e-08
-2.88677e-05 -2.79778e-05 -2.04734e-08
-5.00455e-08 -2.04734e-08 -4.6247e-05
0.000921462 1.87002e-05 -9.67732e-08
1.87002e-05 1.25866e-05 2.29638e-09
-9.67732e-08 2.29638e-09 -4.21675e-05
0.00090671 3.73362e-06 -3.8708e-08
3.73362e-06 1.70642e-05 -1.00532e-07
-3.8708e-08 -1.00532e-07 -3.62467e-05
0.000941785 3.70312e-05 -3.81577e-08
3.70312e-05 3.22686e-06 -1.21774e-07
-3.81577e-08 -1.21774e-07 -6.22355e-05
0.000834157 -2.64503e-05 4.56641e-06
-2.64503e-05 -2.56374e-05 3.51375e-06
4.56641e-06 3.51375e-06 -4.15349e-05
0.000852926 -2.09484e-05 3.83418e-06
-2.09484e-05 -3.23418e-05 3.74026e-06
3.83418e-06 3.74026e-06 -4.37957e-05
0.000940412 3.55893e-06 2.77287e-06
3.55893e-06 1.10356e-05 2.04664e-06
2.77287e-06 2.04664e-06 -3.41842e-05
0.00103333 2.63785e-05 3.04578e-06
2.63785e-05 9.16593e-06 1.70586e-06
3.04578e-06 1.70586e-06 -5.08748e-05
0.000971988 2.61005e-05 2.67755e-06
2.61005e-05 2.43701e-05 1.72627e-06
2.67755e-06 1.72627e-06 -3.17865e-05
0.00116137 4.32314e-05 1.68042e-06
4.32314e-05 5.14887e-05 1.46411e-06
1.68042e-06 1.46411e-06 -1.69573e-05
0.000932308 2.43457e-06 2.60785e-06
2.43457e-06 2.16818e-05 1.9501e-06
2.60785e-06 1.9501e-06 -2.81333e-05
0.000970571 4.01396e-05 1.18159e-06
4.01396e-05 2.0852e-06 7.33263e-07
1.18159e-06 7.33263e-07 -6.21239e-05
0.00104431 3.43173e-05 1.41842e-06
3.43173e-05 6.74962e-05 6.99942e-07
1.41842e-06 6.99942e-07 8.91313e-07
0.00112098 4.98142e-05 2.65253e-08
4.98142e-05 8.56656e-05 -3.76946e-08
2.65253e-08 -3.76946e-08 1.47584e-05
0.00251235 -2.90417e-05 1.80313e-05
-2.90417e-05 0.00080325 4.18876e-06
1.80313e-05 4.18876e-06 0.000820046
0.00257071 -3.26468e-05 3.36091e-07
-3.26468e-05 0.000837299 -7.20468e-08
3.36091e-07 -7.20468e-08 0.000852814
0.00263366 -3.63287e-05 -1.99687e-05
-3.63287e-05 0.000874243 -3.98323e-06
-1.99687e-05 -3.98323e-06 0.000888376
0.000805326 2.20739e-05 3.9304e-06
2.20739e-05 -4.90901e-05 -3.84701e-06
3.9304e-06 -3.84701e-06 -6.28807e-05
0.00270629 3.98585e-05 2.09617e-05
3.98585e-05 0.000918224 -3.83816e-06
2.09617e-05 -3.83816e-06 0.000930434
0.00341829 -6.57976e-05 -3.05768e-05
-6.57976e-05 0.00136014 -1.96608e-06
-3.05768e-05 -1.96608e-06 0.00135182
0.00365853 -7.05489e-05 -3.46998e-05
-7.05489e-05 0.00148227 -1.1037e-06
-3.46998e-05 -1.1037e-06 0.00147265
0.000707775 8.81269e-06 -6.55562e-06
8.81269e-06 -7.64418e-05 -2.70352e-06
-6.55562e-06 -2.70352e-06 -0.000116067
0.000711412 6.53049e-06 -7.40583e-06
6.53049e-06 -9.0908e-05 -1.99745e-06
-7.40583e-06 -1.99745e-06 -0.000130805
0.00396562 -4.95441e-05 -4.04061e-05
-4.95441e-05 0.00162398 -1.84297e-07
-4.04061e-05 -1.84297e-07 0.0016159
0.00403947 1.58013e-05 -9.24003e-07
1.58013e-05 0.00165938 2.01079e-07
-9.24003e-07 2.01079e-07 0.00165107
0.000722385 -1.46648e-06 1.83356e-08
-1.46648e-06 -9.51805e-05 -1.72047e-07
1.83356e-08 -1.72047e-07 -0.000135369
0.0013015 -1.31704e-05 7.95094e-06
-1.31704e-05 0.000214708 -4.79109e-08
7.95094e-06 -4.79109e-08 0.000178065
0.00114674 1.59504e-06 1.3503e-07
1.59504e-06 3.46232e-06 1.9824e-09
1.3503e-07 1.9824e-09 -6.0772e-05
0.000707638 1.00335e-05 3.68647e-08
1.00335e-05 -7.12176e-05 -1.29289e-07
3.68647e-08 -1.29289e-07 -0.000111009
0.00112043 1.81803e-05 5.97705e-08
1.81803e-05 1.73158e-05 -7.34214e-08
5.97705e-08 -7.34214e-08 -4.51775e-05
0.000701086 -1.25851e-06 8.07854e-06
-1.25851e-06 -0.000107611 -4.69543e-07
8.07854e-06 -4.69543e-07 -0.000147692
0.00115994 -2.04727e-06 5.05803e-06
-2.04727e-06 -2.52176e-06 6.8428e-07
5.05803e-06 6.8428e-07 -6.83753e-05
0.00112672 8.7514e-06 4.2678e-06
8.7514e-06 6.99651e-06 1.4847e-06
4.2678e-06 1.4847e-06 -5.6053e-05
0.00132135 -1.38869e-06 2.77679e-06
-1.38869e-06 3.67299e-05 8.93879e-07
2.77679e-06 8.93879e-07 -3.78922e-05
0.00107758 2.26093e-05 3.37867e-06
2.26093e-05 1.13018e-05 1.68546e-06
3.37867e-06 1.68546e-06 -5.02235e-05
0.0012846 2.00596e-05 2.09964e-06
2.00596e-05 4.60986e-05 8.70625e-07
2.09964e-06 8.70625e-07 -2.49512e-05
0.00401125 6.79116e-05 -4.50027e-05
6.79116e-05 0.00164839 -2.46756e-07
-4.50027e-05 -2.46756e-07 0.00163922
0.00134614 4.34566e-05 -6.86501e-06
4.34566e-05 0.000321905 1.16895e-06
-6.86501e-06 1.16895e-06 0.000299564
0.000203233 6.02745e-06 -9.56538e-06
6.02745e-06 -0.000344208 2.17801e-06
-9.56538e-06 2.17801e-06 -0.000387502
0.00138157 5.84763e-06 -1.97519e-05
5.84763e-06 0.000255031 2.3417e-06
-1.97519e-05 2.3417e-06 0.000217856
0.00263541 5.00913e-05 -8.7354e-06
5.00913e-05 0.000904121 1.41994e-06
-8.7354e-06 1.41994e-06 0.000912244
0.00159322 4.03577e-05 -1.17208e-05
4.03577e-05 0.000384672 3.45798e-06
-1.17208e-05 3.45798e-06 0.000363411
0.00130043 6.15816e-06 -1.65888e-05
6.15816e-06 0.00022921 2.94336e-06
-1.65888e-05 2.94336e-06 0.000193885
0.00133553 -2.66497e-05 -5.67293e-06
-2.66497e-05 0.000135768 2.11492e-06
-5.67293e-06 2.11492e-06 7.44315e-05
0.0015273 -3.00247e-05 -3.94228e-06
-3.00247e-05 0.000274603 1.76047e-06
-3.94228e-06 1.76047e-06 0.000218379
0.0014887 -2.11131e-05 -4.28112e-06
-2.11131e-05 0.000292136 2.51982e-06
-4.28112e-06 2.51982e-06 0.000237686
0.00111231 -4.167e-05 -1.70586e-06
-4.167e-05 4.36379e-05 1.12041e-06
-1.70586e-06 1.12041e-06 -2.38235e-05
0.000728075 6.63202e-06 -1.10542e-07
6.63202e-06 -8.78607e-05 -1.34929e-07
-1.10542e-07 -1.34929e-07 -0.000127799
0.00136871 1.73483e-05 -6.08794e-06
1.73483e-05 0.000247806 9.4691e-08
-6.08794e-06 9.4691e-08 0.000210726
0.0011793 1.27645e-05 -9.55537e-07
1.27645e-05 2.40374e-05 1.00997e-07
-9.55537e-07 1.00997e-07 -3.91892e-05
0.00152175 -2.19725e-05 -9.21722e-07
-2.19725e-05 0.000212883 6.65106e-08
-9.21722e-07 6.65106e-08 0.000151994
0.00266845 4.31708e-05 -2.07583e-07
4.31708e-05 0.000909088 -8.71883e-08
-2.07583e-07 -8.71883e-08 0.000919559
0.00118225 3.61422e-05 8.53586e-07
3.61422e-05 0.000169393 3.43776e-08
8.53586e-07 3.43776e-08 0.000149641
0.00113239 -5.59034e-06 9.58885e-08
-5.59034e-06 0.000129417 -2.83564e-08
9.58885e-08 -2.83564e-08 7.61462e-05
0.00128981 -2.73401e-05 -6.74659e-07
-2.73401e-05 0.000136604 1.18303e-07
-6.74659e-07 1.18303e-07 7.75527e-05
0.001329 -3.67306e-05 -6.99997e-07
-3.67306e-05 7.93838e-05 3.32449e-07
-6.99997e-07 3.32449e-07 7.92461e-06
0.00102494 -4.17164e-05 -1.31007e-07
-4.17164e-05 2.47274e-05 -1.10649e-07
-1.31007e-07 -1.10649e-07 -4.40263e-05
0.00128907 -4.17822e-05 4.38753e-08
-4.17822e-05 0.00011008 8.59075e-08
4.38753e-08 8.59075e-08 4.33934e-05
0.00119881 -4.95823e-05 1.09396e-07
-4.95823e-05 6.02049e-05 1.32521e-08
1.09396e-07 1.32521e-08 -1.16371e-05
0.000801686 2.54073e-05 -9.24986e-08
2.54073e-05 -4.26361e-05 -4.94607e-08
-9.24986e-08 -4.94607e-08 -5.90531e-05
0.000940922 -4.91082e-06 -1.4112e-07
-4.91082e-06 1.19438e-05 -6.31413e-08
-1.4112e-07 -6.31413e-08 -3.47159e-05
0.00116069 7.00415e-06 4.92847e-06
7.00415e-06 3.35439e-06 -7.13982e-07
4.92847e-06 -7.13982e-07 -6.12061e-05
0.00141147 8.25235e-07 3.87399e-06
8.25235e-07 0.00014846 -1.05878e-06
3.87399e-06 -1.05878e-06 8.74629e-05
0.00163379 9.78524e-06 2.19566e-06
9.78524e-06 0.000195469 -1.27186e-07
2.19566e-06 -1.27186e-07 0.000123367
0.00113283 -2.46724e-05 2.86204e-06
-2.46724e-05 -3.80635e-05 -8.90572e-07
2.86204e-06 -8.90572e-07 -0.000111056
0.0012934 -4.02709e-05 1.48038e-06
-4.02709e-05 9.34859e-05 -1.09536e-06
1.48038e-06 -1.09536e-06 2.56133e-05
0.00153637 -3.98904e-05 9.31658e-07
-3.98904e-05 0.000152042 -5.46677e-07
9.31658e-07 -5.46677e-07 7.86137e-05
0.000747804 2.76094e-05 4.60186e-06
2.76094e-05 -5.99767e-05 -3.52832e-06
4.60186e-06 -3.52832e-06 -7.85744e-05
0.00123913 -4.63037e-05 1.16129e-06
-4.63037e-05 5.63853e-05 -8.17834e-07
1.16129e-06 -8.17834e-07 -1.38305e-05
0.000880612 -1.86343e-06 2.52725e-06
-1.86343e-06 4.74556e-06 -1.80197e-06
2.52725e-06 -1.80197e-06 -4.79093e-05
0.000802144 -3.49752e-05 1.7347e-06
-3.49752e-05 -6.20334e-05 -1.75567e-06
1.7347e-06 -1.75567e-06 -0.000129758
0.0014898 -5.95059e-05 1.0785e-06
-5.95059e-05 0.000230974 -1.14575e-06
1.0785e-06 -1.14575e-06 0.000156406
0.00132557 -5.40816e-05 1.01758e-06
-5.40816e-05 0.00010598 -1.50836e-07
1.01758e-06 -1.50836e-07 3.41563e-05
0.000926334 -4.26607e-06 3.07933e-06
-4.26607e-06 1.06666e-05 -2.19359e-06
3.07933e-06 -2.19359e-06 -3.82835e-05
0.000947087 -7.99036e-07 2.0337e-06
-7.99036e-07 1.25808e-05 -2.61523e-06
2.0337e-06 -2.61523e-06 -3.05101e-05
0.00103388 -2.78785e-05 1.58629e-06
-2.78785e-05 5.50639e-05 -1.17887e-06
1.58629e-06 -1.17887e-06 -1.11142e-05
0.000710194 1.14513e-05 -6.001e-06
1.14513e-05 -6.07136e-05 -3.04179e-06
-6.001e-06 -3.04179e-06 -0.00010019
0.00265343 -3.98026e-05 -2.08275e-05
-3.98026e-05 0.000891841 -3.84306e-06
-2.08275e-05 -3.84306e-06 0.000904397
0.000812623 -2.26367e-05 -4.09715e-06
-2.26367e-05 -4.67837e-05 -3.75862e-06
-4.09715e-06 -3.75862e-06 -6.00447e-05
0.000683083 -7.2077e-06 -5.30423e-06
-7.2077e-06 -6.39245e-05 -3.04598e-06
-5.30423e-06 -3.04598e-06 -9.74615e-05
0.00097752 2.91562e-05 -2.74153e-06
2.91562e-05 4.64288e-06 -1.86646e-06
-2.74153e-06 -1.86646e-06 -5.3375e-05
0.00074639 -2.75959e-05 -4.68252e-06
-2.75959e-05 -5.91071e-05 -3.50743e-06
-4.68252e-06 -3.50743e-06 -7.724e-05
0.000894848 1.11605e-06 -2.39342e-06
1.11605e-06 1.30468e-05 -2.05401e-06
-2.39342e-06 -2.05401e-06 -4.0503e-05
0.00090438 1.76883e-05 -2.51659e-06
1.76883e-05 4.5358e-06 -1.30922e-06
-2.51659e-06 -1.30922e-06 -5.02266e-05
0.000908789 3.65489e-05 -1.51659e-06
3.65489e-05 -1.40183e-05 -6.94401e-07
-1.51659e-06 -6.94401e-07 -7.9642e-05
0.000810818 -2.57723e-05 8.4073e-08
-2.57723e-05 -3.7893e-05 -4.37878e-08
8.4073e-08 -4.37878e-08 -5.3584e-05
0.000840949 -2.0568e-05 1.27919e-07
-2.0568e-05 -3.87951e-05 -1.04641e-09
1.27919e-07 -1.04641e-09 -5.00618e-05
0.000939523 2.40633e-06 7.89256e-08
2.40633e-06 1.11775e-05 -3.55029e-08
7.89256e-08 -3.55029e-08 -3.41277e-05
0.00103842 2.7127e-05 1.06483e-07
2.7127e-05 1.1316e-05 -1.10286e-08
1.06483e-07 -1.10286e-08 -4.86516e-05
0.000946206 2.56014e-05 -1.70303e-08
2.56014e-05 1.1867e-05 4.08124e-08
-1.70303e-08 4.08124e-08 -4.41842e-05
0.00115083 4.33388e-05 8.84821e-08
4.33388e-05 4.67484e-05 3.8365e-08
8.84821e-08 3.8365e-08 -2.17343e-05
0.000918543 1.04537e-06 -1.4936e-07
1.04537e-06 1.66887e-05 3.52015e-08
-1.4936e-07 3.52015e-08 -3.33286e-05
0.00104207 4.19333e-05 -2.52737e-08
4.19333e-05 3.78366e-05 -4.5135e-08
-2.52737e-08 -4.5135e-08 -2.60677e-05
0.00103336 3.44361e-05 7.72202e-08
3.44361e-05 6.22879e-05 -1.72072e-07
7.72202e-08 -1.72072e-07 -4.38633e-06
0.00103512 4.82194e-05 -5.12622e-07
4.82194e-05 4.28359e-05 1.88327e-07
-5.12622e-07 1.88327e-07 -2.84339e-05
0.000862377 -1.8451e-05 3.36476e-06
-1.8451e-05 -3.2706e-05 3.73183e-06
3.36476e-06 3.73183e-06 -4.20218e-05
0.000936258 2.13858e-06 2.83912e-06
2.13858e-06 1.47667e-05 1.85478e-06
2.83912e-06 1.85478e-06 -3.23693e-05
0.000944162 2.07292e-06 2.51318e-06
2.07292e-06 8.74772e-06 2.2569e-06
2.51318e-06 2.2569e-06 -3.40441e-05
0.0010348 1.89598e-05 1.52219e-06
1.89598e-05 5.52506e-05 7.8207e-07
1.52219e-06 7.8207e-07 -7.85134e-06
0.00118041 3.60018e-05 2.06177e-06
3.60018e-05 3.39816e-05 1.28731e-06
2.06177e-06 1.28731e-06 -3.56271e-05
0.00112512 4.51397e-05 1.4053e-06
4.51397e-05 6.15211e-05 1.41729e-06
1.4053e-06 1.41729e-06 -4.35955e-06
0.00122756 4.84254e-05 9.73444e-07
4.84254e-05 6.06272e-05 1.59035e-06
9.73444e-07 1.59035e-06 -1.31233e-05
0.00105438 2.95345e-05 1.37274e-06
2.95345e-05 7.22776e-05 9.81199e-07
1.37274e-06 9.81199e-07 7.20087e-06
0.00112285 4.9883e-05 3.16091e-07
4.9883e-05 6.50567e-05 7.14208e-07
3.16091e-07 7.14208e-07 -3.93471e-06
0.00107318 4.84476e-05 7.93654e-07
4.84476e-05 7.95531e-05 1.52825e-08
7.93654e-07 1.52825e-08 4.15049e-06
0.000986604 4.90592e-05 3.20803e-07
4.90592e-05 9.43766e-06 1.2898e-07
3.20803e-07 1.2898e-07 -6.50774e-05
0.000945468 -3.58621e-06 9.24769e-07
-3.58621e-06 2.64073e-06 2.15487e-06
9.24769e-07 2.15487e-06 -2.93651e-05
0.000874611 -1.41715e-05 2.38596e-06
-1.41715e-05 -3.39449e-05 3.59058e-06
2.38596e-06 3.59058e-06 -3.93457e-05
0.00246916 -2.56483e-05 1.65431e-05
-2.56483e-05 0.000776897 4.21973e-06
1.65431e-05 4.21973e-06 0.000794975
0.00252827 -2.91735e-05 4.01139e-07
-2.91735e-05 0.000810736 -6.28964e-08
4.01139e-07 -6.28964e-08 0.000827615
0.00259526 -3.28034e-05 -1.87985e-05
-3.28034e-05 0.000848873 -4.06671e-06
-1.87985e-05 -4.06671e-06 0.000864466
0.000823797 2.02527e-05 3.31153e-06
2.02527e-05 -4.49263e-05 -3.72087e-06
3.31153e-06 -3.72087e-06 -5.60223e-05
0.00265142 3.6357e-05 1.9716e-05
3.6357e-05 0.000884816 -3.92502e-06
1.9716e-05 -3.92502e-06 0.000898589
0.000818761 2.26612e-05 -2.034e-07
2.26612e-05 -4.14574e-05 -2.47387e-08
-2.034e-07 -2.47387e-08 -5.55123e-05
0.0026656 3.96743e-05 -2.3971e-07
3.96743e-05 0.000899079 -8.64052e-08
-2.3971e-07 -8.64052e-08 0.00091121
0.000705196 1.42529e-05 -6.29014e-06
1.42529e-05 -7.06066e-05 -2.88968e-06
-6.29014e-06 -2.88968e-06 -0.000110578
0.0007117 1.10001e-05 -6.94617e-06
1.10001e-05 -8.15326e-05 -2.45345e-06
-6.94617e-06 -2.45345e-06 -0.000121148
0.00111986 1.71989e-05 -3.77083e-06
1.71989e-05 1.73761e-05 -1.74167e-06
-3.77083e-06 -1.74167e-06 -4.51017e-05
0.00116103 2.53156e-06 -4.58244e-06
2.53156e-06 1.05661e-05 -1.36684e-06
-4.58244e-06 -1.36684e-06 -5.36024e-05
0.000709647 1.90931e-06 -7.92934e-06
1.90931e-06 -0.000101451 -1.12249e-06
-7.92934e-06 -1.12249e-06 -0.000141592
0.00406033 3.39827e-05 -4.36287e-05
3.39827e-05 0.00167058 2.89693e-07
-4.36287e-05 2.89693e-07 0.00166132
0.000719383 4.03447e-07 -1.05836e-08
4.03447e-07 -9.89232e-05 -1.79975e-07
-1.05836e-08 -1.79975e-07 -0.00013907
0.00117298 9.7762e-07 4.1752e-08
9.7762e-07 3.75347e-06 -2.35888e-07
4.1752e-08 -2.35888e-07 -6.2009e-05
0.00113098 7.51567e-06 2.74829e-08
7.51567e-06 9.43119e-06 -1.28424e-08
2.74829e-08 -1.28424e-08 -5.36132e-05
0.00134947 -2.36872e-06 6.752e-08
-2.36872e-06 5.02857e-05 5.79254e-09
6.752e-08 5.79254e-09 -2.43566e-05
0.00108543 2.35907e-05 1.19426e-07
2.35907e-05 1.54297e-05 -1.95585e-08
1.19426e-07 -1.95585e-08 -4.60915e-05
0.0012949 2.19256e-05 1.44066e-08
2.19256e-05 5.10445e-05 2.54939e-09
1.44066e-08 2.54939e-09 -2.00353e-05
0.00117187 8.90567e-07 5.13914e-06
8.90567e-07 1.2183e-06 -3.2465e-07
5.13914e-06 -3.2465e-07 -6.45184e-05
0.00135557 2.23685e-06 2.94743e-06
2.23685e-06 4.16035e-05 5.07612e-07
2.94743e-06 5.07612e-07 -3.52661e-05
0.00131408 9.87469e-06 2.48695e-06
9.87469e-06 4.55644e-05 8.74932e-07
2.48695e-06 8.74932e-07 -2.68671e-05
0.00144442 -7.35242e-06 1.84205e-06
-7.35242e-06 7.24181e-05 5.63792e-07
1.84205e-06 5.63792e-07 -4.22827e-06
0.00124409 2.96032e-05 1.81483e-06
2.96032e-05 4.39856e-05 9.03139e-07
1.81483e-06 9.03139e-07 -2.62567e-05
0.00136623 2.30253e-05 1.22777e-06
2.30253e-05 5.74441e-05 7.63701e-07
1.22777e-06 7.63701e-07 -1.56069e-05
0.000741041 9.90465e-06 -7.90468e-06
9.90465e-06 -8.12704e-05 1.19305e-06
-7.90468e-06 1.19305e-06 -0.000121515
0.00140451 1.57263e-05 -2.0682e-05
1.57263e-05 0.000263507 1.85064e-06
-2.0682e-05 1.85064e-06 0.000226952
0.000887074 1.17141e-05 -5.249e-06
1.17141e-05 -0.00012215 9.6841e-07
-5.249e-06 9.6841e-07 -0.000186991
0.00167015 -2.26481e-05 -5.53358e-06
-2.26481e-05 0.000286352 1.58712e-06
-5.53358e-06 1.58712e-06 0.000226001
0.0026209 4.29056e-05 -2.09757e-05
4.29056e-05 0.000886979 3.57087e-06
-2.09757e-05 3.57087e-06 0.000897321
0.00160158 3.80605e-05 -1.06484e-05
3.80605e-05 0.000380423 2.98371e-06
-1.06484e-05 2.98371e-06 0.000362599
0.0014276 -7.94839e-06 -2.89392e-06
-7.94839e-06 0.000274214 1.92896e-06
-2.89392e-06 1.92896e-06 0.000222397
0.00129987 -2.76888e-05 -4.20757e-06
-2.76888e-05 0.000141505 1.83165e-06
-4.20757e-06 1.83165e-06 8.25325e-05
0.00109335 -3.38486e-05 -2.89759e-06
-3.38486e-05 -3.7793e-05 1.36785e-06
-2.89759e-06 1.36785e-06 -0.000110077
0.00142733 -4.33695e-05 -1.83106e-06
-4.33695e-05 0.000177747 1.1423e-06
-1.83106e-06 1.1423e-06 0.000111505
0.000874002 -3.83144e-05 -1.7162e-06
-3.83144e-05 -4.7601e-05 1.36912e-06
-1.7162e-06 1.36912e-06 -0.00011656
0.00118737 -4.92579e-05 -1.12629e-06
-4.92579e-05 5.51364e-05 8.50692e-07
-1.12629e-06 8.50692e-07 -1.65996e-05
0.000823054 2.62315e-05 -4.4015e-06
2.62315e-05 -3.09969e-05 3.56901e-06
-4.4015e-06 3.56901e-06 -4.76684e-05
0.000933739 -4.95889e-06 -2.86171e-06
-4.95889e-06 7.89596e-06 2.19651e-06
-2.86171e-06 2.19651e-06 -3.86048e-05
0.00103717 1.07709e-05 -1.12421e-07
1.07709e-05 -5.79538e-05 2.2208e-08
-1.12421e-07 2.2208e-08 -0.000123329
0.00141517 -2.25061e-06 -9.48889e-07
-2.25061e-06 0.000149963 9.67395e-08
-9.48889e-07 9.67395e-08 8.90345e-05
0.00151589 1.14795e-05 -8.17368e-07
1.14795e-05 0.000136896 1.47927e-07
-8.17368e-07 1.47927e-07 6.44649e-05
0.00137424 -2.6984e-05 3.71673e-07
-2.6984e-05 8.224e-05 -2.9367e-07
3.71673e-07 -2.9367e-07 1.02168e-05
0.00078451 2.85909e-05 1.12634e-08
2.85909e-05 -4.11686e-05 -2.98603e-08
1.12634e-08 -2.98603e-08 -5.99955e-05
0.000906788 -4.18064e-06 1.39635e-07
-4.18064e-06 1.58054e-05 -3.07643e-08
1.39635e-07 -3.07643e-08 -3.66435e-05
0.000894779 -3.68078e-05 4.43221e-07
-3.68078e-05 -1.5315e-05 -2.81771e-07
4.43221e-07 -2.81771e-07 -8.24722e-05
0.00139343 -4.13675e-05 -4.15584e-07
-4.13675e-05 0.000141558 1.09674e-07
-4.15584e-07 1.09674e-07 7.36952e-05
0.00138015 -3.69774e-05 -2.13916e-07
-3.69774e-05 7.47198e-05 3.94843e-07
-2.13916e-07 3.94843e-07 1.34367e-06
0.00126314 -5.4752e-05 -4.75788e-07
-5.4752e-05 0.000120375 1.22495e-07
-4.75788e-07 1.22495e-07 4.51266e-05
0.00124088 -4.62078e-05 7.52433e-08
-4.62078e-05 5.72183e-05 1.22107e-07
7.52433e-08 1.22107e-07 -1.29623e-05
0.00123417 -5.21985e-05 3.16333e-07
-5.21985e-05 6.14338e-05 3.05368e-07
3.16333e-07 3.05368e-07 -1.04387e-05
0.000932015 -4.21238e-06 -6.47763e-10
-4.21238e-06 1.24141e-05 -6.75236e-08
-6.47763e-10 -6.75236e-08 -3.63051e-05
0.000982825 -2.65641e-05 -5.98971e-08
-2.65641e-05 2.82584e-05 -1.49402e-07
-5.98971e-08 -1.49402e-07 -3.80271e-05
0.000938863 -2.08617e-06 -2.21144e-07
-2.08617e-06 8.61443e-06 2.04193e-08
-2.21144e-07 2.04193e-08 -3.45466e-05
0.00162747 1.63002e-05 2.39824e-06
1.63002e-05 0.00018467 -1.46624e-07
2.39824e-06 -1.46624e-07 0.000110844
0.00145795 -5.40642e-06 2.72006e-06
-5.40642e-06 0.00011247 -2.64198e-07
2.72006e-06 -2.64198e-07 4.04984e-05
0.00156366 1.43199e-05 2.30224e-06
1.43199e-05 0.000133336 2.00119e-07
2.30224e-06 2.00119e-07 5.61978e-05
0.00138546 -2.16747e-05 1.61723e-06
-2.16747e-05 5.5822e-05 -9.08721e-07
1.61723e-06 -9.08721e-07 -1.92568e-05
0.00112394 -4.17025e-05 1.22759e-06
-4.17025e-05 -1.92358e-05 -1.16883e-06
1.22759e-06 -1.16883e-06 -8.98583e-05
0.00151549 -3.67085e-05 2.44409e-07
-3.67085e-05 0.000123012 -2.30651e-07
2.44409e-07 -2.30651e-07 5.27944e-05
0.000900058 -1.86486e-06 2.87709e-06
-1.86486e-06 6.75907e-06 -1.90207e-06
2.87709e-06 -1.90207e-06 -4.38813e-05
0.0012517 -4.8221e-05 6.49226e-07
-4.8221e-05 4.69558e-05 -7.12936e-07
6.49226e-07 -7.12936e-07 -2.21686e-05
0.00100898 -3.49866e-05 1.22911e-06
-3.49866e-05 4.7906e-05 -8.38479e-07
1.22911e-06 -8.38479e-07 -1.71011e-05
0.000879431 -4.73597e-05 1.57618e-06
-4.73597e-05 -3.55032e-05 -2.06833e-06
1.57618e-06 -2.06833e-06 -0.000111478
0.00135279 -5.97029e-05 1.79692e-06
-5.97029e-05 0.000149769 -5.99003e-07
1.79692e-06 -5.99003e-07 7.06575e-05
0.00155042 -5.92276e-05 2.30065e-07
-5.92276e-05 0.000207651 5.6019e-07
2.30065e-07 5.6019e-07 0.000138706
0.000942893 5.90191e-06 1.44428e-06
5.90191e-06 8.44701e-06 -2.41424e-06
1.44428e-06 -2.41424e-06 -3.01124e-05
0.00102686 -3.15403e-05 1.77293e-06
-3.15403e-05 5.18151e-05 -7.86972e-07
1.77293e-06 -7.86972e-07 -1.32907e-05
0.000857165 -1.78764e-05 1.68826e-06
-1.78764e-05 -3.21027e-05 -2.03683e-06
1.68826e-06 -2.03683e-06 -9.90613e-05
0.0012236 -4.93499e-05 5.29117e-07
-4.93499e-05 0.000151074 8.12393e-08
5.29117e-07 8.12393e-08 7.66199e-05
0.0010457 2.81207e-05 -3.17188e-06
2.81207e-05 1.45765e-05 -1.87938e-06
-3.17188e-06 -1.87938e-06 -4.53342e-05
0.000829872 -2.02097e-05 -3.60891e-06
-2.02097e-05 -4.48593e-05 -3.7748e-06
-3.60891e-06 -3.7748e-06 -5.59343e-05
0.000787122 -2.50871e-05 -4.52057e-06
-2.50871e-05 -5.03662e-05 -3.64042e-06
-4.52057e-06 -3.64042e-06 -6.58443e-05
0.000937143 3.98428e-06 -2.72214e-06
3.98428e-06 1.0766e-05 -2.25183e-06
-2.72214e-06 -2.25183e-06 -3.4705e-05
0.000921553 2.51287e-05 -2.38041e-06
2.51287e-05 -1.158e-07 -1.56263e-06
-2.38041e-06 -1.56263e-06 -5.60613e-05
0.00113478 4.32417e-05 -1.63931e-06
4.32417e-05 3.93517e-05 -1.43597e-06
-1.63931e-06 -1.43597e-06 -2.91589e-05
0.00090338 -5.94726e-07 -2.77046e-06
-5.94726e-07 1.10855e-05 -1.93296e-06
-2.77046e-06 -1.93296e-06 -3.91443e-05
0.00102529 3.44903e-05 -1.34218e-06
3.44903e-05 5.84756e-05 -1.04292e-06
-1.34218e-06 -1.04292e-06 -8.27467e-06
0.00112146 4.38772e-05 -1.2251e-06
4.38772e-05 7.7318e-05 -8.10471e-07
-1.2251e-06 -8.10471e-07 1.37231e-05
0.000949557 4.66234e-05 -1.50436e-06
4.66234e-05 2.35858e-07 -2.2964e-07
-1.50436e-06 -2.2964e-07 -7.14083e-05
0.000851658 -1.81672e-05 1.3346e-07
-1.81672e-05 -3.84029e-05 1.12296e-08
1.3346e-07 1.12296e-08 -4.75482e-05
0.000931338 2.17278e-06 1.43956e-08
2.17278e-06 1.35888e-05 -3.57926e-08
1.43956e-08 -3.57926e-08 -3.37583e-05
0.000941225 2.67025e-06 5.38433e-08
2.67025e-06 7.61592e-06 2.74233e-09
5.38433e-08 2.74233e-09 -3.5243e-05
0.00102068 1.82193e-05 1.16806e-07
1.82193e-05 4.88487e-05 -1.05626e-07
1.16806e-07 -1.05626e-07 -1.43602e-05
0.00120766 3.67276e-05 3.40101e-07
3.67276e-05 4.68052e-05 1.91196e-07
3.40101e-07 1.91196e-07 -2.28645e-05
0.00109508 4.488e-05 4.68742e-08
4.488e-05 4.77163e-05 1.39319e-08
4.68742e-08 1.39319e-08 -1.81366e-05
0.00121781 4.82643e-05 -8.60026e-09
4.82643e-05 5.62698e-05 2.19151e-07
-8.60026e-09 2.19151e-07 -1.7498e-05
0.00103275 2.96229e-05 -9.28717e-08
2.96229e-05 6.25922e-05 4.24227e-08
-9.28717e-08 4.24227e-08 -2.50491e-06
0.0012202 5.18978e-05 -3.03774e-07
5.18978e-05 0.000113403 -3.54857e-07
-3.03774e-07 -3.54857e-07 4.47831e-05
0.00108905 4.91685e-05 1.69158e-07
4.91685e-05 8.70311e-05 -3.25401e-07
1.69158e-07 -3.25401e-07 1.13813e-05
0.00100883 4.93891e-05 -1.10227e-06
4.93891e-05 2.24372e-05 9.5588e-09
-1.10227e-06 9.5588e-09 -5.08877e-05
0.000874026 -1.62365e-05 2.87647e-06
-1.62365e-05 -3.08093e-05 3.67715e-06
2.87647e-06 3.67715e-06 -3.80658e-05
0.000942765 1.21556e-06 2.21727e-06
1.21556e-06 5.66027e-06 2.37115e-06
2.21727e-06 2.37115e-06 -3.4452e-05
0.00104441 2.54033e-05 1.56383e-06
2.54033e-05 6.14113e-05 7.0577e-07
1.56383e-06 7.0577e-07 -2.0291e-06
0.00102904 1.41467e-05 1.29205e-06
1.41467e-05 5.13749e-05 1.10793e-06
1.29205e-06 1.10793e-06 -1.08226e-05
0.00102378 3.78504e-05 8.93738e-07
3.78504e-05 5.2429e-05 1.14262e-07
8.93738e-07 1.14262e-07 -2.05306e-05
0.00123374 3.73996e-05 1.4922e-06
3.73996e-05 3.37739e-05 1.14398e-06
1.4922e-06 1.14398e-06 -3.98651e-05
0.00116435 5.12597e-05 6.7535e-07
5.12597e-05 6.44372e-05 1.42214e-06
6.7535e-07 1.42214e-06 -6.85975e-06
0.00127167 5.1429e-05 2.99579e-07
5.1429e-05 7.35631e-05 1.64534e-06
2.99579e-07 1.64534e-06 -2.74297e-06
0.00108784 4.59463e-05 1.41244e-06
4.59463e-05 8.97351e-05 1.38666e-06
1.41244e-06 1.38666e-06 1.48715e-05
0.00116959 5.36662e-05 1.13675e-06
5.36662e-05 8.10056e-05 8.42356e-07
1.13675e-06 8.42356e-07 8.22503e-06
0.000825332 4.67397e-05 1.079e-06
4.67397e-05 -5.22674e-05 -1.45091e-07
1.079e-06 -1.45091e-07 -0.000135461
0.00094157 -3.09634e-06 1.32559e-06
-3.09634e-06 2.26325e-06 2.3372e-06
1.32559e-06 2.3372e-06 -3.22147e-05
0.00101856 1.30491e-05 4.78871e-07
1.30491e-05 4.66573e-05 1.37634e-06
4.78871e-07 1.37634e-06 -5.23761e-06
0.000947386 -5.06221e-07 7.79131e-07
-5.06221e-07 2.58912e-06 1.98637e-06
7.79131e-07 1.98637e-06 -2.76014e-05
0.000949456 -1.71013e-06 1.20518e-07
-1.71013e-06 4.74324e-06 2.75575e-08
1.20518e-07 2.75575e-08 -2.72476e-05
0.00149992 -1.53551e-05 2.25046e-06
-1.53551e-05 0.000278328 2.1469e-06
2.25046e-06 2.1469e-06 0.000277811
0.00119135 -1.56692e-05 6.18101e-07
-1.56692e-05 0.000125968 5.34588e-09
6.18101e-07 5.34588e-09 0.000122274
0.00116388 -1.5898e-05 1.40916e-05
-1.5898e-05 0.000113442 6.90589e-06
1.40916e-05 6.90589e-06 0.000126489
0.00247411 -2.57696e-05 4.92966e-07
-2.57696e-05 0.000778994 -5.47949e-08
4.92966e-07 -5.47949e-08 0.000797186
0.00254295 -2.93228e-05 -1.73144e-05
-2.93228e-05 0.000817612 -4.10833e-06
-1.73144e-05 -4.10833e-06 0.000834576
0.000839483 1.88661e-05 2.72727e-06
1.88661e-05 -4.12253e-05 -3.53911e-06
2.72727e-06 -3.53911e-06 -4.9603e-05
0.0025616 3.28716e-05 1.80882e-05
3.28716e-05 0.000834799 -3.92971e-06
1.80882e-05 -3.92971e-06 0.000850224
0.000836279 2.05949e-05 -1.68299e-07
2.05949e-05 -3.82201e-05 2.41128e-08
-1.68299e-07 2.41128e-08 -4.9557e-05
0.00263212 3.61486e-05 -3.02978e-07
3.61486e-05 0.000875795 -8.16094e-08
-3.02978e-07 -8.16094e-08 0.000889456
0.000833506 2.33086e-05 -4.13256e-06
2.33086e-05 -3.32399e-05 3.73913e-06
-4.13256e-06 3.73913e-06 -4.75549e-05
0.00262788 3.95583e-05 -2.07112e-05
3.95583e-05 0.00088143 3.77872e-06
-2.07112e-05 3.77872e-06 0.000893466
0.00109862 2.45402e-05 -3.48569e-06
2.45402e-05 2.21454e-05 -1.86118e-06
-3.48569e-06 -1.86118e-06 -3.93709e-05
0.00114031 9.25172e-06 -4.08638e-06
9.25172e-06 1.42121e-05 -1.48196e-06
-4.08638e-06 -1.48196e-06 -4.88017e-05
0.00130128 1.97447e-05 -2.08678e-06
1.97447e-05 5.42668e-05 -8.93226e-07
-2.08678e-06 -8.93226e-07 -1.6815e-05
0.0013777 -2.98321e-06 -2.83895e-06
-2.98321e-06 6.38787e-05 -8.77825e-07
-2.83895e-06 -8.77825e-07 -1.07785e-05
0.00117944 3.41538e-06 -5.10481e-06
3.41538e-06 6.94197e-06 -1.07489e-06
-5.10481e-06 -1.07489e-06 -5.87737e-05
0.000731011 8.13622e-07 -8.13329e-06
8.13622e-07 -9.31836e-05 9.23645e-08
-8.13329e-06 9.23645e-08 -0.000133395
0.0011757 2.86735e-06 -2.63754e-08
2.86735e-06 2.82921e-06 -2.50227e-07
-2.63754e-08 -2.50227e-07 -6.29744e-05
0.00137279 3.43607e-06 -7.81995e-09
3.43607e-06 4.99964e-05 -1.57584e-07
-7.81995e-09 -1.57584e-07 -2.68731e-05
0.00132358 6.16563e-06 8.95539e-08
6.16563e-06 5.04405e-05 4.43934e-09
8.95539e-08 4.43934e-09 -2.19574e-05
0.00144498 -8.13674e-06 1.82814e-09
-8.13674e-06 7.14305e-05 4.38739e-08
1.82814e-09 4.38739e-08 -5.32791e-06
0.00125259 2.97154e-05 -4.52128e-08
2.97154e-05 4.79527e-05 -1.63706e-08
-4.52128e-08 -1.63706e-08 -2.23368e-05
0.00137619 2.23954e-05 -9.4378e-09
2.23954e-05 6.25903e-05 1.16927e-07
-9.4378e-09 1.16927e-07 -1.04886e-05
0.00137454 7.30173e-06 3.30238e-06
7.30173e-06 4.92228e-05 -3.59737e-07
3.30238e-06 -3.59737e-07 -2.79008e-05
0.0013889 -1.5549e-06 1.8848e-06
-1.5549e-06 3.80118e-05 6.68443e-07
1.8848e-06 6.68443e-07 -4.11281e-05
0.00138704 8.85765e-06 1.63562e-06
8.85765e-06 5.22832e-05 5.83045e-07
1.63562e-06 5.83045e-07 -2.23634e-05
0.00157324 -1.37122e-05 2.20106e-06
-1.37122e-05 0.000118222 4.53257e-07
2.20106e-06 4.53257e-07 4.30508e-05
0.0013202 2.83264e-05 9.35408e-07
2.83264e-05 5.39243e-05 5.53903e-07
9.35408e-07 5.53903e-07 -1.88198e-05
0.00143264 1.41838e-05 -5.22082e-07
1.41838e-05 7.14714e-05 1.00062e-06
-5.22082e-07 1.00062e-06 3.70622e-06
0.000916415 1.23613e-05 -4.95476e-06
1.23613e-05 -0.00011779 6.99497e-07
-4.95476e-06 6.99497e-07 -0.000184001
0.00141653 -7.35064e-06 -5.79618e-06
-7.35064e-06 0.000150082 1.26293e-06
-5.79618e-06 1.26293e-06 8.93096e-05
0.00140421 1.67432e-05 -3.9019e-06
1.67432e-05 8.15323e-05 3.84579e-07
-3.9019e-06 3.84579e-07 8.70948e-06
0.00161364 -2.93262e-05 -2.29741e-06
-2.93262e-05 0.000201552 3.79507e-07
-2.29741e-06 3.79507e-07 0.000130501
0.00082079 2.94845e-05 -4.32571e-06
2.94845e-05 -2.25947e-05 3.38836e-06
-4.32571e-06 3.38836e-06 -4.16431e-05
0.000934728 -6.35209e-06 -2.56898e-06
-6.35209e-06 2.77697e-05 1.81672e-06
-2.56898e-06 1.81672e-06 -2.44819e-05
0.0010025 -3.90265e-05 -9.51729e-07
-3.90265e-05 3.85995e-05 1.07653e-06
-9.51729e-07 1.07653e-06 -2.79996e-05
0.00149841 -4.25002e-05 -2.27175e-06
-4.25002e-05 0.000192006 1.25692e-06
-2.27175e-06 1.25692e-06 0.000124153
0.0012239 -3.41038e-05 -1.559e-06
-3.41038e-05 -2.64062e-06 1.26899e-06
-1.559e-06 1.26899e-06 -7.59646e-05
0.0012417 -4.60996e-05 -1.05736e-06
-4.60996e-05 5.7608e-05 1.07407e-06
-1.05736e-06 1.07407e-06 -1.25374e-05
0.0010378 -5.00501e-05 -1.7437e-06
-5.00501e-05 1.03982e-05 1.43865e-06
-1.7437e-06 1.43865e-06 -6.553e-05
0.00113284 -5.01353e-05 -5.52882e-07
-5.01353e-05 1.21056e-05 5.10458e-07
-5.52882e-07 5.10458e-07 -5.98097e-05
0.000937202 -4.22504e-06 -2.92085e-06
-4.22504e-06 1.39433e-05 1.9251e-06
-2.92085e-06 1.9251e-06 -3.45494e-05
0.000933308 -2.52591e-05 -1.82422e-06
-2.52591e-05 2.17342e-06 8.98961e-07
-1.82422e-06 8.98961e-07 -6.42135e-05
0.000933184 -1.70034e-06 -2.43273e-06
-1.70034e-06 5.8053e-06 2.43969e-06
-2.43273e-06 2.43969e-06 -3.73549e-05
0.00148621 1.66243e-05 -8.32887e-07
1.66243e-05 0.000114156 2.75464e-07
-8.32887e-07 2.75464e-07 3.93749e-05
0.00145037 -1.08506e-05 -3.42509e-07
-1.08506e-05 0.000107944 1.08756e-08
-3.42509e-07 1.08756e-08 3.61382e-05
0.00144792 1.6518e-05 -3.86884e-07
1.6518e-05 7.543e-05 1.15288e-07
-3.86884e-07 1.15288e-07 -2.26628e-06
0.00148343 -2.05595e-05 -1.38267e-08
-2.05595e-05 0.000103132 -3.10497e-07
-1.38267e-08 -3.10497e-07 2.83034e-05
0.000919436 -2.91528e-06 9.01473e-08
-2.91528e-06 1.45879e-05 -5.23445e-08
9.01473e-08 -5.23445e-08 -3.57947e-05
0.00103768 -3.57318e-05 4.93793e-08
-3.57318e-05 6.10558e-05 7.04636e-08
4.93793e-08 7.04636e-08 -3.95991e-06
0.000973537 -4.90968e-05 2.7709e-07
-4.90968e-05 1.2714e-05 -3.73625e-07
2.7709e-07 -3.73625e-07 -6.26851e-05
0.00129844 -4.40837e-05 -4.70447e-08
-4.40837e-05 6.66972e-05 -1.74185e-07
-4.70447e-08 -1.74185e-07 -3.85714e-06
0.00139641 -3.54459e-05 3.16758e-07
-3.54459e-05 6.44187e-05 6.93597e-07
3.16758e-07 6.93597e-07 -4.91735e-06
0.00120129 -5.68874e-05 6.30731e-08
-5.68874e-05 7.71083e-05 1.1678e-07
6.30731e-08 1.1678e-07 -2.97077e-06
0.00126164 -4.78268e-05 4.07152e-08
-4.78268e-05 5.16937e-05 2.08697e-07
4.07152e-08 2.08697e-07 -1.73359e-05
0.00140318 -5.62081e-05 5.21895e-07
-5.62081e-05 0.000135568 3.54684e-07
5.21895e-07 3.54684e-07 6.73847e-05
0.00104099 -3.17746e-05 1.02005e-07
-3.17746e-05 5.78846e-05 -9.07784e-08
1.02005e-07 -9.07784e-08 -7.02112e-06
0.00112847 -4.71298e-05 -3.53858e-07
-4.71298e-05 0.000102735 1.95692e-07
-3.53858e-07 1.95692e-07 2.79262e-05
0.000933452 4.65943e-06 -1.43584e-07
4.65943e-06 4.22756e-06 7.86769e-08
-1.43584e-07 7.86769e-08 -3.44595e-05
0.000885617 -1.72495e-05 3.09249e-07
-1.72495e-05 -1.85051e-05 -5.04621e-07
3.09249e-07 -5.04621e-07 -8.50671e-05
0.00146867 1.724e-05 2.74329e-06
1.724e-05 8.28313e-05 -2.49427e-08
2.74329e-06 -2.49427e-08 3.28638e-06
0.00158749 -3.45779e-06 2.12046e-06
-3.45779e-06 0.00014078 6.32567e-08
2.12046e-06 6.32567e-08 6.46158e-05
0.00148411 1.89938e-05 2.07744e-06
1.89938e-05 7.9222e-05 3.51265e-07
2.07744e-06 3.51265e-07 -7.24421e-07
0.00137358 -1.62136e-05 8.79223e-07
-1.62136e-05 3.05084e-05 -1.47341e-06
8.79223e-07 -1.47341e-06 -4.246e-05
0.00121044 -4.31131e-05 3.32294e-07
-4.31131e-05 5.66658e-06 -6.75616e-07
3.32294e-07 -6.75616e-07 -6.21112e-05
0.00158714 -3.4786e-05 1.66968e-06
-3.4786e-05 0.00013885 -6.44221e-07
1.66968e-06 -6.44221e-07 7.48667e-05
0.00101305 -3.16355e-05 1.41191e-06
-3.16355e-05 4.87549e-05 -6.26547e-07
1.41191e-06 -6.26547e-07 -1.55893e-05
0.00125067 -4.79528e-05 -2.14281e-07
-4.79528e-05 3.67073e-05 -3.19907e-07
-2.14281e-07 -3.19907e-07 -2.62674e-05
0.000861005 -4.49162e-05 8.34821e-07
-4.49162e-05 -3.00664e-05 -1.42244e-06
8.34821e-07 -1.42244e-06 -0.00010302
0.0011273 -5.61162e-05 1.79526e-06
-5.61162e-05 7.88195e-05 -1.97985e-06
1.79526e-06 -1.97985e-06 -4.5071e-06
0.00125228 -6.07419e-05 2.18126e-06
-6.07419e-05 9.15534e-05 5.44197e-07
2.18126e-06 5.44197e-07 8.91108e-06
0.00162949 -6.07998e-05 1.19526e-06
-6.07998e-05 0.00023577 -2.23889e-07
1.19526e-06 -2.23889e-07 0.000168327
0.000933211 9.68657e-06 1.00199e-06
9.68657e-06 2.27317e-06 -2.24652e-06
1.00199e-06 -2.24652e-06 -3.28288e-05
0.000817833 -1.11526e-05 1.23862e-06
-1.11526e-05 -5.12818e-05 -2.23375e-06
1.23862e-06 -2.23375e-06 -0.000114736
0.0010578 -4.59982e-05 8.51298e-07
-4.59982e-05 6.52369e-05 2.27022e-08
8.51298e-07 2.27022e-08 -6.72281e-06
0.0010702 -4.48519e-05 1.11602e-06
-4.48519e-05 8.10677e-05 -4.81733e-07
1.11602e-06 -4.81733e-07 2.53367e-06
0.00121646 -5.19078e-05 5.47193e-07
-5.19078e-05 0.000142817 4.65107e-07
5.47193e-07 4.65107e-07 6.56411e-05
0.000842806 -1.7901e-05 -3.10832e-06
-1.7901e-05 -4.31646e-05 -3.73933e-06
-3.10832e-06 -3.73933e-06 -5.2146e-05
0.00122633 3.7335e-05 -1.43634e-06
3.7335e-05 5.55741e-05 -9.40379e-07
-1.43634e-06 -9.40379e-07 -1.41655e-05
0.000939063 -1.16463e-08 -2.30405e-06
-1.16463e-08 6.69212e-06 -2.39121e-06
-2.30405e-06 -2.39121e-06 -3.61031e-05
0.000926504 2.08926e-06 -2.91412e-06
2.08926e-06 1.24926e-05 -2.03151e-06
-2.91412e-06 -2.03151e-06 -3.50701e-05
0.0010079 1.74653e-05 -1.32684e-06
1.74653e-05 4.30832e-05 -9.86921e-07
-1.32684e-06 -9.86921e-07 -2.02289e-05
0.00107022 4.4726e-05 -1.38278e-06
4.4726e-05 3.63459e-05 -1.42362e-06
-1.38278e-06 -1.42362e-06 -2.94747e-05
0.00120717 4.80699e-05 -8.95135e-07
4.80699e-05 5.14953e-05 -1.13252e-06
-8.95135e-07 -1.13252e-06 -2.22909e-05
0.00101178 2.87625e-05 -1.327e-06
2.87625e-05 5.32085e-05 -7.48316e-07
-1.327e-06 -7.48316e-07 -1.18871e-05
0.00110817 4.99364e-05 -1.13709e-06
4.99364e-05 9.60755e-05 -1.03214e-06
-1.13709e-06 -1.03214e-06 2.01777e-05
0.0013152 5.38752e-05 -1.21468e-06
5.38752e-05 0.000160548 -1.15233e-06
-1.21468e-06 -1.15233e-06 9.2309e-05
0.00103127 4.97116e-05 -2.33346e-06
4.97116e-05 3.53765e-05 2.54899e-07
-2.33346e-06 2.54899e-07 -3.67368e-05
0.000862964 -1.60313e-05 1.41201e-07
-1.60313e-05 -3.64688e-05 2.11509e-08
1.41201e-07 2.11509e-08 -4.35842e-05
0.000941327 2.19944e-07 5.09918e-08
2.19944e-07 4.70745e-06 1.70091e-08
5.09918e-08 1.70091e-08 -3.53096e-05
0.00103135 2.43941e-05 -3.04584e-08
2.43941e-05 5.58034e-05 -4.18322e-08
-3.04584e-08 -4.18322e-08 -7.70515e-06
0.00101702 1.38932e-05 3.98399e-08
1.38932e-05 4.60655e-05 -5.17378e-08
3.98399e-08 -5.17378e-08 -1.62751e-05
0.000996421 3.67457e-05 6.8567e-08
3.67457e-05 3.86805e-05 -1.42497e-07
6.8567e-08 -1.42497e-07 -3.42937e-05
0.00127504 3.84208e-05 4.71629e-07
3.84208e-05 5.29137e-05 3.26996e-07
4.71629e-07 3.26996e-07 -2.07727e-05
0.00115353 5.12807e-05 1.11316e-07
5.12807e-05 5.95702e-05 -6.92387e-08
1.11316e-07 -6.92387e-08 -1.175e-05
0.0012351 5.17641e-05 5.29831e-07
5.17641e-05 5.56919e-05 3.78908e-07
5.29831e-07 3.78908e-07 -2.09546e-05
0.00107295 4.62287e-05 4.52137e-07
4.62287e-05 8.3144e-05 4.21093e-07
4.52137e-07 4.21093e-07 8.29319e-06
0.00122284 5.43966e-05 7.97484e-08
5.43966e-05 0.000107574 -3.17637e-07
7.97484e-08 -3.17637e-07 3.51538e-05
0.000984771 5.02882e-05 -7.58065e-07
5.02882e-05 2.40678e-05 -4.23129e-07
-7.58065e-07 -4.23129e-07 -5.83896e-05
0.000939899 -3.19819e-07 1.81002e-06
-3.19819e-07 2.82903e-06 2.41603e-06
1.81002e-06 2.41603e-06 -3.44567e-05
0.00102355 1.37893e-05 1.20113e-06
1.37893e-05 4.73662e-05 1.29671e-06
1.20113e-06 1.29671e-06 -1.32555e-05
0.00103229 4.20697e-05 6.71061e-07
4.20697e-05 5.5722e-05 2.08399e-07
6.71061e-07 2.08399e-07 -1.71919e-05
0.00105563 3.51222e-05 7.24095e-07
3.51222e-05 6.87894e-05 3.89975e-07
7.24095e-07 3.89975e-07 -4.30407e-06
0.00110897 4.64944e-05 2.59542e-08
4.64944e-05 9.49991e-05 -3.254e-07
2.59542e-08 -3.254e-07 1.77109e-05
0.00124118 3.69472e-05 -3.59396e-07
3.69472e-05 2.42098e-05 2.94219e-07
-3.59396e-07 2.94219e-07 -4.98154e-05
0.00118364 5.59596e-05 1.05215e-06
5.59596e-05 6.58148e-05 1.37874e-06
1.05215e-06 1.37874e-06 -9.02867e-06
0.00106085 5.47101e-05 1.3257e-07
5.47101e-05 -2.69388e-05 8.04834e-07
1.3257e-07 8.04834e-07 -0.000102986
0.00106057 5.12901e-05 7.75386e-07
5.12901e-05 7.64151e-05 1.71437e-06
7.75386e-07 1.71437e-06 -7.06552e-06
0.00118271 5.72886e-05 2.13814e-06
5.72886e-05 9.64542e-05 4.83802e-07
2.13814e-06 4.83802e-07 1.08291e-05
0.000943768 -2.43471e-06 1.67181e-07
-2.43471e-06 3.2055e-06 3.24842e-08
1.67181e-07 3.24842e-08 -3.11885e-05
0.000853423 7.6582e-06 9.36696e-07
7.6582e-06 -3.80632e-05 2.03173e-06
9.36696e-07 2.03173e-06 -9.47756e-05
0.000927742 7.97066e-06 -1.48912e-07
7.97066e-06 6.79142e-07 6.46828e-08
-1.48912e-07 6.46828e-08 -5.20153e-05
0.00121365 2.90465e-05 2.95511e-07
2.90465e-05 0.000152446 3.77745e-07
2.95511e-07 3.77745e-07 8.68455e-05
0.000987335 8.85697e-06 5.10031e-07
8.85697e-06 3.29332e-05 1.25791e-06
5.10031e-07 1.25791e-06 -1.71524e-05
0.000957915 3.18817e-06 6.87467e-07
3.18817e-06 7.09307e-06 1.89984e-06
6.87467e-07 1.89984e-06 -2.19101e-05
0.000956531 -8.57679e-07 1.06548e-07
-8.57679e-07 7.38273e-06 1.53583e-08
1.06548e-07 1.53583e-08 -2.28558e-05
0.00148965 -1.27956e-05 1.77185e-06
-1.27956e-05 0.000269742 2.07e-06
1.77185e-06 2.07e-06 0.000270705
0.000954461 -4.82957e-09 -1.02809e-06
-4.82957e-09 7.352e-06 -2.06522e-06
-1.02809e-06 -2.06522e-06 -2.46289e-05
0.00151683 -1.45067e-05 -2.38124e-06
-1.45067e-05 0.000286748 -1.28206e-06
-2.38124e-06 -1.28206e-06 0.000286359
0.00116149 -1.37665e-05 1.20613e-05
-1.37665e-05 0.000107628 6.72613e-06
1.20613e-05 6.72613e-06 0.000122131
0.00151332 -1.6055e-05 -6.66416e-06
-1.6055e-05 0.000288506 -3.41522e-06
-6.66416e-06 -3.41522e-06 0.000286576
0.00176995 -1.92814e-05 1.00449e-05
-1.92814e-05 0.000419567 2.42621e-06
1.00449e-05 2.42621e-06 0.000435881
0.00248033 -2.59063e-05 -1.55231e-05
-2.59063e-05 0.000781749 -4.11062e-06
-1.55231e-05 -4.11062e-06 0.000800044
0.000851719 1.75721e-05 2.25872e-06
1.75721e-05 -3.92878e-05 -3.35526e-06
2.25872e-06 -3.35526e-06 -4.52505e-05
0.000853087 1.90221e-05 -1.69094e-07
1.90221e-05 -3.44272e-05 3.54575e-08
-1.69094e-07 3.54575e-08 -4.29762e-05
0.00246433 2.95314e-05 1.61356e-05
2.95314e-05 0.000780935 -3.89509e-06
1.61356e-05 -3.89509e-06 0.000798045
0.00255986 3.26983e-05 -3.47414e-07
3.26983e-05 0.000834299 -6.79765e-08
-3.47414e-07 -6.79765e-08 0.000849563
0.000849736 2.09928e-05 -3.59294e-06
2.09928e-05 -3.10611e-05 3.7706e-06
-3.59294e-06 3.7706e-06 -4.2639e-05
0.00261265 3.60524e-05 -2.01853e-05
3.60524e-05 0.000866765 3.97749e-06
-2.01853e-05 3.97749e-06 0.000880295
0.00126366 2.99682e-05 -1.90248e-06
2.99682e-05 5.31513e-05 -9.68793e-07
-1.90248e-06 -9.68793e-07 -1.71896e-05
0.00133515 6.06781e-06 -2.41657e-06
6.06781e-06 5.62089e-05 -8.74009e-07
-2.41657e-06 -8.74009e-07 -1.61911e-05
0.00138559 2.27436e-05 -1.19516e-06
2.27436e-05 6.74227e-05 -5.52256e-07
-1.19516e-06 -5.52256e-07 -5.68716e-06
0.00143925 -9.01641e-06 -1.92303e-06
-9.01641e-06 6.74144e-05 -5.59017e-07
-1.92303e-06 -5.59017e-07 -9.45774e-06
0.00139406 6.62672e-06 -3.02504e-06
6.62672e-06 6.03444e-05 -7.98159e-07
-3.02504e-06 -7.98159e-07 -1.65542e-05
0.00117622 7.37297e-06 -5.11286e-06
7.37297e-06 2.7774e-06 -8.4778e-08
-5.11286e-06 -8.4778e-08 -6.30415e-05
0.00138311 1.16475e-05 4.63273e-08
1.16475e-05 5.34464e-05 -3.07117e-07
4.63273e-08 -3.07117e-07 -2.37159e-05
0.00142015 -8.86875e-06 3.86941e-08
-8.86875e-06 5.24069e-05 7.19867e-08
3.86941e-08 7.19867e-08 -2.70963e-05
0.00140659 7.58926e-06 6.15472e-08
7.58926e-06 6.20204e-05 -7.14975e-08
6.15472e-08 -7.14975e-08 -1.26025e-05
0.00155533 -1.46292e-05 1.17456e-07
-1.46292e-05 0.000108902 -1.83908e-07
1.17456e-07 -1.83908e-07 3.3747e-05
0.00132877 2.91415e-05 -3.81007e-08
2.91415e-05 5.79167e-05 2.4766e-09
-3.81007e-08 2.4766e-09 -1.49749e-05
0.00142722 1.41825e-05 -8.82739e-08
1.41825e-05 6.75535e-05 7.6699e-07
-8.82739e-08 7.6699e-07 2.00134e-07
0.00145187 1.85826e-06 2.52962e-06
1.85826e-06 6.81366e-05 -1.38962e-07
2.52962e-06 -1.38962e-07 -1.23706e-05
0.00144364 -2.24998e-06 2.01011e-06
-2.24998e-06 5.85309e-05 3.56007e-07
2.01011e-06 3.56007e-07 -2.09433e-05
0.00128254 5.86642e-07 1.13067e-06
5.86642e-07 -2.08658e-05 1.6333e-06
1.13067e-06 1.6333e-06 -9.15942e-05
0.00177034 -2.07569e-05 2.17251e-06
-2.07569e-05 0.000205819 3.86355e-07
2.17251e-06 3.86355e-07 0.000130949
0.00129242 2.47104e-05 -3.50192e-07
2.47104e-05 2.10588e-05 -9.70585e-08
-3.50192e-07 -9.70585e-08 -4.86283e-05
0.00165011 8.02435e-06 7.63212e-07
8.02435e-06 0.00015695 7.13122e-07
7.63212e-07 7.13122e-07 9.58123e-05
0.00133403 1.60613e-05 -3.94537e-06
1.60613e-05 3.8301e-05 5.8151e-07
-3.94537e-06 5.8151e-07 -3.74128e-05
0.00144304 -1.29513e-05 -3.39579e-06
-1.29513e-05 0.000103805 3.796e-07
-3.39579e-06 3.796e-07 3.21021e-05
0.00133918 1.66653e-05 -2.94288e-06
1.66653e-05 2.08658e-05 -3.47172e-08
-2.94288e-06 -3.47172e-08 -5.73753e-05
0.00157714 -1.97734e-05 -1.88313e-06
-1.97734e-05 0.000148306 2.53316e-07
-1.88313e-06 2.53316e-07 7.37495e-05
0.000935694 -3.94077e-06 -2.73812e-06
-3.94077e-06 2.09542e-05 1.76185e-06
-2.73812e-06 1.76185e-06 -2.91797e-05
0.00106735 -3.67178e-05 -1.36586e-06
-3.67178e-05 7.47007e-05 1.09792e-06
-1.36586e-06 1.09792e-06 9.6572e-06
0.00105708 -5.05557e-05 -8.14224e-07
-5.05557e-05 5.59504e-05 1.26308e-06
-8.14224e-07 1.26308e-06 -1.88745e-05
0.00147379 -4.64191e-05 -1.11342e-06
-4.64191e-05 0.000153044 8.37788e-07
-1.11342e-06 8.37788e-07 8.25603e-05
0.00127759 -3.41341e-05 -6.04707e-07
-3.41341e-05 5.91044e-06 1.18675e-06
-6.04707e-07 1.18675e-06 -6.25365e-05
0.00127301 -4.74912e-05 -4.07362e-07
-4.74912e-05 5.7134e-05 1.0764e-06
-4.07362e-07 1.0764e-06 -1.18053e-05
0.00105836 -5.42373e-05 -1.71919e-06
-5.42373e-05 8.54165e-06 1.12412e-06
-1.71919e-06 1.12412e-06 -7.25077e-05
0.00125378 -5.31587e-05 8.05382e-09
-5.31587e-05 6.22953e-05 -8.43061e-07
8.05382e-09 -8.43061e-07 -5.10698e-06
0.00105456 -3.20808e-05 -1.61327e-06
-3.20808e-05 6.36985e-05 6.57813e-07
-1.61327e-06 6.57813e-07 -1.00974e-06
0.00103417 -4.49531e-05 -1.60153e-06
-4.49531e-05 5.47761e-05 2.60261e-07
-1.60153e-06 2.60261e-07 -2.03868e-05
0.000921965 3.7944e-06 -1.85453e-06
3.7944e-06 -1.00247e-06 2.44428e-06
-1.85453e-06 2.44428e-06 -3.9839e-05
0.000913155 -1.59124e-05 -9.95631e-07
-1.59124e-05 -5.38616e-06 1.06209e-06
-9.95631e-07 1.06209e-06 -7.15334e-05
0.00145923 1.756e-05 -7.88298e-08
1.756e-05 7.8511e-05 8.24667e-08
-7.88298e-08 8.24667e-08 -9.62551e-07
0.00157187 -1.19099e-06 -2.56536e-07
-1.19099e-06 0.000133937 1.22685e-07
-2.56536e-07 1.22685e-07 5.78809e-05
0.00144974 1.89918e-05 -6.14764e-07
1.89918e-05 6.337e-05 1.00326e-07
-6.14764e-07 1.00326e-07 -1.68135e-05
0.00143205 -1.69874e-05 -2.24025e-07
-1.69874e-05 5.91626e-05 -2.09908e-07
-2.24025e-07 -2.09908e-07 -1.36905e-05
0.00103794 -3.29461e-05 9.07611e-08
-3.29461e-05 5.98495e-05 -2.64706e-08
9.07611e-08 -2.64706e-08 -4.41933e-06
0.00093152 -4.58273e-05 2.8645e-07
-4.58273e-05 5.45439e-06 -1.60203e-07
2.8645e-07 -1.60203e-07 -6.69113e-05
0.00113369 -5.61673e-05 3.69546e-08
-5.61673e-05 8.30823e-05 -1.18391e-07
3.69546e-08 -1.18391e-07 -4.84272e-07
0.00133326 -4.4481e-05 -4.61326e-07
-4.4481e-05 6.55465e-05 -1.01847e-07
-4.61326e-07 -1.01847e-07 -2.84554e-06
0.00141925 -3.41875e-05 4.08778e-07
-3.41875e-05 6.30882e-05 5.66861e-07
4.08778e-07 5.66861e-07 7.43266e-07
0.00126117 -6.07099e-05 -7.31347e-08
-6.07099e-05 9.7062e-05 4.18978e-07
-7.31347e-08 4.18978e-07 1.37606e-05
0.00127141 -4.78819e-05 1.93752e-08
-4.78819e-05 4.75665e-05 4.32769e-07
1.93752e-08 4.32769e-07 -1.54191e-05
0.00136513 -5.59945e-05 5.80033e-07
-5.59945e-05 0.000106343 -1.52495e-06
5.80033e-07 -1.52495e-06 4.10476e-05
0.00107775 -4.63376e-05 1.27103e-07
-4.63376e-05 7.47009e-05 1.31358e-08
1.27103e-07 1.31358e-08 2.76407e-06
0.0011499 -5.03359e-05 -5.56462e-08
-5.03359e-05 0.000109004 6.66617e-08
-5.56462e-08 6.66617e-08 3.19179e-05
0.00108485 -4.47948e-05 -1.31093e-07
-4.47948e-05 8.8643e-05 2.13066e-07
-1.31093e-07 2.13066e-07 9.81065e-06
0.000790967 1.27769e-05 -3.43692e-07
1.27769e-05 -6.89792e-05 3.0074e-08
-3.43692e-07 3.0074e-08 -0.000105159
0.000858258 -8.92348e-06 3.22019e-07
-8.92348e-06 -3.24936e-05 -5.06778e-07
3.22019e-07 -5.06778e-07 -9.52133e-05
0.00153543 2.39594e-05 2.3396e-06
2.39594e-05 0.000104079 3.45707e-07
2.3396e-06 3.45707e-07 2.2376e-05
0.0015028 1.2765e-05 2.46603e-06
1.2765e-05 7.52549e-05 1.34346e-07
2.46603e-06 1.34346e-07 -4.33529e-06
0.00146226 -1.97246e-05 1.91033e-06
-1.97246e-05 5.70308e-05 -2.27036e-06
1.91033e-06 -2.27036e-06 -9.79724e-06
0.0012637 -3.89525e-05 1.12946e-06
-3.89525e-05 5.10144e-06 -1.37509e-06
1.12946e-06 -1.37509e-06 -5.49731e-05
0.00105518 -4.71012e-05 5.62812e-07
-4.71012e-05 6.59823e-05 -2.85837e-07
5.62812e-07 -2.85837e-07 -4.70672e-06
0.00154732 -5.37272e-05 1.07418e-06
-5.37272e-05 0.000160745 -5.43952e-07
1.07418e-06 -5.43952e-07 0.000104698
0.000728881 -4.4537e-05 1.01085e-06
-4.4537e-05 -9.3173e-05 -2.30851e-06
1.01085e-06 -2.30851e-06 -0.000172487
0.00120223 -6.13035e-05 2.62353e-06
-6.13035e-05 0.000106321 -1.96669e-06
2.62353e-06 -1.96669e-06 1.39491e-05
0.00136308 -6.42668e-05 2.47075e-06
-6.42668e-05 0.000129838 5.58446e-07
2.47075e-06 5.58446e-07 4.52127e-05
0.000686749 1.21324e-05 8.82865e-07
1.21324e-05 -0.000124293 -2.76383e-06
8.82865e-07 -2.76383e-06 -0.000158333
0.00108312 -3.71538e-06 8.75833e-07
-3.71538e-06 8.04755e-05 -1.43835e-06
8.75833e-07 -1.43835e-06 2.3664e-05
0.00103241 -4.08337e-05 8.27769e-07
-4.08337e-05 6.53142e-05 -9.3263e-07
8.27769e-07 -9.3263e-07 -1.09585e-05
0.00108475 -4.88907e-05 4.59516e-07
-4.88907e-05 7.53037e-05 1.1551e-07
4.59516e-07 1.1551e-07 1.15299e-06
0.00114818 -5.03042e-05 9.46439e-07
-5.03042e-05 0.000118596 3.24063e-07
9.46439e-07 3.24063e-07 3.29114e-05
0.0010992 -5.01689e-05 3.16989e-07
-5.01689e-05 7.92919e-05 2.0903e-08
3.16989e-07 2.0903e-08 1.78351e-07
0.000852859 -1.58411e-05 -2.59392e-06
-1.58411e-05 -4.16258e-05 -3.66256e-06
-2.59392e-06 -3.66256e-06 -4.86064e-05
0.000942126 -2.27417e-07 -2.06407e-06
-2.27417e-07 4.93685e-06 -2.47754e-06
-2.06407e-06 -2.47754e-06 -3.50513e-05
0.00131733 3.95425e-05 -7.00911e-07
3.95425e-05 7.24903e-05 -5.33747e-07
-7.00911e-07 -5.33747e-07 -1.24181e-06
0.00100249 1.33604e-05 -1.27207e-06
1.33604e-05 3.95022e-05 -1.24031e-06
-1.27207e-06 -1.24031e-06 -2.29725e-05
0.0010152 2.47043e-05 -1.49489e-06
2.47043e-05 4.87389e-05 -6.98844e-07
-1.49489e-06 -6.98844e-07 -1.48544e-05
0.000968649 3.55249e-05 -5.8757e-07
3.55249e-05 2.4704e-05 -2.59719e-07
-5.8757e-07 -2.59719e-07 -4.82704e-05
0.00114291 5.12597e-05 -6.83987e-07
5.12597e-05 5.48036e-05 -1.62233e-06
-6.83987e-07 -1.62233e-06 -1.6537e-05
0.00119864 5.19882e-05 -2.25131e-07
5.19882e-05 3.78813e-05 -1.07075e-06
-2.25131e-07 -1.07075e-06 -3.90974e-05
0.00105126 4.6343e-05 -3.75804e-07
4.6343e-05 7.31539e-05 -4.76527e-07
-3.75804e-07 -4.76527e-07 -1.66326e-06
0.00113919 5.36878e-05 -1.35263e-06
5.36878e-05 9.80004e-05 -5.17831e-07
-1.35263e-06 -5.17831e-07 1.62819e-05
0.00127513 5.51258e-05 -1.67007e-06
5.51258e-05 0.000133812 -1.02333e-06
-1.67007e-06 -1.02333e-06 6.17364e-05
0.000942855 -7.86273e-07 1.85775e-07
-7.86273e-07 4.01763e-06 2.51082e-08
1.85775e-07 2.51082e-08 -3.31878e-05
0.00101787 1.38627e-05 3.21335e-09
1.38627e-05 4.49708e-05 -5.7634e-08
3.21335e-09 -5.7634e-08 -1.57996e-05
0.0010537 4.28157e-05 -1.55492e-07
4.28157e-05 6.6859e-05 -1.46296e-07
-1.55492e-07 -1.46296e-07 -5.61583e-06
0.00105741 3.60309e-05 -8.6384e-08
3.60309e-05 7.01417e-05 -2.37926e-08
-8.6384e-08 -2.37926e-08 -3.19027e-06
0.00104869 4.5399e-05 -2.96239e-07
4.5399e-05 6.56222e-05 -3.58323e-08
-2.96239e-07 -3.58323e-08 -1.20608e-05
0.00129155 3.90867e-05 -3.51941e-07
3.90867e-05 4.92351e-05 -8.18805e-08
-3.51941e-07 -8.18805e-08 -2.52425e-05
0.00118572 5.57144e-05 4.96579e-07
5.57144e-05 6.5696e-05 -1.31549e-07
4.96579e-07 -1.31549e-07 -9.22376e-06
0.00116518 5.55399e-05 2.4254e-07
5.55399e-05 2.18564e-05 4.34776e-07
2.4254e-07 4.34776e-07 -5.38834e-05
0.000963432 4.91719e-05 3.84084e-07
4.91719e-05 2.87143e-05 6.18245e-07
3.84084e-07 6.18245e-07 -5.51886e-05
0.00120666 5.80077e-05 -3.67525e-08
5.80077e-05 0.000108632 -1.85581e-07
-3.67525e-08 -1.85581e-07 2.15893e-05
0.00101831 1.47503e-05 1.12086e-06
1.47503e-05 4.46208e-05 1.47768e-06
1.12086e-06 1.47768e-06 -1.39239e-05
0.000938579 3.53013e-05 1.28961e-06
3.53013e-05 9.91496e-06 8.68174e-07
1.28961e-06 8.68174e-07 -6.42821e-05
0.00111223 5.15599e-05 3.36277e-08
5.15599e-05 9.5996e-05 3.32721e-07
3.36277e-08 3.32721e-07 1.64158e-05
0.000961051 4.32504e-05 3.83753e-07
4.32504e-05 2.11614e-05 -5.64066e-08
3.83753e-07 -5.64066e-08 -5.84206e-05
0.00109094 4.90439e-05 -1.4982e-07
4.90439e-05 8.04785e-05 -2.6384e-07
-1.4982e-07 -2.6384e-07 -7.17487e-08
0.00125772 4.03723e-05 4.80105e-07
4.03723e-05 1.12712e-06 3.68762e-07
4.80105e-07 3.68762e-07 -6.05219e-05
0.00132481 6.35305e-05 1.36803e-06
6.35305e-05 0.000133093 6.91838e-07
1.36803e-06 6.91838e-07 4.84598e-05
0.000626492 5.03662e-05 1.01768e-06
5.03662e-05 -0.000254269 1.0437e-06
1.01768e-06 1.0437e-06 -0.000331993
0.00139159 6.07524e-05 2.14103e-06
6.07524e-05 0.000227748 2.56325e-06
2.14103e-06 2.56325e-06 0.00013784
0.000604622 4.86787e-05 5.99222e-07
4.86787e-05 -0.000190446 7.3962e-07
5.99222e-07 7.3962e-07 -0.000288667
0.00094711 -1.30205e-06 -1.19242e-06
-1.30205e-06 4.71359e-06 -2.27191e-06
-1.19242e-06 -2.27191e-06 -2.96095e-05
0.000919568 1.05292e-05 4.44587e-07
1.05292e-05 -3.99152e-06 5.8019e-07
4.44587e-07 5.8019e-07 -6.04741e-05
0.000924185 2.6177e-05 8.20372e-07
2.6177e-05 5.49131e-06 1.29278e-06
8.20372e-07 1.29278e-06 -6.53612e-05
0.00084029 7.0422e-07 -3.66491e-07
7.0422e-07 -4.37521e-05 -1.38086e-06
-3.66491e-07 -1.38086e-06 -9.71914e-05
0.000991835 1.07733e-05 4.37998e-08
1.07733e-05 3.51553e-05 3.43933e-08
4.37998e-08 3.43933e-08 -1.49668e-05
0.0010724 2.33359e-05 -1.90117e-07
2.33359e-05 8.05301e-05 -5.58662e-07
-1.90117e-07 -5.58662e-07 1.40819e-05
0.00117391 3.9018e-05 2.65661e-07
3.9018e-05 0.000136194 2.5543e-07
2.65661e-07 2.5543e-07 5.93995e-05
0.000899996 7.24332e-06 2.13267e-07
7.24332e-06 -6.23409e-06 1.37082e-06
2.13267e-07 1.37082e-06 -7.17036e-05
0.000978977 -4.73354e-06 2.04812e-07
-4.73354e-06 3.03717e-05 1.18334e-06
2.04812e-07 1.18334e-06 -1.81756e-05
0.000968192 5.95403e-06 6.19579e-07
5.95403e-06 1.16911e-05 1.83457e-06
6.19579e-07 1.83457e-06 -1.66513e-05
0.000961911 -1.73489e-06 -8.18904e-08
-1.73489e-06 9.28479e-06 1.83253e-08
-8.18904e-08 1.83253e-08 -1.97498e-05
0.00147955 -9.97425e-06 1.32343e-06
-9.97425e-06 0.000261372 2.01855e-06
1.32343e-06 2.01855e-06 0.000263592
0.000964405 -8.4735e-07 -6.01386e-07
-8.4735e-07 1.15035e-05 -1.94454e-06
-6.01386e-07 -1.94454e-06 -1.87561e-05
0.00150386 -1.20726e-05 -1.95213e-06
-1.20726e-05 0.000276957 -1.26232e-06
-1.95213e-06 -1.26232e-06 0.000277996
0.00115457 -1.15781e-05 9.82496e-06
-1.15781e-05 0.000100011 6.62303e-06
9.82496e-06 6.62303e-06 0.00011574
0.00153282 -1.38836e-05 -6.0679e-06
-1.38836e-05 0.000294712 -4.6362e-06
-6.0679e-06 -4.6362e-06 0.000294432
0.00110236 -1.45426e-05 3.94518e-06
-1.45426e-05 7.79971e-05 2.55281e-06
3.94518e-06 2.55281e-06 9.25759e-05
0.0023647 -2.48509e-05 -4.98377e-06
-2.48509e-05 0.000720046 -1.7124e-06
-4.98377e-06 -1.7124e-06 0.000739512
0.000860515 1.58725e-05 1.90546e-06
1.58725e-05 -3.93936e-05 -3.28591e-06
1.90546e-06 -3.28591e-06 -4.339e-05
0.000866947 1.76085e-05 -1.26548e-07
1.76085e-05 -3.19457e-05 4.03691e-08
-1.26548e-07 4.03691e-08 -3.80084e-05
0.00238496 2.61893e-05 1.42103e-05
2.61893e-05 0.00073566 -3.88697e-06
1.42103e-05 -3.88697e-06 0.000754358
0.00086582 1.91809e-05 -3.08587e-06
1.91809e-05 -2.80644e-05 3.62035e-06
-3.08587e-06 3.62035e-06 -3.6782e-05
0.00247124 2.93446e-05 -4.63171e-07
2.93446e-05 0.000784798 -5.9048e-08
-4.63171e-07 -5.9048e-08 0.00080172
0.00255575 3.25434e-05 -1.90728e-05
3.25434e-05 0.000832663 4.0685e-06
-1.90728e-05 4.0685e-06 0.000847766
0.0013367 2.98984e-05 -1.29279e-06
2.98984e-05 6.16201e-05 -6.46224e-07
-1.29279e-06 -6.46224e-07 -1.14204e-05
0.00143074 5.50398e-06 -1.40487e-06
5.50398e-06 7.40189e-05 -7.16062e-07
-1.40487e-06 -7.16062e-07 -5.76796e-07
0.00141657 1.41851e-05 3.60451e-07
1.41851e-05 6.09641e-05 -2.63865e-07
3.60451e-07 -2.63865e-07 -5.95402e-06
0.00153367 -1.56001e-05 -1.83569e-06
-1.56001e-05 9.77955e-05 -6.32006e-07
-1.83569e-06 -6.32006e-07 2.26544e-05
0.00145332 -1.34626e-05 -2.01202e-06
-1.34626e-05 6.77545e-05 -4.58304e-07
-2.01202e-06 -4.58304e-07 -1.21238e-05
0.0013875 1.4865e-05 -3.04976e-06
1.4865e-05 5.56621e-05 -2.10787e-07
-3.04976e-06 -2.10787e-07 -2.15258e-05
0.00145148 5.36421e-06 4.00312e-08
5.36421e-06 6.78855e-05 -1.72218e-07
4.00312e-08 -1.72218e-07 -1.27601e-05
0.0014505 -6.16343e-06 2.28254e-07
-6.16343e-06 6.21865e-05 -6.07069e-08
2.28254e-07 -6.07069e-08 -1.72081e-05
0.00136243 -9.5669e-07 -1.68061e-07
-9.5669e-07 1.58564e-05 8.68025e-08
-1.68061e-07 8.68025e-08 -5.54563e-05
0.00156979 -1.98896e-05 -2.1879e-07
-1.98896e-05 0.000109161 -3.94662e-07
-2.1879e-07 -3.94662e-07 3.37822e-05
0.00133193 2.54059e-05 -2.69591e-07
2.54059e-05 4.18759e-05 1.25156e-08
-2.69591e-07 1.25156e-08 -2.81531e-05
0.00147228 8.48404e-06 1.47651e-06
8.48404e-06 7.18085e-05 -3.87397e-07
1.47651e-06 -3.87397e-07 1.2999e-05
0.00145115 1.23203e-05 1.63543e-06
1.23203e-05 6.48467e-05 3.19564e-07
1.63543e-06 3.19564e-07 -1.60487e-05
0.00147811 -1.39521e-05 2.25323e-06
-1.39521e-05 7.65476e-05 2.51932e-07
2.25323e-06 2.51932e-07 -2.17461e-06
0.00148038 -8.91991e-06 1.30645e-06
-8.91991e-06 5.99376e-05 1.74488e-06
1.30645e-06 1.74488e-06 -7.44677e-06
0.00144397 2.22351e-05 2.70396e-07
2.22351e-05 6.51523e-05 2.90549e-07
2.70396e-07 2.90549e-07 9.66576e-06
0.00144982 1.78239e-05 -2.34327e-06
1.78239e-05 7.42025e-05 1.98863e-07
-2.34327e-06 1.98863e-07 -5.19704e-06
0.001559 -5.92501e-07 -2.9039e-06
-5.92501e-07 0.000128345 2.68565e-07
-2.9039e-06 2.68565e-07 5.24076e-05
0.0013931 1.87878e-05 -3.35474e-06
1.87878e-05 3.68765e-05 -8.03825e-08
-3.35474e-06 -8.03825e-08 -4.3556e-05
0.00148985 -1.74457e-05 -1.38525e-06
-1.74457e-05 8.7443e-05 7.40517e-07
-1.38525e-06 7.40517e-07 1.47049e-05
0.00105932 -3.38981e-05 -1.38873e-06
-3.38981e-05 6.92098e-05 6.92221e-07
-1.38873e-06 6.92221e-07 5.04573e-06
0.00101913 -4.71339e-05 -2.9499e-07
-4.71339e-05 4.91165e-05 8.64414e-07
-2.9499e-07 8.64414e-07 -2.26638e-05
0.00113669 -5.61508e-05 -1.40495e-06
-5.61508e-05 8.57377e-05 2.14646e-06
-1.40495e-06 2.14646e-06 1.92966e-06
0.00145536 -4.58019e-05 -9.10324e-07
-4.58019e-05 0.000125065 7.98597e-07
-9.10324e-07 7.98597e-07 5.60639e-05
0.00125963 -3.36561e-05 -7.39946e-07
-3.36561e-05 -8.59809e-06 1.89381e-06
-7.39946e-07 1.89381e-06 -6.9322e-05
0.0012797 -4.76652e-05 -4.33433e-08
-4.76652e-05 5.25353e-05 1.23428e-06
-4.33433e-08 1.23428e-06 -1.04659e-05
0.00126958 -6.06465e-05 -2.07498e-06
-6.06465e-05 0.000102368 6.08075e-07
-2.07498e-06 6.08075e-07 1.84039e-05
0.00113576 -5.1732e-05 -1.78036e-06
-5.1732e-05 -5.83295e-06 -3.32031e-06
-1.78036e-06 -3.32031e-06 -6.90595e-05
0.00109745 -4.67788e-05 -7.58575e-07
-4.67788e-05 8.40333e-05 1.47262e-07
-7.58575e-07 1.47262e-07 1.2114e-05
0.00108191 -4.87244e-05 -1.32244e-06
-4.87244e-05 7.43986e-05 -3.70723e-07
-1.32244e-06 -3.70723e-07 -2.58539e-06
0.00109855 -4.52152e-05 -1.18305e-06
-4.52152e-05 9.58355e-05 9.87308e-07
-1.18305e-06 9.87308e-07 1.66712e-05
0.00065149 1.18977e-05 -1.27335e-06
1.18977e-05 -0.000138978 2.28902e-06
-1.27335e-06 2.28902e-06 -0.000176165
0.000903247 -6.85037e-06 -4.6724e-07
-6.85037e-06 -1.14775e-05 1.13081e-06
-4.6724e-07 1.13081e-06 -7.34435e-05
0.00145972 2.25836e-05 4.45979e-08
2.25836e-05 6.73715e-05 -1.2275e-07
4.45979e-08 -1.2275e-07 -1.42359e-05
0.00153278 1.20501e-05 -1.90453e-07
1.20501e-05 9.20632e-05 2.08421e-07
-1.90453e-07 2.08421e-07 1.28983e-05
0.00150863 -1.97721e-05 -6.55095e-07
-1.97721e-05 8.37207e-05 1.86679e-07
-6.55095e-07 1.86679e-07 1.69639e-05
0.00108411 -4.72708e-05 4.09121e-08
-4.72708e-05 7.91007e-05 8.95854e-08
4.09121e-08 8.95854e-08 8.4383e-06
0.00097295 -4.98219e-05 5.00898e-07
-4.98219e-05 2.57832e-05 -3.72908e-07
5.00898e-07 -3.72908e-07 -5.27106e-05
0.00116521 -6.03923e-05 -7.85889e-08
-6.03923e-05 9.05652e-05 -4.78754e-08
-7.85889e-08 -4.78754e-08 -2.30941e-06
0.00133491 -3.95415e-05 2.2348e-07
-3.95415e-05 3.90014e-05 -3.32931e-07
2.2348e-07 -3.32931e-07 -2.18252e-05
0.00131375 -6.17973e-05 -9.33022e-08
-6.17973e-05 0.000106581 -4.91341e-07
-9.33022e-08 -4.91341e-07 2.43718e-05
0.00132614 -5.23341e-05 -5.07582e-07
-5.23341e-05 5.60051e-05 -5.22175e-07
-5.07582e-07 -5.22175e-07 -6.4588e-07
0.000683802 1.68124e-05 -3.97221e-08
1.68124e-05 -0.000125526 -6.41093e-07
-3.97221e-08 -6.41093e-07 -0.000159318
0.00109758 -4.91958e-05 7.76297e-08
-4.91958e-05 8.16688e-05 1.34285e-07
7.76297e-08 1.34285e-07 7.3392e-06
0.00106308 -4.9228e-05 -8.63099e-07
-4.9228e-05 6.1832e-05 -7.2671e-08
-8.63099e-07 -7.2671e-08 -1.63498e-05
0.00115076 -5.02125e-05 -4.04448e-07
-5.02125e-05 0.000119655 3.70732e-07
-4.04448e-07 3.70732e-07 3.40906e-05
0.00112368 -4.23434e-05 -8.74282e-08
-4.23434e-05 0.000110485 4.26403e-08
-8.74282e-08 4.26403e-08 3.44614e-05
0.00096779 -5.25196e-06 1.4219e-07
-5.25196e-06 2.16081e-05 2.11351e-07
1.4219e-07 2.11351e-07 -3.58919e-05
0.00158096 2.61793e-05 2.45556e-06
2.61793e-05 0.000120176 1.01836e-06
2.45556e-06 1.01836e-06 3.82676e-05
0.0015459 1.23693e-05 2.79748e-06
1.23693e-05 8.10273e-05 -3.71128e-07
2.79748e-06 -3.71128e-07 2.86194e-06
0.00129947 -2.48128e-05 2.36344e-06
-2.48128e-05 -2.78011e-05 -2.86383e-06
2.36344e-06 -2.86383e-06 -8.74354e-05
0.00154226 -4.69498e-05 1.81091e-06
-4.69498e-05 0.000107442 -1.76082e-06
1.81091e-06 -1.76082e-06 5.82335e-05
0.00107845 -5.00034e-05 4.61625e-07
-5.00034e-05 7.54482e-05 -7.05856e-07
4.61625e-07 -7.05856e-07 6.73163e-07
0.00137746 -6.17396e-05 3.11174e-06
-6.17396e-05 9.35004e-05 8.09684e-07
3.11174e-06 8.09684e-07 2.27058e-05
0.000880054 -5.14947e-05 1.14412e-06
-5.14947e-05 -2.34892e-05 -2.93746e-06
1.14412e-06 -2.93746e-06 -0.000113814
0.00141949 -6.88378e-05 2.23879e-06
-6.88378e-05 0.000204772 -1.0881e-06
2.23879e-06 -1.0881e-06 0.000104679
0.000696298 1.24377e-05 6.56827e-07
1.24377e-05 -0.000121284 -2.51371e-06
6.56827e-07 -2.51371e-06 -0.000152799
0.00110162 -3.75622e-07 8.26978e-07
-3.75622e-07 8.83943e-05 -1.47232e-06
8.26978e-07 -1.47232e-06 3.64298e-05
0.00120654 -3.52901e-05 1.94788e-08
-3.52901e-05 0.000149443 -9.47378e-08
1.94788e-08 -9.47378e-08 7.83705e-05
0.00105913 -4.46094e-05 7.16051e-07
-4.46094e-05 8.07652e-05 -1.21486e-06
7.16051e-07 -1.21486e-06 -7.92664e-06
0.00104686 -4.965e-05 2.86273e-07
-4.965e-05 5.66519e-05 -4.48414e-07
2.86273e-07 -4.48414e-07 -2.15631e-05
0.00108546 -5.01831e-05 1.19874e-06
-5.01831e-05 7.88808e-05 3.67087e-07
1.19874e-06 3.67087e-07 -7.29644e-06
0.000943443 -1.30157e-06 -1.55398e-06
-1.30157e-06 3.95515e-06 -2.45132e-06
-1.55398e-06 -2.45132e-06 -3.31527e-05
0.00101288 1.39634e-05 -1.2318e-06
1.39634e-05 4.29471e-05 -1.46184e-06
-1.2318e-06 -1.46184e-06 -1.79751e-05
0.00134161 4.1336e-05 -5.31572e-07
4.1336e-05 7.41717e-05 -5.42621e-07
-5.31572e-07 -5.42621e-07 -7.72898e-07
0.00105958 3.62854e-05 -9.83683e-07
3.62854e-05 7.16065e-05 -4.85298e-07
-9.83683e-07 -4.85298e-07 -1.91121e-06
0.00107967 4.37171e-05 -6.10493e-07
4.37171e-05 8.031e-05 -2.95267e-07
-6.10493e-07 -2.95267e-07 8.25432e-06
0.0009923 4.44657e-05 -5.88464e-07
4.44657e-05 3.82359e-05 -1.69978e-07
-5.88464e-07 -1.69978e-07 -3.98649e-05
0.00119042 5.55311e-05 -8.58203e-07
5.55311e-05 6.68125e-05 -1.75244e-06
-8.58203e-07 -1.75244e-06 -8.18358e-06
0.00129315 5.68716e-05 -3.27708e-07
5.68716e-05 8.22292e-05 -7.65743e-07
-3.27708e-07 -7.65743e-07 6.74284e-06
0.00086735 4.71121e-05 -3.58339e-07
4.71121e-05 -1.84221e-05 -5.59788e-07
-3.58339e-07 -5.59788e-07 -0.000102758
0.00123777 5.89058e-05 -1.42753e-06
5.89058e-05 0.000124507 -8.38699e-07
-1.42753e-06 -8.38699e-07 3.60139e-05
0.00101573 1.47308e-05 7.75475e-08
1.47308e-05 4.37279e-05 -3.12402e-08
7.75475e-08 -3.12402e-08 -1.4925e-05
0.00101381 3.74197e-05 4.04903e-07
3.74197e-05 4.78156e-05 2.41432e-07
4.04903e-07 2.41432e-07 -2.62928e-05
0.00114436 5.22166e-05 -1.66955e-07
5.22166e-05 0.000112673 -4.36557e-07
-1.66955e-07 -4.36557e-07 3.3734e-05
0.00103201 4.42118e-05 -2.92205e-07
4.42118e-05 5.72638e-05 1.31303e-08
-2.92205e-07 1.31303e-08 -2.19313e-05
0.00106013 4.83767e-05 -7.41537e-07
4.83767e-05 6.81218e-05 -3.6799e-07
-7.41537e-07 -3.6799e-07 -1.20231e-05
0.00152196 4.24186e-05 -3.97954e-07
4.24186e-05 0.000129813 -4.42593e-07
-3.97954e-07 -4.42593e-07 6.85266e-05
0.00137796 6.43891e-05 7.51197e-07
6.43891e-05 0.00015653 4.12711e-08
7.51197e-07 4.12711e-08 7.27045e-05
0.000957257 5.54833e-05 -5.68907e-07
5.54833e-05 -8.78778e-05 5.7269e-07
-5.68907e-07 5.7269e-07 -0.000163952
0.00123281 5.73123e-05 9.30652e-07
5.73123e-05 0.000150999 8.53877e-07
9.30652e-07 8.53877e-07 6.03918e-05
0.000908091 5.5237e-05 -1.39221e-06
5.5237e-05 -4.18488e-05 -3.74664e-07
-1.39221e-06 -3.74664e-07 -0.000141422
0.000949684 3.5736e-05 1.20132e-06
3.5736e-05 1.71915e-05 1.19817e-06
1.20132e-06 1.19817e-06 -5.62497e-05
0.000974324 4.67908e-05 7.49748e-07
4.67908e-05 2.99857e-05 1.73214e-07
7.49748e-07 1.73214e-07 -5.35362e-05
0.00115015 5.36448e-05 2.73104e-07
5.36448e-05 0.000111772 7.09678e-07
2.73104e-07 7.09678e-07 2.60266e-05
0.000894091 4.5878e-05 8.92539e-07
4.5878e-05 -1.51697e-05 2.51574e-08
8.92539e-07 2.51574e-08 -9.94209e-05
0.00186566 3.27453e-05 2.25807e-06
3.27453e-05 0.000207413 1.3221e-06
2.25807e-06 1.3221e-06 0.000159627
0.00111241 5.37678e-05 2.92332e-06
5.37678e-05 -8.22288e-05 1.45361e-06
2.92332e-06 1.45361e-06 -0.000144619
0.00124368 6.67777e-05 1.82083e-06
6.67777e-05 8.49933e-05 -8.11661e-08
1.82083e-06 -8.11661e-08 -1.19947e-05
0.000916948 5.41236e-05 9.69739e-07
5.41236e-05 -5.08254e-06 1.87623e-06
9.69739e-07 1.87623e-06 -0.000112285
0.000986484 1.37549e-05 -1.89174e-07
1.37549e-05 3.04589e-05 -1.02428e-06
-1.89174e-07 -1.02428e-06 -2.57904e-05
0.00100386 3.09028e-05 2.81684e-07
3.09028e-05 4.6422e-05 3.7284e-07
2.81684e-07 3.7284e-07 -2.41834e-05
0.00108133 4.21089e-05 4.89774e-07
4.21089e-05 8.98155e-05 5.18101e-07
4.89774e-07 5.18101e-07 1.00265e-05
0.000995793 1.20616e-05 -4.76238e-07
1.20616e-05 3.71651e-05 -1.23398e-06
-4.76238e-07 -1.23398e-06 -1.30374e-05
0.000929643 1.75379e-05 -4.41604e-07
1.75379e-05 7.90824e-06 -1.53638e-06
-4.41604e-07 -1.53638e-06 -5.94041e-05
0.000985526 7.92571e-07 3.39377e-07
7.92571e-07 3.3633e-05 3.00508e-08
3.39377e-07 3.00508e-08 -1.50153e-05
0.00107565 3.42407e-05 -1.13356e-07
3.42407e-05 8.61042e-05 -4.49352e-07
-1.13356e-07 -4.49352e-07 8.62175e-06
0.000957772 1.22362e-05 2.21017e-07
1.22362e-05 2.35534e-05 4.58682e-07
2.21017e-07 4.58682e-07 -4.17458e-05
0.00116309 4.42327e-05 4.70155e-07
4.42327e-05 0.00012892 3.69672e-07
4.70155e-07 3.69672e-07 4.44133e-05
0.000921157 7.14709e-06 2.70233e-07
7.14709e-06 7.12586e-06 1.15376e-06
2.70233e-07 1.15376e-06 -6.90982e-05
0.00089967 2.64207e-05 4.95756e-07
2.64207e-05 -4.16394e-06 1.31071e-06
4.95756e-07 1.31071e-06 -6.8592e-05
0.000988219 -1.62135e-05 -2.57522e-07
-1.62135e-05 3.60793e-05 1.15273e-06
-2.57522e-07 1.15273e-06 -1.171e-05
0.000959663 7.85567e-06 4.63923e-07
7.85567e-06 7.66704e-06 1.74543e-06
4.63923e-07 1.74543e-06 -2.05187e-05
0.000963902 -2.15119e-06 -2.56443e-07
-2.15119e-06 9.62919e-06 2.90343e-08
-2.56443e-07 2.90343e-08 -1.86905e-05
0.00147281 -6.84018e-06 9.44004e-07
-6.84018e-06 0.000255394 1.97771e-06
9.44004e-07 1.97771e-06 0.000258335
0.00096586 -7.60921e-06 -5.69932e-08
-7.60921e-06 1.14273e-05 -1.8651e-06
-5.69932e-08 -1.8651e-06 -1.76247e-05
0.00149405 -9.38193e-06 -1.50619e-06
-9.38193e-06 0.000268857 -1.23795e-06
-1.50619e-06 -1.23795e-06 0.000271075
0.00114519 -9.16447e-06 7.45864e-06
-9.16447e-06 9.13411e-05 6.50684e-06
7.45864e-06 6.50684e-06 0.000108147
0.00151726 -1.15925e-05 -4.59025e-06
-1.15925e-05 0.00028378 -4.55239e-06
-4.59025e-06 -4.55239e-06 0.000284877
0.00109702 -1.21599e-05 2.92976e-06
-1.21599e-05 7.09944e-05 2.52014e-06
2.92976e-06 2.52014e-06 8.68497e-05
0.00104246 -1.48659e-05 -2.21043e-06
-1.48659e-05 4.79833e-05 -1.66698e-06
-2.21043e-06 -1.66698e-06 6.26797e-05
0.000867313 1.38634e-05 1.55553e-06
1.38634e-05 -4.03013e-05 -3.25978e-06
1.55553e-06 -3.25978e-06 -4.26129e-05
0.000876772 1.5894e-05 -9.45055e-08
1.5894e-05 -3.15815e-05 1.70595e-08
-9.45055e-08 1.70595e-08 -3.56379e-05
0.00233432 2.27167e-05 1.24213e-05
2.27167e-05 0.000704716 -3.90175e-06
1.24213e-05 -3.90175e-06 0.000724795
0.000882625 1.76556e-05 -2.55277e-06
1.76556e-05 -2.43789e-05 3.42864e-06
-2.55277e-06 3.42864e-06 -3.05438e-05
0.00239167 2.60742e-05 -5.40064e-07
2.60742e-05 0.000739555 -4.65628e-08
-5.40064e-07 -4.65628e-08 0.000758069
0.00247655 2.91789e-05 -1.74692e-05
2.91789e-05 0.000787862 4.04855e-06
-1.74692e-05 4.04855e-06 0.000804597
0.00137178 2.61547e-05 -4.90649e-08
2.61547e-05 6.28202e-05 6.0033e-08
-4.90649e-08 6.0033e-08 -7.54765e-06
0.00144743 -2.60139e-06 -1.30514e-06
-2.60139e-06 5.51043e-05 -7.68658e-07
-1.30514e-06 -7.68658e-07 -1.68033e-05
0.00131931 8.82355e-06 1.50285e-06
8.82355e-06 -1.18596e-06 -2.10821e-06
1.50285e-06 -2.10821e-06 -5.76989e-05
0.00138314 -1.90747e-05 -2.44439e-06
-1.90747e-05 1.92571e-05 -1.346e-06
-2.44439e-06 -1.346e-06 -5.66411e-05
0.00145349 -8.6198e-06 -1.77046e-06
-8.6198e-06 6.40999e-05 -4.54837e-07
-1.77046e-06 -4.54837e-07 -1.52702e-05
0.00145099 4.78336e-06 -2.01142e-06
4.78336e-06 6.75778e-05 -2.93653e-07
-2.01142e-06 -2.93653e-07 -1.32038e-05
0.00146121 1.47248e-05 2.13699e-07
1.47248e-05 7.02281e-05 -4.70204e-08
2.13699e-07 -4.70204e-08 -1.06053e-05
0.00145263 -1.75828e-05 -2.05016e-07
-1.75828e-05 6.43254e-05 2.15767e-07
-2.05016e-07 2.15767e-07 -1.42959e-05
0.00146805 -8.32514e-06 6.12588e-07
-8.32514e-06 5.47913e-05 -2.69458e-07
6.12588e-07 -2.69458e-07 -1.23064e-05
0.00139025 1.95806e-05 1.25534e-07
1.95806e-05 3.69326e-05 -3.58387e-07
1.25534e-07 -3.58387e-07 -1.84879e-05
0.0014455 8.79471e-06 1.78793e-06
8.79471e-06 6.59111e-05 9.56082e-08
1.78793e-06 9.56082e-08 -1.45735e-05
0.00161562 -2.69901e-05 2.47038e-06
-2.69901e-05 0.000137692 6.16339e-07
2.47038e-06 6.16339e-07 6.3653e-05
0.00141632 6.31257e-06 1.30802e-06
6.31257e-06 1.4182e-05 2.16723e-06
1.30802e-06 2.16723e-06 -4.35459e-05
0.00139348 2.1419e-05 -2.74483e-06
2.1419e-05 3.51859e-05 -5.15881e-07
-2.74483e-06 -5.15881e-07 -4.63265e-05
0.00156227 1.15058e-05 -2.52907e-06
1.15058e-05 0.000108753 5.9921e-07
-2.52907e-06 5.9921e-07 3.00013e-05
0.00154974 -1.98879e-05 -1.75411e-06
-1.98879e-05 0.000107713 1.83575e-06
-1.75411e-06 1.83575e-06 4.10543e-05
0.00110757 -4.72202e-05 -6.54843e-07
-4.72202e-05 8.96031e-05 5.82091e-07
-6.54843e-07 5.82091e-07 1.89764e-05
0.00122751 -5.53355e-05 -4.88451e-07
-5.53355e-05 0.000149807 1.32088e-06
-4.88451e-07 1.32088e-06 7.21248e-05
0.00113655 -5.96469e-05 -2.06993e-06
-5.96469e-05 7.89577e-05 2.56199e-06
-2.06993e-06 2.56199e-06 -1.4437e-05
0.00140319 -4.01625e-05 -1.13767e-06
-4.01625e-05 7.13789e-05 1.15783e-06
-1.13767e-06 1.15783e-06 9.81759e-06
0.00111824 -5.09587e-05 -2.16362e-06
-5.09587e-05 -4.24846e-05 2.66136e-07
-2.16362e-06 2.66136e-07 -9.97333e-05
0.00126369 -5.94536e-05 -2.90599e-06
-5.94536e-05 8.2932e-05 -1.4681e-06
-2.90599e-06 -1.4681e-06 3.15213e-06
0.00111199 -4.95381e-05 -5.63709e-07
-4.95381e-05 8.88365e-05 3.42146e-07
-5.63709e-07 3.42146e-07 1.43221e-05
0.00101731 -4.80844e-05 -2.14221e-06
-4.80844e-05 3.97354e-05 -1.18813e-07
-2.14221e-06 -1.18813e-07 -3.75105e-05
0.00115306 -5.01248e-05 -1.31742e-06
-5.01248e-05 0.000120624 2.74156e-07
-1.31742e-06 2.74156e-07 3.51751e-05
0.000674974 1.92548e-05 -6.41405e-07
1.92548e-05 -0.00012956 1.38991e-06
-6.41405e-07 1.38991e-06 -0.000163136
0.00120828 -4.39167e-05 -8.69004e-07
-4.39167e-05 0.00015237 1.22272e-06
-8.69004e-07 1.22272e-06 7.66106e-05
0.000849183 -4.70305e-06 -1.75085e-07
-4.70305e-06 -3.86018e-05 1.89738e-06
-1.75085e-07 1.89738e-06 -9.69631e-05
0.00152286 2.59461e-05 -2.36602e-08
2.59461e-05 9.36118e-05 1.55675e-07
-2.36602e-08 1.55675e-07 1.19824e-05
0.00153898 1.09528e-05 4.42417e-07
1.09528e-05 7.56953e-05 5.5138e-08
4.42417e-07 5.5138e-08 -2.41443e-06
0.00138294 -2.50766e-05 -2.22723e-07
-2.50766e-05 1.26365e-05 -2.42462e-07
-2.22723e-07 -2.42462e-07 -4.83291e-05
0.0011075 -5.06626e-05 3.84116e-09
-5.06626e-05 8.87307e-05 2.09412e-07
3.84116e-09 2.09412e-07 1.38367e-05
0.000938852 -5.26358e-05 -1.12011e-07
-5.26358e-05 6.83553e-06 1.39568e-07
-1.12011e-07 1.39568e-07 -8.22902e-05
0.00139454 -6.76272e-05 -1.08542e-06
-6.76272e-05 0.000192566 1.0179e-06
-1.08542e-06 1.0179e-06 9.3475e-05
0.00153907 -4.79795e-05 1.08405e-07
-4.79795e-05 0.000111138 1.71574e-07
1.08405e-07 1.71574e-07 6.19514e-05
0.00128578 -5.99783e-05 1.29074e-07
-5.99783e-05 4.67865e-05 -7.27177e-07
1.29074e-07 -7.27177e-07 -2.37569e-05
0.000819709 1.30545e-05 5.81403e-08
1.30545e-05 -5.93405e-05 -5.91917e-07
5.81403e-08 -5.91917e-07 -8.98956e-05
0.00108499 4.15596e-06 -1.17646e-07
4.15596e-06 8.05489e-05 9.71274e-08
-1.17646e-07 9.71274e-08 2.86349e-05
0.000991901 -4.84641e-05 -4.78663e-07
-4.84641e-05 3.04366e-05 3.71524e-07
-4.78663e-07 3.71524e-07 -4.77475e-05
0.001099 -5.04306e-05 1.42454e-07
-5.04306e-05 8.55048e-05 -4.36289e-08
1.42454e-07 -4.36289e-08 -5.60904e-07
0.0010808 -4.32399e-05 -8.88035e-08
-4.32399e-05 9.20211e-05 -2.58891e-07
-8.88035e-08 -2.58891e-07 4.22743e-06
0.00114025 -3.76076e-05 -5.77765e-07
-3.76076e-05 0.000116476 9.63596e-07
-5.77765e-07 9.63596e-07 4.43252e-05
0.00152126 2.9971e-05 2.54091e-06
2.9971e-05 8.90709e-05 1.44815e-06
2.54091e-06 1.44815e-06 9.67455e-06
0.00160121 3.76858e-06 2.92027e-06
3.76858e-06 9.45187e-05 -9.38807e-07
2.92027e-06 -9.38807e-07 2.19935e-05
0.00143859 -3.53257e-05 1.65741e-06
-3.53257e-05 1.39649e-05 -2.96928e-06
1.65741e-06 -2.96928e-06 -2.91362e-05
0.00184799 -6.31343e-05 2.62431e-06
-6.31343e-05 0.000254258 -1.4414e-06
2.62431e-06 -1.4414e-06 0.000204746
0.000951552 -4.98844e-05 1.26682e-07
-4.98844e-05 1.66954e-05 -1.22619e-06
1.26682e-07 -1.22619e-06 -6.60559e-05
0.00143137 -7.02208e-05 2.7217e-06
-7.02208e-05 0.000183742 1.15319e-06
2.7217e-06 1.15319e-06 8.32628e-05
0.00145868 -6.795e-05 2.219e-06
-6.795e-05 0.000253261 -3.67186e-06
2.219e-06 -3.67186e-06 0.000153493
0.000957065 1.0018e-05 6.09565e-07
1.0018e-05 7.03382e-06 -1.85578e-06
6.09565e-07 -1.85578e-06 -2.08502e-05
0.000992913 -1.93659e-05 6.37387e-07
-1.93659e-05 3.46524e-05 -1.28288e-06
6.37387e-07 -1.28288e-06 -1.03321e-05
0.000819491 7.20356e-06 2.46655e-07
7.20356e-06 -5.22224e-05 -1.88111e-06
2.46655e-07 -1.88111e-06 -0.000102698
0.00110277 -2.45388e-05 1.99082e-07
-2.45388e-05 9.57298e-05 -7.4186e-07
1.99082e-07 -7.4186e-07 2.7893e-05
0.000995494 -3.66394e-05 2.75926e-07
-3.66394e-05 4.99974e-05 -1.20489e-06
2.75926e-07 -1.20489e-06 -3.37598e-05
0.00111535 -4.99144e-05 1.79129e-06
-4.99144e-05 0.000109358 1.12208e-07
1.79129e-06 1.12208e-07 1.37495e-05
0.000844785 -4.68735e-05 7.4891e-07
-4.68735e-05 -4.10024e-05 -4.52037e-07
7.4891e-07 -4.52037e-07 -0.000122732
0.00163634 -6.42962e-05 6.65642e-07
-6.42962e-05 0.000362291 2.30538e-07
6.65642e-07 2.30538e-07 0.00026846
0.00101047 1.47088e-05 -9.19176e-07
1.47088e-05 4.1521e-05 -1.59554e-06
-9.19176e-07 -1.59554e-06 -1.72368e-05
0.00108791 4.02238e-05 -6.30947e-07
4.02238e-05 8.51863e-05 -4.59399e-07
-6.30947e-07 -4.59399e-07 1.11182e-05
0.00179487 4.45115e-05 -6.44935e-07
4.45115e-05 0.000262621 -8.87504e-07
-6.44935e-07 -8.87504e-07 0.000201696
0.00111146 4.63357e-05 -9.45406e-07
4.63357e-05 9.74917e-05 -1.4665e-09
-9.45406e-07 -1.4665e-09 1.86021e-05
0.00117734 5.28959e-05 -7.9082e-07
5.28959e-05 0.000129627 -1.20514e-06
-7.9082e-07 -1.20514e-06 5.13458e-05
0.00101138 4.71158e-05 -9.06789e-07
4.71158e-05 4.6976e-05 -4.26313e-07
-9.06789e-07 -4.26313e-07 -3.27168e-05
0.00140821 6.47699e-05 -4.51779e-07
6.47699e-05 0.000168739 -9.17994e-07
-4.51779e-07 -9.17994e-07 8.57582e-05
0.00124936 5.99218e-05 -1.19702e-06
5.99218e-05 5.95107e-05 3.40992e-07
-1.19702e-06 3.40992e-07 -1.48367e-05
0.00107424 5.38375e-05 1.05085e-08
5.38375e-05 7.43017e-05 -5.04907e-07
1.05085e-08 -5.04907e-07 -1.69957e-05
0.00115726 6.05861e-05 -3.22226e-06
6.05861e-05 8.02941e-05 -1.25517e-06
-3.22226e-06 -1.25517e-06 -2.05733e-05
0.000945145 3.56128e-05 3.65836e-07
3.56128e-05 1.52635e-05 3.2907e-07
3.65836e-07 3.2907e-07 -5.85009e-05
0.00104191 4.82615e-05 -3.70854e-07
4.82615e-05 6.30677e-05 -4.18266e-07
-3.70854e-07 -4.18266e-07 -1.96836e-05
0.00114856 5.35131e-05 -2.33103e-07
5.35131e-05 0.000112195 -6.32871e-07
-2.33103e-07 -6.32871e-07 2.71965e-05
0.00105609 4.91402e-05 -3.71724e-08
4.91402e-05 6.41503e-05 -2.78497e-07
-3.71724e-08 -2.78497e-07 -1.97485e-05
0.00175139 3.04891e-05 -1.75244e-07
3.04891e-05 0.000151674 -1.13788e-06
-1.75244e-07 -1.13788e-06 0.00010484
0.00126665 5.50269e-05 8.11798e-08
5.50269e-05 2.77552e-06 1.31129e-07
8.11798e-08 1.31129e-07 -6.16984e-05
0.00144925 7.06383e-05 -4.47837e-07
7.06383e-05 0.000184515 -9.19893e-08
-4.47837e-07 -9.19893e-08 8.86933e-05
0.000903121 5.45854e-05 2.15503e-07
5.45854e-05 -1.78735e-05 2.74257e-07
2.15503e-07 2.74257e-07 -0.000124898
0.00110903 4.85224e-05 2.35233e-07
4.85224e-05 0.000103268 1.29614e-07
2.35233e-07 1.29614e-07 2.09502e-05
0.00144867 5.46601e-06 3.06969e-06
5.46601e-06 5.83505e-06 3.07282e-06
3.06969e-06 3.07282e-06 -5.00858e-05
0.00120234 5.34288e-05 9.03918e-07
5.34288e-05 0.000142851 4.97287e-07
9.03918e-07 4.97287e-07 5.41495e-05
0.00113029 5.4738e-05 6.31586e-07
5.4738e-05 0.000105182 1.10998e-06
6.31586e-07 1.10998e-06 1.14296e-05
0.00166306 5.63046e-05 6.15254e-06
5.63046e-05 7.54269e-05 8.38972e-07
6.15254e-06 8.38972e-07 3.07454e-05
0.00132502 7.15563e-05 3.85115e-06
7.15563e-05 6.58305e-05 2.50289e-07
3.85115e-06 2.50289e-07 -2.86038e-05
0.00165398 7.5373e-05 9.05659e-07
7.5373e-05 0.000337853 2.28501e-06
9.05659e-07 2.28501e-06 0.000221983
0.00108199 3.51271e-05 -4.52e-07
3.51271e-05 8.653e-05 -5.70867e-07
-4.52e-07 -5.70867e-07 1.61984e-05
0.0010708 4.28311e-05 -2.29654e-08
4.28311e-05 8.54535e-05 -8.68841e-08
-2.29654e-08 -8.68841e-08 5.60933e-06
0.00108893 4.7646e-05 7.1326e-07
4.7646e-05 9.52321e-05 5.04828e-07
7.1326e-07 5.04828e-07 8.53738e-06
0.000992305 1.02144e-05 -1.06067e-07
1.02144e-05 3.70815e-05 -1.17323e-06
-1.06067e-07 -1.17323e-06 -1.17081e-05
0.00101728 1.74407e-05 8.58377e-08
1.74407e-05 5.40564e-05 -4.56267e-07
8.58377e-08 -4.56267e-07 -1.09705e-05
0.000974377 2.89758e-05 -4.94032e-07
2.89758e-05 3.45375e-05 -1.18335e-06
-4.94032e-07 -1.18335e-06 -4.36196e-05
0.000984414 -1.1909e-05 2.23257e-07
-1.1909e-05 3.41888e-05 3.2866e-08
2.23257e-07 3.2866e-08 -1.36564e-05
0.000891676 1.07515e-05 -1.64508e-07
1.07515e-05 -8.73349e-06 4.25038e-07
-1.64508e-07 4.25038e-07 -7.285e-05
0.00107728 3.7902e-05 -5.11193e-08
3.7902e-05 8.52727e-05 -4.04214e-07
-5.11193e-08 -4.04214e-07 2.56577e-07
0.00105219 2.05721e-05 1.83896e-07
2.05721e-05 7.40652e-05 3.78915e-07
1.83896e-07 3.78915e-07 -1.66276e-06
0.00120406 5.18997e-05 2.66181e-07
5.18997e-05 0.000142234 1.90562e-07
2.66181e-07 1.90562e-07 5.22406e-05
0.00101638 2.03165e-05 4.01888e-07
2.03165e-05 5.04772e-05 8.65323e-07
4.01888e-07 8.65323e-07 -3.38271e-05
0.00107181 2.73422e-05 3.54321e-07
2.73422e-05 8.26631e-05 8.0373e-07
3.54321e-07 8.0373e-07 8.8917e-06
0.00100869 1.88305e-05 5.21989e-07
1.88305e-05 5.37389e-05 9.86475e-07
5.21989e-07 9.86475e-07 -9.55583e-06
0.000995031 -9.54187e-06 -3.2456e-07
-9.54187e-06 3.92372e-05 1.08572e-06
-3.2456e-07 1.08572e-06 -8.15274e-06
0.000952632 1.0264e-05 3.82496e-07
1.0264e-05 4.98815e-06 1.69382e-06
3.82496e-07 1.69382e-06 -2.34915e-05
0.000959781 -5.05338e-07 -2.63158e-07
-5.05338e-07 7.79936e-06 1.59977e-08
-2.63158e-07 1.59977e-08 -2.03896e-05
0.00146875 -3.55686e-06 5.72904e-07
-3.55686e-06 0.000251824 1.93917e-06
5.72904e-07 1.93917e-06 0.000254902
0.000960701 -1.00831e-05 7.9149e-08
-1.00831e-05 8.11571e-06 -1.7704e-06
7.9149e-08 -1.7704e-06 -2.01786e-05
0.00149009 -6.35516e-06 -1.05929e-06
-6.35516e-06 0.00026437 -1.22914e-06
-1.05929e-06 -1.22914e-06 0.000267206
0.00114121 -6.50575e-06 5.16674e-06
-6.50575e-06 8.61742e-05 6.46868e-06
5.16674e-06 6.46868e-06 0.000103563
0.00150768 -9.02573e-06 -3.17429e-06
-9.02573e-06 0.00027593 -4.45559e-06
-3.17429e-06 -4.45559e-06 0.000278131
0.00109264 -9.54084e-06 1.9193e-06
-9.54084e-06 6.47078e-05 2.48164e-06
1.9193e-06 2.48164e-06 8.16886e-05
0.00104007 -1.22546e-05 -1.69183e-06
-1.22546e-05 4.22464e-05 -1.62164e-06
-1.69183e-06 -1.62164e-06 5.82685e-05
0.000962721 7.55469e-06 4.58244e-07
7.55469e-06 7.51859e-06 -1.87086e-06
4.58244e-07 -1.87086e-06 -1.86571e-05
0.000876936 1.15877e-05 1.2055e-06
1.15877e-05 -3.9891e-05 -3.23026e-06
1.2055e-06 -3.23026e-06 -4.05377e-05
0.000885758 1.3904e-05 -1.02006e-07
1.3904e-05 -3.13352e-05 1.46495e-08
-1.02006e-07 1.46495e-08 -3.37072e-05
0.0022893 1.90765e-05 1.0589e-05
1.90765e-05 0.000677001 -3.91165e-06
1.0589e-05 -3.91165e-06 0.000698356
0.000894442 1.59355e-05 -2.14382e-06
1.59355e-05 -2.30185e-05 3.29764e-06
-2.14382e-06 3.29764e-06 -2.71456e-05
0.00233432 2.26887e-05 -5.78938e-07
2.26887e-05 0.00070533 -4.16735e-08
-5.78938e-07 -4.16735e-08 0.000725264
0.0023962 2.59024e-05 -1.55465e-05
2.59024e-05 0.000742321 4.00661e-06
-1.55465e-05 4.00661e-06 0.000760669
0.0013284 1.69977e-05 3.34631e-08
1.69977e-05 4.63581e-06 -5.74417e-07
3.34631e-08 -5.74417e-07 -5.06932e-05
0.00143922 -7.63659e-06 -1.4533e-06
-7.63659e-06 4.17968e-05 -2.07162e-06
-1.4533e-06 -2.07162e-06 -2.50225e-05
0.00142212 -1.73196e-05 -2.13987e-06
-1.73196e-05 4.94488e-05 -3.90498e-08
-2.13987e-06 -3.90498e-08 -2.89533e-05
0.00147844 1.703e-05 -1.77501e-06
1.703e-05 7.8954e-05 -6.75123e-07
-1.77501e-06 -6.75123e-07 -1.75196e-06
0.00147411 9.00311e-06 3.18468e-08
9.00311e-06 8.14489e-05 -1.7833e-07
3.18468e-08 -1.7833e-07 1.39751e-06
0.00155664 -2.54436e-05 -2.29107e-08
-2.54436e-05 0.000108892 1.03332e-07
-2.29107e-08 1.03332e-07 3.38531e-05
0.0014261 6.5147e-06 -6.42879e-07
6.5147e-06 2.26757e-05 3.04566e-07
-6.42879e-07 3.04566e-07 -3.34195e-05
0.00148242 2.11781e-06 2.68249e-06
2.11781e-06 8.91987e-05 -4.08431e-07
2.68249e-06 -4.08431e-07 1.15941e-05
0.00158101 -1.79411e-05 2.54792e-06
-1.79411e-05 0.000102766 1.66559e-06
2.54792e-06 1.66559e-06 3.33749e-05
0.00134374 -1.6711e-05 2.87639e-06
-1.6711e-05 -1.92653e-05 7.94921e-07
2.87639e-06 7.94921e-07 -7.69628e-05
0.0014664 2.5722e-05 -2.01853e-06
2.5722e-05 6.77853e-05 -4.39978e-07
-2.01853e-06 -4.39978e-07 -1.3561e-05
0.00154465 9.3086e-06 -2.58546e-06
9.3086e-06 7.6556e-05 7.60172e-07
-2.58546e-06 7.60172e-07 -1.51443e-06
0.00147517 -2.53784e-05 -2.40862e-06
-2.53784e-05 5.713e-05 1.70983e-06
-2.40862e-06 1.70983e-06 -5.15215e-06
0.0011292 -5.11582e-05 -6.43887e-07
-5.11582e-05 9.84625e-05 1.21231e-06
-6.43887e-07 1.21231e-06 2.3455e-05
0.000979482 -5.33664e-05 -9.78314e-07
-5.33664e-05 2.79795e-05 2.97964e-06
-9.78314e-07 2.97964e-06 -5.98866e-05
0.00132089 -6.53032e-05 -2.7093e-06
-6.53032e-05 0.000156609 2.6557e-06
-2.7093e-06 2.6557e-06 5.85824e-05
0.00147487 -4.85154e-05 5.19486e-07
-4.85154e-05 8.58825e-05 1.78066e-06
5.19486e-07 1.78066e-06 3.67187e-05
0.00119747 -5.82998e-05 -3.92184e-06
-5.82998e-05 1.6464e-06 -1.23554e-06
-3.92184e-06 -1.23554e-06 -6.86437e-05
0.000949008 -4.75044e-05 -9.53799e-07
-4.75044e-05 1.02723e-05 7.36171e-07
-9.53799e-07 7.36171e-07 -6.79155e-05
0.00110503 -5.05231e-05 -1.28563e-06
-5.05231e-05 8.84356e-05 -4.92272e-07
-1.28563e-06 -4.92272e-07 2.49311e-06
0.00110397 -3.91303e-05 -3.18963e-07
-3.91303e-05 0.000103741 5.13682e-07
-3.18963e-07 5.13682e-07 1.70576e-05
0.000945231 1.32195e-05 -6.75415e-07
1.32195e-05 3.45281e-06 1.29094e-06
-6.75415e-07 1.29094e-06 -2.6113e-05
0.00107281 1.28191e-05 -9.51607e-08
1.28191e-05 7.49026e-05 1.68719e-06
-9.51607e-08 1.68719e-06 2.29541e-05
0.00107783 -3.37613e-05 -1.25266e-06
-3.37613e-05 8.4741e-05 2.1269e-06
-1.25266e-06 2.1269e-06 1.19646e-05
0.00149587 2.97404e-05 2.0546e-07
2.97404e-05 7.69296e-05 3.53721e-07
2.0546e-07 3.53721e-07 -2.14235e-06
0.000953875 9.80866e-06 -2.58775e-08
9.80866e-06 5.3051e-06 4.58939e-09
-2.58775e-08 4.58939e-09 -2.25735e-05
0.000888539 -2.1643e-06 -4.02451e-07
-2.1643e-06 -1.78089e-05 4.21773e-09
-4.02451e-07 4.21773e-09 -6.31289e-05
0.00163363 3.47016e-06 1.35342e-07
3.47016e-06 0.000108543 1.48304e-07
1.35342e-07 1.48304e-07 3.63552e-05
0.00134794 -3.59075e-05 -3.93218e-07
-3.59075e-05 -2.52332e-05 -2.91495e-07
-3.93218e-07 -2.91495e-07 -7.14162e-05
0.000927739 -4.91233e-05 -2.27046e-07
-4.91233e-05 5.09578e-06 7.50293e-07
-2.27046e-07 7.50293e-07 -7.67888e-05
0.00132284 -6.51345e-05 -4.31644e-07
-6.51345e-05 0.000187177 3.03706e-07
-4.31644e-07 3.03706e-07 8.58207e-05
0.00119611 -6.44875e-05 5.39225e-07
-6.44875e-05 6.35552e-05 5.74685e-07
5.39225e-07 5.74685e-07 -3.5264e-05
0.00157509 -6.08438e-05 4.5438e-08
-6.08438e-05 0.000124304 -9.81129e-07
4.5438e-08 -9.81129e-07 7.44868e-05
0.00103817 1.79928e-06 5.21437e-07
1.79928e-06 5.76406e-05 -4.84912e-07
5.21437e-07 -4.84912e-07 8.91119e-06
0.00108092 -1.76688e-05 -5.14841e-07
-1.76688e-05 8.57457e-05 5.18046e-07
-5.14841e-07 5.18046e-07 1.7526e-05
0.00104176 -5.10244e-05 4.06083e-07
-5.10244e-05 5.52649e-05 2.79838e-07
4.06083e-07 2.79838e-07 -2.6482e-05
0.00127711 -5.60285e-05 -1.1065e-06
-5.60285e-05 0.000182386 -1.44431e-07
-1.1065e-06 -1.44431e-07 9.1011e-05
0.00101984 -4.30772e-05 4.48639e-07
-4.30772e-05 6.33953e-05 3.23187e-07
4.48639e-07 3.23187e-07 -3.32235e-05
0.00103747 -3.28145e-05 2.51002e-07
-3.28145e-05 6.87475e-05 -2.79417e-07
2.51002e-07 -2.79417e-07 -1.43544e-05
0.00150215 3.16788e-05 3.31449e-06
3.16788e-05 7.17066e-05 1.03812e-06
3.31449e-06 1.03812e-06 -3.3316e-06
0.00169966 -8.09117e-06 3.00549e-06
-8.09117e-06 0.000128035 -1.18013e-06
3.00549e-06 -1.18013e-06 7.03164e-05
0.00173065 -5.61765e-05 6.21246e-07
-5.61765e-05 0.000127198 -2.95781e-06
6.21246e-07 -2.95781e-06 9.92404e-05
0.00149266 -7.29537e-05 3.94902e-06
-7.29537e-05 0.000143734 8.71544e-07
3.94902e-06 8.71544e-07 6.41105e-05
0.00109199 -5.4565e-05 5.59166e-08
-5.4565e-05 8.7185e-05 -2.03686e-06
5.59166e-08 -2.03686e-06 -1.77155e-06
0.00160816 -7.71598e-05 1.89557e-06
-7.71598e-05 0.000319156 -2.57029e-06
1.89557e-06 -2.57029e-06 0.000204302
0.000784518 1.24882e-05 -2.42562e-07
1.24882e-05 -7.01717e-05 -1.72196e-06
-2.42562e-07 -1.72196e-06 -0.000114336
0.000981123 -8.14623e-06 7.24172e-07
-8.14623e-06 2.89503e-05 -1.32036e-06
7.24172e-07 -1.32036e-06 -1.75361e-05
0.00123629 -1.16465e-05 9.32076e-08
-1.16465e-05 0.000166585 -7.2714e-07
9.32076e-08 -7.2714e-07 0.000108161
0.00089329 7.44193e-06 -3.10033e-07
7.44193e-06 -6.91306e-06 -1.1963e-06
-3.10033e-07 -1.1963e-06 -7.33977e-05
0.00117279 -2.96316e-05 8.71886e-08
-2.96316e-05 0.000133655 -8.07001e-07
8.71886e-08 -8.07001e-07 5.4828e-05
0.000927021 -3.21349e-05 9.27248e-08
-3.21349e-05 1.86047e-05 -6.71584e-07
9.27248e-08 -6.71584e-07 -7.40683e-05
0.00119681 -4.57732e-05 2.13754e-06
-4.57732e-05 0.000159544 -9.11153e-07
2.13754e-06 -9.11153e-07 5.57436e-05
0.00101949 -5.4788e-05 6.75074e-07
-5.4788e-05 6.56632e-05 -3.88728e-07
6.75074e-07 -3.88728e-07 -2.69481e-05
0.000944818 3.60421e-05 -4.39385e-07
3.60421e-05 1.55664e-05 -5.57796e-07
-4.39385e-07 -5.57796e-07 -5.85818e-05
0.00110496 4.86903e-05 -1.48996e-06
4.86903e-05 9.39187e-05 -7.25016e-07
-1.48996e-06 -7.25016e-07 1.20165e-05
0.00161458 2.80438e-05 -3.87527e-06
2.80438e-05 8.50499e-05 -3.05107e-06
-3.87527e-06 -3.05107e-06 3.9179e-05
0.00141371 5.62702e-05 -1.98504e-06
5.62702e-05 8.44076e-05 -3.40832e-07
-1.98504e-06 -3.40832e-07 1.78605e-05
0.00122855 5.28406e-05 -1.0945e-06
5.28406e-05 0.000148545 -3.26018e-07
-1.0945e-06 -3.26018e-07 6.49706e-05
0.00115775 5.35543e-05 -9.8285e-07
5.35543e-05 0.000117903 -1.74532e-06
-9.8285e-07 -1.74532e-06 3.3639e-05
0.00172285 7.59415e-05 -1.42347e-06
7.59415e-05 0.000317467 -6.03437e-07
-1.42347e-06 -6.03437e-07 0.000222715
0.000926568 5.58401e-05 -1.09476e-06
5.58401e-05 -1.23643e-05 -1.73966e-06
-1.09476e-06 -1.73966e-06 -0.000119325
0.00107823 4.82127e-05 -3.52607e-07
4.82127e-05 8.81903e-05 -3.45158e-07
-3.52607e-07 -3.45158e-07 5.87087e-06
0.00139004 4.87878e-06 8.85245e-07
4.87878e-06 -2.48606e-05 6.88236e-07
8.85245e-07 6.88236e-07 -7.87423e-05
0.00111495 5.14155e-05 3.05193e-07
5.14155e-05 9.94383e-05 3.52527e-07
3.05193e-07 3.52527e-07 1.09517e-05
0.000979623 5.12349e-05 2.50306e-07
5.12349e-05 2.79359e-05 -1.68097e-07
2.50306e-07 -1.68097e-07 -6.68989e-05
0.0015697 5.19284e-05 4.03702e-07
5.19284e-05 3.65631e-05 -3.28315e-07
4.03702e-07 -3.28315e-07 -9.0938e-06
0.00149464 7.65342e-05 7.63569e-07
7.65342e-05 0.000142287 -4.93599e-07
7.63569e-07 -4.93599e-07 4.83772e-05
0.00155519 7.34669e-05 2.52122e-07
7.34669e-05 0.000292452 5.99876e-07
2.52122e-07 5.99876e-07 0.000176208
0.00114866 5.05288e-05 4.0611e-07
5.05288e-05 0.000125843 3.30955e-07
4.0611e-07 3.30955e-07 3.67157e-05
0.00165471 3.79836e-05 6.07378e-06
3.79836e-05 8.43454e-06 7.86842e-07
6.07378e-06 7.86842e-07 -3.48328e-05
0.00137253 5.84215e-05 4.30445e-07
5.84215e-05 0.000219824 1.36407e-07
4.30445e-07 1.36407e-07 0.000127217
0.00152257 6.72251e-05 -9.97436e-07
6.72251e-05 0.000294738 2.01014e-06
-9.97436e-07 2.01014e-06 0.000184539
0.00121271 7.92434e-05 6.17842e-06
7.92434e-05 -0.000111391 2.34353e-06
6.17842e-06 2.34353e-06 -0.00019415
0.0010935 7.04097e-05 -1.18323e-08
7.04097e-05 3.43916e-05 2.56215e-06
-1.18323e-08 2.56215e-06 -8.7001e-05
0.0022149 -3.22543e-05 5.04078e-06
-3.22543e-05 0.00018557 -3.0276e-06
5.04078e-06 -3.0276e-06 0.000206769
0.00106175 4.38714e-05 -5.08043e-07
4.38714e-05 8.18067e-05 -6.97982e-07
-5.08043e-07 -6.97982e-07 1.88046e-06
0.00106714 4.73642e-05 2.84409e-08
4.73642e-05 8.54701e-05 -2.07179e-08
2.84409e-08 -2.07179e-08 -1.27866e-06
0.00123216 5.26829e-05 5.8566e-07
5.26829e-05 0.000158872 3.14105e-07
5.8566e-07 3.14105e-07 6.80087e-05
0.000980509 -1.04088e-05 3.24591e-07
-1.04088e-05 3.22327e-05 -1.11836e-06
3.24591e-07 -1.11836e-06 -1.56605e-05
0.000883507 -2.41455e-06 -8.8189e-08
-2.41455e-06 -1.31383e-05 -4.45889e-07
-8.8189e-08 -4.45889e-07 -7.71023e-05
0.00118299 3.37353e-05 -2.63335e-07
3.37353e-05 0.000140997 -3.29128e-07
-2.63335e-07 -3.29128e-07 6.57037e-05
0.000987446 3.28152e-05 -6.52689e-07
3.28152e-05 3.98413e-05 -1.15785e-06
-6.52689e-07 -1.15785e-06 -4.57797e-05
0.000988348 -1.47733e-05 -1.805e-07
-1.47733e-05 3.64697e-05 1.11579e-08
-1.805e-07 1.11579e-08 -1.13182e-05
0.0009509 1.4152e-05 2.27426e-07
1.4152e-05 2.35688e-05 2.41842e-08
2.27426e-07 2.41842e-08 -3.98707e-05
0.0011195 4.96886e-05 -6.40094e-07
4.96886e-05 0.000100105 -7.6325e-07
-6.40094e-07 -7.6325e-07 1.00857e-05
0.00106442 1.92994e-05 -2.85361e-08
1.92994e-05 7.91416e-05 1.86821e-08
-2.85361e-08 1.86821e-08 5.48487e-06
0.00109115 2.34196e-05 4.3079e-08
2.34196e-05 8.94573e-05 -3.61195e-08
4.3079e-08 -3.61195e-08 5.81084e-06
0.00110771 4.02991e-05 3.58825e-07
4.02991e-05 8.56072e-05 1.07233e-06
3.58825e-07 1.07233e-06 -6.03387e-06
0.00120007 3.72695e-05 1.75046e-07
3.72695e-05 0.000144416 3.029e-07
1.75046e-07 3.029e-07 6.2042e-05
0.00116107 3.73666e-05 3.42281e-07
3.73666e-05 0.000128518 5.17753e-07
3.42281e-07 5.17753e-07 5.48276e-05
0.000828776 6.45023e-06 -1.68012e-07
6.45023e-06 -3.77217e-05 9.83189e-07
-1.68012e-07 9.83189e-07 -0.000101835
0.000795134 4.70618e-06 3.34187e-07
4.70618e-06 -6.09194e-05 1.47438e-06
3.34187e-07 1.47438e-06 -0.000110187
0.00120259 -2.38096e-06 2.35208e-07
-2.38096e-06 0.000151453 3.66758e-07
2.35208e-07 3.66758e-07 8.79088e-05
0.000801174 -4.84238e-06 -3.69963e-07
-4.84238e-06 -5.84187e-05 1.47386e-06
-3.69963e-07 1.47386e-06 -0.000108169
0.000955818 1.0805e-05 2.63376e-07
1.0805e-05 6.95533e-06 1.70792e-06
2.63376e-07 1.70792e-06 -2.19018e-05
0.000954052 9.58265e-07 -2.77882e-07
9.58265e-07 5.73879e-06 2.53479e-09
-2.77882e-07 2.53479e-09 -2.27438e-05
0.000904254 -1.36893e-09 1.40844e-07
-1.36893e-09 -3.43488e-05 3.13619e-06
1.40844e-07 3.13619e-06 -3.43366e-05
0.000958896 -9.12841e-06 2.26703e-07
-9.12841e-06 7.43951e-06 -1.73666e-06
2.26703e-07 -1.73666e-06 -2.07556e-05
0.00119815 -3.01936e-06 -6.13383e-07
-3.01936e-06 0.000115013 -1.25521e-06
-6.13383e-07 -1.25521e-06 0.000116516
0.00226971 -4.46755e-06 2.85967e-06
-4.46755e-06 0.000655422 4.03888e-06
2.85967e-06 4.03888e-06 0.000678881
0.00150694 -6.09746e-06 -1.86257e-06
-6.09746e-06 0.000273145 -4.38711e-06
-1.86257e-06 -4.38711e-06 0.000275865
0.00109551 -6.67637e-06 9.72684e-07
-6.67637e-06 6.28555e-05 2.46354e-06
9.72684e-07 2.46354e-06 8.04708e-05
0.00104104 -9.44597e-06 -1.19338e-06
-9.44597e-06 3.85149e-05 -1.57913e-06
-1.19338e-06 -1.57913e-06 5.57011e-05
0.000967885 5.08326e-06 3.41594e-07
5.08326e-06 8.0865e-06 -1.85765e-06
3.41594e-07 -1.85765e-06 -1.67306e-05
0.000961283 7.28667e-06 -2.86456e-08
7.28667e-06 6.52159e-06 -5.1892e-09
-2.86456e-08 -5.1892e-09 -1.96125e-05
0.000887621 9.02499e-06 8.4807e-07
9.02499e-06 -3.83279e-05 -3.21792e-06
8.4807e-07 -3.21792e-06 -3.74611e-05
0.00118103 1.25478e-05 -3.90921e-07
1.25478e-05 0.000113833 2.6238e-08
-3.90921e-07 2.6238e-08 0.000114504
0.00225034 1.53295e-05 8.63187e-06
1.53295e-05 0.000652882 -3.92222e-06
8.63187e-06 -3.92222e-06 0.000675386
0.000902311 1.39334e-05 -1.77903e-06
1.39334e-05 -2.33088e-05 3.23236e-06
-1.77903e-06 3.23236e-06 -2.57358e-05
0.00229159 1.91335e-05 -6.62445e-07
1.91335e-05 0.000678765 -3.58118e-08
-6.62445e-07 -3.58118e-08 0.00069996
0.00233599 2.26134e-05 -1.35123e-05
2.26134e-05 0.000706768 3.96542e-06
-1.35123e-05 3.96542e-06 0.000726556
0.00145508 6.49747e-06 -2.2289e-06
6.49747e-06 4.02083e-05 -2.03275e-06
-2.2289e-06 -2.03275e-06 -1.42377e-05
0.00149937 -2.33565e-05 -1.98165e-06
-2.33565e-05 8.07815e-05 -2.13684e-08
-1.98165e-06 -2.13684e-08 4.77061e-06
0.00150683 5.36389e-06 -1.94529e-06
5.36389e-06 9.90739e-05 -5.57774e-07
-1.94529e-06 -5.57774e-07 1.93571e-05
0.00148574 2.14295e-06 -2.12259e-07
2.14295e-06 9.05956e-05 -7.11937e-07
-2.12259e-07 -7.11937e-07 1.30353e-05
0.00147182 -1.73298e-05 -2.12884e-07
-1.73298e-05 5.51618e-05 6.4317e-07
-2.12884e-07 6.4317e-07 -1.34741e-05
0.0013858 -1.88632e-05 1.26899e-06
-1.88632e-05 1.3541e-05 2.32376e-07
1.26899e-06 2.32376e-07 -4.71922e-05
0.00153431 3.44048e-06 2.14013e-06
3.44048e-06 0.000103664 1.11245e-07
2.14013e-06 1.11245e-07 3.43521e-05
0.00231823 -4.81628e-05 -1.89626e-06
-4.81628e-05 0.000373832 -5.77005e-06
-1.89626e-06 -5.77005e-06 0.000347411
0.00160846 1.01974e-05 3.34757e-06
1.01974e-05 7.03822e-05 1.02037e-06
3.34757e-06 1.02037e-06 2.70375e-05
0.000988172 -4.24792e-06 3.6142e-07
-4.24792e-06 3.11202e-05 -1.1456e-06
3.6142e-07 -1.1456e-06 -1.06328e-05
0.00146207 2.94242e-05 -2.77047e-06
2.94242e-05 6.08156e-05 -6.81432e-07
-2.77047e-06 -6.81432e-07 -1.79374e-05
0.00165476 2.90589e-06 -2.65367e-06
2.90589e-06 0.000117072 1.06462e-06
-2.65367e-06 1.06462e-06 4.52386e-05
0.00123178 -3.63706e-05 -1.41572e-06
-3.63706e-05 -7.84701e-05 2.47657e-06
-1.41572e-06 2.47657e-06 -0.00012742
0.000907103 -4.84767e-05 -4.50569e-07
-4.84767e-05 -4.81792e-06 2.03864e-06
-4.50569e-07 2.03864e-06 -8.58586e-05
0.00116233 -6.19067e-05 -1.5848e-06
-6.19067e-05 0.000108588 4.43398e-06
-1.5848e-06 4.43398e-06 5.69478e-06
0.000983225 -5.93495e-05 -2.81315e-06
-5.93495e-05 -4.57051e-05 8.6627e-07
-2.81315e-06 8.6627e-07 -0.000142882
0.00138334 -5.91884e-05 -2.78294e-06
-5.91884e-05 3.37663e-05 -1.00585e-06
-2.78294e-06 -1.00585e-06 -1.65252e-05
0.00120409 -5.44875e-05 9.52817e-08
-5.44875e-05 0.000133774 3.67813e-07
9.52817e-08 3.67813e-07 5.21605e-05
0.000978073 -4.90875e-05 -4.06439e-06
-4.90875e-05 3.25565e-05 -1.536e-06
-4.06439e-06 -1.536e-06 -5.65041e-05
0.000936689 -4.05216e-05 -2.39102e-07
-4.05216e-05 2.39161e-05 1.05547e-06
-2.39102e-07 1.05547e-06 -7.40341e-05
0.000955383 9.74247e-06 -6.85945e-07
9.74247e-06 6.01911e-06 1.8885e-06
-6.85945e-07 1.8885e-06 -2.1882e-05
0.00107961 -3.2439e-05 6.5586e-08
-3.2439e-05 8.79079e-05 5.29033e-07
6.5586e-08 5.29033e-07 5.21781e-06
0.00125271 -1.21431e-05 -2.03629e-07
-1.21431e-05 0.000166193 7.84794e-07
-2.03629e-07 7.84794e-07 0.000118863
0.00106157 -1.03497e-05 -3.91937e-07
-1.03497e-05 7.6783e-05 1.89954e-06
-3.91937e-07 1.89954e-06 8.29814e-06
0.000782682 5.6957e-06 -2.37101e-07
5.6957e-06 -7.152e-05 1.27742e-06
-2.37101e-07 1.27742e-06 -0.000116833
0.00151789 3.05068e-05 9.98316e-08
3.05068e-05 7.51863e-05 5.32363e-08
9.98316e-08 5.32363e-08 1.8395e-07
0.000898193 3.80243e-07 2.84583e-07
3.80243e-07 -1.3491e-05 -4.71378e-07
2.84583e-07 -4.71378e-07 -5.70428e-05
0.000984198 -1.12583e-05 -1.61045e-07
-1.12583e-05 3.09707e-05 3.6147e-08
-1.61045e-07 3.6147e-08 -1.57239e-05
0.00104128 -3.34612e-06 -4.82307e-07
-3.34612e-06 6.85522e-05 4.82569e-07
-4.82307e-07 4.82569e-07 8.94205e-06
0.00167333 -8.28546e-06 7.90584e-07
-8.28546e-06 0.000112755 5.50889e-07
7.90584e-07 5.50889e-07 5.56e-05
0.0015434 -5.57879e-05 -8.23041e-07
-5.57879e-05 3.82263e-05 -1.18434e-06
-8.23041e-07 -1.18434e-06 7.85498e-06
0.00104474 -5.39734e-05 -5.38688e-08
-5.39734e-05 6.1283e-05 4.70838e-07
-5.38688e-08 4.70838e-07 -2.6782e-05
0.00123022 -6.89561e-05 9.70383e-07
-6.89561e-05 0.000137641 -2.97041e-07
9.70383e-07 -2.97041e-07 2.28661e-05
0.00130612 -6.94142e-05 -1.76475e-07
-6.94142e-05 5.22034e-05 5.86769e-07
-1.76475e-07 5.86769e-07 -2.63642e-05
0.000974738 5.25812e-06 -1.58601e-07
5.25812e-06 3.3732e-05 1.40075e-08
-1.58601e-07 1.40075e-08 -3.14593e-05
0.00115049 -3.01948e-05 4.92572e-08
-3.01948e-05 0.000122257 -1.23835e-08
4.92572e-08 -1.23835e-08 4.27028e-05
0.000984448 -5.36401e-05 -1.27861e-06
-5.36401e-05 4.61013e-05 -1.53292e-08
-1.27861e-06 -1.53292e-08 -4.67023e-05
0.00118297 -4.35526e-05 1.80671e-07
-4.35526e-05 0.000152747 -1.71163e-07
1.80671e-07 -1.71163e-07 5.01418e-05
0.00100332 -3.7809e-05 -1.24578e-07
-3.7809e-05 5.60647e-05 6.0227e-07
-1.24578e-07 6.0227e-07 -3.60532e-05
0.00140606 2.7287e-05 3.71694e-06
2.7287e-05 -4.53871e-06 3.56138e-07
3.71694e-06 3.56138e-07 -7.53476e-05
0.00194761 -3.20643e-05 3.08646e-06
-3.20643e-05 0.000186201 -3.50827e-06
3.08646e-06 -3.50827e-06 0.000168521
0.00177662 -8.00966e-05 4.96557e-06
-8.00966e-05 0.000182215 -5.00165e-07
4.96557e-06 -5.00165e-07 0.000126237
0.00169758 -8.47746e-05 2.24793e-06
-8.47746e-05 0.000328824 -1.86855e-06
2.24793e-06 -1.86855e-06 0.00021973
0.000944989 -5.90692e-05 5.86122e-07
-5.90692e-05 3.50621e-05 -2.8683e-06
5.86122e-07 -2.8683e-06 -6.71179e-05
0.000794433 1.61005e-05 8.03365e-08
1.61005e-05 -5.4682e-05 -1.41885e-06
8.03365e-08 -1.41885e-06 -0.000113579
0.000895755 9.78401e-06 4.10078e-07
9.78401e-06 -5.02005e-06 -1.28914e-06
4.10078e-07 -1.28914e-06 -6.84876e-05
0.00116161 1.50829e-05 2.97349e-07
1.50829e-05 0.000132594 -2.83014e-07
2.97349e-07 -2.83014e-07 6.20875e-05
0.00111469 -3.53346e-05 6.04625e-07
-3.53346e-05 0.000107315 -1.03197e-06
6.04625e-07 -1.03197e-06 2.94979e-05
0.00107512 -3.68326e-05 -6.32354e-08
-3.68326e-05 8.7266e-05 -1.63949e-07
-6.32354e-08 -1.63949e-07 -1.1327e-07
0.00112507 -3.77153e-05 1.47947e-07
-3.77153e-05 0.000125746 -1.7002e-06
1.47947e-07 -1.7002e-06 2.63685e-05
0.00106341 -4.83648e-05 3.53832e-06
-4.83648e-05 0.000115984 -8.10976e-07
3.53832e-06 -8.10976e-07 -4.639e-06
0.00104583 4.74898e-05 -7.74922e-07
4.74898e-05 7.23022e-05 -8.86776e-07
-7.74922e-07 -8.86776e-07 -9.98481e-06
0.00102339 4.93281e-05 -2.37573e-07
4.93281e-05 5.4066e-05 2.73731e-08
-2.37573e-07 2.73731e-08 -3.421e-05
0.00132999 3.83595e-06 -2.47168e-06
3.83595e-06 -5.67396e-05 -1.18787e-06
-2.47168e-06 -1.18787e-06 -0.000108457
0.00141318 4.7484e-05 -2.26639e-06
4.7484e-05 -3.17724e-05 -1.86049e-06
-2.26639e-06 -1.86049e-06 -7.8382e-05
0.00165008 8.12477e-05 -2.59784e-06
8.12477e-05 0.000211103 -1.40992e-06
-2.59784e-06 -1.40992e-06 0.000117794
0.000808316 4.73371e-05 -1.65409e-07
4.73371e-05 -5.94882e-05 -1.37156e-06
-1.65409e-07 -1.37156e-06 -0.000155377
0.00141103 7.05442e-05 -4.18776e-07
7.05442e-05 0.000224546 -5.95149e-07
-4.18776e-07 -5.95149e-07 0.000108421
0.00115047 5.05665e-05 6.63019e-08
5.05665e-05 0.000126776 8.7963e-08
6.63019e-08 8.7963e-08 3.82003e-05
0.0015033 3.64736e-05 -2.12284e-06
3.64736e-05 -6.68801e-05 1.07457e-07
-2.12284e-06 1.07457e-07 -0.000109181
0.00119655 5.42478e-05 -1.7524e-07
5.42478e-05 0.000134385 -2.56882e-07
-1.7524e-07 -2.56882e-07 4.21943e-05
0.00124176 5.99203e-05 -1.51975e-07
5.99203e-05 0.000164657 4.98041e-07
-1.51975e-07 4.98041e-07 5.47812e-05
0.0014227 8.08024e-05 2.6171e-06
8.08024e-05 -2.3974e-05 -9.25348e-07
2.6171e-06 -9.25348e-07 -0.000103372
0.00125036 7.45509e-05 -9.90367e-07
7.45509e-05 0.000115405 8.24121e-07
-9.90367e-07 8.24121e-07 -1.05313e-05
0.00193268 -2.34387e-05 -2.46925e-06
-2.34387e-05 7.5466e-05 -4.18348e-07
-2.46925e-06 -4.18348e-07 8.77578e-05
0.00118559 5.21134e-05 -1.10967e-07
5.21134e-05 0.000138648 -3.19255e-07
-1.10967e-07 -3.19255e-07 4.61757e-05
0.00126893 9.05607e-05 9.52969e-06
9.05607e-05 -0.000212113 1.77913e-06
9.52969e-06 1.77913e-06 -0.00028043
0.00127131 5.70446e-05 -1.05475e-06
5.70446e-05 0.000178408 7.15663e-08
-1.05475e-06 7.15663e-08 7.95444e-05
0.00114132 6.34628e-05 -1.72943e-06
6.34628e-05 0.000143278 1.66688e-06
-1.72943e-06 1.66688e-06 9.28732e-06
0.000540435 8.43531e-05 -3.74645e-08
8.43531e-05 -0.000299907 1.34709e-06
-3.74645e-08 1.34709e-06 -0.00041596
0.00506462 -8.15223e-05 -1.68635e-05
-8.15223e-05 0.00177975 2.3558e-06
-1.68635e-05 2.3558e-06 0.00128293
0.00126856 -0.000108417 4.40484e-05
-0.000108417 -8.35212e-05 1.69928e-05
4.40484e-05 1.69928e-05 -0.000277146
0.00252253 4.93963e-05 9.17086e-07
4.93963e-05 0.000410823 3.65824e-06
9.17086e-07 3.65824e-06 0.000445349
-0.00241921 -9.69697e-05 -5.36844e-05
-9.69697e-05 -0.00142353 -2.01991e-05
-5.36844e-05 -2.01991e-05 -0.00143077
0.00116277 -0.000141787 -8.19286e-06
-0.000141787 -0.000214329 1.49905e-06
-8.19286e-06 1.49905e-06 0.000240734
0.00105269 4.70865e-05 -5.82781e-07
4.70865e-05 7.91476e-05 -5.70557e-07
-5.82781e-07 -5.70557e-07 -7.63551e-06
0.00118446 5.14265e-05 -1.28509e-07
5.14265e-05 0.000136279 -6.96419e-08
-1.28509e-07 -6.96419e-08 4.54404e-05
0.00114056 4.90491e-05 6.5363e-07
4.90491e-05 9.98732e-05 8.81934e-07
6.5363e-07 8.81934e-07 5.7574e-06
0.000982743 -1.83986e-05 1.22379e-07
-1.83986e-05 3.41337e-05 -1.01935e-06
1.22379e-07 -1.01935e-06 -1.39779e-05
0.000891385 1.9503e-05 -5.69178e-08
1.9503e-05 -6.77693e-06 -1.08692e-06
-5.69178e-08 -1.08692e-06 -7.07978e-05
0.00105619 9.23089e-06 -2.53643e-08
9.23089e-06 7.47987e-05 -7.69077e-07
-2.53643e-08 -7.69077e-07 1.53761e-06
0.00116356 2.8617e-05 -3.51282e-07
2.8617e-05 0.000127439 -7.78222e-07
-3.51282e-07 -7.78222e-07 4.43899e-05
0.00105464 4.64094e-05 -1.28068e-06
4.64094e-05 6.7268e-05 -1.43824e-06
-1.28068e-06 -1.43824e-06 -2.26504e-05
0.00105881 3.56375e-05 -2.58421e-07
3.56375e-05 7.63896e-05 -5.06728e-07
-2.58421e-07 -5.06728e-07 1.62512e-06
0.000891776 3.54673e-06 1.56399e-07
3.54673e-06 -1.2175e-05 4.51415e-07
1.56399e-07 4.51415e-07 -6.09272e-05
0.000929023 3.86662e-06 1.55026e-08
3.86662e-06 1.33286e-05 5.80516e-08
1.55026e-08 5.80516e-08 -5.01639e-05
0.00111402 4.21016e-05 7.53208e-08
4.21016e-05 9.10293e-05 4.40603e-08
7.53208e-08 4.40603e-08 -1.58816e-07
0.00113016 3.59328e-05 -2.14668e-07
3.59328e-05 0.000109054 -5.02525e-07
-2.14668e-07 -5.02525e-07 2.64071e-05
0.00122563 5.21405e-05 -8.20514e-08
5.21405e-05 0.000158649 -6.01879e-08
-8.20514e-08 -6.01879e-08 7.61852e-05
0.00117886 4.71337e-05 2.82214e-07
4.71337e-05 0.000131145 1.13523e-06
2.82214e-07 1.13523e-06 3.89426e-05
0.000915265 2.48577e-05 2.24274e-07
2.48577e-05 2.82379e-06 1.55455e-06
2.24274e-07 1.55455e-06 -7.3216e-05
0.000853912 -1.62983e-06 2.48071e-07
-1.62983e-06 -2.45591e-05 3.30662e-07
2.48071e-07 3.30662e-07 -8.89672e-05
0.000774891 -2.42794e-05 -8.91662e-07
-2.42794e-05 -7.02084e-05 1.47447e-06
-8.91662e-07 1.47447e-06 -0.000120289
0.00107525 5.22101e-06 -7.4665e-09
5.22101e-06 8.57576e-05 7.03353e-07
-7.4665e-09 7.03353e-07 2.25236e-05
0.00120248 2.37854e-05 2.00296e-07
2.37854e-05 0.000149954 5.33612e-07
2.00296e-07 5.33612e-07 7.56673e-05
0.00101106 -1.27599e-05 -1.63111e-07
-1.27599e-05 5.45507e-05 9.84137e-07
-1.63111e-07 9.84137e-07 -1.17453e-05
0.00103721 -3.04361e-06 3.12701e-07
-3.04361e-06 6.73046e-05 -5.09238e-07
3.12701e-07 -5.09238e-07 3.10045e-06
0.000978302 -2.08803e-05 -7.45191e-07
-2.08803e-05 3.12138e-05 1.02012e-06
-7.45191e-07 1.02012e-06 -1.83453e-05
0.000799158 1.89616e-06 1.4788e-07
1.89616e-06 -5.86724e-05 4.84356e-07
1.4788e-07 4.84356e-07 -0.000108769
0.000960162 8.67162e-06 2.13378e-08
8.67162e-06 8.91472e-06 1.72712e-06
2.13378e-08 1.72712e-06 -2.03809e-05
0.00095402 1.35697e-06 -2.41511e-07
1.35697e-06 5.96935e-06 -4.99258e-09
-2.41511e-07 -4.99258e-09 -2.28439e-05
0.000923994 2.61574e-06 -3.7178e-07
2.61574e-06 -2.37656e-05 4.4011e-06
-3.7178e-07 4.4011e-06 -2.4105e-05
0.000955833 -8.65446e-06 3.97016e-07
-8.65446e-06 6.68415e-06 -1.70454e-06
3.97016e-07 -1.70454e-06 -2.18061e-05
0.000908272 -6.26628e-08 9.43876e-08
-6.26628e-08 -3.23017e-05 9.76191e-10
9.43876e-08 9.76191e-10 -3.23167e-05
0.0022715 -9.02463e-07 -1.02322e-08
-9.02463e-07 0.000655577 4.04906e-06
-1.02322e-08 4.04906e-06 0.000679119
0.000925232 -2.71844e-06 -4.46263e-07
-2.71844e-06 -2.29465e-05 -4.41588e-06
-4.46263e-07 -4.41588e-06 -2.30275e-05
0.00167964 -3.91922e-06 -1.08002e-07
-3.91922e-06 0.000356585 3.16648e-08
-1.08002e-07 3.16648e-08 0.00037722
0.00105088 -6.39507e-06 -7.2649e-07
-6.39507e-06 4.00384e-05 -1.56057e-06
-7.2649e-07 -1.56057e-06 5.79005e-05
0.00096977 2.66938e-06 1.6734e-07
2.66938e-06 7.68951e-06 -1.86033e-06
1.6734e-07 -1.86033e-06 -1.63234e-05
0.000965241 4.76658e-06 -1.25186e-08
4.76658e-06 6.50276e-06 -1.00454e-08
-1.25186e-08 -1.00454e-08 -1.82783e-05
0.000897131 6.20587e-06 5.5809e-07
6.20587e-06 -3.64678e-05 -3.20503e-06
5.5809e-07 -3.20503e-06 -3.4399e-05
0.000958774 7.05532e-06 -5.62663e-07
7.05532e-06 4.99409e-06 1.86416e-06
-5.62663e-07 1.86416e-06 -2.10958e-05
0.00117491 9.6981e-06 -1.2508e-07
9.6981e-06 0.000106818 -6.07253e-07
-1.2508e-07 -6.07253e-07 0.000109082
0.00221341 1.15052e-05 6.54076e-06
1.15052e-05 0.00063059 -3.91791e-06
6.54076e-06 -3.91791e-06 0.000654092
0.000901485 1.17152e-05 -1.40953e-06
1.17152e-05 -2.75626e-05 3.22294e-06
-1.40953e-06 3.22294e-06 -2.84874e-05
0.00227202 1.49789e-05 -3.30047e-06
1.49789e-05 0.000664741 1.14323e-06
-3.30047e-06 1.14323e-06 0.000686955
0.00229327 1.91499e-05 -1.16022e-05
1.91499e-05 0.000680208 3.97427e-06
-1.16022e-05 3.97427e-06 0.00070125
0.00133727 -1.62653e-05 -2.63982e-06
-1.62653e-05 -4.30858e-06 -1.98192e-07
-2.63982e-06 -1.98192e-07 -7.22181e-05
0.00148864 1.62069e-06 -2.66299e-06
1.62069e-06 9.17527e-05 -1.11826e-06
-2.66299e-06 -1.11826e-06 1.42258e-05
0.00142028 -1.98265e-05 1.9872e-06
-1.98265e-05 4.25309e-05 2.70308e-07
1.9872e-06 2.70308e-07 -2.12741e-05
0.00160473 -4.40665e-05 -1.19245e-06
-4.40665e-05 3.18144e-05 -2.0752e-06
-1.19245e-06 -2.0752e-06 7.43173e-06
0.00141883 1.52658e-06 -7.22754e-07
1.52658e-06 4.76562e-05 -4.20977e-07
-7.22754e-07 -4.20977e-07 -2.22953e-05
0.00128052 9.43097e-06 -9.0868e-07
9.43097e-06 -8.3625e-05 -4.49564e-07
-9.0868e-07 -4.49564e-07 -0.000132549
0.00158813 3.05944e-05 2.11268e-06
3.05944e-05 5.43446e-05 2.72382e-06
2.11268e-06 2.72382e-06 -1.90062e-05
0.0022154 -0.000111239 0.000124174
-0.000111239 0.00044881 3.7112e-05
0.000124174 3.7112e-05 0.000225835
0.00128603 -1.61224e-06 -4.1135e-06
-1.61224e-06 6.04854e-05 4.18615e-07
-4.1135e-06 4.18615e-07 2.46076e-05
0.000989096 -4.62536e-07 -2.17318e-07
-4.62536e-07 3.19821e-05 -1.11695e-06
-2.17318e-07 -1.11695e-06 -9.67024e-06
0.000994232 -1.24715e-05 2.23197e-07
-1.24715e-05 3.44847e-05 3.2127e-09
2.23197e-07 3.2127e-09 -7.5803e-06
0.0010104 9.91603e-06 -2.11313e-07
9.91603e-06 5.19016e-05 -7.86679e-07
-2.11313e-07 -7.86679e-07 -3.49842e-06
0.00101645 -1.12205e-05 -2.2146e-07
-1.12205e-05 5.4321e-05 -3.41248e-07
-2.2146e-07 -3.41248e-07 -9.79572e-07
0.00155466 2.96636e-05 -3.21901e-06
2.96636e-05 8.91068e-05 -7.20383e-07
-3.21901e-06 -7.20383e-07 1.40797e-05
0.00172639 -8.69613e-06 -4.85519e-07
-8.69613e-06 0.000137657 1.65642e-06
-4.85519e-07 1.65642e-06 8.06794e-05
0.00127066 -5.48886e-05 -3.93369e-06
-5.48886e-05 -9.23855e-05 8.03551e-07
-3.93369e-06 8.03551e-07 -0.000125967
0.00108634 -5.519e-05 -4.76787e-07
-5.519e-05 7.97437e-05 2.71616e-06
-4.76787e-07 2.71616e-06 -7.65122e-06
0.000793868 -5.93345e-05 -5.36846e-07
-5.93345e-05 -7.23409e-05 2.56143e-06
-5.36846e-07 2.56143e-06 -0.000187514
0.00108238 -6.54718e-05 -3.36221e-06
-6.54718e-05 -5.79397e-05 -3.38889e-07
-3.36221e-06 -3.38889e-07 -0.000135289
0.000956242 -5.26228e-05 -3.54293e-06
-5.26228e-05 3.05456e-05 1.36051e-06
-3.54293e-06 1.36051e-06 -6.25505e-05
0.00112151 -3.95381e-05 -1.11806e-06
-3.95381e-05 0.000121785 6.70015e-07
-1.11806e-06 6.70015e-07 2.06286e-05
0.00107209 -4.40145e-05 -4.26155e-07
-4.40145e-05 9.00528e-05 1.77378e-06
-4.26155e-07 1.77378e-06 -1.59029e-06
0.00098563 -1.84842e-06 -6.02483e-07
-1.84842e-06 3.16622e-05 1.31627e-06
-6.02483e-07 1.31627e-06 -1.49302e-05
0.0011287 -3.29968e-05 -1.30486e-07
-3.29968e-05 0.000111057 9.72153e-07
-1.30486e-07 9.72153e-07 3.08013e-05
0.00105881 1.58397e-06 -4.9402e-07
1.58397e-06 7.56332e-05 1.16261e-06
-4.9402e-07 1.16261e-06 1.17341e-05
0.00101236 -6.17971e-06 -1.10322e-07
-6.17971e-06 4.34035e-05 7.14825e-07
-1.10322e-07 7.14825e-07 4.55778e-07
0.000843684 1.08182e-05 -2.07929e-07
1.08182e-05 -3.02775e-05 1.77199e-06
-2.07929e-07 1.77199e-06 -9.13718e-05
0.00155435 2.74219e-05 1.20773e-07
2.74219e-05 7.14707e-05 1.40963e-06
1.20773e-07 1.40963e-06 2.11312e-06
0.000994919 1.37358e-05 3.57034e-08
1.37358e-05 4.53494e-05 -4.90081e-07
3.57034e-08 -4.90081e-07 -1.1889e-05
0.000960143 -1.70565e-06 3.46629e-07
-1.70565e-06 2.77416e-05 -9.59691e-09
3.46629e-07 -9.59691e-09 -3.49365e-05
0.00104619 2.04729e-05 -4.234e-08
2.04729e-05 7.37522e-05 9.64385e-07
-4.234e-08 9.64385e-07 3.98594e-06
0.00176182 -3.31012e-05 -2.44895e-06
-3.31012e-05 0.000106237 7.66031e-07
-2.44895e-06 7.66031e-07 8.27388e-05
0.00137177 -7.37868e-05 -9.07063e-07
-7.37868e-05 -1.7078e-05 -9.64303e-07
-9.07063e-07 -9.64303e-07 -7.12334e-05
0.0010982 -6.1911e-05 9.43383e-08
-6.1911e-05 0.000109249 -2.94582e-07
9.43383e-08 -2.94582e-07 6.66235e-06
0.00142092 -7.91998e-05 2.48562e-07
-7.91998e-05 0.000196204 5.13996e-07
2.48562e-07 5.13996e-07 8.7392e-05
0.00115011 -2.7681e-05 -1.49233e-07
-2.7681e-05 0.000125037 7.97123e-08
-1.49233e-07 7.97123e-08 4.81363e-05
0.00104189 -3.71753e-05 -2.76286e-07
-3.71753e-05 6.94674e-05 7.4179e-07
-2.76286e-07 7.4179e-07 -1.74992e-05
0.00105925 -4.85583e-05 1.38697e-06
-4.85583e-05 0.000109128 -2.1181e-07
1.38697e-06 -2.1181e-07 -6.65689e-06
0.00117707 -4.10197e-05 1.16059e-07
-4.10197e-05 0.000151829 -5.44059e-07
1.16059e-07 -5.44059e-07 5.1166e-05
0.000962837 1.9037e-05 4.2553e-06
1.9037e-05 -0.000293709 -1.24522e-06
4.2553e-06 -1.24522e-06 -0.000346847
0.00234828 -8.60262e-05 1.01728e-05
-8.60262e-05 0.000333063 -5.55628e-06
1.01728e-05 -5.55628e-06 0.000307561
0.00159175 -9.04669e-05 6.04286e-06
-9.04669e-05 0.00019819 -9.06404e-07
6.04286e-06 -9.06404e-07 9.50799e-05
0.00112655 -7.37035e-05 1.10802e-06
-7.37035e-05 0.00012671 -2.59522e-06
1.10802e-06 -2.59522e-06 1.09972e-05
0.000964539 1.49893e-05 -3.16169e-07
1.49893e-05 3.54448e-05 -9.08876e-07
-3.16169e-07 -9.08876e-07 -3.82462e-05
0.00098084 -3.03123e-05 7.37268e-07
-3.03123e-05 4.26518e-05 -1.74935e-06
7.37268e-07 -1.74935e-06 -3.27018e-05
0.00105029 -4.74737e-05 4.87809e-07
-4.74737e-05 7.94833e-05 -1.20075e-06
4.87809e-07 -1.20075e-06 -1.24537e-05
0.00114476 -3.18774e-05 -3.37316e-07
-3.18774e-05 0.000154606 -1.21578e-06
-3.37316e-07 -1.21578e-06 2.76524e-05
0.000811385 -6.92519e-06 -3.44968e-06
-6.92519e-06 -0.000216823 -1.261e-06
-3.44968e-06 -1.261e-06 -0.000688286
0.00114432 5.04035e-05 -2.84715e-07
5.04035e-05 0.000123892 -3.39084e-07
-2.84715e-07 -3.39084e-07 3.58735e-05
0.00101138 4.98387e-05 2.14316e-07
4.98387e-05 4.42889e-05 -7.64181e-08
2.14316e-07 -7.64181e-08 -4.74518e-05
0.00126682 3.47682e-05 -7.2662e-06
3.47682e-05 -0.000185708 -1.77653e-07
-7.2662e-06 -1.77653e-07 -0.000227168
0.00174271 8.28868e-05 -4.76671e-06
8.28868e-05 0.000116961 -2.06883e-06
-4.76671e-06 -2.06883e-06 4.06596e-05
0.00136979 7.79363e-05 -1.69625e-06
7.79363e-05 0.000179899 -6.99679e-07
-1.69625e-06 -6.99679e-07 4.85501e-05
0.000961402 5.26595e-05 1.0808e-06
5.26595e-05 3.54068e-05 -4.71939e-07
1.0808e-06 -4.71939e-07 -7.45621e-05
0.00148383 -1.42148e-05 -3.81861e-06
-1.42148e-05 -0.000119674 -1.02413e-07
-3.81861e-06 -1.02413e-07 -0.000112268
0.00117935 5.19604e-05 -2.04865e-08
5.19604e-05 0.000136549 -1.26489e-07
-2.04865e-08 -1.26489e-07 4.43018e-05
0.00164515 9.43917e-05 3.85608e-07
9.43917e-05 -4.55262e-05 -3.07413e-07
3.85608e-07 -3.07413e-07 -0.00011377
0.0011337 5.35737e-05 5.04547e-07
5.35737e-05 0.000114097 2.33428e-08
5.04547e-07 2.33428e-08 1.52151e-05
0.00109562 6.23377e-05 -3.35074e-07
6.23377e-05 0.000121325 -1.10408e-07
-3.35074e-07 -1.10408e-07 -1.05342e-05
0.000747157 8.60355e-05 -1.84912e-06
8.60355e-05 -0.000201158 2.11721e-07
-1.84912e-06 2.11721e-07 -0.000314216
0.00155564 -7.0099e-05 -1.27199e-05
-7.0099e-05 0.000265497 -5.12197e-06
-1.27199e-05 -5.12197e-06 -0.000243544
0.00216607 -0.000106197 3.27898e-06
-0.000106197 0.00018792 -3.7898e-06
3.27898e-06 -3.7898e-06 -9.39006e-05
0.00206483 5.5528e-05 -1.48999e-06
5.5528e-05 0.000191503 -2.43647e-08
-1.48999e-06 -2.43647e-08 0.000230037
-0.000142234 -0.00011241 -9.85562e-06
-0.00011241 -0.000457263 -5.38793e-06
-9.85562e-06 -5.38793e-06 -0.000517559
0.000491942 -0.000142205 -2.6656e-06
-0.000142205 -0.000509047 -1.6406e-06
-2.6656e-06 -1.6406e-06 -0.000119194
0.00111378 5.09664e-05 1.26431e-06
5.09664e-05 0.00010616 1.9427e-08
1.26431e-06 1.9427e-08 1.14665e-05
-1.97339e-05 2.55925e-05 -0.000101054
2.55925e-05 -0.000357162 -9.38686e-06
-0.000101054 -9.38686e-06 -0.000552674
0.0024475 -6.52409e-05 8.58566e-07
-6.52409e-05 0.000950541 -9.98481e-07
8.58566e-07 -9.98481e-07 0.00108723
0.00163519 0.000120682 6.50011e-06
0.000120682 0.000101535 6.15475e-06
6.50011e-06 6.15475e-06 1.86407e-05
0.000872257 3.64819e-05 -1.48856e-07
3.64819e-05 -3.81053e-06 -5.59628e-07
-1.48856e-07 -5.59628e-07 -0.000114099
0.00154633 5.74338e-05 -3.95613e-06
5.74338e-05 0.00038884 2.16357e-06
-3.95613e-06 2.16357e-06 0.000221355
0.00165022 4.54899e-05 -9.33132e-06
4.54899e-05 9.61148e-05 -8.48952e-06
-9.33132e-06 -8.48952e-06 3.59774e-05
0.00510347 -0.000163288 -6.9913e-05
-0.000163288 0.0015428 -1.61769e-05
-6.9913e-05 -1.61769e-05 0.000863205
0.00179615 -3.57981e-05 2.58706e-05
-3.57981e-05 6.64517e-05 2.63883e-05
2.58706e-05 2.63883e-05 -0.000294965
0.000334155 -0.000185807 -5.70115e-05
-0.000185807 -0.000131417 -2.66902e-05
-5.70115e-05 -2.66902e-05 -3.68022e-05
-0.000856293 -6.86096e-05 -1.3063e-06
-6.86096e-05 -0.00124217 8.21045e-06
-1.3063e-06 8.21045e-06 -0.00103888
0.00110715 4.93906e-05 -1.10517e-06
4.93906e-05 9.94911e-05 -7.91167e-07
-1.10517e-06 -7.91167e-07 8.69143e-06
0.00116662 5.00859e-05 -4.66372e-07
5.00859e-05 0.000114054 2.753e-07
-4.66372e-07 2.753e-07 1.98468e-05
0.00125052 5.23391e-05 -1.61697e-07
5.23391e-05 0.000145773 3.90346e-07
-1.61697e-07 3.90346e-07 4.72662e-05
0.000986618 2.42941e-06 -4.17434e-09
2.42941e-06 3.59427e-05 -5.31572e-07
-4.17434e-09 -5.31572e-07 -1.24967e-05
0.00102779 -3.25409e-06 1.52402e-07
-3.25409e-06 6.34334e-05 -1.04403e-06
1.52402e-07 -1.04403e-06 6.84064e-07
0.00095604 2.87374e-05 -7.38413e-07
2.87374e-05 2.34161e-05 -1.29665e-06
-7.38413e-07 -1.29665e-06 -5.20281e-05
0.00106125 3.553e-05 -4.84644e-07
3.553e-05 7.42053e-05 -1.2296e-06
-4.84644e-07 -1.2296e-06 -8.82953e-06
0.00111602 4.14463e-05 -5.99349e-07
4.14463e-05 9.42824e-05 -1.10138e-06
-5.99349e-07 -1.10138e-06 3.61918e-06
0.000784663 -6.29213e-06 2.62999e-07
-6.29213e-06 -6.56628e-05 4.7614e-07
2.62999e-07 4.7614e-07 -0.000115603
0.00112001 4.38499e-05 -4.13037e-07
4.38499e-05 0.000104624 -7.31266e-07
-4.13037e-07 -7.31266e-07 2.25374e-05
0.00107244 1.25324e-05 1.96132e-08
1.25324e-05 8.27684e-05 4.84428e-07
1.96132e-08 4.84428e-07 7.63177e-06
0.000944857 6.95823e-06 1.83081e-07
6.95823e-06 2.08152e-05 -4.06991e-07
1.83081e-07 -4.06991e-07 -4.29542e-05
0.00105155 4.43435e-05 -6.73122e-09
4.43435e-05 6.58284e-05 2.64142e-07
-6.73122e-09 2.64142e-07 -2.73282e-05
0.00110082 3.9827e-05 2.16956e-08
3.9827e-05 9.47305e-05 5.9594e-07
2.16956e-08 5.9594e-07 8.25689e-06
0.00121958 4.70838e-05 2.56822e-07
4.70838e-05 0.000167966 8.7667e-07
2.56822e-07 8.7667e-07 6.36766e-05
0.00104454 -2.87515e-05 -3.92359e-07
-2.87515e-05 6.95001e-05 7.84405e-07
-3.92359e-07 7.84405e-07 -5.63879e-06
0.00106228 -2.18891e-05 -2.37881e-07
-2.18891e-05 7.91988e-05 2.56754e-07
-2.37881e-07 2.56754e-07 1.58827e-05
0.00107039 -7.17011e-06 -1.86635e-07
-7.17011e-06 8.34066e-05 -5.1074e-08
-1.86635e-07 -5.1074e-08 2.02621e-05
0.0010739 7.62665e-06 -1.244e-07
7.62665e-06 8.40012e-05 -4.32761e-07
-1.244e-07 -4.32761e-07 9.14388e-06
0.00106366 7.7997e-06 9.45746e-08
7.7997e-06 7.99692e-05 9.00725e-07
9.45746e-08 9.00725e-07 4.73776e-06
0.00105265 -4.43411e-06 -4.86095e-08
-4.43411e-06 7.4468e-05 1.01849e-06
-4.86095e-08 1.01849e-06 -2.23032e-06
0.00115252 4.51406e-06 -1.11776e-08
4.51406e-06 0.000119623 4.55961e-08
-1.11776e-08 4.55961e-08 3.79175e-05
0.00102868 -3.49876e-05 -6.7153e-07
-3.49876e-05 6.77253e-05 8.8619e-07
-6.7153e-07 8.8619e-07 -1.6015e-05
0.00102039 -1.91303e-05 -2.37509e-07
-1.91303e-05 5.82189e-05 1.01818e-06
-2.37509e-07 1.01818e-06 -1.04234e-05
0.00101494 -1.50752e-05 3.98655e-08
-1.50752e-05 5.63714e-05 -1.83254e-08
3.98655e-08 -1.83254e-08 -9.77929e-06
0.000987083 -1.1333e-05 -5.06723e-07
-1.1333e-05 3.43499e-05 1.1361e-06
-5.06723e-07 1.1361e-06 -1.63563e-05
0.000873654 -6.57568e-06 3.47332e-07
-6.57568e-06 -1.59996e-05 -1.37917e-06
3.47332e-07 -1.37917e-06 -8.08101e-05
0.000890692 -1.13741e-05 1.13552e-07
-1.13741e-05 -1.33518e-05 -7.71546e-09
1.13552e-07 -7.71546e-09 -6.32507e-05
0.000965668 5.48508e-06 -3.18185e-07
5.48508e-06 1.15488e-05 1.757e-06
-3.18185e-07 1.757e-06 -1.84468e-05
0.000799407 1.81846e-06 1.18288e-07
1.81846e-06 -5.8504e-05 -5.23878e-07
1.18288e-07 -5.23878e-07 -0.000108493
0.00095805 6.18193e-07 -1.58561e-07
6.18193e-07 7.72528e-06 -1.41239e-08
-1.58561e-07 -1.41239e-08 -2.15519e-05
0.00151305 5.70861e-06 -2.20359e-06
5.70861e-06 0.000276101 4.36869e-06
-2.20359e-06 4.36869e-06 0.000278235
0.000952319 -8.04038e-06 5.35809e-07
-8.04038e-06 5.08997e-06 -1.6985e-06
5.35809e-07 -1.6985e-06 -2.37186e-05
0.00121264 2.81162e-06 -7.70247e-07
2.81162e-06 0.000122407 6.16492e-07
-7.70247e-07 6.16492e-07 0.000123528
0.00110052 1.7684e-06 -1.77709e-06
1.7684e-06 6.25722e-05 3.94805e-06
-1.77709e-06 3.94805e-06 8.02753e-05
0.000912394 -1.25314e-07 5.11713e-08
-1.25314e-07 -3.01975e-05 -3.12506e-06
5.11713e-08 -3.12506e-06 -3.02411e-05
0.00226942 -7.15278e-07 1.03769e-06
-7.15278e-07 0.000654524 -7.66147e-11
1.03769e-06 -7.66147e-11 0.000678067
0.00109653 -2.81357e-06 -8.38989e-07
-2.81357e-06 6.12201e-05 -3.95079e-06
-8.38989e-07 -3.95079e-06 7.90407e-05
0.000998805 1.73813e-05 1.70607e-07
1.73813e-05 3.66281e-05 -6.05507e-07
1.70607e-07 -6.05507e-07 -5.64096e-06
0.000969395 5.66718e-07 3.70862e-08
5.66718e-07 7.05453e-06 -1.84551e-06
3.70862e-08 -1.84551e-06 -1.67852e-05
0.000968566 2.33685e-06 -4.12874e-08
2.33685e-06 6.89817e-06 -1.41437e-08
-4.12874e-08 -1.41437e-08 -1.70962e-05
0.00090443 3.19869e-06 2.57605e-07
3.19869e-06 -3.45381e-05 -3.2191e-06
2.57605e-07 -3.2191e-06 -3.17694e-05
0.000962948 4.46138e-06 -4.10897e-07
4.46138e-06 5.10924e-06 1.87101e-06
-4.10897e-07 1.87101e-06 -1.96391e-05
0.000901086 6.24643e-06 5.09348e-08
6.24643e-06 -3.47351e-05 -6.2173e-07
5.09348e-08 -6.2173e-07 -3.25992e-05
0.0021868 7.67032e-06 4.27486e-06
7.67032e-06 0.000614526 -3.94046e-06
4.27486e-06 -3.94046e-06 0.000638754
0.00145388 1.0921e-05 -1.25439e-06
1.0921e-05 0.000248301 1.98143e-06
-1.25439e-06 1.98143e-06 0.000251743
0.00166846 1.02382e-05 1.76628e-07
1.02382e-05 0.000355471 1.21183e-06
1.76628e-07 1.21183e-06 0.000375896
0.00113801 1.18791e-05 -9.23563e-06
1.18791e-05 9.10163e-05 6.44522e-06
-9.23563e-06 6.44522e-06 0.000107454
0.000610455 -3.34349e-05 -4.96305e-06
-3.34349e-05 -0.00044329 1.53541e-06
-4.96305e-06 1.53541e-06 -0.000458925
0.00131824 -1.29346e-06 -2.61653e-06
-1.29346e-06 -7.60855e-07 -6.83323e-07
-2.61653e-06 -6.83323e-07 -7.14139e-05
0.000902697 7.76838e-06 -6.57102e-06
7.76838e-06 -0.000260714 -4.3369e-06
-6.57102e-06 -4.3369e-06 -0.000315239
0.000994824 -9.00131e-05 3.64334e-05
-9.00131e-05 5.7702e-05 6.1266e-06
3.64334e-05 6.1266e-06 -0.000152093
0.00113403 -8.44411e-06 -1.81955e-06
-8.44411e-06 -1.09101e-05 -4.80395e-07
-1.81955e-06 -4.80395e-07 -4.12479e-05
0.00141737 3.23712e-05 -1.64361e-06
3.23712e-05 -3.18063e-05 -1.45273e-06
-1.64361e-06 -1.45273e-06 -0.000105487
0.00123195 4.7692e-05 2.42203e-06
4.7692e-05 3.53571e-05 1.94663e-06
2.42203e-06 1.94663e-06 -1.7522e-05
0.000905161 -2.95169e-05 0.000104412
-2.95169e-05 3.29108e-06 7.79375e-06
0.000104412 7.79375e-06 -0.000228486
0.00446688 6.88531e-05 -2.02094e-05
6.88531e-05 0.0012869 -2.49324e-06
-2.02094e-05 -2.49324e-06 0.000671049
0.00265644 0.000181174 -3.83606e-05
0.000181174 0.000945388 1.9413e-05
-3.83606e-05 1.9413e-05 0.000873484
0.00113441 0.000109315 -8.71543e-06
0.000109315 1.52323e-06 1.40717e-06
-8.71543e-06 1.40717e-06 0.000287063
0.000808177 -1.63703e-06 6.00959e-07
-1.63703e-06 -4.8899e-05 -1.18926e-06
6.00959e-07 -1.18926e-06 -0.00010536
0.000992927 -5.88414e-06 -8.42369e-08
-5.88414e-06 3.38184e-05 1.06088e-10
-8.42369e-08 1.06088e-10 -7.76746e-06
0.00100339 -2.00631e-05 -5.53019e-07
-2.00631e-05 3.94e-05 1.14336e-06
-5.53019e-07 1.14336e-06 -2.96187e-06
0.000935168 1.31971e-05 -1.59145e-07
1.31971e-05 1.49008e-05 5.17932e-09
-1.59145e-07 5.17932e-09 -4.108e-05
0.00112799 3.58462e-05 1.81502e-07
3.58462e-05 0.000116467 7.36986e-08
1.81502e-07 7.36986e-08 5.02332e-05
0.00108406 4.18443e-05 2.01319e-07
4.18443e-05 9.22126e-05 1.07266e-09
2.01319e-07 1.07266e-09 2.80873e-05
0.00104021 4.19167e-06 3.82624e-07
4.19167e-06 6.75188e-05 -1.64394e-06
3.82624e-07 -1.64394e-06 1.03457e-05
0.000953114 -1.51257e-05 -2.07461e-07
-1.51257e-05 2.26892e-05 4.89559e-07
-2.07461e-07 4.89559e-07 -3.29637e-05
0.00169893 2.75656e-05 -3.09183e-06
2.75656e-05 0.000145559 4.58299e-07
-3.09183e-06 4.58299e-07 7.76931e-05
0.00151695 -3.3549e-05 -2.82657e-06
-3.3549e-05 -4.50575e-06 1.62899e-06
-2.82657e-06 1.62899e-06 -3.28203e-05
0.00109714 -6.87091e-05 -8.29479e-06
-6.87091e-05 -0.000151649 -3.91397e-07
-8.29479e-06 -3.91397e-07 -0.000203501
0.00117095 -6.31652e-05 -4.51183e-07
-6.31652e-05 0.000142532 2.07652e-06
-4.51183e-07 2.07652e-06 3.99034e-05
0.00128044 -7.64407e-05 -1.68063e-06
-7.64407e-05 0.00013078 2.41405e-06
-1.68063e-06 2.41405e-06 2.25572e-05
0.00105483 -4.88125e-05 -4.7271e-07
-4.88125e-05 0.000102465 9.65535e-07
-4.7271e-07 9.65535e-07 -8.9612e-06
0.00124595 -4.49574e-05 1.7305e-07
-4.49574e-05 0.000186476 7.79258e-07
1.7305e-07 7.79258e-07 8.43961e-05
0.00100853 -3.78541e-05 -5.98558e-07
-3.78541e-05 5.17837e-05 1.39923e-06
-5.98558e-07 1.39923e-06 -3.48024e-05
0.00102242 -1.09851e-05 -3.59509e-07
-1.09851e-05 5.96462e-05 1.28683e-06
-3.59509e-07 1.28683e-06 -2.35911e-06
0.0011845 -1.88753e-05 -2.71451e-07
-1.88753e-05 0.000142281 9.87458e-07
-2.71451e-07 9.87458e-07 6.62559e-05
0.00120252 6.73608e-06 -2.93562e-07
6.73608e-06 0.000149134 5.38528e-07
-2.93562e-07 5.38528e-07 9.34231e-05
0.000939564 2.51416e-05 3.04177e-07
2.51416e-05 1.92488e-05 2.22396e-06
3.04177e-07 2.22396e-06 -4.97882e-05
0.0017143 2.89004e-05 7.25981e-07
2.89004e-05 5.99658e-05 -2.80521e-06
7.25981e-07 -2.80521e-06 8.01684e-06
0.000994919 1.55801e-05 -2.21411e-07
1.55801e-05 5.08434e-05 2.84041e-07
-2.21411e-07 2.84041e-07 -2.22589e-05
0.00103236 -3.08317e-05 1.44134e-07
-3.08317e-05 6.88072e-05 -4.3683e-07
1.44134e-07 -4.3683e-07 -6.53688e-06
0.00175373 -7.90291e-05 -4.30767e-06
-7.90291e-05 4.96007e-05 -1.03846e-06
-4.30767e-06 -1.03846e-06 3.07614e-05
0.000935296 -7.93207e-05 1.67958e-06
-7.93207e-05 -0.000116919 1.3566e-06
1.67958e-06 1.3566e-06 -0.000217376
0.0011168 -7.44765e-05 1.58104e-07
-7.44765e-05 0.000121167 -5.37563e-07
1.58104e-07 -5.37563e-07 4.07362e-09
0.00108532 -4.16603e-05 -2.14509e-08
-4.16603e-05 9.51188e-05 -1.51498e-07
-2.14509e-08 -1.51498e-07 3.25584e-06
0.00113776 -3.43635e-05 -1.24887e-07
-3.43635e-05 0.000150037 2.36571e-07
-1.24887e-07 2.36571e-07 2.34406e-05
0.00154095 -3.59919e-05 7.59067e-07
-3.59919e-05 -0.000227726 9.5711e-06
7.59067e-07 9.5711e-06 -0.000188171
0.00254159 -0.000139671 1.24093e-05
-0.000139671 0.000567428 -2.44639e-06
1.24093e-05 -2.44639e-06 0.000462225
0.000539366 -7.85387e-05 1.191e-06
-7.85387e-05 -0.000204879 -3.1523e-06
1.191e-06 -3.1523e-06 -0.000324382
0.00123538 -5.47048e-05 6.16492e-07
-5.47048e-05 0.000212266 -1.7378e-06
6.16492e-07 -1.7378e-06 5.5013e-05
0.000947219 -2.77615e-05 1.77709e-07
-2.77615e-05 3.00226e-05 -9.1378e-07
1.77709e-07 -9.1378e-07 -5.08303e-05
0.00104759 -2.73134e-05 7.04186e-07
-2.73134e-05 7.58559e-05 -1.48719e-06
7.04186e-07 -1.48719e-06 -1.0896e-05
0.00124598 -2.05686e-05 -2.15071e-08
-2.05686e-05 0.000183198 -1.02867e-06
-2.15071e-08 -1.02867e-06 7.56597e-05
-0.000586646 -1.14068e-05 -9.3529e-05
-1.14068e-05 -0.000557479 4.83845e-08
-9.3529e-05 4.83845e-08 -0.000565655
0.00484095 -2.36737e-05 -2.11151e-05
-2.36737e-05 0.00161927 -3.06497e-06
-2.11151e-05 -3.06497e-06 0.00113191
0.00119554 5.24019e-05 -2.16261e-07
5.24019e-05 0.00014518 -6.29569e-08
-2.16261e-07 -6.29569e-08 5.31491e-05
0.000984602 4.97678e-05 8.93539e-07
4.97678e-05 4.40172e-05 -1.24457e-06
8.93539e-07 -1.24457e-06 -5.48448e-05
0.00204779 9.88444e-05 -1.11979e-05
9.88444e-05 0.000133322 -9.72787e-07
-1.11979e-05 -9.72787e-07 6.53226e-05
0.00106153 9.02611e-05 -2.13785e-06
9.02611e-05 -5.2823e-05 -2.87626e-06
-2.13785e-06 -2.87626e-06 -0.00016237
0.00107527 6.1601e-05 1.42081e-06
6.1601e-05 0.000111809 -1.67633e-06
1.42081e-06 -1.67633e-06 -1.73151e-05
0.00458441 -3.08773e-05 1.95763e-05
-3.08773e-05 0.00139127 -1.14225e-05
1.95763e-05 -1.14225e-05 0.000774904
0.000844052 -0.000110029 -4.15433e-05
-0.000110029 -0.000154233 -1.68773e-05
-4.15433e-05 -1.68773e-05 -0.000377486
0.00171449 6.22237e-05 7.33378e-06
6.22237e-05 2.45418e-05 -3.28617e-06
7.33378e-06 -3.28617e-06 5.84336e-05
0.00260975 -0.000157774 3.41749e-05
-0.000157774 0.000995321 1.18126e-05
3.41749e-05 1.18126e-05 0.000935499
-0.000176927 -0.000144413 1.1419e-05
-0.000144413 -0.000808557 1.1067e-05
1.1419e-05 1.1067e-05 -0.000475099
0.00111743 5.12165e-05 2.9816e-07
5.12165e-05 0.000104056 -2.53466e-07
2.9816e-07 -2.53466e-07 9.6417e-06
-0.000626936 -2.17096e-05 -1.74746e-05
-2.17096e-05 -0.000441551 -6.45613e-07
-1.74746e-05 -6.45613e-07 -0.000469866
0.001366 -6.34719e-05 -1.90958e-06
-6.34719e-05 0.00032924 1.62626e-06
-1.90958e-06 1.62626e-06 0.000449296
0.00159703 0.000121743 8.04563e-07
0.000121743 8.23624e-05 1.08592e-06
8.04563e-07 1.08592e-06 -4.81127e-07
0.00115197 4.51454e-05 -1.14065e-07
4.51454e-05 0.000139383 -1.09817e-06
-1.14065e-07 -1.09817e-06 3.26741e-05
0.00133754 6.14078e-05 5.35544e-07
6.14078e-05 0.000285173 4.13766e-08
5.35544e-07 4.13766e-08 0.000120136
0.00173832 3.98227e-05 -2.11544e-05
3.98227e-05 0.000168817 -1.34148e-05
-2.11544e-05 -1.34148e-05 0.000103361
0.00408878 -8.04199e-05 7.86341e-06
-8.04199e-05 0.000981929 7.03449e-06
7.86341e-06 7.03449e-06 0.000253918
0.00105933 -4.13949e-05 -5.5361e-06
-4.13949e-05 -6.4471e-05 -1.41631e-05
-5.5361e-06 -1.41631e-05 -0.000204696
0.00263703 -0.000257579 7.63692e-06
-0.000257579 0.000613405 -1.61537e-06
7.63692e-06 -1.61537e-06 0.000630274
0.00027689 -7.66922e-05 -2.68057e-06
-7.66922e-05 -0.000586444 -2.24098e-06
-2.68057e-06 -2.24098e-06 -0.000346788
0.00104473 3.19525e-05 -9.06494e-07
3.19525e-05 3.90255e-05 -6.45707e-07
-9.06494e-07 -6.45707e-07 -5.58616e-05
0.000442005 -1.27799e-05 7.01666e-06
-1.27799e-05 -9.67478e-05 6.86795e-07
7.01666e-06 6.86795e-07 -9.29798e-05
0.000822323 -4.09679e-06 7.95733e-06
-4.09679e-06 8.35457e-05 7.42815e-06
7.95733e-06 7.42815e-06 2.18829e-05
0.000865679 5.73683e-05 1.15213e-05
5.73683e-05 -1.56019e-05 3.69185e-06
1.15213e-05 3.69185e-06 -0.000199434
0.00171631 3.71948e-05 -5.74453e-06
3.71948e-05 0.000474894 -1.25884e-07
-5.74453e-06 -1.25884e-07 0.000345342
0.00255405 -3.42607e-05 -8.6633e-06
-3.42607e-05 0.000922858 -3.36809e-06
-8.6633e-06 -3.36809e-06 0.000896689
0.000396679 0.000102466 -5.07953e-05
0.000102466 -0.000100241 2.43237e-07
-5.07953e-05 2.43237e-07 -0.000317917
0.00251729 -0.000193186 1.51579e-05
-0.000193186 0.000165335 2.83308e-05
1.51579e-05 2.83308e-05 -0.000588012
0.00343268 -0.000287885 -3.49956e-05
-0.000287885 0.000740406 -1.55696e-05
-3.49956e-05 -1.55696e-05 0.000801657
2.72978e-05 -1.2053e-05 -3.61196e-06
-1.2053e-05 -0.000599748 8.01052e-06
-3.61196e-06 8.01052e-06 -0.00057578
0.00120658 5.17951e-05 -7.20823e-07
5.17951e-05 0.000135172 3.48864e-07
-7.20823e-07 3.48864e-07 4.08125e-05
0.00115372 4.94843e-05 3.89047e-07
4.94843e-05 9.86443e-05 5.1507e-07
3.89047e-07 5.1507e-07 -2.8554e-07
0.000856423 4.63456e-05 1.54806e-06
4.63456e-05 -2.24642e-05 -2.52356e-08
1.54806e-06 -2.52356e-08 -0.000129993
0.000794499 1.19327e-05 6.99227e-08
1.19327e-05 -6.10163e-05 -5.11598e-07
6.99227e-08 -5.11598e-07 -0.000110844
0.00103382 1.33707e-05 -5.06664e-09
1.33707e-05 6.5215e-05 -1.17969e-06
-5.06664e-09 -1.17969e-06 2.13339e-06
0.00123175 -1.98965e-06 1.22032e-07
-1.98965e-06 0.000163802 -1.99145e-07
1.22032e-07 -1.99145e-07 8.95436e-05
0.0010176 3.60919e-05 -3.49847e-07
3.60919e-05 5.2335e-05 -1.476e-06
-3.49847e-07 -1.476e-06 -2.9417e-05
0.000915094 4.2044e-05 -3.76645e-07
4.2044e-05 -4.02195e-06 -5.88005e-07
-3.76645e-07 -5.88005e-07 -9.81673e-05
0.00105142 5.52064e-06 2.88521e-07
5.52064e-06 7.40926e-05 -4.7763e-07
2.88521e-07 -4.7763e-07 1.05799e-05
0.00107527 3.45071e-05 -1.28576e-07
3.45071e-05 8.27431e-05 -1.11325e-07
-1.28576e-07 -1.11325e-07 -2.73069e-06
0.0010401 -1.22963e-05 1.36786e-08
-1.22963e-05 6.74169e-05 7.86628e-08
1.36786e-08 7.86628e-08 -7.78472e-06
0.00110143 4.08556e-05 3.11113e-07
4.08556e-05 0.00010993 3.36148e-07
3.11113e-07 3.36148e-07 4.55047e-06
0.00120773 8.86244e-06 2.44085e-07
8.86244e-06 0.00017259 -5.20782e-07
2.44085e-07 -5.20782e-07 5.95549e-05
0.00117551 1.85284e-05 -4.62435e-07
1.85284e-05 0.00014061 1.33826e-06
-4.62435e-07 1.33826e-06 4.86932e-05
0.00108473 8.43853e-06 2.02044e-07
8.43853e-06 9.02901e-05 6.13925e-07
2.02044e-07 6.13925e-07 1.49833e-05
0.00106048 -1.40388e-05 1.15978e-08
-1.40388e-05 7.91302e-05 -8.14294e-07
1.15978e-08 -8.14294e-07 1.57375e-05
0.000947031 -1.5757e-05 1.14628e-07
-1.5757e-05 1.93382e-05 -1.42952e-06
1.14628e-07 -1.42952e-06 -5.63689e-05
0.00106523 -1.21892e-06 1.7324e-07
-1.21892e-06 8.03254e-05 4.1923e-08
1.7324e-07 4.1923e-08 5.4806e-06
0.00104787 -6.42205e-06 9.54802e-09
-6.42205e-06 7.24511e-05 3.23024e-08
9.54802e-09 3.23024e-08 -4.31858e-06
0.00109312 -7.53732e-06 -7.76961e-08
-7.53732e-06 8.82269e-05 -7.96246e-07
-7.76961e-08 -7.96246e-07 6.38541e-06
0.0010076 -1.83321e-05 -3.63355e-07
-1.83321e-05 5.48024e-05 1.36149e-06
-3.63355e-07 1.36149e-06 -2.52963e-05
0.00115027 7.17722e-06 4.49348e-08
7.17722e-06 0.000117626 2.48166e-07
4.49348e-08 2.48166e-07 3.46886e-05
0.000965353 -2.26582e-05 -1.46472e-07
-2.26582e-05 2.59726e-05 5.2494e-07
-1.46472e-07 5.2494e-07 -6.06486e-05
0.00107799 -4.03951e-05 1.65377e-07
-4.03951e-05 8.72546e-05 -8.88004e-07
1.65377e-07 -8.88004e-07 -1.31442e-06
0.000838352 -4.41341e-05 1.79792e-07
-4.41341e-05 -1.88946e-05 1.89147e-07
1.79792e-07 1.89147e-07 -0.000103779
0.000953578 -4.32579e-05 -1.01065e-06
-4.32579e-05 3.21196e-05 -4.3535e-07
-1.01065e-06 -4.3535e-07 -5.18376e-05
0.00105271 -3.52274e-05 -2.46002e-07
-3.52274e-05 7.9173e-05 2.31985e-07
-2.46002e-07 2.31985e-07 -4.40767e-06
0.00103684 -3.03725e-05 -8.4902e-07
-3.03725e-05 6.71998e-05 1.42615e-06
-8.4902e-07 1.42615e-06 -4.78396e-06
0.00102797 -2.311e-05 -2.16453e-08
-2.311e-05 6.22814e-05 -1.06729e-08
-2.16453e-08 -1.06729e-08 -6.59547e-06
0.00099207 -5.27709e-06 -3.24745e-07
-5.27709e-06 3.53083e-05 1.29014e-06
-3.24745e-07 1.29014e-06 -1.74322e-05
0.0010173 -1.69944e-05 4.0587e-07
-1.69944e-05 5.77003e-05 -9.24194e-07
4.0587e-07 -9.24194e-07 -8.48539e-06
0.00098713 -8.57699e-06 7.67951e-08
-8.57699e-06 3.44847e-05 -4.0585e-08
7.67951e-08 -4.0585e-08 -1.62023e-05
0.000961551 6.271e-06 -5.94482e-07
6.271e-06 1.02587e-05 1.78304e-06
-5.94482e-07 1.78304e-06 -2.07486e-05
0.00079922 1.07116e-06 1.54521e-07
1.07116e-06 -5.98443e-05 -1.0495e-06
1.54521e-07 -1.0495e-06 -0.000110045
0.000960259 4.73947e-07 -9.90717e-08
4.73947e-07 8.65073e-06 -6.96154e-09
-9.90717e-08 -6.96154e-09 -2.13487e-05
0.0015159 8.60664e-06 -3.48074e-06
8.60664e-06 0.000279809 4.40631e-06
-3.48074e-06 4.40631e-06 0.000281251
0.000955299 -6.13013e-06 6.44715e-07
-6.13013e-06 6.21441e-06 -1.70715e-06
6.44715e-07 -1.70715e-06 -2.30482e-05
0.00121091 5.69261e-06 -1.21316e-06
5.69261e-06 0.000123057 6.08011e-07
-1.21316e-06 6.08011e-07 0.000123714
0.0010557 5.69666e-06 -7.5074e-07
5.69666e-06 4.16096e-05 1.56904e-06
-7.5074e-07 1.56904e-06 5.9117e-05
0.000910384 2.58384e-06 3.92633e-07
2.58384e-06 -3.09019e-05 -3.13894e-06
3.92633e-07 -3.13894e-06 -3.11663e-05
0.00227531 3.1598e-06 9.758e-07
3.1598e-06 0.00065776 5.99599e-09
9.758e-07 5.99599e-09 0.000681198
0.00226719 -5.27701e-07 1.05011e-06
-5.27701e-07 0.000653393 -4.04152e-06
1.05011e-06 -4.04152e-06 0.000676937
0.00124412 1.8881e-05 -6.31976e-07
1.8881e-05 0.000159245 -1.01436e-06
-6.31976e-07 -1.01436e-06 0.000117101
0.000967079 -1.06333e-06 -1.5415e-07
-1.06333e-06 6.10673e-06 -1.84915e-06
-1.5415e-07 -1.84915e-06 -1.8226e-05
0.000988914 5.37789e-06 3.39199e-07
5.37789e-06 3.15863e-05 4.84544e-07
3.39199e-07 4.84544e-07 -1.04879e-05
0.000909404 2.15134e-07 -3.63283e-08
2.15134e-07 -3.25256e-05 -3.2147e-06
-3.63283e-08 -3.2147e-06 -2.96085e-05
0.00097046 2.07116e-07 -2.46573e-08
2.07116e-07 7.57338e-06 -6.77815e-09
-2.46573e-08 -6.77815e-09 -1.6268e-05
0.000965781 2.01181e-06 -2.96147e-07
2.01181e-06 5.29688e-06 1.87732e-06
-2.96147e-07 1.87732e-06 -1.86703e-05
0.000908404 3.28674e-06 -9.23935e-08
3.28674e-06 -3.25772e-05 -3.0576e-09
-9.23935e-08 -3.0576e-09 -2.98273e-05
0.00217455 3.84472e-06 1.89586e-06
3.84472e-06 0.000606842 -3.95835e-06
1.89586e-06 -3.95835e-06 0.000631465
0.00144565 7.509e-06 -8.72303e-07
7.509e-06 0.000241115 1.97774e-06
-8.72303e-07 1.97774e-06 0.000245851
0.00163568 7.06286e-06 1.22239e-06
7.06286e-06 0.000335682 3.43552e-08
1.22239e-06 3.43552e-08 0.000357147
0.00113514 8.93381e-06 -7.49522e-06
8.93381e-06 8.50689e-05 6.37437e-06
-7.49522e-06 6.37437e-06 0.00010282
-0.00257127 3.93559e-05 -5.90572e-05
3.93559e-05 -0.00159311 1.30403e-05
-5.90572e-05 1.30403e-05 -0.00160914
-0.00109409 4.87134e-05 -6.83542e-06
4.87134e-05 -0.00112276 5.84655e-06
-6.83542e-06 5.84655e-06 -0.00104913
0.000649645 -7.70105e-05 -4.93915e-05
-7.70105e-05 -3.09009e-05 -1.49502e-05
-4.93915e-05 -1.49502e-05 -0.00024325
0.00122496 -1.57373e-05 -2.94473e-06
-1.57373e-05 3.90121e-05 -1.7084e-07
-2.94473e-06 -1.7084e-07 1.29357e-05
0.00126744 3.55839e-05 -1.20338e-05
3.55839e-05 -0.000107518 -1.57989e-06
-1.20338e-05 -1.57989e-06 -0.000181524
0.000732177 -3.15264e-05 1.97916e-05
-3.15264e-05 0.000109498 -5.91072e-07
1.97916e-05 -5.91072e-07 -1.18596e-05
0.00150741 5.32049e-05 2.38055e-06
5.32049e-05 0.000140342 1.75824e-06
2.38055e-06 1.75824e-06 8.30029e-05
0.00450167 9.63532e-05 -2.84269e-05
9.63532e-05 0.00133802 -9.48971e-08
-2.84269e-05 -9.48971e-08 0.000791848
-0.00152049 9.87945e-05 8.70414e-06
9.87945e-05 -0.000852508 -3.8559e-06
8.70414e-06 -3.8559e-06 -0.00085753
0.000537265 0.00012013 2.01159e-06
0.00012013 -0.000343865 -1.2233e-07
2.01159e-06 -1.2233e-07 -5.9042e-05
0.000784921 4.3654e-05 2.67132e-05
4.3654e-05 0.000197261 -1.34949e-05
2.67132e-05 -1.34949e-05 2.4275e-05
0.00423123 0.000219006 -2.19326e-05
0.000219006 0.00116118 1.51356e-05
-2.19326e-05 1.51356e-05 0.000581051
0.000264398 0.000165834 -5.67762e-05
0.000165834 -8.92729e-05 3.16241e-05
-5.67762e-05 3.16241e-05 2.45746e-06
0.000474996 7.84918e-05 -1.68023e-06
7.84918e-05 -0.000612115 -2.41838e-06
-1.68023e-06 -2.41838e-06 -0.000277895
0.000939764 2.22069e-05 -2.7009e-07
2.22069e-05 2.40254e-05 -9.77061e-07
-2.7009e-07 -9.77061e-07 -4.53367e-05
0.000908071 9.75809e-06 -1.81633e-09
9.75809e-06 4.12912e-07 -4.11374e-07
-1.81633e-09 -4.11374e-07 -5.54361e-05
0.000992673 -1.58144e-05 -5.00567e-07
-1.58144e-05 3.38396e-05 1.11157e-06
-5.00567e-07 1.11157e-06 -7.83875e-06
0.000855092 1.53047e-05 -6.50616e-08
1.53047e-05 -2.49288e-05 8.89447e-07
-6.50616e-08 8.89447e-07 -8.13146e-05
0.00105813 3.60845e-05 5.06484e-07
3.60845e-05 8.23204e-05 9.30248e-07
5.06484e-07 9.30248e-07 1.6876e-05
0.00109434 2.6425e-05 -1.8221e-07
2.6425e-05 0.000100263 -8.37603e-07
-1.8221e-07 -8.37603e-07 3.21398e-05
0.00102327 2.08368e-05 6.22272e-07
2.08368e-05 6.13323e-05 9.46518e-07
6.22272e-07 9.46518e-07 -2.07222e-06
0.00102646 6.73658e-06 3.56644e-07
6.73658e-06 6.09632e-05 -7.2278e-07
3.56644e-07 -7.2278e-07 -4.53269e-07
0.000970515 -2.28555e-06 1.79487e-07
-2.28555e-06 3.26565e-05 -5.09383e-07
1.79487e-07 -5.09383e-07 -2.52975e-05
0.000877099 -1.52847e-05 -2.67535e-07
-1.52847e-05 -1.53292e-05 1.34773e-06
-2.67535e-07 1.34773e-06 -7.11983e-05
0.00232193 3.7377e-05 -6.96359e-06
3.7377e-05 0.000342949 2.86839e-06
-6.96359e-06 2.86839e-06 0.000292011
0.00123559 -7.40766e-05 -1.38821e-05
-7.40766e-05 -0.000201185 2.06233e-06
-1.38821e-05 2.06233e-06 -0.000214313
0.000227177 -6.70965e-05 -3.2835e-06
-6.70965e-05 -0.000456241 3.17107e-06
-3.2835e-06 3.17107e-06 -0.000554009
0.00107089 -7.43069e-05 -1.16839e-06
-7.43069e-05 9.85035e-05 2.74807e-06
-1.16839e-06 2.74807e-06 -2.79569e-05
0.00113095 -3.67559e-05 1.49213e-07
-3.67559e-05 0.000144877 1.26011e-06
1.49213e-07 1.26011e-06 1.93958e-05
0.00112275 -3.67027e-05 -1.6689e-07
-3.67027e-05 0.000111789 8.53887e-07
-1.6689e-07 8.53887e-07 2.00298e-05
0.00108071 -3.32507e-05 -3.82937e-07
-3.32507e-05 9.32146e-05 7.48052e-07
-3.82937e-07 7.48052e-07 1.80071e-05
0.00102279 1.61718e-05 -2.21527e-08
1.61718e-05 6.49133e-05 1.20709e-06
-2.21527e-08 1.20709e-06 -7.58181e-06
0.00193419 -3.82817e-05 -3.37368e-06
-3.82817e-05 -3.5164e-05 9.5186e-07
-3.37368e-06 9.5186e-07 -2.27698e-05
0.000941505 -1.27195e-05 -1.43977e-07
-1.27195e-05 2.72852e-05 -6.32228e-08
-1.43977e-07 -6.32228e-08 -5.39572e-05
0.00101209 -3.10861e-05 3.31946e-07
-3.10861e-05 5.69845e-05 -5.55495e-07
3.31946e-07 -5.55495e-07 -3.10209e-05
0.0017474 -0.000121124 2.5349e-06
-0.000121124 0.000173566 5.58995e-07
2.5349e-06 5.58995e-07 8.16646e-05
0.000726996 -8.19541e-05 -3.33729e-07
-8.19541e-05 -0.00010936 9.38604e-07
-3.33729e-07 9.38604e-07 -0.000229688
0.00121476 -5.28238e-05 5.76439e-07
-5.28238e-05 0.000194736 -1.92644e-07
5.76439e-07 -1.92644e-07 4.40085e-05
0.00120579 -1.92719e-05 -1.17365e-07
-1.92719e-05 0.000164169 -3.96002e-07
-1.17365e-07 -3.96002e-07 5.16432e-05
0.00223203 -0.000113501 9.02164e-07
-0.000113501 7.75988e-05 1.15416e-06
9.02164e-07 1.15416e-06 0.000136297
0.00161386 -0.000118712 2.28444e-06
-0.000118712 0.000360633 -5.56804e-06
2.28444e-06 -5.56804e-06 0.000185206
0.00091768 -2.35371e-06 -8.00555e-07
-2.35371e-06 5.79457e-05 -9.92e-07
-8.00555e-07 -9.92e-07 -9.2965e-05
0.000998582 2.79848e-05 1.47281e-07
2.79848e-05 5.45152e-05 -2.47936e-07
1.47281e-07 -2.47936e-07 -2.71001e-05
0.00107056 -3.72682e-05 3.7645e-07
-3.72682e-05 8.49551e-05 -1.21244e-06
3.7645e-07 -1.21244e-06 -4.58911e-06
0.00112311 3.49454e-06 1.36707e-07
3.49454e-06 0.000100757 -6.82323e-07
1.36707e-07 -6.82323e-07 4.37137e-06
0.000985325 -8.91351e-06 1.1209e-05
-8.91351e-06 0.00013843 8.10408e-07
1.1209e-05 8.10408e-07 0.000140684
0.00140546 -6.36143e-06 5.26837e-06
-6.36143e-06 0.000287808 -2.76228e-06
5.26837e-06 -2.76228e-06 0.000152678
0.000739059 6.71373e-05 -4.8317e-05
6.71373e-05 -0.000339591 4.19895e-06
-4.8317e-05 4.19895e-06 -0.000822933
0.0011275 5.16216e-05 -4.06602e-07
5.16216e-05 0.000104671 -5.10803e-07
-4.06602e-07 -5.10803e-07 1.05768e-05
0.00142258 5.41797e-05 2.19029e-06
5.41797e-05 0.000275945 -2.70944e-07
2.19029e-06 -2.70944e-07 0.000173198
0.00160669 0.000122994 -2.15932e-06
0.000122994 8.92243e-05 -4.34561e-06
-2.15932e-06 -4.34561e-06 5.74483e-06
0.00106939 6.49693e-05 2.89644e-06
6.49693e-05 0.000155714 -3.26172e-06
2.89644e-06 -3.26172e-06 -8.25931e-06
0.00368151 -0.000106717 4.1733e-05
-0.000106717 0.00141037 4.20689e-06
4.1733e-05 4.20689e-06 0.00131776
0.000686612 -0.000160934 5.14008e-05
-0.000160934 -0.000361164 3.14602e-05
5.14008e-05 3.14602e-05 -0.00080671
0.00273499 -4.16091e-05 -5.51554e-05
-4.16091e-05 0.000391071 -6.31938e-05
-5.51554e-05 -6.31938e-05 0.000163468
0.00168533 2.56098e-05 7.75586e-06
2.56098e-05 0.000180725 -7.12895e-07
7.75586e-06 -7.12895e-07 0.000110091
-0.00191601 -0.00017013 5.93149e-05
-0.00017013 -0.00142168 2.05954e-05
5.93149e-05 2.05954e-05 -0.00132607
0.00248275 -6.61389e-05 4.92726e-06
-6.61389e-05 0.000931019 5.67156e-06
4.92726e-06 5.67156e-06 0.00105435
0.00144903 -9.31241e-05 -2.39831e-06
-9.31241e-05 4.28231e-05 -8.43694e-06
-2.39831e-06 -8.43694e-06 0.000323376
0.00120987 4.18088e-05 -7.19606e-08
4.18088e-05 0.000127252 3.66105e-07
-7.19606e-08 3.66105e-07 3.07312e-05
0.000704785 -2.1441e-05 2.67136e-06
-2.1441e-05 1.26416e-05 3.35219e-07
2.67136e-06 3.35219e-07 2.55089e-05
0.000698616 1.05645e-06 6.11913e-07
1.05645e-06 6.3784e-06 5.50635e-07
6.11913e-07 5.50635e-07 -5.33765e-05
0.00119404 6.80195e-05 9.5886e-07
6.80195e-05 0.000145978 2.14782e-06
9.5886e-07 2.14782e-06 -4.39482e-05
0.000978913 2.513e-05 -8.8788e-08
2.513e-05 0.000125503 -5.85534e-07
-8.8788e-08 -5.85534e-07 -7.61864e-06
0.00217428 -1.82582e-05 8.13826e-06
-1.82582e-05 0.000619439 7.60113e-06
8.13826e-06 7.60113e-06 0.000494201
0.00300005 0.000145743 -2.19175e-05
0.000145743 0.000762053 -2.63087e-05
-2.19175e-05 -2.63087e-05 0.000391818
0.00553678 -0.000221991 2.27744e-06
-0.000221991 0.00138226 5.31251e-06
2.27744e-06 5.31251e-06 0.000730904
0.000443766 -0.000213718 7.77379e-06
-0.000213718 -0.000328537 1.80479e-05
7.77379e-06 1.80479e-05 -0.000299443
0.00154107 -2.41418e-05 -1.15211e-06
-2.41418e-05 0.00025512 -5.43427e-07
-1.15211e-06 -5.43427e-07 0.000329556
0.0012399 4.86141e-05 1.20408e-07
4.86141e-05 0.00017407 -2.1874e-06
1.20408e-07 -2.1874e-06 8.91781e-05
0.00183609 1.94593e-06 1.05299e-05
1.94593e-06 0.00073732 5.54867e-06
1.05299e-05 5.54867e-06 0.00066571
0.00083531 1.54577e-05 3.85332e-06
1.54577e-05 6.49265e-06 4.77926e-06
3.85332e-06 4.77926e-06 -8.01945e-05
0.000537367 -1.46908e-05 -1.93931e-06
-1.46908e-05 -1.38009e-05 7.39131e-06
-1.93931e-06 7.39131e-06 -0.000145748
0.000715927 9.66249e-05 -4.09096e-06
9.66249e-05 0.000349856 3.31811e-05
-4.09096e-06 3.31811e-05 0.000194513
0.00504869 -0.000170163 -3.64488e-05
-0.000170163 0.000871586 -1.28684e-05
-3.64488e-05 -1.28684e-05 0.00014138
-0.000986184 -0.000121322 -2.94953e-05
-0.000121322 -0.00152797 -4.61812e-05
-2.94953e-05 -4.61812e-05 -0.00135578
0.00216888 -1.30318e-06 -5.66575e-07
-1.30318e-06 0.000692578 1.18165e-05
-5.66575e-07 1.18165e-05 0.000731126
0.0010442 4.71806e-05 -6.26186e-07
4.71806e-05 4.55743e-05 -7.58605e-07
-6.26186e-07 -7.58605e-07 -5.38563e-05
0.00112967 4.96498e-05 3.84856e-07
4.96498e-05 0.000106658 -3.05857e-08
3.84856e-07 -3.05857e-08 2.00467e-06
0.00149169 5.19534e-05 -4.11392e-07
5.19534e-05 0.000291355 -1.80336e-06
-4.11392e-07 -1.80336e-06 0.000185041
0.0010494 2.98158e-05 -4.56313e-07
2.98158e-05 7.27616e-05 -1.21391e-06
-4.56313e-07 -1.21391e-06 9.35204e-06
0.00104227 -4.28488e-07 8.29083e-08
-4.28488e-07 6.84736e-05 -6.27296e-07
8.29083e-08 -6.27296e-07 -6.7909e-06
0.00104605 2.9526e-05 -3.43312e-08
2.9526e-05 6.89068e-05 -8.53817e-07
-3.43312e-08 -8.53817e-07 -1.5522e-05
0.00099844 3.37046e-05 1.51392e-07
3.37046e-05 5.94693e-05 -5.34547e-07
1.51392e-07 -5.34547e-07 -4.6848e-05
0.00108019 1.45625e-05 1.55531e-07
1.45625e-05 8.73419e-05 1.36923e-08
1.55531e-07 1.36923e-08 1.24224e-05
0.00114792 1.97697e-05 -5.24838e-08
1.97697e-05 0.000125314 4.60779e-07
-5.24838e-08 4.60779e-07 3.44408e-05
0.00105848 1.17862e-05 3.43717e-07
1.17862e-05 0.00010318 -6.95586e-07
3.43717e-07 -6.95586e-07 -1.35593e-05
0.00129117 -8.67197e-07 1.92324e-07
-8.67197e-07 0.000229518 -1.2356e-08
1.92324e-07 -1.2356e-08 0.000115912
0.00113305 -2.16509e-05 -1.34923e-09
-2.16509e-05 0.000120781 1.11814e-06
-1.34923e-09 1.11814e-06 1.53878e-05
0.0011979 2.61068e-05 4.129e-07
2.61068e-05 0.00014289 6.64467e-07
4.129e-07 6.64467e-07 5.78887e-05
0.00106742 -1.04283e-05 4.40383e-07
-1.04283e-05 8.11754e-05 -7.86009e-07
4.40383e-07 -7.86009e-07 6.58142e-06
0.00104247 -6.50925e-06 1.73502e-07
-6.50925e-06 7.00566e-05 -9.50301e-07
1.73502e-07 -9.50301e-07 -6.78619e-06
0.00103646 -1.31982e-05 1.39314e-07
-1.31982e-05 5.75115e-05 -1.80517e-06
1.39314e-07 -1.80517e-06 -2.40353e-05
0.00115238 3.02591e-06 -1.78665e-07
3.02591e-06 0.000117974 -4.88761e-07
-1.78665e-07 -4.88761e-07 3.54878e-05
0.00103668 -1.53593e-05 6.67701e-09
-1.53593e-05 6.99915e-05 3.1148e-07
6.67701e-09 3.1148e-07 -1.03126e-05
0.00100954 -1.32565e-05 8.27409e-08
-1.32565e-05 4.58446e-05 -1.64795e-07
8.27409e-08 -1.64795e-07 -3.97018e-05
0.00105283 -3.2599e-05 -5.13715e-07
-3.2599e-05 7.30413e-05 3.4109e-07
-5.13715e-07 3.4109e-07 -1.64688e-05
0.00108188 -2.9482e-05 -4.10175e-08
-2.9482e-05 7.84895e-05 3.99622e-07
-4.10175e-08 3.99622e-07 -1.08451e-05
0.00107707 -4.95943e-05 2.46092e-07
-4.95943e-05 8.7525e-05 -5.05197e-08
2.46092e-07 -5.05197e-08 -4.81832e-06
0.00113275 -4.20537e-05 -3.80603e-07
-4.20537e-05 0.00011448 -9.93982e-08
-3.80603e-07 -9.93982e-08 2.59848e-05
0.000844657 -4.37548e-05 -2.98923e-07
-4.37548e-05 -1.47747e-05 8.6484e-07
-2.98923e-07 8.6484e-07 -0.000103679
0.001106 -5.30863e-05 -1.09473e-06
-5.30863e-05 9.64304e-05 1.80594e-06
-1.09473e-06 1.80594e-06 9.25866e-06
0.00116346 -4.90577e-05 -3.59402e-08
-4.90577e-05 0.000130553 -9.79163e-07
-3.59402e-08 -9.79163e-07 5.28614e-05
0.000892736 -4.51822e-05 4.20789e-07
-4.51822e-05 1.06113e-05 -1.05647e-06
4.20789e-07 -1.05647e-06 -7.1326e-05
0.0010407 -4.54046e-05 3.48553e-07
-4.54046e-05 7.46031e-05 -3.68804e-07
3.48553e-07 -3.68804e-07 -8.81032e-06
0.000932501 -3.49659e-05 -8.60783e-07
-3.49659e-05 1.56194e-05 6.75343e-07
-8.60783e-07 6.75343e-07 -5.93325e-05
0.00107482 -3.60225e-05 3.95338e-08
-3.60225e-05 8.98085e-05 -1.41692e-07
3.95338e-08 -1.41692e-07 6.33789e-06
0.00103996 -3.14416e-05 -2.34622e-07
-3.14416e-05 6.88213e-05 4.6119e-07
-2.34622e-07 4.6119e-07 -3.22114e-06
0.000997537 -7.60593e-06 -4.7251e-07
-7.60593e-06 3.75197e-05 1.44472e-06
-4.7251e-07 1.44472e-06 -1.82951e-05
0.00103564 -2.64224e-05 4.3605e-07
-2.64224e-05 6.63584e-05 -1.0477e-06
4.3605e-07 -1.0477e-06 -2.73468e-06
0.000991804 -1.0581e-05 -6.41312e-08
-1.0581e-05 3.57872e-05 -5.77659e-08
-6.41312e-08 -5.77659e-08 -1.72688e-05
0.000953114 7.0432e-06 -7.58501e-07
7.0432e-06 7.41642e-06 1.89478e-06
-7.58501e-07 1.89478e-06 -2.49729e-05
0.000989039 -6.95968e-06 5.10151e-07
-6.95968e-06 3.56214e-05 -1.17805e-06
5.10151e-07 -1.17805e-06 -1.50995e-05
0.000956528 1.41151e-06 -1.57064e-07
1.41151e-06 7.52865e-06 -3.00599e-09
-1.57064e-07 -3.00599e-09 -2.34937e-05
0.00151989 1.13774e-05 -4.75085e-06
1.13774e-05 0.000284861 4.44406e-06
-4.75085e-06 4.44406e-06 0.000285383
0.000954809 -5.47958e-06 9.15453e-07
-5.47958e-06 5.72815e-06 -1.75582e-06
9.15453e-07 -1.75582e-06 -2.42702e-05
0.00121031 8.4326e-06 -1.62184e-06
8.4326e-06 0.000125216 6.06747e-07
-1.62184e-06 6.06747e-07 0.000125118
0.00105414 8.79642e-06 -1.22511e-06
8.79642e-06 4.40001e-05 1.57908e-06
-1.22511e-06 1.57908e-06 6.07539e-05
0.000907135 5.28781e-06 7.15573e-07
5.28781e-06 -3.10206e-05 -3.17253e-06
7.15573e-07 -3.17253e-06 -3.17614e-05
0.00167616 6.70844e-06 2.47789e-06
6.70844e-06 0.000355608 -1.22029e-06
2.47789e-06 -1.22029e-06 0.000375944
0.00227515 3.48594e-06 3.39967e-06
3.48594e-06 0.00065796 -4.03145e-06
3.39967e-06 -4.03145e-06 0.000681347
0.00106126 -7.63457e-07 -5.74549e-08
-7.63457e-07 6.76366e-05 -1.2021e-06
-5.74549e-08 -1.2021e-06 2.16314e-05
0.000969813 -2.75982e-06 -3.15414e-07
-2.75982e-06 8.38065e-06 -1.84086e-06
-3.15414e-07 -1.84086e-06 -1.695e-05
0.00103595 7.31355e-06 1.0156e-07
7.31355e-06 5.49918e-05 5.96457e-08
1.0156e-07 5.96457e-08 1.16568e-05
0.000913535 -2.65986e-06 -3.935e-07
-2.65986e-06 -2.99029e-05 -3.2157e-06
-3.935e-07 -3.2157e-06 -2.74323e-05
0.00096875 -1.37602e-06 -5.44669e-08
-1.37602e-06 7.05051e-06 1.6802e-09
-5.44669e-08 1.6802e-09 -1.72918e-05
0.000985038 3.28611e-06 -5.71355e-08
3.28611e-06 2.95891e-05 1.60298e-06
-5.71355e-08 1.60298e-06 -1.23066e-05
0.00217242 9.5609e-08 -7.19616e-07
9.5609e-08 0.000605348 -3.98899e-06
-7.19616e-07 -3.98899e-06 0.000630054
0.000909205 2.94091e-07 -9.24511e-08
2.94091e-07 -3.26724e-05 -7.01782e-09
-9.24511e-08 -7.01782e-09 -2.97428e-05
0.000968347 -1.73159e-07 -1.29549e-07
-1.73159e-07 6.46546e-06 1.83994e-06
-1.29549e-07 1.83994e-06 -1.73636e-05
0.000913082 3.37278e-06 -4.20148e-07
3.37278e-06 -3.02597e-05 3.19297e-06
-4.20148e-07 3.19297e-06 -2.75319e-05
0.00217228 3.97387e-06 -9.98943e-07
3.97387e-06 0.000605829 -8.02572e-09
-9.98943e-07 -8.02572e-09 0.000630427
0.00218424 7.59299e-06 -5.67384e-06
7.59299e-06 0.0006134 3.92211e-06
-5.67384e-06 3.92211e-06 0.000637614
-0.000911245 6.45685e-06 8.01646e-06
6.45685e-06 -0.000930656 -5.60309e-07
8.01646e-06 -5.60309e-07 -0.000938123
-0.000128071 6.55494e-05 2.56432e-05
6.55494e-05 -0.000305063 -3.66369e-06
2.56432e-05 -3.66369e-06 -0.000379349
0.0011153 6.53701e-06 1.30601e-05
6.53701e-06 0.000228483 -2.63508e-06
1.30601e-05 -2.63508e-06 0.000182228
-0.00112633 5.46282e-05 -6.76336e-06
5.46282e-05 -0.00110864 3.45633e-06
-6.76336e-06 3.45633e-06 -0.00102584
0.00158506 1.12814e-05 -6.40972e-05
1.12814e-05 0.000356858 -3.73338e-06
-6.40972e-05 -3.73338e-06 0.000153353
0.00156936 5.56386e-05 2.2965e-06
5.56386e-05 0.000149592 -1.64985e-06
2.2965e-06 -1.64985e-06 8.83243e-05
0.000469726 -6.73351e-07 -2.00888e-05
-6.73351e-07 -0.000359936 1.78788e-06
-2.00888e-05 1.78788e-06 -0.000791983
0.00352003 0.000129063 9.13896e-05
0.000129063 0.00150864 -2.88559e-05
9.13896e-05 -2.88559e-05 0.00141984
1.71905e-05 0.000131031 9.0921e-06
0.000131031 -0.000644909 -9.82818e-06
9.0921e-06 -9.82818e-06 -0.000364232
0.0012539 4.18157e-05 -3.69011e-06
4.18157e-05 0.000255268 3.77187e-06
-3.69011e-06 3.77187e-06 7.68188e-05
0.00274349 0.000128557 7.73468e-06
0.000128557 0.00054652 -5.23912e-06
7.73468e-06 -5.23912e-06 -0.000187931
0.00293207 0.000240865 7.42623e-07
0.000240865 0.000921728 -3.74466e-07
7.42623e-07 -3.74466e-07 0.000908267
0.00119831 6.8844e-05 -2.09907e-06
6.8844e-05 -7.3777e-05 3.07644e-06
-2.09907e-06 3.07644e-06 0.000212807
0.000915447 4.95648e-05 4.14203e-06
4.95648e-05 0.000278749 -1.80664e-07
4.14203e-06 -1.80664e-07 6.70105e-06
0.00284788 0.000184478 3.38235e-05
0.000184478 0.000501296 -2.14909e-05
3.38235e-05 -2.14909e-05 -0.000271141
-0.00267872 0.000182011 -3.72668e-05
0.000182011 -0.00216595 4.45892e-05
-3.72668e-05 4.45892e-05 -0.00200255
0.00036681 6.01796e-06 -6.73607e-07
6.01796e-06 -0.000446036 -3.22757e-06
-6.73607e-07 -3.22757e-06 -0.00032829
0.0010905 -2.63859e-06 5.66797e-07
-2.63859e-06 9.90588e-05 -1.00668e-06
5.66797e-07 -1.00668e-06 2.29726e-05
0.00103342 2.66893e-05 -5.92336e-07
2.66893e-05 7.0438e-05 -2.50293e-07
-5.92336e-07 -2.50293e-07 2.11361e-06
0.00100954 1.36112e-05 1.67011e-07
1.36112e-05 5.02712e-05 3.53011e-07
1.67011e-07 3.53011e-07 -4.72145e-06
0.000984279 3.60379e-05 8.13657e-07
3.60379e-05 4.63516e-05 1.70553e-06
8.13657e-07 1.70553e-06 -1.83097e-05
0.000993433 8.62274e-06 -2.2547e-07
8.62274e-06 4.75085e-05 -7.65716e-07
-2.2547e-07 -7.65716e-07 -2.57646e-05
0.00112147 2.39498e-05 8.42124e-08
2.39498e-05 0.00011279 4.82554e-07
8.42124e-08 4.82554e-07 4.55847e-05
0.000982926 7.23366e-06 -1.49371e-07
7.23366e-06 4.06369e-05 1.88391e-06
-1.49371e-07 1.88391e-06 -2.21866e-05
0.00114451 2.88908e-05 -6.20498e-07
2.88908e-05 0.000118935 -9.51255e-07
-6.20498e-07 -9.51255e-07 5.55253e-05
0.00110903 1.66584e-05 2.40847e-08
1.66584e-05 0.000102846 4.6064e-07
2.40847e-08 4.6064e-07 4.18072e-05
0.000906328 -1.00562e-05 -4.51494e-07
-1.00562e-05 4.16287e-07 5.86666e-07
-4.51494e-07 5.86666e-07 -5.82968e-05
0.00264416 -4.36711e-05 -1.00042e-05
-4.36711e-05 0.00031308 1.4769e-06
-1.00042e-05 1.4769e-06 0.000294946
0.000792888 -9.9746e-05 -8.42714e-06
-9.9746e-05 -0.000294138 5.40293e-06
-8.42714e-06 5.40293e-06 -0.00037274
0.00108858 -8.9019e-05 -2.90505e-07
-8.9019e-05 7.06962e-05 4.24897e-06
-2.90505e-07 4.24897e-06 -5.01749e-05
0.00120607 -5.13936e-05 -8.64744e-08
-5.13936e-05 0.000184367 2.28672e-06
-8.64744e-08 2.28672e-06 3.84463e-05
0.0011628 -1.70841e-05 -2.55975e-08
-1.70841e-05 0.000144344 7.49779e-07
-2.55975e-08 7.49779e-07 2.64288e-05
0.000970252 -3.46254e-05 -1.38615e-07
-3.46254e-05 3.54123e-05 6.43819e-07
-1.38615e-07 6.43819e-07 -5.40383e-05
0.000940921 1.42565e-05 3.85277e-08
1.42565e-05 2.68077e-05 6.08669e-07
3.85277e-08 6.08669e-07 -5.46008e-05
0.00103188 -3.66582e-06 2.06531e-07
-3.66582e-06 7.05953e-05 6.77529e-07
2.06531e-07 6.77529e-07 -1.07754e-05
0.00228165 -0.00011958 6.77352e-07
-0.00011958 0.000128102 -1.57808e-07
6.77352e-07 -1.57808e-07 0.000158555
0.00110333 -6.71303e-06 -6.96598e-08
-6.71303e-06 0.000102978 -2.03621e-07
-6.96598e-08 -2.03621e-07 1.41626e-05
0.00123593 -6.68085e-06 -4.12489e-08
-6.68085e-06 0.000158893 7.82539e-08
-4.12489e-08 7.82539e-08 6.06086e-05
0.00151772 -0.000112785 3.73856e-07
-0.000112785 0.00032007 -1.19261e-06
3.73856e-07 -1.19261e-06 0.000142765
0.00117071 -8.60055e-06 -3.8308e-07
-8.60055e-06 0.000175133 -1.47199e-08
-3.8308e-07 -1.47199e-08 2.72465e-05
0.00131396 -0.000141206 -8.74672e-06
-0.000141206 -0.000166495 -3.53321e-06
-8.74672e-06 -3.53321e-06 -0.000174282
0.00134904 -2.90029e-05 -8.78325e-07
-2.90029e-05 0.000363893 -3.04335e-06
-8.78325e-07 -3.04335e-06 0.000125986
0.00100854 1.62044e-05 -6.74384e-07
1.62044e-05 4.65445e-05 7.2895e-07
-6.74384e-07 7.2895e-07 -5.9845e-05
0.00105964 3.03743e-05 -2.23468e-07
3.03743e-05 7.62676e-05 -1.20981e-06
-2.23468e-07 -1.20981e-06 -1.03796e-05
0.00112009 2.27517e-05 -1.24991e-07
2.27517e-05 9.23978e-05 -1.25536e-06
-1.24991e-07 -1.25536e-06 -3.6846e-06
0.00212366 -4.56674e-06 4.61415e-06
-4.56674e-06 0.000931948 1.11909e-06
4.61415e-06 1.11909e-06 0.000853296
-1.6206e-05 -7.52369e-06 1.28254e-05
-7.52369e-06 -0.000419212 -1.1131e-07
1.28254e-05 -1.1131e-07 -0.00042437
-0.00244308 -1.07201e-05 8.89839e-05
-1.07201e-05 -0.00159571 -1.33886e-06
8.89839e-05 -1.33886e-06 -0.00160964
0.00143641 5.21338e-05 8.74113e-07
5.21338e-05 0.000246577 1.26643e-06
8.74113e-07 1.26643e-06 0.000148218
0.000331018 1.67903e-05 2.28965e-06
1.67903e-05 -0.00017936 -1.61352e-06
2.28965e-06 -1.61352e-06 -0.00031531
0.00136838 7.50606e-05 1.3476e-06
7.50606e-05 0.000226591 -7.763e-06
1.3476e-06 -7.763e-06 3.45434e-05
-0.000711941 -1.37675e-05 1.45337e-06
-1.37675e-05 -0.000819284 -3.94619e-07
1.45337e-06 -3.94619e-07 -0.000831677
0.00239859 -0.000217121 2.42273e-05
-0.000217121 5.78913e-05 1.11366e-05
2.42273e-05 1.11366e-05 -0.000715592
0.00123292 9.89559e-05 2.42249e-05
9.89559e-05 0.000146772 -3.80129e-05
2.42249e-05 -3.80129e-05 -3.68413e-05
0.00210376 -2.40021e-06 6.49959e-05
-2.40021e-06 0.000425051 1.43975e-05
6.49959e-05 1.43975e-05 0.000210877
0.00370927 -0.00030627 4.28628e-05
-0.00030627 0.000921869 5.20085e-05
4.28628e-05 5.20085e-05 0.00094856
0.000567242 5.5394e-06 -1.3632e-05
5.5394e-06 -7.73969e-05 -7.01844e-06
-1.3632e-05 -7.01844e-06 -0.000135297
0.0013101 -1.46786e-05 -4.56335e-06
-1.46786e-05 0.000170319 -9.88581e-06
-4.56335e-06 -9.88581e-06 0.000213307
0.00103503 4.79059e-05 1.05424e-06
4.79059e-05 7.25468e-05 4.51633e-08
1.05424e-06 4.51633e-08 -1.0612e-05
0.00134666 3.36407e-06 2.65215e-06
3.36407e-06 0.00044378 1.66347e-06
2.65215e-06 1.66347e-06 0.000363567
0.000906602 1.60188e-05 6.27653e-07
1.60188e-05 6.00658e-05 3.35762e-07
6.27653e-07 3.35762e-07 -2.92664e-05
-0.000131424 -5.27754e-07 1.03761e-05
-5.27754e-07 -0.000349085 4.78609e-07
1.03761e-05 4.78609e-07 -0.000502585
0.0018812 0.000136336 -3.37248e-05
0.000136336 0.000630347 -1.50536e-05
-3.37248e-05 -1.50536e-05 0.000443305
0.00566888 -3.96164e-05 1.3337e-05
-3.96164e-05 0.00099001 8.04418e-06
1.3337e-05 8.04418e-06 0.00023856
0.000951448 -7.16791e-06 -1.27889e-06
-7.16791e-06 -2.68531e-05 3.58162e-06
-1.27889e-06 3.58162e-06 -2.0461e-05
0.00128043 -0.000193034 1.49499e-06
-0.000193034 -0.000444538 2.31483e-05
1.49499e-06 2.31483e-05 -0.000376597
0.000984522 3.0179e-05 -7.52325e-07
3.0179e-05 5.93384e-05 -6.33273e-06
-7.52325e-07 -6.33273e-06 -1.00898e-05
0.000979034 8.08547e-06 6.24599e-06
8.08547e-06 0.00012026 -3.623e-06
6.24599e-06 -3.623e-06 1.48723e-05
0.00235044 -4.65115e-06 3.91048e-06
-4.65115e-06 0.000911769 7.32151e-06
3.91048e-06 7.32151e-06 0.000830951
0.000399824 -2.91689e-06 -1.9166e-06
-2.91689e-06 -0.000376384 8.46119e-06
-1.9166e-06 8.46119e-06 -0.000305055
-0.00113556 4.40075e-05 -7.13822e-06
4.40075e-05 -0.000690455 1.45947e-06
-7.13822e-06 1.45947e-06 -0.000795077
0.00619422 -6.87663e-05 1.38515e-05
-6.87663e-05 0.00131953 1.22763e-05
1.38515e-05 1.22763e-05 0.000811291
2.98301e-05 3.87869e-06 -2.43206e-07
3.87869e-06 -0.000922442 -6.85517e-05
-2.43206e-07 -6.85517e-05 -0.000765866
0.00137983 5.45202e-05 4.20892e-07
5.45202e-05 0.0002235 1.30756e-06
4.20892e-07 1.30756e-06 0.000121859
0.00137188 4.97457e-05 -5.59556e-07
4.97457e-05 0.000225709 7.06927e-07
-5.59556e-07 7.06927e-07 0.000117321
0.00162441 4.57048e-05 1.27439e-06
4.57048e-05 0.00040158 -1.39261e-06
1.27439e-06 -1.39261e-06 0.000288611
0.00106807 2.90372e-05 -7.6677e-08
2.90372e-05 8.13113e-05 -6.15458e-07
-7.6677e-08 -6.15458e-07 6.40356e-06
0.00112396 2.63657e-05 2.50782e-08
2.63657e-05 0.000112093 -7.5277e-07
2.50782e-08 -7.5277e-07 2.20535e-05
0.000905866 5.51805e-06 -3.8843e-07
5.51805e-06 3.14252e-05 4.19361e-07
-3.8843e-07 4.19361e-07 -8.91929e-05
0.00120376 2.01944e-05 -6.10131e-08
2.01944e-05 0.000144815 -1.95036e-07
-6.10131e-08 -1.95036e-07 6.0722e-05
0.00111642 -2.18061e-05 4.56451e-08
-2.18061e-05 0.000112211 2.51582e-07
4.56451e-08 2.51582e-07 5.87228e-06
0.00105613 -1.1979e-05 9.23429e-08
-1.1979e-05 0.000108629 4.81402e-07
9.23429e-08 4.81402e-07 -9.88277e-06
0.00103858 -8.05604e-06 -2.24322e-07
-8.05604e-06 0.000101668 5.3225e-07
-2.24322e-07 5.3225e-07 -5.12413e-06
0.00112046 -3.3905e-05 -8.00558e-07
-3.3905e-05 9.40269e-05 8.32075e-07
-8.00558e-07 8.32075e-07 -9.73533e-07
0.00115965 -8.95677e-07 -4.69103e-07
-8.95677e-07 0.000120727 -1.12171e-06
-4.69103e-07 -1.12171e-06 3.8739e-05
0.00106319 -1.22026e-05 6.06355e-08
-1.22026e-05 8.38772e-05 -4.74516e-07
6.06355e-08 -4.74516e-07 3.40563e-06
0.00104906 -9.6765e-06 -2.54125e-08
-9.6765e-06 6.40895e-05 -9.19459e-07
-2.54125e-08 -9.19459e-07 -2.07948e-05
0.00107403 -3.26715e-05 1.58079e-07
-3.26715e-05 7.42664e-05 5.80759e-08
1.58079e-07 5.80759e-08 -1.51867e-05
0.00104779 -2.9932e-05 -1.86623e-07
-2.9932e-05 6.92668e-05 3.43258e-07
-1.86623e-07 3.43258e-07 -1.99376e-05
0.00105535 -4.85009e-05 -2.28076e-07
-4.85009e-05 8.75658e-05 9.7591e-07
-2.28076e-07 9.7591e-07 -7.29131e-06
0.00103353 -4.8047e-05 1.9596e-07
-4.8047e-05 7.09172e-05 -5.70545e-07
1.9596e-07 -5.70545e-07 -1.90346e-05
0.00112843 -5.22901e-05 5.11035e-07
-5.22901e-05 0.000126115 1.0724e-06
5.11035e-07 1.0724e-06 2.25802e-05
0.00121391 -4.42535e-05 4.52428e-07
-4.42535e-05 0.00015448 -1.61095e-07
4.52428e-07 -1.61095e-07 6.60352e-05
0.00110211 -4.99236e-05 2.05093e-08
-4.99236e-05 0.000108408 9.93953e-07
2.05093e-08 9.93953e-07 1.92577e-05
0.000793791 -4.87932e-05 -1.59831e-07
-4.87932e-05 -5.79664e-05 2.00741e-06
-1.59831e-07 2.00741e-06 -0.000154514
0.00105086 -5.17129e-05 -1.53801e-06
-5.17129e-05 7.06256e-05 5.6683e-07
-1.53801e-06 5.6683e-07 -1.40107e-05
0.00107764 -4.79415e-05 -1.24527e-06
-4.79415e-05 8.81452e-05 2.66218e-07
-1.24527e-06 2.66218e-07 1.15554e-05
0.00101104 -5.06291e-05 -4.08426e-07
-5.06291e-05 5.28004e-05 -8.35844e-08
-4.08426e-07 -8.35844e-08 -3.42699e-05
0.00106952 -4.16665e-05 -8.35909e-07
-4.16665e-05 8.02408e-05 3.91061e-07
-8.35909e-07 3.91061e-07 7.33524e-06
0.00115366 -4.9029e-05 -2.74544e-07
-4.9029e-05 0.000126033 -2.40695e-07
-2.74544e-07 -2.40695e-07 4.79766e-05
0.000950646 -4.62286e-05 2.67122e-07
-4.62286e-05 4.18825e-05 -1.48961e-06
2.67122e-07 -1.48961e-06 -3.71164e-05
0.00113663 -4.77385e-05 1.08157e-06
-4.77385e-05 0.000121315 -4.73401e-07
1.08157e-06 -4.73401e-07 3.84425e-05
0.000981614 -3.63077e-05 9.27745e-08
-3.63077e-05 4.0105e-05 -1.76624e-08
9.27745e-08 -1.76624e-08 -3.42704e-05
0.0010118 -1.39628e-05 -7.63724e-07
-1.39628e-05 4.54751e-05 1.50243e-06
-7.63724e-07 1.50243e-06 -1.37715e-05
0.00104142 -3.08567e-05 3.99777e-07
-3.08567e-05 6.95346e-05 -5.28741e-07
3.99777e-07 -5.28741e-07 -2.51045e-06
0.00100004 -1.0227e-05 -5.157e-09
-1.0227e-05 3.89863e-05 -5.925e-08
-5.157e-09 -5.925e-08 -1.69918e-05
0.000946677 7.77613e-06 -9.57695e-07
7.77613e-06 6.17288e-06 2.04194e-06
-9.57695e-07 2.04194e-06 -2.81967e-05
0.000991396 -1.55703e-05 5.88394e-07
-1.55703e-05 3.62795e-05 -1.31824e-06
5.88394e-07 -1.31824e-06 -1.71574e-05
0.000948219 5.90555e-06 -5.95618e-08
5.90555e-06 4.93452e-06 -1.03627e-08
-5.95618e-08 -1.03627e-08 -2.75052e-05
0.00149732 1.4021e-05 -5.3058e-06
1.4021e-05 0.00027751 3.21743e-06
-5.3058e-06 3.21743e-06 0.000276854
0.000951881 -2.66525e-06 9.45583e-07
-2.66525e-06 4.96921e-06 -1.84841e-06
9.45583e-07 -1.84841e-06 -2.60585e-05
0.00120836 1.10195e-05 -2.02676e-06
1.10195e-05 0.000127446 5.97397e-07
-2.02676e-06 5.97397e-07 0.000126355
0.00105148 1.17537e-05 -1.69555e-06
1.17537e-05 4.67249e-05 1.60297e-06
-1.69555e-06 1.60297e-06 6.25431e-05
0.00090348 7.85855e-06 1.09199e-06
7.85855e-06 -3.03586e-05 -3.20426e-06
1.09199e-06 -3.20426e-06 -3.18639e-05
0.00168725 1.02406e-05 3.34085e-06
1.02406e-05 0.000364055 -1.20998e-06
3.34085e-06 -1.20998e-06 0.000383732
0.00229048 7.43664e-06 5.71887e-06
7.43664e-06 0.000667484 -4.03113e-06
5.71887e-06 -4.03113e-06 0.000690459
0.000813361 -2.36993e-07 -3.78843e-07
-2.36993e-07 -5.70445e-05 -1.73507e-06
-3.78843e-07 -1.73507e-06 -0.000107561
0.000704418 -4.95775e-06 -4.52303e-07
-4.95775e-06 -0.000122678 -2.51691e-06
-4.52303e-07 -2.51691e-06 -0.000151386
0.00107099 4.20284e-07 1.05617e-08
4.20284e-07 7.23146e-05 9.76653e-08
1.05617e-08 9.76653e-08 2.62864e-05
0.000915086 -5.42149e-06 -7.05729e-07
-5.42149e-06 -2.76262e-05 -3.23338e-06
-7.05729e-07 -3.23338e-06 -2.61591e-05
0.000840988 -3.11855e-06 1.35457e-08
-3.11855e-06 -5.5801e-05 -1.53595e-08
1.35457e-08 -1.53595e-08 -8.20041e-05
0.000826443 -9.11627e-06 -8.65898e-08
-9.11627e-06 -5.01131e-05 1.26175e-06
-8.65898e-08 1.26175e-06 -9.45716e-05
0.00218808 -3.62745e-06 -3.36838e-06
-3.62745e-06 0.000613867 -4.01337e-06
-3.36838e-06 -4.01337e-06 0.000638296
0.000907675 -2.5813e-06 -1.23311e-07
-2.5813e-06 -3.28988e-05 -1.31227e-08
-1.23311e-07 -1.31227e-08 -3.03768e-05
0.000971109 -1.71295e-06 -7.23154e-09
-1.71295e-06 8.35448e-06 1.82567e-06
-7.23154e-09 1.82567e-06 -1.60009e-05
0.00217261 1.90974e-07 -1.097e-06
1.90974e-07 0.00060544 8.789e-11
-1.097e-06 8.789e-11 0.000630152
0.000908909 3.70401e-07 -1.18039e-07
3.70401e-07 -3.28597e-05 3.2053e-06
-1.18039e-07 3.2053e-06 -2.99197e-05
0.00217193 4.10337e-06 -3.01763e-06
4.10337e-06 0.000605796 3.95284e-06
-3.01763e-06 3.95284e-06 0.000630357
0.00134084 -5.68828e-06 1.10782e-05
-5.68828e-06 0.000434849 -9.98246e-07
1.10782e-05 -9.98246e-07 0.000359513
0.0011383 1.71794e-05 2.12099e-06
1.71794e-05 0.000239126 -4.4446e-08
2.12099e-06 -4.4446e-08 0.000253916
0.000419858 1.67017e-06 0.000113141
1.67017e-06 -0.000175046 -1.84121e-05
0.000113141 -1.84121e-05 -0.000350827
0.00103235 1.82744e-05 -4.5061e-07
1.82744e-05 5.74969e-05 -1.12561e-06
-4.5061e-07 -1.12561e-06 -8.89764e-06
0.00137691 -1.01719e-05 7.96698e-06
-1.01719e-05 0.000348725 -2.55975e-06
7.96698e-06 -2.55975e-06 0.000277791
0.00130568 3.56503e-06 4.75358e-07
3.56503e-06 0.000359553 -5.06548e-07
4.75358e-07 -5.06548e-07 0.000309813
0.00107046 6.75022e-05 -4.05415e-06
6.75022e-05 0.000144508 1.5524e-06
-4.05415e-06 1.5524e-06 0.000261262
0.00117935 6.19841e-05 -4.21397e-05
6.19841e-05 9.48839e-06 1.70539e-05
-4.21397e-05 1.70539e-05 -0.000208794
0.00542098 0.000223766 1.01623e-05
0.000223766 0.00189134 -1.10075e-05
1.01623e-05 -1.10075e-05 0.00118528
-0.000613162 0.000164375 5.36145e-05
0.000164375 -0.000555937 -3.47648e-05
5.36145e-05 -3.47648e-05 -0.000540484
0.00189542 6.60712e-05 2.36595e-06
6.60712e-05 0.00034604 4.27886e-06
2.36595e-06 4.27886e-06 0.000624548
0.00151184 4.005e-05 -2.38155e-05
4.005e-05 0.000224978 9.52371e-06
-2.38155e-05 9.52371e-06 -0.000141603
0.00439501 0.000188033 1.86352e-05
0.000188033 0.00114908 -2.10077e-05
1.86352e-05 -2.10077e-05 0.000443974
0.000860357 0.000204435 -4.88208e-06
0.000204435 -0.000528482 1.02977e-05
-4.88208e-06 1.02977e-05 -0.00039545
0.00165695 8.97897e-06 1.24175e-06
8.97897e-06 0.000306444 8.4123e-07
1.24175e-06 8.4123e-07 0.000435727
0.00236284 -6.96884e-05 2.44405e-05
-6.96884e-05 0.000535289 -3.10039e-05
2.44405e-05 -3.10039e-05 0.000136017
0.00676334 0.000167037 2.61889e-05
0.000167037 0.00172942 -8.9598e-06
2.61889e-05 -8.9598e-06 0.000878425
0.00221488 0.00019515 5.22297e-06
0.00019515 -8.17652e-05 6.84904e-05
5.22297e-06 6.84904e-05 -9.7362e-05
0.00272602 1.65447e-05 -4.20406e-06
1.65447e-05 0.000990867 4.35341e-07
-4.20406e-06 4.35341e-07 0.00106418
0.000982161 -2.58401e-06 8.76812e-08
-2.58401e-06 3.67884e-05 -1.37435e-06
8.76812e-08 -1.37435e-06 -4.43714e-05
0.00105772 -1.21218e-05 2.17431e-07
-1.21218e-05 8.2885e-05 -5.45838e-08
2.17431e-07 -5.45838e-08 6.1002e-06
0.00112478 3.08778e-05 -2.49901e-07
3.08778e-05 0.000116461 7.84223e-07
-2.49901e-07 7.84223e-07 4.8563e-05
0.00100201 1.07502e-05 -3.22751e-07
1.07502e-05 4.58274e-05 -1.6695e-06
-3.22751e-07 -1.6695e-06 -2.78141e-05
0.00107731 2.59025e-05 -2.15624e-07
2.59025e-05 8.88409e-05 4.24589e-07
-2.15624e-07 4.24589e-07 1.66943e-05
0.00113852 1.51339e-05 3.0531e-07
1.51339e-05 0.000120102 1.71089e-06
3.0531e-07 1.71089e-06 5.39709e-05
0.00119081 2.89022e-05 -2.54634e-07
2.89022e-05 0.000141451 3.42071e-08
-2.54634e-07 3.42071e-08 7.83912e-05
0.00119568 2.92761e-05 5.41927e-07
2.92761e-05 0.000146255 1.66695e-06
5.41927e-07 1.66695e-06 8.58616e-05
0.00212718 -0.00012162 8.23023e-07
-0.00012162 7.89914e-05 -2.52992e-06
8.23023e-07 -2.52992e-06 8.29578e-05
0.00140933 -0.000106237 -2.20025e-06
-0.000106237 0.000273056 4.36673e-06
-2.20025e-06 4.36673e-06 9.43296e-05
0.0010315 -4.75934e-05 -7.10013e-07
-4.75934e-05 7.12831e-05 1.42917e-06
-7.10013e-07 1.42917e-06 -1.05937e-05
0.00146781 -1.51234e-05 -1.11491e-07
-1.51234e-05 0.000313073 9.9103e-07
-1.11491e-07 9.9103e-07 0.000169269
0.0012809 -1.69899e-05 -3.34752e-07
-1.69899e-05 0.000182108 8.91825e-07
-3.34752e-07 8.91825e-07 8.25134e-05
0.00115246 4.53142e-06 -2.67423e-07
4.53142e-06 0.000129489 3.04218e-07
-2.67423e-07 3.04218e-07 4.1113e-05
0.00108685 2.40347e-05 7.36853e-08
2.40347e-05 9.03169e-05 2.50219e-07
7.36853e-08 2.50219e-07 3.33165e-06
0.001913 -0.000154592 6.45151e-07
-0.000154592 0.000112695 -7.45129e-07
6.45151e-07 -7.45129e-07 0.00010979
0.00108152 1.19291e-05 8.54365e-08
1.19291e-05 7.56761e-05 -3.68619e-07
8.54365e-08 -3.68619e-07 -1.97972e-05
0.00114173 7.11811e-06 -1.29108e-07
7.11811e-06 0.000118856 1.35318e-07
-1.29108e-07 1.35318e-07 5.96021e-06
0.00111958 -2.39267e-05 -4.13427e-07
-2.39267e-05 0.000261686 4.26606e-07
-4.13427e-07 4.26606e-07 1.41619e-05
0.00119103 2.83025e-05 3.70218e-08
2.83025e-05 0.000132273 -8.61282e-07
3.70218e-08 -8.61282e-07 4.67245e-05
0.00187712 -0.00013865 -3.0069e-05
-0.00013865 0.000448066 -2.66005e-06
-3.0069e-05 -2.66005e-06 0.000291588
0.00134102 4.4085e-05 -4.51592e-06
4.4085e-05 0.000356344 -3.14312e-07
-4.51592e-06 -3.14312e-07 0.000157533
0.00101911 1.96458e-05 -2.66137e-07
1.96458e-05 3.49823e-05 -1.02017e-06
-2.66137e-07 -1.02017e-06 -5.70132e-05
0.00124134 3.92577e-05 -3.18398e-07
3.92577e-05 0.000157322 -1.27153e-06
-3.18398e-07 -1.27153e-06 6.49428e-05
0.00141259 -1.19557e-06 2.42473e-06
-1.19557e-06 0.000427092 -2.62732e-07
2.42473e-06 -2.62732e-07 0.000320371
0.00163618 -4.07692e-06 -6.85719e-06
-4.07692e-06 0.000629823 1.26424e-07
-6.85719e-06 1.26424e-07 0.000550187
-0.00103535 -6.10543e-06 1.10858e-05
-6.10543e-06 -0.000990713 1.9222e-07
1.10858e-05 1.9222e-07 -0.000999927
0.000737295 4.25446e-05 1.5379e-06
4.25446e-05 -7.56772e-05 1.35525e-06
1.5379e-06 1.35525e-06 -0.000156521
-0.000840942 3.77805e-06 -6.90265e-06
3.77805e-06 -0.000694464 3.50473e-06
-6.90265e-06 3.50473e-06 -0.000874394
0.000806133 4.65049e-06 -1.37188e-05
4.65049e-06 0.000118997 -3.1383e-06
-1.37188e-05 -3.1383e-06 3.04808e-05
0.00409139 -0.000261212 3.53255e-05
-0.000261212 0.000745016 8.04189e-06
3.53255e-05 8.04189e-06 -8.04063e-05
0.00281562 0.00015214 -2.82759e-05
0.00015214 0.000618824 -6.59432e-05
-2.82759e-05 -6.59432e-05 0.000238442
0.00265493 -0.000234984 7.27995e-06
-0.000234984 4.18047e-05 9.8137e-05
7.27995e-06 9.8137e-05 0.000164279
0.000815992 1.67596e-05 -1.38385e-06
1.67596e-05 1.23857e-05 -3.01162e-06
-1.38385e-06 -3.01162e-06 -7.83918e-05
5.45261e-06 -1.20742e-05 8.09884e-07
-1.20742e-05 -0.000574447 -4.08688e-06
8.09884e-07 -4.08688e-06 -0.00059861
0.0012467 3.89297e-05 -1.59627e-06
3.89297e-05 0.000189886 -6.72393e-07
-1.59627e-06 -6.72393e-07 0.000116248
0.000839847 6.10804e-06 -9.86753e-07
6.10804e-06 3.38727e-05 -1.15221e-06
-9.86753e-07 -1.15221e-06 -7.18967e-05
0.00112853 -6.70854e-06 2.6168e-06
-6.70854e-06 0.000135219 -4.36623e-07
2.6168e-06 -4.36623e-07 5.34118e-05
8.60249e-05 4.60483e-05 7.27186e-06
4.60483e-05 -4.56589e-05 -4.10725e-06
7.27186e-06 -4.10725e-06 -0.000116406
0.00154114 1.14751e-06 -1.84676e-06
1.14751e-06 0.000276974 1.54472e-07
-1.84676e-06 1.54472e-07 0.000365359
0.00462243 4.31735e-05 2.08592e-05
4.31735e-05 0.000428627 -2.35725e-06
2.08592e-05 -2.35725e-06 3.80531e-05
0.00333227 7.80929e-06 -1.83733e-05
7.80929e-06 0.000426494 -2.61787e-06
-1.83733e-05 -2.61787e-06 0.000553783
0.00097268 4.97482e-05 2.90303e-06
4.97482e-05 0.000204593 -6.22929e-06
2.90303e-06 -6.22929e-06 0.000123238
0.00146474 -4.45875e-06 -1.45329e-06
-4.45875e-06 0.000393542 -3.28012e-06
-1.45329e-06 -3.28012e-06 0.000283878
0.00126166 -2.0841e-05 -1.09139e-05
-2.0841e-05 0.000274266 3.32032e-06
-1.09139e-05 3.32032e-06 0.000175369
0.000539575 7.30728e-05 5.99722e-07
7.30728e-05 -0.000521662 5.2914e-06
5.99722e-07 5.2914e-06 -0.000230732
0.00235992 0.000232769 -5.68865e-06
0.000232769 8.19869e-05 -5.786e-05
-5.68865e-06 -5.786e-05 4.14166e-05
0.00059523 9.4941e-05 8.55486e-06
9.4941e-05 0.000386234 -6.93428e-06
8.55486e-06 -6.93428e-06 0.000343493
0.00314364 -0.000106632 4.25382e-05
-0.000106632 -8.1685e-05 2.33056e-05
4.25382e-05 2.33056e-05 -0.000504125
0.00125243 4.63735e-05 -1.01531e-06
4.63735e-05 0.000162449 2.8898e-06
-1.01531e-06 2.8898e-06 5.17123e-05
0.00130522 3.34627e-05 -1.41281e-06
3.34627e-05 0.00023127 4.55417e-07
-1.41281e-06 4.55417e-07 0.00012291
0.000263499 -2.26627e-05 -6.02976e-07
-2.26627e-05 -0.00013645 -3.98189e-06
-6.02976e-07 -3.98189e-06 -0.000372809
0.00119775 9.25147e-06 -1.18132e-07
9.25147e-06 0.000140631 -7.27394e-07
-1.18132e-07 -7.27394e-07 5.75887e-05
0.00109483 -2.03205e-05 4.71067e-07
-2.03205e-05 0.000100755 -1.17017e-07
4.71067e-07 -1.17017e-07 -5.8812e-06
0.00089726 -1.18864e-05 -1.54945e-06
-1.18864e-05 2.5179e-05 2.62985e-06
-1.54945e-06 2.62985e-06 -9.75984e-05
0.0010861 -3.81132e-05 -1.94545e-07
-3.81132e-05 7.91054e-05 5.80194e-08
-1.94545e-07 5.80194e-08 -1.61352e-05
0.000946962 -1.76559e-05 3.0568e-07
-1.76559e-05 5.43171e-05 1.05938e-06
3.0568e-07 1.05938e-06 -5.38481e-05
0.000967273 -3.12625e-05 4.08737e-07
-3.12625e-05 9.98855e-05 -4.11916e-07
4.08737e-07 -4.11916e-07 -2.86925e-05
0.00106921 -3.26043e-05 1.47666e-07
-3.26043e-05 7.14375e-05 -4.20199e-07
1.47666e-07 -4.20199e-07 -1.79264e-05
0.00104432 -2.18381e-05 5.29624e-08
-2.18381e-05 6.57406e-05 3.06915e-08
5.29624e-08 3.06915e-08 -2.27768e-05
0.00118241 -4.99245e-05 1.2363e-07
-4.99245e-05 0.000146559 4.33805e-07
1.2363e-07 4.33805e-07 5.02424e-05
0.00102761 -5.16916e-05 8.17338e-08
-5.16916e-05 0.00010677 1.21827e-06
8.17338e-08 1.21827e-06 -1.35979e-05
0.000966872 -4.58904e-05 -1.70136e-07
-4.58904e-05 4.34156e-05 -1.37507e-07
-1.70136e-07 -1.37507e-07 -4.41537e-05
0.000902514 -4.66395e-05 7.61018e-07
-4.66395e-05 1.86557e-05 -4.0661e-07
7.61018e-07 -4.0661e-07 -8.29948e-05
0.0011351 -5.89948e-05 6.3913e-07
-5.89948e-05 0.000126189 1.24492e-06
6.3913e-07 1.24492e-06 1.4354e-05
0.00120502 -6.10878e-05 -2.08281e-06
-6.10878e-05 0.000120952 2.07205e-06
-2.08281e-06 2.07205e-06 2.54722e-05
0.0013346 -5.55242e-05 4.06314e-07
-5.55242e-05 0.000219465 -1.85987e-07
4.06314e-07 -1.85987e-07 0.0001301
0.000945442 -5.25049e-05 -2.90465e-07
-5.25049e-05 1.51611e-05 -7.84464e-08
-2.90465e-07 -7.84464e-08 -8.26714e-05
0.00129014 -5.68234e-05 8.22198e-08
-5.68234e-05 0.000186288 2.1282e-07
8.22198e-08 2.1282e-07 0.000106992
0.000900679 -4.30672e-05 -9.44506e-07
-4.30672e-05 1.01386e-05 2.0775e-07
-9.44506e-07 2.0775e-07 -6.71876e-05
0.00105468 -5.16076e-05 4.61572e-07
-5.16076e-05 7.17955e-05 5.18423e-08
4.61572e-07 5.18423e-08 -1.1469e-05
0.00106301 -3.95134e-05 -1.17017e-06
-3.95134e-05 7.88617e-05 1.10026e-07
-1.17017e-06 1.10026e-07 7.99072e-06
0.00110224 -4.85278e-05 -8.74562e-07
-4.85278e-05 9.95141e-05 5.3551e-07
-8.74562e-07 5.3551e-07 2.27221e-05
0.000912865 -4.81309e-05 -3.36663e-08
-4.81309e-05 7.66871e-06 -8.96173e-07
-3.36663e-08 -8.96173e-07 -7.93037e-05
0.00102935 -1.63325e-05 -1.26367e-06
-1.63325e-05 5.32787e-05 1.30186e-06
-1.26367e-06 1.30186e-06 -7.50343e-06
0.00103711 -4.08294e-05 1.07788e-07
-4.08294e-05 6.34798e-05 1.53523e-07
1.07788e-07 1.53523e-07 -9.54342e-06
0.00113826 -4.88874e-05 1.65634e-06
-4.88874e-05 0.000118808 -3.33662e-07
1.65634e-06 -3.33662e-07 4.03892e-05
0.00102638 -3.75344e-05 8.66812e-07
-3.75344e-05 6.25472e-05 -7.25577e-07
8.66812e-07 -7.25577e-07 -1.12543e-05
0.00101021 -1.36168e-05 1.59495e-07
-1.36168e-05 4.41069e-05 5.89745e-09
1.59495e-07 5.89745e-09 -1.49716e-05
0.000947252 5.66982e-06 -1.28691e-06
5.66982e-06 9.13787e-06 2.24691e-06
-1.28691e-06 2.24691e-06 -2.79209e-05
0.00100239 -1.25838e-05 5.99646e-07
-1.25838e-05 4.02474e-05 -1.35992e-06
5.99646e-07 -1.35992e-06 -1.58192e-05
0.000941066 7.88636e-06 1.01427e-07
7.88636e-06 3.57873e-06 -3.52684e-08
1.01427e-07 -3.52684e-08 -3.08865e-05
0.000861191 1.45339e-05 -2.01155e-06
1.45339e-05 -3.98158e-05 3.36077e-06
-2.01155e-06 3.36077e-06 -4.50071e-05
0.000943504 3.73293e-06 8.84458e-07
3.73293e-06 2.51393e-06 -1.98979e-06
8.84458e-07 -1.98979e-06 -2.99573e-05
0.00087899 1.2492e-05 1.28278e-07
1.2492e-05 -3.5215e-05 8.0465e-09
1.28278e-07 8.0465e-09 -3.90345e-05
0.00231239 2.04681e-05 -4.03793e-06
2.04681e-05 0.000688755 1.65056e-06
-4.03793e-06 1.65056e-06 0.000709478
0.000900056 1.02895e-05 1.45882e-06
1.02895e-05 -2.87998e-05 -3.24794e-06
1.45882e-06 -3.24794e-06 -3.13477e-05
0.00169966 1.36363e-05 4.13225e-06
1.36363e-05 0.000374022 -1.1934e-06
4.13225e-06 -1.1934e-06 0.000392848
0.00230976 1.12693e-05 7.98125e-06
1.12693e-05 0.000679999 -4.02837e-06
7.98125e-06 -4.02837e-06 0.00070234
0.000799782 -2.14804e-06 -3.3004e-07
-2.14804e-06 -6.52887e-05 -1.92402e-06
-3.3004e-07 -1.92402e-06 -0.000118178
0.000688223 -6.53355e-06 -7.03145e-07
-6.53355e-06 -0.000128748 -2.56303e-06
-7.03145e-07 -2.56303e-06 -0.000160087
0.000957614 -1.24453e-06 -1.09668e-07
-1.24453e-06 1.48269e-05 -4.90147e-07
-1.09668e-07 -4.90147e-07 -3.4979e-05
0.000914411 -8.19499e-06 -9.99131e-07
-8.19499e-06 -2.54024e-05 -3.28483e-06
-9.99131e-07 -3.28483e-06 -2.54003e-05
0.000704116 -5.10156e-06 -1.04668e-07
-5.10156e-06 -0.00012259 -6.10018e-07
-1.04668e-07 -6.10018e-07 -0.000151627
0.0010798 1.10853e-07 1.49396e-07
1.10853e-07 7.68844e-05 1.38975e-06
1.49396e-07 1.38975e-06 3.06324e-05
0.00221237 -7.39506e-06 -5.75952e-06
-7.39506e-06 0.000627715 -4.03902e-06
-5.75952e-06 -4.03902e-06 0.000651583
0.000904842 -5.37086e-06 -9.97902e-08
-5.37086e-06 -3.27265e-05 -1.37034e-08
-9.97902e-08 -1.37034e-08 -3.11865e-05
0.00071253 -3.40871e-06 1.50928e-07
-3.40871e-06 -0.000119673 1.8278e-06
1.50928e-07 1.8278e-06 -0.000146768
0.00218602 -3.54029e-06 -1.10011e-06
-3.54029e-06 0.000612677 8.71816e-09
-1.10011e-06 8.71816e-09 0.000637173
0.000902094 -2.50245e-06 1.78831e-07
-2.50245e-06 -3.57432e-05 3.22668e-06
1.78831e-07 3.22668e-06 -3.31717e-05
0.0021707 2.91852e-07 -6.07827e-07
2.91852e-07 0.000604455 3.96901e-06
-6.07827e-07 3.96901e-06 0.000629185
0.00115314 -7.58218e-06 3.94498e-06
-7.58218e-06 0.000257702 -9.25519e-07
3.94498e-06 -9.25519e-07 0.000158739
0.00114579 -6.0972e-06 -1.66425e-06
-6.0972e-06 0.000309872 4.34045e-07
-1.66425e-06 4.34045e-07 0.000235646
0.00112642 5.39412e-06 -8.78121e-07
5.39412e-06 0.000233968 3.40649e-06
-8.78121e-07 3.40649e-06 0.000236838
0.00107022 2.46268e-05 -9.90291e-08
2.46268e-05 7.60273e-05 6.88301e-08
-9.90291e-08 6.88301e-08 1.01769e-05
0.00096253 1.91728e-05 -3.48707e-07
1.91728e-05 1.77578e-05 -1.09091e-06
-3.48707e-07 -1.09091e-06 -5.02098e-05
0.00118761 3.06358e-05 -1.88585e-07
3.06358e-05 0.00013724 -4.48189e-07
-1.88585e-07 -4.48189e-07 6.26172e-05
0.00229981 1.31814e-05 -4.95191e-06
1.31814e-05 0.000880685 -1.02314e-05
-4.95191e-06 -1.02314e-05 0.000833248
0.00115847 -1.06046e-05 5.83911e-06
-1.06046e-05 0.00020858 2.77958e-07
5.83911e-06 2.77958e-07 0.000141812
0.00145153 3.17617e-07 -1.17942e-05
3.17617e-07 0.000462726 7.81776e-06
-1.17942e-05 7.81776e-06 0.000408947
0.000135317 4.6997e-05 -3.06641e-05
4.6997e-05 -0.000250212 1.16693e-05
-3.06641e-05 1.16693e-05 -0.000482025
0.00243683 0.000160008 1.20061e-05
0.000160008 0.000396203 -1.31926e-05
1.20061e-05 -1.31926e-05 -0.000408445
0.00293783 0.000260969 3.02077e-05
0.000260969 0.000504193 -2.3413e-05
3.02077e-05 -2.3413e-05 0.000621888
0.000601236 -1.97635e-06 3.84213e-06
-1.97635e-06 -0.000266867 2.18313e-06
3.84213e-06 2.18313e-06 -0.000184943
0.000473935 -3.09392e-05 -1.30511e-05
-3.09392e-05 -8.77432e-05 1.11937e-05
-1.30511e-05 1.11937e-05 -0.000274302
0.00496904 8.41331e-05 3.60817e-05
8.41331e-05 0.00102619 -4.36953e-05
3.60817e-05 -4.36953e-05 0.000240129
0.000565667 9.98914e-05 -9.06718e-08
9.98914e-05 -0.000687076 1.20811e-05
-9.06718e-08 1.20811e-05 -0.000551042
0.00110076 1.35927e-05 4.84136e-07
1.35927e-05 1.84081e-05 -4.77268e-07
4.84136e-07 -4.77268e-07 6.78364e-05
0.00167133 -0.00018629 2.67901e-05
-0.00018629 0.000192513 -4.97768e-05
2.67901e-05 -4.97768e-05 3.23329e-05
0.0081688 9.87962e-05 2.52758e-05
9.87962e-05 0.00219124 -3.52389e-05
2.52758e-05 -3.52389e-05 0.00164623
-7.05301e-05 -5.86361e-06 -2.32341e-06
-5.86361e-06 -0.00104842 8.50425e-05
-2.32341e-06 8.50425e-05 -0.000901778
-0.000424269 1.71449e-05 -9.75889e-07
1.71449e-05 -0.000948489 4.2836e-08
-9.75889e-07 4.2836e-08 -0.000838169
0.00109306 9.85712e-06 -1.84681e-08
9.85712e-06 8.69895e-05 -1.03973e-06
-1.84681e-08 -1.03973e-06 4.63083e-06
0.00100363 -1.45526e-06 -6.38799e-08
-1.45526e-06 4.889e-05 -2.44586e-07
-6.38799e-08 -2.44586e-07 -3.26575e-05
0.00104872 -1.65876e-05 -7.16578e-08
-1.65876e-05 7.81357e-05 1.15643e-06
-7.16578e-08 1.15643e-06 9.63919e-07
0.00103029 1.92424e-05 -3.54026e-07
1.92424e-05 6.03584e-05 -7.12311e-07
-3.54026e-07 -7.12311e-07 -1.36218e-05
0.00115803 4.60425e-05 9.55385e-07
4.60425e-05 0.000129255 1.53475e-06
9.55385e-07 1.53475e-06 5.78908e-05
0.00123744 2.91804e-05 1.02735e-07
2.91804e-05 0.000164203 1.11595e-06
1.02735e-07 1.11595e-06 0.000101481
0.0024749 -0.000166464 6.64128e-06
-0.000166464 0.000371625 -1.63113e-07
6.64128e-06 -1.63113e-07 0.000377988
0.000912702 -1.10162e-05 -2.82077e-07
-1.10162e-05 0.000163922 6.01951e-06
-2.82077e-07 6.01951e-06 -8.83383e-05
0.00111023 2.59693e-05 4.46341e-07
2.59693e-05 0.000101823 1.24445e-06
4.46341e-07 1.24445e-06 1.49565e-05
0.00121684 -8.23873e-06 5.3383e-07
-8.23873e-06 0.00016162 3.54412e-07
5.3383e-07 3.54412e-07 4.25739e-05
0.00112806 3.80569e-06 1.50269e-09
3.80569e-06 0.000100984 9.55215e-07
1.50269e-09 9.55215e-07 6.13316e-06
0.00110298 2.43661e-05 3.5418e-07
2.43661e-05 8.90262e-05 2.41304e-07
3.5418e-07 2.41304e-07 3.81014e-06
0.00114691 2.76722e-05 1.58986e-07
2.76722e-05 0.000108332 -1.09586e-07
1.58986e-07 -1.09586e-07 1.59454e-05
0.00135387 -0.000130194 -1.55445e-07
-0.000130194 0.000134365 1.75579e-06
-1.55445e-07 1.75579e-06 2.04727e-05
0.00125923 1.78867e-06 4.90776e-07
1.78867e-06 0.000149893 -1.3596e-06
4.90776e-07 -1.3596e-06 5.96723e-05
0.00149307 4.90105e-05 -1.72233e-06
4.90105e-05 0.000442427 -8.55816e-07
-1.72233e-06 -8.55816e-07 0.000250406
0.000947885 6.07501e-06 9.43107e-08
6.07501e-06 8.39328e-06 -2.14247e-06
9.43107e-08 -2.14247e-06 -7.99991e-05
0.000554132 -2.62863e-05 -2.58104e-07
-2.62863e-05 0.000169698 -2.65035e-06
-2.58104e-07 -2.65035e-06 -9.99117e-05
0.000556763 2.70684e-05 -1.94656e-06
2.70684e-05 -0.000148217 2.92145e-06
-1.94656e-06 2.92145e-06 -0.00020874
0.0010692 -2.58325e-06 5.45224e-08
-2.58325e-06 6.57791e-05 -1.5807e-06
5.45224e-08 -1.5807e-06 -2.86856e-05
0.0013129 -4.92926e-06 8.93183e-07
-4.92926e-06 0.000336576 -9.73232e-07
8.93183e-07 -9.73232e-07 0.000223677
0.000964861 -2.50181e-06 9.48162e-07
-2.50181e-06 0.000148318 2.0835e-07
9.48162e-07 2.0835e-07 3.9594e-05
0.00109477 -3.65158e-06 -1.90883e-05
-3.65158e-06 0.000293983 9.78071e-07
-1.90883e-05 9.78071e-07 0.000213335
0.00143655 5.54679e-05 2.4459e-06
5.54679e-05 0.000286165 4.07647e-06
2.4459e-06 4.07647e-06 0.000207744
-0.000520139 5.16775e-05 6.69622e-06
5.16775e-05 -0.000401695 -1.05065e-05
6.69622e-06 -1.05065e-05 -0.000473341
0.000734773 4.17908e-06 -1.9605e-06
4.17908e-06 -3.2164e-05 1.63454e-06
-1.9605e-06 1.63454e-06 -0.000138283
0.00370604 -2.90664e-05 -1.63393e-05
-2.90664e-05 0.000446945 -1.06872e-05
-1.63393e-05 -1.06872e-05 0.000225319
-0.00129944 1.86256e-05 1.0202e-06
1.86256e-05 -0.00174279 7.14494e-05
1.0202e-06 7.14494e-05 -0.00156265
3.01015e-05 -8.42762e-06 1.1579e-07
-8.42762e-06 -0.000564014 -5.3128e-06
1.1579e-07 -5.3128e-06 -0.000647739
0.000523353 -9.85982e-06 -1.55161e-06
-9.85982e-06 -0.000282309 -7.74617e-06
-1.55161e-06 -7.74617e-06 -0.000232892
0.000671581 3.54686e-05 2.52873e-06
3.54686e-05 2.25947e-05 6.99415e-07
2.52873e-06 6.99415e-07 -5.77219e-05
0.0011548 -4.64126e-06 2.71723e-08
-4.64126e-06 0.000209007 1.22279e-06
2.71723e-08 1.22279e-06 9.78489e-05
0.00120178 -2.21693e-05 -6.34209e-06
-2.21693e-05 0.000235988 6.61492e-07
-6.34209e-06 6.61492e-07 0.000139651
0.00113432 0.000142624 2.18299e-05
0.000142624 0.000270414 1.1246e-06
2.18299e-05 1.1246e-06 0.000105016
0.00126296 6.29284e-05 1.81753e-06
6.29284e-05 1.24536e-05 -3.19967e-06
1.81753e-06 -3.19967e-06 0.000256407
0.000450163 0.000129792 1.85871e-06
0.000129792 -0.000686466 -1.29524e-05
1.85871e-06 -1.29524e-05 -0.00057349
0.00697894 -8.76905e-06 6.71638e-06
-8.76905e-06 0.00177412 -2.03023e-05
6.71638e-06 -2.03023e-05 0.00144292
-0.000772716 5.07087e-06 -1.82343e-05
5.07087e-06 -0.000196369 -1.23245e-05
-1.82343e-05 -1.23245e-05 -0.0004365
0.00112476 -1.31528e-05 -4.99555e-06
-1.31528e-05 0.000241899 8.11078e-07
-4.99555e-06 8.11078e-07 0.000125022
0.00104581 -9.90554e-07 -1.44826e-05
-9.90554e-07 0.000186519 4.07342e-06
-1.44826e-05 4.07342e-06 0.000124923
0.00144478 0.000107012 9.07917e-06
0.000107012 0.00020031 6.68428e-07
9.07917e-06 6.68428e-07 0.000474695
-0.00306706 0.000208476 3.62103e-05
0.000208476 -0.00223826 -3.94928e-05
3.62103e-05 -3.94928e-05 -0.00216635
0.00770862 0.000149528 -3.33312e-06
0.000149528 0.00208882 -7.80728e-06
-3.33312e-06 -7.80728e-06 0.00133873
0.00130807 -1.4045e-05 -2.06792e-05
-1.4045e-05 0.000339883 9.06992e-05
-2.06792e-05 9.06992e-05 2.49563e-05
0.000959444 2.15662e-05 5.96047e-07
2.15662e-05 4.94403e-05 3.01372e-06
5.96047e-07 3.01372e-06 -5.44443e-05
0.000585496 -1.1783e-05 1.08046e-06
-1.1783e-05 1.88938e-05 -1.57965e-06
1.08046e-06 -1.57965e-06 -0.000215997
0.000710272 -3.06339e-05 -2.29213e-07
-3.06339e-05 0.000141405 -1.64099e-06
-2.29213e-07 -1.64099e-06 -0.000136727
0.00104783 -4.17587e-05 4.36037e-07
-4.17587e-05 6.1744e-05 -9.58953e-07
4.36037e-07 -9.58953e-07 -3.36052e-05
0.000836246 -2.35278e-05 3.30832e-07
-2.35278e-05 -2.03894e-06 1.24651e-06
3.30832e-07 1.24651e-06 -0.000111822
0.000874051 -2.32683e-05 -1.55998e-07
-2.32683e-05 5.24962e-05 6.86583e-07
-1.55998e-07 6.86583e-07 -7.08829e-05
0.000894453 -6.11868e-05 2.07516e-06
-6.11868e-05 0.000125535 -1.54977e-06
2.07516e-06 -1.54977e-06 -7.07021e-05
0.00130991 -5.55008e-05 6.96737e-09
-5.55008e-05 0.000205764 1.05485e-08
6.96737e-09 1.05485e-08 0.000108009
0.00127312 -6.01489e-05 -1.4031e-07
-6.01489e-05 0.000219356 4.14168e-07
-1.4031e-07 4.14168e-07 9.60249e-05
0.00116485 -6.78852e-05 1.26354e-06
-6.78852e-05 0.00016635 1.86407e-06
1.26354e-06 1.86407e-06 1.86965e-05
0.000695047 -4.1562e-05 9.85759e-08
-4.1562e-05 -8.01267e-05 -1.41024e-06
9.85759e-08 -1.41024e-06 -0.000179618
0.00112911 -5.85302e-05 -2.38771e-07
-5.85302e-05 0.000121647 -5.44068e-08
-2.38771e-07 -5.44068e-08 8.38793e-06
0.00170351 -7.8467e-05 -1.40548e-06
-7.8467e-05 0.000370527 1.48996e-06
-1.40548e-06 1.48996e-06 0.000256682
0.00140027 -6.87208e-05 -1.79684e-06
-6.87208e-05 0.000202542 2.29572e-06
-1.79684e-06 2.29572e-06 0.000102683
0.0008597 -4.9782e-05 -4.91112e-07
-4.9782e-05 -3.63904e-05 1.84858e-06
-4.91112e-07 1.84858e-06 -0.000119537
0.00113353 -5.97908e-05 -4.32132e-07
-5.97908e-05 8.7876e-05 3.63837e-07
-4.32132e-07 3.63837e-07 -9.17604e-06
0.00110504 -5.63758e-05 -8.16403e-08
-5.63758e-05 9.21307e-05 -1.06591e-06
-8.16403e-08 -1.06591e-06 -6.99349e-06
0.00123411 -5.32161e-05 3.10819e-07
-5.32161e-05 0.00015946 -1.6745e-07
3.10819e-07 -1.6745e-07 8.53214e-05
0.00112392 -5.2785e-05 1.08438e-06
-5.2785e-05 0.000105664 -6.33454e-07
1.08438e-06 -6.33454e-07 2.8005e-05
0.000922604 -3.39165e-05 -5.21862e-07
-3.39165e-05 1.87534e-05 6.09592e-07
-5.21862e-07 6.09592e-07 -5.30023e-05
0.000998063 -4.51499e-05 2.07694e-07
-4.51499e-05 5.72258e-05 -1.05057e-07
2.07694e-07 -1.05057e-07 -1.93871e-05
0.00106426 -5.16117e-05 2.79928e-06
-5.16117e-05 7.57222e-05 -1.505e-06
2.79928e-06 -1.505e-06 -6.17517e-06
0.00100407 -8.65985e-06 -1.56187e-06
-8.65985e-06 4.34287e-05 9.73141e-07
-1.56187e-06 9.73141e-07 -1.73758e-05
0.00107916 -4.03306e-05 -2.8751e-07
-4.03306e-05 8.56305e-05 -5.54345e-08
-2.8751e-07 -5.54345e-08 1.49146e-05
0.0011224 -4.90138e-05 4.46913e-07
-4.90138e-05 0.000108786 -1.12985e-07
4.46913e-07 -1.12985e-07 3.17895e-05
0.00094186 1.6508e-06 -1.91694e-06
1.6508e-06 8.12149e-06 2.32959e-06
-1.91694e-06 2.32959e-06 -3.13432e-05
0.00102303 -1.75758e-05 1.30069e-07
-1.75758e-05 4.93242e-05 1.35995e-07
1.30069e-07 1.35995e-07 -1.11098e-05
0.0010138 -4.04319e-05 1.37709e-06
-4.04319e-05 5.11332e-05 -1.63468e-07
1.37709e-06 -1.63468e-07 -2.2031e-05
0.00101171 -1.35717e-05 1.07324e-06
-1.35717e-05 4.42535e-05 -1.32685e-06
1.07324e-06 -1.32685e-06 -1.46325e-05
0.000937911 7.29217e-06 2.38709e-07
7.29217e-06 4.80452e-06 -2.81835e-08
2.38709e-07 -2.81835e-08 -3.23316e-05
0.000848567 1.64638e-05 -2.39082e-06
1.64638e-05 -4.15142e-05 3.46156e-06
-2.39082e-06 3.46156e-06 -4.85395e-05
0.000935268 8.62829e-06 1.03384e-06
8.62829e-06 8.80573e-07 -2.16015e-06
1.03384e-06 -2.16015e-06 -3.36744e-05
0.000874448 1.46527e-05 9.52366e-08
1.46527e-05 -3.33437e-05 -1.69926e-08
9.52366e-08 -1.69926e-08 -3.86115e-05
0.00239419 2.21254e-05 -1.29388e-05
2.21254e-05 0.000733962 3.96061e-06
-1.29388e-05 3.96061e-06 0.000753642
0.000895625 1.25551e-05 1.86511e-06
1.25551e-05 -2.72215e-05 -3.30392e-06
1.86511e-06 -3.30392e-06 -3.10382e-05
0.00171199 1.69747e-05 4.87947e-06
1.69747e-05 0.000385003 -1.16702e-06
4.87947e-06 -1.16702e-06 0.000402701
0.00233244 1.49893e-05 1.01149e-05
1.49893e-05 0.000695018 -4.03272e-06
1.01149e-05 -4.03272e-06 0.000716542
0.000986465 1.34412e-05 -5.4862e-07
1.34412e-05 2.78237e-05 -1.50889e-06
-5.4862e-07 -1.50889e-06 -2.66287e-05
0.000940071 -9.53509e-06 -7.08049e-07
-9.53509e-06 -5.03039e-07 -2.05337e-06
-7.08049e-07 -2.05337e-06 -3.2428e-05
0.000894866 6.81562e-06 -4.44254e-07
6.81562e-06 -1.69436e-05 -5.53692e-07
-4.44254e-07 -5.53692e-07 -6.94508e-05
0.000907932 -1.08014e-05 -1.27766e-06
-1.08014e-05 -2.52048e-05 -3.33545e-06
-1.27766e-06 -3.33545e-06 -2.69782e-05
0.000824131 -6.78025e-06 -2.38797e-07
-6.78025e-06 -6.05256e-05 -5.89379e-07
-2.38797e-07 -5.89379e-07 -9.12374e-05
0.00110238 -2.25849e-06 1.90412e-07
-2.25849e-06 8.69761e-05 7.93873e-07
1.90412e-07 7.93873e-07 3.78811e-05
0.00225211 -1.12157e-05 -7.90283e-06
-1.12157e-05 0.000650367 -4.05586e-06
-7.90283e-06 -4.05586e-06 0.000673371
0.000899555 -8.11906e-06 -9.30715e-08
-8.11906e-06 -3.27981e-05 -1.32507e-08
-9.30715e-08 -1.32507e-08 -3.26947e-05
0.000701758 -5.1938e-06 1.92391e-07
-5.1938e-06 -0.000123591 1.35537e-06
1.92391e-07 1.35537e-06 -0.000152938
0.00221549 -7.30312e-06 -9.76874e-07
-7.30312e-06 0.000629037 1.82837e-08
-9.76874e-07 1.82837e-08 0.000652981
0.000893758 -5.3158e-06 5.28761e-07
-5.3158e-06 -3.82399e-05 3.24536e-06
5.28761e-07 3.24536e-06 -3.66272e-05
0.00218593 -3.45146e-06 2.03114e-06
-3.45146e-06 0.000612473 3.97066e-06
2.03114e-06 3.97066e-06 0.000637027
0.00156799 2.15108e-06 2.90768e-06
2.15108e-06 0.000461913 1.44927e-08
2.90768e-06 1.44927e-08 0.00037062
0.00111467 -7.1618e-06 1.4051e-06
-7.1618e-06 0.000226904 -6.92738e-08
1.4051e-06 -6.92738e-08 0.000129682
0.00102845 -6.4988e-06 -1.44185e-05
-6.4988e-06 0.000232619 6.64015e-07
-1.44185e-05 6.64015e-07 0.00016016
0.000962751 1.77696e-05 -4.05743e-07
1.77696e-05 1.73073e-05 -1.235e-06
-4.05743e-07 -1.235e-06 -5.28691e-05
0.00114945 3.93019e-05 -3.93687e-07
3.93019e-05 0.000114652 -6.8614e-07
-3.93687e-07 -6.8614e-07 3.6245e-05
0.00110522 2.92933e-05 9.07583e-07
2.92933e-05 9.33569e-05 1.15662e-06
9.07583e-07 1.15662e-06 2.79504e-05
0.000942522 1.82192e-05 -5.56556e-08
1.82192e-05 8.34325e-06 2.15913e-09
-5.56556e-08 2.15913e-09 -5.99128e-05
0.00110659 2.19615e-05 1.46003e-07
2.19615e-05 9.49292e-05 3.63341e-07
1.46003e-07 3.63341e-07 1.99698e-05
0.00107201 3.02736e-05 -3.60185e-07
3.02736e-05 7.64853e-05 -8.7705e-07
-3.60185e-07 -8.7705e-07 -3.10411e-07
0.00108519 4.18543e-05 -1.14334e-07
4.18543e-05 8.68664e-05 -4.27135e-07
-1.14334e-07 -4.27135e-07 4.62589e-06
0.000761703 3.02864e-05 -1.16494e-06
3.02864e-05 -1.96985e-05 -1.1708e-05
-1.16494e-06 -1.1708e-05 -9.50689e-05
0.00100259 1.1698e-05 -1.94506e-06
1.1698e-05 5.71079e-05 -3.28741e-06
-1.94506e-06 -3.28741e-06 8.96586e-06
0.000924815 -1.10576e-05 4.30303e-06
-1.10576e-05 5.93838e-05 4.13201e-06
4.30303e-06 4.13201e-06 -3.07045e-06
-0.0004372 1.02425e-05 -3.6857e-07
1.02425e-05 -0.000898848 -4.50586e-07
-3.6857e-07 -4.50586e-07 -0.000873876
0.000968941 -4.26346e-05 -6.20875e-05
-4.26346e-05 -0.00020782 6.1493e-05
-6.20875e-05 6.1493e-05 -0.000515177
0.00201305 7.08347e-05 5.04625e-05
7.08347e-05 -1.86976e-05 -6.22065e-05
5.04625e-05 -6.22065e-05 -0.00068967
0.00500664 0.000170342 1.35415e-05
0.000170342 0.00107528 -3.19361e-05
1.35415e-05 -3.19361e-05 0.00127075
0.00100531 -0.00016105 -2.37192e-05
-0.00016105 -0.000214856 2.34253e-05
-2.37192e-05 2.34253e-05 -0.000478565
0.00282543 -6.54886e-05 1.54792e-05
-6.54886e-05 -0.000331532 -5.02919e-05
1.54792e-05 -5.02919e-05 -0.00101659
0.00327193 -1.7107e-05 -3.16523e-06
-1.7107e-05 0.000291589 -1.00748e-06
-3.16523e-06 -1.00748e-06 0.000369825
0.00185261 8.62873e-06 -9.14291e-07
8.62873e-06 0.000374339 5.15719e-06
-9.14291e-07 5.15719e-06 0.000521906
0.000722511 -0.000130895 3.50717e-05
-0.000130895 -8.63742e-05 -2.3819e-05
3.50717e-05 -2.3819e-05 -0.000260311
0.0032427 -0.000200111 -2.08445e-05
-0.000200111 -0.000479875 -0.000105285
-2.08445e-05 -0.000105285 -0.00082067
-0.000445701 -7.35402e-05 1.50997e-05
-7.35402e-05 -0.00134936 5.29894e-05
1.50997e-05 5.29894e-05 -0.00115888
-0.00108586 -4.60811e-05 -5.39064e-06
-4.60811e-05 -0.00138637 -2.5763e-07
-5.39064e-06 -2.5763e-07 -0.00115627
0.00114668 1.51989e-05 -8.01696e-07
1.51989e-05 0.000105623 -1.43974e-06
-8.01696e-07 -1.43974e-06 2.1784e-05
0.00107254 1.10397e-05 6.97548e-08
1.10397e-05 7.71805e-05 -2.12739e-07
6.97548e-08 -2.12739e-07 -5.64113e-06
0.00101612 1.83632e-07 -3.48266e-08
1.83632e-07 5.63312e-05 7.7364e-07
-3.48266e-08 7.7364e-07 -2.55608e-05
0.00105829 2.14018e-05 6.77855e-08
2.14018e-05 7.42319e-05 2.54666e-07
6.77855e-08 2.54666e-07 2.28456e-07
0.00157163 -0.000132305 1.13508e-05
-0.000132305 0.000190643 2.19896e-06
1.13508e-05 2.19896e-06 0.000116366
0.00149693 4.67471e-05 2.36943e-06
4.67471e-05 0.000473533 4.30772e-06
2.36943e-06 4.30772e-06 0.000280505
0.00103266 2.51871e-05 3.45205e-07
2.51871e-05 5.44594e-05 1.31161e-06
3.45205e-07 1.31161e-06 -3.06255e-05
0.00104483 1.5895e-05 -1.99428e-07
1.5895e-05 5.6313e-05 1.23833e-06
-1.99428e-07 1.23833e-06 -3.61586e-05
0.0015106 1.11249e-06 -8.80387e-07
1.11249e-06 0.000271205 1.99932e-07
-8.80387e-07 1.99932e-07 0.000182461
0.00102821 1.9698e-05 -8.47441e-07
1.9698e-05 4.90254e-05 -1.34332e-07
-8.47441e-07 -1.34332e-07 -3.9728e-05
0.00102861 -8.21906e-07 -1.05966e-06
-8.21906e-07 4.42754e-05 4.96339e-07
-1.05966e-06 4.96339e-07 -5.12211e-05
0.000669487 -2.39511e-05 1.33443e-05
-2.39511e-05 0.000221363 -3.69459e-07
1.33443e-05 -3.69459e-07 9.37658e-06
0.000903528 1.27801e-05 2.50053e-06
1.27801e-05 2.82189e-05 2.62204e-06
2.50053e-06 2.62204e-06 -2.82575e-05
0.00122662 2.59451e-06 -3.83519e-08
2.59451e-06 0.000152551 -2.83166e-06
-3.83519e-08 -2.83166e-06 5.61776e-05
0.000927882 1.61338e-05 6.15689e-06
1.61338e-05 0.000498613 4.67054e-06
6.15689e-06 4.67054e-06 0.000318014
0.00168305 -3.18506e-05 6.18366e-06
-3.18506e-05 0.000419181 -2.94937e-06
6.18366e-06 -2.94937e-06 0.000293709
0.00147022 -4.54621e-06 -3.88351e-06
-4.54621e-06 0.000473237 -6.35725e-07
-3.88351e-06 -6.35725e-07 0.000355094
0.00100416 -4.77127e-06 3.11304e-07
-4.77127e-06 0.000152237 -5.36659e-07
3.11304e-07 -5.36659e-07 3.63413e-05
0.000550253 -3.66786e-06 -5.86596e-07
-3.66786e-06 -0.000109653 4.92648e-07
-5.86596e-07 4.92648e-07 -0.000220482
0.000613591 2.25505e-05 -3.7993e-06
2.25505e-05 -4.61225e-05 5.83248e-06
-3.7993e-06 5.83248e-06 -0.000125871
0.0012573 7.31866e-05 -3.19414e-05
7.31866e-05 0.000605111 1.15322e-05
-3.19414e-05 1.15322e-05 0.000599558
0.000790425 -4.82294e-06 -1.14141e-07
-4.82294e-06 -8.69676e-06 1.64932e-06
-1.14141e-07 1.64932e-06 -0.000121549
0.00309288 0.000164896 1.51808e-05
0.000164896 -6.98524e-05 -9.08096e-05
1.51808e-05 -9.08096e-05 -0.000556282
0.00453533 0.000193989 -1.12947e-05
0.000193989 0.000953344 2.01938e-05
-1.12947e-05 2.01938e-05 0.0010831
0.00108784 -2.36936e-05 -1.98345e-06
-2.36936e-05 0.000164151 -5.8456e-06
-1.98345e-06 -5.8456e-06 7.05516e-05
0.00189862 5.97364e-05 -1.7578e-06
5.97364e-05 0.000407694 -7.04479e-06
-1.7578e-06 -7.04479e-06 0.000632248
7.47277e-05 -6.3041e-06 1.27684e-05
-6.3041e-06 0.000133297 -5.06013e-07
1.27684e-05 -5.06013e-07 -6.94075e-05
0.0011251 -1.25929e-05 -1.76413e-06
-1.25929e-05 0.00023615 1.49103e-07
-1.76413e-06 1.49103e-07 0.000120094
0.00128984 -4.13996e-06 1.51306e-07
-4.13996e-06 0.000352997 8.96243e-07
1.51306e-07 8.96243e-07 0.000287291
0.00193385 -2.43723e-05 -8.77641e-06
-2.43723e-05 0.00073614 1.65605e-05
-8.77641e-06 1.65605e-05 0.000650388
0.000647352 0.000116212 -1.85052e-06
0.000116212 -0.000262315 -3.22672e-07
-1.85052e-06 -3.22672e-07 1.42799e-05
0.000870725 0.000238236 3.34865e-06
0.000238236 -0.000414232 -9.27672e-06
3.34865e-06 -9.27672e-06 -0.000356238
0.00289236 2.08107e-05 2.10951e-05
2.08107e-05 0.000226987 -1.13642e-05
2.10951e-05 -1.13642e-05 -0.000686108
0.000473013 -5.54178e-05 3.15464e-06
-5.54178e-05 0.000270889 -1.95174e-05
3.15464e-06 -1.95174e-05 2.90159e-06
0.00137375 -9.30408e-06 -1.24966e-05
-9.30408e-06 0.00045801 1.54701e-06
-1.24966e-05 1.54701e-06 0.000368634
-0.00101112 4.56536e-05 6.94724e-06
4.56536e-05 -0.00106437 -4.8743e-06
6.94724e-06 -4.8743e-06 -0.00100176
0.000190378 0.000178848 5.76097e-05
0.000178848 -8.06714e-05 -2.52817e-05
5.76097e-05 -2.52817e-05 -1.9991e-05
0.00590141 0.000305874 3.24371e-05
0.000305874 0.00161505 -4.32849e-05
3.24371e-05 -4.32849e-05 0.000843508
0.00195629 -0.000149639 -4.65552e-05
-0.000149639 0.00011889 0.000103766
-4.65552e-05 0.000103766 -0.000388986
0.00102954 -8.20631e-06 -1.68278e-06
-8.20631e-06 0.000227221 -1.58991e-06
-1.68278e-06 -1.58991e-06 -2.87375e-06
0.000637396 -2.10481e-05 -4.8508e-08
-2.10481e-05 0.000110943 -8.86856e-07
-4.8508e-08 -8.86856e-07 -0.000171803
0.00134789 -8.55464e-05 4.70627e-07
-8.55464e-05 0.000379083 2.01843e-06
4.70627e-07 2.01843e-06 0.000120121
0.000788813 -1.87457e-05 2.81016e-09
-1.87457e-05 1.04881e-05 2.42572e-07
2.81016e-09 2.42572e-07 -0.000108461
0.000596839 -4.30847e-05 2.12677e-07
-4.30847e-05 -4.02881e-06 1.96261e-07
2.12677e-07 1.96261e-07 -0.000204388
0.00118283 -8.56731e-05 2.40621e-06
-8.56731e-05 0.00019332 4.45291e-06
2.40621e-06 4.45291e-06 9.99446e-06
0.00152471 -6.91699e-05 -1.189e-06
-6.91699e-05 0.000335565 -5.83479e-09
-1.189e-06 -5.83479e-09 0.000207922
0.00124205 -6.95798e-05 -2.6871e-07
-6.95798e-05 0.000198151 7.06197e-07
-2.6871e-07 7.06197e-07 4.86131e-05
0.00133018 -8.24704e-05 -1.17614e-06
-8.24704e-05 0.000184649 4.75067e-07
-1.17614e-06 4.75067e-07 4.51087e-05
0.00111782 -5.81172e-05 -4.55119e-07
-5.81172e-05 0.000114707 -1.05153e-06
-4.55119e-07 -1.05153e-06 -7.58772e-07
0.00148762 -7.44944e-05 -3.14437e-07
-7.44944e-05 0.000262175 1.29685e-07
-3.14437e-07 1.29685e-07 0.000145921
0.00140224 -7.39751e-05 -5.61013e-07
-7.39751e-05 0.000194576 3.1382e-07
-5.61013e-07 3.1382e-07 8.45188e-05
0.0012967 -6.48233e-05 -1.44235e-06
-6.48233e-05 0.000119461 2.90791e-07
-1.44235e-06 2.90791e-07 2.50729e-05
0.00146971 -6.59245e-05 -1.80088e-06
-6.59245e-05 0.000239883 2.70251e-06
-1.80088e-06 2.70251e-06 0.000150929
0.00133133 -6.7492e-05 -2.36051e-07
-6.7492e-05 0.000168498 1.64672e-07
-2.36051e-07 1.64672e-07 6.7646e-05
0.000835815 -4.6702e-05 -3.82145e-09
-4.6702e-05 -4.37047e-05 2.80875e-07
-3.82145e-09 2.80875e-07 -0.000118992
0.000995386 -5.26076e-05 8.05647e-07
-5.26076e-05 3.0932e-05 -2.41398e-07
8.05647e-07 -2.41398e-07 -5.15556e-05
0.00108102 -5.89723e-05 6.48242e-07
-5.89723e-05 6.37744e-05 -1.6496e-06
6.48242e-07 -1.6496e-06 -3.48429e-05
0.0011144 -4.37969e-05 -1.79499e-07
-4.37969e-05 0.000104162 2.90712e-07
-1.79499e-07 2.90712e-07 3.2392e-05
0.00115629 -5.13604e-05 1.13381e-08
-5.13604e-05 0.000122413 -1.65761e-07
1.13381e-08 -1.65761e-07 4.79378e-05
0.000947729 -4.85491e-05 1.82268e-06
-4.85491e-05 2.02438e-05 -8.20815e-07
1.82268e-06 -8.20815e-07 -5.57715e-05
0.000949651 -5.26362e-07 -7.99749e-07
-5.26362e-07 2.30333e-05 1.00865e-06
-7.99749e-07 1.00865e-06 -3.91711e-05
0.000956805 -3.39506e-05 -1.39409e-07
-3.39506e-05 3.4422e-05 1.23366e-07
-1.39409e-07 1.23366e-07 -3.68375e-05
0.00110113 -4.73484e-05 8.19863e-07
-4.73484e-05 0.000107072 -5.40179e-07
8.19863e-07 -5.40179e-07 3.11668e-05
0.000919105 6.11704e-06 -2.54614e-06
6.11704e-06 -1.5378e-07 2.18316e-06
-2.54614e-06 2.18316e-06 -4.13629e-05
0.00101368 -9.7804e-06 -3.19844e-07
-9.7804e-06 4.71345e-05 7.40083e-09
-3.19844e-07 7.40083e-09 -1.34523e-05
0.00109223 -4.10074e-05 6.0341e-07
-4.10074e-05 9.08744e-05 -2.51932e-07
6.0341e-07 -2.51932e-07 2.03271e-05
0.000878674 1.83292e-05 -4.00777e-06
1.83292e-05 -2.3234e-05 4.83653e-06
-4.00777e-06 4.83653e-06 -3.20867e-05
0.000934957 6.12795e-06 3.57156e-07
6.12795e-06 5.11452e-06 1.83295e-08
3.57156e-07 1.83295e-08 -3.439e-05
0.0010148 -1.8645e-05 1.58155e-06
-1.8645e-05 4.44652e-05 -9.89332e-07
1.58155e-06 -9.89332e-07 -1.56642e-05
0.00092898 9.02737e-06 1.44168e-06
9.02737e-06 6.2054e-07 -2.25552e-06
1.44168e-06 -2.25552e-06 -3.65732e-05
0.000862217 1.66571e-05 1.48134e-07
1.66571e-05 -3.47526e-05 -2.36674e-08
1.48134e-07 -2.36674e-08 -4.18902e-05
0.00244269 2.56512e-05 -1.46284e-05
2.56512e-05 0.000763379 3.93928e-06
-1.46284e-05 3.93928e-06 0.000781786
0.000887521 1.47787e-05 2.21267e-06
1.47787e-05 -2.69605e-05 -3.39035e-06
2.21267e-06 -3.39035e-06 -3.23048e-05
0.00239444 2.21284e-05 5.31323e-07
2.21284e-05 0.000734619 4.00984e-08
5.31323e-07 4.00984e-08 0.000754171
0.00235905 1.85902e-05 1.20878e-05
1.85902e-05 0.00071264 -4.02124e-06
1.20878e-05 -4.02124e-06 0.000733196
0.00105836 3.22406e-05 -7.57243e-07
3.22406e-05 6.78113e-05 -1.18838e-06
-7.57243e-07 -1.18838e-06 -4.42708e-06
0.00100474 9.71358e-06 -6.10768e-07
9.71358e-06 3.57416e-05 -1.68432e-06
-6.10768e-07 -1.68432e-06 -2.18668e-05
0.000930422 -1.32817e-05 -9.50044e-07
-1.32817e-05 -3.11697e-06 -2.20359e-06
-9.50044e-07 -2.20359e-06 -3.73383e-05
0.000995948 1.02749e-05 9.68573e-08
1.02749e-05 3.23567e-05 -4.94477e-08
9.68573e-08 -4.94477e-08 -2.19606e-05
0.000899221 -1.31049e-05 -1.68923e-06
-1.31049e-05 -2.56879e-05 -3.39888e-06
-1.68923e-06 -3.39888e-06 -2.9335e-05
0.000945971 -1.08361e-05 -8.4408e-10
-1.08361e-05 2.55712e-06 -4.9714e-09
-8.4408e-10 -4.9714e-09 -2.9402e-05
0.000989133 1.35009e-05 1.7128e-07
1.35009e-05 3.03607e-05 9.09346e-07
1.7128e-07 9.09346e-07 -2.13684e-05
0.00230087 -1.4995e-05 -9.90803e-06
-1.4995e-05 0.000678436 -4.0829e-06
-9.90803e-06 -4.0829e-06 0.000700346
0.000891762 -1.07513e-05 -8.88174e-08
-1.07513e-05 -3.31818e-05 -1.91238e-08
-8.88174e-08 -1.91238e-08 -3.48617e-05
0.000962133 -7.06902e-06 3.38749e-07
-7.06902e-06 8.70499e-06 1.38454e-06
3.38749e-07 1.38454e-06 -2.1384e-05
0.00225154 -1.11228e-05 -8.47917e-07
-1.11228e-05 0.000649692 2.71803e-08
-8.47917e-07 2.71803e-08 0.000672824
0.000885654 -8.03993e-06 8.19347e-07
-8.03993e-06 -3.97092e-05 3.29196e-06
8.19347e-07 3.29196e-06 -3.95075e-05
0.00221399 -7.19924e-06 4.6455e-06
-7.19924e-06 0.000628003 3.98821e-06
4.6455e-06 3.98821e-06 0.000652048
0.000884644 8.65221e-06 -4.76699e-06
8.65221e-06 8.26902e-05 3.34391e-07
-4.76699e-06 3.34391e-07 -2.77204e-05
0.00108227 1.13991e-06 1.47789e-08
1.13991e-06 0.000165178 -2.59539e-06
1.47789e-08 -2.59539e-06 7.03058e-05
0.00109216 -6.76463e-06 -1.38877e-06
-6.76463e-06 0.0002061 8.93362e-07
-1.38877e-06 8.93362e-07 0.000110635
0.00100504 2.28973e-05 -4.01675e-08
2.28973e-05 3.95916e-05 2.22868e-08
-4.01675e-08 2.22868e-08 -3.0829e-05
0.00108964 3.69344e-05 1.15972e-07
3.69344e-05 8.42227e-05 2.35142e-07
1.15972e-07 2.35142e-07 5.48022e-06
0.00102845 4.15827e-05 -1.19681e-06
4.15827e-05 5.57579e-05 -9.77428e-07
-1.19681e-06 -9.77428e-07 -2.38976e-05
0.00097825 2.97816e-05 -4.54718e-07
2.97816e-05 2.78998e-05 -1.32736e-06
-4.54718e-07 -1.32736e-06 -5.04688e-05
0.00115658 4.54902e-05 -4.54076e-07
4.54902e-05 0.000120988 -7.86427e-07
-4.54076e-07 -7.86427e-07 3.81992e-05
0.00092564 2.0673e-05 3.1832e-07
2.0673e-05 8.5153e-07 1.13307e-06
3.1832e-07 1.13307e-06 -6.79716e-05
0.00102256 1.54462e-05 3.21168e-07
1.54462e-05 5.11536e-05 1.31654e-06
3.21168e-07 1.31654e-06 -2.41614e-05
0.00106315 3.63502e-05 -6.51734e-08
3.63502e-05 7.29982e-05 -1.10189e-08
-6.51734e-08 -1.10189e-08 -4.16102e-06
0.00106475 2.55712e-05 2.4661e-07
2.55712e-05 7.34816e-05 4.80676e-07
2.4661e-07 4.80676e-07 -7.54076e-06
0.00110776 3.29301e-05 -3.25576e-07
3.29301e-05 9.6958e-05 -8.72362e-07
-3.25576e-07 -8.72362e-07 1.38768e-05
0.000736965 -6.92378e-07 -1.08207e-05
-6.92378e-07 6.59244e-05 -7.33154e-06
-1.08207e-05 -7.33154e-06 -4.58598e-06
0.000887868 3.01673e-05 -2.68717e-07
3.01673e-05 6.9998e-05 -4.47854e-06
-2.68717e-07 -4.47854e-06 -9.01469e-06
-0.000278996 1.00949e-05 4.51854e-07
1.00949e-05 -0.000758106 7.33432e-07
4.51854e-07 7.33432e-07 -0.000806293
0.00149508 1.33441e-05 6.90234e-06
1.33441e-05 0.000192751 9.42975e-06
6.90234e-06 9.42975e-06 0.000324745
-0.00170868 7.41859e-06 4.29722e-07
7.41859e-06 -0.00204271 -8.24068e-05
4.29722e-07 -8.24068e-05 -0.00186871
0.00132456 -0.000203697 -6.20538e-05
-0.000203697 -0.000208105 9.07206e-05
-6.20538e-05 9.07206e-05 -0.000577642
0.00704094 9.87618e-05 -1.28442e-05
9.87618e-05 0.00158705 -4.41465e-05
-1.28442e-05 -4.41465e-05 0.00116867
0.000592849 -0.00017928 -3.4379e-05
-0.00017928 -0.000365743 2.73487e-05
-3.4379e-05 2.73487e-05 -0.000767349
0.00740828 -0.000105277 1.29331e-05
-0.000105277 0.00162089 3.37445e-06
1.29331e-05 3.37445e-06 0.00131299
0.00108064 -0.000148247 4.38112e-06
-0.000148247 -0.000572191 -1.78739e-05
4.38112e-06 -1.78739e-05 -0.000505469
0.0002137 -4.58843e-05 2.72503e-06
-4.58843e-05 -0.000575164 3.34938e-06
2.72503e-06 3.34938e-06 -0.000356944
0.00188407 -7.54519e-05 -1.69014e-05
-7.54519e-05 0.000447813 -5.57051e-05
-1.69014e-05 -5.57051e-05 4.60722e-05
0.00666711 -0.000221898 -1.6635e-05
-0.000221898 0.00150175 5.06802e-05
-1.6635e-05 5.06802e-05 0.000951416
0.00463296 -0.000246637 9.2445e-06
-0.000246637 0.00133244 2.34549e-05
9.2445e-06 2.34549e-05 0.00144181
0.00112331 -0.000110502 2.83615e-07
-0.000110502 -0.000101035 -3.43462e-07
2.83615e-07 -3.43462e-07 0.000244754
0.000994706 2.87431e-05 -5.77856e-07
2.87431e-05 4.77442e-05 -2.19443e-06
-5.77856e-07 -2.19443e-06 -3.30393e-05
0.00112054 1.37771e-05 -7.57097e-08
1.37771e-05 9.68872e-05 -9.3108e-09
-7.57097e-08 -9.3108e-09 1.26485e-05
0.00105514 7.63668e-06 1.54465e-07
7.63668e-06 6.8318e-05 8.56254e-07
1.54465e-07 8.56254e-07 -1.46578e-05
0.00101072 -2.19022e-05 1.83177e-05
-2.19022e-05 0.000346785 -3.21323e-06
1.83177e-05 -3.21323e-06 0.000198388
0.00112492 -4.28662e-06 1.01105e-06
-4.28662e-06 0.000141862 3.90417e-06
1.01105e-06 3.90417e-06 8.94432e-05
0.00106407 1.92174e-05 9.14714e-08
1.92174e-05 6.72801e-05 2.12756e-06
9.14714e-08 2.12756e-06 -2.12075e-05
0.00100181 -3.89688e-06 -2.37964e-07
-3.89688e-06 2.95366e-05 2.68042e-06
-2.37964e-07 2.68042e-06 -6.66095e-05
0.00111098 9.42933e-07 3.42207e-07
9.42933e-07 9.88119e-05 -3.03845e-08
3.42207e-07 -3.03845e-08 2.85989e-06
0.000995906 -2.84497e-05 9.15874e-07
-2.84497e-05 0.000106374 1.08694e-06
9.15874e-07 1.08694e-06 -2.95356e-05
-3.26501e-05 1.69189e-05 -3.64182e-07
1.69189e-05 3.8021e-05 -1.60207e-06
-3.64182e-07 -1.60207e-06 -0.000163921
0.000617667 1.83832e-05 -3.43305e-06
1.83832e-05 -4.98214e-05 3.95053e-07
-3.43305e-06 3.95053e-07 -0.000194487
0.00112013 3.04352e-05 -3.53652e-06
3.04352e-05 0.000426248 1.01279e-05
-3.53652e-06 1.01279e-05 0.000271601
0.00214958 -8.90603e-06 -1.47229e-05
-8.90603e-06 0.000958213 -9.23665e-07
-1.47229e-05 -9.23665e-07 0.000871138
0.00102596 -4.75806e-06 -1.07507e-06
-4.75806e-06 0.000197005 -4.72998e-07
-1.07507e-06 -4.72998e-07 7.72514e-05
0.00073432 -4.44221e-06 9.19471e-07
-4.44221e-06 -7.27208e-06 -1.08563e-08
9.19471e-07 -1.08563e-08 -0.0001263
0.000172542 9.70694e-06 -1.31565e-06
9.70694e-06 0.000141896 1.66188e-05
-1.31565e-06 1.66188e-05 -2.7985e-05
0.000169653 2.52731e-05 3.16199e-05
2.52731e-05 -0.00032779 -4.85845e-05
3.16199e-05 -4.85845e-05 -0.000686914
0.00115059 -1.20173e-05 1.73912e-06
-1.20173e-05 0.000246155 1.11012e-06
1.73912e-06 1.11012e-06 0.000130954
0.00748418 0.000167443 3.15815e-05
0.000167443 0.00179636 -1.55106e-05
3.15815e-05 -1.55106e-05 0.000967982
0.00303206 0.00030504 -2.74348e-05
0.00030504 0.000660546 1.80281e-05
-2.74348e-05 1.80281e-05 0.000661657
0.00151302 -7.70414e-06 1.42326e-05
-7.70414e-06 0.00050535 -1.03082e-05
1.42326e-05 -1.03082e-05 0.000436013
-7.3442e-05 0.000125601 -1.03146e-05
0.000125601 -0.000681312 1.02043e-05
-1.03146e-05 1.02043e-05 -0.000411479
1.31525e-06 -2.00899e-05 -5.51351e-06
-2.00899e-05 8.61431e-05 3.26287e-07
-5.51351e-06 3.26287e-07 -0.000176141
0.00115087 -9.64437e-06 1.79672e-06
-9.64437e-06 0.000314852 -2.19461e-08
1.79672e-06 -2.19461e-08 0.000226225
-0.00111931 5.2195e-05 7.56429e-06
5.2195e-05 -0.00110079 -3.9598e-06
7.56429e-06 -3.9598e-06 -0.00102781
0.00188959 -9.95377e-05 7.7829e-06
-9.95377e-05 0.000433347 3.44808e-05
7.7829e-06 3.44808e-05 2.55962e-05
0.00310304 0.000261385 -8.07208e-07
0.000261385 0.0010204 -1.55183e-07
-8.07208e-07 -1.55183e-07 0.000977054
0.00570689 0.000119708 1.62482e-05
0.000119708 0.00137485 -1.22585e-05
1.62482e-05 -1.22585e-05 0.000350792
0.00142117 -5.17705e-05 8.32924e-06
-5.17705e-05 0.000283057 -2.67989e-06
8.32924e-06 -2.67989e-06 0.000214868
-0.00087124 6.75707e-06 -9.11111e-06
6.75707e-06 -0.000903427 2.71742e-07
-9.11111e-06 2.71742e-07 -0.000919762
0.00238053 0.000179317 4.18944e-05
0.000179317 0.000790025 -1.69781e-05
4.18944e-05 -1.69781e-05 0.000715906
0.00336834 0.000254735 -2.76838e-05
0.000254735 0.000625823 2.63811e-05
-2.76838e-05 2.63811e-05 -0.000159319
0.00131208 -6.36063e-05 5.54337e-06
-6.36063e-05 5.33373e-05 4.26688e-05
5.54337e-06 4.26688e-05 -0.000192104
0.000686472 -1.17839e-05 6.425e-07
-1.17839e-05 0.000131484 2.4262e-06
6.425e-07 2.4262e-06 -0.000150987
0.000937444 -7.85289e-05 3.00277e-09
-7.85289e-05 0.000203567 -6.5032e-07
3.00277e-09 -6.5032e-07 -7.91026e-05
0.00202303 -0.000138232 1.21964e-07
-0.000138232 0.000533412 4.51563e-06
1.21964e-07 4.51563e-06 0.000327329
0.000338729 -2.52551e-05 -1.10615e-06
-2.52551e-05 -0.000118289 2.07215e-06
-1.10615e-06 2.07215e-06 -0.000319742
0.000960118 -7.98398e-05 7.44113e-07
-7.98398e-05 8.9013e-05 3.81684e-08
7.44113e-07 3.81684e-08 -9.45569e-05
0.00133729 -0.000103707 -2.33396e-06
-0.000103707 0.000137011 1.11333e-06
-2.33396e-06 1.11333e-06 2.24204e-06
0.00132828 -7.08602e-05 -1.35829e-06
-7.08602e-05 0.000232176 -2.92803e-07
-1.35829e-06 -2.92803e-07 8.28816e-05
0.00120902 -7.85992e-05 -8.82717e-07
-7.85992e-05 0.000120724 -1.06769e-06
-8.82717e-07 -1.06769e-06 -1.33176e-05
0.00159918 -8.53507e-05 -1.17604e-06
-8.53507e-05 0.000240621 9.27832e-08
-1.17604e-06 9.27832e-08 0.000140602
0.00133277 -7.13623e-05 -1.71994e-07
-7.13623e-05 0.000184033 -1.56364e-06
-1.71994e-07 -1.56364e-06 6.62619e-05
0.00126854 -7.02092e-05 4.40463e-07
-7.02092e-05 0.000125735 -6.13144e-07
4.40463e-07 -6.13144e-07 1.76115e-05
0.0013728 -6.63958e-05 -1.31226e-06
-6.63958e-05 0.00012548 -7.96848e-07
-1.31226e-06 -7.96848e-07 3.79271e-05
0.00129662 -5.92014e-05 -1.20597e-06
-5.92014e-05 7.66941e-05 -2.74783e-07
-1.20597e-06 -2.74783e-07 -2.60562e-06
0.00116124 -5.94894e-05 -1.22192e-06
-5.94894e-05 6.53458e-05 1.12669e-06
-1.22192e-06 1.12669e-06 -2.38736e-05
0.00122669 -6.28308e-05 2.45959e-07
-6.28308e-05 8.26984e-05 -6.38944e-07
2.45959e-07 -6.38944e-07 -1.06959e-05
0.00123361 -5.73319e-05 -8.13334e-07
-5.73319e-05 0.000135068 1.93263e-06
-8.13334e-07 1.93263e-06 5.48063e-05
0.00122351 -6.09608e-05 -2.76928e-07
-6.09608e-05 0.000121158 3.64835e-07
-2.76928e-07 3.64835e-07 3.05851e-05
0.00124399 -6.57812e-05 7.5526e-07
-6.57812e-05 0.000125693 -1.71755e-06
7.5526e-07 -1.71755e-06 2.38475e-05
0.00103483 -4.67918e-05 -4.11798e-07
-4.67918e-05 5.78043e-05 -1.21106e-07
-4.11798e-07 -1.21106e-07 -1.23058e-05
0.00091867 -4.83125e-05 -1.56277e-07
-4.83125e-05 -2.39044e-06 -6.10844e-07
-1.56277e-07 -6.10844e-07 -7.68248e-05
0.00114206 -5.56767e-05 1.89461e-06
-5.56767e-05 0.000103594 -2.18923e-06
1.89461e-06 -2.18923e-06 2.17522e-05
0.00097827 -1.28813e-05 -6.80268e-07
-1.28813e-05 3.97692e-05 9.12884e-07
-6.80268e-07 9.12884e-07 -2.41312e-05
0.00104101 -4.13287e-05 1.70979e-07
-4.13287e-05 6.91839e-05 2.55051e-07
1.70979e-07 2.55051e-07 -2.45653e-06
0.00107647 -4.94873e-05 5.27217e-07
-4.94873e-05 8.43331e-05 1.98994e-08
5.27217e-07 1.98994e-08 9.52987e-06
0.000895842 2.10904e-05 -2.18159e-06
2.10904e-05 -5.17301e-06 2.03449e-06
-2.18159e-06 2.03449e-06 -4.88075e-05
0.000998544 -2.63602e-06 -8.9559e-08
-2.63602e-06 4.65567e-05 -1.22797e-08
-8.9559e-08 -1.22797e-08 -1.57002e-05
0.000989579 -3.42884e-05 1.26277e-07
-3.42884e-05 4.94476e-05 -2.82973e-07
1.26277e-07 -2.82973e-07 -2.13351e-05
0.00153486 2.38163e-05 -9.27873e-06
2.38163e-05 0.000313004 3.33386e-06
-9.27873e-06 3.33386e-06 0.000306069
0.000928413 6.15884e-06 5.40137e-08
6.15884e-06 4.24499e-06 7.06249e-11
5.40137e-08 7.06249e-11 -3.68157e-05
0.0010266 -1.11616e-05 1.02619e-06
-1.11616e-05 5.24369e-05 -9.72433e-07
1.02619e-06 -9.72433e-07 -7.89014e-06
0.00110882 1.90531e-05 -1.36736e-05
1.90531e-05 9.5011e-05 3.98619e-06
-1.36736e-05 3.98619e-06 0.000105437
0.00121045 2.02522e-05 -3.21859e-06
2.02522e-05 0.000145005 5.6484e-07
-3.21859e-06 5.6484e-07 0.000137681
0.000928455 1.06714e-05 1.85733e-06
1.06714e-05 2.13786e-06 -2.1185e-06
1.85733e-06 -2.1185e-06 -3.73043e-05
0.000875356 1.68603e-05 2.67812e-06
1.68603e-05 -2.82441e-05 -3.49391e-06
2.67812e-06 -3.49391e-06 -3.54932e-05
0.00244534 2.56008e-05 4.75767e-07
2.56008e-05 0.000765196 4.7905e-08
4.75767e-07 4.7905e-08 0.00078345
0.00239468 2.20945e-05 1.38917e-05
2.20945e-05 0.000735272 -4.02053e-06
1.38917e-05 -4.02053e-06 0.000754699
0.0010175 3.24348e-05 -1.15288e-06
3.24348e-05 4.80514e-05 -1.09461e-06
-1.15288e-06 -1.09461e-06 -2.62036e-05
0.00101585 5.27245e-06 -8.27134e-07
5.27245e-06 4.28043e-05 -1.70391e-06
-8.27134e-07 -1.70391e-06 -1.80735e-05
0.00104226 2.79908e-05 -1.22417e-07
2.79908e-05 5.92482e-05 6.51138e-08
-1.22417e-07 6.51138e-08 -1.32637e-05
0.000922648 -1.46126e-05 -1.22437e-06
-1.46126e-05 -4.61055e-06 -2.38039e-06
-1.22437e-06 -2.38039e-06 -4.12439e-05
0.00100824 6.63827e-06 7.5035e-08
6.63827e-06 3.75315e-05 -5.03002e-08
7.5035e-08 -5.03002e-08 -1.99545e-05
0.000888904 -1.50389e-05 -2.13485e-06
-1.50389e-05 -2.68974e-05 -3.46052e-06
-2.13485e-06 -3.46052e-06 -3.2315e-05
0.000937787 -1.14556e-05 -2.24506e-07
-1.14556e-05 4.80811e-07 -8.25029e-09
-2.24506e-07 -8.25029e-09 -3.36753e-05
0.00100724 1.17172e-05 5.76577e-07
1.17172e-05 3.83373e-05 1.59033e-06
5.76577e-07 1.59033e-06 -1.61991e-05
0.00235419 -1.86496e-05 -1.19347e-05
-1.86496e-05 0.000709414 -4.08339e-06
-1.19347e-05 -4.08339e-06 0.000730113
0.000882206 -1.30367e-05 -1.30134e-07
-1.30367e-05 -3.40642e-05 -1.16625e-08
-1.30134e-07 -1.16625e-08 -3.76229e-05
0.000953497 -9.92542e-06 7.11387e-07
-9.92542e-06 6.3445e-06 2.01144e-06
7.11387e-07 2.01144e-06 -2.559e-05
0.00230167 -1.49559e-05 -7.33591e-07
-1.49559e-05 0.000678375 3.35179e-08
-7.33591e-07 3.35179e-08 0.000700427
0.000875532 -1.06977e-05 1.10566e-06
-1.06977e-05 -4.11879e-05 3.35218e-06
1.10566e-06 3.35218e-06 -4.27755e-05
0.0022537 -1.10151e-05 6.95068e-06
-1.10151e-05 0.000650402 3.99665e-06
6.95068e-06 3.99665e-06 0.000673649
0.000493514 -2.60131e-06 -1.24959e-05
-2.60131e-06 -5.86833e-05 -5.52503e-06
-1.24959e-05 -5.52503e-06 -0.000155992
0.000861617 7.02379e-06 1.22116e-06
7.02379e-06 6.7293e-05 1.7497e-07
1.22116e-06 1.7497e-07 -4.27579e-05
0.000566799 1.69365e-07 -8.07941e-08
1.69365e-07 -0.00014984 -4.53779e-07
-8.07941e-08 -4.53779e-07 -0.000248391
0.00105443 4.342e-05 -9.42163e-07
4.342e-05 6.63292e-05 -7.84631e-08
-9.42163e-07 -7.84631e-08 -1.12325e-05
0.0010478 2.25888e-05 3.47019e-07
2.25888e-05 6.15348e-05 1.25772e-06
3.47019e-07 1.25772e-06 -8.74607e-06
0.00102261 3.37784e-05 6.56717e-07
3.37784e-05 5.03219e-05 1.31165e-06
6.56717e-07 1.31165e-06 -2.87137e-05
0.00107175 2.97981e-05 -1.42021e-08
2.97981e-05 7.52451e-05 -2.53013e-07
-1.42021e-08 -2.53013e-07 -2.50106e-06
0.00109511 4.32563e-05 -2.32028e-07
4.32563e-05 8.91413e-05 -5.76982e-08
-2.32028e-07 -5.76982e-08 9.80302e-06
0.0010729 4.33231e-05 2.53528e-07
4.33231e-05 7.8822e-05 2.9656e-07
2.53528e-07 2.9656e-07 -3.63877e-06
0.00107333 4.74767e-05 -1.28754e-06
4.74767e-05 7.82992e-05 -1.16525e-06
-1.28754e-06 -1.16525e-06 -5.14343e-06
0.000981145 4.14165e-05 -6.8099e-07
4.14165e-05 3.56004e-05 -1.20208e-06
-6.8099e-07 -1.20208e-06 -4.85823e-05
0.00105811 4.21611e-05 5.56226e-07
4.21611e-05 7.13432e-05 8.77325e-07
5.56226e-07 8.77325e-07 -6.17437e-06
0.00104143 1.23535e-05 3.84906e-07
1.23535e-05 5.94665e-05 1.25405e-06
3.84906e-07 1.25405e-06 -2.06847e-05
0.00110042 3.54064e-05 -9.18704e-08
3.54064e-05 9.46698e-05 -4.901e-09
-9.18704e-08 -4.901e-09 1.12846e-05
0.00149747 4.15847e-05 6.38484e-07
4.15847e-05 0.000285909 -1.61883e-06
6.38484e-07 -1.61883e-06 0.000199574
0.00244741 -5.51527e-05 -8.25928e-07
-5.51527e-05 0.00100494 -1.92487e-07
-8.25928e-07 -1.92487e-07 0.00110183
0.0006697 3.75199e-06 -1.60808e-07
3.75199e-06 2.70682e-05 -4.11072e-07
-1.60808e-07 -4.11072e-07 -4.21525e-05
0.00109573 2.9964e-05 1.17737e-06
2.9964e-05 0.000210953 1.65107e-06
1.17737e-06 1.65107e-06 0.000128185
0.00182435 -5.40408e-05 8.69221e-06
-5.40408e-05 0.000344766 5.48074e-06
8.69221e-06 5.48074e-06 0.000571493
0.00280514 -0.000184744 4.16608e-06
-0.000184744 4.2681e-05 -9.2933e-05
4.16608e-06 -9.2933e-05 9.77336e-05
0.00335965 3.99948e-05 -1.26719e-05
3.99948e-05 -0.000368329 0.000104843
-1.26719e-05 0.000104843 -0.000695801
0.000488046 -0.000165694 -5.94341e-05
-0.000165694 -9.27204e-05 5.90712e-05
-5.94341e-05 5.90712e-05 -0.000314113
0.00173749 -4.26221e-05 -8.79672e-06
-4.26221e-05 0.000622599 -4.79724e-07
-8.79672e-06 -4.79724e-07 0.000391056
0.000540868 -0.000107973 2.11969e-06
-0.000107973 -0.000340795 2.12419e-07
2.11969e-06 2.12419e-07 -5.59657e-05
0.00545341 -8.77034e-05 1.1173e-05
-8.77034e-05 0.000731967 5.34899e-05
1.1173e-05 5.34899e-05 3.96013e-06
-0.000564384 -0.000159152 -6.41219e-06
-0.000159152 -0.000802775 -1.35711e-05
-6.41219e-06 -1.35711e-05 -0.000670562
0.00194139 0.000107219 -5.5707e-05
0.000107219 0.000573895 -4.76622e-05
-5.5707e-05 -4.76622e-05 0.000342865
0.00632156 -0.000206824 5.57808e-06
-0.000206824 0.00172558 3.4165e-05
5.57808e-06 3.4165e-05 0.00103695
0.000158704 -0.000138222 3.81092e-05
-0.000138222 -4.32904e-05 2.1471e-05
3.81092e-05 2.1471e-05 3.29888e-05
0.000916848 6.05882e-05 -2.97952e-06
6.05882e-05 3.16722e-05 -4.65482e-06
-2.97952e-06 -4.65482e-06 -4.57963e-05
0.00118155 3.32052e-05 1.95082e-06
3.32052e-05 0.000132333 2.13967e-07
1.95082e-06 2.13967e-07 5.21329e-05
0.00112303 2.3571e-05 -1.71706e-07
2.3571e-05 0.000103426 1.28238e-06
-1.71706e-07 1.28238e-06 1.80671e-05
-0.000918075 9.7608e-06 -9.75248e-07
9.7608e-06 -0.000402942 -8.13489e-06
-9.75248e-07 -8.13489e-06 -0.000614588
0.000562102 -1.8187e-05 1.64057e-07
-1.8187e-05 -8.99894e-05 3.98084e-06
1.64057e-07 3.98084e-06 -0.000236897
0.000983006 9.16267e-06 2.45765e-06
9.16267e-06 4.06519e-05 3.41063e-06
2.45765e-06 3.41063e-06 -5.53092e-05
0.00110584 3.35314e-05 -5.59227e-08
3.35314e-05 0.000177649 1.72692e-07
-5.59227e-08 1.72692e-07 3.62645e-05
0.000733175 1.53586e-05 2.76238e-06
1.53586e-05 0.000246264 2.37756e-06
2.76238e-06 2.37756e-06 9.17352e-05
-0.00112146 5.69225e-05 -6.38676e-06
5.69225e-05 -0.000756536 1.77698e-05
-6.38676e-06 1.77698e-05 -0.000906705
0.00264091 -1.3197e-05 -1.30701e-05
-1.3197e-05 0.00116895 -2.27235e-07
-1.30701e-05 -2.27235e-07 0.00119212
0.000909282 -6.90902e-06 -1.25406e-06
-6.90902e-06 0.000195788 -7.14003e-07
-1.25406e-06 -7.14003e-07 9.70168e-05
0.000584992 -4.93231e-06 2.03647e-06
-4.93231e-06 -7.71727e-05 1.39994e-07
2.03647e-06 1.39994e-07 -0.000198581
0.000188522 -2.74606e-05 6.73948e-06
-2.74606e-05 0.000177561 1.76217e-05
6.73948e-06 1.76217e-05 -8.23343e-05
0.00140116 -8.81947e-05 -2.47972e-06
-8.81947e-05 0.000269964 -4.29165e-05
-2.47972e-06 -4.29165e-05 -3.02061e-05
0.00103613 -1.00149e-05 1.62033e-05
-1.00149e-05 0.000238975 -1.24057e-07
1.62033e-05 -1.24057e-07 0.000151584
0.00112695 0.000146546 -3.78657e-05
0.000146546 -0.00036844 3.34942e-05
-3.78657e-05 3.34942e-05 -0.00127312
-0.000787567 0.000176279 -5.28742e-05
0.000176279 -0.000626065 2.90736e-05
-5.28742e-05 2.90736e-05 -0.000632072
0.0010597 6.58735e-05 4.31377e-06
6.58735e-05 0.00013599 -2.97905e-06
4.31377e-06 -2.97905e-06 0.0002519
0.00154983 -6.36331e-05 3.42532e-06
-6.36331e-05 0.000387247 1.5436e-06
3.42532e-06 1.5436e-06 0.000284854
0.00113197 1.41213e-05 -2.25714e-06
1.41213e-05 0.00023118 1.33135e-07
-2.25714e-06 1.33135e-07 0.000242249
-0.00161809 9.87649e-05 -8.54591e-06
9.87649e-05 -0.000904226 3.16797e-06
-8.54591e-06 3.16797e-06 -0.000913693
0.00309064 -0.000123472 -1.41208e-05
-0.000123472 0.000701037 2.43453e-05
-1.41208e-05 2.43453e-05 0.000223228
0.00480025 0.000232897 -5.53664e-06
0.000232897 0.00123866 4.84259e-06
-5.53664e-06 4.84259e-06 0.000505285
0.00130279 -8.9484e-05 8.89132e-06
-8.9484e-05 -0.00011013 4.26914e-06
8.89132e-06 4.26914e-06 -4.78284e-05
-0.00250417 4.15369e-05 5.76243e-05
4.15369e-05 -0.00161118 -1.41627e-05
5.76243e-05 -1.41627e-05 -0.00161792
0.00443462 0.000220616 1.74729e-05
0.000220616 0.00125735 -8.01036e-06
1.74729e-05 -8.01036e-06 0.000664974
0.00223193 1.39772e-05 -8.74667e-06
1.39772e-05 0.000360914 2.98208e-05
-8.74667e-06 2.98208e-05 -2.75792e-05
0.000617376 -7.02407e-05 -1.36808e-06
-7.02407e-05 7.63666e-05 -1.803e-06
-1.36808e-06 -1.803e-06 -0.000235513
0.00107611 -0.000117201 -5.53076e-08
-0.000117201 9.94115e-05 9.8437e-07
-5.53076e-08 9.8437e-07 -0.000114101
0.00150732 -0.000146455 -5.06847e-06
-0.000146455 0.000124682 4.53009e-06
-5.06847e-06 4.53009e-06 -4.06695e-06
0.000661347 -7.24513e-05 -1.45097e-06
-7.24513e-05 -4.81765e-05 -2.08551e-06
-1.45097e-06 -2.08551e-06 -0.000235103
0.00124477 -0.000101534 -1.76415e-06
-0.000101534 8.68987e-05 -1.68223e-06
-1.76415e-06 -1.68223e-06 -4.62327e-05
0.00195493 -0.000102608 -4.97273e-06
-0.000102608 0.00031065 -8.94223e-08
-4.97273e-06 -8.94223e-08 0.000235471
0.00108245 -7.4898e-05 -2.35465e-07
-7.4898e-05 5.64363e-05 -2.85286e-06
-2.35465e-07 -2.85286e-06 -7.33564e-05
0.0013003 -7.81502e-05 1.0102e-06
-7.81502e-05 9.51495e-05 -6.54762e-07
1.0102e-06 -6.54762e-07 -3.13849e-06
0.00157225 -6.89873e-05 -1.50641e-06
-6.89873e-05 0.00015896 -1.15111e-06
-1.50641e-06 -1.15111e-06 9.53687e-05
0.00108924 -6.56053e-05 1.03102e-06
-6.56053e-05 3.41673e-05 -1.27434e-06
1.03102e-06 -1.27434e-06 -7.24027e-05
0.00124467 -6.31704e-05 -1.03094e-07
-6.31704e-05 5.79167e-05 -4.67112e-07
-1.03094e-07 -4.67112e-07 -2.82653e-05
0.001369 -5.62755e-05 -1.03877e-06
-5.62755e-05 6.90769e-05 -1.06116e-06
-1.03877e-06 -1.06116e-06 7.21447e-06
0.00135927 -5.28621e-05 -1.21613e-06
-5.28621e-05 8.2435e-05 -5.27758e-07
-1.21613e-06 -5.27758e-07 1.9819e-05
0.00130067 -5.88704e-05 -1.49008e-06
-5.88704e-05 9.65933e-05 1.82028e-07
-1.49008e-06 1.82028e-07 1.68334e-05
0.00127521 -5.74236e-05 4.25368e-07
-5.74236e-05 6.60476e-05 2.9506e-07
4.25368e-07 2.9506e-07 -1.1875e-05
0.00090997 -5.11287e-05 -1.23155e-06
-5.11287e-05 -4.58183e-05 1.45217e-06
-1.23155e-06 1.45217e-06 -0.000127611
0.00124858 -6.08126e-05 6.69343e-07
-6.08126e-05 0.000108402 -5.30489e-07
6.69343e-07 -5.30489e-07 2.02485e-05
0.00114144 -6.04751e-05 1.42688e-06
-6.04751e-05 3.84397e-05 -1.28626e-06
1.42688e-06 -1.28626e-06 -5.39249e-05
0.00106677 -5.02663e-05 -3.44081e-07
-5.02663e-05 6.64256e-05 9.8646e-07
-3.44081e-07 9.8646e-07 -5.5469e-06
0.00104386 -5.32061e-05 2.19365e-07
-5.32061e-05 4.51007e-05 -1.34384e-07
2.19365e-07 -1.34384e-07 -3.53402e-05
0.000974708 -5.59426e-05 8.13466e-07
-5.59426e-05 1.12207e-06 -1.90904e-06
8.13466e-07 -1.90904e-06 -9.10639e-05
0.00100885 -2.88155e-05 -1.1661e-06
-2.88155e-05 5.17831e-05 4.16625e-07
-1.1661e-06 4.16625e-07 -1.20999e-05
0.00106923 -4.70895e-05 -1.67463e-07
-4.70895e-05 7.38478e-05 -2.40324e-07
-1.67463e-07 -2.40324e-07 3.70089e-06
0.00101145 -5.01586e-05 7.65256e-08
-5.01586e-05 4.39226e-05 -1.31961e-06
7.65256e-08 -1.31961e-06 -2.96937e-05
0.000920416 5.58461e-06 -2.35599e-06
5.58461e-06 1.48202e-05 1.97308e-06
-2.35599e-06 1.97308e-06 -3.17898e-05
0.00100459 -1.42704e-05 2.72377e-07
-1.42704e-05 5.1751e-05 1.85086e-07
2.72377e-07 1.85086e-07 -1.20089e-05
0.000967694 -3.86559e-05 6.62462e-07
-3.86559e-05 3.41613e-05 8.0701e-08
6.62462e-07 8.0701e-08 -3.73322e-05
0.00081593 2.27832e-05 -4.00466e-06
2.27832e-05 -4.32874e-05 3.41483e-06
-4.00466e-06 3.41483e-06 -5.52617e-05
0.000922773 7.20142e-06 -1.1035e-07
7.20142e-06 7.2466e-06 -3.08043e-08
-1.1035e-07 -3.08043e-08 -3.60189e-05
0.00103657 -4.63655e-06 7.70442e-07
-4.63655e-06 6.47272e-05 -1.07362e-06
7.70442e-07 -1.07362e-06 2.44395e-06
0.00248073 3.5461e-05 -6.93635e-06
3.5461e-05 0.00079415 1.60746e-06
-6.93635e-06 1.60746e-06 0.000809675
0.000829261 2.04712e-05 1.31345e-07
2.04712e-05 -4.2496e-05 4.47198e-08
1.31345e-07 4.47198e-08 -5.30468e-05
0.000937718 8.47697e-06 2.37469e-06
8.47697e-06 8.88029e-06 -2.04359e-06
2.37469e-06 -2.04359e-06 -3.22307e-05
0.00250718 2.90457e-05 3.68978e-07
2.90457e-05 0.00080088 5.22778e-08
3.68978e-07 5.22778e-08 0.000817839
0.000858799 1.8758e-05 3.27809e-06
1.8758e-05 -3.20542e-05 -3.50848e-06
3.27809e-06 -3.50848e-06 -4.11899e-05
0.00244599 2.55537e-05 1.56582e-05
2.55537e-05 0.000766024 -4.03639e-06
1.56582e-05 -4.03639e-06 0.00078413
0.00111784 3.753e-05 -7.46558e-07
3.753e-05 9.80832e-05 -1.47701e-07
-7.46558e-07 -1.47701e-07 2.49415e-05
0.00104488 3.28365e-05 -1.95292e-07
3.28365e-05 6.24596e-05 -1.32254e-07
-1.95292e-07 -1.32254e-07 -1.17667e-05
0.00102254 2.4584e-06 -1.08023e-06
2.4584e-06 4.85692e-05 -1.45954e-06
-1.08023e-06 -1.45954e-06 -1.50899e-05
0.000922678 -9.72102e-06 -1.76827e-06
-9.72102e-06 -1.73692e-06 -2.50589e-06
-1.76827e-06 -2.50589e-06 -4.12574e-05
0.00101267 4.70906e-06 -4.25427e-08
4.70906e-06 4.16063e-05 1.59026e-08
-4.25427e-08 1.59026e-08 -1.93366e-05
0.00102119 2.91825e-05 6.58344e-07
2.91825e-05 4.89064e-05 1.29909e-06
6.58344e-07 1.29909e-06 -2.42683e-05
0.000877522 -1.68461e-05 -2.64111e-06
-1.68461e-05 -2.85966e-05 -3.55175e-06
-2.64111e-06 -3.55175e-06 -3.57278e-05
0.00093 -1.09879e-05 -1.25148e-07
-1.09879e-05 -1.54051e-06 -2.98177e-08
-1.25148e-07 -2.98177e-08 -3.79607e-05
0.00100593 4.56577e-06 5.47252e-07
4.56577e-06 3.64805e-05 1.71714e-06
5.47252e-07 1.71714e-06 -2.09093e-05
0.00239879 -2.21407e-05 -1.3858e-05
-2.21407e-05 0.000736388 -4.07087e-06
-1.3858e-05 -4.07087e-06 0.000755886
0.000872616 -1.49493e-05 -1.22048e-07
-1.49493e-05 -3.48903e-05 -1.13378e-08
-1.22048e-07 -1.13378e-08 -4.02228e-05
0.000941526 -1.12194e-05 8.38571e-07
-1.12194e-05 2.13048e-06 2.11327e-06
8.38571e-07 2.11327e-06 -3.19054e-05
0.00235423 -1.86614e-05 -6.98138e-07
-1.86614e-05 0.000708914 4.17589e-08
-6.98138e-07 4.17589e-08 0.000729759
0.000864266 -1.2963e-05 1.41881e-06
-1.2963e-05 -4.29027e-05 3.42581e-06
1.41881e-06 3.42581e-06 -4.63681e-05
0.00229939 -1.48688e-05 8.97246e-06
-1.48688e-05 0.000676757 4.00704e-06
8.97246e-06 4.00704e-06 0.000698969
0.00041619 -1.67893e-05 -2.90278e-06
-1.67893e-05 -9.06028e-05 -4.28014e-07
-2.90278e-06 -4.28014e-07 -8.01173e-05
0.000582687 4.26445e-07 -1.42378e-06
4.26445e-07 1.62488e-07 -1.70682e-06
-1.42378e-06 -1.70682e-06 -9.69348e-05
0.0008276 5.37874e-06 1.82013e-06
5.37874e-06 4.51327e-05 -1.70549e-07
1.82013e-06 -1.70549e-07 -6.46504e-05
0.00104695 4.322e-05 1.23207e-07
4.322e-05 6.24001e-05 1.07465e-07
1.23207e-07 1.07465e-07 -1.5504e-05
0.00120134 4.88945e-05 -9.69768e-07
4.88945e-05 0.000143862 1.0646e-07
-9.69768e-07 1.0646e-07 6.85913e-05
0.00107601 4.87769e-05 -9.76506e-07
4.87769e-05 7.402e-05 -3.13502e-07
-9.76506e-07 -3.13502e-07 -5.91614e-06
0.00115981 2.95288e-05 1.0656e-07
2.95288e-05 0.000119924 6.49155e-07
1.0656e-07 6.49155e-07 4.28149e-05
0.00117048 4.62278e-05 7.03416e-07
4.62278e-05 0.000127001 7.33071e-07
7.03416e-07 7.33071e-07 4.78686e-05
0.00101721 4.16296e-05 8.1774e-07
4.16296e-05 4.99777e-05 1.37864e-06
8.1774e-07 1.37864e-06 -3.21451e-05
0.00104278 4.02339e-05 -4.03363e-08
4.02339e-05 6.53395e-05 3.18664e-08
-4.03363e-08 3.18664e-08 -1.84089e-05
0.001102 4.81348e-05 8.73106e-08
4.81348e-05 9.21151e-05 9.35076e-08
8.73106e-08 9.35076e-08 8.94265e-06
0.00108781 4.72589e-05 -1.6828e-06
4.72589e-05 9.5602e-05 -1.33794e-06
-1.6828e-06 -1.33794e-06 8.22889e-06
0.000943369 4.06853e-05 -2.08239e-06
4.06853e-05 1.84426e-05 -2.76772e-06
-2.08239e-06 -2.76772e-06 -6.83121e-05
0.00110307 3.93421e-05 2.95775e-07
3.93421e-05 9.68251e-05 7.19029e-07
2.95775e-07 7.19029e-07 1.31617e-05
0.00125861 4.24447e-05 1.55456e-07
4.24447e-05 0.000173708 -1.69089e-07
1.55456e-07 -1.69089e-07 8.71684e-05
-0.00259791 -8.01423e-05 4.93738e-05
-8.01423e-05 -0.00146646 1.99082e-05
4.93738e-05 1.99082e-05 -0.00150326
0.00121721 -5.46378e-05 -5.59533e-07
-5.46378e-05 0.000296433 -1.82121e-06
-5.59533e-07 -1.82121e-06 0.000383807
0.000618238 8.66487e-06 1.52049e-05
8.66487e-06 -4.03023e-06 6.59102e-06
1.52049e-05 6.59102e-06 -7.23337e-05
-1.29389e-06 -0.000104359 8.23763e-07
-0.000104359 -0.000559032 -5.60456e-06
8.23763e-07 -5.60456e-06 -0.000336838
0.0035371 -0.000247314 -1.20199e-05
-0.000247314 0.000846438 -5.62676e-05
-1.20199e-05 -5.62676e-05 0.000983056
0.00425874 -7.16701e-05 3.56802e-05
-7.16701e-05 0.000513585 3.03209e-05
3.56802e-05 3.03209e-05 1.73737e-06
7.52864e-05 -2.19896e-05 -1.87313e-05
-2.19896e-05 -0.000248052 6.19037e-05
-1.87313e-05 6.19037e-05 -0.000784389
0.00156197 0.000105325 -3.11906e-05
0.000105325 0.000185579 -3.27769e-05
-3.11906e-05 -3.27769e-05 -0.00025888
0.00219974 -0.000208241 -8.11069e-07
-0.000208241 0.000507266 -2.76774e-06
-8.11069e-07 -2.76774e-06 0.000531555
0.00355426 -9.23078e-05 3.31822e-05
-9.23078e-05 0.00036643 4.51436e-05
3.31822e-05 4.51436e-05 -0.000334852
0.0012557 0.000119792 -6.72019e-05
0.000119792 -0.000128515 -8.28187e-05
-6.72019e-05 -8.28187e-05 -0.000519529
0.00279022 -2.34478e-05 -1.83326e-05
-2.34478e-05 0.000296306 -6.68404e-06
-1.83326e-05 -6.68404e-06 -0.000389254
0.00183219 0.000108435 4.90755e-06
0.000108435 0.000500226 -8.02235e-06
4.90755e-06 -8.02235e-06 0.000359946
0.000923809 5.81558e-05 -2.12621e-07
5.81558e-05 2.38062e-05 -6.11822e-07
-2.12621e-07 -6.11822e-07 -5.10073e-05
0.00133233 3.71079e-05 1.50444e-06
3.71079e-05 0.000199398 1.99873e-06
1.50444e-06 1.99873e-06 0.000119634
-0.000141024 -9.60486e-06 -8.03434e-06
-9.60486e-06 -0.000146768 -2.33165e-06
-8.03434e-06 -2.33165e-06 -0.000306861
0.00154192 4.67448e-05 3.47745e-06
4.67448e-05 0.000379998 -3.59633e-07
3.47745e-06 -3.59633e-07 0.00024057
0.00100308 9.77273e-05 5.15665e-06
9.77273e-05 0.000198236 1.6909e-06
5.15665e-06 1.6909e-06 7.37466e-05
0.000298508 9.94459e-05 1.7212e-05
9.94459e-05 -0.000263536 1.86086e-05
1.7212e-05 1.86086e-05 -0.000369351
-0.000546902 -1.16688e-05 7.69994e-05
-1.16688e-05 -0.000587783 -4.25829e-06
7.69994e-05 -4.25829e-06 -0.000554235
0.000755954 -1.01104e-05 -1.26426e-05
-1.01104e-05 6.5245e-05 1.46077e-08
-1.26426e-05 1.46077e-08 6.60527e-05
-0.000426756 -5.03194e-06 1.64621e-05
-5.03194e-06 -0.00062635 -6.92523e-07
1.64621e-05 -6.92523e-07 -0.000736869
0.00169788 -6.0068e-05 -2.2031e-05
-6.0068e-05 0.000536346 2.69506e-06
-2.2031e-05 2.69506e-06 0.000365056
0.00100376 -8.69808e-05 -3.73147e-05
-8.69808e-05 3.00466e-05 -1.23171e-06
-3.73147e-05 -1.23171e-06 -0.000283107
0.00117491 5.19302e-06 2.59487e-06
5.19302e-06 0.000256547 -3.40595e-06
2.59487e-06 -3.40595e-06 0.000260928
0.00219995 0.000202111 1.61272e-05
0.000202111 0.000155939 -3.40843e-05
1.61272e-05 -3.40843e-05 -0.000651121
0.00384933 0.00014044 -9.34202e-05
0.00014044 0.00164085 2.20605e-05
-9.34202e-05 2.20605e-05 0.00154688
0.00148715 -9.80111e-05 7.0679e-06
-9.80111e-05 7.44319e-05 -1.73166e-06
7.0679e-06 -1.73166e-06 7.16363e-05
-0.000113304 6.51629e-05 -3.0504e-05
6.51629e-05 -0.000352193 3.93733e-06
-3.0504e-05 3.93733e-06 -0.000421259
0.00309292 0.000129193 -9.35669e-06
0.000129193 0.000647253 5.05512e-06
-9.35669e-06 5.05512e-06 -0.000104061
0.00072628 3.14566e-05 -2.24065e-07
3.14566e-05 -0.000134429 3.20278e-06
-2.24065e-07 3.20278e-06 -0.000301852
0.000868158 -7.28333e-05 6.02769e-06
-7.28333e-05 -0.000388295 4.55506e-06
6.02769e-06 4.55506e-06 -0.000320451
0.00443022 9.31691e-05 1.68083e-05
9.31691e-05 0.00125289 8.70503e-06
1.68083e-05 8.70503e-06 0.000630875
0.000989377 6.66909e-05 -1.61811e-06
6.66909e-05 0.000236089 -6.37108e-07
-1.61811e-06 -6.37108e-07 -4.31833e-05
-0.000108518 -9.34628e-05 1.13374e-06
-9.34628e-05 -0.000444322 -8.39934e-06
1.13374e-06 -8.39934e-06 -0.000669968
0.0014192 -0.000142055 -2.60514e-09
-0.000142055 9.8899e-05 -4.12442e-07
-2.60514e-09 -4.12442e-07 -3.33854e-05
0.00142541 -0.000127378 -1.77627e-05
-0.000127378 -8.60947e-05 7.87009e-06
-1.77627e-05 7.87009e-06 -0.000143774
0.00117302 -9.9588e-05 -8.09203e-07
-9.9588e-05 4.56512e-05 -4.09951e-06
-8.09203e-07 -4.09951e-06 -8.51831e-05
0.00141488 -9.32527e-05 -4.9186e-07
-9.32527e-05 4.71378e-05 5.42847e-07
-4.9186e-07 5.42847e-07 -2.56735e-05
0.00183266 -7.31754e-05 -4.42504e-06
-7.31754e-05 0.000184733 3.10223e-06
-4.42504e-06 3.10223e-06 0.000159115
0.000965371 -7.01006e-05 2.44319e-06
-7.01006e-05 -6.79477e-05 -7.24665e-07
2.44319e-06 -7.24665e-07 -0.00016449
0.00134861 -6.51528e-05 -2.28402e-07
-6.51528e-05 4.34376e-05 -9.56768e-08
-2.28402e-07 -9.56768e-08 -1.86352e-05
0.00149704 -5.4182e-05 -8.1379e-07
-5.4182e-05 6.23996e-05 5.23606e-07
-8.1379e-07 5.23606e-07 2.68613e-05
0.00109553 -5.96846e-05 1.58225e-06
-5.96846e-05 -1.97182e-05 -3.56221e-07
1.58225e-06 -3.56221e-07 -0.000104505
0.00129513 -5.49184e-05 1.46807e-07
-5.49184e-05 3.11324e-05 2.55525e-07
1.46807e-07 2.55525e-07 -3.03172e-05
0.00130029 -4.81353e-05 -6.01815e-07
-4.81353e-05 1.17131e-05 3.29064e-07
-6.01815e-07 3.29064e-07 -3.51107e-05
0.00152129 -4.83748e-05 -7.20369e-07
-4.83748e-05 0.000149287 3.20905e-07
-7.20369e-07 3.20905e-07 9.54611e-05
0.00134169 -5.14853e-05 -5.43489e-07
-5.14853e-05 7.32989e-05 1.11061e-06
-5.43489e-07 1.11061e-06 1.22962e-05
0.00130878 -5.21815e-05 -7.6776e-07
-5.21815e-05 7.6261e-05 -1.18966e-06
-7.6776e-07 -1.18966e-06 9.80625e-06
0.00126913 -5.55079e-05 -1.38389e-06
-5.55079e-05 9.41121e-05 5.76383e-07
-1.38389e-06 5.76383e-07 1.75538e-05
0.00133496 -5.90598e-05 5.60905e-07
-5.90598e-05 0.000114651 -1.44805e-07
5.60905e-07 -1.44805e-07 3.4941e-05
0.00123985 -5.55131e-05 1.88776e-06
-5.55131e-05 4.84459e-05 8.48283e-07
1.88776e-06 8.48283e-07 -2.80615e-05
0.000909525 -4.81671e-05 -1.39445e-06
-4.81671e-05 -3.35709e-05 1.77487e-06
-1.39445e-06 1.77487e-06 -0.000108425
0.00111086 -5.49338e-05 1.00902e-07
-5.49338e-05 5.38728e-05 -7.13633e-08
1.00902e-07 -7.13633e-08 -2.71762e-05
0.00132208 -6.18336e-05 2.04526e-06
-6.18336e-05 0.000144597 -1.96895e-06
2.04526e-06 -1.96895e-06 5.75439e-05
0.00101258 -3.54815e-05 -8.95246e-07
-3.54815e-05 4.86781e-05 6.44559e-07
-8.95246e-07 6.44559e-07 -1.60692e-05
0.00109187 -5.03729e-05 6.95972e-08
-5.03729e-05 7.78661e-05 -1.10429e-07
6.95972e-08 -1.10429e-07 5.83101e-06
0.000876096 -4.9582e-05 5.22314e-07
-4.9582e-05 -3.45363e-05 -2.11948e-06
5.22314e-07 -2.11948e-06 -0.000115142
0.00091473 1.62861e-06 -2.5034e-06
1.62861e-06 1.73024e-05 1.78201e-06
-2.5034e-06 1.78201e-06 -3.23426e-05
0.00102856 -2.98898e-05 -7.20314e-08
-2.98898e-05 6.04299e-05 1.66917e-08
-7.20314e-08 1.66917e-08 -3.34689e-06
0.00109985 -4.72501e-05 4.73247e-07
-4.72501e-05 8.80713e-05 -5.88545e-07
4.73247e-07 -5.88545e-07 1.78929e-05
0.000789048 2.55394e-05 -4.1495e-06
2.55394e-05 -4.73333e-05 3.36784e-06
-4.1495e-06 3.36784e-06 -6.17942e-05
0.00092233 9.82446e-06 8.50836e-09
9.82446e-06 1.46776e-05 1.68642e-08
8.50836e-09 1.68642e-08 -3.19659e-05
0.00103378 -1.60743e-05 1.22639e-06
-1.60743e-05 6.51353e-05 -5.5579e-07
1.22639e-06 -5.5579e-07 1.50752e-06
0.00256253 3.61693e-05 -1.86476e-05
3.61693e-05 0.000839805 3.73644e-06
-1.86476e-05 3.73644e-06 0.000854325
0.000830517 2.32045e-05 -5.10063e-09
2.32045e-05 -3.54823e-05 1.65713e-08
-5.10063e-09 1.65713e-08 -4.76492e-05
0.00094694 2.78423e-06 2.42532e-06
2.78423e-06 1.88444e-05 -2.0283e-06
2.42532e-06 -2.0283e-06 -2.44425e-05
0.00179234 2.8825e-05 7.0238e-06
2.8825e-05 0.000446355 -1.06066e-06
7.0238e-06 -1.06066e-06 0.000458662
0.000848498 2.08519e-05 3.82681e-06
2.08519e-05 -3.27482e-05 -3.45425e-06
3.82681e-06 -3.45425e-06 -4.33884e-05
0.00248907 2.9048e-05 1.7048e-05
2.9048e-05 0.000792705 -3.97972e-06
1.7048e-05 -3.97972e-06 0.000809517
0.00111132 3.61094e-05 -7.01026e-07
3.61094e-05 9.8154e-05 2.35267e-07
-7.01026e-07 2.35267e-07 2.67233e-05
0.00104608 3.41627e-05 2.35426e-07
3.41627e-05 6.16643e-05 3.60686e-07
2.35426e-07 3.60686e-07 -1.18053e-05
0.00100775 6.79946e-08 -1.28715e-06
6.79946e-08 4.22988e-05 -1.05303e-06
-1.28715e-06 -1.05303e-06 -2.27416e-05
0.00107703 3.25685e-05 6.5239e-07
3.25685e-05 7.90588e-05 7.97807e-07
6.5239e-07 7.97807e-07 4.90888e-06
0.0010131 2.73868e-06 -2.57007e-08
2.73868e-06 4.44385e-05 9.9227e-08
-2.57007e-08 9.9227e-08 -1.93884e-05
0.000928655 -2.82806e-06 -2.40765e-06
-2.82806e-06 3.7579e-06 -2.41873e-06
-2.40765e-06 -2.41873e-06 -3.91586e-05
0.000865626 -1.87597e-05 -3.14411e-06
-1.87597e-05 -2.99592e-05 -3.68107e-06
-3.14411e-06 -3.68107e-06 -3.90849e-05
0.000929524 -8.14142e-06 -2.01573e-07
-8.14142e-06 9.29636e-07 -5.29369e-08
-2.01573e-07 -5.29369e-08 -3.84235e-05
0.00101079 2.88496e-06 6.56527e-07
2.88496e-06 4.09905e-05 1.82505e-06
6.56527e-07 1.82505e-06 -1.99622e-05
0.00243948 -2.5545e-05 -1.55768e-05
-2.5545e-05 0.000761726 -4.04382e-06
-1.55768e-05 -4.04382e-06 0.000779996
0.000862504 -1.67105e-05 -1.31784e-07
-1.67105e-05 -3.59055e-05 -7.41632e-09
-1.31784e-07 -7.41632e-09 -4.29509e-05
0.000942984 -7.46749e-06 1.37073e-06
-7.46749e-06 4.45611e-06 2.28651e-06
1.37073e-06 2.28651e-06 -3.18392e-05
0.00240494 -2.22178e-05 -5.9569e-07
-2.22178e-05 0.000738964 4.63358e-08
-5.9569e-07 4.63358e-08 0.000758567
0.000856272 -1.48721e-05 1.85397e-06
-1.48721e-05 -4.28544e-05 3.46664e-06
1.85397e-06 3.46664e-06 -4.811e-05
0.00235679 -1.86656e-05 1.08623e-05
-1.86656e-05 0.000709686 4.0122e-06
1.08623e-05 4.0122e-06 0.000730667
0.000188645 3.4832e-05 9.72045e-05
3.4832e-05 -0.00034481 7.8049e-06
9.72045e-05 7.8049e-06 -0.000512943
0.00159673 -2.4194e-05 3.38534e-06
-2.4194e-05 0.000580653 -3.59212e-07
3.38534e-06 -3.59212e-07 0.000601897
0.000675458 3.45603e-06 1.55384e-05
3.45603e-06 6.25786e-05 2.07497e-06
1.55384e-05 2.07497e-06 -3.41694e-05
0.00102511 4.25818e-05 1.48212e-06
4.25818e-05 5.10355e-05 3.32249e-07
1.48212e-06 3.32249e-07 -2.71284e-05
0.00103766 4.74715e-05 7.61719e-07
4.74715e-05 5.71166e-05 6.04025e-09
7.61719e-07 6.04025e-09 -2.2991e-05
0.00112142 4.74908e-05 -1.13348e-09
4.74908e-05 0.000106077 -5.64339e-08
-1.13348e-09 -5.64339e-08 3.11652e-05
0.00114969 5.08202e-05 -5.83662e-07
5.08202e-05 0.000124957 -7.74696e-08
-5.83662e-07 -7.74696e-08 5.00496e-05
0.0011169 5.0188e-05 -1.97214e-06
5.0188e-05 0.000104507 -4.14309e-08
-1.97214e-06 -4.14309e-08 2.52675e-05
0.00109029 4.1853e-05 6.83904e-07
4.1853e-05 8.87497e-05 1.22733e-06
6.83904e-07 1.22733e-06 5.18083e-06
0.00109631 4.74565e-05 1.47071e-06
4.74565e-05 8.90942e-05 9.70056e-07
1.47071e-06 9.70056e-07 6.28868e-06
0.00101126 4.71186e-05 -3.75711e-07
4.71186e-05 5.89228e-05 -2.41576e-07
-3.75711e-07 -2.41576e-07 -2.81195e-05
0.000641927 4.19931e-05 -1.78907e-06
4.19931e-05 -0.000121227 2.79657e-07
-1.78907e-06 2.79657e-07 -0.000202426
0.000803474 4.719e-05 -2.40038e-06
4.719e-05 -4.33166e-05 -1.73563e-06
-2.40038e-06 -1.73563e-06 -0.00013238
0.00181968 8.23971e-05 6.36469e-07
8.23971e-05 0.000434003 -3.19073e-06
6.36469e-07 -3.19073e-06 0.000335237
0.00112287 4.28134e-05 -1.38951e-06
4.28134e-05 0.000112323 1.78034e-07
-1.38951e-06 1.78034e-07 2.39956e-05
0.00109842 3.87151e-05 7.54423e-07
3.87151e-05 9.91001e-05 1.41053e-06
7.54423e-07 1.41053e-06 1.26515e-05
0.00683289 -6.23794e-05 -1.10976e-05
-6.23794e-05 0.00184026 -1.39731e-05
-1.10976e-05 -1.39731e-05 0.00123885
-0.000104691 -0.000100766 7.82671e-06
-0.000100766 -0.00041401 5.12076e-06
7.82671e-06 5.12076e-06 -0.000503543
0.00205083 -6.08125e-05 -5.25987e-06
-6.08125e-05 0.00074519 -2.85365e-06
-5.25987e-06 -2.85365e-06 0.000838682
-0.00217051 -0.00013101 -3.30866e-05
-0.00013101 -0.00148985 -2.56612e-05
-3.30866e-05 -2.56612e-05 -0.00136084
0.00699679 -0.000206238 6.15609e-05
-0.000206238 0.00177478 5.25475e-05
6.15609e-05 5.25475e-05 0.000860526
0.0015174 8.32324e-05 3.08594e-05
8.32324e-05 0.000453987 4.8022e-06
3.08594e-05 4.8022e-06 0.000204706
0.00127137 0.000107304 -2.65048e-05
0.000107304 2.38873e-05 -2.51681e-05
-2.65048e-05 -2.51681e-05 -0.000261955
0.00472299 -0.000157091 2.00837e-05
-0.000157091 0.00114353 1.5486e-05
2.00837e-05 1.5486e-05 0.000571222
0.00114516 4.37275e-05 -3.84094e-05
4.37275e-05 -3.29534e-05 -4.90742e-05
-3.84094e-05 -4.90742e-05 -0.000305348
0.00227539 0.000135069 1.69406e-05
0.000135069 0.000506828 6.9339e-06
1.69406e-05 6.9339e-06 0.00035956
0.00094163 8.09764e-05 -5.42867e-07
8.09764e-05 8.57014e-05 -4.82552e-06
-5.42867e-07 -4.82552e-06 -5.68603e-05
0.000858974 4.72171e-05 8.38128e-07
4.72171e-05 -2.01846e-05 4.75141e-06
8.38128e-07 4.75141e-06 -9.07635e-05
0.00206518 0.000122198 -1.4593e-05
0.000122198 0.00068177 -2.13875e-05
-1.4593e-05 -2.13875e-05 0.000572022
-1.50503e-05 0.0001117 -5.96417e-06
0.0001117 -0.000515761 1.68647e-05
-5.96417e-06 1.68647e-05 -0.000614358
0.000822083 4.7657e-05 -6.72404e-06
4.7657e-05 -0.00033793 -4.68358e-06
-6.72404e-06 -4.68358e-06 -0.000777924
0.0015054 9.68955e-06 8.85738e-07
9.68955e-06 0.000259717 3.6299e-06
8.85738e-07 3.6299e-06 0.000160912
-0.00106034 -8.08511e-06 -6.52704e-06
-8.08511e-06 -0.000998068 2.87736e-08
-6.52704e-06 2.87736e-08 -0.00101652
0.00199583 -0.000109504 -2.89193e-05
-0.000109504 0.000414616 -1.05544e-06
-2.89193e-05 -1.05544e-06 0.000344105
0.00142933 2.48094e-05 2.41381e-05
2.48094e-05 -0.000160377 -2.40853e-05
2.41381e-05 -2.40853e-05 -0.000447186
0.00038143 3.1815e-06 -0.000118193
3.1815e-06 -0.000236616 2.23921e-05
-0.000118193 2.23921e-05 -0.000409114
0.00493416 0.000225399 -1.83164e-05
0.000225399 0.00164676 5.02129e-06
-1.83164e-05 5.02129e-06 0.000927976
0.00155011 -8.07597e-05 1.01834e-06
-8.07597e-05 -6.34909e-05 -1.08788e-06
1.01834e-06 -1.08788e-06 -4.00545e-06
0.00457077 0.000138014 2.79064e-05
0.000138014 0.0013568 2.81482e-06
2.79064e-05 2.81482e-06 0.000807983
0.00175238 6.88107e-05 2.48959e-05
6.88107e-05 0.000248967 -9.9484e-06
2.48959e-05 -9.9484e-06 -0.000104272
0.00176142 -5.49202e-05 -4.55148e-06
-5.49202e-05 -0.000126345 6.28161e-07
-4.55148e-06 6.28161e-07 -3.61347e-05
0.000888418 6.76806e-05 -2.42551e-05
6.76806e-05 0.000278089 1.21905e-05
-2.42551e-05 1.21905e-05 6.9858e-05
0.00141532 -0.0001386 9.49318e-06
-0.0001386 0.000112921 -7.86886e-06
9.49318e-06 -7.86886e-06 -2.17365e-05
0.00170835 -0.000128193 -3.64246e-06
-0.000128193 4.67391e-05 1.93694e-06
-3.64246e-06 1.93694e-06 -2.50629e-06
0.00203012 -7.23043e-05 -1.13487e-05
-7.23043e-05 0.000137113 5.63904e-06
-1.13487e-05 5.63904e-06 0.000133711
0.000830642 -8.30594e-05 6.27275e-06
-8.30594e-05 -0.000236419 -1.05936e-06
6.27275e-06 -1.05936e-06 -0.000306015
0.00142468 -6.82478e-05 1.49158e-06
-6.82478e-05 -8.15893e-06 9.8237e-07
1.49158e-06 9.8237e-07 -3.14703e-05
0.00142175 -4.36324e-05 -1.13464e-06
-4.36324e-05 -4.28672e-05 4.50211e-06
-1.13464e-06 4.50211e-06 -5.4014e-05
0.00112997 -6.17198e-05 1.91468e-06
-6.17198e-05 -7.06234e-05 5.94037e-07
1.91468e-06 5.94037e-07 -0.000131006
0.00139455 -5.35622e-05 1.03624e-07
-5.35622e-05 1.28581e-05 1.36587e-06
1.03624e-07 1.36587e-06 -2.33846e-05
0.00142125 -4.25592e-05 4.92207e-07
-4.25592e-05 2.24649e-05 2.64386e-06
4.92207e-07 2.64386e-06 -1.08407e-05
0.00123449 -5.38423e-05 1.98148e-06
-5.38423e-05 -5.01991e-07 1.29811e-06
1.98148e-06 1.29811e-06 -6.15428e-05
0.00134671 -4.92563e-05 5.95687e-08
-4.92563e-05 3.51972e-05 8.49395e-07
5.95687e-08 8.49395e-07 -1.25188e-05
0.0013877 -4.3014e-05 -3.36474e-07
-4.3014e-05 5.62385e-05 1.14392e-06
-3.36474e-07 1.14392e-06 8.72963e-06
0.00135181 -4.66707e-05 -9.75492e-07
-4.66707e-05 6.76736e-05 8.39762e-07
-9.75492e-07 8.39762e-07 1.55047e-05
0.00148478 -4.79567e-05 4.31223e-07
-4.79567e-05 0.000143697 -4.02196e-07
4.31223e-07 -4.02196e-07 8.44439e-05
0.00133687 -5.03413e-05 1.40762e-06
-5.03413e-05 7.06009e-05 1.97712e-06
1.40762e-06 1.97712e-06 1.11663e-05
0.00131996 -5.20002e-05 6.85027e-08
-5.20002e-05 8.11672e-05 -3.63502e-07
6.85027e-08 -3.63502e-07 1.44917e-05
0.00130553 -5.05065e-05 -6.48969e-07
-5.05065e-05 8.54383e-05 -1.22988e-07
-6.48969e-07 -1.22988e-07 1.63061e-05
0.00100024 -4.80071e-05 -1.57089e-06
-4.80071e-05 -2.05822e-05 1.22776e-06
-1.57089e-06 1.22776e-06 -9.4065e-05
0.00126412 -5.52442e-05 3.57008e-08
-5.52442e-05 9.24317e-05 -1.49565e-07
3.57008e-08 -1.49565e-07 1.55063e-05
0.00137801 -5.9422e-05 1.8107e-06
-5.9422e-05 0.000137185 -4.63694e-07
1.8107e-06 -4.63694e-07 5.74876e-05
0.00105165 -4.16852e-05 -1.18551e-06
-4.16852e-05 5.36324e-05 1.19966e-06
-1.18551e-06 1.19966e-06 -1.29317e-05
0.000985719 -4.95881e-05 -3.29085e-07
-4.95881e-05 6.14199e-06 3.47777e-07
-3.29085e-07 3.47777e-07 -6.83812e-05
0.00128464 -5.8107e-05 1.23908e-06
-5.8107e-05 0.000140637 -1.58141e-06
1.23908e-06 -1.58141e-06 6.03357e-05
0.000892504 -1.12922e-06 -2.34843e-06
-1.12922e-06 9.31467e-06 1.63064e-06
-2.34843e-06 1.63064e-06 -4.2996e-05
0.00104206 -3.64128e-05 -4.00913e-08
-3.64128e-05 6.19584e-05 -6.97417e-08
-4.00913e-08 -6.97417e-08 -2.80247e-06
0.00111968 -5.05416e-05 5.69793e-07
-5.05416e-05 9.0661e-05 -1.22434e-06
5.69793e-07 -1.22434e-06 1.85553e-05
0.000753014 2.77046e-05 -4.27694e-06
2.77046e-05 -5.60727e-05 3.35371e-06
-4.27694e-06 3.35371e-06 -7.35753e-05
0.000925664 3.28151e-07 2.34075e-08
3.28151e-07 2.08e-05 6.13505e-08
2.34075e-08 6.13505e-08 -2.85476e-05
0.00104803 -3.05689e-05 1.16564e-06
-3.05689e-05 6.90093e-05 -4.93198e-07
1.16564e-06 -4.93198e-07 5.3404e-06
0.00257026 3.98394e-05 -1.89641e-05
3.98394e-05 0.000851513 3.56768e-06
-1.89641e-05 3.56768e-06 0.000864499
0.000816688 2.61495e-05 -1.48675e-09
2.61495e-05 -3.3127e-05 -8.58911e-09
-1.48675e-09 -8.58911e-09 -4.78227e-05
0.000930571 2.26025e-06 2.46322e-06
2.26025e-06 1.7163e-05 -1.77423e-06
2.46322e-06 -1.77423e-06 -2.90736e-05
0.00252469 3.61278e-05 1.99028e-07
3.61278e-05 0.000822005 6.62862e-08
1.99028e-07 6.62862e-08 0.000836463
0.00084972 2.3679e-05 4.06476e-06
2.3679e-05 -2.53554e-05 -3.39624e-06
4.06476e-06 -3.39624e-06 -3.77306e-05
0.00249454 3.25405e-05 1.78749e-05
3.25405e-05 0.000801083 -3.84056e-06
1.78749e-05 -3.84056e-06 0.000816765
0.00105715 3.99069e-05 -8.03283e-07
3.99069e-05 7.75244e-05 -2.24324e-07
-8.03283e-07 -2.24324e-07 4.88548e-06
0.00107679 3.61254e-05 2.38214e-07
3.61254e-05 8.20964e-05 1.42537e-07
2.38214e-07 1.42537e-07 1.06307e-05
0.000917855 1.56321e-06 -1.67135e-06
1.56321e-06 1.35217e-06 -8.24915e-07
-1.67135e-06 -8.24915e-07 -6.45548e-05
0.00097056 3.10174e-05 1.47152e-06
3.10174e-05 2.33674e-05 8.26309e-07
1.47152e-06 8.26309e-07 -5.04376e-05
0.000963681 3.81159e-07 -8.61855e-08
3.81159e-07 2.05194e-05 1.68907e-07
-8.61855e-08 1.68907e-07 -4.49196e-05
0.00093137 1.84474e-07 -2.63862e-06
1.84474e-07 7.61901e-06 -2.13325e-06
-2.63862e-06 -2.13325e-06 -3.83828e-05
0.00100565 2.29372e-06 1.00867e-06
2.29372e-06 4.1245e-05 1.63169e-06
1.00867e-06 1.63169e-06 -2.27053e-05
0.000930378 -2.56569e-06 -1.69775e-07
-2.56569e-06 4.31864e-06 -1.16769e-08
-1.69775e-07 -1.16769e-08 -3.85403e-05
0.000851802 -2.09494e-05 -3.66814e-06
-2.09494e-05 -3.16701e-05 -3.71841e-06
-3.66814e-06 -3.71841e-06 -4.31533e-05
0.00248641 -2.8998e-05 -1.70548e-05
-2.8998e-05 0.000790545 -4.023e-06
-1.70548e-05 -4.023e-06 0.00080745
0.000851277 -1.84856e-05 -1.17123e-07
-1.84856e-05 -3.71929e-05 -1.79623e-08
-1.17123e-07 -1.79623e-08 -4.61641e-05
0.000934346 -7.15632e-06 1.56689e-06
-7.15632e-06 2.63583e-06 2.49919e-06
1.56689e-06 2.49919e-06 -3.65671e-05
0.00245176 -2.56562e-05 -5.02207e-07
-2.56562e-05 0.000767353 5.54519e-08
-5.02207e-07 5.54519e-08 0.000785705
0.000848818 -1.65832e-05 2.32475e-06
-1.65832e-05 -4.25671e-05 3.54375e-06
2.32475e-06 3.54375e-06 -4.95294e-05
0.00240968 -2.22698e-05 1.28393e-05
-2.22698e-05 0.000740821 4.01155e-06
1.28393e-05 4.01155e-06 0.000760538
0.00525044 1.62841e-05 1.94189e-05
1.62841e-05 0.00156218 -3.20543e-06
1.94189e-05 -3.20543e-06 0.00109586
-0.000479448 -1.23761e-05 1.66549e-05
-1.23761e-05 -0.000391777 8.40456e-07
1.66549e-05 8.40456e-07 -0.000407879
0.000486035 -1.76465e-05 5.82958e-06
-1.76465e-05 -7.28399e-05 -1.07102e-07
5.82958e-06 -1.07102e-07 -6.26682e-05
0.00104613 4.72643e-05 2.02649e-06
4.72643e-05 6.36537e-05 1.60799e-07
2.02649e-06 1.60799e-07 -1.6771e-05
0.00104931 4.62171e-05 9.74187e-07
4.62171e-05 7.22363e-05 1.0186e-07
9.74187e-07 1.0186e-07 -2.34195e-06
0.00115503 5.12021e-05 5.65332e-08
5.12021e-05 0.00012306 -5.55926e-08
5.65332e-08 -5.55926e-08 4.3954e-05
0.00111371 5.02923e-05 -1.99305e-07
5.02923e-05 0.000107371 -1.69686e-07
-1.99305e-07 -1.69686e-07 3.24437e-05
0.00111761 5.14507e-05 1.11965e-06
5.14507e-05 0.000113488 4.45377e-07
1.11965e-06 4.45377e-07 3.69917e-05
0.000886464 4.64459e-05 -1.89394e-06
4.64459e-05 3.83249e-07 5.29392e-07
-1.89394e-06 5.29392e-07 -7.70365e-05
0.000917111 4.49218e-05 1.5734e-06
4.49218e-05 1.27323e-05 1.14926e-06
1.5734e-06 1.14926e-06 -7.37191e-05
0.000849815 4.60827e-05 6.80926e-07
4.60827e-05 -1.85118e-05 -1.47929e-07
6.80926e-07 -1.47929e-07 -0.000100763
0.00087065 4.84485e-05 8.66166e-07
4.84485e-05 -3.0716e-06 2.3144e-07
8.66166e-07 2.3144e-07 -9.30738e-05
0.000603219 4.89368e-05 -6.20354e-07
4.89368e-05 -0.00015024 2.14535e-07
-6.20354e-07 2.14535e-07 -0.000232124
0.00259516 0.000100006 2.01639e-07
0.000100006 0.000786099 -6.65047e-07
2.01639e-07 -6.65047e-07 0.000694466
0.00177826 0.000100892 2.00871e-07
0.000100892 0.000315138 -3.67045e-06
2.00871e-07 -3.67045e-06 0.000200346
0.00121828 7.12319e-05 7.30956e-07
7.12319e-05 0.000141273 2.0734e-07
7.30956e-07 2.0734e-07 4.44566e-05
0.00129357 4.85356e-05 -2.95053e-07
4.85356e-05 0.000203343 1.40902e-06
-2.95053e-07 1.40902e-06 0.000113056
0.000396647 -3.40749e-05 -2.00073e-05
-3.40749e-05 -0.000268377 -2.12944e-05
-2.00073e-05 -2.12944e-05 -0.000365816
0.00342746 -6.86009e-05 -1.59125e-05
-6.86009e-05 0.000620381 -2.59622e-06
-1.59125e-05 -2.59622e-06 0.000140438
0.00260791 -0.000137057 -3.56533e-05
-0.000137057 0.000998253 -1.03285e-05
-3.56533e-05 -1.03285e-05 0.000897839
0.00388534 -9.70011e-05 7.54476e-05
-9.70011e-05 0.000755033 3.21468e-05
7.54476e-05 3.21468e-05 9.35655e-05
0.00285559 0.000134282 2.00649e-05
0.000134282 0.000902251 3.96798e-05
2.00649e-05 3.96798e-05 0.000718762
0.000910185 3.46936e-05 -1.21428e-05
3.46936e-05 -1.94291e-05 -1.48344e-06
-1.21428e-05 -1.48344e-06 -0.000139428
0.000968955 5.13993e-05 1.98776e-05
5.13993e-05 -0.000241217 1.20653e-05
1.98776e-05 1.20653e-05 -0.000311419
0.00163439 0.000132371 3.07031e-07
0.000132371 0.000203199 8.81062e-06
3.07031e-07 8.81062e-06 6.16226e-05
0.000384188 6.54035e-05 -1.10835e-06
6.54035e-05 -0.000178156 7.02901e-06
-1.10835e-06 7.02901e-06 -0.00031923
0.00257297 0.000179738 -4.7481e-05
0.000179738 0.000528215 -7.27353e-05
-4.7481e-05 -7.27353e-05 0.000477861
0.00179666 1.48219e-05 -0.000109105
1.48219e-05 0.000452933 -7.66463e-06
-0.000109105 -7.66463e-06 0.0001992
0.00475801 4.68509e-05 1.35334e-05
4.68509e-05 0.0015062 1.51393e-07
1.35334e-05 1.51393e-07 0.00103904
-0.00253726 -1.22634e-05 -7.49217e-05
-1.22634e-05 -0.0016955 4.95571e-06
-7.49217e-05 4.95571e-06 -0.00167782
0.0024072 -8.79388e-05 -3.44251e-06
-8.79388e-05 0.000354879 -7.04032e-07
-3.44251e-06 -7.04032e-07 0.000400679
0.000438334 8.02245e-05 2.69608e-05
8.02245e-05 -0.000219209 -1.10338e-05
2.69608e-05 -1.10338e-05 -0.000441022
0.000365428 1.62108e-05 2.027e-05
1.62108e-05 -0.0003815 -3.12729e-06
2.027e-05 -3.12729e-06 -0.000843205
0.00202107 -6.49185e-05 -1.67652e-06
-6.49185e-05 2.05514e-05 2.57699e-06
-1.67652e-06 2.57699e-06 7.67747e-05
0.00127414 8.64272e-05 3.45737e-06
8.64272e-05 0.000285576 -4.69733e-06
3.45737e-06 -4.69733e-06 9.14549e-05
0.00179324 -4.25371e-06 -1.03819e-07
-4.25371e-06 -0.000110785 -1.30032e-05
-1.03819e-07 -1.30032e-05 -5.62106e-05
0.000807517 5.81823e-05 1.3074e-06
5.81823e-05 -0.00022484 -2.20437e-06
1.3074e-06 -2.20437e-06 -0.000283964
0.00191256 -0.000127292 9.88034e-06
-0.000127292 0.000146902 -3.6199e-06
9.88034e-06 -3.6199e-06 0.000105498
0.00174544 -6.93931e-05 3.09105e-06
-6.93931e-05 4.6748e-06 -5.72861e-07
3.09105e-06 -5.72861e-07 7.00101e-06
0.00187203 -9.04143e-06 -2.70154e-06
-9.04143e-06 0.000139429 3.80763e-06
-2.70154e-06 3.80763e-06 0.000128512
0.00104382 -6.42279e-05 6.93633e-06
-6.42279e-05 -0.000187955 -1.36974e-06
6.93633e-06 -1.36974e-06 -0.000209788
0.00158284 -4.51493e-05 1.67602e-06
-4.51493e-05 4.44343e-05 4.48137e-07
1.67602e-06 4.48137e-07 3.11509e-05
0.0015381 -2.35971e-05 -6.56762e-07
-2.35971e-05 3.9182e-05 3.33887e-06
-6.56762e-07 3.33887e-06 5.21679e-06
0.00128596 -5.28899e-05 2.76705e-06
-5.28899e-05 -3.89367e-05 7.64682e-07
2.76705e-06 7.64682e-07 -7.59918e-05
0.0014329 -4.30143e-05 5.07626e-07
-4.30143e-05 3.38254e-05 6.95995e-07
5.07626e-07 6.95995e-07 -1.18377e-06
0.00152857 -3.36979e-05 -7.59434e-07
-3.36979e-05 8.89364e-05 1.90866e-06
-7.59434e-07 1.90866e-06 4.08727e-05
0.00139977 -5.03786e-05 1.04534e-06
-5.03786e-05 6.21543e-05 9.3328e-07
1.04534e-06 9.3328e-07 1.34932e-05
0.00133763 -4.39773e-05 -1.24734e-07
-4.39773e-05 3.71402e-05 4.75734e-09
-1.24734e-07 4.75734e-09 -1.07898e-05
0.00133926 -4.2069e-05 7.87702e-07
-4.2069e-05 5.32925e-05 1.03574e-06
7.87702e-07 1.03574e-06 -5.14308e-06
0.00120591 -4.5196e-05 1.81861e-08
-4.5196e-05 -2.4323e-06 1.08977e-06
1.81861e-08 1.08977e-06 -5.29836e-05
0.0013612 -4.58647e-05 -6.96842e-07
-4.58647e-05 8.28696e-05 -4.70643e-07
-6.96842e-07 -4.70643e-07 2.4781e-05
0.00145641 -4.71147e-05 -3.43889e-08
-4.71147e-05 0.000141208 1.18867e-07
-3.43889e-08 1.18867e-07 7.59919e-05
0.00132906 -5.17905e-05 9.07198e-07
-5.17905e-05 8.50005e-05 3.48941e-07
9.07198e-07 3.48941e-07 1.8115e-05
0.00130541 -5.02586e-05 1.3502e-07
-5.02586e-05 8.5546e-05 -2.76763e-07
1.3502e-07 -2.76763e-07 1.61331e-05
0.0013191 -4.86668e-05 -8.4771e-07
-4.86668e-05 0.00010897 4.74056e-07
-8.4771e-07 4.74056e-07 3.99453e-05
0.000887763 -3.96623e-05 -2.05133e-06
-3.96623e-05 -5.22009e-05 1.51565e-06
-2.05133e-06 1.51565e-06 -0.000119747
0.00108124 -4.94427e-05 -2.74914e-07
-4.94427e-05 2.17668e-05 1.71364e-07
-2.74914e-07 1.71364e-07 -5.15075e-05
0.00125836 -5.49676e-05 1.29182e-06
-5.49676e-05 9.03965e-05 -1.02282e-06
1.29182e-06 -1.02282e-06 1.31037e-05
0.000895396 -8.3334e-06 -2.13099e-06
-8.3334e-06 7.2123e-06 1.7716e-06
-2.13099e-06 1.7716e-06 -4.77617e-05
0.00106158 -4.13156e-05 6.11463e-08
-4.13156e-05 5.82325e-05 3.00026e-08
6.11463e-08 3.00026e-08 -8.32443e-06
0.00107781 -5.13532e-05 5.24511e-07
-5.13532e-05 5.34302e-05 -9.60459e-07
5.24511e-07 -9.60459e-07 -2.07641e-05
0.000714126 2.97137e-05 -4.36994e-06
2.97137e-05 -6.62523e-05 3.23178e-06
-4.36994e-06 3.23178e-06 -8.72887e-05
0.000918133 -3.89483e-06 -1.26837e-07
-3.89483e-06 1.95351e-05 1.12699e-08
-1.26837e-07 1.12699e-08 -3.25281e-05
0.00107138 -3.72448e-05 1.12794e-06
-3.72448e-05 7.51786e-05 -9.3523e-07
1.12794e-06 -9.3523e-07 1.04015e-05
0.00262474 4.35514e-05 -1.96038e-05
4.35514e-05 0.000886978 3.42403e-06
-1.96038e-05 3.42403e-06 0.000898023
0.00079359 2.86042e-05 9.44401e-08
2.86042e-05 -3.54816e-05 3.07024e-08
9.44401e-08 3.07024e-08 -5.32442e-05
0.00093037 -9.87729e-07 2.52286e-06
-9.87729e-07 2.13147e-05 -1.5414e-06
2.52286e-06 -1.5414e-06 -2.77354e-05
0.00254875 3.97671e-05 1.97246e-07
3.97671e-05 0.000841918 7.07409e-08
1.97246e-07 7.07409e-08 0.000854723
0.000844903 2.67796e-05 4.09486e-06
2.67796e-05 -1.87791e-05 -3.34061e-06
4.09486e-06 -3.34061e-06 -3.36948e-05
0.00249202 3.60454e-05 1.84203e-05
3.60454e-05 0.000806752 -3.68259e-06
1.84203e-05 -3.68259e-06 0.000821139
0.00107174 4.47945e-05 -9.94663e-07
4.47945e-05 8.6683e-05 -6.57863e-07
-9.94663e-07 -6.57863e-07 1.27364e-05
0.00112946 4.17425e-05 1.18398e-07
4.17425e-05 0.000112832 8.25669e-08
1.18398e-07 8.25669e-08 4.0512e-05
0.000947841 1.52209e-05 -1.55316e-06
1.52209e-05 2.32752e-05 -7.333e-07
-1.55316e-06 -7.333e-07 -4.3499e-05
0.00104467 3.61975e-05 1.00478e-06
3.61975e-05 6.72193e-05 3.15139e-07
1.00478e-06 3.15139e-07 -4.28552e-06
0.00093031 4.16468e-06 -3.76328e-07
4.16468e-06 8.60364e-06 -6.89142e-08
-3.76328e-07 -6.89142e-08 -5.74097e-05
0.000927173 -1.4356e-06 -2.65319e-06
-1.4356e-06 1.12487e-05 -1.8511e-06
-2.65319e-06 -1.8511e-06 -3.74711e-05
0.000919173 -2.72896e-06 1.21499e-06
-2.72896e-06 -1.2305e-06 1.25238e-06
1.21499e-06 1.25238e-06 -6.72791e-05
0.000929528 -4.22989e-07 -3.70919e-08
-4.22989e-07 7.05417e-06 3.54872e-08
-3.70919e-08 3.54872e-08 -3.90145e-05
0.000837107 -2.38418e-05 -4.016e-06
-2.38418e-05 -3.2678e-05 -3.61696e-06
-4.016e-06 -3.61696e-06 -4.66593e-05
0.000932234 -2.65167e-06 2.15552e-06
-2.65167e-06 4.96561e-06 2.59416e-06
2.15552e-06 2.59416e-06 -3.78399e-05
0.00083819 -2.05412e-05 -1.28696e-07
-2.05412e-05 -3.88592e-05 -2.36584e-10
-1.28696e-07 -2.36584e-10 -5.01284e-05
0.00253398 -3.26e-05 -1.81932e-05
-3.26e-05 0.000820139 -3.95626e-06
-1.81932e-05 -3.95626e-06 0.000835532
0.00249975 -2.90867e-05 -3.8775e-07
-2.90867e-05 0.000796606 5.96242e-08
-3.8775e-07 5.96242e-08 0.000813623
0.000838207 -1.82288e-05 2.85803e-06
-1.82288e-05 -4.38425e-05 3.6308e-06
2.85803e-06 3.6308e-06 -5.26542e-05
0.00246017 -2.5763e-05 1.46686e-05
-2.5763e-05 0.000771087 3.98301e-06
1.46686e-05 3.98301e-06 0.000789529
0.000488907 -2.55991e-05 -4.97426e-05
-2.55991e-05 -0.000163343 -1.12684e-05
-4.97426e-05 -1.12684e-05 -0.000279555
0.00169051 -2.12444e-05 -1.12692e-05
-2.12444e-05 2.27863e-05 -5.50801e-06
-1.12692e-05 -5.50801e-06 -0.00042646
0.00331308 -0.000104739 -3.60548e-05
-0.000104739 0.00120363 -2.85002e-06
-3.60548e-05 -2.85002e-06 0.00112772
0.00119395 5.56355e-05 1.91209e-06
5.56355e-05 0.000132367 3.09047e-07
1.91209e-06 3.09047e-07 5.45938e-05
0.00117517 5.1844e-05 1.58315e-06
5.1844e-05 0.000133476 -7.28127e-08
1.58315e-06 -7.28127e-08 5.44505e-05
0.00106806 4.94416e-05 7.86567e-07
4.94416e-05 8.49967e-05 5.46345e-08
7.86567e-07 5.46345e-08 1.00834e-05
0.00103774 4.99799e-05 -1.19147e-08
4.99799e-05 7.43145e-05 6.50467e-08
-1.19147e-08 6.50467e-08 -3.45543e-06
0.00107568 5.09e-05 -1.40301e-07
5.09e-05 9.41042e-05 -2.10664e-07
-1.40301e-07 -2.10664e-07 1.72368e-05
0.00078809 4.878e-05 -1.66173e-06
4.878e-05 -4.94305e-05 6.75284e-07
-1.66173e-06 6.75284e-07 -0.000122579
0.00115744 5.27786e-05 2.90169e-06
5.27786e-05 0.000134117 -9.40983e-07
2.90169e-06 -9.40983e-07 5.04911e-05
0.00120015 5.41589e-05 2.10233e-06
5.41589e-05 0.000161928 8.29408e-07
2.10233e-06 8.29408e-07 7.10569e-05
0.00107415 5.96029e-05 -2.41266e-07
5.96029e-05 7.67217e-05 -1.24256e-07
-2.41266e-07 -1.24256e-07 -4.42003e-06
0.00192235 8.57792e-05 1.96934e-07
8.57792e-05 0.000471884 5.48581e-07
1.96934e-07 5.48581e-07 0.000382211
0.00152096 8.40391e-05 8.84143e-07
8.40391e-05 0.000188254 -1.33328e-06
8.84143e-07 -1.33328e-06 9.13451e-05
0.00177396 8.74118e-05 -8.77372e-06
8.74118e-05 0.000157458 -3.12512e-06
-8.77372e-06 -3.12512e-06 4.42377e-05
0.00128184 8.90734e-05 3.2452e-06
8.90734e-05 6.56862e-05 1.21748e-06
3.2452e-06 1.21748e-06 -4.78839e-05
0.000696208 5.94291e-05 -7.68867e-07
5.94291e-05 -0.00011957 4.16068e-06
-7.68867e-07 4.16068e-06 -0.000214385
0.00197317 -2.59203e-05 -3.3026e-07
-2.59203e-05 0.000109127 6.71598e-06
-3.3026e-07 6.71598e-06 6.19515e-05
0.0013966 -2.06534e-05 1.42359e-06
-2.06534e-05 1.6079e-06 9.62424e-07
1.42359e-06 9.62424e-07 -0.000143583
0.000779117 -7.52742e-05 -2.93931e-05
-7.52742e-05 -0.000420323 -5.4919e-06
-2.93931e-05 -5.4919e-06 -0.000820801
0.00235543 9.36084e-05 1.7697e-05
9.36084e-05 0.000197415 2.05778e-05
1.7697e-05 2.05778e-05 -1.49406e-05
0.00141435 5.73083e-05 2.99878e-06
5.73083e-05 -9.80897e-05 2.25622e-06
2.99878e-06 2.25622e-06 -0.000172529
-0.000530453 9.08557e-05 -3.16356e-06
9.08557e-05 -0.000782448 -6.31256e-06
-3.16356e-06 -6.31256e-06 -0.000935443
0.00218625 7.04301e-06 7.24144e-06
7.04301e-06 0.000550199 -4.88497e-06
7.24144e-06 -4.88497e-06 0.000490476
0.000576585 4.02183e-06 -2.14305e-05
4.02183e-06 5.61672e-05 8.40835e-07
-2.14305e-05 8.40835e-07 -0.000107131
0.00127823 0.00011633 6.00319e-05
0.00011633 -0.000220461 -1.08155e-07
6.00319e-05 -1.08155e-07 -0.000654986
0.00211996 -7.59355e-05 -1.73756e-06
-7.59355e-05 8.48488e-05 6.21772e-06
-1.73756e-06 6.21772e-06 0.000111573
0.00125055 9.5215e-05 4.21355e-05
9.5215e-05 7.512e-05 -1.87782e-05
4.21355e-05 -1.87782e-05 -0.000169417
0.00197463 -1.09593e-05 4.24788e-06
-1.09593e-05 -2.44135e-05 -1.34644e-06
4.24788e-06 -1.34644e-06 1.73934e-06
0.00121903 6.64702e-05 5.92066e-07
6.64702e-05 -1.62768e-05 -3.55313e-06
5.92066e-07 -3.55313e-06 -7.69161e-05
0.00103359 4.58184e-05 -7.44987e-06
4.58184e-05 -0.000312254 1.5565e-08
-7.44987e-06 1.5565e-08 -0.000374521
0.000618493 4.073e-05 -5.49279e-06
4.073e-05 -0.000420256 -3.79178e-06
-5.49279e-06 -3.79178e-06 -0.000501898
0.00158337 -6.7728e-05 1.20465e-05
-6.7728e-05 -7.1064e-05 -4.20021e-06
1.20465e-05 -4.20021e-06 -6.31233e-05
0.00174105 -1.14546e-05 2.82652e-06
-1.14546e-05 8.65496e-05 -1.84986e-07
2.82652e-06 -1.84986e-07 6.94076e-05
0.00178233 1.4641e-05 -2.41068e-06
1.4641e-05 0.000168522 1.25707e-06
-2.41068e-06 1.25707e-06 0.000114111
0.00172855 -4.68537e-05 1.60894e-06
-4.68537e-05 0.000123468 -1.70943e-06
1.60894e-06 -1.70943e-06 0.00010729
0.00161708 -2.44356e-05 -2.10993e-07
-2.44356e-05 8.24654e-05 -1.24529e-07
-2.10993e-07 -1.24529e-07 4.63821e-05
0.00161527 -1.31151e-05 -1.03337e-06
-1.31151e-05 0.000109325 2.14035e-06
-1.03337e-06 2.14035e-06 5.2717e-05
0.00146789 -4.36047e-05 1.89227e-07
-4.36047e-05 5.64416e-05 -8.53804e-07
1.89227e-07 -8.53804e-07 1.96877e-05
0.00147896 -3.51459e-05 -8.24722e-07
-3.51459e-05 7.34294e-05 -7.38003e-07
-8.24722e-07 -7.38003e-07 2.55852e-05
0.00137242 -3.32992e-05 -3.38413e-07
-3.32992e-05 3.92332e-05 2.1639e-06
-3.38413e-07 2.1639e-06 -2.41206e-05
0.00128541 -4.48516e-05 -4.71236e-07
-4.48516e-05 1.68655e-05 -1.49717e-06
-4.71236e-07 -1.49717e-06 -3.14576e-05
0.00132374 -4.16734e-05 1.20358e-07
-4.16734e-05 4.66676e-05 -4.73198e-07
1.20358e-07 -4.73198e-07 -1.18183e-05
0.00132595 -4.2602e-05 -1.16699e-08
-4.2602e-05 6.05046e-05 8.77678e-07
-1.16699e-08 8.77678e-07 -5.60526e-06
0.00123521 -4.38137e-05 -9.44698e-07
-4.38137e-05 2.0812e-05 1.33532e-07
-9.44698e-07 1.33532e-07 -3.61031e-05
0.00133873 -4.46911e-05 -2.0954e-07
-4.46911e-05 8.27805e-05 -2.99084e-07
-2.0954e-07 -2.99084e-07 1.82961e-05
0.00127797 -4.30113e-05 -7.79068e-07
-4.30113e-05 6.96928e-05 5.0188e-07
-7.79068e-07 5.0188e-07 2.11741e-06
0.00130498 -5.00073e-05 9.38464e-07
-5.00073e-05 8.54665e-05 -4.00344e-07
9.38464e-07 -4.00344e-07 1.57779e-05
0.00120344 -4.66892e-05 1.94738e-07
-4.66892e-05 5.24712e-05 -1.59262e-07
1.94738e-07 -1.59262e-07 -1.69739e-05
0.00118484 -4.20449e-05 -1.7129e-06
-4.20449e-05 6.89099e-05 1.11546e-06
-1.7129e-06 1.11546e-06 2.72255e-06
0.000931004 -1.88367e-05 -2.47491e-06
-1.88367e-05 1.04058e-05 1.73658e-06
-2.47491e-06 1.73658e-06 -4.60999e-05
0.000973022 -4.09574e-05 -4.38982e-07
-4.09574e-05 -8.29702e-06 2.76077e-07
-4.38982e-07 2.76077e-07 -7.54834e-05
0.00114917 -5.05776e-05 8.97591e-07
-5.05776e-05 5.78923e-05 -8.96572e-07
8.97591e-07 -8.96572e-07 -1.5172e-05
0.000697174 2.99936e-05 -4.0926e-06
2.99936e-05 -6.71662e-05 3.27474e-06
-4.0926e-06 3.27474e-06 -9.26076e-05
0.000921532 -1.13196e-05 2.89655e-09
-1.13196e-05 1.858e-05 8.21641e-08
2.89655e-09 8.21641e-08 -3.63172e-05
0.00107476 -4.11125e-05 1.35254e-06
-4.11125e-05 6.4407e-05 -1.15682e-06
1.35254e-06 -1.15682e-06 -2.15186e-06
0.00268836 4.70549e-05 -2.05266e-05
4.70549e-05 0.000927664 3.28225e-06
-2.05266e-05 3.28225e-06 0.000936536
0.000773545 3.09388e-05 -4.11885e-08
3.09388e-05 -3.71303e-05 -3.36643e-08
-4.11885e-08 -3.36643e-08 -5.83826e-05
0.000943845 -6.68303e-06 2.43871e-06
-6.68303e-06 2.98451e-05 -1.66845e-06
2.43871e-06 -1.66845e-06 -2.19891e-05
0.00259769 4.32551e-05 2.54041e-07
4.32551e-05 0.000874816 8.80995e-08
2.54041e-07 8.80995e-08 0.000885652
0.000831866 2.94437e-05 4.24272e-06
2.94437e-05 -1.60825e-05 -3.201e-06
4.24272e-06 -3.201e-06 -3.40877e-05
0.00252023 3.95393e-05 1.91769e-05
3.95393e-05 0.000828849 -3.57478e-06
1.91769e-05 -3.57478e-06 0.000841501
0.000962896 4.72594e-05 -8.55216e-07
4.72594e-05 2.40973e-05 -7.43298e-07
-8.55216e-07 -7.43298e-07 -5.15979e-05
0.00105154 4.43328e-05 -6.62592e-08
4.43328e-05 7.63036e-05 -1.90652e-07
-6.62592e-08 -1.90652e-07 2.54003e-06
0.00106057 2.97053e-05 -1.35584e-06
2.97053e-05 8.00082e-05 -5.89247e-07
-1.35584e-06 -5.89247e-07 1.23179e-05
0.00120571 4.37991e-05 8.17753e-07
4.37991e-05 0.000150117 1.23509e-07
8.17753e-07 1.23509e-07 7.80912e-05
0.000993694 1.88771e-05 -2.99025e-07
1.88771e-05 4.65179e-05 -1.08513e-07
-2.99025e-07 -1.08513e-07 -2.0026e-05
0.000926753 -1.08136e-06 -2.58064e-06
-1.08136e-06 1.99175e-05 -1.6971e-06
-2.58064e-06 -1.6971e-06 -3.1764e-05
0.00093972 1.06883e-05 1.05614e-06
1.06883e-05 1.406e-05 6.06347e-07
1.05614e-06 6.06347e-07 -5.18365e-05
0.000922713 -1.79289e-06 1.57301e-08
-1.79289e-06 1.01416e-05 4.21267e-08
1.57301e-08 4.21267e-08 -3.87701e-05
0.000824894 -2.7352e-05 -4.11268e-06
-2.7352e-05 -2.98693e-05 -3.45771e-06
-4.11268e-06 -3.45771e-06 -4.65669e-05
0.000926059 -9.12374e-07 2.64345e-06
-9.12374e-07 5.71578e-06 2.40443e-06
2.64345e-06 2.40443e-06 -4.04191e-05
0.000823169 -2.32425e-05 -7.39343e-08
-2.32425e-05 -4.03386e-05 2.68873e-08
-7.39343e-08 2.68873e-08 -5.40791e-05
0.00256541 -3.62935e-05 -1.89303e-05
-3.62935e-05 0.000842678 -3.81159e-06
-1.89303e-05 -3.81159e-06 0.000856481
0.000824891 -2.01577e-05 3.40491e-06
-2.01577e-05 -4.59333e-05 3.72573e-06
3.40491e-06 3.72573e-06 -5.69841e-05
0.00255383 -3.26563e-05 -3.12361e-07
-3.26563e-05 0.000829288 6.83263e-08
-3.12361e-07 6.83263e-08 0.000844816
0.00251531 -2.92042e-05 1.63715e-05
-2.92042e-05 0.000803839 3.94914e-06
1.63715e-05 3.94914e-06 0.000820948
0.00148124 -4.70114e-05 1.11823e-06
-4.70114e-05 -2.07304e-05 6.82012e-07
1.11823e-06 6.82012e-07 -5.62608e-05
0.00161148 8.70774e-07 -4.52133e-06
8.70774e-07 0.000197249 6.08054e-06
-4.52133e-06 6.08054e-06 -9.23351e-06
0.00404494 3.44539e-05 -6.0994e-05
3.44539e-05 0.0011538 -1.0219e-05
-6.0994e-05 -1.0219e-05 0.00070064
0.000962191 5.1082e-05 9.96459e-07
5.1082e-05 9.95209e-06 3.18483e-07
9.96459e-07 3.18483e-07 -6.39161e-05
0.00130814 6.1328e-05 1.79797e-06
6.1328e-05 0.000140789 -9.69007e-07
1.79797e-06 -9.69007e-07 6.01416e-05
0.000922441 5.03759e-05 3.11819e-07
5.03759e-05 6.43236e-06 -3.02306e-07
3.11819e-07 -3.02306e-07 -7.10829e-05
0.0011519 5.26739e-05 1.45846e-06
5.26739e-05 0.000128719 -7.38629e-07
1.45846e-06 -7.38629e-07 5.08275e-05
0.00107279 5.13543e-05 3.49703e-07
5.13543e-05 9.34056e-05 6.48275e-08
3.49703e-07 6.48275e-08 1.6138e-05
0.00103511 5.48918e-05 6.81335e-07
5.48918e-05 6.46589e-05 5.87345e-07
6.81335e-07 5.87345e-07 -9.05399e-06
0.00134676 7.31933e-05 -1.57307e-06
7.31933e-05 0.000112902 -2.7656e-06
-1.57307e-06 -2.7656e-06 2.60235e-05
0.00138686 6.67479e-05 2.36338e-06
6.67479e-05 0.000229647 3.76139e-08
2.36338e-06 3.76139e-08 0.00014909
0.000766875 6.16336e-05 -1.10565e-06
6.16336e-05 -6.99319e-05 2.93244e-06
-1.10565e-06 2.93244e-06 -0.000157894
0.00136839 8.09045e-05 -1.01463e-06
8.09045e-05 0.00011868 -4.21223e-07
-1.01463e-06 -4.21223e-07 2.26333e-05
0.00116183 6.87959e-05 -4.40569e-06
6.87959e-05 -0.000109828 -2.68012e-06
-4.40569e-06 -2.68012e-06 -0.000211138
0.00168635 2.9132e-05 -7.87086e-06
2.9132e-05 3.15906e-05 2.76482e-06
-7.87086e-06 2.76482e-06 -4.69616e-05
0.00182087 8.74016e-05 -1.44793e-08
8.74016e-05 0.00017237 1.00953e-06
-1.44793e-08 1.00953e-06 6.10295e-05
0.000993086 8.01175e-05 -3.4861e-07
8.01175e-05 -8.95166e-05 4.02659e-06
-3.4861e-07 4.02659e-06 -0.000200366
0.00167531 -2.00826e-05 1.22954e-06
-2.00826e-05 -2.57927e-05 9.35356e-07
1.22954e-06 9.35356e-07 -7.19227e-05
0.00209086 -1.6059e-05 5.70757e-05
-1.6059e-05 0.000218895 2.87545e-05
5.70757e-05 2.87545e-05 1.04904e-05
0.00220566 7.33401e-05 -3.56734e-06
7.33401e-05 0.00023771 -3.40765e-06
-3.56734e-06 -3.40765e-06 0.000155075
0.00178212 2.66e-05 -4.58325e-06
2.66e-05 0.000198891 -2.88949e-06
-4.58325e-06 -2.88949e-06 0.000142002
0.00133609 -1.17414e-06 1.43401e-06
-1.17414e-06 0.000121626 -5.17759e-07
1.43401e-06 -5.17759e-07 6.97356e-05
0.000970173 4.66282e-05 5.37672e-05
4.66282e-05 6.68243e-06 3.83358e-06
5.37672e-05 3.83358e-06 -0.000210319
0.00245449 -2.04243e-05 9.82068e-06
-2.04243e-05 0.000207156 -1.0065e-06
9.82068e-06 -1.0065e-06 0.000201006
0.001418 7.23142e-05 -2.56847e-06
7.23142e-05 9.81656e-05 1.37778e-06
-2.56847e-06 1.37778e-06 3.76591e-05
0.00162162 5.24797e-05 -1.49356e-06
5.24797e-05 -3.36934e-05 4.47473e-06
-1.49356e-06 4.47473e-06 -9.12914e-05
0.00136047 5.219e-05 1.36354e-07
5.219e-05 -5.11912e-05 1.30742e-06
1.36354e-07 1.30742e-06 -0.000129554
0.00153078 4.34211e-05 -4.86311e-06
4.34211e-05 6.01381e-05 -6.14772e-07
-4.86311e-06 -6.14772e-07 -1.26873e-05
0.00133475 3.96692e-05 -3.42237e-06
3.96692e-05 -9.06094e-07 -1.89296e-06
-3.42237e-06 -1.89296e-06 -6.43433e-05
0.00143794 -1.33628e-05 5.84303e-06
-1.33628e-05 -5.40245e-05 -2.81552e-06
5.84303e-06 -2.81552e-06 -7.60296e-05
0.00164087 1.29118e-05 -1.06079e-06
1.29118e-05 9.71291e-05 -1.1025e-06
-1.06079e-06 -1.1025e-06 4.39269e-05
0.0016109 2.28259e-05 -2.00366e-06
2.28259e-05 0.0001031 5.11699e-07
-2.00366e-06 5.11699e-07 3.20865e-05
0.00170902 -2.49238e-05 -1.22503e-06
-2.49238e-05 0.000131645 -2.70375e-06
-1.22503e-06 -2.70375e-06 9.42185e-05
0.00155877 -1.30534e-05 -1.62961e-07
-1.30534e-05 8.54242e-05 -3.57744e-07
-1.62961e-07 -3.57744e-07 2.88844e-05
0.00137873 -9.65371e-06 -1.24387e-06
-9.65371e-06 1.31443e-05 1.86695e-06
-1.24387e-06 1.86695e-06 -5.59508e-05
0.00142148 -3.63613e-05 -1.90082e-06
-3.63613e-05 5.38622e-05 -2.74165e-06
-1.90082e-06 -2.74165e-06 6.29069e-06
0.00138741 -3.28282e-05 2.05772e-07
-3.28282e-05 4.67378e-05 -1.00568e-07
2.05772e-07 -1.00568e-07 -1.66711e-05
0.00137166 -3.50974e-05 -5.98406e-07
-3.50974e-05 5.50825e-05 1.60807e-06
-5.98406e-07 1.60807e-06 -1.52781e-05
0.00130844 -4.12632e-05 -4.44496e-07
-4.12632e-05 4.01389e-05 -1.99469e-06
-4.44496e-07 -1.99469e-06 -1.83953e-05
0.0013234 -4.19967e-05 3.17239e-08
-4.19967e-05 5.91359e-05 -3.39399e-07
3.17239e-08 -3.39399e-07 -6.94047e-06
0.00129368 -4.16362e-05 -7.39784e-07
-4.16362e-05 6.15923e-05 8.5378e-07
-7.39784e-07 8.5378e-07 -7.46432e-06
0.00121994 -4.23241e-05 -1.8001e-08
-4.23241e-05 2.38088e-05 -4.45298e-07
-1.8001e-08 -4.45298e-07 -3.9947e-05
0.00120587 -4.18358e-05 -1.50106e-07
-4.18358e-05 3.45633e-05 -1.36444e-07
-1.50106e-07 -1.36444e-07 -3.28547e-05
0.00118555 -3.85502e-05 -1.70311e-06
-3.85502e-05 5.20184e-05 9.65783e-07
-1.70311e-06 9.65783e-07 -1.37834e-05
0.00109416 -4.48295e-05 1.28996e-06
-4.48295e-05 -9.83298e-07 -8.40919e-07
1.28996e-06 -8.40919e-07 -7.08508e-05
0.00106093 -3.95704e-05 3.41169e-08
-3.95704e-05 8.80713e-06 2.40515e-08
3.41169e-08 2.40515e-08 -5.75249e-05
0.000973509 -2.3555e-05 -2.747e-06
-2.3555e-05 1.17522e-05 1.57853e-06
-2.747e-06 1.57853e-06 -4.50914e-05
0.000748051 1.8982e-05 -4.72742e-06
1.8982e-05 -4.1124e-05 3.2317e-06
-4.72742e-06 3.2317e-06 -7.02357e-05
0.00094013 -1.97605e-05 2.65648e-08
-1.97605e-05 1.46592e-05 1.11283e-07
2.65648e-08 1.11283e-07 -4.18456e-05
0.00106866 -4.25009e-05 1.05843e-06
-4.25009e-05 4.05211e-05 -9.10499e-07
1.05843e-06 -9.10499e-07 -2.63047e-05
0.00277105 5.068e-05 -2.12391e-05
5.068e-05 0.000978851 3.1535e-06
-2.12391e-05 3.1535e-06 0.000985128
0.000762895 2.61438e-05 1.495e-07
2.61438e-05 -3.66172e-05 -4.85271e-08
1.495e-07 -4.85271e-08 -6.18708e-05
0.000945519 -1.42348e-05 2.51687e-06
-1.42348e-05 2.88158e-05 -1.74683e-06
2.51687e-06 -1.74683e-06 -2.59578e-05
0.00266165 4.67447e-05 2.06118e-07
4.67447e-05 0.00091585 8.21557e-08
2.06118e-07 8.21557e-08 0.000924435
0.000827335 3.06013e-05 4.13667e-06
3.06013e-05 -1.08766e-05 -3.16494e-06
4.13667e-06 -3.16494e-06 -3.22414e-05
0.00257547 4.30373e-05 2.00276e-05
4.30373e-05 0.000865036 -3.42093e-06
2.00276e-05 -3.42093e-06 0.000875645
0.000796339 4.77198e-05 -3.9789e-07
4.77198e-05 -8.03961e-05 -6.8865e-07
-3.9789e-07 -6.8865e-07 -0.000159709
0.00086895 4.54911e-05 -2.23518e-09
4.54911e-05 -2.37942e-05 -9.19956e-08
-2.23518e-09 -9.19956e-08 -9.98258e-05
0.00109389 3.78517e-05 -1.43601e-06
3.78517e-05 8.68356e-05 -5.34502e-07
-1.43601e-06 -5.34502e-07 1.80019e-05
0.0010299 4.38377e-05 6.35724e-07
4.38377e-05 6.51534e-05 1.53617e-07
6.35724e-07 1.53617e-07 -8.41499e-06
0.00101861 2.80142e-05 -2.59204e-08
2.80142e-05 6.00177e-05 -1.30092e-08
-2.59204e-08 -1.30092e-08 -7.60711e-06
0.00093316 1.90471e-06 -2.63282e-06
1.90471e-06 2.98724e-05 -1.5173e-06
-2.63282e-06 -1.5173e-06 -2.46017e-05
0.00104222 2.20001e-05 1.16069e-06
2.20001e-05 7.11099e-05 4.3731e-07
1.16069e-06 4.3731e-07 4.78872e-06
0.00091535 -2.18663e-06 6.68376e-08
-2.18663e-06 1.59101e-05 2.90956e-08
6.68376e-08 2.90956e-08 -3.59998e-05
0.00081722 -3.08279e-05 -4.06601e-06
-3.08279e-05 -2.26727e-05 -3.30215e-06
-4.06601e-06 -3.30215e-06 -4.25789e-05
0.000921008 -2.11706e-06 2.78526e-06
-2.11706e-06 1.04141e-05 2.07901e-06
2.78526e-06 2.07901e-06 -3.87002e-05
0.000804684 -2.66188e-05 -1.61011e-08
-2.66188e-05 -4.07062e-05 2.48088e-08
-1.61011e-08 2.48088e-08 -5.71561e-05
0.00258442 -3.99385e-05 -1.9506e-05
-3.99385e-05 0.00086072 -3.63527e-06
-1.9506e-05 -3.63527e-06 0.000872736
0.000809565 -2.26766e-05 3.94296e-06
-2.26766e-05 -4.78587e-05 3.70087e-06
3.94296e-06 3.70087e-06 -6.13571e-05
0.00259789 -3.63909e-05 -2.47968e-07
-3.63909e-05 0.000857764 7.65956e-08
-2.47968e-07 7.65956e-08 0.000871697
0.00257391 -3.27569e-05 1.77926e-05
-3.27569e-05 0.000838581 3.90013e-06
1.77926e-05 3.90013e-06 0.000854234
0.00163238 -1.2101e-05 -1.51625e-06
-1.2101e-05 4.58867e-05 9.45969e-07
-1.51625e-06 9.45969e-07 -4.95134e-06
0.00116601 -4.20808e-05 -3.33375e-07
-4.20808e-05 -0.000118412 -1.71475e-06
-3.33375e-07 -1.71475e-06 -0.000152762
3.03215e-05 -2.10602e-05 4.19213e-05
-2.10602e-05 -0.000271288 1.86083e-05
4.19213e-05 1.86083e-05 -0.000391854
0.00174413 6.99895e-05 7.90555e-07
6.99895e-05 0.000308621 -2.10486e-06
7.90555e-07 -2.10486e-06 0.000228678
0.000949161 5.16584e-05 -6.09014e-07
5.16584e-05 1.40584e-05 2.86717e-07
-6.09014e-07 2.86717e-07 -5.72222e-05
0.000790119 5.34367e-05 -2.33486e-06
5.34367e-05 -0.000166461 -7.65349e-07
-2.33486e-06 -7.65349e-07 -0.000251661
0.00128348 6.08461e-05 1.19158e-07
6.08461e-05 0.000127979 5.34107e-08
1.19158e-07 5.34107e-08 4.68601e-05
0.000664203 4.51369e-05 -6.8421e-07
4.51369e-05 -0.000111789 7.911e-07
-6.8421e-07 7.911e-07 -0.000189212
0.00160591 6.77421e-05 -3.5239e-06
6.77421e-05 0.000130333 -4.27467e-06
-3.5239e-06 -4.27467e-06 3.77996e-05
0.00127654 6.06825e-05 4.33067e-07
6.06825e-05 0.000175693 -9.51504e-08
4.33067e-07 -9.51504e-08 0.000101501
0.00134242 7.16929e-05 1.15093e-07
7.16929e-05 0.000104799 2.93459e-07
1.15093e-07 2.93459e-07 1.85342e-05
0.00157831 2.75126e-05 -3.38359e-06
2.75126e-05 3.18295e-05 1.9784e-06
-3.38359e-06 1.9784e-06 -4.97486e-05
0.00133029 7.99714e-05 1.32705e-06
7.99714e-05 0.000104144 2.61582e-06
1.32705e-06 2.61582e-06 8.87711e-06
0.00146761 7.5092e-05 -1.02103e-06
7.5092e-05 3.3789e-05 -6.74673e-07
-1.02103e-06 -6.74673e-07 -6.8489e-05
0.00181044 2.80679e-05 -5.24229e-07
2.80679e-05 9.5465e-05 1.4532e-06
-5.24229e-07 1.4532e-06 1.557e-05
0.00172863 8.37606e-05 4.73404e-06
8.37606e-05 0.000127791 2.84591e-06
4.73404e-06 2.84591e-06 1.76026e-05
0.00156671 -1.06129e-05 -9.77858e-06
-1.06129e-05 -7.31593e-05 -7.33321e-06
-9.77858e-06 -7.33321e-06 -0.000117797
0.00165662 3.30978e-06 -2.39613e-06
3.30978e-06 0.000167951 -1.22844e-06
-2.39613e-06 -1.22844e-06 0.000112872
0.00130784 2.057e-05 1.74881e-06
2.057e-05 -4.01881e-05 6.08098e-07
1.74881e-06 6.08098e-07 -9.64006e-05
0.000476094 -7.43748e-06 1.28327e-06
-7.43748e-06 -0.000307364 2.43306e-06
1.28327e-06 2.43306e-06 -0.000352918
0.0021064 5.74185e-05 5.91109e-06
5.74185e-05 0.000194479 -2.61433e-06
5.91109e-06 -2.61433e-06 0.000140853
0.00215238 6.37876e-05 1.45368e-05
6.37876e-05 0.000344519 5.05011e-06
1.45368e-05 5.05011e-06 0.000269206
0.0017518 4.68067e-05 -2.83323e-06
4.68067e-05 0.00015719 -8.02875e-07
-2.83323e-06 -8.02875e-07 8.45597e-05
0.00146927 3.9686e-05 8.33252e-07
3.9686e-05 6.95393e-05 1.63255e-06
8.33252e-07 1.63255e-06 6.45716e-06
0.00149177 3.8317e-05 -3.7444e-06
3.8317e-05 7.94088e-05 -2.35073e-06
-3.7444e-06 -2.35073e-06 1.02068e-05
0.00158507 1.09344e-05 -6.11491e-07
1.09344e-05 6.97217e-05 -2.53595e-06
-6.11491e-07 -2.53595e-06 1.71828e-05
0.00161133 2.19309e-05 1.96922e-08
2.19309e-05 0.000100365 -2.65206e-07
1.96922e-08 -2.65206e-07 3.03945e-05
0.00155297 2.48199e-05 -2.94115e-06
2.48199e-05 8.76563e-05 -5.20005e-07
-2.94115e-06 -5.20005e-07 1.28898e-05
0.00151148 -1.31573e-05 6.9458e-08
-1.31573e-05 6.64332e-05 -2.46443e-06
6.9458e-08 -2.46443e-06 9.88048e-06
0.00143847 -9.5753e-06 2.82321e-07
-9.5753e-06 4.32744e-05 2.54393e-07
2.82321e-07 2.54393e-07 -2.63013e-05
0.00144595 -1.01253e-05 -1.48822e-06
-1.01253e-05 6.26427e-05 1.14775e-06
-1.48822e-06 1.14775e-06 -1.18596e-05
0.00139798 -3.22818e-05 3.68711e-07
-3.22818e-05 5.21618e-05 -2.31281e-06
3.68711e-07 -2.31281e-06 -1.13044e-05
0.00138096 -3.42945e-05 1.51339e-07
-3.42945e-05 5.89949e-05 -1.76595e-08
1.51339e-07 -1.76595e-08 -1.1423e-05
0.00133804 -3.61042e-05 -1.14483e-06
-3.61042e-05 5.84414e-05 1.21658e-06
-1.14483e-06 1.21658e-06 -1.37414e-05
0.00132075 -4.14486e-05 1.0045e-07
-4.14486e-05 5.77243e-05 -1.5479e-06
1.0045e-07 -1.5479e-06 -8.32164e-06
0.00129203 -4.12826e-05 -5.22226e-09
-4.12826e-05 6.05326e-05 -2.0247e-07
-5.22226e-09 -2.0247e-07 -8.50899e-06
0.0012109 -3.6994e-05 -1.61869e-06
-3.6994e-05 4.71556e-05 1.00872e-06
-1.61869e-06 1.00872e-06 -2.02035e-05
0.00112734 -4.05234e-05 7.05055e-07
-4.05234e-05 -3.6587e-06 -7.72741e-07
7.05055e-07 -7.72741e-07 -7.09154e-05
0.00117308 -3.79467e-05 -2.67725e-08
-3.79467e-05 4.61144e-05 -3.68075e-08
-2.67725e-08 -3.68075e-08 -1.96162e-05
0.00101123 -2.43683e-05 -2.88158e-06
-2.43683e-05 1.18471e-05 1.4852e-06
-2.88158e-06 1.4852e-06 -4.54159e-05
0.000927641 -3.68749e-05 1.5691e-06
-3.68749e-05 -5.57796e-05 -1.00878e-06
1.5691e-06 -1.00878e-06 -0.000122252
0.000969491 -2.3649e-05 -4.04411e-09
-2.3649e-05 1.04059e-05 6.81645e-08
-4.04411e-09 6.81645e-08 -4.647e-05
0.00165276 1.97674e-05 -5.63163e-06
1.97674e-05 0.000413127 1.72585e-06
-5.63163e-06 1.72585e-06 0.000385408
0.00116754 3.1808e-05 -2.24372e-05
3.1808e-05 0.000180448 5.59549e-06
-2.24372e-05 5.59549e-06 0.000173526
0.00122326 2.22698e-05 -8.40107e-07
2.22698e-05 0.00019537 -2.82478e-09
-8.40107e-07 -2.82478e-09 0.000168655
0.000949581 -2.04964e-05 2.70692e-06
-2.04964e-05 1.90066e-05 -1.63412e-06
2.70692e-06 -1.63412e-06 -3.7505e-05
0.00275833 5.02381e-05 2.28929e-07
5.02381e-05 0.000974151 9.42969e-08
2.28929e-07 9.42969e-08 0.000979978
0.000828597 2.48711e-05 4.73647e-06
2.48711e-05 -5.66861e-06 -3.13267e-06
4.73647e-06 -3.13267e-06 -3.09586e-05
0.00263581 4.63201e-05 2.09752e-05
4.63201e-05 0.000904424 -3.32492e-06
2.09752e-05 -3.32492e-06 0.000912731
0.00117356 5.63895e-05 -1.01283e-06
5.63895e-05 -9.876e-06 -6.67928e-07
-1.01283e-06 -6.67928e-07 -8.82603e-05
0.000853 5.09212e-05 4.3321e-07
5.09212e-05 -8.11284e-05 -2.44156e-07
4.3321e-07 -2.44156e-07 -0.000162893
0.000877291 4.97402e-05 -7.0971e-08
4.97402e-05 -4.51713e-05 -8.10464e-08
-7.0971e-08 -8.10464e-08 -0.000124934
0.00111439 4.33828e-05 -1.3356e-06
4.33828e-05 8.1396e-05 -7.7803e-07
-1.3356e-06 -7.7803e-07 1.1384e-05
0.000757442 4.32827e-05 4.93418e-07
4.32827e-05 -8.04387e-05 5.56171e-07
4.93418e-07 5.56171e-07 -0.000156752
0.0010428 3.56763e-05 -9.29106e-08
3.56763e-05 6.23549e-05 -2.54371e-08
-9.29106e-08 -2.54371e-08 -6.26234e-06
0.000942468 6.76215e-06 -2.58295e-06
6.76215e-06 3.60882e-05 -1.2409e-06
-2.58295e-06 -1.2409e-06 -2.02652e-05
0.000980866 2.64418e-05 1.32603e-06
2.64418e-05 4.2036e-05 5.65576e-07
1.32603e-06 5.65576e-07 -2.5525e-05
0.000904655 -1.33997e-07 3.86957e-08
-1.33997e-07 1.75297e-05 7.44073e-08
3.86957e-08 7.44073e-08 -3.7141e-05
0.000812318 -3.35808e-05 -4.07031e-06
-3.35808e-05 -1.46264e-05 -3.10537e-06
-4.07031e-06 -3.10537e-06 -3.81146e-05
0.000901375 -3.26228e-06 2.6725e-06
-3.26228e-06 1.0676e-05 1.8093e-06
2.6725e-06 1.8093e-06 -4.14661e-05
0.000781683 -2.99482e-05 1.68443e-08
-2.99482e-05 -4.0881e-05 9.78186e-09
1.68443e-08 9.78186e-09 -6.05305e-05
0.00260783 -4.34462e-05 -2.01528e-05
-4.34462e-05 0.000882773 -3.46293e-06
-2.01528e-05 -3.46293e-06 0.000892647
0.000783783 -2.58388e-05 4.25293e-06
-2.58388e-05 -5.19252e-05 3.5674e-06
4.25293e-06 3.5674e-06 -6.8119e-05
0.00262532 -4.01493e-05 -2.21219e-07
-4.01493e-05 0.000879534 7.95139e-08
-2.21219e-07 7.95139e-08 0.000891714
0.00263065 -3.64933e-05 1.89264e-05
-3.64933e-05 0.00087301 3.82205e-06
1.89264e-05 3.82205e-06 0.000887069
0.00157894 -2.09824e-05 -8.61457e-07
-2.09824e-05 6.89253e-05 1.8081e-06
-8.61457e-07 1.8081e-06 7.39229e-06
0.00172217 -1.15119e-05 1.7163e-06
-1.15119e-05 9.70173e-05 -1.56192e-06
1.7163e-06 -1.56192e-06 4.512e-05
0.0011747 -4.10458e-05 -4.45256e-06
-4.10458e-05 -7.19839e-05 -5.15845e-06
-4.45256e-06 -5.15845e-06 -0.000105181
0.00145009 6.05778e-05 -3.89375e-06
6.05778e-05 7.16712e-05 -3.14372e-06
-3.89375e-06 -3.14372e-06 -1.42938e-05
0.00146865 6.45903e-05 -8.47877e-08
6.45903e-05 0.000189524 4.05547e-07
-8.47877e-08 4.05547e-07 0.000111555
0.000828688 5.0474e-05 -2.94533e-06
5.0474e-05 -3.42029e-05 3.33335e-07
-2.94533e-06 3.33335e-07 -0.000102768
0.00129292 6.1902e-05 7.84133e-07
6.1902e-05 7.39141e-05 8.9534e-07
7.84133e-07 8.9534e-07 -9.63496e-06
0.00128578 6.08431e-05 -1.33681e-06
6.08431e-05 0.000128086 7.89556e-07
-1.33681e-06 7.89556e-07 4.64924e-05
0.00164789 2.4114e-05 -2.85113e-06
2.4114e-05 8.67332e-05 8.11097e-07
-2.85113e-06 8.11097e-07 5.18229e-07
0.00157691 6.87498e-05 -1.40019e-06
6.87498e-05 0.000113631 -1.29205e-06
-1.40019e-06 -1.29205e-06 1.93477e-05
0.00133766 7.05138e-05 1.26587e-06
7.05138e-05 9.83054e-05 4.32935e-06
1.26587e-06 4.32935e-06 1.23862e-05
0.00165448 2.60982e-05 -3.05482e-07
2.60982e-05 6.74407e-05 7.02183e-07
-3.05482e-07 7.02183e-07 -1.46301e-05
0.00186101 8.28418e-05 4.01384e-06
8.28418e-05 0.000216076 2.26282e-06
4.01384e-06 2.26282e-06 0.000113213
0.00173981 2.50694e-05 6.96799e-06
2.50694e-05 6.69619e-05 -2.59313e-08
6.96799e-06 -2.59313e-08 -1.44249e-05
0.00125327 2.89234e-06 -2.06524e-06
2.89234e-06 -1.553e-05 -3.17392e-07
-2.06524e-06 -3.17392e-07 -7.83205e-05
0.0014613 4.64177e-06 -2.57311e-07
4.64177e-06 7.18143e-05 -5.77063e-07
-2.57311e-07 -5.77063e-07 1.63061e-05
0.00068937 1.39532e-05 7.27448e-06
1.39532e-05 -0.000350348 5.21452e-06
7.27448e-06 5.21452e-06 -0.000405559
0.00199115 5.06071e-05 5.25183e-06
5.06071e-05 0.00026312 -9.08144e-07
5.25183e-06 -9.08144e-07 0.000190724
0.00156894 3.96832e-05 6.82506e-06
3.96832e-05 0.000122138 4.8224e-06
6.82506e-06 4.8224e-06 5.95336e-05
0.00157076 3.91445e-05 -1.07324e-06
3.91445e-05 0.000116689 -3.15441e-07
-1.07324e-06 -3.15441e-07 4.78915e-05
0.00145697 3.25496e-05 -1.73608e-06
3.25496e-05 7.49318e-05 -9.87372e-07
-1.73608e-06 -9.87372e-07 2.5169e-06
0.00160608 2.09242e-05 2.13314e-06
2.09242e-05 9.48531e-05 -8.04335e-07
2.13314e-06 -8.04335e-07 2.59494e-05
0.00154517 2.28471e-05 -4.43687e-07
2.28471e-05 8.11935e-05 -9.07866e-08
-4.43687e-07 -9.07866e-08 6.62004e-06
0.00142766 1.62534e-05 -2.71958e-06
1.62534e-05 4.30981e-05 -9.57233e-07
-2.71958e-06 -9.57233e-07 -3.1809e-05
0.00149434 -9.65689e-06 1.161e-06
-9.65689e-06 7.14671e-05 -1.15414e-06
1.161e-06 -1.15414e-06 1.41736e-06
0.00144446 -1.06088e-05 5.36387e-08
-1.06088e-05 6.15191e-05 3.47904e-07
5.36387e-08 3.47904e-07 -1.30976e-05
0.00139853 -1.71123e-05 -1.8055e-06
-1.71123e-05 6.17951e-05 7.96465e-07
-1.8055e-06 7.96465e-07 -1.2983e-05
0.00138983 -3.34317e-05 1.00453e-06
-3.34317e-05 6.27117e-05 -1.6238e-06
1.00453e-06 -1.6238e-06 -7.76151e-06
0.00134403 -3.58144e-05 8.05316e-08
-3.58144e-05 6.08278e-05 5.05041e-08
8.05316e-08 5.05041e-08 -1.14131e-05
0.00125582 -3.34696e-05 -1.85812e-06
-3.34696e-05 4.7349e-05 1.13976e-06
-1.85812e-06 1.13976e-06 -2.25336e-05
0.00129013 -4.09689e-05 7.98303e-07
-4.09689e-05 5.9363e-05 -1.25652e-06
7.98303e-07 -1.25652e-06 -9.66667e-06
0.00121242 -3.6674e-05 -1.81134e-08
-3.6674e-05 4.77e-05 -1.00118e-07
-1.81134e-08 -1.00118e-07 -1.96351e-05
0.00104749 -2.5039e-05 -3.01203e-06
-2.5039e-05 1.2983e-05 1.55696e-06
-3.01203e-06 1.55696e-06 -4.59562e-05
0.00115984 -3.73502e-05 1.52474e-06
-3.73502e-05 3.98347e-05 -9.92755e-07
1.52474e-06 -9.92755e-07 -2.5825e-05
0.00100277 -2.40315e-05 1.41211e-08
-2.40315e-05 8.40397e-06 -1.00922e-08
1.41211e-08 -1.00922e-08 -4.89292e-05
0.0016884 1.3289e-05 -5.93921e-06
1.3289e-05 0.000428942 1.60781e-06
-5.93921e-06 1.60781e-06 0.000398556
0.000967492 -2.39298e-05 2.81683e-06
-2.39298e-05 9.99559e-06 -1.47609e-06
2.81683e-06 -1.47609e-06 -4.69136e-05
0.00168561 1.65856e-05 4.63018e-06
1.65856e-05 0.000426291 -9.32577e-07
4.63018e-06 -9.32577e-07 0.000398524
0.00119976 3.13512e-05 -2.50813e-05
3.13512e-05 0.000209956 5.43589e-06
-2.50813e-05 5.43589e-06 0.000198261
0.00202258 4.23994e-05 -1.57976e-05
4.23994e-05 0.000612691 1.75351e-06
-1.57976e-05 1.75351e-06 0.00061057
0.00171001 2.22908e-05 1.26258e-05
2.22908e-05 0.000437241 -2.60528e-06
1.26258e-05 -2.60528e-06 0.000413193
0.00274799 4.96128e-05 2.25414e-05
4.96128e-05 0.000970538 -3.27596e-06
2.25414e-05 -3.27596e-06 0.000975935
0.00144936 5.54707e-05 -3.09035e-06
5.54707e-05 6.9345e-05 -2.32108e-06
-3.09035e-06 -2.32108e-06 -1.23252e-05
0.00138675 5.91116e-05 1.27957e-06
5.91116e-05 0.000138448 -5.09598e-07
1.27957e-06 -5.09598e-07 6.06398e-05
0.00116323 5.60281e-05 9.4231e-07
5.60281e-05 -5.41103e-06 5.46039e-07
9.4231e-07 5.46039e-07 -7.95513e-05
0.00112253 4.79697e-05 -1.30152e-06
4.79697e-05 6.90427e-05 -1.24967e-06
-1.30152e-06 -1.24967e-06 -4.24935e-06
0.00111471 5.6835e-05 -3.13109e-07
5.6835e-05 4.18355e-05 1.47792e-07
-3.13109e-07 1.47792e-07 -3.98413e-05
0.00100168 5.28256e-05 3.78857e-07
5.28256e-05 1.0653e-05 7.53779e-07
3.78857e-07 7.53779e-07 -6.95554e-05
0.00108642 4.26378e-05 -4.70045e-08
4.26378e-05 7.03646e-05 -1.0462e-07
-4.70045e-08 -1.0462e-07 1.66096e-07
0.000958344 1.54916e-05 -2.47904e-06
1.54916e-05 3.86827e-05 -1.25839e-06
-2.47904e-06 -1.25839e-06 -1.9209e-05
0.000994746 3.36774e-05 1.1116e-06
3.36774e-05 3.9362e-05 4.15512e-07
1.1116e-06 4.15512e-07 -2.90505e-05
0.000906832 4.74574e-06 -4.31791e-10
4.74574e-06 1.95274e-05 8.68748e-08
-4.31791e-10 8.68748e-08 -3.68922e-05
0.000808678 -2.79172e-05 -4.66054e-06
-2.79172e-05 -8.68426e-06 -2.83557e-06
-4.66054e-06 -2.83557e-06 -3.55828e-05
0.000880628 -1.98103e-06 2.52534e-06
-1.98103e-06 7.37543e-06 1.62178e-06
2.52534e-06 1.62178e-06 -4.74989e-05
0.000760218 -3.2525e-05 -7.03484e-09
-3.2525e-05 -4.03205e-05 -3.25352e-09
-7.03484e-09 -3.25352e-09 -6.36156e-05
0.00263723 -4.66751e-05 -2.0996e-05
-4.66751e-05 0.000909489 -3.30419e-06
-2.0996e-05 -3.30419e-06 0.000916844
0.00074537 -2.8988e-05 4.31089e-06
-2.8988e-05 -5.95101e-05 3.41561e-06
4.31089e-06 3.41561e-06 -7.88911e-05
0.00264791 -4.37798e-05 -1.99859e-07
-4.37798e-05 0.000900733 8.21201e-08
-1.99859e-07 8.21201e-08 0.000910861
0.00266482 -4.03071e-05 1.96206e-05
-4.03071e-05 0.000897691 3.67797e-06
1.96206e-05 3.67797e-06 0.000910037
0.00151472 -1.84571e-05 -2.42391e-06
-1.84571e-05 5.48815e-05 2.23235e-06
-2.42391e-06 2.23235e-06 -1.6673e-05
0.00157987 -1.97804e-05 3.3913e-07
-1.97804e-05 7.14114e-05 -5.2941e-07
3.3913e-07 -5.2941e-07 9.36304e-06
0.0019345 -1.15585e-05 4.64505e-06
-1.15585e-05 0.000206937 -3.03482e-06
4.64505e-06 -3.03482e-06 0.000153789
0.00136384 2.65011e-05 -2.58978e-06
2.65011e-05 -2.85411e-05 1.86116e-07
-2.58978e-06 1.86116e-07 -0.000112483
0.00150519 6.15627e-05 1.7664e-07
6.15627e-05 0.000100646 -5.21223e-07
1.7664e-07 -5.21223e-07 1.44452e-05
0.00130709 6.12597e-05 -1.20151e-06
6.12597e-05 0.000124098 1.82803e-06
-1.20151e-06 1.82803e-06 4.8203e-05
0.00172744 6.92721e-05 1.54239e-06
6.92721e-05 0.000280724 1.33369e-06
1.54239e-06 1.33369e-06 0.000198928
0.00171305 2.58535e-05 -1.14694e-07
2.58535e-05 0.000118177 -1.73828e-07
-1.14694e-07 -1.73828e-07 3.20079e-05
0.00155876 6.96994e-05 2.41718e-06
6.96994e-05 0.000101337 2.17278e-06
2.41718e-06 2.17278e-06 5.44809e-06
0.00170938 2.40036e-05 3.67064e-06
2.40036e-05 9.27813e-05 -2.1474e-07
3.67064e-06 -2.1474e-07 1.02295e-05
0.0013954 2.07104e-06 -3.64183e-07
2.07104e-06 5.17693e-05 2.53701e-07
-3.64183e-07 2.53701e-07 -1.76354e-05
0.00134835 4.33395e-06 2.34839e-08
4.33395e-06 2.60118e-05 -1.58024e-07
2.34839e-08 -1.58024e-07 -3.83778e-05
0.0013076 6.58647e-06 1.89001e-06
6.58647e-06 -3.58688e-06 9.40583e-07
1.89001e-06 9.40583e-07 -5.96366e-05
0.00148437 3.24052e-05 -1.0447e-06
3.24052e-05 9.8679e-05 -2.68436e-07
-1.0447e-06 -2.68436e-07 2.28966e-05
0.00164768 3.99151e-05 3.58712e-06
3.99151e-05 0.000152904 1.55563e-06
3.58712e-06 1.55563e-06 8.45341e-05
0.00145377 3.27558e-05 2.93176e-07
3.27558e-05 7.28591e-05 1.82065e-07
2.93176e-07 1.82065e-07 2.21921e-08
0.00149763 2.95196e-05 -1.33289e-06
2.95196e-05 9.2654e-05 -4.33566e-07
-1.33289e-06 -4.33566e-07 1.86588e-05
0.00155931 2.11614e-05 2.09312e-06
2.11614e-05 8.53089e-05 2.11539e-07
2.09312e-06 2.11539e-07 1.09176e-05
0.00146515 1.6214e-05 -6.36909e-07
1.6214e-05 6.06868e-05 -2.07366e-07
-6.36909e-07 -2.07366e-07 -1.4093e-05
0.00140478 1.10625e-05 -2.70414e-06
1.10625e-05 5.45588e-05 -4.17808e-07
-2.70414e-06 -4.17808e-07 -2.11268e-05
0.00144584 -1.04554e-05 2.16871e-06
-1.04554e-05 6.17621e-05 -4.73597e-07
2.16871e-06 -4.73597e-07 -1.29689e-05
0.00139259 -1.58723e-05 4.47523e-08
-1.58723e-05 5.90989e-05 1.42738e-07
4.47523e-08 1.42738e-07 -1.5776e-05
0.00131067 -2.26757e-05 -2.33942e-06
-2.26757e-05 5.20402e-05 7.90915e-07
-2.33942e-06 7.90915e-07 -1.96242e-05
0.0013512 -3.54821e-05 1.49132e-06
-3.54821e-05 6.37744e-05 -1.12152e-06
1.49132e-06 -1.12152e-06 -8.52119e-06
0.00125983 -3.32144e-05 2.78014e-08
-3.32144e-05 4.90612e-05 7.13948e-08
2.78014e-08 7.13948e-08 -2.08489e-05
0.00109481 -2.406e-05 -3.39589e-06
-2.406e-05 1.871e-05 1.66175e-06
-3.39589e-06 1.66175e-06 -4.26015e-05
0.00121336 -3.62874e-05 1.64468e-06
-3.62874e-05 4.79641e-05 -1.20011e-06
1.64468e-06 -1.20011e-06 -1.93445e-05
0.00104334 -2.43358e-05 1.01543e-07
-2.43358e-05 1.0963e-05 -6.27132e-08
1.01543e-07 -6.27132e-08 -4.80491e-05
0.00171688 8.49947e-06 -5.98769e-06
8.49947e-06 0.000440156 1.5625e-06
-5.98769e-06 1.5625e-06 0.00040786
0.000995455 -2.3731e-05 2.85171e-06
-2.3731e-05 5.51512e-06 -1.44746e-06
2.85171e-06 -1.44746e-06 -5.18883e-05
0.00172784 1.05668e-05 4.99329e-06
1.05668e-05 0.000445184 -8.30577e-07
4.99329e-06 -8.30577e-07 0.000414832
0.001224 3.07611e-05 -2.69697e-05
3.07611e-05 0.000234464 4.96109e-06
-2.69697e-05 4.96109e-06 0.000219213
0.00172126 1.34519e-05 1.53756e-05
1.34519e-05 0.000440829 -3.66023e-06
1.53756e-05 -3.66023e-06 0.000413039
0.0011801 3.43e-05 -9.56648e-06
3.43e-05 0.000201621 2.00966e-06
-9.56648e-06 2.00966e-06 0.000189884
0.00285483 5.7736e-05 9.62385e-06
5.7736e-05 0.00103429 -1.28169e-06
9.62385e-06 -1.28169e-06 0.00103653
0.00166194 3.41461e-05 -2.56401e-06
3.41461e-05 0.000144773 -7.54247e-07
-2.56401e-06 -7.54247e-07 6.08588e-05
0.0014586 5.40062e-05 -1.19158e-06
5.40062e-05 0.000107618 -2.06986e-06
-1.19158e-06 -2.06986e-06 2.87344e-05
0.00149759 5.69124e-05 -1.18021e-06
5.69124e-05 0.000101589 9.38299e-07
-1.18021e-06 9.38299e-07 2.05873e-05
0.00143564 5.42907e-05 -8.92469e-07
5.42907e-05 0.000189788 -6.48652e-07
-8.92469e-07 -6.48652e-07 0.000116477
0.0012541 5.73756e-05 4.18165e-07
5.73756e-05 7.24959e-05 -8.01358e-07
4.18165e-07 -8.01358e-07 -5.13905e-06
0.0012151 5.65837e-05 2.53589e-06
5.65837e-05 2.96169e-05 1.67935e-06
2.53589e-06 1.67935e-06 -4.04127e-05
0.00098839 2.7133e-05 -2.53854e-06
2.7133e-05 4.00773e-05 -1.62771e-06
-2.53854e-06 -1.62771e-06 -2.10192e-05
0.00111718 4.81111e-05 -5.12701e-08
4.81111e-05 6.61572e-05 -8.47937e-08
-5.12701e-08 -8.47937e-08 -7.15028e-06
0.00134405 6.19953e-05 1.3045e-06
6.19953e-05 0.000150148 1.38348e-06
1.3045e-06 1.38348e-06 6.84622e-05
0.00103832 4.13031e-05 1.10154e-06
4.13031e-05 4.95842e-05 4.8816e-07
1.10154e-06 4.8816e-07 -2.07736e-05
0.000928043 1.36292e-05 -2.96329e-08
1.36292e-05 2.52995e-05 -2.55251e-08
-2.96329e-08 -2.55251e-08 -3.27135e-05
0.000811607 -1.79025e-05 -5.08272e-06
-1.79025e-05 -3.46757e-06 -2.77927e-06
-5.08272e-06 -2.77927e-06 -3.42075e-05
0.000871663 1.91735e-06 2.40683e-06
1.91735e-06 3.21066e-06 1.2901e-06
2.40683e-06 1.2901e-06 -5.33291e-05
0.000749942 -3.10387e-05 -1.11889e-07
-3.10387e-05 -3.62354e-05 -2.04761e-08
-1.11889e-07 -2.04761e-08 -6.33023e-05
0.00269969 -4.974e-05 -2.22775e-05
-4.974e-05 0.000954386 -3.14664e-06
-2.22775e-05 -3.14664e-06 0.00095874
0.00070929 -3.14902e-05 4.23989e-06
-3.14902e-05 -6.54615e-05 3.25551e-06
4.23989e-06 3.25551e-06 -8.856e-05
0.00267507 -4.71603e-05 -2.08552e-07
-4.71603e-05 0.000925905 8.47037e-08
-2.08552e-07 8.47037e-08 0.000933616
0.00268823 -4.40398e-05 2.01034e-05
-4.40398e-05 0.000918852 3.49157e-06
2.01034e-05 3.49157e-06 0.000929232
0.00153198 -9.61547e-06 -1.24419e-06
-9.61547e-06 7.14021e-05 1.08496e-06
-1.24419e-06 1.08496e-06 -2.89366e-06
0.00162673 -1.7925e-05 -1.25342e-07
-1.7925e-05 0.00010227 5.96497e-07
-1.25342e-07 5.96497e-07 2.98455e-05
0.0015396 -1.84463e-05 2.12552e-06
-1.84463e-05 5.43496e-05 -2.771e-06
2.12552e-06 -2.771e-06 -8.22392e-06
0.00151236 2.72914e-05 2.30496e-07
2.72914e-05 3.80487e-05 -1.36593e-07
2.30496e-07 -1.36593e-07 -4.56628e-05
0.00157238 6.27791e-05 2.00357e-06
6.27791e-05 0.000136108 1.45118e-06
2.00357e-06 1.45118e-06 4.95715e-05
0.00183125 2.7225e-05 3.0004e-06
2.7225e-05 0.000174846 -5.00229e-07
3.0004e-06 -5.00229e-07 8.87755e-05
0.00142791 1.75193e-06 -1.06513e-06
1.75193e-06 6.5207e-05 3.11758e-07
-1.06513e-06 3.11758e-07 -1.009e-05
0.00137861 4.0792e-06 5.58515e-07
4.0792e-06 4.64924e-05 -1.85374e-07
5.58515e-07 -1.85374e-07 -2.3173e-05
0.00145382 5.6076e-06 2.03906e-06
5.6076e-06 7.24712e-05 1.543e-07
2.03906e-06 1.543e-07 6.47773e-06
0.00144434 2.42693e-05 -5.78688e-07
2.42693e-05 7.96721e-05 -1.01521e-07
-5.78688e-07 -1.01521e-07 4.04444e-06
0.00148039 2.24549e-05 -6.72449e-07
2.24549e-05 0.000100204 1.16928e-08
-6.72449e-07 1.16928e-08 2.20828e-05
0.00143908 3.29453e-05 2.13636e-06
3.29453e-05 6.53891e-05 8.46333e-07
2.13636e-06 8.46333e-07 -7.88768e-06
0.00146561 2.90409e-05 3.863e-07
2.90409e-05 7.82938e-05 3.01882e-07
3.863e-07 3.01882e-07 4.22505e-06
0.00150837 2.60189e-05 -1.08011e-06
2.60189e-05 0.000109843 -2.9553e-07
-1.08011e-06 -2.9553e-07 3.4868e-05
0.00150002 1.55249e-05 1.97124e-06
1.55249e-05 7.70531e-05 4.95784e-07
1.97124e-06 4.95784e-07 2.39976e-06
0.00141672 9.85024e-06 -5.45915e-07
9.85024e-06 5.98087e-05 -2.94462e-08
-5.45915e-07 -2.94462e-08 -1.56772e-05
0.00132774 2.99072e-06 -3.17934e-06
2.99072e-06 4.94518e-05 2.8946e-07
-3.17934e-06 2.8946e-07 -2.33685e-05
0.00138814 -1.61245e-05 1.85335e-06
-1.61245e-05 5.70218e-05 -4.93728e-07
1.85335e-06 -4.93728e-07 -1.79299e-05
0.00130633 -2.19876e-05 6.42906e-08
-2.19876e-05 4.99623e-05 7.03321e-08
6.42906e-08 7.03321e-08 -2.17744e-05
0.00112276 -1.65168e-05 -3.86965e-06
-1.65168e-05 1.58677e-05 1.38466e-06
-3.86965e-06 1.38466e-06 -4.67335e-05
0.00126475 -3.29153e-05 2.06402e-06
-3.29153e-05 5.12015e-05 -9.91825e-07
2.06402e-06 -9.91825e-07 -1.87338e-05
0.0010896 -2.3347e-05 1.53395e-07
-2.3347e-05 1.55952e-05 5.05508e-08
1.53395e-07 5.05508e-08 -4.5763e-05
0.00177606 6.53878e-06 -6.19431e-06
6.53878e-06 0.0004642 1.55011e-06
-6.19431e-06 1.55011e-06 0.000430739
0.00103967 -2.37285e-05 3.04967e-06
-2.37285e-05 9.21469e-06 -1.57013e-06
3.04967e-06 -1.57013e-06 -4.98777e-05
0.00177464 5.48166e-06 5.43997e-06
5.48166e-06 0.000465595 -6.98216e-07
5.43997e-06 -6.98216e-07 0.00043331
0.0012437 2.95093e-05 -2.89688e-05
2.95093e-05 0.000254268 4.36227e-06
-2.89688e-05 4.36227e-06 0.00023643
0.0017697 7.51182e-06 1.63358e-05
7.51182e-06 0.000462563 -3.40083e-06
1.63358e-05 -3.40083e-06 0.000432273
0.00121665 3.44453e-05 -1.0348e-05
3.44453e-05 0.000232512 1.78799e-06
-1.0348e-05 1.78799e-06 0.000217028
0.00115547 3.75138e-05 6.5131e-06
3.75138e-05 0.000190887 -1.44638e-06
6.5131e-06 -1.44638e-06 0.000179081
0.00150711 7.34367e-07 -1.4199e-06
7.34367e-07 6.30312e-05 1.12741e-06
-1.4199e-06 1.12741e-06 -1.1739e-05
0.00146838 3.65082e-05 -2.53122e-06
3.65082e-05 7.72829e-05 -5.05114e-07
-2.53122e-06 -5.05114e-07 -3.88108e-06
0.00160206 3.3721e-05 -9.10942e-07
3.3721e-05 0.000111598 -7.02486e-07
-9.10942e-07 -7.02486e-07 2.74999e-05
0.00139092 5.02773e-05 -1.85775e-06
5.02773e-05 0.000119444 -1.01813e-06
-1.85775e-06 -1.01813e-06 4.50688e-05
0.00151165 5.48046e-05 6.80801e-07
5.48046e-05 0.000137468 4.65045e-07
6.80801e-07 4.65045e-07 5.89224e-05
0.00149769 5.75186e-05 3.38795e-06
5.75186e-05 0.000110673 2.51599e-06
3.38795e-06 2.51599e-06 3.03848e-05
0.000971882 3.29181e-05 -2.90843e-06
3.29181e-05 3.83912e-06 -1.4673e-06
-2.90843e-06 -1.4673e-06 -5.95723e-05
0.00116393 5.00667e-05 7.69736e-07
5.00667e-05 5.45365e-05 5.11025e-07
7.69736e-07 5.11025e-07 -1.97568e-05
0.00110738 5.54176e-05 1.25659e-06
5.54176e-05 -1.00207e-06 1.59104e-06
1.25659e-06 1.59104e-06 -7.8352e-05
0.000821874 -1.75364e-06 -5.6661e-06
-1.75364e-06 6.69844e-07 -3.04219e-06
-5.6661e-06 -3.04219e-06 -3.47909e-05
0.000955811 2.57044e-05 -7.96846e-08
2.57044e-05 2.40042e-05 -9.17949e-08
-7.96846e-08 -9.17949e-08 -3.6935e-05
0.00111971 4.84435e-05 1.30509e-06
4.84435e-05 6.71047e-05 1.09059e-06
1.30509e-06 1.09059e-06 -6.22851e-06
0.000881309 1.22715e-05 2.26795e-06
1.22715e-05 3.77459e-06 1.07583e-06
2.26795e-06 1.07583e-06 -5.42592e-05
0.000751765 -1.95749e-05 -6.85739e-08
-1.95749e-05 -2.94591e-05 -6.2861e-08
-6.85739e-08 -6.2861e-08 -6.04973e-05
0.0028157 -5.25268e-05 -2.43629e-05
-5.25268e-05 0.00102701 -3.04193e-06
-2.43629e-05 -3.04193e-06 0.00102787
0.000692101 -3.32546e-05 4.19631e-06
-3.32546e-05 -6.32495e-05 3.05447e-06
4.19631e-06 3.05447e-06 -9.05125e-05
0.00271257 -5.02595e-05 -2.49677e-07
-5.02595e-05 0.00095821 8.95058e-08
-2.49677e-07 8.95058e-08 0.000963056
0.00271543 -4.75946e-05 2.06517e-05
-4.75946e-05 0.000943557 3.30283e-06
2.06517e-05 3.30283e-06 0.000951621
0.00151199 -1.57235e-05 -8.52794e-07
-1.57235e-05 8.1422e-05 -3.28163e-07
-8.52794e-07 -3.28163e-07 4.97011e-06
0.00156626 -9.97033e-06 -3.41161e-07
-9.97033e-06 8.56151e-05 2.33946e-07
-3.41161e-07 2.33946e-07 1.10159e-05
0.00165289 -1.7154e-05 1.4524e-06
-1.7154e-05 0.000109019 -1.42183e-06
1.4524e-06 -1.42183e-06 3.5634e-05
0.00163232 2.7783e-05 3.01592e-06
2.7783e-05 9.07263e-05 -2.71138e-08
3.01592e-06 -2.71138e-08 7.27099e-06
0.00142913 -1.18842e-06 -1.10593e-06
-1.18842e-06 6.31633e-05 -3.76244e-07
-1.10593e-06 -3.76244e-07 -1.5883e-05
0.001462 1.84258e-06 -2.47959e-07
1.84258e-06 8.19442e-05 -1.35871e-07
-2.47959e-07 -1.35871e-07 7.05086e-06
0.00135869 6.04693e-06 1.0604e-06
6.04693e-06 3.94756e-05 -9.77948e-09
1.0604e-06 -9.77948e-09 -3.04188e-05
0.00140001 1.95014e-05 -9.84861e-09
1.95014e-05 5.87018e-05 7.59439e-08
-9.84861e-09 7.59439e-08 -1.69102e-05
0.0014343 2.67314e-05 7.97464e-08
2.67314e-05 7.75661e-05 -1.57541e-07
7.97464e-08 -1.57541e-07 -6.33968e-07
0.00144668 2.38351e-05 -1.64553e-06
2.38351e-05 9.11818e-05 2.16782e-07
-1.64553e-06 2.16782e-07 1.424e-05
0.00143736 2.85986e-05 2.1319e-06
2.85986e-05 6.56852e-05 1.11095e-06
2.1319e-06 1.11095e-06 -8.45091e-06
0.00148125 2.61037e-05 4.35919e-07
2.61037e-05 9.84385e-05 1.79088e-07
4.35919e-07 1.79088e-07 2.35732e-05
0.0012911 2.31344e-05 -2.49754e-06
2.31344e-05 2.90523e-05 -1.67303e-07
-2.49754e-06 -1.67303e-07 -4.4383e-05
0.0014219 1.01149e-05 1.49862e-06
1.01149e-05 6.19371e-05 3.79582e-07
1.49862e-06 3.79582e-07 -1.33728e-05
0.00132528 4.52426e-06 -2.74798e-07
4.52426e-06 4.80345e-05 1.29424e-07
-2.74798e-07 1.29424e-07 -2.46808e-05
0.00113243 9.04693e-07 -4.14563e-06
9.04693e-07 1.06561e-05 9.34516e-07
-4.14563e-06 9.34516e-07 -5.24041e-05
0.00130162 -1.91627e-05 2.39203e-06
-1.91627e-05 4.77543e-05 -6.11604e-07
2.39203e-06 -6.11604e-07 -2.40333e-05
0.00112306 -1.79613e-05 8.45213e-08
-1.79613e-05 1.56564e-05 1.21403e-07
8.45213e-08 1.21403e-07 -4.70286e-05
0.000706129 -3.08472e-06 -6.49303e-06
-3.08472e-06 -8.07886e-05 2.32348e-06
-6.49303e-06 2.32348e-06 -0.0001201
0.00108695 -2.26954e-05 3.51222e-06
-2.26954e-05 1.37435e-05 -1.45686e-06
3.51222e-06 -1.45686e-06 -4.76677e-05
0.00127689 -3.71712e-06 7.13175e-06
-3.71712e-06 0.000210283 -4.30841e-07
7.13175e-06 -4.30841e-07 0.000174115
0.00349538 6.67598e-05 -3.16895e-05
6.67598e-05 0.00139273 1.87059e-06
-3.16895e-05 1.87059e-06 0.0013849
0.00183127 2.51242e-06 1.75998e-05
2.51242e-06 0.000490379 -3.14926e-06
1.75998e-05 -3.14926e-06 0.00045817
0.00125471 3.42155e-05 -1.13209e-05
3.42155e-05 0.000261864 1.51857e-06
-1.13209e-05 1.51857e-06 0.000243556
0.0012064 3.85404e-05 6.85215e-06
3.85404e-05 0.00022919 -1.38693e-06
6.85215e-06 -1.38693e-06 0.000213426
0.00156374 -9.31851e-06 -5.95363e-07
-9.31851e-06 0.000107236 -3.47218e-08
-5.95363e-07 -3.47218e-08 3.22467e-05
0.00135923 8.51193e-06 -1.72074e-06
8.51193e-06 1.67279e-05 7.51717e-07
-1.72074e-06 7.51717e-07 -5.94355e-05
0.00150189 7.35275e-07 9.7338e-08
7.35275e-07 6.35043e-05 -5.94979e-08
9.7338e-08 -5.94979e-08 -1.14105e-05
0.00105899 3.54202e-05 -2.80625e-06
3.54202e-05 -8.04328e-05 -8.31241e-07
-2.80625e-06 -8.31241e-07 -0.000157018
0.00149153 3.66653e-05 1.32612e-07
3.66653e-05 9.08396e-05 -2.19117e-08
1.32612e-07 -2.19117e-08 1.04533e-05
0.00153818 3.34122e-05 1.95223e-06
3.34122e-05 7.67445e-05 -3.59986e-07
1.95223e-06 -3.59986e-07 -7.57028e-06
0.000710595 2.91412e-05 -4.28225e-06
2.91412e-05 -0.000162559 -1.8136e-06
-4.28225e-06 -1.8136e-06 -0.000228474
0.00139311 5.07838e-05 4.43759e-07
5.07838e-05 0.000119846 8.91141e-09
4.43759e-07 8.91141e-09 4.54396e-05
0.00156639 5.57112e-05 2.31665e-06
5.57112e-05 0.000168738 1.80633e-06
2.31665e-06 1.80633e-06 9.04405e-05
0.00080416 1.14754e-05 -6.41353e-06
1.14754e-05 -1.6583e-05 -3.10955e-06
-6.41353e-06 -3.10955e-06 -5.6236e-05
0.000821067 3.01471e-05 -1.04023e-07
3.01471e-05 -7.30188e-05 9.10788e-08
-1.04023e-07 9.10788e-08 -0.000137233
0.000895468 4.58935e-05 2.39352e-06
4.58935e-05 -7.919e-05 1.87243e-06
2.39352e-06 1.87243e-06 -0.000154462
0.00306643 -5.50008e-05 -2.83749e-05
-5.50008e-05 0.00116467 -2.95914e-06
-2.83749e-05 -2.95914e-06 0.00116175
0.000750166 -4.40143e-06 -1.39978e-07
-4.40143e-06 -3.0194e-05 -5.91099e-08
-1.39978e-07 -5.91099e-08 -6.59008e-05
0.000928749 2.4247e-05 2.27915e-06
2.4247e-05 1.06315e-05 1.43049e-06
2.27915e-06 1.43049e-06 -5.01598e-05
0.000688372 -2.3033e-05 4.42275e-06
-2.3033e-05 -5.68553e-05 2.91374e-06
4.42275e-06 2.91374e-06 -8.82683e-05
0.00281662 -5.35637e-05 -2.5852e-07
-5.35637e-05 0.00102495 1.05804e-07
-2.5852e-07 1.05804e-07 0.00102636
0.00274772 -5.08463e-05 2.13889e-05
-5.08463e-05 0.000972661 3.12396e-06
2.13889e-05 3.12396e-06 0.000978002
0.00147124 -1.55503e-05 -1.4897e-06
-1.55503e-05 7.42765e-05 -2.02645e-07
-1.4897e-06 -2.02645e-07 -2.76343e-06
0.00150587 -1.55925e-05 -2.96599e-07
-1.55925e-05 7.98103e-05 -2.7986e-07
-2.96599e-07 -2.7986e-07 3.76188e-06
0.00161743 -1.026e-05 1.25799e-06
-1.026e-05 0.000108042 -9.3702e-07
1.25799e-06 -9.3702e-07 3.31342e-05
0.00149599 1.2931e-05 -1.44522e-06
1.2931e-05 9.8447e-05 -1.98136e-08
-1.44522e-06 -1.98136e-08 1.84783e-05
0.00146154 2.21858e-06 -2.82643e-07
2.21858e-06 7.80991e-05 -2.30157e-07
-2.82643e-07 -2.30157e-07 -1.29389e-06
0.00151253 -9.49919e-07 1.62636e-07
-9.49919e-07 0.000106569 2.26909e-08
1.62636e-07 2.26909e-08 3.21714e-05
0.0013854 2.95052e-05 9.52511e-07
2.95052e-05 5.34798e-05 -6.01647e-07
9.52511e-07 -6.01647e-07 -2.4711e-05
0.00144083 2.58957e-05 2.65444e-07
2.58957e-05 8.76704e-05 1.32202e-07
2.65444e-07 1.32202e-07 1.08197e-05
0.00145815 1.99812e-05 -2.03243e-06
1.99812e-05 0.000115186 3.74657e-07
-2.03243e-06 3.74657e-07 4.21968e-05
0.00145904 2.62127e-05 2.212e-06
2.62127e-05 8.93624e-05 8.96056e-07
2.212e-06 8.96056e-07 1.46111e-05
0.00140723 2.50977e-05 9.82134e-08
2.50977e-05 8.87788e-05 6.01652e-08
9.82134e-08 6.01652e-08 1.61879e-05
0.000912087 1.79173e-05 -4.99089e-06
1.79173e-05 -0.000105168 6.92224e-07
-4.99089e-06 6.92224e-07 -0.00017037
0.00131645 3.76502e-06 2.29671e-06
3.76502e-06 4.35716e-05 1.95932e-08
2.29671e-06 1.95932e-08 -2.90746e-05
0.00112632 2.21949e-06 -2.77612e-08
2.21949e-06 7.51184e-06 4.57824e-08
-2.77612e-08 4.57824e-08 -5.55222e-05
0.000713107 3.70455e-06 -6.57154e-06
3.70455e-06 -8.1145e-05 2.00675e-06
-6.57154e-06 2.00675e-06 -0.000120538
0.00112064 -1.75469e-05 4.04588e-06
-1.75469e-05 1.4085e-05 -1.10707e-06
4.04588e-06 -1.10707e-06 -4.86545e-05
0.000716314 -4.50062e-07 -7.77623e-08
-4.50062e-07 -7.63309e-05 1.23563e-07
-7.77623e-08 1.23563e-07 -0.000115707
0.00355941 7.03613e-05 -3.25671e-05
7.03613e-05 0.0014272 1.38607e-06
-3.25671e-05 1.38607e-06 0.0014186
0.000764365 -1.2961e-05 8.63057e-06
-1.2961e-05 -4.97034e-05 -3.27751e-06
8.63057e-06 -3.27751e-06 -8.91263e-05
0.00243613 5.43872e-05 1.03264e-05
5.43872e-05 0.000861085 6.40308e-07
1.03264e-05 6.40308e-07 0.000846762
0.00126514 3.96487e-05 7.11667e-06
3.96487e-05 0.000269288 -1.31268e-06
7.11667e-06 -1.31268e-06 0.000250425
0.0016265 -1.69796e-05 -9.97225e-07
-1.69796e-05 0.000152394 5.22712e-09
-9.97225e-07 5.22712e-09 7.66771e-05
0.00143231 -4.79644e-06 -1.27833e-06
-4.79644e-06 6.06397e-05 9.2287e-08
-1.27833e-06 9.2287e-08 -1.35289e-05
0.00146616 -9.20482e-06 -1.26602e-07
-9.20482e-06 5.96116e-05 6.10587e-08
-1.26602e-07 6.10587e-08 -1.51579e-05
0.00129428 1.6132e-05 -2.34055e-06
1.6132e-05 2.46572e-05 1.55398e-07
-2.34055e-06 1.55398e-07 -4.8805e-05
0.00137612 8.05757e-06 4.16794e-07
8.05757e-06 2.69903e-05 -1.66744e-07
4.16794e-07 -1.66744e-07 -4.89434e-05
0.00150542 6.28588e-07 1.51928e-06
6.28588e-07 6.81266e-05 -8.5823e-07
1.51928e-06 -8.5823e-07 -6.92677e-06
0.000782233 2.56669e-05 -4.82223e-06
2.56669e-05 -0.000157215 -1.5861e-06
-4.82223e-06 -1.5861e-06 -0.000223679
0.00138099 4.00247e-05 -6.05816e-07
4.00247e-05 7.88345e-05 -1.29416e-07
-6.05816e-07 -1.29416e-07 3.44402e-06
0.00151976 3.69089e-05 2.68114e-06
3.69089e-05 0.000106682 -1.20657e-07
2.68114e-06 -1.20657e-07 2.70922e-05
0.000771009 1.89666e-05 -7.19357e-06
1.89666e-05 -4.38277e-05 -3.07231e-06
-7.19357e-06 -3.07231e-06 -8.55407e-05
0.000773706 3.06116e-05 -1.0806e-06
3.06116e-05 -0.000135383 -4.18772e-07
-1.0806e-06 -4.18772e-07 -0.000201561
0.0014005 5.14034e-05 2.68579e-06
5.14034e-05 0.000122822 1.18999e-06
2.68579e-06 1.18999e-06 4.83711e-05
0.00336721 -5.61396e-05 -3.31633e-05
-5.61396e-05 0.00132275 -2.72399e-06
-3.31633e-05 -2.72399e-06 0.00131675
0.000744158 9.14304e-06 -1.92984e-07
9.14304e-06 -4.16819e-05 1.04461e-07
-1.92984e-07 1.04461e-07 -8.15525e-05
0.000674632 2.74767e-05 2.70792e-06
2.74767e-05 -0.000147905 1.83325e-06
2.70792e-06 1.83325e-06 -0.00021291
0.00300284 -5.69173e-05 -3.65702e-07
-5.69173e-05 0.00113155 1.34389e-07
-3.65702e-07 1.34389e-07 0.00112921
0.000678747 -6.3924e-06 4.9611e-06
-6.3924e-06 -6.08672e-05 3.08916e-06
4.9611e-06 3.08916e-06 -9.67913e-05
0.00279851 -5.38563e-05 2.22518e-05
-5.38563e-05 0.00101332 2.96626e-06
2.22518e-05 2.96626e-06 0.00101539
0.00150095 -1.77371e-06 -1.42699e-06
-1.77371e-06 9.94939e-05 -2.89308e-07
-1.42699e-06 -2.89308e-07 2.16027e-05
0.00148467 -1.46289e-05 2.70759e-07
-1.46289e-05 8.07667e-05 1.58196e-07
2.70759e-07 1.58196e-07 3.67049e-06
0.00148744 -1.51994e-05 5.09738e-07
-1.51994e-05 7.20842e-05 -5.16276e-07
5.09738e-07 -5.16276e-07 -3.52809e-06
0.00148118 1.61502e-06 -2.51063e-06
1.61502e-06 0.000111216 2.60722e-08
-2.51063e-06 2.60722e-08 3.54592e-05
0.00150417 1.28663e-05 2.43937e-07
1.28663e-05 0.000104423 -5.98327e-08
2.43937e-07 -5.98327e-08 2.45208e-05
0.00149329 8.05142e-06 1.41586e-06
8.05142e-06 9.29155e-05 -4.39859e-08
1.41586e-06 -4.39859e-08 1.30401e-05
0.00143997 2.68045e-05 1.73174e-06
2.68045e-05 8.65903e-05 -3.09126e-07
1.73174e-06 -3.09126e-07 9.8616e-06
0.00145188 2.04838e-05 4.66683e-07
2.04838e-05 0.000111626 -4.62914e-08
4.66683e-07 -4.62914e-08 3.87966e-05
0.000914483 1.29949e-05 -4.97692e-06
1.29949e-05 -0.000110047 7.48278e-07
-4.97692e-06 7.48278e-07 -0.000176285
0.00153286 2.70576e-05 2.64228e-06
2.70576e-05 0.000153122 1.69865e-07
2.64228e-06 1.69865e-07 8.13779e-05
0.00102473 1.9495e-05 -7.51784e-07
1.9495e-05 -4.81996e-05 1.68003e-07
-7.51784e-07 1.68003e-07 -0.000112567
0.000723616 7.83233e-06 -7.01972e-06
7.83233e-06 -7.94719e-05 1.7739e-06
-7.01972e-06 1.7739e-06 -0.000119812
0.00112193 1.30542e-06 4.05933e-06
1.30542e-06 5.16005e-06 -8.33214e-07
4.05933e-06 -8.33214e-07 -5.78542e-05
0.000716287 1.07531e-05 1.4902e-07
1.07531e-05 -7.95619e-05 4.26238e-08
1.4902e-07 4.26238e-08 -0.000119239
0.00363617 7.33646e-05 -3.46398e-05
7.33646e-05 0.00146764 8.94091e-07
-3.46398e-05 8.94091e-07 0.00145837
0.000723688 4.19554e-06 6.36359e-06
4.19554e-06 -7.34189e-05 -2.10808e-06
6.36359e-06 -2.10808e-06 -0.00011271
0.0035913 6.92247e-05 2.16341e-07
6.92247e-05 0.00144334 1.3817e-07
2.16341e-07 1.3817e-07 0.00143474
0.00140266 2.93625e-05 2.94668e-05
2.93625e-05 0.000341064 -2.00766e-06
2.94668e-05 -2.00766e-06 0.000321383
0.00158449 -1.17564e-05 -1.3463e-06
-1.17564e-05 0.000144746 -1.23726e-07
-1.3463e-06 -1.23726e-07 6.9839e-05
0.00151099 -1.69663e-05 3.83066e-07
-1.69663e-05 9.54989e-05 1.62963e-07
3.83066e-07 1.62963e-07 1.98632e-05
0.00131887 -4.38796e-06 -2.13835e-06
-4.38796e-06 3.57782e-05 -1.53674e-07
-2.13835e-06 -1.53674e-07 -3.6716e-05
0.00143478 -5.37322e-06 2.09684e-07
-5.37322e-06 6.17105e-05 -1.44567e-07
2.09684e-07 -1.44567e-07 -1.24528e-05
0.00136537 -9.1131e-06 1.48675e-06
-9.1131e-06 1.05308e-05 9.02752e-08
1.48675e-06 9.02752e-08 -6.40298e-05
0.00112621 1.43628e-05 -4.31485e-06
1.43628e-05 3.71096e-07 -9.35058e-07
-4.31485e-06 -9.35058e-07 -6.38012e-05
0.0013316 1.61969e-05 -3.56757e-08
1.61969e-05 4.19982e-05 1.02167e-07
-3.56757e-08 1.02167e-07 -3.15325e-05
0.0013966 7.64194e-06 1.54503e-06
7.64194e-06 3.88254e-05 -8.03378e-07
1.54503e-06 -8.03378e-07 -3.68604e-05
0.000744593 1.92836e-05 -7.7123e-06
1.92836e-05 -6.56524e-05 -2.94218e-06
-7.7123e-06 -2.94218e-06 -0.000107282
0.000973159 2.8476e-05 -1.25778e-06
2.8476e-05 -6.34981e-05 -3.03367e-07
-1.25778e-06 -3.03367e-07 -0.000129308
0.00169864 4.44476e-05 2.23919e-06
4.44476e-05 0.000235888 4.56026e-07
2.23919e-06 4.56026e-07 0.000161717
0.00361799 -5.76317e-05 -3.65576e-05
-5.76317e-05 0.00145227 -2.35672e-06
-3.65576e-05 -2.35672e-06 0.00144433
0.000737632 1.7464e-05 -8.20349e-08
1.7464e-05 -5.72536e-05 1.48772e-07
-8.20349e-08 1.48772e-07 -9.91536e-05
0.000829505 3.20513e-05 2.56888e-06
3.20513e-05 -0.000111774 1.19182e-06
2.56888e-06 1.19182e-06 -0.000178206
0.00328012 -5.95151e-05 -6.40056e-07
-5.95151e-05 0.00127891 1.73034e-07
-6.40056e-07 1.73034e-07 0.0012733
0.000687624 6.74909e-06 5.60714e-06
6.74909e-06 -6.5167e-05 3.38366e-06
5.60714e-06 3.38366e-06 -0.000105251
0.00294293 -5.73597e-05 2.36753e-05
-5.73597e-05 0.0011 2.86285e-06
2.36753e-05 2.86285e-06 0.00109838
0.00148805 2.60216e-06 -2.06539e-06
2.60216e-06 0.000117284 -5.29753e-07
-2.06539e-06 -5.29753e-07 4.30196e-05
0.00149159 -4.21477e-06 1.6724e-07
-4.21477e-06 9.64991e-05 1.44729e-07
1.6724e-07 1.44729e-07 1.87969e-05
0.00150376 -1.42773e-05 1.89742e-06
-1.42773e-05 9.01499e-05 5.43821e-07
1.89742e-06 5.43821e-07 1.29679e-05
0.000919254 -1.03506e-05 -5.54171e-06
-1.03506e-05 -0.000116394 1.91795e-07
-5.54171e-06 1.91795e-07 -0.000184275
0.00149561 8.43965e-06 4.82597e-07
8.43965e-06 0.000118993 1.04825e-07
4.82597e-07 1.04825e-07 4.3138e-05
0.00150115 1.30048e-05 2.05533e-06
1.30048e-05 0.000104996 -2.26224e-07
2.05533e-06 -2.26224e-07 2.51714e-05
0.00144821 2.06715e-05 2.85638e-06
2.06715e-05 0.00010938 -1.61182e-07
2.85638e-06 -1.61182e-07 3.67021e-05
0.000921462 1.31374e-05 -5.57457e-07
1.31374e-05 -0.000106003 1.38737e-07
-5.57457e-07 1.38737e-07 -0.000171976
0.00071636 1.15774e-05 -7.33791e-06
1.15774e-05 -8.93354e-05 1.24652e-06
-7.33791e-06 1.24652e-06 -0.000130076
0.00113445 2.20286e-05 3.41126e-06
2.20286e-05 7.30092e-06 -5.48796e-07
3.41126e-06 -5.48796e-07 -5.62563e-05
0.000725766 1.65265e-05 2.10347e-07
1.65265e-05 -7.82479e-05 6.65555e-08
2.10347e-07 6.65555e-08 -0.000118828
0.00372076 7.74069e-05 -3.66105e-05
7.74069e-05 0.0015104 4.24467e-07
-3.66105e-05 4.24467e-07 0.0015005
0.00072149 1.86957e-05 6.5218e-06
1.86957e-05 -7.72448e-05 -1.86815e-06
6.5218e-06 -1.86815e-06 -0.000117027
0.00367176 7.2551e-05 3.94911e-07
7.2551e-05 0.00148507 1.35399e-07
3.94911e-07 1.35399e-07 0.00147584
0.00363924 6.83167e-05 3.59377e-05
6.83167e-05 0.00146718 -1.0783e-06
3.59377e-05 -1.0783e-06 0.00145857
0.00137202 -8.86093e-06 -2.37796e-06
-8.86093e-06 6.39746e-05 -5.30182e-07
-2.37796e-06 -5.30182e-07 -9.4674e-06
0.00148675 -1.27044e-05 1.79975e-07
-1.27044e-05 9.5532e-05 1.83786e-07
1.79975e-07 1.83786e-07 2.05005e-05
0.00138488 -1.67195e-05 1.34408e-06
-1.67195e-05 3.32641e-05 2.48546e-07
1.34408e-06 2.48546e-07 -4.22538e-05
0.00112608 -5.40748e-06 -4.29479e-06
-5.40748e-06 -3.31374e-06 -1.07752e-06
-4.29479e-06 -1.07752e-06 -6.70507e-05
0.00133857 -4.728e-06 1.33397e-07
-4.728e-06 4.5118e-05 -1.07356e-07
1.33397e-07 -1.07356e-07 -2.74173e-05
0.00143563 -5.92324e-06 1.22851e-06
-5.92324e-06 6.20428e-05 -4.6945e-07
1.22851e-06 -4.6945e-07 -1.21215e-05
0.00072172 1.10388e-05 -7.75316e-06
1.10388e-05 -8.15921e-05 -2.70944e-06
-7.75316e-06 -2.70944e-06 -0.000122063
0.00114562 1.38997e-05 -8.72201e-08
1.38997e-05 1.00214e-05 1.20601e-07
-8.72201e-08 1.20601e-07 -5.42258e-05
0.00136766 1.61957e-05 2.51294e-06
1.61957e-05 5.87573e-05 1.25238e-07
2.51294e-06 1.25238e-07 -1.48477e-05
0.00375521 -6.02131e-05 -3.83632e-05
-6.02131e-05 0.00152316 -1.90311e-06
-3.83632e-05 -1.90311e-06 0.00151431
0.00073113 1.8521e-05 -1.05505e-08
1.8521e-05 -7.04772e-05 1.63748e-07
-1.05505e-08 1.63748e-07 -0.000112243
0.00117619 3.15696e-05 3.10641e-06
3.15696e-05 3.63561e-05 1.12129e-06
3.10641e-06 1.12129e-06 -2.88546e-05
0.00352711 -6.04902e-05 -5.24285e-07
-6.04902e-05 0.00140707 1.76463e-07
-5.24285e-07 1.76463e-07 0.00139932
0.000708929 1.58705e-05 6.49506e-06
1.58705e-05 -6.86104e-05 3.32321e-06
6.49506e-06 3.32321e-06 -0.000110664
0.00317722 -6.10657e-05 2.64733e-05
-6.10657e-05 0.00122738 2.75769e-06
2.64733e-05 2.75769e-06 0.00122225
0.0011619 -3.98907e-06 -4.8066e-06
-3.98907e-06 6.27931e-06 -6.70858e-07
-4.8066e-06 -6.70858e-07 -5.94596e-05
0.00138535 -2.06979e-06 4.64832e-07
-2.06979e-06 6.53512e-05 -7.45699e-08
4.64832e-07 -7.45699e-08 -1.00055e-05
0.00148624 -7.59352e-06 1.99065e-06
-7.59352e-06 9.52536e-05 8.33502e-07
1.99065e-06 8.33502e-07 1.77497e-05
0.000703868 7.96041e-06 -7.63096e-06
7.96041e-06 -0.000100395 2.34872e-07
-7.63096e-06 2.34872e-07 -0.00014076
0.00093904 -2.80156e-06 -6.85023e-07
-2.80156e-06 -0.00010667 2.82647e-07
-6.85023e-07 2.82647e-07 -0.000174278
0.00151289 1.46044e-05 3.39812e-06
1.46044e-05 0.000128249 -2.26738e-07
3.39812e-06 -2.26738e-07 5.22763e-05
0.000928481 1.35227e-05 3.48297e-06
1.35227e-05 -0.000102074 -3.42171e-07
3.48297e-06 -3.42171e-07 -0.000167755
0.000724688 1.36916e-05 1.2218e-07
1.36916e-05 -8.4874e-05 1.58443e-07
1.2218e-07 1.58443e-07 -0.000125827
0.00384094 8.22084e-05 -3.84093e-05
8.22084e-05 0.00156842 -4.96055e-08
-3.84093e-05 -4.96055e-08 0.00155801
0.000729245 2.37735e-05 6.96777e-06
2.37735e-05 -7.63602e-05 -1.57465e-06
6.96777e-06 -1.57465e-06 -0.000117255
0.00376974 7.63873e-05 8.87562e-07
7.63873e-05 0.00153388 1.60103e-07
8.87562e-07 1.60103e-07 0.00152405
0.0037018 7.07896e-05 3.84996e-05
7.07896e-05 0.00149975 -6.1997e-07
3.84996e-05 -6.1997e-07 0.00149063
0.00114612 -9.72237e-06 -4.66542e-06
-9.72237e-06 3.68158e-06 -1.21027e-06
-4.66542e-06 -1.21027e-06 -6.08695e-05
0.00132493 -1.01813e-05 -6.31408e-08
-1.01813e-05 3.95651e-05 -5.56684e-08
-6.31408e-08 -5.56684e-08 -3.42031e-05
0.00139568 -1.37261e-05 1.59439e-06
-1.37261e-05 4.96536e-05 2.67472e-07
1.59439e-06 2.67472e-07 -2.55208e-05
0.00195174 -1.15221e-05 -2.14831e-05
-1.15221e-05 0.00053343 -1.83756e-06
-2.14831e-05 -1.83756e-06 0.000500141
0.00114876 -6.21758e-06 1.06649e-07
-6.21758e-06 7.805e-06 3.74735e-09
1.06649e-07 3.74735e-09 -5.60442e-05
0.0013624 -5.28369e-06 2.38039e-06
-5.28369e-06 5.64793e-05 -3.07832e-08
2.38039e-06 -3.07832e-08 -1.61062e-05
0.0038057 -6.38754e-05 -3.92936e-05
-6.38754e-05 0.0015499 -1.40039e-06
-3.92936e-05 -1.40039e-06 0.00154074
0.000726852 1.16538e-05 -9.02457e-09
1.16538e-05 -7.86889e-05 1.4545e-07
-9.02457e-09 1.4545e-07 -0.000119236
0.00116639 1.26854e-05 4.46984e-06
1.26854e-05 2.03961e-05 1.24748e-06
4.46984e-06 1.24748e-06 -4.39731e-05
0.00369161 -6.16135e-05 -3.71152e-07
-6.16135e-05 0.00149157 1.75132e-07
-3.71152e-07 1.75132e-07 0.00148277
0.000718924 1.80126e-05 7.19875e-06
1.80126e-05 -7.48155e-05 3.16385e-06
7.19875e-06 3.16385e-06 -0.000116718
0.00344355 -6.34216e-05 3.09704e-05
-6.34216e-05 0.00136549 2.50912e-06
3.09704e-05 2.50912e-06 0.0013579
0.000746322 3.55022e-06 -1.03669e-05
3.55022e-06 -7.90518e-05 -1.09988e-06
-1.03669e-05 -1.09988e-06 -0.000119465
0.00105059 -6.52567e-06 8.84683e-08
-6.52567e-06 -4.98358e-05 2.32597e-07
8.84683e-08 2.32597e-07 -0.000116268
0.00127262 -6.4616e-06 3.21638e-06
-6.4616e-06 8.2677e-06 5.53213e-07
3.21638e-06 5.53213e-07 -6.81041e-05
0.00394717 6.54583e-06 -3.87426e-05
6.54583e-06 0.00161587 -5.26212e-07
-3.87426e-05 -5.26212e-07 0.00160762
0.000719662 6.73559e-06 5.91089e-08
6.73559e-06 -9.25387e-05 1.4237e-07
5.91089e-08 1.4237e-07 -0.000133095
0.00094879 4.43317e-06 3.91514e-06
4.43317e-06 -0.000101763 5.68303e-08
3.91514e-06 5.68303e-08 -0.000169118
0.000732722 2.0031e-05 7.4473e-06
2.0031e-05 -8.0303e-05 -9.03816e-07
7.4473e-06 -9.03816e-07 -0.000121701
0.00389126 8.00908e-05 1.7389e-06
8.00908e-05 0.00159256 2.19998e-07
1.7389e-06 2.19998e-07 0.00158234
0.00381385 7.37589e-05 4.18296e-05
7.37589e-05 0.00155492 -1.45201e-07
4.18296e-05 -1.45201e-07 0.00154529
0.002006 -2.30832e-05 -2.50347e-05
-2.30832e-05 0.000556786 -1.73597e-06
-2.50347e-05 -1.73597e-06 0.000523058
0.00115768 -8.52407e-06 -6.25584e-08
-8.52407e-06 9.17498e-06 1.56796e-08
-6.25584e-08 1.56796e-08 -5.52909e-05
0.00127705 -1.13674e-05 2.34829e-06
-1.13674e-05 1.47953e-05 4.23905e-07
2.34829e-06 4.23905e-07 -5.92965e-05
0.00374697 -9.14332e-05 -1.02058e-05
-9.14332e-05 0.00152688 -6.11555e-07
-1.02058e-05 -6.11555e-07 0.00151527
0.00072173 -5.97482e-07 2.06994e-08
-5.97482e-07 -8.34835e-05 5.7012e-08
2.06994e-08 5.7012e-08 -0.000123305
0.00117376 -5.69465e-06 4.49527e-06
-5.69465e-06 1.9959e-05 1.05759e-06
4.49527e-06 1.05759e-06 -4.39404e-05
0.00376392 -6.40166e-05 -2.59851e-07
-6.40166e-05 0.00152904 1.69859e-07
-2.59851e-07 1.69859e-07 0.00151986
0.000726922 1.27157e-05 7.7768e-06
1.27157e-05 -7.83022e-05 2.92101e-06
7.7768e-06 2.92101e-06 -0.000118906
0.00362156 -6.39773e-05 3.45862e-05
-6.39773e-05 0.00145709 2.14636e-06
3.45862e-05 2.14636e-06 0.00144827
0.00145908 -9.25424e-06 -4.05998e-05
-9.25424e-06 0.000364531 -3.71885e-07
-4.05998e-05 -3.71885e-07 0.000344704
0.0013626 -4.30967e-06 -9.06354e-06
-4.30967e-06 0.000230418 2.76603e-07
-9.06354e-06 2.76603e-07 0.000193603
0.000947631 -5.18899e-06 4.87868e-06
-5.18899e-06 -0.000101798 9.20034e-07
4.87868e-06 9.20034e-07 -0.000168879
0.00395121 1.0233e-05 1.47421e-06
1.0233e-05 0.00162014 -2.8849e-07
1.47421e-06 -2.8849e-07 0.00161066
0.000728063 4.92384e-06 7.86755e-06
4.92384e-06 -8.81128e-05 5.28744e-08
7.86755e-06 5.28744e-08 -0.000128755
0.00393274 7.62448e-05 4.2491e-05
7.62448e-05 0.00161263 3.44493e-07
4.2491e-05 3.44493e-07 0.00160259
0.00138428 -4.43312e-05 -6.56212e-06
-4.43312e-05 0.000334936 -1.00918e-06
-6.56212e-06 -1.00918e-06 0.000312443
0.00135595 -6.12976e-06 -8.53052e-06
-6.12976e-06 0.00023088 1.59687e-07
-8.53052e-06 1.59687e-07 0.000194408
0.00116757 -9.85381e-06 4.4781e-06
-9.85381e-06 1.39832e-05 1.16379e-06
4.4781e-06 1.16379e-06 -5.0477e-05
0.00256273 -5.46084e-05 1.5703e-05
-5.46084e-05 0.000927689 -3.57225e-08
1.5703e-05 -3.57225e-08 0.000911855
0.000736717 4.40529e-06 7.98614e-06
4.40529e-06 -7.69468e-05 2.58452e-06
7.98614e-06 2.58452e-06 -0.000116629
0.00372317 -6.5049e-05 3.68858e-05
-6.5049e-05 0.00150888 1.70416e-06
3.68858e-05 1.70416e-06 0.00149963
0.0039626 -5.88717e-05 -9.71905e-07
-5.88717e-05 0.00162434 1.91488e-07
-9.71905e-07 1.91488e-07 0.00161557
0.000719387 -7.71161e-08 8.04003e-06
-7.71161e-08 -9.25886e-05 1.22443e-06
8.04003e-06 1.22443e-06 -0.00013263
0.00397434 3.3212e-05 4.19429e-05
3.3212e-05 0.00163197 -3.85169e-07
4.19429e-05 -3.85169e-07 0.00162186
0.00263278 -5.90781e-05 1.64343e-05
-5.90781e-05 0.000960414 -1.16383e-07
1.64343e-05 -1.16383e-07 0.000944268
0.000735173 -2.38966e-07 7.8903e-06
-2.38966e-07 -8.08348e-05 2.12346e-06
7.8903e-06 2.12346e-06 -0.000120526
0.00377423 -6.82915e-05 3.79133e-05
-6.82915e-05 0.00153502 1.21783e-06
3.79133e-05 1.21783e-06 0.00152556
0.0039251 -6.7868e-05 3.97321e-05
-6.7868e-05 0.00160666 1.28564e-07
3.97321e-05 1.28564e-07 0.00159747
0.0038456 -7.09989e-05 3.8772e-05
-7.09989e-05 0.0015696 6.90737e-07
3.8772e-05 6.90737e-07 0.00156005
