# vtk DataFile Version 2.0
Wound Healing Simulation
ASCII
DATASET UNSTRUCTURED_GRID
POINTS 3012 float
69.9759 18.75 4
67.2507 60.3285 4
69.976 18.75 2
73.0099 25.446 4
71.1327 20.9142 4
68.6801 16.6661 4
67.8258 19.9261 3.98325
67.2507 60.3286 2
71.1327 54.0858 4
68.6801 58.3339 4
65.6939 62.2254 4
65.3125 59.0016 3.98318
74.6784 42.3946 4
73.7221 47.2057 4
69.9759 18.75 0
73.0099 25.446 2
68.6801 16.6661 2
71.1327 20.9142 2
67.8263 19.9289 2
74.6792 32.6053 4
73.7222 27.7943 4
72.1454 23.1494 4
70.6145 26.221 3.98309
68.8861 21.9581 3.98381
67.2507 14.6715 4
66.6372 17.9719 3.98242
65.7973 21.0253 3.97455
67.2507 60.3285 0
71.1327 54.0858 2
68.6801 58.3339 2
65.694 62.2255 2
65.3136 58.9985 2
72.1454 51.8506 4
69.9759 56.25 4
68.8366 53.1131 3.98278
64.0165 64.0165 4
66.6109 57.1339 3.9829
63.8861 60.7665 3.98535
63.5004 57.7714 3.97542
60.3285 67.2507 4
74.6792 42.3947 2
73.7222 47.2057 2
74.9194 39.9526 4
74.2788 44.8158 4
72.1684 42.0856 3.98183
73.0099 49.554 4
71.2495 46.5982 3.98201
73.0099 25.446 0
71.1327 20.9142 0
68.6801 16.6661 0
67.8258 19.9261 0.0167527
74.6792 32.6053 2
73.7222 27.7943 2
67.2508 14.6715 2
72.1455 23.1494 2
70.6145 26.2214 2
66.638 17.9752 2
68.8864 21.9601 2
65.7967 21.0257 2
74.9197 35.0474 4
74.2794 30.1841 4
72.185 32.9432 3.98222
71.2785 28.4313 3.98251
69.8159 24.0597 3.98359
68.3472 26.9511 3.97303
66.7629 22.9331 3.97392
65.694 12.7746 4
65.324 16.103 3.98376
64.7134 19.1956 3.97447
63.8857 22.0363 3.97067
71.1327 54.0858 0
65.6939 62.2254 0
68.6801 58.3339 0
65.3125 59.0016 0.0168208
72.1455 51.8506 2
69.9759 56.25 2
68.8368 53.1111 2
64.0165 64.0165 2
66.6117 57.1306 2
63.8876 60.7643 2
63.5001 57.7717 2
62.2254 65.694 4
58.895 65.4144 3.99158
69.7692 50.989 3.98276
67.7839 55.1673 3.98274
66.6494 52.2092 3.97274
62.3366 62.4279 3.98799
64.6607 56.0313 3.97475
62.2031 59.4045 3.97724
61.8212 56.679 3.97063
58.3339 68.6801 4
60.3285 67.2508 2
73.7221 47.2057 0
74.6784 42.3946 0
74.9197 39.9526 2
74.2794 44.8159 2
72.1681 42.0856 2
73.0099 49.554 2
71.2495 46.5979 2
75 37.5 4
72.4056 39.8022 3.98201
71.7828 44.353 3.98204
69.8041 41.7896 3.97191
70.5754 48.8136 3.98236
68.9124 46.0148 3.97196
74.6792 32.6053 0
73.7222 27.7943 0
67.2507 14.6715 0
72.1454 23.1494 0
70.6145 26.221 0.0169129
68.8861 21.9581 0.01619
66.6372 17.9719 0.0175768
65.7973 21.0253 0.0254474
74.9197 35.0474 2
74.2794 30.1841 2
72.1847 32.9434 2
71.2785 28.4317 2
65.694 12.7745 2
65.3253 16.1058 2
69.816 24.0608 2
68.3471 26.9513 2
64.7129 19.1957 2
66.7624 22.9335 2
63.8851 22.0363 2
72.4134 35.2241 3.98206
71.8041 30.6762 3.98236
69.8401 33.268 3.97237
68.9664 29.0377 3.9727
67.6116 24.9117 3.97331
66.1938 27.6345 3.96926
64.0165 10.9835 4
64.7555 23.8304 3.96998
63.8907 14.3265 3.98636
63.5133 17.4474 3.9761
62.9044 20.3231 3.96994
62.0894 22.9458 3.96886
60.6843 11.0974 3.98882
57.6124 11.4474 3.98172
72.1454 51.8506 0
69.9759 56.25 0
68.8366 53.1131 0.0172201
64.0165 64.0165 0
63.8861 60.7665 0.014649
66.6109 57.1339 0.0171025
63.5004 57.7714 0.0245848
62.2255 65.694 2
58.8958 65.414 2
69.7693 50.9879 2
67.7844 55.1645 2
66.649 52.2086 2
62.338 62.4265 2
64.6602 56.0312 2
62.203 59.4054 2
61.8208 56.6798 2
60.6692 63.9773 3.98991
57.0259 66.735 3.99222
57.5584 63.6924 3.98422
67.5076 50.1768 3.97225
65.7017 54.173 3.97342
64.5361 51.3843 3.96863
60.7734 60.9383 3.97995
62.818 55.0659 3.97044
60.6572 58.1578 3.97188
60.3233 55.7805 3.96987
56.25 69.9759 4
58.3339 68.6801 2
60.3285 67.2507 0
58.9215 9.6557 3.98981
62.2254 9.30607 4
73.0099 49.554 0
74.2788 44.8158 0
71.2495 46.5982 0.0179871
72.1684 42.0856 0.018167
74.9194 39.9526 0
75 37.5 2
72.4055 39.8024 2
71.7827 44.3527 2
69.8038 41.7893 2
70.5754 48.8132 2
68.9124 46.0144 2
72.489 37.512 3.98188
70.0412 39.6572 3.97182
69.4305 43.9075 3.972
67.5965 41.497 3.9689
68.266 48.1072 3.97199
66.7089 45.4393 3.96862
74.9197 35.0474 0
74.2794 30.1841 0
72.185 32.9432 0.0177793
71.2785 28.4313 0.0174926
65.694 12.7746 0
65.324 16.103 0.0162426
69.8159 24.0597 0.0164067
68.3472 26.9511 0.0269718
66.7629 22.9331 0.0260815
64.7134 19.1956 0.0255339
63.8857 22.0363 0.029335
72.4133 35.2241 2
71.8041 30.6766 2
69.8398 33.2683 2
68.9664 29.038 2
64.0165 10.9835 2
63.892 14.3286 2
63.5131 17.4468 2
67.6113 24.9121 2
66.1937 27.6345 2
62.9039 20.3229 2
64.7551 23.8304 2
62.0889 22.9458 2
60.6855 11.0986 2
57.6126 11.4466 2
70.0579 35.3916 3.97201
69.4672 31.1491 3.97234
67.6548 33.5907 3.96919
66.7715 29.6226 3.96909
65.5231 25.6992 3.96954
64.1412 28.2567 3.96926
62.3421 12.6546 3.98782
62.8539 24.639 3.96898
62.1998 15.7844 3.97925
61.8112 18.6879 3.97003
61.2118 21.3463 3.96787
60.4155 23.733 3.96861
59.2465 12.7789 3.98044
55.8744 10.2336 3.98352
56.405 13.1156 3.97801
69.7692 50.989 0.0172385
62.2254 65.694 0
58.895 65.4144 0.00842266
67.7839 55.1673 0.0172645
66.6494 52.2092 0.0272637
62.3366 62.4279 0.0120075
62.2031 59.4045 0.0227649
64.6607 56.0313 0.0252488
61.8212 56.679 0.0293652
60.6703 63.9765 2
57.0265 66.7349 2
57.5585 63.6937 2
67.5074 50.1763 2
65.7013 54.1727 2
64.5357 51.3842 2
60.7735 60.9397 2
62.8176 55.0664 2
60.657 58.1589 2
60.3231 55.7808 2
55.0715 67.932 3.99255
59.2195 62.3666 3.9813
55.8053 64.9105 3.98694
56.3268 62.0899 3.97975
65.3307 49.4076 3.96846
63.7037 53.2908 3.96892
62.4354 50.6484 3.9676
59.3329 59.5563 3.97608
61.0716 54.3042 3.96901
59.2857 57.0062 3.96942
59.2352 55.1744 3.97283
48.1033 68.5787 3.98841
50.9491 69.9316 3.99277
54.0858 71.1327 4
56.25 69.976 2
58.3339 68.6801 0
57.0589 8.33572 3.99056
60.3285 7.74928 4
58.9226 9.65648 2
62.2255 9.30602 2
70.5754 48.8136 0.0176382
71.7828 44.353 0.0179593
68.9124 46.0148 0.0280403
69.8041 41.7896 0.0280947
72.4056 39.8022 0.0179925
75 37.5 0
72.4887 37.5121 2
70.0411 39.6571 2
69.4304 43.9072 2
67.5963 41.4969 2
68.266 48.1067 2
66.7088 45.4391 2
70.1293 37.5213 3.97205
67.8337 39.5119 3.96898
67.2229 43.4693 3.96878
65.5405 41.2079 3.96999
66.0677 47.4174 3.96853
64.6412 44.8456 3.96906
72.4134 35.2241 0.0179376
71.8041 30.6762 0.0176445
69.8401 33.268 0.0276328
68.9664 29.0377 0.0272953
64.0165 10.9835 0
63.8907 14.3265 0.0136424
63.5133 17.4474 0.0238966
67.6116 24.9117 0.026691
66.1938 27.6345 0.0307435
64.7555 23.8304 0.030023
62.9044 20.3231 0.0300593
62.0894 22.9458 0.0311397
60.6843 11.0974 0.0111813
57.6124 11.4474 0.0182791
70.0578 35.3918 2
69.4671 31.1493 2
67.6545 33.5908 2
66.7715 29.6226 2
62.3434 12.6562 2
62.1996 15.7836 2
61.811 18.687 2
65.5228 25.6993 2
64.1409 28.2568 2
61.2113 21.3462 2
62.8536 24.639 2
60.4158 23.7331 2
59.2466 12.7783 2
56.4048 13.1145 2
55.8746 10.2327 2
67.8698 35.5473 3.96912
67.2645 31.6222 3.96906
65.6879 33.9276 3.97013
64.6555 30.1931 3.96928
63.5344 26.4156 3.96911
62.2375 28.7818 3.97204
60.7759 14.2233 3.98036
61.034 25.3427 3.96998
60.612 17.1293 3.97489
60.2151 19.8234 3.96626
59.648 22.2654 3.96644
58.9585 24.3288 3.97039
54.0376 9.1362 3.98483
57.9102 14.3337 3.97873
54.7866 12.0142 3.97939
55.3115 14.651 3.97656
67.5076 50.1768 0.0277511
57.0259 66.735 0.00778027
60.6692 63.9773 0.0100903
57.5584 63.6924 0.0157818
65.7017 54.173 0.026576
64.5361 51.3843 0.0313678
60.7734 60.9383 0.0200502
60.6572 58.1578 0.0281214
62.818 55.0659 0.0295632
60.3233 55.7805 0.0301294
55.0719 67.932 2
59.2197 62.3678 2
55.8053 64.9116 2
56.3269 62.0913 2
65.3304 49.4075 2
63.7034 53.2909 2
62.4357 50.6484 2
59.3329 59.5576 2
61.0714 54.3043 2
59.2858 57.0063 2
59.2351 55.1743 2
53.0433 68.9998 3.99267
53.9678 66.0132 3.98787
57.8804 60.8695 3.97833
54.6842 63.2079 3.98272
55.2105 60.6145 3.9775
63.1834 48.6575 3.96805
61.736 52.5711 3.96759
60.2471 50.0096 3.96836
58.0159 58.2579 3.97207
59.3179 53.9385 3.96776
58.1192 55.7997 3.96628
50.1101 67.8567 3.98834
47.4637 66.581 3.98566
46.0568 69.158 3.98845
48.1033 68.5792 2
48.8032 70.7229 3.99286
50.9495 69.9317 2
51.8506 72.1454 4
54.0858 71.1327 2
56.25 69.9759 0
55.1034 7.14028 3.99124
58.3339 6.31992 4
57.0598 8.33609 2
60.3286 7.74926 2
58.9215 9.6557 0.0101932
62.2254 9.30607 0
68.266 48.1072 0.0280058
69.4305 43.9075 0.0279997
66.7089 45.4393 0.0313844
67.5965 41.497 0.0310951
70.0412 39.6572 0.0281812
72.489 37.512 0.0181211
70.1291 37.5213 2
67.8337 39.5118 2
67.2228 43.4692 2
65.5401 41.2078 2
66.0677 47.4172 2
64.6408 44.8455 2
67.9302 37.5216 3.96919
65.7719 39.3689 3.97023
65.1648 43.023 3.96962
63.7112 40.9263 3.9726
63.9516 46.7133 3.9685
62.7752 44.2108 3.97239
70.0579 35.3916 0.0279881
69.4672 31.1491 0.0276645
67.6548 33.5907 0.0308054
66.7715 29.6226 0.030907
62.3421 12.6546 0.0121775
62.1998 15.7844 0.0207543
61.8112 18.6879 0.0299658
65.5231 25.6992 0.0304569
64.1412 28.2567 0.0307426
62.8539 24.639 0.031023
61.2118 21.3463 0.0321314
60.4155 23.733 0.0313882
59.2465 12.7789 0.0195592
56.405 13.1156 0.0219927
55.8744 10.2336 0.0164756
67.8697 35.5473 2
67.2644 31.6222 2
65.6877 33.9276 2
64.6552 30.1931 2
60.7758 14.2226 2
60.6117 17.1281 2
60.2151 19.8228 2
63.5341 26.4156 2
62.2369 28.7819 2
59.6494 22.2653 2
61.0339 25.3428 2
58.9583 24.3292 2
57.9097 14.3328 2
55.311 14.6502 2
54.0378 9.13541 2
54.7865 12.0131 2
65.8614 35.6666 3.97012
65.1738 32.1552 3.96964
64.253 34.2503 3.97235
62.5587 30.6393 3.97227
61.6309 27.0773 3.97068
60.8111 29.1462 3.97512
59.3105 15.67 3.97788
59.2995 25.8053 3.97297
59.1191 18.3607 3.97129
58.7246 20.8637 3.96449
58.264 23.1021 3.96628
57.935 24.6756 3.97202
52.1123 8.15418 3.9859
53.058 11.0193 3.98099
56.6754 15.7463 3.97789
53.8086 13.6858 3.97704
54.3742 16.0059 3.97733
55.0715 67.932 0.00745007
65.3307 49.4076 0.0315363
55.8053 64.9105 0.0130574
59.2195 62.3666 0.0186969
56.3268 62.0899 0.0202463
63.7037 53.2908 0.0310805
62.4354 50.6484 0.032403
59.3329 59.5563 0.0239154
59.2857 57.0062 0.0305815
61.0716 54.3042 0.0309926
59.2352 55.1744 0.0271718
53.0437 68.9999 2
53.9676 66.0139 2
57.8802 60.8707 2
54.6841 63.2091 2
55.2105 60.616 2
63.1831 48.6573 2
61.7359 52.5711 2
60.2471 50.0094 2
58.0158 58.2596 2
59.3181 53.9383 2
58.1191 55.7992 2
52.0712 66.9998 3.98821
52.9539 64.2191 3.98469
56.6469 59.4866 3.97608
53.681 61.6219 3.98031
54.2582 59.3176 3.97607
60.9546 47.8711 3.96922
59.691 52.0956 3.96783
57.976 49.6014 3.97084
56.7715 56.9752 3.96906
57.104 54.1068 3.96652
50.11 67.8573 2
49.3375 65.9214 3.98555
47.4636 66.5815 2
46.893 64.7359 3.98411
45.5587 67.0981 3.98565
43.9737 69.5903 3.98848
46.0569 69.1585 2
46.6098 71.3674 3.99286
48.1033 68.5787 0.0115885
48.8036 70.7231 2
49.554 73.0099 4
50.9491 69.9316 0.00723004
51.8506 72.1455 2
54.0858 71.1327 0
53.0647 6.07185 3.99156
55.1041 7.1404 2
56.25 5.02411 4
58.3339 6.3199 2
57.0589 8.33572 0.00944068
60.3285 7.74928 0
66.0677 47.4174 0.0314737
67.2229 43.4693 0.0312151
64.6412 44.8456 0.0309437
65.5405 41.2079 0.030009
67.8337 39.5119 0.0310226
70.1293 37.5213 0.0279486
67.93 37.5216 2
65.7715 39.3688 2
65.1644 43.0229 2
63.7106 40.9262 2
63.9512 46.7131 2
62.7742 44.2105 2
65.8744 37.501 3.97013
63.8491 39.2644 3.97233
63.2868 42.5456 3.97245
62.364 40.6936 3.9755
61.9332 45.9117 3.97107
61.3932 43.6756 3.97559
67.8698 35.5473 0.0308788
67.2645 31.6222 0.0309351
65.6879 33.9276 0.0298699
64.6555 30.1931 0.030719
60.7759 14.2233 0.0196441
60.612 17.1293 0.0251125
60.2151 19.8234 0.0337411
63.5344 26.4156 0.0308913
62.2375 28.7818 0.0279622
61.034 25.3427 0.0300198
59.648 22.2654 0.0335607
58.9585 24.3288 0.0296071
57.9102 14.3337 0.021265
55.3115 14.651 0.023436
54.0376 9.1362 0.0151746
54.7866 12.0142 0.0206115
65.8611 35.6666 2
65.1738 32.1552 2
64.2528 34.2503 2
62.5582 30.6394 2
59.31 15.6691 2
59.1191 18.3595 2
58.7255 20.8639 2
61.6303 27.0775 2
60.811 29.1464 2
58.2646 23.1024 2
59.2998 25.8057 2
57.9352 24.6762 2
56.6748 15.7452 2
54.3734 16.0053 2
53.8083 13.6846 2
52.1124 8.15354 2
53.0579 11.0184 2
64.0474 35.6322 3.9719
62.8809 33.0483 3.97291
60.5572 30.6176 3.97543
59.5253 27.9187 3.97428
57.9372 16.987 3.97624
57.6955 25.7378 3.9746
57.7044 19.4852 3.9683
57.3441 21.8533 3.96357
57.1479 23.96 3.9688
50.1125 7.28535 3.98702
51.2327 10.1266 3.98249
52.1716 12.8014 3.97929
55.5345 16.9785 3.97747
52.9759 15.2719 3.97521
53.7545 16.9894 3.97967
53.0433 68.9998 0.00732958
53.9678 66.0132 0.0121338
63.1834 48.6575 0.0319525
54.6842 63.2079 0.0172819
57.8804 60.8695 0.0216691
55.2105 60.6145 0.022503
61.736 52.5711 0.0324093
60.2471 50.0096 0.0316386
58.0159 58.2579 0.0279255
58.1192 55.7997 0.0337209
59.3179 53.9385 0.0322373
52.0711 67.0003 2
52.9537 64.2199 2
56.6467 59.4875 2
53.6809 61.6233 2
54.2583 59.319 2
60.9536 47.8708 2
59.6918 52.0955 2
57.9743 49.6007 2
56.771 56.9798 2
57.1039 54.1065 2
51.1685 65.1283 3.98537
52.0465 62.5389 3.98243
55.4775 58.2458 3.97676
52.8332 60.1334 3.97818
53.6362 58.4672 3.97948
58.2366 46.8335 3.97384
57.5331 51.7713 3.96835
56.1796 49.5355 3.97088
55.4601 55.774 3.96605
55.3302 53.3641 3.96493
50.1101 67.8567 0.0116629
49.3374 65.9219 2
48.6188 64.1226 3.98426
47.4637 66.581 0.0143393
45.5587 67.0987 2
46.8929 64.7365 2
46.3827 63.0527 3.98353
45.1332 65.197 3.98406
43.6318 67.4687 3.98571
41.8608 69.8777 3.98834
43.9737 69.5908 2
44.3771 71.8622 3.99275
46.0568 69.158 0.0115539
46.6101 71.3676 2
47.2057 73.7222 4
48.8032 70.7229 0.00714264
49.554 73.0099 2
51.8506 72.1454 0
50.9546 5.132 3.99205
53.0652 6.07181 2
54.0858 3.86728 4
55.1034 7.14028 0.00876095
56.25 5.02406 2
58.3339 6.31992 0
63.9516 46.7133 0.0314964
65.1648 43.023 0.0303844
62.7752 44.2108 0.0276057
63.7112 40.9263 0.027399
65.7719 39.3689 0.0297685
67.9302 37.5216 0.030808
65.874 37.501 2
63.8484 39.2644 2
63.2861 42.5454 2
62.3632 40.6935 2
61.9321 45.9114 2
61.392 43.6753 2
63.9106 37.4558 3.97187
62.0779 39.3522 3.97414
61.1429 41.9514 3.9755
60.1929 44.7601 3.97526
65.8614 35.6666 0.0298825
65.1738 32.1552 0.0303601
64.253 34.2503 0.0276452
62.5587 30.6393 0.027725
59.3105 15.67 0.0221164
59.1191 18.3607 0.0287061
58.7246 20.8637 0.0355143
61.6309 27.0773 0.0293218
60.8111 29.1462 0.0248773
59.2995 25.8053 0.0270274
58.264 23.1021 0.0337204
57.935 24.6756 0.0279843
56.6754 15.7463 0.022114
54.3742 16.0059 0.0226743
53.8086 13.6858 0.0229611
52.1123 8.15418 0.0141006
53.058 11.0193 0.0190061
64.0469 35.6321 2
62.8803 33.0483 2
60.5573 30.6178 2
57.9367 16.986 2
57.7046 19.4837 2
57.3449 21.8536 2
59.5247 27.9191 2
57.1473 23.9606 2
57.6965 25.7383 2
50.1126 7.28476 2
55.5338 16.9774 2
53.7537 16.9885 2
52.9754 15.2707 2
52.1714 12.8004 2
51.2326 10.1259 2
62.1126 35.3602 3.97344
60.2058 32.75 3.97561
58.5453 30.0857 3.97636
57.2259 27.3949 3.97557
56.6306 18.163 3.9759
56.2386 25.1177 3.97202
56.3383 20.5355 3.96597
56.0689 22.8857 3.96372
48.0565 6.52783 3.98811
49.3248 9.33326 3.98328
50.4331 11.9977 3.98049
51.3762 14.5047 3.97667
54.4088 17.9292 3.97847
52.3572 17.0489 3.9745
52.0712 66.9998 0.0117905
52.9539 64.2191 0.0153099
60.9546 47.8711 0.0307837
53.681 61.6219 0.0196915
56.6469 59.4866 0.0239222
54.2582 59.3176 0.0239326
59.691 52.0956 0.0321734
57.976 49.6014 0.0291641
56.7715 56.9752 0.0309358
57.104 54.1068 0.0334795
51.1683 65.1289 2
52.0462 62.5398 2
55.4773 58.2468 2
52.8332 60.135 2
53.6362 58.4679 2
58.2358 46.833 2
57.533 51.7708 2
56.1786 49.5349 2
55.4606 55.7749 2
55.3308 53.364 2
50.3469 63.3809 3.98379
51.2439 60.9345 3.97993
54.2125 57.2621 3.97648
52.3095 58.6286 3.97657
56.5936 44.1626 3.97758
55.4045 47.8737 3.97309
55.0292 51.3713 3.96761
53.9823 54.5213 3.96623
49.3375 65.9214 0.0144477
48.6186 64.1232 2
47.9627 62.4742 3.98339
45.5587 67.0981 0.014349
46.893 64.7359 0.0158887
43.6317 67.4694 2
46.3826 63.0532 2
45.1331 65.1976 2
45.9883 61.5847 3.98338
44.7679 63.4531 3.98308
43.3572 65.5064 3.98399
41.6638 67.6874 3.98539
39.7024 70.0247 3.98846
41.8608 69.8783 2
42.1114 72.2071 3.99268
43.9737 69.5903 0.0115224
44.3774 71.8625 2
44.8159 74.2794 4
46.6098 71.3674 0.00714075
47.2057 73.7222 2
49.554 73.0099 0
48.7851 4.32277 3.99253
50.955 5.13184 2
51.8506 2.85458 4
53.0647 6.07185 0.00843651
54.0858 3.86728 2
56.25 5.02411 0
61.9332 45.9117 0.028931
63.2868 42.5456 0.0275483
61.3932 43.6756 0.0244052
62.364 40.6936 0.024498
63.8491 39.2644 0.0276721
65.8744 37.501 0.0298718
63.9099 37.4558 2
62.0771 39.3521 2
61.142 41.9512 2
60.1917 44.7597 2
61.9158 37.4435 3.97361
60.149 39.841 3.97698
58.8912 42.9052 3.9769
64.0474 35.6322 0.0281035
62.8809 33.0483 0.0270933
60.5572 30.6176 0.0245718
57.9372 16.987 0.0237646
57.7044 19.4852 0.0316999
57.3441 21.8533 0.0364257
59.5253 27.9187 0.0257209
57.6955 25.7378 0.0253994
57.1479 23.96 0.0312015
55.5345 16.9785 0.0225343
53.7545 16.9894 0.020333
52.9759 15.2719 0.0247871
50.1125 7.28535 0.0129833
52.1716 12.8014 0.0207101
51.2327 10.1266 0.0175124
62.1114 35.3602 2
60.2047 32.7503 2
58.5451 30.0862 2
56.6302 18.1617 2
56.3387 20.5326 2
56.0698 22.8863 2
57.2276 27.3954 2
56.2406 25.1183 2
48.0565 6.52707 2
49.3247 9.33267 2
54.4083 17.9283 2
52.3563 17.0481 2
51.3756 14.5035 2
50.4329 11.9971 2
59.7913 35.1217 3.97653
57.8797 32.281 3.97683
56.4597 29.3558 3.97699
55.3681 26.6193 3.97562
55.3308 19.1976 3.97496
54.8752 24.0775 3.9667
54.9715 21.5812 3.96448
45.9625 5.88255 3.98879
43.374 7.4739 3.98577
47.3553 8.62568 3.98439
48.6002 11.2977 3.9811
49.7128 13.7489 3.97963
50.6305 16.1417 3.97684
53.1156 18.6725 3.97413
51.2937 18.0624 3.98082
51.1685 65.1283 0.0146255
52.0465 62.5389 0.0175668
58.2366 46.8335 0.026162
52.8332 60.1334 0.0218222
55.4775 58.2458 0.0232405
53.6362 58.4672 0.0205204
57.5331 51.7713 0.0316481
56.1796 49.5355 0.0291164
55.4601 55.774 0.0339534
55.3302 53.3641 0.0350734
50.3465 63.3814 2
51.2436 60.9354 2
54.2124 57.2632 2
52.3093 58.6293 2
56.5929 44.1618 2
55.403 47.8729 2
55.0292 51.371 2
53.983 54.5228 2
49.5922 61.7442 3.98241
55.4646 41.6821 3.97703
50.5649 59.326 3.97607
52.1745 56.4817 3.97047
54.0469 45.5338 3.97656
53.2473 49.3044 3.97062
52.6288 52.8274 3.96589
48.6188 64.1226 0.0157366
47.9625 62.4745 2
47.3296 61.008 3.98335
43.6318 67.4687 0.0142886
45.1332 65.197 0.0159395
46.3827 63.0527 0.0164669
41.6638 67.6879 2
43.3571 65.5072 2
45.9883 61.5854 2
44.7679 63.4538 2
45.7665 60.6287 3.98164
44.4843 61.8334 3.98267
43.1472 63.7253 3.98262
41.5466 65.6438 3.98322
39.6329 67.767 3.985
37.526 70.0497 3.9883
39.7025 70.0254 2
39.818 72.4042 3.99251
41.8608 69.8777 0.0116639
42.1116 72.2075 2
42.3947 74.6792 4
44.3771 71.8622 0.00725384
44.8159 74.2794 2
47.2057 73.7222 0
43.8519 5.35931 3.98898
46.5711 3.64718 3.99275
48.7854 4.32248 2
49.554 1.99015 4
50.9546 5.132 0.00795216
51.8506 2.85453 2
54.0858 3.86728 0
60.1929 44.7601 0.0247424
61.1429 41.9514 0.0245012
62.0779 39.3522 0.0258635
63.9106 37.4558 0.0281258
61.9148 37.4434 2
60.148 39.8408 2
58.8904 42.9048 2
59.6468 37.5642 3.97761
57.8607 40.6432 3.97761
54.9049 39.699 3.97684
62.1126 35.3602 0.0265569
60.2058 32.75 0.0243948
58.5453 30.0857 0.0236391
56.6306 18.163 0.0240952
56.3383 20.5355 0.0340331
56.0689 22.8857 0.0362794
57.2259 27.3949 0.0244311
56.2386 25.1177 0.0279765
54.4088 17.9292 0.0215292
52.3572 17.0489 0.0254996
51.3762 14.5047 0.0233315
48.0565 6.52783 0.0118864
49.3248 9.33326 0.0167191
50.4331 11.9977 0.0195065
59.7894 35.1219 2
45.9624 5.88213 2
43.3739 7.47347 2
57.8802 32.2817 2
56.4595 29.3565 2
55.3306 19.1967 2
54.9726 21.5803 2
54.8749 24.079 2
55.3631 26.6205 2
47.3553 8.62466 2
48.6 11.2971 2
53.1155 18.6715 2
51.2931 18.0616 2
50.6298 16.1408 2
49.7122 13.7484 2
57.2447 34.7705 3.9776
55.6105 31.5374 3.97809
54.3908 28.4313 3.97839
53.7083 25.5229 3.97309
53.9519 20.1507 3.97418
53.5374 22.7369 3.95964
41.3992 7.07904 3.98635
45.3601 7.99574 3.98581
42.8661 9.41754 3.98321
46.6668 10.6568 3.98185
47.7448 13.1077 3.98102
48.9292 15.4086 3.97761
50.0002 17.7107 3.97812
51.636 19.3381 3.98133
50.3469 63.3809 0.0162111
51.2439 60.9345 0.0200739
56.5936 44.1626 0.0224207
55.4045 47.8737 0.026906
52.3095 58.6286 0.0234338
54.2125 57.2621 0.0235241
55.0292 51.3713 0.0323937
53.9823 54.5213 0.0337695
49.5918 61.7445 2
55.4643 41.6818 2
50.5648 59.3269 2
52.1743 56.4825 2
54.0505 45.533 2
53.2506 49.3042 2
52.6307 52.8271 2
48.8483 60.2006 3.98062
52.3273 42.6076 3.97955
49.7839 57.619 3.97618
50.5671 54.412 3.96741
51.6816 47.2388 3.9759
51.1475 50.9225 3.96455
47.9686 43.7624 3.991
47.9627 62.4742 0.0166079
47.3296 61.0083 2
46.6186 59.7938 3.98264
41.6638 67.6874 0.0146106
43.3572 65.5064 0.0160116
44.7679 63.4531 0.0169248
45.9883 61.5847 0.0166247
39.633 67.7678 2
41.5464 65.6441 2
45.7663 60.6294 2
43.1471 63.726 2
44.4843 61.8341 2
44.6233 60.2906 3.98235
42.9513 62.0811 3.9811
41.6006 63.8182 3.98259
39.6479 65.6114 3.98236
37.5635 67.7492 3.98484
31.6967 65.13 3.98315
33.3921 67.4865 3.98468
35.3334 69.9597 3.98828
37.526 70.0504 2
37.5095 72.4587 3.99238
39.7024 70.0247 0.0115445
39.8181 72.4046 2
39.9526 74.9197 4
42.1114 72.2071 0.00732169
42.3947 74.6792 2
44.8159 74.2794 0
41.7365 4.96844 3.98933
43.8519 5.35884 2
44.3263 3.11023 3.9931
46.5713 3.64697 2
47.2057 1.27793 4
48.7851 4.32277 0.00747486
49.554 1.99013 2
51.8506 2.85458 0
58.8912 42.9052 0.0231013
60.149 39.841 0.0230212
61.9158 37.4435 0.0263855
59.6457 37.5641 2
57.8593 40.6427 2
54.9057 39.6974 2
56.6484 37.8874 3.97799
49.3605 41.3104 3.98933
52.9262 39.3037 3.98256
39.4426 6.80256 3.98642
59.7913 35.1217 0.023473
57.8797 32.281 0.0231728
56.4597 29.3558 0.0230099
55.3308 19.1976 0.0250407
54.9715 21.5812 0.0355183
54.8752 24.0775 0.0333014
55.3681 26.6193 0.0243824
53.1156 18.6725 0.0258659
51.2937 18.0624 0.0191753
50.6305 16.1417 0.0231633
45.9625 5.88255 0.0112119
49.7128 13.7489 0.0203697
47.3553 8.62568 0.0156148
48.6002 11.2977 0.0188963
43.374 7.4739 0.0142293
57.2422 34.7705 2
41.3992 7.07858 2
45.36 7.99539 2
42.8658 9.41712 2
55.6111 31.5381 2
54.3874 28.4325 2
53.9522 20.1503 2
53.538 22.7342 2
53.7063 25.5243 2
46.6666 10.6554 2
47.7442 13.1069 2
51.636 19.3372 2
49.9994 17.7097 2
48.9283 15.4083 2
54.6952 33.9749 3.97693
53.3476 30.5158 3.97809
52.4903 27.2356 3.97506
52.0834 24.131 3.97382
52.3642 21.0732 3.97775
41.014 9.05016 3.98344
44.7246 9.99707 3.98339
42.4689 10.9052 3.98345
46.005 12.7353 3.97928
47.6795 14.5914 3.97782
48.1076 16.9963 3.97637
49.809 19.6552 3.97666
49.5922 61.7442 0.0175855
50.5649 59.326 0.0239287
55.4646 41.6821 0.0229726
54.0469 45.5338 0.0234389
53.2473 49.3044 0.0293835
52.1745 56.4817 0.0295338
52.6288 52.8274 0.0341129
48.8481 60.2003 2
52.3332 42.6073 2
49.7836 57.62 2
50.5674 54.4129 2
51.6846 47.2382 2
51.1494 50.9216 2
47.9743 43.7762 2
47.9844 58.7395 3.9791
49.9167 45.2459 3.97887
48.5839 55.9104 3.97732
49.0858 52.5739 3.97259
49.5774 49.0209 3.97058
45.7648 39.8594 3.88911
46.2078 42.6417 3.9284
46.3323 45.8052 3.99051
43.5948 41.1406 3.82904
41.9125 42.0117 3.72619
47.3296 61.008 0.0166453
46.618 59.7943 2
45.467 58.7904 3.98161
39.6329 67.767 0.0149955
41.5466 65.6438 0.0167755
43.1472 63.7253 0.0173775
44.4843 61.8334 0.0173338
45.7665 60.6287 0.0183635
41.6006 63.8185 2
37.5635 67.7499 2
39.6478 65.6121 2
44.6232 60.2912 2
42.9513 62.0817 2
41.7542 62.4919 3.98142
42.4805 59.9797 3.9821
39.8942 63.5519 3.98147
37.6424 65.5105 3.98275
35.4635 67.6583 3.98466
33.5752 65.3432 3.98263
31.9592 63.3011 3.98257
29.8827 64.7212 3.9839
31.6967 65.1308 2
31.3766 67.1964 3.98494
33.3921 67.4872 2
33.1563 69.7531 3.98808
35.3334 69.9605 2
35.1947 72.3731 3.99232
37.526 70.0497 0.0116977
37.5095 72.4591 2
37.5 75 4
39.818 72.4042 0.00749331
39.9526 74.9197 2
42.3947 74.6792 0
39.6242 4.71569 3.98959
41.7365 4.96796 2
42.0626 2.71776 3.99322
43.8519 5.35931 0.0110241
44.3265 3.10993 2
44.8158 0.721173 4
46.5711 3.64718 0.00724735
47.2057 1.27779 2
49.554 1.99015 0
57.8607 40.6432 0.0223949
59.6468 37.5642 0.022387
54.9049 39.699 0.023161
49.377 41.3138 2
56.6467 37.8878 2
52.9279 39.3042 2
53.7728 36.6313 3.97713
47.2868 40.3856 3.93583
50.3016 38.5086 3.99271
37.5165 6.67374 3.98659
39.4426 6.802 2
39.2115 8.69275 3.98419
35.9424 8.49275 3.98436
57.2447 34.7705 0.0223994
55.6105 31.5374 0.0219064
54.3908 28.4313 0.0216105
53.9519 20.1507 0.0258232
53.5374 22.7369 0.0403649
53.7083 25.5229 0.0269078
51.636 19.3381 0.0186658
50.0002 17.7107 0.0218769
48.9292 15.4086 0.0223936
45.3601 7.99574 0.0141891
47.7448 13.1077 0.0189827
46.6668 10.6568 0.0181466
41.3992 7.07904 0.0136531
42.8661 9.41754 0.0167903
54.6965 33.9741 2
41.0138 9.04991 2
44.7241 9.9969 2
42.4685 10.9053 2
53.3437 30.5144 2
52.4951 27.2371 2
52.365 21.0721 2
52.085 24.1321 2
46.0045 12.7334 2
47.6787 14.5906 2
49.809 19.6535 2
48.1067 16.9959 2
52.257 32.8923 3.98019
51.1723 29.1895 3.9769
50.6971 25.7679 3.97233
49.9148 22.2386 3.97811
40.5702 11.6101 3.98071
43.8586 11.9204 3.98
45.7998 15.43 3.98048
47.4982 19.2689 3.97714
46.1019 37.4861 3.89654
48.8483 60.2006 0.0193755
49.7839 57.619 0.023819
52.3273 42.6076 0.0204483
51.6816 47.2388 0.0240956
51.1475 50.9225 0.0354492
50.5671 54.412 0.0325854
47.9686 43.7624 0.00900334
47.9839 58.7403 2
49.9237 45.2504 2
48.5833 55.9124 2
49.0861 52.5763 2
49.5806 49.0208 2
45.7923 39.8669 2
46.2279 42.6573 2
46.3323 45.7997 2
43.6182 41.161 2
41.9244 42.0214 2
46.8333 57.3416 3.98282
44.3419 39.4223 3.82945
42.2606 40.8747 3.76767
47.9414 47.2109 3.97639
47.1439 54.2302 3.97483
47.5229 50.7281 3.96605
44.683 47.3899 3.98353
44.8676 41.9454 3.88541
44.8047 44.5389 3.94311
42.4498 42.6555 3.83789
40.8198 42.3509 3.75944
46.6186 59.7938 0.0173593
45.4664 58.7909 2
43.8732 57.7138 3.98435
37.5635 67.7492 0.0151575
39.6479 65.6114 0.0176372
41.6006 63.8182 0.0174104
42.9513 62.0811 0.0189028
44.6233 60.2906 0.0176531
35.4635 67.6593 2
41.7542 62.4923 2
39.8942 63.5525 2
37.6424 65.5112 2
42.4805 59.9803 2
40.6237 61.6486 3.98178
40.4427 58.2074 3.98091
37.8373 63.2135 3.98082
35.5729 65.432 3.98235
33.5753 65.3437 2
31.9589 63.3019 2
33.6288 63.3405 3.982
30.378 62.86 3.9829
32.1229 62.0069 3.98309
26.868 61.503 3.98215
28.0615 64.1491 3.98352
29.8828 64.722 2
29.4059 66.7602 3.98516
31.6967 65.13 0.0168542
31.3767 67.1971 2
31.0135 69.418 3.98806
33.3921 67.4865 0.0153205
33.1563 69.7537 2
32.8916 72.1473 3.99237
35.3334 69.9597 0.0117234
35.1947 72.3735 2
35.0474 74.9194 4
37.5095 72.4587 0.00762184
37.5 75 2
39.9526 74.9197 0
35.6211 6.7248 3.98625
37.5236 4.61523 3.98963
39.6242 4.71515 2
39.7889 2.4742 3.99326
41.7365 4.96844 0.010667
42.0627 2.71745 2
42.3946 0.32156 4
44.3263 3.11023 0.00689507
44.8159 0.72056 2
47.2057 1.27793 0
49.3605 41.3104 0.0106718
56.6484 37.8874 0.0220107
52.9262 39.3037 0.017442
47.3036 40.3995 2
50.3141 38.5065 2
53.78 36.6324 2
51.0946 35.5738 3.97875
47.9454 37.7414 3.94885
45.7654 35.132 3.88974
43.6011 33.8482 3.82589
41.9215 32.9872 3.72294
37.4584 8.53442 3.98458
37.5165 6.673 2
39.4426 6.80256 0.0135792
39.2114 8.69216 2
38.977 10.1272 3.98326
35.8992 9.77368 3.98272
34.151 8.82236 3.9839
35.9421 8.49195 2
54.6952 33.9749 0.0230699
53.3476 30.5158 0.021908
52.4903 27.2356 0.0249431
52.3642 21.0732 0.022245
52.0834 24.131 0.0261763
49.809 19.6552 0.0233445
48.1076 16.9963 0.0236289
47.6795 14.5914 0.0221775
44.7246 9.99707 0.0166091
46.005 12.7353 0.0207203
41.014 9.05016 0.0165593
42.4689 10.9052 0.0165527
52.2613 32.8931 2
40.5703 11.6107 2
43.8577 11.9205 2
51.1852 29.1902 2
50.7003 25.77 2
49.9153 22.2368 2
45.7988 15.4275 2
47.4976 19.2687 2
49.79 31.4273 3.98082
49.1665 27.5372 3.97538
49.3429 24.4527 3.98523
47.1708 22.0074 3.97387
38.3031 12.7379 3.97964
42.1017 14.3099 3.9784
44.797 18.4782 3.97702
44.6414 37.4937 3.83268
46.1448 37.4925 2
47.9844 58.7395 0.0209021
48.5839 55.9104 0.0226797
49.9167 45.2459 0.0211252
49.5774 49.0209 0.0294232
49.0858 52.5739 0.0274089
45.7648 39.8594 0.110889
46.2078 42.6417 0.0715993
46.3323 45.8052 0.00949458
43.5948 41.1406 0.170959
41.9125 42.0117 0.273807
46.8324 57.3426 2
44.3616 39.4368 2
42.2514 40.8763 2
47.9413 47.2138 2
47.1433 54.2346 2
47.5241 50.7307 2
44.6873 47.3673 2
44.8881 41.9604 2
44.8191 44.5561 2
42.4835 42.68 2
40.82 42.3507 2
45.3877 55.9331 3.98962
42.5814 39.2703 3.77984
40.7191 40.7903 3.8487
46.0001 48.8934 3.98354
45.4989 52.5225 3.98157
43.3594 48.4155 4.00097
43.303 46.0893 3.93143
43.5293 43.738 3.88243
41.023 43.8064 3.83204
39.2794 42.6941 3.77434
45.467 58.7904 0.0183891
43.8727 57.714 2
42.1024 56.336 3.98689
35.4635 67.6583 0.0153371
37.6424 65.5105 0.0172538
39.8942 63.5519 0.0185304
41.7542 62.4919 0.0185818
42.4805 59.9797 0.0178966
35.5731 65.4333 2
40.6236 61.6492 2
37.8372 63.214 2
40.4425 58.2084 2
38.9216 56.4987 3.9882
38.2506 60.3305 3.9805
35.6071 63.2061 3.98053
33.5752 65.3432 0.0173715
31.9592 63.3011 0.0174257
33.6287 63.3412 2
30.3779 62.8607 2
32.1228 62.0077 2
28.6806 62.2047 3.98257
33.3457 61.5188 3.98228
31.0661 61.224 3.98243
27.5678 59.5988 3.98128
23.7923 59.0856 3.98073
25.0338 60.8755 3.98112
26.8681 61.5035 2
26.2282 63.4814 3.98352
28.0617 64.1498 2
27.4625 66.1841 3.98523
29.8827 64.7212 0.0161043
29.406 66.7609 2
28.9057 68.9437 3.98801
31.3766 67.1964 0.0150647
31.0135 69.4187 2
30.6139 71.7782 3.99239
33.1563 69.7531 0.0119206
32.8915 72.1476 2
32.6054 74.6784 4
35.1947 72.3731 0.00767789
35.0474 74.9197 2
37.5 75 0
33.7238 6.9795 3.98579
35.4352 4.68546 3.98944
35.621 6.72414 2
37.5144 2.38682 3.99325
37.5236 4.61471 2
39.6242 4.71569 0.0104133
39.789 2.47387 2
39.9526 0.0806499 4
42.0626 2.71776 0.00677506
42.3947 0.320817 2
44.8158 0.721173 0
44.3567 35.5646 3.82444
42.2714 34.116 3.76341
47.2868 40.3856 0.0641744
50.3016 38.5086 0.0072937
53.7728 36.6313 0.0228703
47.9577 37.7483 2
51.106 35.5749 2
45.7862 35.1167 2
43.6273 33.8289 2
41.9323 32.9777 2
48.1195 34.3064 3.97337
44.8739 33.0416 3.8772
42.4651 32.3442 3.83394
40.8309 32.6506 3.75734
37.3114 10.6311 3.98188
37.4583 8.53337 2
37.5165 6.67374 0.0134084
39.2115 8.69275 0.0158123
38.9772 10.1265 2
34.7544 10.38 3.98186
35.8991 9.77284 2
32.3778 9.3694 3.98304
34.1506 8.82174 2
35.9424 8.49275 0.0156407
52.257 32.8923 0.019815
51.1723 29.1895 0.0231043
50.6971 25.7679 0.0276738
49.9148 22.2386 0.0218864
47.4982 19.2689 0.0228647
45.7998 15.43 0.0195209
43.8586 11.9204 0.0199977
40.5702 11.6101 0.0192869
49.8001 31.4242 2
38.3028 12.7367 2
42.1012 14.3121 2
49.1702 27.5386 2
49.3451 24.4505 2
47.17 22.0048 2
44.7963 18.4847 2
47.631 29.5308 3.98923
47.0378 25.1961 3.98354
44.2792 21.3773 3.97578
36.5829 12.9344 3.97947
38.6821 14.8119 3.97821
41.7479 17.8535 3.97778
42.6991 37.4864 3.78849
44.6581 37.4943 2
46.1019 37.4861 0.103464
46.8333 57.3416 0.0171842
47.1439 54.2302 0.025174
47.9414 47.2109 0.0236102
47.5229 50.7281 0.0339541
44.3419 39.4223 0.170549
44.8676 41.9454 0.11459
44.8047 44.5389 0.0568921
44.683 47.3899 0.0164671
42.4498 42.6555 0.162109
42.2606 40.8747 0.232328
40.8198 42.3509 0.240559
45.387 55.9332 2
42.5751 39.2686 2
40.7076 40.7811 2
45.9995 48.8977 2
45.4995 52.5274 2
43.3616 48.4343 2
43.3295 46.1154 2
43.551 43.7599 2
41.0467 43.8318 2
39.2715 42.6845 2
43.7233 54.4425 3.99695
40.8173 39.1639 3.8803
39.151 40.8733 3.87562
43.6361 50.4708 4.00226
41.9064 47.6353 3.96478
41.8342 45.1617 3.88736
39.3444 44.5251 3.84243
37.4975 42.803 3.79373
43.8732 57.7138 0.0156455
42.1017 56.3365 2
40.4122 54.9423 3.99076
35.5729 65.432 0.017648
37.8373 63.2135 0.0191801
40.6237 61.6486 0.0182223
40.4427 58.2074 0.0190901
35.607 63.2073 2
38.2504 60.3311 2
38.9213 56.5001 2
37.9974 55.2502 3.98666
36.9331 57.6282 3.98
35.3637 60.9158 3.98187
33.6288 63.3405 0.0179996
30.378 62.86 0.0171003
32.1229 62.0069 0.0169086
33.3456 61.5198 2
28.6806 62.2052 2
31.0661 61.2247 2
29.4026 60.2925 3.98148
32.3569 59.7511 3.98557
28.0239 58.379 3.98657
27.5679 59.5992 2
25.3791 58.5972 3.9792
22.7584 58.2417 3.9731
23.4 60.3546 3.97952
23.7924 59.0864 2
25.0339 60.8762 2
24.4309 62.7737 3.98301
26.868 61.503 0.0178492
26.2284 63.482 2
25.5465 65.4941 3.98512
28.0615 64.1491 0.016478
27.4625 66.1847 2
26.8352 68.3321 3.98803
29.4059 66.7602 0.0148357
28.9057 68.9442 2
28.3689 71.2634 3.9925
31.0135 69.418 0.0119394
30.6137 71.7786 2
30.1842 74.2788 4
32.8916 72.1473 0.00763472
32.6053 74.6792 2
35.0474 74.9194 0
31.7883 7.41953 3.98523
33.3473 4.92467 3.98913
33.7237 6.97884 2
35.2445 2.4629 3.99325
35.4351 4.68497 2
35.6211 6.7248 0.013745
37.5 0 4
37.5143 2.38651 2
37.5236 4.61523 0.0103689
39.7889 2.4742 0.00674471
39.9526 0.0802889 2
42.3946 0.32156 0
42.5845 35.7097 3.78123
44.3702 35.5523 2
40.7284 34.207 3.84692
42.2613 34.1163 2
47.9454 37.7414 0.051152
51.0946 35.5738 0.0212539
45.7654 35.132 0.11026
43.6011 33.8482 0.17411
41.9215 32.9872 0.277058
48.1356 34.2863 2
44.8955 33.0288 2
42.4909 32.3227 2
40.8302 32.6503 2
46.146 31.5697 3.9487
43.5297 31.2605 3.88146
41.0335 31.195 3.83192
39.2888 32.3114 3.77346
35.6932 11.7769 3.98058
37.3116 10.6298 2
37.4584 8.53442 0.015425
38.977 10.1272 0.0167441
33.0984 11.2175 3.98044
34.7544 10.3792 2
35.8992 9.77368 0.0172817
30.4824 10.0178 3.98236
32.3774 9.36891 2
34.151 8.82236 0.0161022
49.79 31.4273 0.0191775
49.1665 27.5372 0.0246186
49.3429 24.4527 0.0147688
47.1708 22.0074 0.026128
44.797 18.4782 0.0229773
42.1017 14.3099 0.0215965
38.3031 12.7379 0.0203613
36.5826 12.9333 2
47.6342 29.514 2
38.6812 14.8109 2
41.747 17.8593 2
47.0417 25.1942 2
44.2781 21.3637 2
45.4417 27.6635 4.00145
43.7636 24.104 4.00311
41.3362 20.7537 3.97906
35.773 14.7628 3.97819
38.6818 17.6033 3.97779
40.864 37.4801 3.88967
42.7015 37.4876 2
44.6414 37.4937 0.167318
45.3877 55.9331 0.0103775
45.4989 52.5225 0.0184321
46.0001 48.8934 0.0164646
42.5814 39.2703 0.220161
43.5293 43.738 0.117571
43.303 46.0893 0.0685748
43.3594 48.4155 -0.000972267
41.023 43.8064 0.167964
40.7191 40.7903 0.151299
39.2794 42.6941 0.225664
43.7226 54.4428 2
40.8045 39.158 2
39.1388 40.8593 2
43.6354 50.4861 2
41.8965 47.6507 2
41.8561 45.1839 2
37.4983 42.7909 2
39.3614 44.5443 2
41.8633 53.0144 3.99339
39.1653 39.1642 3.91128
37.4971 40.9127 3.89209
35.7205 42.6961 3.77436
40.871 49.6902 3.99979
39.8061 46.0561 3.87
37.4961 44.7495 3.82938
42.1024 56.336 0.0131126
40.4119 54.9428 2
38.7266 53.8612 3.99559
35.6071 63.2061 0.0194726
38.2506 60.3305 0.0194976
38.9216 56.4987 0.0118021
35.3636 60.9168 2
36.933 57.6291 2
37.9973 55.2503 2
36.3194 55.3717 3.98843
34.488 58.5273 3.98652
33.3457 61.5188 0.0177201
28.6806 62.2047 0.0174283
31.0661 61.224 0.0175694
32.3569 59.7519 2
29.4027 60.2928 2
30.3006 57.824 3.98539
28.024 58.3795 2
26.9507 56.8297 3.97877
27.5678 59.5988 0.018718
25.3792 58.598 2
23.8448 56.7996 3.97131
21.3374 57.3961 3.9725
21.9936 59.6251 3.9786
22.7583 58.2433 2
22.735 62.0247 3.9817
23.4001 60.3555 2
23.7923 59.0856 0.0192707
25.0338 60.8755 0.0188794
24.4311 62.7745 2
23.6804 64.7123 3.98483
26.2282 63.4814 0.0164849
25.5465 65.4948 2
24.8074 67.5933 3.98795
27.4625 66.1841 0.014765
26.8352 68.3327 2
26.1641 70.6041 3.99258
28.9057 68.9437 0.0119942
28.3686 71.2636 2
27.7943 73.7221 4
30.6139 71.7782 0.00760532
30.1841 74.2794 2
32.6054 74.6784 0
29.8108 7.99299 3.98451
31.2525 5.33182 3.98851
31.7881 7.4189 2
32.9801 2.70111 3.99305
33.3471 4.9241 2
33.7238 6.9795 0.014209
35.0474 0.080333 4
35.2444 2.46262 2
35.4352 4.68546 0.0105566
37.5 0 2
37.5144 2.38682 0.00674779
39.9526 0.0806499 0
40.8183 35.8098 3.88181
42.5774 35.7128 2
44.3567 35.5646 0.175556
28.5432 10.6935 3.98185
39.1583 34.1307 3.8749
40.7149 34.216 2
42.2714 34.116 0.236592
48.1195 34.3064 0.0266283
44.8739 33.0416 0.122802
42.4651 32.3442 0.166062
40.8309 32.6506 0.242658
46.1686 31.56 2
43.5442 31.2425 2
41.0553 31.1696 2
39.2814 32.32 2
44.3262 29.7674 3.93923
41.8504 29.8406 3.8895
39.364 30.4751 3.84266
37.5089 32.2058 3.79324
34.0935 12.9362 3.9794
35.6932 11.7759 2
37.3114 10.6311 0.0181194
31.1863 11.9861 3.98067
33.0984 11.2169 2
34.7544 10.38 0.0181364
30.4822 10.0171 2
32.3778 9.3694 0.0169609
47.631 29.5308 0.0107699
47.0378 25.1961 0.0164595
36.5829 12.9344 0.0205344
44.2792 21.3773 0.0242247
41.7479 17.8535 0.0222223
38.6821 14.8119 0.0217947
35.7725 14.7622 2
45.4449 27.6625 2
38.6801 17.6049 2
41.3342 20.7422 2
43.7651 24.0929 2
33.6089 15.8805 3.97765
42.9895 26.5061 3.99699
40.8963 23.322 4.00703
38.4173 20.3688 3.97574
35.8492 17.5181 3.97778
39.1792 37.4835 3.92202
40.8496 37.4792 2
42.6991 37.4864 0.211509
43.7233 54.4425 0.00304701
43.6361 50.4708 -0.00225981
40.8173 39.1639 0.119704
41.8342 45.1617 0.112639
41.9064 47.6353 0.0352237
39.3444 44.5251 0.157571
39.151 40.8733 0.124377
37.4975 42.803 0.206268
41.8654 53.0135 2
39.1489 39.1633 2
37.4963 40.8977 2
40.8885 49.7013 2
35.7266 42.687 2
39.8298 46.0824 2
37.4928 44.7634 2
39.7993 51.9117 3.99595
37.4959 39.1834 3.92839
35.8417 40.8852 3.87436
34.1752 42.3507 3.7585
35.6372 44.5324 3.84024
38.6767 48.7044 3.98002
37.4903 46.3636 3.87486
40.4122 54.9423 0.00923776
38.7273 53.8602 2
36.7294 53.1976 4.00243
35.3637 60.9158 0.0181346
36.9331 57.6282 0.0200011
37.9974 55.2502 0.0133417
34.4879 58.5286 2
36.3199 55.3767 2
33.2336 55.5124 3.99103
32.3569 59.7511 0.0144257
29.4026 60.2925 0.0185199
30.3009 57.8245 2
28.702 55.3193 3.97905
28.0239 58.379 0.013433
26.9503 56.8303 2
25.3234 55.1378 3.97402
21.8205 55.3428 3.96821
25.3791 58.5972 0.0208019
23.8443 56.8018 2
20.2231 57.0245 3.97804
20.6462 58.7802 3.97625
21.337 57.3979 2
21.1658 61.1732 3.98005
21.9936 59.6264 2
22.7584 58.2417 0.0268957
21.8938 63.84 3.98412
22.7352 62.0256 2
23.4 60.3546 0.0204839
24.4309 62.7737 0.0169929
23.6805 64.713 2
22.8356 66.7368 3.9878
25.5465 65.4941 0.0148759
24.8074 67.5939 2
24.0083 69.8052 3.99265
26.8352 68.3321 0.0119737
26.1638 70.6044 2
25.446 73.0099 4
28.3689 71.2634 0.00750179
27.7943 73.7222 2
30.1842 74.2788 0
27.8207 8.65283 3.98415
29.1545 5.8776 3.9879
29.8106 7.99227 2
30.7253 3.09831 3.99275
31.2523 5.3313 2
31.7883 7.41953 0.0147656
32.6053 0.320823 4
32.98 2.70078 2
33.3473 4.92467 0.0108742
35.0474 0.0802903 2
35.2445 2.4629 0.00675362
37.5 0 0
39.1738 35.8149 3.90973
40.8034 35.8144 2
42.5845 35.7097 0.218772
28.5431 10.693 2
26.6219 11.3889 3.98209
29.2251 12.643 3.98147
37.5029 34.0965 3.89055
39.1435 34.1449 2
40.7284 34.207 0.153083
46.146 31.5697 0.0512953
43.5297 31.2605 0.118539
41.0335 31.195 0.168081
39.2888 32.3114 0.226545
44.3458 29.7511 2
41.8674 29.8233 2
39.3788 30.4538 2
37.511 32.2189 2
42.3297 28.4132 3.92085
39.853 28.9415 3.88858
37.5225 30.252 3.82949
35.7333 32.3096 3.7734
31.9153 14.4823 3.97961
34.0935 12.9357 2
35.6932 11.7769 0.0194185
31.1864 11.9856 2
33.0984 11.2175 0.0195604
30.4824 10.0178 0.0176447
45.4417 27.6635 -0.00144654
43.7636 24.104 -0.00311076
35.773 14.7628 0.0218071
41.3362 20.7537 0.0209376
38.6818 17.6033 0.0222129
33.6079 15.8807 2
35.8474 17.5177 2
42.9961 26.5036 2
38.4179 20.3632 2
40.8952 23.3086 2
33.5513 17.3922 3.9793
40.3764 25.6628 4.00223
38.0702 22.9148 3.99448
35.5815 20.0916 3.9785
37.496 37.4951 3.94231
39.1619 37.4841 2
40.864 37.4801 0.110334
41.8633 53.0144 0.00660514
40.871 49.6902 0.000212459
39.1653 39.1642 0.088718
39.8061 46.0561 0.130004
37.4961 44.7495 0.170621
37.4971 40.9127 0.10791
35.7205 42.6961 0.225637
39.8076 51.9117 2
37.4949 39.1778 2
35.8548 40.8706 2
38.6804 48.7381 2
34.1751 42.3511 2
35.6215 44.5534 2
37.4897 46.3885 2
37.6389 50.9886 4.01062
35.829 39.183 3.91086
34.2766 40.8015 3.84793
33.0771 42.0136 3.72459
33.9615 43.798 3.83098
35.1522 46.0372 3.88101
36.8674 48.3427 3.9485
38.7266 53.8612 0.00440679
36.7282 53.2028 2
34.3709 52.4691 3.99473
34.488 58.5273 0.0134834
36.3194 55.3717 0.0115691
33.2335 55.5131 2
30.5319 53.3665 3.979
30.3006 57.824 0.0146146
28.7015 55.3207 2
26.9027 53.4301 3.97311
26.9507 56.8297 0.0212301
25.3229 55.1412 2
23.5964 53.4716 3.96562
20.4925 53.2126 3.96053
19.9404 55.8272 3.97157
21.8192 55.3444 2
23.8448 56.7996 0.0286943
19.4402 57.8856 3.97535
20.2225 57.0261 2
19.7065 60.2044 3.97753
20.646 58.7812 2
21.3374 57.3961 0.0274952
20.2065 62.8605 3.98224
21.1659 61.1744 2
21.9936 59.6251 0.0214048
20.937 65.7657 3.98745
21.894 63.8409 2
22.735 62.0247 0.0182963
23.6804 64.7123 0.0151703
22.8357 66.7374 2
21.9108 68.8722 3.99253
24.8074 67.5933 0.0120472
24.0079 69.8054 2
23.1494 72.1454 4
26.1641 70.6041 0.00741682
25.446 73.0099 2
27.7943 73.7221 0
25.8598 9.38126 3.98368
27.0693 6.54178 3.98721
27.8204 8.65224 2
28.4874 3.64431 3.99245
29.1542 5.87702 2
29.8108 7.99299 0.0154891
30.1841 0.720592 4
30.7251 3.09803 2
31.2525 5.33182 0.0114916
32.6053 0.320817 2
32.9801 2.70111 0.00695445
35.0474 0.080333 0
37.4979 35.812 3.92851
39.1554 35.8167 2
40.8183 35.8098 0.11819
24.7766 12.072 3.98242
23.7514 14.3584 3.98151
28.5432 10.6935 0.0181548
26.6218 11.3884 2
29.2254 12.6424 2
27.2913 13.3756 3.98194
29.7806 14.2032 3.98099
35.8513 34.1256 3.87423
37.5007 34.1119 2
39.1583 34.1307 0.125104
37.5089 32.2058 0.206758
44.3262 29.7674 0.0607713
41.8504 29.8406 0.110505
39.364 30.4751 0.157339
42.3546 28.3889 2
39.8664 28.9133 2
37.5213 30.2417 2
35.7414 32.3188 2
40.0394 27.5745 3.91685
37.5298 28.6355 3.88167
35.6679 30.4806 3.84368
34.1955 32.6524 3.75796
30.9269 16.8405 3.97983
31.9152 14.4822 2
34.0935 12.9362 0.0206017
31.1863 11.9861 0.0193312
42.9895 26.5061 0.00301258
40.8963 23.322 -0.00703298
33.6089 15.8805 0.0223463
35.8492 17.5181 0.0222194
38.4173 20.3688 0.0242606
33.55 17.3935 2
35.583 20.0983 2
40.3788 25.6503 2
38.066 22.9073 2
32.8613 19.8015 3.98055
37.7973 25.2277 4.00832
35.1954 22.6685 3.98828
35.8187 37.5006 3.92322
37.4936 37.4937 2
39.1792 37.4835 0.0779812
39.7993 51.9117 0.00404814
38.6767 48.7044 0.0199822
37.4959 39.1834 0.0716144
37.4903 46.3636 0.125138
35.6372 44.5324 0.15976
35.8417 40.8852 0.125635
34.1752 42.3507 0.241495
37.6477 51.0032 2
35.8438 39.1785 2
34.2891 40.793 2
36.8604 48.3667 2
33.0659 42.024 2
33.941 43.8214 2
35.1375 46.0613 2
35.4863 50.1245 4.00146
34.186 39.1834 3.88331
32.7227 40.8829 3.76562
32.5368 42.6579 3.83775
33.1555 45.157 3.88712
34.2812 47.4131 3.92581
36.7294 53.1976 -0.00242804
34.3703 52.4744 2
32.0305 51.1773 4.00203
33.2336 55.5124 0.00896881
30.5314 53.3714 2
28.4532 51.5808 3.97714
28.702 55.3193 0.0209511
26.9018 53.4331 2
25.1102 51.7335 3.96211
25.3234 55.1378 0.0259815
23.5954 53.4742 2
22.0017 51.7922 3.96044
19.2336 51.6261 3.9643
18.9378 54.3005 3.96251
20.4916 53.212 2
18.4516 56.7178 3.97475
19.9394 55.8288 2
21.8205 55.3428 0.0317941
18.3696 59.107 3.97463
19.4397 57.8868 2
20.2231 57.0245 0.0219556
18.6182 61.7658 3.97923
19.7065 60.2058 2
20.6462 58.7802 0.0237455
19.126 64.6761 3.98649
20.2066 62.8617 2
21.1658 61.1732 0.0199527
19.8849 67.8089 3.99243
20.937 65.7665 2
21.8938 63.84 0.0158785
22.8356 66.7368 0.0121967
21.9104 68.8724 2
20.9142 71.1327 4
24.0083 69.8052 0.00735212
23.1494 72.1455 2
25.446 73.0099 0
23.096 12.787 3.98207
23.9723 10.1681 3.98344
25.023 7.31219 3.98664
25.8597 9.38074 2
26.279 4.32864 3.99208
27.0689 6.5413 2
27.8207 8.65283 0.0158488
27.7943 1.27781 4
28.4871 3.64404 2
29.1545 5.8776 0.0121032
30.1841 0.720551 2
30.7253 3.09831 0.00724549
32.6053 0.320823 0
35.8289 35.8203 3.91086
37.4952 35.8177 2
39.1738 35.8149 0.0902743
24.7768 12.0717 2
23.752 14.3581 2
22.4803 15.0353 3.98108
25.3574 13.9074 3.98145
24.0251 15.6214 3.98069
26.6219 11.3889 0.0179114
29.2251 12.643 0.0185348
27.2917 13.3751 2
29.7807 14.2028 2
28.3569 15.9776 3.98123
34.2863 34.2083 3.84732
35.8623 34.1403 2
37.5029 34.0965 0.109445
35.7333 32.3096 0.226599
37.5225 30.252 0.170507
42.3297 28.4132 0.0791521
39.853 28.9415 0.11142
40.0491 27.5537 2
37.5332 28.6113 2
35.6439 30.4545 2
34.1902 32.6529 2
37.6119 27.2725 3.93133
35.1913 28.9501 3.88734
33.9809 31.2042 3.83155
33.1038 32.9883 3.72516
30.2081 19.3447 3.98506
30.9262 16.8409 2
31.9153 14.4823 0.0203867
40.3764 25.6628 -0.00223327
38.0702 22.9148 0.00552237
33.5513 17.3922 0.0207039
35.5815 20.0916 0.0214985
32.862 19.8028 2
35.1938 22.6636 2
37.782 25.2179 2
32.3096 22.4255 3.99164
34.9979 25.2141 4.00472
34.1332 37.5028 3.89098
35.8324 37.4996 2
37.496 37.4951 0.0576876
37.6389 50.9886 -0.0106189
36.8674 48.3427 0.051496
35.829 39.183 0.0891443
35.1522 46.0372 0.118994
33.9615 43.798 0.169024
34.2766 40.8015 0.15207
33.0771 42.0136 0.275411
35.4833 50.1416 2
34.2055 39.1772 2
32.7318 40.884 2
34.2723 47.4474 2
32.5126 42.6786 2
33.1401 45.1777 2
33.2789 49.1188 4.00012
32.406 39.2852 3.78358
31.3851 41.1477 3.82801
31.4685 43.7394 3.88501
32.2907 46.3367 3.92423
34.3709 52.4691 0.00526617
32.0286 51.1854 2
29.9021 49.6973 3.99031
30.5319 53.3665 0.0210011
28.4513 51.5803 2
26.5511 49.9694 3.97193
26.9027 53.4301 0.0268942
25.1084 51.7314 2
23.3879 50.1791 3.96936
23.5964 53.4716 0.0343836
22.0005 51.791 2
20.5062 50.3048 3.9674
18.0239 50.3221 3.96862
17.8598 52.7842 3.96314
19.232 51.6256 2
17.4467 55.3328 3.96665
18.9368 54.3002 2
20.4925 53.2126 0.0394699
17.1375 57.869 3.97412
18.4507 56.7188 2
19.9404 55.8272 0.0284272
17.1368 60.5467 3.97642
18.3694 59.1082 2
19.4402 57.8856 0.0246525
17.4069 63.4678 3.98375
18.6183 61.7672 2
19.7065 60.2044 0.0224707
17.9412 66.6174 3.99218
19.126 64.6772 2
20.2065 62.8605 0.0177593
18.75 69.9759 4
19.8845 67.8089 2
20.937 65.7657 0.0125479
21.9108 68.8722 0.00747178
20.9142 71.1327 2
23.1494 72.1454 0
21.587 13.6075 3.98153
22.1903 11.0277 3.98298
23.0964 12.7869 2
23.0408 8.17785 3.98625
23.9722 10.1677 2
24.1166 5.1435 3.99177
25.0226 7.3117 2
25.8598 9.38126 0.0163198
25.446 1.99014 4
26.2786 4.32845 2
27.0693 6.54178 0.0127877
27.7943 1.27778 2
28.4874 3.64431 0.00754599
30.1841 0.720592 0
34.1796 35.8231 3.88079
35.842 35.8233 2
37.4979 35.812 0.071491
21.3058 15.8312 3.98124
24.7766 12.072 0.0175842
23.7514 14.3584 0.0184856
25.358 13.9072 2
22.481 15.0352 2
24.0258 15.6214 2
23.2647 16.2535 3.97989
25.3806 16.09 3.98104
27.2913 13.3756 0.0180601
29.7806 14.2032 0.0190067
28.3571 15.9779 2
27.4405 18.8014 3.98365
32.7438 34.1191 3.76342
34.3037 34.2184 2
35.8513 34.1256 0.125766
34.1955 32.6524 0.242039
35.6679 30.4806 0.15632
37.5298 28.6355 0.11833
40.0394 27.5745 0.0831478
37.6125 27.2423 2
33.0893 32.9798 2
35.1795 28.925 2
33.9583 31.1733 2
35.0724 27.4013 3.93453
33.1779 29.8484 3.8832
32.5591 32.3375 3.82769
29.5817 21.9394 3.99723
30.2088 19.3475 2
30.9269 16.8405 0.0201713
37.7973 25.2277 -0.00831784
35.1954 22.6685 0.0117195
32.8613 19.8015 0.0194492
32.3081 22.4242 2
35.0109 25.2073 2
31.7395 25.647 4.00368
32.2873 37.5049 3.7905
34.1522 37.5044 2
35.8187 37.5006 0.0767815
35.4863 50.1245 -0.00146252
34.2812 47.4131 0.0741888
34.186 39.1834 0.116686
33.1555 45.157 0.112878
32.5368 42.6579 0.162245
32.7227 40.8829 0.234381
33.273 49.111 2
32.4167 39.2817 2
31.362 41.1641 2
32.2648 46.361 2
31.4464 43.7594 2
31.2062 47.951 3.99219
30.6351 39.4311 3.82599
30.1192 41.9556 3.87831
30.4926 44.9262 3.93999
32.0305 51.1773 -0.00203397
29.8988 49.6962 2
27.9423 48.1627 3.96936
28.4532 51.5808 0.022859
26.5495 49.9677 2
24.7146 48.4521 3.97288
25.1102 51.7335 0.0378884
23.3872 50.1771 2
21.7295 48.7749 3.97046
22.0017 51.7922 0.0395632
20.5046 50.3038 2
19.088 49.0823 3.97218
16.9299 49.3236 3.97223
16.8 51.3999 3.96644
18.0245 50.3213 2
16.4039 53.8642 3.96493
17.8579 52.784 2
19.2336 51.6261 0.0356979
15.9824 56.4691 3.96876
17.446 55.3332 2
18.9378 54.3005 0.0374866
15.7513 59.207 3.97513
17.137 57.8703 2
18.4516 56.7178 0.0252509
15.7882 62.1364 3.98013
17.1369 60.5482 2
18.3696 59.107 0.0253747
16.0882 65.3 3.9914
17.4067 63.469 2
18.6182 61.7658 0.0207696
16.6661 68.6801 4
17.9406 66.6173 2
19.126 64.6761 0.0135062
18.75 69.9759 2
19.8849 67.8089 0.00756664
20.9142 71.1327 0
20.2194 14.5967 3.98061
21.5875 13.6075 2
20.5296 11.9977 3.98235
21.1437 9.14778 3.98595
22.1904 11.0274 2
23.096 12.787 0.0179298
22.0156 6.08261 3.99157
23.0405 8.1774 2
23.9723 10.1681 0.0165576
23.1494 2.85457 4
24.1161 5.14337 2
25.023 7.31219 0.0133571
25.446 1.99012 2
26.279 4.32864 0.00792095
27.7943 1.27781 0
32.4105 35.7193 3.77835
34.1963 35.8304 2
35.8289 35.8203 0.089144
21.3066 15.831 2
20.3041 16.9649 3.98176
22.0979 16.6377 3.97887
25.3574 13.9074 0.018555
22.4803 15.0353 0.0189173
24.0251 15.6214 0.0193129
25.3812 16.09 2
23.2654 16.2535 2
24.2051 18.4559 3.97764
27.0215 21.4623 3.99053
28.3569 15.9776 0.0187712
27.4418 18.8017 2
31.4171 33.8601 3.82929
32.7559 34.1186 2
34.2863 34.2083 0.152682
33.1038 32.9883 0.274841
33.9809 31.2042 0.168452
35.1913 28.9501 0.112656
37.6119 27.2725 0.0686725
35.0543 27.3666 2
32.5127 32.3174 2
33.1609 29.8222 2
32.6017 28.1268 3.94632
31.4757 31.2691 3.88573
28.8424 24.4124 3.98125
29.5788 21.9438 2
30.2081 19.3447 0.0149425
34.9979 25.2141 -0.00472066
32.3096 22.4255 0.00836028
31.7444 25.6311 2
29.7136 27.327 3.96517
30.3372 37.496 3.83215
32.2919 37.5017 2
34.1332 37.5028 0.109017
33.2789 49.1188 -0.000124803
32.2907 46.3367 0.0757741
32.406 39.2852 0.216418
31.4685 43.7394 0.114986
31.3851 41.1477 0.171986
31.203 47.9535 2
30.6144 39.4453 2
30.0982 41.9697 2
30.4771 44.9419 2
29.2759 46.552 4.00103
29.2159 39.854 3.88905
28.8333 43.1508 3.94154
29.9021 49.6973 0.00969066
27.9384 48.1587 2
26.0412 46.6346 3.97544
26.5511 49.9694 0.0280716
24.7145 48.4495 2
22.9024 47.0584 3.9744
23.3879 50.1791 0.0306393
21.7294 48.7734 2
20.0574 47.6059 3.97706
20.5062 50.3048 0.0325983
19.089 49.0813 2
17.719 48.1698 3.97589
16.1747 48.676 3.97469
16.931 49.323 2
15.8746 50.1633 3.96926
15.3925 52.4099 3.96615
16.7993 51.3995 2
18.0239 50.3221 0.0313842
14.8773 54.9705 3.96636
16.4037 53.8642 2
17.8598 52.7842 0.036861
14.4624 57.7351 3.97178
15.982 56.4699 2
17.4467 55.3328 0.0333537
14.2668 60.6899 3.97871
15.7512 59.2086 2
17.1375 57.869 0.0258772
14.333 63.8589 3.98928
15.7879 62.1377 2
17.1368 60.5467 0.0235815
14.6715 67.2507 4
16.0874 65.2997 2
17.4069 63.4678 0.0162543
16.6661 68.6801 2
17.9412 66.6174 0.0078208
18.75 69.9759 0
18.9336 15.7838 3.98035
20.2199 14.5967 2
18.9794 13.1089 3.98136
21.587 13.6075 0.0184725
20.5299 11.9976 2
19.3429 10.2357 3.98549
19.9903 7.14725 3.99151
21.1435 9.14751 2
22.1903 11.0277 0.0170245
20.9142 3.86727 4
22.015 6.08262 2
23.0408 8.17785 0.0137457
23.1494 2.85451 2
24.1166 5.1435 0.00823282
25.446 1.99014 0
30.6529 35.5805 3.82903
32.4213 35.7208 2
34.1796 35.8231 0.119206
21.3058 15.8312 0.0187601
22.0987 16.6377 2
20.3048 16.9642 2
19.2473 18.413 3.97768
21.783 17.8552 3.97974
25.3806 16.09 0.0189648
23.2647 16.2535 0.0201075
24.2062 18.4559 2
22.2848 19.9011 3.97459
24.6016 21.3319 3.98504
26.452 23.7286 3.9697
27.021 21.4622 2
27.4405 18.8014 0.0163462
30.1493 33.0523 3.88425
31.393 33.827 2
32.7438 34.1191 0.236578
32.5591 32.3375 0.172313
33.1779 29.8484 0.116801
35.0724 27.4013 0.0654694
32.5927 28.1132 2
31.4635 31.2455 2
30.2029 29.5657 3.95839
27.9543 26.5524 3.97853
28.8423 24.4229 2
29.5817 21.9394 0.00276917
31.7395 25.647 -0.00367912
29.7114 27.2928 2
28.8768 37.5111 3.89697
30.328 37.4988 2
32.2873 37.5049 0.2095
31.2062 47.951 0.00781201
30.4926 44.9262 0.0600057
30.6351 39.4311 0.174006
30.1192 41.9556 0.121692
29.2731 46.5668 2
29.1934 39.8724 2
28.8072 43.1684 2
27.4136 44.8475 3.98187
26.9885 40.5836 3.96396
27.9423 48.1627 0.030636
26.0384 46.6365 2
24.1306 45.1889 3.97615
24.7146 48.4521 0.0271174
22.9034 47.0567 2
21.0294 45.8778 3.97883
21.7295 48.7749 0.0295372
20.0595 47.6047 2
18.3899 46.7272 3.97793
19.088 49.0823 0.0278175
17.7197 48.169 2
16.3763 47.7058 3.97582
16.1755 48.6755 2
15.2183 49.009 3.97222
16.9299 49.3236 0.0277717
15.8755 50.1628 2
14.5048 50.9797 3.96806
13.8373 53.4297 3.96763
15.3928 52.4098 2
16.8 51.3999 0.033563
13.2599 56.1616 3.96886
14.8773 54.9706 2
16.4039 53.8642 0.0350669
12.8499 59.1233 3.97728
14.4623 57.7362 2
15.9824 56.4691 0.0312438
12.6788 62.3011 3.98689
14.2666 60.691 2
15.7513 59.207 0.02487
12.7746 65.6939 4
14.3319 63.8582 2
15.7882 62.1364 0.0198702
14.6714 67.2507 2
16.0882 65.3 0.00860067
16.6661 68.6801 0
17.6696 17.16 3.97724
18.9341 15.7835 2
17.5112 14.3736 3.9802
20.2194 14.5967 0.0193869
18.9799 13.1086 2
17.6384 11.4548 3.9845
20.5296 11.9977 0.0176494
19.3429 10.2355 2
18.0505 8.33996 3.99149
18.75 5.0241 4
19.9896 7.14754 2
21.1437 9.14778 0.0140536
20.9142 3.86727 2
22.0156 6.08261 0.00843471
23.1494 2.85457 0
29.2361 35.1322 3.89315
30.6315 35.5627 2
32.4105 35.7193 0.221651
22.0979 16.6377 0.0211263
20.3041 16.9649 0.0182357
21.7837 17.855 2
19.248 18.4121 2
17.9887 19.9461 3.97342
20.8818 19.3861 3.97721
24.2051 18.4559 0.0223644
22.2854 19.9008 2
24.6016 21.3325 2
22.3728 21.7286 3.97733
24.7243 23.1752 3.97321
25.5366 25.9572 3.97063
26.4553 23.7286 2
27.0215 21.4623 0.0094741
28.5244 32.3502 3.93917
30.1241 33.0418 2
31.4171 33.8601 0.170715
31.4757 31.2691 0.114273
32.6017 28.1268 0.0536773
30.1896 29.5599 2
27.1324 29.1388 4.00449
27.9505 26.5564 2
28.8424 24.4124 0.0187492
29.7136 27.327 0.03483
27.1099 37.3666 3.94561
28.8411 37.5042 2
30.3372 37.496 0.167854
29.2759 46.552 -0.00102566
28.8333 43.1508 0.0584559
29.2159 39.854 0.110946
27.4072 44.8654 2
26.9741 40.6009 2
25.4329 43.1597 3.98359
24.2396 39.4412 3.97841
26.0412 46.6346 0.0245597
24.1259 45.1877 2
22.0242 43.9318 3.97879
22.9024 47.0584 0.0256017
21.0291 45.8767 2
19.0741 44.958 3.97847
20.0574 47.6059 0.0229384
18.3915 46.7264 2
16.6823 46.2045 3.97635
17.719 48.1698 0.0241128
16.377 47.7053 2
14.9588 47.6636 3.97359
16.1747 48.676 0.0253054
15.2192 49.0086 2
13.8012 49.5414 3.96947
15.8746 50.1633 0.0307408
14.5056 50.9794 2
12.9029 51.8706 3.96808
12.1475 54.5226 3.97009
13.8377 53.4296 2
15.3925 52.4099 0.0338513
11.5362 57.4549 3.9743
13.26 56.162 2
14.8773 54.9705 0.0336425
11.1336 60.627 3.98507
12.8499 59.124 2
14.4624 57.7351 0.0282151
10.9835 64.0165 4
12.6775 62.2997 2
14.2668 60.6899 0.0212946
12.7745 65.694 2
14.333 63.8589 0.0107193
14.6715 67.2507 0
16.405 18.6555 3.97437
17.67 17.1594 2
16.1027 15.7833 3.97915
18.9336 15.7838 0.0196534
17.5117 14.373 2
16.0202 12.8088 3.98259
18.9794 13.1089 0.0186408
17.6386 11.4545 2
16.2017 9.66285 3.99124
19.3429 10.2357 0.014512
18.0498 8.34049 2
16.6661 6.31991 4
18.75 5.02404 2
19.9903 7.14725 0.0084923
20.9142 3.86727 0
27.6338 34.7854 3.93861
29.2114 35.1127 2
30.6529 35.5805 0.170973
16.6962 21.386 3.96507
21.783 17.8552 0.0202621
19.2473 18.413 0.0223212
20.8824 19.3856 2
17.9893 19.9449 2
19.7381 21.5829 3.97518
22.2848 19.9011 0.0254068
24.6016 21.3319 0.0149582
22.373 21.7284 2
24.7256 23.1747 2
22.8907 24.6095 3.97068
24.6741 28.5364 3.97699
25.5343 25.9561 2
26.452 23.7286 0.0303006
26.3688 31.7158 3.98743
28.4981 32.3329 2
30.1493 33.0523 0.11575
30.2029 29.5657 0.0416133
27.1472 29.1297 2
27.9543 26.5524 0.0214742
24.9368 36.8593 3.98839
27.088 37.3635 2
28.8768 37.5111 0.103026
27.4136 44.8475 0.0181334
26.9885 40.5836 0.0360415
25.4194 43.1655 2
24.2266 39.4404 2
23.1374 41.8011 3.97981
21.9579 38.5129 3.97766
24.1306 45.1889 0.0238503
22.0234 43.9327 2
19.8713 42.8779 3.97779
21.0294 45.8778 0.0211662
19.0743 44.9573 2
17.0348 44.3715 3.97677
18.3899 46.7272 0.0220658
16.6831 46.204 2
14.8924 46.0842 3.9743
16.3763 47.7058 0.0241827
14.9595 47.6633 2
13.3121 48.0042 3.97053
15.2183 49.009 0.0277805
13.8019 49.5412 2
12.1211 50.2502 3.96853
14.5048 50.9797 0.0319444
12.9034 51.8705 2
11.1424 52.8339 3.96979
10.3272 55.7081 3.97388
12.1478 54.5226 2
13.8373 53.4297 0.0323671
9.70068 58.8489 3.98266
11.5363 57.4551 2
13.2599 56.1616 0.0311417
9.30605 62.2254 4
11.1322 60.6249 2
12.8499 59.1233 0.0227153
10.9835 64.0165 2
12.6788 62.3011 0.0131063
12.7746 65.6939 0
15.1557 20.1936 3.96804
16.4054 18.6547 2
14.75 17.307 3.97629
17.6696 17.16 0.0227581
16.1031 15.7823 2
14.4829 14.2915 3.98106
17.5112 14.3736 0.0197993
16.0204 12.8081 2
14.4446 11.1139 3.99044
17.6384 11.4548 0.0155009
16.2011 9.66354 2
14.6715 7.74927 4
18.0505 8.33996 0.00851312
16.6661 6.31988 2
18.75 5.0241 0
25.5905 34.2715 3.99093
27.6127 34.7768 2
29.2361 35.1322 0.106846
17.8771 22.3346 3.97501
15.5423 22.9255 3.96923
16.6967 21.3854 2
20.8818 19.3861 0.0227926
17.9887 19.9461 0.0265825
19.7384 21.5824 2
19.7105 24.39 3.96958
22.3728 21.7286 0.0226653
24.7243 23.1752 0.0267866
22.8913 24.6092 2
22.0426 27.8367 3.97156
23.9279 31.2003 3.97534
24.6834 28.5375 2
25.5366 25.9572 0.0293655
26.3579 31.6986 2
28.5244 32.3502 0.0608292
27.1324 29.1388 -0.00449442
22.6878 36.2848 3.98112
24.9159 36.8555 2
27.1099 37.3666 0.0543928
25.4329 43.1597 0.0164104
24.2396 39.4412 0.0215906
23.1311 41.7999 2
21.9513 38.5119 2
20.8755 40.6392 3.97649
20.2786 37.7953 3.97757
22.0242 43.9318 0.02121
19.8715 42.8777 2
17.4772 42.0924 3.97701
19.0741 44.958 0.0215343
17.036 44.3709 2
14.9152 44.1948 3.97447
16.6823 46.2045 0.0236493
14.893 46.0839 2
12.9921 46.2912 3.971
14.9588 47.6636 0.026409
13.3126 48.0039 2
11.4925 48.5477 3.96855
13.8012 49.5414 0.0305336
12.1215 50.2501 2
10.2677 51.0788 3.96965
12.9029 51.8706 0.0319202
11.1428 52.8338 2
9.23572 53.888 3.97407
8.38438 56.9816 3.9821
10.3275 55.7078 2
12.1475 54.5226 0.0299114
7.74927 60.3285 4
9.69944 58.846 2
11.5362 57.4549 0.0256955
9.306 62.2255 2
11.1336 60.627 0.0149306
10.9835 64.0165 0
13.9703 21.7587 3.96792
15.1562 20.1929 2
13.4541 18.9065 3.97084
16.405 18.6555 0.0256266
14.7504 17.3057 2
13.0289 15.885 3.97961
16.1027 15.7833 0.0208522
14.4831 14.2904 2
12.7822 12.6875 3.98885
16.0202 12.8088 0.0174058
14.4439 11.1148 2
12.7746 9.30605 4
16.2017 9.66285 0.00875679
14.6715 7.74924 2
16.6661 6.31991 0
23.2637 33.812 3.98099
25.57 34.2669 2
27.6338 34.7854 0.0613936
17.6667 24.051 3.97152
17.8774 22.3342 2
14.3358 24.4552 3.96972
15.543 22.9253 2
16.6962 21.386 0.0349293
19.1415 27.2147 3.97087
19.7381 21.5829 0.0248189
19.7107 24.3897 2
21.3296 30.6767 3.97338
22.8907 24.6095 0.0293244
22.0475 27.8372 2
23.9154 31.2009 2
24.6741 28.5364 0.0230074
26.3688 31.7158 0.0125679
20.4022 35.9348 3.97717
22.6837 36.2805 2
24.9368 36.8593 0.0116102
23.1374 41.8011 0.0201854
21.9579 38.5129 0.0223425
20.8757 40.6399 2
20.2798 37.7955 2
18.2158 39.0024 3.97769
19.8713 42.8779 0.0222116
17.4785 42.0917 2
14.893 41.9141 3.97479
17.0348 44.3715 0.0232321
14.9161 44.1946 2
12.7457 44.3875 3.97114
14.8924 46.0842 0.0257026
12.9925 46.291 2
10.9956 46.7316 3.9685
13.3121 48.0042 0.0294743
11.4927 48.5476 2
9.5307 49.2392 3.96918
12.1211 50.2502 0.0314747
10.2681 51.0786 2
8.26852 52.0018 3.97371
11.1424 52.8339 0.0302087
9.23611 53.8874 2
7.19327 55.0322 3.98298
6.31991 58.3339 4
8.38355 56.9784 2
10.3272 55.7081 0.0261227
7.74924 60.3285 2
9.70068 58.8489 0.0173432
9.30605 62.2254 0
13.2448 25.3657 3.97139
12.8357 23.2842 3.96856
13.971 21.7584 2
12.2421 20.5562 3.96929
15.1557 20.1936 0.0319634
13.4547 18.9053 2
11.6601 17.5671 3.97674
14.75 17.307 0.023711
13.0291 15.8838 2
11.2198 14.3728 3.98673
14.4829 14.2915 0.0189408
12.7812 12.6885 2
10.9835 10.9835 4
14.4446 11.1139 0.00955768
12.7745 9.306 2
14.6715 7.74927 0
20.7631 33.4072 3.97544
23.2692 33.8141 2
25.5905 34.2715 0.00906661
15.97 26.4087 3.97145
17.667 24.0507 2
17.8771 22.3346 0.0249882
14.3361 24.4551 2
15.5423 22.9255 0.0307746
18.5 30.1832 3.97415
19.141 27.2147 2
19.7105 24.39 0.0304249
21.3375 30.6771 2
22.0426 27.8367 0.0284449
23.9279 31.2003 0.0246625
17.8335 35.969 3.97821
20.3999 35.9352 2
22.6878 36.2848 0.0188751
20.8755 40.6392 0.0235107
20.2786 37.7953 0.0224334
18.218 39.0026 2
14.4082 39.1741 3.97585
17.4772 42.0924 0.0229889
14.8941 41.914 2
12.4474 42.2727 3.97184
14.9152 44.1948 0.0255348
12.7461 44.3873 2
10.5772 44.8002 3.9688
12.9921 46.2912 0.0289958
10.9958 46.7315 2
8.91281 47.3185 3.96872
11.4925 48.5477 0.03145
9.53091 49.2391 2
7.43543 50.0354 3.97313
10.2677 51.0788 0.0303547
8.26885 52.0012 2
6.13387 53.0073 3.98351
9.23572 53.888 0.0259316
7.19272 55.0294 2
5.0241 56.25 4
6.31988 58.3339 2
8.38438 56.9816 0.0178973
7.74927 60.3285 0
13.4999 26.8187 3.97061
11.9455 24.7899 3.96947
13.2449 25.3656 2
11.1451 22.2381 3.96984
12.8362 23.284 2
13.9703 21.7587 0.0320785
12.2429 20.5556 2
10.3921 19.3224 3.97412
13.4541 18.9065 0.0291566
11.6606 17.5662 2
9.76095 16.1568 3.98429
13.0289 15.885 0.0203895
11.2186 14.3743 2
9.30607 12.7746 4
12.7822 12.6875 0.0111545
10.9835 10.9835 2
12.7746 9.30605 0
18.0033 33.119 3.97671
20.7631 33.4073 2
23.2637 33.812 0.0190126
15.5793 29.6439 3.97297
15.97 26.4087 2
17.6667 24.051 0.0284776
14.3358 24.4552 0.0302842
18.5 30.1834 2
19.1415 27.2147 0.0291306
21.3296 30.6767 0.0266164
15.0229 36.0204 3.97585
17.8352 35.9693 2
20.4022 35.9348 0.0228321
12.6698 37.8285 3.97478
18.2158 39.0024 0.0223073
14.4089 39.1739 2
11.9665 40.1378 3.97244
14.893 41.9141 0.0252095
12.4479 42.2726 2
10.1837 42.7755 3.96895
12.7457 44.3875 0.028857
10.5773 44.8001 2
8.39061 45.3204 3.96845
10.9956 46.7316 0.0315009
8.91287 47.3184 2
6.72669 48.0006 3.97261
9.5307 49.2392 0.03082
7.43561 50.0349 2
5.21071 50.9106 3.98336
8.26852 52.0018 0.0262912
6.13358 53.0053 2
3.86727 54.0858 4
7.19327 55.0322 0.0170204
5.02404 56.25 2
6.31991 58.3339 0
12.9677 29.0372 3.97032
11.3807 26.4893 3.96912
13.4995 26.8185 2
10.2023 23.969 3.97019
11.946 24.7898 2
13.2448 25.3657 0.0286134
9.24477 21.1403 3.97345
11.1458 22.2379 2
12.8357 23.2842 0.0314422
12.2421 20.5562 0.0307053
10.3929 19.3221 2
8.41722 18.0287 3.98235
11.6601 17.5671 0.0232642
9.75983 16.1592 2
7.74928 14.6715 4
11.2198 14.3728 0.013274
9.30602 12.7745 2
10.9835 10.9835 0
14.5821 32.8671 3.97458
18.005 33.1194 2
20.7631 33.4072 0.0245616
15.5798 29.644 2
15.97 26.4087 0.0285545
18.5 30.1832 0.0258459
12.967 36.2097 3.97352
15.0248 36.0204 2
17.8335 35.969 0.0217904
12.6706 37.8284 2
11.3137 38.3085 3.97286
14.4082 39.1741 0.0241509
11.9676 40.1377 2
9.77527 40.7523 3.96937
12.4474 42.2727 0.0281582
10.1841 42.7754 2
7.93997 43.2691 3.96823
10.5772 44.8002 0.0312035
8.3907 45.3202 2
6.13295 45.9057 3.97208
8.91281 47.3185 0.031278
6.72673 48.0003 2
4.42229 48.7514 3.98283
7.43543 50.0354 0.0268692
5.21056 50.9096 2
2.85457 51.8506 4
6.13387 53.0073 0.0164934
3.86727 54.0858 2
5.0241 56.25 0
12.1147 31.2598 3.97147
10.7983 28.4168 3.96895
12.9683 29.0371 2
9.41716 25.7986 3.96942
11.3809 26.4891 2
13.4999 26.8187 0.0293911
8.23115 23.0236 3.97388
10.2029 23.9689 2
11.9455 24.7899 0.030533
7.19948 19.9789 3.98222
9.2456 21.1403 2
11.1451 22.2381 0.03016
10.3921 19.3224 0.0258761
8.4166 18.0316 2
6.31992 16.6661 4
9.76095 16.1568 0.015713
7.74926 14.6714 2
9.30607 12.7746 0
12.1457 34.2964 3.97383
14.5833 32.8672 2
18.0033 33.119 0.0232912
15.5793 29.6439 0.027034
10.8759 36.6108 3.97233
12.968 36.2097 2
15.0229 36.0204 0.0241541
12.6698 37.8285 0.0252225
11.3144 38.3084 2
9.36723 38.8222 3.97003
11.9665 40.1378 0.0275574
9.77591 40.7521 2
7.55134 41.2105 3.96827
10.1837 42.7755 0.0310497
7.94004 43.269 2
5.64513 43.7684 3.97163
8.39061 45.3204 0.0315464
6.13304 45.9053 2
3.76794 46.5371 3.98225
6.72669 48.0006 0.0273905
4.42225 48.7509 2
1.99014 49.554 4
5.21071 50.9106 0.0166435
2.85451 51.8506 2
3.86727 54.0858 0
10.9588 32.921 3.97275
10.1164 30.3838 3.96914
12.1155 31.2598 2
8.72503 27.732 3.969
10.7985 28.4167 2
12.9677 29.0372 0.0296762
7.35668 24.9824 3.97299
9.41742 25.7985 2
11.3807 26.4893 0.0308787
6.11622 22.0023 3.98334
8.23175 23.0238 2
10.2023 23.969 0.0298138
5.02411 18.75 4
7.19923 19.9815 2
9.24477 21.1403 0.026551
8.41722 18.0287 0.0176463
6.3199 16.6661 2
7.74928 14.6715 0
10.482 35.0006 3.97208
12.1466 34.2964 2
14.5821 32.8671 0.0254158
9.03561 36.9843 3.97028
10.8771 36.6108 2
12.967 36.2097 0.0264807
11.3137 38.3085 0.0271363
9.36785 38.8221 2
7.2316 39.1815 3.96874
9.77527 40.7523 0.030626
7.55156 41.2104 2
5.26062 41.614 3.97113
7.93997 43.2691 0.0317717
5.6452 43.7682 2
3.24577 44.2819 3.98191
6.13295 45.9057 0.0279246
3.76805 46.5368 2
1.27781 47.2057 4
4.42229 48.7514 0.0171739
1.99012 49.554 2
2.85457 51.8506 0
10.1192 33.8824 3.97245
9.40456 32.1555 3.96977
10.9594 32.921 2
8.07401 29.6955 3.96885
10.1168 30.3838 2
12.1147 31.2598 0.0285281
6.60052 27.0083 3.97249
8.72504 27.7319 2
10.7983 28.4168 0.0310511
5.1716 24.095 3.98339
7.35699 24.9825 2
9.41716 25.7986 0.030578
3.86728 20.9142 4
6.11615 22.004 2
8.23115 23.0236 0.0261153
5.02406 18.75 2
7.19948 19.9789 0.0177758
6.31992 16.6661 0
8.85995 35.2794 3.97051
10.4825 35.0005 2
12.1457 34.2964 0.026173
7.01517 37.2055 3.96894
9.0358 36.9842 2
10.8759 36.6108 0.0276707
9.36723 38.8222 0.0299728
7.23179 39.1814 2
4.98838 39.4672 3.97123
7.55134 41.2105 0.0317279
5.26083 41.6137 2
2.85636 42.0022 3.98159
5.64513 43.7684 0.0283669
3.24587 44.2819 2
0.720592 44.8159 4
3.76794 46.5371 0.0177512
1.27778 47.2057 2
1.99014 49.554 0
8.89748 33.6982 3.9704
10.1197 33.8823 2
7.5115 31.6091 3.969
9.40487 32.1555 2
10.9588 32.921 0.0272484
5.94567 29.0693 3.97229
8.07394 29.6955 2
10.1164 30.3838 0.0308597
4.35938 26.2475 3.98277
6.60057 27.0084 2
8.72503 27.732 0.031004
2.85458 23.1494 4
5.17159 24.0958 2
7.35668 24.9824 0.02701
3.86728 20.9142 2
6.11622 22.0023 0.016663
5.02411 18.75 0
6.96529 35.3057 3.9691
8.8604 35.2794 2
10.482 35.0006 0.027916
4.83838 37.3395 3.97182
7.01523 37.2054 2
9.03561 36.9843 0.029717
7.2316 39.1815 0.0312596
4.98857 39.467 2
2.60449 39.7139 3.98133
5.26062 41.614 0.0288682
2.85659 42.0024 2
0.320823 42.3947 4
3.24577 44.2819 0.0180886
0.720551 44.8159 2
1.27781 47.2057 0
7.12522 33.4607 3.96923
8.89766 33.6982 2
10.1192 33.8824 0.027553
5.41658 31.1332 3.97221
7.51154 31.6091 2
9.40456 32.1555 0.0302275
3.68113 28.4433 3.98228
5.94561 29.0694 2
8.07401 29.6955 0.0311522
1.99015 25.446 4
4.35939 26.2477 2
6.60052 27.0083 0.0275061
2.85453 23.1494 2
5.1716 24.095 0.016612
3.86728 20.9142 0
4.85263 35.2512 3.97204
6.96554 35.3057 2
8.85995 35.2794 0.0294943
2.49585 37.4285 3.98192
4.83841 37.3396 2
7.01517 37.2055 0.0310562
4.98838 39.4672 0.0287677
2.60473 39.7143 2
0.080333 39.9526 4
2.85636 42.0022 0.0184062
0.320817 42.3947 2
0.720592 44.8159 0
5.04597 33.1899 3.97224
7.12534 33.4607 2
8.89748 33.6982 0.0296034
3.14548 30.666 3.98192
5.41661 31.1334 2
7.5115 31.6091 0.0310008
1.27793 27.7943 4
3.68118 28.4435 2
5.94567 29.0693 0.0277092
1.99013 25.446 2
4.35938 26.2475 0.0172294
2.85458 23.1494 0
2.54796 35.159 3.98196
4.85289 35.2514 2
6.96529 35.3057 0.0309009
0 37.5 4
2.49593 37.4289 2
4.83838 37.3395 0.0281827
2.60449 39.7139 0.0186718
0.0802903 39.9526 2
0.320823 42.3947 0
2.76553 32.9057 3.98207
5.0461 33.1901 2
7.12522 33.4607 0.0307661
0.721173 30.1842 4
3.14559 30.6665 2
5.41658 31.1332 0.0277938
1.27779 27.7943 2
3.68113 28.4433 0.0177215
1.99015 25.446 0
0.0806499 35.0474 4
2.54825 35.1594 2
4.85263 35.2512 0.0279558
0 37.5 2
2.49585 37.4285 0.0180768
0.080333 39.9526 0
0.32156 32.6054 4
2.76566 32.9062 2
5.04597 33.1899 0.0277597
0.72056 30.1841 2
3.14548 30.666 0.0180764
1.27793 27.7943 0
0.0802889 35.0474 2
2.54796 35.159 0.0180382
0 37.5 0
0.320817 32.6053 2
2.76553 32.9057 0.0179334
0.721173 30.1842 0
0.0806499 35.0474 0
0.32156 32.6054 0
CELLS 1910 17190
8 18 6 25 56 2 0 5 16
8 57 23 6 18 17 4 0 2
8 78 36 9 29 31 11 1 7
8 31 11 1 7 79 37 10 30
8 110 57 18 50 48 17 2 14
8 50 18 56 111 14 2 16 49
8 116 62 22 55 52 20 3 15
8 56 25 67 118 16 5 24 53
8 119 63 23 57 54 21 4 17
8 55 22 63 119 15 3 21 54
8 58 26 68 121 18 6 25 56
8 122 65 26 58 57 23 6 18
8 73 31 7 27 142 79 30 71
8 143 78 29 72 73 31 7 27
8 83 147 76 34 32 74 28 8
8 84 148 78 36 33 75 29 9
8 76 34 8 28 148 84 33 75
8 37 79 150 86 10 30 77 35
8 151 87 36 78 80 38 11 31
8 80 38 11 31 152 88 37 79
8 175 100 42 94 96 44 12 40
8 44 96 176 101 12 40 95 43
8 101 176 98 46 43 95 41 13
8 46 98 178 103 13 41 97 45
8 178 103 45 97 147 83 32 74
8 189 116 55 109 106 52 15 47
8 111 56 118 191 49 16 53 107
8 192 119 57 110 108 54 17 48
8 109 55 119 192 47 15 54 108
8 194 122 58 112 110 57 18 50
8 112 58 121 195 50 18 56 111
8 115 61 19 51 197 124 59 113
8 115 61 125 198 51 19 60 114
8 198 125 62 116 114 60 20 52
8 200 127 64 120 116 62 22 55
8 118 67 132 202 53 24 66 117
8 121 68 133 203 56 25 67 118
8 120 64 128 204 55 22 63 119
8 204 128 65 122 119 63 23 57
8 206 134 68 121 123 69 26 58
8 123 69 26 58 207 131 65 122
8 226 147 74 138 140 76 28 70
8 229 148 75 139 143 78 29 72
8 140 76 28 70 229 148 75 139
8 142 79 30 71 231 150 77 141
8 144 80 31 73 232 152 79 142
8 233 151 78 143 144 80 31 73
8 150 86 35 77 235 154 81 145
8 235 154 81 145 146 82 39 91
8 146 82 39 91 236 155 90 165
8 238 157 83 147 149 85 34 76
8 239 158 84 148 151 87 36 78
8 149 85 34 76 239 158 84 148
8 152 88 37 79 241 160 86 150
8 242 161 87 151 153 89 38 80
8 153 89 38 80 243 162 88 152
8 171 98 41 92 265 178 97 169
8 265 178 97 169 226 147 74 138
8 172 96 40 93 266 176 95 170
8 266 176 95 170 171 98 41 92
8 269 175 94 173 172 96 40 93
8 271 180 99 174 175 100 42 94
8 197 124 59 113 271 180 99 174
8 272 181 100 175 177 102 44 96
8 273 182 101 176 179 104 46 98
8 177 102 44 96 273 182 101 176
8 179 104 46 98 275 184 103 178
8 275 184 103 178 238 157 83 147
8 188 115 51 105 283 197 113 186
8 188 115 198 284 105 51 114 187
8 284 198 116 189 187 114 52 106
8 286 200 120 193 189 116 55 109
8 191 118 202 288 107 53 117 190
8 195 121 203 289 111 56 118 191
8 193 120 204 290 109 55 119 192
8 290 204 122 194 192 119 57 110
8 196 123 58 112 292 207 122 194
8 293 206 121 195 196 123 58 112
8 199 126 61 115 297 211 124 197
8 298 212 127 200 198 125 62 116
8 199 126 212 298 115 61 125 198
8 205 129 64 120 300 214 127 200
8 301 217 130 201 202 132 66 117
8 209 136 168 264 301 217 130 201
8 302 219 132 202 203 133 67 118
8 303 220 133 203 206 134 68 121
8 205 129 215 304 120 64 128 204
8 304 215 131 207 204 128 65 122
8 306 221 134 206 208 135 69 123
8 208 135 69 123 307 218 131 207
8 210 137 167 263 309 223 136 209
8 328 238 147 226 230 149 76 140
8 228 146 91 166 329 236 165 260
8 231 150 77 141 330 235 145 227
8 330 235 145 227 228 146 91 166
8 332 239 148 229 233 151 78 143
8 230 149 76 140 332 239 148 229
8 232 152 79 142 334 241 150 231
8 234 153 80 144 335 243 152 232
8 336 242 151 233 234 153 80 144
8 236 155 90 165 338 245 164 259
8 241 160 86 150 339 246 154 235
8 339 246 154 235 237 156 82 146
8 237 156 82 146 340 247 155 236
8 342 249 157 238 240 159 85 149
8 343 250 158 239 242 161 87 151
8 240 159 85 149 343 250 158 239
8 243 162 88 152 345 252 160 241
8 244 163 253 346 153 89 161 242
8 244 163 89 153 347 254 162 243
8 311 224 261 371 210 137 167 263
8 263 167 262 372 209 136 168 264
8 267 179 98 171 375 275 178 265
8 375 275 178 265 328 238 147 226
8 376 273 176 266 267 179 98 171
8 268 177 96 172 376 273 176 266
8 379 272 175 269 268 177 96 172
8 380 271 174 270 269 175 94 173
8 283 197 113 186 380 271 174 270
8 381 277 180 271 272 181 100 175
8 297 211 124 197 381 277 180 271
8 382 278 181 272 274 183 102 177
8 274 183 102 177 383 279 182 273
8 383 279 182 273 276 185 104 179
8 385 281 184 275 342 249 157 238
8 276 185 104 179 385 281 184 275
8 285 199 115 188 393 297 197 283
8 394 298 200 286 284 198 116 189
8 285 199 298 394 188 115 198 284
8 291 205 120 193 396 300 200 286
8 397 301 201 287 288 202 117 190
8 295 209 264 374 397 301 201 287
8 398 302 202 288 289 203 118 191
8 399 303 203 289 293 206 121 195
8 291 205 304 400 193 120 204 290
8 400 304 207 292 290 204 122 194
8 294 208 123 196 402 307 207 292
8 403 306 206 293 294 208 123 196
8 296 210 263 373 405 309 209 295
8 408 312 213 299 297 211 126 199
8 299 213 313 409 199 126 212 298
8 409 313 214 300 298 212 127 200
8 305 216 129 205 411 315 214 300
8 412 318 217 301 302 219 132 202
8 309 223 136 209 412 318 217 301
8 413 320 219 302 303 220 133 203
8 306 221 321 414 206 134 220 303
8 307 218 131 207 415 316 215 304
8 305 216 316 415 205 129 215 304
8 417 322 221 306 308 222 135 208
8 308 222 135 208 418 319 218 307
8 310 225 137 210 420 325 223 309
8 423 326 224 311 310 225 137 210
8 329 236 165 260 441 338 259 368
8 442 342 238 328 333 240 149 230
8 331 237 146 228 443 340 236 329
8 334 241 150 231 444 339 235 330
8 444 339 235 330 331 237 146 228
8 446 343 239 332 336 242 151 233
8 333 240 149 230 446 343 239 332
8 335 243 152 232 448 345 241 334
8 337 244 153 234 449 347 243 335
8 337 244 346 450 234 153 242 336
8 338 245 164 259 452 349 258 367
8 340 247 155 236 453 350 245 338
8 345 252 160 241 454 351 246 339
8 454 351 246 339 341 248 156 237
8 341 248 156 237 455 352 247 340
8 240 159 251 344 342 249 354 457
8 242 161 253 346 343 250 355 458
8 343 250 355 458 240 159 251 344
8 347 254 162 243 460 357 252 345
8 348 255 358 461 244 163 253 346
8 348 255 163 244 462 359 254 347
8 473 360 257 365 363 256 364 482
8 452 349 258 367 365 257 366 485
8 422 324 369 488 311 224 261 371
8 371 261 370 490 263 167 262 372
8 407 311 371 491 296 210 263 373
8 373 263 372 492 295 209 264 374
8 493 385 275 375 442 342 238 328
8 377 276 179 267 493 385 275 375
8 378 274 177 268 494 383 273 376
8 494 383 273 376 377 276 179 267
8 497 382 272 379 378 274 177 268
8 498 381 271 380 379 272 175 269
8 393 297 197 283 498 381 271 380
8 499 387 277 381 382 278 181 272
8 408 312 211 297 499 387 277 381
8 500 388 278 382 384 280 183 274
8 501 389 279 383 386 282 185 276
8 384 280 183 274 501 389 279 383
8 386 282 185 276 503 391 281 385
8 503 391 281 385 457 354 249 342
8 511 408 299 395 393 297 199 285
8 395 299 409 512 285 199 298 394
8 512 409 300 396 394 298 200 286
8 401 305 205 291 514 411 300 396
8 515 412 301 397 398 302 202 288
8 405 309 209 295 515 412 301 397
8 516 413 302 398 399 303 203 289
8 403 306 414 517 293 206 303 399
8 402 307 207 292 518 415 304 400
8 401 305 415 518 291 205 304 400
8 404 308 208 294 520 418 307 402
8 521 417 306 403 404 308 208 294
8 406 310 210 296 523 420 309 405
8 526 423 311 407 406 310 210 296
8 410 314 213 299 527 424 312 408
8 528 425 315 411 409 313 214 300
8 410 314 425 528 299 213 313 409
8 416 317 216 305 530 427 315 411
8 531 430 318 412 413 320 219 302
8 420 325 223 309 531 430 318 412
8 532 432 320 413 414 321 220 303
8 417 322 433 533 306 221 321 414
8 418 319 218 307 534 428 316 415
8 416 317 428 534 305 216 316 415
8 419 323 434 536 308 222 322 417
8 419 323 222 308 537 431 319 418
8 421 327 225 310 539 438 325 420
8 421 327 439 541 310 225 326 423
8 543 437 324 422 423 326 224 311
8 441 338 259 368 559 452 367 486
8 443 340 236 329 560 453 338 441
8 333 240 344 447 442 342 457 561
8 445 341 237 331 562 455 340 443
8 448 345 241 334 563 454 339 444
8 563 454 339 444 445 341 237 331
8 336 242 346 450 446 343 458 565
8 446 343 458 565 333 240 344 447
8 449 347 243 335 567 460 345 448
8 451 348 244 337 568 462 347 449
8 451 348 461 569 337 244 346 450
8 570 463 349 452 473 360 257 365
8 453 350 245 338 570 463 349 452
8 455 352 247 340 571 464 350 453
8 460 357 252 345 572 465 351 454
8 572 465 351 454 456 353 248 341
8 456 353 248 341 573 466 352 455
8 344 251 356 459 457 354 468 575
8 458 355 469 576 344 251 356 459
8 346 253 358 461 458 355 469 576
8 462 359 254 347 578 471 357 460
8 348 255 359 462 461 358 472 579
8 591 474 360 473 475 361 256 363
8 475 361 256 363 594 477 362 479
8 363 256 364 482 479 362 480 603
8 590 473 365 484 481 363 482 605
8 482 364 257 365 606 483 366 485
8 559 452 367 486 484 365 485 607
8 542 436 487 609 422 324 369 488
8 525 422 488 611 407 311 371 491
8 488 369 489 612 371 261 370 490
8 491 371 490 613 373 263 372 492
8 495 386 276 377 614 503 385 493
8 614 503 385 493 561 457 342 442
8 615 501 383 494 495 386 276 377
8 496 384 274 378 615 501 383 494
8 618 500 382 497 496 384 274 378
8 619 499 381 498 497 382 272 379
8 511 408 297 393 619 499 381 498
8 620 505 387 499 500 388 278 382
8 527 424 312 408 620 505 387 499
8 502 390 506 621 384 280 388 500
8 622 507 389 501 504 392 282 386
8 502 390 280 384 622 507 389 501
8 504 392 282 386 624 509 391 503
8 624 509 391 503 575 468 354 457
8 513 410 299 395 630 527 408 511
8 631 528 411 514 512 409 300 396
8 513 410 528 631 395 299 409 512
8 519 416 305 401 633 530 411 514
8 634 531 412 515 516 413 302 398
8 523 420 309 405 634 531 412 515
8 635 532 413 516 517 414 303 399
8 521 417 533 636 403 306 414 517
8 520 418 307 402 637 534 415 518
8 519 416 534 637 401 305 415 518
8 522 419 308 404 639 537 418 520
8 522 419 536 640 404 308 417 521
8 524 421 310 406 642 539 420 523
8 524 421 541 644 406 310 423 526
8 646 543 422 525 526 423 311 407
8 529 426 314 410 647 544 424 527
8 528 425 545 648 411 315 427 530
8 529 426 545 648 410 314 425 528
8 535 429 317 416 649 546 427 530
8 650 548 430 531 532 432 320 413
8 539 438 325 420 650 548 430 531
8 533 433 550 651 414 321 432 532
8 536 434 551 652 417 322 433 533
8 537 431 319 418 653 547 428 534
8 535 429 547 653 416 317 428 534
8 538 435 552 654 419 323 434 536
8 538 435 323 419 655 549 431 537
8 540 440 327 421 657 556 438 539
8 540 440 557 659 421 327 439 541
8 541 439 555 660 423 326 437 543
8 661 554 436 542 543 437 324 422
8 676 570 452 559 590 473 365 484
8 560 453 338 441 676 570 452 559
8 562 455 340 443 677 571 453 560
8 447 344 459 566 561 457 575 678
8 564 456 341 445 679 573 455 562
8 567 460 345 448 680 572 454 563
8 680 572 454 563 564 456 341 445
8 565 458 576 682 447 344 459 566
8 450 346 461 569 565 458 576 682
8 568 462 347 449 684 578 460 567
8 451 348 462 568 569 461 579 685
8 686 580 463 570 591 474 360 473
8 571 464 350 453 686 580 463 570
8 573 466 352 455 687 581 464 571
8 572 465 582 688 460 357 471 578
8 574 467 582 688 456 353 465 572
8 574 467 353 456 689 583 466 573
8 459 356 470 577 575 468 585 691
8 576 469 586 692 459 356 470 577
8 461 358 472 579 576 469 586 692
8 462 359 471 578 579 472 588 694
8 704 591 473 590 593 475 363 481
8 595 476 592 705 475 361 474 591
8 593 475 363 481 707 594 479 602
8 594 477 362 479 709 598 478 600
8 595 476 361 475 711 597 477 594
8 479 362 480 603 600 478 601 720
8 481 363 482 605 602 479 603 722
8 603 480 364 482 723 604 483 606
8 605 482 365 484 724 606 485 607
8 656 553 608 726 542 436 487 609
8 645 542 609 728 525 422 488 611
8 609 487 610 729 488 369 489 612
8 611 488 612 730 491 371 490 613
8 616 504 386 495 731 624 503 614
8 731 624 503 614 678 575 457 561
8 732 622 501 615 616 504 386 495
8 617 502 384 496 732 622 501 615
8 617 502 621 735 496 384 500 618
8 736 620 499 619 618 500 382 497
8 630 527 408 511 736 620 499 619
8 621 506 626 737 500 388 505 620
8 647 544 424 527 737 626 505 620
8 623 508 627 738 502 390 506 621
8 623 508 390 502 739 628 507 622
8 625 510 628 739 504 392 507 622
8 740 629 509 624 691 585 468 575
8 625 510 392 504 740 629 509 624
8 632 529 410 513 744 647 527 630
8 631 528 648 745 514 411 530 633
8 632 529 648 745 513 410 528 631
8 638 535 416 519 746 649 530 633
8 747 650 531 634 635 532 413 516
8 642 539 420 523 747 650 531 634
8 636 533 651 748 517 414 532 635
8 640 536 652 749 521 417 533 636
8 639 537 418 520 750 653 534 637
8 638 535 653 750 519 416 534 637
8 641 538 419 522 751 655 537 639
8 641 538 654 752 522 419 536 640
8 643 540 421 524 753 657 539 642
8 643 540 659 755 524 421 541 644
8 644 541 660 757 526 423 543 646
8 758 661 542 645 646 543 422 525
8 529 426 544 647 648 545 662 759
8 530 427 545 648 649 546 663 760
8 535 429 546 649 653 547 664 761
8 762 666 548 650 651 550 432 532
8 657 556 438 539 762 666 548 650
8 652 551 668 763 533 433 550 651
8 654 552 669 764 536 434 551 652
8 655 549 431 537 765 665 547 653
8 538 435 549 655 654 552 667 766
8 661 554 671 768 542 436 553 656
8 658 558 440 540 769 674 556 657
8 658 558 675 770 540 440 557 659
8 659 557 673 771 541 439 555 660
8 660 555 672 772 543 437 554 661
8 788 686 570 676 704 591 473 590
8 677 571 453 560 788 686 570 676
8 679 573 455 562 789 687 571 677
8 566 459 577 683 678 575 691 790
8 681 574 456 564 791 689 573 679
8 680 572 688 792 567 460 578 684
8 681 574 688 792 564 456 572 680
8 682 576 692 794 566 459 577 683
8 569 461 579 685 682 576 692 794
8 568 462 578 684 685 579 694 796
8 687 581 464 571 798 696 580 686
8 798 696 580 686 705 592 474 591
8 689 583 466 573 799 697 581 687
8 688 582 698 800 578 471 588 694
8 690 584 698 800 574 467 582 688
8 690 584 467 574 801 699 583 689
8 693 587 701 803 577 470 585 691
8 693 587 470 577 804 702 586 692
8 695 589 702 804 579 472 586 692
8 695 589 472 579 805 703 588 694
8 708 595 705 813 593 475 591 704
8 710 596 706 814 595 476 592 705
8 707 594 479 602 816 709 600 719
8 708 595 475 593 817 711 594 707
8 709 598 478 600 819 715 599 717
8 711 597 477 594 820 714 598 709
8 710 596 476 595 822 713 597 711
8 600 478 601 720 717 599 718 832
8 602 479 603 722 719 600 720 834
8 720 601 480 603 835 721 604 723
8 722 603 482 605 836 723 606 724
8 767 670 725 839 656 553 608 726
8 756 656 726 841 645 542 609 728
8 726 608 727 842 609 487 610 729
8 728 609 729 843 611 488 612 730
8 844 740 624 731 790 691 575 678
8 733 625 504 616 844 740 624 731
8 734 623 502 617 845 739 622 732
8 733 625 739 845 616 504 622 732
8 734 623 738 846 617 502 621 735
8 735 621 737 847 618 500 620 736
8 744 647 527 630 847 737 620 736
8 621 506 627 738 737 626 741 848
8 647 544 626 737 759 662 741 848
8 623 508 628 739 738 627 742 849
8 740 629 585 691 850 743 700 802
8 625 510 629 740 739 628 743 850
8 632 529 647 744 745 648 759 854
8 633 530 648 745 746 649 760 855
8 638 535 649 746 750 653 761 856
8 857 762 650 747 748 651 532 635
8 753 657 539 642 857 762 650 747
8 749 652 763 858 636 533 651 748
8 752 654 764 859 640 536 652 749
8 751 655 537 639 860 765 653 750
8 641 538 655 751 752 654 766 861
8 754 658 540 643 862 769 657 753
8 754 658 770 863 643 540 659 755
8 755 659 771 864 644 541 660 757
8 758 661 768 866 645 542 656 756
8 757 660 772 867 646 543 661 758
8 759 662 773 868 648 545 663 760
8 649 546 663 760 761 664 774 871
8 765 665 547 653 872 775 664 761
8 873 777 666 762 763 668 550 651
8 769 674 556 657 873 777 666 762
8 764 669 779 874 652 551 668 763
8 654 552 667 766 764 669 778 875
8 655 549 665 765 766 667 776 876
8 768 671 782 877 656 553 670 767
8 772 672 783 878 661 554 671 768
8 658 558 674 769 770 675 786 879
8 659 557 675 770 771 673 785 881
8 882 784 672 772 771 673 555 660
8 789 687 571 677 897 798 686 788
8 897 798 686 788 813 705 591 704
8 791 689 573 679 898 799 687 789
8 795 693 803 900 683 577 691 790
8 793 690 574 681 901 801 689 791
8 792 688 800 902 684 578 694 796
8 793 690 800 902 681 574 688 792
8 795 693 577 683 903 804 692 794
8 797 695 804 903 685 579 692 794
8 797 695 579 685 904 805 694 796
8 905 806 697 799 798 696 581 687
8 814 706 806 905 705 592 696 798
8 689 583 697 799 801 699 808 907
8 800 698 809 908 694 588 703 805
8 690 584 699 801 800 698 809 908
8 803 701 810 909 691 585 700 802
8 693 587 702 804 803 701 811 910
8 695 589 703 805 804 702 812 911
8 818 710 814 919 708 595 705 813
8 821 712 815 920 710 596 706 814
8 816 709 600 719 922 819 717 831
8 817 711 594 707 923 820 709 816
8 818 710 595 708 924 822 711 817
8 819 715 599 717 926 827 716 829
8 820 714 598 709 927 826 715 819
8 929 825 713 822 820 714 597 711
8 821 712 596 710 930 824 713 822
8 717 599 718 832 829 716 830 942
8 719 600 720 834 831 717 832 944
8 832 718 601 720 945 833 721 835
8 834 720 603 722 946 835 723 836
8 869 780 838 950 767 670 725 839
8 865 767 839 952 756 656 726 841
8 839 725 840 953 726 608 727 842
8 841 726 842 954 728 609 729 843
8 844 740 691 790 955 850 802 899
8 733 625 740 844 845 739 850 955
8 734 623 739 845 846 738 849 956
8 735 621 738 846 847 737 848 957
8 744 647 737 847 854 759 848 957
8 738 627 742 849 848 741 851 958
8 848 741 851 958 759 662 773 868
8 850 743 700 802 959 852 807 906
8 849 742 628 739 959 852 743 850
8 854 759 868 965 745 648 760 855
8 746 649 760 855 856 761 871 966
8 860 765 653 750 967 872 761 856
8 968 873 762 857 858 763 651 748
8 862 769 657 753 968 873 762 857
8 859 764 874 969 749 652 763 858
8 752 654 766 861 859 764 875 970
8 751 655 765 860 861 766 876 971
8 754 658 769 862 863 770 879 972
8 755 659 770 863 864 771 881 974
8 976 882 772 867 864 771 660 757
8 866 768 877 977 756 656 767 865
8 867 772 878 978 758 661 768 866
8 760 663 773 868 871 774 883 980
8 870 781 837 948 982 890 780 869
8 982 890 780 869 877 782 670 767
8 761 664 774 871 872 775 884 984
8 876 776 665 765 985 885 775 872
8 873 777 668 763 986 887 779 874
8 769 674 777 873 879 786 887 986
8 764 669 778 875 874 779 888 987
8 766 667 776 876 875 778 886 988
8 878 783 892 989 768 671 782 877
8 878 783 672 772 990 893 784 882
8 880 787 675 770 991 896 786 879
8 880 787 895 992 770 675 785 881
8 881 785 894 993 771 673 784 882
8 1006 905 799 898 897 798 687 789
8 919 814 905 1006 813 705 798 897
8 791 689 799 898 901 801 907 1007
8 900 803 909 1009 790 691 802 899
8 795 693 804 903 900 803 910 1010
8 902 800 908 1011 796 694 805 904
8 793 690 801 901 902 800 908 1011
8 797 695 805 904 903 804 911 1012
8 799 697 806 905 907 808 912 1013
8 920 815 912 1013 814 706 806 905
8 802 700 810 909 906 807 913 1014
8 801 699 808 907 908 809 914 1015
8 805 703 809 908 911 812 915 1016
8 803 701 811 910 909 810 916 1017
8 911 812 917 1018 804 702 811 910
8 925 821 920 1030 818 710 814 919
8 928 823 921 1031 821 712 815 920
8 922 819 717 831 1033 926 829 941
8 923 820 709 816 1034 927 819 922
8 1035 929 822 924 923 820 711 817
8 925 821 710 818 1036 930 822 924
8 1038 933 825 929 927 826 714 820
8 926 827 716 829 1039 935 828 939
8 927 826 715 819 1040 934 827 926
8 928 823 712 821 1041 931 824 930
8 1042 932 824 930 929 825 713 822
8 829 716 830 942 939 828 940 1058
8 831 717 832 944 941 829 942 1060
8 942 830 718 832 1061 943 833 945
8 944 832 720 834 1062 945 835 946
8 981 889 947 1064 870 781 837 948
8 948 837 949 1067 869 780 838 950
8 975 869 950 1069 865 767 839 952
8 950 838 951 1070 839 725 840 953
8 952 839 953 1071 841 726 842 954
8 955 850 802 899 1072 959 906 1008
8 956 849 739 845 1072 959 850 955
8 846 738 849 956 957 848 958 1073
8 957 848 958 1073 854 759 868 965
8 849 742 852 959 958 851 961 1076
8 960 853 961 1076 906 807 852 959
8 958 851 961 1076 868 773 883 980
8 960 853 807 906 1077 963 913 1014
8 855 760 868 965 966 871 980 1085
8 856 761 871 966 967 872 984 1086
8 971 876 765 860 1087 985 872 967
8 968 873 763 858 1088 986 874 969
8 862 769 873 968 972 879 986 1088
8 859 764 875 970 969 874 987 1089
8 861 766 876 971 970 875 988 1090
8 973 880 770 863 1091 991 879 972
8 973 880 992 1092 863 770 881 974
8 974 881 993 1093 864 771 882 976
8 979 870 948 1066 1094 982 869 975
8 1094 982 869 975 977 877 767 865
8 978 878 772 867 1095 990 882 976
8 978 878 989 1096 866 768 877 977
8 871 774 883 980 984 884 994 1099
8 983 891 999 1100 870 781 889 981
8 1101 1000 890 982 989 892 782 877
8 983 891 781 870 1101 1000 890 982
8 872 775 884 984 985 885 995 1103
8 876 776 885 985 988 886 996 1104
8 986 887 779 874 1105 998 888 987
8 879 786 887 986 991 896 998 1105
8 875 778 886 988 987 888 997 1106
8 990 893 1002 1107 878 783 892 989
8 1108 1003 893 990 993 894 784 882
8 880 787 896 991 992 895 1005 1109
8 993 894 785 881 1110 1004 895 992
8 898 799 905 1006 1007 907 1013 1120
8 1030 920 1013 1120 919 814 905 1006
8 901 801 907 1007 1011 908 1015 1121
8 899 802 909 1009 1008 906 1014 1122
8 900 803 910 1010 1009 909 1017 1123
8 1012 911 1018 1124 903 804 910 1010
8 904 805 908 1011 1012 911 1016 1125
8 1013 912 1020 1127 907 808 914 1015
8 1031 921 1020 1127 920 815 912 1013
8 1019 918 962 1075 1128 1021 913 1014
8 1128 1021 913 1014 1017 916 810 909
8 1015 914 1022 1129 908 809 915 1016
8 1016 915 1023 1130 911 812 917 1018
8 1018 917 1024 1131 910 811 916 1017
8 1037 928 1031 1148 925 821 920 1030
8 928 823 931 1041 1031 921 1032 1149
8 1033 926 829 941 1151 1039 939 1057
8 1034 927 819 922 1152 1040 926 1033
8 1153 1038 929 1035 1034 927 820 923
8 1154 1042 930 1036 1035 929 822 924
8 1037 928 821 925 1155 1041 930 1036
8 1039 935 828 939 1156 1047 938 1055
8 1157 1043 932 1042 1038 933 825 929
8 1038 933 826 927 1158 1045 934 1040
8 1040 934 827 926 1159 1046 935 1039
8 930 824 932 1042 1041 931 1044 1160
8 1051 936 1048 1165 1175 1052 937 1053
8 1156 1047 938 1055 1053 937 1054 1178
8 939 828 940 1058 1055 938 1056 1181
8 941 829 942 1060 1057 939 1058 1183
8 942 830 943 1061 1058 940 1059 1184
8 1060 942 832 944 1185 1061 945 1062
8 1082 964 1063 1188 981 889 947 1064
8 1097 981 1064 1190 979 870 948 1066
8 1064 947 1065 1191 948 837 949 1067
8 1066 948 1067 1193 975 869 950 1069
8 1067 949 1068 1194 950 838 951 1070
8 1069 950 1070 1195 952 839 953 1071
8 956 849 959 1072 1073 958 1076 1197
8 1074 960 1076 1197 1008 906 959 1072
8 1073 958 1076 1197 965 868 980 1085
8 1074 960 906 1008 1198 1077 1014 1122
8 1133 1026 1079 1199 1019 918 962 1075
8 1077 963 913 1014 1200 1080 962 1075
8 960 853 963 1077 1076 961 1078 1201
8 980 883 961 1076 1099 994 1078 1201
8 1210 1083 964 1082 1100 999 889 981
8 966 871 980 1085 1086 984 1099 1215
8 967 872 984 1086 1087 985 1103 1216
8 971 876 985 1087 1090 988 1104 1217
8 1088 986 874 969 1218 1105 987 1089
8 972 879 986 1088 1091 991 1105 1218
8 970 875 988 1090 1089 987 1106 1219
8 973 880 991 1091 1092 992 1109 1220
8 1093 993 881 974 1221 1110 992 1092
8 1222 1108 990 1095 1093 993 882 976
8 1223 1101 982 1094 1096 989 877 977
8 1098 983 870 979 1223 1101 982 1094
8 1095 990 1107 1224 978 878 989 1096
8 1098 983 1100 1225 979 870 981 1097
8 984 884 994 1099 1103 995 1111 1227
8 1102 1001 1115 1228 983 891 999 1100
8 1101 1000 892 989 1229 1116 1002 1107
8 1102 1001 891 983 1229 1116 1000 1101
8 985 885 995 1103 1104 996 1112 1230
8 988 886 996 1104 1106 997 1113 1231
8 1105 998 888 987 1232 1114 997 1106
8 991 896 998 1105 1109 1005 1114 1232
8 1108 1003 1117 1233 990 893 1002 1107
8 1108 1003 894 993 1233 1117 1004 1110
8 992 895 1005 1109 1110 1004 1118 1234
8 1120 1013 1127 1244 1007 907 1015 1121
8 1148 1031 1127 1244 1030 920 1013 1120
8 1121 1015 1129 1245 1011 908 1016 1125
8 1126 1019 1075 1196 1246 1128 1014 1122
8 1246 1128 1014 1122 1123 1017 909 1009
8 1124 1018 1131 1247 1010 910 1017 1123
8 1125 1016 1130 1248 1012 911 1018 1124
8 1127 1020 1137 1254 1015 914 1022 1129
8 1031 921 1032 1149 1127 1020 1137 1254
8 1134 1027 918 1019 1257 1140 1021 1128
8 1257 1140 1021 1128 1131 1024 916 1017
8 1129 1022 1141 1258 1016 915 1023 1130
8 1130 1023 1142 1259 1018 917 1024 1131
8 1261 1144 1025 1132 1133 1026 1079 1199
8 1255 1138 1025 1132 1135 1028 1144 1261
8 1133 1026 918 1019 1262 1145 1027 1134
8 1136 1029 1139 1256 1263 1146 1028 1135
8 1037 928 1041 1155 1148 1031 1149 1275
8 1041 931 1044 1160 1149 1032 1150 1276
8 1151 1039 939 1057 1278 1156 1055 1180
8 1152 1040 926 1033 1279 1159 1039 1151
8 1153 1038 927 1034 1280 1158 1040 1152
8 1281 1157 1042 1154 1153 1038 929 1035
8 1036 930 1042 1154 1155 1041 1160 1282
8 1283 1164 1046 1159 1156 1047 935 1039
8 1165 1048 1164 1283 1053 937 1047 1156
8 1157 1043 933 1038 1284 1161 1045 1158
8 1157 1043 1161 1284 1042 932 1044 1160
8 1040 934 1046 1159 1158 1045 1163 1285
8 1166 1049 1167 1292 1051 936 1048 1165
8 1166 1049 936 1051 1293 1168 1050 1172
8 1051 936 1052 1175 1172 1050 1173 1306
8 1174 1051 1165 1290 1308 1175 1053 1177
8 1053 937 1054 1178 1175 1052 1176 1309
8 1278 1156 1055 1180 1177 1053 1178 1311
8 1055 938 1056 1181 1178 1054 1179 1312
8 1057 939 1058 1183 1180 1055 1181 1314
8 1058 940 1059 1184 1181 1056 1182 1315
8 1060 942 1061 1185 1183 1058 1184 1316
8 1208 1081 1187 1321 1082 964 1063 1188
8 1209 1082 1188 1322 1097 981 1064 1190
8 1188 1063 1189 1323 1064 947 1065 1191
8 1190 1064 1191 1325 1066 948 1067 1193
8 1191 1065 1192 1326 1067 949 1068 1194
8 1067 1193 1069 950 1194 1327 1195 1070
8 1250 1133 1199 1330 1126 1019 1075 1196
8 1198 1077 1014 1122 1331 1200 1075 1196
8 1074 960 1077 1198 1197 1076 1201 1332
8 1085 980 1076 1197 1215 1099 1201 1332
8 1199 1079 1203 1333 1075 962 1080 1200
8 1132 1025 1119 1243 1199 1079 1203 1333
8 1201 1078 963 1077 1334 1202 1080 1200
8 1099 994 1078 1201 1227 1111 1202 1334
8 1343 1207 1081 1208 1210 1083 964 1082
8 1214 1084 1186 1319 1343 1207 1081 1208
8 1345 1210 1082 1209 1225 1100 981 1097
8 1346 1211 1083 1210 1228 1115 999 1100
8 1086 984 1099 1215 1216 1103 1227 1352
8 1087 985 1103 1216 1217 1104 1230 1353
8 1090 988 1104 1217 1219 1106 1231 1354
8 1218 1105 987 1089 1355 1232 1106 1219
8 1091 991 1105 1218 1220 1109 1232 1355
8 1092 992 1109 1220 1221 1110 1234 1356
8 1222 1108 1233 1357 1095 990 1107 1224
8 1222 1108 993 1093 1357 1233 1110 1221
8 1223 1101 989 1096 1358 1229 1107 1224
8 1226 1102 983 1098 1358 1229 1101 1223
8 1226 1102 1228 1359 1098 983 1100 1225
8 1103 995 1111 1227 1230 1112 1235 1360
8 1107 1002 1117 1233 1229 1116 1240 1362
8 1102 1001 1116 1229 1228 1115 1240 1362
8 1104 996 1112 1230 1231 1113 1236 1363
8 1364 1237 1114 1232 1231 1113 997 1106
8 1109 1005 1114 1232 1234 1118 1238 1365
8 1110 1004 1118 1234 1233 1117 1241 1366
8 1242 1374 1255 1138 1119 1243 1132 1025
8 1244 1127 1254 1376 1121 1015 1129 1245
8 1148 1031 1149 1275 1244 1127 1254 1376
8 1245 1129 1258 1377 1125 1016 1130 1248
8 1251 1134 1019 1126 1378 1257 1128 1246
8 1378 1257 1128 1246 1247 1131 1017 1123
8 1248 1130 1259 1379 1124 1018 1131 1247
8 1261 1381 1250 1133 1132 1249 1330 1199
8 1255 1380 1252 1135 1132 1249 1381 1261
8 1250 1133 1019 1126 1382 1262 1134 1251
8 1253 1136 1256 1385 1384 1263 1135 1252
8 1254 1137 1265 1387 1129 1022 1141 1258
8 1149 1032 1150 1276 1254 1137 1265 1387
8 1028 1135 1255 1138 1139 1256 1388 1266
8 1136 1029 1147 1264 1256 1139 1267 1389
8 1390 1268 1140 1257 1259 1142 1024 1131
8 1260 1143 1027 1134 1390 1268 1140 1257
8 1258 1141 1269 1391 1130 1023 1142 1259
8 1262 1145 1027 1134 1393 1271 1143 1260
8 1261 1144 1026 1133 1394 1272 1145 1262
8 1135 1028 1144 1261 1263 1146 1272 1394
8 1136 1029 1146 1263 1264 1147 1273 1395
8 1155 1041 1160 1282 1275 1149 1276 1405
8 1276 1150 1044 1160 1406 1277 1162 1286
8 1408 1283 1159 1279 1278 1156 1039 1151
8 1290 1165 1283 1408 1177 1053 1156 1278
8 1152 1040 1159 1279 1280 1158 1285 1409
8 1281 1157 1038 1153 1410 1284 1158 1280
8 1281 1157 1284 1410 1154 1042 1160 1282
8 1159 1046 1164 1283 1285 1163 1289 1412
8 1292 1167 1289 1412 1165 1048 1164 1283
8 1158 1045 1163 1285 1284 1161 1288 1413
8 1284 1161 1288 1413 1160 1044 1162 1286
8 1291 1166 1292 1418 1174 1051 1165 1290
8 1291 1166 1051 1174 1419 1293 1172 1305
8 1294 1169 1296 1421 1166 1049 1167 1292
8 1293 1168 1050 1172 1422 1295 1171 1303
8 1294 1169 1049 1166 1423 1297 1168 1293
8 1422 1295 1171 1303 1301 1170 1302 1435
8 1172 1050 1173 1306 1303 1171 1304 1438
8 1174 1051 1175 1308 1305 1172 1306 1440
8 1175 1052 1176 1309 1306 1173 1307 1441
8 1177 1053 1178 1311 1308 1175 1309 1443
8 1178 1054 1179 1312 1309 1176 1310 1444
8 1180 1055 1181 1314 1311 1178 1312 1446
8 1056 1181 1312 1179 1182 1315 1447 1313
8 1183 1058 1184 1316 1314 1181 1315 1448
8 1319 1186 1084 1214 1451 1317 1213 1350
8 1319 1186 1318 1453 1208 1081 1187 1321
8 1321 1187 1320 1456 1188 1063 1189 1323
8 1344 1208 1321 1457 1209 1082 1188 1322
8 1322 1188 1323 1458 1190 1064 1191 1325
8 1323 1189 1324 1459 1191 1065 1192 1326
8 1191 1325 1193 1067 1326 1460 1327 1194
8 1242 1374 1243 1119 1328 1462 1335 1204
8 1330 1199 1333 1465 1196 1075 1200 1331
8 1132 1249 1330 1199 1243 1375 1465 1333
8 1332 1201 1077 1198 1466 1334 1200 1331
8 1215 1099 1201 1332 1352 1227 1334 1466
8 1119 1243 1333 1203 1204 1335 1470 1338
8 1333 1203 1338 1470 1200 1080 1202 1334
8 1227 1111 1202 1334 1360 1235 1338 1470
8 1328 1462 1335 1204 1205 1336 1471 1339
8 1337 1206 1340 1472 1464 1329 1205 1336
8 1346 1211 1342 1479 1210 1083 1207 1343
8 1346 1211 1115 1228 1479 1342 1239 1361
8 1348 1212 1084 1214 1479 1342 1207 1343
8 1480 1343 1208 1344 1345 1210 1082 1209
8 1351 1214 1319 1454 1480 1343 1208 1344
8 1481 1346 1210 1345 1359 1228 1100 1225
8 1348 1212 1347 1483 1214 1084 1213 1350
8 1216 1103 1227 1352 1353 1230 1360 1488
8 1217 1104 1230 1353 1354 1231 1363 1489
8 1490 1364 1232 1355 1354 1231 1106 1219
8 1220 1109 1232 1355 1356 1234 1365 1491
8 1221 1110 1234 1356 1357 1233 1366 1492
8 1224 1107 1233 1357 1358 1229 1362 1493
8 1226 1102 1229 1358 1359 1228 1362 1493
8 1230 1112 1235 1360 1363 1236 1367 1496
8 1361 1239 1115 1228 1497 1371 1240 1362
8 1366 1241 1372 1498 1233 1117 1240 1362
8 1364 1237 1113 1231 1499 1368 1236 1363
8 1364 1237 1368 1499 1232 1114 1238 1365
8 1234 1118 1238 1365 1366 1241 1369 1500
8 1507 1373 1242 1374 1388 1266 1138 1255
8 1508 1374 1243 1375 1380 1255 1132 1249
8 1376 1254 1387 1509 1245 1129 1258 1377
8 1275 1149 1276 1405 1376 1254 1387 1509
8 1377 1258 1391 1510 1248 1130 1259 1379
8 1511 1390 1257 1378 1379 1259 1131 1247
8 1383 1260 1134 1251 1511 1390 1257 1378
8 1252 1135 1256 1385 1380 1255 1388 1512
8 1261 1381 1513 1394 1133 1250 1382 1262
8 1135 1252 1384 1263 1261 1381 1513 1394
8 1382 1262 1134 1251 1514 1393 1260 1383
8 1253 1136 1263 1384 1386 1264 1395 1516
8 1253 1136 1264 1386 1385 1256 1389 1517
8 1387 1265 1397 1519 1258 1141 1269 1391
8 1276 1150 1277 1406 1387 1265 1397 1519
8 1256 1139 1267 1389 1388 1266 1398 1520
8 1264 1147 1274 1396 1389 1267 1399 1521
8 1392 1270 1143 1260 1522 1400 1268 1390
8 1390 1268 1142 1259 1522 1400 1269 1391
8 1392 1270 1401 1523 1260 1143 1271 1393
8 1272 1394 1524 1402 1145 1262 1393 1271
8 1395 1273 1146 1263 1524 1402 1272 1394
8 1273 1395 1264 1147 1403 1526 1396 1274
8 1405 1276 1160 1282 1534 1406 1286 1411
8 1414 1287 1407 1535 1286 1162 1277 1406
8 1279 1159 1283 1408 1409 1285 1412 1537
8 1418 1292 1412 1537 1290 1165 1283 1408
8 1280 1158 1285 1409 1410 1284 1413 1538
8 1410 1284 1413 1538 1282 1160 1286 1411
8 1285 1163 1289 1412 1413 1288 1417 1540
8 1421 1296 1417 1540 1292 1167 1289 1412
8 1414 1287 1162 1286 1541 1416 1288 1413
8 1420 1294 1421 1545 1291 1166 1292 1418
8 1419 1293 1172 1305 1546 1422 1303 1437
8 1420 1294 1166 1291 1547 1423 1293 1419
8 1294 1169 1297 1423 1421 1296 1425 1548
8 1423 1297 1168 1293 1549 1424 1295 1422
8 1301 1170 1298 1427 1422 1295 1424 1549
8 1432 1300 1428 1554 1301 1170 1298 1427
8 1431 1299 1428 1554 1560 1430 1300 1432
8 1563 1433 1300 1432 1435 1302 1170 1301
8 1546 1422 1303 1437 1434 1301 1435 1565
8 1303 1171 1304 1438 1435 1302 1436 1566
8 1305 1172 1306 1440 1437 1303 1438 1568
8 1306 1173 1307 1441 1438 1304 1439 1569
8 1308 1175 1309 1443 1440 1306 1441 1571
8 1309 1176 1310 1444 1441 1307 1442 1572
8 1311 1178 1312 1446 1443 1309 1444 1574
8 1179 1312 1444 1310 1313 1447 1575 1445
8 1314 1181 1315 1448 1446 1312 1447 1576
8 1350 1213 1349 1486 1451 1317 1449 1579
8 1451 1317 1450 1581 1319 1186 1318 1453
8 1454 1319 1214 1351 1582 1451 1350 1487
8 1453 1318 1452 1584 1321 1187 1320 1456
8 1454 1319 1453 1585 1344 1208 1321 1457
8 1456 1320 1455 1586 1323 1189 1324 1459
8 1457 1321 1456 1587 1322 1188 1323 1458
8 1458 1323 1459 1588 1325 1191 1326 1460
8 1205 1336 1464 1329 1328 1462 1590 1461
8 1507 1373 1461 1590 1374 1242 1328 1462
8 1508 1374 1462 1591 1375 1243 1335 1467
8 1337 1206 1329 1464 1473 1341 1463 1594
8 1375 1243 1335 1467 1465 1333 1470 1596
8 1465 1333 1470 1596 1331 1200 1334 1466
8 1352 1227 1334 1466 1488 1360 1470 1596
8 1591 1462 1336 1468 1467 1335 1471 1597
8 1469 1337 1472 1598 1595 1464 1336 1468
8 1471 1339 1474 1600 1335 1204 1338 1470
8 1600 1474 1367 1496 1470 1338 1235 1360
8 1336 1205 1340 1472 1471 1339 1475 1601
8 1337 1206 1341 1473 1472 1340 1476 1602
8 1495 1370 1478 1609 1361 1239 1342 1479
8 1348 1212 1342 1479 1483 1347 1478 1609
8 1481 1346 1479 1610 1345 1210 1343 1480
8 1481 1346 1228 1359 1610 1479 1361 1494
8 1484 1348 1214 1351 1610 1479 1343 1480
8 1483 1347 1482 1612 1350 1213 1349 1486
8 1484 1348 1483 1613 1351 1214 1350 1487
8 1353 1230 1360 1488 1489 1363 1496 1616
8 1490 1364 1231 1354 1617 1499 1363 1489
8 1490 1364 1499 1617 1355 1232 1365 1491
8 1356 1234 1365 1491 1492 1366 1500 1619
8 1492 1366 1498 1620 1357 1233 1362 1493
8 1494 1361 1228 1359 1621 1497 1362 1493
8 1495 1370 1239 1361 1622 1504 1371 1497
8 1363 1236 1367 1496 1499 1368 1501 1623
8 1497 1371 1240 1362 1624 1505 1372 1498
8 1625 1503 1372 1498 1500 1369 1241 1366
8 1365 1238 1368 1499 1500 1369 1502 1626
8 1520 1398 1506 1633 1388 1266 1373 1507
8 1634 1507 1374 1508 1512 1388 1255 1380
8 1509 1387 1519 1635 1377 1258 1391 1510
8 1405 1276 1406 1534 1509 1387 1519 1635
8 1515 1392 1260 1383 1636 1522 1390 1511
8 1511 1390 1259 1379 1636 1522 1391 1510
8 1385 1256 1389 1517 1512 1388 1520 1637
8 1513 1394 1262 1382 1638 1524 1393 1514
8 1395 1516 1638 1524 1263 1384 1513 1394
8 1515 1392 1523 1639 1383 1260 1393 1514
8 1516 1395 1526 1640 1386 1264 1396 1518
8 1386 1264 1396 1518 1517 1389 1521 1641
8 1519 1397 1527 1643 1391 1269 1400 1522
8 1535 1407 1527 1643 1406 1277 1397 1519
8 1389 1267 1399 1521 1520 1398 1528 1644
8 1645 1529 1399 1521 1525 1404 1274 1396
8 1392 1270 1400 1522 1523 1401 1531 1646
8 1524 1402 1271 1393 1648 1532 1401 1523
8 1403 1526 1648 1532 1273 1395 1524 1402
8 1525 1404 1274 1396 1649 1533 1403 1526
8 1539 1414 1535 1657 1411 1286 1406 1534
8 1542 1415 1536 1658 1414 1287 1407 1535
8 1409 1285 1412 1537 1538 1413 1540 1660
8 1545 1421 1540 1660 1418 1292 1412 1537
8 1539 1414 1286 1411 1661 1541 1413 1538
8 1540 1417 1544 1663 1413 1288 1416 1541
8 1421 1296 1425 1548 1540 1417 1544 1663
8 1542 1415 1287 1414 1664 1543 1416 1541
8 1420 1294 1423 1547 1545 1421 1548 1666
8 1547 1423 1293 1419 1667 1549 1422 1546
8 1434 1301 1427 1553 1546 1422 1549 1667
8 1423 1297 1424 1549 1548 1425 1550 1668
8 1551 1426 1550 1668 1427 1298 1424 1549
8 1551 1426 1298 1427 1671 1552 1428 1554
8 1562 1432 1554 1674 1434 1301 1427 1553
8 1431 1299 1429 1558 1554 1428 1555 1675
8 1431 1299 1430 1560 1558 1429 1557 1680
8 1560 1430 1300 1432 1683 1559 1433 1563
8 1561 1431 1554 1674 1684 1560 1432 1562
8 1685 1563 1432 1562 1565 1435 1301 1434
8 1435 1302 1436 1566 1563 1433 1564 1686
8 1437 1303 1438 1568 1565 1435 1566 1688
8 1438 1304 1439 1569 1566 1436 1567 1689
8 1440 1306 1441 1571 1568 1438 1569 1691
8 1441 1307 1442 1572 1569 1439 1570 1692
8 1443 1309 1444 1574 1571 1441 1572 1694
8 1310 1444 1572 1442 1445 1575 1695 1573
8 1446 1312 1447 1576 1574 1444 1575 1696
8 1486 1349 1485 1614 1579 1449 1577 1699
8 1451 1317 1449 1579 1581 1450 1578 1701
8 1487 1350 1486 1615 1582 1451 1579 1702
8 1581 1450 1580 1704 1453 1318 1452 1584
8 1582 1451 1581 1705 1454 1319 1453 1585
8 1584 1452 1583 1706 1456 1320 1455 1586
8 1585 1453 1584 1707 1457 1321 1456 1587
8 1587 1456 1586 1708 1458 1323 1459 1588
8 1633 1506 1589 1710 1507 1373 1461 1590
8 1464 1329 1461 1590 1594 1463 1589 1710
8 1468 1336 1462 1591 1595 1464 1590 1711
8 1634 1507 1590 1711 1508 1374 1462 1591
8 1473 1341 1463 1594 1603 1477 1593 1716
8 1469 1337 1464 1595 1599 1473 1594 1717
8 1471 1597 1467 1335 1600 1718 1596 1470
8 1718 1600 1496 1616 1596 1470 1360 1488
8 1336 1468 1597 1471 1472 1598 1719 1601
8 1469 1337 1473 1599 1598 1472 1602 1720
8 1722 1604 1501 1623 1600 1474 1367 1496
8 1475 1601 1471 1339 1604 1722 1600 1474
8 1602 1476 1605 1723 1472 1340 1475 1601
8 1476 1602 1724 1606 1341 1473 1603 1477
8 1483 1347 1478 1609 1612 1482 1608 1731
8 1495 1370 1504 1622 1609 1478 1608 1731
8 1618 1495 1609 1732 1494 1361 1479 1610
8 1484 1348 1479 1610 1613 1483 1609 1732
8 1486 1349 1482 1612 1614 1485 1611 1733
8 1613 1483 1612 1734 1487 1350 1486 1615
8 1489 1363 1496 1616 1617 1499 1623 1736
8 1491 1365 1499 1617 1619 1500 1626 1737
8 1618 1495 1361 1494 1738 1622 1497 1621
8 1739 1625 1498 1620 1619 1500 1366 1492
8 1621 1497 1362 1493 1740 1624 1498 1620
8 1742 1631 1504 1622 1624 1505 1371 1497
8 1743 1628 1502 1626 1623 1501 1368 1499
8 1744 1630 1505 1624 1625 1503 1372 1498
8 1745 1629 1503 1625 1626 1502 1369 1500
8 1520 1398 1528 1644 1633 1506 1632 1751
8 1637 1520 1633 1752 1512 1388 1507 1634
8 1635 1519 1643 1753 1510 1391 1522 1636
8 1657 1535 1643 1753 1534 1406 1519 1635
8 1515 1392 1522 1636 1639 1523 1646 1754
8 1517 1389 1521 1641 1637 1520 1644 1755
8 1524 1638 1756 1648 1393 1514 1639 1523
8 1640 1526 1395 1516 1756 1648 1524 1638
8 1642 1525 1396 1518 1757 1649 1526 1640
8 1758 1645 1521 1641 1642 1525 1396 1518
8 1646 1531 1400 1522 1760 1650 1527 1643
8 1535 1407 1536 1658 1643 1527 1650 1760
8 1521 1399 1529 1645 1644 1528 1651 1761
8 1647 1530 1652 1762 1525 1404 1529 1645
8 1401 1523 1648 1532 1531 1646 1763 1655
8 1525 1404 1533 1649 1647 1530 1654 1765
8 1533 1649 1766 1656 1403 1526 1648 1532
8 1662 1542 1658 1774 1539 1414 1535 1657
8 1542 1415 1543 1664 1658 1536 1659 1775
8 1660 1540 1663 1777 1538 1413 1541 1661
8 1545 1421 1548 1666 1660 1540 1663 1777
8 1662 1542 1414 1539 1778 1664 1541 1661
8 1664 1543 1416 1541 1779 1665 1544 1663
8 1548 1425 1550 1668 1663 1544 1665 1779
8 1547 1423 1549 1667 1666 1548 1668 1781
8 1670 1551 1668 1781 1553 1427 1549 1667
8 1551 1426 1552 1671 1668 1550 1669 1782
8 1670 1551 1427 1553 1784 1671 1554 1674
8 1675 1555 1672 1785 1554 1428 1552 1671
8 1678 1556 1673 1789 1558 1429 1555 1675
8 1561 1431 1558 1681 1674 1554 1675 1790
8 1794 1677 1556 1678 1680 1557 1429 1558
8 1560 1430 1559 1683 1680 1557 1679 1797
8 1561 1431 1560 1684 1681 1558 1680 1798
8 1563 1433 1564 1686 1683 1559 1682 1800
8 1684 1560 1432 1562 1801 1683 1563 1685
8 1565 1435 1566 1688 1685 1563 1686 1802
8 1566 1436 1567 1689 1686 1564 1687 1803
8 1568 1438 1569 1691 1688 1566 1689 1805
8 1569 1439 1570 1692 1689 1567 1690 1806
8 1571 1441 1572 1694 1691 1569 1692 1808
8 1442 1572 1692 1570 1573 1695 1809 1693
8 1574 1444 1575 1696 1694 1572 1695 1810
8 1614 1485 1592 1712 1699 1577 1697 1813
8 1579 1449 1577 1699 1701 1578 1698 1815
8 1615 1486 1614 1735 1702 1579 1699 1816
8 1701 1578 1700 1818 1581 1450 1580 1704
8 1582 1451 1579 1702 1705 1581 1701 1819
8 1704 1580 1703 1820 1584 1452 1583 1706
8 1705 1581 1704 1821 1585 1453 1584 1707
8 1707 1584 1706 1822 1587 1456 1586 1708
8 1710 1589 1506 1633 1824 1709 1632 1751
8 1594 1463 1589 1710 1716 1593 1709 1824
8 1752 1633 1710 1825 1634 1507 1590 1711
8 1595 1464 1590 1711 1717 1594 1710 1825
8 1830 1714 1592 1712 1733 1611 1485 1614
8 1603 1477 1593 1716 1725 1607 1715 1834
8 1599 1473 1594 1717 1721 1603 1716 1835
8 1837 1722 1623 1736 1718 1600 1496 1616
8 1719 1601 1722 1837 1597 1471 1600 1718
8 1602 1720 1598 1472 1723 1838 1719 1601
8 1720 1602 1473 1599 1839 1724 1603 1721
8 1723 1605 1726 1840 1601 1475 1604 1722
8 1840 1726 1628 1743 1722 1604 1501 1623
8 1724 1606 1727 1841 1602 1476 1605 1723
8 1725 1607 1728 1842 1603 1477 1606 1724
8 1612 1482 1608 1731 1733 1611 1730 1849
8 1741 1627 1730 1849 1622 1504 1608 1731
8 1613 1483 1609 1732 1734 1612 1731 1850
8 1618 1495 1622 1738 1732 1609 1731 1850
8 1615 1486 1612 1734 1735 1614 1733 1851
8 1852 1743 1626 1737 1736 1623 1499 1617
8 1853 1745 1625 1739 1737 1626 1500 1619
8 1855 1742 1622 1738 1740 1624 1497 1621
8 1856 1744 1624 1740 1739 1625 1498 1620
8 1741 1627 1504 1622 1857 1746 1631 1742
8 1742 1631 1505 1624 1858 1749 1630 1744
8 1859 1747 1629 1745 1743 1628 1502 1626
8 1860 1748 1630 1744 1745 1629 1503 1625
8 1644 1528 1651 1761 1751 1632 1750 1865
8 1637 1520 1644 1755 1752 1633 1751 1866
8 1754 1646 1522 1636 1867 1760 1643 1753
8 1657 1535 1658 1774 1753 1643 1760 1867
8 1639 1523 1646 1754 1756 1648 1763 1868
8 1641 1521 1645 1758 1755 1644 1761 1869
8 1757 1649 1526 1640 1870 1766 1648 1756
8 1642 1525 1649 1757 1759 1647 1765 1871
8 1759 1647 1762 1872 1642 1525 1645 1758
8 1760 1650 1767 1874 1646 1531 1655 1763
8 1658 1536 1659 1775 1760 1650 1767 1874
8 1762 1652 1768 1875 1645 1529 1651 1761
8 1764 1653 1769 1876 1647 1530 1652 1762
8 1656 1766 1877 1773 1532 1648 1763 1655
8 1771 1879 1765 1654 1653 1764 1647 1530
8 1533 1649 1765 1654 1656 1766 1880 1772
8 1662 1542 1664 1778 1774 1658 1775 1887
8 1664 1543 1665 1779 1775 1659 1776 1888
8 1778 1664 1541 1661 1890 1779 1663 1777
8 1666 1548 1668 1781 1777 1663 1779 1890
8 1782 1669 1780 1891 1668 1550 1665 1779
8 1670 1551 1671 1784 1781 1668 1782 1893
8 1671 1552 1672 1785 1782 1669 1783 1894
8 1790 1675 1785 1896 1674 1554 1671 1784
8 1675 1555 1673 1789 1785 1672 1786 1897
8 1792 1676 1788 1903 1678 1556 1673 1789
8 1795 1678 1789 1904 1681 1558 1675 1790
8 1792 1676 1556 1678 1906 1791 1677 1794
8 1680 1557 1679 1797 1794 1677 1793 1909
8 1910 1794 1678 1795 1798 1680 1558 1681
8 1683 1559 1682 1800 1797 1679 1796 1912
8 1684 1560 1683 1801 1798 1680 1797 1913
8 1686 1564 1687 1803 1800 1682 1799 1915
8 1685 1563 1686 1802 1801 1683 1800 1916
8 1688 1566 1689 1805 1802 1686 1803 1917
8 1689 1567 1690 1806 1803 1687 1804 1918
8 1691 1569 1692 1808 1805 1689 1806 1920
8 1692 1570 1693 1809 1806 1690 1807 1921
8 1694 1572 1695 1810 1808 1692 1809 1922
8 1829 1713 1811 1926 1712 1592 1697 1813
8 1813 1697 1812 1928 1699 1577 1698 1815
8 1735 1614 1712 1828 1816 1699 1813 1929
8 1815 1698 1814 1931 1701 1578 1700 1818
8 1702 1579 1699 1816 1819 1701 1815 1932
8 1818 1700 1817 1933 1704 1580 1703 1820
8 1819 1701 1818 1934 1705 1581 1704 1821
8 1821 1704 1820 1935 1707 1584 1706 1822
8 1824 1709 1632 1751 1937 1823 1750 1865
8 1716 1593 1709 1824 1834 1715 1823 1937
8 1825 1710 1633 1752 1938 1824 1751 1866
8 1717 1594 1710 1825 1835 1716 1824 1938
8 1945 1830 1712 1828 1851 1733 1614 1735
8 1830 1714 1831 1946 1712 1592 1713 1829
8 1947 1832 1714 1830 1849 1730 1611 1733
8 1843 1729 1607 1725 1950 1833 1715 1834
8 1721 1603 1716 1835 1836 1725 1834 1951
8 1836 1725 1842 1953 1721 1603 1724 1839
8 1723 1838 1719 1601 1840 1954 1837 1722
8 1954 1840 1743 1852 1837 1722 1623 1736
8 1724 1839 1720 1602 1841 1955 1838 1723
8 1841 1727 1844 1956 1723 1605 1726 1840
8 1956 1844 1747 1859 1840 1726 1628 1743
8 1728 1842 1724 1606 1845 1957 1841 1727
8 1725 1607 1729 1843 1842 1728 1846 1958
8 1741 1627 1746 1857 1849 1730 1848 1965
8 1734 1612 1731 1850 1851 1733 1849 1966
8 1854 1741 1849 1966 1738 1622 1731 1850
8 1967 1859 1745 1853 1852 1743 1626 1737
8 1968 1860 1744 1856 1853 1745 1625 1739
8 1854 1741 1622 1738 1969 1857 1742 1855
8 1855 1742 1624 1740 1970 1858 1744 1856
8 1857 1746 1631 1742 1971 1861 1749 1858
8 1858 1749 1630 1744 1972 1863 1748 1860
8 1859 1747 1862 1973 1745 1629 1748 1860
8 1875 1768 1864 1977 1761 1651 1750 1865
8 1755 1644 1761 1869 1866 1751 1865 1978
8 1867 1760 1874 1979 1754 1646 1763 1868
8 1774 1658 1775 1887 1867 1760 1874 1979
8 1870 1766 1648 1756 1980 1877 1763 1868
8 1872 1762 1875 1981 1758 1645 1761 1869
8 1757 1649 1766 1870 1871 1765 1880 1982
8 1983 1879 1764 1873 1871 1765 1647 1759
8 1873 1764 1876 1984 1759 1647 1762 1872
8 1877 1773 1655 1763 1986 1881 1767 1874
8 1775 1659 1776 1888 1874 1767 1881 1986
8 1876 1769 1882 1987 1762 1652 1768 1875
8 1878 1770 1883 1988 1764 1653 1769 1876
8 1880 1772 1656 1766 1989 1886 1773 1877
8 1878 1770 1653 1764 1990 1884 1771 1879
8 1765 1654 1772 1880 1879 1771 1885 1991
8 1778 1664 1779 1890 1887 1775 1888 1997
8 1998 1889 1776 1888 1891 1780 1665 1779
8 1893 1782 1891 2000 1781 1668 1779 1890
8 1894 1783 1892 2001 1782 1669 1780 1891
8 1784 1671 1785 1896 1893 1782 1894 2003
8 1897 1786 1895 2004 1785 1672 1783 1894
8 1790 1675 1789 1904 1896 1785 1897 2006
8 1901 1787 1898 2007 1789 1673 1786 1897
8 1903 1788 1900 2013 1789 1673 1787 1901
8 1792 1676 1791 1906 1903 1788 1902 2016
8 1907 1792 1903 2017 1795 1678 1789 1904
8 1906 1791 1677 1794 2019 1905 1793 1909
8 1907 1792 1678 1795 2020 1906 1794 1910
8 1797 1679 1796 1912 1909 1793 1908 2022
8 1798 1680 1797 1913 1910 1794 1909 2023
8 1800 1682 1799 1915 1912 1796 1911 2025
8 1801 1683 1800 1916 1913 1797 1912 2026
8 1803 1687 1804 1918 1915 1799 1914 2028
8 1802 1686 1803 1917 1916 1800 1915 2029
8 1805 1689 1806 1920 1917 1803 1918 2030
8 1806 1690 1807 1921 1918 1804 1919 2031
8 1808 1692 1809 1922 1920 1806 1921 2032
8 1939 1826 1924 2037 1829 1713 1811 1926
8 1926 1811 1925 2039 1813 1697 1812 1928
8 1944 1829 1926 2040 1828 1712 1813 1929
8 1928 1812 1927 2042 1815 1698 1814 1931
8 1929 1813 1928 2043 1816 1699 1815 1932
8 1931 1814 1930 2044 1818 1700 1817 1933
8 1932 1815 1931 2045 1819 1701 1818 1934
8 1934 1818 1933 2046 1821 1704 1820 1935
8 2048 1936 1823 1937 1977 1864 1750 1865
8 1950 1833 1715 1834 2048 1936 1823 1937
8 1938 1824 1751 1866 2049 1937 1865 1978
8 1835 1716 1824 1938 1951 1834 1937 2049
8 1939 1826 1713 1829 2053 1942 1831 1946
8 1940 1827 1923 2035 2053 1942 1826 1939
8 1945 1830 1946 2058 1828 1712 1829 1944
8 2059 1947 1830 1945 1966 1849 1733 1851
8 1947 1832 1730 1849 2060 1948 1848 1965
8 1947 1832 1948 2060 1830 1714 1831 1946
8 1959 1847 1729 1843 2063 1949 1833 1950
8 1952 1843 1725 1836 2064 1950 1834 1951
8 1836 1725 1843 1952 1953 1842 1958 2066
8 1953 1842 1957 2067 1839 1724 1841 1955
8 1841 1955 1838 1723 1956 2068 1954 1840
8 2068 1956 1859 1967 1954 1840 1743 1852
8 1956 1844 1960 2069 1859 1747 1862 1973
8 1845 1957 1841 1727 1960 2069 1956 1844
8 1728 1842 1957 1845 1846 1958 2071 1961
8 1962 2072 1959 1847 1846 1958 1843 1729
8 1971 1861 1964 2077 1857 1746 1848 1965
8 1854 1741 1857 1969 1966 1849 1965 2078
8 1967 1859 1973 2079 1853 1745 1860 1968
8 1970 1858 1744 1856 2080 1972 1860 1968
8 1969 1857 1742 1855 2081 1971 1858 1970
8 1971 1861 1749 1858 2082 1974 1863 1972
8 1973 1862 1975 2083 1860 1748 1863 1972
8 1987 1882 1976 2086 1875 1768 1864 1977
8 1981 1875 1977 2087 1869 1761 1865 1978
8 1980 1877 1763 1868 2088 1986 1874 1979
8 1887 1775 1888 1997 1979 1874 1986 2088
8 1880 1982 2089 1989 1766 1870 1980 1877
8 1984 1876 1987 2090 1872 1762 1875 1981
8 1765 1871 1983 1879 1880 1982 2091 1991
8 1985 1878 1764 1873 2092 1990 1879 1983
8 1985 1878 1988 2093 1873 1764 1876 1984
8 2094 1992 1881 1986 1998 1889 1776 1888
8 1986 1881 1992 2094 1877 1773 1886 1989
8 1988 1883 1993 2095 1876 1769 1882 1987
8 1878 1770 1884 1990 1988 1883 1994 2096
8 1991 1885 1772 1880 2097 1996 1886 1989
8 1879 1771 1885 1991 1990 1884 1995 2098
8 2103 1998 1888 1997 2000 1891 1779 1890
8 2104 1999 1889 1998 2001 1892 1780 1891
8 2003 1894 2001 2106 1893 1782 1891 2000
8 2004 1895 2002 2107 1894 1783 1892 2001
8 2006 1897 2004 2109 1896 1785 1894 2003
8 2007 1898 2005 2110 1897 1786 1895 2004
8 2014 1901 2007 2112 1904 1789 1897 2006
8 2011 1899 2008 2113 1901 1787 1898 2007
8 2119 2010 1899 2011 2013 1900 1787 1901
8 2016 1902 2012 2122 1903 1788 1900 2013
8 2017 1903 2013 2123 1904 1789 1901 2014
8 1906 1791 1905 2019 2016 1902 2015 2125
8 1907 1792 1906 2020 2017 1903 2016 2126
8 1909 1793 1908 2022 2019 1905 2018 2128
8 2020 1906 1794 1910 2129 2019 1909 2023
8 1912 1796 1911 2025 2022 1908 2021 2131
8 1913 1797 1912 2026 2023 1909 2022 2132
8 1915 1799 1914 2028 2025 1911 2024 2134
8 1916 1800 1915 2029 2026 1912 2025 2135
8 1918 1804 1919 2031 2028 1914 2027 2136
8 1917 1803 1918 2030 2029 1915 2028 2137
8 1920 1806 1921 2032 2030 1918 2031 2138
8 1940 1827 1941 2054 2035 1923 2033 2140
8 2035 1923 2034 2143 1939 1826 1924 2037
8 2037 1924 2036 2146 1926 1811 1925 2039
8 2051 1939 2037 2147 1944 1829 1926 2040
8 2039 1925 2038 2149 1928 1812 1927 2042
8 2040 1926 2039 2150 1929 1813 1928 2043
8 2042 1927 2041 2151 1931 1814 1930 2044
8 2043 1928 2042 2152 1932 1815 1931 2045
8 2045 1931 2044 2153 1934 1818 1933 2046
8 2155 2047 1936 2048 2086 1976 1864 1977
8 2063 1949 1833 1950 2155 2047 1936 2048
8 2156 2048 1937 2049 2087 1977 1865 1978
8 2064 1950 1834 1951 2156 2048 1937 2049
8 2051 1939 1829 1944 2160 2053 1946 2058
8 2052 1940 2035 2144 2160 2053 1939 2051
8 2053 1942 1831 1946 2163 2057 1948 2060
8 2055 1943 1827 1940 2163 2057 1942 2053
8 2055 1943 2056 2164 1940 1827 1941 2054
8 2059 1947 1849 1966 2167 2060 1965 2078
8 2059 1947 2060 2167 1945 1830 1946 2058
8 2077 1964 2061 2168 1965 1848 1948 2060
8 2070 1963 1847 1959 2170 2062 1949 2063
8 2065 1959 1843 1952 2171 2063 1950 2064
8 2173 2072 1958 2066 2065 1959 1843 1952
8 1953 1842 1958 2066 2067 1957 2071 2174
8 2068 1956 2069 2175 1967 1859 1973 2079
8 2067 1957 2069 2175 1955 1841 1956 2068
8 1845 1957 2069 1960 1961 2071 2176 2073
8 2069 1960 2073 2176 1973 1862 1975 2083
8 2070 1963 2075 2177 1959 1847 1962 2072
8 1846 1958 2071 1961 1962 2072 2178 2074
8 2077 1964 1861 1971 2182 2076 1974 2082
8 2081 1971 2077 2183 1969 1857 1965 2078
8 2079 1973 2083 2184 1968 1860 1972 2080
8 2081 1971 1858 1970 2185 2082 1972 2080
8 2083 1975 2084 2186 1972 1863 1974 2082
8 2086 1976 1882 1987 2189 2085 1993 2095
8 2090 1987 2086 2190 1981 1875 1977 2087
8 2191 2094 1986 2088 2103 1998 1888 1997
8 2088 1986 2094 2191 1980 1877 1989 2089
8 1991 2091 2192 2097 1880 1982 2089 1989
8 2093 1988 2095 2193 1984 1876 1987 2090
8 1879 1983 2092 1990 1991 2091 2194 2098
8 1985 1878 1990 2092 2093 1988 2096 2195
8 2097 1996 1886 1989 2196 2099 1992 2094
8 2196 2099 1992 2094 2104 1999 1889 1998
8 1994 2096 1988 1883 2100 2197 2095 1993
8 2096 1994 1884 1990 2198 2101 1995 2098
8 1995 2098 2199 2102 1885 1991 2097 1996
8 2203 2104 1998 2103 2106 2001 1891 2000
8 2107 2002 2105 2204 2001 1892 1999 2104
8 2109 2004 2107 2206 2003 1894 2001 2106
8 2110 2005 2108 2207 2004 1895 2002 2107
8 2112 2007 2110 2209 2006 1897 2004 2109
8 2113 2008 2111 2210 2007 1898 2005 2110
8 2120 2011 2113 2212 2014 1901 2007 2112
8 2117 2009 2114 2213 2011 1899 2008 2113
8 2219 2116 2009 2117 2119 2010 1899 2011
8 2222 2118 2010 2119 2122 2012 1900 2013
8 2223 2119 2011 2120 2123 2013 1901 2014
8 2016 1902 2015 2125 2122 2012 2121 2225
8 2126 2016 2122 2226 2017 1903 2013 2123
8 2019 1905 2018 2128 2125 2015 2124 2228
8 2020 1906 2019 2129 2126 2016 2125 2229
8 2022 1908 2021 2131 2128 2018 2127 2231
8 2023 1909 2022 2132 2129 2019 2128 2232
8 2025 1911 2024 2134 2131 2021 2130 2234
8 2026 1912 2025 2135 2132 2022 2131 2235
8 1914 2028 2134 2024 2027 2136 2236 2133
8 2029 1915 2028 2137 2135 2025 2134 2237
8 2030 1918 2031 2138 2137 2028 2136 2238
8 2157 2050 2139 2240 2054 1941 2033 2140
8 2052 1940 2054 2161 2144 2035 2140 2242
8 2140 2033 2141 2243 2035 1923 2034 2143
8 2143 2034 2142 2246 2037 1924 2036 2146
8 2144 2035 2143 2247 2051 1939 2037 2147
8 2146 2036 2145 2249 2039 1925 2038 2149
8 2147 2037 2146 2250 2040 1926 2039 2150
8 2149 2038 2148 2251 2042 1927 2041 2151
8 2150 2039 2149 2252 2043 1928 2042 2152
8 2152 2042 2151 2253 2045 1931 2044 2153
8 2255 2154 2047 2155 2189 2085 1976 2086
8 2170 2062 1949 2063 2255 2154 2047 2155
8 2256 2155 2048 2156 2190 2086 1977 2087
8 2171 2063 1950 2064 2256 2155 2048 2156
8 2258 2159 2050 2157 2164 2056 1941 2054
8 2160 2053 1946 2058 2262 2163 2060 2167
8 2162 2055 1940 2052 2262 2163 2053 2160
8 2162 2055 2164 2263 2052 1940 2054 2161
8 2163 2057 1948 2060 2264 2165 2061 2168
8 2055 1943 2057 2163 2164 2056 2165 2264
8 2182 2076 2166 2268 2077 1964 2061 2168
8 2183 2077 2168 2269 2078 1965 2060 2167
8 2070 1963 2062 2170 2177 2075 2169 2271
8 2172 2070 1959 2065 2272 2170 2063 2171
8 2172 2070 2177 2273 2065 1959 2072 2173
8 2066 1958 2072 2173 2174 2071 2178 2274
8 2067 1957 2071 2174 2175 2069 2176 2275
8 2175 2069 2176 2275 2079 1973 2083 2184
8 2071 1961 2074 2178 2176 2073 2179 2276
8 2176 2073 2179 2276 2083 1975 2084 2186
8 2072 1962 2075 2177 2178 2074 2180 2277
8 2182 2076 1974 2082 2280 2181 2084 2186
8 2183 2077 1971 2081 2281 2182 2082 2185
8 2184 2083 2186 2282 2080 1972 2082 2185
8 2189 2085 1993 2095 2285 2188 2100 2197
8 2190 2086 1987 2090 2286 2189 2095 2193
8 2192 2097 1989 2089 2287 2196 2094 2191
8 2287 2196 2094 2191 2203 2104 1998 2103
8 2194 2098 1991 2091 2288 2199 2097 2192
8 2195 2096 2197 2289 2093 1988 2095 2193
8 2096 2195 2290 2198 1990 2092 2194 2098
8 2097 1996 2099 2196 2199 2102 2200 2291
8 2196 2099 1999 2104 2291 2200 2105 2204
8 2100 2197 2292 2201 1994 2096 2198 2101
8 1995 2098 2198 2101 2102 2199 2293 2202
8 2206 2107 2204 2296 2106 2001 2104 2203
8 2207 2108 2205 2297 2107 2002 2105 2204
8 2209 2110 2207 2299 2109 2004 2107 2206
8 2210 2111 2208 2300 2110 2005 2108 2207
8 2212 2113 2210 2302 2112 2007 2110 2209
8 2213 2114 2211 2303 2113 2008 2111 2210
8 2220 2117 2213 2305 2120 2011 2113 2212
8 2216 2115 2214 2306 2117 2009 2114 2213
8 2216 2115 2009 2117 2311 2217 2116 2219
8 2219 2116 2010 2119 2314 2218 2118 2222
8 2315 2219 2117 2220 2223 2119 2011 2120
8 2122 2012 2121 2225 2222 2118 2221 2317
8 2318 2222 2119 2223 2226 2122 2013 2123
8 2125 2015 2124 2228 2225 2121 2224 2320
8 2126 2016 2125 2229 2226 2122 2225 2321
8 2128 2018 2127 2231 2228 2124 2227 2323
8 2129 2019 2128 2232 2229 2125 2228 2324
8 2131 2021 2130 2234 2231 2127 2230 2326
8 2132 2022 2131 2235 2232 2128 2231 2327
8 2134 2024 2133 2236 2234 2130 2233 2328
8 2135 2025 2134 2237 2235 2131 2234 2329
8 2137 2028 2136 2238 2237 2134 2236 2330
8 2157 2050 2158 2259 2240 2139 2239 2332
8 2257 2157 2240 2334 2161 2054 2140 2242
8 2240 2139 2241 2335 2140 2033 2141 2243
8 2242 2140 2243 2337 2144 2035 2143 2247
8 2243 2141 2244 2338 2143 2034 2142 2246
8 2246 2142 2245 2341 2146 2036 2145 2249
8 2247 2143 2246 2342 2147 2037 2146 2250
8 2249 2145 2248 2343 2149 2038 2148 2251
8 2250 2146 2249 2344 2150 2039 2149 2252
8 2252 2149 2251 2345 2152 2042 2151 2253
8 2169 2271 2347 2254 2062 2170 2255 2154
8 2189 2085 2188 2285 2255 2154 2254 2347
8 2348 2255 2155 2256 2286 2189 2086 2190
8 2272 2170 2063 2171 2348 2255 2155 2256
8 2349 2258 2157 2257 2263 2164 2054 2161
8 2258 2159 2261 2351 2157 2050 2158 2259
8 2258 2159 2056 2164 2351 2261 2165 2264
8 2262 2163 2060 2167 2355 2264 2168 2269
8 2162 2055 2163 2262 2263 2164 2264 2355
8 2357 2266 2165 2264 2268 2166 2061 2168
8 2268 2166 2076 2182 2361 2267 2181 2280
8 2281 2182 2268 2362 2183 2077 2168 2269
8 2271 2169 2270 2364 2177 2075 2180 2277
8 2172 2070 2170 2272 2273 2177 2271 2365
8 2072 2173 2274 2178 2177 2273 2366 2277
8 2071 2174 2275 2176 2178 2274 2367 2276
8 2275 2176 2276 2367 2184 2083 2186 2282
8 2283 2187 2084 2186 2368 2278 2179 2276
8 2178 2074 2180 2277 2276 2179 2278 2368
8 2283 2187 2279 2370 2186 2084 2181 2280
8 2281 2182 2082 2185 2371 2280 2186 2282
8 2188 2285 2374 2284 2100 2197 2292 2201
8 2286 2189 2095 2193 2375 2285 2197 2289
8 2192 2097 2196 2287 2288 2199 2291 2376
8 2287 2196 2104 2203 2376 2291 2204 2296
8 2194 2098 2199 2288 2290 2198 2293 2377
8 2289 2197 2096 2195 2378 2292 2198 2290
8 2291 2200 2105 2204 2379 2294 2205 2297
8 2199 2102 2200 2291 2293 2202 2294 2379
8 2198 2101 2202 2293 2292 2201 2295 2380
8 2299 2207 2297 2383 2206 2107 2204 2296
8 2300 2208 2298 2384 2207 2108 2205 2297
8 2302 2210 2300 2386 2209 2110 2207 2299
8 2303 2211 2301 2387 2210 2111 2208 2300
8 2305 2213 2303 2389 2212 2113 2210 2302
8 2306 2214 2304 2390 2213 2114 2211 2303
8 2310 2216 2306 2392 2220 2117 2213 2305
8 2308 2215 2307 2393 2216 2115 2214 2306
8 2308 2215 2115 2216 2396 2309 2217 2311
8 2310 2216 2117 2220 2398 2311 2219 2315
8 2311 2217 2116 2219 2399 2312 2218 2314
8 2314 2218 2118 2222 2402 2313 2221 2317
8 2315 2219 2119 2223 2403 2314 2222 2318
8 2225 2121 2224 2320 2317 2221 2316 2405
8 2226 2122 2225 2321 2318 2222 2317 2406
8 2228 2124 2227 2323 2320 2224 2319 2408
8 2229 2125 2228 2324 2321 2225 2320 2409
8 2231 2127 2230 2326 2323 2227 2322 2411
8 2232 2128 2231 2327 2324 2228 2323 2412
8 2234 2130 2233 2328 2326 2230 2325 2413
8 2235 2131 2234 2329 2327 2231 2326 2414
8 2237 2134 2236 2330 2329 2234 2328 2415
8 2259 2158 2260 2352 2332 2239 2331 2417
8 2257 2157 2259 2350 2334 2240 2332 2419
8 2240 2139 2239 2332 2335 2241 2333 2420
8 2334 2240 2335 2422 2242 2140 2243 2337
8 2335 2241 2336 2423 2243 2141 2244 2338
8 2337 2243 2338 2425 2247 2143 2246 2342
8 2338 2244 2339 2426 2246 2142 2245 2341
8 2341 2245 2340 2428 2249 2145 2248 2343
8 2342 2246 2341 2429 2250 2146 2249 2344
8 2344 2249 2343 2430 2252 2149 2251 2345
8 2188 2285 2347 2254 2284 2374 2432 2346
8 2347 2254 2346 2432 2271 2169 2270 2364
8 2365 2271 2170 2272 2433 2347 2255 2348
8 2286 2189 2285 2375 2348 2255 2347 2433
8 2349 2258 2351 2435 2257 2157 2259 2350
8 2349 2258 2164 2263 2435 2351 2264 2355
8 2259 2158 2261 2351 2352 2260 2354 2437
8 2356 2265 2354 2437 2264 2165 2261 2351
8 2441 2357 2264 2355 2362 2268 2168 2269
8 2356 2265 2165 2264 2442 2358 2266 2357
8 2443 2359 2266 2357 2361 2267 2166 2268
8 2370 2279 2360 2446 2280 2181 2267 2361
8 2362 2268 2182 2281 2447 2361 2280 2371
8 2180 2277 2368 2278 2270 2364 2449 2363
8 2271 2365 2273 2177 2364 2450 2366 2277
8 2372 2283 2186 2282 2451 2368 2276 2367
8 2178 2274 2367 2276 2277 2366 2451 2368
8 2283 2187 2278 2368 2370 2279 2369 2452
8 2372 2283 2370 2453 2282 2186 2280 2371
8 2284 2374 2455 2373 2201 2292 2380 2295
8 2375 2285 2197 2289 2456 2374 2292 2378
8 2376 2291 2204 2296 2457 2379 2297 2383
8 2288 2199 2291 2376 2377 2293 2379 2457
8 2198 2290 2378 2292 2293 2377 2458 2380
8 2293 2202 2294 2379 2380 2295 2381 2459
8 2384 2298 2381 2459 2297 2205 2294 2379
8 2386 2300 2384 2463 2299 2207 2297 2383
8 2387 2301 2385 2464 2300 2208 2298 2384
8 2389 2303 2387 2466 2302 2210 2300 2386
8 2390 2304 2388 2467 2303 2211 2301 2387
8 2392 2306 2390 2469 2305 2213 2303 2389
8 2393 2307 2391 2470 2306 2214 2304 2390
8 2395 2308 2393 2472 2310 2216 2306 2392
8 2308 2215 2309 2396 2393 2307 2394 2473
8 2395 2308 2216 2310 2475 2396 2311 2398
8 2396 2309 2217 2311 2476 2397 2312 2399
8 2398 2311 2219 2315 2478 2399 2314 2403
8 2399 2312 2218 2314 2479 2400 2313 2402
8 2317 2221 2316 2405 2402 2313 2401 2482
8 2403 2314 2222 2318 2483 2402 2317 2406
8 2320 2224 2319 2408 2405 2316 2404 2485
8 2321 2225 2320 2409 2406 2317 2405 2486
8 2323 2227 2322 2411 2408 2319 2407 2488
8 2324 2228 2323 2412 2409 2320 2408 2489
8 2326 2230 2325 2413 2411 2322 2410 2490
8 2327 2231 2326 2414 2412 2323 2411 2491
8 2329 2234 2328 2415 2414 2326 2413 2492
8 2417 2331 2260 2352 2494 2416 2353 2438
8 2350 2259 2352 2436 2419 2332 2417 2496
8 2332 2239 2331 2417 2420 2333 2418 2497
8 2334 2240 2332 2419 2422 2335 2420 2499
8 2420 2333 2421 2500 2335 2241 2336 2423
8 2422 2335 2423 2502 2337 2243 2338 2425
8 2423 2336 2424 2503 2338 2244 2339 2426
8 2425 2338 2426 2505 2342 2246 2341 2429
8 2426 2339 2427 2506 2341 2245 2340 2428
8 2429 2341 2428 2507 2344 2249 2343 2430
8 2432 2346 2284 2374 2509 2431 2373 2455
8 2432 2346 2431 2509 2364 2270 2363 2449
8 2375 2285 2374 2456 2433 2347 2432 2510
8 2347 2433 2365 2271 2432 2510 2450 2364
8 2350 2259 2351 2435 2436 2352 2437 2514
8 2440 2356 2437 2514 2355 2264 2351 2435
8 2352 2260 2354 2437 2438 2353 2439 2516
8 2356 2265 2358 2442 2437 2354 2439 2516
8 2440 2356 2264 2355 2518 2442 2357 2441
8 2519 2443 2357 2441 2447 2361 2268 2362
8 2443 2359 2444 2520 2357 2266 2358 2442
8 2443 2359 2267 2361 2520 2444 2360 2446
8 2446 2360 2279 2370 2523 2445 2369 2452
8 2453 2370 2446 2524 2371 2280 2361 2447
8 2449 2363 2448 2525 2368 2278 2369 2452
8 2366 2277 2364 2450 2451 2368 2449 2526
8 2372 2283 2368 2451 2453 2370 2452 2527
8 2455 2373 2295 2380 2529 2454 2382 2460
8 2456 2374 2292 2378 2530 2455 2380 2458
8 2377 2293 2379 2457 2458 2380 2459 2531
8 2463 2384 2459 2531 2383 2297 2379 2457
8 2533 2461 2382 2460 2459 2381 2295 2380
8 2464 2385 2461 2533 2384 2298 2381 2459
8 2466 2387 2464 2537 2386 2300 2384 2463
8 2467 2388 2465 2538 2387 2301 2385 2464
8 2469 2390 2467 2540 2389 2303 2387 2466
8 2470 2391 2468 2541 2390 2304 2388 2467
8 2472 2393 2470 2543 2392 2306 2390 2469
8 2393 2307 2394 2473 2470 2391 2471 2544
8 2395 2308 2396 2475 2472 2393 2473 2546
8 2396 2309 2397 2476 2473 2394 2474 2547
8 2475 2396 2311 2398 2549 2476 2399 2478
8 2476 2397 2312 2399 2550 2477 2400 2479
8 2478 2399 2314 2403 2552 2479 2402 2483
8 2479 2400 2313 2402 2553 2480 2401 2482
8 2405 2316 2404 2485 2482 2401 2481 2556
8 2406 2317 2405 2486 2483 2402 2482 2557
8 2408 2319 2407 2488 2485 2404 2484 2559
8 2409 2320 2408 2489 2486 2405 2485 2560
8 2411 2322 2410 2490 2488 2407 2487 2561
8 2412 2323 2411 2491 2489 2408 2488 2562
8 2414 2326 2413 2492 2491 2411 2490 2563
8 2513 2434 2493 2565 2438 2353 2416 2494
8 2496 2417 2352 2436 2567 2494 2438 2515
8 2494 2416 2495 2568 2417 2331 2418 2497
8 2419 2332 2417 2496 2499 2420 2497 2570
8 2497 2418 2498 2571 2420 2333 2421 2500
8 2499 2420 2500 2573 2422 2335 2423 2502
8 2500 2421 2501 2574 2423 2336 2424 2503
8 2502 2423 2503 2576 2425 2338 2426 2505
8 2503 2424 2504 2577 2426 2339 2427 2506
8 2505 2426 2506 2578 2429 2341 2428 2507
8 2509 2431 2373 2455 2580 2508 2454 2529
8 2509 2431 2508 2580 2449 2363 2448 2525
8 2432 2510 2581 2509 2374 2456 2530 2455
8 2432 2510 2450 2364 2509 2581 2526 2449
8 2583 2511 2434 2513 2516 2439 2353 2438
8 2436 2352 2437 2514 2515 2438 2516 2588
8 2440 2356 2442 2518 2514 2437 2516 2588
8 2442 2358 2444 2520 2516 2439 2517 2589
8 2519 2443 2520 2591 2441 2357 2442 2518
8 2519 2443 2361 2447 2591 2520 2446 2524
8 2446 2360 2445 2523 2520 2444 2521 2592
8 2525 2448 2522 2593 2452 2369 2445 2523
8 2524 2446 2370 2453 2594 2523 2452 2527
8 2526 2449 2525 2595 2451 2368 2452 2527
8 2534 2462 2528 2597 2460 2382 2454 2529
8 2530 2455 2380 2458 2598 2529 2460 2532
8 2599 2533 2460 2532 2531 2459 2380 2458
8 2537 2464 2533 2599 2463 2384 2459 2531
8 2534 2462 2382 2460 2601 2535 2461 2533
8 2538 2465 2535 2601 2464 2385 2461 2533
8 2540 2467 2538 2604 2466 2387 2464 2537
8 2541 2468 2539 2605 2467 2388 2465 2538
8 2543 2470 2541 2607 2469 2390 2467 2540
8 2470 2391 2471 2544 2541 2468 2542 2608
8 2472 2393 2473 2546 2543 2470 2544 2610
8 2473 2394 2474 2547 2544 2471 2545 2611
8 2475 2396 2476 2549 2546 2473 2547 2613
8 2476 2397 2477 2550 2547 2474 2548 2614
8 2549 2476 2399 2478 2616 2550 2479 2552
8 2479 2400 2480 2553 2550 2477 2551 2617
8 2552 2479 2402 2483 2619 2553 2482 2557
8 2482 2401 2481 2556 2553 2480 2554 2620
8 2485 2404 2484 2559 2556 2481 2555 2623
8 2486 2405 2485 2560 2557 2482 2556 2624
8 2488 2407 2487 2561 2559 2484 2558 2625
8 2489 2408 2488 2562 2560 2485 2559 2626
8 2491 2411 2490 2563 2562 2488 2561 2627
8 2513 2434 2512 2585 2565 2493 2564 2630
8 2586 2513 2565 2632 2515 2438 2494 2567
8 2565 2493 2566 2633 2494 2416 2495 2568
8 2567 2494 2568 2635 2496 2417 2497 2570
8 2568 2495 2569 2636 2497 2418 2498 2571
8 2570 2497 2571 2638 2499 2420 2500 2573
8 2571 2498 2572 2639 2500 2421 2501 2574
8 2573 2500 2574 2641 2502 2423 2503 2576
8 2574 2501 2575 2642 2503 2424 2504 2577
8 2576 2503 2577 2643 2505 2426 2506 2578
8 2597 2528 2579 2645 2529 2454 2508 2580
8 2580 2508 2579 2645 2525 2448 2522 2593
8 2581 2509 2455 2530 2646 2580 2529 2598
8 2581 2509 2580 2646 2526 2449 2525 2595
8 2583 2511 2582 2648 2513 2434 2512 2585
8 2583 2511 2439 2516 2648 2582 2517 2589
8 2649 2583 2513 2586 2588 2516 2438 2515
8 2589 2517 2444 2520 2653 2587 2521 2592
8 2518 2442 2520 2591 2588 2516 2589 2654
8 2593 2522 2590 2655 2523 2445 2521 2592
8 2524 2446 2523 2594 2591 2520 2592 2656
8 2595 2525 2593 2657 2527 2452 2523 2594
8 2602 2536 2596 2659 2534 2462 2528 2597
8 2600 2534 2597 2660 2532 2460 2529 2598
8 2600 2534 2460 2532 2661 2601 2533 2599
8 2604 2538 2601 2661 2537 2464 2533 2599
8 2602 2536 2462 2534 2663 2603 2535 2601
8 2601 2535 2465 2538 2663 2603 2539 2605
8 2607 2541 2605 2665 2540 2467 2538 2604
8 2608 2542 2606 2666 2541 2468 2539 2605
8 2543 2470 2544 2610 2607 2541 2608 2668
8 2544 2471 2545 2611 2608 2542 2609 2669
8 2546 2473 2547 2613 2610 2544 2611 2671
8 2547 2474 2548 2614 2611 2545 2612 2672
8 2549 2476 2550 2616 2613 2547 2614 2674
8 2550 2477 2551 2617 2614 2548 2615 2675
8 2552 2479 2553 2619 2616 2550 2617 2677
8 2553 2480 2554 2620 2617 2551 2618 2678
8 2557 2482 2556 2624 2619 2553 2620 2680
8 2556 2481 2555 2623 2620 2554 2621 2681
8 2559 2484 2558 2625 2623 2555 2622 2683
8 2560 2485 2559 2626 2624 2556 2623 2684
8 2562 2488 2561 2627 2626 2559 2625 2685
8 2690 2629 2564 2630 2650 2584 2512 2585
8 2586 2513 2585 2651 2632 2565 2630 2691
8 2630 2564 2631 2692 2565 2493 2566 2633
8 2632 2565 2633 2694 2567 2494 2568 2635
8 2633 2566 2634 2695 2568 2495 2569 2636
8 2635 2568 2636 2697 2570 2497 2571 2638
8 2636 2569 2637 2698 2571 2498 2572 2639
8 2638 2571 2639 2700 2573 2500 2574 2641
8 2639 2572 2640 2701 2574 2501 2575 2642
8 2641 2574 2642 2702 2576 2503 2577 2643
8 2597 2528 2596 2659 2645 2579 2644 2704
8 2645 2579 2644 2704 2593 2522 2590 2655
8 2660 2597 2645 2705 2598 2529 2580 2646
8 2646 2580 2645 2705 2595 2525 2593 2657
8 2650 2584 2512 2585 2707 2647 2582 2648
8 2648 2582 2517 2589 2707 2647 2587 2653
8 2649 2583 2648 2708 2586 2513 2585 2651
8 2649 2583 2516 2588 2708 2648 2589 2654
8 2655 2590 2652 2710 2592 2521 2587 2653
8 2654 2589 2520 2591 2711 2653 2592 2656
8 2657 2593 2655 2712 2594 2523 2592 2656
8 2602 2536 2603 2663 2659 2596 2658 2714
8 2662 2602 2659 2715 2600 2534 2597 2660
8 2662 2602 2534 2600 2717 2663 2601 2661
8 2661 2601 2538 2604 2717 2663 2605 2665
8 2666 2606 2664 2718 2605 2539 2603 2663
8 2668 2608 2666 2720 2607 2541 2605 2665
8 2608 2542 2609 2669 2666 2606 2667 2721
8 2610 2544 2611 2671 2668 2608 2669 2723
8 2611 2545 2612 2672 2669 2609 2670 2724
8 2613 2547 2614 2674 2671 2611 2672 2726
8 2614 2548 2615 2675 2672 2612 2673 2727
8 2616 2550 2617 2677 2674 2614 2675 2729
8 2617 2551 2618 2678 2675 2615 2676 2730
8 2619 2553 2620 2680 2677 2617 2678 2732
8 2620 2554 2621 2681 2678 2618 2679 2733
8 2624 2556 2623 2684 2680 2620 2681 2735
8 2681 2621 2555 2623 2736 2682 2622 2683
8 2626 2559 2625 2685 2684 2623 2683 2737
8 2688 2628 2584 2650 2740 2686 2647 2707
8 2688 2628 2687 2742 2650 2584 2629 2690
8 2690 2629 2689 2745 2630 2564 2631 2692
8 2746 2690 2630 2691 2709 2650 2585 2651
8 2691 2630 2692 2747 2632 2565 2633 2694
8 2692 2631 2693 2748 2633 2566 2634 2695
8 2694 2633 2695 2750 2635 2568 2636 2697
8 2695 2634 2696 2751 2636 2569 2637 2698
8 2697 2636 2698 2753 2638 2571 2639 2700
8 2698 2637 2699 2754 2639 2572 2640 2701
8 2700 2639 2701 2755 2641 2574 2642 2702
8 2659 2596 2658 2714 2704 2644 2703 2757
8 2704 2644 2703 2757 2655 2590 2652 2710
8 2660 2597 2659 2715 2705 2645 2704 2758
8 2705 2645 2704 2758 2657 2593 2655 2712
8 2759 2706 2647 2707 2710 2652 2587 2653
8 2709 2650 2585 2651 2760 2707 2648 2708
8 2708 2648 2589 2654 2760 2707 2653 2711
8 2712 2655 2710 2761 2656 2592 2653 2711
8 2763 2713 2658 2714 2718 2664 2603 2663
8 2662 2602 2663 2717 2715 2659 2714 2764
8 2720 2666 2718 2767 2665 2605 2663 2717
8 2768 2719 2664 2718 2721 2667 2606 2666
8 2668 2608 2669 2723 2720 2666 2721 2770
8 2669 2609 2670 2724 2721 2667 2722 2771
8 2671 2611 2672 2726 2723 2669 2724 2773
8 2672 2612 2673 2727 2724 2670 2725 2774
8 2674 2614 2675 2729 2726 2672 2727 2776
8 2675 2615 2676 2730 2727 2673 2728 2777
8 2677 2617 2678 2732 2729 2675 2730 2779
8 2678 2618 2679 2733 2730 2676 2731 2780
8 2680 2620 2681 2735 2732 2678 2733 2782
8 2733 2679 2621 2681 2783 2734 2682 2736
8 2735 2681 2623 2684 2784 2736 2683 2737
8 2740 2686 2647 2707 2787 2738 2706 2759
8 2688 2628 2686 2740 2742 2687 2739 2789
8 2743 2688 2650 2709 2790 2740 2707 2760
8 2742 2687 2741 2792 2690 2629 2689 2745
8 2743 2688 2742 2793 2709 2650 2690 2746
8 2745 2689 2744 2795 2692 2631 2693 2748
8 2746 2690 2745 2796 2691 2630 2692 2747
8 2747 2692 2748 2797 2694 2633 2695 2750
8 2748 2693 2749 2798 2695 2634 2696 2751
8 2750 2695 2751 2800 2697 2636 2698 2753
8 2751 2696 2752 2801 2698 2637 2699 2754
8 2753 2698 2754 2802 2700 2639 2701 2755
8 2763 2713 2756 2804 2714 2658 2703 2757
8 2759 2706 2652 2710 2804 2756 2703 2757
8 2715 2659 2714 2764 2758 2704 2757 2805
8 2758 2704 2757 2805 2712 2655 2710 2761
8 2806 2759 2707 2760 2761 2710 2653 2711
8 2765 2716 2762 2808 2718 2664 2713 2763
8 2809 2763 2714 2764 2767 2718 2663 2717
8 2765 2716 2664 2718 2811 2766 2719 2768
8 2813 2768 2718 2767 2770 2721 2666 2720
8 2814 2769 2719 2768 2771 2722 2667 2721
8 2723 2669 2724 2773 2770 2721 2771 2816
8 2724 2670 2725 2774 2771 2722 2772 2817
8 2726 2672 2727 2776 2773 2724 2774 2819
8 2727 2673 2728 2777 2774 2725 2775 2820
8 2729 2675 2730 2779 2776 2727 2777 2822
8 2730 2676 2731 2780 2777 2728 2778 2823
8 2732 2678 2733 2782 2779 2730 2780 2825
8 2780 2731 2679 2733 2826 2781 2734 2783
8 2782 2733 2681 2735 2827 2783 2736 2784
8 2830 2785 2738 2787 2804 2756 2706 2759
8 2789 2739 2686 2740 2832 2786 2738 2787
8 2790 2740 2707 2760 2833 2787 2759 2806
8 2742 2687 2739 2789 2792 2741 2788 2835
8 2743 2688 2740 2790 2793 2742 2789 2836
8 2792 2741 2791 2838 2745 2689 2744 2795
8 2793 2742 2792 2839 2746 2690 2745 2796
8 2795 2744 2794 2841 2748 2693 2749 2798
8 2796 2745 2795 2842 2747 2692 2748 2797
8 2797 2748 2798 2843 2750 2695 2751 2800
8 2798 2749 2799 2844 2751 2696 2752 2801
8 2800 2751 2801 2845 2753 2698 2754 2802
8 2808 2762 2803 2847 2763 2713 2756 2804
8 2809 2763 2804 2848 2764 2714 2757 2805
8 2806 2759 2710 2761 2848 2804 2757 2805
8 2765 2716 2766 2811 2808 2762 2807 2850
8 2810 2765 2808 2851 2767 2718 2763 2809
8 2810 2765 2718 2767 2852 2811 2768 2813
8 2811 2766 2719 2768 2853 2812 2769 2814
8 2855 2814 2768 2813 2816 2771 2721 2770
8 2856 2815 2769 2814 2817 2772 2722 2771
8 2773 2724 2774 2819 2816 2771 2817 2858
8 2774 2725 2775 2820 2817 2772 2818 2859
8 2776 2727 2777 2822 2819 2774 2820 2861
8 2777 2728 2778 2823 2820 2775 2821 2862
8 2779 2730 2780 2825 2822 2777 2823 2864
8 2823 2778 2731 2780 2865 2824 2781 2826
8 2825 2780 2733 2782 2866 2826 2783 2827
8 2869 2828 2785 2830 2847 2803 2756 2804
8 2871 2829 2786 2832 2830 2785 2738 2787
8 2872 2830 2787 2833 2848 2804 2759 2806
8 2789 2739 2786 2832 2835 2788 2831 2874
8 2836 2789 2740 2790 2875 2832 2787 2833
8 2792 2741 2788 2835 2838 2791 2834 2877
8 2793 2742 2789 2836 2839 2792 2835 2878
8 2838 2791 2837 2880 2795 2744 2794 2841
8 2839 2792 2838 2881 2796 2745 2795 2842
8 2841 2794 2840 2882 2798 2749 2799 2844
8 2842 2795 2841 2883 2797 2748 2798 2843
8 2843 2798 2844 2884 2800 2751 2801 2845
8 2886 2846 2803 2847 2850 2807 2762 2808
8 2851 2808 2847 2887 2809 2763 2804 2848
8 2850 2807 2766 2811 2889 2849 2812 2853
8 2810 2765 2811 2852 2851 2808 2850 2890
8 2852 2811 2768 2813 2891 2853 2814 2855
8 2853 2812 2769 2814 2892 2854 2815 2856
8 2894 2856 2814 2855 2858 2817 2771 2816
8 2817 2772 2818 2859 2856 2815 2857 2895
8 2819 2774 2820 2861 2858 2817 2859 2897
8 2820 2775 2821 2862 2859 2818 2860 2898
8 2822 2777 2823 2864 2861 2820 2862 2900
8 2823 2778 2824 2865 2862 2821 2863 2901
8 2864 2823 2780 2825 2902 2865 2826 2866
8 2904 2867 2828 2869 2886 2846 2803 2847
8 2869 2828 2868 2906 2830 2785 2829 2871
8 2907 2869 2830 2872 2887 2847 2804 2848
8 2871 2829 2870 2909 2832 2786 2831 2874
8 2910 2871 2832 2875 2872 2830 2787 2833
8 2835 2788 2831 2874 2877 2834 2873 2912
8 2836 2789 2832 2875 2878 2835 2874 2913
8 2877 2834 2876 2915 2838 2791 2837 2880
8 2839 2792 2835 2878 2881 2838 2877 2916
8 2880 2837 2879 2917 2841 2794 2840 2882
8 2881 2838 2880 2918 2842 2795 2841 2883
8 2883 2841 2882 2919 2843 2798 2844 2884
8 2921 2885 2846 2886 2889 2849 2807 2850
8 2922 2886 2847 2887 2890 2850 2808 2851
8 2889 2849 2812 2853 2924 2888 2854 2892
8 2890 2850 2811 2852 2925 2889 2853 2891
8 2891 2853 2814 2855 2926 2892 2856 2894
8 2892 2854 2815 2856 2927 2893 2857 2895
8 2858 2817 2859 2897 2894 2856 2895 2929
8 2859 2818 2860 2898 2895 2857 2896 2930
8 2861 2820 2862 2900 2897 2859 2898 2932
8 2862 2821 2863 2901 2898 2860 2899 2933
8 2864 2823 2865 2902 2900 2862 2901 2934
8 2904 2867 2846 2886 2936 2903 2885 2921
8 2904 2867 2903 2936 2869 2828 2868 2906
8 2937 2904 2869 2907 2922 2886 2847 2887
8 2906 2868 2905 2939 2871 2829 2870 2909
8 2907 2869 2906 2940 2872 2830 2871 2910
8 2909 2870 2908 2942 2874 2831 2873 2912
8 2910 2871 2909 2943 2875 2832 2874 2913
8 2912 2873 2911 2945 2877 2834 2876 2915
8 2878 2835 2874 2913 2916 2877 2912 2946
8 2915 2876 2914 2947 2880 2837 2879 2917
8 2916 2877 2915 2948 2881 2838 2880 2918
8 2918 2880 2917 2949 2883 2841 2882 2919
8 2921 2885 2849 2889 2951 2920 2888 2924
8 2952 2921 2886 2922 2925 2889 2850 2890
8 2924 2888 2854 2892 2954 2923 2893 2927
8 2925 2889 2853 2891 2955 2924 2892 2926
8 2926 2892 2856 2894 2956 2927 2895 2929
8 2895 2857 2896 2930 2927 2893 2928 2957
8 2897 2859 2898 2932 2929 2895 2930 2959
8 2898 2860 2899 2933 2930 2896 2931 2960
8 2900 2862 2901 2934 2932 2898 2933 2961
8 2936 2903 2885 2921 2963 2935 2920 2951
8 2936 2903 2935 2963 2906 2868 2905 2939
8 2937 2904 2886 2922 2964 2936 2921 2952
8 2937 2904 2936 2964 2907 2869 2906 2940
8 2939 2905 2938 2966 2909 2870 2908 2942
8 2940 2906 2939 2967 2910 2871 2909 2943
8 2942 2908 2941 2969 2912 2873 2911 2945
8 2943 2909 2942 2970 2913 2874 2912 2946
8 2945 2911 2944 2971 2915 2876 2914 2947
8 2946 2912 2945 2972 2916 2877 2915 2948
8 2948 2915 2947 2973 2918 2880 2917 2949
8 2951 2920 2888 2924 2975 2950 2923 2954
8 2952 2921 2889 2925 2976 2951 2924 2955
8 2927 2893 2928 2957 2954 2923 2953 2978
8 2955 2924 2892 2926 2979 2954 2927 2956
8 2929 2895 2930 2959 2956 2927 2957 2980
8 2930 2896 2931 2960 2957 2928 2958 2981
8 2932 2898 2933 2961 2959 2930 2960 2982
8 2951 2920 2950 2975 2963 2935 2962 2984
8 2963 2935 2962 2984 2939 2905 2938 2966
8 2964 2936 2921 2952 2985 2963 2951 2976
8 2964 2936 2963 2985 2940 2906 2939 2967
8 2966 2938 2965 2987 2942 2908 2941 2969
8 2967 2939 2966 2988 2943 2909 2942 2970
8 2969 2941 2968 2989 2945 2911 2944 2971
8 2970 2942 2969 2990 2946 2912 2945 2972
8 2972 2945 2971 2991 2948 2915 2947 2973
8 2954 2923 2953 2978 2975 2950 2974 2993
8 2976 2951 2924 2955 2994 2975 2954 2979
8 2957 2928 2958 2981 2978 2953 2977 2995
8 2956 2927 2957 2980 2979 2954 2978 2996
8 2959 2930 2960 2982 2980 2957 2981 2997
8 2984 2962 2983 2999 2966 2938 2965 2987
8 2975 2950 2974 2993 2984 2962 2983 2999
8 2976 2951 2975 2994 2985 2963 2984 3000
8 2985 2963 2984 3000 2967 2939 2966 2988
8 2987 2965 2986 3001 2969 2941 2968 2989
8 2988 2966 2987 3002 2970 2942 2969 2990
8 2990 2969 2989 3003 2972 2945 2971 2991
8 2978 2953 2977 2995 2993 2974 2992 3004
8 2979 2954 2978 2996 2994 2975 2993 3005
8 2980 2957 2981 2997 2996 2978 2995 3006
8 2974 2993 2999 2983 2992 3004 3007 2998
8 2983 2999 2987 2965 2998 3007 3001 2986
8 3000 2984 2999 3008 2988 2966 2987 3002
8 2994 2975 2993 3005 3000 2984 2999 3008
8 3002 2987 3001 3009 2990 2969 2989 3003
8 2996 2978 2995 3006 3005 2993 3004 3010
8 3005 2993 3004 3010 3008 2999 3007 3011
8 3008 2999 3007 3011 3002 2987 3001 3009

CELL_TYPES 1910
12
12
12
12
12
12
12
12
12
12
12
12
12
12
12
12
12
12
12
12
12
12
12
12
12
12
12
12
12
12
12
12
12
12
12
12
12
12
12
12
12
12
12
12
12
12
12
12
12
12
12
12
12
12
12
12
12
12
12
12
12
12
12
12
12
12
12
12
12
12
12
12
12
12
12
12
12
12
12
12
12
12
12
12
12
12
12
12
12
12
12
12
12
12
12
12
12
12
12
12
12
12
12
12
12
12
12
12
12
12
12
12
12
12
12
12
12
12
12
12
12
12
12
12
12
12
12
12
12
12
12
12
12
12
12
12
12
12
12
12
12
12
12
12
12
12
12
12
12
12
12
12
12
12
12
12
12
12
12
12
12
12
12
12
12
12
12
12
12
12
12
12
12
12
12
12
12
12
12
12
12
12
12
12
12
12
12
12
12
12
12
12
12
12
12
12
12
12
12
12
12
12
12
12
12
12
12
12
12
12
12
12
12
12
12
12
12
12
12
12
12
12
12
12
12
12
12
12
12
12
12
12
12
12
12
12
12
12
12
12
12
12
12
12
12
12
12
12
12
12
12
12
12
12
12
12
12
12
12
12
12
12
12
12
12
12
12
12
12
12
12
12
12
12
12
12
12
12
12
12
12
12
12
12
12
12
12
12
12
12
12
12
12
12
12
12
12
12
12
12
12
12
12
12
12
12
12
12
12
12
12
12
12
12
12
12
12
12
12
12
12
12
12
12
12
12
12
12
12
12
12
12
12
12
12
12
12
12
12
12
12
12
12
12
12
12
12
12
12
12
12
12
12
12
12
12
12
12
12
12
12
12
12
12
12
12
12
12
12
12
12
12
12
12
12
12
12
12
12
12
12
12
12
12
12
12
12
12
12
12
12
12
12
12
12
12
12
12
12
12
12
12
12
12
12
12
12
12
12
12
12
12
12
12
12
12
12
12
12
12
12
12
12
12
12
12
12
12
12
12
12
12
12
12
12
12
12
12
12
12
12
12
12
12
12
12
12
12
12
12
12
12
12
12
12
12
12
12
12
12
12
12
12
12
12
12
12
12
12
12
12
12
12
12
12
12
12
12
12
12
12
12
12
12
12
12
12
12
12
12
12
12
12
12
12
12
12
12
12
12
12
12
12
12
12
12
12
12
12
12
12
12
12
12
12
12
12
12
12
12
12
12
12
12
12
12
12
12
12
12
12
12
12
12
12
12
12
12
12
12
12
12
12
12
12
12
12
12
12
12
12
12
12
12
12
12
12
12
12
12
12
12
12
12
12
12
12
12
12
12
12
12
12
12
12
12
12
12
12
12
12
12
12
12
12
12
12
12
12
12
12
12
12
12
12
12
12
12
12
12
12
12
12
12
12
12
12
12
12
12
12
12
12
12
12
12
12
12
12
12
12
12
12
12
12
12
12
12
12
12
12
12
12
12
12
12
12
12
12
12
12
12
12
12
12
12
12
12
12
12
12
12
12
12
12
12
12
12
12
12
12
12
12
12
12
12
12
12
12
12
12
12
12
12
12
12
12
12
12
12
12
12
12
12
12
12
12
12
12
12
12
12
12
12
12
12
12
12
12
12
12
12
12
12
12
12
12
12
12
12
12
12
12
12
12
12
12
12
12
12
12
12
12
12
12
12
12
12
12
12
12
12
12
12
12
12
12
12
12
12
12
12
12
12
12
12
12
12
12
12
12
12
12
12
12
12
12
12
12
12
12
12
12
12
12
12
12
12
12
12
12
12
12
12
12
12
12
12
12
12
12
12
12
12
12
12
12
12
12
12
12
12
12
12
12
12
12
12
12
12
12
12
12
12
12
12
12
12
12
12
12
12
12
12
12
12
12
12
12
12
12
12
12
12
12
12
12
12
12
12
12
12
12
12
12
12
12
12
12
12
12
12
12
12
12
12
12
12
12
12
12
12
12
12
12
12
12
12
12
12
12
12
12
12
12
12
12
12
12
12
12
12
12
12
12
12
12
12
12
12
12
12
12
12
12
12
12
12
12
12
12
12
12
12
12
12
12
12
12
12
12
12
12
12
12
12
12
12
12
12
12
12
12
12
12
12
12
12
12
12
12
12
12
12
12
12
12
12
12
12
12
12
12
12
12
12
12
12
12
12
12
12
12
12
12
12
12
12
12
12
12
12
12
12
12
12
12
12
12
12
12
12
12
12
12
12
12
12
12
12
12
12
12
12
12
12
12
12
12
12
12
12
12
12
12
12
12
12
12
12
12
12
12
12
12
12
12
12
12
12
12
12
12
12
12
12
12
12
12
12
12
12
12
12
12
12
12
12
12
12
12
12
12
12
12
12
12
12
12
12
12
12
12
12
12
12
12
12
12
12
12
12
12
12
12
12
12
12
12
12
12
12
12
12
12
12
12
12
12
12
12
12
12
12
12
12
12
12
12
12
12
12
12
12
12
12
12
12
12
12
12
12
12
12
12
12
12
12
12
12
12
12
12
12
12
12
12
12
12
12
12
12
12
12
12
12
12
12
12
12
12
12
12
12
12
12
12
12
12
12
12
12
12
12
12
12
12
12
12
12
12
12
12
12
12
12
12
12
12
12
12
12
12
12
12
12
12
12
12
12
12
12
12
12
12
12
12
12
12
12
12
12
12
12
12
12
12
12
12
12
12
12
12
12
12
12
12
12
12
12
12
12
12
12
12
12
12
12
12
12
12
12
12
12
12
12
12
12
12
12
12
12
12
12
12
12
12
12
12
12
12
12
12
12
12
12
12
12
12
12
12
12
12
12
12
12
12
12
12
12
12
12
12
12
12
12
12
12
12
12
12
12
12
12
12
12
12
12
12
12
12
12
12
12
12
12
12
12
12
12
12
12
12
12
12
12
12
12
12
12
12
12
12
12
12
12
12
12
12
12
12
12
12
12
12
12
12
12
12
12
12
12
12
12
12
12
12
12
12
12
12
12
12
12
12
12
12
12
12
12
12
12
12
12
12
12
12
12
12
12
12
12
12
12
12
12
12
12
12
12
12
12
12
12
12
12
12
12
12
12
12
12
12
12
12
12
12
12
12
12
12
12
12
12
12
12
12
12
12
12
12
12
12
12
12
12
12
12
12
12
12
12
12
12
12
12
12
12
12
12
12
12
12
12
12
12
12
12
12
12
12
12
12
12
12
12
12
12
12
12
12
12
12
12
12
12
12
12
12
12
12
12
12
12
12
12
12
12
12
12
12
12
12
12
12
12
12
12
12
12
12
12
12
12
12
12
12
12
12
12
12
12
12
12
12
12
12
12
12
12
12
12
12
12
12
12
12
12
12
12
12
12
12
12
12
12
12
12
12
12
12
12
12
12
12
12
12
12
12
12
12
12
12
12
12
12
12
12
12
12
12
12
12
12
12
12
12
12
12
12
12
12
12
12
12
12
12
12
12
12
12
12
12
12
12
12
12
12
12
12
12
12
12
12
12
12
12
12
12
12
12
12
12
12
12
12
12
12
12
12
12
12
12
12
12
12
12
12
12
12
12
12
12
12
12
12
12
12
12
12
12
12
12
12
12
12
12
12
12
12
12
12
12
12
12
12
12
12
12
12
12
12
12
12
12
12
12
12
12
12
12
12
12
12
12
12
12
12
12
12
12
12
12
12
12
12
12
12
12
12
12
12
12
12
12
12
12
12
12
12
12
12
12
12
12
12
12
12
12
12
12
12
12
12
12
12
12
12
12
12
12
12
12
12
12
12
12
12
12
12
12
12
12
12
12
12
12
12
12
12
12
12
12
12
12
12
12
12
12
12
12
12
12
12
12
12
12
12
12
12
12
12
12
12
12
12
12
12
12
12
12
12
12
12
12
12
12
12
12
12
12
12
12
12
12
12
12
12
12
12
12
12
12
12
12
12
12
12
12
12
12
12
12
12
12
12
12
12
12
12
12
12
12
12
12
12
12
12
12
12
12
12
12
12
12
12
12
12
12
12
12
12
12
12
12
12
12
12
12
12
12
12
12
12
12
12
12
12
12
12
12
12
12
12
12
12
12
12
12
12
12
12
12
12
12
12
12
12
12
12
12
12
12
12
12
12
12
12
12
12
12
12
12
12
12
12
12
12
12
12
12
12
12
12
12
12
12
12
12
12
12
12
12
12
12
12
12
12
12
12
12
12
12
12
12
12
12
12
12
12
12
12
12
12
12
12
12
12
12
12
12
12
12
12
12
12
12
12
12
12
12
12
12
12
12
12
12
12
12
12
12
12
12
12
12
12
12
12
12
12
12
12
12
12
12
12
12
12
12
12
12
12
12
12
12
12
12
12
12
12
12
12
12
12
12
12
12
12
12
12

POINT_DATA 3012
SCALARS Jp_lamdaP float 4
LOOKUP_TABLE default
0.999945 1 1 0.999945
1 1 1 1
0.999948 1 1 0.999948
0.999917 1 1 0.999917
0.999942 1 1 0.999942
0.999952 1 1 0.999952
0.999619 1 1 0.999619
1 1 1 1
1 1 1 1
1 1 1 1
0.999995 1 1 0.999995
0.999787 1 1 0.999787
0.999877 1 1 0.999877
0.999909 1 1 0.999909
0.999949 1 1 0.999949
0.999925 1 1 0.999925
0.999955 1 1 0.999955
0.999946 1 1 0.999946
0.999623 1 1 0.999623
1 1 1 1
0.999904 1 1 0.999904
0.999931 1 1 0.999931
0.999502 1 1 0.999502
0.999585 1 1 0.999585
0.999973 1 1 0.999973
0.999667 1 1 0.999667
0.99909 1 1 0.99909
1 1 1 1
0.999963 1 1 0.999963
0.999977 1 1 0.999977
1 1 1 1
0.999795 1 1 0.999795
0.999923 1 1 0.999923
0.999945 1 1 0.999945
0.999668 1 1 0.999668
1 1 1 1
0.999758 1 1 0.999758
0.999852 1 1 0.999852
0.999186 1 1 0.999186
1 1 1 1
1 1 1 1
0.999953 1 1 0.999953
1 1 1 1
0.999898 1 1 0.999898
0.999446 1 1 0.999446
1 1 1 1
0.999593 1 1 0.999593
0.999931 1 1 0.999931
0.999949 1 1 0.999949
0.999958 1 1 0.999958
0.999627 1 1 0.999627
0.999938 1 1 0.999938
0.999912 1 1 0.999912
0.999978 1 1 0.999978
0.999937 1 1 0.999937
0.999504 1 1 0.999504
0.999671 1 1 0.999671
0.999588 1 1 0.999588
0.999076 1 1 0.999076
1 1 1 1
0.999889 1 1 0.999889
0.999543 1 1 0.999543
0.999475 1 1 0.999475
0.999542 1 1 0.999542
0.99881 1 1 0.99881
0.998945 1 1 0.998945
0.999995 1 1 0.999995
0.999767 1 1 0.999767
0.999204 1 1 0.999204
0.998555 1 1 0.998555
1 1 1 1
1 1 1 1
1 1 1 1
0.999802 1 1 0.999802
1 1 1 1
1 1 1 1
0.999637 1 1 0.999637
1 1 1 1
0.999744 1 1 0.999744
0.99987 1 1 0.99987
0.999184 1 1 0.999184
1 1 1 1
0.999995 1 1 0.999995
0.999589 1 1 0.999589
0.999675 1 1 0.999675
0.998811 1 1 0.998811
0.999926 1 1 0.999926
0.999096 1 1 0.999096
0.999282 1 1 0.999282
0.998809 1 1 0.998809
1 1 1 1
1 1 1 1
1 1 1 1
1 1 1 1
1 1 1 1
0.999945 1 1 0.999945
0.999493 1 1 0.999493
0.999957 1 1 0.999957
0.999573 1 1 0.999573
1 1 1 1
0.999417 1 1 0.999417
0.999561 1 1 0.999561
0.998496 1 1 0.998496
0.999619 1 1 0.999619
0.998603 1 1 0.998603
0.999889 1 1 0.999889
0.99992 1 1 0.99992
0.999983 1 1 0.999983
0.999943 1 1 0.999943
0.999506 1 1 0.999506
0.999592 1 1 0.999592
0.999676 1 1 0.999676
0.999062 1 1 0.999062
1 1 1 1
0.999898 1 1 0.999898
0.999442 1 1 0.999442
0.999475 1 1 0.999475
0.999997 1 1 0.999997
0.999802 1 1 0.999802
0.999545 1 1 0.999545
0.998779 1 1 0.998779
0.999184 1 1 0.999184
0.998967 1 1 0.998967
0.998557 1 1 0.998557
0.999436 1 1 0.999436
0.999449 1 1 0.999449
0.998605 1 1 0.998605
0.998712 1 1 0.998712
0.998835 1 1 0.998835
0.999054 1.00074 1 0.998315
1 1 1 1
0.998514 1.00004 1 0.998477
0.999913 1 1 0.999913
0.999271 1 1 0.999271
0.998637 1 1 0.998637
0.999476 1.00114 1 0.998343
0.999974 1 1 0.999974
0.99957 1 1 0.99957
1 1 1 1
1 1 1 1
0.999644 1 1 0.999644
1 1 1 1
0.999884 1 1 0.999884
0.999748 1 1 0.999748
0.999182 1 1 0.999182
1 1 1 1
0.999997 1 1 0.999997
0.999618 1 1 0.999618
0.999703 1 1 0.999703
0.998814 1 1 0.998814
0.999941 1 1 0.999941
0.999098 1 1 0.999098
0.999281 1 1 0.999281
0.998795 1 1 0.998795
0.999974 1 1 0.999974
1 1 1 1
0.999669 1 1 0.999669
0.998705 1 1 0.998705
0.998959 1 1 0.998959
0.999353 1.00098 1 0.998375
0.999405 1 1 0.999405
0.9987 1 1 0.9987
0.999032 1 1.00015 0.998883
0.998666 1 1 0.998666
1 1 1 1
1 1 1 1
1 1 1 1
0.999989 1 1 0.999989
1 1 1 1
1 1 1 1
1 1 1 1
0.999551 1 1 0.999551
0.999466 1 1 0.999466
1 1 1 1
1 1 1 1
0.99942 1 1 0.99942
0.999542 1 1 0.999542
0.998496 1 1 0.998496
0.999574 1 1 0.999574
0.998603 1 1 0.998603
0.999406 1 1 0.999406
0.998436 1 1 0.998436
0.998559 1 1 0.998559
1.00143 1.00334 1 0.998099
0.998642 1 1 0.998642
1.00049 1.00229 1 0.998204
1 1 1 1
0.999908 1 1 0.999908
0.999334 1 1 0.999334
0.999476 1 1 0.999476
1 1 1 1
0.999838 1 1 0.999838
0.999548 1 1 0.999548
0.998748 1 1 0.998748
0.998989 1 1 0.998989
0.999165 1 1 0.999165
0.99856 1 1 0.99856
0.999433 1 1 0.999433
0.999449 1 1 0.999449
0.998541 1 1 0.998541
0.998735 1 1 0.998735
1 1 1 1
0.9999 1 1 0.9999
0.999298 1 1 0.999298
0.998835 1 1 0.998835
0.999081 1.0008 1 0.998279
0.998632 1 1 0.998632
0.998569 1.00007 1 0.998497
0.999535 1.00119 1 0.998346
0.999967 1 1 0.999967
0.99957 1 1 0.99957
0.998451 1 1 0.998451
0.998666 1 1 0.998666
1.00048 1.00231 1 0.998181
0.999269 1.00108 1 0.998196
0.998609 1.0002 1 0.998407
1.00283 1.00469 1 0.998155
0.999949 1 1 0.999949
0.999968 1.00168 1 0.998287
0.999364 1 1 0.999364
0.99879 1 1 0.99879
0.999183 1.00077 1 0.998419
1.00208 1.0038 1 0.99829
0.999473 1 1 0.999473
0.999688 1 1 0.999688
0.999165 1 1 0.999165
0.999603 1 1 0.999603
1 1 1 1
1 1 1 1
0.999698 1 1 0.999698
0.998817 1 1 0.998817
0.999954 1 1 0.999954
0.999281 1 1 0.999281
0.999101 1 1 0.999101
0.998781 1 1 0.998781
0.999981 1 1 0.999981
1 1 1 1
0.999671 1 1 0.999671
0.998706 1 1 0.998706
0.998964 1 1 0.998964
0.999085 1.00071 1 0.998374
0.999406 1 1 0.999406
0.99871 1 1 0.99871
0.998922 1 1.00004 0.99888
0.998655 1 1 0.998655
1 1 1 1
0.999529 1 1 0.999529
0.999803 1 1 0.999803
0.999271 1 1 0.999271
1.00022 1.00194 1 0.998278
0.998746 1.0002 1 0.998546
1.00287 1.00471 1 0.998173
0.999105 1 1.00008 0.999022
0.999405 1.00086 1 0.998549
0.999735 1 1.0011 0.998636
0.99876 1.00022 1 0.998542
0.999947 1 1 0.999947
1 1 1 1
1 1 1 1
1 1 1 1
1 1 1 1
0.999997 1 1 0.999997
1 1 1 1
0.999985 1 1 0.999985
1 1 1 1
0.999575 1 1 0.999575
0.999515 1 1 0.999515
0.998603 1 1 0.998603
0.998496 1 1 0.998496
0.999422 1 1 0.999422
1 1 1 1
0.999406 1 1 0.999406
0.998436 1 1 0.998436
0.998559 1 1 0.998559
1.00127 1.00318 1 0.998098
0.998642 1 1 0.998642
1.00055 1.00235 1 0.998204
0.998423 1 1 0.998423
1.00168 1.00365 1 0.998041
1.00087 1.00272 1 0.998159
1.00901 1.011 1 0.998025
1.00058 1.00234 1 0.998236
1.00677 1.00869 1 0.998099
0.99943 1 1 0.99943
0.999449 1 1 0.999449
0.998477 1 1 0.998477
0.998759 1 1 0.998759
1 1 1 1
0.999888 1 1 0.999888
0.999326 1 1 0.999326
0.998836 1 1 0.998836
0.999104 1.00086 1 0.998244
0.998624 1.00011 1 0.998517
0.998627 1 1 0.998627
0.999611 1.00126 1 0.99835
0.999961 1 1 0.999961
0.99957 1 1 0.99957
0.998431 1 1 0.998431
0.998665 1 1 0.998665
1.00067 1.00251 1 0.998169
0.999438 1.00121 1 0.998232
0.999941 1 1 0.999941
0.999363 1 1 0.999363
0.99882 1 1 0.99882
0.998662 1.00025 1 0.998408
1.00317 1.00503 1 0.998151
0.999185 1.0008 1 0.998389
1.00029 1.00201 1 0.998288
1.00231 1.00403 1 0.99829
0.999475 1 1 0.999475
0.999163 1 1 0.999163
0.999686 1 1 0.999686
1.00109 1.00298 1 0.998118
1.0005 1.0023 1 0.998205
1.00804 1.01004 1 0.998023
1.00458 1.00651 1 0.998083
1.00133 1.00311 1 0.998222
1.00876 1.01059 1 0.998185
0.999422 1 1 0.999422
1.00424 1.00599 1 0.998263
0.999014 1 1 0.999014
0.998753 1.00026 1 0.998495
1.00041 1.00216 1 0.998253
1.00633 1.00798 1 0.998361
0.999779 1 1 0.999779
0.999146 1 1 0.999146
0.999222 1 1 0.999222
0.999021 1 1 0.999021
0.998707 1 1 0.998707
1 1 1 1
0.999989 1 1 0.999989
0.999672 1 1 0.999672
0.998968 1 1 0.998968
0.998859 1.00049 1 0.998373
0.999407 1 1 0.999407
0.998878 1 1 0.998878
0.998721 1 1 0.998721
0.998644 1 1 0.998644
1 1 1 1
0.999529 1 1 0.999529
0.999807 1 1 0.999807
0.999268 1 1 0.999268
0.99994 1.00167 1 0.998276
0.998706 1.00016 1 0.998548
1.00265 1.00448 1 0.998173
0.9991 1 1.00007 0.999025
0.9991 1.00054 1 0.998562
0.999703 1 1.00108 0.998626
0.998708 1.0001 1 0.998607
1 1 1 1
0.999882 1 1 0.999882
0.999155 1 1 0.999155
0.999402 1 1 0.999402
0.999051 1 1 0.999047
1.00418 1.00607 1 0.998114
1.00111 1.00276 1 0.99835
1.00554 1.00743 1 0.998126
1.00021 1 1.00147 0.99874
0.999296 1.00082 1 0.998474
0.999284 1.00004 1.00085 0.998391
0.999936 1 1 0.999936
0.999669 1 1 0.999669
0.999954 1 1 0.999954
0.999949 1 1 0.999949
1 1 1 1
1 1 1 1
1 1 1 1
1 1 1 1
1 1 1 1
1 1 1 1
1 1 1 1
0.999995 1 1 0.999995
1 1 1 1
0.999981 1 1 0.999981
1 1 1 1
0.998642 1 1 0.998642
0.998559 1 1 0.998559
1.0006 1.00241 1 0.998204
1.0011 1.00301 1 0.998097
0.998437 1 1 0.998437
0.999405 1 1 0.999405
0.998422 1 1 0.998422
1.00163 1.0036 1 0.998041
1.0007 1.00255 1 0.998159
1.00918 1.01118 1 0.998025
1.00053 1.0023 1 0.998234
1.00623 1.00815 1 0.998099
1.00166 1.00364 1 0.998026
1.01069 1.01273 1 0.997982
1.00792 1.00987 1 0.998062
1.01476 1.01673 1 0.99807
1.00526 1.00717 1 0.998112
1.01113 1.01296 1 0.998197
0.998411 1 1 0.998411
0.998663 1 1 0.998663
1.00084 1.00269 1 0.998157
0.999605 1.00134 1 0.998269
0.999933 1 1 0.999933
0.999361 1 1 0.999361
0.998851 1 1 0.998851
0.998718 1.00031 1 0.998409
1.00352 1.00538 1 0.998146
1.00062 1.00233 1 0.99829
0.999164 1.00081 1 0.998359
1.00257 1.00428 1 0.99829
0.999477 1 1 0.999477
0.999162 1 1 0.999162
0.999683 1 1 0.999683
1.00128 1.0032 1 0.998087
1.00045 1.00225 1 0.998204
1.00802 1.01002 1 0.998017
1.00511 1.00703 1 0.998089
0.999423 1 1 0.999423
0.999009 1 1 0.999009
0.998811 1.00024 1.00003 0.998536
1.00163 1.00341 1 0.998232
1.00829 1.01011 1 0.998201
1.00058 1.00235 1 0.99823
1.0043 1.00605 1 0.998265
1.0058 1.00744 1 0.998375
0.999149 1 1 0.999149
0.999004 1 1 0.999004
0.999775 1 1 0.999775
0.999238 1 1 0.999238
1.00913 1.01119 1 0.997967
1.00755 1.00951 1 0.998057
1.01495 1.01698 1 0.998007
1.01048 1.01237 1 0.998137
1.00688 1.00866 1 0.998242
1.01134 1.01309 1 0.998272
0.999119 1 1 0.999119
1.00744 1.00906 1 0.998399
0.998761 1 1 0.998761
0.999678 1.00122 1.00018 0.998284
1.0044 1.00624 1 0.998168
1.00767 1.0093 1 0.998387
0.99983 1 1 0.99983
0.999333 1 1 0.999333
0.99901 1 1 0.99901
0.999041 1 1 0.999041
0.998957 1 1 0.998957
1 1 1 1
0.999622 1.00135 1 0.998274
0.999812 1 1 0.999812
0.999529 1 1 0.999529
0.999266 1 1 0.999266
0.998648 1.0001 1 0.99855
1.00235 1.00418 1 0.998172
0.999028 1 1 0.999028
0.999726 1 1.00111 0.998616
0.998776 1.0002 1 0.998575
0.998671 1 1 0.998671
1 1 1 1
0.999887 1 1 0.999887
0.999156 1 1 0.999156
0.999402 1 1 0.999402
0.999032 1 1 0.99903
1.00441 1.00631 1 0.99811
1.00054 1.00219 1 0.998351
1.00555 1.00744 1 0.998119
1.00014 1 1.00139 0.998743
0.999529 1.00104 1 0.998488
0.999516 1.00015 1.00096 0.99841
0.999917 1 1 0.999917
0.99952 1 1 0.99952
0.999295 1 1.0004 0.9989
0.999159 1 1.00001 0.999154
0.999159 1 1.00025 0.99891
1.00788 1.00979 1 0.998111
1.00219 1.00392 1 0.998281
1.00587 1.00763 1 0.998254
1.00221 1 1.00369 0.99852
0.998963 1.00069 1 0.99827
0.999939 1 1 0.999939
0.99961 1 1 0.99961
0.999652 1 1 0.999652
0.999486 1 1 0.999486
0.999676 1 1 0.999676
0.999957 1 1 0.999957
0.999956 1 1 0.999956
1 1 1 1
0.999952 1 1 0.999952
1 1 1 1
1 1 1 1
1 1 1 1
1 1 1 1
1 1 1 1
1 1 1 1
0.999999 1 1 0.999999
1 1 1 1
1 1 1 1
0.999993 1 1 0.999993
1 1 1 1
1.00051 1.00228 1 0.998233
1.00053 1.00238 1 0.998158
1.00571 1.00762 1 0.998099
1.00935 1.01134 1 0.998026
1.0016 1.00356 1 0.998041
0.998422 1 1 0.998422
1.00168 1.00366 1 0.998027
1.01076 1.01281 1 0.997974
1.0077 1.00965 1 0.998063
1.0146 1.01655 1 0.99808
1.00542 1.00733 1 0.998109
1.01125 1.01307 1 0.998204
1.01017 1.01224 1 0.99795
1.01619 1.01821 1 0.998014
1.01265 1.01453 1 0.998146
1.01422 1.01612 1 0.998132
1.01007 1.01192 1 0.998171
1.01313 1.01485 1 0.998298
1.00148 1.00343 1 0.998056
1.0004 1.0022 1 0.998203
1.00801 1.01002 1 0.998012
1.00565 1.00757 1 0.998095
0.999424 1 1 0.999424
0.999003 1 1 0.999003
0.998964 1.00021 1.00018 0.998576
1.00196 1.00372 1 0.998241
1.00783 1.00963 1 0.998217
1.0043 1.00604 1 0.998266
1.00076 1.00255 1 0.998207
1.00528 1.0069 1 0.998388
0.999152 1 1 0.999152
0.998987 1 1 0.998987
0.999772 1 1 0.999772
0.999254 1 1 0.999254
1.00914 1.0112 1 0.997968
1.0076 1.00956 1 0.998053
1.01467 1.01669 1 0.998014
1.00991 1.0118 1 0.998132
0.999116 1 1 0.999116
0.998827 1 1.00003 0.998796
0.999848 1.00118 1.00039 0.998279
1.00657 1.00836 1 0.99823
1.01143 1.01315 1 0.998308
1.00434 1.00619 1 0.998158
1.00716 1.00877 1 0.998401
1.00809 1.00969 1 0.998419
0.99901 1 1 0.99901
0.998954 1 1 0.998954
0.999111 1 1.00007 0.999038
0.999803 1 1 0.999803
0.999347 1 1 0.999347
1.01608 1.01813 1 0.997988
1.01406 1.01605 1 0.998039
1.01222 1.014 1 0.998244
1.00966 1.01132 1 0.998359
0.998969 1 1 0.998969
1.00929 1.01081 1 0.998499
0.998886 1 1.00029 0.998598
1.0011 1.00254 1.00051 0.998059
1.00691 1.00882 1 0.998112
0.999821 1 1 0.999821
0.999474 1 1 0.999474
0.999159 1 1 0.999159
0.998971 1 1 0.998971
0.999035 1 1.00014 0.9989
0.998906 1 1 0.998906
1 1 1 1
0.999892 1 1 0.999892
1.00468 1.00658 1 0.998106
0.999403 1 1 0.999403
0.999156 1 1 0.999156
0.999012 1 1 0.999012
1.00006 1.00171 1 0.998352
1.00548 1.00738 1 0.998112
1.00009 1 1.00135 0.998747
0.999449 1.00025 1.00077 0.998429
0.999796 1.0013 1 0.998503
0.999922 1 1 0.999922
0.999521 1 1 0.999521
0.999238 1 1.00033 0.998908
0.999155 1 1 0.999153
0.999231 1 1.00034 0.998896
1.00791 1.00982 1 0.998107
1.00221 1.00394 1 0.998274
1.00584 1.00758 1 0.998274
1.00165 1 1.00316 0.998504
0.999075 1.00078 1.00006 0.99824
0.999596 1 1 0.999596
0.999239 1 1 0.999239
1.00064 1 1.0019 0.998742
0.999379 1 1.00045 0.998928
0.999279 1 1.00048 0.9988
1.01128 1.0129 1 0.998395
1.00224 1.00405 1 0.998196
1.00546 1.00717 1 0.998299
1.00274 1.00007 1.0043 0.998371
0.998627 1.00059 1 0.998037
0.999942 1 1 0.999942
0.999624 1 1 0.999624
0.9994 1 1 0.9994
0.999635 1 1 0.999635
0.999676 1 1 0.999676
0.99946 1 1 0.99946
0.999332 1 1 0.999332
0.999448 1 1 0.999448
0.99968 1 1 0.99968
0.999954 1 1 0.999954
0.999957 1 1 0.999957
1 1 1 1
0.999957 1 1 0.999957
1 1 1 1
1 1 1 1
1 1 1 1
1 1 1 1
1 1 1 1
1 1 1 1
1 1 1 1
1 1 1 1
0.999999 1 1 0.999999
1 1 1 1
1 1 1 1
1.00556 1.00746 1 0.998105
1.00748 1.00943 1 0.998063
1.01136 1.01317 1 0.99821
1.01445 1.01639 1 0.998091
1.01082 1.01288 1 0.997967
1.0017 1.00368 1 0.998027
1.01027 1.01235 1 0.997943
1.01624 1.01827 1 0.998011
1.01289 1.01479 1 0.998131
1.01438 1.01628 1 0.998135
1.00946 1.01131 1 0.998172
1.01301 1.01472 1 0.998322
1.01555 1.01761 1 0.997981
1.01562 1.01755 1 0.9981
1.01482 1.01661 1 0.998237
1.01264 1.01427 1 0.998395
1.00914 1.01119 1 0.997969
1.00762 1.00959 1 0.998048
1.01438 1.0164 1 0.99802
1.00933 1.01122 1 0.998126
0.999114 1 1 0.999114
0.99883 1 1 0.99883
1.00003 1.00117 1.00058 0.998274
1.00624 1.00804 1 0.998217
1.01152 1.0132 1 0.998345
1.00696 1.00857 1 0.998403
1.00422 1.00608 1 0.998148
1.00836 1.00993 1 0.998451
0.999011 1 1 0.999011
0.998951 1 1 0.998951
0.999175 1 1.00014 0.999035
0.999776 1 1 0.999776
0.999361 1 1 0.999361
1.01576 1.0178 1 0.997991
1.01393 1.01591 1 0.998046
1.01204 1.01382 1 0.998244
0.998965 1 1 0.998965
0.998888 1 1.00026 0.998632
1.00131 1.0025 1.00076 0.998052
1.00989 1.01156 1 0.998349
1.00668 1.00853 1 0.998159
1.00878 1.01031 1 0.998492
0.999825 1 1 0.999825
0.998968 1 1 0.998968
0.99893 1 1 0.99893
0.999129 1 1.00024 0.998891
0.999167 1 1 0.999167
0.999453 1 1 0.999453
1.01534 1.01735 1 0.998027
1.0147 1.01673 0.999862 0.998145
1.01178 1.01347 1 0.998326
1.0122 1.01373 1 0.998491
0.998872 1 1 0.998872
1.0065 1.00822 1 0.998289
0.999921 1 1.00165 0.998279
1.00203 1.00307 1.00104 0.997928
0.999867 1 1 0.999867
0.999547 1 1 0.999547
0.999257 1 1 0.999257
0.999066 1 1.00011 0.998953
0.998899 1 1 0.998899
0.998998 1 1.00018 0.998822
0.999926 1 1 0.999926
0.999523 1 1 0.999523
1.00801 1.00993 1 0.998103
0.999152 1 1 0.999152
0.999098 1 1.00018 0.998916
0.9994 1 1.00052 0.998883
1.00217 1.00391 1 0.998267
1.0059 1.00762 1 0.998294
1.00114 1 1.00265 0.998487
0.999286 1.00081 1.00027 0.99821
0.999597 1 1 0.999597
0.999249 1 1 0.999249
1.00065 1 1.00189 0.998759
0.999611 1 1.00068 0.998933
0.999092 1 1.00027 0.998827
1.01137 1.01298 1 0.99841
1.00219 1.004 1 0.998195
1.00572 1.00735 1 0.998374
1.00292 1.00001 1.00456 0.998353
0.998584 1.00055 1.00003 0.998003
0.999348 1 1 0.999348
0.999005 1 1 0.999005
1.00238 1 1.00376 0.998622
0.999309 1 1.0006 0.998715
1.01747 1.01935 0.999639 0.998519
1.01082 1.01246 0.999872 0.998509
1.00296 1.00495 1 0.998023
1.00246 1.00018 1.00426 0.998034
0.999639 1 1 0.999639
0.999411 1 1 0.999411
0.999273 1 1 0.999273
0.999676 1 1 0.999676
0.999435 1 1 0.999435
0.99968 1 1 0.99968
0.999313 1 1 0.999313
0.999458 1 1 0.999458
0.999207 1 1 0.999207
0.999307 1 1 0.999307
0.999448 1 1 0.999448
0.999675 1 1 0.999675
0.99995 1 1 0.99995
0.999953 1 1 0.999953
1 1 1 1
0.999957 1 1 0.999957
1 1 1 1
1 1 1 1
1 1 1 1
1 1 1 1
1 1 1 1
1 1 1 1
1 1 1 1
1 1 1 1
1 1 1 1
1 1 1 1
1 1 1 1
1.00887 1.01071 1 0.998173
1.01312 1.01504 1 0.998115
1.0129 1.01457 1 0.998346
1.01453 1.01642 1 0.998138
1.0163 1.01833 1 0.998008
1.01038 1.01247 1 0.997936
1.01551 1.01756 1 0.997986
1.01505 1.01698 1 0.998097
1.01454 1.01633 1 0.99824
1.01368 1.01531 1 0.998391
1.01539 1.01737 1 0.998059
1.01838 1.02035 0.999817 0.998246
1.01766 1.01939 0.999935 0.998369
1.01544 1.01748 1 0.997994
1.01381 1.01578 1 0.998053
1.01182 1.0136 1 0.998243
0.99896 1 1 0.99896
0.998843 1 1.00018 0.998665
1.00137 1.00249 1.00085 0.998044
1.01003 1.01171 1 0.99834
1.00847 1.01 1 0.998485
1.00674 1.00855 1 0.998207
0.998965 1 1 0.998965
0.998955 1 1 0.998955
0.999177 1 1.00029 0.998883
0.999829 1 1 0.999829
0.999176 1 1 0.999176
0.999432 1 1 0.999432
1.0158 1.01781 1 0.998031
1.0149 1.01685 0.999942 0.998149
1.0116 1.0133 1 0.998314
0.998864 1 1 0.998864
0.999738 1 1.0014 0.998342
1.00218 1.00334 1.0009 0.997941
1.01238 1.0139 1 0.998506
1.00688 1.00861 1 0.998281
0.999893 1 1 0.999893
0.999547 1 1 0.999547
0.998905 1 1 0.998905
0.998998 1 1.00014 0.998857
0.999098 1 1.00014 0.998955
0.99924 1 1 0.99924
1.01831 1.02053 0.999668 0.998162
1.01324 1.0165 0.998525 0.998264
1.01355 1.01561 0.999474 0.998501
1.0105 1.01197 1 0.998548
0.999592 1 1.00088 0.998709
1.00236 1.00302 1.0014 0.997937
1.00088 1.00014 1.00264 0.998112
0.999948 1 1 0.999948
0.999691 1 1 0.999691
0.99956 1 1 0.99956
0.999291 1 1 0.999291
0.99905 1 1 0.99905
0.99902 1 1.0002 0.998822
0.998931 1 1 0.998931
1.00446 1 1.00553 0.998937
0.999598 1 1 0.999598
0.999259 1 1 0.999259
1.01134 1.01293 1 0.998425
0.999713 1 1.00078 0.998937
1.00085 1 1.00208 0.998777
0.998889 1 1.00004 0.998854
1.00215 1.00397 1 0.998193
1.00586 1.00742 1 0.998449
1.00313 1 1.0048 0.998335
0.998446 1.00048 1 0.997969
0.999338 1 1 0.999338
0.999073 1 1.00006 0.999014
1.00276 1 1.00413 0.998638
0.999224 1 1.00049 0.998735
1.0174 1.01926 0.999649 0.998518
1.01008 1.01166 0.999949 0.99849
1.00343 1.00538 1 0.99806
1.00202 1.00025 1.00377 0.998006
0.999188 1 1 0.999188
1.01709 1.02061 0.998054 0.998488
0.999528 1 1.0007 0.998826
1.00111 1 1.00268 0.99844
1.0161 1.01815 0.999372 0.998611
1.00616 1.00807 1 0.998101
1.00366 1.00257 1.00323 0.997871
0.999423 1 1 0.999423
0.999271 1 1 0.999271
0.99915 1 1 0.99915
0.99968 1 1 0.99968
0.999467 1 1 0.999467
0.999295 1 1 0.999295
0.999675 1 1 0.999675
0.999449 1 1 0.999449
0.999191 1 1 0.999191
0.999326 1 1 0.999326
0.99911 1 1 0.99911
0.999186 1 1 0.999186
0.999327 1 1 0.999327
0.999453 1 1 0.999453
0.999662 1 1 0.999662
0.999945 1 1 0.999945
0.999949 1 1 0.999949
1 1 1 1
0.999953 1 1 0.999953
1 1 1 1
1 1 1 1
1 1 1 1
1 1 1 1
1 1 1 1
0.999967 1 1 0.999967
1 1 1 1
1 1 1 1
1 1 1 1
1 1 1 1
1 1 1 1
1 1 1 1
1.01472 1.01636 1 0.998387
1.01426 1.01604 1 0.998243
1.01446 1.0164 1 0.998094
1.01545 1.0175 1 0.997991
1.01525 1.01721 1 0.998071
1.01831 1.02034 0.999784 0.998234
1.01806 1.0198 0.999917 0.998382
1.01907 1.02141 0.99949 0.998212
1.02156 1.02449 0.998775 0.998363
1.00887 1.01742 0.993035 0.998545
1.01624 1.01824 1 0.998034
1.01512 1.017 0.999999 0.998152
1.01152 1.01324 1 0.998303
0.998913 1 1.00006 0.998856
0.999665 1 1.00126 0.998405
1.00209 1.00337 1.00078 0.997954
1.01267 1.01417 1 0.99852
1.00671 1.00845 1 0.998274
0.99891 1 1 0.99891
0.999001 1 1.00011 0.998892
0.999213 1 1.00026 0.998957
0.999918 1 1 0.999918
0.999547 1 1 0.999547
0.999224 1 1 0.999224
1.01815 1.02035 0.999665 0.998177
0.999945 1 1 0.999945
0.999676 1 1 0.999676
1.01325 1.016 0.999021 0.998262
1.01469 1.0166 0.999645 0.99847
0.999595 1 1.00084 0.998756
1.00158 1.00021 1.0033 0.998077
1.00202 1.00324 1.00084 0.997944
1.00973 1.0112 1 0.998539
0.999604 1 1 0.999604
0.99929 1 1 0.99929
0.998888 1 1 0.998888
1.00213 1 1.00312 0.999012
0.998998 1 1.0002 0.998802
0.999056 1 1 0.999056
1.02046 1.02364 0.998554 0.998332
1.01331 1.01779 0.997204 0.998391
1.01285 1.01627 0.997925 0.998699
1.00343 1.0052 0.999944 0.998296
1.00106 1 1.00234 0.998716
1.00411 1.00075 1.00547 0.997898
0.999696 1 1 0.999696
0.999647 1 1 0.999647
0.999479 1 1 0.999479
0.999292 1 1 0.999292
0.999133 1 1 0.999133
0.998871 1 1 0.998871
1.00722 1 1.00849 0.998737
0.999578 1 1.00054 0.999038
0.999327 1 1 0.999327
0.99913 1 1.00011 0.999022
1.0174 1.01927 0.999653 0.998518
1.00964 1.01119 1 0.998472
0.999176 1 1.00042 0.998755
1.00303 1 1.00438 0.998654
1.00403 1.00591 1.00004 0.998097
1.00167 1.00035 1.00335 0.997977
0.999184 1 1 0.999184
1.0169 1.02112 0.997365 0.998507
0.999424 1 1.00059 0.998836
1.0011 1 1.00269 0.998418
1.01587 1.01789 0.999425 0.998589
1.00697 1.00886 1 0.998129
1.00358 1.00222 1.00348 0.99788
0.999244 1 1.00026 0.998981
1.01723 1.02379 0.994862 0.998726
0.999416 1 1.00075 0.998668
1.00228 1.0003 1.00379 0.998199
1.00784 1.01233 0.997225 0.998325
1.00196 1.00182 1.00221 0.997925
1.00557 1.00826 0.998499 0.998835
0.99927 1 1 0.99927
0.999149 1 1 0.999149
0.999047 1 1 0.999047
0.999674 1 1 0.999674
0.99945 1 1 0.99945
0.999345 1 1 0.999345
0.999175 1 1 0.999175
0.999661 1 1 0.999661
0.999444 1 1 0.999444
0.999101 1 1 0.999101
0.999327 1 1 0.999327
0.999202 1 1 0.999202
0.999091 1 1 0.999091
0.999228 1 1 0.999228
0.999328 1 1 0.999328
0.999408 1 1 0.999408
0.999615 1 1 0.999615
0.999482 1 1 0.999482
0.999617 1 1 0.999617
0.999942 1 1 0.999942
0.999945 1 1 0.999945
1 1 1 1
0.999948 1 1 0.999948
1 1 1 1
1 1 1 1
1 1 1 1
1 1 1 1
1 1 1 1
0.999978 1 1 0.999978
0.999964 1 1 0.999964
1 1 1 1
1 1 1 1
1 1 1 1
1 1 1 1
1 1 1 1
1 1 1 1
1.01843 1.02017 0.999905 0.998395
1.01828 1.02034 0.999755 0.998222
1.01514 1.01709 1 0.998082
1.01899 1.02133 0.999498 0.99821
1.02073 1.02362 0.998812 0.998361
1.01002 1.01775 0.99385 0.998544
1.01756 1.02359 0.995671 0.998431
1.0068 1.01596 0.992567 0.998404
1.01508 1.02399 0.99245 0.998843
0.999756 1 1 0.999756
1.01805 1.02021 0.999689 0.998192
1.01317 1.01542 0.999523 0.998261
1.01553 1.01739 0.999732 0.998439
0.999622 1 1.00082 0.998802
1.00239 1.00034 1.00402 0.998042
1.00215 1.00375 1.00045 0.997951
1.00907 1.01056 1 0.99853
0.998847 1 1 0.998847
0.999788 1 1.0007 0.999088
0.998937 1 1.00016 0.998782
0.999941 1 1 0.999941
0.999061 1 1 0.999061
0.999648 1 1 0.999648
0.999288 1 1 0.999288
0.999661 1 1 0.999661
1.02016 1.02427 0.997639 0.998339
0.999717 1 1 0.999717
0.999646 1 1 0.999646
0.999447 1 1 0.999447
1.01358 1.01805 0.997209 0.998394
1.01227 1.01541 0.998245 0.998655
1.00034 1 1.00161 0.998732
1.00379 1.00037 1.00553 0.997903
1.00346 1.00505 1.00012 0.9983
0.999314 1 1 0.999314
0.99912 1 1 0.99912
1.00103 1 1.00205 0.998985
1.00593 1 1.00717 0.998771
0.998889 1 1 0.998889
1.01364 1.02015 0.995203 0.998408
1.01293 1.02011 0.994446 0.998511
1.00762 1.01075 0.998437 0.99847
1.00457 1.00318 1.00323 0.998167
1.00345 1 1.00478 0.998677
0.999447 1 1 0.999447
0.99936 1 1 0.99936
0.999271 1 1 0.999271
0.99913 1 1 0.99913
0.998984 1 1 0.998984
1.0045 1 1.00574 0.998774
1.00845 1 1.00979 0.998676
0.99918 1 1 0.99918
0.999298 1 1.00045 0.998845
1.01667 1.02152 0.996721 0.998527
1.01544 1.01747 0.999434 0.998567
1.00744 1.0093 1 0.998158
1.00107 1 1.00268 0.998397
1.00321 1.00173 1.0036 0.99789
0.999237 1 1.00023 0.999008
1.01684 1.02392 0.994348 0.99873
0.999389 1 1.00071 0.998685
1.0024 1.00012 1.00408 0.998211
1.00883 1.01266 0.99784 0.99838
1.00249 1.00189 1.00269 0.997914
1.00569 1.00854 0.998611 0.998564
0.999166 1 1.0003 0.998866
1.00412 1.01516 0.990398 0.99871
1.00053 1 1.0019 0.998638
1.00449 1 1.00636 0.998141
1.00311 1.00394 1.00104 0.998132
0.958664 0.974949 0.992606 0.99062
0.986998 0.989572 1.00169 0.995716
0.981679 1.00101 0.981703 0.998964
0.895549 0.924648 0.977149 0.991179
0.872909 0.930337 0.947047 0.990734
0.999147 1 1 0.999147
0.999058 1 1 0.999058
0.99906 1 1 0.99906
0.999661 1 1 0.999661
0.999434 1 1 0.999434
0.999326 1 1 0.999326
0.999217 1 1 0.999217
0.999091 1 1 0.999091
0.999311 1 1 0.999311
0.999633 1 1 0.999633
0.99942 1 1 0.99942
0.999097 1 1 0.999097
0.999225 1 1 0.999225
0.999233 1 1 0.999233
0.999165 1 1 0.999165
0.999269 1 1 0.999269
0.999383 1 1 0.999383
0.999611 1 1 0.999611
0.999438 1 1 0.999438
0.999335 1 1 0.999335
0.999455 1 1 0.999455
0.999457 1 1 0.999457
0.999657 1 1 0.999657
0.999616 1 1 0.999616
0.99994 1 1 0.99994
0.999942 1 1 0.999942
1 1 1 1
0.999944 1 1 0.999944
1 1 1 1
1 1 1 1
1 1 1 1
1 1 1 1
1 1 1 1
0.999982 1 1 0.999982
0.999976 1 1 0.999976
1 1 1 1
0.999961 1 1 0.999961
1 1 1 1
1 1 1 1
1 1 1 1
1 1 1 1
1 1 1 1
1.01998 1.02282 0.998864 0.998358
1.01887 1.02121 0.999502 0.998209
1.01104 1.01795 0.99466 0.998543
1.00703 1.01572 0.992998 0.998435
1.01702 1.02301 0.995707 0.998429
1.01733 1.02522 0.993509 0.998788
1.02114 1.02609 0.996749 0.998425
0.971514 0.984914 0.991361 0.994991
1.01304 1.01935 0.995107 0.998696
0.999767 1 1 0.999767
0.999755 1 1 0.999755
0.999517 1 1 0.999517
0.999544 1 1 0.999544
1.01989 1.02491 0.996752 0.998345
1.01398 1.01824 0.997412 0.998398
1.01191 1.01461 0.998719 0.99861
0.99952 1 1.00077 0.998749
1.00328 1.00002 1.00536 0.997908
1.00347 1.00505 1.00013 0.998303
1.00248 1 1.00356 0.99893
1.00467 1 1.00587 0.998804
0.998907 1 1 0.998907
0.999645 1 1 0.999645
0.999107 1 1 0.999107
0.999337 1 1 0.999337
0.999738 1 1 0.999738
0.999414 1 1 0.999414
1.01216 1.01842 0.995419 0.998424
0.999481 1 1 0.999481
0.99938 1 1 0.99938
0.999275 1 1 0.999275
1.01498 1.02155 0.995036 0.998523
1.0064 1.00985 0.998109 0.998465
1.00336 1 1.00469 0.998672
1.00449 1.00351 1.00282 0.998155
0.999133 1 1 0.999133
0.998989 1 1 0.998989
1.00818 1 1.00951 0.998676
1.00538 1 1.00664 0.998753
1.01641 1.02363 0.9945 0.998432
0.99988 1.01602 0.985588 0.998509
1.00461 1.00571 1.00073 0.998186
1.00164 1 1.00306 0.998581
0.999206 1 1 0.999206
0.999176 1 1 0.999176
1.00021 1 1.00128 0.998932
1.01417 1 1.01565 0.99854
0.947766 0.972236 0.984405 0.990274
0.999266 1 1.00023 0.999034
0.999452 1 1.00075 0.998702
1.01599 1.02389 0.99354 0.998734
1.00993 1.01296 0.99857 0.998434
1.00328 1.00209 1.0033 0.997902
1.00268 1 1.00447 0.998222
1.00522 1.00856 0.998398 0.998288
0.999349 1 1.00046 0.998887
1.00329 1.0148 0.989949 0.998696
1.00005 1 1.00141 0.998647
1.00424 1 1.00611 0.998142
1.00345 1.0051 1.00021 0.998151
0.956316 0.974765 0.990344 0.990639
0.982741 0.988422 0.999843 0.994408
0.983438 0.999832 0.984576 0.999011
0.899236 0.924946 0.98116 0.990871
0.85931 0.919737 0.943753 0.989984
0.999571 1 1.0006 0.998967
0.911009 0.935539 0.982918 0.990703
0.906428 0.935144 0.977714 0.991387
0.980623 1.00567 0.976382 0.998677
1.00481 1 1.00613 0.998683
1.00974 1.00128 1.01017 0.998299
0.982735 0.996802 0.986728 0.999148
0.962431 0.973075 0.998878 0.990173
0.976042 0.977737 1.00431 0.99398
0.879194 0.924792 0.959191 0.991142
0.910135 0.959392 0.955995 0.992326
0.99907 1 1 0.99907
0.999057 1 1 0.999057
0.999195 1 1 0.999195
0.99965 1 1 0.99965
0.999433 1 1 0.999433
0.999294 1 1 0.999294
0.999223 1 1 0.999223
0.999103 1 1 0.999103
0.999611 1 1 0.999611
0.999232 1 1 0.999232
0.999286 1 1 0.999286
0.999403 1 1 0.999403
0.999158 1 1 0.999158
0.999186 1 1 0.999186
0.999371 1 1.0002 0.999174
0.999264 1 1 0.999264
0.999417 1 1 0.999417
0.999437 1 1 0.999437
0.99932 1 1 0.99932
0.999297 1 1 0.999297
0.999312 1 1 0.999312
0.999253 1 1 0.999253
0.999207 1 1 0.999207
0.999435 1 1 0.999435
0.999455 1 1 0.999455
0.999658 1 1 0.999658
0.999433 1 1 0.999433
0.999642 1 1 0.999642
0.999939 1 1 0.999939
0.999615 1 1 0.999615
0.99994 1 1 0.99994
1 1 1 1
0.999942 1 1 0.999942
1 1 1 1
1 1 1 1
1 1 1 1
1 1 1 1
1 1 1 1
0.999757 1 1 0.999757
0.999983 1 1 0.999983
0.999981 1 1 0.999981
1 1 1 1
0.999973 1 1 0.999973
1 1 1 1
1 1 1 1
1 1 1 1
1 1 1 1
1 1 1 1
1.00822 1.01579 0.994067 0.998467
1.0165 1.02256 0.995641 0.998428
1.02008 1.02669 0.994819 0.998733
0.973184 0.983709 0.993562 0.995711
1.01277 1.01907 0.995064 0.99875
1.0223 1.02784 0.996203 0.998404
1.01764 1.02309 0.996157 0.998506
0.977444 0.986349 0.994904 0.996048
0.958678 0.975534 0.993146 0.989503
0.877478 0.917166 0.966387 0.990004
0.860785 0.912744 0.952098 0.990521
0.999508 1 1 0.999508
0.999766 1 1 0.999766
0.999755 1 1 0.999755
0.999507 1 1 0.999507
0.999355 1 1 0.999355
0.999391 1 1 0.999391
0.999517 1 1 0.999517
0.999529 1 1 0.999529
1.01052 1.01677 0.995411 0.998439
1.01711 1.02351 0.995199 0.998534
1.00521 1.009 0.997776 0.998461
1.00346 1 1.0048 0.998667
1.00443 1.00356 1.00272 0.998143
1.0079 1 1.00923 0.998677
1.00645 1 1.00773 0.998733
0.998993 1 1 0.998993
0.9994 1 1 0.9994
0.999136 1 1 0.999136
0.999515 1 1 0.999515
0.999279 1 1 0.999279
1.01662 1.02413 0.99425 0.99841
0.999225 1 1 0.999225
0.999181 1 1 0.999181
1.00142 1.01477 0.988336 0.998494
1.00433 1.0062 0.999867 0.998267
1.00341 1.0001 1.00478 0.998532
1.00099 1 1.00208 0.998918
1.01263 1 1.01411 0.998545
1.01518 1.02233 0.99463 0.998373
0.984248 1.00448 0.981333 0.998496
0.999493 1 1.00103 0.998463
1.00701 1 1.00843 0.998592
0.999108 1 1 0.999108
0.999961 1 1.00097 0.998996
1.00831 1 1.0096 0.998724
0.900097 0.937256 0.969067 0.991009
0.954596 0.973172 0.989776 0.991044
0.99944 1 1.00053 0.998908
0.999722 1 1.00107 0.998656
1.00343 1.01484 0.990063 0.998683
1.00386 1.00642 0.999287 0.99817
1.00384 1 1.00571 0.998144
0.957192 0.97482 0.992397 0.98944
0.983995 0.990555 0.998235 0.995135
0.985848 0.999078 0.987688 0.999057
0.893503 0.925941 0.974169 0.990555
0.845729 0.908301 0.941249 0.98923
0.999346 1 1.00038 0.998967
0.904929 0.938383 0.973002 0.991107
0.905011 0.931929 0.979811 0.991125
0.983392 1.0065 0.978342 0.998666
1.00438 1 1.00569 0.9987
1.00901 1.00069 1.00995 0.998377
0.975839 0.993815 0.982715 0.999182
0.964331 0.976205 0.998273 0.989546
0.977984 0.981204 1.00149 0.995235
0.880679 0.920457 0.96637 0.990081
0.908726 0.95929 0.954988 0.991939
1.00091 1 1.00182 0.99909
0.925682 0.938982 0.993285 0.9925
0.977611 0.982044 1.00047 0.995019
0.987965 1.00079 0.988131 0.999042
1.01053 1.00031 1.0112 0.999033
0.998067 0.990999 1.00764 0.999493
0.968295 0.976096 0.995663 0.996328
0.962335 0.967042 1.00562 0.989572
0.902445 0.943301 0.966176 0.990179
0.934046 0.976855 0.962227 0.993712
0.999054 1 1 0.999054
0.999173 1 1 0.999173
0.999755 1 1.00042 0.999334
0.999611 1 1 0.999611
0.999422 1 1 0.999422
0.999303 1 1 0.999303
0.999231 1 1 0.999231
0.999152 1 1 0.999152
0.999417 1 1 0.999417
0.999196 1 1 0.999196
0.999264 1 1 0.999264
0.999432 1 1.00024 0.999187
0.999845 1 1.00055 0.99929
0.999269 1 1.00009 0.999182
0.999267 1 1 0.999267
0.999436 1 1 0.999436
0.999305 1 1 0.999305
0.999296 1 1 0.999296
0.999311 1 1 0.999311
0.999253 1 1 0.999253
0.999277 1 1 0.999277
0.999231 1 1 0.999231
0.999227 1 1 0.999227
0.999057 1 1 0.999057
0.999535 1 1.00068 0.998859
0.99911 1 1 0.99911
0.999205 1 1 0.999205
0.999393 1 1 0.999393
0.999434 1 1 0.999434
0.99965 1 1 0.99965
0.999455 1 1 0.999455
0.999658 1 1 0.999658
0.999939 1 1 0.999939
0.999627 1 1 0.999627
0.999939 1 1 0.999939
1 1 1 1
0.99994 1 1 0.99994
1 1 1 1
1 1 1 1
1 1 1 1
1 1 1 1
1 1 1 1
0.999774 1 1 0.999774
0.999979 1 1 0.999979
0.999757 1 1 0.999757
1 1 1 1
0.999983 1 1 0.999983
0.99998 1 1 0.99998
1 1 1 1
1 1 1 1
1 1 1 1
1 1 1 1
1 1 1 1
0.902619 0.93161 0.977518 0.991164
0.912239 0.936077 0.982487 0.991906
0.975634 0.985009 0.994268 0.996193
1.01293 1.01871 0.995509 0.998804
1.02333 1.02933 0.995774 0.998384
0.976051 0.984066 0.994664 0.997176
1.01822 1.02292 0.996877 0.998526
0.960625 0.97665 0.99282 0.990705
0.890908 0.922401 0.974693 0.990936
0.851105 0.909516 0.945461 0.989758
0.996009 1.00001 0.998006 0.997989
0.96173 0.972706 0.998145 0.990553
0.872818 0.920664 0.956699 0.990939
0.907986 0.954698 0.959235 0.991489
0.999298 1 1 0.999298
0.999522 1 1 0.999522
0.999765 1 1 0.999765
0.999496 1 1 0.999496
0.999374 1 1 0.999374
0.999327 1 1 0.999327
0.999391 1 1 0.999391
0.999428 1 1 0.999428
0.999499 1 1 0.999499
0.999513 1 1 0.999513
1.01661 1.0244 0.994 0.998389
1.00209 1.01273 0.991001 0.998479
1.00404 1.00672 0.998995 0.998348
1.00497 1.00024 1.00625 0.998483
1.0104 1 1.01187 0.99855
1.00165 1 1.00275 0.998904
0.999186 1 1 0.999186
0.999244 1 1 0.999244
1.01266 1.02235 0.992141 0.998363
0.999101 1 1 0.999101
0.999882 1 1.00091 0.998976
0.985869 1.00405 0.983426 0.998439
0.999879 1 1.00133 0.998547
1.00666 1 1.00815 0.998525
1.00748 1 1.00879 0.998707
1.00228 1.00769 0.99602 0.998607
0.991626 1 0.992674 0.998944
1.0095 1 1.01084 0.998667
0.999092 1 1 0.999092
0.999258 1 1.0003 0.998962
1.00304 1 1.00424 0.998807
0.926827 0.941927 0.990621 0.993285
0.90671 0.93707 0.976835 0.990547
0.952025 0.975192 0.985849 0.990257
0.998968 1 1 0.998968
1.00392 1 1.00521 0.998717
0.986138 1.00712 0.980489 0.998655
1.00833 1 1.00989 0.998454
0.901418 0.936048 0.972289 0.99045
0.962841 0.974076 0.997374 0.991069
0.975697 0.982103 0.999433 0.994041
0.973073 0.991625 0.982056 0.999222
0.883888 0.920774 0.968795 0.99086
0.907002 0.935497 0.978356 0.990989
0.903442 0.956937 0.951996 0.991704
1.0014 1 1.00231 0.999091
0.925613 0.941559 0.990363 0.992631
0.979662 0.983427 1.00118 0.994993
0.990221 1.00035 0.990779 0.999088
1.01027 1.00004 1.01122 0.999021
0.997615 0.992154 1.00633 0.999178
0.96923 0.975671 0.998671 0.99472
0.961424 0.97022 1.00116 0.989783
0.906325 0.948153 0.964297 0.991277
0.926207 0.9702 0.96092 0.993482
1.00188 0.999824 1.00257 0.999491
0.978878 0.983046 0.9995 0.996258
0.977794 0.979414 1.00152 0.996826
1.00945 0.997329 1.01244 0.999715
0.983247 0.979965 1.00543 0.997934
0.965852 0.967993 1.00855 0.989329
0.938275 0.964285 0.981285 0.991584
0.939165 0.984555 0.960405 0.993225
0.999151 1 1 0.999151
0.999693 1 1.00036 0.999338
1.00075 1 1.0013 0.999451
0.999416 1 1 0.999416
0.999263 1 1 0.999263
0.999206 1 1 0.999206
0.999481 1 1.00028 0.999199
0.999267 1 1 0.999267
0.999211 1 1.00003 0.99918
1.00037 1 1.00105 0.999315
1.0004 0.999967 1.00099 0.999448
0.999794 1 1.00055 0.999246
0.999201 1 1 0.999201
0.999296 1 1 0.999296
0.999309 1 1 0.999309
0.999253 1 1 0.999253
0.999234 1 1 0.999234
0.999275 1 1 0.999275
0.999231 1 1 0.999231
0.999176 1 1 0.999176
0.99925 1 1 0.99925
0.999055 1 1 0.999055
0.999071 1 1 0.999071
0.999607 1 1.00069 0.998913
0.999889 1 1.00126 0.998627
0.999058 1 1 0.999058
0.999414 1 1.0005 0.998916
0.999136 1 1 0.999136
0.999295 1 1 0.999295
0.999202 1 1 0.999202
0.999391 1 1 0.999391
0.999626 1 1 0.999626
0.999433 1 1 0.999433
0.999649 1 1 0.999649
0.999938 1 1 0.999938
0.999657 1 1 0.999657
0.999939 1 1 0.999939
1 1 1 1
0.999939 1 1 0.999939
1 1 1 1
1 1 1 1
1 1 1 1
1 1 1 1
1 1 1 1
0.999694 1 1 0.999694
0.999974 1 1 0.999974
0.999738 1 1 0.999738
1 1 1 1
0.999981 1 1 0.999981
0.999757 1 1 0.999757
1 1 1 1
1 1 1 1
0.999983 1 1 0.999983
1 1 1 1
1 1 1 1
1 1 1 1
0.930163 0.942816 0.993317 0.993217
0.903779 0.934416 0.976366 0.990625
0.978922 0.985147 0.99879 0.994885
0.903488 0.929976 0.979791 0.991556
0.971893 0.983061 0.992952 0.995656
1.01814 1.02281 0.996881 0.998545
0.961389 0.977278 0.991767 0.991909
0.891719 0.926047 0.972489 0.990171
0.842964 0.907592 0.939127 0.988995
0.992589 0.998538 0.996619 0.997414
0.963835 0.973554 1.00031 0.989707
0.879414 0.925312 0.960138 0.989854
0.905163 0.953616 0.957633 0.991184
0.987466 0.993008 0.99733 0.997081
0.967981 0.969569 1.00914 0.98932
0.906576 0.949693 0.963186 0.991085
0.931496 0.977262 0.959842 0.993048
0.999185 1 1 0.999185
0.999319 1 1 0.999319
0.999536 1 1 0.999536
0.999394 1 1 0.999394
0.999214 1 1 0.999214
0.999341 1 1 0.999341
0.99939 1 1 0.99939
0.999409 1 1 0.999409
0.999449 1 1 0.999449
0.99948 1 1 0.99948
1.01047 1.0229 0.989478 0.998354
0.988475 1.00401 0.986119 0.998383
1.00022 1 1.00159 0.998632
1.007 1 1.00855 0.998459
1.00728 1 1.0086 0.99869
0.999756 1 1.0008 0.998955
0.999095 1 1 0.999095
0.999095 1 1 0.999095
0.99654 1.00689 0.991084 0.998625
0.99911 1 1.00014 0.998974
1.00323 1 1.00444 0.998803
0.989889 1 0.990994 0.998885
1.00814 1 1.00949 0.998657
0.97501 0.996655 0.979192 0.999072
1.00798 1 1.0087 0.999291
1.003 1 1.00416 0.998841
0.999001 1 1 0.999001
1.00251 1 1.00371 0.998807
0.975732 0.979523 0.999235 0.996892
0.930624 0.942262 0.994155 0.993455
0.902907 0.934928 0.974195 0.991331
1.00196 1 1.00287 0.999092
1.00987 0.999646 1.01123 0.999009
0.990953 1 0.991814 0.999132
0.933436 0.945323 0.994271 0.993115
0.969446 0.970482 1.00973 0.989304
0.971028 0.976678 0.998341 0.995867
0.990111 0.990935 1.00033 0.998837
0.905977 0.94619 0.967003 0.990173
0.980937 0.98397 1.00196 0.994969
0.921787 0.966692 0.959741 0.993547
1.00184 0.999717 1.00265 0.999484
0.978033 0.981748 0.999572 0.996642
0.981827 0.982475 1.00251 0.996837
1.01 0.998189 1.01226 0.999579
0.981919 0.979614 1.00488 0.997486
0.966816 0.970664 1.00718 0.988933
0.939756 0.98746 0.957709 0.993716
0.926353 0.957395 0.976347 0.991018
1.00373 0.998328 1.0057 0.999711
0.978411 0.981047 0.99859 0.998721
0.987392 0.990888 0.999303 0.997166
0.934063 0.978861 0.9609 0.993063
0.997854 0.984119 1.01456 0.999408
0.976678 0.974194 1.0129 0.989781
0.918829 0.942094 0.983697 0.991469
0.999609 1 1.00027 0.999342
1.0005 1 1.00109 0.99941
1.00306 0.999832 1.00366 0.999566
0.999266 1 1 0.999266
0.999178 1 1 0.999178
1.00113 1 1.0018 0.99934
0.999205 1 1 0.999205
1.00003 1 1.00079 0.999249
1.00086 0.999888 1.00155 0.999423
1.00006 1 1.00057 0.999491
0.999739 1 1.0005 0.999238
0.999238 1 1 0.999238
0.999274 1 1 0.999274
0.999235 1 1 0.999235
0.999245 1 1 0.999245
0.999185 1 1 0.999185
0.999502 1 1.00029 0.999211
0.999111 1 1 0.999111
1.00128 1 1.00256 0.998721
0.999086 1 1 0.999086
0.999459 1 1.00056 0.998898
0.999494 1 1.00101 0.998483
0.999774 1 1.00118 0.998597
0.999282 1 1.00033 0.998947
0.999756 1 1.00112 0.998639
0.999221 1 1 0.999221
0.999036 1 1 0.999035
0.999298 1 1.00033 0.998972
0.999161 1 1 0.999161
0.999317 1 1 0.999317
0.99958 1 1 0.99958
0.99939 1 1 0.99939
0.999625 1 1 0.999625
0.999932 1 1 0.999932
0.999648 1 1 0.999648
0.999936 1 1 0.999936
1 1 1 1
0.999938 1 1 0.999938
1 1 1 1
1 1 1 1
1 1 1 1
1 1 1 1
1 1 1 1
0.999588 1 1 0.999588
0.999914 1 1 0.999914
0.999692 1 1 0.999692
1 1 1 1
0.999953 1 1 0.999953
0.999702 1 1 0.999702
1 1 1 1
1 1 1 1
0.999982 1 1 0.999982
1 1 1 1
1 1 1 1
1 1 1 1
0.976628 0.980863 0.999052 0.996627
0.921706 0.941303 0.986231 0.99285
0.904828 0.932386 0.97985 0.990401
0.999347 1 1 0.999347
0.974222 0.976778 1.0002 0.997182
0.980724 0.985081 1.00072 0.994866
0.896613 0.929033 0.973541 0.991334
0.991941 0.998779 0.99638 0.996763
0.96888 0.975498 1.00284 0.990399
0.885224 0.932928 0.957836 0.990636
0.899151 0.949715 0.955326 0.991032
0.989038 0.994826 0.998742 0.995433
0.959732 0.965885 1.00382 0.989844
0.912959 0.951333 0.968601 0.990772
0.930372 0.976065 0.960144 0.992754
0.976597 0.981974 1.00022 0.994306
0.971169 0.965276 1.018 0.988313
0.925897 0.958877 0.974704 0.990666
0.93639 0.982877 0.959207 0.993219
0.999083 1 1 0.999083
0.999174 1 1 0.999174
0.99934 1 1 0.99934
0.99921 1 1 0.99921
0.999238 1 1 0.999238
0.999355 1 1 0.999355
0.999415 1 1 0.999415
0.999469 1 1 0.999469
0.990633 1.00583 0.986233 0.99864
0.987634 1 0.988796 0.998825
0.999097 1 1 0.999097
1.00634 1 1.0077 0.998647
1.00325 1 1.00446 0.998798
0.999096 1 1.00011 0.998985
0.999028 1 1.00002 0.999005
0.980693 0.99896 0.982614 0.999084
1.00238 1 1.00355 0.998835
1.00374 1 1.0049 0.99884
1.00267 1 1.00337 0.999308
0.999035 1 1 0.999035
0.973627 0.990135 0.983852 0.999466
1.01179 0.99873 1.01363 0.999454
1.00223 1 1.00331 0.998928
1.0001 1 1.00115 0.998957
0.979966 0.981759 0.999208 0.998965
0.975357 0.978844 0.999491 0.996945
0.935464 0.943099 0.998263 0.993631
1.00171 0.99971 1.00253 0.999478
1.01162 0.99915 1.01304 0.999445
0.977081 0.980547 0.99944 0.997024
0.973673 0.969233 1.01509 0.989647
0.979457 0.976723 1.00715 0.995679
0.930909 0.960289 0.978857 0.990345
0.984951 0.984571 1.00355 0.996849
0.941753 0.991581 0.955284 0.994206
1.00408 0.998454 1.00596 0.999678
0.976431 0.980038 0.997582 0.998734
0.986503 0.989066 0.999791 0.997617
1.00648 0.991074 1.01564 0.999914
0.93203 0.977747 0.960198 0.992755
0.971555 0.970363 1.01172 0.989627
0.928253 0.955785 0.980614 0.990394
1.00741 0.995729 1.01196 0.999771
0.986264 0.989992 0.99715 0.999081
0.975128 0.978433 0.999422 0.997198
0.908702 0.957126 0.957518 0.99153
0.925434 0.960997 0.972233 0.990497
0.984887 0.979879 1.00581 0.999307
0.978173 0.967549 1.02267 0.988572
1.00026 1 1.00089 0.99937
1.00215 0.999507 1.00309 0.99955
1.00448 0.992378 1.01262 0.999582
0.99921 1 1 0.99921
0.999857 1 1.00061 0.999252
1.00136 1 1.00196 0.999398
0.999401 1 1.00017 0.999233
1.00028 1 1.00079 0.99949
1.00539 0.998987 1.00709 0.999327
0.999239 1 1 0.999239
0.999194 1 1 0.999194
1.00008 1 1.0009 0.999183
1.00645 1 1.00762 0.998836
0.999167 1 1 0.999167
1.00075 1 1.00197 0.998783
1.00248 1 1.00413 0.998361
1.00009 1 1.00188 0.998216
0.999284 1 1.0004 0.998882
0.999531 1 1.00109 0.998438
0.999203 1 1.00053 0.998679
1.00016 1 1.00133 0.998834
0.999698 1 1.00107 0.998634
0.99916 1 1.00002 0.99914
0.999282 1 1.00034 0.998943
0.999652 1 1.001 0.99865
0.999506 1 1 0.999506
0.999214 1 1 0.999214
0.999014 1 1 0.999013
0.999339 1 1 0.999339
0.999578 1 1 0.999578
0.999919 1 1 0.999919
0.999624 1 1 0.999624
0.99993 1 1 0.99993
1 1 1 1
0.999935 1 1 0.999935
1 1 1 1
1 1 1 1
1 1 1 1
1 1 1 1
1 1 1 1
0.999547 1 1 0.999547
0.999876 1 1 0.999876
0.999609 1 1 0.999609
1 1 1 1
0.999911 1 1 0.999911
0.999691 1 1 0.999691
1 1 1 1
1 1 1 1
0.999932 1 1 0.999932
1 1 1 1
1 1 1 1
1 1 1 1
0.974618 0.978185 0.997632 0.998718
0.976047 0.9805 0.998821 0.996634
0.921806 0.942283 0.985269 0.992896
0.999357 1 1 0.999357
0.99932 1 1 0.99932
0.999235 1 1 0.999235
0.986257 0.989444 0.999619 0.997159
0.97629 0.977938 1.00112 0.997201
0.982058 0.984996 1.00218 0.994847
0.994898 0.994749 1.00345 0.99671
0.961324 0.966839 1.00497 0.989381
0.906177 0.944831 0.968558 0.990224
0.933821 0.979064 0.960743 0.992763
0.972649 0.977288 0.999513 0.995738
0.966027 0.965203 1.01163 0.989345
0.923132 0.951627 0.978142 0.991733
0.937937 0.986085 0.957192 0.993711
0.9626 0.970827 0.996383 0.995125
0.980566 0.971519 1.02001 0.989514
0.919101 0.940572 0.985522 0.991528
0.932928 0.975381 0.962571 0.993667
0.999077 1 1 0.999077
0.999081 1 1 0.999081
0.999162 1 1 0.999162
0.999207 1 1 0.999207
0.999263 1 1 0.999263
0.99942 1 1 0.99942
0.987253 1.0013 0.986861 0.999094
0.997855 1 0.99853 0.999324
0.99901 1 1 0.99901
1.0045 1 1.00567 0.998839
1.00251 1 1.00365 0.998864
0.999019 1 1 0.999019
1.00004 1 1.00108 0.998964
0.984761 0.993592 0.991643 0.999465
1.0034 1 1.00442 0.998994
1.00713 0.995724 1.01199 0.99948
0.999068 1 1 0.999068
1.00101 0.985108 1.01643 0.999715
0.993398 0.99228 1.00155 0.999574
1.00093 1 1.00182 0.99911
0.992822 0.993924 0.999502 0.999389
0.979752 0.981785 0.998846 0.999082
0.974735 0.978164 0.999495 0.996997
1.00465 0.99883 1.00618 0.999644
1.00175 0.99286 1.00926 0.999693
0.974897 0.979479 0.996571 0.998747
0.975888 0.969198 1.01458 0.992431
0.93146 0.953754 0.984747 0.991753
0.985743 0.987537 1.00011 0.998069
0.93526 0.980472 0.960823 0.992782
1.00655 0.99608 1.01073 0.999788
0.984753 0.989671 0.995847 0.999181
0.977444 0.979555 1.00063 0.997216
0.98315 0.975945 1.01018 0.997231
0.90535 0.955327 0.956061 0.991241
0.920602 0.955076 0.972104 0.991566
0.988122 0.973211 1.02613 0.989467
1.00745 0.982335 1.02574 0.999835
0.975546 0.978979 0.99775 0.99874
0.979997 0.986526 0.998435 0.994939
0.859763 0.912474 0.951143 0.990633
0.908137 0.951088 0.963396 0.991119
0.980124 0.972923 1.01819 0.989404
0.958008 0.970523 0.990748 0.996323
1.00086 0.998888 1.00244 0.999534
1.00798 0.994786 1.01369 0.999586
1.019 0.998784 1.02072 0.999529
0.999228 1 1 0.999228
1.00082 0.999955 1.00137 0.999489
1.00547 0.999514 1.00659 0.999366
1.01629 1 1.01728 0.999023
1.0006 1 1.00145 0.999155
1.00658 1 1.00783 0.998768
1.01322 1 1.01499 0.998262
1.00029 1 1.00145 0.998846
1.00334 1 1.005 0.998345
1.00315 1 1.0052 0.997963
1.00057 1.00076 1.00191 0.997906
0.999542 1 1.00108 0.998466
1.00009 1.00001 1.00189 0.99819
0.999618 1 1.00123 0.998394
0.999813 1 1.001 0.998816
0.999215 1 1.00048 0.998736
0.99993 1 1.00095 0.998985
1.00022 1 1.00136 0.99886
0.999579 1 1.00091 0.998672
0.999397 1 1 0.999397
0.999157 1 1.00002 0.999142
0.999287 1 1.00035 0.998939
0.999887 1 1 0.999887
0.999505 1 1 0.999505
0.999206 1 1 0.999206
0.999576 1 1 0.999576
0.999915 1 1 0.999915
1 1 1 1
0.999927 1 1 0.999927
1 1 1 1
1 1 1 1
1 1 1 1
1 1 1 1
1 1 1 1
0.999546 1 1 0.999546
0.999894 1 1 0.999894
0.999561 1 1 0.999561
1 1 1 1
0.999901 1 1 0.999901
0.99963 1 1 0.99963
1 1 1 1
1 1 1 1
0.999909 1 1 0.999909
1 1 1 1
1 1 1 1
1 1 1 1
0.986159 0.989677 0.997366 0.999076
0.976501 0.979847 0.99785 0.998733
0.976274 0.980071 0.999479 0.996645
0.999303 1 1 0.999303
0.999207 1 1 0.999207
0.999366 1 1 0.999366
0.999318 1 1 0.999318
0.999219 1 1 0.999219
0.999223 1 1 0.999223
0.999145 1 1 0.999145
0.976535 0.978724 1.00096 0.996806
0.984563 0.987239 0.999677 0.997611
0.978786 0.979089 1.00248 0.99722
0.941458 0.990889 0.955655 0.994202
0.964843 0.971418 0.998791 0.994434
0.972103 0.968794 1.01309 0.990452
0.926442 0.948688 0.98594 0.990477
0.962042 0.971206 0.996032 0.99451
0.970528 0.966228 1.01548 0.989142
0.930045 0.956466 0.981522 0.990682
0.925886 0.969791 0.96104 0.993431
0.956744 0.968989 0.991395 0.995934
0.970653 0.969602 1.01233 0.988893
0.940557 0.96609 0.981798 0.991621
0.908057 0.958036 0.955263 0.99222
0.999127 1 1 0.999127
0.999077 1 1 0.999077
0.999079 1 1 0.999079
0.999205 1 1 0.999205
0.99397 0.996737 0.997759 0.999464
1.00283 0.993174 1.01022 0.999505
0.999003 1 1 0.999003
0.999714 1 1.00074 0.998971
1.00413 1 1.00508 0.999059
0.999064 1 1 0.999064
1.00154 1 1.00244 0.999096
0.996624 0.98359 1.01392 0.999338
0.994559 0.993571 1.00134 0.999659
0.999637 1 1.00048 0.999159
1.00291 0.981076 1.02292 0.999344
1.00358 0.996516 1.00775 0.999351
0.980067 0.981666 0.999382 0.998989
0.990225 0.991607 0.999134 0.999472
0.980258 0.981733 0.999297 0.9992
1.00591 0.99653 1.00961 0.999805
0.985089 0.976347 1.00965 0.999313
0.983129 0.989123 0.994656 0.99928
0.976234 0.967597 1.02039 0.988764
0.924176 0.951244 0.981069 0.990292
0.980091 0.9807 1.00215 0.997235
0.899948 0.950867 0.954958 0.991091
1.01263 0.984604 1.02863 0.999845
0.976281 0.980018 0.997429 0.998754
0.981775 0.986582 1.00021 0.994919
0.961336 0.972256 0.990579 0.998172
0.851778 0.910042 0.945552 0.989873
0.910502 0.950463 0.966907 0.990743
0.980909 0.970725 1.02109 0.989621
0.999514 0.983923 1.01633 0.999525
0.977181 0.981553 0.998861 0.99668
0.913533 0.937191 0.982598 0.992018
0.875307 0.921122 0.95882 0.991074
0.970435 0.965351 1.01586 0.989574
0.950517 0.968056 0.986784 0.995032
1.01241 0.997981 1.01487 0.99959
1.01879 0.99731 1.02203 0.999522
1.01327 1 1.01389 0.999387
1.00549 1 1.00609 0.999405
1.01596 0.999686 1.01722 0.999076
1.00984 1 1.0114 0.998454
1.00689 1 1.0082 0.9987
1.01259 1 1.0144 0.99822
1.00675 1.00017 1.00871 0.997893
1.00417 1 1.00585 0.99833
1.00337 1 1.00546 0.997923
1.00298 1.00172 1.00349 0.997779
1.00081 1.00292 1 0.997895
0.999399 1.00055 1.00077 0.998086
1.00079 1.00076 1.00218 0.997861
0.998781 1 1.00013 0.998655
0.999244 1 1.00074 0.998503
1.00007 1.00001 1.0019 0.998164
0.999735 1 1.00088 0.998854
0.999848 1 1.00104 0.998809
0.999219 1 1.00043 0.998793
0.999243 1 1 0.999243
0.999783 1 1.00077 0.99901
1.00026 1 1.00138 0.998885
0.999808 1 1 0.999808
0.999397 1 1 0.999397
0.999151 1 1.00001 0.999143
1 1 1 1
0.999882 1 1 0.999882
0.999504 1 1 0.999504
0.999911 1 1 0.999911
1 1 1 1
1 1 1 1
1 1 1 1
1 1 1 1
1 1 1 1
0.999299 1 1 0.999299
0.999511 1 1 0.999511
0.99987 1 1 0.99987
0.999545 1 1 0.999545
1 1 1 1
0.999898 1 1 0.999898
0.999575 1 1 0.999575
1 1 1 1
1 1 1 1
0.999925 1 1 0.999925
1 1 1 1
1 1 1 1
1 1 1 1
0.976901 0.980088 0.998009 0.998736
0.984493 0.98928 0.995981 0.999177
0.97707 0.981512 0.996722 0.998747
0.999311 1 1 0.999311
0.999194 1 1 0.999194
0.999136 1 1 0.999136
0.999195 1 1 0.999195
0.999124 1 1 0.999124
0.999316 1 1 0.999316
0.999204 1 1 0.999204
0.999224 1 1 0.999224
0.99914 1 1 0.99914
0.999173 1 1 0.999173
0.975593 0.980425 1.00012 0.994954
0.979886 0.981194 1.00185 0.996821
0.982315 0.98477 0.999442 0.998063
0.922618 0.96743 0.959913 0.993506
0.930378 0.951266 0.986077 0.991852
0.953796 0.965562 0.993989 0.993788
0.977152 0.973562 1.01446 0.989383
0.958308 0.969786 0.993817 0.994313
0.983298 0.97737 1.01694 0.989309
0.928172 0.959026 0.976427 0.991194
0.907958 0.958748 0.954841 0.991814
0.976364 0.976468 1.00474 0.995178
0.97276 0.972342 1.0109 0.989642
0.900489 0.942781 0.964694 0.990097
0.872143 0.929977 0.94679 0.990516
0.999372 1 1 0.999372
0.99913 1 1 0.99913
0.999076 1 1 0.999076
0.992999 0.981565 1.0127 0.998958
0.994613 0.993704 1.00117 0.999748
0.999059 1 1 0.999059
1.00264 1 1.00356 0.999083
0.999873 1 1.00071 0.999166
1.004 0.997445 1.00723 0.999343
1.00066 0.979874 1.02186 0.99937
1.0046 1 1.00523 0.999372
1.00225 0.988068 1.01524 0.99913
0.97672 0.980765 0.999022 0.99685
0.979327 0.981249 0.998935 0.999106
0.987163 0.989311 0.998274 0.999554
1.01645 0.985738 1.03131 0.999852
0.963151 0.974786 0.992322 0.99571
0.976314 0.981072 0.996378 0.998768
0.975294 0.971986 1.01585 0.987751
0.90652 0.944715 0.969034 0.990233
0.983047 0.986703 1.0014 0.9949
0.845218 0.908958 0.940112 0.989112
0.998223 0.98276 1.01615 0.999594
0.977684 0.981966 0.99895 0.996686
0.904818 0.931173 0.97986 0.991669
0.951427 0.969629 0.985242 0.995927
0.8816 0.92591 0.961774 0.989987
0.960705 0.963134 1.00882 0.988754
0.979135 0.984049 0.996002 0.999
0.931407 0.943765 0.99354 0.993322
0.879978 0.918262 0.967863 0.990128
0.971619 0.971934 1.01038 0.989403
0.962244 0.971468 0.994382 0.996101
1.01778 0.995633 1.02274 0.999515
1.01515 0.999703 1.01609 0.999371
0.993222 1 0.994269 0.998947
1.01546 0.999407 1.01695 0.999128
1.0103 1.00029 1.0115 0.998524
1.00247 1.00158 1.00272 0.998173
1.01173 1 1.01358 0.998178
1.0055 1.00031 1.00731 0.997903
0.999484 1.00147 1.00003 0.997988
1.00344 1 1.00556 0.997883
1.00317 1.00268 1.0027 0.997793
1.00409 1.00609 1 0.998009
1.00462 1.00652 1 0.99811
1.00066 1.00269 1.00002 0.997956
1.00093 1.00303 1 0.997906
0.998493 1.00016 1 0.99833
0.999417 1.0003 1.00107 0.998045
1.00102 1.00078 1.00244 0.997816
0.998797 1 1 0.998797
0.998724 1 1.00002 0.998699
0.998857 1 1.00032 0.998539
0.999088 1 1 0.999088
0.999827 1 1.00096 0.998867
0.999895 1 1.0011 0.998801
0.999665 1 1 0.999665
0.999299 1 1.00005 0.999244
0.999653 1 1.00062 0.999035
1 1 1 1
0.999804 1 1 0.999804
0.999397 1 1 0.999397
1 1 1 1
1 1 1 1
0.999877 1 1 0.999877
1 1 1 1
1 1 1 1
1 1 1 1
0.999231 1 1 0.999231
0.999468 1 1 0.999468
0.999288 1 1 0.999288
0.999851 1 1 0.999851
0.999511 1 1 0.999511
1 1 1 1
0.999873 1 1 0.999873
0.999544 1 1 0.999544
1 1 1 1
1 1 1 1
0.999902 1 1 0.999902
1 1 1 1
1 1 1 1
1 1 1 1
0.979064 0.982974 0.998966 0.997053
0.975521 0.979322 0.997365 0.99875
0.983166 0.988759 0.995063 0.999277
0.999127 1 1 0.999127
0.999319 1 1 0.999319
0.999181 1 1 0.999181
0.999208 1 1 0.999208
0.999149 1 1 0.999149
0.999119 1 1 0.999119
0.999057 1 1 0.999057
0.999104 1 1 0.999104
0.999224 1 1 0.999224
0.999135 1 1 0.999135
0.999166 1 1 0.999166
0.999216 1 1 0.999216
0.905485 0.933993 0.978029 0.991256
0.977723 0.981921 1.0008 0.994928
0.98225 0.982654 1.00276 0.996836
0.903304 0.956531 0.95239 0.991563
0.935088 0.964792 0.978315 0.990696
0.971255 0.96917 1.01336 0.988943
0.960202 0.968749 0.995876 0.995282
0.976441 0.975795 1.00407 0.996604
0.859386 0.919955 0.943797 0.989789
0.975484 0.971098 1.01609 0.988606
0.905007 0.94777 0.963458 0.991098
0.970984 0.976975 0.99697 0.996888
0.966499 0.964359 1.01222 0.990125
0.877586 0.92395 0.958634 0.990805
1.00005 1 1.00041 0.99964
0.999374 1 1 0.999374
0.999132 1 1 0.999132
1.00152 0.981998 1.0205 0.99939
1.00515 0.99918 1.00664 0.999335
0.999865 1 1.00069 0.999174
1.00458 1 1.00521 0.999373
1.0009 0.988244 1.01365 0.999169
1.0044 0.995686 1.00939 0.999372
0.927501 0.942617 0.991387 0.992513
0.976681 0.980101 0.999158 0.997351
0.978894 0.98078 0.998853 0.999223
0.996714 0.981287 1.01606 0.999662
0.950919 0.97166 0.982007 0.996586
0.978532 0.982355 0.999412 0.996695
0.968066 0.965891 1.01192 0.990447
0.889379 0.93521 0.959856 0.990766
0.897146 0.929674 0.973336 0.991447
0.978589 0.9848 0.994637 0.999051
0.922484 0.94195 0.986285 0.992954
0.893479 0.922945 0.976796 0.99107
0.96186 0.968963 0.998183 0.994476
0.961299 0.96869 1.00252 0.989876
0.968557 0.990638 0.97836 0.999337
0.903 0.932296 0.977111 0.991266
0.963525 0.973737 0.999175 0.990329
0.97558 0.98322 0.997953 0.994265
1.01781 0.999372 1.01911 0.999356
0.989661 1 0.990637 0.999015
0.982155 1.00184 0.981634 0.99869
1.01106 1.00047 1.012 0.998595
1.00287 1.00182 1.00289 0.998167
1.00068 1.0029 0.999428 0.99836
1.00463 1.00047 1.00625 0.997913
0.999533 1.00107 1.00046 0.998003
1.00678 1.00844 1 0.998352
1.00346 1.00367 1.00199 0.997808
1.00392 1.00592 1 0.998014
1.00886 1.01051 1 0.99837
1.00911 1.01076 1 0.998369
1.00397 1.00589 1 0.998087
1.00473 1.00662 1 0.998129
1.00016 1.00201 1 0.998149
1.00075 1.00277 1 0.997988
1.00101 1.0031 1 0.997918
0.998621 1 1 0.998621
0.998861 1.00038 1.00014 0.99834
0.999604 1.00012 1.00148 0.998004
0.998984 1 1 0.998984
0.998793 1 1 0.998793
0.998744 1 1 0.998744
0.999495 1 1 0.999495
0.999139 1 1.00005 0.999091
0.999908 1 1.00103 0.998881
0.999999 1 1 0.999999
0.999662 1 1 0.999662
0.999342 1 1.0001 0.999244
1 1 1 1
1 1 1 1
0.9998 1 1 0.9998
1 1 1 1
1 1 1 1
1 1 1 1
0.99921 1 1 0.99921
0.999233 1 1 0.999233
0.99941 1 1 0.99941
0.999829 1 1 0.999829
0.999469 1 1 0.999469
0.999278 1 1 0.999278
1 1 1 1
0.999854 1 1 0.999854
0.999511 1 1 0.999511
1 1 1 1
1 1 1 1
0.999876 1 1 0.999876
1 1 1 1
1 1 1 1
1 1 1 1
0.925327 0.939148 0.992684 0.992544
0.97803 0.981935 0.998953 0.997068
0.974486 0.978937 0.996686 0.998764
0.999115 1 1 0.999115
0.999073 1 1 0.999073
0.999053 1 1 0.999053
0.99922 1 1 0.99922
0.999162 1 1 0.999162
0.999114 1 1 0.999114
0.999102 1 1 0.999102
0.999055 1 1 0.999055
0.998984 1 1 0.998984
0.999196 1 1 0.999196
0.99916 1 1 0.99916
0.999214 1 1 0.999214
0.891235 0.921672 0.975806 0.990951
0.902242 0.929849 0.979136 0.990986
0.980341 0.98387 1.00152 0.994905
0.845914 0.9084 0.941512 0.989061
0.904024 0.944853 0.966389 0.990065
0.980195 0.976051 1.01356 0.990808
0.978288 0.973576 1.00989 0.994997
0.9674 0.973404 0.998414 0.995411
0.878154 0.919419 0.964923 0.989839
0.960836 0.962127 1.00853 0.990214
0.968028 0.974237 0.997783 0.995834
0.962789 0.971158 1.00171 0.989693
1.00737 1 1.00819 0.999185
0.999872 1 1.00027 0.999606
0.999375 1 1 0.999375
0.996585 0.985478 1.01207 0.999207
1.00478 1 1.00541 0.999375
1.00522 0.996791 1.00918 0.99928
0.998909 1.00067 0.999572 0.998667
0.899739 0.937797 0.968057 0.991076
0.931605 0.943266 0.994534 0.993067
0.977133 0.980001 0.999224 0.997848
0.977065 0.985432 0.992383 0.999119
0.961383 0.96859 0.997133 0.995413
0.922926 0.942798 0.985826 0.992997
0.963215 0.967694 1.00595 0.989479
0.895462 0.928435 0.973944 0.990288
0.971973 0.991226 0.981516 0.999043
0.905138 0.935264 0.976871 0.990703
0.966262 0.975323 1.00107 0.989649
0.978612 0.981424 1.00151 0.99563
0.985902 0.998007 0.988734 0.999127
0.959483 0.976804 0.992812 0.98938
0.984211 0.990646 0.997038 0.996456
0.986041 1 0.986946 0.999083
0.982899 1.00211 0.982134 0.99867
0.983269 1.00476 0.979979 0.998601
1.00303 1.00217 1.00271 0.998161
1.00027 1.00327 0.998648 0.998355
1.00731 1.0114 0.997227 0.998725
0.999353 1.00062 1.00072 0.998017
1.00674 1.00841 1 0.998348
1.01354 1.0149 1 0.998666
1.0037 1.00569 1 0.998019
1.00833 1.00998 1 0.99837
1.01099 1.01241 1 0.998592
1.00911 1.01061 1 0.998514
1.00895 1.01057 1 0.998399
1.0072 1.0089 1 0.99831
1.00335 1.00518 1 0.998176
1.00435 1.00627 1 0.99809
1.00486 1.00672 1 0.998148
0.998948 1.00057 1 0.998378
1.00046 1.00229 1 0.99818
1.00081 1.0028 1 0.99802
0.998861 1 1 0.998861
0.998643 1.00003 1 0.998615
0.999072 1.00055 1.00017 0.99835
0.999365 1 1 0.999365
0.998984 1 1 0.998984
0.998789 1 1 0.998789
0.999981 1 1 0.999981
0.999494 1 1 0.999494
0.999203 1 1.00011 0.999093
1 1 1 1
0.999995 1 1 0.999995
0.999659 1 1 0.999659
1 1 1 1
1 1 1 1
1 1 1 1
0.999142 1 1 0.999142
0.999198 1 1 0.999198
0.999346 1 1 0.999346
0.999235 1 1 0.999235
0.99941 1 1 0.99941
0.999786 1 1 0.999786
1 1 1 1
0.999831 1 1 0.999831
0.999469 1 1 0.999469
1 1 1 1
1 1 1 1
0.999856 1 1 0.999856
1 1 1 1
1 1 1 1
1 1 1 1
0.910231 0.934775 0.982877 0.990707
0.9252 0.941079 0.990821 0.992234
0.976272 0.980139 0.998971 0.997082
0.999103 1 1 0.999103
0.999033 1 1 0.999033
0.999094 1 1 0.999094
0.998967 1 1 0.998967
0.998998 1 1 0.998998
0.9991 1 1 0.9991
0.999053 1 1 0.999053
0.998996 1 1 0.998996
0.998912 1 1 0.998912
0.999042 1 1 0.999042
0.998975 1.00018 1.00026 0.998536
0.999305 1 1.00008 0.999226
0.999212 1 1 0.999212
0.962467 0.978181 0.994828 0.98905
0.89514 0.922346 0.979639 0.990674
0.903887 0.932642 0.978115 0.990853
0.878055 0.919308 0.964199 0.99059
0.967307 0.964703 1.01446 0.988408
0.969509 0.971943 1.0005 0.997002
0.970629 0.976368 0.997384 0.99673
0.964721 0.972713 1.00148 0.990315
0.982594 0.994223 0.992537 0.995734
1.00324 1.00132 1.0035 0.998419
1.00582 1 1.00666 0.999167
0.999571 1 1 0.999571
1.00575 0.998524 1.00804 0.999199
0.999182 1.00101 0.99957 0.998601
0.949012 0.973805 0.984127 0.990259
0.906343 0.937667 0.975718 0.990649
0.936253 0.943946 0.998213 0.993626
0.975328 0.992018 0.984416 0.99874
0.973941 0.976625 1.00295 0.994323
0.905769 0.933749 0.979384 0.990454
0.968244 0.974817 1.00303 0.99026
0.984327 0.99871 0.98647 0.999117
0.960705 0.97742 0.992307 0.990519
0.985638 0.992239 0.998309 0.99503
1.0008 1.00558 0.99659 0.998645
0.991298 0.996936 0.996763 0.997575
0.983487 1.00253 0.982333 0.998652
0.985445 1.00429 0.982658 0.998557
1.00326 1.01917 0.985723 0.998649
1.00004 1.00358 0.998123 0.99835
1.00612 1.01025 0.997193 0.998716
1.01357 1.01856 0.996277 0.99882
1.00666 1.00834 1 0.998343
1.01365 1.01514 0.999881 0.998652
1.01381 1.01518 0.999944 0.99871
1.00788 1.00953 1 0.99837
1.01107 1.01251 1 0.998579
1.00938 1.01082 1 0.998578
1.00945 1.01092 1 0.998546
1.0079 1.0095 1 0.998409
1.00883 1.01042 1 0.998428
1.00707 1.00878 1 0.998305
1.00428 1.00602 1 0.998269
1.00002 1.00173 1 0.998295
1.00318 1.00502 1 0.998169
1.00466 1.00658 1 0.998093
0.998693 1 1 0.998693
0.999037 1.00064 1 0.998398
1.00083 1.00262 1 0.998212
0.999262 1 1 0.999262
0.998857 1 1 0.998857
0.998694 1.00008 1 0.998609
0.999934 1 1 0.999934
0.999366 1 1 0.999366
0.998984 1 1 0.998984
1 1 1 1
0.999969 1 1 0.999969
0.999494 1 1 0.999494
1 1 1 1
0.999991 1 1 0.999991
1 1 1 1
0.998998 1 1 0.998998
0.999142 1 1 0.999142
0.999242 1 1 0.999242
0.999185 1 1 0.999185
0.999328 1 1 0.999328
0.999699 1 1 0.999699
0.99941 1 1 0.99941
0.999788 1 1 0.999788
1 1 1 1
1 1 1 1
1 1 1 1
0.999833 1 1 0.999833
1 1 1 1
1 1 1 1
1 1 1 1
0.96262 0.978232 0.993453 0.990525
0.904046 0.937072 0.973347 0.991174
0.932428 0.94512 0.994247 0.99228
0.999013 1 1 0.999013
0.999115 1 1 0.999115
0.999007 1 1 0.999007
0.998974 1 1 0.998974
0.998817 1 1.00002 0.998795
0.998962 1 1 0.998962
0.999008 1 1 0.999008
0.998859 1 1 0.998859
0.999099 1 1.00009 0.999012
0.998766 1 1 0.998766
1.00074 1.00213 1 0.998618
0.9991 1.00106 0.999971 0.99807
0.999331 1.00068 1.00006 0.998599
0.99943 1 1.00017 0.999256
0.980534 0.991686 0.992819 0.995906
0.962877 0.9771 0.995464 0.989933
0.889766 0.923327 0.973122 0.990269
0.973269 0.975995 1.00782 0.989473
0.969007 0.977681 0.993648 0.997465
0.987191 0.995624 0.994194 0.99732
0.995028 1.00432 0.992147 0.998587
1.0007 1.00067 1.00152 0.998511
1.00477 1 1.00563 0.999148
0.997575 1.00112 0.997932 0.998524
0.977848 0.985995 0.995946 0.995775
0.9558 0.973937 0.990282 0.991008
0.901565 0.935109 0.97248 0.991412
0.984811 1.00024 0.985462 0.999104
0.991552 0.993368 1.00207 0.996111
0.961703 0.978098 0.991474 0.991693
0.994814 1.00453 0.991666 0.998654
0.989263 0.996265 0.995933 0.997026
1.0089 1.02089 0.989823 0.998414
1.0076 1.01456 0.994793 0.998344
0.98754 1.00369 0.985377 0.998512
1.00471 1.01922 0.987105 0.998641
1.01041 1.02218 0.98982 0.998649
1.00503 1.00935 0.997009 0.998708
1.01353 1.01814 0.996654 0.998809
1.01237 1.01614 0.99766 0.998631
1.01385 1.01547 0.999762 0.998638
1.0134 1.01487 0.999855 0.998697
1.01079 1.01236 0.99995 0.998504
1.01109 1.01254 1 0.998567
1.00901 1.01044 1 0.998582
1.00872 1.01035 1 0.998387
1.00975 1.01119 1 0.998577
1.00761 1.00919 1 0.998431
1.00466 1.00637 1 0.998299
1.00697 1.00868 1 0.998299
1.0042 1.00594 1 0.998263
1.00037 1.00204 1 0.998335
0.99854 1 1 0.99854
1 1.00169 1 0.998314
1.00302 1.00487 1 0.998163
0.99913 1 1 0.99913
0.998693 1 1 0.998693
0.999111 1.00069 1 0.998419
0.999865 1 1 0.999865
0.99926 1 1 0.99926
0.998853 1 1 0.998853
1 1 1 1
0.999921 1 1 0.999921
0.999368 1 1 0.999368
1 1 1 1
0.999958 1 1 0.999958
1 1 1 1
0.998841 1 1 0.998841
0.999009 1 1 0.999009
0.999132 1 1 0.999132
0.999143 1 1 0.999143
0.999229 1 1 0.999229
0.999579 1 1 0.999579
0.999311 1 1 0.999311
0.999701 1 1 0.999701
0.999998 1 1 0.999998
0.999789 1 1 0.999789
1 1 1 1
1 1 1 1
1 1 1 1
1 1 1 1
1 1 1 1
0.974838 0.986272 0.992288 0.996089
0.957037 0.976213 0.990159 0.990101
0.900204 0.934769 0.972293 0.990466
0.999364 1.00072 1.00007 0.998579
0.999017 1 1 0.999017
0.998981 1 1 0.998981
0.99895 1 1 0.99895
0.998908 1 1.00012 0.998785
0.998981 1.00005 1 0.998935
0.998807 1 1 0.998807
0.99914 1 1.00016 0.998982
0.998807 1 1 0.998807
1.00005 1.00144 1 0.998616
1.00108 1.00293 1 0.998156
1.00365 1.0058 0.999965 0.9979
1.00002 1.00186 1.00013 0.998036
0.999956 1.0013 1 0.998662
0.999846 1.0062 0.994706 0.998977
0.981303 0.993008 0.992929 0.99525
0.965854 0.977943 0.996614 0.990994
0.984129 0.993333 0.994629 0.996084
0.999602 1.00627 0.994599 0.99877
1.00022 1.0002 1.00142 0.998604
1.00297 1.00668 0.997813 0.998498
0.977193 0.984431 0.995793 0.996841
0.952961 0.975003 0.986944 0.990322
0.988135 1.0028 0.986696 0.998661
0.989044 0.996212 0.996398 0.996394
1.00834 1.02147 0.988709 0.998421
1.00709 1.0127 0.996013 0.998441
1.01541 1.02548 0.991773 0.99839
1.01449 1.01825 0.997968 0.998334
1.00627 1.01919 0.98868 0.998634
1.01214 1.02316 0.99056 0.998657
1.00735 1.01506 0.9939 0.998499
1.01339 1.01754 0.997122 0.998798
1.0136 1.01695 0.998073 0.998629
1.0109 1.01317 0.999386 0.998381
1.01303 1.0146 0.999773 0.998684
1.01089 1.01241 0.999978 0.998521
1.01015 1.0119 1 0.998271
1.00866 1.01009 1 0.998586
1.0083 1.00993 1 0.998387
1.00651 1.00827 1 0.998246
1.00733 1.00889 1 0.998453
1.00477 1.00647 1 0.998308
1.00046 1.00217 1 0.998293
1.0041 1.00586 1 0.998257
1.00036 1.00205 1 0.998319
0.99851 1 1 0.998506
0.999009 1 1 0.999009
0.998562 1 1 0.998562
0.999976 1.00165 1 0.998333
0.999781 1 1 0.999781
0.999129 1 1 0.999129
0.998692 1 1 0.998692
1 1 1 1
0.999854 1 1 0.999854
0.999259 1 1 0.999259
1 1 1 1
0.999908 1 1 0.999908
1 1 1 1
0.998623 1 1 0.998623
0.998844 1 1 0.998844
0.999007 1 1 0.999007
0.999021 1 1 0.999021
0.999139 1 1 0.999139
0.999462 1 1 0.999462
0.999216 1 1 0.999216
0.999579 1 1 0.999579
0.999985 1 1 0.999985
0.999702 1 1 0.999702
0.999999 1 1 0.999999
1 1 1 1
1 1 1 1
1 1 1 1
1 1 1 1
1.00513 1.01029 0.995905 0.998985
0.974455 0.986958 0.992494 0.994799
0.961064 0.97478 0.995181 0.990703
1.00024 1.00156 1.00001 0.99867
1.00194 1.00364 1 0.998306
0.999092 1.00035 1.00013 0.998609
0.998939 1 1 0.998939
0.999019 1 1.00024 0.998774
0.999129 1.00023 1 0.998894
1.00218 1.00389 1 0.998291
0.998848 1 1 0.998848
0.999191 1.00058 1 0.998613
1.00119 1.003 1 0.998197
1.00581 1.00799 1 0.997834
1.01163 1.01453 0.998919 0.998219
1.00284 1.0051 0.999856 0.997894
1.00059 1.00259 1 0.998003
1.00305 1.00891 0.995137 0.999046
0.979996 0.992138 0.99327 0.994454
1.00165 1.00765 0.995089 0.998955
1.01385 1.01652 0.998588 0.998782
1.00199 1.00539 0.99805 0.99856
0.974687 0.984809 0.994258 0.995438
1.00772 1.02217 0.987412 0.998428
1.006 1.01088 0.996633 0.99854
1.01409 1.02552 0.990401 0.998433
1.01668 1.01997 0.998421 0.99835
1.01118 1.01828 0.994645 0.998376
1.02097 1.02364 0.998911 0.998474
1.0135 1.02426 0.990815 0.998665
1.00737 1.01479 0.994176 0.998504
1.01295 1.01715 0.997578 0.998292
1.01476 1.01772 0.99846 0.998627
1.01105 1.01312 0.999579 0.998381
1.01228 1.01411 1 0.998191
1.01094 1.01242 0.999999 0.998538
1.00986 1.01161 1 0.99827
1.0094 1.01127 1 0.998145
1.00787 1.0095 1 0.998388
1.00656 1.00833 1 0.998246
1.00129 1.00307 1 0.998225
1.00488 1.00657 1 0.998317
1.0006 1.00231 1 0.998294
0.998478 1.00003 1 0.99845
1.00035 1.00205 1 0.998303
0.998499 1 1 0.998496
0.99893 1 1 0.99893
0.99971 1 1 0.99971
0.999009 1 1 0.999009
0.998584 1 1 0.998584
1 1 1 1
0.999771 1 1 0.999771
0.999128 1 1 0.999128
1 1 1 1
0.999843 1 1 0.999843
1 1 1 1
0.998838 1.00046 1 0.998377
0.998598 1 1 0.998598
0.998815 1 1 0.998815
0.998847 1 1 0.998847
0.99901 1 1 0.99901
0.999349 1 1 0.999349
0.999146 1 1 0.999146
0.999461 1 1 0.999461
0.999948 1 1 0.999948
0.999579 1 1 0.999579
0.999989 1 1 0.999989
1 1 1 1
1 1 1 1
1 1 1 1
1 1 1 1
1.01243 1.0164 0.9975 0.998594
1.00334 1.00938 0.995211 0.9988
0.973376 0.986089 0.991487 0.995582
1.00506 1.00679 1 0.998285
0.999623 1.0008 1 0.998825
1.00833 1.01021 1 0.998133
1.00176 1.00347 1 0.998291
0.998821 1 1.00018 0.998641
1.01147 1.01358 1 0.997919
0.999269 1.00042 1 0.998853
1.00226 1.00402 1 0.998243
1.01544 1.01749 1 0.997989
1.00126 1.00302 1 0.998238
1.00638 1.00859 1 0.99781
1.01039 1.01301 0.999185 0.998225
1.00165 1.00377 1 0.997885
1.00563 1.01092 0.995643 0.999119
1.02111 1.02286 0.999728 0.998563
1.01363 1.01639 0.998505 0.998781
1.0013 1.00409 0.998595 0.998619
1.01291 1.02562 0.989111 0.998476
1.01831 1.02129 0.998716 0.998365
1.01165 1.01882 0.99456 0.998387
1.02163 1.02465 0.998566 0.998482
1.02095 1.02399 0.998649 0.998375
1.00743 1.01444 0.994576 0.998508
1.01313 1.01683 0.998066 0.998298
1.01547 1.01785 0.999486 0.998173
1.01121 1.0131 0.999749 0.998382
1.01175 1.0136 1 0.998178
1.01203 1.014 1 0.998059
1.00958 1.01134 1 0.998269
1.00921 1.01109 1 0.998144
1.00316 1.00504 1 0.99813
1.00661 1.00838 1 0.998246
1.00157 1.00335 1 0.998225
0.99852 1.00016 1 0.998364
1.00074 1.00245 1 0.998296
0.998493 1.00004 1 0.998452
0.99886 1 1 0.99886
0.998487 1 1 0.998487
0.998929 1 1 0.998929
0.999707 1 1 0.999707
0.999936 1 1 0.999936
0.999718 1 1 0.999718
0.999008 1 1 0.999008
1 1 1 1
0.999761 1 1 0.999761
1 1 1 1
1.0104 1.01225 1 0.998176
1.00128 1.003 1 0.998279
0.998582 1.00023 1 0.998355
0.998643 1 1 0.998643
0.998574 1 1 0.998574
0.99882 1 1 0.99882
0.999225 1 1 0.999225
0.999014 1 1 0.999014
0.99935 1 1 0.99935
0.999889 1 1 0.999889
0.999461 1 1 0.999461
0.99996 1 1 0.99996
1 1 1 1
0.999994 1 1 0.999994
1 1 1 1
1 1 1 1
1.02068 1.02246 0.99992 0.998336
1.0163 1.01987 0.997824 0.998672
1.00303 1.00962 0.994856 0.998614
1.01335 1.01539 1 0.997995
1.00416 1.0058 1 0.998364
0.998978 1 1 0.998978
1.00877 1.01063 1 0.998157
1.00157 1.0033 1 0.998276
1.0186 1.02068 1 0.997963
1.01084 1.01299 1 0.997886
1.00249 1.0043 1 0.998194
1.0155 1.01756 1 0.997982
1.00792 1.01016 1 0.997786
1.01129 1.01383 0.999259 0.998233
1.02336 1.02521 0.999741 0.99846
1.02213 1.02379 0.999811 0.998563
1.01409 1.01656 0.998791 0.998781
1.01245 1.01969 0.99449 0.998398
1.02263 1.02586 0.99836 0.99849
1.02089 1.02454 0.998042 0.998391
1.02051 1.02233 1 0.998218
1.01338 1.01652 0.998601 0.998304
1.01544 1.01755 0.999761 0.998167
1.01452 1.01651 1 0.99804
1.01122 1.01308 1 0.998166
1.01207 1.01404 1 0.998059
1.00582 1.00779 1 0.998047
1.00903 1.01091 1 0.998142
1.00343 1.00531 1 0.998129
0.998842 1.00057 1 0.998269
1.00185 1.00363 1 0.998225
0.998611 1.00025 1 0.998364
0.998772 1 1 0.998772
0.998507 1.00005 1 0.998453
0.998858 1 1 0.998858
0.999696 1 1 0.999696
0.998928 1 1 0.998928
0.999703 1 1 0.999703
0.999936 1 1 0.999936
0.999968 1 1 0.999968
0.999726 1 1 0.999726
1 1 1 1
1.01305 1.01507 1 0.998011
1.00241 1.00414 1 0.998282
1.00998 1.01174 1 0.998265
0.998595 1.00009 1 0.998504
1.00164 1.00337 1 0.998276
0.998334 1 1 0.998334
0.998643 1 1 0.998643
0.999085 1 1 0.999085
0.998824 1 1 0.998824
0.999227 1 1 0.999227
0.999815 1 1 0.999815
0.999352 1 1 0.999352
0.999904 1 1 0.999904
1 1 1 1
0.999972 1 1 0.999972
1 1 1 1
1 1 1 1
1.02095 1.02278 1 0.998213
1.01972 1.02154 0.999886 0.998334
1.01814 1.02148 0.997973 0.998747
1.01779 1.01988 1 0.997951
1.01287 1.0149 1 0.997999
1.00325 1.00481 1 0.998444
1.00918 1.01102 1 0.998181
1.01829 1.02038 1 0.997952
1.00999 1.01216 1 0.997853
1.01358 1.01564 1 0.997975
1.0221 1.02386 1 0.998282
1.023 1.02487 0.999751 0.998424
1.02299 1.02466 0.999803 0.998563
1.01952 1.02141 1 0.998147
1.02072 1.02505 0.997368 0.998406
1.0203 1.02229 0.999832 0.998217
1.01659 1.01854 1 0.998089
1.01541 1.01728 1 0.998162
1.01466 1.01665 1 0.998042
1.00857 1.01059 1 0.997999
1.0121 1.01407 1 0.998059
1.00587 1.00783 1 0.998048
0.999648 1.00146 1 0.998186
1.00368 1.00556 1 0.998129
0.999068 1.0008 1 0.998268
0.998683 1 1 0.998683
0.998701 1.00034 1 0.998364
0.99877 1 1 0.99877
0.999678 1 1 0.999678
0.998856 1 1 0.998856
0.999691 1 1 0.999691
0.999937 1 1 0.999937
0.999699 1 1 0.999699
0.999937 1 1 0.999937
1 1 1 1
1.01386 1.01598 1 0.997913
1.00523 1.00715 1 0.998091
1.01332 1.01531 1 0.998039
0.998678 1.00022 1 0.998455
1.00235 1.00408 1 0.998279
1.00959 1.01125 1 0.998353
0.998933 1 1 0.998933
0.998609 1.00011 1 0.998501
1.00202 1.00375 1 0.998273
0.998643 1 1 0.998643
0.999087 1 1 0.999087
0.999735 1 1 0.999735
0.999229 1 1 0.999229
0.999826 1 1 0.999826
1 1 1 1
0.999919 1 1 0.999919
1 1 1 1
1 1 1 1
1.01998 1.02192 1 0.99811
1.02126 1.02311 1 0.998197
1.0201 1.02191 0.999889 0.998331
1.01735 1.01944 1 0.997953
1.01242 1.01445 1 0.998003
1.01832 1.02043 1 0.997941
1.01911 1.02101 1 0.998148
1.02201 1.02377 1 0.998275
1.02241 1.0243 0.999761 0.998389
1.0197 1.02158 1 0.998157
1.01645 1.01843 1 0.998058
1.02004 1.02218 0.999691 0.998215
1.01646 1.01842 1 0.998073
1.01055 1.01257 1 0.998008
1.01477 1.01676 1 0.998044
1.00836 1.01038 1 0.998002
1.00094 1.00283 1 0.998116
1.00596 1.00792 1 0.998048
1.00004 1.00186 1 0.998186
0.998612 1 1 0.998612
0.999302 1.00104 1 0.998268
0.998681 1 1 0.998681
0.999646 1 1 0.999646
0.998768 1 1 0.998768
0.99967 1 1 0.99967
0.99993 1 1 0.99993
0.999687 1 1 0.999687
0.999941 1 1 0.999941
0.999937 1 1 0.999937
1.01581 1.01781 1 0.998035
1.00738 1.00944 1 0.997957
1.01412 1.01624 1 0.997915
0.999554 1.00126 1 0.998294
1.00502 1.00693 1 0.998101
1.01352 1.01548 1 0.998067
0.998812 1 1 0.998812
0.998592 1.00018 1 0.998416
1.00228 1.00401 1 0.998276
0.999667 1 1 0.999667
0.998935 1 1 0.998935
0.998618 1.00012 1 0.998497
0.999088 1 1 0.999088
0.999744 1 1 0.999744
1 1 1 1
0.999838 1 1 0.999838
1 1 1 1
1 1 1 1
1.01757 1.01952 1 0.99808
1.01968 1.02162 1 0.998108
1.0214 1.02326 1 0.99818
1.01691 1.019 1 0.997956
1.01701 1.01902 1 0.998028
1.01958 1.02146 1 0.998155
1.02195 1.02372 1 0.998268
1.01988 1.02175 1 0.998168
1.01637 1.01834 1 0.998063
1.0104 1.01242 1 0.998013
1.01638 1.01836 1 0.998058
1.01031 1.01233 1 0.998006
1.00231 1.00425 1 0.998068
1.00814 1.01015 1 0.998005
1.00139 1.00328 1 0.998118
0.998547 1 1 0.998547
1.00041 1.00223 1 0.998186
0.998612 1 1 0.998612
0.99957 1 1 0.99957
0.99868 1 1 0.99868
0.999622 1 1 0.999622
1 1 1 1
0.999663 1 1 0.999663
0.999935 1 1 0.999935
0.999942 1 1 0.999942
1.01526 1.01723 1 0.998067
1.00856 1.01059 1 0.997995
1.01558 1.01758 1 0.998035
1.0011 1.00299 1 0.998121
1.00739 1.00943 1 0.997976
1.01444 1.01656 1 0.997917
0.998641 1 1 0.998641
0.999559 1.00127 1 0.998292
1.00485 1.00675 1 0.998112
0.999624 1 1 0.999624
0.998778 1 1 0.998778
0.998509 1.00013 1 0.998377
1 1 1 1
0.999677 1 1 0.999677
0.998937 1 1 0.998937
0.999754 1 1 0.999754
1 1 1 1
1 1 1 1
1.01657 1.01857 1 0.998034
1.01802 1.01997 1 0.998089
1.01937 1.02131 1 0.998107
1.01117 1.01323 1 0.997967
1.01634 1.01835 1 0.99803
1.02004 1.02192 1 0.998162
1.01628 1.01825 1 0.998069
1.01047 1.01248 1 0.998014
1.0027 1.00461 1 0.998097
1.01005 1.01207 1 0.998004
1.00254 1.00445 1 0.998099
0.998423 1 1 0.998423
1.00185 1.00374 1 0.998119
0.998547 1 1 0.998547
0.999523 1 1 0.999523
0.998611 1 1 0.998611
0.999568 1 1 0.999568
1 1 1 1
0.999593 1 1 0.999593
0.999961 1 1 0.999961
0.99994 1 1 0.99994
1.01361 1.01558 1 0.998052
1.00898 1.01097 1 0.998033
1.0152 1.01716 1 0.998068
1.00177 1.00365 1 0.998127
1.00888 1.01091 1 0.997994
1.01535 1.01735 1 0.998035
0.998542 1 1 0.998542
1.00102 1.00286 1 0.998163
1.00738 1.0094 1 0.997996
0.999596 1 1 0.999596
0.998628 1 1 0.998628
0.999562 1.00127 1 0.99829
1 1 1 1
0.999633 1 1 0.999633
0.998744 1 1 0.998744
1 1 1 1
0.999687 1 1 0.999687
1 1 1 1
1.01136 1.0134 1 0.997996
1.0161 1.01811 1 0.998032
1.01851 1.02045 1 0.998097
1.00224 1.00417 1 0.998072
1.0112 1.01325 1 0.997976
1.01574 1.01774 1 0.998032
1.01055 1.01256 1 0.998014
1.00272 1.00464 1 0.998097
0.998374 1 1 0.998374
1.00277 1.00465 1 0.99813
0.998455 1 1 0.998455
0.999459 1 1 0.999459
0.998547 1 1 0.998547
0.99952 1 1 0.99952
1 1 1 1
0.999565 1 1 0.999565
1 1 1 1
0.999931 1 1 0.999931
1.00905 1.01102 1 0.998049
1.01377 1.01574 1 0.998055
1.00138 1.00326 1 0.998129
1.00886 1.01084 1 0.998032
1.01513 1.01709 1 0.998068
0.998552 1 1 0.998552
1.0017 1.00358 1 0.998125
1.00919 1.01122 1 0.997992
0.999563 1 1 0.999563
0.998566 1 1 0.998566
1.00093 1.00273 1 0.998204
1 1 1 1
0.999601 1 1 0.999601
0.998615 1 1 0.998615
1 1 1 1
0.999641 1 1 0.999641
1 1 1 1
1.00195 1.00386 1 0.998104
1.01127 1.0133 1 0.997995
1.01555 1.01756 1 0.998029
0.998362 1 1 0.998362
1.00226 1.00419 1 0.998072
1.01118 1.01322 1 0.997985
1.00274 1.00466 1 0.998097
0.998378 1 1 0.998378
0.999405 1 1 0.999405
0.998486 1 1 0.998486
0.999455 1 1 0.999455
1 1 1 1
0.999517 1 1 0.999517
1 1 1 1
1 1 1 1
1.00117 1.00305 1 0.998118
1.00876 1.01073 1 0.998048
1.01393 1.0159 1 0.998058
0.998525 1 1 0.998525
1.00159 1.00346 1 0.998127
1.00871 1.0107 1 0.998032
0.999525 1 1 0.999525
0.998551 1 1 0.998551
1.00164 1.00353 1 0.998122
1 1 1 1
0.999566 1 1 0.999566
0.99859 1 1 0.99859
1 1 1 1
0.999606 1 1 0.999606
1 1 1 1
0.998436 1 1 0.998436
1.00194 1.00387 1 0.998072
1.01122 1.01325 1 0.997994
0.999392 1 1 0.999392
0.998362 1 1 0.998362
1.00228 1.00421 1 0.998072
0.998382 1 1 0.998382
0.999404 1 1 0.999404
1 1 1 1
0.999452 1 1 0.999452
1 1 1 1
1 1 1 1
0.998484 1 1 0.998484
1.00122 1.00312 1 0.998108
1.00849 1.01046 1 0.998047
0.999551 1 1 0.999551
0.998523 1 1 0.998523
1.00179 1.00367 1 0.998125
1 1 1 1
0.999526 1 1 0.999526
0.998549 1 1 0.998549
1 1 1 1
0.99957 1 1 0.99957
1 1 1 1
0.999392 1 1 0.999392
0.99841 1 1 0.99841
1.00192 1.00389 1 0.99804
1 1 1 1
0.999391 1 1 0.999391
0.998362 1 1 0.998362
0.999402 1 1 0.999402
1 1 1 1
1 1 1 1
0.999503 1 1 0.999503
0.998484 1 1 0.998484
1.00127 1.00318 1 0.998098
1 1 1 1
0.999487 1 1 0.999487
0.998522 1 1 0.998522
1 1 1 1
0.999528 1 1 0.999528
1 1 1 1
0.99985 1 1 0.99985
0.999444 1 1 0.999444
0.998385 1 1 0.998385
1 1 1 1
0.999391 1 1 0.999391
1 1 1 1
0.999868 1 1 0.999868
0.999476 1 1 0.999476
0.998484 1 1 0.998484
0.999939 1 1 0.999939
0.999485 1 1 0.999485
1 1 1 1
1 1 1 1
0.999408 1 1 0.999408
1 1 1 1
0.99993 1 1 0.99993
0.999443 1 1 0.999443
1 1 1 1
1 1 1 1
1 1 1 1

VECTORS lamdaE float
0.999775 1.00018 0.995604
0.999689 1.00015 0.998011
0.999547 1.00037 0.995731
1.00004 0.999922 0.995481
0.999845 1.00001 0.995693
0.999749 1.00026 0.995475
1.00094 1.00052 0.992965
0.999659 1.00002 0.998069
0.999641 1.00024 0.998157
0.999345 1.00056 0.9982
0.999668 0.999783 0.996167
1.00062 1.00114 0.992454
1.00005 1.00002 0.995297
0.999778 0.999957 0.995597
0.999341 1.00059 0.995832
0.999863 0.9999 0.995655
0.999521 1.00053 0.995599
0.999647 1.00009 0.995835
1.00108 1.00037 0.992907
1.00002 1 0.997821
1.00008 0.999978 0.995338
0.999967 0.999903 0.995622
1.00132 0.999956 0.992846
1.0011 1.00014 0.993041
0.999649 0.999992 0.995781
1.00071 1.00104 0.9928
1.00335 1.00036 0.988986
0.999606 0.999917 0.998145
0.99976 1.00011 0.996839
0.999513 1.00041 0.996871
0.99961 0.999591 0.998269
1.00051 1.00125 0.992469
0.999997 0.999846 0.99549
0.999765 1.00038 0.99551
1.00141 1.00016 0.99319
0.999388 0.998975 0.99872
1.00103 1.00083 0.993258
1.00031 1.0011 0.993038
1.00207 1.00219 0.988822
0.999475 0.998189 0.998982
1.00005 1.00001 0.997784
0.999907 0.999985 0.996708
1.00004 1 0.997783
0.999762 1.00002 0.995598
1.00157 1.00006 0.991784
0.999803 0.999953 0.998097
1.00162 1.00008 0.992935
0.999685 0.999844 0.99583
0.999462 1.00017 0.995963
0.999283 1.00086 0.995715
1.0012 1.00021 0.992861
0.999929 1.00001 0.996682
0.999896 0.999972 0.995525
0.999469 1.00021 0.9959
0.999789 0.999904 0.995781
1.0014 0.999915 0.992779
1.00083 1.00093 0.992755
1.00121 1.00005 0.992987
1.00334 1.00038 0.98899
1.00001 1 0.997811
1.00009 1.00001 0.995294
1.00142 1.00001 0.993231
1.00137 1 0.992705
1.00125 0.999956 0.992966
1.00371 0.999899 0.988746
1.00351 0.999979 0.988767
0.999622 0.999297 0.996436
1.00002 1.00145 0.99339
1.00289 1.00119 0.98895
1.00449 0.999937 0.986692
0.9999 1.00014 0.997923
0.999549 0.999372 0.998421
0.999665 1.00024 0.997988
1.00042 1.00132 0.992488
1.00001 0.999973 0.997903
0.999809 1.0003 0.997935
1.00132 1.00012 0.992077
0.999461 0.999052 0.997754
1.00084 1.00092 0.992172
1.00018 1.00115 0.993679
1.00209 1.00214 0.988817
0.999539 0.998554 0.998771
0.999618 0.999664 0.995702
1.00151 0.999938 0.991995
1.00122 1.00042 0.992063
1.0037 1.00016 0.987857
0.999938 1.00072 0.995004
1.00286 1.0012 0.98837
1.0012 1.00304 0.989597
1.00301 1.00237 0.986844
0.999471 0.997858 0.99912
0.999431 0.998122 0.999041
1.00005 0.999968 0.997842
1.00005 1 0.997794
1.00006 1 0.997782
0.999901 1 0.9967
1.00159 1.00004 0.992395
0.999911 0.999954 0.996757
1.00157 1.00009 0.992392
1.00005 0.999999 0.997786
1.00152 0.999991 0.991888
1.00162 1.0001 0.992931
1.00394 0.999817 0.987796
1.00157 0.999982 0.993076
1.00391 0.999966 0.987717
1.00002 1.00001 0.995367
0.999706 0.999957 0.995716
0.999263 1.00045 0.996052
0.999613 0.999888 0.995936
1.00148 0.999908 0.992712
1.00131 0.999953 0.992939
1.00095 1.00077 0.992714
1.00332 1.0004 0.988994
1.00004 1 0.997796
0.999896 1.00001 0.995484
1.00151 0.999988 0.99223
1.00145 0.999984 0.992631
0.999508 0.999449 0.997411
1.00026 1.00134 0.993528
1.00133 0.999905 0.992906
1.00372 0.999883 0.988613
1.00288 1.00126 0.988931
1.00351 1.00005 0.988866
1.00447 0.999962 0.986702
1.0015 1 0.991931
1.0014 0.999999 0.992648
1.00386 0.999744 0.988358
1.00376 0.999867 0.988424
1.00366 0.999837 0.988621
1.00482 0.99958 0.986752
0.999543 0.998868 0.998647
1.00459 0.999759 0.986692
0.999815 1.00123 0.993647
1.00166 1.00241 0.989202
1.00413 1.00083 0.986523
1.00501 0.999628 0.986003
0.999778 1.00039 0.994606
1.0002 1.00273 0.991587
0.999994 1.00001 0.997912
0.999757 1.00027 0.997942
1.00133 1.0001 0.992081
0.999499 0.998837 0.998697
0.999995 1.00133 0.993229
1.00078 1.00097 0.992184
1.0021 1.0021 0.988812
0.99948 0.99849 0.998852
0.999622 0.999583 0.995744
1.00151 0.999971 0.992578
1.0012 1.00044 0.992642
1.00371 1.00016 0.987858
0.999826 1.00074 0.994247
1.00286 1.00118 0.988377
1.00116 1.00303 0.989604
1.00303 1.00235 0.986797
0.999676 1.00025 0.995019
0.999692 0.999083 0.99616
1.00012 1.00193 0.992564
1.00383 1.00003 0.987766
1.00339 1.00054 0.988049
1.00477 1.00001 0.986111
1.00067 1.003 0.990599
1.00395 1.001 0.986409
1.00195 1.00373 0.987556
1.00339 1.00229 0.986392
0.999532 0.997588 0.999175
0.999456 0.997813 0.99914
0.999397 0.99806 0.999085
0.99977 0.99999 0.995031
0.999554 0.99856 0.99878
1.00004 0.999963 0.997879
1.00004 0.999991 0.997812
1.0015 1.0001 0.991836
1.00152 1.00005 0.991841
1.00004 1.00001 0.99779
1.00004 1 0.997788
1.00151 0.999999 0.991885
1.00156 1.00009 0.992376
1.00394 0.999815 0.987794
1.00149 1 0.991935
1.00391 0.999967 0.987713
1.0015 0.999983 0.991914
1.00394 0.999747 0.987858
1.00392 0.999891 0.987755
1.00495 0.999284 0.986542
1.00388 1 0.987717
1.00493 0.999577 0.986295
1.00004 0.999999 0.99779
0.99971 1.00001 0.995675
1.00152 0.999984 0.991314
1.00152 0.999974 0.992555
0.999297 0.99952 0.998543
1.00054 1.00117 0.993651
1.00141 0.999874 0.992849
1.00373 0.999853 0.988481
1.0035 1.00011 0.988965
1.00287 1.00135 0.988911
1.00445 0.999988 0.986713
1.00149 0.999991 0.991931
1.00148 1 0.992564
1.00387 0.999735 0.988061
1.00378 0.999901 0.988507
0.999551 0.998942 0.998594
0.999978 1.0011 0.994065
1.00172 1.0025 0.989387
1.00365 0.999868 0.988609
1.00482 0.999491 0.986648
1.00406 1.00082 0.986462
1.0046 0.999801 0.986808
1.00501 0.999643 0.986027
0.999779 1.00042 0.994601
1.00024 1.00264 0.991595
1.00391 0.99974 0.987916
1.00383 0.999827 0.98834
1.0049 0.999343 0.986826
1.00485 0.99938 0.986561
1.00475 0.999587 0.986799
1.00516 0.998929 0.98659
0.999791 1.00078 0.994155
1.00507 0.99931 0.986255
1.0008 1.00297 0.990186
1.00295 1.00253 0.986649
1.00485 1.00053 0.985749
1.00515 0.999368 0.986132
1.0004 1.00281 0.99118
1.00013 1.00223 0.99219
1.0006 1.00362 0.990074
1.00145 0.999951 0.992039
0.999428 0.998409 0.998933
0.999627 0.99949 0.995784
1.00108 1.00051 0.992107
1.00371 1.00016 0.987859
0.999771 1.00078 0.994189
1.00111 1.00302 0.989611
1.00286 1.00117 0.988386
1.00305 1.00232 0.98675
0.999669 1.00018 0.995046
0.999695 0.999024 0.996187
1.00004 1.00201 0.992578
1.00383 1.00005 0.987763
1.00339 1.00054 0.988058
1.00478 0.999998 0.986099
1.0006 1.00305 0.990614
1.00399 1.00104 0.986435
1.00193 1.00379 0.987542
1.00342 1.00218 0.986386
0.999795 0.99867 0.996382
1.00033 1.00256 0.991556
1.00002 1.00115 0.993498
1.0003 1.00335 0.990895
1.00486 0.999831 0.986144
1.00452 1.00038 0.986212
1.0051 0.999754 0.985758
1.00115 1.00402 0.988788
1.00453 1.00058 0.985837
1.00224 1.00405 0.986558
1.00411 1.00144 0.985856
1.00026 0.999892 0.994341
0.999974 0.998196 0.996524
0.999624 0.997333 0.999202
0.999535 0.997535 0.999184
0.999447 0.997754 0.999158
0.999792 0.99958 0.995418
0.999551 0.998286 0.998893
0.999769 1.00004 0.995011
0.999573 0.998608 0.998734
1.00149 1.00003 0.991928
1.00151 1.00008 0.991817
1.00391 0.999969 0.987708
1.00394 0.999814 0.987792
1.00152 1.00001 0.991883
1.00006 1 0.99778
1.00151 0.999985 0.991913
1.00394 0.999752 0.987856
1.00392 0.999899 0.987751
1.00495 0.999287 0.986537
1.00388 1.00002 0.98771
1.00493 0.999578 0.986287
1.00392 0.999736 0.987911
1.00495 0.999177 0.98665
1.00495 0.999429 0.986419
1.00519 0.998418 0.986994
1.00491 0.999702 0.9862
1.0052 0.998835 0.98655
1.0015 0.999978 0.991931
1.00156 0.999985 0.99248
1.00388 0.999711 0.987767
1.0038 0.999933 0.98859
0.999565 0.99902 0.998535
1.00014 1.00105 0.994413
1.00184 1.00255 0.989571
1.00365 0.999888 0.988597
1.00481 0.9994 0.986545
1.00461 0.999846 0.986923
1.00399 1.00081 0.986401
1.00501 0.999659 0.98605
0.999785 1.00045 0.994595
1.00029 1.00255 0.991604
1.00391 0.9997 0.987842
1.00385 0.999816 0.988327
1.00491 0.999279 0.986862
1.00485 0.999466 0.986646
0.999832 1.00077 0.994154
1.00091 1.00294 0.990157
1.00291 1.00259 0.986744
1.00475 0.999629 0.986796
1.00516 0.998804 0.986685
1.00486 1.00045 0.985647
1.00505 0.999312 0.986278
1.00515 0.999335 0.986131
1.00043 1.00273 0.991191
1.00051 1.00366 0.990089
1.00016 1.00222 0.992181
1.00492 0.999265 0.986854
1.00489 0.999342 0.986805
1.00518 0.998498 0.986999
1.00518 0.998724 0.986692
1.00512 0.998908 0.986533
1.00518 0.99779 0.987607
1.00054 1.00282 0.99089
1.00516 0.998645 0.986698
1.00168 1.00342 0.988291
1.00403 1.00244 0.98493
1.00514 1.00036 0.985287
1.00515 0.998699 0.986802
1.00015 1.00165 0.992756
1.00086 1.0031 0.990071
1.00026 1.00385 0.990314
1.0009 1.00365 0.989648
1.00382 1.00006 0.987759
0.999691 0.998977 0.996214
0.999658 1.00013 0.995073
0.999998 1.00208 0.992592
1.00339 1.00054 0.988068
1.00478 0.999994 0.986087
1.00051 1.00311 0.990628
1.00191 1.00383 0.987527
1.00405 1.00108 0.986462
1.00345 1.00208 0.986379
0.999795 0.998644 0.996392
1.0003 1.00262 0.991557
1.00001 1.00113 0.993524
1.00022 1.00347 0.990887
1.00486 0.999831 0.986134
1.00451 1.00038 0.986205
1.00511 0.999757 0.985744
1.0011 1.00402 0.988805
1.00459 1.00066 0.985871
1.0023 1.00411 0.986497
1.00396 1.00115 0.986334
0.999897 0.998381 0.996477
1.0001 1.00049 0.994036
1.00066 1.00371 0.989936
1.00014 1.00261 0.991908
1.00024 1.00434 0.990023
1.00514 0.999466 0.986005
1.00495 1.00004 0.985685
1.00513 0.999265 0.986203
1.00144 1.00476 0.987476
1.0049 1.0002 0.985634
1.00321 1.00287 0.985482
1.00024 0.999969 0.994312
1.00023 1.00111 0.993218
1.00028 0.999868 0.994352
1.00026 0.999904 0.994339
1.00001 0.998013 0.997078
0.999962 0.998185 0.996788
0.99978 0.997143 0.998177
0.999635 0.997288 0.999207
0.999542 0.997482 0.999193
0.99984 0.999194 0.995723
0.999568 0.998017 0.998988
0.999791 0.999627 0.995396
0.999576 0.99833 0.998855
0.999768 1.00009 0.994991
0.999594 0.998661 0.998687
1.00387 1.00003 0.987703
1.00392 0.999904 0.987748
1.00492 0.999588 0.986278
1.00495 0.999289 0.986532
1.00394 0.999757 0.987854
1.0015 0.999987 0.991912
1.00392 0.999733 0.987911
1.00495 0.999179 0.98665
1.00493 0.999442 0.986412
1.00519 0.998339 0.987091
1.00491 0.999707 0.986192
1.0052 0.998858 0.986541
1.00493 0.999151 0.98671
1.00517 0.998202 0.987283
1.0052 0.998569 0.986808
1.00518 0.997429 0.988002
1.00517 0.999165 0.986276
1.00517 0.997553 0.987831
1.0039 0.999662 0.987769
1.00387 0.999814 0.988314
1.00491 0.999223 0.986899
1.00485 0.999552 0.98673
0.99988 1.00076 0.994152
1.00096 1.00295 0.990129
1.00288 1.00268 0.986837
1.00476 0.999671 0.986793
1.00516 0.998676 0.986781
1.00504 0.999313 0.986301
1.00488 1.00036 0.985544
1.00514 0.9993 0.986129
1.00046 1.00266 0.991203
1.00048 1.00366 0.990104
1.00018 1.0022 0.992171
1.00493 0.999226 0.986774
1.00489 0.99934 0.986795
1.00517 0.998366 0.987122
1.00517 0.998762 0.986695
1.00059 1.00278 0.990878
1.00176 1.00339 0.988252
1.00382 1.00249 0.985181
1.00512 0.999036 0.986478
1.00517 0.997629 0.9878
1.00514 1.00037 0.985165
1.00516 0.998642 0.986724
1.00515 0.998611 0.986912
1.00091 1.0031 0.990076
1.00088 1.00367 0.989609
1.00016 1.00166 0.992744
1.0002 1.00381 0.990405
1.00517 0.998367 0.987121
1.00517 0.998576 0.987034
1.00516 0.997623 0.987802
1.00517 0.99717 0.988247
1.00517 0.998027 0.987399
1.00513 0.996791 0.988699
1.00119 1.00297 0.98963
1.00513 0.997503 0.987828
1.002 1.0039 0.986748
1.00478 1.00219 0.984377
1.00515 1.00005 0.985327
1.00511 0.9983 0.987217
1.00015 1.00124 0.99317
1.00013 1.00335 0.991015
1.00114 1.0031 0.989619
1.00039 1.00443 0.989659
1.00111 1.00322 0.989685
0.999793 0.998625 0.996402
1.00486 0.999831 0.986123
1.00001 1.00109 0.99355
1.00025 1.0027 0.991559
1.00014 1.00358 0.990878
1.0045 1.00038 0.986198
1.00512 0.999759 0.985731
1.00111 1.00397 0.988822
1.0024 1.00415 0.986437
1.00465 1.00074 0.985905
1.00382 1.00088 0.986805
0.999895 0.998375 0.996481
1.0001 1.00047 0.994048
1.00067 1.00366 0.989945
1.00006 1.00269 0.991917
1.00017 1.00443 0.989947
1.00514 0.999477 0.985988
1.00498 1.00005 0.985665
1.00512 0.999262 0.986171
1.00138 1.00481 0.987504
1.00484 1.00026 0.985749
1.00339 1.00279 0.985537
1.00019 1.00013 0.99424
1.00015 1.00179 0.992709
1.00087 1.0044 0.988897
0.999957 1.00394 0.99093
1.00042 1.0045 0.989693
1.00513 0.998699 0.986758
1.00509 0.999733 0.985741
1.00512 0.998321 0.986882
1.00173 1.0048 0.986769
1.00472 1.00103 0.985088
1.00023 0.99998 0.99431
1.00023 1.00112 0.993129
1.00021 1.00113 0.993177
1.00017 1.00184 0.992723
1.00022 1.00114 0.993219
1.00026 0.999895 0.99434
1.00027 0.999872 0.994352
1.00007 0.997899 0.997084
1.00025 0.999917 0.994337
1.00002 0.998016 0.997078
0.999884 0.996914 0.998202
0.999951 0.99818 0.997048
0.999752 0.997098 0.998701
0.999647 0.997243 0.999212
0.999899 0.99886 0.995961
0.999837 0.999237 0.995705
0.999607 0.997769 0.999055
0.999587 0.998064 0.998957
0.999788 0.999678 0.995374
0.999601 0.998372 0.998813
1.0049 0.999712 0.986183
1.00493 0.999446 0.986405
1.00519 0.998876 0.986533
1.0052 0.99826 0.987188
1.00494 0.999181 0.98665
1.00392 0.999732 0.987911
1.00493 0.99915 0.986712
1.00517 0.998211 0.987289
1.0052 0.998581 0.986808
1.00517 0.997282 0.988182
1.00517 0.999177 0.986256
1.00518 0.99743 0.987947
1.00517 0.998243 0.98727
1.00516 0.997389 0.988074
1.00518 0.997138 0.988291
1.00516 0.996455 0.988993
1.00514 0.998051 0.987366
1.00515 0.996586 0.9889
1.00493 0.999184 0.986694
1.0049 0.999344 0.986785
1.00517 0.998229 0.987244
1.00517 0.998797 0.986697
1.00065 1.00275 0.990865
1.00184 1.00335 0.988213
1.00362 1.00248 0.985433
1.00512 0.999167 0.986424
1.00517 0.997466 0.987994
1.00516 0.998639 0.986751
1.00514 1.00041 0.985043
1.00514 0.998529 0.987023
1.00088 1.00315 0.990081
1.00077 1.00378 0.98957
1.00018 1.00167 0.992732
1.00016 1.00376 0.990496
1.00517 0.998371 0.987116
1.00517 0.998623 0.986937
1.00516 0.997562 0.987894
1.00517 0.997268 0.988124
1.00119 1.00308 0.989591
1.00201 1.0039 0.986958
1.00469 1.00198 0.984353
1.00517 0.998166 0.987228
1.00513 0.996606 0.988825
1.00514 1.00011 0.985305
1.00513 0.997527 0.987837
1.00513 0.998098 0.987295
1.00119 1.00309 0.989609
1.0011 1.00318 0.989738
1.00034 1.00449 0.989634
1.00015 1.00123 0.993098
1.00011 1.00328 0.99111
1.00516 0.99747 0.988054
1.00514 0.997161 0.988345
1.00512 0.99611 0.989393
1.00511 0.996683 0.988657
1.00132 1.00354 0.988815
1.00511 0.997106 0.988417
1.00224 1.00365 0.986188
1.00506 1.00174 0.984166
1.00511 0.9996 0.985697
1.00012 1.00086 0.99342
1.00012 1.00276 0.991818
1.00018 1.00404 0.990458
1.00134 1.00281 0.989622
1.00052 1.0046 0.989213
1.00136 1.00257 0.989611
0.999891 0.998373 0.996485
1.0001 1.00044 0.994059
1.00514 0.999487 0.98597
0.999988 1.00278 0.991927
1.00062 1.00368 0.989953
1.0001 1.00454 0.989871
1.00501 1.00006 0.985646
1.00512 0.999261 0.986138
1.00131 1.00488 0.98753
1.00354 1.00275 0.985592
1.00478 1.00031 0.985869
1.00019 1.00013 0.99424
1.00012 1.0018 0.992724
1.00084 1.00445 0.988871
0.999886 1.00403 0.990923
1.00035 1.00443 0.989722
1.00513 0.998723 0.986736
1.00511 0.999733 0.985704
1.00511 0.998349 0.986929
1.00172 1.00472 0.986648
1.00469 1.00119 0.985105
1.00021 1.00131 0.99308
0.999894 1.00309 0.991699
1.00107 1.00421 0.988606
0.999939 1.00475 0.990077
1.00081 1.00382 0.989529
1.00513 0.99707 0.988193
1.0051 0.999509 0.98594
1.00508 0.998208 0.987001
1.00285 1.00376 0.986189
1.00469 1.00068 0.985169
1.00023 0.999989 0.994308
1.00023 1.00112 0.993162
1.00006 1.0019 0.99266
1.00019 1.00114 0.993135
1.0002 1.00116 0.993218
1.00011 1.00188 0.992667
1.00003 1.0023 0.992443
1.00011 1.00193 0.992539
1.0002 1.00122 0.993185
1.00023 0.999988 0.994314
1.00026 0.999906 0.99434
1.00011 0.997849 0.997059
1.00027 0.999879 0.994352
1.00008 0.997913 0.99708
0.99996 0.996778 0.998202
1.00003 0.998018 0.99708
0.999873 0.996887 0.998208
0.999719 0.997042 0.999235
0.999953 0.998543 0.996194
0.999896 0.998894 0.995944
0.999664 0.997519 0.999108
0.999831 0.999284 0.995687
0.999617 0.997814 0.999036
0.999607 0.998106 0.998924
1.00517 0.999189 0.986237
1.0052 0.998596 0.986808
1.00518 0.997305 0.988063
1.00517 0.997135 0.988361
1.00517 0.99822 0.987296
1.00493 0.999151 0.986713
1.00517 0.998298 0.987209
1.00515 0.99748 0.988013
1.00518 0.99721 0.988204
1.00514 0.996282 0.989157
1.00514 0.998076 0.98736
1.00514 0.996374 0.989041
1.00516 0.997574 0.987954
1.00516 0.996388 0.989011
1.00516 0.995934 0.989467
1.00512 0.996404 0.989071
1.00517 0.998375 0.987111
1.00516 0.998669 0.986841
1.00516 0.997504 0.987986
1.00517 0.997371 0.988001
1.00125 1.00312 0.989552
1.00201 1.0039 0.987167
1.00459 1.00177 0.984329
1.00516 0.998305 0.987058
1.00514 0.996429 0.98895
1.00512 0.997551 0.987847
1.00513 1.00014 0.985283
1.00515 0.997892 0.987375
1.00124 1.00309 0.989599
1.00114 1.00305 0.98979
1.0003 1.00455 0.98961
1.00015 1.00123 0.993026
1.00009 1.00321 0.991206
1.00516 0.997484 0.988056
1.00514 0.997196 0.988311
1.00512 0.996198 0.989257
1.0014 1.00354 0.988779
1.00244 1.00378 0.986295
1.00501 1.00153 0.984126
1.00512 0.99672 0.988637
1.00509 0.999398 0.985936
1.00511 0.997061 0.988269
1.00012 1.00081 0.993484
1.00142 1.00274 0.989592
1.00125 1.00246 0.989951
1.00058 1.00464 0.989138
1.00018 1.00404 0.990484
1.00011 1.00274 0.991761
1.00513 0.996801 0.9886
1.00517 0.995904 0.989537
1.00511 0.995649 0.989626
1.00514 0.996013 0.989343
1.0016 1.00356 0.988368
1.00511 0.997832 0.987436
1.00327 1.00335 0.984991
1.00506 1.00132 0.984261
1.00014 1.00031 0.993929
1.00011 1.00229 0.992301
1.00018 1.00341 0.991152
1.0002 1.0048 0.989566
1.00158 1.0024 0.989457
1.00136 1.00336 0.988968
1.00018 1.00013 0.994241
1.00009 1.00178 0.99274
1.00513 0.998746 0.986713
0.99982 1.00409 0.990916
1.00081 1.00448 0.988846
1.00021 1.00431 0.989752
1.00512 0.99973 0.985667
1.00511 0.998383 0.986975
1.00173 1.00468 0.986527
1.0047 1.00134 0.98512
1.0002 1.0013 0.993089
0.99995 1.00305 0.991726
1.00108 1.00427 0.988613
0.999841 1.00482 0.990039
1.00064 1.00362 0.989892
1.00513 0.99705 0.988385
1.00509 0.999482 0.986007
1.00508 0.998309 0.986957
1.00273 1.0039 0.986088
1.00486 1.00062 0.984992
0.999981 1.00218 0.992443
0.99981 1.0041 0.990686
1.00157 1.00368 0.988291
1.00013 1.00464 0.989136
1.00511 0.995596 0.989685
1.00497 0.997353 0.988334
1.00505 0.999528 0.985855
1.0033 1.00207 0.985559
1.00024 1.00111 0.993195
1.00007 1.00192 0.992676
0.999869 1.00255 0.992474
1.00019 1.00118 0.993216
1.00006 1.00191 0.992612
1.00019 1.00122 0.993179
1.00001 1.00229 0.992428
1.00012 1.00193 0.992566
0.999959 1.00251 0.992329
1.00007 1.00237 0.992242
1.00013 1.00201 0.992396
1.00019 1.00133 0.993066
1.00018 1.00008 0.994288
1.00023 0.999984 0.994311
1.00014 0.997836 0.997027
1.00026 0.999903 0.994339
1.00012 0.997873 0.997054
1.00002 0.996695 0.99818
1.00008 0.997927 0.997078
0.999952 0.996746 0.998209
0.999862 0.996862 0.998211
1.00002 0.998214 0.996408
0.999957 0.99856 0.996177
0.999735 0.997234 0.999163
0.999891 0.998932 0.995927
0.999667 0.997571 0.999092
0.99963 0.997853 0.999013
1.00514 0.998099 0.987354
1.00517 0.997283 0.988117
1.00513 0.996165 0.989182
1.00513 0.996111 0.989321
1.00515 0.997571 0.987953
1.00517 0.998354 0.987148
1.00516 0.997568 0.987962
1.00515 0.996452 0.98896
1.00516 0.995964 0.989429
1.00513 0.996362 0.98912
1.00515 0.996763 0.988741
1.00518 0.995294 0.990112
1.00516 0.995349 0.989823
1.00516 0.997499 0.988057
1.00515 0.997229 0.988276
1.00512 0.996288 0.989121
1.00147 1.00354 0.988743
1.00266 1.00391 0.986402
1.00496 1.00138 0.984086
1.00512 0.996754 0.988617
1.00511 0.997011 0.98812
1.00508 0.999218 0.986175
1.00148 1.00267 0.989561
1.0011 1.00238 0.990292
1.00064 1.00472 0.989063
1.00013 1.00075 0.993548
1.00018 1.00403 0.99051
1.00011 1.00271 0.991703
1.00514 0.996857 0.988623
1.00517 0.995814 0.989603
1.00511 0.995651 0.989664
1.00162 1.00359 0.988332
1.00312 1.00348 0.985309
1.00505 1.0011 0.984436
1.00514 0.996045 0.989278
1.00512 0.997824 0.987399
1.00014 1.00028 0.994064
1.00012 1.00229 0.992294
1.00141 1.00233 0.989561
1.00128 1.00339 0.98929
1.00022 1.00473 0.989676
1.00015 1.00346 0.991083
1.00517 0.995419 0.990044
1.00517 0.995136 0.990118
1.00513 0.995361 0.989937
1.00512 0.996257 0.989074
1.00171 1.00338 0.987752
1.00504 0.999848 0.985531
1.00416 1.00316 0.98457
1.00018 0.999952 0.994438
1.00016 1.00121 0.993254
1.0001 1.00178 0.992635
1.00006 1.00317 0.991499
1.00006 1.00413 0.990456
1.00006 1.00462 0.989628
1.00203 1.00116 0.989505
1.00129 1.00314 0.990104
1.00018 1.0013 0.993098
0.999999 1.00304 0.991753
1.00512 0.997033 0.988576
0.99988 1.00489 0.99
1.00108 1.00437 0.988621
1.00044 1.00348 0.990254
1.00509 0.999449 0.986074
1.00509 0.998401 0.986914
1.00255 1.00398 0.98599
1.00505 1.00054 0.984814
1.00001 1.00222 0.992382
0.999874 1.0041 0.990694
1.00148 1.00378 0.988367
1.00039 1.00465 0.989234
1.00513 0.995489 0.989823
1.00501 0.997408 0.988119
1.00506 0.99949 0.985882
1.00367 1.00221 0.985399
0.999827 1.00308 0.991926
1.00509 0.995073 0.990209
1.00023 1.00483 0.98985
1.00168 1.00422 0.987493
1.00497 0.996026 0.989834
1.00486 0.998664 0.986559
1.00449 1.00124 0.98539
1.00006 1.00195 0.992692
0.999862 1.00253 0.992457
0.999689 1.00305 0.992304
1.0002 1.0012 0.993174
1.00011 1.00193 0.992594
0.999951 1.0023 0.992414
1.0002 1.00132 0.993055
1.00012 1.00201 0.992419
0.999915 1.00254 0.992294
1.0001 1.00232 0.992279
1.0001 1.00247 0.992161
1.00005 1.00251 0.992132
1.00013 1.00255 0.991982
1.00026 1.00208 0.99217
1.00021 1.00144 0.992919
1.00015 1.00017 0.994252
1.00018 1.00009 0.994287
1.00015 0.997869 0.996974
1.00023 0.999999 0.994309
1.00014 0.997869 0.997021
1.00006 0.996631 0.998161
1.00012 0.997899 0.997049
1.00002 0.996659 0.998186
0.999945 0.996716 0.998213
1.00016 0.999834 0.994592
1.00007 0.997969 0.996562
1.00003 0.998228 0.996394
0.999817 0.996966 0.999207
0.99996 0.998584 0.99616
0.999733 0.997299 0.999146
0.999672 0.997621 0.999076
1.00514 0.996319 0.989169
1.00516 0.995993 0.989392
1.00515 0.996516 0.988909
1.00516 0.997561 0.98797
1.00516 0.996701 0.988796
1.00518 0.995305 0.99012
1.00516 0.995408 0.989809
1.00518 0.995143 0.990216
1.00517 0.995014 0.990363
1.00496 0.994998 0.990749
1.00514 0.996914 0.988646
1.00518 0.995721 0.989669
1.00511 0.995643 0.989703
1.00164 1.00361 0.988297
1.00296 1.0036 0.985629
1.00504 1.00087 0.984611
1.00514 0.996086 0.989213
1.00511 0.997805 0.987362
1.00127 1.00228 0.989665
1.00124 1.00342 0.989607
1.00016 1.00469 0.989786
1.00014 1.00025 0.994199
1.00014 1.00227 0.992288
1.00013 1.00352 0.991014
1.00516 0.995374 0.990041
1.00017 0.999966 0.994435
1.00014 1.00123 0.993196
1.00517 0.995146 0.990128
1.00511 0.995344 0.989905
1.0015 1.00356 0.988114
1.004 1.0031 0.984522
1.00503 0.999732 0.985502
1.0051 0.996304 0.98896
1.00012 1.00176 0.992809
1.00009 1.00312 0.991484
1.00221 1.00145 0.989273
1.00083 1.00316 0.990403
1.0001 1.00472 0.989657
1.00005 1.0041 0.990534
1.00517 0.995027 0.990261
1.00508 0.994921 0.990462
1.0051 0.995169 0.989895
1.00503 0.99667 0.988351
1.00187 1.00288 0.988315
1.00437 1.00275 0.984623
1.00012 1.00114 0.993234
1.00015 1.00137 0.993115
1.00014 1.00218 0.992456
1.00006 1.00295 0.991528
1.00001 1.00374 0.991132
1.00032 1.0042 0.989913
0.999617 1.00484 0.990077
1.00142 1.00132 0.990549
1.00003 1.00224 0.992322
0.999949 1.00406 0.990703
1.00514 0.995374 0.98996
1.00503 0.997486 0.987904
1.00062 1.00469 0.989331
1.00141 1.00384 0.988439
1.00506 0.999454 0.985908
1.00405 1.00238 0.985237
0.999854 1.00308 0.991889
1.00509 0.995015 0.990285
1.00005 1.00477 0.98995
1.00169 1.00405 0.987454
1.00497 0.995889 0.989724
1.00478 0.99871 0.986783
1.00445 1.00144 0.985433
0.99985 1.00431 0.991014
1.0047 0.995117 0.991582
1.00104 1.00457 0.989194
1.0026 1.00391 0.986863
1.00479 0.99685 0.98877
1.00405 1.00064 0.986228
0.999606 0.997769 0.991805
0.999851 1.00253 0.99244
0.999653 1.00307 0.992295
0.999927 1.00313 0.991936
1.0002 1.00133 0.993043
1.00012 1.00203 0.992441
1.00013 1.00228 0.992317
0.999889 1.00254 0.99226
1.00021 1.00143 0.992916
1.00023 1.00211 0.99217
1.0001 1.00254 0.992046
1.00012 1.00256 0.991986
1.00009 1.00246 0.99215
1.00023 1.00234 0.992022
1.00025 1.00272 0.991622
1.00019 1.00258 0.991868
1.00034 1.00219 0.991923
1.00025 1.0015 0.992709
1.00027 1.00202 0.992339
1.00024 1.00153 0.992674
1.00015 1.00021 0.994207
1.00015 1.00017 0.994252
1.00018 0.997946 0.996387
1.00018 1.00008 0.994286
1.00017 0.997906 0.9967
1.00003 0.996577 0.999208
1.00014 0.997903 0.997016
1.00006 0.99659 0.998166
1.00001 0.996624 0.998191
1.00013 0.999736 0.994722
1.00017 0.999818 0.994594
1.0001 0.99781 0.996682
1.00006 0.997973 0.996814
0.99989 0.996755 0.999242
1.00003 0.998238 0.99638
0.99981 0.997028 0.999195
0.999731 0.997365 0.999129
1.00516 0.995469 0.989795
1.00519 0.995313 0.990129
1.00517 0.996639 0.988851
1.00516 0.995156 0.990212
1.00516 0.994998 0.990327
1.00496 0.995044 0.990514
1.00515 0.994919 0.990419
1.00083 0.996847 0.988383
1.00434 0.994925 0.992928
1.00007 1.00109 0.993511
1.00516 0.99532 0.990037
1.00518 0.995166 0.990138
1.00511 0.995327 0.989873
1.00128 1.0037 0.988475
1.00385 1.00308 0.984473
1.00504 0.99964 0.985476
1.00504 0.996364 0.988845
1.00246 1.00162 0.989047
1.00034 1.00317 0.990709
1.00018 1.00478 0.989687
1.00016 0.999988 0.994433
1.00005 1.00405 0.990612
1.00013 1.00172 0.992982
1.0001 1.0031 0.991469
1.00012 1.00122 0.993138
1.00518 0.994965 0.990291
1.00011 1.00113 0.993331
1.00014 1.00138 0.993113
1.00015 1.00217 0.992354
1.00506 0.994948 0.990454
1.00511 0.995276 0.989798
1.00195 1.00279 0.988369
1.00405 1.00237 0.984916
1.00499 0.996948 0.988297
1.00004 1.00295 0.991623
1.00004 1.0037 0.991009
1.00133 1.00177 0.990349
0.999808 1.00483 0.990147
1.00034 1.00408 0.989979
1.0051 0.994992 0.990513
1.00509 0.994871 0.990476
1.00506 0.996 0.989128
1.00447 0.999081 0.987957
1.0013 1.00309 0.989252
1.00008 1.00219 0.992258
1.00015 1.00237 0.991916
0.999966 1.00317 0.991592
0.999919 1.00407 0.991009
0.999987 1.00409 0.990595
0.999892 1.00462 0.990006
1.00003 1.00428 0.990253
0.999896 1.00306 0.99185
0.999854 1.00473 0.990051
1.00511 0.994967 0.990359
1.00497 0.995733 0.989614
1.00474 0.998729 0.987006
1.00169 1.00385 0.987418
1.00443 1.00162 0.985476
0.999813 1.00417 0.99116
1.00462 0.995054 0.991638
1.0007 1.00443 0.98938
1.00231 1.00401 0.986842
1.00477 0.99668 0.989069
1.00418 1.00056 0.986166
0.999613 0.997704 0.98995
0.999994 1.00431 0.990677
1.00408 0.995899 0.991735
1.00063 1.00436 0.989443
1.00244 1.00265 0.987318
1.00417 0.998112 0.987746
1.00068 0.995602 0.956553
0.996374 0.9969 0.975397
0.997856 1.00164 0.991392
0.999847 0.996596 0.91794
0.994901 0.998173 0.901414
0.999629 1.00308 0.992285
0.999764 1.00325 0.991995
1.00011 1.00244 0.992185
1.00021 1.00143 0.992913
1.00026 1.00204 0.992169
1.00012 1.00256 0.991991
1.00012 1.00242 0.992167
1.0001 1.00262 0.991932
1.00022 1.00254 0.99182
1.00024 1.00147 0.992779
1.00034 1.00218 0.991935
1.00023 1.00236 0.991993
1.00022 1.00274 0.991663
1.00027 1.00272 0.991658
1.00015 1.00254 0.991838
1.00032 1.00262 0.991612
1.00038 1.00216 0.991826
1.00026 1.00155 0.992632
1.00035 1.00211 0.992061
1.00029 1.00222 0.992059
1.00015 1.00207 0.992384
1.00027 1.00204 0.992276
1.00023 1.00142 0.992891
1.00025 1.00153 0.992664
1.00018 1.00021 0.994165
1.00015 1.00022 0.994206
1.00017 0.998015 0.99636
1.00015 1.00017 0.994251
1.00018 0.997954 0.996385
1.00004 0.996585 0.999199
1.00018 0.997943 0.996426
1.00006 0.996579 0.998669
1.00006 0.99655 0.99817
1.0001 0.999696 0.994819
1.00014 0.99974 0.994721
1.00013 0.997693 0.996759
1.00017 0.999802 0.994596
1.0001 0.99778 0.996936
0.999947 0.996577 0.99927
1.00007 0.998013 0.996529
0.999879 0.996838 0.999225
0.999804 0.997077 0.999183
1.00515 0.994981 0.990291
1.00515 0.995172 0.990209
1.00496 0.99507 0.990278
1.00075 0.996635 0.988483
1.00514 0.994919 0.990392
1.00425 0.995372 0.992585
1.0049 0.99609 0.991138
0.997188 0.996907 0.973478
1.00142 0.996223 0.990165
1.00008 1.00107 0.993523
1.0001 1.00106 0.993505
0.999979 1.00218 0.992562
1.00006 1.00198 0.992643
1.00519 0.994925 0.990321
1.00505 0.99497 0.990446
1.00511 0.995382 0.9897
1.00219 1.00257 0.988422
1.00368 1.00187 0.985205
1.005 0.997256 0.988241
1.00116 1.00235 0.990143
1.00004 1.00483 0.990215
1.00033 1.00395 0.990044
1.00013 1.00142 0.99311
1.00006 1.00365 0.990886
1.00006 1.00295 0.991719
1.00011 1.00113 0.993428
1.00013 1.00218 0.99225
1.0051 0.994938 0.990502
1.00005 1.00224 0.992382
1.00015 1.00239 0.99204
0.999908 1.003 0.991818
1.00509 0.994873 0.990422
1.00504 0.995842 0.989139
1.00162 1.00267 0.989203
1.0043 0.998983 0.988126
0.999948 1.00402 0.990967
1.00009 1.00406 0.990414
1.00004 1.00447 0.99025
1.00019 1.00453 0.989965
1.00489 0.994821 0.99107
1.00508 0.995212 0.990234
1.00458 0.997286 0.989073
1.00174 1.00142 0.990323
0.999973 1.00339 0.991314
1 1.00361 0.991041
0.999575 1.00459 0.990809
0.999747 1.00516 0.989864
1.00005 0.99497 0.951446
0.999755 1.00405 0.991305
1.0003 1.00433 0.989566
1.00456 0.994987 0.991688
1.00474 0.996526 0.989369
1.00431 1.00044 0.986103
1.00196 1.00411 0.986819
0.99972 0.997515 0.98805
0.999845 1.00438 0.990805
1.0042 0.995714 0.991707
1.0005 1.00439 0.9895
1.00264 1.00238 0.987312
1.0044 0.998116 0.987885
1.00151 0.995837 0.950359
0.996105 0.997049 0.971467
0.997754 1.00164 0.99126
0.999823 0.997332 0.920462
0.994725 0.998135 0.893374
0.999816 1.00365 0.991654
0.999892 0.995318 0.92501
0.995208 0.998435 0.903004
1.00289 0.999332 0.990721
1.00021 1.00416 0.99026
1.00265 1.0013 0.987742
0.997192 1.00307 0.99146
0.999951 0.996952 0.955186
0.994863 0.997565 0.969847
0.998481 0.998333 0.923574
0.994752 0.999545 0.901821
0.999617 1.00336 0.992054
1 1.0027 0.992111
0.999978 1.00153 0.993588
1.00025 1.00144 0.992848
1.00035 1.00219 0.991947
1.00015 1.0026 0.991773
1.00019 1.00274 0.991704
1.00023 1.00237 0.991964
1.00026 1.00153 0.992639
1.00024 1.00277 0.991605
1.00031 1.0026 0.991638
1.00039 1.00216 0.991881
1.00017 1.00244 0.991896
1.00022 1.00285 0.991645
1.00014 1.00239 0.991933
1.00043 1.00261 0.991375
1.00042 1.00218 0.991869
1.00037 1.00209 0.992049
1.00029 1.00222 0.992059
1.00043 1.00221 0.991799
1.00013 1.00241 0.992092
1.00021 1.00214 0.992099
0.999814 1.00319 0.99181
1.00004 1.00224 0.9924
1.00015 1.00208 0.992382
1.00019 1.00141 0.992972
1.00026 1.00206 0.992214
1.00024 1.00143 0.992838
1.00022 1.00017 0.994149
1.00025 1.00154 0.992655
1.00018 1.00021 0.994167
1.00013 0.998043 0.996912
1.00015 1.00022 0.994205
1.00016 0.998005 0.996637
1.00009 0.996617 0.998085
1.00018 0.997963 0.996384
1.00004 0.996591 0.999196
1.0001 0.996582 0.998128
1.00011 1.00114 0.993418
1.00009 0.999703 0.994832
1.00011 0.999691 0.994819
1.00014 0.99764 0.996786
1.00014 0.999742 0.994719
1.00013 0.997671 0.996758
0.999992 0.996465 0.999283
1.00008 0.997788 0.99717
0.999961 0.99665 0.998759
0.999922 0.996887 0.998187
1.00057 0.996488 0.988606
1.00514 0.994922 0.990367
1.00416 0.995877 0.992241
0.996532 0.996653 0.975024
1.00117 0.99625 0.990404
1.00495 0.995605 0.99094
1.00367 0.996382 0.98993
0.99745 0.996444 0.977868
1.00005 0.995558 0.954729
0.999417 0.997924 0.925529
0.994667 0.998106 0.900012
0.999968 1.00207 0.992533
1.00008 1.00107 0.993521
1.00012 1.00104 0.993499
1 1.00218 0.992519
0.999969 1.00295 0.991878
1.00019 1.0025 0.991982
1.00009 1.00219 0.992434
1.00003 1.00207 0.99257
1.00512 0.994897 0.990488
1.00508 0.994875 0.990362
1.00506 0.995605 0.989152
1.00178 1.00237 0.989157
1.00419 0.998909 0.988294
1.00004 1.00454 0.990248
1.00047 1.00445 0.989927
1.00022 1.00407 0.990235
1.00012 1.00239 0.992164
0.999949 1.00402 0.990924
1.00005 1.00232 0.992508
0.999939 1.00279 0.992045
1.00489 0.99486 0.991111
0.999969 1.00338 0.991397
0.99999 1.0036 0.991177
1.00504 0.995111 0.99013
1.00409 0.997111 0.989479
1.00184 1.00126 0.990206
0.999757 1.00469 0.990544
0.999969 1.00497 0.989896
1.00293 0.997658 0.99173
1.00447 0.996145 0.990888
1.00311 0.997394 0.990822
1.00095 1.002 0.990687
0.999987 1.00392 0.99075
0.99974 1.00448 0.990636
0.99968 1.00523 0.990145
0.999917 0.99486 0.925295
1.00066 0.995029 0.959145
0.999735 1.00443 0.990932
1.0004 1.00432 0.989557
1.00425 0.995528 0.991683
1.0046 0.998179 0.988023
1.00281 1.00222 0.987309
1.00041 0.995267 0.954886
0.996562 0.997314 0.970839
0.997637 1.00145 0.991109
0.99884 0.997009 0.927223
0.994693 0.998131 0.885237
0.999755 1.00362 0.991677
0.999922 0.995798 0.923848
0.995254 0.998333 0.899071
1.00283 0.999214 0.990717
1.00012 1.00407 0.990362
1.00236 1.00132 0.988401
0.99757 1.00273 0.992072
1.00115 0.996917 0.950353
0.99489 0.997038 0.973451
0.998586 0.999057 0.92396
0.994933 0.99948 0.899751
0.999362 1.00302 0.99333
0.995323 0.997905 0.904264
0.995043 0.99975 0.919625
1.00003 1.00143 0.992713
0.999336 1.00411 0.992264
0.996515 1.00287 0.992774
0.994831 0.999361 0.97389
0.997916 0.998642 0.948776
0.995296 0.999915 0.928818
0.994755 0.997957 0.909074
0.999964 1.00288 0.992037
1.00002 1.00142 0.993537
0.999737 1.00031 0.994701
1.00026 1.00151 0.992645
1.00038 1.00216 0.991936
1.00031 1.00256 0.991664
1.00022 1.00282 0.991553
1.00017 1.00238 0.991954
1.00041 1.0022 0.991859
1.00023 1.00279 0.991621
1.00043 1.00263 0.991375
0.999973 1.00243 0.992084
0.998864 1.00312 0.993248
1.00024 1.00307 0.991359
1.00056 1.00245 0.991443
1.0004 1.00206 0.992036
1.00031 1.00221 0.992059
1.00044 1.00221 0.991796
1.00015 1.00241 0.992078
1.00023 1.00214 0.992142
0.999973 1.00273 0.992007
1.00028 1.00208 0.992016
1.00002 1.0023 0.992317
1.00016 1.00284 0.991634
0.999696 1.00485 0.990032
0.999578 1.00378 0.991432
0.999827 1.00323 0.991799
0.999947 1.00247 0.992321
1.00006 1.00225 0.992396
1.00014 1.00144 0.99301
1.00015 1.00211 0.99238
1.0002 1.0014 0.992976
1.00024 1.00011 0.994155
1.00025 1.00144 0.992785
1.00022 1.00016 0.994152
1.00011 0.998066 0.99692
1.00018 1.00021 0.994168
1.00014 0.998029 0.996636
1.00006 0.996639 0.998092
1.00018 0.997985 0.996359
1.00003 0.996624 0.99919
1.00004 0.996602 0.999194
1.00014 1.00124 0.99346
1.00011 0.99976 0.994753
1.00009 1.00115 0.99342
1.00015 0.997619 0.996787
1.0001 0.999697 0.994833
1.00011 0.999692 0.994818
1.00014 0.997635 0.996784
1.00002 0.996406 0.999287
1.00011 0.997661 0.997241
1.00001 0.996484 0.998791
0.999992 0.996642 0.998273
0.999858 0.995998 0.919202
0.995151 0.997606 0.902706
0.997717 0.996317 0.975606
1.00095 0.996215 0.990653
1.00498 0.995044 0.990745
0.996815 0.995882 0.979531
1.00374 0.995977 0.990174
1.00133 0.995817 0.95443
0.999822 0.997067 0.918942
0.994665 0.998073 0.891945
0.998308 0.996432 0.982808
0.999667 0.997589 0.95545
0.998443 0.998755 0.922132
0.994734 0.999081 0.900577
1.00009 1.00294 0.991626
0.999996 1.00206 0.992606
1.0001 1.00105 0.99352
1.00002 1.00214 0.992475
0.999964 1.00285 0.991962
1.00021 1.00279 0.99167
1.00018 1.00249 0.991976
1.00017 1.00239 0.992024
1.0001 1.00218 0.992358
1 1.00214 0.992498
1.00486 0.994861 0.991161
1.00508 0.995039 0.990044
1.00355 0.996964 0.989891
1.00184 1.0012 0.99009
1.00021 1.00486 0.989926
0.999926 1.00478 0.990278
0.999963 1.00358 0.991314
0.999923 1.00337 0.991479
1.00308 0.99718 0.99194
0.999967 1.00399 0.990709
0.999739 1.00458 0.990517
1.00438 0.996093 0.990603
1.00268 0.997312 0.991674
1.00123 1.00213 0.990147
0.999895 1.00518 0.990029
1.00004 0.998704 0.993508
1.00183 0.997397 0.99431
0.999747 1.00384 0.990812
0.999905 1.0041 0.990665
0.999842 1.00463 0.990264
0.999701 1.00515 0.990106
0.994808 0.997776 0.917005
0.999915 0.994896 0.92817
1.00007 0.994945 0.951368
0.999628 1.00374 0.991701
1.00004 1.00394 0.990465
1.0028 0.999067 0.990719
1.00216 1.00139 0.989057
0.999888 0.995541 0.928643
0.999558 0.99686 0.950446
0.994893 0.996396 0.969937
0.997934 1.0018 0.992624
0.998541 0.998343 0.916615
0.995176 0.99819 0.900066
0.994971 0.999397 0.903754
0.999134 1.00298 0.993337
0.995262 0.997256 0.909042
0.995227 0.999901 0.91903
1.00036 1.00146 0.99266
0.998985 1.00417 0.992256
0.996318 1.0007 0.995393
0.99484 0.998493 0.972066
0.997514 0.998787 0.95601
0.997267 0.999897 0.921441
0.994752 0.997932 0.913448
0.998109 1.0024 0.995737
0.99508 0.99752 0.930241
0.994599 0.997769 0.93224
0.996104 1.00245 0.998931
0.99485 1.00001 0.980232
0.995607 1.00001 0.955651
0.99481 0.99996 0.920143
0.994828 0.99643 0.910539
1.00005 1.00133 0.993487
0.999762 1.00041 0.994876
0.99859 1.0018 0.996197
1.00041 1.00222 0.991849
1.00044 1.00265 0.991375
1.00025 1.0027 0.991597
0.999837 1.00247 0.992235
1.0005 1.00249 0.991429
1.00022 1.00304 0.991379
0.998911 1.00302 0.993467
0.996873 1.00433 0.995607
0.999019 1.00396 0.992679
1.0004 1.00259 0.991581
1.00045 1.0022 0.991793
1.00015 1.00241 0.992065
1.00024 1.00215 0.992185
1.00028 1.00214 0.992023
0.999976 1.00277 0.992003
1.00007 1.00229 0.992323
1.00011 1.0025 0.992145
0.999641 1.00198 0.993241
1.00069 1.00124 0.992081
1.00019 1.00272 0.991757
0.99981 1.00408 0.990771
1.00082 1.00495 0.98835
0.999812 1.00442 0.990922
0.999557 1.0049 0.990381
0.999658 1.00377 0.99151
0.999823 1.00286 0.99198
0.999845 1.00326 0.991787
0.999986 1.00246 0.992315
1.0001 1.00155 0.992975
1.00009 1.00223 0.992392
1.00017 1.00143 0.993009
1.00023 1.00012 0.994158
1.00022 1.0014 0.992979
1.00024 1.00012 0.994156
1.00008 0.998088 0.996943
1.00022 1.00016 0.994154
1.00012 0.998055 0.99665
1.00001 0.996724 0.998103
1.00016 0.998005 0.996359
1.00004 0.996653 0.99864
1.00003 0.996636 0.999191
1.00016 1.00143 0.993056
1.00014 0.999839 0.994627
1.00011 1.00128 0.993305
1.00016 0.997639 0.996754
1.00011 0.99975 0.994756
1.00007 1.00119 0.993421
1.00003 0.996384 0.999287
1.00015 0.997618 0.996788
1.0001 0.999682 0.994835
1.00015 0.997631 0.996782
1.00002 0.996417 0.999286
0.99999 0.996477 0.999281
0.994948 0.996322 0.910975
0.999892 0.995553 0.923149
0.995097 1.00003 0.919013
0.995214 0.998148 0.900327
0.997492 0.995385 0.976452
1.00375 0.995979 0.990427
1.00067 0.996232 0.953762
0.999839 0.996944 0.926299
0.994683 0.998141 0.883842
0.998306 0.996859 0.981707
1.00129 0.997265 0.947042
0.998569 0.999079 0.922728
0.994756 0.999348 0.896258
0.995083 0.998557 0.977634
0.998048 0.999581 0.948384
0.995857 0.999823 0.917748
0.994767 0.997647 0.903334
1.00007 1.00345 0.99119
1.00006 1.00292 0.991724
0.999979 1.0021 0.992679
0.999948 1.00276 0.992047
1.00031 1.00297 0.991176
1.0002 1.00274 0.991732
1.00013 1.00251 0.991968
1.0003 1.00236 0.991942
1.00021 1.00233 0.992109
1.00012 1.00217 0.992282
1.00335 0.996876 0.992139
1.00421 0.99604 0.990321
1.00234 0.997272 0.992517
1.00157 1.00209 0.989618
1.00003 1.00513 0.989913
0.99978 1.00468 0.990399
0.99999 1.00398 0.990668
0.999972 1.00409 0.99065
1.00035 0.99883 0.993793
0.999916 1.00465 0.990278
0.999825 1.00515 0.990113
1.00192 0.997318 0.993912
1.00025 1.00362 0.990666
0.998668 0.997096 0.995282
0.998572 0.998706 0.999061
0.999352 1.00461 0.991153
0.999981 1.00455 0.990164
0.999757 1.00507 0.990024
0.994762 0.997275 0.935866
0.99481 0.997426 0.915607
0.999883 0.99494 0.921474
0.998924 1.00292 0.99334
0.998715 1.00416 0.992234
1.00062 1.00147 0.992618
0.995284 0.996298 0.910468
0.997912 0.998703 0.949242
0.994843 0.997872 0.972807
0.996395 0.999755 0.998224
0.996239 0.999657 0.928642
0.995599 1.00006 0.918443
0.99479 0.997887 0.913541
0.998111 1.0024 0.995946
0.995157 0.996494 0.933016
0.994623 0.997755 0.932134
0.996344 1.00295 0.998148
0.994851 0.999909 0.981194
0.996192 0.999991 0.948901
0.994803 0.996933 0.911937
0.994849 0.999982 0.925481
0.996619 1.00356 0.998008
0.994435 0.994691 0.95318
0.99465 0.996961 0.935121
0.994773 0.997712 0.903568
0.994924 1.00159 0.994087
0.995539 0.999832 0.958231
0.994897 1.00001 0.923913
0.99986 1.00052 0.995052
0.998716 1.0016 0.995954
0.996283 1.00383 0.99807
1.00045 1.00253 0.991415
1.00018 1.00301 0.991397
0.998902 1.00296 0.993691
1.00031 1.00251 0.991665
0.999051 1.00383 0.992703
0.997237 1.00425 0.99516
0.996809 1.0047 0.996157
0.999214 1.00295 0.993189
1.00027 1.00218 0.99203
0.999975 1.0028 0.991999
1.00013 1.00228 0.992329
0.999764 1.00201 0.993164
1.0001 1.00242 0.992158
0.999709 1.00217 0.993069
1.0002 1.00162 0.992626
1.00051 1.00314 0.990398
1.00023 1.00259 0.991881
1.00014 1.00398 0.990619
1.00104 1.00417 0.988191
1.00112 1.0045 0.987986
0.999952 1.00482 0.990098
1.00067 1.00486 0.988492
0.999885 1.00351 0.991496
0.99975 1.00449 0.990842
0.999408 1.00493 0.990731
0.999739 1.00376 0.991589
0.999856 1.00282 0.992065
1.00007 1.00174 0.992849
1.00002 1.00244 0.992308
1.00013 1.00154 0.992974
1.0002 1.00021 0.994133
1.00019 1.00142 0.993007
1.00024 1.00012 0.994158
1.00003 0.998135 0.996973
1.00025 1.00011 0.994157
1.00009 0.998078 0.996678
0.999942 0.996819 0.998127
1.00014 0.99802 0.996376
0.999987 0.996735 0.998645
0.999996 0.996701 0.999192
1.00024 1.00158 0.992589
1.00018 1.00001 0.994193
1.00016 1.00144 0.993056
1.00016 0.997719 0.996663
1.00014 0.999847 0.99451
1.00008 1.00129 0.993152
1.00003 0.996418 0.999277
1.00016 0.997639 0.996758
1.00011 0.999738 0.99476
1.00003 0.996389 0.999287
1.00015 0.997617 0.996789
1.00002 0.996424 0.999286
0.99486 0.995819 0.933903
0.994939 0.996532 0.914062
0.999877 0.99602 0.924087
1.00038 1.00236 0.991701
0.994665 0.99837 0.935375
0.995278 0.999944 0.918515
0.995279 0.998298 0.903192
0.998319 0.997143 0.980222
0.999696 0.997624 0.955145
0.998414 0.998743 0.914981
0.994742 0.999586 0.898208
0.995829 0.998421 0.973704
0.997493 0.999088 0.955085
0.997377 0.9999 0.921122
0.994751 0.998032 0.904723
0.994894 0.998672 0.969949
0.995382 1.00058 0.954336
0.994851 0.999933 0.925098
0.994809 0.996813 0.910385
1.0002 1.0037 0.990678
1.00008 1.00349 0.99111
1.00008 1.00288 0.991821
1.00034 1.00286 0.991246
1.00032 1.00294 0.991283
1.00018 1.0027 0.991795
1.00032 1.00236 0.991962
1.00024 1.0023 0.992194
1.00057 0.9991 0.994052
1.002 0.997295 0.993493
0.999999 1.00411 0.990636
1.00075 1.00348 0.990511
1.00001 1.00515 0.990119
0.999896 1.00471 0.990291
1 1.00452 0.990221
0.998503 0.99798 0.995751
0.999852 1.0051 0.989984
0.999837 1.00382 0.991215
0.998655 0.998383 0.999062
0.999979 1.0043 0.990355
0.997082 0.998578 0.995846
0.996879 0.99972 1.00138
0.999609 1.00488 0.990617
0.999976 1.00497 0.990049
0.994473 0.995316 0.957156
0.994729 0.997427 0.936516
0.994808 0.997098 0.914223
0.998005 1.00242 0.996173
0.996306 1.00309 0.997339
0.995156 0.995807 0.935743
0.995694 0.999993 0.956323
0.994845 0.999011 0.977742
0.994859 0.999963 0.924593
0.994645 0.997749 0.932031
0.99478 0.997367 0.913316
0.996682 1.00326 0.997878
0.99447 0.994895 0.953098
0.994614 0.996749 0.939597
0.994931 1.00257 0.997191
0.994771 0.998086 0.904891
0.995137 0.999376 0.954219
0.99521 1.00001 0.9274
0.995599 1.00405 0.99839
0.994442 0.994728 0.958167
0.994642 0.998452 0.93559
0.994758 0.999182 0.90082
0.995769 0.999947 0.924252
0.995057 0.998778 0.98805
0.995802 1.00097 0.946805
0.998764 1.00119 0.995697
0.996408 1.00404 0.997547
0.995461 1.00425 1.00012
1.00024 1.00241 0.991749
0.999057 1.00376 0.992726
0.99761 1.00384 0.994702
0.999282 1.00289 0.993157
0.996835 1.00415 0.99608
0.997789 1.00405 0.99501
0.999898 1.00204 0.993088
1.00007 1.00235 0.992171
0.999862 1.00228 0.993025
0.999395 1.0041 0.991297
0.999679 1.00198 0.993165
1.00032 1.00299 0.990765
1.00121 1.00425 0.988285
1.00296 1.00318 0.986131
1.00048 1.00389 0.990465
1.00124 1.00428 0.987943
1.00194 1.00349 0.988279
1.0001 1.00493 0.989212
1.00116 1.00438 0.988213
0.999771 1.00434 0.990784
1 1.0048 0.990072
1.00052 1.0048 0.988636
1.00003 1.00217 0.992484
0.99985 1.00349 0.991476
0.999694 1.00457 0.990762
0.999891 1.00278 0.99215
1.00009 1.00173 0.992841
1.00015 1.00038 0.994056
1.00015 1.00153 0.992972
1.00021 1.0002 0.994132
0.999981 0.998254 0.996446
1.00025 1.00012 0.994157
1.00005 0.99813 0.996441
0.999814 0.996923 0.999216
1.00011 0.998053 0.996407
0.999926 0.996826 0.998659
0.999949 0.996777 0.999197
1.00028 1.00169 0.992409
1.00023 1.00022 0.993885
1.00024 1.00159 0.992673
1.00016 0.997854 0.996525
1.00018 1.00002 0.994155
1.00017 1.00145 0.993055
1.00001 0.996511 0.999253
1.00016 0.997718 0.99667
1.00014 0.99986 0.994394
1.00003 0.996407 0.999281
1.00015 0.997638 0.996762
1.00003 0.996394 0.999287
0.994525 0.994983 0.953768
0.994884 0.996949 0.933693
0.994925 0.997409 0.914214
1.00036 1.00238 0.991773
1.00035 1.00229 0.991774
1.00039 1.00267 0.991457
0.994663 0.996785 0.934736
0.994629 0.997947 0.935279
0.995487 1.00023 0.918018
0.995376 0.998048 0.97607
0.99844 0.999866 0.947441
0.9952 0.999903 0.928621
0.994772 0.998424 0.901798
0.995125 0.998156 0.973023
0.99639 1.00001 0.95222
0.994798 0.999965 0.926579
0.994787 0.997018 0.911678
0.994892 0.998548 0.969046
0.995601 1.00002 0.955736
0.994873 0.999996 0.924432
0.994762 0.998279 0.908684
1.00034 1.00338 0.990736
1.00021 1.00366 0.990684
1.00011 1.00351 0.991031
1.00035 1.00288 0.991227
1.00031 1.00291 0.991391
1.00035 1.00234 0.991982
0.998265 0.998509 0.996207
0.998446 0.998201 0.999076
1.00004 1.0045 0.990279
1.0003 1.00304 0.991279
0.999943 1.00512 0.989946
1.00009 1.00433 0.990215
0.999806 1.00495 0.990068
0.996968 0.998081 0.996218
0.999597 1.00443 0.991204
0.996581 1.00046 1.0009
1.00003 1.00434 0.99062
0.99564 0.997763 0.996727
0.996953 1.00271 0.997739
0.999203 1.00516 0.991427
0.994363 0.995403 0.963527
0.994403 0.995308 0.958863
0.994701 0.997738 0.937142
0.996898 1.00321 0.997746
0.995257 1.00243 0.99482
0.994474 0.995074 0.953013
0.994992 0.999306 0.958242
0.994884 0.999987 0.920886
0.994573 0.996575 0.944074
0.994784 0.998496 0.902066
0.99551 1.00446 0.998693
0.994426 0.994711 0.959838
0.994624 0.998006 0.9355
0.994926 0.999078 0.983786
0.994753 0.999415 0.896655
0.994825 0.999972 0.925677
0.995514 1.00075 0.954737
0.994886 1.00342 0.999039
0.99452 0.994763 0.954159
0.995184 0.999865 0.919485
0.994664 0.998104 0.900915
0.996085 0.998927 0.917869
0.99616 0.999999 0.954591
0.995715 1.00002 0.977407
0.996706 1.0043 0.997082
0.995513 1.00319 1.00011
0.996523 1.00323 0.998483
0.999358 1.0028 0.993124
0.996725 1.00368 0.996009
0.997239 1.00424 0.995265
0.999317 1.00306 0.993259
1.00002 1.00242 0.992981
1.00018 1.00391 0.990907
1.00101 1.0049 0.987942
1.0001 1.00287 0.991138
1.00131 1.00423 0.988091
1.00317 1.00431 0.985319
1.00456 1.00256 0.983931
1.00252 1.00284 0.986904
1.00293 1.00348 0.985962
1.00143 1.00435 0.987697
1.00147 1.00368 0.988844
1.00163 1.00319 0.98878
0.999881 1.00494 0.989694
1.00021 1.00494 0.989318
1.0012 1.00426 0.988443
0.999946 1.0031 0.991685
0.999869 1.00424 0.990795
1.00004 1.00476 0.990045
1.00009 1.00067 0.993866
1.00006 1.00216 0.992473
0.999817 1.00348 0.991457
1.00012 1.00173 0.992833
1.00016 1.00038 0.994054
0.999896 0.998437 0.996412
1.00021 1.0002 0.994132
0.999985 0.998251 0.996445
0.999748 0.997081 0.999208
1.00006 0.998117 0.996438
0.999845 0.996948 0.998674
0.999887 0.996871 0.999203
1.00034 1.00173 0.992401
1.00029 1.00037 0.993816
1.0003 1.00168 0.992455
1.00015 0.998026 0.996367
1.00023 1.00022 0.993961
1.00025 1.00161 0.992757
0.99998 0.99665 0.999221
1.00016 0.99785 0.996535
1.00019 1.00003 0.994118
1.00002 0.99649 0.999261
1.00016 0.997718 0.996677
1.00003 0.9964 0.999284
0.994451 0.994653 0.957939
0.99446 0.994717 0.953683
0.994911 0.997143 0.933585
1.00026 1.00241 0.991785
1.00019 1.00292 0.991544
1.00031 1.00239 0.991846
1.00033 1.00232 0.991782
1.00034 1.00271 0.991428
1.00027 1.00263 0.991644
1.00048 1.00273 0.991255
0.994619 0.997696 0.931718
0.994634 0.996837 0.939258
0.994593 0.997499 0.935184
0.99477 0.997178 0.912965
0.994852 0.998508 0.970274
0.995301 1.00003 0.951
0.994841 0.999959 0.929797
0.994926 0.998744 0.968415
0.995122 1.00003 0.949718
0.995091 0.999982 0.928509
0.994748 0.998036 0.913177
0.995736 0.997111 0.972303
0.995053 1.00065 0.948794
0.99481 0.999938 0.920732
0.994741 0.999529 0.901265
0.999984 1.00347 0.991285
1.00033 1.00338 0.990736
1.00021 1.00364 0.99069
1.00037 1.00289 0.991209
0.997016 0.998015 0.996599
0.996505 1.00103 1.00043
1.00009 1.00436 0.990075
0.999818 1.00493 0.990087
0.99976 1.00394 0.991795
0.999899 1.00422 0.990645
0.999092 1.00518 0.991406
0.995551 0.998839 0.994192
0.9965 1.00358 0.998048
0.998669 1.00458 0.992369
0.995368 0.999098 0.992578
0.997719 1.00477 0.995968
0.994456 0.995064 0.957508
0.994339 0.995008 0.965805
0.994336 0.995004 0.960567
0.995297 1.00485 0.998933
0.995056 0.997655 0.989027
0.994424 0.994642 0.961527
0.996692 1.00101 0.947354
0.995125 0.999962 0.928759
0.994606 0.997569 0.935407
0.994723 0.999586 0.898569
0.994997 1.00192 0.999423
0.994457 0.994724 0.95409
0.995428 0.999754 0.918979
0.994898 1.00074 0.979129
0.994662 0.998052 0.892821
0.997359 0.999898 0.920777
0.994975 1 0.949131
0.995389 1.00376 0.99376
0.995083 0.995366 0.934654
0.995205 0.997515 0.903564
0.998656 0.997528 0.923484
0.995549 0.999969 0.955137
0.994901 0.999469 0.972128
0.995748 1.00191 0.999997
0.995983 1.004 0.998484
0.998406 0.999939 0.998075
0.996726 1.00442 0.99552
0.998427 1.00329 0.993677
1.00271 1.00029 0.989885
1.00098 1.00367 0.990516
1.00132 1.00486 0.9878
1.00274 1.00336 0.985687
1.00144 1.00425 0.987898
1.00312 1.00438 0.985095
1.00424 1.00293 0.984054
1.00506 1.00106 0.984326
1.00479 1.0027 0.984052
1.00472 1.00257 0.983682
1.00206 1.00304 0.987492
1.00251 1.00292 0.987148
1.00292 1.00383 0.985791
1.001 1.00445 0.988641
1.00136 1.00361 0.988866
1.00133 1.00291 0.989278
1.00002 1.00416 0.990509
0.999947 1.00488 0.98981
1.00034 1.00494 0.989425
0.999994 1.00132 0.993345
1.00003 1.00299 0.991681
0.999955 1.00415 0.990806
0.999807 0.998649 0.996352
1.00009 1.00069 0.993854
1.0001 1.00215 0.992461
1.00016 1.00037 0.994052
0.999897 0.998444 0.996408
0.999655 0.997269 0.9992
0.999988 0.998246 0.996443
0.999738 0.997114 0.999206
0.999813 0.996983 0.999209
1.00026 1.0025 0.991764
1.00038 1.00181 0.992275
1.00032 1.00054 0.993585
1.00034 1.00174 0.992391
1.00012 0.998237 0.996199
1.00028 1.00038 0.993814
1.00028 1.00172 0.992502
0.999936 0.996824 0.999183
1.00015 0.998025 0.996376
1.00024 1.00022 0.994038
0.999986 0.996618 0.999231
1.00016 0.997848 0.996544
1.00002 0.996463 0.999269
0.994431 0.994619 0.953045
0.994438 0.994679 0.959648
0.994396 0.994775 0.953593
1.00031 1.00236 0.991809
1.00014 1.00296 0.991505
1.00005 1.00328 0.991293
1.00013 1.00286 0.991533
1.00018 1.00335 0.991201
1.00031 1.00235 0.99179
1.0003 1.00276 0.991398
1.00027 1.00261 0.991639
1.00042 1.00277 0.991283
1.00014 1.0029 0.991686
0.995069 0.999504 0.919134
0.994624 0.99787 0.931641
0.994604 0.996922 0.943778
0.994762 0.997786 0.913277
0.994885 0.999978 0.921428
0.9949 0.998959 0.967053
0.99497 1.00027 0.955257
0.995025 0.997431 0.968999
0.995382 1.00035 0.955318
0.99485 0.999969 0.926562
0.994952 0.999374 0.899075
0.995194 0.995465 0.97373
0.99493 1.00045 0.956229
0.995613 0.999891 0.928129
0.994938 0.998181 0.89972
0.999008 1.00258 0.993737
0.999962 1.00358 0.99133
1.00031 1.00342 0.990736
0.995385 0.999479 0.991619
0.99601 1.00437 0.998322
0.999858 1.00417 0.990671
0.998696 1.00522 0.991385
0.998705 1.00455 0.992414
0.997126 1.00444 0.995906
0.995053 0.999448 0.992855
0.996857 1.00317 0.996614
0.995918 1.00069 0.992512
0.994826 0.997121 0.935762
0.994387 0.995045 0.959168
0.994294 0.994789 0.968087
0.995084 1.00058 0.99986
0.994907 1.00075 0.974816
0.994398 0.994732 0.95401
0.996932 1.00018 0.952441
0.995241 0.999911 0.928232
0.995598 1.00011 0.918489
0.994675 0.998148 0.884679
0.995407 1.00378 0.994117
0.995033 0.996347 0.934441
0.995315 0.997933 0.901188
0.994902 0.999489 0.973214
0.998578 0.998845 0.923709
0.996344 0.999981 0.951186
0.99621 1.00094 0.991731
0.995017 0.996028 0.911918
0.999287 0.997508 0.926454
0.997878 0.998529 0.949207
0.994839 0.998085 0.974398
0.995554 1.00465 0.998462
0.998253 1.00008 0.998026
1.003 0.998399 0.992895
0.997591 1.00343 0.994053
1.00172 1.00074 0.990394
1.0039 0.998466 0.988408
1.00164 1.00477 0.987657
1.00282 1.00346 0.98575
1.00441 1.00049 0.985935
1.00308 1.00441 0.984873
1.00417 1.0028 0.984134
1.00501 0.99992 0.985528
1.0051 0.999407 0.985889
1.0051 1.00158 0.983775
1.00505 1.001 0.984375
1.00414 1.00247 0.985066
1.00459 1.0026 0.98391
1.00486 1.00255 0.983435
1.00174 1.00386 0.98776
1.002 1.00302 0.9878
1.00249 1.00301 0.987395
1.00064 1.00418 0.989412
1.00087 1.00442 0.988748
1.00125 1.00355 0.988886
0.999945 1.00243 0.992294
1.0001 1.00404 0.990516
1.00002 1.00483 0.989925
0.999711 0.998997 0.996705
1.00002 1.00134 0.99332
1.00011 1.0029 0.991677
0.999574 0.99751 0.998084
0.999804 0.998695 0.996598
1.00009 1.0007 0.993842
0.999898 0.998453 0.996404
0.999647 0.99731 0.999195
0.999728 0.997145 0.999204
1.00019 1.00286 0.991489
1.00037 1.00201 0.992104
1.00023 1.00257 0.991731
1.00032 1.00071 0.99341
1.00035 1.00186 0.99227
1.00008 0.998452 0.996053
1.00032 1.00055 0.993584
1.00036 1.00174 0.99238
0.999881 0.997033 0.999143
1.00012 0.998232 0.996208
1.00028 1.00039 0.993811
0.999942 0.996789 0.999195
1.00014 0.998023 0.996386
0.999992 0.99659 0.999241
0.995339 0.995234 0.936816
0.994457 0.994748 0.95297
0.994437 0.99465 0.961367
1.00017 1.00314 0.991304
1.00032 1.00238 0.991833
1.0001 1.00301 0.991466
1.00018 1.00287 0.991567
1.00014 1.00321 0.991338
1.00012 1.00334 0.991215
1.00011 1.00369 0.990849
0.999958 1.00346 0.991134
1.00032 1.00257 0.991635
1.00035 1.00278 0.991312
1.0001 1.00295 0.991633
0.999485 1.00334 0.992707
0.995219 0.998675 0.902052
0.995409 0.99965 0.918531
0.994633 0.99805 0.931565
0.995185 0.999194 0.903104
0.99493 0.999943 0.926195
0.994971 1.00065 0.94884
0.995743 0.997433 0.966792
0.995337 0.99562 0.9755
0.994766 0.998163 0.891994
0.995115 1.00004 0.952408
0.997299 0.999882 0.920714
0.994986 0.996488 0.976635
0.995642 1.00003 0.956738
0.999206 0.997678 0.920774
0.998933 1.00114 0.995483
0.999213 1.0025 0.993707
0.999931 1.00367 0.991374
0.994883 0.999578 0.993107
0.996852 1.00406 0.995846
0.9988 1.00452 0.992458
0.997958 1.00295 0.996379
0.995555 1.00092 0.992641
0.997274 1.00078 0.99364
0.994854 0.998939 0.910861
0.994822 0.996092 0.94008
0.994293 0.994913 0.960828
0.995314 1.00443 0.994494
0.994898 0.999331 0.973831
0.994939 0.996748 0.934309
0.995279 1 0.950285
0.998659 0.997465 0.916155
0.995538 0.997847 0.904019
0.996348 1.00135 0.991755
0.99508 0.996112 0.914919
0.999839 0.996658 0.919918
0.994859 0.998219 0.970421
0.997514 0.998605 0.955781
0.998038 0.999199 0.993829
0.999859 0.99579 0.919787
0.999521 0.997857 0.955295
0.994881 0.997524 0.969929
0.998038 1.00041 0.998044
1.00221 0.997696 0.993515
1.00396 0.998237 0.99017
1.00078 1.00116 0.990906
1.00363 0.999093 0.988326
1.00475 0.997678 0.987927
1.00287 1.00352 0.985813
1.00422 1.00063 0.985925
1.00494 0.99806 0.987502
1.00408 1.0027 0.984212
1.00501 0.999834 0.98552
1.0051 0.997708 0.987583
1.00514 0.998021 0.987229
1.00512 1.00024 0.98511
1.0051 0.99934 0.985928
1.00505 1.0011 0.984417
1.00505 1.0015 0.983961
1.00505 1.00094 0.984422
1.00303 1.00307 0.986198
1.00379 1.00248 0.985209
1.00437 1.00249 0.983768
1.0015 1.00358 0.988461
1.00181 1.0038 0.987735
1.00195 1.00297 0.988106
1.00026 1.00313 0.991085
1.00068 1.00414 0.989421
1.00075 1.00438 0.988854
0.99965 0.999571 0.995656
1.00005 1.00233 0.992275
1.0002 1.00393 0.990523
0.999461 0.997748 0.999166
0.999706 0.999075 0.996119
1.00004 1.00135 0.993294
0.999563 0.997507 0.999179
0.999797 0.998726 0.996319
0.99964 0.997355 0.99919
1.00033 1.00292 0.991298
1.00023 1.00285 0.991475
1.00034 1.00231 0.991836
1.00029 1.00093 0.993256
1.00033 1.00205 0.992104
1.00023 1.00258 0.991698
1.00002 0.998653 0.995957
1.00032 1.00072 0.993411
1.00033 1.00189 0.992265
0.999818 0.99724 0.999109
1.00008 0.998445 0.996061
1.00031 1.00056 0.993583
0.999888 0.996989 0.999155
1.00012 0.998228 0.996218
0.999949 0.996749 0.999206
0.995268 0.997977 0.904597
0.995182 0.995393 0.936628
0.994473 0.994891 0.952893
1.00006 1.0033 0.991263
1.00047 1.00335 0.990882
1.00004 1.00367 0.990955
1.00021 1.00288 0.9916
1.00022 1.00313 0.991383
1.00001 1.00338 0.991228
1.00006 1.00343 0.991119
1.00008 1.00373 0.990854
1 1.00419 0.990616
1.00003 1.00136 0.993019
1.00017 1.00287 0.991581
0.999549 1.00306 0.99257
0.999825 0.996785 0.916977
0.995168 0.998674 0.897934
0.995652 0.999863 0.917958
0.994674 0.998161 0.884199
0.996644 0.998724 0.927716
0.994908 1.00005 0.952391
0.995545 0.995347 0.973079
0.994895 0.996834 0.974879
0.99856 0.998765 0.922761
0.996296 1 0.950672
0.99535 0.99824 0.975445
0.999062 0.998229 0.948919
1.00192 0.998845 0.992901
0.999165 1.00107 0.995236
0.999371 1.00239 0.99369
0.994992 1.0013 0.992741
0.998736 1.00266 0.996135
0.997782 1.00098 0.993006
1.0003 0.999094 0.989895
0.999918 0.994847 0.925203
0.994899 0.998007 0.912408
0.994764 0.995303 0.944324
0.996494 1.00151 0.991886
0.994869 0.998295 0.969078
0.995186 0.996746 0.915051
0.998292 0.998069 0.948497
0.999847 0.997285 0.927306
0.997861 0.999116 0.991953
0.999899 0.9955 0.923754
1.00131 0.997 0.947458
0.994899 0.997177 0.973117
0.999137 0.996325 0.993512
1.00006 0.996316 0.954634
0.995898 0.997731 0.975456
1.00144 0.996915 0.994107
1.00383 0.997474 0.990136
1.00499 0.996873 0.989191
1.00323 0.999737 0.988247
1.00455 0.997784 0.98792
1.00482 0.996748 0.988763
1.00407 1.00081 0.985917
1.00481 0.998158 0.98746
1.00507 0.996083 0.989078
1.00501 0.999754 0.985512
1.0051 0.997659 0.98758
1.00513 0.996382 0.988883
1.00512 0.997215 0.988243
1.00514 0.997875 0.987398
1.00516 0.998881 0.986521
1.00515 1.00032 0.985127
1.00512 1.00025 0.985126
1.00511 0.999273 0.985966
1.00443 1.0014 0.985176
1.00492 1.00112 0.984509
1.00501 1.0014 0.984146
1.00237 1.00328 0.987232
1.00308 1.00305 0.986176
1.00343 1.00252 0.985352
1.0008 1.00303 0.990209
1.00159 1.00353 0.988438
1.00188 1.00375 0.987709
0.99971 1.00032 0.994783
1.00035 1.00299 0.991087
1.00076 1.00406 0.989431
0.999463 0.998002 0.999068
0.999649 0.999667 0.995611
1.00014 1.00225 0.992256
0.999492 0.997771 0.998583
0.999699 0.999132 0.996099
0.999564 0.997574 0.999167
1.00045 1.00293 0.991058
1.00021 1.00301 0.99131
1.00025 1.00274 0.991519
1.00028 1.00284 0.991461
1.00029 1.00237 0.991836
1.00023 1.00124 0.993038
0.999942 0.998856 0.995903
1.00028 1.00093 0.993262
1.00028 1.0021 0.992105
0.999748 0.997426 0.999085
1.00002 0.998647 0.995962
1.00031 1.00073 0.993413
0.999824 0.997203 0.999119
1.00008 0.998443 0.996068
0.999895 0.996947 0.999167
0.999876 0.995219 0.925122
0.995285 0.998154 0.905688
0.995162 0.995497 0.936427
0.999959 1.00348 0.991221
0.999976 1.0039 0.990817
1.00028 1.00333 0.991071
1.00113 1.00344 0.989537
1 1.00432 0.990495
1.00013 1.00344 0.991104
1.00006 1.00374 0.99086
0.999923 1.00403 0.990775
1.00017 1.00382 0.989756
1.00071 1.0012 0.992285
1.00407 0.999315 0.988135
0.999832 1.0015 0.993342
0.999723 1.00274 0.992432
1.00012 0.997183 0.954076
0.999803 0.997091 0.919933
0.995138 0.998461 0.899146
0.999067 0.998578 0.914722
0.995784 0.999955 0.953988
0.994981 0.996727 0.976961
0.995079 0.998148 0.97753
0.997445 0.998471 0.957047
0.996382 0.998626 0.976257
1.0038 0.996575 0.991286
1.00144 0.999102 0.992963
0.999393 1.00106 0.994978
0.99833 1.00099 0.992427
1.00136 0.999685 0.988386
1.00002 0.995134 0.951399
0.999913 0.994889 0.928296
0.995012 0.996912 0.914039
0.997578 0.999148 0.99005
0.994848 0.997025 0.970212
0.999877 0.995873 0.924662
0.999867 0.997882 0.955186
0.998701 0.997706 0.993866
1.00137 0.996099 0.953961
0.996102 0.997477 0.972314
1.00091 0.997754 0.991908
0.999279 0.996368 0.980487
1.00365 0.99668 0.990137
1.00498 0.996308 0.989106
1.00503 0.995618 0.989932
1.00439 0.997951 0.987913
1.00474 0.996774 0.988739
1.00507 0.995278 0.989936
1.00467 0.998258 0.987418
1.00506 0.996128 0.989058
1.00513 0.995247 0.989898
1.00511 0.997612 0.987576
1.00513 0.996392 0.988844
1.0051 0.996279 0.989233
1.00512 0.997017 0.988372
1.00515 0.997944 0.987509
1.00513 0.997729 0.987567
1.00516 0.998899 0.986505
1.00517 0.999509 0.985914
1.005 1.00021 0.985422
1.00515 1.00037 0.9851
1.00513 1.00026 0.985142
1.0036 1.002 0.986346
1.00445 1.00142 0.985171
1.00479 1.00116 0.984602
1.00139 1.00281 0.989351
1.00242 1.00322 0.98721
1.00313 1.00304 0.986153
0.999929 1.00084 0.993847
1.00086 1.00298 0.990204
1.00163 1.00353 0.988415
0.99951 0.99839 0.998885
0.99974 1.00035 0.994754
1.00045 1.00285 0.99109
0.999499 0.99807 0.999017
0.999653 0.999758 0.995565
0.999523 0.997807 0.99911
1.00122 1.00304 0.989554
1.00049 1.00284 0.991048
1.00031 1.00299 0.991068
1.00011 1.00306 0.991322
1.00022 1.00281 0.991468
1.00019 1.0017 0.992632
1.00025 1.0024 0.991836
1.00022 1.00123 0.993047
0.999848 0.999098 0.995835
0.999677 0.997593 0.999072
0.999945 0.998838 0.995909
1.00027 1.00092 0.993267
0.999754 0.997404 0.999092
1.00002 0.998644 0.995968
0.999831 0.997161 0.999128
1.00077 0.995028 0.957413
0.9999 0.995801 0.92377
0.995163 0.998527 0.903363
0.999914 1.00413 0.99068
1.00013 1.00326 0.99126
1.00006 1.00427 0.990547
1.00103 1.00339 0.989635
1.00187 1.004 0.987659
1.00033 1.00403 0.989777
0.99984 1.00391 0.990934
1.00058 1.00387 0.989407
1.00057 1.0016 0.992086
1.00218 1.00108 0.988959
1.00414 0.998847 0.989138
1.00459 0.997402 0.988711
1.00355 0.999181 0.988848
0.999457 1.00185 0.993667
0.99574 0.997717 0.975516
1.00047 0.996417 0.952506
0.999048 0.997318 0.927077
0.998593 0.99895 0.948855
0.994863 0.998322 0.978829
0.996541 0.998558 0.980679
1.00054 0.998277 0.992225
1.00381 0.996341 0.991553
1.00126 0.999269 0.993027
1.00268 1.00034 0.986813
0.997466 0.996856 0.976675
1.0005 0.995176 0.959166
0.999887 0.994868 0.921492
0.998407 0.99856 0.994122
0.996064 0.996911 0.97443
1.00071 0.996358 0.953093
1.00089 0.997864 0.992042
0.998663 0.996618 0.97953
1.00352 0.997171 0.991065
1.00361 0.997074 0.989052
1.00493 0.995784 0.988999
1.00501 0.995531 0.989878
1.0051 0.994858 0.990456
1.00469 0.996774 0.988714
1.00506 0.995267 0.989902
1.00508 0.995015 0.990372
1.00505 0.996169 0.989036
1.00513 0.995338 0.989868
1.00511 0.995757 0.989757
1.00513 0.996402 0.988805
1.0051 0.996267 0.989135
1.00513 0.997127 0.988262
1.00513 0.996823 0.988499
1.00514 0.997818 0.987668
1.00517 0.998976 0.986488
1.00515 0.998918 0.986489
1.00517 0.999566 0.985882
1.00506 0.999764 0.985939
1.00442 1.00041 0.986216
1.00502 1.00029 0.98543
1.00515 1.00043 0.985072
1.00232 1.00205 0.988481
1.00355 1.00198 0.986363
1.00448 1.00144 0.985166
1.00013 1.00131 0.992997
1.00143 1.00283 0.989335
1.00248 1.00316 0.987188
0.999612 0.99886 0.998614
0.999989 1.00083 0.993837
1.00093 1.00293 0.990197
0.99957 0.998493 0.998791
0.999764 1.0004 0.994726
0.999547 0.998139 0.998952
1.00181 1.00363 0.987921
1.00128 1.00305 0.989583
1.00084 1.00306 0.99013
1.00048 1.00279 0.991037
1.00037 1.00298 0.990983
1.0003 1.00214 0.992034
1.00018 1.00287 0.991417
1.00018 1.00171 0.992639
0.999762 0.999449 0.99564
1.00021 1.00123 0.993055
0.999856 0.999058 0.995846
0.999616 0.997755 0.999053
0.999682 0.997576 0.999077
0.999948 0.99882 0.995915
0.999759 0.997374 0.999099
0.996707 0.996673 0.977213
1.00073 0.995224 0.950326
0.999876 0.994954 0.928763
1.00362 1.00261 0.985867
1.00014 1.00422 0.990598
1.00093 1.00335 0.989735
1.00051 1.00407 0.989632
1.00175 1.00401 0.987627
1.00218 1.00189 0.988667
1.00097 1.00391 0.989058
1.00045 1.00194 0.991889
1.00243 1.00104 0.989096
1.00414 0.998684 0.988788
1.00479 0.998045 0.987566
1.0042 0.99616 0.990777
1.0045 0.997337 0.988406
1.00296 0.998957 0.989561
0.999955 0.998353 0.993662
0.996062 0.997836 0.973844
1.00024 0.996437 0.951441
0.996707 0.998187 0.978461
1.00057 0.99737 0.994353
1.00333 0.99621 0.991801
1.00157 0.996357 0.98909
0.996894 0.995845 0.978627
1.00004 0.995034 0.951571
1.00063 0.998395 0.992209
0.998675 0.996894 0.978238
1.00332 0.996733 0.991314
1.00353 0.996654 0.989248
1.00483 0.994913 0.991013
1.00465 0.996884 0.990769
1.00503 0.995425 0.989829
1.0051 0.994894 0.990366
1.00509 0.994884 0.990413
1.00504 0.995267 0.989869
1.00506 0.994996 0.990366
1.00512 0.995365 0.990051
1.00514 0.995429 0.989837
1.00512 0.995724 0.989694
1.00511 0.996704 0.98873
1.0051 0.996254 0.989037
1.00512 0.997142 0.988263
1.00518 0.998411 0.986968
1.00514 0.997692 0.987828
1.00517 0.99888 0.986604
1.0051 0.999519 0.986027
1.00517 0.99962 0.98585
1.00506 0.999779 0.985857
1.00459 0.999965 0.986491
1.00314 1.00087 0.988197
1.00436 1.00047 0.986298
1.00505 1.00038 0.985439
1.00056 1.0013 0.992266
1.00229 1.00208 0.98849
1.0035 1.00197 0.98638
0.999656 0.999357 0.998352
1.00029 1.00115 0.992976
1.00146 1.00283 0.98932
0.999659 0.998952 0.99852
1.00006 1.00078 0.993826
0.999633 0.998577 0.998691
1.00311 1.00284 0.986161
1.00177 1.00365 0.98795
1.00151 1.00332 0.988844
1.00134 1.00306 0.989612
1.00088 1.00303 0.990146
1.00047 1.00256 0.991351
1.00043 1.00297 0.990898
1.00021 1.00226 0.992033
0.999721 0.999932 0.995225
1.00015 1.00174 0.992646
0.999774 0.999385 0.995661
0.999578 0.997956 0.998994
0.999865 0.999021 0.995857
0.999616 0.997736 0.999061
0.999686 0.997562 0.99908
1.00092 0.997003 0.991941
0.997051 0.996057 0.973558
1.00011 0.995135 0.958274
1.0034 1.00098 0.986988
1.00503 0.999164 0.986396
1.00351 1.00233 0.986013
1.00067 1.00412 0.989485
1.00163 1.00401 0.987585
1.00246 1.00182 0.988451
1.00506 0.998296 0.987538
1.00267 1.001 0.98923
1.00408 0.99853 0.988434
1.00474 0.998057 0.987823
1.00502 0.996938 0.988493
1.00446 0.995564 0.990806
1.00426 0.996305 0.99042
1.00459 0.997348 0.988101
1.0001 0.998516 0.993781
0.996026 0.997945 0.971754
1.00074 0.99674 0.996518
1.00442 0.995291 0.992021
1.00129 0.996732 0.989241
0.997187 0.995264 0.976057
1.00334 0.99638 0.991539
1.00347 0.996729 0.989465
1.00485 0.994973 0.991192
1.00473 0.996164 0.99064
1.00512 0.994932 0.990299
1.00511 0.995088 0.990361
1.0051 0.994965 0.990274
1.00509 0.994896 0.990407
1.00518 0.995218 0.990004
1.00506 0.99497 0.99036
1.00511 0.995402 0.98996
1.00511 0.996217 0.989155
1.00513 0.995694 0.989631
1.00511 0.996715 0.988734
1.00517 0.998067 0.987334
1.00512 0.997159 0.988264
1.00517 0.998417 0.986984
1.00513 0.999367 0.986129
1.00517 0.998781 0.986719
1.0051 0.999493 0.986053
1.00467 0.99987 0.986453
1.00507 0.999799 0.985775
1.00457 0.999974 0.986447
1.00344 1.00024 0.988281
1.00095 1.00086 0.991946
1.00311 1.0009 0.988202
1.0043 1.00054 0.986381
0.999691 0.999872 0.998111
1.00063 1.00124 0.992243
1.00225 1.00215 0.9885
0.999702 0.999482 0.998262
1.00041 1.00106 0.992952
0.999705 0.999049 0.998429
1.00458 1.00043 0.985783
1.00314 1.00274 0.986119
1.00251 1.00302 0.987214
1.00174 1.00366 0.987979
1.00143 1.00333 0.988877
1.00083 1.00289 0.990441
1.00091 1.003 0.990162
1.00039 1.00265 0.991354
0.999809 1.00045 0.994575
1.00015 1.00235 0.992032
0.999728 0.999867 0.995248
0.999568 0.998261 0.998861
0.999786 0.999324 0.995682
0.999569 0.997924 0.999018
0.999618 0.997722 0.999068
1.00456 0.995028 0.991494
1.00104 0.996572 0.99064
0.996497 0.995545 0.974114
1.0051 0.998212 0.987247
1.00354 1.00051 0.987326
1.00515 0.998539 0.986911
1.00501 0.999332 0.98638
1.00338 1.00204 0.986169
1.0051 0.997487 0.987811
1.00274 1.00173 0.988242
1.00504 0.99834 0.987345
1.00514 0.996164 0.98892
1.00471 0.99811 0.988082
1.00495 0.997028 0.988434
1.00448 0.995653 0.99092
1.00415 0.996378 0.990052
1.00006 0.998675 0.993899
1.0051 0.995093 0.990062
1.00443 0.99579 0.992075
1.00105 0.99677 0.989369
1.00486 0.995033 0.991378
1.00476 0.995407 0.990515
1.00511 0.994945 0.990352
1.00512 0.994992 0.990327
1.00518 0.995018 0.990233
1.00508 0.994903 0.990402
1.00518 0.995195 0.990024
1.00516 0.995962 0.989421
1.00511 0.99544 0.98987
1.00512 0.996292 0.989072
1.00516 0.997846 0.987595
1.00511 0.996727 0.988738
1.00517 0.998079 0.98734
1.00515 0.999208 0.98626
1.00517 0.998422 0.987
1.00512 0.999362 0.986148
1.00474 0.99983 0.986369
1.0051 0.999466 0.986078
1.00466 0.999877 0.986462
1.00355 1.00009 0.988242
1.00456 0.99998 0.986402
1.00344 1.00025 0.988267
1.00107 1.00045 0.993368
0.999921 0.999991 0.995424
1.00101 1.00081 0.992593
1.00308 1.00093 0.988206
0.999754 0.999972 0.998027
1.00076 1.00111 0.992227
0.999752 0.999581 0.998162
1.0052 0.998546 0.986868
1.00507 0.999367 0.98624
1.00461 1.00044 0.985843
1.00374 1.00147 0.986436
1.00315 1.00265 0.986077
1.00248 1.00309 0.987218
1.00152 1.00277 0.98928
1.00136 1.00335 0.988911
1.00075 1.00292 0.990469
1.00004 1.00095 0.993711
1.00031 1.00275 0.991357
0.999772 1.00044 0.994588
0.999564 0.998714 0.998644
0.999735 0.9998 0.995269
0.999546 0.998196 0.998914
0.999564 0.997895 0.999038
1.00514 0.995479 0.989619
1.00476 0.995027 0.991733
1.00141 0.996028 0.989351
1.00512 0.997717 0.98757
1.00503 0.99826 0.98724
1.00371 1.00007 0.98765
1.00515 0.99859 0.986875
1.00501 0.999497 0.986364
1.00511 0.996414 0.989136
1.00508 0.9975 0.987722
1.00502 0.998394 0.987152
1.00513 0.996165 0.988941
1.00494 0.997092 0.988376
1.00454 0.995808 0.991056
1.00516 0.995118 0.990328
1.00512 0.995132 0.990193
1.00446 0.996308 0.992132
1.00511 0.994914 0.990401
1.00514 0.994963 0.990292
1.00519 0.994973 0.990253
1.00515 0.99597 0.989539
1.00518 0.995177 0.990043
1.00516 0.995968 0.989381
1.00512 0.997672 0.987857
1.00512 0.99637 0.98899
1.00516 0.997849 0.987595
1.00517 0.99905 0.986414
1.00517 0.998092 0.987347
1.00515 0.999205 0.986271
1.00481 0.999808 0.986273
1.00511 0.999357 0.986166
1.00474 0.99983 0.986377
1.00365 1.00007 0.988097
1.00466 0.999884 0.986472
1.00356 1.00008 0.988236
1.00117 1.00013 0.993534
1.00343 1.00026 0.988254
1.00121 1.00036 0.993331
0.999912 1.00003 0.995546
0.999799 1.00021 0.996663
1.00115 1.00073 0.993133
0.9998 1.00009 0.997954
1.00518 0.998197 0.987262
1.00511 0.999083 0.986483
1.0052 0.998395 0.986953
1.00453 0.999999 0.986528
1.00508 0.999363 0.986212
1.00463 1.00046 0.985903
1.00379 1.00148 0.986407
1.0025 1.0018 0.988387
1.00244 1.00315 0.987222
1.00149 1.00273 0.989299
1.00037 1.00132 0.992768
1.00066 1.00295 0.990498
0.999922 1.00104 0.993731
0.99955 0.999349 0.998363
0.999729 1.00045 0.9946
0.999539 0.998616 0.998729
0.999535 0.998135 0.998959
1.00512 0.995664 0.98968
1.00515 0.995504 0.989609
1.00487 0.995007 0.99194
1.00513 0.997129 0.98835
1.00512 0.997741 0.987568
1.00495 0.998308 0.987234
1.00515 0.998647 0.98684
1.00511 0.996404 0.989007
1.00507 0.997519 0.987632
1.00512 0.996164 0.988963
1.00519 0.995884 0.989581
1.00516 0.995174 0.990221
1.00515 0.995132 0.990323
1.00512 0.996554 0.988885
1.00519 0.994934 0.990272
1.00515 0.996031 0.989443
1.0051 0.997432 0.988283
1.00517 0.995976 0.989341
1.00512 0.997665 0.987862
1.00516 0.998901 0.986582
1.00516 0.997856 0.987596
1.00516 0.99905 0.986424
1.00488 0.999751 0.986216
1.00514 0.999201 0.986282
1.00481 0.999803 0.986284
1.00373 1.00008 0.987923
1.00474 0.999829 0.986385
1.00365 1.00006 0.988097
1.00126 1.00002 0.993512
1.00356 1.00007 0.98823
1.00128 1.00008 0.993465
0.999932 0.999938 0.995625
1.00133 1.00026 0.993301
0.999691 1.00019 0.995668
0.999477 1.00048 0.998127
1.00516 0.998141 0.987257
1.00514 0.998852 0.986669
1.00518 0.998217 0.987173
1.0047 0.999623 0.986952
1.00511 0.998977 0.986519
1.00521 0.998246 0.987038
1.0033 1.00055 0.98816
1.00455 0.999963 0.986517
1.0051 0.999358 0.986184
1.00384 1.00149 0.986379
1.00253 1.00176 0.988378
1.00074 1.00124 0.992108
1.00145 1.00271 0.989319
1.00022 1.00144 0.992801
0.999575 1.00005 0.998081
0.99982 1.00112 0.993749
0.99952 0.999211 0.998473
0.99952 0.998506 0.998804
1.00515 0.99648 0.988856
1.00513 0.995569 0.989716
1.00514 0.995538 0.989599
1.00512 0.997062 0.988392
1.00512 0.997759 0.987567
1.00511 0.996392 0.988877
1.00515 0.99668 0.988869
1.00519 0.995938 0.98951
1.00515 0.995228 0.990114
1.00512 0.996567 0.988971
1.00511 0.997519 0.988051
1.00515 0.996087 0.989347
1.00509 0.997538 0.988082
1.00516 0.998582 0.986952
1.00511 0.997653 0.987865
1.00515 0.99889 0.98659
1.00494 0.99965 0.986206
1.00515 0.999042 0.986433
1.00487 0.999749 0.986227
1.00383 1.00007 0.987749
1.0048 0.999798 0.986294
1.00374 1.00007 0.987927
1.00133 1.00007 0.99334
1.00366 1.00004 0.988097
1.00136 0.999985 0.99342
0.999997 0.999907 0.995566
1.00138 1.00003 0.993406
0.999736 1 0.99577
0.999485 1.00037 0.995773
1.00515 0.997563 0.98793
1.00516 0.998828 0.98659
1.00516 0.998003 0.987398
1.0048 0.99942 0.986812
1.00514 0.998909 0.986613
1.00518 0.998234 0.987084
1.00357 0.999958 0.988296
1.00468 0.999526 0.98683
1.00511 0.99887 0.986555
1.00104 1.00071 0.992021
1.00332 1.00054 0.98816
1.00457 0.999928 0.986507
1.00255 1.00174 0.988369
1.00065 1.00134 0.992125
0.999637 1.00053 0.997923
1.00009 1.00155 0.992832
0.999515 0.999902 0.998187
0.999496 0.999053 0.998574
1.00513 0.996806 0.98864
1.00515 0.996461 0.98889
1.00514 0.995476 0.989751
1.00512 0.996998 0.988435
1.00513 0.997603 0.987967
1.00515 0.996664 0.988897
1.00518 0.995992 0.98944
1.00511 0.996582 0.989056
1.00511 0.997454 0.988109
1.00514 0.998493 0.987136
1.00509 0.997642 0.987881
1.00516 0.998701 0.986808
1.00499 0.999395 0.986345
1.00514 0.998887 0.986598
1.00493 0.99965 0.986216
1.00393 1.00003 0.987594
1.00485 0.999751 0.986238
1.00383 1.00006 0.987753
1.00144 1.00012 0.991913
1.00374 1.00006 0.987931
1.00142 1.00004 0.992645
0.999957 0.999949 0.997925
1.00145 0.999962 0.993331
0.999822 0.999902 0.995723
0.999553 1.00007 0.995896
1.00514 0.997429 0.98814
1.00517 0.998609 0.986878
1.00515 0.997641 0.987883
1.00491 0.999245 0.986535
1.00517 0.998818 0.986643
1.00516 0.997865 0.987539
1.00371 0.999744 0.987985
1.00481 0.999434 0.986819
1.00515 0.998967 0.986558
1.0012 1.00017 0.99224
1.00358 0.999909 0.988177
1.00466 0.999423 0.986707
0.999685 1.00056 0.997935
1.00101 1.00074 0.992022
1.00334 1.00053 0.988159
1.00055 1.00139 0.992153
0.999589 1.00039 0.997967
0.99946 0.99973 0.998296
1.00513 0.997521 0.988018
1.00513 0.996821 0.988637
1.00514 0.996441 0.988923
1.00515 0.998461 0.987089
1.00512 0.997543 0.988021
1.00514 0.996646 0.988926
1.00511 0.997383 0.988167
1.00514 0.998475 0.987142
1.00497 0.999279 0.986716
1.00516 0.998821 0.986664
1.00498 0.999489 0.986381
1.00402 0.999879 0.987365
1.00492 0.999645 0.986226
1.00393 1.00003 0.987597
1.00151 1.00012 0.991776
1.00383 1.00006 0.987757
1.00144 1.00012 0.991907
0.999986 0.999974 0.997883
1.00144 1.00002 0.992026
0.999888 0.999934 0.996795
0.999648 0.999879 0.995877
1.00514 0.997717 0.987824
1.00517 0.998498 0.986928
1.00514 0.99741 0.98815
1.00495 0.999291 0.986513
1.00517 0.998653 0.986798
1.00515 0.99772 0.987835
1.00387 0.999622 0.987812
1.00491 0.999324 0.986621
1.00517 0.99881 0.986695
1.00133 0.999906 0.992283
1.00372 0.999745 0.987958
1.00481 0.999448 0.986826
0.999785 1.0003 0.997982
1.0012 1.00016 0.992244
1.00358 0.99986 0.988059
0.999691 1.00048 0.997914
1.00099 1.00076 0.992022
0.999507 1.0003 0.998038
1.00515 0.998323 0.987242
1.00513 0.997555 0.987963
1.00513 0.996837 0.988634
1.00494 0.999151 0.986893
1.00515 0.998407 0.987164
1.00512 0.99749 0.988075
1.00514 0.998457 0.987147
1.00497 0.999283 0.986713
1.00401 0.999761 0.987488
1.00497 0.999586 0.986417
1.00401 0.99992 0.987437
1.00158 1.00007 0.991693
1.00393 1.00002 0.987601
1.00151 1.00012 0.991771
1.00002 1 0.997818
1.00144 1.00012 0.9919
0.999996 0.999986 0.997856
0.999959 0.999881 0.995507
1.00517 0.99846 0.987021
1.00514 0.997589 0.987912
1.00496 0.999236 0.986574
1.00517 0.998506 0.986924
1.00514 0.997389 0.98816
1.00393 0.999684 0.98793
1.00494 0.999293 0.986507
1.00517 0.998695 0.986718
1.00146 0.99984 0.992119
1.00387 0.999671 0.987896
1.00491 0.999408 0.986707
0.999932 1.00006 0.997948
1.00133 0.999898 0.992292
1.00373 0.99974 0.987931
0.99977 1.00031 0.997964
1.0012 1.00016 0.992245
0.999665 1.00046 0.997907
1.00492 0.999109 0.986968
1.00516 0.998365 0.987188
1.00513 0.997592 0.987908
1.00395 0.999687 0.987679
1.00494 0.999164 0.986894
1.00515 0.998349 0.987239
1.00498 0.999287 0.986711
1.00402 0.999756 0.987463
1.0016 1.00003 0.991713
1.00401 0.999959 0.98751
1.00158 1.00007 0.991692
1.00008 1.00001 0.99777
1.00151 1.00012 0.991767
1.00004 1.00001 0.997803
1.00001 0.999995 0.997832
1.00495 0.999182 0.986659
1.00517 0.998333 0.98714
1.00514 0.997461 0.988001
1.00393 0.999702 0.987913
1.00495 0.999238 0.986565
1.00517 0.998514 0.98692
1.00152 0.999919 0.991947
1.00393 0.999691 0.987925
1.00494 0.999295 0.986501
1.00003 0.999946 0.997871
1.00146 0.999855 0.992123
1.00387 0.999712 0.987979
0.999884 1.0001 0.997967
1.00132 0.999904 0.992302
0.999776 1.0003 0.997938
1.00391 0.999733 0.987932
1.00492 0.999072 0.986888
1.00516 0.998405 0.987134
1.00155 0.999986 0.991844
1.00396 0.999675 0.987656
1.00494 0.999176 0.986895
1.00404 0.999748 0.987438
1.00159 1.00002 0.991721
1.00011 1.00001 0.997734
1.00157 1.00007 0.991692
1.00009 1.00001 0.997751
1.00005 1.00001 0.997788
1.00392 0.999706 0.987933
1.00494 0.999108 0.986703
1.00517 0.998208 0.98726
1.0016 0.999995 0.993036
1.00394 0.999699 0.98791
1.00494 0.999241 0.986557
1.00006 0.999947 0.997806
1.00152 0.999939 0.991951
1.00393 0.999699 0.987919
1 0.99998 0.997901
1.00145 0.999882 0.992129
0.999856 1.00011 0.997978
1.00156 0.999979 0.991862
1.00392 0.99969 0.987845
1.00492 0.999034 0.986808
1.00008 1 0.997757
1.00154 0.999988 0.991847
1.00397 0.999666 0.987632
1.00158 1.00002 0.991725
1.0001 1.00001 0.997738
1.00011 1.00002 0.99774
1.00165 0.999984 0.992996
1.00393 0.999701 0.987932
1.00493 0.999032 0.986747
0.999785 0.999984 0.998075
1.00153 0.999998 0.991876
1.00395 0.999695 0.987907
1.00005 0.999959 0.997836
1.00152 0.99996 0.991955
0.999971 1 0.99793
1.00004 1 0.995339
1.00158 0.999977 0.992461
1.00392 0.99965 0.987757
1.00008 1 0.997762
1.00154 0.999988 0.991854
1.00011 1.00001 0.997736
0.999754 1 0.995631
1.00158 0.999985 0.992446
1.00393 0.999698 0.987932
0.999912 0.999984 0.996704
1.00153 0.999994 0.991882
1.00004 0.999972 0.997863
1.00005 0.999994 0.997777
1.00151 0.99998 0.991924
1.00005 0.999999 0.99777
0.999902 0.999994 0.99671
1.00153 0.999989 0.991903
1.00006 0.999972 0.997814
1.00005 0.999989 0.99779
1.00004 0.999984 0.997795

TENSORS stress float
0.00158983 -7.12007e-05 0.000148153
-7.12007e-05 0.000564067 -1.81184e-05
0.000148153 -1.81184e-05 0.000543225
0.00481111 -0.000111572 0.00014029
-0.000111572 0.00243222 1.19404e-05
0.00014029 1.19404e-05 0.00241483
0.00145237 3.45425e-06 7.29807e-05
3.45425e-06 0.000497838 -6.43727e-06
7.29807e-05 -6.43727e-06 0.000466739
0.00173984 -4.4755e-05 0.000148406
-4.4755e-05 0.000628613 -1.19857e-05
0.000148406 -1.19857e-05 0.000609866
0.00165355 -6.45524e-05 0.000144464
-6.45524e-05 0.000594827 -1.66253e-05
0.000144464 -1.66253e-05 0.000574877
0.00144702 -6.37829e-05 0.000147737
-6.37829e-05 0.000479932 -1.73158e-05
0.000147737 -1.73158e-05 0.000460953
0.00142314 -3.7018e-05 1.83452e-05
-3.7018e-05 0.000404176 -7.96819e-06
1.83452e-05 -7.96819e-06 0.000330056
0.00462297 -0.000136132 8.46647e-06
-0.000136132 0.00232434 -1.19418e-06
8.46647e-06 -1.19418e-06 0.00230715
0.00507473 -2.24917e-05 4.97486e-05
-2.24917e-05 0.00254443 2.39428e-06
4.97486e-05 2.39428e-06 0.00253151
0.00476842 -0.000297395 -1.07123e-05
-0.000297395 0.00244619 5.58199e-06
-1.07123e-05 5.58199e-06 0.00239368
0.00155049 2.70994e-05 0.00013066
2.70994e-05 0.000541201 1.06349e-05
0.00013066 1.06349e-05 0.000530578
0.000738846 0.000135971 1.78398e-05
0.000135971 2.89395e-05 1.16126e-05
1.78398e-05 1.16126e-05 -4.52403e-05
0.00163175 -2.5315e-05 0.000162618
-2.5315e-05 0.00056054 1.87673e-06
0.000162618 1.87673e-06 0.000545984
0.00126621 -2.35691e-05 1.81549e-05
-2.35691e-05 0.000370444 1.3825e-06
1.81549e-05 1.3825e-06 0.000336516
0.00138951 2.46506e-05 -1.70102e-05
2.46506e-05 0.000461876 4.26794e-06
-1.70102e-05 4.26794e-06 0.000428296
0.00149302 -4.10966e-05 5.6516e-05
-4.10966e-05 0.000496716 -3.29115e-06
5.6516e-05 -3.29115e-06 0.000471672
0.0014147 2.35336e-05 7.83687e-05
2.35336e-05 0.000484295 -5.6014e-06
7.83687e-05 -5.6014e-06 0.000448633
0.00146138 -1.74557e-05 6.44467e-05
-1.74557e-05 0.000490476 -6.29308e-06
6.44467e-05 -6.29308e-06 0.00046505
0.0014868 -8.25022e-05 -2.75296e-05
-8.25022e-05 0.000427302 2.20105e-06
-2.75296e-05 2.20105e-06 0.000362371
0.00520767 -0.000103849 0.000179036
-0.000103849 0.0026236 -4.16439e-06
0.000179036 -4.16439e-06 0.00262079
0.00172244 -2.93682e-05 0.000151663
-2.93682e-05 0.000615524 -9.10699e-06
0.000151663 -9.10699e-06 0.000596881
0.00172364 -5.67718e-05 0.000145811
-5.67718e-05 0.000625233 -1.45189e-05
0.000145811 -1.45189e-05 0.000606249
0.00145966 -7.73475e-05 3.71502e-05
-7.73475e-05 0.00038713 -5.64806e-06
3.71502e-05 -5.64806e-06 0.000323183
0.00143629 -5.63986e-05 2.67972e-05
-5.63986e-05 0.000391095 -6.97481e-06
2.67972e-05 -6.97481e-06 0.00032538
0.00123755 -2.88104e-05 0.000126634
-2.88104e-05 0.000359398 -1.37549e-05
0.000126634 -1.37549e-05 0.000344531
0.00133454 -1.76128e-05 1.13256e-05
-1.76128e-05 0.000377253 -9.19852e-06
1.13256e-05 -9.19852e-06 0.000294269
0.00198587 -0.00018833 1.1363e-05
-0.00018833 0.000580646 -4.36507e-06
1.1363e-05 -4.36507e-06 0.000459357
0.00444079 -0.000173653 -0.000108407
-0.000173653 0.00222751 -7.28323e-06
-0.000108407 -7.28323e-06 0.0022055
0.00326829 1.96854e-05 -8.54441e-05
1.96854e-05 0.00151755 -5.05621e-06
-8.54441e-05 -5.05621e-06 0.0014989
0.00308069 -8.93747e-05 -7.496e-05
-8.93747e-05 0.00144171 -2.11008e-06
-7.496e-05 -2.11008e-06 0.0014123
0.00415705 -0.000142679 7.72046e-06
-0.000142679 0.00205372 -6.34491e-07
7.72046e-06 -6.34491e-07 0.00204061
0.000633854 0.000121963 -6.81002e-07
0.000121963 -2.72183e-05 -4.40032e-07
-6.81002e-07 -4.40032e-07 -9.96901e-05
0.00153203 4.82415e-05 0.000151261
4.82415e-05 0.000513835 1.07342e-05
0.000151261 1.07342e-05 0.000495448
0.00172659 0.000104305 0.000153449
0.000104305 0.000638828 1.5143e-05
0.000153449 1.5143e-05 0.000619377
0.00251287 0.000148951 9.34736e-05
0.000148951 0.000993248 1.11309e-05
9.34736e-05 1.11309e-05 0.000936533
0.00332319 -0.00018106 1.15199e-05
-0.00018106 0.00158351 2.17639e-06
1.15199e-05 2.17639e-06 0.00156328
0.00254424 0.000159631 8.93308e-05
0.000159631 0.00104167 1.21504e-05
8.93308e-05 1.21504e-05 0.000981276
0.000689895 8.30462e-05 1.63567e-05
8.30462e-05 1.11128e-05 1.39498e-05
1.63567e-05 1.39498e-05 -5.24977e-05
0.000949845 0.000148705 7.47275e-06
0.000148705 8.35464e-05 4.04469e-06
7.47275e-06 4.04469e-06 -4.97651e-05
0.00278148 -0.000101865 6.81345e-05
-0.000101865 0.00125416 2.49584e-06
6.81345e-05 2.49584e-06 0.0012571
0.00526058 5.16858e-05 4.1151e-06
5.16858e-05 0.00264297 -9.89168e-07
4.1151e-06 -9.89168e-07 0.00264587
0.00327161 3.37323e-05 -6.90376e-05
3.37323e-05 0.00151101 -2.2056e-06
-6.90376e-05 -2.2056e-06 0.00149496
0.00522324 5.61729e-05 0.000177495
5.61729e-05 0.00262363 1.3216e-06
0.000177495 1.3216e-06 0.00262597
0.00131241 3.47097e-05 2.07393e-05
3.47097e-05 0.000395004 1.44725e-06
2.07393e-05 1.44725e-06 0.000363058
0.000720715 3.724e-06 1.60688e-05
3.724e-06 -6.23896e-05 1.80578e-06
1.60688e-05 1.80578e-06 -0.000128733
0.00497396 0.00015796 7.8905e-05
0.00015796 0.00249991 6.40105e-06
7.8905e-05 6.40105e-06 0.00248048
0.00258188 3.99698e-05 9.34231e-05
3.99698e-05 0.00100259 5.43412e-06
9.34231e-05 5.43412e-06 0.000954561
0.00118857 -7.04286e-05 -3.38374e-05
-7.04286e-05 0.000337972 4.44992e-06
-3.38374e-05 4.44992e-06 0.000302851
0.00128818 -2.84219e-05 -2.84516e-05
-2.84219e-05 0.000396906 4.31857e-06
-2.84516e-05 4.31857e-06 0.00036667
0.00144666 9.59249e-05 -3.1858e-06
9.59249e-05 0.000516671 5.85413e-06
-3.1858e-06 5.85413e-06 0.000469673
0.00150493 -0.000100339 -8.01665e-05
-0.000100339 0.000430159 1.13902e-05
-8.01665e-05 1.13902e-05 0.000370658
0.00332332 2.05369e-05 -7.45066e-05
2.05369e-05 0.00154662 -1.17873e-06
-7.45066e-05 -1.17873e-06 0.00152679
0.00149248 -3.71049e-05 6.30604e-05
-3.71049e-05 0.000494417 -2.49556e-06
6.30604e-05 -2.49556e-06 0.000468603
0.00125369 3.36445e-05 6.4828e-05
3.36445e-05 0.000389993 -4.5081e-06
6.4828e-05 -4.5081e-06 0.000360536
0.00148853 -3.34957e-05 5.89797e-05
-3.34957e-05 0.000496156 -5.0566e-06
5.89797e-05 -5.0566e-06 0.000472516
0.00150284 -7.31757e-05 -2.1955e-05
-7.31757e-05 0.000407829 7.70706e-07
-2.1955e-05 7.70706e-07 0.000347863
0.00143115 -6.34233e-05 -3.16204e-05
-6.34233e-05 0.000416997 1.38816e-06
-3.16204e-05 1.38816e-06 0.000345156
0.00149209 -8.5992e-05 -2.30098e-05
-8.5992e-05 0.000417575 1.65976e-06
-2.30098e-05 1.65976e-06 0.000356733
0.00198733 -0.000186687 -5.34551e-06
-0.000186687 0.000580503 1.4935e-06
-5.34551e-06 1.4935e-06 0.000459555
0.00518088 5.51455e-05 0.000170051
5.51455e-05 0.0026009 -1.30775e-07
0.000170051 -1.30775e-07 0.00260314
0.00171873 -1.37128e-05 0.000154494
-1.37128e-05 0.000612743 -6.17263e-06
0.000154494 -6.17263e-06 0.000594636
0.00236612 4.16512e-05 2.19457e-05
4.16512e-05 0.000893042 -1.129e-06
2.19457e-05 -1.129e-06 0.000836322
0.00145939 -6.99298e-05 3.19322e-05
-6.99298e-05 0.000381677 -4.29513e-06
3.19322e-05 -4.29513e-06 0.00031777
0.00145835 -7.09223e-05 3.36372e-05
-7.09223e-05 0.000390195 -6.27079e-06
3.36372e-05 -6.27079e-06 0.000327091
0.00195913 -0.000115524 1.04639e-05
-0.000115524 0.000514104 -2.45954e-06
1.04639e-05 -2.45954e-06 0.000406448
0.00155234 -0.000147254 1.3152e-05
-0.000147254 0.000311083 -4.63263e-06
1.3152e-05 -4.63263e-06 0.000195054
0.00110237 2.42587e-05 9.15404e-05
2.42587e-05 0.000283879 -1.01292e-05
9.15404e-05 -1.01292e-05 0.000270011
0.00094474 1.14888e-05 8.7236e-06
1.14888e-05 0.000186007 -7.99793e-06
8.7236e-06 -7.99793e-06 0.000115132
0.00189513 -0.000194983 9.8556e-06
-0.000194983 0.000568542 -4.78809e-06
9.8556e-06 -4.78809e-06 0.00043933
0.00125579 -0.000173499 7.20578e-06
-0.000173499 7.50789e-05 -1.42377e-06
7.20578e-06 -1.42377e-06 -7.22328e-05
0.00525923 6.64677e-05 -0.00017816
6.64677e-05 0.00264549 -1.18386e-05
-0.00017816 -1.18386e-05 0.00264586
0.00389436 -0.000157044 -9.44567e-05
-0.000157044 0.00190554 -4.23226e-06
-9.44567e-05 -4.23226e-06 0.00189174
0.0048509 -0.000125465 -0.000133275
-0.000125465 0.00244794 -8.73936e-06
-0.000133275 -8.73936e-06 0.00243321
0.000523264 0.000119412 -1.66373e-05
0.000119412 -8.76628e-05 -1.18421e-05
-1.66373e-05 -1.18421e-05 -0.000158508
0.00528796 0.000109478 -2.66217e-06
0.000109478 0.00265916 -1.44376e-06
-2.66217e-06 -1.44376e-06 0.00265866
0.00527196 -9.34905e-06 -8.13709e-06
-9.34905e-06 0.00266569 -2.16582e-07
-8.13709e-06 -2.16582e-07 0.00266001
0.000578906 0.00011078 -3.92145e-07
0.00011078 -0.000108522 -2.30436e-07
-3.92145e-07 -2.30436e-07 -0.000182093
0.00223191 -0.000104316 -4.08751e-05
-0.000104316 0.000948326 -2.78605e-07
-4.08751e-05 -2.78605e-07 0.000932712
0.000582077 0.000146937 -1.18621e-06
0.000146937 -7.42875e-05 -1.74956e-07
-1.18621e-06 -1.74956e-07 -0.000149756
0.0013399 6.13439e-05 2.6454e-05
6.13439e-05 0.000392089 3.44535e-07
2.6454e-05 3.44535e-07 0.000336532
0.000899786 0.000141681 4.49224e-07
0.000141681 5.29731e-05 -3.45153e-07
4.49224e-07 -3.45153e-07 -7.90752e-05
0.00317994 -0.000102826 9.01765e-05
-0.000102826 0.00148178 3.549e-06
9.01765e-05 3.549e-06 0.00148335
0.000607725 -6.27939e-05 3.27845e-08
-6.27939e-05 4.87625e-06 6.36593e-06
3.27845e-08 6.36593e-06 -2.94094e-05
0.000694349 7.98705e-05 1.70151e-05
7.98705e-05 -6.11405e-05 7.95137e-06
1.70151e-05 7.95137e-06 -0.000131153
0.000721956 0.000129687 2.13987e-05
0.000129687 -1.54185e-05 1.28193e-05
2.13987e-05 1.28193e-05 -9.27074e-05
0.00104003 0.000126917 1.19816e-05
0.000126917 2.32775e-06 4.67951e-06
1.19816e-05 4.67951e-06 -0.000122925
0.00199251 2.29758e-07 5.35175e-05
2.29758e-07 0.000777347 6.58176e-06
5.35175e-05 6.58176e-06 0.000738044
0.000979065 0.000149121 9.42003e-06
0.000149121 4.2237e-05 4.96647e-06
9.42003e-06 4.96647e-06 -8.93149e-05
0.000958278 0.000137191 6.34959e-06
0.000137191 0.000146451 4.43147e-06
6.34959e-06 4.43147e-06 1.71874e-05
0.000947107 0.000176733 3.45844e-06
0.000176733 2.85797e-05 5.57665e-07
3.45844e-06 5.57665e-07 -0.0001375
0.00248622 -0.000102074 4.18745e-05
-0.000102074 0.00108236 2.47422e-06
4.18745e-05 2.47422e-06 0.00108538
0.00265288 -0.00011401 4.8244e-06
-0.00011401 0.00118371 -3.21817e-07
4.8244e-06 -3.21817e-07 0.00118335
0.00527434 4.70928e-06 -0.000171293
4.70928e-06 0.00264827 -6.87437e-06
-0.000171293 -6.87437e-06 0.0026501
0.00526888 4.47371e-05 -0.000179159
4.47371e-05 0.00264674 -3.5327e-06
-0.000179159 -3.5327e-06 0.00265008
0.00525877 7.72349e-05 -1.11971e-07
7.72349e-05 0.00265012 -1.67963e-06
-1.11971e-07 -1.67963e-06 0.00264834
0.00327368 -7.80315e-07 -8.40415e-05
-7.80315e-07 0.00151066 -2.3581e-06
-8.40415e-05 -2.3581e-06 0.00149652
0.00164629 2.24642e-05 3.97945e-05
2.24642e-05 0.000467306 5.64796e-07
3.97945e-05 5.64796e-07 0.000410452
0.00330914 7.40955e-05 -6.9912e-05
7.40955e-05 0.00153282 -3.26056e-06
-6.9912e-05 -3.26056e-06 0.00151586
0.00166333 5.69025e-05 3.83286e-05
5.69025e-05 0.000482682 1.16102e-06
3.83286e-05 1.16102e-06 0.000423818
0.00524373 0.000142993 0.000181183
0.000142993 0.00265142 3.7379e-06
0.000181183 3.7379e-06 0.00264335
0.000653469 3.29366e-06 1.7064e-05
3.29366e-06 -9.90938e-05 4.00883e-07
1.7064e-05 4.00883e-07 -0.000164601
0.00261081 1.07513e-05 9.44793e-05
1.07513e-05 0.00101708 3.58408e-06
9.44793e-05 3.58408e-06 0.000970122
0.0010952 2.8697e-05 1.17451e-05
2.8697e-05 -4.1838e-06 1.29544e-06
1.17451e-05 1.29544e-06 -0.000116483
0.00250415 8.25281e-05 9.36002e-05
8.25281e-05 0.000966883 6.67852e-06
9.36002e-05 6.67852e-06 0.000916533
0.00110168 6.89248e-05 1.14961e-05
6.89248e-05 9.25304e-06 2.44389e-06
1.14961e-05 2.44389e-06 -0.000107227
0.00164315 3.18406e-05 -0.000160768
3.18406e-05 0.000569088 1.09544e-06
-0.000160768 1.09544e-06 0.000554697
0.00124587 2.74053e-06 -2.06781e-05
2.74053e-06 0.000361798 1.74125e-06
-2.06781e-05 1.74125e-06 0.000329703
0.0012793 0.000123843 1.37119e-06
0.000123843 0.000433392 6.24774e-06
1.37119e-06 6.24774e-06 0.00038379
0.00122495 -5.1077e-05 -3.48095e-05
-5.1077e-05 0.000356958 4.52659e-06
-3.48095e-05 4.52659e-06 0.000325618
0.00160264 -5.34554e-05 -8.01947e-05
-5.34554e-05 0.000457997 6.49955e-06
-8.01947e-05 6.49955e-06 0.000403699
0.00154223 -8.64179e-05 -7.87049e-05
-8.64179e-05 0.000440655 1.02302e-05
-7.87049e-05 1.02302e-05 0.000384306
0.00146525 -0.000100338 -8.02995e-05
-0.000100338 0.000424999 1.17124e-05
-8.02995e-05 1.17124e-05 0.000361845
0.0019976 -0.000186027 -2.14993e-05
-0.000186027 0.000585773 6.97618e-06
-2.14993e-05 6.97618e-06 0.000465042
0.00523947 -8.09963e-05 2.10619e-06
-8.09963e-05 0.00263987 -1.17849e-06
2.10619e-06 -1.17849e-06 0.00263767
0.00148201 4.51054e-05 7.20725e-05
4.51054e-05 0.00048715 -2.02707e-06
7.20725e-05 -2.02707e-06 0.000461793
0.00112958 3.41723e-06 -4.23934e-05
3.41723e-06 0.000176729 6.4577e-07
-4.23934e-05 6.4577e-07 0.000118318
0.00151967 -4.08002e-05 -2.60645e-05
-4.08002e-05 0.000410709 9.75746e-07
-2.60645e-05 9.75746e-07 0.000351722
0.00243654 6.66074e-05 9.30312e-05
6.66074e-05 0.00106088 -8.30842e-07
9.30312e-05 -8.30842e-07 0.00105075
0.0016222 -2.69849e-05 -2.46351e-05
-2.69849e-05 0.000559028 -7.70679e-07
-2.46351e-05 -7.70679e-07 0.000493548
0.00150688 -8.08782e-05 -2.12356e-05
-8.08782e-05 0.000415336 1.16231e-06
-2.12356e-05 1.16231e-06 0.000355714
0.00178774 -0.000107326 -7.41732e-06
-0.000107326 0.000415212 1.27206e-06
-7.41732e-06 1.27206e-06 0.000306447
0.00194481 -0.000198936 -4.42171e-06
-0.000198936 0.000597206 1.14692e-06
-4.42171e-06 1.14692e-06 0.000466839
0.00179486 -0.000156673 -2.83936e-06
-0.000156673 0.000448895 6.03525e-07
-2.83936e-06 6.03525e-07 0.000333596
0.00125902 -0.000172779 3.35971e-07
-0.000172779 7.7741e-05 2.21447e-07
3.35971e-07 2.21447e-07 -6.93806e-05
0.000687233 9.53806e-06 1.74152e-05
9.53806e-06 -7.99802e-05 -1.20007e-06
1.74152e-05 -1.20007e-06 -0.000143616
0.00145456 1.92464e-05 2.40218e-05
1.92464e-05 0.000373458 -2.50052e-06
2.40218e-05 -2.50052e-06 0.000311026
0.00160531 -2.43001e-05 1.2007e-05
-2.43001e-05 0.00029086 -1.0936e-06
1.2007e-05 -1.0936e-06 0.000186081
0.00158924 -8.34871e-05 1.18052e-05
-8.34871e-05 0.000296514 -2.21232e-06
1.18052e-05 -2.21232e-06 0.000187692
0.00155769 -0.000125348 1.2825e-05
-0.000125348 0.000294929 -3.71399e-06
1.2825e-05 -3.71399e-06 0.000182289
0.00175358 -0.000123953 3.08502e-06
-0.000123953 0.000304975 -7.34609e-07
3.08502e-06 -7.34609e-07 0.000173756
0.00347221 0.000134749 8.44296e-05
0.000134749 0.00165369 -2.76765e-06
8.44296e-05 -2.76765e-06 0.00164714
0.00130354 -0.000155808 6.30157e-06
-0.000155808 8.4317e-05 -2.09037e-06
6.30157e-06 -2.09037e-06 -5.71485e-05
0.000455999 -1.37963e-05 7.04006e-06
-1.37963e-05 -9.86951e-05 -9.16386e-06
7.04006e-06 -9.16386e-06 -0.000152129
0.000711002 -0.000129341 5.63714e-06
-0.000129341 -2.88345e-05 -5.2587e-06
5.63714e-06 -5.2587e-06 -0.000157291
0.00131771 -0.00019765 7.48727e-06
-0.00019765 0.000151155 -1.9047e-06
7.48727e-06 -1.9047e-06 -9.8747e-06
0.0013701 -0.000188579 4.20679e-06
-0.000188579 8.22584e-05 1.18485e-07
4.20679e-06 1.18485e-07 -7.40826e-05
0.000497141 2.68628e-05 3.44021e-06
2.68628e-05 -7.04588e-05 -7.83323e-06
3.44021e-06 -7.83323e-06 -0.000112793
0.000675077 3.10045e-06 1.08134e-06
3.10045e-06 2.07706e-05 -3.71443e-06
1.08134e-06 -3.71443e-06 -6.62545e-05
0.00529429 0.000117718 -0.000188772
0.000117718 0.00266474 -1.26399e-05
-0.000188772 -1.26399e-05 0.00266364
0.00509709 -2.73e-05 -0.000158098
-2.73e-05 0.00256581 -1.00145e-05
-0.000158098 -1.00145e-05 0.00256266
0.000576907 0.000102275 -1.67379e-05
0.000102275 -0.000110684 -9.0373e-06
-1.67379e-05 -9.0373e-06 -0.000184197
0.00338222 -0.000137619 -7.98424e-05
-0.000137619 0.00160626 -2.68529e-06
-7.98424e-05 -2.68529e-06 0.00159938
0.000473578 4.81579e-05 -9.17912e-06
4.81579e-05 -9.93004e-05 -1.05219e-05
-9.17912e-06 -1.05219e-05 -0.000157065
0.000517144 0.000135486 -1.81069e-05
0.000135486 -0.000107211 -1.14815e-05
-1.81069e-05 -1.14815e-05 -0.000183271
0.000866907 0.0001369 -7.56824e-06
0.0001369 3.24442e-05 -4.99527e-06
-7.56824e-06 -4.99527e-06 -9.86598e-05
0.00304504 -0.000116638 5.05016e-06
-0.000116638 0.00140887 -2.48045e-07
5.05016e-06 -2.48045e-07 0.00140765
0.000556619 -7.1868e-05 5.40913e-07
-7.1868e-05 -2.12906e-05 2.15301e-07
5.40913e-07 2.15301e-07 -5.67413e-05
0.00160905 0.000100202 3.7676e-05
0.000100202 0.000463387 1.90474e-06
3.7676e-05 1.90474e-06 0.000401069
0.0015404 0.000140973 3.56255e-05
0.000140973 0.000454493 1.51714e-06
3.56255e-05 1.51714e-06 0.000386256
0.0010462 0.000129179 1.57449e-07
0.000129179 6.81089e-06 -1.60434e-07
1.57449e-07 -1.60434e-07 -0.000118993
0.000626943 1.16933e-06 -5.73852e-07
1.16933e-06 -1.18715e-06 1.30968e-07
-5.73852e-07 1.30968e-07 -4.82132e-05
0.00097059 0.000148232 5.50974e-07
0.000148232 3.78208e-05 1.53587e-07
5.50974e-07 1.53587e-07 -9.35427e-05
0.000847709 0.000124477 1.77254e-07
0.000124477 8.29557e-05 -2.74874e-07
1.77254e-07 -2.74874e-07 -4.39454e-05
0.000911519 0.000174555 1.17584e-07
0.000174555 6.83231e-06 -1.17729e-07
1.17584e-07 -1.17729e-07 -0.000159564
0.000628188 -2.908e-05 4.83926e-06
-2.908e-05 1.0815e-05 7.28539e-06
4.83926e-06 7.28539e-06 -2.95024e-05
0.000623782 -7.24777e-05 -2.21451e-06
-7.24777e-05 8.57405e-06 5.45013e-06
-2.21451e-06 5.45013e-06 -2.02209e-05
0.000688688 1.74104e-05 2.30046e-06
1.74104e-05 4.16804e-05 3.57451e-06
2.30046e-06 3.57451e-06 -3.96443e-05
0.00107292 0.00010732 1.18266e-05
0.00010732 5.8743e-06 4.00322e-06
1.18266e-05 4.00322e-06 -0.000115894
0.00100533 0.000142676 1.11981e-05
0.000142676 1.30317e-05 5.02123e-06
1.11981e-05 5.02123e-06 -0.000116046
0.00132066 0.000162927 6.52617e-06
0.000162927 7.75841e-05 1.70079e-06
6.52617e-06 1.70079e-06 -7.39116e-05
0.000909551 0.000109663 5.07497e-06
0.000109663 0.000151018 4.26969e-06
5.07497e-06 4.26969e-06 3.46822e-05
0.000900269 0.000169154 4.35444e-06
0.000169154 -7.61509e-05 1.87169e-06
4.35444e-06 1.87169e-06 -0.000235725
0.00107345 0.000182084 2.81949e-06
0.000182084 0.000179402 1.56779e-06
2.81949e-06 1.56779e-06 1.009e-05
0.00127351 0.00021449 -2.99451e-06
0.00021449 0.000186137 -7.84233e-07
-2.99451e-06 -7.84233e-07 7.46671e-06
0.0023344 -9.08489e-05 3.4187e-05
-9.08489e-05 0.000988091 2.84853e-06
3.4187e-05 2.84853e-06 0.000994104
0.00241074 -0.000101672 2.22888e-06
-0.000101672 0.00103951 -2.33568e-07
2.22888e-06 -2.33568e-07 0.00104246
0.00253586 -0.000114011 -4.03378e-05
-0.000114011 0.00111825 -2.40564e-06
-4.03378e-05 -2.40564e-06 0.00111761
0.000513676 3.80555e-05 2.38127e-06
3.80555e-05 -6.02448e-05 -6.88565e-06
2.38127e-06 -6.88565e-06 -9.79375e-05
0.00324414 0.000124542 7.21862e-05
0.000124542 0.0015185 -2.72153e-06
7.21862e-05 -2.72153e-06 0.00151499
0.00528859 0.000141054 -0.000190657
0.000141054 0.00266577 -1.20041e-05
-0.000190657 -1.20041e-05 0.00266199
0.00524017 3.34664e-05 -0.000174452
3.34664e-05 0.00262876 -5.13468e-06
-0.000174452 -5.13468e-06 0.00263228
0.000682947 6.64869e-05 -1.76505e-05
6.64869e-05 -7.49538e-05 -4.3432e-06
-1.76505e-05 -4.3432e-06 -0.00014271
0.000665773 2.79095e-05 -1.76647e-05
2.79095e-05 -8.86951e-05 -2.12807e-06
-1.76647e-05 -2.12807e-06 -0.000155706
0.00522144 -3.41605e-05 -0.000171596
-3.41605e-05 0.00262106 -8.16687e-07
-0.000171596 -8.16687e-07 0.00262451
0.00521607 1.66322e-05 -5.76478e-07
1.66322e-05 0.00261878 2.29326e-07
-5.76478e-07 2.29326e-07 0.00262176
0.000648986 -1.30782e-06 -1.26654e-07
-1.30782e-06 -0.000102389 -1.92373e-07
-1.26654e-07 -1.92373e-07 -0.000167244
0.00162952 2.30935e-05 3.93077e-05
2.30935e-05 0.000459761 1.03434e-06
3.93077e-05 1.03434e-06 0.000403016
0.00110114 3.29117e-05 1.08401e-07
3.29117e-05 -6.47623e-07 -1.41018e-07
1.08401e-07 -1.41018e-07 -0.000113178
0.000654363 5.97307e-05 -1.68761e-07
5.97307e-05 -8.73193e-05 -1.94363e-07
-1.68761e-07 -1.94363e-07 -0.00015564
0.00109614 7.14138e-05 -5.27978e-08
7.14138e-05 6.45507e-06 -1.59363e-07
-5.27978e-08 -1.59363e-07 -0.000110442
0.000639137 -1.96075e-05 1.74056e-05
-1.96075e-05 -0.000109037 -5.18977e-07
1.74056e-05 -5.18977e-07 -0.000172722
0.00109667 1.25812e-05 1.15916e-05
1.25812e-05 -5.65705e-06 4.26664e-07
1.15916e-05 4.26664e-07 -0.000116879
0.00109408 4.93379e-05 1.16575e-05
4.93379e-05 -3.48422e-08 1.92506e-06
1.16575e-05 1.92506e-06 -0.000114096
0.00140325 4.17279e-05 4.05988e-06
4.17279e-05 6.33072e-05 3.74536e-07
4.05988e-06 3.74536e-07 -6.23574e-05
0.001095 8.72943e-05 1.15174e-05
8.72943e-05 1.0592e-05 3.16783e-06
1.15174e-05 3.16783e-06 -0.000108388
0.00139969 8.76016e-05 4.21009e-06
8.76016e-05 8.0066e-05 6.26546e-07
4.21009e-06 6.26546e-07 -5.33751e-05
0.00521057 -4.63314e-05 -0.00017925
-4.63314e-05 0.00261799 -3.76672e-07
-0.00017925 -3.76672e-07 0.0026194
0.00127594 -9.37676e-05 -2.07559e-05
-9.37676e-05 0.000382356 2.33515e-06
-2.07559e-05 2.33515e-06 0.000347668
-0.000192796 -6.86352e-07 -1.34324e-05
-6.86352e-07 -0.000577652 2.12929e-06
-1.34324e-05 2.12929e-06 -0.000650878
0.0015966 -3.63016e-05 -8.14222e-05
-3.63016e-05 0.000450424 4.80424e-06
-8.14222e-05 4.80424e-06 0.000395789
0.00361991 0.000212883 -1.04898e-05
0.000212883 0.00176842 2.50934e-06
-1.04898e-05 2.50934e-06 0.00173799
0.00229237 -0.000101144 -7.04588e-05
-0.000101144 0.000921667 1.06637e-05
-7.04588e-05 1.06637e-05 0.000865853
0.00158714 -7.12372e-05 -7.93115e-05
-7.12372e-05 0.000455645 8.50043e-06
-7.93115e-05 8.50043e-06 0.000400821
0.00159162 -9.85771e-05 -2.33199e-05
-9.85771e-05 0.000302071 4.46796e-06
-2.33199e-05 4.46796e-06 0.000192354
0.00202767 -0.0001658 -2.02495e-05
-0.0001658 0.000581453 6.09373e-06
-2.02495e-05 6.09373e-06 0.000466982
0.00203254 -0.000204852 -1.88914e-05
-0.000204852 0.000647998 7.24976e-06
-1.88914e-05 7.24976e-06 0.000516166
0.00125526 -0.000171644 -6.10397e-06
-0.000171644 7.66077e-05 1.74077e-06
-6.10397e-06 1.74077e-06 -7.02976e-05
0.000643251 8.80776e-06 -2.55551e-08
8.80776e-06 -0.00010421 -1.26823e-07
-2.55551e-08 -1.26823e-07 -0.000168205
0.00154889 -4.81405e-05 -2.6738e-05
-4.81405e-05 0.000423955 2.87127e-07
-2.6738e-05 2.87127e-07 0.000365099
0.00117841 -2.08407e-05 -5.3875e-06
-2.08407e-05 4.79315e-05 2.43609e-07
-5.3875e-06 2.43609e-07 -6.07065e-05
0.00181509 -8.61952e-05 -3.79054e-06
-8.61952e-05 0.000423101 5.3481e-07
-3.79054e-06 5.3481e-07 0.000315963
0.00352547 0.000127972 -2.59211e-06
0.000127972 0.00168363 -4.21172e-07
-2.59211e-06 -4.21172e-07 0.00167816
0.00130217 -2.22589e-05 1.28219e-06
-2.22589e-05 0.000383449 5.77028e-07
1.28219e-06 5.77028e-07 0.000326696
0.00128165 -0.000158971 5.81797e-07
-0.000158971 0.000295673 -9.68194e-07
5.81797e-07 -9.68194e-07 0.000166423
0.00157422 -0.000124509 -4.15373e-06
-0.000124509 0.000304311 8.2051e-07
-4.15373e-06 8.2051e-07 0.000191708
0.00147308 -0.000114818 -2.63543e-06
-0.000114818 0.000144239 5.65336e-07
-2.63543e-06 5.65336e-07 1.20939e-05
0.00103956 -0.000179254 -1.8858e-07
-0.000179254 -5.26923e-06 -1.36623e-07
-1.8858e-07 -1.36623e-07 -0.000165084
0.00154975 -0.000165297 1.82777e-07
-0.000165297 0.00022396 -1.91205e-07
1.82777e-07 -1.91205e-07 8.34656e-05
0.00141163 -0.000191022 4.93372e-07
-0.000191022 0.00010615 1.45653e-07
4.93372e-07 1.45653e-07 -5.0219e-05
0.000539908 2.13881e-05 -6.80037e-07
2.13881e-05 -4.73693e-05 9.67849e-08
-6.80037e-07 9.67849e-08 -8.9708e-05
0.000670491 -1.14694e-05 -3.74191e-07
-1.14694e-05 1.69863e-05 2.99884e-08
-3.74191e-07 2.99884e-08 -7.09095e-05
0.0010901 -1.01867e-05 1.14945e-05
-1.01867e-05 -7.40814e-06 -9.64255e-07
1.14945e-05 -9.64255e-07 -0.00011773
0.00161209 -4.90565e-05 1.15905e-05
-4.90565e-05 0.000299718 -1.58171e-06
1.15905e-05 -1.58171e-06 0.000193466
0.00174264 -3.34395e-05 2.86559e-06
-3.34395e-05 0.000267488 -1.79046e-07
2.86559e-06 -1.79046e-07 0.000146753
0.00127295 -8.75379e-05 5.09497e-06
-8.75379e-05 2.06764e-05 -7.49321e-07
5.09497e-06 -7.49321e-07 -0.00010926
0.00163667 -0.000150076 4.78652e-06
-0.000150076 0.000254437 -1.13401e-06
4.78652e-06 -1.13401e-06 0.000118726
0.00165387 -0.000132046 -3.71088e-07
-0.000132046 0.000174997 4.71735e-07
-3.71088e-07 4.71735e-07 4.33002e-05
0.000457587 4.0816e-06 5.72285e-06
4.0816e-06 -9.5901e-05 -8.42689e-06
5.72285e-06 -8.42689e-06 -0.000142741
0.00144371 -0.000172724 2.57552e-06
-0.000172724 0.000103498 -1.60519e-07
2.57552e-06 -1.60519e-07 -4.32925e-05
0.000625999 -9.82947e-05 3.65516e-06
-9.82947e-05 -2.47106e-05 -3.50715e-06
3.65516e-06 -3.50715e-06 -0.000141697
0.000740045 -0.000167176 6.36315e-06
-0.000167176 -8.44771e-05 -4.7734e-06
6.36315e-06 -4.7734e-06 -0.000254227
0.0018426 -0.000244881 3.72722e-06
-0.000244881 0.000387586 3.66099e-07
3.72722e-06 3.66099e-07 0.000212191
0.0016972 -0.000216299 -7.20237e-07
-0.000216299 0.000220248 2.5499e-06
-7.20237e-07 2.5499e-06 6.35828e-05
0.00074441 -4.90503e-05 2.54184e-06
-4.90503e-05 6.04167e-05 -3.31063e-06
2.54184e-06 -3.31063e-06 -3.98125e-05
0.000632524 7.01288e-06 1.24571e-06
7.01288e-06 -6.78589e-07 -3.25461e-06
1.24571e-06 -3.25461e-06 -7.84333e-05
0.000875439 -8.95419e-05 1.26599e-06
-8.95419e-05 0.000138185 -6.45111e-07
1.26599e-06 -6.45111e-07 1.22433e-05
0.000617178 8.12447e-05 -1.6293e-05
8.12447e-05 -0.000100859 -7.04593e-06
-1.6293e-05 -7.04593e-06 -0.000171246
0.00290682 -0.000129619 -5.38969e-05
-0.000129619 0.00133345 -2.16047e-06
-5.38969e-05 -2.16047e-06 0.00132893
0.000488677 -7.63657e-05 1.50499e-06
-7.63657e-05 -5.79577e-05 -5.85929e-06
1.50499e-06 -5.85929e-06 -9.40974e-05
0.000531854 0.000123254 -1.74604e-05
0.000123254 -0.000116606 -1.07727e-05
-1.74604e-05 -1.07727e-05 -0.00019288
0.00105611 0.000131933 -1.23319e-05
0.000131933 1.32097e-05 -4.9988e-06
-1.23319e-05 -4.9988e-06 -0.00011318
0.000457275 -7.39264e-06 -5.53128e-06
-7.39264e-06 -9.48212e-05 -8.69896e-06
-5.53128e-06 -8.69896e-06 -0.000141422
0.000714503 0.000109826 -4.69563e-06
0.000109826 6.9702e-06 -4.65761e-06
-4.69563e-06 -4.65761e-06 -0.00011741
0.000949121 0.000146454 -8.95732e-06
0.000146454 2.61783e-05 -4.79373e-06
-8.95732e-06 -4.79373e-06 -0.000104896
0.000831502 0.000169166 -4.5621e-06
0.000169166 -4.01849e-05 -1.91044e-06
-4.5621e-06 -1.91044e-06 -0.000206425
0.000544023 -3.95644e-05 1.30688e-06
-3.95644e-05 -3.53227e-05 2.96994e-07
1.30688e-06 2.96994e-07 -7.55613e-05
0.000582082 -6.75879e-05 -2.63969e-07
-6.75879e-05 -1.73237e-05 1.70531e-07
-2.63969e-07 1.70531e-07 -4.46028e-05
0.000643599 -1.99279e-05 4.2098e-07
-1.99279e-05 1.22824e-05 3.80344e-07
4.2098e-07 3.80344e-07 -6.38159e-05
0.00107483 0.000109523 4.37135e-08
0.000109523 7.92695e-06 -1.88038e-07
4.37135e-08 -1.88038e-07 -0.000114435
0.00101452 0.000144334 4.25514e-07
0.000144334 1.94077e-05 -2.21661e-07
4.25514e-07 -2.21661e-07 -0.00011
0.00131328 0.000162787 1.82242e-07
0.000162787 7.52001e-05 1.44873e-08
1.82242e-07 1.44873e-08 -7.64421e-05
0.000794897 9.69825e-05 -8.65348e-08
9.69825e-05 8.77718e-05 1.50551e-07
-8.65348e-08 1.50551e-07 -2.6801e-05
0.00111865 0.000183545 -1.73444e-07
0.000183545 4.80406e-05 -1.26042e-07
-1.73444e-07 -1.26042e-07 -0.000112974
0.00107781 0.00018094 5.25937e-07
0.00018094 0.000183305 -5.59449e-07
5.25937e-07 -5.59449e-07 1.45535e-05
0.00121462 0.000213635 -7.19149e-07
0.000213635 0.000148712 1.6581e-06
-7.19149e-07 1.6581e-06 -2.97692e-05
0.000624485 -5.87939e-05 5.61821e-07
-5.87939e-05 -5.6693e-06 4.26561e-06
5.61821e-07 4.26561e-06 -2.70475e-05
0.000734432 5.8389e-05 3.32344e-06
5.8389e-05 6.04006e-05 3.25556e-06
3.32344e-06 3.25556e-06 -3.6571e-05
0.000663331 -3.22455e-05 4.59286e-07
-3.22455e-05 1.72698e-05 2.91676e-06
4.59286e-07 2.91676e-06 -4.21338e-05
0.000837575 5.90438e-05 5.49236e-07
5.90438e-05 0.000136926 1.22678e-06
5.49236e-07 1.22678e-06 1.86896e-05
0.00136645 0.000138709 6.18253e-06
0.000138709 8.03848e-05 1.3463e-06
6.18253e-06 1.3463e-06 -6.44248e-05
0.0013083 0.000183677 6.66165e-06
0.000183677 0.000105734 2.27697e-06
6.66165e-06 2.27697e-06 -5.16694e-05
0.00151496 0.000196022 2.41499e-06
0.000196022 0.000122069 3.92329e-07
2.41499e-06 3.92329e-07 -3.87151e-05
0.00109067 0.00015418 2.598e-06
0.00015418 0.000237423 2.98558e-06
2.598e-06 2.98558e-06 8.58168e-05
0.00118241 0.000205012 2.43764e-07
0.000205012 2.81977e-05 3.0244e-06
2.43764e-07 3.0244e-06 -0.000142104
0.00097268 0.000191294 -8.49047e-07
0.000191294 0.000105726 -1.24138e-06
-8.49047e-07 -1.24138e-06 -9.01173e-05
0.00136692 0.000231418 4.31631e-07
0.000231418 0.000171743 5.0714e-07
4.31631e-07 5.0714e-07 -1.07461e-05
0.000688679 -1.9167e-05 1.63194e-06
-1.9167e-05 7.64219e-06 1.92689e-06
1.63194e-06 1.92689e-06 -3.37905e-05
0.000623851 -4.29853e-05 9.39614e-07
-4.29853e-05 -2.54821e-05 3.9477e-06
9.39614e-07 3.9477e-06 -4.00038e-05
0.00224602 -7.94721e-05 2.91578e-05
-7.94721e-05 0.000928564 3.26611e-06
2.91578e-05 3.26611e-06 0.000937569
0.00227719 -8.92133e-05 2.10477e-06
-8.92133e-05 0.000954564 -1.95648e-07
2.10477e-06 -1.95648e-07 0.000960947
0.00232545 -9.92949e-05 -3.54431e-05
-9.92949e-05 0.000990548 -2.67847e-06
-3.54431e-05 -2.67847e-06 0.000993978
0.000536721 4.19093e-05 1.68408e-06
4.19093e-05 -5.0734e-05 -5.98271e-06
1.68408e-06 -5.98271e-06 -8.31349e-05
0.00300069 0.000115241 5.88069e-05
0.000115241 0.00137599 -2.87861e-06
5.88069e-05 -2.87861e-06 0.0013748
0.000556032 3.56218e-05 -2.78605e-07
3.56218e-05 -3.68977e-05 1.17629e-07
-2.78605e-07 1.17629e-07 -7.46576e-05
0.00330055 0.000117776 -2.30352e-06
0.000117776 0.00154929 -2.90102e-07
-2.30352e-06 -2.90102e-07 0.00154725
0.000673409 7.81866e-05 -1.74096e-05
7.81866e-05 -7.4985e-05 -5.62755e-06
-1.74096e-05 -5.62755e-06 -0.000144518
0.000670649 3.06888e-05 -1.71928e-05
3.06888e-05 -8.53441e-05 -3.10527e-06
-1.71928e-05 -3.10527e-06 -0.00015201
0.00109564 7.32977e-05 -1.13452e-05
7.32977e-05 6.34343e-06 -2.73569e-06
-1.13452e-05 -2.73569e-06 -0.000110884
0.00110096 3.51256e-05 -1.18172e-05
3.51256e-05 -5.6512e-07 -1.56117e-06
-1.18172e-05 -1.56117e-06 -0.000113233
0.00068308 -3.38332e-06 -1.76903e-05
-3.38332e-06 -8.54739e-05 -9.01363e-07
-1.76903e-05 -9.01363e-07 -0.000148981
0.00525527 -9.67849e-05 -0.000187
-9.67849e-05 0.00264813 2.3905e-06
-0.000187 2.3905e-06 0.00264689
0.000668154 -8.79793e-07 1.25694e-07
-8.79793e-07 -9.36451e-05 -2.90263e-07
1.25694e-07 -2.90263e-07 -0.000157015
0.00110195 1.71465e-05 -9.05993e-09
1.71465e-05 -2.51012e-06 -1.83064e-07
-9.05993e-09 -1.83064e-07 -0.000113839
0.00109856 5.08319e-05 -1.69689e-08
5.08319e-05 2.82012e-06 -1.05551e-07
-1.69689e-08 -1.05551e-07 -0.000111469
0.00139329 4.1072e-05 -4.42486e-08
4.1072e-05 5.90121e-05 -2.5895e-08
-4.42486e-08 -2.5895e-08 -6.67247e-05
0.00108655 8.9847e-05 -3.63352e-08
8.9847e-05 6.79461e-06 -1.913e-07
-3.63352e-08 -1.913e-07 -0.000112841
0.00138499 8.945e-05 -3.96749e-08
8.945e-05 7.18132e-05 -7.61074e-08
-3.96749e-08 -7.61074e-08 -6.20763e-05
0.0011034 -2.86953e-07 1.15385e-05
-2.86953e-07 -9.76966e-07 -1.56057e-07
1.15385e-05 -1.56057e-07 -0.000111507
0.00140635 2.43124e-05 3.89139e-06
2.43124e-05 6.03708e-05 1.06106e-07
3.89139e-06 1.06106e-07 -6.32016e-05
0.00140509 6.58076e-05 4.20856e-06
6.58076e-05 7.41791e-05 5.04883e-07
4.20856e-06 5.04883e-07 -5.49815e-05
0.00161431 5.85666e-05 -3.50863e-07
5.85666e-05 8.25102e-05 -2.26891e-07
-3.50863e-07 -2.26891e-07 -3.45801e-05
0.00139543 0.000113415 4.5383e-06
0.000113415 8.37808e-05 9.02652e-07
4.5383e-06 9.02652e-07 -5.50066e-05
0.00157473 0.000107817 -1.66727e-07
0.000107817 8.98373e-05 -7.05106e-07
-1.66727e-07 -7.05106e-07 -3.91168e-05
0.000652347 8.11577e-06 -1.68067e-05
8.11577e-06 -9.88694e-05 7.8505e-07
-1.68067e-05 7.8505e-07 -0.000163446
0.00161066 -1.6321e-05 -8.2474e-05
-1.6321e-05 0.000454363 3.17119e-06
-8.2474e-05 3.17119e-06 0.000400092
0.000733093 -1.60184e-05 -1.28191e-05
-1.60184e-05 -0.000205325 1.60372e-06
-1.28191e-05 1.60372e-06 -0.000317909
0.00203358 -8.77279e-05 -2.05351e-05
-8.77279e-05 0.000545244 3.22034e-06
-2.05351e-05 3.22034e-06 0.00043994
0.00359046 0.000114425 -0.000101595
0.000114425 0.00171894 3.95467e-06
-0.000101595 3.95467e-06 0.00171567
0.002176 -4.21449e-05 -5.91552e-05
-4.21449e-05 0.000874698 7.65507e-06
-5.91552e-05 7.65507e-06 0.000826218
0.00195189 -0.00019814 -1.37431e-05
-0.00019814 0.000674287 6.17162e-06
-1.37431e-05 6.17162e-06 0.000543052
0.00157354 -0.000122837 -2.07047e-05
-0.000122837 0.000303718 5.10726e-06
-2.07047e-05 5.10726e-06 0.00019136
0.00119035 -0.000105474 -6.75251e-06
-0.000105474 -1.77834e-05 1.45983e-06
-6.75251e-06 1.45983e-06 -0.000150827
0.00180033 -0.000175122 -7.32548e-06
-0.000175122 0.000366043 1.97485e-06
-7.32548e-06 1.97485e-06 0.000226478
0.000734132 -0.000158793 -6.77174e-06
-0.000158793 -0.000177371 8.70443e-07
-6.77174e-06 8.70443e-07 -0.000335634
0.00147147 -0.000194694 -2.73713e-06
-0.000194694 0.000139914 -5.88125e-08
-2.73713e-06 -5.88125e-08 -1.66098e-05
0.0005943 1.2814e-05 -5.65806e-06
1.2814e-05 -1.71388e-05 7.59014e-06
-5.65806e-06 7.59014e-06 -5.9857e-05
0.000688083 -2.78967e-05 -2.47309e-06
-2.78967e-05 2.7016e-05 3.09635e-06
-2.47309e-06 3.09635e-06 -6.26835e-05
0.000917325 -5.85425e-06 -4.27264e-07
-5.85425e-06 -0.000104948 -1.74927e-07
-4.27264e-07 -1.74927e-07 -0.000216419
0.00161896 -5.01696e-05 -4.43792e-06
-5.01696e-05 0.000302659 4.37652e-07
-4.43792e-06 4.37652e-07 0.000196403
0.00171902 -2.9957e-05 -2.39772e-06
-2.9957e-05 0.00025101 2.93295e-07
-2.39772e-06 2.93295e-07 0.000131028
0.00152039 -9.1913e-05 7.05657e-07
-9.1913e-05 0.000160621 -1.40595e-07
7.05657e-07 -1.40595e-07 3.18848e-05
0.000558433 -6.03645e-06 1.45682e-07
-6.03645e-06 -4.13314e-05 2.01467e-07
1.45682e-07 2.01467e-07 -8.85319e-05
0.000837064 -0.000119237 -6.18293e-08
-0.000119237 9.25904e-05 3.9623e-07
-6.18293e-08 3.9623e-07 -2.74488e-05
0.00085501 -0.00017461 1.56408e-06
-0.00017461 -1.54124e-05 -1.77338e-06
1.56408e-06 -1.77338e-06 -0.000184914
0.00170609 -0.000150689 -1.77883e-06
-0.000150689 0.000292966 4.36634e-07
-1.77883e-06 4.36634e-07 0.000157377
0.00162077 -0.000130313 -3.37315e-07
-0.000130313 0.000151361 3.01851e-07
-3.37315e-07 3.01851e-07 2.15231e-05
0.00164196 -0.000232153 -1.86506e-06
-0.000232153 0.000269247 4.02321e-07
-1.86506e-06 4.02321e-07 9.41935e-05
0.00144439 -0.000173021 2.98856e-07
-0.000173021 0.000102185 -8.42058e-08
2.98856e-07 -8.42058e-08 -4.44254e-05
0.00165361 -0.00021502 6.2932e-07
-0.00021502 0.000192769 4.78191e-07
6.2932e-07 4.78191e-07 3.61636e-05
0.000731449 -5.59331e-05 -2.70914e-07
-5.59331e-05 5.28339e-05 -1.83103e-07
-2.70914e-07 -1.83103e-07 -4.81421e-05
0.000714128 -5.64938e-05 -6.10572e-07
-5.64938e-05 4.06424e-05 -4.83853e-07
-6.10572e-07 -4.83853e-07 -7.8051e-05
0.000671068 -2.22013e-06 3.03579e-07
-2.22013e-06 1.93468e-05 2.17375e-07
3.03579e-07 2.17375e-07 -5.8475e-05
0.00173722 -1.03734e-05 2.53811e-06
-1.03734e-05 0.000255163 -1.36435e-07
2.53811e-06 -1.36435e-07 0.000135263
0.00167724 -5.8679e-05 3.14656e-06
-5.8679e-05 0.000232767 -7.63634e-08
3.14656e-06 -7.63634e-08 0.000110129
0.00165879 -4.17517e-05 -5.98573e-07
-4.17517e-05 0.00011969 6.43535e-07
-5.98573e-07 6.43535e-07 3.49203e-06
0.00155966 -0.000105918 -9.57216e-07
-0.000105918 9.6966e-05 6.8023e-07
-9.57216e-07 6.8023e-07 -2.945e-05
0.00144026 -0.000152557 1.51681e-06
-0.000152557 7.4656e-05 6.86956e-07
1.51681e-06 6.86956e-07 -6.24368e-05
0.00166951 -0.000147484 -2.60941e-06
-0.000147484 0.000109276 1.43706e-06
-2.60941e-06 1.43706e-06 -5.80799e-06
0.000701952 -8.01999e-05 3.37054e-06
-8.01999e-05 3.53279e-05 -2.58695e-06
3.37054e-06 -2.58695e-06 -7.32519e-05
0.00154998 -0.0001991 -1.26592e-06
-0.0001991 0.000101113 1.7196e-06
-1.26592e-06 1.7196e-06 -4.10239e-05
0.000927436 -0.000166197 1.73454e-06
-0.000166197 0.00011389 -2.7024e-06
1.73454e-06 -2.7024e-06 -4.21617e-05
0.00117924 -0.000222278 5.16952e-06
-0.000222278 9.02562e-05 -4.34635e-06
5.16952e-06 -4.34635e-06 -0.000109188
0.00188819 -0.000256671 1.75592e-06
-0.000256671 0.000364131 2.78375e-06
1.75592e-06 2.78375e-06 0.00018156
0.00187961 -0.000247786 -3.89165e-06
-0.000247786 0.000266934 3.92575e-06
-3.89165e-06 3.92575e-06 0.000117345
0.000640051 -1.18539e-06 1.39453e-06
-1.18539e-06 4.36723e-07 -2.84371e-06
1.39453e-06 -2.84371e-06 -6.80268e-05
0.000800921 -0.000103465 2.00734e-06
-0.000103465 7.78134e-05 6.47769e-07
2.00734e-06 6.47769e-07 -4.52501e-05
0.000627469 -3.61389e-05 1.26877e-06
-3.61389e-05 8.03933e-06 -1.97427e-06
1.26877e-06 -1.97427e-06 -0.000109015
0.00111479 -0.000157725 -3.01321e-09
-0.000157725 0.000268712 1.91994e-06
-3.01321e-09 1.91994e-06 0.000127483
0.00106583 0.000111562 -1.22559e-05
0.000111562 3.87779e-06 -4.31361e-06
-1.22559e-05 -4.31361e-06 -0.000119074
0.000547095 -6.22174e-05 -6.98617e-07
-6.22174e-05 -3.92682e-05 -4.50778e-06
-6.98617e-07 -4.50778e-06 -6.50806e-05
0.000476004 -5.7847e-05 1.07e-06
-5.7847e-05 -6.89568e-05 -7.59859e-06
1.07e-06 -7.59859e-06 -0.000110883
0.000636155 -5.13594e-05 1.35684e-06
-5.13594e-05 1.22551e-05 -3.64648e-06
1.35684e-06 -3.64648e-06 -6.4554e-05
0.00102282 0.000146194 -1.071e-05
0.000146194 2.55281e-05 -5.46798e-06
-1.071e-05 -5.46798e-06 -0.000104301
0.00130315 0.000162516 -6.24486e-06
0.000162516 7.10223e-05 -1.69932e-06
-6.24486e-06 -1.69932e-06 -8.07817e-05
0.000685841 8.3116e-05 -3.18024e-06
8.3116e-05 2.76747e-05 -3.30432e-06
-3.18024e-06 -3.30432e-06 -8.48776e-05
0.00106608 0.000178635 -3.81624e-06
0.000178635 0.00017793 -3.61232e-06
-3.81624e-06 -3.61232e-06 9.46942e-06
0.00135292 0.00019906 -5.06598e-06
0.00019906 0.000181358 -1.84248e-06
-5.06598e-06 -1.84248e-06 1.87472e-05
0.00115174 0.00021228 -1.94487e-06
0.00021228 0.00010969 -1.04868e-06
-1.94487e-06 -1.04868e-06 -6.85845e-05
0.00060005 -5.57252e-05 -2.42141e-08
-5.57252e-05 -2.07893e-05 5.48219e-08
-2.42141e-08 5.48219e-08 -4.14703e-05
0.000736381 5.02232e-05 4.28346e-07
5.02232e-05 6.65116e-05 -1.73422e-07
4.28346e-07 -1.73422e-07 -3.24848e-05
0.000640008 -4.80805e-05 -7.57123e-07
-4.80805e-05 7.56751e-06 5.87362e-07
-7.57123e-07 5.87362e-07 -5.3189e-05
0.000793831 3.27356e-05 7.68128e-07
3.27356e-05 0.000110905 -3.94769e-07
7.68128e-07 -3.94769e-07 -4.04862e-06
0.00134919 0.00013803 7.53778e-07
0.00013803 7.28291e-05 1.74943e-08
7.53778e-07 1.74943e-08 -7.21094e-05
0.00127028 0.000182708 2.34914e-07
0.000182708 8.60267e-05 5.55232e-08
2.34914e-07 5.55232e-08 -7.17095e-05
0.00152878 0.000196169 3.22016e-07
0.000196169 0.00013082 1.9284e-07
3.22016e-07 1.9284e-07 -3.00599e-05
0.000982004 0.000148122 4.04919e-07
0.000148122 0.000177228 6.13683e-07
4.04919e-07 6.13683e-07 2.72197e-05
0.00151183 0.000224879 -1.21089e-06
0.000224879 0.000217082 -8.20758e-07
-1.21089e-06 -8.20758e-07 4.50052e-05
0.0011419 0.000206179 1.81944e-07
0.000206179 0.000201245 -1.35999e-06
1.81944e-07 -1.35999e-06 1.85884e-06
0.00118449 0.00021878 -2.52504e-06
0.00021878 7.80463e-05 -8.34619e-07
-2.52504e-06 -8.34619e-07 -9.57623e-05
0.000619233 -5.00362e-05 1.07648e-06
-5.00362e-05 -2.00221e-05 3.99677e-06
1.07648e-06 3.99677e-06 -3.71983e-05
0.00068787 -3.39697e-05 1.09823e-06
-3.39697e-05 2.35003e-05 2.22685e-06
1.09823e-06 2.22685e-06 -2.62076e-05
0.000969331 0.000101443 2.21446e-06
0.000101443 0.000193082 1.63943e-06
2.21446e-06 1.63943e-06 6.12051e-05
0.000799625 3.57627e-05 -3.16685e-07
3.57627e-05 0.00011422 2.04054e-06
-3.16685e-07 2.04054e-06 1.5837e-05
0.000905761 0.000113801 2.53102e-07
0.000113801 0.000185858 -2.60733e-07
2.53102e-07 -2.60733e-07 4.75656e-05
0.00154921 0.000166253 1.94519e-06
0.000166253 0.00011565 -5.81523e-07
1.94519e-06 -5.81523e-07 -3.35545e-05
0.00139606 0.00020844 2.50484e-06
0.00020844 9.22183e-05 1.61201e-06
2.50484e-06 1.61201e-06 -7.52676e-05
0.00170027 0.0002319 -4.01442e-07
0.0002319 0.000181357 -4.52338e-07
-4.01442e-07 -4.52338e-07 2.17803e-05
0.00112342 0.00019154 4.04435e-06
0.00019154 0.000253205 4.60168e-06
4.04435e-06 4.60168e-06 6.16994e-05
0.00152778 0.000246067 3.11618e-06
0.000246067 0.000180329 3.66524e-06
3.11618e-06 3.66524e-06 3.18906e-06
0.000444989 0.0001712 3.54037e-06
0.0001712 -0.00027563 -2.59884e-06
3.54037e-06 -2.59884e-06 -0.00047768
0.000683512 -2.23585e-05 2.06501e-06
-2.23585e-05 7.69691e-06 1.87657e-06
2.06501e-06 1.87657e-06 -3.48685e-05
0.000726166 2.46443e-05 3.59827e-07
2.46443e-05 5.14676e-05 7.98266e-07
3.59827e-07 7.98266e-07 -1.62354e-05
0.000706632 -9.47693e-06 1.31699e-06
-9.47693e-06 1.60953e-05 1.95396e-06
1.31699e-06 1.95396e-06 -2.46686e-05
0.000690091 -2.62931e-05 -1.729e-07
-2.62931e-05 9.56545e-06 -9.32867e-10
-1.729e-07 -9.32867e-10 -3.24213e-05
0.00126303 -4.8405e-05 1.22799e-06
-4.8405e-05 0.000336456 2.37022e-06
1.22799e-06 2.37022e-06 0.000327288
0.000951935 -4.85514e-05 7.46312e-07
-4.85514e-05 0.000163534 -5.45608e-08
7.46312e-07 -5.45608e-08 0.000150699
0.000924245 -4.28106e-05 2.42712e-05
-4.28106e-05 0.000156611 6.77388e-06
2.42712e-05 6.77388e-06 0.00016215
0.00221812 -7.81569e-05 2.09075e-06
-7.81569e-05 0.000911471 -1.79256e-07
2.09075e-06 -1.79256e-07 0.000920826
0.00223147 -8.74288e-05 -3.17924e-05
-8.74288e-05 0.000927411 -3.05634e-06
-3.17924e-05 -3.05634e-06 0.000934243
0.000549343 4.89188e-05 3.57553e-07
4.89188e-05 -4.81494e-05 -5.2935e-06
3.57553e-07 -5.2935e-06 -7.6623e-05
0.00278873 0.000105464 4.65408e-05
0.000105464 0.00125027 -3.14281e-06
4.65408e-05 -3.14281e-06 0.0012515
0.000571832 4.02962e-05 -2.46198e-07
4.02962e-05 -3.09402e-05 1.10851e-07
-2.46198e-07 1.10851e-07 -6.34906e-05
0.00307569 0.000110952 -3.22497e-06
0.000110952 0.00141731 -2.5522e-07
-3.22497e-06 -2.5522e-07 0.00141726
0.000594983 3.2366e-05 -2.87989e-06
3.2366e-05 -1.55553e-05 7.03307e-06
-2.87989e-06 7.03307e-06 -5.34015e-05
0.00336322 0.000109808 -8.9251e-05
0.000109808 0.00158343 3.46114e-06
-8.9251e-05 3.46114e-06 0.00158297
0.00109037 9.26589e-05 -1.17051e-05
9.26589e-05 9.47858e-06 -3.49562e-06
-1.17051e-05 -3.49562e-06 -0.000110745
0.00110522 5.48587e-05 -1.15671e-05
5.48587e-05 7.04324e-06 -2.10131e-06
-1.15671e-05 -2.10131e-06 -0.000107631
0.00136336 8.77358e-05 -4.50161e-06
8.77358e-05 5.96725e-05 -8.00066e-07
-4.50161e-06 -8.00066e-07 -7.43754e-05
0.00138305 4.06209e-05 -4.28348e-06
4.06209e-05 5.46167e-05 -3.95038e-07
-4.28348e-06 -3.95038e-07 -7.11995e-05
0.00110652 2.04375e-05 -1.17733e-05
2.04375e-05 2.58306e-07 -8.4453e-07
-1.17733e-05 -8.4453e-07 -0.000111195
0.000648152 1.82977e-05 -1.73632e-05
1.82977e-05 -0.00010416 -6.88102e-08
-1.73632e-05 -6.88102e-08 -0.000167767
0.00109933 1.98441e-06 1.95229e-08
1.98441e-06 -3.29821e-06 -5.26479e-08
1.95229e-08 -5.26479e-08 -0.000113865
0.00139568 2.59218e-05 -9.12285e-08
2.59218e-05 5.51043e-05 -5.61025e-08
-9.12285e-08 -5.61025e-08 -6.85638e-05
0.00138499 6.29293e-05 -1.3893e-09
6.29293e-05 6.45259e-05 -2.75519e-08
-1.3893e-09 -2.75519e-08 -6.46271e-05
0.00165864 5.97389e-05 -8.85927e-08
5.97389e-05 0.000104225 1.69517e-07
-8.85927e-08 1.69517e-07 -1.12863e-05
0.00137573 0.000113083 -1.69511e-07
0.000113083 7.32837e-05 -8.05344e-08
-1.69511e-07 -8.05344e-08 -6.57118e-05
0.00158428 0.000106508 -1.39466e-07
0.000106508 9.98377e-05 3.60516e-08
-1.39466e-07 3.60516e-08 -2.91455e-05
0.00139869 6.67566e-06 4.07002e-06
6.67566e-06 5.69602e-05 5.95331e-08
4.07002e-06 5.95331e-08 -6.56177e-05
0.00167676 3.82784e-05 -9.83047e-07
3.82784e-05 0.000103181 1.65082e-07
-9.83047e-07 1.65082e-07 -8.76205e-06
0.00159026 8.82691e-05 -3.27278e-07
8.82691e-05 8.12375e-05 -5.06231e-07
-3.27278e-07 -5.06231e-07 -4.11613e-05
0.00174987 7.01547e-05 -1.27064e-06
7.01547e-05 9.16334e-05 1.58414e-07
-1.27064e-06 1.58414e-07 -8.74205e-06
0.00157072 0.000129318 9.25457e-08
0.000129318 0.000108522 -7.75732e-07
9.25457e-08 -7.75732e-07 -2.86979e-05
0.00168276 0.000128906 -3.04027e-06
0.000128906 8.49393e-05 -9.61858e-07
-3.04027e-06 -9.61858e-07 -2.28704e-05
0.000741976 -3.16552e-06 -1.13692e-05
-3.16552e-06 -0.00020374 4.98871e-07
-1.13692e-05 4.98871e-07 -0.000316411
0.00164705 -5.27844e-05 -2.02918e-05
-5.27844e-05 0.000317514 2.39739e-06
-2.02918e-05 2.39739e-06 0.000211239
0.0016988 -2.3526e-05 -7.31231e-06
-2.3526e-05 0.000236566 5.37535e-07
-7.31231e-06 5.37535e-07 0.000117476
0.00176648 -9.65162e-05 -5.24155e-06
-9.65162e-05 0.000299858 8.70092e-07
-5.24155e-06 8.70092e-07 0.000172304
0.000664724 -1.70403e-05 -7.94026e-06
-1.70403e-05 1.7852e-05 8.42802e-06
-7.94026e-06 8.42802e-06 -3.08834e-05
0.00092923 -0.000133184 -5.69445e-06
-0.000133184 0.000145405 4.98819e-06
-5.69445e-06 4.98819e-06 2.29758e-05
0.00103223 -0.000186866 -3.02624e-06
-0.000186866 8.90765e-05 1.23327e-06
-3.02624e-06 1.23327e-06 -8.0925e-05
0.00177455 -0.00015121 -7.99534e-06
-0.00015121 0.000330957 2.02988e-06
-7.99534e-06 2.02988e-06 0.000195507
0.00158288 -0.000128335 -7.02876e-07
-0.000128335 0.000124887 -3.43853e-07
-7.02876e-07 -3.43853e-07 -3.0635e-06
0.00144485 -0.000173304 -2.0517e-06
-0.000173304 0.000100728 -5.32063e-08
-2.0517e-06 -5.32063e-08 -4.57009e-05
0.0014195 -0.000217896 -5.5463e-06
-0.000217896 0.000138697 -2.7533e-07
-5.5463e-06 -2.7533e-07 -3.57636e-05
0.00159453 -0.000212771 2.08246e-06
-0.000212771 0.000156415 -2.26152e-06
2.08246e-06 -2.26152e-06 -2.39281e-08
0.000713967 -6.01905e-05 -3.60658e-06
-6.01905e-05 4.06203e-05 2.80586e-06
-3.60658e-06 2.80586e-06 -5.97843e-05
0.000636674 -4.85803e-05 -2.27581e-06
-4.85803e-05 -2.06206e-06 -2.89705e-07
-2.27581e-06 -2.89705e-07 -0.000120178
0.000697496 -9.13659e-06 -1.35787e-06
-9.13659e-06 3.30637e-05 3.29657e-06
-1.35787e-06 3.29657e-06 -4.51487e-05
0.00157575 -8.66623e-06 -2.3835e-06
-8.66623e-06 0.000161733 1.10512e-07
-2.3835e-06 1.10512e-07 4.05166e-05
0.00168164 -6.48016e-05 -1.92731e-06
-6.48016e-05 0.000235357 3.47264e-07
-1.92731e-06 3.47264e-07 0.000112273
0.00163409 -3.81794e-05 -9.678e-08
-3.81794e-05 0.000104435 2.49583e-07
-9.678e-08 2.49583e-07 -9.55697e-06
0.001613 -0.000104246 -9.14595e-07
-0.000104246 0.00012317 1.96383e-07
-9.14595e-07 1.96383e-07 -3.01691e-06
0.00076899 -9.23915e-05 2.05619e-07
-9.23915e-05 7.26083e-05 2.47704e-08
2.05619e-07 2.47704e-08 -3.73781e-05
0.00103536 -0.000175343 -6.01715e-07
-0.000175343 0.000171191 7.35569e-07
-6.01715e-07 7.35569e-07 1.37674e-05
0.0010597 -0.000210139 5.03319e-07
-0.000210139 3.47432e-05 -1.52316e-06
5.03319e-07 -1.52316e-06 -0.000160589
0.0015397 -0.000157021 -2.0141e-07
-0.000157021 0.000130561 1.62794e-07
-2.0141e-07 1.62794e-07 -8.0425e-06
0.00170311 -0.000147745 9.82106e-07
-0.000147745 0.000130097 2.51976e-07
9.82106e-07 2.51976e-07 1.84466e-05
0.00171908 -0.000247047 -8.37907e-07
-0.000247047 0.000265778 4.48375e-07
-8.37907e-07 4.48375e-07 8.22995e-05
0.00156841 -0.000198921 2.41335e-07
-0.000198921 0.000111575 1.97156e-07
2.41335e-07 1.97156e-07 -3.00667e-05
0.00190329 -0.000248269 9.96215e-07
-0.000248269 0.000282375 -4.53988e-07
9.96215e-07 -4.53988e-07 0.000134826
0.000918822 -0.000118448 5.03574e-08
-0.000118448 0.000147607 1.81474e-07
5.03574e-08 1.81474e-07 2.12498e-05
0.00103065 -0.00015466 -4.2048e-07
-0.00015466 0.000223343 3.65609e-07
-4.2048e-07 3.65609e-07 8.07497e-05
0.000677128 -7.51255e-06 1.64014e-07
-7.51255e-06 2.0984e-05 1.83834e-07
1.64014e-07 1.83834e-07 -4.79439e-05
0.000543734 -1.10015e-05 -1.55916e-07
-1.10015e-05 -4.36664e-05 -8.41754e-07
-1.55916e-07 -8.41754e-07 -0.000154725
0.0016339 -2.28607e-05 -1.6476e-07
-2.28607e-05 9.49861e-05 8.83563e-08
-1.6476e-07 8.83563e-08 -1.9271e-05
0.00182931 -7.07009e-05 -2.98511e-07
-7.07009e-05 0.000223158 7.86565e-07
-2.98511e-07 7.86565e-07 0.000105574
0.00165689 -5.5723e-05 3.1364e-07
-5.5723e-05 4.27789e-05 1.16073e-07
3.1364e-07 1.16073e-07 -6.08333e-05
0.00172673 -0.000131239 -4.13611e-06
-0.000131239 0.000109685 8.11267e-07
-4.13611e-06 8.11267e-07 8.25213e-06
0.00170306 -0.000177588 -3.09022e-06
-0.000177588 0.00015283 2.45975e-06
-3.09022e-06 2.45975e-06 2.80737e-05
0.0017606 -0.000150425 -1.62228e-07
-0.000150425 0.000121778 2.0772e-07
-1.62228e-07 2.0772e-07 2.58076e-05
0.000839776 -0.000148517 1.46709e-06
-0.000148517 9.25804e-05 -3.90935e-07
1.46709e-06 -3.90935e-07 -4.34575e-05
0.00162658 -0.000220204 -5.01386e-06
-0.000220204 9.15859e-05 3.04902e-06
-5.01386e-06 3.04902e-06 -3.30754e-05
0.00033419 -0.000143064 -5.3991e-07
-0.000143064 -0.000247511 -5.19741e-06
-5.3991e-07 -5.19741e-06 -0.00042551
0.00222185 -0.000311899 3.56112e-06
-0.000311899 0.000617062 -1.65156e-06
3.56112e-06 -1.65156e-06 0.000398432
0.00169744 -0.000259711 -9.84972e-07
-0.000259711 0.000202679 5.4018e-06
-9.84972e-07 5.4018e-06 1.94145e-05
0.00190552 -0.000250771 -1.83908e-06
-0.000250771 0.000254116 1.71679e-06
-1.83908e-06 1.71679e-06 0.000111344
0.000651896 -1.01206e-05 1.80411e-06
-1.01206e-05 4.98789e-06 -2.71124e-06
1.80411e-06 -2.71124e-06 -5.72091e-05
0.000559092 -1.55142e-05 6.01013e-09
-1.55142e-05 -2.13938e-05 -2.0423e-06
6.01013e-09 -2.0423e-06 -0.000129935
0.000885744 -0.000161882 6.05334e-07
-0.000161882 0.000127696 2.14109e-06
6.05334e-07 2.14109e-06 -1.46448e-05
0.000904008 -0.000117636 1.79043e-06
-0.000117636 0.000171435 2.52892e-07
1.79043e-06 2.52892e-07 3.3939e-05
0.00111248 -0.00018213 -8.1383e-07
-0.00018213 0.000261951 3.88159e-06
-8.1383e-07 3.88159e-06 0.000115481
0.000580946 -5.3565e-05 -1.3338e-06
-5.3565e-05 -3.24168e-05 -4.06523e-06
-1.3338e-06 -4.06523e-06 -5.26167e-05
0.00133269 0.000137329 -4.63683e-06
0.000137329 6.60144e-05 -1.31003e-06
-4.63683e-06 -1.31003e-06 -7.90473e-05
0.000602165 -6.50786e-05 1.23298e-08
-6.50786e-05 -9.0982e-06 -2.33566e-06
1.23298e-08 -2.33566e-06 -7.21575e-05
0.000723279 3.15686e-05 -7.55617e-07
3.15686e-05 5.62221e-05 -3.60694e-06
-7.55617e-07 -3.60694e-06 -3.90583e-05
0.000732212 4.9795e-06 1.62062e-06
4.9795e-06 7.35946e-05 -1.57562e-06
1.62062e-06 -1.57562e-06 -3.72118e-05
0.00124246 0.000182283 -6.17213e-06
0.000182283 7.19257e-05 -2.21565e-06
-6.17213e-06 -2.21565e-06 -8.61674e-05
0.00152964 0.000195501 -1.37285e-06
0.000195501 0.000133002 3.40958e-08
-1.37285e-06 3.40958e-08 -2.78918e-05
0.000971428 0.000157593 -2.11672e-06
0.000157593 0.000174388 -2.05524e-06
-2.11672e-06 -2.05524e-06 2.30565e-05
0.00137101 0.00022625 -2.75708e-06
0.00022625 0.000329258 -2.56277e-06
-2.75708e-06 -2.56277e-06 0.000125446
0.00184076 0.000244539 -4.14247e-06
0.000244539 0.000405808 -2.14605e-06
-4.14247e-06 -2.14605e-06 0.000232007
0.00107805 0.00021153 -5.38106e-06
0.00021153 2.66731e-05 -9.45771e-07
-5.38106e-06 -9.45771e-07 -0.000139194
0.000609594 -4.84797e-05 6.25817e-08
-4.84797e-05 -2.59092e-05 6.04011e-10
6.25817e-08 6.04011e-10 -4.28328e-05
0.000667369 -4.24498e-05 -5.97627e-07
-4.24498e-05 1.34902e-05 2.11154e-07
-5.97627e-07 2.11154e-07 -3.70156e-05
0.000919608 0.000103078 6.09253e-07
0.000103078 0.000163803 1.33061e-07
6.09253e-07 1.33061e-07 3.28532e-05
0.000727828 -1.11987e-05 -4.34268e-07
-1.11987e-05 7.16546e-05 2.9591e-07
-4.34268e-07 2.9591e-07 -2.2768e-05
0.000732077 7.75014e-05 1.0448e-06
7.75014e-05 8.24226e-05 -4.09263e-07
1.0448e-06 -4.09263e-07 -5.11358e-05
0.00155066 0.000167563 7.00448e-07
0.000167563 0.000114229 -2.69937e-07
7.00448e-07 -2.69937e-07 -3.55121e-05
0.00145204 0.000211504 6.43638e-07
0.000211504 0.000126667 6.04741e-07
6.43638e-07 6.04741e-07 -4.12718e-05
0.0016462 0.000230941 1.39713e-06
0.000230941 0.000150752 2.99015e-07
1.39713e-06 2.99015e-07 -9.55321e-06
0.00107119 0.000186596 1.29015e-06
0.000186596 0.000228646 1.29342e-06
1.29015e-06 1.29342e-06 3.76043e-05
0.00161093 0.000250463 1.85709e-06
0.000250463 0.00023226 -5.87936e-07
1.85709e-06 -5.87936e-07 5.56899e-05
0.000907626 0.000206241 -2.86205e-06
0.000206241 -2.18748e-05 -1.60553e-06
-2.86205e-06 -1.60553e-06 -0.000226972
0.000697517 -2.84618e-05 1.93123e-06
-2.84618e-05 2.0621e-05 1.90769e-06
1.93123e-06 1.90769e-06 -2.42676e-05
0.000781534 2.33543e-05 3.5347e-07
2.33543e-05 9.16886e-05 1.59814e-06
3.5347e-07 1.59814e-06 1.24652e-05
0.00106364 0.000173662 -7.54277e-07
0.000173662 0.000248421 -3.16101e-07
-7.54277e-07 -3.16101e-07 8.67938e-05
0.000868765 3.54649e-05 -2.16208e-07
3.54649e-05 0.000160998 9.67725e-07
-2.16208e-07 9.67725e-07 4.71467e-05
0.00116878 8.83678e-05 -3.09916e-06
8.83678e-05 0.000314742 -3.75195e-06
-3.09916e-06 -3.75195e-06 0.000175064
0.00162587 0.000176966 -2.7495e-06
0.000176966 0.000108989 -2.76597e-06
-2.7495e-06 -2.76597e-06 -2.88655e-05
0.00162804 0.000251526 1.61627e-06
0.000251526 0.000181547 4.89356e-07
1.61627e-06 4.89356e-07 7.99457e-06
0.00148555 0.000248846 6.87592e-08
0.000248846 2.74203e-05 -1.35672e-06
6.87592e-08 -1.35672e-06 -0.000123388
0.00103714 0.000193308 -1.00555e-06
0.000193308 0.000193306 2.36894e-06
-1.00555e-06 2.36894e-06 -2.88426e-05
0.00150963 0.000264912 4.96442e-06
0.000264912 0.00018956 -5.45541e-07
4.96442e-06 -5.45541e-07 -7.61349e-06
0.000685272 -2.86584e-05 -9.19417e-08
-2.86584e-05 9.5783e-06 -4.4439e-09
-9.19417e-08 -4.4439e-09 -3.34382e-05
0.000615252 3.63699e-06 1.37115e-06
3.63699e-06 -1.88789e-05 1.19329e-06
1.37115e-06 1.19329e-06 -8.37486e-05
0.000634554 -1.24184e-05 -5.83751e-07
-1.24184e-05 -3.43029e-06 -6.54896e-08
-5.83751e-07 -6.54896e-08 -6.93459e-05
0.000920205 5.42266e-05 8.24028e-07
5.42266e-05 0.000171842 -3.482e-07
8.24028e-07 -3.482e-07 9.10069e-05
0.000735944 4.10765e-05 1.65624e-06
4.10765e-05 5.61984e-05 9.69835e-07
1.65624e-06 9.69835e-07 -1.04642e-05
0.000694351 3.36746e-06 1.29812e-06
3.36746e-06 9.89706e-06 1.92341e-06
1.29812e-06 1.92341e-06 -3.10716e-05
0.000697119 -1.91956e-05 -3.60398e-07
-1.91956e-05 1.17673e-05 1.67418e-08
-3.60398e-07 1.67418e-08 -2.94575e-05
0.00126115 -3.84078e-05 8.15557e-07
-3.84078e-05 0.000329462 2.34858e-06
8.15557e-07 2.34858e-06 0.000322058
0.000693339 -3.23299e-05 -1.06166e-06
-3.23299e-05 1.23252e-05 -1.96007e-06
-1.06166e-06 -1.96007e-06 -3.00814e-05
0.00128801 -4.54844e-05 -4.89614e-06
-4.54844e-05 0.000350241 -1.29635e-06
-4.89614e-06 -1.29635e-06 0.000341499
0.000903847 -3.51241e-05 2.19802e-05
-3.51241e-05 0.000136088 6.98462e-06
2.19802e-05 6.98462e-06 0.000144098
0.00128906 -5.17052e-05 -9.78838e-06
-5.17052e-05 0.000357988 -3.49512e-06
-9.78838e-06 -3.49512e-06 0.000347261
0.00153263 -5.50181e-05 2.01283e-05
-5.50181e-05 0.000507726 1.958e-06
2.01283e-05 1.958e-06 0.000516465
0.0021911 -7.67157e-05 -2.82557e-05
-7.67157e-05 0.000894846 -3.45435e-06
-2.82557e-05 -3.45435e-06 0.000904578
0.000568326 4.53316e-05 6.41144e-07
4.53316e-05 -4.51295e-05 -4.74452e-06
6.41144e-07 -4.74452e-06 -6.8893e-05
0.00057669 4.38469e-05 -1.65739e-07
4.38469e-05 -3.34237e-05 1.02095e-07
-1.65739e-07 1.02095e-07 -6.14269e-05
0.00262973 9.40013e-05 3.81011e-05
9.40013e-05 0.00115347 -3.47791e-06
3.81011e-05 -3.47791e-06 0.00115749
0.00286382 0.00010363 -4.29611e-06
0.00010363 0.00129232 -2.73409e-07
-4.29611e-06 -2.73409e-07 0.00129413
0.000609599 3.83913e-05 -2.12779e-06
3.83913e-05 -9.68921e-06 6.21002e-06
-2.12779e-06 6.21002e-06 -4.24e-05
0.00314122 0.000103491 -7.69519e-05
0.000103491 0.00145298 3.28714e-06
-7.69519e-05 3.28714e-06 0.00145464
0.00135556 0.000112889 -4.86765e-06
0.000112889 6.23797e-05 -1.07094e-06
-4.86765e-06 -1.07094e-06 -7.68479e-05
0.00136805 6.32226e-05 -4.44158e-06
6.32226e-05 5.67538e-05 -5.4687e-07
-4.44158e-06 -5.4687e-07 -7.26597e-05
0.00158883 0.000106259 -8.38478e-08
0.000106259 0.000107107 7.68399e-07
-8.38478e-08 7.68399e-07 -2.20184e-05
0.00170258 6.09075e-05 3.2983e-07
6.09075e-05 0.000125698 4.14661e-07
3.2983e-07 4.14661e-07 1.17768e-05
0.00138761 2.89536e-05 -3.89584e-06
2.89536e-05 5.11773e-05 -1.91229e-07
-3.89584e-06 -1.91229e-07 -7.26241e-05
0.00110487 6.77564e-06 -1.14879e-05
6.77564e-06 -4.6779e-07 -4.68915e-08
-1.14879e-05 -4.68915e-08 -0.000111003
0.00139742 1.01769e-05 6.91967e-08
1.01769e-05 5.62764e-05 3.59868e-08
6.91967e-08 3.59868e-08 -6.63884e-05
0.00168426 2.80319e-05 -7.9574e-07
2.80319e-05 0.000107671 1.12702e-08
-7.9574e-07 1.12702e-08 -4.02149e-06
0.00161153 8.72283e-05 -1.07498e-07
8.72283e-05 9.48312e-05 5.4617e-08
-1.07498e-07 5.4617e-08 -2.74097e-05
0.00179803 7.26093e-05 1.17794e-06
7.26093e-05 0.000117492 9.22668e-07
1.17794e-06 9.22668e-07 2.01159e-05
0.00156109 0.000130272 -1.95282e-07
0.000130272 0.000101764 -5.88823e-08
-1.95282e-07 -5.88823e-08 -3.60221e-05
0.00168851 0.000126449 -2.54628e-07
0.000126449 8.54679e-05 8.03083e-07
-2.54628e-07 8.03083e-07 -1.99342e-05
0.00166106 -1.74968e-07 -8.6105e-08
-1.74968e-07 0.000101892 2.56871e-07
-8.6105e-08 2.56871e-07 -9.86998e-06
0.00170271 4.46189e-05 2.10682e-08
4.46189e-05 5.79722e-05 1.04081e-06
2.10682e-08 1.04081e-06 -4.08694e-05
0.00179468 0.000104608 -3.73065e-06
0.000104608 0.000126944 -6.88033e-07
-3.73065e-06 -6.88033e-07 2.94208e-05
0.00179749 7.92627e-05 6.28457e-07
7.92627e-05 0.000104762 3.1948e-07
6.28457e-07 3.1948e-07 2.1652e-05
0.00159281 0.000133319 -1.89154e-06
0.000133319 5.92144e-05 -2.32078e-06
-1.89154e-06 -2.32078e-06 -5.88679e-05
0.00191396 0.000140253 8.77064e-07
0.000140253 0.000174389 -2.8569e-09
8.77064e-07 -2.8569e-09 8.51224e-05
0.00140955 -7.3661e-06 -5.96279e-06
-7.3661e-06 6.54712e-05 1.95093e-07
-5.96279e-06 1.95093e-07 -5.70674e-05
0.00169134 -6.78731e-05 -7.08897e-06
-6.78731e-05 0.000240842 7.58462e-07
-7.08897e-06 7.58462e-07 0.000117471
0.00160494 -3.61878e-05 -2.24318e-08
-3.61878e-05 8.66233e-05 -4.92274e-07
-2.24318e-08 -4.92274e-07 -2.52456e-05
0.00166173 -0.000102964 -8.95232e-07
-0.000102964 0.000146737 -1.33571e-07
-8.95232e-07 -1.33571e-07 2.07364e-05
0.000867312 -0.000106927 -4.44838e-06
-0.000106927 0.000127567 3.33279e-06
-4.44838e-06 3.33279e-06 1.59034e-05
0.00113583 -0.000183884 -2.74692e-06
-0.000183884 0.00022445 4.04138e-06
-2.74692e-06 4.04138e-06 6.57081e-05
0.000848151 -0.000190513 -2.93336e-06
-0.000190513 -7.28522e-05 9.19447e-07
-2.93336e-06 9.19447e-07 -0.000263947
0.00164411 -0.000161705 -1.81499e-06
-0.000161705 0.000189148 1.23e-07
-1.81499e-06 1.23e-07 4.90077e-05
0.00173781 -0.000147917 3.69272e-06
-0.000147917 0.000151514 -1.61925e-06
3.69272e-06 -1.61925e-06 4.33182e-05
0.00158915 -0.000198795 1.93084e-06
-0.000198795 0.000123855 -1.27564e-06
1.93084e-06 -1.27564e-06 -1.72848e-05
0.001612 -0.000241855 -2.00585e-06
-0.000241855 0.000202831 -1.26242e-06
-2.00585e-06 -1.26242e-06 1.77137e-05
0.00193442 -0.000248444 5.47952e-06
-0.000248444 0.000302151 -5.90927e-06
5.47952e-06 -5.90927e-06 0.00015673
0.000942527 -0.000117299 -1.53636e-06
-0.000117299 0.00016178 -1.7271e-07
-1.53636e-06 -1.7271e-07 3.56311e-05
0.000846303 -0.000117491 -1.8643e-06
-0.000117491 0.00011201 -1.36125e-06
-1.8643e-06 -1.36125e-06 -2.29495e-05
0.000711573 -1.08549e-05 -1.5942e-06
-1.08549e-05 3.95954e-05 3.00425e-06
-1.5942e-06 3.00425e-06 -2.95325e-05
0.000498631 6.63868e-06 -2.40518e-07
6.63868e-06 -7.0364e-05 4.04381e-07
-2.40518e-07 4.04381e-07 -0.000178211
0.00163235 -2.2619e-05 -5.04514e-09
-2.2619e-05 9.42151e-05 -1.89252e-09
-5.04514e-09 -1.89252e-09 -2.011e-05
0.00174548 -6.95592e-05 -3.94353e-07
-6.95592e-05 0.000174917 -5.86887e-08
-3.94353e-07 -5.86887e-08 5.58276e-05
0.00170117 -5.51244e-05 8.10976e-07
-5.51244e-05 7.01049e-05 -1.52222e-07
8.10976e-07 -1.52222e-07 -3.18895e-05
0.00167873 -0.000129122 -1.0267e-06
-0.000129122 8.95566e-05 4.14055e-07
-1.0267e-06 4.14055e-07 -1.38692e-05
0.000958046 -0.000146823 -3.63459e-07
-0.000146823 0.000157317 7.40196e-07
-3.63459e-07 7.40196e-07 2.1775e-05
0.000645693 -0.000163861 9.98314e-07
-0.000163861 -6.86807e-05 -1.6826e-06
9.98314e-07 -1.6826e-06 -0.000246439
0.00163871 -0.000270787 -7.40184e-07
-0.000270787 0.000289505 5.95237e-07
-7.40184e-07 5.95237e-07 7.39198e-05
0.00163444 -0.00017471 -1.20365e-06
-0.00017471 0.000118875 5.61609e-07
-1.20365e-06 5.61609e-07 -8.60111e-06
0.00169919 -0.000151404 1.90022e-06
-0.000151404 8.39733e-05 -9.52812e-07
1.90022e-06 -9.52812e-07 -9.47284e-06
0.00171854 -0.0002619 -1.05145e-06
-0.0002619 0.000216137 1.16929e-06
-1.05145e-06 1.16929e-06 3.17874e-05
0.0016542 -0.000220603 -2.93135e-07
-0.000220603 0.000110108 7.59764e-07
-2.93135e-07 7.59764e-07 -1.45512e-05
0.00179218 -0.000245712 2.7341e-06
-0.000245712 0.000182799 -3.97247e-06
2.7341e-06 -3.97247e-06 4.30458e-05
0.000998102 -0.000171131 3.1024e-07
-0.000171131 0.000190355 6.13746e-07
3.1024e-07 6.13746e-07 4.66183e-05
0.00108136 -0.000171871 1.21504e-06
-0.000171871 0.000240379 5.88858e-07
1.21504e-06 5.88858e-07 9.76444e-05
0.000830345 -8.51523e-05 -4.26287e-07
-8.51523e-05 0.000125262 1.19777e-07
-4.26287e-07 1.19777e-07 -8.45297e-06
0.000538402 6.48074e-06 -7.56323e-07
6.48074e-06 -5.9303e-05 1.35855e-07
-7.56323e-07 1.35855e-07 -0.000122986
0.000537372 1.18016e-05 -9.81424e-08
1.18016e-05 -3.74363e-05 -5.94217e-07
-9.81424e-08 -5.94217e-07 -0.000141662
0.00179407 -3.58993e-05 5.84306e-07
-3.58993e-05 0.000111527 -3.17122e-07
5.84306e-07 -3.17122e-07 1.23967e-05
0.00177055 -7.78555e-05 -1.29323e-08
-7.78555e-05 0.000105906 1.19585e-07
-1.29323e-08 1.19585e-07 1.03419e-05
0.00183721 -0.000150538 -2.58917e-06
-0.000150538 0.000138231 -4.48812e-07
-2.58917e-06 -4.48812e-07 5.53904e-05
0.00155803 -0.000175734 -2.03337e-06
-0.000175734 2.08065e-05 1.15374e-06
-2.03337e-06 1.15374e-06 -8.00966e-05
0.000889912 -0.00016828 -7.15971e-07
-0.00016828 0.000119177 -3.45283e-07
-7.15971e-07 -3.45283e-07 -3.54364e-05
0.00206911 -0.00025613 -4.44411e-06
-0.00025613 0.000294679 1.94663e-06
-4.44411e-06 1.94663e-06 0.000175949
-0.000114875 -0.000123276 -1.39771e-06
-0.000123276 -0.000522938 -5.72076e-06
-1.39771e-06 -5.72076e-06 -0.000710264
0.00219441 -0.0003274 2.6272e-06
-0.0003274 0.000550706 5.01938e-07
2.6272e-06 5.01938e-07 0.000324237
0.00163167 -0.000266189 5.02566e-07
-0.000266189 0.000122791 3.7816e-06
5.02566e-07 3.7816e-06 -5.57228e-05
0.000361833 1.57956e-05 1.13273e-06
1.57956e-05 -0.000160206 -3.54855e-06
1.13273e-06 -3.54855e-06 -0.000219073
0.000811317 -2.03102e-05 1.27852e-06
-2.03102e-05 0.000123449 -1.20956e-06
1.27852e-06 -1.20956e-06 2.58826e-05
0.000923778 -5.46441e-05 -3.7854e-07
-5.46441e-05 0.00018461 -5.78476e-07
-3.7854e-07 -5.78476e-07 6.45621e-05
0.00101972 -0.000177606 -2.19127e-06
-0.000177606 0.000191261 2.95978e-06
-2.19127e-06 2.95978e-06 4.74153e-05
0.000880314 -0.000113172 2.38119e-06
-0.000113172 0.000145185 2.60782e-06
2.38119e-06 2.60782e-06 1.9028e-06
0.000713802 -0.000157179 2.41075e-07
-0.000157179 1.05198e-05 1.98287e-06
2.41075e-07 1.98287e-06 -0.000130346
0.000602155 -4.72578e-05 -1.28924e-06
-4.72578e-05 -3.03626e-05 -3.98805e-06
-1.28924e-06 -3.98805e-06 -4.71099e-05
0.000647487 -4.52561e-05 -1.72208e-06
-4.52561e-05 2.41756e-06 -1.7962e-06
-1.72208e-06 -1.7962e-06 -4.8067e-05
0.00155746 0.000169205 -8.65947e-07
0.000169205 0.000115454 -5.80756e-08
-8.65947e-07 -5.80756e-08 -3.48546e-05
0.000671215 -6.57459e-05 1.22467e-06
-6.57459e-05 3.90827e-05 -1.5969e-06
1.22467e-06 -1.5969e-06 -5.23671e-05
0.000822681 9.54738e-05 -7.14887e-07
9.54738e-05 0.000106747 -8.60631e-07
-7.14887e-07 -8.60631e-07 -2.07393e-05
0.000592752 4.47004e-05 1.70327e-06
4.47004e-05 -1.75887e-06 -4.09935e-07
1.70327e-06 -4.09935e-07 -0.000130402
0.00151551 0.000215237 -2.35978e-06
0.000215237 0.000164651 -7.21375e-07
-2.35978e-06 -7.21375e-07 -3.85248e-06
0.00159859 0.000230079 1.35817e-06
0.000230079 0.000124347 7.98178e-07
1.35817e-06 7.98178e-07 -3.66534e-05
0.00100461 0.000180498 -9.13764e-08
0.000180498 0.000197066 -9.80783e-07
-9.13764e-08 -9.80783e-07 6.32363e-06
0.00133545 0.000238433 -1.41415e-06
0.000238433 0.000211409 -1.26286e-06
-1.41415e-06 -1.26286e-06 5.59223e-06
0.00167309 0.000253817 -4.27257e-06
0.000253817 0.000272348 -2.13876e-06
-4.27257e-06 -2.13876e-06 9.64553e-05
0.00068284 -2.94009e-05 -2.26046e-07
-2.94009e-05 1.27786e-05 4.70195e-08
-2.26046e-07 4.70195e-08 -3.22129e-05
0.000727691 -1.89743e-05 -8.02871e-07
-1.89743e-05 5.96894e-05 3.80228e-07
-8.02871e-07 3.80228e-07 -1.73089e-05
0.00101595 0.000169325 -8.68853e-07
0.000169325 0.000223185 -2.53725e-07
-8.68853e-07 -2.53725e-07 6.20526e-05
0.000803987 -2.03008e-06 1.65114e-07
-2.03008e-06 0.000120957 1.65917e-07
1.65114e-07 1.65917e-07 1.17707e-05
0.000918656 0.000100705 2.98349e-07
0.000100705 0.000182702 9.48282e-08
2.98349e-07 9.48282e-08 3.89017e-05
0.00163935 0.000180209 -1.69616e-06
0.000180209 0.00011673 -1.28487e-06
-1.69616e-06 -1.28487e-06 -2.22227e-05
0.00160712 0.000249517 1.37802e-06
0.000249517 0.000168968 4.05992e-07
1.37802e-06 4.05992e-07 -4.71795e-06
0.001596 0.000251096 5.92603e-07
0.000251096 8.96096e-05 5.85026e-08
5.92603e-07 5.85026e-08 -6.01823e-05
0.000702912 0.000170155 4.49795e-07
0.000170155 1.38926e-06 3.48429e-06
4.49795e-07 3.48429e-06 -0.000216867
0.00168702 0.000278153 -1.27808e-06
0.000278153 0.000294618 -4.67145e-07
-1.27808e-06 -4.67145e-07 9.42049e-05
0.000775214 1.84944e-05 9.95921e-07
1.84944e-05 7.78704e-05 1.1237e-06
9.95921e-07 1.1237e-06 8.81323e-06
0.000557834 -2.57226e-05 -8.83761e-07
-2.57226e-05 -2.78846e-05 2.05904e-06
-8.83761e-07 2.05904e-06 -0.000120243
0.000938519 0.000170449 -2.80752e-06
0.000170449 0.00016734 -1.38273e-06
-2.80752e-06 -1.38273e-06 -9.86938e-06
0.000787982 5.08739e-05 -2.30703e-06
5.08739e-05 0.000124818 -1.58852e-06
-2.30703e-06 -1.58852e-06 -1.06011e-05
0.000982719 0.000160293 -1.16501e-06
0.000160293 0.000200437 -1.82233e-06
-1.16501e-06 -1.82233e-06 4.74636e-05
0.00160317 0.000195571 -1.59185e-06
0.000195571 2.30452e-05 -2.60539e-06
-1.59185e-06 -2.60539e-06 -8.81945e-05
0.00182084 0.000290496 1.36369e-06
0.000290496 0.000263913 -1.94057e-06
1.36369e-06 -1.94057e-06 8.52288e-05
0.00151199 0.000255382 2.03041e-06
0.000255382 2.73504e-05 2.34453e-08
2.03041e-06 2.34453e-08 -0.000121596
0.00178465 0.000260225 2.07539e-06
0.000260225 0.0005408 6.27696e-06
2.07539e-06 6.27696e-06 0.000303416
0.00117928 0.000253022 -7.33865e-07
0.000253022 -1.39381e-05 -7.9995e-07
-7.33865e-07 -7.9995e-07 -0.000211162
0.000684332 -3.07171e-05 -1.54832e-06
-3.07171e-05 9.6883e-06 -1.89713e-06
-1.54832e-06 -1.89713e-06 -3.36166e-05
0.00067103 6.40956e-06 5.09513e-07
6.40956e-06 1.45263e-05 4.15236e-07
5.09513e-07 4.15236e-07 -5.0913e-05
0.000631363 -2.02004e-05 -2.55244e-07
-2.02004e-05 1.71479e-07 5.31947e-07
-2.55244e-07 5.31947e-07 -7.44392e-05
0.000552221 -4.09553e-05 -8.12826e-07
-4.09553e-05 -5.19515e-05 -8.70327e-07
-8.12826e-07 -8.70327e-07 -0.00011697
0.000723626 1.32332e-05 -4.7941e-08
1.32332e-05 4.78651e-05 2.04651e-08
-4.7941e-08 2.04651e-08 -1.7557e-05
0.00074808 1.36106e-05 -3.91369e-08
1.36106e-05 6.67261e-05 -3.61877e-07
-3.91369e-08 -3.61877e-07 -8.52389e-06
0.000843805 4.11285e-05 -3.1772e-07
4.11285e-05 0.000128818 -8.25966e-07
-3.1772e-07 -8.25966e-07 4.5308e-05
0.000635542 -2.67767e-05 6.91257e-07
-2.67767e-05 1.02609e-05 2.08152e-07
6.91257e-07 2.08152e-07 -7.14107e-05
0.000746727 2.88858e-05 5.74002e-07
2.88858e-05 5.71999e-05 8.73141e-07
5.74002e-07 8.73141e-07 -5.79721e-06
0.000695599 1.02149e-05 1.28618e-06
1.02149e-05 1.34096e-05 1.84128e-06
1.28618e-06 1.84128e-06 -2.84165e-05
0.000701785 -6.98266e-06 -4.96364e-07
-6.98266e-06 1.46027e-05 1.43192e-08
-4.96364e-07 1.43192e-08 -2.65541e-05
0.00126816 -2.80147e-05 8.35719e-07
-2.80147e-05 0.000329334 2.30132e-06
8.35719e-07 2.30132e-06 0.000322846
0.000690163 -2.93662e-05 -7.29425e-07
-2.93662e-05 8.89591e-06 -1.96863e-06
-7.29425e-07 -1.96863e-06 -3.2789e-05
0.00129156 -3.56895e-05 -4.19418e-06
-3.56895e-05 0.000346655 -1.35345e-06
-4.19418e-06 -1.35345e-06 0.000339448
0.000911131 -2.90061e-05 1.81263e-05
-2.90061e-05 0.000134002 7.26172e-06
1.81263e-05 7.26172e-06 0.000143303
0.00131273 -4.33633e-05 -8.36578e-06
-4.33633e-05 0.000363965 -5.04578e-06
-8.36578e-06 -5.04578e-06 0.000355421
0.000846237 -3.61056e-05 6.99729e-06
-3.61056e-05 0.000102985 2.712e-06
6.99729e-06 2.712e-06 0.000110572
0.00212472 -7.2514e-05 -5.7877e-06
-7.2514e-05 0.000849088 -1.71017e-06
-5.7877e-06 -1.71017e-06 0.000860038
0.000592114 3.88253e-05 5.17096e-07
3.88253e-05 -3.95204e-05 -4.24069e-06
5.17096e-07 -4.24069e-06 -5.84624e-05
0.000583594 4.73269e-05 -5.87832e-08
4.73269e-05 -3.54259e-05 6.28818e-08
-5.87832e-08 6.28818e-08 -5.9785e-05
0.00249309 8.2474e-05 3.04801e-05
8.2474e-05 0.00106849 -3.79835e-06
3.04801e-05 -3.79835e-06 0.00107536
0.000605238 4.27524e-05 -1.64273e-06
4.27524e-05 -1.68902e-05 5.44053e-06
-1.64273e-06 5.44053e-06 -4.50758e-05
0.00269154 9.44167e-05 -3.80746e-06
9.44167e-05 0.00118868 -2.56361e-07
-3.80746e-06 -2.56361e-07 0.00119269
0.00293003 9.86419e-05 -6.23538e-05
9.86419e-05 0.00132889 3.16047e-06
-6.23538e-05 3.16047e-06 0.00133196
0.00155097 0.000131116 -1.43902e-06
0.000131116 9.49395e-05 4.30487e-07
-1.43902e-06 4.30487e-07 -4.33955e-05
0.00163672 8.53295e-05 5.89483e-07
8.53295e-05 0.000110422 7.13336e-07
5.89483e-07 7.13336e-07 -1.15685e-05
0.00169083 0.000123906 2.79764e-06
0.000123906 8.40389e-05 1.96799e-06
2.79764e-06 1.96799e-06 -1.89438e-05
0.00184725 7.49791e-05 3.00103e-06
7.49791e-05 0.000143739 4.11719e-07
3.00103e-06 4.11719e-07 4.93717e-05
0.00169021 2.04156e-05 -8.36413e-07
2.04156e-05 0.000111561 -1.58587e-09
-8.36413e-07 -1.58587e-09 6.25483e-08
0.00139523 1.29963e-05 -3.74991e-06
1.29963e-05 5.50928e-05 3.90359e-08
-3.74991e-06 3.90359e-08 -6.76099e-05
0.00165187 2.66109e-06 -6.21863e-07
2.66109e-06 9.65629e-05 -3.02524e-09
-6.21863e-07 -3.02524e-09 -1.63442e-05
0.00172606 3.86251e-05 8.31172e-07
3.86251e-05 7.35911e-05 -8.1699e-08
8.31172e-07 -8.1699e-08 -2.62684e-05
0.0017554 0.000102622 -1.15596e-06
0.000102622 0.000103656 -3.00642e-07
-1.15596e-06 -3.00642e-07 4.728e-06
0.00176093 7.93806e-05 2.24295e-06
7.93806e-05 8.05119e-05 1.28147e-08
2.24295e-06 1.28147e-08 2.01685e-07
0.00161322 0.000132187 -7.60272e-07
0.000132187 7.67835e-05 -8.88052e-08
-7.60272e-07 -8.88052e-08 -4.12448e-05
0.00180604 0.000141107 3.34496e-06
0.000141107 0.000110601 9.97254e-07
3.34496e-06 9.97254e-07 2.40029e-05
0.00175935 -1.33686e-06 -2.86836e-07
-1.33686e-06 0.000103293 2.79143e-07
-2.86836e-07 2.79143e-07 2.98287e-06
0.00168066 4.71395e-05 4.19611e-07
4.71395e-05 3.39606e-05 1.20848e-06
4.19611e-07 1.20848e-06 -4.79284e-05
0.00181091 0.000103952 -6.43281e-09
0.000103952 9.39843e-05 -2.37087e-07
-6.43281e-09 -2.37087e-07 1.81997e-05
0.00188564 0.00016729 -6.55816e-07
0.00016729 0.000158532 -1.1985e-06
-6.55816e-07 -1.1985e-06 6.92413e-05
0.00162985 -2.23749e-05 -2.06796e-07
-2.23749e-05 9.30722e-05 -6.00453e-08
-2.06796e-07 -6.00453e-08 -2.13202e-05
0.00165897 -7.01737e-05 -2.36605e-07
-7.01737e-05 0.000125455 -7.6413e-07
-2.36605e-07 -7.6413e-07 4.7697e-06
0.00174711 -5.47545e-05 2.23399e-06
-5.47545e-05 9.84575e-05 -3.34111e-07
2.23399e-06 -3.34111e-07 -1.94266e-06
0.00163648 -0.000126771 1.43378e-06
-0.000126771 7.25176e-05 -3.53575e-07
1.43378e-06 -3.53575e-07 -3.28676e-05
0.00111289 -0.000157455 -1.76729e-06
-0.000157455 0.000244718 1.84583e-06
-1.76729e-06 1.84583e-06 0.000106845
0.000962879 -0.000185764 8.97789e-07
-0.000185764 0.000113649 2.02946e-06
8.97789e-07 2.02946e-06 -6.35273e-05
0.00102986 -0.000228037 -2.24158e-06
-0.000228037 -5.25382e-05 2.06458e-06
-2.24158e-06 2.06458e-06 -0.000264884
0.00156489 -0.000171838 4.07742e-07
-0.000171838 8.45627e-05 -6.9611e-07
4.07742e-07 -6.9611e-07 -4.56308e-05
0.00164348 -0.000152886 4.48371e-06
-0.000152886 4.96532e-05 -2.31398e-06
4.48371e-06 -2.31398e-06 -4.13659e-05
0.00168217 -0.000221116 4.1961e-06
-0.000221116 0.000128182 -1.42691e-06
4.1961e-06 -1.42691e-06 3.50369e-06
0.00169684 -0.00026202 -1.19128e-06
-0.00026202 0.000205342 -3.01051e-06
-1.19128e-06 -3.01051e-06 2.01811e-05
0.00166993 -0.000240609 4.13039e-06
-0.000240609 0.00010787 -9.57595e-06
4.13039e-06 -9.57595e-06 -2.89083e-05
0.00111759 -0.000180899 4.5352e-07
-0.000180899 0.000257308 -8.40049e-07
4.5352e-07 -8.40049e-07 0.000112046
0.00108376 -0.000172529 4.07338e-07
-0.000172529 0.000237976 -3.80469e-06
4.07338e-07 -3.80469e-06 9.66656e-05
0.000782743 -6.32329e-05 -2.67293e-07
-6.32329e-05 9.32656e-05 2.45127e-07
-2.67293e-07 2.45127e-07 -3.66128e-05
0.000420189 1.55882e-05 -1.80487e-06
1.55882e-05 -0.00012582 2.72329e-06
-1.80487e-06 2.72329e-06 -0.00019124
0.000519955 3.4625e-05 3.05921e-07
3.4625e-05 -4.91433e-05 6.10231e-07
3.05921e-07 6.10231e-07 -0.000150346
0.00182186 -3.86198e-05 1.60136e-07
-3.86198e-05 0.00013003 6.55672e-09
1.60136e-07 6.55672e-09 3.08729e-05
0.0017789 -8.08743e-05 5.4109e-07
-8.08743e-05 0.000111537 -5.30129e-07
5.4109e-07 -5.30129e-07 1.51737e-05
0.00175943 -0.000147157 -1.38514e-06
-0.000147157 9.78391e-05 1.21876e-07
-1.38514e-06 1.21876e-07 1.2893e-05
0.00104415 -0.000179769 -1.52036e-07
-0.000179769 0.00020331 1.14194e-06
-1.52036e-07 1.14194e-06 4.70495e-05
0.000771541 -0.00018808 1.73213e-06
-0.00018808 -2.73539e-05 -2.66832e-06
1.73213e-06 -2.66832e-06 -0.000220465
0.0016982 -0.000293089 -1.055e-06
-0.000293089 0.000272378 7.94426e-07
-1.055e-06 7.94426e-07 4.71393e-05
0.00159347 -0.00017711 3.99748e-07
-0.00017711 3.84405e-05 -1.58237e-07
3.99748e-07 -1.58237e-07 -6.30517e-05
0.00160409 -0.00026199 8.72342e-07
-0.00026199 0.000110657 -2.20136e-06
8.72342e-07 -2.20136e-06 -6.26266e-05
0.0017841 -0.000243317 -5.56028e-07
-0.000243317 0.00014032 -1.04544e-06
-5.56028e-07 -1.04544e-06 2.0785e-05
0.000385259 2.02491e-05 1.31817e-07
2.02491e-05 -0.000148301 -7.71448e-07
1.31817e-07 -7.71448e-07 -0.00020566
0.00108018 -0.000181681 -9.84309e-08
-0.000181681 0.000221181 6.63735e-07
-9.84309e-08 6.63735e-07 7.71183e-05
0.000758196 -0.000159088 -7.1376e-07
-0.000159088 4.10218e-05 6.5618e-08
-7.1376e-07 6.5618e-08 -9.58124e-05
0.000992952 -0.000126714 -5.57052e-07
-0.000126714 0.00021294 7.83658e-07
-5.57052e-07 7.83658e-07 6.37198e-05
0.00097183 -5.48816e-05 -6.0777e-08
-5.48816e-05 0.000212217 -1.6622e-07
-6.0777e-08 -1.6622e-07 9.21357e-05
0.00068067 6.87672e-06 -3.22577e-07
6.87672e-06 4.46184e-05 3.63018e-07
-3.22577e-07 3.63018e-07 -5.0793e-05
0.00159769 -4.409e-05 -3.99567e-07
-4.409e-05 -6.30937e-06 -2.75316e-07
-3.99567e-07 -2.75316e-07 -9.57856e-05
0.00195641 -0.00011279 -7.17108e-07
-0.00011279 0.000164997 -1.62057e-07
-7.17108e-07 -1.62057e-07 9.06782e-05
0.00155195 -0.000164982 -5.73554e-07
-0.000164982 -3.00277e-05 -1.48578e-07
-5.73554e-07 -1.48578e-07 -0.000109829
0.00195448 -0.000221445 -1.65995e-06
-0.000221445 0.000181752 -4.7715e-07
-1.65995e-06 -4.7715e-07 8.81237e-05
0.00106476 -0.000190688 -2.24833e-06
-0.000190688 0.000201132 -2.13959e-07
-2.24833e-06 -2.13959e-07 3.67294e-05
0.00177666 -0.000271869 2.88672e-07
-0.000271869 0.00015816 4.11216e-06
2.88672e-07 4.11216e-06 1.45827e-05
0.000683889 -0.000209328 -1.4847e-06
-0.000209328 -0.000134017 -2.5352e-06
-1.4847e-06 -2.5352e-06 -0.000360161
0.0018769 -0.000321319 1.35075e-07
-0.000321319 0.000346542 3.06754e-06
1.35075e-07 3.06754e-06 0.000116063
0.000369001 3.8827e-05 -6.92111e-07
3.8827e-05 -0.000161465 -2.9812e-06
-6.92111e-07 -2.9812e-06 -0.000212198
0.000810183 -1.30948e-05 1.13092e-06
-1.30948e-05 0.000117298 -1.38838e-06
1.13092e-06 -1.38838e-06 2.98584e-05
0.000985653 -7.5414e-05 -1.14772e-07
-7.5414e-05 0.00022255 5.65042e-07
-1.14772e-07 5.65042e-07 0.000110534
0.000820102 -2.08152e-05 -2.8065e-07
-2.08152e-05 0.000122225 -4.19916e-07
-2.8065e-07 -4.19916e-07 -1.16006e-05
0.00084384 -0.000173525 -1.06581e-06
-0.000173525 7.05843e-05 8.8608e-07
-1.06581e-06 8.8608e-07 -7.37659e-05
0.000960416 -0.000173695 -3.59885e-06
-0.000173695 0.000155783 3.36818e-06
-3.59885e-06 3.36818e-06 5.49365e-07
0.000667871 -3.50663e-05 -1.94807e-06
-3.50663e-05 5.09436e-06 -1.81293e-06
-1.94807e-06 -1.81293e-06 -4.02495e-05
0.00065469 -6.0144e-05 6.06119e-08
-6.0144e-05 1.8742e-05 -1.02728e-06
6.06119e-08 -1.02728e-06 -5.73312e-05
0.00165189 0.000183583 -7.75573e-07
0.000183583 0.000123334 2.20745e-07
-7.75573e-07 2.20745e-07 -1.67634e-05
0.000707742 -3.82055e-05 9.04729e-07
-3.82055e-05 6.36794e-05 -7.83462e-07
9.04729e-07 -7.83462e-07 -4.13975e-05
0.000921517 0.0001611 5.16015e-07
0.0001611 0.00017061 -7.7523e-07
5.16015e-07 -7.7523e-07 1.11149e-05
0.000405818 5.65309e-05 1.84979e-06
5.65309e-05 -0.000112561 6.36385e-07
1.84979e-06 6.36385e-07 -0.000248371
0.00158334 0.000247242 -3.71229e-07
0.000247242 0.00015523 1.06783e-07
-3.71229e-07 1.06783e-07 -1.85399e-05
0.00171474 0.000254247 3.75599e-07
0.000254247 0.000155368 1.43442e-06
3.75599e-07 1.43442e-06 6.41576e-06
0.000502129 0.000156904 1.13685e-07
0.000156904 -0.000115235 5.92017e-07
1.13685e-07 5.92017e-07 -0.000330396
0.00194843 0.000297341 -9.90551e-07
0.000297341 0.000446389 5.10421e-07
-9.90551e-07 5.10421e-07 0.000241126
0.000728489 -7.54251e-06 -6.94738e-07
-7.54251e-06 5.09165e-05 1.27369e-07
-6.94738e-07 1.27369e-07 -1.70919e-05
0.000687845 -7.95741e-06 1.09521e-07
-7.95741e-06 4.54725e-05 1.01369e-06
1.09521e-07 1.01369e-06 -4.80194e-05
0.00107586 0.00018096 -1.99933e-07
0.00018096 0.000251923 -2.2454e-06
-1.99933e-07 -2.2454e-06 7.15182e-05
0.000572566 -1.03642e-06 -4.02139e-07
-1.03642e-06 -9.46567e-06 -1.55073e-07
-4.02139e-07 -1.55073e-07 -0.000134352
0.000764246 0.000128376 -1.69853e-06
0.000128376 7.4176e-05 -6.23996e-07
-1.69853e-06 -6.23996e-07 -6.58805e-05
0.00185114 0.000203882 -2.32947e-06
0.000203882 0.000161499 -1.18115e-06
-2.32947e-06 -1.18115e-06 5.23946e-05
0.00185936 0.00028976 1.27086e-06
0.00028976 0.00028574 -3.00873e-07
1.27086e-06 -3.00873e-07 0.000108686
0.00159722 0.000265843 3.10238e-07
0.000265843 7.43836e-05 1.67913e-06
3.10238e-07 1.67913e-06 -7.65614e-05
0.00151613 0.000243249 2.44001e-06
0.000243249 0.000400612 3.84579e-06
2.44001e-06 3.84579e-06 0.000159489
0.00131504 0.000266826 -1.7505e-06
0.000266826 5.48927e-05 5.01219e-07
-1.7505e-06 5.01219e-07 -0.000146646
0.000522279 -3.0286e-05 -3.1926e-07
-3.0286e-05 -5.49463e-05 1.43275e-06
-3.1926e-07 1.43275e-06 -0.00013504
0.000356359 5.32658e-05 -4.57036e-07
5.32658e-05 -0.000121799 7.68885e-07
-4.57036e-07 7.68885e-07 -0.000240657
0.0010686 0.000184786 1.09726e-06
0.000184786 0.000226222 2.42865e-06
1.09726e-06 2.42865e-06 2.78275e-05
-0.000212685 5.10773e-05 1.84197e-06
5.10773e-05 -0.000458501 1.94116e-07
1.84197e-06 1.94116e-07 -0.000604381
0.00191702 0.000206467 -2.52307e-06
0.000206467 8.68224e-05 -6.84998e-07
-2.52307e-06 -6.84998e-07 8.35904e-06
0.00205292 0.000254205 1.21927e-06
0.000254205 0.000259459 -4.77858e-07
1.21927e-06 -4.77858e-07 0.000141214
0.00177637 0.000318529 -1.12386e-06
0.000318529 0.0002133 -2.46407e-06
-1.12386e-06 -2.46407e-06 2.44059e-05
-0.000219496 0.000132178 -1.33488e-06
0.000132178 -0.000647151 1.8232e-06
-1.33488e-06 1.8232e-06 -0.000883732
0.000723786 2.59335e-05 -7.9337e-07
2.59335e-05 4.92899e-05 -3.41785e-07
-7.9337e-07 -3.41785e-07 -1.88825e-05
0.000704884 6.01949e-06 -3.23143e-07
6.01949e-06 4.71544e-05 3.70033e-07
-3.23143e-07 3.70033e-07 -3.06987e-05
0.000835042 -1.07171e-05 -6.39996e-07
-1.07171e-05 0.000124141 -7.4994e-08
-6.39996e-07 -7.4994e-08 4.47041e-05
0.000708586 -2.17182e-05 -1.15119e-06
-2.17182e-05 3.55307e-05 -8.65943e-07
-1.15119e-06 -8.65943e-07 -2.69472e-05
0.000581277 -2.73502e-05 -2.27479e-07
-2.73502e-05 -2.59856e-05 -5.27174e-07
-2.27479e-07 -5.27174e-07 -0.000101976
0.000732105 4.86303e-06 -1.98247e-09
4.86303e-06 5.04292e-05 -6.20198e-09
-1.98247e-09 -6.20198e-09 -1.35475e-05
0.000730906 4.17343e-05 -4.64004e-07
4.17343e-05 7.24128e-05 -2.58868e-07
-4.64004e-07 -2.58868e-07 -1.56086e-05
0.000688753 1.83629e-06 5.02157e-07
1.83629e-06 4.27678e-05 3.15468e-07
5.02157e-07 3.15468e-07 -4.00541e-05
0.000802189 1.15359e-05 7.09316e-07
1.15359e-05 0.000104075 5.78984e-08
7.09316e-07 5.78984e-08 1.94419e-05
0.000749929 -3.32301e-05 9.3633e-07
-3.32301e-05 7.783e-05 -4.70557e-07
9.3633e-07 -4.70557e-07 -1.06775e-05
0.000610017 2.4989e-05 4.61792e-07
2.4989e-05 -5.2437e-06 6.96274e-07
4.61792e-07 6.96274e-07 -8.84608e-05
0.000723603 4.25407e-05 9.00994e-07
4.25407e-05 4.70159e-05 1.03274e-06
9.00994e-07 1.03274e-06 -1.90273e-05
0.00067492 2.13786e-05 8.55486e-07
2.13786e-05 6.01976e-06 1.75531e-06
8.55486e-07 1.75531e-06 -3.73463e-05
0.00068387 -5.34468e-06 -4.01755e-07
-5.34468e-06 7.34526e-06 1.74946e-08
-4.01755e-07 1.74946e-08 -3.48496e-05
0.0012754 -1.80737e-05 6.6137e-07
-1.80737e-05 0.000330995 2.21194e-06
6.6137e-07 2.21194e-06 0.000324868
0.000688634 -2.43337e-05 -4.64148e-07
-2.43337e-05 7.87726e-06 -1.94897e-06
-4.64148e-07 -1.94897e-06 -3.36775e-05
0.00130078 -2.55438e-05 -3.4753e-06
-2.55438e-05 0.000348184 -1.42964e-06
-3.4753e-06 -1.42964e-06 0.000341704
0.000918299 -2.21979e-05 1.50987e-05
-2.21979e-05 0.000133346 7.56356e-06
1.50987e-05 7.56356e-06 0.000143396
0.00132151 -3.36427e-05 -6.87053e-06
-3.36427e-05 0.000363681 -5.08303e-06
-6.87053e-06 -5.08303e-06 0.000356499
0.000855875 -2.94821e-05 5.65187e-06
-2.94821e-05 0.000101979 2.81053e-06
5.65187e-06 2.81053e-06 0.000111128
0.000788863 -3.55765e-05 -1.81996e-06
-3.55765e-05 6.98782e-05 -1.90306e-06
-1.81996e-06 -1.90306e-06 7.74764e-05
0.000603094 3.30667e-05 5.04088e-07
3.30667e-05 -4.14795e-05 -3.82631e-06
5.04088e-07 -3.82631e-06 -5.59007e-05
0.000602617 4.05962e-05 -1.59194e-07
4.05962e-05 -3.31562e-05 7.35161e-08
-1.59194e-07 7.35161e-08 -5.24918e-05
0.00234457 6.97592e-05 2.45322e-05
6.97592e-05 0.000975793 -3.9895e-06
2.45322e-05 -3.9895e-06 0.000985961
0.000602333 4.35926e-05 -1.07597e-06
4.35926e-05 -2.50732e-05 4.9188e-06
-1.07597e-06 4.9188e-06 -4.91595e-05
0.00255269 8.34622e-05 -3.66654e-06
8.34622e-05 0.00110299 -2.38348e-07
-3.66654e-06 -2.38348e-07 0.00110961
0.00275137 9.29213e-05 -4.75938e-05
9.29213e-05 0.0012224 3.33514e-06
-4.75938e-05 3.33514e-06 0.00122688
0.0016321 0.000131111 1.39857e-06
0.000131111 9.33945e-05 2.30282e-06
1.39857e-06 2.30282e-06 -2.45877e-05
0.00171878 0.000100635 8.38327e-07
0.000100635 8.19889e-05 3.95185e-07
8.38327e-07 3.95185e-07 -1.83505e-05
0.00170147 0.000142004 4.66099e-06
0.000142004 4.86971e-05 1.51283e-06
4.66099e-06 1.51283e-06 -3.52471e-05
0.00172857 7.95964e-05 2.98621e-06
7.95964e-05 5.87424e-05 -5.47655e-07
2.98621e-06 -5.47655e-07 -1.87828e-05
0.00174995 3.34888e-05 1.99192e-06
3.34888e-05 8.95019e-05 -3.8744e-07
1.99192e-06 -3.8744e-07 -1.14111e-05
0.00164682 1.63245e-06 -9.51621e-07
1.63245e-06 9.33452e-05 -9.3158e-08
-9.51621e-07 -9.3158e-08 -2.06351e-05
0.0017538 1.16133e-06 -1.2157e-07
1.16133e-06 0.000100549 3.66839e-09
-1.2157e-07 3.66839e-09 3.31108e-07
0.00168075 4.43353e-05 1.54742e-06
4.43353e-05 3.9735e-05 -4.4659e-07
1.54742e-06 -4.4659e-07 -4.30393e-05
0.00180764 0.000107168 7.60869e-07
0.000107168 9.36371e-05 -2.76352e-07
7.60869e-07 -2.76352e-07 1.69383e-05
0.00192022 0.00016423 3.7717e-07
0.00016423 0.000168461 2.52811e-07
3.7717e-07 2.52811e-07 8.05157e-05
0.001721 -1.08574e-06 -1.57222e-06
-1.08574e-06 7.18883e-05 5.75094e-07
-1.57222e-06 5.75094e-07 -1.44319e-05
0.00189492 7.70388e-05 1.76661e-06
7.70388e-05 0.00010225 2.42913e-07
1.76661e-06 2.42913e-07 4.14864e-05
0.00167652 0.000151087 1.12321e-06
0.000151087 -3.1294e-05 -4.07659e-07
1.12321e-06 -4.07659e-07 -0.000103356
0.00185068 -4.11037e-05 6.22258e-07
-4.11037e-05 0.000149127 1.98394e-07
6.22258e-07 1.98394e-07 4.9955e-05
0.00178922 -8.36827e-05 1.12895e-06
-8.36827e-05 0.000118138 -5.75548e-07
1.12895e-06 -5.75548e-07 2.10054e-05
0.00168471 -0.000143225 9.45946e-07
-0.000143225 5.97605e-05 -9.50797e-08
9.45946e-07 -9.50797e-08 -2.723e-05
0.00119867 -0.000191202 1.09914e-07
-0.000191202 0.000287521 2.63821e-06
1.09914e-07 2.63821e-06 0.000129646
0.00171362 -0.00025716 -2.83077e-07
-0.00025716 0.000499034 1.97926e-06
-2.83077e-07 1.97926e-06 0.00030026
0.00128119 -0.000264724 -2.00273e-06
-0.000264724 3.81167e-05 1.11945e-06
-2.00273e-06 1.11945e-06 -0.000185401
0.00163038 -0.000178412 1.57807e-06
-0.000178412 5.74214e-05 -1.00535e-06
1.57807e-06 -1.00535e-06 -4.46049e-05
0.00150734 -0.000232892 1.47054e-06
-0.000232892 -1.24789e-05 -3.24603e-06
1.47054e-06 -3.24603e-06 -0.00013318
0.00162496 -0.000261308 -6.10605e-07
-0.000261308 0.000123417 -8.31473e-06
-6.10605e-07 -8.31473e-06 -4.51606e-05
0.00112687 -0.000184727 1.09702e-06
-0.000184727 0.000243814 -8.30997e-07
1.09702e-06 -8.30997e-07 9.95936e-05
0.000736403 -0.00015523 -5.37057e-06
-0.00015523 3.53515e-05 -2.47071e-06
-5.37057e-06 -2.47071e-06 -9.67816e-05
0.00114317 -0.000144016 -1.83116e-07
-0.000144016 0.000308471 -3.79273e-07
-1.83116e-07 -3.79273e-07 0.000149459
0.000408804 1.91551e-05 -5.01101e-07
1.91551e-05 -0.000135715 1.5653e-06
-5.01101e-07 1.5653e-06 -0.000192097
0.000976785 -4.91917e-05 3.93683e-07
-4.91917e-05 0.000211726 4.53344e-07
3.93683e-07 4.53344e-07 9.42655e-05
0.000560765 3.10234e-05 8.20077e-07
3.10234e-05 -2.90163e-05 1.76017e-06
8.20077e-07 1.76017e-06 -0.000121875
0.00172435 -4.37075e-05 -7.59828e-07
-4.37075e-05 6.31726e-05 1.62836e-08
-7.59828e-07 1.62836e-08 -2.6084e-05
0.00193166 -0.000113979 5.84378e-09
-0.000113979 0.000150781 -9.51539e-08
5.84378e-09 -9.51539e-08 7.67901e-05
0.00160582 -0.000165116 -3.66715e-07
-0.000165116 1.97698e-06 3.506e-07
-3.66715e-07 3.506e-07 -7.72214e-05
0.00110626 -0.000192118 1.83999e-07
-0.000192118 0.000221337 1.84129e-06
1.83999e-07 1.84129e-06 5.68762e-05
0.00089275 -0.000221325 -4.68067e-07
-0.000221325 -7.41397e-06 -1.35479e-07
-4.68067e-07 -1.35479e-07 -0.000229179
0.00179547 -0.000313234 -2.97626e-06
-0.000313234 0.000295832 1.0045e-06
-2.97626e-06 1.0045e-06 7.08325e-05
0.00190768 -0.000223001 9.26274e-07
-0.000223001 0.000155394 -5.62068e-07
9.26274e-07 -5.62068e-07 6.02761e-05
0.00172397 -0.000271916 1.31181e-06
-0.000271916 0.000123875 -1.36928e-06
1.31181e-06 -1.36928e-06 -2.0342e-05
0.000521706 2.60911e-05 2.90277e-07
2.60911e-05 -7.58539e-05 -7.66681e-07
2.90277e-07 -7.66681e-07 -0.000123848
0.00081594 -4.35918e-06 -4.21329e-07
-4.35918e-06 0.000118917 2.81356e-07
-4.21329e-07 2.81356e-07 3.22989e-05
0.000456704 -0.000142339 -2.24524e-06
-0.000142339 -0.000147711 1.91941e-06
-2.24524e-06 1.91941e-06 -0.000285932
0.00126086 -0.000185909 2.52746e-08
-0.000185909 0.000332088 -3.6946e-08
2.52746e-08 -3.6946e-08 0.0001805
0.000928996 -4.75357e-05 -1.199e-07
-4.75357e-05 0.000187869 -3.42525e-07
-1.199e-07 -3.42525e-07 5.18209e-05
0.00088558 -5.50318e-05 -5.1746e-07
-5.50318e-05 0.000165972 1.14999e-06
-5.1746e-07 1.14999e-06 5.35976e-05
0.00195027 -6.72913e-05 1.00621e-06
-6.72913e-05 0.000133835 3.48153e-07
1.00621e-06 3.48153e-07 7.291e-05
0.00183756 -0.000161062 -1.66788e-06
-0.000161062 5.76537e-05 -9.2787e-07
-1.66788e-06 -9.2787e-07 3.17066e-06
0.0018112 -0.000185549 9.51151e-07
-0.000185549 7.2723e-05 -2.40593e-07
9.51151e-07 -2.40593e-07 1.72851e-06
0.00218397 -0.000308424 5.73484e-06
-0.000308424 0.000282148 -4.78074e-07
5.73484e-06 -4.78074e-07 0.000168137
0.000266577 -0.000142948 -2.79322e-06
-0.000142948 -0.000261027 -1.28715e-06
-2.79322e-06 -1.28715e-06 -0.000438247
0.00176792 -0.000322764 -2.32418e-06
-0.000322764 0.00023864 8.20335e-06
-2.32418e-06 8.20335e-06 2.801e-05
0.00240063 -0.000361171 2.71107e-06
-0.000361171 0.000771133 -4.12931e-06
2.71107e-06 -4.12931e-06 0.000515486
0.000689067 2.60731e-05 5.51321e-07
2.60731e-05 1.37281e-05 -1.98329e-06
5.51321e-07 -1.98329e-06 -2.76297e-05
0.000726385 -8.39853e-05 1.69633e-06
-8.39853e-05 6.82149e-05 -2.01056e-06
1.69633e-06 -2.01056e-06 -7.47517e-06
0.000516609 1.81325e-05 -1.15547e-07
1.81325e-05 -5.05112e-05 -2.19707e-06
-1.15547e-07 -2.19707e-06 -0.000133479
0.000808594 -3.85715e-05 1.00874e-06
-3.85715e-05 0.00012946 4.48491e-07
1.00874e-06 4.48491e-07 2.12453e-05
0.00073518 -7.19803e-06 1.01715e-06
-7.19803e-06 7.10957e-05 -1.5845e-06
1.01715e-06 -1.5845e-06 -4.36637e-05
0.000257942 -9.76216e-05 7.40548e-07
-9.76216e-05 -0.000176258 2.51307e-06
7.40548e-07 2.51307e-06 -0.000320012
0.000347593 -0.000141163 -1.39127e-06
-0.000141163 -0.000257435 3.10785e-07
-1.39127e-06 3.10785e-07 -0.000386822
0.0021074 -0.000252922 -7.23641e-06
-0.000252922 0.000853739 3.8294e-06
-7.23641e-06 3.8294e-06 0.000656745
0.000703455 -3.02677e-05 -8.15727e-07
-3.02677e-05 3.38316e-05 -7.24763e-07
-8.15727e-07 -7.24763e-07 -3.14757e-05
0.000838423 -1.87405e-06 3.69353e-09
-1.87405e-06 0.000132306 -9.31177e-08
3.69353e-09 -9.31177e-08 3.68035e-05
0.00210012 0.000211175 -2.6153e-07
0.000211175 0.000302159 3.22937e-07
-2.6153e-07 3.22937e-07 0.000195355
0.000728586 2.78209e-05 -1.51587e-07
2.78209e-05 8.52077e-05 -1.05434e-07
-1.51587e-07 -1.05434e-07 -4.60408e-05
0.00120732 0.000191578 1.49365e-06
0.000191578 0.000335834 -2.51772e-06
1.49365e-06 -2.51772e-06 0.000150083
0.000551819 9.76273e-05 8.79266e-08
9.76273e-05 -4.59969e-05 9.49625e-07
8.79266e-08 9.49625e-07 -0.000173857
0.00189057 0.000288179 -8.6052e-08
0.000288179 0.000303413 6.40161e-07
-8.6052e-08 6.40161e-07 0.000128176
0.00171589 0.000277959 1.36232e-06
0.000277959 0.000139344 4.1007e-06
1.36232e-06 4.1007e-06 -1.35322e-05
0.00102246 0.00020982 1.03475e-06
0.00020982 0.000135327 -3.23351e-09
1.03475e-06 -3.23351e-09 -0.000108128
0.00144895 0.000280469 -2.2689e-06
0.000280469 0.000120525 9.04508e-07
-2.2689e-06 9.04508e-07 -8.46005e-05
0.000559189 -9.32466e-06 6.35373e-08
-9.32466e-06 -2.85451e-05 7.72937e-07
6.35373e-08 7.72937e-07 -0.000113689
0.000537369 6.35469e-05 -5.08333e-07
6.35469e-05 -2.01863e-05 -1.52223e-06
-5.08333e-07 -1.52223e-06 -0.00014054
0.00108045 0.000187124 1.73417e-06
0.000187124 0.000243701 -1.81737e-06
1.73417e-06 -1.81737e-06 4.08464e-05
0.000661643 0.000110351 -9.81264e-07
0.000110351 3.03363e-05 -2.237e-06
-9.81264e-07 -2.237e-06 -0.000120689
0.00197482 0.000203972 4.21068e-07
0.000203972 0.000120591 -7.87559e-07
4.21068e-07 -7.87559e-07 4.49672e-05
0.00191236 0.000254361 2.14867e-06
0.000254361 0.000189097 7.80187e-07
2.14867e-06 7.80187e-07 6.6223e-05
0.00177291 0.000312644 -2.19216e-06
0.000312644 0.000207713 -4.82737e-08
-2.19216e-06 -4.82737e-08 2.11112e-05
0.000816165 0.00021421 7.30705e-07
0.00021421 -9.25931e-05 8.70807e-07
7.30705e-07 8.70807e-07 -0.000330858
0.000714742 6.59477e-06 -2.80709e-07
6.59477e-06 5.80304e-05 1.16167e-06
-2.80709e-07 1.16167e-06 -2.93304e-05
0.00189075 0.000159951 -1.00697e-06
0.000159951 4.13822e-05 1.37283e-06
-1.00697e-06 1.37283e-06 -7.02496e-06
0.00135749 0.000187431 -1.22398e-07
0.000187431 0.000457271 2.94158e-06
-1.22398e-07 2.94158e-06 0.000297013
0.00107945 0.000196267 1.523e-06
0.000196267 0.00021687 3.90641e-06
1.523e-06 3.90641e-06 8.25851e-06
0.00248176 0.000256398 -9.48824e-06
0.000256398 0.000407573 -1.33419e-06
-9.48824e-06 -1.33419e-06 0.000323924
0.00135075 0.000305715 -2.88304e-06
0.000305715 -9.80269e-05 -4.31718e-06
-2.88304e-06 -4.31718e-06 -0.000270538
0.00185559 0.000318708 -2.86818e-06
0.000318708 0.000385979 7.42833e-07
-2.86818e-06 7.42833e-07 0.000148422
0.00077184 1.50233e-05 -1.39598e-06
1.50233e-05 8.5754e-05 -3.84172e-08
-1.39598e-06 -3.84172e-08 8.05564e-06
0.000764862 3.47599e-06 -3.9334e-07
3.47599e-06 8.66418e-05 -9.64571e-10
-3.9334e-07 -9.64571e-10 5.79158e-06
0.00084814 -9.46201e-06 -3.19462e-07
-9.46201e-06 0.000142546 6.22827e-07
-3.19462e-07 6.22827e-07 5.69736e-05
0.000705019 -1.88813e-05 -3.76043e-07
-1.88813e-05 3.66563e-05 -1.11171e-06
-3.76043e-07 -1.11171e-06 -2.84994e-05
0.000729129 1.96467e-05 4.59213e-07
1.96467e-05 6.72201e-05 1.76242e-07
4.59213e-07 1.76242e-07 -1.60695e-05
0.00057749 -6.90912e-06 -8.19239e-07
-6.90912e-06 -7.95295e-06 2.57409e-07
-8.19239e-07 2.57409e-07 -9.88028e-05
0.000712401 -7.60155e-06 -2.23577e-07
-7.60155e-06 4.55e-05 -4.90933e-08
-2.23577e-07 -4.90933e-08 -2.39917e-05
0.000608104 -2.48473e-05 -5.8783e-07
-2.48473e-05 -1.0348e-06 3.55994e-07
-5.8783e-07 3.55994e-07 -8.70332e-05
0.000688075 -2.9484e-05 6.59436e-07
-2.9484e-05 4.02505e-05 -3.01701e-07
6.59436e-07 -3.01701e-07 -4.39916e-05
0.000806965 1.90322e-05 3.2295e-07
1.90322e-05 0.00011837 1.34848e-07
3.2295e-07 1.34848e-07 2.43537e-05
0.000888373 -2.92693e-06 8.24553e-07
-2.92693e-06 0.000136488 -6.61721e-07
8.24553e-07 -6.61721e-07 5.42528e-05
0.000754263 -4.89822e-05 8.73964e-07
-4.89822e-05 7.40028e-05 -1.37995e-07
8.73964e-07 -1.37995e-07 -1.35145e-05
0.000803012 2.07948e-05 5.25422e-07
2.07948e-05 0.000112877 1.81593e-07
5.25422e-07 1.81593e-07 1.67472e-05
0.000715636 2.37908e-05 1.83205e-06
2.37908e-05 6.00906e-05 6.13166e-07
1.83205e-06 6.13166e-07 -3.27924e-05
0.000735613 1.27304e-05 1.03206e-06
1.27304e-05 5.34599e-05 1.16962e-06
1.03206e-06 1.16962e-06 -1.46923e-05
0.000666451 -6.23437e-06 8.30668e-08
-6.23437e-06 2.18833e-06 1.68996e-06
8.30668e-08 1.68996e-06 -4.10969e-05
0.000678821 -8.00799e-06 -2.16641e-07
-8.00799e-06 7.48979e-06 4.62211e-08
-2.16641e-07 4.62211e-08 -3.53137e-05
0.00128152 -8.36477e-06 5.14551e-07
-8.36477e-06 0.000333686 2.13014e-06
5.14551e-07 2.13014e-06 0.000327225
0.000698521 -1.60008e-05 1.77199e-07
-1.60008e-05 1.56661e-05 -1.98356e-06
1.77199e-07 -1.98356e-06 -2.64565e-05
0.00131001 -1.5882e-05 -2.60674e-06
-1.5882e-05 0.000351447 -1.4829e-06
-2.60674e-06 -1.4829e-06 0.000345164
0.000916238 -1.51891e-05 1.13542e-05
-1.51891e-05 0.000128627 7.74131e-06
1.13542e-05 7.74131e-06 0.000139184
0.00133722 -2.38401e-05 -5.02538e-06
-2.38401e-05 0.000369266 -5.16828e-06
-5.02538e-06 -5.16828e-06 0.000362633
0.000868566 -2.2569e-05 3.93615e-06
-2.2569e-05 0.000104133 2.92343e-06
3.93615e-06 2.92343e-06 0.000114172
0.000802694 -2.87309e-05 -1.2729e-06
-2.87309e-05 7.0996e-05 -1.9027e-06
-1.2729e-06 -1.9027e-06 8.03048e-05
0.000707495 4.23041e-06 6.69099e-07
4.23041e-06 2.24106e-05 -2.08948e-06
6.69099e-07 -2.08948e-06 -1.59019e-05
0.000621239 2.64354e-05 4.56814e-07
2.64354e-05 -3.78507e-05 -3.76479e-06
4.56814e-07 -3.76479e-06 -4.87787e-05
0.000622412 3.38334e-05 -6.39711e-08
3.38334e-05 -3.05071e-05 7.09361e-08
-6.39711e-08 7.09361e-08 -4.5138e-05
0.0022333 5.71281e-05 2.02586e-05
5.71281e-05 0.000904153 -4.17673e-06
2.02586e-05 -4.17673e-06 0.000917441
0.000620588 4.36823e-05 -6.24114e-08
4.36823e-05 -2.21241e-05 4.51254e-06
-6.24114e-08 4.51254e-06 -4.20964e-05
0.00240898 7.14672e-05 -3.04336e-06
7.14672e-05 0.00101345 -1.94319e-07
-3.04336e-06 -1.94319e-07 0.00102308
0.00261606 8.41048e-05 -3.63089e-05
8.41048e-05 0.00113945 3.6671e-06
-3.63089e-05 3.6671e-06 0.00114592
0.00195165 0.00016105 1.21782e-06
0.00016105 0.000176689 2.08085e-06
1.21782e-06 2.08085e-06 9.01031e-05
0.00180253 0.000110253 1.06803e-06
0.000110253 9.23325e-05 -2.65043e-08
1.06803e-06 -2.65043e-08 1.47355e-05
0.00168191 4.44184e-05 1.5947e-06
4.44184e-05 4.63002e-05 -1.0724e-06
1.5947e-06 -1.0724e-06 -3.73548e-05
0.0017469 3.77063e-06 4.78018e-07
3.77063e-06 9.71127e-05 -1.62907e-07
4.78018e-07 -1.62907e-07 -3.00106e-06
0.0017476 1.65089e-06 -7.82986e-07
1.65089e-06 8.61058e-05 1.89954e-07
-7.82986e-07 1.89954e-07 1.06165e-06
0.00192868 7.44161e-05 2.34043e-07
7.44161e-05 0.000122007 1.24719e-07
2.34043e-07 1.24719e-07 6.17322e-05
0.00175138 0.000154261 -8.07002e-07
0.000154261 8.09683e-06 -2.72149e-07
-8.07002e-07 -2.72149e-07 -6.43599e-05
0.00178935 4.05138e-06 1.01115e-06
4.05138e-06 3.4592e-05 1.3625e-07
1.01115e-06 1.3625e-07 -2.01645e-05
0.0019674 0.000106418 2.75592e-06
0.000106418 8.62786e-05 9.69623e-08
2.75592e-06 9.69623e-08 3.80936e-05
0.0019539 6.09898e-05 -2.5266e-06
6.09898e-05 9.67528e-05 -8.35953e-08
-2.5266e-06 -8.35953e-08 0.000105418
0.00184739 -4.34207e-05 -6.17847e-07
-4.34207e-05 0.000130872 1.18425e-07
-6.17847e-07 1.18425e-07 4.18196e-05
0.00190084 -0.000116265 4.11487e-07
-0.000116265 0.000132105 3.25603e-07
4.11487e-07 3.25603e-07 5.85495e-05
0.00164201 -0.000165652 -4.10087e-07
-0.000165652 2.27405e-05 6.17803e-07
-4.10087e-07 6.17803e-07 -5.59392e-05
0.00115077 -0.000194216 3.98138e-07
-0.000194216 0.000243255 4.14638e-06
3.98138e-07 4.14638e-06 7.82448e-05
0.00110746 -0.000233813 8.90599e-07
-0.000233813 0.000122543 4.56001e-06
8.90599e-07 4.56001e-06 -9.58646e-05
0.00166478 -0.000300545 -2.56812e-06
-0.000300545 0.000220482 -1.27554e-06
-2.56812e-06 -1.27554e-06 1.81599e-06
0.00185449 -0.000222142 3.39521e-06
-0.000222142 0.000125962 -1.18042e-06
3.39521e-06 -1.18042e-06 2.9682e-05
0.00160968 -0.000264109 -9.6271e-08
-0.000264109 6.21693e-05 -5.17665e-06
-9.6271e-08 -5.17665e-06 -8.14946e-05
0.000152348 -0.000117635 -3.38838e-06
-0.000117635 -0.000318552 2.68048e-06
-3.38838e-06 2.68048e-06 -0.000451728
0.00165222 -0.000209312 8.83386e-06
-0.000209312 0.000560917 -4.34638e-06
8.83386e-06 -4.34638e-06 0.000410799
0.000876484 -1.51961e-05 -3.06352e-07
-1.51961e-05 0.000146268 -1.19474e-07
-3.06352e-07 -1.19474e-07 2.1086e-05
0.000677685 1.07262e-05 -4.49936e-07
1.07262e-05 1.17336e-05 1.25188e-06
-4.49936e-07 1.25188e-06 -3.37726e-05
0.000840429 1.51799e-05 -6.79936e-07
1.51799e-05 0.000131251 1.76281e-06
-6.79936e-07 1.76281e-06 4.49252e-05
0.000805996 -2.56944e-05 -3.75291e-07
-2.56944e-05 0.000120732 1.97577e-06
-3.75291e-07 1.97577e-06 8.12399e-06
0.00186833 -6.75902e-05 4.71188e-08
-6.75902e-05 8.71404e-05 5.71049e-08
4.71188e-08 5.71049e-08 2.63161e-05
0.000681909 7.75189e-06 9.3367e-07
7.75189e-06 1.0468e-05 6.66347e-08
9.3367e-07 6.66347e-08 -3.1219e-05
0.000618147 -2.34241e-05 -1.15581e-06
-2.34241e-05 -6.63719e-06 -3.5409e-08
-1.15581e-06 -3.5409e-08 -7.41544e-05
0.00186155 -0.000157553 -1.97455e-08
-0.000157553 8.13764e-05 2.13938e-07
-1.97455e-08 2.13938e-07 2.27024e-05
0.00168349 -0.000182056 -1.85293e-06
-0.000182056 -1.68731e-06 5.06364e-07
-1.85293e-06 5.06364e-07 -7.45554e-05
0.000474763 -0.000156571 6.25813e-07
-0.000156571 -0.000132991 3.06327e-06
6.25813e-07 3.06327e-06 -0.000307096
0.00178326 -0.000311315 -2.64759e-06
-0.000311315 0.000437203 1.03643e-06
-2.64759e-06 1.03643e-06 0.000177614
0.00150375 -0.000302348 1.68462e-06
-0.000302348 8.71056e-05 -1.13722e-06
1.68462e-06 -1.13722e-06 -0.000115917
0.00204553 -0.000302752 2.46819e-06
-0.000302752 0.000215397 -1.09006e-06
2.46819e-06 -1.09006e-06 0.000100069
0.000774437 -2.19403e-05 1.07337e-06
-2.19403e-05 9.54911e-05 -8.62655e-07
1.07337e-06 -8.62655e-07 1.50706e-05
0.000792866 -2.7117e-05 -2.12848e-08
-2.7117e-05 0.000120762 8.97211e-07
-2.12848e-08 8.97211e-07 1.13552e-05
0.000921685 -0.00016897 -1.73108e-06
-0.00016897 6.48038e-05 -3.87166e-07
-1.73108e-06 -3.87166e-07 -7.05467e-05
0.00133936 -0.000198633 9.42636e-06
-0.000198633 0.000416194 -2.36721e-06
9.42636e-06 -2.36721e-06 0.000250344
0.000571145 -8.31049e-05 -1.14689e-06
-8.31049e-05 -9.96717e-06 3.31039e-07
-1.14689e-06 3.31039e-07 -0.00014896
0.000778068 -8.3367e-06 2.43564e-07
-8.3367e-06 9.94098e-05 -5.35698e-07
2.43564e-07 -5.35698e-07 -1.65823e-05
0.00193461 -7.98325e-05 -7.07024e-08
-7.98325e-05 6.1421e-05 3.41132e-07
-7.07024e-08 3.41132e-07 1.53095e-05
0.00178038 -0.000157292 1.0389e-06
-0.000157292 1.07129e-05 -6.51364e-07
1.0389e-06 -6.51364e-07 -2.59607e-05
0.00195777 -0.000285565 7.23219e-07
-0.000285565 6.77911e-05 -9.7867e-07
7.23219e-07 -9.7867e-07 -3.84453e-06
0.00152728 -0.000326796 2.23596e-06
-0.000326796 -1.50697e-05 1.724e-06
2.23596e-06 1.724e-06 -0.000153762
0.000765014 -0.000141232 -5.715e-06
-0.000141232 1.39292e-05 -4.56893e-06
-5.715e-06 -4.56893e-06 -0.000161808
0.00277944 -0.000420321 -3.9405e-06
-0.000420321 0.000915583 4.12601e-06
-3.9405e-06 4.12601e-06 0.000635727
0.00048583 5.38721e-05 -1.28013e-06
5.38721e-05 -7.63815e-05 -2.70745e-06
-1.28013e-06 -2.70745e-06 -0.000146051
0.000731832 -4.96202e-05 1.99333e-06
-4.96202e-05 6.04866e-05 -1.55452e-06
1.99333e-06 -1.55452e-06 -1.00899e-05
0.000951327 -6.52796e-05 1.37352e-06
-6.52796e-05 0.000201768 -1.96348e-07
1.37352e-06 -1.96348e-07 0.000110257
0.000508354 1.4998e-05 -1.9033e-07
1.4998e-05 -3.91082e-05 1.40154e-07
-1.9033e-07 1.40154e-07 -0.000148156
0.00100878 -4.38242e-05 4.86283e-07
-4.38242e-05 0.000232584 -1.37461e-07
4.86283e-07 -1.37461e-07 0.000124033
0.000785661 -4.58324e-05 1.98675e-06
-4.58324e-05 8.79948e-05 -3.17851e-07
1.98675e-06 -3.17851e-07 -3.93713e-05
4.56508e-05 -7.56951e-05 4.95059e-06
-7.56951e-05 -0.000211999 1.50686e-06
4.95059e-06 1.50686e-06 -0.000426641
0.000519217 -0.000183016 -1.47525e-05
-0.000183016 -0.000139177 4.64579e-06
-1.47525e-05 4.64579e-06 -0.000272641
0.000581932 1.42256e-05 -1.34842e-07
1.42256e-05 -1.20186e-05 -1.81912e-07
-1.34842e-07 -1.81912e-07 -0.000101231
0.000699335 8.17012e-05 -2.94887e-06
8.17012e-05 7.07542e-05 -2.99473e-06
-2.94887e-06 -2.99473e-06 -5.15392e-05
0.00202354 0.000202204 -1.28173e-06
0.000202204 0.000147957 -8.46407e-07
-1.28173e-06 -8.46407e-07 7.51401e-05
0.00175744 0.000254103 1.40992e-07
0.000254103 0.000109673 2.40343e-06
1.40992e-07 2.40343e-06 -1.78817e-05
0.00149396 0.00014731 -4.50912e-06
0.00014731 0.000489589 -2.17196e-06
-4.50912e-06 -2.17196e-06 0.00033794
0.00107746 0.000187832 -1.6122e-06
0.000187832 0.00025008 -6.77546e-06
-1.6122e-06 -6.77546e-06 4.45318e-05
0.00176425 0.000306195 1.32119e-06
0.000306195 0.000199362 1.45366e-06
1.32119e-06 1.45366e-06 1.47863e-05
0.00191215 0.000299973 -8.42084e-08
0.000299973 0.000498332 -3.85531e-07
-8.42084e-08 -3.85531e-07 0.000256685
0.000720135 2.79389e-05 6.6217e-07
2.79389e-05 6.96621e-05 -7.08363e-07
6.6217e-07 -7.08363e-07 -2.44597e-05
0.0019031 0.000155154 -2.56601e-07
0.000155154 4.11205e-05 -1.04938e-07
-2.56601e-07 -1.04938e-07 -2.00628e-07
0.000941364 0.00013167 7.41078e-07
0.00013167 0.000217999 1.71878e-06
7.41078e-07 1.71878e-06 6.91714e-05
0.000785342 0.000173952 8.11232e-07
0.000173952 5.18838e-05 8.37034e-08
8.11232e-07 8.37034e-08 -0.000155808
0.00210006 0.000242573 2.63662e-06
0.000242573 0.000197176 8.35591e-08
2.63662e-06 8.35591e-08 0.000113447
0.00154961 0.000315705 -5.37002e-07
0.000315705 9.22348e-06 -1.57033e-06
-5.37002e-07 -1.57033e-06 -0.000161539
0.00208198 0.000336561 6.41544e-07
0.000336561 0.000524347 4.41279e-07
6.41544e-07 4.41279e-07 0.000284387
0.00128164 7.5786e-05 -2.47495e-06
7.5786e-05 0.000402044 2.12007e-06
-2.47495e-06 2.12007e-06 0.00028097
0.00236442 0.000172491 -2.50613e-05
0.000172491 0.000329068 -4.04399e-06
-2.50613e-05 -4.04399e-06 0.000313821
0.00227753 0.00027431 -3.74494e-06
0.00027431 0.000936505 1.11706e-07
-3.74494e-06 1.11706e-07 0.000756286
0.00238094 0.000321818 -6.25738e-06
0.000321818 0.000864221 1.61352e-06
-6.25738e-06 1.61352e-06 0.000635859
0.001758 0.000329715 -9.08014e-06
0.000329715 2.35261e-05 -8.18262e-06
-9.08014e-06 -8.18262e-06 -8.68159e-05
0.00137107 0.0003117 -8.52532e-06
0.0003117 6.26767e-05 -7.11099e-07
-8.52532e-06 -7.11099e-07 -0.000156042
0.000451914 0.000187964 1.5892e-05
0.000187964 -0.000531577 -5.17651e-06
1.5892e-05 -5.17651e-06 -0.000733812
0.000705481 1.37927e-05 3.03978e-07
1.37927e-05 5.74569e-05 -2.74763e-07
3.03978e-07 -2.74763e-07 -2.60654e-05
0.000773882 -3.24593e-06 -2.51483e-07
-3.24593e-06 0.000104022 4.24452e-07
-2.51483e-07 4.24452e-07 1.73476e-05
0.00107778 1.34026e-05 6.03981e-07
1.34026e-05 0.000258356 -7.5174e-07
6.03981e-07 -7.5174e-07 0.000168237
0.000701932 -5.34211e-05 -2.51983e-07
-5.34211e-05 4.3985e-05 -1.398e-06
-2.51983e-07 -1.398e-06 -2.84256e-05
0.000654105 -4.65062e-05 -1.21226e-06
-4.65062e-05 2.27505e-05 2.53288e-07
-1.21226e-06 2.53288e-07 -6.12142e-05
0.000876795 8.96349e-05 -4.45801e-07
8.96349e-05 0.000159899 5.88548e-07
-4.45801e-07 5.88548e-07 6.43414e-05
0.000558538 -3.83667e-05 -7.13228e-07
-3.83667e-05 -2.89438e-05 4.7131e-07
-7.13228e-07 4.7131e-07 -0.00011555
0.000710873 -2.48213e-05 3.68558e-08
-2.48213e-05 4.82329e-05 -1.43322e-08
3.68558e-08 -1.43322e-08 -2.5608e-05
0.00068539 2.2541e-05 -5.8641e-08
2.2541e-05 3.30099e-05 -2.42622e-07
-5.8641e-08 -2.42622e-07 -5.2666e-05
0.000816609 -7.46861e-06 -3.49698e-07
-7.46861e-06 9.66326e-05 -5.85349e-07
-3.49698e-07 -5.85349e-07 1.25949e-05
0.000799646 7.20071e-07 3.16679e-07
7.20071e-07 0.000103111 4.66709e-08
3.16679e-07 4.66709e-08 1.25111e-05
0.000819527 -2.74667e-05 -1.50221e-07
-2.74667e-05 0.000109612 -5.11759e-08
-1.50221e-07 -5.11759e-08 2.19987e-05
0.000847072 -9.47535e-06 8.40147e-08
-9.47535e-06 0.000106315 -8.01941e-07
8.40147e-08 -8.01941e-07 2.30039e-05
0.000867784 1.37247e-05 -2.20557e-07
1.37247e-05 0.00012974 -1.22085e-06
-2.20557e-07 -1.22085e-06 3.6474e-05
0.000838143 4.28537e-05 4.05965e-07
4.28537e-05 0.00011688 1.30645e-07
4.05965e-07 1.30645e-07 2.83115e-05
0.000724339 3.10836e-05 2.77328e-07
3.10836e-05 6.34653e-05 5.34169e-07
2.77328e-07 5.34169e-07 -3.3913e-05
0.000592387 -1.53022e-05 -1.42337e-07
-1.53022e-05 -3.05352e-05 1.51486e-06
-1.42337e-07 1.51486e-06 -0.000100889
0.000888743 -1.18077e-05 3.20563e-07
-1.18077e-05 0.000170986 -8.96387e-07
3.20563e-07 -8.96387e-07 7.22515e-05
0.000559293 -1.35918e-06 -6.18469e-07
-1.35918e-06 -4.43657e-05 1.51837e-06
-6.18469e-07 1.51837e-06 -0.000118125
0.000654755 9.60913e-06 -4.55427e-07
9.60913e-06 -2.69796e-06 1.65174e-06
-4.55427e-07 1.65174e-06 -4.73946e-05
0.000661583 1.07704e-05 4.21412e-07
1.07704e-05 3.26545e-07 7.04835e-09
4.21412e-07 7.04835e-09 -4.34504e-05
0.000629179 1.50396e-06 1.42815e-07
1.50396e-06 -4.17306e-05 3.56059e-06
1.42815e-07 3.56059e-06 -5.26598e-05
0.000670827 -3.98608e-06 -5.70492e-07
-3.98608e-06 3.42786e-06 -1.81344e-06
-5.70492e-07 -1.81344e-06 -3.9662e-05
0.000979216 -5.81636e-06 -1.70152e-06
-5.81636e-06 0.000159939 -1.56378e-06
-1.70152e-06 -1.56378e-06 0.000151411
0.00224828 -1.12313e-05 7.15135e-06
-1.12313e-05 0.000894099 4.8762e-06
7.15135e-06 4.8762e-06 0.000912214
0.00134719 -1.44311e-05 -2.92692e-06
-1.44311e-05 0.000373324 -5.11048e-06
-2.92692e-06 -5.11048e-06 0.000366781
0.000868075 -1.52644e-05 2.07101e-06
-1.52644e-05 9.99983e-05 3.00224e-06
2.07101e-06 3.00224e-06 0.000110714
0.000817152 -2.14725e-05 -7.20593e-07
-2.14725e-05 7.38979e-05 -1.92839e-06
-7.20593e-07 -1.92839e-06 8.42126e-05
0.000672552 1.11181e-05 -3.80634e-07
1.11181e-05 3.89391e-06 -2.04727e-06
-3.80634e-07 -2.04727e-06 -3.29763e-05
0.000693753 -1.33713e-06 4.15532e-07
-1.33713e-06 1.50432e-05 -3.50251e-08
4.15532e-07 -3.50251e-08 -2.36424e-05
0.000642783 2.0074e-05 3.10018e-07
2.0074e-05 -2.96177e-05 -3.63505e-06
3.10018e-07 -3.63505e-06 -3.80776e-05
0.0009569 3.12015e-05 -4.58728e-07
3.12015e-05 0.000155828 4.05384e-08
-4.58728e-07 4.05384e-08 0.000146429
0.00217128 4.52973e-05 1.6259e-05
4.52973e-05 0.000861834 -4.3167e-06
1.6259e-05 -4.3167e-06 0.000877615
0.000631894 3.47776e-05 -3.37032e-07
3.47776e-05 -2.50595e-05 4.04395e-06
-3.37032e-07 4.04395e-06 -3.99205e-05
0.00228869 5.89678e-05 -2.62936e-06
5.89678e-05 0.000936842 -1.45512e-07
-2.62936e-06 -1.45512e-07 0.000949568
0.00247746 7.30236e-05 -2.78808e-05
7.30236e-05 0.00105338 4.02082e-06
-2.78808e-05 4.02082e-06 0.00106251
0.00183104 0.000157723 -2.58192e-06
0.000157723 5.03003e-05 -5.98187e-07
-2.58192e-06 -5.98187e-07 -2.26332e-05
0.00195323 7.23386e-05 1.9714e-07
7.23386e-05 0.000136613 -1.30948e-07
1.9714e-07 -1.30948e-07 7.6747e-05
0.00176883 1.62472e-06 -1.84623e-07
1.62472e-06 9.69641e-05 -2.57033e-07
-1.84623e-07 -2.57033e-07 1.31944e-05
0.00175289 7.37006e-06 2.13654e-07
7.37006e-06 1.67099e-05 -1.72756e-07
2.13654e-07 -1.72756e-07 -3.83483e-05
0.0018574 0.000103344 -5.61969e-07
0.000103344 3.20156e-05 -2.73042e-07
-5.61969e-07 -2.73042e-07 -1.69863e-05
0.00179388 5.77068e-05 2.39116e-06
5.77068e-05 2.35533e-06 1.33382e-06
2.39116e-06 1.33382e-06 2.87227e-06
0.00185204 1.59742e-05 1.35061e-06
1.59742e-05 5.24129e-06 -2.72116e-07
1.35061e-06 -2.72116e-07 -1.01562e-05
0.00278832 0.000168759 2.14937e-05
0.000168759 0.000124825 -1.07758e-06
2.14937e-05 -1.07758e-06 9.74272e-05
0.00189757 3.34722e-05 -2.11706e-05
3.34722e-05 0.000176674 -8.34658e-07
-2.11706e-05 -8.34658e-07 0.000199973
0.000705125 6.0453e-05 -7.07872e-07
6.0453e-05 4.72124e-05 -1.34511e-06
-7.07872e-07 -1.34511e-06 -1.65028e-05
0.00177056 -6.75605e-05 -1.19545e-06
-6.75605e-05 3.16438e-05 -1.70039e-07
-1.19545e-06 -1.70039e-07 -2.92589e-05
0.00189616 -0.000152302 8.64689e-07
-0.000152302 0.000113024 8.59376e-07
8.64689e-07 8.59376e-07 5.03232e-05
0.00156465 -0.000179102 1.05365e-06
-0.000179102 -7.03265e-05 1.01433e-06
1.05365e-06 1.01433e-06 -0.000144359
0.000615355 -0.000164323 2.36248e-06
-0.000164323 -4.33768e-05 6.13384e-06
2.36248e-06 6.13384e-06 -0.000213472
0.00124537 -0.000267449 1.86816e-06
-0.000267449 0.000148414 6.27767e-06
1.86816e-06 6.27767e-06 -0.000116763
0.001367 -0.000293406 -8.73739e-07
-0.000293406 1.63413e-06 -6.04943e-06
-8.73739e-07 -6.04943e-06 -0.00019661
0.00178889 -0.000292985 -6.0451e-06
-0.000292985 8.49731e-05 -3.38679e-06
-6.0451e-06 -3.38679e-06 -3.17872e-05
0.00147433 -0.000199836 9.57987e-06
-0.000199836 0.000372187 -3.32315e-06
9.57987e-06 -3.32315e-06 0.000230629
0.000486632 -0.000139031 6.44196e-06
-0.000139031 -6.67454e-05 -7.96552e-06
6.44196e-06 -7.96552e-06 -0.000201544
0.000925379 -0.000101442 9.42659e-08
-0.000101442 0.000187719 -1.86926e-06
9.42659e-08 -1.86926e-06 4.70454e-05
0.000677993 -6.117e-06 -1.34994e-06
-6.117e-06 8.47856e-06 2.13431e-06
-1.34994e-06 2.13431e-06 -3.29887e-05
0.000827116 -1.25448e-05 2.49468e-07
-1.25448e-05 0.000133026 3.92051e-07
2.49468e-07 3.92051e-07 1.41478e-05
0.00100976 -5.19261e-05 4.18987e-07
-5.19261e-05 0.000234273 5.4801e-07
4.18987e-07 5.4801e-07 0.00015283
0.000771297 -1.97752e-05 -9.41942e-07
-1.97752e-05 0.000106792 7.98377e-07
-9.41942e-07 7.98377e-07 -2.17073e-06
0.000498414 -1.59312e-05 -1.06317e-06
-1.59312e-05 -7.94243e-05 1.67632e-06
-1.06317e-06 1.67632e-06 -0.000144553
0.00191838 -8.87035e-05 -1.94661e-07
-8.87035e-05 3.64383e-05 1.43605e-08
-1.94661e-07 1.43605e-08 -1.25024e-06
0.00059315 3.19324e-05 7.88612e-08
3.19324e-05 -1.24005e-05 -9.58581e-07
7.88612e-08 -9.58581e-07 -8.23992e-05
0.000730257 -5.39307e-05 5.95924e-08
-5.39307e-05 6.64489e-05 2.3565e-07
5.95924e-08 2.3565e-07 -8.53213e-06
0.000813246 -3.62221e-05 -5.04457e-07
-3.62221e-05 0.000124571 7.48066e-07
-5.04457e-07 7.48066e-07 3.02598e-05
0.00177924 -0.000163634 8.98599e-07
-0.000163634 4.78416e-06 -1.86789e-07
8.98599e-07 -1.86789e-07 -3.25249e-05
0.00194776 -0.000283134 -1.38365e-06
-0.000283134 7.63746e-05 -5.08034e-07
-1.38365e-06 -5.08034e-07 -6.10785e-07
0.000941404 -0.000172576 2.81563e-06
-0.000172576 0.00010111 3.8396e-08
2.81563e-06 3.8396e-08 -6.98783e-05
0.00165843 -0.000332959 3.33472e-06
-0.000332959 0.000331156 -2.45338e-07
3.33472e-06 -2.45338e-07 5.57114e-05
0.00175921 -0.00034686 4.54567e-07
-0.00034686 0.000114941 1.19608e-06
4.54567e-07 1.19608e-06 -2.9762e-05
0.00062014 -9.48139e-06 -2.72217e-07
-9.48139e-06 2.52675e-05 -5.17529e-08
-2.72217e-07 -5.17529e-08 -8.26488e-05
0.000847163 -5.58085e-05 -7.1887e-07
-5.58085e-05 0.000145814 2.42093e-07
-7.1887e-07 2.42093e-07 3.18165e-05
0.000614555 -0.000189675 -4.70389e-06
-0.000189675 -6.71071e-05 1.04575e-06
-4.70389e-06 1.04575e-06 -0.000219466
0.000662089 -8.86036e-05 7.90125e-08
-8.86036e-05 0.000105894 -5.70439e-07
7.90125e-08 -5.70439e-07 -8.94501e-05
0.000763024 -6.7864e-05 -2.11482e-07
-6.7864e-05 7.63045e-05 7.91721e-08
-2.11482e-07 7.91721e-08 -5.14529e-05
0.00213138 -0.000170896 -5.71378e-06
-0.000170896 0.000133051 -1.09149e-08
-5.71378e-06 -1.09149e-08 0.000111418
0.00182943 -0.000184405 -4.2143e-06
-0.000184405 -6.39196e-06 1.4751e-06
-4.2143e-06 1.4751e-06 -2.43841e-05
0.00224936 -0.000385702 -2.16752e-06
-0.000385702 0.000249899 -2.25433e-07
-2.16752e-06 -2.25433e-07 0.000137213
0.00275005 -0.000438975 -1.82082e-05
-0.000438975 0.000782048 2.74735e-06
-1.82082e-05 2.74735e-06 0.000580275
0.000930243 -0.000183795 -7.68788e-06
-0.000183795 0.000131652 -2.61706e-06
-7.68788e-06 -2.61706e-06 -7.41825e-05
0.00050282 2.20484e-05 8.42048e-07
2.20484e-05 -5.5329e-05 -2.24436e-06
8.42048e-07 -2.24436e-06 -0.000145621
0.00049339 4.71357e-05 6.15251e-07
4.71357e-05 -6.24471e-05 -9.22692e-07
6.15251e-07 -9.22692e-07 -0.000159855
0.000716858 9.07595e-06 8.31928e-07
9.07595e-06 7.76533e-05 -1.11849e-06
8.31928e-07 -1.11849e-06 -2.83983e-05
0.00107378 -0.000111456 1.21715e-06
-0.000111456 0.000290097 8.41146e-07
1.21715e-06 8.41146e-07 0.000169353
0.000707591 -4.27013e-05 1.05194e-06
-4.27013e-05 5.08307e-05 1.24891e-06
1.05194e-06 1.24891e-06 -5.92736e-05
0.000363567 -5.16651e-05 2.72961e-06
-5.16651e-05 -7.16085e-05 2.57846e-07
2.72961e-06 2.57846e-07 -0.000257168
0.000657391 -0.000190222 5.73307e-06
-0.000190222 0.00011121 1.42522e-06
5.73307e-06 1.42522e-06 -0.000133154
0.000742865 6.01635e-05 9.44048e-07
6.01635e-05 9.21095e-05 -2.84725e-06
9.44048e-07 -2.84725e-06 -9.96721e-06
0.000499366 6.64266e-05 8.56547e-07
6.64266e-05 -3.7582e-05 -6.63069e-07
8.56547e-07 -6.63069e-07 -0.000172908
0.00195312 0.000150532 3.88195e-06
0.000150532 6.2894e-05 -4.69282e-07
3.88195e-06 -4.69282e-07 2.80223e-05
0.00170743 0.000228402 7.15973e-06
0.000228402 -1.83297e-05 7.69531e-07
7.15973e-06 7.69531e-07 -0.000101706
0.00182386 0.000329071 6.22946e-06
0.000329071 0.000157314 1.98787e-06
6.22946e-06 1.98787e-06 -1.15825e-05
0.000434712 0.000147848 1.34974e-06
0.000147848 -0.000146126 -1.2371e-06
1.34974e-06 -1.2371e-06 -0.000352036
0.00237398 0.000360295 3.71802e-06
0.000360295 0.000695873 1.3227e-06
3.71802e-06 1.3227e-06 0.0004549
0.00117361 6.14066e-05 -2.92598e-07
6.14066e-05 0.000334506 5.73952e-07
-2.92598e-07 5.73952e-07 0.000221775
0.00201602 0.000149623 -2.08626e-06
0.000149623 0.000145675 -6.20359e-08
-2.08626e-06 -6.20359e-08 0.000137252
0.00139803 0.000196801 -1.31211e-06
0.000196801 0.000445494 -4.81809e-07
-1.31211e-06 -4.81809e-07 0.000279255
0.0016656 0.000266163 -7.62985e-07
0.000266163 0.000490518 1.49205e-06
-7.62985e-07 1.49205e-06 0.000258686
0.00191086 0.000327251 -2.0775e-07
0.000327251 0.000108637 -2.17728e-06
-2.0775e-07 -2.17728e-06 1.01655e-06
0.00151673 0.000328056 -1.19662e-06
0.000328056 0.000139663 2.69424e-06
-1.19662e-06 2.69424e-06 -8.52547e-05
0.00154291 0.000239275 2.34604e-05
0.000239275 -0.000193141 9.62587e-07
2.34604e-05 9.62587e-07 -0.000458957
0.00117229 0.000111206 -2.97067e-06
0.000111206 0.00033901 -1.1789e-06
-2.97067e-06 -1.1789e-06 0.000209222
0.00235796 0.000243683 -3.25756e-05
0.000243683 0.0003541 -1.55075e-05
-3.25756e-05 -1.55075e-05 0.000354932
0.00128746 0.000212554 -5.68567e-06
0.000212554 0.000365874 -1.01622e-06
-5.68567e-06 -1.01622e-06 0.000191255
0.00110809 0.000254261 -4.48886e-06
0.000254261 0.00010218 -1.10836e-06
-4.48886e-06 -1.10836e-06 -0.000137706
0.000537973 0.000341702 -9.59751e-06
0.000341702 -0.000515104 -6.68018e-06
-9.59751e-06 -6.68018e-06 -0.000701702
0.00881064 0.000205462 -0.000122127
0.000205462 0.00240388 -3.88967e-05
-0.000122127 -3.88967e-05 0.00145743
0.00469282 0.000491295 0.000114806
0.000491295 0.000776794 -6.41647e-06
0.000114806 -6.41647e-06 0.000163583
0.00087625 0.000340533 1.56824e-05
0.000340533 -0.000239132 1.72897e-05
1.56824e-05 1.72897e-05 -0.000385282
-0.00458581 -0.000452149 0.000174511
-0.000452149 -0.00164899 -6.46058e-06
0.000174511 -6.46058e-06 -0.00228422
0.00510077 -0.00126572 -1.46165e-05
-0.00126572 0.000811651 1.54918e-06
-1.46165e-05 1.54918e-06 0.00238839
0.000704457 2.90075e-06 9.66103e-07
2.90075e-06 6.70513e-05 -3.43513e-07
9.66103e-07 -3.43513e-07 -2.03897e-05
0.000897068 -3.59562e-06 8.34399e-07
-3.59562e-06 0.000165392 -4.23642e-07
8.34399e-07 -4.23642e-07 7.55121e-05
0.000903814 4.9837e-05 -1.05546e-06
4.9837e-05 0.000158487 -2.0224e-06
-1.05546e-06 -2.0224e-06 6.70545e-05
0.000694326 -5.70696e-05 1.61557e-07
-5.70696e-05 4.48017e-05 -1.21674e-06
1.61557e-07 -1.21674e-06 -3.29148e-05
0.000653408 5.15013e-05 -1.09668e-06
5.15013e-05 1.70789e-05 -5.39755e-07
-1.09668e-06 -5.39755e-07 -7.09295e-05
0.000800799 -3.57844e-05 -4.40264e-08
-3.57844e-05 0.000104611 -1.13725e-07
-4.40264e-08 -1.13725e-07 1.36554e-05
0.000877547 -2.63092e-06 -1.43266e-06
-2.63092e-06 0.000140118 8.59882e-07
-1.43266e-06 8.59882e-07 5.31388e-05
0.000786172 -1.74221e-05 -9.15827e-07
-1.74221e-05 7.99648e-05 -4.70718e-07
-9.15827e-07 -4.70718e-07 -5.92879e-06
0.000772081 5.77063e-05 -9.84165e-07
5.77063e-05 8.81165e-05 -3.1743e-07
-9.84165e-07 -3.1743e-07 -7.61416e-06
0.000644112 -6.76876e-06 -8.89466e-08
-6.76876e-06 3.92458e-06 6.4918e-07
-8.89466e-08 6.4918e-07 -6.85856e-05
0.000731892 2.05136e-05 -2.15768e-08
2.05136e-05 6.5371e-05 -1.94245e-08
-2.15768e-08 -1.94245e-08 -3.02539e-05
0.000820984 -6.91863e-06 4.23573e-07
-6.91863e-06 9.10884e-05 6.39481e-07
4.23573e-07 6.39481e-07 7.72814e-06
0.00085372 1.59769e-05 -5.20437e-07
1.59769e-05 0.000120925 -3.40064e-07
-5.20437e-07 -3.40064e-07 2.97753e-05
0.00096653 5.35931e-05 -5.01152e-07
5.35931e-05 0.000183479 -8.51885e-07
-5.01152e-07 -8.51885e-07 9.18906e-05
0.000633289 1.88834e-05 6.93925e-07
1.88834e-05 -7.60658e-06 -1.63101e-06
6.93925e-07 -1.63101e-06 -9.35984e-05
0.00086345 5.27616e-05 1.3758e-06
5.27616e-05 0.000126912 3.19966e-07
1.3758e-06 3.19966e-07 3.3864e-05
0.000662121 -9.93976e-06 8.88046e-07
-9.93976e-06 1.33394e-05 -2.06536e-09
8.88046e-07 -2.06536e-09 -7.72451e-05
0.000583613 -4.82141e-05 -1.20139e-06
-4.82141e-05 -2.93015e-05 1.34721e-06
-1.20139e-06 1.34721e-06 -0.000104888
0.000828429 1.09863e-05 -5.94879e-07
1.09863e-05 0.000119397 -2.77351e-07
-5.94879e-07 -2.77351e-07 2.6072e-05
0.000842655 5.17617e-05 2.43269e-07
5.17617e-05 0.000126194 -1.63223e-06
2.43269e-07 -1.63223e-06 3.27362e-05
0.000707927 -2.01696e-06 -7.19737e-07
-2.01696e-06 6.06137e-05 -3.62618e-07
-7.19737e-07 -3.62618e-07 -2.97683e-05
0.000824531 -1.27314e-06 9.08363e-07
-1.27314e-06 0.000122823 -4.77529e-07
9.08363e-07 -4.77529e-07 3.06686e-05
0.000719531 -5.64031e-05 -1.69466e-06
-5.64031e-05 4.84379e-05 7.83918e-07
-1.69466e-06 7.83918e-07 -2.34131e-05
0.000577167 -1.48974e-07 1.02042e-07
-1.48974e-07 -3.14045e-05 6.46879e-07
1.02042e-07 6.46879e-07 -0.000107316
0.000670357 6.41974e-06 -7.27431e-07
6.41974e-06 3.97198e-06 1.7886e-06
-7.27431e-07 1.7886e-06 -4.0721e-05
0.000661045 -4.83608e-06 3.60814e-07
-4.83608e-06 2.97819e-07 -2.37806e-08
3.60814e-07 -2.37806e-08 -4.40421e-05
0.000651716 7.30011e-06 -3.77001e-07
7.30011e-06 -2.72295e-05 5.13319e-06
-3.77001e-07 5.13319e-06 -3.89183e-05
0.000658894 7.06066e-07 -1.57634e-07
7.06066e-07 -1.26425e-06 -1.70906e-06
-1.57634e-07 -1.70906e-06 -4.48806e-05
0.000636361 1.66518e-06 2.76335e-07
1.66518e-06 -3.75265e-05 -1.3724e-08
2.76335e-07 -1.3724e-08 -4.85132e-05
0.00226653 -1.21337e-06 -6.56004e-08
-1.21337e-06 0.00090402 4.97119e-06
-6.56004e-08 4.97119e-06 0.000922007
0.000666557 -4.15698e-06 -4.92585e-07
-4.15698e-06 -2.00885e-05 -5.15615e-06
-4.92585e-07 -5.15615e-06 -3.07375e-05
0.00156008 -8.6635e-06 -2.43383e-07
-8.6635e-06 0.000496842 5.34022e-08
-2.43383e-07 5.34022e-08 0.000511223
0.000814663 -1.38334e-05 -2.07674e-07
-1.38334e-05 6.84605e-05 -1.90664e-06
-2.07674e-07 -1.90664e-06 7.95337e-05
0.000675801 7.7166e-06 4.33894e-08
7.7166e-06 6.36428e-06 -1.90679e-06
4.33894e-08 -1.90679e-06 -2.90622e-05
0.000682992 -3.12696e-06 2.69363e-07
-3.12696e-06 9.57762e-06 2.80335e-08
2.69363e-07 2.80335e-08 -2.73248e-05
0.000652447 1.36046e-05 1.44101e-07
1.36046e-05 -2.72895e-05 -3.5066e-06
1.44101e-07 -3.5066e-06 -3.40052e-05
0.000678614 -1.21355e-05 -1.57272e-06
-1.21355e-05 6.51404e-06 2.08025e-06
-1.57272e-06 2.08025e-06 -3.23204e-05
0.000943358 2.30944e-05 -1.48635e-07
2.30944e-05 0.000143344 -7.3687e-07
-1.48635e-07 -7.3687e-07 0.000136758
0.0021035 3.33657e-05 1.24101e-05
3.33657e-05 0.000817704 -4.4488e-06
1.24101e-05 -4.4488e-06 0.000835548
0.000633702 2.77673e-05 -4.27813e-07
2.77673e-05 -2.99251e-05 3.79908e-06
-4.27813e-07 3.79908e-06 -4.14687e-05
0.00223855 4.62442e-05 -7.5928e-06
4.62442e-05 0.000902284 1.18637e-06
-7.5928e-06 1.18637e-06 0.000917463
0.00232643 6.03372e-05 -2.15267e-05
6.03372e-05 0.000959328 4.19976e-06
-2.15267e-05 4.19976e-06 0.000971617
0.00174476 0.000100021 -2.71536e-06
0.000100021 -2.39373e-05 -3.08497e-07
-2.71536e-06 -3.08497e-07 -7.38837e-05
0.00173246 1.0254e-05 -9.29818e-07
1.0254e-05 7.92508e-06 -6.32909e-07
-9.29818e-07 -6.32909e-07 -4.73614e-05
0.00159368 5.46243e-05 8.59675e-06
5.46243e-05 -0.00011426 -5.71608e-07
8.59675e-06 -5.71608e-07 -0.000121481
0.00213601 0.00011836 2.30267e-05
0.00011836 -0.000142936 4.88812e-06
2.30267e-05 4.88812e-06 -0.000179439
0.00184166 8.30809e-06 -2.48462e-06
8.30809e-06 -3.46454e-07 -3.02356e-07
-2.48462e-06 -3.02356e-07 -1.60696e-05
0.00183044 4.20923e-05 3.77028e-06
4.20923e-05 0.00014848 4.36596e-07
3.77028e-06 4.36596e-07 0.000163896
0.00278884 -4.10066e-06 -1.97621e-05
-4.10066e-06 0.000661005 3.11541e-08
-1.97621e-05 3.11541e-08 0.000635787
0.00274939 -2.36089e-06 0.000136451
-2.36089e-06 -0.000204263 -1.46131e-05
0.000136451 -1.46131e-05 -0.000392679
0.00242235 9.66966e-06 -6.22339e-06
9.66966e-06 0.000184037 7.44622e-08
-6.22339e-06 7.44622e-08 0.000164037
0.000716693 5.76421e-05 -4.53378e-07
5.76421e-05 5.62546e-05 -1.31651e-06
-4.53378e-07 -1.31651e-06 -9.05216e-06
0.000724186 -8.94364e-06 7.12725e-07
-8.94364e-06 6.2708e-05 -8.54003e-08
7.12725e-07 -8.54003e-08 -4.87952e-06
0.000684394 -6.93487e-05 9.28966e-08
-6.93487e-05 4.54356e-05 -8.50791e-07
9.28966e-08 -8.50791e-07 -3.59361e-05
0.000721214 -2.74945e-05 -1.08051e-06
-2.74945e-05 7.82151e-05 -1.81469e-07
-1.08051e-06 -1.81469e-07 -1.18919e-05
0.00193709 -9.84575e-05 -2.05874e-06
-9.84575e-05 3.11526e-05 -3.42182e-08
-2.05874e-06 -3.42182e-08 1.42351e-06
0.00180152 -0.000170907 -1.23552e-06
-0.000170907 1.37522e-05 7.31733e-07
-1.23552e-06 7.31733e-07 -2.62695e-05
0.00192031 -0.000278758 -6.19329e-06
-0.000278758 7.68251e-05 1.06588e-07
-6.19329e-06 1.06588e-07 -6.32171e-06
0.00137581 -0.000235423 3.00024e-06
-0.000235423 0.000331474 3.86879e-06
3.00024e-06 3.86879e-06 0.000160186
0.000229442 -0.000223116 6.47987e-06
-0.000223116 -0.00042502 -2.68874e-06
6.47987e-06 -2.68874e-06 -0.000692598
0.00216206 -0.000376988 3.08244e-06
-0.000376988 0.000336619 -3.58255e-06
3.08244e-06 -3.58255e-06 0.000185574
0.000701714 -0.000184533 -5.79852e-06
-0.000184533 -2.44632e-06 -2.85742e-07
-5.79852e-06 -2.85742e-07 -0.000170589
0.00140508 -0.000104178 -9.94708e-07
-0.000104178 0.00049188 -2.20394e-06
-9.94708e-07 -2.20394e-06 0.000316677
0.000648233 -8.60582e-05 -1.68561e-06
-8.60582e-05 1.17884e-05 1.40375e-06
-1.68561e-06 1.40375e-06 -0.00011487
0.000740968 -2.66264e-05 -8.44233e-07
-2.66264e-05 6.81104e-05 1.80753e-06
-8.44233e-07 1.80753e-06 -3.63483e-06
0.00063948 -6.625e-05 -1.00745e-06
-6.625e-05 3.42669e-05 -1.6761e-08
-1.00745e-06 -1.6761e-08 -8.57834e-05
0.0007948 -1.14709e-05 -1.01159e-06
-1.14709e-05 0.000122659 6.59516e-07
-1.01159e-06 6.59516e-07 1.68717e-05
0.000725099 3.79611e-06 1.64041e-07
3.79611e-06 6.70466e-05 9.78086e-07
1.64041e-07 9.78086e-07 -4.35403e-06
0.000635095 1.60467e-05 -1.2741e-06
1.60467e-05 2.60633e-05 2.7525e-06
-1.2741e-06 2.7525e-06 -7.09676e-05
0.00205762 -0.000152535 9.48477e-07
-0.000152535 0.000115043 5.43201e-07
9.48477e-07 5.43201e-07 9.45218e-05
0.000710542 1.78696e-06 8.33019e-07
1.78696e-06 6.9177e-05 -4.84944e-07
8.33019e-07 -4.84944e-07 -2.27352e-05
0.000681636 9.6501e-06 1.04404e-06
9.6501e-06 5.03013e-05 -1.9646e-07
1.04404e-06 -1.9646e-07 -4.90651e-05
0.000626875 6.11234e-05 -1.52663e-07
6.11234e-05 3.03388e-05 1.45121e-06
-1.52663e-07 1.45121e-06 -7.34395e-05
0.00186054 -0.000187765 -2.0324e-06
-0.000187765 -6.64373e-06 -7.15047e-07
-2.0324e-06 -7.15047e-07 -3.02488e-05
0.00193276 -0.000362498 1.35275e-06
-0.000362498 8.6303e-05 -2.48508e-07
1.35275e-06 -2.48508e-07 -1.95532e-05
0.0011402 -0.000236074 -5.88743e-07
-0.000236074 0.000228135 -8.67482e-07
-5.88743e-07 -8.67482e-07 1.84573e-05
0.00239567 -0.000416758 -3.52094e-06
-0.000416758 0.000591445 1.43039e-06
-3.52094e-06 1.43039e-06 0.000389178
0.00102281 -5.03978e-05 -6.10977e-07
-5.03978e-05 0.000251987 3.17527e-07
-6.10977e-07 3.17527e-07 0.000135917
0.000670181 -6.08944e-05 -4.19554e-07
-6.08944e-05 3.16852e-05 9.58213e-07
-4.19554e-07 9.58213e-07 -8.52694e-05
0.000952327 -0.000215189 2.90124e-06
-0.000215189 0.000274335 -6.77017e-07
2.90124e-06 -6.77017e-07 2.89696e-05
0.000998878 -0.000114528 5.75962e-07
-0.000114528 0.000275108 -2.30669e-07
5.75962e-07 -2.30669e-07 8.31038e-05
0.00194022 -0.000139266 -1.53351e-05
-0.000139266 1.83398e-05 1.5753e-06
-1.53351e-05 1.5753e-06 1.05074e-05
0.00221358 -0.000303627 -1.26363e-05
-0.000303627 0.00013202 3.38086e-06
-1.26363e-05 3.38086e-06 0.000149592
0.00256596 -0.000448357 -1.05642e-05
-0.000448357 0.000542117 -4.30393e-06
-1.05642e-05 -4.30393e-06 0.000376259
0.00168589 -0.00034797 -2.57762e-06
-0.00034797 0.000451696 3.76735e-06
-2.57762e-06 3.76735e-06 0.000248196
0.000642855 1.83311e-05 -8.45257e-07
1.83311e-05 4.26405e-05 -2.65234e-06
-8.45257e-07 -2.65234e-06 -7.22303e-05
0.00065752 -6.71255e-05 1.16246e-06
-6.71255e-05 5.15282e-05 -3.22056e-06
1.16246e-06 -3.22056e-06 -6.89197e-05
0.000642135 -6.74172e-05 7.47693e-07
-6.74172e-05 6.25904e-05 8.0812e-07
7.47693e-07 8.0812e-07 -6.82997e-05
0.000562344 -5.97473e-05 1.30598e-06
-5.97473e-05 0.000131895 -1.14918e-06
1.30598e-06 -1.14918e-06 -0.000155738
0.000435803 -0.000226901 2.11598e-05
-0.000226901 -0.00222799 -5.7937e-07
2.11598e-05 -5.7937e-07 -0.00270953
0.0010507 4.45947e-05 1.0377e-06
4.45947e-05 0.000260863 -2.45302e-06
1.0377e-06 -2.45302e-06 0.00015552
0.000440361 0.00011687 2.86581e-06
0.00011687 -8.57988e-05 6.71438e-07
2.86581e-06 6.71438e-07 -0.000238583
0.00171804 0.000131909 2.69315e-05
0.000131909 -1.01854e-05 3.48742e-06
2.69315e-05 3.48742e-06 -1.15865e-05
0.00205692 0.000324753 9.02035e-06
0.000324753 0.000189654 2.90885e-06
9.02035e-06 2.90885e-06 8.39016e-05
0.00162031 0.000342423 5.21541e-06
0.000342423 0.000194166 3.99689e-06
5.21541e-06 3.99689e-06 -3.83024e-05
0.000799311 0.00019806 4.40587e-06
0.00019806 3.44694e-05 1.71149e-06
4.40587e-06 1.71149e-06 -0.000200515
0.00264378 0.000302933 3.49312e-05
0.000302933 0.000170589 8.33268e-06
3.49312e-05 8.33268e-06 -0.000171379
0.00105815 9.29565e-05 1.28585e-06
9.29565e-05 0.000280499 -3.87963e-07
1.28585e-06 -3.87963e-07 0.000152768
0.0023498 0.000245712 -8.66977e-06
0.000245712 0.000343757 -1.6166e-06
-8.66977e-06 -1.6166e-06 0.000352695
0.00105474 0.000193663 8.09795e-07
0.000193663 0.000246688 -2.32963e-07
8.09795e-07 -2.32963e-07 7.53675e-05
0.00121672 0.000272585 1.13012e-07
0.000272585 0.000166247 -3.20942e-07
1.13012e-07 -3.20942e-07 -7.7098e-05
0.00142544 0.000401348 -3.61941e-06
0.000401348 -7.43574e-05 -1.53437e-06
-3.61941e-06 -1.53437e-06 -0.000254764
0.00303826 -0.000154525 -7.66216e-05
-0.000154525 -0.000631057 -2.53556e-05
-7.66216e-05 -2.53556e-05 -0.00155524
0.00460399 0.000391731 -2.1783e-06
0.000391731 0.000496667 -2.11144e-05
-2.1783e-06 -2.11144e-05 -0.000212112
0.00018928 0.000255293 1.906e-06
0.000255293 -0.000524534 7.47979e-06
1.906e-06 7.47979e-06 -0.000691819
-0.000832247 -0.000354136 9.04439e-05
-0.000354136 0.000556036 3.29198e-05
9.04439e-05 3.29198e-05 -0.000301077
-0.0006195 -0.0012453 -4.01118e-05
-0.0012453 -0.00142008 -5.8251e-05
-4.01118e-05 -5.8251e-05 0.000330006
0.00115197 0.000142529 -3.37578e-06
0.000142529 0.000333665 -3.98005e-06
-3.37578e-06 -3.98005e-06 0.000210976
0.00039467 0.000255899 4.69591e-05
0.000255899 0.00101872 -2.89409e-05
4.69591e-05 -2.89409e-05 0.000251035
0.00131178 -0.000451273 -6.88024e-05
-0.000451273 0.0014926 -9.88975e-05
-6.88024e-05 -9.88975e-05 0.000885621
0.00280246 0.000370768 -2.46807e-05
0.000370768 0.000651972 -9.40757e-06
-2.46807e-05 -9.40757e-06 0.000664062
0.00117592 0.000136261 -1.17862e-05
0.000136261 0.000307504 -2.02224e-06
-1.17862e-05 -2.02224e-06 0.000128192
0.00077823 0.000373625 -1.72332e-05
0.000373625 -0.000116774 -1.13152e-05
-1.72332e-05 -1.13152e-05 -0.000380875
-0.000138986 0.000299604 2.21808e-05
0.000299604 -0.000708345 5.31976e-05
2.21808e-05 5.31976e-05 -0.000780196
0.00935893 0.000285024 -3.62923e-05
0.000285024 0.00314266 -2.31225e-05
-3.62923e-05 -2.31225e-05 0.00167898
0.00364399 0.000694827 -9.04736e-07
0.000694827 0.000842923 1.1937e-05
-9.04736e-07 1.1937e-05 -0.000376762
0.00118825 -0.00105722 0.000107674
-0.00105722 -0.000417705 8.7289e-05
0.000107674 8.7289e-05 5.83224e-05
0.00248773 -0.000640692 -2.55976e-06
-0.000640692 -0.0015863 0.000124293
-2.55976e-06 0.000124293 -0.000154398
0.000754058 -1.12077e-05 9.39529e-07
-1.12077e-05 9.29655e-05 -1.12257e-06
9.39529e-07 -1.12257e-06 3.27219e-06
0.000896393 4.92643e-05 6.84561e-07
4.92643e-05 0.000159057 8.4679e-07
6.84561e-07 8.4679e-07 6.66627e-05
0.00125365 9.9598e-05 -1.81135e-06
9.9598e-05 0.000365772 -3.15323e-06
-1.81135e-06 -3.15323e-06 0.000288828
0.000698436 3.67909e-06 2.65354e-07
3.67909e-06 4.83047e-05 -2.73865e-07
2.65354e-07 -2.73865e-07 -3.20001e-05
0.000778016 2.40694e-05 -9.16768e-08
2.40694e-05 8.99141e-05 -6.47906e-07
-9.16768e-08 -6.47906e-07 -4.44541e-06
0.00061804 -1.97857e-05 -8.10365e-07
-1.97857e-05 -8.22311e-06 -4.72026e-08
-8.10365e-07 -4.72026e-08 -9.67818e-05
0.000842991 1.98847e-05 -7.87227e-07
1.98847e-05 0.000114152 2.69669e-07
-7.87227e-07 2.69669e-07 2.47961e-05
0.000808377 -5.16638e-06 -6.51696e-07
-5.16638e-06 8.32835e-05 5.37132e-07
-6.51696e-07 5.37132e-07 -2.00342e-07
0.000569957 -1.3962e-06 4.5012e-07
-1.3962e-06 -3.46657e-05 6.61778e-07
4.5012e-07 6.61778e-07 -0.000111927
0.000868564 1.60202e-05 2.29335e-08
1.60202e-05 0.000128308 -8.68271e-08
2.29335e-08 -8.68271e-08 3.7061e-05
0.000853196 1.33751e-05 -3.4772e-09
1.33751e-05 0.000122461 2.64717e-07
-3.4772e-09 2.64717e-07 2.91913e-05
0.00073932 1.71997e-05 6.03168e-07
1.71997e-05 6.92157e-05 -3.61662e-07
6.03168e-07 -3.61662e-07 -2.82375e-05
0.0006548 2.17125e-05 -1.19753e-07
2.17125e-05 3.01511e-06 1.3279e-07
-1.19753e-07 1.3279e-07 -8.21974e-05
0.00100606 1.84202e-05 1.11272e-07
1.84202e-05 0.000203484 -1.05859e-06
1.11272e-07 -1.05859e-06 0.000114871
0.00054607 4.37964e-05 -1.21052e-06
4.37964e-05 -5.11792e-05 -4.99049e-06
-1.21052e-06 -4.99049e-06 -0.000140981
0.000801449 -6.48881e-05 -2.36387e-07
-6.48881e-05 9.01295e-05 -3.30207e-08
-2.36387e-07 -3.30207e-08 -7.99428e-06
0.000833847 -5.41802e-05 -7.67242e-07
-5.41802e-05 0.000126363 -9.14679e-07
-7.67242e-07 -9.14679e-07 2.58643e-05
0.000838071 -1.8051e-05 -5.23557e-07
-1.8051e-05 0.000128246 -3.13484e-07
-5.23557e-07 -3.13484e-07 3.17564e-05
0.000856706 3.16161e-05 -4.75183e-07
3.16161e-05 0.000127722 -2.99567e-07
-4.75183e-07 -2.99567e-07 3.81945e-05
0.000826028 1.52836e-05 -9.61636e-07
1.52836e-05 0.000123173 -1.60939e-06
-9.61636e-07 -1.60939e-06 1.81905e-05
0.000768528 3.98751e-05 7.31989e-07
3.98751e-05 8.70477e-05 -9.02678e-07
7.31989e-07 -9.02678e-07 -3.89746e-06
0.000595482 1.07572e-05 7.0181e-07
1.07572e-05 -3.23967e-05 -1.76216e-06
7.0181e-07 -1.76216e-06 -0.000112942
0.000667619 3.95648e-05 1.43633e-06
3.95648e-05 3.62945e-05 7.52672e-07
1.43633e-06 7.52672e-07 -5.52376e-05
0.000716305 -1.28674e-05 5.00828e-08
-1.28674e-05 5.11418e-05 -7.44182e-08
5.00828e-08 -7.44182e-08 -2.73733e-05
0.000741871 -1.6341e-05 -1.90364e-07
-1.6341e-05 7.55741e-05 -2.8041e-09
-1.90364e-07 -2.8041e-09 -1.2323e-05
0.000713111 -2.08168e-05 -1.31274e-06
-2.08168e-05 3.81401e-05 5.37827e-07
-1.31274e-06 5.37827e-07 -2.74121e-05
0.000751867 -7.65977e-06 9.67878e-07
-7.65977e-06 6.79281e-05 -1.63838e-07
9.67878e-07 -1.63838e-07 -1.63234e-05
0.000680564 -5.12736e-05 -1.57692e-08
-5.12736e-05 2.49611e-05 9.29811e-08
-1.57692e-08 9.29811e-08 -4.7069e-05
0.000689899 8.19625e-06 -1.18577e-06
8.19625e-06 1.24528e-05 1.80875e-06
-1.18577e-06 1.80875e-06 -3.21225e-05
0.000581408 -8.18562e-07 8.18456e-07
-8.18562e-07 -2.35203e-05 -2.70887e-07
8.18456e-07 -2.70887e-07 -0.000103137
0.000674266 7.32339e-06 4.82335e-07
7.32339e-06 6.46511e-06 -2.30437e-08
4.82335e-07 -2.30437e-08 -3.84544e-05
0.00136752 1.6842e-05 -2.79466e-06
1.6842e-05 0.000387083 5.07136e-06
-2.79466e-06 5.07136e-06 0.000378735
0.000664981 1.41252e-05 5.82175e-08
1.41252e-05 2.38978e-06 -1.64911e-06
5.82175e-08 -1.64911e-06 -4.19014e-05
0.00100362 8.90583e-06 -1.54192e-06
8.90583e-06 0.000175514 7.71684e-07
-1.54192e-06 7.71684e-07 0.000165792
0.000872591 3.8991e-06 -3.51068e-06
3.8991e-06 0.000101237 4.83562e-06
-3.51068e-06 4.83562e-06 0.00011142
0.000644868 1.80322e-06 5.45939e-08
1.80322e-06 -3.25418e-05 -3.54133e-06
5.45939e-08 -3.54133e-06 -4.35941e-05
0.00227093 1.17566e-07 3.58613e-06
1.17566e-07 0.000906611 -2.64795e-09
3.58613e-06 -2.64795e-09 0.000924547
0.000889644 -3.69042e-06 -3.44988e-06
-3.69042e-06 0.000110532 -4.84831e-06
-3.44988e-06 -4.84831e-06 0.000121307
0.00072849 6.54517e-05 1.19596e-06
6.54517e-05 6.92055e-05 -5.38203e-07
1.19596e-06 -5.38203e-07 -2.1674e-06
0.000682778 1.40179e-05 -6.07971e-07
1.40179e-05 1.11262e-05 -1.96102e-06
-6.07971e-07 -1.96102e-06 -2.4503e-05
0.000673282 8.69219e-07 5.73293e-07
8.69219e-07 5.36188e-06 1.68376e-08
5.73293e-07 1.68376e-08 -3.04675e-05
0.000651393 7.35543e-06 -4.48385e-08
7.35543e-06 -2.9545e-05 -3.48256e-06
-4.48385e-08 -3.48256e-06 -3.5484e-05
0.000693032 -1.40371e-05 -1.03748e-06
-1.40371e-05 1.54616e-05 2.05291e-06
-1.03748e-06 2.05291e-06 -2.17515e-05
0.000637383 1.35702e-05 3.74324e-09
1.35702e-05 -3.64242e-05 -7.54931e-07
3.74324e-09 -7.54931e-07 -4.29775e-05
0.00207926 2.20025e-05 8.29038e-06
2.20025e-05 0.000799848 -4.60402e-06
8.29038e-06 -4.60402e-06 0.00081899
0.00125818 2.83604e-05 -8.46125e-07
2.83604e-05 0.000325092 2.14979e-06
-8.46125e-07 2.14979e-06 0.000319834
0.00151898 2.85556e-05 3.04204e-07
2.85556e-05 0.000481642 1.46196e-06
3.04204e-07 1.46196e-06 0.000495526
0.000946289 3.15391e-05 -1.61779e-05
3.15391e-05 0.000157368 7.40276e-06
-1.61779e-05 7.40276e-06 0.000165498
0.00134873 6.59662e-05 4.49095e-05
6.59662e-05 -0.00048077 1.38443e-05
4.49095e-05 1.38443e-05 -0.000539013
0.00184251 4.75634e-07 1.51763e-06
4.75634e-07 -1.79627e-06 1.09608e-07
1.51763e-06 1.09608e-07 -1.70085e-05
0.00184368 4.8381e-05 2.51898e-05
4.8381e-05 0.00016842 -2.12402e-06
2.51898e-05 -2.12402e-06 0.000174416
0.0008377 4.83325e-05 3.93385e-06
4.83325e-05 -0.000875335 -5.15211e-06
3.93385e-06 -5.15211e-06 -0.00109508
0.00171101 2.13048e-05 1.04743e-05
2.13048e-05 -0.000154309 1.15218e-06
1.04743e-05 1.15218e-06 -0.000158261
0.00220395 -1.32608e-05 -1.42423e-06
-1.32608e-05 0.000272975 -7.32907e-07
-1.42423e-06 -7.32907e-07 0.000250404
0.00302436 -3.37009e-05 -5.39361e-05
-3.37009e-05 0.000609884 5.06786e-06
-5.39361e-05 5.06786e-06 0.000598543
0.00298016 -9.43831e-05 0.000137302
-9.43831e-05 0.000345767 -9.09824e-06
0.000137302 -9.09824e-06 0.00010965
0.00794144 -0.000262286 -7.53958e-06
-0.000262286 0.00194677 1.49438e-05
-7.53958e-06 1.49438e-05 0.000784239
0.00686226 0.00107607 0.000166701
0.00107607 0.00338377 -7.52052e-05
0.000166701 -7.52052e-05 0.00353757
0.00283881 0.00107026 5.16209e-06
0.00107026 0.0017109 1.18638e-05
5.16209e-06 1.18638e-05 0.00268592
0.000449751 -6.66927e-05 1.86561e-06
-6.66927e-05 -8.38197e-05 -1.31625e-06
1.86561e-06 -1.31625e-06 -0.000167726
0.000719932 -8.70822e-06 1.01787e-06
-8.70822e-06 6.01786e-05 -8.43871e-08
1.01787e-06 -8.43871e-08 -6.54219e-06
0.000732316 -6.86305e-05 -1.30883e-06
-6.86305e-05 7.22424e-05 1.79322e-06
-1.30883e-06 1.79322e-06 7.27606e-07
0.000673715 -2.3672e-05 -3.81503e-07
-2.3672e-05 4.18689e-05 1.52664e-07
-3.81503e-07 1.52664e-07 -4.24153e-05
0.000799397 6.6733e-05 -2.00753e-08
6.6733e-05 0.000127821 2.58667e-07
-2.00753e-08 2.58667e-07 2.45163e-05
0.000871916 0.00011112 1.0193e-06
0.00011112 0.000155985 9.17074e-07
1.0193e-06 9.17074e-07 5.66132e-05
0.000792122 -1.00007e-05 1.31543e-06
-1.00007e-05 0.000111379 -1.95076e-06
1.31543e-06 -1.95076e-06 2.25584e-05
0.000659655 -2.83485e-05 -6.57855e-07
-2.83485e-05 3.61143e-05 6.77861e-07
-6.57855e-07 6.77861e-07 -4.9338e-05
0.00202671 -0.000135252 6.58263e-06
-0.000135252 0.000117624 8.25373e-08
6.58263e-06 8.25373e-08 9.98313e-05
0.00187299 -0.00019399 2.92831e-06
-0.00019399 -2.70895e-05 -1.87754e-06
2.92831e-06 -1.87754e-06 -5.31176e-05
0.00163964 -0.000341449 4.24866e-07
-0.000341449 -6.8737e-05 1.471e-06
4.24866e-07 1.471e-06 -0.000167921
0.00111424 -0.000258073 4.31574e-06
-0.000258073 0.000196373 2.91388e-06
4.31574e-06 2.91388e-06 -1.37891e-05
0.00225507 -0.000408885 4.48067e-06
-0.000408885 0.000515616 5.43112e-08
4.48067e-06 5.43112e-08 0.000311102
0.00105601 -0.000225435 -5.12434e-07
-0.000225435 0.000331736 -1.96622e-06
-5.12434e-07 -1.96622e-06 8.54492e-05
0.00158746 -0.000176857 -1.16142e-06
-0.000176857 0.000601273 -4.81201e-07
-1.16142e-06 -4.81201e-07 0.000398937
0.000768323 -9.21749e-05 -1.32764e-06
-9.21749e-05 8.96833e-05 1.24115e-06
-1.32764e-06 1.24115e-06 -3.55874e-05
0.000780762 -2.13972e-05 -3.04689e-07
-2.13972e-05 0.000110946 2.19642e-06
-3.04689e-07 2.19642e-06 1.12916e-05
0.000967108 -1.07257e-05 -1.74186e-06
-1.07257e-05 0.00021226 -1.88657e-06
-1.74186e-06 -1.88657e-06 0.000101046
0.000989482 -1.13712e-05 9.9706e-07
-1.13712e-05 0.00023003 1.13211e-06
9.9706e-07 1.13211e-06 0.000138476
0.000724514 0.000115215 2.26011e-06
0.000115215 8.89547e-05 3.48593e-06
2.26011e-06 3.48593e-06 -1.51265e-05
0.00172175 -0.000137981 -6.78394e-07
-0.000137981 -7.74609e-05 -3.44181e-07
-6.78394e-07 -3.44181e-07 -8.20972e-05
0.00073635 2.95068e-05 -9.49035e-07
2.95068e-05 9.58143e-05 2.54314e-07
-9.49035e-07 2.54314e-07 -1.77219e-05
0.000815159 -5.81658e-05 -8.67506e-07
-5.81658e-05 0.000136034 1.32539e-07
-8.67506e-07 1.32539e-07 2.0781e-05
0.00184442 -0.000298809 6.08753e-07
-0.000298809 -4.84365e-05 -1.58857e-06
6.08753e-07 -1.58857e-06 -4.62795e-05
0.0014006 -0.000368027 -3.37013e-07
-0.000368027 -5.86452e-05 2.5408e-06
-3.37013e-07 2.5408e-06 -0.000203011
0.00158641 -0.0003408 1.7596e-06
-0.0003408 0.000395322 -1.53126e-06
1.7596e-06 -1.53126e-06 0.000178336
0.000893597 -7.89959e-05 4.25838e-07
-7.89959e-05 0.00020441 -1.78571e-06
4.25838e-07 -1.78571e-06 6.10472e-05
0.000925784 -9.46939e-05 -3.15353e-07
-9.46939e-05 0.000312902 1.56892e-07
-3.15353e-07 1.56892e-07 3.96038e-05
0.00243525 -0.000195051 -1.6821e-05
-0.000195051 0.000416265 4.59269e-06
-1.6821e-05 4.59269e-06 0.000352318
0.002798 -0.000406232 -2.30811e-05
-0.000406232 0.00053611 2.95859e-06
-2.30811e-05 2.95859e-06 0.000556721
0.000641508 -0.000347607 -7.01935e-06
-0.000347607 -0.000309823 6.8513e-07
-7.01935e-06 6.8513e-07 -0.000462738
0.000709965 -0.000217665 -3.60275e-06
-0.000217665 2.77306e-05 1.33663e-05
-3.60275e-06 1.33663e-05 -0.000198555
0.000660706 -0.000103783 9.44388e-07
-0.000103783 4.88651e-05 -8.39805e-07
9.44388e-07 -8.39805e-07 -7.20792e-05
0.000642852 -6.33538e-05 1.90535e-06
-6.33538e-05 5.45913e-05 -4.00111e-06
1.90535e-06 -4.00111e-06 -7.5057e-05
0.000883069 -3.0775e-05 2.9224e-07
-3.0775e-05 0.000266586 -2.67754e-06
2.9224e-07 -2.67754e-06 4.76005e-05
-0.00414317 -2.51261e-05 0.000190484
-2.51261e-05 -0.00231755 7.01901e-08
0.000190484 7.01901e-08 -0.00182877
0.0093747 -0.000111773 -1.63069e-05
-0.000111773 0.00295564 1.66729e-06
-1.63069e-05 1.66729e-06 0.00233225
0.00102566 7.83187e-05 2.80743e-06
7.83187e-05 0.000263946 -3.76122e-07
2.80743e-06 -3.76122e-07 0.000139738
0.000739299 0.000168217 3.97193e-06
0.000168217 7.8616e-05 -1.32261e-06
3.97193e-06 -1.32261e-06 -8.85905e-05
0.00210854 0.000231724 2.04753e-05
0.000231724 0.000210294 1.36872e-05
2.04753e-05 1.36872e-05 0.000229646
0.00231615 0.000459324 6.62662e-06
0.000459324 0.000371333 5.95231e-06
6.62662e-06 5.95231e-06 0.00019819
0.00143073 0.000299038 6.71397e-06
0.000299038 0.000290582 1.112e-06
6.71397e-06 1.112e-06 4.40066e-05
0.00777606 0.000367648 6.23175e-05
0.000367648 0.00187926 6.35529e-06
6.23175e-05 6.35529e-06 0.000818773
0.00650813 0.00057589 -0.000116639
0.00057589 0.00118568 -3.08846e-05
-0.000116639 -3.08846e-05 0.00057765
-0.000835478 0.000153332 1.23394e-06
0.000153332 -0.000990077 -1.93026e-05
1.23394e-06 -1.93026e-05 -0.00117292
0.00502246 -0.000862333 -2.30469e-05
-0.000862333 0.00253389 2.70635e-05
-2.30469e-05 2.70635e-05 0.00221295
-0.00652057 -0.00126658 -0.000247527
-0.00126658 -0.0036098 -0.000208487
-0.000247527 -0.000208487 -0.00171223
0.0009591 0.000140013 2.81652e-08
0.000140013 0.000234751 -1.60819e-06
2.81652e-08 -1.60819e-06 0.000111126
-0.0024564 -0.000352631 6.66213e-05
-0.000352631 -0.00165077 6.64281e-06
6.66213e-05 6.64281e-06 -0.00173318
-0.00146398 -0.00037329 -7.45257e-05
-0.00037329 0.000475199 -3.44957e-05
-7.45257e-05 -3.44957e-05 -0.000400091
0.00254677 0.000337791 -5.07115e-06
0.000337791 0.000486625 -1.37038e-06
-5.07115e-06 -1.37038e-06 0.000523552
0.000890708 0.000153342 -1.76143e-06
0.000153342 0.000178783 2.02718e-07
-1.76143e-06 2.02718e-07 -1.01025e-05
0.000727707 0.000325536 4.38095e-06
0.000325536 -0.000112327 1.73145e-06
4.38095e-06 1.73145e-06 -0.000370116
0.000715275 0.000248539 1.14918e-05
0.000248539 -0.000188359 1.00899e-05
1.14918e-05 1.00899e-05 -0.000183321
0.00762533 0.000204749 -2.70091e-05
0.000204749 0.00188507 -1.84057e-05
-2.70091e-05 -1.84057e-05 0.000284351
0.00636764 0.000886644 -4.2291e-05
0.000886644 0.00166655 -1.70151e-05
-4.2291e-05 -1.70151e-05 0.000843141
0.00754909 -0.00111002 6.00124e-05
-0.00111002 0.0035763 -3.04651e-05
6.00124e-05 -3.04651e-05 0.0037022
0.00211183 -0.000771598 7.92456e-05
-0.000771598 -0.00191437 0.000165865
7.92456e-05 0.000165865 -0.000419264
0.00142481 0.000117329 -1.19587e-05
0.000117329 0.000516403 -7.44589e-06
-1.19587e-05 -7.44589e-06 0.000411696
-0.00368537 3.96075e-05 -8.28436e-05
3.96075e-05 0.000132477 -3.70825e-05
-8.28436e-05 -3.70825e-05 -0.0013167
0.00233434 0.000105559 -9.98013e-05
0.000105559 0.000764646 -0.000139498
-9.98013e-05 -0.000139498 -0.000700981
0.000118838 0.000271267 -1.62911e-05
0.000271267 -0.000468581 8.83733e-07
-1.62911e-05 8.83733e-07 -0.000478168
0.00158795 0.000348628 -3.88412e-05
0.000348628 0.000623457 -1.07949e-05
-3.88412e-05 -1.07949e-05 0.000409883
0.00268906 0.000263322 -7.12469e-05
0.000263322 0.00117419 -5.0775e-06
-7.12469e-05 -5.0775e-06 0.0009146
0.00370288 0.000781833 -5.95934e-05
0.000781833 0.000520662 -1.21528e-05
-5.95934e-05 -1.21528e-05 0.000130915
-0.000256082 0.000323202 0.000104267
0.000323202 -0.000628921 7.72516e-05
0.000104267 7.72516e-05 -0.00294501
0.00810771 -0.00110246 4.55892e-06
-0.00110246 0.00240554 0.000130355
4.55892e-06 0.000130355 0.00228101
0.002705 -0.000461659 -1.08478e-05
-0.000461659 -0.00208704 -2.30324e-05
-1.08478e-05 -2.30324e-05 -0.000707609
0.000954525 6.77228e-05 2.03862e-06
6.77228e-05 0.00020059 3.5928e-06
2.03862e-06 3.5928e-06 0.000102367
0.00114482 9.36752e-05 3.78499e-06
9.36752e-05 0.000300834 2.57693e-06
3.78499e-06 2.57693e-06 0.000223632
0.000454911 6.68362e-05 -5.96651e-07
6.68362e-05 -8.43755e-05 -7.46944e-06
-5.96651e-07 -7.46944e-06 -0.000144355
0.000559006 4.33731e-05 8.75204e-07
4.33731e-05 -4.1717e-05 -3.94875e-08
8.75204e-07 -3.94875e-08 -0.000118472
0.000783928 3.89355e-05 -6.98899e-07
3.89355e-05 0.000100767 -9.3181e-07
-6.98899e-07 -9.3181e-07 6.67424e-07
0.000822418 -1.05091e-05 -3.38202e-07
-1.05091e-05 0.000104912 7.72377e-07
-3.38202e-07 7.72377e-07 1.22902e-05
0.000820217 -6.77136e-06 7.98328e-07
-6.77136e-06 0.000104301 -2.67931e-07
7.98328e-07 -2.67931e-07 1.08417e-05
0.000639765 1.56915e-05 -5.51135e-07
1.56915e-05 -6.18228e-06 2.6566e-06
-5.51135e-07 2.6566e-06 -9.02222e-05
0.000832646 3.62974e-05 9.70448e-08
3.62974e-05 0.000126426 -6.6434e-07
9.70448e-08 -6.6434e-07 2.55489e-05
0.000896474 1.71799e-05 -7.64841e-08
1.71799e-05 0.00014067 2.47921e-07
-7.64841e-08 2.47921e-07 5.19104e-05
0.000837411 -3.09955e-05 -4.40036e-08
-3.09955e-05 0.000113658 4.59053e-07
-4.40036e-08 4.59053e-07 1.35028e-05
0.000372886 2.88539e-05 8.2302e-07
2.88539e-05 -0.000142261 -4.92637e-07
8.2302e-07 -4.92637e-07 -0.000229318
9.5956e-05 1.65962e-05 2.23506e-06
1.65962e-05 -0.000230075 -3.96491e-06
2.23506e-06 -3.96491e-06 -0.000312885
0.000974273 -7.14594e-06 -1.97367e-06
-7.14594e-06 0.000193668 -2.44146e-06
-1.97367e-06 -2.44146e-06 9.57078e-05
0.000984835 -1.35879e-06 1.04645e-07
-1.35879e-06 0.000212196 -1.6764e-06
1.04645e-07 -1.6764e-06 9.96734e-05
0.000843856 -4.64762e-05 1.43471e-08
-4.64762e-05 0.000134516 -3.97488e-07
1.43471e-08 -3.97488e-07 3.52355e-05
0.000880042 -1.00102e-06 -7.23661e-07
-1.00102e-06 0.000136379 9.44539e-07
-7.23661e-07 9.44539e-07 4.91493e-05
0.000834516 -2.91493e-05 5.21096e-07
-2.91493e-05 0.00012013 -3.2582e-07
5.21096e-07 -3.2582e-07 2.00088e-05
0.000784266 3.54189e-05 -1.93182e-07
3.54189e-05 9.34245e-05 -7.71354e-08
-1.93182e-07 -7.71354e-08 3.49448e-06
0.000694605 -1.61184e-05 -1.97649e-07
-1.61184e-05 2.47966e-05 5.15905e-07
-1.97649e-07 5.15905e-07 -5.62761e-05
0.000697401 4.3431e-05 1.01323e-06
4.3431e-05 4.7186e-05 1.73668e-07
1.01323e-06 1.73668e-07 -4.12036e-05
0.000563072 6.71878e-06 -3.88596e-08
6.71878e-06 -3.62807e-05 -3.02148e-06
-3.88596e-08 -3.02148e-06 -0.000129227
0.000648623 -4.17204e-06 1.55838e-06
-4.17204e-06 8.07846e-06 -1.32689e-06
1.55838e-06 -1.32689e-06 -7.15248e-05
0.000853893 1.12754e-05 2.86508e-06
1.12754e-05 0.00011794 -2.86861e-06
2.86508e-06 -2.86861e-06 2.51544e-05
0.00023031 -3.2818e-05 7.80304e-07
-3.2818e-05 -0.000186212 1.76427e-07
7.80304e-07 1.76427e-07 -0.000320678
0.000359699 3.38072e-05 -1.99089e-07
3.38072e-05 -0.000122619 -3.3444e-07
-1.99089e-07 -3.3444e-07 -0.000222306
0.000745892 3.1472e-05 4.37174e-07
3.1472e-05 7.97083e-05 4.19621e-07
4.37174e-07 4.19621e-07 -1.21436e-05
0.000696572 2.15058e-05 6.66451e-08
2.15058e-05 4.28033e-05 3.69736e-07
6.66451e-08 3.69736e-07 -3.66026e-05
0.000748094 -2.13948e-06 -3.37514e-08
-2.13948e-06 7.76009e-05 6.80492e-09
-3.37514e-08 6.80492e-09 -6.89335e-06
0.000678301 1.54864e-05 -6.15736e-07
1.54864e-05 2.31792e-05 5.03548e-07
-6.15736e-07 5.03548e-07 -4.37519e-05
0.000777005 -2.24602e-07 2.11683e-07
-2.24602e-07 9.38361e-05 3.00744e-07
2.11683e-07 3.00744e-07 7.0042e-06
0.000727158 -2.26139e-05 -2.23442e-07
-2.26139e-05 5.10938e-05 2.3023e-08
-2.23442e-07 2.3023e-08 -1.78963e-05
0.00066259 3.45365e-05 -7.64404e-07
3.45365e-05 -2.67746e-06 1.79598e-06
-7.64404e-07 1.79598e-06 -4.81375e-05
0.000635 -4.30427e-05 1.00088e-06
-4.30427e-05 -4.60734e-06 -5.09831e-07
1.00088e-06 -5.09831e-07 -7.53452e-05
0.000676383 1.36992e-05 -1.95936e-07
1.36992e-05 4.94217e-06 -2.59792e-08
-1.95936e-07 -2.59792e-08 -3.97481e-05
0.00136675 2.55366e-05 -4.86784e-06
2.55366e-05 0.000388425 5.05743e-06
-4.86784e-06 5.05743e-06 0.000379606
0.000668569 -5.92242e-06 7.3096e-07
-5.92242e-06 2.88374e-06 -1.67923e-06
7.3096e-07 -1.67923e-06 -4.17949e-05
0.0009986 1.62341e-05 -2.43765e-06
1.62341e-05 0.00017405 7.43357e-07
-2.43765e-06 7.43357e-07 0.000163938
0.000822275 1.38523e-05 -4.47641e-07
1.38523e-05 7.36272e-05 1.89742e-06
-4.47641e-07 1.89742e-06 8.34705e-05
0.000630018 7.54582e-06 3.09517e-07
7.54582e-06 -4.03959e-05 -3.57835e-06
3.09517e-07 -3.57835e-06 -5.1876e-05
0.0022857 1.16249e-05 3.22444e-06
1.16249e-05 0.000915895 3.22369e-08
3.22444e-06 3.22369e-08 0.000933487
0.00228169 1.46531e-06 1.6543e-08
1.46531e-06 0.000912855 -4.99786e-06
1.6543e-08 -4.99786e-06 0.000930675
0.00102977 6.65805e-05 -1.31785e-06
6.65805e-05 0.000235315 -1.23912e-06
-1.31785e-06 -1.23912e-06 0.000166916
0.000694792 1.59066e-05 -7.84018e-07
1.59066e-05 1.77286e-05 -2.0858e-06
-7.84018e-07 -2.0858e-06 -1.91159e-05
0.00070581 -6.17603e-07 6.64474e-07
-6.17603e-07 5.49437e-05 7.66096e-07
6.64474e-07 7.66096e-07 -1.51175e-05
0.000651018 1.23698e-06 -1.68013e-07
1.23698e-06 -3.07057e-05 -3.55768e-06
-1.68013e-07 -3.55768e-06 -3.64103e-05
0.000680571 -2.02048e-06 2.35902e-07
-2.02048e-06 9.53413e-06 -3.17357e-08
2.35902e-07 -3.17357e-08 -2.59068e-05
0.00068137 -1.30262e-05 -8.71994e-07
-1.30262e-05 9.76957e-06 1.91472e-06
-8.71994e-07 1.91472e-06 -2.60577e-05
0.000647675 7.42229e-06 -1.59039e-07
7.42229e-06 -3.17849e-05 -1.52851e-08
-1.59039e-07 -1.52851e-08 -3.77025e-05
0.00207615 1.07711e-05 3.92121e-06
1.07711e-05 0.000795638 -4.72718e-06
3.92121e-06 -4.72718e-06 0.000815465
0.00124594 1.90356e-05 -6.09315e-07
1.90356e-05 0.000314639 2.13226e-06
-6.09315e-07 2.13226e-06 0.000311273
0.0014599 1.90836e-05 1.79446e-06
1.90836e-05 0.000442507 7.29666e-08
1.79446e-06 7.29666e-08 0.000458192
0.000899055 2.26131e-05 -1.43536e-05
2.26131e-05 0.000123602 7.26077e-06
-1.43536e-05 7.26077e-06 0.000134673
-0.00687125 0.000185268 0.000130307
0.000185268 -0.00323053 -1.56576e-06
0.000130307 -1.56576e-06 -0.00368775
-0.00202121 0.000160548 0.000119304
0.000160548 0.000483941 1.73562e-05
0.000119304 1.73562e-05 -0.000290326
0.00388596 0.000115581 -0.0001739
0.000115581 0.000600105 1.17657e-06
-0.0001739 1.17657e-06 0.000403594
0.000987123 2.79039e-05 3.39352e-05
2.79039e-05 -0.000483296 6.46021e-07
3.39352e-05 6.46021e-07 -0.000498378
0.00148495 -2.01336e-05 1.56175e-05
-2.01336e-05 -0.000192404 3.38989e-07
1.56175e-05 3.38989e-07 -0.00021314
0.000903745 3.11239e-05 1.40825e-05
3.11239e-05 -0.000591801 -2.94245e-06
1.40825e-05 -2.94245e-06 -0.000685398
0.00233966 -6.05705e-05 2.60883e-06
-6.05705e-05 0.000224487 2.27905e-06
2.60883e-06 2.27905e-06 0.000187437
0.00771015 0.000139237 1.81575e-05
0.000139237 0.00176082 -2.43877e-05
1.81575e-05 -2.43877e-05 0.000823726
-0.003614 0.000547724 -3.09822e-05
0.000547724 -0.00124894 -3.88518e-06
-3.09822e-05 -3.88518e-06 -0.0018188
-0.00186891 0.00113586 -5.42235e-05
0.00113586 -0.000971144 2.16693e-05
-5.42235e-05 2.16693e-05 0.000535486
0.00122862 -0.000143718 4.38742e-05
-0.000143718 -0.000530916 1.19224e-05
4.38742e-05 1.19224e-05 -0.000822727
0.00905148 2.76596e-05 4.72636e-05
2.76596e-05 0.00278261 -2.31017e-05
4.72636e-05 -2.31017e-05 0.00142962
0.000774579 0.00102881 7.85679e-05
0.00102881 -0.00047036 -0.000136431
7.85679e-05 -0.000136431 0.000176069
0.00454572 0.000826406 -9.73811e-05
0.000826406 6.10507e-06 7.57841e-05
-9.73811e-05 7.57841e-05 0.000806326
0.00074213 6.62334e-05 -1.1797e-06
6.62334e-05 9.61348e-05 -5.20856e-07
-1.1797e-06 -5.20856e-07 -1.5192e-05
0.00060878 1.12524e-05 -2.46008e-07
1.12524e-05 2.86058e-06 -6.43623e-07
-2.46008e-07 -6.43623e-07 -7.86533e-05
0.000719721 -7.3133e-05 -9.88281e-07
-7.3133e-05 6.42195e-05 1.39568e-06
-9.88281e-07 1.39568e-06 -5.60847e-06
0.000617347 1.93031e-06 1.86849e-07
1.93031e-06 1.37987e-05 1.13991e-06
1.86849e-07 1.13991e-06 -7.43392e-05
0.000764573 6.68512e-05 9.54411e-07
6.68512e-05 0.000110109 1.39729e-06
9.54411e-07 1.39729e-06 6.93635e-06
0.000888157 6.77929e-05 -3.36958e-07
6.77929e-05 0.000170832 -1.80194e-07
-3.36958e-07 -1.80194e-07 6.2256e-05
0.000816439 7.95769e-05 1.62452e-06
7.95769e-05 0.000129096 1.55228e-06
1.62452e-06 1.55228e-06 2.71582e-05
0.000715591 6.8699e-10 1.19934e-06
6.8699e-10 6.12718e-05 -6.67947e-07
1.19934e-06 -6.67947e-07 -3.19527e-05
0.000696307 -1.68561e-05 4.71536e-07
-1.68561e-05 5.97096e-05 -8.9912e-07
4.71536e-07 -8.9912e-07 -3.25181e-05
0.00059637 -1.04445e-05 -2.8582e-07
-1.04445e-05 -6.38765e-06 1.26653e-06
-2.8582e-07 1.26653e-06 -8.79626e-05
0.00140582 -0.000131326 1.32322e-05
-0.000131326 -0.000226958 -1.65131e-06
1.32322e-05 -1.65131e-06 -0.000227413
0.00179825 -0.000303113 1.3151e-05
-0.000303113 -4.7528e-05 -2.50634e-06
1.3151e-05 -2.50634e-06 -6.78327e-05
0.000165834 -0.000281887 1.10331e-05
-0.000281887 -0.000695248 2.86816e-06
1.10331e-05 2.86816e-06 -0.00081647
0.00138734 -0.00032835 2.74505e-06
-0.00032835 0.000291353 -1.09429e-06
2.74505e-06 -1.09429e-06 6.46041e-05
0.00146151 -0.000135517 -2.5595e-08
-0.000135517 0.000584499 1.90794e-06
-2.5595e-08 1.90794e-06 0.000330904
0.00108545 -0.000107486 -9.24058e-07
-0.000107486 0.00031556 9.08044e-07
-9.24058e-07 9.08044e-07 0.00015888
0.000919208 -4.91713e-05 -1.01011e-06
-4.91713e-05 0.000187369 1.02061e-06
-1.01011e-06 1.02061e-06 7.96307e-05
0.000731433 3.73748e-05 -1.16921e-06
3.73748e-05 9.30796e-05 2.2378e-06
-1.16921e-06 2.2378e-06 -1.76966e-05
0.00159245 -0.000164748 -2.11435e-06
-0.000164748 -1.67434e-05 -4.09868e-07
-2.11435e-06 -4.09868e-07 -5.52826e-05
0.000637716 -4.14388e-05 -1.81395e-07
-4.14388e-05 3.82582e-05 3.28289e-08
-1.81395e-07 3.28289e-08 -8.41281e-05
0.000624107 -5.65974e-05 7.37046e-07
-5.65974e-05 4.63344e-05 -1.09229e-06
7.37046e-07 -1.09229e-06 -8.62895e-05
0.00193148 -0.000361218 5.05885e-06
-0.000361218 9.85053e-05 -1.14812e-06
5.05885e-06 -1.14812e-06 0.000111721
0.000625915 -0.000342095 1.45347e-06
-0.000342095 -0.000297525 2.18351e-06
1.45347e-06 2.18351e-06 -0.000441443
0.000976307 -0.000247599 5.59324e-06
-0.000247599 0.000166115 -2.31479e-06
5.59324e-06 -2.31479e-06 -6.89285e-05
0.00122464 -7.72748e-05 -4.25077e-07
-7.72748e-05 0.000441226 -1.87575e-06
-4.25077e-07 -1.87575e-06 0.000227901
0.000302584 -0.000206806 -8.4964e-06
-0.000206806 -0.000397771 -1.08635e-06
-8.4964e-06 -1.08635e-06 -0.000627892
0.00150309 -0.000304363 -2.40052e-05
-0.000304363 0.000202695 7.24471e-06
-2.40052e-05 7.24471e-06 0.000155013
0.000111728 -0.000111393 -1.62644e-05
-0.000111393 -0.000162033 2.96151e-05
-1.62644e-05 2.96151e-05 -0.000399352
0.000579891 3.20723e-05 4.00676e-07
3.20723e-05 2.38086e-06 1.20345e-06
4.00676e-07 1.20345e-06 -0.000116754
0.000590441 -9.59469e-05 2.00402e-06
-9.59469e-05 2.25273e-05 -1.14061e-06
2.00402e-06 -1.14061e-06 -0.000110507
0.000773871 -5.35893e-05 1.52168e-06
-5.35893e-05 0.000147862 -4.88083e-06
1.52168e-06 -4.88083e-06 -1.28929e-05
0.000887406 8.34904e-05 -0.000117372
8.34904e-05 0.00247057 1.06904e-06
-0.000117372 1.06904e-06 0.00158567
0.00210877 -0.000204698 1.66719e-05
-0.000204698 0.00142652 1.26307e-05
1.66719e-05 1.26307e-05 0.00129892
7.2098e-05 0.000430831 -5.57308e-05
0.000430831 -0.00252768 2.23071e-05
-5.57308e-05 2.23071e-05 -0.00310399
0.000816144 0.000128875 4.5427e-06
0.000128875 0.000162561 1.8884e-06
4.5427e-06 1.8884e-06 4.13584e-05
0.000569199 0.000166236 6.63121e-06
0.000166236 2.62525e-05 4.43264e-06
6.63121e-06 4.43264e-06 -0.000169832
0.00231167 0.000302715 1.42818e-05
0.000302715 0.000344638 8.78185e-06
1.42818e-05 8.78185e-06 0.000393296
0.00101688 0.000289928 1.28444e-05
0.000289928 6.12711e-05 8.90635e-06
1.28444e-05 8.90635e-06 -0.000194082
0.00534235 -0.000457781 4.45853e-05
-0.000457781 0.00217203 2.63531e-05
4.45853e-05 2.63531e-05 0.00229154
-1.85133e-05 -7.30487e-05 -8.08298e-05
-7.30487e-05 -0.00180597 -5.59667e-06
-8.08298e-05 -5.59667e-06 -0.00325376
0.00336328 0.000798791 -9.29063e-05
0.000798791 -0.000119038 -3.00098e-05
-9.29063e-05 -3.00098e-05 -0.000952912
0.000542455 0.000157321 2.5034e-05
0.000157321 -0.000180784 -1.71068e-05
2.5034e-05 -1.71068e-05 -0.000153402
-0.00421146 -0.000519369 -3.52807e-05
-0.000519369 -0.00155164 -5.49014e-05
-3.52807e-05 -5.49014e-05 -0.00170684
7.79708e-05 -0.000492288 -1.19739e-05
-0.000492288 0.000645201 1.69489e-05
-1.19739e-05 1.69489e-05 -0.000250882
0.0064372 -0.00102395 0.000119073
-0.00102395 0.000354065 0.000100711
0.000119073 0.000100711 0.00192175
0.000737955 9.33826e-05 4.27689e-06
9.33826e-05 0.000147762 -2.44259e-06
4.27689e-06 -2.44259e-06 3.66744e-05
-0.000936843 -6.35839e-05 -5.15197e-05
-6.35839e-05 0.001123 -1.6535e-05
-5.15197e-05 -1.6535e-05 -3.50602e-05
0.00259702 0.000123332 -6.52267e-06
0.000123332 0.000909097 -3.64666e-05
-6.52267e-06 -3.64666e-05 -0.000611171
0.000861693 0.000261632 -8.4707e-06
0.000261632 -3.08865e-05 3.57962e-06
-8.4707e-06 3.57962e-06 -9.07536e-05
0.000654135 0.000198339 5.32276e-07
0.000198339 0.000148697 1.62809e-06
5.32276e-07 1.62809e-06 -6.70132e-05
0.000182995 0.000196519 3.63012e-05
0.000196519 -0.000178462 -2.63812e-05
3.63012e-05 -2.63812e-05 -0.000365758
0.00525131 0.000995975 -1.06307e-05
0.000995975 0.00149455 1.02365e-06
-1.06307e-05 1.02365e-06 0.000721171
0.00970637 0.00015481 4.185e-05
0.00015481 0.00358006 1.51263e-05
4.185e-05 1.51263e-05 0.00186059
0.001867 -0.000687382 9.12967e-06
-0.000687382 -0.00113462 -1.76824e-05
9.12967e-06 -1.76824e-05 -0.00103914
0.00717842 -0.000648198 6.99073e-06
-0.000648198 0.000815582 -1.91635e-05
6.99073e-06 -1.91635e-05 0.00212282
0.000612528 0.000129482 -1.12197e-05
0.000129482 0.00011643 -7.61121e-06
-1.12197e-05 -7.61121e-06 2.51198e-05
0.00203707 -1.16499e-05 -8.07181e-05
-1.16499e-05 0.000530962 -3.74676e-05
-8.07181e-05 -3.74676e-05 -0.000498659
0.000793001 6.22726e-05 -1.03647e-05
6.22726e-05 0.00028537 -7.28106e-05
-1.03647e-05 -7.28106e-05 -0.000858916
-0.000981429 2.37854e-05 -2.15437e-05
2.37854e-05 -0.000505714 -1.6379e-05
-2.15437e-05 -1.6379e-05 -0.000644584
0.00242049 0.000365801 -4.32802e-06
0.000365801 0.000690583 5.17041e-05
-4.32802e-06 5.17041e-05 8.76826e-05
0.00943533 0.000419826 3.45705e-05
0.000419826 0.00387874 -1.49951e-07
3.45705e-05 -1.49951e-07 0.00149897
-0.00687204 -0.00092985 -3.9149e-05
-0.00092985 -0.00417102 5.70071e-05
-3.9149e-05 5.70071e-05 -0.00549656
0.00538411 0.000234484 1.11299e-06
0.000234484 -0.000752764 -0.000102787
1.11299e-06 -0.000102787 0.000724353
0.00101061 8.13447e-05 1.77185e-06
8.13447e-05 0.000219153 6.6181e-06
1.77185e-06 6.6181e-06 0.000144136
0.000926628 9.89624e-05 -4.47368e-06
9.89624e-05 0.000189955 -9.84681e-07
-4.47368e-06 -9.84681e-07 0.000126619
0.00172883 9.6584e-05 -7.0341e-06
9.6584e-05 0.000714263 -4.53826e-06
-7.0341e-06 -4.53826e-06 0.000654281
0.0008391 7.40284e-05 -1.69824e-06
7.40284e-05 0.000121782 -5.22408e-07
-1.69824e-06 -5.22408e-07 2.63154e-05
0.000886456 -3.58139e-05 -3.26354e-07
-3.58139e-05 0.000149986 8.96863e-07
-3.26354e-07 8.96863e-07 4.42031e-05
0.00077582 2.37579e-05 2.15357e-07
2.37579e-05 7.20462e-05 1.02977e-06
2.15357e-07 1.02977e-06 -1.75412e-05
0.000281204 1.89501e-05 5.166e-08
1.89501e-05 -0.000186998 2.92645e-06
5.166e-08 2.92645e-06 -0.000272405
0.000886007 -4.72702e-07 7.43057e-07
-4.72702e-07 0.00014326 8.91708e-08
7.43057e-07 8.91708e-08 4.04977e-05
0.000883175 6.86346e-06 -8.57765e-08
6.86346e-06 0.00014495 -3.47731e-07
-8.57765e-08 -3.47731e-07 4.63015e-05
0.000408683 6.1311e-06 2.71721e-07
6.1311e-06 -5.16965e-05 6.1859e-07
2.71721e-07 6.1859e-07 -0.000136517
-1.97558e-05 2.19618e-05 -4.07817e-06
2.19618e-05 -0.000172505 -4.82538e-06
-4.07817e-06 -4.82538e-06 -0.000242579
0.000922866 -2.26157e-05 1.65461e-06
-2.26157e-05 0.000234005 -5.27276e-06
1.65461e-06 -5.27276e-06 0.000143752
0.000989225 3.63687e-05 -1.75003e-07
3.63687e-05 0.000208937 -3.42538e-06
-1.75003e-07 -3.42538e-06 0.000105398
0.000866137 -7.2366e-05 9.2204e-07
-7.2366e-05 0.000128826 9.29157e-07
9.2204e-07 9.29157e-07 3.4068e-05
0.000773129 3.82993e-05 -7.32879e-07
3.82993e-05 8.50151e-05 3.38742e-07
-7.32879e-07 3.38742e-07 -3.90003e-06
0.000797284 -2.30224e-05 -1.63874e-06
-2.30224e-05 8.37064e-05 2.07009e-06
-1.63874e-06 2.07009e-06 2.66374e-06
0.000646019 -3.58777e-06 6.3338e-07
-3.58777e-06 4.14716e-06 6.15105e-07
6.3338e-07 6.15105e-07 -8.42752e-05
0.000747889 3.99928e-05 3.0479e-07
3.99928e-05 7.68887e-05 2.58856e-07
3.0479e-07 2.58856e-07 -1.26184e-05
0.000782016 1.31552e-05 -5.8424e-07
1.31552e-05 8.21446e-05 2.12005e-07
-5.8424e-07 2.12005e-07 2.16085e-06
0.000931292 2.39488e-05 1.19325e-06
2.39488e-05 0.000165712 -1.72884e-06
1.19325e-06 -1.72884e-06 8.1254e-05
0.000495095 -9.04916e-06 2.8837e-06
-9.04916e-06 -5.89894e-05 -3.67084e-06
2.8837e-06 -3.67084e-06 -0.000128587
0.000584002 -7.89232e-05 1.42824e-06
-7.89232e-05 -5.9781e-05 -7.23685e-07
1.42824e-06 -7.23685e-07 -0.000151683
0.000920348 -1.03237e-05 -1.41399e-06
-1.03237e-05 0.000160241 -2.83901e-07
-1.41399e-06 -2.83901e-07 6.46125e-05
0.000472366 -5.42912e-05 2.60025e-06
-5.42912e-05 -5.59257e-05 1.43933e-06
2.60025e-06 1.43933e-06 -0.000181237
0.00102896 -0.000179756 -7.21168e-08
-0.000179756 0.000229542 4.27687e-06
-7.21168e-08 4.27687e-06 4.70422e-05
0.00119907 -6.64179e-05 1.3707e-06
-6.64179e-05 0.000350616 -1.34228e-06
1.3707e-06 -1.34228e-06 0.00023556
0.000432528 -5.31926e-05 -1.15097e-06
-5.31926e-05 -5.96128e-05 -2.99039e-06
-1.15097e-06 -2.99039e-06 -0.000192573
0.000673639 2.57064e-05 -4.98049e-07
2.57064e-05 4.86215e-05 -6.0935e-07
-4.98049e-07 -6.0935e-07 -4.88576e-05
0.000443602 2.25883e-05 7.03926e-07
2.25883e-05 -9.19328e-05 5.77258e-07
7.03926e-07 5.77258e-07 -0.000178577
0.000830825 1.93786e-05 -2.79309e-07
1.93786e-05 0.000126905 3.29811e-07
-2.79309e-07 3.29811e-07 3.4582e-05
0.000766503 -7.52582e-06 -5.63859e-07
-7.52582e-06 8.79371e-05 4.358e-07
-5.63859e-07 4.358e-07 3.49591e-06
0.000687843 1.13142e-05 -7.80936e-07
1.13142e-05 2.71896e-05 6.05674e-07
-7.80936e-07 6.05674e-07 -3.84471e-05
0.000811606 -2.89276e-05 4.22457e-07
-2.89276e-05 0.000121969 2.96744e-08
4.22457e-07 2.96744e-08 3.07629e-05
0.00072749 -2.53515e-05 -4.13955e-07
-2.53515e-05 5.24057e-05 4.76431e-08
-4.13955e-07 4.76431e-08 -1.61109e-05
0.000670335 3.47838e-05 -1.34199e-06
3.47838e-05 2.44769e-06 1.70547e-06
-1.34199e-06 1.70547e-06 -4.31561e-05
0.000763519 -5.32109e-05 1.31085e-06
-5.32109e-05 7.4304e-05 -5.62224e-07
1.31085e-06 -5.62224e-07 3.27085e-06
0.000695246 1.26704e-05 -2.81871e-07
1.26704e-05 1.39237e-05 -1.28324e-09
-2.81871e-07 -1.28324e-09 -3.04491e-05
0.00135818 3.45494e-05 -6.94427e-06
3.45494e-05 0.000386244 4.9858e-06
-6.94427e-06 4.9858e-06 0.000376918
0.000687328 -7.24314e-06 1.43543e-06
-7.24314e-06 1.07277e-05 -1.67579e-06
1.43543e-06 -1.67579e-06 -3.37404e-05
0.000998703 2.40506e-05 -3.31495e-06
2.40506e-05 0.000176169 6.97039e-07
-3.31495e-06 6.97039e-07 0.000165612
0.000822133 2.14426e-05 -8.8989e-07
2.14426e-05 7.77716e-05 1.86963e-06
-8.8989e-07 1.86963e-06 8.67076e-05
0.000619448 1.4009e-05 4.24758e-07
1.4009e-05 -4.50305e-05 -3.62806e-06
4.24758e-07 -3.62806e-06 -5.68724e-05
0.00155632 2.01523e-05 5.22142e-06
2.01523e-05 0.000497043 -1.4422e-06
5.22142e-06 -1.4422e-06 0.000510468
0.00229218 1.36642e-05 4.45157e-06
1.36642e-05 0.000919994 -4.92304e-06
4.45157e-06 -4.92304e-06 0.000937453
0.000777834 -7.12168e-06 7.10883e-07
-7.12168e-06 8.44291e-05 -1.29052e-06
7.10883e-07 -1.29052e-06 1.49904e-05
0.00071107 1.00515e-05 -4.42682e-07
1.00515e-05 2.56151e-05 -2.09692e-06
-4.42682e-07 -2.09692e-06 -1.26114e-05
0.000769599 -1.75387e-06 6.69448e-07
-1.75387e-06 8.55449e-05 1.49798e-07
6.69448e-07 1.49798e-07 1.72869e-05
0.000649026 -5.07811e-06 -2.32104e-07
-5.07811e-06 -3.18846e-05 -3.6194e-06
-2.32104e-07 -3.6194e-06 -3.80018e-05
0.000683188 9.46172e-06 3.19559e-08
9.46172e-06 1.08147e-05 -2.43527e-08
3.19559e-08 -2.43527e-08 -2.57295e-05
0.000694635 -6.47605e-05 -2.57943e-06
-6.47605e-05 4.39608e-05 1.97169e-06
-2.57943e-06 1.97169e-06 -2.22569e-05
0.00207824 -4.32758e-07 -6.3469e-07
-4.32758e-07 0.000795834 -4.76244e-06
-6.3469e-07 -4.76244e-06 0.000815908
0.000649547 1.30601e-06 -1.40415e-07
1.30601e-06 -3.149e-05 -3.84605e-09
-1.40415e-07 -3.84605e-09 -3.71799e-05
0.000666151 -1.00671e-05 -6.54648e-07
-1.00671e-05 1.1231e-06 1.93769e-06
-6.54648e-07 1.93769e-06 -3.42495e-05
0.00064467 7.50783e-06 -9.50842e-08
7.50783e-06 -3.36048e-05 3.52076e-06
-9.50842e-08 3.52076e-06 -3.95118e-05
0.00208472 1.19293e-05 -3.19361e-06
1.19293e-05 0.000800757 -3.42738e-08
-3.19361e-06 -3.42738e-08 0.000820513
0.00208678 2.24838e-05 -1.08316e-05
2.24838e-05 0.000804356 4.49451e-06
-1.08316e-05 4.49451e-06 0.00082352
-0.00269214 -8.76906e-05 -4.16163e-05
-8.76906e-05 0.000476939 1.09958e-05
-4.16163e-05 1.09958e-05 -0.000742934
-0.00112638 0.000327057 -3.24019e-05
0.000327057 -0.00050659 8.4876e-06
-3.24019e-05 8.4876e-06 -0.000810113
0.00275634 -0.000125219 -0.000131633
-0.000125219 0.000628636 0.000110431
-0.000131633 0.000110431 -0.000734631
-0.00253662 0.000197535 0.000171999
0.000197535 0.000579137 -7.55806e-05
0.000171999 -7.55806e-05 -5.64422e-05
0.00204117 0.000152349 -9.20897e-05
0.000152349 -0.000163274 1.48734e-05
-9.20897e-05 1.48734e-05 -0.000378722
0.00204108 -9.79742e-05 8.13313e-05
-9.79742e-05 3.65788e-05 -9.55018e-06
8.13313e-05 -9.55018e-06 -2.02183e-06
0.00187947 -0.000406306 -9.31596e-05
-0.000406306 -0.00111291 -4.39115e-05
-9.31596e-05 -4.39115e-05 -0.00207572
0.00769036 0.000633674 -2.4651e-05
0.000633674 0.00377155 -1.2329e-05
-2.4651e-05 -1.2329e-05 0.00353911
-0.00657231 0.00123491 -0.000247238
0.00123491 -0.00375218 0.000213049
-0.000247238 0.000213049 -0.00169506
0.0022953 -4.06696e-05 -7.97354e-06
-4.06696e-05 -0.000110939 -5.97428e-06
-7.97354e-06 -5.97428e-06 -0.00035292
0.00395452 -0.000109728 2.60127e-05
-0.000109728 0.000315943 -3.71481e-05
2.60127e-05 -3.71481e-05 -0.00158913
0.00777916 0.00121074 -3.74785e-05
0.00121074 0.00252889 -4.44274e-05
-3.74785e-05 -4.44274e-05 0.00321516
0.0019149 0.000777845 -3.95782e-05
0.000777845 -0.00153662 8.53404e-05
-3.95782e-05 8.53404e-05 -0.000659543
0.00270763 -0.000474855 -5.35622e-05
-0.000474855 -0.000124947 1.63381e-05
-5.35622e-05 1.63381e-05 -0.000579027
0.00300544 -0.000388413 0.00014392
-0.000388413 0.000710177 -9.79556e-05
0.00014392 -9.79556e-05 -0.00189388
-0.0054293 0.000464388 -4.48337e-05
0.000464388 -0.00455464 -0.000169592
-4.48337e-05 -0.000169592 -0.00432357
0.00168874 0.000479057 -3.01177e-05
0.000479057 -0.00293513 2.7472e-06
-3.01177e-05 2.7472e-06 -0.00161522
0.000813659 -1.34861e-05 7.80285e-07
-1.34861e-05 0.000136953 9.59595e-08
7.80285e-07 9.59595e-08 1.90568e-05
0.000770203 5.63768e-05 -1.71929e-06
5.63768e-05 0.000109598 -7.31142e-07
-1.71929e-06 -7.31142e-07 2.26843e-06
0.000735218 4.4381e-05 3.00857e-07
4.4381e-05 7.35303e-05 -1.15099e-07
3.00857e-07 -1.15099e-07 -5.70681e-06
0.000702358 7.03548e-05 2.59137e-06
7.03548e-05 7.57573e-05 2.48868e-06
2.59137e-06 2.48868e-06 -2.6127e-05
0.000731456 3.29193e-05 -2.66323e-07
3.29193e-05 8.11352e-05 -1.60143e-07
-2.66323e-07 -1.60143e-07 -3.77495e-05
0.000882175 6.89529e-05 2.18658e-07
6.89529e-05 0.000169068 8.70069e-07
2.18658e-07 8.70069e-07 6.07128e-05
0.000716635 1.76551e-05 -3.73955e-07
1.76551e-05 6.92039e-05 2.25841e-06
-3.73955e-07 2.25841e-06 -2.931e-05
0.00089933 9.96382e-05 -3.16456e-07
9.96382e-05 0.000181976 -2.63731e-07
-3.16456e-07 -2.63731e-07 7.27925e-05
0.000855709 5.49067e-05 -1.51598e-07
5.49067e-05 0.000155726 4.95613e-07
-1.51598e-07 4.95613e-07 5.28406e-05
0.00062791 -7.32e-06 -1.49136e-06
-7.32e-06 2.31625e-05 3.08505e-07
-1.49136e-06 3.08505e-07 -7.23014e-05
0.00129532 -0.000167248 2.64992e-05
-0.000167248 -0.000165165 -1.25182e-05
2.64992e-05 -1.25182e-05 -0.00018002
0.000848018 -0.000312651 2.08784e-05
-0.000312651 -0.000453072 -2.89948e-06
2.08784e-05 -2.89948e-06 -0.000449433
0.000908735 -0.000359024 1.35079e-05
-0.000359024 -0.000130152 -1.04673e-06
1.35079e-05 -1.04673e-06 -0.000268144
0.00117624 -0.00027159 8.41076e-06
-0.00027159 0.000266095 -1.24377e-05
8.41076e-06 -1.24377e-05 1.54483e-05
0.00136434 -9.31124e-05 -5.54625e-07
-9.31124e-05 0.000505662 5.65992e-06
-5.54625e-07 5.65992e-06 0.000296313
0.000700025 -7.54717e-05 -1.11957e-06
-7.54717e-05 9.67239e-05 4.06717e-06
-1.11957e-06 4.06717e-06 -4.34514e-05
0.000634569 6.30594e-05 -1.1634e-07
6.30594e-05 3.88396e-05 -2.55786e-07
-1.1634e-07 -2.55786e-07 -8.64758e-05
0.000721736 -4.52749e-05 -3.38897e-07
-4.52749e-05 8.767e-05 1.14389e-06
-3.38897e-07 1.14389e-06 -3.7062e-05
0.0011815 -0.000212862 -1.94071e-06
-0.000212862 3.81631e-05 -2.83475e-07
-1.94071e-06 -2.83475e-07 -0.000117048
0.000851614 -6.32943e-06 -8.21538e-08
-6.32943e-06 0.000170737 -7.11474e-08
-8.21538e-08 -7.11474e-08 3.51719e-05
0.00111879 -8.08567e-05 -1.38792e-07
-8.08567e-05 0.000350696 2.04451e-08
-1.38792e-07 2.04451e-08 0.000179783
0.00112292 -0.000283985 -1.96678e-06
-0.000283985 -2.51181e-05 -1.10842e-06
-1.96678e-06 -1.10842e-06 -5.21941e-05
0.00100695 -0.000145623 -9.31252e-06
-0.000145623 0.000291525 3.60416e-06
-9.31252e-06 3.60416e-06 6.88805e-05
-0.00075558 -0.000253797 -9.93289e-06
-0.000253797 -0.00102691 -1.41645e-05
-9.93289e-06 -1.41645e-05 -0.0010161
0.00068593 -0.000134108 -1.75359e-05
-0.000134108 0.000136624 2.13879e-05
-1.75359e-05 2.13879e-05 3.86646e-05
0.000654951 -3.28132e-05 -5.92347e-06
-3.28132e-05 9.44582e-05 2.41552e-05
-5.92347e-06 2.41552e-05 -5.7699e-05
0.000723587 -4.58631e-06 3.57926e-07
-4.58631e-06 7.68615e-05 1.36477e-07
3.57926e-07 1.36477e-07 -4.67465e-05
0.000667962 2.2525e-05 1.2992e-06
2.2525e-05 9.68422e-05 -1.96905e-06
1.2992e-06 -1.96905e-06 -6.96231e-05
0.00152581 -2.28402e-05 -2.85862e-05
-2.28402e-05 0.000476689 -3.12539e-06
-2.85862e-05 -3.12539e-06 -0.000365085
-0.00124074 2.78476e-05 -7.50284e-05
2.78476e-05 0.00152213 -2.99804e-06
-7.50284e-05 -2.99804e-06 0.000376044
-0.00791475 -0.000249543 -0.000209112
-0.000249543 -0.00404322 4.87148e-06
-0.000209112 4.87148e-06 -0.00399914
6.7952e-05 7.79268e-05 6.86794e-06
7.79268e-05 -0.000208225 -4.90778e-07
6.86794e-06 -4.90778e-07 -0.000329651
-0.000165557 7.49468e-05 5.69569e-06
7.49468e-05 -0.000272283 2.48218e-06
5.69569e-06 2.48218e-06 -0.000489055
0.00140646 0.000231973 1.45362e-05
0.000231973 0.000269506 3.09593e-06
1.45362e-05 3.09593e-06 0.000201568
-0.0026835 0.000117708 -4.50155e-06
0.000117708 0.000345438 8.74752e-06
-4.50155e-06 8.74752e-06 -0.000977236
0.00218627 0.00022277 -5.46311e-05
0.00022277 0.000395219 -4.79167e-05
-5.46311e-05 -4.79167e-05 -0.00223471
0.00371377 0.000838785 7.48204e-05
0.000838785 0.000522341 7.43342e-06
7.48204e-05 7.43342e-06 -5.07462e-05
0.000715611 0.000238775 6.38079e-06
0.000238775 5.6742e-05 -1.12012e-05
6.38079e-06 -1.12012e-05 1.70765e-05
0.0100325 -0.000901387 1.91902e-05
-0.000901387 0.00309832 -4.3773e-05
1.91902e-05 -4.3773e-05 0.00315531
0.00298808 0.000132011 8.63505e-05
0.000132011 0.00119752 6.48283e-05
8.63505e-05 6.48283e-05 -0.000375525
0.007013 -0.000568899 2.73846e-05
-0.000568899 0.00101265 8.11353e-06
2.73846e-05 8.11353e-06 0.00237811
0.000924514 0.000149617 -6.53189e-07
0.000149617 0.000318386 -2.47939e-06
-6.53189e-07 -2.47939e-06 0.000220192
0.00220114 -8.25407e-06 5.60229e-06
-8.25407e-06 0.000752443 -8.33224e-06
5.60229e-06 -8.33224e-06 -0.000168353
0.00113498 8.28777e-05 6.52678e-06
8.28777e-05 0.000267909 1.37249e-05
6.52678e-06 1.37249e-05 -0.000923138
-1.23862e-05 0.00014118 -7.07622e-06
0.00014118 -3.39431e-05 -8.18355e-07
-7.07622e-06 -8.18355e-07 -0.000199803
0.00278513 0.000491089 -5.53498e-05
0.000491089 0.000708324 -3.51227e-05
-5.53498e-05 -3.51227e-05 0.000151319
0.00231894 0.00086047 5.09119e-05
0.00086047 0.000458343 3.65476e-05
5.09119e-05 3.65476e-05 -0.00224186
0.0043479 8.14364e-05 -5.58565e-06
8.14364e-05 -0.00192899 -6.8173e-05
-5.58565e-06 -6.8173e-05 -1.1819e-05
0.000913237 -0.000524797 -1.89276e-05
-0.000524797 -0.000270579 -1.11055e-05
-1.89276e-05 -1.11055e-05 -0.00109859
0.00117742 9.14819e-05 -3.65312e-06
9.14819e-05 0.000589159 -7.65054e-06
-3.65312e-06 -7.65054e-06 0.000493773
0.000879502 -4.38702e-05 -7.51745e-07
-4.38702e-05 0.000133675 -2.96451e-05
-7.51745e-07 -2.96451e-05 -0.000228182
0.00219387 -5.64316e-07 1.41026e-05
-5.64316e-07 0.000247638 -6.21834e-05
1.41026e-05 -6.21834e-05 -0.000672122
0.00185702 0.000501695 3.24662e-05
0.000501695 -0.00285655 -4.67023e-06
3.24662e-05 -4.67023e-06 -0.00161826
-0.00103384 4.19672e-05 -4.94124e-06
4.19672e-05 -0.000318996 -1.26674e-05
-4.94124e-06 -1.26674e-05 -0.000702809
0.0100382 0.000616771 0.000102573
0.000616771 0.00444975 4.33135e-05
0.000102573 4.33135e-05 0.00167558
-0.00814092 -0.000257698 5.13013e-05
-0.000257698 -0.00112721 8.66564e-05
5.13013e-05 8.66564e-05 -0.00240464
0.0016076 0.000155337 1.43324e-05
0.000155337 0.000582526 7.33357e-06
1.43324e-05 7.33357e-06 0.000512616
0.00140733 0.000112966 -3.00083e-06
0.000112966 0.000531166 9.32015e-07
-3.00083e-06 9.32015e-07 0.000464848
0.000626012 8.48633e-05 -1.38423e-05
8.48633e-05 0.000263982 -6.93084e-06
-1.38423e-05 -6.93084e-06 0.000192999
0.000792665 0.000112212 1.03223e-06
0.000112212 9.88437e-05 1.67338e-06
1.03223e-06 1.67338e-06 -8.00197e-06
0.000753661 3.40328e-05 3.85848e-07
3.40328e-05 6.76649e-05 1.58004e-06
3.85848e-07 1.58004e-06 -2.69539e-05
0.000622105 -4.55451e-06 -3.3478e-07
-4.55451e-06 7.27368e-05 9.43325e-06
-3.3478e-07 9.43325e-06 -1.41244e-05
0.000758907 3.35505e-05 -1.93188e-07
3.35505e-05 7.36753e-05 -5.87528e-07
-1.93188e-07 -5.87528e-07 -2.33959e-05
0.000839763 -3.36117e-05 -1.73457e-07
-3.36117e-05 0.000189792 -1.16413e-06
-1.73457e-07 -1.16413e-06 9.62391e-05
0.000212611 -9.59654e-07 5.85473e-06
-9.59654e-07 -5.82414e-05 3.77608e-06
5.85473e-06 3.77608e-06 -0.000138228
0.00122245 -8.67617e-06 -5.55948e-06
-8.67617e-06 0.000527596 -9.886e-06
-5.55948e-06 -9.886e-06 0.000461674
0.0006832 -2.48002e-05 -1.30914e-06
-2.48002e-05 8.36346e-05 -5.80164e-06
-1.30914e-06 -5.80164e-06 3.11983e-06
0.000705419 -1.09326e-05 -5.28228e-07
-1.09326e-05 2.99161e-05 2.99603e-06
-5.28228e-07 2.99603e-06 -5.31005e-05
0.000793753 4.06357e-05 -3.78694e-07
4.06357e-05 0.000104184 3.47124e-07
-3.78694e-07 3.47124e-07 1.35781e-05
0.000921305 2.40585e-05 -3.55321e-06
2.40585e-05 0.000159515 2.91093e-06
-3.55321e-06 2.91093e-06 7.90624e-05
0.000751339 -8.53412e-06 9.348e-07
-8.53412e-06 8.00393e-05 3.24355e-08
9.348e-07 3.24355e-08 9.82935e-06
0.000808011 2.81434e-05 2.12831e-07
2.81434e-05 9.78207e-05 1.28543e-07
2.12831e-07 1.28543e-07 1.26638e-05
0.000691011 -5.26835e-05 2.36238e-06
-5.26835e-05 6.20931e-05 -1.20421e-09
2.36238e-06 -1.20421e-09 -2.29848e-05
0.000597047 -5.80703e-05 -1.28528e-06
-5.80703e-05 -3.03072e-05 -7.97228e-07
-1.28528e-06 -7.97228e-07 -0.000113354
0.000440567 -0.000113434 4.81518e-06
-0.000113434 -9.11955e-05 3.34702e-07
4.81518e-06 3.34702e-07 -0.000242986
0.00102423 -3.28159e-05 -1.14217e-06
-3.28159e-05 0.000222476 6.42283e-07
-1.14217e-06 6.42283e-07 0.00012424
0.00102544 -0.000100776 -8.26858e-07
-0.000100776 0.000244824 1.71709e-06
-8.26858e-07 1.71709e-06 0.00011275
0.00027129 -0.000135705 5.69471e-07
-0.000135705 -0.000222172 2.22133e-06
5.69471e-07 2.22133e-06 -0.000398879
0.000624226 -0.000150671 -5.03269e-06
-0.000150671 -2.2469e-05 -7.83522e-07
-5.03269e-06 -7.83522e-07 -0.000203237
0.000952516 -0.000135559 -1.37173e-06
-0.000135559 0.000227596 2.24868e-06
-1.37173e-06 2.24868e-06 8.40829e-05
0.000677846 -0.000148131 5.84541e-07
-0.000148131 3.38177e-05 3.72707e-07
5.84541e-07 3.72707e-07 -0.000141415
0.000861604 -3.05745e-05 4.64935e-07
-3.05745e-05 0.000147949 6.25172e-07
4.64935e-07 6.25172e-07 4.96061e-05
0.00100812 -5.82849e-05 -1.03215e-06
-5.82849e-05 0.000249315 -7.05887e-07
-1.03215e-06 -7.05887e-07 0.000130739
0.000570317 -6.67188e-05 5.84237e-07
-6.67188e-05 2.9399e-05 -5.73823e-06
5.84237e-07 -5.73823e-06 -0.000100891
0.000994046 1.68154e-05 -1.38896e-06
1.68154e-05 0.000223053 -8.76745e-07
-1.38896e-06 -8.76745e-07 0.000128079
0.000593108 1.44371e-05 1.82257e-07
1.44371e-05 -6.14051e-06 -2.70618e-08
1.82257e-07 -2.70618e-08 -9.34737e-05
0.000684985 2.50825e-05 -2.94006e-07
2.50825e-05 2.96235e-05 6.50688e-07
-2.94006e-07 6.50688e-07 -3.97178e-05
0.000814388 -2.53507e-05 -1.19844e-07
-2.53507e-05 0.000121192 2.20614e-07
-1.19844e-07 2.20614e-07 3.15854e-05
0.000726525 -1.01765e-05 -4.67561e-07
-1.01765e-05 5.31063e-05 -1.4283e-08
-4.67561e-07 -1.4283e-08 -1.58966e-05
0.000674769 3.38224e-05 -1.1825e-06
3.38224e-05 8.23575e-06 1.70594e-06
-1.1825e-06 1.70594e-06 -3.85034e-05
0.000762896 -4.40937e-05 1.02498e-06
-4.40937e-05 7.61975e-05 -6.2665e-07
1.02498e-06 -6.2665e-07 4.62334e-06
0.000687416 2.55267e-05 -4.59912e-07
2.55267e-05 1.12003e-05 -1.52427e-08
-4.59912e-07 -1.52427e-08 -3.40953e-05
0.00132912 4.41956e-05 -7.9842e-06
4.41956e-05 0.000374384 3.40932e-06
-7.9842e-06 3.40932e-06 0.000364168
0.000702302 -4.72214e-07 1.73164e-06
-4.72214e-07 1.72324e-05 -1.70307e-06
1.73164e-06 -1.70307e-06 -2.68905e-05
0.000987648 3.22044e-05 -4.14108e-06
3.22044e-05 0.000172871 6.36675e-07
-4.14108e-06 6.36675e-07 0.000161803
0.000820721 2.8767e-05 -1.41286e-06
2.8767e-05 8.21849e-05 1.8812e-06
-1.41286e-06 1.8812e-06 9.01069e-05
0.000608717 2.07493e-05 6.4289e-07
2.07493e-05 -4.9166e-05 -3.68513e-06
6.4289e-07 -3.68513e-06 -6.1365e-05
0.00155587 2.98965e-05 6.99173e-06
2.98965e-05 0.00050084 -1.34539e-06
6.99173e-06 -1.34539e-06 0.00051332
0.00230523 2.58771e-05 8.6191e-06
2.58771e-05 0.000930267 -4.77757e-06
8.6191e-06 -4.77757e-06 0.000946993
0.000508038 3.20826e-06 -8.25217e-08
3.20826e-06 -6.15966e-05 -2.00319e-06
-8.25217e-08 -2.00319e-06 -0.000144616
0.000422949 -4.69832e-06 -3.36047e-07
-4.69832e-06 -0.000139046 -2.96809e-06
-3.36047e-07 -2.96809e-06 -0.000182993
0.000805223 4.87529e-06 5.98083e-08
4.87529e-06 0.000104483 6.32285e-08
5.98083e-08 6.32285e-08 3.2003e-05
0.00064659 -1.15735e-05 -1.70968e-07
-1.15735e-05 -3.2437e-05 -3.72527e-06
-1.70968e-07 -3.72527e-06 -3.9953e-05
0.000542741 2.86092e-06 6.05957e-07
2.86092e-06 -7.00183e-05 -4.18859e-08
6.05957e-07 -4.18859e-08 -0.0001097
0.000502756 -6.12622e-05 -2.311e-07
-6.12622e-05 -6.41677e-05 1.51146e-06
-2.311e-07 1.51146e-06 -0.00013519
0.00210409 -1.17827e-05 -5.11743e-06
-1.17827e-05 0.000811229 -4.75987e-06
-5.11743e-06 -4.75987e-06 0.000830923
0.000651074 -4.92137e-06 -1.52751e-07
-4.92137e-06 -3.06899e-05 -1.50965e-08
-1.52751e-07 -1.50965e-08 -3.67795e-05
0.000666209 -4.03175e-06 -5.7173e-07
-4.03175e-06 9.58203e-07 1.9904e-06
-5.7173e-07 1.9904e-06 -3.53249e-05
0.00208524 6.62542e-07 -3.27474e-06
6.62542e-07 0.000799887 3.05095e-09
-3.27474e-06 3.05095e-09 0.000819937
0.000646837 1.39445e-06 8.80261e-08
1.39445e-06 -3.29847e-05 3.51897e-06
8.80261e-08 3.51897e-06 -3.86568e-05
0.00208873 1.30667e-05 -4.14753e-06
1.30667e-05 0.000803249 4.6532e-06
-4.14753e-06 4.6532e-06 0.000822928
0.000890646 -5.46296e-05 -6.83399e-05
-5.46296e-05 -9.13112e-05 3.01598e-05
-6.83399e-05 3.01598e-05 -0.00101048
0.00143248 0.000149767 -1.14557e-05
0.000149767 0.00220176 -8.90952e-06
-1.14557e-05 -8.90952e-06 0.00148246
0.00130235 -0.000248402 -0.000124241
-0.000248402 0.00142244 -9.12035e-06
-0.000124241 -9.12035e-06 0.000831625
0.000764246 5.41479e-05 -7.16881e-08
5.41479e-05 8.93522e-05 4.38443e-08
-7.16881e-08 4.38443e-08 -1.54993e-05
0.00303125 -0.000108992 -1.96015e-05
-0.000108992 0.00159357 7.30013e-05
-1.96015e-05 7.30013e-05 0.000722585
0.00289984 -0.000153305 -4.32343e-05
-0.000153305 0.000814667 3.72528e-06
-4.32343e-05 3.72528e-06 -0.000675216
0.00138669 0.000442699 0.000104151
0.000442699 0.00202871 -9.73049e-05
0.000104151 -9.73049e-05 0.00180035
0.00308776 -0.00014591 2.73926e-06
-0.00014591 4.164e-05 -2.54673e-05
2.73926e-06 -2.54673e-05 -0.000231596
0.00954696 6.19749e-05 6.22945e-05
6.19749e-05 0.00307469 -3.43278e-05
6.22945e-05 -3.43278e-05 0.00136212
-0.00346454 0.000796027 -6.47576e-05
0.000796027 -0.00349125 7.7339e-05
-6.47576e-05 7.7339e-05 -0.00262253
0.00383853 0.000857359 1.43291e-05
0.000857359 -0.00040971 1.8977e-05
1.43291e-05 1.8977e-05 0.000431752
0.00467026 -0.000576442 -7.48976e-05
-0.000576442 0.000541466 5.89397e-07
-7.48976e-05 5.89397e-07 -0.000171298
0.00845143 -0.000208845 4.52529e-05
-0.000208845 0.00339268 -1.35098e-05
4.52529e-05 -1.35098e-05 0.00143429
0.0053336 0.000641552 3.143e-05
0.000641552 0.000322614 -5.84634e-05
3.143e-05 -5.84634e-05 0.000384714
0.00387801 0.000485655 -1.33678e-05
0.000485655 -0.00163875 4.54649e-06
-1.33678e-05 4.54649e-06 -0.000421583
0.00483145 -0.000993599 -3.51584e-06
-0.000993599 0.000789541 -8.56038e-06
-3.51584e-06 -8.56038e-06 -0.000253183
0.00997933 -0.000648005 5.84302e-05
-0.000648005 0.00495543 -2.55419e-05
5.84302e-05 -2.55419e-05 0.00173915
0.00184292 -8.36734e-05 4.66547e-05
-8.36734e-05 -0.000413552 -8.91318e-05
4.66547e-05 -8.91318e-05 -0.000581105
0.00543112 9.64647e-05 -1.49434e-05
9.64647e-05 -0.000708155 4.66572e-05
-1.49434e-05 4.66572e-05 0.000848912
0.000789255 -2.46566e-05 1.58413e-07
-2.46566e-05 0.000117087 -7.33948e-07
1.58413e-07 -7.33948e-07 -7.99608e-06
0.000787882 -3.71817e-05 4.31916e-07
-3.71817e-05 0.000125382 3.06908e-08
4.31916e-07 3.06908e-08 4.07285e-06
0.0009075 8.24856e-05 -9.19179e-07
8.24856e-05 0.000191857 1.2973e-07
-9.19179e-07 1.2973e-07 8.25619e-05
0.000740694 1.66974e-05 -6.85167e-07
1.66974e-05 6.44705e-05 -7.24255e-07
-6.85167e-07 -7.24255e-07 -4.0014e-05
0.000852079 7.17135e-05 -6.79087e-07
7.17135e-05 0.000150667 6.21945e-07
-6.79087e-07 6.21945e-07 3.24902e-05
0.000881601 5.38447e-05 5.6066e-07
5.38447e-05 0.000168054 1.9543e-06
5.6066e-07 1.9543e-06 6.1576e-05
0.000963789 9.4049e-05 -7.12357e-07
9.4049e-05 0.000216148 2.17243e-08
-7.12357e-07 2.17243e-08 0.000108401
0.000998063 0.000101306 9.16743e-07
0.000101306 0.000243397 2.22139e-06
9.16743e-07 2.22139e-06 0.000136405
0.00189841 -0.000214308 4.26295e-05
-0.000214308 0.000380336 -1.607e-05
4.26295e-05 -1.607e-05 0.000305345
0.000753923 -0.000263551 9.35511e-06
-0.000263551 -0.000248594 -1.29273e-05
9.35511e-06 -1.29273e-05 -0.000250675
0.000788727 -0.000137953 -1.07449e-06
-0.000137953 0.00013709 5.61252e-07
-1.07449e-06 5.61252e-07 4.03694e-06
0.00198231 -0.000172258 5.77872e-06
-0.000172258 0.000791292 -1.87097e-05
5.77872e-06 -1.87097e-05 0.000584763
0.00161637 -0.000106059 -1.94277e-06
-0.000106059 0.000629778 5.03426e-06
-1.94277e-06 5.03426e-06 0.000454257
0.000916066 -4.39314e-05 -1.74136e-06
-4.39314e-05 0.000200601 -4.40524e-07
-1.74136e-06 -4.40524e-07 6.98325e-05
0.000815348 1.1509e-05 8.00354e-08
1.1509e-05 0.000137392 -2.56619e-07
8.00354e-08 -2.56619e-07 8.23768e-06
0.00055629 -0.000342278 -9.55588e-06
-0.000342278 -0.000389486 3.09439e-07
-9.55588e-06 3.09439e-07 -0.000407214
0.000944399 2.83722e-05 -3.93815e-07
2.83722e-05 0.000256693 9.83318e-07
-3.93815e-07 9.83318e-07 8.41464e-05
0.000918287 -8.58014e-05 2.30455e-07
-8.58014e-05 0.000216857 1.16504e-06
2.30455e-07 1.16504e-06 5.74874e-05
0.000341708 -0.000115876 1.14496e-07
-0.000115876 -8.30231e-05 3.88275e-06
1.14496e-07 3.88275e-06 -0.000134572
0.000620644 1.99884e-05 8.88953e-07
1.99884e-05 4.80802e-06 -2.06939e-07
8.88953e-07 -2.06939e-07 -0.000106153
0.000992111 -0.000288301 3.16431e-05
-0.000288301 -9.19204e-05 -2.90945e-05
3.16431e-05 -2.90945e-05 3.23082e-05
0.00051545 -8.5931e-05 -9.18533e-06
-8.5931e-05 0.000242908 2.80047e-05
-9.18533e-06 2.80047e-05 0.000137775
0.000917252 -9.44901e-06 -8.55478e-07
-9.44901e-06 0.000237118 1.08593e-05
-8.55478e-07 1.08593e-05 8.20602e-05
0.00120787 0.000149665 1.81843e-06
0.000149665 0.000382153 -1.99154e-06
1.81843e-06 -1.99154e-06 0.000230415
0.00126546 -2.7898e-05 -1.16865e-05
-2.7898e-05 0.000413094 -3.22723e-06
-1.16865e-05 -3.22723e-06 9.14e-05
0.00131211 -4.00847e-05 5.10339e-05
-4.00847e-05 0.000411068 -4.66052e-06
5.10339e-05 -4.66052e-06 -0.000437421
-0.00337088 -4.57396e-05 -5.20464e-05
-4.57396e-05 0.000591706 3.20298e-06
-5.20464e-05 3.20298e-06 -0.000858827
0.000977584 0.000141994 1.57699e-05
0.000141994 0.000379605 2.33813e-06
1.57699e-05 2.33813e-06 0.000277929
-0.000443133 0.000185524 1.5973e-05
0.000185524 -0.000281369 1.09139e-05
1.5973e-05 1.09139e-05 -0.000489554
0.00249017 -1.25609e-05 7.15369e-05
-1.25609e-05 0.00102448 9.52737e-06
7.15369e-05 9.52737e-06 0.000231084
0.00819374 0.000147079 0.000103307
0.000147079 0.0036569 5.47258e-05
0.000103307 5.47258e-05 0.000899129
0.00247494 0.000501878 -8.60258e-05
0.000501878 0.000775319 -8.38012e-05
-8.60258e-05 -8.38012e-05 -0.000174502
0.00307001 -0.000320601 8.21642e-06
-0.000320601 0.000482378 -8.20504e-05
8.21642e-06 -8.20504e-05 -0.000432039
0.0014309 9.711e-05 2.43661e-05
9.711e-05 0.000267821 9.92555e-05
2.43661e-05 9.92555e-05 -0.000975678
0.00339749 -1.40734e-05 2.75803e-06
-1.40734e-05 -0.00315711 -6.25882e-05
2.75803e-06 -6.25882e-05 -0.000806225
0.000646939 0.000111388 1.69557e-06
0.000111388 0.000304452 -1.13091e-06
1.69557e-06 -1.13091e-06 0.000194393
0.00104254 -4.05635e-05 -1.18646e-07
-4.05635e-05 0.000212073 -9.86542e-06
-1.18646e-07 -9.86542e-06 -9.86864e-05
0.00238454 1.20099e-05 2.47935e-05
1.20099e-05 0.000551452 6.24493e-06
2.47935e-05 6.24493e-06 -0.000245915
-0.000918065 8.92245e-05 -1.4023e-05
8.92245e-05 -0.000383955 -5.16648e-06
-1.4023e-05 -5.16648e-06 -0.000694161
0.00412194 0.000554347 1.14214e-05
0.000554347 -0.00160921 -4.75386e-06
1.14214e-05 -4.75386e-06 -0.00040143
0.00553087 0.000748297 7.03619e-05
0.000748297 0.0024818 2.94709e-05
7.03619e-05 2.94709e-05 -0.000387354
0.00316052 0.000179413 -4.42061e-05
0.000179413 0.00193486 4.06551e-06
-4.42061e-05 4.06551e-06 0.00122519
-5.04015e-05 0.000129447 -2.66279e-05
0.000129447 -5.30109e-06 -1.20201e-05
-2.66279e-05 -1.20201e-05 -0.000179769
0.00164048 1.81474e-05 4.58488e-07
1.81474e-05 0.000175603 -2.80018e-05
4.58488e-07 -2.80018e-05 -3.65858e-05
0.00311488 -8.2583e-05 2.4169e-05
-8.2583e-05 0.00153664 -7.2705e-05
2.4169e-05 -7.2705e-05 0.000711996
0.00488714 0.000880606 9.70715e-05
0.000880606 -0.000136893 -7.55456e-05
9.70715e-05 -7.55456e-05 0.00081174
0.00436677 1.78953e-05 -5.87183e-05
1.78953e-05 0.000408285 8.07913e-05
-5.87183e-05 8.07913e-05 0.000484274
0.0015713 0.000216366 -3.10453e-06
0.000216366 0.000144351 -3.4671e-05
-3.10453e-06 -3.4671e-05 0.000171574
7.30959e-05 0.000456507 9.22896e-05
0.000456507 0.00174602 3.53703e-05
9.22896e-05 3.53703e-05 -0.00250933
0.000548277 0.00010507 2.93773e-06
0.00010507 4.6481e-05 6.07902e-06
2.93773e-06 6.07902e-06 -2.30727e-05
0.000613411 7.83079e-05 8.83134e-06
7.83079e-05 0.000247493 1.24823e-06
8.83134e-06 1.24823e-06 0.000173839
0.0014618 1.83715e-05 -1.38851e-05
1.83715e-05 0.000870194 -1.84144e-05
-1.38851e-05 -1.84144e-05 0.00078365
0.000561371 -7.00525e-06 7.34032e-07
-7.00525e-06 -4.74325e-05 3.28047e-06
7.34032e-07 3.28047e-06 -0.000135846
0.000795325 -3.53234e-05 1.44124e-06
-3.53234e-05 0.000162784 4.03643e-06
1.44124e-06 4.03643e-06 7.11371e-05
-2.59862e-05 -5.88075e-06 -2.34856e-06
-5.88075e-06 -0.000215778 1.04013e-05
-2.34856e-06 1.04013e-05 -0.000302075
0.00073149 -3.80894e-05 2.69375e-07
-3.80894e-05 0.000106561 -3.1996e-07
2.69375e-07 -3.1996e-07 2.74994e-05
0.000371167 -6.02534e-06 -2.0353e-06
-6.02534e-06 4.43734e-05 2.67534e-06
-2.0353e-06 2.67534e-06 -2.25141e-05
0.000998653 -0.000150769 5.75623e-06
-0.000150769 0.000446815 -6.19055e-06
5.75623e-06 -6.19055e-06 0.000292115
0.00105087 -1.66953e-05 -1.8706e-06
-1.66953e-05 0.000244217 3.8314e-06
-1.8706e-06 3.8314e-06 0.000172658
0.000639249 4.15284e-05 -1.27948e-06
4.15284e-05 5.2975e-06 1.84681e-06
-1.27948e-06 1.84681e-06 -8.03688e-05
0.00124365 -8.89369e-05 1.03468e-06
-8.89369e-05 0.000363188 1.37772e-06
1.03468e-06 1.37772e-06 0.000270023
9.17109e-05 -9.43837e-05 4.15426e-06
-9.43837e-05 -0.000177204 1.7927e-06
4.15426e-06 1.7927e-06 -0.000374376
0.000509682 -3.32082e-05 -4.46167e-06
-3.32082e-05 -5.6174e-05 1.18778e-06
-4.46167e-06 1.18778e-06 -0.000130442
0.000229428 -0.000101186 1.55063e-06
-0.000101186 -0.000208023 -8.29051e-07
1.55063e-06 -8.29051e-07 -0.00034845
0.00104758 -0.000206349 6.38356e-06
-0.000206349 0.000216992 -1.71436e-06
6.38356e-06 -1.71436e-06 6.10275e-06
0.00118939 -0.000231516 -1.0012e-06
-0.000231516 0.000172531 5.04534e-06
-1.0012e-06 5.04534e-06 -4.3329e-05
0.00157645 -0.000148037 -2.2213e-06
-0.000148037 0.000544973 -1.014e-07
-2.2213e-06 -1.014e-07 0.000405853
0.000614352 -0.000164056 -2.67587e-07
-0.000164056 -3.70049e-05 -1.80118e-07
-2.67587e-07 -1.80118e-07 -0.000221702
0.00177678 -0.000252248 1.83776e-06
-0.000252248 0.000592681 -1.77973e-06
1.83776e-06 -1.77973e-06 0.000413345
0.000239094 -9.55113e-05 -2.07224e-06
-9.55113e-05 -0.000181102 -6.47112e-07
-2.07224e-06 -6.47112e-07 -0.000341423
0.000891354 -0.000170502 -2.8145e-07
-0.000170502 0.00012951 1.02285e-06
-2.8145e-07 1.02285e-06 -4.93762e-05
0.000750178 -2.6939e-05 1.04092e-07
-2.6939e-05 9.66434e-05 4.97579e-07
1.04092e-07 4.97579e-07 -1.51896e-05
0.00103131 -0.000144272 -2.8578e-06
-0.000144272 0.000271535 2.09577e-06
-2.8578e-06 2.09577e-06 0.000125949
0.000388769 -0.000121843 -1.64401e-06
-0.000121843 -0.000125334 -9.53504e-07
-1.64401e-06 -9.53504e-07 -0.000294746
0.000678903 3.8961e-05 2.88957e-07
3.8961e-05 3.46978e-05 9.18925e-07
2.88957e-07 9.18925e-07 -4.44458e-05
0.000713709 -1.61087e-05 7.72445e-07
-1.61087e-05 6.86984e-05 -1.01523e-07
7.72445e-07 -1.01523e-07 -3.15892e-05
0.000853111 -5.38889e-05 2.01173e-06
-5.38889e-05 0.000168914 -2.74399e-06
2.01173e-06 -2.74399e-06 4.61424e-05
0.000751682 3.7171e-06 2.116e-07
3.7171e-06 8.45191e-05 -5.35751e-07
2.116e-07 -5.35751e-07 -3.37395e-06
0.000734791 3.85237e-06 -5.35716e-07
3.85237e-06 6.06155e-05 -1.23826e-07
-5.35716e-07 -1.23826e-07 -1.15706e-05
0.000669258 3.70604e-05 -1.47469e-06
3.70604e-05 9.49399e-06 1.69513e-06
-1.47469e-06 1.69513e-06 -3.91765e-05
0.000769639 -2.89633e-05 7.95609e-07
-2.89633e-05 8.07627e-05 -7.07629e-07
7.95609e-07 -7.07629e-07 8.92452e-06
0.00068562 2.96497e-05 -2.68654e-07
2.96497e-05 1.32211e-05 -2.06014e-08
-2.68654e-07 -2.06014e-08 -3.30237e-05
0.000619851 4.22506e-05 -1.05869e-06
4.22506e-05 -2.80687e-05 3.76055e-06
-1.05869e-06 3.76055e-06 -4.34975e-05
0.000712519 9.76794e-06 1.73656e-06
9.76794e-06 2.34643e-05 -1.70516e-06
1.73656e-06 -1.70516e-06 -2.08301e-05
0.000624585 3.54073e-05 1.2554e-07
3.54073e-05 -3.19694e-05 2.94254e-08
1.2554e-07 2.94254e-08 -4.57247e-05
0.00217939 6.23072e-05 -4.52389e-06
6.23072e-05 0.000872344 1.75658e-06
-4.52389e-06 1.75658e-06 0.000885124
0.000607632 2.81894e-05 7.89904e-07
2.81894e-05 -4.65097e-05 -3.72305e-06
7.89904e-07 -3.72305e-06 -5.92878e-05
0.00154292 3.92234e-05 8.48298e-06
3.92234e-05 0.000498549 -1.19247e-06
8.48298e-06 -1.19247e-06 0.00050993
0.00229551 3.75876e-05 1.27471e-05
3.75876e-05 0.000928744 -4.54367e-06
1.27471e-05 -4.54367e-06 0.000944535
0.000517985 -8.81449e-06 -2.16095e-07
-8.81449e-06 -6.56107e-05 -1.7179e-06
-2.16095e-07 -1.7179e-06 -0.000146057
0.000399398 -7.09096e-06 -3.09719e-07
-7.09096e-06 -0.000153167 -2.97199e-06
-3.09719e-07 -2.97199e-06 -0.000201484
0.000672399 1.02667e-05 -4.15354e-07
1.02667e-05 3.10488e-05 -7.34324e-07
-4.15354e-07 -7.34324e-07 -5.03141e-05
0.000641793 -1.81906e-05 -2.04655e-07
-1.81906e-05 -3.31823e-05 -3.87159e-06
-2.04655e-07 -3.87159e-06 -4.29595e-05
0.000398094 -5.49124e-06 -2.10651e-07
-5.49124e-06 -0.000153062 -9.00802e-07
-2.10651e-07 -9.00802e-07 -0.000197601
0.000826077 1.55239e-05 -9.40267e-08
1.55239e-05 0.000123024 1.54709e-06
-9.40267e-08 1.54709e-06 4.61366e-05
0.00215555 -2.33817e-05 -9.29701e-06
-2.33817e-05 0.000842739 -4.73454e-06
-9.29701e-06 -4.73454e-06 0.000861365
0.000646741 -1.14272e-05 -1.35483e-07
-1.14272e-05 -3.22548e-05 -3.39324e-08
-1.35483e-07 -3.39324e-08 -3.97138e-05
0.000380746 -4.47217e-06 3.68208e-07
-4.47217e-06 -0.000162124 2.06173e-06
3.68208e-07 2.06173e-06 -0.000203192
0.00209815 -1.06675e-05 -3.25273e-06
-1.06675e-05 0.000807581 3.50794e-08
-3.25273e-06 3.50794e-08 0.0008274
0.000651972 -4.77842e-06 1.84404e-07
-4.77842e-06 -3.01484e-05 3.56493e-06
1.84404e-07 3.56493e-06 -3.62046e-05
0.00209224 1.76512e-06 2.94578e-07
1.76512e-06 0.000803946 4.73995e-06
2.94578e-07 4.73995e-06 0.000823941
0.00146613 1.23799e-05 -4.04707e-06
1.23799e-05 0.000580586 2.38847e-05
-4.04707e-06 2.38847e-05 0.000264239
0.00155023 -4.31392e-05 1.03536e-05
-4.31392e-05 0.000340999 -3.75661e-06
1.03536e-05 -3.75661e-06 -0.000563243
0.00182267 9.89122e-05 3.38165e-05
9.89122e-05 0.00241414 -2.99876e-05
3.38165e-05 -2.99876e-05 0.00180342
0.000823822 5.90572e-05 -8.72531e-08
5.90572e-05 0.000117952 2.54945e-07
-8.72531e-08 2.54945e-07 1.82681e-05
0.000695011 2.93635e-05 -3.84355e-08
2.93635e-05 3.15236e-05 2.75488e-07
-3.84355e-08 2.75488e-07 -5.99378e-05
0.000902332 8.25723e-05 -2.82544e-07
8.25723e-05 0.000158589 7.41766e-07
-2.82544e-07 7.41766e-07 5.36518e-05
0.0019411 -2.96362e-05 1.10819e-05
-2.96362e-05 0.000155722 0.00011417
1.10819e-05 0.00011417 -0.000784816
0.00285193 -8.90503e-05 -6.11248e-06
-8.90503e-05 0.0014773 7.16031e-07
-6.11248e-06 7.16031e-07 0.000571293
0.00327892 -0.000175419 4.61733e-05
-0.000175419 0.00111864 -8.62973e-05
4.61733e-05 -8.62973e-05 -0.000455816
0.00472372 -0.000603128 -4.31306e-05
-0.000603128 0.00085026 -1.07616e-06
-4.31306e-05 -1.07616e-06 8.14023e-05
0.0019452 -0.000372431 -8.36042e-05
-0.000372431 0.000318529 6.042e-05
-8.36042e-05 6.042e-05 -0.00200358
0.00723223 0.000847099 5.86585e-05
0.000847099 0.0021655 2.45702e-05
5.86585e-05 2.45702e-05 0.00198813
0.0015216 0.000204903 1.88377e-05
0.000204903 -0.00303729 -5.04138e-05
1.88377e-05 -5.04138e-05 -0.00179059
0.00532846 -0.000976479 -1.20916e-05
-0.000976479 0.00142727 4.57329e-06
-1.20916e-05 4.57329e-06 0.00066199
0.0062551 -0.000559673 6.38826e-06
-0.000559673 0.00278888 5.88567e-06
6.38826e-06 5.88567e-06 8.44181e-05
-0.00196048 0.00033708 -1.13542e-05
0.00033708 -0.000634595 -5.77588e-05
-1.13542e-05 -5.77588e-05 -0.00160712
0.00426943 -4.65612e-05 -1.20809e-05
-4.65612e-05 -0.00196186 2.48664e-05
-1.20809e-05 2.48664e-05 -3.80814e-05
0.00288069 -0.000722465 -3.19368e-05
-0.000722465 0.00034842 -1.77493e-05
-3.19368e-05 -1.77493e-05 -0.000317036
0.0106485 -0.000839404 1.17192e-05
-0.000839404 0.00498085 3.06937e-05
1.17192e-05 3.06937e-05 0.00171544
-0.00824423 -6.91369e-05 5.6818e-05
-6.91369e-05 -0.00100289 -0.000114743
5.6818e-05 -0.000114743 -0.00245508
0.00265849 -0.000465639 5.94742e-07
-0.000465639 -0.00197832 -1.65365e-05
5.94742e-07 -1.65365e-05 -0.000635944
0.000800517 3.52587e-05 -6.04187e-07
3.52587e-05 0.000102197 -1.27382e-07
-6.04187e-07 -1.27382e-07 -1.31303e-05
0.000768538 1.21063e-06 8.68029e-08
1.21063e-06 0.000104598 -5.23633e-07
8.68029e-08 -5.23633e-07 -2.0438e-05
0.000768744 -5.39024e-05 4.20364e-07
-5.39024e-05 0.000114968 -4.05415e-08
4.20364e-07 -4.05415e-08 -8.68249e-06
0.000784337 4.0035e-05 -4.69927e-07
4.0035e-05 9.17563e-05 -4.57688e-07
-4.69927e-07 -4.57688e-07 -1.51139e-05
0.000943972 0.000111591 1.30627e-06
0.000111591 0.000202587 1.20512e-06
1.30627e-06 1.20512e-06 8.62503e-05
0.00104793 0.00010541 -5.52369e-07
0.00010541 0.000265498 9.5159e-07
-5.52369e-07 9.5159e-07 0.00015614
0.00115421 -0.000378756 1.12147e-05
-0.000378756 -8.98908e-05 4.93894e-06
1.12147e-05 4.93894e-06 -0.000152302
-0.000601405 -6.82773e-05 1.18607e-05
-6.82773e-05 -0.000605953 -1.9264e-05
1.18607e-05 -1.9264e-05 -0.000616349
0.000950271 5.7269e-05 -6.08374e-07
5.7269e-05 0.000220446 -8.44442e-08
-6.08374e-07 -8.44442e-08 8.6537e-05
0.0011358 -0.000124466 1.4064e-05
-0.000124466 0.000307286 -2.71649e-05
1.4064e-05 -2.71649e-05 0.000146878
0.00119972 1.26139e-05 -1.64888e-06
1.26139e-05 0.000394387 -6.45482e-08
-1.64888e-06 -6.45482e-08 0.00022102
0.000732029 1.56465e-05 2.73607e-07
1.56465e-05 6.83116e-05 2.23972e-08
2.73607e-07 2.23972e-08 -4.81506e-05
0.000745933 8.0694e-05 1.67199e-07
8.0694e-05 0.000113646 -8.50905e-08
1.67199e-07 -8.50905e-08 -2.67356e-05
0.00029308 -0.000290267 -2.94864e-06
-0.000290267 -0.000451345 -2.86779e-06
-2.94864e-06 -2.86779e-06 -0.000441617
0.000963062 -2.85567e-05 3.38997e-06
-2.85567e-05 0.00026517 -2.55378e-06
3.38997e-06 -2.55378e-06 0.000114171
0.000476052 -4.42295e-05 2.0529e-05
-4.42295e-05 0.000231378 -3.73616e-07
2.0529e-05 -3.73616e-07 0.000128949
0.00121979 5.81955e-05 1.38894e-06
5.81955e-05 0.000349066 -9.51123e-07
1.38894e-06 -9.51123e-07 0.000235748
-0.00238209 0.000108576 -3.90235e-05
0.000108576 -0.00110614 -1.95828e-05
-3.90235e-05 -1.95828e-05 -0.00145227
0.000531756 8.01779e-06 8.76908e-06
8.01779e-06 0.000209491 2.90989e-05
8.76908e-06 2.90989e-05 0.000138413
0.0011899 1.38239e-05 1.72587e-06
1.38239e-05 0.000410284 -4.93492e-07
1.72587e-06 -4.93492e-07 0.000280728
0.0014739 -2.15859e-05 2.8385e-06
-2.15859e-05 0.00011375 7.25488e-07
2.8385e-06 7.25488e-07 -0.000123222
0.00111832 -2.2789e-05 -1.23298e-05
-2.2789e-05 0.000305018 -3.69387e-06
-1.23298e-05 -3.69387e-06 2.55483e-05
0.00119457 -3.37144e-05 0.000131174
-3.37144e-05 0.000387781 -1.5299e-06
0.000131174 -1.5299e-06 -0.000460987
0.000903621 0.00016272 1.97306e-05
0.00016272 0.000441453 1.26288e-05
1.97306e-05 1.26288e-05 0.000320972
0.00237573 0.000379255 1.36626e-05
0.000379255 0.000888048 -1.48451e-05
1.36626e-05 -1.48451e-05 0.000695364
0.00117921 -4.08471e-05 -1.17161e-06
-4.08471e-05 0.000258316 9.55531e-06
-1.17161e-06 9.55531e-06 -4.68973e-07
-0.000953898 0.000391412 1.00627e-05
0.000391412 -1.39328e-05 2.30276e-05
1.00627e-05 2.30276e-05 -0.00291354
-0.010055 9.15124e-05 -4.93366e-05
9.15124e-05 -0.00372896 -0.000112463
-4.93366e-05 -0.000112463 -0.0051695
0.00258323 2.44822e-05 2.68144e-05
2.44822e-05 0.000854094 5.75946e-05
2.68144e-05 5.75946e-05 0.000203838
0.00175511 0.000324066 -2.23579e-05
0.000324066 -0.0029709 5.10628e-05
-2.23579e-05 5.10628e-05 -0.00174006
0.000414049 0.000120634 4.40856e-06
0.000120634 0.000269945 -9.10385e-07
4.40856e-06 -9.10385e-07 0.000115392
0.00151307 -1.91897e-06 6.60656e-06
-1.91897e-06 8.79146e-05 -1.38536e-05
6.60656e-06 -1.38536e-05 -4.73165e-05
0.00294166 -6.55305e-05 4.74522e-06
-6.55305e-05 0.00143711 -1.07212e-06
4.74522e-06 -1.07212e-06 0.000562465
0.00139312 0.000205985 1.12252e-05
0.000205985 9.4763e-05 -3.769e-06
1.12252e-05 -3.769e-06 -0.000220967
0.00216553 0.000808792 3.7627e-05
0.000808792 -0.0016495 -8.45387e-05
3.7627e-05 -8.45387e-05 -0.000635648
-0.00184006 0.000331404 9.67123e-06
0.000331404 -0.00132674 5.54697e-05
9.67123e-06 5.54697e-05 -0.00179358
0.00674608 2.78936e-05 5.90692e-05
2.78936e-05 0.00441944 -1.95405e-05
5.90692e-05 -1.95405e-05 0.000280998
0.00139356 -5.2159e-06 2.00089e-05
-5.2159e-06 0.00104245 -1.23819e-05
2.00089e-05 -1.23819e-05 0.000759017
0.00142574 2.78163e-05 6.634e-06
2.78163e-05 0.000519052 -2.08912e-05
6.634e-06 -2.08912e-05 0.000206487
0.00281564 -9.99654e-05 0.000131578
-9.99654e-05 0.000569605 -0.000111678
0.000131578 -0.000111678 -0.000754281
0.00309896 0.00111007 -8.11674e-06
0.00111007 0.00176342 -1.17542e-05
-8.11674e-06 -1.17542e-05 0.00279801
-0.0056232 0.000423809 3.99823e-05
0.000423809 -0.00474159 0.000163965
3.99823e-05 0.000163965 -0.00449616
0.011502 -0.000640037 6.69042e-05
-0.000640037 0.00483707 -7.66278e-05
6.69042e-05 -7.66278e-05 0.00174177
0.00452989 -0.000366923 -9.02687e-05
-0.000366923 0.00134508 0.00010933
-9.02687e-05 0.00010933 0.00129865
0.00123445 8.06128e-05 4.89812e-06
8.06128e-05 0.000594367 6.30849e-06
4.89812e-06 6.30849e-06 0.000512288
-3.22872e-06 -7.36905e-06 -2.60558e-06
-7.36905e-06 5.52257e-05 1.85328e-07
-2.60558e-06 1.85328e-07 -5.44971e-05
0.000407306 -0.00018589 7.64655e-06
-0.00018589 0.000328977 -1.39287e-05
7.64655e-06 -1.39287e-05 9.51922e-05
0.000752128 -4.80698e-05 1.35045e-06
-4.80698e-05 0.000116159 1.99408e-06
1.35045e-06 1.99408e-06 3.61501e-05
-0.000744159 -8.16075e-06 3.77985e-06
-8.16075e-06 -0.000573917 1.4596e-05
3.77985e-06 1.4596e-05 -0.000646066
0.00019879 -0.000109457 -1.58866e-06
-0.000109457 1.09805e-05 1.33744e-07
-1.58866e-06 1.33744e-07 -0.000131095
0.00110843 -0.000203474 2.19231e-05
-0.000203474 0.000467822 -1.37948e-05
2.19231e-05 -1.37948e-05 0.000209819
0.00183837 -0.000126973 -3.38533e-06
-0.000126973 0.000688366 2.83425e-06
-3.38533e-06 2.83425e-06 0.000586936
0.00146018 -0.000220938 1.5307e-06
-0.000220938 0.000528584 2.92644e-07
1.5307e-06 2.92644e-07 0.000323838
0.00104444 -0.000225545 8.54694e-06
-0.000225545 0.000310606 2.28227e-06
8.54694e-06 2.28227e-06 -1.94595e-05
3.00591e-05 -8.35176e-05 -1.9864e-06
-8.35176e-05 -0.000319594 -1.17348e-06
-1.9864e-06 -1.17348e-06 -0.000446817
0.00107482 -0.000206368 -4.10757e-07
-0.000206368 0.000217563 1.254e-06
-4.10757e-07 1.254e-06 -8.24735e-08
0.00249853 -0.000361124 2.78377e-06
-0.000361124 0.000891386 1.8768e-06
2.78377e-06 1.8768e-06 0.00061373
0.00178429 -0.000309359 -2.90351e-06
-0.000309359 0.000368375 2.2219e-06
-2.90351e-06 2.2219e-06 0.00011923
0.000522458 -0.000170303 1.15046e-06
-0.000170303 -0.000174719 6.65297e-06
1.15046e-06 6.65297e-06 -0.000363952
0.0013226 -0.000242703 -2.60224e-06
-0.000242703 0.000248443 1.8741e-06
-2.60224e-06 1.8741e-06 2.83968e-05
0.000908375 -0.000188672 -4.41179e-06
-0.000188672 0.000119877 1.42249e-06
-4.41179e-06 1.42249e-06 -7.22832e-05
0.00159343 -0.000228661 4.33773e-06
-0.000228661 0.000520016 -3.20711e-06
4.33773e-06 -3.20711e-06 0.000347123
0.00123366 -0.000206037 2.65262e-06
-0.000206037 0.000293569 -2.17365e-06
2.65262e-06 -2.17365e-06 0.000128094
0.00035324 -4.37367e-05 1.77834e-06
-4.37367e-05 -0.000120524 8.15306e-07
1.77834e-06 8.15306e-07 -0.000259693
0.000705683 -0.000133603 1.25745e-06
-0.000133603 8.33139e-05 -4.19116e-07
1.25745e-06 -4.19116e-07 -8.0365e-05
0.00114734 -0.00018925 5.34341e-06
-0.00018925 0.000274623 -3.11095e-06
5.34341e-06 -3.11095e-06 9.82951e-05
0.000681143 4.79877e-05 1.08255e-06
4.79877e-05 4.60878e-05 1.37713e-06
1.08255e-06 1.37713e-06 -4.81364e-05
0.000885502 -5.50985e-05 -3.51549e-07
-5.50985e-05 0.000176299 -7.1104e-08
-3.51549e-07 -7.1104e-08 5.91667e-05
0.00103926 -0.0001465 -6.69105e-07
-0.0001465 0.000274708 -2.55758e-07
-6.69105e-07 -2.55758e-07 0.000128257
0.000651684 4.21675e-05 -1.1248e-06
4.21675e-05 6.32139e-06 1.77914e-06
-1.1248e-06 1.77914e-06 -4.68435e-05
0.00074097 1.12738e-05 -6.9834e-07
1.12738e-05 6.8131e-05 -2.90574e-07
-6.9834e-07 -2.90574e-07 -1.12779e-05
0.000573085 -5.00458e-06 5.36379e-08
-5.00458e-06 -6.85233e-06 -7.48438e-07
5.36379e-08 -7.48438e-07 -0.000108917
0.000778855 -1.77726e-05 7.41666e-07
-1.77726e-05 8.63913e-05 -9.99397e-07
7.41666e-07 -9.99397e-07 1.27226e-05
0.000686269 2.88083e-05 -2.71576e-07
2.88083e-05 1.78971e-05 -5.87193e-08
-2.71576e-07 -5.87193e-08 -3.02216e-05
0.000602815 4.94081e-05 -1.0557e-06
4.94081e-05 -2.92458e-05 3.88724e-06
-1.0557e-06 3.88724e-06 -4.72627e-05
0.000700977 1.93037e-05 1.77229e-06
1.93037e-05 2.03173e-05 -1.71014e-06
1.77229e-06 -1.71014e-06 -2.51358e-05
0.000619619 4.32311e-05 3.93541e-08
4.32311e-05 -2.80855e-05 5.29925e-09
3.93541e-08 5.29925e-09 -4.36059e-05
0.0022189 6.79378e-05 -2.32611e-05
6.79378e-05 0.000902197 3.74289e-06
-2.32611e-05 3.74289e-06 0.000913784
0.000614236 3.60712e-05 8.63185e-07
3.60712e-05 -3.79915e-05 -3.73499e-06
8.63185e-07 -3.73499e-06 -5.17544e-05
0.00152503 4.8763e-05 9.99179e-06
4.8763e-05 0.000495086 -1.04023e-06
9.99179e-06 -1.04023e-06 0.000504948
0.00227902 4.89506e-05 1.65591e-05
4.89506e-05 0.000924575 -4.24315e-06
1.65591e-05 -4.24315e-06 0.000939153
0.000732 4.53021e-05 -6.25583e-07
4.53021e-05 5.5258e-05 -7.67206e-07
-6.25583e-07 -7.67206e-07 -2.65396e-05
0.000680912 3.93767e-06 -7.53712e-07
3.93767e-06 5.91011e-06 -2.22248e-06
-7.53712e-07 -2.22248e-06 -4.34337e-05
0.000623001 2.8775e-05 -9.3032e-07
2.8775e-05 1.16816e-06 -6.90961e-07
-9.3032e-07 -6.90961e-07 -8.36536e-05
0.00063082 -2.51562e-05 -5.2603e-08
-2.51562e-05 -3.61536e-05 -4.07276e-06
-5.2603e-08 -4.07276e-06 -4.87723e-05
0.000529816 7.82004e-07 -8.27684e-07
7.82004e-07 -7.89441e-05 -8.9194e-07
-8.27684e-07 -8.9194e-07 -0.000126159
0.000837705 2.37514e-05 3.19297e-07
2.37514e-05 0.000125572 5.60672e-07
3.19297e-07 5.60672e-07 4.49364e-05
0.00222773 -3.51948e-05 -1.37154e-05
-3.51948e-05 0.000887426 -4.64935e-06
-1.37154e-05 -4.64935e-06 0.000904445
0.00064008 -1.78788e-05 -2.21019e-07
-1.78788e-05 -3.41424e-05 -2.95678e-08
-2.21019e-07 -2.95678e-08 -4.3821e-05
0.000366844 -5.81944e-06 -2.9191e-07
-5.81944e-06 -0.000170761 1.32922e-06
-2.9191e-07 1.32922e-06 -0.000215826
0.00214702 -2.22824e-05 -3.19057e-06
-2.22824e-05 0.000837414 7.13838e-08
-3.19057e-06 7.13838e-08 0.000856267
0.00064741 -1.13056e-05 2.08728e-07
-1.13056e-05 -3.17584e-05 3.65938e-06
2.08728e-07 3.65938e-06 -3.91718e-05
0.00209963 -9.54675e-06 4.83654e-06
-9.54675e-06 0.000808225 4.74675e-06
4.83654e-06 4.74675e-06 0.000828101
0.00156322 -1.65043e-05 3.32432e-06
-1.65043e-05 0.000149343 3.00063e-05
3.32432e-06 3.00063e-05 -7.5896e-05
0.00131827 7.74631e-06 -5.69031e-06
7.74631e-06 0.000434013 -5.7519e-07
-5.69031e-06 -5.7519e-07 0.000112425
0.00168029 -3.68683e-05 9.0073e-05
-3.68683e-05 0.000496647 -2.86953e-05
9.0073e-05 -2.86953e-05 -0.000434363
0.000662593 -9.86432e-06 -1.84964e-07
-9.86432e-06 6.255e-06 -3.41099e-07
-1.84964e-07 -3.41099e-07 -7.82828e-05
0.000878675 1.60072e-05 -1.0284e-06
1.60072e-05 0.000137852 -4.93912e-07
-1.0284e-06 -4.93912e-07 4.41946e-05
0.000834189 5.71063e-05 1.35686e-06
5.71063e-05 0.000121734 5.18396e-07
1.35686e-06 5.18396e-07 2.57268e-05
0.000698865 1.41561e-05 1.79615e-07
1.41561e-05 2.85267e-05 1.45669e-07
1.79615e-07 1.45669e-07 -5.8836e-05
0.000798769 3.8101e-05 1.4615e-08
3.8101e-05 9.85137e-05 2.07205e-07
1.4615e-08 2.07205e-07 -4.52893e-06
0.000802509 2.11558e-05 -1.0576e-06
2.11558e-05 9.47401e-05 2.94313e-07
-1.0576e-06 2.94313e-07 2.18669e-07
0.000945245 0.000151538 6.92289e-07
0.000151538 0.000196006 4.31063e-07
6.92289e-07 4.31063e-07 7.53164e-05
0.000664417 2.59797e-05 2.86374e-05
2.59797e-05 0.000209307 0.000113206
2.86374e-05 0.000113206 -0.00091889
0.00227422 -1.7322e-05 -4.25199e-06
-1.7322e-05 0.00057037 3.82252e-05
-4.25199e-06 3.82252e-05 -0.000217015
0.00264788 -6.62668e-05 4.02401e-06
-6.62668e-05 0.0013646 -6.128e-05
4.02401e-06 -6.128e-05 0.000402747
0.00309036 -0.000109034 -1.9528e-05
-0.000109034 -0.00327788 2.74277e-05
-1.9528e-05 2.74277e-05 -0.000971974
0.00380139 -0.000843745 -4.33851e-05
-0.000843745 0.00116163 5.48531e-05
-4.33851e-05 5.48531e-05 0.000213207
-0.00153159 -0.000784453 2.59309e-05
-0.000784453 -0.000702217 3.84099e-05
2.59309e-05 3.84099e-05 -0.00372598
0.00605226 0.0009503 4.32451e-05
0.0009503 0.00353447 -2.26451e-05
4.32451e-05 -2.26451e-05 0.00206276
0.00421531 -0.000838625 -1.73481e-05
-0.000838625 0.000991238 4.39209e-06
-1.73481e-05 4.39209e-06 0.000197335
0.000598406 -0.000393513 4.17193e-05
-0.000393513 0.000826196 9.9461e-07
4.17193e-05 9.9461e-07 -0.00244694
0.00403961 -8.66853e-05 -2.21343e-05
-8.66853e-05 0.00214237 -2.61344e-06
-2.21343e-05 -2.61344e-06 0.0014167
0.00708072 -0.00065763 -2.19104e-05
-0.00065763 0.000821787 -2.9798e-05
-2.19104e-05 -2.9798e-05 0.00212076
0.00170754 -1.21633e-05 -6.21498e-05
-1.21633e-05 -0.000379187 4.36057e-05
-6.21498e-05 4.36057e-05 -0.000293036
0.000770359 0.000503949 9.06027e-06
0.000503949 0.000655645 -8.66774e-05
9.06027e-06 -8.66774e-05 -0.00237797
-0.00673487 -0.000932329 4.99809e-05
-0.000932329 -0.00424129 -6.72625e-05
4.99809e-05 -6.72625e-05 -0.00555244
0.00230575 -0.000635762 1.23319e-05
-0.000635762 -0.00163663 -0.000123971
1.23319e-05 -0.000123971 -0.000135143
0.00077199 -4.73963e-06 -1.80175e-06
-4.73963e-06 8.45925e-05 7.492e-07
-1.80175e-06 7.492e-07 -1.12808e-05
0.000744796 3.5114e-05 1.85308e-07
3.5114e-05 7.22241e-05 2.12336e-07
1.85308e-07 2.12336e-07 -4.34904e-05
0.000735821 1.24182e-05 -3.40659e-07
1.24182e-05 9.16574e-05 -4.27158e-07
-3.40659e-07 -4.27158e-07 -3.69306e-05
0.000821518 3.72367e-05 1.38548e-07
3.72367e-05 0.000121926 -8.46152e-07
1.38548e-07 -8.46152e-07 8.30468e-06
0.000734186 -0.000331757 7.1555e-07
-0.000331757 -0.000280505 1.7623e-05
7.1555e-07 1.7623e-05 -0.000336601
0.000864442 -3.25592e-05 -6.31254e-06
-3.25592e-05 0.000443944 -2.35748e-05
-6.31254e-06 -2.35748e-05 0.00035728
0.000606763 7.74804e-06 -4.34958e-07
7.74804e-06 -1.04862e-05 -2.02693e-07
-4.34958e-07 -2.02693e-07 -0.000123823
0.000758055 8.49572e-05 -1.47571e-06
8.49572e-05 0.000123618 2.07856e-06
-1.47571e-06 2.07856e-06 -1.72396e-05
0.00143791 -5.04344e-05 5.81867e-06
-5.04344e-05 0.000542277 -2.28191e-05
5.81867e-06 -2.28191e-05 0.0003852
0.000732605 3.18111e-05 -4.40162e-07
3.18111e-05 7.63221e-05 3.06171e-07
-4.40162e-07 3.06171e-07 -3.44799e-05
0.000932832 3.62561e-05 -1.25165e-06
3.62561e-05 0.000274517 -2.03362e-06
-1.25165e-06 -2.03362e-06 0.000139307
-0.000301731 2.30594e-05 7.80792e-06
2.30594e-05 -0.000121932 -1.15847e-05
7.80792e-06 -1.15847e-05 -0.000527793
0.000922796 -2.63585e-05 2.35982e-05
-2.63585e-05 0.000444116 -8.6227e-07
2.35982e-05 -8.6227e-07 0.000391283
0.000506855 5.85905e-05 -6.54204e-07
5.85905e-05 2.17064e-05 9.23169e-08
-6.54204e-07 9.23169e-08 -8.01282e-05
0.000252147 -2.13945e-05 -2.29514e-05
-2.13945e-05 0.000688209 -4.67085e-05
-2.29514e-05 -4.67085e-05 -0.000395388
0.0028244 5.45928e-05 9.74031e-06
5.45928e-05 0.00143473 1.81572e-05
9.74031e-06 1.81572e-05 0.00130703
0.00125049 -1.66062e-05 1.31804e-05
-1.66062e-05 0.00040482 4.43055e-06
1.31804e-05 4.43055e-06 8.30601e-05
0.0013178 -2.0776e-05 -3.03711e-07
-2.0776e-05 0.000118837 5.04393e-07
-3.03711e-07 5.04393e-07 -7.5962e-05
0.000775598 -1.99199e-05 -7.70217e-06
-1.99199e-05 0.000123676 -4.38024e-06
-7.70217e-06 -4.38024e-06 -0.000144475
0.000462236 9.92786e-05 1.59536e-05
9.92786e-05 0.000314666 6.96399e-06
1.59536e-05 6.96399e-06 0.000181229
0.000228624 0.000177938 -8.467e-06
0.000177938 -0.000460332 2.8228e-05
-8.467e-06 2.8228e-05 -0.000545702
0.00136762 -1.43751e-05 7.52563e-06
-1.43751e-05 5.88596e-06 5.48941e-06
7.52563e-06 5.48941e-06 -6.4732e-05
0.00346015 -0.000632055 0.000141085
-0.000632055 0.00291393 -0.000122042
0.000141085 -0.000122042 -0.000956641
0.00677601 0.000997935 -4.57426e-05
0.000997935 0.00325026 2.78279e-05
-4.57426e-05 2.78279e-05 0.00211842
0.00276635 -5.04368e-05 -1.18054e-05
-5.04368e-05 0.00134719 6.15378e-05
-1.18054e-05 6.15378e-05 0.000407115
0.00390995 0.000866542 -1.41754e-05
0.000866542 -0.000464127 -1.52045e-05
-1.41754e-05 -1.52045e-05 0.000415659
-0.000498376 4.00012e-05 1.5564e-05
4.00012e-05 9.21304e-05 3.84977e-06
1.5564e-05 3.84977e-06 -0.00028344
0.0013956 1.9356e-05 5.58809e-06
1.9356e-05 0.000454181 4.57541e-07
5.58809e-06 4.57541e-07 0.000156736
0.00300614 -0.000134023 4.28678e-05
-0.000134023 0.000773769 -3.50757e-06
4.28678e-05 -3.50757e-06 -0.000670448
0.000884547 -0.000109733 -2.61655e-06
-0.000109733 -0.000590433 2.45321e-05
-2.61655e-06 2.45321e-05 -0.000410351
-0.00167685 0.00117799 5.66172e-05
0.00117799 -0.00092618 -2.13743e-05
5.66172e-05 -2.13743e-05 0.000577006
0.00523151 0.000644898 -2.55798e-05
0.000644898 0.000138013 5.75624e-05
-2.55798e-05 5.75624e-05 0.000352253
-0.00206647 -0.000652085 5.53995e-05
-0.000652085 -0.000238283 -4.55238e-05
5.53995e-05 -4.55238e-05 -0.00417108
0.000604779 -2.00545e-05 3.9635e-05
-2.00545e-05 0.00023504 -8.38443e-06
3.9635e-05 -8.38443e-06 0.000113955
0.00101237 -4.80388e-05 5.9806e-05
-4.80388e-05 -6.45063e-05 -2.73023e-05
5.9806e-05 -2.73023e-05 -0.000957287
-0.00181236 0.000196314 -0.000120662
0.000196314 0.000506118 -1.87946e-05
-0.000120662 -1.87946e-05 -0.000252389
0.000793445 0.00101884 -9.15454e-05
0.00101884 -0.000397963 0.000135149
-9.15454e-05 0.000135149 0.000119627
0.00813794 -0.000284226 1.70569e-05
-0.000284226 0.00371946 -2.57489e-05
1.70569e-05 -2.57489e-05 0.000850509
0.0031665 -0.000330312 -7.18269e-05
-0.000330312 0.000606924 6.81929e-05
-7.18269e-05 6.81929e-05 0.00026507
-0.00149444 6.53981e-06 8.15953e-07
6.53981e-06 -0.000752596 1.23961e-05
8.15953e-07 1.23961e-05 -0.000901711
5.95111e-05 -0.000135287 3.46675e-07
-0.000135287 0.000152815 -2.71511e-07
3.46675e-07 -2.71511e-07 -6.88268e-05
0.000680898 -0.000205016 1.84952e-05
-0.000205016 0.000215652 -7.13431e-06
1.84952e-05 -7.13431e-06 7.21246e-05
-0.000525005 -6.68166e-05 -3.46381e-06
-6.68166e-05 -0.000383918 5.29323e-06
-3.46381e-06 5.29323e-06 -0.000512406
-0.000393852 -0.000101658 3.2863e-07
-0.000101658 -0.000303645 -3.42904e-06
3.2863e-07 -3.42904e-06 -0.000565784
0.00232638 -0.000376676 2.45596e-05
-0.000376676 0.00077042 -5.81665e-06
2.45596e-05 -5.81665e-06 0.000522866
0.00281282 -0.000351639 -5.68532e-06
-0.000351639 0.0012244 1.52073e-06
-5.68532e-06 1.52073e-06 0.00101004
0.00169744 -0.000272245 2.7396e-06
-0.000272245 0.000625957 7.73836e-07
2.7396e-06 7.73836e-07 0.000310289
0.000766134 -0.000256795 6.24992e-06
-0.000256795 -7.40174e-05 -4.27679e-06
6.24992e-06 -4.27679e-06 -0.000374855
0.0012136 -0.000216137 -5.02139e-06
-0.000216137 0.000278587 8.91157e-07
-5.02139e-06 8.91157e-07 5.41562e-05
0.00215135 -0.000334564 1.857e-06
-0.000334564 0.000692282 5.31856e-08
1.857e-06 5.31856e-08 0.00041471
0.00180177 -0.00032693 3.35569e-06
-0.00032693 0.000365766 -4.79272e-06
3.35569e-06 -4.79272e-06 9.9301e-05
0.00161052 -0.000286731 7.441e-07
-0.000286731 0.000178487 -3.95888e-06
7.441e-07 -3.95888e-06 -3.39112e-05
0.00266217 -0.000366095 -6.42197e-06
-0.000366095 0.000862526 6.71072e-06
-6.42197e-06 6.71072e-06 0.000621449
0.00188826 -0.000319271 -1.22116e-06
-0.000319271 0.000415845 -2.81528e-07
-1.22116e-06 -2.81528e-07 0.000160784
0.000364939 -0.000149121 4.65881e-06
-0.000149121 -0.000242533 3.70252e-08
4.65881e-06 3.70252e-08 -0.000411356
0.000948801 -0.000200766 2.2967e-06
-0.000200766 6.57899e-05 -5.09023e-07
2.2967e-06 -5.09023e-07 -0.000120356
0.00158335 -0.00026375 -1.80872e-06
-0.00026375 0.000395023 -1.53717e-06
-1.80872e-06 -1.53717e-06 0.000170275
0.00113313 -0.000181457 1.75947e-06
-0.000181457 0.000283737 -3.30489e-07
1.75947e-06 -3.30489e-07 0.000113067
0.00124009 -0.000198531 -1.74286e-06
-0.000198531 0.000319855 -1.36683e-06
-1.74286e-06 -1.36683e-06 0.000150718
0.000707361 -0.000161277 3.71488e-06
-0.000161277 4.57996e-06 -1.97224e-06
3.71488e-06 -1.97224e-06 -0.000147441
0.000732291 -1.522e-05 1.83694e-06
-1.522e-05 8.46539e-05 1.46468e-06
1.83694e-06 1.46468e-06 -3.47624e-05
0.000616934 -6.85739e-05 1.45192e-07
-6.85739e-05 3.18459e-05 7.53178e-07
1.45192e-07 7.53178e-07 -0.000109556
0.00121141 -0.000175191 1.97419e-06
-0.000175191 0.000370018 -1.59389e-06
1.97419e-06 -1.59389e-06 0.000202271
0.000601527 5.71927e-05 -2.47591e-08
5.71927e-05 -9.5637e-06 2.31049e-06
-2.47591e-08 2.31049e-06 -7.4593e-05
0.000744237 5.65875e-06 -4.21463e-07
5.65875e-06 8.30893e-05 -3.49551e-07
-4.21463e-07 -3.49551e-07 -1.48689e-05
0.000992053 -7.59059e-05 -5.78583e-07
-7.59059e-05 0.000239866 -7.07512e-07
-5.78583e-07 -7.07512e-07 0.000117776
0.000580002 5.61973e-05 -1.81695e-06
5.61973e-05 -3.26289e-05 5.4044e-06
-1.81695e-06 5.4044e-06 -5.37555e-05
0.000672157 3.9267e-05 -2.86093e-07
3.9267e-05 1.71486e-05 -1.9303e-07
-2.86093e-07 -1.9303e-07 -3.5915e-05
0.000801621 -1.16232e-05 5.22007e-08
-1.16232e-05 0.000102859 -1.309e-06
5.22007e-08 -1.309e-06 2.18477e-05
0.000694465 2.72274e-05 1.38696e-06
2.72274e-05 2.18713e-05 -1.82123e-06
1.38696e-06 -1.82123e-06 -2.60781e-05
0.000610492 5.08619e-05 2.62395e-08
5.08619e-05 -2.438e-05 -3.56006e-09
2.62395e-08 -3.56006e-09 -4.26518e-05
0.00223404 7.88713e-05 -2.62544e-05
7.88713e-05 0.000919172 3.38371e-06
-2.62544e-05 3.38371e-06 0.000928319
0.000619713 4.43288e-05 8.12338e-07
4.43288e-05 -2.79039e-05 -3.79003e-06
8.12338e-07 -3.79003e-06 -4.35366e-05
0.00223855 6.94809e-05 2.12466e-06
6.94809e-05 0.00091439 1.58012e-07
2.12466e-06 1.58012e-07 0.000925662
0.00225139 5.98277e-05 1.98839e-05
5.98277e-05 0.000915126 -3.89749e-06
1.98839e-05 -3.89749e-06 0.0009282
0.000767447 2.68635e-05 -3.53483e-07
2.68635e-05 8.38678e-05 -6.29332e-07
-3.53483e-07 -6.29332e-07 -1.29652e-05
0.000783458 5.92724e-05 -7.5124e-07
5.92724e-05 9.23852e-05 -1.15589e-06
-7.5124e-07 -1.15589e-06 2.33269e-06
0.000682553 -4.44901e-06 -9.26746e-07
-4.44901e-06 6.14955e-06 -2.24572e-06
-9.26746e-07 -2.24572e-06 -4.63302e-05
0.000753464 5.30875e-05 -1.03179e-07
5.30875e-05 6.75371e-05 1.40669e-08
-1.03179e-07 1.40669e-08 -1.45073e-05
0.000616575 -3.23064e-05 -1.41171e-07
-3.23064e-05 -3.93439e-05 -4.28856e-06
-1.41171e-07 -4.28856e-06 -5.53068e-05
0.000685296 3.15206e-06 -1.16002e-07
3.15206e-06 8.79088e-06 -4.38197e-08
-1.16002e-07 -4.38197e-08 -4.05818e-05
0.000717964 3.1808e-05 -5.41888e-07
3.1808e-05 4.56679e-05 5.6766e-07
-5.41888e-07 5.6766e-07 -3.19531e-05
0.00231042 -4.72466e-05 -1.80538e-05
-4.72466e-05 0.000939377 -4.54045e-06
-1.80538e-05 -4.54045e-06 0.000954344
0.000632366 -2.4649e-05 -1.82603e-07
-2.4649e-05 -3.52464e-05 -3.77237e-08
-1.82603e-07 -3.77237e-08 -4.77627e-05
0.000665718 6.86261e-06 -3.64436e-07
6.86261e-06 -1.69198e-06 1.42399e-06
-3.64436e-07 1.42399e-06 -4.7801e-05
0.0022111 -3.41004e-05 -3.30539e-06
-3.41004e-05 0.000877296 1.10468e-07
-3.30539e-06 1.10468e-07 0.00089462
0.000640354 -1.7607e-05 1.3414e-07
-1.7607e-05 -3.39381e-05 3.78815e-06
1.3414e-07 3.78815e-06 -4.35303e-05
0.00213088 -2.11089e-05 9.14186e-06
-2.11089e-05 0.00082771 4.68083e-06
9.14186e-06 4.68083e-06 0.000846808
0.000871633 -5.87807e-05 5.37492e-06
-5.87807e-05 0.000130723 2.97087e-05
5.37492e-06 2.97087e-05 -0.00020656
0.00148206 -2.66921e-05 -8.15228e-06
-2.66921e-05 8.56776e-05 1.46523e-05
-8.15228e-06 1.46523e-05 -5.7855e-05
0.00138122 -9.55048e-07 -2.44505e-06
-9.55048e-07 0.000356852 -1.96097e-05
-2.44505e-06 -1.96097e-05 8.75113e-05
0.000758647 2.65077e-05 -1.61718e-07
2.65077e-05 7.19173e-05 -5.49304e-08
-1.61718e-07 -5.49304e-08 -2.10273e-05
0.000754202 2.12703e-06 1.7724e-08
2.12703e-06 6.76293e-05 1.73262e-07
1.7724e-08 1.73262e-07 -2.51907e-05
0.000688306 4.48469e-06 -1.64097e-06
4.48469e-06 3.19953e-05 -1.86714e-06
-1.64097e-06 -1.86714e-06 -6.30327e-05
0.000611611 -1.54485e-05 -6.85565e-07
-1.54485e-05 -1.40212e-05 -7.4278e-07
-6.85565e-07 -7.4278e-07 -0.000105562
0.000974121 8.2528e-05 -1.34957e-06
8.2528e-05 0.000206537 -4.94931e-07
-1.34957e-06 -4.94931e-07 9.7678e-05
0.000717318 -4.8597e-06 3.85611e-08
-4.8597e-06 3.58839e-05 -3.6036e-08
3.85611e-08 -3.6036e-08 -4.89115e-05
0.00072392 1.70225e-05 9.16861e-07
1.70225e-05 4.89195e-05 -4.56087e-07
9.16861e-07 -4.56087e-07 -4.87481e-05
0.000785518 3.14788e-05 -1.0362e-07
3.14788e-05 8.87208e-05 -4.18814e-08
-1.0362e-07 -4.18814e-08 -8.38793e-06
0.000887277 6.50854e-05 2.87897e-07
6.50854e-05 0.0001449 3.05042e-07
2.87897e-07 3.05042e-07 3.84802e-05
0.000928389 3.44571e-05 -6.66836e-07
3.44571e-05 0.000183239 1.41089e-07
-6.66836e-07 1.41089e-07 8.03592e-05
0.00209134 5.15738e-05 9.46139e-05
5.15738e-05 0.000719354 0.000138267
9.46139e-05 0.000138267 -0.000743078
0.00106595 5.2316e-05 8.63421e-06
5.2316e-05 0.000260527 3.4031e-05
8.63421e-06 3.4031e-05 -0.000906273
0.00261361 -5.11487e-06 -1.56199e-05
-5.11487e-06 0.000983048 -1.90455e-05
-1.56199e-05 -1.90455e-05 0.000368515
0.00686148 -0.000584966 -4.52907e-05
-0.000584966 0.000877589 -6.74192e-05
-4.52907e-05 -6.74192e-05 0.00222037
-0.0101539 0.000356769 -5.36411e-05
0.000356769 -0.00352593 0.000139125
-5.36411e-05 0.000139125 -0.00509027
0.00499189 -0.000825183 -8.91397e-05
-0.000825183 0.0016425 5.09166e-05
-8.91397e-05 5.09166e-05 0.000847645
0.00899409 -0.00042968 -2.85666e-05
-0.00042968 0.00350074 -3.1352e-05
-2.85666e-05 -3.1352e-05 0.000818409
0.00291873 -0.000155465 -3.40103e-05
-0.000155465 0.000317591 4.9061e-05
-3.40103e-05 4.9061e-05 -2.02105e-05
0.010717 -0.000182476 4.28551e-05
-0.000182476 0.00490823 -1.60951e-05
4.28551e-05 -1.60951e-05 0.0016572
0.00132011 -0.00052927 3.40146e-05
-0.00052927 -0.000239964 2.96293e-05
3.40146e-05 2.96293e-05 -0.000940994
0.00191254 -0.000757982 -7.36821e-05
-0.000757982 -0.00198208 -0.000160854
-7.36821e-05 -0.000160854 -0.000468389
0.00372653 0.000133156 -8.58369e-05
0.000133156 0.000583008 1.90148e-07
-8.58369e-05 1.90148e-07 0.000169127
0.00870627 0.000337035 -6.45414e-06
0.000337035 0.003664 2.98767e-05
-6.45414e-06 2.98767e-05 0.00120019
0.00871436 -0.00124446 -1.0366e-05
-0.00124446 0.00260158 -0.00011057
-1.0366e-05 -0.00011057 0.00269483
0.00461784 -0.00117399 3.44857e-05
-0.00117399 0.000631547 2.37544e-06
3.44857e-05 2.37544e-06 0.00223497
0.000424909 3.80648e-05 7.69668e-07
3.80648e-05 -4.9849e-05 7.52579e-07
7.69668e-07 7.52579e-07 -0.000128191
0.000928485 -6.45405e-06 -5.12817e-08
-6.45405e-06 0.000179745 8.21374e-07
-5.12817e-08 8.21374e-07 8.06646e-05
0.000753853 3.21882e-05 1.38576e-07
3.21882e-05 7.66439e-05 5.14273e-08
1.38576e-07 5.14273e-08 -3.77873e-05
0.000590984 2.98096e-05 -3.60272e-05
2.98096e-05 0.000293892 1.59225e-05
-3.60272e-05 1.59225e-05 -0.000193779
0.00101406 -6.64097e-05 -5.92949e-05
-6.64097e-05 0.000522319 -1.90354e-05
-5.92949e-05 -1.90354e-05 0.000487005
0.000579153 -6.47233e-06 5.32e-08
-6.47233e-06 -7.24258e-06 1.01506e-06
5.32e-08 1.01506e-06 -0.000118458
-8.19707e-05 2.22512e-05 1.62107e-07
2.22512e-05 -0.000283103 -2.87617e-06
1.62107e-07 -2.87617e-06 -0.000420707
0.00064478 5.93961e-05 -2.38227e-07
5.93961e-05 0.000105564 -2.32882e-06
-2.38227e-07 -2.32882e-06 -3.02832e-06
0.000467595 4.30026e-05 -3.63248e-06
4.30026e-05 0.00017641 4.86846e-06
-3.63248e-06 4.86846e-06 4.28805e-05
7.49822e-06 -3.60241e-06 7.32403e-05
-3.60241e-06 0.000641316 -3.67013e-05
7.32403e-05 -3.67013e-05 -0.000418816
-0.00170132 -4.65404e-06 -1.7776e-05
-4.65404e-06 -0.00101105 1.13349e-05
-1.7776e-05 1.13349e-05 -0.0011179
0.00159397 0.000175344 -1.12178e-05
0.000175344 0.000831145 -3.33554e-05
-1.12178e-05 -3.33554e-05 0.00018374
0.00171938 -3.2429e-06 6.53203e-05
-3.2429e-06 0.000515587 8.13715e-06
6.53203e-05 8.13715e-06 -0.000330564
0.00106432 -1.92993e-05 1.3968e-05
-1.92993e-05 0.000291865 4.37385e-06
1.3968e-05 4.37385e-06 1.59408e-05
0.00127359 -2.20161e-05 -3.45055e-06
-2.20161e-05 0.000162954 -1.58323e-06
-3.45055e-06 -1.58323e-06 2.32162e-05
-0.0022106 2.84836e-05 -3.39131e-06
2.84836e-05 -0.000749537 1.05928e-05
-3.39131e-06 1.05928e-05 -0.00122821
0.00288659 4.39533e-05 -1.02925e-05
4.39533e-05 0.000364457 -2.71318e-05
-1.02925e-05 -2.71318e-05 4.56525e-05
0.00141088 7.67564e-06 2.86889e-08
7.67564e-06 0.000380726 1.61153e-05
2.86889e-08 1.61153e-05 0.000133464
0.0149981 -0.000747326 0.000109829
-0.000747326 0.00663229 -1.30606e-05
0.000109829 -1.30606e-05 0.0035208
0.0072224 0.000888907 -5.07183e-05
0.000888907 0.00216918 -2.10242e-05
-5.07183e-05 -2.10242e-05 0.00194131
0.00341219 -0.000157578 -4.71678e-05
-0.000157578 0.00106985 8.68205e-05
-4.71678e-05 8.68205e-05 -0.000444284
-0.00638514 0.00128696 0.000260365
0.00128696 -0.00370067 -0.000215203
0.000260365 -0.000215203 -0.00171016
0.000604268 -5.84265e-05 -3.87257e-06
-5.84265e-05 0.000336198 -1.86438e-07
-3.87257e-06 -1.86438e-07 0.000175296
0.00155561 -4.39957e-05 -1.03364e-05
-4.39957e-05 0.000270246 4.06935e-06
-1.03364e-05 4.06935e-06 -0.000626093
-0.00234453 0.000239496 -0.000173085
0.000239496 0.000582017 7.67302e-05
-0.000173085 7.67302e-05 -3.88265e-05
0.00180425 -0.000288197 -1.93273e-05
-0.000288197 -3.79776e-05 2.90778e-05
-1.93273e-05 2.90778e-05 -0.000313996
0.0082734 0.00130292 3.98349e-05
0.00130292 0.00277139 4.10631e-05
3.98349e-05 4.10631e-05 0.00336301
0.00735201 -0.00070364 6.25022e-05
-0.00070364 0.00306636 -3.70043e-05
6.25022e-05 -3.70043e-05 0.000475564
0.00118485 -0.000215552 8.93189e-06
-0.000215552 0.00017435 2.41569e-05
8.93189e-06 2.41569e-05 0.000316606
-0.00256323 -7.60727e-05 3.0796e-05
-7.60727e-05 0.000489103 -9.70111e-06
3.0796e-05 -9.70111e-06 -0.000718113
0.00616717 0.00109338 -0.000165692
0.00109338 0.0030758 7.92626e-05
-0.000165692 7.92626e-05 0.00314468
0.00268074 -0.000302746 -0.000129029
-0.000302746 0.000368042 8.9959e-05
-0.000129029 8.9959e-05 -0.00229866
0.00266421 -0.000745048 4.6575e-05
-0.000745048 0.000338517 -1.07955e-05
4.6575e-05 -1.07955e-05 -0.000178233
-0.000281529 -9.65599e-05 -8.76789e-07
-9.65599e-05 -1.97126e-05 1.17031e-05
-8.76789e-07 1.17031e-05 -0.000225729
0.000418407 -0.000192595 -3.0683e-06
-0.000192595 0.000100626 2.37757e-06
-3.0683e-06 2.37757e-06 -8.25327e-05
0.00396417 -0.000467068 2.99957e-05
-0.000467068 0.00150778 2.91097e-06
2.99957e-05 2.91097e-06 0.00144352
-0.00194727 -9.32164e-06 -5.97252e-06
-9.32164e-06 -0.00110753 7.63296e-06
-5.97252e-06 7.63296e-06 -0.00137173
0.000683671 -0.000241967 3.18306e-06
-0.000241967 -3.96812e-05 -1.85846e-07
3.18306e-06 -1.85846e-07 -0.000294307
0.00131837 -0.00035647 5.745e-06
-0.00035647 -1.10628e-05 1.16817e-06
5.745e-06 1.16817e-06 -0.000205061
0.00227062 -0.00031094 -8.02026e-06
-0.00031094 0.000894366 2.0129e-06
-8.02026e-06 2.0129e-06 0.000596645
0.00123992 -0.000287886 -3.21481e-06
-0.000287886 0.000162025 -2.52868e-06
-3.21481e-06 -2.52868e-06 -0.000122537
0.0018752 -0.000377142 4.97942e-06
-0.000377142 0.000283714 -1.40621e-06
4.97942e-06 -1.40621e-06 7.49572e-05
0.00176075 -0.000304022 -3.47132e-06
-0.000304022 0.000467964 -8.10388e-07
-3.47132e-06 -8.10388e-07 0.000191728
0.00151859 -0.000304949 -1.73007e-07
-0.000304949 0.000199138 -2.95279e-06
-1.73007e-07 -2.95279e-06 -5.78065e-05
0.00178172 -0.000319227 1.14131e-06
-0.000319227 0.000204048 -4.7931e-06
1.14131e-06 -4.7931e-06 1.01425e-05
0.00156692 -0.000252699 -2.80875e-07
-0.000252699 9.834e-05 -3.19266e-06
-2.80875e-07 -3.19266e-06 -7.27019e-05
0.00153679 -0.000276166 6.3257e-07
-0.000276166 0.000160757 -1.1274e-06
6.3257e-07 -1.1274e-06 -5.94876e-05
0.00158449 -0.000285138 1.11328e-06
-0.000285138 0.000162538 -8.16582e-07
1.11328e-06 -8.16582e-07 -4.85712e-05
0.00184157 -0.000283465 -1.79363e-06
-0.000283465 0.000453582 5.78731e-06
-1.79363e-06 5.78731e-06 0.000244383
0.00175184 -0.000299139 1.23236e-07
-0.000299139 0.000363156 3.07708e-07
1.23236e-07 3.07708e-07 0.000123342
0.0018912 -0.000321335 -1.49664e-06
-0.000321335 0.000408348 -3.02638e-06
-1.49664e-06 -3.02638e-06 0.000147541
0.00101932 -0.000186771 2.63868e-06
-0.000186771 0.000164207 -8.06512e-07
2.63868e-06 -8.06512e-07 -7.23834e-06
0.00058303 -0.000163209 -9.96165e-07
-0.000163209 -0.000114694 -2.12924e-06
-9.96165e-07 -2.12924e-06 -0.000280161
0.00139125 -0.000232708 4.58363e-06
-0.000232708 0.000315059 -5.81193e-06
4.58363e-06 -5.81193e-06 0.000132348
0.000853113 -0.000111539 3.2046e-07
-0.000111539 0.000130947 9.12209e-07
3.2046e-07 9.12209e-07 -1.12154e-05
0.000892874 -0.000154715 1.17574e-07
-0.000154715 0.00014915 3.71657e-07
1.17574e-07 3.71657e-07 -1.65541e-05
0.000872483 -0.000167082 -1.44827e-06
-0.000167082 0.000111513 1.37849e-06
-1.44827e-06 1.37849e-06 -5.36519e-05
0.000574796 6.04509e-05 1.3325e-06
6.04509e-05 -1.67849e-05 3.57596e-06
1.3325e-06 3.57596e-06 -9.92912e-05
0.000795845 -3.72898e-05 4.44877e-07
-3.72898e-05 0.000124672 4.25704e-08
4.44877e-07 4.25704e-08 -4.79956e-07
0.000886847 -9.94677e-05 -1.43211e-06
-9.94677e-05 0.000188366 4.86942e-07
-1.43211e-06 4.86942e-07 4.41462e-05
0.00132847 8.5241e-05 -1.38749e-05
8.5241e-05 0.000411162 3.49153e-06
-1.38749e-05 3.49153e-06 0.000387416
0.000656118 3.47524e-05 -5.49098e-07
3.47524e-05 1.6602e-05 -5.38035e-07
-5.49098e-07 -5.38035e-07 -4.66672e-05
0.000807537 -2.92787e-05 -4.92116e-07
-2.92787e-05 0.000120909 -1.81092e-06
-4.92116e-07 -1.81092e-06 1.88651e-05
0.000773085 4.45277e-05 -2.57039e-05
4.45277e-05 8.63319e-05 3.35749e-06
-2.57039e-05 3.35749e-06 8.80519e-05
0.000992715 6.86873e-05 -7.30705e-06
6.86873e-05 0.000206219 1.89326e-07
-7.30705e-06 1.89326e-07 0.000185804
0.000688338 3.50546e-05 7.09798e-07
3.50546e-05 2.52352e-05 -2.16683e-06
7.09798e-07 -2.16683e-06 -2.75588e-05
0.000619427 5.27428e-05 6.3456e-07
5.27428e-05 -1.86156e-05 -3.93389e-06
6.3456e-07 -3.93389e-06 -3.72311e-05
0.00226622 8.0469e-05 2.01656e-06
8.0469e-05 0.000938543 1.75809e-07
2.01656e-06 1.75809e-07 0.000947316
0.00225529 7.07735e-05 2.34081e-05
7.07735e-05 0.000924932 -3.57745e-06
2.34081e-05 -3.57745e-06 0.000935928
0.000708272 1.4624e-05 -2.31695e-07
1.4624e-05 4.2368e-05 -8.55149e-07
-2.31695e-07 -8.55149e-07 -5.18315e-05
0.000792368 4.12372e-05 -3.82853e-07
4.12372e-05 9.58663e-05 -1.55861e-06
-3.82853e-07 -1.55861e-06 4.56046e-06
0.000735713 9.84278e-06 9.1135e-08
9.84278e-06 5.78617e-05 -8.07919e-09
9.1135e-08 -8.07919e-09 -3.3372e-05
0.000685231 -1.58672e-05 -1.12618e-06
-1.58672e-05 9.33516e-06 -2.40705e-06
-1.12618e-06 -2.40705e-06 -4.6032e-05
0.000757962 3.26603e-05 6.74723e-07
3.26603e-05 6.95059e-05 -3.65619e-10
6.74723e-07 -3.65619e-10 -1.41044e-05
0.000602168 -3.94928e-05 -1.87595e-07
-3.94928e-05 -4.14915e-05 -4.4893e-06
-1.87595e-07 -4.4893e-06 -6.08519e-05
0.000680139 -1.03285e-06 -1.51936e-07
-1.03285e-06 5.76594e-06 -3.20081e-08
-1.51936e-07 -3.20081e-08 -4.70029e-05
0.000772502 5.35989e-05 7.37796e-07
5.35989e-05 9.02194e-05 1.27947e-06
7.37796e-07 1.27947e-06 -3.16337e-08
0.00241099 -5.92774e-05 -2.33666e-05
-5.92774e-05 0.00100266 -4.34331e-06
-2.33666e-05 -4.34331e-06 0.00101525
0.000618936 -3.14273e-05 -3.41437e-07
-3.14273e-05 -3.82153e-05 -2.20767e-08
-3.41437e-07 -2.20767e-08 -5.40101e-05
0.000682404 3.42099e-06 5.51427e-07
3.42099e-06 7.55748e-06 2.35406e-06
5.51427e-07 2.35406e-06 -4.18534e-05
0.00229317 -4.62448e-05 -3.15889e-06
-4.62448e-05 0.000928772 1.4286e-07
-3.15889e-06 1.4286e-07 0.000944065
0.000632381 -2.42207e-05 1.81846e-07
-2.42207e-05 -3.51806e-05 3.98134e-06
1.81846e-07 3.98134e-06 -4.76059e-05
0.00219892 -3.29968e-05 1.32102e-05
-3.29968e-05 0.000869715 4.61616e-06
1.32102e-05 4.61616e-06 0.000887306
0.00257107 -2.44794e-05 6.40155e-05
-2.44794e-05 0.000862522 3.64425e-05
6.40155e-05 3.64425e-05 9.37083e-05
0.00097682 -5.46272e-05 5.47386e-07
-5.46272e-05 0.000184876 1.00284e-05
5.47386e-07 1.00284e-05 -0.00011605
0.00137544 -3.52495e-05 -1.40233e-05
-3.52495e-05 3.22097e-05 -7.59685e-06
-1.40233e-05 -7.59685e-06 -5.61152e-05
0.000814717 7.90177e-05 -2.76019e-06
7.90177e-05 0.000114062 -5.76762e-07
-2.76019e-06 -5.76762e-07 7.49113e-06
0.000826312 2.75237e-05 4.27229e-07
2.75237e-05 0.000107913 2.8927e-07
4.27229e-07 2.8927e-07 1.67991e-05
0.000677957 -4.5234e-06 6.56248e-07
-4.5234e-06 2.41359e-05 6.31387e-07
6.56248e-07 6.31387e-07 -6.79122e-05
0.000820443 1.52458e-06 4.2114e-08
1.52458e-06 0.000100283 -1.09055e-07
4.2114e-08 -1.09055e-07 1.01949e-05
0.00087817 3.74651e-05 -8.97706e-08
3.74651e-05 0.000141958 -2.30461e-07
-8.97706e-08 -2.30461e-07 4.34191e-05
0.000819771 6.18718e-05 4.44718e-07
6.18718e-05 0.000117209 7.71954e-07
4.44718e-07 7.71954e-07 1.18164e-05
0.000813601 4.88102e-05 -1.48092e-06
4.88102e-05 0.000113473 -2.27849e-06
-1.48092e-06 -2.27849e-06 2.76927e-06
0.000470133 -6.63259e-06 -5.44053e-07
-6.63259e-06 -8.51318e-05 -6.37726e-07
-5.44053e-07 -6.37726e-07 -0.000183775
0.000829672 8.55692e-05 3.93129e-07
8.55692e-05 0.000118205 -3.0234e-07
3.93129e-07 -3.0234e-07 1.66691e-05
0.000769694 -1.43541e-05 1.42661e-06
-1.43541e-05 6.00792e-05 1.55001e-08
1.42661e-06 1.55001e-08 -3.1853e-05
0.000820572 3.15159e-05 -3.16956e-07
3.15159e-05 0.000117209 9.37939e-08
-3.16956e-07 9.37939e-08 1.81117e-05
0.00132166 6.92775e-05 4.59831e-06
6.92775e-05 0.000437906 3.75717e-06
4.59831e-06 3.75717e-06 0.000343154
0.00115488 -0.000471416 6.21953e-05
-0.000471416 0.00154373 0.000105131
6.21953e-05 0.000105131 0.00089935
0.00252789 8.39521e-05 8.11998e-06
8.39521e-05 0.000951201 3.58844e-05
8.11998e-06 3.58844e-05 -0.000561765
0.00140077 6.96236e-05 -8.37664e-06
6.96236e-05 0.000352801 -4.3498e-05
-8.37664e-06 -4.3498e-05 -0.000848924
0.00636932 -0.000998484 -0.000126946
-0.000998484 0.000417499 -0.000107458
-0.000126946 -0.000107458 0.00195495
0.00433009 -0.000288643 6.86229e-06
-0.000288643 0.000543152 0.000104896
6.86229e-06 0.000104896 -9.89412e-05
0.000503994 -0.00050275 -9.25674e-05
-0.00050275 0.000518749 8.47353e-05
-9.25674e-05 8.47353e-05 -0.00259873
0.00262668 -0.000181025 -5.73661e-05
-0.000181025 0.000409371 8.1762e-05
-5.73661e-05 8.1762e-05 -9.9614e-05
0.00395802 -8.35412e-05 1.24693e-05
-8.35412e-05 0.000726989 4.09891e-05
1.24693e-05 4.09891e-05 0.000504438
-0.000831569 -0.00117546 3.64553e-05
-0.00117546 -0.00150837 5.14631e-05
3.64553e-05 5.14631e-05 0.000256383
0.00543706 0.00043371 4.38421e-06
0.00043371 0.00287262 4.12571e-06
4.38421e-06 4.12571e-06 -0.000324551
0.00149454 -0.000641207 -1.54897e-05
-0.000641207 -0.00130726 2.31996e-05
-1.54897e-05 2.31996e-05 -0.00113534
0.00168172 0.00030218 -1.9053e-05
0.00030218 -0.000202883 1.0362e-05
-1.9053e-05 1.0362e-05 -0.000396536
0.00803792 0.000133333 -3.57135e-05
0.000133333 0.00398236 2.38188e-05
-3.57135e-05 2.38188e-05 0.00144588
0.000444811 -0.000971672 -7.41366e-05
-0.000971672 -0.00075232 -8.42373e-05
-7.41366e-05 -8.42373e-05 -0.000229848
0.000487008 0.00018966 5.53396e-07
0.00018966 -4.3765e-05 -4.77152e-06
5.53396e-07 -4.77152e-06 -0.000130244
0.000820941 5.24848e-05 6.23352e-06
5.24848e-05 0.000164583 -1.22662e-07
6.23352e-06 -1.22662e-07 8.66317e-05
0.00104958 1.7498e-05 -3.56473e-07
1.7498e-05 0.000251097 9.6846e-07
-3.56473e-07 9.6846e-07 0.000151299
5.46712e-05 2.17452e-06 -0.000126764
2.17452e-06 0.000572998 -2.79444e-05
-0.000126764 -2.79444e-05 -0.000439913
-0.00108995 7.17583e-05 7.82835e-06
7.17583e-05 -0.000668875 -8.95938e-06
7.82835e-06 -8.95938e-06 -0.000805627
0.000931648 9.50072e-05 3.11301e-06
9.50072e-05 0.000271986 -3.30794e-06
3.11301e-06 -3.30794e-06 0.00015529
0.00077635 0.000174921 6.195e-06
0.000174921 0.000269972 2.77324e-06
6.195e-06 2.77324e-06 0.000150011
0.000764155 0.000200771 -4.60375e-06
0.000200771 0.000368021 -2.73487e-05
-4.60375e-06 -2.73487e-05 -0.000162691
0.000177753 0.000320573 1.59942e-05
0.000320573 -0.00028593 2.10086e-06
1.59942e-05 2.10086e-06 -0.000511553
0.000332518 6.70959e-05 0.000113495
6.70959e-05 0.00211729 6.72341e-06
0.000113495 6.72341e-06 0.000962375
0.00162588 -2.28426e-05 -6.05111e-06
-2.28426e-05 0.000529419 1.01588e-05
-6.05111e-06 1.01588e-05 -0.000187378
0.00077588 -1.73829e-05 2.75187e-06
-1.73829e-05 0.00014202 3.63548e-06
2.75187e-06 3.63548e-06 -0.000104584
0.00137875 -9.06436e-05 -3.84338e-05
-9.06436e-05 0.000820377 7.37328e-06
-3.84338e-05 7.37328e-06 0.000664095
0.000864558 -0.00015508 -2.21433e-05
-0.00015508 -0.000908492 -1.46765e-05
-2.21433e-05 -1.46765e-05 -0.000841874
0.00173598 -4.17191e-05 -8.0367e-05
-4.17191e-05 0.000405301 2.57799e-05
-8.0367e-05 2.57799e-05 -0.000510929
-0.00112608 -0.000781034 5.16855e-05
-0.000781034 -0.000531172 -5.52143e-05
5.16855e-05 -5.52143e-05 -0.00348527
-0.00342775 0.000812901 6.75672e-05
0.000812901 -0.00355019 -8.26475e-05
6.75672e-05 -8.26475e-05 -0.00279254
0.00151629 0.000485791 -0.000101579
0.000485791 0.0020283 9.71648e-05
-0.000101579 9.71648e-05 0.0018266
0.00199089 -9.97157e-05 -2.16499e-06
-9.97157e-05 0.000390135 1.55395e-06
-2.16499e-06 1.55395e-06 0.000672416
0.00150336 0.000153033 1.07465e-05
0.000153033 0.00219668 8.25413e-06
1.07465e-05 8.25413e-06 0.00149824
-0.00369744 0.000597655 3.18028e-05
0.000597655 -0.00118844 4.61546e-06
3.18028e-05 4.61546e-06 -0.00189366
0.00384756 -0.00080837 7.05912e-06
-0.00080837 0.00123122 -1.16265e-06
7.05912e-06 -1.16265e-06 0.000304818
0.00953624 -9.84129e-05 2.98834e-06
-9.84129e-05 0.00359182 -5.75174e-06
2.98834e-06 -5.75174e-06 0.00177767
0.00139358 -0.000331327 3.13447e-06
-0.000331327 0.000118929 1.99464e-05
3.13447e-06 1.99464e-05 0.000218005
-0.00691386 0.000234099 -0.000128268
0.000234099 -0.00335814 -9.76011e-07
-0.000128268 -9.76011e-07 -0.00377691
0.00874657 -1.21199e-05 -3.68496e-05
-1.21199e-05 0.00278615 1.82704e-05
-3.68496e-05 1.82704e-05 0.00131666
0.00503926 -0.000906235 -2.58728e-06
-0.000906235 0.000608573 3.42839e-06
-2.58728e-06 3.42839e-06 -0.000213927
0.000385676 -0.000171059 -2.03785e-05
-0.000171059 0.000118747 1.45183e-05
-2.03785e-05 1.45183e-05 -0.000113183
0.00164455 -0.00032179 -2.7814e-06
-0.00032179 0.000247354 9.32751e-07
-2.7814e-06 9.32751e-07 0.00025495
0.00257065 -0.000364067 1.64063e-05
-0.000364067 0.000524356 -1.63976e-06
1.64063e-05 -1.63976e-06 0.000536637
-0.000808035 -0.000117067 -5.58652e-06
-0.000117067 -0.000773188 5.24811e-07
-5.58652e-06 5.24811e-07 -0.00103941
0.00134913 -0.000354464 -3.22146e-06
-0.000354464 2.4056e-05 -7.32394e-07
-3.22146e-06 -7.32394e-07 -0.000178705
0.00210306 -0.000414835 1.40188e-06
-0.000414835 0.000265385 1.39745e-06
1.40188e-06 1.39745e-06 0.000105963
0.00155382 -0.000308211 -8.64228e-06
-0.000308211 0.000317152 -2.63437e-06
-8.64228e-06 -2.63437e-06 4.53302e-05
0.00149445 -0.000347315 1.0527e-06
-0.000347315 9.61048e-05 8.35783e-07
1.0527e-06 8.35783e-07 -0.000114365
0.00204366 -0.000344138 -1.88726e-06
-0.000344138 0.000261151 -3.43825e-06
-1.88726e-06 -3.43825e-06 0.000104345
0.00122917 -0.000282829 -6.17227e-06
-0.000282829 3.1303e-05 -9.32801e-08
-6.17227e-06 -9.32801e-08 -0.000217061
0.00165054 -0.000307964 -4.45105e-07
-0.000307964 0.000130514 4.22007e-07
-4.45105e-07 4.22007e-07 -6.14533e-05
0.00178912 -0.000271978 -7.50517e-07
-0.000271978 0.000135553 -4.92153e-06
-7.50517e-07 -4.92153e-06 -3.32291e-06
0.001579 -0.000214649 -1.76597e-06
-0.000214649 5.05242e-05 -3.29586e-06
-1.76597e-06 -3.29586e-06 -8.39667e-05
0.00155171 -0.000240267 -4.43837e-07
-0.000240267 0.000122344 -2.4839e-06
-4.43837e-07 -2.4839e-06 -6.10285e-05
0.00151511 -0.000244955 3.92092e-07
-0.000244955 6.89584e-05 1.51399e-06
3.92092e-07 1.51399e-06 -9.972e-05
0.00143829 -0.000253564 -3.3004e-06
-0.000253564 0.000129573 1.07088e-06
-3.3004e-06 1.07088e-06 -7.4004e-05
0.00153047 -0.000271889 2.41262e-06
-0.000271889 0.00016084 -8.22401e-07
2.41262e-06 -8.22401e-07 -5.53243e-05
0.00155702 -0.000283227 1.05487e-06
-0.000283227 0.000146093 2.41307e-06
1.05487e-06 2.41307e-06 -6.3653e-05
0.00114284 -0.000210615 1.31355e-06
-0.000210615 0.000144799 3.62772e-06
1.31355e-06 3.62772e-06 -4.30234e-05
0.00109587 -0.000227284 2.59061e-06
-0.000227284 4.74372e-05 -9.88039e-07
2.59061e-06 -9.88039e-07 -0.000155283
0.000776247 -0.000227018 -9.75118e-07
-0.000227018 -0.000172978 -4.69055e-06
-9.75118e-07 -4.69055e-06 -0.000411435
0.000907319 -0.000157382 -1.20684e-06
-0.000157382 0.000111829 4.7083e-07
-1.20684e-06 4.7083e-07 -4.11967e-05
0.00109182 -0.000191384 -1.55536e-07
-0.000191384 0.000199726 -1.34673e-06
-1.55536e-07 -1.34673e-06 2.8181e-05
0.000810724 -0.00017798 -2.20947e-06
-0.00017798 1.85316e-05 -5.20419e-06
-2.20947e-06 -5.20419e-06 -0.000144344
0.00070998 -3.30413e-05 -1.96717e-07
-3.30413e-05 4.71281e-05 3.86017e-06
-1.96717e-07 3.86017e-06 -5.42415e-05
0.000921858 -0.000115943 8.50961e-07
-0.000115943 0.000168275 4.34212e-07
8.50961e-07 4.34212e-07 2.5411e-05
0.000648029 -0.000124807 -1.85511e-06
-0.000124807 1.11442e-05 1.48146e-06
-1.85511e-06 1.48146e-06 -0.000149184
0.000485619 7.57276e-05 1.94217e-06
7.57276e-05 -6.11023e-05 5.90639e-06
1.94217e-06 5.90639e-06 -9.84593e-05
0.000683427 -1.69182e-06 -5.40832e-07
-1.69182e-06 3.99482e-05 -4.40645e-07
-5.40832e-07 -4.40645e-07 -4.34368e-05
0.000879212 -6.69472e-05 -1.47259e-09
-6.69472e-05 0.000173925 -1.65349e-06
-1.47259e-09 -1.65349e-06 4.39499e-05
0.00236851 0.000111029 -8.98986e-06
0.000111029 0.00101443 1.35394e-06
-8.98986e-06 1.35394e-06 0.00101504
0.000589515 7.11956e-05 -1.10814e-07
7.11956e-05 -1.21996e-05 -1.35106e-07
-1.10814e-07 -1.35106e-07 -4.10197e-05
0.000706973 1.42461e-05 1.44296e-06
1.42461e-05 4.28158e-05 -2.94195e-06
1.44296e-06 -2.94195e-06 -2.01639e-05
0.0023073 9.03232e-05 2.07934e-06
9.03232e-05 0.000969947 1.76763e-07
2.07934e-06 1.76763e-07 0.000976281
0.000620179 6.28322e-05 -2.95847e-07
6.28322e-05 -6.41061e-06 -4.29857e-06
-2.95847e-07 -4.29857e-06 -2.94021e-05
0.00230611 8.19955e-05 2.75023e-05
8.19955e-05 0.000962311 -3.19518e-06
2.75023e-05 -3.19518e-06 0.000970722
0.000875344 7.55429e-05 -6.62042e-07
7.55429e-05 0.000140802 1.71692e-07
-6.62042e-07 1.71692e-07 3.64187e-05
0.000771983 2.75606e-05 -1.0077e-07
2.75606e-05 7.95713e-05 -2.83082e-07
-1.0077e-07 -2.83082e-07 -1.65336e-05
0.000786562 2.1293e-05 -2.31487e-07
2.1293e-05 9.87123e-05 -1.95699e-06
-2.31487e-07 -1.95699e-06 -4.33759e-07
0.00068511 -2.09642e-05 -1.20775e-06
-2.09642e-05 1.31225e-05 -2.79848e-06
-1.20775e-06 -2.79848e-06 -4.55125e-05
0.000742666 1.34616e-05 6.10253e-07
1.34616e-05 6.50226e-05 4.2462e-08
6.10253e-07 4.2462e-08 -2.34022e-05
0.000699458 1.98102e-05 9.55392e-07
1.98102e-05 4.19396e-05 7.71024e-07
9.55392e-07 7.71024e-07 -5.27935e-05
0.000595277 -4.83294e-05 -1.02162e-07
-4.83294e-05 -3.79397e-05 -4.76976e-06
-1.02162e-07 -4.76976e-06 -6.06473e-05
0.000675233 -9.07277e-06 -1.20688e-07
-9.07277e-06 4.41425e-06 -4.29913e-08
-1.20688e-07 -4.29913e-08 -5.11313e-05
0.000745339 2.86958e-05 1.37312e-06
2.86958e-05 5.98267e-05 1.14879e-06
1.37312e-06 1.14879e-06 -2.15642e-05
0.00249503 -7.08088e-05 -2.89858e-05
-7.08088e-05 0.00105716 -4.03765e-06
-2.89858e-05 -4.03765e-06 0.00106738
0.000603655 -3.79182e-05 -3.25377e-07
-3.79182e-05 -4.1108e-05 -4.38293e-10
-3.25377e-07 -4.38293e-10 -6.02e-05
0.000681648 1.05009e-06 9.69096e-07
1.05009e-06 7.19436e-06 2.36984e-06
9.69096e-07 2.36984e-06 -4.56761e-05
0.0023813 -5.8308e-05 -3.47206e-06
-5.8308e-05 0.00098487 1.83849e-07
-3.47206e-06 1.83849e-07 0.000997802
0.000619924 -3.06925e-05 1.16426e-07
-3.06925e-05 -3.77642e-05 4.22436e-06
1.16426e-07 4.22436e-06 -5.34175e-05
0.00226942 -4.50191e-05 1.73896e-05
-4.50191e-05 0.000914421 4.51225e-06
1.73896e-05 4.51225e-06 0.000930078
-0.00349428 -3.19421e-05 1.27921e-05
-3.19421e-05 0.000181046 3.87859e-05
1.27921e-05 3.87859e-05 -0.00120665
0.00249696 -5.43182e-05 1.16395e-06
-5.43182e-05 0.000895423 1.21596e-05
1.16395e-06 1.21596e-05 0.000134989
0.00109809 -5.31782e-05 -3.30521e-06
-5.31782e-05 0.000230616 -9.00665e-06
-3.30521e-06 -9.00665e-06 -3.13552e-05
0.000693915 4.24914e-05 -6.40033e-07
4.24914e-05 4.22977e-05 4.67678e-07
-6.40033e-07 4.67678e-07 -5.90151e-05
0.00130791 0.000179721 -7.7173e-07
0.000179721 0.000404445 6.81337e-07
-7.7173e-07 6.81337e-07 0.000272007
0.00073776 4.29806e-05 -1.98386e-06
4.29806e-05 7.49498e-05 -2.61817e-07
-1.98386e-06 -2.61817e-07 -3.5614e-05
0.000951745 -2.36214e-06 6.08748e-07
-2.36214e-06 0.000172323 -6.68828e-08
6.08748e-07 -6.68828e-08 8.35629e-05
0.00103694 7.09881e-05 1.60291e-06
7.09881e-05 0.000231159 5.16314e-07
1.60291e-06 5.16314e-07 0.000131312
0.000613526 1.39074e-05 2.76528e-07
1.39074e-05 -7.6154e-06 2.13832e-06
2.76528e-07 2.13832e-06 -0.000103991
0.000669506 2.59772e-05 -1.08318e-06
2.59772e-05 3.45486e-05 1.06337e-07
-1.08318e-06 1.06337e-07 -7.22135e-05
0.000773518 3.44464e-05 -1.13081e-07
3.44464e-05 8.89778e-05 -3.27354e-07
-1.13081e-07 -3.27354e-07 -1.92319e-05
0.00092204 7.43134e-05 4.06133e-07
7.43134e-05 0.000196399 -1.86368e-06
4.06133e-07 -1.86368e-06 6.64557e-05
0.000571628 0.000120029 3.57646e-06
0.000120029 -5.50303e-05 -6.11715e-06
3.57646e-06 -6.11715e-06 -0.000150225
0.000799542 5.22332e-05 3.66585e-07
5.22332e-05 0.0001084 -5.10642e-07
3.66585e-07 -5.10642e-07 4.31493e-06
0.000873493 7.13116e-05 7.11829e-07
7.13116e-05 0.000185706 1.57865e-06
7.11829e-07 1.57865e-06 8.76386e-05
-0.00518314 -0.000544022 -0.000185636
-0.000544022 -0.0018062 2.23459e-05
-0.000185636 2.23459e-05 -0.00238774
-0.001768 -0.000400622 8.3266e-05
-0.000400622 0.000468401 3.66481e-05
8.3266e-05 3.66481e-05 -0.0003805
0.00292669 9.4061e-05 -7.93085e-05
9.4061e-05 0.00113808 -6.58124e-05
-7.93085e-05 -6.58124e-05 -0.000427736
-0.0066445 -0.00120816 0.000191804
-0.00120816 -0.00362341 0.000188232
0.000191804 0.000188232 -0.00172957
0.00866785 -0.000877671 -3.84873e-05
-0.000877671 0.00260103 4.58939e-05
-3.84873e-05 4.58939e-05 0.0026879
2.98757e-05 0.000663632 1.17919e-05
0.000663632 -0.000145462 -2.88503e-05
1.17919e-05 -2.88503e-05 -0.00317679
0.00380292 -7.13074e-05 -0.000141946
-7.13074e-05 0.000898882 6.22333e-05
-0.000141946 6.22333e-05 0.000189444
0.00285819 0.000235572 -2.29303e-05
0.000235572 0.00051979 1.2191e-05
-2.29303e-05 1.2191e-05 0.000202992
0.00684887 -0.00105853 -7.01551e-05
-0.00105853 0.00331892 3.77862e-05
-7.01551e-05 3.77862e-05 0.00354296
0.00105236 0.000418889 7.11278e-06
0.000418889 0.000713611 -4.86307e-06
7.11278e-06 -4.86307e-06 -0.00182321
0.00221592 0.000525007 -9.28139e-05
0.000525007 0.000645763 -7.07658e-05
-9.28139e-05 -7.07658e-05 3.13114e-05
0.00375749 0.000837889 -0.000165954
0.000837889 0.000699482 -7.70994e-05
-0.000165954 -7.70994e-05 -0.0013847
0.00203247 0.000453227 1.22953e-05
0.000453227 0.00049384 -1.66012e-05
1.22953e-05 -1.66012e-05 0.000311725
0.000740281 0.000193587 -5.04398e-06
0.000193587 8.99879e-05 1.3612e-06
-5.04398e-06 1.3612e-06 4.15396e-06
0.00105871 5.58964e-05 5.36545e-07
5.58964e-05 0.000290396 -2.26795e-06
5.36545e-07 -2.26795e-06 0.000213094
-0.000500364 0.000154909 -3.28113e-05
0.000154909 -0.000197108 -3.0511e-05
-3.28113e-05 -3.0511e-05 -0.000626218
0.00224552 0.00027565 -9.53609e-06
0.00027565 0.00101067 -9.48755e-06
-9.53609e-06 -9.48755e-06 0.000879917
0.00117776 0.000404525 9.83499e-06
0.000404525 0.000126525 -2.88654e-06
9.83499e-06 -2.88654e-06 -9.80023e-05
0.00272777 0.000624144 7.71988e-05
0.000624144 0.00028961 3.11458e-05
7.71988e-05 3.11458e-05 0.000247078
-0.00410779 -3.30035e-05 -0.000208942
-3.30035e-05 -0.00245206 -7.63353e-06
-0.000208942 -7.63353e-06 -0.0018863
-0.00134469 3.83899e-05 7.09502e-05
3.83899e-05 0.00137141 1.30389e-06
7.09502e-05 1.30389e-06 8.06249e-05
0.00163651 -4.86861e-05 -5.72648e-05
-4.86861e-05 0.000561449 1.13998e-05
-5.72648e-05 1.13998e-05 -2.29924e-05
0.00274249 -0.000205973 -5.2906e-05
-0.000205973 0.000705334 -2.99625e-05
-5.2906e-05 -2.99625e-05 0.000974118
0.00277785 -0.000775241 -3.92256e-05
-0.000775241 0.000448845 4.26141e-07
-3.92256e-05 4.26141e-07 -0.00027785
0.00191122 0.000106102 -2.76924e-05
0.000106102 0.00242464 2.89059e-05
-2.76924e-05 2.89059e-05 0.001792
0.000473819 -0.000402212 0.000105645
-0.000402212 -0.000391933 -8.94297e-05
0.000105645 -8.94297e-05 -0.00274801
0.00883402 0.000659188 7.89693e-06
0.000659188 0.00430121 8.40233e-06
7.89693e-06 8.40233e-06 0.00398755
0.0022093 -0.000472719 -1.2793e-05
-0.000472719 0.00042723 4.7206e-06
-1.2793e-05 4.7206e-06 0.000403619
-0.00109618 0.000367343 2.17935e-05
0.000367343 -0.000502546 -7.86594e-06
2.17935e-05 -7.86594e-06 -0.000833259
0.00379565 -3.8135e-05 -2.61226e-05
-3.8135e-05 0.000256937 3.72027e-05
-2.61226e-05 3.72027e-05 -0.00169427
0.00582272 -0.000893996 -3.00189e-05
-0.000893996 0.001428 1.09617e-05
-3.00189e-05 1.09617e-05 0.000605878
-0.000584087 -0.000212653 2.80779e-05
-0.000212653 -0.000838067 -6.97811e-06
2.80779e-05 -6.97811e-06 -0.00107171
0.0084025 -0.000279107 3.71454e-05
-0.000279107 0.00216455 -2.3211e-05
3.71454e-05 -2.3211e-05 0.00101591
0.00364782 -0.000390268 4.13519e-05
-0.000390268 0.000227323 -2.45898e-05
4.13519e-05 -2.45898e-05 -0.000218833
-0.000677536 -0.000181064 -2.11911e-05
-0.000181064 -0.00101812 6.33641e-06
-2.11911e-05 6.33641e-06 -0.000937196
0.000947889 -0.000283111 -4.40669e-06
-0.000283111 -0.000341694 -8.29794e-07
-4.40669e-06 -8.29794e-07 -0.000301247
0.00255131 -0.000379644 1.68577e-05
-0.000379644 0.000359289 -1.40579e-05
1.68577e-05 -1.40579e-05 0.000378182
0.00101631 -0.000326575 -1.02042e-05
-0.000326575 -0.000125213 -3.43933e-06
-1.02042e-05 -3.43933e-06 -0.000330589
0.0016633 -0.000382891 -8.14124e-07
-0.000382891 3.89333e-05 -2.753e-07
-8.14124e-07 -2.753e-07 -0.000111175
0.00207612 -0.000351776 -5.74662e-06
-0.000351776 0.000161243 -1.26184e-08
-5.74662e-06 -1.26184e-08 5.88081e-05
0.00131222 -0.000331188 -2.89215e-07
-0.000331188 1.33036e-05 1.10723e-06
-2.89215e-07 1.10723e-06 -0.000198478
0.00176875 -0.000327122 -2.34893e-06
-0.000327122 0.000116903 -5.63649e-07
-2.34893e-06 -5.63649e-07 -3.92325e-05
0.00182447 -0.000268562 -3.62306e-06
-0.000268562 6.06953e-05 -1.22526e-06
-3.62306e-06 -1.22526e-06 -4.36824e-05
0.00152067 -0.000296627 8.24773e-07
-0.000296627 5.8349e-05 4.0581e-06
8.24773e-07 4.0581e-06 -0.000131684
0.0017086 -0.000263253 -1.50488e-07
-0.000263253 9.59788e-05 3.15247e-07
-1.50488e-07 3.15247e-07 -4.11375e-05
0.00177783 -0.000222718 -1.13341e-06
-0.000222718 0.000102273 -1.95125e-06
-1.13341e-06 -1.95125e-06 4.19519e-07
0.00178944 -0.000200836 -8.26391e-07
-0.000200836 0.000161308 -1.08894e-06
-8.26391e-07 -1.08894e-06 4.96819e-05
0.00158921 -0.000212535 -2.38592e-06
-0.000212535 5.68169e-05 2.64409e-06
-2.38592e-06 2.64409e-06 -7.38947e-05
0.00171639 -0.000214365 3.61944e-07
-0.000214365 0.000168777 -5.36376e-06
3.61944e-07 -5.36376e-06 2.09149e-05
0.00164799 -0.000235954 -3.30948e-06
-0.000235954 0.000198502 -1.4336e-06
-3.30948e-06 -1.4336e-06 1.73879e-05
0.00158656 -0.000242012 1.33384e-06
-0.000242012 0.00014022 4.53039e-07
1.33384e-06 4.53039e-07 -4.30868e-05
0.00146383 -0.000236975 1.49273e-07
-0.000236975 3.97451e-05 6.12069e-06
1.49273e-07 6.12069e-06 -0.000126516
0.00112066 -0.000211621 -5.31233e-06
-0.000211621 1.62964e-05 2.83818e-06
-5.31233e-06 2.83818e-06 -0.000171876
0.00124892 -0.000237976 8.64648e-07
-0.000237976 2.81006e-05 -3.011e-07
8.64648e-07 -3.011e-07 -0.000172333
0.00152262 -0.000267748 3.54905e-06
-0.000267748 0.000159591 -5.37534e-07
3.54905e-06 -5.37534e-07 -5.25264e-05
0.00107354 -0.000182513 -1.44465e-06
-0.000182513 0.000152203 2.74963e-06
-1.44465e-06 2.74963e-06 -1.66294e-05
0.00124044 -0.000215944 8.67557e-07
-0.000215944 0.000194705 5.45665e-07
8.67557e-07 5.45665e-07 6.80094e-06
0.000365825 -0.00017225 -2.95339e-07
-0.00017225 -0.000349554 -6.05737e-06
-2.95339e-07 -6.05737e-06 -0.000545039
0.000749096 -9.47493e-05 -3.96042e-06
-9.47493e-05 4.53466e-05 3.27319e-06
-3.96042e-06 3.27319e-06 -7.07641e-05
0.00104328 -0.000169288 4.28116e-08
-0.000169288 0.00018564 -6.30591e-07
4.28116e-08 -6.30591e-07 3.09229e-05
0.00114959 -0.000194943 -1.50489e-06
-0.000194943 0.000227465 -2.43363e-06
-1.50489e-06 -2.43363e-06 5.58811e-05
0.000477147 4.28397e-05 5.61959e-07
4.28397e-05 -7.46327e-05 7.68515e-06
5.61959e-07 7.68515e-06 -0.000117743
0.000746004 -5.28467e-05 3.7631e-07
-5.28467e-05 6.9817e-05 3.28824e-07
3.7631e-07 3.28824e-07 -3.60067e-05
0.00101934 -0.000125424 8.76564e-07
-0.000125424 0.000223409 -5.72831e-08
8.76564e-07 -5.72831e-08 7.77177e-05
0.00260153 0.000115832 -4.01917e-05
0.000115832 0.00115162 2.31527e-06
-4.01917e-05 2.31527e-06 0.00115115
0.000564965 6.29718e-05 -1.1607e-07
6.29718e-05 -2.08999e-05 -3.9244e-07
-1.1607e-07 -3.9244e-07 -5.60423e-05
0.000777016 -4.32861e-05 2.56112e-06
-4.32861e-05 9.10487e-05 -3.95759e-06
2.56112e-06 -3.95759e-06 5.57988e-06
0.00165177 8.31892e-05 1.72142e-05
8.31892e-05 0.000599925 -2.1492e-07
1.72142e-05 -2.1492e-07 0.000599608
0.000625317 6.899e-05 -1.32072e-06
6.899e-05 7.76976e-06 -5.21162e-06
-1.32072e-06 -5.21162e-06 -2.07654e-05
0.00238932 9.28486e-05 3.31567e-05
9.28486e-05 0.00101766 -2.74731e-06
3.31567e-05 -2.74731e-06 0.00102346
0.000897626 9.00307e-05 9.07238e-07
9.00307e-05 0.000147093 5.4837e-07
9.07238e-07 5.4837e-07 3.78892e-05
0.000722114 3.54068e-05 -2.38899e-07
3.54068e-05 4.84427e-05 4.87282e-07
-2.38899e-07 4.87282e-07 -4.86064e-05
0.000731249 -5.10682e-06 2.55322e-08
-5.10682e-06 6.22549e-05 -1.69324e-06
2.55322e-08 -1.69324e-06 -3.63007e-05
0.000872056 4.90833e-05 6.7811e-07
4.90833e-05 0.000137836 6.38618e-07
6.7811e-07 6.38618e-07 3.90949e-05
0.000739167 -2.97715e-06 2.81815e-07
-2.97715e-06 6.11018e-05 1.09833e-09
2.81815e-07 1.09833e-09 -2.94983e-05
0.000678031 -2.16098e-05 -1.24012e-06
-2.16098e-05 1.37137e-05 -3.22591e-06
-1.24012e-06 -3.22591e-06 -4.96241e-05
0.000592019 -5.64282e-05 1.32823e-07
-5.64282e-05 -3.08566e-05 -5.19041e-06
1.32823e-07 -5.19041e-06 -5.67289e-05
0.000669542 -1.75025e-05 1.82138e-07
-1.75025e-05 4.90116e-06 -8.77138e-08
1.82138e-07 -8.77138e-08 -5.37855e-05
0.000697537 -1.79349e-05 1.59823e-07
-1.79349e-05 2.85489e-05 1.34073e-06
1.59823e-07 1.34073e-06 -5.12867e-05
0.00254781 -8.16315e-05 -3.45444e-05
-8.16315e-05 0.00109416 -3.62803e-06
-3.45444e-05 -3.62803e-06 0.00110222
0.000590503 -4.47258e-05 -3.26777e-07
-4.47258e-05 -4.15292e-05 3.91463e-08
-3.26777e-07 3.91463e-08 -6.36452e-05
0.000673096 -1.47755e-06 1.75332e-06
-1.47755e-06 4.10495e-06 2.48841e-06
1.75332e-06 2.48841e-06 -5.17532e-05
0.00247235 -7.00855e-05 -3.39316e-06
-7.00855e-05 0.00104348 2.13319e-07
-3.39316e-06 2.13319e-07 0.00105392
0.00060623 -3.6828e-05 3.60919e-07
-3.6828e-05 -3.98557e-05 4.44893e-06
3.60919e-07 4.44893e-06 -5.87824e-05
0.00235781 -5.7354e-05 2.1432e-05
-5.7354e-05 0.000970578 4.36464e-06
2.1432e-05 4.36464e-06 0.000983834
0.000642504 0.000240028 -5.6203e-05
0.000240028 0.00112401 5.06692e-05
-5.6203e-05 5.06692e-05 0.000352012
-0.00116661 -0.000115427 4.95999e-06
-0.000115427 0.00101808 1.14021e-05
4.95999e-06 1.14021e-05 -0.000289045
0.00246917 -7.60321e-05 -5.60891e-05
-7.60321e-05 0.00100238 -1.08922e-05
-5.60891e-05 -1.08922e-05 0.000253106
0.000625093 1.25027e-05 1.51009e-06
1.25027e-05 1.45984e-06 -2.807e-08
1.51009e-06 -2.807e-08 -9.58624e-05
0.000713385 2.10686e-05 7.47415e-07
2.10686e-05 5.93407e-05 6.33447e-07
7.47415e-07 6.33447e-07 -4.98693e-05
0.00105395 0.000154389 -7.17362e-07
0.000154389 0.000267014 4.6751e-07
-7.17362e-07 4.6751e-07 0.000139671
0.00130382 0.00020486 9.22913e-07
0.00020486 0.000365648 -4.54792e-07
9.22913e-07 -4.54792e-07 0.000212123
0.00092516 0.000113873 -3.58413e-06
0.000113873 0.000207928 -1.5431e-06
-3.58413e-06 -1.5431e-06 7.20506e-05
0.000866349 7.33444e-05 1.56744e-06
7.33444e-05 0.000145317 1.60324e-06
1.56744e-06 1.60324e-06 3.64319e-05
0.000760365 4.13291e-05 1.91433e-06
4.13291e-05 8.20936e-05 1.64555e-06
1.91433e-06 1.64555e-06 -2.58832e-05
0.000708014 8.95935e-05 -1.96845e-06
8.95935e-05 7.58107e-05 -1.91378e-06
-1.96845e-06 -1.91378e-06 -4.8355e-05
-0.000396733 6.90488e-05 -7.9322e-07
6.90488e-05 -0.000564886 -1.3583e-07
-7.9322e-07 -1.3583e-07 -0.000700078
0.0011158 0.000185729 3.92599e-07
0.000185729 0.000211428 -4.3479e-06
3.92599e-07 -4.3479e-06 9.98607e-05
0.00225404 0.000404684 3.50508e-06
0.000404684 0.000542544 -1.25174e-05
3.50508e-06 -1.25174e-05 0.0003612
0.000621172 0.000124845 -3.48232e-06
0.000124845 -3.22434e-06 -4.58931e-07
-3.48232e-06 -4.58931e-07 -9.82603e-05
0.000662348 2.46195e-05 8.46085e-07
2.46195e-05 4.48428e-05 -1.16438e-06
8.46085e-07 -1.16438e-06 -4.5437e-05
0.0116469 0.000291366 -6.84493e-05
0.000291366 0.00363939 1.76246e-05
-6.84493e-05 1.76246e-05 0.0023358
-0.00134172 -0.000451384 -0.000102292
-0.000451384 0.000403397 -2.58901e-05
-0.000102292 -2.58901e-05 -0.000359918
-9.94461e-05 -0.000542309 1.9851e-05
-0.000542309 0.000761697 -3.02503e-05
1.9851e-05 -3.02503e-05 -0.000129967
-0.00368175 -0.000481731 4.69682e-06
-0.000481731 -0.00156263 7.05562e-05
4.69682e-06 7.05562e-05 -0.00138949
0.0095891 0.000260333 4.53798e-05
0.000260333 0.00470535 -1.11516e-05
4.53798e-05 -1.11516e-05 0.00172968
0.00176901 0.000284663 -3.62471e-05
0.000284663 0.000122196 -5.23109e-06
-3.62471e-05 -5.23109e-06 -8.60209e-05
0.00146994 0.000495797 -3.267e-05
0.000495797 0.000159252 -1.31285e-05
-3.267e-05 -1.31285e-05 -0.000334041
0.00849232 0.000187089 3.82048e-05
0.000187089 0.00296787 1.50131e-05
3.82048e-05 1.50131e-05 0.00126532
0.00479041 0.000849867 -7.07997e-07
0.000849867 0.000814712 -3.19419e-05
-7.07997e-07 -3.19419e-05 0.000229372
0.00204337 0.000512745 1.71543e-06
0.000512745 0.000292914 7.22428e-06
1.71543e-06 7.22428e-06 0.000129953
0.000935512 0.000334958 4.33568e-06
0.000334958 2.60837e-05 -3.86056e-06
4.33568e-06 -3.86056e-06 -0.000153387
0.0010066 0.000190432 -1.45542e-05
0.000190432 0.000240899 9.73349e-06
-1.45542e-05 9.73349e-06 0.000157973
0.00200064 0.000488032 -2.77682e-05
0.000488032 0.000422319 -1.4071e-05
-2.77682e-05 -1.4071e-05 0.000214941
0.00220774 0.000588236 -1.11991e-05
0.000588236 4.93333e-05 1.47608e-05
-1.11991e-05 1.47608e-05 -2.87257e-05
0.000420621 -0.000227667 -2.16367e-05
-0.000227667 -0.00235406 -7.33636e-06
-2.16367e-05 -7.33636e-06 -0.00280463
0.00235283 -0.000212357 7.92494e-07
-0.000212357 0.00137304 -1.15438e-05
7.92494e-07 -1.15438e-05 0.00133918
-0.00312877 5.75195e-06 6.61903e-05
5.75195e-06 0.000644545 -6.36369e-06
6.61903e-05 -6.36369e-06 -0.000812796
0.0025173 -0.000550677 -4.58996e-05
-0.000550677 0.000517189 4.21022e-06
-4.58996e-05 4.21022e-06 0.000424858
0.00367367 -0.000813495 1.26101e-05
-0.000813495 0.000871637 -1.45599e-05
1.26101e-05 -1.45599e-05 -0.000277545
0.00116517 -0.000209829 9.96887e-05
-0.000209829 0.00122962 1.59712e-05
9.96887e-05 1.59712e-05 0.000699495
0.0102947 7.92619e-06 -8.19935e-05
7.92619e-06 0.00368599 4.26095e-05
-8.19935e-05 4.26095e-05 0.00196283
0.000692701 -0.00027891 -1.54825e-05
-0.00027891 -0.00029382 -1.5993e-06
-1.54825e-05 -1.5993e-06 -0.000423013
0.00737681 6.41715e-05 -1.30026e-05
6.41715e-05 0.00159375 2.35301e-05
-1.30026e-05 2.35301e-05 0.00066277
0.00443182 -0.000482882 5.98197e-05
-0.000482882 0.000364418 -3.82923e-07
5.98197e-05 -3.82923e-07 -0.000338012
0.00160768 -0.00026901 2.46879e-05
-0.00026901 0.00017862 -6.43403e-06
2.46879e-05 -6.43403e-06 -9.40817e-05
0.00308154 -0.000141381 -7.33074e-05
-0.000141381 0.000334944 -1.19548e-05
-7.33074e-05 -1.19548e-05 6.25509e-05
-0.00072958 -0.000196643 -1.88472e-05
-0.000196643 -0.00124709 4.58596e-06
-1.88472e-05 4.58596e-06 -0.00117192
0.00153343 -0.000335781 6.89679e-07
-0.000335781 -0.000162918 -8.55115e-07
6.89679e-07 -8.55115e-07 -0.00014997
0.00195994 -0.000258519 6.59313e-06
-0.000258519 -2.24099e-05 -5.60434e-06
6.59313e-06 -5.60434e-06 5.53695e-06
0.00142473 -0.000365735 -9.42933e-07
-0.000365735 -8.07197e-05 2.04442e-08
-9.42933e-07 2.04442e-08 -0.000225627
0.00179981 -0.000325741 -1.48251e-06
-0.000325741 3.59712e-05 -1.18939e-07
-1.48251e-06 -1.18939e-07 -6.39791e-05
0.002017 -0.000242545 -2.28636e-06
-0.000242545 8.15522e-05 1.49607e-06
-2.28636e-06 1.49607e-06 3.30847e-05
0.0014628 -0.000306887 -1.95261e-06
-0.000306887 -4.29385e-05 2.66818e-06
-1.95261e-06 2.66818e-06 -0.000198067
0.00181845 -0.000266556 4.9659e-07
-0.000266556 5.84441e-05 1.26126e-06
4.9659e-07 1.26126e-06 -4.55026e-05
0.00177887 -0.000221247 -8.73144e-07
-0.000221247 3.99831e-05 9.35175e-07
-8.73144e-07 9.35175e-07 -3.95321e-05
0.00163003 -0.000255117 1.97366e-06
-0.000255117 5.68035e-05 4.83761e-06
1.97366e-06 4.83761e-06 -7.86644e-05
0.0017272 -0.000221862 6.51053e-08
-0.000221862 7.47317e-05 1.20524e-06
6.51053e-08 1.20524e-06 -2.79891e-05
0.0019467 -0.000213103 1.04295e-06
-0.000213103 0.000220019 -2.66465e-07
1.04295e-06 -2.66465e-07 0.000125644
0.00171906 -0.000200864 -3.64502e-06
-0.000200864 0.000115751 3.26535e-06
-3.64502e-06 3.26535e-06 6.73583e-06
0.00174888 -0.000200835 2.54763e-06
-0.000200835 0.000167147 -3.29952e-06
2.54763e-06 -3.29952e-06 4.14859e-05
0.00160038 -0.000211 3.17908e-07
-0.000211 6.33635e-05 7.44532e-06
3.17908e-07 7.44532e-06 -6.37048e-05
0.00171072 -0.000215056 8.07163e-07
-0.000215056 0.000166134 -8.56521e-07
8.07163e-07 -8.56521e-07 1.78113e-05
0.00163254 -0.000204289 -1.76337e-06
-0.000204289 0.00016442 -2.65913e-06
-1.76337e-06 -2.65913e-06 6.85061e-06
0.00135312 -0.000206317 -7.14435e-06
-0.000206317 8.14886e-05 2.63767e-07
-7.14435e-06 2.63767e-07 -9.06939e-05
0.00167531 -0.000238111 6.35351e-07
-0.000238111 0.00021579 -6.08237e-07
6.35351e-07 -6.08237e-07 3.37212e-05
0.00162431 -0.000244175 1.92986e-06
-0.000244175 0.000160272 3.59355e-06
1.92986e-06 3.59355e-06 -2.30136e-05
0.00130895 -0.000205836 -5.13878e-06
-0.000205836 0.000196852 3.41742e-06
-5.13878e-06 3.41742e-06 2.33708e-05
0.00120405 -0.000217191 -1.15061e-06
-0.000217191 6.21746e-05 1.03836e-06
-1.15061e-06 1.03836e-06 -0.000126486
0.00108821 -0.000224583 3.83338e-06
-0.000224583 -5.78714e-05 -1.44815e-06
3.83338e-06 -1.44815e-06 -0.00025549
0.000744905 -0.000115397 -4.64046e-06
-0.000115397 7.86042e-06 4.17184e-06
-4.64046e-06 4.17184e-06 -0.000118257
0.00110146 -0.000185121 7.03693e-07
-0.000185121 0.000164113 -9.72307e-08
7.03693e-07 -9.72307e-08 -4.83756e-06
0.00131886 -0.000220195 1.71594e-06
-0.000220195 0.000234477 -2.79755e-06
1.71594e-06 -2.79755e-06 4.64796e-05
0.000472155 -1.55192e-05 -6.51977e-06
-1.55192e-05 -9.71552e-05 8.82605e-06
-6.51977e-06 8.82605e-06 -0.000146058
0.000813569 -0.000106211 -1.27917e-07
-0.000106211 8.10599e-05 1.59214e-07
-1.27917e-07 1.59214e-07 -3.66144e-05
0.00111576 -0.000172014 1.10316e-06
-0.000172014 0.000223342 -1.60394e-06
1.10316e-06 -1.60394e-06 6.86744e-05
0.00303049 0.000135023 -5.18847e-05
0.000135023 0.00139942 2.22573e-06
-5.18847e-05 2.22573e-06 0.00139396
0.000566865 2.40113e-05 4.1134e-07
2.40113e-05 -2.84814e-05 -4.01746e-07
4.1134e-07 -4.01746e-07 -7.06725e-05
0.000817823 -9.33786e-05 3.67943e-06
-9.33786e-05 0.00010846 -3.23574e-06
3.67943e-06 -3.23574e-06 3.64368e-07
0.0027243 0.000116339 3.53076e-06
0.000116339 0.00122024 2.7829e-07
3.53076e-06 2.7829e-07 0.0012198
0.000644151 5.31419e-05 1.61261e-06
5.31419e-05 2.19998e-05 -6.31854e-06
1.61261e-06 -6.31854e-06 -1.28372e-05
0.00253763 0.000103086 4.21876e-05
0.000103086 0.00110833 -2.37172e-06
4.21876e-05 -2.37172e-06 0.00111163
0.000960248 0.000165343 9.77651e-07
0.000165343 0.000159873 -1.36566e-06
9.77651e-07 -1.36566e-06 1.76188e-05
0.000826494 0.000118117 6.80408e-07
0.000118117 0.000114006 -8.00671e-08
6.80408e-07 -8.00671e-08 -1.0768e-06
0.000613548 9.98049e-06 -7.56873e-07
9.98049e-06 -9.20313e-06 -8.78638e-07
-7.56873e-07 -8.78638e-07 -0.000114033
0.000559393 3.37563e-06 4.34988e-07
3.37563e-06 -4.48304e-05 6.6813e-07
4.34988e-07 6.6813e-07 -0.000138
0.000660492 -1.83724e-05 -7.93774e-08
-1.83724e-05 1.76342e-05 2.65748e-07
-7.93774e-08 2.65748e-07 -7.77364e-05
0.000662968 -2.03857e-05 -1.28918e-06
-2.03857e-05 9.58827e-06 -3.42394e-06
-1.28918e-06 -3.42394e-06 -6.15768e-05
0.000683361 -2.04282e-05 1.83992e-07
-2.04282e-05 2.41878e-05 1.66084e-06
1.83992e-07 1.66084e-06 -6.17121e-05
0.000653992 -2.59557e-05 3.39609e-07
-2.59557e-05 1.41357e-06 -1.91192e-07
3.39609e-07 -1.91192e-07 -6.21036e-05
0.000590279 -6.42552e-05 3.42958e-07
-6.42552e-05 -2.18993e-05 -5.68346e-06
3.42958e-07 -5.68346e-06 -5.13398e-05
0.00258274 -9.20991e-05 -3.94746e-05
-9.20991e-05 0.00112113 -3.13787e-06
-3.94746e-05 -3.13787e-06 0.0011271
0.000581293 -5.4842e-05 -6.81803e-08
-5.4842e-05 -3.77007e-05 4.03356e-08
-6.81803e-08 4.03356e-08 -6.31534e-05
0.000646248 -1.52628e-05 1.97395e-06
-1.52628e-05 -7.62694e-06 2.74917e-06
1.97395e-06 2.74917e-06 -6.6338e-05
0.00254115 -8.11938e-05 -3.14192e-06
-8.11938e-05 0.00108981 2.39598e-07
-3.14192e-06 2.39598e-07 0.0010979
0.00059028 -4.27466e-05 6.18813e-07
-4.27466e-05 -4.20959e-05 4.70297e-06
6.18813e-07 4.70297e-06 -6.39253e-05
0.00244337 -6.91646e-05 2.65444e-05
-6.91646e-05 0.00102608 4.15484e-06
2.65444e-05 4.15484e-06 0.00103679
0.00984672 0.000345616 0.000134073
0.000345616 0.00271608 5.89493e-05
0.000134073 5.89493e-05 0.00177241
-0.00231573 -0.000408239 -6.80085e-05
-0.000408239 -0.00148977 -6.48877e-06
-6.80085e-05 -6.48877e-06 -0.00161755
-0.00312132 6.25205e-05 -4.46859e-05
6.25205e-05 3.55751e-05 -2.29525e-05
-4.46859e-05 -2.29525e-05 -0.00154297
0.000683208 -6.19531e-06 3.42014e-06
-6.19531e-06 3.80518e-05 2.05271e-06
3.42014e-06 2.05271e-06 -6.83387e-05
0.000803214 0.000140252 -5.80286e-07
0.000140252 0.000130504 1.33569e-06
-5.80286e-07 1.33569e-06 7.8536e-06
0.00110211 0.000131069 4.70934e-07
0.000131069 0.000304919 2.56989e-09
4.70934e-07 2.56989e-09 0.000169008
0.00108348 0.000186168 -1.88953e-06
0.000186168 0.000244546 2.37625e-07
-1.88953e-06 2.37625e-07 9.49967e-05
0.0014687 0.000228853 1.5285e-05
0.000228853 0.000409083 -7.8703e-07
1.5285e-05 -7.8703e-07 0.000229119
0.000372627 0.000129837 -1.54708e-06
0.000129837 -0.000127249 -1.66687e-06
-1.54708e-06 -1.66687e-06 -0.000271829
0.000520706 9.34801e-05 -1.30764e-06
9.34801e-05 -2.33414e-05 -1.35528e-06
-1.30764e-06 -1.35528e-06 -0.000145948
0.000277455 0.000126976 3.23456e-07
0.000126976 -0.000198283 1.08599e-06
3.23456e-07 1.08599e-06 -0.000346404
0.00103274 0.000178344 -1.21329e-06
0.000178344 0.000172141 2.3574e-07
-1.21329e-06 2.3574e-07 5.62558e-05
0.000220111 0.000172297 2.22519e-06
0.000172297 -0.000372951 -1.0819e-06
2.22519e-06 -1.0819e-06 -0.000517933
0.00313351 0.000433006 -3.57342e-06
0.000433006 0.0010218 -4.29024e-06
-3.57342e-06 -4.29024e-06 0.000856557
0.00187228 0.000413099 -3.45119e-06
0.000413099 0.000220701 1.88474e-06
-3.45119e-06 1.88474e-06 5.67306e-05
0.00158494 0.0003557 4.41914e-06
0.0003557 0.000207394 -2.98506e-06
4.41914e-06 -2.98506e-06 4.03335e-05
0.000548842 0.000133092 -3.71684e-06
0.000133092 -2.33366e-05 5.52759e-06
-3.71684e-06 5.52759e-06 -0.000118809
0.00372476 0.000324348 -2.08212e-06
0.000324348 -3.02184e-05 1.17905e-05
-2.08212e-06 1.17905e-05 -0.000196695
0.00686147 0.000209342 3.29031e-05
0.000209342 0.00138386 2.74404e-05
3.29031e-05 2.74404e-05 2.74935e-05
0.00605814 -0.000909379 1.66326e-05
-0.000909379 0.003236 -5.22192e-05
1.66326e-05 -5.22192e-05 0.00296984
0.00498443 0.00062902 0.000303802
0.00062902 0.00116877 9.73639e-05
0.000303802 9.73639e-05 -0.00142377
0.0013299 0.000469216 2.49431e-05
0.000469216 -0.000143156 2.54112e-05
2.49431e-05 2.54112e-05 -0.000255519
0.00302179 0.000666523 -7.23732e-05
0.000666523 4.54455e-05 -2.34622e-05
-7.23732e-05 -2.34622e-05 -0.000314426
0.00317222 0.000578343 4.97138e-05
0.000578343 0.000536642 2.39361e-05
4.97138e-05 2.39361e-05 0.00055029
0.00256718 0.000546054 3.13702e-06
0.000546054 0.000512628 6.88348e-06
3.13702e-06 6.88348e-06 0.000368347
0.000679459 0.000295016 -3.51456e-06
0.000295016 -6.79588e-05 1.11127e-05
-3.51456e-06 1.11127e-05 -0.000238055
0.00272824 0.000644125 -8.95454e-05
0.000644125 0.000284911 -4.17602e-05
-8.95454e-05 -4.17602e-05 0.000162806
0.00326008 -0.000172741 -0.000119307
-0.000172741 0.000552137 4.62964e-06
-0.000119307 4.62964e-06 0.000200273
0.0094972 -0.000183492 4.54938e-06
-0.000183492 0.00297654 -3.69739e-06
4.54938e-06 -3.69739e-06 0.00231829
-0.0077998 -0.000276591 0.000223753
-0.000276591 -0.00416945 -1.46472e-06
0.000223753 -1.46472e-06 -0.00400088
0.00144452 -0.000334087 -3.37906e-05
-0.000334087 -6.22274e-06 8.89309e-06
-3.37906e-05 8.89309e-06 -8.50016e-05
0.0057368 -0.000557955 8.93187e-05
-0.000557955 0.00114845 1.21294e-05
8.93187e-05 1.21294e-05 0.00042948
0.00142949 -0.000388631 6.99045e-05
-0.000388631 -0.00144345 5.2772e-05
6.99045e-05 5.2772e-05 -0.00241054
0.00124045 -0.000221398 1.72409e-05
-0.000221398 -3.00745e-05 -7.86156e-07
1.72409e-05 -7.86156e-07 -0.000212599
0.00215881 -4.36055e-05 -3.95005e-06
-4.36055e-05 -0.000285154 6.44704e-06
-3.95005e-06 6.44704e-06 -0.000540028
0.00359691 -0.00023641 1.50284e-05
-0.00023641 0.000922054 -4.19294e-06
1.50284e-05 -4.19294e-06 0.000890278
0.00322201 -3.49351e-05 6.25785e-05
-3.49351e-05 0.000706722 -3.89096e-06
6.25785e-05 -3.89096e-06 0.000685822
0.000378993 -0.000289148 -8.14538e-06
-0.000289148 -0.000753644 4.41581e-06
-8.14538e-06 4.41581e-06 -0.000743838
0.00174652 -0.000259873 -6.2592e-07
-0.000259873 -0.000131306 1.04542e-06
-6.2592e-07 1.04542e-06 -0.000113382
0.00170787 -0.000151408 7.64685e-06
-0.000151408 -0.000130776 -7.70617e-07
7.64685e-06 -7.70617e-07 -9.88118e-05
0.00157205 -0.000304588 4.51769e-06
-0.000304588 -7.12452e-05 -7.49754e-07
4.51769e-06 -7.49754e-07 -0.000167708
0.00190585 -0.000239635 2.12802e-06
-0.000239635 3.06663e-05 8.92549e-07
2.12802e-06 8.92549e-07 -2.13742e-05
0.00186121 -0.000174949 7.04369e-07
-0.000174949 6.7659e-05 1.71935e-06
7.04369e-07 1.71935e-06 2.38765e-05
0.00178523 -0.000263912 7.14619e-06
-0.000263912 4.03582e-05 3.08804e-06
7.14619e-06 3.08804e-06 -6.31623e-05
0.00184315 -0.000221485 1.11754e-06
-0.000221485 8.29646e-05 4.33188e-07
1.11754e-06 4.33188e-07 3.34105e-06
0.00198506 -0.000187611 -5.00125e-07
-0.000187611 0.000215938 1.02474e-06
-5.00125e-07 1.02474e-06 0.000136333
0.00167761 -0.000220276 1.93545e-06
-0.000220276 4.8384e-05 3.82165e-06
1.93545e-06 3.82165e-06 -5.50741e-05
0.0017821 -0.000207635 -3.91051e-08
-0.000207635 0.000132568 5.22111e-07
-3.91051e-08 5.22111e-07 3.71298e-05
0.00164561 -0.000192794 4.19206e-06
-0.000192794 8.6509e-05 -1.88351e-06
4.19206e-06 -1.88351e-06 -2.4163e-05
0.00165085 -0.000201037 -3.60664e-06
-0.000201037 7.17403e-05 6.98164e-06
-3.60664e-06 6.98164e-06 -3.46906e-05
0.00180047 -0.000201613 -1.74981e-06
-0.000201613 0.000196088 -8.58579e-09
-1.74981e-06 -8.58579e-09 7.33782e-05
0.00170043 -0.000186694 7.53927e-07
-0.000186694 0.000188789 -1.63767e-06
7.53927e-07 -1.63767e-06 4.64968e-05
0.0017072 -0.000215626 1.31148e-06
-0.000215626 0.000164525 3.15985e-06
1.31148e-06 3.15985e-06 1.57842e-05
0.00167499 -0.000206433 8.13252e-07
-0.000206433 0.00018938 -7.21997e-07
8.13252e-07 -7.21997e-07 3.09585e-05
0.00160372 -0.00019198 -3.33801e-06
-0.00019198 0.000203672 -2.65567e-07
-3.33801e-06 -2.65567e-07 4.75002e-05
0.00104191 -0.000177238 -9.05133e-06
-0.000177238 -3.00292e-05 1.835e-06
-9.05133e-06 1.835e-06 -0.000189408
0.00153411 -0.000218011 -1.46004e-06
-0.000218011 0.000185416 1.91437e-08
-1.46004e-06 1.91437e-08 1.17244e-05
0.00170672 -0.000240315 4.14837e-06
-0.000240315 0.000235689 5.43512e-10
4.14837e-06 5.43512e-10 5.26425e-05
0.000921512 -0.000143448 -6.96271e-06
-0.000143448 4.91429e-05 5.84326e-06
-6.96271e-06 5.84326e-06 -8.62008e-05
0.00116429 -0.000194149 7.04562e-07
-0.000194149 0.000115171 1.06427e-06
7.04562e-07 1.06427e-06 -5.62481e-05
0.00131392 -0.000224491 2.90711e-06
-0.000224491 0.000122218 -4.56179e-07
2.90711e-06 -4.56179e-07 -6.70104e-05
0.000470772 -4.62746e-05 -9.96241e-06
-4.62746e-05 -0.000109693 1.00084e-05
-9.96241e-06 1.00084e-05 -0.00016867
0.000870617 -0.000128672 3.62625e-08
-0.000128672 7.91268e-05 -2.35135e-07
3.62625e-08 -2.35135e-07 -4.91344e-05
0.00112982 -0.000187799 3.12141e-06
-0.000187799 0.000176493 -2.99698e-06
3.12141e-06 -2.99698e-06 7.38137e-06
0.00359764 0.000146284 -7.92762e-05
0.000146284 0.00172313 2.51687e-06
-7.92762e-05 2.51687e-06 0.00171444
0.000599165 -2.27205e-05 4.26354e-07
-2.27205e-05 -2.72555e-05 -2.22295e-07
4.26354e-07 -2.22295e-07 -7.76096e-05
0.000902036 -0.00011711 5.07943e-06
-0.00011711 0.000129471 -3.5566e-06
5.07943e-06 -3.5566e-06 1.04041e-05
0.00320398 0.000124416 5.34981e-06
0.000124416 0.00149482 2.58857e-07
5.34981e-06 2.58857e-07 0.00149193
0.000665371 1.36541e-05 5.45536e-06
1.36541e-05 2.39488e-05 -7.409e-06
5.45536e-06 -7.409e-06 -1.77872e-05
0.00285776 0.000106819 6.48298e-05
0.000106819 0.00129339 -2.44217e-06
6.48298e-05 -2.44217e-06 0.00129545
0.00108861 0.000187325 -5.23378e-07
0.000187325 0.000196918 -5.10796e-06
-5.23378e-07 -5.10796e-06 2.99184e-05
0.00118055 0.000182705 5.25565e-07
0.000182705 0.000286289 2.07393e-07
5.25565e-07 2.07393e-07 0.00014171
0.00078978 0.000102954 -1.6032e-06
0.000102954 7.22764e-05 -2.24384e-06
-1.6032e-06 -2.24384e-06 -5.2403e-05
0.000729043 0.000134562 -1.1317e-07
0.000134562 6.66225e-05 3.9482e-07
-1.1317e-07 3.9482e-07 -5.34504e-05
0.000623732 2.89439e-05 -5.19226e-07
2.89439e-05 -3.20333e-06 -2.16049e-07
-5.19226e-07 -2.16049e-07 -0.000111272
0.000727265 3.65121e-05 -2.33878e-06
3.65121e-05 5.48277e-05 -3.08156e-06
-2.33878e-06 -3.08156e-06 -3.42369e-05
0.000595152 -3.30049e-05 2.9713e-07
-3.30049e-05 -2.11376e-05 1.54341e-06
2.9713e-07 1.54341e-06 -0.000115171
0.000654494 -2.23971e-05 3.27414e-07
-2.23971e-05 7.16645e-06 -3.06965e-07
3.27414e-07 -3.06965e-07 -6.48797e-05
0.000588992 -6.29834e-05 4.26494e-08
-6.29834e-05 -1.56485e-05 -6.24086e-06
4.26494e-08 -6.24086e-06 -4.86948e-05
0.000631011 -2.90358e-05 1.39715e-06
-2.90358e-05 -1.05547e-05 3.11057e-06
1.39715e-06 3.11057e-06 -7.41384e-05
0.000569904 -6.24289e-05 1.43084e-07
-6.24289e-05 -3.4652e-05 -2.39831e-08
1.43084e-07 -2.39831e-08 -6.35364e-05
0.00262639 -0.000101961 -4.51974e-05
-0.000101961 0.00115257 -2.61133e-06
-4.51974e-05 -2.61133e-06 0.0011565
0.002577 -9.16901e-05 -2.24238e-06
-9.16901e-05 0.00111737 2.31279e-07
-2.24238e-06 2.31279e-07 0.0011233
0.000572557 -5.00154e-05 9.67208e-07
-5.00154e-05 -4.42854e-05 5.01226e-06
9.67208e-07 5.01226e-06 -6.88191e-05
0.00251817 -8.04405e-05 3.19918e-05
-8.04405e-05 0.0010761 3.83991e-06
3.19918e-05 3.83991e-06 0.0010843
0.0029472 -1.27939e-05 -2.81609e-05
-1.27939e-05 -2.97868e-05 2.52168e-05
-2.81609e-05 2.52168e-05 -6.77324e-05
0.0016344 -0.000396878 3.31131e-05
-0.000396878 -0.00148764 1.54173e-05
3.31131e-05 1.54173e-05 -0.00246497
0.00481927 -0.000516542 -3.41684e-05
-0.000516542 0.00197061 -4.31239e-05
-3.41684e-05 -4.31239e-05 0.00210293
0.00173514 0.000263375 9.52758e-06
0.000263375 0.000426589 4.88152e-06
9.52758e-06 4.88152e-06 0.000231354
0.00129896 0.000152986 2.12141e-06
0.000152986 0.000414351 1.26291e-06
2.12141e-06 1.26291e-06 0.000277109
0.000910671 0.000171516 -1.42059e-06
0.000171516 0.000150786 2.20671e-06
-1.42059e-06 2.20671e-06 4.47702e-06
0.000709709 0.000159423 7.43228e-07
0.000159423 5.82323e-05 1.01803e-06
7.43228e-07 1.01803e-06 -9.27974e-05
0.00110751 0.000202215 -1.66953e-07
0.000202215 0.000210381 -3.08659e-06
-1.66953e-07 -3.08659e-06 3.17468e-05
0.000904781 0.000206801 7.18637e-07
0.000206801 2.27317e-05 -3.78067e-07
7.18637e-07 -3.78067e-07 -0.000131073
0.000889696 0.000180883 -1.57589e-06
0.000180883 0.000134144 -4.80256e-07
-1.57589e-06 -4.80256e-07 -2.64421e-05
0.00095641 0.000172178 -3.90942e-07
0.000172178 0.000135393 5.57527e-06
-3.90942e-07 5.57527e-06 1.54996e-05
0.00106748 0.000235461 8.31682e-07
0.000235461 8.80873e-05 -3.61325e-07
8.31682e-07 -3.61325e-07 -6.28983e-05
0.0023149 0.000374021 1.86961e-06
0.000374021 0.000583243 6.4659e-06
1.86961e-06 6.4659e-06 0.000422927
0.00170862 0.000366167 -2.01642e-06
0.000366167 0.000139902 -5.34238e-07
-2.01642e-06 -5.34238e-07 -3.0535e-05
0.00135684 0.000315081 8.9642e-06
0.000315081 -4.59102e-05 7.27598e-06
8.9642e-06 7.27598e-06 -0.000155197
0.00114552 0.000365984 -1.32258e-06
0.000365984 -0.000167193 -2.84265e-06
-1.32258e-06 -2.84265e-06 -0.000331122
0.000574758 0.000278099 1.44741e-06
0.000278099 -0.000307851 3.90562e-06
1.44741e-06 3.90562e-06 -0.000456305
0.000782614 0.000218603 1.50629e-05
0.000218603 -0.000293413 1.53764e-05
1.50629e-05 1.53764e-05 -0.000289453
0.00515845 0.000477395 -3.08768e-05
0.000477395 0.000520059 -1.71987e-06
-3.08768e-05 -1.71987e-06 0.000240568
0.00186031 3.08651e-05 0.000129187
3.08651e-05 -0.00107625 2.3701e-05
0.000129187 2.3701e-05 -0.00244339
0.0016401 0.000577921 3.61134e-05
0.000577921 -0.000573712 -2.12577e-06
3.61134e-05 -2.12577e-06 -0.00103608
0.00194221 0.000448857 -2.2382e-05
0.000448857 0.000161275 -2.22591e-06
-2.2382e-05 -2.22591e-06 0.000144989
0.00157264 0.000451728 -3.98919e-05
0.000451728 5.45097e-05 -2.31103e-05
-3.98919e-05 -2.31103e-05 -9.09384e-05
0.002368 -0.00014016 1.5154e-05
-0.00014016 0.000218192 3.16504e-07
1.5154e-05 3.16504e-07 0.000160773
0.00124393 2.47224e-06 -9.84688e-06
2.47224e-06 -0.000431782 3.36826e-06
-9.84688e-06 3.36826e-06 -0.000615277
0.000604262 0.000461349 7.22078e-05
0.000461349 -0.00222557 -2.2177e-05
7.22078e-05 -2.2177e-05 -0.00286983
0.000896842 -0.000162678 -9.7973e-06
-0.000162678 -0.000235803 2.03289e-05
-9.7973e-06 2.03289e-05 -0.000300689
0.0028946 -7.61025e-05 -9.38194e-06
-7.61025e-05 -6.04195e-05 2.94972e-05
-9.38194e-06 2.94972e-05 -0.000399568
0.00176197 -0.000161415 -5.31435e-06
-0.000161415 -2.04135e-05 1.96313e-06
-5.31435e-06 1.96313e-06 -1.91486e-05
0.00249958 -6.70608e-05 -5.73701e-06
-6.70608e-05 0.000314289 -2.1718e-06
-5.73701e-06 -2.1718e-06 0.000268448
0.00146096 -9.23322e-05 2.21313e-05
-9.23322e-05 -0.000242647 -1.16748e-06
2.21313e-05 -1.16748e-06 -0.000224504
0.00290462 -4.52991e-05 2.05585e-05
-4.52991e-05 0.000745994 3.73982e-07
2.05585e-05 3.73982e-07 0.00070352
0.00164484 -0.000266414 -7.9609e-06
-0.000266414 -0.000179876 4.23794e-06
-7.9609e-06 4.23794e-06 -0.000176995
0.00175809 -0.000160279 1.89472e-06
-0.000160279 -0.000115744 1.51991e-06
1.89472e-06 1.51991e-06 -9.25016e-05
0.00183284 -0.000169283 5.34895e-07
-0.000169283 6.91067e-06 4.90753e-07
5.34895e-07 4.90753e-07 4.69648e-07
0.00175154 -0.000234199 4.18293e-06
-0.000234199 -3.98331e-05 9.1593e-07
4.18293e-06 9.1593e-07 -9.619e-05
0.00180703 -0.000185576 5.42074e-07
-0.000185576 3.07614e-05 1.26326e-07
5.42074e-07 1.26326e-07 -1.81127e-05
0.00186864 -0.000174518 7.43728e-07
-0.000174518 0.000124466 1.30953e-06
7.43728e-07 1.30953e-06 5.8421e-05
0.00190635 -0.000222467 1.42302e-06
-0.000222467 0.000125189 1.06054e-06
1.42302e-06 1.06054e-06 4.52804e-05
0.00187364 -0.00019126 -1.01582e-06
-0.00019126 0.000152729 5.05327e-08
-1.01582e-06 5.05327e-08 7.13582e-05
0.00166578 -0.000171295 2.22301e-06
-0.000171295 7.68832e-05 -3.09745e-07
2.22301e-06 -3.09745e-07 -2.19905e-05
0.0016148 -0.000202391 -2.38206e-06
-0.000202391 4.33623e-05 1.67658e-06
-2.38206e-06 1.67658e-06 -5.31787e-05
0.00166214 -0.000193291 4.58881e-07
-0.000193291 9.93581e-05 -5.27556e-07
4.58881e-07 -5.27556e-07 -1.14171e-05
0.00160773 -0.000175412 1.81495e-06
-0.000175412 0.000109205 -1.47132e-06
1.81495e-06 -1.47132e-06 -2.25732e-05
0.00185347 -0.000202224 -4.95445e-06
-0.000202224 0.000225785 4.5863e-06
-4.95445e-06 4.5863e-06 0.000106056
0.00173237 -0.000186595 -5.98741e-07
-0.000186595 0.00020401 -8.313e-08
-5.98741e-07 -8.313e-08 6.39584e-05
0.00147999 -0.000163203 -2.44068e-06
-0.000163203 0.000120281 -3.67997e-08
-2.44068e-06 -3.67997e-08 -2.76617e-05
0.00171543 -0.000208551 3.05915e-06
-0.000208551 0.000213082 9.60809e-07
3.05915e-06 9.60809e-07 5.38127e-05
0.0015227 -0.000188343 7.47531e-07
-0.000188343 0.000156816 -6.1957e-07
7.47531e-07 -6.1957e-07 -3.2686e-07
0.00128211 -0.000165228 -6.84619e-06
-0.000165228 8.11706e-05 2.27497e-06
-6.84619e-06 2.27497e-06 -6.61573e-05
0.00101693 -0.000149376 -9.93461e-06
-0.000149376 4.28387e-05 4.94272e-06
-9.93461e-06 4.94272e-06 -8.87162e-05
0.00109977 -0.00017928 -2.10661e-06
-0.00017928 6.769e-06 3.78936e-07
-2.10661e-06 3.78936e-07 -0.000151937
0.00173065 -0.000230718 3.99314e-06
-0.000230718 0.000297757 -7.81632e-07
3.99314e-06 -7.81632e-07 0.000122472
0.000533953 -0.000123508 -1.58467e-05
-0.000123508 -9.06415e-05 1.16576e-05
-1.58467e-05 1.16576e-05 -0.000162855
0.000915425 -0.000145604 7.93169e-07
-0.000145604 4.74812e-05 5.41683e-07
7.93169e-07 5.41683e-07 -8.83485e-05
0.00102729 -0.000183329 6.07617e-06
-0.000183329 3.78515e-05 -1.31616e-06
6.07617e-06 -1.31616e-06 -0.000131675
0.00406147 0.000159637 -9.80507e-05
0.000159637 0.00199381 3.91564e-06
-9.80507e-05 3.91564e-06 0.00197978
0.00062282 -8.3302e-05 3.76508e-07
-8.3302e-05 -2.59113e-05 -1.6985e-07
3.76508e-07 -1.6985e-07 -8.90877e-05
0.000950526 -0.000139624 6.03733e-06
-0.000139624 0.000124626 -5.07449e-06
6.03733e-06 -5.07449e-06 -5.56185e-06
0.00371932 0.000129178 4.06891e-06
0.000129178 0.0017892 4.52042e-07
4.06891e-06 4.52042e-07 0.00178347
0.000714222 -4.03172e-05 9.94691e-06
-4.03172e-05 3.59787e-05 -8.81354e-06
9.94691e-06 -8.81354e-06 -1.62204e-05
0.00334886 0.000104324 9.21931e-05
0.000104324 0.00157273 -3.77955e-06
9.21931e-05 -3.77955e-06 0.00157354
0.00102326 0.000197011 -3.5018e-06
0.000197011 6.32091e-05 -9.50375e-07
-3.5018e-06 -9.50375e-07 -0.000120158
0.00106479 0.000185225 -1.45716e-08
0.000185225 0.000186367 -1.73706e-06
-1.45716e-08 -1.73706e-06 1.96901e-05
0.00112849 0.000171732 -1.18061e-06
0.000171732 0.000235097 -3.04723e-06
-1.18061e-06 -3.04723e-06 8.61183e-05
0.00138604 0.000198821 -4.88219e-07
0.000198821 0.000404106 6.78264e-07
-4.88219e-07 6.78264e-07 0.000257433
0.000870697 0.000112216 -1.19072e-06
0.000112216 0.000116937 -9.72907e-07
-1.19072e-06 -9.72907e-07 -7.85113e-06
0.000813783 7.01442e-05 -3.12646e-06
7.01442e-05 0.000101177 -2.60256e-06
-3.12646e-06 -2.60256e-06 -1.46608e-06
0.000643761 5.16887e-05 1.11123e-07
5.16887e-05 5.78014e-06 3.6618e-07
1.11123e-07 3.6618e-07 -0.000104035
0.000671513 -4.02376e-06 -4.10248e-07
-4.02376e-06 2.06674e-05 -7.33887e-08
-4.10248e-07 -7.33887e-08 -6.38599e-05
0.000587557 -5.04632e-05 -1.90826e-06
-5.04632e-05 -1.4993e-05 -6.60916e-06
-1.90826e-06 -6.60916e-06 -5.26917e-05
0.000614172 -3.73827e-05 1.02131e-06
-3.73827e-05 -1.34657e-05 3.41781e-06
1.02131e-06 3.41781e-06 -8.56054e-05
0.000555231 -6.6934e-05 4.0726e-07
-6.6934e-05 -3.4129e-05 -1.72326e-07
4.0726e-07 -1.72326e-07 -6.76079e-05
0.00273315 -0.000111169 -5.38407e-05
-0.000111169 0.00121893 -2.16514e-06
-5.38407e-05 -2.16514e-06 0.00122069
0.000554208 -6.17379e-05 3.64135e-07
-6.17379e-05 -4.44998e-05 5.43406e-06
3.64135e-07 5.43406e-06 -7.29632e-05
0.00261257 -0.000102087 -1.67779e-06
-0.000102087 0.00114447 2.11089e-07
-1.67779e-06 2.11089e-07 0.0011482
0.00257289 -9.10987e-05 3.76354e-05
-9.10987e-05 0.00111464 3.42111e-06
3.76354e-05 3.42111e-06 0.00112056
0.000518136 2.59434e-05 1.11099e-05
2.59434e-05 -0.000569125 7.81063e-06
1.11099e-05 7.81063e-06 -0.000571763
0.00415825 5.1225e-05 3.22252e-05
5.1225e-05 0.000409093 9.70297e-06
3.22252e-05 9.70297e-06 0.000166062
0.00865959 0.000418292 -8.6428e-05
0.000418292 0.00259305 -4.09023e-05
-8.6428e-05 -4.09023e-05 0.00150742
0.000485143 0.000176636 1.63977e-06
0.000176636 -0.000316618 1.82896e-06
1.63977e-06 1.82896e-06 -0.00047738
0.00149461 0.000253963 2.16759e-06
0.000253963 0.000120973 1.33192e-06
2.16759e-06 1.33192e-06 -4.43796e-05
0.00124307 0.000231811 -1.68894e-06
0.000231811 0.000150528 3.78315e-08
-1.68894e-06 3.78315e-08 -3.89812e-05
0.00101234 0.000185918 -6.80933e-07
0.000185918 0.000224522 9.64168e-07
-6.80933e-07 9.64168e-07 6.7532e-05
0.000724335 0.000173149 -1.27578e-06
0.000173149 -1.6272e-06 -1.57518e-07
-1.27578e-06 -1.57518e-07 -0.00017864
0.00127721 0.000239165 6.08418e-06
0.000239165 0.000214287 1.3922e-06
6.08418e-06 1.3922e-06 5.40463e-05
0.00254123 0.000389008 -9.62668e-06
0.000389008 0.000613298 -4.11507e-06
-9.62668e-06 -4.11507e-06 0.000444194
0.0018787 0.000296392 -1.05439e-06
0.000296392 0.000530544 2.08667e-06
-1.05439e-06 2.08667e-06 0.000373667
0.00131979 0.000303978 9.21222e-06
0.000303978 5.07522e-05 1.54004e-05
9.21222e-06 1.54004e-05 -0.000103817
0.00194175 0.000376203 -1.49646e-06
0.000376203 0.000273285 1.03869e-06
-1.49646e-06 1.03869e-06 0.000105226
0.00216631 0.000357673 -1.04003e-05
0.000357673 0.000300638 2.11409e-06
-1.04003e-05 2.11409e-06 0.000155951
0.000767605 0.00015023 1.5036e-05
0.00015023 -0.000427669 4.97668e-06
1.5036e-05 4.97668e-06 -0.000487745
0.00128322 0.000305098 8.47831e-06
0.000305098 -8.28906e-05 1.04857e-06
8.47831e-06 1.04857e-06 -0.000194947
0.00106119 0.000355623 -6.24489e-06
0.000355623 -0.000223898 -7.49408e-06
-6.24489e-06 -7.49408e-06 -0.000388868
0.00122502 0.000212308 -3.48931e-06
0.000212308 -7.74711e-05 3.53572e-06
-3.48931e-06 3.53572e-06 -8.48466e-05
0.00490183 0.000260418 3.817e-05
0.000260418 0.000310668 -5.10536e-06
3.817e-05 -5.10536e-06 -3.48495e-05
0.00161841 0.000377721 6.81755e-06
0.000377721 0.000205856 -1.75415e-05
6.81755e-06 -1.75415e-05 0.000184097
0.00136399 -3.55494e-05 2.18517e-05
-3.55494e-05 -5.70506e-05 3.16511e-06
2.18517e-05 3.16511e-06 -8.75417e-05
0.00202997 -7.08324e-05 -1.51092e-05
-7.08324e-05 9.16166e-05 -7.88183e-07
-1.51092e-05 -7.88183e-07 2.82044e-05
0.00150505 0.000136322 4.42717e-05
0.000136322 -0.000563388 -7.82291e-06
4.42717e-05 -7.82291e-06 -0.000818373
0.000606478 -0.000131934 -2.33891e-05
-0.000131934 -0.00060837 1.52156e-05
-2.33891e-05 1.52156e-05 -0.00058309
0.00254712 -0.000114891 -7.37858e-05
-0.000114891 0.00032286 4.2775e-06
-7.37858e-05 4.2775e-06 0.000275682
0.00166393 -0.000119421 1.11019e-06
-0.000119421 -0.000130249 -6.83522e-07
1.11019e-06 -6.83522e-07 -0.000104008
0.00226373 -5.43629e-05 -4.8403e-06
-5.43629e-05 0.000342873 4.99704e-07
-4.8403e-06 4.99704e-07 0.000297721
0.00195069 -0.000146426 4.99653e-06
-0.000146426 2.97277e-05 -5.94357e-09
4.99653e-06 -5.94357e-09 1.7589e-05
0.00204082 -2.64862e-05 4.42243e-06
-2.64862e-05 0.00012647 9.92862e-08
4.42243e-06 9.92862e-08 8.12576e-05
0.00186381 -0.000170575 -1.4453e-06
-0.000170575 -7.42361e-05 1.67863e-06
-1.4453e-06 1.67863e-06 -5.6189e-05
0.00183679 -0.000165656 -1.70038e-06
-0.000165656 1.25219e-05 -1.12266e-07
-1.70038e-06 -1.12266e-07 3.98251e-06
0.00192311 -0.000150481 1.35028e-07
-0.000150481 7.79741e-05 8.40267e-07
1.35028e-07 8.40267e-07 3.21183e-05
0.00179123 -0.00019644 -8.32047e-07
-0.00019644 1.45168e-05 -1.26024e-06
-8.32047e-07 -1.26024e-06 -3.90602e-05
0.00177496 -0.000171163 1.28034e-07
-0.000171163 7.49986e-05 -2.4666e-07
1.28034e-07 -2.4666e-07 6.08529e-06
0.00166693 -0.0001518 1.0936e-06
-0.0001518 3.5992e-05 4.18132e-07
1.0936e-06 4.18132e-07 -5.08683e-05
0.00176333 -0.00019417 -3.71461e-06
-0.00019417 9.05443e-05 -3.30805e-07
-3.71461e-06 -3.30805e-07 7.57134e-06
0.00168518 -0.000171611 2.07035e-07
-0.000171611 8.94684e-05 -2.53687e-07
2.07035e-07 -2.53687e-07 -9.3559e-06
0.00165401 -0.000159011 1.99465e-06
-0.000159011 0.000100687 -5.66166e-07
1.99465e-06 -5.66166e-07 -2.18234e-05
0.00168034 -0.000193825 -2.65347e-06
-0.000193825 0.000113088 7.61621e-07
-2.65347e-06 7.61621e-07 2.21036e-06
0.00162495 -0.000175359 -1.10303e-07
-0.000175359 0.000119077 -2.72968e-07
-1.10303e-07 -2.72968e-07 -1.24442e-05
0.00148895 -0.00015065 -1.48676e-06
-0.00015065 0.000110292 1.20189e-07
-1.48676e-06 1.20189e-07 -3.32871e-05
0.00176064 -0.000186464 -8.99422e-07
-0.000186464 0.000217176 2.33861e-06
-8.99422e-07 2.33861e-06 7.93573e-05
0.00148012 -0.000163693 -4.7758e-07
-0.000163693 0.000118612 -1.43009e-07
-4.7758e-07 -1.43009e-07 -2.89886e-05
0.00130581 -0.000147425 -6.55772e-06
-0.000147425 8.15555e-05 2.01441e-06
-6.55772e-06 2.01441e-06 -6.12874e-05
0.00144456 -0.000185037 4.95829e-06
-0.000185037 0.000111895 -6.95241e-07
4.95829e-06 -6.95241e-07 -4.63071e-05
0.00118527 -0.000160094 8.40834e-08
-0.000160094 2.69302e-05 -3.26113e-08
8.40834e-08 -3.26113e-08 -0.000120725
0.0010362 -0.000136262 -1.09307e-05
-0.000136262 2.4009e-05 4.70961e-06
-1.09307e-05 4.70961e-06 -9.92497e-05
0.00049111 -0.000141938 -1.86087e-05
-0.000141938 -0.000136116 1.15261e-05
-1.86087e-05 1.15261e-05 -0.000212378
0.000980979 -0.000147206 2.82485e-07
-0.000147206 2.36526e-05 1.87018e-07
2.82485e-07 1.87018e-07 -0.000107704
0.00116578 -0.000181862 4.75563e-06
-0.000181862 4.80804e-05 -1.22792e-06
4.75563e-06 -1.22792e-06 -0.000109992
0.00455502 0.000184153 -0.000104867
0.000184153 0.00228749 6.40353e-06
-0.000104867 6.40353e-06 0.00226413
0.00062186 -0.00011553 -5.25324e-07
-0.00011553 -4.34578e-05 3.92222e-07
-5.25324e-07 3.92222e-07 -0.000116743
0.000923413 -0.000149529 7.8968e-06
-0.000149529 5.47846e-05 -4.4373e-06
7.8968e-06 -4.4373e-06 -8.17759e-05
0.00423508 0.000146785 7.98685e-06
0.000146785 0.00209057 7.94922e-07
7.98685e-06 7.94922e-07 0.0020779
0.000780379 -8.57129e-05 1.35457e-05
-8.57129e-05 5.76521e-05 -1.077e-05
1.35457e-05 -1.077e-05 -6.61181e-06
0.00385335 0.000113408 0.000109449
0.000113408 0.00186182 -4.82928e-06
0.000109449 -4.82928e-06 0.00185834
0.00104485 0.000201731 -4.3562e-06
0.000201731 -5.18899e-05 1.7325e-06
-4.3562e-06 1.7325e-06 -0.000224653
0.000877874 0.000187678 -1.256e-06
0.000187678 -2.15926e-05 1.97048e-06
-1.256e-06 1.97048e-06 -0.000204271
0.00107312 0.000179441 -3.92408e-06
0.000179441 0.000135301 -1.95144e-06
-3.92408e-06 -1.95144e-06 -3.08839e-05
0.0010427 0.000183421 -2.92439e-07
0.000183421 0.000176465 1.0869e-06
-2.92439e-07 1.0869e-06 1.01168e-05
0.000987258 0.000159793 -3.06236e-07
0.000159793 0.000157713 -9.21258e-07
-3.06236e-07 -9.21258e-07 1.07188e-05
0.000947949 0.000113636 -4.74043e-06
0.000113636 0.000161438 -3.71048e-06
-4.74043e-06 -3.71048e-06 4.37916e-05
0.000929856 0.000119536 1.63949e-07
0.000119536 0.000149412 -3.62167e-07
1.63949e-07 -3.62167e-07 2.47061e-05
0.000736646 5.10993e-05 -3.30899e-07
5.10993e-05 5.96597e-05 8.37945e-08
-3.30899e-07 8.37945e-08 -4.16764e-05
0.000639614 -1.25592e-05 -6.01183e-06
-1.25592e-05 8.02949e-06 -7.28224e-06
-6.01183e-06 -7.28224e-06 -3.66065e-05
0.000637966 -3.1543e-05 7.98185e-07
-3.1543e-05 2.62025e-06 3.3631e-06
7.98185e-07 3.3631e-06 -8.03542e-05
0.000540796 -5.89008e-05 3.11338e-08
-5.89008e-05 -3.95623e-05 -2.54706e-07
3.11338e-08 -2.54706e-07 -7.80404e-05
0.00296141 -0.000118724 -6.82973e-05
-0.000118724 0.00135357 -1.97281e-06
-6.82973e-05 -1.97281e-06 0.00135303
0.000528526 -6.85473e-05 -1.65865e-07
-6.85473e-05 -4.94642e-05 5.97478e-06
-1.65865e-07 5.97478e-06 -8.28835e-05
0.00269745 -0.000112856 -1.66019e-06
-0.000112856 0.00119895 2.08992e-07
-1.66019e-06 2.08992e-07 0.00120018
0.002606 -0.000101649 4.21209e-05
-0.000101649 0.00114048 2.91805e-06
4.21209e-05 2.91805e-06 0.00114418
0.00100325 4.9725e-05 1.20468e-05
4.9725e-05 -0.00031168 1.37628e-06
1.20468e-05 1.37628e-06 -0.00033543
0.00171557 -5.75076e-06 -4.34684e-06
-5.75076e-06 -7.93455e-05 2.3553e-06
-4.34684e-06 2.3553e-06 -9.50863e-05
0.00318509 -8.51033e-06 8.89014e-05
-8.51033e-06 -0.000181065 -6.2116e-06
8.89014e-05 -6.2116e-06 -0.000249593
0.00175464 0.000293524 -2.08294e-06
0.000293524 0.000199116 -1.06879e-06
-2.08294e-06 -1.06879e-06 4.40204e-05
0.000697633 0.000204472 6.23546e-07
0.000204472 -0.00020007 -7.74412e-07
6.23546e-07 -7.74412e-07 -0.000358085
0.00182511 0.000259847 -1.78995e-06
0.000259847 0.000216938 2.00397e-06
-1.78995e-06 2.00397e-06 6.35948e-05
0.00167591 0.000264858 1.0583e-06
0.000264858 0.000228284 4.42511e-07
1.0583e-06 4.42511e-07 6.05822e-05
0.000731214 0.000200171 -3.47566e-06
0.000200171 -0.000137466 2.05863e-06
-3.47566e-06 2.05863e-06 -0.000321254
0.00186883 0.000293208 -5.62642e-06
0.000293208 0.000145245 1.33875e-06
-5.62642e-06 1.33875e-06 1.40017e-06
0.00161158 0.000268952 -3.42238e-07
0.000268952 0.000385834 2.49558e-07
-3.42238e-07 2.49558e-07 0.000219541
0.00224369 0.000367963 -2.72194e-07
0.000367963 0.000452573 -1.50395e-06
-2.72194e-07 -1.50395e-06 0.000283445
0.00180537 0.000198933 -7.23406e-06
0.000198933 4.09476e-05 1.13485e-06
-7.23406e-06 1.13485e-06 -5.95111e-05
0.00228776 0.000394676 5.12527e-06
0.000394676 0.000467406 3.36159e-06
5.12527e-06 3.36159e-06 0.000300519
0.00205213 0.000352597 -8.41558e-07
0.000352597 0.000238732 5.96985e-07
-8.41558e-07 5.96985e-07 9.28565e-05
0.00104433 0.000168947 7.17343e-07
0.000168947 -0.00025598 1.93371e-06
7.17343e-07 1.93371e-06 -0.000318858
0.000580057 0.00026122 -2.49693e-06
0.00026122 -0.000437306 -2.69128e-06
-2.49693e-06 -2.69128e-06 -0.00055178
0.00108803 0.000203627 -3.02115e-05
0.000203627 -0.000152416 -1.03046e-05
-3.02115e-05 -1.03046e-05 -0.000169438
0.00169399 2.80788e-05 3.98742e-06
2.80788e-05 -6.68462e-05 5.39782e-07
3.98742e-06 5.39782e-07 -0.000122512
0.00201998 -1.58159e-05 -1.082e-06
-1.58159e-05 0.000323432 9.77663e-07
-1.082e-06 9.77663e-07 0.000295386
0.00128171 -1.54965e-06 -5.14035e-05
-1.54965e-06 -0.000261602 -4.99235e-06
-5.14035e-05 -4.99235e-06 -0.000351605
0.00191 -0.000144109 -1.98146e-05
-0.000144109 2.06408e-06 1.22855e-06
-1.98146e-05 1.22855e-06 3.58642e-05
0.00137593 -6.33532e-05 -9.46649e-06
-6.33532e-05 -0.000196684 6.38037e-07
-9.46649e-06 6.38037e-07 -0.000243382
0.00191998 -0.000139665 -1.75491e-07
-0.000139665 1.7884e-05 -2.80997e-07
-1.75491e-07 -2.80997e-07 6.30726e-06
0.00192492 -2.66279e-05 -9.88306e-07
-2.66279e-05 4.61918e-05 3.83753e-07
-9.88306e-07 3.83753e-07 4.43947e-06
0.00188683 -5.53265e-05 -3.1869e-06
-5.53265e-05 3.32398e-05 -1.05799e-06
-3.1869e-06 -1.05799e-06 -1.25096e-05
0.00182951 -0.000161453 -2.18222e-06
-0.000161453 1.39112e-05 -8.46291e-07
-2.18222e-06 -8.46291e-07 2.34539e-06
0.0018988 -0.000145111 6.84216e-07
-0.000145111 7.40049e-05 -1.52366e-07
6.84216e-07 -1.52366e-07 2.46258e-05
0.00193416 -0.000115958 -6.3721e-08
-0.000115958 0.000127532 -2.43127e-07
-6.3721e-08 -2.43127e-07 5.51744e-05
0.00168725 -0.000168722 -1.46041e-06
-0.000168722 2.82232e-05 -1.13845e-06
-1.46041e-06 -1.13845e-06 -4.34934e-05
0.00166273 -0.000150852 2.39474e-07
-0.000150852 3.83671e-05 -7.99295e-08
2.39474e-07 -7.99295e-08 -4.99149e-05
0.00172917 -0.000129687 1.63181e-06
-0.000129687 0.000106311 -2.25727e-07
1.63181e-06 -2.25727e-07 -7.17914e-06
0.00170961 -0.000171989 -1.85579e-06
-0.000171989 0.000104697 -1.90627e-07
-1.85579e-06 -1.90627e-07 5.93345e-06
0.00167652 -0.000158303 -6.32218e-09
-0.000158303 0.000115135 -1.58499e-07
-6.32218e-09 -1.58499e-07 -7.1489e-06
0.00154014 -0.000134234 -7.07164e-07
-0.000134234 0.000113611 2.68265e-08
-7.07164e-07 2.68265e-08 -2.47711e-05
0.00164262 -0.000175356 -1.58645e-06
-0.000175356 0.000129179 8.11837e-07
-1.58645e-06 8.11837e-07 -2.08621e-06
0.00149553 -0.000150709 -1.1112e-07
-0.000150709 0.000111995 -1.64017e-08
-1.1112e-07 -1.64017e-08 -3.1318e-05
0.00131701 -0.000130455 -5.66634e-06
-0.000130455 7.68643e-05 1.84903e-06
-5.66634e-06 1.84903e-06 -6.35487e-05
0.0014815 -0.000164211 2.11768e-06
-0.000164211 0.000117487 -4.06965e-08
2.11768e-06 -4.06965e-08 -2.97668e-05
0.00131427 -0.000147045 -1.42158e-07
-0.000147045 8.65558e-05 7.57837e-09
-1.42158e-07 7.57837e-09 -5.60643e-05
0.00106646 -0.000121192 -1.17288e-05
-0.000121192 2.71602e-05 4.79199e-06
-1.17288e-05 4.79199e-06 -9.21003e-05
0.00108752 -0.000154846 6.34465e-06
-0.000154846 -2.79631e-05 -1.86212e-06
6.34465e-06 -1.86212e-06 -0.000175913
0.00102408 -0.000134476 1.74549e-07
-0.000134476 1.67999e-05 -3.48541e-08
1.74549e-07 -3.48541e-08 -0.000106291
0.00227879 -6.70467e-05 -1.77991e-05
-6.70467e-05 0.000883247 7.20955e-06
-1.77991e-05 7.20955e-06 0.000814752
0.00143809 -2.2071e-05 -0.000138185
-2.2071e-05 0.000462298 1.37196e-05
-0.000138185 1.37196e-05 0.000442981
0.00149232 -0.00010452 -1.13138e-06
-0.00010452 0.000438295 -9.6511e-08
-1.13138e-06 -9.6511e-08 0.000362954
0.000947299 -0.000145345 9.75541e-06
-0.000145345 5.83302e-06 -4.37707e-06
9.75541e-06 -4.37707e-06 -0.000125406
0.00475223 0.000141707 8.61848e-06
0.000141707 0.00238935 7.75839e-07
8.61848e-06 7.75839e-07 0.00237269
0.000733491 -0.000137762 1.81549e-05
-0.000137762 1.60674e-05 -1.15133e-05
1.81549e-05 -1.15133e-05 -5.92732e-05
0.00437132 0.000111248 0.000130511
0.000111248 0.00216198 -7.24272e-06
0.000130511 -7.24272e-06 0.00215378
0.00183018 0.000212772 6.47721e-08
0.000212772 0.000201768 6.58456e-07
6.47721e-08 6.58456e-07 6.03711e-05
0.00158133 0.000223477 -3.72735e-07
0.000223477 0.000180021 1.76424e-06
-3.72735e-07 1.76424e-06 1.99721e-05
0.00124422 0.000215297 -6.09859e-07
0.000215297 6.23259e-05 -1.19094e-07
-6.09859e-07 -1.19094e-07 -0.000111414
0.0010762 0.000182522 -6.0755e-06
0.000182522 4.13845e-05 -6.3805e-07
-6.0755e-06 -6.3805e-07 -0.000123465
0.000728606 0.00017819 1.28347e-06
0.00017819 -0.000108091 3.65319e-06
1.28347e-06 3.65319e-06 -0.000290147
0.00107832 0.000178745 -1.14883e-06
0.000178745 0.00014134 6.03628e-07
-1.14883e-06 6.03628e-07 -2.50309e-05
0.000969569 0.000139734 -6.35362e-06
0.000139734 0.000129228 -4.30999e-06
-6.35362e-06 -4.30999e-06 -1.14683e-06
0.000855558 0.000148506 1.5592e-06
0.000148506 8.5862e-05 1.79518e-06
1.5592e-06 1.79518e-06 -5.926e-05
0.000801753 0.000100515 -7.11401e-08
0.000100515 7.98806e-05 -2.53769e-07
-7.11401e-08 -2.53769e-07 -3.52392e-05
0.0007536 4.91386e-05 -1.01643e-05
4.91386e-05 6.17491e-05 -8.96152e-06
-1.01643e-05 -8.96152e-06 5.60441e-06
0.000678307 3.27412e-05 1.43297e-06
3.27412e-05 2.53628e-05 2.45115e-06
1.43297e-06 2.45115e-06 -7.25636e-05
0.000548447 -2.42537e-05 -5.32056e-07
-2.42537e-05 -4.14478e-05 -3.06616e-07
-5.32056e-07 -3.06616e-07 -8.54387e-05
0.0032968 -0.00011938 -8.93367e-05
-0.00011938 0.00154957 -2.59559e-06
-8.93367e-05 -2.59559e-06 0.00154695
0.000487168 -6.78703e-05 -5.73026e-07
-6.78703e-05 -6.67216e-05 6.76326e-06
-5.73026e-07 6.76326e-06 -0.00010665
0.00288413 -0.000124981 -2.14872e-06
-0.000124981 0.00131089 2.5002e-07
-2.14872e-06 2.5002e-07 0.00130883
0.00267261 -0.00011296 4.66204e-05
-0.00011296 0.00118482 2.37495e-06
4.66204e-05 2.37495e-06 0.00118596
0.00180712 0.000109096 1.07476e-07
0.000109096 -8.60691e-06 1.34506e-06
1.07476e-07 1.34506e-06 -7.88752e-05
0.0018906 4.32856e-05 8.02137e-06
4.32856e-05 0.000152723 8.46279e-09
8.02137e-06 8.46279e-09 0.000126485
0.00352205 -3.25358e-05 -5.65256e-05
-3.25358e-05 0.000724467 -1.35013e-05
-5.65256e-05 -1.35013e-05 0.000682085
0.00167981 0.000247981 -3.3462e-06
0.000247981 5.64038e-05 7.34736e-07
-3.3462e-06 7.34736e-07 -8.20056e-05
0.00157154 0.00027971 -1.58871e-06
0.00027971 0.000115936 -7.65291e-08
-1.58871e-06 -7.65291e-08 -3.76415e-05
0.00100959 0.000238414 -1.39241e-05
0.000238414 -2.77486e-05 -3.808e-06
-1.39241e-05 -3.808e-06 -0.000183654
0.00183097 0.000250955 1.93496e-06
0.000250955 0.000219098 5.2555e-07
1.93496e-06 5.2555e-07 6.75297e-05
0.00188006 0.000276992 -5.48166e-07
0.000276992 0.000348785 -2.14287e-06
-5.48166e-07 -2.14287e-06 0.000178688
0.0021251 0.000197656 -3.2282e-06
0.000197656 0.000231051 1.31675e-06
-3.2282e-06 1.31675e-06 0.000133783
0.001731 0.00028937 -1.38135e-06
0.00028937 7.21764e-05 7.27216e-07
-1.38135e-06 7.27216e-07 -7.33295e-05
0.00199204 0.000350067 3.78813e-06
0.000350067 0.000314417 2.01677e-07
3.78813e-06 2.01677e-07 0.000144921
0.00182317 0.000199511 -8.07998e-07
0.000199511 5.16731e-05 1.24933e-07
-8.07998e-07 1.24933e-07 -4.87977e-05
0.0020698 0.000354689 1.2484e-05
0.000354689 0.000236511 5.46169e-07
1.2484e-05 5.46169e-07 8.93544e-05
0.00159867 0.00018968 -1.98766e-05
0.00018968 4.72701e-05 -3.16324e-06
-1.98766e-05 -3.16324e-06 -1.7484e-05
0.00196062 3.15203e-05 -2.85618e-06
3.15203e-05 9.52467e-05 -1.15935e-07
-2.85618e-06 -1.15935e-07 4.2004e-05
0.00190442 3.54438e-05 -1.44184e-06
3.54438e-05 5.19309e-05 -6.0608e-08
-1.44184e-06 -6.0608e-08 -2.98663e-06
0.00278611 4.40847e-06 -3.37427e-05
4.40847e-06 0.00076738 -4.94521e-06
-3.37427e-05 -4.94521e-06 0.000737837
0.00186111 -0.00013299 -9.89948e-06
-0.00013299 -1.32438e-05 -4.20064e-07
-9.89948e-06 -4.20064e-07 -2.40905e-05
0.00192666 -2.69907e-05 7.39377e-07
-2.69907e-05 3.23869e-05 2.80833e-07
7.39377e-07 2.80833e-07 -7.39899e-06
0.00189149 -5.83621e-05 6.17217e-07
-5.83621e-05 2.2976e-05 -9.16675e-09
6.17217e-07 -9.16675e-09 -1.67818e-05
0.00191452 -4.19795e-05 -8.38611e-07
-4.19795e-05 0.000114499 5.69363e-08
-8.38611e-07 5.69363e-08 4.27065e-05
0.00187381 -0.000139968 1.7316e-06
-0.000139968 7.01584e-05 -1.01614e-06
1.7316e-06 -1.01614e-06 1.67845e-05
0.00189221 -0.000115796 -2.34789e-08
-0.000115796 0.0001104 -1.47229e-07
-2.34789e-08 -1.47229e-07 3.48157e-05
0.00180846 -9.38706e-05 2.64491e-06
-9.38706e-05 0.000122433 -1.3225e-06
2.64491e-06 -1.3225e-06 1.71205e-05
0.00166013 -0.000149978 -1.27813e-06
-0.000149978 4.17881e-05 -1.72808e-07
-1.27813e-06 -1.72808e-07 -4.79469e-05
0.00174258 -0.0001299 -6.09232e-08
-0.0001299 0.000113627 1.25141e-07
-6.09232e-08 1.25141e-07 1.47851e-07
0.0016074 -0.000110214 -4.40872e-07
-0.000110214 0.000117581 -1.9225e-07
-4.40872e-07 -1.9225e-07 -1.45922e-05
0.00169796 -0.000157468 -1.61864e-06
-0.000157468 0.000128994 2.18243e-07
-1.61864e-06 2.18243e-07 6.95126e-06
0.00153846 -0.00013384 -1.60622e-07
-0.00013384 0.000110782 1.02027e-07
-1.60622e-07 1.02027e-07 -2.74145e-05
0.00134606 -0.000111417 -5.17821e-06
-0.000111417 7.99619e-05 1.49657e-06
-5.17821e-06 1.49657e-06 -5.84171e-05
0.00150117 -0.000150772 1.12365e-06
-0.000150772 0.000113214 -1.05197e-07
1.12365e-06 -1.05197e-07 -2.98385e-05
0.0013333 -0.000130455 -8.41384e-08
-0.000130455 8.51199e-05 7.89084e-08
-8.41384e-08 7.89084e-08 -5.50707e-05
0.00107595 -0.000106622 -1.17862e-05
-0.000106622 2.2013e-05 4.26005e-06
-1.17862e-05 4.26005e-06 -9.6123e-05
0.00132209 -0.000146655 6.03351e-06
-0.000146655 9.12242e-05 -1.91424e-06
6.03351e-06 -1.91424e-06 -5.11747e-05
0.00105687 -0.000119089 2.14953e-07
-0.000119089 2.09791e-05 4.61373e-08
2.14953e-07 4.61373e-08 -9.78928e-05
0.00232334 -7.96824e-05 -2.46547e-05
-7.96824e-05 0.000894125 6.15764e-06
-2.46547e-05 6.15764e-06 0.000833686
0.00100902 -0.000132806 1.09847e-05
-0.000132806 8.02207e-06 -4.80727e-06
1.09847e-05 -4.80727e-06 -0.000114941
0.00244198 -0.000116749 3.24351e-05
-0.000116749 0.000966386 -3.33296e-06
3.24351e-05 -3.33296e-06 0.000905065
0.00164854 -6.34368e-05 -0.000149376
-6.34368e-05 0.000587137 1.73179e-05
-0.000149376 1.73179e-05 0.000567585
0.00324353 2.46755e-05 -0.000145671
2.46755e-05 0.00151652 5.61448e-06
-0.000145671 5.61448e-06 0.00149785
0.00254415 -0.000156323 8.97588e-05
-0.000156323 0.00103201 -1.14275e-05
8.97588e-05 -1.14275e-05 0.000971798
0.00494691 0.000113002 0.000142378
0.000113002 0.00250183 -1.14644e-05
0.000142378 -1.14644e-05 0.00248444
0.00189504 0.000208226 -2.14784e-06
0.000208226 0.000202304 -2.81168e-07
-2.14784e-06 -2.81168e-07 6.85721e-05
0.00163373 0.000193618 1.73054e-06
0.000193618 0.000184606 7.50644e-07
1.73054e-06 7.50644e-07 3.83226e-05
0.00175835 0.000212624 5.84019e-07
0.000212624 0.000161577 -3.61439e-07
5.84019e-07 -3.61439e-07 2.2491e-05
0.00126721 0.000184103 -6.52707e-06
0.000184103 7.88956e-05 -4.93096e-07
-6.52707e-06 -4.93096e-07 -7.39214e-05
0.00156604 0.000220066 2.00775e-07
0.000220066 0.000167225 2.09106e-07
2.00775e-07 2.09106e-07 7.72321e-06
0.00140944 0.000226688 2.54095e-06
0.000226688 0.000158139 -6.44282e-07
2.54095e-06 -6.44282e-07 -1.63982e-05
0.00117566 0.000190542 -4.21067e-07
0.000190542 9.72425e-05 5.94579e-07
-4.21067e-07 5.94579e-07 -6.91926e-05
0.000924595 0.000145687 -8.76915e-06
0.000145687 3.44981e-05 -3.90935e-06
-8.76915e-06 -3.90935e-06 -0.000100544
0.00108448 0.000178029 2.37088e-06
0.000178029 0.000147816 3.57934e-06
2.37088e-06 3.57934e-06 -1.8717e-05
0.000857065 0.000129431 -4.6434e-07
0.000129431 6.56431e-05 2.18318e-08
-4.6434e-07 2.18318e-08 -6.29609e-05
0.000793937 0.000105368 -1.49591e-05
0.000105368 7.06056e-05 -1.05549e-05
-1.49591e-05 -1.05549e-05 1.41925e-06
0.000649537 8.60723e-05 2.66679e-06
8.60723e-05 -4.62406e-06 2.49899e-06
2.66679e-06 2.49899e-06 -0.000117299
0.000582494 2.55918e-05 7.63969e-08
2.55918e-05 -3.02271e-05 -2.85657e-07
7.63969e-08 -2.85657e-07 -8.45522e-05
0.00378123 -0.000109951 -0.000114019
-0.000109951 0.00183358 -5.20418e-06
-0.000114019 -5.20418e-06 0.00182751
0.000453449 -4.82198e-05 9.75698e-07
-4.82198e-05 -8.86378e-05 7.52522e-06
9.75698e-07 7.52522e-06 -0.000134557
0.00321155 -0.000137917 -3.81419e-06
-0.000137917 0.00150374 3.63795e-07
-3.81419e-06 3.63795e-07 0.00149758
0.00283059 -0.000126404 5.25021e-05
-0.000126404 0.00128066 1.92572e-06
5.25021e-05 1.92572e-06 0.00127835
0.00182737 0.000112303 -2.48814e-06
0.000112303 2.90049e-05 1.0903e-06
-2.48814e-06 1.0903e-06 -4.39645e-05
0.00182756 0.000108307 6.17689e-07
0.000108307 1.13211e-05 -3.78872e-07
6.17689e-07 -3.78872e-07 -5.87243e-05
0.00244374 3.70759e-05 -4.33616e-05
3.70759e-05 0.000454585 -7.63933e-06
-4.33616e-05 -7.63933e-06 0.000429391
0.00195111 0.000176748 1.8495e-07
0.000176748 0.000161299 1.21914e-06
1.8495e-07 1.21914e-06 5.21637e-05
0.00168147 0.00024223 -6.03064e-07
0.00024223 6.65811e-05 -1.19353e-07
-6.03064e-07 -1.19353e-07 -7.07855e-05
0.00137056 0.000264749 4.04688e-08
0.000264749 2.25201e-05 -1.8635e-06
4.04688e-08 -1.8635e-06 -0.000129456
0.00184399 0.000242207 4.87795e-07
0.000242207 0.000225398 -1.63551e-06
4.87795e-07 -1.63551e-06 7.55862e-05
0.00193423 0.000188487 -3.50381e-07
0.000188487 0.000124485 -1.53015e-07
-3.50381e-07 -1.53015e-07 2.6198e-05
0.00159754 0.000285329 1.36117e-06
0.000285329 3.31722e-06 -5.48447e-07
1.36117e-06 -5.48447e-07 -0.000143781
0.00181384 0.000197089 8.38501e-06
0.000197089 6.4786e-05 -7.10564e-07
8.38501e-06 -7.10564e-07 -3.5374e-05
0.00195246 2.52104e-05 -2.04846e-07
2.52104e-05 0.000124217 7.0707e-07
-2.04846e-07 7.0707e-07 5.41771e-05
0.00188438 3.11231e-05 -1.62101e-07
3.11231e-05 5.52263e-05 -1.18316e-08
-1.62101e-07 -1.18316e-08 -1.58671e-07
0.00207079 4.31776e-05 -7.40463e-06
4.31776e-05 0.000145705 -1.6534e-06
-7.40463e-06 -1.6534e-06 9.24908e-05
0.00160487 -1.33334e-05 -1.41762e-06
-1.33334e-05 -3.20915e-05 2.63742e-07
-1.41762e-06 2.63742e-07 -0.000115092
0.00189953 -6.24296e-05 2.45241e-06
-6.24296e-05 1.47906e-05 5.12785e-07
2.45241e-06 5.12785e-07 -1.84324e-05
0.00187283 -4.40576e-05 -9.03262e-07
-4.40576e-05 8.79729e-05 5.85551e-07
-9.03262e-07 5.85551e-07 1.59541e-05
0.00196783 -4.88478e-05 3.62601e-07
-4.88478e-05 0.000205091 -6.49538e-07
3.62601e-07 -6.49538e-07 0.000109208
0.00185514 -0.000115781 -3.02135e-07
-0.000115781 9.52933e-05 -2.42605e-08
-3.02135e-07 -2.42605e-08 1.6802e-05
0.00178977 -9.38434e-05 1.37443e-06
-9.38434e-05 0.000111133 -5.95255e-07
1.37443e-06 -5.95255e-07 5.85467e-06
0.00165222 -7.85935e-05 -6.54519e-08
-7.85935e-05 0.000110615 -6.2921e-07
-6.54519e-08 -6.2921e-07 -1.54706e-05
0.0017636 -0.000129666 -1.05986e-06
-0.000129666 0.00012522 4.50559e-07
-1.05986e-06 4.50559e-07 1.18262e-05
0.001592 -0.000108428 -1.61442e-07
-0.000108428 0.000109117 1.58754e-08
-1.61442e-07 1.58754e-08 -2.28133e-05
0.00138 -8.85252e-05 -4.833e-06
-8.85252e-05 8.16014e-05 1.10728e-06
-4.833e-06 1.10728e-06 -5.41045e-05
0.00153773 -0.000133388 7.68856e-07
-0.000133388 0.000108579 1.10978e-07
7.68856e-07 1.10978e-07 -2.94135e-05
0.00134934 -0.000110968 -1.04279e-07
-0.000110968 7.99713e-05 1.26281e-07
-1.04279e-07 1.26281e-07 -5.8174e-05
0.00108514 -9.03545e-05 -1.1624e-05
-9.03545e-05 1.75243e-05 3.5327e-06
-1.1624e-05 3.5327e-06 -0.000100231
0.00135078 -0.000130443 5.51964e-06
-0.000130443 9.40192e-05 -1.67633e-06
5.51964e-06 -1.67633e-06 -4.59368e-05
0.00107598 -0.0001043 1.15868e-07
-0.0001043 2.094e-05 1.51294e-07
1.15868e-07 1.51294e-07 -9.66431e-05
0.00237551 -9.58433e-05 -3.18655e-05
-9.58433e-05 0.000914253 5.55936e-06
-3.18655e-05 5.55936e-06 0.000857076
0.00104121 -0.000116779 1.16401e-05
-0.000116779 1.13136e-05 -4.71395e-06
1.16401e-05 -4.71395e-06 -0.000107134
0.00243315 -0.000116308 2.90195e-05
-0.000116308 0.000952126 -3.0301e-06
2.90195e-05 -3.0301e-06 0.000895814
0.00168713 -5.56785e-05 -0.000144995
-5.56785e-05 0.000607257 1.57002e-05
-0.000144995 1.57002e-05 0.000588036
0.00257432 -0.000140973 9.17118e-05
-0.000140973 0.00103681 -1.3366e-05
9.17118e-05 -1.3366e-05 0.000979469
0.00147487 5.95537e-06 -7.17206e-05
5.95537e-06 0.000500256 6.1473e-06
-7.17206e-05 6.1473e-06 0.000470559
0.00491234 0.000277726 -3.10312e-06
0.000277726 0.0025116 -4.55225e-06
-3.10312e-06 -4.55225e-06 0.00246475
0.00175709 0.000165596 4.84428e-07
0.000165596 0.000108847 7.64703e-07
4.84428e-07 7.64703e-07 -1.80543e-05
0.00169805 0.000178584 -9.93958e-07
0.000178584 0.000178643 -4.09636e-07
-9.93958e-07 -4.09636e-07 3.9063e-05
0.00179902 0.000205388 -2.55156e-06
0.000205388 0.000147086 5.83415e-08
-2.55156e-06 5.83415e-08 1.22334e-05
0.00180567 0.000188549 -4.11331e-06
0.000188549 0.000360277 -7.15605e-07
-4.11331e-06 -7.15605e-07 0.000218649
0.00154838 0.000194366 7.32259e-07
0.000194366 0.000133638 -4.97082e-07
7.32259e-07 -4.97082e-07 -1.23756e-05
0.0016903 0.000212666 1.00535e-06
0.000212666 0.000123561 -1.68693e-06
1.00535e-06 -1.68693e-06 -1.31652e-05
0.00095009 0.000143402 -1.09757e-05
0.000143402 -1.42288e-05 -3.50382e-06
-1.09757e-05 -3.50382e-06 -0.000143325
0.00124701 0.000184243 8.61515e-08
0.000184243 6.65601e-05 1.34266e-07
8.61515e-08 1.34266e-07 -8.6472e-05
0.00156162 0.000217652 3.61833e-06
0.000217652 0.00016016 -8.19591e-07
3.61833e-06 -8.19591e-07 1.056e-06
0.00128377 0.000199329 5.76699e-06
0.000199329 0.000158006 1.8759e-06
5.76699e-06 1.8759e-06 -1.01537e-05
0.000932611 0.00014503 -9.01633e-07
0.00014503 3.79073e-05 3.49322e-07
-9.01633e-07 3.49322e-07 -9.69333e-05
0.000706892 0.000157034 -2.02465e-05
0.000157034 5.14972e-06 -1.09253e-05
-2.02465e-05 -1.09253e-05 -7.37893e-05
0.000744439 0.000119102 4.75072e-06
0.000119102 2.21383e-06 4.25097e-06
4.75072e-06 4.25097e-06 -0.000124596
0.000624645 9.8214e-05 -4.64874e-07
9.8214e-05 -1.78553e-05 9.79752e-08
-4.64874e-07 9.79752e-08 -8.62846e-05
0.00447084 -9.99941e-05 -0.000134998
-9.99941e-05 0.00223893 -9.94806e-06
-0.000134998 -9.94806e-06 0.00222412
0.00045472 1.39145e-05 6.11154e-06
1.39145e-05 -0.000100155 8.45322e-06
6.11154e-06 8.45322e-06 -0.000151961
0.00365866 -0.000148343 -6.91126e-06
-0.000148343 0.00176841 5.48572e-07
-6.91126e-06 5.48572e-07 0.00175708
0.00311038 -0.000143587 6.12111e-05
-0.000143587 0.0014467 1.66384e-06
6.12111e-05 1.66384e-06 0.0014394
0.00176145 9.58125e-05 -4.04738e-07
9.58125e-05 2.50835e-05 1.42079e-06
-4.04738e-07 1.42079e-06 -6.22265e-05
0.00177312 0.000113578 -2.8091e-07
0.000113578 -6.3015e-06 3.24454e-07
-2.8091e-07 3.24454e-07 -7.872e-05
0.00186555 0.000110551 4.81383e-07
0.000110551 2.9257e-05 -1.28977e-06
4.81383e-07 -1.28977e-06 -4.1155e-05
0.00190685 0.000173538 7.72353e-07
0.000173538 0.000138449 -1.6698e-07
7.72353e-07 -1.6698e-07 3.06897e-05
0.00167295 0.000235988 1.56401e-07
0.000235988 7.08885e-05 -1.16343e-06
1.56401e-07 -1.16343e-06 -6.5376e-05
0.00172606 0.000178858 2.64845e-06
0.000178858 6.10211e-06 -1.4451e-06
2.64845e-06 -1.4451e-06 -9.32036e-05
0.00188362 2.64048e-05 -8.2326e-07
2.64048e-05 0.000125055 4.92578e-07
-8.2326e-07 4.92578e-07 4.10225e-05
0.00190678 2.62248e-05 2.59756e-07
2.62248e-05 0.000100532 -2.62069e-07
2.59756e-07 -2.62069e-07 2.92022e-05
0.00179769 3.12854e-05 3.39661e-06
3.12854e-05 1.09934e-05 1.21899e-07
3.39661e-06 1.21899e-07 -4.65555e-05
0.00172546 -1.94044e-05 -1.68426e-06
-1.94044e-05 3.77653e-05 -5.20571e-08
-1.68426e-06 -5.20571e-08 -4.41909e-05
0.00170055 -2.50892e-05 7.64491e-07
-2.50892e-05 6.3236e-05 -4.64807e-07
7.64491e-07 -4.64807e-07 -3.55599e-05
0.00182463 -4.59291e-05 4.84229e-07
-4.59291e-05 5.8547e-05 7.2003e-07
4.84229e-07 7.2003e-07 -1.3901e-05
0.00180844 -4.87163e-05 -7.42828e-07
-4.87163e-05 0.000115959 3.44261e-07
-7.42828e-07 3.44261e-07 1.66983e-05
0.00173002 -4.33774e-05 3.8082e-08
-4.33774e-05 0.000136452 -5.02198e-07
3.8082e-08 -5.02198e-07 1.86797e-05
0.00176055 -9.42174e-05 7.22507e-07
-9.42174e-05 9.43598e-05 9.04218e-08
7.22507e-07 9.04218e-08 -1.09686e-05
0.00162597 -7.973e-05 4.05283e-07
-7.973e-05 9.83329e-05 -3.28095e-07
4.05283e-07 -3.28095e-07 -2.77807e-05
0.00139862 -5.7718e-05 -5.041e-06
-5.7718e-05 7.08334e-05 7.92296e-07
-5.041e-06 7.92296e-07 -6.18371e-05
0.00156631 -0.000108123 2.53969e-07
-0.000108123 9.4696e-05 1.64966e-07
2.53969e-07 1.64966e-07 -3.71589e-05
0.00136815 -8.7506e-05 -1.27552e-08
-8.7506e-05 7.21963e-05 6.11749e-08
-1.27552e-08 6.11749e-08 -6.33401e-05
0.0010859 -7.02724e-05 -1.15402e-05
-7.02724e-05 7.03523e-06 2.91668e-06
-1.15402e-05 2.91668e-06 -0.00011003
0.0013506 -0.000110396 4.89888e-06
-0.000110396 7.88036e-05 -1.23453e-06
4.89888e-06 -1.23453e-06 -5.91025e-05
0.00108414 -8.77296e-05 -2.07456e-08
-8.77296e-05 1.61076e-05 1.53083e-07
-2.07456e-08 1.53083e-07 -0.000101089
0.00237178 -0.000109538 -3.48928e-05
-0.000109538 0.000908224 4.98563e-06
-3.48928e-05 4.98563e-06 0.000849451
0.00107163 -0.000101903 1.1818e-05
-0.000101903 1.73144e-05 -4.05408e-06
1.1818e-05 -4.05408e-06 -9.96919e-05
0.0024366 -0.000109165 2.79395e-05
-0.000109165 0.000946223 -2.38845e-06
2.79395e-05 -2.38845e-06 0.00089167
0.00172726 -4.86475e-05 -0.000144863
-4.86475e-05 0.00062469 1.35845e-05
-0.000144863 1.35845e-05 0.000605708
0.0025379 -0.000123376 9.05472e-05
-0.000123376 0.00100795 -1.18366e-05
9.05472e-05 -1.18366e-05 0.000954969
0.00147443 -1.08081e-05 -6.46305e-05
-1.08081e-05 0.00049245 5.95007e-06
-6.46305e-05 5.95007e-06 0.000467107
0.00136648 2.58591e-05 1.82049e-05
2.58591e-05 0.000440337 -4.1919e-06
1.82049e-05 -4.1919e-06 0.000407286
0.00187599 9.94782e-05 -4.47249e-08
9.94782e-05 0.000147436 1.8492e-06
-4.47249e-08 1.8492e-06 4.25905e-05
0.00162037 0.000144453 -1.66432e-06
0.000144453 0.000105892 2.13016e-07
-1.66432e-06 2.13016e-07 -2.93251e-05
0.00177741 0.000166717 -9.23699e-07
0.000166717 0.000114981 -9.77048e-08
-9.23699e-07 -9.77048e-08 -9.6276e-06
0.00162513 0.000155771 -4.32541e-06
0.000155771 0.000228897 -9.26042e-07
-4.32541e-06 -9.26042e-07 9.21358e-05
0.00169499 0.000176639 1.00013e-06
0.000176639 0.000180291 2.42259e-07
1.00013e-06 2.42259e-07 4.02144e-05
0.00169752 0.000202337 1.64367e-06
0.000202337 8.94808e-05 -6.02912e-08
1.64367e-06 -6.02912e-08 -4.65297e-05
0.00103402 0.000133675 -1.16829e-05
0.000133675 5.97517e-06 -4.0698e-06
-1.16829e-05 -4.0698e-06 -0.000115488
0.00145359 0.000173926 3.17046e-06
0.000173926 0.000160011 6.9843e-07
3.17046e-06 6.9843e-07 1.7784e-05
0.00146709 0.000195344 2.58936e-06
0.000195344 8.46103e-05 -6.92289e-07
2.58936e-06 -6.92289e-07 -6.11455e-05
0.000609948 0.000157792 -2.12522e-05
0.000157792 -7.10006e-05 -9.61101e-06
-2.12522e-05 -9.61101e-06 -0.000147995
0.00100366 0.000146497 -6.45253e-07
0.000146497 1.58427e-05 2.74436e-07
-6.45253e-07 2.74436e-07 -0.000113596
0.00122836 0.000184334 6.95886e-06
0.000184334 5.50727e-05 7.82344e-07
6.95886e-06 7.82344e-07 -9.8139e-05
0.000945408 0.000144822 8.21238e-06
0.000144822 4.43396e-05 5.05998e-06
8.21238e-06 5.05998e-06 -9.04245e-05
0.000624589 0.000144513 1.10024e-06
0.000144513 -3.87119e-05 3.22651e-07
1.10024e-06 3.22651e-07 -0.000116417
0.00510065 -0.00010087 -0.000139539
-0.00010087 0.00261326 -1.52838e-05
-0.000139539 -1.52838e-05 0.00258451
0.000467015 8.50498e-05 1.09455e-05
8.50498e-05 -0.000103285 1.00708e-05
1.09455e-05 1.00708e-05 -0.000169111
0.00423891 -0.000151186 -1.10351e-05
-0.000151186 0.00211231 9.47411e-07
-1.10351e-05 9.47411e-07 0.00209369
0.00350984 -0.00016389 7.50553e-05
-0.00016389 0.00168475 1.83174e-06
7.50553e-05 1.83174e-06 0.00167084
0.00176208 7.06971e-05 -6.24932e-07
7.06971e-05 6.06897e-05 3.75816e-07
-6.24932e-07 3.75816e-07 -2.90065e-05
0.00176902 9.53731e-05 5.17553e-07
9.53731e-05 3.24944e-05 5.02229e-07
5.17553e-07 5.02229e-07 -5.42751e-05
0.00173368 0.000114452 4.23183e-06
0.000114452 -3.17323e-05 -4.38163e-07
4.23183e-06 -4.38163e-07 -0.000103512
0.00187151 0.000170464 7.82577e-07
0.000170464 0.000120378 -1.07936e-06
7.82577e-07 -1.07936e-06 1.40263e-05
0.00173863 -7.15694e-06 1.3245e-06
-7.15694e-06 8.09287e-05 4.62224e-08
1.3245e-06 4.62224e-08 -1.95239e-05
0.00189066 2.17687e-05 -4.10763e-08
2.17687e-05 0.000126687 -1.92733e-07
-4.10763e-08 -1.92733e-07 4.31378e-05
0.00185526 2.66283e-05 1.16752e-06
2.66283e-05 7.35262e-05 -2.34932e-07
1.16752e-06 -2.34932e-07 9.20766e-07
0.00185164 -2.29018e-05 -3.049e-06
-2.29018e-05 0.00011055 -9.56063e-07
-3.049e-06 -9.56063e-07 2.96721e-05
0.00168868 -1.79095e-05 -1.27548e-06
-1.79095e-05 5.61362e-05 -6.88687e-08
-1.27548e-06 -6.88687e-08 -4.142e-05
0.00175602 -1.44748e-05 1.28474e-06
-1.44748e-05 0.00015834 -5.12931e-07
1.28474e-06 -5.12931e-07 4.43164e-05
0.00165113 -4.85561e-05 -1.62612e-06
-4.85561e-05 2.74164e-05 1.26934e-06
-1.62612e-06 1.26934e-06 -7.521e-05
0.00168439 -4.34506e-05 3.35668e-07
-4.34506e-05 0.000113914 1.61124e-07
3.35668e-07 1.61124e-07 -6.2589e-06
0.00139079 -2.77524e-05 -4.30898e-06
-2.77524e-05 4.52256e-05 2.0228e-07
-4.30898e-06 2.0228e-07 -8.29476e-05
0.00161245 -7.94361e-05 8.40344e-07
-7.94361e-05 9.31876e-05 -3.89123e-08
8.40344e-07 -3.89123e-08 -3.27845e-05
0.0013867 -5.56335e-05 -2.32031e-07
-5.56335e-05 6.09823e-05 4.50888e-08
-2.32031e-07 4.50888e-08 -7.14326e-05
0.00108822 -4.61178e-05 -1.16457e-05
-4.61178e-05 -2.82658e-06 2.35013e-06
-1.16457e-05 2.35013e-06 -0.000119358
0.00135159 -8.44195e-05 4.44049e-06
-8.44195e-05 6.02824e-05 -9.56359e-07
4.44049e-06 -9.56359e-07 -7.49047e-05
0.00108778 -6.9283e-05 1.47502e-09
-6.9283e-05 7.74806e-06 1.44453e-07
1.47502e-09 1.44453e-07 -0.000109084
0.000646823 -6.03624e-05 -1.74353e-05
-6.03624e-05 -9.17652e-05 4.24169e-06
-1.74353e-05 4.24169e-06 -0.000158073
0.00109289 -8.54672e-05 1.15834e-05
-8.54672e-05 1.99306e-05 -3.28151e-06
1.15834e-05 -3.28151e-06 -9.669e-05
0.00155049 -7.15907e-05 3.67548e-05
-7.15907e-05 0.000431229 -2.16706e-06
3.67548e-05 -2.16706e-06 0.000372794
0.00512789 -0.000113463 -0.00017674
-0.000113463 0.00257354 1.02454e-05
-0.00017674 1.02454e-05 0.00257216
0.00251754 -0.000101104 9.02465e-05
-0.000101104 0.000986664 -9.71657e-06
9.02465e-05 -9.71657e-06 0.000936189
0.00148924 -2.89055e-05 -5.80837e-05
-2.89055e-05 0.000494542 4.62333e-06
-5.80837e-05 4.62333e-06 0.000470605
0.00128277 -2.46127e-05 2.88807e-05
-2.46127e-05 0.000387988 -4.18477e-06
2.88807e-05 -4.18477e-06 0.00035819
0.00189409 7.22414e-05 7.73238e-07
7.22414e-05 0.000167292 1.16517e-06
7.73238e-07 1.16517e-06 6.86172e-05
0.00172088 9.64084e-05 -2.65267e-07
9.64084e-05 0.000144844 1.31013e-06
-2.65267e-07 1.31013e-06 2.16072e-05
0.00189823 9.70217e-05 3.39475e-07
9.70217e-05 0.000165222 1.78775e-08
3.39475e-07 1.78775e-08 5.9543e-05
0.00129107 0.000117143 -5.27751e-06
0.000117143 8.43493e-06 -8.50911e-07
-5.27751e-06 -8.50911e-07 -0.000126302
0.00169168 0.000144896 7.16599e-08
0.000144896 0.000146043 -1.53539e-08
7.16599e-08 -1.53539e-08 1.20059e-05
0.00180064 0.000168209 -5.31691e-07
0.000168209 0.000122239 -8.57365e-07
-5.31691e-07 -8.57365e-07 -1.42515e-07
0.000661524 9.78781e-05 -1.36768e-05
9.78781e-05 -0.000224426 -4.2008e-06
-1.36768e-05 -4.2008e-06 -0.000343943
0.00167161 0.000159354 1.69289e-06
0.000159354 0.000255256 4.35643e-07
1.69289e-06 4.35643e-07 0.000118148
0.00169232 0.000174952 2.49774e-06
0.000174952 0.000182192 3.58402e-07
2.49774e-06 3.58402e-07 4.15497e-05
0.000573561 0.000120768 -1.84162e-05
0.000120768 -0.0001045 -8.10787e-06
-1.84162e-05 -8.10787e-06 -0.000177043
0.000808504 0.000123725 6.04306e-07
0.000123725 -0.000123032 -7.29529e-08
6.04306e-07 -7.29529e-08 -0.000245395
0.00108575 0.000158358 8.57006e-06
0.000158358 -4.90842e-05 1.69735e-06
8.57006e-06 1.69735e-06 -0.000191807
0.00530599 -3.34467e-05 -0.000149652
-3.34467e-05 0.00270462 -1.42067e-05
-0.000149652 -1.42067e-05 0.00268817
0.000584101 0.000144078 1.4611e-06
0.000144078 -8.31062e-05 5.87774e-07
1.4611e-06 5.87774e-07 -0.000161328
0.00104471 0.000149017 1.10754e-05
0.000149017 3.9036e-05 4.22511e-06
1.10754e-05 4.22511e-06 -9.07382e-05
0.000494663 0.000135936 1.71406e-05
0.000135936 -0.000109289 1.08948e-05
1.71406e-05 1.08948e-05 -0.000185676
0.00484246 -9.83149e-05 -1.28599e-06
-9.83149e-05 0.00244973 -4.46287e-07
-1.28599e-06 -4.46287e-07 0.00243298
0.00399757 -0.000183187 9.01702e-05
-0.000183187 0.00197862 3.70719e-06
9.01702e-05 3.70719e-06 0.00195641
0.0017972 4.38791e-05 -9.26198e-07
4.38791e-05 0.000105276 -4.15888e-07
-9.26198e-07 -4.15888e-07 5.22286e-06
0.00178496 7.00043e-05 -2.06389e-07
7.00043e-05 6.9919e-05 4.09139e-07
-2.06389e-07 4.09139e-07 -1.97702e-05
0.00177257 9.52153e-05 1.52594e-06
9.52153e-05 3.76192e-05 -4.75665e-07
1.52594e-06 -4.75665e-07 -4.86349e-05
0.00166959 3.21884e-06 1.51798e-06
3.21884e-06 0.000101439 -3.07617e-07
1.51798e-06 -3.07617e-07 -1.35828e-05
0.0017254 -4.68456e-06 1.09401e-07
-4.68456e-06 7.73686e-05 8.00033e-08
1.09401e-07 8.00033e-08 -2.19671e-05
0.00189564 1.53808e-05 -3.03571e-07
1.53808e-05 0.000127263 -1.70727e-07
-3.03571e-07 -1.70727e-07 4.41691e-05
0.00166939 -1.20654e-05 -2.08488e-06
-1.20654e-05 4.48434e-05 5.28598e-07
-2.08488e-06 5.28598e-07 -5.14829e-05
0.00174284 -1.08415e-05 1.10656e-06
-1.08415e-05 0.000149914 -1.54603e-07
1.10656e-06 -1.54603e-07 3.60622e-05
0.0017198 -8.61316e-06 -2.19099e-06
-8.61316e-06 0.000227398 -1.92061e-07
-2.19099e-06 -1.92061e-07 0.000105614
0.00163738 -4.35158e-05 4.79474e-07
-4.35158e-05 9.07915e-05 6.98737e-07
4.79474e-07 6.98737e-07 -3.17925e-05
0.00155769 -2.7513e-05 1.39427e-09
-2.7513e-05 0.000139355 6.57115e-08
1.39427e-09 6.57115e-08 1.17587e-05
0.000782991 -2.00323e-05 -1.34525e-05
-2.00323e-05 -0.000185325 1.66088e-06
-1.34525e-05 1.66088e-06 -0.000303655
0.00138187 -5.57923e-05 4.20348e-06
-5.57923e-05 5.49503e-05 -6.91209e-07
4.20348e-06 -6.91209e-07 -7.73883e-05
0.00108558 -4.31541e-05 2.48358e-08
-4.31541e-05 -4.81615e-06 1.25299e-07
2.48358e-08 1.25299e-07 -0.000121029
0.000648139 -2.03042e-05 -1.70131e-05
-2.03042e-05 -9.80586e-05 2.86188e-06
-1.70131e-05 2.86188e-06 -0.000164808
0.00109134 -6.72634e-05 1.16045e-05
-6.72634e-05 9.33577e-06 -2.63763e-06
1.16045e-05 -2.63763e-06 -0.000107152
0.000658877 -4.58267e-05 -1.99885e-07
-4.58267e-05 -8.44181e-05 2.65145e-07
-1.99885e-07 2.65145e-07 -0.000151383
0.00518334 -6.96062e-07 -0.000165202
-6.96062e-07 0.00259915 6.34149e-06
-0.000165202 6.34149e-06 0.0026008
0.000688531 -5.77858e-05 1.611e-05
-5.77858e-05 -6.44368e-05 -6.04541e-06
1.611e-05 -6.04541e-06 -0.00013146
0.00327589 -6.17292e-05 8.17179e-05
-6.17292e-05 0.00151445 -1.90349e-06
8.17179e-05 -1.90349e-06 0.00149828
0.00121794 -5.16493e-05 3.41598e-05
-5.16493e-05 0.000351188 -4.46374e-06
3.41598e-05 -4.46374e-06 0.000319347
0.00180598 6.48287e-05 9.65695e-08
6.48287e-05 0.000135139 2.06613e-07
9.65695e-08 2.06613e-07 3.15664e-05
0.00160116 5.45611e-05 9.62928e-07
5.45611e-05 7.40216e-05 1.48269e-06
9.62928e-07 1.48269e-06 -4.4091e-05
0.00187564 6.95925e-05 -1.74017e-07
6.95925e-05 0.000157126 -2.04819e-07
-1.74017e-07 -2.04819e-07 5.87988e-05
0.00141152 8.32041e-05 -4.06223e-06
8.32041e-05 6.46888e-05 -2.83595e-07
-4.06223e-06 -2.83595e-07 -6.50981e-05
0.00167529 9.4712e-05 4.81939e-07
9.4712e-05 0.000116659 1.33512e-07
4.81939e-07 1.33512e-07 -7.73464e-06
0.00191936 9.42998e-05 -5.0845e-07
9.42998e-05 0.000182467 -1.65667e-06
-5.0845e-07 -1.65667e-06 7.59802e-05
0.000674816 7.80195e-05 -1.34723e-05
7.80195e-05 -0.00023353 -3.18744e-06
-1.34723e-05 -3.18744e-06 -0.000351027
0.00152478 0.00012433 -1.01602e-06
0.00012433 0.000143214 -1.1052e-07
-1.01602e-06 -1.1052e-07 9.43425e-06
0.00176454 0.000145247 1.85307e-06
0.000145247 0.000187233 -4.21801e-07
1.85307e-06 -4.21801e-07 5.43999e-05
0.000588377 8.62891e-05 -1.69238e-05
8.62891e-05 -0.000110811 -6.30577e-06
-1.69238e-05 -6.30577e-06 -0.000178926
0.000652063 9.82723e-05 -2.79727e-06
9.82723e-05 -0.000230058 -5.9537e-07
-2.79727e-06 -5.9537e-07 -0.000350146
0.00171968 0.000163065 7.92661e-06
0.000163065 0.000282504 1.90794e-06
7.92661e-06 1.90794e-06 0.000145039
0.00527808 5.25207e-05 -0.00016706
5.25207e-05 0.00266392 -1.25728e-05
-0.00016706 -1.25728e-05 0.00266071
0.000568218 0.000112972 7.83909e-07
0.000112972 -0.000107114 2.50328e-07
7.83909e-07 2.50328e-07 -0.000180342
0.000586973 0.000114247 1.16987e-05
0.000114247 -0.000249959 3.46769e-06
1.16987e-05 3.46769e-06 -0.000373264
0.00518377 -1.81917e-05 1.11666e-05
-1.81917e-05 0.00263186 -2.80457e-07
1.11666e-05 -2.80457e-07 0.00261875
0.00053442 0.000130074 1.77712e-05
0.000130074 -0.000108547 1.00117e-05
1.77712e-05 1.00117e-05 -0.00018793
0.00458967 -0.000155709 0.000112702
-0.000155709 0.00231388 6.92399e-06
0.000112702 6.92399e-06 0.00229271
0.00176569 3.17964e-05 1.11037e-07
3.17964e-05 0.000147203 -3.33546e-07
1.11037e-07 -3.33546e-07 3.45742e-05
0.00174863 4.20218e-05 -6.22662e-07
4.20218e-05 8.30888e-05 1.99701e-07
-6.22662e-07 1.99701e-07 -1.78277e-05
0.00180768 6.90947e-05 6.32321e-07
6.90947e-05 7.90414e-05 -2.15382e-08
6.32321e-07 -2.15382e-08 -1.06477e-05
0.00169534 -3.17339e-06 -1.92891e-06
-3.17339e-06 0.000217512 -2.37604e-07
-1.92891e-06 -2.37604e-07 9.80641e-05
0.00170186 1.94741e-06 5.40087e-07
1.94741e-06 0.000119081 3.8772e-08
5.40087e-07 3.8772e-08 5.33673e-06
0.00172307 -3.85206e-07 7.87647e-07
-3.85206e-07 7.95646e-05 -3.84223e-08
7.87647e-07 -3.84223e-08 -1.86488e-05
0.0017314 -7.76783e-06 5.83656e-07
-7.76783e-06 0.00014247 4.79211e-07
5.83656e-07 4.79211e-07 2.87713e-05
0.00172529 -8.10981e-06 2.07135e-06
-8.10981e-06 0.000230088 -2.32769e-07
2.07135e-06 -2.32769e-07 0.000108283
0.00078808 -7.30074e-06 -1.26707e-05
-7.30074e-06 -0.000184664 6.03615e-07
-1.26707e-05 6.03615e-07 -0.000301057
0.00172715 -2.74349e-05 5.16272e-06
-2.74349e-05 0.000235015 -3.12029e-07
5.16272e-06 -3.12029e-07 0.000107995
0.000937348 -1.89163e-05 -2.56161e-06
-1.89163e-05 -9.77639e-05 3.50482e-07
-2.56161e-06 3.50482e-07 -0.000214776
0.000664004 -6.21225e-06 -1.73974e-05
-6.21225e-06 -9.63071e-05 1.8769e-06
-1.73974e-05 1.8769e-06 -0.00016317
0.00108709 -4.14718e-05 1.14069e-05
-4.14718e-05 -4.45688e-06 -2.0988e-06
1.14069e-05 -2.0988e-06 -0.000120449
0.000646283 -2.31423e-05 4.96713e-07
-2.31423e-05 -0.000100375 -3.5909e-09
4.96713e-07 -3.5909e-09 -0.000166491
0.00522604 -8.8027e-05 -0.00017598
-8.8027e-05 0.00262697 5.62061e-06
-0.00017598 5.62061e-06 0.00262647
0.000649794 -3.10985e-05 1.61231e-05
-3.10985e-05 -9.07207e-05 -3.40798e-06
1.61231e-05 -3.40798e-06 -0.000157067
0.00518524 -3.3566e-05 9.78606e-06
-3.3566e-05 0.00260268 -6.79616e-08
9.78606e-06 -6.79616e-08 0.00260309
0.00150315 -1.40426e-05 0.000150286
-1.40426e-05 0.000496649 -7.32521e-06
0.000150286 -7.32521e-06 0.000480487
0.00166781 4.33358e-05 1.05855e-06
4.33358e-05 0.000111973 3.35081e-07
1.05855e-06 3.35081e-07 -3.76631e-06
0.00177675 6.86247e-05 -1.79703e-06
6.86247e-05 0.000113099 -2.46336e-07
-1.79703e-06 -2.46336e-07 1.10194e-05
0.00143338 4.67287e-05 -3.57347e-06
4.67287e-05 7.62273e-05 1.13287e-08
-3.57347e-06 1.13287e-08 -4.87627e-05
0.00160401 5.36803e-05 4.31108e-07
5.36803e-05 7.67093e-05 1.48457e-08
4.31108e-07 1.48457e-08 -4.14534e-05
0.00185549 6.70877e-05 -9.04676e-07
6.70877e-05 0.000145815 -1.91218e-06
-9.04676e-07 -1.91218e-06 4.78396e-05
0.0010995 6.44847e-05 -1.14756e-05
6.44847e-05 -6.94201e-07 -2.07243e-06
-1.14756e-05 -2.07243e-06 -0.000113367
0.00139557 8.28231e-05 4.97209e-08
8.28231e-05 5.64107e-05 1.37443e-07
4.97209e-08 1.37443e-07 -7.34914e-05
0.0016281 9.3036e-05 4.93928e-07
9.3036e-05 8.76358e-05 -7.64835e-07
4.93928e-07 -7.64835e-07 -3.79239e-05
0.000610533 6.00966e-05 -1.65041e-05
6.00966e-05 -0.00011284 -4.61891e-06
-1.65041e-05 -4.61891e-06 -0.000178817
0.00085887 8.53569e-05 -3.24884e-06
8.53569e-05 -0.000128378 -4.52421e-07
-3.24884e-06 -4.52421e-07 -0.00024525
0.00176587 0.000131711 5.22073e-06
0.000131711 0.000282147 9.80107e-07
5.22073e-06 9.80107e-07 0.00014932
0.00526607 0.00011167 -0.000185773
0.00011167 0.00264921 -1.20132e-05
-0.000185773 -1.20132e-05 0.00264885
0.0005911 8.35504e-05 7.42415e-08
8.35504e-05 -0.000109309 1.24378e-07
7.42415e-08 1.24378e-07 -0.000177554
0.000637688 9.85864e-05 8.1431e-06
9.85864e-05 -0.000238585 2.90542e-06
8.1431e-06 2.90542e-06 -0.000359222
0.00521326 7.05697e-05 1.0286e-05
7.05697e-05 0.00263245 1.43879e-06
1.0286e-05 1.43879e-06 0.002627
0.000567365 0.000104281 1.698e-05
0.000104281 -0.000107716 7.85176e-06
1.698e-05 7.85176e-06 -0.000181229
0.00506886 -2.64804e-05 0.00015171
-2.64804e-05 0.00255545 9.68145e-06
0.00015171 9.68145e-06 0.00255018
0.00171114 2.24614e-05 -1.88957e-06
2.24614e-05 0.000228623 -1.70208e-07
-1.88957e-06 -1.70208e-07 0.000110401
0.00173685 2.72117e-05 -3.25845e-07
2.72117e-05 0.000133426 1.14229e-07
-3.25845e-07 1.14229e-07 2.00138e-05
0.00170305 3.99603e-05 -8.11339e-07
3.99603e-05 6.32112e-05 2.48881e-07
-8.11339e-07 2.48881e-07 -3.85331e-05
0.000774089 -1.01079e-05 -1.31074e-05
-1.01079e-05 -0.000189013 -2.50516e-07
-1.31074e-05 -2.50516e-07 -0.000303285
0.00171752 3.15225e-06 2.23872e-06
3.15225e-06 0.000230116 -6.60444e-08
2.23872e-06 -6.60444e-08 0.000110668
0.00172828 5.87912e-07 5.64693e-07
5.87912e-07 0.000133675 2.05795e-07
5.64693e-07 2.05795e-07 2.12199e-05
0.00173094 -7.92876e-06 6.22997e-06
-7.92876e-06 0.000232902 1.2317e-08
6.22997e-06 1.2317e-08 0.000111071
0.000774113 -7.156e-06 -1.94328e-06
-7.156e-06 -0.000193226 1.18887e-07
-1.94328e-06 1.18887e-07 -0.000309865
0.00067448 -1.81806e-05 -1.75186e-05
-1.81806e-05 -9.3295e-05 6.37794e-07
-1.75186e-05 6.37794e-07 -0.000159706
0.00108265 -1.70334e-05 9.18212e-06
-1.70334e-05 -1.53262e-05 -1.19878e-06
9.18212e-06 -1.19878e-06 -0.000131008
0.000649187 3.20098e-06 1.87959e-07
3.20098e-06 -0.000104995 1.02537e-07
1.87959e-07 1.02537e-07 -0.000171622
0.00531652 -7.00605e-05 -0.000185634
-7.00605e-05 0.00267554 3.7018e-06
-0.000185634 3.7018e-06 0.00267631
0.00065195 -1.82348e-05 1.68606e-05
-1.82348e-05 -9.70123e-05 -2.30337e-06
1.68606e-05 -2.30337e-06 -0.000163516
0.00526801 1.48317e-05 -2.49226e-06
1.48317e-05 0.00264458 8.46829e-07
-2.49226e-06 8.46829e-07 0.00264761
0.00521533 -5.03001e-05 0.000177693
-5.03001e-05 0.00261547 -5.27507e-06
0.000177693 -5.27507e-06 0.0026185
0.00144153 2.98059e-05 -3.60167e-06
2.98059e-05 8.30437e-05 -1.98627e-07
-3.60167e-06 -1.98627e-07 -3.97316e-05
0.00166838 4.6145e-05 -1.65942e-07
4.6145e-05 0.000111319 -6.3549e-07
-1.65942e-07 -6.3549e-07 -2.47387e-06
0.00174775 7.26024e-05 -3.03071e-06
7.26024e-05 9.12398e-05 -2.55882e-07
-3.03071e-06 -2.55882e-07 -9.35662e-06
0.00109486 3.43155e-05 -1.13304e-05
3.43155e-05 -6.02897e-06 -1.51706e-06
-1.13304e-05 -1.51706e-06 -0.000116518
0.00140124 4.67917e-05 2.09933e-07
4.67917e-05 5.70896e-05 8.0658e-08
2.09933e-07 8.0658e-08 -6.81942e-05
0.00160618 5.27514e-05 -3.25454e-07
5.27514e-05 7.92127e-05 -1.38688e-06
-3.25454e-07 -1.38688e-06 -3.89983e-05
0.000639041 3.57467e-05 -1.61049e-05
3.57467e-05 -0.000104663 -3.51405e-06
-1.61049e-05 -3.51405e-06 -0.000169912
0.00108917 6.60873e-05 1.08175e-07
6.60873e-05 -6.12125e-06 1.95463e-07
1.08175e-07 1.95463e-07 -0.000119168
0.00137896 8.24157e-05 4.46408e-06
8.24157e-05 4.76449e-05 6.296e-07
4.46408e-06 6.296e-07 -8.23782e-05
0.00525178 0.000124409 -0.000197549
0.000124409 0.00264106 -1.05912e-05
-0.000197549 -1.05912e-05 0.00264011
0.000629491 6.10739e-05 2.13405e-07
6.10739e-05 -0.000101822 1.67746e-07
2.13405e-07 1.67746e-07 -0.000168005
0.00103804 9.26183e-05 8.38508e-06
9.26183e-05 -2.60473e-05 2.40067e-06
8.38508e-06 2.40067e-06 -0.000142254
0.00521423 0.000124593 5.19185e-06
0.000124593 0.00262638 1.77645e-06
5.19185e-06 1.77645e-06 0.00262343
0.000598171 8.12037e-05 1.60275e-05
8.12037e-05 -0.000105187 6.38791e-06
1.60275e-05 6.38791e-06 -0.000173418
0.00518571 9.04827e-05 0.000175003
9.04827e-05 0.00261275 1.2879e-05
0.000175003 1.2879e-05 0.00261051
0.00112168 9.98289e-06 -1.19581e-05
9.98289e-06 9.28588e-06 -7.14301e-07
-1.19581e-05 -7.14301e-07 -0.000101032
0.00154051 1.71963e-05 2.52525e-06
1.71963e-05 0.000132196 8.36589e-08
2.52525e-06 8.36589e-08 1.26547e-05
0.00170471 2.16579e-05 -5.30967e-07
2.16579e-05 0.000117348 2.07992e-07
-5.30967e-07 2.07992e-07 3.14004e-06
0.000683689 2.43274e-05 -1.78788e-05
2.43274e-05 -9.29064e-05 -4.67456e-07
-1.78788e-05 -4.67456e-07 -0.000153749
0.000761364 -4.46141e-06 -2.13273e-06
-4.46141e-06 -0.000197212 1.64722e-08
-2.13273e-06 1.64722e-08 -0.000311688
0.00174049 9.50267e-06 6.46089e-06
9.50267e-06 0.00024312 1.18492e-07
6.46089e-06 1.18492e-07 0.000123665
0.00075731 -6.59823e-06 8.73466e-06
-6.59823e-06 -0.000203443 -3.1965e-07
8.73466e-06 -3.1965e-07 -0.000320316
0.000657661 -1.41776e-06 1.74647e-07
-1.41776e-06 -0.000102947 2.96053e-07
1.74647e-07 2.96053e-07 -0.000169091
0.00535412 5.29983e-05 -0.000193961
5.29983e-05 0.00269361 -9.13333e-07
-0.000193961 -9.13333e-07 0.00269627
0.000631478 1.22777e-05 1.6609e-05
1.22777e-05 -0.000115419 -1.12536e-06
1.6609e-05 -1.12536e-06 -0.000181714
0.00532965 -6.90395e-05 -7.83948e-06
-6.90395e-05 0.00268259 1.26851e-06
-7.83948e-06 1.26851e-06 0.00268322
0.00528052 4.37153e-05 0.000170813
4.37153e-05 0.0026528 -2.36569e-06
0.000170813 -2.36569e-06 0.00265457
0.00110471 1.76433e-05 -1.18398e-05
1.76433e-05 -8.2341e-07 -1.27104e-06
-1.18398e-05 -1.27104e-06 -0.00011058
0.00137597 2.9098e-05 4.89196e-08
2.9098e-05 4.46574e-05 -5.37499e-08
4.89196e-08 -5.37499e-08 -7.74935e-05
0.00167195 4.88095e-05 -1.39471e-06
4.88095e-05 0.000112257 -1.15679e-06
-1.39471e-06 -1.15679e-06 4.0998e-07
0.00256246 3.29839e-05 -9.69036e-05
3.29839e-05 0.000989725 -2.87827e-06
-9.69036e-05 -2.87827e-06 0.000943284
0.00110217 3.6568e-05 1.54298e-07
3.6568e-05 -2.35802e-06 1.90256e-07
1.54298e-07 1.90256e-07 -0.000113031
0.00136825 4.67112e-05 4.12155e-06
4.67112e-05 3.74658e-05 2.14038e-07
4.12155e-06 2.14038e-07 -8.81153e-05
0.00523316 0.00011734 -0.000200958
0.00011734 0.00263314 -8.35945e-06
-0.000200958 -8.35945e-06 0.00263117
0.000668768 4.51366e-05 5.00875e-07
4.51366e-05 -8.66292e-05 2.35906e-07
5.00875e-07 2.35906e-07 -0.000152648
0.0010905 6.79957e-05 1.14651e-05
6.79957e-05 -5.20081e-06 2.45619e-06
1.14651e-05 2.45619e-06 -0.0001186
0.00525766 0.000139558 6.9355e-07
0.000139558 0.00264869 1.53949e-06
6.9355e-07 1.53949e-06 0.00264587
0.000656265 6.13635e-05 1.65736e-05
6.13635e-05 -8.61994e-05 5.18996e-06
1.65736e-05 5.18996e-06 -0.000152564
0.00517174 0.000144115 0.000183794
0.000144115 0.0026064 1.40215e-05
0.000183794 1.40215e-05 0.00260181
0.000718771 7.78962e-06 -1.6166e-05
7.78962e-06 -6.47475e-05 -1.73533e-06
-1.6166e-05 -1.73533e-06 -0.000130399
0.000938851 7.68538e-06 6.26136e-07
7.68538e-06 -9.42569e-05 2.34481e-07
6.26136e-07 2.34481e-07 -0.000205954
0.00136447 1.17147e-05 6.01458e-06
1.17147e-05 3.27174e-05 2.45398e-07
6.01458e-06 2.45398e-07 -8.8115e-05
0.00527194 -9.14901e-05 -0.000178359
-9.14901e-05 0.00266196 -7.92323e-07
-0.000178359 -7.92323e-07 0.00265562
0.000658604 7.89341e-06 -3.11565e-07
7.89341e-06 -0.000102783 2.13053e-07
-3.11565e-07 2.13053e-07 -0.000165999
0.000755334 8.60671e-07 8.74601e-06
8.60671e-07 -0.000201684 1.70259e-07
8.74601e-06 1.70259e-07 -0.000316349
0.000631473 1.82693e-05 1.69762e-05
1.82693e-05 -0.000117585 2.01648e-07
1.69762e-05 2.01648e-07 -0.000183546
0.00533306 1.88428e-05 2.91725e-06
1.88428e-05 0.00268484 -1.52178e-07
2.91725e-06 -1.52178e-07 0.00268498
0.00535785 2.49597e-05 0.000182658
2.49597e-05 0.00269166 -5.57383e-07
0.000182658 -5.57383e-07 0.00269545
0.00260667 6.54725e-07 -9.56558e-05
6.54725e-07 0.00101067 -1.98117e-06
-9.56558e-05 -1.98117e-06 0.000964645
0.00111903 2.02623e-05 4.19943e-10
2.02623e-05 6.7791e-06 5.99811e-08
4.19943e-10 5.99811e-08 -0.000103054
0.00130863 2.85909e-05 3.85048e-06
2.85909e-05 5.31798e-06 2.38658e-09
3.85048e-06 2.38658e-09 -0.00011621
0.00494176 -6.52918e-05 -4.01757e-05
-6.52918e-05 0.0024765 -2.53762e-07
-4.01757e-05 -2.53762e-07 0.00246169
0.00068095 3.54669e-05 -3.67752e-08
3.54669e-05 -8.22844e-05 2.35154e-07
-3.67752e-08 2.35154e-07 -0.000148027
0.00112151 3.93476e-05 1.14526e-05
3.93476e-05 7.8191e-06 1.94562e-06
1.14526e-05 1.94562e-06 -0.000103004
0.00526971 8.04074e-05 -1.14218e-05
8.04074e-05 0.0026489 -4.47443e-07
-1.14218e-05 -4.47443e-07 0.00264969
0.000698248 6.24012e-05 1.77341e-05
6.24012e-05 -6.84726e-05 4.35736e-06
1.77341e-05 4.35736e-06 -0.000135376
0.00524357 0.000160034 0.000193302
0.000160034 0.00264641 1.36844e-05
0.000193302 1.36844e-05 0.00264091
0.0016572 -3.739e-05 -0.000162128
-3.739e-05 0.000576204 4.09212e-07
-0.000162128 4.09212e-07 0.000560612
0.00164385 1.92233e-05 -3.92329e-05
1.92233e-05 0.000459217 2.46429e-07
-3.92329e-05 2.46429e-07 0.000406249
0.000762376 7.88987e-06 1.16326e-05
7.88987e-06 -0.000194207 9.55561e-07
1.16326e-05 9.55561e-07 -0.000307305
0.00528467 -3.73406e-05 8.49324e-06
-3.73406e-05 0.00266483 1.20564e-07
8.49324e-06 1.20564e-07 0.00266201
0.000657735 -7.64575e-06 1.74782e-05
-7.64575e-06 -0.000100081 9.68206e-07
1.74782e-05 9.68206e-07 -0.000165033
0.0053447 -5.20081e-05 0.000198394
-5.20081e-05 0.0026912 -6.1549e-07
0.000198394 -6.1549e-07 0.00269232
0.00131082 -1.55407e-05 -1.90844e-05
-1.55407e-05 0.000398317 -8.10492e-07
-1.90844e-05 -8.10492e-07 0.000364563
0.0016384 1.04277e-05 -3.9436e-05
1.04277e-05 0.000459985 -2.59968e-07
-3.9436e-05 -2.59968e-07 0.000404886
0.00112086 2.1319e-05 1.16042e-05
2.1319e-05 7.64001e-06 1.41937e-06
1.16042e-05 1.41937e-06 -0.000102294
0.00327942 3.55342e-05 7.2842e-05
3.55342e-05 0.00151378 1.38946e-06
7.2842e-05 1.38946e-06 0.00149919
0.000689388 4.3944e-05 1.78453e-05
4.3944e-05 -7.73035e-05 3.58172e-06
1.78453e-05 3.58172e-06 -0.000143313
0.00528555 8.17073e-05 0.000183848
8.17073e-05 0.00265603 8.93071e-06
0.000183848 8.93071e-06 0.00265813
0.00522129 -2.63234e-05 -8.90579e-06
-2.63234e-05 0.0026311 -7.60872e-07
-8.90579e-06 -7.60872e-07 0.00262779
0.000672151 3.24404e-05 1.83207e-05
3.24404e-05 -9.52065e-05 1.75359e-06
1.83207e-05 1.75359e-06 -0.000155911
0.0052284 5.68307e-05 0.000183061
5.68307e-05 0.00263027 -6.296e-07
0.000183061 -6.296e-07 0.00262979
0.00326979 2.88378e-05 8.76316e-05
2.88378e-05 0.00151228 1.89889e-06
8.76316e-05 1.89889e-06 0.00149656
0.000694928 6.31163e-06 1.74231e-05
6.31163e-06 -7.6327e-05 2.52275e-06
1.74231e-05 2.52275e-06 -0.000140895
0.00526171 -3.95009e-05 0.000176929
-3.95009e-05 0.0026444 4.48675e-06
0.000176929 4.48675e-06 0.00264509
0.0052266 -0.000134623 0.000177373
-0.000134623 0.00264109 -1.43422e-06
0.000177373 -1.43422e-06 0.0026326
0.00522429 -2.66334e-05 0.000175518
-2.66334e-05 0.00261998 2.10997e-06
0.000175518 2.10997e-06 0.00262355
