# vtk DataFile Version 2.0
Wound Healing Simulation
ASCII
DATASET UNSTRUCTURED_GRID
POINTS 3012 float
69.9759 18.75 4
67.2507 60.3285 4
69.976 18.75 2
73.0099 25.446 4
71.1327 20.9142 4
68.6801 16.6661 4
67.8218 19.9261 3.97451
67.2507 60.3286 2
71.1327 54.0858 4
68.6801 58.3339 4
65.6939 62.2254 4
65.3087 58.999 3.97286
74.6784 42.3946 4
73.7221 47.2057 4
69.9759 18.75 0
73.0099 25.446 2
68.6801 16.6661 2
71.1327 20.9142 2
67.8227 19.9303 2
74.6792 32.6053 4
73.7222 27.7943 4
72.1454 23.1494 4
70.6116 26.2215 3.97435
68.8823 21.9577 3.97486
67.2507 14.6715 4
66.6331 17.9729 3.97323
65.7733 21.0332 3.96306
67.2507 60.3285 0
71.1327 54.0858 2
68.6801 58.3339 2
65.694 62.2255 2
65.3097 58.9945 2
72.1454 51.8506 4
69.9759 56.25 4
68.8328 53.1138 3.97449
64.0165 64.0165 4
66.607 57.1327 3.97424
63.882 60.7629 3.97226
63.491 57.7635 3.96415
60.3285 67.2507 4
74.6792 42.3947 2
73.7222 47.2057 2
74.9194 39.9526 4
74.2788 44.8158 4
72.1662 42.0857 3.97572
73.0099 49.554 4
71.2467 46.5982 3.9743
73.0099 25.446 0
71.1327 20.9142 0
68.6801 16.6661 0
67.8218 19.9261 0.0254909
74.6792 32.6053 2
73.7222 27.7943 2
67.2508 14.6715 2
72.1455 23.1494 2
70.611 26.2224 2
66.6346 17.9777 2
68.8826 21.9607 2
65.7707 21.0355 2
74.9197 35.0474 4
74.2794 30.1841 4
72.183 32.9445 3.97623
71.2759 28.4324 3.97458
69.8125 24.0596 3.97458
68.3351 26.9563 3.96409
66.742 22.9399 3.96341
65.694 12.7746 4
65.3192 16.1059 3.97164
64.6936 19.2039 3.96273
63.7746 22.0789 3.96422
71.1327 54.0858 0
65.6939 62.2254 0
68.6801 58.3339 0
65.3087 58.999 0.0271371
72.1455 51.8506 2
69.9759 56.25 2
68.8331 53.111 2
64.0165 64.0165 2
66.6083 57.1284 2
63.8832 60.7578 2
63.4886 57.7631 2
62.2254 65.694 4
58.8915 65.4125 3.982
69.7656 50.9897 3.97421
67.78 55.1675 3.9746
66.6234 52.2033 3.96347
62.3323 62.4244 3.97631
64.6466 56.0257 3.96366
62.1943 59.3903 3.96452
61.752 56.6451 3.96095
58.3339 68.6801 4
60.3285 67.2508 2
73.7221 47.2057 0
74.6784 42.3946 0
74.9197 39.9526 2
74.2794 44.8159 2
72.1654 42.0855 2
73.0099 49.554 2
71.246 46.5977 2
75 37.5 4
72.4036 39.8026 3.97698
71.7803 44.3531 3.97548
69.7981 41.7897 3.96644
70.5722 48.8141 3.97401
68.9008 46.0128 3.96534
74.6792 32.6053 0
73.7222 27.7943 0
67.2507 14.6715 0
72.1454 23.1494 0
70.6116 26.2215 0.0256493
68.8823 21.9577 0.025143
66.6331 17.9729 0.0267653
65.7733 21.0332 0.0369363
74.9197 35.0474 2
74.2794 30.1841 2
72.1822 32.9447 2
71.2754 28.4327 2
65.694 12.7745 2
65.3208 16.111 2
69.8123 24.0614 2
68.3376 26.9572 2
64.6873 19.2066 2
66.7421 22.9417 2
63.7738 22.0799 2
72.4115 35.2251 3.97706
71.8019 30.6775 3.97565
69.8345 33.2716 3.96656
68.9596 29.0422 3.96496
67.5955 24.9176 3.96367
66.068 27.6683 3.96902
64.0165 10.9835 4
64.6367 23.871 3.966
63.8852 14.3311 3.9713
63.5016 17.4578 3.96212
62.7999 20.3672 3.96232
61.8802 23.025 3.96902
60.6805 11.1021 3.97714
57.6047 11.4778 3.96838
72.1454 51.8506 0
69.9759 56.25 0
68.8328 53.1138 0.025507
64.0165 64.0165 0
63.882 60.7629 0.0277375
66.607 57.1327 0.0257561
63.491 57.7635 0.0358475
62.2255 65.694 2
58.8935 65.4081 2
69.7654 50.9878 2
67.7807 55.1636 2
66.623 52.2019 2
62.3345 62.4194 2
64.6395 56.0238 2
62.1917 59.39 2
61.7505 56.6455 2
60.6656 63.973 3.97884
57.022 66.7335 3.98471
57.551 63.6709 3.9708
67.483 50.1715 3.96392
65.6803 54.1675 3.96343
64.3992 51.3446 3.96618
60.767 60.9169 3.96758
62.724 55.03 3.96341
60.6059 58.1221 3.95961
60.189 55.7205 3.96496
56.25 69.9759 4
58.3339 68.6801 2
60.3285 67.2507 0
58.9178 9.66023 3.97851
62.2254 9.30607 4
73.0099 49.554 0
74.2788 44.8158 0
71.2467 46.5982 0.0256977
72.1662 42.0857 0.0242764
74.9194 39.9526 0
75 37.5 2
72.4034 39.8025 2
71.78 44.3527 2
69.7973 41.7896 2
70.5717 48.813 2
68.904 46.0124 2
72.4871 37.5127 3.9766
70.0359 39.6582 3.967
69.4244 43.907 3.96621
67.4872 41.4873 3.97392
68.2457 48.1032 3.96451
66.5692 45.414 3.97133
74.9197 35.0474 0
74.2794 30.1841 0
72.183 32.9445 0.0237694
71.2759 28.4324 0.0254219
65.694 12.7746 0
65.3192 16.1059 0.0283566
69.8125 24.0596 0.0254183
68.3351 26.9563 0.0359059
66.742 22.9399 0.0365938
64.6936 19.2039 0.0372724
63.7746 22.0789 0.0357825
72.4113 35.2251 2
71.8017 30.678 2
69.8337 33.2723 2
68.9595 29.0429 2
64.0165 10.9835 2
63.8871 14.3364 2
63.4971 17.4594 2
67.5969 24.919 2
66.0665 27.6693 2
62.7989 20.368 2
64.6352 23.8723 2
61.8789 23.026 2
60.6832 11.107 2
57.6055 11.4707 2
70.0527 35.3945 3.96709
69.4611 31.1532 3.96561
67.5512 33.6053 3.97296
66.6493 29.6507 3.97035
65.3999 25.7371 3.9677
63.8918 28.3202 3.97572
62.3374 12.6591 3.97527
62.6252 24.7149 3.97152
62.1887 15.8022 3.9648
61.7236 18.7332 3.95986
61.016 21.4288 3.96571
60.1186 23.8451 3.97293
59.2385 12.8116 3.96516
55.8675 10.2626 3.97239
56.3924 13.1763 3.96923
69.7656 50.9897 0.0257907
62.2254 65.694 0
58.8915 65.4125 0.0180025
67.78 55.1675 0.0254047
66.6234 52.2033 0.0365348
62.3323 62.4244 0.0236893
62.1943 59.3903 0.0354832
64.6466 56.0257 0.0363364
61.752 56.6451 0.0390546
60.6678 63.9702 2
57.0249 66.7305 2
57.5518 63.6748 2
67.4842 50.1704 2
65.6772 54.1659 2
64.3983 51.3441 2
60.7652 60.9181 2
62.7226 55.0299 2
60.6068 58.1236 2
60.1877 55.7205 2
55.0679 67.9309 3.98702
59.2125 62.3352 3.96793
55.7994 64.8983 3.97297
56.3146 62.0411 3.97179
65.1829 49.3699 3.96776
63.5829 53.2516 3.96468
62.1769 50.5756 3.97042
59.3093 59.5212 3.96028
60.8908 54.2382 3.96758
59.1577 56.9417 3.96109
59.044 55.0973 3.9681
48.0994 68.573 3.98273
50.9458 69.931 3.98915
54.0858 71.1327 4
56.25 69.976 2
58.3339 68.6801 0
57.0553 8.33904 3.98084
60.3285 7.74928 4
58.921 9.6643 2
62.2255 9.30602 2
70.5722 48.8141 0.0259947
71.7803 44.3531 0.0245213
68.9008 46.0128 0.0346559
69.7981 41.7897 0.0335596
72.4036 39.8026 0.0230171
75 37.5 0
72.4863 37.5126 2
70.0357 39.6582 2
69.4239 43.9066 2
67.4849 41.487 2
68.248 48.1025 2
66.5673 45.4134 2
70.124 37.5232 3.96712
67.7321 39.5087 3.97395
67.0962 43.4521 3.97258
65.2959 41.186 3.97625
65.9196 47.3849 3.96973
64.3652 44.7956 3.97637
72.4115 35.2251 0.0229429
71.8019 30.6775 0.0243508
69.8345 33.2716 0.0334438
68.9596 29.0422 0.0350411
64.0165 10.9835 0
63.8852 14.3311 0.028702
63.5016 17.4578 0.0378833
67.5955 24.9176 0.0363285
66.068 27.6683 0.0309768
64.6367 23.871 0.0340009
62.7999 20.3672 0.0376766
61.8802 23.025 0.0309805
60.6805 11.1021 0.0228642
57.6047 11.4778 0.0316214
70.0525 35.3949 2
69.4609 31.1539 2
67.5491 33.6058 2
66.6471 29.6515 2
62.3399 12.6644 2
62.1867 15.8033 2
61.722 18.7338 2
65.3981 25.7383 2
63.8892 28.3216 2
61.0155 21.4294 2
62.6234 24.7161 2
60.1167 23.8465 2
59.2386 12.8121 2
56.3938 13.1738 2
55.8699 10.2616 2
67.7703 35.5559 3.9734
67.1551 31.6433 3.97215
65.453 33.9547 3.97659
64.4014 30.2478 3.97617
63.2942 26.4858 3.97395
61.8855 28.8741 3.97584
60.7671 14.2481 3.96555
60.711 25.4516 3.9751
60.5545 17.1747 3.95886
60.0302 19.9093 3.96198
59.3653 22.3831 3.96859
58.5957 24.4704 3.97436
54.0331 9.15026 3.97155
57.8933 14.3829 3.96299
54.774 12.0749 3.96693
55.288 14.7254 3.96314
67.483 50.1715 0.0360765
57.022 66.7335 0.0152874
60.6656 63.973 0.021157
57.551 63.6709 0.0292002
65.6803 54.1675 0.0365701
64.3992 51.3446 0.0338205
60.767 60.9169 0.0324222
60.6059 58.1221 0.0403878
62.724 55.03 0.036589
60.189 55.7205 0.0350446
55.0707 67.9288 2
59.2122 62.3382 2
55.8003 64.8967 2
56.3131 62.0411 2
65.1813 49.3692 2
63.5827 53.2514 2
62.176 50.575 2
59.3128 59.5255 2
60.8908 54.2382 2
59.164 56.9435 2
59.0492 55.0983 2
53.0399 68.9991 3.98844
53.9626 66.0033 3.97715
57.8653 60.8301 3.9679
54.6711 63.1666 3.97079
55.191 60.5609 3.97535
62.9117 48.5893 3.97268
61.5123 52.4997 3.96889
59.8912 49.9084 3.97299
57.9372 58.2023 3.96034
59.0747 53.8511 3.96989
57.8969 55.7121 3.96317
50.1059 67.8505 3.98157
47.4596 66.5678 3.97684
46.0535 69.1526 3.98441
48.1006 68.5726 2
48.7998 70.7224 3.98975
50.948 69.93 2
51.8506 72.1454 4
54.0858 71.1327 2
56.25 69.9759 0
55.1002 7.14336 3.98467
58.3339 6.31992 4
57.0586 8.3429 2
60.3286 7.74926 2
58.9178 9.66023 0.0214934
62.2254 9.30607 0
68.2457 48.1032 0.0354884
69.4244 43.907 0.0337874
66.5692 45.414 0.0286693
67.4872 41.4873 0.0260846
70.0359 39.6582 0.0329998
72.4871 37.5127 0.0233979
70.1233 37.5234 2
67.7296 39.5086 2
67.0948 43.4517 2
65.293 41.1856 2
65.9181 47.3841 2
64.3635 44.7946 2
67.8324 37.5245 3.97375
65.5359 39.3603 3.9765
64.9056 42.9849 3.97646
63.3838 40.8965 3.97658
63.6728 46.6531 3.97476
62.398 44.1407 3.97616
70.0527 35.3945 0.0329064
69.4611 31.1532 0.0343872
67.5512 33.6053 0.0270358
66.6493 29.6507 0.0296523
62.3374 12.6591 0.0247337
62.1887 15.8022 0.0351995
61.7236 18.7332 0.0401427
65.3999 25.7371 0.0322997
63.8918 28.3202 0.0242817
62.6252 24.7149 0.0284779
61.016 21.4288 0.0342864
60.1186 23.8451 0.0270685
59.2385 12.8116 0.0348376
56.3924 13.1763 0.0307664
55.8675 10.2626 0.027613
67.7676 35.5562 2
67.1537 31.6439 2
65.4491 33.9553 2
64.3986 30.2492 2
60.7664 14.2491 2
60.5489 17.1758 2
60.0281 19.9102 2
63.292 26.4872 2
61.8834 28.8748 2
59.3669 22.3837 2
60.709 25.453 2
58.5926 24.4722 2
57.8922 14.3835 2
55.2897 14.7222 2
54.0357 9.14935 2
54.7745 12.0724 2
65.6344 35.6825 3.9765
64.925 32.1956 3.97613
63.9544 34.2835 3.9764
62.203 30.7119 3.976
61.2959 27.1797 3.97555
60.3976 29.2547 3.9761
59.2802 15.7156 3.95927
58.9082 25.9487 3.97596
58.9822 18.444 3.95961
58.4667 20.9838 3.96377
57.9178 23.2488 3.97006
57.5484 24.8363 3.97558
52.109 8.16452 3.97553
53.0468 11.0646 3.96884
56.6372 15.8168 3.95871
53.7875 13.7636 3.96748
54.3238 16.0976 3.95963
55.0679 67.9309 0.0129837
65.1829 49.3699 0.0322364
55.7994 64.8983 0.0270329
59.2125 62.3352 0.0320686
56.3146 62.0411 0.0282113
63.5829 53.2516 0.0353186
62.1769 50.5756 0.029585
59.3093 59.5212 0.0397199
59.1577 56.9417 0.0389075
60.8908 54.2382 0.0324182
59.044 55.0973 0.0319047
53.0425 68.9978 2
53.9639 66.0028 2
57.8647 60.8313 2
54.6703 63.1679 2
55.1886 60.5606 2
62.91 48.5885 2
61.5128 52.4996 2
59.8923 49.9081 2
57.9361 58.2038 2
59.0791 53.8517 2
57.8929 55.7106 2
52.067 66.9922 3.98015
52.9452 64.1953 3.97465
56.6123 59.4378 3.96287
53.6574 61.5607 3.97286
54.2202 59.262 3.97012
60.5644 47.7719 3.97424
59.3824 51.998 3.97094
57.5484 49.4724 3.97411
56.6415 56.9031 3.96248
56.8003 53.9969 3.96671
50.107 67.8501 2
49.3329 65.9078 3.97724
47.4605 66.5671 2
46.887 64.7146 3.97625
45.5558 67.0863 3.97928
43.9712 69.585 3.98547
46.0548 69.153 2
46.6064 71.3667 3.99053
48.0994 68.573 0.0172716
48.8018 70.7217 2
49.554 73.0099 4
50.9458 69.931 0.0108534
51.8506 72.1455 2
54.0858 71.1327 0
53.0627 6.07384 3.98813
55.1037 7.14499 2
56.25 5.02411 4
58.3339 6.3199 2
57.0553 8.33904 0.019165
60.3285 7.74928 0
65.9196 47.3849 0.0302722
67.0962 43.4521 0.0274227
64.3652 44.7956 0.0236335
65.2959 41.186 0.0237476
67.7321 39.5087 0.0260476
70.124 37.5232 0.0328791
67.83 37.5246 2
65.5327 39.3602 2
64.9024 42.9841 2
63.3834 40.8961 2
63.6708 46.6521 2
62.397 44.1404 2
65.6449 37.505 3.97648
63.5341 39.2526 3.9766
62.936 42.5015 3.97618
61.9727 40.6579 3.9766
61.5423 45.8237 3.97585
60.9441 43.6 3.97599
67.7703 35.5559 0.026601
67.1551 31.6433 0.0278501
65.453 33.9547 0.0234129
64.4014 30.2478 0.0238322
60.7671 14.2481 0.0344503
60.5545 17.1747 0.0411355
60.0302 19.9093 0.0380169
63.2942 26.4858 0.0260531
61.8855 28.8741 0.0241569
60.711 25.4516 0.0249015
59.3653 22.3831 0.0314084
58.5957 24.4704 0.0256372
57.8933 14.3829 0.0370058
55.288 14.7254 0.0368565
54.0331 9.15026 0.0284539
54.774 12.0749 0.0330687
65.6309 35.6826 2
64.9218 32.1964 2
63.9531 34.2838 2
62.2017 30.7121 2
59.2798 15.7144 2
58.9917 18.4417 2
58.4652 20.9851 2
61.294 27.1807 2
60.3973 29.2553 2
57.9074 23.2524 2
58.907 25.9496 2
57.5516 24.8377 2
56.632 15.8179 2
54.3289 16.0922 2
53.7858 13.7545 2
52.1112 8.16423 2
53.0484 11.0617 2
63.7444 35.6528 3.9764
62.5279 33.1007 3.9761
60.1107 30.7196 3.97576
59.0918 28.0525 3.97586
57.8558 17.0636 3.95817
57.2565 25.9126 3.9759
57.4925 19.6024 3.95953
57.0134 22.0069 3.96453
56.7416 24.1344 3.97114
50.1102 7.29325 3.98122
51.2245 10.1519 3.97232
52.1521 12.8732 3.9663
55.4558 17.0742 3.95755
52.9368 15.3655 3.96235
53.6786 17.0987 3.95689
53.0399 68.9991 0.0115601
53.9626 66.0033 0.0228482
62.9117 48.5893 0.0273167
54.6711 63.1666 0.0292148
57.8653 60.8301 0.0320987
55.191 60.5609 0.0246454
61.5123 52.4997 0.0311146
59.8912 49.9084 0.0270071
57.9372 58.2023 0.0396616
57.8969 55.7121 0.0368339
59.0747 53.8511 0.0301063
52.0681 66.9921 2
52.945 64.1981 2
56.6119 59.4384 2
53.6557 61.5616 2
54.2157 59.2638 2
60.5639 47.7713 2
59.3843 51.998 2
57.5482 49.4717 2
56.6371 56.9062 2
56.7972 53.9956 2
51.163 65.1138 3.97671
52.0281 62.5 3.9713
55.4029 58.1824 3.9605
52.792 60.0568 3.97024
53.5782 58.402 3.96573
57.7195 46.6918 3.97586
57.1574 51.6495 3.97106
55.6883 49.3825 3.97328
55.2818 55.6876 3.96253
54.9824 53.2404 3.96274
50.1059 67.8505 0.0184292
49.3333 65.9073 2
48.6108 64.1031 3.97804
47.4596 66.5678 0.0231563
45.5564 67.0876 2
46.8874 64.7138 2
46.3729 63.0244 3.98197
45.1291 65.1787 3.97776
43.6297 67.4589 3.9811
41.859 69.8719 3.98516
43.9721 69.5853 2
44.3739 71.8613 3.99093
46.0535 69.1526 0.0155915
46.608 71.3665 2
47.2057 73.7222 4
48.7998 70.7224 0.0102463
49.554 73.0099 2
51.8506 72.1454 0
50.9538 5.1343 3.99016
53.0653 6.07459 2
54.0858 3.86728 4
55.1002 7.14336 0.0153298
56.25 5.02406 2
58.3339 6.31992 0
63.6728 46.6531 0.0252398
64.9056 42.9849 0.0235367
62.398 44.1407 0.0238382
63.3838 40.8965 0.0234235
65.5359 39.3603 0.0234991
67.8324 37.5245 0.0262507
65.6414 37.505 2
63.5339 39.2525 2
62.9358 42.5012 2
61.9739 40.6577 2
61.5412 45.8229 2
60.9441 43.6002 2
63.5984 37.4598 3.97651
61.6793 39.3326 3.97677
60.6882 41.8909 3.97663
59.6959 44.6506 3.97607
65.6344 35.6825 0.023496
64.925 32.1956 0.0238659
63.9544 34.2835 0.023601
62.203 30.7119 0.0240046
59.2802 15.7156 0.0407256
58.9822 18.444 0.0403867
58.4667 20.9838 0.0362315
61.2959 27.1797 0.0244543
60.3976 29.2547 0.023897
58.9082 25.9487 0.0240448
57.9178 23.2488 0.0299365
57.5484 24.8363 0.024425
56.6372 15.8168 0.0412897
54.3238 16.0976 0.0403736
53.7875 13.7636 0.0325154
52.109 8.16452 0.0244682
53.0468 11.0646 0.0311588
63.744 35.6528 2
62.5284 33.1011 2
60.1114 30.7198 2
57.8593 17.0626 2
57.5082 19.5984 2
57.0086 22.0097 2
59.0914 28.053 2
56.7542 24.1353 2
57.2591 25.9147 2
50.1123 7.29086 2
55.46 17.0727 2
53.6891 17.0897 2
52.9338 15.3586 2
52.1529 12.8759 2
51.2266 10.1483 2
61.723 35.3884 3.97653
59.7272 32.8268 3.97605
58.0198 30.2165 3.97564
56.7298 27.5714 3.97627
56.5017 18.2678 3.95944
55.7787 25.3154 3.97511
56.0781 20.6806 3.96061
55.6826 23.0677 3.96442
48.0557 6.53301 3.98556
49.3198 9.34819 3.97526
50.4176 12.0481 3.97061
51.3393 14.5864 3.96319
54.2945 18.0497 3.95939
52.2943 17.1684 3.95799
52.067 66.9922 0.0198503
52.9452 64.1953 0.0253516
60.5644 47.7719 0.0257604
53.6574 61.5607 0.0271353
56.6123 59.4378 0.0371297
54.2202 59.262 0.0298783
59.3824 51.998 0.0290593
57.5484 49.4724 0.0258893
56.6415 56.9031 0.0375193
56.8003 53.9969 0.0332857
51.163 65.1133 2
52.0271 62.5013 2
55.4002 58.1832 2
52.7906 60.0595 2
53.5754 58.4045 2
57.7193 46.6911 2
57.1545 51.6484 2
55.684 49.3811 2
55.2787 55.6874 2
54.982 53.2405 2
50.3352 63.3609 3.97768
51.2082 60.87 3.97442
54.1099 57.187 3.96602
52.2193 58.5496 3.96519
55.9341 44.0178 3.97633
54.8316 47.7029 3.97522
54.5592 51.2187 3.96578
53.7441 54.4207 3.96491
49.3329 65.9078 0.0227595
48.6103 64.1013 2
47.9472 62.4503 3.98273
45.5558 67.0863 0.0207228
46.887 64.7146 0.0237474
43.6301 67.4593 2
46.3726 63.0254 2
45.1299 65.1772 2
45.9722 61.5529 3.99026
44.7614 63.4228 3.97686
43.3557 65.4908 3.97833
41.6623 67.6772 3.98071
39.7014 70.0179 3.98455
41.8598 69.8723 2
42.1087 72.2055 3.99129
43.9712 69.585 0.0145319
44.3752 71.8611 2
44.8159 74.2794 4
46.6064 71.3667 0.00947449
47.2057 73.7222 2
49.554 73.0099 0
48.7853 4.32456 3.99101
50.9555 5.13386 2
51.8506 2.85458 4
53.0627 6.07384 0.0118689
54.0858 3.86728 2
56.25 5.02411 0
61.5423 45.8237 0.0241464
62.936 42.5015 0.0238198
60.9441 43.6 0.0240074
61.9727 40.6579 0.0233963
63.5341 39.2526 0.0233959
65.6449 37.505 0.0235226
63.5981 37.4597 2
61.6806 39.3325 2
60.6901 41.891 2
59.6965 44.6504 2
61.5074 37.4464 3.97691
59.6359 39.8054 3.97678
58.3129 42.8142 3.97595
63.7444 35.6528 0.0236045
62.5279 33.1007 0.0238953
60.1107 30.7196 0.0242414
57.8558 17.0636 0.041827
57.4925 19.6024 0.0404692
57.0134 22.0069 0.0354747
59.0918 28.0525 0.0241362
57.2565 25.9126 0.0241022
56.7416 24.1344 0.0288592
55.4558 17.0742 0.0424453
53.6786 17.0987 0.043111
52.9368 15.3655 0.0376527
50.1102 7.29325 0.0187825
52.1521 12.8732 0.0337016
51.2245 10.1519 0.0276801
61.7243 35.3885 2
59.7275 32.8264 2
58.021 30.2158 2
56.5035 18.2668 2
56.1035 20.674 2
55.6919 23.0714 2
56.7309 27.5732 2
55.787 25.321 2
48.0568 6.53199 2
49.3216 9.3461 2
54.3107 18.0487 2
52.2863 17.1633 2
51.3358 14.5878 2
50.4197 12.0476 2
59.2701 35.1605 3.97655
57.2856 32.3823 3.97555
55.8721 29.5243 3.97591
54.8271 26.8462 3.97543
55.1694 19.3269 3.96214
54.4608 24.2841 3.97333
54.6642 21.7519 3.9607
45.9626 5.8866 3.9876
43.3745 7.48082 3.98322
47.3531 8.63502 3.98034
48.5891 11.3278 3.9729
49.6805 13.8044 3.96786
50.5749 16.2395 3.96025
52.9883 18.82 3.96361
51.2117 18.2299 3.95962
51.163 65.1138 0.0232896
52.0281 62.5 0.0286953
57.7195 46.6918 0.0241402
52.792 60.0568 0.029757
55.4029 58.1824 0.0395027
53.5782 58.402 0.0342708
57.1574 51.6495 0.0289398
55.6883 49.3825 0.0267201
55.2818 55.6876 0.0374724
54.9824 53.2404 0.0372633
50.3344 63.3599 2
51.2063 60.869 2
54.1087 57.1883 2
52.2142 58.5512 2
55.9351 44.0184 2
54.8295 47.7016 2
54.5555 51.2176 2
53.7404 54.4219 2
49.568 61.7209 3.975
54.6592 41.6176 3.97397
50.4977 59.2565 3.96901
52.0169 56.3918 3.9648
53.3327 45.3348 3.97437
52.6852 49.1275 3.96956
52.2627 52.6986 3.95974
48.6108 64.1031 0.021962
47.9463 62.4466 2
47.3042 60.9808 3.99428
43.6297 67.4589 0.0188979
45.1291 65.1787 0.0222411
46.3729 63.0244 0.01803
41.6631 67.6766 2
43.3573 65.4913 2
45.972 61.554 2
44.7616 63.4213 2
45.7389 60.5986 3.99159
44.4732 61.7964 3.97894
43.1433 63.6993 3.97813
41.546 65.629 3.97592
39.6321 67.7545 3.97982
37.5259 70.0423 3.98381
39.7021 70.0181 2
39.8161 72.4023 3.99136
41.859 69.8719 0.0148399
42.1096 72.2058 2
42.3947 74.6792 4
44.3739 71.8613 0.00907059
44.8159 74.2794 2
47.2057 73.7222 0
43.852 5.36306 3.98693
46.5715 3.64894 3.99158
48.786 4.32425 2
49.554 1.99015 4
50.9538 5.1343 0.00983732
51.8506 2.85453 2
54.0858 3.86728 0
59.6959 44.6506 0.0239347
60.6882 41.8909 0.0233672
61.6793 39.3326 0.0232268
63.5984 37.4598 0.0234914
61.5083 37.4463 2
59.6378 39.8049 2
58.314 42.8148 2
59.1251 37.5661 3.97735
57.2339 40.5851 3.97732
54.0576 39.6357 3.97546
61.723 35.3884 0.0234713
59.7272 32.8268 0.0239522
58.0198 30.2165 0.024355
56.5017 18.2678 0.0405554
56.0781 20.6806 0.0393947
55.6826 23.0677 0.0355826
56.7298 27.5714 0.0237331
55.7787 25.3154 0.0248861
54.2945 18.0497 0.0406086
52.2943 17.1684 0.0420115
51.3393 14.5864 0.0368069
48.0557 6.53301 0.0144389
49.3198 9.34819 0.0247378
50.4176 12.0481 0.0293901
59.2711 35.1599 2
45.9631 5.88525 2
43.3747 7.47842 2
57.2863 32.3828 2
55.8717 29.5236 2
55.159 19.3328 2
54.7052 21.7518 2
54.4627 24.2915 2
54.8272 26.8472 2
47.3546 8.63233 2
48.5913 11.3245 2
52.9981 18.7906 2
51.2159 18.2219 2
50.5722 16.2403 2
49.6793 13.8092 2
56.6035 34.8205 3.9771
54.9221 31.6732 3.97554
53.7843 28.6378 3.97698
53.2054 25.7635 3.97449
53.7577 20.3013 3.96105
53.2018 22.9428 3.95884
41.4004 7.08469 3.98324
45.3599 8.00063 3.98666
42.8667 9.42808 3.97587
46.662 10.6723 3.97817
47.7183 13.1406 3.97272
48.8817 15.4795 3.96804
49.9152 17.801 3.95655
51.5033 19.5172 3.97582
50.3352 63.3609 0.0223163
51.2082 60.87 0.0255832
55.9341 44.0178 0.0236677
54.8316 47.7029 0.0247821
52.2193 58.5496 0.0348102
54.1099 57.187 0.0339786
54.5592 51.2187 0.0342199
53.7441 54.4207 0.0350883
49.5669 61.7192 2
54.6514 41.6134 2
50.4937 59.2597 2
52.0211 56.396 2
53.3272 45.3327 2
52.6822 49.1253 2
52.2657 52.6989 2
48.8024 60.1699 3.98068
51.3983 42.4877 3.98344
49.6731 57.552 3.96408
50.3184 54.3122 3.96105
51.0022 47.0365 3.97572
50.6933 50.7693 3.95452
47.0974 43.5186 3.97272
47.9472 62.4503 0.0172717
47.3036 60.9771 2
46.5787 59.7697 3.99331
41.6623 67.6772 0.019291
43.3557 65.4908 0.0216656
44.7614 63.4228 0.0231443
45.9722 61.5529 0.00973963
39.6331 67.755 2
41.5472 65.6267 2
45.739 60.5996 2
43.1427 63.6979 2
44.4716 61.7975 2
44.5958 60.2527 3.99548
42.9422 62.0511 3.97493
41.5986 63.7977 3.97713
39.6469 65.5936 3.97528
37.5634 67.7354 3.97807
31.6987 65.1116 3.97484
33.3934 67.4737 3.97808
35.3341 69.953 3.98418
37.5259 70.0438 2
37.509 72.4565 3.99191
39.7014 70.0179 0.0154513
39.8169 72.4023 2
39.9526 74.9197 4
42.1087 72.2055 0.00871274
42.3947 74.6792 2
44.8159 74.2794 0
41.7368 4.97113 3.98789
43.8522 5.36128 2
44.3271 3.11178 3.99231
46.5719 3.64843 2
47.2057 1.27793 4
48.7853 4.32456 0.00899453
49.554 1.99013 2
51.8506 2.85458 0
58.3129 42.8142 0.0240476
59.6359 39.8054 0.023217
61.5074 37.4464 0.0230857
59.1266 37.5664 2
57.2361 40.5869 2
54.0495 39.6442 2
55.9558 37.8738 3.97686
48.4233 41.2053 3.96946
51.9825 39.2688 3.98138
39.444 6.80802 3.98354
59.2701 35.1605 0.0234467
57.2856 32.3823 0.0244456
55.8721 29.5243 0.0240944
55.1694 19.3269 0.0378563
54.6642 21.7519 0.0392989
54.4608 24.2841 0.0266652
54.8271 26.8462 0.0245722
52.9883 18.82 0.0363894
51.2117 18.2299 0.0403801
50.5749 16.2395 0.0397521
45.9626 5.8866 0.0124028
49.6805 13.8044 0.0321419
47.3531 8.63502 0.0196555
48.5891 11.3278 0.0271016
43.3745 7.48082 0.0167781
56.6036 34.8199 2
41.4005 7.08433 2
45.3604 7.99871 2
42.8668 9.4261 2
54.9243 31.6728 2
53.7833 28.6396 2
53.7622 20.3171 2
53.1874 22.9479 2
53.2026 25.7634 2
46.6637 10.6669 2
47.7192 13.1359 2
51.5219 19.5146 2
49.9152 17.8083 2
48.8744 15.4955 2
53.8787 34.0239 3.97489
52.6139 30.7364 3.97516
51.898 27.4988 3.9751
51.7033 24.3926 3.97814
52.1495 21.266 3.97642
41.0135 9.05868 3.977
44.7265 10.0027 3.98577
42.4586 10.9119 4.00588
45.9808 12.7473 3.96749
47.6401 14.6561 3.96569
48.0243 17.0551 3.96623
49.7196 19.9185 3.9818
49.568 61.7209 0.0250014
50.4977 59.2565 0.0309884
54.6592 41.6176 0.0260328
53.3327 45.3348 0.0256303
52.6852 49.1275 0.0304427
52.0169 56.3918 0.0351996
52.2627 52.6986 0.0402558
48.7991 60.167 2
51.4104 42.4994 2
49.6701 57.5518 2
50.3203 54.315 2
51.0046 47.0358 2
50.6979 50.769 2
47.1074 43.5534 2
47.9123 58.6809 3.99082
49.0899 45.0634 3.98116
48.4186 55.8335 3.95738
48.7654 52.4596 3.97627
49.0436 48.8426 3.96994
44.8181 39.7615 3.84376
45.3293 42.4474 3.88554
45.618 45.5089 3.98236
42.6645 40.9855 3.64611
41.4733 41.7246 3.44529
47.3042 60.9808 0.00572363
46.5772 59.7663 2
45.4152 58.764 3.99508
39.6321 67.7545 0.0201784
41.546 65.629 0.0240789
43.1433 63.6993 0.0218673
44.4732 61.7964 0.021064
45.7389 60.5986 0.00840687
41.5989 63.7947 2
37.5641 67.7373 2
39.6486 65.5941 2
44.597 60.2543 2
42.9401 62.051 2
41.746 62.4573 3.97687
42.4589 59.9454 3.98366
39.8939 63.5297 3.97644
37.6417 65.4896 3.97452
35.464 67.6453 3.97804
33.5766 65.3229 3.97419
31.9613 63.2695 3.97693
29.8868 64.7011 3.97897
31.6981 65.1113 2
31.3786 67.1846 3.97846
33.3929 67.4751 2
33.1579 69.7465 3.98412
35.3337 69.9545 2
35.196 72.3712 3.992
37.5259 70.0423 0.0161946
37.5094 72.4571 2
37.5 75 4
39.8161 72.4023 0.00864128
39.9526 74.9197 2
42.3947 74.6792 0
39.6249 4.71877 3.9889
41.7368 4.9706 2
42.0636 2.71881 3.99268
43.852 5.36306 0.0130745
44.3271 3.11085 2
44.8158 0.721173 4
46.5715 3.64894 0.00842271
47.2057 1.27779 2
49.554 1.99015 0
57.2339 40.5851 0.022675
59.1251 37.5661 0.0226539
54.0576 39.6357 0.024538
48.4459 41.2145 2
55.9587 37.8708 2
51.9765 39.2335 2
52.8392 36.614 3.97753
46.3539 40.2818 3.8921
49.3594 38.5007 3.98215
37.518 6.67731 3.98499
39.4446 6.80629 2
39.2115 8.70109 3.98133
35.9441 8.49837 3.98306
56.6035 34.8205 0.0228991
54.9221 31.6732 0.0244636
53.7843 28.6378 0.0230233
53.7577 20.3013 0.0389473
53.2018 22.9428 0.0411638
53.2054 25.7635 0.0255091
51.5033 19.5172 0.0241844
49.9152 17.801 0.0434515
48.8817 15.4795 0.0319601
45.3599 8.00063 0.0133449
47.7183 13.1406 0.0272847
46.662 10.6723 0.0218316
41.4004 7.08469 0.016758
42.8667 9.42808 0.0241318
53.8763 34.0194 2
41.0146 9.06022 2
44.726 9.99999 2
42.4597 10.914 2
52.6065 30.7336 2
51.9075 27.5004 2
52.1477 21.2757 2
51.6882 24.3952 2
45.9819 12.7398 2
47.6321 14.6281 2
49.7388 19.9115 2
48.0218 17.0673 2
51.3659 32.9543 3.98186
50.4479 29.4599 3.97716
50.2036 25.992 3.97004
49.7157 22.5211 3.98602
40.5621 11.6205 3.9846
43.8361 11.9159 3.97473
45.7576 15.5081 3.99033
47.4278 19.5346 3.98145
45.2744 37.4836 3.84326
48.8024 60.1699 0.0193183
49.6731 57.552 0.0359169
51.3983 42.4877 0.0165627
51.0022 47.0365 0.0242751
50.6933 50.7693 0.0454786
50.3184 54.3122 0.0389519
47.0974 43.5186 0.027283
47.9082 58.6861 2
49.1055 45.0791 2
48.4145 55.8358 2
48.7668 52.4651 2
49.0487 48.8449 2
44.9249 39.7875 2
45.3575 42.4677 2
45.626 45.529 2
42.7245 41.0411 2
41.5134 41.7494 2
46.7319 57.286 3.98116
43.3691 39.3475 3.64345
41.8543 40.6749 3.44681
47.2972 47.0879 3.9837
46.9263 54.1352 3.95871
47.1328 50.5996 3.97715
44.1856 47.1387 3.98565
43.9805 41.7909 3.84305
44.1172 44.2442 3.87779
41.7525 42.3671 3.69338
40.5268 42.0115 3.41111
46.5787 59.7697 0.00669257
45.4148 58.7629 2
43.8225 57.6414 3.98333
37.5634 67.7354 0.0219251
39.6469 65.5936 0.0247155
41.5986 63.7977 0.0228727
42.9422 62.0511 0.0250703
44.5958 60.2527 0.00452242
35.4641 67.6475 2
41.7442 62.4598 2
39.8931 63.5301 2
37.6429 65.4919 2
42.4616 59.943 2
40.6163 61.5981 3.98291
40.4225 58.1187 3.98527
37.8372 63.1858 3.97259
35.573 65.4126 3.97653
33.5766 65.3226 2
31.9634 63.273 2
33.6299 63.3136 3.97563
30.3816 62.8326 3.9814
32.1312 61.9721 3.98739
26.8852 61.4467 3.98202
28.0684 64.1301 3.98036
29.8864 64.701 2
29.4087 66.7475 3.97838
31.6987 65.1116 0.0251564
31.3782 67.1846 2
31.0158 69.4122 3.98392
33.3934 67.4737 0.0219188
33.1571 69.7477 2
32.8942 72.1456 3.99131
35.3341 69.953 0.0158245
35.1957 72.372 2
35.0474 74.9194 4
37.509 72.4565 0.00809212
37.5 75 2
39.9526 74.9197 0
35.6224 6.72886 3.98401
37.5248 4.61775 3.9893
39.6249 4.71727 2
39.7902 2.47542 3.9928
41.7368 4.97113 0.0121134
42.0633 2.7184 2
42.3946 0.32156 4
44.3271 3.11178 0.00768698
44.8159 0.72056 2
47.2057 1.27793 0
48.4233 41.2053 0.0305362
55.9558 37.8738 0.0231377
51.9825 39.2688 0.0186226
46.3739 40.2893 2
49.3578 38.4947 2
52.8469 36.6418 2
50.1663 35.554 3.97453
47.0063 37.7491 3.89525
44.8468 35.2018 3.84302
42.7157 33.963 3.64603
41.5112 33.226 3.44428
37.4595 8.538 3.9843
37.5184 6.67678 2
39.444 6.80802 0.0164624
39.2133 8.69871 2
38.9753 10.1376 3.98632
35.9002 9.78134 3.98013
34.1541 8.83042 3.98093
35.945 8.49602 2
53.8787 34.0239 0.0251116
52.6139 30.7364 0.0248436
51.898 27.4988 0.0249046
52.1495 21.266 0.023577
51.7033 24.3926 0.02186
49.7196 19.9185 0.018204
48.0243 17.0551 0.0337665
47.6401 14.6561 0.0343066
44.7265 10.0027 0.0142335
45.9808 12.7473 0.0325125
41.0135 9.05868 0.0229993
42.4586 10.9119 -0.00587888
51.3792 32.9451 2
40.5652 11.6248 2
43.8354 11.9072 2
50.4642 29.4608 2
50.2002 26.0015 2
49.6975 22.4985 2
45.7441 15.4481 2
47.4317 19.5655 2
48.9568 31.5626 3.98465
48.5629 27.761 3.97595
48.9704 24.6306 3.98062
47.0436 22.3077 3.99087
38.2986 12.7551 3.97745
42.0787 14.3354 3.98159
44.7438 18.6364 3.97311
43.7872 37.4829 3.65769
45.375 37.4868 2
47.9123 58.6809 0.00917922
48.4186 55.8335 0.0426177
49.0899 45.0634 0.0188425
49.0436 48.8426 0.0300595
48.7654 52.4596 0.0237259
44.8181 39.7615 0.156242
45.3293 42.4474 0.114459
45.618 45.5089 0.0176358
42.6645 40.9855 0.353889
41.4733 41.7246 0.554714
46.7283 57.2921 2
43.4471 39.3738 2
41.8652 40.6877 2
47.3051 47.0863 2
46.921 54.1398 2
47.1352 50.6092 2
44.2216 47.1385 2
44.0463 41.8274 2
44.175 44.2726 2
41.8067 42.4318 2
40.5628 42.0292 2
45.2585 55.8611 4.00085
42.1975 39.1756 3.45739
40.4155 40.5587 3.55567
45.5359 48.7311 4.00145
45.2009 52.3935 3.98688
42.9569 48.1297 3.99286
42.8336 45.7674 3.87406
42.9231 43.5548 3.82896
40.6691 43.3373 3.66567
39.1598 42.2696 3.47076
45.4152 58.764 0.00491817
43.8201 57.6512 2
42.0451 56.2149 3.99016
35.464 67.6453 0.0219606
37.6417 65.4896 0.0254752
39.8939 63.5297 0.0235608
41.746 62.4573 0.0231263
42.4589 59.9454 0.0163442
35.574 65.4162 2
40.6161 61.5959 2
37.8378 63.1842 2
40.4227 58.1234 2
38.9024 56.3545 3.99428
38.2447 60.2791 3.98253
35.6073 63.1799 3.97212
33.5766 65.3229 0.0258084
31.9613 63.2695 0.0230729
33.6321 63.3154 2
30.3832 62.8353 2
32.1337 61.9748 2
28.6894 62.172 3.98014
33.3499 61.4774 3.97953
31.0826 61.1997 3.98737
27.6036 59.5415 3.97764
23.8398 59.0138 3.99157
25.0575 60.8119 3.97729
26.8865 61.4478 2
26.2387 63.4601 3.97522
28.0678 64.1284 2
27.466 66.17 3.97815
29.8868 64.7011 0.021034
29.408 66.7464 2
28.9084 68.9374 3.98283
31.3786 67.1846 0.0215376
31.0148 69.412 2
30.6172 71.7772 3.99062
33.1579 69.7465 0.0158771
32.8933 72.1461 2
32.6054 74.6784 4
35.196 72.3712 0.00800004
35.0474 74.9197 2
37.5 75 0
33.7255 6.98502 3.98265
35.4369 4.68781 3.98883
35.6228 6.72765 2
37.5159 2.3878 3.99293
37.5247 4.61704 2
39.6249 4.71877 0.0110987
39.7897 2.47461 2
39.9526 0.0806499 4
42.0636 2.71881 0.00731838
42.3947 0.320817 2
44.8158 0.721173 0
43.3911 35.6128 3.64875
41.8805 34.2707 3.4324
46.3539 40.2818 0.107896
49.3594 38.5007 0.0178544
52.8392 36.614 0.0224699
47.003 37.7302 2
50.1801 35.5591 2
44.9343 35.1847 2
42.76 33.9123 2
41.5388 33.2009 2
47.2216 34.3745 3.93912
44.0379 33.167 3.83569
41.8073 32.5852 3.6911
40.556 32.9482 3.41021
37.3115 10.6355 3.98133
37.4609 8.53799 2
37.518 6.67731 0.0150075
39.2115 8.70109 0.0186695
38.9792 10.1355 2
34.7572 10.3914 3.97937
35.9029 9.77638 2
32.3812 9.37697 3.97709
34.1533 8.82615 2
35.9441 8.49837 0.0169432
51.3659 32.9543 0.0181361
50.4479 29.4599 0.0228364
50.2036 25.992 0.0299562
49.7157 22.5211 0.0139835
47.4278 19.5346 0.0185548
45.7576 15.5081 0.00966702
43.8361 11.9159 0.0252721
40.5621 11.6205 0.0153958
48.9775 31.546 2
38.3004 12.7498 2
42.0851 14.3488 2
48.5619 27.7624 2
48.9631 24.6382 2
47.03 22.3121 2
44.7503 18.7068 2
46.8933 29.7585 3.98263
46.6542 25.3448 3.97412
44.1917 21.6413 3.98221
36.5864 12.9691 3.9749
38.676 14.8721 3.97592
41.7153 17.9682 3.9767
42.3681 37.4608 3.49342
43.8526 37.4845 2
45.2744 37.4836 0.156736
46.7319 57.286 0.0188446
46.9263 54.1352 0.0412888
47.2972 47.0879 0.0163015
47.1328 50.5996 0.0228504
43.3691 39.3475 0.356548
43.9805 41.7909 0.156949
44.1172 44.2442 0.122211
44.1856 47.1387 0.01435
41.7525 42.3671 0.306618
41.8543 40.6749 0.553192
40.5268 42.0115 0.588892
45.2545 55.8641 2
42.2049 39.1831 2
40.4615 40.5465 2
45.5374 48.7518 2
45.1962 52.3964 2
42.9926 48.1454 2
42.8937 45.8228 2
42.9689 43.5883 2
40.7164 43.4108 2
39.1522 42.2912 2
43.5785 54.3124 3.99814
40.512 39.019 3.57885
39.0555 40.6377 3.52545
43.2753 50.2215 4.00312
41.607 47.2706 3.92286
41.5141 44.8641 3.8376
39.35 43.9864 3.63465
37.5045 42.3962 3.51938
43.8225 57.6414 0.0166658
42.0498 56.2071 2
40.3584 54.7729 3.99475
35.573 65.4126 0.0234727
37.8372 63.1858 0.0274096
40.6163 61.5981 0.017086
40.4225 58.1187 0.0147298
35.6089 63.1769 2
38.2428 60.2781 2
38.9052 56.3361 2
37.9759 55.0317 3.99488
36.9253 57.5519 3.99142
35.3649 60.8756 3.98062
33.6299 63.3136 0.0243652
30.3816 62.8326 0.0185969
32.1312 61.9721 0.0126085
33.3517 61.4772 2
28.6905 62.1765 2
31.0849 61.2049 2
29.4289 60.2575 3.97781
32.3692 59.6849 3.99609
28.078 58.3289 4.01658
27.6052 59.5389 2
25.4289 58.5348 3.97854
22.8305 58.1698 3.96875
23.4284 60.2792 3.97587
23.842 59.0139 2
25.0594 60.811 2
24.4455 62.7375 3.97597
26.8852 61.4467 0.0179761
26.239 63.4585 2
25.551 65.4793 3.97684
28.0684 64.1301 0.0196436
27.4657 66.1706 2
26.8383 68.3246 3.98239
29.4087 66.7475 0.0216232
28.9076 68.9366 2
28.3724 71.2625 3.98979
31.0158 69.4122 0.0160767
30.616 71.7769 2
30.1842 74.2788 4
32.8942 72.1456 0.00868804
32.6053 74.6792 2
35.0474 74.9194 0
31.7899 7.42457 3.98109
33.3495 4.92759 3.98777
33.7252 6.98257 2
35.2464 2.46363 3.99298
35.4366 4.6872 2
35.6224 6.72886 0.0159857
37.5 0 4
37.5151 2.38738 2
37.5248 4.61775 0.0107021
39.7902 2.47542 0.00719773
39.9526 0.0802889 2
42.3946 0.32156 0
42.1922 35.7437 3.43692
43.4778 35.583 2
40.4635 34.3861 3.5569
41.882 34.2533 2
47.0063 37.7491 0.104745
50.1663 35.554 0.0254713
44.8468 35.2018 0.156978
42.7157 33.963 0.353971
41.5112 33.226 0.55572
47.2547 34.3897 2
44.084 33.1264 2
41.8586 32.5213 2
40.5884 32.931 2
45.3534 31.8043 3.89594
42.9757 31.4027 3.82084
40.7157 31.6188 3.66555
39.1766 32.708 3.46642
35.6968 11.79 3.97599
37.3164 10.6347 2
37.4595 8.538 0.0156956
38.9753 10.1376 0.0136785
33.1026 11.2299 3.97238
34.757 10.3834 2
35.9002 9.78134 0.0198695
30.487 10.0291 3.97673
32.3803 9.37561 2
34.1541 8.83042 0.0190698
48.9568 31.5626 0.0153464
48.5629 27.761 0.0240517
48.9704 24.6306 0.0193794
47.0436 22.3077 0.00912631
44.7438 18.6364 0.0268941
42.0787 14.3354 0.0184107
38.2986 12.7551 0.0225465
36.5833 12.9472 2
46.8952 29.702 2
38.6749 14.8512 2
41.7079 17.9703 2
46.6527 25.3439 2
44.1742 21.6199 2
44.8911 27.8985 3.99317
43.5244 24.2819 4.02374
41.2708 20.9859 3.99151
35.771 14.8089 3.98084
38.6566 17.6951 3.98412
40.5682 37.4391 3.59757
42.3822 37.4655 2
43.7872 37.4829 0.342306
45.2585 55.8611 -0.000847106
45.2009 52.3935 0.01312
45.5359 48.7311 -0.00145363
42.1975 39.1756 0.542611
42.9231 43.5548 0.171038
42.8336 45.7674 0.12594
42.9569 48.1297 0.0071429
40.6691 43.3373 0.33433
40.4155 40.5587 0.444335
39.1598 42.2696 0.529244
43.5748 54.3082 2
40.5295 39.0201 2
39.0523 40.6365 2
43.267 50.236 2
41.6056 47.3037 2
41.5387 44.909 2
37.5011 42.4205 2
39.3717 44.06 2
41.728 52.7703 4.00037
39.0644 39.0646 3.52864
37.507 40.6913 3.56596
35.8577 42.2801 3.46694
40.7602 49.3576 3.99352
39.6902 45.5744 3.80104
37.5017 44.2613 3.67307
42.0451 56.2149 0.00984252
40.3586 54.7811 2
38.7167 53.5594 3.99671
35.6073 63.1799 0.0278803
38.2447 60.2791 0.0174682
38.9024 56.3545 0.00571606
35.3643 60.8643 2
36.927 57.5629 2
37.9751 55.0264 2
36.3137 55.1184 3.99757
34.4936 58.4677 3.9934
33.3499 61.4774 0.020466
28.6894 62.172 0.0198575
31.0826 61.1997 0.0126346
32.3685 59.687 2
29.4305 60.2581 2
30.346 57.7703 3.98765
28.0811 58.3262 2
27.055 56.7735 3.96933
27.6036 59.5415 0.022356
25.4315 58.5339 2
23.9679 56.7228 3.96038
21.4604 57.308 3.9584
22.031 59.5543 3.97913
22.8326 58.1708 2
22.7532 61.9748 3.97294
23.4301 60.2792 2
23.8398 59.0138 0.00843012
25.0575 60.8119 0.0227132
24.4463 62.7385 2
23.6874 64.6932 3.97457
26.2387 63.4601 0.0247829
25.551 65.4808 2
24.8106 67.5861 3.98149
27.466 66.17 0.0218536
26.8373 68.3262 2
26.1678 70.603 3.9894
28.9084 68.9374 0.0171658
28.3712 71.262 2
27.7943 73.7221 4
30.6172 71.7772 0.00937685
30.1841 74.2794 2
32.6054 74.6784 0
29.8128 8.00094 3.97919
31.2548 5.33436 3.98673
31.7893 7.4231 2
32.9824 2.70184 3.99252
33.3488 4.92619 2
33.7255 6.98502 0.017355
35.0474 0.080333 4
35.2454 2.46345 2
35.4369 4.68781 0.0111698
37.5 0 2
37.5159 2.3878 0.00707055
39.9526 0.0806499 0
40.575 35.89 3.58714
42.2039 35.7442 2
43.3911 35.6128 0.351254
28.5472 10.7033 3.97676
39.0686 34.3394 3.52067
40.4759 34.3911 2
41.8805 34.2707 0.567603
47.2216 34.3745 0.0608801
44.0379 33.167 0.16431
41.8073 32.5852 0.308896
40.556 32.9482 0.589789
45.3881 31.7853 2
43.024 31.3636 2
40.7602 31.5447 2
39.1767 32.6842 2
43.7607 30.0441 3.88601
41.5414 30.0849 3.83785
39.3788 30.9772 3.63437
37.5315 32.59 3.51676
34.1008 12.9542 3.97523
35.697 11.7766 2
37.3115 10.6355 0.018668
31.1933 12.0016 3.97775
33.1032 11.2283 2
34.7572 10.3914 0.0206254
30.4843 10.0236 2
32.3812 9.37697 0.0229107
46.8933 29.7585 0.0173681
46.6542 25.3448 0.0258802
36.5864 12.9691 0.0250959
44.1917 21.6413 0.0177917
41.7153 17.9682 0.0233043
38.676 14.8721 0.0240813
35.7742 14.8148 2
44.8838 27.8958 2
38.6566 17.6989 2
41.2543 20.9747 2
43.5104 24.2624 2
33.6185 15.9123 3.98853
42.6751 26.7284 3.98038
40.7715 23.5939 3.99413
38.3813 20.4812 3.9944
35.8454 17.5783 3.98808
39.0857 37.4859 3.53717
40.5771 37.4447 2
42.3681 37.4608 0.506577
43.5785 54.3124 0.00185821
43.2753 50.2215 -0.00312399
40.512 39.019 0.421149
41.5141 44.8641 0.162401
41.607 47.2706 0.0771355
39.35 43.9864 0.365354
39.0555 40.6377 0.474553
37.5045 42.3962 0.480618
41.7183 52.7702 2
39.0553 39.0529 2
37.501 40.6847 2
40.7403 49.3701 2
35.8603 42.2988 2
39.7099 45.6367 2
37.4971 44.3294 2
39.7054 51.5547 4.00239
37.5116 39.0648 3.57153
35.967 40.6531 3.52675
34.4834 42.0293 3.41287
35.651 44.0044 3.62825
38.648 48.2293 3.93134
37.5329 45.8687 3.83542
40.3584 54.7729 0.00524838
38.7153 53.5611 2
36.771 52.8911 3.99692
35.3649 60.8756 0.0193764
36.9253 57.5519 0.0085843
37.9759 55.0317 0.00511891
34.492 58.4693 2
36.3171 55.1077 2
33.2794 55.3193 3.99282
32.3692 59.6849 0.00390698
29.4289 60.2575 0.0221924
30.3487 57.7651 2
28.8567 55.279 3.99006
28.078 58.3289 -0.0165775
27.0584 56.7706 2
25.5114 55.0524 3.95421
22.0326 55.2332 3.96087
25.4289 58.5348 0.0214598
23.9711 56.724 2
20.3366 56.9393 3.96269
20.6949 58.7093 3.96378
21.4634 57.309 2
21.1891 61.1043 3.97275
22.0325 59.5553 2
22.8305 58.1698 0.0312459
21.9039 63.8103 3.97387
22.7547 61.9757 2
23.4284 60.2792 0.024126
24.4455 62.7375 0.024025
23.6874 64.6932 2
22.8394 66.728 3.97832
25.551 65.4793 0.0231598
24.8097 67.5866 2
24.0121 69.8049 3.98932
26.8383 68.3246 0.0176113
26.1659 70.6032 2
25.446 73.0099 4
28.3724 71.2625 0.0102138
27.7943 73.7222 2
30.1842 74.2788 0
27.8227 8.6606 3.9798
29.1571 5.88135 3.98481
29.8111 7.99695 2
30.728 3.09865 3.9922
31.254 5.33297 2
31.7899 7.42457 0.0189066
32.6053 0.320823 4
32.9812 2.70139 2
33.3495 4.92759 0.012231
35.0474 0.0802903 2
35.2464 2.46363 0.00702472
37.5 0 0
39.0391 35.9142 3.54057
40.5562 35.8881 2
42.1922 35.7437 0.563082
28.5446 10.7003 2
26.6265 11.4019 3.97694
29.2343 12.6519 3.98111
37.5313 34.3008 3.56582
39.0896 34.3545 2
40.4635 34.3861 0.443103
45.3534 31.8043 0.104055
42.9757 31.4027 0.179158
40.7157 31.6188 0.334446
39.1766 32.708 0.533582
43.7898 30.0127 2
41.5705 30.0403 2
39.3918 30.9056 2
37.5359 32.5629 2
41.9614 28.7434 3.8607
39.6949 29.3798 3.82292
37.5293 30.7241 3.67804
35.8754 32.7075 3.47319
31.9314 14.5004 3.98173
34.101 12.959 2
35.6968 11.79 0.0240138
31.1909 11.9923 2
33.1026 11.2299 0.0276241
30.487 10.0291 0.0232706
44.8911 27.8985 0.00683149
43.5244 24.2819 -0.0237448
35.771 14.8089 0.0191614
41.2708 20.9859 0.00848718
38.6566 17.6951 0.0158799
33.6111 15.8949 2
35.84 17.5682 2
42.7242 26.7061 2
38.3658 20.5325 2
40.7614 23.5829 2
33.5541 17.4565 3.98437
40.2077 26.0532 3.96302
38.0267 23.344 3.99734
35.5507 20.2502 3.9962
37.5201 37.484 3.5873
39.0689 37.4766 2
40.5682 37.4391 0.402427
41.728 52.7703 -0.00036992
40.7602 49.3576 0.006476
39.0644 39.0646 0.471356
39.6902 45.5744 0.198961
37.5017 44.2613 0.326931
37.507 40.6913 0.43404
35.8577 42.2801 0.533064
39.686 51.5546 2
37.5125 39.0632 2
35.963 40.6412 2
38.6675 48.2909 2
34.4525 42.0459 2
35.6337 44.0713 2
37.5215 45.9289 2
37.6822 50.5393 3.99273
35.9848 39.0746 3.54059
34.5968 40.5856 3.55986
33.5307 41.745 3.44789
34.3524 43.353 3.65777
35.2747 45.605 3.82288
36.9191 47.839 3.89555
38.7167 53.5594 0.0032915
36.7645 52.8521 2
34.4721 52.2114 3.99923
34.4936 58.4677 0.0066023
36.3137 55.1184 0.00243334
33.2841 55.3268 2
30.7013 53.239 3.9984
30.346 57.7703 0.0123531
28.8592 55.2732 2
27.1583 53.3362 3.95693
27.055 56.7735 0.0306678
25.5153 55.0526 2
23.8941 53.3411 3.95434
20.8607 53.0679 3.95826
20.1312 55.7227 3.96146
22.0329 55.2346 2
23.9679 56.7228 0.0396203
19.5156 57.8119 3.96175
20.3338 56.9413 2
19.7298 60.1377 3.97411
20.6943 58.7106 2
21.4604 57.308 0.0415986
20.2199 62.8136 3.97173
21.1904 61.106 2
22.031 59.5543 0.0208722
20.9416 65.7534 3.9754
21.9042 63.8135 2
22.7532 61.9748 0.0270563
23.6874 64.6932 0.0254329
22.8385 66.7282 2
21.9148 68.8719 3.98845
24.8106 67.5861 0.0185105
24.0097 69.804 2
23.1494 72.1454 4
26.1678 70.603 0.0105984
25.446 73.0099 2
27.7943 73.7221 0
25.8623 9.39049 3.97822
27.0718 6.54574 3.98332
27.8201 8.65846 2
28.4904 3.64461 3.99131
29.1556 5.87905 2
29.8128 8.00094 0.0208067
30.1841 0.720592 4
30.7261 3.09838 2
31.2548 5.33436 0.0132705
32.6053 0.320817 2
32.9824 2.70184 0.0074779
35.0474 0.080333 0
37.5153 35.9087 3.56517
39.0217 35.9023 2
40.575 35.89 0.412865
24.785 12.0879 3.97627
23.7709 14.4077 3.97844
28.5472 10.7033 0.0232356
26.6232 11.3979 2
29.2311 12.6505 2
27.3016 13.3879 3.97663
29.799 14.2107 3.9841
35.9744 34.3393 3.52849
37.5395 34.3049 2
39.0686 34.3394 0.479335
37.5315 32.59 0.483243
43.7607 30.0441 0.113994
41.5414 30.0849 0.162147
39.3788 30.9772 0.365626
41.9988 28.6783 2
39.7197 29.3185 2
37.5303 30.6545 2
35.879 32.69 2
39.8583 28.0111 3.87029
37.4897 29.1065 3.82735
35.6835 30.9953 3.63704
34.5005 32.9612 3.41466
30.9501 16.8553 3.99417
31.9244 14.4848 2
34.1008 12.9542 0.0247674
31.1933 12.0016 0.0222521
42.6751 26.7284 0.0196234
40.7715 23.5939 0.00586606
33.6185 15.9123 0.011471
35.8454 17.5783 0.0119206
38.3813 20.4812 0.00560391
33.5463 17.4632 2
35.5553 20.259 2
40.2716 26.0271 2
38.0177 23.3124 2
32.9057 19.8719 3.99567
37.6732 25.687 3.96318
35.2728 22.9996 4.00435
35.962 37.4791 3.53996
37.5095 37.4833 2
39.0857 37.4859 0.46283
39.7054 51.5547 -0.00239153
38.648 48.2293 0.0686647
37.5116 39.0648 0.428468
37.5329 45.8687 0.164578
35.651 44.0044 0.371746
35.967 40.6531 0.473247
34.4834 42.0293 0.587135
37.6616 50.5796 2
36.0093 39.0621 2
34.5531 40.5842 2
36.9111 47.9025 2
33.4917 41.7719 2
34.3016 43.4234 2
35.254 45.6608 2
35.5682 49.7358 3.98378
34.4911 39.0655 3.58403
33.157 40.7024 3.43831
33.2507 42.3863 3.69774
33.5292 44.8718 3.82667
34.526 46.9953 3.86834
36.771 52.8911 0.00307941
34.4579 52.2238 2
32.2774 51.0296 4.00652
33.2794 55.3193 0.00718461
30.7056 53.2385 2
28.7667 51.4332 3.98057
28.8567 55.279 0.00994303
27.161 53.3332 2
25.4817 51.5741 3.95269
25.5114 55.0524 0.0457871
23.8973 53.3485 2
22.4345 51.6277 3.95257
19.7321 51.455 3.96205
19.2402 54.1736 3.96153
20.8647 53.0659 2
18.5979 56.6289 3.96305
20.1303 55.7239 2
22.0326 55.2332 0.0391315
18.4047 59.0479 3.96365
19.5134 57.8134 2
20.3366 56.9393 0.0373087
18.6338 61.7087 3.97167
19.7308 60.1395 2
20.6949 58.7093 0.0362247
19.1316 64.6631 3.97377
20.2206 62.8175 2
21.1891 61.1043 0.0272486
19.8892 67.8079 3.98579
20.9408 65.7528 2
21.9039 63.8103 0.0261282
22.8394 66.728 0.0216782
21.9119 68.8704 2
20.9142 71.1327 4
24.0121 69.8049 0.0106759
23.1494 72.1455 2
25.446 73.0099 0
23.108 12.8225 3.97687
23.9749 10.1789 3.97498
25.0253 7.31704 3.98152
25.8589 9.38838 2
26.2823 4.32872 3.99036
27.0697 6.54467 2
27.8227 8.6606 0.0201979
27.7943 1.27781 4
28.4878 3.64449 2
29.1571 5.88135 0.0151866
30.1841 0.720551 2
30.728 3.09865 0.00780238
32.6053 0.320823 0
35.9645 35.8974 3.52953
37.5403 35.9176 2
39.0391 35.9142 0.459428
24.7808 12.0917 2
23.7708 14.4113 2
22.5071 15.0995 3.97733
25.3718 13.9522 3.97205
24.062 15.6664 3.98709
26.6265 11.4019 0.0230572
29.2343 12.6519 0.0188905
27.3022 13.3846 2
29.7903 14.2096 2
28.3883 15.977 3.98634
34.6168 34.4099 3.55465
35.9748 34.3407 2
37.5313 34.3008 0.434177
35.8754 32.7075 0.526814
37.5293 30.7241 0.321964
41.9614 28.7434 0.139295
39.6949 29.3798 0.177076
39.8881 27.9625 2
37.4907 29.05 2
35.6692 30.9198 2
34.4648 32.9457 2
37.6256 27.741 3.87053
35.338 29.3956 3.8213
34.3525 31.6361 3.66423
33.5469 33.2442 3.4457
30.2496 19.4673 3.98008
30.9409 16.8414 2
31.9314 14.5004 0.0182735
40.2077 26.0532 0.0369819
38.0267 23.344 0.00266336
33.5541 17.4565 0.0156277
35.5507 20.2502 0.00379721
32.907 19.8978 2
35.2599 22.9882 2
37.7138 25.6678 2
32.4713 22.6135 3.99771
35.1547 25.5891 3.98909
34.4538 37.5043 3.60304
35.9606 37.4913 2
37.5201 37.484 0.4127
37.6822 50.5393 0.00727174
36.9191 47.839 0.104449
35.9848 39.0746 0.459411
35.2747 45.605 0.177117
34.3524 43.353 0.342232
34.5968 40.5856 0.440145
33.5307 41.745 0.552108
35.5506 49.7499 2
34.4816 39.0649 2
33.1482 40.7147 2
34.4881 47.0566 2
33.2026 42.449 2
33.4981 44.9201 2
33.4499 48.8413 3.97277
32.8305 39.2182 3.44202
32.3232 41.0067 3.64722
32.0786 43.5707 3.8269
32.7319 45.9877 3.86818
34.4721 52.2114 0.000772199
32.2928 51.0348 2
30.3195 49.5781 4.00127
30.7013 53.239 0.00159544
28.7717 51.4325 2
27.0097 49.7966 3.97485
27.1583 53.3362 0.0430686
25.4836 51.5765 2
23.893 49.9823 3.96649
23.8941 53.3411 0.0456605
22.4385 51.6255 2
21.0673 50.1124 3.96453
18.5049 50.161 3.97066
18.2713 52.6374 3.96462
19.7284 51.4542 2
17.6939 55.2252 3.96243
19.2394 54.1731 2
20.8607 53.0679 0.0417379
17.2286 57.8001 3.96087
18.5951 56.63 2
20.1312 55.7227 0.0385421
17.1487 60.4985 3.96566
18.4044 59.0489 2
19.5156 57.8119 0.0382483
17.4153 63.4368 3.96867
18.6355 61.7096 2
19.7298 60.1377 0.0258899
17.9452 66.6154 3.9837
19.1312 64.6614 2
20.2199 62.8136 0.0282665
18.75 69.9759 4
19.8862 67.8054 2
20.9416 65.7534 0.0246033
21.9148 68.8719 0.011548
20.9142 71.1327 2
23.1494 72.1454 0
21.6046 13.657 3.97405
22.1955 11.0502 3.97275
23.106 12.8225 2
23.0423 8.18409 3.97845
23.9728 10.1822 2
24.1201 5.1436 3.9899
25.0223 7.31586 2
25.8623 9.39049 0.0217811
25.446 1.99014 4
26.279 4.32951 2
27.0718 6.54574 0.0166795
27.7943 1.27778 2
28.4904 3.64461 0.00869253
30.1841 0.720592 0
34.5244 35.9346 3.57807
35.978 35.9127 2
37.5153 35.9087 0.434831
21.3431 15.9031 3.97512
24.785 12.0879 0.0237309
23.7709 14.4077 0.0215601
25.3705 13.9248 2
22.5083 15.0928 2
24.0661 15.6711 2
23.314 16.3073 3.96566
25.4195 16.137 3.98676
27.3016 13.3879 0.0233702
29.799 14.2107 0.015898
28.3787 15.9939 2
27.4884 18.9032 3.98247
33.1691 34.2943 3.44959
34.5709 34.422 2
35.9744 34.3393 0.471506
34.5005 32.9612 0.585336
35.6835 30.9953 0.362961
37.4897 29.1065 0.172649
39.8583 28.0111 0.129713
37.597 27.7027 2
33.5128 33.219 2
35.3337 29.3313 2
34.3078 31.5641 2
35.2224 27.8299 3.88271
33.517 30.1067 3.82938
33.2677 32.6021 3.69564
29.7879 22.0722 4.00711
30.2507 19.4842 2
30.9501 16.8553 0.00582694
37.6732 25.687 0.0368229
35.2728 22.9996 -0.00434662
32.9057 19.8719 0.00432545
32.4719 22.5985 2
35.1831 25.5811 2
32.0611 25.888 4.0087
32.6531 37.501 3.49118
34.4616 37.4976 2
35.962 37.4791 0.460042
35.5682 49.7358 0.0162226
34.526 46.9953 0.131657
34.4911 39.0655 0.415973
33.5292 44.8718 0.173334
33.2507 42.3863 0.30226
33.157 40.7024 0.561686
33.4333 48.8412 2
32.8367 39.2277 2
32.2739 41.0612 2
32.7067 46.0423 2
32.025 43.6057 2
31.6724 47.6844 3.98335
31.6414 39.3666 3.64909
31.0087 41.8151 3.83867
31.1634 44.6245 3.87793
32.2774 51.0296 -0.00651766
30.3271 49.609 2
28.4989 47.9706 3.97
28.7667 51.4332 0.0194255
27.0098 49.7996 2
25.3188 48.2372 3.96642
25.4817 51.5741 0.0473083
23.8975 49.9805 2
22.3641 48.5558 3.97128
22.4345 51.6277 0.0474308
21.0686 50.111 2
19.632 48.9006 3.97388
17.3788 49.1775 3.97526
17.2099 51.2608 3.96975
18.507 50.1591 2
16.7121 53.7469 3.96583
18.2683 52.6371 2
19.7321 51.455 0.0379536
16.1369 56.3912 3.962
17.6935 55.2254 2
19.2402 54.1736 0.0384704
15.7712 59.1659 3.96178
17.2233 57.8022 2
18.5979 56.6289 0.0369511
15.7938 62.0996 3.96862
17.1507 60.5004 2
18.4047 59.0479 0.0363523
16.0917 65.2973 3.98133
17.4143 63.4412 2
18.6338 61.7087 0.0283267
16.6661 68.6801 4
17.9423 66.6123 2
19.1316 64.6631 0.0262293
18.75 69.9759 2
19.8892 67.8079 0.0142064
20.9142 71.1327 0
20.2411 14.6626 3.96829
21.6025 13.6673 2
20.5386 12.0379 3.97361
21.1457 9.15754 3.97665
22.1926 11.049 2
23.108 12.8225 0.0231255
22.0193 6.08213 3.98892
23.04 8.18523 2
23.9749 10.1789 0.025021
23.1494 2.85457 4
24.116 5.14466 2
25.0253 7.31704 0.0184845
25.446 1.99012 2
26.2823 4.32872 0.00964378
27.7943 1.27781 0
32.8203 35.7896 3.4578
34.5023 35.9342 2
35.9645 35.8974 0.470475
21.347 15.8963 2
20.3623 17.0299 3.96596
22.1473 16.7034 3.9632
25.3718 13.9522 0.0279477
22.5071 15.0995 0.022672
24.062 15.6664 0.0129066
25.4213 16.135 2
23.3191 16.3028 2
24.2712 18.5878 3.97185
27.2206 21.6987 3.99394
28.3883 15.977 0.0136628
27.4864 18.9431 2
32.3597 33.9809 3.64165
33.1623 34.2786 2
34.6168 34.4099 0.445352
33.5469 33.2442 0.554296
34.3525 31.6361 0.335769
35.338 29.3956 0.178698
37.6256 27.741 0.129467
35.2222 27.7823 2
33.195 32.5373 2
33.486 30.0628 2
32.9721 28.4727 3.89072
32.083 31.4165 3.81782
29.1976 24.5661 4.01055
29.7708 22.1012 2
30.2496 19.4673 0.0199173
35.1547 25.5891 0.0109143
32.4713 22.6135 0.0022867
32.0489 25.8611 2
30.2253 27.5536 3.97634
31.2378 37.4891 3.65434
32.6551 37.5004 2
34.4538 37.5043 0.396956
33.4499 48.8413 0.0272251
32.7319 45.9877 0.131824
32.8305 39.2182 0.557983
32.0786 43.5707 0.173098
32.3232 41.0067 0.35278
31.6223 47.7116 2
31.5604 39.3852 2
30.9535 41.8562 2
31.1187 44.6642 2
29.9361 46.2931 3.98899
30.1799 39.7794 3.84605
29.6886 42.9203 3.89141
30.3195 49.5781 -0.00126952
28.4974 47.9737 2
26.7458 46.4017 3.98048
27.0097 49.7966 0.0251462
25.3208 48.2353 2
23.6259 46.8181 3.97323
23.893 49.9823 0.0335122
22.3649 48.556 2
20.6503 47.4061 3.97651
21.0673 50.1124 0.0354707
19.6328 48.8988 2
18.2232 48.0065 3.97695
16.6111 48.5393 3.97657
17.3787 49.1764 2
16.2708 50.0356 3.97387
15.718 52.297 3.96979
17.2113 51.2597 2
18.5049 50.161 0.0293449
15.0945 54.8845 3.96427
16.7129 53.7465 2
18.2713 52.6374 0.0353795
14.5203 57.6928 3.96096
16.1372 56.3915 2
17.6939 55.2252 0.0375731
14.2724 60.6662 3.96659
15.7747 59.1664 2
17.2286 57.8001 0.039129
14.3367 63.8538 3.97729
15.7946 62.101 2
17.1487 60.4985 0.0343396
14.6715 67.2507 4
16.0893 65.2934 2
17.4153 63.4368 0.0313258
16.6661 68.6801 2
17.9452 66.6154 0.0162995
18.75 69.9759 0
18.9628 15.844 3.97433
20.2427 14.6596 2
18.9925 13.1612 3.97239
21.6046 13.657 0.0259469
20.5369 12.0372 2
19.3466 10.2489 3.9735
19.994 7.14768 3.98671
21.143 9.15834 2
22.1955 11.0502 0.0272494
20.9142 3.86727 4
22.0147 6.08483 2
23.0423 8.18409 0.0215479
23.1494 2.85451 2
24.1201 5.1436 0.0100977
25.446 1.99014 0
31.669 35.6276 3.64337
32.8215 35.7807 2
34.5244 35.9346 0.421934
21.3431 15.9031 0.0248848
22.1506 16.6964 2
20.3647 17.0263 2
19.3826 18.5044 3.9576
21.8471 17.958 3.97669
25.4195 16.137 0.0132394
23.314 16.3073 0.0343441
24.2606 18.6089 2
22.4689 20.0342 3.9767
24.8046 21.5516 3.98815
26.8256 23.8472 3.98515
27.225 21.61 2
27.4884 18.9032 0.0175293
31.0587 33.1807 3.83884
32.3119 33.9264 2
33.1691 34.2943 0.550409
33.2677 32.6021 0.304356
33.517 30.1067 0.170624
35.2224 27.8299 0.117287
32.9344 28.4398 2
32.0271 31.3708 2
30.8523 29.8503 3.91632
28.4941 26.734 3.99816
29.1852 24.5604 2
29.7879 22.0722 -0.00711455
32.0611 25.888 -0.00869802
30.2173 27.5286 2
29.7419 37.4854 3.84433
31.1671 37.4872 2
32.6531 37.501 0.508817
31.6724 47.6844 0.0166491
31.1634 44.6245 0.122067
31.6414 39.3666 0.350915
31.0087 41.8151 0.161325
29.9387 46.2997 2
30.0999 39.7966 2
29.657 42.9449 2
28.2318 44.6211 3.96791
27.9343 40.4932 3.92917
28.4989 47.9706 0.0300035
26.7448 46.4023 2
24.9445 44.9314 3.97957
25.3188 48.2372 0.0335791
23.6249 46.8171 2
21.6862 45.6947 3.97787
22.3641 48.5558 0.0287169
20.6511 47.4049 2
18.9673 46.5619 3.97639
19.632 48.9006 0.0261216
18.2239 48.0051 2
16.8579 47.5641 3.97619
16.6124 48.5382 2
15.6198 48.8875 3.97552
17.3788 49.1775 0.0247401
16.2727 50.0345 2
14.8292 50.8756 3.97316
14.0636 53.3478 3.96727
15.7193 52.2963 2
17.2099 51.2608 0.0302487
13.3655 56.1157 3.96128
15.0948 54.8843 2
16.7121 53.7469 0.0341735
12.8605 59.1059 3.96499
14.5245 57.6924 2
16.1369 56.3912 0.0380021
12.6826 62.2966 3.97526
14.2737 60.6662 2
15.7712 59.1659 0.0382188
12.7746 65.6939 4
14.3344 63.8502 2
15.7938 62.0996 0.031382
14.6714 67.2507 2
16.0917 65.2973 0.0186714
16.6661 68.6801 0
17.7434 17.2291 3.9618
18.9629 15.8426 2
17.5293 14.4271 3.96742
20.2411 14.6626 0.0317082
18.9924 13.1648 2
17.6449 11.4769 3.9729
20.5386 12.0379 0.0263877
19.3431 10.2499 2
18.0541 8.34123 3.98436
18.75 5.0241 4
19.9891 7.15077 2
21.1457 9.15754 0.0233532
20.9142 3.86727 2
22.0193 6.08213 0.0110826
23.1494 2.85457 0
30.2077 35.2156 3.84438
31.5882 35.6036 2
32.8203 35.7896 0.5422
22.1473 16.7034 0.0367958
20.3623 17.0299 0.0340351
21.8463 17.956 2
19.3754 18.4978 2
18.2303 20.0624 3.96147
21.0497 19.5049 3.96599
24.2712 18.5878 0.0281546
22.4604 20.0396 2
24.8122 21.5364 2
22.6608 21.8819 3.98031
25.1064 23.2799 3.97328
26.1032 26.1074 3.97902
26.8233 23.841 2
27.2206 21.6987 0.00606223
29.4529 32.5303 3.8915
30.9838 33.1457 2
32.3597 33.9809 0.35835
32.083 31.4165 0.182184
32.9721 28.4727 0.109277
30.8299 29.8398 2
27.8773 29.3196 4.01322
28.4827 26.7368 2
29.1976 24.5661 -0.0105535
30.2253 27.5536 0.0236639
28.094 37.3716 3.89073
29.6652 37.4816 2
31.2378 37.4891 0.345657
29.9361 46.2931 0.0110107
29.6886 42.9203 0.108587
30.1799 39.7794 0.153945
28.2278 44.6753 2
27.9021 40.4954 2
26.331 43.0129 3.98388
25.215 39.4322 3.97183
26.7458 46.4017 0.0195163
24.9344 44.9333 2
22.8659 43.7311 3.97509
23.6259 46.8181 0.0267666
21.6832 45.6957 2
19.7524 44.8003 3.97595
20.6503 47.4061 0.0234925
18.9672 46.5624 2
17.2221 46.0638 3.97596
18.2232 48.0065 0.023049
16.8589 47.5635 2
15.39 47.5429 3.97582
16.6111 48.5393 0.0234265
15.6217 48.8865 2
14.1406 49.443 3.97508
16.2708 50.0356 0.0261263
14.8307 50.8747 2
13.1325 51.795 3.96995
12.271 54.477 3.96342
14.064 53.3472 2
15.718 52.297 0.0302125
11.5498 57.4447 3.96286
13.3665 56.1153 2
15.0945 54.8845 0.0357268
11.1381 60.6213 3.97027
12.8624 59.105 2
14.5203 57.6928 0.0390442
10.9835 64.0165 4
12.6807 62.292 2
14.2724 60.6662 0.0334106
12.7745 65.694 2
14.3367 63.8538 0.0227134
14.6715 67.2507 0
16.5569 18.7389 3.96153
17.7354 17.2248 2
16.1242 15.8294 3.96352
18.9628 15.844 0.0256727
17.5298 14.424 2
16.0287 12.8455 3.96893
18.9925 13.1612 0.0276068
17.6425 11.4859 2
16.2053 9.66577 3.98172
19.3466 10.2489 0.0264956
18.049 8.34651 2
16.6661 6.31991 4
18.75 5.02404 2
19.994 7.14768 0.0132938
20.9142 3.86727 0
28.602 34.8582 3.8945
30.1149 35.177 2
31.669 35.6276 0.356627
16.9759 21.4997 3.96774
21.8471 17.958 0.0233134
19.3826 18.5044 0.0424045
21.0386 19.5003 2
18.2314 20.0602 2
20.0675 21.727 3.97194
22.4689 20.0342 0.0233043
24.8046 21.5516 0.0118488
22.6595 21.8866 2
25.0967 23.2904 2
23.4154 24.7727 3.97169
25.432 28.7056 3.98375
26.0963 26.1141 2
26.8256 23.8472 0.0148466
27.3101 31.8895 3.98147
29.4147 32.5075 2
31.0587 33.1807 0.161159
30.8523 29.8503 0.0836772
27.8896 29.2943 2
28.4941 26.734 0.00184252
25.9174 36.846 3.97344
28.0712 37.3716 2
29.7419 37.4854 0.155674
28.2318 44.6211 0.0320904
27.9343 40.4932 0.0708279
26.3087 43.036 2
25.1879 39.4367 2
24.0884 41.7478 3.98167
22.9332 38.5183 3.97844
24.9445 44.9314 0.0204254
22.8639 43.7318 2
20.6413 42.7544 3.97524
21.6862 45.6947 0.0221299
19.7533 44.8007 2
17.6368 44.2466 3.97539
18.9673 46.5619 0.0236101
17.2226 46.064 2
15.3564 45.9712 3.97555
16.8579 47.5641 0.0238134
15.3913 47.5421 2
13.6722 47.909 3.97557
15.6198 48.8875 0.0244839
14.1423 49.4421 2
12.366 50.1791 3.97207
14.8292 50.8756 0.0268363
13.1335 51.7941 2
11.2661 52.7919 3.96508
10.3544 55.6989 3.96327
12.2713 54.4764 2
14.0636 53.3478 0.0327254
9.70474 58.8453 3.97238
11.5532 57.4429 2
13.3655 56.1157 0.0387176
9.30605 62.2254 4
11.1367 60.6168 2
12.8605 59.1059 0.0350053
10.9835 64.0165 2
12.6826 62.2966 0.0247447
12.7746 65.6939 0
15.3542 20.2785 3.96402
16.561 18.7385 2
14.8056 17.3549 3.96214
17.7434 17.2291 0.0381998
16.1267 15.8281 2
14.4904 14.325 3.96838
17.5293 14.4271 0.0325811
16.0284 12.8427 2
14.4478 11.118 3.97909
17.6449 11.4769 0.027105
16.2008 9.67171 2
14.6715 7.74927 4
18.0541 8.34123 0.0156378
16.6661 6.31988 2
18.75 5.0241 0
26.5603 34.3762 3.97373
28.5846 34.8667 2
30.2077 35.2156 0.155623
18.2458 22.4709 3.97515
15.8826 23.0434 3.97173
16.9791 21.4993 2
21.0497 19.5049 0.0340092
18.2303 20.0624 0.0385333
20.0673 21.7247 2
20.2015 24.5696 3.97201
22.6608 21.8819 0.0196903
25.1064 23.2799 0.0267241
23.4101 24.7737 2
22.7943 28.0472 3.97141
24.8758 31.3958 3.98234
25.4378 28.6913 2
26.1032 26.1074 0.0209794
27.2816 31.851 2
29.4529 32.5303 0.108498
27.8773 29.3196 -0.013221
23.6652 36.3056 3.97789
25.8947 36.8408 2
28.094 37.3716 0.10927
26.331 43.0129 0.0161168
25.215 39.4322 0.0281724
24.0668 41.7458 2
22.9189 38.5149 2
21.7633 40.5757 3.97444
21.1035 37.7978 3.97678
22.8659 43.7311 0.0249094
20.6419 42.7544 2
18.1187 42.0025 3.97566
19.7524 44.8003 0.024046
17.6372 44.2468 2
15.4058 44.0949 3.97529
17.2221 46.0638 0.0240391
15.3568 45.9711 2
13.3727 46.2022 3.97559
15.39 47.5429 0.0241801
13.6738 47.9082 2
11.7557 48.4812 3.97408
14.1406 49.443 0.0249186
12.3678 50.178 2
10.3973 51.0397 3.96654
13.1325 51.795 0.0300524
11.2669 52.791 2
9.26534 53.8799 3.96351
8.38832 56.9802 3.97375
10.3585 55.6966 2
12.271 54.477 0.0365846
7.74927 60.3285 4
9.70339 58.8409 2
11.5498 57.4447 0.0371392
9.306 62.2255 2
11.1381 60.6213 0.0297275
10.9835 64.0165 0
14.1941 21.8414 3.96776
15.3529 20.2772 2
13.5391 18.9526 3.96193
16.5569 18.7389 0.0384741
14.8066 17.3538 2
13.0373 15.9099 3.96802
16.1242 15.8294 0.0364783
14.493 14.3233 2
12.7858 12.6934 3.97624
16.0287 12.8455 0.0310741
14.4447 11.1252 2
12.7746 9.30605 4
16.2053 9.66577 0.0182834
14.6715 7.74924 2
16.6661 6.31991 0
24.2341 33.887 3.98113
26.5401 34.3772 2
28.602 34.8582 0.105495
18.1233 24.2049 3.97337
18.2546 22.4713 2
14.7151 24.5711 3.97377
15.8837 23.043 2
16.9759 21.4997 0.0322563
19.7506 27.4068 3.97386
20.0675 21.727 0.0280632
20.1945 24.5675 2
22.1781 30.8555 3.97436
23.4154 24.7727 0.0283054
22.7946 28.0494 2
24.8383 31.3985 2
25.432 28.7056 0.0162496
27.3101 31.8895 0.0185286
21.2157 35.9652 3.97664
23.6626 36.3043 2
25.9174 36.846 0.0265562
24.0884 41.7478 0.0183256
22.9332 38.5183 0.02156
21.7683 40.579 2
21.1043 37.7974 2
18.8865 38.978 3.97701
20.6413 42.7544 0.0247554
18.1188 42.0025 2
15.3909 41.8511 3.97597
17.6368 44.2466 0.0246089
15.4054 44.0949 2
13.1355 44.3152 3.9756
15.3564 45.9712 0.0244534
13.374 46.2016 2
11.2712 46.671 3.97563
13.6722 47.909 0.0244312
11.7579 48.4801 2
9.66756 49.2031 3.96828
12.366 50.1791 0.0279263
10.3985 51.0387 2
8.29484 51.9953 3.96379
11.2661 52.7919 0.0349173
9.26673 53.8779 2
7.19744 55.0323 3.97466
6.31991 58.3339 4
8.38704 56.9759 2
10.3544 55.6989 0.0367323
7.74924 60.3285 2
9.70474 58.8453 0.027622
9.30605 62.2254 0
13.5728 25.462 3.97624
13.0963 23.3666 3.97096
14.1936 21.8407 2
12.3616 20.6021 3.96375
15.3542 20.2785 0.0359785
13.5389 18.9515 2
11.6715 17.5824 3.96521
14.8056 17.3549 0.0378565
13.0412 15.9087 2
11.224 14.3794 3.97205
14.4904 14.325 0.0316199
12.7837 12.6997 2
10.9835 10.9835 4
14.4478 11.118 0.020908
12.7745 9.306 2
14.6715 7.74927 0
21.565 33.512 3.97623
24.2382 33.8695 2
26.5603 34.3762 0.0262712
16.4491 26.5552 3.97463
18.1263 24.2044 2
18.2458 22.4709 0.0248464
14.7142 24.5709 2
15.8826 23.0434 0.0282707
19.1534 30.3421 3.97458
19.7508 27.4076 2
20.2015 24.5696 0.027993
22.1972 30.8565 2
22.7943 28.0472 0.0285943
24.8758 31.3958 0.0176571
18.4829 36.0042 3.97781
21.2187 35.9656 2
23.6652 36.3056 0.0221135
21.7633 40.5757 0.0255585
21.1035 37.7978 0.0232179
18.8854 38.977 2
14.8842 39.1551 3.97692
18.1187 42.0025 0.0243445
15.3904 41.8508 2
12.8296 42.2264 3.97597
15.4058 44.0949 0.0247059
13.1359 44.3149 2
10.8593 44.748 3.97619
13.3727 46.2022 0.0244069
11.274 46.6698 2
9.05452 47.2866 3.96969
11.7557 48.4812 0.0259221
9.66914 49.202 2
7.45678 50.0303 3.96393
10.3973 51.0397 0.0334633
8.29435 51.9936 2
6.13797 53.0081 3.97483
9.26534 53.8799 0.0364854
7.19661 55.0285 2
5.0241 56.25 4
6.31988 58.3339 2
8.38832 56.9802 0.0262507
7.74927 60.3285 0
13.8594 26.92 3.97569
12.2044 24.8636 3.97405
13.5722 25.4618 2
11.2907 22.2845 3.96585
13.0967 23.3666 2
14.1941 21.8414 0.0322405
12.3633 20.6018 2
10.4125 19.3325 3.96381
13.5391 18.9526 0.0380655
11.6757 17.5819 2
9.76517 16.1625 3.97113
13.0373 15.9099 0.0319752
11.223 14.3851 2
9.30607 12.7746 4
12.7858 12.6934 0.0237562
10.9835 10.9835 2
12.7746 9.30605 0
18.6438 33.1966 3.97593
21.5627 33.5159 2
24.2341 33.887 0.0188656
16.0755 29.7667 3.9753
16.4483 26.555 2
18.1233 24.2049 0.0266321
14.7151 24.5711 0.0262339
19.1515 30.342 2
19.7506 27.4068 0.0261398
22.1781 30.8555 0.0256353
15.5205 36.0397 3.97745
18.4829 36.0048 2
21.2157 35.9652 0.0233588
13.0604 37.8282 3.97699
18.8865 38.978 0.0229924
14.8838 39.155 2
12.3276 40.1131 3.97651
15.3909 41.8511 0.0240279
12.8298 42.2259 2
10.4585 42.7383 3.97591
13.1355 44.3152 0.0243952
10.8614 44.747 2
8.5285 45.2949 3.97107
11.2712 46.671 0.0243653
9.05599 47.2857 2
6.74268 47.9967 3.96418
9.66756 49.2031 0.0317214
7.45518 50.029 2
5.21451 50.9116 3.97438
8.29484 51.9953 0.0362135
6.13762 53.0052 2
3.86727 54.0858 4
7.19744 55.0323 0.0253363
5.02404 56.25 2
6.31991 58.3339 0
13.3402 29.1217 3.97498
11.6509 26.5578 3.97492
13.8589 26.9202 2
10.3421 24.01 3.96814
12.2075 24.8642 2
13.5728 25.462 0.0237621
9.27907 21.1494 3.96415
11.2907 22.2844 2
13.0963 23.3666 0.0290362
12.3616 20.6021 0.036249
10.4236 19.3345 2
8.42102 18.0318 3.97328
11.6715 17.5824 0.034788
9.76457 16.1671 2
7.74928 14.6715 4
11.224 14.3794 0.0279484
9.30602 12.7745 2
10.9835 10.9835 0
15.0596 32.9272 3.97625
18.6427 33.1962 2
21.565 33.512 0.0237729
16.0755 29.7667 2
16.4491 26.5552 0.0253725
19.1534 30.3421 0.0254207
13.3644 36.2223 3.97673
15.5203 36.0397 2
18.4829 36.0042 0.0221889
13.0601 37.8281 2
11.6491 38.3038 3.97674
14.8842 39.1551 0.0230796
12.3281 40.113 2
10.0333 40.7319 3.97623
12.8296 42.2264 0.0240345
10.4618 42.7378 2
8.06623 43.2513 3.97257
10.8593 44.748 0.0238133
8.53068 45.2942 2
6.14169 45.9031 3.96481
9.05452 47.2866 0.0303082
6.74034 47.9958 2
4.42555 48.7519 3.97406
7.45678 50.0303 0.0360673
5.21458 50.9096 2
2.85457 51.8506 4
6.13797 53.0081 0.0251722
3.86727 54.0858 2
5.0241 56.25 0
12.4688 31.3153 3.9759
11.0617 28.4752 3.97578
13.3404 29.1217 2
9.55726 25.8347 3.96923
11.6536 26.5584 2
13.8594 26.92 0.0243095
8.26058 23.0306 3.96443
10.3443 24.0105 2
12.2044 24.8636 0.0259454
7.2032 19.9796 3.97461
9.28537 21.1511 2
11.2907 22.2845 0.0341483
10.4125 19.3325 0.0361931
8.41991 18.0359 2
6.31992 16.6661 4
9.76517 16.1625 0.0288748
7.74926 14.6714 2
9.30607 12.7746 0
12.5042 34.3288 3.97654
15.0589 32.9279 2
18.6438 33.1966 0.024074
16.0755 29.7667 0.0247032
11.1822 36.6211 3.97656
13.3642 36.2223 2
15.5205 36.0397 0.0225499
13.0604 37.8282 0.023008
11.6499 38.3034 2
9.61109 38.8158 3.97655
12.3276 40.1131 0.0234938
10.0363 40.7315 2
7.6679 41.2 3.97324
10.4585 42.7383 0.0240891
8.06761 43.2507 2
5.65148 43.7666 3.96539
8.5285 45.2949 0.0289286
6.1405 45.9023 2
3.77081 46.537 3.97417
6.74268 47.9967 0.035821
4.42608 48.7507 2
1.99014 49.554 4
5.21451 50.9116 0.0256171
2.85451 51.8506 2
3.86727 54.0858 0
11.2696 32.9605 3.97646
10.3666 30.4284 3.97588
12.4687 31.3157 2
8.86223 27.7626 3.9699
11.0642 28.4759 2
13.3402 29.1217 0.0250212
7.37914 24.9872 3.96448
9.55937 25.8354 2
11.6509 26.5578 0.0250788
6.12015 22.0017 3.97521
8.2624 23.032 2
10.3421 24.01 0.0318636
5.02411 18.75 4
7.20265 19.9833 2
9.27907 21.1494 0.0358458
8.42102 18.0318 0.0267183
6.3199 16.6661 2
7.74928 14.6715 0
10.7638 35.0201 3.97645
12.5036 34.3289 2
15.0596 32.9272 0.023754
9.26625 36.989 3.97665
11.1833 36.6211 2
13.3644 36.2223 0.0232694
11.6491 38.3038 0.0232575
9.61423 38.8154 2
7.3425 39.1774 3.97322
10.0333 40.7319 0.0237655
7.67026 41.1995 2
5.26638 41.6126 3.96575
8.06623 43.2513 0.0274283
5.65203 43.7659 2
3.2483 44.2816 3.97489
6.14169 45.9031 0.0351863
3.77142 46.5364 2
1.27781 47.2057 4
4.42555 48.7519 0.0259431
1.99012 49.554 2
2.85457 51.8506 0
10.3953 33.9084 3.97618
9.63879 32.1869 3.97634
11.2709 32.9609 2
8.1976 29.719 3.97093
10.3689 30.4292 2
12.4688 31.3153 0.0240968
6.61451 27.0114 3.96477
8.86442 27.7633 2
11.0617 28.4752 0.024225
5.17519 24.094 3.97493
7.37788 24.988 2
9.55726 25.8347 0.0307683
3.86728 20.9142 4
6.11992 22.0043 2
8.26058 23.0306 0.0355737
5.02406 18.75 2
7.2032 19.9796 0.0253858
6.31992 16.6661 0
9.07837 35.2931 3.97681
10.7652 35.0202 2
12.5042 34.3288 0.0234634
7.11967 37.207 3.97283
9.26957 36.9888 2
11.1822 36.6211 0.0234419
9.61109 38.8158 0.0234484
7.34518 39.1772 2
4.99342 39.4667 3.96654
7.6679 41.2 0.0267642
5.26711 41.6123 2
2.85849 42.0017 3.9754
5.65148 43.7666 0.0346136
3.24858 44.2811 2
0.720592 44.8159 4
3.77081 46.537 0.0258276
1.27778 47.2057 2
1.99014 49.554 0
9.11753 33.7194 3.97687
10.3976 33.9086 2
7.62444 31.626 3.97169
9.64212 32.1875 2
11.2696 32.9605 0.0235434
5.9534 29.0715 3.9651
8.19895 29.7195 2
10.3666 30.4284 0.0241157
4.36234 26.2468 3.97462
6.61179 27.0119 2
8.86223 27.7626 0.0300982
2.85458 23.1494 4
5.17541 24.0956 2
7.37914 24.9872 0.0355211
3.86728 20.9142 2
6.12015 22.0017 0.0247893
5.02411 18.75 0
7.06843 35.3121 3.97238
9.08218 35.2931 2
10.7638 35.0201 0.0235476
4.84349 37.3398 3.96701
7.12273 37.2069 2
9.26625 36.989 0.0233467
7.3425 39.1774 0.0267761
4.99415 39.4665 2
2.60632 39.7134 3.97602
5.26638 41.6126 0.034254
2.85913 42.0015 2
0.320823 42.3947 4
3.2483 44.2816 0.0251121
0.720551 44.8159 2
1.27781 47.2057 0
7.2318 33.472 3.97216
9.12132 33.7198 2
10.3953 33.9084 0.0238174
5.42236 31.135 3.96568
7.6268 31.6263 2
9.63879 32.1869 0.0236586
3.68368 28.4433 3.97464
5.95256 29.0719 2
8.1976 29.719 0.0290681
1.99015 25.446 4
4.36288 26.2476 2
6.61451 27.0114 0.0352291
2.85453 23.1494 2
5.17519 24.094 0.0250713
3.86728 20.9142 0
4.85771 35.2523 3.96689
7.07063 35.3122 2
9.07837 35.2931 0.0231901
2.49773 37.4281 3.97693
4.84368 37.3399 2
7.11967 37.207 0.0271704
4.99342 39.4667 0.0334643
2.60703 39.7137 2
0.080333 39.9526 4
2.85849 42.0017 0.0245984
0.320817 42.3947 2
0.720592 44.8159 0
5.0513 33.1914 3.96644
7.23432 33.4723 2
9.11753 33.7194 0.0231349
3.14773 30.6663 3.97533
5.42299 31.1356 2
7.62444 31.626 0.0283128
1.27793 27.7943 4
3.68435 28.4437 2
5.9534 29.0715 0.0348976
1.99013 25.446 2
4.36234 26.2468 0.0253831
2.85458 23.1494 0
2.5498 35.1589 3.97668
4.85854 35.2526 2
7.06843 35.3121 0.0276153
0 37.5 4
2.49794 37.4286 2
4.84349 37.3398 0.0329853
2.60632 39.7134 0.0239841
0.0802903 39.9526 2
0.320823 42.3947 0
2.7675 32.9058 3.97656
5.05165 33.1918 2
7.2318 33.472 0.0278379
0.721173 30.1842 4
3.14824 30.6667 2
5.42236 31.135 0.0343212
1.27779 27.7943 2
3.68368 28.4433 0.0253552
1.99015 25.446 0
0.0806499 35.0474 4
2.55059 35.1594 2
4.85771 35.2523 0.033107
0 37.5 2
2.49773 37.4281 0.0230735
0.080333 39.9526 0
0.32156 32.6054 4
2.76783 32.9064 2
5.0513 33.1914 0.0335591
0.72056 30.1841 2
3.14773 30.6663 0.0246729
1.27793 27.7943 0
0.0802889 35.0474 2
2.5498 35.1589 0.0233152
0 37.5 0
0.320817 32.6053 2
2.7675 32.9058 0.0234437
0.721173 30.1842 0
0.0806499 35.0474 0
0.32156 32.6054 0
CELLS 1910 17190
8 18 6 25 56 2 0 5 16
8 57 23 6 18 17 4 0 2
8 78 36 9 29 31 11 1 7
8 31 11 1 7 79 37 10 30
8 110 57 18 50 48 17 2 14
8 50 18 56 111 14 2 16 49
8 116 62 22 55 52 20 3 15
8 56 25 67 118 16 5 24 53
8 119 63 23 57 54 21 4 17
8 55 22 63 119 15 3 21 54
8 58 26 68 121 18 6 25 56
8 122 65 26 58 57 23 6 18
8 73 31 7 27 142 79 30 71
8 143 78 29 72 73 31 7 27
8 83 147 76 34 32 74 28 8
8 84 148 78 36 33 75 29 9
8 76 34 8 28 148 84 33 75
8 37 79 150 86 10 30 77 35
8 151 87 36 78 80 38 11 31
8 80 38 11 31 152 88 37 79
8 175 100 42 94 96 44 12 40
8 44 96 176 101 12 40 95 43
8 101 176 98 46 43 95 41 13
8 46 98 178 103 13 41 97 45
8 178 103 45 97 147 83 32 74
8 189 116 55 109 106 52 15 47
8 111 56 118 191 49 16 53 107
8 192 119 57 110 108 54 17 48
8 109 55 119 192 47 15 54 108
8 194 122 58 112 110 57 18 50
8 112 58 121 195 50 18 56 111
8 115 61 19 51 197 124 59 113
8 115 61 125 198 51 19 60 114
8 198 125 62 116 114 60 20 52
8 200 127 64 120 116 62 22 55
8 118 67 132 202 53 24 66 117
8 121 68 133 203 56 25 67 118
8 120 64 128 204 55 22 63 119
8 204 128 65 122 119 63 23 57
8 206 134 68 121 123 69 26 58
8 123 69 26 58 207 131 65 122
8 226 147 74 138 140 76 28 70
8 229 148 75 139 143 78 29 72
8 140 76 28 70 229 148 75 139
8 142 79 30 71 231 150 77 141
8 144 80 31 73 232 152 79 142
8 233 151 78 143 144 80 31 73
8 150 86 35 77 235 154 81 145
8 235 154 81 145 146 82 39 91
8 146 82 39 91 236 155 90 165
8 238 157 83 147 149 85 34 76
8 239 158 84 148 151 87 36 78
8 149 85 34 76 239 158 84 148
8 152 88 37 79 241 160 86 150
8 242 161 87 151 153 89 38 80
8 153 89 38 80 243 162 88 152
8 171 98 41 92 265 178 97 169
8 265 178 97 169 226 147 74 138
8 172 96 40 93 266 176 95 170
8 266 176 95 170 171 98 41 92
8 269 175 94 173 172 96 40 93
8 271 180 99 174 175 100 42 94
8 197 124 59 113 271 180 99 174
8 272 181 100 175 177 102 44 96
8 273 182 101 176 179 104 46 98
8 177 102 44 96 273 182 101 176
8 179 104 46 98 275 184 103 178
8 275 184 103 178 238 157 83 147
8 188 115 51 105 283 197 113 186
8 188 115 198 284 105 51 114 187
8 284 198 116 189 187 114 52 106
8 286 200 120 193 189 116 55 109
8 191 118 202 288 107 53 117 190
8 195 121 203 289 111 56 118 191
8 193 120 204 290 109 55 119 192
8 290 204 122 194 192 119 57 110
8 196 123 58 112 292 207 122 194
8 293 206 121 195 196 123 58 112
8 199 126 61 115 297 211 124 197
8 298 212 127 200 198 125 62 116
8 199 126 212 298 115 61 125 198
8 205 129 64 120 300 214 127 200
8 301 217 130 201 202 132 66 117
8 209 136 168 264 301 217 130 201
8 302 219 132 202 203 133 67 118
8 303 220 133 203 206 134 68 121
8 205 129 215 304 120 64 128 204
8 304 215 131 207 204 128 65 122
8 306 221 134 206 208 135 69 123
8 208 135 69 123 307 218 131 207
8 210 137 167 263 309 223 136 209
8 328 238 147 226 230 149 76 140
8 228 146 91 166 329 236 165 260
8 231 150 77 141 330 235 145 227
8 330 235 145 227 228 146 91 166
8 332 239 148 229 233 151 78 143
8 230 149 76 140 332 239 148 229
8 232 152 79 142 334 241 150 231
8 234 153 80 144 335 243 152 232
8 336 242 151 233 234 153 80 144
8 236 155 90 165 338 245 164 259
8 241 160 86 150 339 246 154 235
8 339 246 154 235 237 156 82 146
8 237 156 82 146 340 247 155 236
8 342 249 157 238 240 159 85 149
8 343 250 158 239 242 161 87 151
8 240 159 85 149 343 250 158 239
8 243 162 88 152 345 252 160 241
8 244 163 253 346 153 89 161 242
8 244 163 89 153 347 254 162 243
8 311 224 261 371 210 137 167 263
8 263 167 262 372 209 136 168 264
8 267 179 98 171 375 275 178 265
8 375 275 178 265 328 238 147 226
8 376 273 176 266 267 179 98 171
8 268 177 96 172 376 273 176 266
8 379 272 175 269 268 177 96 172
8 380 271 174 270 269 175 94 173
8 283 197 113 186 380 271 174 270
8 381 277 180 271 272 181 100 175
8 297 211 124 197 381 277 180 271
8 382 278 181 272 274 183 102 177
8 274 183 102 177 383 279 182 273
8 383 279 182 273 276 185 104 179
8 385 281 184 275 342 249 157 238
8 276 185 104 179 385 281 184 275
8 285 199 115 188 393 297 197 283
8 394 298 200 286 284 198 116 189
8 285 199 298 394 188 115 198 284
8 291 205 120 193 396 300 200 286
8 397 301 201 287 288 202 117 190
8 295 209 264 374 397 301 201 287
8 398 302 202 288 289 203 118 191
8 399 303 203 289 293 206 121 195
8 291 205 304 400 193 120 204 290
8 400 304 207 292 290 204 122 194
8 294 208 123 196 402 307 207 292
8 403 306 206 293 294 208 123 196
8 296 210 263 373 405 309 209 295
8 408 312 213 299 297 211 126 199
8 299 213 313 409 199 126 212 298
8 409 313 214 300 298 212 127 200
8 305 216 129 205 411 315 214 300
8 412 318 217 301 302 219 132 202
8 309 223 136 209 412 318 217 301
8 413 320 219 302 303 220 133 203
8 306 221 321 414 206 134 220 303
8 307 218 131 207 415 316 215 304
8 305 216 316 415 205 129 215 304
8 417 322 221 306 308 222 135 208
8 308 222 135 208 418 319 218 307
8 310 225 137 210 420 325 223 309
8 423 326 224 311 310 225 137 210
8 329 236 165 260 441 338 259 368
8 442 342 238 328 333 240 149 230
8 331 237 146 228 443 340 236 329
8 334 241 150 231 444 339 235 330
8 444 339 235 330 331 237 146 228
8 446 343 239 332 336 242 151 233
8 333 240 149 230 446 343 239 332
8 335 243 152 232 448 345 241 334
8 337 244 153 234 449 347 243 335
8 337 244 346 450 234 153 242 336
8 338 245 164 259 452 349 258 367
8 340 247 155 236 453 350 245 338
8 345 252 160 241 454 351 246 339
8 454 351 246 339 341 248 156 237
8 341 248 156 237 455 352 247 340
8 240 159 251 344 342 249 354 457
8 242 161 253 346 343 250 355 458
8 343 250 355 458 240 159 251 344
8 347 254 162 243 460 357 252 345
8 348 255 358 461 244 163 253 346
8 348 255 163 244 462 359 254 347
8 473 360 257 365 363 256 364 482
8 452 349 258 367 365 257 366 485
8 422 324 369 488 311 224 261 371
8 371 261 370 490 263 167 262 372
8 407 311 371 491 296 210 263 373
8 373 263 372 492 295 209 264 374
8 493 385 275 375 442 342 238 328
8 377 276 179 267 493 385 275 375
8 378 274 177 268 494 383 273 376
8 494 383 273 376 377 276 179 267
8 497 382 272 379 378 274 177 268
8 498 381 271 380 379 272 175 269
8 393 297 197 283 498 381 271 380
8 499 387 277 381 382 278 181 272
8 408 312 211 297 499 387 277 381
8 500 388 278 382 384 280 183 274
8 501 389 279 383 386 282 185 276
8 384 280 183 274 501 389 279 383
8 386 282 185 276 503 391 281 385
8 503 391 281 385 457 354 249 342
8 511 408 299 395 393 297 199 285
8 395 299 409 512 285 199 298 394
8 512 409 300 396 394 298 200 286
8 401 305 205 291 514 411 300 396
8 515 412 301 397 398 302 202 288
8 405 309 209 295 515 412 301 397
8 516 413 302 398 399 303 203 289
8 403 306 414 517 293 206 303 399
8 402 307 207 292 518 415 304 400
8 401 305 415 518 291 205 304 400
8 404 308 208 294 520 418 307 402
8 521 417 306 403 404 308 208 294
8 406 310 210 296 523 420 309 405
8 526 423 311 407 406 310 210 296
8 410 314 213 299 527 424 312 408
8 528 425 315 411 409 313 214 300
8 410 314 425 528 299 213 313 409
8 416 317 216 305 530 427 315 411
8 531 430 318 412 413 320 219 302
8 420 325 223 309 531 430 318 412
8 532 432 320 413 414 321 220 303
8 417 322 433 533 306 221 321 414
8 418 319 218 307 534 428 316 415
8 416 317 428 534 305 216 316 415
8 419 323 434 536 308 222 322 417
8 419 323 222 308 537 431 319 418
8 421 327 225 310 539 438 325 420
8 421 327 439 541 310 225 326 423
8 543 437 324 422 423 326 224 311
8 441 338 259 368 559 452 367 486
8 443 340 236 329 560 453 338 441
8 333 240 344 447 442 342 457 561
8 445 341 237 331 562 455 340 443
8 448 345 241 334 563 454 339 444
8 563 454 339 444 445 341 237 331
8 336 242 346 450 446 343 458 565
8 446 343 458 565 333 240 344 447
8 449 347 243 335 567 460 345 448
8 451 348 244 337 568 462 347 449
8 451 348 461 569 337 244 346 450
8 570 463 349 452 473 360 257 365
8 453 350 245 338 570 463 349 452
8 455 352 247 340 571 464 350 453
8 460 357 252 345 572 465 351 454
8 572 465 351 454 456 353 248 341
8 456 353 248 341 573 466 352 455
8 344 251 356 459 457 354 468 575
8 458 355 469 576 344 251 356 459
8 346 253 358 461 458 355 469 576
8 462 359 254 347 578 471 357 460
8 348 255 359 462 461 358 472 579
8 591 474 360 473 475 361 256 363
8 475 361 256 363 594 477 362 479
8 363 256 364 482 479 362 480 603
8 590 473 365 484 481 363 482 605
8 482 364 257 365 606 483 366 485
8 559 452 367 486 484 365 485 607
8 542 436 487 609 422 324 369 488
8 525 422 488 611 407 311 371 491
8 488 369 489 612 371 261 370 490
8 491 371 490 613 373 263 372 492
8 495 386 276 377 614 503 385 493
8 614 503 385 493 561 457 342 442
8 615 501 383 494 495 386 276 377
8 496 384 274 378 615 501 383 494
8 618 500 382 497 496 384 274 378
8 619 499 381 498 497 382 272 379
8 511 408 297 393 619 499 381 498
8 620 505 387 499 500 388 278 382
8 527 424 312 408 620 505 387 499
8 502 390 506 621 384 280 388 500
8 622 507 389 501 504 392 282 386
8 502 390 280 384 622 507 389 501
8 504 392 282 386 624 509 391 503
8 624 509 391 503 575 468 354 457
8 513 410 299 395 630 527 408 511
8 631 528 411 514 512 409 300 396
8 513 410 528 631 395 299 409 512
8 519 416 305 401 633 530 411 514
8 634 531 412 515 516 413 302 398
8 523 420 309 405 634 531 412 515
8 635 532 413 516 517 414 303 399
8 521 417 533 636 403 306 414 517
8 520 418 307 402 637 534 415 518
8 519 416 534 637 401 305 415 518
8 522 419 308 404 639 537 418 520
8 522 419 536 640 404 308 417 521
8 524 421 310 406 642 539 420 523
8 524 421 541 644 406 310 423 526
8 646 543 422 525 526 423 311 407
8 529 426 314 410 647 544 424 527
8 528 425 545 648 411 315 427 530
8 529 426 545 648 410 314 425 528
8 535 429 317 416 649 546 427 530
8 650 548 430 531 532 432 320 413
8 539 438 325 420 650 548 430 531
8 533 433 550 651 414 321 432 532
8 536 434 551 652 417 322 433 533
8 537 431 319 418 653 547 428 534
8 535 429 547 653 416 317 428 534
8 538 435 552 654 419 323 434 536
8 538 435 323 419 655 549 431 537
8 540 440 327 421 657 556 438 539
8 540 440 557 659 421 327 439 541
8 541 439 555 660 423 326 437 543
8 661 554 436 542 543 437 324 422
8 676 570 452 559 590 473 365 484
8 560 453 338 441 676 570 452 559
8 562 455 340 443 677 571 453 560
8 447 344 459 566 561 457 575 678
8 564 456 341 445 679 573 455 562
8 567 460 345 448 680 572 454 563
8 680 572 454 563 564 456 341 445
8 565 458 576 682 447 344 459 566
8 450 346 461 569 565 458 576 682
8 568 462 347 449 684 578 460 567
8 451 348 462 568 569 461 579 685
8 686 580 463 570 591 474 360 473
8 571 464 350 453 686 580 463 570
8 573 466 352 455 687 581 464 571
8 572 465 582 688 460 357 471 578
8 574 467 582 688 456 353 465 572
8 574 467 353 456 689 583 466 573
8 459 356 470 577 575 468 585 691
8 576 469 586 692 459 356 470 577
8 461 358 472 579 576 469 586 692
8 462 359 471 578 579 472 588 694
8 704 591 473 590 593 475 363 481
8 595 476 592 705 475 361 474 591
8 593 475 363 481 707 594 479 602
8 594 477 362 479 709 598 478 600
8 595 476 361 475 711 597 477 594
8 479 362 480 603 600 478 601 720
8 481 363 482 605 602 479 603 722
8 603 480 364 482 723 604 483 606
8 605 482 365 484 724 606 485 607
8 656 553 608 726 542 436 487 609
8 645 542 609 728 525 422 488 611
8 609 487 610 729 488 369 489 612
8 611 488 612 730 491 371 490 613
8 616 504 386 495 731 624 503 614
8 731 624 503 614 678 575 457 561
8 732 622 501 615 616 504 386 495
8 617 502 384 496 732 622 501 615
8 617 502 621 735 496 384 500 618
8 736 620 499 619 618 500 382 497
8 630 527 408 511 736 620 499 619
8 621 506 626 737 500 388 505 620
8 647 544 424 527 737 626 505 620
8 623 508 627 738 502 390 506 621
8 623 508 390 502 739 628 507 622
8 625 510 628 739 504 392 507 622
8 740 629 509 624 691 585 468 575
8 625 510 392 504 740 629 509 624
8 632 529 410 513 744 647 527 630
8 631 528 648 745 514 411 530 633
8 632 529 648 745 513 410 528 631
8 638 535 416 519 746 649 530 633
8 747 650 531 634 635 532 413 516
8 642 539 420 523 747 650 531 634
8 636 533 651 748 517 414 532 635
8 640 536 652 749 521 417 533 636
8 639 537 418 520 750 653 534 637
8 638 535 653 750 519 416 534 637
8 641 538 419 522 751 655 537 639
8 641 538 654 752 522 419 536 640
8 643 540 421 524 753 657 539 642
8 643 540 659 755 524 421 541 644
8 644 541 660 757 526 423 543 646
8 758 661 542 645 646 543 422 525
8 529 426 544 647 648 545 662 759
8 530 427 545 648 649 546 663 760
8 535 429 546 649 653 547 664 761
8 762 666 548 650 651 550 432 532
8 657 556 438 539 762 666 548 650
8 652 551 668 763 533 433 550 651
8 654 552 669 764 536 434 551 652
8 655 549 431 537 765 665 547 653
8 538 435 549 655 654 552 667 766
8 661 554 671 768 542 436 553 656
8 658 558 440 540 769 674 556 657
8 658 558 675 770 540 440 557 659
8 659 557 673 771 541 439 555 660
8 660 555 672 772 543 437 554 661
8 788 686 570 676 704 591 473 590
8 677 571 453 560 788 686 570 676
8 679 573 455 562 789 687 571 677
8 566 459 577 683 678 575 691 790
8 681 574 456 564 791 689 573 679
8 680 572 688 792 567 460 578 684
8 681 574 688 792 564 456 572 680
8 682 576 692 794 566 459 577 683
8 569 461 579 685 682 576 692 794
8 568 462 578 684 685 579 694 796
8 687 581 464 571 798 696 580 686
8 798 696 580 686 705 592 474 591
8 689 583 466 573 799 697 581 687
8 688 582 698 800 578 471 588 694
8 690 584 698 800 574 467 582 688
8 690 584 467 574 801 699 583 689
8 693 587 701 803 577 470 585 691
8 693 587 470 577 804 702 586 692
8 695 589 702 804 579 472 586 692
8 695 589 472 579 805 703 588 694
8 708 595 705 813 593 475 591 704
8 710 596 706 814 595 476 592 705
8 707 594 479 602 816 709 600 719
8 708 595 475 593 817 711 594 707
8 709 598 478 600 819 715 599 717
8 711 597 477 594 820 714 598 709
8 710 596 476 595 822 713 597 711
8 600 478 601 720 717 599 718 832
8 602 479 603 722 719 600 720 834
8 720 601 480 603 835 721 604 723
8 722 603 482 605 836 723 606 724
8 767 670 725 839 656 553 608 726
8 756 656 726 841 645 542 609 728
8 726 608 727 842 609 487 610 729
8 728 609 729 843 611 488 612 730
8 844 740 624 731 790 691 575 678
8 733 625 504 616 844 740 624 731
8 734 623 502 617 845 739 622 732
8 733 625 739 845 616 504 622 732
8 734 623 738 846 617 502 621 735
8 735 621 737 847 618 500 620 736
8 744 647 527 630 847 737 620 736
8 621 506 627 738 737 626 741 848
8 647 544 626 737 759 662 741 848
8 623 508 628 739 738 627 742 849
8 740 629 585 691 850 743 700 802
8 625 510 629 740 739 628 743 850
8 632 529 647 744 745 648 759 854
8 633 530 648 745 746 649 760 855
8 638 535 649 746 750 653 761 856
8 857 762 650 747 748 651 532 635
8 753 657 539 642 857 762 650 747
8 749 652 763 858 636 533 651 748
8 752 654 764 859 640 536 652 749
8 751 655 537 639 860 765 653 750
8 641 538 655 751 752 654 766 861
8 754 658 540 643 862 769 657 753
8 754 658 770 863 643 540 659 755
8 755 659 771 864 644 541 660 757
8 758 661 768 866 645 542 656 756
8 757 660 772 867 646 543 661 758
8 759 662 773 868 648 545 663 760
8 649 546 663 760 761 664 774 871
8 765 665 547 653 872 775 664 761
8 873 777 666 762 763 668 550 651
8 769 674 556 657 873 777 666 762
8 764 669 779 874 652 551 668 763
8 654 552 667 766 764 669 778 875
8 655 549 665 765 766 667 776 876
8 768 671 782 877 656 553 670 767
8 772 672 783 878 661 554 671 768
8 658 558 674 769 770 675 786 879
8 659 557 675 770 771 673 785 881
8 882 784 672 772 771 673 555 660
8 789 687 571 677 897 798 686 788
8 897 798 686 788 813 705 591 704
8 791 689 573 679 898 799 687 789
8 795 693 803 900 683 577 691 790
8 793 690 574 681 901 801 689 791
8 792 688 800 902 684 578 694 796
8 793 690 800 902 681 574 688 792
8 795 693 577 683 903 804 692 794
8 797 695 804 903 685 579 692 794
8 797 695 579 685 904 805 694 796
8 905 806 697 799 798 696 581 687
8 814 706 806 905 705 592 696 798
8 689 583 697 799 801 699 808 907
8 800 698 809 908 694 588 703 805
8 690 584 699 801 800 698 809 908
8 803 701 810 909 691 585 700 802
8 693 587 702 804 803 701 811 910
8 695 589 703 805 804 702 812 911
8 818 710 814 919 708 595 705 813
8 821 712 815 920 710 596 706 814
8 816 709 600 719 922 819 717 831
8 817 711 594 707 923 820 709 816
8 818 710 595 708 924 822 711 817
8 819 715 599 717 926 827 716 829
8 820 714 598 709 927 826 715 819
8 929 825 713 822 820 714 597 711
8 821 712 596 710 930 824 713 822
8 717 599 718 832 829 716 830 942
8 719 600 720 834 831 717 832 944
8 832 718 601 720 945 833 721 835
8 834 720 603 722 946 835 723 836
8 869 780 838 950 767 670 725 839
8 865 767 839 952 756 656 726 841
8 839 725 840 953 726 608 727 842
8 841 726 842 954 728 609 729 843
8 844 740 691 790 955 850 802 899
8 733 625 740 844 845 739 850 955
8 734 623 739 845 846 738 849 956
8 735 621 738 846 847 737 848 957
8 744 647 737 847 854 759 848 957
8 738 627 742 849 848 741 851 958
8 848 741 851 958 759 662 773 868
8 850 743 700 802 959 852 807 906
8 849 742 628 739 959 852 743 850
8 854 759 868 965 745 648 760 855
8 746 649 760 855 856 761 871 966
8 860 765 653 750 967 872 761 856
8 968 873 762 857 858 763 651 748
8 862 769 657 753 968 873 762 857
8 859 764 874 969 749 652 763 858
8 752 654 766 861 859 764 875 970
8 751 655 765 860 861 766 876 971
8 754 658 769 862 863 770 879 972
8 755 659 770 863 864 771 881 974
8 976 882 772 867 864 771 660 757
8 866 768 877 977 756 656 767 865
8 867 772 878 978 758 661 768 866
8 760 663 773 868 871 774 883 980
8 870 781 837 948 982 890 780 869
8 982 890 780 869 877 782 670 767
8 761 664 774 871 872 775 884 984
8 876 776 665 765 985 885 775 872
8 873 777 668 763 986 887 779 874
8 769 674 777 873 879 786 887 986
8 764 669 778 875 874 779 888 987
8 766 667 776 876 875 778 886 988
8 878 783 892 989 768 671 782 877
8 878 783 672 772 990 893 784 882
8 880 787 675 770 991 896 786 879
8 880 787 895 992 770 675 785 881
8 881 785 894 993 771 673 784 882
8 1006 905 799 898 897 798 687 789
8 919 814 905 1006 813 705 798 897
8 791 689 799 898 901 801 907 1007
8 900 803 909 1009 790 691 802 899
8 795 693 804 903 900 803 910 1010
8 902 800 908 1011 796 694 805 904
8 793 690 801 901 902 800 908 1011
8 797 695 805 904 903 804 911 1012
8 799 697 806 905 907 808 912 1013
8 920 815 912 1013 814 706 806 905
8 802 700 810 909 906 807 913 1014
8 801 699 808 907 908 809 914 1015
8 805 703 809 908 911 812 915 1016
8 803 701 811 910 909 810 916 1017
8 911 812 917 1018 804 702 811 910
8 925 821 920 1030 818 710 814 919
8 928 823 921 1031 821 712 815 920
8 922 819 717 831 1033 926 829 941
8 923 820 709 816 1034 927 819 922
8 1035 929 822 924 923 820 711 817
8 925 821 710 818 1036 930 822 924
8 1038 933 825 929 927 826 714 820
8 926 827 716 829 1039 935 828 939
8 927 826 715 819 1040 934 827 926
8 928 823 712 821 1041 931 824 930
8 1042 932 824 930 929 825 713 822
8 829 716 830 942 939 828 940 1058
8 831 717 832 944 941 829 942 1060
8 942 830 718 832 1061 943 833 945
8 944 832 720 834 1062 945 835 946
8 981 889 947 1064 870 781 837 948
8 948 837 949 1067 869 780 838 950
8 975 869 950 1069 865 767 839 952
8 950 838 951 1070 839 725 840 953
8 952 839 953 1071 841 726 842 954
8 955 850 802 899 1072 959 906 1008
8 956 849 739 845 1072 959 850 955
8 846 738 849 956 957 848 958 1073
8 957 848 958 1073 854 759 868 965
8 849 742 852 959 958 851 961 1076
8 960 853 961 1076 906 807 852 959
8 958 851 961 1076 868 773 883 980
8 960 853 807 906 1077 963 913 1014
8 855 760 868 965 966 871 980 1085
8 856 761 871 966 967 872 984 1086
8 971 876 765 860 1087 985 872 967
8 968 873 763 858 1088 986 874 969
8 862 769 873 968 972 879 986 1088
8 859 764 875 970 969 874 987 1089
8 861 766 876 971 970 875 988 1090
8 973 880 770 863 1091 991 879 972
8 973 880 992 1092 863 770 881 974
8 974 881 993 1093 864 771 882 976
8 979 870 948 1066 1094 982 869 975
8 1094 982 869 975 977 877 767 865
8 978 878 772 867 1095 990 882 976
8 978 878 989 1096 866 768 877 977
8 871 774 883 980 984 884 994 1099
8 983 891 999 1100 870 781 889 981
8 1101 1000 890 982 989 892 782 877
8 983 891 781 870 1101 1000 890 982
8 872 775 884 984 985 885 995 1103
8 876 776 885 985 988 886 996 1104
8 986 887 779 874 1105 998 888 987
8 879 786 887 986 991 896 998 1105
8 875 778 886 988 987 888 997 1106
8 990 893 1002 1107 878 783 892 989
8 1108 1003 893 990 993 894 784 882
8 880 787 896 991 992 895 1005 1109
8 993 894 785 881 1110 1004 895 992
8 898 799 905 1006 1007 907 1013 1120
8 1030 920 1013 1120 919 814 905 1006
8 901 801 907 1007 1011 908 1015 1121
8 899 802 909 1009 1008 906 1014 1122
8 900 803 910 1010 1009 909 1017 1123
8 1012 911 1018 1124 903 804 910 1010
8 904 805 908 1011 1012 911 1016 1125
8 1013 912 1020 1127 907 808 914 1015
8 1031 921 1020 1127 920 815 912 1013
8 1019 918 962 1075 1128 1021 913 1014
8 1128 1021 913 1014 1017 916 810 909
8 1015 914 1022 1129 908 809 915 1016
8 1016 915 1023 1130 911 812 917 1018
8 1018 917 1024 1131 910 811 916 1017
8 1037 928 1031 1148 925 821 920 1030
8 928 823 931 1041 1031 921 1032 1149
8 1033 926 829 941 1151 1039 939 1057
8 1034 927 819 922 1152 1040 926 1033
8 1153 1038 929 1035 1034 927 820 923
8 1154 1042 930 1036 1035 929 822 924
8 1037 928 821 925 1155 1041 930 1036
8 1039 935 828 939 1156 1047 938 1055
8 1157 1043 932 1042 1038 933 825 929
8 1038 933 826 927 1158 1045 934 1040
8 1040 934 827 926 1159 1046 935 1039
8 930 824 932 1042 1041 931 1044 1160
8 1051 936 1048 1165 1175 1052 937 1053
8 1156 1047 938 1055 1053 937 1054 1178
8 939 828 940 1058 1055 938 1056 1181
8 941 829 942 1060 1057 939 1058 1183
8 942 830 943 1061 1058 940 1059 1184
8 1060 942 832 944 1185 1061 945 1062
8 1082 964 1063 1188 981 889 947 1064
8 1097 981 1064 1190 979 870 948 1066
8 1064 947 1065 1191 948 837 949 1067
8 1066 948 1067 1193 975 869 950 1069
8 1067 949 1068 1194 950 838 951 1070
8 1069 950 1070 1195 952 839 953 1071
8 956 849 959 1072 1073 958 1076 1197
8 1074 960 1076 1197 1008 906 959 1072
8 1073 958 1076 1197 965 868 980 1085
8 1074 960 906 1008 1198 1077 1014 1122
8 1133 1026 1079 1199 1019 918 962 1075
8 1077 963 913 1014 1200 1080 962 1075
8 960 853 963 1077 1076 961 1078 1201
8 980 883 961 1076 1099 994 1078 1201
8 1210 1083 964 1082 1100 999 889 981
8 966 871 980 1085 1086 984 1099 1215
8 967 872 984 1086 1087 985 1103 1216
8 971 876 985 1087 1090 988 1104 1217
8 1088 986 874 969 1218 1105 987 1089
8 972 879 986 1088 1091 991 1105 1218
8 970 875 988 1090 1089 987 1106 1219
8 973 880 991 1091 1092 992 1109 1220
8 1093 993 881 974 1221 1110 992 1092
8 1222 1108 990 1095 1093 993 882 976
8 1223 1101 982 1094 1096 989 877 977
8 1098 983 870 979 1223 1101 982 1094
8 1095 990 1107 1224 978 878 989 1096
8 1098 983 1100 1225 979 870 981 1097
8 984 884 994 1099 1103 995 1111 1227
8 1102 1001 1115 1228 983 891 999 1100
8 1101 1000 892 989 1229 1116 1002 1107
8 1102 1001 891 983 1229 1116 1000 1101
8 985 885 995 1103 1104 996 1112 1230
8 988 886 996 1104 1106 997 1113 1231
8 1105 998 888 987 1232 1114 997 1106
8 991 896 998 1105 1109 1005 1114 1232
8 1108 1003 1117 1233 990 893 1002 1107
8 1108 1003 894 993 1233 1117 1004 1110
8 992 895 1005 1109 1110 1004 1118 1234
8 1120 1013 1127 1244 1007 907 1015 1121
8 1148 1031 1127 1244 1030 920 1013 1120
8 1121 1015 1129 1245 1011 908 1016 1125
8 1126 1019 1075 1196 1246 1128 1014 1122
8 1246 1128 1014 1122 1123 1017 909 1009
8 1124 1018 1131 1247 1010 910 1017 1123
8 1125 1016 1130 1248 1012 911 1018 1124
8 1127 1020 1137 1254 1015 914 1022 1129
8 1031 921 1032 1149 1127 1020 1137 1254
8 1134 1027 918 1019 1257 1140 1021 1128
8 1257 1140 1021 1128 1131 1024 916 1017
8 1129 1022 1141 1258 1016 915 1023 1130
8 1130 1023 1142 1259 1018 917 1024 1131
8 1261 1144 1025 1132 1133 1026 1079 1199
8 1255 1138 1025 1132 1135 1028 1144 1261
8 1133 1026 918 1019 1262 1145 1027 1134
8 1136 1029 1139 1256 1263 1146 1028 1135
8 1037 928 1041 1155 1148 1031 1149 1275
8 1041 931 1044 1160 1149 1032 1150 1276
8 1151 1039 939 1057 1278 1156 1055 1180
8 1152 1040 926 1033 1279 1159 1039 1151
8 1153 1038 927 1034 1280 1158 1040 1152
8 1281 1157 1042 1154 1153 1038 929 1035
8 1036 930 1042 1154 1155 1041 1160 1282
8 1283 1164 1046 1159 1156 1047 935 1039
8 1165 1048 1164 1283 1053 937 1047 1156
8 1157 1043 933 1038 1284 1161 1045 1158
8 1157 1043 1161 1284 1042 932 1044 1160
8 1040 934 1046 1159 1158 1045 1163 1285
8 1166 1049 1167 1292 1051 936 1048 1165
8 1166 1049 936 1051 1293 1168 1050 1172
8 1051 936 1052 1175 1172 1050 1173 1306
8 1174 1051 1165 1290 1308 1175 1053 1177
8 1053 937 1054 1178 1175 1052 1176 1309
8 1278 1156 1055 1180 1177 1053 1178 1311
8 1055 938 1056 1181 1178 1054 1179 1312
8 1057 939 1058 1183 1180 1055 1181 1314
8 1058 940 1059 1184 1181 1056 1182 1315
8 1060 942 1061 1185 1183 1058 1184 1316
8 1208 1081 1187 1321 1082 964 1063 1188
8 1209 1082 1188 1322 1097 981 1064 1190
8 1188 1063 1189 1323 1064 947 1065 1191
8 1190 1064 1191 1325 1066 948 1067 1193
8 1191 1065 1192 1326 1067 949 1068 1194
8 1067 1193 1069 950 1194 1327 1195 1070
8 1250 1133 1199 1330 1126 1019 1075 1196
8 1198 1077 1014 1122 1331 1200 1075 1196
8 1074 960 1077 1198 1197 1076 1201 1332
8 1085 980 1076 1197 1215 1099 1201 1332
8 1199 1079 1203 1333 1075 962 1080 1200
8 1132 1025 1119 1243 1199 1079 1203 1333
8 1201 1078 963 1077 1334 1202 1080 1200
8 1099 994 1078 1201 1227 1111 1202 1334
8 1343 1207 1081 1208 1210 1083 964 1082
8 1214 1084 1186 1319 1343 1207 1081 1208
8 1345 1210 1082 1209 1225 1100 981 1097
8 1346 1211 1083 1210 1228 1115 999 1100
8 1086 984 1099 1215 1216 1103 1227 1352
8 1087 985 1103 1216 1217 1104 1230 1353
8 1090 988 1104 1217 1219 1106 1231 1354
8 1218 1105 987 1089 1355 1232 1106 1219
8 1091 991 1105 1218 1220 1109 1232 1355
8 1092 992 1109 1220 1221 1110 1234 1356
8 1222 1108 1233 1357 1095 990 1107 1224
8 1222 1108 993 1093 1357 1233 1110 1221
8 1223 1101 989 1096 1358 1229 1107 1224
8 1226 1102 983 1098 1358 1229 1101 1223
8 1226 1102 1228 1359 1098 983 1100 1225
8 1103 995 1111 1227 1230 1112 1235 1360
8 1107 1002 1117 1233 1229 1116 1240 1362
8 1102 1001 1116 1229 1228 1115 1240 1362
8 1104 996 1112 1230 1231 1113 1236 1363
8 1364 1237 1114 1232 1231 1113 997 1106
8 1109 1005 1114 1232 1234 1118 1238 1365
8 1110 1004 1118 1234 1233 1117 1241 1366
8 1242 1374 1255 1138 1119 1243 1132 1025
8 1244 1127 1254 1376 1121 1015 1129 1245
8 1148 1031 1149 1275 1244 1127 1254 1376
8 1245 1129 1258 1377 1125 1016 1130 1248
8 1251 1134 1019 1126 1378 1257 1128 1246
8 1378 1257 1128 1246 1247 1131 1017 1123
8 1248 1130 1259 1379 1124 1018 1131 1247
8 1261 1381 1250 1133 1132 1249 1330 1199
8 1255 1380 1252 1135 1132 1249 1381 1261
8 1250 1133 1019 1126 1382 1262 1134 1251
8 1253 1136 1256 1385 1384 1263 1135 1252
8 1254 1137 1265 1387 1129 1022 1141 1258
8 1149 1032 1150 1276 1254 1137 1265 1387
8 1028 1135 1255 1138 1139 1256 1388 1266
8 1136 1029 1147 1264 1256 1139 1267 1389
8 1390 1268 1140 1257 1259 1142 1024 1131
8 1260 1143 1027 1134 1390 1268 1140 1257
8 1258 1141 1269 1391 1130 1023 1142 1259
8 1262 1145 1027 1134 1393 1271 1143 1260
8 1261 1144 1026 1133 1394 1272 1145 1262
8 1135 1028 1144 1261 1263 1146 1272 1394
8 1136 1029 1146 1263 1264 1147 1273 1395
8 1155 1041 1160 1282 1275 1149 1276 1405
8 1276 1150 1044 1160 1406 1277 1162 1286
8 1408 1283 1159 1279 1278 1156 1039 1151
8 1290 1165 1283 1408 1177 1053 1156 1278
8 1152 1040 1159 1279 1280 1158 1285 1409
8 1281 1157 1038 1153 1410 1284 1158 1280
8 1281 1157 1284 1410 1154 1042 1160 1282
8 1159 1046 1164 1283 1285 1163 1289 1412
8 1292 1167 1289 1412 1165 1048 1164 1283
8 1158 1045 1163 1285 1284 1161 1288 1413
8 1284 1161 1288 1413 1160 1044 1162 1286
8 1291 1166 1292 1418 1174 1051 1165 1290
8 1291 1166 1051 1174 1419 1293 1172 1305
8 1294 1169 1296 1421 1166 1049 1167 1292
8 1293 1168 1050 1172 1422 1295 1171 1303
8 1294 1169 1049 1166 1423 1297 1168 1293
8 1422 1295 1171 1303 1301 1170 1302 1435
8 1172 1050 1173 1306 1303 1171 1304 1438
8 1174 1051 1175 1308 1305 1172 1306 1440
8 1175 1052 1176 1309 1306 1173 1307 1441
8 1177 1053 1178 1311 1308 1175 1309 1443
8 1178 1054 1179 1312 1309 1176 1310 1444
8 1180 1055 1181 1314 1311 1178 1312 1446
8 1056 1181 1312 1179 1182 1315 1447 1313
8 1183 1058 1184 1316 1314 1181 1315 1448
8 1319 1186 1084 1214 1451 1317 1213 1350
8 1319 1186 1318 1453 1208 1081 1187 1321
8 1321 1187 1320 1456 1188 1063 1189 1323
8 1344 1208 1321 1457 1209 1082 1188 1322
8 1322 1188 1323 1458 1190 1064 1191 1325
8 1323 1189 1324 1459 1191 1065 1192 1326
8 1191 1325 1193 1067 1326 1460 1327 1194
8 1242 1374 1243 1119 1328 1462 1335 1204
8 1330 1199 1333 1465 1196 1075 1200 1331
8 1132 1249 1330 1199 1243 1375 1465 1333
8 1332 1201 1077 1198 1466 1334 1200 1331
8 1215 1099 1201 1332 1352 1227 1334 1466
8 1119 1243 1333 1203 1204 1335 1470 1338
8 1333 1203 1338 1470 1200 1080 1202 1334
8 1227 1111 1202 1334 1360 1235 1338 1470
8 1328 1462 1335 1204 1205 1336 1471 1339
8 1337 1206 1340 1472 1464 1329 1205 1336
8 1346 1211 1342 1479 1210 1083 1207 1343
8 1346 1211 1115 1228 1479 1342 1239 1361
8 1348 1212 1084 1214 1479 1342 1207 1343
8 1480 1343 1208 1344 1345 1210 1082 1209
8 1351 1214 1319 1454 1480 1343 1208 1344
8 1481 1346 1210 1345 1359 1228 1100 1225
8 1348 1212 1347 1483 1214 1084 1213 1350
8 1216 1103 1227 1352 1353 1230 1360 1488
8 1217 1104 1230 1353 1354 1231 1363 1489
8 1490 1364 1232 1355 1354 1231 1106 1219
8 1220 1109 1232 1355 1356 1234 1365 1491
8 1221 1110 1234 1356 1357 1233 1366 1492
8 1224 1107 1233 1357 1358 1229 1362 1493
8 1226 1102 1229 1358 1359 1228 1362 1493
8 1230 1112 1235 1360 1363 1236 1367 1496
8 1361 1239 1115 1228 1497 1371 1240 1362
8 1366 1241 1372 1498 1233 1117 1240 1362
8 1364 1237 1113 1231 1499 1368 1236 1363
8 1364 1237 1368 1499 1232 1114 1238 1365
8 1234 1118 1238 1365 1366 1241 1369 1500
8 1507 1373 1242 1374 1388 1266 1138 1255
8 1508 1374 1243 1375 1380 1255 1132 1249
8 1376 1254 1387 1509 1245 1129 1258 1377
8 1275 1149 1276 1405 1376 1254 1387 1509
8 1377 1258 1391 1510 1248 1130 1259 1379
8 1511 1390 1257 1378 1379 1259 1131 1247
8 1383 1260 1134 1251 1511 1390 1257 1378
8 1252 1135 1256 1385 1380 1255 1388 1512
8 1261 1381 1513 1394 1133 1250 1382 1262
8 1135 1252 1384 1263 1261 1381 1513 1394
8 1382 1262 1134 1251 1514 1393 1260 1383
8 1253 1136 1263 1384 1386 1264 1395 1516
8 1253 1136 1264 1386 1385 1256 1389 1517
8 1387 1265 1397 1519 1258 1141 1269 1391
8 1276 1150 1277 1406 1387 1265 1397 1519
8 1256 1139 1267 1389 1388 1266 1398 1520
8 1264 1147 1274 1396 1389 1267 1399 1521
8 1392 1270 1143 1260 1522 1400 1268 1390
8 1390 1268 1142 1259 1522 1400 1269 1391
8 1392 1270 1401 1523 1260 1143 1271 1393
8 1272 1394 1524 1402 1145 1262 1393 1271
8 1395 1273 1146 1263 1524 1402 1272 1394
8 1273 1395 1264 1147 1403 1526 1396 1274
8 1405 1276 1160 1282 1534 1406 1286 1411
8 1414 1287 1407 1535 1286 1162 1277 1406
8 1279 1159 1283 1408 1409 1285 1412 1537
8 1418 1292 1412 1537 1290 1165 1283 1408
8 1280 1158 1285 1409 1410 1284 1413 1538
8 1410 1284 1413 1538 1282 1160 1286 1411
8 1285 1163 1289 1412 1413 1288 1417 1540
8 1421 1296 1417 1540 1292 1167 1289 1412
8 1414 1287 1162 1286 1541 1416 1288 1413
8 1420 1294 1421 1545 1291 1166 1292 1418
8 1419 1293 1172 1305 1546 1422 1303 1437
8 1420 1294 1166 1291 1547 1423 1293 1419
8 1294 1169 1297 1423 1421 1296 1425 1548
8 1423 1297 1168 1293 1549 1424 1295 1422
8 1301 1170 1298 1427 1422 1295 1424 1549
8 1432 1300 1428 1554 1301 1170 1298 1427
8 1431 1299 1428 1554 1560 1430 1300 1432
8 1563 1433 1300 1432 1435 1302 1170 1301
8 1546 1422 1303 1437 1434 1301 1435 1565
8 1303 1171 1304 1438 1435 1302 1436 1566
8 1305 1172 1306 1440 1437 1303 1438 1568
8 1306 1173 1307 1441 1438 1304 1439 1569
8 1308 1175 1309 1443 1440 1306 1441 1571
8 1309 1176 1310 1444 1441 1307 1442 1572
8 1311 1178 1312 1446 1443 1309 1444 1574
8 1179 1312 1444 1310 1313 1447 1575 1445
8 1314 1181 1315 1448 1446 1312 1447 1576
8 1350 1213 1349 1486 1451 1317 1449 1579
8 1451 1317 1450 1581 1319 1186 1318 1453
8 1454 1319 1214 1351 1582 1451 1350 1487
8 1453 1318 1452 1584 1321 1187 1320 1456
8 1454 1319 1453 1585 1344 1208 1321 1457
8 1456 1320 1455 1586 1323 1189 1324 1459
8 1457 1321 1456 1587 1322 1188 1323 1458
8 1458 1323 1459 1588 1325 1191 1326 1460
8 1205 1336 1464 1329 1328 1462 1590 1461
8 1507 1373 1461 1590 1374 1242 1328 1462
8 1508 1374 1462 1591 1375 1243 1335 1467
8 1337 1206 1329 1464 1473 1341 1463 1594
8 1375 1243 1335 1467 1465 1333 1470 1596
8 1465 1333 1470 1596 1331 1200 1334 1466
8 1352 1227 1334 1466 1488 1360 1470 1596
8 1591 1462 1336 1468 1467 1335 1471 1597
8 1469 1337 1472 1598 1595 1464 1336 1468
8 1471 1339 1474 1600 1335 1204 1338 1470
8 1600 1474 1367 1496 1470 1338 1235 1360
8 1336 1205 1340 1472 1471 1339 1475 1601
8 1337 1206 1341 1473 1472 1340 1476 1602
8 1495 1370 1478 1609 1361 1239 1342 1479
8 1348 1212 1342 1479 1483 1347 1478 1609
8 1481 1346 1479 1610 1345 1210 1343 1480
8 1481 1346 1228 1359 1610 1479 1361 1494
8 1484 1348 1214 1351 1610 1479 1343 1480
8 1483 1347 1482 1612 1350 1213 1349 1486
8 1484 1348 1483 1613 1351 1214 1350 1487
8 1353 1230 1360 1488 1489 1363 1496 1616
8 1490 1364 1231 1354 1617 1499 1363 1489
8 1490 1364 1499 1617 1355 1232 1365 1491
8 1356 1234 1365 1491 1492 1366 1500 1619
8 1492 1366 1498 1620 1357 1233 1362 1493
8 1494 1361 1228 1359 1621 1497 1362 1493
8 1495 1370 1239 1361 1622 1504 1371 1497
8 1363 1236 1367 1496 1499 1368 1501 1623
8 1497 1371 1240 1362 1624 1505 1372 1498
8 1625 1503 1372 1498 1500 1369 1241 1366
8 1365 1238 1368 1499 1500 1369 1502 1626
8 1520 1398 1506 1633 1388 1266 1373 1507
8 1634 1507 1374 1508 1512 1388 1255 1380
8 1509 1387 1519 1635 1377 1258 1391 1510
8 1405 1276 1406 1534 1509 1387 1519 1635
8 1515 1392 1260 1383 1636 1522 1390 1511
8 1511 1390 1259 1379 1636 1522 1391 1510
8 1385 1256 1389 1517 1512 1388 1520 1637
8 1513 1394 1262 1382 1638 1524 1393 1514
8 1395 1516 1638 1524 1263 1384 1513 1394
8 1515 1392 1523 1639 1383 1260 1393 1514
8 1516 1395 1526 1640 1386 1264 1396 1518
8 1386 1264 1396 1518 1517 1389 1521 1641
8 1519 1397 1527 1643 1391 1269 1400 1522
8 1535 1407 1527 1643 1406 1277 1397 1519
8 1389 1267 1399 1521 1520 1398 1528 1644
8 1645 1529 1399 1521 1525 1404 1274 1396
8 1392 1270 1400 1522 1523 1401 1531 1646
8 1524 1402 1271 1393 1648 1532 1401 1523
8 1403 1526 1648 1532 1273 1395 1524 1402
8 1525 1404 1274 1396 1649 1533 1403 1526
8 1539 1414 1535 1657 1411 1286 1406 1534
8 1542 1415 1536 1658 1414 1287 1407 1535
8 1409 1285 1412 1537 1538 1413 1540 1660
8 1545 1421 1540 1660 1418 1292 1412 1537
8 1539 1414 1286 1411 1661 1541 1413 1538
8 1540 1417 1544 1663 1413 1288 1416 1541
8 1421 1296 1425 1548 1540 1417 1544 1663
8 1542 1415 1287 1414 1664 1543 1416 1541
8 1420 1294 1423 1547 1545 1421 1548 1666
8 1547 1423 1293 1419 1667 1549 1422 1546
8 1434 1301 1427 1553 1546 1422 1549 1667
8 1423 1297 1424 1549 1548 1425 1550 1668
8 1551 1426 1550 1668 1427 1298 1424 1549
8 1551 1426 1298 1427 1671 1552 1428 1554
8 1562 1432 1554 1674 1434 1301 1427 1553
8 1431 1299 1429 1558 1554 1428 1555 1675
8 1431 1299 1430 1560 1558 1429 1557 1680
8 1560 1430 1300 1432 1683 1559 1433 1563
8 1561 1431 1554 1674 1684 1560 1432 1562
8 1685 1563 1432 1562 1565 1435 1301 1434
8 1435 1302 1436 1566 1563 1433 1564 1686
8 1437 1303 1438 1568 1565 1435 1566 1688
8 1438 1304 1439 1569 1566 1436 1567 1689
8 1440 1306 1441 1571 1568 1438 1569 1691
8 1441 1307 1442 1572 1569 1439 1570 1692
8 1443 1309 1444 1574 1571 1441 1572 1694
8 1310 1444 1572 1442 1445 1575 1695 1573
8 1446 1312 1447 1576 1574 1444 1575 1696
8 1486 1349 1485 1614 1579 1449 1577 1699
8 1451 1317 1449 1579 1581 1450 1578 1701
8 1487 1350 1486 1615 1582 1451 1579 1702
8 1581 1450 1580 1704 1453 1318 1452 1584
8 1582 1451 1581 1705 1454 1319 1453 1585
8 1584 1452 1583 1706 1456 1320 1455 1586
8 1585 1453 1584 1707 1457 1321 1456 1587
8 1587 1456 1586 1708 1458 1323 1459 1588
8 1633 1506 1589 1710 1507 1373 1461 1590
8 1464 1329 1461 1590 1594 1463 1589 1710
8 1468 1336 1462 1591 1595 1464 1590 1711
8 1634 1507 1590 1711 1508 1374 1462 1591
8 1473 1341 1463 1594 1603 1477 1593 1716
8 1469 1337 1464 1595 1599 1473 1594 1717
8 1471 1597 1467 1335 1600 1718 1596 1470
8 1718 1600 1496 1616 1596 1470 1360 1488
8 1336 1468 1597 1471 1472 1598 1719 1601
8 1469 1337 1473 1599 1598 1472 1602 1720
8 1722 1604 1501 1623 1600 1474 1367 1496
8 1475 1601 1471 1339 1604 1722 1600 1474
8 1602 1476 1605 1723 1472 1340 1475 1601
8 1476 1602 1724 1606 1341 1473 1603 1477
8 1483 1347 1478 1609 1612 1482 1608 1731
8 1495 1370 1504 1622 1609 1478 1608 1731
8 1618 1495 1609 1732 1494 1361 1479 1610
8 1484 1348 1479 1610 1613 1483 1609 1732
8 1486 1349 1482 1612 1614 1485 1611 1733
8 1613 1483 1612 1734 1487 1350 1486 1615
8 1489 1363 1496 1616 1617 1499 1623 1736
8 1491 1365 1499 1617 1619 1500 1626 1737
8 1618 1495 1361 1494 1738 1622 1497 1621
8 1739 1625 1498 1620 1619 1500 1366 1492
8 1621 1497 1362 1493 1740 1624 1498 1620
8 1742 1631 1504 1622 1624 1505 1371 1497
8 1743 1628 1502 1626 1623 1501 1368 1499
8 1744 1630 1505 1624 1625 1503 1372 1498
8 1745 1629 1503 1625 1626 1502 1369 1500
8 1520 1398 1528 1644 1633 1506 1632 1751
8 1637 1520 1633 1752 1512 1388 1507 1634
8 1635 1519 1643 1753 1510 1391 1522 1636
8 1657 1535 1643 1753 1534 1406 1519 1635
8 1515 1392 1522 1636 1639 1523 1646 1754
8 1517 1389 1521 1641 1637 1520 1644 1755
8 1524 1638 1756 1648 1393 1514 1639 1523
8 1640 1526 1395 1516 1756 1648 1524 1638
8 1642 1525 1396 1518 1757 1649 1526 1640
8 1758 1645 1521 1641 1642 1525 1396 1518
8 1646 1531 1400 1522 1760 1650 1527 1643
8 1535 1407 1536 1658 1643 1527 1650 1760
8 1521 1399 1529 1645 1644 1528 1651 1761
8 1647 1530 1652 1762 1525 1404 1529 1645
8 1401 1523 1648 1532 1531 1646 1763 1655
8 1525 1404 1533 1649 1647 1530 1654 1765
8 1533 1649 1766 1656 1403 1526 1648 1532
8 1662 1542 1658 1774 1539 1414 1535 1657
8 1542 1415 1543 1664 1658 1536 1659 1775
8 1660 1540 1663 1777 1538 1413 1541 1661
8 1545 1421 1548 1666 1660 1540 1663 1777
8 1662 1542 1414 1539 1778 1664 1541 1661
8 1664 1543 1416 1541 1779 1665 1544 1663
8 1548 1425 1550 1668 1663 1544 1665 1779
8 1547 1423 1549 1667 1666 1548 1668 1781
8 1670 1551 1668 1781 1553 1427 1549 1667
8 1551 1426 1552 1671 1668 1550 1669 1782
8 1670 1551 1427 1553 1784 1671 1554 1674
8 1675 1555 1672 1785 1554 1428 1552 1671
8 1678 1556 1673 1789 1558 1429 1555 1675
8 1561 1431 1558 1681 1674 1554 1675 1790
8 1794 1677 1556 1678 1680 1557 1429 1558
8 1560 1430 1559 1683 1680 1557 1679 1797
8 1561 1431 1560 1684 1681 1558 1680 1798
8 1563 1433 1564 1686 1683 1559 1682 1800
8 1684 1560 1432 1562 1801 1683 1563 1685
8 1565 1435 1566 1688 1685 1563 1686 1802
8 1566 1436 1567 1689 1686 1564 1687 1803
8 1568 1438 1569 1691 1688 1566 1689 1805
8 1569 1439 1570 1692 1689 1567 1690 1806
8 1571 1441 1572 1694 1691 1569 1692 1808
8 1442 1572 1692 1570 1573 1695 1809 1693
8 1574 1444 1575 1696 1694 1572 1695 1810
8 1614 1485 1592 1712 1699 1577 1697 1813
8 1579 1449 1577 1699 1701 1578 1698 1815
8 1615 1486 1614 1735 1702 1579 1699 1816
8 1701 1578 1700 1818 1581 1450 1580 1704
8 1582 1451 1579 1702 1705 1581 1701 1819
8 1704 1580 1703 1820 1584 1452 1583 1706
8 1705 1581 1704 1821 1585 1453 1584 1707
8 1707 1584 1706 1822 1587 1456 1586 1708
8 1710 1589 1506 1633 1824 1709 1632 1751
8 1594 1463 1589 1710 1716 1593 1709 1824
8 1752 1633 1710 1825 1634 1507 1590 1711
8 1595 1464 1590 1711 1717 1594 1710 1825
8 1830 1714 1592 1712 1733 1611 1485 1614
8 1603 1477 1593 1716 1725 1607 1715 1834
8 1599 1473 1594 1717 1721 1603 1716 1835
8 1837 1722 1623 1736 1718 1600 1496 1616
8 1719 1601 1722 1837 1597 1471 1600 1718
8 1602 1720 1598 1472 1723 1838 1719 1601
8 1720 1602 1473 1599 1839 1724 1603 1721
8 1723 1605 1726 1840 1601 1475 1604 1722
8 1840 1726 1628 1743 1722 1604 1501 1623
8 1724 1606 1727 1841 1602 1476 1605 1723
8 1725 1607 1728 1842 1603 1477 1606 1724
8 1612 1482 1608 1731 1733 1611 1730 1849
8 1741 1627 1730 1849 1622 1504 1608 1731
8 1613 1483 1609 1732 1734 1612 1731 1850
8 1618 1495 1622 1738 1732 1609 1731 1850
8 1615 1486 1612 1734 1735 1614 1733 1851
8 1852 1743 1626 1737 1736 1623 1499 1617
8 1853 1745 1625 1739 1737 1626 1500 1619
8 1855 1742 1622 1738 1740 1624 1497 1621
8 1856 1744 1624 1740 1739 1625 1498 1620
8 1741 1627 1504 1622 1857 1746 1631 1742
8 1742 1631 1505 1624 1858 1749 1630 1744
8 1859 1747 1629 1745 1743 1628 1502 1626
8 1860 1748 1630 1744 1745 1629 1503 1625
8 1644 1528 1651 1761 1751 1632 1750 1865
8 1637 1520 1644 1755 1752 1633 1751 1866
8 1754 1646 1522 1636 1867 1760 1643 1753
8 1657 1535 1658 1774 1753 1643 1760 1867
8 1639 1523 1646 1754 1756 1648 1763 1868
8 1641 1521 1645 1758 1755 1644 1761 1869
8 1757 1649 1526 1640 1870 1766 1648 1756
8 1642 1525 1649 1757 1759 1647 1765 1871
8 1759 1647 1762 1872 1642 1525 1645 1758
8 1760 1650 1767 1874 1646 1531 1655 1763
8 1658 1536 1659 1775 1760 1650 1767 1874
8 1762 1652 1768 1875 1645 1529 1651 1761
8 1764 1653 1769 1876 1647 1530 1652 1762
8 1656 1766 1877 1773 1532 1648 1763 1655
8 1771 1879 1765 1654 1653 1764 1647 1530
8 1533 1649 1765 1654 1656 1766 1880 1772
8 1662 1542 1664 1778 1774 1658 1775 1887
8 1664 1543 1665 1779 1775 1659 1776 1888
8 1778 1664 1541 1661 1890 1779 1663 1777
8 1666 1548 1668 1781 1777 1663 1779 1890
8 1782 1669 1780 1891 1668 1550 1665 1779
8 1670 1551 1671 1784 1781 1668 1782 1893
8 1671 1552 1672 1785 1782 1669 1783 1894
8 1790 1675 1785 1896 1674 1554 1671 1784
8 1675 1555 1673 1789 1785 1672 1786 1897
8 1792 1676 1788 1903 1678 1556 1673 1789
8 1795 1678 1789 1904 1681 1558 1675 1790
8 1792 1676 1556 1678 1906 1791 1677 1794
8 1680 1557 1679 1797 1794 1677 1793 1909
8 1910 1794 1678 1795 1798 1680 1558 1681
8 1683 1559 1682 1800 1797 1679 1796 1912
8 1684 1560 1683 1801 1798 1680 1797 1913
8 1686 1564 1687 1803 1800 1682 1799 1915
8 1685 1563 1686 1802 1801 1683 1800 1916
8 1688 1566 1689 1805 1802 1686 1803 1917
8 1689 1567 1690 1806 1803 1687 1804 1918
8 1691 1569 1692 1808 1805 1689 1806 1920
8 1692 1570 1693 1809 1806 1690 1807 1921
8 1694 1572 1695 1810 1808 1692 1809 1922
8 1829 1713 1811 1926 1712 1592 1697 1813
8 1813 1697 1812 1928 1699 1577 1698 1815
8 1735 1614 1712 1828 1816 1699 1813 1929
8 1815 1698 1814 1931 1701 1578 1700 1818
8 1702 1579 1699 1816 1819 1701 1815 1932
8 1818 1700 1817 1933 1704 1580 1703 1820
8 1819 1701 1818 1934 1705 1581 1704 1821
8 1821 1704 1820 1935 1707 1584 1706 1822
8 1824 1709 1632 1751 1937 1823 1750 1865
8 1716 1593 1709 1824 1834 1715 1823 1937
8 1825 1710 1633 1752 1938 1824 1751 1866
8 1717 1594 1710 1825 1835 1716 1824 1938
8 1945 1830 1712 1828 1851 1733 1614 1735
8 1830 1714 1831 1946 1712 1592 1713 1829
8 1947 1832 1714 1830 1849 1730 1611 1733
8 1843 1729 1607 1725 1950 1833 1715 1834
8 1721 1603 1716 1835 1836 1725 1834 1951
8 1836 1725 1842 1953 1721 1603 1724 1839
8 1723 1838 1719 1601 1840 1954 1837 1722
8 1954 1840 1743 1852 1837 1722 1623 1736
8 1724 1839 1720 1602 1841 1955 1838 1723
8 1841 1727 1844 1956 1723 1605 1726 1840
8 1956 1844 1747 1859 1840 1726 1628 1743
8 1728 1842 1724 1606 1845 1957 1841 1727
8 1725 1607 1729 1843 1842 1728 1846 1958
8 1741 1627 1746 1857 1849 1730 1848 1965
8 1734 1612 1731 1850 1851 1733 1849 1966
8 1854 1741 1849 1966 1738 1622 1731 1850
8 1967 1859 1745 1853 1852 1743 1626 1737
8 1968 1860 1744 1856 1853 1745 1625 1739
8 1854 1741 1622 1738 1969 1857 1742 1855
8 1855 1742 1624 1740 1970 1858 1744 1856
8 1857 1746 1631 1742 1971 1861 1749 1858
8 1858 1749 1630 1744 1972 1863 1748 1860
8 1859 1747 1862 1973 1745 1629 1748 1860
8 1875 1768 1864 1977 1761 1651 1750 1865
8 1755 1644 1761 1869 1866 1751 1865 1978
8 1867 1760 1874 1979 1754 1646 1763 1868
8 1774 1658 1775 1887 1867 1760 1874 1979
8 1870 1766 1648 1756 1980 1877 1763 1868
8 1872 1762 1875 1981 1758 1645 1761 1869
8 1757 1649 1766 1870 1871 1765 1880 1982
8 1983 1879 1764 1873 1871 1765 1647 1759
8 1873 1764 1876 1984 1759 1647 1762 1872
8 1877 1773 1655 1763 1986 1881 1767 1874
8 1775 1659 1776 1888 1874 1767 1881 1986
8 1876 1769 1882 1987 1762 1652 1768 1875
8 1878 1770 1883 1988 1764 1653 1769 1876
8 1880 1772 1656 1766 1989 1886 1773 1877
8 1878 1770 1653 1764 1990 1884 1771 1879
8 1765 1654 1772 1880 1879 1771 1885 1991
8 1778 1664 1779 1890 1887 1775 1888 1997
8 1998 1889 1776 1888 1891 1780 1665 1779
8 1893 1782 1891 2000 1781 1668 1779 1890
8 1894 1783 1892 2001 1782 1669 1780 1891
8 1784 1671 1785 1896 1893 1782 1894 2003
8 1897 1786 1895 2004 1785 1672 1783 1894
8 1790 1675 1789 1904 1896 1785 1897 2006
8 1901 1787 1898 2007 1789 1673 1786 1897
8 1903 1788 1900 2013 1789 1673 1787 1901
8 1792 1676 1791 1906 1903 1788 1902 2016
8 1907 1792 1903 2017 1795 1678 1789 1904
8 1906 1791 1677 1794 2019 1905 1793 1909
8 1907 1792 1678 1795 2020 1906 1794 1910
8 1797 1679 1796 1912 1909 1793 1908 2022
8 1798 1680 1797 1913 1910 1794 1909 2023
8 1800 1682 1799 1915 1912 1796 1911 2025
8 1801 1683 1800 1916 1913 1797 1912 2026
8 1803 1687 1804 1918 1915 1799 1914 2028
8 1802 1686 1803 1917 1916 1800 1915 2029
8 1805 1689 1806 1920 1917 1803 1918 2030
8 1806 1690 1807 1921 1918 1804 1919 2031
8 1808 1692 1809 1922 1920 1806 1921 2032
8 1939 1826 1924 2037 1829 1713 1811 1926
8 1926 1811 1925 2039 1813 1697 1812 1928
8 1944 1829 1926 2040 1828 1712 1813 1929
8 1928 1812 1927 2042 1815 1698 1814 1931
8 1929 1813 1928 2043 1816 1699 1815 1932
8 1931 1814 1930 2044 1818 1700 1817 1933
8 1932 1815 1931 2045 1819 1701 1818 1934
8 1934 1818 1933 2046 1821 1704 1820 1935
8 2048 1936 1823 1937 1977 1864 1750 1865
8 1950 1833 1715 1834 2048 1936 1823 1937
8 1938 1824 1751 1866 2049 1937 1865 1978
8 1835 1716 1824 1938 1951 1834 1937 2049
8 1939 1826 1713 1829 2053 1942 1831 1946
8 1940 1827 1923 2035 2053 1942 1826 1939
8 1945 1830 1946 2058 1828 1712 1829 1944
8 2059 1947 1830 1945 1966 1849 1733 1851
8 1947 1832 1730 1849 2060 1948 1848 1965
8 1947 1832 1948 2060 1830 1714 1831 1946
8 1959 1847 1729 1843 2063 1949 1833 1950
8 1952 1843 1725 1836 2064 1950 1834 1951
8 1836 1725 1843 1952 1953 1842 1958 2066
8 1953 1842 1957 2067 1839 1724 1841 1955
8 1841 1955 1838 1723 1956 2068 1954 1840
8 2068 1956 1859 1967 1954 1840 1743 1852
8 1956 1844 1960 2069 1859 1747 1862 1973
8 1845 1957 1841 1727 1960 2069 1956 1844
8 1728 1842 1957 1845 1846 1958 2071 1961
8 1962 2072 1959 1847 1846 1958 1843 1729
8 1971 1861 1964 2077 1857 1746 1848 1965
8 1854 1741 1857 1969 1966 1849 1965 2078
8 1967 1859 1973 2079 1853 1745 1860 1968
8 1970 1858 1744 1856 2080 1972 1860 1968
8 1969 1857 1742 1855 2081 1971 1858 1970
8 1971 1861 1749 1858 2082 1974 1863 1972
8 1973 1862 1975 2083 1860 1748 1863 1972
8 1987 1882 1976 2086 1875 1768 1864 1977
8 1981 1875 1977 2087 1869 1761 1865 1978
8 1980 1877 1763 1868 2088 1986 1874 1979
8 1887 1775 1888 1997 1979 1874 1986 2088
8 1880 1982 2089 1989 1766 1870 1980 1877
8 1984 1876 1987 2090 1872 1762 1875 1981
8 1765 1871 1983 1879 1880 1982 2091 1991
8 1985 1878 1764 1873 2092 1990 1879 1983
8 1985 1878 1988 2093 1873 1764 1876 1984
8 2094 1992 1881 1986 1998 1889 1776 1888
8 1986 1881 1992 2094 1877 1773 1886 1989
8 1988 1883 1993 2095 1876 1769 1882 1987
8 1878 1770 1884 1990 1988 1883 1994 2096
8 1991 1885 1772 1880 2097 1996 1886 1989
8 1879 1771 1885 1991 1990 1884 1995 2098
8 2103 1998 1888 1997 2000 1891 1779 1890
8 2104 1999 1889 1998 2001 1892 1780 1891
8 2003 1894 2001 2106 1893 1782 1891 2000
8 2004 1895 2002 2107 1894 1783 1892 2001
8 2006 1897 2004 2109 1896 1785 1894 2003
8 2007 1898 2005 2110 1897 1786 1895 2004
8 2014 1901 2007 2112 1904 1789 1897 2006
8 2011 1899 2008 2113 1901 1787 1898 2007
8 2119 2010 1899 2011 2013 1900 1787 1901
8 2016 1902 2012 2122 1903 1788 1900 2013
8 2017 1903 2013 2123 1904 1789 1901 2014
8 1906 1791 1905 2019 2016 1902 2015 2125
8 1907 1792 1906 2020 2017 1903 2016 2126
8 1909 1793 1908 2022 2019 1905 2018 2128
8 2020 1906 1794 1910 2129 2019 1909 2023
8 1912 1796 1911 2025 2022 1908 2021 2131
8 1913 1797 1912 2026 2023 1909 2022 2132
8 1915 1799 1914 2028 2025 1911 2024 2134
8 1916 1800 1915 2029 2026 1912 2025 2135
8 1918 1804 1919 2031 2028 1914 2027 2136
8 1917 1803 1918 2030 2029 1915 2028 2137
8 1920 1806 1921 2032 2030 1918 2031 2138
8 1940 1827 1941 2054 2035 1923 2033 2140
8 2035 1923 2034 2143 1939 1826 1924 2037
8 2037 1924 2036 2146 1926 1811 1925 2039
8 2051 1939 2037 2147 1944 1829 1926 2040
8 2039 1925 2038 2149 1928 1812 1927 2042
8 2040 1926 2039 2150 1929 1813 1928 2043
8 2042 1927 2041 2151 1931 1814 1930 2044
8 2043 1928 2042 2152 1932 1815 1931 2045
8 2045 1931 2044 2153 1934 1818 1933 2046
8 2155 2047 1936 2048 2086 1976 1864 1977
8 2063 1949 1833 1950 2155 2047 1936 2048
8 2156 2048 1937 2049 2087 1977 1865 1978
8 2064 1950 1834 1951 2156 2048 1937 2049
8 2051 1939 1829 1944 2160 2053 1946 2058
8 2052 1940 2035 2144 2160 2053 1939 2051
8 2053 1942 1831 1946 2163 2057 1948 2060
8 2055 1943 1827 1940 2163 2057 1942 2053
8 2055 1943 2056 2164 1940 1827 1941 2054
8 2059 1947 1849 1966 2167 2060 1965 2078
8 2059 1947 2060 2167 1945 1830 1946 2058
8 2077 1964 2061 2168 1965 1848 1948 2060
8 2070 1963 1847 1959 2170 2062 1949 2063
8 2065 1959 1843 1952 2171 2063 1950 2064
8 2173 2072 1958 2066 2065 1959 1843 1952
8 1953 1842 1958 2066 2067 1957 2071 2174
8 2068 1956 2069 2175 1967 1859 1973 2079
8 2067 1957 2069 2175 1955 1841 1956 2068
8 1845 1957 2069 1960 1961 2071 2176 2073
8 2069 1960 2073 2176 1973 1862 1975 2083
8 2070 1963 2075 2177 1959 1847 1962 2072
8 1846 1958 2071 1961 1962 2072 2178 2074
8 2077 1964 1861 1971 2182 2076 1974 2082
8 2081 1971 2077 2183 1969 1857 1965 2078
8 2079 1973 2083 2184 1968 1860 1972 2080
8 2081 1971 1858 1970 2185 2082 1972 2080
8 2083 1975 2084 2186 1972 1863 1974 2082
8 2086 1976 1882 1987 2189 2085 1993 2095
8 2090 1987 2086 2190 1981 1875 1977 2087
8 2191 2094 1986 2088 2103 1998 1888 1997
8 2088 1986 2094 2191 1980 1877 1989 2089
8 1991 2091 2192 2097 1880 1982 2089 1989
8 2093 1988 2095 2193 1984 1876 1987 2090
8 1879 1983 2092 1990 1991 2091 2194 2098
8 1985 1878 1990 2092 2093 1988 2096 2195
8 2097 1996 1886 1989 2196 2099 1992 2094
8 2196 2099 1992 2094 2104 1999 1889 1998
8 1994 2096 1988 1883 2100 2197 2095 1993
8 2096 1994 1884 1990 2198 2101 1995 2098
8 1995 2098 2199 2102 1885 1991 2097 1996
8 2203 2104 1998 2103 2106 2001 1891 2000
8 2107 2002 2105 2204 2001 1892 1999 2104
8 2109 2004 2107 2206 2003 1894 2001 2106
8 2110 2005 2108 2207 2004 1895 2002 2107
8 2112 2007 2110 2209 2006 1897 2004 2109
8 2113 2008 2111 2210 2007 1898 2005 2110
8 2120 2011 2113 2212 2014 1901 2007 2112
8 2117 2009 2114 2213 2011 1899 2008 2113
8 2219 2116 2009 2117 2119 2010 1899 2011
8 2222 2118 2010 2119 2122 2012 1900 2013
8 2223 2119 2011 2120 2123 2013 1901 2014
8 2016 1902 2015 2125 2122 2012 2121 2225
8 2126 2016 2122 2226 2017 1903 2013 2123
8 2019 1905 2018 2128 2125 2015 2124 2228
8 2020 1906 2019 2129 2126 2016 2125 2229
8 2022 1908 2021 2131 2128 2018 2127 2231
8 2023 1909 2022 2132 2129 2019 2128 2232
8 2025 1911 2024 2134 2131 2021 2130 2234
8 2026 1912 2025 2135 2132 2022 2131 2235
8 1914 2028 2134 2024 2027 2136 2236 2133
8 2029 1915 2028 2137 2135 2025 2134 2237
8 2030 1918 2031 2138 2137 2028 2136 2238
8 2157 2050 2139 2240 2054 1941 2033 2140
8 2052 1940 2054 2161 2144 2035 2140 2242
8 2140 2033 2141 2243 2035 1923 2034 2143
8 2143 2034 2142 2246 2037 1924 2036 2146
8 2144 2035 2143 2247 2051 1939 2037 2147
8 2146 2036 2145 2249 2039 1925 2038 2149
8 2147 2037 2146 2250 2040 1926 2039 2150
8 2149 2038 2148 2251 2042 1927 2041 2151
8 2150 2039 2149 2252 2043 1928 2042 2152
8 2152 2042 2151 2253 2045 1931 2044 2153
8 2255 2154 2047 2155 2189 2085 1976 2086
8 2170 2062 1949 2063 2255 2154 2047 2155
8 2256 2155 2048 2156 2190 2086 1977 2087
8 2171 2063 1950 2064 2256 2155 2048 2156
8 2258 2159 2050 2157 2164 2056 1941 2054
8 2160 2053 1946 2058 2262 2163 2060 2167
8 2162 2055 1940 2052 2262 2163 2053 2160
8 2162 2055 2164 2263 2052 1940 2054 2161
8 2163 2057 1948 2060 2264 2165 2061 2168
8 2055 1943 2057 2163 2164 2056 2165 2264
8 2182 2076 2166 2268 2077 1964 2061 2168
8 2183 2077 2168 2269 2078 1965 2060 2167
8 2070 1963 2062 2170 2177 2075 2169 2271
8 2172 2070 1959 2065 2272 2170 2063 2171
8 2172 2070 2177 2273 2065 1959 2072 2173
8 2066 1958 2072 2173 2174 2071 2178 2274
8 2067 1957 2071 2174 2175 2069 2176 2275
8 2175 2069 2176 2275 2079 1973 2083 2184
8 2071 1961 2074 2178 2176 2073 2179 2276
8 2176 2073 2179 2276 2083 1975 2084 2186
8 2072 1962 2075 2177 2178 2074 2180 2277
8 2182 2076 1974 2082 2280 2181 2084 2186
8 2183 2077 1971 2081 2281 2182 2082 2185
8 2184 2083 2186 2282 2080 1972 2082 2185
8 2189 2085 1993 2095 2285 2188 2100 2197
8 2190 2086 1987 2090 2286 2189 2095 2193
8 2192 2097 1989 2089 2287 2196 2094 2191
8 2287 2196 2094 2191 2203 2104 1998 2103
8 2194 2098 1991 2091 2288 2199 2097 2192
8 2195 2096 2197 2289 2093 1988 2095 2193
8 2096 2195 2290 2198 1990 2092 2194 2098
8 2097 1996 2099 2196 2199 2102 2200 2291
8 2196 2099 1999 2104 2291 2200 2105 2204
8 2100 2197 2292 2201 1994 2096 2198 2101
8 1995 2098 2198 2101 2102 2199 2293 2202
8 2206 2107 2204 2296 2106 2001 2104 2203
8 2207 2108 2205 2297 2107 2002 2105 2204
8 2209 2110 2207 2299 2109 2004 2107 2206
8 2210 2111 2208 2300 2110 2005 2108 2207
8 2212 2113 2210 2302 2112 2007 2110 2209
8 2213 2114 2211 2303 2113 2008 2111 2210
8 2220 2117 2213 2305 2120 2011 2113 2212
8 2216 2115 2214 2306 2117 2009 2114 2213
8 2216 2115 2009 2117 2311 2217 2116 2219
8 2219 2116 2010 2119 2314 2218 2118 2222
8 2315 2219 2117 2220 2223 2119 2011 2120
8 2122 2012 2121 2225 2222 2118 2221 2317
8 2318 2222 2119 2223 2226 2122 2013 2123
8 2125 2015 2124 2228 2225 2121 2224 2320
8 2126 2016 2125 2229 2226 2122 2225 2321
8 2128 2018 2127 2231 2228 2124 2227 2323
8 2129 2019 2128 2232 2229 2125 2228 2324
8 2131 2021 2130 2234 2231 2127 2230 2326
8 2132 2022 2131 2235 2232 2128 2231 2327
8 2134 2024 2133 2236 2234 2130 2233 2328
8 2135 2025 2134 2237 2235 2131 2234 2329
8 2137 2028 2136 2238 2237 2134 2236 2330
8 2157 2050 2158 2259 2240 2139 2239 2332
8 2257 2157 2240 2334 2161 2054 2140 2242
8 2240 2139 2241 2335 2140 2033 2141 2243
8 2242 2140 2243 2337 2144 2035 2143 2247
8 2243 2141 2244 2338 2143 2034 2142 2246
8 2246 2142 2245 2341 2146 2036 2145 2249
8 2247 2143 2246 2342 2147 2037 2146 2250
8 2249 2145 2248 2343 2149 2038 2148 2251
8 2250 2146 2249 2344 2150 2039 2149 2252
8 2252 2149 2251 2345 2152 2042 2151 2253
8 2169 2271 2347 2254 2062 2170 2255 2154
8 2189 2085 2188 2285 2255 2154 2254 2347
8 2348 2255 2155 2256 2286 2189 2086 2190
8 2272 2170 2063 2171 2348 2255 2155 2256
8 2349 2258 2157 2257 2263 2164 2054 2161
8 2258 2159 2261 2351 2157 2050 2158 2259
8 2258 2159 2056 2164 2351 2261 2165 2264
8 2262 2163 2060 2167 2355 2264 2168 2269
8 2162 2055 2163 2262 2263 2164 2264 2355
8 2357 2266 2165 2264 2268 2166 2061 2168
8 2268 2166 2076 2182 2361 2267 2181 2280
8 2281 2182 2268 2362 2183 2077 2168 2269
8 2271 2169 2270 2364 2177 2075 2180 2277
8 2172 2070 2170 2272 2273 2177 2271 2365
8 2072 2173 2274 2178 2177 2273 2366 2277
8 2071 2174 2275 2176 2178 2274 2367 2276
8 2275 2176 2276 2367 2184 2083 2186 2282
8 2283 2187 2084 2186 2368 2278 2179 2276
8 2178 2074 2180 2277 2276 2179 2278 2368
8 2283 2187 2279 2370 2186 2084 2181 2280
8 2281 2182 2082 2185 2371 2280 2186 2282
8 2188 2285 2374 2284 2100 2197 2292 2201
8 2286 2189 2095 2193 2375 2285 2197 2289
8 2192 2097 2196 2287 2288 2199 2291 2376
8 2287 2196 2104 2203 2376 2291 2204 2296
8 2194 2098 2199 2288 2290 2198 2293 2377
8 2289 2197 2096 2195 2378 2292 2198 2290
8 2291 2200 2105 2204 2379 2294 2205 2297
8 2199 2102 2200 2291 2293 2202 2294 2379
8 2198 2101 2202 2293 2292 2201 2295 2380
8 2299 2207 2297 2383 2206 2107 2204 2296
8 2300 2208 2298 2384 2207 2108 2205 2297
8 2302 2210 2300 2386 2209 2110 2207 2299
8 2303 2211 2301 2387 2210 2111 2208 2300
8 2305 2213 2303 2389 2212 2113 2210 2302
8 2306 2214 2304 2390 2213 2114 2211 2303
8 2310 2216 2306 2392 2220 2117 2213 2305
8 2308 2215 2307 2393 2216 2115 2214 2306
8 2308 2215 2115 2216 2396 2309 2217 2311
8 2310 2216 2117 2220 2398 2311 2219 2315
8 2311 2217 2116 2219 2399 2312 2218 2314
8 2314 2218 2118 2222 2402 2313 2221 2317
8 2315 2219 2119 2223 2403 2314 2222 2318
8 2225 2121 2224 2320 2317 2221 2316 2405
8 2226 2122 2225 2321 2318 2222 2317 2406
8 2228 2124 2227 2323 2320 2224 2319 2408
8 2229 2125 2228 2324 2321 2225 2320 2409
8 2231 2127 2230 2326 2323 2227 2322 2411
8 2232 2128 2231 2327 2324 2228 2323 2412
8 2234 2130 2233 2328 2326 2230 2325 2413
8 2235 2131 2234 2329 2327 2231 2326 2414
8 2237 2134 2236 2330 2329 2234 2328 2415
8 2259 2158 2260 2352 2332 2239 2331 2417
8 2257 2157 2259 2350 2334 2240 2332 2419
8 2240 2139 2239 2332 2335 2241 2333 2420
8 2334 2240 2335 2422 2242 2140 2243 2337
8 2335 2241 2336 2423 2243 2141 2244 2338
8 2337 2243 2338 2425 2247 2143 2246 2342
8 2338 2244 2339 2426 2246 2142 2245 2341
8 2341 2245 2340 2428 2249 2145 2248 2343
8 2342 2246 2341 2429 2250 2146 2249 2344
8 2344 2249 2343 2430 2252 2149 2251 2345
8 2188 2285 2347 2254 2284 2374 2432 2346
8 2347 2254 2346 2432 2271 2169 2270 2364
8 2365 2271 2170 2272 2433 2347 2255 2348
8 2286 2189 2285 2375 2348 2255 2347 2433
8 2349 2258 2351 2435 2257 2157 2259 2350
8 2349 2258 2164 2263 2435 2351 2264 2355
8 2259 2158 2261 2351 2352 2260 2354 2437
8 2356 2265 2354 2437 2264 2165 2261 2351
8 2441 2357 2264 2355 2362 2268 2168 2269
8 2356 2265 2165 2264 2442 2358 2266 2357
8 2443 2359 2266 2357 2361 2267 2166 2268
8 2370 2279 2360 2446 2280 2181 2267 2361
8 2362 2268 2182 2281 2447 2361 2280 2371
8 2180 2277 2368 2278 2270 2364 2449 2363
8 2271 2365 2273 2177 2364 2450 2366 2277
8 2372 2283 2186 2282 2451 2368 2276 2367
8 2178 2274 2367 2276 2277 2366 2451 2368
8 2283 2187 2278 2368 2370 2279 2369 2452
8 2372 2283 2370 2453 2282 2186 2280 2371
8 2284 2374 2455 2373 2201 2292 2380 2295
8 2375 2285 2197 2289 2456 2374 2292 2378
8 2376 2291 2204 2296 2457 2379 2297 2383
8 2288 2199 2291 2376 2377 2293 2379 2457
8 2198 2290 2378 2292 2293 2377 2458 2380
8 2293 2202 2294 2379 2380 2295 2381 2459
8 2384 2298 2381 2459 2297 2205 2294 2379
8 2386 2300 2384 2463 2299 2207 2297 2383
8 2387 2301 2385 2464 2300 2208 2298 2384
8 2389 2303 2387 2466 2302 2210 2300 2386
8 2390 2304 2388 2467 2303 2211 2301 2387
8 2392 2306 2390 2469 2305 2213 2303 2389
8 2393 2307 2391 2470 2306 2214 2304 2390
8 2395 2308 2393 2472 2310 2216 2306 2392
8 2308 2215 2309 2396 2393 2307 2394 2473
8 2395 2308 2216 2310 2475 2396 2311 2398
8 2396 2309 2217 2311 2476 2397 2312 2399
8 2398 2311 2219 2315 2478 2399 2314 2403
8 2399 2312 2218 2314 2479 2400 2313 2402
8 2317 2221 2316 2405 2402 2313 2401 2482
8 2403 2314 2222 2318 2483 2402 2317 2406
8 2320 2224 2319 2408 2405 2316 2404 2485
8 2321 2225 2320 2409 2406 2317 2405 2486
8 2323 2227 2322 2411 2408 2319 2407 2488
8 2324 2228 2323 2412 2409 2320 2408 2489
8 2326 2230 2325 2413 2411 2322 2410 2490
8 2327 2231 2326 2414 2412 2323 2411 2491
8 2329 2234 2328 2415 2414 2326 2413 2492
8 2417 2331 2260 2352 2494 2416 2353 2438
8 2350 2259 2352 2436 2419 2332 2417 2496
8 2332 2239 2331 2417 2420 2333 2418 2497
8 2334 2240 2332 2419 2422 2335 2420 2499
8 2420 2333 2421 2500 2335 2241 2336 2423
8 2422 2335 2423 2502 2337 2243 2338 2425
8 2423 2336 2424 2503 2338 2244 2339 2426
8 2425 2338 2426 2505 2342 2246 2341 2429
8 2426 2339 2427 2506 2341 2245 2340 2428
8 2429 2341 2428 2507 2344 2249 2343 2430
8 2432 2346 2284 2374 2509 2431 2373 2455
8 2432 2346 2431 2509 2364 2270 2363 2449
8 2375 2285 2374 2456 2433 2347 2432 2510
8 2347 2433 2365 2271 2432 2510 2450 2364
8 2350 2259 2351 2435 2436 2352 2437 2514
8 2440 2356 2437 2514 2355 2264 2351 2435
8 2352 2260 2354 2437 2438 2353 2439 2516
8 2356 2265 2358 2442 2437 2354 2439 2516
8 2440 2356 2264 2355 2518 2442 2357 2441
8 2519 2443 2357 2441 2447 2361 2268 2362
8 2443 2359 2444 2520 2357 2266 2358 2442
8 2443 2359 2267 2361 2520 2444 2360 2446
8 2446 2360 2279 2370 2523 2445 2369 2452
8 2453 2370 2446 2524 2371 2280 2361 2447
8 2449 2363 2448 2525 2368 2278 2369 2452
8 2366 2277 2364 2450 2451 2368 2449 2526
8 2372 2283 2368 2451 2453 2370 2452 2527
8 2455 2373 2295 2380 2529 2454 2382 2460
8 2456 2374 2292 2378 2530 2455 2380 2458
8 2377 2293 2379 2457 2458 2380 2459 2531
8 2463 2384 2459 2531 2383 2297 2379 2457
8 2533 2461 2382 2460 2459 2381 2295 2380
8 2464 2385 2461 2533 2384 2298 2381 2459
8 2466 2387 2464 2537 2386 2300 2384 2463
8 2467 2388 2465 2538 2387 2301 2385 2464
8 2469 2390 2467 2540 2389 2303 2387 2466
8 2470 2391 2468 2541 2390 2304 2388 2467
8 2472 2393 2470 2543 2392 2306 2390 2469
8 2393 2307 2394 2473 2470 2391 2471 2544
8 2395 2308 2396 2475 2472 2393 2473 2546
8 2396 2309 2397 2476 2473 2394 2474 2547
8 2475 2396 2311 2398 2549 2476 2399 2478
8 2476 2397 2312 2399 2550 2477 2400 2479
8 2478 2399 2314 2403 2552 2479 2402 2483
8 2479 2400 2313 2402 2553 2480 2401 2482
8 2405 2316 2404 2485 2482 2401 2481 2556
8 2406 2317 2405 2486 2483 2402 2482 2557
8 2408 2319 2407 2488 2485 2404 2484 2559
8 2409 2320 2408 2489 2486 2405 2485 2560
8 2411 2322 2410 2490 2488 2407 2487 2561
8 2412 2323 2411 2491 2489 2408 2488 2562
8 2414 2326 2413 2492 2491 2411 2490 2563
8 2513 2434 2493 2565 2438 2353 2416 2494
8 2496 2417 2352 2436 2567 2494 2438 2515
8 2494 2416 2495 2568 2417 2331 2418 2497
8 2419 2332 2417 2496 2499 2420 2497 2570
8 2497 2418 2498 2571 2420 2333 2421 2500
8 2499 2420 2500 2573 2422 2335 2423 2502
8 2500 2421 2501 2574 2423 2336 2424 2503
8 2502 2423 2503 2576 2425 2338 2426 2505
8 2503 2424 2504 2577 2426 2339 2427 2506
8 2505 2426 2506 2578 2429 2341 2428 2507
8 2509 2431 2373 2455 2580 2508 2454 2529
8 2509 2431 2508 2580 2449 2363 2448 2525
8 2432 2510 2581 2509 2374 2456 2530 2455
8 2432 2510 2450 2364 2509 2581 2526 2449
8 2583 2511 2434 2513 2516 2439 2353 2438
8 2436 2352 2437 2514 2515 2438 2516 2588
8 2440 2356 2442 2518 2514 2437 2516 2588
8 2442 2358 2444 2520 2516 2439 2517 2589
8 2519 2443 2520 2591 2441 2357 2442 2518
8 2519 2443 2361 2447 2591 2520 2446 2524
8 2446 2360 2445 2523 2520 2444 2521 2592
8 2525 2448 2522 2593 2452 2369 2445 2523
8 2524 2446 2370 2453 2594 2523 2452 2527
8 2526 2449 2525 2595 2451 2368 2452 2527
8 2534 2462 2528 2597 2460 2382 2454 2529
8 2530 2455 2380 2458 2598 2529 2460 2532
8 2599 2533 2460 2532 2531 2459 2380 2458
8 2537 2464 2533 2599 2463 2384 2459 2531
8 2534 2462 2382 2460 2601 2535 2461 2533
8 2538 2465 2535 2601 2464 2385 2461 2533
8 2540 2467 2538 2604 2466 2387 2464 2537
8 2541 2468 2539 2605 2467 2388 2465 2538
8 2543 2470 2541 2607 2469 2390 2467 2540
8 2470 2391 2471 2544 2541 2468 2542 2608
8 2472 2393 2473 2546 2543 2470 2544 2610
8 2473 2394 2474 2547 2544 2471 2545 2611
8 2475 2396 2476 2549 2546 2473 2547 2613
8 2476 2397 2477 2550 2547 2474 2548 2614
8 2549 2476 2399 2478 2616 2550 2479 2552
8 2479 2400 2480 2553 2550 2477 2551 2617
8 2552 2479 2402 2483 2619 2553 2482 2557
8 2482 2401 2481 2556 2553 2480 2554 2620
8 2485 2404 2484 2559 2556 2481 2555 2623
8 2486 2405 2485 2560 2557 2482 2556 2624
8 2488 2407 2487 2561 2559 2484 2558 2625
8 2489 2408 2488 2562 2560 2485 2559 2626
8 2491 2411 2490 2563 2562 2488 2561 2627
8 2513 2434 2512 2585 2565 2493 2564 2630
8 2586 2513 2565 2632 2515 2438 2494 2567
8 2565 2493 2566 2633 2494 2416 2495 2568
8 2567 2494 2568 2635 2496 2417 2497 2570
8 2568 2495 2569 2636 2497 2418 2498 2571
8 2570 2497 2571 2638 2499 2420 2500 2573
8 2571 2498 2572 2639 2500 2421 2501 2574
8 2573 2500 2574 2641 2502 2423 2503 2576
8 2574 2501 2575 2642 2503 2424 2504 2577
8 2576 2503 2577 2643 2505 2426 2506 2578
8 2597 2528 2579 2645 2529 2454 2508 2580
8 2580 2508 2579 2645 2525 2448 2522 2593
8 2581 2509 2455 2530 2646 2580 2529 2598
8 2581 2509 2580 2646 2526 2449 2525 2595
8 2583 2511 2582 2648 2513 2434 2512 2585
8 2583 2511 2439 2516 2648 2582 2517 2589
8 2649 2583 2513 2586 2588 2516 2438 2515
8 2589 2517 2444 2520 2653 2587 2521 2592
8 2518 2442 2520 2591 2588 2516 2589 2654
8 2593 2522 2590 2655 2523 2445 2521 2592
8 2524 2446 2523 2594 2591 2520 2592 2656
8 2595 2525 2593 2657 2527 2452 2523 2594
8 2602 2536 2596 2659 2534 2462 2528 2597
8 2600 2534 2597 2660 2532 2460 2529 2598
8 2600 2534 2460 2532 2661 2601 2533 2599
8 2604 2538 2601 2661 2537 2464 2533 2599
8 2602 2536 2462 2534 2663 2603 2535 2601
8 2601 2535 2465 2538 2663 2603 2539 2605
8 2607 2541 2605 2665 2540 2467 2538 2604
8 2608 2542 2606 2666 2541 2468 2539 2605
8 2543 2470 2544 2610 2607 2541 2608 2668
8 2544 2471 2545 2611 2608 2542 2609 2669
8 2546 2473 2547 2613 2610 2544 2611 2671
8 2547 2474 2548 2614 2611 2545 2612 2672
8 2549 2476 2550 2616 2613 2547 2614 2674
8 2550 2477 2551 2617 2614 2548 2615 2675
8 2552 2479 2553 2619 2616 2550 2617 2677
8 2553 2480 2554 2620 2617 2551 2618 2678
8 2557 2482 2556 2624 2619 2553 2620 2680
8 2556 2481 2555 2623 2620 2554 2621 2681
8 2559 2484 2558 2625 2623 2555 2622 2683
8 2560 2485 2559 2626 2624 2556 2623 2684
8 2562 2488 2561 2627 2626 2559 2625 2685
8 2690 2629 2564 2630 2650 2584 2512 2585
8 2586 2513 2585 2651 2632 2565 2630 2691
8 2630 2564 2631 2692 2565 2493 2566 2633
8 2632 2565 2633 2694 2567 2494 2568 2635
8 2633 2566 2634 2695 2568 2495 2569 2636
8 2635 2568 2636 2697 2570 2497 2571 2638
8 2636 2569 2637 2698 2571 2498 2572 2639
8 2638 2571 2639 2700 2573 2500 2574 2641
8 2639 2572 2640 2701 2574 2501 2575 2642
8 2641 2574 2642 2702 2576 2503 2577 2643
8 2597 2528 2596 2659 2645 2579 2644 2704
8 2645 2579 2644 2704 2593 2522 2590 2655
8 2660 2597 2645 2705 2598 2529 2580 2646
8 2646 2580 2645 2705 2595 2525 2593 2657
8 2650 2584 2512 2585 2707 2647 2582 2648
8 2648 2582 2517 2589 2707 2647 2587 2653
8 2649 2583 2648 2708 2586 2513 2585 2651
8 2649 2583 2516 2588 2708 2648 2589 2654
8 2655 2590 2652 2710 2592 2521 2587 2653
8 2654 2589 2520 2591 2711 2653 2592 2656
8 2657 2593 2655 2712 2594 2523 2592 2656
8 2602 2536 2603 2663 2659 2596 2658 2714
8 2662 2602 2659 2715 2600 2534 2597 2660
8 2662 2602 2534 2600 2717 2663 2601 2661
8 2661 2601 2538 2604 2717 2663 2605 2665
8 2666 2606 2664 2718 2605 2539 2603 2663
8 2668 2608 2666 2720 2607 2541 2605 2665
8 2608 2542 2609 2669 2666 2606 2667 2721
8 2610 2544 2611 2671 2668 2608 2669 2723
8 2611 2545 2612 2672 2669 2609 2670 2724
8 2613 2547 2614 2674 2671 2611 2672 2726
8 2614 2548 2615 2675 2672 2612 2673 2727
8 2616 2550 2617 2677 2674 2614 2675 2729
8 2617 2551 2618 2678 2675 2615 2676 2730
8 2619 2553 2620 2680 2677 2617 2678 2732
8 2620 2554 2621 2681 2678 2618 2679 2733
8 2624 2556 2623 2684 2680 2620 2681 2735
8 2681 2621 2555 2623 2736 2682 2622 2683
8 2626 2559 2625 2685 2684 2623 2683 2737
8 2688 2628 2584 2650 2740 2686 2647 2707
8 2688 2628 2687 2742 2650 2584 2629 2690
8 2690 2629 2689 2745 2630 2564 2631 2692
8 2746 2690 2630 2691 2709 2650 2585 2651
8 2691 2630 2692 2747 2632 2565 2633 2694
8 2692 2631 2693 2748 2633 2566 2634 2695
8 2694 2633 2695 2750 2635 2568 2636 2697
8 2695 2634 2696 2751 2636 2569 2637 2698
8 2697 2636 2698 2753 2638 2571 2639 2700
8 2698 2637 2699 2754 2639 2572 2640 2701
8 2700 2639 2701 2755 2641 2574 2642 2702
8 2659 2596 2658 2714 2704 2644 2703 2757
8 2704 2644 2703 2757 2655 2590 2652 2710
8 2660 2597 2659 2715 2705 2645 2704 2758
8 2705 2645 2704 2758 2657 2593 2655 2712
8 2759 2706 2647 2707 2710 2652 2587 2653
8 2709 2650 2585 2651 2760 2707 2648 2708
8 2708 2648 2589 2654 2760 2707 2653 2711
8 2712 2655 2710 2761 2656 2592 2653 2711
8 2763 2713 2658 2714 2718 2664 2603 2663
8 2662 2602 2663 2717 2715 2659 2714 2764
8 2720 2666 2718 2767 2665 2605 2663 2717
8 2768 2719 2664 2718 2721 2667 2606 2666
8 2668 2608 2669 2723 2720 2666 2721 2770
8 2669 2609 2670 2724 2721 2667 2722 2771
8 2671 2611 2672 2726 2723 2669 2724 2773
8 2672 2612 2673 2727 2724 2670 2725 2774
8 2674 2614 2675 2729 2726 2672 2727 2776
8 2675 2615 2676 2730 2727 2673 2728 2777
8 2677 2617 2678 2732 2729 2675 2730 2779
8 2678 2618 2679 2733 2730 2676 2731 2780
8 2680 2620 2681 2735 2732 2678 2733 2782
8 2733 2679 2621 2681 2783 2734 2682 2736
8 2735 2681 2623 2684 2784 2736 2683 2737
8 2740 2686 2647 2707 2787 2738 2706 2759
8 2688 2628 2686 2740 2742 2687 2739 2789
8 2743 2688 2650 2709 2790 2740 2707 2760
8 2742 2687 2741 2792 2690 2629 2689 2745
8 2743 2688 2742 2793 2709 2650 2690 2746
8 2745 2689 2744 2795 2692 2631 2693 2748
8 2746 2690 2745 2796 2691 2630 2692 2747
8 2747 2692 2748 2797 2694 2633 2695 2750
8 2748 2693 2749 2798 2695 2634 2696 2751
8 2750 2695 2751 2800 2697 2636 2698 2753
8 2751 2696 2752 2801 2698 2637 2699 2754
8 2753 2698 2754 2802 2700 2639 2701 2755
8 2763 2713 2756 2804 2714 2658 2703 2757
8 2759 2706 2652 2710 2804 2756 2703 2757
8 2715 2659 2714 2764 2758 2704 2757 2805
8 2758 2704 2757 2805 2712 2655 2710 2761
8 2806 2759 2707 2760 2761 2710 2653 2711
8 2765 2716 2762 2808 2718 2664 2713 2763
8 2809 2763 2714 2764 2767 2718 2663 2717
8 2765 2716 2664 2718 2811 2766 2719 2768
8 2813 2768 2718 2767 2770 2721 2666 2720
8 2814 2769 2719 2768 2771 2722 2667 2721
8 2723 2669 2724 2773 2770 2721 2771 2816
8 2724 2670 2725 2774 2771 2722 2772 2817
8 2726 2672 2727 2776 2773 2724 2774 2819
8 2727 2673 2728 2777 2774 2725 2775 2820
8 2729 2675 2730 2779 2776 2727 2777 2822
8 2730 2676 2731 2780 2777 2728 2778 2823
8 2732 2678 2733 2782 2779 2730 2780 2825
8 2780 2731 2679 2733 2826 2781 2734 2783
8 2782 2733 2681 2735 2827 2783 2736 2784
8 2830 2785 2738 2787 2804 2756 2706 2759
8 2789 2739 2686 2740 2832 2786 2738 2787
8 2790 2740 2707 2760 2833 2787 2759 2806
8 2742 2687 2739 2789 2792 2741 2788 2835
8 2743 2688 2740 2790 2793 2742 2789 2836
8 2792 2741 2791 2838 2745 2689 2744 2795
8 2793 2742 2792 2839 2746 2690 2745 2796
8 2795 2744 2794 2841 2748 2693 2749 2798
8 2796 2745 2795 2842 2747 2692 2748 2797
8 2797 2748 2798 2843 2750 2695 2751 2800
8 2798 2749 2799 2844 2751 2696 2752 2801
8 2800 2751 2801 2845 2753 2698 2754 2802
8 2808 2762 2803 2847 2763 2713 2756 2804
8 2809 2763 2804 2848 2764 2714 2757 2805
8 2806 2759 2710 2761 2848 2804 2757 2805
8 2765 2716 2766 2811 2808 2762 2807 2850
8 2810 2765 2808 2851 2767 2718 2763 2809
8 2810 2765 2718 2767 2852 2811 2768 2813
8 2811 2766 2719 2768 2853 2812 2769 2814
8 2855 2814 2768 2813 2816 2771 2721 2770
8 2856 2815 2769 2814 2817 2772 2722 2771
8 2773 2724 2774 2819 2816 2771 2817 2858
8 2774 2725 2775 2820 2817 2772 2818 2859
8 2776 2727 2777 2822 2819 2774 2820 2861
8 2777 2728 2778 2823 2820 2775 2821 2862
8 2779 2730 2780 2825 2822 2777 2823 2864
8 2823 2778 2731 2780 2865 2824 2781 2826
8 2825 2780 2733 2782 2866 2826 2783 2827
8 2869 2828 2785 2830 2847 2803 2756 2804
8 2871 2829 2786 2832 2830 2785 2738 2787
8 2872 2830 2787 2833 2848 2804 2759 2806
8 2789 2739 2786 2832 2835 2788 2831 2874
8 2836 2789 2740 2790 2875 2832 2787 2833
8 2792 2741 2788 2835 2838 2791 2834 2877
8 2793 2742 2789 2836 2839 2792 2835 2878
8 2838 2791 2837 2880 2795 2744 2794 2841
8 2839 2792 2838 2881 2796 2745 2795 2842
8 2841 2794 2840 2882 2798 2749 2799 2844
8 2842 2795 2841 2883 2797 2748 2798 2843
8 2843 2798 2844 2884 2800 2751 2801 2845
8 2886 2846 2803 2847 2850 2807 2762 2808
8 2851 2808 2847 2887 2809 2763 2804 2848
8 2850 2807 2766 2811 2889 2849 2812 2853
8 2810 2765 2811 2852 2851 2808 2850 2890
8 2852 2811 2768 2813 2891 2853 2814 2855
8 2853 2812 2769 2814 2892 2854 2815 2856
8 2894 2856 2814 2855 2858 2817 2771 2816
8 2817 2772 2818 2859 2856 2815 2857 2895
8 2819 2774 2820 2861 2858 2817 2859 2897
8 2820 2775 2821 2862 2859 2818 2860 2898
8 2822 2777 2823 2864 2861 2820 2862 2900
8 2823 2778 2824 2865 2862 2821 2863 2901
8 2864 2823 2780 2825 2902 2865 2826 2866
8 2904 2867 2828 2869 2886 2846 2803 2847
8 2869 2828 2868 2906 2830 2785 2829 2871
8 2907 2869 2830 2872 2887 2847 2804 2848
8 2871 2829 2870 2909 2832 2786 2831 2874
8 2910 2871 2832 2875 2872 2830 2787 2833
8 2835 2788 2831 2874 2877 2834 2873 2912
8 2836 2789 2832 2875 2878 2835 2874 2913
8 2877 2834 2876 2915 2838 2791 2837 2880
8 2839 2792 2835 2878 2881 2838 2877 2916
8 2880 2837 2879 2917 2841 2794 2840 2882
8 2881 2838 2880 2918 2842 2795 2841 2883
8 2883 2841 2882 2919 2843 2798 2844 2884
8 2921 2885 2846 2886 2889 2849 2807 2850
8 2922 2886 2847 2887 2890 2850 2808 2851
8 2889 2849 2812 2853 2924 2888 2854 2892
8 2890 2850 2811 2852 2925 2889 2853 2891
8 2891 2853 2814 2855 2926 2892 2856 2894
8 2892 2854 2815 2856 2927 2893 2857 2895
8 2858 2817 2859 2897 2894 2856 2895 2929
8 2859 2818 2860 2898 2895 2857 2896 2930
8 2861 2820 2862 2900 2897 2859 2898 2932
8 2862 2821 2863 2901 2898 2860 2899 2933
8 2864 2823 2865 2902 2900 2862 2901 2934
8 2904 2867 2846 2886 2936 2903 2885 2921
8 2904 2867 2903 2936 2869 2828 2868 2906
8 2937 2904 2869 2907 2922 2886 2847 2887
8 2906 2868 2905 2939 2871 2829 2870 2909
8 2907 2869 2906 2940 2872 2830 2871 2910
8 2909 2870 2908 2942 2874 2831 2873 2912
8 2910 2871 2909 2943 2875 2832 2874 2913
8 2912 2873 2911 2945 2877 2834 2876 2915
8 2878 2835 2874 2913 2916 2877 2912 2946
8 2915 2876 2914 2947 2880 2837 2879 2917
8 2916 2877 2915 2948 2881 2838 2880 2918
8 2918 2880 2917 2949 2883 2841 2882 2919
8 2921 2885 2849 2889 2951 2920 2888 2924
8 2952 2921 2886 2922 2925 2889 2850 2890
8 2924 2888 2854 2892 2954 2923 2893 2927
8 2925 2889 2853 2891 2955 2924 2892 2926
8 2926 2892 2856 2894 2956 2927 2895 2929
8 2895 2857 2896 2930 2927 2893 2928 2957
8 2897 2859 2898 2932 2929 2895 2930 2959
8 2898 2860 2899 2933 2930 2896 2931 2960
8 2900 2862 2901 2934 2932 2898 2933 2961
8 2936 2903 2885 2921 2963 2935 2920 2951
8 2936 2903 2935 2963 2906 2868 2905 2939
8 2937 2904 2886 2922 2964 2936 2921 2952
8 2937 2904 2936 2964 2907 2869 2906 2940
8 2939 2905 2938 2966 2909 2870 2908 2942
8 2940 2906 2939 2967 2910 2871 2909 2943
8 2942 2908 2941 2969 2912 2873 2911 2945
8 2943 2909 2942 2970 2913 2874 2912 2946
8 2945 2911 2944 2971 2915 2876 2914 2947
8 2946 2912 2945 2972 2916 2877 2915 2948
8 2948 2915 2947 2973 2918 2880 2917 2949
8 2951 2920 2888 2924 2975 2950 2923 2954
8 2952 2921 2889 2925 2976 2951 2924 2955
8 2927 2893 2928 2957 2954 2923 2953 2978
8 2955 2924 2892 2926 2979 2954 2927 2956
8 2929 2895 2930 2959 2956 2927 2957 2980
8 2930 2896 2931 2960 2957 2928 2958 2981
8 2932 2898 2933 2961 2959 2930 2960 2982
8 2951 2920 2950 2975 2963 2935 2962 2984
8 2963 2935 2962 2984 2939 2905 2938 2966
8 2964 2936 2921 2952 2985 2963 2951 2976
8 2964 2936 2963 2985 2940 2906 2939 2967
8 2966 2938 2965 2987 2942 2908 2941 2969
8 2967 2939 2966 2988 2943 2909 2942 2970
8 2969 2941 2968 2989 2945 2911 2944 2971
8 2970 2942 2969 2990 2946 2912 2945 2972
8 2972 2945 2971 2991 2948 2915 2947 2973
8 2954 2923 2953 2978 2975 2950 2974 2993
8 2976 2951 2924 2955 2994 2975 2954 2979
8 2957 2928 2958 2981 2978 2953 2977 2995
8 2956 2927 2957 2980 2979 2954 2978 2996
8 2959 2930 2960 2982 2980 2957 2981 2997
8 2984 2962 2983 2999 2966 2938 2965 2987
8 2975 2950 2974 2993 2984 2962 2983 2999
8 2976 2951 2975 2994 2985 2963 2984 3000
8 2985 2963 2984 3000 2967 2939 2966 2988
8 2987 2965 2986 3001 2969 2941 2968 2989
8 2988 2966 2987 3002 2970 2942 2969 2990
8 2990 2969 2989 3003 2972 2945 2971 2991
8 2978 2953 2977 2995 2993 2974 2992 3004
8 2979 2954 2978 2996 2994 2975 2993 3005
8 2980 2957 2981 2997 2996 2978 2995 3006
8 2974 2993 2999 2983 2992 3004 3007 2998
8 2983 2999 2987 2965 2998 3007 3001 2986
8 3000 2984 2999 3008 2988 2966 2987 3002
8 2994 2975 2993 3005 3000 2984 2999 3008
8 3002 2987 3001 3009 2990 2969 2989 3003
8 2996 2978 2995 3006 3005 2993 3004 3010
8 3005 2993 3004 3010 3008 2999 3007 3011
8 3008 2999 3007 3011 3002 2987 3001 3009

CELL_TYPES 1910
12
12
12
12
12
12
12
12
12
12
12
12
12
12
12
12
12
12
12
12
12
12
12
12
12
12
12
12
12
12
12
12
12
12
12
12
12
12
12
12
12
12
12
12
12
12
12
12
12
12
12
12
12
12
12
12
12
12
12
12
12
12
12
12
12
12
12
12
12
12
12
12
12
12
12
12
12
12
12
12
12
12
12
12
12
12
12
12
12
12
12
12
12
12
12
12
12
12
12
12
12
12
12
12
12
12
12
12
12
12
12
12
12
12
12
12
12
12
12
12
12
12
12
12
12
12
12
12
12
12
12
12
12
12
12
12
12
12
12
12
12
12
12
12
12
12
12
12
12
12
12
12
12
12
12
12
12
12
12
12
12
12
12
12
12
12
12
12
12
12
12
12
12
12
12
12
12
12
12
12
12
12
12
12
12
12
12
12
12
12
12
12
12
12
12
12
12
12
12
12
12
12
12
12
12
12
12
12
12
12
12
12
12
12
12
12
12
12
12
12
12
12
12
12
12
12
12
12
12
12
12
12
12
12
12
12
12
12
12
12
12
12
12
12
12
12
12
12
12
12
12
12
12
12
12
12
12
12
12
12
12
12
12
12
12
12
12
12
12
12
12
12
12
12
12
12
12
12
12
12
12
12
12
12
12
12
12
12
12
12
12
12
12
12
12
12
12
12
12
12
12
12
12
12
12
12
12
12
12
12
12
12
12
12
12
12
12
12
12
12
12
12
12
12
12
12
12
12
12
12
12
12
12
12
12
12
12
12
12
12
12
12
12
12
12
12
12
12
12
12
12
12
12
12
12
12
12
12
12
12
12
12
12
12
12
12
12
12
12
12
12
12
12
12
12
12
12
12
12
12
12
12
12
12
12
12
12
12
12
12
12
12
12
12
12
12
12
12
12
12
12
12
12
12
12
12
12
12
12
12
12
12
12
12
12
12
12
12
12
12
12
12
12
12
12
12
12
12
12
12
12
12
12
12
12
12
12
12
12
12
12
12
12
12
12
12
12
12
12
12
12
12
12
12
12
12
12
12
12
12
12
12
12
12
12
12
12
12
12
12
12
12
12
12
12
12
12
12
12
12
12
12
12
12
12
12
12
12
12
12
12
12
12
12
12
12
12
12
12
12
12
12
12
12
12
12
12
12
12
12
12
12
12
12
12
12
12
12
12
12
12
12
12
12
12
12
12
12
12
12
12
12
12
12
12
12
12
12
12
12
12
12
12
12
12
12
12
12
12
12
12
12
12
12
12
12
12
12
12
12
12
12
12
12
12
12
12
12
12
12
12
12
12
12
12
12
12
12
12
12
12
12
12
12
12
12
12
12
12
12
12
12
12
12
12
12
12
12
12
12
12
12
12
12
12
12
12
12
12
12
12
12
12
12
12
12
12
12
12
12
12
12
12
12
12
12
12
12
12
12
12
12
12
12
12
12
12
12
12
12
12
12
12
12
12
12
12
12
12
12
12
12
12
12
12
12
12
12
12
12
12
12
12
12
12
12
12
12
12
12
12
12
12
12
12
12
12
12
12
12
12
12
12
12
12
12
12
12
12
12
12
12
12
12
12
12
12
12
12
12
12
12
12
12
12
12
12
12
12
12
12
12
12
12
12
12
12
12
12
12
12
12
12
12
12
12
12
12
12
12
12
12
12
12
12
12
12
12
12
12
12
12
12
12
12
12
12
12
12
12
12
12
12
12
12
12
12
12
12
12
12
12
12
12
12
12
12
12
12
12
12
12
12
12
12
12
12
12
12
12
12
12
12
12
12
12
12
12
12
12
12
12
12
12
12
12
12
12
12
12
12
12
12
12
12
12
12
12
12
12
12
12
12
12
12
12
12
12
12
12
12
12
12
12
12
12
12
12
12
12
12
12
12
12
12
12
12
12
12
12
12
12
12
12
12
12
12
12
12
12
12
12
12
12
12
12
12
12
12
12
12
12
12
12
12
12
12
12
12
12
12
12
12
12
12
12
12
12
12
12
12
12
12
12
12
12
12
12
12
12
12
12
12
12
12
12
12
12
12
12
12
12
12
12
12
12
12
12
12
12
12
12
12
12
12
12
12
12
12
12
12
12
12
12
12
12
12
12
12
12
12
12
12
12
12
12
12
12
12
12
12
12
12
12
12
12
12
12
12
12
12
12
12
12
12
12
12
12
12
12
12
12
12
12
12
12
12
12
12
12
12
12
12
12
12
12
12
12
12
12
12
12
12
12
12
12
12
12
12
12
12
12
12
12
12
12
12
12
12
12
12
12
12
12
12
12
12
12
12
12
12
12
12
12
12
12
12
12
12
12
12
12
12
12
12
12
12
12
12
12
12
12
12
12
12
12
12
12
12
12
12
12
12
12
12
12
12
12
12
12
12
12
12
12
12
12
12
12
12
12
12
12
12
12
12
12
12
12
12
12
12
12
12
12
12
12
12
12
12
12
12
12
12
12
12
12
12
12
12
12
12
12
12
12
12
12
12
12
12
12
12
12
12
12
12
12
12
12
12
12
12
12
12
12
12
12
12
12
12
12
12
12
12
12
12
12
12
12
12
12
12
12
12
12
12
12
12
12
12
12
12
12
12
12
12
12
12
12
12
12
12
12
12
12
12
12
12
12
12
12
12
12
12
12
12
12
12
12
12
12
12
12
12
12
12
12
12
12
12
12
12
12
12
12
12
12
12
12
12
12
12
12
12
12
12
12
12
12
12
12
12
12
12
12
12
12
12
12
12
12
12
12
12
12
12
12
12
12
12
12
12
12
12
12
12
12
12
12
12
12
12
12
12
12
12
12
12
12
12
12
12
12
12
12
12
12
12
12
12
12
12
12
12
12
12
12
12
12
12
12
12
12
12
12
12
12
12
12
12
12
12
12
12
12
12
12
12
12
12
12
12
12
12
12
12
12
12
12
12
12
12
12
12
12
12
12
12
12
12
12
12
12
12
12
12
12
12
12
12
12
12
12
12
12
12
12
12
12
12
12
12
12
12
12
12
12
12
12
12
12
12
12
12
12
12
12
12
12
12
12
12
12
12
12
12
12
12
12
12
12
12
12
12
12
12
12
12
12
12
12
12
12
12
12
12
12
12
12
12
12
12
12
12
12
12
12
12
12
12
12
12
12
12
12
12
12
12
12
12
12
12
12
12
12
12
12
12
12
12
12
12
12
12
12
12
12
12
12
12
12
12
12
12
12
12
12
12
12
12
12
12
12
12
12
12
12
12
12
12
12
12
12
12
12
12
12
12
12
12
12
12
12
12
12
12
12
12
12
12
12
12
12
12
12
12
12
12
12
12
12
12
12
12
12
12
12
12
12
12
12
12
12
12
12
12
12
12
12
12
12
12
12
12
12
12
12
12
12
12
12
12
12
12
12
12
12
12
12
12
12
12
12
12
12
12
12
12
12
12
12
12
12
12
12
12
12
12
12
12
12
12
12
12
12
12
12
12
12
12
12
12
12
12
12
12
12
12
12
12
12
12
12
12
12
12
12
12
12
12
12
12
12
12
12
12
12
12
12
12
12
12
12
12
12
12
12
12
12
12
12
12
12
12
12
12
12
12
12
12
12
12
12
12
12
12
12
12
12
12
12
12
12
12
12
12
12
12
12
12
12
12
12
12
12
12
12
12
12
12
12
12
12
12
12
12
12
12
12
12
12
12
12
12
12
12
12
12
12
12
12
12
12
12
12
12
12
12
12
12
12
12
12
12
12
12
12
12
12
12
12
12
12
12
12
12
12
12
12
12
12
12
12
12
12
12
12
12
12
12
12
12
12
12
12
12
12
12
12
12
12
12
12
12
12
12
12
12
12
12
12
12
12
12
12
12
12
12
12
12
12
12
12
12
12
12
12
12
12
12
12
12
12
12
12
12
12
12
12
12
12
12
12
12
12
12
12
12
12
12
12
12
12
12
12
12
12
12
12
12
12
12
12
12
12
12
12
12
12
12
12
12
12
12
12
12
12
12
12
12
12
12
12
12
12
12
12
12
12
12
12
12
12
12
12
12
12
12
12
12
12
12
12
12
12
12
12
12
12
12
12
12
12
12
12
12
12
12
12
12
12
12
12
12
12
12
12
12
12
12
12
12
12
12
12
12
12
12
12
12
12
12
12
12
12
12
12
12
12
12
12
12
12
12
12
12
12
12
12
12
12
12
12
12
12
12
12
12
12
12
12
12
12
12
12
12
12
12
12
12
12
12
12
12
12
12
12
12
12
12
12
12
12
12
12
12
12
12
12
12
12
12
12
12
12
12
12
12
12
12
12
12
12
12
12
12
12
12
12
12
12
12
12
12
12
12
12
12
12
12
12

POINT_DATA 3012
SCALARS Jp_lamdaP float 4
LOOKUP_TABLE default
0.999605 1 1 0.999605
1 1 1 1
0.999616 1 1 0.999616
0.999549 1 1 0.999549
0.999607 1 1 0.999607
0.999582 1 1 0.999582
1.00184 1.00315 1 0.998688
1 1 1 1
1 1 1 1
1 1 1 1
0.999678 1 1 0.999678
0.999274 1.0005 1 0.998773
0.99956 1 1 0.99956
0.999559 1 1 0.999559
0.99962 1 1 0.99962
0.999578 1 1 0.999578
0.99959 1 1 0.99959
0.999627 1 1 0.999627
1.00193 1.00324 1 0.998689
1 1 1 1
0.999533 1 1 0.999533
0.999582 1 1 0.999582
0.999483 1.00091 1 0.998571
1.00132 1.00265 1 0.99867
0.99958 1 1 0.99958
1.00082 1.00212 1 0.998696
1.02067 1.02343 1 0.997306
1 1 1 1
0.999796 1 1 0.999796
0.999809 1 1 0.999809
1 1 1 1
0.999221 1.00044 1 0.998782
0.999584 1 1 0.999584
0.999612 1 1 0.999612
1.00227 1.00341 1 0.998857
1 1 1 1
1.00089 1.00196 1 0.998935
0.998871 1 1 0.998871
1.01176 1.01453 1 0.997276
1 1 1 1
1 1 1 1
0.999781 1 1 0.999781
1 1 1 1
0.99957 1 1 0.99957
0.998504 1 1 0.998504
1 1 1 1
0.999143 1.00038 1 0.998762
0.999604 1 1 0.999604
0.999641 1 1 0.999641
0.999591 1 1 0.999591
1.00203 1.00334 1 0.998694
0.999765 1 1 0.999765
0.99956 1 1 0.99956
0.999594 1 1 0.999594
0.999609 1 1 0.999609
0.999288 1.00072 1 0.998566
1.00109 1.00239 1 0.998698
1.0013 1.00263 1 0.99867
1.02073 1.0235 1 0.997293
1 1 1 1
0.999539 1 1 0.999539
0.998809 1 1 0.998809
0.998649 1.0001 1 0.998547
1.00034 1.00172 1 0.998623
1.02299 1.02601 1 0.997063
1.02142 1.02433 1 0.997169
0.999645 1 1 0.999645
0.998819 1.00003 1 0.99879
1.01793 1.0206 1 0.997388
1.04093 1.04467 1 0.996416
1 1 1 1
1 1 1 1
1 1 1 1
0.999032 1.00024 1 0.998791
1 1 1 1
1 1 1 1
1.00198 1.00334 1 0.998646
0.999877 1 1 0.999877
1.00017 1.00142 1 0.998744
0.999092 1.00002 1.00006 0.999009
1.01041 1.01317 1 0.997272
1 1 1 1
1.00149 1 1.00182 0.999676
1.00149 1.00293 1 0.998564
1.00177 1.00309 1 0.998678
1.0252 1.02843 1 0.996859
0.999698 1 1.0004 0.999297
1.0164 1.01928 1 0.997175
1.00666 1.00925 1.00001 0.997432
1.02417 1.02774 1 0.996524
1 1 1 1
1 1 1 1
1 1 1 1
1 1 1 1
1 1 1 1
0.999784 1 1 0.999784
0.998648 1 1 0.998648
0.99978 1 1 0.99978
0.999536 1.00089 1 0.998651
1 1 1 1
0.998527 1 1 0.998527
0.998763 1 1 0.998763
1.01962 1.02298 1 0.996724
1.00053 1.00174 1 0.998793
1.02595 1.02931 1 0.996735
0.999582 1 1 0.999582
0.999584 1 1 0.999584
0.999605 1 1 0.999605
0.999632 1 1 0.999632
0.999126 1.00056 1 0.998563
1.00129 1.00262 1 0.998673
1.00126 1.00256 1 0.998704
1.02077 1.02356 1 0.99728
1 1 1 1
0.999564 1 1 0.999564
0.998558 1 1 0.998558
0.998617 1.00008 1 0.998539
0.999824 1 1 0.999824
0.999197 1.00033 1 0.998872
1.00023 1.00161 1 0.998621
1.02311 1.02616 1 0.997031
1.01783 1.02052 1 0.997371
1.02184 1.02472 1 0.997192
1.04086 1.04459 1 0.996424
0.99855 1 1 0.99855
0.998552 1 1 0.998552
1.01897 1.02204 1 0.996991
1.02223 1.02532 1 0.996992
1.02263 1.02563 1 0.997078
1.05199 1.05578 1 0.996409
1 1 1 1
1.0446 1.04836 1 0.996413
0.999304 1 1.00033 0.998979
1.011 1.01369 1 0.997349
1.03746 1.04119 1 0.996417
1.04606 1.04989 1 0.996352
1.00148 1 1.00213 0.999352
1.00657 1 1.00841 0.998174
1 1 1 1
1 1 1 1
1.00188 1.00323 1 0.998651
1 1 1 1
0.999191 1 1.00024 0.998948
0.999968 1.00122 1 0.998751
1.00958 1.01234 1 0.997268
1 1 1 1
1.00117 1 1.00147 0.9997
1.0018 1.0031 1 0.998695
1.00154 1.00275 1 0.998798
1.02458 1.02781 1 0.996859
0.999977 1 1.00076 0.999214
1.01607 1.01895 1 0.997177
1.00515 1.00769 1.00005 0.99743
1.02556 1.02915 1 0.996518
1.00115 1 1.0017 0.999448
1.00047 1 1.00064 0.999833
1.00402 1 1.00554 0.998491
1.02721 1.03054 1 0.996765
1.02171 1.02477 1 0.997015
1.04783 1.05173 1 0.996291
1.00247 1.00403 1.00072 0.99773
1.03395 1.03758 1 0.996507
1.01659 1.01947 1.00057 0.996605
1.03349 1.03724 1 0.996387
1 1 1 1
1 1 1 1
1 1 1 1
1.00162 1 1.00211 0.999515
1 1 1 1
1 1 1 1
1 1 1 1
0.999732 1.00119 1 0.998544
0.998539 1 1 0.998539
1 1 1 1
1 1 1 1
0.998528 1 1 0.998528
0.998723 1.00007 1 0.998654
1.0204 1.02375 1 0.996724
1.00067 1.00212 1 0.998554
1.02565 1.02901 1 0.996734
0.998527 1 1 0.998527
1.01821 1.02159 1 0.996697
1.02233 1.02567 1 0.996742
1.057 1.06081 1 0.996405
1.02754 1.03091 1 0.996731
1.05879 1.06264 1 0.996379
1 1 1 1
0.99959 1 1 0.99959
0.998281 1 1 0.998281
0.998575 1.00004 1 0.998533
1 1 1 1
0.99978 1.00082 1 0.998957
1.00013 1.00151 1 0.998622
1.02325 1.02633 1 0.997
1.02239 1.02525 1 0.997216
1.01762 1.02032 1 0.997355
1.04083 1.04456 1 0.996433
0.998548 1 1 0.998548
0.998545 1 1 0.998545
1.01891 1.02212 1 0.996857
1.02241 1.02547 1 0.997009
1 1 1 1
0.999309 1.00012 1.00015 0.999042
1.01258 1.01518 1 0.997435
1.02293 1.02593 1 0.997072
1.05198 1.05578 1 0.996406
1.03722 1.04096 1 0.996413
1.04483 1.04855 1 0.996447
1.04564 1.04945 1 0.996362
1.0013 1 1.00196 0.999339
1.00533 1 1.00717 0.998176
1.01817 1.02152 1 0.996718
1.01998 1.02305 1 0.997
1.05394 1.05769 1 0.99645
1.05276 1.05692 0.999649 0.996407
1.04882 1.05253 1 0.996474
1.05627 1.06051 0.999439 0.996567
1.00043 1 1.00126 0.999166
1.049 1.05272 1 0.996468
1.00519 1.00756 1.00011 0.997543
1.03144 1.03509 1 0.99647
1.04332 1.04725 1 0.996253
1.04551 1.04907 1 0.996599
1.00327 1.00065 1.00471 0.997919
1.00622 1 1.00775 0.998485
1.00389 1.00097 1.00546 0.997474
1.00185 1.00326 1 0.998595
1 1 1 1
1.00052 1 1.0008 0.999723
1.00105 1.00234 1 0.998713
1.02404 1.02727 1 0.996859
1.00017 1 1.00096 0.999215
1.00354 1.00608 1.00004 0.997428
1.01508 1.01795 1 0.997179
1.02692 1.03052 1 0.996511
1.00118 1 1.00171 0.99947
1.00007 1 1.00021 0.999852
1.00503 1 1.00655 0.998491
1.02652 1.02985 1 0.996763
1.02107 1.02412 1 0.997017
1.04795 1.05186 1 0.996285
1.00113 1.00287 1.00053 0.997734
1.03487 1.03849 1 0.996508
1.01769 1.02068 1.00047 0.996598
1.03449 1.03824 1 0.996387
0.999916 1 1 0.999916
1.00233 1.00094 1.00331 0.99808
1.00374 1 1.00483 0.998916
1.00533 1.0009 1.00664 0.997801
1.05233 1.05626 1 0.99628
1.04204 1.04581 1 0.99639
1.05042 1.05434 1 0.996285
1.00939 1.01199 1.00049 0.996951
1.03809 1.04179 1 0.996457
1.03003 1.03223 1.00158 0.996301
1.04249 1.04632 1 0.996334
0.999596 1 1 0.999596
0.999976 1 1 0.999976
1 1 1 1
1 1 1 1
1 1 1 1
1.00091 1 1.00124 0.999673
1 1 1 1
1.00184 1 1.00234 0.999499
1 1 1 1
1.00104 1.00249 1 0.998555
0.998842 1.0003 1 0.998545
1.02569 1.02905 1 0.996733
1.02116 1.02452 1 0.996724
0.99853 1 1 0.99853
1 1 1 1
0.998527 1 1 0.998527
1.01854 1.02191 1 0.996698
1.02323 1.02657 1 0.996741
1.05605 1.05987 1 0.996403
1.02697 1.03034 1 0.996728
1.05847 1.06232 1 0.996376
1.01786 1.02124 1 0.996696
1.05467 1.0585 1 0.996383
1.05897 1.06279 1 0.996406
1.05907 1.06651 0.996281 0.996732
1.05672 1.06061 1 0.996327
1.06063 1.06561 0.998696 0.996625
0.998546 1 1 0.998546
0.998537 1 1 0.998537
1.01886 1.02221 1 0.996723
1.02252 1.02557 1 0.997026
1 1 1 1
0.999182 1.00008 1 0.999107
1.01398 1.01651 1 0.997519
1.02321 1.02622 1 0.997066
1.05193 1.05573 1 0.996403
1.04491 1.0486 1 0.996481
1.03718 1.04092 1 0.996408
1.04531 1.04912 1 0.996371
1.00129 1 1.00197 0.999327
1.00479 1.00011 1.00651 0.998177
1.01805 1.02142 1 0.996705
1.02009 1.02316 1 0.996994
1.0536 1.05756 0.999784 0.996476
1.05324 1.05724 0.999808 0.996406
1.00008 1 1.00093 0.999155
1.00686 1.00924 1.0001 0.997542
1.03072 1.03434 1 0.996499
1.04881 1.05255 1 0.996453
1.05573 1.06021 0.999157 0.996614
1.04312 1.04706 1 0.99624
1.04887 1.05258 1 0.996472
1.04558 1.04916 1 0.996594
1.0034 1.00105 1.00443 0.99792
1.00461 1.00121 1.00594 0.997472
1.00644 1 1.00797 0.998485
1.05323 1.057 1 0.996426
1.05406 1.05814 0.999653 0.996482
1.0587 1.06483 0.997568 0.996664
1.05689 1.06239 0.998187 0.996624
1.05161 1.05573 0.99952 0.996577
1.04912 1.0579 0.994774 0.996916
1.00099 1.00266 1.0006 0.997742
1.04732 1.05144 0.999327 0.996752
1.01829 1.0216 1 0.996757
1.03529 1.03935 1 0.996095
1.04159 1.04551 1 0.996256
1.03928 1.0427 0.99986 0.996864
1.00459 1 1.00582 0.998778
1.0012 1.0032 1.00067 0.99733
1.00859 1 1.01098 0.997637
1.00391 1.00408 1.00266 0.997182
1.02588 1.02922 1 0.99676
0.99987 1 1 0.99987
1.00137 1 1.00187 0.999493
1.00676 1 1.00828 0.998491
1.02046 1.02351 1 0.99702
1.04801 1.05192 1 0.99628
0.999552 1.00141 1.00041 0.997739
1.01815 1.0213 1.00033 0.996591
1.03608 1.03971 1 0.99651
1.03437 1.03812 1 0.996387
0.999928 1 1 0.999928
1.00277 1.0005 1.00419 0.998082
1.00356 1 1.00464 0.998925
1.00527 1.00051 1.00697 0.997795
1.05236 1.05629 1 0.996273
1.0422 1.04598 1 0.996387
1.04995 1.05387 1 0.996282
1.00747 1.01009 1.00045 0.996957
1.03772 1.04141 1 0.996451
1.02844 1.03049 1.00173 0.996289
1.04212 1.04587 1 0.996419
0.999957 1 1 0.999957
1.00136 1 1.00212 0.999236
1.00449 1.00516 1.00191 0.997417
1.00704 1 1.00888 0.998176
1.00294 1.0022 1.00322 0.997527
1.05543 1.05928 1 0.996364
1.04396 1.0478 1 0.996336
1.04515 1.04889 1 0.996437
1.01212 1.01359 1.00199 0.996562
1.03698 1.04065 1 0.996476
1.02466 1.02779 1.00086 0.996098
0.999538 1 1 0.999538
0.999036 1 1.00005 0.998984
0.999643 1 1 0.999643
0.999598 1 1 0.999598
0.999986 1 1 0.999986
0.999979 1 1 0.999979
1 1 1 1
1 1 1 1
1 1 1 1
1.00009 1 1.00027 0.999827
1 1 1 1
1.00135 1 1.0017 0.999656
1 1 1 1
1.00167 1 1.00219 0.999484
1 1 1 1
1.02641 1.02978 1 0.996725
1.02384 1.02719 1 0.996741
1.05785 1.0617 1 0.996373
1.05506 1.05887 1 0.996402
1.01891 1.02228 1 0.996698
0.998526 1 1 0.998526
1.01792 1.0213 1 0.996696
1.05444 1.05826 1 0.996383
1.05774 1.06155 1 0.996404
1.0591 1.06694 0.995888 0.99675
1.05628 1.06017 1 0.996322
1.06085 1.06568 0.998834 0.996623
1.05334 1.05717 1 0.996375
1.05891 1.06657 0.996053 0.996755
1.05962 1.06637 0.996959 0.9967
1.05404 1.06389 0.993752 0.996967
1.05823 1.06222 0.999744 0.996503
1.05404 1.06556 0.992199 0.996971
1.01797 1.02134 1 0.996693
1.02021 1.02329 1 0.996989
1.05327 1.05744 0.999551 0.996502
1.05381 1.05761 1 0.996405
0.999741 1 1.0006 0.999145
1.00889 1.01129 1.00008 0.997541
1.03075 1.03434 1 0.996528
1.04883 1.05258 1 0.996432
1.05519 1.05994 0.998857 0.996662
1.04876 1.05247 1 0.996477
1.04284 1.04679 1 0.996227
1.04573 1.04931 1 0.996588
1.00323 1.00142 1.0039 0.99792
1.00526 1.00152 1.00629 0.997469
1.00648 1 1.00801 0.998484
1.05327 1.05706 1 0.996408
1.05404 1.05819 0.999596 0.99648
1.05819 1.06473 0.997134 0.996709
1.05657 1.06196 0.998312 0.996602
1.00259 1.00407 1.00079 0.99774
1.01881 1.02213 1 0.996754
1.03403 1.03801 1.00003 0.996132
1.05194 1.05587 0.999743 0.996538
1.04885 1.05822 0.994161 0.996965
1.0425 1.04645 1 0.996218
1.04757 1.05167 0.999343 0.996754
1.0403 1.04366 0.999884 0.996901
1.00273 1.00424 1.00117 0.99733
1.00405 1.00415 1.00277 0.997144
1.00469 1 1.00592 0.998775
1.00824 1.00001 1.01057 0.997677
1.05823 1.06486 0.997053 0.996706
1.05918 1.06541 0.997496 0.996651
1.04892 1.05916 0.993425 0.996883
1.04738 1.05983 0.991232 0.996992
1.04841 1.05451 0.997312 0.996895
1.04654 1.0581 0.991901 0.997144
1.00681 1.00976 1 0.997075
1.04013 1.04693 0.996377 0.997121
1.0217 1.02547 1 0.996324
1.03224 1.03628 1.00018 0.995918
1.04285 1.04678 1 0.996253
1.04171 1.04492 1 0.99693
1.00068 1 1.00165 0.999033
1.01043 1 1.01252 0.997938
1.00416 1.00718 1 0.997006
1.00519 1.00141 1.00645 0.997337
1.00542 1.00565 1.00277 0.997012
0.99994 1 1 0.99994
1.05232 1.05626 1 0.996267
1.0029 1 1.00397 0.998933
1.00324 1.00029 1.00488 0.998084
1.00496 1.00016 1.00703 0.997789
1.04238 1.04616 1 0.996385
1.04955 1.05347 1 0.996279
1.00673 1.00928 1.00051 0.996964
1.02873 1.03058 1.00193 0.996276
1.03747 1.04117 1 0.996445
1.04251 1.04616 1 0.996504
0.999963 1 1 0.999963
1.00086 1 1.00162 0.999246
1.00262 1.00386 1.00134 0.997421
1.00828 1 1.01012 0.998173
1.00291 1.00178 1.00363 0.997499
1.05525 1.05911 1 0.996358
1.04374 1.04758 1 0.996334
1.04517 1.04892 1 0.996426
1.01314 1.01448 1.00213 0.996564
1.03978 1.04347 1 0.996465
1.02501 1.02801 1.00096 0.996125
0.999804 1 1.00037 0.999434
1.00378 1 1.00523 0.998555
1.00155 1.00403 1.00048 0.99706
1.00899 1.00166 1.00953 0.997809
1.00386 1.00439 1.00203 0.997444
1.05244 1.05648 0.999595 0.996583
1.03936 1.04309 1 0.996424
1.04469 1.04827 0.999936 0.996652
1.00463 1.00445 1.00379 0.996397
1.02259 1.02661 1 0.996084
0.999541 1 1 0.999541
0.998899 1 1 0.998899
0.99916 1 1.0002 0.998958
0.998957 1 1.00026 0.9987
0.999165 1 1.00015 0.999018
0.999672 1 1 0.999672
0.999645 1 1 0.999645
0.999993 1 1 0.999993
0.999599 1 1 0.999599
0.999988 1 1 0.999988
1 1 1 1
0.999982 1 1 0.999982
1 1 1 1
1 1 1 1
0.999938 1 1 0.999938
1.0005 1 1.00069 0.999806
1 1 1 1
1 1 1 1
1.0019 1 1.00226 0.99964
1 1 1 1
1.05588 1.05978 1 0.996318
1.05681 1.06063 1 0.996402
1.06124 1.06595 0.998956 0.996621
1.05919 1.06744 0.995495 0.996767
1.05414 1.05796 1 0.996384
1.01794 1.02131 1 0.996696
1.05342 1.05725 1 0.996375
1.05869 1.06627 0.99613 0.99675
1.06025 1.06696 0.997002 0.9967
1.05347 1.06385 0.993227 0.996997
1.05901 1.06296 0.999784 0.996497
1.05435 1.06554 0.992481 0.996993
1.05863 1.0658 0.996536 0.996725
1.05179 1.06271 0.992757 0.996944
1.05412 1.06526 0.992488 0.997036
1.05382 1.06749 0.990049 0.997118
1.05563 1.06249 0.996728 0.996807
1.05329 1.06843 0.988595 0.997197
1.05323 1.05705 1 0.996389
1.05399 1.05821 0.999534 0.996478
1.05766 1.0646 0.996715 0.996755
1.05613 1.06145 0.998403 0.99658
1.00396 1.00525 1.00098 0.997737
1.01789 1.02121 1 0.99675
1.0321 1.03588 1.00018 0.996169
1.05225 1.05597 0.999986 0.996499
1.04858 1.0585 0.993593 0.997014
1.04772 1.05181 0.999355 0.996756
1.04319 1.0472 1 0.996179
1.04061 1.0439 0.999915 0.996937
1.00446 1.00536 1.00179 0.99733
1.00406 1.00406 1.0029 0.997105
1.00481 1 1.00604 0.998772
1.0076 1.00011 1.0098 0.997718
1.05822 1.06486 0.997043 0.996705
1.05876 1.06486 0.997634 0.996632
1.04904 1.05938 0.993305 0.996915
1.04837 1.0601 0.991938 0.996975
1.00743 1.0104 1 0.997068
1.02018 1.02387 1.00003 0.996363
1.03204 1.03588 1.00039 0.995907
1.04889 1.0545 0.997835 0.996844
1.04529 1.05724 0.99147 0.997201
1.03901 1.04293 1 0.996239
1.04109 1.04786 0.996414 0.997121
1.04254 1.04569 0.999994 0.996993
1.00373 1.00674 1 0.997007
1.00471 1.00576 1.00196 0.997004
1.00632 1.00164 1.00737 0.997332
1.0014 1 1.0024 0.998999
1.01004 1 1.01209 0.997981
1.05029 1.06142 0.992565 0.996929
1.05027 1.06208 0.991902 0.996954
1.04607 1.06234 0.987465 0.997185
1.04135 1.0539 0.990861 0.997207
1.01013 1.01345 1 0.996725
1.04538 1.05242 0.996001 0.997295
1.01213 1.01582 1.00029 0.996083
1.0271 1.03098 1.00051 0.995731
1.03521 1.03911 1 0.996244
0.999595 1 1.00034 0.999252
1.00705 1 1.00873 0.998337
1.00736 1 1.0097 0.997677
1.00412 1.00711 1.00016 0.996869
1.00532 1.00192 1.0064 0.99702
1.0064 1.0068 1.00276 0.996847
0.99997 1 1 0.99997
1.00014 1 1.00088 0.999256
1.05507 1.05893 1 0.996352
1.0096 1 1.01145 0.998169
1.00008 1.00192 1.00074 0.997426
1.00275 1.00138 1.0039 0.997472
1.04336 1.0472 1 0.996332
1.0452 1.04896 1 0.996414
1.01312 1.01429 1.00229 0.996565
1.02413 1.0273 1.00077 0.996152
1.04263 1.04634 1 0.996455
0.999543 1 1.0001 0.99944
1.00422 1 1.00567 0.998559
1.00308 1.00563 1.00041 0.99705
1.00969 1.00131 1.01059 0.997802
1.00406 1.00489 1.00174 0.99744
1.05194 1.05587 0.999698 0.996577
1.04034 1.04409 1 0.996411
1.04494 1.04852 0.999909 0.996677
1.00588 1.00628 1.00324 0.996362
1.02113 1.02512 1.00006 0.996055
1.0001 1 1.00128 0.998821
1.00959 1 1.0115 0.998119
1.004 1.00511 1.002 0.996906
1.00959 1.00475 1.00726 0.997567
1.01313 1.01487 1.001 0.997288
1.04725 1.05553 0.995061 0.997075
1.04087 1.04473 1 0.99631
1.04387 1.04744 0.999932 0.996654
1.00762 1.00703 1.00433 0.996269
1.01041 1.0146 1 0.995862
0.999544 1 1 0.999544
0.998917 1 1 0.998917
0.998638 1 1 0.998638
0.999053 1 1.00012 0.998932
0.999111 1 1.00009 0.999017
0.999194 1 1.00052 0.998674
0.999111 1 1.0005 0.998616
0.999718 1 1.00111 0.998613
0.999077 1 1.00003 0.99905
0.999666 1 1 0.999666
0.999672 1 1 0.999672
0.999998 1 1 0.999998
0.999647 1 1 0.999647
0.999995 1 1 0.999995
1 1 1 1
0.99999 1 1 0.99999
1 1 1 1
1 1 1 1
0.999987 1 1 0.999987
0.999918 1 1 0.999918
1 1 1 1
1.00098 1 1.00119 0.999786
1 1 1 1
1 1 1 1
1.05976 1.06367 0.99983 0.996491
1.06066 1.06732 0.997053 0.996701
1.05459 1.06543 0.992782 0.997015
1.05286 1.06376 0.99271 0.997026
1.0585 1.06599 0.996216 0.996744
1.05357 1.0574 1 0.996376
1.05857 1.06556 0.996724 0.996706
1.05238 1.0629 0.993142 0.996937
1.05335 1.06463 0.992367 0.997021
1.05253 1.06694 0.989331 0.997129
1.0553 1.06185 0.997013 0.996809
1.05104 1.06695 0.987818 0.997236
1.05248 1.06258 0.993557 0.996918
1.05366 1.06859 0.988883 0.997116
1.05418 1.06971 0.988238 0.997213
1.0474 1.06417 0.986953 0.997257
1.05826 1.06492 0.997033 0.996705
1.05842 1.06439 0.997775 0.996613
1.0492 1.05963 0.993187 0.996946
1.04945 1.06048 0.992617 0.996958
1.00874 1.01171 1 0.99706
1.01947 1.02315 1 0.996403
1.03189 1.03554 1.00058 0.995896
1.04935 1.05449 0.998322 0.996793
1.044 1.05638 0.990995 0.997257
1.04228 1.04902 0.99644 0.997122
1.03607 1.04 1 0.996224
1.04458 1.0477 0.99997 0.997055
1.00245 1.00546 1 0.997007
1.00437 1.0064 1.00099 0.996995
1.0076 1.00158 1.0087 0.997326
1.00189 1 1.00293 0.998965
1.00995 1 1.01195 0.998025
1.05052 1.06159 0.992618 0.996931
1.05081 1.0627 0.991844 0.996949
1.04613 1.06158 0.988236 0.997177
1.00979 1.01311 1 0.996721
1.01262 1.0163 1.00026 0.996122
1.02535 1.02897 1.00076 0.995719
1.04173 1.05386 0.991268 0.997193
1.03871 1.0425 1 0.996358
1.04174 1.04904 0.995774 0.997262
0.999604 1 1.00031 0.999293
1.00407 1.00678 1.00045 0.996863
1.00459 1.00536 1.00227 0.996964
1.00786 1.0032 1.00765 0.997014
1.00785 1.00004 1.01013 0.997701
1.00709 1 1.0088 0.998302
1.05213 1.06654 0.989452 0.997005
1.05013 1.06953 0.984701 0.997116
1.03979 1.06017 0.983471 0.997265
1.03829 1.0563 0.985506 0.997406
1.0079 1.01141 1 0.996533
1.03697 1.04189 0.998411 0.996859
1.00544 1.00814 1.00165 0.995692
1.01497 1.01842 1.00104 0.995572
0.999576 1 1 0.999576
1.00165 1 1.00298 0.99868
1.00713 1 1.00916 0.997989
1.00713 1.00009 1.00985 0.997215
1.0039 1.00491 1.00229 0.996708
1.00929 1.0034 1.00922 0.996679
0.999446 1 1 0.999446
1.00496 1 1.0064 0.998564
1.0516 1.05542 0.999809 0.996571
1.01025 1.00084 1.01163 0.997796
1.00473 1.00744 1.00027 0.997041
1.00359 1.00464 1.00152 0.997436
1.0415 1.04526 1 0.996399
1.04524 1.04881 0.99989 0.996702
1.00745 1.00841 1.00273 0.996326
1.01962 1.02341 1.00027 0.996025
1.00003 1 1.00121 0.998824
1.01002 1 1.01194 0.998102
1.00441 1.00552 1.00198 0.996914
1.00917 1.00496 1.00664 0.997572
1.01419 1.0164 1.00048 0.997355
1.049 1.05725 0.995052 0.997122
1.04032 1.04414 1 0.996337
1.04492 1.04846 0.999891 0.996731
1.00783 1.00702 1.00458 0.996237
1.0103 1.01454 1.00003 0.995785
1.00115 1 1.00265 0.998502
1.01033 1.00122 1.01139 0.997738
1.01021 1.00961 1.00378 0.996828
1.01174 1.01298 1.00161 0.997171
1.04581 1.07351 0.976766 0.997374
1.04392 1.04965 0.997386 0.997142
1.0276 1.03174 1 0.995981
1.0132 1.0131 1.00426 0.995859
0.998935 1 1 0.998935
0.998711 1 1.00006 0.998649
0.998637 1 1 0.998637
0.999314 1 1.0003 0.999015
0.99956 1 1.00091 0.998648
0.999121 1 1.00007 0.999048
0.998922 1 1.00029 0.998629
0.999997 1 1.00138 0.998623
0.998708 1 1 0.998708
1.00034 1 1.00187 0.998475
0.99992 1 1.00134 0.998578
0.99903 1 1 0.99903
0.999632 1 1 0.999632
0.999665 1 1 0.999665
1 1 1 1
0.999672 1 1 0.999672
0.999999 1 1 0.999999
1 1 1 1
0.999996 1 1 0.999996
1 1 1 1
1 1 1 1
0.999999 1 1 0.999999
0.999976 1 1 0.999976
1 1 1 1
0.999898 1 1 0.999898
1 1 1 1
1 1 1 1
1.0549 1.06115 0.997285 0.996811
1.0527 1.06413 0.992235 0.997006
1.04887 1.06554 0.987053 0.997274
1.05125 1.06644 0.988586 0.99714
1.05298 1.06312 0.993511 0.99693
1.05848 1.0653 0.996906 0.996687
1.05225 1.06246 0.993457 0.996918
1.05349 1.06825 0.989046 0.997107
1.05267 1.06885 0.987618 0.997211
1.04849 1.065 0.987199 0.997268
1.0547 1.06852 0.989976 0.997062
1.05511 1.07516 0.984037 0.997267
1.05385 1.0759 0.982138 0.997326
1.05074 1.06176 0.992666 0.996932
1.0513 1.06324 0.991804 0.996945
1.04629 1.06081 0.98911 0.997169
1.01009 1.01341 1 0.996718
1.01246 1.01618 1.00018 0.996161
1.02326 1.0268 1.00085 0.995707
1.04215 1.05388 0.991673 0.997179
1.03757 1.0454 0.995271 0.997228
1.04127 1.04495 1 0.996473
1.00338 1.0057 1.00084 0.996855
1.00026 1.00202 1.00117 0.997081
1.00976 1.00422 1.00854 0.997007
0.999632 1 1.0003 0.999335
1.0074 1.00023 1.00947 0.997726
1.00733 1 1.00908 0.998267
1.05292 1.06703 0.989736 0.997013
1.04939 1.06924 0.98427 0.997121
1.04005 1.05993 0.983941 0.997257
1.00533 1.00883 1 0.996526
1.00531 1.00817 1.0014 0.995767
1.01514 1.01865 1.0009 0.995659
1.03855 1.05596 0.986069 0.997409
1.03349 1.03913 0.997736 0.996838
0.999643 1 1 0.999643
1.00167 1 1.003 0.998678
1.0012 1.00337 1.00109 0.996753
1.01151 1.00269 1.01201 0.996834
1.00692 1.00067 1.00901 0.997264
1.00696 1 1.00903 0.997949
1.05254 1.07303 0.983674 0.997187
1.04097 1.07092 0.974751 0.99722
1.03675 1.06004 0.980531 0.997452
1.02844 1.04338 0.988242 0.99741
1.00238 1.00482 1.00133 0.996245
1.01652 1.01928 1.00134 0.995964
1.00625 1.00815 1.00264 0.995485
0.999817 1 1 0.999817
0.999292 1 1 0.999292
0.999287 1 1.00029 0.998995
1.00232 1 1.00414 0.998191
1.00788 1 1.01031 0.997593
1.01005 1.00076 1.01232 0.997002
1.00088 1.00192 1.0021 0.996871
1.03581 1.00135 1.03741 0.997112
0.999841 1 1.00101 0.998827
1.01052 1 1.01246 0.998085
1.0508 1.059 0.995066 0.997169
1.01034 1.00645 1.0063 0.997577
1.00506 1.00599 1.00215 0.996923
1.01499 1.01758 1.00004 0.997422
1.0396 1.04339 1 0.996365
1.04589 1.04941 0.999839 0.996807
1.00802 1.00701 1.00482 0.996204
1.00993 1.01428 1 0.995709
1.00159 1 1.00313 0.998464
1.00908 1.00055 1.01081 0.997741
1.01303 1.01203 1.00415 0.996852
1.01154 1.01293 1.00142 0.997209
1.04758 1.07586 0.976251 0.997394
1.04561 1.05075 0.998023 0.997089
1.02695 1.03104 1 0.996033
1.01498 1.01542 1.00377 0.995806
1.00277 1 1.00452 0.998267
1.05091 1.08075 0.974921 0.9974
1.00383 1.0011 1.00537 0.997377
1.01284 1.01357 1.00268 0.996609
1.03743 1.06114 0.980096 0.997503
1.02365 1.02779 0.999855 0.996122
1.01108 1.01228 1.00323 0.995592
0.99866 1 1 0.99866
0.998553 0.999892 1.00003 0.998627
0.999218 0.999976 1.0005 0.998739
0.999046 1 1 0.999046
1.00013 1 1.0015 0.998632
0.999021 1 1.00038 0.998641
0.999027 1 1 0.999027
1 1 1.00142 0.998584
0.998727 1 1 0.998727
0.999897 1 1.00141 0.99849
0.998815 1 1 0.998815
0.998779 1 1.00019 0.998591
1.00032 1 1.00197 0.998347
0.998688 1 1.00018 0.99851
0.998954 1 1 0.998954
0.999589 1 1 0.999589
0.999628 1 1 0.999628
1 1 1 1
0.999663 1 1 0.999663
1 1 1 1
1 1 1 1
0.999999 1 1 0.999999
1 1 1 1
1 1 1 1
0.999845 1 1 0.999845
1 1 1 1
0.999997 1 1 0.999997
1 1 1 1
0.999966 1 1 0.999966
1 1 1 1
1 1 1 1
1.04957 1.06583 0.987429 0.997278
1.05116 1.06793 0.987045 0.99721
1.05331 1.06787 0.989228 0.997098
1.05201 1.06231 0.993365 0.996918
1.05432 1.06843 0.989678 0.997081
1.05492 1.07462 0.984363 0.997258
1.05148 1.07341 0.982183 0.997334
1.05466 1.07514 0.983656 0.997249
1.06535 1.08768 0.982072 0.997355
1.06079 1.08661 0.978561 0.997622
1.05368 1.06748 0.990022 0.997021
1.04855 1.06898 0.983721 0.997127
1.04028 1.05973 0.984354 0.997249
1.00447 1.00792 1.00006 0.996519
1.00598 1.0089 1.00126 0.995845
1.0177 1.02126 1.00078 0.995747
1.03893 1.0554 0.986948 0.997413
1.02992 1.03597 0.997335 0.996816
1.00192 1.00369 1.00145 0.996798
1.01486 1.00318 1.01469 0.996986
1.0078 1.00094 1.00957 0.997313
0.999711 1 1 0.999711
1.00155 1 1.00288 0.998675
1.00693 1 1.00904 0.997909
1.05241 1.07336 0.983241 0.997198
0.999812 1 1 0.999812
0.999255 1 1 0.999255
1.04184 1.07006 0.976346 0.997221
1.03495 1.05872 0.980074 0.997421
1.0032 1.00497 1.00191 0.996329
1.00628 1.0075 1.00332 0.995483
1.01658 1.02036 1.00034 0.995953
1.02737 1.04307 0.987533 0.997383
0.999379 1 1.0003 0.99908
1.00235 1 1.00418 0.998183
1.00205 1.00183 1.00347 0.996764
1.03095 1.00136 1.03238 0.997261
1.00785 1.0005 1.01035 0.997018
1.00738 1 1.00979 0.997608
1.06253 1.08765 0.979539 0.997308
1.02217 1.06847 0.959204 0.997355
1.02325 1.05051 0.976395 0.997601
1.00921 1.02392 0.988499 0.997102
1.00545 1.00279 1.00623 0.996442
1.00602 1.00504 1.0055 0.995498
0.999212 1 1 0.999212
0.999258 1 1 0.999258
0.998951 1 1 0.998951
0.998709 1 1.00031 0.9984
1.00612 1 1.00822 0.997922
1.00588 1.00027 1.00838 0.997249
1.0517 1.00012 1.05469 0.997046
1.00036 1.00049 1.00238 0.997496
1.00227 1 1.00385 0.998426
1.00743 1 1.00971 0.997744
1.04862 1.0772 0.975993 0.997413
1.04688 1.05144 0.998624 0.997036
1.01139 1.01301 1.00115 0.997247
1.01615 1.01486 1.00441 0.996875
1.02667 1.03067 1.00004 0.996084
1.0172 1.01813 1.00335 0.995754
1.00288 1 1.00464 0.998247
1.05383 1.08433 0.97435 0.99746
1.00423 1.00061 1.00622 0.997408
1.01103 1.01182 1.00269 0.996546
1.03653 1.06031 0.980044 0.997478
1.02265 1.02668 0.99987 0.996207
1.01227 1.0132 1.00348 0.995607
1.00613 0.999946 1.00825 0.997956
1.01272 1.04979 0.966732 0.997885
1.00445 1.00319 1.00417 0.997108
1.00496 1.0051 1.00379 0.996087
1.01781 1.03079 0.99035 0.997037
1.00279 1.00478 1.00221 0.995821
0.973203 1.00329 0.972765 0.997169
0.998285 0.999561 1.00011 0.998617
0.999125 0.99921 1.00118 0.99874
0.999729 1 1.00106 0.998668
0.999024 1 1 0.999024
1.00045 1 1.00187 0.998589
0.999157 1 1.00065 0.998504
0.998748 1 1 0.998747
0.998954 1 1 0.998954
0.998817 1 1.00031 0.998504
0.998781 1 1 0.998781
1.00024 1 1.00189 0.998348
0.998737 1 1.00017 0.998569
0.99906 1 1.00029 0.99877
0.998786 1 1.00062 0.998168
1.00124 1 1.00293 0.998319
0.99851 1 1.00013 0.998385
0.998805 1 1 0.998805
0.999366 1 1.0008 0.99857
0.998898 1 1.00013 0.998772
0.999568 1 1 0.999568
0.999586 1 1 0.999586
1 1 1 1
0.999625 1 1 0.999625
1 1 1 1
1 1 1 1
1 1 1 1
1 1 1 1
1 1 1 1
0.999875 1 1 0.999875
0.999846 1 1 0.999846
1 1 1 1
1 1 1 1
1 1 1 1
0.999994 1 1 0.999994
1 1 1 1
1 1 1 1
1.04931 1.07126 0.982116 0.997342
1.05457 1.07405 0.98457 0.997249
1.05399 1.0684 0.989379 0.997099
1.05459 1.07499 0.983725 0.997247
1.06275 1.08526 0.981858 0.997352
1.05975 1.08465 0.979447 0.997544
1.06797 1.09495 0.977881 0.997421
0.96985 1.01605 0.958979 0.995356
1.01587 1.04982 0.969281 0.998331
0.999363 1 1 0.999363
1.05229 1.07365 0.982849 0.997208
1.04283 1.06928 0.977976 0.997223
1.03298 1.05753 0.979347 0.997391
1.00003 1.00281 1.00082 0.99641
1.00475 1.00527 1.00402 0.995479
1.01556 1.01991 0.999795 0.995943
1.02608 1.04273 0.986641 0.997356
0.998844 1.00199 1.0002 0.99666
1.02446 1.00046 1.02664 0.997414
1.00538 1.00009 1.00828 0.997036
0.999807 1 1 0.999807
1.00813 1 1.01053 0.997624
0.999463 1 1.0003 0.999164
1.00246 1 1.00429 0.998173
0.999218 1 1 0.999218
1.05896 1.08782 0.976085 0.997316
0.999259 1 1 0.999259
0.999258 1 1 0.999258
0.998689 1.0001 0.999671 0.998915
1.02674 1.06898 0.963037 0.997353
1.02344 1.05054 0.976592 0.997553
1.00188 1.00216 1.00325 0.996473
1.01011 1.009 1.00549 0.995627
1.00818 1.02165 0.989701 0.997085
0.998825 1 1.00037 0.998458
1.00603 1 1.00818 0.997871
1.0082 1.00031 1.01054 0.997374
1.04135 1.00019 1.04421 0.997069
1.00543 1.00047 1.00768 0.997299
1.0386 1.07614 0.967608 0.997424
1.00323 1.05728 0.95125 0.99751
1.01565 1.03295 0.985964 0.99725
0.991363 1.00925 0.985392 0.996843
1.00373 1 1.00663 0.997124
0.998783 1 1 0.998783
0.998716 1 1 0.998716
0.9997 1 1.00104 0.998665
1.00622 1 1.00804 0.998189
1.00888 1 1.01114 0.997769
1.03833 0.999972 1.04111 0.997356
1.03179 1.00168 1.0327 0.997452
1.00284 1 1.00463 0.998226
1.00431 1 1.00689 0.997439
1.0558 1.08872 0.972178 0.997518
1.03616 1.06031 0.979719 0.997452
1.02199 1.02594 0.999859 0.996292
1.00849 1.00935 1.00268 0.996483
1.01298 1.01378 1.0036 0.995624
1.00587 0.999998 1.00789 0.998
1.01257 1.05035 0.96603 0.997926
1.00159 1.00202 1.00246 0.997117
1.00401 1.00385 1.00408 0.996089
1.01666 1.0307 0.989191 0.997157
1.00332 1.0048 1.00273 0.995815
0.973046 1.00328 0.97362 0.996147
1.00644 1.00055 1.00804 0.997862
1.0012 1.02443 0.979401 0.997871
1.00053 1.00137 1.00221 0.996958
1.0043 1.00152 1.00644 0.99636
0.992057 1.00608 0.989113 0.996912
0.91206 0.976536 0.958642 0.974269
0.907452 0.967607 0.950472 0.9867
0.967793 0.984097 0.986061 0.997334
0.723882 0.835148 0.91357 0.948774
0.641625 0.794069 0.866033 0.933015
0.9991 0.998566 1.0018 0.998741
1.00078 0.999082 1.00298 0.998721
1.00053 1 1.00183 0.998704
0.998953 1 1 0.998953
0.998704 1 1.00021 0.998498
0.999758 1 1.00141 0.99835
0.998721 1 1.00017 0.998547
0.998747 1 1 0.998747
1.00188 1 1.00359 0.998295
0.998841 1 1 0.998841
0.998499 1 1.00009 0.998406
0.99904 1 1.00032 0.998723
0.999078 1 1.00086 0.998215
1.00313 1 1.00491 0.998228
1.00363 1 1.00528 0.998365
1.00258 1 1.00436 0.998234
0.99896 1 1.00066 0.998305
0.99877 1 1 0.99877
0.998974 1 1.00058 0.998399
0.999241 1 1.00082 0.99842
0.9991 1 1.0005 0.998603
0.999399 1 1.00087 0.99853
0.998893 1 1 0.998893
0.998988 1 1.00022 0.998769
0.999562 1 1 0.999562
0.999568 1 1 0.999568
1 1 1 1
0.999583 1 1 0.999583
1 1 1 1
1 1 1 1
1 1 1 1
1 1 1 1
1 1 1 1
0.999909 1 1 0.999909
0.999871 1 1 0.999871
1 1 1 1
0.999846 1 1 0.999846
1 1 1 1
1 1 1 1
1 1 1 1
1 1 1 1
1 1 1 1
1.05979 1.08254 0.981589 0.997348
1.05462 1.0749 0.983838 0.997245
1.05905 1.08279 0.980566 0.997467
0.970984 1.01586 0.960208 0.995436
1.06496 1.0923 0.977488 0.99742
1.02816 1.05331 0.977882 0.998201
1.0469 1.06601 0.984481 0.997551
0.92558 0.979517 0.958533 0.985814
0.990443 1.01935 0.975273 0.996275
0.999388 1 1 0.999388
0.999358 1 1 0.999358
0.998894 1 1 0.998894
0.998995 1 1 0.998995
1.0564 1.08796 0.9736 0.997323
1.03092 1.06885 0.967077 0.997351
1.02387 1.05044 0.977142 0.997506
1.00051 1.00097 1.00305 0.996503
1.01505 1.01433 1.00498 0.995755
1.00734 1.01978 0.990705 0.997067
1.01889 1 1.0217 0.99725
1.03329 1.0003 1.036 0.99709
1.00376 1.00033 1.0061 0.997349
0.999258 1 1 0.999258
1.00433 1 1.00652 0.997821
0.998888 1 1.00037 0.998516
0.999306 1 1 0.999306
0.998841 1.00025 0.999715 0.998878
1.03655 1.07612 0.965701 0.997439
0.998818 1 1 0.998818
0.998763 1.00012 0.999857 0.998781
0.999488 0.999864 1.00079 0.998833
1.00905 1.06019 0.954148 0.997501
1.01561 1.03296 0.985909 0.997249
1.00334 1.00068 1.00557 0.997106
0.99484 1.00919 0.988829 0.996919
1.00457 1 1.00646 0.998121
1.00814 1 1.01052 0.997648
1.03818 1.00172 1.03906 0.997431
1.03836 1.00022 1.04096 0.997271
0.995626 1.04727 0.952947 0.997628
0.995407 1.03668 0.962592 0.997502
1.00595 1.01299 0.996129 0.996913
0.981618 1.00095 0.982798 0.997851
1.00077 1 1.00225 0.998527
1.00191 1 1.00354 0.998381
1.01492 0.999603 1.01714 0.998216
1.05947 1.0001 1.06206 0.997465
0.890208 0.968002 0.947186 0.970912
1.00623 1 1.0082 0.998042
0.999268 1.00091 1.00124 0.997125
1.0138 1.05064 0.966895 0.99797
1.01558 1.0301 0.988601 0.997277
1.0038 1.00472 1.0033 0.995806
1.00358 1.00304 1.00447 0.996088
0.973409 1.00454 0.973782 0.995096
1.00479 1.00002 1.00686 0.997918
1.00043 1.02547 0.977688 0.997854
1.00033 1.00147 1.00189 0.996973
1.00461 1.00215 1.00611 0.996366
0.995634 1.00723 0.991557 0.996905
0.909157 0.982585 0.952941 0.970964
0.900785 0.963812 0.949961 0.983838
0.971821 0.984766 0.989462 0.997366
0.719997 0.830223 0.912936 0.949939
0.627851 0.784218 0.862507 0.928233
1.00185 0.999577 1.0042 0.99808
0.751186 0.850183 0.927571 0.95255
0.678201 0.801354 0.906127 0.933996
0.987588 1.00607 0.983723 0.997876
1.00787 1.0016 1.00879 0.997499
1.01365 1.00513 1.01122 0.997294
0.961381 0.97576 0.987564 0.997671
0.89048 0.955808 0.958093 0.972401
0.872249 0.936554 0.948323 0.982091
0.711379 0.828364 0.900915 0.953226
0.698047 0.848512 0.88343 0.931225
1.00215 0.998385 1.00501 0.998773
1.00114 0.999381 1.00309 0.998677
1.00598 1 1.00715 0.998838
0.998876 1 1 0.998876
0.998426 1 1 0.998426
1.0025 1 1.00423 0.998273
0.999756 1 1.0015 0.998262
0.998676 1 1 0.998676
0.998771 1 1 0.998771
1.00348 1 1.00527 0.998213
1.00291 1 1.00468 0.99824
0.998571 1 1.00022 0.998346
1.00402 1 1.00563 0.998396
1.00557 1 1.00727 0.998314
1.01457 1 1.01608 0.998515
1.00133 1 1.00318 0.998157
0.998995 1 1.00063 0.998365
0.998638 1 1.00024 0.998394
0.999629 1 1.0012 0.998433
0.999952 1 1.00172 0.998231
0.999319 1 1.00084 0.998476
1.00192 1 1.00344 0.998478
1.00618 1 1.00794 0.998256
0.999931 1 1.00137 0.998567
0.998957 1 1.00035 0.998605
0.998931 1 1 0.998931
0.999173 1 1.00068 0.998491
0.998863 1 1 0.998863
0.999549 1 1 0.999549
0.999065 1 1.0003 0.998766
0.999564 1 1 0.999564
0.999999 1 1 0.999999
0.999568 1 1 0.999568
1 1 1 1
1 1 1 1
1 1 1 1
1 1 1 1
1 1 1 1
0.999339 1 1 0.999339
0.999917 1 1 0.999917
0.999906 1 1 0.999906
1 1 1 1
0.999868 1 1 0.999868
1 1 1 1
1 1 1 1
1 1 1 1
1 1 1 1
1 1 1 1
0.972797 1.01557 0.962194 0.995519
1.06283 1.08957 0.977987 0.99742
1.03624 1.05662 0.982604 0.998068
0.91792 0.973899 0.954967 0.986967
0.989755 1.01919 0.974571 0.99646
1.04564 1.06998 0.979701 0.997505
1.00024 1.02841 0.975897 0.996626
0.932822 0.975191 0.967775 0.988405
0.91061 0.976916 0.958936 0.972043
0.722752 0.833188 0.910061 0.953181
0.605306 0.750991 0.864702 0.932124
0.998941 1 1 0.998941
0.999386 1 1 0.999386
0.999353 1 1 0.999353
0.998891 1 1 0.998891
0.998671 1 1 0.998671
0.998675 1 1 0.998675
0.998857 1 1 0.998857
0.998953 1 1 0.998953
1.03348 1.07672 0.962294 0.997453
1.01534 1.06429 0.956408 0.997491
1.01505 1.03293 0.985405 0.997248
1.00327 1.00188 1.00431 0.99709
0.997679 1.00865 0.992099 0.996995
1.04349 1.00138 1.04476 0.997409
1.03886 1.00088 1.04087 0.997187
1.00855 1 1.01105 0.997528
0.998396 1.00021 0.999341 0.998846
1.00468 1 1.00664 0.998051
0.998854 1 1 0.998854
0.998991 0.999989 1 0.999002
0.994512 1.04805 0.951157 0.997649
1.00057 0.999997 1.00204 0.998535
1.00245 1 1.00402 0.998438
0.993166 1.03494 0.962065 0.997476
1.00303 1.01356 0.992536 0.997059
0.984279 1.00123 0.985312 0.997723
1.02427 0.999963 1.02638 0.997983
1.05541 1.00153 1.05643 0.997501
0.976669 1.02796 0.952417 0.997573
0.987915 1.01143 0.979205 0.997491
0.975367 1.00166 0.97615 0.997542
0.985508 1.00117 0.986305 0.998019
1.00517 1 1.00709 0.998087
1.01246 1 1.0143 0.998185
1.0519 1 1.0542 0.997817
0.756572 0.85972 0.921872 0.954602
0.907841 0.975891 0.953849 0.975279
1.00228 0.999407 1.00491 0.997975
1 1.00132 1.0017 0.99699
0.999983 1.02681 0.975981 0.997838
0.998717 1.00876 0.993128 0.996898
1.00505 1.00298 1.00571 0.996374
0.907274 0.974449 0.957445 0.972446
0.905383 0.971489 0.946674 0.98445
0.973758 0.983669 0.992513 0.997393
0.726836 0.832142 0.915498 0.954073
0.615273 0.774877 0.859991 0.923296
1.00127 0.999648 1.00355 0.998081
0.753228 0.857939 0.92087 0.953392
0.662292 0.786681 0.904041 0.931243
0.987592 1.00714 0.982687 0.997871
1.00789 1.00208 1.00831 0.997516
1.01189 1.00342 1.01102 0.997445
0.954623 0.969724 0.986538 0.997861
0.901963 0.968141 0.960832 0.969623
0.867822 0.932604 0.945072 0.984619
0.718159 0.826976 0.91292 0.951252
0.69776 0.855269 0.877052 0.930203
1.00341 1 1.00481 0.998605
0.708279 0.813711 0.931208 0.934733
0.779414 0.888101 0.931176 0.942484
0.986595 0.99419 0.993693 0.998659
1.01524 1.00263 1.01402 0.998582
0.963461 0.961329 1.0048 0.997428
0.880883 0.923125 0.967877 0.985911
0.852985 0.920342 0.957425 0.968027
0.722818 0.82077 0.924833 0.952234
0.750235 0.901054 0.890833 0.934653
1.00199 0.999144 1.0042 0.998651
1.00478 1 1.00599 0.998796
1.00716 0.999241 1.00886 0.999074
0.998772 1 1 0.998772
0.998387 1 1 0.998387
1.00365 1 1.00541 0.998246
1.00412 1 1.00593 0.998197
1.00412 1 1.00571 0.998427
0.998877 1 1.00051 0.998363
1.00423 1 1.00595 0.998286
1.00135 1 1.0032 0.998159
1.01382 0.999783 1.01548 0.998576
1.03347 0.998642 1.03581 0.999094
1.00827 1 1.00996 0.998326
1.00065 1 1.00254 0.998114
0.99848 1 1.00009 0.998389
1.00008 1 1.00164 0.998445
1.00047 1 1.00225 0.998223
0.999714 1 1.00125 0.998463
1.00032 1 1.00175 0.998575
1.00343 1 1.00503 0.998403
1.00328 1 1.00492 0.998361
1.00266 0.999477 1.0046 0.998596
0.999486 1 1.00115 0.998333
0.999062 1.00044 1.00093 0.997695
1.00511 1 1.00697 0.998151
1.00522 1 1.00698 0.998257
1.00484 1 1.00641 0.998441
1.00077 1 1.00221 0.998564
0.998959 1 1.00005 0.998909
0.999092 1 1.00049 0.998606
0.998958 1 1.00003 0.998933
0.999535 1 1 0.999535
0.998834 1 1 0.998834
0.999551 1 1 0.999551
0.999993 1 1 0.999993
0.999565 1 1 0.999565
0.999998 1 1 0.999998
1 1 1 1
1 1 1 1
1 1 1 1
1 1 1 1
0.999343 1 1 0.999343
0.999892 1 1 0.999892
0.999341 1 1 0.999341
1 1 1 1
0.999917 1 1 0.999917
0.999902 1 1 0.999902
1 1 1 1
1 1 1 1
1 1 1 1
1 1 1 1
1 1 1 1
0.745723 0.848823 0.924998 0.949772
0.667728 0.795585 0.899686 0.932873
0.917835 0.975903 0.952388 0.987515
0.991366 1.0192 0.975954 0.996653
1.04712 1.0737 0.977731 0.997461
0.915686 0.958162 0.965524 0.989793
1.00084 1.0276 0.977094 0.996792
0.923125 0.989222 0.959068 0.973011
0.719198 0.834344 0.907529 0.949824
0.608908 0.762926 0.860685 0.927311
0.946317 0.995931 0.957481 0.992379
0.907269 0.967809 0.963562 0.972897
0.7117 0.829367 0.900887 0.952534
0.685459 0.840863 0.876049 0.930525
1.00016 1 1.00166 0.998502
0.998979 1 1 0.998979
0.999384 1 1 0.999384
0.998888 1 1 0.998888
0.998786 1 1.00005 0.998735
0.999527 1 1.00109 0.998442
0.99865 1 1 0.99865
0.998516 1 1 0.998516
0.998814 1 1 0.998814
0.99891 1 1 0.99891
0.993494 1.04802 0.950184 0.99767
0.989813 1.03217 0.961415 0.997453
1.00139 1.01455 0.989794 0.997205
0.986271 1.00151 0.987161 0.997594
1.04869 1.00318 1.04795 0.997537
1.03404 1.00027 1.03608 0.997752
1.00167 1 1.00318 0.998497
1.00027 0.999837 1.0019 0.998542
0.977033 1.02832 0.952363 0.997653
1.00624 1 1.00821 0.998046
1.0122 1 1.01409 0.998136
0.984135 1.00955 0.977336 0.997432
0.973257 1.00143 0.974168 0.997643
0.98513 1.00192 0.985253 0.997956
1.04508 0.999918 1.04751 0.997764
0.974762 1.00356 0.973376 0.997867
0.966883 0.998903 0.969551 0.998344
1.01328 1.00072 1.0144 0.998178
1.0088 1 1.01084 0.997988
1.01066 1 1.01278 0.997903
1.02815 1 1.03029 0.997925
0.735583 0.829663 0.939421 0.943778
0.762519 0.858456 0.930231 0.954865
0.896395 0.972421 0.949305 0.971044
1.00064 0.999317 1.00325 0.99808
1.00755 1.00211 1.00791 0.99753
0.990063 1.0082 0.984106 0.997867
1.0105 1.0021 1.01082 0.997591
0.750689 0.853114 0.921137 0.955275
0.896006 0.964559 0.956684 0.970987
0.865929 0.92968 0.948307 0.982199
0.95188 0.965731 0.987592 0.998041
0.71309 0.828966 0.907428 0.947972
0.660862 0.786153 0.901649 0.932324
0.692695 0.84882 0.874283 0.933414
1.00352 0.999751 1.00519 0.998589
0.710265 0.815538 0.928574 0.937908
0.791936 0.899923 0.933987 0.942201
0.986205 0.992169 0.99523 0.998753
1.01557 1.00182 1.01521 0.998535
0.960661 0.959547 1.00323 0.997943
0.872597 0.927317 0.956772 0.983506
0.877466 0.932319 0.968845 0.971429
0.738652 0.83999 0.926587 0.94903
0.739946 0.891037 0.886021 0.93726
1.0075 0.998703 1.00938 0.999431
0.811137 0.906464 0.942805 0.949122
0.781997 0.89889 0.919172 0.946459
0.983959 0.969075 1.01565 0.999715
0.906701 0.924676 0.990143 0.990323
0.880661 0.917645 0.989383 0.969995
0.794319 0.883921 0.949223 0.946703
0.781219 0.93196 0.894504 0.937116
1.00452 1 1.00578 0.998753
1.00779 0.998796 1.00995 0.999065
1.02377 0.994885 1.0297 0.999354
0.999045 1 1.00069 0.998361
1.00132 1 1.00316 0.998162
1.00242 1 1.00416 0.998258
1.01335 0.999567 1.01517 0.998637
1.00117 1 1.00306 0.998114
1.00776 1 1.00946 0.998316
1.03851 0.999536 1.03986 0.999173
1.04501 0.995783 1.05002 0.999446
1.03768 0.999084 1.0396 0.999068
1.00211 1 1.00387 0.998251
1.00068 1 1.00247 0.998213
0.999808 1 1.00136 0.998449
0.998922 1 1.00025 0.998669
1.00292 1 1.00455 0.998381
1.00245 1 1.00406 0.998404
1.00393 0.999838 1.00549 0.998617
1.0023 1 1.00388 0.998428
1.00868 0.99869 1.01105 0.998962
0.996597 1.00058 0.997561 0.998456
1.00006 1.0007 1.00102 0.998346
0.99862 1 1.00069 0.997927
1.00247 1.00415 1.00153 0.996804
1.00304 1.00031 1.00469 0.99804
0.998921 1.00017 1.00079 0.997962
1.00487 1 1.00672 0.998161
1.00872 1 1.01047 0.998268
1.00379 1 1.00554 0.998259
1.00447 1 1.00604 0.99844
0.999577 1 1.00078 0.998797
1.00125 1 1.00269 0.998562
0.998906 1 1 0.998906
0.999513 1 1 0.999513
0.998936 1 1 0.998936
0.999536 1 1 0.999536
0.999983 1 1 0.999983
0.999554 1 1 0.999554
0.99999 1 1 0.99999
1 1 1 1
0.999997 1 1 0.999997
1 1 1 1
1 1 1 1
0.99909 1 1 0.99909
0.999846 1 1 0.999846
0.999267 1 1 0.999267
1 1 1 1
0.999897 1 1 0.999897
0.999342 1 1 0.999342
1 1 1 1
1 1 1 1
0.999918 1 1 0.999918
1 1 1 1
1 1 1 1
1 1 1 1
0.700865 0.811015 0.921516 0.937783
0.752859 0.855888 0.923875 0.952103
0.785099 0.898048 0.928388 0.941663
0.664174 0.793338 0.898806 0.931445
0.91619 0.967612 0.959085 0.98725
0.998977 1.02714 0.975535 0.996968
0.926685 0.986497 0.964715 0.973728
0.730534 0.8373 0.915218 0.953312
0.615778 0.778096 0.857961 0.922409
0.946064 0.990353 0.963499 0.991469
0.899548 0.96684 0.961139 0.968018
0.725811 0.837612 0.911518 0.950638
0.683612 0.842286 0.874646 0.927935
0.918391 0.974289 0.953366 0.988735
0.867968 0.922783 0.972362 0.967333
0.750293 0.859856 0.921681 0.946726
0.745295 0.898316 0.890382 0.931799
1.00184 1 1.00365 0.998195
0.999401 1 1.00085 0.99855
0.999016 1 1 0.999016
0.998799 1 1 0.998799
0.998474 1 1.0004 0.998073
0.998841 1 1.00035 0.998491
0.998626 1 1 0.998626
0.998485 1 1 0.998485
0.998564 1 1.00001 0.998556
0.998771 1 1 0.998771
0.97812 1.02945 0.952302 0.997733
0.982277 1.0083 0.976754 0.997375
0.969766 1.00129 0.97071 0.997742
0.987618 1.00314 0.986604 0.997896
1.03733 1 1.03971 0.997711
1.01194 1 1.01388 0.998088
1.00668 1 1.00869 0.998005
1.00803 1 1.01011 0.997943
0.972899 1.00381 0.971258 0.997893
1.0093 1 1.01144 0.997886
1.02809 1 1.03025 0.997906
0.965787 0.999412 0.967963 0.998338
1.00894 1.00191 1.00889 0.998135
0.951265 0.980641 0.971742 0.998252
0.978706 0.984619 0.994758 0.999232
1.03981 0.999578 1.04193 0.998388
1.00476 1 1.00685 0.997919
1.02014 1 1.02216 0.998029
0.822293 0.914205 0.943879 0.952941
0.735295 0.828601 0.941074 0.942959
0.751914 0.853342 0.925836 0.951724
1.00339 0.99971 1.00512 0.998574
1.01614 1.0008 1.01687 0.998488
0.982626 0.990131 0.993564 0.998849
0.711248 0.816221 0.928359 0.938637
0.868163 0.924372 0.970563 0.967678
0.877506 0.925129 0.962949 0.985018
0.951681 0.954722 0.998353 0.998459
0.742664 0.846574 0.920868 0.952643
0.799295 0.905777 0.93674 0.942035
0.743937 0.893251 0.888373 0.937491
1.00582 0.99866 1.00779 0.999379
0.808815 0.905856 0.939125 0.950751
0.781643 0.898263 0.919297 0.946562
0.985957 0.972675 1.01412 0.99954
0.919514 0.935353 0.992867 0.990128
0.851359 0.910123 0.968113 0.966242
0.780344 0.930915 0.894066 0.937576
0.809229 0.890595 0.958152 0.948324
1.00028 0.976715 1.02442 0.999711
0.793611 0.893033 0.928761 0.956833
0.810487 0.924884 0.923803 0.948591
0.743826 0.896683 0.890016 0.93204
0.95678 0.946078 1.01389 0.997459
0.911346 0.934051 1.00449 0.971326
0.85766 0.931821 0.968385 0.950462
1.00881 0.998327 1.01145 0.999055
1.02354 0.995316 1.02911 0.99927
1.02393 0.983807 1.04124 0.999566
1.00125 1 1.00314 0.998114
1.00647 1 1.00817 0.998306
1.04293 0.999567 1.04416 0.999251
1.00265 1 1.0044 0.998257
1.03714 0.999168 1.03896 0.999079
1.04667 0.995612 1.0519 0.999421
1.03623 0.990745 1.04644 0.999489
1.02308 0.998221 1.02587 0.999058
1.00234 1 1.00395 0.998402
1.00191 1 1.00351 0.998405
1.00502 1 1.00639 0.99864
1.00808 0.999117 1.01005 0.998933
1.00195 1 1.00353 0.998427
1.0025 1 1.00367 0.998837
0.997696 1.00023 0.998725 0.998743
1.0027 1.00045 1.00481 0.997458
1.00061 1.00134 1.00091 0.998364
0.999462 1.00104 1.00059 0.99783
0.99908 1.00155 1.00101 0.996524
1.0144 1.01671 1.00129 0.996439
1.00308 1.00265 1.00276 0.997671
1.001 1.00276 1.00138 0.996864
1.00979 1 1.01176 0.998049
1.00424 1.00083 1.00538 0.998041
0.998871 1 1.00065 0.998226
1.00494 1 1.00678 0.99817
1.00793 1 1.00964 0.998304
1.00158 1 1.00293 0.998649
1.00427 1 1.00584 0.99844
0.999567 1 1.00077 0.998798
0.999442 1 1 0.999442
0.998903 1 1 0.998903
0.99951 1 1 0.99951
0.999975 1 1 0.999975
0.999536 1 1 0.999536
0.999981 1 1 0.999981
1 1 1 1
0.999987 1 1 0.999987
1 1 1 1
1 1 1 1
0.998828 1 1 0.998828
0.999642 1 1 0.999642
0.999088 1 1 0.999088
1 1 1 1
0.999793 1 1 0.999793
0.999191 1 1 0.999191
1 1 1 1
1 1 1 1
0.999901 1 1 0.999901
1 1 1 1
1 1 1 1
1 1 1 1
0.809639 0.912113 0.934789 0.949574
0.701319 0.81117 0.919299 0.940475
0.747459 0.85128 0.922747 0.951551
0.998365 1 1 0.998365
0.788616 0.897065 0.926183 0.949171
0.783994 0.897713 0.927579 0.941509
0.670431 0.802372 0.894487 0.934125
0.954746 0.993612 0.970267 0.990329
0.89334 0.956318 0.96085 0.972207
0.728561 0.850586 0.904281 0.947205
0.677477 0.828667 0.879346 0.929725
0.914955 0.969315 0.957621 0.985692
0.874586 0.928139 0.970378 0.971064
0.753813 0.854415 0.931376 0.947262
0.741755 0.893497 0.890119 0.932651
0.869115 0.925366 0.956025 0.982414
0.863739 0.908718 0.981667 0.968255
0.822439 0.901441 0.961531 0.948862
0.782668 0.931154 0.896988 0.937063
1.00111 1 1.00314 0.997978
1.0031 1 1.00496 0.99815
0.998913 1 1.00032 0.998598
0.998196 1 1.00003 0.998171
0.998714 1 1.00057 0.998146
0.998539 1 1 0.998539
0.99849 1 1 0.99849
0.998621 1 1.00003 0.998596
0.97036 1.00449 0.968047 0.99791
0.964927 1.00076 0.965798 0.99834
1.00773 1 1.00986 0.997897
1.00453 1.00297 1.00348 0.998091
1.02968 1 1.03186 0.997886
1.00904 1 1.01119 0.997869
1.00542 1 1.00751 0.99793
0.954033 0.980231 0.974862 0.998371
1.01847 1 1.02046 0.99805
1.02956 1.00026 1.03092 0.998428
0.976136 0.986562 0.990141 0.999284
1.00731 1 1.00923 0.998092
0.943191 0.96181 0.982617 0.997989
1.00184 0.982867 1.01984 0.999475
1.05344 0.997157 1.05799 0.998536
1.01959 0.999797 1.02161 0.998226
0.802664 0.895271 0.93402 0.959893
0.821978 0.914431 0.943481 0.952743
0.736662 0.827254 0.945196 0.942123
1.00374 0.998648 1.00578 0.999329
0.988743 0.975662 1.01405 0.99937
0.809184 0.907737 0.936046 0.952336
0.877052 0.910095 0.992653 0.970826
0.908317 0.93346 0.986163 0.986718
0.806779 0.888292 0.959233 0.946836
0.78266 0.89952 0.919135 0.946636
0.781091 0.931315 0.894096 0.938039
1.00511 0.984182 1.0216 0.999669
0.795269 0.894592 0.92911 0.956802
0.810433 0.922768 0.923744 0.950763
0.966489 0.952097 1.0158 0.999327
0.739806 0.891648 0.88949 0.932789
0.886869 0.916871 0.998421 0.968808
0.862106 0.936452 0.969047 0.950015
0.997346 0.970632 1.02779 0.999737
0.82113 0.917205 0.933103 0.959435
0.78583 0.893286 0.926525 0.949469
0.682695 0.838849 0.874419 0.93073
0.820712 0.900452 0.961131 0.948303
0.946308 0.945975 1.00611 0.994277
0.920031 0.932791 1.02223 0.964874
1.02142 0.996426 1.02592 0.999188
1.02581 0.983792 1.04319 0.999534
1.01393 0.97192 1.04366 0.999582
1.0037 1 1.00544 0.998263
1.03999 0.999226 1.04174 0.999091
1.05082 0.996487 1.05516 0.999396
1.01834 0.998509 1.02084 0.999045
1.03568 0.992557 1.04398 0.999488
1.01004 0.987586 1.02352 0.999235
1.00779 0.999695 1.00921 0.998903
1.00172 1 1.0033 0.998428
1.00542 1 1.00662 0.998815
1.01144 0.9996 1.01376 0.998114
0.999022 0.999994 1 0.999028
0.999979 1.00031 1.00201 0.997662
1.00274 1.00123 1.00539 0.996141
1.00514 1.00746 1.00192 0.995777
1.00031 1.00218 1.0004 0.997729
0.999782 1.00222 1.00124 0.996327
1.01565 1.01866 1.00053 0.996525
1.00932 1.00962 1.00261 0.997097
1.01337 1.01562 1.00125 0.996537
1.00762 1.00017 1.00962 0.997854
1.00568 1.00469 1.00335 0.997641
0.999215 1.00102 1.00128 0.996926
1.00673 1 1.0083 0.998445
1.00907 1 1.01102 0.998071
1.00552 1.00136 1.00613 0.998043
1.00724 1 1.00891 0.998339
1.00198 1 1.00334 0.998649
0.999652 1 1.00034 0.999309
0.999692 1 1.00089 0.998798
0.999463 1 1.00003 0.999438
0.999968 1 1 0.999968
0.999507 1 1 0.999507
0.999974 1 1 0.999974
1 1 1 1
0.999978 1 1 0.999978
1 1 1 1
1 1 1 1
0.998739 1 1 0.998739
0.999482 1 1 0.999482
0.998876 1 1 0.998876
1 1 1 1
0.999625 1 1 0.999625
0.999085 1 1 0.999085
1 1 1 1
1 1 1 1
0.999741 1 1 0.999741
1 1 1 1
1 1 1 1
1 1 1 1
0.800351 0.896237 0.932019 0.958149
0.812013 0.911477 0.93819 0.949569
0.702213 0.810854 0.920667 0.940641
0.998403 1 1 0.998403
0.998327 1 1 0.998327
0.998292 1 1 0.998292
0.810362 0.926739 0.922085 0.948311
0.785125 0.896475 0.922595 0.949269
0.782701 0.897126 0.926793 0.94137
0.921293 0.975537 0.956125 0.987733
0.852342 0.91913 0.958768 0.967216
0.749131 0.84045 0.936021 0.952271
0.751629 0.902044 0.894982 0.931025
0.87233 0.930547 0.951474 0.985247
0.874246 0.915338 0.98618 0.968492
0.803659 0.881089 0.96046 0.949669
0.780815 0.931425 0.894241 0.937445
0.875686 0.922038 0.966261 0.982891
0.8909 0.920699 0.99787 0.9697
0.857746 0.929658 0.970405 0.950785
0.754377 0.904382 0.892438 0.934671
0.998728 1 1.00064 0.998086
1.0017 1 1.00376 0.997944
1.00294 1 1.00484 0.998105
0.99817 1 1.00001 0.998159
0.998558 1 1.00034 0.99822
0.998495 1 1 0.998495
0.95503 0.976408 0.979597 0.998477
0.972392 0.985811 0.987063 0.999316
1.0058 1 1.00788 0.997941
1.02114 1.00045 1.02225 0.998466
1.01883 1 1.0208 0.998071
1.00942 1 1.01135 0.998096
1.01672 0.99828 1.02025 0.998258
0.951175 0.961855 0.990795 0.998083
1.05042 0.996129 1.0559 0.998678
1.00569 0.978473 1.02848 0.999351
1.01124 0.997315 1.01557 0.998418
0.973876 0.957478 1.0194 0.997771
1.00932 0.975542 1.03532 0.999336
1.03621 0.984586 1.0537 0.998792
0.834358 0.923113 0.939657 0.961896
0.804989 0.896181 0.935298 0.960383
0.821358 0.914547 0.942846 0.952546
1.01071 0.991308 1.01995 0.999627
0.955482 0.94931 1.00853 0.997985
0.796556 0.895465 0.929735 0.956773
0.882884 0.904983 1.00274 0.972918
0.857122 0.934608 0.96783 0.947576
0.810892 0.921292 0.923642 0.952932
0.75196 0.90106 0.896099 0.931291
0.992987 0.967556 1.02652 0.999775
0.821782 0.916323 0.933942 0.960259
0.787365 0.896795 0.924601 0.949573
0.941811 0.941556 1.01001 0.990359
0.681497 0.840063 0.873926 0.928276
0.798936 0.878929 0.958045 0.948795
0.928766 0.939374 1.01919 0.970089
1.00247 0.956703 1.04918 0.998719
0.801174 0.895013 0.934085 0.958321
0.794178 0.904464 0.932028 0.942102
0.605214 0.749186 0.866057 0.932766
0.740862 0.850865 0.919822 0.946614
0.893065 0.918063 1.00397 0.968926
0.919981 0.936576 0.994783 0.987433
1.02582 0.983841 1.04319 0.999501
1.0188 0.979157 1.04092 0.999586
1.00971 0.981944 1.02878 0.999505
1.01252 0.998872 1.01465 0.999032
1.03214 0.993792 1.03913 0.999487
1.01367 0.984923 1.02989 0.999319
1.00756 0.998827 1.00997 0.998792
1.00831 1 1.00953 0.998792
1.00907 0.999831 1.01135 0.997909
1.0214 1.00088 1.02419 0.996403
0.997127 1.00005 0.999204 0.997869
1.00407 1.00142 1.00651 0.996157
1.00464 1.00252 1.00688 0.995266
1.00705 1.00981 1.00191 0.99537
1.00862 1.01144 1.00108 0.996143
1.00509 1.00733 1.00205 0.995723
1.00008 1.00272 1.00124 0.996131
1.00852 1.0106 1.0011 0.996843
1.01617 1.01914 1.00048 0.996612
1.00304 1.001 1.00464 0.997422
1.0112 1.0113 1.00274 0.997172
1.01294 1.01518 1.00117 0.996635
1.01014 1 1.01203 0.998131
1.00741 1.00075 1.00883 0.99785
1.0083 1.00685 1.00383 0.997611
1.00054 1 1.0014 0.999141
1.00589 1 1.00745 0.998443
1.00808 1 1.01001 0.998092
1.00188 1 1.00324 0.998648
0.999815 1 1.00051 0.999304
0.999945 1 1 0.999945
0.999475 1 1.00004 0.999433
0.999963 1 1 0.999963
1 1 1 1
0.999973 1 1 0.999973
1 1 1 1
1 1 1 1
0.998696 1 1 0.998696
0.999456 1 1 0.999456
0.998767 1 1 0.998767
0.999996 1 1 0.999996
0.999526 1 1 0.999526
0.998924 1 1 0.998924
1 1 1 1
1 1 1 1
0.999608 1 1 0.999608
1 1 1 1
1 1 1 1
1 1 1 1
0.820095 0.916928 0.932435 0.959202
0.803412 0.897168 0.934634 0.958127
0.813847 0.910349 0.941445 0.949599
1.00175 1 1.00355 0.998204
1.00136 1 1.00329 0.99808
0.998442 1 1 0.998442
0.998333 1 1.00002 0.998312
0.998289 1 1 0.998289
0.998979 1 1.00071 0.998271
0.998284 1 1 0.998284
0.78433 0.902896 0.918016 0.946261
0.81317 0.925082 0.924789 0.950514
0.784558 0.894605 0.923755 0.949373
0.779992 0.931828 0.892532 0.937844
0.86997 0.929668 0.952208 0.982754
0.873829 0.911106 0.990146 0.96863
0.812621 0.893539 0.955785 0.951512
0.863872 0.923064 0.953115 0.981912
0.891556 0.913992 1.00998 0.965814
0.860245 0.93414 0.968638 0.950712
0.7419 0.89328 0.88612 0.937271
0.896958 0.929521 0.979962 0.984699
0.906229 0.924367 1.0154 0.965506
0.798205 0.887071 0.950067 0.947113
0.699461 0.851304 0.882523 0.931007
1.01949 1 1.02112 0.998395
1.00031 1 1.00221 0.99811
1.00276 1 1.00486 0.997911
0.998148 1 1 0.998148
0.960073 0.963129 0.998615 0.99821
1.00739 0.976389 1.03256 0.999221
1.00881 1 1.01073 0.998101
1.01346 0.997977 1.01725 0.99829
1.04152 0.992813 1.05029 0.998821
1.01045 0.999099 1.01296 0.998421
1.03835 0.984477 1.05601 0.998779
0.973702 0.957134 1.02102 0.996366
1.0078 0.966363 1.04341 0.999488
1.01214 0.986401 1.02722 0.998906
0.953897 0.928803 1.03127 0.995877
1.00857 0.961143 1.05008 0.999294
0.804141 0.894809 0.936095 0.960024
0.832274 0.921926 0.937221 0.963227
0.807467 0.896972 0.936877 0.960868
0.988669 0.962992 1.02687 0.999805
0.947727 0.945729 1.00751 0.994646
0.820403 0.914601 0.933319 0.961092
0.928918 0.94324 1.01991 0.965593
0.803437 0.886568 0.953197 0.950731
0.789293 0.899119 0.924376 0.949669
0.676527 0.826713 0.879905 0.930026
1.0035 0.959304 1.04721 0.998912
0.803005 0.89844 0.932666 0.958303
0.787867 0.899286 0.930091 0.941954
0.922249 0.936822 0.994381 0.990006
0.609454 0.76233 0.861474 0.928016
0.743759 0.845948 0.928553 0.946852
0.891706 0.915401 1.00825 0.96614
0.994193 0.964814 1.03348 0.997073
0.811541 0.914467 0.934284 0.949869
0.667608 0.793806 0.900881 0.933554
0.714076 0.831777 0.900699 0.953143
0.854538 0.895523 0.984162 0.96959
0.881129 0.914057 0.980183 0.983465
1.02549 0.983543 1.04308 0.99959
1.01224 0.979658 1.03377 0.999507
0.982279 0.977032 1.00608 0.999295
1.01874 0.982914 1.03706 0.999402
1.00506 0.991182 1.01513 0.998888
1.00214 1.0008 1.00362 0.997733
1.00683 1.00003 1.00912 0.997703
1.01931 1.00082 1.02229 0.99628
1.01037 1.00062 1.01441 0.99541
1.00589 1.00186 1.00788 0.996172
1.00539 1.00229 1.00795 0.995174
1.00183 1.00239 1.00448 0.994978
1.02542 1.02999 1 0.995563
1.01581 1.01944 1.00077 0.995674
1.00743 1.00997 1.00218 0.995313
1.00722 1.01069 1.00013 0.996446
1.00739 1.01048 1.00074 0.996207
1.00515 1.00714 1.00236 0.995669
1.00602 1.00801 1.00112 0.996911
1.00815 1.01027 1.00108 0.996816
1.01641 1.01934 1.00043 0.996699
1.00612 1.00053 1.00787 0.997726
1.00395 1.00183 1.00463 0.997497
1.01282 1.01271 1.00288 0.997247
1.00459 1 1.00574 0.998861
1.00881 1 1.01069 0.998137
1.00726 1.00134 1.00808 0.997846
0.999902 1 1 0.999902
1.00126 1 1.00213 0.999135
1.00535 1 1.00692 0.998442
1.00012 1 1.00082 0.9993
0.999935 1 1 0.999935
1 1 1 1
0.999958 1 1 0.999958
1 1 1 1
1 1 1 1
1.0045 1 1.00631 0.998198
0.999636 1 1.0011 0.998536
0.999323 1 1 0.999323
0.998692 1 1 0.998692
0.999981 1 1 0.999981
0.999459 1 1 0.999459
0.998795 1 1 0.998795
1 1 1 1
0.999998 1 1 0.999998
0.99957 1 1 0.99957
1 1 1 1
1 1 1 1
1 1 1 1
0.793908 0.893549 0.92868 0.956722
0.817655 0.914132 0.931687 0.960044
0.80422 0.899821 0.932843 0.958099
1.00269 1 1.00448 0.998215
1.00333 1 1.00525 0.998086
1.00052 1 1.00243 0.998096
1.00442 1 1.00633 0.998096
1.00769 1 1.00966 0.998055
0.999013 1 1.00072 0.998298
0.998286 1 1 0.998286
0.998919 1 1.00065 0.998274
0.99829 1 1 0.99829
1.01208 1 1.01376 0.998352
0.780125 0.890233 0.930076 0.942198
0.784171 0.901215 0.919408 0.946399
0.814562 0.924473 0.92485 0.952706
0.743945 0.89505 0.886579 0.93751
0.858298 0.933278 0.97013 0.947976
0.858879 0.918797 0.953399 0.980477
0.89952 0.921242 1.00736 0.969286
0.89063 0.931842 0.973813 0.981476
0.914891 0.935514 1.00884 0.969382
0.812816 0.891164 0.960851 0.949245
0.699855 0.858393 0.876773 0.929896
0.906374 0.922982 0.998084 0.983891
0.897736 0.915846 1.0105 0.970036
0.728256 0.824614 0.927786 0.951888
0.64151 0.793574 0.867118 0.932261
1.01938 0.999987 1.02044 0.99897
1.021 0.999993 1.02263 0.998409
1.00312 1 1.005 0.998134
0.974826 0.958754 1.02198 0.994898
1.00964 0.960006 1.05207 0.999648
1.01075 1 1.01235 0.998422
1.04251 0.983953 1.06082 0.998767
1.01439 0.990016 1.02573 0.998912
1.0148 0.968906 1.04811 0.999283
0.95848 0.937898 1.02623 0.995821
1.01622 0.99137 1.02573 0.999345
0.969438 0.955284 1.01843 0.996452
0.821591 0.914227 0.943474 0.952515
0.808055 0.897205 0.93767 0.960505
0.82986 0.920377 0.934775 0.964565
1.00465 0.965933 1.04104 0.999078
0.917255 0.933175 0.997238 0.985663
0.807469 0.901809 0.934373 0.958278
0.894456 0.921591 1.0041 0.966593
0.737687 0.830012 0.933789 0.951785
0.780565 0.894182 0.926843 0.94184
0.615309 0.776364 0.858511 0.92317
0.991601 0.963033 1.03244 0.997313
0.811885 0.911015 0.93824 0.94985
0.664815 0.792931 0.89945 0.932155
0.891832 0.924645 0.979225 0.984976
0.727476 0.838879 0.911749 0.95114
0.851061 0.904019 0.973402 0.967142
0.949882 0.94886 1.00557 0.995534
0.70175 0.812053 0.920979 0.938313
0.723326 0.833045 0.910347 0.953802
0.8655 0.923548 0.968695 0.967433
0.859283 0.913549 0.9541 0.985849
1.01132 0.976862 1.03578 0.99951
0.984466 0.973641 1.01186 0.99927
0.994472 0.991307 1.00477 0.998435
1.00103 0.981692 1.02074 0.998979
1.00201 1.00071 1.00349 0.997822
0.998061 1.00219 0.999119 0.996761
1.01717 1.00071 1.02037 0.996156
1.0091 1.001 1.01274 0.995413
0.999188 1.00214 1.00137 0.995691
1.00557 1.002 1.00853 0.995083
1.00207 1.00338 1.0037 0.995014
1.02274 1.02706 1 0.995791
1.04833 1.05233 1 0.996201
1.03581 1.04031 1.00002 0.995653
1.02562 1.03016 1 0.995593
1.01911 1.02324 1 0.995964
1.01445 1.01782 1.00107 0.995619
1.00823 1.01058 1.00244 0.995255
1.01168 1.01513 1 0.996599
1.0055 1.00899 1.00002 0.99652
1.00591 1.00936 1.00032 0.996271
1.00235 1.00298 1.00208 0.997302
1.00464 1.00641 1.0013 0.996951
1.00805 1.01019 1.0011 0.996789
1.00886 1 1.01047 0.998402
1.00717 1.00106 1.00839 0.997729
1.00491 1.00255 1.0048 0.997571
1.00008 1 1.00025 0.99983
1.00482 1 1.00598 0.998854
1.00807 1 1.00994 0.998144
0.999991 1 1 0.999991
0.999888 1 1 0.999888
1.00188 1 1.00275 0.999128
0.999926 1 1 0.999926
1 1 1 1
1 1 1 1
1.00588 1 1.00782 0.998079
1.00251 1 1.00414 0.998371
1.00545 1 1.00729 0.998176
0.999622 1 1.00044 0.99918
0.999816 1 1.00129 0.998533
0.999954 1 1 0.999954
0.999328 1 1 0.999328
0.998688 1 1 0.998688
1 1 1 1
0.999987 1 1 0.999987
0.999462 1 1 0.999462
1 1 1 1
1 1 1 1
1 1 1 1
0.807575 0.907291 0.934234 0.952754
0.797536 0.896349 0.930032 0.956699
0.818045 0.911101 0.934411 0.960888
0.999321 1.00085 1.00039 0.998085
1.00244 1 1.00422 0.998226
1.00241 1 1.00432 0.998094
1.00156 1 1.00348 0.998082
1.00052 1 1.0024 0.998121
1.00446 1 1.0063 0.998172
1.01241 1.00001 1.01474 0.997694
1.0164 1 1.01829 0.998143
0.998597 1 1.00032 0.998277
0.998296 1 1 0.998296
1.01267 1 1.01436 0.998335
1.02702 0.999977 1.02854 0.998545
0.67827 0.800709 0.90743 0.933501
0.79191 0.901653 0.93244 0.941923
0.785041 0.900978 0.920568 0.946504
0.695507 0.852821 0.874048 0.933057
0.811554 0.891935 0.959566 0.948222
0.90949 0.928418 1.01453 0.965585
0.890878 0.924263 0.981333 0.982214
0.90498 0.923292 0.994188 0.985897
0.629185 0.785764 0.863254 0.927571
0.890816 0.915567 1.00655 0.966632
0.742967 0.842924 0.92923 0.948544
0.90534 0.932354 0.983535 0.987282
0.878482 0.9149 0.988548 0.971319
0.714014 0.831045 0.902742 0.951741
0.993793 1 0.994255 0.999535
1.01843 1 1.01947 0.998975
1.02153 1 1.02314 0.998421
0.958288 0.940147 1.02355 0.995846
1.02161 0.977139 1.04627 0.999273
1.01611 0.994279 1.02306 0.998919
1.01511 0.991241 1.02475 0.999344
0.965878 0.954062 1.01594 0.996497
0.990906 0.984937 1.00842 0.99766
0.735481 0.82874 0.943748 0.940366
0.818507 0.913294 0.93897 0.954465
0.808755 0.89857 0.936601 0.960972
0.992711 0.962372 1.03414 0.997473
0.881845 0.920746 0.971491 0.985856
0.81018 0.90774 0.939619 0.94988
0.860392 0.897358 0.990466 0.968035
0.732359 0.854023 0.90474 0.94783
0.67283 0.803035 0.896319 0.934777
0.95029 0.945442 1.00957 0.995604
0.702532 0.811944 0.919542 0.940955
0.720434 0.834681 0.908108 0.950464
0.857448 0.914917 0.953959 0.982419
0.874218 0.931504 0.966394 0.971138
0.945272 0.960802 0.985945 0.997862
0.743457 0.845719 0.925208 0.950146
0.908852 0.970179 0.962938 0.972844
0.864363 0.926759 0.949612 0.982163
0.988085 0.971913 1.0174 0.999251
0.985747 0.991166 0.996005 0.998521
0.994951 1.00101 0.99642 0.997514
1.00231 1.00075 1.00366 0.99791
1.00106 1.00252 1.00181 0.996735
1.00069 1.00458 0.999428 0.996698
1.00796 1.00142 1.01117 0.995416
0.999126 1.00177 1.00167 0.995698
1.02625 1.03139 0.998357 0.996654
1.00235 1.00413 1.00319 0.995049
1.02143 1.02574 1 0.995801
1.04883 1.05309 0.999131 0.996822
1.0505 1.05412 0.999677 0.996887
1.05031 1.05441 1 0.996116
1.04887 1.05282 1 0.996247
1.03759 1.04188 1 0.995879
1.03404 1.03849 1 0.995716
1.0251 1.02961 1 0.995623
1.02635 1.03017 1 0.996291
1.01949 1.02345 1.00014 0.995989
1.01317 1.01618 1.00148 0.995564
1.00744 1.01053 1 0.996936
1.01115 1.01461 1 0.996595
1.00366 1.00709 1 0.996594
1.00353 1.00037 1.00523 0.997945
1.00446 1.00483 1.00234 0.997296
1.00282 1.00439 1.00145 0.996991
1.00141 1 1.00174 0.999669
1.00677 1.00007 1.00831 0.998399
1.00733 1.00163 1.00797 0.997731
1 1 1 1
1.00049 1 1.00069 0.999802
1.00449 1 1.00565 0.998846
1 1 1 1
0.999875 1 1 0.999875
1 1 1 1
1.00053 1.00075 1.00185 0.997936
1.00486 1.00005 1.00676 0.998061
1.0061 1 1.0079 0.998219
1.00108 1 1.00205 0.999028
1.00332 1 1.00496 0.998368
1.00668 1 1.00855 0.998155
0.999915 1 1 0.999915
0.999351 1 1.00017 0.999185
0.999651 1 1.00112 0.99853
1 1 1 1
0.999963 1 1 0.999963
0.999332 1 1 0.999332
1 1 1 1
0.999992 1 1 0.999992
1 1 1 1
0.708222 0.813856 0.930326 0.935377
0.809668 0.909305 0.934553 0.952783
0.801391 0.899402 0.931373 0.956681
1.00162 1.00033 1.00324 0.998062
1.00593 1.00319 1.00504 0.997704
1.00984 1.00038 1.01159 0.997885
1.0029 1 1.00484 0.998068
1.00033 1.00009 1.00209 0.998146
1.00498 1 1.0067 0.998287
1.01569 1 1.01763 0.998096
1.01225 1.00019 1.01432 0.997769
1.01588 1.0011 1.01712 0.997687
0.984921 1.00121 0.984752 0.998967
1.01139 1 1.01309 0.998317
1.02271 0.99996 1.02427 0.998525
0.721955 0.831331 0.916176 0.947888
0.661826 0.785741 0.904954 0.930761
0.799581 0.908099 0.93494 0.941772
0.617416 0.777161 0.860965 0.922745
0.747154 0.84783 0.925563 0.952128
0.878518 0.909682 0.997207 0.968448
0.910619 0.928483 0.997501 0.983217
0.893059 0.92384 0.981477 0.984926
0.71748 0.826045 0.914055 0.950242
0.859994 0.904887 0.981723 0.968082
0.878722 0.929391 0.958565 0.986351
0.855738 0.927996 0.952644 0.967976
1.00162 1 1.0026 0.999021
0.99496 1 0.995476 0.999482
1.01763 1 1.01867 0.99898
0.961204 0.951943 1.01323 0.996547
1.01364 0.990255 1.02429 0.999344
0.992096 0.986665 1.00792 0.997605
0.977798 0.990557 0.990449 0.996638
0.758267 0.861781 0.921826 0.954501
0.734233 0.826763 0.94385 0.940913
0.820153 0.915074 0.937157 0.956371
0.953535 0.952202 1.00565 0.995774
0.860842 0.914473 0.957728 0.982903
0.703735 0.812327 0.920558 0.941081
0.849949 0.919566 0.955242 0.967601
0.733504 0.83996 0.915395 0.953973
0.948018 0.963395 0.98728 0.996717
0.753733 0.855671 0.924811 0.952483
0.901908 0.968521 0.961702 0.968306
0.867046 0.929051 0.947671 0.984793
0.957521 0.983251 0.976056 0.997721
0.915845 0.97883 0.962447 0.972161
0.912867 0.972231 0.950996 0.987322
0.976599 0.990095 0.987761 0.998592
0.99083 1.00139 0.991947 0.997486
0.982139 1.00813 0.976802 0.997357
1.0029 1.00284 1.00336 0.996711
1.00006 1.00474 0.998648 0.996693
1.02423 1.0392 0.988197 0.997365
0.998953 1.00139 1.00186 0.995706
1.02485 1.03096 0.997433 0.996633
1.04083 1.05426 0.989822 0.997419
1.02056 1.02486 1 0.995812
1.04762 1.05261 0.998437 0.996814
1.04656 1.05483 0.994756 0.997393
1.04637 1.05124 0.998092 0.997272
1.05135 1.0552 0.999385 0.996961
1.04916 1.05259 1 0.996737
1.05176 1.0558 1 0.99618
1.05035 1.05443 1 0.996136
1.04986 1.05377 1 0.996294
1.03963 1.04368 1 0.996114
1.03932 1.04359 1 0.995909
1.03234 1.03672 1 0.995779
1.02116 1.02462 1 0.996631
1.02592 1.02975 1 0.996289
1.01978 1.02368 1.00017 0.996014
0.999668 1.00177 1.00026 0.997635
1.00899 1.0121 1 0.996933
1.01148 1.01494 1 0.99659
1.00203 1 1.00262 0.999404
1.00364 1.00075 1.00495 0.997945
1.0072 1.00692 1.003 0.997291
1 1 1 1
1.00208 1 1.00243 0.999643
1.00571 1.00014 1.00719 0.998396
0.99999 1 1 0.99999
1.0011 1 1.00132 0.999788
1 1 1 1
0.999633 1.00181 1 0.997823
1.00127 1.00042 1.00289 0.997955
1.00505 1 1.00699 0.998069
1.003 1 1.00496 0.998043
1.00641 1 1.00821 0.99822
1.00356 1 1.00472 0.998849
0.999862 1 1 0.999862
1.00055 1 1.00152 0.99903
1.00434 1 1.00599 0.998366
1 1 1 1
0.999927 1 1 0.999927
0.999206 1 1.00002 0.99919
1 1 1 1
0.999971 1 1 0.999971
1 1 1 1
0.750355 0.850087 0.926882 0.952311
0.710705 0.815283 0.931089 0.936246
0.809973 0.910076 0.934089 0.952806
1.00413 1 1.00611 0.998039
1.012 1.00001 1.01432 0.997715
1.00355 1.00209 1.00369 0.997777
1.00447 1.00664 1.00101 0.996837
1.01202 1.00144 1.01286 0.997741
1.01414 1 1.01612 0.998051
1.01034 1 1.01252 0.997844
1.01802 1.00091 1.01935 0.99778
0.999384 1.00301 0.998918 0.997464
0.976233 1.00166 0.976058 0.998519
0.973484 1.00035 0.975392 0.997694
0.984959 1.00088 0.985071 0.999003
1.01732 1 1.01884 0.998505
0.891286 0.958878 0.957462 0.970806
0.716835 0.826403 0.913725 0.949318
0.659587 0.78472 0.902057 0.931802
0.714799 0.830592 0.908865 0.946884
0.869953 0.915394 0.981412 0.968359
0.897427 0.920069 0.987886 0.987352
0.879396 0.928086 0.958943 0.988106
0.881448 0.935567 0.969123 0.972172
0.904778 0.965448 0.949282 0.98723
0.993701 1.00132 0.994164 0.998218
1.00021 1 1.00121 0.998999
0.996284 1 0.996854 0.999428
0.994585 0.989858 1.0072 0.997593
0.983127 0.993235 0.992879 0.996923
0.892302 0.966095 0.951271 0.970929
0.763911 0.860256 0.92994 0.954905
0.731781 0.823049 0.944355 0.9415
0.952009 0.968673 0.987235 0.995505
0.873487 0.937077 0.948884 0.982354
0.749569 0.852019 0.924181 0.951931
0.89274 0.956385 0.960135 0.97221
0.964226 0.982902 0.983156 0.997807
0.925206 0.989251 0.961326 0.972885
0.910459 0.968294 0.954862 0.98472
0.97198 1.00357 0.971253 0.997194
0.943773 0.992935 0.958915 0.991212
0.990956 1.00358 0.989909 0.997482
0.980504 1.00786 0.975484 0.99731
0.994815 1.03714 0.961442 0.997664
0.999341 1.00455 0.998123 0.996687
1.02593 1.04021 0.988912 0.997336
1.03764 1.06202 0.979291 0.997708
1.02329 1.03046 0.996417 0.996613
1.04057 1.05443 0.989433 0.997395
1.03474 1.05359 0.984434 0.997636
1.04599 1.05177 0.997693 0.996807
1.04636 1.05501 0.99441 0.997371
1.0435 1.05436 0.992211 0.997473
1.04623 1.05155 0.997608 0.997328
1.04502 1.0494 0.998737 0.997083
1.05189 1.05601 0.999061 0.997035
1.04897 1.05241 1 0.996728
1.05071 1.05437 1 0.996521
1.04892 1.05292 1 0.9962
1.05153 1.05557 1 0.996168
1.05034 1.05439 1 0.996156
1.03506 1.03877 1 0.996425
1.03954 1.04359 1 0.99612
1.04121 1.04546 1 0.995938
1.00439 1.00701 1 0.997398
1.02022 1.02367 1 0.99663
1.02523 1.02906 1 0.996286
1.00034 1 1.00123 0.999108
1.00129 1.00314 1.00052 0.997636
1.01008 1.01319 1 0.996929
1 1 1 1
1.0017 1 1.00233 0.999379
1.00325 1.0011 1.0042 0.997946
1 1 1 1
1.00242 1 1.0028 0.999618
1 1 1 1
1.00738 1.01043 1 0.99698
1.00006 1.00225 1 0.997808
1.00078 1.00069 1.00226 0.99784
1.00258 1 1.00461 0.997975
1.00439 1 1.00637 0.998033
1.00527 1 1.00668 0.9986
1.00743 1 1.00922 0.998221
1.0035 1 1.00466 0.998848
1.0005 1 1.00072 0.999786
1 1 1 1
0.999875 1 1 0.999875
0.999871 1 1.00084 0.999031
1 1 1 1
0.999939 1 1 0.999939
1 1 1 1
0.915033 0.97906 0.959383 0.974171
0.752934 0.857483 0.921147 0.95324
0.713628 0.817307 0.934198 0.934647
1.0139 1 1.0164 0.997544
1.00155 1.00168 1.00202 0.997852
1.01022 1.00165 1.0109 0.997683
1.00547 1.00736 1.00121 0.996929
1.01777 1.0212 1.00016 0.996485
1.00012 1.00284 1 0.997292
1.02152 1.00117 1.02251 0.997872
1.00042 1.00367 0.99949 0.99727
0.982538 1.00224 0.981817 0.998502
0.995521 1.00219 0.995818 0.997515
0.971647 1.00345 0.970502 0.997739
0.994267 1.00147 0.995535 0.997257
0.975649 1.00082 0.976989 0.997812
0.989191 1.00066 0.989486 0.99904
0.914391 0.97374 0.951221 0.987206
0.899257 0.96654 0.9584 0.970771
0.724309 0.827549 0.918138 0.953284
0.875074 0.933749 0.968702 0.967442
0.888383 0.929528 0.966254 0.989114
0.906321 0.959347 0.953443 0.990858
0.979487 1.00377 0.978496 0.997256
0.991562 1.00064 0.992742 0.998169
0.998581 0.999949 0.999654 0.998978
0.984625 0.994964 0.992399 0.997189
0.930917 0.973265 0.96849 0.987608
0.90752 0.973363 0.956045 0.975222
0.752449 0.854668 0.925074 0.951706
0.962978 0.978743 0.985971 0.997891
0.915951 0.974529 0.952832 0.986419
0.927272 0.986623 0.965422 0.973505
0.965368 1.00177 0.966313 0.997257
0.943331 0.988928 0.963144 0.990394
0.966551 1.02466 0.945837 0.997306
0.98711 1.01752 0.973953 0.996055
0.977663 1.00759 0.972967 0.997256
0.992238 1.0351 0.960838 0.997659
1.00591 1.06223 0.949201 0.99766
1.02824 1.0418 0.98965 0.997307
1.03721 1.06173 0.979173 0.997687
1.03526 1.0589 0.980036 0.997587
1.04077 1.05486 0.98925 0.99737
1.03508 1.05307 0.985258 0.997617
1.04483 1.06047 0.987787 0.997439
1.04644 1.05535 0.994194 0.997349
1.04167 1.05209 0.992618 0.997466
1.0453 1.05352 0.994981 0.997194
1.0463 1.05201 0.997178 0.997383
1.04532 1.04962 0.998768 0.997129
1.04944 1.05301 0.999863 0.996752
1.0489 1.05236 1 0.99672
1.05082 1.0545 1 0.99651
1.05057 1.05436 1 0.996407
1.04214 1.04596 1 0.996357
1.04916 1.05316 1 0.996197
1.05124 1.0553 1 0.996155
1.01333 1.01619 1 0.997193
1.03378 1.03748 1 0.996429
1.03941 1.04345 1 0.996126
0.999136 1 1.00027 0.998868
1.00671 1.00933 1.00001 0.997396
1.01918 1.02262 1 0.996629
1 1 1 1
0.999985 1 1.00089 0.999091
1.00294 1.00452 1.00079 0.997636
1 1 1 1
1.00155 1 1.0022 0.999355
1 1 1 1
1.01929 1.02279 1 0.996574
1.00945 1.01248 1 0.997012
1.00674 1.00878 1.00066 0.997315
0.999627 1.00184 1 0.997793
1.00026 1.00027 1.0022 0.997791
1.00339 1.00064 1.00449 0.998274
1.00371 1 1.00572 0.997998
1.00573 1 1.00714 0.998602
1.00218 1 1.0025 0.999678
1.00388 1 1.00504 0.998848
1.00034 1 1.00055 0.999797
1 1 1 1
1 1 1 1
0.999888 1 1 0.999888
1 1 1 1
0.920878 0.974252 0.956701 0.987994
0.90536 0.978088 0.953944 0.970332
0.747724 0.850368 0.920674 0.955057
1.03509 1.03882 1.00007 0.996343
1.00835 1.00145 1.00929 0.997626
1.00661 1.00824 1.00138 0.997021
1.00044 1.00317 1 0.997286
1.01659 1.01977 1.00042 0.996466
1.00508 1.00803 0.999824 0.997249
1.00028 1.00321 1 0.997077
0.984147 1.002 0.98367 0.998485
0.993568 1.00266 0.993392 0.997527
0.965146 1.00246 0.96509 0.997605
1.00633 1.01358 0.995994 0.996841
0.99716 1.00708 0.992826 0.997307
0.994705 1.00208 0.995401 0.997227
0.976871 1.00134 0.977592 0.997929
0.977047 1.00613 0.973279 0.99776
0.90858 0.970139 0.949999 0.98584
0.898339 0.967907 0.955706 0.971141
0.901455 0.952667 0.957189 0.988565
0.982486 1.00511 0.979396 0.998057
0.991439 1.0002 0.993116 0.998112
0.980369 1.00699 0.977917 0.995549
0.91583 0.957758 0.966809 0.989051
0.895036 0.970386 0.949838 0.971061
0.963189 0.999546 0.966218 0.997319
0.951095 0.991003 0.970073 0.989338
0.970505 1.02613 0.948223 0.997431
0.990478 1.01741 0.977101 0.996348
0.992252 1.0429 0.953828 0.997491
1.04631 1.0657 0.984408 0.997349
0.989002 1.03248 0.960145 0.997654
1.01084 1.06362 0.95262 0.997643
1.02543 1.07181 0.959186 0.997441
1.03608 1.06095 0.978838 0.997666
1.03266 1.05727 0.979091 0.997583
1.04494 1.06764 0.981363 0.997322
1.03506 1.05237 0.985916 0.997598
1.04302 1.05901 0.987416 0.997453
1.04739 1.05948 0.991417 0.997144
1.0397 1.04976 0.99294 0.997458
1.04576 1.05398 0.995001 0.997192
1.05138 1.05631 0.998461 0.996869
1.04555 1.04978 0.998796 0.997176
1.04987 1.05338 0.999873 0.996796
1.05259 1.05629 1 0.996497
1.05091 1.05461 1 0.996499
1.0503 1.0541 1 0.996392
1.04453 1.0483 1 0.996401
1.02034 1.02334 1 0.997072
1.04165 1.04545 1 0.996368
1.04936 1.05337 1 0.996193
0.999536 1.00082 1 0.998718
1.01447 1.01733 1 0.997193
1.03272 1.03641 1 0.996434
1 1 1 1
0.999173 1.00022 1.0001 0.998855
1.00928 1.01192 1 0.997395
1 1 1 1
0.999524 1 1.00045 0.999075
1 1 1 1
1.03397 1.03781 1 0.996301
1.02126 1.02477 1 0.99657
1.01787 1.02103 1 0.996904
1.01205 1.01504 1.00001 0.997043
1.00659 1.00875 1.00056 0.997307
1.00372 1.00361 1.00218 0.997936
0.999717 1.00002 1.00196 0.997742
1.0039 1.0003 1.00534 0.998276
1.00199 1 1.00247 0.999518
1.00532 1 1.00673 0.998604
1.00127 1 1.00158 0.99969
1 1 1 1
0.999972 1 1.00016 0.999808
1 1 1 1
1 1 1 1
0.975833 1.01057 0.968105 0.997444
0.915539 0.971759 0.956151 0.985353
0.904204 0.9697 0.956832 0.974525
1.02542 1.02869 1.00001 0.99681
1.04493 1.04864 1 0.996464
1.03312 1.0367 1.00013 0.996419
1.00118 1.00391 1 0.997279
1.0153 1.01818 1.00073 0.996445
1.0067 1.01054 0.99896 0.99723
1.02602 1.03178 0.997626 0.996786
0.992973 1.00377 0.991682 0.997539
0.962312 1.00189 0.962933 0.997471
1.00756 1.0155 0.995221 0.996941
1.02376 1.03628 0.991197 0.996688
1.0008 1.02598 0.977882 0.997515
1.00117 1.00908 0.994889 0.997258
0.995895 1.00262 0.996082 0.997195
0.981307 1.0078 0.975635 0.998033
0.912928 0.973407 0.952747 0.984384
0.982785 1.00524 0.978756 0.998883
1.02591 1.05154 0.977632 0.997946
0.978471 1.00577 0.977075 0.995682
0.919317 0.968709 0.961735 0.986771
0.973473 1.02797 0.949309 0.997549
0.993873 1.01782 0.979744 0.996657
0.988891 1.04338 0.950018 0.997646
1.04532 1.06674 0.982512 0.997369
1.04152 1.07843 0.968332 0.997357
1.07836 1.09986 0.982912 0.997499
1.01568 1.0658 0.955244 0.997627
1.03134 1.07351 0.96319 0.99744
1.04825 1.07758 0.975485 0.997228
1.03028 1.05577 0.97823 0.997579
1.04464 1.06673 0.981924 0.997322
1.04807 1.06536 0.986627 0.997109
1.04129 1.05759 0.987092 0.997466
1.04799 1.06007 0.991443 0.99714
1.05197 1.06023 0.995313 0.996878
1.04623 1.05442 0.995021 0.99719
1.05181 1.05671 0.998496 0.996867
1.05588 1.05957 0.999977 0.996542
1.0503 1.05375 0.999885 0.996841
1.05214 1.05583 1 0.996511
1.04794 1.05172 1 0.996401
1.05004 1.05386 1 0.996377
1.04448 1.04825 1 0.996402
1.02252 1.02558 1 0.997011
1.00144 1.00278 1 0.998667
1.02006 1.02306 1 0.997072
1.04136 1.04514 1 0.99638
1 1 1 1
0.999993 1.00129 1 0.998706
1.01543 1.01829 1 0.997192
1 1 1 1
0.999126 1.00029 1 0.998841
1 1 1 1
1.04245 1.04633 1 0.996285
1.03348 1.03732 1 0.996296
1.02787 1.03137 1 0.996607
1.0224 1.02593 1 0.996566
1.01722 1.02037 1 0.996911
1.00727 1.0093 1.00035 0.997644
1.00566 1.00791 1.00046 0.997299
1.00289 1.00237 1.00258 0.997938
1.00047 1 1.00119 0.999277
1.00519 1 1.00692 0.998278
1.00203 1 1.00249 0.999535
1 1 1 1
1.00092 1 1.00122 0.999701
1 1 1 1
1 1 1 1
1.00346 1.04237 0.964647 0.997949
0.97283 1.00952 0.966961 0.996582
0.917018 0.973759 0.955031 0.986072
1.03999 1.0436 0.999861 0.996672
1.02678 1.02986 1 0.997013
1.05973 1.06355 0.999846 0.996562
1.04543 1.04917 0.999987 0.996447
1.03124 1.03468 1.00018 0.996495
1.05005 1.06018 0.99386 0.996565
1.00837 1.01329 0.997929 0.99721
1.02615 1.03139 0.998192 0.996724
1.04367 1.06942 0.979003 0.996853
1.00703 1.01731 0.992831 0.997042
1.02459 1.03708 0.991303 0.996621
1.00168 1.02865 0.976172 0.997552
1.00249 1.00936 0.995974 0.997207
0.986217 1.0095 0.978616 0.998285
1.06454 1.09066 0.978463 0.997535
1.02962 1.05156 0.981127 0.997971
0.977239 1.00456 0.976897 0.995813
0.986299 1.04305 0.947678 0.9978
1.04295 1.06654 0.980437 0.99739
1.0366 1.07691 0.965101 0.997381
1.08082 1.10261 0.982701 0.99749
1.06574 1.09185 0.978652 0.997376
1.037 1.07484 0.967266 0.997441
1.04895 1.07688 0.97676 0.997238
1.04908 1.07051 0.982798 0.997139
1.04431 1.06578 0.982486 0.997322
1.04815 1.06521 0.986859 0.99709
1.05072 1.06257 0.99196 0.996866
1.04862 1.06068 0.991472 0.997137
1.05236 1.0606 0.995344 0.996874
1.05888 1.06304 0.999515 0.996572
1.05225 1.05711 0.998529 0.996865
1.05581 1.0595 0.999978 0.996544
1.0525 1.05632 1 0.996377
1.05171 1.05538 1 0.996526
1.04785 1.05163 1 0.996407
1.02329 1.02643 1 0.996945
1.04437 1.04814 1 0.996402
1.02282 1.02588 1 0.99701
1.00296 1.00406 1 0.998905
0.999566 1 1 0.999566
1.00194 1.00317 1 0.998768
1.01948 1.02248 1 0.997071
1 1 1 1
1.00058 1.00189 1 0.998693
1 1 1 1
1.06482 1.06862 0.999776 0.99666
1.05132 1.05508 1 0.996437
1.04321 1.04709 1 0.996295
1.0357 1.03936 1 0.996478
1.03345 1.0373 1 0.996292
1.02897 1.03248 1 0.996604
1.01252 1.01517 1 0.997394
1.01728 1.02042 1 0.996918
1.00551 1.0074 1.00049 0.997646
0.999112 1 1.00012 0.998991
1.00194 1.00118 1.00282 0.99794
1.00083 1 1.00154 0.999297
1 1 1 1
1.00164 1 1.00209 0.999553
1 1 1 1
1 1 1 1
1.05518 1.08826 0.972248 0.997282
1.00851 1.04966 0.962734 0.997992
0.969633 1.00962 0.964511 0.995734
1.0555 1.06241 0.996892 0.996597
1.03638 1.03994 0.999848 0.996721
1.02782 1.03069 1 0.997213
1.05809 1.06189 0.999835 0.996577
1.04595 1.04973 0.999962 0.99643
1.05698 1.08046 0.981378 0.996832
1.04656 1.05705 0.993524 0.996525
1.02613 1.03064 0.998959 0.996661
1.04145 1.06704 0.979101 0.99685
1.02848 1.04029 0.992067 0.996555
1.00669 1.0359 0.974143 0.997597
1.06546 1.08747 0.982237 0.997477
1.06756 1.09327 0.978861 0.997572
1.03281 1.05201 0.983715 0.997998
1.0333 1.07674 0.962155 0.997402
1.08447 1.10634 0.982711 0.997482
1.066 1.09293 0.977921 0.997382
1.05568 1.07216 0.987354 0.997242
1.04966 1.0761 0.978123 0.997248
1.04954 1.07027 0.983454 0.997125
1.05254 1.0648 0.991555 0.996904
1.04827 1.06509 0.987091 0.99707
1.05146 1.06331 0.991965 0.996865
1.06023 1.06609 0.997899 0.99659
1.05275 1.06096 0.995376 0.99687
1.05881 1.06298 0.999501 0.996572
1.05575 1.05962 1 0.996345
1.05578 1.05946 0.99998 0.996547
1.05239 1.05621 1 0.996382
1.02448 1.02771 1 0.996856
1.04775 1.05152 1 0.996413
1.02415 1.02729 1 0.996945
1.00261 1.0037 1 0.998919
1.02318 1.02625 1 0.997009
1.00293 1.00404 1 0.998899
0.999592 1 1 0.999592
0.999793 1 1 0.999793
1.00257 1.0037 1 0.998878
1 1 1 1
1.05803 1.06454 0.997204 0.99667
1.05627 1.05996 1 0.996515
1.06357 1.0674 0.99962 0.996787
1.04656 1.05031 1 0.996436
1.0535 1.05728 1 0.996425
1.04401 1.04788 1 0.996305
1.03664 1.04031 1 0.996469
1.01799 1.02087 1 0.997188
1.02984 1.03335 1 0.9966
1.01088 1.01352 1 0.997395
0.999707 1.00093 1 0.998777
1.00361 1.00545 1.00052 0.997648
0.999419 1.00001 1.0004 0.999009
1 1 1 1
1.00128 1 1.00197 0.999317
1 1 1 1
1 1 1 1
1.05616 1.08133 0.979494 0.997169
1.05092 1.08368 0.972414 0.997279
1.01173 1.05381 0.961966 0.998027
1.05577 1.0714 0.988621 0.996754
1.05255 1.05966 0.99668 0.996596
1.03311 1.03661 0.999858 0.996771
1.05626 1.06005 0.999832 0.996593
1.05539 1.07847 0.981725 0.996808
1.04295 1.0538 0.99319 0.996485
1.0345 1.05954 0.979454 0.996847
1.05981 1.07537 0.988189 0.997305
1.06371 1.08548 0.982464 0.997437
1.07009 1.09525 0.979372 0.997609
1.05437 1.06664 0.991325 0.997144
1.0656 1.09358 0.976968 0.997388
1.05555 1.07219 0.987219 0.997228
1.05448 1.06571 0.992428 0.997009
1.05002 1.07003 0.984141 0.997112
1.05257 1.06488 0.991506 0.996906
1.06044 1.06765 0.99663 0.996611
1.05216 1.06401 0.991975 0.996863
1.05963 1.06548 0.997916 0.99659
1.05699 1.06089 1 0.996328
1.05863 1.06281 0.999488 0.996572
1.05597 1.05984 1 0.996349
1.02513 1.02845 1 0.996772
1.05222 1.05604 1 0.996386
1.02532 1.02855 1 0.996857
1.00163 1.00274 1 0.998892
1.02506 1.0282 1 0.996945
1.00236 1.00346 1 0.998906
0.999596 1 1 0.999596
1.00287 1.00398 1 0.998896
0.999602 1 1 0.999602
1 1 1 1
1.05552 1.06504 0.994461 0.996576
1.05829 1.06257 0.999476 0.996492
1.05972 1.06622 0.997235 0.996667
1.053 1.05672 1 0.996478
1.05763 1.0614 0.99989 0.996555
1.06252 1.06639 0.999458 0.996913
1.02504 1.02809 1 0.997034
1.04629 1.05004 1 0.996425
1.0558 1.0596 1 0.996413
1.03771 1.0414 1 0.99646
1.01806 1.02093 1 0.997189
1.00235 1.00367 1 0.998683
1.0097 1.01233 1 0.997396
0.999596 1.0008 1 0.998793
1 1 1 1
0.9997 1 1.00067 0.999027
1 1 1 1
1 1 1 1
1.05433 1.07103 0.987323 0.997046
1.05626 1.08175 0.979229 0.997151
1.04943 1.08224 0.972329 0.997276
1.05531 1.07096 0.988574 0.996771
1.04924 1.05656 0.996462 0.996595
1.05498 1.0777 0.982074 0.996784
1.05627 1.06849 0.991392 0.997142
1.05992 1.07548 0.988207 0.997299
1.0621 1.08368 0.982647 0.997397
1.05485 1.06686 0.99155 0.997164
1.05335 1.06324 0.993716 0.996962
1.05542 1.07225 0.987057 0.997214
1.05474 1.06566 0.992763 0.99697
1.06033 1.06796 0.996144 0.9967
1.05263 1.065 0.991456 0.996909
1.06 1.06724 0.996585 0.996614
1.05697 1.06087 1 0.996321
1.0592 1.06504 0.997919 0.996591
1.05804 1.06194 1 0.99633
1.02469 1.02806 1 0.996722
1.05622 1.06009 1 0.996352
1.02564 1.02896 1 0.996774
1.00049 1.00166 1 0.998837
1.0262 1.02944 1 0.996858
1.00132 1.00245 1 0.998874
0.999573 1 1 0.999573
1.00209 1.0032 1 0.998898
0.999616 1 1 0.999616
0.999606 1 1 0.999606
1.05541 1.06647 0.992774 0.996835
1.05936 1.0645 0.998743 0.996423
1.05552 1.06614 0.993418 0.996604
1.05632 1.0601 1 0.996434
1.05771 1.06188 0.999591 0.996478
1.0614 1.06786 0.997279 0.996665
1.02768 1.03085 1 0.996933
1.05288 1.05663 1 0.996457
1.05882 1.06265 0.999796 0.996596
1.00364 1.00498 1 0.998668
1.02471 1.02776 1 0.997035
1.04623 1.05 1 0.996415
1.01736 1.02023 1 0.99719
1.00144 1.00275 1 0.998695
1 1 1 1
0.999241 1.00043 1 0.998808
1 1 1 1
1 1 1 1
1.05316 1.06551 0.991355 0.997035
1.0547 1.0712 0.987519 0.997037
1.0557 1.08143 0.979013 0.997132
1.05487 1.07057 0.988513 0.996788
1.05392 1.06202 0.995432 0.99692
1.05633 1.06856 0.991377 0.997153
1.06007 1.07556 0.988278 0.997293
1.05536 1.06709 0.991802 0.997184
1.05352 1.06356 0.993563 0.996972
1.06047 1.06695 0.997234 0.996682
1.05503 1.06561 0.99312 0.99693
1.06076 1.06786 0.996697 0.996647
1.05612 1.06046 0.999522 0.996386
1.0595 1.06678 0.996551 0.996616
1.05788 1.06179 1 0.996323
1.02289 1.02629 1 0.996687
1.05888 1.06278 1 0.996331
1.02446 1.02783 1 0.996722
0.999212 1.00065 1 0.998565
1.02626 1.02958 1 0.996775
1.00006 1.00135 1 0.998716
1 1 1 1
1.001 1.00215 1 0.998858
0.999599 1 1 0.999599
0.999629 1 1 0.999629
1.05405 1.06309 0.994553 0.99693
1.0585 1.06492 0.997406 0.996558
1.05588 1.06611 0.993553 0.996826
1.05729 1.0612 1 0.99632
1.05846 1.06403 0.998328 0.996432
1.05557 1.06726 0.992384 0.996631
1.0272 1.03052 1 0.996777
1.05625 1.06003 1 0.996435
1.05715 1.06123 0.999683 0.996464
1.00274 1.00407 1 0.998676
1.02694 1.03014 1 0.996897
1.05259 1.05635 1 0.996437
1 1 1 1
1.00338 1.00471 1 0.998679
1.02425 1.02729 1 0.997037
1.00096 1.00225 1 0.998708
1 1 1 1
1 1 1 1
1.05229 1.06013 0.995662 0.99693
1.05354 1.0656 0.991622 0.997042
1.05502 1.07137 0.987672 0.997028
1.06006 1.06566 0.998117 0.996622
1.05335 1.06184 0.995057 0.996932
1.0564 1.06864 0.991354 0.997164
1.05363 1.06388 0.993363 0.996982
1.06008 1.06673 0.997073 0.996683
1.05501 1.05916 0.999639 0.996439
1.06112 1.0677 0.997231 0.996595
1.05654 1.06065 0.999757 0.996373
1.02091 1.02437 1 0.996622
1.05895 1.06286 1 0.996325
1.02237 1.02577 1 0.996688
0.998617 1.00008 1 0.998535
1.02434 1.0277 1 0.996723
0.998973 1.00041 1 0.998564
1 1 1 1
0.999543 1.00097 1 0.998576
0.999777 1 1 0.999777
0.999621 1 1 0.999621
1.05196 1.05963 0.995861 0.996888
1.05964 1.06501 0.998317 0.996632
1.05383 1.06272 0.994678 0.996937
1.05745 1.06137 1 0.996311
1.05951 1.06564 0.997698 0.996543
1.05629 1.06572 0.994324 0.996817
1.02562 1.02903 1 0.996693
1.05685 1.06074 1 0.99633
1.05755 1.06356 0.997902 0.99644
1.00106 1.00241 1 0.998652
1.02678 1.03012 1 0.996764
1.05617 1.05994 1 0.996435
1 1 1 1
1.00312 1.00444 1 0.998685
1.02645 1.02968 1 0.996861
1 1 1 1
1.00311 1.00442 1 0.998691
1 1 1 1
1.05929 1.0647 0.998244 0.996666
1.05191 1.05977 0.995654 0.996916
1.05385 1.0656 0.991901 0.997049
1.05435 1.05846 0.999683 0.996435
1.05942 1.06535 0.997783 0.996643
1.05279 1.06165 0.994695 0.996944
1.05973 1.06652 0.996936 0.996684
1.05481 1.05907 0.999535 0.996439
1.01978 1.02324 1 0.996618
1.05698 1.06084 1 0.996359
1.02074 1.02418 1 0.99664
0.998496 1 1 0.998496
1.02167 1.02506 1 0.996689
0.998533 1 1 0.998533
1 1 1 1
0.998694 1.00013 1 0.998561
1 1 1 1
0.999594 1 1 0.999594
1.06024 1.06541 0.998494 0.996642
1.05125 1.0595 0.995298 0.996909
1.0563 1.06016 1 0.996357
1.06006 1.06546 0.99829 0.996631
1.05365 1.06241 0.994792 0.996945
1.0231 1.02647 1 0.996715
1.05659 1.06051 1 0.996307
1.06053 1.06635 0.998007 0.996528
0.999491 1.00089 1 0.998599
1.02564 1.02903 1 0.99671
1.05626 1.06014 1 0.996339
1 1 1 1
1.00152 1.00287 1 0.998658
1.02644 1.02978 1 0.996752
1 1 1 1
1.00345 1.00476 1 0.998694
1 1 1 1
1.05444 1.05841 0.999787 0.996459
1.05914 1.06447 0.998338 0.996654
1.05154 1.05941 0.995657 0.996901
1.01928 1.02273 1 0.996634
1.05413 1.05831 0.999615 0.996435
1.05873 1.06502 0.997428 0.996664
1.05461 1.05898 0.999435 0.996439
1.0199 1.02337 1 0.996616
0.998477 1 1 0.998477
1.0206 1.02402 1 0.996656
0.998494 1 1 0.998494
1 1 1 1
0.998531 1 1 0.998531
1 1 1 1
1 1 1 1
1.05556 1.0594 1 0.996383
1.05985 1.06528 0.998205 0.996689
1.05054 1.05937 0.994725 0.996929
1.02134 1.02469 1 0.996723
1.05592 1.05978 1 0.996354
1.06048 1.06592 0.998262 0.99663
0.998654 1.0001 1 0.998554
1.02347 1.02684 1 0.996713
1.05583 1.05975 1 0.996304
1 1 1 1
0.999957 1.00136 1 0.998603
1.02589 1.02926 1 0.996728
1 1 1 1
1.00193 1.00327 1 0.998664
1 1 1 1
1.01977 1.02316 1 0.99669
1.05413 1.05823 0.999694 0.996438
1.05901 1.06427 0.998413 0.996642
0.9985 1 1 0.9985
1.01947 1.02291 1 0.996631
1.05394 1.05818 0.999556 0.996436
1.02003 1.02349 1 0.996615
0.998478 1 1 0.998478
1 1 1 1
0.998492 1 1 0.998492
1 1 1 1
1 1 1 1
1.02044 1.0238 1 0.996717
1.05518 1.0591 0.99989 0.996409
1.05949 1.06514 0.997956 0.996736
0.998784 1 1 0.998784
1.02176 1.02512 1 0.996721
1.05556 1.05942 1 0.996351
1 1 1 1
0.99889 1.00034 1 0.998555
1.02377 1.02715 1 0.99671
1 1 1 1
1.0003 1.0017 1 0.998606
1 1 1 1
0.998487 1 1 0.998487
1.01993 1.02333 1 0.996673
1.05387 1.05807 0.999611 0.996416
1 1 1 1
0.998498 1 1 0.998498
1.01964 1.02309 1 0.996628
0.998477 1 1 0.998477
1 1 1 1
1 1 1 1
0.998751 1 1 0.998751
1.02072 1.02408 1 0.996717
1.05473 1.05877 0.99975 0.996436
1 1 1 1
0.998537 1 1 0.998537
1.02207 1.02543 1 0.99672
1 1 1 1
0.999116 1.00056 1 0.998556
1 1 1 1
0.999557 1 1 0.999557
0.998632 1 1 0.998632
1.02005 1.02348 1 0.996655
1 1 1 1
0.9985 1 1 0.9985
1 1 1 1
0.999569 1 1 0.999569
0.998643 1 1 0.998643
1.02104 1.0244 1 0.996717
0.999781 1 1 0.999781
0.998613 1.00008 1 0.998538
1 1 1 1
1 1 1 1
0.998521 1 1 0.998521
1 1 1 1
0.999784 1 1 0.999784
0.998534 1 1 0.998534
1 1 1 1
1 1 1 1
1 1 1 1

VECTORS lamdaE float
1.00178 1.00003 0.993262
1.00135 1.00079 0.996616
1.00125 1.00027 0.993599
1.00179 1.00007 0.993158
1.00183 0.999929 0.99329
1.00176 1.00027 0.993044
1.00302 1.00052 0.990211
1.00137 1.00077 0.996578
1.00117 1.00011 0.997209
1.00067 1.0009 0.997216
1.00114 1.0011 0.993033
1.00295 1.00121 0.988585
1.00126 1.00002 0.993808
1.00108 0.999981 0.993947
1.00078 1.00051 0.993907
1.00144 1.00004 0.993532
1.00118 1.00065 0.993348
1.0014 0.999992 0.993644
1.00327 1.00036 0.990048
1.00128 1.00002 0.996844
1.00169 1.00012 0.993242
1.00185 0.999972 0.993207
1.0031 1.00017 0.990461
1.00311 1.00024 0.990363
1.00183 1.00049 0.992736
1.00293 1.001 0.989862
1.00527 1.00107 0.985599
1.00139 1.00075 0.996564
1.00141 0.999988 0.995324
1.00105 1.00063 0.99528
1.00125 1.00088 0.996611
1.00286 1.00138 0.988604
1.0017 0.999776 0.993361
1.00148 1.00013 0.993452
1.00342 1.0001 0.990666
1.00016 1.00118 0.997471
1.00328 1.00069 0.990419
1.00258 1.00201 0.988455
1.00491 1.00146 0.985047
1.00036 0.999907 0.997718
1.00131 0.999994 0.996816
1.00131 0.999976 0.995335
1.0012 0.99997 0.996899
1.00087 1 0.994189
1.00297 0.999968 0.989932
1.00125 0.999941 0.997134
1.00344 1.00006 0.990741
1.00109 0.999966 0.993906
1.00099 1.00005 0.993986
1.00063 1.00106 0.993631
1.00349 1.00019 0.989901
1.00108 1.00004 0.995518
1.00131 1.00015 0.993615
1.00121 1.00098 0.993014
1.00148 0.999946 0.993574
1.00328 1.00013 0.990271
1.00322 1.00077 0.989705
1.00331 1.00015 0.990194
1.00527 1.00105 0.985647
1.00118 1 0.996898
1.00153 1.00009 0.99349
1.00268 0.999991 0.99176
1.00297 1.00019 0.990654
1.00315 1.00016 0.990394
1.00526 1.00014 0.986522
1.00525 1.0004 0.986217
1.00148 1.00058 0.992877
1.00269 1.0019 0.989409
1.00529 1.00153 0.985109
1.00527 1.00016 0.985774
1.00172 1.00001 0.996699
1.00113 1.00077 0.996817
1.00143 1.00054 0.996633
1.00275 1.00151 0.988613
1.00176 0.999897 0.996642
1.0016 1.00019 0.99672
1.00328 1.00004 0.989197
1.00044 1.00096 0.995621
1.00303 1.00069 0.988945
1.00242 1.0022 0.989471
1.00504 1.00133 0.985036
1.00065 1.0003 0.997332
1.00054 1.00237 0.991598
1.00344 1 0.989057
1.00333 1.00013 0.989114
1.00529 1.00043 0.985602
1.00178 1.0027 0.99099
1.0052 1.00099 0.985131
1.00399 1.00281 0.985302
1.00536 1.00146 0.98424
1.00016 0.999084 0.998129
1.0002 0.999632 0.997889
1.00164 0.999962 0.996639
1.00137 0.99999 0.996792
1.00125 0.999977 0.996889
1.00113 1 0.995495
1.003 0.999955 0.99065
1.00146 0.99994 0.995253
1.00332 1.00008 0.99003
1.0012 0.999983 0.996919
1.00279 0.999831 0.990297
1.00324 1.00003 0.991042
1.00502 0.99924 0.987349
1.00344 1.00004 0.990672
1.00526 0.999485 0.986699
1.00123 0.999996 0.993883
1.00092 1.00012 0.993992
1.00059 1.00147 0.993286
1.0011 0.999908 0.993938
1.00345 1.00012 0.99008
1.00351 1.00006 0.990033
1.00349 1.00053 0.989558
1.00527 1.00103 0.985692
1.00123 0.999982 0.996908
1.00114 1.00009 0.993855
1.00287 0.999943 0.990599
1.00314 1.00015 0.99046
1.00126 1.00106 0.994695
1.00303 1.00168 0.989509
1.00333 1.00011 0.990216
1.00526 0.999981 0.98673
1.00527 1.00153 0.985178
1.00526 1.00058 0.986087
1.00527 1.00016 0.985805
1.00276 0.999857 0.990332
1.0028 1.00007 0.990973
1.00493 0.998994 0.988292
1.00515 0.999593 0.987284
1.00526 1.00003 0.986617
1.00534 0.998209 0.987895
1.00073 1.00092 0.99707
1.00528 0.999362 0.986551
1.00208 1.0029 0.98821
1.00515 1.00183 0.984312
1.00527 1.00105 0.984973
1.00525 0.99785 0.987936
1.00114 1.00306 0.989805
1.00236 1.00437 0.986553
1.00178 0.999914 0.996661
1.00159 1.00023 0.996706
1.00331 1.00001 0.989179
1.00067 1.00063 0.997221
1.00202 1.00252 0.988722
1.00305 1.00067 0.988964
1.0051 1.00122 0.985028
1.00048 1.00031 0.997475
1.00047 1.00249 0.991612
1.00346 1.00004 0.989849
1.00336 1.00019 0.98985
1.00529 1.00044 0.985574
1.00133 1.00288 0.989639
1.00522 1.00096 0.985116
1.00421 1.00241 0.985275
1.00536 1.00136 0.984428
1.00093 1.00264 0.990563
1.00032 1.00178 0.992647
1.00202 1.00462 0.987426
1.00529 1.00012 0.985936
1.00529 1.00069 0.985323
1.00529 0.999114 0.986882
1.00325 1.00338 0.985883
1.00532 1.00039 0.985582
1.00525 1.00219 0.983816
1.00532 1.00019 0.985396
1.00008 0.998511 0.998462
1.00008 0.999003 0.998267
1.00012 0.999497 0.998051
1.00084 1.00298 0.990503
1.00042 1.00077 0.997336
1.00176 0.999923 0.996623
1.00147 0.999985 0.996709
1.00316 1.00011 0.989376
1.00286 0.999965 0.990016
1.00124 0.999975 0.996868
1.00118 0.999974 0.996914
1.00277 0.999844 0.990287
1.00314 1.00004 0.990339
1.005 0.999249 0.98735
1.0033 1.00008 0.989175
1.00524 0.999502 0.986687
1.00272 0.999823 0.990395
1.00498 0.999097 0.98756
1.00511 0.999329 0.987067
1.00532 0.996129 0.990125
1.00529 0.999805 0.986305
1.00536 0.997034 0.989145
1.00119 0.999981 0.996908
1.00074 1.00017 0.99422
1.0029 0.999934 0.989592
1.00331 1.00015 0.990264
1.00049 1.00167 0.996995
1.00345 1.00125 0.989614
1.00351 1.00006 0.99004
1.00526 0.999811 0.986941
1.00527 1.00074 0.985954
1.00524 1.00151 0.985249
1.00527 1.00016 0.985836
1.00274 0.999851 0.990336
1.00297 1.00009 0.99078
1.00496 0.998959 0.988029
1.00517 0.999775 0.987074
1.00088 1.00096 0.99694
1.00231 1.00263 0.989157
1.00499 1.0021 0.984624
1.00526 1.00009 0.986574
1.00535 0.99784 0.988308
1.00529 1.00094 0.985039
1.00528 0.999508 0.986496
1.00525 0.997882 0.987948
1.00118 1.00301 0.989784
1.00244 1.00427 0.986548
1.00493 0.999145 0.987593
1.00502 0.999326 0.987838
1.00531 0.996865 0.989363
1.00536 0.997012 0.989078
1.0053 0.998528 0.987487
1.00525 0.99564 0.990427
1.00148 1.00314 0.98901
1.00525 0.996702 0.989128
1.00444 1.00266 0.984686
1.00532 1.00182 0.983943
1.00525 0.999436 0.986494
1.00523 0.99619 0.989754
1.00318 1.00374 0.985583
1.00168 1.00489 0.987397
1.00393 1.00241 0.985984
1.00333 1.00002 0.989149
1.00027 1.00013 0.997637
1.00037 1.00252 0.991626
1.00321 1.00018 0.989157
1.00529 1.00046 0.985546
1.00128 1.00302 0.989545
1.00444 1.00203 0.985248
1.00527 1.00094 0.985095
1.00536 1.00123 0.984616
1.00089 1.00274 0.990578
1.00017 1.00184 0.992679
1.00169 1.00468 0.987403
1.00529 1.00015 0.985907
1.00528 1.0007 0.985299
1.00529 0.999114 0.986862
1.00341 1.0032 0.985892
1.0053 1.0005 0.985486
1.00533 1.00214 0.983764
1.00533 0.999898 0.985622
1.00016 1.00104 0.9936
1.00286 1.00377 0.986589
1.0012 1.0048 0.988339
1.00317 1.0022 0.987475
1.0053 0.998374 0.987677
1.00529 0.999847 0.986111
1.00525 0.996975 0.988859
1.00484 1.00238 0.984238
1.00524 0.998575 0.987395
1.00535 1.00128 0.984647
1.00536 0.998885 0.986721
1.00022 1.00264 0.991913
1.00026 0.999726 0.994703
1.00008 0.997979 0.99868
1.00004 0.998406 0.998547
1.00001 0.998879 0.998383
1.00039 1.0027 0.991422
1.00021 1.00039 0.997602
1.0009 1.00286 0.990458
1.00054 1.00077 0.997246
1.00328 1.00011 0.989174
1.003 1.00004 0.989699
1.00523 0.999519 0.986681
1.00499 0.999264 0.987351
1.00279 0.999861 0.990285
1.00123 0.999961 0.996912
1.00274 0.999815 0.990397
1.00495 0.999107 0.987568
1.00512 0.999354 0.987061
1.00532 0.996153 0.990132
1.00528 0.999821 0.986281
1.00535 0.99701 0.989147
1.00493 0.999073 0.987644
1.0053 0.996038 0.990292
1.00537 0.996478 0.989705
1.00532 0.994948 0.99126
1.00531 0.997667 0.988465
1.00524 0.99505 0.991075
1.00275 0.999851 0.990346
1.00314 1.00007 0.990589
1.00499 0.998906 0.987768
1.00519 0.999953 0.986865
1.00105 1.00102 0.996781
1.00271 1.00245 0.989874
1.00483 1.00233 0.984931
1.00527 1.00014 0.98653
1.00535 0.997472 0.98872
1.00528 0.999659 0.986443
1.00531 1.00084 0.985105
1.00524 0.997913 0.987961
1.00122 1.00294 0.989764
1.00245 1.00413 0.986544
1.00494 0.998921 0.987818
1.00504 0.999299 0.987813
1.00531 0.996766 0.989487
1.00537 0.997393 0.988675
1.00155 1.00311 0.989017
1.00425 1.00287 0.984714
1.00532 1.00196 0.983792
1.00529 0.998747 0.98733
1.00524 0.995452 0.990625
1.00525 0.999204 0.986735
1.00526 0.996731 0.989117
1.00523 0.996155 0.989656
1.00318 1.00393 0.985528
1.00384 1.00263 0.985774
1.00162 1.00476 0.987447
1.00531 0.996673 0.989602
1.00534 0.997007 0.989211
1.00528 0.995103 0.991107
1.00529 0.994982 0.991069
1.00525 0.995834 0.990036
1.00524 0.994921 0.990953
1.00365 1.00355 0.985063
1.00524 0.995228 0.990457
1.00531 1.00285 0.983034
1.00527 1.00063 0.985035
1.00522 0.997772 0.988106
1.00521 0.995724 0.990151
1.00099 1.00509 0.988007
1.0047 1.00294 0.984378
1.00306 1.0034 0.986242
1.00505 1.00252 0.984425
1.00528 1.00017 0.985879
1.00008 1.00192 0.992705
1.00073 1.00297 0.990601
1.00142 1.00466 0.987379
1.00529 1.0007 0.985273
1.00529 0.999115 0.986842
1.00354 1.00285 0.985905
1.00536 1.00213 0.983712
1.0053 1.00061 0.985389
1.00533 0.999613 0.985849
1.00012 1.00099 0.993641
1.00274 1.00361 0.986642
1.00098 1.00494 0.988312
1.00315 1.00215 0.987521
1.0053 0.998375 0.987658
1.00529 0.999843 0.986089
1.00525 0.996961 0.98886
1.00497 1.00237 0.984221
1.00524 0.998764 0.987163
1.00532 1.00115 0.984623
1.00535 0.998745 0.986902
1.00022 1.00023 0.994311
1.00079 1.00426 0.989551
1.00388 1.00231 0.985947
1.00227 1.0037 0.988021
1.0038 0.999901 0.988801
1.00526 0.996138 0.989749
1.00524 0.997793 0.987991
1.00523 0.995781 0.989866
1.00514 1.00208 0.98415
1.00527 0.997479 0.988231
1.00517 0.999969 0.985849
1.00043 1.0028 0.991385
1.00031 1.00447 0.990011
1.00009 1.00226 0.992517
1.00019 1.00265 0.991917
1.00021 0.999411 0.995768
1.00024 0.99966 0.995125
1.00024 0.997545 0.997254
1.00007 0.997918 0.998723
1.00001 0.998294 0.998617
0.999944 1.00215 0.992674
1.00003 0.999859 0.997996
1.0005 1.00261 0.991415
1.00034 1.00049 0.997496
1.00098 1.00276 0.990412
1.00067 1.00083 0.997156
1.00526 0.999836 0.986258
1.00511 0.999373 0.987051
1.00533 0.997013 0.98915
1.00532 0.996174 0.990139
1.00493 0.999118 0.987576
1.00274 0.999801 0.990394
1.00493 0.999073 0.987649
1.0053 0.996043 0.990295
1.00535 0.996505 0.989716
1.00531 0.994943 0.991267
1.00532 0.997652 0.988453
1.00526 0.995031 0.991097
1.00531 0.996097 0.990245
1.0053 0.994954 0.991321
1.00529 0.994927 0.991242
1.00525 0.994953 0.991228
1.00524 0.995457 0.990555
1.00525 0.994884 0.991026
1.00494 0.998698 0.988045
1.00507 0.999274 0.987789
1.00531 0.996701 0.989611
1.00539 0.997752 0.988274
1.00161 1.00309 0.98903
1.00402 1.00322 0.984752
1.00534 1.00208 0.983643
1.00528 0.998959 0.987174
1.00523 0.99526 0.990823
1.00527 0.996765 0.989106
1.00525 0.99897 0.986977
1.00523 0.996105 0.989557
1.00324 1.00419 0.98547
1.00375 1.00276 0.985562
1.00157 1.0046 0.987496
1.00531 0.996453 0.989863
1.00534 0.996966 0.989224
1.00529 0.995037 0.991187
1.00528 0.995159 0.990884
1.00358 1.00371 0.985075
1.0053 1.00288 0.983095
1.00527 1.0008 0.984814
1.00525 0.996058 0.989788
1.00524 0.994916 0.990924
1.00523 0.997636 0.988084
1.00525 0.995246 0.990429
1.00522 0.99562 0.990193
1.00438 1.00319 0.98436
1.00489 1.00253 0.984185
1.00118 1.00497 0.988026
1.00294 1.00335 0.986241
1.00528 0.99496 0.991359
1.0053 0.995176 0.990869
1.00524 0.994949 0.991275
1.00524 0.994913 0.990963
1.00527 0.994923 0.990773
1.00529 0.994911 0.990756
1.00521 1.00316 0.98311
1.00524 0.994936 0.99061
1.00525 1.0022 0.983552
1.00522 0.999738 0.98586
1.0052 0.997019 0.988633
1.00524 0.995646 0.990082
1.0007 1.00467 0.988997
1.00186 1.00497 0.986351
1.00513 1.00346 0.982858
1.00466 1.00267 0.985513
1.00491 1.00393 0.982923
1.00007 1.00092 0.993684
1.0053 0.998376 0.987639
1.00078 1.00509 0.988284
1.00255 1.00362 0.986693
1.00313 1.002 0.987565
1.00529 0.999841 0.986068
1.00525 0.996947 0.988861
1.0052 1.00217 0.984202
1.00531 1.00107 0.9846
1.00523 0.998939 0.986932
1.00534 0.998624 0.987082
1.0002 1.00017 0.994338
1.00055 1.00442 0.989558
1.00414 1.00195 0.986028
1.00192 1.00372 0.987942
1.0038 0.999944 0.988281
1.00526 0.996109 0.98976
1.00524 0.997772 0.987991
1.00523 0.995733 0.98987
1.00514 1.00216 0.984062
1.00528 0.997571 0.988051
1.0052 0.999989 0.98603
1.0005 1.00341 0.990704
1.00124 1.00497 0.988636
1.00451 1.0019 0.985372
1.003 1.00156 0.98855
1.00488 1.00055 0.987457
1.00528 0.995175 0.990504
1.00523 0.996493 0.989026
1.00523 0.995394 0.989972
1.00501 1.00131 0.984608
1.00516 0.998634 0.986888
1.0004 1.00289 0.991374
1.00057 1.0039 0.989925
1.00006 1.00451 0.990029
1.00054 1.00448 0.990019
1.00009 1.00419 0.990731
0.999998 1.00195 0.992951
1.00003 1.00229 0.992538
1.00017 0.999133 0.996055
1.00017 1.00268 0.991922
1.00023 0.999329 0.995811
1.00027 0.997245 0.997443
1.00024 0.999624 0.995536
1.00015 0.997603 0.998041
1.00007 0.997826 0.998761
0.999776 1.00105 0.994036
1.00005 1.00204 0.992672
0.999819 0.999118 0.998458
1.00016 0.999913 0.997833
1.00059 1.00247 0.991409
1.00044 1.00055 0.997396
1.00533 0.997635 0.98844
1.00532 0.996509 0.989727
1.00527 0.995011 0.991117
1.00531 0.994939 0.991275
1.00531 0.996047 0.990298
1.00493 0.999074 0.987654
1.00531 0.9961 0.990245
1.0053 0.994956 0.991329
1.00529 0.994926 0.991258
1.00526 0.994955 0.991209
1.00525 0.995413 0.990574
1.00526 0.994878 0.991017
1.00529 0.994957 0.991351
1.00526 0.994937 0.991329
1.00525 0.994949 0.991119
1.00528 0.994933 0.991172
1.00528 0.994889 0.990879
1.00532 0.994901 0.990872
1.00531 0.996229 0.990124
1.00534 0.99694 0.989238
1.00529 0.994949 0.991268
1.00527 0.99535 0.990699
1.00352 1.00379 0.985088
1.00525 1.00287 0.983151
1.00527 1.00091 0.984591
1.00526 0.996282 0.98954
1.00525 0.994911 0.990895
1.00525 0.995261 0.9904
1.00524 0.997508 0.988063
1.00523 0.995474 0.990241
1.00398 1.00372 0.984345
1.00494 1.00267 0.983947
1.00135 1.00482 0.988045
1.00285 1.00308 0.986243
1.00529 0.994961 0.991354
1.00531 0.995159 0.990907
1.00525 0.994947 0.991248
1.00524 0.994919 0.990977
1.00501 1.00341 0.983126
1.00526 1.00228 0.983424
1.00522 0.999704 0.985845
1.00527 0.994928 0.990746
1.00529 0.994908 0.990735
1.00521 0.996987 0.988635
1.00525 0.994922 0.990594
1.00524 0.995449 0.990224
1.0051 1.00357 0.982933
1.00476 1.00426 0.982733
1.00418 1.00246 0.985551
1.00068 1.00446 0.989066
1.00177 1.00502 0.986469
1.00525 0.994949 0.99128
1.00527 0.994938 0.991095
1.00531 0.994895 0.990688
1.00528 0.99489 0.990702
1.00518 1.00349 0.982599
1.00525 0.994935 0.990527
1.00516 1.00146 0.984009
1.00517 0.999058 0.98647
1.00521 0.996601 0.988859
1.00004 1.00379 0.990711
1.00144 1.00509 0.987739
1.00252 1.00502 0.985903
1.00493 1.00466 0.982372
1.00507 1.00283 0.984185
1.00485 1.00369 0.982602
1.00018 1.00012 0.994365
1.00035 1.00465 0.989565
1.00526 0.996082 0.989771
1.00155 1.00386 0.987863
1.0044 1.00182 0.986112
1.00385 1.00015 0.987765
1.00524 0.997752 0.987989
1.00524 0.995687 0.989874
1.0052 1.00213 0.983977
1.00521 1.00003 0.986212
1.0053 0.997649 0.987869
1.00043 1.00353 0.990702
1.00077 1.00508 0.988614
1.0048 1.00178 0.985032
1.00289 1.00147 0.988569
1.00449 1.00001 0.987229
1.00526 0.995133 0.990527
1.00525 0.996512 0.989003
1.00524 0.995431 0.989936
1.00504 1.00135 0.984708
1.00516 0.998756 0.98683
1.00084 1.00449 0.989486
1.00076 1.00426 0.988713
1.00487 1.00214 0.98454
1.0038 1.00045 0.987448
1.0049 1.00126 0.985958
1.00524 0.994882 0.990552
1.00528 0.996728 0.988532
1.00531 0.995778 0.98933
1.00506 1.00038 0.985681
1.00513 0.99909 0.986616
1.00036 1.00295 0.991362
1.00059 1.004 0.989883
0.999927 1.00397 0.990788
0.999916 1.00451 0.990044
0.999943 1.00427 0.990725
0.99993 1.00473 0.990176
0.999955 1.00333 0.991622
0.999738 1.00486 0.990277
0.999911 1.00378 0.991323
0.999995 1.00193 0.992974
1 1.00191 0.992954
1.00008 0.999042 0.996271
0.999996 1.00222 0.992556
1.00018 0.999107 0.996096
1.00022 0.997116 0.997627
1.00025 0.999265 0.995859
1.00022 0.997306 0.997436
1.00003 0.997632 0.998852
0.999802 0.999972 0.995079
0.999829 1.00108 0.993987
0.999739 0.998458 0.99879
1.00021 1.0019 0.992671
0.999954 0.999287 0.998288
1.00028 1.00008 0.997684
1.00525 0.995368 0.990592
1.0053 0.994926 0.991274
1.00526 0.994872 0.991009
1.00526 0.994956 0.991191
1.00529 0.994957 0.991337
1.0053 0.996104 0.990245
1.00529 0.99496 0.991364
1.00526 0.994938 0.99133
1.00525 0.994951 0.991123
1.00528 0.994931 0.991159
1.00527 0.994891 0.990904
1.00532 0.9949 0.99081
1.00525 0.994943 0.991326
1.00528 0.994924 0.991255
1.0053 0.994926 0.991023
1.00531 0.994854 0.990685
1.00529 0.994962 0.991349
1.00531 0.99514 0.990945
1.00525 0.994943 0.99122
1.00523 0.994925 0.990992
1.00486 1.00344 0.983142
1.00526 1.00241 0.983299
1.00522 0.999717 0.985831
1.00527 0.994934 0.990719
1.00529 0.994906 0.990715
1.00525 0.994918 0.990578
1.00522 0.99693 0.988634
1.00521 0.995407 0.990364
1.00476 1.00374 0.983006
1.00473 1.00435 0.982545
1.00384 1.00257 0.985585
1.0007 1.00425 0.989147
1.0017 1.00505 0.986588
1.00525 0.994949 0.99127
1.00526 0.994938 0.991115
1.00531 0.994903 0.990714
1.0052 1.00349 0.982652
1.00514 1.0017 0.98389
1.00517 0.99904 0.986473
1.00527 0.994893 0.990705
1.0052 0.996501 0.989075
1.00525 0.99494 0.990501
0.999967 1.0036 0.990957
1.00464 1.00454 0.98246
1.00463 1.00491 0.98218
1.00474 1.00311 0.984298
1.00293 1.0046 0.985829
1.00114 1.00509 0.987767
1.00528 0.994932 0.991194
1.00531 0.99491 0.990901
1.0053 0.994892 0.990603
1.00526 0.994856 0.99059
1.005 1.00344 0.982997
1.0052 0.995221 0.990422
1.00501 1.00097 0.984829
1.00514 0.998773 0.986702
0.999927 1.00188 0.992679
1.00041 1.00499 0.989488
1.0021 1.00507 0.987281
1.00333 1.00476 0.984569
1.00445 1.00477 0.983459
1.00485 1.00413 0.982818
1.00034 1.00364 0.990699
1.00031 1.0051 0.988593
1.00525 0.995085 0.990551
1.0028 1.00131 0.988584
1.00516 1.00164 0.984689
1.00381 1.00012 0.986997
1.00527 0.996531 0.98898
1.00525 0.995466 0.989899
1.00508 1.00148 0.984805
1.00517 0.998892 0.986772
1.00062 1.00453 0.9895
1.00122 1.00421 0.988464
1.00486 1.00215 0.984519
1.00413 1.00054 0.987531
1.00471 1.00153 0.985793
1.00526 0.994927 0.99057
1.00528 0.996617 0.988775
1.00529 0.995829 0.989421
1.00506 1.00035 0.985654
1.00508 0.999359 0.98638
0.9996 1.00446 0.989859
1.00097 1.00332 0.988711
1.00486 1.00119 0.985493
1.00492 1.00061 0.98574
1.00535 0.994835 0.990448
1.00528 0.995248 0.990176
1.00524 0.998026 0.987141
1.0051 0.999778 0.985828
1.00083 1.00394 0.989841
1.0001 1.00396 0.99068
0.99911 1.00365 0.993162
0.999776 1.00443 0.990723
0.9993 1.00497 0.990333
0.999907 1.00378 0.991304
0.999602 1.00346 0.992038
0.999805 1.00495 0.990207
0.999753 1.00094 0.994377
0.999733 1.00448 0.990936
0.999678 1.00464 0.990424
1.00006 1.00358 0.991285
0.999958 1.00214 0.992757
0.999954 1.00194 0.992962
0.999966 0.999075 0.996386
0.999975 1.0019 0.992959
1.00009 0.999028 0.996288
1.00014 0.997131 0.997734
1.00018 0.999066 0.996138
1.00021 0.997136 0.997618
1.00018 0.997369 0.99742
0.999954 0.999184 0.995682
0.999802 1.00012 0.995013
0.999723 0.997945 0.998969
0.999837 1.00122 0.993937
0.999791 0.998572 0.998697
1.0001 0.999341 0.998101
1.00527 0.994897 0.990929
1.00526 0.994953 0.991126
1.00531 0.994898 0.990747
1.00527 0.994929 0.991145
1.00526 0.994937 0.991332
1.00529 0.994962 0.991376
1.00525 0.994942 0.991335
1.00528 0.994922 0.991247
1.0053 0.994923 0.990995
1.00531 0.994851 0.990694
1.00528 0.994923 0.991276
1.00527 0.994915 0.99117
1.00533 0.994882 0.990794
1.00524 0.99495 0.99126
1.00526 0.994939 0.991135
1.00531 0.99491 0.990739
1.00525 1.00343 0.982709
1.00514 1.00188 0.98377
1.00517 0.998901 0.986474
1.00527 0.994894 0.990709
1.00526 0.994933 0.990473
1.00523 0.996296 0.989289
1.00446 1.00448 0.982547
1.00487 1.00514 0.981781
1.00435 1.00326 0.984411
1.00001 1.00342 0.991211
1.00337 1.00436 0.985755
1.0008 1.0051 0.987786
1.00528 0.994934 0.991213
1.00531 0.994906 0.99087
1.00531 0.994888 0.990597
1.00501 1.00342 0.983013
1.00497 1.00087 0.984741
1.00513 0.99861 0.987037
1.00526 0.994859 0.990561
1.00504 0.995206 0.99037
0.999939 1.00187 0.992896
1.0003 1.00497 0.989467
1.00446 1.00362 0.983297
1.00469 1.00398 0.983025
1.00368 1.00446 0.984692
1.00185 1.00508 0.987086
1.00529 0.99491 0.991145
1.00534 0.994845 0.99062
1.0053 0.994889 0.990553
1.0052 0.994882 0.99038
1.00437 1.00246 0.984253
1.00516 0.996363 0.989207
1.00502 1.00083 0.985167
1.00013 1.00094 0.99376
1.00025 1.0021 0.992539
0.999558 1.00372 0.99169
1.00092 1.00504 0.988549
1.00164 1.00507 0.986436
1.00425 1.00439 0.983199
1.00314 1.00442 0.985013
1.00367 1.0051 0.984658
1.00032 1.00457 0.989515
1.00171 1.00418 0.988213
1.00527 0.994973 0.990588
1.00441 0.999571 0.987617
1.00482 1.00215 0.984503
1.00463 1.0018 0.985635
1.00528 0.996485 0.98902
1.00528 0.995865 0.989515
1.00506 1.00025 0.985627
1.00502 0.99957 0.986146
1.0003 1.00416 0.989672
1.00164 1.00339 0.988452
1.0049 1.00119 0.985355
1.00507 1.00083 0.985946
1.00535 0.99481 0.99044
1.0053 0.995239 0.990112
1.00519 0.997966 0.987254
1.00512 0.99988 0.985874
0.999456 1.00443 0.990545
1.00539 0.994883 0.990435
1.00325 1.00271 0.987973
1.00496 1.00065 0.985621
1.0053 0.994732 0.990811
1.00519 0.997143 0.987122
1.00505 1.00071 0.985534
1.00023 1.00397 0.990573
0.998981 1.00346 0.993092
0.997837 1.00231 0.996151
0.9999 1.00369 0.991285
0.999806 1.00503 0.990136
0.998417 1.00426 0.992451
1.00008 1.00346 0.991272
0.999701 1.00472 0.990444
0.998677 1.00189 0.994783
0.999846 1.00441 0.990813
0.999289 0.99962 0.997271
0.998817 1.00299 0.993549
0.999633 1.00504 0.990304
1.00031 1.00456 0.989773
1.00019 1.00368 0.990869
0.999934 1.00237 0.992581
0.999894 1.00228 0.992735
0.99984 0.999257 0.996458
0.999907 1.00204 0.992951
0.999982 0.999112 0.996387
1.00002 0.997268 0.997817
1.0001 0.999005 0.996309
1.00014 0.997147 0.997729
1.0002 0.997164 0.997603
1.00013 1.00087 0.993873
1.00002 0.998739 0.996014
0.999937 0.999282 0.995635
0.999799 0.997592 0.999059
0.999801 1.00022 0.994948
0.999759 0.998072 0.998929
0.99988 0.998709 0.998574
1.0053 0.994851 0.990704
1.0053 0.994921 0.990967
1.00528 0.99492 0.99124
1.00525 0.994942 0.991345
1.00528 0.99492 0.991282
1.00528 0.994913 0.991179
1.00532 0.994884 0.990752
1.00528 0.994909 0.991221
1.00535 0.994895 0.991021
1.00551 0.995093 0.991073
1.00528 0.994936 0.991233
1.0053 0.9949 0.990838
1.00532 0.994887 0.99059
1.00476 1.00344 0.983032
1.00504 1.00123 0.984677
1.00491 0.998523 0.987362
1.00526 0.994871 0.990531
1.00505 0.995272 0.990319
1.0041 1.00411 0.983136
1.00437 1.00441 0.983185
1.00383 1.00397 0.984813
0.999955 1.00177 0.993111
1.00017 1.00502 0.989444
1.00161 1.00508 0.986888
1.00529 0.994907 0.991124
1.00012 1.00092 0.993751
1.00016 1.00213 0.992395
1.00533 0.994861 0.990632
1.00529 0.994892 0.990562
1.00464 1.00271 0.984163
1.00479 1.0007 0.985436
1.00509 0.996364 0.989121
1.00521 0.994874 0.990335
0.999664 1.00365 0.991845
1.00088 1.00505 0.988493
1.00333 1.00433 0.984884
1.00368 1.00475 0.983897
1.00438 1.00444 0.983145
1.00181 1.00506 0.986403
1.00538 0.994865 0.990877
1.00534 0.994846 0.990496
1.00524 0.994866 0.990498
1.00517 0.99491 0.990398
1.00385 1.00206 0.985729
1.00467 0.999834 0.987194
1.0001 1.00257 0.991945
0.999913 1.00221 0.992805
1.00163 1.00048 0.992254
1.00066 1.00384 0.989778
1.00117 1.00509 0.987974
1.00278 1.00454 0.986134
1.00261 1.0051 0.984032
1.00196 1.00143 0.989591
1.00079 1.00394 0.989487
1.00234 1.00355 0.988191
1.00536 0.994786 0.990432
1.00532 0.995259 0.990049
1.00519 1.00126 0.986149
1.00496 1.00124 0.985216
1.00515 0.997921 0.987365
1.00514 1.00001 0.985923
1.00009 1.00403 0.990422
1.0054 0.994903 0.990667
1.0025 1.0029 0.988247
1.00501 1.00069 0.985544
1.00531 0.994755 0.990821
1.00518 0.997319 0.98733
1.00493 1.00059 0.985481
0.999166 1.00501 0.991838
1.00495 0.994782 0.99074
1.00243 1.00224 0.988218
1.00461 1.00184 0.984613
1.00508 0.995594 0.990026
1.00372 1.001 0.986293
0.998827 0.994753 0.985736
0.998755 1.00355 0.993028
0.997648 1.00257 0.996191
0.99773 1.00182 0.997327
1 1.00351 0.991258
0.999607 1.00489 0.990465
1.00033 1.00417 0.990693
0.998145 1.00214 0.995206
1.00012 1.00378 0.990869
1.00022 1.00452 0.989887
0.999163 0.999363 0.997252
0.999666 1.00498 0.990304
0.999278 1.00304 0.993079
0.997903 1.00157 0.997365
1.00037 1.00402 0.990354
1.00007 1.0049 0.990083
1.00074 1.00436 0.989527
1.00015 1.00406 0.990317
1.00039 1.00493 0.989797
1.00007 1.0043 0.990143
0.999903 1.00242 0.99255
0.999914 1.0024 0.992565
0.999718 0.999317 0.995926
0.999885 1.00227 0.992714
0.999825 0.999294 0.996135
0.999987 0.997388 0.99909
0.999992 0.999156 0.996389
1.00004 0.997241 0.997813
1.00016 0.997159 0.997719
1.00003 1.00072 0.99408
1.00015 1.00076 0.993907
1.00008 0.998462 0.996266
1.00002 0.998759 0.996302
0.999857 0.997308 0.999132
0.999912 0.999415 0.995588
0.9998 0.997668 0.999039
0.999795 0.998118 0.998887
1.0053 0.994884 0.990709
1.00528 0.994911 0.991188
1.00528 0.994918 0.991288
1.00528 0.994908 0.991222
1.00534 0.994895 0.990987
1.00551 0.99504 0.990862
1.00543 0.994876 0.991014
1.00124 0.994838 0.981191
1.00489 0.995115 0.991754
1.00013 1.00195 0.992699
1.00529 0.994906 0.991103
1.00533 0.994875 0.990644
1.00528 0.994884 0.990571
1.00474 1.0024 0.984049
1.00501 1.00021 0.985684
1.00483 0.996212 0.989028
1.00522 0.994859 0.990293
1.00389 1.00344 0.984808
1.00435 1.00446 0.98321
1.00426 1.00447 0.983087
1.0001 1.00095 0.993744
1.00241 1.00506 0.986368
0.999733 1.00358 0.991984
1.00082 1.00505 0.988436
1.0001 1.00215 0.992253
1.00538 0.994862 0.990877
1.00008 1.00251 0.992118
0.999891 1.00229 0.992835
1.00105 1.00078 0.992698
1.00534 0.994847 0.990471
1.00522 0.994857 0.990455
1.00312 1.00299 0.985826
1.00485 0.998643 0.987649
1.00517 0.994898 0.990347
1.00051 1.00384 0.989985
1.00141 1.00508 0.987818
1.00239 1.00254 0.988752
1.00332 1.00509 0.983752
1.00319 1.00363 0.986294
1.00537 0.994739 0.991004
1.00525 0.994833 0.990691
1.00519 0.99488 0.990039
1.00511 0.996617 0.990581
1.00176 1.00114 0.989723
0.999491 1.00344 0.991877
1.00169 1.0008 0.991549
1.00009 1.00032 0.993074
1.00103 1.00428 0.989921
1.00072 1.00491 0.989046
1.00096 1.00399 0.988132
1.00151 1.00012 0.991891
1.00114 1.0035 0.990286
1.00151 1.00312 0.988527
1.0054 0.994967 0.990891
1.00532 0.994756 0.990822
1.00518 0.997463 0.987538
1.00509 1.00072 0.985462
1.00481 1.00046 0.985435
0.999612 1.00475 0.991922
1.00465 0.994817 0.990948
1.00265 1.00219 0.988123
1.00476 1.0018 0.984543
1.00503 0.995483 0.990328
1.00398 1.00091 0.986372
0.99859 0.995767 0.983808
0.997972 1.00439 0.993548
1.00318 0.995277 0.991124
1.00319 1.00256 0.985982
1.00304 1.00123 0.986913
1.00354 0.997531 0.990623
0.999962 0.994887 0.942165
0.99508 0.994781 0.963726
0.995792 0.998928 0.987784
0.998796 0.994791 0.855156
0.994708 0.994868 0.81603
0.997604 1.00259 0.996224
0.997439 1.00194 0.997467
0.997277 1.00311 0.997085
1.0001 1.00381 0.99087
1.00019 1.00444 0.99
0.999798 1.00498 0.990306
0.999596 1.00323 0.992588
0.999003 0.999019 0.997223
0.999939 1.00497 0.990158
1.00021 1.00403 0.990395
1.00063 1.0044 0.989524
0.998311 1.00066 0.996849
0.99991 1.00433 0.990754
1.00046 1.00432 0.990887
0.998481 1.0042 0.992988
0.999875 1.00473 0.990549
1.00058 1.00466 0.988991
1.00015 1.00414 0.990316
1.00022 1.005 0.989434
1.00041 1.00397 0.990769
0.999713 1.00493 0.990591
1.00019 1.00486 0.98981
1.00024 1.00414 0.990398
1.00012 1.00429 0.990152
0.999897 1.00249 0.992534
0.999914 1.00244 0.992555
0.999694 0.999359 0.995964
0.999871 1.0025 0.99255
0.999702 0.99936 0.995924
0.999939 0.997379 0.999123
0.999801 0.999347 0.995816
0.999953 0.997387 0.998476
1.00007 0.997219 0.997807
0.999912 1.00052 0.994429
1.00002 1.00076 0.994085
1.00009 0.998265 0.996465
1.00018 1.00063 0.99394
1.00007 0.998406 0.996559
0.999914 0.996997 0.999194
1.00004 0.998835 0.995951
0.999857 0.997449 0.9991
0.999811 0.997771 0.999022
1.00533 0.994894 0.990952
1.00528 0.994908 0.991224
1.00548 0.994903 0.990657
1.00052 0.99484 0.981361
1.00543 0.994875 0.991007
1.00475 0.994963 0.991628
1.00537 0.995376 0.991169
0.99604 0.994895 0.963724
1.00183 0.994918 0.982896
1.0002 1.00162 0.993002
1.0001 1.0021 0.992661
0.999418 1.00387 0.991802
0.999866 1.00252 0.992471
1.00537 0.994859 0.990877
1.00534 0.994856 0.990446
1.00522 0.994861 0.990412
1.00403 1.00353 0.98593
1.00466 0.996932 0.988139
1.00516 0.994899 0.990303
1.00205 1.00301 0.987868
1.00476 1.00485 0.983462
1.00341 1.00204 0.986442
0.999843 1.00239 0.992868
1.00121 1.00507 0.987682
1.00041 1.00392 0.990193
0.999989 1.00264 0.992288
1.00043 1.00115 0.99312
1.00537 0.994761 0.991005
0.999844 1.00347 0.991605
1.00163 1.00046 0.99189
0.998096 1.00101 0.995932
1.00526 0.994846 0.990622
1.00519 0.994939 0.990054
1.00307 1.00015 0.989752
1.00474 0.995714 0.990758
1.00114 1.00441 0.989183
1.00092 1.00451 0.988121
1.00136 1.00125 0.991842
1.00263 1.00344 0.987515
1.00423 0.99539 0.991382
1.00516 0.995017 0.99093
1.00509 0.995731 0.989722
1.00351 0.995998 0.993623
0.997627 1.00465 0.993787
1.0014 1.00151 0.990881
0.997997 1.00453 0.993472
0.999149 1.00436 0.991919
0.999999 0.994896 0.928147
0.999753 1.00458 0.99201
1.00266 1.00254 0.988015
1.00425 0.994818 0.991188
1.00497 0.995399 0.990624
1.00416 1.00085 0.986427
1.00469 1.00186 0.984464
0.998467 0.996566 0.981725
0.998612 1.00415 0.993476
1.00305 0.995674 0.991006
1.00316 1.00302 0.985947
1.00364 1.00106 0.98704
1.00382 0.997692 0.990401
0.99994 0.994869 0.928698
0.995483 0.994812 0.960332
0.99578 0.999231 0.98806
0.997842 0.994771 0.85992
0.99472 0.994873 0.807844
0.999025 1.00421 0.991975
0.999718 0.994814 0.865981
0.994732 0.994821 0.807474
1.00057 0.999048 0.99259
1.00153 1.00202 0.989477
1.00154 0.999711 0.99251
0.994905 0.997811 0.990894
0.997504 0.994803 0.941367
0.994884 0.994787 0.956305
0.996081 0.994815 0.87934
0.994733 0.994827 0.79686
0.997127 1.00215 0.997618
0.997125 1.00262 0.996979
0.997127 1.00468 0.996047
1.00029 1.00397 0.990469
1.00059 1.00441 0.989523
0.999446 1.00506 0.990233
0.999592 1.00454 0.991152
0.998828 0.999885 0.996343
1.00022 1.00405 0.990314
1.00018 1.0044 0.9907
0.999762 1.00489 0.990316
1.00074 1.00467 0.98914
0.998417 1.00395 0.993295
0.999291 1.00411 0.992585
0.997104 1.005 0.994196
0.999948 1.00505 0.989683
1.00049 1.00472 0.98948
1.0004 1.00499 0.989406
1.00018 1.00348 0.991125
1.00014 1.00499 0.990041
1.00018 1.00299 0.991788
0.999115 1.00212 0.992926
0.998775 1.00498 0.99155
0.999381 1.00477 0.990838
0.999811 1.00473 0.990617
1.00013 1.0042 0.990418
1.00005 1.00484 0.989823
1.00026 1.00412 0.990325
0.999985 1.00252 0.992366
1.00019 1.00427 0.99016
0.999922 1.00242 0.992546
0.999895 0.999329 0.996393
0.99987 1.00247 0.99256
0.999747 0.999325 0.996221
0.999894 0.997343 0.997967
0.99969 0.999367 0.99592
0.999931 0.997395 0.999133
0.999939 0.997419 0.99786
1.0003 1.0016 0.992794
0.999925 1.00038 0.994581
0.999914 1.00057 0.994422
1.00005 0.998188 0.996579
1 1.00082 0.99409
1.0001 0.99823 0.996461
0.999963 0.996868 0.999227
1.00007 0.998405 0.996806
0.999915 0.997173 0.998607
0.999877 0.997513 0.997899
1.00003 0.994831 0.9815
1.00546 0.994868 0.990997
1.00471 0.995114 0.99149
0.996286 0.994838 0.964235
1.00198 0.995 0.983283
1.00531 0.995496 0.991158
1.00345 0.996131 0.986257
0.997467 0.99484 0.96664
0.999933 0.994861 0.940968
0.99713 0.994807 0.88088
0.994667 0.994815 0.814522
0.999646 1.00264 0.99254
1.0002 1.00159 0.992988
1.00021 1.002 0.992621
0.999749 1.00327 0.99201
0.998863 1.00442 0.992622
1.00051 1.00225 0.991783
1.00023 1.00312 0.991669
1.00014 1.00229 0.99235
1.0054 0.994786 0.990996
1.00528 0.994857 0.990557
1.00518 0.995061 0.990064
1.00301 1.00062 0.989778
1.00458 0.995488 0.990927
1.00116 1.00165 0.991776
1.00395 1.00358 0.986911
1.00213 1.00485 0.987206
1.00148 1.00021 0.99222
1.00133 1.00455 0.988399
1.00038 1.00319 0.991349
0.996611 1.00189 0.998706
1.00425 0.994892 0.991673
0.998017 1.00437 0.993677
1.00106 1.00179 0.991868
1.00487 0.994928 0.990902
1.00473 0.99582 0.990095
1.00281 0.996106 0.993295
0.999531 1.00502 0.991535
1.00016 1.00305 0.992164
1.00338 0.995039 0.990704
1.00372 0.998605 0.990582
1.0045 0.99549 0.991557
1.00079 0.997378 0.994747
0.999152 1.00488 0.991346
0.998524 1.00476 0.992463
0.999245 1.00517 0.992113
0.999789 0.994923 0.868164
1.00017 0.994865 0.9428
0.999748 1.00355 0.993416
1.00335 1.00336 0.985927
1.00292 0.996294 0.990883
1.00409 0.99787 0.990195
1.00413 1.00099 0.987197
0.99999 0.994852 0.940378
0.99579 0.9948 0.959875
0.995788 0.999131 0.988381
0.997343 0.994824 0.878564
0.994742 0.994836 0.79917
0.999309 1.00422 0.991952
0.999817 0.994853 0.864687
0.9947 0.994805 0.800733
1.00061 0.999045 0.992511
1.00155 1.00225 0.989497
1.00139 0.999835 0.992946
0.9949 0.998835 0.991699
0.998128 0.994814 0.934755
0.994965 0.9948 0.957153
0.995475 0.994825 0.87914
0.99475 0.994824 0.795076
0.998134 1.00435 0.994662
0.994725 0.994794 0.796998
0.994745 0.994775 0.803897
0.996945 1.00169 0.996928
0.999869 1.00171 0.995224
0.994907 0.999275 0.988601
0.995086 0.994869 0.959257
0.995128 0.994782 0.930098
0.99475 0.994876 0.883514
0.994833 0.994855 0.803544
0.997235 1.00202 0.99688
0.997684 1.00409 0.995721
0.99647 1.00384 0.996522
1.00027 1.00398 0.990312
1.00082 1.00458 0.989288
0.999842 1.00504 0.99008
0.999814 1.00452 0.990516
0.998009 1.00376 0.993603
1.00048 1.00476 0.989462
0.999366 1.00385 0.992148
1.00021 1.00499 0.989706
0.996697 1.00491 0.994515
0.995972 1.0051 0.996754
0.998522 1.00481 0.992588
1.00055 1.00505 0.989583
1.00057 1.00474 0.989379
1.00003 1.00304 0.991472
1.00002 1.0049 0.989988
1.00031 1.00279 0.991686
0.99884 1.00274 0.993443
0.99887 1.00428 0.991937
0.998375 1.00513 0.992043
0.998597 1.00222 0.994739
1.00033 1.00221 0.992312
1.00309 0.999291 0.990729
0.99894 1.00486 0.991228
0.999028 1.00487 0.991589
0.999428 1.00505 0.990073
0.999481 1.00492 0.990857
1.00013 1.00424 0.990314
0.999685 1.00482 0.990641
1.00014 1.00421 0.99047
1.00003 1.00265 0.992072
1.00029 1.00416 0.990252
0.999974 1.00252 0.992378
1.00003 0.999325 0.996155
0.999931 1.0024 0.992558
0.999876 0.999306 0.996034
1.00001 0.997258 0.997807
0.999738 0.999315 0.995931
0.999951 0.997328 0.999144
0.999927 0.997387 0.999143
1.00038 1.00201 0.992611
0.999962 1.00054 0.994403
1.00019 1.00179 0.992807
1.00005 0.998136 0.996626
0.99991 1.0004 0.994577
0.999904 1.00062 0.994414
1.00006 0.998187 0.996568
0.999992 0.99678 0.999244
1.00007 0.998245 0.996969
0.999973 0.996874 0.998687
0.999931 0.997175 0.998083
0.999713 0.994834 0.85219
0.994707 0.994787 0.796479
0.996358 0.994843 0.964683
1.00157 0.994908 0.983789
1.00527 0.994776 0.991163
0.997212 0.994897 0.96583
1.00349 0.995035 0.986796
1.00036 0.994868 0.936964
0.997728 0.994758 0.860714
0.994711 0.994839 0.806673
0.997791 0.994752 0.972742
0.997818 0.994842 0.942027
0.996467 0.99483 0.879163
0.994775 0.994845 0.804589
0.999942 1.00353 0.991779
0.999813 1.00239 0.992649
1.00013 1.00172 0.992979
0.99988 1.00297 0.992218
0.998648 1.0042 0.993084
1.00033 1.00366 0.990639
1.00017 1.00303 0.991703
1.00063 1.00353 0.990218
1.00019 1.00311 0.991546
0.999944 1.00269 0.992225
1.00405 0.994759 0.991949
1.00473 0.994871 0.990872
1.00425 0.995821 0.99047
1.00228 0.996569 0.992963
1.00061 1.00259 0.992398
0.999504 1.00509 0.989638
1.00037 1.00183 0.992974
0.998284 1.00409 0.993541
1.00238 0.995097 0.991194
0.999227 1.00497 0.991106
0.998237 1.00494 0.99242
1.00339 0.997817 0.990692
1.00417 0.995527 0.991747
1.00091 0.997813 0.994985
0.999066 1.00509 0.991714
1.00015 0.99538 0.989555
1.0011 0.998878 0.994048
0.99792 1.00212 0.995823
0.998627 1.00459 0.990725
0.998142 1.00501 0.991735
0.998653 1.00509 0.992217
0.994718 0.99483 0.820182
0.999787 0.994878 0.873766
1.00002 0.994873 0.928565
0.999235 1.00426 0.991905
1.00184 1.00249 0.989482
1.00066 0.998823 0.992423
1.00112 0.999818 0.993385
0.999823 0.99489 0.878128
0.997699 0.994822 0.928943
0.994861 0.994819 0.956349
0.994905 1.00011 0.992385
0.996294 0.99483 0.863622
0.994673 0.994795 0.806763
0.994795 0.994861 0.810234
0.998047 1.00375 0.994363
0.994711 0.994804 0.806992
0.994766 0.994782 0.803273
0.997106 1.00018 0.997543
0.999364 1.00147 0.995113
0.994898 0.99803 0.990785
0.995304 0.994818 0.958103
0.996081 0.995196 0.941591
0.994699 0.997022 0.865304
0.995078 0.994853 0.813789
0.996866 1.00343 0.997648
0.994772 0.994824 0.812105
0.994813 0.994807 0.800983
0.994915 1.00234 0.999941
0.995137 0.996788 0.967268
0.994828 0.995912 0.939904
0.994942 0.994919 0.858425
0.995637 0.99489 0.824375
0.998175 1.00295 0.995357
0.99684 1.00416 0.996645
0.995537 1.00413 0.998374
1.00034 1.00481 0.989442
1.00036 1.00505 0.989731
0.99948 1.00353 0.99171
0.99654 1.00474 0.994837
1.0001 1.00505 0.989601
0.998434 1.00488 0.992546
0.995666 1.00507 0.997033
0.994976 1.00481 0.998389
0.995863 1.00512 0.996872
0.99918 1.00511 0.991784
1.00005 1.00505 0.989929
1.00037 1.00237 0.991584
0.99842 1.00321 0.993946
0.998417 1.00513 0.992146
0.999252 1.00416 0.991891
0.998245 1.00272 0.994822
0.998456 1.00428 0.992932
0.995845 1.00517 0.996839
1.00181 0.99829 0.994158
0.999822 1.00186 0.993192
1.0017 1.00055 0.991239
1.00485 1.00002 0.98736
1.0022 1.00142 0.990559
1.00199 0.998945 0.992481
0.999496 1.00462 0.991001
0.999673 1.00514 0.989531
0.999348 1.00471 0.991628
0.999858 1.00509 0.990078
1.00026 1.00454 0.989726
0.999912 1.00477 0.990872
1.00038 1.00405 0.9903
1.00012 1.00288 0.991778
1.00032 1.00396 0.990522
1.00012 1.00263 0.992079
1.00016 0.999397 0.995889
1.00004 1.00243 0.99239
1.00002 0.999336 0.99576
1.0001 0.997331 0.997628
0.999885 0.999272 0.995736
1 0.99727 0.998474
0.999963 0.997298 0.999124
1.00029 1.00267 0.991686
1.00011 1.00067 0.994087
1.00027 1.00207 0.992424
1.00005 0.998183 0.996571
0.999979 1.00048 0.994413
1.00018 1.00176 0.992819
1.00002 0.99673 0.999254
1.00004 0.99814 0.996627
0.99991 1.00044 0.994574
1.00007 0.998176 0.996557
0.999992 0.996817 0.99924
0.999958 0.996872 0.999223
0.994695 0.994767 0.798967
0.999722 0.994844 0.864834
0.994758 0.994772 0.801153
0.994721 0.994782 0.796171
0.997437 0.994871 0.964153
1.00338 0.994782 0.987337
0.999761 0.994835 0.932251
0.998923 0.994811 0.88063
0.994754 0.99484 0.798645
0.9984 0.994812 0.971714
0.998088 0.995309 0.927815
0.995597 0.995329 0.877952
0.994728 0.994834 0.797101
0.99502 0.994821 0.964112
0.996109 0.995036 0.928579
0.994855 0.997394 0.857525
0.994831 0.994869 0.803751
1.00065 1.00465 0.990424
0.999552 1.00352 0.991904
1.00001 1.0021 0.992754
0.998263 1.00382 0.993553
1.00101 1.00361 0.989474
1.00022 1.00358 0.99085
0.999681 1.00349 0.991627
1.00117 1.0029 0.990306
1.00071 1.00366 0.990295
1.00027 1.00287 0.991423
1.00199 0.994782 0.991667
1.00312 0.997274 0.990808
1.00375 0.995618 0.991939
1.00055 0.997242 0.995235
1.00029 1.00506 0.991295
0.998588 1.00509 0.992389
0.999297 1.00505 0.990863
0.999885 1.0047 0.990432
0.999814 0.995967 0.990122
0.999104 1.00506 0.991451
0.999368 1.00505 0.992037
1.00092 0.998707 0.994578
0.999044 1.00096 0.995623
0.996355 1.00046 0.989003
0.996722 0.999599 1.0003
0.995885 1.00457 0.996386
0.998797 1.00441 0.992432
0.997377 1.0051 0.994033
0.9948 0.994811 0.818456
0.994711 0.994809 0.815889
0.999804 0.994902 0.855771
0.998109 1.00358 0.994127
0.999104 1.00102 0.995002
0.997306 0.999692 0.998156
0.994684 0.994789 0.805186
0.996176 0.994778 0.929926
0.995408 0.994845 0.957478
0.994858 0.99617 0.993325
0.994751 0.996568 0.884519
0.994773 0.994786 0.803434
0.995277 0.994856 0.815246
0.997205 1.00335 0.997612
0.994783 0.994825 0.814854
0.9948 0.994807 0.802006
0.995184 1.0016 0.999016
0.995172 0.995965 0.969103
0.99481 0.995793 0.928069
0.995244 0.994878 0.819989
0.995112 0.998614 0.867037
0.994895 1.00467 1.00024
0.994792 0.99483 0.804417
0.994868 0.994829 0.811536
0.994825 0.994873 0.803903
0.994764 0.998789 0.989705
0.994868 0.997875 0.943054
0.997621 0.996062 0.876593
0.997275 1.00476 0.996793
0.995693 1.00468 0.998126
0.994986 1.00518 0.999172
1.00001 1.00506 0.989621
0.998444 1.005 0.992501
0.995437 1.00515 0.997306
0.998766 1.00511 0.991775
0.995941 1.00516 0.996874
0.995029 1.00504 0.99831
0.994956 1.00516 0.998512
0.995601 1.00512 0.997079
0.998249 1.00512 0.99227
0.999555 1.00419 0.991844
0.99813 1.00339 0.994918
0.996034 1.00495 0.996723
0.998357 1.00446 0.992938
0.99868 1.00176 0.995498
0.999027 0.99826 0.998085
1.00228 0.999785 0.989887
0.999416 1.00142 0.994004
1.00217 1.00044 0.990871
1.00458 1.00151 0.986037
1.00488 1.00245 0.984384
1.00404 0.999027 0.989598
1.00393 1.00005 0.987678
1.00114 1.00463 0.988697
1.00141 1.00182 0.990941
1.00081 0.99861 0.994204
1.00006 1.00441 0.990776
0.999975 1.00512 0.989509
1.0003 1.00511 0.988973
1.0003 1.00508 0.990086
1.00042 1.00453 0.989723
1.00017 1.00326 0.991238
1.00052 1.00391 0.990284
1.00018 1.00277 0.991772
1.00019 0.999534 0.995701
1.00011 1.00265 0.992084
1.00014 0.999436 0.995483
1.0002 0.997381 0.997439
1.00003 0.999352 0.995431
1.00009 0.997306 0.998347
1.00004 0.99726 0.999058
1.00065 1.00282 0.990835
1.00014 1.00105 0.993334
1.00045 1.00252 0.991682
1.00012 0.998242 0.996402
1.00008 1.00069 0.993925
1.00019 1.00212 0.99224
1.00005 0.996743 0.999238
1.00006 0.998154 0.996582
0.999992 1.00041 0.994421
1.00002 0.996758 0.999251
1.00003 0.998159 0.996627
0.999993 0.9968 0.999237
0.994818 0.994818 0.808585
0.994703 0.994808 0.812539
0.999697 0.99481 0.863621
1.00117 1.00273 0.990337
0.994816 0.994799 0.807392
0.994759 0.994773 0.801109
0.994755 0.994787 0.809754
0.998922 0.994845 0.970983
0.997289 0.99482 0.941412
0.996135 0.994856 0.86111
0.994696 0.994831 0.806816
0.996129 0.994829 0.961897
0.996195 0.996007 0.940232
0.994753 0.995906 0.861045
0.994846 0.994862 0.807294
0.994809 0.994787 0.956088
0.994809 0.994794 0.937736
0.995594 0.999728 0.870613
0.995163 0.99489 0.82463
0.999419 1.00463 0.991075
1.00002 1.00445 0.990419
0.999735 1.00342 0.99203
1.00089 1.00268 0.990665
1.0008 1.00404 0.989702
1.00016 1.00392 0.991058
1.00119 1.00305 0.990251
1.00071 1.00371 0.990365
0.998626 0.997377 0.990537
1.00031 0.998333 0.995031
1.00009 1.00471 0.990132
1.00029 0.999808 0.995433
0.999566 1.00494 0.991861
0.999599 1.00507 0.99117
0.998707 1.00425 0.992393
0.995957 0.999934 0.98954
0.997895 1.00495 0.994113
0.996876 1.00351 0.996669
0.996108 1.00032 1.00037
0.998311 1.00395 0.993868
0.994772 1.00138 0.986997
0.995319 1.00269 0.99884
0.995755 1.00497 0.997323
0.997123 1.00505 0.99551
0.994773 0.994812 0.809673
0.994802 0.994814 0.815717
0.994702 0.994791 0.811464
0.997373 1.00343 0.99755
0.995441 1.00058 0.998067
0.994799 0.994828 0.817407
0.994752 0.995869 0.941023
0.995514 0.996006 0.966256
0.995283 0.997295 0.865312
0.994799 0.994807 0.802797
0.994896 0.994867 0.815592
0.995234 1.00462 0.999956
0.994793 0.994828 0.804565
0.99487 0.994843 0.81191
0.994798 0.999366 0.993453
0.994845 0.99486 0.807394
0.994851 0.996534 0.935228
0.996255 0.997438 0.878668
0.994831 1.00329 0.998262
0.994837 0.99484 0.812421
0.994803 0.994803 0.808846
0.994775 0.994831 0.804505
0.995984 0.999678 0.86957
0.994875 1.00111 0.973438
0.99553 0.997633 0.928182
0.996047 1.00499 0.997891
0.995118 1.00515 0.999168
0.994891 1.00524 0.998324
0.998198 1.00513 0.991764
0.995589 1.0052 0.99688
0.994965 1.00515 0.998248
0.995601 1.00498 0.997029
0.994954 1.00511 0.998525
0.997587 1.00217 0.998132
0.995989 1.00483 0.996591
0.998128 1.00462 0.992972
0.998358 1.00197 0.996092
0.998582 1.00099 0.993846
0.996381 0.998405 1.00179
1.00195 0.999572 0.991183
1.00443 1.00453 0.982273
1.00442 1.00289 0.984266
1.00261 1.00034 0.990442
1.00435 1.0018 0.985537
1.0051 1.00226 0.984036
1.00508 1.0003 0.986323
1.00453 1.00222 0.984684
1.00246 1.00212 0.988792
1.00351 0.99969 0.989369
1.0031 1.00008 0.988024
1.00051 1.00515 0.988407
1.00064 1.00467 0.988902
1.00058 1.00215 0.991309
1.00026 1.0051 0.989486
1.00052 1.00508 0.989002
1.00022 1.00424 0.990197
1.00056 1.00467 0.989719
1.00024 1.00329 0.991223
1.00016 0.999759 0.994764
1.00033 1.0027 0.991767
1.00021 0.999552 0.99493
1.00012 0.997389 0.998883
1.00012 0.999521 0.99513
1.00016 0.997368 0.998206
1.00011 0.997296 0.998974
1.00054 1.00302 0.990779
1.00031 1.00151 0.992639
1.00058 1.00287 0.991002
1.00019 0.998409 0.996133
1.00023 1.00101 0.993253
1.00049 1.0025 0.991673
1.00008 0.996742 0.999199
1.00013 0.998215 0.996417
1.0001 1.00067 0.993763
1.00005 0.996729 0.999244
1.00007 0.998122 0.996594
1.00001 0.996796 0.999249
0.994796 0.994828 0.812377
0.994814 0.994816 0.808929
0.994695 0.994822 0.812246
1.00112 1.00272 0.990489
1.00047 1.00352 0.990193
1.00136 1.00169 0.991403
0.994875 0.99484 0.810569
0.994818 0.994798 0.808265
0.994759 0.994761 0.801179
0.996934 0.994806 0.962143
0.995271 0.994758 0.928276
0.994798 0.997223 0.88292
0.994834 0.994844 0.801611
0.994998 0.994912 0.958021
0.99486 0.996906 0.933669
0.995619 0.997454 0.867351
0.995184 0.994883 0.819976
0.995356 0.99517 0.955392
0.994841 0.997148 0.937935
0.996613 0.995925 0.877991
0.994842 0.994859 0.8048
0.999583 1.0025 0.992744
1.0001 1.00389 0.990871
1.00007 1.00414 0.990412
1.00104 1.00259 0.990601
1.00044 1.00435 0.989931
1.00115 1.00323 0.990197
0.995994 0.99875 0.990272
0.996007 1.00125 1.00058
0.999263 1.00349 0.992353
0.998267 1.00262 0.996857
0.998291 1.00454 0.994187
0.997713 1.00376 0.994452
0.996583 1.00469 0.995809
0.994765 1.00217 0.986886
0.995474 1.00517 0.997674
0.995194 1.00343 0.9982
0.996651 1.00493 0.99576
0.9952 1.00122 0.985227
0.995297 1.00525 0.995033
0.994857 1.00407 0.998923
0.994854 0.994837 0.808724
0.994779 0.994821 0.808797
0.994805 0.994811 0.813025
0.995635 1.00406 0.999638
0.994829 0.999554 0.989181
0.994789 0.994827 0.804725
0.994834 0.997537 0.934779
0.996681 0.996071 0.863482
0.994872 0.994845 0.812261
0.994829 0.994846 0.801951
0.994806 1.00316 0.998749
0.994827 0.994839 0.812374
0.99482 0.994802 0.809787
0.994881 1.00017 0.970894
0.994716 0.994827 0.797454
0.995737 0.998828 0.865568
0.994878 0.995689 0.941957
0.994888 1.0052 0.989788
0.994788 0.994834 0.812935
0.994772 0.994785 0.802585
0.994671 0.994829 0.816015
0.994808 0.997348 0.856476
0.994872 0.997917 0.937538
0.994865 1.0013 0.965216
0.995123 1.00512 0.999121
0.994927 1.00524 0.998239
0.995963 1.00436 0.997334
0.995852 1.00472 0.996983
0.994955 1.00506 0.998571
0.996218 1.00385 0.998047
0.999098 0.999326 0.998421
0.997995 1.0023 0.996667
1.00108 1.00068 0.99284
1.00217 1.00503 0.985902
1.0014 0.999376 0.99279
1.0043 1.00427 0.98326
1.00426 1.00443 0.982464
1.005 1.00122 0.98455
1.00504 1.00172 0.984513
1.0044 1.00297 0.984107
1.00438 1.0021 0.985053
1.00512 1.00164 0.984579
1.00512 1.00214 0.984132
1.00439 1.00036 0.987325
1.0047 1.00036 0.986619
1.00415 1.002 0.984987
1.00109 1.00469 0.987995
1.0023 1.00251 0.98872
1.00294 1.00043 0.98913
1.0005 1.00491 0.989118
1.00086 1.00513 0.988419
1.00031 1.00469 0.989108
1.00078 1.00506 0.989031
1.0004 1.00405 0.990207
1.00008 1.00039 0.994227
1.00038 1.00316 0.991208
1.00019 0.9998 0.99474
1.00015 0.997541 0.998843
1.00023 0.999551 0.994932
1.00019 0.997422 0.998117
1.00016 0.997394 0.9989
1.00086 1.00334 0.990356
1.00045 1.0018 0.992336
1.0007 1.00282 0.990844
1.00028 0.998655 0.995748
1.00031 1.0015 0.992726
1.00058 1.00285 0.991173
1.00012 0.996815 0.999138
1.00021 0.998351 0.996152
1.00028 1.00097 0.993173
1.00008 0.996756 0.999211
1.00013 0.998188 0.996432
1.00005 0.996751 0.999251
0.994833 0.994837 0.811274
0.994797 0.994843 0.812552
0.994812 0.994824 0.809293
0.999775 1.00514 0.989721
1.00098 1.00413 0.990535
1.00095 1.00279 0.990649
1.00042 1.00392 0.990093
1.00071 1.00183 0.991671
1.00028 1.00301 0.991222
0.999845 1.00153 0.99329
0.994828 0.994814 0.801888
0.994882 0.994847 0.811026
0.994814 0.994825 0.809153
0.994896 0.994875 0.815355
0.995384 0.995127 0.956275
0.99484 0.997594 0.928316
0.995711 0.994913 0.88137
0.995062 0.995313 0.954794
0.994863 0.998342 0.924964
0.995784 0.997441 0.8791
0.994906 0.994855 0.814904
0.995738 0.996376 0.959076
0.994913 0.998366 0.927139
0.994891 0.995298 0.859193
0.994743 0.994826 0.798011
0.997267 1.00456 0.99485
0.999271 1.00308 0.993154
1.00019 1.00407 0.990668
1.00106 1.00284 0.990545
0.994804 1.00179 0.986831
0.99519 1.00393 0.997454
0.997268 1.00463 0.995035
0.99672 1.00461 0.996118
0.995307 1.00516 0.998127
0.99634 1.00494 0.995885
0.995382 1.00417 0.998968
0.995528 1.00094 0.981974
0.995215 1.00525 0.995202
0.995729 1.00398 0.997808
0.995158 1.0036 0.979243
0.995186 1.00306 0.999086
0.994773 0.994819 0.810513
0.994843 0.994837 0.812199
0.994786 0.994836 0.807899
0.994785 1.00323 0.999225
0.99487 1.00048 0.974192
0.994817 0.994835 0.812372
0.994928 0.997775 0.929339
0.996363 0.995447 0.879965
0.994826 0.994827 0.810618
0.994689 0.994832 0.806878
0.994895 1.00488 0.990714
0.994804 0.994836 0.813136
0.994758 0.994784 0.802601
0.994858 0.999897 0.965282
0.994718 0.994835 0.808194
0.994729 0.996886 0.85936
0.994864 0.998199 0.925244
0.994878 1.00461 0.984696
0.994832 0.994815 0.808761
0.994694 0.994792 0.798117
0.996069 0.994828 0.880896
0.994752 0.995973 0.937359
0.994796 0.999974 0.958908
0.994942 1.00529 0.99856
0.995451 1.00458 0.997425
0.996609 1.00079 0.998546
0.995176 1.00506 0.997953
0.997131 1.00114 0.99879
1.00181 1.00081 0.992467
1.00362 1.0002 0.991842
1.00309 1.00503 0.985139
1.00416 1.00295 0.983931
1.00394 1.00398 0.984247
1.0044 1.00444 0.98242
1.00451 1.00341 0.98345
1.00524 0.999241 0.986035
1.00512 1.00061 0.985389
1.00504 1.0014 0.984489
1.00511 1.00154 0.984595
1.00502 1.00157 0.984519
1.00433 1.00309 0.983947
1.00512 1.00148 0.985009
1.0051 1.00187 0.984471
1.00513 1.00203 0.984232
1.00306 1.00271 0.987407
1.00373 1.00084 0.987791
1.00436 1.00038 0.986918
1.00075 1.00513 0.988094
1.00147 1.00447 0.988049
1.00193 1.00299 0.988646
1.0002 1.001 0.993426
1.00064 1.00472 0.98914
1.00114 1.0051 0.988431
1.00051 1.00394 0.990216
1.00011 1.00046 0.994193
1.0001 0.997782 0.99876
1.0002 0.999843 0.994717
1.00015 0.997524 0.998828
1.00017 0.997375 0.998862
1.00016 1.0051 0.989925
1.00073 1.00485 0.989359
1.00066 1.00229 0.991516
1.00062 1.00361 0.990326
1.00027 0.999036 0.995353
1.00045 1.00183 0.992329
1.00074 1.00279 0.990909
1.00014 0.996984 0.999043
1.00026 0.998651 0.995769
1.00032 1.00152 0.992809
1.00011 0.996806 0.999157
1.00022 0.998319 0.996174
1.00008 0.996739 0.999224
0.994799 0.994836 0.805117
0.99482 0.994832 0.811258
0.994805 0.994835 0.812722
1.00009 1.00512 0.989722
1.00014 1.00348 0.990746
1.00082 1.00281 0.989082
0.999037 1.00437 0.990743
1.00133 1.00305 0.990987
1.00063 1.0041 0.989992
1.00047 1.00203 0.991937
1.00029 1.00336 0.991246
1.00022 1.00144 0.993406
0.998944 1.00395 0.99343
0.994754 0.994772 0.804435
0.994811 0.994814 0.802994
0.994883 0.99484 0.811423
0.99516 0.994856 0.816283
0.995494 0.995935 0.86449
0.99488 0.995081 0.953821
0.994812 0.997112 0.937294
0.995469 0.996171 0.955249
0.994846 0.99617 0.939256
0.995043 0.998652 0.868032
0.99476 0.994826 0.796267
0.994949 0.997949 0.958398
0.994838 0.999602 0.938791
0.994782 0.995337 0.883729
0.99471 0.994868 0.817621
0.99866 1.0012 0.996224
0.996913 1.00436 0.995335
0.999263 1.00289 0.993582
0.995399 1.00225 0.978428
0.995037 1.00522 0.995228
0.996146 1.00489 0.996
0.994868 1.00449 0.999011
0.996001 1.00391 0.99777
0.995097 1.00237 0.999499
0.994924 1.00212 0.978874
0.9961 1.00097 1.00032
0.995468 1.00024 0.985594
0.994808 0.994819 0.817661
0.99479 0.99483 0.809642
0.994832 0.994833 0.815742
0.994927 1.00458 0.990988
0.994833 0.999925 0.962936
0.994821 0.994842 0.813335
0.994841 0.998544 0.937252
0.994768 0.997131 0.880304
0.994747 0.994763 0.802829
0.994751 0.994838 0.800129
0.99534 1.00484 0.985397
0.994815 0.994819 0.808975
0.994717 0.994793 0.797846
0.995031 0.998738 0.959983
0.995435 0.994836 0.878868
0.994805 0.997177 0.931626
0.99526 1.00236 0.982474
0.994698 0.994776 0.799844
0.997465 0.994818 0.881894
0.995871 0.994963 0.9289
0.994841 0.99595 0.960786
0.995641 1.00508 0.997539
0.996034 1.00238 0.998432
0.998787 1.00176 0.995967
0.995487 1.00351 0.999181
1.00048 1.00096 0.993613
1.00408 0.998333 0.989959
1.00393 1.00503 0.98436
1.00398 1.00317 0.983829
1.00454 0.999884 0.986345
1.00463 1.00449 0.982376
1.00461 1.0029 0.983543
1.00502 0.999305 0.986477
1.00533 0.996663 0.988366
1.00526 0.998744 0.986408
1.00525 0.999163 0.986104
1.00517 1.00055 0.985541
1.00513 1.00064 0.98531
1.00505 1.00151 0.984427
1.00519 1.00201 0.984304
1.0051 1.00144 0.984596
1.00499 1.00145 0.984523
1.00461 1.0016 0.985914
1.00464 1.00185 0.985217
1.00508 1.00212 0.984364
1.00158 1.00453 0.987138
1.00279 1.0028 0.987375
1.00325 1.00117 0.988253
1.00022 1.00206 0.993432
1.00107 1.00505 0.988118
1.00182 1.0042 0.988104
1.00016 0.998393 0.996437
1.0002 1.00122 0.993794
1.0008 1.00459 0.989162
1.00014 1.00054 0.994157
1.00012 0.997882 0.9987
1.00016 0.997544 0.998811
1.0011 1.00437 0.988926
1.00107 1.00512 0.988672
0.999541 1.0051 0.989873
1.00053 1.00353 0.99051
1.00061 1.00464 0.98933
1.00022 0.999486 0.994983
1.00055 1.00247 0.99154
1.00057 1.00372 0.990291
1.00013 0.997269 0.998958
1.00028 0.999 0.995373
1.00044 1.00185 0.992323
1.00013 0.996982 0.999073
1.00025 0.998622 0.995789
1.00011 0.9968 0.999176
0.99478 0.99482 0.818516
0.994804 0.994837 0.805299
0.994808 0.994846 0.811241
1.00264 1.00128 0.988265
0.999789 1.00507 0.989719
0.999854 1.00351 0.990987
1.00004 1.0051 0.990384
1.00182 1.00238 0.989207
1.00052 1.00309 0.992139
1.00341 1.00248 0.986959
0.997474 1.00494 0.992832
1.00002 1.00358 0.991265
1.00001 1.0008 0.99352
0.998231 1.00375 0.993376
0.998331 1.00393 0.993922
0.994731 0.994815 0.808065
0.99477 0.994777 0.803859
0.99481 0.994814 0.803884
0.994794 0.995009 0.81114
0.994932 0.997775 0.866534
0.99483 0.998401 0.927289
0.995376 0.995103 0.954849
0.994985 0.998302 0.95836
0.994731 0.994977 0.809212
0.994853 0.99658 0.930435
0.994741 0.997306 0.865703
0.99487 0.996394 0.963352
0.994809 0.997461 0.940478
0.995584 0.994845 0.880887
1.00004 0.994863 1.00048
0.998528 1.00128 0.996125
0.996653 1.00421 0.99579
0.994915 1.00188 0.978727
0.995243 1.00141 0.999866
0.996495 1.00383 0.99775
0.997042 1.00025 1.00061
0.995122 0.999168 0.985727
0.996086 0.998485 0.992371
0.99471 0.994826 0.814897
0.994805 0.994813 0.818675
0.994802 0.994832 0.808659
0.994992 1.00455 0.985627
0.994848 0.999963 0.959492
0.994798 0.994827 0.809401
0.994839 0.997529 0.926295
0.995866 0.994829 0.862606
0.994757 0.994808 0.811036
0.994831 1.00487 0.982347
0.994707 0.994817 0.81313
0.997551 0.994768 0.861684
0.994869 0.995696 0.956553
0.99597 0.995838 0.940628
0.994887 1.00181 0.989633
0.999772 0.994852 0.852318
0.997619 0.994834 0.94259
0.99486 0.994809 0.955421
0.995079 1.00361 0.998321
0.998089 1.00157 0.995804
1.00095 1.00149 0.992429
0.999521 1.00082 0.994754
1.00342 0.998884 0.989738
1.00459 0.998499 0.988524
1.00387 1.00342 0.983724
1.00445 1.00003 0.986243
1.00508 0.996408 0.988753
1.00465 1.00233 0.98364
1.00493 0.999169 0.986446
1.00533 0.995696 0.989373
1.00528 0.995391 0.990153
1.0053 0.99682 0.988366
1.00533 0.996617 0.98847
1.00526 0.99868 0.986561
1.00525 0.998729 0.986595
1.00523 0.999112 0.986173
1.00525 1.00105 0.984777
1.00518 1.00045 0.985494
1.00513 1.00065 0.98523
1.00518 1.00178 0.984453
1.00509 1.00198 0.984349
1.00508 1.00133 0.984599
1.00292 1.00335 0.98654
1.00426 1.00196 0.98583
1.00407 1.00223 0.985426
1.00047 1.00269 0.991258
1.00201 1.00449 0.987148
1.0026 1.00309 0.987339
0.999881 0.999366 0.998275
1.00032 1.00201 0.992254
1.00133 1.00495 0.988143
1.00015 0.998334 0.998484
1.00022 1.0013 0.993261
1.00015 0.997942 0.998631
1.00354 1.00236 0.987671
1.0012 1.00417 0.988782
1.00133 1.0049 0.988332
1.00068 1.00434 0.98954
1.00076 1.00514 0.988654
0.999792 1.00516 0.989825
1.00011 1.00028 0.994435
1.00051 1.00353 0.990522
1.00051 1.00446 0.989299
1.00011 0.997467 0.998873
1.00021 0.99946 0.995002
1.00042 1.0026 0.99156
1.00012 0.997208 0.998982
1.00029 0.998971 0.995389
1.00012 0.996933 0.999103
0.994726 0.994793 0.799366
0.994799 0.994822 0.81887
0.99481 0.994836 0.805517
1.00256 1.00211 0.988128
1.0048 1.00204 0.986376
1.00239 1.00309 0.987493
0.999749 1.00511 0.990019
1.00315 1.00202 0.989333
0.998951 1.00217 0.993246
0.998619 1.00442 0.992302
1.00215 1.003 0.988067
1.00209 1.00161 0.990055
0.998828 0.999634 0.996428
0.999036 1.0038 0.993304
0.998693 1.00421 0.993736
0.998462 0.9948 0.855069
0.994701 0.994803 0.801617
0.994779 0.994781 0.804027
0.994755 0.994846 0.800284
0.994807 0.997045 0.884699
0.994823 0.99699 0.926195
0.99485 0.996958 0.956757
0.994873 0.996702 0.961045
0.995798 0.995855 0.878997
0.994829 0.996148 0.927953
0.994861 0.997374 0.964527
0.995633 0.994767 0.929031
0.999537 0.995371 1.00271
0.999697 0.99582 1.00046
0.998307 1.00112 0.996114
0.994859 0.998914 0.986024
0.997577 0.999537 1.00088
0.996511 0.998689 0.991951
0.996059 0.996652 0.990275
0.999792 0.994934 0.867051
0.994701 0.99481 0.812037
0.994811 0.994814 0.819485
0.994811 1.00491 0.982726
0.994846 0.994886 0.954676
0.9947 0.994826 0.812674
0.995209 0.994766 0.92956
0.998552 0.994819 0.881851
0.994908 0.999755 0.986255
0.999749 0.994853 0.865065
0.997868 0.994823 0.928723
0.994847 0.994792 0.956723
0.996423 0.99827 0.987273
0.999947 0.994874 0.941481
0.995109 0.994814 0.962653
0.996979 1.00108 0.995643
1.00004 1.00062 0.992426
1.00352 0.999428 0.991029
1.00253 0.999879 0.989536
1.0043 0.998411 0.988461
1.00518 0.996137 0.989317
1.00444 1.0002 0.986148
1.00493 0.996924 0.988697
1.00529 0.994875 0.99012
1.0049 0.999065 0.986412
1.00533 0.99572 0.989319
1.00527 0.994889 0.990562
1.00529 0.995043 0.990597
1.00528 0.995364 0.990267
1.00524 0.995685 0.99013
1.00529 0.997208 0.988344
1.0053 0.996863 0.988507
1.00535 0.996556 0.988577
1.00529 0.999564 0.986084
1.00526 0.998732 0.986509
1.00524 0.998689 0.986781
1.0053 1.00177 0.984121
1.00527 1.00106 0.984804
1.00518 1.00038 0.985445
1.00365 1.00281 0.985849
1.00512 1.00183 0.984471
1.00494 1.00198 0.984396
1.00092 1.00308 0.990183
1.00291 1.00338 0.986501
1.00405 1.00201 0.98575
1.00014 0.999616 0.997957
1.00063 1.00258 0.991247
1.00231 1.0044 0.987158
1.00007 0.999257 0.99707
1.0005 1.00187 0.992273
1.00017 0.998591 0.998349
1.00457 1.00089 0.987006
1.00278 1.00234 0.987719
1.00148 1.00433 0.987883
1.00114 1.00416 0.98863
1.00096 1.00499 0.988374
1.001 1.00482 0.988723
1.00016 1.00107 0.993598
1.00059 1.00447 0.989513
1.00019 1.00513 0.988639
1.00008 0.997897 0.998702
1.00011 1.00015 0.994461
1.00053 1.00357 0.990536
1.00009 0.997501 0.9989
1.00019 0.999428 0.995034
1.00012 0.997189 0.999006
0.999684 0.994817 0.865333
0.99471 0.9948 0.805287
0.99481 0.994822 0.819275
1.00223 1.00235 0.987996
1.00274 1.00349 0.986612
1.00443 1.00248 0.986332
1.00487 1.00353 0.983562
1.00215 1.00305 0.988235
0.999481 1.00473 0.991822
1.00188 1.00345 0.989168
1.0015 1.00162 0.990679
1.00454 0.996459 0.989728
1.00212 0.998601 0.993564
1.00202 0.996548 0.995153
1.00024 0.998864 0.9961
0.999866 1.0025 0.99355
0.997497 0.994842 0.939044
0.998463 0.994768 0.859659
0.994674 0.994797 0.80742
0.995985 0.994844 0.864526
0.994815 0.997219 0.938241
0.994904 0.995928 0.962411
0.994859 0.996679 0.966179
0.99643 0.996345 0.941493
0.995742 0.994788 0.965021
0.998795 0.99688 1.00057
0.99871 0.996064 1.00277
0.999331 0.997 1.00036
0.996991 0.997989 0.991648
0.997187 0.997069 0.990421
0.999987 0.994895 0.927978
0.999793 0.994887 0.873061
0.994687 0.994793 0.809297
0.994941 0.999018 0.982537
0.995115 0.994783 0.955792
0.99976 0.994816 0.864065
0.997543 0.994814 0.941993
0.996203 0.998018 0.987515
1.00003 0.994865 0.937078
0.995764 0.994826 0.960541
1.00038 0.994983 0.986631
0.99792 0.994782 0.970963
0.999283 0.999173 0.992453
1.00264 0.997884 0.991059
1.0051 0.995073 0.991323
1.00421 0.998099 0.988386
1.00514 0.995958 0.98923
1.00529 0.994822 0.990403
1.0047 0.99736 0.988642
1.00529 0.994933 0.990072
1.00527 0.99481 0.990516
1.00531 0.995729 0.989265
1.00526 0.994916 0.990535
1.0053 0.994835 0.990641
1.00528 0.994999 0.990651
1.00528 0.995181 0.990598
1.00528 0.995333 0.990381
1.00524 0.995667 0.990134
1.00522 0.996176 0.989641
1.00529 0.998292 0.987491
1.00529 0.997268 0.988329
1.0053 0.996906 0.988649
1.00534 1.00121 0.984566
1.0053 0.999665 0.985936
1.00527 0.998787 0.986457
1.00448 1.00213 0.985151
1.00526 1.00178 0.984179
1.00528 1.00109 0.984831
1.00138 1.00322 0.989086
1.00343 1.00309 0.985864
1.00488 1.00205 0.984487
1.00029 1.00037 0.997531
1.00104 1.0029 0.99017
1.00308 1.00346 0.986462
1.00022 0.99982 0.997799
1.00076 1.00244 0.991234
1.00021 0.999207 0.998043
1.00517 1.00295 0.984016
1.00422 1.00078 0.986954
1.00301 1.00267 0.986921
1.0023 1.00227 0.98778
1.00156 1.0043 0.98772
1.00136 1.00498 0.987876
1.00069 1.00503 0.988411
1.00076 1.00495 0.988686
1.00028 1.0018 0.992627
1.00007 0.998447 0.998434
1.0001 1.00101 0.993619
1.00041 1.00459 0.989488
1.00006 0.997794 0.998766
1.00013 1.00005 0.994469
1.00007 0.997446 0.998924
0.999963 0.994889 0.941976
0.999814 0.994853 0.864343
0.994687 0.994788 0.799258
1.00241 1.00461 0.985726
1.00369 1.00277 0.986288
1.00325 1.00298 0.987526
1.00442 1.00336 0.983927
1.00518 1.00065 0.985044
1.00362 0.999994 0.987285
1.0007 1.00215 0.991268
1.00451 0.995786 0.990176
1.00208 0.998283 0.993593
1.00431 0.995361 0.990669
1.00352 0.997466 0.992619
1.00217 0.997424 0.993745
1.00161 0.996855 0.994993
0.999782 0.999553 0.995782
0.99559 0.994795 0.963345
0.998432 0.995724 0.934346
0.997312 0.994827 0.877466
0.995598 0.99541 0.928817
0.994878 0.996699 0.966516
0.995544 0.995682 0.970713
0.999247 0.994809 0.991849
0.999708 0.996163 0.999911
0.998001 0.996671 1.00286
0.998663 0.998845 0.990614
0.997341 0.994851 0.96532
1.00002 0.994875 0.942496
0.999808 0.99491 0.85498
0.995865 0.998062 0.987882
0.996275 0.994826 0.960755
0.999743 0.994828 0.932203
0.999684 0.995974 0.987061
0.998256 0.994822 0.970026
1.00293 0.99565 0.989019
1.00354 0.995838 0.984681
1.00163 0.996923 0.991079
1.00458 0.995061 0.99135
1.00527 0.99483 0.990728
1.00508 0.995909 0.989143
1.00529 0.994815 0.990352
1.00532 0.994894 0.990478
1.00529 0.995013 0.990021
1.00528 0.994824 0.990499
1.00533 0.994892 0.990501
1.00525 0.994949 0.990507
1.00529 0.994851 0.990653
1.00531 0.994891 0.990644
1.00527 0.994959 0.990705
1.00527 0.995145 0.990605
1.00524 0.995545 0.990394
1.00524 0.995656 0.990137
1.00522 0.996183 0.989644
1.00526 0.997481 0.988442
1.0053 1.00015 0.985698
1.00529 0.998487 0.987233
1.00528 0.99733 0.988314
1.00526 1.00114 0.984861
1.00532 1.00123 0.984616
1.00531 0.999769 0.985789
1.00219 1.00277 0.988231
1.00428 1.00239 0.985166
1.00524 1.0018 0.984234
1.00071 1.00087 0.997079
1.0015 1.00312 0.989067
1.00324 1.00336 0.985878
1.00051 1.00051 0.997355
1.00108 1.00278 0.990165
1.00038 1.00003 0.997619
1.00526 1.00149 0.984574
1.00515 1.00243 0.984123
1.00464 1.00219 0.984902
1.00422 1.00129 0.986903
1.00312 1.00275 0.9867
1.00243 1.00393 0.986948
1.00156 1.00433 0.987562
1.0012 1.00498 0.987893
1.00055 1.00245 0.991606
1.00048 1.00512 0.988655
1.00016 1.00197 0.992645
1.00005 0.999279 0.998118
1.00004 0.998391 0.998534
1.00005 1.00104 0.993646
1.00004 0.997774 0.998821
0.996535 0.9949 0.965724
0.999902 0.994882 0.927466
0.99982 0.994887 0.877559
1.00529 0.998431 0.986898
1.00453 1.00287 0.986835
1.004 1.00316 0.984289
1.00427 0.999808 0.987758
1.00518 1.00087 0.985007
1.00503 0.997097 0.988652
1.00489 0.996412 0.990629
1.00185 0.997564 0.993639
1.00474 0.99591 0.990708
1.0032 0.997966 0.991719
1.00449 0.996889 0.989758
1.00328 0.994895 0.99427
1.00211 0.996917 0.993881
1.00151 0.997072 0.994824
0.998634 0.994764 0.990471
0.995742 0.994806 0.961812
0.998212 0.994809 0.928621
0.995262 0.996161 0.970557
0.998878 0.99482 0.994571
0.999961 0.995451 0.999194
1.00224 0.994901 0.981414
0.997339 0.994894 0.964972
0.999997 0.994884 0.928113
0.998669 0.996304 0.987484
0.998527 0.994842 0.969406
1.00206 0.995149 0.989563
1.00326 0.995393 0.985492
1.00386 0.995582 0.990548
1.00534 0.99606 0.990699
1.0041 0.994965 0.991372
1.00525 0.994847 0.990656
1.00539 0.994897 0.99034
1.00529 0.994808 0.990303
1.0053 0.994879 0.990489
1.00536 0.994886 0.990437
1.00528 0.994839 0.990482
1.00532 0.994882 0.990516
1.00532 0.994906 0.990631
1.00529 0.994867 0.990664
1.00531 0.994891 0.990637
1.00528 0.994974 0.99079
1.00526 0.995109 0.990612
1.00525 0.995421 0.990465
1.00527 0.996499 0.989499
1.00523 0.996185 0.989647
1.00526 0.997371 0.98855
1.00529 0.999683 0.986341
1.0053 1.00094 0.985007
1.00532 1.00033 0.985509
1.00529 0.998681 0.986974
1.00301 1.0014 0.988321
1.00512 1.0013 0.984855
1.00531 1.00125 0.984666
1.00113 1.00109 0.996673
1.00238 1.00251 0.988209
1.00407 1.0026 0.985189
1.00086 1.00095 0.996919
1.00168 1.00303 0.989057
1.00065 1.00062 0.997202
1.00525 1 0.985656
1.00525 1.0015 0.984492
1.00518 1.00157 0.984555
1.00515 1.00187 0.984232
1.0049 1.00197 0.984787
1.0032 1.00328 0.986422
1.00336 1.00244 0.986478
1.00234 1.00407 0.986968
1.00081 1.00287 0.990591
1.00109 1.00505 0.987894
1.00036 1.00259 0.991633
1.00007 1.00002 0.99777
1 1.00203 0.992664
1 0.99908 0.998236
1.00002 0.998224 0.998625
1.00008 0.995227 0.986331
0.996469 0.994896 0.961795
0.999979 0.994861 0.941742
1.00527 0.996614 0.988793
1.00526 0.996357 0.98911
1.00528 0.998139 0.987177
1.00488 0.999212 0.988226
1.00517 1.00115 0.984976
1.00512 0.997043 0.988879
1.00528 0.995331 0.989612
1.00495 0.995689 0.990749
1.00294 0.998246 0.990827
1.00434 0.997091 0.990227
1.00516 0.994926 0.990814
1.00372 0.994781 0.99304
1.00291 0.994928 0.993976
1.00241 0.996487 0.994031
0.999293 0.994761 0.990514
0.995889 0.994814 0.960535
0.998901 0.994902 0.997433
1.00499 0.994888 0.990472
1.0022 0.994885 0.981557
0.997508 0.994876 0.96371
1.00173 0.994783 0.990051
1.00293 0.994789 0.986316
1.00393 0.99525 0.99121
1.0053 0.99537 0.990784
1.00545 0.994815 0.990822
1.00554 0.994853 0.991046
1.00529 0.994862 0.990583
1.00541 0.994896 0.990322
1.00536 0.994889 0.990569
1.00528 0.994862 0.9905
1.00536 0.994887 0.990461
1.00533 0.994909 0.990646
1.00531 0.994873 0.990531
1.00533 0.994907 0.990628
1.00527 0.994906 0.990896
1.00531 0.994891 0.99063
1.00528 0.994962 0.990765
1.00527 0.995738 0.990202
1.00525 0.995293 0.990535
1.00527 0.996448 0.989514
1.00531 0.999034 0.986967
1.00526 0.997261 0.988659
1.00529 0.999568 0.986474
1.00529 1.00068 0.985322
1.00312 1.00061 0.988828
1.00528 1.00095 0.985022
1.00533 1.00051 0.985321
1.00149 1.00094 0.99646
1.003 1.00138 0.988308
1.00493 1.00154 0.984844
1.00128 1.00112 0.996538
1.00253 1.00234 0.988172
1.00104 1.00105 0.996731
1.00526 0.998055 0.987557
1.00525 0.999842 0.985866
1.0053 1.00107 0.984904
1.00523 1.00146 0.984404
1.00523 1.00158 0.984507
1.00376 1.00257 0.986068
1.00519 1.0018 0.984676
1.00325 1.0029 0.986411
1.00118 1.00324 0.989545
1.00221 1.00401 0.986997
1.00074 1.00301 0.990606
1.00024 1.00082 0.997397
1.00022 1.00275 0.991657
1.00001 0.999888 0.997905
0.999952 0.998959 0.998346
1.00423 0.995228 0.991896
1.00008 0.995133 0.98408
0.99649 0.994919 0.961561
1.00529 0.99548 0.989937
1.00526 0.996157 0.989146
1.00525 0.995372 0.990275
1.00526 0.996441 0.98907
1.00528 0.997803 0.987452
1.00536 0.994855 0.990227
1.00514 0.997196 0.989098
1.00527 0.995588 0.989621
1.00533 0.994785 0.990589
1.00422 0.997434 0.990693
1.00516 0.995004 0.99049
1.00332 0.994956 0.993304
1.00224 0.995384 0.99369
0.999633 0.994763 0.990316
1.00554 0.994861 0.990833
1.00507 0.995194 0.990421
1.00196 0.995141 0.981796
1.00388 0.994781 0.991866
1.00529 0.994823 0.990882
1.00542 0.994827 0.990849
1.00557 0.994855 0.991012
1.0054 0.99487 0.991028
1.00542 0.994893 0.990308
1.00536 0.994891 0.990583
1.00531 0.994906 0.990868
1.00537 0.994888 0.990486
1.00533 0.994909 0.990638
1.00527 0.994923 0.990957
1.00533 0.994908 0.990625
1.00528 0.994906 0.99088
1.00528 0.995206 0.99082
1.00529 0.994952 0.990739
1.00527 0.995767 0.990179
1.00533 0.998314 0.987736
1.00528 0.996394 0.989529
1.0053 0.999038 0.98699
1.00528 1.00047 0.985573
1.00529 0.999453 0.986607
1.00529 1.00066 0.985341
1.00312 1.00034 0.990875
1.00181 1.00016 0.993154
1.00315 1.00065 0.989687
1.00526 1.00096 0.985035
1.00147 1.0009 0.996521
1.00305 1.00121 0.988297
1.00134 1.00121 0.996474
1.00521 0.995264 0.990622
1.00525 0.996736 0.989104
1.00525 0.998028 0.987769
1.00528 1.00028 0.985665
1.00526 0.999694 0.986078
1.00529 1.00112 0.984827
1.00456 1.0015 0.985494
1.00527 1.00159 0.984458
1.00395 1.00206 0.986037
1.00205 1.00287 0.988524
1.00339 1.00256 0.986399
1.00115 1.0033 0.989532
1.00061 1.00137 0.996932
1.00063 1.00308 0.99063
1.00011 1.00058 0.997544
0.999933 0.999705 0.998031
1.00549 0.994803 0.990822
1.00417 0.995055 0.991521
1.00043 0.9949 0.9819
1.00529 0.99489 0.990598
1.00527 0.995517 0.989835
1.00525 0.995729 0.989501
1.00524 0.995532 0.990228
1.00526 0.996536 0.98903
1.00538 0.994837 0.99058
1.00536 0.994857 0.990208
1.00527 0.995764 0.989627
1.00529 0.994785 0.990632
1.00514 0.995076 0.990166
1.00313 0.994701 0.993564
1.00532 0.99489 0.991158
1.00555 0.994847 0.990882
1.00521 0.995223 0.990366
1.00539 0.994836 0.990854
1.00561 0.99487 0.99098
1.00541 0.994869 0.990975
1.00531 0.994913 0.991164
1.00535 0.994894 0.990597
1.00532 0.994906 0.990828
1.00528 0.994936 0.991066
1.00534 0.99491 0.99063
1.00527 0.994922 0.99096
1.0053 0.994952 0.991116
1.00529 0.994906 0.990863
1.00526 0.995217 0.990798
1.00535 0.997614 0.988463
1.00528 0.995796 0.990156
1.00532 0.998326 0.987756
1.00528 1.00025 0.985815
1.0053 0.999042 0.987012
1.00529 1.00044 0.985601
1.00319 1.00014 0.990955
1.0053 1.00064 0.985359
1.00334 1.00022 0.990734
1.00189 0.999815 0.993337
1.00148 1.00048 0.99498
1.00334 1.00065 0.990363
1.00144 1.00086 0.996574
1.00522 0.994898 0.991011
1.00523 0.996381 0.989529
1.00522 0.995215 0.990725
1.00528 0.999273 0.986682
1.00525 0.99677 0.98911
1.00525 0.998 0.98798
1.00527 1.00029 0.985613
1.00515 1.00085 0.985294
1.00528 1.00117 0.98475
1.00478 1.00128 0.985491
1.00283 1.00178 0.988202
1.00413 1.00167 0.986012
1.00183 1.00305 0.988547
1.00103 1.00158 0.99654
1.00102 1.00342 0.989529
1.00043 1.00121 0.997122
1.00001 1.00045 0.997687
1.00533 0.994893 0.990852
1.00541 0.994807 0.990885
1.00391 0.995083 0.991149
1.00529 0.99487 0.990806
1.00529 0.994939 0.990534
1.00524 0.995548 0.989741
1.00524 0.995685 0.990179
1.00538 0.994838 0.990581
1.00534 0.994859 0.990188
1.00525 0.994789 0.990674
1.00528 0.994931 0.991224
1.00532 0.994893 0.991128
1.00554 0.994821 0.990927
1.00529 0.994931 0.99125
1.00542 0.99487 0.990923
1.0053 0.994915 0.991156
1.00527 0.994934 0.991189
1.00532 0.994907 0.990788
1.00527 0.994936 0.991076
1.00532 0.994926 0.991202
1.00526 0.994921 0.990962
1.00529 0.994954 0.991096
1.00535 0.997031 0.989117
1.00524 0.995229 0.990777
1.00535 0.99764 0.988469
1.00527 1.00003 0.9861
1.00531 0.998339 0.987775
1.0053 1.00022 0.985845
1.00322 1.00015 0.990897
1.0053 1.00042 0.985629
1.00339 1.00006 0.990785
1.00194 0.999749 0.993308
1.00356 1.00009 0.990602
1.0014 1 0.993662
1.00081 1.00084 0.997167
1.00521 0.994894 0.99108
1.00523 0.995625 0.990372
1.00522 0.994937 0.990985
1.00527 0.998855 0.987181
1.00523 0.996103 0.989768
1.00522 0.99517 0.990829
1.0053 1.00035 0.985607
1.00528 0.99926 0.986648
1.00525 0.996803 0.989118
1.00527 1.00029 0.985559
1.00518 1.00079 0.985293
1.00301 1.00095 0.988691
1.00491 1.00106 0.985492
1.00265 1.002 0.988241
1.00123 1.00137 0.996507
1.00173 1.00313 0.988558
1.00089 1.00146 0.996681
1.00025 1.00104 0.997295
1.00528 0.994936 0.991032
1.00534 0.99489 0.9908
1.00536 0.994808 0.990953
1.0053 0.994869 0.990803
1.00529 0.994994 0.99047
1.00538 0.994839 0.990581
1.00527 0.994949 0.991244
1.00527 0.994929 0.991245
1.00532 0.994895 0.991098
1.00529 0.994934 0.991251
1.00525 0.994946 0.991349
1.0053 0.994916 0.991148
1.00528 0.994936 0.991211
1.00532 0.994954 0.99123
1.00527 0.994937 0.991085
1.00532 0.994927 0.991188
1.00535 0.996577 0.989656
1.00528 0.994956 0.991076
1.00538 0.997025 0.989109
1.0052 0.999831 0.986444
1.00536 0.997666 0.988475
1.00529 1 0.986121
1.00315 1.00024 0.990877
1.00531 1.0002 0.985874
1.00339 1.0001 0.990715
1.00195 0.999847 0.993185
1.00357 0.999987 0.990622
1.00152 0.999804 0.99366
1.00093 1.00022 0.993972
1.00522 0.994944 0.991113
1.00524 0.99498 0.99106
1.0052 0.994893 0.991043
1.00534 0.997776 0.988239
1.00524 0.995653 0.990329
1.00521 0.994968 0.990959
1.00529 1.00008 0.98593
1.00528 0.998452 0.987536
1.00523 0.995823 0.990007
1.00306 1.00032 0.989218
1.00529 1.00036 0.985584
1.00528 0.999248 0.986615
1.00527 1.00071 0.985286
1.00297 1.00098 0.988692
1.00129 1.00095 0.996661
1.00245 1.00224 0.988273
1.00121 1.00135 0.99649
1.00073 1.00138 0.996846
1.00527 0.994948 0.991187
1.00529 0.994937 0.991002
1.00534 0.994887 0.990748
1.0053 0.994868 0.990801
1.00523 0.994963 0.991363
1.00527 0.994945 0.99125
1.00527 0.994928 0.991266
1.00528 0.994937 0.991251
1.00525 0.994944 0.991346
1.00529 0.995032 0.991159
1.00528 0.994939 0.991232
1.00532 0.995019 0.991161
1.00533 0.996237 0.990114
1.00533 0.994928 0.991175
1.00535 0.996559 0.989647
1.00512 0.999633 0.986786
1.0054 0.997034 0.9891
1.00522 0.999793 0.986458
1.00311 1.00032 0.989252
1.0053 0.999982 0.986143
1.00331 1.00021 0.989871
1.00168 0.999935 0.996631
1.00357 1.00005 0.990534
1.00157 0.99983 0.993547
1.00111 0.999857 0.993997
1.00522 0.994957 0.991206
1.00527 0.994941 0.991106
1.00521 0.994944 0.991145
1.00537 0.996896 0.989124
1.00525 0.99518 0.99081
1.00519 0.994892 0.991006
1.0053 0.999502 0.986548
1.00533 0.997759 0.988252
1.00525 0.995681 0.990284
1.0032 0.999933 0.989415
1.00528 0.999898 0.986094
1.00528 0.998045 0.98789
1.00141 1.00049 0.996766
1.00311 1.00026 0.98921
1.00529 1.00038 0.985558
1.00297 1.00102 0.988704
1.00134 1.00097 0.996599
1.00117 1.00134 0.99652
1.00522 0.994963 0.991293
1.00527 0.994953 0.991183
1.00529 0.994938 0.990972
1.00527 0.995093 0.991201
1.00523 0.994961 0.99134
1.00527 0.994941 0.991256
1.00525 0.994943 0.991343
1.00529 0.99509 0.991155
1.00532 0.996589 0.989694
1.00532 0.995099 0.991093
1.00533 0.996532 0.989751
1.00502 0.999022 0.987665
1.00536 0.996527 0.989638
1.00511 0.999622 0.986793
1.00303 1.0002 0.989514
1.00523 0.999758 0.986473
1.00313 1.00028 0.989262
1.00159 1.00001 0.996635
1.00335 1.00021 0.989017
1.00151 0.999959 0.99513
1.0012 0.999807 0.993907
1.00519 0.994957 0.991342
1.00527 0.994962 0.991255
1.00522 0.994958 0.991213
1.00537 0.99703 0.989049
1.00527 0.994938 0.991138
1.00521 0.994943 0.991176
1.00525 0.999302 0.986828
1.00537 0.997312 0.988723
1.00527 0.995384 0.99056
1.00325 0.999886 0.989401
1.00529 0.999459 0.986573
1.00533 0.997749 0.988264
1.00158 1.00009 0.996766
1.00322 0.99989 0.98941
1.00527 0.999706 0.986257
1.00143 1.0005 0.996733
1.00315 1.0002 0.989201
1.00131 1.00101 0.996536
1.00525 0.995153 0.991104
1.00522 0.994962 0.991312
1.00527 0.994957 0.99118
1.00531 0.996617 0.989686
1.00527 0.995141 0.991174
1.00523 0.994959 0.991317
1.00529 0.995146 0.991151
1.00532 0.996622 0.989702
1.00496 0.998833 0.987942
1.00533 0.996808 0.989389
1.00504 0.999221 0.987354
1.00294 1.00005 0.989807
1.00512 0.999606 0.986797
1.00301 1.00021 0.989521
1.00147 1.00003 0.996672
1.00315 1.00024 0.989268
1.00155 1.00003 0.996642
1.00161 0.999929 0.993321
1.00524 0.995222 0.991081
1.00519 0.994953 0.991277
1.00533 0.99683 0.989351
1.00526 0.994961 0.991263
1.00521 0.994959 0.99122
1.00521 0.99959 0.986628
1.00536 0.997055 0.989055
1.00527 0.994936 0.991171
1.00323 0.999989 0.989366
1.00525 0.999504 0.986622
1.00536 0.997731 0.988324
1.00166 0.999929 0.996703
1.00326 0.999879 0.989397
1.00528 0.999415 0.9866
1.00158 1.00013 0.996772
1.00326 0.999858 0.989405
1.00147 1.00053 0.996696
1.00532 0.996721 0.989551
1.00525 0.995192 0.991128
1.00523 0.994962 0.991332
1.00493 0.998781 0.988018
1.00531 0.996655 0.989688
1.00526 0.995192 0.991148
1.00531 0.996661 0.989709
1.00498 0.998803 0.987906
1.00282 0.999955 0.990116
1.00506 0.999425 0.987043
1.00293 1.00006 0.989817
1.0014 1.00002 0.996739
1.00301 1.00022 0.989532
1.00144 1.00006 0.996702
1.00152 1.00003 0.996659
1.00531 0.996736 0.989554
1.00524 0.995102 0.991186
1.0052 0.99495 0.991212
1.00511 0.999538 0.986898
1.00534 0.996845 0.989357
1.00526 0.99496 0.991271
1.00315 1.00005 0.989464
1.00518 0.999643 0.986623
1.00535 0.997078 0.989061
1.00163 0.999932 0.996651
1.00322 1.00001 0.989363
1.00524 0.999695 0.986419
1.00166 0.999955 0.996729
1.00327 0.999881 0.989391
1.00161 1.00014 0.996766
1.00495 0.999232 0.987461
1.00531 0.99655 0.989778
1.00525 0.995235 0.991153
1.00275 0.999866 0.990346
1.00494 0.998749 0.988012
1.00531 0.996689 0.989689
1.00501 0.998767 0.987871
1.00283 0.999929 0.990127
1.00131 1.00001 0.996796
1.0029 1.00007 0.989826
1.00136 1.00003 0.996754
1.00138 1.00008 0.996724
1.00502 0.999372 0.987223
1.00532 0.996598 0.989708
1.00524 0.994964 0.991292
1.00312 1.00005 0.991144
1.00508 0.99954 0.986906
1.00534 0.996865 0.989363
1.00153 0.99997 0.996667
1.00312 1.00009 0.989464
1.00514 0.9997 0.986618
1.00165 0.999938 0.99667
1.00322 1.00003 0.989358
1.00168 0.999965 0.996751
1.00285 0.99986 0.990242
1.00495 0.999027 0.987684
1.00531 0.996376 0.990004
1.00121 0.999979 0.99688
1.00274 0.999862 0.990342
1.00495 0.998719 0.988007
1.00282 0.999904 0.990134
1.00127 1.00001 0.996827
1.00132 1.00005 0.996778
1.00306 0.999958 0.991393
1.005 0.999385 0.987228
1.00532 0.996476 0.989861
1.00089 1.00001 0.997293
1.00299 1.00006 0.989733
1.00508 0.999533 0.986912
1.00156 0.999977 0.996664
1.00311 1.00014 0.989461
1.00168 0.99994 0.996689
1.00118 0.999937 0.994008
1.00288 0.999869 0.990931
1.00494 0.99882 0.987907
1.00123 0.999982 0.99689
1.00274 0.999861 0.990345
1.00128 0.999994 0.996852
1.00069 0.999999 0.994453
1.00296 0.99994 0.990726
1.00497 0.999405 0.987233
1.00113 1 0.995493
1.00297 1.00006 0.989759
1.00159 0.999975 0.996667
1.00122 0.999967 0.996886
1.00274 0.999861 0.990336
1.00119 0.999982 0.99689
1.00098 0.999967 0.995672
1.00284 0.999936 0.990121
1.00145 0.999994 0.996707
1.00124 0.99997 0.996884
1.0013 0.99998 0.996808

TENSORS stress float
0.0023627 -0.000163814 0.000273362
-0.000163814 0.0011643 -4.79908e-05
0.000273362 -4.79908e-05 0.00113774
0.00731059 8.83813e-05 0.000321834
8.83813e-05 0.0043058 3.76673e-05
0.000321834 3.76673e-05 0.00431452
0.00196226 -9.36889e-05 0.000113293
-9.36889e-05 0.000908804 -1.86186e-05
0.000113293 -1.86186e-05 0.000869622
0.0022977 -9.23356e-05 0.000262391
-9.23356e-05 0.00110041 -2.73754e-05
0.000262391 -2.73754e-05 0.00108377
0.00237187 -0.000143552 0.000266667
-0.000143552 0.00116033 -4.22572e-05
0.000266667 -4.22572e-05 0.00113729
0.00234444 -0.000168385 0.000284549
-0.000168385 0.00115357 -4.9859e-05
0.000284549 -4.9859e-05 0.00112703
0.00192048 -0.000161133 5.43086e-05
-0.000161133 0.000777063 -1.51971e-05
5.43086e-05 -1.51971e-05 0.000655056
0.00727499 8.09632e-05 -7.74566e-06
8.09632e-05 0.00427487 -1.9941e-06
-7.74566e-06 -1.9941e-06 0.00428834
0.00673814 0.000233121 0.000158815
0.000233121 0.0039438 1.64611e-05
0.000158815 1.64611e-05 0.00391531
0.00675286 4.13016e-06 9.40337e-05
4.13016e-06 0.00392983 5.18471e-06
9.40337e-05 5.18471e-06 0.00391032
0.00207438 0.000216274 0.000297214
0.000216274 0.000992539 4.07365e-05
0.000297214 4.07365e-05 0.000979837
0.000346247 0.000266204 2.68479e-05
0.000266204 -0.000175572 2.06916e-05
2.68479e-05 2.06916e-05 -0.000324909
0.00187002 -3.23414e-05 0.000255641
-3.23414e-05 0.000829351 4.23121e-06
0.000255641 4.23121e-06 0.000831325
0.00158434 3.74098e-06 6.91114e-05
3.74098e-06 0.000668584 2.11553e-06
6.91114e-05 2.11553e-06 0.000620431
0.00164675 -9.26163e-05 -6.21658e-05
-9.26163e-05 0.000721456 1.1696e-05
-6.21658e-05 1.1696e-05 0.000663126
0.00193604 -9.14873e-05 8.50432e-05
-9.14873e-05 0.000889104 -5.40804e-06
8.50432e-05 -5.40804e-06 0.000853222
0.00197506 -8.25138e-05 0.000123227
-8.25138e-05 0.000921181 -2.02387e-05
0.000123227 -2.02387e-05 0.000878206
0.00196011 -9.93739e-05 0.00010111
-9.93739e-05 0.000902067 -1.42493e-05
0.00010111 -1.42493e-05 0.000865632
0.00201568 -0.00019745 -4.29848e-05
-0.00019745 0.000835963 6.57174e-06
-4.29848e-05 6.57174e-06 0.000723211
0.00631884 -0.000152211 0.00033424
-0.000152211 0.00368689 -1.52094e-05
0.00033424 -1.52094e-05 0.0037076
0.00222465 -6.8634e-05 0.000259375
-6.8634e-05 0.00105466 -2.01191e-05
0.000259375 -2.01191e-05 0.00104138
0.00236871 -0.000118943 0.00026506
-0.000118943 0.00114921 -3.51272e-05
0.00026506 -3.51272e-05 0.00112978
0.00188828 -0.000146585 7.30706e-05
-0.000146585 0.000762477 -1.15137e-05
7.30706e-05 -1.15137e-05 0.000659487
0.00191746 -0.000162173 6.2513e-05
-0.000162173 0.000770479 -1.47525e-05
6.2513e-05 -1.47525e-05 0.000657916
0.00239462 -0.000148618 0.000291831
-0.000148618 0.00117372 -4.6793e-05
0.000291831 -4.6793e-05 0.00115032
0.00192645 -0.000161663 4.86202e-05
-0.000161663 0.000800922 -1.56341e-05
4.86202e-05 -1.56341e-05 0.000665302
0.00206393 -0.00035928 1.98897e-05
-0.00035928 0.00061188 -8.67308e-06
1.98897e-05 -8.67308e-06 0.000377476
0.00725132 6.52683e-05 -0.000324122
6.52683e-05 0.00424867 -2.82513e-05
-0.000324122 -2.82513e-05 0.00426679
0.00440667 0.000171401 -0.000152791
0.000171401 0.0024578 -1.77818e-05
-0.000152791 -1.77818e-05 0.00243463
0.00443764 9.19308e-05 -0.000155018
9.19308e-05 0.00248274 -1.64252e-05
-0.000155018 -1.64252e-05 0.00246134
0.00719901 7.05658e-06 -3.24769e-06
7.05658e-06 0.00423611 -7.75184e-07
-3.24769e-06 -7.75184e-07 0.0042462
0.000403057 0.000251454 -9.89129e-07
0.000251454 -0.000138055 -1.46933e-06
-9.89129e-07 -1.46933e-06 -0.000287729
0.001933 7.25708e-05 0.000265675
7.25708e-05 0.000867846 2.57368e-05
0.000265675 2.57368e-05 0.000856393
0.00206995 0.00016399 0.000273875
0.00016399 0.000988745 3.9842e-05
0.000273875 3.9842e-05 0.000964434
0.00287759 0.000223683 0.000162971
0.000223683 0.00137036 2.45817e-05
0.000162971 2.45817e-05 0.00128234
0.00627863 -0.00026998 2.41961e-05
-0.00026998 0.00371464 4.15497e-06
2.41961e-05 4.15497e-06 0.00366428
0.00300431 0.000302964 0.000172111
0.000302964 0.00149567 3.05868e-05
0.000172111 3.05868e-05 0.001389
0.000415914 0.000240172 2.62642e-05
0.000240172 -0.000122646 2.86498e-05
2.62642e-05 2.86498e-05 -0.000273681
0.000876837 0.000295898 1.72109e-05
0.000295898 -2.78737e-05 6.48953e-06
1.72109e-05 6.48953e-06 -0.000273643
0.00519013 -0.000116031 0.00019508
-0.000116031 0.00303853 2.07486e-05
0.00019508 2.07486e-05 0.0030327
0.00631024 8.56778e-05 3.13699e-06
8.56778e-05 0.00366652 -1.99093e-06
3.13699e-06 -1.99093e-06 0.00369521
0.00414321 9.60077e-05 -0.000127797
9.60077e-05 0.00228712 -6.04296e-06
-0.000127797 -6.04296e-06 0.00227631
0.00614129 5.76719e-05 0.000324517
5.76719e-05 0.00356295 4.56889e-06
0.000324517 4.56889e-06 0.00359247
0.00146048 9.10187e-05 7.03603e-05
9.10187e-05 0.000595137 4.68771e-06
7.03603e-05 4.68771e-06 0.000551886
0.000474725 1.22128e-05 1.47397e-05
1.22128e-05 -0.000155687 1.59601e-06
1.47397e-05 1.59601e-06 -0.000245958
0.0065471 0.000241434 0.000188702
0.000241434 0.00384493 1.86213e-05
0.000188702 1.86213e-05 0.0038191
0.00292042 8.18158e-05 0.000152887
8.18158e-05 0.00137868 1.00025e-05
0.000152887 1.00025e-05 0.00131832
0.00153288 -9.1845e-05 -8.35461e-05
-9.1845e-05 0.000652476 1.10124e-05
-8.35461e-05 1.10124e-05 0.000596781
0.00156053 -0.000118298 -7.54214e-05
-0.000118298 0.000674434 1.39715e-05
-7.54214e-05 1.39715e-05 0.000613807
0.00171246 -5.15939e-05 -4.99674e-05
-5.15939e-05 0.000756633 9.75748e-06
-4.99674e-05 9.75748e-06 0.000698393
0.00207515 -0.000199696 -0.00014769
-0.000199696 0.000864183 2.83707e-05
-0.00014769 2.83707e-05 0.000763788
0.00396378 -2.69345e-05 -0.000129882
-2.69345e-05 0.00218612 -1.47075e-06
-0.000129882 -1.47075e-06 0.00217524
0.00189643 -7.11777e-05 9.02336e-05
-7.11777e-05 0.000861842 -4.34171e-06
9.02336e-05 -4.34171e-06 0.000830357
0.00205182 -6.06838e-05 0.000130687
-6.06838e-05 0.000967656 -1.94918e-05
0.000130687 -1.94918e-05 0.000922742
0.00195758 -9.60103e-05 9.18254e-05
-9.60103e-05 0.000899541 -9.34319e-06
9.18254e-05 -9.34319e-06 0.00086376
0.00196346 -0.000124281 -3.47378e-05
-0.000124281 0.000798956 2.59916e-06
-3.47378e-05 2.59916e-06 0.000708605
0.00202263 -0.000204415 -4.99823e-05
-0.000204415 0.000855258 7.61739e-06
-4.99823e-05 7.61739e-06 0.000732351
0.00200791 -0.000178759 -3.73596e-05
-0.000178759 0.000825883 4.73703e-06
-3.73596e-05 4.73703e-06 0.000722167
0.00211893 -0.000363766 -1.04966e-05
-0.000363766 0.000645012 2.74325e-06
-1.04966e-05 2.74325e-06 0.000411074
0.00612211 -1.74756e-06 0.000320455
-1.74756e-06 0.00354868 -3.03591e-06
0.000320455 -3.03591e-06 0.00357947
0.00214997 -4.32795e-05 0.000254128
-4.32795e-05 0.00101137 -1.39524e-05
0.000254128 -1.39524e-05 0.00100245
0.00245077 -1.42666e-05 5.46578e-05
-1.42666e-05 0.0011139 -1.0274e-06
5.46578e-05 -1.0274e-06 0.00104336
0.0018556 -0.000118367 6.61204e-05
-0.000118367 0.000742735 -7.3395e-06
6.61204e-05 -7.3395e-06 0.000649229
0.001911 -0.00015618 6.93e-05
-0.00015618 0.00077034 -1.37428e-05
6.93e-05 -1.37428e-05 0.000662734
0.00194222 -0.000233292 7.30789e-06
-0.000233292 0.000456111 -2.72245e-06
7.30789e-06 -2.72245e-06 0.000280737
0.0019652 -0.000315879 1.6288e-05
-0.000315879 0.000510534 -6.13483e-06
1.6288e-05 -6.13483e-06 0.000302488
0.00189238 -0.000106785 0.000261781
-0.000106785 0.000862181 -3.83112e-05
0.000261781 -3.83112e-05 0.000841013
0.00201209 -0.0001311 4.01571e-05
-0.0001311 0.000873113 -1.43279e-05
4.01571e-05 -1.43279e-05 0.000732942
0.00206453 -0.00039699 2.33434e-05
-0.00039699 0.000659318 -9.54043e-06
2.33434e-05 -9.54043e-06 0.000399349
0.00181588 -0.000477627 7.11645e-06
-0.000477627 0.000218129 -6.95435e-07
7.11645e-06 -6.95435e-07 -6.21608e-05
0.00715372 0.000288543 -0.000366796
0.000288543 0.00420458 -4.30225e-05
-0.000366796 -4.30225e-05 0.00421131
0.00702076 -2.35051e-05 -0.00028669
-2.35051e-05 0.0041261 -2.24328e-05
-0.00028669 -2.24328e-05 0.00413771
0.00715477 0.00014356 -0.000338863
0.00014356 0.00418628 -3.35005e-05
-0.000338863 -3.35005e-05 0.00420552
0.000344675 0.000236645 -2.50882e-05
0.000236645 -0.000167796 -2.10161e-05
-2.50882e-05 -2.10161e-05 -0.000319406
0.00700667 0.000253719 -2.17879e-06
0.000253719 0.00410584 -2.48976e-06
-2.17879e-06 -2.48976e-06 0.00411823
0.00716615 0.000243577 -8.92563e-06
0.000243577 0.00420371 -3.28807e-06
-8.92563e-06 -3.28807e-06 0.00421359
0.000341292 0.000140576 3.47986e-07
0.000140576 -0.000240552 -2.67963e-07
3.47986e-07 -2.67963e-07 -0.000362685
0.00392685 -7.5704e-05 -0.000127687
-7.5704e-05 0.0022059 -6.3311e-06
-0.000127687 -6.3311e-06 0.00217429
0.000287695 0.000215735 6.6175e-07
0.000215735 -0.000222582 -5.28386e-07
6.6175e-07 -5.28386e-07 -0.000365515
0.00180834 0.000251941 6.35908e-05
0.000251941 0.000763114 4.05279e-06
6.35908e-05 4.05279e-06 0.000637963
0.000943882 0.000298876 9.70471e-07
0.000298876 2.08667e-05 1.1516e-07
9.70471e-07 1.1516e-07 -0.000224095
0.00589369 -0.000130179 0.000221019
-0.000130179 0.00348816 2.72419e-05
0.000221019 2.72419e-05 0.00347319
0.000541074 9.20732e-05 2.10156e-05
9.20732e-05 1.0429e-05 1.4499e-05
2.10156e-05 1.4499e-05 -7.23852e-05
0.000456891 0.000109767 1.46748e-05
0.000109767 -0.000184787 1.12895e-05
1.46748e-05 1.12895e-05 -0.000299639
0.0004625 0.000170697 1.93856e-05
0.000170697 -0.000150554 1.91955e-05
1.93856e-05 1.91955e-05 -0.000281201
0.0012561 0.000285437 1.55334e-05
0.000285437 2.58663e-05 5.93572e-06
1.55334e-05 5.93572e-06 -0.000190662
0.00317069 0.000246377 0.000156607
0.000246377 0.00163547 2.28977e-05
0.000156607 2.28977e-05 0.00154867
0.00108286 0.000320334 2.2127e-05
0.000320334 3.84468e-05 7.74062e-06
2.2127e-05 7.74062e-06 -0.000206681
0.000869897 0.000290325 1.40059e-05
0.000290325 7.36264e-05 6.31045e-06
1.40059e-05 6.31045e-06 -0.000176163
0.00142278 0.00049472 5.54496e-06
0.00049472 0.000180117 -2.75117e-06
5.54496e-06 -2.75117e-06 -0.000156907
0.00411217 -0.000131203 0.000127542
-0.000131203 0.00233712 9.8824e-06
0.000127542 9.8824e-06 0.00233266
0.00465819 -0.000170267 2.34414e-05
-0.000170267 0.00270474 -1.86788e-07
2.34414e-05 -1.86788e-07 0.00268775
0.00681075 6.91002e-05 -0.000345309
6.91002e-05 0.00396523 -1.7969e-05
-0.000345309 -1.7969e-05 0.00399253
0.00640954 7.70849e-05 -0.000336921
7.70849e-05 0.00372494 -1.09602e-05
-0.000336921 -1.09602e-05 0.00375487
0.00623368 8.36716e-05 -8.68923e-08
8.36716e-05 0.00362597 -4.03214e-06
-8.68923e-08 -4.03214e-06 0.00365248
0.00399265 3.76795e-05 -0.000139009
3.76795e-05 0.00219365 -7.68203e-06
-0.000139009 -7.68203e-06 0.00218806
0.00157948 3.98429e-05 6.63054e-05
3.98429e-05 0.000545495 1.85994e-06
6.63054e-05 1.85994e-06 0.000474228
0.00432398 0.00015707 -0.00013126
0.00015707 0.00240717 -7.99402e-06
-0.00013126 -7.99402e-06 0.00238785
0.0016383 9.60251e-05 6.74004e-05
9.60251e-05 0.000570841 3.52159e-06
6.74004e-05 3.52159e-06 0.000487886
0.00617655 0.000117096 0.000326974
0.000117096 0.00359874 7.33647e-06
0.000326974 7.33647e-06 0.00362052
0.000365955 1.03025e-05 1.80891e-05
1.03025e-05 -0.000219152 7.6406e-07
1.80891e-05 7.6406e-07 -0.000305081
0.00283014 4.30167e-05 0.000150033
4.30167e-05 0.00132892 6.58182e-06
0.000150033 6.58182e-06 0.00127476
0.00111592 7.23061e-05 1.10237e-05
7.23061e-05 -5.8263e-05 3.30225e-07
1.10237e-05 3.30225e-07 -0.000193746
0.00281315 0.000128726 0.000157538
0.000128726 0.00131071 1.37033e-05
0.000157538 1.37033e-05 0.00124231
0.00124278 0.000158218 7.39175e-06
0.000158218 -3.00067e-05 1.29778e-06
7.39175e-06 1.29778e-06 -0.00018916
0.0018848 4.07865e-05 -0.000254514
4.07865e-05 0.00083637 3.50098e-06
-0.000254514 3.50098e-06 0.000841237
0.00146671 -2.22528e-05 -6.90731e-05
-2.22528e-05 0.000602527 3.22601e-06
-6.90731e-05 3.22601e-06 0.000553556
0.00171477 -2.10279e-05 -4.38014e-05
-2.10279e-05 0.000756444 8.88992e-06
-4.38014e-05 8.88992e-06 0.00069659
0.00152831 -0.000108938 -8.44832e-05
-0.000108938 0.000652678 1.36583e-05
-8.44832e-05 1.36583e-05 0.000594494
0.00208036 -0.000102141 -0.000137454
-0.000102141 0.000861627 1.35445e-05
-0.000137454 1.35445e-05 0.000784043
0.0021064 -0.000164672 -0.000142583
-0.000164672 0.000874793 2.38939e-05
-0.000142583 2.38939e-05 0.000785038
0.00207986 -0.000221737 -0.000153425
-0.000221737 0.000885277 3.0338e-05
-0.000153425 3.0338e-05 0.000773918
0.00217359 -0.00036833 -3.65817e-05
-0.00036833 0.000678946 1.29567e-05
-3.65817e-05 1.29567e-05 0.00044556
0.0062207 -0.000111446 2.40635e-06
-0.000111446 0.00362415 -1.96814e-06
2.40635e-06 -1.96814e-06 0.00364682
0.00177761 2.51324e-05 9.70048e-05
2.51324e-05 0.000779455 -4.99474e-06
9.70048e-05 -4.99474e-06 0.000757907
0.00117246 -1.36634e-05 -6.92371e-05
-1.36634e-05 0.000293484 2.29824e-06
-6.92371e-05 2.29824e-06 0.000222196
0.00190684 -8.24349e-05 -3.79355e-05
-8.24349e-05 0.000765914 3.2703e-06
-3.79355e-05 3.2703e-06 0.00068334
0.00470504 -6.74294e-05 0.000273661
-6.74294e-05 0.00265616 -2.11517e-05
0.000273661 -2.11517e-05 0.00265045
0.00262 -0.000211544 -4.75497e-05
-0.000211544 0.00124679 4.65412e-06
-4.75497e-05 4.65412e-06 0.00112128
0.00199972 -0.000152626 -3.46957e-05
-0.000152626 0.000819758 3.38937e-06
-3.46957e-05 3.38937e-06 0.00072325
0.00201667 -0.000233956 -9.37155e-06
-0.000233956 0.000499463 1.78701e-06
-9.37155e-06 1.78701e-06 0.000328318
0.00212844 -0.000405327 -9.13344e-06
-0.000405327 0.000701365 2.60655e-06
-9.13344e-06 2.60655e-06 0.000440384
0.00204526 -0.000319341 -9.44605e-06
-0.000319341 0.000561407 2.50994e-06
-9.44605e-06 2.50994e-06 0.000351588
0.00185995 -0.000480352 9.33568e-07
-0.000480352 0.000247386 -2.21848e-07
9.33568e-07 -2.21848e-07 -3.26477e-05
0.000401719 8.51276e-06 1.88701e-05
8.51276e-06 -0.000199994 -5.76516e-07
1.88701e-05 -5.76516e-07 -0.000282048
0.00174267 -9.26958e-06 5.65582e-05
-9.26958e-06 0.000660927 -2.7333e-06
5.65582e-05 -2.7333e-06 0.000581887
0.0019008 -7.89398e-05 8.88851e-06
-7.89398e-05 0.000442653 -2.88005e-07
8.88851e-06 -2.88005e-07 0.00032372
0.00192263 -0.000184993 8.7971e-06
-0.000184993 0.00044068 -8.95145e-07
8.7971e-06 -8.95145e-07 0.000288863
0.00198074 -0.000276421 1.13939e-05
-0.000276421 0.000492482 -4.03567e-06
1.13939e-05 -4.03567e-06 0.000305665
0.00198178 -0.00033292 -1.10296e-07
-0.00033292 0.000179154 -3.11809e-07
-1.10296e-07 -3.11809e-07 -1.21727e-07
0.00666022 7.34336e-05 0.000246785
7.34336e-05 0.00392282 -2.02553e-05
0.000246785 -2.02553e-05 0.00392381
0.0017906 -0.000437045 5.29291e-06
-0.000437045 0.000144689 -5.04686e-07
5.29291e-06 -5.04686e-07 -0.00010147
0.000219427 -0.00019713 2.0335e-05
-0.00019713 -0.000264079 -2.3013e-05
2.0335e-05 -2.3013e-05 -0.000398264
0.000986019 -0.000323421 2.0146e-05
-0.000323421 4.41875e-05 -1.0856e-05
2.0146e-05 -1.0856e-05 -0.000221307
0.0019418 -0.00053805 1.02585e-05
-0.00053805 0.000364625 -8.39816e-07
1.02585e-05 -8.39816e-07 3.9756e-05
0.00199783 -0.000549114 2.31871e-06
-0.000549114 0.000227777 2.67275e-06
2.31871e-06 2.67275e-06 -3.49693e-05
0.000442635 -0.000166571 2.30136e-05
-0.000166571 -8.30937e-05 -1.86894e-05
2.30136e-05 -1.86894e-05 -0.000195612
0.000707516 -0.000150281 -5.92956e-07
-0.000150281 0.000133153 -1.33058e-06
-5.92956e-07 -1.33058e-06 -0.000121099
0.00710009 0.000278949 -0.000373472
0.000278949 0.00417091 -4.01665e-05
-0.000373472 -4.01665e-05 0.00417996
0.00718194 0.00023348 -0.000354477
0.00023348 0.00421169 -3.99015e-05
-0.000354477 -3.99015e-05 0.00422532
0.000325757 0.000138802 -1.81557e-05
0.000138802 -0.000251902 -1.39249e-05
-1.81557e-05 -1.39249e-05 -0.000374479
0.00629351 -9.93484e-05 -0.000232469
-9.93484e-05 0.0037027 -1.75807e-05
-0.000232469 -1.75807e-05 0.00370316
0.0002387 0.000212149 -2.26564e-05
0.000212149 -0.000233749 -2.20323e-05
-2.26564e-05 -2.20323e-05 -0.000367886
0.000345554 0.000207407 -2.15301e-05
0.000207407 -0.000185577 -1.90899e-05
-2.15301e-05 -1.90899e-05 -0.000329844
0.000907498 0.000294922 -1.87434e-05
0.000294922 2.26966e-06 -7.65111e-06
-1.87434e-05 -7.65111e-06 -0.000241473
0.00573233 -0.000116598 -7.38158e-06
-0.000116598 0.00337233 1.71942e-06
-7.38158e-06 1.71942e-06 0.00336615
0.000563117 7.2606e-05 1.63515e-06
7.2606e-05 2.69243e-05 3.65787e-07
1.63515e-06 3.65787e-07 -5.25466e-05
0.00169189 0.000153854 7.00427e-05
0.000153854 0.00060177 6.32915e-06
7.00427e-05 6.32915e-06 0.000503228
0.00168104 0.000218686 7.21771e-05
0.000218686 0.000630189 7.44783e-06
7.21771e-05 7.44783e-06 0.000514506
0.00122892 0.000284432 -3.88696e-09
0.000284432 1.40223e-05 -3.50277e-07
-3.88696e-09 -3.50277e-07 -0.000203511
0.000408206 0.000186219 -5.27272e-07
0.000186219 -0.000108884 -3.58477e-07
-5.27272e-07 -3.58477e-07 -0.000225783
0.00104405 0.000314712 1.3224e-06
0.000314712 1.61509e-05 1.78013e-07
1.3224e-06 1.78013e-07 -0.000227786
0.000755249 0.000271127 4.22682e-07
0.000271127 -1.96008e-06 -9.08822e-07
4.22682e-07 -9.08822e-07 -0.000244993
0.00157271 0.00051813 -5.51796e-07
0.00051813 0.000262591 -5.1178e-07
-5.51796e-07 -5.1178e-07 -7.8013e-05
0.00041188 0.000148125 2.01335e-05
0.000148125 -8.6478e-05 1.74169e-05
2.01335e-05 1.74169e-05 -0.0001915
0.000647776 3.22737e-05 1.1809e-05
3.22737e-05 9.25723e-05 1.36654e-05
1.1809e-05 1.36654e-05 2.8182e-05
0.00145686 0.000251543 5.02615e-06
0.000251543 0.000628798 3.74064e-06
5.02615e-06 3.74064e-06 0.000397879
0.00128267 0.000248202 1.12758e-05
0.000248202 6.71448e-06 4.22596e-06
1.12758e-05 4.22596e-06 -0.000190248
0.00120831 0.000313858 2.0489e-05
0.000313858 4.80691e-05 7.48133e-06
2.0489e-05 7.48133e-06 -0.000186123
0.00200207 0.000468636 4.28848e-06
0.000468636 0.000256392 -3.66368e-07
4.28848e-06 -3.66368e-07 5.78164e-06
0.000586603 0.000234304 1.01233e-05
0.000234304 -2.27705e-05 6.12144e-06
1.01233e-05 6.12144e-06 -0.000258633
0.00197247 0.000558431 5.7e-06
0.000558431 0.000404249 -1.63461e-06
5.7e-06 -1.63461e-06 8.3614e-05
0.0013608 0.000481904 2.27808e-06
0.000481904 0.000262621 -3.30203e-06
2.27808e-06 -3.30203e-06 -9.46874e-05
0.00160551 0.000588636 -6.04857e-06
0.000588636 0.000182111 -5.73967e-06
-6.04857e-06 -5.73967e-06 -0.000170202
0.00357837 -0.000135965 8.42992e-05
-0.000135965 0.00198922 5.56011e-06
8.42992e-05 5.56011e-06 0.00198412
0.004015 -0.000172654 1.74606e-05
-0.000172654 0.00228329 -1.17747e-06
1.74606e-05 -1.17747e-06 0.00226788
0.00450145 -0.000222099 -9.51853e-05
-0.000222099 0.00261514 -9.25959e-06
-9.51853e-05 -9.25959e-06 0.00258478
0.00056557 -0.000153471 2.24529e-05
-0.000153471 1.65629e-05 -1.62415e-05
2.24529e-05 -1.62415e-05 -8.30614e-05
0.00605895 0.00012237 0.000207638
0.00012237 0.00357805 -2.00804e-05
0.000207638 -2.00804e-05 0.00356735
0.00700677 0.000231584 -0.000371151
0.000231584 0.00410503 -3.29983e-05
-0.000371151 -3.29983e-05 0.00412137
0.00652371 0.000102193 -0.000339537
0.000102193 0.00379291 -1.54397e-05
-0.000339537 -1.54397e-05 0.00382093
0.000366068 0.000101273 -1.84589e-05
0.000101273 -0.000234076 -5.93565e-06
-1.84589e-05 -5.93565e-06 -0.000335498
0.00033652 4.3125e-05 -1.83608e-05
4.3125e-05 -0.000236938 -2.64996e-06
-1.83608e-05 -2.64996e-06 -0.000327911
0.00618388 -4.25688e-06 -0.000322955
-4.25688e-06 0.00358538 -2.94277e-06
-0.000322955 -2.94277e-06 0.00361632
0.00611572 2.5483e-06 -3.00705e-08
2.5483e-06 0.0035442 -1.1327e-06
-3.00705e-08 -1.1327e-06 0.00357531
0.000345675 7.52197e-07 6.97931e-08
7.52197e-07 -0.000234702 2.3954e-07
6.97931e-08 2.3954e-07 -0.000318906
0.00158985 4.28973e-05 6.67189e-05
4.28973e-05 0.000545142 3.22423e-06
6.67189e-05 3.22423e-06 0.000470991
0.0010915 7.61757e-05 1.59999e-07
7.61757e-05 -7.88208e-05 -1.35748e-07
1.59999e-07 -1.35748e-07 -0.000215364
0.000370443 9.0003e-05 -7.04625e-07
9.0003e-05 -0.000235338 -3.75822e-07
-7.04625e-07 -3.75822e-07 -0.000344154
0.00120772 0.000159746 -4.32615e-08
0.000159746 -4.87074e-05 -1.4366e-07
-4.32615e-08 -1.4366e-07 -0.000209186
0.000344785 -3.23514e-05 1.86297e-05
-3.23514e-05 -0.000236198 -8.787e-07
1.86297e-05 -8.787e-07 -0.000317283
0.00108318 3.21594e-05 1.06989e-05
3.21594e-05 -6.90595e-05 7.29341e-08
1.06989e-05 7.29341e-08 -0.000198216
0.0011158 0.000115728 9.06908e-06
0.000115728 -8.00244e-05 9.54206e-07
9.06908e-06 9.54206e-07 -0.000225861
0.001892 0.000119934 1.42811e-06
0.000119934 3.36328e-05 -2.74061e-07
1.42811e-06 -2.74061e-07 -6.00961e-05
0.00128954 0.000203274 7.96635e-06
0.000203274 -5.00145e-06 2.5492e-06
7.96635e-06 2.5492e-06 -0.000181981
0.00208625 0.000276467 4.03963e-07
0.000276467 0.000170314 -8.98043e-07
4.03963e-07 -8.98043e-07 3.01977e-05
0.00613784 -7.31752e-05 -0.000326144
-7.31752e-05 0.00356593 3.91701e-06
-0.000326144 3.91701e-06 0.00359262
0.00142896 -0.000159958 -6.93726e-05
-0.000159958 0.0005993 8.60309e-06
-6.93726e-05 8.60309e-06 0.000544341
-0.000229866 -8.15181e-06 -1.17093e-05
-8.15181e-06 -0.000590132 1.60037e-06
-1.17093e-05 1.60037e-06 -0.000688463
0.00202637 -7.34331e-05 -0.000136173
-7.34331e-05 0.000834309 9.19905e-06
-0.000136173 9.19905e-06 0.000762175
0.00712315 0.000233729 -4.47904e-05
0.000233729 0.00420514 3.40476e-06
-4.47904e-05 3.40476e-06 0.00415936
0.00309813 -0.00028693 -0.000159489
-0.00028693 0.00154981 3.1186e-05
-0.000159489 3.1186e-05 0.00143162
0.00211094 -0.00013233 -0.000139989
-0.00013233 0.000876688 1.87059e-05
-0.000139989 1.87059e-05 0.000793983
0.00208719 -0.000234876 -2.86519e-05
-0.000234876 0.00054029 5.42597e-06
-2.86519e-05 5.42597e-06 0.000373442
0.00210207 -0.000321435 -3.2595e-05
-0.000321435 0.00059604 1.1181e-05
-3.2595e-05 1.1181e-05 0.000384792
0.00216897 -0.000410259 -3.87018e-05
-0.000410259 0.000729337 1.39212e-05
-3.87018e-05 1.39212e-05 0.000468297
0.00189409 -0.000482332 -5.74969e-06
-0.000482332 0.000269996 4.05379e-07
-5.74969e-06 4.05379e-07 -9.69393e-06
0.000343796 3.61252e-06 4.82007e-09
3.61252e-06 -0.000234582 3.70494e-07
4.82007e-09 3.70494e-07 -0.000317644
0.00188444 -9.19504e-05 -3.65148e-05
-9.19504e-05 0.000758325 5.90637e-07
-3.65148e-05 5.90637e-07 0.000680627
0.00156034 -7.46431e-05 -1.17304e-05
-7.46431e-05 0.000226055 7.51646e-07
-1.17304e-05 7.51646e-07 0.000103079
0.0019471 -0.000184416 -9.98168e-06
-0.000184416 0.000453388 1.70702e-06
-9.98168e-06 1.70702e-06 0.000299185
0.00688927 7.22569e-05 4.50889e-06
7.22569e-05 0.00406949 3.97442e-07
4.50889e-06 3.97442e-07 0.00406844
0.0017361 -0.000203842 6.87435e-06
-0.000203842 0.000710653 6.42722e-07
6.87435e-06 6.42722e-07 0.00056785
0.00144006 -0.000353247 -3.17739e-07
-0.000353247 0.000327464 -1.29414e-06
-3.17739e-07 -1.29414e-06 6.15948e-05
0.002028 -0.000280039 -9.73163e-06
-0.000280039 0.000519205 2.58769e-06
-9.73163e-06 2.58769e-06 0.000331517
0.00208874 -0.000341531 4.5949e-07
-0.000341531 0.000243488 -3.54328e-07
4.5949e-07 -3.54328e-07 7.01485e-05
0.00193228 -0.000536873 1.32053e-06
-0.000536873 0.000358366 -9.13051e-08
1.32053e-06 -9.13051e-08 3.50737e-05
0.00190085 -0.000440793 3.91918e-07
-0.000440793 0.000218259 -2.44371e-07
3.91918e-07 -2.44371e-07 -2.85746e-05
0.00204504 -0.000551649 8.72964e-07
-0.000551649 0.000262551 1.67469e-07
8.72964e-07 1.67469e-07 -4.87325e-07
0.000441811 -0.000179214 1.97797e-06
-0.000179214 -8.85239e-05 3.30073e-07
1.97797e-06 3.30073e-07 -0.000200696
0.000766309 -0.000208272 1.57492e-06
-0.000208272 0.000161978 5.38249e-07
1.57492e-06 5.38249e-07 -8.744e-05
0.00108209 -3.69432e-05 1.10215e-05
-3.69432e-05 -6.60634e-05 -5.47747e-07
1.10215e-05 -5.47747e-07 -0.00019507
0.00196914 -0.000128699 8.00905e-06
-0.000128699 0.000480835 -4.7333e-07
8.00905e-06 -4.7333e-07 0.000348902
0.00183288 -0.000130198 1.97523e-06
-0.000130198 2.69432e-05 -1.83595e-07
1.97523e-06 -1.83595e-07 -8.06163e-05
0.00196564 -0.000274569 9.71845e-08
-0.000274569 0.000129022 6.87987e-07
9.71845e-08 6.87987e-07 -8.45e-06
0.0019026 -0.000394371 3.23255e-07
-0.000394371 0.000164337 1.71588e-07
3.23255e-07 1.71588e-07 -4.42794e-05
0.00210095 -0.000380178 4.34418e-06
-0.000380178 0.000151894 -1.38056e-06
4.34418e-06 -1.38056e-06 1.34025e-05
0.000267006 -0.000181419 2.02897e-05
-0.000181419 -0.000208237 -2.21207e-05
2.02897e-05 -2.21207e-05 -0.000335586
0.00203028 -0.000504038 1.53582e-06
-0.000504038 0.000195183 1.59581e-06
1.53582e-06 1.59581e-06 -2.14084e-05
0.000857803 -0.00028243 1.35455e-05
-0.00028243 5.52373e-05 -9.52334e-06
1.35455e-05 -9.52334e-06 -0.00019817
0.00165483 -0.000568065 1.48652e-05
-0.000568065 0.000270695 -1.72841e-06
1.48652e-05 -1.72841e-06 -0.00010121
0.00224236 -0.000617283 2.86374e-06
-0.000617283 0.000452842 1.76361e-06
2.86374e-06 1.76361e-06 0.000129558
0.00231471 -0.000589691 4.69008e-07
-0.000589691 0.000395795 3.63424e-06
4.69008e-07 3.63424e-06 0.000160402
0.000456943 -0.000207279 1.18685e-06
-0.000207279 -5.59443e-05 -4.734e-06
1.18685e-06 -4.734e-06 -0.000319601
0.000969011 -0.00014489 -1.05436e-07
-0.00014489 0.000324124 -1.54396e-06
-1.05436e-07 -1.54396e-06 9.36938e-05
0.000956268 -0.00028325 -8.82324e-07
-0.00028325 0.000268167 1.75261e-06
-8.82324e-07 1.75261e-06 -3.36084e-05
0.000340707 0.000115909 -1.71274e-05
0.000115909 -0.000253672 -1.07977e-05
-1.71274e-05 -1.07977e-05 -0.000370079
0.00520974 -0.000161133 -0.000163209
-0.000161133 0.00304808 -1.28967e-05
-0.000163209 -1.28967e-05 0.0030342
0.000369325 6.20128e-05 -1.57855e-05
6.20128e-05 -9.47981e-05 -1.42306e-05
-1.57855e-05 -1.42306e-05 -0.000167441
0.000297948 0.000169463 -1.98072e-05
0.000169463 -0.000244793 -1.70943e-05
-1.98072e-05 -1.70943e-05 -0.000376508
0.001194 0.000283302 -1.6658e-05
0.000283302 -3.43335e-06 -6.54532e-06
-1.6658e-05 -6.54532e-06 -0.000221993
0.000360082 0.000178385 -2.29509e-05
0.000178385 -0.000143356 -2.00646e-05
-2.29509e-05 -2.00646e-05 -0.000258665
0.000701899 0.000259481 -1.28071e-05
0.000259481 -3.58221e-05 -8.17611e-06
-1.28071e-05 -8.17611e-06 -0.000273576
0.00109556 0.000313707 -2.29846e-05
0.000313707 5.42279e-05 -8.5057e-06
-2.29846e-05 -8.5057e-06 -0.000188609
0.00170042 0.000539397 -7.16485e-06
0.000539397 0.000330132 1.2123e-06
-7.16485e-06 1.2123e-06 -1.34825e-05
0.000478088 0.000148354 -2.43264e-06
0.000148354 -5.42879e-05 1.52441e-06
-2.43264e-06 1.52441e-06 -0.000150891
0.000414272 1.07547e-05 1.1914e-06
1.07547e-05 -4.50437e-05 4.03794e-07
1.1914e-06 4.03794e-07 -0.000108507
0.000714078 0.000160074 1.92724e-06
0.000160074 0.000143872 -4.33643e-07
1.92724e-06 -4.33643e-07 -6.83709e-05
0.00125188 0.000247465 -1.68958e-07
0.000247465 -6.82582e-06 -3.06188e-07
-1.68958e-07 -3.06188e-07 -0.000204913
0.0011639 0.00031021 3.31538e-07
0.00031021 2.56325e-05 -2.20356e-07
3.31538e-07 -2.20356e-07 -0.000208751
0.00197535 0.000466651 -3.44325e-07
0.000466651 0.000238085 -1.49147e-07
-3.44325e-07 -1.49147e-07 -1.25381e-05
0.000698651 0.000235024 -3.72407e-07
0.000235024 4.74065e-05 4.14142e-08
-3.72407e-07 4.14142e-08 -0.000184057
0.00193049 0.000551192 -3.02571e-07
0.000551192 0.000375395 -4.08388e-07
-3.02571e-07 -4.08388e-07 5.49588e-05
0.00142721 0.000495295 -3.74301e-07
0.000495295 0.000294361 -1.16809e-06
-3.74301e-07 -1.16809e-06 -6.70374e-05
0.00161121 0.000599672 -9.26339e-07
0.000599672 0.000166038 2.19236e-06
-9.26339e-07 2.19236e-06 -0.00018569
0.000549346 -5.70961e-06 3.55235e-06
-5.70961e-06 4.09337e-05 1.19152e-05
3.55235e-06 1.19152e-05 -1.06106e-05
0.00108734 0.000209635 5.63781e-06
0.000209635 0.000346297 2.84043e-06
5.63781e-06 2.84043e-06 0.000113336
0.00101237 0.000114266 2.9534e-06
0.000114266 0.000332778 5.51421e-06
2.9534e-06 5.51421e-06 0.000160654
0.000846526 0.00022596 -3.56474e-07
0.00022596 0.000240954 1.6783e-06
-3.56474e-07 1.6783e-06 -3.70138e-05
0.00204515 0.000413629 1.73606e-06
0.000413629 0.000220673 -1.8167e-06
1.73606e-06 -1.8167e-06 9.20778e-06
0.001943 0.000515891 5.43963e-06
0.000515891 0.000295797 -3.93801e-07
5.43963e-06 -3.93801e-07 6.4725e-06
0.00214197 0.000534044 2.92712e-07
0.000534044 0.000255923 -1.3718e-06
2.92712e-07 -1.3718e-06 2.13235e-05
0.000978039 0.000381598 1.72976e-06
0.000381598 0.000101369 -9.9758e-07
1.72976e-06 -9.9758e-07 -0.000216386
0.00233354 0.000666077 -4.33666e-06
0.000666077 0.00052514 -2.86796e-06
-4.33666e-06 -2.86796e-06 0.000201389
0.00198953 0.000665575 -6.22324e-06
0.000665575 0.000539001 -8.75026e-06
-6.22324e-06 -8.75026e-06 0.000115943
0.00203205 0.000648439 -1.78667e-06
0.000648439 0.000332714 -2.49476e-06
-1.78667e-06 -2.49476e-06 -5.29462e-06
0.000577624 6.11795e-05 1.71366e-06
6.11795e-05 8.27702e-05 5.72926e-06
1.71366e-06 5.72926e-06 -6.24261e-06
0.000472685 -5.53266e-06 2.2856e-06
-5.53266e-06 -1.5917e-05 8.45079e-06
2.2856e-06 8.45079e-06 -5.12569e-05
0.00312824 -0.000124553 5.60159e-05
-0.000124553 0.001694 4.71924e-06
5.60159e-05 4.71924e-06 0.00169173
0.00345674 -0.00015472 1.00797e-05
-0.00015472 0.00191594 -9.76319e-07
1.00797e-05 -9.76319e-07 0.00190543
0.00383026 -0.000191235 -6.66413e-05
-0.000191235 0.00216957 -5.54043e-06
-6.66413e-05 -5.54043e-06 0.00214823
0.0003925 -0.00013859 2.11165e-05
-0.00013859 -6.94716e-05 -1.52316e-05
2.11165e-05 -1.52316e-05 -0.000153802
0.0053848 0.000153044 0.00016431
0.000153044 0.00316874 -1.83474e-05
0.00016431 -1.83474e-05 0.00315033
0.000481648 -0.000157571 1.88022e-06
-0.000157571 -4.06639e-05 6.64031e-07
1.88022e-06 6.64031e-07 -0.000142901
0.00623576 0.000101599 6.08761e-06
0.000101599 0.00368311 5.31031e-07
6.08761e-06 5.31031e-07 0.00367518
0.000366948 0.000115296 -1.80968e-05
0.000115296 -0.000236222 -8.42248e-06
-1.80968e-05 -8.42248e-06 -0.000347503
0.000330699 3.46194e-05 -1.66528e-05
3.46194e-05 -0.000249348 -3.21746e-06
-1.66528e-05 -3.21746e-06 -0.000343177
0.0012083 0.000161812 -7.8554e-06
0.000161812 -4.82639e-05 -1.55789e-06
-7.8554e-06 -1.55789e-06 -0.000209899
0.0010874 7.95148e-05 -1.11802e-05
7.95148e-05 -8.70374e-05 -5.8251e-07
-1.11802e-05 -5.8251e-07 -0.000224401
0.000401703 -7.59355e-06 -1.88156e-05
-7.59355e-06 -0.00020238 -5.49948e-07
-1.88156e-05 -5.49948e-07 -0.000284872
0.00620917 -0.00010162 -0.000332965
-0.00010162 0.0036155 5.93025e-06
-0.000332965 5.93025e-06 0.00364035
0.000390426 -2.82308e-06 4.94258e-08
-2.82308e-06 -0.000208389 -7.16763e-07
4.94258e-08 -7.16763e-07 -0.000289314
0.00105909 3.73371e-05 -1.29196e-07
3.73371e-05 -8.606e-05 9.87603e-08
-1.29196e-07 9.87603e-08 -0.000215731
0.00116716 0.000119222 1.17875e-08
0.000119222 -5.47098e-05 7.75485e-08
1.17875e-08 7.75485e-08 -0.000201444
0.00192521 0.000118728 -2.30735e-07
0.000118728 6.45912e-05 3.50641e-07
-2.30735e-07 3.50641e-07 -2.89701e-05
0.00125336 0.000203822 -3.14823e-07
0.000203822 -2.27253e-05 -2.72728e-07
-3.14823e-07 -2.72728e-07 -0.000201103
0.0020247 0.000273208 -2.26723e-07
0.000273208 0.000132487 1.14298e-07
-2.26723e-07 1.14298e-07 -7.46133e-06
0.00104682 -4.16892e-06 1.07899e-05
-4.16892e-06 -8.73667e-05 -4.25181e-07
1.07899e-05 -4.25181e-07 -0.000214923
0.00188838 5.92768e-05 2.15144e-06
5.92768e-05 4.6827e-05 5.96861e-08
2.15144e-06 5.96861e-08 -3.88719e-05
0.00199581 0.000194635 7.63342e-07
0.000194635 9.73692e-05 -9.37509e-07
7.63342e-07 -9.37509e-07 -1.49248e-05
0.00213084 0.000148575 5.31332e-06
0.000148575 7.50196e-05 6.49058e-07
5.31332e-06 6.49058e-07 3.57964e-05
0.00206044 0.000349219 1.24152e-06
0.000349219 0.00018068 -1.03768e-06
1.24152e-06 -1.03768e-06 6.80697e-06
0.00206119 0.000297641 2.93802e-06
0.000297641 6.45689e-05 7.53773e-07
2.93802e-06 7.53773e-07 -3.22089e-05
0.000377828 -3.59593e-06 -1.78817e-05
-3.59593e-06 -0.000209784 8.35233e-07
-1.78817e-05 8.35233e-07 -0.00029509
0.00198351 -4.78377e-05 -0.000133687
-4.78377e-05 0.000810543 6.25534e-06
-0.000133687 6.25534e-06 0.000744474
0.0011871 -6.97172e-05 -1.88881e-05
-6.97172e-05 -1.10383e-05 1.62681e-06
-1.88881e-05 1.62681e-06 -0.000138462
0.00195713 -0.000182753 -2.7857e-05
-0.000182753 0.000456833 3.88593e-06
-2.7857e-05 3.88593e-06 0.000300338
0.00713897 4.56795e-05 -0.000286118
4.56795e-05 0.00422015 2.89873e-05
-0.000286118 2.89873e-05 0.00422181
0.00347687 -0.000289591 -0.000171141
-0.000289591 0.00180644 2.73451e-05
-0.000171141 2.73451e-05 0.00169508
0.00183359 -0.000394778 -3.04328e-05
-0.000394778 0.00057917 1.17958e-05
-3.04328e-05 1.17958e-05 0.000307666
0.00206375 -0.000282773 -3.04096e-05
-0.000282773 0.000538388 8.54454e-06
-3.04096e-05 8.54454e-06 0.00035007
0.00218454 -0.000349609 -2.21284e-06
-0.000349609 0.000300755 -4.01625e-07
-2.21284e-06 -4.01625e-07 0.00013332
0.00201139 -0.000444399 -3.88226e-06
-0.000444399 0.000293751 9.32032e-07
-3.88226e-06 9.32032e-07 4.62556e-05
0.00194024 -0.000537595 -8.16282e-06
-0.000537595 0.000361369 2.9644e-07
-8.16282e-06 2.9644e-07 3.92961e-05
0.00208796 -0.000554183 -6.47807e-07
-0.000554183 0.00029361 -2.26546e-06
-6.47807e-07 -2.26546e-06 3.02253e-05
0.000419594 -0.000189949 -2.22901e-05
-0.000189949 -9.88859e-05 1.98097e-05
-2.22901e-05 1.98097e-05 -0.000216388
0.000582013 -0.000223075 1.69396e-07
-0.000223075 5.36252e-05 1.13758e-06
1.69396e-07 1.13758e-06 -0.000199514
0.00111097 -3.20998e-05 4.92251e-07
-3.20998e-05 -4.90867e-05 5.13663e-08
4.92251e-07 5.13663e-08 -0.000173912
0.00195309 -0.000128916 -1.02962e-05
-0.000128916 0.000468279 1.35726e-06
-1.02962e-05 1.35726e-06 0.000336575
0.00187827 -0.000127385 1.00051e-06
-0.000127385 5.3661e-05 -2.28012e-07
1.00051e-06 -2.28012e-07 -4.8842e-05
0.00194588 -0.000274737 -2.53234e-06
-0.000274737 0.000121258 8.81273e-07
-2.53234e-06 8.81273e-07 -2.48903e-05
0.000409816 -0.000204729 4.26131e-07
-0.000204729 -0.000118697 3.3414e-07
4.26131e-07 3.3414e-07 -0.000247464
0.000755279 -0.000286624 -9.28112e-07
-0.000286624 -1.17765e-05 2.34048e-07
-9.28112e-07 2.34048e-07 -0.000269551
0.00161493 -0.000561866 2.19624e-06
-0.000561866 0.000252433 -2.99734e-07
2.19624e-06 -2.99734e-07 -0.000120077
0.00194335 -0.00039485 -2.74606e-06
-0.00039485 0.000195584 8.65337e-07
-2.74606e-06 8.65337e-07 -1.60441e-05
0.00211593 -0.000382622 2.27668e-06
-0.000382622 0.000154904 -8.10841e-07
2.27668e-06 -8.10841e-07 2.25326e-05
0.00228536 -0.000625013 -4.97234e-07
-0.000625013 0.000475007 -9.21592e-07
-4.97234e-07 -9.21592e-07 0.000153572
0.00207196 -0.000507142 5.15959e-07
-0.000507142 0.000222646 5.80901e-08
5.15959e-07 5.80901e-08 5.2703e-06
0.0021402 -0.000581432 6.81285e-07
-0.000581432 0.000279135 8.95317e-07
6.81285e-07 8.95317e-07 4.28731e-05
0.000617995 -0.000212597 2.23962e-07
-0.000212597 4.78136e-05 -6.69153e-07
2.23962e-07 -6.69153e-07 -0.000216716
0.000757705 -0.000226353 1.20305e-06
-0.000226353 0.000115066 7.37328e-07
1.20305e-06 7.37328e-07 -0.000168211
0.000715072 -0.000157263 7.47068e-07
-0.000157263 0.000172954 1.38162e-07
7.47068e-07 1.38162e-07 -6.32638e-05
0.00182791 -6.01113e-05 2.20809e-06
-6.01113e-05 2.65145e-05 -2.1681e-07
2.20809e-06 -2.1681e-07 -7.06105e-05
0.00198479 -0.000197121 -3.3949e-07
-0.000197121 0.000123545 5.54258e-07
-3.3949e-07 5.54258e-07 7.116e-06
0.00201157 -0.000138557 7.58167e-06
-0.000138557 2.127e-05 -7.13724e-07
7.58167e-06 -7.13724e-07 -3.24212e-05
0.00211056 -0.000315592 2.48665e-06
-0.000315592 0.000110499 -1.29731e-06
2.48665e-06 -1.29731e-06 1.57557e-05
0.00201892 -0.000452514 4.94071e-07
-0.000452514 0.000136664 1.32169e-06
4.94071e-07 1.32169e-06 -3.55688e-05
0.00213951 -0.000399445 4.17356e-06
-0.000399445 0.000101648 -1.29261e-06
4.17356e-06 -1.29261e-06 1.62275e-05
0.000632857 -0.000247041 8.00396e-06
-0.000247041 3.85882e-06 -7.92326e-06
8.00396e-06 -7.92326e-06 -0.000244963
0.0020481 -0.000535888 1.21881e-06
-0.000535888 0.00016025 5.95578e-07
1.21881e-06 5.95578e-07 -3.11408e-05
0.00145354 -0.000530763 1.23694e-05
-0.000530763 0.000307569 -3.8566e-06
1.23694e-05 -3.8566e-06 -7.83103e-05
0.00199607 -0.00070522 7.9696e-06
-0.00070522 0.000383671 2.86149e-06
7.9696e-06 2.86149e-06 -2.43776e-05
0.00235136 -0.000653041 6.3643e-06
-0.000653041 0.000478035 3.45219e-06
6.3643e-06 3.45219e-06 0.000174547
0.002352 -0.000612213 4.79245e-07
-0.000612213 0.000425593 1.76941e-06
4.79245e-07 1.76941e-06 0.000195259
0.00039394 -0.000123864 -2.92877e-07
-0.000123864 -5.21351e-06 -5.51347e-06
-2.92877e-07 -5.51347e-06 -0.000211418
0.00144483 -0.00035412 -1.46117e-08
-0.00035412 0.000480759 -5.28153e-06
-1.46117e-08 -5.28153e-06 0.000188519
0.000516059 -0.000218099 -1.25974e-06
-0.000218099 8.22561e-05 4.59648e-06
-1.25974e-06 4.59648e-06 -0.000253997
0.00174992 -0.000430208 -4.21337e-06
-0.000430208 0.000708435 1.94161e-06
-4.21337e-06 1.94161e-06 0.000364847
0.00121887 0.000246938 -1.26163e-05
0.000246938 -2.23045e-05 -4.74352e-06
-1.26163e-05 -4.74352e-06 -0.000221558
0.000337313 -1.48939e-05 -4.96425e-07
-1.48939e-05 -7.81587e-05 -1.45766e-05
-4.96425e-07 -1.45766e-05 -0.000146603
0.000445182 0.000118467 -2.32252e-05
0.000118467 -6.97143e-05 -1.48951e-05
-2.32252e-05 -1.48951e-05 -0.000163104
-2.61411e-05 0.000116902 -3.62703e-06
0.000116902 -0.000306502 -1.73288e-06
-3.62703e-06 -1.73288e-06 -0.000526485
0.0011341 0.000307964 -2.12083e-05
0.000307964 1.21375e-05 -8.03819e-06
-2.12083e-05 -8.03819e-06 -0.000222673
0.00194883 0.000464424 -4.04874e-06
0.000464424 0.000220405 4.17792e-07
-4.04874e-06 4.17792e-07 -3.01493e-05
0.000515338 0.000213856 -6.91855e-06
0.000213856 -6.94158e-05 -3.91239e-06
-6.91855e-06 -3.91239e-06 -0.000291931
0.00141045 0.000496591 -5.16141e-06
0.000496591 0.000277618 4.21711e-07
-5.16141e-06 4.21711e-07 -8.42262e-05
0.00193369 0.000549068 -6.49229e-06
0.000549068 0.00037342 1.07909e-06
-6.49229e-06 1.07909e-06 5.20714e-05
0.00159249 0.000604713 4.55463e-06
0.000604713 0.000143134 8.73939e-06
4.55463e-06 8.73939e-06 -0.00020617
0.000425888 -1.98523e-05 -3.74362e-06
-1.98523e-05 -2.80982e-05 9.15497e-07
-3.74362e-06 9.15497e-07 -8.26129e-05
0.000633922 0.000215674 -1.41062e-06
0.000215674 7.82781e-05 -7.94159e-07
-1.41062e-06 -7.94159e-07 -0.000162636
0.000645037 9.74204e-05 1.224e-06
9.74204e-05 0.000105483 -5.70275e-07
1.224e-06 -5.70275e-07 -6.18943e-05
0.000788981 0.000211865 -9.10878e-07
0.000211865 0.000181578 4.97141e-07
-9.10878e-07 4.97141e-07 -8.10711e-05
0.00202288 0.00041169 -1.53023e-06
0.00041169 0.00020603 -1.19501e-06
-1.53023e-06 -1.19501e-06 -5.44746e-06
0.00191252 0.000514263 -5.67904e-07
0.000514263 0.000275705 -2.60176e-07
-5.67904e-07 -2.60176e-07 -1.39865e-05
0.00211758 0.000530412 2.1557e-07
0.000530412 0.00024478 1.88451e-07
2.1557e-07 1.88451e-07 1.1096e-05
0.00121582 0.000396506 3.41476e-06
0.000396506 0.000269497 -1.41961e-07
3.41476e-06 -1.41961e-07 -4.88969e-05
0.00222831 0.00064923 6.9003e-07
0.00064923 0.00046909 6.03423e-07
6.9003e-07 6.03423e-07 0.000145935
0.00173135 0.000636863 -9.94921e-07
0.000636863 0.000382468 -1.94677e-06
-9.94921e-07 -1.94677e-06 -3.6082e-05
0.00203118 0.000635667 -5.2765e-06
0.000635667 0.000338046 2.29156e-06
-5.2765e-06 2.29156e-06 9.91582e-06
0.000543954 -1.11569e-05 2.40427e-06
-1.11569e-05 3.37481e-05 9.68513e-06
2.40427e-06 9.68513e-06 -7.94024e-06
0.000932832 8.59717e-05 1.06339e-06
8.59717e-05 0.000296823 7.33898e-06
1.06339e-06 7.33898e-06 0.000160339
0.000696465 0.000255636 -2.10927e-06
0.000255636 1.84478e-05 2.17334e-06
-2.10927e-06 2.17334e-06 -0.00023914
0.00155555 0.000205153 1.39272e-06
0.000205153 0.000754499 -1.80341e-06
1.39272e-06 -1.80341e-06 0.000469638
0.00107131 0.000276538 -3.14244e-06
0.000276538 0.000307868 6.07533e-06
-3.14244e-06 6.07533e-06 6.47712e-05
0.00217901 0.000471585 2.4696e-07
0.000471585 0.000209772 -3.03542e-06
2.4696e-07 -3.03542e-06 2.15347e-05
0.00212447 0.000598212 -1.3709e-06
0.000598212 0.000317629 -1.83165e-06
-1.3709e-06 -1.83165e-06 3.49948e-05
0.00213331 0.000580409 -2.80731e-06
0.000580409 0.000235955 -1.57063e-06
-2.80731e-06 -1.57063e-06 6.14788e-06
0.00160295 0.000601232 3.31785e-06
0.000601232 0.000489791 -2.03185e-06
3.31785e-06 -2.03185e-06 6.09093e-05
0.00240817 0.000709911 -3.94735e-06
0.000709911 0.000517112 -2.52609e-06
-3.94735e-06 -2.52609e-06 0.000196523
0.00169033 0.000680348 7.08497e-06
0.000680348 0.000288727 -4.74005e-06
7.08497e-06 -4.74005e-06 -0.000118565
0.000542877 5.62679e-05 1.52762e-06
5.62679e-05 5.38065e-05 5.88963e-06
1.52762e-06 5.88963e-06 -4.16562e-05
0.000706303 0.000124165 -7.69154e-07
0.000124165 0.000211088 2.92612e-06
-7.69154e-07 2.92612e-06 6.0703e-05
0.000601752 6.46001e-05 1.20173e-06
6.46001e-05 0.00010251 5.08902e-06
1.20173e-06 5.08902e-06 1.99913e-05
0.000526409 1.81253e-05 -6.28454e-07
1.81253e-05 5.04827e-05 -7.41885e-08
-6.28454e-07 -7.41885e-08 -3.80553e-05
0.00141856 -2.72847e-05 1.74611e-06
-2.72847e-05 0.00058664 5.06172e-06
1.74611e-06 5.06172e-06 0.000558987
0.000930036 -1.9126e-05 1.95066e-07
-1.9126e-05 0.000276385 -1.34086e-07
1.95066e-07 -1.34086e-07 0.000243289
0.000868796 -4.52403e-05 4.09654e-05
-4.52403e-05 0.000237893 1.03781e-05
4.09654e-05 1.03781e-05 0.000234314
0.00308129 -0.000130459 8.88683e-06
-0.000130459 0.00166518 -8.41796e-07
8.88683e-06 -8.41796e-07 0.00166125
0.00333608 -0.000158415 -5.33105e-05
-0.000158415 0.00184036 -4.75806e-06
-5.33105e-05 -4.75806e-06 0.00182868
0.000319355 -8.19832e-05 1.17049e-05
-8.19832e-05 -9.31367e-05 -1.27275e-05
1.17049e-05 -1.27275e-05 -0.000159513
0.004745 0.00017866 0.000114732
0.00017866 0.00276905 -1.34595e-05
0.000114732 -1.34595e-05 0.0027448
0.000522365 -0.000129416 -5.43851e-07
-0.000129416 1.41143e-05 9.04568e-07
-5.43851e-07 9.04568e-07 -7.64632e-05
0.00567907 0.000133293 -4.14129e-06
0.000133293 0.0033526 2.78151e-07
-4.14129e-06 2.78151e-07 0.00333711
0.000479653 -0.000156712 -2.17091e-05
-0.000156712 -4.45453e-05 1.72292e-05
-2.17091e-05 1.72292e-05 -0.000149384
0.00646985 0.000106368 -0.000237116
0.000106368 0.00383522 2.69913e-05
-0.000237116 2.69913e-05 0.00382462
0.00119926 0.000203462 -8.92806e-06
0.000203462 -5.18177e-05 -3.01953e-06
-8.92806e-06 -3.01953e-06 -0.000231512
0.00117842 0.000123235 -1.02962e-05
0.000123235 -5.13374e-05 -8.45322e-07
-1.02962e-05 -8.45322e-07 -0.000199323
0.00199051 0.000267253 -1.15902e-06
0.000267253 0.000113683 1.29352e-06
-1.15902e-06 1.29352e-06 -2.53373e-05
0.00195996 0.000117688 -1.39398e-06
0.000117688 9.68081e-05 1.12188e-06
-1.39398e-06 1.12188e-06 3.41721e-06
0.00103521 4.21771e-05 -1.06656e-05
4.21771e-05 -0.000103225 1.08667e-07
-1.06656e-05 1.08667e-07 -0.000233437
0.000350392 2.87972e-05 -1.86425e-05
2.87972e-05 -0.000235882 -6.65138e-07
-1.86425e-05 -6.65138e-07 -0.000315274
0.00104293 -1.11608e-07 -3.54849e-08
-1.11608e-07 -8.97601e-05 -3.29095e-08
-3.54849e-08 -3.29095e-08 -0.000217321
0.00191563 6.00664e-05 -2.31728e-08
6.00664e-05 6.80275e-05 1.7378e-07
-2.31728e-08 1.7378e-07 -1.76279e-05
0.00198669 0.000190118 -1.25254e-07
0.000190118 0.000100148 4.41241e-08
-1.25254e-07 4.41241e-08 -1.15362e-05
0.00213308 0.000144618 -2.00191e-07
0.000144618 6.76323e-05 2.88422e-08
-2.00191e-07 2.88422e-08 3.28382e-05
0.00203749 0.000346213 -5.91537e-07
0.000346213 0.000167972 -5.39922e-08
-5.91537e-07 -5.39922e-08 -5.44815e-06
0.00209781 0.000301173 -2.69898e-07
0.000301173 8.98408e-05 4.47791e-07
-2.69898e-07 4.47791e-07 -8.21966e-06
0.00190592 -4.57108e-07 2.4669e-06
-4.57108e-07 6.87663e-05 8.47134e-08
2.4669e-06 8.47134e-08 -1.58302e-05
0.00210377 7.03674e-05 4.31701e-06
7.03674e-05 5.52533e-05 3.16873e-07
4.31701e-06 3.16873e-07 2.72438e-05
0.00208011 0.000216925 4.29924e-06
0.000216925 5.35173e-05 1.06909e-06
4.29924e-06 1.06909e-06 -4.59575e-06
0.00203838 0.000128898 5.11589e-06
0.000128898 -6.04427e-06 7.95635e-07
5.11589e-06 7.95635e-07 -1.71128e-05
0.00216765 0.00039588 1.9671e-06
0.00039588 0.000162915 -5.61565e-07
1.9671e-06 -5.61565e-07 1.9894e-05
0.00216079 0.000317344 2.57174e-06
0.000317344 2.59519e-05 7.29127e-07
2.57174e-06 7.29127e-07 -9.818e-06
0.00113162 -2.81638e-05 -1.16285e-05
-2.81638e-05 -3.69763e-05 7.63328e-07
-1.16285e-05 7.63328e-07 -0.000157746
0.00194741 -0.000129327 -2.81738e-05
-0.000129327 0.000461875 2.91409e-06
-2.81738e-05 2.91409e-06 0.000330366
0.00197664 -0.000123753 -2.02786e-06
-0.000123753 0.000114709 -3.45048e-07
-2.02786e-06 -3.45048e-07 1.77693e-05
0.00190663 -0.000273923 -2.87218e-06
-0.000273923 9.97076e-05 6.89485e-07
-2.87218e-06 6.89485e-07 -5.52428e-05
0.000551599 -0.000238182 -2.66277e-05
-0.000238182 -2.93954e-05 2.22004e-05
-2.66277e-05 2.22004e-05 -0.000159645
0.000801026 -0.000296901 -1.35346e-05
-0.000296901 1.22341e-05 9.41771e-06
-1.35346e-05 9.41771e-06 -0.00025008
0.00161294 -0.000562915 -1.1217e-05
-0.000562915 0.000252246 2.05414e-06
-1.1217e-05 2.05414e-06 -0.00012298
0.00197384 -0.000394488 -4.57932e-06
-0.000394488 0.000219757 1.19926e-06
-4.57932e-06 1.19926e-06 5.30048e-06
0.0021221 -0.000384497 -5.75551e-07
-0.000384497 0.00015166 -6.33156e-08
-5.75551e-07 -6.33156e-08 2.5686e-05
0.00211962 -0.000510726 -1.58004e-06
-0.000510726 0.000253967 -1.11236e-06
-1.58004e-06 -1.11236e-06 3.57059e-05
0.0023214 -0.000631211 -2.23153e-06
-0.000631211 0.000494105 -4.65659e-06
-2.23153e-06 -4.65659e-06 0.000174997
0.001952 -0.000568675 1.80134e-07
-0.000568675 0.000153602 -1.86434e-06
1.80134e-07 -1.86434e-06 -8.19332e-05
0.00106689 -0.000249102 -6.43324e-06
-0.000249102 0.000324547 5.55403e-06
-6.43324e-06 5.55403e-06 6.13436e-05
0.000416326 -0.000178747 3.0595e-06
-0.000178747 -0.000111226 8.1177e-07
3.0595e-06 8.1177e-07 -0.000388199
0.000465453 -0.000188653 -1.31084e-07
-0.000188653 1.68861e-05 1.28285e-06
-1.31084e-07 1.28285e-06 -0.000220253
0.00188638 -5.68783e-05 1.23665e-06
-5.68783e-05 6.19291e-05 -1.10153e-07
1.23665e-06 -1.10153e-07 -3.05647e-05
0.00194849 -0.000204053 -1.52925e-06
-0.000204053 0.000100216 -3.52082e-08
-1.52925e-06 -3.52082e-08 -1.70216e-05
0.00206904 -0.000137022 1.93798e-06
-0.000137022 5.21812e-05 -2.57848e-07
1.93798e-06 -2.57848e-07 5.19119e-06
0.00204218 -0.000303578 -1.28783e-06
-0.000303578 7.27682e-05 4.65298e-07
-1.28783e-06 4.65298e-07 -2.4543e-05
0.000735167 -0.000262779 9.37562e-07
-0.000262779 6.70567e-05 -4.97302e-07
9.37562e-07 -4.97302e-07 -0.000188884
0.00154442 -0.000543731 -6.77589e-07
-0.000543731 0.000361078 -4.84894e-07
-6.77589e-07 -4.84894e-07 -2.72036e-05
0.00189051 -0.000693716 6.40281e-07
-0.000693716 0.000330623 1.12356e-06
6.40281e-07 1.12356e-06 -7.97334e-05
0.00196735 -0.000447004 -8.79906e-07
-0.000447004 0.000109331 9.27621e-07
-8.79906e-07 9.27621e-07 -6.89322e-05
0.00213716 -0.00040476 3.92194e-07
-0.00040476 8.83291e-05 -2.29245e-07
3.92194e-07 -2.29245e-07 7.74859e-06
0.00220076 -0.000646513 -3.53053e-07
-0.000646513 0.000369003 3.68072e-07
-3.53053e-07 3.68072e-07 6.51761e-05
0.0020413 -0.000534193 -5.02848e-07
-0.000534193 0.000153081 8.35973e-07
-5.02848e-07 8.35973e-07 -3.83247e-05
0.00225557 -0.000594756 6.83844e-07
-0.000594756 0.000356508 -3.75364e-07
6.83844e-07 -3.75364e-07 0.000132965
0.00101792 -0.000329278 -1.85936e-06
-0.000329278 0.000225948 4.74572e-07
-1.85936e-06 4.74572e-07 -7.42288e-05
0.00103669 -0.000352679 -1.56452e-06
-0.000352679 0.000248971 2.09668e-06
-1.56452e-06 2.09668e-06 -8.24575e-05
0.000715527 -0.000142926 3.01059e-09
-0.000142926 0.000191769 -9.70617e-07
3.01059e-09 -9.70617e-07 -1.67586e-05
0.000138256 -0.00014786 2.51259e-06
-0.00014786 -0.000189798 -1.11889e-06
2.51259e-06 -1.11889e-06 -0.00049518
0.00210075 -7.33665e-05 6.82913e-06
-7.33665e-05 7.73626e-05 -3.56554e-07
6.82913e-06 -3.56554e-07 3.9566e-05
0.00199537 -0.000220629 4.60158e-06
-0.000220629 -1.48859e-07 -1.09728e-06
4.60158e-06 -1.09728e-06 -6.98824e-05
0.00204632 -0.000128098 6.42614e-06
-0.000128098 3.67523e-05 -8.05432e-07
6.42614e-06 -8.05432e-07 2.85106e-05
0.00212603 -0.000326927 1.23006e-06
-0.000326927 3.12891e-05 -6.23833e-07
1.23006e-06 -6.23833e-07 1.00582e-06
0.00207713 -0.000480988 2.26363e-07
-0.000480988 0.000116275 -5.37216e-07
2.26363e-07 -5.37216e-07 -2.41822e-05
0.00218308 -0.000424628 3.62343e-06
-0.000424628 7.2524e-05 -1.24251e-06
3.62343e-06 -1.24251e-06 9.22091e-06
0.00137026 -0.000453493 7.64834e-06
-0.000453493 0.000386602 -5.50423e-06
7.64834e-06 -5.50423e-06 3.06048e-05
0.00206908 -0.000570503 -1.87407e-06
-0.000570503 0.000139242 1.87108e-07
-1.87407e-06 1.87108e-07 -2.73918e-05
0.00174418 -0.000716775 -6.71668e-06
-0.000716775 0.000412139 4.89658e-06
-6.71668e-06 4.89658e-06 -5.10364e-05
0.00214814 -0.000760592 6.49711e-06
-0.000760592 0.000434725 2.99649e-06
6.49711e-06 2.99649e-06 2.14216e-05
0.00215551 -0.000654127 4.89569e-06
-0.000654127 0.000303524 3.46918e-06
4.89569e-06 3.46918e-06 8.79128e-06
0.00228065 -0.000631043 -7.95089e-06
-0.000631043 0.000335901 -1.66021e-06
-7.95089e-06 -1.66021e-06 0.000100986
0.000509392 -0.000130364 -1.80146e-06
-0.000130364 5.30422e-05 -6.6778e-06
-1.80146e-06 -6.6778e-06 -0.000104548
-3.26889e-05 -0.00014116 -2.02731e-06
-0.00014116 -0.000191908 -6.54193e-07
-2.02731e-06 -6.54193e-07 -0.000535115
0.0012958 -0.000472573 -8.20378e-07
-0.000472573 0.000378614 -3.62292e-06
-8.20378e-07 -3.62292e-06 -1.47755e-06
0.00246175 -0.000441344 -1.54947e-06
-0.000441344 0.00122691 8.07286e-06
-1.54947e-06 8.07286e-06 0.000882896
0.00150188 -0.000470614 -1.46248e-05
-0.000470614 0.000554892 7.55808e-06
-1.46248e-05 7.55808e-06 0.000151628
0.000268956 -2.67599e-05 -1.86118e-06
-2.67599e-05 -0.000124489 -1.11774e-05
-1.86118e-06 -1.11774e-05 -0.000177947
0.00199807 0.000409283 -4.19507e-06
0.000409283 0.000190325 -2.95438e-07
-4.19507e-06 -2.95438e-07 -2.10576e-05
0.000295892 5.14435e-05 -1.34993e-07
5.14435e-05 -9.98314e-05 -6.75256e-06
-1.34993e-07 -6.75256e-06 -0.000266811
0.000271194 0.000211229 -7.08789e-06
0.000211229 -0.000177161 1.22871e-07
-7.08789e-06 1.22871e-07 -0.000397642
0.000599809 0.000196569 -7.16713e-07
0.000196569 4.15848e-05 2.90761e-06
-7.16713e-07 2.90761e-06 -0.000204935
0.00187404 0.00051198 -5.18376e-06
0.00051198 0.000250515 3.5951e-07
-5.18376e-06 3.5951e-07 -3.94626e-05
0.00209329 0.000526933 9.59662e-07
0.000526933 0.000233193 1.93215e-06
9.59662e-07 1.93215e-06 3.75349e-07
0.00139182 0.000431225 -6.98115e-07
0.000431225 0.000403934 -3.05723e-06
-6.98115e-07 -3.05723e-06 7.19035e-05
0.00161423 0.000632926 1.52981e-06
0.000632926 0.000303667 4.69239e-06
1.52981e-06 4.69239e-06 -0.000118122
0.00210193 0.000629466 2.24094e-06
0.000629466 0.000398362 4.21983e-06
2.24094e-06 4.21983e-06 7.66286e-05
0.00208388 0.000633849 6.37876e-06
0.000633849 0.000374366 1.15861e-05
6.37876e-06 1.15861e-05 5.23584e-05
0.000446157 -6.95852e-06 -8.21565e-07
-6.95852e-06 -2.68411e-05 2.57912e-07
-8.21565e-07 2.57912e-07 -6.78612e-05
0.000596399 6.32401e-05 -5.21908e-07
6.32401e-05 9.07836e-05 5.09605e-07
-5.21908e-07 5.09605e-07 -4.16067e-05
0.000909209 0.000292838 1.79884e-06
0.000292838 0.000163989 1.73236e-06
1.79884e-06 1.73236e-06 -9.69791e-05
0.0006128 0.000144454 6.96152e-07
0.000144454 0.000146988 -1.52328e-06
6.96152e-07 -1.52328e-06 -0.000124049
0.000403227 0.000197624 -1.00439e-06
0.000197624 -0.000141564 3.35658e-06
-1.00439e-06 3.35658e-06 -0.000365022
0.00215774 0.000470189 -1.96294e-06
0.000470189 0.000197 -1.93666e-06
-1.96294e-06 -1.93666e-06 9.17138e-06
0.00208683 0.000593604 4.9941e-07
0.000593604 0.000296915 1.84286e-07
4.9941e-07 1.84286e-07 1.54321e-05
0.00207601 0.000576834 1.64714e-06
0.000576834 0.000202256 1.20302e-07
1.64714e-06 1.20302e-07 -2.72964e-05
0.00156168 0.000597295 1.72366e-06
0.000597295 0.000467508 -5.79368e-07
1.72366e-06 -5.79368e-07 3.57494e-05
0.00230241 0.000698329 2.66107e-06
0.000698329 0.000434724 4.92529e-07
2.66107e-06 4.92529e-07 0.000114312
0.00204655 0.000717396 -4.20306e-06
0.000717396 0.000518013 6.8561e-08
-4.20306e-06 6.8561e-08 0.000105885
0.000630448 6.61771e-05 1.13673e-06
6.61771e-05 0.000109559 5.97913e-06
1.13673e-06 5.97913e-06 1.48664e-06
0.00176625 0.000222659 -5.37171e-08
0.000222659 0.000899234 7.52887e-07
-5.37171e-08 7.52887e-07 0.000663671
0.00109714 0.00042649 -1.2409e-06
0.00042649 0.000283772 5.44698e-06
-1.2409e-06 5.44698e-06 -4.72315e-05
0.00107894 0.000148784 5.09881e-06
0.000148784 0.000356345 -1.28293e-06
5.09881e-06 -1.28293e-06 9.96855e-05
0.00296087 0.000442133 -3.98655e-06
0.000442133 0.00137691 3.74127e-07
-3.98655e-06 3.74127e-07 0.00110248
0.00214514 0.000495637 -3.85265e-06
0.000495637 0.000155761 -2.10061e-06
-3.85265e-06 -2.10061e-06 -1.81954e-05
0.00211181 0.000647472 -3.02075e-06
0.000647472 0.000277192 -1.39211e-06
-3.02075e-06 -1.39211e-06 -2.70945e-06
0.00205147 0.0006316 3.42219e-06
0.0006316 0.000145012 -3.82469e-07
3.42219e-06 -3.82469e-07 -9.78363e-05
0.00118438 0.000632689 1.17258e-05
0.000632689 0.000252492 -4.63555e-06
1.17258e-05 -4.63555e-06 -0.000214131
0.00173742 0.000707804 1.31063e-05
0.000707804 0.000214345 -2.12981e-06
1.31063e-05 -2.12981e-06 -0.000159346
0.000582293 5.08734e-05 -3.77753e-07
5.08734e-05 7.7476e-05 1.35311e-07
-3.77753e-07 1.35311e-07 -1.65696e-05
0.000384038 8.98487e-05 1.29758e-06
8.98487e-05 -2.80029e-05 3.03395e-06
1.29758e-06 3.03395e-06 -0.000163631
0.000204778 7.15973e-05 2.78102e-07
7.15973e-05 -0.000126015 -5.43522e-07
2.78102e-07 -5.43522e-07 -0.000258569
0.00131376 0.00019968 -2.16278e-06
0.00019968 0.000607528 -1.42422e-06
-2.16278e-06 -1.42422e-06 0.000433686
0.000810701 0.000137538 -2.80043e-07
0.000137538 0.000283815 2.88255e-06
-2.80043e-07 2.88255e-06 0.00014157
0.000539666 7.23264e-05 1.8876e-06
7.23264e-05 6.91302e-05 4.1378e-06
1.8876e-06 4.1378e-06 -1.00092e-05
0.000516736 2.14446e-05 -9.1752e-07
2.14446e-05 5.03829e-05 3.19924e-08
-9.1752e-07 3.19924e-08 -3.14093e-05
0.00132943 -1.16711e-05 1.56446e-06
-1.16711e-05 0.000528792 4.30157e-06
1.56446e-06 4.30157e-06 0.000505922
0.000525179 3.84267e-05 -3.23531e-07
3.84267e-05 4.35619e-05 -5.73611e-06
-3.23531e-07 -5.73611e-06 -4.07173e-05
0.00140392 -2.05614e-05 -9.53047e-06
-2.05614e-05 0.000576119 -1.73864e-06
-9.53047e-06 -1.73864e-06 0.000550782
0.000760588 -3.15554e-05 3.7945e-05
-3.15554e-05 0.00016294 1.01065e-05
3.7945e-05 1.01065e-05 0.000164296
0.00144497 -2.5323e-05 -1.82159e-05
-2.5323e-05 0.000606126 -6.62746e-06
-1.82159e-05 -6.62746e-06 0.000576944
0.00186377 -7.63561e-05 3.96069e-05
-7.63561e-05 0.000877115 1.35933e-06
3.96069e-05 1.35933e-06 0.000875678
0.00299482 -0.000127857 -4.47892e-05
-0.000127857 0.00160921 -4.86945e-06
-4.47892e-05 -4.86945e-06 0.00160574
0.000270078 6.45301e-05 -4.85544e-06
6.45301e-05 -9.72153e-05 -9.74282e-06
-4.85544e-06 -9.74282e-06 -0.000157379
0.000412133 -6.35475e-05 -5.15024e-07
-6.35475e-05 -3.16443e-05 5.31383e-07
-5.15024e-07 5.31383e-07 -0.000104793
0.00385303 0.000193454 2.14444e-05
0.000193454 0.00218822 -7.7577e-06
2.14444e-05 -7.7577e-06 0.00216136
0.00489425 0.00013806 -1.71574e-05
0.00013806 0.00285764 -1.77573e-06
-1.71574e-05 -1.77573e-06 0.00284224
0.000517519 -0.000134237 -1.96302e-05
-0.000134237 6.83273e-06 1.46059e-05
-1.96302e-05 1.46059e-05 -8.68208e-05
0.00586114 0.000137632 -0.000200023
0.000137632 0.00347791 2.7267e-05
-0.000200023 2.7267e-05 0.00345705
0.00201671 0.000343569 -2.09593e-06
0.000343569 0.000156295 1.18976e-06
-2.09593e-06 1.18976e-06 -1.67407e-05
0.00194599 0.000187939 -7.69478e-07
0.000187939 8.11567e-05 1.24788e-06
-7.69478e-07 1.24788e-06 -3.06578e-05
0.00212149 0.000305186 -2.85572e-06
0.000305186 0.000105425 2.85517e-07
-2.85572e-06 2.85517e-07 5.9885e-06
0.00213663 0.000140688 -4.78879e-06
0.000140688 6.05609e-05 -6.13674e-07
-4.78879e-06 -6.13674e-07 3.0195e-05
0.00194196 6.20157e-05 -2.21588e-06
6.20157e-05 8.9143e-05 3.13874e-07
-2.21588e-06 3.13874e-07 3.50599e-06
0.00105267 4.64449e-06 -1.0451e-05
4.64449e-06 -8.35784e-05 2.4352e-07
-1.0451e-05 2.4352e-07 -0.000211019
0.00190917 2.4379e-06 1.04721e-07
2.4379e-06 7.14996e-05 1.29307e-07
1.04721e-07 1.29307e-07 -1.3177e-05
0.00209626 6.15618e-05 -7.18286e-07
6.15618e-05 5.35865e-05 -2.90357e-08
-7.18286e-07 -2.90357e-08 2.53701e-05
0.00212025 0.000217987 1.13708e-07
0.000217987 7.53928e-05 1.69268e-07
1.13708e-07 1.69268e-07 1.71763e-05
0.0020464 0.000129366 3.08719e-08
0.000129366 -7.45227e-06 1.03954e-07
3.08719e-08 1.03954e-07 -1.35584e-05
0.0021458 0.000397054 -4.01438e-07
0.000397054 0.000143027 1.15289e-07
-4.01438e-07 1.15289e-07 -4.04464e-07
0.00213035 0.000308617 1.28591e-07
0.000308617 7.08279e-06 6.87055e-08
1.28591e-07 6.87055e-08 -2.87194e-05
0.00207717 -5.97485e-06 5.32946e-06
-5.97485e-06 4.96907e-05 7.6402e-08
5.32946e-06 7.6402e-08 1.9491e-05
0.00206506 5.60475e-05 4.50276e-06
5.60475e-05 1.87153e-05 2.21564e-07
4.50276e-06 2.21564e-07 2.42276e-05
0.00209357 0.00020606 1.51895e-06
0.00020606 -3.38359e-06 1.60961e-07
1.51895e-06 1.60961e-07 -1.62304e-05
0.00214635 0.000134881 5.74707e-07
0.000134881 -1.10079e-05 3.6231e-07
5.74707e-07 3.6231e-07 1.23425e-05
0.00211674 0.000395607 1.04155e-06
0.000395607 6.04709e-05 3.45154e-07
1.04155e-06 3.45154e-07 -4.23641e-05
0.00230703 0.000313105 1.58581e-06
0.000313105 3.96351e-05 2.75885e-07
1.58581e-06 2.75885e-07 3.90317e-05
0.00193912 -5.35677e-05 -2.1116e-06
-5.35677e-05 9.4182e-05 -1.22271e-07
-2.1116e-06 -1.22271e-07 6.34435e-06
0.00194221 -0.000210178 -2.5291e-06
-0.000210178 9.51815e-05 -3.1712e-07
-2.5291e-06 -3.1712e-07 -2.24709e-05
0.00209432 -0.000135481 -3.26127e-06
-0.000135481 6.19566e-05 1.34955e-07
-3.26127e-06 1.34955e-07 2.13783e-05
0.00199549 -0.000293054 -4.04191e-06
-0.000293054 5.06471e-05 1.07095e-06
-4.04191e-06 1.07095e-06 -4.91785e-05
0.000735979 -0.000266193 -1.10236e-05
-0.000266193 6.31673e-05 9.29157e-06
-1.10236e-05 9.29157e-06 -0.000196172
0.00148507 -0.000535017 -1.27099e-05
-0.000535017 0.000328945 2.8161e-06
-1.27099e-05 2.8161e-06 -5.56889e-05
0.00168749 -0.000670552 9.27906e-07
-0.000670552 0.00022246 -2.37998e-06
9.27906e-07 -2.37998e-06 -0.000188072
0.00191708 -0.000441521 -2.66984e-06
-0.000441521 8.33878e-05 5.87793e-07
-2.66984e-06 5.87793e-07 -0.000101062
0.00213219 -0.000409472 -2.12508e-06
-0.000409472 7.41945e-05 7.11871e-07
-2.12508e-06 7.11871e-07 -1.8241e-06
0.00202845 -0.000531663 -1.23664e-06
-0.000531663 0.000142763 6.9514e-07
-1.23664e-06 6.9514e-07 -4.84455e-05
0.00205944 -0.000646758 -4.7655e-06
-0.000646758 0.000266563 -3.40446e-06
-4.7655e-06 -3.40446e-06 -4.0195e-05
0.00214016 -0.000583065 4.5956e-06
-0.000583065 0.000278779 -3.69957e-06
4.5956e-06 -3.69957e-06 5.97822e-05
0.000802469 -0.000311619 -7.20364e-07
-0.000311619 0.000102569 2.99507e-06
-7.20364e-07 2.99507e-06 -0.000203412
0.00106663 -0.00033338 2.88399e-06
-0.00033338 0.000238961 1.67918e-06
2.88399e-06 1.67918e-06 -8.2089e-05
0.000968015 -0.000157439 -5.7869e-07
-0.000157439 0.000342056 5.23376e-06
-5.7869e-07 5.23376e-06 0.000133363
-0.000473316 -9.38767e-05 4.40618e-07
-9.38767e-05 -0.000602067 -6.04789e-06
4.40618e-07 -6.04789e-06 -0.000881206
0.00210208 -7.33924e-05 -2.13908e-07
-7.33924e-05 7.80529e-05 6.41583e-08
-2.13908e-07 6.41583e-08 4.02828e-05
0.00203763 -0.000223049 2.58372e-06
-0.000223049 3.31096e-05 -6.9113e-07
2.58372e-06 -6.9113e-07 -3.78426e-05
0.0020204 -0.000126818 7.97723e-07
-0.000126818 1.4652e-05 -2.19092e-07
7.97723e-07 -2.19092e-07 7.88033e-06
0.00211949 -0.000326102 -5.34511e-07
-0.000326102 3.47625e-05 1.06175e-07
-5.34511e-07 1.06175e-07 -1.97963e-06
0.00129872 -0.000428411 -2.91849e-06
-0.000428411 0.000324219 2.33263e-07
-2.91849e-06 2.33263e-07 -1.99772e-05
0.00165035 -0.000696477 1.40028e-06
-0.000696477 0.000365905 -1.421e-07
1.40028e-06 -1.421e-07 -9.21757e-05
0.00208716 -0.000769519 -6.92619e-07
-0.000769519 0.000394312 4.91138e-07
-6.92619e-07 4.91138e-07 -2.64187e-05
0.00203139 -0.000473373 -1.25202e-06
-0.000473373 9.41645e-05 4.10409e-07
-1.25202e-06 4.10409e-07 -5.05464e-05
0.00214759 -0.000423161 1.04064e-06
-0.000423161 5.13855e-05 -3.30213e-07
1.04064e-06 -3.30213e-07 -7.38432e-06
0.00215848 -0.000658214 -5.00481e-07
-0.000658214 0.000328441 4.48026e-07
-5.00481e-07 4.48026e-07 3.16361e-05
0.00205995 -0.000571829 -9.57148e-07
-0.000571829 0.000125486 8.8693e-07
-9.57148e-07 8.8693e-07 -4.18082e-05
0.0021814 -0.000622145 4.15022e-06
-0.000622145 0.00026521 -4.10366e-06
4.15022e-06 -4.10366e-06 3.67089e-05
0.00149619 -0.000496439 -8.7493e-07
-0.000496439 0.000512012 -1.43603e-06
-8.7493e-07 -1.43603e-06 0.000126152
0.00136163 -0.000454124 -1.07037e-06
-0.000454124 0.000455358 1.4731e-06
-1.07037e-06 1.4731e-06 6.23012e-05
0.00101489 -0.000307338 2.01914e-06
-0.000307338 0.00030606 -1.50095e-06
2.01914e-06 -1.50095e-06 -1.84214e-05
0.000272654 -0.000103634 -2.62792e-06
-0.000103634 -9.85569e-05 1.11298e-06
-2.62792e-06 1.11298e-06 -0.000257192
-7.78043e-06 -0.000120196 -1.3055e-06
-0.000120196 -0.000200242 -1.27387e-06
-1.3055e-06 -1.27387e-06 -0.000522616
0.00201473 -7.32422e-05 3.7937e-06
-7.32422e-05 -8.34621e-06 -2.16764e-07
3.7937e-06 -2.16764e-07 -2.51222e-06
0.00206481 -0.000195644 2.52149e-06
-0.000195644 -6.8516e-06 -5.34497e-07
2.52149e-06 -5.34497e-07 -1.22137e-05
0.00219714 -0.0003881 2.01248e-07
-0.0003881 -9.29578e-06 -2.96544e-07
2.01248e-07 -2.96544e-07 -1.94839e-05
0.00216865 -0.000501315 1.26292e-06
-0.000501315 8.56062e-05 -1.39732e-06
1.26292e-06 -1.39732e-06 5.03496e-06
0.00145189 -0.00059183 -4.11956e-06
-0.00059183 0.00040172 5.57026e-07
-4.11956e-06 5.57026e-07 -3.56213e-05
0.00231993 -0.000687475 -8.32633e-06
-0.000687475 0.000189474 -4.94721e-06
-8.32633e-06 -4.94721e-06 -5.55187e-06
0.00143479 -0.000763253 -2.14726e-05
-0.000763253 0.000224354 8.19872e-06
-2.14726e-05 8.19872e-06 -0.000263811
0.00223989 -0.000834922 1.4599e-06
-0.000834922 0.000452546 1.34635e-06
1.4599e-06 1.34635e-06 1.9897e-05
0.0020319 -0.000632565 -1.21031e-05
-0.000632565 0.000244947 8.35229e-07
-1.21031e-05 8.35229e-07 -3.58753e-05
9.49509e-05 -2.57393e-05 -2.35505e-06
-2.57393e-05 -0.000195265 -6.04694e-06
-2.35505e-06 -6.04694e-06 -0.000317955
0.00108527 -0.000177133 -3.67833e-06
-0.000177133 0.000517313 -4.69767e-07
-3.67833e-06 -4.69767e-07 0.0002212
0.00105005 -0.00026178 -6.45692e-07
-0.00026178 0.000436571 -2.6504e-06
-6.45692e-07 -2.6504e-06 0.00011114
0.00208423 -0.000628956 -1.4871e-05
-0.000628956 0.000872842 4.3116e-06
-1.4871e-05 4.3116e-06 0.000423709
0.00199161 -0.000405636 -8.65402e-07
-0.000405636 0.000864676 7.8659e-06
-8.65402e-07 7.8659e-06 0.000509197
0.000845978 -0.000445849 -1.61285e-05
-0.000445849 0.000100361 1.57132e-05
-1.61285e-05 1.57132e-05 -0.00030815
0.000361998 -4.37651e-06 -2.90085e-06
-4.37651e-06 -7.92972e-05 -9.22364e-06
-2.90085e-06 -9.22364e-06 -0.000119667
0.000452659 4.74665e-05 -5.20479e-07
4.74665e-05 5.59066e-06 -7.49774e-06
-5.20479e-07 -7.49774e-06 -0.000122575
0.00213859 0.000468847 -3.31105e-06
0.000468847 0.000185952 -5.71285e-07
-3.31105e-06 -5.71285e-07 -1.47722e-06
-0.000204186 5.19295e-05 1.56528e-07
5.19295e-05 -0.000375063 -2.39337e-08
1.56528e-07 -2.39337e-08 -0.000636217
0.00146253 0.000330318 2.81523e-06
0.000330318 0.000514223 -4.61357e-07
2.81523e-06 -4.61357e-07 0.000258106
0.000118795 0.000158069 -3.44042e-06
0.000158069 -0.000344641 6.44781e-08
-3.44042e-06 6.44781e-08 -0.000558942
0.00205577 0.000589118 2.32704e-06
0.000589118 0.000281515 2.10619e-06
2.32704e-06 2.10619e-06 1.25827e-06
0.00202889 0.000573991 2.87709e-06
0.000573991 0.00017455 1.09991e-06
2.87709e-06 1.09991e-06 -5.48248e-05
0.00151587 0.0005883 6.02077e-07
0.0005883 0.000446525 1.55212e-06
6.02077e-07 1.55212e-06 1.38518e-05
0.0023552 0.000741819 -5.49424e-06
0.000741819 0.000721311 4.56495e-06
-5.49424e-06 4.56495e-06 0.00031055
0.00218343 0.000686839 2.45234e-06
0.000686839 0.000342729 3.40601e-06
2.45234e-06 3.40601e-06 2.22502e-05
0.000618903 5.96382e-05 -5.29128e-08
5.96382e-05 0.000104465 5.01843e-07
-5.29128e-08 5.01843e-07 -2.31363e-06
0.000742734 0.000103546 -1.1976e-06
0.000103546 0.000246352 -2.20624e-07
-1.1976e-06 -2.20624e-07 2.72161e-05
0.00115675 0.000439654 5.35183e-07
0.000439654 0.000301111 1.94e-06
5.35183e-07 1.94e-06 -3.60273e-05
0.000721649 0.000108809 4.35918e-07
0.000108809 0.000125305 -9.63816e-07
4.35918e-07 -9.63816e-07 -0.00012584
0.000934008 0.000262599 3.75799e-06
0.000262599 8.37606e-05 -2.87822e-06
3.75799e-06 -2.87822e-06 -0.000154372
0.00208807 0.000494039 -2.2979e-06
0.000494039 0.000128363 -1.35326e-06
-2.2979e-06 -1.35326e-06 -4.6926e-05
0.0021556 0.000651372 2.11184e-06
0.000651372 0.000298211 6.33924e-07
2.11184e-06 6.33924e-07 1.75514e-05
0.00209239 0.000631493 1.20693e-06
0.000631493 0.00016446 1.77877e-07
1.20693e-06 1.77877e-07 -7.71564e-05
0.0014809 0.000680756 2.23442e-06
0.000680756 0.000413869 7.36615e-07
2.23442e-06 7.36615e-07 -5.94229e-05
0.00182904 0.000721376 -1.96208e-06
0.000721376 0.000290811 -2.08703e-06
-1.96208e-06 -2.08703e-06 -9.04946e-05
0.00127156 0.000157687 1.23834e-06
0.000157687 0.000559234 3.22497e-06
1.23834e-06 3.22497e-06 0.000386425
-0.000298786 1.00025e-05 -2.17596e-07
1.00025e-05 -0.00037419 2.31716e-07
-2.17596e-07 2.31716e-07 -0.000647668
0.00144321 0.000536618 -5.19826e-07
0.000536618 0.000476784 -3.15307e-06
-5.19826e-07 -3.15307e-06 7.64012e-05
8.78086e-05 0.000177744 5.69373e-06
0.000177744 -0.00042937 1.90341e-06
5.69373e-06 1.90341e-06 -0.00065973
0.00219045 0.000568273 5.67906e-07
0.000568273 0.000822387 -3.41991e-06
5.67906e-07 -3.41991e-06 0.000481275
0.00209846 0.00054581 -6.86374e-07
0.00054581 3.5129e-05 -4.74202e-07
-6.86374e-07 -4.74202e-07 -0.000102744
0.00221449 0.00071441 9.3947e-06
0.00071441 0.000293333 -2.55363e-06
9.3947e-06 -2.55363e-06 -2.02643e-05
0.00221379 0.000669861 9.25728e-06
0.000669861 0.000193478 1.41854e-06
9.25728e-06 1.41854e-06 -6.83679e-05
0.00172434 0.000732456 1.43152e-05
0.000732456 0.000507337 2.81569e-07
1.43152e-05 2.81569e-07 3.3071e-05
0.00213364 0.000834742 6.07446e-06
0.000834742 0.000494388 -4.52447e-07
6.07446e-06 -4.52447e-07 6.64119e-05
0.000573522 4.25723e-05 -1.34862e-06
4.25723e-05 7.06434e-05 -6.22131e-06
-1.34862e-06 -6.22131e-06 -2.19821e-05
0.000513534 9.91867e-05 1.08759e-06
9.91867e-05 5.70165e-05 -2.84665e-07
1.08759e-06 -2.84665e-07 -8.14188e-05
0.000237763 7.87881e-05 -4.28642e-07
7.87881e-05 -0.00011807 1.61225e-07
-4.28642e-07 1.61225e-07 -0.000239214
-0.000102995 -2.1171e-05 2.04768e-06
-2.1171e-05 -0.000318987 -4.02924e-06
2.04768e-06 -4.02924e-06 -0.000449039
0.000589904 7.61717e-05 -9.35098e-07
7.61717e-05 0.000140033 2.98695e-07
-9.35098e-07 2.98695e-07 3.86253e-06
0.000458069 0.000101915 5.18075e-07
0.000101915 4.86623e-05 -1.44698e-07
5.18075e-07 -1.44698e-07 -9.68963e-05
0.000574009 0.000145451 -1.95722e-06
0.000145451 0.000129812 -5.66809e-06
-1.95722e-06 -5.66809e-06 -1.18118e-05
0.00033981 4.71475e-05 -3.27452e-06
4.71475e-05 -4.17666e-06 7.51297e-07
-3.27452e-06 7.51297e-07 -0.000161245
0.000669796 0.000106437 -6.66768e-08
0.000106437 0.000177088 2.70207e-06
-6.66768e-08 2.70207e-06 5.69396e-05
0.000541458 7.89158e-05 2.8179e-06
7.89158e-05 7.23235e-05 4.14526e-06
2.8179e-06 4.14526e-06 -8.14473e-06
0.000501513 2.80415e-05 -2.7311e-06
2.80415e-05 4.1629e-05 6.40001e-08
-2.7311e-06 6.40001e-08 -3.54777e-05
0.00129167 3.45176e-06 2.21337e-06
3.45176e-06 0.000508082 3.72301e-06
2.21337e-06 3.72301e-06 0.000487504
0.000369495 -7.11498e-05 4.01409e-06
-7.11498e-05 -3.41456e-05 -4.60544e-06
4.01409e-06 -4.60544e-06 -0.000120146
0.00136584 -8.24091e-06 -8.29802e-06
-8.24091e-06 0.000551502 -1.72161e-06
-8.29802e-06 -1.72161e-06 0.000530142
0.000740797 -2.27511e-05 3.2686e-05
-2.27511e-05 0.000149243 9.66241e-06
3.2686e-05 9.66241e-06 0.000153194
0.00142504 -1.49904e-05 -1.53825e-05
-1.49904e-05 0.00058835 -8.30103e-06
-1.53825e-05 -8.30103e-06 0.000564373
0.000750248 -3.83437e-05 1.38362e-05
-3.83437e-05 0.000156659 3.69456e-06
1.38362e-05 3.69456e-06 0.00015494
0.00277403 -0.000122017 -4.85586e-07
-0.000122017 0.00146097 -3.31585e-06
-4.85586e-07 -3.31585e-06 0.00145787
0.000266511 6.70237e-05 -4.35823e-06
6.70237e-05 -0.000105487 -6.34666e-06
-4.35823e-06 -6.34666e-06 -0.000151107
0.000379444 -9.92846e-07 -3.70594e-06
-9.92846e-07 -4.30822e-05 3.89908e-07
-3.70594e-06 3.89908e-07 -9.76098e-05
0.00318293 0.000171226 -7.29193e-06
0.000171226 0.00175617 -7.89974e-06
-7.29193e-06 -7.89974e-06 0.00173812
0.000598238 -9.53041e-05 -1.37078e-05
-9.53041e-05 7.76072e-05 1.26562e-05
-1.37078e-05 1.26562e-05 2.63368e-06
0.00417198 0.000143746 -3.79389e-05
0.000143746 0.00238389 -5.12817e-08
-3.79389e-05 -5.12817e-08 0.0023701
0.00522106 0.000108868 -0.000179906
0.000108868 0.00305826 2.21693e-05
-0.000179906 2.21693e-05 0.00304913
0.00212735 0.000398296 -2.78443e-06
0.000398296 0.000125694 8.90713e-07
-2.78443e-06 8.90713e-07 -1.81689e-05
0.00216388 0.000218061 -4.10099e-06
0.000218061 0.000100992 -7.66348e-07
-4.10099e-06 -7.66348e-07 4.2877e-05
0.00210298 0.000299661 -8.1679e-07
0.000299661 -8.98499e-06 -1.54135e-07
-8.1679e-07 -1.54135e-07 -4.49529e-05
0.00205486 0.000130012 -1.29441e-06
0.000130012 -8.20434e-06 -2.48836e-07
-1.29441e-06 -2.48836e-07 -9.46584e-06
0.00208749 5.41805e-05 -6.01128e-06
5.41805e-05 5.12558e-05 -5.67862e-08
-6.01128e-06 -5.67862e-08 2.26951e-05
0.00191252 4.67006e-06 -2.40979e-06
4.67006e-06 7.35106e-05 2.2676e-07
-2.40979e-06 2.2676e-07 -1.11953e-05
0.00208539 -7.27712e-06 -2.93515e-08
-7.27712e-06 6.00027e-05 1.49663e-08
-2.93515e-08 1.49663e-08 2.80066e-05
0.00205901 5.69642e-05 1.23498e-06
5.69642e-05 1.78206e-05 3.76883e-08
1.23498e-06 3.76883e-08 1.96866e-05
0.00211296 0.000204896 -2.74968e-07
0.000204896 1.27247e-05 -1.06369e-07
-2.74968e-07 -1.06369e-07 1.15469e-06
0.0021302 0.000135876 6.17802e-07
0.000135876 -2.60192e-05 1.73727e-07
6.17802e-07 1.73727e-07 4.13143e-06
0.00212173 0.000395691 -4.55145e-07
0.000395691 7.33394e-05 3.52692e-07
-4.55145e-07 3.52692e-07 -3.17511e-05
0.00223967 0.00031389 2.60239e-06
0.00031389 -4.23175e-06 3.42448e-07
2.60239e-06 3.42448e-07 1.91617e-06
0.00201679 -1.36259e-05 3.63094e-06
-1.36259e-05 -1.68334e-06 1.28678e-07
3.63094e-06 1.28678e-07 -2.44768e-06
0.00213948 6.48119e-05 -7.40368e-07
6.48119e-05 -2.70506e-05 4.84725e-08
-7.40368e-07 4.84725e-08 1.43437e-05
0.00221489 0.000208202 -1.90586e-06
0.000208202 -1.80152e-05 -4.33672e-07
-1.90586e-06 -4.33672e-07 1.04344e-05
0.0022871 0.000433329 -1.21543e-06
0.000433329 2.57833e-05 3.12518e-08
-1.21543e-06 3.12518e-08 6.60968e-06
0.00210434 -7.35764e-05 -7.03246e-06
-7.35764e-05 7.88935e-05 4.70468e-07
-7.03246e-06 4.70468e-07 4.11287e-05
0.00206866 -0.000225879 -2.04861e-06
-0.000225879 5.93664e-05 3.06973e-07
-2.04861e-06 3.06973e-07 -1.29675e-05
0.00199262 -0.000125983 -4.49271e-06
-0.000125983 -8.65407e-06 5.62197e-07
-4.49271e-06 5.62197e-07 -1.40618e-05
0.00211475 -0.000325448 -5.03074e-06
-0.000325448 3.76184e-05 1.14339e-06
-5.03074e-06 1.14339e-06 -5.35491e-06
0.00103089 -0.000408637 -7.67758e-06
-0.000408637 0.000146162 3.12748e-06
-7.67758e-06 3.12748e-06 -0.000195505
0.00161542 -0.00068404 1.3426e-05
-0.00068404 0.000351301 -4.9343e-06
1.3426e-05 -4.9343e-06 -0.000103247
0.0020782 -0.000784796 -3.82061e-06
-0.000784796 0.000385359 -2.7951e-06
-3.82061e-06 -2.7951e-06 -4.45597e-05
0.00198502 -0.000466061 -4.1187e-06
-0.000466061 7.12808e-05 1.38173e-06
-4.1187e-06 1.38173e-06 -7.74594e-05
0.00211888 -0.000422572 -2.06071e-07
-0.000422572 3.43085e-05 1.09363e-06
-2.06071e-07 1.09363e-06 -1.97789e-05
0.00203741 -0.000573006 -4.63332e-07
-0.000573006 0.000101916 1.71978e-06
-4.63332e-07 1.71978e-06 -6.60393e-05
0.00210308 -0.000644389 -5.12751e-06
-0.000644389 0.0003136 -2.1886e-06
-5.12751e-06 -2.1886e-06 2.07623e-05
0.00220868 -0.000618442 1.29912e-05
-0.000618442 0.000272769 -6.15906e-06
1.29912e-05 -6.15906e-06 4.97472e-05
0.00100897 -0.000434362 -1.69006e-06
-0.000434362 0.000214922 1.25191e-06
-1.69006e-06 1.25191e-06 -0.00015471
0.00120938 -0.000443771 1.64249e-05
-0.000443771 0.000341214 -6.50949e-06
1.64249e-05 -6.50949e-06 -4.36709e-05
0.000348801 -0.000177555 -9.48438e-07
-0.000177555 -0.000120998 -1.09882e-05
-9.48438e-07 -1.09882e-05 -0.000428833
0.000102849 -9.25724e-05 3.88233e-07
-9.25724e-05 -0.000206878 4.86647e-06
3.88233e-07 4.86647e-06 -0.000367335
4.29288e-05 -0.000112611 4.35573e-06
-0.000112611 -0.000181479 -1.32698e-06
4.35573e-06 -1.32698e-06 -0.000491604
0.00200095 -8.15828e-05 1.44601e-07
-8.15828e-05 -1.86922e-05 -1.38565e-07
1.44601e-07 -1.38565e-07 -1.41202e-05
0.00209076 -0.000196736 1.53641e-06
-0.000196736 5.95548e-06 -1.78918e-08
1.53641e-06 -1.78918e-08 5.32314e-07
0.0022018 -0.000381525 -6.43413e-07
-0.000381525 1.09069e-05 8.40879e-08
-6.43413e-07 8.40879e-08 -5.16895e-06
0.00158985 -0.000605185 -1.36512e-06
-0.000605185 0.00048608 -6.13497e-07
-1.36512e-06 -6.13497e-07 4.75659e-05
0.00153285 -0.00075561 3.82979e-06
-0.00075561 0.000284533 -6.98265e-07
3.82979e-06 -6.98265e-07 -0.000198759
0.00220865 -0.000842057 -5.10699e-07
-0.000842057 0.000439704 -3.89108e-07
-5.10699e-07 -3.89108e-07 5.94447e-07
0.00215466 -0.000497228 4.97104e-07
-0.000497228 8.13939e-05 1.03329e-08
4.97104e-07 1.03329e-08 -1.8383e-06
0.00217811 -0.000665776 2.74649e-06
-0.000665776 0.000306687 -3.97446e-06
2.74649e-06 -3.97446e-06 2.20067e-05
0.00223861 -0.00066514 -1.31607e-06
-0.00066514 0.000173035 -2.30707e-07
-1.31607e-06 -2.30707e-07 -1.56765e-05
1.38684e-05 4.46387e-05 -2.00807e-06
4.46387e-05 -0.000257822 -9.41913e-07
-2.00807e-06 -9.41913e-07 -0.000368342
0.00129794 -0.000527779 3.12316e-07
-0.000527779 0.000386116 -1.95975e-06
3.12316e-07 -1.95975e-06 -3.72963e-05
0.00147786 -0.000525992 -4.32213e-06
-0.000525992 0.000513457 8.76387e-07
-4.32213e-06 8.76387e-07 7.39708e-05
0.00169649 -0.00038087 -1.42632e-06
-0.00038087 0.0007072 2.71664e-06
-1.42632e-06 2.71664e-06 0.000338985
0.00134383 -0.000318884 1.72725e-06
-0.000318884 0.000611714 -1.67542e-06
1.72725e-06 -1.67542e-06 0.000277795
0.000426331 -9.4694e-05 -8.0584e-07
-9.4694e-05 8.87087e-05 1.1689e-06
-8.0584e-07 1.1689e-06 -0.000191332
0.0020942 -0.000104242 3.75808e-07
-0.000104242 -3.75282e-05 1.78163e-07
3.75808e-07 1.78163e-07 -6.01704e-06
0.00226177 -0.000265612 -2.64682e-07
-0.000265612 -3.56397e-05 4.34578e-07
-2.64682e-07 4.34578e-07 1.26264e-05
0.00227421 -0.000469995 3.18629e-07
-0.000469995 5.76236e-06 -3.11576e-07
3.18629e-07 -3.11576e-07 8.55785e-06
0.0023038 -0.000596818 -2.22834e-07
-0.000596818 6.56136e-05 -2.81398e-06
-2.22834e-07 -2.81398e-06 5.97772e-06
0.0018504 -0.000711501 -1.41982e-05
-0.000711501 0.000617577 6.01534e-06
-1.41982e-05 6.01534e-06 0.00013969
0.00254755 -0.000790227 -1.05173e-05
-0.000790227 0.000414429 -7.79893e-06
-1.05173e-05 -7.79893e-06 0.000147179
0.00186908 -0.00087502 -5.20414e-05
-0.00087502 0.000467922 7.99849e-06
-5.20414e-05 7.99849e-06 -5.68617e-05
0.00223505 -0.000891426 -2.9918e-05
-0.000891426 0.000473761 1.86463e-06
-2.9918e-05 1.86463e-06 1.65387e-05
-0.000133235 4.87798e-05 -6.23371e-06
4.87798e-05 -0.000354105 -2.93932e-06
-6.23371e-06 -2.93932e-06 -0.000436319
0.000999506 1.64781e-07 -3.67672e-06
1.64781e-07 0.000430839 1.68379e-07
-3.67672e-06 1.68379e-07 0.000229649
0.00204397 -0.000325561 -6.90554e-06
-0.000325561 0.00112715 8.80844e-07
-6.90554e-06 8.80844e-07 0.000795761
0.000799052 -0.000206008 3.8573e-07
-0.000206008 0.000215429 -7.22123e-06
3.8573e-07 -7.22123e-06 -0.000117231
0.00291473 -0.000754337 -2.24262e-05
-0.000754337 0.0013601 1.51744e-05
-2.24262e-05 1.51744e-05 0.000876599
0.00175128 -0.000533686 -1.51219e-06
-0.000533686 0.000727066 1.91592e-05
-1.51219e-06 1.91592e-05 0.000247025
0.000582015 4.42107e-05 -1.06377e-06
4.42107e-05 8.22625e-05 -6.29482e-06
-1.06377e-06 -6.29482e-06 -2.28605e-05
-0.000379853 3.16617e-05 1.02758e-06
3.16617e-05 -0.000463684 -1.72122e-07
1.02758e-06 -1.72122e-07 -0.000670834
0.00202325 0.000492524 -1.70003e-06
0.000492524 9.46251e-05 -8.03672e-07
-1.70003e-06 -8.03672e-07 -8.21453e-05
0.000259393 8.67362e-05 -3.20054e-06
8.67362e-05 -0.000173387 2.937e-06
-3.20054e-06 2.937e-06 -0.000417466
0.00131723 0.000465837 9.80503e-07
0.000465837 0.000380872 -5.18252e-06
9.80503e-07 -5.18252e-06 3.49694e-05
-0.000937669 6.18972e-05 -5.72113e-06
6.18972e-05 -0.00110305 -6.04115e-06
-5.72113e-06 -6.04115e-06 -0.00128709
0.00219849 0.000655568 3.85658e-06
0.000655568 0.000317345 1.93811e-06
3.85658e-06 1.93811e-06 3.58136e-05
0.00211542 0.000629297 -5.52353e-06
0.000629297 0.000172942 2.49598e-07
-5.52353e-06 2.49598e-07 -6.71583e-05
0.00193504 0.000747024 -6.62919e-06
0.000747024 0.000673004 4.30901e-06
-6.62919e-06 4.30901e-06 0.000188114
0.00197558 0.000740585 -8.40579e-06
0.000740585 0.000404372 1.58645e-06
-8.40579e-06 1.58645e-06 1.29753e-05
0.000845135 0.00012371 -7.03802e-07
0.00012371 0.000279732 2.43448e-08
-7.03802e-07 2.43448e-08 0.000119615
0.000402473 0.000109221 2.08854e-06
0.000109221 6.06238e-05 -6.92263e-07
2.08854e-06 -6.92263e-07 -0.000227266
0.0013475 0.000516921 -3.85569e-06
0.000516921 0.000414436 -1.31838e-06
-3.85569e-06 -1.31838e-06 2.13916e-05
0.00115137 0.000215587 -6.65166e-07
0.000215587 0.000223103 4.34639e-07
-6.65166e-07 4.34639e-07 -3.17126e-06
0.00187936 0.000478174 1.44348e-06
0.000478174 0.000609685 -3.26446e-06
1.44348e-06 -3.26446e-06 0.000298832
0.00224137 0.000561766 -2.44539e-06
0.000561766 0.000108338 -8.85342e-07
-2.44539e-06 -8.85342e-07 -3.18758e-05
0.00236759 0.000714079 2.86439e-06
0.000714079 0.000392909 -6.62663e-07
2.86439e-06 -6.62663e-07 8.69784e-05
0.00239191 0.00069276 1.61088e-06
0.00069276 0.000296386 2.74427e-06
1.61088e-06 2.74427e-06 3.08691e-05
0.00169166 0.000736091 4.66707e-06
0.000736091 0.000487602 1.16304e-06
4.66707e-06 1.16304e-06 7.64044e-06
0.00205564 0.000854742 -4.94758e-06
0.000854742 0.000450829 7.03159e-07
-4.94758e-06 7.03159e-07 6.65238e-06
-0.00117185 1.32797e-05 -5.20823e-06
1.32797e-05 -0.000974544 5.7861e-06
-5.20823e-06 5.7861e-06 -0.00112734
-0.00113383 0.000167154 1.76424e-06
0.000167154 -0.000846201 5.75458e-07
1.76424e-06 5.75458e-07 -0.00117625
0.00160705 0.000585979 5.06775e-06
0.000585979 0.000525254 -2.13639e-06
5.06775e-06 -2.13639e-06 0.000111111
0.000958946 0.000345879 6.6236e-06
0.000345879 2.98225e-06 9.20217e-07
6.6236e-06 9.20217e-07 -0.000265798
0.00252744 0.000567764 4.36036e-06
0.000567764 -2.97944e-05 1.57517e-06
4.36036e-06 1.57517e-06 5.06973e-06
0.00262316 0.000687896 8.45943e-06
0.000687896 0.000354358 9.92497e-07
8.45943e-06 9.92497e-07 0.000147746
0.00231661 0.000831026 8.36659e-06
0.000831026 0.00037713 -3.71295e-06
8.36659e-06 -3.71295e-06 -1.17684e-05
0.0016596 0.000826851 3.88465e-06
0.000826851 0.000327384 -1.27649e-06
3.88465e-06 -1.27649e-06 -0.000178016
0.000924527 0.000147297 -5.81574e-07
0.000147297 0.000329465 -2.86973e-06
-5.81574e-07 -2.86973e-06 0.000177774
0.000478834 0.000141931 -2.08253e-06
0.000141931 5.09635e-05 -9.14e-07
-2.08253e-06 -9.14e-07 -8.57562e-05
0.00125949 0.000127837 -8.46608e-06
0.000127837 0.000550612 -3.68982e-06
-8.46608e-06 -3.68982e-06 0.000445974
0.0004395 4.91561e-05 2.58524e-07
4.91561e-05 1.93818e-05 -2.98291e-06
2.58524e-07 -2.98291e-06 -9.79266e-05
-0.000472979 4.45873e-05 4.71178e-07
4.45873e-05 -0.000530076 -1.1022e-06
4.71178e-07 -1.1022e-06 -0.000665121
0.000621181 5.8981e-05 -7.82947e-07
5.8981e-05 0.000148268 1.49397e-07
-7.82947e-07 1.49397e-07 2.68437e-05
0.000518616 0.000153905 1.10601e-06
0.000153905 0.0001207 1.05699e-06
1.10601e-06 1.05699e-06 -2.28917e-05
0.000514418 7.48493e-05 6.45458e-07
7.48493e-05 0.000122085 5.05152e-07
6.45458e-07 5.05152e-07 -4.86499e-05
0.000649718 0.000131468 4.46094e-06
0.000131468 0.000134015 -4.66619e-06
4.46094e-06 -4.66619e-06 4.73859e-05
0.000743811 3.61084e-05 2.29474e-06
3.61084e-05 0.000256791 -4.62487e-06
2.29474e-06 -4.62487e-06 9.34849e-05
8.19754e-05 7.25631e-05 -4.9722e-07
7.25631e-05 -0.000165929 2.9039e-06
-4.9722e-07 2.9039e-06 -0.000320876
0.000671668 0.000118902 2.00726e-06
0.000118902 0.000178988 4.00693e-06
2.00726e-06 4.00693e-06 5.46695e-05
0.000453379 8.35962e-05 2.78524e-06
8.35962e-05 2.32014e-05 4.01904e-06
2.78524e-06 4.01904e-06 -6.34277e-05
0.000442491 1.90415e-05 -1.55593e-06
1.90415e-05 7.19345e-06 -3.72539e-07
-1.55593e-06 -3.72539e-07 -7.09173e-05
0.00124128 1.06633e-05 1.18852e-06
1.06633e-05 0.000481708 3.2331e-06
1.18852e-06 3.2331e-06 0.000461481
0.000432675 -4.15944e-05 8.7121e-07
-4.15944e-05 -4.78015e-06 -3.54764e-06
8.7121e-07 -3.54764e-06 -7.94113e-05
0.0013279 -2.86832e-06 -7.99153e-06
-2.86832e-06 0.000530525 -1.72647e-06
-7.99153e-06 -1.72647e-06 0.000511005
0.0007154 -1.28634e-05 2.98582e-05
-1.28634e-05 0.000135618 9.59239e-06
2.98582e-05 9.59239e-06 0.000140587
0.00137211 -1.86437e-05 -1.12831e-05
-1.86437e-05 0.000555706 -7.41161e-06
-1.12831e-05 -7.41161e-06 0.000535154
0.000738607 -2.76796e-05 1.19573e-05
-2.76796e-05 0.000146208 3.6476e-06
1.19573e-05 3.6476e-06 0.000148175
0.000725693 -4.06776e-05 9.33424e-07
-4.06776e-05 0.000141065 -3.71178e-06
9.33424e-07 -3.71178e-06 0.000137973
0.000363773 4.7813e-05 -1.88736e-06
4.7813e-05 -6.77332e-05 -4.4375e-06
-1.88736e-06 -4.4375e-06 -9.76535e-05
0.000386923 6.93764e-05 -8.21809e-07
6.93764e-05 -3.02871e-05 2.49093e-07
-8.21809e-07 2.49093e-07 -7.68287e-05
0.00266035 0.000129215 1.86611e-06
0.000129215 0.00141075 -5.9393e-06
1.86611e-06 -5.9393e-06 0.00140435
0.000538074 -4.59118e-06 -8.07411e-06
-4.59118e-06 5.77776e-05 1.06889e-05
-8.07411e-06 1.06889e-05 8.95976e-07
0.00333858 0.000162724 -2.25492e-05
0.000162724 0.00185105 -2.22505e-06
-2.25492e-05 -2.22505e-06 0.00183452
0.00432726 8.28411e-05 -0.000147535
8.28411e-05 0.00247658 1.62826e-05
-0.000147535 1.62826e-05 0.00247713
0.00212865 0.000395596 -8.36259e-07
0.000395596 8.81067e-05 4.4883e-07
-8.36259e-07 4.4883e-07 -1.91043e-05
0.00213112 0.000204153 -3.35405e-06
0.000204153 2.68579e-05 -7.96527e-07
-3.35405e-06 -7.96527e-07 1.66063e-05
0.00217492 0.000314623 1.28017e-06
0.000314623 -4.69975e-05 8.60591e-07
1.28017e-06 8.60591e-07 -3.41554e-05
0.0021103 0.000137007 1.35919e-06
0.000137007 -4.40974e-05 -5.55124e-08
1.35919e-06 -5.55124e-08 -6.85267e-06
0.00205301 5.80457e-05 -3.52049e-06
5.80457e-05 1.66399e-05 -2.72859e-07
-3.52049e-06 -2.72859e-07 1.50188e-05
0.00209704 -1.03886e-05 -7.65496e-06
-1.03886e-05 7.24694e-05 1.05811e-07
-7.65496e-06 1.05811e-07 3.87715e-05
0.00202698 -1.20434e-05 1.90264e-07
-1.20434e-05 5.89439e-06 -9.25643e-09
1.90264e-07 -9.25643e-09 5.94141e-06
0.00212023 6.76035e-05 1.10889e-06
6.76035e-05 -3.5247e-05 1.1019e-07
1.10889e-06 1.1019e-07 4.41007e-06
0.00220448 0.000214744 1.09376e-06
0.000214744 -2.66695e-05 1.767e-07
1.09376e-06 1.767e-07 5.70198e-06
0.00227692 0.000421101 5.33379e-07
0.000421101 1.24958e-05 1.75261e-07
5.33379e-07 1.75261e-07 -4.59975e-06
0.0020886 -1.70063e-05 -1.20436e-06
-1.70063e-05 -4.43551e-05 6.0939e-08
-1.20436e-06 6.0939e-08 -1.10057e-05
0.00224773 0.000118956 -3.54139e-06
0.000118956 -7.08385e-05 -4.51464e-07
-3.54139e-06 -4.51464e-07 1.08097e-05
0.00244857 0.00032518 3.62022e-08
0.00032518 -5.39261e-06 -7.67308e-07
3.62022e-08 -7.67308e-07 4.98511e-05
0.00198722 -8.9779e-05 -3.37462e-06
-8.9779e-05 -2.8982e-05 1.69803e-07
-3.37462e-06 1.69803e-07 -2.56164e-05
0.00211644 -0.000197231 -2.91118e-06
-0.000197231 1.93551e-05 3.23575e-07
-2.91118e-06 3.23575e-07 1.38078e-05
0.00219945 -0.000374191 -1.67158e-06
-0.000374191 2.76061e-05 4.35239e-07
-1.67158e-06 4.35239e-07 4.95589e-06
0.00173056 -0.000622585 2.86904e-06
-0.000622585 0.000564428 -1.44782e-06
2.86904e-06 -1.44782e-06 0.000123525
0.0015633 -0.000733082 2.425e-05
-0.000733082 0.00030881 -8.07861e-06
2.425e-05 -8.07861e-06 -0.000164016
0.00201643 -0.000830082 7.33139e-07
-0.000830082 0.000340451 -4.59378e-07
7.33139e-07 -4.59378e-07 -9.95063e-05
0.00214121 -0.000493288 -1.44643e-06
-0.000493288 7.68602e-05 1.2465e-06
-1.44643e-06 1.2465e-06 -8.95467e-06
0.0021941 -0.000645626 8.86234e-06
-0.000645626 0.000176103 2.81899e-06
8.86234e-06 2.81899e-06 -4.19577e-06
0.00226555 -0.000700844 1.18331e-05
-0.000700844 0.000332445 -7.04561e-06
1.18331e-05 -7.04561e-06 4.29569e-05
0.000900783 -0.00046995 7.24491e-06
-0.00046995 0.000140963 -5.4359e-06
7.24491e-06 -5.4359e-06 -0.000267781
0.00185602 -0.00058824 1.89575e-05
-0.00058824 0.000761336 -1.67664e-05
1.89575e-05 -1.67664e-05 0.000307732
0.00112047 -0.000394031 -3.87235e-06
-0.000394031 0.000387854 -6.27035e-06
-3.87235e-06 -6.27035e-06 -4.23482e-06
0.000212841 3.93473e-05 4.26641e-06
3.93473e-05 -0.000135769 2.1095e-06
4.26641e-06 2.1095e-06 -0.000241719
0.00196026 -0.000358036 1.86654e-06
-0.000358036 0.000970037 3.42784e-06
1.86654e-06 3.42784e-06 0.000640995
-0.00035139 6.75254e-06 6.96049e-06
6.75254e-06 -0.000414645 -8.56295e-07
6.96049e-06 -8.56295e-07 -0.000678049
0.00210845 -0.000101182 -5.81045e-07
-0.000101182 -2.81239e-05 1.18511e-07
-5.81045e-07 1.18511e-07 1.20302e-06
0.00223381 -0.00027433 1.67974e-07
-0.00027433 -5.69952e-05 -8.39256e-08
1.67974e-07 -8.39256e-08 -6.679e-06
0.00226599 -0.000461903 -6.72135e-07
-0.000461903 5.3785e-06 3.36232e-07
-6.72135e-07 3.36232e-07 6.08823e-06
0.00185609 -0.000711674 -8.42456e-07
-0.000711674 0.000633278 9.30379e-07
-8.42456e-07 9.30379e-07 0.00015538
0.00146228 -0.000816233 7.16513e-06
-0.000816233 0.000232629 -2.35169e-06
7.16513e-06 -2.35169e-06 -0.000275488
0.00244533 -0.000889605 -2.83417e-06
-0.000889605 0.000599214 -6.22395e-07
-2.83417e-06 -6.22395e-07 0.000156439
0.00228549 -0.000606718 1.95471e-07
-0.000606718 5.74563e-05 -3.07965e-07
1.95471e-07 -3.07965e-07 -1.10505e-05
0.00199405 -0.000722841 2.35502e-06
-0.000722841 0.000111079 -9.58168e-07
2.35502e-06 -9.58168e-07 -0.000136591
0.000206952 6.03209e-05 -2.04586e-06
6.03209e-05 -0.000139905 -1.38518e-06
-2.04586e-06 -1.38518e-06 -0.000219115
0.000667443 -3.82704e-05 -1.07355e-06
-3.82704e-05 0.000209288 9.64278e-07
-1.07355e-06 9.64278e-07 1.88944e-05
0.00105472 -0.000538986 -2.98056e-06
-0.000538986 0.000214542 1.55757e-06
-2.98056e-06 1.55757e-06 -0.000211456
0.00136083 -0.000460872 -5.40155e-06
-0.000460872 0.000497789 2.11202e-06
-5.40155e-06 2.11202e-06 2.64934e-05
0.00141452 -0.000233059 -1.03427e-06
-0.000233059 0.000592903 -1.72808e-06
-1.03427e-06 -1.72808e-06 0.000252659
0.00115724 -0.000230733 -1.33561e-07
-0.000230733 0.000556876 1.90427e-06
-1.33561e-07 1.90427e-06 0.000237534
0.00222657 -0.000139106 -2.59046e-06
-0.000139106 -6.85689e-05 1.35489e-06
-2.59046e-06 1.35489e-06 1.36483e-05
0.00238224 -0.000395649 -2.01554e-06
-0.000395649 -0.000100661 1.08847e-06
-2.01554e-06 1.08847e-06 7.7328e-06
0.00236668 -0.00057202 2.23353e-06
-0.00057202 9.72477e-06 -1.21059e-06
2.23353e-06 -1.21059e-06 1.39844e-05
0.00243449 -0.000774337 4.29987e-06
-0.000774337 0.000167124 -3.62379e-06
4.29987e-06 -3.62379e-06 1.30441e-05
0.00100665 -0.000645181 -1.18948e-05
-0.000645181 0.00011201 -7.07664e-06
-1.18948e-05 -7.07664e-06 -0.000351847
0.0026368 -0.00096419 -7.34851e-06
-0.00096419 0.000617036 -2.6549e-06
-7.34851e-06 -2.6549e-06 0.000203383
0.00249977 -0.00103389 -5.98836e-05
-0.00103389 0.000756066 -7.42926e-07
-5.98836e-05 -7.42926e-07 0.000179542
0.000542963 4.45119e-05 -9.63489e-08
4.45119e-05 5.47471e-05 -2.88486e-07
-9.63489e-08 -2.88486e-07 -4.93386e-06
0.000742617 -0.000156728 4.06779e-06
-0.000156728 0.00024837 -1.62423e-06
4.06779e-06 -1.62423e-06 0.000124571
0.000261419 8.94323e-05 -8.77635e-06
8.94323e-05 -5.49525e-05 -7.13003e-08
-8.77635e-06 -7.13003e-08 -0.000183047
0.000964638 -6.96808e-05 -4.63538e-06
-6.96808e-05 0.000423403 4.04913e-06
-4.63538e-06 4.04913e-06 0.00017514
-0.000241818 -0.000160625 1.98204e-06
-0.000160625 -0.000379705 -9.55415e-06
1.98204e-06 -9.55415e-06 -0.000675615
0.000612542 -0.000217075 6.67564e-06
-0.000217075 0.000143741 -6.8393e-06
6.67564e-06 -6.8393e-06 -0.000282562
0.001247 -0.000590404 -3.72248e-05
-0.000590404 0.000350024 3.12518e-05
-3.72248e-05 3.12518e-05 -7.63532e-05
0.00297591 -0.000590957 -3.03103e-05
-0.000590957 0.00169301 1.79194e-05
-3.03103e-05 1.79194e-05 0.000971828
0.000198851 6.18319e-05 -9.76785e-08
6.18319e-05 -0.000148932 -1.337e-06
-9.76785e-08 -1.337e-06 -0.000287323
0.00120619 0.000257983 -6.66355e-07
0.000257983 0.000542466 4.53162e-07
-6.66355e-07 4.53162e-07 0.000247831
0.0023874 0.000578518 -2.05513e-06
0.000578518 0.000183421 -1.09792e-06
-2.05513e-06 -1.09792e-06 4.05716e-05
0.000536512 0.000188106 -5.85202e-06
0.000188106 -0.000155944 -1.58559e-06
-5.85202e-06 -1.58559e-06 -0.000396096
0.00120976 0.000494058 -2.22999e-06
0.000494058 0.000326741 -6.75521e-07
-2.22999e-06 -6.75521e-07 -6.04963e-05
0.00186301 0.000423 -6.81487e-06
0.000423 0.000581104 -1.74244e-06
-6.81487e-06 -1.74244e-06 0.000291298
0.00249576 0.000709314 -6.92706e-06
0.000709314 0.000479018 -2.25363e-07
-6.92706e-06 -2.25363e-07 0.000182223
0.00255124 0.00071416 -1.00838e-05
0.00071416 0.000388799 5.40971e-06
-1.00838e-05 5.40971e-06 0.000120208
0.00157468 0.000732143 -5.86475e-06
0.000732143 0.00041216 1.47521e-06
-5.86475e-06 1.47521e-06 -7.11535e-05
0.00187773 0.000865351 -9.9198e-06
0.000865351 0.000347383 1.58693e-07
-9.9198e-06 1.58693e-07 -0.000110246
-0.000205436 7.42448e-05 1.29615e-06
7.42448e-05 -0.00035444 1.41177e-06
1.29615e-06 1.41177e-06 -0.000538729
0.000207426 0.000292251 1.24517e-06
0.000292251 -6.91445e-06 -2.48859e-06
1.24517e-06 -2.48859e-06 -0.000348987
0.00154727 0.000589131 2.40245e-06
0.000589131 0.000466852 1.79855e-07
2.40245e-06 1.79855e-07 4.54654e-05
0.00190736 0.000436774 -4.85591e-06
0.000436774 0.000630559 1.18397e-06
-4.85591e-06 1.18397e-06 0.000339837
0.00247246 0.000544298 5.22792e-07
0.000544298 -9.03057e-05 -9.54922e-07
5.22792e-07 -9.54922e-07 -3.88927e-05
0.00259419 0.00069549 3.24196e-06
0.00069549 0.000336385 -2.80811e-09
3.24196e-06 -2.80811e-09 0.000118786
0.00221174 0.000804144 -2.77502e-06
0.000804144 0.000337718 -5.93929e-09
-2.77502e-06 -5.93929e-09 -4.12772e-05
0.00194714 0.000852163 1.58416e-06
0.000852163 0.00047819 2.48278e-07
1.58416e-06 2.48278e-07 -2.34656e-05
-0.000576232 3.56744e-05 -4.18764e-06
3.56744e-05 -0.00056895 3.48102e-06
-4.18764e-06 3.48102e-06 -0.000743689
0.00235323 0.000404964 1.04678e-05
0.000404964 -0.000197562 2.55212e-06
1.04678e-05 2.55212e-06 -0.000100694
0.00265468 0.000577532 6.66019e-06
0.000577532 0.00146829 8.95264e-06
6.66019e-06 8.95264e-06 0.00108539
0.00155532 0.000592743 3.52252e-06
0.000592743 0.000396399 -3.83959e-06
3.52252e-06 -3.83959e-06 -5.76879e-06
0.00256104 0.000678155 -1.24639e-05
0.000678155 0.000114466 -8.09749e-06
-1.24639e-05 -8.09749e-06 7.04654e-05
0.00132046 0.000752341 4.00687e-06
0.000752341 -0.000286283 -8.99675e-06
4.00687e-06 -8.99675e-06 -0.000642442
0.00287768 0.000986698 2.33853e-06
0.000986698 0.000952391 3.33353e-06
2.33853e-06 3.33353e-06 0.000421976
0.000647151 0.000134771 -1.27736e-06
0.000134771 0.00016 -2.4224e-06
-1.27736e-06 -2.4224e-06 1.92035e-05
0.000553623 0.000124313 -3.55763e-06
0.000124313 0.000130329 -1.34891e-06
-3.55763e-06 -1.34891e-06 1.92818e-05
0.000537401 9.86023e-05 -3.1957e-06
9.86023e-05 0.000145573 4.23676e-06
-3.1957e-06 4.23676e-06 6.95847e-05
0.000447509 1.01766e-05 1.41352e-06
1.01766e-05 3.78012e-05 -3.73371e-06
1.41352e-06 -3.73371e-06 -8.24323e-05
0.000529041 8.43572e-05 2.88854e-06
8.43572e-05 0.000132636 -2.53089e-06
2.88854e-06 -2.53089e-06 -4.00701e-05
-0.000581699 0.00011072 -3.6864e-06
0.00011072 -0.000530704 7.27306e-06
-3.6864e-06 7.27306e-06 -0.000663685
0.00052323 2.50302e-05 -1.62706e-06
2.50302e-05 8.89394e-05 2.56044e-09
-1.62706e-06 2.56044e-09 -3.78367e-05
0.000267565 -2.74214e-06 -7.70522e-07
-2.74214e-06 -3.15506e-05 -2.09904e-07
-7.70522e-07 -2.09904e-07 -0.000198166
1.7428e-05 7.01204e-05 -2.60631e-06
7.01204e-05 -0.000230706 2.55818e-06
-2.60631e-06 2.55818e-06 -0.000303413
0.000720409 0.000123205 1.21952e-06
0.000123205 0.000255126 -1.55451e-06
1.21952e-06 -1.55451e-06 8.19445e-05
0.00179851 0.000168253 -1.48827e-06
0.000168253 0.000843622 -2.95067e-06
-1.48827e-06 -2.95067e-06 0.000793838
0.000159703 2.86295e-05 1.07454e-05
2.86295e-05 -0.000140829 -8.89098e-06
1.07454e-05 -8.89098e-06 -0.000231295
0.000393845 0.000122207 7.55644e-07
0.000122207 6.05785e-05 3.27419e-06
7.55644e-07 3.27419e-06 -0.000121559
0.000527263 6.25189e-05 1.01372e-06
6.25189e-05 0.000118443 4.28079e-06
1.01372e-06 4.28079e-06 -5.652e-05
0.000535961 2.79191e-05 2.13386e-06
2.79191e-05 8.52858e-05 3.4636e-06
2.13386e-06 3.4636e-06 -4.23018e-05
0.000485012 -6.61544e-05 -1.35298e-06
-6.61544e-05 3.77954e-05 3.15483e-06
-1.35298e-06 3.15483e-06 -4.80081e-05
0.000473778 1.41464e-05 5.6858e-07
1.41464e-05 2.53774e-05 -4.33448e-07
5.6858e-07 -4.33448e-07 -5.39862e-05
0.00131189 2.94903e-05 3.50222e-06
2.94903e-05 0.000533861 3.46962e-06
3.50222e-06 3.46962e-06 0.000511999
0.000474095 1.04605e-05 5.75655e-07
1.04605e-05 1.53441e-05 -3.73392e-06
5.75655e-07 -3.73392e-06 -5.49585e-05
0.00132935 1.6651e-05 -7.86572e-06
1.6651e-05 0.000538369 -1.82933e-06
-7.86572e-06 -1.82933e-06 0.000517733
0.000749545 -6.00902e-06 2.50343e-05
-6.00902e-06 0.000162648 9.22328e-06
2.50343e-05 9.22328e-06 0.000167014
0.00134851 -1.23347e-05 -8.93862e-06
-1.23347e-05 0.000543179 -7.13194e-06
-8.93862e-06 -7.13194e-06 0.000524392
0.000762311 -1.81024e-05 9.59954e-06
-1.81024e-05 0.000162535 3.62979e-06
9.59954e-06 3.62979e-06 0.000165873
0.000743419 -3.02971e-05 7.45737e-07
-3.02971e-05 0.00014723 -3.13096e-06
7.45737e-07 -3.13096e-06 0.000148279
0.000613695 -1.70969e-05 1.52558e-06
-1.70969e-05 9.35183e-05 -1.55551e-06
1.52558e-06 -1.55551e-06 3.85978e-05
0.000375409 2.86508e-05 -1.29947e-07
2.86508e-05 -7.33602e-05 -3.90913e-06
-1.29947e-07 -3.90913e-06 -9.44906e-05
0.000398772 4.88304e-05 3.37358e-07
4.88304e-05 -4.34509e-05 2.8526e-07
3.37358e-07 2.8526e-07 -7.45801e-05
0.00245772 0.000100922 8.62894e-06
0.000100922 0.00126979 -5.0433e-06
8.62894e-06 -5.0433e-06 0.00127117
0.000446015 5.35739e-05 3.88062e-06
5.35739e-05 -1.63248e-06 7.73485e-06
3.88062e-06 7.73485e-06 -4.45845e-05
0.00287114 0.000141405 -4.70153e-06
0.000141405 0.0015474 -5.45702e-07
-4.70153e-06 -5.45702e-07 0.0015382
0.00357416 0.000115956 -6.11321e-05
0.000115956 0.00198836 6.91882e-06
-6.11321e-05 6.91882e-06 0.00198187
0.00227023 0.000409644 1.27745e-06
0.000409644 1.30389e-06 4.09635e-07
1.27745e-06 4.09635e-07 -1.38181e-05
0.00219644 0.000221467 8.78851e-07
0.000221467 -3.27334e-05 4.39613e-07
8.78851e-07 4.39613e-07 3.00774e-06
0.00210267 7.13728e-05 8.41099e-07
7.13728e-05 -4.15508e-05 -1.00681e-07
8.41099e-07 -1.00681e-07 -3.87317e-06
0.00203546 -1.03602e-05 -3.86738e-06
-1.03602e-05 1.26859e-05 -1.98003e-07
-3.86738e-06 -1.98003e-07 1.3512e-05
0.0020977 -1.19169e-05 -9.3854e-07
-1.19169e-05 -4.01581e-05 -3.64806e-08
-9.3854e-07 -3.64806e-08 -3.85737e-06
0.00223843 0.00011275 1.32397e-07
0.00011275 -6.72847e-05 4.68683e-07
1.32397e-07 4.68683e-07 1.18976e-05
0.00236346 0.000332443 -1.12095e-06
0.000332443 -4.29769e-05 -1.92733e-07
-1.12095e-06 -1.92733e-07 1.08713e-05
0.00221514 -1.17953e-05 -3.39695e-06
-1.17953e-05 -8.87543e-05 4.02372e-07
-3.39695e-06 4.02372e-07 3.30163e-06
0.00248881 0.000168427 9.11103e-07
0.000168427 -5.36528e-05 -1.94303e-06
9.11103e-07 -1.94303e-06 4.11667e-05
0.00259378 0.000130751 1.14141e-05
0.000130751 7.19019e-05 1.17909e-05
1.14141e-05 1.17909e-05 0.000173181
0.00212439 -9.86697e-05 -3.14716e-07
-9.86697e-05 -1.73189e-05 -1.16157e-07
-3.14716e-07 -1.16157e-07 9.76449e-06
0.00220856 -0.000284329 -2.1948e-07
-0.000284329 -7.82353e-05 -5.93586e-07
-2.1948e-07 -5.93586e-07 -2.50416e-05
0.0022641 -0.000453231 1.35806e-07
-0.000453231 9.36318e-06 -3.22808e-07
1.35806e-07 -3.22808e-07 8.45373e-06
0.00129593 -0.000653219 1.00691e-05
-0.000653219 0.000290319 -3.66176e-06
1.00691e-05 -3.66176e-06 -0.000176444
0.00204226 -0.000887037 3.69664e-05
-0.000887037 0.000564089 -3.17631e-06
3.69664e-05 -3.17631e-06 3.95561e-05
0.00212172 -0.000823451 1.5172e-05
-0.000823451 0.000422964 -2.52751e-06
1.5172e-05 -2.52751e-06 5.83963e-06
0.00225952 -0.000613119 2.79226e-06
-0.000613119 5.00874e-05 2.79811e-06
2.79226e-06 2.79811e-06 -2.91178e-05
0.00202866 -0.000712697 1.403e-05
-0.000712697 0.000151075 4.68707e-06
1.403e-05 4.68707e-06 -8.99384e-05
0.000592005 -0.000473603 1.81986e-05
-0.000473603 -5.7201e-05 -2.13016e-05
1.81986e-05 -2.13016e-05 -0.000476279
0.00127759 -0.000426323 1.50128e-05
-0.000426323 0.000501803 -2.06677e-05
1.50128e-05 -2.06677e-05 2.12079e-05
0.00125067 -0.000177595 -5.24421e-06
-0.000177595 0.000449779 3.66474e-06
-5.24421e-06 3.66474e-06 0.000133436
0.00040816 1.50754e-05 2.74601e-06
1.50754e-05 -1.44323e-05 1.10195e-06
2.74601e-06 1.10195e-06 -8.96555e-05
0.000419623 2.26144e-05 7.71843e-06
2.26144e-05 4.41422e-05 5.8305e-07
7.71843e-06 5.8305e-07 -0.000137281
0.000336536 -0.000160292 1.74251e-06
-0.000160292 2.01211e-05 6.52877e-06
1.74251e-06 6.52877e-06 -0.000283741
0.00223306 -0.000141783 5.50319e-07
-0.000141783 -7.42333e-05 1.24716e-08
5.50319e-07 1.24716e-08 1.07372e-05
0.000474234 5.88527e-06 1.868e-06
5.88527e-06 1.14773e-05 3.6701e-07
1.868e-06 3.6701e-07 -4.82881e-05
0.000383768 -7.96618e-05 -2.88951e-06
-7.96618e-05 -1.63997e-05 -7.37778e-07
-2.88951e-06 -7.37778e-07 -0.000116854
0.00235527 -0.000384255 -2.53319e-07
-0.000384255 -9.23294e-05 5.77275e-08
-2.53319e-07 5.77275e-08 3.67989e-06
0.00231725 -0.000556852 -1.87835e-06
-0.000556852 -7.64118e-06 4.60667e-07
-1.87835e-06 4.60667e-07 4.40299e-06
0.00190979 -0.00077145 -5.70388e-07
-0.00077145 0.000645862 2.07568e-06
-5.70388e-07 2.07568e-06 0.000144168
0.00198634 -0.000965148 1.07099e-05
-0.000965148 0.000486321 2.17038e-09
1.07099e-05 2.17038e-09 -7.94193e-05
0.00231338 -0.000928162 1.87963e-06
-0.000928162 0.000418702 -5.61426e-06
1.87963e-06 -5.61426e-06 2.0331e-05
0.00239381 -0.000771781 2.82958e-06
-0.000771781 0.000142197 -8.55389e-07
2.82958e-06 -8.55389e-07 -6.17096e-06
0.000631834 9.5092e-06 -1.03736e-06
9.5092e-06 0.000187344 -1.43866e-06
-1.03736e-06 -1.43866e-06 5.48744e-05
0.000786843 -6.32646e-05 1.67549e-06
-6.32646e-05 0.000308442 2.1957e-06
1.67549e-06 2.1957e-06 6.34331e-05
0.00142136 -0.000588326 6.75247e-06
-0.000588326 0.000486378 7.39963e-06
6.75247e-06 7.39963e-06 4.86407e-05
0.0012914 -0.000434451 1.3928e-05
-0.000434451 0.000638869 -9.05265e-06
1.3928e-05 -9.05265e-06 2.1436e-05
0.000895724 -0.000186773 2.34695e-08
-0.000186773 0.000266778 -3.69967e-07
2.34695e-08 -3.69967e-07 -0.000114462
0.0001125 -0.000127313 9.8892e-07
-0.000127313 -0.000146794 -2.77894e-06
9.8892e-07 -2.77894e-06 -0.000452918
0.00224051 -0.00016687 -2.63046e-07
-0.00016687 -0.000238038 1.56214e-06
-2.63046e-07 1.56214e-06 -0.000118186
0.00237336 -0.000497143 -3.28371e-07
-0.000497143 -0.000240868 3.21263e-06
-3.28371e-07 3.21263e-06 -8.82943e-06
0.00264262 -0.000783301 -5.32345e-06
-0.000783301 0.000118599 -2.56859e-06
-5.32345e-06 -2.56859e-06 8.39831e-05
0.002638 -0.00100779 1.21414e-05
-0.00100779 0.000368836 -4.31176e-06
1.21414e-05 -4.31176e-06 0.000108561
0.0011158 -0.000724531 -4.51156e-06
-0.000724531 0.000231277 -1.97437e-05
-4.51156e-06 -1.97437e-05 -0.000285928
0.00337478 -0.00122426 -1.43296e-05
-0.00122426 0.00115413 5.3067e-06
-1.43296e-05 5.3067e-06 0.000545089
0.000211474 5.96068e-05 -2.83075e-06
5.96068e-05 -0.000121787 -4.68466e-06
-2.83075e-06 -4.68466e-06 -0.000228741
0.000500182 -4.77565e-05 4.94776e-06
-4.77565e-05 6.31834e-05 7.27004e-07
4.94776e-06 7.27004e-07 -3.13243e-05
0.00134496 -0.000187703 -4.32647e-06
-0.000187703 0.000556096 1.68795e-05
-4.32647e-06 1.68795e-05 0.000429938
0.000366651 1.10716e-05 -4.40832e-06
1.10716e-05 -1.31331e-06 5.21183e-06
-4.40832e-06 5.21183e-06 -0.000177986
0.000839484 -0.000126907 -5.39682e-06
-0.000126907 0.000328816 1.00685e-05
-5.39682e-06 1.00685e-05 5.74308e-05
0.00132854 -0.000102674 1.38333e-05
-0.000102674 0.000523248 -1.74774e-05
1.38333e-05 -1.74774e-05 0.00025168
-0.00116169 -0.000340577 -2.89927e-06
-0.000340577 -0.000475654 -5.05453e-06
-2.89927e-06 -5.05453e-06 -0.00137744
0.000416055 -0.000653819 -5.93491e-05
-0.000653819 -0.000193323 3.11615e-05
-5.93491e-05 3.11615e-05 -0.000573543
0.000358126 0.000119538 -7.7344e-07
0.000119538 3.31256e-05 -1.9533e-06
-7.7344e-07 -1.9533e-06 -0.000191692
0.00178753 0.000378752 -1.29402e-05
0.000378752 0.000946234 -7.11313e-06
-1.29402e-05 -7.11313e-06 0.000617889
0.00242305 0.000519898 -8.18165e-06
0.000519898 -0.000138197 -1.81256e-06
-8.18165e-06 -1.81256e-06 -7.3171e-05
0.00260638 0.000705924 -8.11564e-06
0.000705924 0.000346362 -8.51166e-07
-8.11564e-06 -8.51166e-07 0.000117289
0.00308673 0.000503912 -6.40546e-06
0.000503912 0.00137158 1.37576e-06
-6.40546e-06 1.37576e-06 0.00108122
0.00158004 0.000602148 -6.74128e-06
0.000602148 0.000469632 -2.47855e-06
-6.74128e-06 -2.47855e-06 3.90865e-05
0.00215322 0.000782236 -6.42782e-06
0.000782236 0.000324087 2.07529e-06
-6.42782e-06 2.07529e-06 -4.64385e-05
0.00229838 0.000880937 -7.49734e-06
0.000880937 0.0006676 -4.38246e-07
-7.49734e-06 -4.38246e-07 0.000168932
0.00017077 0.000131027 1.79361e-06
0.000131027 -6.27912e-05 -9.98582e-07
1.79361e-06 -9.98582e-07 -0.000285512
0.00247954 0.000389514 -2.06424e-06
0.000389514 -0.000116613 -2.0705e-06
-2.06424e-06 -2.0705e-06 -1.26673e-05
0.00150995 0.000401477 1.50973e-06
0.000401477 0.000738007 2.5635e-06
1.50973e-06 2.5635e-06 0.000408453
0.00159363 0.00058863 2.30073e-06
0.00058863 0.00044652 1.57326e-06
2.30073e-06 1.57326e-06 4.42916e-05
0.00263994 0.000669622 1.27983e-06
0.000669622 0.000183313 2.44445e-07
1.27983e-06 2.44445e-07 0.000136148
0.0018137 0.000801386 -1.9986e-06
0.000801386 9.95313e-06 -4.91973e-06
-1.9986e-06 -4.91973e-06 -0.000353109
0.00229971 0.000898264 -4.30096e-07
0.000898264 0.000639614 -5.72421e-08
-4.30096e-07 -5.72421e-08 0.000127822
0.00143365 0.00034681 -2.75291e-06
0.00034681 0.000841596 -1.2839e-06
-2.75291e-06 -1.2839e-06 0.000538949
0.00371583 0.000598711 -8.35831e-05
0.000598711 0.000588148 -2.20071e-05
-8.35831e-05 -2.20071e-05 0.000781183
0.000651778 0.000492376 -1.04003e-05
0.000492376 0.000156641 6.52835e-06
-1.04003e-05 6.52835e-06 -0.000220347
0.00147997 0.000667195 -4.85637e-06
0.000667195 0.000319468 -8.82299e-06
-4.85637e-06 -8.82299e-06 -0.000142231
0.00254707 0.000895794 -3.43694e-05
0.000895794 0.000272026 -2.18794e-05
-3.43694e-05 -2.18794e-05 2.97713e-05
0.00118793 0.000778527 -2.52745e-05
0.000778527 -2.70372e-05 -3.75814e-06
-2.52745e-05 -3.75814e-06 -0.000490246
0.000562364 0.000998605 3.50778e-05
0.000998605 -0.00199921 -3.90304e-05
3.50778e-05 -3.90304e-05 -0.00144601
6.92918e-06 0.000148483 5.25844e-06
0.000148483 -0.0001684 -5.86953e-07
5.25844e-06 -5.86953e-07 -0.000293738
0.000478346 0.000121603 3.01659e-06
0.000121603 0.00014672 2.31498e-06
3.01659e-06 2.31498e-06 5.73266e-05
0.00122933 0.000155809 1.62104e-06
0.000155809 0.000583931 1.71678e-06
1.62104e-06 1.71678e-06 0.000505894
0.000383077 -6.56662e-05 1.36114e-06
-6.56662e-05 7.49087e-06 -4.65454e-06
1.36114e-06 -4.65454e-06 -0.000122239
0.00033198 -2.91392e-05 -4.42838e-07
-2.91392e-05 7.12084e-06 -2.19318e-06
-4.42838e-07 -2.19318e-06 -0.000157171
0.00136147 0.000225182 5.99342e-08
0.000225182 0.000660428 -1.41118e-07
5.99342e-08 -1.41118e-07 0.000475474
-0.000312776 4.33469e-05 -7.21137e-06
4.33469e-05 -0.000412653 1.6014e-05
-7.21137e-06 1.6014e-05 -0.000481617
0.0005001 -1.66371e-05 -2.33591e-07
-1.66371e-05 8.06607e-05 -1.93573e-07
-2.33591e-07 -1.93573e-07 -5.66183e-05
0.00041233 7.80477e-05 2.18728e-07
7.80477e-05 2.15107e-05 -7.3671e-07
2.18728e-07 -7.3671e-07 -0.000134527
0.00108113 0.00013919 3.09245e-06
0.00013919 0.00039648 4.37889e-06
3.09245e-06 4.37889e-06 0.000351051
0.00039665 7.79184e-05 1.60633e-06
7.79184e-05 3.81362e-05 7.52008e-07
1.60633e-06 7.52008e-07 -0.000129547
0.000675102 7.18669e-05 -8.4422e-07
7.18669e-05 0.000175238 -2.07127e-06
-8.4422e-07 -2.07127e-06 7.09394e-05
0.0013691 0.000147169 -3.80255e-06
0.000147169 0.000629187 -1.43357e-05
-3.80255e-06 -1.43357e-05 0.000569421
0.000808719 0.000154253 -2.69012e-06
0.000154253 0.000234761 -2.88486e-06
-2.69012e-06 -2.88486e-06 8.55562e-05
0.000936155 0.000140987 1.69339e-06
0.000140987 0.000370238 2.67346e-06
1.69339e-06 2.67346e-06 0.00018929
0.0008926 0.000115626 -6.50104e-07
0.000115626 0.000343183 1.75945e-06
-6.50104e-07 1.75945e-06 0.000158354
0.000208711 -2.45914e-05 -1.64895e-06
-2.45914e-05 -0.000127099 1.91834e-06
-1.64895e-06 1.91834e-06 -0.000257733
0.00126674 -0.000105461 7.60075e-07
-0.000105461 0.000637356 -1.57167e-06
7.60075e-07 -1.57167e-06 0.000424314
0.000117974 -4.82928e-05 -9.64868e-07
-4.82928e-05 -0.000178652 3.7206e-06
-9.64868e-07 3.7206e-06 -0.000314442
0.000428004 2.9466e-06 -2.23439e-06
2.9466e-06 8.143e-06 2.94628e-06
-2.23439e-06 2.94628e-06 -8.16965e-05
0.000449088 4.06243e-05 2.53232e-06
4.06243e-05 1.9597e-05 -1.20253e-07
2.53232e-06 -1.20253e-07 -6.87607e-05
0.000359179 2.11828e-05 -9.51904e-07
2.11828e-05 -6.49911e-05 4.75229e-06
-9.51904e-07 4.75229e-06 -9.09882e-05
0.000396715 4.3549e-06 -1.91824e-06
4.3549e-06 -1.27281e-05 -4.0932e-06
-1.91824e-06 -4.0932e-06 -9.86892e-05
0.000873969 1.68103e-05 -3.93487e-06
1.68103e-05 0.000256373 -1.52284e-06
-3.93487e-06 -1.52284e-06 0.000233155
0.00266064 -1.12544e-06 2.3353e-05
-1.12544e-06 0.00137685 5.7334e-06
2.3353e-05 5.7334e-06 0.00138918
0.00141601 3.43577e-05 -1.27842e-05
3.43577e-05 0.000594744 -7.30213e-06
-1.27842e-05 -7.30213e-06 0.000573413
0.000766322 -8.5784e-06 8.82634e-06
-8.5784e-06 0.000169768 3.56593e-06
8.82634e-06 3.56593e-06 0.000173423
0.000815364 -2.05097e-05 9.24651e-07
-2.05097e-05 0.000192447 -2.9091e-06
9.24651e-07 -2.9091e-06 0.000195284
0.000463144 1.31973e-05 -2.0831e-06
1.31973e-05 5.92493e-06 -2.48181e-06
-2.0831e-06 -2.48181e-06 -4.92086e-05
0.000543764 -3.15664e-05 7.07734e-07
-3.15664e-05 5.2991e-05 -3.48231e-07
7.07734e-07 -3.48231e-07 -3.9196e-06
0.000471897 2.34996e-05 3.67057e-07
2.34996e-05 -1.88987e-05 -3.57652e-06
3.67057e-07 -3.57652e-06 -3.55302e-05
0.000793354 4.217e-05 1.44994e-08
4.217e-05 0.000194518 1.7994e-07
1.44994e-08 1.7994e-07 0.000174179
0.00228912 7.81837e-05 6.83677e-06
7.81837e-05 0.00115366 -4.81248e-06
6.83677e-06 -4.81248e-06 0.00116064
0.000463245 6.15267e-05 5.34783e-06
6.15267e-05 4.63891e-06 6.09639e-06
5.34783e-06 6.09639e-06 -3.09167e-05
0.00254114 0.000107846 -2.73332e-06
0.000107846 0.0013248 -2.75523e-07
-2.73332e-06 -2.75523e-07 0.00132449
0.00296118 0.000143931 1.04293e-05
0.000143931 0.00160433 8.26436e-06
1.04293e-05 8.26436e-06 0.00159447
0.00226904 0.000339128 -1.22874e-07
0.000339128 -9.02401e-05 9.43655e-07
-1.22874e-07 9.43655e-07 -3.63673e-05
0.00222259 0.000108029 4.57418e-06
0.000108029 -6.89174e-05 1.9879e-07
4.57418e-06 1.9879e-07 9.00132e-06
0.00210713 -7.48596e-06 9.02531e-07
-7.48596e-06 -3.64306e-05 -3.10438e-07
9.02531e-07 -3.10438e-07 2.86893e-06
0.00219871 -6.98279e-06 4.01432e-08
-6.98279e-06 -9.75607e-05 -3.37493e-07
4.01432e-08 -3.37493e-07 -5.70371e-06
0.00242726 0.000174922 8.44418e-08
0.000174922 -7.84951e-05 4.28614e-07
8.44418e-08 4.28614e-07 1.55652e-05
0.00246276 0.000106808 8.04574e-06
0.000106808 -1.94326e-05 -6.68145e-06
8.04574e-06 -6.68145e-06 7.35611e-05
0.00252206 5.44368e-06 -3.79349e-06
5.44368e-06 -0.000110523 -1.79036e-06
-3.79349e-06 -1.79036e-06 3.23628e-05
0.0047981 0.00104001 7.51696e-05
0.00104001 -0.000688533 1.42713e-05
7.51696e-05 1.42713e-05 0.000204201
0.00301974 9.06619e-05 -2.2875e-05
9.06619e-05 0.000470702 3.08987e-05
-2.2875e-05 3.08987e-05 0.000716862
0.000476141 0.000115088 -2.84364e-06
0.000115088 5.37771e-05 -1.14313e-06
-2.84364e-06 -1.14313e-06 -4.89954e-05
0.00223437 -0.000142876 1.9957e-06
-0.000142876 -8.25129e-05 -1.5627e-06
1.9957e-06 -1.5627e-06 4.95587e-06
0.00233264 -0.000373242 2.16203e-06
-0.000373242 -8.23395e-05 -6.70257e-07
2.16203e-06 -6.70257e-07 1.04549e-06
0.00227412 -0.000545547 2.05798e-07
-0.000545547 -2.60055e-05 8.40206e-07
2.05798e-07 8.40206e-07 -4.69001e-06
0.0014989 -0.000735069 2.69258e-06
-0.000735069 0.000415172 1.03442e-05
2.69258e-06 1.03442e-05 -7.56238e-05
0.00228127 -0.000985776 3.60654e-05
-0.000985776 0.000655931 8.83373e-06
3.60654e-05 8.83373e-06 9.51449e-05
0.00126675 -0.00080968 5.18658e-07
-0.00080968 -0.000171315 2.80883e-08
5.18658e-07 2.80883e-08 -0.000540556
0.00235823 -0.000771494 -1.81129e-06
-0.000771494 0.000118503 1.55298e-06
-1.81129e-06 1.55298e-06 -2.31827e-05
0.00154319 -0.000574354 4.57207e-05
-0.000574354 0.00046694 -4.06603e-05
4.57207e-05 -4.06603e-05 7.96645e-05
0.0016287 -0.000494668 2.35683e-05
-0.000494668 0.000771159 -4.33608e-05
2.35683e-05 -4.33608e-05 0.000203278
0.000519491 -7.59267e-05 1.09592e-06
-7.59267e-05 -1.55342e-05 1.13845e-05
1.09592e-06 1.13845e-05 -0.000350829
0.000471465 1.07174e-05 2.75492e-06
1.07174e-05 1.1513e-05 1.07758e-06
2.75492e-06 1.07758e-06 -4.93818e-05
0.00155712 -0.000144862 8.59997e-07
-0.000144862 0.000763252 1.01235e-05
8.59997e-07 1.01235e-05 0.000434381
0.0008859 -2.57274e-05 8.02607e-06
-2.57274e-05 0.0003617 -1.51542e-06
8.02607e-06 -1.51542e-06 0.000223104
0.000591435 -6.22337e-05 3.63467e-06
-6.22337e-05 0.000173308 -3.50322e-06
3.63467e-06 -3.50322e-06 -6.41491e-05
4.59157e-05 -4.5546e-05 -4.10988e-06
-4.5546e-05 -0.000240275 -5.56335e-07
-4.10988e-06 -5.56335e-07 -0.000334641
0.00232824 -0.000186238 -8.38094e-08
-0.000186238 -0.000214295 4.09144e-07
-8.38094e-08 4.09144e-07 -6.66542e-05
0.00032775 3.1201e-05 5.70739e-07
3.1201e-05 -3.64031e-05 -2.7011e-06
5.70739e-07 -2.7011e-06 -0.000148123
0.000596154 -6.7172e-05 3.04661e-06
-6.7172e-05 0.000145367 1.12675e-06
3.04661e-06 1.12675e-06 3.79808e-05
0.00104768 -0.000152736 5.93904e-06
-0.000152736 0.000371421 -2.77072e-07
5.93904e-06 -2.77072e-07 0.000258502
0.00238599 -0.000512962 2.18502e-06
-0.000512962 -0.000215009 -1.00426e-06
2.18502e-06 -1.00426e-06 -2.38112e-05
0.00251541 -0.000772758 3.7783e-07
-0.000772758 4.90245e-05 -2.11826e-07
3.7783e-07 -2.11826e-07 1.68139e-05
0.000599779 -0.000585876 7.13163e-06
-0.000585876 -7.88717e-05 -1.80755e-08
7.13163e-06 -1.80755e-08 -0.000519371
0.00278422 -0.00116429 2.08489e-05
-0.00116429 0.00079855 8.22966e-07
2.08489e-05 8.22966e-07 0.000217877
0.00254399 -0.00100659 -5.68385e-07
-0.00100659 0.000330474 2.19663e-06
-5.68385e-07 2.19663e-06 5.97056e-05
0.000279356 -2.54519e-05 -2.86348e-07
-2.54519e-05 -5.48213e-05 3.44693e-07
-2.86348e-07 3.44693e-07 -0.000225408
0.00118437 -0.000149376 3.29219e-07
-0.000149376 0.000566765 3.3261e-06
3.29219e-07 3.3261e-06 0.000270048
0.00199609 -0.000857443 -3.65847e-07
-0.000857443 0.000735595 1.7664e-06
-3.65847e-07 1.7664e-06 0.000241704
0.000349714 -0.000295627 -1.37006e-06
-0.000295627 0.000168471 4.79841e-06
-1.37006e-06 4.79841e-06 -0.000523191
0.00122188 -0.000140089 1.66344e-06
-0.000140089 0.000454323 6.79297e-06
1.66344e-06 6.79297e-06 0.000179117
0.00276055 -0.000357138 -8.99956e-06
-0.000357138 3.0835e-05 5.80905e-06
-8.99956e-06 5.80905e-06 0.000197297
0.00213804 -0.000573413 -1.47033e-05
-0.000573413 -0.000339052 7.80184e-06
-1.47033e-05 7.80184e-06 -6.92058e-05
0.00229538 -0.000905835 -9.6524e-06
-0.000905835 6.1605e-05 -4.62947e-06
-9.6524e-06 -4.62947e-06 -0.000129967
0.0048633 -0.0013872 -1.07984e-06
-0.0013872 0.00176434 -2.32674e-07
-1.07984e-06 -2.32674e-07 0.00135703
-0.000247732 -0.000687088 -1.61274e-05
-0.000687088 -0.000615122 -8.06552e-07
-1.61274e-05 -8.06552e-07 -0.00108319
-2.69562e-05 -3.12582e-05 1.1275e-06
-3.12582e-05 -0.000257166 2.8806e-06
1.1275e-06 2.8806e-06 -0.000369849
0.000942792 -7.95364e-06 -5.25427e-06
-7.95364e-06 0.000263573 1.63254e-05
-5.25427e-06 1.63254e-05 0.00015088
-0.00138991 -0.000163341 -7.13621e-06
-0.000163341 -0.00115142 2.30687e-06
-7.13621e-06 2.30687e-06 -0.0012381
0.00214679 -0.000324887 -3.31605e-05
-0.000324887 0.00113436 3.08033e-05
-3.31605e-05 3.08033e-05 0.000888595
0.00103555 -0.000141509 -4.32574e-06
-0.000141509 0.000456387 2.81857e-05
-4.32574e-06 2.81857e-05 0.000184188
-0.00166143 -0.000130384 5.92396e-06
-0.000130384 -0.000602844 -3.18141e-06
5.92396e-06 -3.18141e-06 -0.00140916
0.000647295 -0.000909464 -2.24889e-05
-0.000909464 0.000276181 8.77119e-06
-2.24889e-05 8.77119e-06 -0.000437821
0.00176293 0.000367714 -4.96941e-06
0.000367714 0.000936291 -5.28543e-06
-4.96941e-06 -5.28543e-06 0.00067455
-0.000234865 0.00016826 -5.13152e-06
0.00016826 -0.0003478 -1.69688e-06
-5.13152e-06 -1.69688e-06 -0.000615474
0.00263561 0.000365857 2.86324e-06
0.000365857 -2.39887e-05 2.1091e-06
2.86324e-06 2.1091e-06 9.57392e-05
0.00268293 0.000659296 1.19902e-05
0.000659296 0.000222642 6.42886e-06
1.19902e-05 6.42886e-06 0.000177193
0.00224749 0.000843867 5.63393e-06
0.000843867 0.000270872 3.40457e-06
5.63393e-06 3.40457e-06 -9.72602e-05
0.00164445 0.000585414 -2.58222e-06
0.000585414 0.000510936 3.02229e-06
-2.58222e-06 3.02229e-06 0.00010839
0.00172722 0.000813873 1.88056e-06
0.000813873 0.000329655 3.98555e-06
1.88056e-06 3.98555e-06 -0.000163973
0.00229095 0.000410237 8.71474e-07
0.000410237 0.00129542 -9.70863e-07
8.71474e-07 -9.70863e-07 0.00102972
0.0029021 0.000481954 7.57224e-06
0.000481954 0.000155481 3.94389e-06
7.57224e-06 3.94389e-06 0.000390586
0.000964056 0.000445565 -5.04424e-06
0.000445565 0.000311395 5.4813e-06
-5.04424e-06 5.4813e-06 -2.43022e-05
0.00170127 0.00070219 3.22082e-06
0.00070219 0.000489301 -1.09978e-06
3.22082e-06 -1.09978e-06 6.56483e-06
0.00250923 0.000876158 -2.84755e-06
0.000876158 0.000269922 -3.90131e-06
-2.84755e-06 -3.90131e-06 5.13551e-05
0.00190941 0.000873378 -4.43297e-06
0.000873378 0.000380288 5.74842e-06
-4.43297e-06 5.74842e-06 -0.000105945
0.00306369 0.00133927 3.53746e-05
0.00133927 -0.000955109 7.7514e-06
3.53746e-05 7.7514e-06 -0.000583108
5.22066e-05 0.000290993 1.73014e-06
0.000290993 3.62119e-05 6.49952e-07
1.73014e-06 6.49952e-07 -0.000257195
0.0028392 0.000883711 -8.54941e-05
0.000883711 0.000244048 -4.21358e-05
-8.54941e-05 -4.21358e-05 0.000217685
0.000465737 0.000441803 -1.04436e-05
0.000441803 -0.000187897 4.86165e-06
-1.04436e-05 4.86165e-06 -0.000543486
3.9253e-06 0.000545534 -3.50543e-06
0.000545534 -0.000517201 -1.88807e-05
-3.50543e-06 -1.88807e-05 -0.000961047
0.00173998 0.000981251 -4.37473e-05
0.000981251 4.8334e-05 -1.7104e-05
-4.37473e-05 -1.7104e-05 -0.000275999
0.0153625 0.00052801 -0.000607513
0.00052801 0.00195221 -9.68559e-05
-0.000607513 -9.68559e-05 0.00179478
0.0032093 0.00205425 -7.72343e-05
0.00205425 -0.00272999 -7.25317e-05
-7.72343e-05 -7.25317e-05 -0.000862339
0.00086182 0.00157566 2.18416e-05
0.00157566 -0.00077861 -4.63594e-07
2.18416e-05 -4.63594e-07 -0.00101492
0.00428888 -0.00282215 0.00192633
-0.00282215 0.00259147 0.000334281
0.00192633 0.000334281 -0.00161012
0.0253923 -0.0104765 -4.90911e-05
-0.0104765 0.0111258 8.05107e-05
-4.90911e-05 8.05107e-05 0.00658718
0.000431116 0.000137294 7.1133e-06
0.000137294 0.000140812 2.43535e-06
7.1133e-06 2.43535e-06 4.12194e-05
0.000880586 0.000132374 -2.31685e-06
0.000132374 0.000405247 -2.83082e-06
-2.31685e-06 -2.83082e-06 0.000315374
0.00154665 0.000267183 3.5875e-06
0.000267183 0.000838034 -1.36597e-06
3.5875e-06 -1.36597e-06 0.00070076
0.000500241 -5.95171e-05 3.49738e-07
-5.95171e-05 9.10987e-05 -3.04432e-06
3.49738e-07 -3.04432e-06 -5.21112e-05
0.000390832 6.90106e-05 -4.21674e-07
6.90106e-05 1.22297e-05 -3.85547e-06
-4.21674e-07 -3.85547e-06 -0.000143922
0.000722691 -1.43613e-05 -5.46435e-07
-1.43613e-05 0.000243025 -2.15123e-06
-5.46435e-07 -2.15123e-06 7.36346e-05
0.0010139 9.80292e-05 -1.94055e-06
9.80292e-05 0.000375625 1.07385e-05
-1.94055e-06 1.07385e-05 0.00026502
0.00013818 9.84225e-05 4.1268e-06
9.84225e-05 -0.000188853 9.15939e-06
4.1268e-06 9.15939e-06 -0.000227605
0.000805098 0.00016403 -1.30808e-06
0.00016403 0.00032575 -8.63928e-08
-1.30808e-06 -8.63928e-08 0.0001223
0.000394657 -1.75609e-05 3.24291e-07
-1.75609e-05 7.1593e-07 1.13554e-06
3.24291e-07 1.13554e-06 -0.000136515
0.000701842 6.40265e-05 -8.37097e-07
6.40265e-05 0.000215944 4.88439e-08
-8.37097e-07 4.88439e-08 3.8783e-05
0.000271644 0.000102945 -1.48181e-06
0.000102945 -6.50872e-05 -2.97544e-06
-1.48181e-06 -2.97544e-06 -0.000120962
0.000719557 0.000132801 -1.59696e-06
0.000132801 0.000200178 -3.00418e-07
-1.59696e-06 -3.00418e-07 5.31405e-05
0.00221406 0.000269943 -1.5173e-06
0.000269943 0.00118536 -2.21517e-07
-1.5173e-06 -2.21517e-07 0.000975072
0.000186643 0.000106725 -7.93964e-07
0.000106725 -2.56643e-05 -4.6831e-06
-7.93964e-07 -4.6831e-06 -0.000201323
0.000879171 0.000105441 2.9049e-06
0.000105441 0.000354832 1.18567e-07
2.9049e-06 1.18567e-07 0.000167208
0.000190206 8.62371e-07 -1.53369e-07
8.62371e-07 -0.000130519 -1.65554e-08
-1.53369e-07 -1.65554e-08 -0.000300437
0.0003062 -7.30189e-05 -7.83382e-07
-7.30189e-05 -5.37941e-05 2.55351e-07
-7.83382e-07 2.55351e-07 -0.000192302
0.000484347 -2.73243e-05 -6.24329e-07
-2.73243e-05 7.63734e-05 -1.50826e-06
-6.24329e-07 -1.50826e-06 -9.37384e-05
0.00138958 -4.56156e-05 1.14172e-06
-4.56156e-05 0.000640055 -1.16418e-05
1.14172e-06 -1.16418e-05 0.000474553
0.000819711 -5.69304e-05 -1.69955e-06
-5.69304e-05 0.000334895 -1.16506e-06
-1.69955e-06 -1.16506e-06 0.000159338
0.000735828 -9.17556e-05 1.91102e-06
-9.17556e-05 0.000257698 -9.26921e-07
1.91102e-06 -9.26921e-07 7.75102e-05
0.000632342 -0.000130221 -1.84673e-06
-0.000130221 0.000160819 4.38798e-06
-1.84673e-06 4.38798e-06 1.65606e-05
0.000225247 -2.82714e-05 2.27317e-07
-2.82714e-05 -0.000104359 9.93424e-07
2.27317e-07 9.93424e-07 -0.00024561
0.000495454 -6.39557e-05 -1.84556e-06
-6.39557e-05 4.14896e-05 3.80779e-06
-1.84556e-06 3.80779e-06 -4.28586e-05
0.000494331 -4.30796e-05 2.03517e-06
-4.30796e-05 4.78014e-05 1.1726e-07
2.03517e-06 1.1726e-07 -4.09457e-05
0.000413159 1.76226e-06 3.26158e-06
1.76226e-06 -2.71842e-05 6.5832e-06
3.26158e-06 6.5832e-06 -5.48507e-05
0.00048411 5.7934e-05 -1.43632e-06
5.7934e-05 3.51179e-05 -3.46754e-06
-1.43632e-06 -3.46754e-06 -4.86707e-05
0.000379825 3.19844e-05 4.12547e-07
3.19844e-05 -5.02342e-05 9.35849e-08
4.12547e-07 9.35849e-08 -7.70301e-05
0.00258126 7.8162e-06 9.27018e-06
7.8162e-06 0.00132832 5.49361e-06
9.27018e-06 5.49361e-06 0.00134016
0.000434762 4.95e-05 -4.09667e-06
4.95e-05 -1.76795e-05 -7.78755e-06
-4.09667e-06 -7.78755e-06 -4.64645e-05
0.00171222 -3.27501e-06 -5.84851e-06
-3.27501e-06 0.000774068 1.82299e-07
-5.84851e-06 1.82299e-07 0.000781251
0.00080899 -9.96832e-06 6.23332e-07
-9.96832e-06 0.000192064 -2.44414e-06
6.23332e-07 -2.44414e-06 0.000195647
0.000410383 1.24542e-05 -2.4659e-07
1.24542e-05 -3.43796e-05 -1.78022e-06
-2.4659e-07 -1.78022e-06 -7.92285e-05
0.00051033 -4.13526e-05 1.52525e-07
-4.13526e-05 3.93271e-05 6.78309e-08
1.52525e-07 6.78309e-08 -1.801e-05
0.000504415 1.12407e-05 1.4863e-06
1.12407e-05 -1.87973e-06 -3.33165e-06
1.4863e-06 -3.33165e-06 -1.47637e-05
0.000477027 -4.4691e-05 -1.36233e-06
-4.4691e-05 1.1677e-05 2.37998e-07
-1.36233e-06 2.37998e-07 -4.59469e-05
0.000788056 2.86488e-05 -1.28103e-07
2.86488e-05 0.000182864 -7.49485e-07
-1.28103e-07 -7.49485e-07 0.000168484
0.00205922 5.6893e-05 4.26818e-06
5.6893e-05 0.000999954 -4.77507e-06
4.26818e-06 -4.77507e-06 0.00101186
0.000451876 3.81843e-05 1.42365e-06
3.81843e-05 -2.24882e-05 4.16046e-06
1.42365e-06 4.16046e-06 -4.58745e-05
0.00244473 8.57187e-05 -4.79479e-06
8.57187e-05 0.00125649 1.28124e-06
-4.79479e-06 1.28124e-06 0.00126151
0.00269233 0.000118221 6.87167e-06
0.000118221 0.00142414 6.76585e-06
6.87167e-06 6.76585e-06 0.00142157
0.00236794 0.000184349 6.83587e-07
0.000184349 -9.92463e-05 -3.77564e-07
6.83587e-07 -3.77564e-07 -5.6997e-06
0.00219096 -4.94882e-06 3.64583e-06
-4.94882e-06 -0.000100445 -8.59166e-07
3.64583e-06 -8.59166e-07 -9.28213e-06
0.00218978 7.56732e-05 -6.59169e-06
7.56732e-05 -0.000216218 5.23575e-06
-6.59169e-06 5.23575e-06 -0.000123295
0.00259015 0.000787992 0.000107084
0.000787992 -0.00184307 2.49209e-05
0.000107084 2.49209e-05 -0.000835917
0.00248513 -2.74652e-05 2.76679e-07
-2.74652e-05 -0.000109407 -2.87656e-06
2.76679e-07 -2.87656e-06 3.15388e-05
0.00234577 7.77285e-05 -2.62789e-06
7.77285e-05 5.63712e-05 -9.92548e-06
-2.62789e-06 -9.92548e-06 0.000238617
0.00280467 -5.13069e-05 -2.72969e-05
-5.13069e-05 0.000432324 -4.56496e-06
-2.72969e-05 -4.56496e-06 0.000498068
0.0033582 0.000314277 -3.79926e-05
0.000314277 -0.00220487 -4.68833e-05
-3.79926e-05 -4.68833e-05 -0.000800276
0.00233889 0.00026799 0.000145745
0.00026799 -0.00119084 5.60939e-05
0.000145745 5.60939e-05 -0.000571678
0.000582559 9.21974e-05 5.0008e-07
9.21974e-05 0.000123973 -1.02697e-06
5.0008e-07 -1.02697e-06 2.19701e-05
0.000574664 -4.46847e-06 1.05093e-07
-4.46847e-06 0.000130777 -1.42999e-07
1.05093e-07 -1.42999e-07 1.88746e-05
0.000317244 -9.51885e-05 -6.32242e-06
-9.51885e-05 -2.42637e-05 2.75088e-06
-6.32242e-06 2.75088e-06 -0.000145823
0.000359437 -4.6902e-05 -3.52583e-06
-4.6902e-05 9.62626e-06 2.09231e-06
-3.52583e-06 2.09231e-06 -0.000114918
0.00239578 -0.000206077 -2.82378e-06
-0.000206077 -0.000196078 -3.00936e-06
-2.82378e-06 -3.00936e-06 -2.9848e-05
0.00236443 -0.000521263 -3.28014e-07
-0.000521263 -0.000201362 -2.00045e-06
-3.28014e-07 -2.00045e-06 -5.02567e-05
0.00241498 -0.000762469 -1.32061e-06
-0.000762469 -2.13732e-06 1.89135e-06
-1.32061e-06 1.89135e-06 -3.53964e-05
0.00407298 -0.000981991 2.47662e-05
-0.000981991 0.00191383 1.31878e-05
2.47662e-05 1.31878e-05 0.00139619
0.00038093 -0.000899046 -3.28188e-06
-0.000899046 -0.000560661 4.44071e-06
-3.28188e-06 4.44071e-06 -0.00108361
0.00244568 -0.00100658 -9.64677e-07
-0.00100658 0.000287865 -2.44554e-06
-9.64677e-07 -2.44554e-06 6.90986e-06
0.000552816 -0.000746474 2.30949e-05
-0.000746474 -0.000112336 -2.64864e-05
2.30949e-05 -2.64864e-05 -0.000642417
0.00351401 -0.000390784 1.39602e-05
-0.000390784 0.0016897 -3.66006e-06
1.39602e-05 -3.66006e-06 0.0012659
-0.000290582 -5.60348e-05 -6.98607e-06
-5.60348e-05 -0.000526982 9.41768e-06
-6.98607e-06 9.41768e-06 -0.000769447
0.000682453 -7.27937e-05 3.86695e-06
-7.27937e-05 0.000201013 -8.15869e-07
3.86695e-06 -8.15869e-07 9.29496e-05
0.00047088 -0.000125808 -7.15022e-06
-0.000125808 0.000143216 -1.37347e-05
-7.15022e-06 -1.37347e-05 -0.000159102
0.000479384 -2.29984e-05 5.76528e-06
-2.29984e-05 7.33084e-05 -2.00779e-06
5.76528e-06 -2.00779e-06 -9.41718e-05
0.000548849 -1.37562e-06 4.43521e-07
-1.37562e-06 0.000129251 1.65072e-06
4.43521e-07 1.65072e-06 5.07262e-06
0.000743377 -8.40672e-05 -9.59767e-06
-8.40672e-05 0.00017893 6.20296e-09
-9.59767e-06 6.20296e-09 8.11851e-05
0.00269161 -0.000337543 2.20355e-06
-0.000337543 1.51946e-06 1.5824e-06
2.20355e-06 1.5824e-06 0.000184161
0.000445577 -3.3686e-05 -8.74537e-07
-3.3686e-05 6.23917e-05 2.7574e-06
-8.74537e-07 2.7574e-06 -7.3529e-05
0.000797505 -5.8349e-05 8.02317e-06
-5.8349e-05 0.00019035 -8.78545e-07
8.02317e-06 -8.78545e-07 6.9826e-05
-0.00105652 -5.07766e-05 7.17341e-06
-5.07766e-05 -0.000869182 -1.37904e-06
7.17341e-06 -1.37904e-06 -0.000932081
0.00214838 -0.000589999 7.06285e-07
-0.000589999 -0.000351232 -1.1823e-06
7.06285e-07 -1.1823e-06 -0.000105193
0.00236518 -0.000916544 2.32921e-06
-0.000916544 9.50665e-05 -1.45833e-06
2.32921e-06 -1.45833e-06 -9.47886e-05
0.00203898 -0.000994595 -7.69176e-06
-0.000994595 0.000657472 8.48339e-07
-7.69176e-06 8.48339e-07 0.000130023
0.00277378 -0.00116536 -5.75663e-06
-0.00116536 0.00062363 1.41439e-06
-5.75663e-06 1.41439e-06 0.000249786
0.00152838 -0.000179411 6.84905e-06
-0.000179411 0.000746778 -3.98421e-06
6.84905e-06 -3.98421e-06 0.000500459
-0.000386264 -3.91326e-05 6.07975e-06
-3.91326e-05 -0.000448232 8.23633e-06
6.07975e-06 8.23633e-06 -0.000723089
0.00181185 -0.00118852 -5.448e-07
-0.00118852 0.00101547 -2.02528e-06
-5.448e-07 -2.02528e-06 0.000199476
0.00161907 -0.000485659 -1.06584e-05
-0.000485659 0.000812831 -8.01573e-07
-1.06584e-05 -8.01573e-07 0.000272529
0.00362736 -0.00049896 -5.04889e-05
-0.00049896 0.000494734 1.33454e-05
-5.04889e-05 1.33454e-05 0.000784462
0.0027675 -0.000765633 -4.02817e-05
-0.000765633 0.000232163 1.31095e-05
-4.02817e-05 1.31095e-05 0.000300386
0.00265025 -0.0010535 2.22568e-06
-0.0010535 0.00047039 -1.68444e-05
2.22568e-06 -1.68444e-05 0.000107089
0.00317695 -0.00119264 1.56868e-05
-0.00119264 0.001083 2.08887e-05
1.56868e-05 2.08887e-05 0.000688067
5.40838e-06 -9.29437e-05 -3.19587e-06
-9.29437e-05 -0.000109321 -7.559e-06
-3.19587e-06 -7.559e-06 -0.000254008
0.000348889 -0.000153707 -1.4753e-05
-0.000153707 7.50763e-06 -2.34923e-07
-1.4753e-05 -2.34923e-07 -0.000213238
-2.03747e-05 -0.000200086 -4.81661e-06
-0.000200086 8.58493e-05 5.95056e-05
-4.81661e-06 5.95056e-05 -0.000268503
0.000133014 -0.00102711 -4.50713e-06
-0.00102711 0.000769114 -3.31104e-05
-4.50713e-06 -3.31104e-05 -0.000426246
0.00356285 -0.000449204 6.72929e-05
-0.000449204 -0.00576934 -2.45751e-05
6.72929e-05 -2.45751e-05 -0.00583903
0.00251466 0.000349663 4.73782e-06
0.000349663 0.0014094 -2.5789e-06
4.73782e-06 -2.5789e-06 0.00114812
0.00133984 0.000416895 -1.25824e-06
0.000416895 0.000528771 -1.08309e-06
-1.25824e-06 -1.08309e-06 0.000218248
0.00187469 0.000384604 5.34176e-05
0.000384604 -0.000428692 1.69319e-05
5.34176e-05 1.69319e-05 -0.000155727
0.00250137 0.000859087 2.51166e-05
0.000859087 0.000286856 1.214e-05
2.51166e-05 1.214e-05 8.84779e-05
0.0024197 0.000938291 1.10845e-05
0.000938291 0.000676227 1.28829e-05
1.10845e-05 1.28829e-05 0.000172139
0.00146864 0.000680148 1.03418e-05
0.000680148 0.000383312 9.92661e-06
1.03418e-05 9.92661e-06 -0.000107177
0.00547823 0.00172023 0.000109646
0.00172023 -4.55601e-05 3.48367e-05
0.000109646 3.48367e-05 0.000120851
0.00121233 0.000346063 4.88001e-06
0.000346063 0.000696528 -6.5046e-07
4.88001e-06 -6.5046e-07 0.000417547
0.00268579 0.00084067 -2.61589e-05
0.00084067 0.000141957 9.79638e-07
-2.61589e-05 9.79638e-07 0.000162551
0.000939421 0.000501772 -6.52353e-06
0.000501772 0.000148595 4.70361e-06
-6.52353e-06 4.70361e-06 -0.000232095
0.00157333 0.000766575 5.3159e-07
0.000766575 0.000380978 -7.45344e-06
5.3159e-07 -7.45344e-06 -0.00010977
0.00249034 0.00103842 -1.16622e-05
0.00103842 0.000463431 -3.2507e-07
-1.16622e-05 -3.2507e-07 0.000114334
0.00521208 -0.000603773 -0.000183752
-0.000603773 -0.00535605 -0.000109706
-0.000183752 -0.000109706 -0.00598381
0.00684358 0.00217564 -0.000163751
0.00217564 -0.000827196 -6.79891e-05
-0.000163751 -6.79891e-05 0.000738117
0.00150034 0.00156667 -1.12648e-06
0.00156667 -0.000406762 2.95628e-06
-1.12648e-06 2.95628e-06 -0.000763379
0.00275685 -0.00258774 0.000658909
-0.00258774 0.00350293 0.000239721
0.000658909 0.000239721 0.000115607
0.018014 -0.0108885 -0.000550315
-0.0108885 0.00955125 -0.000492135
-0.000550315 -0.000492135 0.00479823
0.000432321 0.000263572 -1.31231e-05
0.000263572 5.70537e-05 -2.41532e-06
-1.31231e-05 -2.41532e-06 -0.00018172
0.00197962 0.000496717 0.000964038
0.000496717 0.00466783 8.15294e-05
0.000964038 8.15294e-05 0.00253082
0.00529906 -0.00424795 -0.000160359
-0.00424795 0.00704163 -0.000220741
-0.000160359 -0.000220741 0.000614859
0.00352444 0.00138071 -6.92705e-05
0.00138071 0.00073977 -2.15402e-05
-6.92705e-05 -2.15402e-05 0.000491144
0.000532095 0.000400648 -3.08512e-05
0.000400648 -0.000116523 -7.06564e-06
-3.08512e-05 -7.06564e-06 -0.000448808
0.00123578 0.000786953 -4.15857e-05
0.000786953 0.000234693 -3.32299e-05
-4.15857e-05 -3.32299e-05 -0.000180679
-0.000352492 0.00140804 8.33484e-05
0.00140804 -0.00105021 0.000107074
8.33484e-05 0.000107074 -0.00142353
0.0131099 0.00297682 9.71758e-05
0.00297682 0.00100918 -9.40371e-06
9.71758e-05 -9.40371e-06 0.000680132
0.00559171 0.00324036 -6.13508e-05
0.00324036 -0.000454401 -6.42547e-05
-6.13508e-05 -6.42547e-05 0.000727199
0.0191839 -0.00729024 0.00118323
-0.00729024 0.0068163 0.000512499
0.00118323 0.000512499 0.00164434
0.0149433 -0.00323854 -0.000159305
-0.00323854 0.005227 0.000681991
-0.000159305 0.000681991 0.00271631
0.000642801 0.000105927 1.72435e-06
0.000105927 0.000296865 -2.86478e-06
1.72435e-06 -2.86478e-06 0.000190074
0.000280374 0.000157057 7.36418e-06
0.000157057 7.15858e-05 1.39886e-06
7.36418e-06 1.39886e-06 -5.57002e-05
0.00175473 0.000314431 3.33524e-06
0.000314431 0.000994976 -3.57386e-06
3.33524e-06 -3.57386e-06 0.000785982
0.000588476 6.01485e-07 1.88687e-06
6.01485e-07 0.000151132 3.57967e-07
1.88687e-06 3.57967e-07 -4.2068e-06
0.000620904 7.35091e-05 3.29388e-07
7.35091e-05 0.000156095 -2.23866e-06
3.29388e-07 -2.23866e-06 -1.41248e-05
-0.000118373 3.82565e-05 -1.31163e-06
3.82565e-05 -0.000281918 7.44711e-07
-1.31163e-06 7.44711e-07 -0.00045671
0.000827197 0.000134403 -6.85888e-06
0.000134403 0.000291483 2.21565e-06
-6.85888e-06 2.21565e-06 0.000138779
-0.000315773 7.51062e-05 -2.7157e-06
7.51062e-05 -0.000452021 1.86894e-06
-2.7157e-06 1.86894e-06 -0.000503334
0.00033904 -1.29372e-05 -2.657e-07
-1.29372e-05 -2.77228e-05 7.06214e-07
-2.657e-07 7.06214e-07 -0.000171025
0.00141721 0.000170533 2.60045e-06
0.000170533 0.00066067 8.4983e-07
2.60045e-06 8.4983e-07 0.000469351
0.000494399 6.23872e-05 -3.95194e-07
6.23872e-05 0.000124495 -4.23597e-07
-3.95194e-07 -4.23597e-07 -7.20332e-05
0.000797265 4.27787e-05 1.526e-06
4.27787e-05 0.000290405 -2.29684e-07
1.526e-06 -2.29684e-07 9.59207e-05
0.000123062 9.85033e-05 -7.93158e-07
9.85033e-05 -6.20057e-05 -3.38849e-06
-7.93158e-07 -3.38849e-06 -0.000237602
0.00156043 0.000156584 -2.4704e-06
0.000156584 0.000780447 -3.08979e-06
-2.4704e-06 -3.08979e-06 0.000601061
-0.000355599 7.31942e-05 -7.49356e-06
7.31942e-05 -0.000180899 -4.83529e-06
-7.49356e-06 -4.83529e-06 -0.000459911
0.000256801 -6.2087e-05 -4.57046e-08
-6.2087e-05 -4.36409e-05 1.65956e-06
-4.57046e-08 1.65956e-06 -0.000233269
0.000751946 -8.76847e-05 -2.64212e-06
-8.76847e-05 0.000269725 -1.3053e-06
-2.64212e-06 -1.3053e-06 7.86943e-05
0.000826356 -6.1648e-05 -4.0402e-07
-6.1648e-05 0.000316312 -9.07465e-07
-4.0402e-07 -9.07465e-07 0.000127639
0.000652568 -4.93386e-05 -4.23341e-06
-4.93386e-05 0.000162375 9.55445e-07
-4.23341e-06 9.55445e-07 1.59533e-05
0.00110587 1.0507e-05 -7.93821e-06
1.0507e-05 0.000537581 -5.6696e-06
-7.93821e-06 -5.6696e-06 0.000322432
0.000892964 -0.000109816 2.9911e-06
-0.000109816 0.000301898 -1.30184e-05
2.9911e-06 -1.30184e-05 0.000170105
-0.00132904 -2.06081e-07 -5.80348e-06
-2.06081e-07 -0.00104056 -8.87294e-06
-5.80348e-06 -8.87294e-06 -0.00116768
5.25615e-05 -3.88727e-05 1.78673e-06
-3.88727e-05 -0.00011331 -2.46916e-06
1.78673e-06 -2.46916e-06 -0.000322802
0.0001719 -7.2939e-05 6.85246e-07
-7.2939e-05 -0.00011484 -1.60226e-07
6.85246e-07 -1.60226e-07 -0.000257989
0.00081368 -0.000128829 -9.2704e-07
-0.000128829 0.000310706 6.00414e-07
-9.2704e-07 6.00414e-07 0.000145278
0.000495726 -9.18873e-05 -1.04047e-06
-9.18873e-05 5.33661e-05 3.45269e-06
-1.04047e-06 3.45269e-06 -7.4744e-05
0.000420385 -0.000100005 3.566e-06
-0.000100005 1.98905e-05 4.82195e-07
3.566e-06 4.82195e-07 -0.00013207
0.000547966 -0.000123578 -1.96901e-08
-0.000123578 0.000104482 1.08719e-07
-1.96901e-08 1.08719e-07 -3.939e-05
0.000518046 -6.33528e-05 -2.15663e-06
-6.33528e-05 5.32161e-05 5.25215e-06
-2.15663e-06 5.25215e-06 -3.31317e-05
0.000349985 -4.50421e-06 6.56184e-07
-4.50421e-06 -7.74602e-06 -8.25594e-07
6.56184e-07 -8.25594e-07 -0.00016176
0.00046947 -1.2195e-08 2.46002e-06
-1.2195e-08 3.29995e-05 1.47889e-07
2.46002e-06 1.47889e-07 -5.65127e-05
0.00144509 -4.04018e-05 -1.17263e-05
-4.04018e-05 0.000619283 7.00372e-06
-1.17263e-05 7.00372e-06 0.000595873
0.000447521 7.27252e-05 -2.09141e-06
7.27252e-05 1.85713e-05 -3.09479e-06
-2.09141e-06 -3.09479e-06 -6.9346e-05
0.000849594 -2.14678e-05 -4.59401e-06
-2.14678e-05 0.000248807 7.3499e-07
-4.59401e-06 7.3499e-07 0.000223252
0.000802003 3.00102e-06 -3.52834e-06
3.00102e-06 0.000200691 4.76164e-06
-3.52834e-06 4.76164e-06 0.000204729
0.000356179 -2.75338e-05 4.50619e-06
-2.75338e-05 -6.5678e-05 -5.18068e-06
4.50619e-06 -5.18068e-06 -9.17767e-05
0.0026004 4.55199e-06 8.57391e-06
4.55199e-06 0.0013409 2.06854e-09
8.57391e-06 2.06854e-09 0.00135265
0.000864696 4.6286e-06 -1.13426e-05
4.6286e-06 0.000238905 -5.52331e-06
-1.13426e-05 -5.52331e-06 0.000241773
0.000509101 7.20708e-05 2.83566e-06
7.20708e-05 7.89832e-05 5.96569e-07
2.83566e-06 5.96569e-07 -2.89151e-05
0.000439722 5.80916e-05 -2.2611e-06
5.80916e-05 -3.05439e-06 -2.50413e-06
-2.2611e-06 -2.50413e-06 -5.44407e-05
0.000461178 -2.7158e-07 1.53803e-06
-2.7158e-07 1.10702e-05 1.9966e-07
1.53803e-06 1.9966e-07 -4.21051e-05
0.000460128 1.00041e-05 1.3999e-06
1.00041e-05 -2.9129e-05 -3.15684e-06
1.3999e-06 -3.15684e-06 -4.04923e-05
0.000549797 -6.93486e-05 -2.07294e-06
-6.93486e-05 7.36987e-05 2.14586e-06
-2.07294e-06 2.14586e-06 1.09904e-05
0.000460085 1.26955e-05 1.56239e-07
1.26955e-05 -3.03512e-05 -7.38736e-07
1.56239e-07 -7.38736e-07 -4.30792e-05
0.00203618 3.97407e-05 2.77617e-06
3.97407e-05 0.000980408 -4.80685e-06
2.77617e-06 -4.80685e-06 0.000994991
0.00111537 3.80426e-05 2.72372e-08
3.80426e-05 0.000392502 1.73038e-06
2.72372e-08 1.73038e-06 0.000379122
0.00149176 4.91488e-05 -5.81745e-07
4.91488e-05 0.000639817 1.44434e-06
-5.81745e-07 1.44434e-06 0.000646636
0.000895262 5.34961e-05 -2.93609e-06
5.34961e-05 0.000267173 8.8494e-06
-2.93609e-06 8.8494e-06 0.000265135
0.00101157 0.000571228 7.66072e-05
0.000571228 -0.00258393 1.86917e-05
7.66072e-05 1.86917e-05 -0.00154477
0.00246011 -5.20579e-05 -2.59386e-07
-5.20579e-05 -9.02945e-05 6.52013e-06
-2.59386e-07 6.52013e-06 4.14356e-05
0.00226846 7.4408e-05 3.47703e-05
7.4408e-05 3.34945e-05 -1.29268e-05
3.47703e-05 -1.29268e-05 0.000178174
0.00307953 0.000522222 -6.88946e-05
0.000522222 -0.00225575 -4.10489e-05
-6.88946e-05 -4.10489e-05 -0.00044613
0.00301912 0.000120374 6.03699e-05
0.000120374 -0.000618239 -2.03735e-06
6.03699e-05 -2.03735e-06 -4.92604e-05
0.00285939 -5.25002e-05 3.17209e-07
-5.25002e-05 0.000403332 -1.01722e-05
3.17209e-07 -1.01722e-05 0.000506214
0.0051463 -0.00045674 -6.71953e-05
-0.00045674 0.00106002 -2.61512e-05
-6.71953e-05 -2.61512e-05 0.00138101
0.00379659 -0.000438055 3.04753e-05
-0.000438055 -0.000706924 -5.01602e-06
3.04753e-05 -5.01602e-06 0.000359672
0.0186043 -0.00100233 8.55699e-05
-0.00100233 0.00308071 -5.91648e-05
8.55699e-05 -5.91648e-05 0.00232554
0.0157113 0.00694843 0.00177717
0.00694843 0.00619493 -0.000472467
0.00177717 -0.000472467 0.00217318
0.0234725 0.00800762 9.63444e-05
0.00800762 0.0150772 2.45313e-05
9.63444e-05 2.45313e-05 0.0106402
0.000112914 -0.000101923 6.92775e-07
-0.000101923 -0.00015043 -3.70013e-07
6.92775e-07 -3.70013e-07 -0.000267822
0.000528843 -5.49388e-06 1.74578e-06
-5.49388e-06 8.87592e-05 -2.9924e-08
1.74578e-06 -2.9924e-08 -1.25463e-05
0.000612604 -9.18538e-05 -9.88078e-07
-9.18538e-05 0.000161344 3.37405e-06
-9.88078e-07 3.37405e-06 4.27835e-05
0.000535784 -3.657e-05 1.37996e-06
-3.657e-05 0.000101879 2.57198e-07
1.37996e-06 2.57198e-07 -1.74599e-05
0.00098486 0.000129485 -5.14725e-06
0.000129485 0.000450861 1.16572e-06
-5.14725e-06 1.16572e-06 0.000307731
0.000530217 0.00014103 5.95904e-07
0.00014103 8.43603e-05 7.3704e-06
5.95904e-07 7.3704e-06 -4.57234e-05
0.000942967 6.79103e-06 2.75965e-06
6.79103e-06 0.000381309 3.82242e-06
2.75965e-06 3.82242e-06 0.000233469
0.000515129 -2.50909e-05 -1.49901e-06
-2.50909e-05 8.96483e-05 1.31028e-06
-1.49901e-06 1.31028e-06 -3.22752e-05
0.00269236 -0.000325279 1.32003e-05
-0.000325279 -3.0286e-06 -6.55591e-06
1.32003e-05 -6.55591e-06 0.000208665
0.00220618 -0.000617814 1.36269e-05
-0.000617814 -0.000347217 -6.74474e-06
1.36269e-05 -6.74474e-06 -0.000125261
0.00249748 -0.000930058 2.05038e-06
-0.000930058 0.000162382 6.44151e-06
2.05038e-06 6.44151e-06 -2.214e-05
0.0026711 -0.00104249 1.52081e-05
-0.00104249 0.000966489 4.20329e-06
1.52081e-05 4.20329e-06 0.000458131
0.00228673 -0.00112828 -2.64654e-05
-0.00112828 0.000359135 1.09757e-06
-2.64654e-05 1.09757e-06 -2.5433e-05
0.0016728 -0.00123667 3.74283e-05
-0.00123667 0.00102666 -9.98063e-06
3.74283e-05 -9.98063e-06 0.000110875
0.00470985 -0.000834122 8.21823e-06
-0.000834122 0.00236938 9.78364e-06
8.21823e-06 9.78364e-06 0.00191963
0.00172405 -0.000351656 1.59485e-05
-0.000351656 0.00094586 -5.09695e-05
1.59485e-05 -5.09695e-05 0.000565144
0.000581473 -0.000117914 1.67161e-06
-0.000117914 3.71995e-05 3.73982e-07
1.67161e-06 3.73982e-07 -6.53334e-05
0.00105625 -8.84356e-05 1.23506e-05
-8.84356e-05 0.000414981 -2.4153e-05
1.23506e-05 -2.4153e-05 0.000183231
0.000972465 -5.53192e-05 4.05886e-06
-5.53192e-05 0.000385713 1.28649e-06
4.05886e-06 1.28649e-06 0.000238981
0.000710563 6.50743e-06 9.18423e-06
6.50743e-06 0.000261424 -7.09246e-06
9.18423e-06 -7.09246e-06 0.000235387
0.00248384 -0.000438885 -6.19233e-07
-0.000438885 -0.000141106 2.93443e-06
-6.19233e-07 2.93443e-06 0.000197846
0.000385707 -9.80854e-05 -4.7031e-06
-9.80854e-05 0.000107617 -9.4492e-07
-4.7031e-06 -9.4492e-07 -3.69206e-05
0.00139236 -0.000220257 -9.27799e-06
-0.000220257 0.000636154 4.27917e-06
-9.27799e-06 4.27917e-06 0.000447559
0.00173089 -0.00069435 8.8138e-06
-0.00069435 -0.000374223 -4.17783e-06
8.8138e-06 -4.17783e-06 -0.000241044
0.00205604 -0.00094801 2.099e-06
-0.00094801 0.00014002 2.31961e-06
2.099e-06 2.31961e-06 -0.000144512
0.000977573 -0.000916193 -4.836e-06
-0.000916193 -0.000190052 -1.10147e-05
-4.836e-06 -1.10147e-05 -0.000506021
0.00191861 -0.000411476 -8.36899e-07
-0.000411476 0.00115209 -2.94084e-05
-8.36899e-07 -2.94084e-05 0.00071557
0.0014286 -0.000735712 1.08924e-05
-0.000735712 0.00127383 4.37866e-06
1.08924e-05 4.37866e-06 0.000331681
0.00578846 -0.000985691 -5.82838e-05
-0.000985691 0.00148884 3.24875e-05
-5.82838e-05 3.24875e-05 0.00171994
0.00397831 -0.0010683 -4.53277e-05
-0.0010683 0.00121281 1.05996e-05
-4.53277e-05 1.05996e-05 0.000985197
0.00239455 -0.00112005 1.57623e-05
-0.00112005 0.000444176 8.85479e-08
1.57623e-05 8.85479e-08 0.000139525
-0.00108026 -0.000510588 -1.91454e-06
-0.000510588 -0.00103266 1.47534e-05
-1.91454e-06 1.47534e-05 -0.00115592
0.000475209 -0.000163858 1.50716e-06
-0.000163858 0.000205505 8.33833e-06
1.50716e-06 8.33833e-06 -4.41642e-05
0.000333012 -0.000180696 5.23753e-06
-0.000180696 0.000195627 1.40372e-06
5.23753e-06 1.40372e-06 -0.000112526
0.00203564 -0.000263154 -1.32106e-05
-0.000263154 0.0015656 -2.41911e-05
-1.32106e-05 -2.41911e-05 0.000812461
-0.00729926 -0.000487751 0.000696933
-0.000487751 -0.00388222 -4.22711e-05
0.000696933 -4.22711e-05 -0.00434293
0.0119961 -0.000410783 7.8204e-05
-0.000410783 0.000451024 3.26751e-05
7.8204e-05 3.26751e-05 0.000934502
0.00312582 0.000448784 1.15334e-05
0.000448784 0.00177599 -1.12083e-05
1.15334e-05 -1.12083e-05 0.00153077
0.00182932 0.000613685 -1.87051e-06
0.000613685 0.000734841 6.80679e-06
-1.87051e-06 6.80679e-06 0.0003162
0.00284454 0.000790842 0.000108996
0.000790842 0.000240719 4.86718e-05
0.000108996 4.86718e-05 0.00029314
0.00327053 0.00110982 2.9479e-05
0.00110982 0.000889671 1.38912e-05
2.9479e-05 1.38912e-05 0.000516881
0.00300673 0.000964806 2.17564e-05
0.000964806 0.00119634 8.28305e-06
2.17564e-05 8.28305e-06 0.000666445
0.017026 0.000796675 0.000105556
0.000796675 0.00262267 -6.11138e-05
0.000105556 -6.11138e-05 0.00222367
0.00852799 0.0027332 -0.000252247
0.0027332 -0.00116046 -3.61307e-05
-0.000252247 -3.61307e-05 0.000785697
0.00151303 0.00146903 1.3655e-05
0.00146903 -0.000194457 -3.14868e-05
1.3655e-05 -3.14868e-05 -0.000675914
0.0148971 -0.00534372 -0.000616867
-0.00534372 0.00648564 1.88262e-05
-0.000616867 1.88262e-05 0.00274819
0.00881712 -0.0116336 -0.00280664
-0.0116336 0.0078883 -0.00166195
-0.00280664 -0.00166195 0.00268642
0.000961891 0.000355546 3.67546e-06
0.000355546 0.000450003 -2.56591e-06
3.67546e-06 -2.56591e-06 0.000170361
-0.000979573 -0.0031444 0.000617624
-0.0031444 -0.00239042 9.09397e-05
0.000617624 9.09397e-05 -0.00504116
-0.00124419 -0.00330469 -0.000650791
-0.00330469 0.00717879 -0.000205247
-0.000650791 -0.000205247 0.00077378
0.00366681 0.00129043 -1.783e-05
0.00129043 0.000770279 2.11194e-06
-1.783e-05 2.11194e-06 0.000584666
0.000832515 0.000500814 -1.02406e-05
0.000500814 0.000122332 8.69227e-06
-1.02406e-05 8.69227e-06 -0.000263962
0.00161477 0.000913193 6.35022e-06
0.000913193 0.00044081 1.83308e-06
6.35022e-06 1.83308e-06 -3.06409e-05
0.00125335 0.00140061 5.73431e-05
0.00140061 0.000114476 4.32757e-05
5.73431e-05 4.32757e-05 -0.000211396
0.0142444 0.00327748 -0.000157872
0.00327748 0.000478284 -0.000105848
-0.000157872 -0.000105848 -0.000947663
0.00393424 0.0033276 -2.05202e-05
0.0033276 -0.000886847 -3.92628e-05
-2.05202e-05 -3.92628e-05 0.000461016
0.0197163 -0.00593732 0.000660803
-0.00593732 0.00832671 -2.07369e-05
0.000660803 -2.07369e-05 0.00307835
0.0192131 -0.00495961 7.39167e-05
-0.00495961 0.00472286 0.00080308
7.39167e-05 0.00080308 0.00143456
0.00182806 0.000424592 -2.00984e-05
0.000424592 0.000922366 -1.6808e-05
-2.00984e-05 -1.6808e-05 0.000674144
-0.00996217 0.00134237 -0.000130143
0.00134237 0.00448978 -0.000150265
-0.000130143 -0.000150265 -0.00299125
0.00578249 0.00118462 -0.000452834
0.00118462 0.00469443 -0.000553566
-0.000452834 -0.000553566 -0.000367735
0.0025712 0.000954301 -3.60795e-05
0.000954301 0.000595588 -1.22945e-05
-3.60795e-05 -1.22945e-05 0.000518848
0.00297257 0.000972389 -8.51441e-05
0.000972389 0.00131603 -3.14379e-05
-8.51441e-05 -3.14379e-05 0.00087621
0.00152587 0.00105585 -9.71507e-05
0.00105585 0.00106274 -2.72138e-05
-9.71507e-05 -2.72138e-05 0.000310003
-0.00264049 0.00215852 1.75034e-05
0.00215852 -0.00104996 -3.45297e-05
1.75034e-05 -3.45297e-05 -0.00123384
0.00235137 0.00422446 0.000518734
0.00422446 -0.0019433 0.000138413
0.000518734 0.000138413 -0.00377716
0.0205114 -0.00755952 7.62821e-05
-0.00755952 0.0112272 0.000802974
7.62821e-05 0.000802974 0.00533049
0.0092023 -0.000397622 -0.000198348
-0.000397622 -0.00196797 -0.000186532
-0.000198348 -0.000186532 -0.00118296
-0.000518287 0.000146231 4.2618e-07
0.000146231 -0.000378341 -4.94299e-06
4.2618e-07 -4.94299e-06 -0.000530413
0.00183962 0.000348026 1.06803e-05
0.000348026 0.00103086 2.6498e-06
1.06803e-05 2.6498e-06 0.000816506
-0.000663927 8.61147e-05 -2.69636e-06
8.61147e-05 -0.000418638 -8.8245e-07
-2.69636e-06 -8.8245e-07 -0.000597024
0.000334917 5.16376e-05 2.29716e-06
5.16376e-05 -3.21974e-05 1.64378e-06
2.29716e-06 1.64378e-06 -0.000175235
0.00106654 8.96297e-05 2.97167e-07
8.96297e-05 0.000471773 -1.39087e-06
2.97167e-07 -1.39087e-06 0.000271104
0.000570246 3.30528e-05 -2.05864e-06
3.30528e-05 0.000178798 1.6412e-06
-2.05864e-06 1.6412e-06 -2.8848e-05
0.000422795 0.000108366 6.76783e-06
0.000108366 5.60599e-05 6.05401e-06
6.76783e-06 6.05401e-06 -0.000140925
-0.000740065 3.61419e-05 -4.27256e-06
3.61419e-05 -0.000573818 1.3412e-06
-4.27256e-06 1.3412e-06 -0.00074395
0.000765562 3.78239e-05 3.70609e-07
3.78239e-05 0.00028152 -7.22411e-07
3.70609e-07 -7.22411e-07 8.86143e-05
0.000718618 9.75712e-05 6.65969e-07
9.75712e-05 0.000248419 -1.53292e-07
6.65969e-07 -1.53292e-07 7.59224e-05
0.000839886 -3.98938e-05 -1.32009e-06
-3.98938e-05 0.000338227 2.2053e-06
-1.32009e-06 2.2053e-06 0.000132945
-0.00105841 3.67045e-05 1.86763e-06
3.67045e-05 -0.000596911 5.26982e-07
1.86763e-06 5.26982e-07 -0.000867291
0.000533666 6.8339e-05 -2.79002e-06
6.8339e-05 0.000529324 5.97094e-06
-2.79002e-06 5.97094e-06 0.000141861
0.000643694 -2.17674e-05 -7.75278e-07
-2.17674e-05 0.00031683 -6.39399e-06
-7.75278e-07 -6.39399e-06 9.1375e-05
0.00152203 -1.50674e-05 -2.22127e-06
-1.50674e-05 0.000816362 2.74729e-06
-2.22127e-06 2.74729e-06 0.000573258
0.000825344 -8.93225e-05 -4.25392e-07
-8.93225e-05 0.000316845 -1.56162e-06
-4.25392e-07 -1.56162e-06 0.00012395
0.000142022 -0.000105624 4.92175e-06
-0.000105624 -0.000168981 1.19849e-05
4.92175e-06 1.19849e-05 -0.000303712
0.000650332 -9.16343e-05 4.98057e-07
-9.16343e-05 0.000225985 -8.02696e-07
4.98057e-07 -8.02696e-07 2.67713e-05
0.000768926 -0.000104312 -2.557e-06
-0.000104312 0.000213976 -7.57632e-07
-2.557e-06 -7.57632e-07 8.20554e-05
-0.000337504 -6.91888e-05 2.12089e-06
-6.91888e-05 -0.000415977 5.49753e-06
2.12089e-06 5.49753e-06 -0.000534279
-0.000194289 -5.75349e-05 -1.82366e-07
-5.75349e-05 -0.000299915 -5.55427e-06
-1.82366e-07 -5.55427e-06 -0.000466019
-3.59275e-05 -3.96628e-05 -8.83753e-06
-3.96628e-05 -0.000126679 -3.063e-06
-8.83753e-06 -3.063e-06 -0.000325126
0.00012555 -0.000110366 1.88461e-06
-0.000110366 -0.000102612 -9.01537e-06
1.88461e-06 -9.01537e-06 -0.000232364
0.00100455 -0.000126975 1.66727e-05
-0.000126975 0.000316236 -1.56685e-05
1.66727e-05 -1.56685e-05 0.000198629
0.00150737 -0.000315785 -1.52127e-06
-0.000315785 0.000564278 4.26495e-06
-1.52127e-06 4.26495e-06 0.000361404
-0.00018362 -6.96511e-05 -6.83532e-06
-6.96511e-05 -0.000284334 -1.5885e-06
-6.83532e-06 -1.5885e-06 -0.000482984
0.00057338 -4.87097e-05 1.86517e-06
-4.87097e-05 0.000196784 -7.95556e-07
1.86517e-06 -7.95556e-07 -5.63372e-06
-0.000413065 -2.55115e-05 3.27635e-06
-2.55115e-05 -0.0004441 -2.25181e-07
3.27635e-06 -2.25181e-07 -0.000641706
0.000662052 -0.000136208 -1.06346e-06
-0.000136208 0.000218659 -5.61733e-07
-1.06346e-06 -5.61733e-07 5.06429e-05
0.000415426 -3.53763e-05 5.39517e-07
-3.53763e-05 4.08617e-06 9.99967e-07
5.39517e-07 9.99967e-07 -0.000127656
0.000689643 -0.000139608 3.43206e-07
-0.000139608 0.000217014 5.06742e-07
3.43206e-07 5.06742e-07 6.28002e-05
0.000615422 -9.14061e-05 -4.87839e-07
-9.14061e-05 0.00014611 2.28439e-07
-4.87839e-07 2.28439e-07 7.25381e-06
0.000370347 3.16402e-05 1.67462e-07
3.16402e-05 -4.19858e-05 4.87719e-06
1.67462e-07 4.87719e-06 -0.000130843
0.000584598 -0.000122113 6.38223e-07
-0.000122113 0.00012149 -2.71732e-06
6.38223e-07 -2.71732e-06 -2.06124e-05
0.00050555 -4.64825e-05 -5.56154e-07
-4.64825e-05 4.06983e-05 1.33395e-07
-5.56154e-07 1.33395e-07 -4.23356e-05
0.0014192 1.93404e-05 -8.13301e-06
1.93404e-05 0.000593434 7.58933e-06
-8.13301e-06 7.58933e-06 0.000570885
0.000480845 -6.91037e-05 1.32111e-06
-6.91037e-05 3.39696e-05 -3.51385e-06
1.32111e-06 -3.51385e-06 -5.178e-05
0.000861871 -2.23992e-05 -8.63888e-06
-2.23992e-05 0.000248826 8.61853e-07
-8.63888e-06 8.61853e-07 0.000223644
0.000737549 1.13369e-05 1.299e-06
1.13369e-05 0.000149918 2.1873e-06
1.299e-06 2.1873e-06 0.000153143
0.00041403 -2.58072e-05 3.39135e-06
-2.58072e-05 -3.27105e-05 -4.72904e-06
3.39135e-06 -4.72904e-06 -5.7905e-05
0.00256567 1.08293e-05 7.18446e-06
1.08293e-05 0.00131771 1.21803e-08
7.18446e-06 1.21803e-08 0.00133005
0.00259299 3.53126e-07 3.57153e-06
3.53126e-07 0.0013361 -5.06865e-06
3.57153e-06 -5.06865e-06 0.0013479
0.00104342 8.34985e-05 -4.1586e-07
8.34985e-05 0.000418415 6.04263e-07
-4.1586e-07 6.04263e-07 0.000304544
0.000499042 6.7291e-05 -1.54994e-06
6.7291e-05 3.83685e-05 -2.85251e-06
-1.54994e-06 -2.85251e-06 -1.86991e-05
0.000531424 -1.42153e-05 -4.5097e-07
-1.42153e-05 9.80397e-05 7.96205e-07
-4.5097e-07 7.96205e-07 -1.06627e-05
0.000456728 8.88427e-06 1.47138e-06
8.88427e-06 -3.16917e-05 -3.47971e-06
1.47138e-06 -3.47971e-06 -4.225e-05
0.000434112 -1.09762e-05 1.30778e-06
-1.09762e-05 -8.25934e-06 -2.12947e-07
1.30778e-06 -2.12947e-07 -5.84004e-05
0.000504967 -6.3474e-05 -2.1322e-06
-6.3474e-05 4.38148e-05 2.27404e-06
-2.1322e-06 2.27404e-06 -1.25115e-05
0.000463918 7.28694e-06 -5.43528e-07
7.28694e-06 -2.71042e-05 3.12912e-09
-5.43528e-07 3.12912e-09 -3.84367e-05
0.00200148 2.51985e-05 -2.62733e-06
2.51985e-05 0.000955318 -4.88917e-06
-2.62733e-06 -4.88917e-06 0.000971583
0.00113678 2.49876e-05 -7.96074e-07
2.49876e-05 0.00040235 2.10105e-06
-7.96074e-07 2.10105e-06 0.000392478
0.00131339 3.151e-05 -2.4236e-06
3.151e-05 0.000518506 -3.69038e-08
-2.4236e-06 -3.69038e-08 0.000529618
0.000801154 3.78714e-05 -6.61421e-06
3.78714e-05 0.000198777 7.65402e-06
-6.61421e-06 7.65402e-06 0.000202654
-0.00790648 0.00168142 0.000696979
0.00168142 -0.00260887 -8.57163e-05
0.000696979 -8.57163e-05 -0.00603284
0.000361996 0.000800245 0.00152877
0.000800245 0.00765811 -0.000353944
0.00152877 -0.000353944 0.00308864
0.00218691 0.000491008 -0.000165417
0.000491008 -0.00276642 -3.24738e-05
-0.000165417 -3.24738e-05 -0.000684284
0.00211319 -1.85798e-05 1.39216e-05
-1.85798e-05 -0.00109859 -3.07378e-05
1.39216e-05 -3.07378e-05 -0.000465469
0.00178147 -8.08359e-05 1.81888e-05
-8.08359e-05 -0.000355342 2.49293e-05
1.81888e-05 2.49293e-05 -0.000233978
-0.00175715 1.42461e-06 -0.000113813
1.42461e-06 -0.00233412 -3.13582e-05
-0.000113813 -3.13582e-05 -0.000861171
0.00390315 -0.00051199 3.17655e-06
-0.00051199 0.000190975 5.27119e-06
3.17655e-06 5.27119e-06 0.000473888
0.0124038 -0.000187544 0.000222596
-0.000187544 -0.00150924 -0.000100165
0.000222596 -0.000100165 -0.0020072
0.00296094 0.0045636 -1.11996e-06
0.0045636 0.00132761 -7.40973e-05
-1.11996e-06 -7.40973e-05 -0.00273037
0.017895 0.00940655 -0.000643657
0.00940655 0.0118719 0.000288678
-0.000643657 0.000288678 0.0072769
0.00184688 -0.00101663 1.02411e-05
-0.00101663 -0.00284193 -3.67168e-05
1.02411e-05 -3.67168e-05 -0.00123016
0.0159908 -0.00307355 0.000261122
-0.00307355 0.00145004 -7.39116e-05
0.000261122 -7.39116e-05 0.000243055
0.0213881 0.00694847 0.000422178
0.00694847 0.00727866 -0.000544134
0.000422178 -0.000544134 0.00212968
0.0234302 0.00505895 -0.000335646
0.00505895 0.00785023 0.000316963
-0.000335646 0.000316963 0.00472317
0.00103924 0.000176518 -3.51563e-06
0.000176518 0.000490166 3.31104e-06
-3.51563e-06 3.31104e-06 0.000300604
0.000318601 4.063e-05 5.46077e-07
4.063e-05 -3.80217e-05 -1.01319e-06
5.46077e-07 -1.01319e-06 -0.000147113
0.000537851 -9.92009e-05 1.7794e-06
-9.92009e-05 0.000107528 1.54068e-06
1.7794e-06 1.54068e-06 -5.9945e-07
0.000690678 4.66274e-06 6.75684e-06
4.66274e-06 0.000209775 -1.73063e-06
6.75684e-06 -1.73063e-06 8.38671e-05
0.000807821 8.48406e-05 2.93439e-06
8.48406e-05 0.000346166 8.93627e-07
2.93439e-06 8.93627e-07 0.000209608
0.000515238 3.77373e-05 2.03889e-07
3.77373e-05 0.000113349 8.37577e-06
2.03889e-07 8.37577e-06 -6.03192e-05
0.000734968 9.57268e-05 3.34512e-07
9.57268e-05 0.000243013 3.16335e-06
3.34512e-07 3.16335e-06 9.96452e-05
0.000440655 7.3665e-05 5.67135e-06
7.3665e-05 1.81342e-05 2.90515e-06
5.67135e-06 2.90515e-06 -0.000128421
0.000659214 -1.83279e-05 2.52259e-06
-1.83279e-05 0.000199677 -1.19995e-06
2.52259e-06 -1.19995e-06 5.39553e-05
0.000452722 -1.78225e-05 2.12342e-06
-1.78225e-05 4.13693e-05 -2.65744e-06
2.12342e-06 -2.65744e-06 -7.23496e-05
0.00128717 -0.00036357 3.85416e-05
-0.00036357 -0.000795147 -1.37296e-05
3.85416e-05 -1.37296e-05 -0.000410355
0.00108747 -0.000639189 2.6848e-05
-0.000639189 -0.000723025 -9.3212e-06
2.6848e-05 -9.3212e-06 -0.000551285
0.00101948 -0.000799097 2.16003e-06
-0.000799097 -0.000436419 8.25899e-06
2.16003e-06 8.25899e-06 -0.000634733
-0.000245243 -0.000754767 -2.1061e-05
-0.000754767 -0.000857139 -4.31766e-07
-2.1061e-05 -4.31766e-07 -0.00113342
0.00247271 -0.000532305 7.39604e-06
-0.000532305 0.00163871 4.11721e-05
7.39604e-06 4.11721e-05 0.000917916
-0.000667449 -0.000589818 -8.76289e-06
-0.000589818 -0.000392348 -8.39074e-06
-8.76289e-06 -8.39074e-06 -0.000991534
0.00136699 -0.000289544 7.27552e-06
-0.000289544 0.000629406 -5.83445e-06
7.27552e-06 -5.83445e-06 0.000467673
0.000417836 -6.42277e-05 8.67021e-07
-6.42277e-05 0.000105486 2.79062e-06
8.67021e-07 2.79062e-06 -3.18841e-05
0.00258561 -0.000696025 1.4833e-05
-0.000696025 -0.000272981 -1.0041e-05
1.4833e-05 -1.0041e-05 8.99542e-05
0.000452821 -8.00271e-05 4.75178e-07
-8.00271e-05 0.000187348 1.89474e-06
4.75178e-07 1.89474e-06 -6.97767e-05
-0.000174787 -0.000221278 -2.85543e-06
-0.000221278 -0.000104828 -5.98489e-06
-2.85543e-06 -5.98489e-06 -0.000415269
0.00179077 -0.000848609 1.92077e-05
-0.000848609 -2.37265e-05 -1.11125e-06
1.92077e-05 -1.11125e-06 -0.000111462
0.00197945 -0.00106251 -1.72139e-06
-0.00106251 0.000148914 -4.15987e-07
-1.72139e-06 -4.15987e-07 -6.59598e-05
0.00026386 -0.000779955 1.87393e-05
-0.000779955 -0.000239614 -1.82479e-05
1.87393e-05 -1.82479e-05 -0.000496495
0.00093224 -0.000378698 1.21241e-05
-0.000378698 0.000924059 -2.19701e-05
1.21241e-05 -2.19701e-05 0.000170193
0.00198289 -0.00104825 -6.92821e-05
-0.00104825 -0.000105575 4.97427e-05
-6.92821e-05 4.97427e-05 -0.000328943
0.00129123 -0.000837985 -2.6792e-05
-0.000837985 -6.66564e-05 4.87314e-06
-2.6792e-05 4.87314e-06 -8.81526e-05
-0.000434365 -0.000621723 -5.80897e-05
-0.000621723 -0.000186887 3.57917e-05
-5.80897e-05 3.57917e-05 -0.000612607
-0.00212813 -0.000201786 -9.28388e-06
-0.000201786 -0.00143409 1.27271e-05
-9.28388e-06 1.27271e-05 -0.00168121
-0.00126391 -1.25335e-05 1.47533e-07
-1.25335e-05 -0.000787729 1.19589e-05
1.47533e-07 1.19589e-05 -0.00109002
0.000829653 -8.56076e-05 6.87445e-06
-8.56076e-05 0.000546656 -1.54212e-05
6.87445e-06 -1.54212e-05 0.000147928
-0.00275537 0.00143566 -0.000501125
0.00143566 0.00761179 2.3924e-05
-0.000501125 2.3924e-05 0.00193258
-7.90439e-05 -0.00184258 -1.87621e-05
-0.00184258 0.00290128 -3.39614e-06
-1.87621e-05 -3.39614e-06 0.00154708
0.00366909 0.000985076 -0.00014827
0.000985076 -0.00585941 -2.24318e-05
-0.00014827 -2.24318e-05 -0.00602017
0.000637171 0.000334829 1.43672e-05
0.000334829 0.000293374 -4.30294e-06
1.43672e-05 -4.30294e-06 7.08643e-06
0.00185806 0.000697247 1.56692e-05
0.000697247 0.000776877 2.43283e-05
1.56692e-05 2.43283e-05 0.000316339
0.00355343 0.00113993 7.80484e-05
0.00113993 0.000690956 2.9763e-05
7.80484e-05 2.9763e-05 0.000557327
0.0013478 0.000955164 1.74562e-05
0.000955164 0.000331999 2.53078e-05
1.74562e-05 2.53078e-05 -0.000184521
0.0139664 -0.00366848 0.000292775
-0.00366848 0.00568673 9.21819e-05
0.000292775 9.21819e-05 0.00359308
0.00360775 0.0019865 -0.000421233
0.0019865 -0.00523011 -0.000102591
-0.000421233 -0.000102591 -0.00649186
0.00548748 0.00324682 5.07728e-05
0.00324682 0.000379716 3.00557e-05
5.07728e-05 3.00557e-05 0.0012194
0.00326849 0.00144927 6.43209e-05
0.00144927 0.00137104 -5.02494e-06
6.43209e-05 -5.02494e-06 0.00107158
0.0119643 -0.00353099 -0.000512967
-0.00353099 0.00496837 -0.000360523
-0.000512967 -0.000360523 0.000330896
0.000690567 -0.00451759 -0.000931745
-0.00451759 0.00791272 -0.000260414
-0.000931745 -0.000260414 0.00142177
0.0284359 -0.00664578 0.000918814
-0.00664578 0.00859791 0.000433977
0.000918814 0.000433977 0.00479127
0.000277956 0.000289397 1.73588e-05
0.000289397 1.54356e-05 -4.84708e-06
1.73588e-05 -4.84708e-06 -0.000223973
-0.00384073 0.000442186 -0.000197463
0.000442186 0.00657372 -3.33703e-05
-0.000197463 -3.33703e-05 0.000151112
0.00648647 0.00161524 -0.000178418
0.00161524 0.00371691 -0.000189476
-0.000178418 -0.000189476 -0.00195252
0.00181534 0.000986226 8.93538e-06
0.000986226 0.000296279 2.69442e-06
8.93538e-06 2.69442e-06 0.000143305
0.000783575 0.000734193 1.76751e-05
0.000734193 0.000243664 6.26983e-06
1.76751e-05 6.26983e-06 -0.00020829
0.000942673 0.00115825 -7.26441e-05
0.00115825 0.000625723 -6.92984e-05
-7.26441e-05 -6.92984e-05 3.95417e-06
0.00399522 0.00372979 4.12973e-05
0.00372979 0.00110052 4.05429e-05
4.12973e-05 4.05429e-05 0.00107854
0.0155188 0.00535248 5.58797e-06
0.00535248 0.00266127 5.31617e-06
5.58797e-06 5.31617e-06 0.00040465
0.0101735 -0.00421161 9.19076e-05
-0.00421161 0.00559323 -0.000115677
9.19076e-05 -0.000115677 -0.000665418
0.0166976 -0.00219365 -2.22999e-05
-0.00219365 0.00241016 -7.0923e-05
-2.22999e-05 -7.0923e-05 0.00333371
0.000765007 0.000574079 -1.5692e-05
0.000574079 0.000287532 -9.64022e-06
-1.5692e-05 -9.64022e-06 -4.6056e-05
0.00166783 0.000279524 -0.000420019
0.000279524 0.00260596 -0.000108575
-0.000420019 -0.000108575 -0.00289386
0.00145338 0.00109927 -0.00015711
0.00109927 -7.27927e-05 -0.000192319
-0.00015711 -0.000192319 -0.00180622
-0.000833419 0.000360073 -5.95932e-06
0.000360073 -0.000191006 -2.1152e-05
-5.95932e-06 -2.1152e-05 -0.000495186
-0.00140214 0.000797612 -0.000186441
0.000797612 0.000845387 -9.67254e-06
-0.000186441 -9.67254e-06 6.71734e-05
0.0109924 0.00568521 0.000126819
0.00568521 0.00369617 -3.44242e-05
0.000126819 -3.44242e-05 -0.00107793
-0.000711767 -0.0062264 -3.2641e-05
-0.0062264 0.000130265 0.000234631
-3.2641e-05 0.000234631 -0.00568225
0.0131852 -7.28525e-05 6.65495e-05
-7.28525e-05 -0.00149861 -0.00034068
6.65495e-05 -0.00034068 0.000840597
0.000928821 0.000227574 -2.72789e-06
0.000227574 0.000424735 1.93177e-05
-2.72789e-06 1.93177e-05 0.000255315
0.0009502 0.000264961 -9.46589e-06
0.000264961 0.000578669 -5.60233e-06
-9.46589e-06 -5.60233e-06 0.000349439
-0.000370589 0.000144672 1.09144e-06
0.000144672 -2.21581e-05 -1.83053e-06
1.09144e-06 -1.83053e-06 -0.000370359
0.000500058 8.69686e-05 -4.13127e-07
8.69686e-05 9.12089e-05 -7.80257e-07
-4.13127e-07 -7.80257e-07 -8.4794e-05
0.00130307 -2.84894e-05 -2.59993e-06
-2.84894e-05 0.000650983 3.70322e-06
-2.59993e-06 3.70322e-06 0.000429147
-0.000118258 7.80134e-05 3.2345e-06
7.80134e-05 -0.000282515 2.34163e-06
3.2345e-06 2.34163e-06 -0.000449273
-0.00125839 5.26179e-05 2.44503e-06
5.26179e-05 -0.000705918 1.10154e-06
2.44503e-06 1.10154e-06 -0.000976702
0.000503956 -1.98162e-05 1.34749e-06
-1.98162e-05 0.000129635 5.23023e-07
1.34749e-06 5.23023e-07 -7.57934e-05
0.000473538 5.96907e-05 7.88467e-07
5.96907e-05 0.000201952 -2.31011e-06
7.88467e-07 -2.31011e-06 -1.61563e-05
8.8254e-05 5.08162e-05 2.91735e-06
5.08162e-05 0.000328969 2.93888e-06
2.91735e-06 2.93888e-06 -0.000110324
-0.000746104 4.61857e-05 -2.40616e-06
4.61857e-05 -1.36698e-05 1.25489e-05
-2.40616e-06 1.25489e-05 -0.000546311
0.000636218 1.69447e-05 -2.362e-06
1.69447e-05 0.000630027 -5.81454e-06
-2.362e-06 -5.81454e-06 0.000215844
0.00151991 3.61872e-05 -2.01632e-06
3.61872e-05 0.000839129 -9.72686e-08
-2.01632e-06 -9.72686e-08 0.000628643
0.000856894 -0.000170977 3.92921e-06
-0.000170977 0.000354839 2.02151e-06
3.92921e-06 2.02151e-06 0.000154774
0.000178202 -6.98989e-05 1.54778e-06
-6.98989e-05 -0.000175549 6.67402e-06
1.54778e-06 6.67402e-06 -0.000296886
6.54366e-05 -9.08118e-05 7.95322e-06
-9.08118e-05 -0.000162094 1.75447e-05
7.95322e-06 1.75447e-05 -0.000263329
0.00021945 -3.47116e-05 1.61436e-06
-3.47116e-05 1.72054e-05 1.72725e-06
1.61436e-06 1.72725e-06 -0.000168643
0.000506942 -4.41051e-05 -3.02163e-07
-4.41051e-05 0.000119529 1.49154e-06
-3.02163e-07 1.49154e-06 -4.15648e-05
0.000138667 -5.57823e-05 -1.89006e-06
-5.57823e-05 -7.78446e-05 -1.7653e-06
-1.89006e-06 -1.7653e-06 -0.000210757
0.000245836 -7.39074e-05 -6.70166e-06
-7.39074e-05 -2.65121e-05 -4.46458e-06
-6.70166e-06 -4.46458e-06 -0.000169788
0.000735869 -9.80837e-05 8.7639e-06
-9.80837e-05 0.000474314 -8.35418e-06
8.7639e-06 -8.35418e-06 0.000291901
0.00180856 -0.00030864 3.49837e-06
-0.00030864 0.000730246 6.03736e-06
3.49837e-06 6.03736e-06 0.000629731
0.000583314 -0.000134216 -1.66131e-05
-0.000134216 7.33853e-05 -4.19163e-07
-1.66131e-05 -4.19163e-07 -4.43624e-05
0.000624025 -0.000258954 7.21149e-06
-0.000258954 5.1549e-05 6.47203e-06
7.21149e-06 6.47203e-06 -0.000132479
0.00241137 -0.000650438 -4.66415e-06
-0.000650438 0.00107306 2.21564e-05
-4.66415e-06 2.21564e-05 0.00069211
0.0019537 -0.000278907 5.44199e-06
-0.000278907 0.000906717 -9.79397e-06
5.44199e-06 -9.79397e-06 0.000697557
0.000740613 -0.000243717 -5.61152e-06
-0.000243717 0.000122075 -6.60034e-06
-5.61152e-06 -6.60034e-06 -4.14909e-05
0.000507266 -9.59494e-05 -3.89896e-07
-9.59494e-05 0.0001182 -1.08384e-06
-3.89896e-07 -1.08384e-06 -7.88612e-05
-0.00048778 -4.72808e-05 -3.63545e-07
-4.72808e-05 -0.000463558 -1.27265e-06
-3.63545e-07 -1.27265e-06 -0.000709545
0.00118532 -4.67137e-05 1.72957e-06
-4.67137e-05 0.000565552 1.11408e-06
1.72957e-06 1.11408e-06 0.000369239
0.000701719 -0.000147835 6.68179e-07
-0.000147835 0.00025181 -3.44032e-07
6.68179e-07 -3.44032e-07 4.39174e-05
0.000318912 -6.38375e-05 5.89785e-07
-6.38375e-05 -7.11819e-05 8.12068e-07
5.89785e-07 8.12068e-07 -0.000208143
0.00150973 -0.000230449 -3.317e-06
-0.000230449 0.000771603 7.64397e-08
-3.317e-06 7.64397e-08 0.000576131
0.000707716 -0.000124867 -5.3876e-07
-0.000124867 0.000192097 2.83337e-08
-5.3876e-07 2.83337e-08 5.17509e-05
0.000514868 -2.31905e-06 -1.56729e-06
-2.31905e-06 4.09807e-05 3.62245e-06
-1.56729e-06 3.62245e-06 -4.82037e-05
0.000736682 -0.000140206 7.25513e-07
-0.000140206 0.000225175 -2.36386e-06
7.25513e-07 -2.36386e-06 8.15069e-05
0.000583686 -6.37452e-05 -7.26076e-08
-6.37452e-05 8.99177e-05 1.09471e-07
-7.26076e-08 1.09471e-07 7.77791e-07
0.0014528 8.31218e-06 -1.34037e-05
8.31218e-06 0.000610532 8.06825e-06
-1.34037e-05 8.06825e-06 0.000585412
0.000535478 -7.40331e-05 1.62359e-06
-7.40331e-05 6.83371e-05 -4.97887e-06
1.62359e-06 -4.97887e-06 -2.11274e-05
0.000855172 -1.70273e-05 -9.99575e-06
-1.70273e-05 0.000237444 7.74184e-07
-9.99575e-06 7.74184e-07 0.000211024
0.000801826 2.0451e-05 1.27646e-06
2.0451e-05 0.000188025 3.03286e-06
1.27646e-06 3.03286e-06 0.000188926
0.000417812 -3.84555e-05 3.04076e-06
-3.84555e-05 -3.5225e-05 -5.23009e-06
3.04076e-06 -5.23009e-06 -6.25673e-05
0.00166376 1.90737e-05 1.26505e-05
1.90737e-05 0.000741689 -1.54849e-06
1.26505e-05 -1.54849e-06 0.0007497
0.00252204 9.00417e-06 1.45242e-05
9.00417e-06 0.00128927 -5.18756e-06
1.45242e-05 -5.18756e-06 0.00130187
0.000474011 6.08467e-05 1.86691e-06
6.08467e-05 3.19309e-05 -8.92865e-07
1.86691e-06 -8.92865e-07 -7.65592e-05
0.000583782 6.90421e-05 -9.38188e-07
6.90421e-05 8.61817e-05 -2.37615e-06
-9.38188e-07 -2.37615e-06 2.58308e-05
0.000570246 6.84417e-06 6.49333e-07
6.84417e-06 0.000109302 8.67141e-07
6.49333e-07 8.67141e-07 1.79903e-06
0.000448832 6.74249e-06 2.23922e-06
6.74249e-06 -3.6105e-05 -3.87825e-06
2.23922e-06 -3.87825e-06 -4.73127e-05
0.000478335 5.83963e-05 -2.69239e-08
5.83963e-05 2.00707e-05 -1.91729e-07
-2.69239e-08 -1.91729e-07 -3.37863e-05
0.000482211 -0.00011551 -3.18865e-06
-0.00011551 5.49967e-05 1.12149e-06
-3.18865e-06 1.12149e-06 -4.60151e-05
0.00201689 1.10885e-05 -7.81692e-06
1.10885e-05 0.000962817 -4.93701e-06
-7.81692e-06 -4.93701e-06 0.00098012
0.000438007 6.92059e-06 -2.64012e-07
6.92059e-06 -4.31306e-05 3.09347e-08
-2.64012e-07 3.09347e-08 -5.36717e-05
0.000489307 -4.28977e-06 -1.58422e-06
-4.28977e-06 2.06347e-05 2.28367e-06
-1.58422e-06 2.28367e-06 -2.58102e-05
0.000452933 4.74079e-06 -2.06216e-06
4.74079e-06 -3.47546e-05 3.40762e-06
-2.06216e-06 3.40762e-06 -4.60613e-05
0.00205153 2.67551e-05 -5.6239e-06
2.67551e-05 0.000987501 -1.2276e-07
-5.6239e-06 -1.2276e-07 0.0010034
0.00202472 4.11363e-05 -3.50189e-06
4.11363e-05 0.000973461 4.83262e-06
-3.50189e-06 4.83262e-06 0.000987914
-0.00569694 -0.00204542 -0.000236855
-0.00204542 0.00672937 6.27117e-05
-0.000236855 6.27117e-05 0.00215781
0.00308252 0.00185084 -0.000323343
0.00185084 0.00131069 0.000105257
-0.000323343 0.000105257 -0.0015037
0.00292893 -0.00110511 -0.000660964
-0.00110511 0.00131627 0.000283788
-0.000660964 0.000283788 -0.00350916
0.0016737 0.00140511 0.00128404
0.00140511 0.00749785 -0.000333383
0.00128404 -0.000333383 0.00237633
0.00387404 0.000744513 -5.75851e-05
0.000744513 -0.00073161 1.27361e-05
-5.75851e-05 1.27361e-05 0.000425374
0.00330337 -0.000574424 9.98128e-05
-0.000574424 -0.000169196 1.27962e-05
9.98128e-05 1.27962e-05 5.75511e-05
0.00116404 -0.000406947 0.000346748
-0.000406947 -0.00590897 -4.97716e-05
0.000346748 -4.97716e-05 -0.00707614
0.0257376 0.00393858 -0.00114996
0.00393858 0.0114188 7.87716e-05
-0.00114996 7.87716e-05 0.00748266
0.0103936 0.011086 -0.002688
0.011086 0.00771737 0.00165523
-0.002688 0.00165523 0.00268355
0.00519184 -0.000838763 4.08205e-05
-0.000838763 -0.000660265 6.33188e-06
4.08205e-05 6.33188e-06 0.000389558
0.00833966 -0.00295247 0.000205074
-0.00295247 -0.00295741 -0.000165122
0.000205074 -0.000165122 -0.00489968
0.021734 0.00649974 -0.000388233
0.00649974 0.00751922 -0.000126669
-0.000388233 -0.000126669 0.00228113
0.0174675 0.00501007 6.96196e-05
0.00501007 0.00472358 0.000445936
6.96196e-05 0.000445936 0.0014668
0.00164563 -0.00209684 -0.000119887
-0.00209684 -0.00376406 4.37538e-05
-0.000119887 4.37538e-05 -0.00206644
0.00660989 -0.00462178 0.000540026
-0.00462178 -0.000283938 -0.000243181
0.000540026 -0.000243181 -0.00380119
0.0109946 0.00377919 4.25191e-05
0.00377919 0.00310625 -0.000935059
4.25191e-05 -0.000935059 -0.00224965
0.00927465 0.000391623 -0.000353246
0.000391623 -0.00166162 3.5329e-05
-0.000353246 3.5329e-05 -0.00131247
0.00244166 -7.49837e-05 1.1388e-06
-7.49837e-05 0.00142576 1.79408e-05
1.1388e-06 1.79408e-05 0.0011447
0.0002722 9.12622e-05 -1.62417e-06
9.12622e-05 -2.9889e-05 -2.26605e-06
-1.62417e-06 -2.26605e-06 -0.000177736
0.000526327 0.000108576 2.87727e-06
0.000108576 8.11424e-05 -7.47503e-07
2.87727e-06 -7.47503e-07 -2.34724e-05
3.37176e-05 -2.40795e-05 5.13843e-06
-2.40795e-05 -0.000175224 -4.00275e-06
5.13843e-06 -4.00275e-06 -0.000271926
0.000437887 0.000116476 4.29955e-06
0.000116476 3.41929e-05 7.27591e-06
4.29955e-06 7.27591e-06 -0.000153736
0.000460504 5.55337e-05 -1.28267e-07
5.55337e-05 6.96521e-05 1.76626e-06
-1.28267e-07 1.76626e-06 -9.05448e-05
0.000149128 2.44588e-05 1.48311e-06
2.44588e-05 -0.000128629 -3.4483e-06
1.48311e-06 -3.4483e-06 -0.000261436
0.000895884 0.000185947 6.34418e-06
0.000185947 0.000344205 9.75086e-06
6.34418e-06 9.75086e-06 0.000161201
0.000918723 0.000145144 -2.85462e-07
0.000145144 0.000370827 -5.70662e-07
-2.85462e-07 -5.70662e-07 0.000189282
0.000329155 -6.60198e-06 -3.89578e-06
-6.60198e-06 -2.4984e-05 -6.61487e-06
-3.89578e-06 -6.61487e-06 -0.000163792
0.000452383 -0.000543791 9.42484e-05
-0.000543791 -0.00144131 -5.37699e-05
9.42484e-05 -5.37699e-05 -0.00101395
0.000146505 -0.000695444 6.00347e-06
-0.000695444 -0.00096613 -6.97857e-06
6.00347e-06 -6.97857e-06 -0.000954589
0.00132829 -0.000985247 -1.36069e-05
-0.000985247 -0.000274516 2.26801e-05
-1.36069e-05 2.26801e-05 -0.000365149
-0.00120993 -0.000759859 3.78739e-06
-0.000759859 -0.00104696 9.87831e-07
3.78739e-06 9.87831e-07 -0.00137174
0.00356844 -0.000520674 -3.47092e-05
-0.000520674 0.00225844 7.68176e-05
-3.47092e-05 7.68176e-05 0.00170057
0.000874905 -0.000230895 -3.18967e-06
-0.000230895 0.000558857 7.30599e-06
-3.18967e-06 7.30599e-06 0.000224116
0.000400884 0.000119721 -2.62234e-06
0.000119721 0.00013602 -1.67729e-05
-2.62234e-06 -1.67729e-05 -0.000113721
0.000717824 -4.20305e-05 -3.67465e-06
-4.20305e-05 0.000334682 8.88148e-06
-3.67465e-06 8.88148e-06 4.99428e-05
0.00212253 -0.000988207 -1.6242e-05
-0.000988207 -0.000122904 -2.14596e-06
-1.6242e-05 -2.14596e-06 -0.000147331
0.000785434 -4.12835e-05 1.66999e-06
-4.12835e-05 0.000424634 4.64555e-06
1.66999e-06 4.64555e-06 0.000136346
0.00231984 -0.00034598 3.52638e-06
-0.00034598 0.00143357 -2.728e-06
3.52638e-06 -2.728e-06 0.00101572
0.00145056 -0.000852762 1.17173e-05
-0.000852762 1.97953e-05 8.19161e-08
1.17173e-05 8.19161e-08 -2.0532e-05
0.000539113 -0.000704657 -3.53273e-05
-0.000704657 0.000297829 9.81375e-06
-3.53273e-05 9.81375e-06 -9.52323e-05
0.00209473 -0.00169137 6.49083e-05
-0.00169137 2.35814e-05 -2.56697e-05
6.49083e-05 -2.56697e-05 -0.000190052
-1.1952e-05 -0.000591852 -5.30418e-06
-0.000591852 -0.000196497 2.39095e-05
-5.30418e-06 2.39095e-05 -0.000310293
-0.00153442 -0.000119395 1.5049e-05
-0.000119395 -0.000628606 -1.20304e-06
1.5049e-05 -1.20304e-06 -0.00112145
0.000517034 5.22504e-05 -4.13929e-06
5.22504e-05 0.000201152 5.95073e-06
-4.13929e-06 5.95073e-06 -1.19527e-05
0.000311939 -4.6803e-05 2.95925e-06
-4.6803e-05 0.00025963 -3.42529e-06
2.95925e-06 -3.42529e-06 -8.52937e-05
0.00139365 0.00019781 -6.55403e-05
0.00019781 0.00205083 -2.50662e-05
-6.55403e-05 -2.50662e-05 -0.00243097
-0.00727599 0.000457903 -0.000455005
0.000457903 0.00702915 -2.18586e-05
-0.000455005 -2.18586e-05 0.00139092
-0.013757 -0.00308579 -0.000883846
-0.00308579 -0.00486727 -6.18597e-06
-0.000883846 -6.18597e-06 -0.00637829
-0.000229705 0.000284696 1.36982e-05
0.000284696 -0.000215606 -3.90546e-06
1.36982e-05 -3.90546e-06 -0.000492494
-0.000942809 0.000565081 -2.0201e-06
0.000565081 -0.000616597 1.02715e-05
-2.0201e-06 1.02715e-05 -0.001081
0.00267637 0.00118174 4.16834e-05
0.00118174 0.00076761 3.54996e-05
4.16834e-05 3.54996e-05 0.000548289
-0.00516736 0.00226737 0.000112706
0.00226737 0.00733526 6.31774e-05
0.000112706 6.31774e-05 0.00222686
0.00672529 0.00457103 -0.000400879
0.00457103 -0.000328164 -0.000195797
-0.000400879 -0.000195797 -0.00348609
0.000797684 0.00238138 0.000459603
0.00238138 -0.000106132 0.000179035
0.000459603 0.000179035 -0.000128452
-0.000264187 0.00104122 1.84878e-06
0.00104122 -8.4533e-05 -4.92844e-05
1.84878e-06 -4.92844e-05 -0.000391819
0.0293202 -0.00412967 -0.000143121
-0.00412967 0.010051 -0.000436748
-0.000143121 -0.000436748 0.00550011
0.00710275 0.00210116 0.000690456
0.00210116 0.00351856 0.000246854
0.000690456 0.000246854 -0.00267255
0.0139522 -0.00159833 0.000183135
-0.00159833 0.00251758 5.48829e-05
0.000183135 5.48829e-05 0.00381
0.00141211 0.000641056 6.10548e-06
0.000641056 0.000743267 -1.44789e-06
6.10548e-06 -1.44789e-06 0.000395195
0.00385794 0.000809458 -2.64896e-05
0.000809458 0.00359225 9.88289e-06
-2.64896e-05 9.88289e-06 -0.000587687
0.0019224 0.000974095 8.74737e-05
0.000974095 0.000246541 -5.44697e-06
8.74737e-05 -5.44697e-06 -0.00149687
-0.00042648 0.000576506 -2.47251e-06
0.000576506 -7.52346e-05 -5.48949e-06
-2.47251e-06 -5.48949e-06 -0.000455368
-0.000261656 0.00153067 -0.000131856
0.00153067 0.000670431 -6.97649e-05
-0.000131856 -6.97649e-05 -0.000642672
0.00229061 0.00562664 0.000271286
0.00562664 0.00118006 0.000124038
0.000271286 0.000124038 -0.00328574
0.0106739 -0.000274855 6.47604e-06
-0.000274855 -0.00345238 -0.000226313
6.47604e-06 -0.000226313 -0.000794937
0.00729038 -0.00271774 -9.1305e-05
-0.00271774 0.00419286 -0.000187061
-9.1305e-05 -0.000187061 -0.00142191
0.000987674 0.000507684 -7.12148e-06
0.000507684 0.000828388 -1.44539e-05
-7.12148e-06 -1.44539e-05 0.000421502
-0.00355743 0.000389641 2.38109e-05
0.000389641 0.000302922 4.06978e-05
2.38109e-05 4.06978e-05 -0.000549051
0.00593575 -0.000421741 0.000163595
-0.000421741 -0.000114736 -0.000154415
0.000163595 -0.000154415 -0.00156442
0.00901962 0.000519693 0.000324151
0.000519693 -0.00154899 -1.68077e-05
0.000324151 -1.68077e-05 -0.00113608
-0.00281871 0.000191878 5.23692e-05
0.000191878 -4.77005e-05 -2.17651e-05
5.23692e-05 -2.17651e-05 -0.000950697
0.0121299 0.00388595 0.000378305
0.00388595 0.00626731 0.000112769
0.000378305 0.000112769 0.000462867
0.00406146 -0.00069656 -8.18425e-06
-0.00069656 0.00315179 0.000414198
-8.18425e-06 0.000414198 -0.000896834
0.00315406 0.000502405 2.69279e-05
0.000502405 0.0019497 1.18407e-05
2.69279e-05 1.18407e-05 0.00165654
0.000373499 0.000248917 -7.65918e-06
0.000248917 0.000445801 -2.01149e-06
-7.65918e-06 -2.01149e-06 5.48292e-05
0.000217518 0.000228799 3.70652e-06
0.000228799 0.000519756 -5.24484e-06
3.70652e-06 -5.24484e-06 1.43101e-05
0.000302707 0.000126946 1.5525e-06
0.000126946 1.13757e-05 -3.12703e-06
1.5525e-06 -3.12703e-06 -0.000196944
0.000614387 0.000110724 9.6768e-07
0.000110724 0.000266239 6.36618e-07
9.6768e-07 6.36618e-07 6.67616e-05
0.000108376 -1.06973e-06 6.95496e-06
-1.06973e-06 0.00036573 -3.96693e-06
6.95496e-06 -3.96693e-06 -8.46475e-05
0.000511563 3.78877e-05 2.91313e-07
3.78877e-05 0.000188548 -7.80541e-07
2.91313e-07 -7.80541e-07 -1.47401e-06
0.000835851 -4.02016e-05 -3.74418e-07
-4.02016e-05 0.000769059 -2.65223e-06
-3.74418e-07 -2.65223e-06 0.000345741
-0.000116348 2.7512e-05 4.03697e-07
2.7512e-05 0.000362149 -1.11209e-07
4.03697e-07 -1.11209e-07 -0.000160952
-3.90853e-05 -3.82538e-05 -3.71517e-07
-3.82538e-05 0.000372435 1.4519e-05
-3.71517e-07 1.4519e-05 -8.42177e-05
0.000362286 -3.27757e-05 -9.7913e-07
-3.27757e-05 0.000419452 -9.17851e-06
-9.7913e-07 -9.17851e-06 8.8474e-05
-7.64023e-06 -5.758e-05 5.50048e-06
-5.758e-05 -0.000156365 9.11347e-06
5.50048e-06 9.11347e-06 -0.000316025
0.00123167 -4.25672e-05 8.26768e-07
-4.25672e-05 0.000557016 4.49112e-06
8.26768e-07 4.49112e-06 0.000398956
0.00101577 -7.65373e-05 -1.43069e-05
-7.65373e-05 0.00047172 1.28358e-05
-1.43069e-05 1.28358e-05 0.00033557
0.000727265 -9.5185e-05 4.15487e-06
-9.5185e-05 0.000448474 -1.7383e-07
4.15487e-06 -1.7383e-07 0.000275773
0.000264691 -4.86567e-05 -1.21866e-06
-4.86567e-05 -9.22506e-06 -1.68664e-06
-1.21866e-06 -1.68664e-06 -0.000150425
0.000783576 -0.000240612 -1.96051e-07
-0.000240612 0.000294788 4.8686e-06
-1.96051e-07 4.8686e-06 0.000151722
0.00042176 -0.000194428 -1.72684e-05
-0.000194428 -2.98085e-06 -3.42256e-07
-1.72684e-05 -3.42256e-07 -5.85674e-05
-0.000980972 -0.000289613 1.23826e-05
-0.000289613 -0.00080913 2.42796e-05
1.23826e-05 2.42796e-05 -0.00112029
0.00015644 -0.000137141 4.23895e-06
-0.000137141 -0.000167501 -9.24501e-07
4.23895e-06 -9.24501e-07 -0.000284975
0.00115676 -0.000320719 -5.11483e-06
-0.000320719 0.000363551 1.13575e-05
-5.11483e-06 1.13575e-05 0.000160326
0.00228313 -0.000665356 -7.15816e-06
-0.000665356 0.000986002 1.44224e-05
-7.15816e-06 1.44224e-05 0.000572923
0.00185505 -0.000636991 -7.24313e-06
-0.000636991 0.000628264 -3.80341e-07
-7.24313e-06 -3.80341e-07 0.000192595
0.00170419 -0.000426042 4.52717e-07
-0.000426042 0.000704923 1.58428e-06
4.52717e-07 1.58428e-06 0.000437197
0.000565651 -0.000406275 9.4308e-06
-0.000406275 -6.74553e-05 -4.17718e-06
9.4308e-06 -4.17718e-06 -0.00037907
0.00119767 -0.000194874 2.4717e-06
-0.000194874 0.000552259 -3.12601e-06
2.4717e-06 -3.12601e-06 0.000266057
0.00112472 -0.000236239 -8.37881e-06
-0.000236239 0.000438433 1.93404e-06
-8.37881e-06 1.93404e-06 0.000217544
-0.000217542 -0.000148008 1.92511e-05
-0.000148008 -0.000454197 -1.71425e-05
1.92511e-05 -1.71425e-05 -0.000570808
0.00128317 -0.00012826 -2.45761e-06
-0.00012826 0.000573628 1.71561e-06
-2.45761e-06 1.71561e-06 0.000375627
0.000204963 -9.74459e-05 8.14355e-07
-9.74459e-05 -4.31871e-05 3.84065e-07
8.14355e-07 3.84065e-07 -0.000286134
0.000181713 -5.36631e-05 1.04262e-06
-5.36631e-05 -0.000142536 4.77417e-07
1.04262e-06 4.77417e-07 -0.000309943
0.00177446 -0.000274293 -2.38309e-06
-0.000274293 0.000925544 -5.03007e-07
-2.38309e-06 -5.03007e-07 0.000702603
0.000676348 -0.000113824 -3.7655e-07
-0.000113824 0.000173094 -1.48634e-08
-3.7655e-07 -1.48634e-08 1.91889e-05
0.000381087 4.763e-06 2.54715e-06
4.763e-06 -3.02546e-05 4.31585e-06
2.54715e-06 4.31585e-06 -0.000135736
0.000819499 -0.000155553 -6.51045e-08
-0.000155553 0.000275147 -2.10866e-06
-6.51045e-08 -2.10866e-06 0.000123042
0.0004584 4.54998e-06 -2.21218e-06
4.54998e-06 1.76813e-05 -1.82246e-07
-2.21218e-06 -1.82246e-07 -8.0295e-05
0.00145404 -9.12849e-07 -1.9699e-05
-9.12849e-07 0.000611438 5.66594e-06
-1.9699e-05 5.66594e-06 0.000584341
0.000583612 -7.31254e-05 2.18159e-06
-7.31254e-05 9.63571e-05 -4.93281e-06
2.18159e-06 -4.93281e-06 3.67484e-06
0.000869109 -1.31488e-05 -9.6283e-06
-1.31488e-05 0.000240765 5.49549e-07
-9.6283e-06 5.49549e-07 0.000212758
0.000840208 3.07542e-05 5.14892e-07
3.07542e-05 0.000209665 3.27951e-06
5.14892e-07 3.27951e-06 0.000207982
0.000442656 -3.17045e-05 3.20723e-06
-3.17045e-05 -2.67537e-05 -6.3891e-06
3.20723e-06 -6.3891e-06 -5.59364e-05
0.00174545 3.13928e-05 1.57536e-05
3.13928e-05 0.000790855 -1.26914e-06
1.57536e-05 -1.26914e-06 0.000797314
0.00254878 2.25697e-05 1.97064e-05
2.25697e-05 0.00130336 -5.54038e-06
1.97064e-05 -5.54038e-06 0.00131574
0.000286299 2.20527e-05 2.23744e-06
2.20527e-05 -6.94311e-05 2.54724e-06
2.23744e-06 2.54724e-06 -0.000208867
0.000114668 2.22385e-05 4.43893e-07
2.22385e-05 -0.000216214 -4.0645e-06
4.43893e-07 -4.0645e-06 -0.000284001
0.000606644 5.93386e-05 8.86965e-08
5.93386e-05 0.000127867 2.94686e-07
8.86965e-08 2.94686e-07 8.33496e-06
0.000451314 7.19689e-06 2.02667e-06
7.19689e-06 -3.65951e-05 -4.101e-06
2.02667e-06 -4.101e-06 -4.94885e-05
0.000312274 8.1836e-06 1.70704e-06
8.1836e-06 -9.30297e-05 5.38886e-08
1.70704e-06 5.38886e-08 -0.000150268
0.000217828 -9.56385e-05 -1.15543e-06
-9.56385e-05 -0.000116346 -2.89527e-07
-1.15543e-06 -2.89527e-07 -0.000223174
0.00206986 -3.06219e-06 -1.25023e-05
-3.06219e-06 0.000995472 -4.98493e-06
-1.25023e-05 -4.98493e-06 0.00101284
0.000444764 5.3653e-06 2.74231e-08
5.3653e-06 -3.94938e-05 -6.70887e-08
2.74231e-08 -6.70887e-08 -5.04083e-05
0.000416911 -1.36087e-05 -3.35345e-06
-1.36087e-05 -2.44375e-05 2.61922e-06
-3.35345e-06 2.61922e-06 -7.4641e-05
0.00204155 1.24805e-05 -4.82943e-06
1.24805e-05 0.000979009 4.84222e-09
-4.82943e-06 4.84222e-09 0.000996021
0.000439946 6.00838e-06 -1.87351e-06
6.00838e-06 -4.12753e-05 3.38068e-06
-1.87351e-06 3.38068e-06 -5.1904e-05
0.00202146 2.77883e-05 2.6669e-06
2.77883e-05 0.000968381 4.99818e-06
2.6669e-06 4.99818e-06 0.000984244
-0.000529341 -0.00102221 -0.000283925
-0.00102221 -0.000122935 0.000116274
-0.000283925 0.000116274 -0.00374921
0.00242407 0.000951084 -0.00014896
0.000951084 0.00865552 3.4972e-05
-0.00014896 3.4972e-05 0.00370695
0.00303254 0.000189294 -0.00107698
0.000189294 0.00419461 0.000241558
-0.00107698 0.000241558 0.00214747
0.000694897 0.000126159 7.80583e-06
0.000126159 0.00018795 7.10782e-06
7.80583e-06 7.10782e-06 2.42555e-05
0.00560878 -0.0011172 -0.000134904
-0.0011172 0.00346312 0.000277983
-0.000134904 0.000277983 0.00108443
0.00426839 -0.00143428 -0.000301812
-0.00143428 0.0018763 3.11517e-05
-0.000301812 3.11517e-05 -0.00298085
0.0140176 0.00462984 0.000333557
0.00462984 0.00902505 -0.000401164
0.000333557 -0.000401164 0.00368808
0.007696 -0.00131796 0.000141576
-0.00131796 0.000572036 -2.15252e-05
0.000141576 -2.15252e-05 0.00114938
0.0133981 -0.00277719 0.000292292
-0.00277719 0.000848309 -0.000172718
0.000292292 -0.000172718 0.000171602
0.0129373 0.00526102 -0.000825456
0.00526102 0.00239268 0.000447573
-0.000825456 0.000447573 -0.00248643
0.0148885 0.00460742 0.000166019
0.00460742 0.00650682 0.000254817
0.000166019 0.000254817 0.00331701
0.00781471 -0.00272025 -0.000113164
-0.00272025 -6.84934e-05 -3.74624e-06
-0.000113164 -3.74624e-06 0.000745546
0.0163976 -0.00510535 1.74184e-05
-0.00510535 0.00317092 -3.87579e-05
1.74184e-05 -3.87579e-05 0.000673116
0.00965622 0.00301192 0.000132622
0.00301192 0.00444672 -0.000394437
0.000132622 -0.000394437 -0.000915725
0.0134253 0.00128784 3.60159e-06
0.00128784 0.000304147 4.83686e-05
3.60159e-06 4.83686e-05 -8.78166e-05
0.00290095 -0.00275698 -6.91293e-05
-0.00275698 9.6114e-05 8.62927e-05
-6.91293e-05 8.62927e-05 0.000429013
0.0102829 -0.00511831 0.000216831
-0.00511831 0.00433717 -0.000116678
0.000216831 -0.000116678 0.000127438
0.010297 -0.000328812 0.000114298
-0.000328812 0.00553527 -0.000478995
0.000114298 -0.000478995 0.00196204
0.0129986 6.08414e-05 -0.000171325
6.08414e-05 -0.00117885 0.000292562
-0.000171325 0.000292562 0.000654643
0.000375811 9.60567e-05 7.04776e-06
9.60567e-05 9.33488e-05 1.49053e-05
7.04776e-06 1.49053e-05 -0.000121347
0.000605399 -0.000123805 5.79224e-07
-0.000123805 0.000254385 3.96921e-08
5.79224e-07 3.96921e-08 5.44924e-06
0.000748215 0.000107043 2.59226e-06
0.000107043 0.000285277 -4.83562e-06
2.59226e-06 -4.83562e-06 0.000127751
0.000516407 0.000153524 4.84395e-06
0.000153524 4.69685e-05 1.47967e-05
4.84395e-06 1.47967e-05 -9.92645e-05
0.000855187 0.000211497 2.69935e-07
0.000211497 0.000331294 2.21116e-07
2.69935e-07 2.21116e-07 0.000127503
0.00108286 0.000122254 -4.51652e-06
0.000122254 0.000484635 -5.23701e-06
-4.51652e-06 -5.23701e-06 0.000314944
0.00107383 0.000184998 -1.61363e-06
0.000184998 0.000462342 3.04696e-08
-1.61363e-06 3.04696e-08 0.000274526
0.00107217 0.000197313 1.06984e-06
0.000197313 0.000487085 1.56097e-06
1.06984e-06 1.56097e-06 0.000294183
0.000729048 -0.000756872 0.000129872
-0.000756872 -0.000971305 -7.78071e-05
0.000129872 -7.78071e-05 -0.000745875
5.29232e-06 -0.000722174 -3.55588e-05
-0.000722174 -0.000854951 -9.80384e-07
-3.55588e-05 -9.80384e-07 -0.000797826
0.000791782 -0.000210943 4.44099e-06
-0.000210943 0.000394168 -3.20581e-05
4.44099e-06 -3.20581e-05 9.53942e-05
0.00183215 -0.000761608 2.35621e-05
-0.000761608 0.000974175 -1.969e-05
2.35621e-05 -1.969e-05 0.000614365
0.00251012 -0.000517021 -2.29001e-05
-0.000517021 0.00148628 2.37655e-05
-2.29001e-05 2.37655e-05 0.00107353
0.00162017 -0.000166478 6.35949e-06
-0.000166478 0.000933181 -2.23395e-05
6.35949e-06 -2.23395e-05 0.000624867
2.13477e-05 5.38829e-06 3.94986e-06
5.38829e-06 -0.000118611 7.30582e-06
3.94986e-06 7.30582e-06 -0.000327514
0.00075593 -0.00145065 -8.27739e-06
-0.00145065 -0.000547572 -6.02754e-06
-8.27739e-06 -6.02754e-06 -0.00073196
0.00143419 -2.3842e-05 -1.05814e-06
-2.3842e-05 0.00094765 -6.73835e-08
-1.05814e-06 -6.73835e-08 0.000596074
-5.67254e-05 -0.00024357 -6.61097e-06
-0.00024357 0.000154013 6.87723e-06
-6.61097e-06 6.87723e-06 -0.000301708
-0.000596499 -0.000458599 2.46353e-05
-0.000458599 -0.000600062 -1.09312e-06
2.46353e-05 -1.09312e-06 -0.000580667
0.00076466 0.000117292 2.87856e-06
0.000117292 0.000354208 8.84753e-06
2.87856e-06 8.84753e-06 0.000163534
-8.79536e-05 -0.00140405 -8.29995e-05
-0.00140405 -0.000196478 -2.73395e-05
-8.29995e-05 -2.73395e-05 -0.000629543
-0.00112865 -0.000467149 -1.71334e-05
-0.000467149 -0.000491545 2.54236e-05
-1.71334e-05 2.54236e-05 -0.000849337
0.000194995 0.000157361 1.17574e-05
0.000157361 0.000492008 -2.20136e-05
1.17574e-05 -2.20136e-05 -3.71154e-05
0.00165067 0.000270146 -1.35058e-06
0.000270146 0.00114569 -4.5634e-08
-1.35058e-06 -4.5634e-08 0.000792038
-0.00118261 0.000121109 0.000159909
0.000121109 0.002057 3.65004e-05
0.000159909 3.65004e-05 0.000814911
0.00025852 1.2063e-06 0.000179991
1.2063e-06 0.00127119 -3.61229e-05
0.000179991 -3.61229e-05 -0.00330098
-0.0126868 -0.000420508 -0.000329119
-0.000420508 0.00651612 2.86618e-05
-0.000329119 2.86618e-05 0.000662032
0.00175242 0.000655886 2.08776e-05
0.000655886 0.00103447 2.83338e-06
2.08776e-05 2.83338e-06 0.000682271
-0.000572841 0.00080493 1.40017e-05
0.00080493 -0.000184087 1.03223e-05
1.40017e-05 1.03223e-05 -0.000694284
0.00574933 0.00109738 0.000397389
0.00109738 0.00412794 8.65089e-05
0.000397389 8.65089e-05 0.0011551
0.00798591 0.00433323 0.000256429
0.00433323 0.0030097 0.000212216
0.000256429 0.000212216 -0.00110519
0.00414414 0.00290324 -0.000131303
0.00290324 0.00235113 -0.000120884
-0.000131303 -0.000120884 0.000844079
0.0041346 -0.00238324 -0.000162441
-0.00238324 0.00465911 -0.000481314
-0.000162441 -0.000481314 0.000267034
0.00304429 0.000750395 0.000142887
0.000750395 0.00051926 0.000188027
0.000142887 0.000188027 -0.00120803
0.00849804 -0.000372144 -4.92423e-05
-0.000372144 -0.00547842 -0.000252386
-4.92423e-05 -0.000252386 -0.00241411
0.000979955 0.000595446 4.18145e-06
0.000595446 0.00077294 6.56634e-07
4.18145e-06 6.56634e-07 0.000327538
-0.0028837 0.000195133 -2.60557e-06
0.000195133 0.000421179 4.80601e-06
-2.60557e-06 4.80601e-06 -0.000586598
0.00507203 -0.000242198 0.00013874
-0.000242198 -0.000181329 1.98216e-05
0.00013874 1.98216e-05 -0.00105112
-0.00188799 0.000523138 -1.7306e-05
0.000523138 -0.00018886 -1.19883e-05
-1.7306e-05 -1.19883e-05 -0.00100502
0.0132546 0.0014882 5.51556e-07
0.0014882 0.000288872 -5.35811e-05
5.51556e-07 -5.35811e-05 -9.84016e-05
0.00316824 0.00223621 0.000265616
0.00223621 0.00437607 0.000158209
0.000265616 0.000158209 -0.00162945
0.00867073 0.000734354 -0.000193717
0.000734354 0.00358036 5.69438e-06
-0.000193717 5.69438e-06 -0.000536115
0.000275201 0.000505265 8.16523e-06
0.000505265 0.000562403 -2.18946e-05
8.16523e-06 -2.18946e-05 -3.31477e-05
0.00188713 -2.93964e-05 5.31654e-07
-2.93964e-05 0.000677357 -7.13731e-06
5.31654e-07 -7.13731e-06 -0.000100539
0.00406483 -0.00154739 0.00012604
-0.00154739 0.00345175 -0.000263663
0.00012604 -0.000263663 0.00139839
0.0233001 0.00560187 0.000339469
0.00560187 0.0077039 -0.000310706
0.000339469 -0.000310706 0.00448499
0.00997259 -0.000300012 -0.000137999
-0.000300012 0.00587126 0.0005198
-0.000137999 0.0005198 0.00201769
-0.000466636 0.000496131 -4.8071e-05
0.000496131 0.000712907 -0.000136981
-4.8071e-05 -0.000136981 -0.000111624
0.00463973 0.00136712 0.000279996
0.00136712 0.00666125 2.78596e-05
0.000279996 2.78596e-05 -0.00219176
0.00131505 0.000396053 9.20102e-06
0.000396053 0.00098221 1.15539e-05
9.20102e-06 1.15539e-05 0.000568534
0.00074797 0.000289835 4.5276e-06
0.000289835 0.000826279 4.28058e-06
4.5276e-06 4.28058e-06 0.000343665
0.000583637 -4.92695e-05 -9.27826e-06
-4.92695e-05 0.000913416 9.2499e-06
-9.27826e-06 9.2499e-06 0.000481385
-0.000842383 -1.59589e-05 2.18293e-06
-1.59589e-05 -0.000669354 -1.19667e-06
2.18293e-06 -1.19667e-06 -0.000844918
-3.29744e-05 -2.79189e-05 3.63354e-06
-2.79189e-05 0.000302171 2.70518e-06
3.63354e-06 2.70518e-06 -0.000168922
-6.32842e-05 3.97707e-05 2.15847e-06
3.97707e-05 0.000413115 -8.3084e-06
2.15847e-06 -8.3084e-06 -0.000124208
8.48895e-05 -2.66211e-05 2.43996e-07
-2.66211e-05 0.000193691 6.85543e-07
2.43996e-07 6.85543e-07 -8.54393e-05
-0.000121821 -5.15964e-05 2.24521e-06
-5.15964e-05 0.00031287 1.48333e-06
2.24521e-06 1.48333e-06 -0.000144233
0.00175608 -0.000418984 6.36309e-06
-0.000418984 0.00117532 -1.00313e-05
6.36309e-06 -1.00313e-05 0.000830044
0.000271625 -7.36922e-05 -5.10395e-06
-7.36922e-05 0.0001614 6.16018e-06
-5.10395e-06 6.16018e-06 -6.60756e-06
-1.43222e-05 1.22777e-05 2.36098e-07
1.22777e-05 -0.000173414 2.66931e-06
2.36098e-07 2.66931e-06 -0.00031085
0.0012054 -0.000309124 2.9074e-07
-0.000309124 0.000553408 5.96932e-06
2.9074e-07 5.96932e-06 0.00036829
-0.00358183 -4.81569e-05 2.05793e-05
-4.81569e-05 -0.00213134 2.48801e-05
2.05793e-05 2.48801e-05 -0.00247902
-0.000643423 -9.88586e-05 1.49048e-05
-9.88586e-05 -0.000561316 -1.94755e-06
1.49048e-05 -1.94755e-06 -0.000576472
-0.000129892 -0.000353516 -1.85194e-06
-0.000353516 -0.000346316 -6.09785e-06
-1.85194e-06 -6.09785e-06 -0.000621168
0.00144594 -0.000625242 -1.98136e-06
-0.000625242 0.00044426 1.59274e-06
-1.98136e-06 1.59274e-06 -7.43824e-05
0.00180657 -0.000743572 -1.03756e-05
-0.000743572 0.000551296 1.4917e-06
-1.03756e-05 1.4917e-06 6.17837e-05
0.00151431 -0.000369741 6.76651e-06
-0.000369741 0.000566757 -6.67745e-06
6.76651e-06 -6.67745e-06 0.000346924
0.00141874 -0.000559573 8.44206e-07
-0.000559573 0.000450386 4.54457e-07
8.44206e-07 4.54457e-07 5.26354e-05
0.00164846 -0.000639932 3.21124e-06
-0.000639932 0.000456063 -3.8795e-06
3.21124e-06 -3.8795e-06 2.47429e-05
0.00161334 -0.000486042 -3.06328e-06
-0.000486042 0.000558014 8.43141e-06
-3.06328e-06 8.43141e-06 0.000214846
0.00105043 -0.000533528 2.28271e-06
-0.000533528 0.000140132 -4.57886e-06
2.28271e-06 -4.57886e-06 -0.000264286
0.000913376 -0.000204856 1.66045e-07
-0.000204856 0.000295123 -5.08216e-06
1.66045e-07 -5.08216e-06 2.96531e-05
0.00105477 -0.000373717 -5.11298e-06
-0.000373717 0.000304808 2.57075e-06
-5.11298e-06 2.57075e-06 3.18087e-05
-0.000992605 -0.00019481 2.31316e-06
-0.00019481 -0.00102071 -1.0072e-05
2.31316e-06 -1.0072e-05 -0.0012706
-7.71457e-05 -7.07989e-05 4.29779e-07
-7.07989e-05 -0.000267058 -2.86226e-06
4.29779e-07 -2.86226e-06 -0.000495913
0.000306293 -0.000158328 4.23774e-07
-0.000158328 2.51886e-05 3.06461e-07
4.23774e-07 3.06461e-07 -0.000260646
9.28121e-05 -0.000183078 1.18042e-05
-0.000183078 -0.000152713 2.18508e-07
1.18042e-05 2.18508e-07 -0.000385219
0.000840545 -0.000151813 -1.14553e-07
-0.000151813 0.000336419 1.06866e-06
-1.14553e-07 1.06866e-06 0.00010042
0.000698563 -0.000130826 1.72091e-07
-0.000130826 0.000195312 3.89715e-07
1.72091e-07 3.89715e-07 1.18559e-05
0.000472074 -1.60253e-05 1.19926e-06
-1.60253e-05 1.67089e-05 6.075e-06
1.19926e-06 6.075e-06 -9.87668e-05
0.00122336 -0.000177781 -1.27822e-06
-0.000177781 0.000539082 -8.52279e-07
-1.27822e-06 -8.52279e-07 0.000365983
0.000587881 -2.27926e-05 -1.25263e-06
-2.27926e-05 8.62607e-05 -3.27916e-07
-1.25263e-06 -3.27916e-07 -1.27553e-05
0.000366347 5.026e-05 2.83223e-06
5.026e-05 -6.95145e-05 7.52176e-06
2.83223e-06 7.52176e-06 -0.000110632
0.000712456 -7.57961e-05 1.67358e-06
-7.57961e-05 0.000167661 -3.72381e-06
1.67358e-06 -3.72381e-06 7.24898e-05
0.000441136 -5.08905e-06 -1.66407e-06
-5.08905e-06 -3.3879e-05 -7.84701e-08
-1.66407e-06 -7.84701e-08 -6.76009e-05
0.00268681 9.31673e-05 -1.62181e-06
9.31673e-05 0.00139285 2.72579e-06
-1.62181e-06 2.72579e-06 0.00139619
0.000470667 -2.43647e-05 3.272e-06
-2.43647e-05 -1.29356e-05 -6.63569e-06
3.272e-06 -6.63569e-06 -4.46524e-05
0.00178997 4.50918e-05 1.88795e-05
4.50918e-05 0.000818675 -1.04086e-06
1.88795e-05 -1.04086e-06 0.000822903
0.00264826 3.87259e-05 2.67744e-05
3.87259e-05 0.00136507 -5.8332e-06
2.67744e-05 -5.8332e-06 0.00137637
0.000254075 3.0494e-05 3.28724e-06
3.0494e-05 -0.000107682 1.52348e-06
3.28724e-06 1.52348e-06 -0.00023499
0.000193403 1.12895e-05 2.31565e-06
1.12895e-05 -0.000167782 -2.79199e-06
2.31565e-06 -2.79199e-06 -0.000247516
0.0004562 3.95022e-05 -4.89446e-07
3.95022e-05 3.32306e-05 -1.26707e-06
-4.89446e-07 -1.26707e-06 -9.92953e-05
0.000475177 9.22107e-06 1.74974e-06
9.22107e-06 -2.19421e-05 -4.64101e-06
1.74974e-06 -4.64101e-06 -3.81434e-05
0.00016967 1.94422e-05 -6.79537e-07
1.94422e-05 -0.000182074 -1.86193e-06
-6.79537e-07 -1.86193e-06 -0.000252194
0.00065455 6.20402e-05 -4.33454e-07
6.20402e-05 0.000172473 1.52006e-06
-4.33454e-07 1.52006e-06 4.30893e-05
0.00210044 -1.68066e-05 -1.78478e-05
-1.68066e-05 0.00101365 -4.92171e-06
-1.78478e-05 -4.92171e-06 0.00103081
0.000453531 4.86278e-06 -7.54388e-07
4.86278e-06 -3.57902e-05 -8.78103e-08
-7.54388e-07 -8.78103e-08 -4.82848e-05
8.56622e-05 1.76727e-05 1.31647e-06
1.76727e-05 -0.000233657 2.19295e-06
1.31647e-06 2.19295e-06 -0.000294947
0.00205793 -1.96531e-06 -4.1202e-06
-1.96531e-06 0.000987828 5.76724e-08
-4.1202e-06 5.76724e-08 0.00100528
0.00043513 4.76305e-06 -2.17495e-06
4.76305e-06 -4.61451e-05 3.66611e-06
-2.17495e-06 3.66611e-06 -5.67032e-05
0.00208359 1.4013e-05 8.29034e-06
1.4013e-05 0.00100628 5.06093e-06
8.29034e-06 5.06093e-06 0.00102286
0.000532052 -6.22112e-05 0.000169399
-6.22112e-05 0.00285283 8.03338e-05
0.000169399 8.03338e-05 0.00185925
-0.000395845 -0.00045894 -6.27652e-05
-0.00045894 0.000469944 -6.48919e-06
-6.27652e-05 -6.48919e-06 -0.00384656
0.000268955 0.000939645 -9.6519e-05
0.000939645 0.00824623 -5.97062e-05
-9.6519e-05 -5.97062e-05 0.00303141
0.000812221 0.000145036 9.1393e-07
0.000145036 0.000247105 1.6602e-07
9.1393e-07 1.6602e-07 9.51891e-05
-2.43092e-06 8.67577e-05 7.65849e-06
8.67577e-05 -0.000268991 4.91343e-06
7.65849e-06 4.91343e-06 -0.000408415
0.00123402 0.000218404 1.32255e-05
0.000218404 0.000516346 9.93261e-06
1.32255e-05 9.93261e-06 0.00036012
0.00699518 -0.000598795 -0.000151349
-0.000598795 -0.000274141 0.000216973
-0.000151349 0.000216973 -0.00161367
0.00561407 -0.00143258 0.00011618
-0.00143258 0.00308634 1.59611e-05
0.00011618 1.59611e-05 0.00146579
0.00464443 -0.00224978 0.000245197
-0.00224978 0.00192846 -0.000292348
0.000245197 -0.000292348 -0.00293418
0.00962902 -0.00331794 -6.82155e-06
-0.00331794 0.000145801 -4.9702e-05
-6.82155e-06 -4.9702e-05 0.00113643
0.00168764 -0.00413454 -0.000538859
-0.00413454 -0.0021976 8.2705e-05
-0.000538859 8.2705e-05 -0.00433837
0.0274174 0.00496601 0.000312509
0.00496601 0.0119275 0.000204506
0.000312509 0.000204506 0.00572521
0.00790533 -0.000395994 0.000356177
-0.000395994 -0.00236047 -0.000281679
0.000356177 -0.000281679 -0.00293337
0.00348553 -0.00308752 -2.81122e-05
-0.00308752 -0.000426946 1.73751e-05
-2.81122e-05 1.73751e-05 0.000388636
0.00745579 -0.0051759 -0.000159708
-0.0051759 0.00269009 2.15283e-05
-0.000159708 2.15283e-05 -0.00217716
0.000206643 0.00409786 -0.00010107
0.00409786 0.00500891 -0.000341179
-0.00010107 -0.000341179 -0.000481975
0.0110884 -9.59625e-05 -9.86973e-05
-9.59625e-05 -0.00335855 0.000159421
-9.86973e-05 0.000159421 -0.000774679
0.000141971 -0.00209599 -0.00013272
-0.00209599 0.00059658 6.2988e-05
-0.00013272 6.2988e-05 0.000173773
0.0105906 -0.00346221 -0.000355903
-0.00346221 0.00607371 0.000218924
-0.000355903 0.000218924 0.000696949
0.00119224 -0.000262951 6.62009e-05
-0.000262951 0.00279598 -0.000343609
6.62009e-05 -0.000343609 -0.00141364
0.00953328 -0.000452582 0.000128822
-0.000452582 -0.00187751 9.04338e-05
0.000128822 9.04338e-05 -0.00133179
9.88426e-05 0.000108731 1.15926e-05
0.000108731 -0.000151467 2.51455e-05
1.15926e-05 2.51455e-05 -0.000291334
0.000680679 6.61471e-06 2.39686e-06
6.61471e-06 0.000261659 -2.93736e-06
2.39686e-06 -2.93736e-06 3.73598e-05
0.000320491 -0.000170552 3.30251e-06
-0.000170552 -1.71743e-06 -1.25372e-05
3.30251e-06 -1.25372e-05 -0.000212829
0.000638723 0.000147842 -1.9794e-06
0.000147842 0.000130174 2.06524e-06
-1.9794e-06 2.06524e-06 -2.38757e-05
0.000780636 0.00015676 1.79806e-06
0.00015676 0.00028934 -7.92653e-06
1.79806e-06 -7.92653e-06 9.6291e-05
0.00118297 0.000208918 -5.70008e-06
0.000208918 0.000531932 -6.06152e-06
-5.70008e-06 -6.06152e-06 0.000343334
9.17513e-05 -0.00125054 4.37221e-05
-0.00125054 -0.000751476 -2.07102e-05
4.37221e-05 -2.07102e-05 -0.000900683
0.000878798 -0.000436966 2.02508e-05
-0.000436966 0.000196754 -2.25097e-05
2.02508e-05 -2.25097e-05 0.000240154
0.000216571 0.000112709 -2.58135e-06
0.000112709 1.93632e-05 -2.02758e-05
-2.58135e-06 -2.02758e-05 -0.000212215
0.00264551 -0.000520081 7.1005e-05
-0.000520081 0.00163931 -2.96706e-05
7.1005e-05 -2.96706e-05 0.0012256
0.0019127 -0.000154929 1.97259e-06
-0.000154929 0.00117957 6.41534e-07
1.97259e-06 6.41534e-07 0.000864938
-0.000177514 0.000103072 5.11886e-06
0.000103072 -0.000162769 3.97622e-06
5.11886e-06 3.97622e-06 -0.000378991
0.000266168 7.38236e-05 1.8246e-06
7.38236e-05 0.000274056 4.52635e-07
1.8246e-06 4.52635e-07 -2.9778e-05
0.00112101 -0.00145324 -4.5017e-05
-0.00145324 0.0003576 2.27364e-06
-4.5017e-05 2.27364e-06 -0.00013147
0.000109526 -3.45511e-05 -5.01647e-06
-3.45511e-05 0.000493357 3.21596e-06
-5.01647e-06 3.21596e-06 -6.6981e-05
0.000604368 -0.000400417 -1.27388e-05
-0.000400417 0.000603881 -4.73918e-06
-1.27388e-05 -4.73918e-06 0.000133803
0.000708187 0.000184319 4.42987e-06
0.000184319 0.000526178 -9.14113e-06
4.42987e-06 -9.14113e-06 0.000250254
-0.00183401 -0.000403774 -2.06076e-05
-0.000403774 7.05156e-05 -2.60725e-05
-2.06076e-05 -2.60725e-05 -0.000902035
0.000628853 -0.000224077 -2.47726e-05
-0.000224077 0.00097228 9.6393e-07
-2.47726e-05 9.6393e-07 0.000436554
-0.00137968 -3.27802e-05 -1.36099e-05
-3.27802e-05 -0.000236213 9.70355e-08
-1.36099e-05 9.70355e-08 -0.000780976
-7.12842e-05 0.000283295 -1.29064e-05
0.000283295 -0.00054114 2.67689e-06
-1.29064e-05 2.67689e-06 -0.00222184
-0.00199783 0.00031558 8.42596e-05
0.00031558 0.00179086 -1.0326e-05
8.42596e-05 -1.0326e-05 0.00049922
-0.000692335 -0.0001465 0.000375171
-0.0001465 0.000586757 3.67324e-05
0.000375171 3.67324e-05 -0.00396726
0.000335192 0.00060249 7.4738e-06
0.00060249 0.000370541 1.83827e-05
7.4738e-06 1.83827e-05 -0.000105825
9.22917e-05 0.000894572 -2.42323e-05
0.000894572 0.000442223 -1.78947e-05
-2.42323e-05 -1.78947e-05 -0.000303269
-0.00257776 0.000146625 -7.17368e-05
0.000146625 0.000542338 -2.96002e-05
-7.17368e-05 -2.96002e-05 -0.000619929
-0.00470999 0.000768822 9.66133e-05
0.000768822 0.00301427 0.000206958
9.66133e-05 0.000206958 -0.00265919
0.000750208 0.000967258 -0.000162617
0.000967258 -0.00149381 -0.000505184
-0.000162617 -0.000505184 -0.00658587
0.00425615 -4.35745e-05 9.60678e-05
-4.35745e-05 -0.00029556 8.47172e-05
9.60678e-05 8.47172e-05 -0.00061274
0.00718985 -0.000181275 -0.000340189
-0.000181275 -0.00229133 0.00026558
-0.000340189 0.00026558 -0.00301653
0.000178452 0.000415684 -1.86127e-06
0.000415684 0.000551875 -6.18055e-07
-1.86127e-06 -6.18055e-07 3.35444e-05
0.00120474 7.0602e-05 3.74959e-05
7.0602e-05 0.000599148 -2.00105e-06
3.74959e-05 -2.00105e-06 -0.000160815
0.0046556 -0.00109159 -0.000110124
-0.00109159 0.00307896 -4.65582e-06
-0.000110124 -4.65582e-06 0.00140957
-0.000540278 0.000755261 -0.000146485
0.000755261 0.00139209 -9.94543e-06
-0.000146485 -9.94543e-06 -0.000221943
0.0167163 0.0056075 -4.94328e-05
0.0056075 0.00473825 -0.000437882
-4.94328e-05 -0.000437882 0.00142929
0.00164936 0.00355363 9.4265e-05
0.00355363 0.00525789 0.000357421
9.4265e-05 0.000357421 -0.000553707
0.00518459 0.0010134 6.67136e-05
0.0010134 0.0060723 -1.67814e-05
6.67136e-05 -1.67814e-05 -0.00149931
0.00027564 8.28189e-06 3.53806e-05
8.28189e-06 0.00139091 -2.33368e-05
3.53806e-05 -2.33368e-05 0.000216062
2.35348e-05 -0.000152976 -0.000154766
-0.000152976 0.00308115 2.66641e-06
-0.000154766 2.66641e-06 0.00186823
0.00163024 -0.000959535 0.000789326
-0.000959535 0.000590383 -0.000269614
0.000789326 -0.000269614 -0.0045856
0.0226165 0.0086498 -8.03346e-05
0.0086498 0.0152717 -1.51416e-05
-8.03346e-05 -1.51416e-05 0.0105664
0.00944221 0.00418552 -3.35749e-05
0.00418552 0.00325118 0.000912414
-3.35749e-05 0.000912414 -0.0020489
0.0121001 -0.0040387 0.000339211
-0.0040387 0.00652443 -0.000267291
0.000339211 -0.000267291 0.000241171
0.00301501 -0.000816119 -7.1661e-05
-0.000816119 0.00331052 3.55778e-05
-7.1661e-05 3.55778e-05 0.00224038
0.000909406 0.000270768 -4.85728e-06
0.000270768 0.000933798 2.29057e-06
-4.85728e-06 2.29057e-06 0.000476396
-1.42597e-05 -6.49234e-05 -4.4004e-06
-6.49234e-05 0.00049277 -4.5269e-06
-4.4004e-06 -4.5269e-06 1.18018e-05
0.00114756 -0.000559525 4.64617e-05
-0.000559525 0.000922753 -1.19218e-05
4.64617e-05 -1.19218e-05 0.000351965
0.000250303 -7.54245e-05 -2.61225e-06
-7.54245e-05 0.000245537 7.28018e-06
-2.61225e-06 7.28018e-06 1.44633e-05
-0.000111143 -7.51206e-05 -3.71362e-06
-7.51206e-05 0.0002794 -1.73028e-05
-3.71362e-06 -1.73028e-05 -0.000148538
0.000559272 -0.000320387 -4.98901e-06
-0.000320387 0.000608592 3.87988e-07
-4.98901e-06 3.87988e-07 0.00024321
0.00137388 -0.000698009 2.97942e-05
-0.000698009 0.000653916 -1.69691e-05
2.97942e-05 -1.69691e-05 0.000302187
0.00164302 -0.000388289 1.37665e-06
-0.000388289 0.000847591 -4.73744e-07
1.37665e-06 -4.73744e-07 0.000598746
0.00150193 -0.000661963 1.60961e-05
-0.000661963 0.000668728 -2.89741e-06
1.60961e-05 -2.89741e-06 0.000239915
0.00124538 -0.000648642 8.53449e-06
-0.000648642 0.000520346 3.11041e-06
8.53449e-06 3.11041e-06 -0.000169205
0.000615444 -0.000380838 -6.3574e-06
-0.000380838 6.50348e-05 -9.03468e-06
-6.3574e-06 -9.03468e-06 -0.000159199
0.00222406 -0.000723106 -3.44258e-06
-0.000723106 0.00086346 -2.07166e-06
-3.44258e-06 -2.07166e-06 0.000344769
0.00182348 -0.000840312 -1.31783e-05
-0.000840312 0.000509909 -9.19053e-07
-1.31783e-05 -9.19053e-07 -0.000102882
0.00211877 -0.000946497 -1.43151e-05
-0.000946497 0.000519665 2.3089e-06
-1.43151e-05 2.3089e-06 -2.40274e-05
0.00196412 -0.000816256 -5.24756e-06
-0.000816256 0.000601445 5.74406e-07
-5.24756e-06 5.74406e-07 0.000104284
0.00169364 -0.000730221 -4.73506e-06
-0.000730221 0.000475539 8.35014e-07
-4.73506e-06 8.35014e-07 -1.46023e-05
0.00127487 -0.000547044 2.53236e-06
-0.000547044 0.000337489 -7.87904e-06
2.53236e-06 -7.87904e-06 -6.42223e-05
0.00141142 -0.000576936 8.52239e-06
-0.000576936 0.000384306 -2.72476e-06
8.52239e-06 -2.72476e-06 -1.86749e-05
0.00164904 -0.000650209 6.75156e-06
-0.000650209 0.000460512 -1.5995e-06
6.75156e-06 -1.5995e-06 2.68474e-05
0.00115671 -0.000299017 4.28094e-07
-0.000299017 0.000333264 8.02361e-07
4.28094e-07 8.02361e-07 6.63239e-05
0.00118345 -0.000448728 5.75837e-06
-0.000448728 0.000284936 -4.47785e-06
5.75837e-06 -4.47785e-06 -4.94124e-05
0.000143807 -0.00041997 -3.59269e-06
-0.00041997 -0.000414737 -7.76959e-06
-3.59269e-06 -7.76959e-06 -0.000786329
7.91813e-05 -8.93659e-05 -1.79549e-07
-8.93659e-05 -0.000168795 -3.81694e-06
-1.79549e-07 -3.81694e-06 -0.000438383
0.000994773 -0.000242817 -6.20107e-07
-0.000242817 0.000362878 3.04533e-07
-6.20107e-07 3.04533e-07 9.00235e-05
0.000416422 -0.000320081 -3.36421e-06
-0.000320081 -9.07569e-05 -2.29472e-06
-3.36421e-06 -2.29472e-06 -0.000367782
0.000547249 -6.058e-05 -2.09633e-07
-6.058e-05 6.13958e-05 6.97714e-06
-2.09633e-07 6.97714e-06 -7.73062e-05
0.00078306 -0.000129082 -2.61739e-07
-0.000129082 0.000265241 1.84299e-07
-2.61739e-07 1.84299e-07 3.48943e-05
-0.000182214 -0.000133545 3.00127e-07
-0.000133545 -0.000271352 3.94459e-06
3.00127e-07 3.94459e-06 -0.000545333
0.00134601 -0.000168412 4.02468e-07
-0.000168412 0.000614079 -2.52783e-07
4.02468e-07 -2.52783e-07 0.000417718
0.000625813 -6.53831e-05 -5.1973e-07
-6.53831e-05 0.00011317 -3.34309e-07
-5.1973e-07 -3.34309e-07 -6.62744e-06
0.000325331 1.98906e-05 2.17472e-06
1.98906e-05 -9.10858e-05 9.94792e-06
2.17472e-06 9.94792e-06 -0.00013868
0.000709662 -7.20345e-05 7.5202e-07
-7.20345e-05 0.000162542 -4.45432e-06
7.5202e-07 -4.45432e-06 6.04394e-05
0.000462351 8.32238e-06 -3.58563e-06
8.32238e-06 -1.60089e-05 -2.99215e-07
-3.58563e-06 -2.99215e-07 -5.4061e-05
0.00290291 9.89122e-05 -4.20799e-05
9.89122e-05 0.0015375 4.91932e-06
-4.20799e-05 4.91932e-06 0.00154083
0.000482537 -1.62723e-05 3.18128e-06
-1.62723e-05 -1.05277e-05 -6.60422e-06
3.18128e-06 -6.60422e-06 -4.33225e-05
0.00181638 6.27409e-05 2.26321e-05
6.27409e-05 0.000837718 -7.52419e-07
2.26321e-05 -7.52419e-07 0.000839118
0.00278933 5.91113e-05 3.33478e-05
5.91113e-05 0.00145582 -5.46677e-06
3.33478e-05 -5.46677e-06 0.00146493
0.000865707 0.000112543 6.35019e-06
0.000112543 0.000291405 -5.3178e-07
6.35019e-06 -5.3178e-07 0.000142314
0.000506258 5.18925e-05 3.44936e-06
5.18925e-05 3.20204e-05 -2.41034e-06
3.44936e-06 -2.41034e-06 -5.49316e-05
0.000433962 5.30069e-05 -6.94439e-07
5.30069e-05 2.20567e-05 -1.43124e-06
-6.94439e-07 -1.43124e-06 -0.000117735
0.000467168 9.69367e-06 1.36256e-06
9.69367e-06 -2.69358e-05 -5.74805e-06
1.36256e-06 -5.74805e-06 -4.81163e-05
0.000303336 4.2123e-05 -2.42006e-06
4.2123e-05 -9.61999e-05 -2.00258e-06
-2.42006e-06 -2.00258e-06 -0.000175597
0.00066873 8.47776e-05 -2.16564e-06
8.47776e-05 0.000173444 -3.52679e-06
-2.16564e-06 -3.52679e-06 3.95719e-05
0.0021964 -3.26312e-05 -2.14482e-05
-3.26312e-05 0.00107478 -5.02066e-06
-2.14482e-05 -5.02066e-06 0.00109056
0.000447259 -1.32693e-06 2.75162e-07
-1.32693e-06 -4.08268e-05 -1.55916e-07
2.75162e-07 -1.55916e-07 -5.62961e-05
0.000114312 1.65884e-05 -2.12243e-06
1.65884e-05 -0.000217726 3.81873e-07
-2.12243e-06 3.81873e-07 -0.000289251
0.00213303 -1.62449e-05 -5.67667e-06
-1.62449e-05 0.00103461 1.31087e-07
-5.67667e-06 1.31087e-07 0.00105167
0.000447409 8.55836e-07 -3.22147e-06
8.55836e-07 -4.01551e-05 3.89865e-06
-3.22147e-06 3.89865e-06 -5.23098e-05
0.00210132 -4.61346e-07 1.32434e-05
-4.61346e-07 0.0010156 5.0452e-06
1.32434e-05 5.0452e-06 0.00103283
0.0017808 -0.000309214 -8.16558e-05
-0.000309214 0.000511951 3.30806e-05
-8.16558e-05 3.30806e-05 -0.000287958
-0.00105257 -0.000194744 8.39305e-05
-0.000194744 0.00241591 -4.58212e-06
8.39305e-05 -4.58212e-06 0.00112643
-0.000990122 -0.000387863 0.000164415
-0.000387863 0.000864079 -0.000185105
0.000164415 -0.000185105 -0.00404196
4.50574e-05 4.29844e-05 4.85751e-06
4.29844e-05 -0.000201605 8.08389e-06
4.85751e-06 8.08389e-06 -0.000372101
0.00270118 0.000115023 3.45205e-06
0.000115023 0.00145562 9.10385e-06
3.45205e-06 9.10385e-06 0.00126096
0.00071613 0.000159178 -5.64144e-06
0.000159178 0.000195332 -6.40223e-06
-5.64144e-06 -6.40223e-06 4.37279e-05
0.000343087 8.8806e-05 1.20692e-06
8.8806e-05 -5.32223e-05 8.58671e-07
1.20692e-06 8.58671e-07 -0.000192262
0.000288164 8.91622e-05 4.02107e-07
8.91622e-05 -0.000103659 -1.3635e-06
4.02107e-07 -1.3635e-06 -0.000225753
0.000305947 0.000106633 8.99534e-06
0.000106633 -6.08417e-05 2.46025e-06
8.99534e-06 2.46025e-06 -0.000200761
8.87183e-05 0.000112065 1.73794e-05
0.000112065 -0.000177987 6.5317e-06
1.73794e-05 6.5317e-06 -0.00029513
0.00240176 0.00133531 0.000255647
0.00133531 -0.000362093 0.00025536
0.000255647 0.00025536 -0.00187763
0.00573688 -0.00036162 -6.5877e-05
-0.00036162 -0.000108149 5.27475e-05
-6.5877e-05 5.27475e-05 -0.00136278
0.00436633 -0.000835655 0.000279746
-0.000835655 0.0031487 -0.000122285
0.000279746 -0.000122285 0.00151991
0.00890619 -0.000200506 -3.37644e-07
-0.000200506 -0.00571767 0.000185639
-3.37644e-07 0.000185639 -0.00236351
0.00621044 -0.00362787 -0.00013146
-0.00362787 0.00098345 3.08474e-05
-0.00013146 3.08474e-05 0.00138725
0.00105696 -0.00463843 -0.000330522
-0.00463843 0.00157008 0.000104965
-0.000330522 0.000104965 -0.00440532
0.0174822 0.00461512 0.000159277
0.00461512 0.00776029 -0.000194828
0.000159277 -0.000194828 0.00256392
0.00239179 -0.00280408 -6.13935e-05
-0.00280408 0.000166609 2.5815e-05
-6.13935e-05 2.5815e-05 0.000603721
-0.00147564 -0.00101632 -5.93878e-05
-0.00101632 0.00433213 5.55566e-05
-5.93878e-05 5.55566e-05 -0.00318127
0.0102862 0.00054457 0.000238814
0.00054457 0.00399816 -3.22857e-05
0.000238814 -3.22857e-05 9.05866e-05
0.0165703 -0.00199815 -8.20102e-05
-0.00199815 0.00214641 -1.23781e-05
-8.20102e-05 -1.23781e-05 0.00322265
-0.00214649 -0.000557015 -0.000171244
-0.000557015 0.000261835 0.000169772
-0.000171244 0.000169772 8.94463e-06
0.00264596 0.0021453 -0.000227227
0.0021453 0.00548809 -0.000124003
-0.000227227 -0.000124003 -0.00217784
-0.000284781 -0.00588645 5.17557e-06
-0.00588645 7.26163e-05 -0.000252596
5.17557e-06 -0.000252596 -0.00560979
0.0153439 -0.00305917 0.000181833
-0.00305917 0.00501364 -0.000688593
0.000181833 -0.000688593 0.0027579
0.000471788 1.70702e-05 1.9775e-05
1.70702e-05 0.000306671 4.85792e-08
1.9775e-05 4.85792e-08 3.23971e-05
0.00078136 0.000191053 -1.78388e-06
0.000191053 0.000306373 -4.24447e-06
-1.78388e-06 -4.24447e-06 0.000148228
0.000868131 -1.11841e-05 -1.5196e-06
-1.11841e-05 0.000396148 -6.97397e-06
-1.5196e-06 -6.97397e-06 0.000146695
0.000979668 0.000161448 -6.34137e-06
0.000161448 0.000369416 -1.24269e-05
-6.34137e-06 -1.24269e-05 0.000196451
0.000638417 -0.00122742 5.35198e-05
-0.00122742 0.00014456 3.132e-05
5.35198e-05 3.132e-05 -0.000386303
0.00209999 -0.000394941 7.96164e-06
-0.000394941 0.00150019 -2.52719e-05
7.96164e-06 -2.52719e-05 0.00094507
0.000877136 0.000110944 -1.70799e-05
0.000110944 0.000482928 -2.37192e-05
-1.70799e-05 -2.37192e-05 0.000287725
0.000948481 2.31512e-05 -2.51503e-07
2.31512e-05 0.000655758 -8.25614e-06
-2.51503e-07 -8.25614e-06 0.000388877
0.000268377 -2.99919e-05 -1.24043e-06
-2.99919e-05 0.00058934 1.4039e-05
-1.24043e-06 1.4039e-05 9.86508e-05
0.000208413 8.00157e-05 2.23094e-06
8.00157e-05 0.000154165 3.83105e-06
2.23094e-06 3.83105e-06 -7.31882e-05
0.000228692 3.68484e-07 6.66972e-07
3.68484e-07 0.000653132 9.54804e-07
6.66972e-07 9.54804e-07 0.000134248
0.000167627 -0.00054791 -6.65815e-06
-0.00054791 0.00106679 5.62074e-06
-6.65815e-06 5.62074e-06 -0.000231701
0.000404808 -0.000138921 4.7667e-06
-0.000138921 0.00100021 -4.35009e-06
4.7667e-06 -4.35009e-06 0.000473748
-0.000551087 0.000111663 4.18285e-06
0.000111663 -0.000114389 -1.1771e-05
4.18285e-06 -1.1771e-05 -0.000400681
0.000914141 0.000119858 -0.000156529
0.000119858 0.00326692 -1.83205e-05
-0.000156529 -1.83205e-05 0.00124758
0.00101618 0.000370184 -2.01943e-05
0.000370184 0.00124528 8.13494e-06
-2.01943e-05 8.13494e-06 0.000667497
-0.0022916 4.31392e-05 -9.11411e-05
4.31392e-05 0.00206886 -3.59484e-05
-9.11411e-05 -3.59484e-05 0.000735448
0.00113021 0.000104272 2.10142e-05
0.000104272 0.00012 9.07217e-06
2.10142e-05 9.07217e-06 -0.000720934
-0.0032847 0.000458874 -3.38544e-05
0.000458874 0.00130816 -7.29406e-05
-3.38544e-05 -7.29406e-05 -8.82519e-05
0.000376347 0.000337712 -2.5275e-05
0.000337712 0.000752649 3.94682e-06
-2.5275e-05 3.94682e-06 0.000323849
-0.00128217 0.000898463 0.000166024
0.000898463 0.000303541 0.000113734
0.000166024 0.000113734 -0.000575737
0.000811045 5.08539e-05 7.76585e-05
5.08539e-05 0.000562683 -7.19501e-06
7.76585e-05 -7.19501e-06 5.73853e-05
0.00600653 -0.00236169 0.000288223
-0.00236169 0.00610044 -0.000192185
0.000288223 -0.000192185 -0.00260749
0.019779 0.00397875 -0.000195089
0.00397875 0.00848438 0.000175446
-0.000195089 0.000175446 0.00323251
0.00325785 -0.00076958 -0.000251617
-0.00076958 0.00229275 0.000114204
-0.000251617 0.000114204 0.000831411
0.0138582 0.00497712 -0.00012235
0.00497712 0.00661758 -0.000252187
-0.00012235 -0.000252187 0.00318913
0.000489388 0.000246704 -5.64333e-05
0.000246704 0.00132978 1.29045e-05
-5.64333e-05 1.29045e-05 0.000217245
-5.60638e-05 -0.000276468 -9.25822e-05
-0.000276468 0.00241241 1.0923e-06
-9.25822e-05 1.0923e-06 0.00149227
0.00304483 -0.00163638 0.000293087
-0.00163638 0.00164381 -4.60723e-05
0.000293087 -4.60723e-05 -0.00336382
-0.00315619 -0.00010617 5.51818e-05
-0.00010617 -0.000415877 3.33736e-05
5.51818e-05 3.33736e-05 -0.000957577
0.0169571 0.0099558 0.000707787
0.0099558 0.0119175 -0.000286926
0.000707787 -0.000286926 0.00713436
0.00947715 0.0032198 -0.000163878
0.0032198 0.00469578 0.000397296
-0.000163878 0.000397296 -0.000628683
-0.00299445 -0.00127042 0.000191405
-0.00127042 0.00304983 -0.000153997
0.000191405 -0.000153997 -0.00491434
-0.00135597 -0.000435356 -1.17627e-07
-0.000435356 0.000409469 -3.11071e-05
-1.17627e-07 -3.11071e-05 -0.000729713
0.000546275 -0.000911555 0.000330436
-0.000911555 -0.000114755 -8.50384e-05
0.000330436 -8.50384e-05 -0.00371315
6.70169e-05 0.00106192 -0.00143861
0.00106192 0.00797127 0.00035828
-0.00143861 0.00035828 0.00333126
0.0211972 0.00748426 -0.000574718
0.00748426 0.00705052 0.000541284
-0.000574718 0.000541284 0.00188682
0.00667836 -0.0038044 -0.000199674
-0.0038044 0.00321498 6.73466e-05
-0.000199674 6.73466e-05 -0.000415836
0.00294294 -0.0017859 4.53671e-05
-0.0017859 0.00313178 -8.41521e-07
4.53671e-05 -8.41521e-07 0.00210684
0.000145539 -5.07911e-05 1.58051e-06
-5.07911e-05 0.00053633 -1.15136e-05
1.58051e-06 -1.15136e-05 1.88715e-05
2.09917e-05 -0.000404437 5.04404e-06
-0.000404437 0.000391336 -2.22812e-06
5.04404e-06 -2.22812e-06 -0.000206961
3.81382e-05 -0.00076038 -5.66766e-06
-0.00076038 0.000122939 8.828e-07
-5.66766e-06 8.828e-07 -0.00025743
-0.000458033 -0.000216513 -9.64039e-07
-0.000216513 0.000132338 6.30386e-06
-9.64039e-07 6.30386e-06 -0.00024726
-0.000710705 -0.000406376 -2.22256e-06
-0.000406376 -0.00037658 3.93619e-06
-2.22256e-06 3.93619e-06 -0.00067839
0.00318628 -0.000980843 4.05708e-05
-0.000980843 0.00137749 -2.0051e-05
4.05708e-05 -2.0051e-05 0.000927038
0.00649075 -0.0012876 -1.25439e-05
-0.0012876 0.00340516 -3.108e-06
-1.25439e-05 -3.108e-06 0.00288916
0.00292463 -0.000881404 1.03402e-05
-0.000881404 0.00135227 -3.01726e-06
1.03402e-05 -3.01726e-06 0.000669461
0.00195754 -0.000945426 3.53246e-06
-0.000945426 0.000523051 -1.77628e-05
3.53246e-06 -1.77628e-05 -0.000153181
0.0022961 -0.000727934 -9.9741e-06
-0.000727934 0.00087553 -8.3446e-06
-9.9741e-06 -8.3446e-06 0.000372929
0.0021949 -0.000893167 1.18662e-06
-0.000893167 0.000706253 -2.32506e-06
1.18662e-06 -2.32506e-06 7.73373e-05
0.00268493 -0.00103809 -6.58404e-06
-0.00103809 0.000862003 -1.17057e-05
-6.58404e-06 -1.17057e-05 0.000242477
0.00225668 -0.000812995 -5.15091e-06
-0.000812995 0.000406703 -4.49408e-06
-5.15091e-06 -4.49408e-06 -1.11385e-05
0.00260352 -0.000996685 -1.00274e-05
-0.000996685 0.000760858 1.8444e-06
-1.00274e-05 1.8444e-06 0.000236091
0.0024455 -0.000989663 -3.32223e-06
-0.000989663 0.000694971 3.14744e-08
-3.32223e-06 3.14744e-08 0.000138256
0.00176329 -0.00077131 6.92571e-06
-0.00077131 0.000503899 -4.04394e-06
6.92571e-06 -4.04394e-06 3.42358e-05
0.0016198 -0.000759413 3.06429e-06
-0.000759413 0.000404302 -1.15154e-06
3.06429e-06 -1.15154e-06 -7.18321e-05
0.00149277 -0.000703649 7.72368e-06
-0.000703649 0.000344823 -6.64255e-07
7.72368e-06 -6.64255e-07 -0.000143094
0.00160034 -0.000517846 8.41141e-06
-0.000517846 0.000543145 5.07382e-06
8.41141e-06 5.07382e-06 0.000177662
0.0015401 -0.000588358 -1.1711e-06
-0.000588358 0.000471984 -2.14128e-06
-1.1711e-06 -2.14128e-06 6.44513e-05
0.00166666 -0.000661448 5.78256e-06
-0.000661448 0.000474548 2.89456e-06
5.78256e-06 2.89456e-06 3.89742e-05
0.00123991 -0.000225673 7.74717e-07
-0.000225673 0.000458256 -4.19788e-06
7.74717e-07 -4.19788e-06 0.000193703
0.000882935 -0.000281296 -3.54992e-06
-0.000281296 0.000188804 2.71341e-06
-3.54992e-06 2.71341e-06 -7.16221e-05
0.000811838 -0.000417344 -1.62608e-07
-0.000417344 4.92694e-05 -1.21842e-05
-1.62608e-07 -1.21842e-05 -0.000277684
1.59703e-05 -7.83298e-05 -2.08408e-06
-7.83298e-05 -0.000256247 4.74991e-06
-2.08408e-06 4.74991e-06 -0.000446591
0.000791938 -0.000167803 1.23522e-07
-0.000167803 0.000276868 8.01315e-07
1.23522e-07 8.01315e-07 2.07194e-06
0.000675868 -0.00027016 3.59576e-06
-0.00027016 0.000197525 8.69022e-07
3.59576e-06 8.69022e-07 -8.93589e-05
0.000333643 -2.24394e-05 -7.02646e-06
-2.24394e-05 -0.000100083 1.51215e-05
-7.02646e-06 1.51215e-05 -0.000151447
0.000664104 -8.56714e-05 6.96657e-07
-8.56714e-05 0.000126372 1.19223e-07
6.96657e-07 1.19223e-07 -1.29635e-05
0.00144553 -0.000210964 -9.6157e-07
-0.000210964 0.000672229 2.4823e-06
-9.6157e-07 2.4823e-06 0.000440831
0.000749248 -7.65759e-05 2.40527e-07
-7.65759e-05 0.000188205 -5.41835e-06
2.40527e-07 -5.41835e-06 6.63927e-05
0.000430923 4.98017e-06 -7.30668e-07
4.98017e-06 -3.11814e-05 -5.32873e-07
-7.30668e-07 -5.32873e-07 -7.63433e-05
0.00302182 0.000125588 -4.18423e-05
0.000125588 0.00162297 4.91358e-06
-4.18423e-05 4.91358e-06 0.00162007
0.000518512 -5.97304e-06 2.65338e-06
-5.97304e-06 1.44237e-05 -8.00794e-06
2.65338e-06 -8.00794e-06 -2.1418e-05
0.00285803 0.000100874 5.2424e-06
0.000100874 0.00150897 6.2889e-07
5.2424e-06 6.2889e-07 0.00151207
0.00274752 7.85779e-05 3.60998e-05
7.85779e-05 0.00143184 -4.9711e-06
3.60998e-05 -4.9711e-06 0.00143903
0.00117741 0.000106479 4.47266e-06
0.000106479 0.000598468 -2.01684e-06
4.47266e-06 -2.01684e-06 0.000351922
0.0013403 0.000161024 7.08356e-06
0.000161024 0.000659307 -3.01719e-06
7.08356e-06 -3.01719e-06 0.000451324
0.000536547 3.919e-05 5.23159e-06
3.919e-05 4.52441e-05 -5.06337e-06
5.23159e-06 -5.06337e-06 -5.31298e-05
0.000637941 0.000119256 1.71566e-07
0.000119256 0.000156896 -1.60376e-07
1.71566e-07 -1.60376e-07 7.50206e-06
0.000439617 -1.65492e-06 2.54896e-06
-1.65492e-06 -4.10446e-05 -7.01269e-06
2.54896e-06 -7.01269e-06 -6.7349e-05
0.000521614 5.51346e-05 2.13053e-07
5.51346e-05 4.20661e-05 -2.42732e-07
2.13053e-07 -2.42732e-07 -4.49181e-05
0.000575919 5.72051e-05 -6.12063e-06
5.72051e-05 9.83901e-05 -2.54361e-06
-6.12063e-06 -2.54361e-06 -3.28728e-05
0.00235074 -4.92434e-05 -2.76588e-05
-4.92434e-05 0.00117493 -5.24475e-06
-2.76588e-05 -5.24475e-06 0.00118829
0.000458915 4.21392e-06 -8.74167e-07
4.21392e-06 -3.14921e-05 -1.62287e-07
-8.74167e-07 -1.62287e-07 -5.21317e-05
0.000463616 5.97642e-05 -4.57067e-06
5.97642e-05 7.44926e-06 1.3428e-07
-4.57067e-06 1.3428e-07 -7.17627e-05
0.0022007 -3.21312e-05 -4.92582e-06
-3.21312e-05 0.00107751 2.52712e-07
-4.92582e-06 2.52712e-07 0.00109335
0.000459144 8.12447e-07 -3.27691e-06
8.12447e-07 -3.4079e-05 4.29244e-06
-3.27691e-06 4.29244e-06 -4.9122e-05
0.00212803 -1.57709e-05 1.70347e-05
-1.57709e-05 0.00103128 4.91957e-06
1.70347e-05 4.91957e-06 0.00104834
-0.00262104 0.000372676 -1.4944e-05
0.000372676 0.000685298 -6.5932e-05
-1.4944e-05 -6.5932e-05 -0.000157786
0.00192822 -0.000248941 -1.64015e-05
-0.000248941 0.000857598 -1.00805e-05
-1.64015e-05 -1.00805e-05 0.000255748
-6.69962e-05 -0.000255173 1.29163e-05
-0.000255173 0.00222816 -4.51543e-05
1.29163e-05 -4.51543e-05 0.00119783
0.000749674 0.000108897 1.05676e-06
0.000108897 0.000301545 -2.44817e-06
1.05676e-06 -2.44817e-06 8.15866e-05
5.73383e-06 0.000106877 6.31547e-06
0.000106877 -0.000222781 -2.59065e-06
6.31547e-06 -2.59065e-06 -0.000409471
-0.00171219 -4.9069e-06 7.1219e-07
-4.9069e-06 -0.00135478 -9.6185e-06
7.1219e-07 -9.6185e-06 -0.00151987
-0.00141529 1.39017e-05 -1.62405e-06
1.39017e-05 -0.00105659 2.20447e-05
-1.62405e-06 2.20447e-05 -0.00125349
0.00277712 0.000394311 1.15257e-06
0.000394311 0.00152022 4.63247e-07
1.15257e-06 4.63247e-07 0.00123527
0.000955547 4.95618e-05 -6.99705e-06
4.95618e-05 0.000320792 -4.46482e-06
-6.99705e-06 -4.46482e-06 0.000179299
0.000395006 0.000116815 -1.28575e-05
0.000116815 -2.66757e-05 -1.07979e-05
-1.28575e-05 -1.07979e-05 -0.000147748
0.000884939 3.88292e-05 1.71289e-06
3.88292e-05 0.000284963 -2.25881e-07
1.71289e-06 -2.25881e-07 0.000155932
0.00104235 0.000181388 -1.43716e-06
0.000181388 0.000413293 -3.93404e-06
-1.43716e-06 -3.93404e-06 0.000288514
0.00160491 0.000152437 7.88842e-06
0.000152437 0.000933883 -1.88073e-05
7.88842e-06 -1.88073e-05 0.000677132
0.0063455 0.00128089 0.000477214
0.00128089 0.00451422 0.000537768
0.000477214 0.000537768 -0.000401985
0.00272194 0.0010497 2.33645e-05
0.0010497 0.000252854 9.16004e-05
2.33645e-05 9.16004e-05 -0.00149024
0.00506602 -0.000284428 7.07214e-05
-0.000284428 -0.00022864 -1.96648e-05
7.07214e-05 -1.96648e-05 -0.000959527
0.0143373 -0.00144456 -0.000296018
-0.00144456 0.00216891 -0.000134987
-0.000296018 -0.000134987 0.00389869
-0.00273713 0.00108172 8.14666e-05
0.00108172 -0.002419 0.000423898
8.14666e-05 0.000423898 -0.00751016
0.00240526 -0.00286829 -5.06082e-05
-0.00286829 0.000650938 -3.8597e-05
-5.06082e-05 -3.8597e-05 0.00086081
0.00718942 -0.00219381 -0.000187504
-0.00219381 0.00534584 4.05717e-05
-0.000187504 4.05717e-05 -0.00025678
0.00099195 -0.00124559 -0.000126692
-0.00124559 0.0011313 0.000130405
-0.000126692 0.000130405 0.000717743
0.0103084 -4.58737e-05 -0.000203738
-4.58737e-05 0.00718686 -1.94729e-06
-0.000203738 -1.94729e-06 0.000274778
0.0069682 -0.00275226 0.000101454
-0.00275226 0.00431529 0.000208121
0.000101454 0.000208121 -0.00115559
0.0194407 -0.00472667 -7.5039e-05
-0.00472667 0.00450852 -0.000797611
-7.5039e-05 -0.000797611 0.00139377
0.00147986 0.000243711 -0.000146316
0.000243711 0.00285494 0.000107
-0.000146316 0.000107 0.00149111
0.01174 0.00277732 -0.000265935
0.00277732 0.00722642 -2.11588e-05
-0.000265935 -2.11588e-05 0.00159982
0.0206316 -0.0077461 -3.57706e-05
-0.0077461 0.0110612 -0.00080232
-3.57706e-05 -0.00080232 0.00503719
0.025784 -0.0100315 0.00010006
-0.0100315 0.0113607 -7.56364e-05
0.00010006 -7.56364e-05 0.00687742
0.000863821 0.000300717 2.18312e-05
0.000300717 0.000551226 -1.24139e-05
2.18312e-05 -1.24139e-05 0.000175784
-6.05921e-05 4.44119e-05 4.65664e-06
4.44119e-05 6.01607e-05 2.03265e-06
4.65664e-06 2.03265e-06 -0.000269698
0.0011104 0.000202437 -1.96386e-05
0.000202437 0.000530946 -1.99329e-05
-1.96386e-05 -1.99329e-05 0.000357093
0.00312894 -0.000967513 8.3413e-05
-0.000967513 0.00223427 5.80751e-06
8.3413e-05 5.80751e-06 0.000664812
-0.00039722 -0.0001325 4.97695e-05
-0.0001325 0.000749874 -2.35028e-05
4.97695e-05 -2.35028e-05 0.000151957
-0.000122665 7.6903e-05 -6.56135e-06
7.6903e-05 -5.73227e-05 -2.82166e-06
-6.56135e-06 -2.82166e-06 -0.000276475
-0.000429569 -6.35225e-05 1.57994e-05
-6.35225e-05 0.000312991 -3.88238e-06
1.57994e-05 -3.88238e-06 -0.000253279
-2.3864e-05 0.000138434 -1.22036e-06
0.000138434 0.00016833 -1.00845e-06
-1.22036e-06 -1.00845e-06 -0.000122708
0.000191687 0.000330433 1.55586e-05
0.000330433 0.000636846 3.08804e-06
1.55586e-05 3.08804e-06 3.88759e-05
-0.0023786 3.51954e-05 0.000223188
3.51954e-05 0.00105758 -3.05124e-05
0.000223188 -3.05124e-05 -0.000958015
-0.000446609 0.000485218 6.2993e-06
0.000485218 -0.000216885 1.86536e-05
6.2993e-06 1.86536e-05 -0.000622439
0.00250637 0.000970817 -0.000146313
0.000970817 0.00218204 -9.73898e-05
-0.000146313 -9.73898e-05 0.000640126
0.00102079 0.000143508 0.000215711
0.000143508 0.00177272 7.52723e-05
0.000215711 7.52723e-05 -0.00279608
-0.00257083 0.000274198 -9.19443e-05
0.000274198 0.00181249 1.16021e-05
-9.19443e-05 1.16021e-05 0.000267878
0.00283025 -0.000285581 -4.50303e-05
-0.000285581 0.00109808 -3.10863e-06
-4.50303e-05 -3.10863e-06 0.00100021
-0.000173638 0.000572773 0.000111439
0.000572773 0.000757869 1.463e-05
0.000111439 1.463e-05 -0.000413288
0.00130634 0.000310009 -0.000115768
0.000310009 0.00283145 0.000110791
-0.000115768 0.000110791 0.00126617
-0.000535018 -0.000270115 -7.10207e-06
-0.000270115 0.00199233 -2.19655e-05
-7.10207e-06 -2.19655e-05 0.000831504
0.0164811 -0.00469047 0.000265567
-0.00469047 0.00881571 -0.000133739
0.000265567 -0.000133739 0.00212128
0.0240841 0.00555907 -0.000259192
0.00555907 0.0115882 -0.000192119
-0.000259192 -0.000192119 0.00535557
0.00531998 -0.00192734 -0.000344633
-0.00192734 0.00279328 0.000285788
-0.000344633 0.000285788 -0.00181806
0.00944448 0.0115616 0.00278402
0.0115616 0.00775556 -0.00169385
0.00278402 -0.00169385 0.00268435
0.001137 -0.000609226 4.52998e-05
-0.000609226 0.00164343 -1.37201e-05
4.52998e-05 -1.37201e-05 0.000432617
-0.000370612 -0.00064109 5.66354e-05
-0.00064109 0.000567883 1.14496e-05
5.66354e-05 1.14496e-05 -0.00368765
0.00151576 0.00154289 -0.00132394
0.00154289 0.00756886 0.000333917
-0.00132394 0.000333917 0.00250164
0.000145074 -0.000942993 2.56776e-05
-0.000942993 0.00137939 2.862e-05
2.56776e-05 2.862e-05 0.000485342
0.0210583 0.00708011 0.000394694
0.00708011 0.00720476 0.000110194
0.000394694 0.000110194 0.0018783
0.00805477 -0.00589693 0.000255972
-0.00589693 0.00274084 -8.50011e-05
0.000255972 -8.50011e-05 -0.00134759
0.000264482 -0.00141589 2.01779e-06
-0.00141589 0.000491564 2.93617e-05
2.01779e-06 2.93617e-05 -0.000516997
-0.00556767 -0.00195847 0.000172429
-0.00195847 0.0065386 -9.52509e-05
0.000172429 -9.52509e-05 0.00215795
0.0171663 0.00711005 -0.00177749
0.00711005 0.006834 0.000524848
-0.00177749 0.000524848 0.002784
0.00625329 -0.00438762 -0.000489982
-0.00438762 -0.000692512 0.000208642
-0.000489982 0.000208642 -0.00377717
0.000272749 -0.00212551 0.000194781
-0.00212551 -0.000148932 -0.000140172
0.000194781 -0.000140172 0.000806958
0.00137046 -0.000612395 -0.000114524
-0.000612395 0.000992439 3.5436e-05
-0.000114524 3.5436e-05 0.000450036
0.000852491 -0.000694727 -1.30449e-05
-0.000694727 0.000621873 1.25692e-05
-1.30449e-05 1.25692e-05 0.000188293
0.00290955 -0.000995036 1.69879e-05
-0.000995036 0.00132927 -2.2185e-05
1.69879e-05 -2.2185e-05 0.000881291
-0.00100788 -0.00024459 1.09345e-05
-0.00024459 -0.000381921 5.99488e-06
1.09345e-05 5.99488e-06 -0.000671643
0.00116881 -0.000724711 9.58949e-07
-0.000724711 0.000311542 -3.34575e-06
9.58949e-07 -3.34575e-06 -9.51629e-05
0.00324156 -0.00112598 7.47181e-06
-0.00112598 0.00102226 -6.65328e-06
7.47181e-06 -6.65328e-06 0.00057048
0.00428366 -0.0010668 -2.93983e-05
-0.0010668 0.00202602 4.22412e-07
-2.93983e-05 4.22412e-07 0.00135344
0.00157643 -0.00086301 -1.9644e-06
-0.00086301 0.000312977 -1.55255e-06
-1.9644e-06 -1.55255e-06 -0.000338299
0.00229726 -0.00107753 -1.21503e-06
-0.00107753 0.000445937 -1.10228e-05
-1.21503e-06 -1.10228e-05 -7.94462e-05
0.00289152 -0.000987792 6.90395e-06
-0.000987792 0.00108112 7.78489e-06
6.90395e-06 7.78489e-06 0.000434326
0.00234459 -0.000996207 1.9362e-06
-0.000996207 0.000649144 -4.28294e-06
1.9362e-06 -4.28294e-06 5.15e-05
0.00264532 -0.0008748 -4.15461e-06
-0.0008748 0.000580373 -8.9662e-06
-4.15461e-06 -8.9662e-06 0.000163139
0.00183413 -0.000554455 -3.91172e-06
-0.000554455 3.61146e-06 -2.0241e-06
-3.91172e-06 -2.0241e-06 -0.000251092
0.00196168 -0.000806184 -4.03274e-07
-0.000806184 0.000181102 -1.57345e-06
-4.03274e-07 -1.57345e-06 -0.000233626
0.00225978 -0.000819569 3.2927e-06
-0.000819569 0.000396882 -2.65503e-06
3.2927e-06 -2.65503e-06 -2.11129e-05
0.00243786 -0.000880359 -4.67174e-06
-0.000880359 0.000727749 -6.45121e-07
-4.67174e-06 -6.45121e-07 0.000255279
0.00257211 -0.000992408 -3.36401e-06
-0.000992408 0.000751737 -4.92027e-08
-3.36401e-06 -4.92027e-08 0.00022234
0.00259625 -0.00101227 1.0287e-05
-0.00101227 0.000768989 -5.49589e-06
1.0287e-05 -5.49589e-06 0.000202862
0.00188298 -0.000678593 6.96628e-06
-0.000678593 0.000627655 -1.01296e-06
6.96628e-06 -1.01296e-06 0.000195529
0.00156061 -0.000737701 2.28354e-06
-0.000737701 0.00039699 -7.08564e-07
2.28354e-06 -7.08564e-07 -6.14383e-05
0.00132602 -0.000712277 4.01247e-06
-0.000712277 0.000235922 1.41031e-06
4.01247e-06 1.41031e-06 -0.00022157
0.00143179 -0.000354453 4.75936e-09
-0.000354453 0.000490448 1.42312e-06
4.75936e-09 1.42312e-06 0.000206776
0.00120458 -0.000459267 1.34018e-06
-0.000459267 0.000317674 3.41476e-07
1.34018e-06 3.41476e-07 -3.14711e-05
0.00170792 -0.000602925 -4.60674e-06
-0.000602925 0.000585753 1.089e-06
-4.60674e-06 1.089e-06 0.000172766
-0.000183582 -0.000118545 -2.24468e-06
-0.000118545 -0.000404089 1.94184e-06
-2.24468e-06 1.94184e-06 -0.000641553
0.000681085 -0.000244579 -1.26685e-06
-0.000244579 0.00013677 -1.17517e-06
-1.26685e-06 -1.17517e-06 -0.000144611
0.000834415 -0.000289543 -3.30967e-06
-0.000289543 0.000185748 -4.59003e-07
-3.30967e-06 -4.59003e-07 -7.59234e-05
0.00192746 3.24833e-06 -5.40677e-05
3.24833e-06 0.000918703 9.83955e-06
-5.40677e-05 9.83955e-06 0.000864051
0.000728329 -0.000133528 -1.90738e-07
-0.000133528 0.000170994 -3.19846e-07
-1.90738e-07 -3.19846e-07 -1.72006e-05
0.00134423 -0.000243939 6.87627e-07
-0.000243939 0.000625151 4.58247e-06
6.87627e-07 4.58247e-06 0.000341063
0.000735861 2.78506e-05 -5.85823e-05
2.78506e-05 0.000163264 6.47634e-06
-5.85823e-05 6.47634e-06 0.000151607
0.00118538 -1.84788e-06 -1.948e-05
-1.84788e-06 0.000444287 -6.66796e-07
-1.948e-05 -6.66796e-07 0.000394767
0.000883193 -0.000107836 3.77998e-06
-0.000107836 0.000256975 -5.71382e-06
3.77998e-06 -5.71382e-06 0.000116156
0.000591909 -6.32239e-06 3.60842e-06
-6.32239e-06 6.53189e-05 -1.02079e-05
3.60842e-06 -1.02079e-05 2.12662e-05
0.00312533 0.000125552 9.35063e-06
0.000125552 0.00168885 7.98235e-07
9.35063e-06 7.98235e-07 0.00168615
0.00287246 0.000100469 4.11043e-05
0.000100469 0.00151814 -4.83957e-06
4.11043e-05 -4.83957e-06 0.00152158
0.000966957 0.000191065 1.38256e-05
0.000191065 0.00041284 1.11651e-09
1.38256e-05 1.11651e-09 0.000155393
0.00156525 0.000198043 4.75904e-06
0.000198043 0.000815516 -2.59043e-06
4.75904e-06 -2.59043e-06 0.000564996
-0.000363061 3.28553e-05 1.35533e-06
3.28553e-05 -0.000404149 -2.56971e-07
1.35533e-06 -2.56971e-07 -0.000618088
0.000595154 5.91137e-05 2.39313e-06
5.91137e-05 9.27374e-05 -7.32501e-06
2.39313e-06 -7.32501e-06 -2.51021e-05
0.000713479 0.000119291 4.32396e-07
0.000119291 0.000226387 1.90386e-07
4.32396e-07 1.90386e-07 4.24832e-05
0.000435961 1.04465e-05 -8.77035e-07
1.04465e-05 -3.60886e-05 -9.44797e-06
-8.77035e-07 -9.44797e-06 -6.95237e-05
0.000558026 5.2013e-05 -6.68916e-08
5.2013e-05 6.73995e-05 -4.7048e-07
-6.68916e-08 -4.7048e-07 -3.33621e-05
0.000616399 4.65928e-05 -5.54353e-06
4.65928e-05 0.000163361 1.3946e-06
-5.54353e-06 1.3946e-06 2.92011e-06
0.0026231 -6.88164e-05 -3.65315e-05
-6.88164e-05 0.00135307 -5.11611e-06
-3.65315e-05 -5.11611e-06 0.00136299
0.00043138 3.26362e-06 -2.09083e-07
3.26362e-06 -4.53362e-05 -4.52938e-08
-2.09083e-07 -4.52938e-08 -7.18316e-05
0.000515562 6.12338e-05 -2.31275e-06
6.12338e-05 3.95345e-05 2.8342e-06
-2.31275e-06 2.8342e-06 -4.80064e-05
0.0023745 -5.01832e-05 -6.43654e-06
-5.01832e-05 0.00119022 4.05856e-07
-6.43654e-06 4.05856e-07 0.00120335
0.000416646 -1.20942e-05 -5.84149e-06
-1.20942e-05 -5.79246e-05 5.34715e-06
-5.84149e-06 5.34715e-06 -7.81747e-05
0.00222153 -3.08461e-05 2.25571e-05
-3.08461e-05 0.00109072 4.92006e-06
2.25571e-05 4.92006e-06 0.00110671
0.00674101 0.000867031 0.000404766
0.000867031 0.00425331 9.44276e-05
0.000404766 9.44276e-05 0.00158947
-0.00225994 0.000269378 -5.5999e-06
0.000269378 0.000614029 -1.01573e-05
-5.5999e-06 -1.01573e-05 -0.00052486
0.000487204 0.000295748 -9.26949e-06
0.000295748 0.00095819 -1.30575e-05
-9.26949e-06 -1.30575e-05 0.000154128
-0.000634145 0.000126555 -1.01875e-05
0.000126555 -0.000756018 3.50035e-06
-1.01875e-05 3.50035e-06 -0.000935373
-2.25994e-05 2.90711e-05 -6.75696e-06
2.90711e-05 -0.000242715 3.37496e-08
-6.75696e-06 3.37496e-08 -0.000416576
-0.000260847 5.58764e-05 -5.49656e-06
5.58764e-05 -0.000389628 -1.25803e-05
-5.49656e-06 -1.25803e-05 -0.00056123
0.00160563 8.33594e-05 3.41495e-06
8.33594e-05 0.00078135 5.7661e-07
3.41495e-06 5.7661e-07 0.000599996
0.000280174 0.000129265 -3.4378e-06
0.000129265 -0.000131365 -4.66497e-06
-3.4378e-06 -4.66497e-06 -0.000306177
0.00246826 0.000354589 -1.06085e-05
0.000354589 0.00132674 -4.0136e-06
-1.06085e-05 -4.0136e-06 0.0011058
0.0011762 0.000280854 -3.74938e-06
0.000280854 0.000441341 -1.22392e-05
-3.74938e-06 -1.22392e-05 0.000111256
-0.00151829 0.000140035 7.52546e-07
0.000140035 -0.000820454 3.76272e-07
7.52546e-07 3.76272e-07 -0.00120614
0.000580416 0.00012458 -8.56878e-06
0.00012458 0.000130795 -4.72496e-06
-8.56878e-06 -4.72496e-06 -1.32133e-05
-0.000198327 5.53312e-05 -1.57923e-05
5.53312e-05 -0.000422911 -8.1773e-06
-1.57923e-05 -8.1773e-06 -0.000502925
-0.000520717 2.81666e-05 -1.48918e-06
2.81666e-05 -0.000365208 2.04027e-06
-1.48918e-06 2.04027e-06 -0.000625663
0.000830808 0.000337239 1.92827e-05
0.000337239 0.00060673 1.43618e-08
1.92827e-05 1.43618e-08 0.000126965
0.00497096 -0.00415776 8.46956e-05
-0.00415776 0.00711162 0.000244204
8.46956e-05 0.000244204 0.000501508
0.00711487 0.00175234 0.000180605
0.00175234 0.00355914 0.000185863
0.000180605 0.000185863 -0.00189565
0.00358615 0.000608373 -2.85768e-05
0.000608373 0.000864792 -8.11159e-05
-2.85768e-05 -8.11159e-05 -0.0011301
0.0286584 -0.00630506 -0.000911719
-0.00630506 0.00836478 -0.000425954
-0.000911719 -0.000425954 0.00473195
0.00537363 -0.00170658 0.000301853
-0.00170658 0.00418365 0.000539627
0.000301853 0.000539627 0.000187582
0.00288625 -0.00177553 -0.000268697
-0.00177553 0.00527257 0.000122103
-0.000268697 0.000122103 -0.00236684
-0.00135226 -0.000777654 0.000104644
-0.000777654 0.00123247 2.54471e-05
0.000104644 2.54471e-05 0.000149148
-0.000900731 -0.000119527 0.000143427
-0.000119527 0.00130625 5.14228e-05
0.000143427 5.14228e-05 0.000435892
0.0188205 -0.010708 0.000510405
-0.010708 0.00968515 0.000482912
0.000510405 0.000482912 0.0048514
0.00238125 0.00183287 -0.000121515
0.00183287 0.00470382 -9.61541e-05
-0.000121515 -9.61541e-05 -0.00217562
0.0102117 -0.00423449 -0.000141998
-0.00423449 0.00562464 0.000128184
-0.000141998 0.000128184 -0.000785931
7.605e-05 0.000793827 -2.10168e-05
0.000793827 0.00120061 4.88865e-05
-2.10168e-05 4.88865e-05 0.000658094
0.0104147 0.00473046 -0.000142529
0.00473046 0.00354227 4.12283e-06
-0.000142529 4.12283e-06 -0.000423019
0.0188454 -0.00739761 -0.00091799
-0.00739761 0.00643164 -0.000500402
-0.00091799 -0.000500402 0.000940483
0.000610395 0.000635153 9.61409e-06
0.000635153 -5.12028e-05 -1.20008e-05
9.61409e-06 -1.20008e-05 -0.000220264
0.000504938 0.000220039 7.27523e-06
0.000220039 0.000313932 6.26771e-06
7.27523e-06 6.26771e-06 -8.17663e-06
-0.000299506 4.13425e-05 -1.67988e-05
4.13425e-05 -8.71738e-05 -3.34131e-06
-1.67988e-05 -3.34131e-06 -0.000414514
-0.00332443 -0.000304497 -0.0001245
-0.000304497 0.000309419 -5.94708e-05
-0.0001245 -5.94708e-05 -0.00159893
-0.000505004 0.000248452 5.37194e-06
0.000248452 -4.99769e-06 -1.53358e-05
5.37194e-06 -1.53358e-05 -0.000557059
0.00103359 0.000245944 -6.09041e-06
0.000245944 0.000755535 1.12757e-05
-6.09041e-06 1.12757e-05 0.00043994
0.00123471 0.000743033 1.32823e-05
0.000743033 0.000650798 3.86668e-06
1.32823e-05 3.86668e-06 0.000210087
-0.00040284 0.000583358 3.95949e-05
0.000583358 0.000820047 -3.32365e-05
3.95949e-05 -3.32365e-05 -0.000496459
0.00117431 0.00159541 7.82317e-05
0.00159541 0.000266584 4.50409e-06
7.82317e-05 4.50409e-06 -0.000707113
-0.00653168 0.00123139 0.000419116
0.00123139 0.00581867 -3.92476e-06
0.000419116 -3.92476e-06 -0.00191994
0.00227347 -0.000284148 -1.29544e-05
-0.000284148 0.00213945 7.64581e-05
-1.29544e-05 7.64581e-05 -0.000937203
-0.002928 -3.53094e-05 -1.8886e-05
-3.53094e-05 0.00123954 6.83603e-05
-1.8886e-05 6.83603e-05 -5.97213e-05
-0.000610875 -0.000347404 -6.44108e-05
-0.000347404 0.000804383 1.76216e-05
-6.44108e-05 1.76216e-05 -0.000467236
-0.00164027 -0.000589695 -7.67975e-05
-0.000589695 -0.000146164 6.19163e-05
-7.67975e-05 6.19163e-05 2.01054e-05
-0.000583359 -0.000593864 -0.000219096
-0.000593864 0.00105458 0.000143836
-0.000219096 0.000143836 -0.00354219
-0.00132025 -0.0044495 0.000262022
-0.0044495 0.00204553 -0.00011401
0.000262022 -0.00011401 -0.00423734
0.0135868 0.00579973 0.000785919
0.00579973 0.00233692 -0.00047568
0.000785919 -0.00047568 -0.00259116
0.0132128 0.00456053 -0.000447476
0.00456053 0.00891204 0.000388081
-0.000447476 0.000388081 0.00339717
0.00102527 -0.00100446 -1.78624e-05
-0.00100446 0.00141207 1.06712e-06
-1.78624e-05 1.06712e-06 0.000454086
0.00255185 0.000807063 0.000170457
0.000807063 0.00846727 -3.36765e-05
0.000170457 -3.36765e-05 0.00355157
0.00256733 0.00486914 8.74383e-06
0.00486914 0.00130454 7.98967e-05
8.74383e-06 7.98967e-05 -0.00284301
0.0025607 -0.00312369 8.79261e-05
-0.00312369 0.000858085 -5.14244e-05
8.79261e-05 -5.14244e-05 0.00110384
0.0164425 -0.00495788 5.35774e-06
-0.00495788 0.00251037 3.85421e-06
5.35774e-06 3.85421e-06 0.000624787
0.00328111 -0.00192567 -1.56192e-06
-0.00192567 0.00135731 1.90428e-05
-1.56192e-06 1.90428e-05 0.000867844
-0.00744634 0.00153264 -0.000725976
0.00153264 -0.00190149 0.000119986
-0.000725976 0.000119986 -0.00530654
0.0158844 -0.00316538 -0.000225226
-0.00316538 0.00150795 6.76747e-05
-0.000225226 6.76747e-05 0.000358267
0.0040638 -0.00305371 0.000125072
-0.00305371 2.74217e-05 -7.66684e-05
0.000125072 -7.66684e-05 0.000871698
4.38081e-05 -0.000509859 2.48063e-06
-0.000509859 0.000241887 6.5749e-06
2.48063e-06 6.5749e-06 -0.000222109
0.00179783 -0.000994249 3.55556e-06
-0.000994249 0.000615411 -4.96357e-06
3.55556e-06 -4.96357e-06 0.000274711
0.00429723 -0.00110771 2.16776e-05
-0.00110771 0.00162821 -1.87567e-05
2.16776e-05 -1.87567e-05 0.00124172
-0.00019539 -0.000553026 -7.64431e-06
-0.000553026 -0.000375773 1.09792e-05
-7.64431e-06 1.09792e-05 -0.000778686
0.00171688 -0.000948005 -3.21999e-06
-0.000948005 0.000236194 1.3777e-06
-3.21999e-06 1.3777e-06 -0.000212447
0.00334444 -0.00118107 2.65606e-06
-0.00118107 0.000878855 -7.70182e-06
2.65606e-06 -7.70182e-06 0.000426403
0.0014501 -0.000817338 -9.52239e-06
-0.000817338 0.000225441 9.82134e-06
-9.52239e-06 9.82134e-06 -0.000403378
0.0020839 -0.00104245 -7.37005e-07
-0.00104245 0.00034062 2.64705e-06
-7.37005e-07 2.64705e-06 -0.00018532
0.00205893 -0.000834074 -4.07446e-06
-0.000834074 8.03998e-05 -5.2452e-06
-4.07446e-06 -5.2452e-06 -0.000241276
0.00177434 -0.000926669 4.9128e-06
-0.000926669 0.000315257 4.63957e-06
4.9128e-06 4.63957e-06 -0.000257646
0.00213027 -0.000804172 -1.70565e-06
-0.000804172 0.000300291 1.70194e-06
-1.70565e-06 1.70194e-06 -9.99532e-05
0.0021593 -0.000592554 -2.68819e-06
-0.000592554 0.000122566 -2.90599e-06
-2.68819e-06 -2.90599e-06 -9.99393e-05
0.00197366 -0.000500776 -4.095e-06
-0.000500776 8.32594e-05 1.91052e-07
-4.095e-06 1.91052e-07 -0.00010138
0.00178715 -0.000569312 -4.66461e-06
-0.000569312 -2.37639e-06 -1.50238e-06
-4.66461e-06 -1.50238e-06 -0.000268905
0.00189756 -0.000553927 1.70823e-06
-0.000553927 4.22817e-05 2.67201e-06
1.70823e-06 2.67201e-06 -0.000208882
0.00176715 -0.000699923 -5.28846e-06
-0.000699923 0.000130384 -2.89779e-06
-5.28846e-06 -2.89779e-06 -0.000241784
0.00214682 -0.000815811 2.85327e-06
-0.000815811 0.000314341 -1.31352e-07
2.85327e-06 -1.31352e-07 -9.73578e-05
0.00224766 -0.000820575 5.72687e-06
-0.000820575 0.000384589 1.14827e-06
5.72687e-06 1.14827e-06 -3.19208e-05
0.00185128 -0.000744187 -9.14287e-07
-0.000744187 0.000412645 -2.24405e-06
-9.14287e-07 -2.24405e-06 -2.82014e-05
0.00226847 -0.000867167 2.08713e-06
-0.000867167 0.000620563 -6.71169e-07
2.08713e-06 -6.71169e-07 0.000147944
0.00247557 -0.000978177 3.41638e-06
-0.000978177 0.000705737 -2.8584e-06
3.41638e-06 -2.8584e-06 0.000173807
0.0012934 -0.00044434 -8.01991e-06
-0.00044434 0.000298158 3.65259e-06
-8.01991e-06 3.65259e-06 -2.83404e-05
0.00166042 -0.000644263 1.49319e-06
-0.000644263 0.000486578 8.1075e-07
1.49319e-06 8.1075e-07 6.62864e-05
0.00133355 -0.000698864 -3.04217e-06
-0.000698864 0.00027751 1.6936e-06
-3.04217e-06 1.6936e-06 -0.000168406
0.000611112 -0.000233603 -7.79281e-06
-0.000233603 5.61829e-06 -1.89431e-07
-7.79281e-06 -1.89431e-07 -0.000214388
0.00102777 -0.000334003 1.494e-06
-0.000334003 0.00022576 -7.85882e-07
1.494e-06 -7.85882e-07 -5.35857e-05
0.000643083 -0.000386867 -7.5725e-06
-0.000386867 -6.09622e-06 5.80282e-07
-7.5725e-06 5.80282e-07 -0.000336341
0.000330374 -7.62706e-05 -1.5025e-05
-7.62706e-05 -0.000119945 1.41463e-05
-1.5025e-05 1.41463e-05 -0.000202957
0.000845165 -0.000201978 3.00547e-06
-0.000201978 0.00024705 1.62059e-06
3.00547e-06 1.62059e-06 -2.96528e-07
0.000571887 -0.00027738 -4.9685e-07
-0.00027738 8.9853e-05 9.48711e-07
-4.9685e-07 9.48711e-07 -0.000202632
0.00409786 0.000254225 9.74099e-06
0.000254225 0.00235561 6.51567e-06
9.74099e-06 6.51567e-06 0.00231226
0.000424656 -4.66456e-05 3.89974e-07
-4.66456e-05 -4.72804e-05 -1.90687e-07
3.89974e-07 -1.90687e-07 -0.000116057
0.00125908 -0.000134836 3.21971e-07
-0.000134836 0.000502972 -5.68355e-06
3.21971e-07 -5.68355e-06 0.000310625
0.00352205 0.000143302 9.83344e-06
0.000143302 0.00194895 7.00581e-07
9.83344e-06 7.00581e-07 0.00194178
0.000593369 -2.17033e-05 6.26312e-06
-2.17033e-05 6.40428e-05 -1.21471e-05
6.26312e-06 -1.21471e-05 8.94784e-06
0.0031694 0.000116054 6.08828e-05
0.000116054 0.00171477 -5.34114e-06
6.08828e-05 -5.34114e-06 0.00171456
0.00223818 0.000379797 5.14533e-06
0.000379797 0.00110284 2.07065e-06
5.14533e-06 2.07065e-06 0.000842655
0.000690509 0.000189557 2.52739e-07
0.000189557 0.000243972 -4.5804e-06
2.52739e-07 -4.5804e-06 -1.87691e-05
0.00141916 0.000253641 -1.39782e-06
0.000253641 0.000717973 -3.92598e-06
-1.39782e-06 -3.92598e-06 0.000438183
0.000768135 9.5296e-05 1.68627e-06
9.5296e-05 0.000202202 -7.24773e-06
1.68627e-06 -7.24773e-06 5.9571e-05
0.000818043 0.000114563 5.17438e-07
0.000114563 0.00033169 1.42548e-06
5.17438e-07 1.42548e-06 9.37781e-05
0.000223582 0.000122925 -2.99092e-06
0.000122925 1.47428e-05 2.83357e-06
-2.99092e-06 2.83357e-06 -0.00024103
0.00053993 8.90682e-07 -1.64412e-06
8.90682e-07 3.90809e-05 -1.16937e-05
-1.64412e-06 -1.16937e-05 -4.40905e-06
0.000549567 4.8379e-05 -4.6029e-07
4.8379e-05 6.75963e-05 -1.23597e-07
-4.6029e-07 -1.23597e-07 -5.06072e-05
0.000164177 8.85918e-05 -5.47983e-06
8.85918e-05 -0.000146393 4.13828e-06
-5.47983e-06 4.13828e-06 -0.000310246
0.00273267 -8.5257e-05 -4.51145e-05
-8.5257e-05 0.00142847 -5.28778e-06
-4.51145e-05 -5.28778e-06 0.00143564
0.000400387 -2.43608e-05 2.86605e-06
-2.43608e-05 -5.53953e-05 -2.7829e-07
2.86605e-06 -2.7829e-07 -8.96261e-05
0.00047258 4.73609e-05 -3.88766e-06
4.73609e-05 1.99071e-05 4.6982e-06
-3.88766e-06 4.6982e-06 -8.17267e-05
0.00254983 -6.8605e-05 -7.09837e-06
-6.8605e-05 0.00130624 5.38904e-07
-7.09837e-06 5.38904e-07 0.00131608
0.000425563 1.23677e-06 -2.7375e-06
1.23677e-06 -4.91216e-05 6.7514e-06
-2.7375e-06 6.7514e-06 -7.5074e-05
0.00232807 -4.93307e-05 2.42321e-05
-4.93307e-05 0.00116057 4.97173e-06
2.42321e-05 4.97173e-06 0.00117398
-0.00918158 0.0011174 -0.000166683
0.0011174 0.0044564 7.84501e-05
-0.000166683 7.84501e-05 -0.00270236
0.00634428 0.000670663 1.71394e-05
0.000670663 0.00391421 -7.60114e-07
1.71394e-05 -7.60114e-07 0.00137511
-0.0017604 0.000206043 7.7369e-05
0.000206043 0.000634844 4.06425e-05
7.7369e-05 4.06425e-05 -0.000772355
0.000158646 0.0001668 -8.66668e-08
0.0001668 -0.000216759 4.49995e-06
-8.66668e-08 4.49995e-06 -0.000440211
0.00344861 0.000765877 1.86578e-05
0.000765877 0.00179301 1.38081e-05
1.86578e-05 1.38081e-05 0.00138473
0.00015701 0.00017394 -9.06735e-06
0.00017394 -5.64172e-05 4.60327e-06
-9.06735e-06 4.60327e-06 -0.000419193
0.000363654 7.12961e-05 -8.30935e-06
7.12961e-05 2.23014e-05 -2.36714e-05
-8.30935e-06 -2.36714e-05 -0.000169445
0.0032074 0.000363397 3.24503e-06
0.000363397 0.00166371 -2.39906e-06
3.24503e-06 -2.39906e-06 0.00146457
-0.00121947 1.17031e-05 -1.43053e-05
1.17031e-05 -0.000944199 1.11789e-05
-1.43053e-05 1.11789e-05 -0.00110186
-0.000128397 0.000160177 -8.73359e-07
0.000160177 -0.000103522 7.97182e-06
-8.73359e-07 7.97182e-06 -0.000417179
0.000346619 0.000155996 -3.78551e-06
0.000155996 8.25562e-06 -6.13749e-06
-3.78551e-06 -6.13749e-06 -0.00032556
0.00152228 0.00062624 6.83455e-06
0.00062624 0.00075274 -2.27199e-05
6.83455e-06 -2.27199e-05 0.000252491
-0.000650998 0.000508012 -2.19387e-05
0.000508012 -0.000708758 5.87573e-05
-2.19387e-05 5.87573e-05 -0.00086701
0.00144563 6.87344e-05 -1.76049e-05
6.87344e-05 0.00078385 1.80925e-05
-1.76049e-05 1.80925e-05 0.00055866
0.00169622 0.000357676 7.9248e-06
0.000357676 0.00110609 -9.31142e-06
7.9248e-06 -9.31142e-06 0.000685504
0.0022308 -0.00293835 -0.00195211
-0.00293835 0.00236192 -0.000283038
-0.00195211 -0.000283038 -0.00229458
-0.00107539 -0.00321038 0.000649036
-0.00321038 0.00730846 0.000200052
0.000649036 0.000200052 0.000744754
0.00788426 0.0022192 -0.000700359
0.0022192 0.003278 -0.000236258
-0.000700359 -0.000236258 -0.00265078
0.00936383 -0.0115037 0.00275748
-0.0115037 0.00787617 0.00163368
0.00275748 0.00163368 0.00246793
0.0290193 -0.00428076 4.29871e-05
-0.00428076 0.0102317 0.00042205
4.29871e-05 0.00042205 0.00561369
-0.00358953 0.00145255 -3.02127e-05
0.00145255 0.00268527 -0.000201545
-3.02127e-05 -0.000201545 -0.00338981
-0.00242458 0.000184183 -0.000318814
0.000184183 0.00135049 -5.92942e-05
-0.000318814 -5.92942e-05 -0.000470205
0.000564091 0.000825273 7.72105e-05
0.000825273 0.00169008 5.71972e-05
7.72105e-05 5.71972e-05 0.00124319
0.0215167 -0.00575004 -0.000765843
-0.00575004 0.00908213 1.79185e-05
-0.000765843 1.79185e-05 0.00371513
-0.0022609 0.00374987 -0.000151646
0.00374987 0.000475773 -4.9789e-05
-0.000151646 -4.9789e-05 -0.00439784
0.00351661 0.00263301 2.72236e-05
0.00263301 0.00114452 -7.75658e-05
2.72236e-05 -7.75658e-05 0.00190832
0.0044424 0.0059822 -0.000520223
0.0059822 -0.00188564 -0.000117962
-0.000520223 -0.000117962 -0.00431931
0.00338462 0.00131795 2.54289e-05
0.00131795 0.00131117 -5.89181e-06
2.54289e-05 -5.89181e-06 0.000913298
0.00110197 0.000646718 -4.72017e-06
0.000646718 0.000304454 -3.07316e-06
-4.72017e-06 -3.07316e-06 0.000140599
-0.000272105 0.000183988 -1.67757e-05
0.000183988 -0.000164963 1.42582e-05
-1.67757e-05 1.42582e-05 -0.000477502
-0.00162083 0.00043319 -9.80964e-05
0.00043319 0.000265136 -7.26332e-05
-9.80964e-05 -7.26332e-05 -0.000863848
0.00182492 0.000834032 -4.67599e-05
0.000834032 0.000902728 -2.79167e-05
-4.67599e-05 -2.79167e-05 0.000459412
0.00220718 0.00174301 1.01596e-05
0.00174301 0.000664773 -9.21726e-06
1.01596e-05 -9.21726e-06 -0.000294648
-0.00120842 0.0017751 0.000103464
0.0017751 -0.00194244 5.55227e-05
0.000103464 5.55227e-05 -0.00235089
-0.00667686 -0.000586198 -0.000720899
-0.000586198 -0.00387633 5.69183e-05
-0.000720899 5.69183e-05 -0.00452372
-0.00947798 0.000518289 0.000483474
0.000518289 0.00619795 1.85936e-05
0.000483474 1.85936e-05 -0.000716091
0.00285624 -4.25171e-05 -0.000149186
-4.25171e-05 0.0021323 3.42281e-05
-0.000149186 3.42281e-05 0.00017833
0.00181545 -0.00114975 -6.48586e-05
-0.00114975 0.00137631 -4.51879e-05
-6.48586e-05 -4.51879e-05 0.000455854
-0.00095204 -0.00224802 0.000102379
-0.00224802 -0.000575447 4.12695e-05
0.000102379 4.12695e-05 -0.000319716
0.000895538 0.000928589 0.000126421
0.000928589 0.0081312 5.97164e-05
0.000126421 5.97164e-05 0.00298506
0.00349879 -0.0042906 0.000562067
-0.0042906 -0.00182671 -0.000101151
0.000562067 -0.000101151 -0.00352977
0.0251861 0.00418156 0.00108077
0.00418156 0.0111677 -9.3228e-05
0.00108077 -9.3228e-05 0.00722084
0.00172689 -0.00203691 -2.2479e-05
-0.00203691 0.000429276 3.70298e-06
-2.2479e-05 3.70298e-06 -0.000328549
0.00315038 0.00189023 0.000327855
0.00189023 0.00138009 -9.93689e-05
0.000327855 -9.93689e-05 -0.00153413
0.00757753 -0.00279894 -0.000198615
-0.00279894 -0.00314214 0.000164602
-0.000198615 0.000164602 -0.00507132
0.00300643 -0.00295116 -7.37728e-06
-0.00295116 -0.000901698 2.53973e-05
-7.37728e-06 2.53973e-05 0.000373658
0.0025915 -0.00166583 7.77927e-05
-0.00166583 0.000210921 -2.02152e-05
7.77927e-05 -2.02152e-05 -1.99448e-05
0.0186479 -0.00101339 -0.000102132
-0.00101339 0.00352555 6.14657e-05
-0.000102132 6.14657e-05 0.00249011
0.00271617 -0.00211339 0.000135211
-0.00211339 -0.00349947 -8.40108e-05
0.000135211 -8.40108e-05 -0.00156093
-0.000878869 -0.00077832 -2.25497e-05
-0.00077832 -0.000932111 3.83922e-05
-2.25497e-05 3.83922e-05 -0.00109103
0.000294539 -0.000698882 -4.10912e-05
-0.000698882 -0.000553844 4.54464e-06
-4.10912e-05 4.54464e-06 -0.000732915
0.0063629 -0.00129219 6.25715e-05
-0.00129219 0.00239164 -2.56532e-05
6.25715e-05 -2.56532e-05 0.00212756
0.000138212 -0.000744477 -8.75658e-06
-0.000744477 -0.000551745 6.419e-06
-8.75658e-06 6.419e-06 -0.000987516
0.00220873 -0.00103443 -2.73651e-06
-0.00103443 0.000295641 -2.89942e-06
-2.73651e-06 -2.89942e-06 -0.00012015
0.00287587 -0.00092362 2.00813e-08
-0.00092362 0.0003403 -4.34927e-06
2.00813e-08 -4.34927e-06 0.000124941
0.00218506 -0.00104689 8.26873e-06
-0.00104689 0.000397124 1.0392e-05
8.26873e-06 1.0392e-05 -0.000135888
0.00233604 -0.000853507 -1.92107e-06
-0.000853507 0.00023968 3.23418e-07
-1.92107e-06 3.23418e-07 -8.21747e-05
0.00220977 -0.000615691 -9.93177e-07
-0.000615691 5.67765e-06 -7.16262e-07
-9.93177e-07 -7.16262e-07 -0.000108826
0.00180093 -0.000757218 9.16154e-06
-0.000757218 0.000117806 6.93894e-06
9.16154e-06 6.93894e-06 -0.000270525
0.00208726 -0.000579495 -3.45501e-07
-0.000579495 7.84182e-05 2.56727e-06
-3.45501e-07 2.56727e-06 -0.000135127
0.00217046 -0.000561766 -2.70634e-06
-0.000561766 8.69712e-05 2.4209e-06
-2.70634e-06 2.4209e-06 -4.98084e-05
0.00213192 -0.000532475 -4.11736e-06
-0.000532475 0.000161817 1.66298e-06
-4.11736e-06 1.66298e-06 5.76147e-07
0.00209457 -0.000511119 -3.08654e-06
-0.000511119 0.000149542 3.05821e-06
-3.08654e-06 3.05821e-06 -3.10987e-05
0.00214391 -0.000514804 -2.4947e-06
-0.000514804 0.00023981 -2.7435e-06
-2.4947e-06 -2.7435e-06 4.23402e-05
0.00211349 -0.000604635 -6.59482e-06
-0.000604635 0.000227435 -2.52355e-06
-6.59482e-06 -2.52355e-06 -5.00464e-05
0.00202755 -0.000587121 1.53581e-06
-0.000587121 0.000153569 1.04058e-06
1.53581e-06 1.04058e-06 -0.000113627
0.00197448 -0.000555945 5.09306e-06
-0.000555945 8.45325e-05 7.01459e-06
5.09306e-06 7.01459e-06 -0.000163602
0.00201982 -0.000700842 -7.26581e-06
-0.000700842 0.000345942 -3.05119e-06
-7.26581e-06 -3.05119e-06 -3.32542e-05
0.00177453 -0.000709498 -6.23025e-07
-0.000709498 0.000119984 1.34761e-07
-6.23025e-07 1.34761e-07 -0.000256457
0.00231146 -0.000825088 7.93835e-06
-0.000825088 0.000432701 1.49501e-06
7.93835e-06 1.49501e-06 2.38885e-05
0.00146688 -0.00056158 -1.21441e-05
-0.00056158 0.000265067 3.23196e-06
-1.21441e-05 3.23196e-06 -0.000110216
0.00195757 -0.000756934 -5.01141e-07
-0.000756934 0.00047601 8.61462e-07
-5.01141e-07 8.61462e-07 3.27166e-05
0.00214549 -0.000861105 4.48165e-06
-0.000861105 0.00053965 6.48032e-07
4.48165e-06 6.48032e-07 6.53361e-05
0.000697226 -0.000235215 -8.00121e-06
-0.000235215 2.83504e-05 6.3795e-06
-8.00121e-06 6.3795e-06 -0.000198328
0.00129312 -0.000452599 1.4163e-06
-0.000452599 0.000288365 3.80485e-07
1.4163e-06 3.80485e-07 -4.20777e-05
0.00134446 -0.000603335 -2.62767e-06
-0.000603335 0.000281093 2.38895e-06
-2.62767e-06 2.38895e-06 -0.000126893
0.0004782 -0.000151565 -2.60593e-05
-0.000151565 -5.93415e-05 1.53313e-05
-2.60593e-05 1.53313e-05 -0.000162846
0.000589607 -0.000227598 -2.87918e-06
-0.000227598 2.20582e-05 4.03639e-07
-2.87918e-06 4.03639e-07 -0.000217825
0.000509753 -0.000334506 2.48356e-06
-0.000334506 -0.000105421 -1.46455e-06
2.48356e-06 -1.46455e-06 -0.000392396
0.00460093 0.000222736 -9.571e-05
0.000222736 0.00267556 9.26511e-06
-9.571e-05 9.26511e-06 0.00264398
0.000558683 -9.53866e-05 2.10974e-06
-9.53866e-05 1.87347e-05 -1.03712e-07
2.10974e-06 -1.03712e-07 -7.03224e-05
0.00148801 -0.000286427 7.39466e-06
-0.000286427 0.000645361 -2.90697e-06
7.39466e-06 -2.90697e-06 0.00039425
0.00266256 0.000136981 5.95963e-05
0.000136981 0.00141808 1.46884e-06
5.95963e-05 1.46884e-06 0.00139056
0.000674655 -5.2825e-05 1.28346e-05
-5.2825e-05 0.000104164 -1.41065e-05
1.28346e-05 -1.41065e-05 3.16222e-05
0.00375616 0.000132353 9.12933e-05
0.000132353 0.00209721 -6.20563e-06
9.12933e-05 -6.20563e-06 0.00209275
0.00183692 0.000382021 2.5874e-06
0.000382021 0.000729045 -3.56116e-06
2.5874e-06 -3.56116e-06 0.000484854
0.000444583 0.000176728 -5.13494e-06
0.000176728 -6.27211e-05 4.04919e-09
-5.13494e-06 4.04919e-09 -0.000269876
0.000371223 0.000186959 9.3968e-07
0.000186959 2.67457e-06 -6.7939e-06
9.3968e-07 -6.7939e-06 -0.000254825
0.000345725 0.000156725 -2.06603e-06
0.000156725 4.48735e-06 8.76721e-06
-2.06603e-06 8.76721e-06 -0.000233485
0.000715342 0.000117141 5.28601e-07
0.000117141 0.000256865 2.49857e-07
5.28601e-07 2.49857e-07 -1.5649e-06
0.0011012 0.000135892 -6.90537e-07
0.000135892 0.000406846 -9.64448e-06
-6.90537e-07 -9.64448e-06 0.000233766
0.000612882 4.62438e-05 -7.06776e-06
4.62438e-05 8.23949e-05 -1.40913e-05
-7.06776e-06 -1.40913e-05 2.82902e-05
0.000706604 8.70821e-05 5.12874e-07
8.70821e-05 0.000168662 -1.79332e-07
5.12874e-07 -1.79332e-07 2.67458e-05
-0.000557381 1.90419e-05 -5.99298e-06
1.90419e-05 -0.000565927 1.673e-06
-5.99298e-06 1.673e-06 -0.000775994
0.00304975 -0.0001001 -6.52694e-05
-0.0001001 0.001639 -6.0582e-06
-6.52694e-05 -6.0582e-06 0.00164305
0.000385162 2.18057e-05 1.14758e-06
2.18057e-05 -5.77133e-05 -3.44348e-07
1.14758e-06 -3.44348e-07 -0.000100767
0.000678462 6.35949e-05 -3.60463e-06
6.35949e-05 0.000154462 7.77343e-06
-3.60463e-06 7.77343e-06 3.3387e-05
0.00278771 -8.87344e-05 -7.90942e-06
-8.87344e-05 0.00146455 6.84643e-07
-7.90942e-06 6.84643e-07 0.00147048
0.000346292 -1.29869e-05 -1.18256e-06
-1.29869e-05 -8.77399e-05 8.4515e-06
-1.18256e-06 8.4515e-06 -0.000121802
0.00255191 -6.89248e-05 3.02106e-05
-6.89248e-05 0.00130734 5.21334e-06
3.02106e-05 5.21334e-06 0.00131693
0.00194009 -5.84615e-05 -0.00107612
-5.84615e-05 0.00424303 -7.3449e-05
-0.00107612 -7.3449e-05 0.00194304
-0.00572287 7.66992e-05 2.73524e-05
7.66992e-05 0.00561018 -1.33816e-05
2.73524e-05 -1.33816e-05 -0.00184451
0.00614016 0.000329163 -0.000327054
0.000329163 0.00373848 -8.81311e-05
-0.000327054 -8.81311e-05 0.00137351
-0.000479978 5.89892e-05 5.43152e-06
5.89892e-05 -0.000604698 -6.06621e-06
5.43152e-06 -6.06621e-06 -0.000830477
0.000378816 0.000120931 7.22872e-06
0.000120931 5.19998e-07 6.57177e-06
7.22872e-06 6.57177e-06 -0.00033536
0.00305019 0.000691653 -3.9023e-06
0.000691653 0.00157475 3.47889e-06
-3.9023e-06 3.47889e-06 0.00117659
0.00230783 0.000790501 1.85909e-05
0.000790501 0.000968932 9.75246e-06
1.85909e-05 9.75246e-06 0.000459515
0.000966022 0.000541453 1.13412e-05
0.000541453 0.000455451 9.22166e-06
1.13412e-05 9.22166e-06 5.38681e-06
0.00176343 0.000253421 -8.17238e-06
0.000253421 0.0010298 6.00955e-06
-8.17238e-06 6.00955e-06 0.000724322
0.00185125 0.000262357 1.07978e-05
0.000262357 0.000974546 9.32922e-06
1.07978e-05 9.32922e-06 0.000657604
0.000847613 0.000543118 -4.31408e-06
0.000543118 0.000397311 6.29222e-08
-4.31408e-06 6.29222e-08 -9.38355e-05
0.00021046 0.00072429 1.76607e-05
0.00072429 -0.000394205 -8.67093e-06
1.76607e-05 -8.67093e-06 -0.000778181
0.00277187 0.000968112 -8.52705e-06
0.000968112 0.00108316 2.82165e-05
-8.52705e-06 2.82165e-05 0.000802411
0.00160802 0.00100478 3.28581e-05
0.00100478 0.000129384 1.33561e-05
3.28581e-05 1.33561e-05 -3.40779e-05
0.00155158 0.00073716 -3.48421e-06
0.00073716 0.000592984 -2.79664e-06
-3.48421e-06 -2.79664e-06 0.000333196
0.00207741 0.00048702 -5.92519e-06
0.00048702 0.00121679 3.26071e-05
-5.92519e-06 3.26071e-05 0.000794775
0.0139419 0.00310376 -0.000140462
0.00310376 0.00137853 5.57348e-05
-0.000140462 5.57348e-05 0.000337669
0.00428505 -0.00253218 -0.000672277
-0.00253218 0.00436535 -0.000229434
-0.000672277 -0.000229434 0.000777848
0.000970502 -0.00455999 0.00100819
-0.00455999 0.00809007 0.000243191
0.00100819 0.000243191 0.00142661
0.0117929 -0.00331555 0.000389046
-0.00331555 0.00473903 0.000318172
0.000389046 0.000318172 -6.63472e-05
0.01378 0.00586004 -0.000108258
0.00586004 0.00460283 -5.90371e-05
-0.000108258 -5.90371e-05 0.000453317
-0.00293493 0.0003601 -4.04403e-05
0.0003601 0.000338153 -3.77134e-05
-4.04403e-05 -3.77134e-05 -0.000233327
0.00205563 0.00223735 -7.80767e-05
0.00223735 0.000505345 -2.93679e-05
-7.80767e-05 -2.93679e-05 0.00142703
0.0164008 0.00572978 2.06026e-05
0.00572978 0.00287136 3.9408e-05
2.06026e-05 3.9408e-05 0.000300348
0.00694989 0.00425391 -0.000118982
0.00425391 -0.000333568 -0.000123037
-0.000118982 -0.000123037 0.000386539
0.00182407 0.00136946 4.09203e-06
0.00136946 0.000214897 7.7668e-06
4.09203e-06 7.7668e-06 -9.86551e-05
0.00159966 0.00103882 1.24384e-05
0.00103882 0.000456187 -4.16811e-06
1.24384e-05 -4.16811e-06 0.000126671
0.00167865 0.00064411 -3.34352e-05
0.00064411 0.000751386 5.30587e-06
-3.34352e-05 5.30587e-06 0.000581382
0.00240438 0.00186139 -7.50655e-05
0.00186139 0.000601887 -2.81931e-05
-7.50655e-05 -2.81931e-05 -0.000335524
0.00155255 0.00211026 8.84835e-05
0.00211026 -0.000748157 4.73179e-05
8.84835e-05 4.73179e-05 -0.00127756
0.00325073 -0.000292542 -0.000143039
-0.000292542 -0.00537391 4.8561e-05
-0.000143039 4.8561e-05 -0.00563987
0.000442181 -0.00200669 1.39754e-05
-0.00200669 0.00270003 2.48885e-05
1.39754e-05 2.48885e-05 0.00124942
-0.0128627 -0.000359575 0.000384866
-0.000359575 0.0068807 -2.17946e-05
0.000384866 -2.17946e-05 0.000925612
0.00119829 -0.00234044 -7.2883e-05
-0.00234044 -0.000165659 3.51564e-05
-7.2883e-05 3.51564e-05 -0.00114753
0.00645618 -0.00384181 2.74127e-05
-0.00384181 0.000270776 5.05833e-05
2.74127e-05 5.05833e-05 0.00102153
0.00332815 0.00021646 0.00115289
0.00021646 0.00437745 -0.000272177
0.00115289 -0.000272177 0.00224966
0.0148781 -0.00296543 -0.000348739
-0.00296543 0.00147952 0.000183702
-0.000348739 0.000183702 0.000939695
0.00179054 -0.00164779 -3.04007e-05
-0.00164779 -0.00016788 3.68978e-06
-3.04007e-05 3.68978e-06 -0.000512814
0.0117547 -0.000182617 -0.000221083
-0.000182617 -0.00171137 8.07678e-05
-0.000221083 8.07678e-05 -0.00235425
0.00720265 -0.00244986 9.64032e-05
-0.00244986 -0.000730653 1.08399e-05
9.64032e-05 1.08399e-05 0.000447725
0.0037026 -0.00140775 6.53422e-05
-0.00140775 0.000219707 -4.30232e-05
6.53422e-05 -4.30232e-05 9.69014e-05
0.00245675 -0.00093021 1.00096e-05
-0.00093021 -0.00255519 3.01935e-06
1.00096e-05 3.01935e-06 -0.000977462
-0.00407857 -0.000273062 8.79812e-06
-0.000273062 -0.00294118 1.84934e-05
8.79812e-06 1.84934e-05 -0.00294585
0.00138227 -0.000824664 -2.08809e-05
-0.000824664 -0.000368169 3.06413e-06
-2.08809e-05 3.06413e-06 -0.000376744
0.00381189 -0.000870097 3.94538e-05
-0.000870097 0.000720486 -1.38866e-05
3.94538e-05 -1.38866e-05 0.000775672
0.00136855 -0.000932115 -1.02536e-05
-0.000932115 -0.000141867 7.56475e-06
-1.02536e-05 7.56475e-06 -0.000531159
0.00232268 -0.000872225 -4.15324e-06
-0.000872225 4.27226e-05 3.18096e-06
-4.15324e-06 3.18096e-06 -0.000168027
0.00253133 -0.00070209 5.23614e-06
-0.00070209 -9.32257e-06 -3.7048e-07
5.23614e-06 -3.7048e-07 -2.707e-05
0.00221935 -0.000824737 -2.50909e-06
-0.000824737 0.000191208 9.27765e-06
-2.50909e-06 9.27765e-06 -0.000119788
0.00220419 -0.000613889 4.62532e-07
-0.000613889 1.51605e-06 1.4061e-06
4.62532e-07 1.4061e-06 -0.000110681
0.00235627 -0.000611776 -7.76675e-07
-0.000611776 6.6725e-05 6.75875e-07
-7.76675e-07 6.75875e-07 1.66855e-05
0.00195976 -0.000559656 5.42032e-06
-0.000559656 4.10647e-06 5.59124e-06
5.42032e-06 5.59124e-06 -0.00019871
0.00213856 -0.00055837 4.83891e-08
-0.00055837 6.77469e-05 1.24457e-06
4.83891e-08 1.24457e-06 -6.67334e-05
0.00229345 -0.000596432 -2.24579e-06
-0.000596432 0.000131373 2.01918e-06
-2.24579e-06 2.01918e-06 1.28697e-05
0.00213504 -0.000540143 -4.6094e-06
-0.000540143 0.000153983 2.0317e-06
-4.6094e-06 2.0317e-06 -3.67462e-06
0.00222686 -0.000530726 -1.429e-06
-0.000530726 0.000264509 -1.79287e-07
-1.429e-06 -1.79287e-07 9.28437e-05
0.00219574 -0.000520383 2.31726e-06
-0.000520383 0.000205668 4.30569e-06
2.31726e-06 4.30569e-06 2.92982e-05
0.00213568 -0.00051398 7.16122e-07
-0.00051398 0.000233548 -5.71081e-07
7.16122e-07 -5.71081e-07 3.63941e-05
0.00205617 -0.000531973 -3.46849e-06
-0.000531973 0.000190121 -1.90363e-06
-3.46849e-06 -1.90363e-06 -2.74616e-05
0.0021498 -0.000590772 -3.67296e-06
-0.000590772 0.000324607 -4.27458e-06
-3.67296e-06 -4.27458e-06 3.3698e-05
0.00217787 -0.000613167 -5.42862e-07
-0.000613167 0.000270811 5.31106e-08
-5.42862e-07 5.31106e-08 -9.70646e-06
0.00226345 -0.000603932 8.0019e-06
-0.000603932 0.000308754 3.94487e-06
8.0019e-06 3.94487e-06 4.11375e-05
0.00174057 -0.000596527 -1.13391e-05
-0.000596527 0.000276995 2.29476e-06
-1.13391e-05 2.29476e-06 -8.99052e-05
0.00195162 -0.000693278 -2.00032e-06
-0.000693278 0.000303549 -3.94575e-07
-2.00032e-06 -3.94575e-07 -7.67965e-05
0.00179688 -0.000720164 5.76557e-06
-0.000720164 0.000117966 2.28447e-06
5.76557e-06 2.28447e-06 -0.000262949
0.000858935 -0.000285441 -1.2384e-05
-0.000285441 4.79496e-05 8.35432e-06
-1.2384e-05 8.35432e-06 -0.000197292
0.00149083 -0.000562031 5.48558e-07
-0.000562031 0.000287618 3.95518e-07
5.48558e-07 3.95518e-07 -8.67422e-05
0.00205456 -0.000766869 2.77158e-06
-0.000766869 0.000536378 2.72752e-06
2.77158e-06 2.72752e-06 9.16243e-05
0.000226801 -0.000193187 -2.06876e-05
-0.000193187 -0.000220277 1.99131e-05
-2.06876e-05 1.99131e-05 -0.000352321
0.000629005 -0.000238135 -1.89455e-07
-0.000238135 -1.00708e-05 4.48742e-07
-1.89455e-07 4.48742e-07 -0.00024297
0.00106819 -0.000428241 8.97359e-06
-0.000428241 0.000140409 -1.70504e-06
8.97359e-06 -1.70504e-06 -0.00018455
0.00546362 0.000152604 -0.000164064
0.000152604 0.00319743 1.08791e-05
-0.000164064 1.08791e-05 0.00318468
0.000501927 -0.000172872 -4.73329e-06
-0.000172872 -4.1755e-05 -9.53827e-07
-4.73329e-06 -9.53827e-07 -0.000151409
0.00104732 -0.00027506 5.33772e-06
-0.00027506 0.000329363 -3.63555e-06
5.33772e-06 -3.63555e-06 7.12623e-05
0.0048562 0.000175912 2.01992e-05
0.000175912 0.00282565 -3.48959e-09
2.01992e-05 -3.48959e-09 0.00280689
0.000655597 -0.000122326 2.37864e-05
-0.000122326 7.65653e-05 -1.47286e-05
2.37864e-05 -1.47286e-05 -1.74339e-05
0.00430382 0.000141153 0.000125567
0.000141153 0.00245609 -8.99275e-06
0.000125567 -8.99275e-06 0.00244894
0.00252319 0.00070468 6.29186e-06
0.00070468 0.00111444 6.52318e-07
6.29186e-06 6.52318e-07 0.000674712
0.000725689 0.000298906 -1.90084e-06
0.000298906 4.76229e-05 -2.95048e-06
-1.90084e-06 -2.95048e-06 -0.000191314
0.00038785 0.000172757 5.10355e-06
0.000172757 -0.000129378 2.52348e-06
5.10355e-06 2.52348e-06 -0.000341087
-0.000741801 5.96179e-05 -2.55755e-06
5.96179e-05 -0.000798543 5.28253e-07
-2.55755e-06 5.28253e-07 -0.00100456
0.000312053 0.000153755 8.63018e-07
0.000153755 -7.50779e-05 1.75699e-06
8.63018e-07 1.75699e-06 -0.000307585
0.00101685 0.000140003 -1.34568e-06
0.000140003 0.000352231 -1.2177e-05
-1.34568e-06 -1.2177e-05 0.000145326
0.000197094 7.24749e-05 -3.16016e-06
7.24749e-05 -8.25408e-05 1.71568e-06
-3.16016e-06 1.71568e-06 -0.000329341
0.000629161 0.000100541 2.73411e-08
0.000100541 0.000126636 6.59859e-07
2.73411e-08 6.59859e-07 -5.05302e-05
0.000563219 5.81126e-05 -1.04257e-05
5.81126e-05 4.72098e-05 -1.66762e-05
-1.04257e-05 -1.66762e-05 -2.21218e-05
0.00342165 -0.000107979 -9.37671e-05
-0.000107979 0.00188589 -8.19978e-06
-9.37671e-05 -8.19978e-06 0.00188757
0.000396405 2.14536e-05 1.52143e-06
2.14536e-05 -4.753e-05 -4.64591e-07
1.52143e-06 -4.64591e-07 -0.000102666
0.000407498 6.55187e-05 -2.71459e-06
6.55187e-05 -1.47949e-05 8.47478e-06
-2.71459e-06 8.47478e-06 -0.000153209
0.00294171 -0.000108467 -9.22456e-06
-0.000108467 0.00157104 8.86462e-07
-9.22456e-06 8.86462e-07 0.00157241
0.00026541 -5.55355e-05 -7.95986e-06
-5.55355e-05 -0.000124313 1.13064e-05
-7.95986e-06 1.13064e-05 -0.000171572
0.00270481 -8.80149e-05 3.76016e-05
-8.80149e-05 0.00141187 5.30004e-06
3.76016e-05 5.30004e-06 0.00141754
0.01555 0.000695183 0.000557478
0.000695183 0.00165687 0.000134001
0.000557478 0.000134001 0.00159887
-0.000392518 -0.00349339 -0.000644045
-0.00349339 -0.00212653 -9.26729e-05
-0.000644045 -9.26729e-05 -0.00504948
-0.00945618 0.00166857 -0.000243747
0.00166857 0.00516935 -0.000130073
-0.000243747 -0.000130073 -0.00241227
-7.32998e-05 5.57505e-05 1.46956e-05
5.57505e-05 -0.000280151 -1.20167e-05
1.46956e-05 -1.20167e-05 -0.000630841
0.00148314 0.000495476 -8.08951e-06
0.000495476 0.000623783 -1.53709e-06
-8.08951e-06 -1.53709e-06 0.000261127
0.00270194 0.00071923 -1.12241e-05
0.00071923 0.00144996 -3.08114e-06
-1.12241e-05 -3.08114e-06 0.000956628
0.00140148 0.000671225 1.15835e-06
0.000671225 0.000421291 -9.18282e-07
1.15835e-06 -9.18282e-07 -5.65742e-05
0.00154327 0.000739377 1.17139e-05
0.000739377 0.000286626 2.04178e-05
1.17139e-05 2.04178e-05 -0.000167305
-0.000568085 0.000534415 3.49423e-05
0.000534415 -0.000798082 1.00749e-05
3.49423e-05 1.00749e-05 -0.0011886
0.000293518 0.000421139 -1.40438e-05
0.000421139 0.000133001 8.8539e-06
-1.40438e-05 8.8539e-06 -0.000364318
-0.00014936 0.000657114 7.52482e-06
0.000657114 -0.000614766 -1.38918e-06
7.52482e-06 -1.38918e-06 -0.000972706
0.00222472 0.000912122 1.1754e-05
0.000912122 0.0008268 6.87458e-06
1.1754e-05 6.87458e-06 0.000500975
3.88735e-06 0.000688834 6.49698e-06
0.000688834 -0.00065941 -5.96955e-06
6.49698e-06 -5.96955e-06 -0.000950087
0.00385832 0.00116514 7.21226e-06
0.00116514 0.00135515 1.29628e-05
7.21226e-06 1.29628e-05 0.00112574
0.00147468 0.00099272 2.26326e-05
0.00099272 7.84525e-05 7.31982e-06
2.26326e-05 7.31982e-06 -0.000255021
0.000655786 0.000879608 5.01783e-06
0.000879608 -0.000420937 -4.08214e-07
5.01783e-06 -4.08214e-07 -0.000504853
0.000926627 0.000616533 -5.61175e-06
0.000616533 0.000234198 -6.27997e-05
-5.61175e-06 -6.27997e-05 -3.7506e-07
0.00454974 0.00204897 2.50893e-05
0.00204897 -0.00227995 3.28632e-05
2.50893e-05 3.28632e-05 -0.000342972
0.0141017 0.00379678 0.000324891
0.00379678 0.000376204 0.000179472
0.000324891 0.000179472 -0.00104678
0.0126381 -0.00520596 0.000678955
-0.00520596 0.00617655 -5.25808e-05
0.000678955 -5.25808e-05 0.00202551
0.00582712 0.00601633 0.000667286
0.00601633 -0.00119682 0.000365737
0.000667286 0.000365737 -0.00531509
-0.00029585 0.00151836 -5.32634e-05
0.00151836 -7.82916e-06 1.10828e-05
-5.32634e-05 1.10828e-05 0.00067513
0.00374059 0.00279473 -0.000101655
0.00279473 -0.000895057 -5.48339e-05
-0.000101655 -5.48339e-05 0.000258754
0.00648271 0.00248665 6.40522e-05
0.00248665 0.00114654 3.48308e-05
6.40522e-05 3.48308e-05 0.000917035
0.00483317 0.0018316 2.33783e-05
0.0018316 0.00155711 9.41959e-06
2.33783e-05 9.41959e-06 0.00113682
0.000310939 0.000835462 -2.99668e-05
0.000835462 -0.000221728 2.84147e-06
-2.99668e-05 2.84147e-06 -0.000470583
0.0077654 0.00291703 -0.000195491
0.00291703 0.00213499 -1.95596e-05
-0.000195491 -1.95596e-05 0.0013749
0.00324868 -0.000634881 6.71139e-06
-0.000634881 -0.00114845 2.08005e-05
6.71139e-06 2.08005e-05 -5.17393e-05
0.0117153 -0.000601278 -5.52285e-05
-0.000601278 0.000605695 -2.46136e-05
-5.52285e-05 -2.46136e-05 0.000892581
-0.0130739 -0.00331067 0.000933459
-0.00331067 -0.00478194 2.85325e-07
0.000933459 2.85325e-07 -0.00648074
0.00119898 -0.00146001 -0.000125695
-0.00146001 -0.000365946 3.88227e-05
-0.000125695 3.88227e-05 -0.000650295
0.00840843 -0.00297146 -2.95656e-05
-0.00297146 -0.000842473 8.52302e-05
-2.95656e-05 8.52302e-05 0.000571441
0.00130666 -0.000324816 -0.000333848
-0.000324816 -0.00567788 4.34736e-05
-0.000333848 4.34736e-05 -0.00698532
0.00314637 -0.0012247 3.55988e-05
-0.0012247 -9.74706e-05 1.4189e-06
3.55988e-05 1.4189e-06 7.98449e-05
0.0052583 -0.000886981 -5.73146e-05
-0.000886981 -0.000824559 2.61072e-06
-5.73146e-05 2.61072e-06 0.000292574
0.00636507 -0.00103341 5.44234e-05
-0.00103341 0.0014668 -3.54434e-05
5.44234e-05 -3.54434e-05 0.00187277
0.00592917 -0.000564251 0.00011774
-0.000564251 0.00118838 -2.14616e-06
0.00011774 -2.14616e-06 0.00160664
-0.00304821 -0.000432931 1.14074e-05
-0.000432931 -0.0028992 1.22351e-05
1.14074e-05 1.22351e-05 -0.00261786
0.00217581 -0.000734601 -8.05682e-06
-0.000734601 -0.000224046 2.29458e-06
-8.05682e-06 2.29458e-06 -4.35717e-05
0.00240126 -0.000555499 2.53944e-05
-0.000555499 -0.000274369 -6.15884e-06
2.53944e-05 -6.15884e-06 2.17813e-05
0.00192045 -0.000840927 1.51945e-06
-0.000840927 -0.000179015 4.94827e-06
1.51945e-06 4.94827e-06 -0.000390908
0.00246206 -0.00069647 1.27619e-06
-0.00069647 -4.21363e-05 1.68872e-06
1.27619e-06 1.68872e-06 -6.0405e-05
0.00250925 -0.000609931 1.1916e-06
-0.000609931 1.82237e-05 -1.66963e-07
1.1916e-06 -1.66963e-07 2.76019e-05
0.00223472 -0.000617371 3.3313e-06
-0.000617371 1.77252e-05 4.94113e-06
3.3313e-06 4.94113e-06 -9.48963e-05
0.00231803 -0.000605757 2.17574e-07
-0.000605757 5.77748e-05 4.20108e-07
2.17574e-07 4.20108e-07 2.14115e-06
0.00231708 -0.00053676 -2.20496e-06
-0.00053676 4.81358e-05 2.70222e-07
-2.20496e-06 2.70222e-07 -7.71221e-06
0.00212494 -0.00055741 3.69616e-06
-0.00055741 5.86059e-05 5.66255e-07
3.69616e-06 5.66255e-07 -7.50515e-05
0.00227975 -0.000591297 -7.38829e-08
-0.000591297 0.000149985 -1.73387e-08
-7.38829e-08 -1.73387e-08 2.82864e-05
0.00216722 -0.00052319 8.67675e-08
-0.00052319 0.000126843 7.76919e-07
8.67675e-08 7.76919e-07 -1.28491e-06
0.00214856 -0.000548402 -1.56884e-06
-0.000548402 0.000152125 6.58844e-07
-1.56884e-06 6.58844e-07 -2.48795e-06
0.00216167 -0.000521319 -1.66796e-06
-0.000521319 0.000220117 1.85304e-07
-1.66796e-06 1.85304e-07 5.16388e-05
0.00224555 -0.000519254 -2.58704e-06
-0.000519254 0.000294214 8.54457e-08
-2.58704e-06 8.54457e-08 0.000105931
0.00213608 -0.000512317 4.62561e-06
-0.000512317 0.000232529 1.85468e-06
4.62561e-06 1.85468e-06 3.60809e-05
0.00209038 -0.00053402 -3.69278e-07
-0.00053402 0.000210229 -3.81063e-08
-3.69278e-07 -3.81063e-08 -7.71224e-06
0.00213622 -0.000531164 -1.23669e-06
-0.000531164 0.00028042 -2.3283e-06
-1.23669e-06 -2.3283e-06 3.93539e-05
0.0018153 -0.000525562 -8.30012e-06
-0.000525562 0.000224313 -9.39276e-07
-8.30012e-06 -9.39276e-07 -8.11235e-05
0.00207717 -0.000590672 -6.66059e-07
-0.000590672 0.000276818 -1.28224e-06
-6.66059e-07 -1.28224e-06 -2.03715e-05
0.00224377 -0.000622223 4.8302e-06
-0.000622223 0.000315585 2.70599e-06
4.8302e-06 2.70599e-06 3.18506e-05
0.00106245 -0.000335886 -1.88964e-05
-0.000335886 5.4206e-05 9.96824e-06
-1.88964e-05 9.96824e-06 -0.000203418
0.00179137 -0.000593581 -3.59204e-07
-0.000593581 0.000319521 9.09815e-07
-3.59204e-07 9.09815e-07 -4.41358e-05
0.00189615 -0.000686626 2.89836e-06
-0.000686626 0.000269531 2.04222e-06
2.89836e-06 2.04222e-06 -0.000112053
0.0003182 -0.000205314 -1.8287e-05
-0.000205314 -0.000191452 2.18032e-05
-1.8287e-05 2.18032e-05 -0.000334103
0.000792836 -0.000291588 1.59296e-06
-0.000291588 -7.85022e-07 -1.14576e-07
1.59296e-06 -1.14576e-07 -0.00025109
0.00153567 -0.000564211 1.24844e-05
-0.000564211 0.00032388 -2.15951e-06
1.24844e-05 -2.15951e-06 -4.98231e-05
0.00655989 7.01663e-05 -0.000243859
7.01663e-05 0.00385753 1.62392e-05
-0.000243859 1.62392e-05 0.00386027
0.000342293 -0.000204751 -1.90348e-06
-0.000204751 -0.000148885 -4.08589e-07
-1.90348e-06 -4.08589e-07 -0.000281988
0.000594077 -0.000243615 9.60466e-06
-0.000243615 -2.80895e-05 -6.84362e-06
9.60466e-06 -6.84362e-06 -0.000267488
0.0059182 0.000109754 -9.55572e-06
0.000109754 0.00348261 -2.17774e-06
-9.55572e-06 -2.17774e-06 0.00347486
0.00041755 -0.000172815 2.11589e-05
-0.000172815 -8.70338e-05 -1.76692e-05
2.11589e-05 -1.76692e-05 -0.000203243
0.0052919 0.000117061 0.000192182
0.000117061 0.00309734 -1.94318e-05
0.000192182 -1.94318e-05 0.00308925
0.00191304 0.000701686 -5.15998e-06
0.000701686 0.000558609 4.9225e-06
-5.15998e-06 4.9225e-06 0.000125522
0.00185468 0.000623367 -1.54562e-06
0.000623367 0.000671624 -1.40459e-06
-1.54562e-06 -1.40459e-06 0.000258157
0.00103071 0.000382333 -1.76002e-06
0.000382333 0.000182535 -2.59359e-06
-1.76002e-06 -2.59359e-06 -0.000124447
0.00140361 0.000403331 -9.15563e-06
0.000403331 0.000519314 -3.03331e-06
-9.15563e-06 -3.03331e-06 0.000239667
0.000421024 0.000201261 1.69326e-06
0.000201261 -8.48541e-05 -6.07218e-07
1.69326e-06 -6.07218e-07 -0.000312855
0.000756125 0.000240274 -3.29024e-06
0.000240274 0.000173604 -7.20736e-06
-3.29024e-06 -7.20736e-06 -6.75656e-05
0.000111388 9.63693e-05 -1.36838e-07
9.63693e-05 -0.000215713 2.49776e-06
-1.36838e-07 2.49776e-06 -0.000435753
0.000644083 0.000147551 1.06158e-06
0.000147551 0.000142049 -6.39704e-07
1.06158e-06 -6.39704e-07 -7.99928e-05
0.000703426 9.97464e-05 -1.8386e-05
9.97464e-05 0.000119861 -1.84659e-05
-1.8386e-05 -1.84659e-05 3.26164e-05
0.000159599 7.36788e-05 -2.49305e-06
7.36788e-05 -0.00014532 1.09647e-05
-2.49305e-06 1.09647e-05 -0.000332566
0.00052334 6.48047e-05 2.83427e-07
6.48047e-05 2.7203e-05 -1.76014e-07
2.83427e-07 -1.76014e-07 -4.08613e-05
0.00413563 -0.00013245 -0.000120303
-0.00013245 0.00235569 -1.11457e-05
-0.000120303 -1.11457e-05 0.00234956
0.00341938 -0.000132524 -1.22195e-05
-0.000132524 0.00188808 1.06193e-06
-1.22195e-05 1.06193e-06 0.00188322
0.000360299 5.19584e-05 7.10485e-06
5.19584e-05 -6.93323e-05 1.41785e-05
7.10485e-06 1.41785e-05 -0.000123183
0.00295983 -0.000111134 4.59164e-05
-0.000111134 0.00158301 5.52134e-06
4.59164e-05 5.52134e-06 0.00158355
0.00378154 0.000217769 9.47697e-05
0.000217769 -0.0015227 3.11099e-05
9.47697e-05 3.11099e-05 0.00020555
0.00573796 -0.000902102 0.000209635
-0.000902102 -0.00483141 9.98239e-05
0.000209635 9.98239e-05 -0.00561137
0.0138851 -0.00380869 -0.000260488
-0.00380869 0.00601354 -0.000113454
-0.000260488 -0.000113454 0.00382927
0.0015814 0.000710078 5.93513e-06
0.000710078 0.000101339 9.7648e-06
5.93513e-06 9.7648e-06 -0.00027926
0.00488346 0.000942859 -1.40343e-05
0.000942859 0.00268078 -2.9636e-06
-1.40343e-05 -2.9636e-06 0.0021593
0.000537096 0.000556273 -1.04274e-05
0.000556273 -9.93407e-05 -7.53563e-06
-1.04274e-05 -7.53563e-06 -0.0005461
0.00155147 0.000797466 1.36806e-06
0.000797466 0.000473535 -3.35694e-06
1.36806e-06 -3.35694e-06 2.2698e-05
0.00179784 0.000769794 -1.61638e-06
0.000769794 0.000466094 3.92559e-06
-1.61638e-06 3.92559e-06 -1.59738e-06
0.00164946 0.000836406 2.26743e-05
0.000836406 0.000309701 1.39049e-05
2.26743e-05 1.39049e-05 -9.30715e-05
0.00246206 0.000942679 -4.43759e-05
0.000942679 0.00095413 -3.26466e-06
-4.43759e-05 -3.26466e-06 0.000519007
0.00057012 0.000710364 1.40517e-05
0.000710364 -9.19123e-05 -3.70111e-05
1.40517e-05 -3.70111e-05 -0.000393748
0.0019719 0.000965258 7.19762e-08
0.000965258 0.000455323 -1.6559e-06
7.19762e-08 -1.6559e-06 0.000103682
0.00239044 0.00101007 9.99945e-06
0.00101007 0.000458043 -4.996e-06
9.99945e-06 -4.996e-06 0.000373832
0.00235922 0.00101376 1.81864e-05
0.00101376 0.000398447 -3.46505e-06
1.81864e-05 -3.46505e-06 3.51842e-05
0.00195996 0.00085012 2.70577e-05
0.00085012 0.00025192 2.41882e-05
2.70577e-05 2.41882e-05 4.82132e-05
0.000708217 0.00090178 -7.85431e-06
0.00090178 -0.000330963 -6.39213e-06
-7.85431e-06 -6.39213e-06 -0.000626932
0.000378908 0.000838969 -2.26597e-05
0.000838969 -0.000548928 -2.5395e-05
-2.26597e-05 -2.5395e-05 -0.000621094
0.00165948 0.000925131 5.4905e-05
0.000925131 -0.00114863 3.70928e-05
5.4905e-05 3.70928e-05 -0.000633907
0.00613679 0.00215481 -9.90583e-05
0.00215481 -0.00159082 -3.08195e-05
-9.90583e-05 -3.08195e-05 0.000230814
0.00439003 0.00260266 0.000632514
0.00260266 -0.00520827 0.000157057
0.000632514 0.000157057 -0.00664004
0.0026054 0.00230442 -0.0002119
0.00230442 -0.000560363 -8.75445e-05
-0.0002119 -8.75445e-05 0.000384159
0.00492651 0.00202784 -3.11163e-05
0.00202784 0.000794789 -9.67017e-06
-3.11163e-05 -9.67017e-06 0.000662798
0.00559316 0.0019594 -0.000164088
0.0019594 0.00182868 -5.12156e-05
-0.000164088 -5.12156e-05 0.00138723
0.00314896 -0.000244115 -5.14707e-05
-0.000244115 -0.000487848 -1.88626e-05
-5.14707e-05 -1.88626e-05 -3.82866e-05
-0.000636763 -0.000357766 0.000102289
-0.000357766 -0.00162832 2.34023e-05
0.000102289 2.34023e-05 -0.000373649
0.00432451 0.000710297 0.000259965
0.000710297 -0.00542486 -1.85266e-05
0.000259965 -1.85266e-05 -0.00560412
0.000661066 -0.000928879 -5.72913e-05
-0.000928879 -0.00133227 7.81549e-05
-5.72913e-05 7.81549e-05 -0.000951275
0.00691855 -0.000998366 -0.000184005
-0.000998366 9.9617e-05 5.50589e-05
-0.000184005 5.50589e-05 0.000738768
0.0028011 -0.000769249 -2.46121e-05
-0.000769249 -0.000515946 1.18061e-05
-2.46121e-05 1.18061e-05 4.79025e-06
0.00453217 -0.000552923 -1.12327e-05
-0.000552923 0.000451018 -2.86241e-06
-1.12327e-05 -2.86241e-06 0.000761993
0.00314885 -0.000423087 7.09736e-05
-0.000423087 6.55643e-05 -1.07854e-05
7.09736e-05 -1.07854e-05 0.000432666
0.0038067 -0.000120196 5.38835e-05
-0.000120196 0.00103393 -1.54292e-07
5.38835e-05 -1.54292e-07 0.00108242
0.000461701 -0.000577236 -2.10842e-05
-0.000577236 -0.00117659 1.23263e-05
-2.10842e-05 1.23263e-05 -0.000876628
0.00232953 -0.00057919 -2.89591e-06
-0.00057919 -0.000327408 1.01037e-06
-2.89591e-06 1.01037e-06 -5.23505e-05
0.00250888 -0.000474383 3.60819e-06
-0.000474383 -0.000205179 -1.16367e-06
3.60819e-06 -1.16367e-06 2.50453e-05
0.00238041 -0.000685292 -1.35559e-06
-0.000685292 -7.63719e-05 2.79421e-06
-1.35559e-06 2.79421e-06 -9.2231e-05
0.00248634 -0.000592683 -8.82575e-09
-0.000592683 2.81301e-05 -5.53731e-07
-8.82575e-09 -5.53731e-07 4.52784e-05
0.00236893 -0.000462383 -1.28111e-06
-0.000462383 -3.6945e-05 -1.77739e-07
-1.28111e-06 -1.77739e-07 -1.03852e-05
0.00227812 -0.000598002 -7.83337e-08
-0.000598002 4.95587e-05 5.2613e-07
-7.83337e-08 5.2613e-07 -1.00973e-05
0.00230455 -0.000540806 -8.17891e-07
-0.000540806 5.21662e-05 7.15945e-08
-8.17891e-07 7.15945e-08 -2.67593e-06
0.00219801 -0.000454766 -1.31919e-06
-0.000454766 6.20441e-05 9.98903e-07
-1.31919e-06 9.98903e-07 -8.92306e-06
0.00226373 -0.000585463 3.20138e-07
-0.000585463 0.000167372 -1.63378e-06
3.20138e-07 -1.63378e-06 4.33334e-05
0.0021514 -0.000523404 9.66114e-07
-0.000523404 0.000113947 -4.48162e-07
9.66114e-07 -4.48162e-07 -1.45512e-05
0.00212798 -0.000480521 -1.47764e-06
-0.000480521 0.000155464 5.61717e-07
-1.47764e-06 5.61717e-07 4.34277e-06
0.00209548 -0.000512315 -1.23438e-06
-0.000512315 0.000175659 6.91638e-07
-1.23438e-06 6.91638e-07 1.02538e-05
0.00217793 -0.000512782 -1.58977e-06
-0.000512782 0.000243869 6.416e-07
-1.58977e-06 6.416e-07 5.93555e-05
0.00221922 -0.000504683 -1.45191e-06
-0.000504683 0.00029125 -1.655e-06
-1.45191e-06 -1.655e-06 8.60032e-05
0.00212107 -0.000536133 3.19654e-06
-0.000536133 0.000227667 2.37641e-06
3.19654e-06 2.37641e-06 9.31984e-06
0.00213852 -0.000533236 2.18095e-07
-0.000533236 0.000282066 -3.32437e-07
2.18095e-07 -3.32437e-07 4.18852e-05
0.00193798 -0.000469449 -5.88459e-06
-0.000469449 0.000262113 3.14735e-07
-5.88459e-06 3.14735e-07 -5.22202e-07
0.00115128 -0.000336529 -2.05314e-05
-0.000336529 3.53274e-05 8.92195e-06
-2.05314e-05 8.92195e-06 -0.000215376
0.00182887 -0.000525032 -9.80184e-07
-0.000525032 0.000240182 -7.00013e-07
-9.80184e-07 -7.00013e-07 -6.82044e-05
0.00199949 -0.000590289 2.26938e-06
-0.000590289 0.00022582 1.4088e-06
2.26938e-06 1.4088e-06 -7.76761e-05
0.000412229 -0.000247353 -2.3455e-05
-0.000247353 -0.000142801 1.96632e-05
-2.3455e-05 1.96632e-05 -0.000298888
0.000964723 -0.000331388 2.18011e-06
-0.000331388 -1.09963e-05 -1.66321e-08
2.18011e-06 -1.66321e-08 -0.000269848
0.00184212 -0.000591464 9.95278e-06
-0.000591464 0.000360337 -4.98372e-07
9.95278e-06 -4.98372e-07 -3.8473e-07
0.00728358 2.50267e-05 -0.000286791
2.50267e-05 0.00428918 2.16565e-05
-0.000286791 2.16565e-05 0.00429662
0.000358404 -0.000255729 -6.54301e-07
-0.000255729 -0.000154131 1.36219e-06
-6.54301e-07 1.36219e-06 -0.000308608
0.000672521 -0.000295696 1.26096e-05
-0.000295696 -8.56003e-05 -7.7945e-06
1.26096e-05 -7.7945e-06 -0.000340834
0.00677865 5.54557e-05 -4.51531e-06
5.54557e-05 0.00399766 -1.46756e-07
-4.51531e-06 -1.46756e-07 0.00399855
0.000638248 -0.000253425 2.57316e-05
-0.000253425 3.42777e-05 -2.10459e-05
2.57316e-05 -2.10459e-05 -0.000101611
0.00617868 0.000119773 0.000223164
0.000119773 0.00366217 -2.71238e-05
0.000223164 -2.71238e-05 0.00364584
0.00163893 0.000648854 -2.32005e-06
0.000648854 0.000206371 6.77478e-06
-2.32005e-06 6.77478e-06 -0.000174203
0.00178468 0.00069259 -1.61472e-06
0.00069259 0.00046806 6.59851e-07
-1.61472e-06 6.59851e-07 3.47847e-05
0.0012969 0.000496297 -8.02403e-06
0.000496297 0.000215555 7.80198e-08
-8.02403e-06 7.80198e-08 -0.000130076
0.0011788 0.000544486 -6.04994e-06
0.000544486 0.000211353 -2.22955e-06
-6.04994e-06 -2.22955e-06 -0.00017594
0.00117279 0.000373104 -4.10685e-06
0.000373104 0.000252206 -2.02949e-06
-4.10685e-06 -2.02949e-06 -4.57191e-05
0.00100673 0.000250729 -9.96048e-06
0.000250729 0.000263915 -3.19999e-06
-9.96048e-06 -3.19999e-06 2.58431e-05
0.000248505 0.000177582 -3.32069e-06
0.000177582 -0.00020243 -1.36242e-06
-3.32069e-06 -1.36242e-06 -0.000428978
0.000771368 0.000180024 -1.60782e-07
0.000180024 0.000159729 -4.68089e-08
-1.60782e-07 -4.68089e-08 -6.33615e-05
0.000490413 0.000148046 -2.66771e-05
0.000148046 -4.20824e-05 -1.80503e-05
-2.66771e-05 -1.80503e-05 -0.000138394
0.000471277 0.000116055 9.61859e-07
0.000116055 2.08978e-05 1.12496e-05
9.61859e-07 1.12496e-05 -0.000187812
0.000471024 9.24438e-05 -9.98474e-07
9.24438e-05 -2.01526e-05 -2.93085e-07
-9.98474e-07 -2.93085e-07 -0.000102006
0.00475828 -0.000154869 -0.000146743
-0.000154869 0.00276803 -1.48962e-05
-0.000146743 -1.48962e-05 0.00275267
0.000269728 6.87998e-05 1.09956e-05
6.87998e-05 -0.000127334 1.64513e-05
1.09956e-05 1.64513e-05 -0.000192624
0.0039046 -0.00015198 -1.15321e-05
-0.00015198 0.00221333 1.23965e-06
-1.15321e-05 1.23965e-06 0.00220179
0.00325534 -0.000139224 5.47912e-05
-0.000139224 0.0017833 6.26247e-06
5.47912e-05 6.26247e-06 0.00177612
0.000785552 0.000208662 -3.73863e-06
0.000208662 -0.0018728 8.68335e-06
-3.73863e-06 8.68335e-06 -0.00101836
0.00497957 0.000110612 6.82221e-05
0.000110612 -0.00102498 2.22002e-05
6.82221e-05 2.22002e-05 0.000621463
0.0151607 0.000848345 6.04106e-07
0.000848345 0.00191853 2.94579e-05
6.04106e-07 2.94579e-05 0.00197451
0.00200967 0.000822968 -5.58568e-07
0.000822968 0.000325297 6.09091e-06
-5.58568e-07 6.09091e-06 -4.5884e-05
0.00221574 0.000778441 8.95254e-07
0.000778441 0.000292049 4.68602e-06
8.95254e-07 4.68602e-06 -3.64922e-05
0.0015978 0.000713419 -5.83629e-07
0.000713419 0.000122449 -4.17569e-06
-5.83629e-07 -4.17569e-06 -0.000254396
0.00298485 0.00097866 -1.56978e-05
0.00097866 0.00132079 2.15879e-07
-1.56978e-05 2.15879e-07 0.000834374
0.00213467 0.000808413 -5.49968e-06
0.000808413 0.000697963 -1.05125e-05
-5.49968e-06 -1.05125e-05 0.000214172
0.00214521 0.000921556 7.82465e-06
0.000921556 0.000556777 3.92279e-06
7.82465e-06 3.92279e-06 0.00014346
0.00217621 0.000922238 -1.51121e-06
0.000922238 0.000201894 -2.95804e-06
-1.51121e-06 -2.95804e-06 -0.000136042
0.00226152 0.00102905 -1.6231e-05
0.00102905 0.000566788 5.0153e-06
-1.6231e-05 5.0153e-06 0.000210214
0.000806246 0.000844165 -1.89526e-05
0.000844165 -0.000504034 2.42551e-05
-1.89526e-05 2.42551e-05 -0.000448602
0.00277365 0.00106745 3.74659e-07
0.00106745 0.000636548 3.15205e-06
3.74659e-07 3.15205e-06 0.00026444
0.00283125 0.000914717 -4.33605e-06
0.000914717 0.000435885 4.98299e-06
-4.33605e-06 4.98299e-06 0.00019676
0.0014021 0.000433476 4.46686e-05
0.000433476 -0.00026477 1.57204e-05
4.46686e-05 1.57204e-05 -0.000174008
0.000388029 0.000699902 8.66228e-06
0.000699902 -0.000571878 -5.08585e-06
8.66228e-06 -5.08585e-06 -0.000758036
0.00107103 0.000942148 -3.61717e-05
0.000942148 -0.000134766 -4.83374e-06
-3.61717e-05 -4.83374e-06 -0.000441713
0.00333058 0.00107437 1.33955e-05
0.00107437 -0.000214902 9.79943e-06
1.33955e-05 9.79943e-06 0.000144853
0.00782046 0.00185551 -4.27384e-05
0.00185551 -0.000746051 -4.28563e-05
-4.27384e-05 -4.28563e-05 0.000674324
0.00481289 0.0017132 -5.41376e-05
0.0017132 0.00119153 -6.62465e-05
-5.41376e-05 -6.62465e-05 0.00112684
0.00271319 -0.000100491 4.95888e-05
-0.000100491 0.000193086 5.84666e-06
4.95888e-05 5.84666e-06 0.000410998
0.00288619 -0.000234776 -7.27153e-05
-0.000234776 -0.000661998 5.0375e-06
-7.27153e-05 5.0375e-06 -0.000111728
0.00456129 0.000445804 2.2968e-05
0.000445804 -0.00019258 -2.14702e-05
2.2968e-05 -2.14702e-05 0.000711533
0.000794547 -0.000645586 -7.40682e-05
-0.000645586 -0.00161798 5.46655e-05
-7.40682e-05 5.46655e-05 -0.00104578
0.00270014 -0.000586654 -9.9822e-05
-0.000586654 -0.000532986 2.17589e-06
-9.9822e-05 2.17589e-06 -0.000324658
0.00278633 -0.000411339 7.92627e-06
-0.000411339 -8.65729e-05 -2.47312e-06
7.92627e-06 -2.47312e-06 0.000312219
0.00255709 -0.000107912 -1.79198e-05
-0.000107912 0.000213614 7.84912e-07
-1.79198e-05 7.84912e-07 0.000291312
0.00257111 -0.00026665 1.47087e-05
-0.00026665 -4.8123e-05 -1.80236e-06
1.47087e-05 -1.80236e-06 0.000129429
0.00235618 2.36511e-05 1.02591e-05
2.36511e-05 -0.000161875 1.7786e-06
1.02591e-05 1.7786e-06 -6.40181e-05
0.00238408 -0.000612117 -1.91057e-05
-0.000612117 -0.000310071 5.03373e-06
-1.91057e-05 5.03373e-06 -6.09201e-05
0.0025367 -0.000494066 -2.65251e-06
-0.000494066 -0.000189566 8.29066e-07
-2.65251e-06 8.29066e-07 1.66122e-06
0.00244104 -0.000341686 -7.12334e-07
-0.000341686 -0.000111965 -7.40798e-07
-7.12334e-07 -7.40798e-07 3.21998e-06
0.00246616 -0.000576563 -3.22934e-06
-0.000576563 3.61585e-05 5.09892e-07
-3.22934e-06 5.09892e-07 6.08816e-05
0.00238186 -0.000460865 8.599e-08
-0.000460865 -1.61868e-05 -1.86852e-07
8.599e-08 -1.86852e-07 5.3878e-06
0.00227921 -0.000380243 -5.79922e-07
-0.000380243 6.01161e-06 3.68373e-07
-5.79922e-07 3.68373e-07 3.66518e-06
0.00229509 -0.00054527 -3.46579e-07
-0.00054527 5.74182e-05 -8.31965e-07
-3.46579e-07 -8.31965e-07 3.16246e-06
0.00220601 -0.000454337 4.55167e-07
-0.000454337 6.23498e-05 -8.06081e-08
4.55167e-07 -8.06081e-08 -8.49245e-06
0.00214503 -0.000411955 -2.55214e-06
-0.000411955 9.55393e-05 1.11906e-06
-2.55214e-06 1.11906e-06 -3.35542e-07
0.00213722 -0.00052367 2.32005e-06
-0.00052367 0.000102027 -1.59526e-06
2.32005e-06 -1.59526e-06 -2.68324e-05
0.00210039 -0.000478241 7.66561e-07
-0.000478241 0.00013344 -4.30294e-07
7.66561e-07 -4.30294e-07 -1.77064e-05
0.00208883 -0.000449516 -1.82021e-06
-0.000449516 0.000166496 -8.64459e-07
-1.82021e-06 -8.64459e-07 -5.50399e-06
0.00210659 -0.000506212 -2.726e-07
-0.000506212 0.000190939 1.30431e-06
-2.726e-07 1.30431e-06 1.01839e-05
0.00218296 -0.000503352 -3.4414e-07
-0.000503352 0.000269056 -1.55933e-07
-3.4414e-07 -1.55933e-07 6.42804e-05
0.00193256 -0.000434922 -4.63987e-06
-0.000434922 0.000208057 2.08148e-07
-4.63987e-06 2.08148e-07 -2.61772e-05
0.00213769 -0.000535045 2.24528e-06
-0.000535045 0.000281768 2.28038e-06
2.24528e-06 2.28038e-06 4.25134e-05
0.00197379 -0.000474394 -7.8911e-07
-0.000474394 0.000284216 -2.58098e-08
-7.8911e-07 -2.58098e-08 2.2563e-05
0.00116507 -0.000295585 -1.77954e-05
-0.000295585 4.00415e-06 8.18688e-06
-1.77954e-05 8.18688e-06 -0.000222968
0.000259798 -0.000208186 -1.91741e-05
-0.000208186 -0.000257884 1.87549e-05
-1.91741e-05 1.87549e-05 -0.000402425
0.00112832 -0.00033393 4.14648e-07
-0.00033393 2.22441e-05 -3.0363e-08
4.14648e-07 -3.0363e-08 -0.000227569
0.00183469 -0.000524467 6.24118e-06
-0.000524467 0.000249626 -9.98811e-07
6.24118e-06 -9.98811e-07 -6.18135e-05
0.00764114 -6.52509e-05 -0.000332589
-6.52509e-05 0.00448883 2.67706e-05
-0.000332589 2.67706e-05 0.00450541
0.00033887 -0.000240669 -7.01022e-07
-0.000240669 -0.000198668 1.35344e-06
-7.01022e-07 1.35344e-06 -0.000348809
0.000858213 -0.000325834 1.76703e-05
-0.000325834 -7.94655e-05 -7.96099e-06
1.76703e-05 -7.96099e-06 -0.000339381
0.00750722 -1.15044e-05 -1.23501e-06
-1.15044e-05 0.00442678 1.00512e-06
-1.23501e-06 1.00512e-06 0.0044364
0.000407205 -0.000256874 2.40191e-05
-0.000256874 -0.000129097 -2.13387e-05
2.40191e-05 -2.13387e-05 -0.000283532
0.00711453 1.12448e-05 0.000298413
1.12448e-05 0.00419979 -2.85396e-05
0.000298413 -2.85396e-05 0.00420598
0.00193772 0.000699815 3.4814e-07
0.000699815 0.00024195 7.11912e-06
3.4814e-07 7.11912e-06 -0.00010308
0.00172638 0.000663875 3.59389e-08
0.000663875 0.000265815 6.86042e-07
3.59389e-08 6.86042e-07 -0.000115886
0.00169166 0.000564284 -7.68425e-06
0.000564284 0.000334658 1.99963e-06
-7.68425e-06 1.99963e-06 -1.72956e-05
0.00155307 0.00066837 1.36821e-06
0.00066837 0.000319068 -3.72714e-06
1.36821e-06 -3.72714e-06 -0.000110069
0.00135128 0.000497165 -8.18984e-07
0.000497165 0.000254856 2.31031e-07
-8.18984e-07 2.31031e-07 -9.04031e-05
0.00101902 0.000274342 -1.28697e-05
0.000274342 0.000171753 -4.28129e-06
-1.28697e-05 -4.28129e-06 -6.35848e-05
0.00143517 0.000373651 2.34497e-06
0.000373651 0.000407991 -7.48095e-07
2.34497e-06 -7.48095e-07 0.000116611
0.000537868 0.000209028 1.06678e-06
0.000209028 -3.50153e-05 7.65963e-07
1.06678e-06 7.65963e-07 -0.000264678
0.000452131 0.000215753 -2.97277e-05
0.000215753 -8.1062e-05 -2.01474e-05
-2.97277e-05 -2.01474e-05 -0.000196074
0.000418769 0.000135069 1.77082e-06
0.000135069 -5.35329e-05 7.16421e-06
1.77082e-06 7.16421e-06 -0.000282347
0.000542937 0.000129905 -6.41948e-08
0.000129905 -3.51415e-06 -7.21601e-07
-6.41948e-08 -7.21601e-07 -9.92592e-05
0.00579078 -0.0001747 -0.00018965
-0.0001747 0.00344011 -2.11297e-05
-0.00018965 -2.11297e-05 0.0034139
0.00039071 8.68704e-05 1.58624e-05
8.68704e-05 -6.40767e-05 1.87203e-05
1.58624e-05 1.87203e-05 -0.000144447
0.00460177 -0.000182752 -1.16648e-05
-0.000182752 0.00267625 1.42843e-06
-1.16648e-05 1.42843e-06 0.00265382
0.00376695 -0.000167928 7.74602e-05
-0.000167928 0.00212847 7.98198e-06
7.74602e-05 7.98198e-06 0.0021123
0.00158036 0.000216235 3.55137e-05
0.000216235 -0.000356459 1.91513e-05
3.55137e-05 1.91513e-05 -7.92639e-05
0.0025186 0.000272667 -2.63786e-05
0.000272667 -0.00126934 -2.29915e-06
-2.63786e-05 -2.29915e-06 -0.000348711
0.00452718 0.000412662 0.00024063
0.000412662 -0.00171266 7.42688e-05
0.00024063 7.42688e-05 0.000368191
0.0025712 0.000829573 -7.66386e-06
0.000829573 0.000450594 6.29175e-07
-7.66386e-06 6.29175e-07 0.000137052
0.0019209 0.000837907 -7.59637e-06
0.000837907 0.000251105 -5.4704e-06
-7.59637e-06 -5.4704e-06 -0.000117406
0.0022499 0.000627644 2.01906e-06
0.000627644 0.00018933 4.88107e-06
2.01906e-06 4.88107e-06 -4.77005e-05
0.00225364 0.000771479 1.53402e-06
0.000771479 0.000319474 5.04852e-07
1.53402e-06 5.04852e-07 -6.84327e-06
0.00157187 0.000712641 4.16532e-06
0.000712641 0.000115866 -1.25079e-05
4.16532e-06 -1.25079e-05 -0.000256308
0.00238223 0.000714311 -2.3227e-06
0.000714311 0.000126618 9.08254e-07
-2.3227e-06 9.08254e-07 -7.35332e-05
0.00273683 0.00101778 -7.80519e-06
0.00101778 0.000862037 -4.91115e-06
-7.80519e-06 -4.91115e-06 0.000434119
0.0025337 0.000935315 1.16137e-06
0.000935315 0.00042329 2.31247e-07
1.16137e-06 2.31247e-07 7.89629e-05
0.00213966 0.000457716 -1.4851e-05
0.000457716 -0.000195346 -1.01145e-06
-1.4851e-05 -1.01145e-06 -0.000162357
0.00347968 0.00116241 -6.76566e-06
0.00116241 0.0010199 8.47417e-06
-6.76566e-06 8.47417e-06 0.000642074
0.00259019 0.000892054 -1.04949e-07
0.000892054 0.000302479 -6.50691e-07
-1.04949e-07 -6.50691e-07 6.2154e-05
0.00068794 0.000426938 -3.84254e-06
0.000426938 -0.000684991 1.66733e-06
-3.84254e-06 1.66733e-06 -0.000565893
-0.00144028 0.000520186 -2.55222e-05
0.000520186 -0.00151772 -1.10448e-05
-2.55222e-05 -1.10448e-05 -0.00166945
0.00380873 0.00117945 -0.000136799
0.00117945 3.47926e-05 -4.56591e-05
-0.000136799 -4.56591e-05 0.000271543
0.00233497 0.000130451 -2.06617e-06
0.000130451 -0.000176376 -1.40422e-06
-2.06617e-06 -1.40422e-06 -5.17743e-05
0.00283716 -8.00228e-05 -1.48877e-06
-8.00228e-05 0.000379008 -4.35761e-07
-1.48877e-06 -4.35761e-07 0.000520174
0.00268215 -0.000269905 -0.00010373
-0.000269905 -0.000784672 3.37759e-07
-0.00010373 3.37759e-07 -0.000152943
0.00196833 -0.000384991 -7.56141e-05
-0.000384991 -0.000511974 8.4548e-06
-7.56141e-05 8.4548e-06 -8.48433e-05
0.00162269 -0.000114503 -1.78829e-05
-0.000114503 -0.000409275 2.06937e-06
-1.78829e-05 2.06937e-06 -0.000305095
0.00252844 -0.000271149 2.08249e-06
-0.000271149 -9.56677e-05 -1.72306e-06
2.08249e-06 -1.72306e-06 0.000108994
0.00248087 3.03823e-05 -2.85349e-06
3.03823e-05 -0.000107818 1.85215e-08
-2.85349e-06 1.85215e-08 -1.04349e-05
0.00247069 -7.67874e-05 -3.98767e-07
-7.67874e-05 -0.000117522 -8.81698e-07
-3.98767e-07 -8.81698e-07 1.68368e-05
0.00254973 -0.000510105 -4.13826e-06
-0.000510105 -0.000175808 4.97914e-07
-4.13826e-06 4.97914e-07 -2.39232e-05
0.0023885 -0.000328739 3.57311e-07
-0.000328739 -0.000126171 -2.02178e-07
3.57311e-07 -2.02178e-07 -1.94505e-05
0.00232278 -0.000251827 3.1198e-07
-0.000251827 -3.35184e-05 -2.34125e-07
3.1198e-07 -2.34125e-07 3.37587e-05
0.00239462 -0.000459588 1.41697e-07
-0.000459588 5.27872e-06 1.52461e-07
1.41697e-07 1.52461e-07 2.16189e-05
0.00227053 -0.000376762 1.39435e-07
-0.000376762 3.92856e-06 2.02834e-07
1.39435e-07 2.02834e-07 3.39694e-07
0.00216165 -0.000318207 -2.65608e-06
-0.000318207 4.56204e-05 9.10331e-07
-2.65608e-06 9.10331e-07 9.37826e-06
0.00221381 -0.000453837 1.99412e-06
-0.000453837 6.23566e-05 -1.06017e-06
1.99412e-06 -1.06017e-06 -8.35802e-06
0.00214482 -0.000412326 5.86119e-07
-0.000412326 9.18259e-05 -1.70744e-07
5.86119e-07 -1.70744e-07 -4.42509e-06
0.00214719 -0.000386763 -2.60605e-06
-0.000386763 0.000159653 1.96624e-07
-2.60605e-06 1.96624e-07 2.58469e-05
0.00207198 -0.000475969 2.38149e-06
-0.000475969 0.000110965 -1.18143e-06
2.38149e-06 -1.18143e-06 -4.01988e-05
0.00210893 -0.000450987 -2.07169e-07
-0.000450987 0.000178873 -2.30756e-07
-2.07169e-07 -2.30756e-07 6.25179e-06
0.0019769 -0.000393477 -2.9303e-06
-0.000393477 0.000185562 -2.7246e-07
-2.9303e-06 -2.7246e-07 -1.76741e-05
0.00214771 -0.000501933 1.19741e-06
-0.000501933 0.000247285 1.27616e-06
1.19741e-06 1.27616e-06 4.30632e-05
0.00195294 -0.000436233 -6.30185e-07
-0.000436233 0.000222478 1.99479e-07
-6.30185e-07 1.99479e-07 -1.15643e-05
0.00117158 -0.000259795 -1.43011e-05
-0.000259795 -1.36546e-05 6.80577e-06
-1.43011e-05 6.80577e-06 -0.000222389
0.00201402 -0.000479534 4.96332e-06
-0.000479534 0.00030934 -1.01152e-07
4.96332e-06 -1.01152e-07 4.86779e-05
0.00119416 -0.000296786 9.24347e-08
-0.000296786 1.85692e-05 1.50319e-07
9.24347e-08 1.50319e-07 -0.000207643
0.00282416 -0.000205 -5.29649e-05
-0.000205 0.00134258 1.36622e-05
-5.29649e-05 1.36622e-05 0.00122922
0.00247996 -0.000118572 -0.000281622
-0.000118572 0.00122016 3.99656e-05
-0.000281622 3.99656e-05 0.00120241
0.00161022 -0.000223719 -1.53024e-05
-0.000223719 0.000590692 -1.26837e-08
-1.53024e-05 -1.26837e-08 0.000456475
0.00113779 -0.000332905 1.94715e-05
-0.000332905 3.23857e-05 -8.3275e-06
1.94715e-05 -8.3275e-06 -0.000216613
0.00761593 -7.98951e-05 -8.88776e-06
-7.98951e-05 0.00448226 1.79973e-06
-8.88776e-06 1.79973e-06 0.00449486
0.000185981 -0.000265017 2.53068e-05
-0.000265017 -0.000291332 -2.00349e-05
2.53068e-05 -2.00349e-05 -0.000444305
0.00767637 -2.98009e-05 0.000321599
-2.98009e-05 0.00453899 -3.23494e-05
0.000321599 -3.23494e-05 0.00454465
0.00210074 0.00047957 -1.46691e-07
0.00047957 9.42416e-05 8.22927e-07
-1.46691e-07 8.22927e-07 -7.84335e-05
0.00222258 0.00063604 3.45431e-06
0.00063604 0.000316189 6.25834e-06
3.45431e-06 6.25834e-06 4.16234e-05
0.00220689 0.000720683 4.68314e-07
0.000720683 0.0004064 1.42747e-07
4.68314e-07 1.42747e-07 6.18564e-05
0.00190348 0.000590047 -7.41472e-06
0.000590047 0.000350091 2.67673e-06
-7.41472e-06 2.67673e-06 1.45e-05
0.00184438 0.000683847 5.91012e-06
0.000683847 0.00034059 -4.77416e-06
5.91012e-06 -4.77416e-06 -4.3764e-05
0.00164371 0.000565102 -3.18499e-07
0.000565102 0.000294823 8.48319e-07
-3.18499e-07 8.48319e-07 -5.96737e-05
0.000754522 0.000301334 -1.86036e-05
0.000301334 -9.80726e-05 -5.04297e-06
-1.86036e-05 -5.04297e-06 -0.000342782
0.00137947 0.000498462 8.34777e-06
0.000498462 0.000272294 1.09013e-06
8.34777e-06 1.09013e-06 -7.32886e-05
0.000661047 0.000254943 6.30649e-07
0.000254943 -4.67476e-05 -3.8207e-09
6.30649e-07 -3.8207e-09 -0.00027691
0.0005578 0.000283781 -2.98379e-05
0.000283781 -2.66065e-05 -2.15e-05
-2.98379e-05 -2.15e-05 -0.000169717
0.000370452 0.000191803 6.68313e-06
0.000191803 -0.000147483 1.90359e-06
6.68313e-06 1.90359e-06 -0.000370087
0.000432063 0.000193011 2.93959e-06
0.000193011 -9.74303e-05 -1.26623e-06
2.93959e-06 -1.26623e-06 -0.000208586
0.00681548 -0.000107891 -0.000253086
-0.000107891 0.00405438 -2.61928e-05
-0.000253086 -2.61928e-05 0.00403979
0.000401543 0.000121319 2.27381e-05
0.000121319 -9.02982e-05 1.86088e-05
2.27381e-05 1.86088e-05 -0.000180327
0.00535728 -0.000178375 -1.85889e-06
-0.000178375 0.00315169 -1.07086e-06
-1.85889e-06 -1.07086e-06 0.00312947
0.00434394 -0.00019909 0.00010112
-0.00019909 0.00251718 1.10126e-05
0.00010112 1.10126e-05 0.00249013
0.00237797 0.000231181 -7.42849e-06
0.000231181 -0.000198616 -1.69807e-06
-7.42849e-06 -1.69807e-06 -3.1431e-05
0.00193785 0.000168249 1.62939e-05
0.000168249 -0.000324845 -3.51063e-06
1.62939e-05 -3.51063e-06 2.85565e-05
0.00507235 0.000390758 -0.000122369
0.000390758 -0.000185344 -1.34622e-06
-0.000122369 -1.34622e-06 0.000794259
0.00229472 0.000578429 -2.42482e-06
0.000578429 0.000144322 1.25737e-06
-2.42482e-06 1.25737e-06 -3.13289e-05
0.00232074 0.000790912 -4.38765e-06
0.000790912 0.000345174 -4.02124e-07
-4.38765e-06 -4.02124e-07 3.83516e-05
0.00186511 0.000854905 -2.22219e-06
0.000854905 0.000198702 -1.12992e-05
-2.22219e-06 -1.12992e-05 -0.000166894
0.0023464 0.00062082 2.5513e-06
0.00062082 0.000267506 1.42316e-06
2.5513e-06 1.42316e-06 3.34379e-05
0.00229565 0.000765201 -5.97548e-07
0.000765201 0.000349865 -5.86994e-06
-5.97548e-07 -5.86994e-06 2.5556e-05
0.00252841 0.00046244 -6.18123e-08
0.00046244 6.0058e-06 3.46385e-07
-6.18123e-08 3.46385e-07 2.4903e-05
0.00236103 0.000718413 -8.11233e-07
0.000718413 0.000129517 3.58094e-08
-8.11233e-07 3.58094e-08 -7.00614e-05
0.00280119 0.000938896 -7.70625e-06
0.000938896 0.00059568 -2.99627e-06
-7.70625e-06 -2.99627e-06 0.000245668
0.00209367 0.000441706 1.02296e-07
0.000441706 -0.000192121 -3.18345e-07
1.02296e-07 -3.18345e-07 -0.000156155
0.00230492 0.000859826 1.45774e-05
0.000859826 0.00013308 1.8698e-06
1.45774e-05 1.8698e-06 -0.000105412
-0.000106868 0.00038218 -4.23497e-05
0.00038218 -0.00115798 -1.80098e-05
-4.23497e-05 -1.80098e-05 -0.00100524
0.00244926 9.7883e-05 -1.74798e-07
9.7883e-05 -5.9811e-05 1.04905e-07
-1.74798e-07 1.04905e-07 4.13016e-05
0.0022969 0.000135544 -7.58678e-07
0.000135544 -0.000201403 8.4729e-07
-7.58678e-07 8.4729e-07 -7.95641e-05
0.00272935 -5.70557e-05 -5.08876e-05
-5.70557e-05 0.000398007 -1.4661e-06
-5.08876e-05 -1.4661e-06 0.000477845
0.00244399 -0.000269417 -2.43896e-05
-0.000269417 -0.000175202 4.01006e-06
-2.43896e-05 4.01006e-06 5.6758e-05
0.00261682 4.24745e-05 -5.56396e-06
4.24745e-05 -5.15144e-05 -1.75701e-06
-5.56396e-06 -1.75701e-06 4.4289e-05
0.00243603 -8.6262e-05 -3.38678e-07
-8.6262e-05 -0.000154364 -2.82523e-07
-3.38678e-07 -2.82523e-07 -1.48407e-05
0.00218434 -7.48502e-05 2.99291e-07
-7.48502e-05 -5.27652e-05 4.97113e-08
2.99291e-07 4.97113e-08 1.69811e-06
0.0023341 -0.000315016 7.78985e-07
-0.000315016 -0.000139911 -9.42068e-08
7.78985e-07 -9.42068e-08 -4.22537e-05
0.00226921 -0.000257757 -1.22172e-07
-0.000257757 -6.09704e-05 1.59619e-08
-1.22172e-07 1.59619e-08 -1.117e-06
0.0021269 -0.000214484 -1.41539e-06
-0.000214484 5.33432e-06 4.51256e-08
-1.41539e-06 4.51256e-08 -1.52776e-06
0.00225964 -0.000373166 5.92885e-07
-0.000373166 3.52054e-07 1.36305e-07
5.92885e-07 1.36305e-07 -4.44162e-06
0.00215747 -0.000319031 1.21632e-07
-0.000319031 3.763e-05 7.85377e-08
1.21632e-07 7.85377e-08 1.33513e-06
0.00217805 -0.000309793 -3.62923e-06
-0.000309793 0.000123334 9.90605e-07
-3.62923e-06 9.90605e-07 3.32373e-05
0.00215051 -0.000412872 3.30293e-06
-0.000412872 9.18349e-05 -1.32212e-06
3.30293e-06 -1.32212e-06 -4.79766e-06
0.00208929 -0.000382961 -1.09858e-07
-0.000382961 0.000121187 -3.27658e-07
-1.09858e-07 -3.27658e-07 -1.24701e-05
0.00195551 -0.000332944 -1.76663e-06
-0.000332944 0.000129288 -3.59649e-07
-1.76663e-06 -3.59649e-07 -4.10047e-05
0.00212889 -0.000452543 2.45091e-06
-0.000452543 0.000190967 9.67864e-08
2.45091e-06 9.67864e-08 1.76962e-05
0.00199129 -0.000394422 -6.07144e-07
-0.000394422 0.000196727 5.4325e-09
-6.07144e-07 5.4325e-09 -6.3878e-06
0.00116896 -0.00022852 -1.12033e-05
-0.00022852 -3.65494e-05 5.22443e-06
-1.12033e-05 5.22443e-06 -0.000230752
0.00197174 -0.000437351 3.7545e-06
-0.000437351 0.000236084 -4.95655e-08
3.7545e-06 -4.95655e-08 2.27157e-06
0.00120861 -0.000261969 -7.27371e-08
-0.000261969 1.64976e-06 2.04979e-07
-7.27371e-08 2.04979e-07 -0.000206356
0.00280675 -0.000194002 -6.05576e-05
-0.000194002 0.00132488 1.32304e-05
-6.05576e-05 1.32304e-05 0.00122112
0.00121359 -0.000297751 1.71976e-05
-0.000297751 2.66798e-05 -7.75553e-06
1.71976e-05 -7.75553e-06 -0.000198839
0.00296329 -0.00024175 5.2064e-05
-0.00024175 0.00143201 -8.43628e-06
5.2064e-05 -8.43628e-06 0.00132729
0.00241113 -0.000149396 -0.000274135
-0.000149396 0.00118306 4.44152e-05
-0.000274135 4.44152e-05 0.0011623
0.0047878 -0.000138396 -0.000268407
-0.000138396 0.00270008 2.97461e-05
-0.000268407 2.97461e-05 0.00269586
0.00304103 -0.000300079 0.00017076
-0.000300079 0.0015006 -2.89809e-05
0.00017076 -2.89809e-05 0.00139388
0.0075717 -9.14849e-05 0.000325561
-9.14849e-05 0.00446314 -3.6218e-05
0.000325561 -3.6218e-05 0.00447153
0.00230265 0.000473476 -2.04074e-06
0.000473476 0.000194887 -6.02738e-07
-2.04074e-06 -6.02738e-07 6.05541e-05
0.00201721 0.000494244 2.03131e-07
0.000494244 0.000149082 1.68781e-06
2.03131e-07 1.68781e-06 -5.8055e-05
0.00215819 0.000473451 2.65061e-07
0.000473451 0.000139608 -1.31567e-06
2.65061e-07 -1.31567e-06 -2.60027e-05
0.0019724 0.000535759 -5.58444e-06
0.000535759 0.000272937 2.7242e-06
-5.58444e-06 2.7242e-06 -1.31803e-05
0.00228957 0.000644377 6.86098e-07
0.000644377 0.000342318 3.48319e-07
6.86098e-07 3.48319e-07 6.66664e-05
0.00248192 0.000743736 -3.53773e-07
0.000743736 0.000574413 -6.22608e-06
-3.53773e-07 -6.22608e-06 0.00022968
0.00182449 0.000585567 5.44653e-07
0.000585567 0.00029278 4.98347e-07
5.44653e-07 4.98347e-07 -4.35787e-05
0.00109621 0.000353518 -2.67783e-05
0.000353518 3.0982e-05 -6.62066e-06
-2.67783e-05 -6.62066e-06 -0.000224199
0.00159476 0.000564944 9.5748e-06
0.000564944 0.000256076 2.13273e-07
9.5748e-06 2.13273e-07 -0.000100612
0.000922746 0.000310637 -1.92778e-06
0.000310637 1.41232e-05 -1.54054e-07
-1.92778e-06 -1.54054e-07 -0.000229647
0.000380007 0.000279034 -2.75785e-05
0.000279034 -0.000156284 -2.01777e-05
-2.75785e-05 -2.01777e-05 -0.000310875
0.000449509 0.000237165 1.11064e-05
0.000237165 -0.000172423 3.41511e-06
1.11064e-05 3.41511e-06 -0.000397208
0.000323679 0.000236698 3.57535e-06
0.000236698 -0.000175315 5.38001e-07
3.57535e-06 5.38001e-07 -0.000311427
0.00757518 -1.44097e-05 -0.000302476
-1.44097e-05 0.00449801 -3.28554e-05
-0.000302476 -3.28554e-05 0.00449325
0.000291919 0.000149258 2.43881e-05
0.000149258 -0.000182594 1.9119e-05
2.43881e-05 1.9119e-05 -0.000290531
0.00641456 -0.000142626 7.13842e-06
-0.000142626 0.00380282 -2.68041e-06
7.13842e-06 -2.68041e-06 0.0037861
0.00510765 -0.000220577 0.000130839
-0.000220577 0.00301116 1.30804e-05
0.000130839 1.30804e-05 0.00297707
0.00245815 0.000272619 2.83193e-07
0.000272619 -6.18361e-05 5.84275e-07
2.83193e-07 5.84275e-07 3.16392e-05
0.00225605 0.000235221 1.98618e-06
0.000235221 -0.000237284 -4.27839e-07
1.98618e-06 -4.27839e-07 -6.99751e-05
0.00206468 0.000122665 -6.87209e-05
0.000122665 -0.000407217 -9.89532e-06
-6.87209e-05 -9.89532e-06 2.22694e-05
0.00228352 0.000412192 1.29435e-06
0.000412192 1.27167e-05 3.41031e-07
1.29435e-06 3.41031e-07 -2.14822e-05
0.00225816 0.000573428 -7.66808e-07
0.000573428 0.000143305 3.34626e-07
-7.66808e-07 3.34626e-07 -3.06401e-05
0.00206655 0.000751043 6.25573e-06
0.000751043 0.000235966 -3.19508e-06
6.25573e-06 -3.19508e-06 -6.38486e-05
0.00243769 0.000613208 -1.1792e-06
0.000613208 0.000342406 -3.04981e-06
-1.1792e-06 -3.04981e-06 0.000111554
0.002466 0.000444286 -1.05286e-06
0.000444286 -1.50062e-05 -1.73403e-07
-1.05286e-06 -1.73403e-07 5.65099e-06
0.00231769 0.00072076 -3.37602e-06
0.00072076 0.000119919 -1.97575e-07
-3.37602e-06 -1.97575e-07 -7.86852e-05
0.00201512 0.00042949 1.38473e-05
0.00042949 -0.000173868 4.41726e-07
1.38473e-05 4.41726e-07 -0.000137572
0.00223474 7.45768e-05 1.75104e-06
7.45768e-05 -3.60931e-05 3.17377e-07
1.75104e-06 3.17377e-07 1.12749e-05
0.00237974 9.26132e-05 2.60639e-07
9.26132e-05 -8.85817e-05 6.25695e-09
2.60639e-07 6.25695e-09 1.02576e-05
0.00221142 0.000146012 -6.88336e-06
0.000146012 -0.000254048 -1.40189e-06
-6.88336e-06 -1.40189e-06 -0.000135502
0.0020871 -1.34446e-05 -2.28338e-06
-1.34446e-05 -2.1745e-05 2.99782e-07
-2.28338e-06 2.99782e-07 -3.38284e-07
0.00240458 -0.000102378 8.32719e-07
-0.000102378 -0.00018789 2.96851e-07
8.32719e-07 2.96851e-07 -4.15165e-05
0.00219654 -7.84544e-05 -6.21507e-07
-7.84544e-05 -4.85049e-05 2.77592e-07
-6.21507e-07 2.77592e-07 5.76144e-06
0.00205486 -0.000115428 -2.82304e-06
-0.000115428 -2.83766e-05 3.3691e-07
-2.82304e-06 3.3691e-07 -2.58617e-05
0.00221726 -0.000263528 2.23412e-07
-0.000263528 -8.71054e-05 2.22056e-07
2.23412e-07 2.22056e-07 -3.49896e-05
0.00212086 -0.000211492 9.93891e-07
-0.000211492 1.35305e-06 -3.16449e-07
9.93891e-07 -3.16449e-07 -4.53061e-06
0.00218344 -0.000216816 -3.02308e-06
-0.000216816 9.56005e-05 5.12666e-07
-3.02308e-06 5.12666e-07 4.0344e-05
0.00215183 -0.0003195 2.83182e-06
-0.0003195 2.86889e-05 -8.68862e-07
2.83182e-06 -8.68862e-07 -7.61181e-06
0.00213021 -0.000303888 2.37418e-07
-0.000303888 9.61613e-05 -2.74995e-07
2.37418e-07 -2.74995e-07 6.55134e-06
0.00195889 -0.000259543 -1.26415e-06
-0.000259543 0.000105015 -5.75395e-07
-1.26415e-06 -5.75395e-07 -3.32581e-05
0.00203136 -0.000378895 3.06947e-06
-0.000378895 8.3596e-05 -9.95061e-07
3.06947e-06 -9.95061e-07 -4.98331e-05
0.00201208 -0.000335701 -4.00508e-07
-0.000335701 0.000166436 1.58941e-08
-4.00508e-07 1.58941e-08 -3.93923e-06
0.00118445 -0.000194963 -9.31115e-06
-0.000194963 -4.2019e-05 3.60457e-06
-9.31115e-06 3.60457e-06 -0.000221696
0.00200586 -0.000395152 2.12651e-06
-0.000395152 0.000208449 -2.77826e-09
2.12651e-06 -2.77826e-09 5.52486e-06
0.00121681 -0.000229986 -2.50828e-07
-0.000229986 -1.43962e-05 2.4283e-07
-2.50828e-07 2.4283e-07 -0.000207521
0.00276777 -0.000182211 -6.76073e-05
-0.000182211 0.00130271 1.26227e-05
-6.76073e-05 1.26227e-05 0.00120395
0.00123928 -0.000263974 1.35736e-05
-0.000263974 1.23969e-05 -6.44238e-06
1.35736e-05 -6.44238e-06 -0.000194855
0.00290041 -0.000214618 4.75678e-05
-0.000214618 0.00138445 -6.66546e-06
4.75678e-05 -6.66546e-06 0.00128927
0.00239987 -0.000126552 -0.0002671
-0.000126552 0.00116716 3.88806e-05
-0.0002671 3.88806e-05 0.00114896
0.00307966 -0.000247967 0.000163992
-0.000247967 0.00150027 -2.98538e-05
0.000163992 -2.98538e-05 0.00140703
0.00200387 -8.58544e-05 -0.000109822
-8.58544e-05 0.000926967 1.6639e-05
-0.000109822 1.6639e-05 0.00089201
0.00692379 -2.76563e-05 0.000104605
-2.76563e-05 0.00403624 -5.92122e-06
0.000104605 -5.92122e-06 0.00401719
0.0022793 0.000406755 -1.21884e-06
0.000406755 0.000139922 -6.00605e-07
-1.21884e-06 -6.00605e-07 5.34205e-05
0.00219117 0.000448872 -3.16082e-06
0.000448872 0.000193734 -8.29884e-07
-3.16082e-06 -8.29884e-07 2.93379e-05
0.00228714 0.000473973 -3.45409e-06
0.000473973 0.000177179 -5.61727e-08
-3.45409e-06 -5.61727e-08 4.16444e-05
0.00195318 0.000455569 -3.0462e-06
0.000455569 0.000194884 6.79265e-07
-3.0462e-06 6.79265e-07 -4.49205e-05
0.0020106 0.000501756 -1.17164e-06
0.000501756 0.000124706 -2.37779e-06
-1.17164e-06 -2.37779e-06 -7.88351e-05
0.00221796 0.000467486 -3.35592e-06
0.000467486 0.000186353 -3.80664e-06
-3.35592e-06 -3.80664e-06 2.78959e-05
0.00125592 0.000337274 -2.50405e-05
0.000337274 4.25062e-05 -6.84195e-06
-2.50405e-05 -6.84195e-06 -0.000193983
0.00191501 0.000531658 1.36021e-06
0.000531658 0.000237826 4.571e-07
1.36021e-06 4.571e-07 -4.83248e-05
0.00235268 0.000651854 1.41625e-06
0.000651854 0.000365937 -5.14513e-06
1.41625e-06 -5.14513e-06 8.94165e-05
0.00176509 0.000583353 9.04236e-06
0.000583353 0.000246975 -1.66815e-06
9.04236e-06 -1.66815e-06 -9.06782e-05
0.00106103 0.000347809 -1.84426e-06
0.000347809 7.32503e-06 -7.8735e-08
-1.84426e-06 -7.8735e-08 -0.000245995
0.000288268 0.000251319 -2.56672e-05
0.000251319 -0.000228743 -1.85421e-05
-2.56672e-05 -1.85421e-05 -0.000380169
0.000893708 0.000306801 1.90681e-05
0.000306801 1.61546e-06 6.63451e-06
1.90681e-05 6.63451e-06 -0.000239937
0.000325576 0.000262776 1.66828e-06
0.000262776 -0.000184319 1.64111e-06
1.66828e-06 1.64111e-06 -0.00033899
0.00771213 7.45662e-05 -0.000316167
7.45662e-05 0.00456769 -3.92616e-05
-0.000316167 -3.92616e-05 0.00456378
0.000211448 0.000210246 2.39308e-05
0.000210246 -0.000249278 2.10595e-05
2.39308e-05 2.10595e-05 -0.000381086
0.007276 -6.12327e-05 4.98687e-06
-6.12327e-05 0.00430668 -5.01458e-07
4.98687e-06 -5.01458e-07 0.00430317
0.00600096 -0.000171919 0.000182216
-0.000171919 0.00354046 1.22926e-05
0.000182216 1.22926e-05 0.00352185
0.00222749 0.000218112 4.92794e-07
0.000218112 -2.64006e-05 -6.73306e-08
4.92794e-07 -6.73306e-08 5.15234e-06
0.00243044 0.000278024 -2.29375e-07
0.000278024 -8.86003e-05 5.66596e-07
-2.29375e-07 5.66596e-07 7.09566e-06
0.00223915 0.000237116 3.54521e-06
0.000237116 -0.000235557 9.00813e-07
3.54521e-06 9.00813e-07 -6.77296e-05
0.00228587 0.000406954 -6.15945e-08
0.000406954 1.63042e-05 8.02373e-08
-6.15945e-08 8.02373e-08 -1.51713e-05
0.00222574 0.000567938 -2.06385e-07
0.000567938 0.000148033 -8.79199e-07
-2.06385e-07 -8.79199e-07 -2.41818e-05
0.0024271 0.000428028 1.96067e-06
0.000428028 -2.88936e-05 -1.42896e-07
1.96067e-06 -1.42896e-07 -7.04599e-06
0.0021275 6.73939e-05 -2.93546e-07
6.73939e-05 -1.25106e-05 1.38644e-07
-2.93546e-07 1.38644e-07 5.25709e-06
0.00222237 7.0801e-05 3.28452e-07
7.0801e-05 -4.15465e-05 -2.07557e-07
3.28452e-07 -2.07557e-07 6.58702e-06
0.00231739 8.71657e-05 -5.1859e-07
8.71657e-05 -0.000114266 -5.96547e-08
-5.1859e-07 -5.96547e-08 -1.72229e-05
0.00209254 -1.11119e-05 -8.30163e-07
-1.11119e-05 -1.85586e-05 7.29176e-08
-8.30163e-07 7.29176e-08 1.06687e-06
0.00206114 -3.66458e-05 -5.4953e-06
-3.66458e-05 2.12336e-05 6.04042e-07
-5.4953e-06 6.04042e-07 1.90854e-05
0.00221005 -8.18107e-05 -2.80035e-07
-8.18107e-05 -4.39225e-05 1.86463e-07
-2.80035e-07 1.86463e-07 1.03952e-05
0.00207325 -0.000115403 -1.5533e-06
-0.000115403 -1.03556e-05 2.59135e-07
-1.5533e-06 2.59135e-07 -1.11009e-05
0.00211558 -0.000137531 -6.53609e-06
-0.000137531 4.64562e-05 6.31983e-07
-6.53609e-06 6.31983e-07 9.70976e-06
0.00211491 -0.000208819 3.5489e-06
-0.000208819 -2.33249e-06 -7.9855e-07
3.5489e-06 -7.9855e-07 -7.32392e-06
0.00215906 -0.000216966 2.58891e-06
-0.000216966 8.35338e-05 -4.61919e-07
2.58891e-06 -4.61919e-07 2.82375e-05
0.00200185 -0.000190364 2.7582e-07
-0.000190364 0.000115633 -1.09237e-06
2.7582e-07 -1.09237e-06 2.42027e-06
0.00207085 -0.000298703 3.59723e-06
-0.000298703 6.08259e-05 -1.46833e-06
3.59723e-06 -1.46833e-06 -2.84779e-05
0.00200976 -0.000263547 -2.2035e-07
-0.000263547 0.000129401 2.49552e-09
-2.2035e-07 2.49552e-09 -9.23001e-06
0.00119407 -0.000157219 -9.76044e-06
-0.000157219 -4.04109e-05 2.28165e-06
-9.76044e-06 2.28165e-06 -0.00020515
0.00206525 -0.000338395 1.15142e-06
-0.000338395 0.000200923 1.51713e-07
1.15142e-06 1.51713e-07 3.04424e-05
0.00122537 -0.000194054 -3.6714e-07
-0.000194054 -2.194e-05 2.96595e-07
-3.6714e-07 2.96595e-07 -0.000200195
0.00267762 -0.000178014 -6.95315e-05
-0.000178014 0.00125153 1.05587e-05
-6.95315e-05 1.05587e-05 0.00115681
0.00126212 -0.000231468 1.05566e-05
-0.000231468 5.73389e-06 -4.83614e-06
1.05566e-05 -4.83614e-06 -0.000186306
0.00284754 -0.000181817 4.54579e-05
-0.000181817 0.00134807 -5.11099e-06
4.54579e-05 -5.11099e-06 0.00125968
0.00239301 -0.000104813 -0.000264736
-0.000104813 0.00115616 3.25138e-05
-0.000264736 3.25138e-05 0.00113933
0.00299254 -0.000206029 0.000159656
-0.000206029 0.00143423 -2.54155e-05
0.000159656 -2.54155e-05 0.00135158
0.00198534 -8.58356e-05 -9.96319e-05
-8.58356e-05 0.000910245 1.31662e-05
-9.96319e-05 1.31662e-05 0.0008775
0.00166124 -8.24172e-05 6.65728e-05
-8.24172e-05 0.000724259 -1.11038e-05
6.65728e-05 -1.11038e-05 0.00066994
0.00212006 0.000253399 -1.18673e-06
0.000253399 1.35991e-06 -4.87679e-07
-1.18673e-06 -4.87679e-07 -2.56291e-05
0.00216815 0.000369313 -3.5642e-06
0.000369313 0.000138713 -3.15147e-07
-3.5642e-06 -3.15147e-07 2.04176e-05
0.00222457 0.000405972 -4.27246e-07
0.000405972 8.40898e-05 -1.87071e-07
-4.27246e-07 -1.87071e-07 7.27181e-06
0.00209756 0.000417937 -1.64053e-07
0.000417937 0.000220955 7.82885e-07
-1.64053e-07 7.82885e-07 2.05057e-05
0.00216886 0.00044534 -1.62486e-06
0.00044534 0.000187003 -6.58081e-07
-1.62486e-06 -6.58081e-07 2.16491e-05
0.0022631 0.000474724 2.29953e-06
0.000474724 0.000153905 4.65683e-07
2.29953e-06 4.65683e-07 1.68876e-05
0.00127714 0.000289652 -1.89263e-05
0.000289652 1.4547e-05 -6.02406e-06
-1.89263e-05 -6.02406e-06 -0.000196917
0.00192915 0.000459405 1.71851e-06
0.000459405 0.000171802 -4.24188e-07
1.71851e-06 -4.24188e-07 -6.32034e-05
0.00201099 0.000510145 -1.68405e-06
0.000510145 0.000104827 -5.17623e-06
-1.68405e-06 -5.17623e-06 -9.54258e-05
0.000279359 0.000201268 -2.21942e-05
0.000201268 -0.000257731 -1.59969e-05
-2.21942e-05 -1.59969e-05 -0.00039401
0.00120095 0.000332392 -5.27248e-07
0.000332392 1.12553e-05 3.73074e-08
-5.27248e-07 3.73074e-08 -0.000225091
0.00184881 0.000527425 7.28942e-06
0.000527425 0.000195621 -2.0403e-06
7.28942e-06 -2.0403e-06 -9.06573e-05
0.00113256 0.000348057 2.77972e-05
0.000348057 5.43612e-05 8.13286e-06
2.77972e-05 8.13286e-06 -0.000197333
0.00025961 0.000238767 5.79324e-07
0.000238767 -0.000241874 1.05563e-06
5.79324e-07 1.05563e-06 -0.000393834
0.00747394 0.000173702 -0.000319252
0.000173702 0.00440646 -4.33438e-05
-0.000319252 -4.33438e-05 0.0044039
0.000230156 0.000236246 2.2305e-05
0.000236246 -0.000240012 1.94684e-05
2.2305e-05 1.94684e-05 -0.000391768
0.00763107 5.00925e-05 7.14712e-06
5.00925e-05 0.00450453 6.69131e-07
7.14712e-06 6.69131e-07 0.0045094
0.0070248 -9.35022e-05 0.000248719
-9.35022e-05 0.00414576 1.60736e-05
0.000248719 1.60736e-05 0.00414278
0.00214611 0.000132061 -2.2354e-06
0.000132061 1.6255e-05 -5.41957e-07
-2.2354e-06 -5.41957e-07 2.71748e-05
0.00221432 0.000222683 7.1138e-07
0.000222683 -3.78976e-05 3.65445e-07
7.1138e-07 3.65445e-07 -9.09699e-06
0.00238094 0.000283566 -2.89525e-07
0.000283566 -0.000124675 -4.8156e-07
-2.89525e-07 -4.8156e-07 -2.6952e-05
0.00228158 0.00040051 1.16569e-06
0.00040051 1.53061e-05 -2.36653e-07
1.16569e-06 -2.36653e-07 -1.29171e-05
0.00203041 2.36182e-05 -5.51964e-06
2.36182e-05 2.88755e-05 3.89853e-07
-5.51964e-06 3.89853e-07 1.07189e-05
0.0021213 5.83336e-05 -2.74186e-08
5.83336e-05 -1.64215e-05 -2.83191e-08
-2.74186e-08 -2.83191e-08 2.36475e-06
0.0022088 6.69107e-05 -8.64262e-07
6.69107e-05 -4.71658e-05 -5.78846e-08
-8.64262e-07 -5.78846e-08 1.2078e-06
0.00209672 -7.94949e-06 -6.41735e-07
-7.94949e-06 -1.57128e-05 -3.36421e-07
-6.41735e-07 -3.36421e-07 1.85817e-06
0.00206692 -3.09164e-05 -7.20224e-07
-3.09164e-05 2.04348e-05 -1.54869e-07
-7.20224e-07 -1.54869e-07 1.9913e-05
0.00192098 -5.92901e-05 -5.52565e-06
-5.92901e-05 -5.9135e-05 5.62639e-07
-5.52565e-06 5.62639e-07 -0.000101142
0.002091 -0.000115469 3.19825e-06
-0.000115469 7.33303e-06 -3.25649e-08
3.19825e-06 -3.25649e-08 3.13915e-06
0.00209503 -0.000139027 -1.85121e-06
-0.000139027 4.12403e-05 3.67326e-07
-1.85121e-06 3.67326e-07 -2.79034e-06
0.0021032 -0.000130561 -2.23885e-06
-0.000130561 0.000169181 -1.66317e-07
-2.23885e-06 -1.66317e-07 7.91536e-05
0.00214449 -0.000216393 7.64319e-06
-0.000216393 7.74484e-05 -1.30936e-06
7.64319e-06 -1.30936e-06 2.22909e-05
0.00199304 -0.000189089 1.25864e-06
-0.000189089 0.000100253 -5.6065e-07
1.25864e-06 -5.6065e-07 -1.25312e-05
0.0011665 -0.000118112 -1.12441e-05
-0.000118112 -5.15919e-05 1.57902e-06
-1.12441e-05 1.57902e-06 -0.000203303
0.0020857 -0.000266331 1.47377e-06
-0.000266331 0.000171372 3.75889e-07
1.47377e-06 3.75889e-07 3.28329e-05
0.00119465 -0.000155584 -8.96125e-08
-0.000155584 -3.999e-05 1.17328e-07
-8.96125e-08 1.17328e-07 -0.000203635
0.000353707 -9.20547e-05 -1.91922e-05
-9.20547e-05 -0.000233689 6.02766e-06
-1.91922e-05 6.02766e-06 -0.00033671
0.00125516 -0.000192853 8.85829e-06
-0.000192853 -9.74962e-06 -3.14239e-06
8.85829e-06 -3.14239e-06 -0.000186606
0.00157771 -0.000117319 6.69922e-05
-0.000117319 0.000539767 -5.33554e-06
6.69922e-05 -5.33554e-06 0.000449401
0.00684289 -0.000174843 -0.000350889
-0.000174843 0.00399445 2.71958e-05
-0.000350889 2.71958e-05 0.00401569
0.00293381 -0.000164118 0.000156455
-0.000164118 0.00139189 -2.00185e-05
0.000156455 -2.00185e-05 0.00131634
0.00198268 -8.1856e-05 -9.04004e-05
-8.1856e-05 0.00090773 8.62029e-06
-9.04004e-05 8.62029e-06 0.000874722
0.00158585 -0.000103772 7.86212e-05
-0.000103772 0.00068064 -1.29459e-05
7.86212e-05 -1.29459e-05 0.000625259
0.00206712 0.000170451 -3.25186e-06
0.000170451 1.59251e-05 -9.53065e-07
-3.25186e-06 -9.53065e-07 -9.26718e-06
0.00210096 0.000281028 -2.12233e-06
0.000281028 6.46709e-05 6.55466e-08
-2.12233e-06 6.55466e-08 -1.41704e-05
0.00213456 0.000247213 -2.20017e-07
0.000247213 2.22481e-05 -9.99282e-08
-2.20017e-07 -9.99282e-08 -1.06536e-05
0.00206083 0.000336573 1.72553e-07
0.000336573 0.000163021 1.41325e-06
1.72553e-07 1.41325e-06 5.24833e-06
0.00211614 0.000366533 9.23484e-07
0.000366533 0.000105431 2.14304e-07
9.23484e-07 2.14304e-07 -1.25626e-05
0.00217179 0.000405466 7.06898e-07
0.000405466 2.95828e-05 1.10061e-07
7.06898e-07 1.10061e-07 -3.77559e-05
0.00131884 0.000254556 -1.40213e-05
0.000254556 2.14429e-05 -3.7392e-06
-1.40213e-05 -3.7392e-06 -0.000166612
0.00206921 0.000413218 2.04951e-06
0.000413218 0.00020356 4.77079e-07
2.04951e-06 4.77079e-07 4.53513e-06
0.00213938 0.000440914 1.0763e-06
0.000440914 0.000175832 -1.3156e-06
1.0763e-06 -1.3156e-06 9.87069e-06
0.000323509 0.000142775 -1.9358e-05
0.000142775 -0.000252936 -1.24735e-05
-1.9358e-05 -1.24735e-05 -0.000372381
0.00122513 0.000286784 4.98582e-07
0.000286784 -1.55493e-05 4.55033e-07
4.98582e-07 4.55033e-07 -0.000224474
0.00189242 0.000461182 6.63072e-06
0.000461182 0.000141468 -2.2488e-06
6.63072e-06 -2.2488e-06 -8.8188e-05
0.00725347 0.00024425 -0.000326062
0.00024425 0.00425929 -4.2981e-05
-0.000326062 -4.2981e-05 0.00426021
0.000308557 0.000194314 -1.47579e-08
0.000194314 -0.000241518 7.06468e-07
-1.47579e-08 7.06468e-07 -0.000378227
0.00117454 0.000329475 2.61992e-05
0.000329475 -5.22713e-07 7.4042e-06
2.61992e-05 7.4042e-06 -0.000236966
0.00033078 0.000229522 2.25702e-05
0.000229522 -0.000194882 1.77386e-05
2.25702e-05 1.77386e-05 -0.000348122
0.00753655 0.00016601 1.13115e-05
0.00016601 0.00443929 1.93999e-06
1.13115e-05 1.93999e-06 0.0044431
0.00755934 9.97086e-06 0.000303241
9.97086e-06 0.00444719 2.28256e-05
0.000303241 2.28256e-05 0.00445667
0.00200584 7.68954e-05 -7.19991e-06
7.68954e-05 1.83968e-05 -1.3679e-07
-7.19991e-06 -1.3679e-07 -5.09255e-06
0.00213734 0.000127986 6.36314e-08
0.000127986 1.23673e-05 2.07619e-08
6.36314e-08 2.07619e-08 2.13734e-05
0.00220466 0.000227236 -3.29443e-08
0.000227236 -4.75118e-05 8.90426e-08
-3.29443e-08 8.90426e-08 -2.11275e-05
0.00195955 6.72745e-06 -6.96809e-06
6.72745e-06 -9.22438e-06 2.64549e-07
-6.96809e-06 2.64549e-07 -5.82125e-05
0.00201379 2.87629e-05 5.59014e-07
2.87629e-05 1.41509e-05 3.8174e-11
5.59014e-07 3.8174e-11 -8.14985e-07
0.00211721 4.82988e-05 -2.705e-07
4.82988e-05 -1.93588e-05 -8.61189e-08
-2.705e-07 -8.61189e-08 5.50353e-07
0.00207434 -2.57145e-05 3.3586e-06
-2.57145e-05 2.01851e-05 -4.06656e-07
3.3586e-06 -4.06656e-07 2.17373e-05
0.00199469 -5.82664e-05 -1.03805e-06
-5.82664e-05 -7.26586e-06 1.07532e-07
-1.03805e-06 1.07532e-07 -4.77305e-05
0.00189549 -6.37657e-05 -1.41111e-06
-6.37657e-05 4.70977e-05 -3.83326e-08
-1.41111e-06 -3.83326e-08 -4.47381e-05
0.00209103 -0.000140685 3.52459e-06
-0.000140685 4.80866e-05 -1.14703e-07
3.52459e-06 -1.14703e-07 -3.04599e-06
0.00199114 -0.000130955 5.94551e-07
-0.000130955 9.90362e-05 1.56797e-08
5.94551e-07 1.56797e-08 2.46908e-07
0.00128624 -7.42422e-05 -1.13423e-05
-7.42422e-05 3.60335e-05 6.20624e-07
-1.13423e-05 6.20624e-07 -9.51743e-05
0.00196208 -0.000189386 3.01555e-06
-0.000189386 6.98094e-05 -2.11661e-07
3.01555e-06 -2.11661e-07 -4.30317e-05
0.00114166 -0.000112896 3.70523e-08
-0.000112896 -6.31568e-05 3.13793e-08
3.70523e-08 3.13793e-08 -0.000213767
0.000344565 -2.476e-05 -1.76161e-05
-2.476e-05 -0.00024062 3.2272e-06
-1.76161e-05 3.2272e-06 -0.000335866
0.00118919 -0.000152485 9.11944e-06
-0.000152485 -4.39859e-05 -2.03102e-06
9.11944e-06 -2.03102e-06 -0.00020634
0.000351696 -7.64496e-05 -4.4426e-07
-7.64496e-05 -0.000233499 4.9753e-07
-4.4426e-07 4.9753e-07 -0.000336637
0.00675377 -6.47589e-05 -0.000340021
-6.47589e-05 0.00393225 1.69939e-05
-0.000340021 1.69939e-05 0.00395907
0.000431492 -8.0193e-05 1.38316e-05
-8.0193e-05 -0.000189554 -8.32013e-06
1.38316e-05 -8.32013e-06 -0.000298594
0.0043109 -0.000114038 0.000148738
-0.000114038 0.00239195 -8.18889e-06
0.000148738 -8.18889e-06 0.00237592
0.00156219 -9.40968e-05 8.48153e-05
-9.40968e-05 0.000664507 -1.24607e-05
8.48153e-05 -1.24607e-05 0.00061005
0.00206677 0.000134168 -8.19913e-06
0.000134168 6.31375e-05 -7.94833e-07
-8.19913e-06 -7.94833e-07 3.16862e-05
0.00214599 0.000207372 -3.99408e-06
0.000207372 0.000105839 3.3858e-08
-3.99408e-06 3.3858e-08 3.77757e-05
0.00205503 0.000164661 -7.25774e-07
0.000164661 1.21831e-05 -1.8833e-07
-7.25774e-07 -1.8833e-07 -1.29721e-05
0.00201202 0.000263421 -4.40778e-07
0.000263421 0.000118393 9.65328e-07
-4.40778e-07 9.65328e-07 -2.01441e-05
0.0021458 0.000281637 -4.48463e-08
0.000281637 9.13492e-05 -4.13932e-08
-4.48463e-08 -4.13932e-08 1.04258e-05
0.00214285 0.000240942 2.52993e-06
0.000240942 3.92703e-05 6.34712e-07
2.52993e-06 6.34712e-07 5.67089e-07
0.00126126 0.000203506 -1.07006e-05
0.000203506 -1.64039e-05 -2.26431e-06
-1.07006e-05 -2.26431e-06 -0.000185192
0.00204775 0.000333561 2.58915e-06
0.000333561 0.000164655 8.94262e-07
2.58915e-06 8.94262e-07 2.55721e-07
0.0020802 0.000364565 2.30147e-06
0.000364565 8.261e-05 -2.08209e-07
2.30147e-06 -2.08209e-07 -3.50239e-05
0.000333484 0.000100857 -1.77558e-05
0.000100857 -0.000255429 -9.07822e-06
-1.77558e-05 -9.07822e-06 -0.000364497
0.00126597 0.00024907 -3.52279e-08
0.00024907 -8.48542e-06 6.19938e-07
-3.52279e-08 6.19938e-07 -0.000195242
0.00205209 0.000409552 4.7598e-06
0.000409552 0.000193832 3.23937e-07
4.7598e-06 3.23937e-07 -4.03318e-06
0.00705865 0.000291247 -0.000341193
0.000291247 0.00414056 -4.11836e-05
-0.000341193 -4.11836e-05 0.00414247
0.000319291 0.0001425 1.06982e-07
0.0001425 -0.000259264 4.02848e-07
1.06982e-07 4.02848e-07 -0.000379554
0.00116329 0.000284728 1.86645e-05
0.000284728 -5.36083e-05 5.70604e-06
1.86645e-05 5.70604e-06 -0.000260349
0.00725097 0.000263116 1.38453e-05
0.000263116 0.0042668 4.30295e-06
1.38453e-05 4.30295e-06 0.0042651
0.000294913 0.00018585 2.02601e-05
0.00018585 -0.00025256 1.5954e-05
2.02601e-05 1.5954e-05 -0.000389428
0.00743825 0.000136441 0.000332172
0.000136441 0.00436363 3.23007e-05
0.000332172 3.23007e-05 0.00437705
0.0019315 5.91215e-05 -7.16549e-06
5.91215e-05 -2.47054e-05 1.18243e-07
-7.16549e-06 1.18243e-07 -7.72867e-05
0.00202827 8.31973e-05 -9.68717e-07
8.31973e-05 3.84534e-05 -1.6626e-07
-9.68717e-07 -1.6626e-07 1.44518e-05
0.00212552 0.000124244 1.96267e-06
0.000124244 7.41105e-06 3.42069e-07
1.96267e-06 3.42069e-07 1.43509e-05
0.00188608 -8.74151e-06 -7.58604e-07
-8.74151e-06 4.82957e-05 -8.1507e-08
-7.58604e-07 -8.1507e-08 -4.21208e-05
0.00199232 8.09436e-06 -1.39208e-06
8.09436e-06 1.28147e-05 5.45715e-08
-1.39208e-06 5.45715e-08 -3.31751e-05
0.00199624 3.49776e-05 5.94667e-06
3.49776e-05 -1.02116e-06 -1.28106e-07
5.94667e-06 -1.28106e-07 -1.29488e-05
0.00206574 -5.72522e-05 3.21041e-06
-5.72522e-05 4.30864e-05 -3.03756e-07
3.21041e-06 -3.03756e-07 3.94921e-06
0.0019436 -6.37832e-05 1.18488e-06
-6.37832e-05 8.07536e-05 6.64331e-08
1.18488e-06 6.64331e-08 -9.94152e-06
0.00123638 -3.28739e-05 -1.10392e-05
-3.28739e-05 1.35706e-05 -1.77956e-07
-1.10392e-05 -1.77956e-07 -0.000109901
0.00185697 -0.000131139 1.1844e-06
-0.000131139 1.34007e-05 2.12842e-07
1.1844e-06 2.12842e-07 -9.42155e-05
0.00117358 -7.26978e-05 1.32337e-06
-7.26978e-05 -3.5506e-05 -2.10703e-07
1.32337e-06 -2.10703e-07 -0.000171436
0.000346352 -8.99243e-06 -1.81397e-05
-8.99243e-06 -0.000238021 1.8688e-06
-1.81397e-05 1.8688e-06 -0.000328929
0.00112208 -0.000109406 1.0085e-05
-0.000109406 -6.99576e-05 -1.44012e-06
1.0085e-05 -1.44012e-06 -0.000219644
0.00033368 -3.73314e-05 7.62021e-07
-3.73314e-05 -0.000247098 -2.94627e-07
7.62021e-07 -2.94627e-07 -0.000341766
0.00653972 -0.00016001 -0.000341002
-0.00016001 0.00381579 1.84612e-05
-0.000341002 1.84612e-05 0.00383588
0.000352976 -6.06323e-05 1.73764e-05
-6.06323e-05 -0.000233003 -4.53126e-06
1.73764e-05 -4.53126e-06 -0.000335158
0.00668692 -0.000101628 7.70516e-06
-0.000101628 0.00389409 3.86464e-08
7.70516e-06 3.86464e-08 0.00391998
0.00187728 -3.96976e-05 0.000262674
-3.96976e-05 0.000831947 -1.84432e-05
0.000262674 -1.84432e-05 0.000822862
0.00204857 0.000138352 -7.3527e-06
0.000138352 5.06414e-05 -5.28913e-07
-7.3527e-06 -5.28913e-07 -1.28204e-05
0.00202249 0.000135385 -1.7001e-06
0.000135385 2.46589e-05 -1.31408e-07
-1.7001e-06 -1.31408e-07 -2.1298e-06
0.00197413 0.000192672 -3.62758e-07
0.000192672 9.13842e-05 9.06816e-07
-3.62758e-07 9.06816e-07 -2.60649e-05
0.00214787 0.000206794 7.31518e-07
0.000206794 0.000102815 1.76275e-08
7.31518e-07 1.76275e-08 3.534e-05
0.00204673 0.000158795 4.19693e-06
0.000158795 1.02206e-05 5.09866e-07
4.19693e-06 5.09866e-07 -1.47725e-05
0.00119107 0.000153677 -9.75094e-06
0.000153677 -4.285e-05 -1.60537e-06
-9.75094e-06 -1.60537e-06 -0.000202761
0.00202998 0.000262308 2.18913e-07
0.000262308 0.000138072 1.32315e-09
2.18913e-07 1.32315e-09 -2.6404e-07
0.00218178 0.000281697 3.36354e-06
0.000281697 0.000112563 2.89702e-07
3.36354e-06 2.89702e-07 2.94224e-05
0.000352333 7.29753e-05 -1.73016e-05
7.29753e-05 -0.000242616 -6.37352e-06
-1.73016e-05 -6.37352e-06 -0.000345991
0.00123575 0.000202357 7.50317e-07
0.000202357 -2.78436e-05 6.14948e-07
7.50317e-07 6.14948e-07 -0.000200182
0.00203076 0.000330208 1.80641e-06
0.000330208 0.000165092 2.0997e-07
1.80641e-06 2.0997e-07 -5.88573e-06
0.00689152 0.000295099 -0.000356143
0.000295099 0.0040461 -3.7793e-05
-0.000356143 -3.7793e-05 0.00404829
0.000356103 0.00010511 3.57949e-07
0.00010511 -0.000244301 2.31596e-07
3.57949e-07 2.31596e-07 -0.000354471
0.00121344 0.000243332 1.09936e-05
0.000243332 -3.88155e-05 4.35196e-06
1.09936e-05 4.35196e-06 -0.000224096
0.00711624 0.000316761 1.01666e-05
0.000316761 0.00418937 5.16895e-06
1.01666e-05 5.16895e-06 0.00418548
0.000346091 0.000142577 1.82922e-05
0.000142577 -0.000246437 1.2884e-05
1.82922e-05 1.2884e-05 -0.000367417
0.00733244 0.000268779 0.000346931
0.000268779 0.00431018 4.22776e-05
0.000346931 4.22776e-05 0.00431411
0.00185947 5.58339e-05 7.90666e-07
5.58339e-05 3.34062e-05 -5.75673e-08
7.90666e-07 -5.75673e-08 -6.16257e-05
0.00199611 6.06093e-05 -3.24104e-06
6.06093e-05 2.55358e-05 -1.1387e-07
-3.24104e-06 -1.1387e-07 -2.78799e-05
0.00205058 8.89968e-05 7.0503e-06
8.89968e-05 5.84254e-05 2.38958e-07
7.0503e-06 2.38958e-07 3.38916e-05
0.0011922 -1.19542e-05 -1.15389e-05
-1.19542e-05 -8.81956e-06 -2.76165e-07
-1.15389e-05 -2.76165e-07 -0.000130332
0.00193058 -4.95596e-06 1.74135e-06
-4.95596e-06 8.06236e-05 7.44433e-09
1.74135e-06 7.44433e-09 -9.17004e-06
0.00202866 8.90226e-06 3.17169e-06
8.90226e-06 3.74196e-05 -8.93601e-08
3.17169e-06 -8.93601e-08 -5.3678e-06
0.0019984 -6.43294e-05 3.407e-06
-6.43294e-05 0.00011912 1.40908e-07
3.407e-06 1.40908e-07 2.95123e-05
0.00120959 -3.45193e-05 9.55055e-07
-3.45193e-05 -7.16503e-06 -1.02785e-07
9.55055e-07 -1.02785e-07 -0.00013097
0.00036726 -3.25568e-05 -1.88395e-05
-3.25568e-05 -0.000222996 7.31139e-07
-1.88395e-05 7.31139e-07 -0.000309542
0.00107365 -7.07385e-05 1.21685e-05
-7.07385e-05 -9.94865e-05 -1.01807e-06
1.21685e-05 -1.01807e-06 -0.000240051
0.000346558 2.10909e-06 3.31803e-07
2.10909e-06 -0.000239746 1.03618e-07
3.31803e-07 1.03618e-07 -0.000329271
0.00645619 -0.000129381 -0.000341921
-0.000129381 0.00376203 1.38855e-05
-0.000341921 1.38855e-05 0.00378573
0.000359303 -4.53015e-05 1.8463e-05
-4.53015e-05 -0.000228465 -2.98809e-06
1.8463e-05 -2.98809e-06 -0.000324299
0.00655533 -5.4947e-05 -2.66694e-06
-5.4947e-05 0.00381205 3.1118e-06
-2.66694e-06 3.1118e-06 0.00384057
0.00665697 -0.000115465 0.000340785
-0.000115465 0.00387671 -1.65485e-05
0.000340785 -1.65485e-05 0.00390272
0.00194335 0.000122052 -7.64258e-07
0.000122052 8.20831e-05 2.32197e-07
-7.64258e-07 2.32197e-07 -2.16582e-05
0.00205792 0.0001367 -2.94375e-06
0.0001367 4.98834e-05 -4.01162e-07
-2.94375e-06 -4.01162e-07 -7.91172e-06
0.00198059 0.000137077 6.36688e-06
0.000137077 -1.23688e-05 6.19307e-07
6.36688e-06 6.19307e-07 -3.44924e-05
0.00118544 0.000105722 -1.11145e-05
0.000105722 -3.12596e-05 -9.95692e-07
-1.11145e-05 -9.95692e-07 -0.000178087
0.00200925 0.000191779 3.12633e-07
0.000191779 0.00011865 -1.2595e-07
3.12633e-07 -1.2595e-07 1.36648e-06
0.00215117 0.000206182 4.15424e-06
0.000206182 0.000100788 -2.3512e-07
4.15424e-06 -2.3512e-07 3.39218e-05
0.000370783 5.02198e-05 -1.70493e-05
5.02198e-05 -0.000227903 -4.22981e-06
-1.70493e-05 -4.22981e-06 -0.000326494
0.0012066 0.000156343 1.50125e-07
0.000156343 -3.27721e-05 2.50527e-07
1.50125e-07 2.50527e-07 -0.000194035
0.00205249 0.000261588 8.80055e-07
0.000261588 0.000159834 -1.10007e-06
8.80055e-07 -1.10007e-06 2.16517e-05
0.00674327 0.000244682 -0.000365144
0.000244682 0.00395091 -3.07441e-05
-0.000365144 -3.07441e-05 0.00396208
0.000368676 7.99715e-05 7.94636e-07
7.99715e-05 -0.00023366 1.97883e-07
7.94636e-07 1.97883e-07 -0.000338699
0.00118911 0.000200223 8.19994e-06
0.000200223 -5.53263e-05 3.08656e-06
8.19994e-06 3.08656e-06 -0.000231109
0.00697172 0.000312901 5.44507e-06
0.000312901 0.00410154 3.49444e-06
5.44507e-06 3.49444e-06 0.00410162
0.00037755 0.000111155 1.72191e-05
0.000111155 -0.000232542 9.96876e-06
1.72191e-05 9.96876e-06 -0.000344396
0.00717795 0.000352682 0.000359169
0.000352682 0.00423842 4.87096e-05
0.000359169 4.87096e-05 0.00422934
0.00108992 2.98172e-05 -1.18081e-05
2.98172e-05 -7.38159e-05 -5.22639e-07
-1.18081e-05 -5.22639e-07 -0.000205106
0.00193926 5.36126e-05 1.90212e-06
5.36126e-05 8.52841e-05 7.59189e-09
1.90212e-06 7.59189e-09 -4.98969e-06
0.00206709 6.25912e-05 2.36709e-06
6.25912e-05 7.95269e-05 6.65769e-08
2.36709e-06 6.65769e-08 2.53892e-05
0.000404881 3.20208e-05 -1.92681e-05
3.20208e-05 -0.000206336 -9.60055e-07
-1.92681e-05 -9.60055e-07 -0.000283942
0.00116196 -6.70201e-06 7.14121e-07
-6.70201e-06 -3.13125e-05 2.25171e-08
7.14121e-07 2.25171e-08 -0.000152858
0.0019695 3.43262e-07 4.01301e-06
3.43262e-07 0.00010899 -5.04541e-08
4.01301e-06 -5.04541e-08 1.97273e-05
0.00117413 -3.56361e-05 1.28414e-05
-3.56361e-05 -3.37337e-05 -3.64466e-07
1.28414e-05 -3.64466e-07 -0.000157869
0.000361224 -5.90837e-06 5.14626e-07
-5.90837e-06 -0.000226956 3.71123e-07
5.14626e-07 3.71123e-07 -0.000313381
0.00631166 8.13205e-06 -0.000341942
8.13205e-06 0.00366327 2.31376e-06
-0.000341942 2.31376e-06 0.00369477
0.000314622 1.3981e-05 1.76136e-05
1.3981e-05 -0.000261667 -7.63635e-07
1.76136e-05 -7.63635e-07 -0.000349699
0.00639875 -0.000126782 -7.97331e-06
-0.000126782 0.00372802 2.13608e-06
-7.97331e-06 2.13608e-06 0.00375108
0.00647458 -3.71319e-05 0.000327134
-3.71319e-05 0.00376152 -9.04765e-06
0.000327134 -9.04765e-06 0.00379018
0.00115454 6.34301e-05 -1.18752e-05
6.34301e-05 -4.07753e-05 -9.04682e-07
-1.18752e-05 -9.04682e-07 -0.0001773
0.00198808 0.000118967 -2.52565e-07
0.000118967 0.000109963 -3.66905e-07
-2.52565e-07 -3.66905e-07 1.05523e-05
0.00204221 0.000134297 9.72496e-07
0.000134297 3.21423e-05 -5.25245e-07
9.72496e-07 -5.25245e-07 -2.02904e-05
0.00271747 6.75632e-05 -0.000156048
6.75632e-05 0.00126237 -5.61607e-06
-0.000156048 -5.61607e-06 0.00120782
0.00115052 0.000106909 2.33194e-07
0.000106909 -5.59423e-05 1.77785e-07
2.33194e-07 1.77785e-07 -0.000203666
0.00205422 0.000191146 1.44e-06
0.000191146 0.00015227 -1.12136e-06
1.44e-06 -1.12136e-06 3.51393e-05
0.00658885 0.000177532 -0.000363014
0.000177532 0.00384686 -2.18964e-05
-0.000363014 -2.18964e-05 0.00386803
0.000370953 6.9003e-05 1.24265e-06
6.9003e-05 -0.000224781 5.3503e-07
1.24265e-06 5.3503e-07 -0.000325805
0.0011862 0.000158139 1.00658e-05
0.000158139 -4.32359e-05 2.03739e-06
1.00658e-05 2.03739e-06 -0.000205982
0.00683036 0.000260962 1.07008e-06
0.000260962 0.00400712 1.58783e-06
1.07008e-06 1.58783e-06 0.00401663
0.000389697 8.94133e-05 1.73858e-05
8.94133e-05 -0.000220089 7.52997e-06
1.73858e-05 7.52997e-06 -0.000327426
0.00705772 0.000349395 0.000368412
0.000349395 0.00416946 4.74227e-05
0.000368412 4.74227e-05 0.00416248
0.00049638 1.2837e-05 -1.52285e-05
1.2837e-05 -0.000137965 -1.9358e-06
-1.52285e-05 -1.9358e-06 -0.000224786
0.0011179 2.939e-05 -3.37098e-08
2.939e-05 -6.04151e-05 1.45859e-07
-3.37098e-08 1.45859e-07 -0.000188202
0.00201621 4.99821e-05 4.19119e-06
4.99821e-05 0.000134967 -1.85145e-07
4.19119e-06 -1.85145e-07 4.94266e-05
0.00612574 -0.000104166 -0.000323169
-0.000104166 0.00356545 4.74899e-06
-0.000323169 4.74899e-06 0.00358559
0.000362508 1.00914e-05 -5.89909e-07
1.00914e-05 -0.000228798 -1.62715e-07
-5.89909e-07 -1.62715e-07 -0.000309033
0.00114899 -2.77502e-06 1.2816e-05
-2.77502e-06 -4.30918e-05 3.5963e-08
1.2816e-05 3.5963e-08 -0.000164602
0.000321198 2.08768e-05 1.80138e-05
2.08768e-05 -0.000254017 5.52339e-07
1.80138e-05 5.52339e-07 -0.000339043
0.00624769 -2.70975e-05 1.88787e-06
-2.70975e-05 0.0036299 -1.75425e-06
1.88787e-06 -1.75425e-06 0.00365631
0.00637939 -5.02448e-05 0.000330733
-5.02448e-05 0.00370335 -6.5002e-06
0.000330733 -6.5002e-06 0.00373272
0.00279157 1.93708e-05 -0.000148974
1.93708e-05 0.00130983 -3.00768e-06
-0.000148974 -3.00768e-06 0.00125985
0.00111799 6.65229e-05 -3.45625e-08
6.65229e-05 -6.54637e-05 -6.62479e-08
-3.45625e-08 -6.62479e-08 -0.00020292
0.0020475 0.000116284 2.24977e-06
0.000116284 0.000148555 -7.75661e-07
2.24977e-06 -7.75661e-07 5.36981e-05
0.00602771 -2.7318e-05 -0.000146763
-2.7318e-05 0.00350619 9.1508e-08
-0.000146763 9.1508e-08 0.00349562
0.000374515 6.07399e-05 2.88223e-07
6.07399e-05 -0.000219414 2.89088e-07
2.88223e-07 2.89088e-07 -0.000313592
0.0011427 0.000108881 1.16451e-05
0.000108881 -6.41774e-05 1.31763e-06
1.16451e-05 1.31763e-06 -0.00021264
0.00665595 0.000154237 -1.04996e-05
0.000154237 0.00388347 -1.8546e-06
-1.04996e-05 -1.8546e-06 0.00390577
0.000394362 9.2138e-05 1.88905e-05
9.2138e-05 -0.000209203 6.03285e-06
1.88905e-05 6.03285e-06 -0.000311678
0.00692129 0.000285041 0.000373553
0.000285041 0.00406989 3.95922e-05
0.000373553 3.95922e-05 0.00407725
0.00186115 -5.37186e-05 -0.00025349
-5.37186e-05 0.000828544 1.62381e-06
-0.00025349 1.62381e-06 0.000830248
0.00156488 3.28212e-05 -6.44856e-05
3.28212e-05 0.000531733 -1.71398e-08
-6.44856e-05 -1.71398e-08 0.000468765
0.00113328 3.14986e-05 1.24575e-05
3.14986e-05 -5.43508e-05 4.87256e-07
1.24575e-05 4.87256e-07 -0.00017873
0.00619679 -5.08829e-05 6.65439e-06
-5.08829e-05 0.00360355 2.9248e-06
6.65439e-06 2.9248e-06 0.00362946
0.000377887 -1.07946e-05 1.85769e-05
-1.07946e-05 -0.000212428 8.74776e-07
1.85769e-05 8.74776e-07 -0.000296643
0.00627625 -8.88558e-05 0.000341449
-8.88558e-05 0.00365277 -5.8931e-06
0.000341449 -5.8931e-06 0.00367853
0.001411 2.43392e-05 -6.84304e-05
2.43392e-05 0.00057214 -1.15737e-06
-6.84304e-05 -1.15737e-06 0.00053138
0.00156708 2.13209e-05 -6.54968e-05
2.13209e-05 0.000534723 -1.65857e-06
-6.54968e-05 -1.65857e-06 0.000466558
0.00110571 6.85371e-05 1.18788e-05
6.85371e-05 -7.54754e-05 7.4304e-07
1.18788e-05 7.4304e-07 -0.000213727
0.00398945 7.36971e-05 0.00012813
7.36971e-05 0.00219393 4.15973e-06
0.00012813 4.15973e-06 0.00218744
0.000375481 7.04352e-05 1.91428e-05
7.04352e-05 -0.000218586 4.32719e-06
1.91428e-05 4.32719e-06 -0.000312745
0.00674548 0.000141448 0.000355737
0.000141448 0.00393147 2.37649e-05
0.000355737 2.37649e-05 0.0039575
0.00614233 -1.94403e-05 -8.69498e-06
-1.94403e-05 0.00357295 -3.46001e-06
-8.69498e-06 -3.46001e-06 0.00359739
0.00037364 5.17499e-05 2.03158e-05
5.17499e-05 -0.000226505 2.48302e-06
2.03158e-05 2.48302e-06 -0.000303647
0.00610537 3.31618e-05 0.000328903
3.31618e-05 0.00354124 1.44433e-07
0.000328903 1.44433e-07 0.00357095
0.00382976 3.47073e-05 0.000139104
3.47073e-05 0.00209913 5.74536e-06
0.000139104 5.74536e-06 0.00209528
0.000388451 1.05722e-05 1.85973e-05
1.05722e-05 -0.000208371 2.4152e-06
1.85973e-05 2.4152e-06 -0.00029531
0.00649043 9.60406e-06 0.000341884
9.60406e-06 0.00377197 1.07703e-05
0.000341884 1.07703e-05 0.00380061
0.00619661 -0.000114996 0.000327622
-0.000114996 0.00361074 -4.47625e-06
0.000327622 -4.47625e-06 0.00363101
0.006265 1.51782e-05 0.00033317
1.51782e-05 0.00363166 6.32309e-06
0.00033317 6.32309e-06 0.00366338
