# vtk DataFile Version 2.0
Wound Healing Simulation
ASCII
DATASET UNSTRUCTURED_GRID
POINTS 3012 float
69.9759 18.75 4
67.2507 60.3285 4
69.976 18.75 2
73.0099 25.446 4
71.1327 20.9142 4
68.6801 16.6661 4
67.8242 19.9263 3.9793
67.2507 60.3286 2
71.1327 54.0858 4
68.6801 58.3339 4
65.6939 62.2254 4
65.3107 59.0005 3.97832
74.6784 42.3946 4
73.7221 47.2057 4
69.9759 18.75 0
73.0099 25.446 2
68.6801 16.6661 2
71.1327 20.9142 2
67.8247 19.9298 2
74.6792 32.6053 4
73.7222 27.7943 4
72.1454 23.1494 4
70.613 26.2211 3.97893
68.8844 21.9581 3.97975
67.2507 14.6715 4
66.6356 17.9726 3.97844
65.7929 21.0277 3.96848
67.2507 60.3285 0
71.1327 54.0858 2
68.6801 58.3339 2
65.694 62.2255 2
65.3121 58.9961 2
72.1454 51.8506 4
69.9759 56.25 4
68.835 53.113 3.97894
64.0165 64.0165 4
66.6093 57.1333 3.97893
63.8838 60.7647 3.97864
63.4962 57.767 3.96909
60.3285 67.2507 4
74.6792 42.3947 2
73.7222 47.2057 2
74.9194 39.9526 4
74.2788 44.8158 4
72.1674 42.0856 3.97897
73.0099 49.554 4
71.2482 46.598 3.97835
73.0099 25.446 0
71.1327 20.9142 0
68.6801 16.6661 0
67.8242 19.9263 0.020696
74.6792 32.6053 2
73.7222 27.7943 2
67.2508 14.6715 2
72.1455 23.1494 2
70.6129 26.2217 2
66.6366 17.9771 2
68.8847 21.9603 2
65.7921 21.0287 2
74.9197 35.0474 4
74.2794 30.1841 4
72.1841 32.9436 3.97927
71.2772 28.4316 3.97862
69.8143 24.0596 3.97953
68.3432 26.9528 3.96787
66.7585 22.935 3.96815
65.694 12.7746 4
65.3218 16.1048 3.97768
64.7093 19.1988 3.96887
63.8622 22.0459 3.96558
71.1327 54.0858 0
65.6939 62.2254 0
68.6801 58.3339 0
65.3107 59.0005 0.0216817
72.1455 51.8506 2
69.9759 56.25 2
68.8352 53.1109 2
64.0165 64.0165 2
66.6102 57.1291 2
63.8857 60.7606 2
63.4954 57.7668 2
62.2254 65.694 4
58.8934 65.4136 3.98835
69.7676 50.9889 3.97868
67.7824 55.1671 3.97904
66.6454 52.2077 3.96761
62.3341 62.4261 3.98139
64.6566 56.0287 3.96887
62.1983 59.3962 3.96868
61.814 56.6719 3.965
58.3339 68.6801 4
60.3285 67.2508 2
73.7221 47.2057 0
74.6784 42.3946 0
74.9197 39.9526 2
74.2794 44.8159 2
72.1668 42.0855 2
73.0099 49.554 2
71.248 46.5977 2
75 37.5 4
72.4047 39.8023 3.9797
71.7817 44.3529 3.97895
69.8011 41.7898 3.96848
70.5739 48.8135 3.97833
68.9087 46.0143 3.96788
74.6792 32.6053 0
73.7222 27.7943 0
67.2507 14.6715 0
72.1454 23.1494 0
70.613 26.2211 0.0210727
68.8844 21.9581 0.0202461
66.6356 17.9726 0.0215608
65.7929 21.0277 0.031515
74.9197 35.0474 2
74.2794 30.1841 2
72.1835 32.944 2
71.277 28.4321 2
65.694 12.7745 2
65.3234 16.1098 2
69.8144 24.0608 2
68.343 26.9535 2
64.7084 19.1997 2
66.758 22.9359 2
63.8621 22.0463 2
72.4126 35.2244 3.97973
71.8031 30.6766 3.97922
69.8372 33.2693 3.96864
68.9627 29.0394 3.968
67.6075 24.9135 3.96795
66.1591 27.6435 3.967
64.0165 10.9835 4
64.7258 23.8402 3.96608
63.8879 14.3294 3.97864
63.5084 17.4538 3.96944
62.8867 20.3322 3.96484
62.0176 22.9704 3.96714
60.6824 11.0998 3.98289
57.6102 11.455 3.9744
72.1454 51.8506 0
69.9759 56.25 0
68.835 53.113 0.0210565
64.0165 64.0165 0
63.8838 60.7647 0.0213558
66.6093 57.1333 0.0210664
63.4962 57.767 0.0309138
62.2255 65.694 2
58.8951 65.4124 2
69.7676 50.9878 2
67.7828 55.1638 2
66.6448 52.2069 2
62.3363 62.4227 2
64.6557 56.0281 2
62.1974 59.397 2
61.8134 56.6717 2
60.667 63.9755 3.98412
57.0245 66.7346 3.98981
57.5561 63.6865 3.97676
67.5035 50.1755 3.96739
65.6978 54.1713 3.96809
64.5016 51.3747 3.96549
60.7693 60.9279 3.97148
62.8061 55.0595 3.96482
60.6483 58.1453 3.96467
60.3061 55.7676 3.96424
56.25 69.9759 4
58.3339 68.6801 2
60.3285 67.2507 0
58.92 9.65755 3.9856
62.2254 9.30607 4
73.0099 49.554 0
74.2788 44.8158 0
71.2482 46.598 0.0216533
72.1674 42.0856 0.0210271
74.9194 39.9526 0
75 37.5 2
72.4046 39.8024 2
71.7815 44.3525 2
69.8005 41.7895 2
70.5737 48.8131 2
68.9086 46.0137 2
72.4881 37.5123 3.97934
70.0386 39.6578 3.96866
69.4273 43.9074 3.96835
67.5638 41.4944 3.96895
68.262 48.1062 3.96749
66.6657 45.4322 3.96786
74.9197 35.0474 0
74.2794 30.1841 0
72.1841 32.9436 0.0207339
71.2772 28.4316 0.0213759
65.694 12.7746 0
65.3218 16.1048 0.0223163
69.8143 24.0596 0.0204733
68.3432 26.9528 0.0321339
66.7585 22.935 0.0318543
64.7093 19.1988 0.0311293
63.8622 22.0459 0.0344247
72.4125 35.2245 2
71.803 30.6771 2
69.8366 33.2698 2
68.9626 29.04 2
64.0165 10.9835 2
63.8901 14.3339 2
63.5074 17.4546 2
67.6072 24.9143 2
66.1593 27.6439 2
62.8871 20.3325 2
64.7255 23.8407 2
62.0168 22.9709 2
60.6852 11.1034 2
57.6121 11.4545 2
70.0553 35.3927 3.96874
69.4642 31.1505 3.96833
67.6257 33.5952 3.96855
66.736 29.6306 3.96738
65.489 25.709 3.96651
64.0396 28.2786 3.97096
62.3398 12.6574 3.98079
62.7697 24.6636 3.96856
62.1941 15.7963 3.96963
61.8016 18.6983 3.96448
61.152 21.3703 3.96523
60.2942 23.7713 3.96988
59.243 12.7943 3.97254
55.8725 10.2406 3.97708
56.4008 13.1413 3.97169
69.7676 50.9889 0.0213233
62.2254 65.694 0
58.8934 65.4136 0.0116518
67.7824 55.1671 0.0209591
66.6454 52.2077 0.032393
62.3341 62.4261 0.018612
62.1983 59.3962 0.0313222
64.6566 56.0287 0.031126
61.814 56.6719 0.0349957
60.669 63.9734 2
57.0258 66.7338 2
57.5564 63.6873 2
67.5031 50.1748 2
65.697 54.1706 2
64.5016 51.3744 2
60.7685 60.9291 2
62.8065 55.0594 2
60.6481 58.1456 2
60.3065 55.7675 2
55.0705 67.9315 3.99124
59.2158 62.3554 3.9727
55.8032 64.9056 3.98081
56.3221 62.0712 3.97381
65.2877 49.3976 3.96616
63.6805 53.2828 3.96506
62.3423 50.625 3.96746
59.3248 59.5405 3.96564
61.0313 54.2881 3.96585
59.2663 56.9901 3.9632
59.2003 55.1572 3.96616
48.1009 68.5768 3.98669
50.9482 69.9313 3.99145
54.0858 71.1327 4
56.25 69.976 2
58.3339 68.6801 0
57.0574 8.33693 3.98686
60.3285 7.74928 4
58.9229 9.65975 2
62.2255 9.30602 2
70.5739 48.8135 0.0216737
71.7817 44.3529 0.0210455
68.9087 46.0143 0.032122
69.8011 41.7898 0.0315189
72.4047 39.8023 0.0203024
75 37.5 0
72.4876 37.5123 2
70.0385 39.6577 2
69.4271 43.907 2
67.5636 41.4942 2
68.2618 48.1056 2
66.665 45.4318 2
70.1267 37.5221 3.96875
67.8055 39.5112 3.96911
67.1829 43.4645 3.9683
65.4435 41.2 3.97437
66.0224 47.4084 3.96714
64.5261 44.8281 3.97166
72.4126 35.2244 0.0202681
71.8031 30.6766 0.0207771
69.8372 33.2693 0.0313567
68.9627 29.0394 0.0319973
64.0165 10.9835 0
63.8879 14.3294 0.0213577
63.5084 17.4538 0.0305574
67.6075 24.9135 0.0320476
66.1591 27.6435 0.033005
64.7258 23.8402 0.0339238
62.8867 20.3322 0.0351557
62.0176 22.9704 0.032858
60.6824 11.0998 0.0171119
57.6102 11.455 0.0256024
70.0552 35.393 2
69.464 31.151 2
67.6256 33.5954 2
66.7358 29.631 2
62.3423 12.6619 2
62.1932 15.7964 2
61.8013 18.6985 2
65.4889 25.7095 2
64.038 28.2792 2
61.1509 21.3708 2
62.7688 24.6642 2
60.2939 23.7721 2
59.2447 12.7926 2
56.4019 13.1389 2
55.874 10.2403 2
67.8453 35.55 3.96903
67.2326 31.6285 3.9681
65.5957 33.9373 3.97393
64.5545 30.2117 3.97186
63.4409 26.4393 3.96974
62.0815 28.8136 3.97533
60.7715 14.2367 3.9714
60.8989 25.3799 3.9722
60.6009 17.1463 3.96555
60.169 19.8466 3.9629
59.537 22.305 3.96651
58.8014 24.3779 3.97274
54.0361 9.1418 3.97927
57.9036 14.3571 3.97079
54.7829 12.0292 3.97362
55.3037 14.6835 3.96919
67.5035 50.1755 0.0326099
57.0245 66.7346 0.0101887
60.667 63.9755 0.0158812
57.5561 63.6865 0.0232448
65.6978 54.1713 0.0319133
64.5016 51.3747 0.0345072
60.7693 60.9279 0.0285169
60.6483 58.1453 0.0353312
62.8061 55.0595 0.0351835
60.3061 55.7676 0.035762
55.0715 67.9312 2
59.2165 62.3575 2
55.8035 64.9062 2
56.3214 62.0736 2
65.2877 49.3971 2
63.6807 53.2826 2
62.3419 50.6246 2
59.3238 59.5415 2
61.0322 54.288 2
59.2684 56.9902 2
59.2022 55.1571 2
53.0425 68.9994 3.99131
53.9656 66.0106 3.98352
57.874 60.8516 3.97142
54.6811 63.199 3.97643
55.2027 60.5895 3.97156
63.0799 48.6345 3.96892
61.6655 52.5502 3.96663
60.1077 49.9761 3.96953
58.0009 58.2403 3.966
59.2471 53.9145 3.96738
58.0592 55.7786 3.96142
50.1076 67.8552 3.98622
47.4619 66.5764 3.98269
46.0547 69.1558 3.98699
48.101 68.5775 2
48.8022 70.7225 3.99158
50.9489 69.9311 2
51.8506 72.1454 4
54.0858 71.1327 2
56.25 69.9759 0
55.1021 7.14137 3.98919
58.3339 6.31992 4
57.0597 8.33845 2
60.3286 7.74926 2
58.92 9.65755 0.0144009
62.2254 9.30607 0
68.262 48.1062 0.0325058
69.4273 43.9074 0.0316505
66.6657 45.4322 0.0321411
67.5638 41.4944 0.031053
70.0386 39.6578 0.0313371
72.4881 37.5123 0.0206636
70.1262 37.5222 2
67.8048 39.5111 2
67.1836 43.4642 2
65.4417 41.1997 2
66.0226 47.408 2
64.5243 44.8276 2
67.9055 37.5228 3.9691
65.6825 39.3655 3.97504
65.0581 43.0102 3.97314
63.5688 40.9118 3.97713
63.8396 46.6924 3.97016
62.6086 44.1852 3.97578
70.0553 35.3927 0.031262
69.4642 31.1505 0.0316666
67.6257 33.5952 0.0314472
66.736 29.6306 0.032624
62.3398 12.6574 0.0192101
62.1941 15.7963 0.0303718
61.8016 18.6983 0.035517
65.489 25.709 0.0334853
64.0396 28.2786 0.0290443
62.7697 24.6636 0.0314368
61.152 21.3703 0.0347652
60.2942 23.7713 0.0301161
59.243 12.7943 0.0274568
56.4008 13.1413 0.0283092
55.8725 10.2406 0.0229236
67.8445 35.5502 2
67.2331 31.6288 2
65.5933 33.9376 2
64.5525 30.2122 2
60.7713 14.2378 2
60.6002 17.1466 2
60.17 19.8466 2
63.4397 26.4398 2
62.0792 28.8145 2
59.5386 22.3056 2
60.8983 25.3807 2
58.8006 24.3793 2
57.9041 14.3551 2
55.3047 14.6827 2
54.0375 9.14027 2
54.7841 12.0264 2
65.7753 35.6723 3.97472
65.0733 32.1697 3.97257
64.1247 34.2648 3.9773
62.4029 30.6676 3.97633
61.4867 27.1123 3.97336
60.6277 29.1872 3.97707
59.3015 15.6908 3.96665
59.1263 25.8543 3.97563
59.0971 18.3843 3.96254
58.6391 20.9012 3.96331
58.1128 23.154 3.96749
57.7683 24.7325 3.97422
52.1113 8.15733 3.98237
53.0552 11.0294 3.97456
56.6639 15.776 3.96918
53.8026 13.7125 3.9724
54.3595 16.0409 3.96909
55.0705 67.9315 0.00876377
65.2877 49.3976 0.0338382
55.8032 64.9056 0.0191926
59.2158 62.3554 0.0273
56.3221 62.0712 0.0261866
63.6805 53.2828 0.0349429
62.3423 50.625 0.0325448
59.3248 59.5405 0.0343642
59.2663 56.9901 0.0368001
61.0313 54.2881 0.0341502
59.2003 55.1572 0.0338393
53.0433 68.9993 2
53.9659 66.0114 2
57.8732 60.8537 2
54.6806 63.1999 2
55.2023 60.5913 2
63.079 48.634 2
61.666 52.55 2
60.1078 49.9754 2
58.0001 58.2412 2
59.2497 53.9143 2
58.057 55.7774 2
52.0689 66.998 3.98575
52.952 64.212 3.98003
56.6355 59.4652 3.96894
53.6748 61.6058 3.97568
54.2444 59.2913 3.9729
60.7919 47.837 3.97075
59.5757 52.0645 3.96805
57.8073 49.5605 3.97153
56.7425 56.9582 3.96628
57.0119 54.0782 3.96565
50.1077 67.8555 2
49.336 65.9171 3.98271
47.462 66.5769 2
46.8911 64.7288 3.9812
45.557 67.0931 3.98269
43.9721 69.5878 3.98738
46.0548 69.1563 2
46.6087 71.3669 3.99169
48.1009 68.5768 0.0133131
48.8028 70.7226 2
49.554 73.0099 4
50.9482 69.9313 0.00855181
51.8506 72.1455 2
54.0858 71.1327 0
53.0641 6.07231 3.99102
55.1041 7.14166 2
56.25 5.02411 4
58.3339 6.3199 2
57.0574 8.33693 0.0131361
60.3285 7.74928 0
66.0224 47.4084 0.0328634
67.1829 43.4645 0.0317019
64.5261 44.8281 0.0283361
65.4435 41.2 0.0256316
67.8055 39.5112 0.0308941
70.1267 37.5221 0.0312475
67.9053 37.5228 2
65.6807 39.3654 2
65.0556 43.0097 2
63.566 40.9111 2
63.838 46.6918 2
62.6061 44.1843 2
65.7885 37.5023 3.97492
63.7187 39.2583 3.9769
63.1328 42.5252 3.97697
62.1908 40.6757 3.97684
61.764 45.8813 3.97318
61.1936 43.6424 3.97709
67.8453 35.55 0.0309672
67.2326 31.6285 0.0318954
65.5957 33.9373 0.026074
64.5545 30.2117 0.028137
60.7715 14.2367 0.0286035
60.6009 17.1463 0.0344473
60.169 19.8466 0.0370974
63.4409 26.4393 0.0302573
62.0815 28.8136 0.0246674
60.8989 25.3799 0.0278043
59.537 22.305 0.0334911
58.8014 24.3779 0.0272579
57.9036 14.3571 0.0292145
55.3037 14.6835 0.0308099
54.0361 9.1418 0.0207325
54.7829 12.0292 0.0263811
65.7735 35.6724 2
65.0712 32.1701 2
64.1223 34.2653 2
62.4011 30.6683 2
59.3002 15.6916 2
59.0984 18.384 2
58.644 20.9013 2
61.4851 27.1131 2
60.6266 29.1881 2
58.11 23.1557 2
59.1257 25.8555 2
57.7685 24.7344 2
56.6642 15.7741 2
54.3607 16.0423 2
53.8028 13.7057 2
52.1121 8.15624 2
53.0565 11.0278 2
63.9221 35.6412 3.97681
62.7301 33.0712 3.97663
60.3579 30.6599 3.97652
59.3384 27.9671 3.97634
57.9217 17.0139 3.96486
57.5096 25.7989 3.97646
57.6517 19.5198 3.9605
57.217 21.9052 3.9634
56.9661 24.024 3.96827
50.1119 7.2875 3.9859
51.2309 10.1336 3.97752
52.1661 12.8172 3.97599
55.5155 17.0122 3.96768
52.9661 15.306 3.97018
53.7352 17.0286 3.97616
53.0425 68.9994 0.0086858
53.9656 66.0106 0.0164762
63.0799 48.6345 0.0310824
54.6811 63.199 0.0235662
57.874 60.8516 0.0285752
55.2027 60.5895 0.02844
61.6655 52.5502 0.0333674
60.1077 49.9761 0.0304719
58.0009 58.2403 0.0339971
58.0592 55.7786 0.0385783
59.2471 53.9145 0.032617
52.0691 66.9987 2
52.9518 64.2128 2
56.6352 59.4667 2
53.674 61.6057 2
54.2441 59.2935 2
60.791 47.8361 2
59.5761 52.064 2
57.8049 49.5591 2
56.741 56.9623 2
57.0098 54.0768 2
51.1671 65.1236 3.98226
52.0424 62.5292 3.97742
55.4577 58.2226 3.97117
52.8219 60.1056 3.97687
53.6167 58.4415 3.977
58.0185 46.7872 3.97478
57.3923 51.7346 3.96807
55.9833 49.487 3.97095
55.4122 55.7536 3.96348
55.2184 53.3318 3.9626
50.1076 67.8552 0.0137798
49.336 65.9173 2
48.6168 64.1164 3.9816
47.4619 66.5764 0.0173104
45.5571 67.0937 2
46.8912 64.7293 2
46.3803 63.0437 3.9824
45.1315 65.1889 3.98055
43.6303 67.4638 3.98322
41.8598 69.8748 3.98699
43.972 69.5882 2
44.3759 71.8617 3.99171
46.0547 69.1558 0.0130098
46.6092 71.3671 2
47.2057 73.7222 4
48.8022 70.7225 0.0084193
49.554 73.0099 2
51.8506 72.1454 0
50.9544 5.13276 3.99179
53.0654 6.07244 2
54.0858 3.86728 4
55.1021 7.14137 0.0108053
56.25 5.02406 2
58.3339 6.31992 0
63.8396 46.6924 0.029839
65.0581 43.0102 0.0268594
62.6086 44.1852 0.0242157
63.5688 40.9118 0.0228688
65.6825 39.3655 0.0249566
67.9055 37.5228 0.0309004
65.7866 37.5023 2
63.716 39.2581 2
63.1304 42.5244 2
62.189 40.6752 2
61.7621 45.8804 2
61.1917 43.6415 2
63.7806 37.4575 3.97681
61.9066 39.3414 3.97699
60.9405 41.9235 3.9769
59.9807 44.7212 3.97675
65.7753 35.6723 0.0252796
65.0733 32.1697 0.027433
64.1247 34.2648 0.0227041
62.4029 30.6676 0.0236694
59.3015 15.6908 0.0333511
59.0971 18.3843 0.0374641
58.6391 20.9012 0.0366878
61.4867 27.1123 0.0266402
60.6277 29.1872 0.0229337
59.1263 25.8543 0.0243733
58.1128 23.154 0.0325137
57.7683 24.7325 0.0257838
56.6639 15.776 0.0308244
54.3595 16.0409 0.0309114
53.8026 13.7125 0.0276014
52.1113 8.15733 0.0176318
53.0552 11.0294 0.0254405
63.9195 35.6414 2
62.7283 33.072 2
60.3566 30.6606 2
57.9199 17.0146 2
57.6569 19.5186 2
57.2188 21.9063 2
59.3371 27.9683 2
56.968 24.0261 2
57.5083 25.8011 2
50.1126 7.28584 2
55.5165 17.0121 2
53.7355 17.0273 2
52.9666 15.3034 2
52.1675 12.8183 2
51.2321 10.132 2
61.9447 35.3754 3.97685
59.9912 32.787 3.97677
58.3162 30.1408 3.97686
57.0085 27.4634 3.97701
56.604 18.1951 3.96404
56.0426 25.1918 3.97427
56.2595 20.5812 3.96091
55.9107 22.9508 3.9622
48.0565 6.52891 3.98844
49.3241 9.33749 3.98069
50.4293 12.0095 3.97574
51.3675 14.5276 3.97055
54.3815 17.968 3.96499
52.3407 17.0953 3.96387
52.0689 66.998 0.0142528
52.952 64.212 0.0199739
60.7919 47.837 0.0292545
53.6748 61.6058 0.024321
56.6355 59.4652 0.0310554
54.2444 59.2913 0.0270986
59.5757 52.0645 0.0319469
57.8073 49.5605 0.0284728
56.7425 56.9582 0.0337248
57.0119 54.0782 0.034353
51.1671 65.1244 2
52.0418 62.5302 2
55.4575 58.2243 2
52.8213 60.109 2
53.6163 58.4429 2
58.0172 46.7861 2
57.3913 51.7334 2
55.9801 49.4857 2
55.4115 55.7541 2
55.2212 53.3321 2
50.3446 63.3743 3.98137
51.2359 60.9184 3.97638
54.1833 57.2385 3.97244
52.2906 58.5999 3.97481
56.3086 44.1027 3.97721
55.173 47.8193 3.9742
54.857 51.3263 3.96548
53.9095 54.4985 3.96452
49.336 65.9171 0.0172936
48.6168 64.1164 2
47.9594 62.4662 3.9815
45.557 67.0931 0.0173074
46.8911 64.7288 0.0188024
43.6304 67.4644 2
46.3803 63.0443 2
45.1316 65.1895 2
45.9847 61.5749 3.98555
44.7659 63.4418 3.97946
43.356 65.4984 3.98051
41.6626 67.6819 3.98286
39.702 70.021 3.98697
41.8596 69.8753 2
42.1103 72.2064 3.99191
43.9721 69.5878 0.0126207
44.3763 71.8618 2
44.8159 74.2794 4
46.6087 71.3669 0.00830719
47.2057 73.7222 2
49.554 73.0099 0
48.7853 4.32333 3.99251
50.9553 5.13229 2
51.8506 2.85458 4
53.0641 6.07231 0.0089802
54.0858 3.86728 2
56.25 5.02411 0
61.764 45.8813 0.0268227
63.1328 42.5252 0.0230314
61.1936 43.6424 0.0229057
62.1908 40.6757 0.0231625
63.7187 39.2583 0.0231039
65.7885 37.5023 0.0250775
63.7777 37.4574 2
61.9054 39.3414 2
60.9395 41.9231 2
59.9802 44.7203 2
61.7405 37.4423 3.97701
59.9195 39.8225 3.97696
58.6333 42.8628 3.97666
63.9221 35.6412 0.0231903
62.7301 33.0712 0.0233732
60.3579 30.6599 0.0234811
57.9217 17.0139 0.0351372
57.6517 19.5198 0.0394993
57.217 21.9052 0.0365975
59.3384 27.9671 0.0236647
57.5096 25.7989 0.0235412
56.9661 24.024 0.0317269
55.5155 17.0122 0.0323187
53.7352 17.0286 0.0238375
52.9661 15.306 0.0298205
50.1119 7.2875 0.0140961
52.1661 12.8172 0.024007
51.2309 10.1336 0.0224829
61.9435 35.3756 2
59.99 32.7871 2
58.3157 30.1409 2
56.603 18.1961 2
56.2632 20.5788 2
55.9138 22.9533 2
57.0079 27.4652 2
56.0411 25.1944 2
48.0568 6.52709 2
49.325 9.33526 2
54.3826 17.9679 2
52.3401 17.0929 2
51.3671 14.5229 2
50.431 12.0068 2
59.5615 35.1395 3.97684
57.6135 32.3265 3.97614
56.2074 29.4273 3.97729
55.121 26.7101 3.97698
55.2883 19.2395 3.96016
54.693 24.1604 3.96426
54.8643 21.639 3.95979
45.9628 5.88314 3.989
43.3743 7.47507 3.98554
47.3555 8.62736 3.98393
48.5982 11.3042 3.97702
49.7049 13.7623 3.975
50.6153 16.1716 3.97432
53.0829 18.722 3.96288
51.2725 18.1271 3.97679
51.1671 65.1236 0.0177399
52.0424 62.5292 0.0225751
58.0185 46.7872 0.0252154
52.8219 60.1056 0.0231319
55.4577 58.2226 0.028834
53.6167 58.4415 0.023005
57.3923 51.7346 0.0319268
55.9833 49.487 0.0290486
55.4122 55.7536 0.0365235
55.2184 53.3318 0.0374001
50.3442 63.3746 2
51.235 60.9184 2
54.1837 57.2403 2
52.2899 58.6008 2
56.3085 44.1018 2
55.172 47.818 2
54.8594 51.3262 2
53.9104 54.5003 2
49.5879 61.7369 3.97956
55.1166 41.6607 3.9752
50.5497 59.3052 3.9723
52.1383 56.4582 3.96952
53.751 45.4689 3.97459
53.0366 49.2493 3.96936
52.5105 52.797 3.96123
48.6168 64.1164 0.0184009
47.9591 62.4658 2
47.3236 60.999 3.98614
43.6303 67.4638 0.0167812
45.1315 65.1889 0.0194467
46.3803 63.0437 0.0176045
41.6629 67.682 2
43.356 65.4993 2
45.9846 61.5756 2
44.766 63.4424 2
45.7596 60.6197 3.98446
44.4814 61.8199 3.98059
43.1457 63.7137 3.97846
41.5457 65.6353 3.97933
39.6322 67.7605 3.98265
37.526 70.0456 3.98595
39.7018 70.0215 2
39.8172 72.403 3.9917
41.8598 69.8748 0.013009
42.1107 72.2066 2
42.3947 74.6792 4
44.3759 71.8617 0.00828582
44.8159 74.2794 2
47.2057 73.7222 0
43.8519 5.36034 3.98872
46.5713 3.64758 3.99268
48.7857 4.32262 2
49.554 1.99015 4
50.9544 5.13276 0.00820762
51.8506 2.85453 2
54.0858 3.86728 0
59.9807 44.7212 0.0232524
60.9405 41.9235 0.0231018
61.9066 39.3414 0.0230085
63.7806 37.4575 0.023193
61.7393 37.4422 2
59.9196 39.8223 2
58.6332 42.862 2
59.4189 37.566 3.97735
57.5802 40.6192 3.97713
54.5289 39.6759 3.9753
61.9447 35.3754 0.0231478
59.9912 32.787 0.0232312
58.3162 30.1408 0.0231373
56.604 18.1951 0.0359593
56.2595 20.5812 0.0390925
55.9107 22.9508 0.0377958
57.0085 27.4634 0.0229894
56.0426 25.1918 0.0257333
54.3815 17.968 0.0350112
52.3407 17.0953 0.0361308
51.3675 14.5276 0.0294491
48.0565 6.52891 0.0115618
49.3241 9.33749 0.0193104
50.4293 12.0095 0.0242591
59.5617 35.1394 2
45.9626 5.88269 2
43.3742 7.47433 2
57.6139 32.3273 2
56.2065 29.4279 2
55.2861 19.2405 2
54.873 21.6405 2
54.6914 24.1624 2
55.1182 26.7123 2
47.3559 8.62384 2
48.5995 11.3013 2
53.0833 18.7178 2
51.2735 18.1286 2
50.6162 16.1723 2
49.7053 13.7611 2
56.9662 34.7878 3.97724
55.3125 31.5888 3.97645
54.1272 28.521 3.97736
53.4914 25.6257 3.97633
53.8901 20.2037 3.95809
53.4086 22.8155 3.95444
41.3995 7.08098 3.9856
45.3607 7.99556 3.98673
42.8664 9.41862 3.98178
46.6665 10.6597 3.98125
47.7385 13.1158 3.97691
48.9168 15.4266 3.97205
49.9768 17.7363 3.97131
51.5983 19.4053 3.9711
50.3446 63.3743 0.0186342
51.2359 60.9184 0.0236249
56.3086 44.1027 0.0227946
55.173 47.8193 0.0258047
52.2906 58.5999 0.0251901
54.1833 57.2385 0.0275625
54.857 51.3263 0.0345218
53.9095 54.4985 0.0354755
49.587 61.7368 2
55.1118 41.6581 2
50.5491 59.3057 2
52.1385 56.4601 2
53.7515 45.468 2
53.0445 49.2492 2
52.5117 52.797 2
48.8376 60.1919 3.97692
51.936 42.5373 3.98249
49.7552 57.6001 3.96741
50.4927 54.3921 3.96347
51.4167 47.1761 3.97554
50.9877 50.8804 3.95505
47.6064 43.6682 3.9832
47.9594 62.4662 0.0185021
47.3233 60.9986 2
46.6079 59.7868 3.98824
41.6626 67.6819 0.017141
43.356 65.4984 0.019491
44.7659 63.4418 0.020539
45.9847 61.5749 0.0144489
39.6326 67.7612 2
41.5456 65.6348 2
45.7595 60.6202 2
43.1458 63.7146 2
44.4813 61.8205 2
44.6162 60.2781 3.98777
42.9485 62.066 3.97469
41.5997 63.8064 3.97875
39.6472 65.6015 3.97817
37.5632 67.7412 3.98107
31.6978 65.1189 3.97884
33.3925 67.4794 3.98099
35.3339 69.9557 3.98616
37.5258 70.0467 2
37.5094 72.4575 3.99203
39.702 70.021 0.0130326
39.8175 72.4033 2
39.9526 74.9197 4
42.1103 72.2064 0.00808543
42.3947 74.6792 2
44.8159 74.2794 0
41.7364 4.96943 3.98898
43.8521 5.35947 2
44.3266 3.11084 3.99298
46.5715 3.64733 2
47.2057 1.27793 4
48.7853 4.32333 0.00749008
49.554 1.99013 2
51.8506 2.85458 0
58.6333 42.8628 0.0233368
59.9195 39.8225 0.02304
61.7405 37.4423 0.0229856
59.4193 37.5666 2
57.5798 40.6196 2
54.5249 39.6797 2
56.3448 37.8832 3.97712
48.9647 41.2467 3.98217
52.5282 39.3071 3.98399
39.4431 6.80491 3.98573
59.5615 35.1395 0.0231637
57.6135 32.3265 0.0238567
56.2074 29.4273 0.0227101
55.2883 19.2395 0.0398434
54.8643 21.639 0.0402078
54.693 24.1604 0.0357442
55.121 26.7101 0.0230163
53.0829 18.722 0.037123
51.2725 18.1271 0.0232103
50.6153 16.1716 0.0256774
45.9628 5.88314 0.0110036
49.7049 13.7623 0.0249955
47.3555 8.62736 0.0160719
48.5982 11.3042 0.0229839
43.3743 7.47507 0.0144648
56.9656 34.7874 2
41.3995 7.07974 2
45.3601 7.99544 2
42.866 9.41838 2
55.3154 31.587 2
54.1273 28.5216 2
53.8929 20.207 2
53.4068 22.8137 2
53.4892 25.627 2
46.6672 10.6535 2
47.7398 13.111 2
51.6009 19.4072 2
49.9765 17.7342 2
48.9162 15.4282 2
54.3433 33.9845 3.97564
53.0483 30.611 3.97708
52.2202 27.3466 3.97539
51.9313 24.2355 3.97779
52.2873 21.1471 3.97119
41.0136 9.05315 3.9813
44.7263 9.99537 3.98486
42.4674 10.9046 3.98982
46.0002 12.7383 3.97651
47.6681 14.6018 3.97158
48.0838 17.0086 3.9705
49.7844 19.7648 3.97066
49.5879 61.7369 0.020442
50.5497 59.3052 0.0276953
55.1166 41.6607 0.0247985
53.751 45.4689 0.0254091
53.0366 49.2493 0.0306423
52.1383 56.4582 0.0304808
52.5105 52.797 0.0387715
48.8368 60.1904 2
51.9526 42.5441 2
49.7535 57.601 2
50.4928 54.3944 2
51.4215 47.176 2
50.9898 50.8793 2
47.6178 43.6937 2
47.9643 58.7239 3.97848
49.5689 45.1837 3.97801
48.535 55.8925 3.97004
48.9813 52.5524 3.97647
49.3799 48.9688 3.97336
45.3628 39.8244 3.87422
45.8385 42.539 3.9043
46.0354 45.691 3.98162
43.1748 41.0644 3.7394
41.7426 41.9327 3.56321
47.3236 60.999 0.0138646
46.6071 59.7863 2
45.4518 58.7846 3.9876
39.6322 67.7605 0.0173548
41.5457 65.6353 0.020669
43.1457 63.7137 0.0215387
44.4814 61.8199 0.0194124
45.7596 60.6197 0.0155362
41.5997 63.8062 2
37.5635 67.7422 2
39.6471 65.6023 2
44.6164 60.2786 2
42.9484 62.0668 2
41.7517 62.4777 3.97748
42.4758 59.9579 3.97887
39.8939 63.5379 3.97631
37.6421 65.4981 3.97815
35.4636 67.6508 3.98115
33.5758 65.3318 3.97797
31.9602 63.2856 3.97829
29.8845 64.7104 3.9805
31.6976 65.1198 2
31.3774 67.1893 3.98144
33.3927 67.4803 2
33.1572 69.7497 3.98622
35.3337 69.9566 2
35.1954 72.3719 3.99186
37.526 70.0456 0.0140463
37.5094 72.4581 2
37.5 75 4
39.8172 72.403 0.00830036
39.9526 74.9197 2
42.3947 74.6792 0
39.6242 4.71718 3.98941
41.7367 4.96854 2
42.063 2.71824 3.99326
43.8519 5.36034 0.0112831
44.3267 3.11023 2
44.8158 0.721173 4
46.5713 3.64758 0.00731954
47.2057 1.27779 2
49.554 1.99015 0
57.5802 40.6192 0.0228717
59.4189 37.566 0.0226532
54.5289 39.6759 0.0247024
48.9905 41.2635 2
56.3452 37.8819 2
52.5275 39.2825 2
53.3778 36.6286 3.97764
46.889 40.3478 3.90889
49.9072 38.5177 3.98844
37.5171 6.676 3.98569
39.4432 6.80327 2
39.2112 8.69584 3.98327
35.9431 8.49541 3.98418
56.9662 34.7878 0.0227555
55.3125 31.5888 0.0235507
54.1272 28.521 0.0226405
53.8901 20.2037 0.0419087
53.4086 22.8155 0.0455599
53.4914 25.6257 0.0236728
51.5983 19.4053 0.0288984
49.9768 17.7363 0.0286909
48.9168 15.4266 0.0279525
45.3607 7.99556 0.0132743
47.7385 13.1158 0.0230888
46.6665 10.6597 0.0187464
41.3995 7.08098 0.0144039
42.8664 9.41862 0.0182193
54.3392 33.9851 2
41.0138 9.05198 2
44.7247 9.99587 2
42.4671 10.9055 2
53.0445 30.6107 2
52.2286 27.3468 2
52.2928 21.1485 2
51.9314 24.241 2
46.0009 12.7284 2
47.6679 14.5962 2
49.7877 19.768 2
48.082 17.006 2
51.8707 32.8919 3.98161
50.8491 29.3057 3.97663
50.4927 25.8613 3.97254
49.8418 22.3594 3.98464
40.5687 11.6141 3.98085
43.8557 11.9137 3.97967
45.7868 15.4387 3.98451
47.4788 19.3731 3.97811
45.785 37.4817 3.86839
48.8376 60.1919 0.0230819
49.7552 57.6001 0.032591
51.936 42.5373 0.0175112
51.4167 47.1761 0.024456
50.9877 50.8804 0.044946
50.4927 54.3921 0.0365288
47.6064 43.6682 0.0168005
47.9631 58.7264 2
49.5825 45.1946 2
48.532 55.8947 2
48.9813 52.5579 2
49.3848 48.9664 2
45.4222 39.8418 2
45.8655 42.5769 2
46.043 45.7004 2
43.2038 41.0963 2
41.7682 41.9535 2
46.8026 57.3268 3.9776
43.921 39.3617 3.74108
42.0947 40.8171 3.60442
47.6808 47.2022 3.98007
47.0748 54.2068 3.9681
47.39 50.7026 3.97467
44.4734 47.3036 3.97694
44.4865 41.8838 3.85418
44.5186 44.4286 3.91799
42.1168 42.538 3.76235
40.6973 42.2408 3.58768
46.6079 59.7868 0.0117585
45.4517 58.7842 2
43.8575 57.6899 3.9797
37.5632 67.7412 0.018934
39.6472 65.6015 0.0218251
41.5997 63.8064 0.0212468
42.9485 62.066 0.0253123
44.6162 60.2781 0.0122276
35.4638 67.6517 2
41.7515 62.4781 2
39.8937 63.5385 2
37.6421 65.499 2
42.4762 59.9585 2
40.6223 61.626 3.97868
40.4376 58.1652 3.97979
37.8375 63.1965 3.97613
35.573 65.4208 3.97854
33.5757 65.3326 2
31.9599 63.2867 2
33.6293 63.3244 3.97655
30.3799 62.8453 3.98021
32.1251 61.9886 3.98328
26.8736 61.4841 3.97701
28.0639 64.1387 3.97923
29.884 64.7112 2
29.4072 66.7531 3.98218
31.6978 65.1189 0.0211566
31.3775 67.1901 2
31.015 69.4146 3.98598
33.3925 67.4794 0.0190056
33.1571 69.7504 2
32.8929 72.1464 3.9918
35.3339 69.9557 0.0138398
35.195 72.3724 2
35.0474 74.9194 4
37.5094 72.4575 0.0079666
37.5 75 2
39.9526 74.9197 0
35.6217 6.72688 3.98542
37.5239 4.61659 3.98954
39.6244 4.7158 2
39.7895 2.47486 3.99321
41.7364 4.96943 0.0110229
42.0629 2.7177 2
42.3946 0.32156 4
44.3266 3.11084 0.0070157
44.8159 0.72056 2
47.2057 1.27793 0
48.9647 41.2467 0.017831
56.3448 37.8832 0.0228832
52.5282 39.3071 0.0160063
46.9138 40.3433 2
49.912 38.5093 2
53.3822 36.6415 2
50.7004 35.5739 3.97538
47.5599 37.7624 3.92564
45.3722 35.1564 3.87203
43.1859 33.9144 3.73739
41.7528 33.0514 3.56126
37.4586 8.53736 3.98442
37.517 6.67467 2
39.4431 6.80491 0.0142746
39.2116 8.69397 2
38.9766 10.1309 3.98315
35.8994 9.77747 3.98067
34.1525 8.82666 3.98254
35.9428 8.49371 2
54.3433 33.9845 0.0243642
53.0483 30.611 0.0229163
52.2202 27.3466 0.024615
52.2873 21.1471 0.0288099
51.9313 24.2355 0.0222126
49.7844 19.7648 0.0293412
48.0838 17.0086 0.0294994
47.6681 14.6018 0.0284212
44.7263 9.99537 0.0151404
46.0002 12.7383 0.0234895
41.0136 9.05315 0.0186989
42.4674 10.9046 0.0101768
51.8765 32.8897 2
40.5698 11.6142 2
43.8538 11.9166 2
50.8692 29.3046 2
50.4953 25.8625 2
49.8446 22.3583 2
45.784 15.4181 2
47.4809 19.3859 2
49.4281 31.5081 3.98735
48.9016 27.6295 3.97637
49.1903 24.5295 3.97639
47.1304 22.1239 3.98517
38.3021 12.743 3.97734
42.0971 14.3084 3.97977
44.7838 18.541 3.97629
44.302 37.4886 3.74814
45.864 37.4857 2
47.9643 58.7239 0.021516
48.535 55.8925 0.0299622
49.5689 45.1837 0.0219905
49.3799 48.9688 0.0266425
48.9813 52.5524 0.0235342
45.3628 39.8244 0.125779
45.8385 42.539 0.0957023
46.0354 45.691 0.0183838
43.1748 41.0644 0.260601
41.7426 41.9327 0.436794
46.8004 57.3288 2
43.9628 39.382 2
42.0922 40.8303 2
47.687 47.2045 2
47.0718 54.2108 2
47.394 50.7082 2
44.491 47.283 2
44.516 41.9096 2
44.5516 44.449 2
42.1659 42.5757 2
40.7182 42.2453 2
45.3464 55.9107 3.99049
42.4287 39.2514 3.61516
40.5799 40.6991 3.71686
45.826 48.8535 3.99495
45.3988 52.4866 3.98267
43.1961 48.2998 3.99658
43.1142 45.951 3.90245
43.26 43.6571 3.84715
40.8186 43.6217 3.73937
39.2241 42.5133 3.60388
45.4518 58.7846 0.0124046
43.8564 57.6918 2
42.0849 56.2849 3.98314
35.4636 67.6508 0.0188503
37.6421 65.4981 0.0218453
39.8939 63.5379 0.0236934
41.7517 62.4777 0.0225247
42.4758 59.9579 0.0211308
35.5731 65.4217 2
40.6223 61.6266 2
37.8372 63.1972 2
40.4377 58.1667 2
38.9134 56.4637 3.99117
38.2503 60.3094 3.97937
35.6073 63.1909 3.97586
33.5758 65.3318 0.0220299
31.9602 63.2856 0.0217056
33.6292 63.3254 2
30.3796 62.8461 2
32.1256 61.9899 2
28.6843 62.1893 3.97836
33.3466 61.498 3.9777
31.0711 61.2064 3.9796
27.5791 59.576 3.98088
23.8069 59.0651 3.98101
25.0402 60.8587 3.97738
26.8739 61.4844 2
26.2316 63.4685 3.97826
28.0636 64.1384 2
27.4642 66.1774 3.982
29.8845 64.7104 0.0194979
29.4072 66.7535 2
28.9075 68.9403 3.98559
31.3774 67.1893 0.018559
31.0147 69.4152 2
30.6155 71.7775 3.9913
33.1572 69.7497 0.0137848
32.8923 72.1468 2
32.6054 74.6784 4
35.1954 72.3719 0.00814038
35.0474 74.9197 2
37.5 75 0
33.7247 6.98256 3.98448
35.4359 4.68672 3.98945
35.6216 6.72583 2
37.5151 2.38733 3.99325
37.5239 4.61562 2
39.6242 4.71718 0.0105925
39.7893 2.47413 2
39.9526 0.0806499 4
42.063 2.71824 0.00674448
42.3947 0.320817 2
44.8158 0.721173 0
43.9302 35.6152 3.74064
42.1028 34.1618 3.59809
46.889 40.3478 0.0911081
49.9072 38.5177 0.0115624
53.3778 36.6286 0.0223617
47.5574 37.7469 2
50.7114 35.5693 2
45.4249 35.132 2
43.2219 33.8805 2
41.7772 33.0308 2
47.7361 34.3078 3.95419
44.4996 33.0779 3.84601
42.1321 32.4472 3.75459
40.7069 32.7508 3.58522
37.3112 10.6348 3.98096
37.4588 8.53554 2
37.5171 6.676 0.0143062
39.2112 8.69584 0.0167255
38.9781 10.1295 2
34.7555 10.386 3.98139
35.9 9.77418 2
32.3795 9.37421 3.97965
34.1513 8.82395 2
35.9431 8.49541 0.0158163
51.8707 32.8919 0.0183932
50.8491 29.3057 0.0233737
50.4927 25.8613 0.0274645
49.8418 22.3594 0.0153645
47.4788 19.3731 0.0218862
45.7868 15.4387 0.0154865
43.8557 11.9137 0.02033
40.5687 11.6141 0.0191508
49.4432 31.5008 2
38.3021 12.7414 2
42.0982 14.3142 2
48.9106 27.6309 2
49.1928 24.5269 2
47.125 22.1188 2
44.7852 18.5713 2
47.2838 29.6208 3.98438
46.8778 25.2694 3.97684
44.2527 21.4895 3.97887
36.584 12.9447 3.9753
38.6828 14.8299 3.9756
41.7435 17.8935 3.97775
42.5608 37.4789 3.64248
44.344 37.4873 2
45.785 37.4817 0.131609
46.8026 57.3268 0.0223959
47.0748 54.2068 0.0318976
47.6808 47.2022 0.0199262
47.39 50.7026 0.0253302
43.921 39.3617 0.25892
44.4865 41.8838 0.14582
44.5186 44.4286 0.0820124
44.4734 47.3036 0.0230614
42.1168 42.538 0.237651
42.0947 40.8171 0.395583
40.6973 42.2408 0.412318
45.3439 55.9113 2
42.4221 39.2541 2
40.5883 40.6817 2
45.8298 48.8633 2
45.3971 52.4925 2
43.2041 48.3159 2
43.166 45.9874 2
43.3016 43.6855 2
40.8529 43.6707 2
39.2217 42.5183 2
43.675 54.3945 3.99968
40.6841 39.1151 3.73014
39.1004 40.7675 3.69866
43.5112 50.3691 4.00503
41.814 47.4873 3.93859
41.717 45.0529 3.8625
39.3356 44.2847 3.7302
37.5053 42.6107 3.63373
43.8575 57.6899 0.0202992
42.0842 56.2859 2
40.3957 54.861 3.98257
35.573 65.4208 0.0214617
37.8375 63.1965 0.0238715
40.6223 61.626 0.0213229
40.4376 58.1652 0.0202135
35.607 63.1912 2
38.2504 60.31 2
38.9137 56.4592 2
37.9891 55.1684 3.99264
36.9327 57.6069 3.98736
35.3645 60.896 3.97731
33.6293 63.3244 0.0234536
30.3799 62.8453 0.0197899
32.1251 61.9886 0.0167195
33.3472 61.499 2
28.6844 62.189 2
31.0718 61.2079 2
29.4108 60.2722 3.9764
32.3622 59.7236 3.98704
28.0429 58.3582 3.9961
27.5808 59.5768 2
25.3958 58.5799 3.97724
22.7796 58.2185 3.96812
23.4084 60.3331 3.97938
23.8081 59.066 2
25.0407 60.8591 2
24.4353 62.7609 3.97869
26.8736 61.4841 0.0229926
26.2317 63.4692 2
25.5488 65.4863 3.9804
28.0639 64.1387 0.0207742
27.4641 66.1778 2
26.8372 68.3289 3.98561
29.4072 66.7531 0.0178228
28.9073 68.9404 2
28.3706 71.2628 3.99098
31.015 69.4146 0.0140182
30.6147 71.7777 2
30.1842 74.2788 4
32.8929 72.1464 0.00819745
32.6053 74.6792 2
35.0474 74.9194 0
31.7893 7.4226 3.98309
33.3484 4.92636 3.98874
33.7243 6.98068 2
35.2454 2.4633 3.99318
35.4357 4.68612 2
35.6217 6.72688 0.0145751
37.5 0 4
37.5147 2.38684 2
37.5239 4.61659 0.0104565
39.7895 2.47486 0.00679312
39.9526 0.0802889 2
42.3946 0.32156 0
42.4164 35.7092 3.61155
43.9795 35.5895 2
40.5919 34.2879 3.71623
42.0968 34.1481 2
47.5599 37.7624 0.0743566
50.7004 35.5739 0.0246198
45.3722 35.1564 0.127973
43.1859 33.9144 0.262607
41.7528 33.0514 0.438739
47.7514 34.3177 2
44.5298 33.0579 2
42.1855 32.4072 2
40.728 32.7457 2
45.7861 31.6796 3.92275
43.2735 31.3311 3.84615
40.8297 31.37 3.74022
39.2312 32.4905 3.6016
35.6945 11.7829 3.97941
37.3133 10.6321 2
37.4586 8.53736 0.0155783
38.9766 10.1309 0.0168514
33.1006 11.2251 3.97594
34.7545 10.3811 2
35.8994 9.77747 0.0193343
30.4846 10.024 3.97946
32.3783 9.373 2
34.1525 8.82666 0.0174571
49.4281 31.5081 0.0126531
48.9016 27.6295 0.023633
49.1903 24.5295 0.0236051
47.1304 22.1239 0.0148277
44.7838 18.541 0.0237131
42.0971 14.3084 0.0202278
38.3021 12.743 0.0226595
36.5817 12.9342 2
47.3008 29.5912 2
38.6805 14.816 2
41.739 17.8835 2
46.8831 25.2666 2
44.248 21.476 2
45.1945 27.7551 4.00599
43.6673 24.1946 4.01431
41.316 20.8723 3.98125
35.7739 14.781 3.97756
38.6808 17.6318 3.97856
40.7349 37.4712 3.74309
42.5625 37.4816 2
44.302 37.4886 0.251859
45.3464 55.9107 0.00951004
45.3988 52.4866 0.0173296
45.826 48.8535 0.0050498
42.4287 39.2514 0.38484
43.26 43.6571 0.152848
43.1142 45.951 0.0975459
43.1961 48.2998 0.00342486
40.8186 43.6217 0.260629
40.5799 40.6991 0.283142
39.2241 42.5133 0.396124
43.6713 54.394 2
40.6756 39.1111 2
39.1013 40.7529 2
43.5103 50.3871 2
41.8045 47.5141 2
41.742 45.0898 2
37.5019 42.6197 2
39.3491 44.3339 2
41.8298 52.91 3.99521
39.1141 39.1314 3.71821
37.5069 40.8185 3.71807
35.7879 42.5216 3.6047
40.8469 49.5466 3.99564
39.7755 45.8576 3.83919
37.5036 44.5225 3.7414
42.0849 56.2849 0.0168587
40.3906 54.8737 2
38.7196 53.7249 3.9962
35.6073 63.1909 0.0241362
38.2503 60.3094 0.0206253
38.9134 56.4637 0.00883003
35.3649 60.8954 2
36.9335 57.607 2
37.9878 55.1626 2
36.3211 55.2404 3.99679
34.4908 58.5018 3.98798
33.3466 61.498 0.0222999
28.6843 62.1893 0.0216419
31.0711 61.2064 0.0204017
32.363 59.7261 2
29.4121 60.2717 2
30.3185 57.798 3.98561
28.0446 58.3585 2
26.9848 56.8132 3.97406
27.5791 59.576 0.0191173
25.3976 58.5808 2
23.8814 56.7794 3.96134
21.3667 57.3685 3.96454
22.0058 59.602 3.97606
22.7807 58.2202 2
22.7404 62.0118 3.97674
23.409 60.3336 2
23.8069 59.0651 0.0189877
25.0402 60.8587 0.0226232
24.4355 62.7616 2
23.6832 64.7038 3.97993
26.2316 63.4685 0.0217394
25.5486 65.4873 2
24.8095 67.59 3.98497
27.4642 66.1774 0.0180013
26.8369 68.3296 2
26.1657 70.6037 3.99104
28.9075 68.9403 0.0144088
28.3698 71.2627 2
27.7943 73.7221 4
30.6155 71.7775 0.00870437
30.1841 74.2794 2
32.6054 74.6784 0
29.812 7.99732 3.98192
31.2539 5.33331 3.98777
31.7887 7.42121 2
32.9813 2.70159 3.99286
33.348 4.92512 2
33.7247 6.98256 0.0155165
35.0474 0.080333 4
35.245 2.46306 2
35.4359 4.68672 0.0105519
37.5 0 2
37.5151 2.38733 0.00674796
39.9526 0.0806499 0
40.6963 35.8437 3.72796
42.412 35.7121 2
43.9302 35.6152 0.259359
28.5449 10.6989 3.97849
39.099 34.2352 3.698
40.591 34.3038 2
42.1028 34.1618 0.401913
47.7361 34.3078 0.045812
44.4996 33.0779 0.15399
42.1321 32.4472 0.24541
40.7069 32.7508 0.414784
45.8164 31.6565 2
43.3129 31.2986 2
40.8675 31.3175 2
39.2338 32.4865 2
44.0868 29.8753 3.91797
41.717 29.9324 3.86389
39.3453 30.7127 3.72957
37.516 32.4031 3.63369
34.096 12.9472 3.97499
35.693 11.7746 2
37.3112 10.6348 0.0190354
31.1889 11.9946 3.97777
33.1001 11.2237 2
34.7555 10.386 0.0186138
30.4828 10.0212 2
32.3795 9.37421 0.0203468
47.2838 29.6208 0.0156157
46.8778 25.2694 0.0231626
36.584 12.9447 0.0247007
44.2527 21.4895 0.0211284
41.7435 17.8935 0.0222547
38.6828 14.8299 0.0244042
35.775 14.7876 2
45.1997 27.7505 2
38.677 17.6352 2
41.311 20.8692 2
43.667 24.1849 2
33.6117 15.8964 3.97761
42.8374 26.6074 3.99116
40.839 23.4513 4.00037
38.4092 20.407 3.9889
35.8511 17.534 3.97981
39.1222 37.4879 3.73945
40.7248 37.4727 2
42.5608 37.4789 0.357518
43.675 54.3945 0.000316288
43.5112 50.3691 -0.00503149
40.6841 39.1151 0.269858
41.717 45.0529 0.137501
41.814 47.4873 0.0614128
39.3356 44.2847 0.269805
39.1004 40.7675 0.301344
37.5053 42.6107 0.366268
41.824 52.9097 2
39.1069 39.1175 2
37.506 40.8 2
40.8439 49.5648 2
35.785 42.5259 2
39.7962 45.9054 2
37.4945 44.5638 2
39.768 51.7534 4.0017
37.5058 39.1396 3.74805
35.9173 40.7806 3.69911
34.3126 42.2565 3.58734
35.6749 44.2971 3.72545
38.6657 48.5023 3.95263
37.5166 46.1454 3.86053
40.3957 54.861 0.0174299
38.7176 53.7135 2
36.7476 53.0477 3.99752
35.3645 60.896 0.0226939
36.9327 57.6069 0.0126429
37.9891 55.1684 0.00736293
34.4914 58.501 2
36.3208 55.2427 2
33.248 55.4307 3.99248
32.3622 59.7236 0.0129625
29.4108 60.2722 0.0235956
30.3204 57.7971 2
28.7524 55.2975 3.98142
28.0429 58.3582 0.00389919
26.9862 56.8137 2
25.382 55.1161 3.96427
21.8714 55.3159 3.9632
25.3958 58.5799 0.0227595
23.882 56.7822 2
20.2505 56.9996 3.96562
20.6623 58.7509 3.96813
21.367 57.3704 2
21.1731 61.1551 3.97528
22.0064 59.6025 2
22.7796 58.2185 0.0318787
21.8971 63.8309 3.97867
22.7407 62.0124 2
23.4084 60.3331 0.0206245
24.4353 62.7609 0.0213106
23.683 64.7044 2
22.838 66.7331 3.98377
25.5488 65.4863 0.019595
24.8093 67.5909 2
24.0099 69.8049 3.99103
26.8372 68.3289 0.0143902
26.1648 70.6037 2
25.446 73.0099 4
28.3706 71.2628 0.00901705
27.7943 73.7222 2
30.1842 74.2788 0
27.8218 8.65673 3.9818
29.1561 5.8796 3.98645
29.8109 7.99502 2
30.7267 3.09855 3.99259
31.2533 5.33211 2
31.7893 7.4226 0.0169114
32.6053 0.320823 4
32.9807 2.70104 2
33.3484 4.92636 0.0112562
35.0474 0.0802903 2
35.2454 2.4633 0.00681825
37.5 0 0
39.111 35.8568 3.72083
40.6816 35.8476 2
42.4164 35.7092 0.388448
28.5434 10.6977 2
26.6232 11.3951 3.97851
29.228 12.6496 3.9794
37.5078 34.197 3.71648
39.1033 34.2523 2
40.5919 34.2879 0.28377
45.7861 31.6796 0.0772478
43.2735 31.3311 0.153846
40.8297 31.37 0.259777
39.2312 32.4905 0.398397
44.1033 29.8587 2
41.7404 29.8993 2
39.3545 30.6633 2
37.5173 32.3933 2
42.1583 28.5547 3.88721
39.7728 29.131 3.85972
37.5155 30.4871 3.73955
35.7984 32.4934 3.60398
31.9197 14.494 3.9782
34.0959 12.9486 2
35.6945 11.7829 0.0205879
31.1878 11.9907 2
33.1006 11.2251 0.0240576
30.4846 10.024 0.0205407
45.1945 27.7551 -0.00598697
43.6673 24.1946 -0.0143137
35.7739 14.781 0.0224413
41.316 20.8723 0.0187487
38.6808 17.6318 0.0214388
33.6096 15.8912 2
35.8473 17.5381 2
42.8429 26.604 2
38.4031 20.4124 2
40.8304 23.4361 2
33.5544 17.4101 3.9788
40.2765 25.8306 3.96636
38.0633 23.1472 4.001
35.5836 20.1203 3.98803
37.5056 37.4966 3.76582
39.115 37.485 2
40.7349 37.4712 0.256913
41.8298 52.91 0.0047934
40.8469 49.5466 0.00435582
39.1141 39.1314 0.281794
39.7755 45.8576 0.160813
37.5036 44.5225 0.258599
37.5069 40.8185 0.28193
35.7879 42.5216 0.395303
39.7655 51.7592 2
37.5067 39.1298 2
35.9164 40.7669 2
38.6769 48.5496 2
34.2922 42.2618 2
35.6546 44.3472 2
37.5139 46.1917 2
37.6659 50.799 3.99932
35.9044 39.1484 3.7203
34.4376 40.7225 3.71837
33.2628 41.9514 3.56498
34.1817 43.6273 3.73846
35.2038 45.862 3.85361
36.9243 48.1164 3.92023
38.7196 53.7249 0.00380321
36.751 53.0508 2
34.4155 52.3688 3.99932
34.4908 58.5018 0.0120184
36.3211 55.2404 0.00320658
33.2495 55.4341 2
30.5868 53.3134 3.99402
30.3185 57.798 0.014388
28.7534 55.2983 2
26.9881 53.4083 3.9691
26.9848 56.8132 0.0259444
25.3827 55.12 2
23.6929 53.4416 3.9589
20.6137 53.173 3.96063
19.9823 55.799 3.96346
21.8689 55.3181 2
23.8814 56.7794 0.0386646
19.459 57.8612 3.97062
20.2497 57.0011 2
19.7151 60.1774 3.97315
20.6624 58.7517 2
21.3667 57.3685 0.0354603
20.2104 62.8509 3.97617
21.1738 61.1573 2
22.0058 59.602 0.0239397
20.9393 65.7618 3.98232
21.897 63.8317 2
22.7404 62.0118 0.0232564
23.6832 64.7038 0.020073
22.8377 66.7335 2
21.9125 68.872 3.99055
24.8095 67.59 0.0150295
24.0088 69.8048 2
23.1494 72.1454 4
26.1657 70.6037 0.00896267
25.446 73.0099 2
27.7943 73.7221 0
25.8608 9.38564 3.98078
27.0708 6.54359 3.98538
27.8205 8.65564 2
28.4891 3.6445 3.99195
29.1553 5.87813 2
29.812 7.99732 0.0180774
30.1841 0.720592 4
30.7258 3.09812 2
31.2539 5.33331 0.0122286
32.6053 0.320817 2
32.9813 2.70159 0.00713696
35.0474 0.080333 0
37.506 35.86 3.7466
39.0984 35.8639 2
40.6963 35.8437 0.272038
24.7786 12.082 3.97778
23.7556 14.3734 3.97518
28.5449 10.6989 0.0215116
26.622 11.3947 2
29.227 12.6484 2
27.2944 13.3827 3.97838
29.7858 14.2108 3.97951
35.9153 34.2368 3.69757
37.5118 34.2153 2
39.099 34.2352 0.301997
37.516 32.4031 0.366314
44.0868 29.8753 0.08203
41.717 29.9324 0.136112
39.3453 30.7127 0.270428
42.1854 28.5147 2
39.7875 29.085 2
37.5186 30.4423 2
35.798 32.4879 2
39.9425 27.7708 3.89636
37.4935 28.8562 3.85909
35.6848 30.7276 3.73325
34.3257 32.7592 3.58694
30.9332 16.8535 3.9806
31.9181 14.4877 2
34.096 12.9472 0.0250053
31.1889 11.9946 0.0222296
42.8374 26.6074 0.00883613
40.839 23.4513 -0.000373577
33.6117 15.8964 0.0223925
35.8511 17.534 0.0201867
38.4092 20.407 0.0111039
33.5502 17.4184 2
35.5829 20.1245 2
40.3175 25.8229 2
38.0498 23.1308 2
32.8737 19.8138 3.9931
37.7183 25.4534 3.98073
35.1987 22.8399 3.998
35.8884 37.5003 3.74102
37.5044 37.4971 2
39.1222 37.4879 0.260555
39.768 51.7534 -0.00169717
38.6657 48.5023 0.0473728
37.5058 39.1396 0.251953
37.5166 46.1454 0.139471
35.6749 44.2971 0.274546
35.9173 40.7806 0.30089
34.3126 42.2565 0.412655
37.6553 50.8234 2
35.9152 39.1355 2
34.4291 40.7065 2
36.901 48.1662 2
33.2363 41.9709 2
34.1525 43.6763 2
35.1853 45.9029 2
35.5261 49.9753 3.98808
34.3323 39.1495 3.72933
32.9115 40.8392 3.602
32.8864 42.5558 3.75721
33.304 45.0596 3.85826
34.3796 47.237 3.89411
36.7476 53.0477 0.00247624
34.4114 52.3752 2
32.1191 51.1288 4.01689
33.248 55.4307 0.00751941
30.5876 53.3171 2
28.5621 51.54 3.98913
28.7524 55.2975 0.0185805
26.9885 53.4119 2
25.2423 51.6917 3.95499
25.382 55.1161 0.0357348
23.6913 53.4455 2
22.1579 51.7439 3.9527
19.4185 51.5735 3.96141
19.0202 54.2664 3.96272
20.6124 53.1726 2
18.4793 56.6943 3.96608
19.9803 55.8007 2
21.8714 55.3159 0.0367998
18.3818 59.0831 3.96831
19.4585 57.8625 2
20.2505 56.9996 0.034378
18.6239 61.7476 3.97336
19.7158 60.1789 2
20.6623 58.7509 0.0318682
19.1284 64.6704 3.98051
20.2104 62.8518 2
21.1731 61.1551 0.0247174
19.8866 67.8087 3.99043
20.9388 65.7622 2
21.8971 63.8309 0.0213331
22.838 66.7331 0.016233
21.9112 68.8714 2
20.9142 71.1327 4
24.0099 69.8049 0.00897109
23.1494 72.1455 2
25.446 73.0099 0
23.0984 12.7986 3.97638
23.9734 10.1747 3.97931
25.0244 7.31436 3.98426
25.8596 9.38504 2
26.2808 4.32855 3.99137
27.0698 6.54282 2
27.8218 8.65673 0.0181996
27.7943 1.27781 4
28.4878 3.64419 2
29.1561 5.8796 0.0135486
30.1841 0.720551 2
30.7267 3.09855 0.0074134
32.6053 0.320823 0
35.8939 35.8567 3.71586
37.509 35.8716 2
39.111 35.8568 0.279168
24.7769 12.0797 2
23.7557 14.3752 2
22.4859 15.0525 3.97973
25.3611 13.9211 3.97493
24.036 15.6365 3.9814
26.6232 11.3951 0.0214862
29.228 12.6496 0.0205973
27.2947 13.3826 2
29.7836 14.2094 2
28.3654 15.9844 3.97979
34.4416 34.3001 3.71633
35.9123 34.2511 2
37.5078 34.197 0.28352
35.7984 32.4934 0.396018
37.5155 30.4871 0.260451
42.1583 28.5547 0.112793
39.7728 29.131 0.140278
39.9604 27.736 2
37.4957 28.8086 2
35.6687 30.6728 2
34.3027 32.7577 2
37.5827 27.493 3.904
35.2215 29.1487 3.85889
34.191 31.3859 3.73861
33.2779 33.0642 3.56377
30.2209 19.3863 3.98106
30.9303 16.8476 2
31.9197 14.494 0.0218039
40.2765 25.8306 0.0336384
38.0633 23.1472 -0.000995345
33.5544 17.4101 0.0211987
35.5836 20.1203 0.0119652
32.8694 19.8216 2
35.1904 22.8263 2
37.757 25.4364 2
32.3408 22.5268 3.99633
35.0414 25.3932 3.99941
34.2789 37.5119 3.74442
35.8948 37.5024 2
37.5056 37.4966 0.234184
37.6659 50.799 0.000682696
36.9243 48.1164 0.0797677
35.9044 39.1484 0.279704
35.2038 45.862 0.146388
34.1817 43.6273 0.261538
34.4376 40.7225 0.281634
33.2628 41.9514 0.435017
35.5131 49.9836 2
34.3439 39.1445 2
32.9133 40.8502 2
34.3775 47.2768 2
32.846 42.5932 2
33.2831 45.0968 2
33.3506 49.0076 3.97899
32.5888 39.2846 3.61358
31.8242 41.083 3.73989
31.7368 43.6687 3.84854
32.4885 46.1938 3.8946
34.4155 52.3688 0.000677245
32.1201 51.1393 2
30.0598 49.7019 4.00215
30.5868 53.3134 0.00598323
28.5609 51.5369 2
26.7215 49.9148 3.96766
26.9881 53.4083 0.0309047
25.2403 51.6908 2
23.5808 50.1098 3.96275
23.6929 53.4416 0.0410961
22.1563 51.7424 2
20.7222 50.2408 3.96474
18.2277 50.268 3.96818
18.0067 52.7401 3.9639
19.4164 51.5729 2
17.5073 55.3052 3.96249
19.0155 54.2668 2
20.6137 53.173 0.0393686
17.1529 57.8486 3.96541
18.4783 56.6952 2
19.9823 55.799 0.0365353
17.1431 60.524 3.96991
18.3816 59.0848 2
19.459 57.8612 0.0293758
17.4094 63.4616 3.97564
18.6243 61.7481 2
19.7151 60.1774 0.0268535
17.9431 66.6171 3.98887
19.1278 64.6706 2
20.2104 62.8509 0.0238284
18.75 69.9759 4
19.8852 67.8079 2
20.9393 65.7618 0.0176778
21.9125 68.872 0.00945314
20.9142 71.1327 2
23.1494 72.1454 0
21.5908 13.6227 3.97703
22.1917 11.0357 3.9777
23.0978 12.7995 2
23.0421 8.18096 3.98303
23.972 10.173 2
24.1184 5.14337 3.99077
25.0233 7.31368 2
25.8608 9.38564 0.0192225
25.446 1.99014 4
26.2793 4.32871 2
27.0708 6.54359 0.014618
27.7943 1.27778 2
28.4891 3.6445 0.00804961
30.1841 0.720592 0
34.3337 35.8723 3.72938
35.9022 35.8705 2
37.506 35.86 0.253396
21.3163 15.852 3.98326
24.7786 12.082 0.0222209
23.7556 14.3734 0.0248227
25.3609 13.9167 2
22.4863 15.0522 2
24.0366 15.6395 2
23.2795 16.2659 3.97496
25.392 16.1076 3.98053
27.2944 13.3827 0.0216198
29.7858 14.2108 0.0204871
28.3629 15.9892 2
27.4542 18.8365 3.97912
32.9165 34.1805 3.60464
34.4338 34.3172 2
35.9153 34.2368 0.302427
34.3257 32.7592 0.413064
35.6848 30.7276 0.266745
37.4935 28.8562 0.140914
39.9425 27.7708 0.10364
37.5702 27.4586 2
33.2526 33.0474 2
35.2167 29.0956 2
34.1539 31.3328 2
35.1171 27.5984 3.90457
33.2968 29.9512 3.85857
32.9028 32.4546 3.74269
29.6369 21.9895 3.99682
30.2184 19.3926 2
30.9332 16.8535 0.0194027
37.7183 25.4534 0.0192662
35.1987 22.8399 0.00200403
32.8737 19.8138 0.00689835
32.3399 22.5205 2
35.0705 25.3816 2
31.8619 25.7669 4.00501
32.4387 37.5118 3.64433
34.2951 37.5094 2
35.8884 37.5003 0.258978
35.5261 49.9753 0.0119246
34.3796 47.237 0.105892
34.3323 39.1495 0.270673
33.304 45.0596 0.14174
32.8864 42.5558 0.242795
32.9115 40.8392 0.398005
33.3369 49.0077 2
32.6019 39.2849 2
31.7876 41.1128 2
32.4536 46.2321 2
31.699 43.6983 2
31.3894 47.8504 3.98128
31.0837 39.3843 3.74126
30.5126 41.9232 3.84976
30.7739 44.8109 3.91414
32.1191 51.1288 -0.0168928
30.0601 49.7177 2
28.165 48.0947 3.95936
28.5621 51.54 0.0108695
26.7199 49.9146 2
24.9526 48.3732 3.97043
25.2423 51.6917 0.0450087
23.5795 50.1084 2
21.9813 48.6987 3.971
22.1579 51.7439 0.047299
20.7194 50.2396 2
19.3127 49.0208 3.97221
17.1155 49.2759 3.97377
16.9603 51.356 3.96728
18.2303 50.2666 2
16.4964 53.8313 3.96472
18.0047 52.7398 2
19.4185 51.5735 0.0385939
16.0045 56.4519 3.96359
17.5035 55.306 2
19.0202 54.2664 0.037277
15.7595 59.1896 3.96669
17.1532 57.8491 2
18.4793 56.6943 0.0339237
15.7915 62.1221 3.97215
17.1433 60.5266 2
18.3818 59.0831 0.0316925
16.0899 65.2991 3.98778
17.4086 63.4625 2
18.6239 61.7476 0.0266399
16.6661 68.6801 4
17.9414 66.6159 2
19.1284 64.6704 0.0194935
18.75 69.9759 2
19.8866 67.8087 0.00956802
20.9142 71.1327 0
20.2251 14.6181 3.97495
21.5905 13.6227 2
20.5318 12.0084 3.97617
21.1448 9.15166 3.98172
22.1906 11.036 2
23.0984 12.7986 0.0236249
22.0175 6.08247 3.99022
23.0407 8.17988 2
23.9734 10.1747 0.020689
23.1494 2.85457 4
24.1166 5.14372 2
25.0244 7.31436 0.015744
25.446 1.99012 2
26.2808 4.32855 0.00863149
27.7943 1.27781 0
32.5783 35.7416 3.61364
34.344 35.8758 2
35.8939 35.8567 0.28414
21.317 15.8505 2
20.3211 16.9834 3.97945
22.1116 16.6556 3.97034
25.3611 13.9211 0.025073
22.4859 15.0525 0.0202685
24.036 15.6365 0.0185966
25.392 16.1032 2
23.2803 16.2657 2
24.2216 18.502 3.9718
27.078 21.5164 3.99463
28.3654 15.9844 0.0202142
27.4525 18.8368 2
31.8441 33.9465 3.73512
32.9224 34.1668 2
34.4416 34.3001 0.283671
33.2779 33.0642 0.436225
34.191 31.3859 0.261387
35.2215 29.1487 0.141107
37.5827 27.493 0.0959967
35.1246 27.5542 2
32.833 32.4171 2
33.279 29.923 2
32.733 28.2879 3.91492
31.7399 31.3528 3.84666
28.974 24.4772 3.98554
29.6321 21.9963 2
30.2209 19.3863 0.0189369
35.0414 25.3932 0.000586494
32.3408 22.5268 0.00366517
31.8571 25.745 2
29.9016 27.4127 3.97772
30.6964 37.5129 3.74698
32.4496 37.5105 2
34.2789 37.5119 0.255582
33.3506 49.0076 0.0210137
32.4885 46.1938 0.105405
32.5888 39.2846 0.386422
31.7368 43.6687 0.15146
31.8242 41.083 0.260111
31.383 47.8603 2
31.0295 39.4092 2
30.4823 41.9399 2
30.7422 44.841 2
29.5543 46.4659 3.99944
29.631 39.8511 3.87514
29.2105 43.0519 3.9165
30.0598 49.7019 -0.00215388
28.161 48.09 2
26.3282 46.5496 3.97858
26.7215 49.9148 0.0323432
24.9511 48.3723 2
23.2 46.9704 3.97533
23.5808 50.1098 0.0372508
21.9788 48.6975 2
20.2942 47.5375 3.9772
20.7222 50.2408 0.0352568
19.3142 49.0192 2
17.9267 48.1161 3.97713
16.3521 48.6327 3.97636
17.1168 49.2749 2
16.039 50.122 3.97119
15.5097 52.3756 3.96694
16.9616 51.3551 2
18.2277 50.268 0.0318166
14.9293 54.9501 3.96378
16.4975 53.831 2
18.0067 52.7401 0.0361021
14.4716 57.7225 3.96587
16.0043 56.4523 2
17.5073 55.3052 0.0375104
14.2708 60.6787 3.97067
15.7603 59.1904 2
17.1529 57.8486 0.0345875
14.3353 63.8571 3.98318
15.7912 62.1248 2
17.1431 60.524 0.030094
14.6715 67.2507 4
16.0877 65.2975 2
17.4094 63.4616 0.0243633
16.6661 68.6801 2
17.9431 66.6171 0.0111315
18.75 69.9759 0
18.9421 15.8039 3.97666
20.2253 14.6165 2
18.9831 13.124 3.97563
21.5908 13.6227 0.0229701
20.5311 12.009 2
19.3443 10.2416 3.98021
19.9921 7.14722 3.98945
21.1437 9.15187 2
22.1917 11.0357 0.0222989
20.9142 3.86727 4
22.0153 6.08309 2
23.0421 8.18096 0.0169717
23.1494 2.85451 2
24.1184 5.14337 0.00923093
25.446 1.99014 0
31.1018 35.6383 3.73902
32.59 35.7387 2
34.3337 35.8723 0.270618
21.3163 15.852 0.0167393
22.1122 16.655 2
20.3216 16.9808 2
19.2796 18.4341 3.96508
21.8003 17.8841 3.98229
25.392 16.1076 0.019472
23.2795 16.2659 0.025037
24.2189 18.5063 2
22.3367 19.9407 3.96636
24.661 21.4085 3.98835
26.5827 23.7817 3.9769
27.0776 21.5072 2
27.4542 18.8365 0.0208821
30.554 33.1101 3.86271
31.8097 33.9032 2
32.9165 34.1805 0.395359
32.9028 32.4546 0.257313
33.2968 29.9512 0.14143
35.1171 27.5984 0.0954312
32.6945 28.2595 2
31.6924 31.3178 2
30.4628 29.6889 3.93868
28.1531 26.6253 3.99168
28.9646 24.4879 2
29.6369 21.9895 0.00318239
31.8619 25.7669 -0.0050141
29.8932 27.3922 2
29.2083 37.5151 3.86918
30.6579 37.5132 2
32.4387 37.5118 0.355673
31.3894 47.8504 0.0187216
30.7739 44.8109 0.0858614
31.0837 39.3843 0.258737
30.5126 41.9232 0.150241
29.5545 46.4671 2
29.5816 39.8687 2
29.18 43.0867 2
27.7765 44.777 3.9708
27.3995 40.5866 3.94432
28.165 48.0947 0.0406396
26.3243 46.5539 2
24.4779 45.0903 3.97663
24.9526 48.3732 0.0295716
23.1984 46.97 2
21.2906 45.8063 3.97803
21.9813 48.6987 0.0289982
20.2926 47.5361 2
18.6272 46.6664 3.97729
19.3127 49.0208 0.027786
17.9272 48.115 2
16.571 47.6595 3.97694
16.3535 48.6318 2
15.3829 48.9708 3.97492
17.1155 49.2759 0.0262307
16.0409 50.1211 2
14.6297 50.947 3.96945
13.906 53.4074 3.9655
15.5107 52.3751 2
16.9603 51.356 0.0327168
13.2708 56.154 3.96448
14.9292 54.95 2
16.4964 53.8313 0.0352783
12.8549 59.1147 3.96902
14.473 57.7225 2
16.0045 56.4519 0.0364086
12.6812 62.2989 3.98014
14.2715 60.6794 2
15.7595 59.1896 0.0333126
12.7746 65.6939 4
14.3332 63.854 2
15.7915 62.1221 0.0278489
14.6714 67.2507 2
16.0899 65.2991 0.0122191
16.6661 68.6801 0
17.6869 17.1815 3.96865
18.9423 15.8027 2
17.5166 14.3896 3.97438
20.2251 14.6181 0.0250537
18.9827 13.1237 2
17.6405 11.4621 3.97781
20.5318 12.0084 0.0238279
19.3432 10.2418 2
18.0522 8.3405 3.98845
18.75 5.0241 4
19.9897 7.1487 2
21.1448 9.15166 0.0182787
20.9142 3.86727 2
22.0175 6.08247 0.00978497
23.1494 2.85457 0
29.6505 35.1867 3.8747
31.0483 35.6165 2
32.5783 35.7416 0.386358
22.1116 16.6556 0.0296648
20.3211 16.9834 0.0205484
21.8001 17.8823 2
19.2789 18.4315 2
18.0589 19.9797 3.95832
20.9282 19.4154 3.96719
24.2216 18.502 0.0281958
22.3338 19.9416 2
24.6602 21.4073 2
22.4603 21.7759 3.98103
24.8519 23.2211 3.97496
25.7455 26.0132 3.97847
26.5826 23.7771 2
27.078 21.5164 0.00537163
28.9327 32.4562 3.9198
30.5041 33.0846 2
31.8441 33.9465 0.26488
31.7399 31.3528 0.153339
32.733 28.2879 0.0850795
30.4467 29.6881 2
27.4285 29.2112 4.00878
28.142 26.6336 2
28.974 24.4772 0.0144637
29.9016 27.4127 0.0222773
27.5119 37.365 3.92291
29.1453 37.5072 2
30.6964 37.5129 0.253018
29.5543 46.4659 0.000563894
29.2105 43.0519 0.0834965
29.631 39.8511 0.124856
27.7641 44.8073 2
27.3778 40.5864 2
25.8181 43.082 3.98868
24.6568 39.4505 3.97341
26.3282 46.5496 0.0214216
24.4673 45.0914 2
22.3672 43.851 3.97753
23.2 46.9704 0.0246745
21.2868 45.8059 2
19.3523 44.9009 3.97717
20.2942 47.5375 0.0228029
18.627 46.6655 2
16.9063 46.1542 3.97705
17.9267 48.1161 0.0228665
16.5722 47.6586 2
15.136 47.6259 3.97614
16.3521 48.6327 0.0236438
15.3847 48.97 2
13.9345 49.5106 3.97182
16.039 50.122 0.0288149
14.6306 50.9464 2
12.9793 51.8487 3.96712
12.1699 54.5141 3.96498
13.906 53.4073 2
15.5097 52.3756 0.0330645
11.5407 57.4504 3.96877
13.2714 56.154 2
14.9293 54.9501 0.0362229
11.1359 60.6248 3.97836
12.8561 59.1143 2
14.4716 57.7225 0.0341251
10.9835 64.0165 4
12.6793 62.2954 2
14.2708 60.6787 0.0293333
12.7745 65.694 2
14.3353 63.8571 0.0168196
14.6715 67.2507 0
16.4338 18.6767 3.96236
17.6864 17.1801 2
16.1113 15.8024 3.96988
18.9421 15.8039 0.0233378
17.5163 14.389 2
16.0229 12.8171 3.97523
18.9831 13.124 0.0243695
17.6397 11.4631 2
16.2032 9.66386 3.98732
19.3443 10.2416 0.0197887
18.0497 8.34253 2
16.6661 6.31991 4
18.75 5.02404 2
19.9921 7.14722 0.0105529
20.9142 3.86727 0
28.0462 34.8225 3.9121
29.5982 35.1596 2
31.1018 35.6383 0.260985
16.7745 21.4157 3.96542
21.8003 17.8841 0.0177078
19.2796 18.4341 0.034916
20.9263 19.4136 2
18.0572 19.9787 2
19.8389 21.6232 3.96851
22.3367 19.9407 0.0336409
24.661 21.4085 0.0116504
22.4583 21.7768 2
24.85 23.2213 2
23.0785 24.6678 3.97388
24.9716 28.5996 3.97903
25.7393 26.0146 2
26.5827 23.7817 0.0230976
26.7832 31.7997 3.97883
28.9051 32.4363 2
30.554 33.1101 0.137286
30.4628 29.6889 0.0613169
27.4447 29.1931 2
28.1531 26.6253 0.00831756
25.3418 36.8562 3.97652
27.5007 37.3576 2
29.2083 37.5151 0.130819
27.7765 44.777 0.0291977
27.3995 40.5866 0.0556788
25.7989 43.0969 2
24.6383 39.4514 2
23.5486 41.8113 3.98102
22.3737 38.5199 3.97798
24.4779 45.0903 0.0233748
22.3673 43.851 2
20.1977 42.8389 3.97638
21.2906 45.8063 0.0219666
19.3529 44.9006 2
17.2919 44.3253 3.97648
18.6272 46.6664 0.022711
16.908 46.1535 2
15.0858 46.0461 3.97632
16.571 47.6595 0.0230625
15.1376 47.6252 2
13.4585 47.9746 3.97365
15.3829 48.9708 0.0250761
13.9357 49.51 2
12.2058 50.229 3.96857
14.6297 50.947 0.030546
12.9798 51.8484 2
11.1691 52.8253 3.96561
10.3313 55.7059 3.96853
12.1701 54.514 2
13.906 53.4074 0.0345004
9.70251 58.8474 3.97761
11.5414 57.4501 2
13.2708 56.154 0.0355246
9.30605 62.2254 4
11.1343 60.621 2
12.8549 59.1147 0.0309751
10.9835 64.0165 2
12.6812 62.2989 0.0198559
12.7746 65.6939 0
15.2026 20.2143 3.96266
16.4351 18.6765 2
14.7626 17.3249 3.96583
17.6869 17.1815 0.0313532
16.1109 15.8005 2
14.4873 14.3049 3.97214
17.5166 14.3896 0.0256223
16.0221 12.8177 2
14.4462 11.1158 3.98598
17.6405 11.4621 0.0221865
16.2009 9.66663 2
14.6715 7.74927 4
18.0522 8.3405 0.0115515
16.6661 6.31988 2
18.75 5.0241 0
26.0064 34.3194 3.98459
28.0244 34.8307 2
29.6505 35.1867 0.125301
17.9964 22.3706 3.97141
15.6598 22.9603 3.9685
16.774 21.4158 2
20.9282 19.4154 0.0328111
18.0589 19.9797 0.041679
19.8375 21.6226 2
19.9167 24.45 3.97056
22.4603 21.7759 0.0189704
24.8519 23.2211 0.0250399
23.0755 24.6678 2
22.3356 27.9103 3.97302
24.3411 31.2798 3.9765
24.9802 28.5991 2
25.7455 26.0132 0.0215254
26.7658 31.7688 2
28.9327 32.4562 0.0801958
27.4285 29.2112 -0.00878381
23.0953 36.2864 3.98251
25.3276 36.8607 2
27.5119 37.365 0.0770857
25.8181 43.082 0.0113219
24.6568 39.4505 0.0265896
23.5353 41.8109 2
22.3645 38.5169 2
21.2539 40.629 3.97528
20.6341 37.8023 3.97707
22.3672 43.851 0.0224741
20.1965 42.8402 2
17.758 42.0573 3.97613
19.3523 44.9009 0.0228297
17.293 44.3256 2
15.1262 44.1564 3.97639
16.9063 46.1542 0.0229503
15.087 46.0455 2
13.1536 46.2634 3.9748
15.136 47.6259 0.0238609
13.4599 47.974 2
11.5891 48.5273 3.96982
13.9345 49.5106 0.0281817
12.2067 50.2286 2
10.298 51.0703 3.96608
12.9793 51.8487 0.0328834
11.1695 52.825 2
9.24012 53.8863 3.96839
8.3859 56.981 3.97844
10.332 55.7052 2
12.1699 54.5141 0.0350214
7.74927 60.3285 4
9.70126 58.8434 2
11.5407 57.4504 0.0312347
9.306 62.2255 2
11.1359 60.6248 0.0216369
10.9835 64.0165 0
14.032 21.7804 3.96526
15.2018 20.2139 2
13.4647 18.9184 3.9647
16.4338 18.6767 0.0376423
14.7641 17.3248 2
13.0339 15.9005 3.96982
16.1113 15.8024 0.0301232
14.4865 14.3022 2
12.7841 12.6899 3.98272
16.0229 12.8171 0.0247675
14.4437 11.1188 2
12.7746 9.30605 4
16.2032 9.66386 0.0126841
14.6715 7.74924 2
16.6661 6.31991 0
23.6834 33.8557 3.98331
25.9827 34.3107 2
28.0462 34.8225 0.0878964
17.8514 24.1001 3.97012
18.0001 22.3714 2
14.4991 24.4946 3.97025
15.6609 22.9606 2
16.7745 21.4157 0.0345824
19.3871 27.28 3.97247
19.8389 21.6232 0.0314936
19.9125 24.4499 2
21.687 30.7538 3.97536
23.0785 24.6678 0.0261215
22.3401 27.9124 2
24.3192 31.2798 2
24.9716 28.5996 0.0209712
26.7832 31.7997 0.0211666
20.7568 35.9555 3.97654
23.0961 36.2861 2
25.3418 36.8562 0.0234826
23.5486 41.8113 0.0189755
22.3737 38.5199 0.0220191
21.2606 40.63 2
20.6331 37.8008 2
18.5052 38.9999 3.97707
20.1977 42.8389 0.0236245
17.7582 42.0572 2
15.1117 41.8853 3.97659
17.2919 44.3253 0.0235165
15.1273 44.156 2
12.915 44.3632 3.97576
15.0858 46.0461 0.02368
13.1552 46.2628 2
11.1024 46.713 3.97108
13.4585 47.9746 0.026351
11.5904 48.5268 2
9.56506 49.231 3.96646
12.2058 50.229 0.031429
10.2984 51.07 2
8.27291 52.0004 3.96818
11.1691 52.8253 0.0343886
9.24078 53.8854 2
7.1949 55.032 3.9792
6.31991 58.3339 4
8.385 56.9771 2
10.3313 55.7059 0.0314712
7.74924 60.3285 2
9.70251 58.8474 0.0223865
9.30605 62.2254 0
13.3808 25.3982 3.97369
12.9301 23.3104 3.96759
14.031 21.7801 2
12.2584 20.5649 3.96517
15.2026 20.2143 0.0373448
13.466 18.9181 2
11.6647 17.5768 3.9702
14.7626 17.3249 0.0341705
13.0353 15.8999 2
11.2222 14.3763 3.97843
14.4873 14.3049 0.0278584
12.7815 12.6939 2
10.9835 10.9835 4
14.4462 11.1158 0.0140153
12.7745 9.306 2
14.6715 7.74927 0
21.1215 33.4606 3.97559
23.6842 33.848 2
26.0064 34.3194 0.0154064
16.1755 26.4581 3.97274
17.8524 24.1005 2
17.9964 22.3706 0.0285855
14.4993 24.4951 2
15.6598 22.9603 0.0315037
18.7773 30.2494 3.97505
19.3846 27.2803 2
19.9167 24.45 0.0294432
21.6955 30.7544 2
22.3356 27.9103 0.0269771
24.3411 31.2798 0.0234996
18.1163 35.9873 3.97779
20.7588 35.9561 2
23.0953 36.2864 0.0174883
21.2539 40.629 0.0247211
20.6341 37.8023 0.0229253
18.5035 38.9995 2
14.6158 39.1679 3.9772
17.758 42.0573 0.0238671
15.1122 41.8851 2
12.6116 42.2546 3.97683
15.1262 44.1564 0.0236108
12.9163 44.3626 2
10.6905 44.7848 3.97221
13.1536 46.2634 0.0251952
11.1039 46.7126 2
8.95032 47.311 3.96683
11.5891 48.5273 0.0301761
9.56523 49.2307 2
7.43974 50.0342 3.96784
10.298 51.0703 0.0339197
8.27337 51.9996 2
6.13554 53.0073 3.97962
9.24012 53.8863 0.0316109
7.19438 55.0289 2
5.0241 56.25 4
6.31988 58.3339 2
8.3859 56.981 0.0215583
7.74927 60.3285 0
13.6491 26.8523 3.97355
12.0403 24.8139 3.9698
13.3801 25.3985 2
11.1782 22.2487 3.96567
12.9309 23.3106 2
14.032 21.7804 0.0347406
12.2591 20.5649 2
10.3962 19.3275 3.96908
13.4647 18.9184 0.0352953
11.6663 17.5769 2
9.76301 16.1599 3.97772
13.0339 15.9005 0.0301811
11.2203 14.3812 2
9.30607 12.7746 4
12.7841 12.6899 0.0172803
10.9835 10.9835 2
12.7746 9.30605 0
18.2867 33.1682 3.97683
21.1225 33.4626 2
23.6834 33.8557 0.016691
15.7995 29.691 3.97576
16.1761 26.4589 2
17.8514 24.1001 0.0298788
14.4991 24.4946 0.029753
18.7766 30.2502 2
19.3871 27.28 0.0275277
21.687 30.7538 0.0246392
15.2366 36.0355 3.97746
18.1161 35.9874 2
20.7568 35.9555 0.023463
12.8417 37.8299 3.97738
18.5052 38.9999 0.0229287
14.6162 39.1678 2
12.1174 40.1287 3.97715
15.1117 41.8853 0.0234062
12.6131 42.254 2
10.2962 42.7646 3.97245
12.915 44.3632 0.0242433
10.6919 44.7844 2
8.4301 45.314 3.96728
11.1024 46.713 0.0289175
8.95003 47.3107 2
6.73085 47.9996 3.96761
9.56506 49.231 0.0335438
7.44004 50.0335 2
5.21233 50.9108 3.9793
8.27291 52.0004 0.0318159
6.1353 53.0053 2
3.86727 54.0858 4
7.1949 55.032 0.0207976
5.02404 56.25 2
6.31991 58.3339 0
13.1302 29.0681 3.97309
11.4853 26.5125 3.97029
13.6489 26.8526 2
10.2394 23.9797 3.96661
12.0419 24.8143 2
13.3808 25.3982 0.0263101
9.24872 21.143 3.96854
11.1784 22.2488 2
12.9301 23.3104 0.0324133
12.2584 20.5649 0.034826
10.3977 19.3279 2
8.41864 18.0306 3.97793
11.6647 17.5768 0.0298019
9.76157 16.1648 2
7.74928 14.6715 4
11.2222 14.3763 0.021574
9.30602 12.7745 2
10.9835 10.9835 0
14.7906 32.9041 3.97717
18.2854 33.1677 2
21.1215 33.4606 0.024406
15.8013 29.6918 2
16.1755 26.4581 0.0272558
18.7773 30.2494 0.0249453
13.1341 36.2212 3.97717
15.2362 36.0353 2
18.1163 35.9873 0.0222119
12.8436 37.8296 2
11.4571 38.3087 3.97713
14.6158 39.1679 0.0228011
12.12 40.1282 2
9.8764 40.7464 3.97329
12.6116 42.2546 0.0231714
10.2986 42.7642 2
7.9787 43.2645 3.96793
10.6905 44.7848 0.0277909
8.43069 45.3137 2
6.13675 45.9049 3.96764
8.95032 47.311 0.0331713
6.73113 47.999 2
4.42379 48.7514 3.97871
7.43974 50.0342 0.0321621
5.21227 50.9096 2
2.85457 51.8506 4
6.13554 53.0073 0.0203845
3.86727 54.0858 2
5.0241 56.25 0
12.2695 31.2843 3.97436
10.9059 28.4377 3.97063
13.1316 29.0687 2
9.45748 25.8086 3.96709
11.4864 26.5129 2
13.6491 26.8523 0.0264468
8.23552 23.0258 3.96834
10.2398 23.9799 2
12.0403 24.8139 0.0301968
7.2008 19.98 3.97872
9.24994 21.1435 2
11.1782 22.2487 0.0343273
10.3962 19.3275 0.0309164
8.4179 18.0351 2
6.31992 16.6661 4
9.76301 16.1599 0.0222808
7.74926 14.6714 2
9.30607 12.7746 0
12.3009 34.3155 3.97693
14.7916 32.9048 2
18.2867 33.1682 0.0231661
15.7995 29.691 0.0242382
11.0004 36.6163 3.97694
13.1353 36.221 2
15.2366 36.0355 0.0225404
12.8417 37.8299 0.0226189
11.4602 38.3085 2
9.46015 38.8208 3.97412
12.1174 40.1287 0.0228536
9.87815 40.7462 2
7.58744 41.208 3.96853
10.2962 42.7646 0.0275495
7.97811 43.2643 2
5.6483 43.7679 3.96794
8.4301 45.314 0.0327155
6.13696 45.9043 2
3.76928 46.537 3.97844
6.73085 47.9996 0.032391
4.42395 48.7508 2
1.99014 49.554 4
5.21233 50.9108 0.0206975
2.85451 51.8506 2
3.86727 54.0858 0
11.0898 32.9375 3.97663
10.2169 30.4006 3.97144
12.2712 31.2849 2
8.76843 27.7413 3.96737
10.9072 28.4381 2
13.1302 29.0681 0.0269134
7.36083 24.9839 3.96807
9.45745 25.8089 2
11.4853 26.5125 0.0297124
6.11778 22.0028 3.97952
8.23628 23.0264 2
10.2394 23.9797 0.0333935
5.02411 18.75 4
7.2005 19.9833 2
9.24872 21.143 0.0314645
8.41864 18.0306 0.0220689
6.3199 16.6661 2
7.74928 14.6715 0
10.5973 35.0099 3.97663
12.3031 34.316 2
14.7906 32.9041 0.0228312
9.12323 36.9869 3.97408
11.0034 36.6166 2
13.1341 36.2212 0.0228315
11.4571 38.3087 0.0228699
9.46176 38.8206 2
7.26414 39.1809 3.96889
9.8764 40.7464 0.026714
7.58781 41.2078 2
5.26328 41.6138 3.968
7.9787 43.2645 0.0320697
5.64846 43.7675 2
3.24688 44.2818 3.9787
6.13675 45.9049 0.0323635
3.76953 46.5365 2
1.27781 47.2057 4
4.42379 48.7514 0.0212933
1.99012 49.554 2
2.85457 51.8506 0
10.2353 33.8942 3.97688
9.49893 32.168 3.97213
11.0921 32.938 2
8.11275 29.703 3.96784
10.2185 30.401 2
12.2695 31.2843 0.0256446
6.60412 27.0094 3.96803
8.76811 27.7415 2
10.9059 28.4377 0.0293704
5.17315 24.0952 3.97945
7.36124 24.9844 2
9.45748 25.8086 0.0329101
3.86728 20.9142 4
6.11771 22.0048 2
8.23552 23.0258 0.031659
5.02406 18.75 2
7.2008 19.98 0.0212818
6.31992 16.6661 0
8.9436 35.2853 3.97397
10.6001 35.0102 2
12.3009 34.3155 0.0230664
7.04288 37.2065 3.96873
9.12485 36.9868 2
11.0004 36.6163 0.0230569
9.46015 38.8208 0.02588
7.26494 39.1808 2
4.99078 39.4673 3.96824
7.58744 41.208 0.0314718
5.26382 41.6134 2
2.85725 42.002 3.97882
5.6483 43.7679 0.0320643
3.24699 44.2814 2
0.720592 44.8159 4
3.76928 46.537 0.0215627
1.27778 47.2057 2
1.99014 49.554 0
8.98618 33.7071 3.97326
10.2378 33.8945 2
7.54675 31.6147 3.96818
9.50084 32.1683 2
11.0898 32.9375 0.0233659
5.94895 29.0703 3.96814
8.1123 29.7032 2
10.2169 30.4006 0.0285614
4.36072 26.2475 3.97908
6.60435 27.0098 2
8.76843 27.7413 0.0326317
2.85458 23.1494 4
5.17321 24.0961 2
7.36083 24.9839 0.0319339
3.86728 20.9142 2
6.11778 22.0028 0.020479
5.02411 18.75 0
6.99095 35.3082 3.96869
8.94523 35.2853 2
10.5973 35.0099 0.0233716
4.84085 37.3399 3.96863
7.04375 37.2064 2
9.12323 36.9869 0.025923
7.26414 39.1809 0.0311129
4.99132 39.4671 2
2.60524 39.7136 3.97888
5.26328 41.6138 0.0319972
2.85766 42.0019 2
0.320823 42.3947 4
3.24688 44.2818 0.021295
0.720551 44.8159 2
1.27781 47.2057 0
7.156 33.4647 3.96843
8.98784 33.7073 2
10.2353 33.8942 0.023121
5.41947 31.134 3.96847
7.54677 31.6149 2
9.49893 32.168 0.0278739
3.68229 28.4435 3.97879
5.94917 29.0706 2
8.11275 29.703 0.0321585
1.99015 25.446 4
4.36087 26.2479 2
6.60412 27.0094 0.0319714
2.85453 23.1494 2
5.17315 24.0952 0.0205491
3.86728 20.9142 0
4.85526 35.2518 3.96857
6.99095 35.3083 2
8.9436 35.2853 0.0260319
2.49667 37.4283 3.97965
4.84091 37.34 2
7.04288 37.2065 0.0312733
4.99078 39.4673 0.0317556
2.60576 39.714 2
0.080333 39.9526 4
2.85725 42.002 0.0211791
0.320817 42.3947 2
0.720592 44.8159 0
5.04868 33.1905 3.96857
7.15617 33.4648 2
8.98618 33.7071 0.0267403
3.14646 30.6662 3.97892
5.41967 31.1344 2
7.54675 31.6147 0.0318195
1.27793 27.7943 4
3.68257 28.4437 2
5.94895 29.0703 0.0318645
1.99013 25.446 2
4.36072 26.2475 0.0209195
2.85458 23.1494 0
2.54879 35.1589 3.97934
4.85588 35.252 2
6.99095 35.3082 0.0313072
0 37.5 4
2.49673 37.4287 2
4.84085 37.3399 0.0313653
2.60524 39.7136 0.0211234
0.0802903 39.9526 2
0.320823 42.3947 0
2.76644 32.9057 3.97947
5.04889 33.1909 2
7.156 33.4647 0.0315744
0.721173 30.1842 4
3.14676 30.6666 2
5.41947 31.134 0.0315336
1.27779 27.7943 2
3.68229 28.4435 0.0212125
1.99015 25.446 0
0.0806499 35.0474 4
2.54939 35.1594 2
4.85526 35.2518 0.0314341
0 37.5 2
2.49667 37.4283 0.0203545
0.080333 39.9526 0
0.32156 32.6054 4
2.76658 32.9063 2
5.04868 33.1905 0.0314307
0.72056 30.1841 2
3.14646 30.6662 0.0210754
1.27793 27.7943 0
0.0802889 35.0474 2
2.54879 35.1589 0.0206589
0 37.5 0
0.320817 32.6053 2
2.76644 32.9057 0.0205263
0.721173 30.1842 0
0.0806499 35.0474 0
0.32156 32.6054 0
CELLS 1910 17190
8 18 6 25 56 2 0 5 16
8 57 23 6 18 17 4 0 2
8 78 36 9 29 31 11 1 7
8 31 11 1 7 79 37 10 30
8 110 57 18 50 48 17 2 14
8 50 18 56 111 14 2 16 49
8 116 62 22 55 52 20 3 15
8 56 25 67 118 16 5 24 53
8 119 63 23 57 54 21 4 17
8 55 22 63 119 15 3 21 54
8 58 26 68 121 18 6 25 56
8 122 65 26 58 57 23 6 18
8 73 31 7 27 142 79 30 71
8 143 78 29 72 73 31 7 27
8 83 147 76 34 32 74 28 8
8 84 148 78 36 33 75 29 9
8 76 34 8 28 148 84 33 75
8 37 79 150 86 10 30 77 35
8 151 87 36 78 80 38 11 31
8 80 38 11 31 152 88 37 79
8 175 100 42 94 96 44 12 40
8 44 96 176 101 12 40 95 43
8 101 176 98 46 43 95 41 13
8 46 98 178 103 13 41 97 45
8 178 103 45 97 147 83 32 74
8 189 116 55 109 106 52 15 47
8 111 56 118 191 49 16 53 107
8 192 119 57 110 108 54 17 48
8 109 55 119 192 47 15 54 108
8 194 122 58 112 110 57 18 50
8 112 58 121 195 50 18 56 111
8 115 61 19 51 197 124 59 113
8 115 61 125 198 51 19 60 114
8 198 125 62 116 114 60 20 52
8 200 127 64 120 116 62 22 55
8 118 67 132 202 53 24 66 117
8 121 68 133 203 56 25 67 118
8 120 64 128 204 55 22 63 119
8 204 128 65 122 119 63 23 57
8 206 134 68 121 123 69 26 58
8 123 69 26 58 207 131 65 122
8 226 147 74 138 140 76 28 70
8 229 148 75 139 143 78 29 72
8 140 76 28 70 229 148 75 139
8 142 79 30 71 231 150 77 141
8 144 80 31 73 232 152 79 142
8 233 151 78 143 144 80 31 73
8 150 86 35 77 235 154 81 145
8 235 154 81 145 146 82 39 91
8 146 82 39 91 236 155 90 165
8 238 157 83 147 149 85 34 76
8 239 158 84 148 151 87 36 78
8 149 85 34 76 239 158 84 148
8 152 88 37 79 241 160 86 150
8 242 161 87 151 153 89 38 80
8 153 89 38 80 243 162 88 152
8 171 98 41 92 265 178 97 169
8 265 178 97 169 226 147 74 138
8 172 96 40 93 266 176 95 170
8 266 176 95 170 171 98 41 92
8 269 175 94 173 172 96 40 93
8 271 180 99 174 175 100 42 94
8 197 124 59 113 271 180 99 174
8 272 181 100 175 177 102 44 96
8 273 182 101 176 179 104 46 98
8 177 102 44 96 273 182 101 176
8 179 104 46 98 275 184 103 178
8 275 184 103 178 238 157 83 147
8 188 115 51 105 283 197 113 186
8 188 115 198 284 105 51 114 187
8 284 198 116 189 187 114 52 106
8 286 200 120 193 189 116 55 109
8 191 118 202 288 107 53 117 190
8 195 121 203 289 111 56 118 191
8 193 120 204 290 109 55 119 192
8 290 204 122 194 192 119 57 110
8 196 123 58 112 292 207 122 194
8 293 206 121 195 196 123 58 112
8 199 126 61 115 297 211 124 197
8 298 212 127 200 198 125 62 116
8 199 126 212 298 115 61 125 198
8 205 129 64 120 300 214 127 200
8 301 217 130 201 202 132 66 117
8 209 136 168 264 301 217 130 201
8 302 219 132 202 203 133 67 118
8 303 220 133 203 206 134 68 121
8 205 129 215 304 120 64 128 204
8 304 215 131 207 204 128 65 122
8 306 221 134 206 208 135 69 123
8 208 135 69 123 307 218 131 207
8 210 137 167 263 309 223 136 209
8 328 238 147 226 230 149 76 140
8 228 146 91 166 329 236 165 260
8 231 150 77 141 330 235 145 227
8 330 235 145 227 228 146 91 166
8 332 239 148 229 233 151 78 143
8 230 149 76 140 332 239 148 229
8 232 152 79 142 334 241 150 231
8 234 153 80 144 335 243 152 232
8 336 242 151 233 234 153 80 144
8 236 155 90 165 338 245 164 259
8 241 160 86 150 339 246 154 235
8 339 246 154 235 237 156 82 146
8 237 156 82 146 340 247 155 236
8 342 249 157 238 240 159 85 149
8 343 250 158 239 242 161 87 151
8 240 159 85 149 343 250 158 239
8 243 162 88 152 345 252 160 241
8 244 163 253 346 153 89 161 242
8 244 163 89 153 347 254 162 243
8 311 224 261 371 210 137 167 263
8 263 167 262 372 209 136 168 264
8 267 179 98 171 375 275 178 265
8 375 275 178 265 328 238 147 226
8 376 273 176 266 267 179 98 171
8 268 177 96 172 376 273 176 266
8 379 272 175 269 268 177 96 172
8 380 271 174 270 269 175 94 173
8 283 197 113 186 380 271 174 270
8 381 277 180 271 272 181 100 175
8 297 211 124 197 381 277 180 271
8 382 278 181 272 274 183 102 177
8 274 183 102 177 383 279 182 273
8 383 279 182 273 276 185 104 179
8 385 281 184 275 342 249 157 238
8 276 185 104 179 385 281 184 275
8 285 199 115 188 393 297 197 283
8 394 298 200 286 284 198 116 189
8 285 199 298 394 188 115 198 284
8 291 205 120 193 396 300 200 286
8 397 301 201 287 288 202 117 190
8 295 209 264 374 397 301 201 287
8 398 302 202 288 289 203 118 191
8 399 303 203 289 293 206 121 195
8 291 205 304 400 193 120 204 290
8 400 304 207 292 290 204 122 194
8 294 208 123 196 402 307 207 292
8 403 306 206 293 294 208 123 196
8 296 210 263 373 405 309 209 295
8 408 312 213 299 297 211 126 199
8 299 213 313 409 199 126 212 298
8 409 313 214 300 298 212 127 200
8 305 216 129 205 411 315 214 300
8 412 318 217 301 302 219 132 202
8 309 223 136 209 412 318 217 301
8 413 320 219 302 303 220 133 203
8 306 221 321 414 206 134 220 303
8 307 218 131 207 415 316 215 304
8 305 216 316 415 205 129 215 304
8 417 322 221 306 308 222 135 208
8 308 222 135 208 418 319 218 307
8 310 225 137 210 420 325 223 309
8 423 326 224 311 310 225 137 210
8 329 236 165 260 441 338 259 368
8 442 342 238 328 333 240 149 230
8 331 237 146 228 443 340 236 329
8 334 241 150 231 444 339 235 330
8 444 339 235 330 331 237 146 228
8 446 343 239 332 336 242 151 233
8 333 240 149 230 446 343 239 332
8 335 243 152 232 448 345 241 334
8 337 244 153 234 449 347 243 335
8 337 244 346 450 234 153 242 336
8 338 245 164 259 452 349 258 367
8 340 247 155 236 453 350 245 338
8 345 252 160 241 454 351 246 339
8 454 351 246 339 341 248 156 237
8 341 248 156 237 455 352 247 340
8 240 159 251 344 342 249 354 457
8 242 161 253 346 343 250 355 458
8 343 250 355 458 240 159 251 344
8 347 254 162 243 460 357 252 345
8 348 255 358 461 244 163 253 346
8 348 255 163 244 462 359 254 347
8 473 360 257 365 363 256 364 482
8 452 349 258 367 365 257 366 485
8 422 324 369 488 311 224 261 371
8 371 261 370 490 263 167 262 372
8 407 311 371 491 296 210 263 373
8 373 263 372 492 295 209 264 374
8 493 385 275 375 442 342 238 328
8 377 276 179 267 493 385 275 375
8 378 274 177 268 494 383 273 376
8 494 383 273 376 377 276 179 267
8 497 382 272 379 378 274 177 268
8 498 381 271 380 379 272 175 269
8 393 297 197 283 498 381 271 380
8 499 387 277 381 382 278 181 272
8 408 312 211 297 499 387 277 381
8 500 388 278 382 384 280 183 274
8 501 389 279 383 386 282 185 276
8 384 280 183 274 501 389 279 383
8 386 282 185 276 503 391 281 385
8 503 391 281 385 457 354 249 342
8 511 408 299 395 393 297 199 285
8 395 299 409 512 285 199 298 394
8 512 409 300 396 394 298 200 286
8 401 305 205 291 514 411 300 396
8 515 412 301 397 398 302 202 288
8 405 309 209 295 515 412 301 397
8 516 413 302 398 399 303 203 289
8 403 306 414 517 293 206 303 399
8 402 307 207 292 518 415 304 400
8 401 305 415 518 291 205 304 400
8 404 308 208 294 520 418 307 402
8 521 417 306 403 404 308 208 294
8 406 310 210 296 523 420 309 405
8 526 423 311 407 406 310 210 296
8 410 314 213 299 527 424 312 408
8 528 425 315 411 409 313 214 300
8 410 314 425 528 299 213 313 409
8 416 317 216 305 530 427 315 411
8 531 430 318 412 413 320 219 302
8 420 325 223 309 531 430 318 412
8 532 432 320 413 414 321 220 303
8 417 322 433 533 306 221 321 414
8 418 319 218 307 534 428 316 415
8 416 317 428 534 305 216 316 415
8 419 323 434 536 308 222 322 417
8 419 323 222 308 537 431 319 418
8 421 327 225 310 539 438 325 420
8 421 327 439 541 310 225 326 423
8 543 437 324 422 423 326 224 311
8 441 338 259 368 559 452 367 486
8 443 340 236 329 560 453 338 441
8 333 240 344 447 442 342 457 561
8 445 341 237 331 562 455 340 443
8 448 345 241 334 563 454 339 444
8 563 454 339 444 445 341 237 331
8 336 242 346 450 446 343 458 565
8 446 343 458 565 333 240 344 447
8 449 347 243 335 567 460 345 448
8 451 348 244 337 568 462 347 449
8 451 348 461 569 337 244 346 450
8 570 463 349 452 473 360 257 365
8 453 350 245 338 570 463 349 452
8 455 352 247 340 571 464 350 453
8 460 357 252 345 572 465 351 454
8 572 465 351 454 456 353 248 341
8 456 353 248 341 573 466 352 455
8 344 251 356 459 457 354 468 575
8 458 355 469 576 344 251 356 459
8 346 253 358 461 458 355 469 576
8 462 359 254 347 578 471 357 460
8 348 255 359 462 461 358 472 579
8 591 474 360 473 475 361 256 363
8 475 361 256 363 594 477 362 479
8 363 256 364 482 479 362 480 603
8 590 473 365 484 481 363 482 605
8 482 364 257 365 606 483 366 485
8 559 452 367 486 484 365 485 607
8 542 436 487 609 422 324 369 488
8 525 422 488 611 407 311 371 491
8 488 369 489 612 371 261 370 490
8 491 371 490 613 373 263 372 492
8 495 386 276 377 614 503 385 493
8 614 503 385 493 561 457 342 442
8 615 501 383 494 495 386 276 377
8 496 384 274 378 615 501 383 494
8 618 500 382 497 496 384 274 378
8 619 499 381 498 497 382 272 379
8 511 408 297 393 619 499 381 498
8 620 505 387 499 500 388 278 382
8 527 424 312 408 620 505 387 499
8 502 390 506 621 384 280 388 500
8 622 507 389 501 504 392 282 386
8 502 390 280 384 622 507 389 501
8 504 392 282 386 624 509 391 503
8 624 509 391 503 575 468 354 457
8 513 410 299 395 630 527 408 511
8 631 528 411 514 512 409 300 396
8 513 410 528 631 395 299 409 512
8 519 416 305 401 633 530 411 514
8 634 531 412 515 516 413 302 398
8 523 420 309 405 634 531 412 515
8 635 532 413 516 517 414 303 399
8 521 417 533 636 403 306 414 517
8 520 418 307 402 637 534 415 518
8 519 416 534 637 401 305 415 518
8 522 419 308 404 639 537 418 520
8 522 419 536 640 404 308 417 521
8 524 421 310 406 642 539 420 523
8 524 421 541 644 406 310 423 526
8 646 543 422 525 526 423 311 407
8 529 426 314 410 647 544 424 527
8 528 425 545 648 411 315 427 530
8 529 426 545 648 410 314 425 528
8 535 429 317 416 649 546 427 530
8 650 548 430 531 532 432 320 413
8 539 438 325 420 650 548 430 531
8 533 433 550 651 414 321 432 532
8 536 434 551 652 417 322 433 533
8 537 431 319 418 653 547 428 534
8 535 429 547 653 416 317 428 534
8 538 435 552 654 419 323 434 536
8 538 435 323 419 655 549 431 537
8 540 440 327 421 657 556 438 539
8 540 440 557 659 421 327 439 541
8 541 439 555 660 423 326 437 543
8 661 554 436 542 543 437 324 422
8 676 570 452 559 590 473 365 484
8 560 453 338 441 676 570 452 559
8 562 455 340 443 677 571 453 560
8 447 344 459 566 561 457 575 678
8 564 456 341 445 679 573 455 562
8 567 460 345 448 680 572 454 563
8 680 572 454 563 564 456 341 445
8 565 458 576 682 447 344 459 566
8 450 346 461 569 565 458 576 682
8 568 462 347 449 684 578 460 567
8 451 348 462 568 569 461 579 685
8 686 580 463 570 591 474 360 473
8 571 464 350 453 686 580 463 570
8 573 466 352 455 687 581 464 571
8 572 465 582 688 460 357 471 578
8 574 467 582 688 456 353 465 572
8 574 467 353 456 689 583 466 573
8 459 356 470 577 575 468 585 691
8 576 469 586 692 459 356 470 577
8 461 358 472 579 576 469 586 692
8 462 359 471 578 579 472 588 694
8 704 591 473 590 593 475 363 481
8 595 476 592 705 475 361 474 591
8 593 475 363 481 707 594 479 602
8 594 477 362 479 709 598 478 600
8 595 476 361 475 711 597 477 594
8 479 362 480 603 600 478 601 720
8 481 363 482 605 602 479 603 722
8 603 480 364 482 723 604 483 606
8 605 482 365 484 724 606 485 607
8 656 553 608 726 542 436 487 609
8 645 542 609 728 525 422 488 611
8 609 487 610 729 488 369 489 612
8 611 488 612 730 491 371 490 613
8 616 504 386 495 731 624 503 614
8 731 624 503 614 678 575 457 561
8 732 622 501 615 616 504 386 495
8 617 502 384 496 732 622 501 615
8 617 502 621 735 496 384 500 618
8 736 620 499 619 618 500 382 497
8 630 527 408 511 736 620 499 619
8 621 506 626 737 500 388 505 620
8 647 544 424 527 737 626 505 620
8 623 508 627 738 502 390 506 621
8 623 508 390 502 739 628 507 622
8 625 510 628 739 504 392 507 622
8 740 629 509 624 691 585 468 575
8 625 510 392 504 740 629 509 624
8 632 529 410 513 744 647 527 630
8 631 528 648 745 514 411 530 633
8 632 529 648 745 513 410 528 631
8 638 535 416 519 746 649 530 633
8 747 650 531 634 635 532 413 516
8 642 539 420 523 747 650 531 634
8 636 533 651 748 517 414 532 635
8 640 536 652 749 521 417 533 636
8 639 537 418 520 750 653 534 637
8 638 535 653 750 519 416 534 637
8 641 538 419 522 751 655 537 639
8 641 538 654 752 522 419 536 640
8 643 540 421 524 753 657 539 642
8 643 540 659 755 524 421 541 644
8 644 541 660 757 526 423 543 646
8 758 661 542 645 646 543 422 525
8 529 426 544 647 648 545 662 759
8 530 427 545 648 649 546 663 760
8 535 429 546 649 653 547 664 761
8 762 666 548 650 651 550 432 532
8 657 556 438 539 762 666 548 650
8 652 551 668 763 533 433 550 651
8 654 552 669 764 536 434 551 652
8 655 549 431 537 765 665 547 653
8 538 435 549 655 654 552 667 766
8 661 554 671 768 542 436 553 656
8 658 558 440 540 769 674 556 657
8 658 558 675 770 540 440 557 659
8 659 557 673 771 541 439 555 660
8 660 555 672 772 543 437 554 661
8 788 686 570 676 704 591 473 590
8 677 571 453 560 788 686 570 676
8 679 573 455 562 789 687 571 677
8 566 459 577 683 678 575 691 790
8 681 574 456 564 791 689 573 679
8 680 572 688 792 567 460 578 684
8 681 574 688 792 564 456 572 680
8 682 576 692 794 566 459 577 683
8 569 461 579 685 682 576 692 794
8 568 462 578 684 685 579 694 796
8 687 581 464 571 798 696 580 686
8 798 696 580 686 705 592 474 591
8 689 583 466 573 799 697 581 687
8 688 582 698 800 578 471 588 694
8 690 584 698 800 574 467 582 688
8 690 584 467 574 801 699 583 689
8 693 587 701 803 577 470 585 691
8 693 587 470 577 804 702 586 692
8 695 589 702 804 579 472 586 692
8 695 589 472 579 805 703 588 694
8 708 595 705 813 593 475 591 704
8 710 596 706 814 595 476 592 705
8 707 594 479 602 816 709 600 719
8 708 595 475 593 817 711 594 707
8 709 598 478 600 819 715 599 717
8 711 597 477 594 820 714 598 709
8 710 596 476 595 822 713 597 711
8 600 478 601 720 717 599 718 832
8 602 479 603 722 719 600 720 834
8 720 601 480 603 835 721 604 723
8 722 603 482 605 836 723 606 724
8 767 670 725 839 656 553 608 726
8 756 656 726 841 645 542 609 728
8 726 608 727 842 609 487 610 729
8 728 609 729 843 611 488 612 730
8 844 740 624 731 790 691 575 678
8 733 625 504 616 844 740 624 731
8 734 623 502 617 845 739 622 732
8 733 625 739 845 616 504 622 732
8 734 623 738 846 617 502 621 735
8 735 621 737 847 618 500 620 736
8 744 647 527 630 847 737 620 736
8 621 506 627 738 737 626 741 848
8 647 544 626 737 759 662 741 848
8 623 508 628 739 738 627 742 849
8 740 629 585 691 850 743 700 802
8 625 510 629 740 739 628 743 850
8 632 529 647 744 745 648 759 854
8 633 530 648 745 746 649 760 855
8 638 535 649 746 750 653 761 856
8 857 762 650 747 748 651 532 635
8 753 657 539 642 857 762 650 747
8 749 652 763 858 636 533 651 748
8 752 654 764 859 640 536 652 749
8 751 655 537 639 860 765 653 750
8 641 538 655 751 752 654 766 861
8 754 658 540 643 862 769 657 753
8 754 658 770 863 643 540 659 755
8 755 659 771 864 644 541 660 757
8 758 661 768 866 645 542 656 756
8 757 660 772 867 646 543 661 758
8 759 662 773 868 648 545 663 760
8 649 546 663 760 761 664 774 871
8 765 665 547 653 872 775 664 761
8 873 777 666 762 763 668 550 651
8 769 674 556 657 873 777 666 762
8 764 669 779 874 652 551 668 763
8 654 552 667 766 764 669 778 875
8 655 549 665 765 766 667 776 876
8 768 671 782 877 656 553 670 767
8 772 672 783 878 661 554 671 768
8 658 558 674 769 770 675 786 879
8 659 557 675 770 771 673 785 881
8 882 784 672 772 771 673 555 660
8 789 687 571 677 897 798 686 788
8 897 798 686 788 813 705 591 704
8 791 689 573 679 898 799 687 789
8 795 693 803 900 683 577 691 790
8 793 690 574 681 901 801 689 791
8 792 688 800 902 684 578 694 796
8 793 690 800 902 681 574 688 792
8 795 693 577 683 903 804 692 794
8 797 695 804 903 685 579 692 794
8 797 695 579 685 904 805 694 796
8 905 806 697 799 798 696 581 687
8 814 706 806 905 705 592 696 798
8 689 583 697 799 801 699 808 907
8 800 698 809 908 694 588 703 805
8 690 584 699 801 800 698 809 908
8 803 701 810 909 691 585 700 802
8 693 587 702 804 803 701 811 910
8 695 589 703 805 804 702 812 911
8 818 710 814 919 708 595 705 813
8 821 712 815 920 710 596 706 814
8 816 709 600 719 922 819 717 831
8 817 711 594 707 923 820 709 816
8 818 710 595 708 924 822 711 817
8 819 715 599 717 926 827 716 829
8 820 714 598 709 927 826 715 819
8 929 825 713 822 820 714 597 711
8 821 712 596 710 930 824 713 822
8 717 599 718 832 829 716 830 942
8 719 600 720 834 831 717 832 944
8 832 718 601 720 945 833 721 835
8 834 720 603 722 946 835 723 836
8 869 780 838 950 767 670 725 839
8 865 767 839 952 756 656 726 841
8 839 725 840 953 726 608 727 842
8 841 726 842 954 728 609 729 843
8 844 740 691 790 955 850 802 899
8 733 625 740 844 845 739 850 955
8 734 623 739 845 846 738 849 956
8 735 621 738 846 847 737 848 957
8 744 647 737 847 854 759 848 957
8 738 627 742 849 848 741 851 958
8 848 741 851 958 759 662 773 868
8 850 743 700 802 959 852 807 906
8 849 742 628 739 959 852 743 850
8 854 759 868 965 745 648 760 855
8 746 649 760 855 856 761 871 966
8 860 765 653 750 967 872 761 856
8 968 873 762 857 858 763 651 748
8 862 769 657 753 968 873 762 857
8 859 764 874 969 749 652 763 858
8 752 654 766 861 859 764 875 970
8 751 655 765 860 861 766 876 971
8 754 658 769 862 863 770 879 972
8 755 659 770 863 864 771 881 974
8 976 882 772 867 864 771 660 757
8 866 768 877 977 756 656 767 865
8 867 772 878 978 758 661 768 866
8 760 663 773 868 871 774 883 980
8 870 781 837 948 982 890 780 869
8 982 890 780 869 877 782 670 767
8 761 664 774 871 872 775 884 984
8 876 776 665 765 985 885 775 872
8 873 777 668 763 986 887 779 874
8 769 674 777 873 879 786 887 986
8 764 669 778 875 874 779 888 987
8 766 667 776 876 875 778 886 988
8 878 783 892 989 768 671 782 877
8 878 783 672 772 990 893 784 882
8 880 787 675 770 991 896 786 879
8 880 787 895 992 770 675 785 881
8 881 785 894 993 771 673 784 882
8 1006 905 799 898 897 798 687 789
8 919 814 905 1006 813 705 798 897
8 791 689 799 898 901 801 907 1007
8 900 803 909 1009 790 691 802 899
8 795 693 804 903 900 803 910 1010
8 902 800 908 1011 796 694 805 904
8 793 690 801 901 902 800 908 1011
8 797 695 805 904 903 804 911 1012
8 799 697 806 905 907 808 912 1013
8 920 815 912 1013 814 706 806 905
8 802 700 810 909 906 807 913 1014
8 801 699 808 907 908 809 914 1015
8 805 703 809 908 911 812 915 1016
8 803 701 811 910 909 810 916 1017
8 911 812 917 1018 804 702 811 910
8 925 821 920 1030 818 710 814 919
8 928 823 921 1031 821 712 815 920
8 922 819 717 831 1033 926 829 941
8 923 820 709 816 1034 927 819 922
8 1035 929 822 924 923 820 711 817
8 925 821 710 818 1036 930 822 924
8 1038 933 825 929 927 826 714 820
8 926 827 716 829 1039 935 828 939
8 927 826 715 819 1040 934 827 926
8 928 823 712 821 1041 931 824 930
8 1042 932 824 930 929 825 713 822
8 829 716 830 942 939 828 940 1058
8 831 717 832 944 941 829 942 1060
8 942 830 718 832 1061 943 833 945
8 944 832 720 834 1062 945 835 946
8 981 889 947 1064 870 781 837 948
8 948 837 949 1067 869 780 838 950
8 975 869 950 1069 865 767 839 952
8 950 838 951 1070 839 725 840 953
8 952 839 953 1071 841 726 842 954
8 955 850 802 899 1072 959 906 1008
8 956 849 739 845 1072 959 850 955
8 846 738 849 956 957 848 958 1073
8 957 848 958 1073 854 759 868 965
8 849 742 852 959 958 851 961 1076
8 960 853 961 1076 906 807 852 959
8 958 851 961 1076 868 773 883 980
8 960 853 807 906 1077 963 913 1014
8 855 760 868 965 966 871 980 1085
8 856 761 871 966 967 872 984 1086
8 971 876 765 860 1087 985 872 967
8 968 873 763 858 1088 986 874 969
8 862 769 873 968 972 879 986 1088
8 859 764 875 970 969 874 987 1089
8 861 766 876 971 970 875 988 1090
8 973 880 770 863 1091 991 879 972
8 973 880 992 1092 863 770 881 974
8 974 881 993 1093 864 771 882 976
8 979 870 948 1066 1094 982 869 975
8 1094 982 869 975 977 877 767 865
8 978 878 772 867 1095 990 882 976
8 978 878 989 1096 866 768 877 977
8 871 774 883 980 984 884 994 1099
8 983 891 999 1100 870 781 889 981
8 1101 1000 890 982 989 892 782 877
8 983 891 781 870 1101 1000 890 982
8 872 775 884 984 985 885 995 1103
8 876 776 885 985 988 886 996 1104
8 986 887 779 874 1105 998 888 987
8 879 786 887 986 991 896 998 1105
8 875 778 886 988 987 888 997 1106
8 990 893 1002 1107 878 783 892 989
8 1108 1003 893 990 993 894 784 882
8 880 787 896 991 992 895 1005 1109
8 993 894 785 881 1110 1004 895 992
8 898 799 905 1006 1007 907 1013 1120
8 1030 920 1013 1120 919 814 905 1006
8 901 801 907 1007 1011 908 1015 1121
8 899 802 909 1009 1008 906 1014 1122
8 900 803 910 1010 1009 909 1017 1123
8 1012 911 1018 1124 903 804 910 1010
8 904 805 908 1011 1012 911 1016 1125
8 1013 912 1020 1127 907 808 914 1015
8 1031 921 1020 1127 920 815 912 1013
8 1019 918 962 1075 1128 1021 913 1014
8 1128 1021 913 1014 1017 916 810 909
8 1015 914 1022 1129 908 809 915 1016
8 1016 915 1023 1130 911 812 917 1018
8 1018 917 1024 1131 910 811 916 1017
8 1037 928 1031 1148 925 821 920 1030
8 928 823 931 1041 1031 921 1032 1149
8 1033 926 829 941 1151 1039 939 1057
8 1034 927 819 922 1152 1040 926 1033
8 1153 1038 929 1035 1034 927 820 923
8 1154 1042 930 1036 1035 929 822 924
8 1037 928 821 925 1155 1041 930 1036
8 1039 935 828 939 1156 1047 938 1055
8 1157 1043 932 1042 1038 933 825 929
8 1038 933 826 927 1158 1045 934 1040
8 1040 934 827 926 1159 1046 935 1039
8 930 824 932 1042 1041 931 1044 1160
8 1051 936 1048 1165 1175 1052 937 1053
8 1156 1047 938 1055 1053 937 1054 1178
8 939 828 940 1058 1055 938 1056 1181
8 941 829 942 1060 1057 939 1058 1183
8 942 830 943 1061 1058 940 1059 1184
8 1060 942 832 944 1185 1061 945 1062
8 1082 964 1063 1188 981 889 947 1064
8 1097 981 1064 1190 979 870 948 1066
8 1064 947 1065 1191 948 837 949 1067
8 1066 948 1067 1193 975 869 950 1069
8 1067 949 1068 1194 950 838 951 1070
8 1069 950 1070 1195 952 839 953 1071
8 956 849 959 1072 1073 958 1076 1197
8 1074 960 1076 1197 1008 906 959 1072
8 1073 958 1076 1197 965 868 980 1085
8 1074 960 906 1008 1198 1077 1014 1122
8 1133 1026 1079 1199 1019 918 962 1075
8 1077 963 913 1014 1200 1080 962 1075
8 960 853 963 1077 1076 961 1078 1201
8 980 883 961 1076 1099 994 1078 1201
8 1210 1083 964 1082 1100 999 889 981
8 966 871 980 1085 1086 984 1099 1215
8 967 872 984 1086 1087 985 1103 1216
8 971 876 985 1087 1090 988 1104 1217
8 1088 986 874 969 1218 1105 987 1089
8 972 879 986 1088 1091 991 1105 1218
8 970 875 988 1090 1089 987 1106 1219
8 973 880 991 1091 1092 992 1109 1220
8 1093 993 881 974 1221 1110 992 1092
8 1222 1108 990 1095 1093 993 882 976
8 1223 1101 982 1094 1096 989 877 977
8 1098 983 870 979 1223 1101 982 1094
8 1095 990 1107 1224 978 878 989 1096
8 1098 983 1100 1225 979 870 981 1097
8 984 884 994 1099 1103 995 1111 1227
8 1102 1001 1115 1228 983 891 999 1100
8 1101 1000 892 989 1229 1116 1002 1107
8 1102 1001 891 983 1229 1116 1000 1101
8 985 885 995 1103 1104 996 1112 1230
8 988 886 996 1104 1106 997 1113 1231
8 1105 998 888 987 1232 1114 997 1106
8 991 896 998 1105 1109 1005 1114 1232
8 1108 1003 1117 1233 990 893 1002 1107
8 1108 1003 894 993 1233 1117 1004 1110
8 992 895 1005 1109 1110 1004 1118 1234
8 1120 1013 1127 1244 1007 907 1015 1121
8 1148 1031 1127 1244 1030 920 1013 1120
8 1121 1015 1129 1245 1011 908 1016 1125
8 1126 1019 1075 1196 1246 1128 1014 1122
8 1246 1128 1014 1122 1123 1017 909 1009
8 1124 1018 1131 1247 1010 910 1017 1123
8 1125 1016 1130 1248 1012 911 1018 1124
8 1127 1020 1137 1254 1015 914 1022 1129
8 1031 921 1032 1149 1127 1020 1137 1254
8 1134 1027 918 1019 1257 1140 1021 1128
8 1257 1140 1021 1128 1131 1024 916 1017
8 1129 1022 1141 1258 1016 915 1023 1130
8 1130 1023 1142 1259 1018 917 1024 1131
8 1261 1144 1025 1132 1133 1026 1079 1199
8 1255 1138 1025 1132 1135 1028 1144 1261
8 1133 1026 918 1019 1262 1145 1027 1134
8 1136 1029 1139 1256 1263 1146 1028 1135
8 1037 928 1041 1155 1148 1031 1149 1275
8 1041 931 1044 1160 1149 1032 1150 1276
8 1151 1039 939 1057 1278 1156 1055 1180
8 1152 1040 926 1033 1279 1159 1039 1151
8 1153 1038 927 1034 1280 1158 1040 1152
8 1281 1157 1042 1154 1153 1038 929 1035
8 1036 930 1042 1154 1155 1041 1160 1282
8 1283 1164 1046 1159 1156 1047 935 1039
8 1165 1048 1164 1283 1053 937 1047 1156
8 1157 1043 933 1038 1284 1161 1045 1158
8 1157 1043 1161 1284 1042 932 1044 1160
8 1040 934 1046 1159 1158 1045 1163 1285
8 1166 1049 1167 1292 1051 936 1048 1165
8 1166 1049 936 1051 1293 1168 1050 1172
8 1051 936 1052 1175 1172 1050 1173 1306
8 1174 1051 1165 1290 1308 1175 1053 1177
8 1053 937 1054 1178 1175 1052 1176 1309
8 1278 1156 1055 1180 1177 1053 1178 1311
8 1055 938 1056 1181 1178 1054 1179 1312
8 1057 939 1058 1183 1180 1055 1181 1314
8 1058 940 1059 1184 1181 1056 1182 1315
8 1060 942 1061 1185 1183 1058 1184 1316
8 1208 1081 1187 1321 1082 964 1063 1188
8 1209 1082 1188 1322 1097 981 1064 1190
8 1188 1063 1189 1323 1064 947 1065 1191
8 1190 1064 1191 1325 1066 948 1067 1193
8 1191 1065 1192 1326 1067 949 1068 1194
8 1067 1193 1069 950 1194 1327 1195 1070
8 1250 1133 1199 1330 1126 1019 1075 1196
8 1198 1077 1014 1122 1331 1200 1075 1196
8 1074 960 1077 1198 1197 1076 1201 1332
8 1085 980 1076 1197 1215 1099 1201 1332
8 1199 1079 1203 1333 1075 962 1080 1200
8 1132 1025 1119 1243 1199 1079 1203 1333
8 1201 1078 963 1077 1334 1202 1080 1200
8 1099 994 1078 1201 1227 1111 1202 1334
8 1343 1207 1081 1208 1210 1083 964 1082
8 1214 1084 1186 1319 1343 1207 1081 1208
8 1345 1210 1082 1209 1225 1100 981 1097
8 1346 1211 1083 1210 1228 1115 999 1100
8 1086 984 1099 1215 1216 1103 1227 1352
8 1087 985 1103 1216 1217 1104 1230 1353
8 1090 988 1104 1217 1219 1106 1231 1354
8 1218 1105 987 1089 1355 1232 1106 1219
8 1091 991 1105 1218 1220 1109 1232 1355
8 1092 992 1109 1220 1221 1110 1234 1356
8 1222 1108 1233 1357 1095 990 1107 1224
8 1222 1108 993 1093 1357 1233 1110 1221
8 1223 1101 989 1096 1358 1229 1107 1224
8 1226 1102 983 1098 1358 1229 1101 1223
8 1226 1102 1228 1359 1098 983 1100 1225
8 1103 995 1111 1227 1230 1112 1235 1360
8 1107 1002 1117 1233 1229 1116 1240 1362
8 1102 1001 1116 1229 1228 1115 1240 1362
8 1104 996 1112 1230 1231 1113 1236 1363
8 1364 1237 1114 1232 1231 1113 997 1106
8 1109 1005 1114 1232 1234 1118 1238 1365
8 1110 1004 1118 1234 1233 1117 1241 1366
8 1242 1374 1255 1138 1119 1243 1132 1025
8 1244 1127 1254 1376 1121 1015 1129 1245
8 1148 1031 1149 1275 1244 1127 1254 1376
8 1245 1129 1258 1377 1125 1016 1130 1248
8 1251 1134 1019 1126 1378 1257 1128 1246
8 1378 1257 1128 1246 1247 1131 1017 1123
8 1248 1130 1259 1379 1124 1018 1131 1247
8 1261 1381 1250 1133 1132 1249 1330 1199
8 1255 1380 1252 1135 1132 1249 1381 1261
8 1250 1133 1019 1126 1382 1262 1134 1251
8 1253 1136 1256 1385 1384 1263 1135 1252
8 1254 1137 1265 1387 1129 1022 1141 1258
8 1149 1032 1150 1276 1254 1137 1265 1387
8 1028 1135 1255 1138 1139 1256 1388 1266
8 1136 1029 1147 1264 1256 1139 1267 1389
8 1390 1268 1140 1257 1259 1142 1024 1131
8 1260 1143 1027 1134 1390 1268 1140 1257
8 1258 1141 1269 1391 1130 1023 1142 1259
8 1262 1145 1027 1134 1393 1271 1143 1260
8 1261 1144 1026 1133 1394 1272 1145 1262
8 1135 1028 1144 1261 1263 1146 1272 1394
8 1136 1029 1146 1263 1264 1147 1273 1395
8 1155 1041 1160 1282 1275 1149 1276 1405
8 1276 1150 1044 1160 1406 1277 1162 1286
8 1408 1283 1159 1279 1278 1156 1039 1151
8 1290 1165 1283 1408 1177 1053 1156 1278
8 1152 1040 1159 1279 1280 1158 1285 1409
8 1281 1157 1038 1153 1410 1284 1158 1280
8 1281 1157 1284 1410 1154 1042 1160 1282
8 1159 1046 1164 1283 1285 1163 1289 1412
8 1292 1167 1289 1412 1165 1048 1164 1283
8 1158 1045 1163 1285 1284 1161 1288 1413
8 1284 1161 1288 1413 1160 1044 1162 1286
8 1291 1166 1292 1418 1174 1051 1165 1290
8 1291 1166 1051 1174 1419 1293 1172 1305
8 1294 1169 1296 1421 1166 1049 1167 1292
8 1293 1168 1050 1172 1422 1295 1171 1303
8 1294 1169 1049 1166 1423 1297 1168 1293
8 1422 1295 1171 1303 1301 1170 1302 1435
8 1172 1050 1173 1306 1303 1171 1304 1438
8 1174 1051 1175 1308 1305 1172 1306 1440
8 1175 1052 1176 1309 1306 1173 1307 1441
8 1177 1053 1178 1311 1308 1175 1309 1443
8 1178 1054 1179 1312 1309 1176 1310 1444
8 1180 1055 1181 1314 1311 1178 1312 1446
8 1056 1181 1312 1179 1182 1315 1447 1313
8 1183 1058 1184 1316 1314 1181 1315 1448
8 1319 1186 1084 1214 1451 1317 1213 1350
8 1319 1186 1318 1453 1208 1081 1187 1321
8 1321 1187 1320 1456 1188 1063 1189 1323
8 1344 1208 1321 1457 1209 1082 1188 1322
8 1322 1188 1323 1458 1190 1064 1191 1325
8 1323 1189 1324 1459 1191 1065 1192 1326
8 1191 1325 1193 1067 1326 1460 1327 1194
8 1242 1374 1243 1119 1328 1462 1335 1204
8 1330 1199 1333 1465 1196 1075 1200 1331
8 1132 1249 1330 1199 1243 1375 1465 1333
8 1332 1201 1077 1198 1466 1334 1200 1331
8 1215 1099 1201 1332 1352 1227 1334 1466
8 1119 1243 1333 1203 1204 1335 1470 1338
8 1333 1203 1338 1470 1200 1080 1202 1334
8 1227 1111 1202 1334 1360 1235 1338 1470
8 1328 1462 1335 1204 1205 1336 1471 1339
8 1337 1206 1340 1472 1464 1329 1205 1336
8 1346 1211 1342 1479 1210 1083 1207 1343
8 1346 1211 1115 1228 1479 1342 1239 1361
8 1348 1212 1084 1214 1479 1342 1207 1343
8 1480 1343 1208 1344 1345 1210 1082 1209
8 1351 1214 1319 1454 1480 1343 1208 1344
8 1481 1346 1210 1345 1359 1228 1100 1225
8 1348 1212 1347 1483 1214 1084 1213 1350
8 1216 1103 1227 1352 1353 1230 1360 1488
8 1217 1104 1230 1353 1354 1231 1363 1489
8 1490 1364 1232 1355 1354 1231 1106 1219
8 1220 1109 1232 1355 1356 1234 1365 1491
8 1221 1110 1234 1356 1357 1233 1366 1492
8 1224 1107 1233 1357 1358 1229 1362 1493
8 1226 1102 1229 1358 1359 1228 1362 1493
8 1230 1112 1235 1360 1363 1236 1367 1496
8 1361 1239 1115 1228 1497 1371 1240 1362
8 1366 1241 1372 1498 1233 1117 1240 1362
8 1364 1237 1113 1231 1499 1368 1236 1363
8 1364 1237 1368 1499 1232 1114 1238 1365
8 1234 1118 1238 1365 1366 1241 1369 1500
8 1507 1373 1242 1374 1388 1266 1138 1255
8 1508 1374 1243 1375 1380 1255 1132 1249
8 1376 1254 1387 1509 1245 1129 1258 1377
8 1275 1149 1276 1405 1376 1254 1387 1509
8 1377 1258 1391 1510 1248 1130 1259 1379
8 1511 1390 1257 1378 1379 1259 1131 1247
8 1383 1260 1134 1251 1511 1390 1257 1378
8 1252 1135 1256 1385 1380 1255 1388 1512
8 1261 1381 1513 1394 1133 1250 1382 1262
8 1135 1252 1384 1263 1261 1381 1513 1394
8 1382 1262 1134 1251 1514 1393 1260 1383
8 1253 1136 1263 1384 1386 1264 1395 1516
8 1253 1136 1264 1386 1385 1256 1389 1517
8 1387 1265 1397 1519 1258 1141 1269 1391
8 1276 1150 1277 1406 1387 1265 1397 1519
8 1256 1139 1267 1389 1388 1266 1398 1520
8 1264 1147 1274 1396 1389 1267 1399 1521
8 1392 1270 1143 1260 1522 1400 1268 1390
8 1390 1268 1142 1259 1522 1400 1269 1391
8 1392 1270 1401 1523 1260 1143 1271 1393
8 1272 1394 1524 1402 1145 1262 1393 1271
8 1395 1273 1146 1263 1524 1402 1272 1394
8 1273 1395 1264 1147 1403 1526 1396 1274
8 1405 1276 1160 1282 1534 1406 1286 1411
8 1414 1287 1407 1535 1286 1162 1277 1406
8 1279 1159 1283 1408 1409 1285 1412 1537
8 1418 1292 1412 1537 1290 1165 1283 1408
8 1280 1158 1285 1409 1410 1284 1413 1538
8 1410 1284 1413 1538 1282 1160 1286 1411
8 1285 1163 1289 1412 1413 1288 1417 1540
8 1421 1296 1417 1540 1292 1167 1289 1412
8 1414 1287 1162 1286 1541 1416 1288 1413
8 1420 1294 1421 1545 1291 1166 1292 1418
8 1419 1293 1172 1305 1546 1422 1303 1437
8 1420 1294 1166 1291 1547 1423 1293 1419
8 1294 1169 1297 1423 1421 1296 1425 1548
8 1423 1297 1168 1293 1549 1424 1295 1422
8 1301 1170 1298 1427 1422 1295 1424 1549
8 1432 1300 1428 1554 1301 1170 1298 1427
8 1431 1299 1428 1554 1560 1430 1300 1432
8 1563 1433 1300 1432 1435 1302 1170 1301
8 1546 1422 1303 1437 1434 1301 1435 1565
8 1303 1171 1304 1438 1435 1302 1436 1566
8 1305 1172 1306 1440 1437 1303 1438 1568
8 1306 1173 1307 1441 1438 1304 1439 1569
8 1308 1175 1309 1443 1440 1306 1441 1571
8 1309 1176 1310 1444 1441 1307 1442 1572
8 1311 1178 1312 1446 1443 1309 1444 1574
8 1179 1312 1444 1310 1313 1447 1575 1445
8 1314 1181 1315 1448 1446 1312 1447 1576
8 1350 1213 1349 1486 1451 1317 1449 1579
8 1451 1317 1450 1581 1319 1186 1318 1453
8 1454 1319 1214 1351 1582 1451 1350 1487
8 1453 1318 1452 1584 1321 1187 1320 1456
8 1454 1319 1453 1585 1344 1208 1321 1457
8 1456 1320 1455 1586 1323 1189 1324 1459
8 1457 1321 1456 1587 1322 1188 1323 1458
8 1458 1323 1459 1588 1325 1191 1326 1460
8 1205 1336 1464 1329 1328 1462 1590 1461
8 1507 1373 1461 1590 1374 1242 1328 1462
8 1508 1374 1462 1591 1375 1243 1335 1467
8 1337 1206 1329 1464 1473 1341 1463 1594
8 1375 1243 1335 1467 1465 1333 1470 1596
8 1465 1333 1470 1596 1331 1200 1334 1466
8 1352 1227 1334 1466 1488 1360 1470 1596
8 1591 1462 1336 1468 1467 1335 1471 1597
8 1469 1337 1472 1598 1595 1464 1336 1468
8 1471 1339 1474 1600 1335 1204 1338 1470
8 1600 1474 1367 1496 1470 1338 1235 1360
8 1336 1205 1340 1472 1471 1339 1475 1601
8 1337 1206 1341 1473 1472 1340 1476 1602
8 1495 1370 1478 1609 1361 1239 1342 1479
8 1348 1212 1342 1479 1483 1347 1478 1609
8 1481 1346 1479 1610 1345 1210 1343 1480
8 1481 1346 1228 1359 1610 1479 1361 1494
8 1484 1348 1214 1351 1610 1479 1343 1480
8 1483 1347 1482 1612 1350 1213 1349 1486
8 1484 1348 1483 1613 1351 1214 1350 1487
8 1353 1230 1360 1488 1489 1363 1496 1616
8 1490 1364 1231 1354 1617 1499 1363 1489
8 1490 1364 1499 1617 1355 1232 1365 1491
8 1356 1234 1365 1491 1492 1366 1500 1619
8 1492 1366 1498 1620 1357 1233 1362 1493
8 1494 1361 1228 1359 1621 1497 1362 1493
8 1495 1370 1239 1361 1622 1504 1371 1497
8 1363 1236 1367 1496 1499 1368 1501 1623
8 1497 1371 1240 1362 1624 1505 1372 1498
8 1625 1503 1372 1498 1500 1369 1241 1366
8 1365 1238 1368 1499 1500 1369 1502 1626
8 1520 1398 1506 1633 1388 1266 1373 1507
8 1634 1507 1374 1508 1512 1388 1255 1380
8 1509 1387 1519 1635 1377 1258 1391 1510
8 1405 1276 1406 1534 1509 1387 1519 1635
8 1515 1392 1260 1383 1636 1522 1390 1511
8 1511 1390 1259 1379 1636 1522 1391 1510
8 1385 1256 1389 1517 1512 1388 1520 1637
8 1513 1394 1262 1382 1638 1524 1393 1514
8 1395 1516 1638 1524 1263 1384 1513 1394
8 1515 1392 1523 1639 1383 1260 1393 1514
8 1516 1395 1526 1640 1386 1264 1396 1518
8 1386 1264 1396 1518 1517 1389 1521 1641
8 1519 1397 1527 1643 1391 1269 1400 1522
8 1535 1407 1527 1643 1406 1277 1397 1519
8 1389 1267 1399 1521 1520 1398 1528 1644
8 1645 1529 1399 1521 1525 1404 1274 1396
8 1392 1270 1400 1522 1523 1401 1531 1646
8 1524 1402 1271 1393 1648 1532 1401 1523
8 1403 1526 1648 1532 1273 1395 1524 1402
8 1525 1404 1274 1396 1649 1533 1403 1526
8 1539 1414 1535 1657 1411 1286 1406 1534
8 1542 1415 1536 1658 1414 1287 1407 1535
8 1409 1285 1412 1537 1538 1413 1540 1660
8 1545 1421 1540 1660 1418 1292 1412 1537
8 1539 1414 1286 1411 1661 1541 1413 1538
8 1540 1417 1544 1663 1413 1288 1416 1541
8 1421 1296 1425 1548 1540 1417 1544 1663
8 1542 1415 1287 1414 1664 1543 1416 1541
8 1420 1294 1423 1547 1545 1421 1548 1666
8 1547 1423 1293 1419 1667 1549 1422 1546
8 1434 1301 1427 1553 1546 1422 1549 1667
8 1423 1297 1424 1549 1548 1425 1550 1668
8 1551 1426 1550 1668 1427 1298 1424 1549
8 1551 1426 1298 1427 1671 1552 1428 1554
8 1562 1432 1554 1674 1434 1301 1427 1553
8 1431 1299 1429 1558 1554 1428 1555 1675
8 1431 1299 1430 1560 1558 1429 1557 1680
8 1560 1430 1300 1432 1683 1559 1433 1563
8 1561 1431 1554 1674 1684 1560 1432 1562
8 1685 1563 1432 1562 1565 1435 1301 1434
8 1435 1302 1436 1566 1563 1433 1564 1686
8 1437 1303 1438 1568 1565 1435 1566 1688
8 1438 1304 1439 1569 1566 1436 1567 1689
8 1440 1306 1441 1571 1568 1438 1569 1691
8 1441 1307 1442 1572 1569 1439 1570 1692
8 1443 1309 1444 1574 1571 1441 1572 1694
8 1310 1444 1572 1442 1445 1575 1695 1573
8 1446 1312 1447 1576 1574 1444 1575 1696
8 1486 1349 1485 1614 1579 1449 1577 1699
8 1451 1317 1449 1579 1581 1450 1578 1701
8 1487 1350 1486 1615 1582 1451 1579 1702
8 1581 1450 1580 1704 1453 1318 1452 1584
8 1582 1451 1581 1705 1454 1319 1453 1585
8 1584 1452 1583 1706 1456 1320 1455 1586
8 1585 1453 1584 1707 1457 1321 1456 1587
8 1587 1456 1586 1708 1458 1323 1459 1588
8 1633 1506 1589 1710 1507 1373 1461 1590
8 1464 1329 1461 1590 1594 1463 1589 1710
8 1468 1336 1462 1591 1595 1464 1590 1711
8 1634 1507 1590 1711 1508 1374 1462 1591
8 1473 1341 1463 1594 1603 1477 1593 1716
8 1469 1337 1464 1595 1599 1473 1594 1717
8 1471 1597 1467 1335 1600 1718 1596 1470
8 1718 1600 1496 1616 1596 1470 1360 1488
8 1336 1468 1597 1471 1472 1598 1719 1601
8 1469 1337 1473 1599 1598 1472 1602 1720
8 1722 1604 1501 1623 1600 1474 1367 1496
8 1475 1601 1471 1339 1604 1722 1600 1474
8 1602 1476 1605 1723 1472 1340 1475 1601
8 1476 1602 1724 1606 1341 1473 1603 1477
8 1483 1347 1478 1609 1612 1482 1608 1731
8 1495 1370 1504 1622 1609 1478 1608 1731
8 1618 1495 1609 1732 1494 1361 1479 1610
8 1484 1348 1479 1610 1613 1483 1609 1732
8 1486 1349 1482 1612 1614 1485 1611 1733
8 1613 1483 1612 1734 1487 1350 1486 1615
8 1489 1363 1496 1616 1617 1499 1623 1736
8 1491 1365 1499 1617 1619 1500 1626 1737
8 1618 1495 1361 1494 1738 1622 1497 1621
8 1739 1625 1498 1620 1619 1500 1366 1492
8 1621 1497 1362 1493 1740 1624 1498 1620
8 1742 1631 1504 1622 1624 1505 1371 1497
8 1743 1628 1502 1626 1623 1501 1368 1499
8 1744 1630 1505 1624 1625 1503 1372 1498
8 1745 1629 1503 1625 1626 1502 1369 1500
8 1520 1398 1528 1644 1633 1506 1632 1751
8 1637 1520 1633 1752 1512 1388 1507 1634
8 1635 1519 1643 1753 1510 1391 1522 1636
8 1657 1535 1643 1753 1534 1406 1519 1635
8 1515 1392 1522 1636 1639 1523 1646 1754
8 1517 1389 1521 1641 1637 1520 1644 1755
8 1524 1638 1756 1648 1393 1514 1639 1523
8 1640 1526 1395 1516 1756 1648 1524 1638
8 1642 1525 1396 1518 1757 1649 1526 1640
8 1758 1645 1521 1641 1642 1525 1396 1518
8 1646 1531 1400 1522 1760 1650 1527 1643
8 1535 1407 1536 1658 1643 1527 1650 1760
8 1521 1399 1529 1645 1644 1528 1651 1761
8 1647 1530 1652 1762 1525 1404 1529 1645
8 1401 1523 1648 1532 1531 1646 1763 1655
8 1525 1404 1533 1649 1647 1530 1654 1765
8 1533 1649 1766 1656 1403 1526 1648 1532
8 1662 1542 1658 1774 1539 1414 1535 1657
8 1542 1415 1543 1664 1658 1536 1659 1775
8 1660 1540 1663 1777 1538 1413 1541 1661
8 1545 1421 1548 1666 1660 1540 1663 1777
8 1662 1542 1414 1539 1778 1664 1541 1661
8 1664 1543 1416 1541 1779 1665 1544 1663
8 1548 1425 1550 1668 1663 1544 1665 1779
8 1547 1423 1549 1667 1666 1548 1668 1781
8 1670 1551 1668 1781 1553 1427 1549 1667
8 1551 1426 1552 1671 1668 1550 1669 1782
8 1670 1551 1427 1553 1784 1671 1554 1674
8 1675 1555 1672 1785 1554 1428 1552 1671
8 1678 1556 1673 1789 1558 1429 1555 1675
8 1561 1431 1558 1681 1674 1554 1675 1790
8 1794 1677 1556 1678 1680 1557 1429 1558
8 1560 1430 1559 1683 1680 1557 1679 1797
8 1561 1431 1560 1684 1681 1558 1680 1798
8 1563 1433 1564 1686 1683 1559 1682 1800
8 1684 1560 1432 1562 1801 1683 1563 1685
8 1565 1435 1566 1688 1685 1563 1686 1802
8 1566 1436 1567 1689 1686 1564 1687 1803
8 1568 1438 1569 1691 1688 1566 1689 1805
8 1569 1439 1570 1692 1689 1567 1690 1806
8 1571 1441 1572 1694 1691 1569 1692 1808
8 1442 1572 1692 1570 1573 1695 1809 1693
8 1574 1444 1575 1696 1694 1572 1695 1810
8 1614 1485 1592 1712 1699 1577 1697 1813
8 1579 1449 1577 1699 1701 1578 1698 1815
8 1615 1486 1614 1735 1702 1579 1699 1816
8 1701 1578 1700 1818 1581 1450 1580 1704
8 1582 1451 1579 1702 1705 1581 1701 1819
8 1704 1580 1703 1820 1584 1452 1583 1706
8 1705 1581 1704 1821 1585 1453 1584 1707
8 1707 1584 1706 1822 1587 1456 1586 1708
8 1710 1589 1506 1633 1824 1709 1632 1751
8 1594 1463 1589 1710 1716 1593 1709 1824
8 1752 1633 1710 1825 1634 1507 1590 1711
8 1595 1464 1590 1711 1717 1594 1710 1825
8 1830 1714 1592 1712 1733 1611 1485 1614
8 1603 1477 1593 1716 1725 1607 1715 1834
8 1599 1473 1594 1717 1721 1603 1716 1835
8 1837 1722 1623 1736 1718 1600 1496 1616
8 1719 1601 1722 1837 1597 1471 1600 1718
8 1602 1720 1598 1472 1723 1838 1719 1601
8 1720 1602 1473 1599 1839 1724 1603 1721
8 1723 1605 1726 1840 1601 1475 1604 1722
8 1840 1726 1628 1743 1722 1604 1501 1623
8 1724 1606 1727 1841 1602 1476 1605 1723
8 1725 1607 1728 1842 1603 1477 1606 1724
8 1612 1482 1608 1731 1733 1611 1730 1849
8 1741 1627 1730 1849 1622 1504 1608 1731
8 1613 1483 1609 1732 1734 1612 1731 1850
8 1618 1495 1622 1738 1732 1609 1731 1850
8 1615 1486 1612 1734 1735 1614 1733 1851
8 1852 1743 1626 1737 1736 1623 1499 1617
8 1853 1745 1625 1739 1737 1626 1500 1619
8 1855 1742 1622 1738 1740 1624 1497 1621
8 1856 1744 1624 1740 1739 1625 1498 1620
8 1741 1627 1504 1622 1857 1746 1631 1742
8 1742 1631 1505 1624 1858 1749 1630 1744
8 1859 1747 1629 1745 1743 1628 1502 1626
8 1860 1748 1630 1744 1745 1629 1503 1625
8 1644 1528 1651 1761 1751 1632 1750 1865
8 1637 1520 1644 1755 1752 1633 1751 1866
8 1754 1646 1522 1636 1867 1760 1643 1753
8 1657 1535 1658 1774 1753 1643 1760 1867
8 1639 1523 1646 1754 1756 1648 1763 1868
8 1641 1521 1645 1758 1755 1644 1761 1869
8 1757 1649 1526 1640 1870 1766 1648 1756
8 1642 1525 1649 1757 1759 1647 1765 1871
8 1759 1647 1762 1872 1642 1525 1645 1758
8 1760 1650 1767 1874 1646 1531 1655 1763
8 1658 1536 1659 1775 1760 1650 1767 1874
8 1762 1652 1768 1875 1645 1529 1651 1761
8 1764 1653 1769 1876 1647 1530 1652 1762
8 1656 1766 1877 1773 1532 1648 1763 1655
8 1771 1879 1765 1654 1653 1764 1647 1530
8 1533 1649 1765 1654 1656 1766 1880 1772
8 1662 1542 1664 1778 1774 1658 1775 1887
8 1664 1543 1665 1779 1775 1659 1776 1888
8 1778 1664 1541 1661 1890 1779 1663 1777
8 1666 1548 1668 1781 1777 1663 1779 1890
8 1782 1669 1780 1891 1668 1550 1665 1779
8 1670 1551 1671 1784 1781 1668 1782 1893
8 1671 1552 1672 1785 1782 1669 1783 1894
8 1790 1675 1785 1896 1674 1554 1671 1784
8 1675 1555 1673 1789 1785 1672 1786 1897
8 1792 1676 1788 1903 1678 1556 1673 1789
8 1795 1678 1789 1904 1681 1558 1675 1790
8 1792 1676 1556 1678 1906 1791 1677 1794
8 1680 1557 1679 1797 1794 1677 1793 1909
8 1910 1794 1678 1795 1798 1680 1558 1681
8 1683 1559 1682 1800 1797 1679 1796 1912
8 1684 1560 1683 1801 1798 1680 1797 1913
8 1686 1564 1687 1803 1800 1682 1799 1915
8 1685 1563 1686 1802 1801 1683 1800 1916
8 1688 1566 1689 1805 1802 1686 1803 1917
8 1689 1567 1690 1806 1803 1687 1804 1918
8 1691 1569 1692 1808 1805 1689 1806 1920
8 1692 1570 1693 1809 1806 1690 1807 1921
8 1694 1572 1695 1810 1808 1692 1809 1922
8 1829 1713 1811 1926 1712 1592 1697 1813
8 1813 1697 1812 1928 1699 1577 1698 1815
8 1735 1614 1712 1828 1816 1699 1813 1929
8 1815 1698 1814 1931 1701 1578 1700 1818
8 1702 1579 1699 1816 1819 1701 1815 1932
8 1818 1700 1817 1933 1704 1580 1703 1820
8 1819 1701 1818 1934 1705 1581 1704 1821
8 1821 1704 1820 1935 1707 1584 1706 1822
8 1824 1709 1632 1751 1937 1823 1750 1865
8 1716 1593 1709 1824 1834 1715 1823 1937
8 1825 1710 1633 1752 1938 1824 1751 1866
8 1717 1594 1710 1825 1835 1716 1824 1938
8 1945 1830 1712 1828 1851 1733 1614 1735
8 1830 1714 1831 1946 1712 1592 1713 1829
8 1947 1832 1714 1830 1849 1730 1611 1733
8 1843 1729 1607 1725 1950 1833 1715 1834
8 1721 1603 1716 1835 1836 1725 1834 1951
8 1836 1725 1842 1953 1721 1603 1724 1839
8 1723 1838 1719 1601 1840 1954 1837 1722
8 1954 1840 1743 1852 1837 1722 1623 1736
8 1724 1839 1720 1602 1841 1955 1838 1723
8 1841 1727 1844 1956 1723 1605 1726 1840
8 1956 1844 1747 1859 1840 1726 1628 1743
8 1728 1842 1724 1606 1845 1957 1841 1727
8 1725 1607 1729 1843 1842 1728 1846 1958
8 1741 1627 1746 1857 1849 1730 1848 1965
8 1734 1612 1731 1850 1851 1733 1849 1966
8 1854 1741 1849 1966 1738 1622 1731 1850
8 1967 1859 1745 1853 1852 1743 1626 1737
8 1968 1860 1744 1856 1853 1745 1625 1739
8 1854 1741 1622 1738 1969 1857 1742 1855
8 1855 1742 1624 1740 1970 1858 1744 1856
8 1857 1746 1631 1742 1971 1861 1749 1858
8 1858 1749 1630 1744 1972 1863 1748 1860
8 1859 1747 1862 1973 1745 1629 1748 1860
8 1875 1768 1864 1977 1761 1651 1750 1865
8 1755 1644 1761 1869 1866 1751 1865 1978
8 1867 1760 1874 1979 1754 1646 1763 1868
8 1774 1658 1775 1887 1867 1760 1874 1979
8 1870 1766 1648 1756 1980 1877 1763 1868
8 1872 1762 1875 1981 1758 1645 1761 1869
8 1757 1649 1766 1870 1871 1765 1880 1982
8 1983 1879 1764 1873 1871 1765 1647 1759
8 1873 1764 1876 1984 1759 1647 1762 1872
8 1877 1773 1655 1763 1986 1881 1767 1874
8 1775 1659 1776 1888 1874 1767 1881 1986
8 1876 1769 1882 1987 1762 1652 1768 1875
8 1878 1770 1883 1988 1764 1653 1769 1876
8 1880 1772 1656 1766 1989 1886 1773 1877
8 1878 1770 1653 1764 1990 1884 1771 1879
8 1765 1654 1772 1880 1879 1771 1885 1991
8 1778 1664 1779 1890 1887 1775 1888 1997
8 1998 1889 1776 1888 1891 1780 1665 1779
8 1893 1782 1891 2000 1781 1668 1779 1890
8 1894 1783 1892 2001 1782 1669 1780 1891
8 1784 1671 1785 1896 1893 1782 1894 2003
8 1897 1786 1895 2004 1785 1672 1783 1894
8 1790 1675 1789 1904 1896 1785 1897 2006
8 1901 1787 1898 2007 1789 1673 1786 1897
8 1903 1788 1900 2013 1789 1673 1787 1901
8 1792 1676 1791 1906 1903 1788 1902 2016
8 1907 1792 1903 2017 1795 1678 1789 1904
8 1906 1791 1677 1794 2019 1905 1793 1909
8 1907 1792 1678 1795 2020 1906 1794 1910
8 1797 1679 1796 1912 1909 1793 1908 2022
8 1798 1680 1797 1913 1910 1794 1909 2023
8 1800 1682 1799 1915 1912 1796 1911 2025
8 1801 1683 1800 1916 1913 1797 1912 2026
8 1803 1687 1804 1918 1915 1799 1914 2028
8 1802 1686 1803 1917 1916 1800 1915 2029
8 1805 1689 1806 1920 1917 1803 1918 2030
8 1806 1690 1807 1921 1918 1804 1919 2031
8 1808 1692 1809 1922 1920 1806 1921 2032
8 1939 1826 1924 2037 1829 1713 1811 1926
8 1926 1811 1925 2039 1813 1697 1812 1928
8 1944 1829 1926 2040 1828 1712 1813 1929
8 1928 1812 1927 2042 1815 1698 1814 1931
8 1929 1813 1928 2043 1816 1699 1815 1932
8 1931 1814 1930 2044 1818 1700 1817 1933
8 1932 1815 1931 2045 1819 1701 1818 1934
8 1934 1818 1933 2046 1821 1704 1820 1935
8 2048 1936 1823 1937 1977 1864 1750 1865
8 1950 1833 1715 1834 2048 1936 1823 1937
8 1938 1824 1751 1866 2049 1937 1865 1978
8 1835 1716 1824 1938 1951 1834 1937 2049
8 1939 1826 1713 1829 2053 1942 1831 1946
8 1940 1827 1923 2035 2053 1942 1826 1939
8 1945 1830 1946 2058 1828 1712 1829 1944
8 2059 1947 1830 1945 1966 1849 1733 1851
8 1947 1832 1730 1849 2060 1948 1848 1965
8 1947 1832 1948 2060 1830 1714 1831 1946
8 1959 1847 1729 1843 2063 1949 1833 1950
8 1952 1843 1725 1836 2064 1950 1834 1951
8 1836 1725 1843 1952 1953 1842 1958 2066
8 1953 1842 1957 2067 1839 1724 1841 1955
8 1841 1955 1838 1723 1956 2068 1954 1840
8 2068 1956 1859 1967 1954 1840 1743 1852
8 1956 1844 1960 2069 1859 1747 1862 1973
8 1845 1957 1841 1727 1960 2069 1956 1844
8 1728 1842 1957 1845 1846 1958 2071 1961
8 1962 2072 1959 1847 1846 1958 1843 1729
8 1971 1861 1964 2077 1857 1746 1848 1965
8 1854 1741 1857 1969 1966 1849 1965 2078
8 1967 1859 1973 2079 1853 1745 1860 1968
8 1970 1858 1744 1856 2080 1972 1860 1968
8 1969 1857 1742 1855 2081 1971 1858 1970
8 1971 1861 1749 1858 2082 1974 1863 1972
8 1973 1862 1975 2083 1860 1748 1863 1972
8 1987 1882 1976 2086 1875 1768 1864 1977
8 1981 1875 1977 2087 1869 1761 1865 1978
8 1980 1877 1763 1868 2088 1986 1874 1979
8 1887 1775 1888 1997 1979 1874 1986 2088
8 1880 1982 2089 1989 1766 1870 1980 1877
8 1984 1876 1987 2090 1872 1762 1875 1981
8 1765 1871 1983 1879 1880 1982 2091 1991
8 1985 1878 1764 1873 2092 1990 1879 1983
8 1985 1878 1988 2093 1873 1764 1876 1984
8 2094 1992 1881 1986 1998 1889 1776 1888
8 1986 1881 1992 2094 1877 1773 1886 1989
8 1988 1883 1993 2095 1876 1769 1882 1987
8 1878 1770 1884 1990 1988 1883 1994 2096
8 1991 1885 1772 1880 2097 1996 1886 1989
8 1879 1771 1885 1991 1990 1884 1995 2098
8 2103 1998 1888 1997 2000 1891 1779 1890
8 2104 1999 1889 1998 2001 1892 1780 1891
8 2003 1894 2001 2106 1893 1782 1891 2000
8 2004 1895 2002 2107 1894 1783 1892 2001
8 2006 1897 2004 2109 1896 1785 1894 2003
8 2007 1898 2005 2110 1897 1786 1895 2004
8 2014 1901 2007 2112 1904 1789 1897 2006
8 2011 1899 2008 2113 1901 1787 1898 2007
8 2119 2010 1899 2011 2013 1900 1787 1901
8 2016 1902 2012 2122 1903 1788 1900 2013
8 2017 1903 2013 2123 1904 1789 1901 2014
8 1906 1791 1905 2019 2016 1902 2015 2125
8 1907 1792 1906 2020 2017 1903 2016 2126
8 1909 1793 1908 2022 2019 1905 2018 2128
8 2020 1906 1794 1910 2129 2019 1909 2023
8 1912 1796 1911 2025 2022 1908 2021 2131
8 1913 1797 1912 2026 2023 1909 2022 2132
8 1915 1799 1914 2028 2025 1911 2024 2134
8 1916 1800 1915 2029 2026 1912 2025 2135
8 1918 1804 1919 2031 2028 1914 2027 2136
8 1917 1803 1918 2030 2029 1915 2028 2137
8 1920 1806 1921 2032 2030 1918 2031 2138
8 1940 1827 1941 2054 2035 1923 2033 2140
8 2035 1923 2034 2143 1939 1826 1924 2037
8 2037 1924 2036 2146 1926 1811 1925 2039
8 2051 1939 2037 2147 1944 1829 1926 2040
8 2039 1925 2038 2149 1928 1812 1927 2042
8 2040 1926 2039 2150 1929 1813 1928 2043
8 2042 1927 2041 2151 1931 1814 1930 2044
8 2043 1928 2042 2152 1932 1815 1931 2045
8 2045 1931 2044 2153 1934 1818 1933 2046
8 2155 2047 1936 2048 2086 1976 1864 1977
8 2063 1949 1833 1950 2155 2047 1936 2048
8 2156 2048 1937 2049 2087 1977 1865 1978
8 2064 1950 1834 1951 2156 2048 1937 2049
8 2051 1939 1829 1944 2160 2053 1946 2058
8 2052 1940 2035 2144 2160 2053 1939 2051
8 2053 1942 1831 1946 2163 2057 1948 2060
8 2055 1943 1827 1940 2163 2057 1942 2053
8 2055 1943 2056 2164 1940 1827 1941 2054
8 2059 1947 1849 1966 2167 2060 1965 2078
8 2059 1947 2060 2167 1945 1830 1946 2058
8 2077 1964 2061 2168 1965 1848 1948 2060
8 2070 1963 1847 1959 2170 2062 1949 2063
8 2065 1959 1843 1952 2171 2063 1950 2064
8 2173 2072 1958 2066 2065 1959 1843 1952
8 1953 1842 1958 2066 2067 1957 2071 2174
8 2068 1956 2069 2175 1967 1859 1973 2079
8 2067 1957 2069 2175 1955 1841 1956 2068
8 1845 1957 2069 1960 1961 2071 2176 2073
8 2069 1960 2073 2176 1973 1862 1975 2083
8 2070 1963 2075 2177 1959 1847 1962 2072
8 1846 1958 2071 1961 1962 2072 2178 2074
8 2077 1964 1861 1971 2182 2076 1974 2082
8 2081 1971 2077 2183 1969 1857 1965 2078
8 2079 1973 2083 2184 1968 1860 1972 2080
8 2081 1971 1858 1970 2185 2082 1972 2080
8 2083 1975 2084 2186 1972 1863 1974 2082
8 2086 1976 1882 1987 2189 2085 1993 2095
8 2090 1987 2086 2190 1981 1875 1977 2087
8 2191 2094 1986 2088 2103 1998 1888 1997
8 2088 1986 2094 2191 1980 1877 1989 2089
8 1991 2091 2192 2097 1880 1982 2089 1989
8 2093 1988 2095 2193 1984 1876 1987 2090
8 1879 1983 2092 1990 1991 2091 2194 2098
8 1985 1878 1990 2092 2093 1988 2096 2195
8 2097 1996 1886 1989 2196 2099 1992 2094
8 2196 2099 1992 2094 2104 1999 1889 1998
8 1994 2096 1988 1883 2100 2197 2095 1993
8 2096 1994 1884 1990 2198 2101 1995 2098
8 1995 2098 2199 2102 1885 1991 2097 1996
8 2203 2104 1998 2103 2106 2001 1891 2000
8 2107 2002 2105 2204 2001 1892 1999 2104
8 2109 2004 2107 2206 2003 1894 2001 2106
8 2110 2005 2108 2207 2004 1895 2002 2107
8 2112 2007 2110 2209 2006 1897 2004 2109
8 2113 2008 2111 2210 2007 1898 2005 2110
8 2120 2011 2113 2212 2014 1901 2007 2112
8 2117 2009 2114 2213 2011 1899 2008 2113
8 2219 2116 2009 2117 2119 2010 1899 2011
8 2222 2118 2010 2119 2122 2012 1900 2013
8 2223 2119 2011 2120 2123 2013 1901 2014
8 2016 1902 2015 2125 2122 2012 2121 2225
8 2126 2016 2122 2226 2017 1903 2013 2123
8 2019 1905 2018 2128 2125 2015 2124 2228
8 2020 1906 2019 2129 2126 2016 2125 2229
8 2022 1908 2021 2131 2128 2018 2127 2231
8 2023 1909 2022 2132 2129 2019 2128 2232
8 2025 1911 2024 2134 2131 2021 2130 2234
8 2026 1912 2025 2135 2132 2022 2131 2235
8 1914 2028 2134 2024 2027 2136 2236 2133
8 2029 1915 2028 2137 2135 2025 2134 2237
8 2030 1918 2031 2138 2137 2028 2136 2238
8 2157 2050 2139 2240 2054 1941 2033 2140
8 2052 1940 2054 2161 2144 2035 2140 2242
8 2140 2033 2141 2243 2035 1923 2034 2143
8 2143 2034 2142 2246 2037 1924 2036 2146
8 2144 2035 2143 2247 2051 1939 2037 2147
8 2146 2036 2145 2249 2039 1925 2038 2149
8 2147 2037 2146 2250 2040 1926 2039 2150
8 2149 2038 2148 2251 2042 1927 2041 2151
8 2150 2039 2149 2252 2043 1928 2042 2152
8 2152 2042 2151 2253 2045 1931 2044 2153
8 2255 2154 2047 2155 2189 2085 1976 2086
8 2170 2062 1949 2063 2255 2154 2047 2155
8 2256 2155 2048 2156 2190 2086 1977 2087
8 2171 2063 1950 2064 2256 2155 2048 2156
8 2258 2159 2050 2157 2164 2056 1941 2054
8 2160 2053 1946 2058 2262 2163 2060 2167
8 2162 2055 1940 2052 2262 2163 2053 2160
8 2162 2055 2164 2263 2052 1940 2054 2161
8 2163 2057 1948 2060 2264 2165 2061 2168
8 2055 1943 2057 2163 2164 2056 2165 2264
8 2182 2076 2166 2268 2077 1964 2061 2168
8 2183 2077 2168 2269 2078 1965 2060 2167
8 2070 1963 2062 2170 2177 2075 2169 2271
8 2172 2070 1959 2065 2272 2170 2063 2171
8 2172 2070 2177 2273 2065 1959 2072 2173
8 2066 1958 2072 2173 2174 2071 2178 2274
8 2067 1957 2071 2174 2175 2069 2176 2275
8 2175 2069 2176 2275 2079 1973 2083 2184
8 2071 1961 2074 2178 2176 2073 2179 2276
8 2176 2073 2179 2276 2083 1975 2084 2186
8 2072 1962 2075 2177 2178 2074 2180 2277
8 2182 2076 1974 2082 2280 2181 2084 2186
8 2183 2077 1971 2081 2281 2182 2082 2185
8 2184 2083 2186 2282 2080 1972 2082 2185
8 2189 2085 1993 2095 2285 2188 2100 2197
8 2190 2086 1987 2090 2286 2189 2095 2193
8 2192 2097 1989 2089 2287 2196 2094 2191
8 2287 2196 2094 2191 2203 2104 1998 2103
8 2194 2098 1991 2091 2288 2199 2097 2192
8 2195 2096 2197 2289 2093 1988 2095 2193
8 2096 2195 2290 2198 1990 2092 2194 2098
8 2097 1996 2099 2196 2199 2102 2200 2291
8 2196 2099 1999 2104 2291 2200 2105 2204
8 2100 2197 2292 2201 1994 2096 2198 2101
8 1995 2098 2198 2101 2102 2199 2293 2202
8 2206 2107 2204 2296 2106 2001 2104 2203
8 2207 2108 2205 2297 2107 2002 2105 2204
8 2209 2110 2207 2299 2109 2004 2107 2206
8 2210 2111 2208 2300 2110 2005 2108 2207
8 2212 2113 2210 2302 2112 2007 2110 2209
8 2213 2114 2211 2303 2113 2008 2111 2210
8 2220 2117 2213 2305 2120 2011 2113 2212
8 2216 2115 2214 2306 2117 2009 2114 2213
8 2216 2115 2009 2117 2311 2217 2116 2219
8 2219 2116 2010 2119 2314 2218 2118 2222
8 2315 2219 2117 2220 2223 2119 2011 2120
8 2122 2012 2121 2225 2222 2118 2221 2317
8 2318 2222 2119 2223 2226 2122 2013 2123
8 2125 2015 2124 2228 2225 2121 2224 2320
8 2126 2016 2125 2229 2226 2122 2225 2321
8 2128 2018 2127 2231 2228 2124 2227 2323
8 2129 2019 2128 2232 2229 2125 2228 2324
8 2131 2021 2130 2234 2231 2127 2230 2326
8 2132 2022 2131 2235 2232 2128 2231 2327
8 2134 2024 2133 2236 2234 2130 2233 2328
8 2135 2025 2134 2237 2235 2131 2234 2329
8 2137 2028 2136 2238 2237 2134 2236 2330
8 2157 2050 2158 2259 2240 2139 2239 2332
8 2257 2157 2240 2334 2161 2054 2140 2242
8 2240 2139 2241 2335 2140 2033 2141 2243
8 2242 2140 2243 2337 2144 2035 2143 2247
8 2243 2141 2244 2338 2143 2034 2142 2246
8 2246 2142 2245 2341 2146 2036 2145 2249
8 2247 2143 2246 2342 2147 2037 2146 2250
8 2249 2145 2248 2343 2149 2038 2148 2251
8 2250 2146 2249 2344 2150 2039 2149 2252
8 2252 2149 2251 2345 2152 2042 2151 2253
8 2169 2271 2347 2254 2062 2170 2255 2154
8 2189 2085 2188 2285 2255 2154 2254 2347
8 2348 2255 2155 2256 2286 2189 2086 2190
8 2272 2170 2063 2171 2348 2255 2155 2256
8 2349 2258 2157 2257 2263 2164 2054 2161
8 2258 2159 2261 2351 2157 2050 2158 2259
8 2258 2159 2056 2164 2351 2261 2165 2264
8 2262 2163 2060 2167 2355 2264 2168 2269
8 2162 2055 2163 2262 2263 2164 2264 2355
8 2357 2266 2165 2264 2268 2166 2061 2168
8 2268 2166 2076 2182 2361 2267 2181 2280
8 2281 2182 2268 2362 2183 2077 2168 2269
8 2271 2169 2270 2364 2177 2075 2180 2277
8 2172 2070 2170 2272 2273 2177 2271 2365
8 2072 2173 2274 2178 2177 2273 2366 2277
8 2071 2174 2275 2176 2178 2274 2367 2276
8 2275 2176 2276 2367 2184 2083 2186 2282
8 2283 2187 2084 2186 2368 2278 2179 2276
8 2178 2074 2180 2277 2276 2179 2278 2368
8 2283 2187 2279 2370 2186 2084 2181 2280
8 2281 2182 2082 2185 2371 2280 2186 2282
8 2188 2285 2374 2284 2100 2197 2292 2201
8 2286 2189 2095 2193 2375 2285 2197 2289
8 2192 2097 2196 2287 2288 2199 2291 2376
8 2287 2196 2104 2203 2376 2291 2204 2296
8 2194 2098 2199 2288 2290 2198 2293 2377
8 2289 2197 2096 2195 2378 2292 2198 2290
8 2291 2200 2105 2204 2379 2294 2205 2297
8 2199 2102 2200 2291 2293 2202 2294 2379
8 2198 2101 2202 2293 2292 2201 2295 2380
8 2299 2207 2297 2383 2206 2107 2204 2296
8 2300 2208 2298 2384 2207 2108 2205 2297
8 2302 2210 2300 2386 2209 2110 2207 2299
8 2303 2211 2301 2387 2210 2111 2208 2300
8 2305 2213 2303 2389 2212 2113 2210 2302
8 2306 2214 2304 2390 2213 2114 2211 2303
8 2310 2216 2306 2392 2220 2117 2213 2305
8 2308 2215 2307 2393 2216 2115 2214 2306
8 2308 2215 2115 2216 2396 2309 2217 2311
8 2310 2216 2117 2220 2398 2311 2219 2315
8 2311 2217 2116 2219 2399 2312 2218 2314
8 2314 2218 2118 2222 2402 2313 2221 2317
8 2315 2219 2119 2223 2403 2314 2222 2318
8 2225 2121 2224 2320 2317 2221 2316 2405
8 2226 2122 2225 2321 2318 2222 2317 2406
8 2228 2124 2227 2323 2320 2224 2319 2408
8 2229 2125 2228 2324 2321 2225 2320 2409
8 2231 2127 2230 2326 2323 2227 2322 2411
8 2232 2128 2231 2327 2324 2228 2323 2412
8 2234 2130 2233 2328 2326 2230 2325 2413
8 2235 2131 2234 2329 2327 2231 2326 2414
8 2237 2134 2236 2330 2329 2234 2328 2415
8 2259 2158 2260 2352 2332 2239 2331 2417
8 2257 2157 2259 2350 2334 2240 2332 2419
8 2240 2139 2239 2332 2335 2241 2333 2420
8 2334 2240 2335 2422 2242 2140 2243 2337
8 2335 2241 2336 2423 2243 2141 2244 2338
8 2337 2243 2338 2425 2247 2143 2246 2342
8 2338 2244 2339 2426 2246 2142 2245 2341
8 2341 2245 2340 2428 2249 2145 2248 2343
8 2342 2246 2341 2429 2250 2146 2249 2344
8 2344 2249 2343 2430 2252 2149 2251 2345
8 2188 2285 2347 2254 2284 2374 2432 2346
8 2347 2254 2346 2432 2271 2169 2270 2364
8 2365 2271 2170 2272 2433 2347 2255 2348
8 2286 2189 2285 2375 2348 2255 2347 2433
8 2349 2258 2351 2435 2257 2157 2259 2350
8 2349 2258 2164 2263 2435 2351 2264 2355
8 2259 2158 2261 2351 2352 2260 2354 2437
8 2356 2265 2354 2437 2264 2165 2261 2351
8 2441 2357 2264 2355 2362 2268 2168 2269
8 2356 2265 2165 2264 2442 2358 2266 2357
8 2443 2359 2266 2357 2361 2267 2166 2268
8 2370 2279 2360 2446 2280 2181 2267 2361
8 2362 2268 2182 2281 2447 2361 2280 2371
8 2180 2277 2368 2278 2270 2364 2449 2363
8 2271 2365 2273 2177 2364 2450 2366 2277
8 2372 2283 2186 2282 2451 2368 2276 2367
8 2178 2274 2367 2276 2277 2366 2451 2368
8 2283 2187 2278 2368 2370 2279 2369 2452
8 2372 2283 2370 2453 2282 2186 2280 2371
8 2284 2374 2455 2373 2201 2292 2380 2295
8 2375 2285 2197 2289 2456 2374 2292 2378
8 2376 2291 2204 2296 2457 2379 2297 2383
8 2288 2199 2291 2376 2377 2293 2379 2457
8 2198 2290 2378 2292 2293 2377 2458 2380
8 2293 2202 2294 2379 2380 2295 2381 2459
8 2384 2298 2381 2459 2297 2205 2294 2379
8 2386 2300 2384 2463 2299 2207 2297 2383
8 2387 2301 2385 2464 2300 2208 2298 2384
8 2389 2303 2387 2466 2302 2210 2300 2386
8 2390 2304 2388 2467 2303 2211 2301 2387
8 2392 2306 2390 2469 2305 2213 2303 2389
8 2393 2307 2391 2470 2306 2214 2304 2390
8 2395 2308 2393 2472 2310 2216 2306 2392
8 2308 2215 2309 2396 2393 2307 2394 2473
8 2395 2308 2216 2310 2475 2396 2311 2398
8 2396 2309 2217 2311 2476 2397 2312 2399
8 2398 2311 2219 2315 2478 2399 2314 2403
8 2399 2312 2218 2314 2479 2400 2313 2402
8 2317 2221 2316 2405 2402 2313 2401 2482
8 2403 2314 2222 2318 2483 2402 2317 2406
8 2320 2224 2319 2408 2405 2316 2404 2485
8 2321 2225 2320 2409 2406 2317 2405 2486
8 2323 2227 2322 2411 2408 2319 2407 2488
8 2324 2228 2323 2412 2409 2320 2408 2489
8 2326 2230 2325 2413 2411 2322 2410 2490
8 2327 2231 2326 2414 2412 2323 2411 2491
8 2329 2234 2328 2415 2414 2326 2413 2492
8 2417 2331 2260 2352 2494 2416 2353 2438
8 2350 2259 2352 2436 2419 2332 2417 2496
8 2332 2239 2331 2417 2420 2333 2418 2497
8 2334 2240 2332 2419 2422 2335 2420 2499
8 2420 2333 2421 2500 2335 2241 2336 2423
8 2422 2335 2423 2502 2337 2243 2338 2425
8 2423 2336 2424 2503 2338 2244 2339 2426
8 2425 2338 2426 2505 2342 2246 2341 2429
8 2426 2339 2427 2506 2341 2245 2340 2428
8 2429 2341 2428 2507 2344 2249 2343 2430
8 2432 2346 2284 2374 2509 2431 2373 2455
8 2432 2346 2431 2509 2364 2270 2363 2449
8 2375 2285 2374 2456 2433 2347 2432 2510
8 2347 2433 2365 2271 2432 2510 2450 2364
8 2350 2259 2351 2435 2436 2352 2437 2514
8 2440 2356 2437 2514 2355 2264 2351 2435
8 2352 2260 2354 2437 2438 2353 2439 2516
8 2356 2265 2358 2442 2437 2354 2439 2516
8 2440 2356 2264 2355 2518 2442 2357 2441
8 2519 2443 2357 2441 2447 2361 2268 2362
8 2443 2359 2444 2520 2357 2266 2358 2442
8 2443 2359 2267 2361 2520 2444 2360 2446
8 2446 2360 2279 2370 2523 2445 2369 2452
8 2453 2370 2446 2524 2371 2280 2361 2447
8 2449 2363 2448 2525 2368 2278 2369 2452
8 2366 2277 2364 2450 2451 2368 2449 2526
8 2372 2283 2368 2451 2453 2370 2452 2527
8 2455 2373 2295 2380 2529 2454 2382 2460
8 2456 2374 2292 2378 2530 2455 2380 2458
8 2377 2293 2379 2457 2458 2380 2459 2531
8 2463 2384 2459 2531 2383 2297 2379 2457
8 2533 2461 2382 2460 2459 2381 2295 2380
8 2464 2385 2461 2533 2384 2298 2381 2459
8 2466 2387 2464 2537 2386 2300 2384 2463
8 2467 2388 2465 2538 2387 2301 2385 2464
8 2469 2390 2467 2540 2389 2303 2387 2466
8 2470 2391 2468 2541 2390 2304 2388 2467
8 2472 2393 2470 2543 2392 2306 2390 2469
8 2393 2307 2394 2473 2470 2391 2471 2544
8 2395 2308 2396 2475 2472 2393 2473 2546
8 2396 2309 2397 2476 2473 2394 2474 2547
8 2475 2396 2311 2398 2549 2476 2399 2478
8 2476 2397 2312 2399 2550 2477 2400 2479
8 2478 2399 2314 2403 2552 2479 2402 2483
8 2479 2400 2313 2402 2553 2480 2401 2482
8 2405 2316 2404 2485 2482 2401 2481 2556
8 2406 2317 2405 2486 2483 2402 2482 2557
8 2408 2319 2407 2488 2485 2404 2484 2559
8 2409 2320 2408 2489 2486 2405 2485 2560
8 2411 2322 2410 2490 2488 2407 2487 2561
8 2412 2323 2411 2491 2489 2408 2488 2562
8 2414 2326 2413 2492 2491 2411 2490 2563
8 2513 2434 2493 2565 2438 2353 2416 2494
8 2496 2417 2352 2436 2567 2494 2438 2515
8 2494 2416 2495 2568 2417 2331 2418 2497
8 2419 2332 2417 2496 2499 2420 2497 2570
8 2497 2418 2498 2571 2420 2333 2421 2500
8 2499 2420 2500 2573 2422 2335 2423 2502
8 2500 2421 2501 2574 2423 2336 2424 2503
8 2502 2423 2503 2576 2425 2338 2426 2505
8 2503 2424 2504 2577 2426 2339 2427 2506
8 2505 2426 2506 2578 2429 2341 2428 2507
8 2509 2431 2373 2455 2580 2508 2454 2529
8 2509 2431 2508 2580 2449 2363 2448 2525
8 2432 2510 2581 2509 2374 2456 2530 2455
8 2432 2510 2450 2364 2509 2581 2526 2449
8 2583 2511 2434 2513 2516 2439 2353 2438
8 2436 2352 2437 2514 2515 2438 2516 2588
8 2440 2356 2442 2518 2514 2437 2516 2588
8 2442 2358 2444 2520 2516 2439 2517 2589
8 2519 2443 2520 2591 2441 2357 2442 2518
8 2519 2443 2361 2447 2591 2520 2446 2524
8 2446 2360 2445 2523 2520 2444 2521 2592
8 2525 2448 2522 2593 2452 2369 2445 2523
8 2524 2446 2370 2453 2594 2523 2452 2527
8 2526 2449 2525 2595 2451 2368 2452 2527
8 2534 2462 2528 2597 2460 2382 2454 2529
8 2530 2455 2380 2458 2598 2529 2460 2532
8 2599 2533 2460 2532 2531 2459 2380 2458
8 2537 2464 2533 2599 2463 2384 2459 2531
8 2534 2462 2382 2460 2601 2535 2461 2533
8 2538 2465 2535 2601 2464 2385 2461 2533
8 2540 2467 2538 2604 2466 2387 2464 2537
8 2541 2468 2539 2605 2467 2388 2465 2538
8 2543 2470 2541 2607 2469 2390 2467 2540
8 2470 2391 2471 2544 2541 2468 2542 2608
8 2472 2393 2473 2546 2543 2470 2544 2610
8 2473 2394 2474 2547 2544 2471 2545 2611
8 2475 2396 2476 2549 2546 2473 2547 2613
8 2476 2397 2477 2550 2547 2474 2548 2614
8 2549 2476 2399 2478 2616 2550 2479 2552
8 2479 2400 2480 2553 2550 2477 2551 2617
8 2552 2479 2402 2483 2619 2553 2482 2557
8 2482 2401 2481 2556 2553 2480 2554 2620
8 2485 2404 2484 2559 2556 2481 2555 2623
8 2486 2405 2485 2560 2557 2482 2556 2624
8 2488 2407 2487 2561 2559 2484 2558 2625
8 2489 2408 2488 2562 2560 2485 2559 2626
8 2491 2411 2490 2563 2562 2488 2561 2627
8 2513 2434 2512 2585 2565 2493 2564 2630
8 2586 2513 2565 2632 2515 2438 2494 2567
8 2565 2493 2566 2633 2494 2416 2495 2568
8 2567 2494 2568 2635 2496 2417 2497 2570
8 2568 2495 2569 2636 2497 2418 2498 2571
8 2570 2497 2571 2638 2499 2420 2500 2573
8 2571 2498 2572 2639 2500 2421 2501 2574
8 2573 2500 2574 2641 2502 2423 2503 2576
8 2574 2501 2575 2642 2503 2424 2504 2577
8 2576 2503 2577 2643 2505 2426 2506 2578
8 2597 2528 2579 2645 2529 2454 2508 2580
8 2580 2508 2579 2645 2525 2448 2522 2593
8 2581 2509 2455 2530 2646 2580 2529 2598
8 2581 2509 2580 2646 2526 2449 2525 2595
8 2583 2511 2582 2648 2513 2434 2512 2585
8 2583 2511 2439 2516 2648 2582 2517 2589
8 2649 2583 2513 2586 2588 2516 2438 2515
8 2589 2517 2444 2520 2653 2587 2521 2592
8 2518 2442 2520 2591 2588 2516 2589 2654
8 2593 2522 2590 2655 2523 2445 2521 2592
8 2524 2446 2523 2594 2591 2520 2592 2656
8 2595 2525 2593 2657 2527 2452 2523 2594
8 2602 2536 2596 2659 2534 2462 2528 2597
8 2600 2534 2597 2660 2532 2460 2529 2598
8 2600 2534 2460 2532 2661 2601 2533 2599
8 2604 2538 2601 2661 2537 2464 2533 2599
8 2602 2536 2462 2534 2663 2603 2535 2601
8 2601 2535 2465 2538 2663 2603 2539 2605
8 2607 2541 2605 2665 2540 2467 2538 2604
8 2608 2542 2606 2666 2541 2468 2539 2605
8 2543 2470 2544 2610 2607 2541 2608 2668
8 2544 2471 2545 2611 2608 2542 2609 2669
8 2546 2473 2547 2613 2610 2544 2611 2671
8 2547 2474 2548 2614 2611 2545 2612 2672
8 2549 2476 2550 2616 2613 2547 2614 2674
8 2550 2477 2551 2617 2614 2548 2615 2675
8 2552 2479 2553 2619 2616 2550 2617 2677
8 2553 2480 2554 2620 2617 2551 2618 2678
8 2557 2482 2556 2624 2619 2553 2620 2680
8 2556 2481 2555 2623 2620 2554 2621 2681
8 2559 2484 2558 2625 2623 2555 2622 2683
8 2560 2485 2559 2626 2624 2556 2623 2684
8 2562 2488 2561 2627 2626 2559 2625 2685
8 2690 2629 2564 2630 2650 2584 2512 2585
8 2586 2513 2585 2651 2632 2565 2630 2691
8 2630 2564 2631 2692 2565 2493 2566 2633
8 2632 2565 2633 2694 2567 2494 2568 2635
8 2633 2566 2634 2695 2568 2495 2569 2636
8 2635 2568 2636 2697 2570 2497 2571 2638
8 2636 2569 2637 2698 2571 2498 2572 2639
8 2638 2571 2639 2700 2573 2500 2574 2641
8 2639 2572 2640 2701 2574 2501 2575 2642
8 2641 2574 2642 2702 2576 2503 2577 2643
8 2597 2528 2596 2659 2645 2579 2644 2704
8 2645 2579 2644 2704 2593 2522 2590 2655
8 2660 2597 2645 2705 2598 2529 2580 2646
8 2646 2580 2645 2705 2595 2525 2593 2657
8 2650 2584 2512 2585 2707 2647 2582 2648
8 2648 2582 2517 2589 2707 2647 2587 2653
8 2649 2583 2648 2708 2586 2513 2585 2651
8 2649 2583 2516 2588 2708 2648 2589 2654
8 2655 2590 2652 2710 2592 2521 2587 2653
8 2654 2589 2520 2591 2711 2653 2592 2656
8 2657 2593 2655 2712 2594 2523 2592 2656
8 2602 2536 2603 2663 2659 2596 2658 2714
8 2662 2602 2659 2715 2600 2534 2597 2660
8 2662 2602 2534 2600 2717 2663 2601 2661
8 2661 2601 2538 2604 2717 2663 2605 2665
8 2666 2606 2664 2718 2605 2539 2603 2663
8 2668 2608 2666 2720 2607 2541 2605 2665
8 2608 2542 2609 2669 2666 2606 2667 2721
8 2610 2544 2611 2671 2668 2608 2669 2723
8 2611 2545 2612 2672 2669 2609 2670 2724
8 2613 2547 2614 2674 2671 2611 2672 2726
8 2614 2548 2615 2675 2672 2612 2673 2727
8 2616 2550 2617 2677 2674 2614 2675 2729
8 2617 2551 2618 2678 2675 2615 2676 2730
8 2619 2553 2620 2680 2677 2617 2678 2732
8 2620 2554 2621 2681 2678 2618 2679 2733
8 2624 2556 2623 2684 2680 2620 2681 2735
8 2681 2621 2555 2623 2736 2682 2622 2683
8 2626 2559 2625 2685 2684 2623 2683 2737
8 2688 2628 2584 2650 2740 2686 2647 2707
8 2688 2628 2687 2742 2650 2584 2629 2690
8 2690 2629 2689 2745 2630 2564 2631 2692
8 2746 2690 2630 2691 2709 2650 2585 2651
8 2691 2630 2692 2747 2632 2565 2633 2694
8 2692 2631 2693 2748 2633 2566 2634 2695
8 2694 2633 2695 2750 2635 2568 2636 2697
8 2695 2634 2696 2751 2636 2569 2637 2698
8 2697 2636 2698 2753 2638 2571 2639 2700
8 2698 2637 2699 2754 2639 2572 2640 2701
8 2700 2639 2701 2755 2641 2574 2642 2702
8 2659 2596 2658 2714 2704 2644 2703 2757
8 2704 2644 2703 2757 2655 2590 2652 2710
8 2660 2597 2659 2715 2705 2645 2704 2758
8 2705 2645 2704 2758 2657 2593 2655 2712
8 2759 2706 2647 2707 2710 2652 2587 2653
8 2709 2650 2585 2651 2760 2707 2648 2708
8 2708 2648 2589 2654 2760 2707 2653 2711
8 2712 2655 2710 2761 2656 2592 2653 2711
8 2763 2713 2658 2714 2718 2664 2603 2663
8 2662 2602 2663 2717 2715 2659 2714 2764
8 2720 2666 2718 2767 2665 2605 2663 2717
8 2768 2719 2664 2718 2721 2667 2606 2666
8 2668 2608 2669 2723 2720 2666 2721 2770
8 2669 2609 2670 2724 2721 2667 2722 2771
8 2671 2611 2672 2726 2723 2669 2724 2773
8 2672 2612 2673 2727 2724 2670 2725 2774
8 2674 2614 2675 2729 2726 2672 2727 2776
8 2675 2615 2676 2730 2727 2673 2728 2777
8 2677 2617 2678 2732 2729 2675 2730 2779
8 2678 2618 2679 2733 2730 2676 2731 2780
8 2680 2620 2681 2735 2732 2678 2733 2782
8 2733 2679 2621 2681 2783 2734 2682 2736
8 2735 2681 2623 2684 2784 2736 2683 2737
8 2740 2686 2647 2707 2787 2738 2706 2759
8 2688 2628 2686 2740 2742 2687 2739 2789
8 2743 2688 2650 2709 2790 2740 2707 2760
8 2742 2687 2741 2792 2690 2629 2689 2745
8 2743 2688 2742 2793 2709 2650 2690 2746
8 2745 2689 2744 2795 2692 2631 2693 2748
8 2746 2690 2745 2796 2691 2630 2692 2747
8 2747 2692 2748 2797 2694 2633 2695 2750
8 2748 2693 2749 2798 2695 2634 2696 2751
8 2750 2695 2751 2800 2697 2636 2698 2753
8 2751 2696 2752 2801 2698 2637 2699 2754
8 2753 2698 2754 2802 2700 2639 2701 2755
8 2763 2713 2756 2804 2714 2658 2703 2757
8 2759 2706 2652 2710 2804 2756 2703 2757
8 2715 2659 2714 2764 2758 2704 2757 2805
8 2758 2704 2757 2805 2712 2655 2710 2761
8 2806 2759 2707 2760 2761 2710 2653 2711
8 2765 2716 2762 2808 2718 2664 2713 2763
8 2809 2763 2714 2764 2767 2718 2663 2717
8 2765 2716 2664 2718 2811 2766 2719 2768
8 2813 2768 2718 2767 2770 2721 2666 2720
8 2814 2769 2719 2768 2771 2722 2667 2721
8 2723 2669 2724 2773 2770 2721 2771 2816
8 2724 2670 2725 2774 2771 2722 2772 2817
8 2726 2672 2727 2776 2773 2724 2774 2819
8 2727 2673 2728 2777 2774 2725 2775 2820
8 2729 2675 2730 2779 2776 2727 2777 2822
8 2730 2676 2731 2780 2777 2728 2778 2823
8 2732 2678 2733 2782 2779 2730 2780 2825
8 2780 2731 2679 2733 2826 2781 2734 2783
8 2782 2733 2681 2735 2827 2783 2736 2784
8 2830 2785 2738 2787 2804 2756 2706 2759
8 2789 2739 2686 2740 2832 2786 2738 2787
8 2790 2740 2707 2760 2833 2787 2759 2806
8 2742 2687 2739 2789 2792 2741 2788 2835
8 2743 2688 2740 2790 2793 2742 2789 2836
8 2792 2741 2791 2838 2745 2689 2744 2795
8 2793 2742 2792 2839 2746 2690 2745 2796
8 2795 2744 2794 2841 2748 2693 2749 2798
8 2796 2745 2795 2842 2747 2692 2748 2797
8 2797 2748 2798 2843 2750 2695 2751 2800
8 2798 2749 2799 2844 2751 2696 2752 2801
8 2800 2751 2801 2845 2753 2698 2754 2802
8 2808 2762 2803 2847 2763 2713 2756 2804
8 2809 2763 2804 2848 2764 2714 2757 2805
8 2806 2759 2710 2761 2848 2804 2757 2805
8 2765 2716 2766 2811 2808 2762 2807 2850
8 2810 2765 2808 2851 2767 2718 2763 2809
8 2810 2765 2718 2767 2852 2811 2768 2813
8 2811 2766 2719 2768 2853 2812 2769 2814
8 2855 2814 2768 2813 2816 2771 2721 2770
8 2856 2815 2769 2814 2817 2772 2722 2771
8 2773 2724 2774 2819 2816 2771 2817 2858
8 2774 2725 2775 2820 2817 2772 2818 2859
8 2776 2727 2777 2822 2819 2774 2820 2861
8 2777 2728 2778 2823 2820 2775 2821 2862
8 2779 2730 2780 2825 2822 2777 2823 2864
8 2823 2778 2731 2780 2865 2824 2781 2826
8 2825 2780 2733 2782 2866 2826 2783 2827
8 2869 2828 2785 2830 2847 2803 2756 2804
8 2871 2829 2786 2832 2830 2785 2738 2787
8 2872 2830 2787 2833 2848 2804 2759 2806
8 2789 2739 2786 2832 2835 2788 2831 2874
8 2836 2789 2740 2790 2875 2832 2787 2833
8 2792 2741 2788 2835 2838 2791 2834 2877
8 2793 2742 2789 2836 2839 2792 2835 2878
8 2838 2791 2837 2880 2795 2744 2794 2841
8 2839 2792 2838 2881 2796 2745 2795 2842
8 2841 2794 2840 2882 2798 2749 2799 2844
8 2842 2795 2841 2883 2797 2748 2798 2843
8 2843 2798 2844 2884 2800 2751 2801 2845
8 2886 2846 2803 2847 2850 2807 2762 2808
8 2851 2808 2847 2887 2809 2763 2804 2848
8 2850 2807 2766 2811 2889 2849 2812 2853
8 2810 2765 2811 2852 2851 2808 2850 2890
8 2852 2811 2768 2813 2891 2853 2814 2855
8 2853 2812 2769 2814 2892 2854 2815 2856
8 2894 2856 2814 2855 2858 2817 2771 2816
8 2817 2772 2818 2859 2856 2815 2857 2895
8 2819 2774 2820 2861 2858 2817 2859 2897
8 2820 2775 2821 2862 2859 2818 2860 2898
8 2822 2777 2823 2864 2861 2820 2862 2900
8 2823 2778 2824 2865 2862 2821 2863 2901
8 2864 2823 2780 2825 2902 2865 2826 2866
8 2904 2867 2828 2869 2886 2846 2803 2847
8 2869 2828 2868 2906 2830 2785 2829 2871
8 2907 2869 2830 2872 2887 2847 2804 2848
8 2871 2829 2870 2909 2832 2786 2831 2874
8 2910 2871 2832 2875 2872 2830 2787 2833
8 2835 2788 2831 2874 2877 2834 2873 2912
8 2836 2789 2832 2875 2878 2835 2874 2913
8 2877 2834 2876 2915 2838 2791 2837 2880
8 2839 2792 2835 2878 2881 2838 2877 2916
8 2880 2837 2879 2917 2841 2794 2840 2882
8 2881 2838 2880 2918 2842 2795 2841 2883
8 2883 2841 2882 2919 2843 2798 2844 2884
8 2921 2885 2846 2886 2889 2849 2807 2850
8 2922 2886 2847 2887 2890 2850 2808 2851
8 2889 2849 2812 2853 2924 2888 2854 2892
8 2890 2850 2811 2852 2925 2889 2853 2891
8 2891 2853 2814 2855 2926 2892 2856 2894
8 2892 2854 2815 2856 2927 2893 2857 2895
8 2858 2817 2859 2897 2894 2856 2895 2929
8 2859 2818 2860 2898 2895 2857 2896 2930
8 2861 2820 2862 2900 2897 2859 2898 2932
8 2862 2821 2863 2901 2898 2860 2899 2933
8 2864 2823 2865 2902 2900 2862 2901 2934
8 2904 2867 2846 2886 2936 2903 2885 2921
8 2904 2867 2903 2936 2869 2828 2868 2906
8 2937 2904 2869 2907 2922 2886 2847 2887
8 2906 2868 2905 2939 2871 2829 2870 2909
8 2907 2869 2906 2940 2872 2830 2871 2910
8 2909 2870 2908 2942 2874 2831 2873 2912
8 2910 2871 2909 2943 2875 2832 2874 2913
8 2912 2873 2911 2945 2877 2834 2876 2915
8 2878 2835 2874 2913 2916 2877 2912 2946
8 2915 2876 2914 2947 2880 2837 2879 2917
8 2916 2877 2915 2948 2881 2838 2880 2918
8 2918 2880 2917 2949 2883 2841 2882 2919
8 2921 2885 2849 2889 2951 2920 2888 2924
8 2952 2921 2886 2922 2925 2889 2850 2890
8 2924 2888 2854 2892 2954 2923 2893 2927
8 2925 2889 2853 2891 2955 2924 2892 2926
8 2926 2892 2856 2894 2956 2927 2895 2929
8 2895 2857 2896 2930 2927 2893 2928 2957
8 2897 2859 2898 2932 2929 2895 2930 2959
8 2898 2860 2899 2933 2930 2896 2931 2960
8 2900 2862 2901 2934 2932 2898 2933 2961
8 2936 2903 2885 2921 2963 2935 2920 2951
8 2936 2903 2935 2963 2906 2868 2905 2939
8 2937 2904 2886 2922 2964 2936 2921 2952
8 2937 2904 2936 2964 2907 2869 2906 2940
8 2939 2905 2938 2966 2909 2870 2908 2942
8 2940 2906 2939 2967 2910 2871 2909 2943
8 2942 2908 2941 2969 2912 2873 2911 2945
8 2943 2909 2942 2970 2913 2874 2912 2946
8 2945 2911 2944 2971 2915 2876 2914 2947
8 2946 2912 2945 2972 2916 2877 2915 2948
8 2948 2915 2947 2973 2918 2880 2917 2949
8 2951 2920 2888 2924 2975 2950 2923 2954
8 2952 2921 2889 2925 2976 2951 2924 2955
8 2927 2893 2928 2957 2954 2923 2953 2978
8 2955 2924 2892 2926 2979 2954 2927 2956
8 2929 2895 2930 2959 2956 2927 2957 2980
8 2930 2896 2931 2960 2957 2928 2958 2981
8 2932 2898 2933 2961 2959 2930 2960 2982
8 2951 2920 2950 2975 2963 2935 2962 2984
8 2963 2935 2962 2984 2939 2905 2938 2966
8 2964 2936 2921 2952 2985 2963 2951 2976
8 2964 2936 2963 2985 2940 2906 2939 2967
8 2966 2938 2965 2987 2942 2908 2941 2969
8 2967 2939 2966 2988 2943 2909 2942 2970
8 2969 2941 2968 2989 2945 2911 2944 2971
8 2970 2942 2969 2990 2946 2912 2945 2972
8 2972 2945 2971 2991 2948 2915 2947 2973
8 2954 2923 2953 2978 2975 2950 2974 2993
8 2976 2951 2924 2955 2994 2975 2954 2979
8 2957 2928 2958 2981 2978 2953 2977 2995
8 2956 2927 2957 2980 2979 2954 2978 2996
8 2959 2930 2960 2982 2980 2957 2981 2997
8 2984 2962 2983 2999 2966 2938 2965 2987
8 2975 2950 2974 2993 2984 2962 2983 2999
8 2976 2951 2975 2994 2985 2963 2984 3000
8 2985 2963 2984 3000 2967 2939 2966 2988
8 2987 2965 2986 3001 2969 2941 2968 2989
8 2988 2966 2987 3002 2970 2942 2969 2990
8 2990 2969 2989 3003 2972 2945 2971 2991
8 2978 2953 2977 2995 2993 2974 2992 3004
8 2979 2954 2978 2996 2994 2975 2993 3005
8 2980 2957 2981 2997 2996 2978 2995 3006
8 2974 2993 2999 2983 2992 3004 3007 2998
8 2983 2999 2987 2965 2998 3007 3001 2986
8 3000 2984 2999 3008 2988 2966 2987 3002
8 2994 2975 2993 3005 3000 2984 2999 3008
8 3002 2987 3001 3009 2990 2969 2989 3003
8 2996 2978 2995 3006 3005 2993 3004 3010
8 3005 2993 3004 3010 3008 2999 3007 3011
8 3008 2999 3007 3011 3002 2987 3001 3009

CELL_TYPES 1910
12
12
12
12
12
12
12
12
12
12
12
12
12
12
12
12
12
12
12
12
12
12
12
12
12
12
12
12
12
12
12
12
12
12
12
12
12
12
12
12
12
12
12
12
12
12
12
12
12
12
12
12
12
12
12
12
12
12
12
12
12
12
12
12
12
12
12
12
12
12
12
12
12
12
12
12
12
12
12
12
12
12
12
12
12
12
12
12
12
12
12
12
12
12
12
12
12
12
12
12
12
12
12
12
12
12
12
12
12
12
12
12
12
12
12
12
12
12
12
12
12
12
12
12
12
12
12
12
12
12
12
12
12
12
12
12
12
12
12
12
12
12
12
12
12
12
12
12
12
12
12
12
12
12
12
12
12
12
12
12
12
12
12
12
12
12
12
12
12
12
12
12
12
12
12
12
12
12
12
12
12
12
12
12
12
12
12
12
12
12
12
12
12
12
12
12
12
12
12
12
12
12
12
12
12
12
12
12
12
12
12
12
12
12
12
12
12
12
12
12
12
12
12
12
12
12
12
12
12
12
12
12
12
12
12
12
12
12
12
12
12
12
12
12
12
12
12
12
12
12
12
12
12
12
12
12
12
12
12
12
12
12
12
12
12
12
12
12
12
12
12
12
12
12
12
12
12
12
12
12
12
12
12
12
12
12
12
12
12
12
12
12
12
12
12
12
12
12
12
12
12
12
12
12
12
12
12
12
12
12
12
12
12
12
12
12
12
12
12
12
12
12
12
12
12
12
12
12
12
12
12
12
12
12
12
12
12
12
12
12
12
12
12
12
12
12
12
12
12
12
12
12
12
12
12
12
12
12
12
12
12
12
12
12
12
12
12
12
12
12
12
12
12
12
12
12
12
12
12
12
12
12
12
12
12
12
12
12
12
12
12
12
12
12
12
12
12
12
12
12
12
12
12
12
12
12
12
12
12
12
12
12
12
12
12
12
12
12
12
12
12
12
12
12
12
12
12
12
12
12
12
12
12
12
12
12
12
12
12
12
12
12
12
12
12
12
12
12
12
12
12
12
12
12
12
12
12
12
12
12
12
12
12
12
12
12
12
12
12
12
12
12
12
12
12
12
12
12
12
12
12
12
12
12
12
12
12
12
12
12
12
12
12
12
12
12
12
12
12
12
12
12
12
12
12
12
12
12
12
12
12
12
12
12
12
12
12
12
12
12
12
12
12
12
12
12
12
12
12
12
12
12
12
12
12
12
12
12
12
12
12
12
12
12
12
12
12
12
12
12
12
12
12
12
12
12
12
12
12
12
12
12
12
12
12
12
12
12
12
12
12
12
12
12
12
12
12
12
12
12
12
12
12
12
12
12
12
12
12
12
12
12
12
12
12
12
12
12
12
12
12
12
12
12
12
12
12
12
12
12
12
12
12
12
12
12
12
12
12
12
12
12
12
12
12
12
12
12
12
12
12
12
12
12
12
12
12
12
12
12
12
12
12
12
12
12
12
12
12
12
12
12
12
12
12
12
12
12
12
12
12
12
12
12
12
12
12
12
12
12
12
12
12
12
12
12
12
12
12
12
12
12
12
12
12
12
12
12
12
12
12
12
12
12
12
12
12
12
12
12
12
12
12
12
12
12
12
12
12
12
12
12
12
12
12
12
12
12
12
12
12
12
12
12
12
12
12
12
12
12
12
12
12
12
12
12
12
12
12
12
12
12
12
12
12
12
12
12
12
12
12
12
12
12
12
12
12
12
12
12
12
12
12
12
12
12
12
12
12
12
12
12
12
12
12
12
12
12
12
12
12
12
12
12
12
12
12
12
12
12
12
12
12
12
12
12
12
12
12
12
12
12
12
12
12
12
12
12
12
12
12
12
12
12
12
12
12
12
12
12
12
12
12
12
12
12
12
12
12
12
12
12
12
12
12
12
12
12
12
12
12
12
12
12
12
12
12
12
12
12
12
12
12
12
12
12
12
12
12
12
12
12
12
12
12
12
12
12
12
12
12
12
12
12
12
12
12
12
12
12
12
12
12
12
12
12
12
12
12
12
12
12
12
12
12
12
12
12
12
12
12
12
12
12
12
12
12
12
12
12
12
12
12
12
12
12
12
12
12
12
12
12
12
12
12
12
12
12
12
12
12
12
12
12
12
12
12
12
12
12
12
12
12
12
12
12
12
12
12
12
12
12
12
12
12
12
12
12
12
12
12
12
12
12
12
12
12
12
12
12
12
12
12
12
12
12
12
12
12
12
12
12
12
12
12
12
12
12
12
12
12
12
12
12
12
12
12
12
12
12
12
12
12
12
12
12
12
12
12
12
12
12
12
12
12
12
12
12
12
12
12
12
12
12
12
12
12
12
12
12
12
12
12
12
12
12
12
12
12
12
12
12
12
12
12
12
12
12
12
12
12
12
12
12
12
12
12
12
12
12
12
12
12
12
12
12
12
12
12
12
12
12
12
12
12
12
12
12
12
12
12
12
12
12
12
12
12
12
12
12
12
12
12
12
12
12
12
12
12
12
12
12
12
12
12
12
12
12
12
12
12
12
12
12
12
12
12
12
12
12
12
12
12
12
12
12
12
12
12
12
12
12
12
12
12
12
12
12
12
12
12
12
12
12
12
12
12
12
12
12
12
12
12
12
12
12
12
12
12
12
12
12
12
12
12
12
12
12
12
12
12
12
12
12
12
12
12
12
12
12
12
12
12
12
12
12
12
12
12
12
12
12
12
12
12
12
12
12
12
12
12
12
12
12
12
12
12
12
12
12
12
12
12
12
12
12
12
12
12
12
12
12
12
12
12
12
12
12
12
12
12
12
12
12
12
12
12
12
12
12
12
12
12
12
12
12
12
12
12
12
12
12
12
12
12
12
12
12
12
12
12
12
12
12
12
12
12
12
12
12
12
12
12
12
12
12
12
12
12
12
12
12
12
12
12
12
12
12
12
12
12
12
12
12
12
12
12
12
12
12
12
12
12
12
12
12
12
12
12
12
12
12
12
12
12
12
12
12
12
12
12
12
12
12
12
12
12
12
12
12
12
12
12
12
12
12
12
12
12
12
12
12
12
12
12
12
12
12
12
12
12
12
12
12
12
12
12
12
12
12
12
12
12
12
12
12
12
12
12
12
12
12
12
12
12
12
12
12
12
12
12
12
12
12
12
12
12
12
12
12
12
12
12
12
12
12
12
12
12
12
12
12
12
12
12
12
12
12
12
12
12
12
12
12
12
12
12
12
12
12
12
12
12
12
12
12
12
12
12
12
12
12
12
12
12
12
12
12
12
12
12
12
12
12
12
12
12
12
12
12
12
12
12
12
12
12
12
12
12
12
12
12
12
12
12
12
12
12
12
12
12
12
12
12
12
12
12
12
12
12
12
12
12
12
12
12
12
12
12
12
12
12
12
12
12
12
12
12
12
12
12
12
12
12
12
12
12
12
12
12
12
12
12
12
12
12
12
12
12
12
12
12
12
12
12
12
12
12
12
12
12
12
12
12
12
12
12
12
12
12
12
12
12
12
12
12
12
12
12
12
12
12
12
12
12
12
12
12
12
12
12
12
12
12
12
12
12
12
12
12
12
12
12
12
12
12
12
12
12
12
12
12
12
12
12
12
12
12
12
12
12
12
12
12
12
12
12
12
12
12
12
12
12
12
12
12
12
12
12
12
12
12
12
12
12
12
12
12
12
12
12
12
12
12
12
12
12
12
12
12
12
12
12
12
12
12
12
12
12
12
12
12
12
12
12
12
12
12
12
12
12
12
12
12
12
12
12
12
12
12
12
12
12
12
12
12
12
12
12
12
12
12
12
12
12
12
12
12
12
12
12
12
12
12
12
12
12
12
12
12
12
12
12
12
12
12
12
12
12
12
12
12
12
12
12
12
12
12
12
12
12
12
12
12
12
12
12
12
12
12
12
12
12
12
12
12
12
12
12
12
12
12
12
12
12
12
12
12
12
12
12
12
12
12
12
12
12
12
12
12
12
12
12
12
12
12
12
12
12
12
12
12
12
12
12
12
12
12
12
12
12
12
12
12
12
12
12
12
12
12
12
12
12
12
12
12
12
12
12
12
12
12
12
12
12
12
12
12
12
12
12
12
12
12
12
12
12
12
12
12
12
12
12
12
12
12
12
12
12
12
12
12
12
12
12
12
12
12
12
12
12
12
12
12
12
12
12
12
12
12
12
12
12
12
12
12
12
12
12
12
12
12
12
12
12
12
12
12
12
12
12
12
12
12
12
12
12
12
12
12
12
12
12
12
12
12
12
12
12
12
12
12
12
12
12
12
12
12
12
12
12
12
12
12
12
12
12
12
12
12
12
12
12
12
12
12
12
12
12
12

POINT_DATA 3012
SCALARS Jp_lamdaP float 4
LOOKUP_TABLE default
0.999808 1 1 0.999808
1 1 1 1
0.999813 1 1 0.999813
0.99976 1 1 0.99976
0.999807 1 1 0.999807
0.999798 1 1 0.999798
0.999188 1 1 0.999188
1 1 1 1
1 1 1 1
1 1 1 1
0.999881 1 1 0.999881
0.999335 1 1 0.999335
0.99973 1 1 0.99973
0.999754 1 1 0.999754
0.999814 1 1 0.999814
0.999779 1 1 0.999779
0.999803 1 1 0.999803
0.999818 1 1 0.999818
0.999191 1 1 0.999191
1 1 1 1
0.999739 1 1 0.999739
0.999788 1 1 0.999788
0.999058 1 1 0.999058
0.99916 1 1 0.99916
0.999814 1 1 0.999814
0.999216 1 1 0.999216
1.0016 1.00339 1 0.998219
1 1 1 1
0.999893 1 1 0.999893
0.999906 1 1 0.999906
1 1 1 1
0.999343 1 1 0.999343
0.99978 1 1 0.99978
0.999803 1 1 0.999803
0.999292 1 1 0.999292
1 1 1 1
0.999379 1 1 0.999379
0.999435 1 1 0.999435
0.998698 1.00046 1 0.998239
1 1 1 1
1 1 1 1
0.999875 1 1 0.999875
1 1 1 1
0.999749 1 1 0.999749
0.998985 1 1 0.998985
1 1 1 1
0.999194 1 1 0.999194
0.999795 1 1 0.999795
0.999825 1 1 0.999825
0.999804 1 1 0.999804
0.999197 1 1 0.999197
0.999859 1 1 0.999859
0.999757 1 1 0.999757
0.999825 1 1 0.999825
0.999804 1 1 0.999804
0.999057 1 1 0.999057
0.99922 1 1 0.99922
0.999162 1 1 0.999162
1.00196 1.00376 1 0.998205
1 1 1 1
0.99973 1 1 0.99973
0.999182 1 1 0.999182
0.999022 1 1 0.999022
0.999111 1 1 0.999111
1.00434 1.00643 1 0.997925
1.00278 1.00473 1 0.998054
0.999874 1 1 0.999874
0.999328 1 1 0.999328
0.999953 1.00163 1 0.998321
1.01224 1.01486 1 0.997415
1 1 1 1
1 1 1 1
1 1 1 1
0.999351 1 1 0.999351
1 1 1 1
1 1 1 1
0.999186 1 1 0.999186
0.999966 1 1 0.999966
0.999292 1 1 0.999292
0.999506 1 1 0.999506
0.998485 1.00025 1 0.998236
1 1 1 1
0.999976 1 1.00006 0.999911
0.99912 1 1 0.99912
0.999221 1 1 0.999221
1.00439 1.00659 1 0.997814
0.999685 1 1 0.999685
1.00015 1.00202 1 0.998138
0.998382 1 1 0.998378
1.00001 1.00239 1 0.997629
1 1 1 1
1 1 1 1
1 1 1 1
1 1 1 1
1 1 1 1
0.999871 1 1 0.999871
0.999078 1 1 0.999078
0.99988 1 1 0.99988
0.999135 1 1 0.999135
1 1 1 1
0.998979 1 1 0.998979
0.999171 1 1 0.999171
1.00373 1.0062 1 0.997544
0.99923 1 1 0.99923
1.0058 1.0082 1 0.997618
0.999749 1 1 0.999749
0.999773 1 1 0.999773
0.999834 1 1 0.999834
0.999817 1 1 0.999817
0.999058 1 1 0.999058
0.999167 1 1 0.999167
0.999226 1 1 0.999226
1.00231 1.00413 1 0.99819
1 1 1 1
0.999748 1 1 0.999748
0.999005 1 1 0.999005
0.999019 1 1 0.999019
0.999937 1 1 0.999937
0.999389 1 1 0.999389
0.999112 1 1 0.999112
1.00432 1.00645 1 0.997884
1.00044 1.00214 1 0.998303
1.00302 1.00494 1 0.998084
1.0122 1.01482 1 0.99742
0.999002 1 1 0.999002
0.999003 1 1 0.999003
1.00335 1.00563 1 0.997731
1.00438 1.00659 1 0.99781
1.00414 1.00622 1 0.997939
1.01985 1.02267 1 0.997243
1 1 1 1
1.01473 1.01742 1 0.997354
0.999581 1 1.00002 0.999557
0.998627 1.00029 1 0.998338
1.0094 1.01196 1 0.997475
1.02248 1.02536 1 0.997193
0.999879 1 1.0001 0.999783
1.00122 1 1.00225 0.998967
1 1 1 1
1 1 1 1
0.999192 1 1 0.999192
1 1 1 1
0.999494 1 1 0.999494
0.999297 1 1 0.999297
0.99831 1.00008 1 0.998233
1 1 1 1
0.99993 1 1 0.99993
0.999193 1 1 0.999193
0.999289 1 1 0.999289
1.00383 1.00603 1 0.997816
0.999684 1 1 0.999684
0.999617 1.00148 1 0.998141
0.998376 1 1 0.998376
0.999844 1.00224 1 0.997612
0.999809 1 1 0.999809
0.999972 1 1 0.999972
1.00005 1 1.00087 0.999187
1.00566 1.00797 1 0.997704
1.00239 1.00442 1 0.997977
1.01601 1.01884 1 0.997215
0.998618 1 1 0.998618
1.00546 1.00795 1 0.997528
0.9998 1.00151 1.00057 0.997719
1.00598 1.00857 1 0.997439
1 1 1 1
1 1 1 1
1 1 1 1
0.999865 1 1 0.999865
1 1 1 1
1 1 1 1
1 1 1 1
0.999075 1 1 0.999075
0.999013 1 1 0.999013
1 1 1 1
1 1 1 1
0.998981 1 1 0.998981
0.999112 1 1 0.999112
1.0041 1.00657 1 0.997544
0.999102 1 1 0.999102
1.0059 1.0083 1 0.997618
0.998973 1 1 0.998973
1.00285 1.00536 1 0.997499
1.00488 1.0073 1 0.997591
1.02294 1.02594 1 0.997072
1.00603 1.0084 1 0.997646
1.02416 1.02711 1 0.997123
1 1 1 1
0.999765 1 1 0.999765
0.998812 1 1 0.998812
0.999018 1 1 0.999018
1 1 1 1
0.999452 1 1 0.999452
0.999115 1 1 0.999115
1.0043 1.00647 1 0.997842
1.00327 1.00517 1 0.998114
1.00089 1.00261 1 0.998284
1.01214 1.01475 1 0.997425
0.998999 1 1 0.998999
0.999 1 1 0.999
1.0032 1.00558 1 0.997628
1.00441 1.00658 1 0.997838
1 1 1 1
0.999566 1 1 0.999566
0.999058 1.00066 1 0.998398
1.00408 1.00616 1 0.997937
1.01972 1.02257 1 0.997209
1.00895 1.01151 1 0.997464
1.01493 1.01759 1 0.997388
1.02204 1.02491 1 0.9972
1.00011 1 1.00034 0.999772
1.00117 1 1.0022 0.998969
1.00241 1.0049 1 0.997521
1.0039 1.00614 1 0.997776
1.02112 1.02403 1 0.997165
1.0202 1.02312 1 0.997144
1.01727 1.01999 1 0.997334
1.03083 1.03376 1 0.997169
0.999892 1 1.00021 0.999679
1.02432 1.02719 1 0.997206
0.998615 1 1.00011 0.998509
1.00341 1.00583 1 0.997591
1.02014 1.023 1 0.997211
1.02461 1.02743 1 0.997254
1.00103 1 1.00224 0.998793
0.999666 1 1.00048 0.999186
1.00178 1 1.0034 0.998377
0.999143 1 1 0.999143
1 1 1 1
0.999948 1 1 0.999948
0.999251 1 1 0.999251
1.00328 1.00547 1 0.997818
0.99969 1 1 0.99969
0.998416 1 1.00004 0.998375
0.999026 1.00088 1 0.998145
0.999664 1.00207 1 0.997595
0.999862 1 1.00003 0.99983
0.99998 1 1 0.99998
1.00026 1 1.00107 0.99919
1.00535 1.00766 1 0.997704
1.00168 1.00371 1 0.997982
1.01605 1.01889 1 0.997212
0.998717 1 1.0001 0.998621
1.00553 1.00801 1 0.997538
0.999444 1.00126 1.00047 0.997714
1.0065 1.00909 1 0.997424
0.999995 1 1 0.999995
0.99939 1 1.0005 0.998887
1.00008 1 1.00061 0.999476
1.00059 1 1.002 0.998593
1.01992 1.02284 1 0.997141
1.01124 1.0139 1 0.997374
1.02466 1.02769 1 0.997053
0.998966 1.00048 1.00049 0.998
1.01307 1.01576 1 0.997357
1.00726 1.0083 1.00158 0.997389
1.01655 1.0193 1 0.997295
0.999812 1 1 0.999812
1 1 1 1
1 1 1 1
1 1 1 1
1 1 1 1
0.999928 1 1 0.999928
1 1 1 1
0.999943 1 1.00009 0.999853
1 1 1 1
0.999102 1 1 0.999102
0.999048 1 1 0.999048
1.00608 1.00849 1 0.997617
1.00444 1.00691 1 0.997545
0.998983 1 1 0.998983
1 1 1 1
0.998973 1 1 0.998973
1.00307 1.00558 1 0.997499
1.00521 1.00764 1 0.997591
1.02264 1.02565 1 0.997071
1.00602 1.0084 1 0.997645
1.02409 1.02705 1 0.997121
1.00232 1.00484 1 0.997493
1.02163 1.02467 1 0.997032
1.02408 1.02705 1 0.997106
1.03689 1.03984 1 0.997168
1.02318 1.02613 1 0.997126
1.03481 1.03776 1 0.997152
0.998996 1 1 0.998996
0.998998 1 1 0.998998
1.00305 1.00554 1 0.997525
1.00444 1.00659 1 0.997866
1 1 1 1
0.999574 1 1 0.999574
0.999473 1.00102 1 0.998457
1.00402 1.0061 1 0.997935
1.0196 1.02248 1 0.997176
1.0151 1.01772 1 0.997421
1.00851 1.01109 1 0.997453
1.02172 1.02458 1 0.997208
1.0001 1 1.00033 0.999762
1.00103 1 1.00206 0.99897
1.00237 1.00488 1 0.997496
1.00386 1.0061 1 0.997772
1.02123 1.02414 1 0.997168
1.02033 1.02322 1 0.997176
0.999805 1 1.00014 0.999669
0.998601 1.00004 1.00006 0.998506
1.0041 1.00649 1 0.997627
1.01754 1.02027 1 0.997328
1.03097 1.03387 1 0.997189
1.0195 1.02239 1 0.997179
1.02424 1.0271 1 0.99721
1.025 1.02782 1 0.997253
1.00037 1 1.00158 0.998796
1.00176 1 1.00339 0.998379
1.00013 1 1.00095 0.999184
1.02068 1.02363 1 0.997116
1.02149 1.02437 1 0.997192
1.03545 1.03842 1 0.997144
1.03218 1.03514 1 0.997146
1.02671 1.02958 1 0.997217
1.03102 1.03372 1 0.997387
0.998958 1 1.00029 0.99867
1.02659 1.02935 1 0.997319
0.999131 1.00122 1 0.997911
1.0113 1.01416 1 0.997177
1.0219 1.0249 1 0.997074
1.0222 1.02483 1 0.997438
0.999393 1 1.00001 0.999382
0.998735 1 1.00041 0.998327
1.00308 1 1.0046 0.998486
1.00011 1 1.00192 0.998188
1.00505 1.00736 1 0.997703
0.999988 1 1 0.999988
0.999851 1 1 0.999851
1.00012 1 1.00093 0.999192
1.00098 1.003 1 0.997986
1.01607 1.01891 1 0.997209
0.998806 1 1.00018 0.998625
0.998908 1.00087 1.00033 0.99771
1.00569 1.00817 1 0.997547
1.00669 1.00931 1 0.997409
0.999997 1 1 0.999997
0.999583 1 1.0007 0.998888
0.999776 1 1.00029 0.999484
1.00091 1 1.00233 0.998587
1.01979 1.02272 1 0.997137
1.011 1.01366 1 0.997374
1.02452 1.02755 1 0.99705
0.998672 1.00022 1.00045 0.998006
1.01324 1.01591 1 0.997369
1.00679 1.0077 1.00173 0.997378
1.01675 1.01944 1 0.997364
1 1 1 1
0.99966 1 1 0.99966
0.999022 1 1.0007 0.998328
1.00053 1 1.00166 0.998867
1.00004 1 1.00174 0.998302
1.02833 1.03138 1 0.997049
1.01906 1.02194 1 0.997183
1.02271 1.02568 1 0.997101
1.00332 1.0037 1.00199 0.997625
1.0152 1.01795 1 0.997303
1.01057 1.01263 1.00086 0.997106
0.999791 1 1 0.999791
0.999373 1 1 0.999373
0.999828 1 1 0.999828
0.999815 1 1 0.999815
1 1 1 1
1 1 1 1
1 1 1 1
1 1 1 1
1 1 1 1
0.999971 1 1 0.999971
1 1 1 1
0.999914 1 1 0.999914
1 1 1 1
1.0002 1 1.00036 0.99984
1 1 1 1
1.00598 1.00836 1 0.997643
1.00547 1.0079 1 0.99759
1.02383 1.02678 1 0.99712
1.02233 1.02534 1 0.997069
1.00335 1.00587 1 0.997499
0.998972 1 1 0.998972
1.00247 1.00499 1 0.997493
1.0215 1.02454 1 0.997032
1.02365 1.02662 1 0.997105
1.03664 1.03977 0.999805 0.997185
1.02268 1.02564 1 0.997123
1.0345 1.03745 1 0.99715
1.02101 1.02406 1 0.997022
1.03593 1.0393 0.999583 0.997177
1.03653 1.03947 1 0.997169
1.0373 1.04114 0.998933 0.997377
1.03116 1.03415 1 0.997105
1.03506 1.03786 0.999871 0.997429
1.00236 1.0049 1 0.997471
1.00383 1.00608 1 0.997769
1.02138 1.02428 1 0.997172
1.02046 1.02332 1 0.997208
0.999771 1 1.00011 0.999658
0.998617 1.00011 1 0.998504
1.00487 1.00722 1 0.997663
1.01784 1.02057 1 0.997322
1.03114 1.03402 1 0.997209
1.02416 1.02702 1 0.997214
1.01876 1.02168 1 0.997148
1.02537 1.0282 1 0.997252
0.999904 1 1.00111 0.998798
1.00182 1 1.00345 0.998382
1.0005 1 1.00132 0.999181
1.02078 1.02377 1 0.997082
1.02166 1.02454 1 0.99719
1.03508 1.03802 0.999998 0.997169
1.03231 1.03527 1 0.997144
0.998996 1 1.00033 0.998668
1.00042 1.00253 1 0.997905
1.01017 1.01294 1.00003 0.997227
1.02689 1.02977 1 0.997207
1.03095 1.0336 1 0.997429
1.02212 1.02516 1 0.99704
1.02646 1.02922 1 0.997322
1.02222 1.02482 1 0.997466
0.998992 1 1.00066 0.998329
1.00014 1 1.00197 0.998168
0.999473 1 1.0001 0.999377
1.00278 1 1.00427 0.998516
1.03556 1.03854 1 0.997131
1.03462 1.03755 1 0.997169
1.03456 1.03861 0.998805 0.997293
1.03257 1.03598 0.999275 0.997432
1.02826 1.03094 1 0.997399
1.02961 1.03246 0.999645 0.997598
0.99826 1.00008 1 0.99818
1.02296 1.02541 1 0.997613
1.00245 1.00496 1 0.997505
1.01359 1.01652 1.00018 0.996943
1.02322 1.02628 1 0.997021
1.0219 1.02445 1 0.997506
0.999525 1 1 0.999525
1.00042 1 1.00172 0.998699
0.998122 1 1 0.998122
1.00245 1 1.00421 0.998255
0.999186 1 1.00105 0.998142
0.999999 1 1 0.999999
1.0196 1.02254 1 0.997133
0.999495 1 1 0.999492
1.00007 1 1.00118 0.998889
1.00136 1 1.00278 0.998582
1.01079 1.01345 1 0.997374
1.02444 1.02747 1 0.997048
0.998556 1.00004 1.00051 0.998011
1.00693 1.00764 1.00193 0.997367
1.01348 1.01614 1 0.997381
1.0172 1.01982 1 0.997433
1 1 1 1
0.999667 1 1 0.999667
0.998988 1 1.00066 0.99833
1.00074 1 1.00188 0.998867
1.00044 1 1.00216 0.998281
1.02848 1.03153 1 0.997043
1.01933 1.02221 1 0.997182
1.02259 1.02558 1 0.99709
1.00237 1.00262 1.00213 0.997631
1.01786 1.0206 1 0.997309
1.01008 1.01202 1.00096 0.997125
0.999748 1 1 0.999748
0.999359 1 1.00024 0.999119
0.998974 1.00049 1.00048 0.998012
1.00186 1 1.00335 0.998516
0.999735 1 1.00155 0.998186
1.02703 1.02994 1 0.997166
1.01825 1.02113 1 0.997176
1.02085 1.02363 1 0.997282
1.00213 1.00094 1.00379 0.997416
1.00863 1.01166 1 0.997006
0.999793 1 1 0.999793
0.999305 1 1 0.999305
0.99935 1 1 0.99935
0.999124 1 1 0.999124
0.999383 1 1 0.999383
0.999834 1 1 0.999834
0.999829 1 1 0.999829
1 1 1 1
0.999817 1 1 0.999817
1 1 1 1
1 1 1 1
1 1 1 1
1 1 1 1
1 1 1 1
0.999995 1 1 0.999995
0.99996 1 1 0.99996
1 1 1 1
1 1 1 1
0.999901 1 1 0.999901
1 1 1 1
1.02228 1.02523 1 0.99712
1.02343 1.02641 1 0.997103
1.03432 1.03728 1 0.997148
1.03645 1.03979 0.999581 0.997202
1.02126 1.0243 1 0.997032
1.00255 1.00507 1 0.997492
1.02079 1.02384 1 0.997023
1.03596 1.03928 0.999636 0.997171
1.03641 1.03935 1 0.997168
1.03678 1.04096 0.998575 0.997408
1.03175 1.03475 1 0.9971
1.03467 1.03773 0.999593 0.99745
1.03529 1.03856 0.99971 0.997144
1.03601 1.04083 0.998022 0.997345
1.03615 1.03976 0.999059 0.997464
1.03436 1.0405 0.996549 0.997537
1.03164 1.03442 1 0.99732
1.03393 1.03766 0.998759 0.997646
1.02077 1.0238 1 0.997048
1.02181 1.02469 1 0.997188
1.03462 1.03753 0.999995 0.997193
1.0324 1.03536 1 0.997141
0.998978 1 1.00031 0.998666
1.00157 1.00368 1 0.997898
1.00909 1.01166 1.00018 0.997277
1.02709 1.02997 1 0.997197
1.0308 1.03342 1 0.997471
1.02635 1.0291 1 0.997326
1.02237 1.02544 1 0.997006
1.02199 1.02455 1 0.997495
0.999203 1 1.00087 0.998331
1.00015 1 1.00201 0.998148
0.999619 1 1.00025 0.999372
1.00223 1 1.00369 0.998546
1.03547 1.03845 1 0.997131
1.03413 1.03708 1 0.99715
1.03439 1.03835 0.998863 0.997323
1.03295 1.03606 0.99959 0.997415
0.998411 1.00024 1 0.998173
1.00238 1.00481 1.00003 0.997551
1.01391 1.01663 1.00039 0.996934
1.0278 1.03052 1 0.997361
1.02908 1.03188 0.999631 0.997654
1.02184 1.02491 1 0.997007
1.02362 1.02607 1 0.997616
1.02284 1.02534 1 0.997555
0.998189 1.00007 1 0.99812
0.998892 1.00007 1.00067 0.998148
1.0031 1 1.00486 0.998249
0.999489 1 1 0.999489
1.00039 1 1.00167 0.998728
1.03473 1.03995 0.99764 0.997333
1.03425 1.03846 0.998569 0.997375
1.03034 1.03537 0.997492 0.997641
1.0257 1.0288 0.999317 0.997669
0.998816 1.0009 1 0.997919
1.02705 1.02933 1 0.997786
1.00205 1.00452 1.00029 0.997257
1.01231 1.01513 1.00051 0.996716
1.02012 1.0232 1 0.996996
0.999594 1 1 0.999594
0.99931 1 1.00034 0.998969
1.0013 1 1.00284 0.998466
0.998179 1.00011 1 0.998071
1.00289 1 1.00484 0.998054
0.99813 1 1.00006 0.998066
1 1 1 1
0.999675 1 1 0.999675
1.02865 1.03171 1 0.997037
1.001 1 1.00214 0.998867
0.998795 1 1.00046 0.998332
1.00098 1 1.00272 0.99826
1.01947 1.02235 1 0.997181
1.02232 1.02532 1 0.99708
1.00126 1.00134 1.00229 0.997636
1.00893 1.01103 1.00077 0.997143
1.02038 1.02312 1 0.997315
0.999753 1 1 0.999753
0.999272 1 1.00015 0.999123
0.998683 1.00026 1.00041 0.998013
1.00249 1 1.00399 0.998512
0.99976 1 1.00158 0.998184
1.02702 1.02995 1 0.99716
1.01859 1.02149 1 0.997166
1.02058 1.02333 1 0.997308
1.00205 1.00143 1.00324 0.99738
1.00743 1.01042 1.00006 0.996976
0.999274 1 1 0.999274
1.00105 1 1.00234 0.998714
1.00076 1.0009 1.002 0.997873
1.00205 1 1.0038 0.998257
0.999074 1 1.001 0.998081
1.02725 1.02974 0.999981 0.997601
1.01633 1.01931 1 0.997083
1.01723 1.01996 1 0.99733
1.00385 1.00231 1.00433 0.997215
1.00148 1.00471 1 0.996787
0.999796 1 1 0.999796
0.999323 1 1 0.999323
0.999041 1 1 0.999041
0.999328 1 1 0.999328
0.999382 1 1 0.999382
0.999093 1 1 0.999093
0.998953 1 1 0.998953
0.999055 1 1 0.999055
0.999387 1 1 0.999387
0.99983 1 1 0.99983
0.999834 1 1 0.999834
1 1 1 1
0.999831 1 1 0.999831
1 1 1 1
1 1 1 1
1 1 1 1
1 1 1 1
1 1 1 1
1 1 1 1
0.99999 1 1 0.99999
1 1 1 1
0.999948 1 1 0.999948
1 1 1 1
1 1 1 1
1.03229 1.0353 1 0.997094
1.03608 1.03902 1 0.997168
1.03426 1.03761 0.999303 0.997471
1.03624 1.04073 0.99824 0.997439
1.03604 1.0393 0.999704 0.997164
1.02068 1.02373 1 0.997024
1.03573 1.03888 0.999847 0.997125
1.03626 1.04086 0.998237 0.997337
1.03629 1.03968 0.999289 0.997445
1.03367 1.04012 0.996235 0.99755
1.03099 1.03376 1 0.997319
1.03282 1.03683 0.998439 0.997689
1.0357 1.04025 0.998308 0.997318
1.03486 1.04175 0.995843 0.997529
1.03431 1.04086 0.996049 0.997649
1.03114 1.03489 0.99864 0.997731
1.03549 1.03847 1 0.997131
1.03367 1.03665 1 0.99713
1.03427 1.03813 0.998928 0.997353
1.03341 1.03622 0.999884 0.997397
0.998662 1.00049 1 0.998166
1.00214 1.00456 1 0.997598
1.01419 1.01672 1.00058 0.996925
1.02727 1.03003 1 0.997323
1.02855 1.03133 0.999597 0.99771
1.02448 1.02693 1 0.997618
1.02072 1.0238 1 0.996994
1.02413 1.02659 1 0.997604
0.998396 1.00028 1 0.998117
0.998512 1.00014 1.00022 0.998154
1.00449 1 1.00626 0.998242
0.999454 1 1 0.999454
1.00043 1 1.00168 0.998757
1.03524 1.04018 0.997909 0.997335
1.03429 1.03858 0.998491 0.997374
1.03022 1.03482 0.997916 0.99763
0.999583 1.00167 1 0.997912
1.00288 1.00534 1.00026 0.997302
1.01191 1.01448 1.00076 0.996705
1.02631 1.02941 0.999335 0.997657
1.0205 1.02349 1 0.997081
1.02483 1.02728 0.999863 0.99776
0.999612 1 1 0.999612
0.998703 1.00064 1 0.998061
0.998183 1 1.00002 0.998167
1.00316 1 1.00513 0.998038
1.00143 1 1.00295 0.99848
0.99929 1 1.00035 0.99894
1.03346 1.04077 0.995547 0.997419
1.03234 1.04086 0.994241 0.997558
1.02489 1.03274 0.994661 0.997728
1.02877 1.03362 0.997429 0.997871
1.00005 1.00231 1 0.99775
1.02037 1.02301 1 0.997421
1.00286 1.0044 1.00165 0.996827
1.00668 1.00911 1.00104 0.996561
0.999742 1 1 0.999742
0.99916 1 1 0.99916
0.999469 1 1.00081 0.998658
1.00314 1 1.005 0.998148
0.998528 1.00052 1.00007 0.997943
1.00277 1 1.00489 0.997894
0.999758 1 1 0.999758
0.999127 1 1 0.999127
1.0272 1.03014 1 0.997153
1.00274 1 1.00424 0.998508
0.998284 1 1.00027 0.998014
0.999675 1 1.0015 0.998182
1.01922 1.02213 1 0.997155
1.02056 1.02328 1 0.997334
1.00221 1.00214 1.00273 0.997343
1.0063 1.00911 1.00027 0.996947
0.999276 1 1 0.999276
1.00085 1 1.00214 0.998718
1.00039 1.00052 1.00198 0.997886
1.00215 1 1.0039 0.998262
0.998635 1 1.00048 0.99816
1.0277 1.03028 0.999859 0.99764
1.01568 1.01864 1 0.997092
1.0186 1.02125 1 0.997403
1.00326 1.00151 1.00458 0.997178
1.00205 1.0053 1.00003 0.996734
0.998958 1 1 0.998958
1.00195 1 1.00359 0.998368
1.00236 1.00086 1.00378 0.997725
0.999508 1 1.00155 0.997957
1.02933 1.04019 0.991669 0.997873
1.02155 1.02403 0.999872 0.997706
1.00922 1.01239 1 0.996867
1.00356 1.00251 1.00426 0.996809
0.99934 1 1 0.99934
0.999054 1 1 0.999054
0.998925 1 1 0.998925
0.999381 1 1 0.999381
0.999062 1 1 0.999062
0.999386 1 1 0.999386
0.99894 1 1 0.99894
0.999069 1 1 0.999069
0.998869 1 1 0.998869
0.998885 1 1 0.998885
0.99903 1 1 0.99903
0.999372 1 1 0.999372
0.999819 1 1 0.999819
0.999829 1 1 0.999829
1 1 1 1
0.999834 1 1 0.999834
1 1 1 1
1 1 1 1
1 1 1 1
1 1 1 1
1 1 1 1
1 1 1 1
0.999999 1 1 0.999999
1 1 1 1
0.999984 1 1 0.999984
1 1 1 1
1 1 1 1
1.03024 1.03301 1 0.997319
1.03651 1.03968 0.999526 0.997426
1.03174 1.03601 0.99814 0.997731
1.033 1.03976 0.995921 0.997564
1.03649 1.04089 0.998443 0.997329
1.03614 1.03915 1 0.997105
1.03544 1.04018 0.99812 0.997318
1.03436 1.04115 0.995942 0.99752
1.03364 1.04025 0.995984 0.997648
1.03289 1.03647 0.998806 0.997737
1.03455 1.04139 0.995944 0.997472
1.03516 1.04552 0.992379 0.997693
1.03566 1.04357 0.994621 0.997782
1.03571 1.04038 0.998175 0.997338
1.03432 1.03868 0.998424 0.997372
1.03014 1.03423 0.998429 0.997619
1.00035 1.00245 1 0.997905
1.00373 1.00622 1.00018 0.997346
1.01117 1.01367 1.00085 0.996693
1.02691 1.02999 0.999366 0.997646
1.02249 1.02502 0.999799 0.997734
1.02071 1.02361 1 0.997166
0.999157 1.00111 1 0.998051
0.998267 1 1 0.998267
1.00324 1 1.00523 0.998022
0.99963 1 1 0.99963
1.00094 1 1.00245 0.998495
0.999224 1 1.00031 0.998911
1.03418 1.04107 0.99594 0.997427
1.03232 1.04099 0.994093 0.997566
1.02524 1.03243 0.995304 0.997721
1.00009 1.00235 1 0.997739
1.00237 1.00407 1.0014 0.996911
1.00625 1.00876 1.0009 0.996613
1.02884 1.03339 0.997715 0.997878
1.02048 1.02323 0.999902 0.997406
0.999787 1 1 0.999787
0.99916 1 1 0.99916
0.998273 1.00029 1 0.997985
1.00432 1.00006 1.00628 0.997992
1.00319 1 1.00502 0.998175
0.999415 1 1.00078 0.998634
1.03337 1.0435 0.992657 0.997613
1.0248 1.03856 0.989038 0.997691
1.02368 1.03311 0.992945 0.997919
1.0208 1.02616 0.996875 0.997899
1.00083 1.0025 1.00088 0.997447
1.0057 1.00757 1.0014 0.996749
1.00288 1.00362 1.00264 0.996625
0.999891 1 1 0.999891
0.999493 1 1 0.999493
0.999277 1 1 0.999277
0.998799 1 1.00002 0.998781
1.00028 1 1.00192 0.998363
1.00485 1 1.00683 0.998042
0.998021 1 1 0.998021
1.02162 1 1.0235 0.998164
0.999279 1 1 0.999279
1.00087 1 1.00215 0.998722
1.02807 1.03074 0.999736 0.997678
1.00259 1 1.00433 0.998268
1.00019 1.00014 1.00215 0.997899
0.998275 1 1.00004 0.998239
1.01469 1.01764 1 0.997101
1.01977 1.02235 1 0.997476
1.00282 1.00087 1.00482 0.997141
1.00275 1.00609 1 0.996681
0.998972 1 1.00004 0.998935
1.00202 1 1.00365 0.998382
1.0026 1.0007 1.00415 0.997752
0.999363 1 1.00138 0.99799
1.03078 1.04113 0.99215 0.997889
1.02138 1.02382 0.999949 0.997664
1.01029 1.01342 1 0.996908
1.00407 1.00354 1.00377 0.996762
0.999311 1 1.00057 0.998738
1.02822 1.04382 0.987136 0.997892
1.00115 1 1.00306 0.998097
1.00154 1.0014 1.00268 0.997473
1.02888 1.03357 0.997476 0.997977
1.01041 1.01345 1 0.997003
1.00497 1.00515 1.00323 0.996605
0.999067 1 1 0.999067
0.99892 1 1 0.99892
0.998853 1 1 0.998853
0.999385 1 1 0.999385
0.999082 1 1 0.999082
0.998927 1 1 0.998927
0.999369 1 1 0.999369
0.999034 1 1 0.999034
0.99886 1 1 0.99886
0.998906 1 1 0.998906
0.998827 1 1 0.998827
0.998808 1 1 0.998808
0.998844 1 1 0.998844
0.999005 1 1 0.999005
0.999335 1 1 0.999335
0.999804 1 1 0.999804
0.999817 1 1 0.999817
1 1 1 1
0.999828 1 1 0.999828
1 1 1 1
1 1 1 1
1 1 1 1
1 1 1 1
1 1 1 1
0.999919 1 1 0.999919
1 1 1 1
1 1 1 1
1 1 1 1
0.999999 1 1 0.999999
1 1 1 1
1 1 1 1
1.03468 1.03809 0.998972 0.997744
1.03292 1.03957 0.995943 0.997648
1.03385 1.04054 0.996042 0.997511
1.03515 1.0401 0.997917 0.997318
1.03409 1.04131 0.995558 0.997491
1.03529 1.04527 0.992751 0.997682
1.03492 1.04315 0.994315 0.997792
1.03497 1.04561 0.992139 0.997669
1.04005 1.05149 0.991305 0.997801
1.02521 1.04295 0.984929 0.998032
1.03491 1.04139 0.996334 0.997434
1.03225 1.04117 0.993842 0.997574
1.0254 1.0321 0.99578 0.997713
1.00023 1.00245 1.00006 0.997728
1.00189 1.00365 1.00126 0.996996
1.00622 1.00881 1.00078 0.996664
1.02905 1.03331 0.997992 0.997886
1.02045 1.02336 0.999768 0.997392
0.998028 1 1 0.998028
1.00604 1.00023 1.00773 0.998089
1.00394 1 1.00574 0.998203
0.999832 1 1 0.999832
0.99916 1 1 0.99916
0.999622 1 1.00101 0.99861
1.0334 1.04385 0.992349 0.997625
0.999887 1 1 0.999887
0.999468 1 1 0.999468
1.0244 1.03773 0.989437 0.997692
1.02361 1.03339 0.992631 0.997887
1.00007 1.0016 1.00094 0.997537
1.00328 1.00338 1.0033 0.996605
1.00629 1.00873 1.00084 0.996747
1.01968 1.0252 0.99673 0.99788
0.999343 1 1 0.999343
0.998804 1 1.00003 0.998776
0.998355 1.00014 1.00028 0.997938
1.01681 1 1.01855 0.998292
1.004 1 1.00597 0.998044
1.00078 1 1.0024 0.99838
1.039 1.05044 0.991331 0.997761
1.01138 1.03603 0.978331 0.997831
1.01886 1.03005 0.991032 0.998088
1.0045 1.01073 0.996223 0.997597
1.00138 1.00098 1.00285 0.997554
1.00379 1.00183 1.00547 0.996509
0.999472 1 1 0.999472
0.99944 1 1 0.99944
0.999192 1 1 0.999192
0.998848 1 1 0.998848
0.999006 1 1.00044 0.998562
1.0003 1 1.0022 0.998105
1.02981 1 1.03184 0.998027
1.00125 1 1.00293 0.998314
0.999025 1 1.00011 0.998912
1.00176 1 1.00337 0.998398
1.03179 1.04148 0.992771 0.997905
1.02128 1.02372 1 0.997623
0.999164 1 1.00114 0.998022
1.00266 1.00048 1.00441 0.997779
1.01167 1.01473 1.00004 0.996948
1.00439 1.00433 1.00335 0.996714
0.999395 1 1.00067 0.998728
1.02962 1.04592 0.986455 0.997928
1.00108 1 1.00297 0.998115
1.00115 1.00104 1.00269 0.997431
1.0275 1.03288 0.996839 0.997951
1.01059 1.01356 1 0.997065
1.00506 1.00497 1.00348 0.996619
1.00047 1 1.00204 0.998435
1.01821 1.03371 0.986671 0.998313
1.00095 1.00123 1.00185 0.997867
1.00277 1.00188 1.00379 0.997116
1.01384 1.0199 0.996455 0.997594
1.0023 1.00332 1.00221 0.996773
0.998593 1.00641 0.994001 0.998222
0.998914 1 1 0.998914
0.99898 1 1.00013 0.99885
0.99884 1 1.0001 0.998737
0.999367 1 1 0.999367
0.999037 1 1 0.999037
0.998928 1 1 0.998928
0.99885 1 1 0.99885
0.999334 1 1 0.999334
0.998995 1 1 0.998995
0.998804 1 1 0.998804
0.998845 1 1 0.998844
0.998816 1 1 0.998816
0.998781 1 1 0.998781
0.998906 1 1.00021 0.9987
0.998835 1 1.00001 0.998829
0.99892 1 1 0.99892
0.99925 1 1 0.99925
0.999062 1 1 0.999062
0.999238 1 1 0.999238
0.999794 1 1 0.999794
0.999802 1 1 0.999802
1 1 1 1
0.999816 1 1 0.999816
1 1 1 1
1 1 1 1
1 1 1 1
1 1 1 1
1 1 1 1
0.999937 1 1 0.999937
0.999917 1 1 0.999917
1 1 1 1
1 1 1 1
1 1 1 1
1 1 1 1
1 1 1 1
1 1 1 1
1.03431 1.04291 0.993934 0.997803
1.03537 1.04504 0.993062 0.997672
1.03363 1.04124 0.995174 0.99751
1.03488 1.04545 0.992212 0.997667
1.03827 1.04964 0.991349 0.997798
1.02598 1.04252 0.986118 0.997987
1.03961 1.05349 0.988937 0.997864
0.987884 1.01597 0.975155 0.997131
1.00836 1.03089 0.97952 0.9986
0.999562 1 1 0.999562
1.03341 1.04413 0.992078 0.997637
1.02439 1.03699 0.990133 0.997692
1.0237 1.03372 0.992434 0.997856
0.999442 1.001 1.00082 0.997627
1.00349 1.00289 1.00402 0.996586
1.00685 1.00968 1.00045 0.996746
1.01836 1.02402 0.996606 0.99786
0.998009 1.00015 1 0.997857
1.01185 1 1.01345 0.998421
1.00288 1 1.00484 0.998046
0.999882 1 1 0.999882
1.00105 1 1.00266 0.998397
0.99941 1 1 0.99941
0.998772 1 1 0.998772
0.999444 1 1 0.999444
1.03712 1.05076 0.989226 0.997768
0.999505 1 1 0.999505
0.999439 1 1 0.999439
0.999152 1 1 0.999152
1.01358 1.03563 0.980826 0.997832
1.01903 1.03039 0.990913 0.998043
1.00036 1.00089 1.0019 0.997576
1.00385 1.00173 1.00556 0.99658
1.00361 1.00906 0.997008 0.997589
0.998887 1 1 0.998887
0.99908 1 1.00055 0.998528
1.00535 1 1.00713 0.998233
1.02414 1 1.02613 0.998065
1.00011 1 1.00198 0.998137
1.0268 1.04316 0.986434 0.997854
1.00786 1.03616 0.974674 0.997956
1.01145 1.0191 0.994704 0.997785
0.998297 1.00398 0.99695 0.997382
1.00319 1 1.00535 0.997846
0.999104 1 1 0.999104
0.999007 1 1 0.999007
0.998888 1 1 0.998888
0.998872 1 1.00024 0.998631
0.999965 1 1.00161 0.99836
1.02068 1 1.02264 0.998075
1.0211 1 1.02312 0.998025
0.999416 1 1.0007 0.998718
1.00097 1 1.00285 0.998134
1.03047 1.04852 0.984787 0.997964
1.02616 1.03238 0.996049 0.997924
1.01039 1.01331 1 0.997126
1.00084 1.00078 1.00268 0.99739
1.00489 1.00466 1.0036 0.996635
1.00037 1 1.0019 0.998475
1.01596 1.03348 0.984686 0.998332
1 1.00077 1.00135 0.99789
1.0024 1.00121 1.00408 0.997124
1.01458 1.02034 0.996662 0.997687
1.00223 1.00276 1.00272 0.996759
0.997773 1.00623 0.994011 0.997567
1.00013 1 1.00184 0.998295
1.00699 1.01966 0.98925 0.998304
1.00032 1.0005 1.00194 0.997877
1.00431 1.00072 1.00641 0.997197
0.996748 1.0058 0.993615 0.997368
0.946236 0.982848 0.979305 0.983094
0.958236 0.982294 0.98379 0.991581
0.984453 0.99492 0.991217 0.998247
0.820143 0.881866 0.954543 0.974298
0.764786 0.870626 0.90713 0.968365
0.998955 1 1.00011 0.998847
0.999097 1 1.00034 0.998762
0.998755 1 1 0.998755
0.999334 1 1 0.999334
0.998984 1 1 0.998984
0.998844 1 1 0.998844
0.998823 1 1 0.998823
0.99878 1 1 0.99878
0.999057 1 1.00025 0.998806
0.999276 1 1 0.999276
0.998936 1 1 0.998936
0.998774 1 1 0.998774
0.999145 1 1.00043 0.998713
0.999674 1 1.00095 0.998721
0.999873 1 1.00115 0.998723
0.998978 1 1.00024 0.998739
0.998891 1 1 0.998891
0.999231 1 1 0.999231
0.998962 1 1 0.998962
0.998892 1 1 0.998892
0.999051 1 1 0.999051
0.999029 1 1 0.999029
0.999319 1 1 0.999319
0.999236 1 1 0.999236
0.999789 1 1 0.999789
0.999794 1 1 0.999794
1 1 1 1
0.999801 1 1 0.999801
1 1 1 1
1 1 1 1
1 1 1 1
1 1 1 1
1 1 1 1
0.999949 1 1 0.999949
0.999934 1 1 0.999934
1 1 1 1
0.999914 1 1 0.999914
1 1 1 1
1 1 1 1
1 1 1 1
1 1 1 1
1 1 1 1
1.03633 1.04766 0.991372 0.997795
1.03484 1.04531 0.992303 0.997665
1.02712 1.04218 0.987584 0.997943
0.992071 1.01582 0.979376 0.997186
1.03715 1.0512 0.988749 0.997862
1.01605 1.03347 0.984627 0.998499
1.03193 1.04034 0.993958 0.997947
0.95072 0.983606 0.975595 0.990745
1.00053 1.01935 0.983786 0.997713
0.999568 1 1 0.999568
0.99956 1 1 0.99956
0.999202 1 1 0.999202
0.999239 1 1 0.999239
1.03534 1.05096 0.987328 0.997776
1.01491 1.03472 0.982983 0.997833
1.01897 1.03052 0.990782 0.997997
0.999252 1.00068 1.00098 0.997598
1.00377 1.00178 1.00536 0.99665
1.00284 1.00785 0.997448 0.997581
1.00973 1 1.0116 0.998151
1.01863 1 1.02057 0.998103
0.999796 1 1.00163 0.998168
0.999438 1 1 0.999438
0.998976 1 1.00048 0.998494
0.998926 1 1 0.998926
0.999539 1 1 0.999539
0.999112 1 1 0.999112
1.02447 1.04273 0.984589 0.997869
0.99915 1 1 0.99915
0.999048 1 1 0.999048
0.99895 1 1 0.99895
1.01094 1.03834 0.975605 0.997956
1.01013 1.01839 0.994095 0.997783
1.0028 1.00004 1.00495 0.99783
0.99921 1.00438 0.997426 0.997419
0.999047 1 1.00043 0.998617
0.999506 1 1.00119 0.998314
1.02328 1 1.02531 0.998017
1.02165 1 1.02366 0.998041
1.00512 1.03482 0.973267 0.997982
1.00179 1.02693 0.977555 0.997915
1.00408 1.008 0.998627 0.997483
0.993579 1.00034 0.995124 0.998113
0.998774 1 1 0.998774
0.999347 1 1.00063 0.99872
1.00691 1 1.00847 0.998454
1.0364 1 1.03856 0.997923
0.923445 0.971985 0.967719 0.981754
1.00065 1 1.00214 0.998515
0.999284 1.00028 1.00109 0.997912
1.0145 1.03309 0.983629 0.998351
1.01555 1.021 0.996878 0.99778
1.00253 1.0025 1.0033 0.996745
1.00213 1.00054 1.00447 0.99713
0.997877 1.00608 0.994931 0.996898
1.00019 1 1.00185 0.998334
1.00781 1.02017 0.989574 0.998293
0.999807 1.00048 1.00144 0.997889
1.00398 1.00069 1.00611 0.997195
0.999131 1.0068 0.994977 0.997389
0.944991 0.986492 0.975621 0.981868
0.953623 0.979925 0.983516 0.98947
0.984448 0.993016 0.993093 0.998267
0.820626 0.880029 0.956877 0.974523
0.749203 0.859443 0.902693 0.965701
0.999531 1 1.00101 0.998524
0.846553 0.90298 0.960985 0.975573
0.807851 0.875136 0.95182 0.969841
0.987102 1.00713 0.981895 0.998181
1.00529 1.00064 1.00658 0.998087
1.0119 1.00388 1.01044 0.997571
0.975814 0.98891 0.988314 0.998425
0.940794 0.971246 0.986575 0.981828
0.936635 0.958119 0.988952 0.988498
0.797838 0.881052 0.928537 0.975245
0.825012 0.916145 0.928522 0.969848
0.99954 1 1.00075 0.998787
0.999374 1 1.00063 0.998741
1.00012 1 1.00115 0.998966
0.999303 1 1 0.999303
0.998952 1 1 0.998952
0.99926 1 1.00048 0.998783
0.999352 1 1.00063 0.998726
0.998767 1 1 0.998767
0.999232 1 1 0.999232
0.999623 1 1.00091 0.998714
0.999243 1 1.00049 0.998757
0.998918 1 1 0.998918
0.999664 1 1.00094 0.998728
1.0005 1 1.0018 0.998706
1.00109 1 1.00232 0.998772
0.998723 1 1 0.998723
0.998924 1 1 0.998924
0.998959 1 1 0.998959
0.998882 1 1 0.998882
0.998791 1 1 0.998791
0.998889 1 1.00001 0.998883
0.998932 1 1.0001 0.998836
0.99903 1 1.00031 0.998719
0.999027 1 1 0.999027
0.999051 1 1 0.999051
0.999341 1 1 0.999341
0.998996 1 1 0.998996
0.999296 1 1 0.999296
0.999785 1 1 0.999785
0.999234 1 1 0.999234
0.99979 1 1 0.99979
1 1 1 1
0.999793 1 1 0.999793
1 1 1 1
1 1 1 1
1 1 1 1
1 1 1 1
1 1 1 1
0.999539 1 1 0.999539
0.999948 1 1 0.999948
0.999946 1 1 0.999946
1 1 1 1
0.999931 1 1 0.999931
1 1 1 1
1 1 1 1
1 1 1 1
1 1 1 1
1 1 1 1
0.994957 1.01579 0.982195 0.997245
1.0353 1.04887 0.989181 0.99786
1.02132 1.03608 0.987342 0.998396
0.94523 0.977851 0.974709 0.991722
1.00062 1.01907 0.984033 0.997829
1.0334 1.04347 0.992429 0.997905
1.01517 1.02516 0.992587 0.99765
0.958625 0.979615 0.985849 0.992619
0.946624 0.98088 0.983384 0.981383
0.804617 0.876029 0.942441 0.974577
0.743145 0.840527 0.913584 0.967774
0.999193 1 1 0.999193
0.999567 1 1 0.999567
0.999559 1 1 0.999559
0.99919 1 1 0.99919
0.998966 1 1 0.998966
0.999 1 1 0.999
0.999169 1 1 0.999169
0.999212 1 1 0.999212
1.02202 1.04274 0.98221 0.997883
1.01498 1.04157 0.97647 0.997955
1.00911 1.01771 0.993753 0.997782
1.00287 1.00013 1.00493 0.997816
1.0002 1.00445 0.998315 0.997456
1.02523 1 1.02727 0.998009
1.02314 1 1.02518 0.998006
0.999296 1 1.00103 0.998268
0.999089 1 1 0.999089
0.998953 1 1.00035 0.998602
0.999196 1 1 0.999196
0.999011 1 1 0.999011
1.00585 1.03528 0.973546 0.997974
0.998802 1 1 0.998802
0.998967 1 1.00022 0.998747
1.00211 1.02634 0.978458 0.997893
1.00172 1.00753 0.996625 0.997598
0.995768 1.00071 0.997024 0.998028
1.00985 1 1.01149 0.998374
1.03265 1 1.03478 0.997938
1.00008 1.02668 0.976077 0.997967
0.985791 1.00805 0.979922 0.997952
0.989303 1.0008 0.990518 0.997973
1.00072 1.00025 1.00229 0.998193
0.999152 1 1.00061 0.998545
1.00333 1 1.00484 0.998498
1.03099 1 1.03288 0.998175
0.835921 0.909436 0.941413 0.976366
0.938845 0.976905 0.976778 0.983888
0.99977 1 1.0014 0.998373
0.999404 1.00044 1.00107 0.997902
1.00891 1.02096 0.989892 0.998283
1.00135 1.00776 0.996216 0.99741
1.00357 1.00068 1.00571 0.997195
0.940825 0.977766 0.980248 0.981607
0.958516 0.985864 0.981974 0.990107
0.985378 0.991744 0.995293 0.99828
0.817448 0.881506 0.950551 0.975573
0.736286 0.848387 0.901226 0.962982
0.999519 1 1.001 0.998524
0.841254 0.906934 0.950372 0.976019
0.80049 0.868264 0.951855 0.968575
0.988703 1.00796 0.982689 0.998176
1.00499 1.00067 1.00622 0.998112
1.01007 1.00222 1.01014 0.99772
0.967662 0.98289 0.985948 0.998539
0.946049 0.98001 0.984821 0.980225
0.938239 0.962615 0.983992 0.990534
0.801287 0.875988 0.939356 0.973777
0.822126 0.918482 0.923663 0.969067
1.00105 1 1.00222 0.998825
0.836645 0.885439 0.97258 0.971533
0.907787 0.948046 0.979789 0.977286
0.989613 0.999618 0.991246 0.998734
1.01316 1.00233 1.01212 0.998708
0.979009 0.972885 1.00772 0.998587
0.922349 0.945748 0.983538 0.991582
0.9252 0.950626 0.993399 0.979721
0.813717 0.885529 0.943125 0.974319
0.854567 0.943252 0.931535 0.972567
0.999915 1 1.00119 0.998727
0.999753 1 1.00081 0.998939
1.00362 1 1.00447 0.999151
0.999233 1 1 0.999233
0.998945 1 1 0.998945
0.999528 1 1.00075 0.998774
0.999652 1 1.00095 0.998708
0.999451 1 1.00072 0.998733
0.998922 1 1 0.998922
0.999825 1 1.00112 0.998706
0.998724 1 1 0.998724
1.00231 1 1.00351 0.998807
1.01621 0.999905 1.01718 0.999135
0.999742 1 1.00105 0.998689
0.998692 1 1 0.998692
0.998956 1 1 0.998956
0.998873 1 1 0.998873
0.998787 1 1 0.998787
0.998878 1 1 0.998878
0.998958 1 1.0001 0.998863
0.999141 1 1.00032 0.998822
0.998912 1 1.00014 0.998769
0.998944 1 1.00009 0.998853
0.998751 1 1.00013 0.998625
0.999097 1 1.00093 0.99817
0.999027 1 1.00043 0.998597
0.999009 1 1.00029 0.998716
0.999079 1 1.00012 0.99896
0.999064 1 1.00004 0.999025
0.999335 1 1 0.999335
0.99905 1 1 0.99905
0.999342 1 1 0.999342
0.999784 1 1 0.999784
0.999273 1 1 0.999273
0.999786 1 1 0.999786
1 1 1 1
0.99979 1 1 0.99979
1 1 1 1
1 1 1 1
1 1 1 1
1 1 1 1
1 1 1 1
0.999556 1 1 0.999556
0.999936 1 1 0.999936
0.999539 1 1 0.999539
1 1 1 1
0.999949 1 1 0.999949
0.999944 1 1 0.999944
1 1 1 1
1 1 1 1
1 1 1 1
1 1 1 1
1 1 1 1
0.837241 0.897157 0.957263 0.974879
0.808864 0.875785 0.951919 0.970237
0.947803 0.981804 0.972942 0.992215
1.00251 1.01871 0.986125 0.997947
1.03616 1.04651 0.992227 0.997863
0.946222 0.968399 0.983039 0.993958
1.01435 1.02458 0.992262 0.997731
0.952853 0.988158 0.981269 0.982679
0.815953 0.881494 0.950064 0.974301
0.736618 0.842729 0.905732 0.965062
0.975263 0.997124 0.982478 0.99552
0.944094 0.974046 0.986685 0.98233
0.791681 0.877115 0.926047 0.974677
0.812619 0.906837 0.92532 0.968425
0.998925 1 1.00006 0.998861
0.999217 1 1 0.999217
0.999566 1 1 0.999566
0.999177 1 1 0.999177
0.999005 1 1 0.999005
0.99923 1 1.00036 0.99887
0.998994 1 1 0.998994
0.99898 1 1 0.99898
0.999139 1 1 0.999139
0.999185 1 1 0.999185
1.00696 1.03519 0.974706 0.997968
1.0009 1.02448 0.979059 0.997872
0.999431 1.00739 0.994376 0.997714
0.997528 1.00097 0.998612 0.997942
1.02802 1 1.03013 0.997953
1.0134 1 1.01513 0.998294
0.998773 1 1 0.998773
0.998829 1 1 0.998829
0.999655 1.02696 0.975368 0.997994
0.999789 1 1.00127 0.998525
1.00341 1 1.00496 0.998464
0.985549 1.00655 0.98123 0.997871
0.98809 1.00043 0.989564 0.998082
1.00177 1.00084 1.00284 0.998097
1.02766 1 1.02957 0.998147
0.995037 1.00433 0.992437 0.998292
0.98263 1 0.983916 0.998693
1.01371 1.00043 1.01503 0.998281
1.00291 1 1.00442 0.998499
1.00216 1 1.00381 0.998359
1.0175 1 1.01926 0.998267
0.850269 0.895811 0.973028 0.975471
0.845689 0.908559 0.953497 0.976198
0.929294 0.975483 0.970307 0.981803
0.999447 1 1.00093 0.998523
1.00474 1.00066 1.00596 0.998136
0.991145 1.00862 0.984474 0.998172
1.00867 1.00065 1.01016 0.997867
0.833383 0.901295 0.947238 0.976154
0.94574 0.977682 0.98499 0.98207
0.929552 0.959746 0.979722 0.988586
0.963273 0.978125 0.986144 0.998652
0.801454 0.876151 0.939976 0.973157
0.802637 0.872947 0.949193 0.968673
0.810013 0.909517 0.918445 0.96968
1.00174 1 1.00291 0.99883
0.837846 0.888898 0.968973 0.972749
0.914993 0.9538 0.981736 0.977161
0.991556 0.999942 0.992783 0.998822
1.01297 1.00094 1.01336 0.998681
0.976091 0.971708 1.00584 0.998674
0.92194 0.948461 0.982246 0.989607
0.927919 0.954854 0.990399 0.981211
0.829598 0.901905 0.944329 0.974055
0.842151 0.932122 0.928389 0.973167
1.00452 0.999757 1.00532 0.999449
0.916574 0.9545 0.978728 0.981137
0.893806 0.942301 0.966706 0.981204
0.999258 0.98542 1.01433 0.999715
0.942151 0.947041 1.00029 0.994543
0.932897 0.948504 1.00326 0.980348
0.866876 0.921497 0.966206 0.973628
0.864933 0.958926 0.927685 0.972291
0.999555 1 1.00064 0.998913
1.00263 1 1.00348 0.999153
1.01693 1 1.01757 0.999367
0.998921 1 1 0.998921
0.998726 1 1 0.998726
0.999066 1 1.00036 0.998705
1.00318 1 1.00435 0.998842
0.99869 1 1 0.99869
1.00011 1 1.00143 0.998682
1.0185 1 1.01932 0.999194
1.02921 0.997288 1.03258 0.999446
1.01714 1 1.01808 0.999073
0.998663 1 1 0.998663
0.998783 1 1 0.998783
0.998872 1 1 0.998872
0.998889 1 1 0.998889
0.998818 1 1.00004 0.998783
0.999059 1 1.00024 0.998822
0.999156 1 1.00029 0.998862
0.998968 1 1.0002 0.998766
1.00148 1 1.00244 0.999039
0.99868 1 1 0.99868
0.998826 1 1.00017 0.998653
0.999023 1 1.00069 0.998329
0.99918 1 1.00153 0.997658
0.999916 1 1.00141 0.998505
0.999071 1 1.00079 0.99828
0.998994 1 1.00037 0.998628
0.999262 1 1.00044 0.998823
0.999011 1 1.0003 0.998713
0.999008 1 1.00005 0.998958
0.999285 1 1 0.999285
0.999061 1 1.00004 0.999023
0.999334 1 1 0.999334
0.99978 1 1 0.99978
0.999342 1 1 0.999342
0.999784 1 1 0.999784
1 1 1 1
0.999787 1 1 0.999787
1 1 1 1
1 1 1 1
1 1 1 1
1 1 1 1
1 1 1 1
0.999397 1 1 0.999397
0.999915 1 1 0.999915
0.999499 1 1 0.999499
1 1 1 1
0.999939 1 1 0.999939
0.99954 1 1 0.99954
1 1 1 1
1 1 1 1
0.99995 1 1 0.99995
1 1 1 1
1 1 1 1
1 1 1 1
0.836859 0.887511 0.968507 0.973589
0.841935 0.904542 0.954511 0.975144
0.913329 0.954628 0.979304 0.976957
0.800827 0.869432 0.950303 0.969261
0.944301 0.973974 0.977462 0.991889
1.01176 1.02403 0.990185 0.997816
0.959205 0.988176 0.98659 0.983877
0.819722 0.885136 0.949999 0.97484
0.734726 0.848241 0.900095 0.962316
0.972656 0.993925 0.983743 0.994772
0.941638 0.974315 0.986298 0.979887
0.804792 0.885188 0.934061 0.973358
0.813861 0.910207 0.924463 0.96721
0.953997 0.981767 0.978162 0.993409
0.936929 0.955478 1.00123 0.979386
0.830284 0.906815 0.940881 0.973135
0.848939 0.943119 0.927422 0.970583
0.999573 1 1.00091 0.998668
0.998896 1 1 0.998896
0.999241 1 1 0.999241
0.999044 1 1 0.999044
0.998688 1 1.00005 0.998643
0.998921 1 1.00002 0.998898
0.998988 1 1 0.998988
0.998946 1 1 0.998946
0.999011 1 1 0.999011
0.999108 1 1 0.999108
1.00074 1.02821 0.975219 0.99802
0.987301 1.00597 0.983615 0.997792
0.987035 1.00025 0.988576 0.998189
1.00383 1.00162 1.00422 0.998003
1.02342 1 1.02534 0.998119
1.00285 1 1.00442 0.998431
1.00015 1 1.00165 0.998505
1.002 1 1.00352 0.998483
0.99125 1.00508 0.987913 0.998301
1.00156 1 1.0032 0.998362
1.01694 1 1.01872 0.99826
0.981873 1.00033 0.982903 0.998623
1.01321 1.0011 1.01387 0.998251
0.964151 0.988989 0.976079 0.998777
0.999468 0.996839 1.00339 0.999248
1.02739 1 1.02894 0.998499
1.00087 1 1.0025 0.998373
1.00851 1 1.01025 0.998276
0.92083 0.953578 0.982204 0.983155
0.854387 0.895705 0.977952 0.975376
0.836262 0.903299 0.948772 0.975773
1.00235 1 1.00352 0.998834
1.01263 0.999563 1.01444 0.998654
0.991073 0.999712 0.992444 0.998906
0.845535 0.894102 0.971346 0.973578
0.937217 0.954175 1.00279 0.979492
0.922504 0.947422 0.982597 0.990944
0.96563 0.967178 0.999663 0.998735
0.830073 0.901354 0.945085 0.974428
0.920635 0.957742 0.983835 0.977049
0.844196 0.933961 0.928718 0.973264
1.00364 0.999282 1.00494 0.999421
0.913069 0.952517 0.976019 0.982138
0.895559 0.943873 0.966979 0.981213
1.00123 0.988302 1.01352 0.999566
0.949704 0.952969 1.00241 0.994179
0.917909 0.944184 0.993345 0.978684
0.867724 0.960344 0.928461 0.973174
0.871104 0.924134 0.967912 0.973866
1.00437 0.990717 1.01408 0.999711
0.894598 0.938106 0.965494 0.987702
0.90767 0.957587 0.965133 0.982116
0.850124 0.943488 0.928256 0.970685
0.983231 0.970352 1.01474 0.998553
0.954266 0.960839 1.01219 0.981202
0.889231 0.93216 0.979014 0.974396
1.00229 1 1.00314 0.999155
1.01664 1 1.01736 0.999293
1.01849 0.993952 1.02514 0.999566
0.998688 1 1 0.998688
1.0004 1 1.00172 0.998676
1.02226 1 1.02302 0.999253
0.998673 1 1 0.998673
1.01608 1 1.01702 0.999084
1.03161 0.997425 1.03487 0.999421
1.01735 0.996422 1.02153 0.999489
1.01156 1 1.0125 0.999072
0.998796 1 1 0.998796
0.998953 1 1.00013 0.998822
0.999402 1 1.00053 0.998871
1.00084 1 1.00182 0.999018
0.998984 1 1.00021 0.998772
1.00052 1 1.00157 0.998958
0.998855 1 1 0.998855
1.00081 1 1.00274 0.998075
0.998904 1 1.00022 0.998683
0.998873 1.00003 1.00057 0.998279
0.998483 1 1.00101 0.997473
1.00022 1.00139 1.00129 0.997549
1.00051 1 1.00225 0.998266
0.999065 1 1.00138 0.997686
1.00055 1 1.00187 0.998679
1.00015 1 1.00168 0.998477
0.999034 1 1.00065 0.99839
0.99896 1 1.0003 0.998659
0.999179 1 1.00032 0.998856
0.999204 1 1 0.999204
0.998966 1 1.00001 0.998957
0.999285 1 1 0.999285
0.999757 1 1 0.999757
0.999332 1 1 0.999332
0.999778 1 1 0.999778
1 1 1 1
0.999784 1 1 0.999784
1 1 1 1
1 1 1 1
1 1 1 1
1 1 1 1
1 1 1 1
0.999219 1 1 0.999219
0.999784 1 1 0.999784
0.999396 1 1 0.999396
1 1 1 1
0.999878 1 1 0.999878
0.999442 1 1 0.999442
1 1 1 1
1 1 1 1
0.999943 1 1 0.999943
1 1 1 1
1 1 1 1
1 1 1 1
0.909238 0.951582 0.973103 0.981911
0.828086 0.885824 0.959807 0.973967
0.840882 0.900886 0.957376 0.97495
0.998837 1 1 0.998837
0.89699 0.939401 0.971847 0.982514
0.912628 0.95455 0.978722 0.976868
0.798298 0.872577 0.943448 0.969713
0.977349 0.995667 0.987682 0.993844
0.941916 0.971595 0.987269 0.981955
0.811178 0.897211 0.929476 0.972709
0.80804 0.901879 0.926065 0.967482
0.954221 0.980964 0.981588 0.990984
0.924578 0.950648 0.99126 0.981153
0.840867 0.910529 0.948879 0.973246
0.846808 0.938266 0.929909 0.970551
0.929008 0.955682 0.983021 0.988879
0.930702 0.943699 1.00732 0.979064
0.879458 0.932439 0.968594 0.973761
0.865208 0.957643 0.929244 0.972269
0.999575 1 1.0011 0.998474
1.00005 1 1.00141 0.998638
0.998932 1 1 0.998932
0.998649 1 1 0.998649
0.998869 1 1.00018 0.998689
0.998926 1 1 0.998926
0.998954 1 1 0.998954
0.999042 1 1 0.999042
0.9853 1.00531 0.981754 0.998308
0.979913 1.00015 0.981183 0.998554
1.00129 1 1.00283 0.998466
1.01321 1.00178 1.01321 0.998219
1.01824 1 1.02002 0.998252
1.00144 1 1.00308 0.998365
1.00117 1 1.00279 0.998381
0.969718 0.991018 0.979656 0.998827
1.00999 1 1.0117 0.998309
1.02255 1.00027 1.0238 0.998508
0.994341 0.996906 0.998137 0.999288
1.00022 1 1.0018 0.998427
0.960627 0.979827 0.981412 0.998973
1.00622 0.993194 1.01367 0.999454
1.04078 0.999851 1.0424 0.998594
1.00218 1 1.00374 0.998441
0.907083 0.941271 0.974352 0.989047
0.920257 0.952997 0.98208 0.983265
0.859836 0.895711 0.984277 0.975282
1.00216 0.998747 1.00402 0.999396
1.00493 0.991495 1.01414 0.999421
0.910823 0.951568 0.973608 0.983128
0.940817 0.947457 1.01231 0.980914
0.943191 0.95148 0.999746 0.99154
0.874854 0.927815 0.969182 0.972902
0.896626 0.944855 0.96712 0.981218
0.871529 0.962658 0.929451 0.974055
1.00635 0.993878 1.01289 0.999669
0.895706 0.93876 0.966026 0.987694
0.905595 0.955562 0.963555 0.983554
0.992488 0.977075 1.01607 0.999713
0.847299 0.938596 0.930068 0.970607
0.93897 0.949465 1.009 0.980126
0.89919 0.944095 0.978051 0.97381
1.00653 0.988996 1.01796 0.999771
0.911071 0.953845 0.965823 0.988955
0.896828 0.939432 0.971548 0.982607
0.811664 0.907139 0.923815 0.96854
0.879015 0.933464 0.9674 0.973403
0.966206 0.963714 1.00538 0.997222
0.956854 0.954677 1.02512 0.977723
1.01398 1 1.01477 0.999219
1.01825 0.993561 1.02533 0.999535
1.00467 0.982415 1.02308 0.999582
0.998684 1 1 0.998684
1.01498 1 1.0159 0.999094
1.03237 0.998327 1.03473 0.999396
1.00789 1 1.00884 0.999056
1.01734 0.997203 1.02072 0.999488
1.00977 0.995975 1.01462 0.999243
1.00002 1 1.00103 0.998996
0.998951 1 1.00017 0.998778
1.00168 1 1.00275 0.998933
1.00645 1 1.00808 0.998382
0.999028 1 1 0.999028
1.00029 1 1.00209 0.998202
1.0016 1.00013 1.00413 0.997352
1.00177 1.00295 1.00188 0.996953
0.998723 1.00009 1.0004 0.998228
0.998843 1.0004 1.00109 0.99735
1.00086 1.0027 1.00053 0.99764
1.00095 1.00037 1.00261 0.997976
1.00028 1.00142 1.00125 0.997612
1.00267 1 1.00417 0.998513
1.0007 1 1.00245 0.998255
0.998989 1 1.00128 0.997714
0.999092 1 1.00003 0.999064
1.00059 1 1.00192 0.998679
1.00049 1 1.00205 0.998448
0.999104 1 1.00021 0.998889
0.999202 1 1 0.999202
0.99971 1 1 0.99971
0.999284 1 1 0.999284
0.999754 1 1 0.999754
1 1 1 1
0.999776 1 1 0.999776
1 1 1 1
1 1 1 1
1 1 1 1
1 1 1 1
1 1 1 1
0.999144 1 1 0.999144
0.999691 1 1 0.999691
0.999252 1 1 0.999252
1 1 1 1
0.999776 1 1 0.999776
0.999394 1 1 0.999394
1 1 1 1
1 1 1 1
0.999841 1 1 0.999841
1 1 1 1
1 1 1 1
1 1 1 1
0.898004 0.939427 0.967637 0.987877
0.911879 0.951556 0.975973 0.981895
0.828186 0.886846 0.958692 0.974092
0.998859 1 1 0.998859
0.9988 1 1 0.9988
0.998699 1 1 0.998699
0.905112 0.957368 0.962728 0.982019
0.894528 0.938981 0.969595 0.982532
0.91374 0.954597 0.979954 0.97678
0.959655 0.983797 0.982599 0.992735
0.921428 0.95004 0.990344 0.979339
0.830434 0.8964 0.950782 0.974366
0.858596 0.945874 0.935795 0.970007
0.933271 0.957713 0.983294 0.991035
0.928744 0.943861 1.00426 0.97981
0.863638 0.913836 0.96941 0.974891
0.866713 0.959494 0.928249 0.973125
0.921797 0.947265 0.983468 0.989472
0.944531 0.952522 1.01139 0.980443
0.890213 0.930466 0.981681 0.974593
0.856067 0.943434 0.933085 0.972468
0.998467 1 1 0.998467
0.999952 1 1.00149 0.998461
1.00006 1 1.00145 0.998608
0.998643 1 1 0.998643
0.998735 1 1 0.998735
0.998962 1 1 0.998962
0.976776 0.993469 0.984314 0.998865
0.989657 0.997025 0.993283 0.999322
1.00136 1 1.00297 0.998388
1.01673 1.0005 1.01773 0.998518
1.01092 1 1.0126 0.998343
1.0002 1 1.0018 0.9984
1.00163 1 1.00317 0.998461
0.970248 0.981753 0.989235 0.999036
1.03514 0.999961 1.03652 0.99871
1.007 0.988938 1.01881 0.999464
1.00016 1 1.00158 0.998588
0.983178 0.969967 1.01454 0.999093
1.00525 0.986236 1.01978 0.999513
1.02886 1 1.03006 0.998833
0.924727 0.957726 0.974776 0.990529
0.906957 0.941409 0.973669 0.989457
0.91992 0.952342 0.982289 0.983372
1.00974 0.997398 1.01275 0.999628
0.985275 0.977175 1.0093 0.999002
0.897017 0.939511 0.966673 0.987686
0.936445 0.941059 1.01143 0.983852
0.89633 0.94125 0.977693 0.974003
0.904712 0.953862 0.962924 0.984993
0.859636 0.946188 0.936517 0.970111
1.00347 0.987435 1.01645 0.999788
0.912046 0.95405 0.966186 0.98943
0.895719 0.939763 0.969984 0.982627
0.965145 0.960813 1.0104 0.994172
0.812641 0.909814 0.923315 0.967378
0.860833 0.915526 0.964867 0.974498
0.96482 0.958387 1.02692 0.980318
1.00017 0.969504 1.03223 0.99942
0.898848 0.939979 0.967885 0.987972
0.916485 0.957018 0.980054 0.977137
0.741741 0.838348 0.913932 0.968086
0.829367 0.906303 0.940362 0.973146
0.943026 0.950795 1.01209 0.979976
0.94474 0.956435 0.995481 0.992256
1.01982 0.99344 1.02707 0.999503
1.00821 0.987505 1.02139 0.999586
1.01571 0.993429 1.02291 0.999529
1.00436 1 1.00533 0.999041
1.01787 0.997604 1.02084 0.999487
1.01176 0.995356 1.01717 0.999323
1.01176 1 1.01296 0.998812
1.00297 1 1.00406 0.998908
1.00659 1 1.00834 0.998262
1.01482 1.0001 1.01743 0.997323
0.999775 1 1.00145 0.998332
1.00309 1.0007 1.00509 0.997316
1.00479 1.00227 1.00596 0.996576
1.00331 1.00489 1.00191 0.996526
1.00053 1.00219 1.00108 0.997277
1.00161 1.00282 1.00189 0.996908
0.999137 1.00068 1.00124 0.997226
0.99973 1.00078 1.0011 0.997856
1.00058 1.00238 1.00048 0.997732
1.00199 1 1.00379 0.998202
1.00117 1.00042 1.00274 0.998022
1.00034 1.0015 1.00117 0.997676
1.00113 1 1.0023 0.998828
1.00199 1 1.00348 0.998515
1.00076 1 1.00252 0.998245
0.999628 1 1 0.999628
0.999196 1 1.00013 0.999062
1.0005 1 1.00182 0.998678
0.9992 1 1 0.9992
0.999706 1 1 0.999706
0.999998 1 1 0.999998
0.999751 1 1 0.999751
0.999999 1 1 0.999999
1 1 1 1
1 1 1 1
1 1 1 1
1 1 1 1
0.999127 1 1 0.999127
0.99969 1 1 0.99969
0.999165 1 1 0.999165
1 1 1 1
0.999726 1 1 0.999726
0.999285 1 1 0.999285
1 1 1 1
1 1 1 1
0.999766 1 1 0.999766
1 1 1 1
1 1 1 1
1 1 1 1
0.910767 0.9534 0.966019 0.988887
0.898537 0.940004 0.967621 0.987873
0.912488 0.951384 0.976801 0.981895
0.998757 1 1 0.998757
0.998626 1 1 0.998626
0.99888 1 1 0.99888
0.998796 1 1 0.998796
0.998681 1 1 0.998681
0.998681 1 1 0.998681
0.998588 1 1 0.998588
0.891608 0.942452 0.964321 0.981056
0.905076 0.955047 0.963607 0.983469
0.891634 0.938224 0.967217 0.982553
0.868727 0.96166 0.927491 0.973984
0.922211 0.948358 0.983119 0.989126
0.930078 0.943136 1.00558 0.980684
0.86973 0.918802 0.971427 0.974434
0.915312 0.946639 0.977968 0.98869
0.937063 0.944711 1.01338 0.978809
0.901292 0.945306 0.97855 0.97434
0.842131 0.932204 0.928367 0.973082
0.92491 0.948865 0.983799 0.990807
0.94699 0.952576 1.01608 0.978401
0.870387 0.924607 0.966612 0.973874
0.823944 0.916002 0.927745 0.969555
1.00245 1 1.00386 0.998599
0.9987 1 1.00023 0.99847
1.00058 1 1.00213 0.998448
0.998637 1 1 0.998637
0.976621 0.981741 0.995671 0.999109
1.00712 0.985619 1.02235 0.999473
0.999166 1 1.00079 0.998373
1.00137 1 1.00289 0.998481
1.02918 0.999989 1.03041 0.998826
0.999707 1 1.00113 0.99858
1.02908 0.999083 1.03125 0.998819
0.980492 0.96874 1.0139 0.998258
1.00748 0.983312 1.02496 0.999627
1.01238 0.997376 1.01612 0.998943
0.978517 0.960894 1.02031 0.998068
1.02353 0.988885 1.03577 0.999296
0.90774 0.941294 0.974986 0.989095
0.921287 0.956373 0.971973 0.991091
0.906362 0.941444 0.972592 0.989866
0.998797 0.984401 1.01482 0.999805
0.969742 0.964012 1.00854 0.997426
0.911815 0.953631 0.965898 0.989908
0.961207 0.959721 1.02392 0.978152
0.863905 0.917325 0.966906 0.973999
0.893204 0.940001 0.966997 0.982647
0.807747 0.901303 0.926161 0.967649
1.00445 0.973075 1.03273 0.999533
0.898506 0.940545 0.966937 0.987969
0.914368 0.955878 0.979046 0.977047
0.947092 0.955973 0.996145 0.994544
0.736648 0.841579 0.906679 0.96541
0.836577 0.907624 0.947188 0.973114
0.940371 0.945445 1.01577 0.979188
1.00049 0.9771 1.02546 0.998515
0.910242 0.952296 0.973246 0.982115
0.80982 0.875914 0.952576 0.970571
0.793947 0.87774 0.927737 0.974991
0.9263 0.938439 1.0068 0.980398
0.921804 0.945483 0.985105 0.989697
1.01064 0.991283 1.01995 0.99959
1.01603 0.991506 1.02523 0.999522
1.00197 0.993962 1.00872 0.99935
1.01369 0.994766 1.01964 0.999402
1.01076 0.997084 1.01484 0.998892
1.00382 1.0008 1.00508 0.997943
1.00699 1 1.00886 0.998142
1.01397 1.00019 1.01656 0.997267
1.00902 1.00024 1.01222 0.996598
1.00478 1.00147 1.00604 0.99728
1.00519 1.00207 1.00664 0.996494
1.0028 1.0021 1.00445 0.996261
1.00788 1.01133 1 0.996592
1.00631 1.00883 1.00077 0.996744
1.00385 1.00522 1.00218 0.996473
1.00001 1.00236 1.00013 0.997532
1.00004 1.00196 1.00074 0.997338
1.00148 1.00273 1.0019 0.996863
0.998988 1 1.00112 0.997875
0.999969 1.00104 1.00108 0.997845
1.00019 1.00194 1.00043 0.997823
1.0023 1 1.00378 0.998517
1.00183 1 1.00358 0.998252
1.00138 1.00045 1.00287 0.998068
0.999454 1 1 0.999454
1.00082 1 1.00199 0.99883
1.00153 1 1.00302 0.998516
0.999993 1 1 0.999993
0.999622 1 1 0.999622
0.999351 1 1.00029 0.99906
0.999701 1 1 0.999701
0.999997 1 1 0.999997
1 1 1 1
0.999999 1 1 0.999999
1 1 1 1
1 1 1 1
0.998764 1 1.00002 0.998746
0.999051 1 1 0.999051
0.999618 1 1 0.999618
0.999125 1 1 0.999125
0.999998 1 1 0.999998
0.999693 1 1 0.999693
0.999187 1 1 0.999187
1 1 1 1
1 1 1 1
0.999761 1 1 0.999761
1 1 1 1
1 1 1 1
1 1 1 1
0.893586 0.938019 0.964554 0.987639
0.910994 0.953459 0.965728 0.989369
0.899384 0.940842 0.967677 0.987867
0.998774 1 1.00001 0.998769
0.998735 1 1.00012 0.998615
0.998647 1 1.00006 0.998584
0.99862 1 1 0.99862
1.00045 1 1.00191 0.998536
0.998791 1 1 0.998791
0.998662 1 1 0.998662
0.998682 1 1 0.998682
0.99859 1 1 0.99859
1.00152 1 1.00289 0.998636
0.907404 0.947727 0.979959 0.977034
0.894646 0.943906 0.966091 0.98108
0.906055 0.953736 0.964557 0.984915
0.84222 0.933604 0.926965 0.973194
0.897462 0.939846 0.980157 0.974235
0.907629 0.942602 0.974983 0.987605
0.945331 0.952797 1.01222 0.980182
0.92512 0.951851 0.983281 0.988443
0.958185 0.961651 1.01661 0.98012
0.873984 0.925376 0.969246 0.974431
0.822513 0.919003 0.923924 0.968701
0.942775 0.954296 0.997739 0.990166
0.946567 0.952286 1.01362 0.98064
0.813874 0.886767 0.942265 0.974035
0.768199 0.872426 0.909991 0.967628
1.00395 1 1.00489 0.99907
1.00351 1 1.00492 0.998596
0.999439 1 1.00097 0.998473
0.981253 0.970258 1.01397 0.997403
1.01057 0.980624 1.03079 0.999748
0.999893 1 1.00132 0.998571
1.03018 0.998322 1.03314 0.998806
1.01357 0.998703 1.01596 0.998951
1.02596 0.992146 1.03482 0.999285
0.978403 0.961911 1.0191 0.998086
1.01812 0.997121 1.02173 0.999345
0.986023 0.972927 1.01548 0.99801
0.921427 0.954408 0.982148 0.982992
0.90773 0.941476 0.974389 0.989498
0.918028 0.955067 0.969309 0.991653
1.00982 0.978047 1.03286 0.999635
0.947428 0.958291 0.997578 0.991064
0.899811 0.941136 0.967739 0.987964
0.944364 0.953715 1.01257 0.977902
0.827057 0.89324 0.950378 0.974252
0.914019 0.95477 0.979893 0.976962
0.735823 0.848102 0.901229 0.962699
0.999782 0.975935 1.02581 0.998658
0.912589 0.952271 0.975797 0.982099
0.802115 0.870284 0.950567 0.969601
0.924913 0.949429 0.98313 0.990895
0.806226 0.885446 0.935177 0.973645
0.913802 0.937015 0.996234 0.978914
0.971044 0.97178 1.00174 0.997503
0.837422 0.888443 0.967815 0.973917
0.806033 0.876204 0.943567 0.974933
0.9354 0.95584 0.999137 0.97946
0.910555 0.942272 0.974674 0.991449
1.01578 0.990003 1.02654 0.999515
1.00461 0.992738 1.01265 0.999323
1.00053 1.00062 1.00131 0.998598
1.00961 0.993894 1.01686 0.99897
1.00356 1.00093 1.0046 0.998037
0.999634 1.00199 1.0003 0.997352
1.01277 1.00021 1.01539 0.99721
1.00738 1.00042 1.01037 0.996612
0.999583 1.0015 1.00137 0.996724
1.00516 1.0018 1.00697 0.996413
1.00299 1.00302 1.0037 0.996287
1.00836 1.01163 1 0.996767
1.02166 1.02474 1 0.997001
1.01382 1.01721 1.00002 0.996643
1.0074 1.01082 1 0.996613
1.00512 1.00813 1 0.99702
1.00449 1.00674 1.00107 0.996696
1.00446 1.00562 1.00244 0.996419
0.998978 1.0013 1 0.997686
0.999305 1.00168 1.00002 0.997602
0.999476 1.00176 1.00032 0.997398
0.999919 1 1.00171 0.998214
0.999397 1.0002 1.0013 0.997907
1.00022 1.0013 1.0011 0.997834
1.00077 1 1.00163 0.999138
1.00204 1 1.00353 0.998519
1.00162 1 1.00333 0.998302
0.99998 1 1 0.99998
0.999693 1 1.00025 0.999446
1.00048 1 1.00165 0.998833
1 1 1 1
0.999991 1 1 0.999991
0.999615 1 1 0.999615
0.999996 1 1 0.999996
1 1 1 1
1 1 1 1
0.999053 1 1.00039 0.998662
0.998967 1 1 0.998967
0.998796 1 1.00006 0.998731
0.999556 1 1 0.999556
0.99905 1 1 0.99905
0.999989 1 1 0.999989
0.999621 1 1 0.999621
0.999122 1 1 0.999122
1 1 1 1
0.999999 1 1 0.999999
0.999697 1 1 0.999697
1 1 1 1
1 1 1 1
1 1 1 1
0.913482 0.954873 0.972895 0.983306
0.894892 0.938742 0.965223 0.987636
0.910887 0.95285 0.96576 0.989854
0.998597 1 1 0.998597
0.998788 1 1.00001 0.99878
0.998656 1 1.00005 0.998604
0.998648 1 1.00002 0.998631
0.998602 1 1 0.998602
0.999772 1 1.00122 0.998558
1.00318 1 1.00479 0.998401
1.00349 1 1.00498 0.998523
0.998683 1 1 0.998683
0.998593 1 1 0.998593
1.00149 1 1.00287 0.998626
1.00447 1 1.00566 0.998816
0.808983 0.87636 0.952236 0.969421
0.914721 0.954019 0.981471 0.97691
0.89641 0.94412 0.967757 0.981101
0.813133 0.91186 0.919953 0.969321
0.880016 0.932485 0.969129 0.973794
0.948649 0.953574 1.01674 0.978459
0.929096 0.95004 0.988647 0.989185
0.940576 0.950682 0.997331 0.992017
0.752622 0.86144 0.905322 0.965049
0.941125 0.947548 1.01479 0.978747
0.827825 0.901335 0.943276 0.973675
0.934799 0.95199 0.989299 0.992564
0.933466 0.945507 1.00595 0.981421
0.797435 0.881887 0.928363 0.974013
1.00059 1 1.00102 0.999565
1.00395 1 1.00488 0.999075
1.00425 1 1.00567 0.998594
0.974265 0.958114 1.01877 0.998118
1.02877 0.996184 1.03346 0.999273
1.01431 0.999543 1.01583 0.998959
1.01832 0.998459 1.02056 0.999344
0.985275 0.97395 1.01359 0.998061
0.997515 0.990056 1.00892 0.99863
0.853112 0.896851 0.977248 0.973377
0.919167 0.953393 0.979423 0.984356
0.906696 0.9414 0.972962 0.9899
0.999854 0.974258 1.02753 0.998774
0.91809 0.947043 0.977547 0.991694
0.912436 0.952145 0.975764 0.982097
0.921645 0.935223 1.00512 0.98046
0.814655 0.898821 0.931465 0.973047
0.798939 0.87286 0.943565 0.970057
0.972987 0.971702 1.00376 0.997568
0.828396 0.8864 0.959231 0.974283
0.818021 0.882155 0.951375 0.974692
0.914374 0.943913 0.979525 0.988954
0.924914 0.953735 0.988398 0.981165
0.963783 0.982513 0.982181 0.998733
0.835873 0.896473 0.956153 0.97516
0.945099 0.976183 0.985788 0.982116
0.926829 0.956974 0.979527 0.988742
1.00799 0.992011 1.01682 0.999297
0.992098 0.999306 0.994077 0.998703
0.992282 1.00265 0.991652 0.997986
1.00386 1.0011 1.00463 0.99813
1.0021 1.00242 1.00235 0.99734
1.00023 1.00336 0.999428 0.99746
1.00611 1.00067 1.00884 0.996626
0.999532 1.00113 1.00167 0.996737
1.01464 1.0173 1 0.997388
1.00343 1.00395 1.00319 0.996312
1.00769 1.01095 1 0.996776
1.02129 1.02388 1 0.99747
1.0263 1.0289 1 0.997478
1.02416 1.02732 1 0.996928
1.02101 1.02404 1 0.997035
1.01388 1.01707 1 0.996854
1.01282 1.01618 1 0.996689
1.00668 1.01008 1 0.996634
1.00419 1.00681 1 0.997396
1.00502 1.00786 1.00014 0.997047
1.00274 1.00463 1.00148 0.996648
0.998162 1.0002 1 0.997965
1.00011 1.00244 1 0.99768
0.998582 1.00091 1 0.997672
1.00068 1 1.0019 0.998789
0.999807 1 1.0016 0.998215
0.999876 1.00049 1.00145 0.997939
0.99993 1 1 0.99993
1.00067 1 1.00154 0.999135
1.00159 1 1.00307 0.998521
1 1 1 1
0.999971 1 1 0.999971
0.999906 1 1.00047 0.999438
1 1 1 1
0.999988 1 1 0.999988
1 1 1 1
0.998883 1 1.00027 0.998614
0.999153 1 1.0005 0.998658
0.999234 1 1.00037 0.998862
0.999494 1 1 0.999494
0.998966 1 1 0.998966
0.998767 1 1.00005 0.998717
0.999976 1 1 0.999976
0.999558 1 1 0.999558
0.999049 1 1 0.999049
1 1 1 1
0.999992 1 1 0.999992
0.999624 1 1 0.999624
1 1 1 1
1 1 1 1
1 1 1 1
0.835703 0.884863 0.971921 0.971728
0.9117 0.953017 0.972886 0.983308
0.896676 0.939874 0.965985 0.987632
0.999114 1 1.00054 0.99858
0.999521 1 1.00104 0.998479
1.00184 1 1.00337 0.998477
0.998883 1 1.00024 0.998642
0.99862 1 1 0.99862
0.999906 1 1.00133 0.998581
1.00335 1 1.00484 0.998513
1.00287 1 1.00446 0.998413
1.00421 1 1.00591 0.998317
0.996908 1 0.997895 0.999011
1.00102 1 1.0024 0.998616
1.00321 1 1.00443 0.998787
0.814276 0.878645 0.951815 0.973657
0.800596 0.868183 0.95251 0.968127
0.92065 0.958523 0.983295 0.976806
0.738188 0.848944 0.903485 0.962425
0.828526 0.899657 0.945454 0.974066
0.937419 0.947842 1.00813 0.981028
0.944952 0.952653 1.00211 0.989823
0.931507 0.950491 0.989236 0.99069
0.80049 0.875103 0.940059 0.973065
0.921513 0.93948 1.00056 0.980323
0.925053 0.953548 0.978452 0.991481
0.921274 0.954531 0.984986 0.97987
1.0067 1 1.00768 0.999023
1.00029 1 1.00079 0.999501
1.00369 1 1.00462 0.99908
0.9848 0.974901 1.01207 0.998105
1.01816 0.999528 1.01931 0.999344
0.997908 0.990822 1.00862 0.99854
0.989088 0.99479 0.996533 0.997727
0.837166 0.911213 0.940939 0.976406
0.855883 0.896536 0.979894 0.974243
0.91838 0.953045 0.9776 0.985707
0.973764 0.975619 1.00042 0.997682
0.913971 0.943871 0.978472 0.989627
0.828516 0.887546 0.95802 0.974397
0.920119 0.949739 0.989089 0.979499
0.823891 0.888538 0.950815 0.975209
0.967073 0.982413 0.986299 0.99806
0.842204 0.904892 0.954178 0.975419
0.944161 0.977241 0.98594 0.979927
0.934389 0.959929 0.982401 0.990832
0.972947 0.991653 0.98252 0.998592
0.94905 0.982924 0.983893 0.981344
0.951819 0.981869 0.976882 0.992336
0.983311 0.997681 0.986779 0.998802
0.990303 1.00344 0.988926 0.997962
0.983066 1.00707 0.978264 0.997855
1.00366 1.00278 1.00356 0.997328
0.999574 1.00348 0.998648 0.997455
1.01808 1.02456 0.995693 0.997972
0.999315 1.00071 1.00186 0.99675
1.01444 1.01735 0.99976 0.997374
1.02525 1.02868 0.998709 0.997956
1.00689 1.01014 1 0.996785
1.02078 1.02339 0.999982 0.997468
1.02714 1.02941 0.999902 0.997893
1.02417 1.02645 1 0.997771
1.02709 1.02963 1 0.997534
1.02638 1.0291 1 0.99735
1.02394 1.02702 1 0.997
1.02464 1.02779 1 0.996936
1.0205 1.0235 1 0.997068
1.01195 1.01486 1 0.997125
1.01497 1.01814 1 0.996889
1.01187 1.01518 1 0.996735
0.999534 1.00181 1 0.997725
1.00432 1.00695 1 0.997389
1.00506 1.00783 1.00017 0.997074
0.998655 1 1.00011 0.998541
0.998441 1.00048 1 0.997963
1.00116 1.00349 1 0.997673
0.999801 1 1 0.999801
1.00019 1 1.0014 0.99879
0.999877 1 1.00166 0.998215
1 1 1 1
0.999968 1 1.00006 0.999909
1.00061 1 1.00148 0.999131
1 1 1 1
0.999962 1 1 0.999962
1 1 1 1
0.998547 1 1 0.998547
0.998998 1 1.00039 0.998613
0.999239 1 1.00049 0.998752
0.999136 1 1.00048 0.998654
0.999249 1 1.00039 0.998861
0.999493 1 1.00009 0.999404
0.999963 1 1 0.999963
0.999496 1 1 0.999496
0.998966 1 1 0.998966
1 1 1 1
0.99998 1 1 0.99998
0.999561 1 1 0.999561
1 1 1 1
0.999995 1 1 0.999995
1 1 1 1
0.84369 0.900729 0.960207 0.975492
0.838453 0.889099 0.970561 0.971641
0.91013 0.951598 0.972661 0.983306
0.999468 1 1.00091 0.998563
1.0024 1 1.00401 0.998403
0.999003 1 1.00047 0.998532
0.998137 1 1.00009 0.998045
1.00194 1 1.00356 0.998388
1.00325 1 1.00475 0.998504
1.00199 1 1.00357 0.998424
1.00433 1 1.00598 0.99836
0.998163 1 1 0.998163
0.993246 1.00065 0.993825 0.998769
0.997482 1.00035 0.999252 0.997879
0.998857 1 0.999793 0.999064
1.00242 1 1.00366 0.998759
0.938071 0.973845 0.982304 0.980619
0.816689 0.876486 0.956557 0.974094
0.801642 0.871469 0.950066 0.968222
0.798199 0.876324 0.936805 0.972293
0.930368 0.945842 1.00463 0.979104
0.934083 0.947183 0.993432 0.99269
0.92673 0.952362 0.980128 0.992815
0.929368 0.95622 0.989803 0.981931
0.952801 0.980466 0.979763 0.991856
0.99909 1.00132 0.999553 0.99822
1.00564 1 1.00665 0.999001
0.999891 1 1.00045 0.999436
0.999138 0.992682 1.00804 0.998474
0.994289 0.998737 0.997826 0.997715
0.926048 0.971846 0.97057 0.981768
0.84727 0.910203 0.95343 0.976326
0.859361 0.895922 0.983659 0.975127
0.972215 0.984124 0.990519 0.997355
0.931623 0.957333 0.98409 0.988878
0.84302 0.902194 0.958176 0.975198
0.942325 0.972379 0.987062 0.981794
0.977526 0.99153 0.987221 0.998637
0.954013 0.988481 0.982327 0.982495
0.950933 0.980466 0.979404 0.990275
0.99409 1.00435 0.99174 0.998032
0.971733 0.994914 0.981912 0.994693
0.989623 1.00465 0.987072 0.997948
0.984344 1.00651 0.980128 0.997806
1.00503 1.02979 0.977856 0.99805
0.999144 1.00358 0.998123 0.99745
1.01806 1.02444 0.995808 0.997955
1.02636 1.03692 0.991608 0.998199
1.01425 1.01746 0.999482 0.99736
1.02484 1.02882 0.998193 0.997937
1.023 1.02828 0.996743 0.998116
1.02041 1.02306 0.999944 0.997466
1.02742 1.02982 0.999799 0.997874
1.02615 1.02845 0.999823 0.997943
1.02476 1.027 1 0.99782
1.02376 1.02623 1 0.997593
1.02784 1.03032 1 0.997589
1.02634 1.02907 1 0.997342
1.02686 1.02973 1 0.997208
1.01966 1.02263 1 0.997096
1.0238 1.02689 1 0.99699
1.02505 1.02819 1 0.996944
1.00443 1.00693 1 0.997514
1.01109 1.01399 1 0.997144
1.01605 1.01919 1 0.996923
0.998402 1.00005 1 0.998351
1.00076 1.00305 1 0.99772
1.00428 1.00692 1 0.997383
0.99974 1 1.00012 0.999622
0.998659 1 1.00012 0.998541
0.998761 1.0008 1 0.997962
1 1 1 1
0.999985 1 1.00021 0.999777
0.999743 1 1.00095 0.99879
1 1 1 1
1.00019 1 1.0003 0.999888
1 1 1 1
1.00026 1.0022 1 0.998067
0.998544 1 1 0.998544
0.999112 1 1.00051 0.998604
0.999275 1 1.00066 0.998612
0.999308 1 1.00058 0.998731
0.999394 1 1.00014 0.999251
0.999236 1 1.00038 0.998861
0.999435 1 1.00003 0.999407
0.999947 1 1 0.999947
1 1 1 1
0.999967 1 1 0.999967
0.999499 1 1 0.999499
1 1 1 1
0.999984 1 1 0.999984
1 1 1 1
0.948182 0.983798 0.980416 0.98305
0.838495 0.904712 0.949584 0.976016
0.848114 0.89492 0.975837 0.971164
1.00306 1 1.00474 0.998329
0.998585 1 1 0.998585
1.00144 1 1.00306 0.998385
0.998847 1.00066 1.00012 0.998074
1.00465 1.00703 1.00002 0.997611
0.998185 1 1 0.998185
1.00466 1 1.00626 0.998403
0.998025 1 1 0.998025
0.995591 1.00043 0.996422 0.998739
0.998123 1.00058 0.999519 0.998023
0.995225 1.00303 0.994153 0.998056
0.997175 1.00129 0.99839 0.997497
0.996486 1.00082 0.997652 0.998015
1.00059 1 1.00147 0.999117
0.951799 0.982809 0.976253 0.992004
0.940935 0.975215 0.983291 0.981245
0.812622 0.877561 0.949665 0.975081
0.94082 0.962323 0.998113 0.979504
0.927683 0.95119 0.981458 0.993712
0.957176 0.980628 0.981581 0.994401
0.992193 1.00377 0.990473 0.997977
0.997169 1.00067 0.998252 0.998247
1.0046 1 1.00563 0.998979
0.995381 1.00112 0.996574 0.997685
0.956434 0.978076 0.98566 0.992099
0.939206 0.976694 0.977396 0.983857
0.836895 0.90433 0.948325 0.975859
0.979817 0.991153 0.989873 0.998677
0.954528 0.983146 0.978962 0.991756
0.959322 0.988306 0.98682 0.983638
0.987336 1.00329 0.986022 0.998052
0.96877 0.99203 0.982435 0.994013
0.991825 1.02423 0.970434 0.997865
1.00492 1.01591 0.991857 0.997304
0.985227 1.00595 0.981605 0.997751
1.00391 1.02886 0.97767 0.998043
1.00917 1.04081 0.971453 0.998094
1.01838 1.02478 0.995801 0.997938
1.02618 1.03679 0.991568 0.998183
1.01864 1.03039 0.990514 0.998064
1.02446 1.02893 0.997738 0.997918
1.02228 1.02764 0.996673 0.998099
1.02636 1.03144 0.997155 0.997913
1.02767 1.03017 0.999716 0.997856
1.02498 1.02736 0.999748 0.997937
1.02463 1.02708 0.999948 0.997667
1.02535 1.02754 1 0.997868
1.02396 1.02639 1 0.997634
1.02635 1.02909 1 0.997336
1.02637 1.02911 1 0.997334
1.02678 1.02967 1 0.997199
1.02324 1.0261 1 0.99721
1.00995 1.01262 1 0.99737
1.01949 1.02244 1 0.997112
1.02361 1.02671 1 0.99698
0.9988 1.00063 1 0.998171
1.00516 1.00767 1 0.997515
1.01041 1.01329 1 0.997162
0.999451 1 1 0.999451
0.998504 1.00015 1 0.99835
1.00193 1.00422 1 0.997716
1 1 1 1
0.999627 1 1.00002 0.999606
0.99861 1 1.00007 0.998542
1 1 1 1
0.999914 1 1.00016 0.999753
1 1 1 1
1.00338 1.00571 1 0.997681
0.999541 1.00146 1 0.998082
0.998963 1.00044 1.00023 0.998288
0.99854 1 1 0.99854
0.999039 1 1.00046 0.998577
0.999256 1 1.00022 0.999039
0.999443 1 1.00073 0.998709
0.999347 1 1.00009 0.999253
0.99992 1 1 0.99992
0.999409 1 1 0.999409
0.999952 1 1 0.999952
1 1 1 1
1 1 1 1
0.999971 1 1 0.999971
1 1 1 1
0.951832 0.981995 0.976626 0.992482
0.942944 0.983556 0.976887 0.981392
0.831629 0.899062 0.947653 0.976092
1.01272 1.01539 1.00007 0.997303
1.00087 1 1.00249 0.998383
0.999679 1.00147 1.00011 0.998103
0.998148 1 1 0.998148
1.00438 1.00657 1.00022 0.997599
1.00095 1.00295 1 0.998015
0.997888 1 1 0.997888
0.997782 1.00023 0.998836 0.99871
0.997941 1.00078 0.999105 0.998057
0.992782 1.0021 0.992677 0.998006
1.00121 1.00421 0.999636 0.997379
1.00212 1.00622 0.998439 0.997483
0.998031 1.00195 0.99863 0.997451
0.995628 1.00134 0.996142 0.99815
0.992428 1.00616 0.987848 0.998487
0.949683 0.983038 0.974853 0.990989
0.94388 0.976906 0.98367 0.982233
0.949837 0.976206 0.980216 0.992627
0.995583 1.00579 0.991402 0.998439
0.997806 1.0002 0.999335 0.99827
0.993313 1.00668 0.98941 0.997281
0.948868 0.968631 0.986068 0.993437
0.928431 0.97484 0.969974 0.981875
0.981394 1.00167 0.981654 0.998069
0.973744 0.993543 0.986844 0.993137
0.993701 1.02526 0.97124 0.997922
1.00389 1.01489 0.991662 0.997475
1.00187 1.03424 0.970729 0.997908
1.03068 1.03731 0.995803 0.997796
1.00239 1.0273 0.97767 0.998037
1.01184 1.04212 0.972805 0.998088
1.01103 1.03748 0.976533 0.997923
1.0254 1.03611 0.991487 0.998167
1.01838 1.03017 0.990479 0.99806
1.02479 1.03441 0.992884 0.997802
1.02148 1.02697 0.996569 0.998082
1.02583 1.03085 0.997192 0.997926
1.02797 1.03087 0.999574 0.997606
1.02383 1.02628 0.99968 0.997931
1.02506 1.02748 0.999979 0.997667
1.02816 1.03087 1 0.997376
1.02411 1.0265 1 0.997675
1.02644 1.02915 1 0.997366
1.02514 1.02801 1 0.997209
1.02669 1.02958 1 0.997189
1.02302 1.02591 1 0.997189
1.01345 1.01613 1 0.997363
1.00048 1.00244 1 0.998048
1.00965 1.01229 1 0.997394
1.01929 1.02223 1 0.997128
0.999312 1 1 0.999312
0.999301 1.00113 1 0.998171
1.00589 1.00839 1 0.997516
1 1 1 1
0.999438 1 1 0.999438
0.998618 1.00027 1 0.998349
1 1 1 1
0.99959 1 1 0.99959
1 1 1 1
1.00711 1.00978 1 0.997359
1.00323 1.00555 1 0.997685
1.00115 1.00319 1 0.997963
0.998665 1.00056 1.00001 0.998097
0.998732 1.00018 1.00026 0.998292
0.9992 1 1.00041 0.998794
0.998964 1 1.00042 0.998549
0.999442 1 1.0004 0.999039
0.999944 1 1.00008 0.999861
0.999269 1 1.00001 0.999255
0.999928 1 1 0.999928
1 1 1 1
0.999957 1 1 0.999957
1 1 1 1
1 1 1 1
0.992372 1.01057 0.98356 0.998411
0.946155 0.979426 0.975269 0.990528
0.940071 0.974834 0.980638 0.98338
1.00949 1.01193 1.00001 0.997577
1.01908 1.02194 1 0.997204
1.01077 1.01332 1.00013 0.997351
0.998111 1 1 0.998111
1.00395 1.00589 1.00048 0.997585
1.00193 1.00397 1 0.997964
1.0111 1.01373 1 0.9974
0.997751 1.00095 0.998712 0.99809
0.99024 1.00105 0.991231 0.997956
1.00199 1.00542 0.999133 0.997447
1.01373 1.01737 0.999265 0.997148
1.00996 1.02013 0.992232 0.997779
1.00308 1.00707 0.998577 0.997454
0.998936 1.00262 0.998914 0.997404
0.996551 1.00834 0.989654 0.998642
0.953814 0.98426 0.979016 0.989837
0.996019 1.00678 0.990385 0.998916
1.01655 1.02843 0.990042 0.998395
0.992435 1.00539 0.989707 0.997378
0.950331 0.975688 0.9823 0.991561
0.996339 1.02665 0.972442 0.997976
1.00221 1.0142 0.990494 0.997654
1.00175 1.03464 0.970165 0.997992
1.03185 1.03915 0.995158 0.997805
1.02723 1.04417 0.985949 0.997798
1.04704 1.05558 0.99398 0.997917
1.01495 1.04427 0.973784 0.998082
1.01373 1.03744 0.979177 0.997926
1.02791 1.04167 0.989059 0.997706
1.01845 1.03014 0.990585 0.998057
1.0249 1.03385 0.993522 0.9978
1.03077 1.03604 0.997341 0.997571
1.02529 1.03025 0.997244 0.997938
1.02829 1.03112 0.999651 0.997604
1.03096 1.03371 1 0.997343
1.02545 1.02785 1 0.997666
1.02798 1.03069 1 0.997376
1.02791 1.03081 1 0.997182
1.02657 1.02925 1 0.997396
1.02486 1.02772 1 0.997217
1.0154 1.01814 1 0.997316
1.02284 1.02574 1 0.997168
1.01328 1.01597 1 0.997354
1.00216 1.0042 1 0.997975
0.999238 1 1 0.999238
1.00099 1.00295 1 0.998047
1.0094 1.01201 1 0.997418
1 1 1 1
0.9993 1 1 0.9993
0.999805 1.00164 1 0.99817
1 1 1 1
0.999425 1 1 0.999425
1 1 1 1
1.01376 1.01664 1 0.997173
1.00776 1.01045 1 0.997336
1.00462 1.00698 1 0.99766
1.00304 1.00536 1 0.99769
1.00025 1.00229 1 0.997969
0.998888 1.00011 1.00025 0.998534
0.998544 1 1.00025 0.998296
0.999396 1 1.0006 0.998796
0.999912 1 1.00018 0.999736
0.999353 1 1.00031 0.999039
0.999875 1 1 0.999875
1 1 1 1
0.999937 1 1 0.999937
1 1 1 1
1 1 1 1
1.00834 1.0273 0.983257 0.998256
0.990057 1.00952 0.982761 0.997923
0.944754 0.980717 0.971782 0.991302
1.01949 1.02223 1 0.997313
1.01027 1.01255 1 0.997749
1.03206 1.03499 1 0.997172
1.01973 1.0226 1 0.99719
1.00903 1.01147 1.00018 0.997402
1.02719 1.03017 1 0.997109
1.00298 1.00508 0.999992 0.997915
1.00968 1.01237 1 0.99734
1.03114 1.03871 0.995367 0.997333
1.00253 1.00655 0.99849 0.997515
1.01495 1.01856 0.999336 0.99711
1.00996 1.02029 0.992063 0.997801
1.00319 1.00699 0.998797 0.997423
1.0007 1.01027 0.99172 0.998793
1.03672 1.04981 0.989528 0.997982
1.01654 1.02842 0.990025 0.998403
0.992892 1.00409 0.991355 0.99747
1.00175 1.03439 0.970308 0.998076
1.0319 1.0401 0.994284 0.997814
1.02496 1.04398 0.983926 0.997816
1.04728 1.05676 0.993098 0.997915
1.04076 1.05264 0.990881 0.997814
1.016 1.03705 0.981734 0.997929
1.02794 1.04117 0.989555 0.997715
1.03234 1.04155 0.993562 0.997587
1.02487 1.03329 0.994043 0.997797
1.03037 1.03545 0.997538 0.997552
1.03323 1.03626 0.999778 0.997306
1.02872 1.03147 0.999739 0.997602
1.03095 1.0337 1 0.997342
1.03132 1.03428 1 0.997136
1.0278 1.0305 1 0.997377
1.02784 1.03074 1 0.997185
1.01783 1.02064 1 0.997239
1.02458 1.02743 1 0.997226
1.01556 1.01829 1 0.99732
1.00302 1.00513 1 0.997899
1.01307 1.01577 1 0.997344
1.00239 1.00442 1 0.997973
0.999341 1 1 0.999341
0.99978 1 1 0.99978
0.999287 1 1 0.999287
1.00148 1.00345 1 0.998046
1 1 1 1
0.999289 1 1 0.999289
1 1 1 1
1.03893 1.04182 1 0.997228
1.02443 1.02733 1 0.99718
1.01483 1.01771 1 0.997164
1.00825 1.0108 1 0.997482
1.00857 1.01129 1 0.997313
1.00379 1.00614 1 0.997662
0.999086 1.00078 1 0.998306
0.99933 1.00136 1 0.997975
0.998986 1.00005 1.0004 0.998538
0.999617 1 1.00007 0.999548
0.9999 1 1.0011 0.998797
0.999895 1 1.00014 0.999756
1 1 1 1
0.99989 1 1 0.99989
1 1 1 1
1 1 1 1
1.03416 1.04814 0.988899 0.997734
1.01218 1.03117 0.98323 0.998334
0.987879 1.00962 0.98098 0.99744
1.03094 1.03389 1 0.997142
1.01885 1.02153 1 0.997376
1.01079 1.0129 1 0.997918
1.03116 1.03406 1 0.99719
1.02033 1.02322 1 0.997176
1.03856 1.04415 0.997334 0.99731
1.02413 1.02714 1 0.997068
1.00837 1.01112 1 0.997281
1.03052 1.03807 0.995397 0.997327
1.01756 1.02103 0.999528 0.997073
1.0123 1.02321 0.991489 0.997828
1.04124 1.05286 0.991042 0.997908
1.03858 1.05102 0.990143 0.998002
1.01677 1.02849 0.990179 0.998413
1.02376 1.04475 0.982039 0.997833
1.04836 1.05866 0.99234 0.997914
1.04094 1.0536 0.990138 0.997824
1.03561 1.04413 0.994165 0.997663
1.02793 1.04055 0.99012 0.997723
1.03217 1.04101 0.993916 0.997576
1.0356 1.03935 0.999065 0.997327
1.02993 1.0348 0.99776 0.997533
1.03402 1.03704 0.999774 0.997306
1.03431 1.03733 1 0.997094
1.0309 1.03365 1 0.99734
1.03138 1.03434 1 0.997137
1.02022 1.02314 1 0.997154
1.02777 1.03067 1 0.997188
1.01811 1.02093 1 0.997241
1.00375 1.00597 1 0.997799
1.01571 1.01843 1 0.997323
1.00322 1.00534 1 0.997897
0.999345 1 1 0.999345
1.00261 1.00465 1 0.997971
0.999337 1 1 0.999337
0.999794 1 1 0.999794
0.999894 1 1 0.999894
0.999338 1 1 0.999338
1 1 1 1
1.03576 1.03872 1 0.997151
1.03023 1.03311 1 0.997218
1.03838 1.04116 1 0.997337
1.01423 1.01691 1 0.997369
1.02613 1.02904 1 0.99717
1.01594 1.01884 1 0.997154
1.00803 1.01057 1 0.997479
1.00114 1.00302 1 0.998124
1.00286 1.00521 1 0.997665
0.998808 1.0005 1 0.998307
0.999369 1 1 0.999369
0.99907 1.00001 1.00052 0.998541
0.999658 1 1.00009 0.999567
1 1 1 1
0.999782 1 1.00001 0.999776
1 1 1 1
1 1 1 1
1.03827 1.04839 0.992704 0.99762
1.03351 1.04737 0.989015 0.99773
1.01446 1.03326 0.983374 0.998405
1.03842 1.04184 0.999494 0.997223
1.0294 1.03235 1 0.997143
1.0183 1.02091 1 0.997439
1.0301 1.03298 1 0.997209
1.03763 1.04326 0.997306 0.997287
1.02097 1.02402 1 0.997028
1.02775 1.03515 0.995521 0.997321
1.03746 1.04667 0.99346 0.997724
1.04046 1.05176 0.991375 0.997869
1.04033 1.05207 0.990807 0.998022
1.0351 1.04186 0.995949 0.997552
1.0408 1.0543 0.989337 0.997834
1.03539 1.04411 0.993985 0.99765
1.03686 1.04138 0.998232 0.997422
1.03204 1.04053 0.994262 0.997566
1.03608 1.03988 0.999012 0.99733
1.03556 1.0386 1 0.997078
1.0348 1.03783 0.999771 0.997306
1.03394 1.03695 1 0.997096
1.02205 1.02504 1 0.997089
1.03138 1.03434 1 0.997138
1.02046 1.02337 1 0.997156
1.00435 1.00666 1 0.997699
1.01838 1.0212 1 0.997243
1.00393 1.00615 1 0.997798
0.999321 1 1 0.999321
1.00344 1.00555 1 0.997896
0.999336 1 1 0.999336
0.999798 1 1 0.999798
0.999334 1 1 0.999334
0.999798 1 1 0.999798
1 1 1 1
1.03631 1.03937 1 0.997052
1.03127 1.03427 1 0.9971
1.03687 1.03982 1 0.997161
1.01863 1.02132 1 0.997365
1.03079 1.03365 1 0.997233
1.03795 1.04061 1 0.997445
1.00357 1.00561 1 0.99797
1.0143 1.01698 1 0.997363
1.02792 1.03085 1 0.997159
1.00775 1.0103 1 0.997476
1.00035 1.00223 1 0.998126
0.999258 1 1 0.999258
0.998524 1.00022 1 0.998308
0.999383 1 1 0.999383
1 1 1 1
0.999712 1 1.00013 0.999586
1 1 1 1
1 1 1 1
1.03823 1.04387 0.997112 0.997475
1.03829 1.04881 0.992339 0.997605
1.03388 1.04774 0.989021 0.997726
1.03777 1.04111 0.999553 0.997236
1.02779 1.03073 1 0.997145
1.03694 1.04262 0.997273 0.997265
1.03596 1.04296 0.99573 0.997556
1.03793 1.04673 0.993865 0.997717
1.03977 1.05079 0.99166 0.997831
1.03565 1.0423 0.99604 0.997573
1.03814 1.04214 0.998805 0.997362
1.03517 1.0441 0.993802 0.997637
1.03688 1.04129 0.998379 0.997382
1.03588 1.03912 0.999743 0.997146
1.03647 1.04033 0.99896 0.997332
1.0355 1.03853 1 0.997081
1.02318 1.02622 1 0.99704
1.03373 1.03673 1 0.997097
1.02248 1.02546 1 0.997089
1.00478 1.00718 1 0.997623
1.0208 1.02371 1 0.997158
1.0045 1.00682 1 0.997698
0.99927 1 1 0.99927
1.00412 1.00634 1 0.997797
0.999308 1 1 0.999308
0.999782 1 1 0.999782
0.99933 1 1 0.99933
0.999809 1 1 0.999809
0.999799 1 1 0.999799
1.03853 1.04144 0.999936 0.997272
1.03376 1.03689 1 0.996979
1.03711 1.04017 0.999983 0.997074
1.02118 1.02401 1 0.997236
1.03071 1.03371 1 0.997098
1.03792 1.04087 1 0.997173
1.00465 1.00681 1 0.997858
1.01872 1.02146 1 0.997321
1.0312 1.03405 1 0.997247
0.99921 1 1 0.99921
1.00292 1.00496 1 0.997973
1.01445 1.01714 1 0.997357
0.999561 1.00144 1 0.998128
0.999268 1 1 0.999268
1 1 1 1
0.999396 1 1 0.999396
1 1 1 1
1 1 1 1
1.03566 1.0407 0.997701 0.997451
1.03739 1.04336 0.9968 0.99747
1.03816 1.04905 0.992015 0.99759
1.03709 1.04036 0.999605 0.997249
1.03703 1.04051 0.999332 0.997322
1.03658 1.0434 0.995888 0.997566
1.03841 1.04674 0.994314 0.99771
1.03618 1.04274 0.996104 0.997593
1.03752 1.04174 0.998573 0.997373
1.03645 1.03944 0.999965 0.997154
1.03697 1.04131 0.998492 0.997342
1.03604 1.03918 0.999863 0.997114
1.02361 1.02665 1 0.997039
1.03543 1.03846 1 0.997085
1.02349 1.02652 1 0.997043
1.00479 1.00724 1 0.99756
1.0227 1.02569 1 0.99709
1.00479 1.00718 1 0.997623
0.999099 1 1 0.999099
1.0046 1.00692 1 0.997698
0.999204 1 1 0.999204
1 1 1 1
0.999296 1 1 0.999296
0.999797 1 1 0.999797
0.999815 1 1 0.999815
1.03654 1.0396 0.9997 0.997352
1.03464 1.03768 1 0.99707
1.03809 1.041 0.999944 0.997266
1.02318 1.0262 1 0.997062
1.03347 1.03658 1 0.997
1.038 1.04106 0.999966 0.997096
1.0053 1.00765 1 0.997669
1.02134 1.02417 1 0.997235
1.03021 1.03321 1 0.997096
0.999194 1 1 0.999194
1.00445 1.00665 1 0.997814
1.01881 1.02159 1 0.997278
1 1 1 1
0.99922 1 1 0.99922
1.00225 1.00428 1 0.997976
0.999279 1 1 0.999279
1 1 1 1
1 1 1 1
1.03575 1.03908 0.999453 0.997337
1.03625 1.04128 0.997703 0.997458
1.0365 1.04283 0.996462 0.997464
1.03569 1.03871 1 0.997095
1.03635 1.04 0.999155 0.997334
1.03716 1.0438 0.996055 0.997576
1.03691 1.04134 0.998355 0.997384
1.03623 1.03942 0.999773 0.997154
1.02238 1.02536 1 0.997101
1.03611 1.03914 1 0.997083
1.02352 1.02654 1 0.99706
1.0045 1.00708 1 0.997438
1.02389 1.02693 1 0.997045
1.00476 1.00721 1 0.99756
0.99905 1 1 0.99905
1.00486 1.00726 1 0.997623
0.999097 1 1 0.999097
1 1 1 1
0.999127 1 1 0.999127
0.999884 1 1 0.999884
0.99981 1 1 0.99981
1.03433 1.03748 0.999657 0.997307
1.03446 1.03744 1 0.997125
1.03667 1.03964 0.99978 0.997358
1.02368 1.0267 1 0.997063
1.03525 1.03831 1 0.997058
1.03768 1.04058 0.99996 0.997261
1.0056 1.00806 1 0.997567
1.0231 1.02608 1 0.997101
1.03314 1.03622 1 0.997021
0.999169 1 1 0.999169
1.00527 1.00763 1 0.997655
1.0215 1.02433 1 0.997234
1 1 1 1
0.999204 1 1 0.999204
1.00428 1.00652 1 0.99777
1 1 1 1
0.999231 1 1 0.999231
1 1 1 1
1.03621 1.03917 1 0.997144
1.035 1.03838 0.999428 0.997324
1.03687 1.04191 0.997698 0.997464
1.02177 1.02475 1 0.997092
1.03574 1.03879 0.999956 0.997116
1.03574 1.03953 0.999003 0.997346
1.03602 1.03939 0.999595 0.997155
1.02244 1.02541 1 0.9971
1.00385 1.00646 1 0.997408
1.02347 1.02646 1 0.997082
1.00444 1.00698 1 0.997472
0.998989 1 1 0.998989
1.00466 1.00712 1 0.997561
0.999047 1 1 0.999047
1 1 1 1
0.999094 1 1 0.999094
1 1 1 1
0.999789 1 1 0.999789
1.03539 1.03835 1 0.997149
1.03398 1.03706 0.999707 0.997327
1.02331 1.0263 1 0.997083
1.03482 1.0378 1 0.997124
1.03683 1.03972 0.999856 0.997363
1.00515 1.00757 1 0.997594
1.02337 1.02639 1 0.99706
1.03583 1.0389 1 0.997046
0.99912 1 1 0.99912
1.00575 1.00818 1 0.997596
1.023 1.02593 1 0.997141
1 1 1 1
0.999174 1 1 0.999174
1.00523 1.00761 1 0.997641
1 1 1 1
0.999212 1 1 0.999212
1 1 1 1
1.02213 1.02508 1 0.997126
1.03604 1.03902 1 0.997133
1.03423 1.03763 0.999412 0.99731
1.00303 1.00563 1 0.997414
1.0218 1.02478 1 0.997092
1.03575 1.03885 0.999875 0.997137
1.0225 1.02547 1 0.9971
1.00386 1.00647 1 0.997409
0.998947 1 1 0.998947
1.0044 1.00692 1 0.997505
0.998986 1 1 0.998986
1 1 1 1
0.999044 1 1 0.999044
1 1 1 1
1 1 1 1
1.02308 1.02607 1 0.997086
1.03517 1.0381 0.999998 0.997174
1.03358 1.03656 0.999774 0.997348
1.0045 1.00694 1 0.997576
1.02311 1.02611 1 0.997079
1.03514 1.03813 1 0.997122
0.999069 1 1 0.999069
1.00537 1.00779 1 0.997592
1.02311 1.02613 1 0.997057
1 1 1 1
0.999123 1 1 0.999123
1.00591 1.0083 1 0.997626
1 1 1 1
0.99918 1 1 0.99918
1 1 1 1
1.00278 1.00529 1 0.997503
1.02201 1.02499 1 0.997091
1.03589 1.03888 1 0.997122
0.998951 1 1 0.998951
1.00308 1.00568 1 0.997412
1.02184 1.02482 1 0.997092
1.00387 1.00648 1 0.99741
0.998947 1 1 0.998947
1 1 1 1
0.998983 1 1 0.998983
1 1 1 1
1 1 1 1
1.00353 1.006 1 0.997545
1.0227 1.02568 1 0.997091
1.03498 1.03791 0.999983 0.9972
0.999179 1 1 0.999179
1.00471 1.00715 1 0.997574
1.02291 1.02591 1 0.997076
1 1 1 1
0.99907 1 1 0.99907
1.00556 1.00799 1 0.99759
1 1 1 1
0.999127 1 1 0.999127
1 1 1 1
0.998949 1 1 0.998949
1.00296 1.0055 1 0.997472
1.02191 1.02493 1 0.997055
1 1 1 1
0.998951 1 1 0.998951
1.00312 1.00573 1 0.99741
0.998945 1 1 0.998945
1 1 1 1
1 1 1 1
0.999133 1 1 0.999133
1.00384 1.00631 1 0.997545
1.02228 1.02525 1 0.997096
1 1 1 1
0.999032 1 1 0.999032
1.00493 1.00738 1 0.997573
1 1 1 1
0.999071 1 1 0.999071
1 1 1 1
0.999714 1 1 0.999714
0.999044 1 1 0.999044
1.00311 1.00568 1 0.997441
1 1 1 1
0.998951 1 1 0.998951
1 1 1 1
0.99973 1 1 0.99973
0.999069 1 1 0.999069
1.00417 1.00664 1 0.997545
0.999867 1 1 0.999867
0.999031 1 1 0.999031
1 1 1 1
1 1 1 1
0.998973 1 1 0.998973
1 1 1 1
0.999862 1 1 0.999862
0.999001 1 1 0.999001
1 1 1 1
1 1 1 1
1 1 1 1

VECTORS lamdaE float
1.00064 1.00014 0.99452
1.00036 1.00057 0.997354
1.00027 1.00035 0.994752
1.00087 0.999973 0.994355
1.00074 0.999958 0.994577
1.00058 1.00035 0.994379
1.00195 1.00047 0.991623
1.00039 1.00048 0.997358
1.00031 1.0002 0.997715
0.999846 1.00084 0.997748
1.00038 1.00049 0.994521
1.00173 1.00127 0.990513
1.00061 0.999995 0.994589
1.00035 0.999994 0.994799
0.999933 1.00057 0.994956
1.0006 0.999953 0.994629
1.00017 1.00068 0.994584
1.00043 1.00002 0.994821
1.00214 1.00029 0.991522
1.00062 1.00001 0.997336
1.00086 1.00002 0.994303
1.00083 0.999913 0.994499
1.00223 1.00004 0.991589
1.00211 1.00012 0.991704
1.0006 1.0004 0.994261
1.00171 1.00101 0.991457
1.00464 1.00034 0.987181
1.00038 1.00043 0.99738
1.00048 1.00008 0.996122
1.00012 1.00061 0.996131
1.00036 1.00034 0.997443
1.00162 1.00142 0.990518
1.00078 0.999832 0.994453
1.00049 1.00031 0.994551
1.0024 1.00011 0.991962
0.999782 1.00014 0.998039
1.00207 1.00082 0.991901
1.00144 1.00169 0.990571
1.00392 1.00154 0.986478
0.999881 0.998814 0.998452
1.00063 0.999999 0.997319
1.00053 1.00001 0.996048
1.00057 0.999986 0.997353
1.00024 1.00003 0.994929
1.00227 0.999986 0.990885
1.00046 0.999963 0.99763
1.00252 1.00007 0.991841
1.00033 0.99989 0.994903
1.00014 1.00007 0.995051
0.999776 1.00106 0.994771
1.00232 1.00011 0.991435
1.00046 1.00003 0.996105
1.00057 1.00004 0.99458
1.00015 1.00083 0.994445
1.00055 0.999894 0.994758
1.00235 1.00001 0.991468
1.00195 1.00076 0.991362
1.00226 1.00002 0.9916
1.00462 1.00037 0.987183
1.00055 1 0.997361
1.00076 1.00004 0.994425
1.00206 1.00001 0.992475
1.00221 1.00007 0.991593
1.0022 1.00001 0.991675
1.00466 1.00006 0.987332
1.00468 1.00005 0.987189
1.00042 1.00019 0.994569
1.00127 1.00185 0.991338
1.00449 1.00069 0.987086
1.00523 1.00024 0.98551
1.00069 1.00011 0.997349
1.00028 1.00018 0.997587
1.00041 1.00045 0.997356
1.00155 1.00151 0.990518
1.00081 0.999965 0.997294
1.00057 1.0003 0.99737
1.00228 1.00007 0.990684
0.999974 1.00006 0.996568
1.00184 1.00088 0.990632
1.00132 1.00185 0.991355
1.00398 1.00142 0.986482
1.00012 0.999412 0.998024
0.999843 1.00122 0.99393
1.00248 0.999957 0.990519
1.00222 1.0003 0.990664
1.00471 1.0002 0.986462
1.00088 1.00208 0.992658
1.00432 1.00082 0.986508
1.00306 1.00291 0.986623
1.00497 1.00121 0.984962
0.999739 0.998212 0.998799
0.999752 0.998691 0.9986
1.00077 0.999988 0.99726
1.00066 0.999996 0.997313
1.00061 0.99999 0.997351
1.00046 1 0.996126
1.0023 0.999974 0.991545
1.00062 0.99997 0.996023
1.00245 1.00008 0.99121
1.00059 0.999993 0.997363
1.00215 0.999912 0.99111
1.00243 1.00006 0.992
1.00465 0.9996 0.987231
1.00252 0.999994 0.991861
1.00475 0.999821 0.986839
1.00058 1.00001 0.994634
1.00027 1.00004 0.994862
0.999718 1.0013 0.994631
1.00028 0.999849 0.995015
1.00246 1.00001 0.991348
1.0024 0.999933 0.991503
1.00219 1.00046 0.991275
1.00459 1.0004 0.987185
1.00059 0.999995 0.997361
1.00047 1.00004 0.994703
1.00221 0.999979 0.991367
1.00232 1.00005 0.99146
1.00023 1.00058 0.995995
1.00158 1.00163 0.99147
1.00232 0.999953 0.991565
1.00468 1.00001 0.987317
1.00445 1.00074 0.987092
1.00467 1.00015 0.987211
1.00523 1.00023 0.985537
1.00214 0.999953 0.991124
1.0021 1.00003 0.991765
1.00456 0.999556 0.987891
1.00465 0.999855 0.987423
1.00466 0.999958 0.987284
1.00525 0.999427 0.986563
0.999979 1.00019 0.997831
1.00524 0.999912 0.985832
1.0008 1.00261 0.990616
1.00405 1.00123 0.986549
1.0052 1.00066 0.98519
1.0052 0.999456 0.986302
0.999998 1.00259 0.992113
1.00059 1.00489 0.988737
1.0008 0.999992 0.997313
1.00053 1.0003 0.997367
1.00229 1.00006 0.990677
1.00009 0.999778 0.997921
1.00101 1.00219 0.990724
1.00183 1.00089 0.990644
1.00406 1.0013 0.986486
0.999972 0.999327 0.998184
0.999802 1.00113 0.993975
1.00249 0.999993 0.991214
1.00222 1.00034 0.991316
1.00471 1.0002 0.986449
1.00057 1.00223 0.991525
1.00435 1.00077 0.986509
1.00311 1.00283 0.986609
1.00503 1.0011 0.984953
1.00012 1.00204 0.992628
0.999845 1.00017 0.994923
1.00064 1.00437 0.989616
1.00477 1.00007 0.986522
1.00457 1.00042 0.98647
1.00525 0.999994 0.985765
1.00197 1.00423 0.98721
1.00511 1.00071 0.985207
1.00459 1.00193 0.984938
1.00516 1.0011 0.984748
0.999733 0.997798 0.998979
0.999698 0.998112 0.998874
0.999678 0.99852 0.998723
0.999915 1.00181 0.993006
0.999797 0.999752 0.998135
1.00083 0.999969 0.99727
1.00069 0.999996 0.997282
1.00234 1.0001 0.990608
1.00221 0.999975 0.990956
1.00058 0.999991 0.997346
1.00056 0.999991 0.997361
1.00214 0.999922 0.991105
1.00236 1.00005 0.991373
1.00463 0.9996 0.987231
1.0024 1.00003 0.99054
1.00473 0.999822 0.986835
1.00211 0.999921 0.991157
1.0046 0.999537 0.987359
1.00469 0.999691 0.987055
1.00523 0.998348 0.987584
1.00478 0.999953 0.986648
1.00528 0.998875 0.98696
1.00056 0.999993 0.997357
1.00017 1.00007 0.99498
1.00222 0.999976 0.990377
1.00244 1.00005 0.991326
0.99968 1.001 0.997758
1.00198 1.00127 0.991602
1.00244 0.999925 0.991456
1.0047 0.999949 0.987302
1.00466 1.00023 0.987232
1.00441 1.00081 0.987098
1.00522 1.00023 0.985563
1.00212 0.999941 0.991126
1.00223 1.00004 0.991629
1.00458 0.999541 0.987578
1.00467 0.999928 0.987402
1.00007 1.00025 0.997726
1.00104 1.00232 0.991341
1.00392 1.00153 0.986783
1.00467 1 0.987252
1.00525 0.999229 0.986704
1.00519 1.00064 0.985211
1.00524 0.99996 0.985904
1.0052 0.999458 0.986329
1.00009 1.00246 0.992097
1.00073 1.00479 0.988745
1.00456 0.999581 0.987376
1.00459 0.999729 0.987685
1.00524 0.998666 0.98737
1.00526 0.998778 0.98708
1.00525 0.99948 0.986451
1.00522 0.99782 0.988061
1.00039 1.00275 0.991241
1.0052 0.998731 0.987041
1.00303 1.00278 0.986704
1.00516 1.00096 0.984838
1.0052 1.0004 0.98552
1.00518 0.99814 0.987754
1.00112 1.00486 0.987955
1.00043 1.0044 0.989626
1.00165 1.00476 0.987445
1.00239 0.99998 0.990598
0.999812 0.999205 0.998357
0.999778 1.00101 0.994019
1.00208 1.00038 0.99071
1.00471 1.0002 0.986435
1.00048 1.00236 0.991469
1.00311 1.00274 0.986594
1.00438 1.00073 0.986512
1.0051 1.00098 0.984944
1.00006 1.002 0.992648
0.99985 1.00005 0.994967
1.00042 1.00442 0.989606
1.00476 1.00008 0.986504
1.00458 1.00041 0.98646
1.00525 1 0.985745
1.00202 1.00413 0.987217
1.00517 1.00073 0.985155
1.00463 1.00187 0.984938
1.00518 1.00098 0.984782
0.999935 0.999404 0.995502
1.00124 1.00456 0.988227
1.00036 1.00319 0.991024
1.00109 1.00477 0.988387
1.00526 0.999609 0.986164
1.00522 1.00037 0.985405
1.0052 0.999057 0.986717
1.00351 1.00325 0.985557
1.00521 1.0002 0.985693
1.00497 1.00156 0.984681
1.00519 1.0007 0.985036
1.00026 1.00081 0.993562
1.00019 0.998559 0.995884
0.999789 0.997516 0.999057
0.999718 0.997751 0.999011
0.999671 0.998029 0.998934
0.999958 1.00096 0.993817
0.999735 0.999178 0.998388
0.99997 1.00183 0.992984
0.999908 0.999824 0.998021
1.0024 1.00006 0.990539
1.00228 1.00003 0.990775
1.00472 0.999825 0.986832
1.00462 0.999603 0.98723
1.00216 0.999934 0.991104
1.0006 0.999986 0.997357
1.00213 0.99992 0.991159
1.00459 0.999545 0.98736
1.00468 0.999698 0.987052
1.00523 0.998358 0.987574
1.00476 0.999963 0.986633
1.00528 0.998876 0.986946
1.00456 0.999546 0.987406
1.00521 0.998228 0.987749
1.00527 0.998574 0.987294
1.00525 0.996186 0.989739
1.00527 0.999222 0.986582
1.00523 0.997225 0.98866
1.00213 0.999934 0.991131
1.00236 1.00001 0.991493
1.00461 0.999512 0.987266
1.0047 0.999991 0.98738
1.00017 1.00036 0.99762
1.00133 1.0021 0.991907
1.00391 1.00176 0.987015
1.00468 1.00003 0.987221
1.00525 0.999028 0.986846
1.00524 1.00001 0.985977
1.00517 1.00061 0.985234
1.0052 0.999456 0.986356
1.00016 1.00243 0.992082
1.00086 1.0047 0.988751
1.00457 0.999486 0.987406
1.00461 0.999711 0.987665
1.00523 0.998499 0.98757
1.00526 0.998991 0.986911
1.00047 1.00267 0.991226
1.00308 1.00277 0.986711
1.00513 1.00102 0.984845
1.00525 0.999603 0.986346
1.00521 0.997567 0.988336
1.0052 1.00031 0.98561
1.0052 0.998731 0.987057
1.00517 0.998074 0.987744
1.00121 1.00477 0.98795
1.00146 1.00467 0.987451
1.0005 1.00433 0.989634
1.00521 0.998492 0.987577
1.00525 0.998619 0.987423
1.00524 0.996585 0.989332
1.00521 0.997196 0.988675
1.00522 0.997872 0.987835
1.00518 0.995984 0.989831
1.00208 1.00395 0.987241
1.00518 0.997088 0.988584
1.0048 1.00168 0.984945
1.00521 1.00126 0.984473
1.00517 0.999473 0.986378
1.00513 0.997137 0.98873
1.00021 1.00384 0.99063
1.00235 1.0041 0.986696
1.00082 1.00508 0.988125
1.00278 1.0037 0.986792
1.00475 1.00009 0.986487
0.999857 0.999928 0.995011
0.999943 1.00201 0.992671
1.00023 1.00464 0.989599
1.00459 1.0004 0.98645
1.00526 1.00001 0.985725
1.00202 1.00403 0.987227
1.0047 1.00186 0.984938
1.00521 1.00076 0.985104
1.00519 1.00086 0.984815
0.999951 0.999297 0.995538
1.00109 1.00474 0.988241
1.00023 1.00334 0.991042
1.00094 1.00485 0.988383
1.00526 0.999619 0.986146
1.00523 1.00037 0.985382
1.0052 0.999057 0.986707
1.00356 1.00317 0.985568
1.00521 1.00028 0.985596
1.00502 1.00139 0.98469
1.00519 1.00065 0.985157
1.0001 0.998807 0.995783
1.00032 1.00209 0.992206
1.0022 1.00414 0.986997
1.00051 1.00471 0.989583
1.00182 1.004 0.987998
1.00522 0.998449 0.987338
1.0052 0.999626 0.986115
1.00516 0.998042 0.987638
1.00425 1.00188 0.985395
1.00516 0.999664 0.986217
1.0046 1.00156 0.984814
1.0003 1.0009 0.9934
1.00032 1.00221 0.992103
1.00017 1.00083 0.993698
1.00025 1.00082 0.993559
1.00019 0.998386 0.99657
1.00017 0.998538 0.996203
0.999956 0.997297 0.997845
0.999796 0.997474 0.999061
0.999709 0.997689 0.999034
0.999839 1.00029 0.994675
0.999743 0.998658 0.998635
0.999973 1.00101 0.993793
0.999808 0.999304 0.998305
1.00004 1.00173 0.992962
1.00001 0.999923 0.997906
1.00475 0.99997 0.986619
1.00467 0.999703 0.987049
1.00527 0.998894 0.986931
1.00524 0.998367 0.987563
1.00458 0.999553 0.987362
1.00212 0.999916 0.991157
1.00456 0.999546 0.987408
1.0052 0.998232 0.987747
1.00527 0.998592 0.987279
1.00523 0.996099 0.98984
1.00527 0.999229 0.986568
1.00524 0.997233 0.988642
1.0052 0.99822 0.987769
1.00524 0.995839 0.990175
1.00525 0.996616 0.989285
1.0052 0.995071 0.990771
1.00523 0.997858 0.98799
1.0052 0.995596 0.990056
1.00457 0.999393 0.987436
1.00464 0.999706 0.987645
1.00523 0.998346 0.98777
1.00526 0.999206 0.986743
1.00057 1.0026 0.991215
1.00296 1.00289 0.986718
1.0051 1.0011 0.98485
1.00525 0.999726 0.986241
1.00521 0.997311 0.988612
1.00521 0.998731 0.987072
1.0052 1.00022 0.985699
1.00517 0.998009 0.987733
1.00132 1.00468 0.987943
1.00141 1.00463 0.987458
1.00057 1.00423 0.989644
1.00521 0.998401 0.98764
1.00525 0.998613 0.987415
1.00524 0.996317 0.989614
1.00521 0.99734 0.988542
1.00203 1.00409 0.987232
1.00472 1.00173 0.984951
1.00519 1.0013 0.984437
1.00522 0.998133 0.987592
1.00519 0.995771 0.990003
1.00517 0.999439 0.986319
1.00517 0.997115 0.988589
1.00515 0.996999 0.988837
1.00253 1.00392 0.986684
1.00264 1.00377 0.986708
1.00029 1.00368 0.990637
1.00071 1.00507 0.988243
1.00523 0.996006 0.989961
1.00522 0.99691 0.989005
1.0052 0.995295 0.990611
1.00518 0.99528 0.990449
1.00518 0.996275 0.989372
1.0052 0.995243 0.990448
1.00394 1.00256 0.98562
1.00515 0.995699 0.989791
1.00516 1.00199 0.984006
1.00513 1.00103 0.984716
1.00517 0.99886 0.986734
1.00516 0.997002 0.988854
1.00016 1.0028 0.991666
1.0004 1.00505 0.988935
1.00362 1.00266 0.985949
1.00118 1.00506 0.987798
1.00324 1.00332 0.986586
0.999962 0.999208 0.995572
1.00526 0.999627 0.986128
1.00014 1.00349 0.991058
1.00095 1.0048 0.988253
1.0008 1.00487 0.988378
1.00525 1.00037 0.98536
1.0052 0.999056 0.986697
1.00377 1.00284 0.985575
1.00513 1.00124 0.984698
1.0052 1.00035 0.985501
1.0052 1.00061 0.985278
1.00011 0.998779 0.995804
1.00025 1.00215 0.992231
1.00223 1.0041 0.986995
1.00028 1.00476 0.989576
1.00161 1.00395 0.987992
1.00521 0.998443 0.987328
1.0052 0.999618 0.986105
1.00516 0.998012 0.987614
1.00448 1.00175 0.985411
1.00516 0.999711 0.986073
1.00484 1.00157 0.98481
1.00034 1.00128 0.993019
1.00031 1.0037 0.990815
1.00326 1.00242 0.986722
1.00065 1.00504 0.989152
1.00222 1.00259 0.988625
1.00518 0.997305 0.98841
1.00515 0.998771 0.986867
1.00518 0.997195 0.988074
1.00399 1.00129 0.985915
1.00491 1.00045 0.985399
1.00031 1.00088 0.993399
1.00033 1.00216 0.992039
1.00021 1.00233 0.992063
1.0004 1.00271 0.991643
1.00022 1.00234 0.992143
1.00009 1.00088 0.993778
1.00016 1.00082 0.9937
1.00018 0.998342 0.996624
1.00024 1.00084 0.993555
1.00019 0.998411 0.996577
1.00004 0.997087 0.997884
1.00016 0.998538 0.996516
0.999909 0.997275 0.998463
0.999806 0.997417 0.999066
0.999855 0.999463 0.995484
0.999861 1.00033 0.994646
0.999698 0.99813 0.998889
0.999786 0.99874 0.998542
0.999989 1.00106 0.993769
0.999894 0.999369 0.998208
1.00527 0.999235 0.986554
1.00527 0.998593 0.987265
1.00524 0.997234 0.988624
1.00522 0.996026 0.98994
1.0052 0.998237 0.987744
1.00456 0.999548 0.987409
1.0052 0.998223 0.987771
1.00523 0.995812 0.990191
1.00524 0.996611 0.989283
1.00521 0.995019 0.990835
1.00523 0.997847 0.98797
1.0052 0.995567 0.990126
1.00523 0.995815 0.990209
1.00523 0.995038 0.990849
1.0052 0.995077 0.990683
1.00519 0.994936 0.990924
1.00519 0.996477 0.989267
1.00519 0.995034 0.990548
1.0052 0.998306 0.987703
1.00526 0.998619 0.987406
1.00525 0.996048 0.989897
1.0052 0.997478 0.98841
1.00201 1.00418 0.987225
1.00469 1.00175 0.984958
1.00517 1.00129 0.9844
1.00522 0.998397 0.987348
1.0052 0.995559 0.990175
1.00516 0.997141 0.988593
1.00518 0.999414 0.986261
1.00516 0.996859 0.988945
1.00252 1.00387 0.986672
1.00231 1.00382 0.986624
1.00037 1.00356 0.990644
1.00058 1.00506 0.988363
1.00524 0.996015 0.989953
1.00522 0.997016 0.988899
1.0052 0.995124 0.990786
1.00519 0.995291 0.990435
1.00367 1.00296 0.985597
1.00502 1.00198 0.983993
1.00514 1.00097 0.984695
1.00518 0.996493 0.989171
1.00519 0.995129 0.990524
1.00515 0.998907 0.986705
1.00516 0.995722 0.989784
1.00515 0.996731 0.989004
1.00376 1.00255 0.985952
1.00311 1.00315 0.98663
1.00117 1.00506 0.987794
1.00016 1.00278 0.991619
1.00028 1.00497 0.989052
1.00522 0.994944 0.990964
1.00516 0.995144 0.990771
1.00521 0.994936 0.990637
1.00518 0.995184 0.990361
1.00466 1.00221 0.984784
1.00518 0.995488 0.990079
1.00511 1.0023 0.983586
1.0051 1.00075 0.98489
1.00513 0.998738 0.986809
0.999983 1.00176 0.992765
1.00011 1.00467 0.990025
1.00075 1.00504 0.98868
1.00441 1.00217 0.985565
1.00146 1.00506 0.987034
1.00355 1.00278 0.985821
1.00011 0.998756 0.995824
1.00019 1.00221 0.992256
1.00521 0.998436 0.987318
1.00003 1.00481 0.989568
1.00207 1.00432 0.986996
1.00141 1.0039 0.987985
1.0052 0.99961 0.986095
1.00516 0.997983 0.987591
1.00461 1.00162 0.985428
1.00506 1.00162 0.984805
1.00516 0.99975 0.985929
1.00031 1.00125 0.993033
1.00013 1.00383 0.990817
1.00343 1.00244 0.986549
1.00042 1.00504 0.989134
1.0021 1.00238 0.98876
1.00518 0.997286 0.988397
1.00515 0.998784 0.986844
1.00518 0.997237 0.988099
1.00434 1.00122 0.985788
1.00496 1.00058 0.985389
1.00033 1.00264 0.991728
0.999752 1.00468 0.990252
1.00392 1.0006 0.987194
1.00063 1.00428 0.989408
1.00296 1.00079 0.988817
1.00518 0.995981 0.989412
1.00516 0.998724 0.986777
1.00517 0.997237 0.987912
1.00435 1.00091 0.985949
1.00494 1.00041 0.985476
1.00032 1.00086 0.993397
1.00033 1.00218 0.992059
1.00012 1.00273 0.991782
1.00013 1.00241 0.992025
1.00016 1.00242 0.992134
1.0002 1.00286 0.991634
1.00015 1.00274 0.99191
1.00009 1.00322 0.991301
1.00011 1.00248 0.992191
1.00004 1.00102 0.993742
1.00008 1.00088 0.993778
1.00014 0.99837 0.99666
1.00015 1.00081 0.993702
1.00019 0.998363 0.996629
1.00009 0.996969 0.997913
1.0002 0.998422 0.996587
1.00003 0.997066 0.99789
0.999856 0.997244 0.999096
0.999908 0.998834 0.996046
0.99984 0.999573 0.99544
0.999692 0.997738 0.999049
0.999883 1.0004 0.994618
0.999741 0.998261 0.998807
0.999836 0.998848 0.998461
1.00523 0.997836 0.987951
1.00523 0.996611 0.989282
1.0052 0.995536 0.990196
1.00521 0.994951 0.9909
1.00523 0.995783 0.990207
1.0052 0.998226 0.987773
1.00523 0.995852 0.990156
1.00523 0.995041 0.990852
1.0052 0.995057 0.990748
1.00519 0.994935 0.990894
1.00519 0.996477 0.98927
1.00518 0.994992 0.990604
1.00524 0.994954 0.990975
1.0052 0.994948 0.990941
1.00521 0.994927 0.990776
1.0052 0.995298 0.990249
1.00525 0.996024 0.989945
1.00522 0.997113 0.988792
1.00519 0.994949 0.990961
1.00519 0.995305 0.990421
1.00352 1.00322 0.985574
1.00499 1.00198 0.98398
1.00514 1.00096 0.984675
1.00517 0.996711 0.98897
1.00519 0.995017 0.990599
1.00517 0.995743 0.989777
1.00514 0.998943 0.986676
1.00516 0.996446 0.989153
1.00378 1.00249 0.985954
1.0031 1.00275 0.986673
1.00111 1.00505 0.987789
1.00018 1.0027 0.991577
1.00026 1.00487 0.989172
1.00522 0.99494 0.990961
1.00516 0.995222 0.990673
1.0052 0.994937 0.990648
1.00445 1.00245 0.984776
1.00491 1.00233 0.983609
1.00508 1.0007 0.984884
1.00517 0.995244 0.990319
1.00515 0.998459 0.987141
1.00515 0.995547 0.989952
1.00003 1.00158 0.992933
1.00433 1.00198 0.985493
1.00311 1.00245 0.986841
1.00166 1.00508 0.987044
1.00074 1.00505 0.988807
1.00011 1.00461 0.989943
1.00518 0.994937 0.990976
1.0052 0.994928 0.990733
1.00519 0.994909 0.990618
1.00514 0.994997 0.990576
1.00508 1.00241 0.984163
1.00512 0.996633 0.988817
1.00488 1.00237 0.98353
1.00501 1.00113 0.984622
1.00008 1.00048 0.993947
0.99998 1.00348 0.991404
1.00033 1.00503 0.989461
1.00128 1.00504 0.987668
1.00442 1.00274 0.984295
1.00309 1.00414 0.985468
1.00028 1.00123 0.993047
0.999974 1.00393 0.99082
1.00518 0.997268 0.988384
1.00016 1.00505 0.989117
1.00365 1.00243 0.986374
1.00172 1.00234 0.9889
1.00514 0.998796 0.986821
1.00518 0.99729 0.988122
1.00464 1.00119 0.985659
1.00501 1.00069 0.98538
1.00025 1.00271 0.991736
0.999898 1.00472 0.990131
1.0043 1.00053 0.987087
1.00038 1.00453 0.98945
1.00281 1.00055 0.989172
1.00518 0.995958 0.989558
1.00516 0.998656 0.986908
1.00517 0.997367 0.987893
1.00441 1.00106 0.985887
1.00497 1.00052 0.985259
0.999808 1.00334 0.991411
0.999796 1.00504 0.989577
1.00417 0.999757 0.987457
1.00181 1.00199 0.988845
1.00523 0.995023 0.990115
1.00516 0.996503 0.989221
1.00501 0.99953 0.986005
1.00473 1.00038 0.985546
1.00036 1.00215 0.992079
1.00018 1.00272 0.991779
0.999804 1.00305 0.992308
1.0001 1.00253 0.992124
1.00001 1.003 0.991625
1.00008 1.00252 0.992182
1.00003 1.00273 0.99205
1.00013 1.00324 0.991309
0.999981 1.00198 0.992932
1.00004 1.00349 0.991284
1.00008 1.00356 0.991008
1.00009 1.00258 0.992118
0.99999 1.0012 0.993591
1.00002 1.001 0.99374
1.00008 0.998436 0.99669
1.00007 1.00087 0.993778
1.00015 0.998401 0.996663
1.00009 0.996943 0.99793
1.00019 0.998387 0.996637
1.00008 0.996947 0.997918
1.00001 0.997053 0.997891
1.00001 0.998343 0.996379
0.999913 0.998898 0.996
0.999733 0.997392 0.999145
0.999824 0.999684 0.995394
0.999716 0.9978 0.999008
0.999796 0.998334 0.998698
1.00519 0.996476 0.989273
1.0052 0.99504 0.990813
1.00518 0.994943 0.99066
1.00519 0.994932 0.990863
1.00523 0.995047 0.990856
1.00523 0.995876 0.990103
1.00523 0.994993 0.990914
1.00521 0.994948 0.990941
1.0052 0.994928 0.990773
1.0052 0.995235 0.990327
1.00521 0.994958 0.990978
1.00524 0.994931 0.990808
1.00525 0.994913 0.990584
1.00522 0.994936 0.990959
1.00516 0.995301 0.990575
1.0052 0.99494 0.99066
1.00425 1.00267 0.984768
1.00483 1.00237 0.983627
1.00509 1.00062 0.984876
1.00517 0.995306 0.990277
1.00512 0.995536 0.989824
1.00515 0.99817 0.987474
1.00427 1.00188 0.985414
1.00262 1.00219 0.987852
1.00196 1.00509 0.987054
1.00007 1.00143 0.993102
1.00054 1.00506 0.988932
1.00007 1.0046 0.989858
1.00519 0.994934 0.990978
1.0052 0.994922 0.990726
1.00518 0.994909 0.990628
1.00469 1.0026 0.984195
1.00491 1.00236 0.98343
1.00501 1.0009 0.98495
1.00515 0.994956 0.990529
1.0051 0.996619 0.988745
1.00009 1.00042 0.994128
0.999984 1.00347 0.991397
1.00411 1.00242 0.984665
1.0028 1.00416 0.98623
1.0012 1.00503 0.987933
1.00028 1.00503 0.989399
1.00521 0.994929 0.990848
1.00523 0.994896 0.990506
1.00516 0.994898 0.990622
1.00509 0.99495 0.99036
1.00482 1.00323 0.982807
1.00492 0.999775 0.986031
1.00483 1.00299 0.983279
1.00023 0.999875 0.994557
1.00028 1.00102 0.993382
1 1.00194 0.992751
1.00004 1.00449 0.99025
1.00052 1.00503 0.988702
1.001 1.00471 0.987511
1.00389 1.00266 0.984927
1.00308 1.00391 0.986895
1.00015 1.00283 0.991745
1.00002 1.0048 0.990009
1.00519 0.995933 0.989703
1.00045 1.00456 0.989487
1.00468 1.0005 0.986982
1.00262 1.00037 0.989522
1.00516 0.998569 0.987041
1.00518 0.997469 0.987877
1.00455 1.00117 0.985828
1.00496 1.0006 0.985042
0.999896 1.00343 0.991287
0.99995 1.00504 0.98961
1.00443 0.999789 0.987536
1.00207 1.00217 0.988934
1.00524 0.995028 0.990189
1.00516 0.996469 0.989066
1.00503 0.999467 0.986068
1.00485 1.00048 0.985412
0.999746 1.00393 0.99098
1.00526 0.994882 0.99033
1.00145 1.00432 0.988642
1.00412 1.0002 0.987365
1.0052 0.995404 0.99023
1.00507 0.998284 0.986198
1.00479 1.00141 0.984898
1.0002 1.00275 0.991776
0.999765 1.00298 0.992246
0.999378 1.0027 0.993464
1.00008 1.0025 0.992174
1.00015 1.00327 0.991318
0.999657 1.00296 0.992188
1.00008 1.00258 0.992106
1 1.00361 0.991034
0.999624 1.00218 0.9931
1.00016 1.00335 0.991271
0.999918 1.00108 0.994332
0.999783 1.00278 0.992406
1.00013 1.00433 0.990278
1.0003 1.00357 0.990723
1.00008 1.00285 0.991843
0.999942 1.00149 0.993383
0.999957 1.00128 0.993579
1.00002 0.998593 0.996683
1 1.00104 0.993737
1.00009 0.998485 0.996686
1.00005 0.996953 0.997964
1.00015 0.998432 0.996668
1.00009 0.996918 0.997932
1.00007 0.996927 0.997919
1.00019 0.999978 0.994553
1.00009 0.99806 0.996537
1.00001 0.998387 0.996355
0.999819 0.997069 0.9992
0.999914 0.998972 0.995955
0.999747 0.997464 0.999121
0.999746 0.997894 0.998968
1.0052 0.995179 0.990405
1.00519 0.99493 0.99077
1.00521 0.994948 0.990941
1.00523 0.995045 0.990853
1.00521 0.994959 0.990969
1.00523 0.994934 0.990819
1.00524 0.994912 0.99055
1.00522 0.994945 0.990866
1.00529 0.994923 0.990626
1.00529 0.99492 0.991078
1.00519 0.994931 0.990979
1.00519 0.994915 0.990719
1.00518 0.994905 0.990637
1.00415 1.00278 0.984229
1.00505 1.00243 0.98334
1.00493 1.00072 0.985279
1.00515 0.994941 0.990482
1.0051 0.996686 0.988674
1.00399 1.00243 0.985044
1.00257 1.00421 0.986992
1.00095 1.00501 0.988198
1.00009 1.00029 0.99431
1.00009 1.0034 0.991392
1.0003 1.00504 0.989333
1.00521 0.994931 0.990838
1.00019 0.999913 0.994552
1.00023 1.00108 0.993291
1.00523 0.994901 0.990521
1.00515 0.994894 0.990631
1.00489 1.00323 0.982884
1.00478 1.0028 0.983386
1.00491 0.999636 0.985954
1.00509 0.995103 0.990288
1.00004 1.00189 0.992937
1.00009 1.00447 0.990216
1.00413 1.00317 0.984528
1.00228 1.00377 0.98763
1.00116 1.00477 0.987782
1.00053 1.00503 0.988792
1.00527 0.994927 0.990604
1.00522 0.994817 0.990532
1.00511 0.994891 0.990325
1.00476 0.99543 0.99017
1.00435 1.0037 0.983273
1.00428 1.00323 0.984005
1.00008 1.00147 0.993021
1.00027 1.00095 0.993446
1.00058 1.00127 0.992797
1.0003 1.00281 0.991381
1.00016 1.00491 0.989678
1.00169 1.00431 0.987979
1.00022 1.00516 0.988156
1.0032 1.00092 0.987169
0.999999 1.00347 0.991164
1.00019 1.00503 0.989645
1.00524 0.995029 0.990263
1.00515 0.996474 0.988913
1.00234 1.00235 0.989024
1.00466 0.999792 0.987615
1.00503 0.99943 0.986127
1.00505 1.0006 0.985276
0.999936 1.00389 0.990915
1.00527 0.994882 0.990509
1.00122 1.00435 0.988666
1.00429 1.00026 0.987077
1.0052 0.99538 0.990245
1.00506 0.998435 0.986468
1.00475 1.00132 0.984946
1.0001 1.0046 0.990312
1.00461 0.994894 0.99143
1.00282 1.00272 0.987879
1.00438 1.00133 0.985837
1.00487 0.996852 0.989333
1.00359 1.00171 0.98563
0.998535 0.997881 0.988493
0.999662 1.00301 0.992186
0.999109 1.00287 0.993439
0.999639 1.00234 0.993705
1.00003 1.00263 0.992094
0.999972 1.00368 0.991059
1.00037 1.00312 0.991259
0.99941 1.00221 0.99327
1.00006 1.00287 0.991842
1.00022 1.00367 0.990722
0.999841 1.00117 0.994117
1.00011 1.00435 0.990294
0.999961 1.0027 0.992209
0.999553 1.00174 0.994159
1.00037 1.00465 0.989665
1.00015 1.00438 0.990284
1.00044 1.00381 0.990287
1.00011 1.00313 0.991351
1.00025 1.00383 0.990794
1.00011 1.00322 0.99121
0.999947 1.00155 0.993303
0.999958 1.00147 0.993371
0.999954 0.998722 0.996089
0.999969 1.00126 0.993564
1.00001 0.998652 0.996371
1.00002 0.997045 0.999127
1.00009 0.998532 0.996683
1.00007 0.996919 0.997967
1.00009 0.996894 0.99793
1.00011 0.999986 0.994611
1.00021 0.999898 0.994568
1.0001 0.997975 0.996641
1.00007 0.998078 0.996796
0.999893 0.996895 0.999233
1.00001 0.998425 0.996332
0.999813 0.997165 0.999187
0.999762 0.997513 0.999098
1.00523 0.99491 0.990516
1.00523 0.994935 0.99083
1.00521 0.994959 0.990961
1.00523 0.994945 0.990866
1.00528 0.994922 0.99063
1.00529 0.994921 0.990708
1.00531 0.994921 0.990653
1.00123 0.994875 0.984736
1.00445 0.994881 0.992975
1.00001 1.00143 0.993352
1.00521 0.994931 0.990827
1.00523 0.994904 0.990535
1.00514 0.994889 0.99064
1.00453 1.00312 0.982953
1.00494 1.0027 0.983492
1.00497 0.999575 0.985883
1.00509 0.995254 0.990214
1.00468 1.00313 0.984129
1.0014 1.00365 0.988361
1.0013 1.00482 0.988056
1.00014 1.00001 0.994548
1.00058 1.00503 0.988883
1.00001 1.00184 0.993117
1.00021 1.00442 0.990183
1.00022 1.00105 0.9932
1.00526 0.994912 0.990602
1.0001 1.00142 0.99313
1.00018 1.00109 0.993448
1.0005 1.00126 0.99284
1.00523 0.99484 0.990501
1.00512 0.99489 0.990349
1.00417 1.00388 0.983345
1.00443 1.00238 0.984623
1.00471 0.99597 0.990057
1.00004 1.003 0.991532
1.00032 1.00483 0.98954
1.00311 1.00216 0.98697
1.00086 1.00494 0.988134
1.00147 1.00413 0.988128
1.00524 0.994901 0.990786
1.00513 0.994798 0.990771
1.00506 0.995268 0.989935
1.00451 0.997899 0.989341
1.00225 1.00363 0.987207
0.999949 1.00254 0.992158
1.00061 1.00129 0.992344
0.999936 1.00219 0.992342
1.00002 1.00437 0.991163
1.00023 1.00475 0.989704
1.00032 1.00456 0.988876
1.0014 1.00239 0.988885
1.00021 1.00379 0.990848
1.00085 1.00439 0.988687
1.00528 0.994868 0.990679
1.0052 0.99533 0.990255
1.00506 0.998612 0.986738
1.00439 1.00029 0.986789
1.00471 1.00115 0.984997
1.0003 1.00451 0.990362
1.00457 0.994937 0.991589
1.00278 1.00256 0.987693
1.00435 1.00128 0.985816
1.00496 0.996165 0.989606
1.00376 1.0019 0.985665
0.998552 0.997924 0.986386
1.00048 1.00429 0.990038
1.00254 0.999097 0.991025
1.00304 1.00171 0.987514
1.00261 1.00152 0.987425
1.00328 0.997765 0.990161
1.00002 0.994915 0.950051
0.996811 0.994862 0.968983
0.996114 1.00121 0.988467
0.999823 0.995146 0.882479
0.994702 0.994784 0.852103
0.99888 1.00307 0.993418
0.999026 1.00277 0.993949
0.999234 1.00297 0.993771
1.00004 1.00288 0.991842
1.0003 1.00353 0.990719
1.00011 1.00435 0.990309
1.00015 1.00259 0.992008
0.999737 1.00126 0.993903
1.00022 1.00427 0.990226
1.0001 1.00313 0.991432
1.0004 1.00381 0.990336
0.999699 1.00141 0.993894
1.00023 1.00457 0.989924
1.00024 1.00466 0.990004
0.99959 1.00458 0.99072
1.00012 1.00467 0.990028
1.00041 1.00395 0.990092
1.00018 1.00312 0.991245
1.0003 1.00408 0.990289
1.00014 1.00407 0.990687
1.00001 1.00388 0.990917
1.00018 1.0039 0.990712
1.00015 1.00304 0.991549
1.00013 1.00322 0.991205
0.999989 1.00149 0.993303
0.999964 1.00154 0.993305
0.999941 0.998805 0.99607
0.999944 1.00152 0.99336
0.99995 0.998749 0.996082
0.999991 0.997036 0.999142
1.00001 0.998719 0.996059
1.00002 0.997036 0.998538
1.00008 0.996887 0.997968
1.00003 1 0.994732
1.00013 0.999977 0.994615
1.0001 0.997883 0.996734
1.00023 0.999828 0.994583
1.00009 0.99792 0.996901
0.999938 0.996725 0.999265
1.00007 0.998137 0.996515
0.999881 0.996959 0.999219
0.999813 0.997215 0.999174
1.00527 0.99492 0.990634
1.00523 0.994946 0.990866
1.00528 0.994925 0.990346
1.00086 0.994888 0.98486
1.0053 0.994918 0.990656
1.00429 0.995235 0.992588
1.00504 0.996291 0.991239
0.996455 0.994894 0.968243
1.00043 0.996789 0.987056
1.00005 1.00137 0.993374
1.00008 1.00138 0.993334
0.999891 1.00258 0.992378
0.999901 1.00226 0.992689
1.00526 0.994906 0.990599
1.00524 0.994865 0.99047
1.00513 0.994889 0.990373
1.00478 1.00373 0.983411
1.00434 1.00106 0.985234
1.00463 0.996487 0.98994
1.00267 1.00349 0.986783
1.00169 1.00474 0.988112
1.00128 1.00383 0.988277
1.00007 1.0013 0.99345
1.0003 1.00488 0.989401
1.00006 1.00311 0.991684
1.00011 1.00143 0.993239
1.00037 1.00127 0.992874
1.00524 0.994884 0.990792
1.00004 1.00255 0.992193
1.00065 1.0013 0.992521
0.999487 1.00206 0.993279
1.00513 0.994808 0.990669
1.00498 0.995314 0.989948
1.00299 1.00266 0.987142
1.00417 0.997449 0.989803
1.00017 1.00395 0.990902
1.00035 1.00486 0.989145
1.00158 1.0034 0.988738
1.00128 1.00425 0.988611
1.00445 0.99481 0.991748
1.005 0.995356 0.990798
1.00494 0.99602 0.989693
1.00232 0.998998 0.991873
0.999538 1.00359 0.991865
1.00031 1.00238 0.991673
0.998894 1.00445 0.992032
0.999316 1.00509 0.99014
1 0.994906 0.939933
1.00041 1.00437 0.99041
1.00266 1.00253 0.987505
1.00446 0.994889 0.991762
1.00504 0.995633 0.989875
1.00385 1.00205 0.985686
1.00427 1.00133 0.985788
0.998675 0.997457 0.984197
1.00039 1.00418 0.990317
1.0026 0.998131 0.991045
1.00294 1.00198 0.987538
1.00325 1.00119 0.987422
1.00361 0.997843 0.989978
1.00087 0.994911 0.938869
0.996837 0.99486 0.96476
0.996272 1.00195 0.988445
0.999734 0.994815 0.886551
0.994708 0.99479 0.841191
1.00022 1.00402 0.990838
0.9998 0.994879 0.893536
0.9947 0.994797 0.849132
1.00114 1.00011 0.991458
1.0016 1.0016 0.989887
1.00155 1.00014 0.991282
0.995717 1.00208 0.989646
1.00027 0.99548 0.946199
0.994909 0.995011 0.962226
0.997316 0.996996 0.896178
0.994746 0.994802 0.842662
0.998556 1.00307 0.994191
0.999031 1.00283 0.993647
0.999219 1.00378 0.992945
1.00013 1.00308 0.991512
1.00037 1.00385 0.990385
0.999957 1.00451 0.99017
1.00007 1.00452 0.990183
0.999883 1.00106 0.993629
1.00017 1.00314 0.991245
1.00006 1.00483 0.990005
1.0001 1.0047 0.990006
1.0005 1.00382 0.990186
0.999532 1.00461 0.990893
0.999726 1.00507 0.990496
0.998724 1.00492 0.991579
1.00032 1.0044 0.989941
1.00039 1.00392 0.990315
1.00035 1.00403 0.990276
1.00006 1.00405 0.99078
1.00037 1.00431 0.989953
0.99984 1.00425 0.990846
0.999573 1.00406 0.991044
0.999811 1.00493 0.990113
0.999871 1.0043 0.990707
1.00008 1.0038 0.990914
1.00009 1.00296 0.991704
1.00012 1.00393 0.990631
1.00016 1.00303 0.991479
1.00004 1.00152 0.993221
1.00018 1.0032 0.9912
0.999972 1.00152 0.993309
1.00002 0.998744 0.996612
0.999946 1.00156 0.993306
0.999956 0.998764 0.996362
0.999995 0.997046 0.99797
0.999944 0.998766 0.996076
0.99999 0.997048 0.999145
1.00003 0.997042 0.997948
1.00011 1.0014 0.993216
0.999976 1.00003 0.994786
1.00004 0.999992 0.994733
1.00009 0.997863 0.996771
1.00015 0.999945 0.994618
1.00011 0.99784 0.996736
0.999977 0.996632 0.999282
1.00009 0.997909 0.997137
0.999956 0.996822 0.998742
0.999925 0.997028 0.998171
1.00049 0.995035 0.984997
1.00529 0.994921 0.99066
1.00401 0.996072 0.992192
0.996655 0.994903 0.969226
1.00041 0.996448 0.987401
1.00505 0.995792 0.991134
1.003 0.997264 0.987765
0.996564 0.996415 0.972249
1.00002 0.994894 0.947486
0.999581 0.996237 0.899505
0.994655 0.994755 0.850496
0.999837 1.00237 0.992566
1.00007 1.00135 0.993368
1.00016 1.00131 0.993316
0.999929 1.00255 0.992376
0.999641 1.00348 0.991939
1.00032 1.00224 0.991952
1.00003 1.00276 0.992201
0.99997 1.00226 0.992553
1.00524 0.99486 0.990795
1.00513 0.994822 0.990569
1.00492 0.99523 0.989962
1.00312 1.00234 0.987085
1.0039 0.99727 0.990272
1.0018 1.0043 0.988582
1.0021 1.00405 0.988347
1.00066 1.00502 0.988591
1.00043 1.00136 0.992702
1.00012 1.00399 0.990637
1.00014 1.00257 0.992234
0.99923 1.00194 0.994209
1.00443 0.994807 0.991939
0.99958 1.00356 0.99194
1.00024 1.00262 0.991971
1.00486 0.995141 0.990766
1.0048 0.995604 0.989868
1.00217 0.99897 0.991449
0.999571 1.0049 0.991076
1.0002 1.00456 0.990268
1.0032 0.994817 0.99198
1.00428 0.99709 0.990787
1.00471 0.995209 0.991023
1.00112 0.999281 0.992903
0.999848 1.00463 0.99043
0.999433 1.00416 0.991527
0.999411 1.00523 0.991125
0.999826 0.994869 0.895384
1.00035 0.994921 0.951187
1.00036 1.00409 0.990596
1.00292 1.00209 0.987568
1.00253 0.997482 0.99107
1.00401 0.998005 0.989802
1.00397 1.0008 0.987437
0.999996 0.994917 0.948642
0.996979 0.994876 0.964039
0.996349 1.00257 0.988387
0.999515 0.995418 0.899453
0.994715 0.994797 0.8298
1.00023 1.00375 0.990774
0.999829 0.994874 0.893087
0.994677 0.994795 0.843057
1.0012 1.00005 0.991509
1.00178 1.00146 0.989953
1.00169 1.00017 0.991705
0.995936 1.00227 0.990302
1.0015 0.996022 0.939276
0.994904 0.99483 0.965716
0.998033 0.998451 0.895445
0.994758 0.99479 0.841418
0.999551 1.00377 0.992677
0.994688 0.994831 0.84459
0.994758 0.994816 0.85815
0.998621 1.00142 0.994965
0.999678 1.00214 0.994081
0.995249 1.00218 0.989414
0.994883 0.996713 0.96569
0.997333 0.997332 0.935797
0.994727 0.999582 0.900505
0.994827 0.994807 0.844277
0.998963 1.00264 0.993528
0.999438 1.00353 0.992691
0.998327 1.00416 0.993086
1.00016 1.00316 0.991244
1.00053 1.00372 0.990281
1.0001 1.00468 0.989983
0.999937 1.00494 0.990006
0.999339 1.00476 0.991068
1.00037 1.00395 0.990312
0.999733 1.005 0.990363
1.00035 1.00434 0.989953
0.998441 1.005 0.991889
0.996618 1.00509 0.994595
0.999635 1.00461 0.991009
1.00051 1.00435 0.989775
1.00039 1.00399 0.990264
1.00005 1.00396 0.990872
1.00034 1.0044 0.989913
0.999913 1.00422 0.990796
0.999481 1.00396 0.991479
0.999645 1.00484 0.990416
0.9997 1.0045 0.990598
0.999059 1.00451 0.991654
1.00046 1.00239 0.991698
1.00078 1.00325 0.989498
0.999606 1.00486 0.990288
0.999939 1.00481 0.990127
0.999805 1.00469 0.990374
0.999897 1.00433 0.990698
0.999993 1.00319 0.991571
1.00008 1.00387 0.99091
1.0001 1.00297 0.991709
1.00011 1.00143 0.993141
1.00016 1.00304 0.99141
1.00004 1.00149 0.993235
1.00009 0.998752 0.996486
0.999973 1.00151 0.993316
1.00002 0.998727 0.996289
1.00004 0.996978 0.99793
0.999963 0.998742 0.99607
0.999993 0.997049 0.999143
0.999989 0.997045 0.999147
1.00015 1.00169 0.993158
0.999964 1.00016 0.994695
1.00008 1.00147 0.993225
1.00009 0.997861 0.996773
0.999975 1.00004 0.994787
1.00004 1 0.994735
1.00009 0.99785 0.996767
1 0.996574 0.999285
1.00009 0.997812 0.997214
0.999993 0.996637 0.998788
0.999974 0.996832 0.99825
0.999825 0.994866 0.883858
0.994647 0.994766 0.845073
0.997888 0.99489 0.969059
1.00047 0.995416 0.987772
1.00508 0.995078 0.991029
0.996181 0.995777 0.972928
1.00333 0.996188 0.988181
1.00116 0.99506 0.945539
0.999816 0.994987 0.886308
0.994693 0.994768 0.839827
0.998554 0.994846 0.977032
1 0.995924 0.946746
0.997705 0.997744 0.894259
0.994744 0.994777 0.844459
1.0001 1.00324 0.991524
0.999873 1.00224 0.992676
1.0001 1.00132 0.993363
0.999918 1.00255 0.992374
0.999665 1.00329 0.992085
1.00004 1.00354 0.991236
1.00024 1.0027 0.991787
1.00031 1.00323 0.990994
1.00006 1.0027 0.992093
0.999987 1.00235 0.992417
1.00445 0.994806 0.992121
1.00477 0.994918 0.990745
1.00452 0.995327 0.990039
1.00195 0.999126 0.991025
1.00084 1.00439 0.990398
0.999705 1.00513 0.990122
1.00034 1.0024 0.99228
0.999594 1.00359 0.992012
1.00299 0.995154 0.992307
0.999873 1.00466 0.99029
0.999251 1.00429 0.991446
1.00435 0.996272 0.990786
1.00462 0.99531 0.990677
1.00104 0.999256 0.993063
0.999476 1.00521 0.991001
1.00054 0.995718 0.992565
1.00261 0.996737 0.993746
1.00009 1.00154 0.993279
0.999087 1.00477 0.990229
0.999481 1.00495 0.990277
0.999242 1.00509 0.991123
0.994729 0.995111 0.864062
0.999828 0.994889 0.899712
0.999986 0.994919 0.940224
1.00004 1.00369 0.990703
1.00192 1.00136 0.99001
1.00133 1.00004 0.991559
1.00178 0.99997 0.992123
0.999837 0.994856 0.90212
0.999902 0.995352 0.938038
0.994881 0.994837 0.962443
0.995931 1.00247 0.99094
0.99731 0.99714 0.883284
0.99466 0.994806 0.846581
0.994741 0.994794 0.850457
0.999351 1.00338 0.992526
0.994693 0.994837 0.85271
0.994785 0.994818 0.857728
0.998359 1.00134 0.995201
0.999345 1.00181 0.994054
0.995303 0.999445 0.992094
0.9949 0.996492 0.964464
0.997406 0.999378 0.946347
0.996147 0.999796 0.886857
0.994816 0.9948 0.85317
0.997363 1.0034 0.995929
0.994796 0.994861 0.86645
0.994807 0.994785 0.857414
0.995332 1.00209 0.999915
0.994844 0.998914 0.972136
0.994894 0.999947 0.946979
0.995019 0.998399 0.881113
0.99487 0.994839 0.853912
0.99965 1.00313 0.992427
0.998615 1.00407 0.993416
0.99697 1.00488 0.995339
1.00032 1.00402 0.99031
1.00044 1.00423 0.989965
0.999803 1.0049 0.99023
0.998139 1.00505 0.992206
1.0004 1.00442 0.989788
0.999617 1.00459 0.990959
0.996744 1.0051 0.995037
0.995196 1.00523 0.997276
0.996987 1.00497 0.994964
1.00016 1.00416 0.990545
1.00034 1.00448 0.989873
0.999954 1.00417 0.990746
0.999326 1.00399 0.991907
0.99971 1.00449 0.990661
0.999713 1.00485 0.990443
0.999104 1.00457 0.991722
0.999618 1.00435 0.991405
0.997788 1.00485 0.993463
1.0019 0.998567 0.992576
1.00044 1.00219 0.991882
1.00087 1.00261 0.990305
1.003 1.00309 0.986578
1.00031 1.00438 0.990464
1.00042 1.00343 0.990191
0.999862 1.00475 0.990235
0.999753 1.00468 0.990218
1.00006 1.00468 0.99014
0.999915 1.00462 0.990384
1.00003 1.00359 0.99115
1.00006 1.00422 0.990689
1.0001 1.00311 0.99156
1.00016 1.00145 0.993049
1.00017 1.00287 0.991714
1.00014 1.00143 0.993147
1.00015 0.998772 0.996368
1.00005 1.00146 0.993249
1.00009 0.998754 0.996145
1.00006 0.997063 0.997817
1.00003 0.998715 0.99599
1.00002 0.997004 0.998538
0.999997 0.997026 0.999139
1.00018 1.0022 0.992339
1.00004 1.00029 0.994481
1.0001 1.00171 0.99298
1.00008 0.997921 0.996715
0.999973 1.00014 0.994697
1.00005 1.00153 0.993231
1.00002 0.996547 0.999284
1.00008 0.997864 0.996772
0.999977 1.00004 0.994789
1.0001 0.997835 0.996763
1 0.996595 0.999285
0.999977 0.996623 0.999282
0.994672 0.994806 0.849807
0.999834 0.99502 0.892693
0.994783 0.994808 0.856123
0.994675 0.994769 0.843109
0.995933 0.995541 0.970469
1.00352 0.995529 0.98863
1.00006 0.995135 0.943172
0.999819 0.995713 0.899893
0.994737 0.99478 0.828844
0.998317 0.995375 0.976345
1.00157 0.996048 0.934624
0.997984 0.99853 0.894391
0.994765 0.994778 0.838676
0.995431 0.995253 0.970244
0.997394 0.998106 0.935779
0.995032 0.999449 0.881113
0.994822 0.994817 0.84036
1.00015 1.00414 0.990865
1.00003 1.00309 0.991648
0.999876 1.00222 0.992782
0.999685 1.00312 0.992232
1.00046 1.00399 0.989976
0.999964 1.00349 0.991389
1.00003 1.00308 0.991625
1.00064 1.00294 0.990949
1.00037 1.00325 0.99107
1.00009 1.00258 0.991985
1.00287 0.994836 0.992628
1.00441 0.995361 0.990803
1.00458 0.995479 0.990332
1.00105 0.998814 0.993238
0.999966 1.00508 0.990876
0.999371 1.00447 0.99137
0.999833 1.00481 0.990149
0.99992 1.00501 0.989957
1.00025 0.995785 0.992878
0.999834 1.00494 0.990164
0.999556 1.00509 0.991079
1.00272 0.996172 0.993942
1.00071 1.00045 0.993132
0.997897 0.996785 0.993625
0.997985 0.999177 0.99943
0.998257 1.00362 0.993554
0.999965 1.00465 0.990262
0.999214 1.00495 0.991387
0.99486 0.995122 0.871425
0.994736 0.994997 0.861076
0.999816 0.994877 0.886806
0.999242 1.00294 0.99239
0.999144 1.00148 0.99401
0.998411 1.00103 0.995449
0.994671 0.99483 0.852405
0.997415 0.997736 0.936704
0.994878 0.996577 0.964876
0.995615 0.997259 0.994995
0.994796 0.999193 0.901519
0.994791 0.994819 0.857521
0.994832 0.994811 0.853555
0.99748 1.00315 0.996357
0.994801 0.994847 0.869211
0.994798 0.994783 0.857678
0.995441 1.00204 0.998862
0.994883 0.998533 0.973834
0.995611 0.999461 0.936259
0.99486 0.994837 0.85222
0.994894 0.999745 0.88884
0.995468 1.005 0.998604
0.994776 0.994824 0.872223
0.994839 0.994799 0.861451
0.994813 0.994819 0.841076
0.994989 0.999718 0.991606
0.994942 0.999164 0.950493
0.995141 0.998977 0.892737
0.999049 1.0041 0.993744
0.997502 1.00506 0.994496
0.995112 1.00517 0.998437
1.00034 1.00445 0.989802
0.999514 1.00462 0.990907
0.996766 1.00507 0.995466
0.99997 1.00433 0.990499
0.997152 1.00493 0.994969
0.995397 1.00525 0.997224
0.995149 1.00527 0.998022
0.997303 1.00474 0.994512
0.999668 1.00454 0.990729
0.999787 1.00488 0.99047
0.999177 1.00462 0.991799
0.998077 1.00485 0.993325
0.999521 1.00423 0.991319
0.99925 1.00266 0.993451
1.00062 0.999171 0.994269
1.00174 1.00114 0.989578
1.00042 1.00199 0.992069
1.00146 1.00263 0.989929
1.00369 1.00231 0.986147
1.00442 1.00179 0.985223
1.00104 1.00414 0.989044
1.00258 1.00299 0.986792
1.00017 1.00491 0.989782
1.0001 1.00439 0.990515
1.00002 1.00358 0.990883
1.0001 1.00464 0.990182
0.999788 1.00468 0.990273
1.00015 1.00379 0.99077
0.999986 1.00456 0.990394
1.00012 1.00349 0.99116
1.00017 1.00173 0.99277
1.00016 1.00309 0.991549
1.00018 1.00145 0.993037
1.00015 0.998774 0.996339
1.00016 1.00141 0.993153
1.00015 0.99876 0.996038
1.00007 0.997141 0.997751
1.00011 0.998727 0.995839
1.00004 0.99706 0.998467
1.00002 0.997028 0.999112
1.00038 1.00232 0.991694
1.00009 1.00061 0.993819
1.00022 1.00217 0.992337
1.00011 0.998006 0.996579
1.00003 1.0003 0.994336
1.0001 1.00171 0.992807
1.00003 0.996597 0.999266
1.00009 0.997905 0.996721
0.999976 1.00011 0.9947
1.00002 0.996568 0.999284
1.00007 0.99787 0.996772
1 0.996585 0.999285
0.994843 0.994834 0.864097
0.994688 0.994826 0.858772
0.999832 0.99485 0.892764
1.00078 1.00292 0.990641
0.994813 0.994802 0.864263
0.994777 0.994799 0.856005
0.994697 0.994781 0.851372
0.998592 0.995743 0.975274
0.999704 0.996269 0.945392
0.99756 0.997594 0.88142
0.994748 0.994797 0.843497
0.996641 0.994982 0.966974
0.997419 0.999087 0.945439
0.995991 0.999846 0.885017
0.994812 0.994814 0.844606
0.994888 0.995055 0.962477
0.994976 0.999414 0.944988
0.994873 0.999982 0.890655
0.994876 0.994837 0.85361
1.00005 1.00467 0.99014
1.0001 1.00414 0.990649
1.00011 1.00293 0.991772
1.00058 1.00352 0.990325
1.00035 1.00406 0.990206
0.999996 1.00348 0.991539
1.00068 1.00298 0.990948
1.00039 1.00329 0.991142
0.999562 0.996729 0.993075
1.00291 0.995691 0.994084
1.00012 1.00506 0.989682
1.0012 0.999977 0.992978
0.999817 1.00511 0.991033
0.999999 1.00503 0.990053
0.999816 1.00468 0.990209
0.997009 0.996628 0.994328
0.999387 1.00462 0.991613
0.998876 1.00339 0.993656
0.99783 0.999107 0.999591
0.9999 1.00474 0.990632
0.995894 0.999852 0.99091
0.995223 1.00353 0.999568
0.997087 1.00486 0.994424
0.999347 1.00423 0.992079
0.99477 0.994793 0.877824
0.994851 0.994963 0.870439
0.994744 0.994864 0.858061
0.997489 1.00312 0.996807
0.995317 1.00159 0.997805
0.994813 0.994838 0.87185
0.994888 0.999944 0.946975
0.994874 0.998222 0.971214
0.994835 0.999832 0.888133
0.994798 0.99478 0.857858
0.994849 0.994839 0.850544
0.995696 1.00485 0.99829
0.994778 0.994824 0.872052
0.994835 0.994795 0.86441
0.994858 1.00048 0.995088
0.994801 0.994818 0.84513
0.994921 0.998146 0.944108
0.995054 0.999323 0.896239
0.994925 1.00399 0.998304
0.994794 0.994835 0.876278
0.994793 0.9948 0.86491
0.994737 0.994778 0.845062
0.99526 0.999985 0.890373
0.994906 1.00013 0.979363
0.995089 0.999205 0.936898
0.998184 1.00508 0.993663
0.995491 1.00518 0.998035
0.994932 1.00513 0.998971
0.999809 1.0044 0.990452
0.997248 1.00501 0.994978
0.995741 1.00527 0.997187
0.997467 1.00467 0.99445
0.995264 1.00489 0.998037
0.997654 1.00232 0.997344
0.998346 1.00478 0.993181
0.999351 1.00422 0.991237
0.999289 1.00281 0.993706
0.998962 1.00321 0.992235
0.999342 0.99972 0.995919
1.00168 1.0008 0.990366
1.0039 1.0026 0.985114
1.00489 1.00175 0.984382
1.00203 1.00264 0.98954
1.0039 1.00244 0.985436
1.00515 1.00094 0.985348
1.00299 1.00261 0.986809
1.00425 1.00188 0.985408
1.00023 1.00509 0.989114
1.00112 1.00415 0.988956
1.00212 1.00289 0.987006
1.00014 1.00423 0.990233
0.999967 1.00494 0.989907
0.999918 1.00439 0.990567
0.999839 1.00469 0.990329
1.0002 1.00372 0.99078
1.00023 1.00207 0.992306
1.0002 1.00342 0.991171
1.00017 1.00174 0.992761
1.00012 0.998921 0.995628
1.00021 1.00148 0.993025
1.00017 0.998773 0.995692
0.999969 0.997157 0.999052
1.00016 0.998762 0.995721
1.00004 0.997138 0.998405
1.00003 0.997084 0.999068
1.00039 1.00249 0.991471
1.00022 1.00093 0.993294
1.00034 1.00237 0.991814
1.00015 0.998151 0.996373
1.00013 1.00061 0.993754
1.00022 1.00218 0.992333
1.00005 0.996635 0.999235
1.00011 0.997985 0.996591
1.00004 1.0003 0.994191
1.00004 0.99657 0.999272
1.00009 0.997888 0.996727
1.00002 0.996588 0.999285
0.994775 0.994832 0.875099
0.994835 0.994904 0.86411
0.994681 0.994942 0.858883
1.00068 1.00296 0.990765
1.0006 1.00318 0.99053
1.00076 1.00303 0.990708
0.994853 0.994796 0.860856
0.994814 0.994793 0.864452
0.994769 0.994787 0.855898
0.99671 0.99487 0.968836
0.99778 0.997942 0.934461
0.994866 0.999946 0.900283
0.994829 0.994824 0.840084
0.99492 0.995451 0.965964
0.995556 0.999936 0.941371
0.994822 0.999498 0.888987
0.994869 0.994833 0.851784
0.994991 0.99582 0.962066
0.994871 0.998952 0.946794
0.995249 0.999352 0.892334
0.994847 0.994812 0.844381
1.00027 1.00384 0.990435
1.00023 1.00449 0.989958
1.0003 1.00398 0.990433
1.00065 1.00343 0.990286
1.00017 1.00415 0.990441
1.00069 1.00304 0.990947
0.996333 0.996711 0.995031
0.997444 0.999062 0.999807
0.999946 1.00445 0.990155
0.999404 1.00258 0.993752
0.999371 1.00457 0.991837
0.999711 1.00473 0.99058
0.998992 1.00439 0.992213
0.995527 0.999864 0.990955
0.997094 1.00504 0.995076
0.995682 1.00312 0.998797
0.999065 1.00424 0.992469
0.995417 1.00133 0.988028
0.995727 1.00381 0.996749
0.997029 1.00486 0.995561
0.994789 0.9948 0.879938
0.994764 0.994796 0.878207
0.994844 0.994822 0.86945
0.995771 1.00461 0.997944
0.994811 1.00068 0.99161
0.994782 0.994825 0.87189
0.994844 0.999148 0.944751
0.995116 0.998969 0.88334
0.994831 0.994795 0.867355
0.994822 0.994833 0.84085
0.994993 1.00382 0.998829
0.994793 0.994837 0.877482
0.994802 0.994799 0.865101
0.994911 0.999754 0.976425
0.994762 0.994784 0.839492
0.995014 0.999972 0.888049
0.994931 0.998936 0.948569
0.995061 1.00501 0.993143
0.994777 0.994839 0.875317
0.994784 0.99482 0.857064
0.994654 0.994759 0.851586
0.995432 0.998639 0.880925
0.995297 0.999908 0.945243
0.994919 1.0006 0.970396
0.995905 1.00522 0.997629
0.995204 1.00453 0.99894
0.997113 1.0023 0.998191
0.997628 1.00466 0.994391
0.995488 1.00455 0.998028
0.996487 1.00373 0.997389
0.999343 0.997565 0.99917
0.99935 1.00295 0.993956
1.00085 1.00232 0.991742
1.00241 1.00348 0.987344
1.00155 1.00055 0.991203
1.00385 1.00252 0.985433
1.00431 1.00392 0.983229
1.00485 1.00182 0.984106
1.00498 1.00153 0.984551
1.00486 1.00186 0.984232
1.00427 1.00251 0.984729
1.00478 1.00095 0.986383
1.00508 1.00095 0.985204
1.00151 1.00389 0.9877
1.00299 1.00269 0.987018
1.00413 1.00199 0.985591
1.00015 1.00483 0.989323
1.00049 1.00507 0.989067
1.00116 1.00416 0.988866
1.00028 1.00267 0.991709
1.00031 1.00414 0.990233
0.999783 1.00496 0.990031
1.00028 1.00361 0.990791
1.00028 1.00205 0.992302
1.00007 0.999175 0.99547
1.00021 1.00171 0.992752
1.00013 0.998931 0.995614
0.999946 0.997279 0.999032
1.00018 0.998783 0.995685
1.00001 0.997181 0.998396
1.00002 0.997147 0.999045
1.00041 1.0029 0.991277
1.00032 1.00115 0.993109
1.00045 1.00244 0.991542
1.00019 0.99834 0.9961
1.00022 1.00093 0.993378
1.00034 1.00239 0.991936
1.00006 0.996726 0.999189
1.00015 0.998122 0.99639
1.00015 1.0006 0.993689
1.00005 0.996635 0.999245
1.00011 0.997967 0.996604
1.00004 0.99658 0.999279
0.9948 0.994833 0.875875
0.994781 0.994839 0.874926
0.994826 0.994864 0.86423
1.00041 1.0041 0.989866
1.00097 1.00401 0.989525
1.00058 1.00302 0.990892
1.00052 1.00337 0.990468
1.00052 1.00315 0.990748
1.00037 1.00352 0.990609
1.0004 1.00315 0.990976
0.994818 0.994787 0.856917
0.994847 0.994797 0.863889
0.994813 0.994793 0.864652
0.994857 0.99483 0.850021
0.994933 0.995669 0.962865
0.994882 0.999937 0.937528
0.994878 0.998672 0.899296
0.994915 0.996549 0.961047
0.994879 0.999547 0.936272
0.994961 0.999059 0.896415
0.994826 0.994802 0.853334
0.996092 0.996353 0.964504
0.994909 0.999713 0.937069
0.99508 0.998955 0.881591
0.994778 0.994799 0.842633
0.999155 1.00485 0.991529
1.00012 1.00407 0.990512
1.00029 1.00461 0.989775
1.00071 1.00346 0.990249
0.995188 1.00006 0.991238
0.995822 1.00344 0.997946
0.999604 1.00498 0.99053
0.998949 1.00428 0.992347
0.997234 1.00508 0.99571
0.999091 1.00406 0.992419
0.996973 1.00487 0.995546
0.995974 1.00196 0.984971
0.994876 1.00478 0.99738
0.996886 1.00444 0.995861
0.99474 1.00135 0.985641
0.996078 1.00371 0.998435
0.994769 0.994798 0.877962
0.994795 0.994802 0.882755
0.994753 0.994801 0.878583
0.994907 1.00367 0.999295
0.994937 0.998631 0.98011
0.994788 0.994832 0.878732
0.995576 0.99857 0.937657
0.995007 0.999124 0.898645
0.994809 0.994793 0.865286
0.994749 0.994804 0.844236
0.994914 1.0042 0.99389
0.994784 0.994831 0.87516
0.994771 0.994807 0.856957
0.994917 1.00061 0.97083
0.994692 0.994763 0.84109
0.996003 0.999916 0.884398
0.994975 0.999783 0.93559
0.995472 1.00454 0.987824
0.994828 0.994834 0.864598
0.994651 0.994772 0.846274
0.9981 0.996595 0.895014
0.994875 0.999918 0.944767
0.994964 0.999997 0.963733
0.995286 1.00412 0.999177
0.996218 1.00311 0.998299
0.996852 0.999451 1.00072
0.995392 1.00501 0.997423
0.997836 0.998815 0.999335
1.00197 0.998383 0.9939
1.00274 1.00132 0.991249
1.00292 1.00317 0.987084
1.00329 1.00425 0.984232
1.00365 1.00251 0.985753
1.0045 1.00383 0.983026
1.00425 1.00454 0.982688
1.00498 1.00101 0.984815
1.00503 1.00114 0.984712
1.00482 1.00201 0.984059
1.00492 1.0012 0.985265
1.00495 1.00139 0.98467
1.00478 1.00207 0.984081
1.00372 1.00234 0.986287
1.00449 1.00091 0.986257
1.005 1.00094 0.985063
1.00084 1.00504 0.988162
1.00153 1.00411 0.987903
1.00301 1.00273 0.987231
1.00022 1.0036 0.990729
1.00039 1.0048 0.989344
1.00071 1.00506 0.98902
1.00001 0.999471 0.995265
1.00032 1.00257 0.9917
1.00043 1.00409 0.990234
1.00029 1.00204 0.992298
1.00007 0.999201 0.99545
0.999882 0.997475 0.999002
1.00015 0.998936 0.995601
0.999942 0.997309 0.999025
0.999989 0.997185 0.99904
1.00022 1.00482 0.98965
1.00054 1.0033 0.99069
1.00036 1.00156 0.992642
1.00044 1.00284 0.991267
1.00021 0.998605 0.995807
1.00031 1.00118 0.993106
1.00041 1.0025 0.991613
1.00006 0.996867 0.999124
1.00018 0.998337 0.996118
1.00021 1.00094 0.993461
1.00005 0.996712 0.999203
1.00015 0.998105 0.996408
1.00005 0.996606 0.999255
0.994774 0.994817 0.871787
0.99479 0.99483 0.877123
0.99479 0.994833 0.874737
1.00045 1.0042 0.989891
1.0007 1.0039 0.989645
1.00016 1.0029 0.990769
1.00017 1.00443 0.989796
1.00093 1.00389 0.990155
1.00056 1.00346 0.990404
1.00043 1.00326 0.990788
1.00045 1.00347 0.990621
1.00044 1.00323 0.991026
0.999795 1.00432 0.991002
0.994795 0.99481 0.858054
0.994811 0.994783 0.857242
0.994847 0.994794 0.866877
0.994835 0.994809 0.853691
0.99523 0.999348 0.883271
0.994929 0.997186 0.959495
0.994885 0.999447 0.94663
0.995227 0.996545 0.96131
0.994908 0.997907 0.947668
0.994844 0.999816 0.890089
0.994791 0.994776 0.841238
0.994809 0.996345 0.965949
0.994869 0.999975 0.947357
0.99482 0.999746 0.899336
0.994695 0.994773 0.850413
0.998362 1.00382 0.993582
0.999156 1.00474 0.991545
1.00011 1.00407 0.990592
0.996044 1.00213 0.98168
0.994845 1.00486 0.998053
0.999039 1.00392 0.992369
0.996491 1.00497 0.99554
0.997029 1.00407 0.995826
0.995649 1.00333 0.998612
0.995102 1.0005 0.985099
0.99587 1.002 0.999049
0.995853 0.999628 0.989091
0.994817 0.994893 0.870637
0.994766 0.994802 0.878328
0.994802 0.994806 0.885577
0.994917 1.00311 0.994269
0.994931 1.0003 0.967787
0.994791 0.994836 0.874972
0.99532 0.999948 0.944762
0.994747 0.999927 0.899368
0.994759 0.994794 0.85689
0.994723 0.994775 0.830264
0.995519 1.00439 0.988478
0.994817 0.994848 0.864584
0.994667 0.994775 0.844425
0.994894 0.999957 0.96469
0.997972 0.998209 0.895055
0.995561 0.999909 0.939898
0.994863 1.0044 0.986053
0.994673 0.994813 0.850508
0.999739 0.995706 0.900437
0.997377 0.997837 0.935782
0.994833 0.997334 0.966703
0.995573 1.0039 0.998388
0.996538 0.99968 1.00069
0.998948 1.00259 0.995657
0.996349 1.00006 0.999462
1.00086 0.998957 0.994384
1.00332 0.999917 0.988966
1.00345 1.00274 0.986817
1.00327 1.00422 0.984164
1.00416 1.00195 0.984778
1.00474 1.00382 0.982826
1.00425 1.00415 0.982798
1.00474 1.001 0.98526
1.00518 0.998653 0.986656
1.00513 1.00023 0.985216
1.00495 1.00089 0.984908
1.00503 1.00143 0.984649
1.00503 1.00118 0.984671
1.00481 1.00216 0.984011
1.00484 1.0015 0.985269
1.00465 1.00119 0.985393
1.00495 1.00126 0.984789
1.0024 1.0038 0.986847
1.00346 1.00235 0.986435
1.00423 1.00091 0.986128
1.00024 1.00466 0.989279
1.00097 1.00499 0.988172
1.00161 1.00431 0.988104
0.999954 1.00016 0.995416
1.00036 1.0035 0.990716
1.00063 1.00478 0.989365
0.999836 0.997751 0.99752
1 0.999606 0.995503
1.00037 1.00249 0.991691
1.00007 0.99923 0.995431
0.99988 0.997504 0.998989
0.999936 0.997318 0.999016
1.00014 1.00488 0.989879
1.00042 1.00418 0.990064
1.00016 1.0048 0.989644
1.00041 1.00203 0.992113
1.0004 1.00351 0.990689
1.00018 0.998932 0.995524
1.00036 1.00153 0.992649
1.00053 1.00273 0.991256
1.00004 0.997071 0.999055
1.0002 0.998586 0.995822
1.0003 1.0012 0.993102
1.00005 0.996858 0.999144
1.00017 0.998322 0.996136
1.00005 0.996699 0.999218
0.994789 0.994833 0.872708
0.994781 0.994824 0.871615
0.994777 0.994834 0.878405
1.00045 1.00264 0.99101
1.00029 1.00445 0.989915
1.00059 1.00383 0.989767
1.00045 1.00448 0.989679
1.00065 1.00277 0.990798
1.00059 1.00365 0.990693
1.00157 1.00292 0.98933
0.999338 1.00485 0.990549
1.00048 1.00343 0.990633
1.00019 1.00321 0.991073
0.999675 1.00424 0.990969
0.99884 1.00513 0.992124
0.994688 0.994804 0.848861
0.9948 0.994812 0.857631
0.994809 0.994778 0.857495
0.994762 0.994788 0.850233
0.994839 0.999818 0.889703
0.995188 0.999155 0.93709
0.994894 0.996768 0.96078
0.995014 0.996399 0.96672
0.994713 0.994781 0.840089
0.994881 0.99873 0.941153
0.996179 0.999944 0.885748
0.994891 0.996195 0.96904
0.994886 0.99993 0.947799
0.998493 0.998125 0.891042
0.999167 1.00081 0.995788
0.998459 1.00393 0.993553
0.999068 1.00463 0.991559
0.995213 1.00064 0.985061
0.995271 1.00305 0.998783
0.997221 1.0037 0.995804
0.996929 1.00187 0.998996
0.995317 0.999192 0.989206
0.996987 0.998625 0.992409
0.994734 0.994889 0.85866
0.994824 0.994829 0.873186
0.994757 0.994798 0.878677
0.995344 1.00429 0.988824
0.994855 0.999987 0.964687
0.994807 0.994855 0.864697
0.994831 0.999936 0.936585
0.997977 0.996516 0.882329
0.99469 0.994787 0.852515
0.994889 1.00422 0.986115
0.994683 0.994831 0.859422
0.999759 0.994808 0.887246
0.994863 0.996699 0.962657
0.997394 0.998762 0.945557
0.994849 1.00351 0.990976
0.999801 0.994863 0.88429
0.999988 0.995608 0.947443
0.994881 0.99486 0.96204
0.996157 0.99973 1.00075
0.998535 1.00174 0.995471
1.00194 1.00277 0.989936
0.999784 0.999581 0.994869
1.00281 1.00054 0.988838
1.00443 0.999162 0.987675
1.0032 1.00423 0.984096
1.00404 1.00212 0.984778
1.00494 0.997352 0.987778
1.00425 1.00368 0.982908
1.00465 1.00076 0.985303
1.00519 0.996842 0.988358
1.00515 0.996829 0.988711
1.00518 0.998856 0.986506
1.00518 0.998525 0.986805
1.00514 1.00031 0.9852
1.00513 1.00023 0.985329
1.00495 1.00077 0.985001
1.00513 1.00131 0.984683
1.00496 1.00133 0.984732
1.00504 1.00118 0.984629
1.00412 1.00191 0.985754
1.00463 1.00157 0.985245
1.00436 1.00116 0.98552
1.0011 1.0048 0.987955
1.00254 1.00376 0.986824
1.0031 1.00236 0.986585
0.999818 1.00127 0.993699
1.00061 1.00452 0.98928
1.00114 1.005 0.98818
0.999705 0.998182 0.998828
0.999955 1.00025 0.994571
1.00051 1.00336 0.990704
0.999831 0.997724 0.998944
0.999978 0.999699 0.995132
0.99988 0.997551 0.998977
1.00102 1.0037 0.989562
1.00017 1.00476 0.989791
1.00045 1.00468 0.98954
1.00031 1.00278 0.991526
1.00036 1.00417 0.990049
1.00023 1.00468 0.989639
1.00016 0.999279 0.995227
1.00036 1.00207 0.992124
1.00027 1.00366 0.990688
1.00001 0.997289 0.998986
1.00019 0.998881 0.995538
1.00037 1.00152 0.992657
1.00004 0.997034 0.999076
1.0002 0.998571 0.995837
1.00005 0.996827 0.999164
0.994698 0.994836 0.846098
0.994805 0.994833 0.872763
0.994793 0.99483 0.871451
1.00034 1.00286 0.99096
1.00263 1.00244 0.989402
1.0007 1.00323 0.990509
1.0005 1.00451 0.989562
1.00115 1.00256 0.990823
0.999991 1.00319 0.991226
0.999721 1.00475 0.99037
1.00111 1.00328 0.989548
1.00081 1.00438 0.989252
0.999613 1.00027 0.994812
1 1.00417 0.990935
0.998997 1.00511 0.99178
0.999817 0.996623 0.880806
0.994673 0.994872 0.842881
0.994799 0.994813 0.85745
0.994751 0.994967 0.829362
0.996058 0.99903 0.89988
0.994847 0.999766 0.937738
0.995432 0.995473 0.964166
0.994846 0.996121 0.967637
0.997951 0.998782 0.893172
0.995602 0.999656 0.93712
0.99487 0.997535 0.969345
0.997764 0.998079 0.935623
1.00171 0.997049 0.995826
0.999083 1.0011 0.995745
0.998518 1.00408 0.993528
0.994893 0.998923 0.989338
0.997668 1.00174 0.998913
0.997445 0.998751 0.99213
0.998257 0.997159 0.990582
0.999835 0.994881 0.894939
0.994724 0.994893 0.857623
0.994841 0.994811 0.875631
0.994879 1.00421 0.986386
0.994892 0.996252 0.960796
0.994678 0.994834 0.859435
0.998182 0.997085 0.935109
0.999794 0.995101 0.900981
0.995034 1.0023 0.988174
0.999823 0.994861 0.893206
1.00129 0.995749 0.935614
0.994879 0.994911 0.965195
0.997723 0.998099 0.989805
1.00001 0.9949 0.948332
0.995726 0.995017 0.968376
0.998133 1.00088 0.995215
1.00164 1.00084 0.989972
1.00475 0.998024 0.989221
1.0023 1.00106 0.98872
1.00411 0.999216 0.987689
1.00501 0.996157 0.989425
1.004 1.00228 0.98478
1.00489 0.997772 0.987699
1.00516 0.995334 0.989801
1.00457 1.00052 0.985345
1.0052 0.996868 0.988313
1.00517 0.995422 0.989999
1.00515 0.995947 0.989874
1.00516 0.996674 0.988922
1.00516 0.997424 0.988299
1.0052 0.999271 0.986333
1.00518 0.998926 0.986581
1.00518 0.998399 0.986956
1.00519 1.00075 0.985018
1.00515 1.00034 0.985158
1.00513 1.00021 0.985442
1.00488 1.00124 0.985207
1.00506 1.00133 0.984696
1.00484 1.00127 0.984818
1.00235 1.00369 0.987087
1.00409 1.00208 0.985742
1.00451 1.00164 0.985221
1.00002 1.0023 0.992316
1.00124 1.00469 0.987958
1.00275 1.00356 0.986803
0.999754 0.998557 0.998641
0.999883 1.00132 0.993657
1.0009 1.00444 0.989282
0.999766 0.998182 0.998025
0.99996 1.00032 0.994573
0.999844 0.997821 0.998883
1.00184 1.00237 0.989485
1.00057 1.00393 0.989788
1.00035 1.00502 0.989187
1.00025 1.00477 0.989703
1.00029 1.00481 0.989521
1.00028 1.00353 0.990843
1.00007 0.999812 0.994862
1.0003 1.00277 0.991534
1.00025 1.0043 0.990034
0.999966 0.997524 0.998905
1.00014 0.99927 0.995243
1.00032 1.0021 0.992134
1.00001 0.997251 0.999007
1.0002 0.99885 0.995553
1.00004 0.997015 0.999096
0.999818 0.994864 0.893088
0.994692 0.994838 0.85026
0.994819 0.994831 0.872782
1.00023 1.00328 0.990909
1.00072 1.00405 0.989552
1.00197 1.00261 0.9898
1.00401 1.00342 0.984822
1.00061 1.00386 0.9899
0.999898 1.0048 0.990196
1.00082 1.00371 0.989769
1.00042 1.00439 0.989559
1.00187 1.00204 0.988433
1.0014 0.999797 0.993077
1.00397 0.995374 0.992067
1.00015 0.999651 0.994748
0.999641 1.00413 0.991436
0.998473 0.996443 0.94638
0.999804 0.996038 0.885979
0.994658 0.994789 0.84611
0.998402 0.998967 0.880058
0.994988 0.99996 0.945129
0.994802 0.995804 0.968458
0.994882 0.997351 0.970943
0.997375 0.998959 0.947161
0.99586 0.99637 0.970826
1.00139 0.995953 0.996215
1.00095 0.997796 0.99586
0.998983 1.00152 0.995703
0.998104 0.998287 0.991954
0.998719 0.997428 0.990849
0.999965 0.995021 0.940063
0.999828 0.994895 0.89947
0.994706 0.994855 0.856691
0.994904 1.0012 0.985264
0.994912 0.994873 0.962282
0.999812 0.99494 0.893375
0.999968 0.995686 0.945911
0.99691 0.998431 0.990274
1.00082 0.994932 0.945907
0.996563 0.994888 0.965577
1.00125 0.996042 0.98928
0.998835 0.994877 0.975019
1.00139 0.999123 0.990108
1.00449 0.99717 0.989165
1.00499 0.995692 0.99069
1.00368 0.999366 0.987702
1.00479 0.996264 0.989323
1.00516 0.994941 0.990321
1.00478 0.998235 0.987621
1.00516 0.995416 0.989739
1.00517 0.99495 0.990447
1.0052 0.996892 0.988267
1.00517 0.99546 0.989954
1.00516 0.995133 0.990455
1.00515 0.995754 0.98997
1.00515 0.996303 0.989532
1.00517 0.996518 0.989134
1.00516 0.997436 0.988281
1.0052 0.998237 0.987435
1.00522 0.999972 0.985776
1.0052 0.999326 0.986313
1.00518 0.998994 0.986656
1.00518 1.00082 0.985062
1.00519 1.00079 0.984937
1.00517 1.00038 0.985113
1.00343 1.00226 0.986596
1.00479 1.00134 0.985212
1.00498 1.00136 0.984708
1.00064 1.00242 0.991142
1.00231 1.00373 0.98709
1.00396 1.00235 0.98573
0.999877 0.999309 0.998281
1.00013 1.0022 0.992298
1.00147 1.00458 0.98796
0.99983 0.998746 0.998528
0.999981 1.00125 0.993613
0.999839 0.998221 0.998721
1.00374 1.00228 0.985602
1.00194 1.00217 0.989395
1.00068 1.00455 0.988774
1.00016 1.00392 0.990016
1.00032 1.00495 0.989149
1.0004 1.00416 0.990013
1.00018 1.00485 0.989503
1.00022 1.00355 0.99084
1.00004 1.00036 0.994396
0.999904 0.997888 0.998798
1.00006 0.999753 0.99488
1.00028 1.00274 0.991543
0.999966 0.99751 0.998932
1.00012 0.999243 0.995257
1.00002 0.99721 0.999028
0.999994 0.994911 0.950251
0.99984 0.99487 0.892326
0.994673 0.994839 0.845877
1.00072 1.00473 0.988597
1.00143 1.00249 0.990204
1.00117 1.00371 0.989532
1.00368 1.00356 0.985339
1.0045 1.00281 0.983806
1.00203 1.00323 0.987153
1.00007 1.00434 0.98986
1.00276 1.0018 0.987564
1.00126 0.999556 0.993218
1.00313 0.998716 0.989729
1.00449 0.995491 0.991805
1.00382 0.995769 0.992063
1.00357 0.995511 0.992366
0.999955 0.999982 0.994683
0.996036 0.995394 0.969669
0.999856 0.996313 0.942859
0.998332 0.996383 0.899104
0.997314 0.999037 0.935561
0.994887 0.997578 0.971373
0.995539 0.996667 0.976071
0.999606 0.997 0.992086
1.00187 0.995574 0.995957
1.00038 0.998551 0.995899
0.999578 0.998322 0.991132
0.996702 0.99686 0.970666
1.00003 0.994944 0.951195
0.999825 0.994889 0.886457
0.996272 0.998858 0.990589
0.996734 0.994857 0.967195
1.00005 0.995292 0.943365
1.00058 0.995775 0.989422
0.99842 0.995439 0.974468
1.00341 0.995271 0.990548
1.00283 0.997843 0.986167
1.00414 0.996089 0.989075
1.00479 0.995455 0.990723
1.00515 0.99485 0.99074
1.00469 0.996363 0.989222
1.00516 0.994944 0.990287
1.00518 0.994935 0.990503
1.00516 0.995463 0.989677
1.00517 0.994951 0.990415
1.00519 0.994958 0.990528
1.00517 0.995488 0.989909
1.00515 0.995157 0.990409
1.00517 0.995407 0.990191
1.00515 0.995567 0.990065
1.00515 0.996161 0.989644
1.00518 0.997453 0.9884
1.00517 0.997449 0.988263
1.0052 0.9983 0.987409
1.00522 0.99932 0.986525
1.00524 1.00039 0.985329
1.00523 1.00006 0.98567
1.0052 0.999382 0.986293
1.00422 1.00104 0.986468
1.00512 1.00086 0.98508
1.00518 1.00082 0.984855
1.00116 1.00216 0.990497
1.00336 1.00238 0.986598
1.00468 1.00144 0.985219
1.00018 0.999881 0.997818
1.00074 1.00232 0.991126
1.00225 1.00377 0.987094
1.00002 0.999431 0.998097
1.00018 1.00224 0.992284
0.99994 0.998846 0.998383
1.00457 1.00218 0.984344
1.00418 1.00221 0.985705
1.00257 1.00331 0.986659
1.00191 1.00213 0.989306
1.00086 1.00435 0.988589
1.00087 1.0046 0.988964
1.00023 1.00491 0.98911
1.00036 1.0042 0.990005
0.999997 1.00097 0.993845
1.00018 1.00362 0.990837
1 1.00033 0.994422
0.999842 0.998288 0.998663
0.999903 0.997819 0.998837
1.00006 0.999716 0.994899
0.999962 0.997458 0.998957
0.996937 0.994852 0.970994
0.999996 0.995268 0.939259
0.999825 0.994871 0.90165
1.00517 1.00065 0.98474
1.00175 1.00365 0.989169
1.00336 1.00371 0.985857
1.00259 1.00296 0.987174
1.00453 1.00305 0.983746
1.00402 1.00042 0.986981
1.00359 1.00183 0.986695
1.001 0.999352 0.993362
1.00355 0.998753 0.989496
1.00444 0.995544 0.991166
1.0048 0.995704 0.989895
1.00407 0.995499 0.992221
1.00374 0.995438 0.992073
1.00316 0.995687 0.992662
0.999702 0.996775 0.991067
0.995868 0.995117 0.967992
0.99925 0.99574 0.939754
0.99512 0.996705 0.974666
0.999556 0.996459 0.994302
1.00182 0.99495 0.995673
1.00083 0.997326 0.984858
0.996589 0.99581 0.971735
0.999965 0.994895 0.940019
0.999699 0.995861 0.989622
0.998558 0.995673 0.973539
1.00275 0.995426 0.990927
1.00294 0.997277 0.986809
1.00429 0.994819 0.991146
1.00468 0.997411 0.990603
1.0046 0.995219 0.99075
1.00515 0.994845 0.990634
1.00525 0.994836 0.990438
1.00515 0.994943 0.990253
1.00517 0.994927 0.990496
1.00522 0.994912 0.990499
1.00516 0.994952 0.990383
1.00519 0.994951 0.990523
1.0052 0.995099 0.990486
1.00513 0.995179 0.990363
1.00517 0.995391 0.990174
1.00518 0.996454 0.989278
1.00516 0.996021 0.989756
1.00518 0.997296 0.988583
1.00522 0.998727 0.987146
1.0052 0.998362 0.987383
1.00521 0.999303 0.986534
1.00524 1.00015 0.985644
1.00449 1.00048 0.986522
1.00522 1.00047 0.985277
1.00524 1.00014 0.985565
1.0017 1.00143 0.990338
1.00415 1.00113 0.98646
1.00508 1.00089 0.985097
1.00038 1.00023 0.997514
1.00136 1.00189 0.990491
1.0033 1.00245 0.986599
1.00029 0.999962 0.997689
1.0009 1.00214 0.991113
1.00017 0.999603 0.99792
1.00517 1.00138 0.984264
1.00489 1.00211 0.984298
1.00435 1.00207 0.985324
1.00468 1.00217 0.98581
1.00281 1.00343 0.98655
1.00158 1.00454 0.987759
1.00107 1.0042 0.988404
1.00064 1.0047 0.988973
1.00006 1.0017 0.993062
1.00026 1.00425 0.989998
0.999979 1.00091 0.993875
0.9998 0.998775 0.998504
0.999971 1.00028 0.994447
0.99984 0.998217 0.998714
0.999904 0.997772 0.998872
1.00107 0.994865 0.988824
0.996728 0.994874 0.967806
0.999965 0.994907 0.950403
1.00513 0.999236 0.986495
1.00519 0.998777 0.986846
1.00516 1.00049 0.984959
1.00311 1.00257 0.987189
1.00457 1.0033 0.983683
1.00414 1.00022 0.987199
1.00508 0.996775 0.988435
1.00404 0.998691 0.989269
1.00445 0.995814 0.990522
1.00477 0.996147 0.99007
1.00512 0.995185 0.990269
1.00412 0.995595 0.991616
1.00373 0.99569 0.992178
1.00394 0.995074 0.992086
1.00017 0.996514 0.991199
0.995611 0.994915 0.966413
0.99978 0.996253 0.996607
1.00441 0.995342 0.991397
1.00079 0.997248 0.985053
0.996466 0.995471 0.969561
1.00248 0.994854 0.991283
1.003 0.997025 0.987483
1.00432 0.994933 0.991648
1.00469 0.996665 0.990646
1.00527 0.994916 0.99056
1.00534 0.994954 0.990757
1.00516 0.99485 0.990531
1.00525 0.994862 0.990416
1.00525 0.994889 0.990441
1.00516 0.994922 0.990489
1.00521 0.994909 0.990518
1.0052 0.994939 0.990611
1.00518 0.994945 0.990518
1.0052 0.995084 0.990469
1.00519 0.995806 0.989909
1.00518 0.995384 0.990157
1.00518 0.996479 0.989269
1.00523 0.998107 0.987694
1.00518 0.997133 0.988765
1.00522 0.998661 0.987214
1.00525 0.999888 0.985889
1.00521 0.999291 0.986543
1.00524 1.00011 0.985696
1.00461 1.00024 0.986582
1.00197 1.00075 0.990497
1.00448 1.00052 0.986519
1.0052 1.00056 0.985225
1.00047 1.00041 0.997349
1.00174 1.00136 0.990339
1.00406 1.00128 0.986454
1.00043 1.00029 0.997436
1.00147 1.00174 0.990486
1.00037 1.00006 0.997575
1.00526 0.999917 0.985635
1.00519 1.00131 0.984405
1.00511 1.00098 0.98503
1.00515 1.00203 0.984252
1.00439 1.0019 0.985351
1.00265 1.00335 0.986939
1.00294 1.0035 0.986441
1.00133 1.00478 0.987768
1.00037 1.00237 0.991846
1.00046 1.00488 0.988982
0.999987 1.00166 0.993092
0.999844 0.999314 0.998231
0.999958 1.00085 0.993905
0.999779 0.998649 0.998565
0.999833 0.998137 0.998759
1.00425 0.994858 0.992236
1.00106 0.99488 0.986908
0.9966 0.994877 0.96678
1.00515 0.997994 0.987855
1.00513 0.998815 0.986778
1.00524 0.997404 0.988137
1.0052 0.998763 0.986833
1.00514 1.00031 0.985177
1.00519 0.995865 0.98925
1.00429 1.00005 0.987413
1.00506 0.997071 0.988379
1.00526 0.994898 0.990266
1.00472 0.996438 0.990246
1.00508 0.99523 0.990127
1.00409 0.995642 0.991784
1.00317 0.995835 0.992132
1.00051 0.996138 0.991223
1.00532 0.994924 0.990534
1.00434 0.996155 0.991511
1.00088 0.996801 0.985253
1.00431 0.995095 0.992137
1.00468 0.995972 0.990694
1.00526 0.994902 0.990606
1.00535 0.994951 0.990705
1.00528 0.994939 0.990684
1.00526 0.994887 0.990395
1.00525 0.994901 0.990453
1.00519 0.994899 0.990707
1.00521 0.994903 0.990537
1.0052 0.994928 0.990605
1.00521 0.99532 0.990403
1.0052 0.995058 0.990452
1.0052 0.995831 0.989894
1.00524 0.997491 0.98832
1.00519 0.996503 0.98926
1.00523 0.998119 0.987708
1.00527 0.999604 0.986179
1.00521 0.998595 0.987282
1.00525 0.999883 0.98591
1.00466 1.00016 0.986604
1.00524 1.00006 0.985748
1.00461 1.00025 0.986584
1.00204 1.00038 0.992207
1.00071 1.00014 0.994371
1.00201 1.00073 0.991229
1.00446 1.00057 0.986516
1.00049 1.00045 0.997321
1.00187 1.00117 0.990335
1.00046 1.00038 0.997364
1.00526 0.9972 0.988465
1.00524 0.998842 0.986862
1.00525 0.999924 0.985791
1.00514 1.00054 0.985333
1.00521 1.00124 0.984544
1.00513 1.00096 0.985
1.00371 1.00159 0.986748
1.00451 1.00171 0.985379
1.00271 1.00318 0.986941
1.00092 1.00248 0.990718
1.00111 1.00492 0.987775
1.00022 1.00251 0.991869
1.00001 1.00007 0.99778
0.999932 1.00163 0.99312
0.999765 0.999214 0.998345
0.999775 0.998557 0.998621
1.00532 0.994861 0.990495
1.00455 0.994854 0.992047
1.00124 0.994892 0.98504
1.00519 0.996375 0.989022
1.00514 0.997917 0.987695
1.00513 0.998414 0.987062
1.00523 0.997548 0.988119
1.0052 0.998743 0.98682
1.00524 0.995184 0.990295
1.00517 0.995893 0.989211
1.00505 0.997407 0.988322
1.00526 0.994894 0.990274
1.00508 0.995285 0.989985
1.00411 0.995723 0.991962
1.00526 0.994932 0.990777
1.00532 0.994924 0.990713
1.00425 0.996919 0.99163
1.00525 0.994891 0.990642
1.00536 0.994948 0.990656
1.00529 0.994932 0.990641
1.00519 0.994961 0.9909
1.00525 0.994915 0.990465
1.0052 0.994907 0.990685
1.00523 0.995019 0.99076
1.0052 0.994921 0.9906
1.0052 0.995331 0.990394
1.00525 0.996988 0.988815
1.0052 0.995857 0.98988
1.00524 0.997505 0.988328
1.00528 0.999318 0.986478
1.00523 0.99813 0.987723
1.00527 0.999597 0.986201
1.00468 1.00013 0.986595
1.00525 0.999878 0.985932
1.00467 1.00015 0.986612
1.00215 1.0001 0.992315
1.00462 1.00026 0.986585
1.00221 1.00029 0.992111
1.00073 0.999998 0.994516
1.00048 1.00039 0.995891
1.00219 1.00067 0.991818
1.00048 1.00052 0.997306
1.00522 0.996383 0.989389
1.00525 0.998428 0.987217
1.00525 0.996999 0.98867
1.00526 0.999953 0.985766
1.00524 0.99892 0.986823
1.00524 0.999943 0.985948
1.0052 1.00053 0.985285
1.00427 1.0007 0.986699
1.00516 1.00095 0.984969
1.00382 1.0014 0.986748
1.00147 1.00186 0.990307
1.00273 1.00301 0.986944
1.00077 1.00266 0.990717
1.00015 1.00074 0.997416
1.00003 1.00263 0.99189
0.999873 0.999919 0.997964
0.999721 0.999057 0.998439
1.00524 0.994871 0.99065
1.00531 0.994864 0.990475
1.00478 0.994861 0.991835
1.0052 0.995542 0.990093
1.00518 0.996474 0.988994
1.00513 0.997842 0.98754
1.00522 0.997699 0.988102
1.00523 0.995171 0.990258
1.00514 0.99594 0.989172
1.00524 0.994891 0.990282
1.0052 0.994944 0.990929
1.00526 0.994928 0.990767
1.00532 0.994925 0.99089
1.00516 0.994964 0.991027
1.0053 0.994923 0.990597
1.00519 0.994955 0.990901
1.00524 0.994934 0.99089
1.0052 0.994914 0.990663
1.00521 0.995023 0.990755
1.00526 0.996686 0.989155
1.00519 0.995347 0.990386
1.00525 0.997005 0.988821
1.00528 0.999031 0.986797
1.00524 0.997521 0.988337
1.00528 0.999309 0.986496
1.0047 1.00009 0.986616
1.00527 0.99959 0.986222
1.00469 1.00012 0.986609
1.00222 1.00005 0.992263
1.00468 1.00013 0.986619
1.0023 1.00004 0.992194
1.00079 0.999891 0.994554
1.00238 1.00018 0.992024
1.00039 1.00016 0.994739
0.999997 1.0007 0.997696
1.00523 0.99629 0.989375
1.00525 0.997728 0.98803
1.00523 0.996459 0.989219
1.0053 0.999618 0.986197
1.00525 0.998174 0.987436
1.00524 0.996806 0.988874
1.00462 1.00012 0.986675
1.00526 0.999951 0.985732
1.00525 0.99899 0.986784
1.00523 1.00051 0.985236
1.00431 1.0006 0.986697
1.00177 1.00123 0.990403
1.00391 1.00119 0.98675
1.00135 1.00204 0.990309
1.0002 1.00102 0.997298
1.00067 1.0028 0.990723
1.00007 1.00056 0.997541
0.999752 0.999744 0.99813
1.00519 0.995044 0.990763
1.00524 0.994875 0.990633
1.00531 0.994865 0.990456
1.0052 0.995408 0.990229
1.00518 0.99656 0.988965
1.00523 0.995142 0.99022
1.00517 0.994946 0.991007
1.0052 0.994946 0.990939
1.00526 0.994923 0.990758
1.00516 0.994966 0.991032
1.00524 0.995065 0.990789
1.00519 0.99495 0.990903
1.00523 0.995039 0.990792
1.00527 0.996262 0.989631
1.00519 0.995022 0.99075
1.00527 0.996664 0.989153
1.00526 0.998761 0.987121
1.00525 0.997011 0.988826
1.00529 0.999018 0.986804
1.0047 0.999989 0.986724
1.00528 0.999299 0.986514
1.00471 1.00008 0.98663
1.00224 1.00013 0.992132
1.00471 1.0001 0.986623
1.00235 1.00001 0.992124
1.00085 0.999898 0.99446
1.00243 0.999989 0.992084
1.00049 0.999942 0.994799
1.00007 1.00035 0.994947
1.00523 0.99568 0.990107
1.00526 0.997458 0.988288
1.00524 0.996078 0.989523
1.00529 0.999074 0.986782
1.00524 0.997838 0.987903
1.00524 0.996533 0.989049
1.00474 0.999863 0.986747
1.0053 0.999439 0.986279
1.00526 0.997919 0.987655
1.00199 1.00056 0.990647
1.00462 1.0001 0.986673
1.00527 0.999951 0.985697
1.00436 1.00052 0.986696
1.00171 1.00131 0.990414
1.00025 1.00101 0.997313
1.00123 1.00223 0.990311
1.00019 1.00091 0.99733
0.999955 1.00045 0.997691
1.00516 0.994946 0.990962
1.00519 0.995048 0.990712
1.00524 0.994879 0.990616
1.00519 0.995288 0.990365
1.0052 0.995143 0.990765
1.00516 0.994953 0.991011
1.0052 0.994949 0.990949
1.00516 0.99497 0.991037
1.00524 0.995114 0.990787
1.00526 0.99632 0.989564
1.00523 0.995153 0.990692
1.00528 0.996514 0.98935
1.00523 0.998293 0.987708
1.00529 0.996653 0.989151
1.00526 0.998755 0.987124
1.00467 0.999874 0.986893
1.00529 0.999014 0.986811
1.0047 0.999983 0.986732
1.00228 1.00018 0.990611
1.00472 1.00007 0.986643
1.00237 1.00009 0.991283
1.00074 0.999955 0.997314
1.00248 0.999977 0.991986
1.00058 0.999886 0.994716
1.00021 0.999981 0.995027
1.00518 0.995421 0.990555
1.00523 0.997056 0.988805
1.00523 0.995732 0.990062
1.00526 0.998733 0.987078
1.00525 0.997466 0.988263
1.00525 0.995864 0.989671
1.00476 0.999651 0.986801
1.00529 0.999067 0.986791
1.00523 0.997946 0.987777
1.00218 1.00003 0.99085
1.00473 0.999799 0.986725
1.0053 0.999256 0.986362
1.00038 1.0007 0.99738
1.002 1.00056 0.990653
1.00463 1.00007 0.986672
1.00165 1.00136 0.990428
1.00026 1.00092 0.997301
1.00015 1.00084 0.997376
1.00519 0.995037 0.990869
1.00517 0.994944 0.99095
1.0052 0.995054 0.990661
1.00525 0.996542 0.989395
1.0052 0.995091 0.990849
1.00516 0.994961 0.991014
1.00524 0.995163 0.990784
1.00526 0.996366 0.989566
1.0052 0.998297 0.987859
1.00529 0.996757 0.98907
1.00523 0.998522 0.987497
1.00463 0.999584 0.987157
1.00526 0.99874 0.987128
1.00467 0.999869 0.986899
1.00226 1.00014 0.990703
1.00471 0.999978 0.986741
1.00229 1.00017 0.990615
1.00072 1 0.99729
1.0024 1.00008 0.990548
1.00062 0.999953 0.996004
1.00031 0.999852 0.994971
1.0052 0.995506 0.990439
1.00523 0.996968 0.988966
1.0052 0.995304 0.990612
1.00524 0.998825 0.987021
1.00523 0.997135 0.988726
1.00523 0.995783 0.990018
1.00474 0.999591 0.986919
1.00526 0.998919 0.986942
1.00524 0.997475 0.988238
1.00229 0.999823 0.990881
1.00475 0.999642 0.986812
1.0053 0.999061 0.9868
1.00057 1.00029 0.997408
1.0022 1.00001 0.990853
1.00472 0.999732 0.986701
1.00039 1.00067 0.99735
1.002 1.00055 0.990659
1.00024 1.00089 0.997307
1.00526 0.996438 0.989484
1.00518 0.99517 0.990783
1.00517 0.994941 0.990938
1.00524 0.998207 0.987885
1.00525 0.996443 0.989473
1.00521 0.995023 0.990934
1.00525 0.996412 0.989568
1.0052 0.998298 0.987859
1.00459 0.999473 0.987336
1.00522 0.998752 0.987285
1.00464 0.99967 0.9871
1.00224 1.00004 0.990824
1.00468 0.999861 0.986905
1.00224 1.00014 0.990709
1.00068 1.00002 0.997277
1.00228 1.00016 0.990618
1.00071 1.00001 0.99728
1.00071 0.999913 0.994465
1.00527 0.996898 0.988941
1.0052 0.995266 0.99061
1.00525 0.998675 0.987198
1.00523 0.99698 0.988953
1.00521 0.995185 0.990669
1.0047 0.999714 0.987002
1.00524 0.998834 0.987017
1.00523 0.997211 0.988648
1.00233 0.999843 0.99081
1.00472 0.999668 0.986906
1.00526 0.999107 0.986805
1.00071 1.00003 0.997367
1.00231 0.999818 0.990881
1.00473 0.999627 0.986822
1.00054 1.00032 0.997399
1.00221 1 0.990856
1.00039 1.00065 0.997324
1.00526 0.998229 0.987793
1.00526 0.996534 0.989389
1.00518 0.995301 0.990697
1.00458 0.999419 0.987411
1.00524 0.998204 0.987889
1.00525 0.996356 0.98955
1.0052 0.998301 0.987858
1.00461 0.999459 0.987313
1.00218 0.999999 0.99097
1.00464 0.999756 0.987042
1.00222 1.00005 0.990828
1.00067 1.00002 0.997288
1.00224 1.00015 0.990716
1.00067 1.00004 0.997286
1.0007 1.00002 0.997276
1.00527 0.99852 0.987335
1.00527 0.996619 0.989217
1.00519 0.995012 0.990781
1.00466 0.999678 0.987124
1.00525 0.998682 0.987191
1.00524 0.996993 0.988941
1.00231 0.999945 0.990781
1.00468 0.999725 0.986997
1.00524 0.998844 0.987012
1.00076 0.999945 0.997305
1.00234 0.999859 0.990808
1.00471 0.99974 0.986894
1.00068 1.00007 0.997385
1.00231 0.99983 0.990882
1.00056 1.00032 0.997382
1.0046 0.999594 0.987308
1.00526 0.99813 0.987845
1.00525 0.996632 0.989295
1.00215 0.999932 0.991113
1.00458 0.999403 0.987404
1.00524 0.998203 0.987894
1.00463 0.999441 0.987291
1.00219 0.999977 0.990976
1.00065 1.00002 0.997292
1.00221 1.00006 0.990832
1.00066 1.00002 0.997284
1.00064 1.00005 0.99729
1.00463 0.999629 0.987236
1.00527 0.998357 0.987508
1.00527 0.996355 0.989493
1.00235 0.999995 0.992133
1.00464 0.999681 0.987126
1.00524 0.99869 0.987183
1.00073 0.999957 0.997274
1.00231 0.999965 0.990781
1.00467 0.999737 0.986991
1.00075 0.999973 0.99733
1.00234 0.999882 0.990807
1.00067 1.00009 0.997398
1.00223 0.999931 0.991026
1.00459 0.999502 0.987345
1.00526 0.998029 0.987897
1.00058 0.999989 0.997336
1.00214 0.999931 0.99111
1.0046 0.999388 0.987397
1.00218 0.999957 0.990979
1.00062 1.00001 0.997305
1.00064 1.00004 0.997286
1.00237 0.999966 0.992189
1.00462 0.99963 0.987236
1.00527 0.998189 0.987681
1.00028 0.999995 0.997712
1.00225 0.999999 0.990866
1.00463 0.999681 0.987129
1.00074 0.999968 0.99729
1.00231 0.999985 0.99078
1.00074 0.999994 0.997351
1.00058 0.999967 0.994681
1.00225 0.999931 0.991681
1.00459 0.99941 0.98738
1.00061 0.999991 0.99734
1.00214 0.999933 0.991113
1.00064 1 0.997315
1.00017 0.999993 0.995076
1.00228 0.999957 0.991596
1.0046 0.999634 0.987235
1.00046 0.999988 0.996142
1.00224 1 0.990879
1.00074 0.999978 0.997308
1.0006 0.99998 0.997334
1.00215 0.999924 0.991115
1.00057 0.999992 0.997338
1.0004 0.999977 0.996209
1.00219 0.999952 0.991026
1.00069 0.999982 0.997296
1.00062 0.999978 0.997343
1.00062 0.99998 0.997323

TENSORS stress float
0.00188751 -0.000117989 0.000210184
-0.000117989 0.000811154 -3.18937e-05
0.000210184 -3.18937e-05 0.000788128
0.00592552 -3.88505e-05 0.000221025
-3.88505e-05 0.00328381 2.32926e-05
0.000221025 2.32926e-05 0.00327558
0.00162699 -5.00488e-05 9.30666e-05
-5.00488e-05 0.000655773 -1.27495e-05
9.30666e-05 -1.27495e-05 0.000623202
0.00198173 -6.87328e-05 0.000208103
-6.87328e-05 0.000843024 -1.92089e-05
0.000208103 -1.92089e-05 0.000826148
0.00195206 -0.000105141 0.00020628
-0.000105141 0.000840747 -2.83656e-05
0.00020628 -2.83656e-05 0.000820232
0.00183153 -0.000116688 0.00021578
-0.000116688 0.00077802 -3.23794e-05
0.00021578 -3.23794e-05 0.000756184
0.00161089 -9.95952e-05 3.71998e-05
-9.95952e-05 0.000563045 -1.11381e-05
3.71998e-05 -1.11381e-05 0.000469354
0.00586789 -4.6446e-05 -6.95262e-06
-4.6446e-05 0.00323852 -3.25209e-07
-6.95262e-06 -3.25209e-07 0.00323545
0.00580182 0.00013132 0.000107775
0.00013132 0.00317617 8.30575e-06
0.000107775 8.30575e-06 0.00315814
0.00565221 -0.000132553 4.30635e-05
-0.000132553 0.00310357 2.54217e-06
4.30635e-05 2.54217e-06 0.00307804
0.00175377 0.000140846 0.000217466
0.000140846 0.000720808 2.31577e-05
0.000217466 2.31577e-05 0.00071558
0.000593628 0.000223015 2.55425e-05
0.000223015 -3.54625e-05 1.66528e-05
2.55425e-05 1.66528e-05 -0.000142378
0.00169502 -3.41986e-05 0.000212908
-3.41986e-05 0.00066508 3.16054e-06
0.000212908 3.16054e-06 0.000661001
0.00133726 -4.75403e-06 4.70101e-05
-4.75403e-06 0.000470551 1.31688e-06
4.70101e-05 1.31688e-06 0.000430267
0.00142025 -4.6578e-05 -4.09581e-05
-4.6578e-05 0.000534867 7.16935e-06
-4.09581e-05 7.16935e-06 0.000492818
0.00166182 -7.13447e-05 7.05671e-05
-7.13447e-05 0.000663712 -4.11887e-06
7.05671e-05 -4.11887e-06 0.000633823
0.00162356 -3.44685e-05 0.00010031
-3.44685e-05 0.000661548 -1.28351e-05
0.00010031 -1.28351e-05 0.000625323
0.0016457 -6.28164e-05 8.28702e-05
-6.28164e-05 0.000657102 -1.03781e-05
8.28702e-05 -1.03781e-05 0.000628263
0.00166957 -0.000138142 -3.47381e-05
-0.000138142 0.000592938 4.20977e-06
-3.47381e-05 4.20977e-06 0.000507849
0.00571677 -0.00012155 0.000265342
-0.00012155 0.00313327 -9.30787e-06
0.000265342 -9.30787e-06 0.00314307
0.00194328 -4.89954e-05 0.000209007
-4.89954e-05 0.000817956 -1.42718e-05
0.000209007 -1.42718e-05 0.000802681
0.00198977 -8.8482e-05 0.000206517
-8.8482e-05 0.0008541 -2.40327e-05
0.000206517 -2.40327e-05 0.000835921
0.00161445 -0.000117659 5.85839e-05
-0.000117659 0.000543781 -8.85169e-06
5.85839e-05 -8.85169e-06 0.000459941
0.00161917 -0.000111036 4.65918e-05
-0.000111036 0.000552992 -1.03838e-05
4.65918e-05 -1.03838e-05 0.000466692
0.00178252 -9.19916e-05 0.000213441
-9.19916e-05 0.000739592 -2.88668e-05
0.000213441 -2.88668e-05 0.000721367
0.00157288 -8.87423e-05 2.95427e-05
-8.87423e-05 0.000560362 -1.19718e-05
2.95427e-05 -1.19718e-05 0.000457298
0.00203479 -0.000251564 1.5471e-05
-0.000251564 0.000660112 -6.71551e-06
1.5471e-05 -6.71551e-06 0.000495133
0.00581982 -6.13598e-05 -0.000218217
-6.13598e-05 0.00320063 -1.45635e-05
-0.000218217 -1.45635e-05 0.00320198
0.00374049 0.000106848 -0.000121192
0.000106848 0.0019283 -1.17184e-05
-0.000121192 -1.17184e-05 0.00190878
0.00362954 5.12611e-06 -0.00011613
5.12611e-06 0.00187859 -8.09674e-06
-0.00011613 -8.09674e-06 0.00185654
0.00570401 -0.000114694 -2.66281e-06
-0.000114694 0.00315315 4.0958e-07
-2.66281e-06 4.0958e-07 0.00314284
0.00054732 0.000206141 -1.71401e-06
0.000206141 -6.0322e-05 -9.83612e-07
-1.71401e-06 -9.83612e-07 -0.000166774
0.00167746 5.90515e-05 0.000212523
5.90515e-05 0.000662269 1.7744e-05
0.000212523 1.7744e-05 0.00064772
0.0018083 0.000139722 0.000215685
0.000139722 0.000769687 2.70809e-05
0.000215685 2.70809e-05 0.000747004
0.00269017 0.000188542 0.000131001
0.000188542 0.00119666 1.76717e-05
0.000131001 1.76717e-05 0.00112504
0.00481775 -0.000350538 -1.78612e-05
-0.000350538 0.00268694 8.35108e-06
-1.78612e-05 8.35108e-06 0.00261761
0.00278149 0.000248184 0.000132602
0.000248184 0.00128463 2.11342e-05
0.000132602 2.11342e-05 0.00120363
0.000552667 0.000181765 2.76375e-05
0.000181765 -5.47595e-05 2.13852e-05
2.76375e-05 2.13852e-05 -0.000158
0.000868414 0.000197696 1.14569e-05
0.000197696 3.18031e-05 5.70624e-06
1.14569e-05 5.70624e-06 -0.000147743
0.00373536 -0.000104177 0.000134622
-0.000104177 0.00196486 7.5817e-06
0.000134622 7.5817e-06 0.00196834
0.00572234 7.44126e-05 3.63548e-06
7.44126e-05 0.00312636 -1.5567e-06
3.63548e-06 -1.5567e-06 0.00314173
0.00364204 7.35002e-05 -0.000100867
7.35002e-05 0.00186359 -4.00988e-06
-0.000100867 -4.00988e-06 0.00185077
0.00560042 6.015e-05 0.000259254
6.015e-05 0.00305535 3.41656e-06
0.000259254 3.41656e-06 0.00307089
0.00132102 7.97559e-05 4.99905e-05
7.97559e-05 0.000460374 3.01078e-06
4.99905e-05 3.01078e-06 0.000424834
0.000614592 1.01407e-05 1.60086e-05
1.01407e-05 -9.04993e-05 1.80148e-06
1.60086e-05 1.80148e-06 -0.000167909
0.0056917 0.000206643 0.000140876
0.000206643 0.0031338 1.28359e-05
0.000140876 1.28359e-05 0.00311025
0.00273497 6.53709e-05 0.000126074
6.53709e-05 0.00119043 7.66973e-06
0.000126074 7.66973e-06 0.00113643
0.00128549 -7.66279e-05 -6.10115e-05
-7.66279e-05 0.000451622 7.4969e-06
-6.10115e-05 7.4969e-06 0.000407618
0.00133039 -8.34906e-05 -5.33375e-05
-8.34906e-05 0.000482001 8.54144e-06
-5.33375e-05 8.54144e-06 0.000438236
0.00147977 1.16908e-06 -2.91575e-05
1.16908e-06 0.000575197 6.70143e-06
-2.91575e-05 6.70143e-06 0.000530906
0.00170177 -0.000144559 -0.000113853
-0.000144559 0.000605486 1.93565e-05
-0.000113853 1.93565e-05 0.000528813
0.00358282 -4.01592e-07 -0.000105138
-4.01592e-07 0.00183544 -1.97718e-06
-0.000105138 -1.97718e-06 0.00182097
0.00164561 -5.44888e-05 7.65601e-05
-5.44888e-05 0.00064889 -3.41977e-06
7.65601e-05 -3.41977e-06 0.000621926
0.00158424 -1.12073e-05 0.000104044
-1.12073e-05 0.000640177 -1.09502e-05
0.000104044 -1.09502e-05 0.000602702
0.00165893 -6.84772e-05 7.53242e-05
-6.84772e-05 0.000661131 -7.03921e-06
7.53242e-05 -7.03921e-06 0.000632796
0.00167624 -9.72877e-05 -2.79397e-05
-9.72877e-05 0.000572695 1.51535e-06
-2.79397e-05 1.51535e-06 0.000497682
0.00164347 -0.000133595 -4.01225e-05
-0.000133595 0.000590685 4.47752e-06
-4.01225e-05 4.47752e-06 0.000499896
0.00167529 -0.000131997 -2.97278e-05
-0.000131997 0.000585539 2.99708e-06
-2.97278e-05 2.99708e-06 0.000505258
0.0020209 -0.000250484 -8.08066e-06
-0.000250484 0.000648454 2.18679e-06
-8.08066e-06 2.18679e-06 0.000483606
0.00557758 2.78532e-05 0.000254197
2.78532e-05 0.00304035 -6.53924e-07
0.000254197 -6.53924e-07 0.00305694
0.00189916 -2.78749e-05 0.00020706
-2.78749e-05 0.000794395 -9.78947e-06
0.00020706 -9.78947e-06 0.000781479
0.00242486 7.49805e-06 4.24053e-05
7.49805e-06 0.00102312 -8.99765e-07
4.24053e-05 -8.99765e-07 0.000959931
0.00160787 -9.54842e-05 5.18839e-05
-9.54842e-05 0.000531692 -5.87902e-06
5.18839e-05 -5.87902e-06 0.000453544
0.00161578 -0.000116191 5.40357e-05
-0.000116191 0.000545598 -9.87256e-06
5.40357e-05 -9.87256e-06 0.000461491
0.00189231 -0.000158728 1.16138e-05
-0.000158728 0.000511455 -2.94689e-06
1.16138e-05 -2.94689e-06 0.000372509
0.00173433 -0.000210873 1.64342e-05
-0.000210873 0.000446612 -5.62174e-06
1.64342e-05 -5.62174e-06 0.000291425
0.00148661 -4.9707e-05 0.00018525
-4.9707e-05 0.000560528 -2.16134e-05
0.00018525 -2.16134e-05 0.000545897
0.0015025 -5.13716e-05 2.10078e-05
-5.13716e-05 0.000537214 -1.18538e-05
2.10078e-05 -1.18538e-05 0.000433191
0.00199137 -0.000268012 1.48245e-05
-0.000268012 0.000669768 -7.52986e-06
1.48245e-05 -7.52986e-06 0.00049514
0.00137756 -0.000285936 6.73341e-06
-0.000285936 0.000108822 -1.74819e-06
6.73341e-06 -1.74819e-06 -9.77213e-05
0.00608785 0.000193255 -0.00027431
0.000193255 0.00335087 -2.61368e-05
-0.00027431 -2.61368e-05 0.00335445
0.00548425 -0.000138798 -0.00018321
-0.000138798 0.00302124 -1.17412e-05
-0.00018321 -1.17412e-05 0.00301153
0.00589649 1.56501e-05 -0.000236277
1.56501e-05 0.00323574 -1.79248e-05
-0.000236277 -1.79248e-05 0.00324322
0.000502299 0.000197414 -2.45273e-05
0.000197414 -8.18342e-05 -1.71989e-05
-2.45273e-05 -1.71989e-05 -0.000190342
0.00608872 0.000194695 -2.75065e-06
0.000194695 0.00334925 -2.0654e-06
-2.75065e-06 -2.0654e-06 0.00335414
0.00609632 0.000131096 -8.93288e-06
0.000131096 0.00335411 -1.92887e-06
-8.93288e-06 -1.92887e-06 0.00335909
0.000468224 0.000125297 -4.54413e-10
0.000125297 -0.00015141 -2.62823e-07
-4.54413e-10 -2.62823e-07 -0.00024774
0.00306988 -0.000125881 -7.87058e-05
-0.000125881 0.00156973 -3.07206e-06
-7.87058e-05 -3.07206e-06 0.00153795
0.00047081 0.000192218 -2.24393e-07
0.000192218 -0.000110692 -4.0786e-07
-2.24393e-07 -4.0786e-07 -0.000218471
0.00163269 0.000175475 4.43971e-05
0.000175475 0.000604582 1.97703e-06
4.43971e-05 1.97703e-06 0.000518747
0.000850268 0.000194701 3.22783e-07
0.000194701 1.88471e-05 -2.83487e-08
3.22783e-07 -2.83487e-08 -0.000159535
0.00457396 -0.000117195 0.000165956
-0.000117195 0.00247428 1.17407e-05
0.000165956 1.17407e-05 0.00247179
0.000700898 2.48955e-08 7.71917e-06
2.48955e-08 0.000100008 1.03388e-05
7.71917e-06 1.03388e-05 4.93422e-05
0.000575779 9.54025e-05 1.6481e-05
9.54025e-05 -0.000107374 9.26986e-06
1.6481e-05 9.26986e-06 -0.000198572
0.000620494 0.000151977 2.14204e-05
0.000151977 -4.59851e-05 1.62257e-05
2.14204e-05 1.62257e-05 -0.00014843
0.00101121 0.000176436 1.42876e-05
0.000176436 -7.61253e-06 5.42761e-06
1.42876e-05 5.42761e-06 -0.000170467
0.00273364 0.000117046 0.000108056
0.000117046 0.00129338 1.42236e-05
0.000108056 1.42236e-05 0.00122963
0.00089588 0.000194995 1.29461e-05
0.000194995 4.25166e-06 6.57502e-06
1.29461e-05 6.57502e-06 -0.000169066
0.00086502 0.000204715 1.06621e-05
0.000204715 9.30825e-05 5.15168e-06
1.06621e-05 5.15168e-06 -9.48818e-05
0.00108109 0.000262791 4.786e-06
0.000262791 9.24433e-05 1.71012e-06
4.786e-06 1.71012e-06 -0.000127893
0.00300675 -0.000121307 7.81881e-05
-0.000121307 0.00152028 2.97933e-06
7.81881e-05 2.97933e-06 0.00152036
0.00345015 -0.000145242 1.41079e-05
-0.000145242 0.00179902 -1.74521e-07
1.41079e-05 -1.74521e-07 0.00179221
0.00598254 3.87966e-05 -0.000266224
3.87966e-05 0.00327415 -1.19245e-05
-0.000266224 -1.19245e-05 0.00328828
0.00578803 6.47024e-05 -0.000266131
6.47024e-05 0.0031631 -7.34023e-06
-0.000266131 -7.34023e-06 0.00317938
0.00568569 8.45643e-05 -8.62177e-08
8.45643e-05 0.00311248 -3.13687e-06
-8.62177e-08 -3.13687e-06 0.00312429
0.00356782 2.12752e-05 -0.000113684
2.12752e-05 0.00181754 -5.15115e-06
-0.000113684 -5.15115e-06 0.00180879
0.00163679 3.54209e-05 5.41962e-05
3.54209e-05 0.000530262 1.21811e-06
5.41962e-05 1.21811e-06 0.000466829
0.00375549 0.000124938 -0.000103051
0.000124938 0.00193678 -5.50268e-06
-0.000103051 -5.50268e-06 0.0019181
0.00168154 8.37331e-05 5.41788e-05
8.37331e-05 0.000556067 2.3329e-06
5.41788e-05 2.3329e-06 0.0004858
0.00564819 0.000133887 0.000262379
0.000133887 0.00309972 6.61646e-06
0.000262379 6.61646e-06 0.00310574
0.000533328 1.07362e-05 1.87567e-05
1.07362e-05 -0.000135221 6.67613e-07
1.87567e-05 6.67613e-07 -0.000210393
0.00274183 3.12748e-05 0.000125321
3.12748e-05 0.00119507 5.1806e-06
0.000125321 5.1806e-06 0.001145
0.00103001 4.35629e-05 1.23779e-05
4.35629e-05 -2.52416e-05 1.13937e-06
1.23779e-05 1.13937e-06 -0.000151946
0.00266402 0.000108186 0.000129457
0.000108186 0.00115419 9.97709e-06
0.000129457 9.97709e-06 0.00109527
0.00108209 0.000103089 1.23088e-05
0.000103089 -4.16414e-06 2.34164e-06
1.23088e-05 2.34164e-06 -0.000143306
0.00171424 4.29763e-05 -0.000211666
4.29763e-05 0.000677368 2.07585e-06
-0.000211666 2.07585e-06 0.000674029
0.00131147 -5.37403e-06 -4.79152e-05
-5.37403e-06 0.000458791 1.9836e-06
-4.79152e-05 1.9836e-06 0.00041897
0.00147732 4.01469e-05 -2.07848e-05
4.01469e-05 0.000580772 6.83594e-06
-2.07848e-05 6.83594e-06 0.000532965
0.00128702 -8.67823e-05 -6.16769e-05
-8.67823e-05 0.00045517 8.84929e-06
-6.16769e-05 8.84929e-06 0.000411139
0.00179537 -7.71146e-05 -0.000111225
-7.71146e-05 0.0006361 9.82625e-06
-0.000111225 9.82625e-06 0.000570171
0.00175386 -0.000122617 -0.000111619
-0.000122617 0.000624762 1.6445e-05
-0.000111619 1.6445e-05 0.000553474
0.0016623 -0.000154044 -0.000115665
-0.000154044 0.000593115 2.04482e-05
-0.000115665 2.04482e-05 0.000511616
0.00200212 -0.000248971 -2.95636e-05
-0.000248971 0.000634235 1.02189e-05
-2.95636e-05 1.02189e-05 0.000469723
0.00567302 -9.1301e-05 2.10363e-06
-9.1301e-05 0.00310664 -1.63748e-06
2.10363e-06 -1.63748e-06 0.00311739
0.00156913 3.99558e-05 8.44022e-05
3.99558e-05 0.000600164 -3.54728e-06
8.44022e-05 -3.54728e-06 0.000578195
0.00113401 -4.65269e-06 -5.73031e-05
-4.65269e-06 0.000231137 1.29512e-06
-5.73031e-05 1.29512e-06 0.000166199
0.00166816 -6.03705e-05 -3.16179e-05
-6.03705e-05 0.000562821 2.09909e-06
-3.16179e-05 2.09909e-06 0.000491615
0.00363728 2.3937e-05 0.000195987
2.3937e-05 0.00189274 -7.12391e-06
0.000195987 -7.12391e-06 0.00187988
0.00215523 -0.000125541 -3.61164e-05
-0.000125541 0.000915216 1.76551e-06
-3.61164e-05 1.76551e-06 0.00082398
0.00168005 -0.000116892 -2.73262e-05
-0.000116892 0.000580655 2.03702e-06
-2.73262e-05 2.03702e-06 0.000503539
0.00186147 -0.000154874 -9.3613e-06
-0.000154874 0.000489241 1.67982e-06
-9.3613e-06 1.67982e-06 0.000350853
0.00198504 -0.000269613 -6.86403e-06
-0.000269613 0.000662828 2.00854e-06
-6.86403e-06 2.00854e-06 0.00048741
0.00187994 -0.000217276 -5.66752e-06
-0.000217276 0.00053487 1.44793e-06
-5.66752e-06 1.44793e-06 0.000379784
0.00140032 -0.000286956 4.23253e-07
-0.000286956 0.000123352 -1.38644e-07
4.23253e-07 -1.38644e-07 -8.27442e-05
0.000574345 1.2236e-05 1.93858e-05
1.2236e-05 -0.000113429 -1.00544e-06
1.93858e-05 -1.00544e-06 -0.000185344
0.001532 9.4774e-06 4.27479e-05
9.4774e-06 0.000480519 -2.53957e-06
4.27479e-05 -2.53957e-06 0.000410268
0.00169234 -4.226e-05 1.22607e-05
-4.226e-05 0.000378762 -8.52614e-07
1.22607e-05 -8.52614e-07 0.000262439
0.00170198 -0.000121289 1.22755e-05
-0.000121289 0.000385482 -2.07565e-06
1.22755e-05 -2.07565e-06 0.000253629
0.0017147 -0.000181274 1.46151e-05
-0.000181274 0.000410778 -4.10827e-06
1.46151e-05 -4.10827e-06 0.00026465
0.00176097 -0.000207887 9.6049e-07
-0.000207887 0.000234185 -4.01889e-07
9.6049e-07 -4.01889e-07 7.4078e-05
0.0050892 0.000182092 0.00014865
0.000182092 0.00281015 -1.11691e-05
0.00014865 -1.11691e-05 0.00278805
0.00142234 -0.000265047 5.6467e-06
-0.000265047 9.6129e-05 -1.43218e-06
5.6467e-06 -1.43218e-06 -9.58014e-05
0.000372011 -0.000135738 2.02622e-05
-0.000135738 -0.000157618 -1.64564e-05
2.02622e-05 -1.64564e-05 -0.000244017
0.000867594 -0.000203319 1.15528e-05
-0.000203319 2.64232e-05 -7.05283e-06
1.15528e-05 -7.05283e-06 -0.000152415
0.00139512 -0.000312331 7.61892e-06
-0.000312331 0.000171319 -2.47105e-06
7.61892e-06 -2.47105e-06 -5.3139e-05
0.00168061 -0.000361793 3.1244e-06
-0.000361793 0.0001718 1.23931e-06
3.1244e-06 1.23931e-06 -4.17045e-05
0.000454537 -7.43578e-05 1.44208e-05
-7.43578e-05 -6.00528e-05 -1.3939e-05
1.44208e-05 -1.3939e-05 -0.00012987
0.000467255 -6.55767e-05 -4.78885e-07
-6.55767e-05 -3.29022e-05 -4.90132e-06
-4.78885e-07 -4.90132e-06 -0.000187546
0.00611542 0.000213718 -0.00028612
0.000213718 0.00337057 -2.61116e-05
-0.00028612 -2.61116e-05 0.00337275
0.00599436 0.000114055 -0.000255712
0.000114055 0.00329073 -2.25261e-05
-0.000255712 -2.25261e-05 0.00329904
0.000467591 0.000120379 -1.85335e-05
0.000120379 -0.000153611 -1.12869e-05
-1.85335e-05 -1.12869e-05 -0.000249915
0.00489714 -0.000197477 -0.000141067
-0.000197477 0.00269467 -1.05102e-05
-0.000141067 -1.05102e-05 0.00267198
0.000437539 0.000155865 -2.25077e-05
0.000155865 -0.000122058 -1.60525e-05
-2.25077e-05 -1.60525e-05 -0.000210999
0.000454603 0.000178144 -2.09433e-05
0.000178144 -0.000117918 -1.60878e-05
-2.09433e-05 -1.60878e-05 -0.000227126
0.000879394 0.000196126 -1.22249e-05
0.000196126 3.37027e-05 -5.91816e-06
-1.22249e-05 -5.91816e-06 -0.000144186
0.00431986 -0.000145749 1.25436e-05
-0.000145749 0.00233007 -9.87066e-07
1.25436e-05 -9.87066e-07 0.00232205
0.000518816 -1.17153e-05 6.61057e-07
-1.17153e-05 -5.72918e-06 7.61483e-07
6.61057e-07 7.61483e-07 -5.55881e-05
0.00166337 0.000128673 5.50363e-05
0.000128673 0.000555621 4.10805e-06
5.50363e-05 4.10805e-06 0.000476293
0.00162248 0.000183026 5.3907e-05
0.000183026 0.000566189 4.11249e-06
5.3907e-05 4.11249e-06 0.000475343
0.000988047 0.00017572 1.05055e-07
0.00017572 -1.63131e-05 -2.43195e-07
1.05055e-07 -2.43195e-07 -0.000179618
0.000540334 0.000112264 -1.03857e-06
0.000112264 -3.85574e-05 -8.3502e-08
-1.03857e-06 -8.3502e-08 -0.000115765
0.000918848 0.000195651 6.63666e-07
0.000195651 2.09514e-05 1.03412e-07
6.63666e-07 1.03412e-07 -0.000152121
0.000842047 0.000196649 2.31344e-07
0.000196649 7.56795e-05 -8.63458e-07
2.31344e-07 -8.63458e-07 -0.000110438
0.00107859 0.000266397 -2.47916e-07
0.000266397 8.70356e-05 -2.39963e-07
-2.47916e-07 -2.39963e-07 -0.000134123
0.000711643 6.51434e-05 1.63233e-05
6.51434e-05 9.09173e-05 1.2379e-05
1.63233e-05 1.2379e-05 2.49113e-05
0.000608258 -3.97098e-05 2.86298e-06
-3.97098e-05 4.81518e-05 8.35497e-06
2.86298e-06 8.35497e-06 8.24726e-06
0.00105978 0.000100576 2.35017e-06
0.000100576 0.000338145 5.88293e-06
2.35017e-06 5.88293e-06 0.000191106
0.00105329 0.000155364 1.35323e-05
0.000155364 -6.44335e-06 4.27534e-06
1.35323e-05 4.27534e-06 -0.000161828
0.000957355 0.000191069 1.41892e-05
0.000191069 -2.74087e-06 6.29644e-06
1.41892e-05 6.29644e-06 -0.000171883
0.00151349 0.000283264 5.06561e-06
0.000283264 0.000140607 1.11276e-06
5.06561e-06 1.11276e-06 -5.85434e-05
0.000810809 0.000203563 8.41087e-06
0.000203563 0.000132521 5.78952e-06
8.41087e-06 5.78952e-06 -5.48437e-05
0.00121177 0.000292633 4.56337e-06
0.000292633 9.72963e-05 1.12529e-06
4.56337e-06 1.12529e-06 -0.000123189
0.00108207 0.000265253 5.45401e-06
0.000265253 0.000140501 1.47027e-06
5.45401e-06 1.47027e-06 -9.25862e-05
0.00136915 0.000337729 -3.30219e-06
0.000337729 0.000195947 -1.69479e-06
-3.30219e-06 -1.69479e-06 -4.9737e-05
0.00265094 -0.000125606 4.12891e-05
-0.000125606 0.00130006 3.01429e-06
4.12891e-05 3.01429e-06 0.00129853
0.00286997 -0.000142508 1.04316e-05
-0.000142508 0.00144125 -7.78826e-07
1.04316e-05 -7.78826e-07 0.0014351
0.00319385 -0.000165904 -5.83684e-05
-0.000165904 0.00164764 -2.8091e-06
-5.83684e-05 -2.8091e-06 0.00163469
0.00040296 -4.20163e-05 9.73657e-06
-4.20163e-05 -8.20564e-05 -1.16576e-05
9.73657e-06 -1.16576e-05 -0.000141759
0.00443511 0.000166553 0.000122438
0.000166553 0.00241423 -9.40226e-06
0.000122438 -9.40226e-06 0.00239655
0.0060957 0.000190312 -0.00028808
0.000190312 0.00335569 -2.24018e-05
-0.00028808 -2.24018e-05 0.00336127
0.00582228 7.68473e-05 -0.00026516
7.68473e-05 0.00318147 -1.01858e-05
-0.00026516 -1.01858e-05 0.00319679
0.00055203 9.31248e-05 -1.97631e-05
9.31248e-05 -0.000127153 -5.11305e-06
-1.97631e-05 -5.11305e-06 -0.000210237
0.000534845 4.18752e-05 -1.93559e-05
4.18752e-05 -0.00013367 -2.56689e-06
-1.93559e-05 -2.56689e-06 -0.000211841
0.00562786 -9.9736e-06 -0.000255716
-9.9736e-06 0.00306805 -1.8719e-06
-0.000255716 -1.8719e-06 0.00308538
0.0055843 1.46317e-05 -4.71406e-07
1.46317e-05 0.00304325 -6.63814e-07
-4.71406e-07 -6.63814e-07 0.00306035
0.000516712 8.79195e-07 -1.12841e-07
8.79195e-07 -0.000147905 1.80806e-08
-1.12841e-07 1.80806e-08 -0.000221269
0.00162368 3.48987e-05 5.42521e-05
3.48987e-05 0.000519172 2.13881e-06
5.42521e-05 2.13881e-06 0.00045483
0.00100432 4.72545e-05 -3.91347e-08
4.72545e-05 -4.23897e-05 -1.45293e-07
-3.91347e-08 -1.45293e-07 -0.000169661
0.000515247 7.85406e-05 -4.12924e-07
7.85406e-05 -0.000146094 -3.39387e-07
-4.12924e-07 -3.39387e-07 -0.000233845
0.00102817 0.000104045 -1.72698e-07
0.000104045 -3.58949e-05 -1.63385e-07
-1.72698e-07 -1.63385e-07 -0.000175794
0.000510525 -2.93551e-05 1.9312e-05
-2.93551e-05 -0.000153289 -7.89279e-07
1.9312e-05 -7.89279e-07 -0.000224155
0.000999383 1.84241e-05 1.2189e-05
1.84241e-05 -3.71005e-05 4.97683e-07
1.2189e-05 4.97683e-07 -0.000161147
0.00103728 7.29813e-05 1.20868e-05
7.29813e-05 -2.69114e-05 1.84003e-06
1.20868e-05 1.84003e-06 -0.000158813
0.00154862 7.34894e-05 1.60554e-07
7.34894e-05 5.13333e-05 -1.49734e-07
1.60554e-07 -1.49734e-07 -7.10233e-05
0.00108037 0.000129775 1.27725e-05
0.000129775 -1.86871e-06 3.18467e-06
1.27725e-05 3.18467e-06 -0.000149031
0.00163596 0.000168728 1.64088e-06
0.000168728 0.000105331 -6.14969e-08
1.64088e-06 -6.14969e-08 -4.04199e-05
0.00559414 -5.18044e-05 -0.000261051
-5.18044e-05 0.00305338 1.34096e-06
-0.000261051 1.34096e-06 0.00306805
0.00127287 -0.000143269 -4.97737e-05
-0.000143269 0.00044385 5.40593e-06
-4.97737e-05 5.40593e-06 0.000402922
-0.000273288 -3.0998e-06 -1.26432e-05
-3.0998e-06 -0.000618259 2.04559e-06
-1.26432e-05 2.04559e-06 -0.000704771
0.00176425 -5.35982e-05 -0.00011075
-5.35982e-05 0.000615328 6.97403e-06
-0.00011075 6.97403e-06 0.00055149
0.00544388 0.000343717 4.83078e-06
0.000343717 0.00305688 6.57322e-06
4.83078e-06 6.57322e-06 0.00298841
0.0027904 -0.000211557 -0.000118063
-0.000211557 0.00129135 2.08524e-05
-0.000118063 2.08524e-05 0.00120634
0.00178702 -9.99699e-05 -0.000111152
-9.99699e-05 0.000635983 1.30717e-05
-0.000111152 1.30717e-05 0.000568268
0.00180349 -0.000149745 -2.86517e-05
-0.000149745 0.000450393 5.4611e-06
-2.86517e-05 5.4611e-06 0.000312818
0.0020049 -0.00022229 -2.81441e-05
-0.00022229 0.00061032 8.54383e-06
-2.81441e-05 8.54383e-06 0.000455701
0.00201197 -0.000273333 -2.71743e-05
-0.000273333 0.000677092 1.09409e-05
-2.71743e-05 1.09409e-05 0.000500555
0.0014266 -0.000288189 -5.37517e-06
-0.000288189 0.000140247 1.3991e-06
-5.37517e-06 1.3991e-06 -6.54385e-05
0.000512902 6.51643e-06 -6.1626e-08
6.51643e-06 -0.000148554 1.53253e-07
-6.1626e-08 1.53253e-07 -0.000221428
0.00165874 -7.32934e-05 -3.06709e-05
-7.32934e-05 0.000559083 3.5499e-07
-3.06709e-05 3.5499e-07 0.000491349
0.00128701 -3.78421e-05 -8.35839e-06
-3.78421e-05 0.000134274 4.78341e-07
-8.35839e-06 4.78341e-07 1.34577e-05
0.00183779 -0.000122546 -6.5623e-06
-0.000122546 0.00046689 1.00648e-06
-6.5623e-06 1.00648e-06 0.000335665
0.00526383 0.000158433 -3.031e-06
0.000158433 0.00290722 -4.11863e-07
-3.031e-06 -4.11863e-07 0.00289042
0.00160266 -0.000126787 -4.52442e-07
-0.000126787 0.00060139 1.33838e-07
-4.52442e-07 1.33838e-07 0.000502975
0.00131681 -0.00023196 1.3805e-06
-0.00023196 0.000305554 -9.17929e-07
1.3805e-06 -9.17929e-07 0.000125207
0.00175385 -0.00018269 -6.75274e-06
-0.00018269 0.000434406 1.59293e-06
-6.75274e-06 1.59293e-06 0.000287963
0.001697 -0.000207385 -1.86867e-06
-0.000207385 0.000192446 3.7113e-07
-1.86867e-06 3.7113e-07 3.4426e-05
0.00137114 -0.000310581 7.31078e-07
-0.000310581 0.000160337 -1.25921e-07
7.31078e-07 -1.25921e-07 -6.37394e-05
0.00158885 -0.000272151 4.51763e-07
-0.000272151 0.000197354 -1.68445e-07
4.51763e-07 -1.68445e-07 6.31431e-06
0.00171299 -0.00036244 6.67729e-07
-0.00036244 0.000195999 2.13836e-08
6.67729e-07 2.13836e-08 -1.69532e-05
0.000482743 -7.94349e-05 -6.93507e-07
-7.94349e-05 -4.52505e-05 4.20813e-07
-6.93507e-07 4.20813e-07 -0.000118245
0.000663874 -9.16963e-05 9.63305e-08
-9.16963e-05 8.31677e-05 3.42707e-09
9.63305e-08 3.42707e-09 -7.39867e-05
0.00098202 -1.82788e-05 1.21288e-05
-1.82788e-05 -4.11282e-05 -7.53668e-07
1.21288e-05 -7.53668e-07 -0.000164915
0.00173696 -7.73758e-05 1.13864e-05
-7.73758e-05 0.000404687 -1.34788e-06
1.13864e-05 -1.34788e-06 0.000282704
0.00170315 -6.9602e-05 -4.66216e-08
-6.9602e-05 0.000164012 2.74128e-07
-4.66216e-08 2.74128e-07 3.96642e-05
0.00159827 -0.000166783 1.81881e-06
-0.000166783 0.000114119 2.10613e-07
1.81881e-06 2.10613e-07 -2.90913e-05
0.00170865 -0.000249257 2.57515e-06
-0.000249257 0.000232561 -3.00428e-07
2.57515e-06 -3.00428e-07 5.96571e-05
0.00185744 -0.000248623 -4.49449e-08
-0.000248623 0.000159836 5.95436e-07
-4.49449e-08 5.95436e-07 1.73282e-05
0.000429211 -0.000116316 1.85399e-05
-0.000116316 -9.97143e-05 -1.56053e-05
1.85399e-05 -1.56053e-05 -0.000179028
0.00173179 -0.000331485 1.25766e-06
-0.000331485 0.000163051 1.11459e-06
1.25766e-06 1.11459e-06 -2.38346e-05
0.000702421 -0.000190311 7.87927e-06
-0.000190311 -2.88696e-07 -7.56043e-06
7.87927e-06 -7.56043e-06 -0.000184909
0.00111398 -0.000296964 9.74293e-06
-0.000296964 7.57986e-05 -3.95319e-06
9.74293e-06 -3.95319e-06 -0.000157335
0.00185389 -0.000411179 2.71064e-06
-0.000411179 0.000334525 7.19077e-07
2.71064e-06 7.19077e-07 8.7002e-05
0.00203353 -0.000396577 -2.19068e-06
-0.000396577 0.000332694 3.63656e-06
-2.19068e-06 3.63656e-06 0.000139994
0.000619451 -0.000153678 1.04351e-06
-0.000153678 6.76253e-05 -4.69657e-06
1.04351e-06 -4.69657e-06 -0.000120962
0.000597616 -5.56889e-05 -3.44589e-07
-5.56889e-05 4.14691e-05 -5.12612e-06
-3.44589e-07 -5.12612e-06 -8.4289e-05
0.00108203 -0.000209215 -2.11427e-06
-0.000209215 0.000359892 1.12509e-06
-2.11427e-06 1.12509e-06 0.000129101
0.000496813 9.96571e-05 -1.7929e-05
9.96571e-05 -0.000149926 -8.62678e-06
-1.7929e-05 -8.62678e-06 -0.000241922
0.00399354 -0.000178127 -9.93246e-05
-0.000178127 0.00213948 -5.09612e-06
-9.93246e-05 -5.09612e-06 0.00212335
0.000346984 -2.46913e-05 -2.39022e-06
-2.46913e-05 -0.000103574 -9.66455e-06
-2.39022e-06 -9.66455e-06 -0.000154263
0.00044725 0.000149265 -1.97155e-05
0.000149265 -0.000143499 -1.41575e-05
-1.97155e-05 -1.41575e-05 -0.000246358
0.000963152 0.000175142 -1.48801e-05
0.000175142 -2.6159e-05 -5.89283e-06
-1.48801e-05 -5.89283e-06 -0.000189923
0.000406846 0.000103721 -1.9863e-05
0.000103721 -0.000119863 -1.42971e-05
-1.9863e-05 -1.42971e-05 -0.000193242
0.000691318 0.000181082 -9.36627e-06
0.000181082 -1.70345e-05 -6.76369e-06
-9.36627e-06 -6.76369e-06 -0.000200766
0.000917739 0.000194452 -1.29818e-05
0.000194452 2.38271e-05 -6.66967e-06
-1.29818e-05 -6.66967e-06 -0.000148751
0.00107677 0.000269812 -5.7975e-06
0.000269812 8.20148e-05 -2.03e-06
-5.7975e-06 -2.03e-06 -0.000139858
0.000530536 5.20297e-05 2.27985e-06
5.20297e-05 -1.62106e-05 6.13667e-07
2.27985e-06 6.13667e-07 -7.99753e-05
0.000502876 -5.50049e-05 2.02402e-07
-5.50049e-05 -9.8663e-06 2.6918e-07
2.02402e-07 2.6918e-07 -5.21164e-05
0.000587736 6.08464e-05 1.02366e-06
6.08464e-05 3.55869e-05 2.42359e-07
1.02366e-06 2.42359e-07 -9.39919e-05
0.00102092 0.000155326 -4.25857e-08
0.000155326 -2.2298e-05 -2.69673e-07
-4.25857e-08 -2.69673e-07 -0.000178436
0.000946423 0.000189861 3.55816e-07
0.000189861 -3.71495e-06 -1.93281e-07
3.55816e-07 -1.93281e-07 -0.000172878
0.00150573 0.000283084 6.28662e-08
0.000283084 0.000135046 -4.94054e-08
6.28662e-08 -4.94054e-08 -6.45222e-05
0.000801299 0.000191988 -4.69701e-07
0.000191988 0.000124027 -1.37233e-07
-4.69701e-07 -1.37233e-07 -6.2074e-05
0.00130117 0.000296415 1.08627e-07
0.000296415 0.000149948 1.61682e-09
1.08627e-07 1.61682e-09 -7.10146e-05
0.00109988 0.0002676 5.23966e-09
0.0002676 0.000152333 -7.20905e-07
5.23966e-09 -7.20905e-07 -8.05407e-05
0.00132089 0.000346034 -9.0446e-07
0.000346034 0.00015697 2.04663e-07
-9.0446e-07 2.04663e-07 -9.14561e-05
0.000546043 -6.0135e-05 -1.30372e-06
-6.0135e-05 7.97001e-06 7.06233e-06
-1.30372e-06 7.06233e-06 -2.60925e-05
0.00088644 0.000148757 5.46449e-06
0.000148757 0.000211028 4.92799e-06
5.46449e-06 4.92799e-06 4.16071e-05
0.000666437 2.60579e-05 1.93948e-06
2.60579e-05 7.58279e-05 5.06121e-06
1.93948e-06 5.06121e-06 -2.40746e-05
0.00102961 0.000135203 1.08294e-06
0.000135203 0.000345396 3.42385e-07
1.08294e-06 3.42385e-07 0.000140026
0.00158034 0.000251826 3.48468e-06
0.000251826 0.000127925 -5.13338e-08
3.48468e-06 -5.13338e-08 -5.27243e-05
0.0014039 0.000300058 5.39601e-06
0.000300058 0.00013942 1.4585e-06
5.39601e-06 1.4585e-06 -7.47094e-05
0.00183424 0.000359758 1.11687e-06
0.000359758 0.000220833 -2.99502e-07
1.11687e-06 -2.99502e-07 1.83785e-05
0.00102816 0.0002356 4.96568e-06
0.0002356 0.000183628 2.16685e-06
4.96568e-06 2.16685e-06 -4.01797e-05
0.00187197 0.000425982 -2.46966e-06
0.000425982 0.000390975 -9.89347e-07
-2.46966e-06 -9.89347e-07 0.000143087
0.00137219 0.000340593 -1.25899e-06
0.000340593 0.000247759 -1.25029e-06
-1.25899e-06 -1.25029e-06 -2.27102e-05
0.00153029 0.000393205 -5.05636e-07
0.000393205 0.000177087 -5.50591e-07
-5.05636e-07 -5.50591e-07 -7.84329e-05
0.000589419 1.96633e-05 2.50038e-06
1.96633e-05 2.18132e-05 2.68134e-06
2.50038e-06 2.68134e-06 -3.41254e-05
0.000507527 -4.05876e-05 6.96102e-07
-4.05876e-05 -4.04639e-05 5.17408e-06
6.96102e-07 5.17408e-06 -6.25059e-05
0.0024958 -0.00011213 3.00395e-05
-0.00011213 0.00119752 3.38059e-06
3.00395e-05 3.38059e-06 0.00119953
0.0025925 -0.000128179 4.18585e-06
-0.000128179 0.00126528 -4.71906e-07
4.18585e-06 -4.71906e-07 0.00126287
0.0027693 -0.000148137 -3.73835e-05
-0.000148137 0.00138179 -2.97714e-06
-3.73835e-05 -2.97714e-06 0.0013737
0.000442331 -2.81633e-05 7.2536e-06
-2.81633e-05 -6.00006e-05 -1.00098e-05
7.2536e-06 -1.00098e-05 -0.00010926
0.00381124 0.000140074 0.000105096
0.000140074 0.00202437 -6.99659e-06
0.000105096 -6.99659e-06 0.00201508
0.000537658 -4.67403e-05 -9.49336e-07
-4.67403e-05 -4.72371e-06 4.39992e-07
-9.49336e-07 4.39992e-07 -6.52796e-05
0.00465455 0.000149379 -9.07503e-06
0.000149379 0.00254035 -1.30238e-06
-9.07503e-06 -1.30238e-06 0.00252673
0.000543969 0.000103491 -1.93395e-05
0.000103491 -0.000126753 -6.8503e-06
-1.93395e-05 -6.8503e-06 -0.00021617
0.000555494 3.37141e-05 -1.85071e-05
3.37141e-05 -0.000126259 -3.36963e-06
-1.85071e-05 -3.36963e-06 -0.000204999
0.000995728 0.000104973 -1.21098e-05
0.000104973 -5.59906e-05 -2.63461e-06
-1.21098e-05 -2.63461e-06 -0.00019651
0.000979132 4.94106e-05 -1.22671e-05
4.94106e-05 -5.91774e-05 -1.39901e-06
-1.22671e-05 -1.39901e-06 -0.000186863
0.000571679 -7.1091e-06 -1.94713e-05
-7.1091e-06 -0.000118307 -7.98922e-07
-1.94713e-05 -7.98922e-07 -0.000189718
0.00566959 -9.5317e-05 -0.000268128
-9.5317e-05 0.00310422 4.2502e-06
-0.000268128 4.2502e-06 0.0031162
0.000556625 -1.02139e-06 1.08019e-07
-1.02139e-06 -0.000126043 -5.4815e-07
1.08019e-07 -5.4815e-07 -0.000197025
0.000986361 2.33732e-05 -7.44653e-08
2.33732e-05 -4.56998e-05 -5.2938e-08
-7.44653e-08 -5.2938e-08 -0.000170025
0.00102479 7.49073e-05 -1.41189e-07
7.49073e-05 -3.62494e-05 -5.48457e-08
-1.41189e-07 -5.48457e-08 -0.000168691
0.00155918 7.2596e-05 -8.12973e-08
7.2596e-05 5.98853e-05 1.58298e-07
-8.12973e-08 1.58298e-07 -6.25883e-05
0.00103673 0.000130983 -2.07518e-07
0.000130983 -2.6659e-05 -2.36623e-07
-2.07518e-07 -2.36623e-07 -0.000174839
0.0016044 0.000168057 -1.00089e-07
0.000168057 8.67152e-05 3.62997e-08
-1.00089e-07 3.62997e-08 -5.95372e-05
0.000978156 -1.66964e-06 1.21174e-05
-1.66964e-06 -4.38104e-05 -2.42256e-07
1.21174e-05 -2.42256e-07 -0.000167187
0.00153432 3.67835e-05 5.34751e-07
3.67835e-05 5.15187e-05 6.81764e-08
5.34751e-07 6.81764e-08 -6.58703e-05
0.00159019 0.000119284 4.51234e-07
0.000119284 7.19108e-05 -3.3061e-07
4.51234e-07 -3.3061e-07 -6.02551e-05
0.00187429 0.000103202 -4.65917e-07
0.000103202 9.30459e-05 -5.71862e-07
-4.65917e-07 -5.71862e-07 5.77342e-06
0.00162607 0.000213856 2.59563e-06
0.000213856 0.000115945 5.22378e-08
2.59563e-06 5.22378e-08 -4.63745e-05
0.00188531 0.00021162 4.13283e-07
0.00021162 0.00013156 -1.43159e-06
4.13283e-07 -1.43159e-06 8.38338e-06
0.000538176 -4.27485e-07 -1.86108e-05
-4.27485e-07 -0.000130711 1.01041e-06
-1.86108e-05 1.01041e-06 -0.000205553
0.00174436 -3.04376e-05 -0.0001096
-3.04376e-05 0.000604151 4.57418e-06
-0.0001096 4.57418e-06 0.000543833
0.000851333 -3.22879e-05 -1.55439e-05
-3.22879e-05 -0.00012798 1.70162e-06
-1.55439e-05 1.70162e-06 -0.000253564
0.00195544 -0.000122663 -2.58405e-05
-0.000122663 0.000536875 3.9186e-06
-2.58405e-05 3.9186e-06 0.000406448
0.00550952 0.000150407 -0.000182002
0.000150407 0.00305766 1.61854e-05
-0.000182002 1.61854e-05 0.00303951
0.00282988 -0.00018216 -0.000120057
-0.00018216 0.00133385 1.66106e-05
-0.000120057 1.66106e-05 0.00125801
0.00195829 -0.000279327 -2.23511e-05
-0.000279327 0.000696782 9.45786e-06
-2.23511e-05 9.45786e-06 0.000511807
0.00177217 -0.000182668 -2.7618e-05
-0.000182668 0.000445088 6.90828e-06
-2.7618e-05 6.90828e-06 0.000298673
0.00163053 -0.000206832 -4.70358e-06
-0.000206832 0.000148852 6.04529e-07
-4.70358e-06 6.04529e-07 -7.08555e-06
0.00175659 -0.00027937 -5.82658e-06
-0.00027937 0.000299792 1.56575e-06
-5.82658e-06 1.56575e-06 0.00010962
0.00133128 -0.000308247 -6.7127e-06
-0.000308247 0.000139199 1.60963e-06
-6.7127e-06 1.60963e-06 -8.45167e-05
0.00174347 -0.000363319 -1.35688e-06
-0.000363319 0.000217888 -1.31921e-06
-1.35688e-06 -1.31921e-06 5.4111e-06
0.000612848 -9.14589e-05 -1.57568e-05
-9.14589e-05 3.17744e-05 1.42645e-05
-1.57568e-05 1.42645e-05 -4.37206e-05
0.000883354 -0.000120127 -7.62589e-07
-0.000120127 0.000215473 4.5171e-06
-7.62589e-07 4.5171e-06 5.46673e-05
0.000906932 -1.30192e-05 -7.37384e-08
-1.30192e-05 -8.79294e-05 -1.73213e-08
-7.37384e-08 -1.73213e-08 -0.000211207
0.00174327 -7.84867e-05 -6.95643e-06
-7.84867e-05 0.000407124 7.86478e-07
-6.95643e-06 7.86478e-07 0.000285241
0.00173935 -6.6154e-05 -1.20253e-06
-6.6154e-05 0.000183344 2.17654e-07
-1.20253e-06 2.17654e-07 6.27766e-05
0.0016486 -0.000167001 -1.19811e-06
-0.000167001 0.000147473 3.68773e-07
-1.19811e-06 3.68773e-07 1.71857e-06
0.000503525 -0.000126514 6.18104e-07
-0.000126514 -5.40547e-05 2.35134e-07
6.18104e-07 2.35134e-07 -0.000137277
0.00082477 -0.000202029 -7.44332e-07
-0.000202029 7.06627e-05 -3.53411e-07
-7.44332e-07 -3.53411e-07 -0.000115042
0.0011295 -0.00029934 2.13894e-06
-0.00029934 8.43691e-05 -8.61967e-07
2.13894e-06 -8.61967e-07 -0.000149358
0.00173235 -0.000248714 -3.05718e-06
-0.000248714 0.000246746 8.04197e-07
-3.05718e-06 8.04197e-07 7.23036e-05
0.00189945 -0.000252653 1.36245e-06
-0.000252653 0.000179214 -3.22021e-07
1.36245e-06 -3.22021e-07 4.11204e-05
0.00189238 -0.000419227 -1.32148e-06
-0.000419227 0.000357829 -4.83812e-08
-1.32148e-06 -4.83812e-08 0.000109295
0.00175849 -0.000332747 5.25323e-07
-0.000332747 0.000180051 2.48975e-08
5.25323e-07 2.48975e-08 -6.68104e-06
0.00193839 -0.00039272 8.35072e-07
-0.00039272 0.000268154 6.51904e-07
8.35072e-07 6.51904e-07 7.55757e-05
0.000703424 -0.000159875 1.66732e-07
-0.000159875 0.000111593 -2.03013e-07
1.66732e-07 -2.03013e-07 -7.27682e-05
0.00049251 -0.000132576 -7.18714e-07
-0.000132576 -1.28298e-05 -3.37397e-07
-7.18714e-07 -3.37397e-07 -0.000225213
0.000687967 -7.07253e-05 2.16033e-07
-7.07253e-05 9.5747e-05 1.85447e-07
2.16033e-07 1.85447e-07 -3.42353e-05
0.00166529 -2.89073e-05 -3.03163e-07
-2.89073e-05 0.000141723 1.94855e-07
-3.03163e-07 1.94855e-07 2.26337e-05
0.00178722 -0.000114248 -6.77333e-07
-0.000114248 0.000213421 9.09742e-07
-6.77333e-07 9.09742e-07 8.56229e-05
0.00179097 -9.04116e-05 -7.55793e-08
-9.04116e-05 5.89892e-05 1.116e-06
-7.55793e-08 1.116e-06 -3.4029e-05
0.00182188 -0.000206024 -2.01094e-06
-0.000206024 0.000110162 1.28618e-06
-2.01094e-06 1.28618e-06 -1.15745e-05
0.00169534 -0.000297114 -4.81041e-07
-0.000297114 9.78728e-05 1.94705e-06
-4.81041e-07 1.94705e-06 -6.24757e-05
0.00196491 -0.000274588 7.38734e-07
-0.000274588 0.000169998 3.80079e-07
7.38734e-07 3.80079e-07 5.72261e-05
0.000700302 -0.000191223 4.39443e-06
-0.000191223 6.45897e-05 -6.43323e-06
4.39443e-06 -6.43323e-06 -0.000122748
0.00181136 -0.000359848 -2.10503e-06
-0.000359848 0.000144993 2.00294e-06
-2.10503e-06 2.00294e-06 -1.90101e-05
0.00122511 -0.000290374 6.36847e-06
-0.000290374 0.00022887 -4.55357e-06
6.36847e-06 -4.55357e-06 -4.25543e-06
0.00156213 -0.000434178 3.64717e-06
-0.000434178 0.000259799 1.34547e-07
3.64717e-06 1.34547e-07 -2.69074e-05
0.00198201 -0.000452052 1.60994e-06
-0.000452052 0.000351906 3.60563e-06
1.60994e-06 3.60563e-06 0.000108023
0.00208984 -0.000415517 -2.90019e-06
-0.000415517 0.000348967 3.23584e-06
-2.90019e-06 3.23584e-06 0.00017144
0.000662601 -4.76887e-05 -5.02872e-07
-4.76887e-05 9.26811e-05 -4.7194e-06
-5.02872e-07 -4.7194e-06 -1.777e-05
0.000847421 -0.000207514 -4.25387e-07
-0.000207514 0.000151823 -1.37261e-07
-4.25387e-07 -1.37261e-07 -5.64181e-05
0.000419933 -0.000114629 -1.67698e-06
-0.000114629 -1.27041e-05 2.21408e-06
-1.67698e-06 2.21408e-06 -0.000227608
0.00151988 -0.000280157 -4.74615e-06
-0.000280157 0.000566042 2.24424e-06
-4.74615e-06 2.24424e-06 0.000329866
0.000985974 0.000155467 -1.41789e-05
0.000155467 -3.98715e-05 -4.76829e-06
-1.41789e-05 -4.76829e-06 -0.00019678
0.000394501 -6.08988e-05 2.54e-06
-6.08988e-05 -7.19469e-05 -8.41919e-06
2.54e-06 -8.41919e-06 -0.000115299
0.000274713 3.18778e-05 -9.64551e-06
3.18778e-05 -0.000165249 -1.23132e-05
-9.64551e-06 -1.23132e-05 -0.00022679
0.000420634 2.12475e-05 -7.57459e-07
2.12475e-05 -6.38242e-05 -5.32699e-06
-7.57459e-07 -5.32699e-06 -0.000187859
0.000940561 0.000189317 -1.44211e-05
0.000189317 -1.67982e-06 -6.79581e-06
-1.44211e-05 -6.79581e-06 -0.000170979
0.00149796 0.000282793 -4.95225e-06
0.000282793 0.000129594 -1.10405e-06
-4.95225e-06 -1.10405e-06 -7.03598e-05
0.000668157 0.000178218 -5.76023e-06
0.000178218 4.25369e-05 -4.5846e-06
-5.76023e-06 -4.5846e-06 -0.000141598
0.00125948 0.000282385 -6.95795e-06
0.000282385 0.00025106 -2.81138e-06
-6.95795e-06 -2.81138e-06 1.65354e-05
0.0013689 0.000298604 -4.41809e-06
0.000298604 0.000189339 -1.73113e-06
-4.41809e-06 -1.73113e-06 -3.19389e-05
0.00126331 0.000352111 -8.92678e-07
0.000352111 0.00011515 7.7379e-07
-8.92678e-07 7.7379e-07 -0.000135467
0.000478472 -6.09476e-05 -1.48856e-06
-6.09476e-05 -3.24423e-05 5.17421e-07
-1.48856e-06 5.17421e-07 -6.64902e-05
0.000774317 0.000142557 5.56669e-07
0.000142557 0.000156593 -6.91611e-07
5.56669e-07 -6.91611e-07 -1.68351e-05
0.000602723 5.2488e-06 4.34736e-07
5.2488e-06 4.12574e-05 4.61854e-07
4.34736e-07 4.61854e-07 -5.57799e-05
0.000758569 0.00011444 1.36995e-06
0.00011444 0.000178614 -4.74755e-07
1.36995e-06 -4.74755e-07 -2.13261e-05
0.00156971 0.00025104 -3.60051e-07
0.00025104 0.00012205 -5.94631e-07
-3.60051e-07 -5.94631e-07 -5.88908e-05
0.0014042 0.000300286 4.52131e-08
0.000300286 0.000141047 -1.02853e-07
4.52131e-08 -1.02853e-07 -7.35595e-05
0.00180996 0.000357706 2.93222e-07
0.000357706 0.000207366 2.04785e-07
2.93222e-07 2.04785e-07 5.04448e-06
0.00104932 0.000242203 2.04186e-06
0.000242203 0.000199893 -2.05862e-07
2.04186e-06 -2.05862e-07 -2.50205e-05
0.00180076 0.000412804 -8.8872e-07
0.000412804 0.000350918 -2.38166e-08
-8.8872e-07 -2.38166e-08 0.000104951
0.00128188 0.000333162 3.55375e-07
0.000333162 0.000191384 -1.26832e-06
3.55375e-07 -1.26832e-06 -7.85579e-05
0.00162731 0.00039725 -3.722e-06
0.00039725 0.000235452 1.1542e-06
-3.722e-06 1.1542e-06 -1.71599e-05
0.000504478 -5.11401e-05 7.23577e-09
-5.11401e-05 -3.24695e-05 5.79348e-06
7.23577e-09 5.79348e-06 -5.87876e-05
0.000653455 2.36309e-06 6.90208e-07
2.36309e-06 6.6622e-05 4.38297e-06
6.90208e-07 4.38297e-06 -1.14761e-05
0.000973198 0.000210947 7.12977e-07
0.000210947 0.000233475 1.06772e-06
7.12977e-07 1.06772e-06 2.69814e-05
0.00119279 9.33265e-05 -1.28311e-06
9.33265e-05 0.000455254 2.37327e-06
-1.28311e-06 2.37327e-06 0.000280566
0.0012639 0.000220603 -2.24824e-06
0.000220603 0.000452579 -1.20996e-06
-2.24824e-06 -1.20996e-06 0.000234172
0.00188583 0.000317696 6.09283e-07
0.000317696 0.000198002 -1.93812e-06
6.09283e-07 -1.93812e-06 2.32989e-05
0.00177811 0.00039792 2.68616e-07
0.00039792 0.000254715 -3.29978e-07
2.68616e-07 -3.29978e-07 2.54487e-05
0.00189508 0.000394772 -5.50597e-07
0.000394772 0.000225125 -3.69543e-07
-5.50597e-07 -3.69543e-07 3.07262e-05
0.000928053 0.000290138 2.82124e-06
0.000290138 6.32153e-05 2.70261e-06
2.82124e-06 2.70261e-06 -0.000195975
0.00206067 0.000484466 -5.23669e-07
0.000484466 0.000440138 -6.06694e-07
-5.23669e-07 -6.06694e-07 0.000185307
0.000883701 0.000332656 4.75718e-06
0.000332656 -0.000106618 -2.05778e-06
4.75718e-06 -2.05778e-06 -0.000379141
0.000593486 1.4056e-05 2.66601e-06
1.4056e-05 2.34704e-05 2.81963e-06
2.66601e-06 2.81963e-06 -3.48675e-05
0.000665307 5.88748e-05 3.84104e-08
5.88748e-05 9.85505e-05 1.3239e-06
3.84104e-08 1.3239e-06 1.62752e-06
0.000609949 3.00576e-05 2.40423e-06
3.00576e-05 3.95066e-05 2.70731e-06
2.40423e-06 2.70731e-06 -1.61114e-05
0.000573207 -6.8111e-06 -5.61216e-07
-6.8111e-06 1.33765e-05 -2.8554e-09
-5.61216e-07 -2.8554e-09 -4.30904e-05
0.0012442 -4.90451e-05 1.07463e-06
-4.90451e-05 0.00040495 2.94349e-06
1.07463e-06 2.94349e-06 0.000389006
0.000896281 -4.89311e-05 4.65131e-07
-4.89311e-05 0.000196716 -1.14589e-07
4.65131e-07 -1.14589e-07 0.000176621
0.000871472 -5.34832e-05 2.44591e-05
-5.34832e-05 0.000192444 7.92854e-06
2.44591e-05 7.92854e-06 0.000192657
0.00245637 -0.00010941 4.80774e-06
-0.00010941 0.00117239 -4.42211e-07
4.80774e-06 -4.42211e-07 0.00117498
0.00251352 -0.000123713 -3.4759e-05
-0.000123713 0.00121649 -3.12225e-06
-3.4759e-05 -3.12225e-06 0.00121516
0.000398887 -3.206e-06 2.71215e-06
-3.206e-06 -8.05483e-05 -7.81806e-06
2.71215e-06 -7.81806e-06 -0.000120017
0.00343453 0.000139552 7.40333e-05
0.000139552 0.00178544 -4.30309e-06
7.40333e-05 -4.30309e-06 0.00177784
0.000512719 -2.78046e-05 -7.82691e-07
-2.78046e-05 -1.83987e-05 1.87179e-07
-7.82691e-07 1.87179e-07 -6.85896e-05
0.00405777 0.000129993 -7.8001e-06
0.000129993 0.00217109 -7.94388e-07
-7.8001e-06 -7.94388e-07 0.00216401
0.000544607 -4.88422e-05 -1.01056e-05
-4.88422e-05 -3.36366e-06 1.19957e-05
-1.01056e-05 1.19957e-05 -6.62225e-05
0.00488459 0.000131719 -0.000163396
0.000131719 0.00267313 1.2835e-05
-0.000163396 1.2835e-05 0.00266359
0.000996474 0.00013213 -1.29827e-05
0.00013213 -4.93938e-05 -3.61237e-06
-1.29827e-05 -3.61237e-06 -0.000198494
0.000994475 7.84827e-05 -1.20857e-05
7.84827e-05 -5.51779e-05 -1.92167e-06
-1.20857e-05 -1.92167e-06 -0.000188425
0.00159564 0.000164397 -2.58507e-06
0.000164397 8.28648e-05 3.06216e-08
-2.58507e-06 3.06216e-08 -6.33059e-05
0.00156857 7.18426e-05 -8.30519e-07
7.18426e-05 6.78525e-05 4.72133e-07
-8.30519e-07 4.72133e-07 -5.47492e-05
0.000979135 2.75067e-05 -1.22071e-05
2.75067e-05 -5.14659e-05 -6.44153e-07
-1.22071e-05 -6.44153e-07 -0.000176076
0.000520227 2.86219e-05 -1.93047e-05
2.86219e-05 -0.000148642 -3.19484e-07
-1.93047e-05 -3.19484e-07 -0.00021892
0.000976718 1.22633e-06 -1.12313e-08
1.22633e-06 -4.57424e-05 -9.8451e-08
-1.12313e-08 -9.8451e-08 -0.000169167
0.00153255 3.77924e-05 -6.59774e-08
3.77924e-05 5.18485e-05 1.21971e-07
-6.59774e-08 1.21971e-07 -6.56723e-05
0.00159657 0.000116753 -2.22807e-08
0.000116753 7.81426e-05 -2.7445e-08
-2.22807e-08 -2.7445e-08 -5.40025e-05
0.00187516 0.00010127 -3.07891e-08
0.00010127 9.02859e-05 4.35278e-07
-3.07891e-08 4.35278e-07 6.7022e-06
0.00160577 0.000212118 -3.18793e-07
0.000212118 0.000106919 -5.3085e-08
-3.18793e-07 -5.3085e-08 -5.55048e-05
0.00187871 0.000209479 -4.52852e-07
0.000209479 0.000130132 2.96822e-08
-4.52852e-07 2.96822e-08 7.06604e-06
0.00152451 2.42996e-06 7.78842e-07
2.42996e-06 5.02651e-05 7.54826e-08
7.78842e-07 7.54826e-08 -6.60314e-05
0.00191769 5.24828e-05 -1.53724e-06
5.24828e-05 0.000120572 1.35292e-07
-1.53724e-06 1.35292e-07 4.87048e-05
0.00190714 0.000160243 1.05549e-07
0.000160243 0.000121574 -1.1627e-06
1.05549e-07 -1.1627e-06 1.88718e-05
0.0017941 0.000101393 5.548e-06
0.000101393 -5.07518e-06 1.11492e-06
5.548e-06 1.11492e-06 -6.26135e-05
0.00191244 0.000266245 3.65285e-07
0.000266245 0.000180219 -1.41621e-06
3.65285e-07 -1.41621e-06 3.29085e-05
0.00181814 0.000227576 1.16346e-06
0.000227576 2.86828e-05 -6.40372e-07
1.16346e-06 -6.40372e-07 -6.7392e-05
0.00083381 -9.22057e-06 -1.21997e-05
-9.22057e-06 -0.000133579 6.12255e-07
-1.21997e-05 6.12255e-07 -0.000256421
0.00177114 -8.06566e-05 -2.51881e-05
-8.06566e-05 0.000422602 2.84664e-06
-2.51881e-05 2.84664e-06 0.000300764
0.00180029 -6.07991e-05 -3.94568e-06
-6.07991e-05 0.000216966 -2.97859e-07
-3.94568e-06 -2.97859e-07 0.000100474
0.00170324 -0.00016716 -3.59309e-06
-0.00016716 0.000183602 7.43252e-07
-3.59309e-06 7.43252e-07 3.5326e-05
0.000639755 -0.000145487 -2.14101e-05
-0.000145487 2.79888e-05 1.63964e-05
-2.14101e-05 1.63964e-05 -5.96237e-05
0.000732209 -0.00019664 -9.82745e-06
-0.00019664 1.77289e-05 7.11364e-06
-9.82745e-06 7.11364e-06 -0.000166856
0.00116284 -0.000302871 -5.28807e-06
-0.000302871 0.00010385 2.51095e-06
-5.28807e-06 2.51095e-06 -0.000130713
0.00175452 -0.000247933 -7.2016e-06
-0.000247933 0.000259895 1.87414e-06
-7.2016e-06 1.87414e-06 8.39606e-05
0.00193772 -0.00025643 7.39689e-07
-0.00025643 0.000195918 -1.42558e-06
7.39689e-07 -1.42558e-06 6.22881e-05
0.0017856 -0.000334028 -6.56893e-07
-0.000334028 0.000197286 -9.50158e-07
-6.56893e-07 -9.50158e-07 1.07107e-05
0.00191664 -0.000425409 -3.75852e-06
-0.000425409 0.000373628 -1.77881e-06
-3.75852e-06 -1.77881e-06 0.000124512
0.00184373 -0.000387548 3.48879e-06
-0.000387548 0.00020424 -2.84928e-06
3.48879e-06 -2.84928e-06 1.22203e-05
0.000849738 -0.000157712 -3.17414e-06
-0.000157712 0.000187965 5.41867e-06
-3.17414e-06 5.41867e-06 9.60876e-06
0.000311333 -0.000107879 1.34498e-06
-0.000107879 -0.000121183 -1.57798e-06
1.34498e-06 -1.57798e-06 -0.000332455
0.000723905 -8.55005e-05 -4.18183e-07
-8.55005e-05 0.000116929 4.56591e-06
-4.18183e-07 4.56591e-06 -1.64581e-05
0.00162044 -2.60139e-05 -1.4702e-06
-2.60139e-05 0.000112889 1.69348e-07
-1.4702e-06 1.69348e-07 -5.34077e-06
0.0017791 -0.000122431 -2.93036e-06
-0.000122431 0.000206921 4.37053e-07
-2.93036e-06 4.37053e-07 7.79318e-05
0.00183386 -8.85692e-05 2.36873e-06
-8.85692e-05 8.41503e-05 9.03517e-08
2.36873e-06 9.03517e-08 -3.21244e-06
0.00181638 -0.000201383 -2.04531e-06
-0.000201383 0.000107551 5.80889e-07
-2.04531e-06 5.80889e-07 -1.58051e-05
0.00076282 -0.000199773 2.64367e-07
-0.000199773 0.000107248 -2.28889e-07
2.64367e-07 -2.28889e-07 -8.27351e-05
0.00111855 -0.000283571 -1.06401e-06
-0.000283571 0.00015547 2.19422e-08
-1.06401e-06 2.19422e-08 -7.69087e-05
0.00150355 -0.000422762 2.19322e-06
-0.000422762 0.000237434 -5.32509e-08
2.19322e-06 -5.32509e-08 -4.70572e-05
0.00170864 -0.000296169 -1.30262e-06
-0.000296169 0.000109335 7.60094e-07
-1.30262e-06 7.60094e-07 -5.53088e-05
0.00194402 -0.000274987 1.73923e-06
-0.000274987 0.000152361 -4.87547e-07
1.73923e-06 -4.87547e-07 4.32729e-05
0.00188741 -0.000452168 -6.10335e-07
-0.000452168 0.000288506 3.87354e-07
-6.10335e-07 3.87354e-07 4.20657e-05
0.00183258 -0.000359805 1.00688e-07
-0.000359805 0.000159031 4.85248e-07
1.00688e-07 4.85248e-07 -4.83414e-06
0.00208942 -0.000408803 2.01823e-06
-0.000408803 0.000342853 -4.79265e-07
2.01823e-06 -4.79265e-07 0.000169905
0.00102946 -0.000230546 1.52733e-07
-0.000230546 0.000260873 8.67911e-07
1.52733e-07 8.67911e-07 4.53429e-05
0.00115237 -0.000254137 -5.18211e-07
-0.000254137 0.000350299 1.92029e-07
-5.18211e-07 1.92029e-07 0.000113716
0.000628636 -5.68643e-05 -3.20283e-07
-5.68643e-05 6.88883e-05 7.51231e-08
-3.20283e-07 7.51231e-08 -4.20854e-05
0.000297475 -6.00762e-05 5.50793e-08
-6.00762e-05 -0.000102942 -1.06533e-06
5.50793e-08 -1.06533e-06 -0.000300201
0.00183107 -4.65957e-05 -1.05631e-06
-4.65957e-05 7.85381e-05 6.73403e-07
-1.05631e-06 6.73403e-07 -1.07236e-06
0.00181524 -0.000146093 5.33468e-07
-0.000146093 8.30109e-05 1.06916e-06
5.33468e-07 1.06916e-06 -2.23727e-05
0.00183914 -9.63919e-05 4.86515e-06
-9.63919e-05 4.86203e-05 -5.01537e-07
4.86515e-06 -5.01537e-07 -1.02811e-05
0.00188441 -0.000225267 -1.76533e-06
-0.000225267 7.38039e-05 1.98075e-07
-1.76533e-06 1.98075e-07 -9.70577e-06
0.00176947 -0.000319057 -3.13675e-06
-0.000319057 8.49028e-05 1.77049e-06
-3.13675e-06 1.77049e-06 -5.00218e-05
0.00196126 -0.000287511 4.02915e-06
-0.000287511 0.000143123 -1.56499e-06
4.02915e-06 -1.56499e-06 4.60949e-05
0.00114129 -0.000267618 2.13843e-06
-0.000267618 0.000251097 -4.57699e-06
2.13843e-06 -4.57699e-06 2.63267e-05
0.00171161 -0.000369439 -3.92934e-06
-0.000369439 7.06391e-05 1.55665e-06
-3.92934e-06 1.55665e-06 -7.07285e-05
0.00156355 -0.000407992 3.07321e-06
-0.000407992 0.000380891 -3.11812e-06
3.07321e-06 -3.11812e-06 9.07017e-05
0.00175456 -0.000502598 -1.53115e-06
-0.000502598 0.000316109 2.26644e-06
-1.53115e-06 2.26644e-06 9.58101e-06
0.00184492 -0.000459531 2.39503e-06
-0.000459531 0.000216664 4.54417e-06
2.39503e-06 4.54417e-06 -2.32902e-05
0.00220491 -0.000413314 -4.64365e-09
-0.000413314 0.00039776 -3.29421e-07
-4.64365e-09 -3.29421e-07 0.000226188
0.000524479 -5.22805e-05 -2.17581e-07
-5.22805e-05 8.61486e-06 -4.23345e-06
-2.17581e-07 -4.23345e-06 -8.60214e-05
0.000473588 -7.07826e-05 -4.06355e-06
-7.07826e-05 1.42543e-05 -4.34746e-07
-4.06355e-06 -4.34746e-07 -0.000160186
0.000951784 -0.000261105 -1.92749e-06
-0.000261105 0.000158393 2.35206e-07
-1.92749e-06 2.35206e-07 -6.82317e-05
0.000860077 -0.000178298 -2.71126e-06
-0.000178298 0.000248672 4.29925e-06
-2.71126e-06 4.29925e-06 1.78836e-05
0.00187263 -0.000349328 -8.92556e-06
-0.000349328 0.000765931 4.41783e-06
-8.92556e-06 4.41783e-06 0.000516395
0.000422464 -6.15921e-05 -3.06727e-07
-6.15921e-05 -6.62947e-05 -6.07067e-06
-3.06727e-07 -6.07067e-06 -9.99044e-05
0.00155726 0.000249976 -4.14134e-06
0.000249976 0.000115555 -1.04182e-06
-4.14134e-06 -1.04182e-06 -6.56324e-05
0.00058437 -1.69937e-05 2.88238e-07
-1.69937e-05 3.58952e-05 -5.12521e-06
2.88238e-07 -5.12521e-06 -6.02305e-05
0.000537225 0.000137722 -3.18484e-06
0.000137722 3.52596e-06 -3.97862e-06
-3.18484e-06 -3.97862e-06 -0.000160931
0.000448941 9.61608e-05 1.81916e-06
9.61608e-05 -1.20601e-05 2.32467e-07
1.81916e-06 2.32467e-07 -0.000206963
0.00140595 0.000300755 -5.21976e-06
0.000300755 0.000143291 -1.51902e-06
-5.21976e-06 -1.51902e-06 -7.18523e-05
0.00178503 0.000355749 9.10153e-08
0.000355749 0.000193079 8.59306e-07
9.10153e-08 8.59306e-07 -9.15368e-06
0.00110308 0.000256778 -3.12654e-06
0.000256778 0.000233498 -3.69273e-06
-3.12654e-06 -3.69273e-06 4.11772e-06
0.00140586 0.00035049 -1.16349e-06
0.00035049 0.000259468 -2.24206e-06
-1.16349e-06 -2.24206e-06 -1.51589e-05
0.0017274 0.000399739 4.53943e-08
0.000399739 0.000308797 7.67452e-07
4.53943e-08 7.67452e-07 6.47011e-05
0.00175271 0.000406422 -9.49113e-07
0.000406422 0.000310875 6.30694e-06
-9.49113e-07 6.30694e-06 5.9744e-05
0.000512253 -4.73436e-05 1.63212e-07
-4.73436e-05 -2.96094e-05 -3.03846e-11
1.63212e-07 -3.03846e-11 -5.48403e-05
0.000610156 -6.88564e-06 -6.4894e-07
-6.88564e-06 4.44646e-05 4.96217e-07
-6.4894e-07 4.96217e-07 -3.37328e-05
0.000981964 0.000218312 3.269e-07
0.000218312 0.000242334 9.02906e-07
3.269e-07 9.02906e-07 3.34958e-05
0.000678749 4.62071e-05 -8.53035e-07
4.62071e-05 0.000135087 -1.34073e-07
-8.53035e-07 -1.34073e-07 -2.68008e-05
0.000648197 0.000153726 6.49568e-07
0.000153726 6.51254e-05 -1.10485e-07
6.49568e-07 -1.10485e-07 -0.000135968
0.0018585 0.0003174 -6.9085e-07
0.0003174 0.000179756 -1.16999e-06
-6.9085e-07 -1.16999e-06 4.70575e-06
0.00174201 0.000395962 5.42869e-07
0.000395962 0.000231257 1.34177e-07
5.42869e-07 1.34177e-07 1.98917e-06
0.00182497 0.000391375 1.68707e-06
0.000391375 0.000185604 2.48942e-07
1.68707e-06 2.48942e-07 -9.05003e-06
0.00133378 0.000328624 1.50736e-06
0.000328624 0.000316479 8.58386e-07
1.50736e-06 8.58386e-07 4.96679e-05
0.00191485 0.000469753 1.57474e-06
0.000469753 0.000335698 4.49289e-08
1.57474e-06 4.49289e-08 8.18202e-05
0.00150403 0.000389926 -2.07479e-06
0.000389926 0.000268101 -8.88194e-08
-2.07479e-06 -8.88194e-08 -1.32769e-05
0.000682105 7.61864e-06 1.57317e-06
7.61864e-06 7.86277e-05 3.29747e-06
1.57317e-06 3.29747e-06 1.39472e-05
0.000991582 9.35716e-05 9.87814e-07
9.35716e-05 0.000311919 2.43008e-06
9.87814e-07 2.43008e-06 0.000181936
0.000903871 0.000253663 -2.71422e-06
0.000253663 0.000128421 -1.64764e-06
-2.71422e-06 -1.64764e-06 -9.12905e-05
0.00145495 0.000122836 -1.09519e-06
0.000122836 0.000613777 5.94198e-07
-1.09519e-06 5.94198e-07 0.000413153
0.00119763 0.00018416 -7.93722e-06
0.00018416 0.000339642 -6.03484e-06
-7.93722e-06 -6.03484e-06 0.000158024
0.00186308 0.000328572 -3.2876e-06
0.000328572 0.000155424 -2.65635e-06
-3.2876e-06 -2.65635e-06 -1.39852e-06
0.00188959 0.000447802 1.48689e-07
0.000447802 0.000269411 2.85513e-07
1.48689e-07 2.85513e-07 3.97769e-05
0.00164801 0.0004202 3.59555e-06
0.0004202 4.82827e-05 -4.21417e-07
3.59555e-06 -4.21417e-07 -0.000144908
0.000335548 0.000264171 -4.11181e-07
0.000264171 -0.00026754 4.1958e-07
-4.11181e-07 4.1958e-07 -0.00054249
0.00136731 0.000421621 7.16603e-06
0.000421621 0.000100959 -1.35629e-06
7.16603e-06 -1.35629e-06 -0.000166752
0.000597217 7.11134e-06 -1.91946e-07
7.11134e-06 2.4189e-05 5.46068e-08
-1.91946e-07 5.46068e-08 -3.33547e-05
0.000521187 3.56062e-05 1.20501e-06
3.56062e-05 -9.25517e-07 1.80407e-06
1.20501e-06 1.80407e-06 -9.17175e-05
0.000507556 2.96487e-05 -6.22477e-07
2.96487e-05 -7.31544e-06 -1.69177e-07
-6.22477e-07 -1.69177e-07 -9.55687e-05
0.000934773 0.00011294 8.02751e-09
0.00011294 0.000264959 -9.76932e-07
8.02751e-09 -9.76932e-07 0.000152892
0.000667857 8.69045e-05 2.04723e-06
8.69045e-05 0.000102474 1.79951e-06
2.04723e-06 1.79951e-06 6.77486e-06
0.000577581 4.18798e-05 2.5951e-06
4.18798e-05 2.64717e-05 2.77842e-06
2.5951e-06 2.77842e-06 -3.02387e-05
0.000574636 -1.49083e-07 -6.13699e-07
-1.49083e-07 1.88269e-05 -2.38107e-08
-6.13699e-07 -2.38107e-08 -3.68913e-05
0.00124123 -3.5189e-05 9.79539e-07
-3.5189e-05 0.00040076 2.74318e-06
9.79539e-07 2.74318e-06 0.000386903
0.000586353 -1.66545e-06 -1.58302e-06
-1.66545e-06 1.86342e-05 -2.77227e-06
-1.58302e-06 -2.77227e-06 -3.60245e-05
0.00129828 -4.54425e-05 -6.00256e-06
-4.54425e-05 0.000437596 -1.45028e-06
-6.00256e-06 -1.45028e-06 0.0004223
0.000838792 -4.09232e-05 2.54178e-05
-4.09232e-05 0.000164316 7.97442e-06
2.54178e-05 7.97442e-06 0.000168093
0.00131863 -5.49516e-05 -1.02584e-05
-5.49516e-05 0.000455141 -4.19289e-06
-1.02584e-05 -4.19289e-06 0.000437465
0.00160803 -7.24007e-05 2.29144e-05
-7.24007e-05 0.000643932 1.80739e-06
2.29144e-05 1.80739e-06 0.000647316
0.00240443 -0.000105902 -3.06813e-05
-0.000105902 0.00113936 -3.67369e-06
-3.06813e-05 -3.67369e-06 0.0011427
0.000397334 7.32209e-05 -4.1226e-06
7.32209e-05 -6.92095e-05 -6.2428e-06
-4.1226e-06 -6.2428e-06 -0.000107909
0.000480182 3.7824e-06 4.07827e-07
3.7824e-06 -2.9082e-05 4.82488e-07
4.07827e-07 4.82488e-07 -7.16313e-05
0.00292103 0.00014117 2.73603e-05
0.00014117 0.00146929 -4.14198e-06
2.73603e-05 -4.14198e-06 0.00146151
0.00352555 0.000113772 -8.90538e-06
0.000113772 0.00183824 -6.358e-07
-8.90538e-06 -6.358e-07 0.00183667
0.000591806 -2.94846e-05 -7.79231e-06
-2.94846e-05 2.78824e-05 1.0103e-05
-7.79231e-06 1.0103e-05 -2.30916e-05
0.0042269 0.000108487 -0.000142047
0.000108487 0.00226728 1.04292e-05
-0.000142047 1.04292e-05 0.00226494
0.00158639 0.000210794 -3.33157e-06
0.000210794 9.76918e-05 -1.27866e-07
-3.33157e-06 -1.27866e-07 -6.49225e-05
0.00158316 0.00011697 -1.34364e-06
0.00011697 7.13236e-05 2.16559e-07
-1.34364e-06 2.16559e-07 -6.13276e-05
0.00186603 0.000208493 -1.18016e-06
0.000208493 0.00012423 1.51354e-06
-1.18016e-06 1.51354e-06 1.04962e-06
0.00189748 9.97688e-05 8.93266e-08
9.97688e-05 0.000100221 1.07598e-06
8.93266e-08 1.07598e-06 2.05516e-05
0.00152771 4.01718e-05 -7.33894e-07
4.01718e-05 5.14272e-05 1.93921e-07
-7.33894e-07 1.93921e-07 -6.62638e-05
0.000982137 5.86661e-06 -1.19674e-05
5.86661e-06 -4.32467e-05 -6.14624e-08
-1.19674e-05 -6.14624e-08 -0.000166635
0.00152412 5.98707e-06 6.49961e-08
5.98707e-06 5.26793e-05 7.14433e-08
6.49961e-08 7.14433e-08 -6.36677e-05
0.00189131 4.35837e-05 -1.52335e-06
4.35837e-05 0.000104701 -6.53311e-08
-1.52335e-06 -6.53311e-08 3.29455e-05
0.00188076 0.000157743 -4.19837e-07
0.000157743 0.000105945 1.07679e-07
-4.19837e-07 1.07679e-07 3.56926e-06
0.00184419 0.000101433 2.00464e-06
0.000101433 2.13413e-05 4.14739e-07
2.00464e-06 4.14739e-07 -3.1231e-05
0.00188142 0.000266702 -3.25478e-07
0.000266702 0.000156243 -1.40813e-07
-3.25478e-07 -1.40813e-07 8.30334e-06
0.00185633 0.000224062 -3.45449e-07
0.000224062 5.20512e-05 7.01783e-07
-3.45449e-07 7.01783e-07 -3.93972e-05
0.00188214 -1.90093e-08 -8.90837e-07
-1.90093e-08 0.000108252 1.94914e-07
-8.90837e-07 1.94914e-07 3.68609e-05
0.00185794 4.74526e-05 5.69137e-06
4.74526e-05 3.41499e-05 3.76317e-07
5.69137e-06 3.76317e-07 -9.6654e-06
0.0018385 0.000161787 1.89934e-06
0.000161787 2.10712e-05 5.60199e-07
1.89934e-06 5.60199e-07 -4.57852e-05
0.0019263 0.000103063 6.04636e-06
0.000103063 4.45999e-05 1.02922e-06
6.04636e-06 1.02922e-06 1.29237e-05
0.00185542 0.000263923 3.3873e-07
0.000263923 0.000101513 -1.87582e-06
3.3873e-07 -1.87582e-06 -1.93776e-05
0.00187085 0.000228877 4.10052e-06
0.000228877 2.18309e-05 1.21004e-06
4.10052e-06 1.21004e-06 -5.25947e-05
0.00156306 -2.31983e-05 -2.30581e-06
-2.31983e-05 7.73326e-05 -1.30801e-07
-2.30581e-06 -1.30801e-07 -4.00461e-05
0.00179055 -0.000128488 -5.20688e-06
-0.000128488 0.000212116 3.46519e-07
-5.20688e-06 3.46519e-07 8.22311e-05
0.00187088 -8.7952e-05 1.90659e-06
-8.7952e-05 0.000106726 -1.76591e-06
1.90659e-06 -1.76591e-06 2.48323e-05
0.00180233 -0.000197165 -9.90289e-07
-0.000197165 0.000100345 -1.35694e-07
-9.90289e-07 -1.35694e-07 -2.47336e-05
0.000840206 -0.000218995 -6.27309e-06
-0.000218995 0.000159487 7.18835e-06
-6.27309e-06 7.18835e-06 -3.44802e-05
0.00109446 -0.000284385 -6.99127e-06
-0.000284385 0.000132024 4.30647e-06
-6.99127e-06 4.30647e-06 -0.000100824
0.00135582 -0.00040295 7.1016e-07
-0.00040295 0.000161705 -4.01362e-08
7.1016e-07 -4.01362e-08 -0.000119726
0.00172595 -0.000295485 -1.08546e-06
-0.000295485 0.000123136 -5.11601e-08
-1.08546e-06 -5.11601e-08 -4.58478e-05
0.00192576 -0.000275043 1.61227e-06
-0.000275043 0.000137188 -1.26751e-06
1.61227e-06 -1.26751e-06 3.18672e-05
0.00185084 -0.000359622 2.4066e-06
-0.000359622 0.000171263 -9.7989e-07
2.4066e-06 -9.7989e-07 7.53535e-06
0.00181343 -0.000455478 -6.47771e-07
-0.000455478 0.000236906 -2.32919e-06
-6.47771e-07 -2.32919e-06 -1.28781e-05
0.00207347 -0.000402347 5.98443e-06
-0.000402347 0.000329877 -5.91714e-06
5.98443e-06 -5.91714e-06 0.00016122
0.000921064 -0.000222442 1.11804e-06
-0.000222442 0.000193156 1.28482e-06
1.11804e-06 1.28482e-06 -2.18719e-05
0.00025965 -0.000157084 2.29392e-06
-0.000157084 -0.000198708 3.36007e-07
2.29392e-06 3.36007e-07 -0.00041809
0.000678694 -6.39173e-05 -3.97339e-07
-6.39173e-05 9.55477e-05 4.06516e-06
-3.97339e-07 4.06516e-06 -1.63429e-05
0.000149274 -2.92528e-05 2.88015e-06
-2.92528e-05 -0.000201828 -3.50329e-06
2.88015e-06 -3.50329e-06 -0.000384691
0.00184451 -4.6462e-05 8.46986e-08
-4.6462e-05 8.75423e-05 2.84923e-07
8.46986e-08 2.84923e-07 7.84113e-06
0.00181836 -0.000146412 1.32265e-06
-0.000146412 8.90618e-05 -4.82664e-07
1.32265e-06 -4.82664e-07 -1.82444e-05
0.00183667 -9.57008e-05 2.19237e-06
-9.57008e-05 4.75322e-05 -6.182e-07
2.19237e-06 -6.182e-07 -8.51138e-06
0.00186718 -0.000223063 -2.03645e-06
-0.000223063 6.83808e-05 5.76543e-07
-2.03645e-06 5.76543e-07 -1.81355e-05
0.00102632 -0.000249392 -1.71615e-06
-0.000249392 0.000185618 -1.11625e-07
-1.71615e-06 -1.11625e-07 -3.56877e-05
0.00115894 -0.00036136 1.6545e-06
-0.00036136 0.000140987 -1.27718e-06
1.6545e-06 -1.27718e-06 -0.000138755
0.00167671 -0.000502488 -8.87584e-08
-0.000502488 0.000265845 5.11861e-07
-8.87584e-08 5.11861e-07 -4.4208e-05
0.0017573 -0.000316293 -1.57544e-06
-0.000316293 8.58128e-05 8.03278e-07
-1.57544e-06 8.03278e-07 -5.27436e-05
0.00189821 -0.000285963 1.56664e-06
-0.000285963 0.000107543 -8.95338e-07
1.56664e-06 -8.95338e-07 1.26229e-05
0.00181775 -0.000461289 -2.35699e-07
-0.000461289 0.000211741 5.45215e-07
-2.35699e-07 5.45215e-07 -3.01046e-05
0.00176683 -0.000374004 -7.66819e-07
-0.000374004 9.57394e-05 1.16758e-06
-7.66819e-07 1.16758e-06 -4.65064e-05
0.0020156 -0.000398412 3.68842e-06
-0.000398412 0.000276476 -5.71262e-06
3.68842e-06 -5.71262e-06 0.000111496
0.00116537 -0.000283135 4.17939e-07
-0.000283135 0.000281708 1.0491e-06
4.17939e-07 1.0491e-06 5.16665e-05
0.00138398 -0.000296134 5.72482e-06
-0.000296134 0.000456744 1.7615e-06
5.72482e-06 1.7615e-06 0.000222384
0.000838143 -0.000149277 -2.3727e-07
-0.000149277 0.000233439 -7.81316e-08
-2.3727e-07 -7.81316e-08 5.6893e-07
0.000419658 -2.23628e-05 -1.79781e-06
-2.23628e-05 -5.53241e-05 5.92671e-07
-1.79781e-06 5.92671e-07 -0.000150669
0.000229803 -2.57647e-05 -3.60551e-07
-2.57647e-05 -0.000138963 -4.48229e-07
-3.60551e-07 -4.48229e-07 -0.000303981
0.00186163 -5.57675e-05 4.59058e-06
-5.57675e-05 3.83804e-05 -6.22888e-07
4.59058e-06 -6.22888e-07 -6.35881e-07
0.00189687 -0.000140828 4.60515e-06
-0.000140828 6.97144e-05 -8.08126e-07
4.60515e-06 -8.08126e-07 1.15359e-05
0.00195122 -0.000269741 2.66293e-06
-0.000269741 7.03888e-05 -1.49483e-06
2.66293e-06 -1.49483e-06 2.14079e-06
0.00178258 -0.000320698 6.13778e-07
-0.000320698 6.0501e-05 -1.43691e-06
6.13778e-07 -1.43691e-06 -4.51534e-05
0.0014079 -0.000330786 -9.4705e-07
-0.000330786 0.000369768 -4.17742e-06
-9.4705e-07 -4.17742e-06 0.000115381
0.00216174 -0.000449844 -3.1949e-07
-0.000449844 0.000260891 -1.44659e-06
-3.1949e-07 -1.44659e-06 0.000110569
0.00158561 -0.000477176 1.22589e-06
-0.000477176 0.000377602 -2.49217e-06
1.22589e-06 -2.49217e-06 4.79421e-05
0.00182707 -0.000558106 2.26219e-07
-0.000558106 0.000317153 1.02103e-06
2.26219e-07 1.02103e-06 -7.32868e-06
0.00181177 -0.000449778 4.96085e-07
-0.000449778 0.000190477 2.99846e-06
4.96085e-07 2.99846e-06 -4.37499e-05
0.000128321 3.08408e-06 -1.08374e-06
3.08408e-06 -0.000229385 -3.94562e-06
-1.08374e-06 -3.94562e-06 -0.000307014
0.000747111 -6.85961e-05 -1.2188e-06
-6.85961e-05 0.000188507 3.37953e-08
-1.2188e-06 3.37953e-08 3.8478e-05
0.00100979 -0.000103555 -2.67328e-06
-0.000103555 0.000338044 8.44289e-07
-2.67328e-06 8.44289e-07 0.00013996
0.00181023 -0.000366277 -9.4985e-06
-0.000366277 0.000641659 -2.0277e-07
-9.4985e-06 -2.0277e-07 0.000390048
0.000533535 -0.000151554 2.66519e-06
-0.000151554 2.80778e-05 6.15623e-06
2.66519e-06 6.15623e-06 -0.000214775
0.000893629 -0.000275694 -3.75319e-06
-0.000275694 0.000124075 3.59341e-07
-3.75319e-06 3.59341e-07 -0.000112959
0.000513789 -4.71145e-05 -9.61923e-07
-4.71145e-05 -2.94818e-05 -5.2394e-06
-9.61923e-07 -5.2394e-06 -5.43847e-05
0.000567433 -1.06314e-05 -1.07809e-06
-1.06314e-05 2.21767e-05 -4.02142e-06
-1.07809e-06 -4.02142e-06 -5.60277e-05
0.00183097 0.000317113 -1.92297e-06
0.000317113 0.000161289 -3.85705e-07
-1.92297e-06 -3.85705e-07 -1.41153e-05
9.88411e-05 -4.4071e-05 1.56289e-06
-4.4071e-05 -0.000215771 -2.06954e-06
1.56289e-06 -2.06954e-06 -0.000369738
0.000876949 0.000211444 -1.07785e-06
0.000211444 0.000185717 -2.97284e-07
-1.07785e-06 -2.97284e-07 -2.11466e-05
6.07687e-05 8.93839e-05 2.7842e-06
8.93839e-05 -0.000303453 8.48481e-07
2.7842e-06 8.48481e-07 -0.000489075
0.00170549 0.000393579 7.30053e-07
0.000393579 0.000208635 6.07733e-07
7.30053e-07 6.07733e-07 -2.05054e-05
0.00175505 0.000387547 1.10541e-06
0.000387547 0.000147521 3.398e-07
1.10541e-06 3.398e-07 -4.72596e-05
0.00146033 0.000337339 1.20297e-06
0.000337339 0.000403714 2.14452e-07
1.20297e-06 2.14452e-07 0.00013435
0.00213685 0.000445938 -1.29196e-06
0.000445938 0.00064931 -1.59471e-07
-1.29196e-06 -1.59471e-07 0.000361624
0.0017637 0.000454727 -7.81147e-07
0.000454727 0.000228567 9.87875e-07
-7.81147e-07 9.87875e-07 -2.43475e-05
0.000590175 8.56047e-06 -4.44802e-07
8.56047e-06 2.40283e-05 4.57993e-07
-4.44802e-07 4.57993e-07 -4.01489e-05
0.000715118 2.08065e-05 -7.27943e-07
2.08065e-05 0.000141551 2.32861e-07
-7.27943e-07 2.32861e-07 2.01187e-05
0.00109395 0.000274123 -1.23562e-06
0.000274123 0.000244018 -4.88164e-07
-1.23562e-06 -4.88164e-07 1.81941e-05
0.000844842 7.19654e-05 4.19288e-07
7.19654e-05 0.00023775 4.77997e-07
4.19288e-07 4.77997e-07 4.87303e-05
0.00077074 0.00018573 3.00696e-06
0.00018573 0.000101419 1.32736e-06
3.00696e-06 1.32736e-06 -8.53657e-05
0.00183264 0.000329694 -2.20381e-06
0.000329694 0.000138958 -1.6682e-06
-2.20381e-06 -1.6682e-06 -1.8885e-05
0.00185875 0.000444534 1.68839e-06
0.000444534 0.000250942 5.30236e-07
1.68839e-06 5.30236e-07 2.16173e-05
0.00174577 0.000420853 4.81381e-07
0.000420853 0.000107753 -1.17411e-07
4.81381e-07 -1.17411e-07 -8.39473e-05
0.000984379 0.000341627 2.28884e-06
0.000341627 0.000105873 3.13049e-06
2.28884e-06 3.13049e-06 -0.000180392
0.00165627 0.000449255 -2.52229e-06
0.000449255 0.000285251 -1.64239e-06
-2.52229e-06 -1.64239e-06 1.05969e-05
0.000777605 4.57028e-05 3.99918e-08
4.57028e-05 0.000168273 2.13123e-06
3.99918e-08 2.13123e-06 6.3447e-05
0.000230615 -4.08758e-06 -1.80449e-06
-4.08758e-06 -0.00012925 1.53122e-06
-1.80449e-06 1.53122e-06 -0.000276446
0.000753749 0.000262311 -4.68365e-06
0.000262311 -9.40911e-06 -2.79108e-06
-4.68365e-06 -2.79108e-06 -0.000233847
0.000689785 0.000157319 -6.86364e-06
0.000157319 0.000152925 -4.46047e-06
-6.86364e-06 -4.46047e-06 -5.27338e-05
0.000805289 0.000243842 -2.6536e-06
0.000243842 7.26527e-05 -3.25934e-06
-2.6536e-06 -3.25934e-06 -0.000115435
0.00174856 0.000354447 -4.85651e-07
0.000354447 2.27678e-05 -1.58146e-06
-4.85651e-07 -1.58146e-06 -0.000114456
0.00199885 0.000489888 3.58005e-06
0.000489888 0.000316052 -1.70312e-06
3.58005e-06 -1.70312e-06 7.18443e-05
0.00165481 0.000438254 2.68689e-06
0.000438254 4.25204e-05 5.09441e-07
2.68689e-06 5.09441e-07 -0.000156531
0.000935528 0.000345531 2.27928e-06
0.000345531 4.30488e-05 5.62915e-06
2.27928e-06 5.62915e-06 -0.000254193
0.00171414 0.000487558 -1.57176e-06
0.000487558 0.000327611 -7.89333e-07
-1.57176e-06 -7.89333e-07 4.07377e-05
0.000577729 -2.15425e-06 -1.77527e-06
-2.15425e-06 1.21712e-05 -2.89644e-06
-1.77527e-06 -2.89644e-06 -4.52186e-05
0.000577323 4.04467e-05 1.15095e-06
4.04467e-05 3.47906e-05 3.88191e-07
1.15095e-06 3.88191e-07 -5.66775e-05
0.00047419 2.53125e-05 -1.94884e-07
2.53125e-05 -3.18463e-05 7.84637e-07
-1.94884e-07 7.84637e-07 -0.000124343
0.000371747 -2.325e-05 -7.01177e-07
-2.325e-05 -8.68836e-05 -1.7834e-06
-7.01177e-07 -1.7834e-06 -0.000175398
0.000631892 4.70178e-05 -2.97813e-07
4.70178e-05 8.01869e-05 -2.90703e-09
-2.97813e-07 -2.90703e-09 -1.38163e-05
0.000664974 6.59996e-05 -6.16398e-07
6.59996e-05 9.01031e-05 -2.67392e-07
-6.16398e-07 -2.67392e-07 -9.69835e-06
0.000780778 0.000100497 -1.76099e-06
0.000100497 0.000169754 -2.96288e-06
-1.76099e-06 -2.96288e-06 6.33623e-05
0.000418076 -1.71056e-06 1.06604e-06
-1.71056e-06 -4.01632e-05 -1.3522e-07
1.06604e-06 -1.3522e-07 -0.000152857
0.000678978 7.55535e-05 1.01244e-06
7.55535e-05 0.000105014 2.08106e-06
1.01244e-06 2.08106e-06 1.50253e-05
0.000600885 4.9792e-05 3.00843e-06
4.9792e-05 4.52127e-05 2.79024e-06
3.00843e-06 2.79024e-06 -1.36206e-05
0.000576258 9.45242e-06 -1.70557e-06
9.45242e-06 2.48847e-05 -8.33639e-09
-1.70557e-06 -8.33639e-09 -3.12885e-05
0.00124171 -2.19884e-05 1.17185e-06
-2.19884e-05 0.000401705 2.63864e-06
1.17185e-06 2.63864e-06 0.000388832
0.000524009 -5.11144e-05 4.92337e-07
-5.11144e-05 -7.10067e-06 -2.78145e-06
4.92337e-07 -2.78145e-06 -6.53272e-05
0.00129436 -3.1575e-05 -5.23767e-06
-3.1575e-05 0.000432819 -1.50388e-06
-5.23767e-06 -1.50388e-06 0.000419416
0.000819444 -3.20874e-05 2.17692e-05
-3.20874e-05 0.000148086 8.31485e-06
2.17692e-05 8.31485e-06 0.000153629
0.00134065 -4.29559e-05 -9.29229e-06
-4.29559e-05 0.000463112 -5.85376e-06
-9.29229e-06 -5.85376e-06 0.000448118
0.000789083 -4.25275e-05 7.93092e-06
-4.25275e-05 0.000133367 3.11135e-06
7.93092e-06 3.11135e-06 0.00013628
0.00232881 -9.92e-05 -3.89123e-06
-9.92e-05 0.0010849 -2.17361e-06
-3.89123e-06 -2.17361e-06 0.00108962
0.000440084 5.03348e-05 -1.79325e-06
5.03348e-05 -6.14935e-05 -4.13233e-06
-1.79325e-06 -4.13233e-06 -8.60704e-05
0.000464898 3.50669e-05 -2.21252e-06
3.50669e-05 -3.79617e-05 -2.05453e-08
-2.21252e-06 -2.05453e-08 -7.15901e-05
0.00256999 0.000115944 2.1634e-05
0.000115944 0.00124845 -3.93124e-06
2.1634e-05 -3.93124e-06 0.00124766
0.00059116 -1.70981e-05 -5.87362e-06
-1.70981e-05 3.18377e-05 8.225e-06
-5.87362e-06 8.225e-06 -8.71564e-06
0.00310154 0.000129713 -2.80784e-05
0.000129713 0.00157675 -1.04937e-06
-2.80784e-05 -1.04937e-06 0.00157206
0.00368957 9.7478e-05 -0.00011847
9.7478e-05 0.00193502 7.9146e-06
-0.00011847 7.9146e-06 0.00193705
0.00184845 0.000266916 -2.17521e-06
0.000266916 0.00013149 8.95299e-07
-2.17521e-06 8.95299e-07 -1.70349e-05
0.00185817 0.000154148 1.57158e-07
0.000154148 9.40391e-05 1.60673e-06
1.57158e-07 1.60673e-06 -7.80831e-06
0.00189039 0.000220366 -3.49261e-07
0.000220366 7.25475e-05 1.86369e-06
-3.49261e-07 1.86369e-06 -1.41445e-05
0.00187213 0.00010099 -1.70084e-06
0.00010099 3.42317e-05 -5.54278e-07
-1.70084e-06 -5.54278e-07 -1.35126e-05
0.00186264 3.65791e-05 -1.56253e-06
3.65791e-05 8.72837e-05 3.13817e-07
-1.56253e-06 3.13817e-07 1.54563e-05
0.00152784 8.80532e-06 -4.96038e-07
8.80532e-06 5.64233e-05 9.01682e-08
-4.96038e-07 9.01682e-08 -5.99081e-05
0.00185183 7.06605e-07 -1.42553e-06
7.06605e-07 8.90581e-05 6.34745e-08
-1.42553e-06 6.34745e-08 1.52906e-05
0.00185179 4.53411e-05 1.84053e-06
4.53411e-05 3.3799e-05 8.10521e-08
1.84053e-06 8.10521e-08 -1.19448e-05
0.00190339 0.000162639 -5.59903e-07
0.000162639 6.30947e-05 -4.18599e-08
-5.59903e-07 -4.18599e-08 -4.844e-06
0.00190416 0.00010404 1.05729e-06
0.00010404 2.84268e-05 8.95245e-08
1.05729e-06 8.95245e-08 -5.73396e-07
0.00184353 0.000261212 -8.24419e-07
0.000261212 0.000102312 -3.13759e-07
-8.24419e-07 -3.13759e-07 -1.80104e-05
0.00189489 0.000233869 3.23347e-06
0.000233869 3.66781e-05 1.26647e-06
3.23347e-06 1.26647e-06 -3.42603e-05
0.00186693 -6.38244e-06 5.07796e-06
-6.38244e-06 5.20799e-05 1.14812e-07
5.07796e-06 1.14812e-07 8.44795e-06
0.00190017 4.77906e-05 5.02062e-06
4.77906e-05 2.11516e-05 1.50454e-07
5.02062e-06 1.50454e-07 -9.80406e-08
0.0019596 0.000164435 3.96127e-06
0.000164435 3.65563e-05 1.29488e-06
3.96127e-06 1.29488e-06 1.40597e-06
0.0019793 0.000300344 1.82088e-07
0.000300344 9.67904e-05 2.23267e-07
1.82088e-07 2.23267e-07 5.34733e-06
0.00186394 -4.63929e-05 2.50443e-08
-4.63929e-05 9.93631e-05 -8.66344e-08
2.50443e-08 -8.66344e-08 1.95914e-05
0.00180694 -0.000147652 1.87706e-06
-0.000147652 8.60677e-05 -1.33666e-06
1.87706e-06 -1.33666e-06 -2.32953e-05
0.00182509 -9.45941e-05 3.89974e-09
-9.45941e-05 4.06493e-05 -8.4489e-07
3.89974e-09 -8.4489e-07 -1.25741e-05
0.00185287 -0.000220489 -3.25361e-06
-0.000220489 6.34288e-05 1.08961e-06
-3.25361e-06 1.08961e-06 -2.58334e-05
0.000996058 -0.000245289 -4.18657e-06
-0.000245289 0.000171572 3.95805e-06
-4.18657e-06 3.95805e-06 -5.04681e-05
0.0010221 -0.000341715 -2.59959e-07
-0.000341715 6.23074e-05 1.46967e-06
-2.59959e-07 1.46967e-06 -0.000211697
0.00164343 -0.000506757 1.98467e-06
-0.000506757 0.000243089 -1.65569e-06
1.98467e-06 -1.65569e-06 -7.15253e-05
0.00174632 -0.000313813 -6.97347e-07
-0.000313813 8.77928e-05 -1.21e-07
-6.97347e-07 -1.21e-07 -5.44355e-05
0.00183365 -0.000284518 5.57965e-07
-0.000284518 7.09284e-05 5.69981e-07
5.57965e-07 5.69981e-07 -2.17684e-05
0.00182172 -0.000378914 2.56139e-06
-0.000378914 0.000118952 7.52782e-07
2.56139e-06 7.52782e-07 -2.42347e-05
0.00179213 -0.000460376 -2.57583e-06
-0.000460376 0.000205735 -2.33298e-06
-2.57583e-06 -2.33298e-06 -3.70284e-05
0.00184297 -0.000384052 2.40638e-06
-0.000384052 0.000161985 -9.96778e-06
2.40638e-06 -9.96778e-06 3.68862e-06
0.00114389 -0.000281741 2.87578e-06
-0.000281741 0.00026417 1.72304e-06
2.87578e-06 1.72304e-06 3.48305e-05
0.000853128 -0.000240108 5.77356e-06
-0.000240108 0.000111435 2.19903e-07
5.77356e-06 2.19903e-07 -0.000102935
0.000661895 -0.000124422 3.82291e-06
-0.000124422 0.000127648 -5.63779e-06
3.82291e-06 -5.63779e-06 -0.000108766
0.000289904 -4.61649e-07 2.38207e-07
-4.61649e-07 -0.000133888 3.79003e-06
2.38207e-07 3.79003e-06 -0.000230886
0.000196083 1.2985e-05 3.20549e-06
1.2985e-05 -0.000163754 -3.56755e-07
3.20549e-06 -3.56755e-07 -0.000323551
0.00186642 -6.28489e-05 -4.93144e-07
-6.28489e-05 4.11786e-05 -1.15905e-07
-4.93144e-07 -1.15905e-07 -7.35457e-07
0.00187387 -0.000140552 1.50691e-06
-0.000140552 5.43097e-05 -4.98954e-07
1.50691e-06 -4.98954e-07 -5.21036e-06
0.00191818 -0.000263002 -1.44821e-06
-0.000263002 6.32869e-05 2.25273e-07
-1.44821e-06 2.25273e-07 -7.93845e-06
0.00122722 -0.000313952 -1.80207e-06
-0.000313952 0.00026089 4.0774e-08
-1.80207e-06 4.0774e-08 8.04384e-06
0.00110318 -0.000416758 1.25853e-06
-0.000416758 8.71011e-05 -1.25874e-06
1.25853e-06 -1.25874e-06 -0.000227256
0.001718 -0.000550358 -1.88847e-07
-0.000550358 0.000257884 -3.14655e-07
-1.88847e-07 -3.14655e-07 -6.87038e-05
0.00179316 -0.000320566 4.38869e-07
-0.000320566 6.31736e-05 -9.36994e-11
4.38869e-07 -9.36994e-11 -4.35338e-05
0.00192512 -0.000460025 8.79296e-07
-0.000460025 0.000253254 -2.84393e-06
8.79296e-07 -2.84393e-06 2.46261e-05
0.00196056 -0.000430186 -6.269e-07
-0.000430186 0.000165513 -9.3795e-07
-6.269e-07 -9.3795e-07 1.71011e-05
0.000229764 4.16775e-05 -9.19965e-07
4.16775e-05 -0.000175359 -7.87896e-07
-9.19965e-07 -7.87896e-07 -0.000247687
0.00122898 -0.000307118 -5.2081e-07
-0.000307118 0.000276103 4.92372e-07
-5.2081e-07 4.92372e-07 3.76223e-05
0.000746491 -0.000256216 1.99031e-06
-0.000256216 4.43882e-05 2.93492e-06
1.99031e-06 2.93492e-06 -0.000174199
0.00106048 -0.000205545 -3.93725e-07
-0.000205545 0.000352736 3.81176e-07
-3.93725e-07 3.81176e-07 9.65164e-05
0.00116584 -0.000107269 8.09757e-07
-0.000107269 0.00043344 -2.29346e-06
8.09757e-07 -2.29346e-06 0.000235905
0.000542324 -1.53067e-05 -6.81055e-07
-1.53067e-05 5.39596e-05 1.02069e-06
-6.81055e-07 1.02069e-06 -9.0356e-05
0.00189934 -7.4457e-05 4.66087e-06
-7.4457e-05 2.68271e-05 -5.93115e-07
4.66087e-06 -5.93115e-07 6.01234e-06
0.00198563 -0.00018155 2.46137e-06
-0.00018155 2.48592e-05 -5.94705e-07
2.46137e-06 -5.94705e-07 2.43947e-06
0.00196155 -0.000314163 2.50327e-06
-0.000314163 6.15254e-05 -1.76737e-06
2.50327e-06 -1.76737e-06 9.3761e-06
0.00209837 -0.000394838 2.24823e-06
-0.000394838 0.000154432 -3.09693e-06
2.24823e-06 -3.09693e-06 5.52001e-05
0.00209598 -0.000444197 -3.18099e-06
-0.000444197 0.000750454 -5.34598e-06
-3.18099e-06 -5.34598e-06 0.000455701
0.0019018 -0.000484865 3.88684e-06
-0.000484865 0.000169374 2.33125e-06
3.88684e-06 2.33125e-06 -2.51086e-05
0.00138817 -0.000516433 -4.33335e-06
-0.000516433 0.000221881 1.4951e-06
-4.33335e-06 1.4951e-06 -0.000142292
0.00196683 -0.000593566 -5.10181e-06
-0.000593566 0.000409211 1.24881e-06
-5.10181e-06 1.24881e-06 6.41167e-05
0.000229427 5.72558e-05 -2.91477e-06
5.72558e-05 -0.000179431 -1.75011e-06
-2.91477e-06 -1.75011e-06 -0.000237904
0.000670022 3.13908e-06 -1.45465e-06
3.13908e-06 0.000127826 -9.209e-09
-1.45465e-06 -9.209e-09 1.01837e-05
0.00104999 -0.00013036 -4.06736e-06
-0.00013036 0.000370992 3.35853e-06
-4.06736e-06 3.35853e-06 0.000199466
0.000927448 -3.81669e-05 -3.40671e-06
-3.81669e-05 0.000269348 4.15406e-06
-3.40671e-06 4.15406e-06 4.1669e-05
0.00104033 -0.000326695 -5.81517e-06
-0.000326695 0.00014723 -6.31509e-06
-5.81517e-06 -6.31509e-06 -0.000122512
0.00119722 -0.00029601 -1.01311e-05
-0.00029601 0.000365848 4.85519e-06
-1.01311e-05 4.85519e-06 7.9382e-05
0.000500254 1.42515e-06 -2.04397e-06
1.42515e-06 -3.01197e-05 -2.97219e-06
-2.04397e-06 -2.97219e-06 -9.32879e-05
0.00048171 -1.86818e-05 1.38593e-06
-1.86818e-05 -1.16454e-05 -1.89084e-06
1.38593e-06 -1.89084e-06 -0.000119862
0.00180456 0.000331498 -2.26011e-06
0.000331498 0.000122321 -8.0975e-07
-2.26011e-06 -8.0975e-07 -3.66905e-05
0.000192054 2.09398e-05 8.59461e-07
2.09398e-05 -0.000165493 -2.0623e-07
8.59461e-07 -2.0623e-07 -0.000339986
0.00137519 0.000303709 1.02795e-06
0.000303709 0.000414109 7.2747e-07
1.02795e-06 7.2747e-07 0.000181398
-5.54263e-05 8.78715e-05 5.48463e-06
8.78715e-05 -0.000410505 2.88041e-06
5.48463e-06 2.88041e-06 -0.000570405
0.00182902 0.000441812 8.27767e-07
0.000441812 0.000230961 3.12844e-07
8.27767e-07 3.12844e-07 1.79837e-06
0.00186654 0.000423429 -2.84094e-06
0.000423429 0.000178076 6.86256e-07
-2.84094e-06 6.86256e-07 -1.25046e-05
0.00153339 0.000407928 -8.62533e-07
0.000407928 0.000423702 1.67166e-06
-8.62533e-07 1.67166e-06 0.000126545
0.00194296 0.000476216 -2.57061e-06
0.000476216 0.00047063 6.65151e-07
-2.57061e-06 6.65151e-07 0.000188116
0.00068102 2.10449e-05 -1.04588e-06
2.10449e-05 0.000105713 2.49307e-07
-1.04588e-06 2.49307e-07 6.11916e-06
0.000476109 3.86983e-05 9.96433e-07
3.86983e-05 1.92093e-05 7.00528e-07
9.96433e-07 7.00528e-07 -0.000133421
0.00143978 0.000332125 -1.02899e-06
0.000332125 0.000408584 -1.79202e-06
-1.02899e-06 -1.79202e-06 0.000169129
0.000498419 6.32909e-05 -1.44799e-06
6.32909e-05 2.15221e-06 -2.47412e-07
-1.44799e-06 -2.47412e-07 -0.000170814
0.000582316 0.000209392 -1.63136e-07
0.000209392 -7.20899e-05 -1.1063e-06
-1.63136e-07 -1.1063e-06 -0.000240507
0.0019511 0.000367114 -2.99991e-06
0.000367114 0.000136798 -1.22857e-06
-2.99991e-06 -1.22857e-06 1.52941e-06
0.00208124 0.000489358 2.2347e-06
0.000489358 0.000368766 -2.41093e-07
2.2347e-06 -2.41093e-07 0.000128456
0.00184317 0.00045872 1.91952e-06
0.00045872 0.000142353 2.70628e-06
1.91952e-06 2.70628e-06 -6.08187e-05
0.00124976 0.000382329 5.01132e-06
0.000382329 0.000240683 3.69638e-06
5.01132e-06 3.69638e-06 -6.50768e-05
0.001673 0.000494992 -3.89797e-06
0.000494992 0.00029995 2.96969e-07
-3.89797e-06 2.96969e-07 5.35832e-06
7.21839e-05 -9.43607e-06 -1.31902e-06
-9.43607e-06 -0.000252224 2.77236e-06
-1.31902e-06 2.77236e-06 -0.00035646
-0.000100757 9.2176e-05 8.91947e-07
9.2176e-05 -0.000286582 5.26448e-07
8.91947e-07 5.26448e-07 -0.000481179
0.000628022 0.000258306 6.76846e-07
0.000258306 -9.04875e-05 1.86076e-06
6.76846e-07 1.86076e-06 -0.000329994
-0.000324127 0.000115662 3.75281e-06
0.000115662 -0.000566753 -6.69969e-07
3.75281e-06 -6.69969e-07 -0.00074142
0.00195497 0.00037087 1.76922e-07
0.00037087 -7.60457e-05 1.07159e-06
1.76922e-07 1.07159e-06 -0.000118543
0.00256015 0.000469913 1.73863e-06
0.000469913 0.000494661 -2.89862e-07
1.73863e-06 -2.89862e-07 0.000330057
0.00187977 0.000530207 -3.74515e-06
0.000530207 0.000274818 -4.10827e-06
-3.74515e-06 -4.10827e-06 -1.8463e-06
0.000982613 0.0004066 -9.21361e-07
0.0004066 7.56785e-06 1.09083e-06
-9.21361e-07 1.09083e-06 -0.000313208
0.00063177 7.49208e-05 -9.62077e-07
7.49208e-05 7.24822e-05 -1.03236e-06
-9.62077e-07 -1.03236e-06 -2.22291e-05
0.000606057 5.42663e-05 -3.36007e-07
5.42663e-05 5.83254e-05 6.04872e-08
-3.36007e-07 6.04872e-08 -4.22073e-05
0.000959652 5.27057e-05 -3.70776e-06
5.27057e-05 0.00026926 -2.05799e-06
-3.70776e-06 -2.05799e-06 0.000179121
0.000621148 2.39662e-05 -1.46169e-06
2.39662e-05 5.88617e-05 -1.95053e-06
-1.46169e-06 -1.95053e-06 -2.43984e-05
0.000384316 1.43559e-05 -6.84266e-07
1.43559e-05 -7.77415e-05 -3.12275e-07
-6.84266e-07 -3.12275e-07 -0.000173832
0.000637836 3.77385e-05 -2.11247e-07
3.77385e-05 8.28685e-05 5.22469e-08
-2.11247e-07 5.22469e-08 -8.08036e-06
0.00064556 9.90705e-05 -1.05514e-06
9.90705e-05 0.000100713 1.22763e-07
-1.05514e-06 1.22763e-07 -8.78087e-06
0.000554697 3.34231e-05 9.91685e-07
3.34231e-05 4.62171e-05 2.50488e-07
9.91685e-07 2.50488e-07 -6.9901e-05
0.00074784 7.23631e-05 1.35172e-06
7.23631e-05 0.000135079 -1.73818e-06
1.35172e-06 -1.73818e-06 4.91479e-05
0.000675174 -2.5424e-06 3.69222e-06
-2.5424e-06 0.000113399 -2.99496e-06
3.69222e-06 -2.99496e-06 -1.76662e-06
0.000471937 5.87439e-05 7.23017e-07
5.87439e-05 -2.16037e-06 1.86916e-06
7.23017e-07 1.86916e-06 -0.000121756
0.000660799 8.73835e-05 1.78724e-06
8.73835e-05 0.000100693 2.53691e-06
1.78724e-06 2.53691e-06 5.99444e-06
0.000528125 5.83315e-05 2.65255e-06
5.83315e-05 7.69877e-06 2.6181e-06
2.65255e-06 2.6181e-06 -5.56589e-05
0.000536075 1.93936e-06 -1.47395e-06
1.93936e-06 7.51744e-06 -9.28013e-08
-1.47395e-06 -9.28013e-08 -5.18745e-05
0.00123283 -8.00358e-06 1.12298e-06
-8.00358e-06 0.000399221 2.48732e-06
1.12298e-06 2.48732e-06 0.000386583
0.000527054 -4.90483e-05 1.81985e-07
-4.90483e-05 -1.48981e-06 -2.66985e-06
1.81985e-07 -2.66985e-06 -5.94749e-05
0.00129798 -1.83575e-05 -4.567e-06
-1.83575e-05 0.000436054 -1.5863e-06
-4.567e-06 -1.5863e-06 0.000423387
0.000811552 -2.31479e-05 1.88438e-05
-2.31479e-05 0.000142043 8.56588e-06
1.88438e-05 8.56588e-06 0.000148446
0.00134206 -2.90871e-05 -8.08384e-06
-2.90871e-05 0.000462052 -5.81299e-06
-8.08384e-06 -5.81299e-06 0.000448749
0.000779633 -3.3268e-05 6.60999e-06
-3.3268e-05 0.00012282 3.20669e-06
6.60999e-06 3.20669e-06 0.000127801
0.000732949 -4.15072e-05 -8.58941e-07
-4.15072e-05 9.85095e-05 -2.40224e-06
-8.58941e-07 -2.40224e-06 0.000101355
0.000476802 3.85386e-05 -7.1174e-08
3.85386e-05 -5.35532e-05 -3.2263e-06
-7.1174e-08 -3.2263e-06 -7.0217e-05
0.000477568 6.13688e-05 -1.37321e-08
6.13688e-05 -3.46891e-05 1.76273e-07
-1.37321e-08 1.76273e-07 -6.22965e-05
0.00230514 9.48029e-05 1.74565e-05
9.48029e-05 0.00107906 -3.84628e-06
1.74565e-05 -3.84628e-06 0.00108396
0.000523506 3.08661e-05 -3.2292e-06
3.08661e-05 -1.07375e-06 6.74285e-06
-3.2292e-06 6.74285e-06 -3.60104e-05
0.00265877 0.000119684 -6.29092e-06
0.000119684 0.00130259 -5.76698e-07
-6.29092e-06 -5.76698e-07 0.00130083
0.00318244 8.76413e-05 -9.39331e-05
8.76413e-05 0.00162078 6.10799e-06
-9.39331e-05 6.10799e-06 0.001626
0.00183408 0.000258322 -6.23949e-07
0.000258322 0.000105658 1.76567e-06
-6.23949e-07 1.76567e-06 -1.4052e-05
0.00197197 0.000163683 -3.7058e-06
0.000163683 0.000106853 -2.3489e-07
-3.7058e-06 -2.3489e-07 3.77353e-05
0.00191263 0.000238517 3.27758e-08
0.000238517 4.76999e-05 -1.60207e-07
3.27758e-08 -1.60207e-07 -1.98658e-05
0.00188258 0.000105347 -4.63556e-06
0.000105347 1.23959e-05 -1.06214e-06
-4.63556e-06 -1.06214e-06 -1.39877e-05
0.00185001 4.40099e-05 -2.86451e-06
4.40099e-05 3.60984e-05 -2.13456e-07
-2.86451e-06 -2.13456e-07 -1.15441e-05
0.00180168 -1.41664e-06 -1.26209e-06
-1.41664e-06 5.75427e-05 7.48089e-08
-1.26209e-06 7.48089e-08 -1.86623e-05
0.00183176 -3.92232e-06 -6.45994e-07
-3.92232e-06 2.97599e-05 -3.24344e-08
-6.45994e-07 -3.24344e-08 -1.32447e-05
0.00190587 4.93211e-05 1.08739e-06
4.93211e-05 3.09625e-05 1.66603e-07
1.08739e-06 1.66603e-07 8.5612e-06
0.00195956 0.000168652 6.78215e-07
0.000168652 3.86111e-05 1.1847e-07
6.78215e-07 1.1847e-07 3.26794e-06
0.00201348 0.000297046 4.82276e-07
0.000297046 0.000104219 1.96866e-07
4.82276e-07 1.96866e-07 1.39522e-05
0.00188484 -1.01342e-05 3.62266e-06
-1.01342e-05 2.53894e-05 -3.69292e-08
3.62266e-06 -3.69292e-08 4.4603e-06
0.00201648 9.71503e-05 2.14262e-06
9.71503e-05 8.37096e-06 4.39874e-08
2.14262e-06 4.39874e-08 1.45191e-05
0.00213817 0.000256202 2.90301e-06
0.000256202 7.19042e-05 1.23696e-06
2.90301e-06 1.23696e-06 3.2869e-05
0.00187108 -6.9949e-05 -3.69101e-06
-6.9949e-05 4.4096e-05 5.94008e-07
-3.69101e-06 5.94008e-07 -6.85366e-07
0.00185089 -0.000140429 -1.73012e-06
-0.000140429 3.92465e-05 -3.19803e-07
-1.73012e-06 -3.19803e-07 -2.1724e-05
0.00188855 -0.00025648 -3.29686e-06
-0.00025648 5.9468e-05 1.39056e-06
-3.29686e-06 1.39056e-06 -1.55265e-05
0.00105676 -0.000297956 -1.23597e-06
-0.000297956 0.000157965 3.54449e-06
-1.23597e-06 3.54449e-06 -9.33147e-05
0.000948614 -0.000390454 3.97801e-06
-0.000390454 -8.98356e-06 -2.7328e-07
3.97801e-06 -2.7328e-07 -0.0003144
0.00162631 -0.000546932 1.17579e-06
-0.000546932 0.000207619 -3.41137e-07
1.17579e-06 -3.41137e-07 -0.000120784
0.00181248 -0.000320782 -1.07823e-06
-0.000320782 7.10325e-05 8.85341e-07
-1.07823e-06 8.85341e-07 -3.68414e-05
0.00165284 -0.00040519 -1.36277e-06
-0.00040519 7.31991e-06 -7.91474e-07
-1.36277e-06 -7.91474e-07 -0.000138956
0.00197368 -0.000466445 -1.51328e-06
-0.000466445 0.000279944 -7.37237e-06
-1.51328e-06 -7.37237e-06 5.7086e-05
0.000823358 -0.000267013 2.97141e-06
-0.000267013 2.14514e-05 5.5138e-06
2.97141e-06 5.5138e-06 -0.000209001
0.000550633 -0.000231523 -7.73038e-06
-0.000231523 -6.15514e-05 6.23856e-06
-7.73038e-06 6.23856e-06 -0.000261542
0.00186606 -0.000275223 2.21266e-06
-0.000275223 0.000856048 -1.73784e-06
2.21266e-06 -1.73784e-06 0.000576159
0.000350995 3.74505e-05 1.70892e-06
3.74505e-05 -0.0001044 5.92581e-07
1.70892e-06 5.92581e-07 -0.000174398
0.000871469 -0.00010985 3.66663e-06
-0.00010985 0.000248035 -1.04824e-06
3.66663e-06 -1.04824e-06 6.50892e-05
0.000309073 3.27088e-05 4.74757e-06
3.27088e-05 -9.58908e-05 1.12996e-06
4.74757e-06 1.12996e-06 -0.00023446
0.00189642 -7.46769e-05 -4.5132e-07
-7.46769e-05 2.64792e-05 1.31275e-07
-4.5132e-07 1.31275e-07 2.22914e-06
0.00196648 -0.000187863 1.95464e-07
-0.000187863 1.01611e-05 -1.26517e-07
1.95464e-07 -1.26517e-07 -1.18784e-05
0.00195513 -0.000311187 -4.13329e-07
-0.000311187 6.49747e-05 4.82576e-07
-4.13329e-07 4.82576e-07 8.10468e-06
0.00142159 -0.00037614 -2.27898e-06
-0.00037614 0.000350038 2.79088e-07
-2.27898e-06 2.79088e-07 6.76954e-05
0.00129396 -0.000502749 6.07686e-07
-0.000502749 0.000163892 -1.10942e-06
6.07686e-07 -1.10942e-06 -0.000194976
0.00205725 -0.000593754 -4.45272e-06
-0.000593754 0.00046119 8.58863e-07
-4.45272e-06 8.58863e-07 0.000125186
0.00198574 -0.000395422 6.53026e-07
-0.000395422 9.03173e-05 -2.76866e-07
6.53026e-07 -2.76866e-07 -1.29335e-05
0.00174602 -0.000472643 1.37883e-06
-0.000472643 7.45843e-05 -3.21426e-06
1.37883e-06 -3.21426e-06 -0.000118079
0.000412455 5.38017e-05 -7.16055e-07
5.38017e-05 -7.2268e-05 -1.02654e-06
-7.16055e-07 -1.02654e-06 -0.000126349
0.000670078 -1.15712e-05 -6.80249e-07
-1.15712e-05 0.00012481 3.33254e-07
-6.80249e-07 3.33254e-07 8.9344e-06
0.000319645 -0.000253681 -5.15299e-06
-0.000253681 -0.000282783 5.5992e-06
-5.15299e-06 5.5992e-06 -0.000531291
0.00156456 -0.000307557 2.74015e-06
-0.000307557 0.000607391 -2.02905e-06
2.74015e-06 -2.02905e-06 0.000317565
0.0010787 -9.06323e-05 -1.97299e-07
-9.06323e-05 0.000373861 -1.91272e-06
-1.97299e-07 -1.91272e-06 0.000143377
0.000840389 -0.000101 -6.37521e-07
-0.000101 0.000243697 9.513e-07
-6.37521e-07 9.513e-07 7.34109e-05
0.00195754 -9.54205e-05 8.7349e-07
-9.54205e-05 -4.38402e-06 1.37153e-07
8.7349e-07 1.37153e-07 -5.64649e-08
0.00205658 -0.000267285 8.03726e-09
-0.000267285 -3.65387e-06 1.7397e-07
8.03726e-09 1.7397e-07 5.59332e-06
0.00202489 -0.00034681 2.30767e-06
-0.00034681 6.83206e-05 -1.94028e-06
2.30767e-06 -1.94028e-06 2.62078e-05
0.00200877 -0.000519606 5.91045e-06
-0.000519606 8.36591e-05 -2.75636e-06
5.91045e-06 -2.75636e-06 -5.00743e-05
0.00103218 -0.000397471 -2.38709e-06
-0.000397471 9.34098e-05 -5.15647e-06
-2.38709e-06 -5.15647e-06 -0.000237957
0.00199106 -0.000604449 -1.32104e-06
-0.000604449 0.000367113 1.25225e-05
-1.32104e-06 1.25225e-05 4.99716e-05
0.00207066 -0.000625308 -4.58166e-06
-0.000625308 0.000581312 -2.06762e-06
-4.58166e-06 -2.06762e-06 0.000176905
0.000598704 5.20757e-05 2.18003e-07
5.20757e-05 2.88527e-05 -1.15301e-06
2.18003e-07 -1.15301e-06 -1.56391e-05
0.00066516 -0.000120237 3.54516e-06
-0.000120237 0.000112692 -2.27993e-06
3.54516e-06 -2.27993e-06 2.34186e-05
0.000419022 6.71332e-05 -3.76186e-06
6.71332e-05 -3.75693e-05 5.54943e-07
-3.76186e-06 5.54943e-07 -0.000129932
0.00066288 -4.58007e-05 -2.98461e-06
-4.58007e-05 0.000138237 4.50607e-06
-2.98461e-06 4.50607e-06 -1.1235e-05
0.000473214 -4.80487e-05 4.14524e-07
-4.80487e-05 -1.08879e-05 3.26944e-07
4.14524e-07 3.26944e-07 -0.00018483
-0.000502877 -3.38923e-05 -5.09391e-07
-3.38923e-05 -0.000559055 4.41804e-07
-5.09391e-07 4.41804e-07 -0.000809587
0.000507967 -0.000300908 -1.21365e-05
-0.000300908 -0.000154714 -4.49068e-06
-1.21365e-05 -4.49068e-06 -0.000411114
0.00301568 -0.000460961 -1.52579e-05
-0.000460961 0.00155013 3.28855e-06
-1.52579e-05 3.28855e-06 0.00112195
0.000629669 1.20202e-06 -8.03896e-07
1.20202e-06 6.86422e-05 -1.07658e-06
-8.03896e-07 -1.07658e-06 -2.42871e-05
0.000737119 7.52124e-05 5.49264e-07
7.52124e-05 0.000180759 -8.22303e-07
5.49264e-07 -8.22303e-07 1.99217e-05
0.00214654 0.000378912 -1.74344e-06
0.000378912 0.00024779 -1.14245e-06
-1.74344e-06 -1.14245e-06 0.000114692
0.000755018 0.00010585 -1.24293e-06
0.00010585 0.0001708 3.17451e-06
-1.24293e-06 3.17451e-06 -1.52951e-05
0.00220829 0.000411784 1.12567e-06
0.000411784 0.000875629 5.96481e-07
1.12567e-06 5.96481e-07 0.000618582
0.000347688 0.000172115 4.16241e-07
0.000172115 -0.000220988 5.40167e-07
4.16241e-07 5.40167e-07 -0.000370399
0.00212724 0.000484229 -2.72657e-06
0.000484229 0.000403661 -3.23344e-07
-2.72657e-06 -3.23344e-07 0.000168323
0.00198713 0.000475874 -2.92544e-06
0.000475874 0.000217781 5.56708e-06
-2.92544e-06 5.56708e-06 1.12193e-05
0.00171736 0.000438103 -8.90234e-07
0.000438103 0.000522796 3.40738e-07
-8.90234e-07 3.40738e-07 0.000205504
0.0014598 0.000486956 8.4627e-08
0.000486956 0.000170796 8.39795e-07
8.4627e-08 8.39795e-07 -0.000128363
0.000245403 2.21323e-05 -1.68503e-07
2.21323e-05 -0.000142056 1.11979e-06
-1.68503e-07 1.11979e-06 -0.000254072
0.000327187 0.00013021 -7.7625e-07
0.00013021 -2.68416e-05 -2.46743e-06
-7.7625e-07 -2.46743e-06 -0.000227191
0.00147246 0.000349992 4.15719e-06
0.000349992 0.000414515 -1.04209e-06
4.15719e-06 -1.04209e-06 0.000158374
0.000725922 0.000199712 -2.88227e-06
0.000199712 6.3548e-05 -2.78143e-06
-2.88227e-06 -2.78143e-06 -0.000121884
0.00207573 0.000363064 9.98346e-07
0.000363064 -6.38446e-06 -8.20074e-07
9.98346e-07 -8.20074e-07 -4.86042e-05
0.00227835 0.000461797 3.1921e-06
0.000461797 0.000337126 5.34658e-07
3.1921e-06 5.34658e-07 0.000168555
0.00191196 0.000524875 -7.57343e-07
0.000524875 0.000287268 4.24399e-07
-7.57343e-07 4.24399e-07 1.44983e-05
0.00128585 0.000439394 2.83948e-07
0.000439394 0.000165826 5.746e-07
2.83948e-07 5.746e-07 -0.000155777
0.00018844 4.37742e-05 -1.62942e-06
4.37742e-05 -0.000181833 3.32081e-06
-1.62942e-06 3.32081e-06 -0.000297299
0.00204624 0.00029837 2.71367e-06
0.00029837 -8.68687e-05 3.09042e-06
2.71367e-06 3.09042e-06 -6.60279e-05
0.00176257 0.000327547 3.61387e-06
0.000327547 0.000797199 5.80748e-06
3.61387e-06 5.80748e-06 0.000548547
0.00122474 0.000339704 6.31554e-06
0.000339704 0.000241783 2.34966e-06
6.31554e-06 2.34966e-06 -1.01651e-05
0.00240633 0.000453353 -1.79272e-05
0.000453353 0.000285779 -6.04591e-06
-1.79272e-05 -6.04591e-06 0.000173753
0.00100591 0.000483885 -7.0799e-06
0.000483885 -0.000329649 -8.62202e-06
-7.0799e-06 -8.62202e-06 -0.000584563
0.00204373 0.000542984 -2.555e-06
0.000542984 0.000541991 2.85171e-06
-2.555e-06 2.85171e-06 0.000197969
0.000697385 7.08159e-05 -1.34533e-06
7.08159e-05 0.000112407 -6.40694e-07
-1.34533e-06 -6.40694e-07 1.23453e-05
0.000664997 6.64803e-05 -2.13931e-06
6.64803e-05 0.000101073 -5.97781e-07
-2.13931e-06 -5.97781e-07 6.48678e-06
0.00107664 5.98529e-05 -2.85786e-06
5.98529e-05 0.000353345 -4.4697e-07
-2.85786e-06 -4.4697e-07 0.000273043
0.000576489 1.00836e-07 1.25192e-07
1.00836e-07 4.8906e-05 -2.64639e-06
1.25192e-07 -2.64639e-06 -4.38269e-05
0.000664889 6.32029e-05 9.76329e-07
6.32029e-05 0.000115091 -5.93338e-08
9.76329e-07 -5.93338e-08 -3.02863e-06
0.000252119 4.33561e-05 -1.57125e-06
4.33561e-05 -0.000123138 2.91658e-06
-1.57125e-06 2.91658e-06 -0.0002291
0.000600776 9.5262e-06 -8.39057e-07
9.5262e-06 7.21129e-05 2.80118e-08
-8.39057e-07 2.80118e-08 -2.7099e-05
0.000390191 -1.58964e-05 -6.22694e-07
-1.58964e-05 -4.14105e-05 4.00199e-07
-6.22694e-07 4.00199e-07 -0.000164917
0.000388943 2.45935e-05 3.15346e-07
2.45935e-05 -7.17518e-05 5.84333e-07
3.15346e-07 5.84333e-07 -0.000151136
0.000751991 6.26265e-05 8.31126e-07
6.26265e-05 0.000172718 -7.00546e-07
8.31126e-07 -7.00546e-07 4.61902e-05
0.00133431 7.64796e-05 2.12532e-07
7.64796e-05 0.000472471 -1.83748e-06
2.12532e-07 -1.83748e-06 0.000408946
0.000668775 1.40283e-06 4.83184e-06
1.40283e-06 9.46433e-05 -3.67672e-06
4.83184e-06 -3.67672e-06 3.68829e-06
0.00068584 6.0758e-05 1.66181e-07
6.0758e-05 0.000140574 1.61478e-06
1.66181e-07 1.61478e-06 -1.74822e-06
0.00059721 3.93561e-05 2.51499e-06
3.93561e-05 8.45834e-05 2.1718e-06
2.51499e-06 2.1718e-06 -5.09384e-05
0.000628423 2.71973e-05 1.93536e-06
2.71973e-05 8.2724e-05 2.44516e-06
1.93536e-06 2.44516e-06 -1.60857e-05
0.000533448 -4.0124e-05 -8.35651e-09
-4.0124e-05 9.77844e-06 2.50264e-06
-8.35651e-09 2.50264e-06 -5.40943e-05
0.000548908 -3.3374e-06 -4.19227e-07
-3.3374e-06 1.68872e-05 -9.71895e-08
-4.19227e-07 -9.71895e-08 -4.38383e-05
0.001283 5.79537e-06 1.58848e-06
5.79537e-06 0.000434223 2.43196e-06
1.58848e-06 2.43196e-06 0.000420473
0.000550048 -2.16526e-05 6.8592e-07
-2.16526e-05 1.29661e-05 -2.79157e-06
6.8592e-07 -2.79157e-06 -4.4179e-05
0.0013023 -3.88299e-06 -3.55263e-06
-3.88299e-06 0.000441957 -1.61547e-06
-3.55263e-06 -1.61547e-06 0.000429146
0.000790025 -1.48778e-05 1.43292e-05
-1.48778e-05 0.000130076 8.52386e-06
1.43292e-05 8.52386e-06 0.000136875
0.00135892 -1.5374e-05 -6.22423e-06
-1.5374e-05 0.00047338 -5.94627e-06
-6.22423e-06 -5.94627e-06 0.000460613
0.000795956 -2.46511e-05 4.54699e-06
-2.46511e-05 0.000130592 3.30663e-06
4.54699e-06 3.30663e-06 0.000136576
0.000755199 -3.26748e-05 -5.70854e-07
-3.26748e-05 0.000106162 -2.35844e-06
-5.70854e-07 -2.35844e-06 0.000111196
0.000643014 8.80148e-06 1.43569e-06
8.80148e-06 5.28691e-05 -1.65141e-06
1.43569e-06 -1.65141e-06 1.11125e-05
0.000505498 2.87357e-05 4.21664e-07
2.87357e-05 -4.52797e-05 -3.41574e-06
4.21664e-07 -3.41574e-06 -5.74996e-05
0.000511507 4.01576e-05 2.75632e-07
4.01576e-05 -3.1442e-05 1.72917e-07
2.75632e-07 1.72917e-07 -4.87238e-05
0.0021271 7.50591e-05 1.66934e-05
7.50591e-05 0.000961276 -3.93712e-06
1.66934e-05 -3.93712e-06 0.000971285
0.000521708 6.34594e-05 4.5418e-06
6.34594e-05 -6.97504e-06 5.59482e-06
4.5418e-06 5.59482e-06 -3.58835e-05
0.00240986 9.92624e-05 -5.13546e-06
9.92624e-05 0.00114341 -4.54709e-07
-5.13546e-06 -4.54709e-07 0.00114727
0.00281442 0.000124046 -2.0781e-05
0.000124046 0.00139714 4.78726e-06
-2.0781e-05 4.78726e-06 0.00139412
0.00205372 0.000294389 -3.30253e-07
0.000294389 0.000115059 3.18857e-07
-3.30253e-07 3.18857e-07 2.58534e-05
0.0019596 0.000172576 -3.60761e-06
0.000172576 4.1515e-05 -8.47931e-07
-3.60761e-06 -8.47931e-07 5.7926e-06
0.00190874 5.24096e-05 -4.44744e-06
5.24096e-05 3.93463e-05 -5.29284e-07
-4.44744e-06 -5.29284e-07 1.57884e-05
0.00181378 -1.49664e-06 -3.86129e-06
-1.49664e-06 1.83385e-05 -1.15834e-07
-3.86129e-06 -1.15834e-07 -2.39193e-05
0.00188021 -5.63456e-06 -8.89936e-07
-5.63456e-06 1.9237e-05 9.65882e-09
-8.89936e-07 9.65882e-09 1.9211e-06
0.0019958 9.08459e-05 6.76527e-09
9.08459e-05 3.20348e-06 6.38198e-08
6.76527e-09 6.38198e-08 6.72061e-06
0.00208325 0.000259046 -8.18366e-07
0.000259046 3.88009e-05 -6.15171e-08
-8.18366e-07 -6.15171e-08 1.76623e-06
0.00197485 -6.41017e-06 8.39886e-07
-6.41017e-06 -9.85794e-06 -4.20333e-07
8.39886e-07 -4.20333e-07 2.98068e-06
0.00213721 0.00014177 3.50036e-06
0.00014177 -1.36508e-06 -1.83531e-07
3.50036e-06 -1.83531e-07 9.37293e-06
0.0023319 9.52844e-05 -7.40626e-07
9.52844e-05 0.00016844 8.81695e-06
-7.40626e-07 8.81695e-06 0.000224923
0.00189249 -7.50127e-05 -4.84281e-06
-7.50127e-05 2.53617e-05 3.27119e-07
-4.84281e-06 3.27119e-07 -2.33649e-06
0.00195141 -0.000195179 -3.21212e-06
-0.000195179 -3.94121e-06 7.49786e-07
-3.21212e-06 7.49786e-07 -2.48854e-05
0.00194263 -0.00030763 -3.15917e-06
-0.00030763 6.39626e-05 1.31934e-06
-3.15917e-06 1.31934e-06 3.81643e-06
0.000359113 -0.000267102 5.84285e-07
-0.000267102 -0.000281292 4.62971e-06
5.84285e-07 4.62971e-06 -0.000543249
0.00161326 -0.000530782 2.50678e-06
-0.000530782 0.00035007 -8.53167e-07
2.50678e-06 -8.53167e-07 -1.22865e-05
0.0020204 -0.000577357 -1.97782e-06
-0.000577357 0.000447008 -3.29308e-07
-1.97782e-06 -3.29308e-07 0.000122583
0.00189069 -0.000395541 -1.45601e-07
-0.000395541 3.73144e-05 2.03189e-06
-1.45601e-07 2.03189e-06 -6.96543e-05
0.00172353 -0.000467741 -6.30638e-06
-0.000467741 6.08144e-05 -5.03892e-06
-6.30638e-06 -5.03892e-06 -0.000130669
0.000564031 -0.000273109 -4.11093e-06
-0.000273109 -0.000132364 7.7633e-06
-4.11093e-06 7.7633e-06 -0.000378765
0.00212391 -0.000343798 1.54479e-05
-0.000343798 0.000971084 -3.31594e-06
1.54479e-05 -3.31594e-06 0.000671968
0.000799874 -3.98899e-05 1.26966e-06
-3.98899e-05 0.000195581 -4.20156e-07
1.26966e-06 -4.20156e-07 -1.8172e-05
0.00048719 1.6078e-05 7.51814e-07
1.6078e-05 -2.98117e-05 -1.24029e-07
7.51814e-07 -1.24029e-07 -7.97893e-05
0.000813306 3.79629e-05 3.61802e-06
3.79629e-05 0.000207838 2.61959e-07
3.61802e-06 2.61959e-07 9.10585e-05
0.00078623 -7.26024e-05 1.71333e-06
-7.26024e-05 0.00020956 1.11353e-06
1.71333e-06 1.11353e-06 3.75977e-05
0.00197542 -9.78903e-05 3.86908e-07
-9.78903e-05 -1.72063e-06 5.25795e-08
3.86908e-07 5.25795e-08 4.72933e-06
0.000547612 1.79995e-05 1.1399e-06
1.79995e-05 -2.03994e-06 1.78079e-07
1.1399e-06 1.78079e-07 -4.57783e-05
0.000491863 -5.39104e-05 -1.822e-06
-5.39104e-05 -1.50687e-05 -9.80213e-08
-1.822e-06 -9.80213e-08 -8.98099e-05
0.00204679 -0.000257352 -2.01544e-07
-0.000257352 6.49644e-06 1.65919e-07
-2.01544e-07 1.65919e-07 1.33058e-05
0.00197368 -0.000341925 -1.34764e-06
-0.000341925 3.70654e-05 1.45554e-07
-1.34764e-06 1.45554e-07 -1.31786e-06
0.00132088 -0.000428494 -2.59522e-06
-0.000428494 0.000260963 5.92118e-07
-2.59522e-06 5.92118e-07 -7.36914e-05
0.00181039 -0.000599164 6.89962e-07
-0.000599164 0.000439294 1.01394e-06
6.89962e-07 1.01394e-06 3.4093e-05
0.00165055 -0.000572552 3.92514e-06
-0.000572552 0.00016482 -2.15951e-06
3.92514e-06 -2.15951e-06 -0.000143137
0.002129 -0.000523946 2.47455e-06
-0.000523946 0.000162473 -7.52722e-07
2.47455e-06 -7.52722e-07 2.71012e-05
0.000716376 -4.84793e-06 5.6272e-07
-4.84793e-06 0.000148214 -1.35834e-06
5.6272e-07 -1.35834e-06 5.37216e-05
0.000694536 -2.97561e-05 8.86189e-08
-2.97561e-05 0.000159015 1.50571e-06
8.86189e-08 1.50571e-06 6.92742e-06
0.00128251 -0.000358185 -1.1896e-06
-0.000358185 0.000300166 -4.85227e-07
-1.1896e-06 -4.85227e-07 2.75732e-05
0.0017781 -0.000332616 1.73186e-05
-0.000332616 0.000811005 -3.90881e-06
1.73186e-05 -3.90881e-06 0.000450252
0.000376001 -6.23974e-05 -3.44366e-06
-6.23974e-05 -5.08256e-05 -8.93837e-07
-3.44366e-06 -8.93837e-07 -0.000287036
0.000621584 -3.69088e-05 8.63977e-07
-3.69088e-05 9.22329e-05 -8.53113e-07
8.63977e-07 -8.53113e-07 -9.12853e-05
0.00200484 -0.000114379 2.30265e-06
-0.000114379 -7.34141e-05 -5.60458e-07
2.30265e-06 -5.60458e-07 -5.99686e-05
0.00199308 -0.000318035 -1.72257e-07
-0.000318035 -0.000122393 1.03078e-06
-1.72257e-07 1.03078e-06 -1.91084e-05
0.00208554 -0.000465028 -4.5358e-06
-0.000465028 3.10696e-05 -1.00312e-06
-4.5358e-06 -1.00312e-06 -2.84279e-05
0.00156511 -0.000599279 2.59699e-06
-0.000599279 -4.34015e-05 -1.77382e-06
2.59699e-06 -1.77382e-06 -0.00021923
0.00120058 -0.000413724 -5.58727e-06
-0.000413724 0.00021392 -6.78804e-06
-5.58727e-06 -6.78804e-06 -0.000128292
0.0023183 -0.00070262 -1.00773e-05
-0.00070262 0.000680873 1.00423e-05
-1.00773e-05 1.00423e-05 0.000245892
0.000317323 5.11446e-05 -1.32837e-06
5.11446e-05 -0.000108153 -2.39426e-06
-1.32837e-06 -2.39426e-06 -0.000190031
0.000648867 -5.9167e-05 4.26355e-06
-5.9167e-05 7.7591e-05 -8.00157e-07
4.26355e-06 -8.00157e-07 4.32722e-06
0.000953432 -0.000111283 1.59749e-06
-0.000111283 0.000273603 3.14079e-06
1.59749e-06 3.14079e-06 0.000171861
0.000488789 2.11078e-05 -3.17962e-06
2.11078e-05 1.95428e-05 7.27436e-06
-3.17962e-06 7.27436e-06 -0.000113666
0.000788089 -7.30503e-05 -4.36734e-06
-7.30503e-05 0.000189736 6.36932e-06
-4.36734e-06 6.36932e-06 3.79808e-05
0.00134952 -5.06884e-05 2.70652e-06
-5.06884e-05 0.00046955 -2.50837e-07
2.70652e-06 -2.50837e-07 0.000278481
-0.000908636 -0.000129744 6.72427e-06
-0.000129744 -0.000558741 -1.19314e-06
6.72427e-06 -1.19314e-06 -0.00105586
-0.000275141 -0.000321966 -2.71409e-05
-0.000321966 -0.000623498 -2.67262e-07
-2.71409e-05 -2.67262e-07 -0.000882133
0.000370209 5.29475e-05 -2.09908e-07
5.29475e-05 -5.91624e-05 -5.64747e-07
-2.09908e-07 -5.64747e-07 -0.000180693
0.000981908 0.000178865 -7.01293e-06
0.000178865 0.000363532 -3.86463e-06
-7.01293e-06 -3.86463e-06 0.000158917
0.00217105 0.000354783 -4.74681e-06
0.000354783 5.3039e-05 -2.58856e-06
-4.74681e-06 -2.58856e-06 9.90435e-06
0.00204382 0.000456033 -1.61321e-06
0.000456033 0.000207141 8.28712e-07
-1.61321e-06 8.28712e-07 3.42241e-05
0.00181495 0.000265184 -7.47366e-06
0.000265184 0.000702121 -1.58051e-06
-7.47366e-06 -1.58051e-06 0.000514599
0.00218876 0.000425958 -5.25485e-06
0.000425958 0.000843936 -6.55845e-06
-5.25485e-06 -6.55845e-06 0.000575155
0.00194354 0.000519967 2.08676e-06
0.000519967 0.000298302 2.12515e-06
2.08676e-06 2.12515e-06 2.87515e-05
0.00178769 0.000489375 5.0144e-08
0.000489375 0.000441365 -1.02511e-06
5.0144e-08 -1.02511e-06 0.000115763
0.000497753 7.86421e-05 7.02503e-07
7.86421e-05 1.83339e-05 -9.63735e-07
7.02503e-07 -9.63735e-07 -0.000112762
0.00215741 0.00028291 -1.56369e-06
0.00028291 -2.18269e-05 -1.15065e-06
-1.56369e-06 -1.15065e-06 3.72908e-06
0.00127535 0.000246071 1.32288e-06
0.000246071 0.000489566 1.40213e-06
1.32288e-06 1.40213e-06 0.000262259
0.00130602 0.00034921 1.37951e-06
0.00034921 0.000296962 -2.09461e-07
1.37951e-06 -2.09461e-07 3.78243e-05
0.00237507 0.000452648 2.22613e-06
0.000452648 0.000273064 5.28505e-07
2.22613e-06 5.28505e-07 0.000163493
0.0015988 0.000525483 -1.53619e-06
0.000525483 5.17906e-06 -4.28257e-06
-1.53619e-06 -4.28257e-06 -0.000251405
0.0018798 0.000523965 2.94495e-08
0.000523965 0.000457332 4.76319e-07
2.94495e-08 4.76319e-07 0.000115402
0.0011378 0.000189371 -4.24668e-06
0.000189371 0.00042672 3.85215e-06
-4.24668e-06 3.85215e-06 0.000246974
0.00255671 0.000339584 -5.66518e-05
0.000339584 0.000269854 -1.57799e-05
-5.66518e-05 -1.57799e-05 0.000310787
0.00202116 0.000419776 -5.55209e-06
0.000419776 0.000846627 1.53668e-06
-5.55209e-06 1.53668e-06 0.000586541
0.00177242 0.000453695 -5.80632e-06
0.000453695 0.000482738 -2.89131e-06
-5.80632e-06 -2.89131e-06 0.000176259
0.00248092 0.000605236 -2.97702e-05
0.000605236 0.000383227 -1.42376e-05
-2.97702e-05 -1.42376e-05 0.00019252
0.000822874 0.000449825 -2.16751e-05
0.000449825 -0.000191572 -2.64149e-06
-2.16751e-05 -2.64149e-06 -0.000508057
0.00122956 0.000489362 3.19502e-05
0.000489362 -0.000502696 -2.70069e-05
3.19502e-05 -2.70069e-05 -0.000694318
0.000352796 7.90966e-05 1.54716e-06
7.90966e-05 -7.27867e-05 -2.88659e-07
1.54716e-06 -2.88659e-07 -0.000172739
0.000595645 6.72463e-05 -2.54612e-07
6.72463e-05 8.54706e-05 1.04206e-06
-2.54612e-07 1.04206e-06 9.4987e-07
0.00156305 0.000106784 5.06896e-07
0.000106784 0.000634704 -1.1037e-06
5.06896e-07 -1.1037e-06 0.000550293
0.000532339 -6.42244e-05 5.23977e-07
-6.42244e-05 3.89435e-05 -3.21363e-06
5.23977e-07 -3.21363e-06 -6.43672e-05
0.000449737 -4.04516e-05 -1.37635e-06
-4.04516e-05 -9.85085e-06 -3.11906e-07
-1.37635e-06 -3.11906e-07 -0.000129391
0.000930769 0.000150309 -4.89358e-07
0.000150309 0.000282989 1.1039e-06
-4.89358e-07 1.1039e-06 0.000149218
0.00013794 7.31451e-06 -2.50577e-06
7.31451e-06 -0.000209673 6.83918e-06
-2.50577e-06 6.83918e-06 -0.000289113
0.00058965 -2.11308e-05 -3.60997e-07
-2.11308e-05 7.29135e-05 -2.47968e-08
-3.60997e-07 -2.47968e-08 -3.39774e-05
0.000578703 5.20844e-05 -6.44452e-08
5.20844e-05 5.694e-05 -5.34599e-07
-6.44452e-08 -5.34599e-07 -6.63093e-05
0.000945725 6.49998e-05 -5.95318e-07
6.49998e-05 0.000242902 1.89779e-06
-5.95318e-07 1.89779e-06 0.000177242
0.000696914 3.96538e-05 1.27714e-06
3.96538e-05 0.000131955 3.34233e-07
1.27714e-06 3.34233e-07 -8.17937e-08
0.000697434 2.59473e-05 -1.24821e-06
2.59473e-05 0.000108014 -8.76177e-07
-1.24821e-06 -8.76177e-07 1.29157e-05
0.00111109 7.18368e-05 1.3855e-06
7.18368e-05 0.000355232 -6.0713e-06
1.3855e-06 -6.0713e-06 0.000286708
0.000898215 7.20595e-05 -2.24381e-06
7.20595e-05 0.000236956 -2.26604e-06
-2.24381e-06 -2.26604e-06 9.67146e-05
0.000823007 9.4679e-05 7.1241e-07
9.4679e-05 0.000199862 1.06887e-06
7.1241e-07 1.06887e-06 7.17222e-05
0.000669865 5.14316e-05 6.15315e-07
5.14316e-05 0.000128727 1.61711e-06
6.15315e-07 1.61711e-06 -1.59316e-05
0.000395784 -2.37782e-05 -1.45945e-07
-2.37782e-05 -6.1259e-05 2.80231e-06
-1.45945e-07 2.80231e-06 -0.000164837
0.000949579 -3.53197e-05 5.23028e-07
-3.53197e-05 0.000326072 -1.08474e-06
5.23028e-07 -1.08474e-06 0.000175396
0.000326475 -2.51934e-05 -1.14219e-06
-2.51934e-05 -9.99288e-05 2.62061e-06
-1.14219e-06 2.62061e-06 -0.000207485
0.000514414 3.31577e-06 -1.66348e-06
3.31577e-06 1.87768e-06 2.64358e-06
-1.66348e-06 2.64358e-06 -6.53316e-05
0.000535909 2.87065e-05 1.9211e-06
2.87065e-05 1.32472e-05 -8.26422e-08
1.9211e-06 -8.26422e-08 -5.23988e-05
0.000469943 1.77824e-05 1.38243e-06
1.77824e-05 -5.50673e-05 3.98399e-06
1.38243e-06 3.98399e-06 -7.39706e-05
0.00053048 3.55068e-06 -2.63264e-06
3.55068e-06 8.61294e-06 -2.67915e-06
-2.63264e-06 -2.67915e-06 -5.43713e-05
0.00091629 9.82327e-06 -2.61982e-06
9.82327e-06 0.00021251 -1.65539e-06
-2.61982e-06 -1.65539e-06 0.000196311
0.0024838 -1.21736e-05 1.06009e-05
-1.21736e-05 0.00116109 5.28291e-06
1.06009e-05 5.28291e-06 0.00117531
0.00137132 -1.34591e-06 -4.77736e-06
-1.34591e-06 0.000484476 -5.83348e-06
-4.77736e-06 -5.83348e-06 0.000471309
0.000788373 -1.55354e-05 2.97448e-06
-1.55354e-05 0.000126429 3.30661e-06
2.97448e-06 3.30661e-06 0.000133166
0.000777152 -2.35599e-05 -5.7162e-09
-2.35599e-05 0.000116897 -2.34723e-06
-5.7162e-09 -2.34723e-06 0.000123059
0.000555382 1.72424e-05 -1.05985e-06
1.72424e-05 2.79317e-06 -1.4765e-06
-1.05985e-06 -1.4765e-06 -3.8179e-05
0.00058965 -6.0617e-06 1.07572e-06
-6.0617e-06 2.12384e-05 -2.00681e-07
1.07572e-06 -2.00681e-07 -2.11566e-05
0.000543105 2.22396e-05 3.56513e-07
2.22396e-05 -2.49634e-05 -3.3789e-06
3.56513e-07 -3.3789e-06 -3.51882e-05
0.000837342 3.58976e-05 -2.85442e-07
3.58976e-05 0.000158821 6.40098e-08
-2.85442e-07 6.40098e-08 0.000147836
0.00210884 6.03553e-05 1.30277e-05
6.03553e-05 0.000942989 -4.18358e-06
1.30277e-05 -4.18358e-06 0.000956003
0.00052127 4.5249e-05 1.87287e-06
4.5249e-05 -2.32203e-05 3.85412e-06
1.87287e-06 3.85412e-06 -4.18501e-05
0.00223509 7.99517e-05 -2.9117e-06
7.99517e-05 0.00102839 -2.16786e-07
-2.9117e-06 -2.16786e-07 0.00103714
0.00248491 0.000102896 -1.62713e-05
0.000102896 0.00118951 4.31087e-06
-1.62713e-05 4.31087e-06 0.00119247
0.00203358 0.000262297 -3.32818e-06
0.000262297 6.80186e-06 -1.75504e-06
-3.32818e-06 -1.75504e-06 -2.76404e-05
0.00197375 8.5685e-05 -9.37908e-07
8.5685e-05 -3.3942e-06 2.41447e-07
-9.37908e-07 2.41447e-07 -2.00605e-06
0.00187644 -2.47783e-06 -4.33114e-06
-2.47783e-06 1.34936e-05 -1.2933e-07
-4.33114e-06 -1.2933e-07 -1.81667e-07
0.0019684 -4.04085e-06 1.4375e-07
-4.04085e-06 -1.10717e-05 -2.09189e-07
1.4375e-07 -2.09189e-07 1.2939e-06
0.00211577 0.000143535 -1.4593e-07
0.000143535 1.41374e-06 2.72462e-07
-1.4593e-07 2.72462e-07 1.0874e-05
0.00203292 7.86343e-05 6.74854e-06
7.86343e-05 -2.58531e-05 -3.36933e-06
6.74854e-06 -3.36933e-06 2.43505e-05
0.00212668 -7.24099e-07 -6.50903e-07
-7.24099e-07 -3.68766e-05 -9.44837e-07
-6.50903e-07 -9.44837e-07 4.12275e-06
0.00361893 0.00045863 3.89684e-05
0.00045863 -0.000342084 6.58937e-06
3.89684e-05 6.58937e-06 5.77766e-05
0.00235658 5.35863e-05 -3.09372e-05
5.35863e-05 0.0003295 2.31975e-05
-3.09372e-05 2.31975e-05 0.000457572
0.000540117 9.17245e-05 -1.00855e-06
9.17245e-05 3.24479e-05 1.03139e-07
-1.00855e-06 1.03139e-07 -4.67798e-05
0.00199015 -9.94059e-05 -1.31956e-06
-9.94059e-05 1.63169e-07 -2.17336e-07
-1.31956e-06 -2.17336e-07 8.49578e-06
0.00202815 -0.00024752 2.35904e-07
-0.00024752 1.27592e-05 1.6956e-07
2.35904e-07 1.6956e-07 1.4798e-05
0.00193449 -0.000340056 -1.35081e-06
-0.000340056 1.21203e-05 1.88486e-06
-1.35081e-06 1.88486e-06 -2.39836e-05
0.000292389 -0.000324388 -5.09817e-06
-0.000324388 -0.000340866 6.92353e-06
-5.09817e-06 6.92353e-06 -0.000653457
0.00224512 -0.000642186 3.67427e-06
-0.000642186 0.000686787 6.05253e-06
3.67427e-06 6.05253e-06 0.000273773
0.00164559 -0.000576547 -5.01678e-07
-0.000576547 0.000141707 -8.92938e-06
-5.01678e-07 -8.92938e-06 -0.000163878
0.00225141 -0.000528668 -3.47899e-06
-0.000528668 0.000244207 -1.2167e-06
-3.47899e-06 -1.2167e-06 0.00010671
0.00206702 -0.00041111 1.94094e-05
-0.00041111 0.000735479 -5.74168e-06
1.94094e-05 -5.74168e-06 0.000455905
0.000354788 -0.000189379 1.47716e-05
-0.000189379 -3.35374e-05 -2.85007e-06
1.47716e-05 -2.85007e-06 -0.000329836
0.00123459 -9.9077e-05 2.6578e-06
-9.9077e-05 0.000444865 -1.08951e-06
2.6578e-06 -1.08951e-06 0.000223447
0.000553926 6.12976e-06 -1.93424e-07
6.12976e-06 2.61788e-06 1.38227e-06
-1.93424e-07 1.38227e-06 -4.03868e-05
0.000866813 -2.14987e-05 3.10669e-06
-2.14987e-05 0.000251467 -1.289e-06
3.10669e-06 -1.289e-06 5.92733e-05
0.000831073 -2.59875e-05 3.35296e-06
-2.59875e-05 0.000224846 -1.92198e-06
3.35296e-06 -1.92198e-06 0.000129811
0.000878824 -3.08664e-05 2.67305e-06
-3.08664e-05 0.000267339 -2.78785e-06
2.67305e-06 -2.78785e-06 0.000112664
0.00031026 -3.46139e-05 -3.06832e-06
-3.46139e-05 -0.000131921 1.17861e-06
-3.06832e-06 1.17861e-06 -0.000203424
0.0020372 -0.000129557 -2.65096e-07
-0.000129557 -7.94582e-05 1.93749e-07
-2.65096e-07 1.93749e-07 -4.85039e-05
0.000440109 3.52051e-05 -1.12537e-07
3.52051e-05 -2.64563e-05 -1.61466e-06
-1.12537e-07 -1.61466e-06 -0.000111931
0.000613378 -5.33457e-05 1.40565e-06
-5.33457e-05 7.07938e-05 6.33159e-07
1.40565e-06 6.33159e-07 -9.40514e-06
0.000806947 -8.29994e-05 1.00572e-06
-8.29994e-05 0.000181824 6.45803e-07
1.00572e-06 6.45803e-07 8.39982e-05
0.00202729 -0.0003232 1.45439e-06
-0.0003232 -8.33093e-05 -4.1317e-07
1.45439e-06 -4.1317e-07 -4.69837e-06
0.00211555 -0.000468128 3.76451e-07
-0.000468128 5.17414e-05 -6.96315e-07
3.76451e-07 -6.96315e-07 -7.92114e-06
0.0010521 -0.000384305 7.99908e-06
-0.000384305 0.000130518 -4.62973e-07
7.99908e-06 -4.62973e-07 -0.000197468
0.00231261 -0.000703915 8.27217e-06
-0.000703915 0.000678649 -2.92534e-07
8.27217e-06 -2.92534e-07 0.000254442
0.00205541 -0.000634732 -1.76989e-06
-0.000634732 0.000250087 1.65543e-06
-1.76989e-06 1.65543e-06 5.72492e-05
0.000319847 -2.39665e-05 -4.73604e-07
-2.39665e-05 -8.02877e-05 -8.271e-07
-4.73604e-07 -8.271e-07 -0.000205673
0.000862167 -8.41541e-05 -1.82121e-06
-8.41541e-05 0.000245504 7.77736e-07
-1.82121e-06 7.77736e-07 7.99653e-05
0.000990681 -0.00044455 -7.08421e-06
-0.00044455 0.000112359 4.44489e-07
-7.08421e-06 4.44489e-07 -0.000199934
0.000467231 -0.000127847 2.1837e-07
-0.000127847 0.000126307 -2.81309e-06
2.1837e-07 -2.81309e-06 -0.000271601
0.000737799 -6.25955e-05 2.01757e-07
-6.25955e-05 0.000101593 1.07979e-06
2.01757e-07 1.07979e-06 -7.93658e-05
0.00243301 -0.000251815 -2.15697e-06
-0.000251815 0.000142468 1.15987e-07
-2.15697e-06 1.15987e-07 0.000175899
0.00184616 -0.000346131 -1.36701e-05
-0.000346131 -0.000203243 3.88395e-06
-1.36701e-05 3.88395e-06 -7.84649e-05
0.00227096 -0.000620442 -1.08272e-05
-0.000620442 0.000198128 -8.02108e-08
-1.08272e-05 -8.02108e-08 4.84216e-05
0.00309602 -0.000774087 -2.29578e-05
-0.000774087 0.000946793 -1.84091e-07
-2.29578e-05 -1.84091e-07 0.000684349
0.00115062 -0.000460084 -2.68341e-05
-0.000460084 0.000210522 -2.31367e-06
-2.68341e-05 -2.31367e-06 -0.000132012
0.000313101 -1.03084e-05 1.73551e-06
-1.03084e-05 -0.000101457 3.33283e-07
1.73551e-06 3.33283e-07 -0.000201652
0.000415313 2.02488e-05 7.71326e-07
2.02488e-05 -7.16023e-05 2.62926e-06
7.71326e-07 2.62926e-06 -0.000168507
5.34768e-05 -1.63767e-05 -3.25166e-07
-1.63767e-05 -0.000255655 -2.38426e-06
-3.25166e-07 -2.38426e-06 -0.000359936
0.00178598 -0.000215387 -7.43658e-06
-0.000215387 0.000825117 1.20607e-05
-7.43658e-06 1.20607e-05 0.000666364
0.000772811 -7.91604e-05 -4.24903e-06
-7.91604e-05 0.000161852 1.21251e-05
-4.24903e-06 1.21251e-05 1.07568e-05
-0.000693701 -9.04629e-05 1.03343e-06
-9.04629e-05 -0.000398243 5.05006e-06
1.03343e-06 5.05006e-06 -0.000856894
-0.000416571 -0.000512786 -2.35013e-06
-0.000512786 -0.000383324 -6.12147e-06
-2.35013e-06 -6.12147e-06 -0.000901473
0.000947348 0.000131695 -1.95378e-07
0.000131695 0.000302726 -4.79459e-06
-1.95378e-07 -4.79459e-06 0.000153128
0.000442524 0.000124247 -3.43466e-06
0.000124247 -2.84707e-05 -2.15375e-06
-3.43466e-06 -2.15375e-06 -0.000225061
0.00225714 0.000262511 7.31083e-06
0.000262511 2.8895e-05 2.39901e-07
7.31083e-06 2.39901e-07 6.64357e-05
0.00231835 0.000450585 1.58258e-05
0.000450585 0.000245066 4.43037e-06
1.58258e-05 4.43037e-06 0.000140206
0.00223893 0.000570237 1.52584e-05
0.000570237 0.000368344 4.26638e-06
1.52584e-05 4.26638e-06 0.000109796
0.00117297 0.000337226 -5.87862e-07
0.000337226 0.000222495 -4.92747e-07
-5.87862e-07 -4.92747e-07 -3.95608e-05
0.00160827 0.000494292 2.22423e-06
0.000494292 0.000310381 2.33442e-06
2.22423e-06 2.33442e-06 -2.68345e-05
0.00158254 0.000180786 8.81995e-08
0.000180786 0.000665017 -1.26349e-07
8.81995e-08 -1.26349e-07 0.000499762
0.00246839 0.000296898 -1.63298e-06
0.000296898 0.000253248 1.04087e-06
-1.63298e-06 1.04087e-06 0.000302977
0.00139587 0.000329592 -1.73012e-06
0.000329592 0.000456489 1.98084e-06
-1.73012e-06 1.98084e-06 0.000218032
0.00152389 0.000430585 1.32528e-06
0.000430585 0.000370578 8.62133e-07
1.32528e-06 8.62133e-07 5.65768e-05
0.00213057 0.000574408 -1.25174e-06
0.000574408 0.000185384 -2.93503e-06
-1.25174e-06 -2.93503e-06 1.50565e-05
0.00162094 0.000530469 -4.27491e-06
0.000530469 0.000262473 5.09186e-06
-4.27491e-06 5.09186e-06 -7.07391e-05
0.00264463 0.000645205 5.86172e-05
0.000645205 -9.75584e-05 4.92571e-06
5.86172e-05 4.92571e-06 -0.000364078
0.00127343 0.000254658 -6.05611e-06
0.000254658 0.000505287 5.90236e-07
-6.05611e-06 5.90236e-07 0.000309464
0.00389547 0.000554661 -7.82794e-05
0.000554661 0.00119435 -3.03246e-05
-7.82794e-05 -3.03246e-05 0.00112498
0.000991153 0.000327158 -2.95722e-06
0.000327158 0.000106276 -1.31584e-06
-2.95722e-06 -1.31584e-06 -0.00013339
3.81151e-05 0.000306388 -2.17416e-06
0.000306388 -0.00048366 -9.74657e-06
-2.17416e-06 -9.74657e-06 -0.000784854
0.000598038 0.000535119 -2.81293e-05
0.000535119 -0.000468214 -6.37553e-06
-2.81293e-05 -6.37553e-06 -0.000659026
0.0122691 0.000413939 -0.000297652
0.000413939 0.00235504 -5.70706e-05
-0.000297652 -5.70706e-05 0.00152132
0.00580987 0.00111374 8.92087e-05
0.00111374 0.000323035 -5.93864e-05
8.92087e-05 -5.93864e-05 0.000408484
-0.000301027 0.000739195 4.17671e-06
0.000739195 -0.00100187 3.96832e-06
4.17671e-06 3.96832e-06 -0.00133612
-0.00343489 -0.00115684 0.000713725
-0.00115684 -8.18916e-05 0.000137128
0.000713725 0.000137128 -0.00221773
0.0129659 -0.00443857 -2.45006e-05
-0.00443857 0.00364572 3.88063e-05
-2.45006e-05 3.88063e-05 0.00403215
0.000249764 7.28542e-05 5.61305e-06
7.28542e-05 -0.000104542 1.24699e-06
5.61305e-06 1.24699e-06 -0.000192188
0.000981424 7.65529e-05 1.15834e-06
7.65529e-05 0.000316878 -1.65816e-06
1.15834e-06 -1.65816e-06 0.000234763
0.00152496 0.00017528 -1.39264e-06
0.00017528 0.000661736 -4.18559e-07
-1.39264e-06 -4.18559e-07 0.000552174
0.000564971 -6.20564e-05 -5.25103e-07
-6.20564e-05 6.6904e-05 -2.32854e-06
-5.25103e-07 -2.32854e-06 -4.5186e-05
0.000560363 6.08415e-05 -1.43736e-06
6.08415e-05 4.94017e-05 -2.0983e-06
-1.43736e-06 -2.0983e-06 -7.8152e-05
0.000702957 -1.83436e-05 -3.15908e-07
-1.83436e-05 0.000136907 -8.1967e-07
-3.15908e-07 -8.1967e-07 4.34114e-06
0.000728126 4.85341e-05 -3.84689e-06
4.85341e-05 0.000121508 5.35464e-06
-3.84689e-06 5.35464e-06 2.26021e-05
0.000506352 4.87996e-05 4.26106e-08
4.87996e-05 -1.67395e-05 5.02888e-06
4.26106e-08 5.02888e-06 -8.39016e-05
0.000747136 9.68657e-05 -2.16724e-06
9.68657e-05 0.000171803 -5.28453e-07
-2.16724e-06 -5.28453e-07 2.90678e-05
0.000481972 -8.88416e-06 2.14121e-07
-8.88416e-06 -1.27877e-06 8.48927e-07
2.14121e-07 8.48927e-07 -0.000108461
0.000645161 2.32402e-05 2.95479e-10
2.32402e-05 0.000109978 9.04518e-08
2.95479e-10 9.04518e-08 -3.06482e-05
0.000616032 6.18013e-05 3.41925e-07
6.18013e-05 5.19451e-05 -7.91129e-07
3.41925e-07 -7.91129e-07 -1.75088e-05
0.000798146 7.48852e-05 -1.17062e-06
7.48852e-05 0.000179409 -1.05738e-07
-1.17062e-06 -1.05738e-07 4.34873e-05
0.00107778 0.000121411 -1.63193e-06
0.000121411 0.000360873 -1.09983e-06
-1.63193e-06 -1.09983e-06 0.000215517
0.000359456 7.34544e-05 1.14898e-06
7.34544e-05 -5.67806e-05 -3.64804e-06
1.14898e-06 -3.64804e-06 -0.000188346
0.000797078 9.16761e-05 2.51469e-06
9.16761e-05 0.000191796 8.21606e-07
2.51469e-06 8.21606e-07 5.57699e-05
0.000554457 -2.90847e-05 1.59334e-06
-2.90847e-05 4.07139e-05 2.84314e-07
1.59334e-06 2.84314e-07 -9.40454e-05
0.000393087 -6.12426e-05 -1.30273e-06
-6.12426e-05 -5.79258e-05 2.43353e-06
-1.30273e-06 2.43353e-06 -0.000167927
0.000730803 -9.5642e-06 -4.26635e-07
-9.5642e-06 0.000160223 8.90902e-08
-4.26635e-07 8.90902e-08 2.28958e-05
0.000920349 3.23904e-05 2.49541e-07
3.23904e-05 0.000280238 -4.81979e-06
2.49541e-07 -4.81979e-06 0.000144472
0.000614855 -3.40319e-05 -3.63971e-07
-3.40319e-05 0.000105117 3.77499e-08
-3.63971e-07 3.77499e-08 -2.7025e-05
0.00078833 -3.359e-05 1.40578e-06
-3.359e-05 0.00020574 -6.97568e-07
1.40578e-06 -6.97568e-07 6.97625e-05
0.000665319 -0.00010077 -2.35421e-06
-0.00010077 0.000112321 1.81e-06
-2.35421e-06 1.81e-06 3.71406e-06
0.000377431 -1.69592e-05 1.62377e-07
-1.69592e-05 -6.64947e-05 1.00084e-06
1.62377e-07 1.00084e-06 -0.000176424
0.000547455 -3.46867e-05 -1.9392e-06
-3.46867e-05 1.38761e-05 2.90318e-06
-1.9392e-06 2.90318e-06 -4.95282e-05
0.000548087 -2.72253e-05 1.4409e-06
-2.72253e-05 1.99982e-05 4.93039e-08
1.4409e-06 4.93039e-08 -4.62855e-05
0.000525774 5.33169e-06 1.08775e-06
5.33169e-06 -2.0296e-05 5.8762e-06
1.08775e-06 5.8762e-06 -3.9708e-05
0.00055707 3.20402e-05 -1.40906e-06
3.20402e-05 2.20477e-05 -2.68294e-06
-1.40906e-06 -2.68294e-06 -4.10101e-05
0.000489298 1.31613e-05 4.07421e-07
1.31613e-05 -4.31711e-05 3.5996e-08
4.07421e-07 3.5996e-08 -6.2141e-05
0.0024328 -8.64075e-07 -3.80718e-07
-8.64075e-07 0.00113098 5.29584e-06
-3.80718e-07 5.29584e-06 0.00114525
0.000546679 1.47423e-05 -1.82589e-06
1.47423e-05 -1.1714e-05 -6.13418e-06
-1.82589e-06 -6.13418e-06 -3.06766e-05
0.00164743 -9.36107e-06 -2.29647e-07
-9.36107e-06 0.000651054 9.88164e-08
-2.29647e-07 9.88164e-08 0.000661095
0.000779696 -1.41677e-05 3.50605e-07
-1.41677e-05 0.000118383 -2.20225e-06
3.50605e-07 -2.20225e-06 0.000125417
0.000553969 -1.53652e-05 7.74922e-07
-1.53652e-05 3.97916e-06 -1.19117e-06
7.74922e-07 -1.19117e-06 -3.50696e-05
0.000593812 -2.91416e-05 3.5911e-07
-2.91416e-05 2.74052e-05 -5.34268e-08
3.5911e-07 -5.34268e-08 -1.49894e-05
0.000557444 1.37235e-05 6.52595e-07
1.37235e-05 -1.83663e-05 -3.04932e-06
6.52595e-07 -3.04932e-06 -2.66769e-05
0.00055789 -2.35202e-05 -1.54522e-06
-2.35202e-05 6.38854e-07 1.33017e-06
-1.54522e-06 1.33017e-06 -4.12428e-05
0.000822802 2.6358e-05 -4.72022e-08
2.6358e-05 0.000145705 -7.34371e-07
-4.72022e-08 -7.34371e-07 0.000137499
0.00201821 4.48591e-05 9.49213e-06
4.48591e-05 0.000882822 -4.30109e-06
9.49213e-06 -4.30109e-06 0.000898537
0.000527844 3.15712e-05 -3.36778e-07
3.15712e-05 -2.91768e-05 3.37436e-06
-3.36778e-07 3.37436e-06 -4.23367e-05
0.00214901 6.28266e-05 -6.81542e-06
6.28266e-05 0.000969874 1.11412e-06
-6.81542e-06 1.11412e-06 0.000982218
0.00228991 8.3832e-05 -1.25621e-05
8.3832e-05 0.00106291 4.22136e-06
-1.25621e-05 4.22136e-06 0.00107074
0.00208785 0.000145922 -2.59255e-06
0.000145922 1.04896e-06 -9.70312e-07
-2.59255e-06 -9.70312e-07 9.48971e-06
0.00196446 -3.01087e-06 -6.60139e-07
-3.01087e-06 -1.09631e-05 6.39747e-08
-6.60139e-07 6.39747e-08 7.75562e-07
0.00176788 6.11314e-05 5.70374e-06
6.11314e-05 -0.000205015 1.29987e-06
5.70374e-06 1.29987e-06 -0.000160143
0.00232557 0.000326556 5.38121e-05
0.000326556 -0.000820984 1.1879e-05
5.38121e-05 1.1879e-05 -0.000531743
0.0020892 -1.9079e-05 -1.88533e-06
-1.9079e-05 -4.41069e-05 -1.45405e-06
-1.88533e-06 -1.45405e-06 -2.37563e-06
0.00198185 6.00789e-05 2.74127e-06
6.00789e-05 0.000116227 -6.05136e-06
2.74127e-06 -6.05136e-06 0.000212851
0.0030958 -2.38196e-05 -2.94043e-05
-2.38196e-05 0.000841551 3.80693e-06
-2.94043e-05 3.80693e-06 0.000828662
0.00215457 -1.23325e-05 1.88336e-05
-1.23325e-05 -0.00170612 -3.16537e-05
1.88336e-05 -3.16537e-05 -0.00122508
0.00248414 0.000128452 6.22822e-05
0.000128452 -0.000367875 3.61598e-05
6.22822e-05 3.61598e-05 -7.52558e-05
0.000594437 7.59454e-05 2.19157e-07
7.59454e-05 6.79674e-05 -2.06523e-07
2.19157e-07 -2.06523e-07 -1.38279e-05
0.000611223 -7.67806e-06 4.93318e-07
-7.67806e-06 8.16044e-05 -1.7538e-07
4.93318e-07 -1.7538e-07 -3.41064e-06
0.000543644 -9.87474e-05 -1.79184e-06
-9.87474e-05 4.36459e-05 1.30737e-06
-1.79184e-06 1.30737e-06 -5.59571e-05
0.000538522 -4.4284e-05 -1.53059e-06
-4.4284e-05 6.13961e-05 1.13681e-06
-1.53059e-06 1.13681e-06 -4.68581e-05
0.00208362 -0.000143916 -4.41711e-06
-0.000143916 -7.3938e-05 -2.68632e-07
-4.41711e-06 -2.68632e-07 -2.75554e-05
0.00205404 -0.000322814 7.03329e-07
-0.000322814 -4.42365e-05 -8.33352e-07
7.03329e-07 -8.33352e-07 1.33858e-05
0.00213297 -0.000466915 -2.3194e-06
-0.000466915 6.7191e-05 1.63978e-06
-2.3194e-06 1.63978e-06 8.47028e-06
0.00257604 -0.000553205 1.36602e-05
-0.000553205 0.000991501 1.4975e-06
1.36602e-05 1.4975e-06 0.000644216
0.00094781 -0.000572945 1.13379e-05
-0.000572945 -7.23669e-05 -3.28752e-06
1.13379e-05 -3.28752e-06 -0.000471816
0.00240888 -0.000657641 6.64728e-06
-0.000657641 0.00046576 -3.26877e-06
6.64728e-06 -3.26877e-06 0.000260743
0.00150411 -0.000491506 -2.52165e-06
-0.000491506 0.000417611 3.27719e-06
-2.52165e-06 3.27719e-06 6.69864e-05
0.00234 -0.000160857 2.37961e-06
-0.000160857 0.00110214 1.02658e-06
2.37961e-06 1.02658e-06 0.000801664
5.63268e-05 -5.15337e-05 6.74755e-07
-5.15337e-05 -0.000316516 -1.08149e-06
6.74755e-07 -1.08149e-06 -0.000481627
0.000667666 -4.82415e-05 -1.74796e-08
-4.82415e-05 0.000106555 9.12704e-07
-1.74796e-08 9.12704e-07 2.66312e-05
0.00066659 -0.000102733 1.9137e-06
-0.000102733 0.000140358 -5.87341e-06
1.9137e-06 -5.87341e-06 -3.37323e-05
0.000759563 6.87117e-07 1.78491e-06
6.87117e-07 0.000193413 -3.82246e-06
1.78491e-06 -3.82246e-06 6.35254e-05
0.00062697 4.05125e-06 9.34613e-08
4.05125e-06 9.49092e-05 -1.67994e-07
9.34613e-08 -1.67994e-07 5.47121e-06
0.000532187 -2.13412e-05 -5.57412e-06
-2.13412e-05 1.07105e-05 3.08044e-06
-5.57412e-06 3.08044e-06 -8.031e-05
0.00239079 -0.000234583 1.54549e-06
-0.000234583 0.000124347 9.85886e-07
1.54549e-06 9.85886e-07 0.000173805
0.000598777 -2.01675e-05 7.99481e-07
-2.01675e-05 8.58815e-05 1.78447e-07
7.99481e-07 1.78447e-07 -2.53217e-05
0.00076688 -1.08288e-05 3.60975e-06
-1.08288e-05 0.000156466 -6.49017e-07
3.60975e-06 -6.49017e-07 4.99311e-05
0.000104259 7.69501e-06 7.17514e-07
7.69501e-06 -0.000222764 1.02404e-06
7.17514e-07 1.02404e-06 -0.000306413
0.00181599 -0.000350246 -2.83212e-07
-0.000350246 -0.000247361 -1.44681e-06
-2.83212e-07 -1.44681e-06 -0.000128212
0.00209565 -0.000600305 1.88376e-06
-0.000600305 0.000112547 -8.15606e-07
1.88376e-06 -8.15606e-07 -2.76469e-05
0.00171748 -0.000555618 -1.62695e-06
-0.000555618 0.000518519 4.13417e-07
-1.62695e-06 4.13417e-07 0.000163115
0.00218178 -0.000700586 -6.08241e-06
-0.000700586 0.00044978 1.68996e-06
-6.08241e-06 1.68996e-06 0.000193843
0.00116439 -9.137e-05 -1.1059e-06
-9.137e-05 0.000421724 1.13476e-06
-1.1059e-06 1.13476e-06 0.000278476
0.000443394 -6.50918e-05 1.79241e-06
-6.50918e-05 -4.23896e-05 8.94634e-07
1.79241e-06 8.94634e-07 -0.000196581
0.00135052 -0.000635826 4.3666e-06
-0.000635826 0.000610998 -1.23123e-06
4.3666e-06 -1.23123e-06 7.65406e-05
0.00117175 -0.00024849 -1.14842e-06
-0.00024849 0.000513227 -6.11461e-07
-1.14842e-06 -6.11461e-07 0.000139824
0.00261088 -0.000304321 -2.58617e-05
-0.000304321 0.000146293 1.15486e-06
-2.58617e-05 1.15486e-06 0.000318667
0.00243991 -0.000492566 -3.54186e-05
-0.000492566 0.000206743 8.99012e-06
-3.54186e-05 8.99012e-06 0.000238703
0.00256611 -0.000742183 -9.9093e-06
-0.000742183 0.000490291 -3.43586e-06
-9.9093e-06 -3.43586e-06 0.000249584
0.00192632 -0.000626813 -1.38262e-05
-0.000626813 0.000492875 8.54973e-07
-1.38262e-05 8.54973e-07 0.000248913
0.00042439 -3.25331e-05 -6.91056e-07
-3.25331e-05 1.01476e-06 -2.41111e-06
-6.91056e-07 -2.41111e-06 -0.000122017
0.000314905 -7.85368e-05 -2.17873e-06
-7.85368e-05 -8.48058e-05 -7.48015e-06
-2.17873e-06 -7.48015e-06 -0.000223808
0.000227596 -0.000138284 -4.84853e-06
-0.000138284 1.57564e-05 1.95036e-05
-4.84853e-06 1.95036e-05 -0.000213685
-0.000579349 -0.000352444 -5.90878e-06
-0.000352444 -0.000130483 -1.60799e-05
-5.90878e-06 -1.60799e-05 -0.000800754
0.00143191 -0.000484686 3.36802e-05
-0.000484686 -0.0038852 -1.12579e-06
3.36802e-05 -1.12579e-06 -0.00401004
0.00174266 0.000168741 2.90237e-07
0.000168741 0.000746123 -4.21304e-06
2.90237e-07 -4.21304e-06 0.000588533
0.000772843 0.000252804 8.30212e-07
0.000252804 8.24734e-05 1.76413e-06
8.30212e-07 1.76413e-06 -0.000143652
0.0021139 0.000262015 6.1164e-05
0.000262015 6.54515e-05 1.43133e-05
6.1164e-05 1.43133e-05 0.000124864
0.00194476 0.000554048 2.1943e-05
0.000554048 7.58208e-05 7.57654e-06
2.1943e-05 7.57654e-06 -7.73953e-05
0.00209006 0.000579179 1.06968e-05
0.000579179 0.000542512 1.04525e-05
1.06968e-05 1.04525e-05 0.000195319
0.00133964 0.000414448 6.64673e-06
0.000414448 0.000287617 5.61111e-06
6.64673e-06 5.61111e-06 -3.37624e-05
0.00352221 0.00076887 9.21536e-05
0.00076887 3.9019e-05 3.87109e-05
9.21536e-05 3.87109e-05 -0.000349277
0.0012771 0.000226422 4.60146e-06
0.000226422 0.000503816 6.44317e-07
4.60146e-06 6.44317e-07 0.000315195
0.00253457 0.000472116 -7.23267e-06
0.000472116 0.000411687 -4.30898e-07
-7.23267e-06 -4.30898e-07 0.000377279
0.00111 0.000339618 -1.88904e-07
0.000339618 0.000202508 1.27024e-06
-1.88904e-07 1.27024e-06 -4.20594e-05
0.00123854 0.000448168 1.52335e-06
0.000448168 0.000194929 -3.7295e-06
1.52335e-06 -3.7295e-06 -0.000129075
0.00145042 0.000600372 -6.93809e-06
0.000600372 -2.11832e-05 -5.15861e-07
-6.93809e-06 -5.15861e-07 -0.000227293
0.00320569 -0.000439512 -0.000150402
-0.000439512 -0.0033684 -4.52842e-05
-0.000150402 -4.52842e-05 -0.00440766
0.00672846 0.000998443 -4.67606e-05
0.000998443 0.000615565 -5.86372e-05
-4.67606e-05 -5.86372e-05 0.000454174
0.00103738 0.000731378 -8.55062e-06
0.000731378 -0.000211469 7.02898e-06
-8.55062e-06 7.02898e-06 -0.000597034
-0.00167501 -0.00094795 0.000286342
-0.00094795 0.00163423 0.000122284
0.000286342 0.000122284 -0.000498692
0.00470475 -0.00441096 -0.000240015
-0.00441096 0.00120571 -0.000239457
-0.000240015 -0.000239457 0.00167399
0.00150312 0.000264221 -1.07547e-05
0.000264221 0.000603276 -9.82442e-07
-1.07547e-05 -9.82442e-07 0.000423211
0.000583568 0.000504013 0.000374312
0.000504013 0.00271796 2.41346e-05
0.000374312 2.41346e-05 0.00124518
0.0012591 -0.0013026 -0.000151186
-0.0013026 0.00355296 -0.000206541
-0.000151186 -0.000206541 0.000413038
0.00275709 0.000751298 -4.01677e-05
0.000751298 0.000531081 -9.99777e-06
-4.01677e-05 -9.99777e-06 0.000488376
0.000676381 0.000208991 -1.86629e-05
0.000208991 -3.60329e-05 -6.21413e-06
-1.86629e-05 -6.21413e-06 -0.000249418
0.000531857 0.000472841 -3.03079e-05
0.000472841 -0.000161824 -2.08751e-05
-3.03079e-05 -2.08751e-05 -0.000456724
0.000225125 0.000737481 3.83443e-05
0.000737481 -0.000680387 8.23284e-05
3.83443e-05 8.23284e-05 -0.000900403
0.0131009 0.00136016 8.556e-07
0.00136016 0.00303697 -5.40405e-05
8.556e-07 -5.40405e-05 0.00152866
0.00236323 0.00134871 2.6711e-06
0.00134871 9.95835e-05 -1.22465e-05
2.6711e-06 -1.22465e-05 -0.000755002
0.00629579 -0.00387175 0.000585752
-0.00387175 0.00103135 0.000366282
0.000585752 0.000366282 0.000323312
0.00853386 -0.00189673 -4.76179e-05
-0.00189673 0.000743595 0.000370496
-4.76179e-05 0.000370496 0.000707221
0.000573858 6.186e-05 4.6217e-06
6.186e-05 9.77298e-05 -2.30665e-06
4.6217e-06 -2.30665e-06 1.55489e-05
0.000625786 0.000114696 6.38487e-06
0.000114696 0.000126679 5.25448e-07
6.38487e-06 5.25448e-07 2.2267e-05
0.00146756 0.000209363 8.53095e-07
0.000209363 0.000640967 -2.64062e-06
8.53095e-07 -2.64062e-06 0.000501329
0.000602475 7.95437e-06 8.49385e-07
7.95437e-06 9.1966e-05 -6.0799e-07
8.49385e-07 -6.0799e-07 -2.7721e-05
0.000721223 4.55412e-05 -6.67159e-07
4.55412e-05 0.000154139 -1.96811e-06
-6.67159e-07 -1.96811e-06 1.59194e-05
0.000368751 6.83049e-06 -1.73305e-06
6.83049e-06 -6.89392e-05 -2.36409e-07
-1.73305e-06 -2.36409e-07 -0.000197993
0.000695964 7.8987e-05 -4.81439e-06
7.8987e-05 0.0001224 1.06929e-06
-4.81439e-06 1.06929e-06 -9.67571e-06
0.000173125 5.25625e-05 -3.18675e-06
5.25625e-05 -0.00022236 2.75345e-07
-3.18675e-06 2.75345e-07 -0.00029248
0.000401089 -8.55578e-06 1.70306e-07
-8.55578e-06 -4.73624e-05 8.47098e-07
1.70306e-07 8.47098e-07 -0.000160572
0.000861981 6.47277e-05 1.11573e-06
6.47277e-05 0.00023318 5.73215e-07
1.11573e-06 5.73215e-07 9.17734e-05
0.000753482 4.06436e-05 7.32483e-07
4.06436e-05 0.000170579 5.04867e-07
7.32483e-07 5.04867e-07 3.10904e-05
0.000692857 1.89815e-05 9.90378e-07
1.89815e-05 0.000140829 -3.50495e-07
9.90378e-07 -3.50495e-07 -5.05683e-06
0.000501659 7.94476e-05 -3.55052e-07
7.94476e-05 3.06904e-05 -1.51146e-06
-3.55052e-07 -1.51146e-06 -9.89811e-05
0.00109876 8.73394e-05 -1.29209e-06
8.73394e-05 0.000389056 -2.76828e-06
-1.29209e-06 -2.76828e-06 0.000249694
-0.000102556 3.61388e-05 -3.14658e-06
3.61388e-05 -0.000280194 -4.67621e-06
-3.14658e-06 -4.67621e-06 -0.000414984
0.000775786 -9.00583e-05 -1.31425e-07
-9.00583e-05 0.000181327 -3.00177e-07
-1.31425e-07 -3.00177e-07 3.94275e-05
0.000759625 -6.45515e-05 -3.89204e-07
-6.45515e-05 0.000190617 -1.26639e-07
-3.89204e-07 -1.26639e-07 4.28951e-05
0.000759647 -3.12421e-05 -2.26633e-07
-3.12421e-05 0.000189806 -3.40917e-07
-2.26633e-07 -3.40917e-07 4.3484e-05
0.000820989 -5.10619e-06 -1.67822e-06
-5.10619e-06 0.000209573 -1.3982e-07
-1.67822e-06 -1.3982e-07 8.36008e-05
0.000745004 3.20255e-05 -3.43658e-06
3.20255e-05 0.000189479 -2.6491e-06
-3.43658e-06 -2.6491e-06 3.03138e-05
0.000675461 -2.61031e-06 1.79992e-06
-2.61031e-06 0.000129474 -3.02728e-06
1.79992e-06 -3.02728e-06 4.46544e-06
1.0606e-05 -2.75214e-05 -4.67157e-07
-2.75214e-05 -0.000282378 -3.51822e-06
-4.67157e-07 -3.51822e-06 -0.000391372
0.000578399 -2.11897e-05 8.85172e-07
-2.11897e-05 4.25881e-05 -3.73442e-07
8.85172e-07 -3.73442e-07 -7.94112e-05
0.00061443 -6.81741e-05 1.19262e-06
-6.81741e-05 7.86731e-05 1.03842e-06
1.19262e-06 1.03842e-06 -3.74686e-05
0.000695808 -6.36881e-05 -5.53031e-07
-6.36881e-05 0.000146434 -1.17913e-07
-5.53031e-07 -1.17913e-07 1.66206e-05
0.000609344 -6.69135e-05 -1.96377e-06
-6.69135e-05 6.37178e-05 1.52898e-06
-1.96377e-06 1.52898e-06 -3.20428e-05
0.000577506 -4.95047e-05 1.47471e-06
-4.95047e-05 5.50542e-05 -1.7279e-07
1.47471e-06 -1.7279e-07 -6.59076e-05
0.000554316 -9.12408e-05 1.43408e-07
-9.12408e-05 4.21425e-05 2.35682e-07
1.43408e-07 2.35682e-07 -6.55759e-05
0.000589952 -3.38377e-05 -2.23112e-06
-3.38377e-05 3.74209e-05 3.18144e-06
-2.23112e-06 3.18144e-06 -2.68193e-05
0.000449491 -5.56338e-06 1.24523e-06
-5.56338e-06 -1.11591e-05 -8.46075e-07
1.24523e-06 -8.46075e-07 -0.000129801
0.000546389 1.15298e-06 1.61498e-06
1.15298e-06 1.9369e-05 2.69537e-08
1.61498e-06 2.69537e-08 -4.73476e-05
0.00140938 -1.59041e-06 -4.34275e-06
-1.59041e-06 0.000512894 5.92604e-06
-4.34275e-06 5.92604e-06 0.000497756
0.00054333 4.75421e-05 -9.95033e-07
4.75421e-05 1.76074e-05 -2.73211e-06
-9.95033e-07 -2.73211e-06 -4.85057e-05
0.000919899 -3.01196e-06 -2.4087e-06
-3.01196e-06 0.000218937 7.75701e-07
-2.4087e-06 7.75701e-07 0.000201861
0.000802652 2.75565e-06 -4.06834e-06
2.75565e-06 0.000140241 4.95214e-06
-4.06834e-06 4.95214e-06 0.000146438
0.000491821 -2.08546e-06 1.13056e-06
-2.08546e-06 -4.13313e-05 -4.14369e-06
1.13056e-06 -4.14369e-06 -6.03687e-05
0.00245122 5.69268e-07 5.11483e-06
5.69268e-07 0.00114227 -1.00204e-08
5.11483e-06 -1.00204e-08 0.0011565
0.000861284 -1.77292e-06 -4.77975e-06
-1.77292e-06 0.000173527 -5.14685e-06
-4.77975e-06 -5.14685e-06 0.000179609
0.000546374 6.33776e-05 2.33179e-06
6.33776e-05 4.38664e-05 4.80053e-07
2.33179e-06 4.80053e-07 -4.46146e-05
0.000529573 3.74846e-05 -1.75584e-06
3.74846e-05 -3.78839e-06 -1.70676e-06
-1.75584e-06 -1.70676e-06 -4.53823e-05
0.00054598 -6.17229e-06 1.1808e-06
-6.17229e-06 3.7412e-06 2.10385e-08
1.1808e-06 2.10385e-08 -3.83037e-05
0.000551941 8.34483e-06 6.07256e-07
8.34483e-06 -2.17207e-05 -2.96691e-06
6.07256e-07 -2.96691e-06 -2.9363e-05
0.00058621 -4.37462e-05 -1.65078e-06
-4.37462e-05 2.55393e-05 1.44749e-06
-1.65078e-06 1.44749e-06 -1.90138e-05
0.000524773 1.39076e-05 3.74549e-08
1.39076e-05 -3.89055e-05 -7.56985e-07
3.74549e-08 -7.56985e-07 -4.68926e-05
0.00200207 3.04894e-05 6.44282e-06
3.04894e-05 0.000869311 -4.45184e-06
6.44282e-06 -4.45184e-06 0.000886705
0.00111773 3.33818e-05 -5.82578e-07
3.33818e-05 0.000326436 1.80045e-06
-5.82578e-07 1.80045e-06 0.000319508
0.00146633 3.87688e-05 -2.51565e-08
3.87688e-05 0.000546026 1.38917e-06
-2.51565e-08 1.38917e-06 0.000557575
0.000881192 4.21671e-05 -1.17661e-05
4.21671e-05 0.000193992 7.22646e-06
-1.17661e-05 7.22646e-06 0.000199509
0.00132147 0.000220487 8.42242e-05
0.000220487 -0.00121738 1.59873e-05
8.42242e-05 1.59873e-05 -0.00096315
0.00204775 -3.39286e-05 7.41957e-07
-3.39286e-05 -4.67461e-05 2.491e-06
7.41957e-07 2.491e-06 -1.02588e-05
0.00195659 7.19816e-05 3.75962e-05
7.19816e-05 0.000118983 -1.39669e-05
3.75962e-05 -1.39669e-05 0.000207029
0.00187034 0.000201769 -3.1002e-05
0.000201769 -0.00141048 -2.12963e-05
-3.1002e-05 -2.12963e-05 -0.000699197
0.00195251 8.1231e-05 2.54446e-05
8.1231e-05 -0.000510954 -1.05577e-06
2.54446e-05 -1.05577e-06 -0.000273159
0.00240348 -2.76602e-05 1.97391e-06
-2.76602e-05 0.000366159 -5.37653e-06
1.97391e-06 -5.37653e-06 0.000365453
0.00380711 -0.000155636 -5.43842e-05
-0.000155636 0.000912219 -6.18347e-06
-5.43842e-05 -6.18347e-06 0.000883847
0.00287553 -8.91997e-05 4.82072e-05
-8.91997e-05 0.000193813 1.49474e-05
4.82072e-05 1.49474e-05 0.00024138
0.0118147 -0.000637931 8.36492e-06
-0.000637931 0.00247473 4.07312e-05
8.36492e-06 4.07312e-05 0.000910051
0.0124988 0.00298352 0.000718999
0.00298352 0.00521979 -0.000301626
0.000718999 -0.000301626 0.00433389
0.00899051 0.00334967 -2.64413e-05
0.00334967 0.00649428 1.31556e-05
-2.64413e-05 1.31556e-05 0.00587911
0.000376517 -9.46653e-05 1.2968e-06
-9.46653e-05 -5.01627e-05 -1.81053e-07
1.2968e-06 -1.81053e-07 -0.000150345
0.000604915 -1.14764e-05 1.30784e-06
-1.14764e-05 7.63893e-05 -1.52281e-07
1.30784e-06 -1.52281e-07 -7.183e-06
0.000677499 -8.50873e-05 -1.49255e-06
-8.50873e-05 0.000128887 1.09553e-06
-1.49255e-06 1.09553e-06 3.71491e-05
0.000595605 -4.65597e-05 -3.41416e-08
-4.65597e-05 7.61135e-05 3.83269e-07
-3.41416e-08 3.83269e-07 -2.51625e-05
0.000618461 6.11498e-05 -2.13013e-06
6.11498e-05 0.000113907 2.12254e-06
-2.13013e-06 2.12254e-06 -5.28467e-06
0.000500037 0.000117624 1.76461e-06
0.000117624 7.14671e-06 5.35292e-06
1.76461e-06 5.35292e-06 -0.000104465
0.000907771 -1.58092e-05 3.34173e-06
-1.58092e-05 0.000283451 1.50411e-06
3.34173e-06 1.50411e-06 0.000165205
0.000524373 -2.50338e-05 -1.3822e-06
-2.50338e-05 3.72325e-05 1.10766e-06
-1.3822e-06 1.10766e-06 -6.51663e-05
0.00234134 -0.000222026 5.18068e-06
-0.000222026 9.15146e-05 2.25517e-07
5.18068e-06 2.25517e-07 0.000161492
0.00182842 -0.000365208 1.15657e-05
-0.000365208 -0.000278416 -4.07459e-06
1.15657e-05 -4.07459e-06 -0.000167226
0.00179251 -0.000571443 6.674e-06
-0.000571443 -4.50159e-05 1.67784e-06
6.674e-06 1.67784e-06 -0.00017622
0.00157277 -0.00054786 2.16508e-05
-0.00054786 0.000425874 -2.24891e-07
2.16508e-05 -2.24891e-07 7.18174e-05
0.00183133 -0.000681105 5.14864e-06
-0.000681105 0.000259936 4.55985e-06
5.14864e-06 4.55985e-06 5.85699e-06
0.00304049 -0.000750456 1.44664e-05
-0.000750456 0.00155711 1.14646e-06
1.44664e-05 1.14646e-06 0.00100219
0.00278535 -0.000391582 2.9102e-06
-0.000391582 0.00132367 -3.0651e-06
2.9102e-06 -3.0651e-06 0.0010033
0.000655032 -0.000138533 7.98451e-06
-0.000138533 0.000100719 -1.07135e-05
7.98451e-06 -1.07135e-05 -7.90032e-05
0.00057993 -4.19942e-05 -5.01704e-07
-4.19942e-05 4.41567e-05 3.39293e-06
-5.01704e-07 3.39293e-06 -5.48711e-05
0.000730623 -7.24528e-05 4.90032e-06
-7.24528e-05 0.000138741 -1.47351e-05
4.90032e-06 -1.47351e-05 9.34821e-06
0.000928617 -2.72609e-05 2.06794e-06
-2.72609e-05 0.000288968 -2.45723e-07
2.06794e-06 -2.45723e-07 0.000173125
0.000639476 6.39994e-05 1.83883e-06
6.39994e-05 0.000104742 1.76079e-06
1.83883e-06 1.76079e-06 3.38935e-05
0.0021023 -0.000285574 -1.35335e-06
-0.000285574 -7.04195e-05 2.68897e-06
-1.35335e-06 2.68897e-06 8.77363e-05
0.000586327 -3.65376e-06 -1.80743e-06
-3.65376e-06 9.94118e-05 -6.84192e-07
-1.80743e-06 -6.84192e-07 -2.4582e-05
0.000921711 -0.000122898 -4.15628e-06
-0.000122898 0.000273165 4.13422e-06
-4.15628e-06 4.13422e-06 0.000144236
0.00169945 -0.000461095 3.69797e-06
-0.000461095 -0.000206451 -1.82634e-06
3.69797e-06 -1.82634e-06 -0.000160913
0.0016577 -0.000649104 5.62736e-07
-0.000649104 -2.48839e-06 -5.40668e-07
5.62736e-07 -5.40668e-07 -0.000199271
0.000910617 -0.000529928 -7.10476e-07
-0.000529928 -6.85234e-05 -1.63618e-06
-7.10476e-07 -1.63618e-06 -0.000309767
0.00130917 -0.000214055 5.0389e-07
-0.000214055 0.00060901 -9.59571e-06
5.0389e-07 -9.59571e-06 0.000356801
0.00127336 -0.000415711 -2.31097e-06
-0.000415711 0.000830469 2.27796e-06
-2.31097e-06 2.27796e-06 0.000242429
0.00309361 -0.0004442 -3.6888e-05
-0.0004442 0.000388865 7.86473e-06
-3.6888e-05 7.86473e-06 0.000476584
0.00326577 -0.00069021 -4.27974e-05
-0.00069021 0.000828481 1.09502e-05
-4.27974e-05 1.09502e-05 0.000754438
0.00212446 -0.000750674 -1.10158e-05
-0.000750674 0.000333337 6.73186e-07
-1.10158e-05 6.73186e-07 0.00013112
0.000106318 -0.000367196 -1.64593e-05
-0.000367196 -0.000307833 1.44667e-05
-1.64593e-05 1.44667e-05 -0.000506532
0.000656115 -0.000145686 1.89828e-06
-0.000145686 0.0001474 4.1748e-06
1.89828e-06 4.1748e-06 -1.15684e-05
0.000493569 -0.000130991 3.49395e-06
-0.000130991 9.32621e-05 1.80141e-06
3.49395e-06 1.80141e-06 -8.91083e-05
0.0013806 -0.000150972 -2.21722e-06
-0.000150972 0.000870605 -7.56468e-06
-2.21722e-06 -7.56468e-06 0.00040114
-0.0059996 -0.000184116 0.000343115
-0.000184116 -0.00445686 2.38878e-06
0.000343115 2.38878e-06 -0.0031503
0.0106347 -0.000192892 3.00445e-05
-0.000192892 0.00233162 2.16061e-06
3.00445e-05 2.16061e-06 0.00185718
0.00151093 0.00019642 7.37473e-06
0.00019642 0.000620741 -5.58714e-06
7.37473e-06 -5.58714e-06 0.000450769
0.00119227 0.000348066 -4.62901e-07
0.000348066 0.000278224 1.63008e-06
-4.62901e-07 1.63008e-06 2.90376e-05
0.00127449 0.000369986 5.68997e-05
0.000369986 -0.000289123 2.80547e-05
5.68997e-05 2.80547e-05 -0.000289669
0.00263203 0.00069849 2.11777e-05
0.00069849 0.000599792 6.99408e-06
2.11777e-05 6.99408e-06 0.00037419
0.00263291 0.000609658 1.51193e-05
0.000609658 0.000971105 3.76806e-06
1.51193e-05 3.76806e-06 0.000624247
0.0126749 0.000704583 6.73691e-05
0.000704583 0.00304768 2.18613e-05
6.73691e-05 2.18613e-05 0.00195175
0.00791008 0.00138802 -0.000183724
0.00138802 0.000520613 7.41812e-06
-0.000183724 7.41812e-06 0.000437457
0.00183356 0.000721136 2.42132e-06
0.000721136 0.000293518 -2.44488e-05
2.42132e-06 -2.44488e-05 -0.000162658
0.0114059 -0.00229153 -0.000226392
-0.00229153 0.00500814 -3.81016e-06
-0.000226392 -3.81016e-06 0.00370099
-0.00480485 -0.00449368 -0.00123945
-0.00449368 -0.00142866 -0.000904451
-0.00123945 -0.000904451 -0.00122238
0.000983349 0.000243732 1.14573e-08
0.000243732 0.000319037 3.39576e-08
1.14573e-08 3.39576e-08 0.00013234
-0.00256176 -0.00129648 0.00023623
-0.00129648 -0.00262777 4.0952e-05
0.00023623 4.0952e-05 -0.00335594
-0.00338455 -0.000932149 -0.000260888
-0.000932149 0.00271803 -0.000128643
-0.000260888 -0.000128643 -0.000753132
0.00299355 0.000692187 -1.5016e-05
0.000692187 0.000653266 -9.48852e-07
-1.5016e-05 -9.48852e-07 0.000625784
0.00100281 0.000302677 -5.12449e-06
0.000302677 0.000180545 2.85069e-06
-5.12449e-06 2.85069e-06 -6.46855e-05
0.00146324 0.000592845 6.0135e-06
0.000592845 0.000341736 2.31817e-06
6.0135e-06 2.31817e-06 2.15651e-05
0.00134921 0.000680206 2.85765e-05
0.000680206 8.81652e-05 2.05556e-05
2.85765e-05 2.05556e-05 -1.3438e-05
0.0118408 0.00116091 -9.63179e-05
0.00116091 0.00166219 -5.01753e-05
-9.63179e-05 -5.01753e-05 -0.000273435
0.00562917 0.00196559 -6.97745e-05
0.00196559 0.000913057 -4.06305e-05
-6.97745e-05 -4.06305e-05 0.000418582
0.014092 -0.00284476 0.000247823
-0.00284476 0.00589592 -3.42498e-05
0.000247823 -3.42498e-05 0.00489825
0.0087884 -0.00245061 0.000190148
-0.00245061 -6.78e-05 0.000467885
0.000190148 0.000467885 3.26768e-05
0.00199716 0.000264437 -1.80631e-05
0.000264437 0.000916866 -1.0969e-05
-1.80631e-05 -1.0969e-05 0.000755879
-0.00855323 0.000653372 -0.000103978
0.000653372 0.00181681 -9.17242e-05
-0.000103978 -9.17242e-05 -0.00239453
0.00395724 0.000517183 -0.000245381
0.000517183 0.00255814 -0.000317473
-0.000245381 -0.000317473 -0.00121113
0.00201059 0.0005806 -2.3293e-05
0.0005806 0.000369833 8.18822e-06
-2.3293e-05 8.18822e-06 0.000376854
0.00199549 0.000534201 -6.13839e-05
0.000534201 0.000806206 -2.21892e-05
-6.13839e-05 -2.21892e-05 0.000540917
0.00200425 0.000550747 -6.20006e-05
0.000550747 0.00125868 -8.94406e-06
-6.20006e-05 -8.94406e-06 0.000733675
0.000409749 0.00122708 -6.27313e-05
0.00122708 -0.000247254 -2.55665e-05
-6.27313e-05 -2.55665e-05 -0.000442093
-0.000397884 0.0014254 0.000231132
0.0014254 -0.00121195 0.000130795
0.000231132 0.000130795 -0.00422235
0.0130816 -0.00340099 0.000193332
-0.00340099 0.00539477 0.00043281
0.000193332 0.00043281 0.00384721
0.00658297 -0.00117036 -8.38702e-05
-0.00117036 -0.00206508 -8.73177e-05
-8.38702e-05 -8.73177e-05 -0.000870717
-2.98079e-05 0.000107578 2.44343e-06
0.000107578 -0.000243739 -3.75878e-06
2.44343e-06 -3.75878e-06 -0.000361556
0.00128325 0.000191947 7.96319e-06
0.000191947 0.000518004 3.71379e-06
7.96319e-06 3.71379e-06 0.000382497
-0.000114622 7.78027e-05 4.03795e-06
7.78027e-05 -0.000242984 -9.73214e-06
4.03795e-06 -9.73214e-06 -0.00038671
0.000397839 4.89788e-05 1.66552e-06
4.89788e-05 -4.92396e-05 -6.75478e-07
1.66552e-06 -6.75478e-07 -0.000162179
0.000772085 5.47535e-05 -5.06616e-07
5.47535e-05 0.000195387 -1.39944e-06
-5.06616e-07 -1.39944e-06 4.55819e-05
0.000708127 -6.70676e-06 -1.08736e-06
-6.70676e-06 0.000145621 1.52376e-06
-1.08736e-06 1.52376e-06 3.55795e-06
0.000716529 2.27554e-05 4.2848e-06
2.27554e-05 0.00015538 -5.87711e-07
4.2848e-06 -5.87711e-07 1.09506e-05
0.000492918 6.84057e-05 -1.76933e-06
6.84057e-05 3.02365e-05 2.05468e-06
-1.76933e-06 2.05468e-06 -9.50057e-05
0.000747712 4.58715e-05 1.10752e-07
4.58715e-05 0.000184127 -8.63769e-07
1.10752e-07 -8.63769e-07 3.63848e-05
0.000822908 6.2113e-05 4.21255e-07
6.2113e-05 0.000217042 1.57849e-07
4.21255e-07 1.57849e-07 8.27008e-05
0.000785622 -5.1534e-05 -8.38639e-07
-5.1534e-05 0.000187883 1.12487e-06
-8.38639e-07 1.12487e-06 4.48531e-05
-0.000262501 2.87513e-05 8.22477e-07
2.87513e-05 -0.000350304 7.40634e-07
8.22477e-07 7.40634e-07 -0.000494014
-0.000953178 1.62598e-05 -7.43847e-07
1.62598e-05 -0.000534149 1.15274e-06
-7.43847e-07 1.15274e-06 -0.000793931
0.000913144 -7.15171e-06 -4.15595e-06
-7.15171e-06 0.000288361 -6.10624e-06
-4.15595e-06 -6.10624e-06 0.000154129
0.000905957 -1.27539e-06 2.14168e-07
-1.27539e-06 0.000284265 -3.96459e-07
2.14168e-07 -3.96459e-07 0.000119618
0.000779681 -6.1157e-05 -6.58059e-07
-6.1157e-05 0.000207561 -9.98583e-07
-6.58059e-07 -9.98583e-07 5.65288e-05
0.000804318 -5.53988e-05 7.91235e-07
-5.53988e-05 0.000192165 2.77923e-06
7.91235e-07 2.77923e-06 7.17119e-05
0.000772713 -4.97679e-05 7.80156e-07
-4.97679e-05 0.000194453 -8.24481e-07
7.80156e-07 -8.24481e-07 4.28067e-05
0.000744749 -1.5702e-05 -9.88214e-07
-1.5702e-05 0.000163805 -2.21083e-07
-9.88214e-07 -2.21083e-07 4.05632e-05
0.000266145 -5.77881e-05 7.7198e-07
-5.77881e-05 -0.000116819 1.80304e-06
7.7198e-07 1.80304e-06 -0.000226325
0.000448242 -9.55324e-06 1.52379e-06
-9.55324e-06 -1.52776e-05 1.14378e-06
1.52379e-06 1.14378e-06 -0.000138036
0.000307325 -2.74499e-06 -3.71544e-06
-2.74499e-06 -7.36621e-05 -4.05637e-06
-3.71544e-06 -4.05637e-06 -0.000210676
0.000258906 -5.30794e-05 2.23652e-06
-5.30794e-05 -0.00010301 -2.29137e-06
2.23652e-06 -2.29137e-06 -0.000211786
0.000827695 -6.2084e-05 4.2878e-06
-6.2084e-05 0.000145966 -9.75859e-06
4.2878e-06 -9.75859e-06 4.81912e-05
-0.000186636 -3.52678e-05 -2.60019e-07
-3.52678e-05 -0.000455416 1.80328e-06
-2.60019e-07 1.80328e-06 -0.000600895
0.000214358 -1.88577e-05 -2.56286e-06
-1.88577e-05 -0.000164922 -1.48519e-06
-2.56286e-06 -1.48519e-06 -0.000288797
0.000748471 -3.37193e-05 4.01151e-07
-3.37193e-05 0.000140851 8.24975e-08
4.01151e-07 8.24975e-08 1.66345e-05
0.000560677 -3.11889e-05 1.35545e-07
-3.11889e-05 3.806e-05 9.0588e-07
1.35545e-07 9.0588e-07 -7.72217e-05
0.000707769 -5.53453e-05 1.02998e-07
-5.53453e-05 0.000150394 4.1296e-08
1.02998e-07 4.1296e-08 2.32247e-05
0.00051284 -8.59918e-06 1.16046e-07
-8.59918e-06 1.24577e-05 1.5684e-06
1.16046e-07 1.5684e-06 -8.7339e-05
0.000787858 -4.72719e-05 -9.56251e-07
-4.72719e-05 0.000198422 -3.55677e-07
-9.56251e-07 -3.55677e-07 7.05418e-05
0.000641695 -5.9926e-05 -7.03211e-07
-5.9926e-05 9.40521e-05 8.72126e-08
-7.03211e-07 8.72126e-08 -8.70808e-06
0.000504003 3.78827e-05 -6.44376e-07
3.78827e-05 -1.56796e-05 2.96173e-06
-6.44376e-07 2.96173e-06 -8.15332e-05
0.000471916 -8.05848e-05 1.81308e-06
-8.05848e-05 -1.35482e-05 -1.25292e-06
1.81308e-06 -1.25292e-06 -0.000118689
0.00056136 -1.73514e-05 -4.39942e-07
-1.73514e-05 1.85255e-05 4.96055e-08
-4.39942e-07 4.96055e-08 -4.43866e-05
0.00140774 1.05933e-05 -5.84881e-06
1.05933e-05 0.000508826 6.25538e-06
-5.84881e-06 6.25538e-06 0.000492633
0.000551321 -4.05075e-05 1.37316e-06
-4.05075e-05 1.91331e-05 -2.68151e-06
1.37316e-06 -2.68151e-06 -4.55221e-05
0.000916536 -2.55605e-06 -3.25734e-06
-2.55605e-06 0.000213241 7.01781e-07
-3.25734e-06 7.01781e-07 0.000196079
0.000759296 1.41843e-05 4.8216e-07
1.41843e-05 0.000108822 2.11091e-06
4.8216e-07 2.11091e-06 0.000114893
0.000494566 -6.83802e-06 1.2349e-06
-6.83802e-06 -4.11622e-05 -4.11224e-06
1.2349e-06 -4.11224e-06 -5.98685e-05
0.00245794 1.39045e-05 5.33569e-06
1.39045e-05 0.0011464 5.96342e-08
5.33569e-06 5.96342e-08 0.00116054
0.00244962 1.9803e-06 -5.68485e-07
1.9803e-06 0.00114131 -5.17797e-06
-5.68485e-07 -5.17797e-06 0.00115554
0.000992994 7.33655e-05 -6.88184e-07
7.33655e-05 0.00031058 -1.44385e-07
-6.88184e-07 -1.44385e-07 0.000222283
0.00055578 4.66948e-05 -1.39342e-06
4.66948e-05 1.60742e-05 -2.05772e-06
-1.39342e-06 -2.05772e-06 -2.90174e-05
0.000600155 -1.20555e-05 4.52215e-07
-1.20555e-05 7.71524e-05 8.50869e-07
4.52215e-07 8.50869e-07 -1.11253e-05
0.000550109 4.24124e-06 6.16351e-07
4.24124e-06 -2.29618e-05 -3.21518e-06
6.16351e-07 -3.21518e-06 -3.04528e-05
0.000542182 -1.57476e-05 2.62363e-07
-1.57476e-05 4.34307e-06 -4.13356e-08
2.62363e-07 -4.13356e-08 -3.7557e-05
0.000579112 -4.40292e-05 -1.42885e-06
-4.40292e-05 2.53402e-05 1.18178e-06
-1.42885e-06 1.18178e-06 -1.79987e-05
0.000536477 7.62436e-06 -3.15852e-07
7.62436e-06 -3.12859e-05 -2.32272e-08
-3.15852e-07 -2.32272e-08 -3.88426e-05
0.00198938 1.71696e-05 1.73077e-06
1.71696e-05 0.000859165 -4.59514e-06
1.73077e-06 -4.59514e-06 0.000877525
0.00111124 2.17268e-05 -6.93427e-07
2.17268e-05 0.00031974 1.78006e-06
-6.93427e-07 1.78006e-06 0.000314892
0.00135983 2.55607e-05 9.07078e-08
2.55607e-05 0.0004761 -9.91769e-09
9.07078e-08 -9.91769e-09 0.000490199
0.000835669 3.03533e-05 -1.14837e-05
3.03533e-05 0.000160609 6.99453e-06
-1.14837e-05 6.99453e-06 0.000169317
-0.00931524 0.000689474 0.000292763
0.000689474 -0.00383432 -3.07682e-06
0.000292763 -3.07682e-06 -0.00539846
-0.00239268 -9.10392e-05 0.000488663
-9.10392e-05 0.00355698 -9.71281e-05
0.000488663 -9.71281e-05 0.0010444
0.00413654 0.000255678 -0.000217519
0.000255678 -0.000454323 -1.99862e-05
-0.000217519 -1.99862e-05 0.00041964
0.000632551 4.49918e-05 2.52985e-05
4.49918e-05 -0.00116488 -2.55007e-05
2.52985e-05 -2.55007e-05 -0.000971367
0.00149337 -4.2405e-05 1.5737e-05
-4.2405e-05 -0.00024583 5.9779e-06
1.5737e-05 5.9779e-06 -0.000244917
-0.000559496 4.98136e-05 -4.38061e-05
4.98136e-05 -0.000999949 -1.34249e-05
-4.38061e-05 -1.34249e-05 -0.000647522
0.00309809 -0.000197724 -1.78255e-06
-0.000197724 0.000372396 5.0268e-06
-1.78255e-06 5.0268e-06 0.000367265
0.0102773 4.59858e-05 0.000100686
4.59858e-05 0.000633374 -3.92007e-05
0.000100686 -3.92007e-05 -0.000408699
-0.00219792 0.00188002 -8.5998e-06
0.00188002 -0.000243995 -3.24204e-05
-8.5998e-06 -3.24204e-05 -0.00234915
0.0025739 0.00373862 -0.000254156
0.00373862 0.00278393 0.00013551
-0.000254156 0.00013551 0.00270965
0.00203713 -0.00039319 7.06052e-05
-0.00039319 -0.00108051 -2.04945e-05
7.06052e-05 -2.04945e-05 -0.000728374
0.0139546 -0.000984404 0.000148744
-0.000984404 0.00285458 -4.00704e-05
0.000148744 -4.00704e-05 0.00120048
0.0072336 0.00361605 0.000241515
0.00361605 0.00145665 -0.000390097
0.000241515 -0.000390097 0.000983861
0.0110117 0.00245668 -0.000280253
0.00245668 0.00231209 0.00019022
-0.000280253 0.00019022 0.00158944
0.000806092 0.000116442 -2.45917e-06
0.000116442 0.000232047 2.59477e-06
-2.45917e-06 2.59477e-06 9.06306e-05
0.00043659 2.39946e-05 -1.455e-08
2.39946e-05 -2.15143e-05 -8.73653e-07
-1.455e-08 -8.73653e-07 -0.000116491
0.000627186 -9.25516e-05 -5.34074e-07
-9.25516e-05 9.61626e-05 5.95858e-07
-5.34074e-07 5.95858e-07 7.80588e-06
0.000552838 -5.93125e-06 2.18729e-06
-5.93125e-06 5.78848e-05 -9.4194e-07
2.18729e-06 -9.4194e-07 -4.77758e-05
0.000603474 5.89054e-05 1.29899e-06
5.89054e-05 0.000108975 1.39627e-06
1.29899e-06 1.39627e-06 -1.12164e-05
0.000671728 3.79506e-05 6.88847e-07
3.79506e-05 0.000149377 5.09996e-06
6.88847e-07 5.09996e-06 8.19277e-06
0.000759112 9.37833e-05 1.30305e-06
9.37833e-05 0.000181104 2.17337e-06
1.30305e-06 2.17337e-06 5.79082e-05
0.000556213 3.46609e-05 4.51287e-06
3.46609e-05 4.34654e-05 9.77239e-07
4.51287e-06 9.77239e-07 -7.99318e-05
0.000720024 -3.13427e-05 1.9356e-06
-3.13427e-05 0.000169741 -9.83113e-07
1.9356e-06 -9.83113e-07 4.98863e-05
0.00050845 -8.50464e-06 6.62965e-08
-8.50464e-06 1.4717e-05 -1.137e-06
6.62965e-08 -1.137e-06 -8.19096e-05
0.00170385 -0.000263076 2.1702e-05
-0.000263076 -0.000211656 -2.84376e-06
2.1702e-05 -2.84376e-06 -7.88099e-05
0.00105426 -0.000424058 3.13061e-05
-0.000424058 -0.000554353 -7.24322e-06
3.13061e-05 -7.24322e-06 -0.000494923
0.000509086 -0.000531394 1.47687e-05
-0.000531394 -0.000625593 7.0153e-07
1.47687e-05 7.0153e-07 -0.000767825
-7.5817e-05 -0.000439958 7.99134e-06
-0.000439958 -0.000600901 1.00595e-06
7.99134e-06 1.00595e-06 -0.000833779
0.0029921 -0.000470857 6.44027e-06
-0.000470857 0.00172527 1.68504e-05
6.44027e-06 1.68504e-05 0.00121496
0.000660781 -0.000284449 6.97044e-06
-0.000284449 0.000220298 -4.18767e-06
6.97044e-06 -4.18767e-06 -7.39034e-05
0.00131753 -0.00015098 5.25746e-07
-0.00015098 0.000493622 -1.03092e-06
5.25746e-07 -1.03092e-06 0.000377992
0.000772323 -1.73818e-05 -2.39993e-06
-1.73818e-05 0.000209845 2.22501e-06
-2.39993e-06 2.22501e-06 8.67638e-05
0.00225979 -0.000379973 9.23946e-06
-0.000379973 1.76503e-05 -5.29751e-06
9.23946e-06 -5.29751e-06 0.000125683
0.000561524 -6.49233e-05 -1.45784e-07
-6.49233e-05 9.28742e-05 -6.12258e-08
-1.45784e-07 -6.12258e-08 -7.26473e-05
0.00010015 -0.000116776 1.13155e-06
-0.000116776 -0.000133335 -2.65315e-06
1.13155e-06 -2.65315e-06 -0.000316627
0.00197705 -0.000595781 1.00343e-05
-0.000595781 0.000132133 -1.72496e-06
1.00343e-05 -1.72496e-06 8.80048e-05
0.00170715 -0.000726637 4.67288e-07
-0.000726637 5.18134e-05 3.81643e-06
4.67288e-07 3.81643e-06 -0.000107863
0.000211888 -0.000428054 1.11553e-05
-0.000428054 -0.000244198 -7.34428e-06
1.11553e-05 -7.34428e-06 -0.000479074
0.00137045 -0.000214743 -8.22674e-07
-0.000214743 0.000847299 -8.22683e-06
-8.22674e-07 -8.22683e-06 0.000392204
0.00222967 -0.000582509 -4.95891e-05
-0.000582509 0.000437022 1.07334e-05
-4.95891e-05 1.07334e-05 0.000127547
0.00168505 -0.000578713 -4.43245e-05
-0.000578713 0.0002162 1.10158e-05
-4.43245e-05 1.10158e-05 0.000137522
0.000967808 -0.000390235 -5.43531e-05
-0.000390235 0.000413044 3.53602e-05
-5.43531e-05 3.53602e-05 0.000100025
-0.00137352 -9.0406e-05 -1.02849e-07
-9.0406e-05 -0.00104611 5.18738e-06
-1.02849e-07 5.18738e-06 -0.00121444
-3.16361e-05 -0.000106216 4.1159e-06
-0.000106216 -0.000215486 4.95032e-06
4.1159e-06 4.95032e-06 -0.000412475
0.000813014 -7.15643e-05 5.49278e-06
-7.15643e-05 0.000376239 2.91172e-06
5.49278e-06 2.91172e-06 8.19441e-05
-0.000924681 0.000603214 -0.000232924
0.000603214 0.00525488 1.19753e-05
-0.000232924 1.19753e-05 0.0023308
0.00133008 -0.000768236 8.53973e-06
-0.000768236 0.00160102 2.47846e-05
8.53973e-06 2.47846e-05 0.00152912
0.00144449 0.000925099 -7.57294e-05
0.000925099 -0.0039072 -1.63745e-05
-7.57294e-05 -1.63745e-05 -0.00421522
0.000246522 0.000177489 6.07814e-06
0.000177489 -0.000106105 8.17966e-07
6.07814e-06 8.17966e-07 -0.000283922
0.00129533 0.000394839 8.99558e-06
0.000394839 0.000375881 1.46654e-05
8.99558e-06 1.46654e-05 9.92031e-05
0.00346666 0.000629578 4.47092e-05
0.000629578 0.000926173 1.39238e-05
4.47092e-05 1.39238e-05 0.000894765
0.00189039 0.000652835 1.96186e-05
0.000652835 0.000578191 1.76113e-05
1.96186e-05 1.76113e-05 0.000237579
0.00909728 -0.00147277 0.000107715
-0.00147277 0.00307577 4.19951e-05
0.000107715 4.19951e-05 0.00318282
0.00358151 0.000442799 -0.000237864
0.000442799 -0.00269741 -1.48548e-05
-0.000237864 -1.48548e-05 -0.00463426
0.00372225 0.0018014 -3.58497e-05
0.0018014 -0.00019761 6.40277e-07
-3.58497e-05 6.40277e-07 -0.000518263
0.00182263 0.000536237 3.59376e-05
0.000536237 0.000573913 -2.77405e-05
3.59376e-05 -2.77405e-05 0.000532652
-0.00199717 -0.00180753 -0.00022925
-0.00180753 8.01991e-05 -0.000224532
-0.00022925 -0.000224532 -0.00125414
-0.000840131 -0.00154377 -0.000254767
-0.00154377 0.00282517 -8.06719e-05
-0.000254767 -8.06719e-05 -0.00068283
0.0142149 -0.0030922 0.000364081
-0.0030922 0.00281063 0.000238366
0.000364081 0.000238366 0.00303137
0.000654843 0.000177838 1.05581e-05
0.000177838 0.000147255 -3.05402e-06
1.05581e-05 -3.05402e-06 -1.63345e-05
-0.00315863 0.000248405 -0.000126882
0.000248405 0.00339518 -2.9215e-05
-0.000126882 -2.9215e-05 -0.000131
0.00429981 0.000603373 -3.84201e-05
0.000603373 0.00238096 -0.000115912
-3.84201e-05 -0.000115912 -0.00162576
0.00141358 0.00054811 -3.15763e-06
0.00054811 0.000114686 4.87694e-06
-3.15763e-06 4.87694e-06 8.07627e-05
0.000432896 0.000377521 7.81497e-06
0.000377521 2.33259e-05 3.31033e-06
7.81497e-06 3.31033e-06 -0.000255514
-0.000154338 0.000505414 -5.81249e-06
0.000505414 -3.74701e-05 -4.66848e-05
-5.81249e-06 -4.66848e-05 -0.000422103
0.0041232 0.00192287 -4.54168e-06
0.00192287 0.00137662 8.52219e-06
-4.54168e-06 8.52219e-06 0.000945225
0.0148494 0.00182725 7.82819e-05
0.00182725 0.00463914 2.53378e-05
7.82819e-05 2.53378e-05 0.00252691
0.00558724 -0.00218018 5.22052e-05
-0.00218018 0.000772676 -5.96188e-05
5.22052e-05 -5.96188e-05 -0.00109744
0.011804 -0.00170126 -3.12436e-06
-0.00170126 0.00156359 -5.1817e-05
-3.12436e-06 -5.1817e-05 0.00287851
0.000179932 0.000229056 -4.84994e-06
0.000229056 -8.12917e-05 -1.3349e-05
-4.84994e-06 -1.3349e-05 -0.000246285
0.00261505 0.000152027 -0.000193545
0.000152027 0.00136909 -3.46924e-05
-0.000193545 -3.46924e-05 -0.00144724
9.8357e-05 0.000246444 -4.20845e-05
0.000246444 -0.000111065 -0.00012524
-4.20845e-05 -0.00012524 -0.00161505
-0.000950522 0.000153393 -5.03465e-06
0.000153393 -0.000405938 -1.98706e-05
-5.03465e-06 -1.98706e-05 -0.000596928
0.000412154 0.000357223 -7.53387e-05
0.000357223 0.00103505 2.6091e-05
-7.53387e-05 2.6091e-05 0.000283944
0.0114669 0.0023645 5.06433e-05
0.0023645 0.0042452 -3.95867e-06
5.06433e-05 -3.95867e-06 0.00074848
-0.0058842 -0.00313846 -2.50786e-05
-0.00313846 -0.00251904 0.000184076
-2.50786e-05 0.000184076 -0.00558398
0.00956792 0.000564605 3.79041e-05
0.000564605 -0.00133511 -0.000241489
3.79041e-05 -0.000241489 0.00112301
0.000862732 0.000150487 -1.46386e-07
0.000150487 0.000246731 1.04158e-05
-1.46386e-07 1.04158e-05 0.000121251
0.000978792 0.000179114 -7.25336e-06
0.000179114 0.000409482 -1.57665e-06
-7.25336e-06 -1.57665e-06 0.000254182
0.000495107 0.000120393 -2.74975e-07
0.000120393 0.000291668 -6.8884e-06
-2.74975e-07 -6.8884e-06 5.12816e-05
0.000721008 8.03532e-05 -2.13705e-06
8.03532e-05 0.000155843 -1.74676e-06
-2.13705e-06 -1.74676e-06 1.71112e-05
0.000852818 -3.63458e-05 -7.37243e-07
-3.63458e-05 0.000235285 2.65657e-06
-7.37243e-07 2.65657e-06 8.56763e-05
0.000646308 5.36898e-05 2.13886e-06
5.36898e-05 0.000104307 2.47902e-06
2.13886e-06 2.47902e-06 -2.61617e-05
-0.000509302 1.93194e-05 1.57679e-06
1.93194e-05 -0.000472219 3.29144e-06
1.57679e-06 3.29144e-06 -0.000622133
0.000776861 -1.49532e-05 1.14047e-06
-1.49532e-05 0.000185381 1.74708e-07
1.14047e-06 1.74708e-07 3.67849e-05
0.000766993 2.36369e-05 1.40963e-08
2.36369e-05 0.000205051 -1.62437e-06
1.40963e-08 -1.62437e-06 6.69312e-05
3.79373e-05 -9.87308e-06 3.46327e-07
-9.87308e-06 4.161e-05 2.02703e-06
3.46327e-07 2.02703e-06 -0.000209714
-0.000899299 1.81917e-05 -1.08779e-06
1.81917e-05 -0.000256473 3.93156e-06
-1.08779e-06 3.93156e-06 -0.000644364
0.000405804 7.15044e-06 -2.48644e-06
7.15044e-06 0.000234345 -4.76265e-06
-2.48644e-06 -4.76265e-06 -4.08112e-06
0.000877482 2.82517e-05 -1.03461e-06
2.82517e-05 0.000257902 -4.55218e-06
-1.03461e-06 -4.55218e-06 0.000114896
0.000845919 -0.000121056 8.44292e-07
-0.000121056 0.000225235 7.88817e-07
8.44292e-07 7.88817e-07 8.13999e-05
0.000704306 -1.83801e-05 -1.34392e-06
-1.83801e-05 0.000130931 1.37531e-07
-1.34392e-06 1.37531e-07 1.11454e-05
0.000543824 -7.14312e-05 4.87037e-08
-7.14312e-05 5.87625e-05 5.58838e-06
4.87037e-08 5.58838e-06 -4.71775e-05
0.000424887 -2.80525e-05 1.70239e-06
-2.80525e-05 -1.59925e-05 2.05996e-06
1.70239e-06 2.05996e-06 -0.000143961
0.00066746 -2.05272e-05 7.85178e-07
-2.05272e-05 0.000114306 -1.9331e-07
7.85178e-07 -1.9331e-07 -9.31436e-06
0.000564517 -4.28545e-05 -2.3779e-07
-4.28545e-05 7.56971e-05 -6.02706e-07
-2.3779e-07 -6.02706e-07 -3.1748e-05
0.00109506 -4.90695e-05 -2.72342e-06
-4.90695e-05 0.000362029 -5.28876e-06
-2.72342e-06 -5.28876e-06 0.000253968
0.000145499 -4.22665e-05 4.39738e-06
-4.22665e-05 -8.31025e-05 -5.993e-06
4.39738e-06 -5.993e-06 -0.000200805
0.000250425 -0.000118762 2.18923e-07
-0.000118762 -0.000267465 -1.88082e-07
2.18923e-07 -1.88082e-07 -0.000357052
0.000758707 -0.000102813 -4.6777e-06
-0.000102813 0.00011583 -4.74526e-07
-4.6777e-06 -4.74526e-07 1.0112e-05
0.000255342 -0.000112962 5.8567e-06
-0.000112962 -0.000185274 3.13195e-06
5.8567e-06 3.13195e-06 -0.000330567
0.00118718 -0.00028743 9.40567e-07
-0.00028743 0.00030414 9.72854e-06
9.40567e-07 9.72854e-06 5.78329e-05
0.00155629 -0.000161381 8.75447e-07
-0.000161381 0.00064438 -2.10142e-06
8.75447e-07 -2.10142e-06 0.000486627
0.000119005 -7.91267e-05 -4.19374e-06
-7.91267e-05 -0.000242889 -5.04118e-06
-4.19374e-06 -5.04118e-06 -0.000390854
0.000629127 -3.85183e-05 -6.72611e-08
-3.85183e-05 6.93689e-05 2.55704e-07
-6.72611e-08 2.55704e-07 -5.41116e-05
0.000194483 -2.69656e-05 -8.39052e-07
-2.69656e-05 -0.000175547 -3.79739e-07
-8.39052e-07 -3.79739e-07 -0.000298464
0.000905177 -5.64381e-05 -7.54975e-07
-5.64381e-05 0.000231055 1.1821e-06
-7.54975e-07 1.1821e-06 0.000104583
0.000743768 -7.10504e-05 -7.3486e-07
-7.10504e-05 0.000162763 7.22639e-07
-7.3486e-07 7.22639e-07 3.4908e-05
0.000603163 -3.9689e-05 -1.34552e-07
-3.9689e-05 5.44522e-05 1.69664e-06
-1.34552e-07 1.69664e-06 -4.45636e-05
0.000924057 -9.36199e-05 -6.84361e-07
-9.36199e-05 0.000296646 -1.37769e-06
-6.84361e-07 -1.37769e-06 0.000154501
0.000661284 -7.22578e-05 -5.94057e-07
-7.22578e-05 0.000103001 -8.87913e-08
-5.94057e-07 -8.87913e-08 -4.78048e-07
0.000540339 2.13163e-05 -2.01659e-06
2.13163e-05 3.62428e-06 2.48536e-06
-2.01659e-06 2.48536e-06 -6.28171e-05
0.00070217 -0.000102795 1.70294e-06
-0.000102795 0.000133263 -1.79063e-06
1.70294e-06 -1.79063e-06 2.68607e-05
0.000613855 -2.99088e-05 -2.24764e-07
-2.99088e-05 4.64002e-05 8.51849e-08
-2.24764e-07 8.51849e-08 -1.76701e-05
0.0014134 2.20564e-05 -9.05494e-06
2.20564e-05 0.000510094 6.39763e-06
-9.05494e-06 6.39763e-06 0.000492579
0.000579051 -4.75135e-05 2.1671e-06
-4.75135e-05 3.37114e-05 -2.76989e-06
2.1671e-06 -2.76989e-06 -3.22102e-05
0.000929418 7.51525e-06 -4.54552e-06
7.51525e-06 0.000217729 6.74399e-07
-4.54552e-06 6.74399e-07 0.000199311
0.000771899 2.32038e-05 3.82607e-07
2.32038e-05 0.000116949 2.40995e-06
3.82607e-07 2.40995e-06 0.00012105
0.000505045 -4.87925e-06 7.28652e-07
-4.87925e-06 -3.85526e-05 -4.30809e-06
7.28652e-07 -4.30809e-06 -5.76618e-05
0.00160157 2.34812e-05 6.92289e-06
2.34812e-05 0.000623968 -1.47693e-06
6.92289e-06 -1.47693e-06 0.000633913
0.00242711 1.58376e-05 5.52782e-06
1.58376e-05 0.00112738 -5.14767e-06
5.52782e-06 -5.14767e-06 0.00114158
0.000643407 2.46403e-05 1.8649e-06
2.46403e-05 8.55844e-05 -9.63913e-07
1.8649e-06 -9.63913e-07 -5.68429e-06
0.000618379 4.3861e-05 -7.85376e-07
4.3861e-05 5.03767e-05 -1.80694e-06
-7.85376e-07 -1.80694e-06 3.19054e-06
0.000654607 -3.04066e-06 1.23731e-06
-3.04066e-06 0.000101997 4.77992e-07
1.23731e-06 4.77992e-07 1.50372e-05
0.000535801 -5.6968e-07 8.93725e-07
-5.6968e-07 -3.05104e-05 -3.4953e-06
8.93725e-07 -3.4953e-06 -3.88071e-05
0.00054981 3.60075e-05 1.15924e-07
3.60075e-05 9.49094e-06 -5.16969e-08
1.15924e-07 -5.16969e-08 -3.38655e-05
0.000606791 -0.00010066 -3.52729e-06
-0.00010066 7.51509e-05 9.70501e-07
-3.52729e-06 9.70501e-07 -8.44256e-06
0.00200259 3.96507e-06 -3.17392e-06
3.96507e-06 0.000865639 -4.71405e-06
-3.17392e-06 -4.71405e-06 0.000884464
0.000531118 3.39254e-06 -2.01162e-07
3.39254e-06 -3.3909e-05 9.55501e-09
-2.01162e-07 9.55501e-09 -4.14243e-05
0.000555263 -1.90431e-05 -1.73166e-06
-1.90431e-05 1.02336e-05 1.55815e-06
-1.73166e-06 1.55815e-06 -3.04561e-05
0.000516654 7.00533e-06 -9.06157e-07
7.00533e-06 -4.35434e-05 3.07069e-06
-9.06157e-07 3.07069e-06 -5.10283e-05
0.00201814 1.86975e-05 -4.44501e-06
1.86975e-05 0.000876879 -6.64703e-08
-4.44501e-06 -6.64703e-08 0.000895064
0.0019901 3.14296e-05 -8.20494e-06
3.14296e-05 0.000861988 4.33384e-06
-8.20494e-06 4.33384e-06 0.000879513
-0.00572287 -0.000840586 -9.0741e-05
-0.000840586 0.00301428 3.28992e-05
-9.0741e-05 3.28992e-05 1.95449e-05
0.000511981 0.00073461 -0.000147698
0.00073461 -6.37017e-05 3.80657e-05
-0.000147698 3.80657e-05 -0.00103156
0.00303079 -0.000635678 -0.000407386
-0.000635678 0.00114197 0.000198891
-0.000407386 0.000198891 -0.00267915
-0.00293803 8.80601e-05 0.000618352
8.80601e-05 0.00358571 -0.000240399
0.000618352 -0.000240399 0.000980717
0.000685413 0.000359951 -1.25436e-05
0.000359951 -0.00129623 -1.14459e-05
-1.25436e-05 -1.14459e-05 -0.000955894
0.00257369 -0.000261199 0.000100681
-0.000261199 -2.85439e-05 -1.7977e-06
0.000100681 -1.7977e-06 -8.97763e-06
0.000888905 -0.0003862 9.28415e-05
-0.0003862 -0.00305842 -7.28287e-05
9.28415e-05 -7.28287e-05 -0.00494977
0.0140531 0.00180761 -0.000313395
0.00180761 0.00654315 1.30529e-05
-0.000313395 1.30529e-05 0.00512447
-0.00470558 0.00431329 -0.00116389
0.00431329 -0.00146903 0.000877102
-0.00116389 0.000877102 -0.00124867
0.00346101 -0.000282695 2.53444e-06
-0.000282695 -0.000252326 2.02873e-06
2.53444e-06 2.02873e-06 -7.42697e-05
0.00691548 -0.0010035 8.81409e-05
-0.0010035 -0.000383601 -7.7859e-05
8.81409e-05 -7.7859e-05 -0.00274922
0.0151541 0.00323785 -0.000163341
0.00323785 0.00442032 -9.61233e-05
-0.000163341 -9.61233e-05 0.00399898
0.00749837 0.00250495 -7.97862e-05
0.00250495 -4.13323e-06 0.000247919
-7.97862e-05 0.000247919 -0.000900291
0.00186809 -0.000977568 -8.20493e-05
-0.000977568 -0.00184523 2.49622e-05
-8.20493e-05 2.49622e-05 -0.00140181
0.00335424 -0.00170708 0.00025231
-0.00170708 -0.000153096 -0.000172675
0.00025231 -0.000172675 -0.00388455
-0.00160606 0.0020497 -3.60683e-05
0.0020497 -0.00266047 -0.00048767
-3.60683e-05 -0.00048767 -0.00397742
0.0061232 0.00111014 -0.000133628
0.00111014 -0.00291112 5.96309e-06
-0.000133628 5.96309e-06 -0.00160645
0.00130939 -5.65051e-05 1.90964e-06
-5.65051e-05 0.000566199 8.52267e-06
1.90964e-06 8.52267e-06 0.000386963
0.000596438 9.59861e-05 -1.71058e-06
9.59861e-05 9.19197e-05 -1.74419e-06
-1.71058e-06 -1.74419e-06 -3.61994e-05
0.000574976 8.03489e-05 2.57392e-07
8.03489e-05 5.64848e-05 -1.91994e-06
2.57392e-07 -1.91994e-06 -3.38187e-05
0.000622638 5.70323e-05 4.78308e-06
5.70323e-05 0.000122557 6.91982e-07
4.78308e-06 6.91982e-07 3.043e-06
0.000586391 6.38823e-05 3.04958e-06
6.38823e-05 8.41046e-05 2.50734e-06
3.04958e-06 2.50734e-06 -7.63792e-05
0.000640838 5.28856e-05 -2.22727e-07
5.28856e-05 0.000126818 1.80484e-06
-2.22727e-07 1.80484e-06 -6.82482e-06
0.00053807 4.26304e-05 8.95311e-07
4.26304e-05 4.98038e-05 -1.20248e-06
8.95311e-07 -1.20248e-06 -7.11283e-05
0.000866488 0.000144066 2.40994e-06
0.000144066 0.000255741 3.05863e-06
2.40994e-06 3.05863e-06 0.000106622
0.000839304 9.66424e-05 -5.28097e-08
9.66424e-05 0.000243255 3.44501e-07
-5.28097e-08 3.44501e-07 0.000100453
0.000454629 -1.61289e-05 -4.19689e-06
-1.61289e-05 2.86784e-06 -3.36041e-06
-4.19689e-06 -3.36041e-06 -0.000114885
0.000737653 -0.000295354 5.42857e-05
-0.000295354 -0.000769508 -2.32475e-05
5.42857e-05 -2.32475e-05 -0.000639219
0.00059674 -0.000511502 3.5553e-05
-0.000511502 -0.00062527 -7.95198e-06
3.5553e-05 -7.95198e-06 -0.000645876
0.00150126 -0.000713042 1.17363e-05
-0.000713042 -8.62451e-05 5.09493e-06
1.17363e-05 5.09493e-06 -0.000220599
-3.63311e-05 -0.000458094 1.11367e-05
-0.000458094 -0.000375366 -1.08503e-05
1.11367e-05 -1.08503e-05 -0.000658008
0.00233061 -0.000272432 -4.59444e-06
-0.000272432 0.00130893 2.79462e-05
-4.59444e-06 2.79462e-05 0.000928768
0.000571823 -0.000111032 -2.34066e-06
-0.000111032 0.000155322 8.44827e-07
-2.34066e-06 8.44827e-07 -3.6975e-05
0.000473808 8.81509e-05 -1.51033e-06
8.81509e-05 4.58648e-05 -7.79275e-06
-1.51033e-06 -7.79275e-06 -0.000124748
0.000701274 -8.34267e-05 -9.33343e-07
-8.34267e-05 0.000202117 5.435e-06
-9.33343e-07 5.435e-06 5.16066e-06
0.00142483 -0.000485627 2.87355e-07
-0.000485627 -9.51187e-05 -3.0486e-06
2.87355e-07 -3.0486e-06 -0.000243874
0.000693727 -3.32442e-05 3.44963e-07
-3.32442e-05 0.00019594 2.90463e-06
3.44963e-07 2.90463e-06 3.35858e-06
0.00157912 -0.00017975 -3.12121e-08
-0.00017975 0.00082652 -1.33904e-06
-3.12121e-08 -1.33904e-06 0.000524217
0.00161256 -0.000582398 5.28556e-07
-0.000582398 0.000140673 3.18387e-06
5.28556e-07 3.18387e-06 7.8695e-05
0.000815561 -0.000443142 -1.55093e-05
-0.000443142 0.000276427 5.8293e-06
-1.55093e-05 5.8293e-06 -3.17797e-05
0.00207321 -0.000885388 9.6495e-06
-0.000885388 0.000208956 -2.13891e-05
9.6495e-06 -2.13891e-05 0.000166786
0.000826706 -0.000350614 -1.43474e-05
-0.000350614 0.000209211 1.38128e-05
-1.43474e-05 1.38128e-05 9.61321e-05
-0.000677309 -4.12007e-05 2.44205e-06
-4.12007e-05 -0.000334338 1.19889e-05
2.44205e-06 1.19889e-05 -0.000726131
0.000748876 1.19782e-05 -7.89775e-07
1.19782e-05 0.000197156 -3.50753e-06
-7.89775e-07 -3.50753e-06 2.6208e-05
0.000941846 4.12494e-05 5.6281e-06
4.12494e-05 0.00042716 2.3926e-07
5.6281e-06 2.3926e-07 0.000182528
0.0016962 -3.43223e-06 -2.30048e-05
-3.43223e-06 0.0016103 -1.03159e-05
-2.30048e-05 -1.03159e-05 -0.0010605
-0.00413983 0.000218891 -0.000197825
0.000218891 0.0044917 -8.48218e-06
-0.000197825 -8.48218e-06 0.00105258
-0.0113806 -0.00117362 -0.000423561
-0.00117362 -0.00575713 -1.44158e-05
-0.000423561 -1.44158e-05 -0.00554424
-0.000486238 0.000122318 7.12832e-06
0.000122318 -0.00049722 -8.43004e-07
7.12832e-06 -8.43004e-07 -0.000673391
-0.000751296 0.000275951 -5.27695e-07
0.000275951 -0.000568833 8.77812e-06
-5.27695e-07 8.77812e-06 -0.000861829
0.0014334 0.000592896 2.93872e-05
0.000592896 0.000115291 1.06711e-05
2.93872e-05 1.06711e-05 7.52306e-05
-0.00460524 0.000968011 2.05326e-08
0.000968011 0.00321411 3.25706e-05
2.05326e-08 3.25706e-05 -6.66674e-05
0.00239897 0.00154736 -0.000137829
0.00154736 -7.93598e-05 -0.000129846
-0.000137829 -0.000129846 -0.00386684
0.00271682 0.00143462 0.000265406
0.00143462 0.000667905 7.34764e-05
0.000265406 7.34764e-05 0.000411963
-0.000369298 0.000481629 7.64984e-06
0.000481629 -0.000305157 -3.79618e-05
7.64984e-06 -3.79618e-05 -0.000405958
0.016497 -0.00227834 -6.68338e-05
-0.00227834 0.00496493 -0.000196784
-6.68338e-05 -0.000196784 0.00379978
0.00464008 0.000697391 0.000257569
0.000697391 0.00237761 9.61152e-05
0.000257569 9.61152e-05 -0.00189179
0.0117774 -0.00149628 8.32131e-05
-0.00149628 0.00178152 2.5135e-05
8.32131e-05 2.5135e-05 0.00314057
0.000737221 0.000278739 2.79484e-06
0.000278739 0.000305824 -2.68732e-06
2.79484e-06 -2.68732e-06 0.00012845
0.00376048 0.000231759 8.68092e-06
0.000231759 0.00207543 1.14721e-05
8.68092e-06 1.14721e-05 -5.29049e-05
0.000791354 0.000265295 3.2265e-05
0.000265295 -5.05047e-06 1.02941e-05
3.2265e-05 1.02941e-05 -0.00156636
-0.000625993 0.00029045 -2.39692e-06
0.00029045 -0.000317889 -2.01345e-06
-2.39692e-06 -2.01345e-06 -0.000558907
0.0013933 0.000764327 -9.17469e-05
0.000764327 0.0010987 -4.15277e-05
-9.17469e-05 -4.15277e-05 6.84516e-05
0.00219994 0.00247585 0.000113498
0.00247585 0.000874633 7.30973e-05
0.000113498 7.30973e-05 -0.00278634
0.00739205 0.000192695 -1.33972e-05
0.000192695 -0.00308693 -0.000160722
-1.33972e-05 -0.000160722 -0.000304343
0.00331149 -0.0018341 -4.99722e-05
-0.0018341 0.00149397 -8.61039e-05
-4.99722e-05 -8.61039e-05 -0.00130396
0.00111118 0.000233328 -4.27804e-06
0.000233328 0.0007418 -1.58013e-05
-4.27804e-06 -1.58013e-05 0.000530768
-0.000927656 3.74301e-06 3.27002e-06
3.74301e-06 -0.000134238 1.96667e-07
3.27002e-06 1.96667e-07 -6.02378e-05
0.0033325 2.35494e-05 5.09263e-05
2.35494e-05 -6.68245e-05 -0.000120848
5.09263e-05 -0.000120848 -0.0010839
0.00616618 0.00116437 0.000140447
0.00116437 -0.00276351 -1.38416e-05
0.000140447 -1.38416e-05 -0.00157412
-0.00139385 0.000107782 9.13603e-06
0.000107782 -9.10941e-05 -2.5761e-05
9.13603e-06 -2.5761e-05 -0.000726375
0.0113799 0.00199187 0.000173216
0.00199187 0.00527278 5.43711e-05
0.000173216 5.43711e-05 0.00101328
-0.00667145 -0.000471902 8.64089e-05
-0.000471902 0.000354516 0.000287224
8.64089e-05 0.000287224 -0.00216535
0.00261237 0.000325237 2.04778e-05
0.000325237 0.00139317 1.65843e-05
2.04778e-05 1.65843e-05 0.00121267
0.000900915 0.000183749 -5.64161e-06
0.000183749 0.000522539 -2.44894e-06
-5.64161e-06 -2.44894e-06 0.000257799
-0.000176105 7.33605e-05 3.73969e-07
7.33605e-05 0.000124645 8.46852e-07
3.73969e-07 8.46852e-07 -0.0001725
0.000685549 0.000144945 3.24463e-07
0.000144945 0.00014501 4.82477e-07
3.24463e-07 4.82477e-07 -1.08333e-05
0.000475425 5.81818e-05 1.4775e-06
5.81818e-05 2.52259e-05 2.48068e-06
1.4775e-06 2.48068e-06 -0.000108561
0.000661274 7.0576e-06 8.81115e-06
7.0576e-06 0.000434581 2.21679e-06
8.81115e-06 2.21679e-06 0.000163042
0.000598835 3.94956e-05 6.93618e-08
3.94956e-05 8.48642e-05 -5.55037e-07
6.93618e-08 -5.55037e-07 -5.00201e-05
0.000758241 -1.28688e-05 -2.88604e-06
-1.28688e-05 0.000435509 -2.10535e-06
-2.88604e-06 -2.10535e-06 0.000201525
-0.000284558 3.79294e-05 2.84382e-06
3.79294e-05 8.94972e-05 2.943e-06
2.84382e-06 2.943e-06 -0.000295554
0.000228707 5.47125e-06 -7.84695e-06
5.47125e-06 0.000259084 -5.40198e-06
-7.84695e-06 -5.40198e-06 2.4082e-05
0.000231905 -3.2526e-05 -9.67623e-07
-3.2526e-05 8.65312e-05 -7.14139e-06
-9.67623e-07 -7.14139e-06 -0.00011702
0.000505067 -5.75037e-05 1.35765e-06
-5.75037e-05 1.94336e-05 5.66757e-06
1.35765e-06 5.66757e-06 -9.85642e-05
0.000941636 -2.41788e-05 -1.13235e-06
-2.41788e-05 0.000276766 -2.24903e-07
-1.13235e-06 -2.24903e-07 0.000152184
0.000948321 -4.28971e-05 -9.03738e-06
-4.28971e-05 0.000301935 6.66284e-06
-9.03738e-06 6.66284e-06 0.000194517
0.00068795 -5.71412e-05 3.53328e-06
-5.71412e-05 0.000219128 -3.28973e-07
3.53328e-06 -3.28973e-07 0.000107792
0.000550248 -4.07093e-05 -1.68405e-06
-4.07093e-05 4.07815e-05 -4.2417e-07
-1.68405e-06 -4.2417e-07 -6.80124e-05
0.000635481 -0.000112518 1.74033e-06
-0.000112518 0.000128189 -2.69919e-07
1.74033e-06 -2.69919e-07 1.45937e-05
0.000277267 -0.000108946 -4.87011e-06
-0.000108946 -0.000194508 -7.38353e-07
-4.87011e-06 -7.38353e-07 -0.000265358
-0.00071429 -0.00017733 8.87306e-06
-0.00017733 -0.00074807 5.4163e-06
8.87306e-06 5.4163e-06 -0.00094905
0.000706755 -0.00015128 1.67677e-06
-0.00015128 9.4745e-05 1.92263e-06
1.67677e-06 1.92263e-06 -1.81229e-05
0.00127076 -0.000221167 -1.02531e-06
-0.000221167 0.000410326 4.85455e-06
-1.02531e-06 4.85455e-06 0.000240936
0.0013667 -0.000349408 -5.55142e-06
-0.000349408 0.000383909 5.6916e-06
-5.55142e-06 5.6916e-06 0.000118972
0.00101122 -0.000296635 -2.74006e-06
-0.000296635 0.000113705 -9.3407e-07
-2.74006e-06 -9.3407e-07 -0.000143147
0.00101767 -0.000221735 -2.01984e-06
-0.000221735 0.000333478 6.34313e-06
-2.01984e-06 6.34313e-06 0.000121611
0.000234494 -0.000181187 4.94227e-06
-0.000181187 -0.000261812 -1.0026e-06
4.94227e-06 -1.0026e-06 -0.000483251
0.000953313 -0.000108513 1.44523e-06
-0.000108513 0.00028722 -1.43557e-06
1.44523e-06 -1.43557e-06 0.000131658
0.00111482 -0.000150147 -3.04259e-06
-0.000150147 0.000398696 -4.06892e-07
-3.04259e-06 -4.06892e-07 0.000234285
0.000303321 -0.000111382 6.60679e-06
-0.000111382 -0.000106223 -1.3026e-05
6.60679e-06 -1.3026e-05 -0.000253018
0.00101103 -5.85164e-05 2.38366e-07
-5.85164e-05 0.000284403 5.41164e-07
2.38366e-07 5.41164e-07 0.000161563
0.000358649 -3.89385e-05 3.67299e-07
-3.89385e-05 -7.26768e-05 -1.63492e-07
3.67299e-07 -1.63492e-07 -0.000198509
0.000645041 -3.01782e-05 -1.9286e-07
-3.01782e-05 7.19648e-05 1.08732e-06
-1.9286e-07 1.08732e-06 -3.12266e-05
0.00084154 -0.000103681 -4.21635e-07
-0.000103681 0.000235516 -1.35919e-07
-4.21635e-07 -1.35919e-07 9.64478e-05
0.000670028 -5.69021e-05 4.54128e-08
-5.69021e-05 0.000105012 1.02188e-07
4.54128e-08 1.02188e-07 -2.61456e-06
0.000558199 2.27407e-05 4.23368e-07
2.27407e-05 2.01317e-05 2.90486e-06
4.23368e-07 2.90486e-06 -5.3221e-05
0.000753674 -9.13864e-05 9.45407e-08
-9.13864e-05 0.000168456 -1.98638e-06
9.45407e-08 -1.98638e-06 5.72468e-05
0.000566054 1.43271e-05 -1.37646e-06
1.43271e-05 2.18581e-05 -1.15912e-07
-1.37646e-06 -1.15912e-07 -4.69002e-05
0.0013732 3.76425e-05 -1.01206e-05
3.76425e-05 0.000487634 4.35845e-06
-1.01206e-05 4.35845e-06 0.000468931
0.000618541 -4.17079e-05 2.4913e-06
-4.17079e-05 5.15081e-05 -2.88752e-06
2.4913e-06 -2.88752e-06 -1.41771e-05
0.000924014 1.88506e-05 -5.61231e-06
1.88506e-05 0.000212353 6.37481e-07
-5.61231e-06 6.37481e-07 0.000192707
0.000813385 3.26808e-05 -3.45193e-07
3.26808e-05 0.000143355 2.61519e-06
-3.45193e-07 2.61519e-06 0.000145643
0.00050481 4.11869e-06 8.38406e-07
4.11869e-06 -4.26713e-05 -4.7458e-06
8.38406e-07 -4.7458e-06 -6.3022e-05
0.00163882 3.58357e-05 9.59236e-06
3.58357e-05 0.000647026 -1.33394e-06
9.59236e-06 -1.33394e-06 0.000655461
0.00243955 3.15091e-05 8.99351e-06
3.15091e-05 0.00113499 -5.27193e-06
8.99351e-06 -5.27193e-06 0.0011485
0.000385044 1.03322e-05 1.20487e-06
1.03322e-05 -6.0104e-05 -2.2143e-07
1.20487e-06 -2.2143e-07 -0.000172285
0.000265609 1.05093e-05 1.28161e-07
1.05093e-05 -0.000165066 -3.1698e-06
1.28161e-07 -3.1698e-06 -0.0002206
0.000691905 3.16241e-05 6.89737e-09
3.16241e-05 0.00012238 1.28407e-07
6.89737e-09 1.28407e-07 2.5296e-05
0.00053257 -3.65793e-06 7.6787e-07
-3.65793e-06 -3.27868e-05 -3.61964e-06
7.6787e-07 -3.61964e-06 -4.2715e-05
0.000397002 1.60564e-06 1.37475e-06
1.60564e-06 -8.67927e-05 -3.84556e-08
1.37475e-06 -3.84556e-08 -0.000133498
0.000387766 -8.97968e-05 -1.82516e-06
-8.97968e-05 -5.93016e-05 2.77125e-07
-1.82516e-06 2.77125e-07 -0.000148659
0.00207538 -9.66566e-06 -7.77108e-06
-9.66566e-06 0.000909843 -4.75462e-06
-7.77108e-06 -4.75462e-06 0.000928194
0.000530236 -8.47461e-07 -7.96794e-08
-8.47461e-07 -3.42596e-05 -4.70138e-08
-7.96794e-08 -4.70138e-08 -4.24225e-05
0.000518964 -1.97405e-05 -2.04088e-06
-1.97405e-05 -1.17461e-05 1.89266e-06
-2.04088e-06 1.89266e-06 -5.3342e-05
0.00202473 5.38424e-06 -4.1915e-06
5.38424e-06 0.000879413 1.69996e-08
-4.1915e-06 1.69996e-08 0.000898079
0.000514938 2.89608e-06 -8.28425e-07
2.89608e-06 -4.31469e-05 3.19029e-06
-8.28425e-07 3.19029e-06 -5.07036e-05
0.00200256 2.00277e-05 -1.31598e-06
2.00277e-05 0.00086743 4.5361e-06
-1.31598e-06 4.5361e-06 0.000885612
0.000309068 -0.000349578 -0.00015137
-0.000349578 -0.000258367 3.91511e-05
-0.00015137 3.91511e-05 -0.0022302
0.00123737 0.000258931 -5.1183e-05
0.000258931 0.00484183 -3.39956e-07
-5.1183e-05 -3.39956e-07 0.00259019
0.00109809 -0.000324241 -0.000435906
-0.000324241 0.00263507 5.45753e-05
-0.000435906 5.45753e-05 0.00134732
0.000734876 9.82827e-05 2.95041e-06
9.82827e-05 0.000150402 1.5181e-06
2.95041e-06 1.5181e-06 9.96687e-06
0.00374076 -0.000437611 -1.76808e-05
-0.000437611 0.00268882 0.00013954
-1.76808e-05 0.00013954 0.00110336
0.00378829 -0.000753072 -0.000172593
-0.000753072 0.00142149 1.24681e-05
-0.000172593 1.24681e-05 -0.00232187
0.00478773 0.0012988 0.000282375
0.0012988 0.00487921 -0.000209976
0.000282375 -0.000209976 0.00281043
0.0053046 -0.000446197 5.72082e-05
-0.000446197 0.000668997 -3.25987e-05
5.72082e-05 -3.25987e-05 0.000504781
0.0123276 -0.00105358 0.000172348
-0.00105358 0.00217646 -8.15559e-05
0.000172348 -8.15559e-05 0.000568158
0.00127896 0.00280114 -0.000289088
0.00280114 -0.00265926 0.000250995
-0.000289088 0.000250995 -0.00290467
0.00833659 0.00259753 3.07739e-05
0.00259753 0.0015412 9.77326e-05
3.07739e-05 9.77326e-05 0.000193897
0.00567243 -0.00121633 -0.000110416
-0.00121633 0.000221797 -4.83115e-06
-0.000110416 -4.83115e-06 0.000145021
0.0138743 -0.00171907 5.19944e-05
-0.00171907 0.00431942 -1.99393e-05
5.19944e-05 -1.99393e-05 0.00209262
0.00817299 0.00170834 0.00011131
0.00170834 0.00128337 -0.000193603
0.00011131 -0.000193603 -0.000203324
0.00802443 0.0010461 1.02921e-05
0.0010461 -0.00132765 1.72487e-05
1.02921e-05 1.72487e-05 -0.000459894
0.0026365 -0.00159812 -6.27889e-06
-0.00159812 -0.000228151 2.2827e-05
-6.27889e-06 2.2827e-05 -0.000723805
0.0113686 -0.00234538 0.000120777
-0.00234538 0.00507223 -7.05666e-05
0.000120777 -7.05666e-05 0.00109608
0.0053602 -3.88216e-05 0.000104892
-3.88216e-05 0.00171139 -0.000283534
0.000104892 -0.000283534 0.000404216
0.00929927 0.000579933 -7.50462e-05
0.000579933 -0.00120865 0.000158816
-7.50462e-05 0.000158816 0.00101522
0.000800894 -1.96216e-05 3.43615e-06
-1.96216e-05 0.000243116 3.37691e-06
3.43615e-06 3.37691e-06 6.75133e-05
0.000856964 -8.40423e-05 -5.12682e-07
-8.40423e-05 0.000294788 5.98948e-08
-5.12682e-07 5.98948e-08 0.000113132
0.000747257 0.000121019 -2.52187e-07
0.000121019 0.00018796 -3.93647e-06
-2.52187e-07 -3.93647e-06 5.61622e-05
0.000695423 7.18216e-05 1.42831e-06
7.18216e-05 0.000113712 4.36608e-06
1.42831e-06 4.36608e-06 -2.24611e-05
0.000740898 0.000116133 -2.55192e-07
0.000116133 0.000187901 7.40767e-07
-2.55192e-07 7.40767e-07 2.60254e-05
0.000920311 7.01114e-05 -3.87802e-06
7.01114e-05 0.000296477 -2.20128e-06
-3.87802e-06 -2.20128e-06 0.000163268
0.00100546 0.000140727 -1.09188e-06
0.000140727 0.000339681 -3.26986e-08
-1.09188e-06 -3.26986e-08 0.000189652
0.00101132 0.000150775 4.15558e-07
0.000150775 0.000361355 1.88911e-06
4.15558e-07 1.88911e-06 0.000210151
0.000469379 -0.000355727 7.04917e-05
-0.000355727 -0.000670438 -3.0282e-05
7.04917e-05 -3.0282e-05 -0.000641786
0.00180418 -0.000609114 8.31394e-06
-0.000609114 0.000192848 -1.11156e-05
8.31394e-06 -1.11156e-05 0.000153607
0.000891035 -0.000193446 -1.06543e-06
-0.000193446 0.000322335 -1.0492e-05
-1.06543e-06 -1.0492e-05 0.000114757
0.00124043 -0.00051379 2.22937e-05
-0.00051379 0.000490714 -1.83129e-05
2.22937e-05 -1.83129e-05 0.000182088
0.00225835 -0.00029558 -8.59991e-06
-0.00029558 0.00120316 1.93505e-06
-8.59991e-06 1.93505e-06 0.000902402
0.00109657 -9.53216e-05 -2.12504e-06
-9.53216e-05 0.000424883 -1.24069e-05
-2.12504e-06 -1.24069e-05 0.000232071
0.000329053 -3.01551e-05 1.22396e-06
-3.01551e-05 -5.21178e-05 4.05182e-06
1.22396e-06 4.05182e-06 -0.000221716
0.00016699 -0.000714086 -1.67707e-06
-0.000714086 -0.000799538 -1.4048e-06
-1.67707e-06 -1.4048e-06 -0.000778415
0.00121787 3.54228e-05 -2.883e-07
3.54228e-05 0.000595141 7.10729e-07
-2.883e-07 7.10729e-07 0.000339218
0.000891219 -0.000193968 -2.96855e-06
-0.000193968 0.000482707 2.65888e-06
-2.96855e-06 2.65888e-06 0.000141663
0.000413775 -0.000293253 1.88527e-05
-0.000293253 -4.00452e-05 2.5289e-06
1.88527e-05 2.5289e-06 -9.94304e-05
0.00126986 0.000104151 8.23178e-07
0.000104151 0.000478132 -1.55201e-06
8.23178e-07 -1.55201e-06 0.000336944
0.00141984 -0.000687966 2.28371e-06
-0.000687966 0.000166387 -3.49801e-05
2.28371e-06 -3.49801e-05 0.000179554
-0.000113153 -0.000243743 -1.07988e-05
-0.000243743 -4.81728e-05 1.57803e-05
-1.07988e-05 1.57803e-05 -0.00022025
-0.000677093 5.87541e-05 8.60036e-06
5.87541e-05 -0.000134161 3.7652e-06
8.60036e-06 3.7652e-06 -0.000651645
0.00124849 0.000207365 2.86387e-06
0.000207365 0.000555202 -4.60644e-06
2.86387e-06 -4.60644e-06 0.000370879
-0.00029359 2.40184e-05 1.88665e-05
2.40184e-05 0.000827625 -3.42968e-06
1.88665e-05 -3.42968e-06 0.00021018
0.00100664 -3.9412e-05 0.000103885
-3.9412e-05 0.00119375 -2.06568e-05
0.000103885 -2.06568e-05 -0.00149696
-0.00760077 -0.000144696 -0.000180767
-0.000144696 0.00383658 1.25137e-05
-0.000180767 1.25137e-05 -0.000224515
0.00130618 0.000317207 1.48621e-05
0.000317207 0.000717649 4.5604e-06
1.48621e-05 4.5604e-06 0.000529511
-0.00161835 0.000373916 1.44605e-06
0.000373916 -0.000887208 1.0976e-05
1.44605e-06 1.0976e-05 -0.00121369
0.00480749 0.000254658 0.000149161
0.000254658 0.00266591 1.55272e-05
0.000149161 1.55272e-05 0.00119844
0.00829779 0.00169926 0.000211936
0.00169926 0.00351502 0.000112523
0.000211936 0.000112523 -0.000413085
0.00335111 0.00126132 -9.37716e-05
0.00126132 0.00184711 -8.41509e-05
-9.37716e-05 -8.41509e-05 0.000673792
0.00511334 -0.00134701 -7.71401e-05
-0.00134701 0.00241312 -0.000309477
-7.71401e-05 -0.000309477 0.000118302
0.00143211 0.000269653 7.59913e-05
0.000269653 9.72443e-05 0.00015214
7.59913e-05 0.00015214 -0.00144549
0.00537688 -9.96963e-05 -2.731e-05
-9.96963e-05 -0.00490024 -0.000173818
-2.731e-05 -0.000173818 -0.00168381
0.000806617 0.000258858 -2.26301e-07
0.000258858 0.000568663 -2.33691e-06
-2.26301e-07 -2.33691e-06 0.00033695
-0.000828093 -2.13536e-05 -4.41097e-07
-2.13536e-05 -0.000137851 -1.07386e-06
-4.41097e-07 -1.07386e-06 -0.00012355
0.00328604 6.14373e-05 6.16331e-05
6.14373e-05 4.58023e-05 2.09737e-05
6.16331e-05 2.09737e-05 -0.000458001
-0.00113321 0.000240954 -8.75137e-06
0.000240954 -0.000333518 -6.59328e-06
-8.75137e-06 -6.59328e-06 -0.000863171
0.00804683 0.00114533 -8.08589e-06
0.00114533 -0.00129877 -1.46472e-05
-8.08589e-06 -1.46472e-05 -0.000479667
0.00422156 0.00126324 0.000147462
0.00126324 0.00326985 8.77466e-05
0.000147462 8.77466e-05 -0.00129626
0.00459647 0.000600573 -0.000111839
0.000600573 0.00279798 4.70481e-06
-0.000111839 4.70481e-06 0.000769563
0.000297112 0.00025944 -1.20328e-05
0.00025944 0.000307945 -1.99636e-05
-1.20328e-05 -1.99636e-05 -3.4103e-05
0.00143226 8.2778e-05 1.4089e-05
8.2778e-05 -0.000327023 -2.07364e-05
1.4089e-05 -2.07364e-05 -7.43878e-05
0.00355752 -0.000411773 1.47433e-05
-0.000411773 0.0026586 -0.000141716
1.47433e-05 -0.000141716 0.00115274
0.0110585 0.00262757 0.000263433
0.00262757 0.00212611 -0.000189664
0.000263433 -0.000189664 0.00153022
0.00639071 -9.6828e-05 -9.71793e-05
-9.6828e-05 0.00216655 0.000288181
-9.71793e-05 0.000288181 0.000861901
0.000724245 0.000240999 -3.22117e-06
0.000240999 0.000316931 -9.22191e-05
-3.22117e-06 -9.22191e-05 2.46958e-05
0.00044157 0.00133364 0.000173701
0.00133364 0.00356847 3.52796e-05
0.000173701 3.52796e-05 -0.0031527
0.00151582 0.000276263 2.82353e-06
0.000276263 0.000835651 1.95914e-05
2.82353e-06 1.95914e-05 0.000572499
0.000390297 0.00013933 2.82478e-06
0.00013933 0.0004354 2.73968e-07
2.82478e-06 2.73968e-07 0.000139873
0.000515948 -1.30801e-05 -1.18932e-05
-1.30801e-05 0.000563717 -1.23948e-05
-1.18932e-05 -1.23948e-05 0.000352323
0.000249336 -3.34094e-05 6.97221e-07
-3.34094e-05 -0.00014013 4.61635e-06
6.97221e-07 4.61635e-06 -0.000261744
0.00114211 -6.61851e-07 3.05725e-06
-6.61851e-07 0.000650322 1.84532e-06
3.05725e-06 1.84532e-06 0.0004253
0.000659073 2.4401e-06 2.51157e-06
2.4401e-06 0.000590892 -3.09932e-06
2.51157e-06 -3.09932e-06 0.000236708
0.000474506 -4.72918e-05 6.13497e-07
-4.72918e-05 0.000189623 -3.34421e-07
6.13497e-07 -3.34421e-07 2.00128e-05
-2.08819e-05 -1.58418e-05 2.46709e-06
-1.58418e-05 0.000115272 1.52017e-06
2.46709e-06 1.52017e-06 -0.000129348
0.00135259 -0.000235455 3.7205e-06
-0.000235455 0.000785111 -1.23426e-05
3.7205e-06 -1.23426e-05 0.000554944
0.00106935 -7.51665e-05 -3.0743e-06
-7.51665e-05 0.000427631 6.38736e-06
-3.0743e-06 6.38736e-06 0.000322421
-2.98929e-05 -1.75969e-05 -2.21665e-07
-1.75969e-05 -0.000298468 2.83439e-06
-2.21665e-07 2.83439e-06 -0.000407351
0.00137779 -0.000186433 2.19979e-06
-0.000186433 0.000555265 2.61503e-06
2.19979e-06 2.61503e-06 0.000425459
-0.00117793 -0.000155397 9.60814e-06
-0.000155397 -0.000833583 3.31619e-06
9.60814e-06 3.31619e-06 -0.00107698
0.000179535 -9.27307e-05 -2.8416e-06
-9.27307e-05 -0.0001985 1.61273e-06
-2.8416e-06 1.61273e-06 -0.000249911
-0.00018704 -0.000203152 3.32097e-06
-0.000203152 -0.000451878 -1.97853e-06
3.32097e-06 -1.97853e-06 -0.000637118
0.00114575 -0.000371026 8.04927e-06
-0.000371026 0.000210405 -5.37835e-06
8.04927e-06 -5.37835e-06 -0.000104024
0.00150222 -0.000426143 -2.44086e-06
-0.000426143 0.000317768 3.39591e-07
-2.44086e-06 3.39591e-07 5.75001e-06
0.00220081 -0.000320553 -4.4499e-07
-0.000320553 0.000955614 5.3754e-07
-4.4499e-07 5.3754e-07 0.00076318
0.00110345 -0.000321694 8.65553e-07
-0.000321694 0.000203894 3.23645e-07
8.65553e-07 3.23645e-07 -6.56043e-05
0.00182617 -0.000392365 2.5904e-06
-0.000392365 0.000570186 -2.3226e-06
2.5904e-06 -2.3226e-06 0.000308614
0.000654356 -0.000222699 -1.53562e-06
-0.000222699 7.01311e-06 4.11196e-06
-1.53562e-06 4.11196e-06 -0.000229621
0.00095992 -0.000284476 -7.69703e-07
-0.000284476 9.29357e-05 -1.65949e-06
-7.69703e-07 -1.65949e-06 -0.000158884
0.000399815 -9.42283e-05 8.00506e-07
-9.42283e-05 -2.28658e-05 -1.98863e-06
8.00506e-07 -1.98863e-06 -0.00021268
0.0011214 -0.000253049 -5.06504e-06
-0.000253049 0.0004037 2.72117e-06
-5.06504e-06 2.72117e-06 0.000180363
-0.000773334 -6.97491e-05 -3.16759e-06
-6.97491e-05 -0.000858602 -4.47774e-06
-3.16759e-06 -4.47774e-06 -0.0010556
0.000492927 -1.83632e-05 1.10224e-06
-1.83632e-05 -1.45812e-05 1.4278e-06
1.10224e-06 1.4278e-06 -0.000130266
0.000667436 -8.91638e-05 1.75142e-07
-8.91638e-05 0.000127469 -1.93909e-07
1.75142e-07 -1.93909e-07 -2.83775e-05
0.000725832 -0.0001435 5.5844e-06
-0.0001435 0.000183961 -2.50806e-06
5.5844e-06 -2.50806e-06 1.13013e-05
0.0005796 -5.10051e-05 4.70842e-07
-5.10051e-05 6.39046e-05 -2.02783e-07
4.70842e-07 -2.02783e-07 -6.50779e-05
0.000688222 -4.35851e-05 -7.2586e-07
-4.35851e-05 0.000111109 -2.01438e-08
-7.2586e-07 -2.01438e-08 -2.05749e-06
0.000531045 2.39777e-05 4.54088e-07
2.39777e-05 -4.54341e-07 3.72654e-06
4.54088e-07 3.72654e-06 -7.83809e-05
0.000785537 -7.27063e-05 2.30799e-07
-7.27063e-05 0.000184102 -1.21663e-06
2.30799e-07 -1.21663e-06 6.82568e-05
0.000576899 1.75466e-05 -1.18671e-06
1.75466e-05 2.85619e-05 -1.86086e-07
-1.18671e-06 -1.86086e-07 -4.34263e-05
0.000500533 3.27107e-05 -9.49274e-07
3.27107e-05 -4.01418e-05 5.27146e-06
-9.49274e-07 5.27146e-06 -6.5508e-05
0.000675876 -3.56162e-05 2.18002e-06
-3.56162e-05 8.24765e-05 -2.86892e-06
2.18002e-06 -2.86892e-06 1.6256e-05
0.00051343 2.25769e-05 2.27401e-07
2.25769e-05 -3.82836e-05 -6.74803e-09
2.27401e-07 -6.74803e-09 -6.10364e-05
0.00242423 8.36398e-05 -3.4019e-06
8.36398e-05 0.00113295 2.22958e-06
-3.4019e-06 2.22958e-06 0.00114041
0.000506975 1.40922e-05 1.05929e-06
1.40922e-05 -4.27298e-05 -4.96958e-06
1.05929e-06 -4.96958e-06 -6.45878e-05
0.00166827 4.86917e-05 1.14906e-05
4.86917e-05 0.000666954 -1.11822e-06
1.14906e-05 -1.11822e-06 0.00067344
0.00248969 4.72511e-05 1.46878e-05
4.72511e-05 0.00116667 -5.27224e-06
1.46878e-05 -5.27224e-06 0.00117878
0.000337546 9.58125e-06 1.01209e-06
9.58125e-06 -0.00010469 -1.54119e-06
1.01209e-06 -1.54119e-06 -0.000210361
0.000282532 5.37032e-06 5.70247e-07
5.37032e-06 -0.000157896 -2.83322e-06
5.70247e-07 -2.83322e-06 -0.000221106
0.000530775 2.09767e-05 -4.78323e-07
2.09767e-05 2.79983e-05 -1.13838e-06
-4.78323e-07 -1.13838e-06 -8.13616e-05
0.000541072 -8.46283e-06 1.19076e-06
-8.46283e-06 -2.7416e-05 -3.94053e-06
1.19076e-06 -3.94053e-06 -3.99686e-05
0.000250562 8.59943e-06 -5.63988e-07
8.59943e-06 -0.000174669 -1.44586e-06
-5.63988e-07 -1.44586e-06 -0.000231355
0.000696456 4.00542e-05 -5.24434e-07
4.00542e-05 0.000135033 1.26998e-06
-5.24434e-07 1.26998e-06 3.16767e-05
0.00211462 -2.29748e-05 -1.29197e-05
-2.29748e-05 0.000933836 -4.66103e-06
-1.29197e-05 -4.66103e-06 0.000951514
0.00052891 -4.6864e-06 -3.32993e-07
-4.6864e-06 -3.5334e-05 -5.72641e-08
-3.32993e-07 -5.72641e-08 -4.50287e-05
0.000204547 7.93833e-06 8.28368e-07
7.93833e-06 -0.000201387 1.6396e-06
8.28368e-07 1.6396e-06 -0.000251214
0.00204572 -8.17061e-06 -3.83268e-06
-8.17061e-06 0.000891542 4.80991e-08
-3.83268e-06 4.80991e-08 0.000910148
0.000522175 -1.05621e-06 -8.90527e-07
-1.05621e-06 -3.93967e-05 3.42517e-06
-8.90527e-07 3.42517e-06 -4.73791e-05
0.00204696 6.89553e-06 3.55084e-06
6.89553e-06 0.00089324 4.68012e-06
3.55084e-06 4.68012e-06 0.000911693
0.000486329 -1.21967e-05 4.23922e-05
-1.21967e-05 0.000791938 8.45237e-06
4.23922e-05 8.45237e-06 0.000692476
0.000262281 -0.000218788 -1.49874e-05
-0.000218788 7.0401e-05 -1.49939e-05
-1.49874e-05 -1.49939e-05 -0.00228443
0.000712609 0.000184195 3.03167e-05
0.000184195 0.00463328 -2.47778e-05
3.03167e-05 -2.47778e-05 0.00251414
0.000752252 0.000106352 -5.35551e-08
0.000106352 0.000153393 3.24439e-07
-5.35551e-08 3.24439e-07 2.16253e-05
0.000522955 7.31684e-05 2.84297e-06
7.31684e-05 -1.29989e-06 2.55056e-07
2.84297e-06 2.55056e-07 -0.000123591
0.000972918 0.000150335 3.98614e-06
0.000150335 0.000286655 3.50411e-06
3.98614e-06 3.50411e-06 0.000147539
0.0036298 -7.46545e-05 -6.52446e-06
-7.46545e-05 -0.000245361 0.00020288
-6.52446e-06 0.00020288 -0.000996618
0.00370326 -0.000398533 3.94478e-05
-0.000398533 0.00256551 -6.80896e-06
3.94478e-05 -6.80896e-06 0.00127868
0.00428874 -0.000849386 8.58697e-05
-0.000849386 0.00173799 -0.000158396
8.58697e-05 -0.000158396 -0.00214727
0.00736442 -0.00152174 -7.73655e-05
-0.00152174 0.000884217 -1.67631e-05
-7.73655e-05 -1.67631e-05 0.000930728
0.00170215 -0.0015638 -0.000201661
-0.0015638 -0.000788704 9.87143e-05
-0.000201661 9.87143e-05 -0.00362532
0.0158437 0.00242943 0.00012661
0.00242943 0.00600642 7.31983e-05
0.00012661 7.31983e-05 0.00415793
0.00457061 0.000219949 0.000137166
0.000219949 -0.00312173 -0.000146922
0.000137166 -0.000146922 -0.00267781
0.0050523 -0.0018598 -2.86812e-05
-0.0018598 0.00085054 9.61459e-06
-2.86812e-05 9.61459e-06 0.000458595
0.00717461 -0.00200031 -5.76988e-05
-0.00200031 0.00305433 2.46905e-05
-5.76988e-05 2.46905e-05 -0.000776967
-0.00337575 0.00210921 -5.80664e-05
0.00210921 0.00122616 -0.000196673
-5.80664e-05 -0.000196673 -0.00175745
0.00733111 0.000193733 -3.27741e-05
0.000193733 -0.0031207 8.64057e-05
-3.27741e-05 8.64057e-05 -0.00033416
0.00109305 -0.00105027 -6.94822e-05
-0.00105027 0.000188093 5.04628e-06
-6.94822e-05 5.04628e-06 -0.000219354
0.0114067 -0.00204665 -0.000141521
-0.00204665 0.00524394 0.000100566
-0.000141521 0.000100566 0.00105522
-0.00669637 -6.41071e-05 3.53999e-05
-6.41071e-05 0.000650013 -0.000261887
3.53999e-05 -0.000261887 -0.00215748
0.00628076 -0.00118687 6.27686e-05
-0.00118687 -0.00200709 1.10417e-05
6.27686e-05 1.10417e-05 -0.000985273
0.000572235 7.38827e-05 2.36375e-06
7.38827e-05 5.73819e-05 8.85317e-06
2.36375e-06 8.85317e-06 -8.48886e-05
0.00072807 -1.66771e-05 1.93197e-06
-1.66771e-05 0.00019286 -1.58745e-06
1.93197e-06 -1.58745e-06 1.22401e-05
0.000832774 -0.000103587 -5.46895e-07
-0.000103587 0.000255977 -5.5235e-06
-5.46895e-07 -5.5235e-06 7.91277e-05
0.000701887 9.05468e-05 -1.21884e-06
9.05468e-05 0.000119559 -3.38167e-08
-1.21884e-06 -3.38167e-08 -2.0328e-05
0.000747337 0.000124461 2.94192e-08
0.000124461 0.000194367 -2.23887e-06
2.94192e-08 -2.23887e-06 3.97272e-05
0.00112379 0.000152916 -3.26183e-06
0.000152916 0.000417231 -1.66823e-06
-3.26183e-06 -1.66823e-06 0.000262957
-0.00066534 -0.000642184 1.85526e-05
-0.000642184 -0.00126645 4.76684e-06
1.85526e-05 4.76684e-06 -0.00124145
-0.000498022 -0.000219185 2.02701e-05
-0.000219185 -0.000555906 -1.75774e-05
2.02701e-05 -1.75774e-05 -0.000571342
0.000248401 2.74692e-05 -3.05441e-06
2.74692e-05 -9.38494e-05 -5.15004e-06
-3.05441e-06 -5.15004e-06 -0.000271506
0.00133633 -0.000313091 4.37448e-05
-0.000313091 0.000670071 -2.72012e-05
4.37448e-05 -2.72012e-05 0.000358063
0.00142832 -9.6375e-06 -5.22338e-06
-9.6375e-06 0.000716744 -6.51833e-06
-5.22338e-06 -6.51833e-06 0.000463202
0.00067614 8.43133e-05 1.0001e-06
8.43133e-05 0.000143946 2.21104e-06
1.0001e-06 2.21104e-06 -5.36708e-06
0.000780268 0.000140384 2.00951e-07
0.000140384 0.000273164 -2.4954e-06
2.00951e-07 -2.4954e-06 0.00010853
0.000303801 -0.000700487 1.42797e-06
-0.000700487 -0.00043149 -5.53142e-06
1.42797e-06 -5.53142e-06 -0.000532847
0.000485003 -3.57975e-06 -2.64757e-06
-3.57975e-06 0.000437974 1.56954e-06
-2.64757e-06 1.56954e-06 4.37602e-05
0.000658443 -0.000175331 4.97162e-06
-0.000175331 0.000401111 -3.76123e-06
4.97162e-06 -3.76123e-06 0.000185588
0.00111898 0.000137499 2.57582e-06
0.000137499 0.000444703 -4.97857e-06
2.57582e-06 -4.97857e-06 0.00030846
-0.00234616 -8.85456e-05 -7.5911e-05
-8.85456e-05 -0.00074072 -2.12233e-05
-7.5911e-05 -2.12233e-05 -0.00134139
5.70103e-05 -9.02649e-05 -7.46808e-06
-9.02649e-05 0.000208208 1.14216e-05
-7.46808e-06 1.14216e-05 -2.40934e-07
0.000656348 7.10255e-05 7.27995e-06
7.10255e-05 0.00049096 5.05373e-06
7.27995e-06 5.05373e-06 0.000171752
0.000405461 1.83441e-05 -1.53266e-06
1.83441e-05 -0.000441089 7.25932e-07
-1.53266e-06 7.25932e-07 -0.000899699
-0.000604917 2.77667e-05 -7.553e-07
2.77667e-05 0.000535422 -1.50323e-05
-7.553e-07 -1.50323e-05 3.65623e-05
0.000226237 -7.51476e-05 0.000226564
-7.51476e-05 0.000767448 -6.2216e-07
0.000226564 -6.2216e-07 -0.00196786
-9.62303e-05 0.000221079 3.1929e-07
0.000221079 4.79268e-05 1.90396e-05
3.1929e-07 1.90396e-05 -0.000207454
0.000871993 0.000545246 1.43667e-06
0.000545246 0.000258835 -8.01165e-06
1.43667e-06 -8.01165e-06 -0.000154266
-0.000768106 -3.31508e-05 6.41545e-06
-3.31508e-05 -0.000152795 -2.70143e-06
6.41545e-06 -2.70143e-06 -0.000207589
-0.00354814 0.000625743 4.7518e-05
0.000625743 0.00100879 0.0001121
4.7518e-05 0.0001121 -0.00344658
-0.0081339 0.000874683 -0.000137812
0.000874683 -0.00338348 -0.000336381
-0.000137812 -0.000336381 -0.00625059
0.00300334 8.6343e-05 5.42261e-05
8.6343e-05 0.000143078 8.63501e-05
5.42261e-05 8.63501e-05 2.73602e-05
0.00453755 0.000285867 -0.000142467
0.000285867 -0.00300434 0.000147301
-0.000142467 0.000147301 -0.00264843
0.00046798 0.000229289 3.91897e-06
0.000229289 0.000425449 -1.30762e-06
3.91897e-06 -1.30762e-06 0.000132781
0.00118048 1.73721e-05 2.00901e-05
1.73721e-05 -0.000446146 -2.89424e-05
2.00901e-05 -2.89424e-05 -0.000163006
0.00351084 -0.000308746 -4.10499e-05
-0.000308746 0.00252506 7.66589e-06
-4.10499e-05 7.66589e-06 0.00123919
0.000852612 0.000360418 -7.06487e-05
0.000360418 0.000864154 -5.93296e-06
-7.06487e-05 -5.93296e-06 -2.76608e-05
0.00731865 0.00260699 7.47091e-05
0.00260699 -0.000116311 -0.000241831
7.47091e-05 -0.000241831 -0.000878499
-0.00219129 0.00174337 5.42911e-05
0.00174337 0.000970803 0.000194576
5.42911e-05 0.000194576 -0.00168073
0.00705334 0.00024824 5.22146e-05
0.00024824 0.00622362 -2.53274e-05
5.22146e-05 -2.53274e-05 0.000145054
0.00131299 -3.90218e-05 4.62993e-05
-3.90218e-05 0.00139879 -2.3678e-05
4.62993e-05 -2.3678e-05 0.000746449
0.000500647 -2.92253e-06 -3.8053e-05
-2.92253e-06 0.000760966 2.25642e-06
-3.8053e-05 2.25642e-06 0.000656586
0.00283776 -0.000594244 0.000428946
-0.000594244 0.000995701 -0.000193092
0.000428946 -0.000193092 -0.00286111
0.00879005 0.00350027 2.31859e-06
0.00350027 0.00659481 -2.43915e-06
2.31859e-06 -2.43915e-06 0.00592724
-0.00135655 0.00204941 -5.97335e-06
0.00204941 -0.00260285 0.000476293
-5.97335e-06 0.000476293 -0.00383099
0.0126764 -0.00208654 0.000167511
-0.00208654 0.00541741 -0.000146265
0.000167511 -0.000146265 0.00105238
0.00311051 -0.000564282 -6.03407e-05
-0.000564282 0.00183598 5.72584e-05
-6.03407e-05 5.72584e-05 0.00127221
0.00113479 0.000200177 8.1382e-06
0.000200177 0.000854484 5.81604e-06
8.1382e-06 5.81604e-06 0.000555224
9.85959e-05 -1.66897e-05 -1.8873e-05
-1.66897e-05 0.000267887 4.11101e-08
-1.8873e-05 4.11101e-08 4.76631e-05
0.00155072 -0.00033081 2.20962e-05
-0.00033081 0.00098336 -9.47509e-06
2.20962e-05 -9.47509e-06 0.000633469
0.000781778 -8.26294e-05 8.59433e-07
-8.26294e-05 0.000341089 3.61185e-06
8.59433e-07 3.61185e-06 0.000198956
4.85769e-05 -4.16027e-05 -3.06451e-06
-4.16027e-05 0.000150138 4.00752e-06
-3.06451e-06 4.00752e-06 -0.000100596
0.000456524 -0.000211594 -1.98666e-06
-0.000211594 0.000341446 -5.28651e-07
-1.98666e-06 -5.28651e-07 0.000109083
0.00123836 -0.000399964 2.66059e-05
-0.000399964 0.000524808 -2.10698e-05
2.66059e-05 -2.10698e-05 0.000333089
0.0021606 -0.000262445 -4.40548e-06
-0.000262445 0.00100859 4.59336e-06
-4.40548e-06 4.59336e-06 0.000857949
0.00199385 -0.000467195 8.3205e-06
-0.000467195 0.000872708 -1.58095e-06
8.3205e-06 -1.58095e-06 0.00059667
0.0018817 -0.000483195 1.44636e-05
-0.000483195 0.000789231 4.69267e-08
1.44636e-05 4.69267e-08 0.000339026
0.000384853 -0.00021268 -3.86992e-06
-0.00021268 -0.000134863 -1.68767e-06
-3.86992e-06 -1.68767e-06 -0.000296182
0.00148182 -0.000403565 -3.08589e-06
-0.000403565 0.000371654 6.22658e-07
-3.08589e-06 6.22658e-07 5.38657e-05
0.0020186 -0.0005429 5.34983e-07
-0.0005429 0.000625193 1.32407e-06
5.34983e-07 1.32407e-06 0.000212367
0.00165698 -0.000543009 -3.22084e-06
-0.000543009 0.000310402 2.26808e-06
-3.22084e-06 2.26808e-06 -4.54178e-05
0.00146461 -0.000414469 -1.41864e-06
-0.000414469 0.00031826 1.34429e-06
-1.41864e-06 1.34429e-06 2.2065e-05
0.00141099 -0.000420991 -2.96809e-06
-0.000420991 0.000259954 1.4727e-06
-2.96809e-06 1.4727e-06 -5.44914e-05
0.00116743 -0.000329583 -6.08264e-06
-0.000329583 0.000211977 1.40706e-06
-6.08264e-06 1.40706e-06 -6.80442e-05
0.00228754 -0.000417661 3.30355e-06
-0.000417661 0.000898569 -4.69662e-07
3.30355e-06 -4.69662e-07 0.000643087
0.00145081 -0.000355858 4.26787e-06
-0.000355858 0.00034409 -2.35429e-06
4.26787e-06 -2.35429e-06 8.87184e-05
-6.94707e-05 -9.58815e-05 -1.20489e-07
-9.58815e-05 -0.000369154 9.4644e-08
-1.20489e-07 9.4644e-08 -0.000576255
0.00103985 -0.000269943 2.82536e-06
-0.000269943 0.00025327 -1.65657e-06
2.82536e-06 -1.65657e-06 7.8856e-06
0.00104131 -0.00028639 4.80229e-06
-0.00028639 0.000152586 -4.26946e-06
4.80229e-06 -4.26946e-06 -9.68158e-05
9.08294e-05 -9.14944e-06 6.84836e-07
-9.14944e-06 -0.000234778 1.66469e-06
6.84836e-07 1.66469e-06 -0.000387905
0.000974019 -0.000145051 -4.91571e-07
-0.000145051 0.000326073 -4.81565e-08
-4.91571e-07 -4.81565e-08 0.000126364
0.0011231 -0.000273748 -2.22628e-06
-0.000273748 0.000412836 -2.01384e-06
-2.22628e-06 -2.01384e-06 0.000180496
0.000667672 1.26344e-06 -8.41224e-07
1.26344e-06 8.03627e-05 4.27053e-06
-8.41224e-07 4.27053e-06 -5.61872e-06
0.00078429 -6.0632e-05 -1.98805e-07
-6.0632e-05 0.000161232 -1.60846e-07
-1.98805e-07 -1.60846e-07 3.96661e-05
0.000414618 -6.9347e-05 -6.90265e-08
-6.9347e-05 -1.43691e-05 8.9686e-07
-6.90265e-08 8.9686e-07 -0.00016915
0.000722782 -6.35222e-05 2.0686e-07
-6.35222e-05 0.000136216 -1.41e-06
2.0686e-07 -1.41e-06 1.81313e-05
0.000618486 -1.73454e-05 -1.54911e-07
-1.73454e-05 4.66133e-05 -2.44658e-07
-1.54911e-07 -2.44658e-07 -2.9118e-05
0.000507701 3.91086e-05 -2.94749e-07
3.91086e-05 -2.92853e-05 6.16066e-06
-2.94749e-07 6.16066e-06 -5.83904e-05
0.000619543 -2.50791e-05 1.48004e-06
-2.50791e-05 4.88365e-05 -2.91109e-06
1.48004e-06 -2.91109e-06 -2.08591e-05
0.000524699 3.44223e-05 -4.89846e-07
3.44223e-05 -2.57121e-05 -8.31617e-08
-4.89846e-07 -8.31617e-08 -5.13552e-05
0.00250971 9.18018e-05 -2.8406e-05
9.18018e-05 0.00119174 4.23236e-06
-2.8406e-05 4.23236e-06 0.00119804
0.000529059 2.35701e-05 1.11482e-06
2.35701e-05 -2.89265e-05 -5.03585e-06
1.11482e-06 -5.03585e-06 -5.18355e-05
0.00164203 6.1781e-05 1.36211e-05
6.1781e-05 0.000655115 -9.04023e-07
1.36211e-05 -9.04023e-07 0.000659852
0.00252354 6.38806e-05 1.90741e-05
6.38806e-05 0.00119022 -4.95614e-06
1.90741e-05 -4.95614e-06 0.00120056
0.000695711 7.44061e-05 1.59301e-06
7.44061e-05 0.000121806 -7.17388e-07
1.59301e-06 -7.17388e-07 6.6928e-06
0.000571621 3.38029e-05 4.8387e-07
3.38029e-05 1.59966e-05 -2.49294e-06
4.8387e-07 -2.49294e-06 -5.0605e-05
0.000511994 4.32616e-05 -1.17405e-06
4.32616e-05 1.43231e-05 -1.20975e-06
-1.17405e-06 -1.20975e-06 -0.000100402
0.000526484 -1.03725e-05 7.72527e-07
-1.03725e-05 -3.57186e-05 -4.57546e-06
7.72527e-07 -4.57546e-06 -5.17239e-05
0.00039709 2.60434e-05 -1.80216e-06
2.60434e-05 -8.75233e-05 -1.43982e-06
-1.80216e-06 -1.43982e-06 -0.000149827
0.000729789 5.45311e-05 -7.89605e-07
5.45311e-05 0.0001493 -1.10955e-06
-7.89605e-07 -1.10955e-06 4.10058e-05
0.00220249 -3.74963e-05 -1.74966e-05
-3.74963e-05 0.000988392 -4.65856e-06
-1.74966e-05 -4.65856e-06 0.00100458
0.00052492 -9.32936e-06 -1.54635e-07
-9.32936e-06 -3.75108e-05 -8.96747e-08
-1.54635e-07 -8.96747e-08 -4.97923e-05
0.000195507 7.08326e-06 -1.2873e-06
7.08326e-06 -0.000208397 5.1377e-07
-1.2873e-06 5.1377e-07 -0.000266004
0.00213009 -2.19797e-05 -4.57785e-06
-2.19797e-05 0.00094315 1.0511e-07
-4.57785e-06 1.0511e-07 0.000960881
0.000523558 -6.08349e-06 -1.23623e-06
-6.08349e-06 -3.88148e-05 3.45721e-06
-1.23623e-06 3.45721e-06 -4.83288e-05
0.00207505 -6.69651e-06 8.35792e-06
-6.69651e-06 0.000909343 4.72817e-06
8.35792e-06 4.72817e-06 0.00092786
0.00129253 -8.67776e-05 -2.02488e-05
-8.67776e-05 -0.000354942 2.50709e-05
-2.02488e-05 2.50709e-05 -0.000135637
0.000387211 -9.65907e-05 2.49709e-05
-9.65907e-05 0.000699559 -1.59559e-06
2.49709e-05 -1.59559e-06 0.000610029
0.000240314 -0.000206696 0.000129765
-0.000206696 0.000206666 -6.08544e-05
0.000129765 -6.08544e-05 -0.00228612
0.000460737 3.66978e-05 2.39047e-06
3.66978e-05 -5.00031e-05 4.67349e-07
2.39047e-06 4.67349e-07 -0.000169196
0.00127584 7.69026e-05 -2.33545e-07
7.69026e-05 0.000428216 2.76645e-06
-2.33545e-07 2.76645e-06 0.000291444
0.000771039 0.000116067 -1.10255e-06
0.000116067 0.000164249 -6.57955e-07
-1.10255e-06 -6.57955e-07 3.70652e-05
0.000533512 5.87084e-05 3.55538e-07
5.87084e-05 -4.15169e-06 5.21473e-07
3.55538e-07 5.21473e-07 -0.000119444
0.000624106 7.78487e-05 1.47522e-07
7.78487e-05 7.03922e-05 9.2513e-08
1.47522e-07 9.2513e-08 -5.81814e-05
0.000600128 6.82998e-05 2.14148e-06
6.82998e-05 4.5258e-05 -7.46239e-07
2.14148e-06 -7.46239e-07 -7.44416e-05
0.000637297 0.000160757 5.46875e-06
0.000160757 0.000113018 3.34878e-06
5.46875e-06 3.34878e-06 -3.39142e-05
0.000262817 0.000217596 8.27983e-05
0.000217596 -0.000300367 0.000201326
8.27983e-05 0.000201326 -0.00157665
0.00320792 -5.02094e-05 -1.94969e-05
-5.02094e-05 3.65916e-05 5.58328e-05
-1.94969e-05 5.58328e-05 -0.000520462
0.00347703 -0.000304937 6.69183e-05
-0.000304937 0.00239474 -8.23798e-05
6.69183e-05 -8.23798e-05 0.00141595
0.00536763 -0.000132624 -8.54017e-06
-0.000132624 -0.00506246 9.88715e-05
-8.54017e-06 9.88715e-05 -0.00164213
0.00312764 -0.0015598 -8.99092e-05
-0.0015598 0.000841558 6.53943e-05
-8.99092e-05 6.53943e-05 0.000271119
-0.00165802 -0.00205427 -6.50987e-05
-0.00205427 0.000216 9.46912e-05
-6.50987e-05 9.46912e-05 -0.00434263
0.0109123 0.00261747 8.78792e-05
0.00261747 0.0055239 -9.33803e-05
8.78792e-05 -9.33803e-05 0.0028045
0.00309363 -0.00139741 -3.46938e-05
-0.00139741 0.000670663 1.14376e-05
-3.46938e-05 1.14376e-05 0.000496148
-0.00105187 -0.000565892 8.40262e-06
-0.000565892 0.00219424 3.76876e-05
8.40262e-06 3.76876e-05 -0.00308814
0.00531812 0.000300108 7.45948e-05
0.000300108 0.00263205 -1.39407e-05
7.45948e-05 -1.39407e-05 0.000557548
0.0115432 -0.00169907 -4.12454e-05
-0.00169907 0.00150723 -3.38284e-05
-4.12454e-05 -3.38284e-05 0.00283259
-0.000213759 -0.000245556 -0.000100122
-0.000245556 -0.000328637 8.69501e-05
-0.000100122 8.69501e-05 -6.59362e-05
0.00168007 0.00173462 -0.000102263
0.00173462 0.00303983 -8.18012e-05
-0.000102263 -8.18012e-05 -0.00236379
-0.00519837 -0.00296696 4.84082e-05
-0.00296696 -0.00254171 -0.000184978
4.84082e-05 -0.000184978 -0.00553115
0.0083468 -0.00187312 7.29877e-05
-0.00187312 0.000657415 -0.000372652
7.29877e-05 -0.000372652 0.000727542
0.00084188 2.84625e-05 7.87908e-06
2.84625e-05 0.000263475 2.32861e-06
7.87908e-06 2.32861e-06 0.00012134
0.000649766 0.000102436 -7.21822e-07
0.000102436 0.000112253 -1.19487e-06
-7.21822e-07 -1.19487e-06 -3.15333e-05
0.000766509 -1.90735e-05 -6.35216e-07
-1.90735e-05 0.000229571 -2.65251e-06
-6.35216e-07 -2.65251e-06 3.37903e-05
0.000837747 8.62072e-05 -2.49253e-06
8.62072e-05 0.00022109 -5.47794e-06
-2.49253e-06 -5.47794e-06 6.65603e-05
-0.000117157 -0.000536294 -6.312e-06
-0.000536294 -0.000590978 3.68178e-05
-6.312e-06 3.68178e-05 -0.000721381
0.00146408 -0.000182452 -4.57684e-06
-0.000182452 0.000969779 -1.74239e-05
-4.57684e-06 -1.74239e-05 0.00068897
0.000709905 6.02072e-05 -4.18842e-06
6.02072e-05 0.000144606 -5.80734e-06
-4.18842e-06 -5.80734e-06 1.36218e-05
0.000710647 0.000185901 -1.87612e-06
0.000185901 0.000241819 2.67696e-06
-1.87612e-06 2.67696e-06 7.2576e-05
0.00172439 3.88596e-05 3.8005e-06
3.88596e-05 0.00109018 -1.43836e-05
3.8005e-06 -1.43836e-05 0.000782833
0.000869546 7.87137e-05 4.45718e-06
7.87137e-05 0.00026638 2.99738e-06
4.45718e-06 2.99738e-06 0.000149519
0.000502961 0.000132318 -2.15192e-06
0.000132318 0.000423856 -4.15324e-08
-2.15192e-06 -4.15324e-08 8.62031e-05
0.00105869 -0.00023348 -4.7951e-06
-0.00023348 0.000972612 1.76649e-06
-4.7951e-06 1.76649e-06 0.000211484
-9.12053e-05 -4.52295e-05 2.73849e-05
-4.52295e-05 0.000233438 -8.7111e-07
2.73849e-05 -8.7111e-07 -3.01742e-05
0.000431734 0.000132315 2.96667e-06
0.000132315 0.000277558 -1.70299e-06
2.96667e-06 -1.70299e-06 5.99879e-05
0.000278303 -5.19399e-05 -4.19133e-05
-5.19399e-05 0.00133932 -4.41989e-05
-4.19133e-05 -4.41989e-05 -1.55124e-05
0.00229375 0.000213715 1.08357e-05
0.000213715 0.00146154 2.02419e-05
1.08357e-05 2.02419e-05 0.0011143
-0.000355234 3.39188e-05 -2.18317e-05
3.39188e-05 0.000866207 1.34472e-05
-2.18317e-05 1.34472e-05 0.000198921
0.00105214 -1.29873e-05 1.00347e-06
-1.29873e-05 -0.000162151 5.3364e-07
1.00347e-06 5.3364e-07 -0.000228922
-0.000845052 2.61073e-05 4.76066e-06
2.61073e-05 0.000239118 -2.85782e-05
4.76066e-06 -2.85782e-05 -9.84307e-05
0.000154832 0.000146434 -4.17278e-06
0.000146434 0.000324231 7.34461e-06
-4.17278e-06 7.34461e-06 9.09623e-05
-0.00134103 0.000460794 8.34407e-05
0.000460794 -0.000745796 7.02245e-05
8.34407e-05 7.02245e-05 -0.00116581
0.00101876 -1.15246e-05 2.82244e-05
-1.15246e-05 -0.000523251 -5.30534e-06
2.82244e-05 -5.30534e-06 -0.000145922
0.00282824 -0.00153294 0.000129125
-0.00153294 0.00388109 -0.000143421
0.000129125 -0.000143421 -0.0026414
0.0120226 0.00245562 -0.000113275
0.00245562 0.00547665 8.54353e-05
-0.000113275 8.54353e-05 0.00307865
0.00351516 -0.000228701 -6.8769e-05
-0.000228701 0.00230771 8.71667e-05
-6.8769e-05 8.71667e-05 0.00138739
0.00796958 0.00262192 -1.88376e-05
0.00262192 0.00153409 -9.0919e-05
-1.88376e-05 -9.0919e-05 0.000163437
0.000230308 0.000128353 -4.49014e-05
0.000128353 0.000740619 1.12374e-05
-4.49014e-05 1.12374e-05 5.95535e-05
0.000562105 -3.82446e-05 -2.8947e-05
-3.82446e-05 0.000660853 1.48438e-06
-2.8947e-05 1.48438e-06 0.000653996
0.00366446 -0.000731953 0.000171146
-0.000731953 0.00137016 -1.44456e-05
0.000171146 -1.44456e-05 -0.00236599
-0.000715558 -0.000193868 1.84781e-05
-0.000193868 -0.000295648 2.72083e-05
1.84781e-05 2.72083e-05 -0.000558672
0.00228228 0.00385825 0.000265825
0.00385825 0.00287679 -0.000129606
0.000265825 -0.000129606 0.00272893
0.00780614 0.00167975 -0.000104313
0.00167975 0.00110152 0.00019518
-0.000104313 0.00019518 -0.000242626
-0.00305046 -0.000870438 8.56701e-05
-0.000870438 0.00146247 -9.50575e-05
8.56701e-05 -9.50575e-05 -0.00437262
0.000206446 -0.000269093 3.3385e-05
-0.000269093 0.000509648 -1.5224e-05
3.3385e-05 -1.5224e-05 -0.000127348
0.000356224 -0.00032739 0.000145174
-0.00032739 -0.000314961 -3.24303e-05
0.000145174 -3.24303e-05 -0.00227561
-0.00231874 -1.9202e-05 -0.000471545
-1.9202e-05 0.00364827 0.000106687
-0.000471545 0.000106687 0.0011083
0.00745577 0.00364513 -0.000345131
0.00364513 0.00149714 0.000398677
-0.000345131 0.000398677 0.000934297
0.00804066 -0.00161482 -5.10655e-05
-0.00161482 0.00358455 1.59732e-05
-5.10655e-05 1.59732e-05 -1.33935e-06
0.00282548 -0.000848132 -5.40573e-05
-0.000848132 0.00148986 3.72392e-05
-5.40573e-05 3.72392e-05 0.00102229
-0.00016513 -7.74052e-06 1.75311e-05
-7.74052e-06 8.11879e-05 1.13289e-05
1.75311e-05 1.13289e-05 -0.000142523
0.000387012 -0.000248632 2.55369e-06
-0.000248632 0.00038089 1.06545e-07
2.55369e-06 1.06545e-07 3.81024e-05
0.00125115 -0.000479499 1.56648e-05
-0.000479499 0.000556109 -1.52635e-06
1.56648e-05 -1.52635e-06 0.000417955
-0.000465687 -0.000184891 -3.15948e-06
-0.000184891 -0.000118036 7.46108e-06
-3.15948e-06 7.46108e-06 -0.000349459
-0.000720657 -0.000231602 8.44185e-07
-0.000231602 -0.000465683 -2.11806e-06
8.44185e-07 -2.11806e-06 -0.000663964
0.00267985 -0.000599576 3.96462e-05
-0.000599576 0.00105213 -3.02415e-06
3.96462e-05 -3.02415e-06 0.000796008
0.00502205 -0.000786484 -1.24685e-05
-0.000786484 0.00249561 5.14487e-06
-1.24685e-05 5.14487e-06 0.00218241
0.00254509 -0.000557936 7.37712e-06
-0.000557936 0.00107704 2.51907e-07
7.37712e-06 2.51907e-07 0.000644984
0.001571 -0.000539802 1.02534e-05
-0.000539802 0.000391345 -8.1632e-06
1.02534e-05 -8.1632e-06 -7.48789e-05
0.00148349 -0.000400835 -1.01425e-05
-0.000400835 0.000346499 1.4536e-06
-1.01425e-05 1.4536e-06 3.00504e-05
0.00218379 -0.000570561 1.74644e-06
-0.000570561 0.00068842 3.4525e-07
1.74644e-06 3.4525e-07 0.000267617
0.00222723 -0.000610549 3.52248e-06
-0.000610549 0.00066732 -7.76155e-06
3.52248e-06 -7.76155e-06 0.000240896
0.0019966 -0.00054546 -1.3243e-06
-0.00054546 0.00039984 -3.96179e-06
-1.3243e-06 -3.96179e-06 8.92661e-05
0.00187251 -0.000561268 -4.24741e-07
-0.000561268 0.000411868 1.90785e-06
-4.24741e-07 1.90785e-06 7.72742e-05
0.00182848 -0.00056422 -1.48388e-06
-0.00056422 0.000404859 -5.01277e-09
-1.48388e-06 -5.01277e-09 4.05926e-05
0.00168225 -0.000409778 6.40459e-06
-0.000409778 0.000465932 2.50127e-06
6.40459e-06 2.50127e-06 0.000195636
0.00131427 -0.000391505 5.88177e-07
-0.000391505 0.000229846 4.98324e-07
5.88177e-07 4.98324e-07 -5.46708e-05
0.00129813 -0.000411712 -2.55004e-07
-0.000411712 0.000193317 2.27405e-07
-2.55004e-07 2.27405e-07 -0.000123026
0.00136713 -0.000301487 3.81386e-06
-0.000301487 0.000398303 -6.53939e-08
3.81386e-06 -6.53939e-08 0.000157961
0.00132384 -0.000322322 -1.61678e-06
-0.000322322 0.000311469 -1.31221e-06
-1.61678e-06 -1.31221e-06 7.26411e-05
0.000999601 -0.000311089 1.00399e-05
-0.000311089 7.27687e-05 -6.14613e-06
1.00399e-05 -6.14613e-06 -0.000174469
0.000499178 -0.000131528 2.64393e-06
-0.000131528 3.00075e-05 4.51722e-07
2.64393e-06 4.51722e-07 -0.000182744
0.000569975 -0.000151678 -1.62683e-06
-0.000151678 3.58971e-05 1.86584e-06
-1.62683e-06 1.86584e-06 -0.000182989
0.0014505 -0.000319439 5.15604e-06
-0.000319439 0.000513272 -5.68113e-06
5.15604e-06 -5.68113e-06 0.000259296
0.000480257 -5.3226e-07 7.19439e-07
-5.3226e-07 -3.27987e-05 5.05429e-06
7.19439e-07 5.05429e-06 -0.000132071
0.000691787 -5.23802e-05 -7.07493e-07
-5.23802e-05 0.000135138 -1.11802e-08
-7.07493e-07 -1.11802e-08 -2.94441e-05
0.00144374 -0.000200013 9.35685e-07
-0.000200013 0.000614009 -7.76174e-07
9.35685e-07 -7.76174e-07 0.000403786
0.000489528 3.75788e-05 -2.2293e-06
3.75788e-05 -3.50442e-05 8.81922e-06
-2.2293e-06 8.81922e-06 -6.74421e-05
0.000631317 -3.58785e-06 -3.91571e-07
-3.58785e-06 5.50194e-05 -2.86888e-07
-3.91571e-07 -2.86888e-07 -3.04184e-05
0.00104564 -9.01457e-05 -1.34625e-08
-9.01457e-05 0.000326459 -1.62886e-06
-1.34625e-08 -1.62886e-06 0.000195085
0.000654123 -1.71849e-05 1.07459e-06
-1.71849e-05 6.75198e-05 -3.52617e-06
1.07459e-06 -3.52617e-06 -8.50643e-06
0.000517179 3.95687e-05 3.48812e-07
3.95687e-05 -2.32752e-05 1.39795e-08
3.48812e-07 1.39795e-08 -5.26864e-05
0.00259082 0.000111065 -2.97129e-05
0.000111065 0.00124944 3.94652e-06
-2.97129e-05 3.94652e-06 0.00125148
0.000548533 3.83043e-05 -1.95855e-07
3.83043e-05 -1.13848e-05 -5.61871e-06
-1.95855e-07 -5.61871e-06 -3.75946e-05
0.00252979 9.51472e-05 3.32558e-06
9.51472e-05 0.0012048 3.43582e-07
3.32558e-06 3.43582e-07 0.00121041
0.00249037 7.94824e-05 2.26294e-05
7.94824e-05 0.00117462 -4.49616e-06
2.26294e-05 -4.49616e-06 0.00118313
0.000710512 7.85239e-05 2.31992e-07
7.85239e-05 0.000153527 -6.51313e-07
2.31992e-07 -6.51313e-07 2.21054e-06
0.000765079 9.68336e-05 2.28152e-06
9.68336e-05 0.000176124 -1.33604e-06
2.28152e-06 -1.33604e-06 4.17173e-05
0.000609212 2.60762e-05 8.48247e-07
2.60762e-05 3.87494e-05 -2.96713e-06
8.48247e-07 -2.96713e-06 -3.47008e-05
0.000668749 8.78532e-05 5.7251e-08
8.78532e-05 0.000103015 -1.29272e-07
5.7251e-08 -1.29272e-07 -1.1293e-05
0.000516086 -1.12462e-05 -3.51419e-07
-1.12462e-05 -3.91835e-05 -5.40872e-06
-3.51419e-07 -5.40872e-06 -5.94143e-05
0.000587054 3.60089e-05 1.50102e-07
3.60089e-05 2.59058e-05 -1.07215e-07
1.50102e-07 -1.07215e-07 -4.07719e-05
0.000601578 4.6091e-05 -2.81124e-06
4.6091e-05 5.71505e-05 1.82521e-08
-2.81124e-06 1.82521e-08 -4.85906e-05
0.00231522 -5.24491e-05 -2.28801e-05
-5.24491e-05 0.00105926 -4.65985e-06
-2.28801e-05 -4.65985e-06 0.00107328
0.000524493 -1.36432e-05 -4.77056e-07
-1.36432e-05 -3.63146e-05 -7.69496e-08
-4.77056e-07 -7.69496e-08 -5.22865e-05
0.000516615 4.03887e-05 -2.11536e-06
4.03887e-05 -1.41692e-05 7.32575e-07
-2.11536e-06 7.32575e-07 -7.54764e-05
0.00219987 -3.64045e-05 -4.36866e-06
-3.64045e-05 0.000986623 1.85227e-07
-4.36866e-06 1.85227e-07 0.001003
0.000524186 -9.3433e-06 -1.32329e-06
-9.3433e-06 -3.81816e-05 3.69206e-06
-1.32329e-06 3.69206e-06 -5.02239e-05
0.00210731 -2.08077e-05 1.25688e-05
-2.08077e-05 0.000928953 4.65737e-06
1.25688e-05 4.65737e-06 0.000946895
-0.000666761 -3.28056e-05 -6.185e-06
-3.28056e-05 -0.000120467 7.80662e-07
-6.185e-06 7.80662e-07 2.57293e-05
0.00126079 -0.000114115 -1.77445e-05
-0.000114115 -0.00041651 2.77109e-05
-1.77445e-05 2.77109e-05 -0.000111128
0.000459684 -0.00012316 1.06973e-05
-0.00012316 0.000664122 -2.11215e-05
1.06973e-05 -2.11215e-05 0.00056318
0.000750333 7.76653e-05 -1.626e-07
7.76653e-05 0.000154571 1.07847e-07
-1.626e-07 1.07847e-07 1.54353e-05
0.000613567 6.46274e-05 2.16638e-06
6.46274e-05 3.23961e-05 -6.99275e-07
2.16638e-06 -6.99275e-07 -9.7563e-05
-0.000586599 2.26651e-05 -4.55367e-06
2.26651e-05 -0.000676978 -5.1551e-06
-4.55367e-06 -5.1551e-06 -0.000785839
0.000264824 2.29613e-05 1.91435e-06
2.29613e-05 -0.000153437 5.0121e-06
1.91435e-06 5.0121e-06 -0.000280101
0.0019365 0.000239192 -9.04869e-07
0.000239192 0.000877128 5.71409e-07
-9.04869e-07 5.71409e-07 0.000697039
0.000686356 3.69881e-05 -2.91522e-06
3.69881e-05 8.01723e-05 -2.15243e-07
-2.91522e-06 -2.15243e-07 -3.21681e-05
0.000623299 6.86924e-05 -3.30861e-06
6.86924e-05 6.06792e-05 -3.97728e-06
-3.30861e-06 -3.97728e-06 -5.96711e-05
0.000753316 7.1175e-05 -3.58159e-08
7.1175e-05 0.000140411 -2.40938e-07
-3.58159e-08 -2.40938e-07 1.70152e-05
0.000946634 0.000120961 -9.68136e-09
0.000120961 0.00027398 -5.40744e-07
-9.68136e-09 -5.40744e-07 0.000141758
0.000889504 9.19111e-05 3.8744e-06
9.19111e-05 0.00028965 -2.49128e-06
3.8744e-06 -2.49128e-06 0.000131002
0.00387451 0.000424321 0.000235104
0.000424321 0.00262001 0.000312439
0.000235104 0.000312439 -0.00122885
0.000849193 0.000219598 1.19558e-05
0.000219598 -6.76809e-05 7.64072e-05
1.19558e-05 7.64072e-05 -0.00156019
0.00288782 -5.09026e-05 -8.76222e-06
-5.09026e-05 0.000248538 -1.21629e-05
-8.76222e-06 -1.21629e-05 -8.62595e-05
0.0116882 -0.0014728 -0.000135959
-0.0014728 0.00159705 -0.000126012
-0.000135959 -0.000126012 0.00318288
-0.00802379 0.00128173 1.02438e-05
0.00128173 -0.00295855 0.000322324
1.02438e-05 0.000322324 -0.00608002
0.00427534 -0.00152558 -0.000104234
-0.00152558 0.00143427 2.0212e-05
-0.000104234 2.0212e-05 0.00130071
0.0108832 -0.00134983 -9.17164e-05
-0.00134983 0.00507511 -6.37918e-07
-9.17164e-05 -6.37918e-07 0.00115125
0.00156181 -0.000380927 -2.97628e-05
-0.000380927 0.000373303 7.88046e-05
-2.97628e-05 7.88046e-05 0.000261995
0.0108547 -0.00021286 -4.94332e-05
-0.00021286 0.00596278 -9.949e-06
-4.94332e-05 -9.949e-06 0.000824829
0.00328468 -0.00180966 7.18508e-05
-0.00180966 0.00149841 0.000103582
7.18508e-05 0.000103582 -0.00122887
0.00846959 -0.00237872 -0.000163565
-0.00237872 -0.000148843 -0.000443657
-0.000163565 -0.000443657 -5.90955e-05
0.00288918 0.000133471 -0.000111312
0.000133471 0.00141277 6.6487e-05
-0.000111312 6.6487e-05 0.00081209
0.0110561 0.00157588 -8.97184e-05
0.00157588 0.00527356 2.14246e-05
-8.97184e-05 2.14246e-05 0.00125556
0.0127644 -0.00333921 -0.000137727
-0.00333921 0.00505679 -0.000396991
-0.000137727 -0.000396991 0.00375451
0.0119338 -0.0040978 8.82847e-05
-0.0040978 0.00345109 -1.76045e-05
8.82847e-05 -1.76045e-05 0.00364847
0.000183987 8.91036e-05 8.23919e-06
8.91036e-05 -4.95908e-05 9.16318e-07
8.23919e-06 9.16318e-07 -0.000210834
0.000694749 3.26005e-05 1.32947e-06
3.26005e-05 0.000200235 2.11184e-06
1.32947e-06 2.11184e-06 3.86059e-05
0.000725579 0.000116806 -4.42444e-06
0.000116806 0.000159875 -6.55437e-06
-4.42444e-06 -6.55437e-06 1.36686e-05
0.00225043 -0.000281685 -3.64834e-05
-0.000281685 0.00129028 3.20902e-05
-3.64834e-05 3.20902e-05 0.000407247
0.00076906 -4.20524e-05 -3.03213e-05
-4.20524e-05 0.00074272 -2.52364e-05
-3.03213e-05 -2.52364e-05 0.00049718
0.000453111 4.46973e-06 -7.03687e-06
4.46973e-06 9.71435e-06 -8.71107e-07
-7.03687e-06 -8.71107e-07 -0.000100416
-0.00058973 6.3905e-05 -5.85113e-06
6.3905e-05 -0.000158879 -3.69747e-06
-5.85113e-06 -3.69747e-06 -0.000533885
0.000226193 0.000100003 9.53811e-07
0.000100003 0.000134525 -1.33535e-06
9.53811e-07 -1.33535e-06 -8.71902e-05
0.00055582 0.00019165 5.64155e-06
0.00019165 0.000507332 1.98853e-06
5.64155e-06 1.98853e-06 0.000124023
-0.00105016 -7.31254e-05 0.000154234
-7.31254e-05 0.000648956 -2.86737e-05
0.000154234 -2.86737e-05 -0.000771314
-0.00190683 9.37105e-05 -1.35117e-05
9.37105e-05 -0.000979574 1.26171e-05
-1.35117e-05 1.26171e-05 -0.00125729
0.00258842 0.000466725 -9.10433e-05
0.000466725 0.00176329 -5.71295e-05
-9.10433e-05 -5.71295e-05 0.000780587
0.00177353 0.000115659 0.000109255
0.000115659 0.001438 3.0666e-05
0.000109255 3.0666e-05 -0.00131267
-0.00063857 3.57045e-05 1.85273e-06
3.57045e-05 0.0005862 1.68824e-05
1.85273e-06 1.68824e-05 2.4733e-05
0.00169963 -9.794e-05 -1.88177e-06
-9.794e-05 0.000135995 7.16024e-07
-1.88177e-06 7.16024e-07 0.000424305
-0.00144064 0.000361837 0.000116088
0.000361837 -0.000217 9.044e-06
0.000116088 9.044e-06 -0.00100227
0.00226964 0.000198517 -4.53432e-05
0.000198517 0.00144722 3.6254e-05
-4.53432e-05 3.6254e-05 0.000460328
0.000473144 -9.60461e-05 -1.36711e-05
-9.60461e-05 0.000647696 1.10517e-05
-1.36711e-05 1.10517e-05 0.000555415
0.0159876 -0.00239636 0.00014446
-0.00239636 0.00724097 -5.42844e-05
0.00014446 -5.42844e-05 0.00255784
0.0142714 0.00255227 -6.85289e-05
0.00255227 0.00566721 -6.73761e-05
-6.85289e-05 -6.73761e-05 0.00376938
0.00436104 -0.000790161 -0.000104935
-0.000790161 0.00183859 0.000153341
-0.000104935 0.000153341 -0.00197917
-0.00472242 0.00442876 0.00119013
0.00442876 -0.00135664 -0.00088568
0.00119013 -0.00088568 -0.00119428
0.000674433 -0.00026666 1.81495e-05
-0.00026666 0.000825287 -5.41836e-06
1.81495e-05 -5.41836e-06 0.00011134
0.000365276 -0.000237579 1.28057e-05
-0.000237579 1.0742e-05 1.50088e-05
1.28057e-05 1.50088e-05 -0.0022902
-0.00274196 0.000187381 -0.000621348
0.000187381 0.00360545 0.000240109
-0.000621348 0.000240109 0.00103114
0.000916351 -0.000479657 -1.54e-05
-0.000479657 0.000527551 3.53536e-05
-1.54e-05 3.53536e-05 0.000117512
0.015029 0.00338235 0.000173586
0.00338235 0.00434208 8.49363e-05
0.000173586 8.49363e-05 0.00386344
0.00781197 -0.00236036 0.000116276
-0.00236036 0.00309686 -6.27378e-05
0.000116276 -6.27378e-05 -0.000193027
0.00218324 -0.000732429 -5.90671e-06
-0.000732429 0.00108462 2.71213e-05
-5.90671e-06 2.71213e-05 0.000778412
-0.0055708 -0.000822051 6.51233e-05
-0.000822051 0.00290605 -3.76938e-05
6.51233e-05 -3.76938e-05 5.00933e-05
0.0124687 0.00307328 -0.000737062
0.00307328 0.00525028 0.00033188
-0.000737062 0.00033188 0.00436269
0.00301146 -0.00158647 -0.000266872
-0.00158647 -0.000515875 0.000158499
-0.000266872 0.000158499 -0.00402433
0.00236355 -0.00124405 0.000134536
-0.00124405 0.000524183 -7.16367e-05
0.000134536 -7.16367e-05 0.00087138
-0.000201599 -0.000237249 -5.72339e-05
-0.000237249 4.465e-05 1.83502e-05
-5.72339e-05 1.83502e-05 -0.00027956
0.000691138 -0.0004114 -8.10861e-06
-0.0004114 0.000319725 1.13906e-05
-8.10861e-06 1.13906e-05 0.000109958
0.00318137 -0.000638873 2.46763e-05
-0.000638873 0.00141383 3.2633e-06
2.46763e-05 3.2633e-06 0.00118605
-0.00267949 -7.63899e-05 -3.85828e-07
-7.63899e-05 -0.00144779 1.08961e-05
-3.85828e-07 1.08961e-05 -0.00165341
0.000916609 -0.000403529 6.3366e-06
-0.000403529 0.000149545 1.17997e-06
6.3366e-06 1.17997e-06 -0.000102311
0.00216017 -0.000635286 7.56792e-06
-0.000635286 0.000510797 -1.79079e-06
7.56792e-06 -1.79079e-06 0.000229055
0.00308012 -0.000616464 -2.0452e-05
-0.000616464 0.00129599 7.11463e-06
-2.0452e-05 7.11463e-06 0.000884677
0.00137032 -0.000503125 -1.80412e-06
-0.000503125 0.000261624 -3.23062e-06
-1.80412e-06 -3.23062e-06 -0.000181552
0.00173389 -0.000632945 5.92352e-06
-0.000632945 0.000239815 -9.15342e-06
5.92352e-06 -9.15342e-06 -0.000117117
0.0025971 -0.000622747 -4.55686e-06
-0.000622747 0.000890671 1.49723e-06
-4.55686e-06 1.49723e-06 0.000461774
0.00180331 -0.000572629 2.12814e-07
-0.000572629 0.000410904 -4.59841e-06
2.12814e-07 -4.59841e-06 2.28012e-06
0.00227699 -0.000573959 2.43827e-06
-0.000573959 0.000499325 -7.90135e-06
2.43827e-06 -7.90135e-06 0.000198092
0.00167699 -0.000417541 -4.27439e-06
-0.000417541 7.99446e-05 -3.43952e-06
-4.27439e-06 -3.43952e-06 -0.000143662
0.0016782 -0.000530753 1.62485e-06
-0.000530753 0.000186719 -8.59725e-07
1.62485e-06 -8.59725e-07 -0.000116759
0.00187004 -0.00053281 2.18619e-06
-0.00053281 0.00032789 -2.79784e-06
2.18619e-06 -2.79784e-06 2.16523e-05
0.00181587 -0.0004857 9.18837e-07
-0.0004857 0.00044508 5.48157e-07
9.18837e-07 5.48157e-07 0.000141918
0.0018713 -0.000561411 -2.05551e-06
-0.000561411 0.000427895 1.62046e-07
-2.05551e-06 1.62046e-07 8.84839e-05
0.00196832 -0.000583983 1.46393e-07
-0.000583983 0.000480041 -3.3317e-06
1.46393e-07 -3.3317e-06 0.000107737
0.00166811 -0.000358422 4.37291e-06
-0.000358422 0.000491992 7.83145e-08
4.37291e-06 7.83145e-08 0.000241806
0.00111002 -0.000348571 1.55687e-06
-0.000348571 0.000134836 1.88003e-07
1.55687e-06 1.88003e-07 -0.000120164
0.00126443 -0.000380063 2.52907e-06
-0.000380063 0.000198307 -4.43447e-07
2.52907e-06 -4.43447e-07 -7.60882e-05
0.000790333 -0.000239519 -6.11161e-07
-0.000239519 0.000125797 3.77748e-07
-6.11161e-07 3.77748e-07 -9.87114e-05
0.000945333 -0.000257092 -1.05845e-06
-0.000257092 0.000145845 -3.48767e-07
-1.05845e-06 -3.48767e-07 -8.47529e-05
0.000493765 -0.000240259 -3.43362e-06
-0.000240259 -0.000194249 -8.64552e-07
-3.43362e-06 -8.64552e-07 -0.000419355
2.42651e-05 -2.49851e-05 -8.62615e-07
-2.49851e-05 -0.000301214 5.17954e-06
-8.62615e-07 5.17954e-06 -0.000433689
0.000760864 -0.000146252 1.74144e-06
-0.000146252 0.000190914 2.23518e-07
1.74144e-06 2.23518e-07 -2.72315e-05
0.00135606 -0.000209312 -1.84872e-06
-0.000209312 0.000528257 6.69008e-07
-1.84872e-06 6.69008e-07 0.000295883
0.00155207 7.45822e-05 -2.3281e-05
7.45822e-05 0.000624189 5.9844e-06
-2.3281e-05 5.9844e-06 0.000586308
0.000684798 -3.58847e-05 6.32277e-07
-3.58847e-05 8.52873e-05 -5.28255e-07
6.32277e-07 -5.28255e-07 -1.64491e-05
0.00130564 -9.24546e-05 -2.41376e-06
-9.24546e-05 0.000513613 -2.16271e-06
-2.41376e-06 -2.16271e-06 0.00033713
0.00076766 4.98184e-05 -3.3792e-05
4.98184e-05 0.000140396 4.39733e-06
-3.3792e-05 4.39733e-06 0.00013576
0.00100034 5.34956e-05 -1.0668e-05
5.34956e-05 0.000279106 -3.73362e-07
-1.0668e-05 -3.73362e-07 0.000246815
0.000612452 -1.0021e-05 5.14326e-07
-1.0021e-05 3.98127e-05 -4.48375e-06
5.14326e-07 -4.48375e-06 -4.49036e-05
0.000526535 4.15503e-05 5.46796e-07
4.15503e-05 -1.698e-05 -6.4794e-06
5.46796e-07 -6.4794e-06 -4.69251e-05
0.00260789 0.000112459 5.43268e-06
0.000112459 0.00126054 5.04254e-07
5.43268e-06 5.04254e-07 0.00126236
0.00251594 9.68781e-05 2.47683e-05
9.68781e-05 0.00119721 -4.31419e-06
2.47683e-05 -4.31419e-06 0.00120247
0.000973489 9.96353e-05 2.64909e-06
9.96353e-05 0.000295294 3.79796e-06
2.64909e-06 3.79796e-06 0.000153809
0.000866071 0.000100631 1.97743e-06
0.000100631 0.00024308 -2.34425e-06
1.97743e-06 -2.34425e-06 9.84714e-05
0.000530727 5.89751e-05 -8.44303e-07
5.89751e-05 1.90896e-05 1.05246e-06
-8.44303e-07 1.05246e-06 -0.000114388
0.000633094 1.6017e-05 8.40044e-07
1.6017e-05 5.27964e-05 -3.63071e-06
8.40044e-07 -3.63071e-06 -2.80378e-05
0.000725298 7.75067e-05 5.82437e-07
7.75067e-05 0.0001402 9.93124e-09
5.82437e-07 9.93124e-09 1.69386e-05
0.000515346 -1.09215e-05 -1.01694e-06
-1.09215e-05 -3.51182e-05 -6.12605e-06
-1.01694e-06 -6.12605e-06 -5.98401e-05
0.000578045 2.77008e-05 -4.07861e-08
2.77008e-05 2.1097e-05 -2.02564e-07
-4.07861e-08 -2.02564e-07 -5.2857e-05
0.000711085 6.89156e-05 -1.53795e-06
6.89156e-05 0.000146365 1.41621e-06
-1.53795e-06 1.41621e-06 1.8394e-05
0.00247789 -6.86193e-05 -2.98851e-05
-6.86193e-05 0.00116225 -4.53545e-06
-2.98851e-05 -4.53545e-06 0.00117345
0.000506105 -1.37704e-05 -6.84744e-07
-1.37704e-05 -4.50848e-05 -7.20479e-08
-6.84744e-07 -7.20479e-08 -6.51384e-05
0.00058157 3.97733e-05 2.24825e-08
3.97733e-05 2.34364e-05 2.67586e-06
2.24825e-08 2.67586e-06 -4.33066e-05
0.0023274 -5.20386e-05 -4.93734e-06
-5.20386e-05 0.00106654 2.79488e-07
-4.93734e-06 2.79488e-07 0.00108065
0.000506212 -1.57357e-05 -1.88696e-06
-1.57357e-05 -4.70157e-05 4.40022e-06
-1.88696e-06 4.40022e-06 -6.28938e-05
0.00220268 -3.50636e-05 1.77795e-05
-3.50636e-05 0.000988126 4.55781e-06
1.77795e-05 4.55781e-06 0.00100467
0.00570355 0.000233262 0.000168038
0.000233262 0.0025614 2.72646e-05
0.000168038 2.72646e-05 0.00113894
-0.00059661 -4.47624e-05 -4.98824e-07
-4.47624e-05 -0.00013379 -1.94018e-06
-4.98824e-07 -1.94018e-06 -6.01909e-05
0.00112 -5.81591e-05 -2.28614e-05
-5.81591e-05 -0.000436355 1.97428e-06
-2.28614e-05 1.97428e-06 -6.82867e-05
0.000120974 9.86926e-05 -6.85989e-06
9.86926e-05 -0.000239907 -1.78125e-06
-6.85989e-06 -1.78125e-06 -0.000363898
0.000761413 7.21556e-05 -2.74848e-06
7.21556e-05 0.000155606 -6.42034e-07
-2.74848e-06 -6.42034e-07 2.47411e-05
0.000418208 5.44279e-05 3.06799e-07
5.44279e-05 -8.8755e-05 -1.98053e-06
3.06799e-07 -1.98053e-06 -0.00021208
0.000890836 5.17369e-05 4.45299e-07
5.17369e-05 0.000211144 -3.95047e-07
4.45299e-07 -3.95047e-07 8.21733e-05
0.000499183 8.44059e-05 -1.17977e-06
8.44059e-05 -3.49896e-05 2.49951e-07
-1.17977e-06 2.49951e-07 -0.000151321
0.00150105 0.000192682 7.78038e-07
0.000192682 0.000610886 -2.1562e-06
7.78038e-07 -2.1562e-06 0.000454319
0.000937072 0.000150052 -1.71876e-06
0.000150052 0.000242141 -9.08999e-06
-1.71876e-06 -9.08999e-06 4.91696e-05
-0.000144854 3.55337e-05 1.72114e-06
3.55337e-05 -0.000307495 4.68662e-06
1.72114e-06 4.68662e-06 -0.00048428
0.000760328 0.000123873 -2.20282e-06
0.000123873 0.000160999 -7.26182e-08
-2.20282e-06 -7.26182e-08 2.6729e-05
0.00038293 3.65259e-05 -3.70002e-06
3.65259e-05 -9.63657e-05 -3.00148e-06
-3.70002e-06 -3.00148e-06 -0.000201003
0.000420804 5.93565e-05 7.41294e-08
5.93565e-05 1.56388e-06 9.21293e-07
7.41294e-08 9.21293e-07 -0.000149347
0.00131052 0.000200311 1.17432e-05
0.000200311 0.000611299 7.31351e-06
1.17432e-05 7.31351e-06 0.000414322
0.00115953 -0.00136392 0.000150026
-0.00136392 0.00343149 0.000225756
0.000150026 0.000225756 0.000131515
0.00438251 0.000544776 4.15035e-05
0.000544776 0.00240817 0.000117836
4.15035e-05 0.000117836 -0.0016256
0.00127216 0.000181477 -2.53492e-05
0.000181477 0.000221343 -5.75467e-05
-2.53492e-05 -5.75467e-05 -0.00147009
0.0139256 -0.00295552 -0.00038292
-0.00295552 0.00275897 -0.000250055
-0.00038292 -0.000250055 0.00282321
0.00619061 -0.00106687 0.000128669
-0.00106687 0.00215372 0.000329714
0.000128669 0.000329714 0.000128275
0.00185305 -0.00102369 -0.000126202
-0.00102369 0.00294629 8.70786e-05
-0.000126202 8.70786e-05 -0.00254856
0.00101515 -0.000453563 3.37053e-05
-0.000453563 0.000716154 3.63312e-05
3.37053e-05 3.63312e-05 0.000121368
0.00171419 -9.17283e-05 1.84944e-05
-9.17283e-05 0.00089514 4.97383e-05
1.84944e-05 4.97383e-05 0.000556588
0.0041127 -0.0042176 0.000215494
-0.0042176 0.00109284 0.000213664
0.000215494 0.000213664 0.00130295
0.00373702 0.00114831 -3.95251e-05
0.00114831 0.00376178 -4.48597e-05
-3.95251e-05 -4.48597e-05 -0.00138292
0.00460824 -0.00202593 -6.53406e-05
-0.00202593 0.000426037 6.89216e-05
-6.53406e-05 6.89216e-05 -0.0012785
0.000505911 0.00040534 -1.96978e-05
0.00040534 0.000407518 6.15899e-05
-1.96978e-05 6.15899e-05 0.000270864
0.00917226 0.00181486 -6.6859e-05
0.00181486 0.00390364 -1.59087e-05
-6.6859e-05 -1.59087e-05 0.00049839
0.0074389 -0.00348412 -0.000427322
-0.00348412 0.00132144 -0.0003148
-0.000427322 -0.0003148 0.00064019
0.000726079 0.000382947 6.4821e-06
0.000382947 0.000111124 -5.91921e-06
6.4821e-06 -5.91921e-06 -5.48364e-05
0.000587685 0.000105184 3.3554e-06
0.000105184 0.000182731 4.83869e-07
3.3554e-06 4.83869e-07 2.61041e-05
0.000328694 4.96992e-05 -5.60328e-06
4.96992e-05 -1.34446e-05 -3.07895e-06
-5.60328e-06 -3.07895e-06 -0.000179698
-0.00110507 -0.000188137 -0.000117377
-0.000188137 0.000773775 -4.03656e-05
-0.000117377 -4.03656e-05 -0.000608237
-0.000911032 0.000170428 1.88484e-06
0.000170428 -0.000355567 -1.73317e-05
1.88484e-06 -1.73317e-05 -0.000738531
0.00013861 8.72679e-05 -9.21604e-06
8.72679e-05 7.3128e-05 7.68413e-08
-9.21604e-06 7.68413e-08 -0.000159578
0.000688192 0.00039828 1.38487e-05
0.00039828 0.000365257 3.16759e-06
1.38487e-05 3.16759e-06 5.95889e-05
0.000250925 0.000304955 2.47609e-05
0.000304955 0.000550895 -3.13053e-05
2.47609e-05 -3.13053e-05 -0.000303271
0.000264272 0.000725757 4.01992e-05
0.000725757 -0.000270046 3.9745e-06
4.01992e-05 3.9745e-06 -0.000758528
-0.00322066 0.000581758 0.000203306
0.000581758 0.0040693 8.97944e-06
0.000203306 8.97944e-06 -2.50744e-05
0.0022394 -1.3905e-05 -4.10194e-06
-1.3905e-05 0.00160519 3.82747e-05
-4.10194e-06 3.82747e-05 -0.000455485
-0.000946657 -2.65068e-05 -4.52213e-06
-2.65068e-05 0.00023824 2.42595e-05
-4.52213e-06 2.42595e-05 -0.000125607
-4.81473e-05 -0.000175643 -6.00175e-05
-0.000175643 0.000559315 9.43941e-06
-6.00175e-05 9.43941e-06 -0.000162681
-0.000952559 -0.000162783 -6.9195e-05
-0.000162783 -0.000885466 2.98588e-05
-6.9195e-05 2.98588e-05 -0.000596482
0.000577599 -0.000179145 -0.000117292
-0.000179145 0.000150355 5.62169e-05
-0.000117292 5.62169e-05 -0.0022119
-0.00224136 -0.00199684 0.00011358
-0.00199684 0.0005892 -0.000108752
0.00011358 -0.000108752 -0.00402809
0.0019369 0.00288282 0.000335533
0.00288282 -0.00250278 -0.000267967
0.000335533 -0.000267967 -0.00287004
0.00454274 0.00136359 -0.000295609
0.00136359 0.00482161 0.000193739
-0.000295609 0.000193739 0.00277728
0.00135876 -0.000402741 -3.65714e-06
-0.000402741 0.000803491 -3.33285e-06
-3.65714e-06 -3.33285e-06 0.000529267
0.00135017 0.000262168 5.41388e-05
0.000262168 0.0047296 -2.42133e-08
5.41388e-05 -2.42133e-08 0.0025795
-0.00236442 0.00197183 1.74937e-05
0.00197183 -0.000256389 3.01311e-05
1.74937e-05 3.01311e-05 -0.00244367
0.00304918 -0.00146481 6.8008e-05
-0.00146481 0.00104325 -2.32816e-05
6.8008e-05 -2.32816e-05 0.00075304
0.0140282 -0.00160893 2.36522e-05
-0.00160893 0.00389325 -1.40511e-05
2.36522e-05 -1.40511e-05 0.00199723
0.00267155 -0.000929051 -2.46911e-05
-0.000929051 0.000825108 2.60637e-05
-2.46911e-05 2.60637e-05 0.000762494
-0.00904325 0.000700063 -0.000299907
0.000700063 -0.00377153 2.12452e-05
-0.000299907 2.12452e-05 -0.00521401
0.0142512 -0.00102668 -0.000150771
-0.00102668 0.00303295 4.70826e-05
-0.000150771 4.70826e-05 0.00145958
0.00320298 -0.00167415 4.5939e-05
-0.00167415 -0.000261224 -4.02633e-05
4.5939e-05 -4.02633e-05 -0.000464804
-0.000168591 -0.000293019 -1.55715e-05
-0.000293019 -6.68664e-05 1.52152e-05
-1.55715e-05 1.52152e-05 -0.000347919
0.00137439 -0.000518046 -2.17672e-06
-0.000518046 0.000336037 6.27797e-07
-2.17672e-06 6.27797e-07 0.000222599
0.00380498 -0.000660398 1.51402e-05
-0.000660398 0.0014138 -3.7859e-06
1.51402e-05 -3.7859e-06 0.00120048
-0.000703003 -0.000228056 -9.75284e-06
-0.000228056 -0.000667598 4.78501e-06
-9.75284e-06 4.78501e-06 -0.000923577
0.00135272 -0.000552506 -7.06217e-06
-0.000552506 0.000119047 -3.48554e-06
-7.06217e-06 -3.48554e-06 -0.000179295
0.00269506 -0.000736475 4.96446e-06
-0.000736475 0.000611962 -5.71335e-06
4.96446e-06 -5.71335e-06 0.000328432
0.00109384 -0.000460729 -1.77168e-05
-0.000460729 9.39018e-05 1.21766e-06
-1.77168e-05 1.21766e-06 -0.00032843
0.00162965 -0.000608028 -4.48632e-07
-0.000608028 0.000197528 -2.08192e-07
-4.48632e-07 -2.08192e-07 -0.00016223
0.00149912 -0.000518217 3.59521e-06
-0.000518217 -8.66279e-05 -6.02096e-06
3.59521e-06 -6.02096e-06 -0.000314616
0.00126837 -0.000524975 -7.45894e-06
-0.000524975 9.2199e-05 4.12999e-07
-7.45894e-06 4.12999e-07 -0.000299445
0.00170596 -0.000514519 -3.84391e-07
-0.000514519 0.000187535 9.43756e-07
-3.84391e-07 9.43756e-07 -0.000102301
0.00182066 -0.000414936 -8.76017e-07
-0.000414936 0.000101616 -5.38572e-06
-8.76017e-07 -5.38572e-06 -7.84146e-05
0.00168957 -0.000329679 -4.71058e-06
-0.000329679 5.35884e-05 -2.43245e-06
-4.71058e-06 -2.43245e-06 -9.86349e-05
0.00155954 -0.000411189 -4.35889e-06
-0.000411189 3.02239e-05 -2.16608e-06
-4.35889e-06 -2.16608e-06 -0.000198817
0.00166512 -0.000407958 1.31114e-06
-0.000407958 8.15797e-05 2.01808e-06
1.31114e-06 2.01808e-06 -0.000136436
0.00149735 -0.000457111 -2.69195e-06
-0.000457111 0.000131867 -1.73733e-06
-2.69195e-06 -1.73733e-06 -0.000148167
0.00181116 -0.000535164 1.85693e-06
-0.000535164 0.000275967 -4.64285e-07
1.85693e-06 -4.64285e-07 -2.47154e-05
0.00181769 -0.00052622 1.34967e-06
-0.00052622 0.00029818 4.91449e-07
1.34967e-06 4.91449e-07 -4.41128e-06
0.00151869 -0.000393934 -1.54499e-06
-0.000393934 0.000319079 1.61656e-06
-1.54499e-06 1.61656e-06 4.81665e-05
0.0016125 -0.000468471 8.78818e-07
-0.000468471 0.000325788 -3.20528e-07
8.78818e-07 -3.20528e-07 2.55247e-05
0.00183949 -0.00055761 -3.91922e-06
-0.00055761 0.000425861 -1.13975e-06
-3.91922e-06 -1.13975e-06 8.19512e-05
0.00092263 -0.000244697 -2.2782e-06
-0.000244697 8.47389e-05 1.83935e-06
-2.2782e-06 1.83935e-06 -0.000129659
0.00120936 -0.000315061 1.40412e-06
-0.000315061 0.000209076 -3.76021e-08
1.40412e-06 -3.76021e-08 -3.36137e-05
0.000493127 -0.000282161 -6.45184e-07
-0.000282161 -0.000221584 -2.3644e-06
-6.45184e-07 -2.3644e-06 -0.000460762
0.000491235 -0.000135651 -2.41673e-06
-0.000135651 -2.76865e-05 3.43213e-06
-2.41673e-06 3.43213e-06 -0.000204154
0.00107757 -0.000251853 -1.75618e-07
-0.000251853 0.000288427 -1.17295e-08
-1.75618e-07 -1.17295e-08 6.46279e-05
0.000236973 -0.000188184 -3.75514e-06
-0.000188184 -0.000278125 6.01729e-07
-3.75514e-06 6.01729e-07 -0.000494314
0.000370546 1.51126e-05 -2.98799e-06
1.51126e-05 -9.33199e-05 1.00546e-05
-2.98799e-06 1.00546e-05 -0.000146746
0.000745688 -8.93418e-05 -2.15398e-07
-8.93418e-05 0.000139223 2.60214e-08
-2.15398e-07 2.60214e-08 -8.3705e-06
0.00121084 -0.000164735 9.34752e-07
-0.000164735 0.000464081 -1.61323e-06
9.34752e-07 -1.61323e-06 0.00024056
0.00292858 0.000167474 -4.15768e-06
0.000167474 0.00147778 2.78549e-06
-4.15768e-06 2.78549e-06 0.00146301
0.000484249 2.9398e-05 -1.62571e-07
2.9398e-05 -3.26933e-05 -5.88387e-08
-1.62571e-07 -5.88387e-08 -7.45784e-05
0.000831564 -6.22765e-05 2.67816e-06
-6.22765e-05 0.0001736 -5.59314e-06
2.67816e-06 -5.59314e-06 6.61665e-05
0.00274034 0.000127753 5.08585e-06
0.000127753 0.00134871 3.98563e-07
5.08585e-06 3.98563e-07 0.00134706
0.000554959 3.50135e-05 1.15215e-06
3.50135e-05 6.26673e-06 -7.42419e-06
1.15215e-06 -7.42419e-06 -2.80991e-05
0.0026574 0.000113971 3.31901e-05
0.000113971 0.0012913 -3.66058e-06
3.31901e-05 -3.66058e-06 0.0012929
0.000985071 0.000158686 3.64908e-06
0.000158686 0.000279253 4.7958e-06
3.64908e-06 4.7958e-06 0.000123263
0.000743601 9.50584e-05 4.31088e-07
9.50584e-05 0.00016051 4.48336e-07
4.31088e-07 4.48336e-07 1.53103e-05
0.000918502 8.17915e-05 1.15083e-06
8.17915e-05 0.000283153 -2.86976e-06
1.15083e-06 -2.86976e-06 0.000121828
0.000644136 1.81471e-05 2.9529e-07
1.81471e-05 6.67354e-05 -5.0031e-06
2.9529e-07 -5.0031e-06 -2.4171e-05
0.000681719 6.02789e-05 1.78343e-07
6.02789e-05 0.000119634 2.83792e-07
1.78343e-07 2.83792e-07 -1.55881e-05
0.000528587 7.80857e-05 -1.90168e-07
7.80857e-05 2.53218e-05 1.60411e-06
-1.90168e-07 1.60411e-06 -0.000114851
0.000527188 -7.46729e-06 -2.02318e-06
-7.46729e-06 -2.45191e-05 -7.02077e-06
-2.02318e-06 -7.02077e-06 -5.36722e-05
0.000605085 2.31912e-05 -3.21049e-08
2.31912e-05 4.02426e-05 -1.75141e-07
-3.21049e-08 -1.75141e-07 -4.20098e-05
0.000640018 7.11022e-05 -1.12398e-06
7.11022e-05 8.38005e-05 1.2865e-06
-1.12398e-06 1.2865e-06 -3.29706e-05
0.00261895 -8.40091e-05 -3.82741e-05
-8.40091e-05 0.00125349 -4.24551e-06
-3.82741e-05 -4.24551e-06 0.0012618
0.000484382 -1.68324e-05 1.30037e-06
-1.68324e-05 -5.37975e-05 -1.15304e-07
1.30037e-06 -1.15304e-07 -7.84583e-05
0.00058526 3.16672e-05 -5.35056e-07
3.16672e-05 2.62729e-05 3.04104e-06
-5.35056e-07 3.04104e-06 -4.81101e-05
0.00245388 -6.79305e-05 -5.3331e-06
-6.79305e-05 0.0011472 3.53998e-07
-5.3331e-06 3.53998e-07 0.00115858
0.000497604 -1.77307e-05 -1.49184e-06
-1.77307e-05 -4.99279e-05 5.21773e-06
-1.49184e-06 5.21773e-06 -6.99387e-05
0.00230544 -5.08966e-05 2.16203e-05
-5.08966e-05 0.00105295 4.49847e-06
2.16203e-05 4.49847e-06 0.00106732
-0.00784207 0.000559407 -3.68905e-05
0.000559407 0.00211914 6.4349e-05
-3.68905e-05 6.4349e-05 -0.00190334
0.00542848 0.00011977 -7.39828e-06
0.00011977 0.00268895 -1.94456e-06
-7.39828e-06 -1.94456e-06 0.00132143
-0.000488369 -5.8847e-05 -3.86749e-06
-5.8847e-05 -0.000155244 -4.77198e-06
-3.86749e-06 -4.77198e-06 -0.000165767
8.44266e-05 6.91819e-05 -2.06008e-06
6.91819e-05 -0.000266069 1.95335e-06
-2.06008e-06 1.95335e-06 -0.000387278
0.00312975 0.000469326 3.73397e-06
0.000469326 0.00155641 6.37526e-06
3.73397e-06 6.37526e-06 0.00131949
0.000892636 9.22656e-05 -4.18074e-06
9.22656e-05 0.000230265 5.72006e-08
-4.18074e-06 5.72006e-08 7.39837e-05
0.000877554 5.7317e-05 -2.93418e-06
5.7317e-05 0.00019801 -5.28977e-06
-2.93418e-06 -5.28977e-06 6.94397e-05
0.00150241 0.0001643 2.60644e-06
0.0001643 0.000558467 -1.39445e-06
2.60644e-06 -1.39445e-06 0.000432648
8.17129e-05 5.89049e-05 -4.72109e-06
5.89049e-05 -0.000253844 1.92749e-06
-4.72109e-06 1.92749e-06 -0.000374789
0.000421574 7.24678e-05 -1.13196e-06
7.24678e-05 2.26004e-05 2.24757e-06
-1.13196e-06 2.24757e-06 -0.000159867
0.000601802 0.000111013 -2.88803e-06
0.000111013 5.66523e-05 -3.71363e-06
-2.88803e-06 -3.71363e-06 -0.000128904
0.00116347 0.000222941 5.43978e-06
0.000222941 0.000441027 -7.7367e-06
5.43978e-06 -7.7367e-06 0.00019021
0.000519134 0.000299822 1.05915e-06
0.000299822 -5.82966e-05 2.73785e-06
1.05915e-06 2.73785e-06 -0.000171391
0.00110153 8.34722e-05 -4.28109e-06
8.34722e-05 0.00041183 1.52264e-06
-4.28109e-06 1.52264e-06 0.000251248
0.00114594 0.000173678 1.70492e-06
0.000173678 0.00051658 3.01536e-06
1.70492e-06 3.01536e-06 0.000322497
-0.00341492 -0.00130476 -0.000680228
-0.00130476 -6.6491e-06 -9.47278e-05
-0.000680228 -9.47278e-05 -0.00206761
-0.0035007 -0.00100778 0.000266401
-0.00100778 0.00273486 0.000129803
0.000266401 0.000129803 -0.000883256
0.00488466 0.000633593 -0.000251803
0.000633593 0.00237486 -9.15405e-05
-0.000251803 -9.15405e-05 -0.00188325
-0.00516169 -0.00439011 0.0010563
-0.00439011 -0.00133388 0.00080308
0.0010563 0.00080308 -0.00139136
0.0177975 -0.00220175 -1.53758e-05
-0.00220175 0.00559729 0.000209439
-1.53758e-05 0.000209439 0.00458598
-0.0018297 0.0013194 -9.12239e-07
0.0013194 0.000950175 -0.000121855
-9.12239e-07 -0.000121855 -0.00374443
0.000909511 0.000102491 -0.000202971
0.000102491 0.000831935 -2.4219e-06
-0.000202971 -2.4219e-06 -0.000196339
0.00169627 0.000520377 2.78179e-05
0.000520377 0.000915676 3.34946e-05
2.78179e-05 3.34946e-05 0.000721763
0.012495 -0.00259977 -0.000291807
-0.00259977 0.00555835 4.53596e-05
-0.000291807 4.53596e-05 0.00448018
-0.000855884 0.00163474 -4.0334e-05
0.00163474 0.00056486 -4.20063e-05
-4.0334e-05 -4.20063e-05 -0.00336333
0.00222385 0.00117177 -2.26741e-05
0.00117177 0.00051426 -5.905e-05
-2.26741e-05 -5.905e-05 0.000786182
0.00370108 0.00244296 -0.000230387
0.00244296 -0.00057955 -0.000134986
-0.000230387 -0.000134986 -0.00317999
0.00263946 0.000813988 1.77629e-05
0.000813988 0.000836506 -1.43373e-05
1.77629e-05 -1.43373e-05 0.000555243
0.000903479 0.000379174 -4.57258e-06
0.000379174 0.000228096 3.85806e-07
-4.57258e-06 3.85806e-07 6.82343e-05
0.000974605 0.000131967 -8.23271e-06
0.000131967 0.000408426 -9.05572e-07
-8.23271e-06 -9.05572e-07 0.000254669
-0.00140424 0.000217545 -5.03071e-05
0.000217545 -0.000395328 -5.62486e-05
-5.03071e-05 -5.62486e-05 -0.0011447
0.00228838 0.000609118 -3.11872e-05
0.000609118 0.00117079 -1.75573e-05
-3.11872e-05 -1.75573e-05 0.000850981
0.00143864 0.000847224 1.43441e-05
0.000847224 0.000263562 -5.35257e-06
1.43441e-05 -5.35257e-06 -0.000218002
0.00175398 0.00116449 0.000109148
0.00116449 -0.000291984 3.31362e-05
0.000109148 3.31362e-05 -0.000501406
-0.00541763 -0.000180336 -0.000361782
-0.000180336 -0.00447289 1.20914e-05
-0.000361782 1.20914e-05 -0.00319057
-0.00519238 0.000290001 0.000201534
0.000290001 0.003788 6.15762e-06
0.000201534 6.15762e-06 -0.000297402
0.00273239 -8.22297e-05 -8.69752e-05
-8.22297e-05 0.00179978 3.25773e-05
-8.69752e-05 3.25773e-05 0.000344433
0.00179727 -0.000472405 -4.70776e-05
-0.000472405 0.000732331 -4.5988e-05
-4.70776e-05 -4.5988e-05 0.000479956
0.000925348 -0.00127416 -2.48699e-06
-0.00127416 -0.000249028 2.78154e-05
-2.48699e-06 2.78154e-05 -0.000346423
0.00094348 0.00025271 -1.30895e-05
0.00025271 0.00449462 2.63635e-05
-1.30895e-05 2.63635e-05 0.0024475
0.00273882 -0.00160838 0.000256313
-0.00160838 -0.000495692 -0.000142658
0.000256313 -0.000142658 -0.00308316
0.0138364 0.00187171 0.000312852
0.00187171 0.0062723 -3.76928e-05
0.000312852 -3.76928e-05 0.00478213
0.00262242 -0.00110871 -2.8021e-05
-0.00110871 0.000725414 8.75177e-06
-2.8021e-05 8.75177e-06 0.000385418
0.000357254 0.000758433 0.000142593
0.000758433 -0.000259014 -3.73255e-05
0.000142593 -3.73255e-05 -0.0011649
0.00652013 -0.000934928 -9.18217e-05
-0.000934928 -0.000733188 7.86144e-05
-9.18217e-05 7.86144e-05 -0.00300068
0.00516646 -0.00181338 -3.24684e-05
-0.00181338 0.000659894 2.11182e-05
-3.24684e-05 2.11182e-05 0.000388491
0.00237095 -0.000841471 7.1971e-05
-0.000841471 0.000427351 -8.46619e-06
7.1971e-05 -8.46619e-06 0.000192577
0.0123934 -0.000573729 -4.51902e-06
-0.000573729 0.00285285 -1.49461e-05
-4.51902e-06 -1.49461e-05 0.0012791
0.0025915 -0.000994083 9.48721e-05
-0.000994083 -0.00174454 -6.39689e-05
9.48721e-05 -6.39689e-05 -0.00122549
-0.000490482 -0.000378431 -2.74143e-05
-0.000378431 -0.000762081 1.52402e-05
-2.74143e-05 1.52402e-05 -0.000763767
0.000122785 -0.000381236 -1.63212e-05
-0.000381236 -0.000623406 -6.22831e-09
-1.63212e-05 -6.22831e-09 -0.000704165
0.00394444 -0.000731979 3.95205e-05
-0.000731979 0.00110496 -2.14694e-05
3.95205e-05 -2.14694e-05 0.00102042
0.000400865 -0.00045177 -1.95746e-05
-0.00045177 -0.000353395 -5.80958e-06
-1.95746e-05 -5.80958e-06 -0.000657057
0.00180841 -0.000645158 4.33154e-08
-0.000645158 0.000160192 -1.11789e-06
4.33154e-08 -1.11789e-06 -0.00010301
0.00257514 -0.000613983 1.42397e-06
-0.000613983 0.00033481 -2.48525e-06
1.42397e-06 -2.48525e-06 0.000175395
0.00175817 -0.000606021 -5.42826e-06
-0.000606021 0.00027476 5.75834e-06
-5.42826e-06 5.75834e-06 -8.9485e-05
0.00187998 -0.000549528 -1.1394e-06
-0.000549528 0.000117685 1.4355e-06
-1.1394e-06 1.4355e-06 -0.000115854
0.0019475 -0.000423143 2.30482e-06
-0.000423143 6.25934e-05 -7.49553e-08
2.30482e-06 -7.49553e-08 -6.84857e-05
0.0011861 -0.000459027 2.62789e-06
-0.000459027 -9.6328e-05 5.92372e-06
2.62789e-06 5.92372e-06 -0.000375304
0.00178227 -0.0004059 -6.36242e-07
-0.0004059 8.45867e-05 1.40776e-06
-6.36242e-07 1.40776e-06 -9.34688e-05
0.00185536 -0.000354578 -2.37774e-06
-0.000354578 8.24033e-05 -2.91308e-08
-2.37774e-06 -2.91308e-08 -4.16842e-05
0.00203274 -0.000337052 -3.52947e-06
-0.000337052 0.0002605 -1.55014e-08
-3.52947e-06 -1.55014e-08 0.0001344
0.00178142 -0.000333725 -2.59329e-06
-0.000333725 0.000100822 3.34175e-06
-2.59329e-06 3.34175e-06 -4.71207e-05
0.00183234 -0.000352434 -1.94682e-06
-0.000352434 0.000168463 -5.23315e-06
-1.94682e-06 -5.23315e-06 1.5394e-07
0.00175654 -0.000420015 -4.76231e-06
-0.000420015 0.000181651 -2.15669e-06
-4.76231e-06 -2.15669e-06 -5.19895e-05
0.00174049 -0.000425365 1.4257e-06
-0.000425365 0.000139033 5.13791e-07
1.4257e-06 5.13791e-07 -9.12911e-05
0.00165978 -0.000399107 4.95289e-06
-0.000399107 8.54698e-05 6.59461e-06
4.95289e-06 6.59461e-06 -0.000127078
0.00160808 -0.000423557 -6.2638e-06
-0.000423557 0.000265487 6.95553e-08
-6.2638e-06 6.95553e-08 -4.23703e-06
0.00150715 -0.000461573 -6.98406e-07
-0.000461573 0.000128683 2.67484e-07
-6.98406e-07 2.67484e-07 -0.000153076
0.0019138 -0.000537954 3.20976e-06
-0.000537954 0.000346585 2.98743e-07
3.20976e-06 2.98743e-07 4.87869e-05
0.00120108 -0.000281849 -5.95032e-06
-0.000281849 0.000189451 2.60549e-06
-5.95032e-06 2.60549e-06 -3.48822e-05
0.00140687 -0.000382778 6.23967e-07
-0.000382778 0.000250368 5.98726e-07
6.23967e-07 5.98726e-07 -1.82699e-05
0.00135313 -0.000446155 1.43193e-06
-0.000446155 0.00017112 -3.0895e-07
1.43193e-06 -3.0895e-07 -0.000124777
0.000822392 -0.000190447 -6.28983e-06
-0.000190447 0.000113721 4.72209e-06
-6.28983e-06 4.72209e-06 -7.112e-05
0.00108788 -0.000261016 8.84944e-07
-0.000261016 0.000187296 2.37165e-07
8.84944e-07 2.37165e-07 -3.14204e-05
0.000982025 -0.000294961 8.23847e-08
-0.000294961 6.48935e-05 -9.47697e-07
8.23847e-08 -9.47697e-07 -0.000174792
0.000389363 -5.5226e-05 -1.1246e-05
-5.5226e-05 -0.000103228 1.30939e-05
-1.1246e-05 1.30939e-05 -0.000168593
0.000688304 -0.00014122 6.40223e-07
-0.00014122 9.82874e-05 7.83039e-07
6.40223e-07 7.83039e-07 -8.52801e-05
0.00129605 -0.000280218 1.24497e-07
-0.000280218 0.000411304 -5.49526e-07
1.24497e-07 -5.49526e-07 0.000184111
0.00332125 0.00016747 -6.11046e-05
0.00016747 0.00172081 3.03258e-06
-6.11046e-05 3.03258e-06 0.00170755
0.000543007 -2.16041e-06 2.16289e-07
-2.16041e-06 3.5736e-06 -7.61435e-07
2.16289e-07 -7.61435e-07 -4.95513e-05
0.00135992 -0.000131133 1.74054e-06
-0.000131133 0.000512974 -5.97702e-06
1.74054e-06 -5.97702e-06 0.000353785
0.00193387 0.000110036 3.12506e-05
0.000110036 0.000864423 8.67946e-07
3.12506e-05 8.67946e-07 0.00085359
0.000605228 2.32359e-05 3.84412e-06
2.32359e-05 3.79472e-05 -8.88712e-06
3.84412e-06 -8.88712e-06 -3.50505e-06
0.00282456 0.000125514 4.84779e-05
0.000125514 0.00139968 -3.21612e-06
4.84779e-05 -3.21612e-06 0.00139861
0.00105049 0.000183829 6.52362e-06
0.000183829 0.000270396 5.45039e-07
6.52362e-06 5.45039e-07 0.000116956
0.000534094 9.5582e-05 -4.53535e-07
9.5582e-05 3.519e-06 -3.61927e-07
-4.53535e-07 -3.61927e-07 -0.000134478
0.00068361 9.62389e-05 6.96467e-07
9.62389e-05 0.000113053 -1.22954e-06
6.96467e-07 -1.22954e-06 -3.5574e-05
0.000821632 0.000105731 -6.08396e-07
0.000105731 0.000208541 -9.34983e-07
-6.08396e-07 -9.34983e-07 5.97924e-05
0.000711952 6.41839e-05 7.69578e-08
6.41839e-05 0.000134792 3.64158e-07
7.69578e-08 3.64158e-07 -7.33255e-06
0.000696432 3.30435e-05 -3.32687e-07
3.30435e-05 0.000100313 -5.8859e-06
-3.32687e-07 -5.8859e-06 -1.84559e-06
0.000558353 -6.58657e-06 -2.92609e-06
-6.58657e-06 1.50579e-06 -8.33381e-06
-2.92609e-06 -8.33381e-06 -3.38264e-05
0.000610153 1.67935e-05 3.31744e-07
1.67935e-05 4.881e-05 -1.06947e-07
3.31744e-07 -1.06947e-07 -4.31086e-05
0.000583226 3.42619e-05 -1.80912e-06
3.42619e-05 3.56201e-05 2.4163e-06
-1.80912e-06 2.4163e-06 -8.1194e-05
0.00273138 -9.76787e-05 -4.89924e-05
-9.76787e-05 0.00132856 -4.0055e-06
-4.89924e-05 -4.0055e-06 0.00133417
0.000492778 -1.00479e-05 3.11826e-07
-1.00479e-05 -4.31581e-05 -1.41345e-07
3.11826e-07 -1.41345e-07 -7.26584e-05
0.000553215 2.44358e-05 -5.79245e-07
2.44358e-05 1.40151e-05 3.64384e-06
-5.79245e-07 3.64384e-06 -7.00499e-05
0.00259477 -8.40977e-05 -5.7547e-06
-8.40977e-05 0.00123842 4.15945e-07
-5.7547e-06 4.15945e-07 0.00124666
0.000477885 -2.30711e-05 -5.19984e-08
-2.30711e-05 -5.67171e-05 5.97796e-06
-5.19984e-08 5.97796e-06 -8.17447e-05
0.00245879 -6.73967e-05 2.70527e-05
-6.73967e-05 0.00114982 4.4894e-06
2.70527e-05 4.4894e-06 0.00116126
0.000103209 0.000307261 -0.000389079
0.000307261 0.00246492 -1.22489e-06
-0.000389079 -1.22489e-06 0.000984451
-0.00406756 9.67884e-05 3.02581e-05
9.67884e-05 0.00285679 8.91629e-06
3.02581e-05 8.91629e-06 -0.00121265
0.00512245 2.05621e-05 -0.000112982
2.05621e-05 0.0027423 -2.36069e-05
-0.000112982 -2.36069e-05 0.00144923
0.000354249 4.98836e-05 1.30376e-06
4.98836e-05 -0.000106709 -4.48986e-06
1.30376e-06 -4.48986e-06 -0.000225569
0.00076195 6.6907e-05 4.08861e-06
6.6907e-05 0.000150526 2.15223e-06
4.08861e-06 2.15223e-06 -1.91716e-05
0.00223723 0.000369463 -2.46389e-06
0.000369463 0.00103528 2.26859e-06
-2.46389e-06 2.26859e-06 0.0008251
0.00170511 0.000395655 6.42998e-06
0.000395655 0.000586032 -3.04346e-06
6.42998e-06 -3.04346e-06 0.00030166
0.000806572 0.000229541 -2.8508e-06
0.000229541 0.000240457 -5.53173e-07
-2.8508e-06 -5.53173e-07 2.00965e-05
0.000689585 0.000116402 -1.52959e-06
0.000116402 0.000185604 2.57003e-06
-1.52959e-06 2.57003e-06 -5.47607e-06
0.00079827 0.000133887 7.10236e-06
0.000133887 0.000192807 4.45871e-06
7.10236e-06 4.45871e-06 9.37271e-06
0.000571817 0.000216298 -5.98111e-06
0.000216298 0.000114142 -3.67381e-06
-5.98111e-06 -3.67381e-06 -0.000135276
-0.00057778 0.000210956 4.67167e-06
0.000210956 -0.000707752 -1.1665e-06
4.67167e-06 -1.1665e-06 -0.000921714
0.0020622 0.000483915 5.6912e-06
0.000483915 0.000737341 3.58326e-07
5.6912e-06 3.58326e-07 0.000592345
0.00160249 0.00062457 1.30263e-05
0.00062457 0.000191716 -5.35137e-06
1.30263e-05 -5.35137e-06 -1.65912e-05
0.000837216 0.000348381 -6.31504e-06
0.000348381 0.000140189 -8.62572e-07
-6.31504e-06 -8.62572e-07 -3.01656e-06
0.000889205 0.000134975 -5.402e-06
0.000134975 0.000298995 -9.52914e-07
-5.402e-06 -9.52914e-07 0.0001234
0.0126261 0.00136032 -7.89118e-05
0.00136032 0.00247519 4.6926e-05
-7.89118e-05 4.6926e-05 0.00100708
-0.000206092 -0.00106201 -0.000303605
-0.00106201 0.0026386 -0.000108261
-0.000303605 -0.000108261 0.000522593
-0.00127053 -0.00163256 0.000256387
-0.00163256 0.00286842 5.77181e-05
0.000256387 5.77181e-05 -0.000786352
0.00117669 -0.00150535 9.77733e-05
-0.00150535 0.000903041 0.000237947
9.77733e-05 0.000237947 -0.000192303
0.0114107 0.00216325 -2.43221e-05
0.00216325 0.00471077 -1.47968e-05
-2.43221e-05 -1.47968e-05 0.00104971
-0.00161705 0.00022273 -2.90645e-05
0.00022273 -0.000527146 -3.82628e-05
-2.90645e-05 -3.82628e-05 -0.000739157
0.00167972 0.00103331 -2.96222e-05
0.00103331 0.000383065 -1.10059e-05
-2.96222e-05 -1.10059e-05 0.000610183
0.0132721 0.0019661 2.36661e-05
0.0019661 0.00388737 2.54537e-05
2.36661e-05 2.54537e-05 0.00174706
0.00638546 0.00213077 -3.45141e-05
0.00213077 0.000874917 -7.42116e-05
-3.45141e-05 -7.42116e-05 0.00059676
0.00153385 0.000789592 7.62443e-06
0.000789592 0.00010732 -3.14073e-06
7.62443e-06 -3.14073e-06 -8.35491e-05
0.0012627 0.000622418 5.80723e-06
0.000622418 0.00023282 -5.38269e-07
5.80723e-06 -5.38269e-07 -2.40776e-05
0.00117947 0.000366282 -1.9124e-05
0.000366282 0.000414648 8.75323e-06
-1.9124e-05 8.75323e-06 0.000264131
0.00259838 0.00101088 -5.42871e-05
0.00101088 0.000761676 -1.6314e-05
-5.42871e-05 -1.6314e-05 0.000292578
0.00207708 0.0011874 1.62559e-05
0.0011874 -0.000268822 1.82288e-05
1.62559e-05 1.82288e-05 -0.000484897
0.0014301 -0.000398276 -6.72603e-05
-0.000398276 -0.00354379 3.41112e-05
-6.72603e-05 3.41112e-05 -0.00386461
0.00168328 -0.000836305 2.96737e-06
-0.000836305 0.00141411 -2.34301e-05
2.96737e-06 -2.34301e-05 0.00133732
-0.00757839 -5.88421e-05 0.000206556
-5.88421e-05 0.00360792 -1.37384e-05
0.000206556 -1.37384e-05 -0.000505413
0.00125378 -0.00111887 -2.01727e-05
-0.00111887 -8.80543e-05 3.8194e-07
-2.01727e-05 3.8194e-07 -0.00058984
0.00334873 -0.0016809 4.69748e-05
-0.0016809 0.000305134 7.82749e-06
4.69748e-05 7.82749e-06 -0.000297495
0.00139499 -0.00030413 0.000437563
-0.00030413 0.00275287 -7.44431e-05
0.000437563 -7.44431e-05 0.00145705
0.0126539 -0.00113262 -0.000185673
-0.00113262 0.00243324 8.23168e-05
-0.000185673 8.23168e-05 0.000889174
0.0011377 -0.000799491 -2.9633e-05
-0.000799491 -0.000246226 -1.67373e-06
-2.9633e-05 -1.67373e-06 -0.000466357
0.00928332 1.66982e-05 -0.000115515
1.66982e-05 0.000262145 3.65601e-05
-0.000115515 3.65601e-05 -0.00083854
0.00560356 -0.00113843 9.06568e-05
-0.00113843 -6.65937e-05 1.0858e-05
9.06568e-05 1.0858e-05 1.91199e-05
0.00444169 -0.000803147 7.14808e-05
-0.000803147 0.0013237 -1.28113e-05
7.14808e-05 -1.28113e-05 0.000965958
0.00271684 -0.000421638 -6.974e-05
-0.000421638 -0.000779325 9.2587e-06
-6.974e-05 9.2587e-06 -0.000469219
-0.00291523 -0.000147877 -1.3589e-05
-0.000147877 -0.00229879 5.72686e-06
-1.3589e-05 5.72686e-06 -0.00228495
0.00169463 -0.000568099 -3.94519e-06
-0.000568099 -8.92519e-05 -2.16872e-07
-3.94519e-06 -2.16872e-07 -0.000129782
0.00284883 -0.000526297 2.34778e-05
-0.000526297 0.000362195 -1.15874e-05
2.34778e-05 -1.15874e-05 0.000394672
0.000741677 -0.000542874 -4.41887e-06
-0.000542874 -0.000378117 7.38914e-06
-4.41887e-06 7.38914e-06 -0.000621699
0.00187059 -0.000550967 -1.97353e-06
-0.000550967 -1.78254e-05 1.61223e-06
-1.97353e-06 1.61223e-06 -0.000170958
0.00215173 -0.000443061 4.21282e-06
-0.000443061 2.47096e-05 9.22201e-07
4.21282e-06 9.22201e-07 -2.48549e-05
0.00216216 -0.000568733 -6.52607e-06
-0.000568733 0.000273886 8.29331e-06
-6.52607e-06 8.29331e-06 3.6785e-05
0.00194515 -0.000421831 2.64043e-07
-0.000421831 6.14673e-05 1.57184e-06
2.64043e-07 1.57184e-06 -6.62989e-05
0.00203834 -0.000395497 -2.29033e-08
-0.000395497 0.000120318 1.91852e-06
-2.29033e-08 1.91852e-06 3.02171e-05
0.00173572 -0.000397129 2.64641e-06
-0.000397129 6.22328e-05 6.03177e-06
2.64641e-06 6.03177e-06 -0.000113802
0.00183775 -0.000356955 -1.29369e-07
-0.000356955 7.00991e-05 1.63938e-06
-1.29369e-07 1.63938e-06 -5.49249e-05
0.00198572 -0.000371494 -1.40792e-06
-0.000371494 0.00016486 1.11054e-06
-1.40792e-06 1.11054e-06 4.78373e-05
0.00191019 -0.00033397 -4.15597e-06
-0.00033397 0.000179792 3.43272e-06
-4.15597e-06 3.43272e-06 5.62266e-05
0.00196964 -0.000340451 3.82879e-07
-0.000340451 0.000245797 -2.717e-06
3.82879e-07 -2.717e-06 0.000109201
0.0018731 -0.000338537 3.50084e-06
-0.000338537 0.000148385 7.98413e-06
3.50084e-06 7.98413e-06 4.48247e-06
0.00183993 -0.000352933 3.50177e-07
-0.000352933 0.000171362 -8.63121e-07
3.50177e-07 -8.63121e-07 2.75385e-06
0.00174864 -0.000359342 -1.91009e-06
-0.000359342 0.00013722 -3.57145e-06
-1.91009e-06 -3.57145e-06 -5.10954e-05
0.00172803 -0.000389619 -4.64084e-06
-0.000389619 0.000239061 -1.98767e-06
-4.64084e-06 -1.98767e-06 3.69332e-06
0.00180918 -0.000425456 4.56278e-08
-0.000425456 0.000214496 -1.48953e-07
4.56278e-08 -1.48953e-07 -2.09583e-05
0.00191877 -0.000439027 5.85669e-06
-0.000439027 0.000247337 3.0779e-06
5.85669e-06 3.0779e-06 1.58409e-05
0.00129189 -0.000305723 -7.84981e-06
-0.000305723 0.000168344 3.29223e-06
-7.84981e-06 3.29223e-06 -6.05286e-05
0.00151108 -0.000410676 -1.32444e-06
-0.000410676 0.00021529 1.84773e-07
-1.32444e-06 1.84773e-07 -5.27753e-05
0.0015219 -0.000465475 3.07905e-06
-0.000465475 0.000129105 1.33751e-06
3.07905e-06 1.33751e-06 -0.000154206
0.000796381 -0.000189569 -8.83075e-06
-0.000189569 2.56508e-05 6.36015e-06
-8.83075e-06 6.36015e-06 -0.000155221
0.0011486 -0.000281431 5.49233e-07
-0.000281431 0.000152375 -1.04797e-07
5.49233e-07 -1.04797e-07 -7.32722e-05
0.00125847 -0.000366866 3.28698e-06
-0.000366866 0.000162153 -6.14903e-07
3.28698e-06 -6.14903e-07 -0.000103241
0.000430721 -0.000130711 -2.02706e-05
-0.000130711 -0.000110615 1.47305e-05
-2.02706e-05 1.47305e-05 -0.000191415
0.000767308 -0.000195442 -3.41584e-07
-0.000195442 8.31668e-05 4.16464e-07
-3.41584e-07 4.16464e-07 -0.000102446
0.00113028 -0.000260062 3.69679e-06
-0.000260062 0.000214214 -1.07844e-06
3.69679e-06 -1.07844e-06 -4.28612e-06
0.00420122 0.000192742 -9.3753e-05
0.000192742 0.00226404 4.95012e-06
-9.3753e-05 4.95012e-06 0.00224395
0.000502624 -7.42405e-05 8.97306e-07
-7.42405e-05 -3.57809e-05 -5.21291e-07
8.97306e-07 -5.21291e-07 -0.000106156
0.00111047 -0.000176931 4.41837e-06
-0.000176931 0.000357058 -4.09092e-06
4.41837e-06 -4.09092e-06 0.000165048
0.00362343 0.000155359 1.20279e-05
0.000155359 0.00190099 2.57825e-07
1.20279e-05 2.57825e-07 0.0018917
0.000634183 -2.10855e-05 9.3864e-06
-2.10855e-05 5.30353e-05 -1.11097e-05
9.3864e-06 -1.11097e-05 -1.96321e-06
0.00315974 0.000129134 7.75675e-05
0.000129134 0.00160869 -2.83987e-06
7.75675e-05 -2.83987e-06 0.0016072
0.00031741 0.000213931 5.30496e-06
0.000213931 -0.000272083 -5.81837e-06
5.30496e-06 -5.81837e-06 -0.00049239
0.000869158 0.000191326 2.10821e-06
0.000191326 0.00016759 -8.50113e-07
2.10821e-06 -8.50113e-07 7.99275e-06
0.000246483 8.97188e-05 3.11135e-06
8.97188e-05 -0.000165291 -5.13973e-07
3.11135e-06 -5.13973e-07 -0.00032124
-0.00017148 3.37038e-05 -2.2281e-06
3.37038e-05 -0.000416369 -3.19608e-06
-2.2281e-06 -3.19608e-06 -0.000543372
0.000443053 4.48718e-05 -1.30983e-07
4.48718e-05 -3.82975e-05 9.46191e-07
-1.30983e-07 9.46191e-07 -0.000182296
0.000737378 5.29425e-05 -1.12679e-06
5.29425e-05 0.000117808 -6.27702e-06
-1.12679e-06 -6.27702e-06 3.40545e-06
0.000461949 3.29142e-05 -1.07427e-06
3.29142e-05 -2.94065e-05 2.80297e-06
-1.07427e-06 2.80297e-06 -0.000159711
0.000583041 2.21681e-05 1.64305e-07
2.21681e-05 3.51669e-05 -2.64123e-07
1.64305e-07 -2.64123e-07 -6.69244e-05
0.000602377 -7.37713e-06 -4.00473e-06
-7.37713e-06 3.19827e-05 -9.82519e-06
-4.00473e-06 -9.82519e-06 -1.02583e-05
0.00294968 -0.000112669 -6.27019e-05
-0.000112669 0.00147028 -3.8103e-06
-6.27019e-05 -3.8103e-06 0.00147241
0.000479704 -1.18436e-05 6.2624e-07
-1.18436e-05 -4.48103e-05 -1.53913e-07
6.2624e-07 -1.53913e-07 -8.01321e-05
0.000544951 1.82882e-05 -1.99337e-07
1.82882e-05 1.12168e-05 4.97743e-06
-1.99337e-07 4.97743e-06 -8.10258e-05
0.00275038 -0.000100444 -6.3907e-06
-0.000100444 0.0013402 5.11924e-07
-6.3907e-06 5.11924e-07 0.00134496
0.000429531 -3.31523e-05 -1.45706e-06
-3.31523e-05 -7.8288e-05 6.83246e-06
-1.45706e-06 6.83246e-06 -0.00010891
0.00257882 -8.38091e-05 3.33809e-05
-8.38091e-05 0.001228 4.3533e-06
3.33809e-05 4.3533e-06 0.0012363
0.012669 0.000537256 0.000297312
0.000537256 0.00245073 8.57541e-05
0.000297312 8.57541e-05 0.0016491
-0.00284754 -0.00146354 -0.00023508
-0.00146354 -0.00275829 -4.09353e-05
-0.00023508 -4.09353e-05 -0.00350026
-0.00711816 0.000769385 -0.00010292
0.000769385 0.001896 -7.54736e-05
-0.00010292 -7.54736e-05 -0.00272203
0.000377855 2.99831e-05 1.45887e-05
2.99831e-05 -8.33089e-05 1.06229e-06
1.45887e-05 1.06229e-06 -0.000265861
0.00122906 0.000259647 -1.0501e-05
0.000259647 0.000433845 2.81074e-06
-1.0501e-05 2.81074e-06 0.000255071
0.00150673 0.000299704 -3.30205e-06
0.000299704 0.000633384 -1.88152e-06
-3.30205e-06 -1.88152e-06 0.000399018
0.0017831 0.000397806 -2.74136e-06
0.000397806 0.000656625 9.31414e-07
-2.74136e-06 9.31414e-07 0.000376066
0.000936273 0.000360922 1.23856e-05
0.000360922 -3.63221e-07 6.83022e-06
1.23856e-05 6.83022e-06 -0.000292558
-0.000235015 0.000219979 9.84859e-06
0.000219979 -0.00051238 -1.59859e-06
9.84859e-06 -1.59859e-06 -0.000742721
1.58051e-05 0.000178014 -6.17749e-06
0.000178014 -0.000190396 -2.89537e-06
-6.17749e-06 -2.89537e-06 -0.000437561
0.00019907 0.000300613 3.18066e-06
0.000300613 -0.000287879 8.83532e-07
3.18066e-06 8.83532e-07 -0.000529524
0.00156147 0.00044769 -6.97492e-07
0.00044769 0.000466135 1.43772e-06
-6.97492e-07 1.43772e-06 0.000306685
0.000349061 0.000388379 7.50187e-06
0.000388379 -0.000340654 2.89558e-06
7.50187e-06 2.89558e-06 -0.000548169
0.0028887 0.000698348 1.71261e-06
0.000698348 0.000865987 -9.1933e-07
1.71261e-06 -9.1933e-07 0.000680331
0.00181986 0.000675386 5.87229e-06
0.000675386 0.000234522 4.07348e-06
5.87229e-06 4.07348e-06 2.34616e-05
0.00110211 0.000573027 3.72239e-06
0.000573027 -8.12487e-05 -4.1769e-06
3.72239e-06 -4.1769e-06 -0.000259396
0.000660825 0.000337429 -4.28551e-06
0.000337429 6.42871e-05 -4.51645e-06
-4.28551e-06 -4.51645e-06 -9.37162e-05
0.00592084 0.000995182 1.34268e-06
0.000995182 2.1205e-05 7.91001e-06
1.34268e-06 7.91001e-06 0.000615754
0.0110316 0.00132181 0.000159144
0.00132181 0.001705 7.66813e-05
0.000159144 7.66813e-05 -5.92284e-05
0.0083288 -0.00223451 0.000176729
-0.00223451 0.00417872 -4.81562e-05
0.000176729 -4.81562e-05 0.00280087
0.00430792 0.00233465 0.000396861
0.00233465 -0.000253359 0.000218113
0.000396861 0.000218113 -0.00413239
0.000357292 0.00073282 -6.10863e-05
0.00073282 -2.41361e-05 -8.49618e-06
-6.10863e-05 -8.49618e-06 0.000303138
0.0032921 0.00155996 -0.000102939
0.00155996 -0.000274635 -3.42188e-05
-0.000102939 -3.42188e-05 -0.000280859
0.00503504 0.00136194 5.67166e-05
0.00136194 0.00104669 1.64838e-05
5.67166e-05 1.64838e-05 0.00090262
0.00343855 0.000999869 1.35298e-05
0.000999869 0.000962966 2.8761e-06
1.35298e-05 2.8761e-06 0.000747875
0.000591332 0.000523861 -1.55615e-05
0.000523861 -6.78365e-05 1.18123e-05
-1.55615e-05 1.18123e-05 -0.000302024
0.00483475 0.00144851 -0.000143302
0.00144851 0.00100035 -1.25999e-05
-0.000143302 -1.25999e-05 0.000733973
0.00307359 -0.000293537 -2.49802e-05
-0.000293537 0.000360809 7.61263e-06
-2.49802e-05 7.61263e-06 0.00038729
0.0103639 -0.000362212 -1.51646e-05
-0.000362212 0.00216291 5.15842e-06
-1.51646e-05 5.15842e-06 0.00164352
-0.0107871 -0.00122429 0.000438921
-0.00122429 -0.00568593 7.17604e-07
0.000438921 7.17604e-07 -0.0055024
0.000345679 -0.000722444 -5.31066e-05
-0.000722444 -0.00069835 4.97841e-06
-5.31066e-05 4.97841e-06 -0.000877032
0.00789531 -0.00149167 7.56956e-05
-0.00149167 0.000800015 5.69577e-05
7.56956e-05 5.69577e-05 0.00107972
0.0015312 -0.000303001 -0.000102492
-0.000303001 -0.00268741 5.52114e-05
-0.000102492 5.52114e-05 -0.00458708
0.00180885 -0.000571718 1.20132e-05
-0.000571718 -0.000181442 2.363e-06
1.20132e-05 2.363e-06 -0.000286479
0.00382571 -0.00030229 -1.66756e-05
-0.00030229 -0.000194987 2.46828e-06
-1.66756e-05 2.46828e-06 4.93289e-06
0.00465709 -0.000546669 3.25985e-05
-0.000546669 0.00104211 -1.46248e-05
3.25985e-05 -1.46248e-05 0.0011925
0.00386739 -0.000175435 7.37703e-05
-0.000175435 0.000849856 3.93e-06
7.37703e-05 3.93e-06 0.000798361
-0.00118631 -0.000381292 -6.15679e-06
-0.000381292 -0.00165965 1.19001e-05
-6.15679e-06 1.19001e-05 -0.00161514
0.00188433 -0.000468438 -1.45025e-06
-0.000468438 -0.000161738 1.15359e-07
-1.45025e-06 1.15359e-07 -9.85528e-05
0.00194398 -0.000339899 1.69614e-05
-0.000339899 -0.000230416 -3.76549e-06
1.69614e-05 -3.76549e-06 -7.1974e-05
0.00152389 -0.000519675 -1.73544e-06
-0.000519675 -0.000194394 4.5093e-06
-1.73544e-06 4.5093e-06 -0.00034566
0.00210757 -0.000443507 1.60303e-06
-0.000443507 3.58588e-06 6.98243e-07
1.60303e-06 6.98243e-07 -4.74609e-05
0.0020498 -0.000373899 1.29923e-06
-0.000373899 3.72116e-05 1.10598e-06
1.29923e-06 1.10598e-06 1.79581e-05
0.00190325 -0.000418014 4.14178e-07
-0.000418014 3.6812e-05 3.58176e-06
4.14178e-07 3.58176e-06 -8.75605e-05
0.00195498 -0.000385321 3.97671e-07
-0.000385321 8.21162e-05 2.86056e-07
3.97671e-07 2.86056e-07 -6.16226e-06
0.00195696 -0.000346989 -2.95278e-06
-0.000346989 8.26396e-05 1.42857e-06
-2.95278e-06 1.42857e-06 8.74992e-07
0.00181012 -0.00035826 4.16708e-06
-0.00035826 5.17307e-05 2.9837e-06
4.16708e-06 2.9837e-06 -7.41321e-05
0.00188908 -0.000365048 -1.31396e-08
-0.000365048 0.000121223 1.25829e-07
-1.31396e-08 1.25829e-07 4.34263e-06
0.00181757 -0.000335804 1.684e-06
-0.000335804 0.000112267 -8.2837e-07
1.684e-06 -8.2837e-07 -7.69782e-06
0.00178921 -0.000330866 -1.01198e-06
-0.000330866 0.000100475 5.25571e-06
-1.01198e-06 5.25571e-06 -2.05698e-05
0.00194469 -0.000335217 -2.23019e-06
-0.000335217 0.000225461 3.60486e-07
-2.23019e-06 3.60486e-07 9.27005e-05
0.00192443 -0.000338399 3.13819e-07
-0.000338399 0.00023143 -2.00668e-06
3.13819e-07 -2.00668e-06 7.15314e-05
0.00184679 -0.000352578 3.41933e-06
-0.000352578 0.000173822 3.71773e-06
3.41933e-06 3.71773e-06 5.16252e-06
0.00180327 -0.000364171 3.06022e-07
-0.000364171 0.000171313 -4.89056e-07
3.06022e-07 -4.89056e-07 -1.85157e-05
0.0018144 -0.000346929 -1.54696e-06
-0.000346929 0.0002423 -2.09733e-06
-1.54696e-06 -2.09733e-06 4.05548e-05
0.00132033 -0.000301088 -8.91536e-06
-0.000301088 0.00010801 1.39569e-06
-8.91536e-06 1.39569e-06 -0.000110256
0.00171762 -0.00039105 -9.43493e-07
-0.00039105 0.000234655 -5.46917e-07
-9.43493e-07 -5.46917e-07 -3.25352e-06
0.00185796 -0.000430726 4.08479e-06
-0.000430726 0.000245665 1.53154e-06
4.08479e-06 1.53154e-06 8.39442e-06
0.000886394 -0.000198916 -1.16815e-05
-0.000198916 2.12545e-05 6.37048e-06
-1.16815e-05 6.37048e-06 -0.000156113
0.00121736 -0.000300954 4.83116e-07
-0.000300954 0.00011951 4.21754e-07
4.83116e-07 4.21754e-07 -0.000108801
0.00139823 -0.000396948 2.56501e-06
-0.000396948 0.00015411 3.70515e-07
2.56501e-06 3.70515e-07 -0.000112202
0.000430029 -0.000147392 -2.02203e-05
-0.000147392 -0.000131989 1.58313e-05
-2.02203e-05 1.58313e-05 -0.000224466
0.000824794 -0.000193071 6.22473e-07
-0.000193071 4.54746e-05 2.99574e-07
6.22473e-07 2.99574e-07 -0.000136586
0.00101468 -0.000273603 6.35361e-06
-0.000273603 6.69678e-05 -2.58124e-06
6.35361e-06 -2.58124e-06 -0.000158702
0.00513577 0.000180513 -0.000147922
0.000180513 0.00282107 8.25575e-06
-0.000147922 8.25575e-06 0.00280332
0.000536608 -0.000135461 -1.47168e-06
-0.000135461 -4.60636e-05 -2.61866e-07
-1.47168e-06 -2.61866e-07 -0.000131005
0.000699582 -0.000200522 7.3545e-06
-0.000200522 4.42214e-05 -4.89967e-06
7.3545e-06 -4.89967e-06 -0.000141102
0.00448158 0.000153703 1.28341e-05
0.000153703 0.00242443 8.10077e-07
1.28341e-05 8.10077e-07 0.00241328
0.000673379 -8.78881e-05 1.66832e-05
-8.78881e-05 6.44173e-05 -1.32314e-05
1.66832e-05 -1.32314e-05 -7.40323e-06
0.00383193 0.000110523 0.000128793
0.000110523 0.00201884 -7.13829e-06
0.000128793 -7.13829e-06 0.00201986
0.000666924 0.000285591 -4.21086e-06
0.000285591 -0.000139184 -3.07956e-06
-4.21086e-06 -3.07956e-06 -0.000394596
0.00145245 0.000321669 7.57332e-08
0.000321669 0.000423437 -6.53576e-08
7.57332e-08 -6.53576e-08 0.000184152
0.000254471 0.000153389 4.90175e-07
0.000153389 -0.000247786 -4.77041e-06
4.90175e-07 -4.77041e-06 -0.000439433
0.000606145 0.000188598 -5.10766e-06
0.000188598 2.14645e-05 -8.79547e-07
-5.10766e-06 -8.79547e-07 -0.000144171
0.00014327 9.04531e-05 1.11764e-06
9.04531e-05 -0.000234066 -7.8352e-07
1.11764e-06 -7.8352e-07 -0.000392784
0.00104103 0.000156965 -2.51647e-06
0.000156965 0.000317516 -6.16263e-06
-2.51647e-06 -6.16263e-06 0.000162909
0.000129511 2.08636e-05 -7.46586e-07
2.08636e-05 -0.00023368 5.15506e-07
-7.46586e-07 5.15506e-07 -0.00037216
0.000673469 4.97317e-05 -6.01695e-08
4.97317e-05 8.32575e-05 -2.40204e-07
-6.01695e-08 -2.40204e-07 -3.20225e-05
0.000594262 2.55473e-06 -5.85801e-06
2.55473e-06 2.9015e-05 -1.11126e-05
-5.85801e-06 -1.11126e-05 -2.0385e-05
0.000565325 1.48328e-05 -1.75724e-07
1.48328e-05 2.67592e-05 6.28696e-06
-1.75724e-07 6.28696e-06 -7.51541e-05
0.000495507 -3.68575e-06 2.88196e-07
-3.68575e-06 -3.06422e-05 -1.81509e-07
2.88196e-07 -1.81509e-07 -7.22816e-05
0.00318092 -0.000125133 -7.80593e-05
-0.000125133 0.00162015 -3.82733e-06
-7.80593e-05 -3.82733e-06 0.00161898
0.00290371 -0.000116318 -5.74722e-06
-0.000116318 0.00144233 5.4405e-07
-5.74722e-06 5.4405e-07 0.00144327
0.000437106 2.37415e-06 3.69319e-06
2.37415e-06 -7.10135e-05 8.19185e-06
3.69319e-06 8.19185e-06 -0.000105247
0.00270019 -9.99891e-05 4.09324e-05
-9.99891e-05 0.00130938 4.09659e-06
4.09324e-05 4.09659e-06 0.00131405
0.00395052 9.48329e-05 6.38076e-05
9.48329e-05 -0.000528192 1.90944e-05
6.38076e-05 1.90944e-05 0.000142169
0.00374513 -0.00070335 9.74551e-05
-0.00070335 -0.00286985 4.63508e-05
9.74551e-05 4.63508e-05 -0.00401446
0.00911364 -0.00155399 -0.000131511
-0.00155399 0.00335375 -7.01664e-05
-0.000131511 -7.01664e-05 0.00337029
0.00111863 0.000413364 8.46088e-06
0.000413364 -3.85162e-05 5.8924e-06
8.46088e-06 5.8924e-06 -0.000317618
0.00237658 0.000389966 -3.7982e-06
0.000389966 0.00113362 4.1e-06
-3.7982e-06 4.1e-06 0.000880834
0.0018865 0.000404461 -5.76752e-06
0.000404461 0.000740395 5.35608e-06
-5.76752e-06 5.35608e-06 0.000462711
0.00086894 0.000340875 2.63632e-06
0.000340875 0.000132469 2.24199e-06
2.63632e-06 2.24199e-06 -0.000122522
0.00126555 0.000393252 -1.95246e-06
0.000393252 0.000213587 5.15161e-07
-1.95246e-06 5.15161e-07 -8.97669e-05
0.00121946 0.00046995 1.44835e-05
0.00046995 0.000138383 1.01774e-05
1.44835e-05 1.01774e-05 -0.000129981
0.00121523 0.000412214 -1.73471e-05
0.000412214 0.000281531 -7.29368e-06
-1.73471e-05 -7.29368e-06 6.51695e-06
0.000805136 0.000397492 6.0397e-06
0.000397492 5.63709e-05 1.07541e-07
6.0397e-06 1.07541e-07 -0.000112526
0.00118093 0.000478944 1.61158e-06
0.000478944 0.000120332 -1.50932e-06
1.61158e-06 -1.50932e-06 -0.000103723
0.00188063 0.000604888 3.36041e-06
0.000604888 0.000292539 5.14401e-06
3.36041e-06 5.14401e-06 0.000143987
0.00163621 0.000620146 8.20912e-06
0.000620146 8.71368e-05 -7.25404e-07
8.20912e-06 -7.25404e-07 -0.0001393
0.00170691 0.000586154 1.38903e-05
0.000586154 0.000141125 6.56248e-06
1.38903e-05 6.56248e-06 -1.86337e-05
0.00113415 0.000613173 -3.87267e-06
0.000613173 -0.000132556 -3.76265e-06
-3.87267e-06 -3.76265e-06 -0.000329426
0.000571061 0.000513349 -7.0675e-06
0.000513349 -0.000360893 -1.31912e-06
-7.0675e-06 -1.31912e-06 -0.00050861
0.0016016 0.000534384 3.81739e-05
0.000534384 -0.00044461 3.39871e-05
3.81739e-05 3.39871e-05 -0.000336212
0.00562525 0.00105284 -7.1468e-05
0.00105284 -0.000483841 -1.88113e-05
-7.1468e-05 -1.88113e-05 0.000162907
0.00324123 0.000863841 0.00035655
0.000863841 -0.00265429 6.0052e-05
0.00035655 6.0052e-05 -0.00453499
0.000234813 0.00114921 -6.70652e-05
0.00114921 -0.00145184 -2.67689e-05
-6.70652e-05 -2.67689e-05 -0.00131904
0.00348141 0.00109108 -2.94383e-05
0.00109108 0.000571306 -5.75084e-06
-2.94383e-05 -5.75084e-06 0.000453986
0.00323419 0.00098215 -9.17899e-05
0.00098215 0.000822821 -2.70904e-05
-9.17899e-05 -2.70904e-05 0.000600924
0.00257414 -0.000231791 -3.37171e-05
-0.000231791 -8.77017e-05 -1.07919e-05
-3.37171e-05 -1.07919e-05 3.14147e-05
0.000499941 -0.000135253 3.32949e-05
-0.000135253 -0.000293876 8.3219e-06
3.32949e-05 8.3219e-06 -0.00021206
0.00149289 0.000820087 0.000128005
0.000820087 -0.00395503 -1.57749e-05
0.000128005 -1.57749e-05 -0.00419431
-0.000900845 -0.000365124 -2.69279e-05
-0.000365124 -0.00163717 3.41275e-05
-2.69279e-05 3.41275e-05 -0.00154003
0.00501495 -0.000292245 -8.09479e-05
-0.000292245 0.000481787 4.12284e-05
-8.09479e-05 4.12284e-05 0.000324823
0.00238385 -0.000403193 -2.3077e-05
-0.000403193 -0.000148812 8.27481e-06
-2.3077e-05 8.27481e-06 5.20953e-05
0.0035851 -0.000221248 2.37677e-06
-0.000221248 0.000626948 -4.27396e-06
2.37677e-06 -4.27396e-06 0.000591795
0.001831 -0.000232506 3.96062e-05
-0.000232506 -0.000383027 -2.81242e-06
3.96062e-05 -2.81242e-06 -0.000148722
0.00335777 -6.71244e-05 3.00261e-05
-6.71244e-05 0.000994476 5.02665e-07
3.00261e-05 5.02665e-07 0.0009568
0.000909086 -0.000404002 -2.15751e-05
-0.000404002 -0.000680669 1.10835e-05
-2.15751e-05 1.10835e-05 -0.000587878
0.00189225 -0.000350411 -2.56941e-07
-0.000350411 -0.000281048 2.08476e-06
-2.56941e-07 2.08476e-06 -0.000131934
0.00212827 -0.000325951 2.36294e-06
-0.000325951 -9.84056e-05 -1.0038e-06
2.36294e-06 -1.0038e-06 1.65163e-05
0.00203703 -0.000438448 -2.45948e-06
-0.000438448 -2.65224e-05 1.51441e-06
-2.45948e-06 1.51441e-06 -7.7843e-05
0.00204522 -0.000374554 3.38171e-07
-0.000374554 3.80823e-05 -6.8371e-08
3.38171e-07 -6.8371e-08 1.71293e-05
0.00202004 -0.000316087 -1.99105e-06
-0.000316087 4.17609e-05 4.74003e-07
-1.99105e-06 4.74003e-07 6.98629e-06
0.0018674 -0.000374805 -4.16003e-07
-0.000374805 4.17803e-05 -1.17322e-08
-4.16003e-07 -1.17322e-08 -4.44462e-05
0.00193952 -0.000352348 -5.72348e-07
-0.000352348 7.83019e-05 1.10514e-07
-5.72348e-07 1.10514e-07 -5.6837e-06
0.00189739 -0.000310757 -1.05637e-06
-0.000310757 0.000109445 8.73254e-07
-1.05637e-06 8.73254e-07 7.50391e-06
0.00179287 -0.000358435 -4.92956e-08
-0.000358435 7.79493e-05 1.55951e-07
-4.92956e-08 1.55951e-07 -3.8809e-05
0.00178717 -0.000335164 9.78456e-07
-0.000335164 8.97259e-05 -6.89954e-07
9.78456e-07 -6.89954e-07 -3.06841e-05
0.00182222 -0.000319006 1.45866e-06
-0.000319006 0.000129735 -1.93192e-06
1.45866e-06 -1.93192e-06 -7.34535e-06
0.00192422 -0.000330118 -3.76778e-06
-0.000330118 0.000208315 4.37893e-06
-3.76778e-06 4.37893e-06 7.93775e-05
0.00196814 -0.000338337 -1.68674e-06
-0.000338337 0.000253626 4.68011e-07
-1.68674e-06 4.68011e-07 9.7719e-05
0.00184622 -0.000320332 -1.13906e-06
-0.000320332 0.00022929 -1.63627e-06
-1.13906e-06 -1.63627e-06 4.94518e-05
0.00185906 -0.000369468 2.49225e-06
-0.000369468 0.000205894 2.3013e-06
2.49225e-06 2.3013e-06 1.44321e-05
0.00180962 -0.000348936 7.84886e-07
-0.000348936 0.000240064 -5.78105e-07
7.84886e-07 -5.78105e-07 3.75591e-05
0.00144679 -0.000276141 -6.93814e-06
-0.000276141 0.000135383 1.30174e-06
-6.93814e-06 1.30174e-06 -6.44356e-05
0.000890722 -0.000191303 -1.30296e-05
-0.000191303 -1.7048e-05 6.4939e-06
-1.30296e-05 6.4939e-06 -0.000187428
0.00131052 -0.000298697 -1.32219e-06
-0.000298697 0.000107337 6.71274e-08
-1.32219e-06 6.71274e-08 -0.000111233
0.00170965 -0.000392984 2.86779e-06
-0.000392984 0.000231428 3.75643e-07
2.86779e-06 3.75643e-07 -9.14382e-06
0.000497973 -0.000195919 -2.25035e-05
-0.000195919 -9.39426e-05 1.64515e-05
-2.25035e-05 1.64515e-05 -0.000203416
0.000853951 -0.000198149 5.41418e-07
-0.000198149 1.29649e-06 1.1401e-07
5.41418e-07 1.1401e-07 -0.000176648
0.00120784 -0.000301764 7.27282e-06
-0.000301764 0.000109633 -1.7535e-06
7.27282e-06 -1.7535e-06 -0.000118997
0.00569054 0.000143406 -0.000186022
0.000143406 0.00313981 1.07745e-05
-0.000186022 1.07745e-05 0.00312883
0.000527485 -0.000191311 -1.13273e-06
-0.000191311 -6.97669e-05 3.43642e-07
-1.13273e-06 3.43642e-07 -0.000170201
0.00077813 -0.000194062 1.03165e-05
-0.000194062 2.04476e-05 -6.03336e-06
1.03165e-05 -6.03336e-06 -0.000162773
0.00534221 0.000145552 3.30675e-06
0.000145552 0.00293807 3.50251e-07
3.30675e-06 3.50251e-07 0.00292613
0.000650589 -0.00015464 2.11534e-05
-0.00015464 2.36133e-05 -1.57659e-05
2.11534e-05 -1.57659e-05 -6.71841e-05
0.00484506 0.000119165 0.000167581
0.000119165 0.00263604 -1.23016e-05
0.000167581 -1.23016e-05 0.00263067
0.00115499 0.000354391 -2.76884e-06
0.000354391 6.45044e-05 2.294e-06
-2.76884e-06 2.294e-06 -0.000202017
0.00131476 0.00034979 -2.96716e-06
0.00034979 0.000249446 -1.01071e-06
-2.96716e-06 -1.01071e-06 -1.84463e-05
0.00114155 0.000271907 -5.87787e-06
0.000271907 0.000185991 -2.32443e-06
-5.87787e-06 -2.32443e-06 -3.88671e-05
0.00280606 0.000449685 -1.91223e-06
0.000449685 0.0012533 3.79787e-06
-1.91223e-06 3.79787e-06 0.000991181
0.000845186 0.000210214 -1.88438e-06
0.000210214 0.000116066 -1.62172e-06
-1.88438e-06 -1.62172e-06 -8.85169e-05
0.00104264 0.000197226 -4.56022e-06
0.000197226 0.000298845 -4.76027e-06
-4.56022e-06 -4.76027e-06 0.000116676
0.00019111 9.42741e-05 -2.25833e-06
9.42741e-05 -0.000212207 -5.26182e-07
-2.25833e-06 -5.26182e-07 -0.000374599
0.000638218 8.70287e-05 -4.06895e-07
8.70287e-05 6.07796e-05 -3.86293e-07
-4.06895e-07 -3.86293e-07 -7.85968e-05
0.000689394 2.97454e-05 -9.72466e-06
2.97454e-05 8.0694e-05 -1.24438e-05
-9.72466e-06 -1.24438e-05 2.14547e-05
0.000490376 2.3947e-05 3.80676e-07
2.3947e-05 -2.61767e-05 7.01204e-06
3.80676e-07 7.01204e-06 -0.000138689
0.000502308 -1.81877e-06 2.93699e-07
-1.81877e-06 -2.44782e-05 -1.68379e-07
2.93699e-07 -1.68379e-07 -7.35369e-05
0.0035551 -0.000135697 -9.98546e-05
-0.000135697 0.00185678 -4.06906e-06
-9.98546e-05 -4.06906e-06 0.00185264
0.000380174 -8.24246e-07 4.13012e-06
-8.24246e-07 -9.87268e-05 9.58815e-06
4.13012e-06 9.58815e-06 -0.000139778
0.00314749 -0.000132988 -5.24072e-06
-0.000132988 0.00160058 5.31256e-07
-5.24072e-06 5.31256e-07 0.00159722
0.00288999 -0.000117755 5.04778e-05
-0.000117755 0.00143368 3.84904e-06
5.04778e-05 3.84904e-06 0.0014341
0.000481794 7.96706e-05 1.13323e-05
7.96706e-05 -0.00121956 1.2685e-05
1.13323e-05 1.2685e-05 -0.000953773
0.0051939 3.71027e-05 5.8569e-05
3.71027e-05 0.000155838 2.75856e-06
5.8569e-05 2.75856e-06 0.000705322
0.0119208 0.000742918 -6.57311e-05
0.000742918 0.00292002 -1.82233e-05
-6.57311e-05 -1.82233e-05 0.00206447
0.001804 0.000538223 4.40233e-06
0.000538223 0.00032256 3.1091e-06
4.40233e-06 3.1091e-06 4.72613e-05
0.00188924 0.000524753 2.54539e-06
0.000524753 0.000273559 2.3411e-06
2.54539e-06 2.3411e-06 1.74495e-05
0.00119737 0.000425911 8.21691e-07
0.000425911 2.04237e-05 -3.01279e-06
8.21691e-07 -3.01279e-06 -0.000258545
0.00168844 0.000433136 -5.07488e-06
0.000433136 0.000607026 4.36448e-06
-5.07488e-06 4.36448e-06 0.000333832
0.00164911 0.000429018 -3.77483e-06
0.000429018 0.00046322 -3.21155e-06
-3.77483e-06 -3.21155e-06 0.000147723
0.00157495 0.000506872 7.49243e-06
0.000506872 0.000322806 2.00715e-06
7.49243e-06 2.00715e-06 5.24477e-05
0.00173065 0.000583302 5.95737e-08
0.000583302 0.000106707 -2.398e-06
5.95737e-08 -2.398e-06 -0.000133939
0.00207367 0.000573998 -1.31524e-05
0.000573998 0.000606216 -2.49682e-07
-1.31524e-05 -2.49682e-07 0.000364842
0.00132674 0.00055134 3.48888e-06
0.00055134 -3.25388e-05 1.53522e-05
3.48888e-06 1.53522e-05 -0.00015267
0.00237866 0.000685202 -1.98189e-06
0.000685202 0.000500478 1.3959e-06
-1.98189e-06 1.3959e-06 0.000265984
0.00222875 0.000601111 -7.71408e-06
0.000601111 0.000277138 -6.01455e-07
-7.71408e-06 -6.01455e-07 8.55307e-05
0.000816993 0.000307909 1.90196e-05
0.000307909 -0.000471218 1.1514e-05
1.90196e-05 1.1514e-05 -0.000492295
0.000947389 0.000521592 1.08477e-05
0.000521592 -0.000242129 -6.90563e-07
1.08477e-05 -6.90563e-07 -0.000396247
0.0011947 0.000613191 -2.00562e-05
0.000613191 -0.000107256 -5.12674e-06
-2.00562e-05 -5.12674e-06 -0.00030338
0.00243826 0.000576863 4.49993e-06
0.000576863 -1.05935e-05 8.65746e-06
4.49993e-06 8.65746e-06 3.40765e-05
0.00504162 0.000698246 3.20184e-06
0.000698246 -0.00071245 -2.17886e-05
3.20184e-06 -2.17886e-05 -0.00049685
0.00332335 0.000928751 -7.39195e-06
0.000928751 0.000796699 -3.38478e-05
-7.39195e-06 -3.38478e-05 0.000712244
0.00151135 -5.26362e-05 2.6582e-05
-5.26362e-05 -0.000109753 -5.95935e-07
2.6582e-05 -5.95935e-07 -7.40626e-05
0.00229162 -0.000165596 -3.57347e-05
-0.000165596 -0.000169775 9.25326e-07
-3.57347e-05 9.25326e-07 -8.29679e-05
0.00176387 0.000246599 1.81298e-05
0.000246599 -0.000597015 -1.17622e-05
1.81298e-05 -1.17622e-05 -0.000589986
9.5917e-05 -0.000278546 -3.78967e-05
-0.000278546 -0.00135329 2.87397e-05
-3.78967e-05 2.87397e-05 -0.0011312
0.00365523 -0.000297915 -0.000101816
-0.000297915 0.000569685 -3.06891e-06
-0.000101816 -3.06891e-06 0.000593256
0.00208828 -0.000260475 5.75173e-06
-0.000260475 -0.000159322 -3.36328e-06
5.75173e-06 -3.36328e-06 4.79732e-05
0.0024304 -7.19027e-05 -9.03831e-06
-7.19027e-05 0.000402355 4.38712e-07
-9.03831e-06 4.38712e-07 0.000373167
0.00216603 -0.000207875 5.88328e-06
-0.000207875 -8.95626e-06 3.81951e-07
5.88328e-06 3.81951e-07 3.67425e-05
0.00209278 -1.89527e-05 7.09231e-06
-1.89527e-05 -6.25091e-06 1.32577e-06
7.09231e-06 1.32577e-06 -7.90412e-06
0.0018883 -0.000368411 -1.02559e-05
-0.000368411 -0.000315231 3.51171e-06
-1.02559e-05 3.51171e-06 -0.000174115
0.00214983 -0.000328798 -2.07555e-06
-0.000328798 -7.24299e-05 2.71909e-07
-2.07555e-06 2.71909e-07 1.98137e-05
0.00209841 -0.000241234 -1.13446e-06
-0.000241234 -1.44798e-05 -4.27093e-07
-1.13446e-06 -4.27093e-07 -3.59311e-07
0.00204633 -0.00037659 -2.70073e-06
-0.00037659 4.05734e-05 -7.10787e-07
-2.70073e-06 -7.10787e-07 1.68682e-05
0.00202062 -0.000312948 -5.98782e-08
-0.000312948 5.35028e-05 8.95501e-08
-5.98782e-08 8.95501e-08 1.36836e-05
0.00195969 -0.000272649 -1.94543e-06
-0.000272649 6.02978e-05 6.68541e-07
-1.94543e-06 6.68541e-07 -8.07002e-06
0.00192501 -0.000358018 -1.00309e-07
-0.000358018 7.57068e-05 -1.75831e-06
-1.00309e-07 -1.75831e-06 -1.06405e-05
0.00184758 -0.000306922 5.79168e-07
-0.000306922 7.74407e-05 -1.82585e-07
5.79168e-07 -1.82585e-07 -2.47753e-05
0.00184145 -0.000283291 3.18286e-07
-0.000283291 9.88963e-05 -5.7336e-07
3.18286e-07 -5.7336e-07 -1.60401e-05
0.0017658 -0.000335002 1.90061e-07
-0.000335002 7.27281e-05 -5.0697e-07
1.90061e-07 -5.0697e-07 -4.81341e-05
0.00184937 -0.000320003 9.41839e-08
-0.000320003 0.00014659 -4.16043e-07
9.41839e-08 -4.16043e-07 9.28404e-06
0.00177918 -0.000293104 -3.55004e-07
-0.000293104 0.000151473 -1.41303e-06
-3.55004e-07 -1.41303e-06 -1.0344e-05
0.00200541 -0.000338024 -2.02851e-06
-0.000338024 0.000271471 3.75942e-06
-2.02851e-06 3.75942e-06 0.000119589
0.00184819 -0.000320847 -5.98373e-07
-0.000320847 0.000231336 -1.36231e-07
-5.98373e-07 -1.36231e-07 5.25752e-05
0.00144505 -0.000251113 -5.92254e-06
-0.000251113 0.000103221 1.11913e-06
-5.92254e-06 1.11913e-06 -8.33326e-05
0.00180899 -0.000351105 3.56411e-06
-0.000351105 0.000240314 1.04395e-06
3.56411e-06 1.04395e-06 3.70385e-05
0.00146448 -0.000278415 -3.42277e-07
-0.000278415 0.000146736 -1.55743e-08
-3.42277e-07 -1.55743e-08 -5.27745e-05
0.000942523 -0.000179029 -1.39801e-05
-0.000179029 -1.6088e-05 6.24902e-06
-1.39801e-05 6.24902e-06 -0.000179042
0.000415665 -0.000177753 -2.02006e-05
-0.000177753 -0.000154266 1.52959e-05
-2.02006e-05 1.52959e-05 -0.000262209
0.000923116 -0.000194437 1.86838e-07
-0.000194437 -3.99946e-07 7.10747e-08
1.86838e-07 7.10747e-08 -0.000171534
0.0013064 -0.00029669 5.71222e-06
-0.00029669 0.000109951 -1.31658e-06
5.71222e-06 -1.31658e-06 -0.000108988
0.0059693 6.92904e-05 -0.000215214
6.92904e-05 0.00328534 1.25495e-05
-0.000215214 1.25495e-05 0.00328572
0.000503565 -0.000191664 -1.55631e-06
-0.000191664 -9.79049e-05 9.38374e-07
-1.55631e-06 9.38374e-07 -0.000203403
0.000849837 -0.000199297 1.19522e-05
-0.000199297 -9.11583e-07 -6.07495e-06
1.19522e-05 -6.07495e-06 -0.000179689
0.0058037 0.000119222 -1.08807e-06
0.000119222 0.00320625 -1.08869e-07
-1.08807e-06 -1.08869e-07 0.00319649
0.000607706 -0.00019414 2.39388e-05
-0.00019414 -2.51417e-05 -1.63584e-05
2.39388e-05 -1.63584e-05 -0.000126931
0.00550865 0.000139754 0.000184018
0.000139754 0.00304247 -1.57698e-05
0.000184018 -1.57698e-05 0.00302767
0.00153993 0.00043157 -1.5198e-06
0.00043157 0.000182633 3.08106e-06
-1.5198e-06 3.08106e-06 -7.53061e-05
0.00131361 0.000375983 1.36173e-07
0.000375983 0.00015701 7.63289e-07
1.36173e-07 7.63289e-07 -0.000112951
0.00121097 0.000293585 -7.79252e-06
0.000293585 0.000136658 -1.71692e-06
-7.79252e-06 -1.71692e-06 -9.04587e-05
0.00178545 0.000396347 9.0344e-07
0.000396347 0.00053188 2.3665e-06
9.0344e-07 2.3665e-06 0.000254923
0.00103925 0.000258518 -1.79872e-06
0.000258518 0.000125831 2.40502e-07
-1.79872e-06 2.40502e-07 -9.46172e-05
0.000874323 0.000208758 -8.8924e-06
0.000208758 0.000130722 -4.15641e-06
-8.8924e-06 -4.15641e-06 -5.70725e-05
0.00112797 0.000238156 -2.08653e-06
0.000238156 0.000291092 1.19408e-07
-2.08653e-06 1.19408e-07 7.94704e-05
0.000764299 0.000166617 1.22669e-07
0.000166617 0.000138477 2.37107e-07
1.22669e-07 2.37107e-07 -4.12547e-05
0.00068971 9.49634e-05 -1.71383e-05
9.49634e-05 6.81719e-05 -1.4848e-05
-1.71383e-05 -1.4848e-05 -9.91674e-06
0.000467762 3.97785e-05 6.43729e-07
3.97785e-05 -4.66194e-05 5.52776e-06
6.43729e-07 5.52776e-06 -0.000177167
0.000484367 1.97715e-05 -7.06558e-07
1.97715e-05 -3.88721e-05 -5.57428e-07
-7.06558e-07 -5.57428e-07 -9.66897e-05
0.00405609 -0.00013803 -0.000129594
-0.00013803 0.00216689 -6.35821e-06
-0.000129594 -6.35821e-06 0.00216036
0.000399963 -1.45189e-06 4.94979e-06
-1.45189e-06 -8.47492e-05 1.07906e-05
4.94979e-06 1.07906e-05 -0.000133074
0.00340645 -0.000147513 -5.23164e-06
-0.000147513 0.00176828 5.13834e-07
-5.23164e-06 5.13834e-07 0.00176069
0.00307826 -0.000135777 6.0693e-05
-0.000135777 0.00155869 3.63643e-06
6.0693e-05 3.63643e-06 0.00155425
0.000668433 8.99583e-05 2.12691e-05
8.99583e-05 -0.000608813 1.18741e-05
2.12691e-05 1.18741e-05 -0.000500712
0.00223516 7.62563e-05 -9.53322e-06
7.62563e-05 -0.000506298 -2.55187e-06
-9.53322e-06 -2.55187e-06 -0.000216679
0.00397743 0.000113726 0.00016199
0.000113726 -0.00098104 4.32684e-05
0.00016199 4.32684e-05 2.18132e-05
0.00244273 0.000591658 -3.49497e-06
0.000591658 0.000520321 -3.5708e-07
-3.49497e-06 -3.5708e-07 0.000274055
0.00167218 0.00054573 -3.89658e-06
0.00054573 0.00022995 -4.10367e-06
-3.89658e-06 -4.10367e-06 -4.21469e-05
0.00201447 0.000445925 -7.47915e-07
0.000445925 0.000204397 3.50437e-06
-7.47915e-07 3.50437e-06 4.23622e-06
0.00187245 0.00051557 9.4178e-07
0.00051557 0.000261518 2.90194e-07
9.4178e-07 2.90194e-07 7.88979e-06
0.00127233 0.000438116 3.11544e-07
0.000438116 7.47717e-05 -8.88093e-06
3.11544e-07 -8.88093e-06 -0.000203975
0.00181731 0.000461899 -8.05608e-07
0.000461899 2.37655e-05 1.02932e-06
-8.05608e-07 1.02932e-06 -0.000156465
0.0020432 0.000556866 -6.40317e-06
0.000556866 0.000575504 -2.56639e-06
-6.40317e-06 -2.56639e-06 0.000300177
0.00200188 0.000597127 1.14853e-07
0.000597127 0.00027968 -2.08378e-07
1.14853e-07 -2.08378e-07 3.56715e-05
0.00189185 0.000347341 -7.57552e-06
0.000347341 -5.48587e-05 -5.40176e-07
-7.57552e-06 -5.40176e-07 -0.000133075
0.00287379 0.000730874 -1.41206e-06
0.000730874 0.000771874 4.21932e-06
-1.41206e-06 4.21932e-06 0.000534859
0.00210131 0.000595648 -1.37009e-06
0.000595648 0.000197448 -1.07543e-07
-1.37009e-06 -1.07543e-07 3.54812e-06
0.000859515 0.000314724 5.46128e-06
0.000314724 -0.000410263 3.4029e-06
5.46128e-06 3.4029e-06 -0.000439131
-0.000503529 0.000407647 -1.21592e-05
0.000407647 -0.000989118 -2.19514e-06
-1.21592e-05 -2.19514e-06 -0.00112807
0.0026228 0.000603271 -7.36496e-05
0.000603271 6.76071e-05 -2.72569e-05
-7.36496e-05 -2.72569e-05 5.84863e-05
0.00195773 5.15103e-05 -6.80408e-07
5.15103e-05 -0.000111644 -5.80279e-07
-6.80408e-07 -5.80279e-07 -7.82412e-05
0.00227986 -4.94266e-05 2.59416e-06
-4.94266e-05 0.000383457 8.28092e-07
2.59416e-06 8.28092e-07 0.000414311
0.00176814 -0.000122644 -6.0724e-05
-0.000122644 -0.000333086 9.22461e-07
-6.0724e-05 9.22461e-07 -0.000373869
0.00233464 -0.000287476 -4.49689e-05
-0.000287476 5.3504e-05 3.49254e-06
-4.49689e-05 3.49254e-06 0.00022858
0.001512 -8.79063e-05 -1.04899e-05
-8.79063e-05 -0.00018115 8.45174e-07
-1.04899e-05 8.45174e-07 -0.000200818
0.0021002 -0.000203523 -2.75848e-08
-0.000203523 -5.24195e-05 -1.04122e-06
-2.75848e-08 -1.04122e-06 7.92998e-06
0.00214413 -2.02123e-05 -1.48007e-06
-2.02123e-05 -3.11581e-07 1.33199e-06
-1.48007e-06 1.33199e-06 4.8497e-06
0.0021622 -7.23435e-05 -1.246e-06
-7.23435e-05 5.73104e-06 -3.48889e-07
-1.246e-06 -3.48889e-07 2.64165e-05
0.0021589 -0.000328422 -4.25962e-06
-0.000328422 -4.903e-05 6.16068e-07
-4.25962e-06 6.16068e-07 2.14761e-05
0.00207692 -0.000232292 4.21951e-07
-0.000232292 -1.35643e-05 -1.66889e-07
4.21951e-07 -1.66889e-07 -2.6333e-06
0.00201345 -0.000185847 -1.84872e-06
-0.000185847 1.2707e-05 2.18523e-07
-1.84872e-06 2.18523e-07 -3.94897e-06
0.0020198 -0.000309867 1.14428e-06
-0.000309867 6.36232e-05 -9.36321e-07
1.14428e-06 -9.36321e-07 1.96647e-05
0.00193299 -0.000268582 2.34605e-07
-0.000268582 5.13395e-05 4.66758e-08
2.34605e-07 4.66758e-08 -1.83072e-05
0.00189765 -0.000226372 -7.53123e-07
-0.000226372 9.01066e-05 -8.84824e-08
-7.53123e-07 -8.84824e-08 1.91532e-08
0.00178433 -0.000302573 1.75155e-06
-0.000302573 3.64282e-05 -1.04165e-06
1.75155e-06 -1.04165e-06 -6.60445e-05
0.00187138 -0.00028426 1.72446e-07
-0.00028426 0.000115452 -1.76875e-07
1.72446e-07 -1.76875e-07 2.80875e-07
0.00182 -0.000258115 2.031e-07
-0.000258115 0.000131706 -1.24917e-06
2.031e-07 -1.24917e-06 -8.87315e-06
0.00187476 -0.000320926 -5.67896e-07
-0.000320926 0.000162439 9.31299e-07
-5.67896e-07 9.31299e-07 2.49104e-05
0.00180927 -0.000294238 -3.27601e-07
-0.000294238 0.000170567 -4.46783e-08
-3.27601e-07 -4.46783e-08 8.88931e-06
0.00149475 -0.000228795 -4.13603e-06
-0.000228795 0.000101034 7.52083e-07
-4.13603e-06 7.52083e-07 -7.33508e-05
0.00185039 -0.000321271 5.58044e-07
-0.000321271 0.000233392 1.50044e-06
5.58044e-07 1.50044e-06 5.57439e-05
0.00147295 -0.000252676 -3.12278e-07
-0.000252676 0.00011925 8.29613e-08
-3.12278e-07 8.29613e-08 -6.70085e-05
0.000957967 -0.000160906 -1.42246e-05
-0.000160906 -2.51845e-05 5.67712e-06
-1.42246e-05 5.67712e-06 -0.000181681
0.0014788 -0.000280506 5.99467e-06
-0.000280506 0.000156054 -9.60519e-07
5.99467e-06 -9.60519e-07 -4.31288e-05
0.000964353 -0.000179453 1.84689e-07
-0.000179453 -5.32568e-06 8.86695e-08
1.84689e-07 8.86695e-08 -0.00016805
0.00253529 -0.000139422 -3.71256e-05
-0.000139422 0.00111654 9.74638e-06
-3.71256e-05 9.74638e-06 0.00103023
0.00185141 -6.63465e-05 -0.000206914
-6.63465e-05 0.000773705 2.48639e-05
-0.000206914 2.48639e-05 0.000755825
0.0015529 -0.000170464 -8.38328e-06
-0.000170464 0.000529711 -3.87092e-07
-8.38328e-06 -3.87092e-07 0.000429679
0.000948237 -0.000196993 1.29403e-05
-0.000196993 1.21986e-05 -6.06879e-06
1.29403e-05 -6.06879e-06 -0.000159634
0.00603691 5.22506e-05 -6.76028e-06
5.22506e-05 0.003333 3.47978e-08
-6.76028e-06 3.47978e-08 0.00333007
0.000540478 -0.000217737 2.46562e-05
-0.000217737 -7.7215e-05 -1.59366e-05
2.46562e-05 -1.59366e-05 -0.000184637
0.00590549 9.83385e-05 0.000208838
9.83385e-05 0.00327255 -1.85396e-05
0.000208838 -1.85396e-05 0.00326056
0.0020015 0.000344983 1.3494e-08
0.000344983 0.000169152 4.22109e-07
1.3494e-08 4.22109e-07 8.95356e-06
0.00182403 0.00042702 1.75588e-06
0.00042702 0.00022748 3.83881e-06
1.75588e-06 3.83881e-06 2.47697e-06
0.0017903 0.000455161 6.8704e-08
0.000455161 0.000322993 2.10533e-07
6.8704e-08 2.10533e-07 6.31259e-05
0.00125969 0.000313385 -6.88674e-06
0.000313385 0.000106066 -9.32284e-07
-6.88674e-06 -9.32284e-07 -0.000119403
0.0014751 0.000399222 4.74152e-06
0.000399222 0.000249441 1.51337e-07
4.74152e-06 1.51337e-07 -2.45016e-05
0.00116416 0.000285619 -4.81826e-07
0.000285619 0.000112225 3.27976e-07
-4.81826e-07 3.27976e-07 -0.000112937
0.000814411 0.000193185 -1.11783e-05
0.000193185 7.75687e-06 -5.59098e-06
-1.11783e-05 -5.59098e-06 -0.000167864
0.00109735 0.000260895 4.48582e-06
0.000260895 0.000162154 3.7503e-06
4.48582e-06 3.7503e-06 -5.67539e-05
0.000770966 0.000193135 1.84818e-07
0.000193135 6.47587e-05 9.87818e-07
1.84818e-07 9.87818e-07 -0.000121455
0.000632776 0.000183206 -2.381e-05
0.000183206 1.51765e-05 -1.62658e-05
-2.381e-05 -1.62658e-05 -8.31094e-05
0.000441807 0.00013453 1.52238e-06
0.00013453 -5.50036e-05 3.89002e-06
1.52238e-06 3.89002e-06 -0.000230527
0.000570204 8.46594e-05 -1.852e-06
8.46594e-05 -1.72132e-06 -5.76208e-07
-1.852e-06 -5.76208e-07 -7.53391e-05
0.00491539 -0.000136659 -0.000170313
-0.000136659 0.0026934 -1.18035e-05
-0.000170313 -1.18035e-05 0.00268107
0.000347535 9.81258e-06 6.42976e-06
9.81258e-06 -0.000116113 1.20811e-05
6.42976e-06 1.20811e-05 -0.000173934
0.00387787 -0.0001648 -6.86686e-06
-0.0001648 0.00206527 5.40709e-07
-6.86686e-06 5.40709e-07 0.00205225
0.0033463 -0.000154558 7.38436e-05
-0.000154558 0.00173239 3.40063e-06
7.38436e-05 3.40063e-06 0.00172281
0.00206439 0.000178838 -2.20072e-06
0.000178838 -5.91794e-05 -2.68926e-07
-2.20072e-06 -2.68926e-07 -3.39854e-05
0.00196254 6.45736e-05 2.12972e-05
6.45736e-05 6.41031e-05 -2.42729e-06
2.12972e-05 -2.42729e-06 0.000160856
0.00459414 0.000109828 -0.000105577
0.000109828 0.000495067 -1.49069e-05
-0.000105577 -1.49069e-05 0.000836966
0.00187226 0.000398223 -4.15641e-06
0.000398223 7.12733e-05 1.1971e-06
-4.15641e-06 1.1971e-06 -9.45285e-05
0.00202972 0.000551078 -2.91788e-06
0.000551078 0.000298065 -1.40804e-07
-2.91788e-06 -1.40804e-07 5.68011e-05
0.00156917 0.000555309 -8.98565e-06
0.000555309 0.000155572 -7.89911e-06
-8.98565e-06 -7.89911e-06 -0.000113181
0.00211576 0.000439697 2.9464e-06
0.000439697 0.000281228 1.18073e-06
2.9464e-06 1.18073e-06 8.36274e-05
0.0018347 0.000505567 -1.38423e-06
0.000505567 0.000237925 -3.40698e-06
-1.38423e-06 -3.40698e-06 -1.32939e-05
0.00222955 0.000335485 -8.90348e-07
0.000335485 0.000147793 1.13946e-07
-8.90348e-07 1.13946e-07 5.73432e-05
0.00174212 0.000457306 2.39258e-08
0.000457306 5.73267e-06 8.78021e-07
2.39258e-08 8.78021e-07 -0.000175292
0.00234143 0.000617229 -5.27788e-06
0.000617229 0.000490364 -8.17729e-07
-5.27788e-06 -8.17729e-07 0.000241611
0.00192037 0.000347652 -8.58202e-07
0.000347652 -3.29633e-05 -5.25615e-07
-8.58202e-07 -5.25615e-07 -0.000111166
0.00208835 0.00059719 1.49423e-05
0.00059719 0.000172566 3.41044e-06
1.49423e-05 3.41044e-06 -2.48078e-05
0.00107008 0.000315173 -3.28922e-05
0.000315173 -0.000268953 -9.434e-06
-3.28922e-05 -9.434e-06 -0.00030473
0.00212671 6.01838e-05 -8.1841e-07
6.01838e-05 -3.42871e-06 3.14096e-07
-8.1841e-07 3.14096e-07 1.88265e-05
0.00207233 6.22171e-05 -1.80321e-06
6.22171e-05 -2.97067e-05 2.66252e-07
-1.80321e-06 2.66252e-07 -3.65694e-07
0.0029755 -4.23908e-05 -3.96343e-05
-4.23908e-05 0.000838988 3.11148e-06
-3.96343e-05 3.11148e-06 0.000861926
0.00202672 -0.000197096 -1.09408e-05
-0.000197096 -0.000104269 3.53306e-07
-1.09408e-05 3.53306e-07 -3.02734e-05
0.00219638 -1.82021e-05 -4.28274e-06
-1.82021e-05 2.06372e-06 -2.58778e-06
-4.28274e-06 -2.58778e-06 1.34885e-05
0.00213175 -7.71437e-05 -4.16351e-07
-7.71437e-05 -3.00996e-05 -7.04086e-09
-4.16351e-07 -7.04086e-09 -3.38219e-06
0.00193212 -5.88704e-05 -2.13135e-06
-5.88704e-05 -3.86823e-06 2.60753e-07
-2.13135e-06 2.60753e-07 -1.03132e-05
0.0020547 -0.000222241 1.23952e-06
-0.000222241 -1.09885e-05 1.76274e-08
1.23952e-06 1.76274e-08 -3.73505e-06
0.001983 -0.000188498 -4.91179e-09
-0.000188498 3.85218e-06 3.3063e-08
-4.91179e-09 3.3063e-08 -1.68809e-05
0.00193944 -0.000156419 6.14713e-07
-0.000156419 8.15093e-05 -5.27904e-07
6.14713e-07 -5.27904e-07 1.6644e-05
0.00191136 -0.000264568 2.29883e-06
-0.000264568 4.63189e-05 -7.44149e-07
2.29883e-06 -7.44149e-07 -2.48508e-05
0.0018914 -0.000226544 -6.82785e-08
-0.000226544 7.96069e-05 -3.10031e-08
-6.82785e-08 -3.10031e-08 -1.07532e-05
0.00184645 -0.000211821 9.4231e-08
-0.000211821 0.000103122 -8.8676e-07
9.4231e-08 -8.8676e-07 -1.74106e-05
0.00190333 -0.000285209 7.07282e-07
-0.000285209 0.000133512 1.53889e-07
7.07282e-07 1.53889e-07 1.81303e-05
0.00184935 -0.000259346 -2.88196e-07
-0.000259346 0.000149336 -5.29576e-08
-2.88196e-07 -5.29576e-08 8.74929e-06
0.00154372 -0.000200968 -2.94716e-06
-0.000200968 9.81418e-05 3.95382e-07
-2.94716e-06 3.95382e-07 -6.36447e-05
0.00184025 -0.000295455 2.98227e-08
-0.000295455 0.000190217 1.21077e-06
2.98227e-08 1.21077e-06 2.86667e-05
0.00151907 -0.000230154 -2.60589e-07
-0.000230154 0.000113877 7.78864e-08
-2.60589e-07 7.78864e-08 -6.01831e-05
0.000974801 -0.000143643 -1.37524e-05
-0.000143643 -2.93588e-05 4.85366e-06
-1.37524e-05 4.85366e-06 -0.000181503
0.00150002 -0.000254212 4.99627e-06
-0.000254212 0.000134816 -9.01167e-07
4.99627e-06 -9.01167e-07 -5.11461e-05
0.000988511 -0.000161113 6.38007e-08
-0.000161113 -9.80969e-06 1.28363e-07
6.38007e-08 1.28363e-07 -0.00016576
0.00256697 -0.000142066 -4.51028e-05
-0.000142066 0.00112378 9.06718e-06
-4.51028e-05 9.06718e-06 0.00104497
0.000982937 -0.000180043 1.39942e-05
-0.000180043 3.56018e-06 -5.99154e-06
1.39942e-05 -5.99154e-06 -0.000158996
0.0026835 -0.000181678 4.12433e-05
-0.000181678 0.00120395 -5.75572e-06
4.12433e-05 -5.75572e-06 0.00112409
0.00189774 -0.000105195 -0.000209417
-0.000105195 0.000808208 2.9357e-05
-0.000209417 2.9357e-05 0.000788243
0.00385962 -5.4579e-05 -0.000205017
-5.4579e-05 0.00201009 1.64154e-05
-0.000205017 1.64154e-05 0.00200024
0.00275989 -0.000236173 0.000131379
-0.000236173 0.00126018 -1.9482e-05
0.000131379 -1.9482e-05 0.00118122
0.00608973 3.81672e-05 0.000223923
3.81672e-05 0.00337434 -2.18285e-05
0.000223923 -2.18285e-05 0.00336704
0.0021705 0.000341509 -2.65242e-06
0.000341509 0.000260571 -8.26035e-07
-2.65242e-06 -8.26035e-07 0.000120584
0.00168638 0.000332564 2.65411e-06
0.000332564 8.90077e-05 1.3314e-06
2.65411e-06 1.3314e-06 -9.54616e-05
0.00199938 0.000339702 4.86363e-07
0.000339702 0.00016932 -1.55715e-06
4.86363e-07 -1.55715e-06 1.52747e-05
0.00146048 0.000318681 -5.57904e-06
0.000318681 0.000145138 -1.94058e-07
-5.57904e-06 -1.94058e-07 -6.80395e-05
0.00190908 0.000431809 5.0169e-07
0.000431809 0.00026721 4.5786e-07
5.0169e-07 4.5786e-07 4.14118e-05
0.0020586 0.000480498 1.76215e-06
0.000480498 0.000474115 -2.57955e-06
1.76215e-06 -2.57955e-06 0.000212002
0.00130657 0.000317195 5.28147e-08
0.000317195 0.000134193 2.27224e-07
5.28147e-08 2.27224e-07 -9.24435e-05
0.000908521 0.000203163 -1.28275e-05
0.000203163 6.18483e-06 -5.86582e-06
-1.28275e-05 -5.86582e-06 -0.000167212
0.00120523 0.000284738 8.62905e-06
0.000284738 0.000141649 3.22538e-06
8.62905e-06 3.22538e-06 -8.27353e-05
0.000788452 0.000188706 -1.67651e-07
0.000188706 -1.18939e-05 -1.4676e-07
-1.67651e-07 -1.4676e-07 -0.00018557
0.000527734 0.000218534 -2.53522e-05
0.000218534 -6.9196e-05 -1.66596e-05
-2.53522e-05 -1.66596e-05 -0.000175559
0.000575168 0.000177341 5.65719e-06
0.000177341 -5.49198e-05 4.55005e-06
5.65719e-06 4.55005e-06 -0.00023949
0.000500875 0.000151757 1.07042e-06
0.000151757 -6.66015e-05 3.69081e-07
1.07042e-06 3.69081e-07 -0.000158273
0.00572842 -0.000139013 -0.00019348
-0.000139013 0.00319912 -1.90967e-05
-0.00019348 -1.90967e-05 0.00317382
0.00028969 5.33763e-05 1.12615e-05
5.33763e-05 -0.000164632 1.40506e-05
1.12615e-05 1.40506e-05 -0.000234193
0.00462155 -0.000182466 -1.18371e-05
-0.000182466 0.00252558 8.19216e-07
-1.18371e-05 8.19216e-07 0.00250512
0.00367329 -0.000174574 8.73478e-05
-0.000174574 0.00194317 3.63874e-06
8.73478e-05 3.63874e-06 0.0019274
0.00211327 0.000197322 -1.60461e-06
0.000197322 4.6573e-06 1.74189e-07
-1.60461e-06 1.74189e-07 -6.60689e-06
0.0019998 0.000181167 1.06014e-06
0.000181167 -9.1511e-05 -9.22118e-08
1.06014e-06 -9.22118e-08 -6.73946e-05
0.00304024 4.55819e-05 -7.6983e-05
4.55819e-05 0.000626833 -1.03286e-05
-7.6983e-05 -1.03286e-05 0.000718771
0.00207809 0.000295233 -1.73386e-07
0.000295233 0.000130193 2.80719e-07
-1.73386e-07 2.80719e-07 2.143e-05
0.00192389 0.000398202 -9.81239e-08
0.000398202 0.000123602 4.32476e-07
-9.81239e-08 4.32476e-07 -4.26801e-05
0.00161557 0.00050941 1.12465e-06
0.00050941 7.47116e-05 -1.75213e-06
1.12465e-06 -1.75213e-06 -0.000161246
0.0022254 0.000433687 1.71176e-08
0.000433687 0.00036356 -2.55924e-06
1.71176e-08 -2.55924e-06 0.000168568
0.00211275 0.000323232 -6.37877e-07
0.000323232 8.62706e-05 6.92042e-10
-6.37877e-07 6.92042e-10 -2.77085e-06
0.00167586 0.00045341 -3.90705e-06
0.00045341 -6.88956e-06 2.29909e-07
-3.90705e-06 2.29909e-07 -0.000188877
0.00186784 0.000343854 9.82114e-06
0.000343854 -3.90167e-05 8.47716e-07
9.82114e-06 8.47716e-07 -0.00011742
0.00198862 5.38526e-05 -3.49665e-07
5.38526e-05 5.94339e-06 3.8822e-07
-3.49665e-07 3.8822e-07 7.1483e-06
0.00208844 5.86136e-05 -1.13473e-08
5.86136e-05 -1.4485e-05 -8.3036e-08
-1.13473e-08 -8.3036e-08 4.48865e-06
0.00217102 7.51648e-05 -8.11001e-06
7.51648e-05 4.53977e-05 -6.72073e-07
-8.11001e-06 -6.72073e-07 7.06337e-05
0.00187134 -9.03968e-06 -5.0574e-06
-9.03968e-06 1.23226e-05 4.10025e-07
-5.0574e-06 4.10025e-07 -7.65573e-06
0.00210777 -8.69792e-05 1.64172e-06
-8.69792e-05 -6.13141e-05 -4.06269e-07
1.64172e-06 -4.06269e-07 -2.84783e-05
0.00195862 -6.19338e-05 -6.65504e-07
-6.19338e-05 8.38376e-06 2.26671e-07
-6.65504e-07 2.26671e-07 2.80478e-06
0.00188023 -9.01936e-05 -3.71062e-06
-9.01936e-05 3.36161e-05 4.95604e-07
-3.71062e-06 4.95604e-07 -1.31386e-05
0.00195233 -0.000191069 2.45356e-06
-0.000191069 -5.84226e-06 -4.36581e-07
2.45356e-06 -4.36581e-07 -3.05579e-05
0.00189263 -0.000154272 2.00629e-06
-0.000154272 4.90452e-05 -6.33845e-07
2.00629e-06 -6.33845e-07 -1.54641e-05
0.00187572 -0.000149448 2.48264e-06
-0.000149448 0.000100212 -1.36174e-06
2.48264e-06 -1.36174e-06 -3.19322e-06
0.00189051 -0.000226397 1.38567e-06
-0.000226397 7.21407e-05 -2.77535e-08
1.38567e-06 -2.77535e-08 -1.84066e-05
0.00188089 -0.000211279 -1.26114e-07
-0.000211279 0.000127238 -2.18957e-07
-1.26114e-07 -2.18957e-07 7.02314e-06
0.00158058 -0.000162488 -2.08894e-06
-0.000162488 9.28145e-05 9.03902e-08
-2.08894e-06 9.03902e-08 -5.52525e-05
0.00187671 -0.000260327 -1.87541e-07
-0.000260327 0.000166219 9.83684e-07
-1.87541e-07 9.83684e-07 2.56657e-05
0.0015562 -0.000200875 -2.31773e-07
-0.000200875 0.000104333 7.23635e-08
-2.31773e-07 7.23635e-08 -5.69544e-05
0.000986743 -0.000123626 -1.30866e-05
-0.000123626 -3.54918e-05 3.86073e-06
-1.30866e-05 3.86073e-06 -0.000182959
0.00154247 -0.000231362 3.45532e-06
-0.000231362 0.000126296 -5.96125e-07
3.45532e-06 -5.96125e-07 -4.74089e-05
0.00100496 -0.000142889 -3.66163e-08
-0.000142889 -1.41735e-05 2.09835e-07
-3.66163e-08 2.09835e-07 -0.000165481
0.00257597 -0.000144794 -5.28349e-05
-0.000144794 0.0011247 8.87396e-06
-5.28349e-05 8.87396e-06 0.00104851
0.00102019 -0.000161428 1.41235e-05
-0.000161428 6.00243e-06 -5.45774e-06
1.41235e-05 -5.45774e-06 -0.000149364
0.00266032 -0.000168973 3.77001e-05
-0.000168973 0.0011796 -4.67554e-06
3.77001e-05 -4.67554e-06 0.00110596
0.00194631 -9.09229e-05 -0.000205164
-9.09229e-05 0.000831278 2.60107e-05
-0.000205164 2.60107e-05 0.000813034
0.00281332 -0.000194275 0.000129138
-0.000194275 0.00127845 -2.10289e-05
0.000129138 -2.10289e-05 0.00120537
0.00163696 -4.41271e-05 -8.97266e-05
-4.41271e-05 0.000654184 1.15138e-05
-8.97266e-05 1.15138e-05 0.000623859
0.00575066 0.000109034 5.31542e-05
0.000109034 0.00315479 -2.35019e-06
5.31542e-05 -2.35019e-06 0.00313238
0.00197966 0.000285365 3.12056e-07
0.000285365 0.00012902 1.40897e-07
3.12056e-07 1.40897e-07 2.6496e-06
0.00197366 0.000315728 -1.34045e-07
0.000315728 0.000216149 -6.0389e-07
-1.34045e-07 -6.0389e-07 5.55207e-05
0.0020601 0.000337933 -3.80857e-06
0.000337933 0.000187486 4.04743e-08
-3.80857e-06 4.04743e-08 4.49008e-05
0.00171126 0.000293843 -2.73151e-06
0.000293843 0.000239193 -2.1242e-07
-2.73151e-06 -2.1242e-07 4.76732e-05
0.00170175 0.0003385 -1.15882e-07
0.0003385 8.5867e-05 -1.76934e-06
-1.15882e-07 -1.76934e-06 -9.58613e-05
0.00200626 0.000334994 -3.18217e-06
0.000334994 0.00017495 -4.41446e-06
-3.18217e-06 -4.41446e-06 2.69901e-05
0.000976407 0.000201279 -1.41447e-05
0.000201279 -4.42668e-06 -5.50862e-06
-1.41447e-05 -5.50862e-06 -0.000172697
0.0014146 0.000316219 3.58835e-07
0.000316219 0.000115907 3.25773e-07
3.58835e-07 3.25773e-07 -9.76561e-05
0.00198105 0.000435431 2.99449e-06
0.000435431 0.000298378 -2.53977e-06
2.99449e-06 -2.53977e-06 7.19781e-05
0.00129355 0.000316019 7.9692e-06
0.000316019 0.000126947 1.75819e-06
7.9692e-06 1.75819e-06 -0.000100106
0.000868341 0.000198099 -7.58495e-07
0.000198099 -1.45014e-05 2.09926e-08
-7.58495e-07 2.09926e-08 -0.000186395
0.000489878 0.00022399 -2.51971e-05
0.00022399 -9.56183e-05 -1.61533e-05
-2.51971e-05 -1.61533e-05 -0.000206897
0.00070476 0.000180945 1.07935e-05
0.000180945 -6.58851e-05 5.17841e-06
1.07935e-05 5.17841e-06 -0.000237172
0.000479436 0.000205843 2.14594e-06
0.000205843 -9.25156e-05 5.85277e-07
2.14594e-06 5.85277e-07 -0.000199219
0.00609518 -6.44534e-05 -0.000214219
-6.44534e-05 0.00340617 -2.37194e-05
-0.000214219 -2.37194e-05 0.00338589
0.000472667 0.000140759 2.14082e-05
0.000140759 -8.91614e-05 1.58392e-05
2.14082e-05 1.58392e-05 -0.000174134
0.00546099 -0.000157223 -3.09908e-06
-0.000157223 0.00302493 -2.82267e-07
-3.09908e-06 -2.82267e-07 0.00300609
0.00430311 -0.000206832 0.000105478
-0.000206832 0.0023401 5.35303e-06
0.000105478 5.35303e-06 0.00231388
0.00203101 0.000159268 -1.84671e-06
0.000159268 7.19128e-05 5.33522e-07
-1.84671e-06 5.33522e-07 2.51587e-05
0.00212189 0.000200905 3.09698e-07
0.000200905 1.89855e-06 4.71526e-07
3.09698e-07 4.71526e-07 -6.71265e-06
0.00199377 0.000184659 2.62351e-06
0.000184659 -0.000101022 2.98323e-07
2.62351e-06 2.98323e-07 -7.74973e-05
0.00205027 0.000289255 2.97042e-07
0.000289255 0.000119812 3.01134e-08
2.97042e-07 3.01134e-08 1.46118e-05
0.00195981 0.000396918 -3.11622e-07
0.000396918 0.000167673 -6.35894e-07
-3.11622e-07 -6.35894e-07 1.09984e-06
0.00200729 0.00031119 9.79906e-07
0.00031119 2.91041e-05 -3.57115e-07
9.79906e-07 -3.57115e-07 -5.83422e-05
0.00191976 5.89232e-05 -3.13765e-06
5.89232e-05 2.39293e-05 1.61853e-07
-3.13765e-06 1.61853e-07 4.25638e-06
0.00198325 5.01088e-05 3.57773e-07
5.01088e-05 8.0404e-06 -8.30405e-08
3.57773e-07 -8.30405e-08 5.88295e-06
0.00204934 5.73248e-05 1.07192e-06
5.73248e-05 -2.76247e-05 -1.62692e-07
1.07192e-06 -1.62692e-07 -1.14401e-05
0.00188598 -1.15002e-05 -1.51146e-06
-1.15002e-05 1.82708e-05 9.60238e-08
-1.51146e-06 9.60238e-08 -2.21099e-06
0.00179639 -3.41257e-05 -5.01839e-06
-3.41257e-05 -5.84136e-06 1.1472e-07
-5.01839e-06 1.1472e-07 -5.69275e-05
0.00198517 -6.48413e-05 2.00347e-06
-6.48413e-05 2.05817e-05 -2.31565e-07
2.00347e-06 -2.31565e-07 1.5881e-05
0.00186231 -8.79431e-05 -1.88479e-06
-8.79431e-05 2.77018e-05 4.30597e-07
-1.88479e-06 4.30597e-07 -2.24604e-05
0.00188423 -9.05773e-05 -1.49338e-06
-9.05773e-05 9.92458e-05 -2.92822e-07
-1.49338e-06 -2.92822e-07 1.40752e-05
0.00184002 -0.000152252 3.98216e-06
-0.000152252 1.40744e-05 -7.52915e-07
3.98216e-06 -7.52915e-07 -5.01474e-05
0.00187968 -0.000150983 2.78475e-06
-0.000150983 0.000102986 -8.1414e-07
2.78475e-06 -8.1414e-07 -5.79182e-07
0.00160997 -0.000115904 -4.12848e-07
-0.000115904 8.98567e-05 -5.77146e-07
-4.12848e-07 -5.77146e-07 -4.53579e-05
0.00190145 -0.000212007 -4.33468e-07
-0.000212007 0.000142017 4.36116e-07
-4.33468e-07 4.36116e-07 2.18185e-05
0.00158664 -0.000162962 -1.43039e-07
-0.000162962 9.29381e-05 5.78834e-08
-1.43039e-07 5.78834e-08 -5.49186e-05
0.000997856 -9.86391e-05 -1.25825e-05
-9.86391e-05 -4.06218e-05 2.8577e-06
-1.25825e-05 2.8577e-06 -0.00018191
0.00157268 -0.000201088 2.26726e-06
-0.000201088 0.000111983 -2.4852e-07
2.26726e-06 -2.4852e-07 -4.88371e-05
0.00101587 -0.000122294 -1.82158e-07
-0.000122294 -2.04226e-05 2.48929e-07
-1.82158e-07 2.48929e-07 -0.000167065
0.00254618 -0.000153153 -5.61251e-05
-0.000153153 0.00110384 7.9091e-06
-5.61251e-05 7.9091e-06 0.00102824
0.00103515 -0.000142209 1.36293e-05
-0.000142209 8.07259e-07 -4.50786e-06
1.36293e-05 -4.50786e-06 -0.000149646
0.00264274 -0.000149141 3.62476e-05
-0.000149141 0.00116098 -3.54989e-06
3.62476e-05 -3.54989e-06 0.00109083
0.00197558 -7.69562e-05 -0.000204766
-7.69562e-05 0.000842117 2.2165e-05
-0.000204766 2.2165e-05 0.000824754
0.00275354 -0.000165484 0.000127006
-0.000165484 0.00123001 -1.80485e-05
0.000127006 -1.80485e-05 0.00116397
0.00164143 -5.30448e-05 -8.14257e-05
-5.30448e-05 0.000650807 9.56717e-06
-8.14257e-05 9.56717e-06 0.00062325
0.00141739 -4.0132e-05 4.39459e-05
-4.0132e-05 0.00052769 -6.67168e-06
4.39459e-05 -6.67168e-06 0.00048696
0.00197205 0.000176732 -1.58849e-06
0.000176732 0.000100947 1.38793e-06
-1.58849e-06 1.38793e-06 1.29433e-05
0.001939 0.000263407 -1.2896e-06
0.000263407 0.000161244 4.04942e-07
-1.2896e-06 4.04942e-07 1.90643e-05
0.00194109 0.000285424 -5.85897e-07
0.000285424 9.34727e-05 -8.94495e-08
-5.85897e-07 -8.94495e-08 -2.98578e-05
0.00182974 0.000271203 -1.81629e-06
0.000271203 0.000261213 -1.64882e-08
-1.81629e-06 -1.64882e-08 8.88943e-05
0.00190594 0.000310484 -1.31721e-07
0.000310484 0.000183146 -1.70296e-07
-1.31721e-07 -1.70296e-07 2.10883e-05
0.00194279 0.000334299 8.85028e-07
0.000334299 0.000110446 2.83652e-07
8.85028e-07 2.83652e-07 -3.48053e-05
0.0010395 0.000185701 -1.4709e-05
0.000185701 4.80922e-06 -5.08298e-06
-1.4709e-05 -5.08298e-06 -0.000155112
0.00160541 0.000292707 3.00705e-06
0.000292707 0.000168196 4.26528e-07
3.00705e-06 4.26528e-07 -2.26731e-05
0.00172375 0.000344996 -1.88679e-07
0.000344996 8.7054e-05 -2.98654e-06
-1.88679e-07 -2.98654e-06 -9.19761e-05
0.000427986 0.000182292 -2.25936e-05
0.000182292 -0.000148023 -1.37561e-05
-2.25936e-05 -1.37561e-05 -0.000253404
0.000945723 0.000197523 -5.95921e-07
0.000197523 -1.85836e-05 1.09899e-07
-5.95921e-07 1.09899e-07 -0.000186049
0.001377 0.000314675 7.09902e-06
0.000314675 9.10022e-05 1.12892e-06
7.09902e-06 1.12892e-06 -0.000123138
0.000849404 0.000194523 1.29596e-05
0.000194523 -2.23489e-05 6.5006e-06
1.29596e-05 6.5006e-06 -0.000193004
0.000475806 0.000206257 1.2457e-06
0.000206257 -0.000100761 7.37445e-07
1.2457e-06 7.37445e-07 -0.000213271
0.00625078 3.40688e-05 -0.000229567
3.40688e-05 0.00347967 -2.70284e-05
-0.000229567 -2.70284e-05 0.00346706
0.00046541 0.000189594 2.26351e-05
0.000189594 -9.84969e-05 1.6182e-05
2.26351e-05 1.6182e-05 -0.000204058
0.00597884 -8.87215e-05 5.93626e-06
-8.87215e-05 0.00332344 -7.85252e-07
5.93626e-06 -7.85252e-07 0.00331042
0.00520444 -0.000203248 0.000143932
-0.000203248 0.00287912 7.76612e-06
0.000143932 7.76612e-06 0.00285264
0.00191571 0.000110874 -5.24177e-06
0.000110874 4.95057e-05 -4.98707e-07
-5.24177e-06 -4.98707e-07 6.45126e-06
0.0019776 0.000160273 1.2071e-06
0.000160273 3.92281e-05 5.64031e-07
1.2071e-06 5.64031e-07 -5.50793e-06
0.00211796 0.000204548 5.2301e-07
0.000204548 -6.62087e-06 -3.82003e-07
5.2301e-07 -3.82003e-07 -1.29588e-05
0.00204107 0.000283689 3.62938e-06
0.000283689 0.000120791 2.73285e-07
3.62938e-06 2.73285e-07 1.91768e-05
0.001732 8.02119e-06 -2.98274e-06
8.02119e-06 -2.23838e-05 -2.11635e-07
-2.98274e-06 -2.11635e-07 -7.92118e-05
0.00190335 4.98582e-05 1.68244e-07
4.98582e-05 1.33479e-05 1.2324e-07
1.68244e-07 1.2324e-07 -7.30977e-06
0.00197987 4.63732e-05 1.12388e-06
4.63732e-05 1.21624e-05 -2.12747e-07
1.12388e-06 -2.12747e-07 6.19419e-06
0.00189995 -1.22578e-05 2.46952e-06
-1.22578e-05 2.37294e-05 -5.72338e-07
2.46952e-06 -5.72338e-07 2.8981e-06
0.00186534 -2.86902e-05 -1.67546e-06
-2.86902e-05 3.89612e-05 1.96409e-07
-1.67546e-06 1.96409e-07 -9.99692e-06
0.00175889 -3.59198e-05 6.18225e-07
-3.59198e-05 2.83078e-05 -7.1371e-07
6.18225e-07 -7.1371e-07 -5.6608e-05
0.00185612 -8.6045e-05 8.12941e-07
-8.6045e-05 2.81255e-05 3.98908e-07
8.12941e-07 3.98908e-07 -2.51758e-05
0.00186058 -9.09844e-05 -8.30389e-07
-9.09844e-05 8.788e-05 4.6914e-07
-8.30389e-07 4.6914e-07 -3.46008e-06
0.00169538 -6.96732e-05 -1.81884e-06
-6.96732e-05 0.000131269 -4.37718e-07
-1.81884e-06 -4.37718e-07 1.13192e-05
0.00190008 -0.000151579 3.08032e-06
-0.000151579 0.000115352 -2.6259e-07
3.08032e-06 -2.6259e-07 1.18833e-05
0.00160735 -0.000113978 1.05551e-06
-0.000113978 8.53546e-05 -3.75697e-07
1.05551e-06 -3.75697e-07 -4.93842e-05
0.000999559 -7.02326e-05 -1.23389e-05
-7.02326e-05 -4.61744e-05 1.99716e-06
-1.23389e-05 1.99716e-06 -0.000181207
0.00160271 -0.000161427 1.89178e-06
-0.000161427 0.000100338 -2.92734e-08
1.89178e-06 -2.92734e-08 -4.69264e-05
0.00100963 -9.79917e-05 -9.92393e-08
-9.79917e-05 -3.40199e-05 2.1128e-07
-9.92393e-08 2.1128e-07 -0.000174874
0.000530442 -8.5029e-05 -1.99499e-05
-8.5029e-05 -0.000136863 5.24996e-06
-1.99499e-05 5.24996e-06 -0.000219094
0.00104344 -0.000120843 1.29997e-05
-0.000120843 -5.99256e-06 -3.43067e-06
1.29997e-05 -3.43067e-06 -0.000151771
0.00158284 -9.91883e-05 5.24204e-05
-9.91883e-05 0.000507805 -3.64485e-06
5.24204e-05 -3.64485e-06 0.000434551
0.00592695 -0.000134905 -0.000268561
-0.000134905 0.00324747 1.79943e-05
-0.000268561 1.79943e-05 0.00325796
0.00272684 -0.000134652 0.000125677
-0.000134652 0.00120288 -1.45046e-05
0.000125677 -1.45046e-05 0.00114114
0.00165426 -5.90057e-05 -7.35961e-05
-5.90057e-05 0.000655873 6.40011e-06
-7.35961e-05 6.40011e-06 0.000628178
0.00133568 -7.51882e-05 5.53958e-05
-7.51882e-05 0.00048058 -7.97425e-06
5.53958e-05 -7.97425e-06 0.000438807
0.00197608 0.000130863 -2.25347e-06
0.000130863 0.000126782 1.01561e-06
-2.25347e-06 1.01561e-06 5.56644e-05
0.0019218 0.000190349 2.01531e-07
0.000190349 0.00013747 1.48738e-06
2.01531e-07 1.48738e-06 2.0931e-05
0.0019674 0.000173298 7.00835e-07
0.000173298 0.000103997 3.5607e-07
7.00835e-07 3.5607e-07 1.53217e-05
0.0016764 0.000216883 -2.03649e-06
0.000216883 0.000133778 2.21185e-07
-2.03649e-06 2.21185e-07 -2.11833e-05
0.00188207 0.000258681 5.79253e-07
0.000258681 0.00012907 1.64613e-08
5.79253e-07 1.64613e-08 -1.26118e-05
0.00190045 0.000285896 1.02884e-06
0.000285896 5.60202e-05 3.50806e-07
1.02884e-06 3.50806e-07 -6.43787e-05
0.000888796 0.000155886 -1.59486e-05
0.000155886 -0.000110549 -4.26355e-06
-1.59486e-05 -4.26355e-06 -0.000262746
0.00183567 0.000271202 2.62572e-06
0.000271202 0.00026412 6.64054e-07
2.62572e-06 6.64054e-07 9.20805e-05
0.0018324 0.000304686 -3.81511e-07
0.000304686 0.000146887 -7.42497e-07
-3.81511e-07 -7.42497e-07 -1.65486e-05
0.000420758 0.000131735 -1.95476e-05
0.000131735 -0.000174752 -1.04366e-05
-1.95476e-05 -1.04366e-05 -0.000269815
0.000889851 0.000178173 3.87098e-07
0.000178173 -8.5991e-05 3.10096e-07
3.87098e-07 3.10096e-07 -0.000245942
0.00149097 0.000290897 8.42891e-06
0.000290897 9.18689e-05 7.72468e-07
8.42891e-06 7.72468e-07 -9.82277e-05
0.00623609 0.000117736 -0.000241612
0.000117736 0.00344905 -2.67447e-05
-0.000241612 -2.67447e-05 0.0034455
0.000440732 0.000171971 7.59529e-07
0.000171971 -0.000140552 7.33265e-07
7.59529e-07 7.33265e-07 -0.000246801
0.000910219 0.000193627 1.42581e-05
0.000193627 -3.53134e-05 5.99828e-06
1.42581e-05 5.99828e-06 -0.000201978
0.000406252 0.000189483 2.09857e-05
0.000189483 -0.000138872 1.58642e-05
2.09857e-05 1.58642e-05 -0.000252306
0.0061294 2.31156e-05 9.71486e-06
2.31156e-05 0.00339748 -1.25919e-08
9.71486e-06 -1.25919e-08 0.00339187
0.0058257 -0.000122576 0.000194347
-0.000122576 0.00322428 1.05144e-05
0.000194347 1.05144e-05 0.0032139
0.00183985 6.47529e-05 -6.1629e-06
6.47529e-05 4.32028e-05 -8.75574e-07
-6.1629e-06 -8.75574e-07 -1.49373e-05
0.00190349 0.00010915 2.3704e-07
0.00010915 3.70871e-05 3.44778e-07
2.3704e-07 3.44778e-07 -5.99339e-06
0.00192563 0.000161402 2.57732e-06
0.000161402 7.54527e-06 5.09903e-07
2.57732e-06 5.09903e-07 -3.49379e-05
0.0017774 3.43391e-06 1.35612e-06
3.43391e-06 5.18609e-05 -3.09552e-07
1.35612e-06 -3.09552e-07 -3.63977e-05
0.00180554 1.27534e-05 4.98747e-08
1.27534e-05 2.38261e-05 -3.88227e-08
4.98747e-08 -3.88227e-08 -2.9817e-05
0.00189124 3.95663e-05 2.68857e-06
3.95663e-05 5.55101e-06 -2.89403e-07
2.68857e-06 -2.89403e-07 -1.61186e-05
0.00193565 -2.40563e-05 1.04686e-06
-2.40563e-05 8.4527e-05 3.61647e-07
1.04686e-06 3.61647e-07 3.76263e-05
0.00182208 -3.43256e-05 2.88626e-07
-3.43256e-05 6.7167e-05 7.10108e-08
2.88626e-07 7.10108e-08 -1.6007e-05
0.00178584 -2.90375e-05 7.87741e-07
-2.90375e-05 0.000199892 -5.09341e-07
7.87741e-07 -5.09341e-07 8.5331e-05
0.00182396 -9.09246e-05 -1.67024e-06
-9.09246e-05 6.94158e-05 1.2373e-06
-1.67024e-06 1.2373e-06 -2.82091e-05
0.00169992 -7.03054e-05 2.34717e-07
-7.03054e-05 0.000137087 6.65621e-08
2.34717e-07 6.65621e-08 1.36997e-05
0.000878998 -3.73449e-05 -1.34888e-05
-3.73449e-05 -0.000124703 1.23093e-06
-1.34888e-05 1.23093e-06 -0.000253467
0.00159136 -0.000113959 2.54685e-06
-0.000113959 7.25246e-05 -2.47765e-07
2.54685e-06 -2.47765e-07 -6.2102e-05
0.00100454 -6.69157e-05 -7.92573e-08
-6.69157e-05 -4.35962e-05 8.64863e-08
-7.92573e-08 8.64863e-08 -0.000178026
0.000534528 -2.16856e-05 -1.86179e-05
-2.16856e-05 -0.000137599 3.24356e-06
-1.86179e-05 3.24356e-06 -0.000216749
0.00103925 -9.68534e-05 1.25049e-05
-9.68534e-05 -1.7806e-05 -2.45296e-06
1.25049e-05 -2.45296e-06 -0.000158051
0.000532816 -6.88703e-05 -1.70826e-07
-6.88703e-05 -0.000133539 4.04402e-07
-1.70826e-07 4.04402e-07 -0.000216945
0.00590488 -2.90222e-05 -0.000259357
-2.90222e-05 0.0032299 1.09192e-05
-0.000259357 1.09192e-05 0.00324355
0.00056603 -7.10989e-05 1.55296e-05
-7.10989e-05 -0.00011299 -7.15107e-06
1.55296e-05 -7.15107e-06 -0.000199687
0.00372823 -8.83949e-05 0.000117791
-8.83949e-05 0.0019161 -5.11117e-06
0.000117791 -5.11117e-06 0.00190024
0.00130004 -7.88849e-05 6.16437e-05
-7.88849e-05 0.000459739 -8.27624e-06
6.16437e-05 -8.27624e-06 0.000416756
0.0019395 0.000106378 -3.98933e-06
0.000106378 0.000122786 -1.43513e-07
-3.98933e-06 -1.43513e-07 5.22015e-05
0.00186542 0.000129442 2.04701e-06
0.000129442 0.000112354 2.31682e-06
2.04701e-06 2.31682e-06 8.9488e-06
0.00192033 0.000124751 2.38798e-07
0.000124751 9.05791e-05 8.33013e-08
2.38798e-07 8.33013e-08 2.06773e-05
0.00161217 0.00015893 -1.00922e-06
0.00015893 8.48093e-05 2.46051e-07
-1.00922e-06 2.46051e-07 -5.87469e-05
0.00192204 0.00019005 5.4195e-07
0.00019005 0.000133339 1.36677e-07
5.4195e-07 1.36677e-07 1.54898e-05
0.001961 0.000169562 1.70053e-06
0.000169562 0.000105795 -8.6851e-07
1.70053e-06 -8.6851e-07 1.64436e-05
0.000906964 0.000127719 -1.46846e-05
0.000127719 -0.000111938 -3.20583e-06
-1.46846e-05 -3.20583e-06 -0.000255942
0.00172778 0.000216692 5.41483e-07
0.000216692 0.000169893 4.09696e-07
5.41483e-07 4.09696e-07 1.31358e-05
0.00182809 0.000254008 6.35257e-07
0.000254008 9.89306e-05 -6.16156e-07
6.35257e-07 -6.16156e-07 -4.22299e-05
0.00043881 9.34213e-05 -1.80796e-05
9.34213e-05 -0.000182349 -7.4993e-06
-1.80796e-05 -7.4993e-06 -0.000269514
0.000839953 0.000153156 -2.31892e-06
0.000153156 -0.0001388 -1.82957e-07
-2.31892e-06 -1.82957e-07 -0.000290831
0.00184415 0.000271514 7.16426e-06
0.000271514 0.000268499 1.46666e-06
7.16426e-06 1.46666e-06 9.66788e-05
0.00614093 0.000188198 -0.000259427
0.000188198 0.00338241 -2.58196e-05
-0.000259427 -2.58196e-05 0.00338363
0.000443459 0.000128187 1.5393e-07
0.000128187 -0.000162315 4.09251e-07
1.5393e-07 4.09251e-07 -0.000257826
0.000746222 0.000171374 1.42667e-05
0.000171374 -0.000173505 5.07303e-06
1.42667e-05 5.07303e-06 -0.000333566
0.00615548 0.000132533 1.31846e-05
0.000132533 0.00340435 2.14333e-06
1.31846e-05 2.14333e-06 0.00340045
0.000439669 0.000160535 1.9798e-05
0.000160535 -0.000141338 1.36281e-05
1.9798e-05 1.36281e-05 -0.000248278
0.00603583 -9.68569e-06 0.000225496
-9.68569e-06 0.00332959 1.59475e-05
0.000225496 1.59475e-05 0.0033312
0.00185377 4.48062e-05 -2.58373e-07
4.48062e-05 8.59155e-05 -4.92251e-07
-2.58373e-07 -4.92251e-07 -1.30799e-06
0.00186354 6.46919e-05 -1.64955e-06
6.46919e-05 6.78759e-05 2.34758e-07
-1.64955e-06 2.34758e-07 8.12772e-06
0.00188478 0.000107182 4.55758e-06
0.000107182 2.05697e-05 5.63137e-07
4.55758e-06 5.63137e-07 -2.24502e-05
0.0017891 -2.85749e-06 1.62284e-06
-2.85749e-06 0.00020387 -3.09967e-07
1.62284e-06 -3.09967e-07 9.0787e-05
0.00175737 3.82471e-06 -5.5103e-07
3.82471e-06 3.62204e-05 -7.03423e-08
-5.5103e-07 -7.03423e-08 -5.00393e-05
0.00185345 1.89501e-05 5.20045e-06
1.89501e-05 5.37325e-05 6.89268e-07
5.20045e-06 6.89268e-07 3.02024e-06
0.00188273 -3.334e-05 -4.01505e-07
-3.334e-05 0.000104813 6.86826e-07
-4.01505e-07 6.86826e-07 2.32448e-05
0.00178766 -2.84296e-05 2.93524e-06
-2.84296e-05 0.000200432 -3.29582e-07
2.93524e-06 -3.29582e-07 8.59109e-05
0.000879747 -1.33587e-05 -1.30366e-05
-1.33587e-05 -0.000119987 4.80181e-07
-1.30366e-05 4.80181e-07 -0.000245093
0.00170613 -7.1209e-05 1.71268e-06
-7.1209e-05 0.0001437 2.63682e-07
1.71268e-06 2.63682e-07 1.6855e-05
0.000939636 -3.71883e-05 -1.62018e-06
-3.71883e-05 -8.66335e-05 1.33443e-07
-1.62018e-06 1.33443e-07 -0.000215845
0.000535161 -7.14024e-06 -1.88346e-05
-7.14024e-06 -0.000139284 2.11365e-06
-1.88346e-05 2.11365e-06 -0.000216435
0.00101231 -6.47824e-05 1.18435e-05
-6.47824e-05 -3.87661e-05 -1.80591e-06
1.18435e-05 -1.80591e-06 -0.000172718
0.000513153 -3.326e-05 8.68473e-07
-3.326e-05 -0.00015142 -1.49455e-07
8.68473e-07 -1.49455e-07 -0.000229488
0.00580226 -0.000126118 -0.000265689
-0.000126118 0.003179 1.17974e-05
-0.000265689 1.17974e-05 0.00318851
0.000501661 -5.20591e-05 1.79627e-05
-5.20591e-05 -0.000152221 -4.01761e-06
1.79627e-05 -4.01761e-06 -0.000235329
0.00586921 -6.53564e-05 7.62188e-06
-6.53564e-05 0.0032099 -6.2087e-08
7.62188e-06 -6.2087e-08 0.00322357
0.00164316 -2.59397e-05 0.000209861
-2.59397e-05 0.00064007 -1.24269e-05
0.000209861 -1.24269e-05 0.000628327
0.0017882 8.80462e-05 1.57149e-06
8.80462e-05 5.59004e-05 5.65733e-07
1.57149e-06 5.65733e-07 -4.31069e-05
0.00186722 0.000108389 -3.67411e-06
0.000108389 7.56823e-05 -1.00155e-06
-3.67411e-06 -1.00155e-06 7.88868e-06
0.00161094 0.000106105 -1.44426e-07
0.000106105 8.18744e-05 4.28996e-07
-1.44426e-07 4.28996e-07 -4.975e-05
0.00187417 0.000129107 7.54387e-07
0.000129107 0.000114563 1.43932e-07
7.54387e-07 1.43932e-07 1.10048e-05
0.00186914 0.000118956 2.61685e-06
0.000118956 5.6588e-05 -2.01876e-06
2.61685e-06 -2.01876e-06 -1.20789e-05
0.00106495 9.69604e-05 -1.26239e-05
9.69604e-05 -1.39771e-05 -2.23322e-06
-1.26239e-05 -2.23322e-06 -0.000150119
0.00161378 0.00015835 1.491e-07
0.00015835 8.84318e-05 3.10967e-08
1.491e-07 3.10967e-08 -5.52247e-05
0.00191947 0.000189602 8.02277e-07
0.000189602 0.00012767 -1.07004e-06
8.02277e-07 -1.07004e-06 8.52197e-06
0.000475318 6.7201e-05 -1.77207e-05
6.7201e-05 -0.000171343 -5.41844e-06
-1.77207e-05 -5.41844e-06 -0.00025422
0.000945779 0.000129416 -2.37733e-06
0.000129416 -8.57913e-05 -1.25278e-07
-2.37733e-06 -1.25278e-07 -0.000230205
0.00178088 0.000216352 3.39448e-06
0.000216352 0.000207368 7.87523e-07
3.39448e-06 7.87523e-07 4.88543e-05
0.00604517 0.000221792 -0.000276949
0.000221792 0.00332988 -2.45813e-05
-0.000276949 -2.45813e-05 0.00332991
0.000475215 9.44233e-05 -6.78461e-08
9.44233e-05 -0.000161744 1.85392e-07
-6.78461e-08 1.85392e-07 -0.000249212
0.000793225 0.000150562 1.02836e-05
0.000150562 -0.000166065 3.66813e-06
1.02836e-05 3.66813e-06 -0.00031787
0.00610797 0.000209488 1.10008e-05
0.000209488 0.0033734 3.67201e-06
1.10008e-05 3.67201e-06 0.00336959
0.000471162 0.000123044 1.86262e-05
0.000123044 -0.000147421 1.0512e-05
1.86262e-05 1.0512e-05 -0.000242955
0.00610537 0.00012875 0.000249884
0.00012875 0.00336373 2.32396e-05
0.000249884 2.32396e-05 0.00336695
0.00175955 3.40655e-05 2.64588e-06
3.40655e-05 0.000180782 1.36636e-07
2.64588e-06 1.36636e-07 6.60413e-05
0.00183335 4.15691e-05 -1.83185e-06
4.15691e-05 7.78891e-05 9.74732e-08
-1.83185e-06 9.74732e-08 -1.09253e-05
0.00189118 6.42182e-05 1.96554e-06
6.42182e-05 9.51433e-05 3.90517e-07
1.96554e-06 3.90517e-07 3.37815e-05
0.000866189 -7.4895e-06 -1.35364e-05
-7.4895e-06 -0.000121188 -1.72568e-07
-1.35364e-05 -1.72568e-07 -0.000244967
0.00178427 2.67405e-06 3.3901e-06
2.67405e-06 0.00020079 -1.1921e-07
3.3901e-06 -1.1921e-07 8.771e-05
0.00175597 3.85684e-06 -1.10928e-06
3.85684e-06 3.2129e-05 5.094e-07
-1.10928e-06 5.094e-07 -5.18129e-05
0.00179263 -2.80914e-05 4.93194e-06
-2.80914e-05 0.000202861 1.68546e-07
4.93194e-06 1.68546e-07 8.83852e-05
0.000873274 -1.37515e-05 -1.19434e-06
-1.37515e-05 -0.000125165 6.59363e-08
-1.19434e-06 6.59363e-08 -0.000250458
0.00053833 -3.0815e-05 -1.92844e-05
-3.0815e-05 -0.0001378 8.96965e-07
-1.92844e-05 8.96965e-07 -0.000212469
0.000981771 -3.61606e-05 1.0737e-05
-3.61606e-05 -5.95993e-05 -1.215e-06
1.0737e-05 -1.215e-06 -0.000189282
0.000514911 3.98868e-06 3.34051e-07
3.98868e-06 -0.000152101 6.1266e-08
3.34051e-07 6.1266e-08 -0.00022841
0.00578781 -0.00010108 -0.000269859
-0.00010108 0.00316854 8.55909e-06
-0.000269859 8.55909e-06 0.00318053
0.000523526 -3.88387e-05 1.88149e-05
-3.88387e-05 -0.000143167 -2.79304e-06
1.88149e-05 -2.79304e-06 -0.000222338
0.00581797 -2.05216e-05 -3.04516e-06
-2.05216e-05 0.00317835 2.05016e-06
-3.04516e-06 2.05016e-06 0.00319399
0.00585803 -8.16161e-05 0.000265104
-8.16161e-05 0.00320274 -1.04127e-05
0.000265104 -1.04127e-05 0.00321718
0.00157341 6.26303e-05 3.98627e-09
6.26303e-05 6.09335e-05 2.56015e-07
3.98627e-09 2.56015e-07 -6.38196e-05
0.00180904 8.94449e-05 -2.3201e-06
8.94449e-05 6.46642e-05 -1.3562e-06
-2.3201e-06 -1.3562e-06 -2.92201e-05
0.00176791 0.000110094 -2.24354e-06
0.000110094 1.2512e-05 -9.41169e-07
-2.24354e-06 -9.41169e-07 -5.26359e-05
0.00106625 5.95792e-05 -1.23103e-05
5.95792e-05 -1.09532e-05 -1.70511e-06
-1.23103e-05 -1.70511e-06 -0.000140446
0.00159733 0.000105167 2.01324e-07
0.000105167 7.54275e-05 -1.09525e-08
2.01324e-07 -1.09525e-08 -5.64893e-05
0.0018795 0.000128612 -3.47964e-07
0.000128612 0.000115121 -1.79227e-06
-3.47964e-07 -1.79227e-06 1.14105e-05
0.000505731 4.35489e-05 -1.73464e-05
4.35489e-05 -0.000156511 -3.89263e-06
-1.73464e-05 -3.89263e-06 -0.000236654
0.00103095 9.82385e-05 2.93099e-07
9.82385e-05 -3.45988e-05 2.49974e-07
2.93099e-07 2.49974e-07 -0.000171487
0.0016153 0.000157796 1.68503e-06
0.000157796 9.16154e-05 -1.25852e-07
1.68503e-06 -1.25852e-07 -5.21614e-05
0.00593466 0.00019927 -0.000287758
0.00019927 0.00326481 -2.08646e-05
-0.000287758 -2.08646e-05 0.00326793
0.00050632 7.16193e-05 3.55259e-07
7.16193e-05 -0.000152651 1.41845e-07
3.55259e-07 1.41845e-07 -0.000236315
0.000983627 0.000131077 1.03358e-05
0.000131077 -6.04694e-05 3.03837e-06
1.03358e-05 3.03837e-06 -0.000205251
0.00605282 0.000235893 6.36825e-06
0.000235893 0.00334072 3.06621e-06
6.36825e-06 3.06621e-06 0.00333823
0.000515148 9.71113e-05 1.79916e-05
9.71113e-05 -0.000138106 8.03757e-06
1.79916e-05 8.03757e-06 -0.00022623
0.00610113 0.000235584 0.000268531
0.000235584 0.00337212 2.91154e-05
0.000268531 2.91154e-05 0.0033671
0.00100467 1.73919e-05 -1.28068e-05
1.73919e-05 -3.30538e-05 -6.47081e-07
-1.28068e-05 -6.47081e-07 -0.000157889
0.00168955 3.00092e-05 3.80305e-06
3.00092e-05 0.000137953 1.04727e-07
3.80305e-06 1.04727e-07 2.39147e-05
0.00181503 3.8049e-05 -4.38485e-06
3.8049e-05 7.1021e-05 -3.46011e-08
-4.38485e-06 -3.46011e-08 -1.94187e-05
0.000570901 3.08284e-05 -1.98544e-05
3.08284e-05 -0.000125834 -6.0091e-07
-1.98544e-05 -6.0091e-07 -0.000193214
0.000847966 -1.82329e-06 -1.42817e-06
-1.82329e-06 -0.000133185 6.14433e-08
-1.42817e-06 6.14433e-08 -0.00025708
0.00178214 9.0797e-06 5.16747e-06
9.0797e-06 0.000199372 6.34445e-08
5.16747e-06 6.34445e-08 8.62727e-05
0.000862965 -1.37346e-05 1.07498e-05
-1.37346e-05 -0.000132782 -4.12949e-07
1.07498e-05 -4.12949e-07 -0.000258248
0.000533468 -5.06347e-06 3.39081e-07
-5.06347e-06 -0.000140515 3.69612e-07
3.39081e-07 3.69612e-07 -0.000215412
0.00574223 3.04448e-05 -0.000274561
3.04448e-05 0.00313547 9.79068e-08
-0.000274561 9.79068e-08 0.00315247
0.00049384 1.54622e-05 1.83376e-05
1.54622e-05 -0.000166093 -1.23576e-06
1.83376e-05 -1.23576e-06 -0.000241242
0.00576396 -9.94402e-05 -7.79794e-06
-9.94402e-05 0.00315511 1.70562e-06
-7.79794e-06 1.70562e-06 0.00316675
0.00576901 -1.6395e-06 0.000255027
-1.6395e-06 0.00314906 -4.95193e-06
0.000255027 -4.95193e-06 0.00316459
0.00103549 3.279e-05 -1.26247e-05
3.279e-05 -2.13656e-05 -1.34652e-06
-1.26247e-05 -1.34652e-06 -0.000147254
0.00158769 6.0882e-05 -2.16962e-07
6.0882e-05 7.02546e-05 -6.46569e-08
-2.16962e-07 -6.46569e-08 -5.14314e-05
0.00185209 9.10535e-05 -4.47453e-06
9.10535e-05 8.68984e-05 -2.20921e-06
-4.47453e-06 -2.20921e-06 -1.7751e-06
0.00264438 5.57841e-05 -0.000129668
5.57841e-05 0.00113927 -4.33803e-06
-0.000129668 -4.33803e-06 0.00108967
0.0010221 6.12373e-05 3.14562e-07
6.12373e-05 -3.77014e-05 1.15253e-07
3.14562e-07 1.15253e-07 -0.000167755
0.00158591 0.000104194 1.4621e-06
0.000104194 7.03145e-05 -3.11804e-07
1.4621e-06 -3.11804e-07 -6.19004e-05
0.00583734 0.000150768 -0.000288586
0.000150768 0.00320186 -1.52278e-05
-0.000288586 -1.52278e-05 0.00321096
0.000539676 6.17599e-05 8.62829e-07
6.17599e-05 -0.000133892 3.88137e-07
8.62829e-07 3.88137e-07 -0.000215827
0.000999765 9.95629e-05 1.24993e-05
9.95629e-05 -5.34296e-05 2.66902e-06
1.24993e-05 2.66902e-06 -0.000191039
0.00599494 0.000212247 1.76278e-06
0.000212247 0.0033028 1.64185e-06
1.76278e-06 1.64185e-06 0.00330483
0.000548051 7.89152e-05 1.82437e-05
7.89152e-05 -0.000126337 6.29156e-06
1.82437e-05 6.29156e-06 -0.000211438
0.00605558 0.000266262 0.000280209
0.000266262 0.00335301 3.0263e-05
0.000280209 3.0263e-05 0.00334478
0.000623954 1.03116e-05 -1.6207e-05
1.03116e-05 -8.34392e-05 -1.82236e-06
-1.6207e-05 -1.82236e-06 -0.000159514
0.000921183 1.61923e-05 5.71329e-07
1.61923e-05 -8.61765e-05 2.49312e-07
5.71329e-07 2.49312e-07 -0.000210725
0.00161825 2.50536e-05 4.14946e-06
2.50536e-05 9.40913e-05 -3.82532e-09
4.14946e-06 -3.82532e-09 -1.91957e-05
0.0056037 -9.61958e-05 -0.000258304
-9.61958e-05 0.00306865 2.12228e-06
-0.000258304 2.12228e-06 0.00307547
0.000529949 8.3442e-06 -5.6036e-07
8.3442e-06 -0.000146058 3.18286e-08
-5.6036e-07 3.18286e-08 -0.000216026
0.000845325 2.92655e-06 1.0621e-05
2.92655e-06 -0.000136022 6.50071e-08
1.0621e-05 6.50071e-08 -0.000259979
0.000491073 2.07992e-05 1.85867e-05
2.07992e-05 -0.000166977 2.19478e-07
1.85867e-05 2.19478e-07 -0.000241056
0.00569101 -5.44885e-06 2.31032e-06
-5.44885e-06 0.00310956 -1.20821e-06
2.31032e-06 -1.20821e-06 0.00312277
0.00576848 -1.78746e-05 0.000263483
-1.78746e-05 0.00314734 -3.01296e-06
0.000263483 -3.01296e-06 0.00316425
0.00272222 1.12656e-05 -0.000125558
1.12656e-05 0.00118372 -2.61003e-06
-0.000125558 -2.61003e-06 0.00113608
0.00102066 3.58891e-05 6.71374e-08
3.58891e-05 -3.20658e-05 6.54457e-08
6.71374e-08 6.54457e-08 -0.000158382
0.00159416 5.9248e-05 1.39797e-06
5.9248e-05 7.50977e-05 -4.40682e-07
1.39797e-06 -4.40682e-07 -4.35163e-05
0.00539918 -4.69134e-05 -0.000101328
-4.69134e-05 0.00294758 5.19605e-07
-0.000101328 5.19605e-07 0.00293471
0.000555064 5.41384e-05 8.35558e-08
5.41384e-05 -0.000125429 2.17991e-07
8.35558e-08 2.17991e-07 -0.000203634
0.000994914 6.34913e-05 1.21612e-05
6.34913e-05 -5.48469e-05 1.94881e-06
1.21612e-05 1.94881e-06 -0.000185403
0.00589695 0.000123694 -1.06653e-05
0.000123694 0.0032331 -1.47925e-06
-1.06653e-05 -1.47925e-06 0.0032437
0.000570035 8.45444e-05 1.95907e-05
8.45444e-05 -0.000114922 5.33856e-06
1.95907e-05 5.33856e-06 -0.000197675
0.00602701 0.000236387 0.00029018
0.000236387 0.00332933 2.69164e-05
0.00029018 2.69164e-05 0.00332807
0.0017016 -5.20053e-05 -0.00021179
-5.20053e-05 0.000672253 9.58053e-07
-0.00021179 9.58053e-07 0.000666977
0.00163573 2.80554e-05 -5.3036e-05
2.80554e-05 0.00052299 1.98838e-07
-5.3036e-05 1.98838e-07 0.000465936
0.00083375 1.7565e-05 1.24409e-05
1.7565e-05 -0.000141247 9.11993e-07
1.24409e-05 9.11993e-07 -0.000265584
0.00567499 -4.31502e-05 7.38483e-06
-4.31502e-05 0.00310582 1.89096e-06
7.38483e-06 1.89096e-06 0.00311732
0.000547303 -1.24937e-05 1.91848e-05
-1.24937e-05 -0.0001297 7.73674e-07
1.91848e-05 7.73674e-07 -0.00020327
0.00573093 -7.12573e-05 0.000277075
-7.12573e-05 0.00313574 -3.13999e-06
0.000277075 -3.13999e-06 0.00314915
0.00128958 1.68259e-05 -4.87352e-05
1.68259e-05 0.000447358 -8.03945e-07
-4.87352e-05 -8.03945e-07 0.000412004
0.00162489 1.50798e-05 -5.35036e-05
1.50798e-05 0.000519668 -9.28245e-07
-5.35036e-05 -9.28245e-07 0.000459106
0.00099617 3.76066e-05 1.23899e-05
3.76066e-05 -4.84255e-05 1.52188e-06
1.23899e-05 1.52188e-06 -0.000175195
0.00356736 5.8223e-05 0.000102262
5.8223e-05 0.00181923 2.67608e-06
0.000102262 2.67608e-06 0.00180952
0.000563391 6.46846e-05 1.98869e-05
6.46846e-05 -0.000120388 4.0982e-06
1.98869e-05 4.0982e-06 -0.000198595
0.00596041 0.00011208 0.000277215
0.00011208 0.00326498 1.61702e-05
0.000277215 1.61702e-05 0.00327889
0.00563116 -2.05158e-05 -8.91462e-06
-2.05158e-05 0.00308197 -2.50343e-06
-8.91462e-06 -2.50343e-06 0.00309247
0.000546978 4.66343e-05 2.06579e-05
4.66343e-05 -0.000139903 2.18428e-06
2.06579e-05 2.18428e-06 -0.00020696
0.00558923 4.48002e-05 0.000264779
4.48002e-05 0.00305037 1.96309e-07
0.000264779 1.96309e-07 0.00306508
0.00348817 2.87857e-05 0.000115359
2.87857e-05 0.00177535 4.01686e-06
0.000115359 4.01686e-06 0.00176664
0.000576095 6.49116e-06 1.90818e-05
6.49116e-06 -0.000113764 2.6843e-06
1.90818e-05 2.6843e-06 -0.000188107
0.00581106 -1.39021e-05 0.000267144
-1.39021e-05 0.00317648 7.06845e-06
0.000267144 7.06845e-06 0.00319086
0.00567531 -0.000123142 0.000261753
-0.000123142 0.00311353 -3.57817e-06
0.000261753 -3.57817e-06 0.00311939
0.00566897 -1.50695e-06 0.00026207
-1.50695e-06 0.00308942 3.89669e-06
0.00026207 3.89669e-06 0.00310693
